    1C
    1USimple_beam.                                                      
    1UUSER                                                              
    1UDATE              16.february.2025                                
    1UTIME              21:23:26                                        
    1UHOST                                                              
    1UPGM               CalculiX                                        
    1UVERSION           Version 2.22                             
    1UCOMPILETIME       Sun Aug  4 19:39:24     2024                    
    1UDIR                                                               
    1UDBN                                                               
    1UMAT    1STEEL                                                     
    1PSTEP                         1           1           1          
    1PGM                1.000000E+00                                  
    1PGK                2.759255E+07                                  
    1PHID                         -1                                  
    1PSUBC                         0                                  
    1PMODE                         1                                  
  100CL  101 836.0187730        4403                     2    1MODAL      1
 -4  DISP        4    1
 -5  D1          1    2    1    0
 -5  D2          1    2    2    0
 -5  D3          1    2    3    0
 -5  ALL         1    2    0    0    1ALL
 -1         1 0.00000E+00 0.00000E+00 0.00000E+00
 -1         2 0.00000E+00 0.00000E+00 0.00000E+00
 -1         3 0.00000E+00 0.00000E+00 0.00000E+00
 -1         4 0.00000E+00 0.00000E+00 0.00000E+00
 -1         5-1.25300E+01 3.91371E+01 2.22273E+02
 -1         6 1.78856E+01 3.91378E+01 2.22272E+02
 -1         7-1.78855E+01 3.91367E+01 2.22273E+02
 -1         8 1.25301E+01 3.91382E+01 2.22274E+02
 -1         9 0.00000E+00 0.00000E+00 0.00000E+00
 -1        10 0.00000E+00 0.00000E+00 0.00000E+00
 -1        11 0.00000E+00 0.00000E+00 0.00000E+00
 -1        12 0.00000E+00 0.00000E+00 0.00000E+00
 -1        13 0.00000E+00 0.00000E+00 0.00000E+00
 -1        14 0.00000E+00 0.00000E+00 0.00000E+00
 -1        15 0.00000E+00 0.00000E+00 0.00000E+00
 -1        16 0.00000E+00 0.00000E+00 0.00000E+00
 -1        17 0.00000E+00 0.00000E+00 0.00000E+00
 -1        18 0.00000E+00 0.00000E+00 0.00000E+00
 -1        19 0.00000E+00 0.00000E+00 0.00000E+00
 -1        20 0.00000E+00 0.00000E+00 0.00000E+00
 -1        21 0.00000E+00 0.00000E+00 0.00000E+00
 -1        22 0.00000E+00 0.00000E+00 0.00000E+00
 -1        23 0.00000E+00 0.00000E+00 0.00000E+00
 -1        24 0.00000E+00 0.00000E+00 0.00000E+00
 -1        25 0.00000E+00 0.00000E+00 0.00000E+00
 -1        26 0.00000E+00 0.00000E+00 0.00000E+00
 -1        27 0.00000E+00 0.00000E+00 0.00000E+00
 -1        28 0.00000E+00 0.00000E+00 0.00000E+00
 -1        29 0.00000E+00 0.00000E+00 0.00000E+00
 -1        30 0.00000E+00 0.00000E+00 0.00000E+00
 -1        31 0.00000E+00 0.00000E+00 0.00000E+00
 -1        32 0.00000E+00 0.00000E+00 0.00000E+00
 -1        33 0.00000E+00 0.00000E+00 0.00000E+00
 -1        34 0.00000E+00 0.00000E+00 0.00000E+00
 -1        35 0.00000E+00 0.00000E+00 0.00000E+00
 -1        36 0.00000E+00 0.00000E+00 0.00000E+00
 -1        37 1.02808E+01 3.91374E+01 2.22272E+02
 -1        38 2.67796E+00 3.91375E+01 2.22271E+02
 -1        39-4.92491E+00 3.91376E+01 2.22272E+02
 -1        40 1.40830E+01 3.91375E+01 2.22272E+02
 -1        41 6.47919E+00 3.91374E+01 2.22271E+02
 -1        42-1.12329E+00 3.91377E+01 2.22271E+02
 -1        43-8.72723E+00 3.91374E+01 2.22272E+02
 -1        44-1.38698E+01 3.91368E+01 2.22273E+02
 -1        45-1.52088E+01 3.91367E+01 2.22273E+02
 -1        46-1.65472E+01 3.91367E+01 2.22273E+02
 -1        47-1.32000E+01 3.91370E+01 2.22273E+02
 -1        48-1.45394E+01 3.91367E+01 2.22273E+02
 -1        49-1.58780E+01 3.91367E+01 2.22274E+02
 -1        50-1.72164E+01 3.91367E+01 2.22273E+02
 -1        51 4.92497E+00 3.91382E+01 2.22273E+02
 -1        52-2.67793E+00 3.91375E+01 2.22272E+02
 -1        53-1.02807E+01 3.91368E+01 2.22273E+02
 -1        54 8.72730E+00 3.91382E+01 2.22273E+02
 -1        55 1.12334E+00 3.91379E+01 2.22272E+02
 -1        56-6.47916E+00 3.91371E+01 2.22272E+02
 -1        57-1.40829E+01 3.91367E+01 2.22273E+02
 -1        58 1.65473E+01 3.91378E+01 2.22273E+02
 -1        59 1.52089E+01 3.91377E+01 2.22274E+02
 -1        60 1.38699E+01 3.91379E+01 2.22274E+02
 -1        61 1.72165E+01 3.91378E+01 2.22273E+02
 -1        62 1.58781E+01 3.91378E+01 2.22273E+02
 -1        63 1.45395E+01 3.91378E+01 2.22274E+02
 -1        64 1.32001E+01 3.91381E+01 2.22274E+02
 -1        65 1.29910E+00 5.27985E-01 5.07925E-01
 -1        66 2.50706E+00 7.66828E-01 1.48681E+00
 -1        67 3.70465E+00 1.04245E+00 3.09777E+00
 -1        68 4.85958E+00 1.41129E+00 5.30627E+00
 -1        69 5.96544E+00 1.87668E+00 8.08383E+00
 -1        70 7.01521E+00 2.43745E+00 1.14002E+01
 -1        71 8.01278E+00 3.08972E+00 1.52275E+01
 -1        72 8.95546E+00 3.82596E+00 1.95407E+01
 -1        73 9.84388E+00 4.64409E+00 2.43111E+01
 -1        74 1.06805E+01 5.53734E+00 2.95129E+01
 -1        75 1.14640E+01 6.50216E+00 3.51183E+01
 -1        76 1.21946E+01 7.53383E+00 4.11020E+01
 -1        77 1.28731E+01 8.62839E+00 4.74368E+01
 -1        78 1.35031E+01 9.77967E+00 5.40986E+01
 -1        79 1.40816E+01 1.09847E+01 6.10604E+01
 -1        80 1.46114E+01 1.22385E+01 6.82985E+01
 -1        81 1.50947E+01 1.35384E+01 7.57872E+01
 -1        82 1.55310E+01 1.48778E+01 8.35050E+01
 -1        83 1.59219E+01 1.62548E+01 9.14275E+01
 -1        84 1.62716E+01 1.76638E+01 9.95337E+01
 -1        85 1.65778E+01 1.91023E+01 1.07801E+02
 -1        86 1.68462E+01 2.05672E+01 1.16209E+02
 -1        87 1.70761E+01 2.20541E+01 1.24739E+02
 -1        88 1.72711E+01 2.35595E+01 1.33373E+02
 -1        89 1.74334E+01 2.50820E+01 1.42092E+02
 -1        90 1.75648E+01 2.66172E+01 1.50882E+02
 -1        91 1.76690E+01 2.81636E+01 1.59727E+02
 -1        92 1.77484E+01 2.97187E+01 1.68614E+02
 -1        93 1.78064E+01 3.12806E+01 1.77532E+02
 -1        94 1.78451E+01 3.28469E+01 1.86470E+02
 -1        95 1.78692E+01 3.44172E+01 1.95418E+02
 -1        96 1.78813E+01 3.59895E+01 2.04371E+02
 -1        97 1.78854E+01 3.75633E+01 2.13324E+02
 -1        98 7.01145E-01 3.74307E-01 2.63040E-01
 -1        99 1.90297E+00 6.50385E-01 9.19211E-01
 -1       100 3.10993E+00 8.94229E-01 2.21532E+00
 -1       101 4.28828E+00 1.21451E+00 4.12936E+00
 -1       102 5.41889E+00 1.63170E+00 6.62576E+00
 -1       103 6.49708E+00 2.14583E+00 9.67634E+00
 -1       104 7.52077E+00 2.75270E+00 1.32516E+01
 -1       105 8.49040E+00 3.44743E+00 1.73255E+01
 -1       106 9.40623E+00 4.22521E+00 2.18705E+01
 -1       107 1.02688E+01 5.08129E+00 2.68597E+01
 -1       108 1.10784E+01 6.01104E+00 3.22669E+01
 -1       109 1.18354E+01 7.01006E+00 3.80649E+01
 -1       110 1.25401E+01 8.07361E+00 4.42272E+01
 -1       111 1.31943E+01 9.19677E+00 5.07282E+01
 -1       112 1.37981E+01 1.03758E+01 5.75433E+01
 -1       113 1.43525E+01 1.16059E+01 6.46465E+01
 -1       114 1.48589E+01 1.28832E+01 7.20129E+01
 -1       115 1.53182E+01 1.42032E+01 7.96192E+01
 -1       116 1.57319E+01 1.55619E+01 8.74421E+01
 -1       117 1.61019E+01 1.69553E+01 9.54589E+01
 -1       118 1.64296E+01 1.83798E+01 1.03648E+02
 -1       119 1.67167E+01 1.98318E+01 1.11988E+02
 -1       120 1.69655E+01 2.13080E+01 1.20460E+02
 -1       121 1.71777E+01 2.28046E+01 1.29044E+02
 -1       122 1.73561E+01 2.43189E+01 1.37723E+02
 -1       123 1.75025E+01 2.58481E+01 1.46479E+02
 -1       124 1.76202E+01 2.73892E+01 1.55299E+02
 -1       125 1.77116E+01 2.89402E+01 1.64166E+02
 -1       126 1.77799E+01 3.04989E+01 1.73070E+02
 -1       127 1.78277E+01 3.20633E+01 1.81999E+02
 -1       128 1.78589E+01 3.36317E+01 1.90943E+02
 -1       129 1.78764E+01 3.52031E+01 1.99895E+02
 -1       130 1.78841E+01 3.67763E+01 2.08848E+02
 -1       131 1.78857E+01 3.83505E+01 2.17798E+02
 -1       132-9.10648E-01-3.78044E-01 3.48226E-01
 -1       133-1.75630E+00-2.75198E-01 1.30394E+00
 -1       134-2.59547E+00 1.64042E-02 2.91671E+00
 -1       135-3.40476E+00 4.27810E-01 5.13374E+00
 -1       136-4.17889E+00 9.40665E-01 7.91841E+00
 -1       137-4.91460E+00 1.54931E+00 1.12434E+01
 -1       138-5.61354E+00 2.24737E+00 1.50797E+01
 -1       139-6.27304E+00 3.03163E+00 1.94015E+01
 -1       140-6.89696E+00 3.89452E+00 2.41797E+01
 -1       141-7.48260E+00 4.83425E+00 2.93889E+01
 -1       142-8.03083E+00 5.84517E+00 3.50032E+01
 -1       143-8.54253E+00 6.92232E+00 4.09949E+01
 -1       144-9.01916E+00 8.05968E+00 4.73373E+01
 -1       145-9.45934E+00 9.25497E+00 5.40059E+01
 -1       146-9.86492E+00 1.05035E+01 6.09756E+01
 -1       147-1.02367E+01 1.17990E+01 6.82210E+01
 -1       148-1.05745E+01 1.31390E+01 7.57175E+01
 -1       149-1.08802E+01 1.45182E+01 8.34420E+01
 -1       150-1.11547E+01 1.59327E+01 9.13713E+01
 -1       151-1.13992E+01 1.73789E+01 9.94831E+01
 -1       152-1.16139E+01 1.88525E+01 1.07757E+02
 -1       153-1.18016E+01 2.03501E+01 1.16171E+02
 -1       154-1.19630E+01 2.18683E+01 1.24707E+02
 -1       155-1.20998E+01 2.34039E+01 1.33345E+02
 -1       156-1.22128E+01 2.49537E+01 1.42070E+02
 -1       157-1.23056E+01 2.65137E+01 1.50864E+02
 -1       158-1.23786E+01 2.80830E+01 1.59713E+02
 -1       159-1.24339E+01 2.96585E+01 1.68604E+02
 -1       160-1.24745E+01 3.12374E+01 1.77524E+02
 -1       161-1.25017E+01 3.28188E+01 1.86465E+02
 -1       162-1.25186E+01 3.44004E+01 1.95416E+02
 -1       163-1.25271E+01 3.59812E+01 2.04370E+02
 -1       164-1.25299E+01 3.75602E+01 2.13323E+02
 -1       165-4.91414E-01-3.03002E-01 1.43253E-01
 -1       166-1.33340E+00-3.57719E-01 7.41912E-01
 -1       167-2.17869E+00-1.46402E-01 2.03205E+00
 -1       168-3.00427E+00 2.08553E-01 3.95215E+00
 -1       169-3.79651E+00 6.72148E-01 6.45708E+00
 -1       170-4.55123E+00 1.23323E+00 9.51521E+00
 -1       171-5.26883E+00 1.88751E+00 1.30994E+01
 -1       172-5.94785E+00 2.62888E+00 1.71817E+01
 -1       173-6.58958E+00 3.45332E+00 2.17348E+01
 -1       174-7.19430E+00 4.35528E+00 2.67320E+01
 -1       175-7.76104E+00 5.33102E+00 3.21472E+01
 -1       176-8.29129E+00 6.37556E+00 3.79534E+01
 -1       177-8.78517E+00 7.48358E+00 4.41235E+01
 -1       178-9.24353E+00 8.65062E+00 5.06323E+01
 -1       179-9.66633E+00 9.87297E+00 5.74548E+01
 -1       180-1.00549E+01 1.11455E+01 6.45651E+01
 -1       181-1.04095E+01 1.24637E+01 7.19391E+01
 -1       182-1.07313E+01 1.38238E+01 7.95527E+01
 -1       183-1.10213E+01 1.52211E+01 8.73823E+01
 -1       184-1.12805E+01 1.66522E+01 9.54058E+01
 -1       185-1.15099E+01 1.81122E+01 1.03601E+02
 -1       186-1.17111E+01 1.95986E+01 1.11947E+02
 -1       187-1.18854E+01 2.11069E+01 1.20425E+02
 -1       188-1.20342E+01 2.26342E+01 1.29014E+02
 -1       189-1.21590E+01 2.41770E+01 1.37698E+02
 -1       190-1.22617E+01 2.57324E+01 1.46459E+02
 -1       191-1.23442E+01 2.72975E+01 1.55282E+02
 -1       192-1.24082E+01 2.88700E+01 1.64154E+02
 -1       193-1.24560E+01 3.04476E+01 1.73061E+02
 -1       194-1.24894E+01 3.20279E+01 1.81993E+02
 -1       195-1.25113E+01 3.36096E+01 1.90939E+02
 -1       196-1.25237E+01 3.51910E+01 1.99893E+02
 -1       197-1.25290E+01 3.67709E+01 2.08847E+02
 -1       198-1.25301E+01 3.83488E+01 2.17798E+02
 -1       199 9.10263E-01-3.78143E-01 3.48703E-01
 -1       200 1.75726E+00-2.74314E-01 1.30401E+00
 -1       201 2.59521E+00 1.68199E-02 2.91708E+00
 -1       202 3.40505E+00 4.28039E-01 5.13421E+00
 -1       203 4.17898E+00 9.41468E-01 7.91972E+00
 -1       204 4.91526E+00 1.54988E+00 1.12443E+01
 -1       205 5.61330E+00 2.24833E+00 1.50808E+01
 -1       206 6.27345E+00 3.03225E+00 1.94021E+01
 -1       207 6.89693E+00 3.89514E+00 2.41797E+01
 -1       208 7.48246E+00 4.83488E+00 2.93896E+01
 -1       209 8.03081E+00 5.84584E+00 3.50038E+01
 -1       210 8.54255E+00 6.92297E+00 4.09955E+01
 -1       211 9.01908E+00 8.06030E+00 4.73379E+01
 -1       212 9.45973E+00 9.25621E+00 5.40070E+01
 -1       213 9.86551E+00 1.05037E+01 6.09764E+01
 -1       214 1.02367E+01 1.17997E+01 6.82212E+01
 -1       215 1.05745E+01 1.31397E+01 7.57182E+01
 -1       216 1.08803E+01 1.45189E+01 8.34427E+01
 -1       217 1.11550E+01 1.59333E+01 9.13717E+01
 -1       218 1.13991E+01 1.73795E+01 9.94837E+01
 -1       219 1.16142E+01 1.88534E+01 1.07758E+02
 -1       220 1.18016E+01 2.03513E+01 1.16172E+02
 -1       221 1.19629E+01 2.18695E+01 1.24708E+02
 -1       222 1.20996E+01 2.34050E+01 1.33346E+02
 -1       223 1.22130E+01 2.49547E+01 1.42071E+02
 -1       224 1.23056E+01 2.65147E+01 1.50865E+02
 -1       225 1.23785E+01 2.80841E+01 1.59714E+02
 -1       226 1.24341E+01 2.96592E+01 1.68605E+02
 -1       227 1.24746E+01 3.12385E+01 1.77526E+02
 -1       228 1.25019E+01 3.28198E+01 1.86466E+02
 -1       229 1.25185E+01 3.44014E+01 1.95417E+02
 -1       230 1.25270E+01 3.59823E+01 2.04371E+02
 -1       231 1.25299E+01 3.75612E+01 2.13324E+02
 -1       232 4.91587E-01-3.02398E-01 1.44253E-01
 -1       233 1.33380E+00-3.57382E-01 7.42453E-01
 -1       234 2.17914E+00-1.46182E-01 2.03246E+00
 -1       235 3.00417E+00 2.09091E-01 3.95260E+00
 -1       236 3.79641E+00 6.72727E-01 6.45756E+00
 -1       237 4.55147E+00 1.23413E+00 9.51608E+00
 -1       238 5.26893E+00 1.88803E+00 1.31001E+01
 -1       239 5.94807E+00 2.62971E+00 1.71825E+01
 -1       240 6.58991E+00 3.45377E+00 2.17354E+01
 -1       241 7.19418E+00 4.35587E+00 2.67326E+01
 -1       242 7.76096E+00 5.33166E+00 3.21479E+01
 -1       243 8.29131E+00 6.37622E+00 3.79540E+01
 -1       244 8.78517E+00 7.48420E+00 4.41241E+01
 -1       245 9.24350E+00 8.65147E+00 5.06331E+01
 -1       246 9.66678E+00 9.87378E+00 5.74555E+01
 -1       247 1.00552E+01 1.11460E+01 6.45657E+01
 -1       248 1.04094E+01 1.24644E+01 7.19397E+01
 -1       249 1.07313E+01 1.38245E+01 7.95533E+01
 -1       250 1.10215E+01 1.52219E+01 8.73830E+01
 -1       251 1.12805E+01 1.66527E+01 9.54064E+01
 -1       252 1.15099E+01 1.81132E+01 1.03602E+02
 -1       253 1.17113E+01 1.95996E+01 1.11948E+02
 -1       254 1.18854E+01 2.11080E+01 1.20426E+02
 -1       255 1.20342E+01 2.26352E+01 1.29015E+02
 -1       256 1.21591E+01 2.41781E+01 1.37699E+02
 -1       257 1.22619E+01 2.57334E+01 1.46460E+02
 -1       258 1.23442E+01 2.72985E+01 1.55283E+02
 -1       259 1.24082E+01 2.88709E+01 1.64155E+02
 -1       260 1.24560E+01 3.04485E+01 1.73062E+02
 -1       261 1.24897E+01 3.20290E+01 1.81994E+02
 -1       262 1.25114E+01 3.36106E+01 1.90940E+02
 -1       263 1.25236E+01 3.51921E+01 1.99894E+02
 -1       264 1.25290E+01 3.67720E+01 2.08848E+02
 -1       265 1.25301E+01 3.83499E+01 2.17799E+02
 -1       266-1.29918E+00 5.27906E-01 5.08894E-01
 -1       267-2.50776E+00 7.65744E-01 1.48768E+00
 -1       268-3.70465E+00 1.04256E+00 3.09727E+00
 -1       269-4.85979E+00 1.41050E+00 5.30691E+00
 -1       270-5.96533E+00 1.87628E+00 8.08476E+00
 -1       271-7.01504E+00 2.43675E+00 1.14008E+01
 -1       272-8.01274E+00 3.08896E+00 1.52282E+01
 -1       273-8.95544E+00 3.82527E+00 1.95413E+01
 -1       274-9.84383E+00 4.64343E+00 2.43118E+01
 -1       275-1.06804E+01 5.53669E+00 2.95135E+01
 -1       276-1.14638E+01 6.50150E+00 3.51189E+01
 -1       277-1.21945E+01 7.53285E+00 4.11033E+01
 -1       278-1.28731E+01 8.62768E+00 4.74375E+01
 -1       279-1.35031E+01 9.77902E+00 5.40992E+01
 -1       280-1.40816E+01 1.09840E+01 6.10610E+01
 -1       281-1.46112E+01 1.22379E+01 6.82991E+01
 -1       282-1.50947E+01 1.35375E+01 7.57884E+01
 -1       283-1.55311E+01 1.48773E+01 8.35054E+01
 -1       284-1.59226E+01 1.62541E+01 9.14280E+01
 -1       285-1.62714E+01 1.76629E+01 9.95343E+01
 -1       286-1.65780E+01 1.91016E+01 1.07802E+02
 -1       287-1.68461E+01 2.05662E+01 1.16210E+02
 -1       288-1.70759E+01 2.20529E+01 1.24740E+02
 -1       289-1.72710E+01 2.35584E+01 1.33374E+02
 -1       290-1.74333E+01 2.50809E+01 1.42093E+02
 -1       291-1.75648E+01 2.66161E+01 1.50883E+02
 -1       292-1.76690E+01 2.81626E+01 1.59728E+02
 -1       293-1.77484E+01 2.97178E+01 1.68615E+02
 -1       294-1.78063E+01 3.12796E+01 1.77533E+02
 -1       295-1.78451E+01 3.28460E+01 1.86471E+02
 -1       296-1.78691E+01 3.44160E+01 1.95419E+02
 -1       297-1.78812E+01 3.59884E+01 2.04373E+02
 -1       298-1.78854E+01 3.75622E+01 2.13325E+02
 -1       299-7.02063E-01 3.73717E-01 2.63316E-01
 -1       300-1.90339E+00 6.49523E-01 9.20524E-01
 -1       301-3.11031E+00 8.94162E-01 2.21574E+00
 -1       302-4.28815E+00 1.21428E+00 4.12957E+00
 -1       303-5.41907E+00 1.63108E+00 6.62632E+00
 -1       304-6.49668E+00 2.14513E+00 9.67700E+00
 -1       305-7.52069E+00 2.75195E+00 1.32523E+01
 -1       306-8.49037E+00 3.44671E+00 1.73262E+01
 -1       307-9.40619E+00 4.22453E+00 2.18712E+01
 -1       308-1.02688E+01 5.08063E+00 2.68604E+01
 -1       309-1.10783E+01 6.01040E+00 3.22676E+01
 -1       310-1.18353E+01 7.00926E+00 3.80657E+01
 -1       311-1.25403E+01 8.07268E+00 4.42280E+01
 -1       312-1.31943E+01 9.19608E+00 5.07289E+01
 -1       313-1.37981E+01 1.03752E+01 5.75439E+01
 -1       314-1.43524E+01 1.16053E+01 6.46471E+01
 -1       315-1.48587E+01 1.28824E+01 7.20136E+01
 -1       316-1.53182E+01 1.42025E+01 7.96199E+01
 -1       317-1.57322E+01 1.55615E+01 8.74426E+01
 -1       318-1.61019E+01 1.69546E+01 9.54596E+01
 -1       319-1.64297E+01 1.83790E+01 1.03649E+02
 -1       320-1.67168E+01 1.98309E+01 1.11989E+02
 -1       321-1.69654E+01 2.13069E+01 1.20461E+02
 -1       322-1.71776E+01 2.28035E+01 1.29045E+02
 -1       323-1.73561E+01 2.43178E+01 1.37724E+02
 -1       324-1.75024E+01 2.58470E+01 1.46480E+02
 -1       325-1.76201E+01 2.73882E+01 1.55300E+02
 -1       326-1.77116E+01 2.89392E+01 1.64167E+02
 -1       327-1.77799E+01 3.04979E+01 1.73071E+02
 -1       328-1.78276E+01 3.20623E+01 1.82000E+02
 -1       329-1.78588E+01 3.36307E+01 1.90944E+02
 -1       330-1.78764E+01 3.52020E+01 1.99896E+02
 -1       331-1.78840E+01 3.67752E+01 2.08849E+02
 -1       332-1.78856E+01 3.83494E+01 2.17800E+02
 -1       333 0.00000E+00 0.00000E+00 0.00000E+00
 -1       334 0.00000E+00 0.00000E+00 0.00000E+00
 -1       335 0.00000E+00 0.00000E+00 0.00000E+00
 -1       336 0.00000E+00 0.00000E+00 0.00000E+00
 -1       337 0.00000E+00 0.00000E+00 0.00000E+00
 -1       338 0.00000E+00 0.00000E+00 0.00000E+00
 -1       339 0.00000E+00 0.00000E+00 0.00000E+00
 -1       340 0.00000E+00 0.00000E+00 0.00000E+00
 -1       341 0.00000E+00 0.00000E+00 0.00000E+00
 -1       342 0.00000E+00 0.00000E+00 0.00000E+00
 -1       343 0.00000E+00 0.00000E+00 0.00000E+00
 -1       344 0.00000E+00 0.00000E+00 0.00000E+00
 -1       345 0.00000E+00 0.00000E+00 0.00000E+00
 -1       346 0.00000E+00 0.00000E+00 0.00000E+00
 -1       347 0.00000E+00 0.00000E+00 0.00000E+00
 -1       348 0.00000E+00 0.00000E+00 0.00000E+00
 -1       349 0.00000E+00 0.00000E+00 0.00000E+00
 -1       350 0.00000E+00 0.00000E+00 0.00000E+00
 -1       351 0.00000E+00 0.00000E+00 0.00000E+00
 -1       352 0.00000E+00 0.00000E+00 0.00000E+00
 -1       353 0.00000E+00 0.00000E+00 0.00000E+00
 -1       354 0.00000E+00 0.00000E+00 0.00000E+00
 -1       355 0.00000E+00 0.00000E+00 0.00000E+00
 -1       356 0.00000E+00 0.00000E+00 0.00000E+00
 -1       357 0.00000E+00 0.00000E+00 0.00000E+00
 -1       358 0.00000E+00 0.00000E+00 0.00000E+00
 -1       359 0.00000E+00 0.00000E+00 0.00000E+00
 -1       360 0.00000E+00 0.00000E+00 0.00000E+00
 -1       361 0.00000E+00 0.00000E+00 0.00000E+00
 -1       362 0.00000E+00 0.00000E+00 0.00000E+00
 -1       363 0.00000E+00 0.00000E+00 0.00000E+00
 -1       364 0.00000E+00 0.00000E+00 0.00000E+00
 -1       365 0.00000E+00 0.00000E+00 0.00000E+00
 -1       366 0.00000E+00 0.00000E+00 0.00000E+00
 -1       367 0.00000E+00 0.00000E+00 0.00000E+00
 -1       368 0.00000E+00 0.00000E+00 0.00000E+00
 -1       369 0.00000E+00 0.00000E+00 0.00000E+00
 -1       370 0.00000E+00 0.00000E+00 0.00000E+00
 -1       371 0.00000E+00 0.00000E+00 0.00000E+00
 -1       372 0.00000E+00 0.00000E+00 0.00000E+00
 -1       373 0.00000E+00 0.00000E+00 0.00000E+00
 -1       374 0.00000E+00 0.00000E+00 0.00000E+00
 -1       375 0.00000E+00 0.00000E+00 0.00000E+00
 -1       376 0.00000E+00 0.00000E+00 0.00000E+00
 -1       377 0.00000E+00 0.00000E+00 0.00000E+00
 -1       378 0.00000E+00 0.00000E+00 0.00000E+00
 -1       379 0.00000E+00 0.00000E+00 0.00000E+00
 -1       380 0.00000E+00 0.00000E+00 0.00000E+00
 -1       381 0.00000E+00 0.00000E+00 0.00000E+00
 -1       382 0.00000E+00 0.00000E+00 0.00000E+00
 -1       383 0.00000E+00 0.00000E+00 0.00000E+00
 -1       384 0.00000E+00 0.00000E+00 0.00000E+00
 -1       385 0.00000E+00 0.00000E+00 0.00000E+00
 -1       386 0.00000E+00 0.00000E+00 0.00000E+00
 -1       387 0.00000E+00 0.00000E+00 0.00000E+00
 -1       388 0.00000E+00 0.00000E+00 0.00000E+00
 -1       389 0.00000E+00 0.00000E+00 0.00000E+00
 -1       390 0.00000E+00 0.00000E+00 0.00000E+00
 -1       391 0.00000E+00 0.00000E+00 0.00000E+00
 -1       392 0.00000E+00 0.00000E+00 0.00000E+00
 -1       393 0.00000E+00 0.00000E+00 0.00000E+00
 -1       394 0.00000E+00 0.00000E+00 0.00000E+00
 -1       395 0.00000E+00 0.00000E+00 0.00000E+00
 -1       396 0.00000E+00 0.00000E+00 0.00000E+00
 -1       397 0.00000E+00 0.00000E+00 0.00000E+00
 -1       398 0.00000E+00 0.00000E+00 0.00000E+00
 -1       399 0.00000E+00 0.00000E+00 0.00000E+00
 -1       400 0.00000E+00 0.00000E+00 0.00000E+00
 -1       401 0.00000E+00 0.00000E+00 0.00000E+00
 -1       402 0.00000E+00 0.00000E+00 0.00000E+00
 -1       403 0.00000E+00 0.00000E+00 0.00000E+00
 -1       404 0.00000E+00 0.00000E+00 0.00000E+00
 -1       405 0.00000E+00 0.00000E+00 0.00000E+00
 -1       406-8.96955E+00 3.91369E+01 2.22273E+02
 -1       407 8.17457E+00 3.91376E+01 2.22273E+02
 -1       408-2.66329E+00 3.91374E+01 2.22272E+02
 -1       409 9.44593E+00 3.91375E+01 2.22273E+02
 -1       410 2.91305E+00 3.91374E+01 2.22272E+02
 -1       411 1.77306E+00 3.91376E+01 2.22272E+02
 -1       412-8.53238E+00 3.91370E+01 2.22273E+02
 -1       413 4.73385E+00 3.91374E+01 2.22272E+02
 -1       414-5.69593E+00 3.91372E+01 2.22272E+02
 -1       415-2.72682E+00 3.91372E+01 2.22272E+02
 -1       416-7.94330E+00 3.91372E+01 2.22272E+02
 -1       417 7.94337E+00 3.91379E+01 2.22273E+02
 -1       418 1.13385E+01 3.91375E+01 2.22272E+02
 -1       419-1.13922E+01 3.91369E+01 2.22273E+02
 -1       420-2.54110E+00 3.91372E+01 2.22272E+02
 -1       421-6.43415E+00 3.91375E+01 2.22272E+02
 -1       422-1.02366E+01 3.91372E+01 2.22273E+02
 -1       423-1.09065E+01 3.91370E+01 2.22273E+02
 -1       424 1.46120E+01 3.91376E+01 2.22272E+02
 -1       425 1.08096E+01 3.91375E+01 2.22272E+02
 -1       426 1.39428E+01 3.91376E+01 2.22273E+02
 -1       427-1.39696E+01 3.91368E+01 2.22273E+02
 -1       428-1.46388E+01 3.91368E+01 2.22273E+02
 -1       429-1.08365E+01 3.91369E+01 2.22273E+02
 -1       430 6.43418E+00 3.91381E+01 2.22273E+02
 -1       431 1.02367E+01 3.91381E+01 2.22273E+02
 -1       432 1.09066E+01 3.91379E+01 2.22274E+02
 -1       433 7.50732E+00 3.91374E+01 2.22272E+02
 -1       434 3.70580E+00 3.91375E+01 2.22271E+02
 -1       435 8.03601E+00 3.91375E+01 2.22272E+02
 -1       436 7.41428E-03 3.91375E+01 2.22271E+02
 -1       437-3.79414E+00 3.91376E+01 2.22272E+02
 -1       438 1.03532E+00 3.91374E+01 2.22272E+02
 -1       439-5.30317E+00 3.91374E+01 2.22272E+02
 -1       440-1.12010E+01 3.91369E+01 2.22273E+02
 -1       441-1.18705E+01 3.91368E+01 2.22273E+02
 -1       442-8.23789E+00 3.91371E+01 2.22273E+02
 -1       443-1.20890E+01 3.91368E+01 2.22273E+02
 -1       444-1.27583E+01 3.91368E+01 2.22273E+02
 -1       445-8.75102E+00 3.91369E+01 2.22273E+02
 -1       446-1.01809E+01 3.91369E+01 2.22273E+02
 -1       447-4.52498E-01 3.91376E+01 2.22272E+02
 -1       448 3.34908E+00 3.91379E+01 2.22272E+02
 -1       449 4.85806E+00 3.91378E+01 2.22273E+02
 -1       450-7.98833E+00 3.91370E+01 2.22272E+02
 -1       451-4.18684E+00 3.91373E+01 2.22272E+02
 -1       452-1.96143E+00 3.91374E+01 2.22272E+02
 -1       453-8.54395E+00 3.91370E+01 2.22273E+02
 -1       454 1.23273E+01 3.91376E+01 2.22273E+02
 -1       455 1.29965E+01 3.91376E+01 2.22273E+02
 -1       456 1.03922E+01 3.91375E+01 2.22273E+02
 -1       457 1.10222E+01 3.91378E+01 2.22273E+02
 -1       458 1.16917E+01 3.91377E+01 2.22273E+02
 -1       459 8.81029E+00 3.91376E+01 2.22273E+02
 -1       460 8.05903E+00 3.91378E+01 2.22273E+02
 -1       461-5.53662E+00 3.91371E+01 2.22272E+02
 -1       462-5.75527E+00 3.91371E+01 2.22273E+02
 -1       463-5.84808E+00 3.91371E+01 2.22273E+02
 -1       464-4.21139E+00 3.91372E+01 2.22272E+02
 -1       465-7.33268E+00 3.91370E+01 2.22273E+02
 -1       466-2.63397E+00 3.91372E+01 2.22272E+02
 -1       467 5.54369E+00 3.91375E+01 2.22273E+02
 -1       468 6.17941E+00 3.91375E+01 2.22272E+02
 -1       469 4.97373E+00 3.91376E+01 2.22273E+02
 -1       470 2.34313E+00 3.91375E+01 2.22272E+02
 -1       471-5.59777E+00 3.91372E+01 2.22272E+02
 -1       472-2.60226E+00 3.91373E+01 2.22272E+02
 -1       473 1.09641E+00 3.91373E+01 2.22272E+02
 -1       474 3.82347E+00 3.91374E+01 2.22272E+02
 -1       475 7.08978E+00 3.91375E+01 2.22272E+02
 -1       476-4.76835E-01 3.91374E+01 2.22272E+02
 -1       477 9.30972E-02 3.91373E+01 2.22272E+02
 -1       478 1.85956E-01 3.91373E+01 2.22272E+02
 -1       479 9.72469E+00 2.27669E+01 1.29004E+02
 -1       480 1.00314E+01 2.89248E+01 1.64150E+02
 -1       481-4.92504E+00 3.51780E+01 1.99798E+02
 -1       482 9.11201E+00 1.68884E+01 9.53878E+01
 -1       483-4.45406E+00 1.96657E+01 1.11913E+02
 -1       484-4.66877E+00 2.57656E+01 1.46442E+02
 -1       485-4.76037E+00 3.20380E+01 1.81987E+02
 -1       486-4.07710E+00 1.39331E+01 7.94974E+01
 -1       487 3.67820E+00 1.94430E+00 9.45903E+00
 -1       488 4.79351E+00 3.26639E+00 1.71336E+01
 -1       489-1.12485E+00 4.98102E-01 3.80667E+00
 -1       490 6.69021E+00 6.86969E+00 3.79159E+01
 -1       491 7.81998E+00 1.02592E+01 5.73936E+01
 -1       492 5.80166E+00 4.92070E+00 2.66897E+01
 -1       493-4.76418E-01-7.71485E-02 5.38835E-01
 -1       494 1.74494E+00 6.64416E-01 1.97049E+00
 -1       495 1.00472E+01 3.68487E+01 2.09265E+02
 -1       496 8.40558E+00 1.27904E+01 7.19149E+01
 -1       497 1.01184E+01 3.36270E+01 1.90937E+02
 -1       498-1.98810E+00 2.13640E+00 1.29742E+01
 -1       499-3.33283E+00 7.65334E+00 4.40384E+01
 -1       500-3.91363E+00 1.12720E+01 6.44756E+01
 -1       501-2.49380E+00 3.67543E+00 2.16233E+01
 -1       502-2.94059E+00 5.52710E+00 3.20484E+01
 -1       503 3.09873E-01 1.77147E-01 3.83095E-02
 -1       504-9.06164E-01 3.80250E+01 2.15955E+02
 -1       505-4.57908E+00 2.26829E+01 1.28989E+02
 -1       506-4.72659E+00 2.88902E+01 1.64143E+02
 -1       507-4.28791E+00 1.67392E+01 9.53620E+01
 -1       508 9.46217E+00 1.97803E+01 1.11934E+02
 -1       509 9.91093E+00 2.58223E+01 1.46452E+02
 -1       510-8.19766E-01 1.49774E-01 1.87461E+00
 -1       511 2.41423E+00 9.90916E-01 3.88378E+00
 -1       512 3.06944E+00 1.42017E+00 6.39487E+00
 -1       513 8.86270E-01 1.44813E+00 7.76024E+00
 -1       514 1.01720E+01 3.52071E+01 1.99929E+02
 -1       515 9.82668E+00 2.42876E+01 1.37689E+02
 -1       516-4.62794E+00 2.42180E+01 1.37677E+02
 -1       517-4.00242E+00 1.25836E+01 7.18762E+01
 -1       518 8.66682E+00 1.41193E+01 7.95302E+01
 -1       519-4.37701E+00 1.81894E+01 1.03562E+02
 -1       520 9.29851E+00 1.83206E+01 1.03585E+02
 -1       521 5.31279E+00 4.05428E+00 2.16890E+01
 -1       522 7.09011E+00 7.94293E+00 4.40883E+01
 -1       523 7.49884E+00 9.07606E+00 5.05961E+01
 -1       524 1.95961E+00 9.52708E+00 5.38525E+01
 -1       525-3.14285E+00 6.55844E+00 3.78612E+01
 -1       526-4.70084E+00 2.73238E+01 1.55269E+02
 -1       527 9.97850E+00 2.73690E+01 1.55277E+02
 -1       528 8.17683E+00 1.14984E+01 6.45006E+01
 -1       529-4.77010E+00 3.36159E+01 1.90936E+02
 -1       530 1.00996E+01 3.20554E+01 1.81990E+02
 -1       531-2.72363E+00 4.56431E+00 2.66269E+01
 -1       532-2.24784E+00 2.86496E+00 1.70628E+01
 -1       533 1.00711E+01 3.04876E+01 1.73058E+02
 -1       534 4.25469E+00 2.56186E+00 1.30495E+01
 -1       535-4.74618E+00 3.04622E+01 1.73054E+02
 -1       536 8.90199E+00 1.54865E+01 8.73617E+01
 -1       537 6.26058E+00 5.86092E+00 3.21077E+01
 -1       538-4.18842E+00 1.53193E+01 8.73327E+01
 -1       539 9.60370E+00 2.12633E+01 1.20412E+02
 -1       540-4.52141E+00 2.11647E+01 1.20395E+02
 -1       541 3.90877E-01 3.04558E-01 1.19944E+00
 -1       542 5.54710E-01 5.74236E-01 2.75098E+00
 -1       543-1.76917E+00 1.50303E+00 9.44652E+00
 -1       544-6.57968E-02-2.89088E-02 2.23518E-02
 -1       545-3.62277E+00 8.80310E+00 5.05430E+01
 -1       546 2.05816E+00 1.07594E+01 6.08701E+01
 -1       547 2.59157E+00 3.59021E+01 2.03893E+02
 -1       548-1.46180E+00 9.33562E-01 6.26377E+00
 -1       549 2.66866E+00 3.44058E+01 1.95391E+02
 -1       550 1.05184E+00 2.03267E+00 1.11005E+01
 -1       551 2.64619E+00 2.81268E+01 1.59700E+02
 -1       552 2.63086E+00 2.65703E+01 1.50847E+02
 -1       553 2.52311E+00 2.04682E+01 1.16135E+02
 -1       554 2.65781E+00 2.96911E+01 1.68593E+02
 -1       555 2.38505E+00 1.61077E+01 9.13181E+01
 -1       556 2.55773E+00 2.19693E+01 1.24676E+02
 -1       557 2.48309E+00 1.89885E+01 1.07716E+02
 -1       558 2.43752E+00 1.75339E+01 9.94368E+01
 -1       559 2.67213E+00 3.28341E+01 1.86460E+02
 -1       560 2.66660E+00 3.12608E+01 1.77517E+02
 -1       561 2.61079E+00 2.50231E+01 1.42048E+02
 -1       562 2.32645E+00 1.47138E+01 8.33834E+01
 -1       563 2.16614E+00 1.20354E+01 6.81337E+01
 -1       564 1.20098E+00 2.70543E+00 1.49433E+01
 -1       565 1.34191E+00 3.46368E+00 1.92729E+01
 -1       566 1.60059E+00 5.21665E+00 2.92751E+01
 -1       567 1.71799E+00 6.20234E+00 3.48967E+01
 -1       568 1.47619E+00 4.30241E+00 2.40579E+01
 -1       569 1.82678E+00 7.25491E+00 4.08958E+01
 -1       570 2.58685E+00 2.34886E+01 1.33320E+02
 -1       571 2.26092E+00 1.33558E+01 7.56522E+01
 -1       572 1.92958E+00 8.36916E+00 4.72446E+01
 -1       573-3.79650E+00 1.00109E+01 5.73610E+01
 -1       574 7.29236E-01 9.59465E-01 4.95639E+00
 -1       575 6.47893E+00 3.79780E+01 2.15685E+02
 -1       576 1.01788E+00 4.18761E-01 6.23252E-01
 -1       577-4.69386E+00 3.68386E+01 2.09221E+02
 -1       578 2.35581E-01 1.50728E-01 3.63112E-01
 -1       579-3.43736E-01-1.94528E-01 5.46342E-02
 -1       580 5.72787E-01 3.14496E-01 1.25844E-01
 -1       581 1.25153E+01 3.81331E+01 2.16564E+02
 -1       582-7.11657E+00 3.81398E+01 2.16610E+02
 -1       583 2.70359E+00 3.71185E+01 2.10804E+02
 -1       584-1.47897E-01-1.19469E-01-3.67592E-02
 -1       585-2.39096E-01-1.78333E-01 1.57331E-02
 -1       586-5.98647E-01-2.84224E-01 1.86687E-01
 -1       587 3.50835E-01 2.37955E-01 7.04248E-02
 -1       588 2.58595E-01 1.92894E-01-1.30211E-03
 -1       589 9.05670E-01 4.21664E-01 3.02917E-01
 -1       590-9.82330E+00 3.86385E+01 2.19441E+02
 -1       591-6.02075E+00 3.86388E+01 2.19441E+02
 -1       592-9.82288E+00 3.78501E+01 2.14967E+02
 -1       593 1.13981E+01 3.86352E+01 2.19418E+02
 -1       594 1.52005E+01 3.86354E+01 2.19419E+02
 -1       595 1.52000E+01 3.78481E+01 2.14944E+02
 -1       596 1.92876E-01 1.40104E-01-2.63813E-02
 -1       597 1.11290E-01 7.85325E-02-5.08162E-02
 -1       598 4.45842E-01 2.53185E-01 7.19920E-02
 -1       599 1.40568E-02 1.10010E-02-6.64148E-02
 -1       600-7.57770E-02-6.21078E-02-5.04501E-02
 -1       601 1.27421E-01 7.68767E-02 1.69789E-02
 -1       602-2.11190E-01-1.17389E-01 2.94634E-02
 -1       603 4.57849E+00 3.85577E+01 2.18978E+02
 -1       604 8.37977E+00 3.85577E+01 2.18979E+02
 -1       605 9.49691E+00 3.80555E+01 2.16124E+02
 -1       606-2.91545E+00 3.85813E+01 2.19113E+02
 -1       607 8.85857E-01 3.85814E+01 2.19113E+02
 -1       608 2.78634E+00 3.80015E+01 2.15819E+02
 -1       609-4.01113E+00 3.80824E+01 2.16282E+02
 -1       610 1.68594E+00 5.90926E-01 1.01511E+00
 -1       611 1.21561E+00 4.84678E-01 5.32973E-01
 -1       612 8.30779E-01 3.73326E-01 3.18205E-01
 -1       613 2.65381E+00 8.54386E-01 2.49963E+00
 -1       614 2.18613E+00 7.16530E-01 1.69141E+00
 -1       615 1.38231E+00 5.30628E-01 1.21050E+00
 -1       616 3.56887E+00 1.20194E+00 4.56214E+00
 -1       617 3.11568E+00 1.01588E+00 3.45517E+00
 -1       618 2.08238E+00 8.15526E-01 2.85280E+00
 -1       619 4.45137E+00 1.64925E+00 7.20805E+00
 -1       620 4.01809E+00 1.41400E+00 5.81640E+00
 -1       621 2.74470E+00 1.19327E+00 5.06792E+00
 -1       622 5.28475E+00 2.19199E+00 1.04004E+01
 -1       623 4.87231E+00 1.90919E+00 8.73869E+00
 -1       624 3.37799E+00 1.67028E+00 7.85899E+00
 -1       625 6.07405E+00 2.82654E+00 1.41107E+01
 -1       626 5.68371E+00 2.49817E+00 1.21935E+01
 -1       627 3.97043E+00 2.24154E+00 1.11901E+01
 -1       628 6.81727E+00 3.54690E+00 1.83110E+01
 -1       629 6.44780E+00 3.17638E+00 1.61509E+01
 -1       630 4.52835E+00 2.90341E+00 1.50309E+01
 -1       631 7.52505E+00 4.35013E+00 2.29756E+01
 -1       632 7.17598E+00 3.93863E+00 2.05870E+01
 -1       633 5.05699E+00 3.64988E+00 1.93545E+01
 -1       634 8.19036E+00 5.22992E+00 2.80781E+01
 -1       635 7.86272E+00 4.78081E+00 2.54738E+01
 -1       636 5.56080E+00 4.47818E+00 2.41356E+01
 -1       637 8.81403E+00 6.18217E+00 3.35915E+01
 -1       638 8.50739E+00 5.69756E+00 3.07854E+01
 -1       639 6.03482E+00 5.38185E+00 2.93481E+01
 -1       640 9.39698E+00 7.20249E+00 3.94891E+01
 -1       641 9.11043E+00 6.68441E+00 3.64939E+01
 -1       642 6.47918E+00 6.35658E+00 3.49645E+01
 -1       643 9.93999E+00 8.28661E+00 4.57443E+01
 -1       644 9.67311E+00 7.73698E+00 4.25736E+01
 -1       645 6.89386E+00 7.39818E+00 4.09586E+01
 -1       646 1.04613E+01 9.42881E+00 5.23302E+01
 -1       647 1.02147E+01 8.85071E+00 4.89962E+01
 -1       648 7.29739E+00 8.50250E+00 4.73015E+01
 -1       649 1.09142E+01 1.06230E+01 5.92113E+01
 -1       650 1.06868E+01 1.00185E+01 5.57277E+01
 -1       651 7.66323E+00 9.66134E+00 5.39576E+01
 -1       652 1.13608E+01 1.18695E+01 6.63854E+01
 -1       653 1.11524E+01 1.12404E+01 6.27637E+01
 -1       654 8.00140E+00 1.08727E+01 6.09127E+01
 -1       655 1.17190E+01 1.31652E+01 7.38383E+01
 -1       656 1.15302E+01 1.25133E+01 7.00908E+01
 -1       657 8.29503E+00 1.21386E+01 6.81759E+01
 -1       658 1.20702E+01 1.44993E+01 8.15063E+01
 -1       659 1.18989E+01 1.38276E+01 7.76444E+01
 -1       660 8.53950E+00 1.34498E+01 7.56941E+01
 -1       661 1.23866E+01 1.58716E+01 8.93847E+01
 -1       662 1.22324E+01 1.51810E+01 8.54206E+01
 -1       663 8.78761E+00 1.47981E+01 8.34207E+01
 -1       664 1.26680E+01 1.72769E+01 9.74517E+01
 -1       665 1.25315E+01 1.65704E+01 9.33960E+01
 -1       666 9.00986E+00 1.61835E+01 9.13520E+01
 -1       667 1.29177E+01 1.87124E+01 1.05685E+02
 -1       668 1.27969E+01 1.79914E+01 1.01549E+02
 -1       669 9.20821E+00 1.76008E+01 9.94661E+01
 -1       670 1.31354E+01 2.01746E+01 1.14065E+02
 -1       671 1.30307E+01 1.94404E+01 1.09858E+02
 -1       672 9.38296E+00 1.90471E+01 1.07742E+02
 -1       673 1.33239E+01 2.16594E+01 1.22570E+02
 -1       674 1.32331E+01 2.09146E+01 1.18303E+02
 -1       675 9.53565E+00 2.05193E+01 1.16158E+02
 -1       676 1.34839E+01 2.31640E+01 1.31184E+02
 -1       677 1.34072E+01 2.24096E+01 1.26865E+02
 -1       678 9.66662E+00 2.20129E+01 1.24695E+02
 -1       679 1.36180E+01 2.46853E+01 1.39887E+02
 -1       680 1.35543E+01 2.39228E+01 1.35525E+02
 -1       681 9.77800E+00 2.35252E+01 1.33336E+02
 -1       682 1.37278E+01 2.62205E+01 1.48664E+02
 -1       683 1.36756E+01 2.54515E+01 1.44267E+02
 -1       684 9.87096E+00 2.50534E+01 1.42062E+02
 -1       685 1.38156E+01 2.77669E+01 1.57500E+02
 -1       686 1.37744E+01 2.69925E+01 1.53076E+02
 -1       687 9.94661E+00 2.65944E+01 1.50858E+02
 -1       688 1.38835E+01 2.93223E+01 1.66381E+02
 -1       689 1.38520E+01 2.85437E+01 1.61936E+02
 -1       690 1.00066E+01 2.81458E+01 1.59708E+02
 -1       691 1.39337E+01 3.08844E+01 1.75294E+02
 -1       692 1.39107E+01 3.01027E+01 1.70834E+02
 -1       693 1.00527E+01 2.97054E+01 1.68600E+02
 -1       694 1.39687E+01 3.24516E+01 1.84230E+02
 -1       695 1.39528E+01 3.16676E+01 1.79760E+02
 -1       696 1.00866E+01 3.12710E+01 1.77522E+02
 -1       697 1.39914E+01 3.40223E+01 1.93178E+02
 -1       698 1.39816E+01 3.32366E+01 1.88703E+02
 -1       699 1.01100E+01 3.28408E+01 1.86463E+02
 -1       700 1.40252E+01 3.55984E+01 2.02150E+02
 -1       701 1.40198E+01 3.48119E+01 1.97673E+02
 -1       702 1.01460E+01 3.44168E+01 1.95433E+02
 -1       703 1.39656E+01 3.72061E+01 2.11295E+02
 -1       704 1.39635E+01 3.64189E+01 2.06818E+02
 -1       705 1.01102E+01 3.60278E+01 2.04597E+02
 -1       706 1.12814E+01 3.74909E+01 2.12915E+02
 -1       707-7.54708E-01-2.38554E-01 4.09463E-01
 -1       708-1.03833E+00-1.74836E-01 8.80589E-01
 -1       709-4.45868E-01-1.60215E-01 2.35847E-01
 -1       710-1.34806E+00-6.46547E-02 1.55239E+00
 -1       711-1.63576E+00 8.12653E-02 2.36046E+00
 -1       712-6.47051E-01 1.76408E-02 1.11897E+00
 -1       713-1.91668E+00 2.57772E-01 3.32599E+00
 -1       714-2.19551E+00 4.60979E-01 4.43681E+00
 -1       715-9.74021E-01 3.09884E-01 2.76483E+00
 -1       716-2.48345E+00 6.82037E-01 5.66654E+00
 -1       717-2.75239E+00 9.34974E-01 7.05870E+00
 -1       718-1.29266E+00 7.03798E-01 4.96685E+00
 -1       719-3.02493E+00 1.22293E+00 8.64944E+00
 -1       720-3.28150E+00 1.52435E+00 1.03167E+01
 -1       721-1.61788E+00 1.20562E+00 7.78257E+00
 -1       722-3.49890E+00 1.84426E+00 1.20779E+01
 -1       723-3.73984E+00 2.19017E+00 1.39987E+01
 -1       724-1.88222E+00 1.80907E+00 1.11489E+01
 -1       725-3.97428E+00 2.55748E+00 1.60422E+01
 -1       726-4.20293E+00 2.94623E+00 1.82055E+01
 -1       727-2.12018E+00 2.49019E+00 1.49581E+01
 -1       728-4.42536E+00 3.35480E+00 2.04847E+01
 -1       729-4.63972E+00 3.78322E+00 2.28760E+01
 -1       730-2.37231E+00 3.26036E+00 1.92860E+01
 -1       731-4.84851E+00 4.23067E+00 2.53771E+01
 -1       732-5.05091E+00 4.69765E+00 2.79845E+01
 -1       733-2.61087E+00 4.11013E+00 2.40708E+01
 -1       734-5.24673E+00 5.18205E+00 3.06944E+01
 -1       735-5.43669E+00 5.68422E+00 3.35038E+01
 -1       736-2.83425E+00 5.03702E+00 2.92874E+01
 -1       737-5.62008E+00 6.20297E+00 3.64094E+01
 -1       738-5.79704E+00 6.73855E+00 3.94076E+01
 -1       739-3.04346E+00 6.03432E+00 3.49077E+01
 -1       740-5.96845E+00 7.28910E+00 4.24952E+01
 -1       741-6.13209E+00 7.85486E+00 4.56686E+01
 -1       742-3.23936E+00 7.09840E+00 4.09059E+01
 -1       743-6.34778E+00 8.43247E+00 4.89207E+01
 -1       744-6.50189E+00 9.02745E+00 5.22572E+01
 -1       745-3.47840E+00 8.22070E+00 4.72496E+01
 -1       746-6.65243E+00 9.63424E+00 5.56657E+01
 -1       747-6.79405E+00 1.02555E+01 5.91525E+01
 -1       748-3.71134E+00 9.40033E+00 5.39145E+01
 -1       749-6.91152E+00 1.08889E+01 6.27091E+01
 -1       750-7.04036E+00 1.15338E+01 6.63337E+01
 -1       751-3.85714E+00 1.06354E+01 6.08838E+01
 -1       752-7.13923E+00 1.21923E+01 7.00334E+01
 -1       753-7.25696E+00 1.28596E+01 7.37838E+01
 -1       754-3.96045E+00 1.19221E+01 6.81442E+01
 -1       755-7.34376E+00 1.35372E+01 7.75936E+01
 -1       756-7.44966E+00 1.42241E+01 8.14579E+01
 -1       757-4.04177E+00 1.32532E+01 7.56584E+01
 -1       758-7.55020E+00 1.49199E+01 8.53749E+01
 -1       759-7.64513E+00 1.56246E+01 8.93414E+01
 -1       760-4.13428E+00 1.46217E+01 8.33896E+01
 -1       761-7.73493E+00 1.63372E+01 9.33554E+01
 -1       762-7.81934E+00 1.70579E+01 9.74133E+01
 -1       763-4.23962E+00 1.60253E+01 9.13244E+01
 -1       764-7.89889E+00 1.77852E+01 1.01513E+02
 -1       765-7.97407E+00 1.85196E+01 1.05651E+02
 -1       766-4.33423E+00 1.74610E+01 9.94418E+01
 -1       767-8.04378E+00 1.92602E+01 1.09826E+02
 -1       768-8.10897E+00 2.00068E+01 1.14035E+02
 -1       769-4.41671E+00 1.89245E+01 1.07720E+02
 -1       770-8.16943E+00 2.07584E+01 1.18276E+02
 -1       771-8.22549E+00 2.15155E+01 1.22545E+02
 -1       772-4.48901E+00 2.04125E+01 1.16139E+02
 -1       773-8.27720E+00 2.22767E+01 1.26842E+02
 -1       774-8.32461E+00 2.30426E+01 1.31162E+02
 -1       775-4.55147E+00 2.19217E+01 1.24680E+02
 -1       776-8.36799E+00 2.38118E+01 1.35506E+02
 -1       777-8.40799E+00 2.45847E+01 1.39870E+02
 -1       778-4.60489E+00 2.34487E+01 1.33323E+02
 -1       779-8.44436E+00 2.53604E+01 1.44252E+02
 -1       780-8.47624E+00 2.61388E+01 1.48650E+02
 -1       781-4.64922E+00 2.49904E+01 1.42051E+02
 -1       782-8.50512E+00 2.69195E+01 1.53063E+02
 -1       783-8.53087E+00 2.77028E+01 1.57489E+02
 -1       784-4.68591E+00 2.65434E+01 1.50849E+02
 -1       785-8.55337E+00 2.84873E+01 1.61926E+02
 -1       786-8.57343E+00 2.92736E+01 1.66372E+02
 -1       787-4.71472E+00 2.81062E+01 1.59701E+02
 -1       788-8.59059E+00 3.00609E+01 1.70827E+02
 -1       789-8.60494E+00 3.08493E+01 1.75288E+02
 -1       790-4.73707E+00 2.96756E+01 1.68595E+02
 -1       791-8.61691E+00 3.16382E+01 1.79755E+02
 -1       792-8.62708E+00 3.24279E+01 1.84225E+02
 -1       793-4.75399E+00 3.12497E+01 1.77518E+02
 -1       794-8.63529E+00 3.32177E+01 1.88699E+02
 -1       795-8.64157E+00 3.40077E+01 1.93175E+02
 -1       796-4.76568E+00 3.28268E+01 1.86460E+02
 -1       797-8.72080E+00 3.47895E+01 1.97607E+02
 -1       798-8.72448E+00 3.55793E+01 2.02084E+02
 -1       799-4.84801E+00 3.43968E+01 1.95366E+02
 -1       800-8.60955E+00 3.64101E+01 2.06796E+02
 -1       801-8.61115E+00 3.71992E+01 2.11273E+02
 -1       802-4.80987E+00 3.60083E+01 2.04510E+02
 -1       803-5.90530E+00 3.74892E+01 2.12916E+02
 -1       804 6.19667E+00 2.38887E+01 1.35500E+02
 -1       805 6.16462E+00 2.31269E+01 1.31156E+02
 -1       806 6.12950E+00 2.23688E+01 1.26834E+02
 -1       807 6.09111E+00 2.16155E+01 1.22538E+02
 -1       808 2.57285E+00 2.27268E+01 1.28986E+02
 -1       809 6.33330E+00 2.85264E+01 1.61923E+02
 -1       810 6.31672E+00 2.77473E+01 1.57485E+02
 -1       811 6.36044E+00 3.00898E+01 1.70824E+02
 -1       812 6.34789E+00 2.93075E+01 1.66369E+02
 -1       813 2.65235E+00 2.89083E+01 1.64142E+02
 -1       814-1.05140E+00 3.40112E+01 1.93163E+02
 -1       815-1.12679E+00 3.47916E+01 1.97594E+02
 -1       816-1.16698E+00 3.55402E+01 2.01846E+02
 -1       817 2.63026E+00 3.51539E+01 1.99642E+02
 -1       818-1.05032E+00 3.63702E+01 2.06557E+02
 -1       819 5.84985E+00 1.79280E+01 1.01502E+02
 -1       820 5.79125E+00 1.72100E+01 9.74022E+01
 -1       821 5.72841E+00 1.64990E+01 9.33432E+01
 -1       822 5.66191E+00 1.57960E+01 8.93288E+01
 -1       823 2.41199E+00 1.68170E+01 9.53560E+01
 -1       824-9.60543E-01 1.85899E+01 1.05630E+02
 -1       825-9.69080E-01 1.93259E+01 1.09807E+02
 -1       826-9.77442E-01 2.00678E+01 1.14017E+02
 -1       827-9.85026E-01 2.08153E+01 1.18259E+02
 -1       828 2.50366E+00 1.97254E+01 1.11909E+02
 -1       829-1.01524E+00 2.46214E+01 1.39858E+02
 -1       830-1.02009E+00 2.53935E+01 1.44242E+02
 -1       831-1.02464E+00 2.61684E+01 1.48641E+02
 -1       832-1.02820E+00 2.69462E+01 1.53055E+02
 -1       833 2.62122E+00 2.57951E+01 1.46440E+02
 -1       834-1.04532E+00 3.24365E+01 1.84222E+02
 -1       835-1.04670E+00 3.32246E+01 1.88697E+02
 -1       836-1.04193E+00 3.08619E+01 1.75284E+02
 -1       837-1.04388E+00 3.16490E+01 1.79751E+02
 -1       838 2.66962E+00 3.20471E+01 1.81986E+02
 -1       839-8.93516E-01 1.29707E+01 7.37507E+01
 -1       840-8.82571E-01 1.36433E+01 7.75621E+01
 -1       841-8.95679E-01 1.43244E+01 8.14281E+01
 -1       842-9.08133E-01 1.50152E+01 8.53468E+01
 -1       843 2.29448E+00 1.40302E+01 7.94909E+01
 -1       844 2.22408E+00 1.69698E+00 8.57928E+00
 -1       845 2.03377E+00 1.43239E+00 7.04527E+00
 -1       846 2.41782E+00 1.98667E+00 1.02491E+01
 -1       847 9.69462E-01 1.72882E+00 9.36429E+00
 -1       848 2.59851E+00 2.29799E+00 1.20463E+01
 -1       849 3.27906E+00 3.75936E+00 2.04559E+01
 -1       850 3.11483E+00 3.36324E+00 1.81760E+01
 -1       851 2.94604E+00 2.98673E+00 1.60116E+01
 -1       852 2.77819E+00 2.63233E+00 1.39672E+01
 -1       853 1.27245E+00 3.07424E+00 1.70492E+01
 -1       854-1.92796E-01 3.61919E-01 2.27727E+00
 -1       855-2.21929E-01 5.34288E-01 3.24545E+00
 -1       856 6.42738E-01 7.54343E-01 3.78266E+00
 -1       857-2.54007E-01 7.29690E-01 4.34930E+00
 -1       858-3.05745E-01 9.44796E-01 5.57844E+00
 -1       859 4.42115E+00 7.59933E+00 4.24730E+01
 -1       860 4.29465E+00 7.06059E+00 3.93847E+01
 -1       861 4.16341E+00 6.53676E+00 3.63855E+01
 -1       862 4.02802E+00 6.03005E+00 3.34796E+01
 -1       863 1.77323E+00 6.72073E+00 3.78506E+01
 -1       864 4.85676E+00 9.89417E+00 5.56062E+01
 -1       865 4.75954E+00 9.30043E+00 5.22062E+01
 -1       866 4.96754E+00 1.05079E+01 5.91149E+01
 -1       867 2.00953E+00 1.01367E+01 5.73248E+01
 -1       868 5.08703E+00 1.11297E+01 6.26701E+01
 -1       869 3.59263E+00 4.61247E+00 2.53500E+01
 -1       870 3.43801E+00 4.17660E+00 2.28479E+01
 -1       871 3.88749E+00 5.53965E+00 3.06692E+01
 -1       872 3.74230E+00 5.06725E+00 2.79583E+01
 -1       873 1.53923E+00 4.75033E+00 2.66144E+01
 -1       874-1.16505E-01 1.07907E-01 8.23231E-01
 -1       875-1.55941E-01 2.26246E-01 1.50526E+00
 -1       876-9.67189E-02 4.00644E-02 4.32377E-01
 -1       877 3.12020E-01 2.19625E-01 7.32696E-01
 -1       878-2.26309E-01-5.72743E-02 2.30778E-01
 -1       879 5.07452E-02 5.25504E-02 1.60874E-01
 -1       880 1.42283E+00 7.83051E-01 3.28491E+00
 -1       881 1.20978E+00 6.18110E-01 2.32551E+00
 -1       882 1.01015E+00 4.85307E-01 1.55339E+00
 -1       883 4.74630E-01 4.27409E-01 1.90533E+00
 -1       884 7.76264E-01 3.61987E-01 8.66904E-01
 -1       885 6.31866E+00 3.63756E+01 2.06579E+02
 -1       886 6.38209E+00 3.55544E+01 2.01911E+02
 -1       887 6.37525E+00 3.69836E+01 2.10034E+02
 -1       888 2.64763E+00 3.65104E+01 2.07349E+02
 -1       889 8.26330E+00 3.74132E+01 2.12475E+02
 -1       890 4.59116E+00 3.75483E+01 2.13244E+02
 -1       891 5.43931E+00 1.37385E+01 7.75789E+01
 -1       892 5.35681E+00 1.30722E+01 7.37693E+01
 -1       893 5.25814E+00 1.24138E+01 7.00106E+01
 -1       894 5.19739E+00 1.17654E+01 6.63016E+01
 -1       895 2.21420E+00 1.26905E+01 7.18629E+01
 -1       896 6.41910E+00 3.48067E+01 1.97660E+02
 -1       897 6.39451E+00 3.40162E+01 1.93164E+02
 -1       898 6.39322E+00 3.32308E+01 1.88698E+02
 -1       899 6.38732E+00 3.24444E+01 1.84224E+02
 -1       900 2.67062E+00 3.36198E+01 1.90924E+02
 -1       901-4.42461E-01 2.42186E+00 1.39304E+01
 -1       902-4.71429E-01 2.78344E+00 1.59758E+01
 -1       903-4.08983E-01 1.76911E+00 1.02442E+01
 -1       904-4.12880E-01 2.08273E+00 1.20082E+01
 -1       905 1.12726E+00 2.35806E+00 1.29591E+01
 -1       906-6.93066E-01 6.90778E+00 3.93578E+01
 -1       907-7.14180E-01 7.45245E+00 4.24472E+01
 -1       908-7.34802E-01 8.01179E+00 4.56219E+01
 -1       909-8.10681E-01 8.58444E+00 4.88753E+01
 -1       910 1.87890E+00 7.80432E+00 4.40278E+01
 -1       911-8.98921E-01 1.16545E+01 6.62895E+01
 -1       912-8.90382E-01 1.23081E+01 6.99908E+01
 -1       913-8.96774E-01 1.10143E+01 6.26572E+01
 -1       914 2.11269E+00 1.13914E+01 6.44689E+01
 -1       915-8.97101E-01 1.03862E+01 5.90990E+01
 -1       916-5.52831E-01 3.98940E+00 2.28149E+01
 -1       917-5.77674E-01 4.43155E+00 2.53182E+01
 -1       918-4.98802E-01 3.16529E+00 1.81412E+01
 -1       919-5.26054E-01 3.56773E+00 2.04222E+01
 -1       920 1.40978E+00 3.87299E+00 2.16097E+01
 -1       921-6.49215E-01 5.86574E+00 3.34504E+01
 -1       922-6.71342E-01 6.37883E+00 3.63578E+01
 -1       923-6.02022E-01 4.89135E+00 2.79274E+01
 -1       924-6.26381E-01 5.37032E+00 3.06392E+01
 -1       925 1.66012E+00 5.70114E+00 3.20371E+01
 -1       926 3.08652E-01 1.65267E-01 1.68693E-01
 -1       927 6.14178E-01 2.91470E-01 2.74634E-01
 -1       928 6.00840E-01 2.84869E-01 4.71805E-01
 -1       929 8.98862E-01 3.75717E+01 2.13379E+02
 -1       930-2.80019E+00 3.74319E+01 2.12588E+02
 -1       931-9.94955E-01 3.69786E+01 2.10013E+02
 -1       932-1.00472E+00 2.30866E+01 1.31149E+02
 -1       933-1.01010E+00 2.38525E+01 1.35494E+02
 -1       934-9.91928E-01 2.15677E+01 1.22529E+02
 -1       935-9.98562E-01 2.23252E+01 1.26827E+02
 -1       936-1.03161E+00 2.77260E+01 1.57481E+02
 -1       937-1.03462E+00 2.85080E+01 1.61919E+02
 -1       938-1.03726E+00 2.92912E+01 1.66366E+02
 -1       939-1.03976E+00 3.00761E+01 1.70822E+02
 -1       940-9.41546E-01 1.71375E+01 9.73896E+01
 -1       941-9.51518E-01 1.78607E+01 1.01490E+02
 -1       942-9.19580E-01 1.57145E+01 8.93147E+01
 -1       943-9.30776E-01 1.64222E+01 9.33299E+01
 -1       944 5.95670E+00 1.93851E+01 1.09817E+02
 -1       945 5.90508E+00 1.86534E+01 1.05642E+02
 -1       946 6.04988E+00 2.08666E+01 1.18267E+02
 -1       947 6.00538E+00 2.01235E+01 1.14026E+02
 -1       948 6.25271E+00 2.54233E+01 1.44247E+02
 -1       949 6.22584E+00 2.46547E+01 1.39864E+02
 -1       950 6.29783E+00 2.69701E+01 1.53059E+02
 -1       951 6.27652E+00 2.61956E+01 1.48646E+02
 -1       952 1.83831E+00 1.19069E+00 5.64352E+00
 -1       953 1.62924E+00 9.73592E-01 4.38691E+00
 -1       954 8.09112E-01 1.19143E+00 6.28839E+00
 -1       955-3.80843E-01 1.47348E+00 8.57120E+00
 -1       956-3.45422E-01 1.19138E+00 6.97866E+00
 -1       957 2.59931E+00 2.42543E+01 1.37675E+02
 -1       958 5.59223E+00 1.51007E+01 8.53619E+01
 -1       959 5.51767E+00 1.44153E+01 8.14443E+01
 -1       960 2.46090E+00 1.82579E+01 1.03558E+02
 -1       961 4.67856E+00 8.72360E+00 4.89024E+01
 -1       962 4.54258E+00 8.15445E+00 4.56469E+01
 -1       963 1.94608E+00 8.94136E+00 5.05103E+01
 -1       964-8.61185E-01 9.16602E+00 5.21802E+01
 -1       965-8.84698E-01 9.76745E+00 5.55895E+01
 -1       966 2.63891E+00 2.73474E+01 1.55267E+02
 -1       967 6.38014E+00 3.16585E+01 1.79753E+02
 -1       968 6.37104E+00 3.08738E+01 1.75286E+02
 -1       969 2.66252E+00 3.04754E+01 1.73052E+02
 -1       970 2.35634E+00 1.54065E+01 8.73271E+01
 -1       971 2.54097E+00 2.12161E+01 1.20392E+02
 -1       972 4.57914E+00 2.26837E+01 1.28990E+02
 -1       973 4.72685E+00 2.88906E+01 1.64144E+02
 -1       974-1.02783E+01 3.51837E+01 1.99800E+02
 -1       975 4.28839E+00 1.67396E+01 9.53623E+01
 -1       976 4.45392E+00 1.96664E+01 1.11914E+02
 -1       977 4.66857E+00 2.57660E+01 1.46443E+02
 -1       978-1.00995E+01 3.20549E+01 1.81991E+02
 -1       979-8.66655E+00 1.41189E+01 7.95308E+01
 -1       980 1.73034E+00 1.49468E+00 9.38038E+00
 -1       981 2.24764E+00 2.86523E+00 1.70636E+01
 -1       982-2.41134E+00 9.91921E-01 3.89370E+00
 -1       983 3.14288E+00 6.55877E+00 3.78619E+01
 -1       984 3.68700E+00 1.00123E+01 5.73511E+01
 -1       985 2.72396E+00 4.56439E+00 2.66275E+01
 -1       986-1.01790E+00 4.19242E-01 6.21385E-01
 -1       987 8.13885E-01 1.52016E-01 1.88097E+00
 -1       988 4.69170E+00 3.68466E+01 2.09265E+02
 -1       989-9.82665E+00 2.42871E+01 1.37690E+02
 -1       990 3.95394E+00 1.25850E+01 7.18786E+01
 -1       991 4.77013E+00 3.36163E+01 1.90937E+02
 -1       992-9.29821E+00 1.83202E+01 1.03586E+02
 -1       993-9.97846E+00 2.73685E+01 1.55278E+02
 -1       994-9.60377E+00 2.12629E+01 1.20414E+02
 -1       995-4.24330E+00 2.56085E+00 1.30499E+01
 -1       996-7.08980E+00 7.94249E+00 4.40892E+01
 -1       997-8.21322E+00 1.15014E+01 6.45165E+01
 -1       998-5.31275E+00 4.05396E+00 2.16897E+01
 -1       999-6.26058E+00 5.86059E+00 3.21084E+01
 -1      1000 4.46748E-02-1.97382E-02 1.40268E-02
 -1      1001-6.26208E+00 3.80252E+01 2.15956E+02
 -1      1002-1.74897E+00 6.65052E-01 1.96530E+00
 -1      1003 1.12962E+00 4.95262E-01 3.79748E+00
 -1      1004 1.44475E+00 9.45295E-01 6.31194E+00
 -1      1005-9.02442E-01 1.44975E+00 7.76088E+00
 -1      1006 4.81865E+00 3.52014E+01 1.99929E+02
 -1      1007 4.62784E+00 2.42184E+01 1.37678E+02
 -1      1008-1.00313E+01 2.89243E+01 1.64151E+02
 -1      1009-9.11221E+00 1.68880E+01 9.53885E+01
 -1      1010-8.45464E+00 1.27904E+01 7.19141E+01
 -1      1011 4.07706E+00 1.39334E+01 7.94981E+01
 -1      1012 4.37681E+00 1.81898E+01 1.03563E+02
 -1      1013-8.90170E+00 1.54863E+01 8.73623E+01
 -1      1014 2.49342E+00 3.67562E+00 2.16238E+01
 -1      1015 3.33287E+00 7.65370E+00 4.40390E+01
 -1      1016 3.54548E+00 8.80667E+00 5.05491E+01
 -1      1017-2.08462E+00 9.52996E+00 5.38542E+01
 -1      1018-6.69032E+00 6.86919E+00 3.79166E+01
 -1      1019-9.46174E+00 1.97799E+01 1.11935E+02
 -1      1020 4.70106E+00 2.73242E+01 1.55270E+02
 -1      1021 3.87714E+00 1.12703E+01 6.44609E+01
 -1      1022-1.01183E+01 3.36264E+01 1.90938E+02
 -1      1023 4.76022E+00 3.20385E+01 1.81988E+02
 -1      1024-5.80161E+00 4.92038E+00 2.66903E+01
 -1      1025-4.79348E+00 3.26602E+00 1.71343E+01
 -1      1026 4.74630E+00 3.04626E+01 1.73054E+02
 -1      1027-9.72468E+00 2.27664E+01 1.29005E+02
 -1      1028 1.99925E+00 2.13645E+00 1.29748E+01
 -1      1029 4.18835E+00 1.53194E+01 8.73336E+01
 -1      1030 2.94066E+00 5.52744E+00 3.20490E+01
 -1      1031-1.00710E+01 3.04871E+01 1.73059E+02
 -1      1032 4.52148E+00 2.11653E+01 1.20396E+02
 -1      1033-9.91089E+00 2.58218E+01 1.46453E+02
 -1      1034-3.73306E-01 3.00378E-01 1.19839E+00
 -1      1035-5.54429E-01 5.74195E-01 2.75182E+00
 -1      1036-3.72312E+00 1.95769E+00 9.52773E+00
 -1      1037-3.40615E-01 1.89633E-01 5.02090E-02
 -1      1038-7.57621E+00 9.07633E+00 5.05921E+01
 -1      1039-2.16047E+00 1.07614E+01 6.08705E+01
 -1      1040-2.76298E+00 3.59021E+01 2.03895E+02
 -1      1041-3.08048E+00 1.41345E+00 6.34847E+00
 -1      1042-2.68269E+00 3.44059E+01 1.95392E+02
 -1      1043-1.05225E+00 2.03262E+00 1.11006E+01
 -1      1044-2.64615E+00 2.81270E+01 1.59701E+02
 -1      1045-2.65787E+00 2.96911E+01 1.68594E+02
 -1      1046-2.61077E+00 2.50231E+01 1.42050E+02
 -1      1047-2.67205E+00 3.28342E+01 1.86461E+02
 -1      1048-2.48329E+00 1.89885E+01 1.07717E+02
 -1      1049-2.32602E+00 1.47139E+01 8.33844E+01
 -1      1050-2.52293E+00 2.04680E+01 1.16136E+02
 -1      1051-2.55763E+00 2.19691E+01 1.24677E+02
 -1      1052-2.66645E+00 3.12609E+01 1.77518E+02
 -1      1053-2.63084E+00 2.65703E+01 1.50848E+02
 -1      1054-2.21194E+00 1.20362E+01 6.81345E+01
 -1      1055-1.20091E+00 2.70517E+00 1.49440E+01
 -1      1056-1.34189E+00 3.46371E+00 1.92736E+01
 -1      1057-2.38530E+00 1.61079E+01 9.13190E+01
 -1      1058-1.60053E+00 5.21661E+00 2.92758E+01
 -1      1059-1.71796E+00 6.20231E+00 3.48974E+01
 -1      1060-1.47613E+00 4.30242E+00 2.40585E+01
 -1      1061-2.43719E+00 1.75341E+01 9.94375E+01
 -1      1062-2.58681E+00 2.34885E+01 1.33321E+02
 -1      1063-1.82673E+00 7.25494E+00 4.08965E+01
 -1      1064-2.26090E+00 1.33558E+01 7.56528E+01
 -1      1065-1.92951E+00 8.36920E+00 4.72454E+01
 -1      1066-7.93057E+00 1.02627E+01 5.74057E+01
 -1      1067-7.26390E-01 9.59435E-01 4.95696E+00
 -1      1068 1.12307E+00 3.79777E+01 2.15686E+02
 -1      1069 4.75230E-01-7.55390E-02 5.41130E-01
 -1      1070-1.00494E+01 3.68406E+01 2.09223E+02
 -1      1071-2.39629E-01 1.53397E-01 3.63259E-01
 -1      1072-5.79488E-01 3.17746E-01 1.28440E-01
 -1      1073 3.37647E-01-1.93206E-01 5.09578E-02
 -1      1074 7.15956E+00 3.81325E+01 2.16565E+02
 -1      1075-1.24724E+01 3.81404E+01 2.16611E+02
 -1      1076-2.65206E+00 3.71185E+01 2.10805E+02
 -1      1077-3.54000E-01 2.39703E-01 7.10937E-02
 -1      1078-2.61542E-01 1.94713E-01-2.01927E-03
 -1      1079-9.10009E-01 4.22812E-01 3.05593E-01
 -1      1080 1.42576E-01-1.17268E-01-3.22077E-02
 -1      1081 2.36112E-01-1.76152E-01 1.51196E-02
 -1      1082 5.94922E-01-2.83425E-01 1.85034E-01
 -1      1083-1.13765E+01 3.86386E+01 2.19442E+02
 -1      1084-1.51790E+01 3.86386E+01 2.19442E+02
 -1      1085-1.51785E+01 3.78513E+01 2.14968E+02
 -1      1086 9.84482E+00 3.86354E+01 2.19420E+02
 -1      1087 6.04228E+00 3.86354E+01 2.19419E+02
 -1      1088 9.84439E+00 3.78469E+01 2.14945E+02
 -1      1089-1.53914E-02 4.46432E-03-5.94661E-02
 -1      1090 7.47791E-02-6.52240E-02-5.51323E-02
 -1      1091 1.98373E-01-1.09848E-01 2.15813E-02
 -1      1092-2.05197E-01 1.46245E-01-2.59696E-02
 -1      1093-1.20079E-01 7.98991E-02-5.83832E-02
 -1      1094-1.42340E-01 8.51096E-02 1.85029E-02
 -1      1095-4.65688E-01 2.61138E-01 7.99988E-02
 -1      1096 3.02394E+00 3.85579E+01 2.18980E+02
 -1      1097-7.77392E-01 3.85577E+01 2.18979E+02
 -1      1098 4.14107E+00 3.80551E+01 2.16125E+02
 -1      1099-4.47004E+00 3.85813E+01 2.19114E+02
 -1      1100-8.27131E+00 3.85811E+01 2.19115E+02
 -1      1101-2.56956E+00 3.80015E+01 2.15821E+02
 -1      1102-9.36700E+00 3.80828E+01 2.16283E+02
 -1      1103 7.54385E-01-2.37640E-01 4.10704E-01
 -1      1104 1.03827E+00-1.75310E-01 8.82462E-01
 -1      1105 4.42191E-01-1.58425E-01 2.34719E-01
 -1      1106 1.34599E+00-6.22204E-02 1.55527E+00
 -1      1107 1.63278E+00 8.28105E-02 2.36392E+00
 -1      1108 6.43613E-01 2.04049E-02 1.12319E+00
 -1      1109 1.91816E+00 2.56756E-01 3.32188E+00
 -1      1110 2.19672E+00 4.59591E-01 4.43207E+00
 -1      1111 9.72145E-01 3.10189E-01 2.76451E+00
 -1      1112 2.47677E+00 6.87699E-01 5.68928E+00
 -1      1113 2.74474E+00 9.41228E-01 7.08420E+00
 -1      1114 1.28861E+00 7.07482E-01 4.98288E+00
 -1      1115 3.00383E+00 1.21911E+00 8.61776E+00
 -1      1116 3.25872E+00 1.52018E+00 1.02824E+01
 -1      1117 1.58997E+00 1.20778E+00 7.77833E+00
 -1      1118 3.50408E+00 1.84430E+00 1.20786E+01
 -1      1119 3.74595E+00 2.19035E+00 1.39995E+01
 -1      1120 1.86720E+00 1.80397E+00 1.11132E+01
 -1      1121 3.97493E+00 2.55799E+00 1.60431E+01
 -1      1122 4.20312E+00 2.94678E+00 1.82062E+01
 -1      1123 2.12576E+00 2.48997E+00 1.49587E+01
 -1      1124 4.42553E+00 3.35522E+00 2.04853E+01
 -1      1125 4.64003E+00 3.78373E+00 2.28767E+01
 -1      1126 2.37221E+00 3.26068E+00 1.92866E+01
 -1      1127 4.84850E+00 4.23147E+00 2.53776E+01
 -1      1128 5.05091E+00 4.69797E+00 2.79852E+01
 -1      1129 2.61079E+00 4.11072E+00 2.40718E+01
 -1      1130 5.24668E+00 5.18252E+00 3.06950E+01
 -1      1131 5.43667E+00 5.68471E+00 3.35044E+01
 -1      1132 2.83441E+00 5.03731E+00 2.92881E+01
 -1      1133 5.62010E+00 6.20347E+00 3.64101E+01
 -1      1134 5.79707E+00 6.73905E+00 3.94083E+01
 -1      1135 3.04351E+00 6.03465E+00 3.49084E+01
 -1      1136 5.96847E+00 7.28961E+00 4.24959E+01
 -1      1137 6.13210E+00 7.85534E+00 4.56692E+01
 -1      1138 3.23939E+00 7.09874E+00 4.09065E+01
 -1      1139 6.30929E+00 8.43466E+00 4.89238E+01
 -1      1140 6.46201E+00 9.02956E+00 5.22607E+01
 -1      1141 3.44070E+00 8.22267E+00 4.72529E+01
 -1      1142 6.59763E+00 9.63544E+00 5.56608E+01
 -1      1143 6.73797E+00 1.02562E+01 5.91476E+01
 -1      1144 3.61830E+00 9.40265E+00 5.39126E+01
 -1      1145 6.89309E+00 1.08881E+01 6.27021E+01
 -1      1146 7.02221E+00 1.15335E+01 6.63266E+01
 -1      1147 3.78363E+00 1.06350E+01 6.08714E+01
 -1      1148 7.11490E+00 1.21936E+01 7.00347E+01
 -1      1149 7.23225E+00 1.28607E+01 7.37852E+01
 -1      1150 3.91799E+00 1.19223E+01 6.81383E+01
 -1      1151 7.34378E+00 1.35377E+01 7.75943E+01
 -1      1152 7.44966E+00 1.42247E+01 8.14586E+01
 -1      1153 4.01704E+00 1.32541E+01 7.56600E+01
 -1      1154 7.55033E+00 1.49204E+01 8.53756E+01
 -1      1155 7.64499E+00 1.56251E+01 8.93422E+01
 -1      1156 4.13421E+00 1.46221E+01 8.33903E+01
 -1      1157 7.73459E+00 1.63377E+01 9.33558E+01
 -1      1158 7.81930E+00 1.70584E+01 9.74138E+01
 -1      1159 4.24009E+00 1.60257E+01 9.13253E+01
 -1      1160 7.89868E+00 1.77859E+01 1.01513E+02
 -1      1161 7.97337E+00 1.85202E+01 1.05652E+02
 -1      1162 4.33415E+00 1.74613E+01 9.94427E+01
 -1      1163 8.04332E+00 1.92609E+01 1.09827E+02
 -1      1164 8.10876E+00 2.00076E+01 1.14036E+02
 -1      1165 4.41693E+00 1.89249E+01 1.07721E+02
 -1      1166 8.16942E+00 2.07593E+01 1.18277E+02
 -1      1167 8.22550E+00 2.15163E+01 1.22546E+02
 -1      1168 4.48905E+00 2.04131E+01 1.16140E+02
 -1      1169 8.27736E+00 2.22775E+01 1.26843E+02
 -1      1170 8.32480E+00 2.30433E+01 1.31163E+02
 -1      1171 4.55149E+00 2.19222E+01 1.24681E+02
 -1      1172 8.36843E+00 2.38125E+01 1.35507E+02
 -1      1173 8.40809E+00 2.45856E+01 1.39871E+02
 -1      1174 4.60466E+00 2.34492E+01 1.33324E+02
 -1      1175 8.44446E+00 2.53612E+01 1.44253E+02
 -1      1176 8.47645E+00 2.61396E+01 1.48651E+02
 -1      1177 4.64915E+00 2.49909E+01 1.42052E+02
 -1      1178 8.50514E+00 2.69203E+01 1.53064E+02
 -1      1179 8.53093E+00 2.77035E+01 1.57490E+02
 -1      1180 4.68585E+00 2.65441E+01 1.50850E+02
 -1      1181 8.55346E+00 2.84881E+01 1.61927E+02
 -1      1182 8.57337E+00 2.92743E+01 1.66373E+02
 -1      1183 4.71492E+00 2.81067E+01 1.59702E+02
 -1      1184 8.59024E+00 3.00616E+01 1.70828E+02
 -1      1185 8.60475E+00 3.08500E+01 1.75289E+02
 -1      1186 4.73741E+00 2.96760E+01 1.68596E+02
 -1      1187 8.61692E+00 3.16390E+01 1.79756E+02
 -1      1188 8.62712E+00 3.24288E+01 1.84227E+02
 -1      1189 4.75399E+00 3.12501E+01 1.77519E+02
 -1      1190 8.63516E+00 3.32185E+01 1.88700E+02
 -1      1191 8.64168E+00 3.40086E+01 1.93176E+02
 -1      1192 4.76580E+00 3.28273E+01 1.86461E+02
 -1      1193 8.66762E+00 3.48017E+01 1.97672E+02
 -1      1194 8.67130E+00 3.55917E+01 2.02150E+02
 -1      1195 4.79481E+00 3.44089E+01 1.95432E+02
 -1      1196 8.60845E+00 3.64147E+01 2.06818E+02
 -1      1197 8.61009E+00 3.72038E+01 2.11295E+02
 -1      1198 4.75552E+00 3.60242E+01 2.04597E+02
 -1      1199 5.92571E+00 3.74896E+01 2.12916E+02
 -1      1200-1.68638E+00 5.91858E-01 1.01507E+00
 -1      1201-1.21522E+00 4.84310E-01 5.33065E-01
 -1      1202-8.34176E-01 3.75263E-01 3.20084E-01
 -1      1203-2.65579E+00 8.54394E-01 2.49678E+00
 -1      1204-2.18765E+00 7.15923E-01 1.68984E+00
 -1      1205-1.38374E+00 5.30264E-01 1.20743E+00
 -1      1206-3.56753E+00 1.20218E+00 4.56765E+00
 -1      1207-3.11460E+00 1.01598E+00 3.45965E+00
 -1      1208-2.08425E+00 8.15680E-01 2.85440E+00
 -1      1209-4.45563E+00 1.64557E+00 7.18450E+00
 -1      1210-4.02111E+00 1.41061E+00 5.79499E+00
 -1      1211-2.74714E+00 1.19091E+00 5.05291E+00
 -1      1212-5.31005E+00 2.19847E+00 1.04365E+01
 -1      1213-4.89633E+00 1.91548E+00 8.77268E+00
 -1      1214-3.40599E+00 1.67317E+00 7.86546E+00
 -1      1215-6.06813E+00 2.82568E+00 1.41112E+01
 -1      1216-5.67811E+00 2.49732E+00 1.21939E+01
 -1      1217-3.98877E+00 2.24824E+00 1.12272E+01
 -1      1218-6.81724E+00 3.54638E+00 1.83116E+01
 -1      1219-6.44775E+00 3.17583E+00 1.61516E+01
 -1      1220-4.52229E+00 2.90272E+00 1.50315E+01
 -1      1221-7.52501E+00 4.34963E+00 2.29763E+01
 -1      1222-7.17594E+00 3.93812E+00 2.05877E+01
 -1      1223-5.05695E+00 3.64955E+00 1.93552E+01
 -1      1224-8.19031E+00 5.22943E+00 2.80787E+01
 -1      1225-7.86267E+00 4.78032E+00 2.54745E+01
 -1      1226-5.56075E+00 4.47786E+00 2.41362E+01
 -1      1227-8.81388E+00 6.18167E+00 3.35921E+01
 -1      1228-8.50733E+00 5.69707E+00 3.07860E+01
 -1      1229-6.03478E+00 5.38152E+00 2.93487E+01
 -1      1230-9.39672E+00 7.20218E+00 3.94900E+01
 -1      1231-9.11027E+00 6.68385E+00 3.64945E+01
 -1      1232-6.47925E+00 6.35620E+00 3.49652E+01
 -1      1233-9.93998E+00 8.28600E+00 4.57450E+01
 -1      1234-9.67324E+00 7.73650E+00 4.25745E+01
 -1      1235-6.89382E+00 7.39799E+00 4.09590E+01
 -1      1236-1.05005E+01 9.42857E+00 5.23287E+01
 -1      1237-1.02531E+01 8.85048E+00 4.89949E+01
 -1      1238-7.33503E+00 8.50251E+00 4.73000E+01
 -1      1239-1.09703E+01 1.06244E+01 5.92180E+01
 -1      1240-1.07418E+01 1.00199E+01 5.57343E+01
 -1      1241-7.75691E+00 9.66320E+00 5.39614E+01
 -1      1242-1.13792E+01 1.18707E+01 6.63938E+01
 -1      1243-1.11706E+01 1.12415E+01 6.27720E+01
 -1      1244-8.07569E+00 1.08759E+01 6.09267E+01
 -1      1245-1.17434E+01 1.31649E+01 7.38384E+01
 -1      1246-1.15543E+01 1.25130E+01 7.00908E+01
 -1      1247-8.33758E+00 1.21401E+01 6.81836E+01
 -1      1248-1.20702E+01 1.44987E+01 8.15068E+01
 -1      1249-1.18990E+01 1.38273E+01 7.76452E+01
 -1      1250-8.56434E+00 1.34498E+01 7.56936E+01
 -1      1251-1.23862E+01 1.58710E+01 8.93853E+01
 -1      1252-1.22324E+01 1.51806E+01 8.54211E+01
 -1      1253-8.78739E+00 1.47978E+01 8.34212E+01
 -1      1254-1.26679E+01 1.72764E+01 9.74525E+01
 -1      1255-1.25311E+01 1.65698E+01 9.33966E+01
 -1      1256-9.01010E+00 1.61831E+01 9.13529E+01
 -1      1257-1.29175E+01 1.87118E+01 1.05686E+02
 -1      1258-1.27968E+01 1.79907E+01 1.01550E+02
 -1      1259-9.20819E+00 1.76005E+01 9.94669E+01
 -1      1260-1.31354E+01 2.01737E+01 1.14066E+02
 -1      1261-1.30305E+01 1.94397E+01 1.09859E+02
 -1      1262-9.38273E+00 1.90468E+01 1.07743E+02
 -1      1263-1.33238E+01 2.16587E+01 1.22571E+02
 -1      1264-1.32330E+01 2.09136E+01 1.18304E+02
 -1      1265-9.53546E+00 2.05187E+01 1.16159E+02
 -1      1266-1.34838E+01 2.31631E+01 1.31185E+02
 -1      1267-1.34071E+01 2.24088E+01 1.26866E+02
 -1      1268-9.66662E+00 2.20124E+01 1.24697E+02
 -1      1269-1.36180E+01 2.46845E+01 1.39888E+02
 -1      1270-1.35542E+01 2.39220E+01 1.35526E+02
 -1      1271-9.77796E+00 2.35247E+01 1.33337E+02
 -1      1272-1.37278E+01 2.62197E+01 1.48665E+02
 -1      1273-1.36756E+01 2.54507E+01 1.44268E+02
 -1      1274-9.87093E+00 2.50529E+01 1.42063E+02
 -1      1275-1.38156E+01 2.77661E+01 1.57501E+02
 -1      1276-1.37744E+01 2.69917E+01 1.53077E+02
 -1      1277-9.94657E+00 2.65939E+01 1.50859E+02
 -1      1278-1.38835E+01 2.93215E+01 1.66382E+02
 -1      1279-1.38520E+01 2.85429E+01 1.61937E+02
 -1      1280-1.00066E+01 2.81453E+01 1.59709E+02
 -1      1281-1.39337E+01 3.08837E+01 1.75295E+02
 -1      1282-1.39106E+01 3.01019E+01 1.70835E+02
 -1      1283-1.00527E+01 2.97050E+01 1.68601E+02
 -1      1284-1.39686E+01 3.24509E+01 1.84230E+02
 -1      1285-1.39527E+01 3.16669E+01 1.79761E+02
 -1      1286-1.00866E+01 3.12705E+01 1.77523E+02
 -1      1287-1.39913E+01 3.40215E+01 1.93179E+02
 -1      1288-1.39814E+01 3.32359E+01 1.88704E+02
 -1      1289-1.01099E+01 3.28403E+01 1.86464E+02
 -1      1290-1.40784E+01 3.55863E+01 2.02087E+02
 -1      1291-1.40731E+01 3.47997E+01 1.97609E+02
 -1      1292-1.01991E+01 3.44049E+01 1.95369E+02
 -1      1293-1.39667E+01 3.72015E+01 2.11274E+02
 -1      1294-1.39647E+01 3.64144E+01 2.06798E+02
 -1      1295-1.01645E+01 3.60121E+01 2.04512E+02
 -1      1296-1.12611E+01 3.74906E+01 2.12917E+02
 -1      1297 1.00462E+00 2.30869E+01 1.31150E+02
 -1      1298 1.01013E+00 2.38527E+01 1.35495E+02
 -1      1299 9.92055E-01 2.15680E+01 1.22530E+02
 -1      1300 9.98562E-01 2.23255E+01 1.26828E+02
 -1      1301-2.57277E+00 2.27269E+01 1.28987E+02
 -1      1302 1.03165E+00 2.77262E+01 1.57483E+02
 -1      1303 1.03481E+00 2.85083E+01 1.61920E+02
 -1      1304 1.03754E+00 2.92913E+01 1.66367E+02
 -1      1305 1.03991E+00 3.00763E+01 1.70823E+02
 -1      1306-2.65248E+00 2.89082E+01 1.64143E+02
 -1      1307-6.47912E+00 3.47951E+01 1.97596E+02
 -1      1308-6.40126E+00 3.40158E+01 1.93165E+02
 -1      1309-2.72299E+00 3.51540E+01 1.99643E+02
 -1      1310-6.52094E+00 3.55428E+01 2.01847E+02
 -1      1311-6.40547E+00 3.63716E+01 2.06559E+02
 -1      1312 9.41358E-01 1.71376E+01 9.73902E+01
 -1      1313 9.51529E-01 1.78607E+01 1.01491E+02
 -1      1314 9.19738E-01 1.57145E+01 8.93152E+01
 -1      1315 9.31061E-01 1.64224E+01 9.33306E+01
 -1      1316-2.41192E+00 1.68170E+01 9.53568E+01
 -1      1317 9.60687E-01 1.85900E+01 1.05631E+02
 -1      1318 9.69097E-01 1.93264E+01 1.09808E+02
 -1      1319 9.77386E-01 2.00680E+01 1.14018E+02
 -1      1320 9.85019E-01 2.08157E+01 1.18259E+02
 -1      1321-2.50379E+00 1.97256E+01 1.11910E+02
 -1      1322 1.01525E+00 2.46216E+01 1.39860E+02
 -1      1323 1.02009E+00 2.53938E+01 1.44243E+02
 -1      1324 1.02458E+00 2.61686E+01 1.48642E+02
 -1      1325 1.02826E+00 2.69465E+01 1.53056E+02
 -1      1326-2.62120E+00 2.57951E+01 1.46441E+02
 -1      1327-6.39318E+00 3.32305E+01 1.88699E+02
 -1      1328-6.38731E+00 3.24442E+01 1.84225E+02
 -1      1329-6.38007E+00 3.16583E+01 1.79754E+02
 -1      1330-6.37095E+00 3.08736E+01 1.75287E+02
 -1      1331-2.66957E+00 3.20471E+01 1.81987E+02
 -1      1332-5.43924E+00 1.37383E+01 7.75795E+01
 -1      1333-5.38146E+00 1.30722E+01 7.37691E+01
 -1      1334-5.59188E+00 1.51006E+01 8.53626E+01
 -1      1335-5.51754E+00 1.44151E+01 8.14450E+01
 -1      1336-2.29431E+00 1.40302E+01 7.94917E+01
 -1      1337 3.26298E-01 1.19820E+00 7.00454E+00
 -1      1338 3.55581E-01 1.47019E+00 8.53986E+00
 -1      1339-9.78583E-01 1.72945E+00 9.36489E+00
 -1      1340 3.91423E-01 1.76446E+00 1.02103E+01
 -1      1341 4.18275E-01 2.08284E+00 1.20087E+01
 -1      1342 4.98811E-01 3.16550E+00 1.81418E+01
 -1      1343 5.26004E-01 3.56787E+00 2.04228E+01
 -1      1344 4.48225E-01 2.42172E+00 1.39311E+01
 -1      1345 4.70971E-01 2.78363E+00 1.59765E+01
 -1      1346-1.27239E+00 3.07429E+00 1.70499E+01
 -1      1347-1.42047E+00 7.83694E-01 3.28982E+00
 -1      1348-1.21248E+00 6.18256E-01 2.32267E+00
 -1      1349-1.62544E+00 9.73826E-01 4.39246E+00
 -1      1350-6.41347E-01 7.53940E-01 3.78255E+00
 -1      1351-1.84345E+00 1.18746E+00 5.62155E+00
 -1      1352 6.93085E-01 6.90795E+00 3.93585E+01
 -1      1353 7.14197E-01 7.45265E+00 4.24479E+01
 -1      1354 6.49266E-01 5.86589E+00 3.34511E+01
 -1      1355 6.71372E-01 6.37899E+00 3.63584E+01
 -1      1356-1.77321E+00 6.72070E+00 3.78513E+01
 -1      1357 7.60541E-01 9.16936E+00 5.21839E+01
 -1      1358 7.67403E-01 9.76976E+00 5.55853E+01
 -1      1359-2.12371E+00 1.01393E+01 5.73259E+01
 -1      1360 7.91220E-01 1.03875E+01 5.90942E+01
 -1      1361 8.27608E-01 1.10144E+01 6.26501E+01
 -1      1362 5.52700E-01 3.98956E+00 2.28156E+01
 -1      1363 5.77814E-01 4.43170E+00 2.53189E+01
 -1      1364 6.02112E-01 4.89142E+00 2.79280E+01
 -1      1365 6.26461E-01 5.37047E+00 3.06398E+01
 -1      1366-1.53914E+00 4.75029E+00 2.66150E+01
 -1      1367-1.00273E+00 4.83653E-01 1.55012E+00
 -1      1368-7.69105E-01 3.60520E-01 8.64844E-01
 -1      1369-3.08149E-01 2.19051E-01 7.32334E-01
 -1      1370-6.04261E-01 2.86670E-01 4.71658E-01
 -1      1371-3.23632E-01 1.73103E-01 1.77996E-01
 -1      1372-6.32585E-01 2.98073E-01 2.84980E-01
 -1      1373 1.89036E-01 3.63263E-01 2.28118E+00
 -1      1374 2.24416E-01 5.32728E-01 3.24108E+00
 -1      1375-4.63842E-01 4.25343E-01 1.90519E+00
 -1      1376 1.62622E-01 2.25236E-01 1.50849E+00
 -1      1377 1.22818E-01 1.06728E-01 8.24767E-01
 -1      1378 1.02805E+00 3.55520E+01 2.01912E+02
 -1      1379 9.63530E-01 3.63742E+01 2.06580E+02
 -1      1380-2.70760E+00 3.65104E+01 2.07350E+02
 -1      1381 1.01965E+00 3.69826E+01 2.10035E+02
 -1      1382 2.90753E+00 3.74123E+01 2.12476E+02
 -1      1383-7.64650E-01 3.75480E+01 2.13245E+02
 -1      1384-6.19662E+00 2.38884E+01 1.35501E+02
 -1      1385-6.16461E+00 2.31266E+01 1.31157E+02
 -1      1386-6.25268E+00 2.54231E+01 1.44248E+02
 -1      1387-6.22583E+00 2.46544E+01 1.39865E+02
 -1      1388-2.59927E+00 2.42542E+01 1.37676E+02
 -1      1389 8.68949E-01 1.29714E+01 7.37523E+01
 -1      1390 8.82557E-01 1.36434E+01 7.75628E+01
 -1      1391 8.58063E-01 1.16541E+01 6.62825E+01
 -1      1392 8.43161E-01 1.23092E+01 6.99924E+01
 -1      1393-2.23747E+00 1.26909E+01 7.18636E+01
 -1      1394 1.04447E+00 3.40114E+01 1.93164E+02
 -1      1395 1.06662E+00 3.48033E+01 1.97660E+02
 -1      1396 1.04537E+00 3.24367E+01 1.84223E+02
 -1      1397 1.04675E+00 3.32248E+01 1.88698E+02
 -1      1398-2.67751E+00 3.36198E+01 1.90926E+02
 -1      1399-5.84966E+00 1.79278E+01 1.01503E+02
 -1      1400-5.79115E+00 1.72099E+01 9.74029E+01
 -1      1401-5.95652E+00 1.93850E+01 1.09818E+02
 -1      1402-5.90496E+00 1.86533E+01 1.05642E+02
 -1      1403-2.46086E+00 1.82578E+01 1.03558E+02
 -1      1404-6.33325E+00 2.85262E+01 1.61924E+02
 -1      1405-6.31670E+00 2.77471E+01 1.57486E+02
 -1      1406-6.29780E+00 2.69698E+01 1.53060E+02
 -1      1407-6.27649E+00 2.61953E+01 1.48647E+02
 -1      1408-2.63887E+00 2.73474E+01 1.55268E+02
 -1      1409-6.04979E+00 2.08663E+01 1.18268E+02
 -1      1410-6.00478E+00 2.01231E+01 1.14028E+02
 -1      1411-6.12947E+00 2.23685E+01 1.26836E+02
 -1      1412-6.09107E+00 2.16152E+01 1.22539E+02
 -1      1413-2.54092E+00 2.12162E+01 1.20393E+02
 -1      1414-2.94597E+00 2.98650E+00 1.60123E+01
 -1      1415-2.77216E+00 2.63173E+00 1.39679E+01
 -1      1416-2.59317E+00 2.29754E+00 1.20469E+01
 -1      1417-2.43873E+00 1.99371E+00 1.02847E+01
 -1      1418-1.12755E+00 2.35825E+00 1.29599E+01
 -1      1419-4.42103E+00 7.59916E+00 4.24738E+01
 -1      1420-4.29466E+00 7.06041E+00 3.93854E+01
 -1      1421-4.71669E+00 8.72378E+00 4.89006E+01
 -1      1422-4.54248E+00 8.15425E+00 4.56477E+01
 -1      1423-1.87884E+00 7.80435E+00 4.40285E+01
 -1      1424-5.30545E+00 1.24142E+01 7.00106E+01
 -1      1425-5.23829E+00 1.17673E+01 6.63100E+01
 -1      1426-2.18726E+00 1.13928E+01 6.44696E+01
 -1      1427-5.15660E+00 1.11322E+01 6.26784E+01
 -1      1428-5.07384E+00 1.05108E+01 5.91213E+01
 -1      1429-3.59257E+00 4.61231E+00 2.53506E+01
 -1      1430-3.43796E+00 4.17646E+00 2.28485E+01
 -1      1431-3.27903E+00 3.75922E+00 2.04566E+01
 -1      1432-3.11483E+00 3.36306E+00 1.81767E+01
 -1      1433-1.40976E+00 3.87301E+00 2.16104E+01
 -1      1434-4.16339E+00 6.53654E+00 3.63861E+01
 -1      1435-4.02801E+00 6.02988E+00 3.34802E+01
 -1      1436-3.88746E+00 5.53947E+00 3.06698E+01
 -1      1437-3.74225E+00 5.06708E+00 2.79589E+01
 -1      1438-1.66007E+00 5.70111E+00 3.20378E+01
 -1      1439-6.09818E-02 5.78091E-02 1.53386E-01
 -1      1440 9.20971E-02 4.23617E-02 4.33183E-01
 -1      1441 2.12189E-01-5.43444E-02 2.21791E-01
 -1      1442-4.45697E+00 3.75720E+01 2.13381E+02
 -1      1443-8.15599E+00 3.74328E+01 2.12590E+02
 -1      1444-6.35056E+00 3.69796E+01 2.10014E+02
 -1      1445 2.58920E-01 7.27996E-01 4.34410E+00
 -1      1446 2.97742E-01 9.50131E-01 5.60190E+00
 -1      1447-8.14783E-01 1.19211E+00 6.28924E+00
 -1      1448-2.04921E+00 1.42974E+00 7.02122E+00
 -1      1449-2.25258E+00 1.70442E+00 8.61261E+00
 -1      1450-6.36040E+00 3.00896E+01 1.70825E+02
 -1      1451-6.34788E+00 2.93072E+01 1.66370E+02
 -1      1452-5.72843E+00 1.64988E+01 9.33439E+01
 -1      1453-5.66189E+00 1.57958E+01 8.93294E+01
 -1      1454 8.95637E-01 1.43246E+01 8.14289E+01
 -1      1455 9.07922E-01 1.50152E+01 8.53475E+01
 -1      1456-2.35632E+00 1.54064E+01 8.73274E+01
 -1      1457 7.34842E-01 8.01203E+00 4.56226E+01
 -1      1458 7.72475E-01 8.58624E+00 4.88789E+01
 -1      1459-2.00705E+00 8.94292E+00 5.05114E+01
 -1      1460-4.86048E+00 9.30197E+00 5.22051E+01
 -1      1461-4.97444E+00 9.89734E+00 5.56130E+01
 -1      1462 1.04191E+00 3.08622E+01 1.75285E+02
 -1      1463 1.04381E+00 3.16492E+01 1.79752E+02
 -1      1464-2.66246E+00 3.04754E+01 1.73053E+02
 -1      1465 1.56748E+01 2.12503E+01 1.20489E+02
 -1      1466 1.62791E+01 2.73631E+01 1.55312E+02
 -1      1467 1.38170E+01 3.04596E+01 1.73074E+02
 -1      1468 1.65400E+01 3.51836E+01 1.99804E+02
 -1      1469 1.48862E+01 1.68686E+01 9.55022E+01
 -1      1470 1.34905E+01 2.42091E+01 1.37732E+02
 -1      1471 1.41540E+01 1.40940E+01 7.96745E+01
 -1      1472 5.05933E+00 1.43555E+00 9.72968E+00
 -1      1473 7.85167E+00 3.21309E+00 1.74440E+01
 -1      1474 3.96159E+00 9.26528E-01 4.26480E+00
 -1      1475 9.19108E+00 6.51061E+00 3.80818E+01
 -1      1476 1.27561E+01 1.02370E+01 5.76477E+01
 -1      1477 9.49628E+00 4.87355E+00 2.69644E+01
 -1      1478 1.40430E+00-1.31342E-01 9.26710E-01
 -1      1479 1.29952E+01 1.96508E+01 1.12003E+02
 -1      1480 1.64699E+01 3.20533E+01 1.82004E+02
 -1      1481 1.39104E+01 3.68465E+01 2.09267E+02
 -1      1482 1.15541E+01 1.25571E+01 7.20380E+01
 -1      1483 1.38762E+01 3.36152E+01 1.90945E+02
 -1      1484 1.22312E+01 1.52971E+01 8.74626E+01
 -1      1485 1.15873E+01 7.90330E+00 4.43134E+01
 -1      1486 7.30430E+00 3.62115E+00 2.19136E+01
 -1      1487 1.02473E+01 8.77392E+00 5.07808E+01
 -1      1488 7.73115E-01 7.54399E-02 4.51838E-01
 -1      1489 1.58400E+01 3.80258E+01 2.15956E+02
 -1      1490 1.36940E+01 2.73185E+01 1.55305E+02
 -1      1491 1.60352E+01 2.42783E+01 1.37743E+02
 -1      1492 6.00705E+00 1.88320E+00 9.80908E+00
 -1      1493 3.33169E+00 4.25429E-01 4.17116E+00
 -1      1494 2.40188E+00 7.81338E-02 2.25040E+00
 -1      1495 2.16238E+00 2.12473E-01 1.70567E+00
 -1      1496 1.38820E+01 3.52010E+01 1.99933E+02
 -1      1497 1.54442E+01 1.97652E+01 1.12022E+02
 -1      1498 1.51896E+01 1.83035E+01 1.03687E+02
 -1      1499 1.38375E+01 1.75087E+01 9.95797E+01
 -1      1500 1.63630E+01 2.89203E+01 1.64177E+02
 -1      1501 1.33525E+01 2.26726E+01 1.29055E+02
 -1      1502 1.37282E+01 1.27626E+01 7.20736E+01
 -1      1503 1.32707E+01 1.14752E+01 6.47188E+01
 -1      1504 1.19748E+01 1.07343E+01 6.12086E+01
 -1      1505 1.38530E+01 3.20364E+01 1.82002E+02
 -1      1506 1.09425E+01 6.82419E+00 3.81300E+01
 -1      1507 1.37639E+01 2.88862E+01 1.64171E+02
 -1      1508 9.73539E+00 7.61185E+00 4.42601E+01
 -1      1509 8.69779E+00 4.00406E+00 2.19826E+01
 -1      1510 1.02394E+01 5.81128E+00 3.23357E+01
 -1      1511 9.07543E+00 5.14365E+00 2.95729E+01
 -1      1512 1.64975E+01 3.36257E+01 1.90946E+02
 -1      1513 1.19108E+01 1.39082E+01 7.96422E+01
 -1      1514 6.95433E+00 2.50549E+00 1.33765E+01
 -1      1515 6.81991E+00 2.63026E+00 1.53647E+01
 -1      1516 4.21843E+00 8.82731E-01 6.67889E+00
 -1      1517 5.01380E+00 1.35745E+00 6.76299E+00
 -1      1518 1.22062E+01 9.04739E+00 5.08419E+01
 -1      1519 1.61707E+01 2.58149E+01 1.46496E+02
 -1      1520 1.58712E+01 2.27558E+01 1.29069E+02
 -1      1521 1.45393E+01 1.54639E+01 8.74919E+01
 -1      1522 1.64257E+01 3.04843E+01 1.73077E+02
 -1      1523 1.36021E+01 2.57586E+01 1.46487E+02
 -1      1524 1.31880E+01 2.11521E+01 1.20473E+02
 -1      1525 3.14689E+00 4.83527E-01 3.24970E+00
 -1      1526 2.87541E+00 6.01221E-01 2.36567E+00
 -1      1527 7.44586E-01-7.34508E-02 4.39006E-01
 -1      1528 1.24886E+01 1.66794E+01 9.52558E+01
 -1      1529 1.27566E+01 1.82108E+01 1.03889E+02
 -1      1530 6.59322E+00 2.80340E+00 1.73523E+01
 -1      1531 5.83898E+00 2.07019E+00 1.32687E+01
 -1      1532 7.97002E+00 4.51120E+00 2.68909E+01
 -1      1533 1.14828E+01 9.49793E+00 5.42096E+01
 -1      1534 1.11387E+01 1.12479E+01 6.46835E+01
 -1      1535 9.74705E+00 6.13960E+00 3.52028E+01
 -1      1536 1.52203E+01 3.59018E+01 2.03899E+02
 -1      1537 1.51973E+01 3.44046E+01 1.95401E+02
 -1      1538 1.49401E+01 2.65618E+01 1.50899E+02
 -1      1539 1.48282E+01 2.50123E+01 1.42114E+02
 -1      1540 1.46910E+01 2.34754E+01 1.33398E+02
 -1      1541 1.51759E+01 3.28322E+01 1.86475E+02
 -1      1542 1.50952E+01 2.96859E+01 1.68625E+02
 -1      1543 1.32133E+01 1.46828E+01 8.35634E+01
 -1      1544 1.43302E+01 2.04491E+01 1.16245E+02
 -1      1545 5.08090E+00 1.36812E+00 8.23474E+00
 -1      1546 4.13744E+00 8.75347E-01 5.45842E+00
 -1      1547 1.50277E+01 2.81204E+01 1.59741E+02
 -1      1548 1.45256E+01 2.19533E+01 1.24769E+02
 -1      1549 1.09517E+01 8.32131E+00 4.75429E+01
 -1      1550 1.51436E+01 3.12575E+01 1.77540E+02
 -1      1551 1.03712E+01 7.19903E+00 4.11914E+01
 -1      1552 1.28425E+01 1.33206E+01 7.58527E+01
 -1      1553 1.35459E+01 1.60800E+01 9.14802E+01
 -1      1554 1.41029E+01 1.89671E+01 1.07841E+02
 -1      1555 1.07081E+01 9.98584E+00 5.75928E+01
 -1      1556 1.24321E+01 1.20000E+01 6.83697E+01
 -1      1557 5.97454E+00 1.95482E+00 1.15441E+01
 -1      1558 8.59847E+00 5.47565E+00 3.22873E+01
 -1      1559 8.37864E+00 4.23620E+00 2.44305E+01
 -1      1560 7.62128E+00 3.39332E+00 1.96669E+01
 -1      1561 1.45396E+01 3.79778E+01 2.15686E+02
 -1      1562 1.67183E+00 3.35914E-01 1.01735E+00
 -1      1563 1.65059E+01 3.68411E+01 2.09224E+02
 -1      1564 1.34384E+00 6.34147E-02 8.61203E-01
 -1      1565 5.92016E-01-1.91872E-01 3.07503E-01
 -1      1566 7.47497E-01 2.22856E-01 3.89175E-01
 -1      1567 1.34765E+01 3.81325E+01 2.16566E+02
 -1      1568 1.69332E+01 3.81413E+01 2.16610E+02
 -1      1569 1.52037E+01 3.71186E+01 2.10807E+02
 -1      1570 3.55861E-01 9.52805E-02 2.37792E-01
 -1      1571 3.76404E-01 1.64487E-01 2.09801E-01
 -1      1572 1.01202E+00 3.77762E-01 4.58979E-01
 -1      1573 2.75498E-01-1.49900E-01 1.36974E-01
 -1      1574 2.81673E-01-1.02491E-01 1.71618E-01
 -1      1575 7.49786E-01-2.92802E-01 3.38064E-01
 -1      1576 1.74094E+01 3.86396E+01 2.19442E+02
 -1      1577 1.67402E+01 3.86396E+01 2.19442E+02
 -1      1578 1.74093E+01 3.78523E+01 2.14967E+02
 -1      1579 1.36732E+01 3.86353E+01 2.19420E+02
 -1      1580 1.30033E+01 3.86354E+01 2.19420E+02
 -1      1581 1.30033E+01 3.78469E+01 2.14945E+02
 -1      1582 3.71412E-01 1.03647E-02 2.54346E-01
 -1      1583 3.73850E-01 5.84387E-02 2.47351E-01
 -1      1584 7.59602E-01 1.46196E-01 4.29521E-01
 -1      1585 3.53080E-01-7.65475E-02 2.28076E-01
 -1      1586 3.61608E-01-3.33838E-02 2.36030E-01
 -1      1587 7.61470E-01 2.10168E-03 4.55434E-01
 -1      1588 6.66964E-01-1.32554E-01 3.79068E-01
 -1      1589 1.61936E+01 3.85819E+01 2.19115E+02
 -1      1590 1.55244E+01 3.85818E+01 2.19115E+02
 -1      1591 1.63866E+01 3.80835E+01 2.16283E+02
 -1      1592 1.48742E+01 3.85579E+01 2.18980E+02
 -1      1593 1.42048E+01 3.85578E+01 2.18980E+02
 -1      1594 1.51898E+01 3.80017E+01 2.15821E+02
 -1      1595 1.40081E+01 3.80551E+01 2.16126E+02
 -1      1596 1.48059E+00 4.31097E-01 7.60078E-01
 -1      1597 2.08001E+00 5.46819E-01 1.24895E+00
 -1      1598 1.21449E+00 2.88112E-01 6.57713E-01
 -1      1599 2.70112E+00 6.77894E-01 1.92393E+00
 -1      1600 3.28200E+00 8.17425E-01 2.72885E+00
 -1      1601 2.27811E+00 4.58749E-01 1.60724E+00
 -1      1602 3.84589E+00 9.77239E-01 3.67997E+00
 -1      1603 4.40225E+00 1.16488E+00 4.78246E+00
 -1      1604 3.42420E+00 7.51237E-01 3.24198E+00
 -1      1605 4.94889E+00 1.37701E+00 6.03330E+00
 -1      1606 5.48099E+00 1.61282E+00 7.42046E+00
 -1      1607 4.49423E+00 1.12964E+00 5.44245E+00
 -1      1608 5.99810E+00 1.87274E+00 8.94540E+00
 -1      1609 6.50306E+00 2.15660E+00 1.06023E+01
 -1      1610 5.51574E+00 1.60802E+00 8.21817E+00
 -1      1611 6.99633E+00 2.46440E+00 1.23873E+01
 -1      1612 7.47655E+00 2.79422E+00 1.42997E+01
 -1      1613 6.48689E+00 2.18290E+00 1.15288E+01
 -1      1614 7.94307E+00 3.14498E+00 1.63352E+01
 -1      1615 8.39635E+00 3.51624E+00 1.84898E+01
 -1      1616 7.40860E+00 2.84901E+00 1.53496E+01
 -1      1617 8.83722E+00 3.90882E+00 2.07609E+01
 -1      1618 9.26435E+00 4.32133E+00 2.31445E+01
 -1      1619 8.28036E+00 3.59849E+00 1.96555E+01
 -1      1620 9.67984E+00 4.75276E+00 2.56370E+01
 -1      1621 1.00822E+01 5.20276E+00 2.82366E+01
 -1      1622 9.10312E+00 4.42958E+00 2.44194E+01
 -1      1623 1.04691E+01 5.66868E+00 3.09240E+01
 -1      1624 1.08458E+01 6.15413E+00 3.37245E+01
 -1      1625 9.87353E+00 5.33362E+00 2.96005E+01
 -1      1626 1.12120E+01 6.65790E+00 3.66240E+01
 -1      1627 1.15632E+01 7.17678E+00 3.96134E+01
 -1      1628 1.05963E+01 6.30932E+00 3.51847E+01
 -1      1629 1.18995E+01 7.71352E+00 4.27075E+01
 -1      1630 1.22256E+01 8.26411E+00 4.58733E+01
 -1      1631 1.12705E+01 7.35586E+00 4.11766E+01
 -1      1632 1.25474E+01 8.83294E+00 4.91386E+01
 -1      1633 1.28504E+01 9.41175E+00 5.24685E+01
 -1      1634 1.19025E+01 8.46836E+00 4.75363E+01
 -1      1635 1.31367E+01 1.00039E+01 5.58729E+01
 -1      1636 1.34150E+01 1.06093E+01 5.93526E+01
 -1      1637 1.24863E+01 9.63563E+00 5.42080E+01
 -1      1638 1.36828E+01 1.12257E+01 6.28892E+01
 -1      1639 1.39376E+01 1.18557E+01 6.65072E+01
 -1      1640 1.30186E+01 1.08500E+01 6.11485E+01
 -1      1641 1.41763E+01 1.24964E+01 7.01860E+01
 -1      1642 1.44090E+01 1.31495E+01 7.39292E+01
 -1      1643 1.35050E+01 1.21132E+01 6.83649E+01
 -1      1644 1.46301E+01 1.38126E+01 7.77311E+01
 -1      1645 1.48398E+01 1.44850E+01 8.15883E+01
 -1      1646 1.39459E+01 1.34236E+01 7.58455E+01
 -1      1647 1.50407E+01 1.51675E+01 8.54986E+01
 -1      1648 1.52285E+01 1.58589E+01 8.94585E+01
 -1      1649 1.43514E+01 1.47744E+01 8.35571E+01
 -1      1650 1.54088E+01 1.65586E+01 9.34649E+01
 -1      1651 1.55769E+01 1.72656E+01 9.75167E+01
 -1      1652 1.47176E+01 1.61624E+01 9.14741E+01
 -1      1653 1.57348E+01 1.79809E+01 1.01610E+02
 -1      1654 1.58822E+01 1.87026E+01 1.05743E+02
 -1      1655 1.50419E+01 1.75826E+01 9.95749E+01
 -1      1656 1.60151E+01 1.94310E+01 1.09911E+02
 -1      1657 1.61442E+01 2.01660E+01 1.14114E+02
 -1      1658 1.53216E+01 1.90310E+01 1.07837E+02
 -1      1659 1.62639E+01 2.09064E+01 1.18349E+02
 -1      1660 1.63745E+01 2.16522E+01 1.22613E+02
 -1      1661 1.55635E+01 2.05050E+01 1.16240E+02
 -1      1662 1.64767E+01 2.24029E+01 1.26904E+02
 -1      1663 1.65703E+01 2.31577E+01 1.31220E+02
 -1      1664 1.57768E+01 2.20008E+01 1.24766E+02
 -1      1665 1.66558E+01 2.39170E+01 1.35558E+02
 -1      1666 1.67338E+01 2.46803E+01 1.39917E+02
 -1      1667 1.59567E+01 2.35151E+01 1.33395E+02
 -1      1668 1.68042E+01 2.54469E+01 1.44295E+02
 -1      1669 1.68674E+01 2.62162E+01 1.48689E+02
 -1      1670 1.61059E+01 2.50452E+01 1.42111E+02
 -1      1671 1.69239E+01 2.69888E+01 1.53097E+02
 -1      1672 1.69738E+01 2.77636E+01 1.57519E+02
 -1      1673 1.62278E+01 2.65878E+01 1.50897E+02
 -1      1674 1.70176E+01 2.85408E+01 1.61952E+02
 -1      1675 1.70557E+01 2.93198E+01 1.66395E+02
 -1      1676 1.63237E+01 2.81407E+01 1.59739E+02
 -1      1677 1.70884E+01 3.01006E+01 1.70846E+02
 -1      1678 1.71161E+01 3.08828E+01 1.75304E+02
 -1      1679 1.63967E+01 2.97016E+01 1.68623E+02
 -1      1680 1.71391E+01 3.16663E+01 1.79768E+02
 -1      1681 1.71576E+01 3.24504E+01 1.84237E+02
 -1      1682 1.64496E+01 3.12685E+01 1.77538E+02
 -1      1683 1.71722E+01 3.32357E+01 1.88708E+02
 -1      1684 1.71837E+01 3.40218E+01 1.93182E+02
 -1      1685 1.64855E+01 3.28392E+01 1.86474E+02
 -1      1686 1.72051E+01 3.48001E+01 1.97611E+02
 -1      1687 1.72108E+01 3.55868E+01 2.02088E+02
 -1      1688 1.65200E+01 3.44046E+01 1.95375E+02
 -1      1689 1.71939E+01 3.64151E+01 2.06798E+02
 -1      1690 1.71957E+01 3.72024E+01 2.11274E+02
 -1      1691 1.65239E+01 3.60123E+01 2.04514E+02
 -1      1692 1.67198E+01 3.74913E+01 2.12918E+02
 -1      1693 1.59804E+00-2.12143E-01 1.11274E+00
 -1      1694 1.13208E+00-2.65210E-01 6.31762E-01
 -1      1695 9.91173E-01-1.90050E-01 5.64491E-01
 -1      1696 2.51529E+00 3.94247E-02 2.57985E+00
 -1      1697 2.06793E+00-1.04983E-01 1.77472E+00
 -1      1698 1.90788E+00-4.71030E-02 1.50468E+00
 -1      1699 3.38395E+00 4.19551E-01 4.64866E+00
 -1      1700 2.95562E+00 2.15878E-01 3.54321E+00
 -1      1701 2.87221E+00 2.37560E-01 3.13496E+00
 -1      1702 4.21354E+00 9.05345E-01 7.29594E+00
 -1      1703 3.80537E+00 6.50747E-01 5.90625E+00
 -1      1704 3.77948E+00 6.41428E-01 5.35408E+00
 -1      1705 5.00166E+00 1.48625E+00 1.04839E+01
 -1      1706 4.61338E+00 1.18414E+00 8.82452E+00
 -1      1707 4.64327E+00 1.14735E+00 8.13770E+00
 -1      1708 5.73969E+00 2.15287E+00 1.41708E+01
 -1      1709 5.37212E+00 1.80619E+00 1.22562E+01
 -1      1710 5.45367E+00 1.74216E+00 1.14362E+01
 -1      1711 6.44604E+00 2.91177E+00 1.83738E+01
 -1      1712 6.09830E+00 2.52223E+00 1.62159E+01
 -1      1713 6.22099E+00 2.42610E+00 1.52489E+01
 -1      1714 7.11365E+00 3.75226E+00 2.30438E+01
 -1      1715 6.78458E+00 3.32343E+00 2.06573E+01
 -1      1716 6.95409E+00 3.20233E+00 1.95754E+01
 -1      1717 7.73834E+00 4.66751E+00 2.81373E+01
 -1      1718 7.42978E+00 4.19984E+00 2.55351E+01
 -1      1719 7.64162E+00 4.05623E+00 2.43486E+01
 -1      1720 8.32567E+00 5.65561E+00 3.36424E+01
 -1      1721 8.03707E+00 5.15219E+00 3.08383E+01
 -1      1722 8.28836E+00 4.98420E+00 2.95390E+01
 -1      1723 8.87741E+00 6.71186E+00 3.95360E+01
 -1      1724 8.60790E+00 6.17566E+00 3.65425E+01
 -1      1725 8.89929E+00 5.98482E+00 3.51368E+01
 -1      1726 9.38773E+00 7.83160E+00 4.57964E+01
 -1      1727 9.13629E+00 7.26518E+00 4.26276E+01
 -1      1728 9.46825E+00 7.05373E+00 4.11269E+01
 -1      1729 9.86327E+00 9.01100E+00 5.23915E+01
 -1      1730 9.63107E+00 8.41490E+00 4.90594E+01
 -1      1731 9.99570E+00 8.18570E+00 4.74800E+01
 -1      1732 1.02961E+01 1.02410E+01 5.92822E+01
 -1      1733 1.00828E+01 9.61932E+00 5.57997E+01
 -1      1734 1.04819E+01 9.37381E+00 5.41493E+01
 -1      1735 1.06966E+01 1.15199E+01 6.64503E+01
 -1      1736 1.05009E+01 1.08741E+01 6.28302E+01
 -1      1737 1.09276E+01 1.06108E+01 6.11044E+01
 -1      1738 1.10722E+01 1.28449E+01 7.38762E+01
 -1      1739 1.08945E+01 1.21767E+01 7.01301E+01
 -1      1740 1.13499E+01 1.18967E+01 6.83298E+01
 -1      1741 1.14029E+01 1.42104E+01 8.15408E+01
 -1      1742 1.12419E+01 1.35227E+01 7.76805E+01
 -1      1743 1.17365E+01 1.32276E+01 7.58111E+01
 -1      1744 1.17003E+01 1.56121E+01 8.94155E+01
 -1      1745 1.15553E+01 1.49070E+01 8.54531E+01
 -1      1746 1.20751E+01 1.45983E+01 8.35266E+01
 -1      1747 1.19505E+01 1.70267E+01 9.73673E+01
 -1      1748 1.18220E+01 1.63054E+01 9.33148E+01
 -1      1749 1.23633E+01 1.59841E+01 9.13375E+01
 -1      1750 1.21910E+01 1.85300E+01 1.05822E+02
 -1      1751 1.20780E+01 1.77944E+01 1.01686E+02
 -1      1752 1.26263E+01 1.74412E+01 9.95493E+01
 -1      1753 1.24038E+01 1.99989E+01 1.14086E+02
 -1      1754 1.23054E+01 1.92517E+01 1.09881E+02
 -1      1755 1.28787E+01 1.89282E+01 1.07929E+02
 -1      1756 1.25801E+01 2.15089E+01 1.22589E+02
 -1      1757 1.24954E+01 2.07514E+01 1.18323E+02
 -1      1758 1.30950E+01 2.03989E+01 1.16222E+02
 -1      1759 1.27303E+01 2.30371E+01 1.31200E+02
 -1      1760 1.26584E+01 2.22708E+01 1.26882E+02
 -1      1761 1.32733E+01 2.19102E+01 1.24750E+02
 -1      1762 1.28555E+01 2.45804E+01 1.39901E+02
 -1      1763 1.27959E+01 2.38070E+01 1.35540E+02
 -1      1764 1.34244E+01 2.34391E+01 1.33382E+02
 -1      1765 1.29576E+01 2.61353E+01 1.48675E+02
 -1      1766 1.29087E+01 2.53568E+01 1.44280E+02
 -1      1767 1.35493E+01 2.49825E+01 1.42101E+02
 -1      1768 1.30391E+01 2.77003E+01 1.57509E+02
 -1      1769 1.30010E+01 2.69166E+01 1.53085E+02
 -1      1770 1.36504E+01 2.65372E+01 1.50889E+02
 -1      1771 1.31016E+01 2.92718E+01 1.66387E+02
 -1      1772 1.30726E+01 2.84853E+01 1.61943E+02
 -1      1773 1.37311E+01 2.81016E+01 1.59732E+02
 -1      1774 1.31477E+01 3.08484E+01 1.75299E+02
 -1      1775 1.31266E+01 3.00595E+01 1.70840E+02
 -1      1776 1.37922E+01 2.96722E+01 1.68618E+02
 -1      1777 1.31790E+01 3.24277E+01 1.84233E+02
 -1      1778 1.31650E+01 3.16377E+01 1.79764E+02
 -1      1779 1.38365E+01 3.12476E+01 1.77535E+02
 -1      1780 1.31986E+01 3.40079E+01 1.93180E+02
 -1      1781 1.31902E+01 3.32177E+01 1.88706E+02
 -1      1782 1.38659E+01 3.28257E+01 1.86472E+02
 -1      1783 1.32052E+01 3.55915E+01 2.02152E+02
 -1      1784 1.32011E+01 3.48014E+01 1.97675E+02
 -1      1785 1.38801E+01 3.44080E+01 1.95439E+02
 -1      1786 1.32204E+01 3.72038E+01 2.11296E+02
 -1      1787 1.32193E+01 3.64146E+01 2.06820E+02
 -1      1788 1.38969E+01 3.60239E+01 2.04600E+02
 -1      1789 1.36936E+01 3.74896E+01 2.12917E+02
 -1      1790 1.48904E+01 2.01051E+01 1.14133E+02
 -1      1791 1.50012E+01 2.08495E+01 1.18366E+02
 -1      1792 1.51032E+01 2.15999E+01 1.22629E+02
 -1      1793 1.51974E+01 2.23544E+01 1.26919E+02
 -1      1794 1.44312E+01 2.11990E+01 1.20493E+02
 -1      1795 1.56550E+01 2.77406E+01 1.57526E+02
 -1      1796 1.56951E+01 2.85206E+01 1.61958E+02
 -1      1797 1.55572E+01 2.61870E+01 1.48697E+02
 -1      1798 1.56091E+01 2.69625E+01 1.53105E+02
 -1      1799 1.49863E+01 2.73398E+01 1.55314E+02
 -1      1800 1.44994E+01 3.16463E+01 1.79770E+02
 -1      1801 1.44805E+01 3.08587E+01 1.75307E+02
 -1      1802 1.44573E+01 3.00720E+01 1.70849E+02
 -1      1803 1.44297E+01 2.92862E+01 1.66398E+02
 -1      1804 1.51212E+01 3.04713E+01 1.73079E+02
 -1      1805 1.58479E+01 3.40148E+01 1.93174E+02
 -1      1806 1.58687E+01 3.47944E+01 1.97602E+02
 -1      1807 1.58805E+01 3.55425E+01 2.01851E+02
 -1      1808 1.52095E+01 3.51533E+01 1.99649E+02
 -1      1809 1.58632E+01 3.63717E+01 2.06562E+02
 -1      1810 1.43659E+01 1.71861E+01 9.75405E+01
 -1      1811 1.45116E+01 1.79055E+01 1.01633E+02
 -1      1812 1.42137E+01 1.64736E+01 9.34903E+01
 -1      1813 1.36957E+01 1.67906E+01 9.55082E+01
 -1      1814 1.40475E+01 1.57687E+01 8.94850E+01
 -1      1815 1.40935E+01 2.38407E+01 1.35564E+02
 -1      1816 1.40212E+01 2.30738E+01 1.31226E+02
 -1      1817 1.42179E+01 2.53840E+01 1.44300E+02
 -1      1818 1.41591E+01 2.46107E+01 1.39923E+02
 -1      1819 1.47625E+01 2.42423E+01 1.37746E+02
 -1      1820 1.32907E+01 1.30384E+01 7.39621E+01
 -1      1821 1.34954E+01 1.37064E+01 7.77623E+01
 -1      1822 1.36887E+01 1.43851E+01 8.16180E+01
 -1      1823 1.38735E+01 1.50721E+01 8.55266E+01
 -1      1824 1.30321E+01 1.39971E+01 7.96812E+01
 -1      1825 5.08185E+00 1.39528E+00 8.97921E+00
 -1      1826 4.64154E+00 1.12102E+00 7.45481E+00
 -1      1827 5.91814E+00 2.00633E+00 1.24041E+01
 -1      1828 5.50956E+00 1.69125E+00 1.06347E+01
 -1      1829 5.53277E+00 1.64972E+00 9.82384E+00
 -1      1830 7.74639E+00 3.29709E+00 1.85534E+01
 -1      1831 8.15223E+00 3.69509E+00 2.08224E+01
 -1      1832 6.89743E+00 2.56183E+00 1.43685E+01
 -1      1833 7.32838E+00 2.91843E+00 1.64020E+01
 -1      1834 7.22549E+00 3.00161E+00 1.74572E+01
 -1      1835 4.06171E+00 8.93449E-01 4.85871E+00
 -1      1836 4.56666E+00 1.11201E+00 6.10763E+00
 -1      1837 3.54452E+00 7.00071E-01 3.75425E+00
 -1      1838 3.02207E+00 5.35429E-01 2.80532E+00
 -1      1839 3.64690E+00 6.65928E-01 4.28115E+00
 -1      1840 1.00620E+01 7.40052E+00 4.27237E+01
 -1      1841 9.77636E+00 6.85230E+00 3.96356E+01
 -1      1842 9.47794E+00 6.32022E+00 3.66399E+01
 -1      1843 1.00638E+01 6.66127E+00 3.81516E+01
 -1      1844 9.16751E+00 5.80489E+00 3.37438E+01
 -1      1845 1.23722E+01 1.04814E+01 5.94269E+01
 -1      1846 1.26189E+01 1.11031E+01 6.29627E+01
 -1      1847 1.21153E+01 9.86576E+00 5.59274E+01
 -1      1848 1.17334E+01 1.01097E+01 5.76727E+01
 -1      1849 1.18514E+01 9.26843E+00 5.25247E+01
 -1      1850 8.54772E+00 4.11417E+00 2.32044E+01
 -1      1851 8.93072E+00 4.55187E+00 2.56952E+01
 -1      1852 9.29461E+00 5.00325E+00 2.82677E+01
 -1      1853 9.65132E+00 5.47478E+00 3.09523E+01
 -1      1854 8.73189E+00 4.68095E+00 2.69501E+01
 -1      1855 2.29308E+00 1.40021E-01 1.97883E+00
 -1      1856 1.76962E+00 3.00420E-02 1.30116E+00
 -1      1857 1.75429E+00 1.29261E-01 1.23908E+00
 -1      1858 1.37700E+00-3.19271E-02 9.04419E-01
 -1      1859 1.07825E+00-1.09838E-01 6.52461E-01
 -1      1860 1.03742E+00-1.86706E-02 6.29779E-01
 -1      1861 1.37627E+01 2.07987E+01 1.18357E+02
 -1      1862 1.36618E+01 2.00497E+01 1.14123E+02
 -1      1863 1.35531E+01 1.93067E+01 1.09921E+02
 -1      1864 1.34284E+01 1.85883E+01 1.05865E+02
 -1      1865 1.42200E+01 1.97055E+01 1.12026E+02
 -1      1866 1.58237E+01 3.24422E+01 1.84239E+02
 -1      1867 1.58370E+01 3.32292E+01 1.88710E+02
 -1      1868 1.57856E+01 3.08702E+01 1.75309E+02
 -1      1869 1.58067E+01 3.16556E+01 1.79772E+02
 -1      1870 1.51614E+01 3.20445E+01 1.82005E+02
 -1      1871 1.45658E+01 3.63740E+01 2.06583E+02
 -1      1872 1.45513E+01 3.55515E+01 2.01916E+02
 -1      1873 1.45571E+01 3.69826E+01 2.10037E+02
 -1      1874 1.52123E+01 3.65103E+01 2.07353E+02
 -1      1875 1.42251E+01 3.74123E+01 2.12477E+02
 -1      1876 1.48718E+01 3.75482E+01 2.13247E+02
 -1      1877 1.23825E+01 1.36112E+01 7.77457E+01
 -1      1878 1.21958E+01 1.29377E+01 7.39445E+01
 -1      1879 1.19994E+01 1.22750E+01 7.02022E+01
 -1      1880 1.17826E+01 1.16222E+01 6.65260E+01
 -1      1881 1.26415E+01 1.26555E+01 7.20810E+01
 -1      1882 1.45401E+01 3.48025E+01 1.97667E+02
 -1      1883 1.45370E+01 3.40101E+01 1.93173E+02
 -1      1884 1.45269E+01 3.32233E+01 1.88710E+02
 -1      1885 1.45148E+01 3.24345E+01 1.84238E+02
 -1      1886 1.51878E+01 3.36183E+01 1.90937E+02
 -1      1887 1.27275E+01 1.49867E+01 8.55114E+01
 -1      1888 1.25597E+01 1.42943E+01 8.16023E+01
 -1      1889 1.30221E+01 1.63769E+01 9.33674E+01
 -1      1890 1.28866E+01 1.56873E+01 8.94711E+01
 -1      1891 1.33831E+01 1.53766E+01 8.74975E+01
 -1      1892 1.06648E+01 7.00655E+00 3.96588E+01
 -1      1893 1.09738E+01 7.54862E+00 4.27504E+01
 -1      1894 1.12770E+01 8.10744E+00 4.59263E+01
 -1      1895 1.15739E+01 8.68228E+00 4.91907E+01
 -1      1896 1.06656E+01 7.75204E+00 4.43244E+01
 -1      1897 7.47363E+00 3.50108E+00 2.07878E+01
 -1      1898 7.10045E+00 3.09476E+00 1.85082E+01
 -1      1899 8.18413E+00 4.36798E+00 2.56586E+01
 -1      1900 7.83495E+00 3.92495E+00 2.31708E+01
 -1      1901 8.00418E+00 3.80436E+00 2.19931E+01
 -1      1902 1.06073E+01 8.54321E+00 4.91598E+01
 -1      1903 1.03389E+01 7.96391E+00 4.59005E+01
 -1      1904 1.08615E+01 9.13415E+00 5.24941E+01
 -1      1905 1.12219E+01 8.90277E+00 5.08366E+01
 -1      1906 1.11029E+01 9.73791E+00 5.58996E+01
 -1      1907 1.06375E+00 7.15043E-02 6.38515E-01
 -1      1908 1.20994E+00 1.94760E-01 7.03505E-01
 -1      1909 1.50187E+00 1.90416E-01 9.49123E-01
 -1      1910 1.55219E+01 3.75723E+01 2.13382E+02
 -1      1911 1.61732E+01 3.74334E+01 2.12590E+02
 -1      1912 1.58548E+01 3.69798E+01 2.10016E+02
 -1      1913 1.43975E+01 2.85024E+01 1.61956E+02
 -1      1914 1.43610E+01 2.77195E+01 1.57523E+02
 -1      1915 1.43191E+01 2.69389E+01 1.53101E+02
 -1      1916 1.42709E+01 2.61600E+01 1.48693E+02
 -1      1917 1.54339E+01 2.46438E+01 1.39928E+02
 -1      1918 1.54989E+01 2.54136E+01 1.44305E+02
 -1      1919 1.52836E+01 2.31139E+01 1.31233E+02
 -1      1920 1.53623E+01 2.38768E+01 1.35570E+02
 -1      1921 6.00171E+00 1.91230E+00 1.06740E+01
 -1      1922 6.45688E+00 2.22660E+00 1.24578E+01
 -1      1923 5.05862E+00 1.35581E+00 7.49624E+00
 -1      1924 5.53538E+00 1.62146E+00 9.01890E+00
 -1      1925 3.25188E+00 4.47309E-01 3.70740E+00
 -1      1926 2.76426E+00 2.75119E-01 2.74638E+00
 -1      1927 4.19029E+00 8.71999E-01 6.06542E+00
 -1      1928 3.72530E+00 6.45398E-01 4.81259E+00
 -1      1929 2.65973E+00 3.35580E-01 2.40934E+00
 -1      1930 2.50881E+00 4.00590E-01 2.03545E+00
 -1      1931 1.92878E+00 2.69198E-01 1.34731E+00
 -1      1932 1.46502E+01 1.86327E+01 1.05764E+02
 -1      1933 1.47722E+01 1.93658E+01 1.09931E+02
 -1      1934 1.39739E+01 1.82346E+01 1.03692E+02
 -1      1935 1.31614E+01 1.70932E+01 9.74167E+01
 -1      1936 1.33017E+01 1.78573E+01 1.01733E+02
 -1      1937 1.57303E+01 2.93023E+01 1.66401E+02
 -1      1938 1.57603E+01 3.00854E+01 1.70851E+02
 -1      1939 1.50635E+01 2.89025E+01 1.64178E+02
 -1      1940 1.39422E+01 2.23112E+01 1.26911E+02
 -1      1941 1.38560E+01 2.15525E+01 1.22621E+02
 -1      1942 1.46114E+01 2.27124E+01 1.29072E+02
 -1      1943 1.28574E+01 1.17337E+01 6.65432E+01
 -1      1944 1.30772E+01 1.23802E+01 7.02203E+01
 -1      1945 1.22077E+01 1.13613E+01 6.47570E+01
 -1      1946 1.13380E+01 1.03582E+01 5.93996E+01
 -1      1947 1.15636E+01 1.09872E+01 6.29450E+01
 -1      1948 1.00016E+01 5.97026E+00 3.37674E+01
 -1      1949 1.03391E+01 6.47935E+00 3.66648E+01
 -1      1950 9.41606E+00 5.63313E+00 3.23384E+01
 -1      1951 8.51724E+00 4.82441E+00 2.82309E+01
 -1      1952 8.84630E+00 5.30431E+00 3.09274E+01
 -1      1953 6.40211E+00 2.28207E+00 1.33920E+01
 -1      1954 6.71742E+00 2.71093E+00 1.63559E+01
 -1      1955 6.32241E+00 2.34666E+00 1.43144E+01
 -1      1956 4.61436E+00 1.10930E+00 6.77677E+00
 -1      1957 1.48867E+01 2.57854E+01 1.46498E+02
 -1      1958-1.31881E+01 2.11511E+01 1.20472E+02
 -1      1959-1.36937E+01 2.73174E+01 1.55304E+02
 -1      1960-1.64257E+01 3.04834E+01 1.73078E+02
 -1      1961-1.38629E+01 3.51769E+01 1.99803E+02
 -1      1962-1.25102E+01 1.67186E+01 9.54767E+01
 -1      1963-1.60351E+01 2.42773E+01 1.37744E+02
 -1      1964-1.19105E+01 1.39075E+01 7.96418E+01
 -1      1965-6.00669E+00 1.88243E+00 9.80899E+00
 -1      1966-6.60891E+00 2.80992E+00 1.73741E+01
 -1      1967-3.33433E+00 4.26645E-01 4.17667E+00
 -1      1968-1.09376E+01 6.82664E+00 3.81578E+01
 -1      1969-1.27511E+01 1.02253E+01 5.75849E+01
 -1      1970-9.49142E+00 4.87166E+00 2.69651E+01
 -1      1971-1.66745E+00 3.34196E-01 1.01395E+00
 -1      1972-1.54453E+01 1.97640E+01 1.12023E+02
 -1      1973-1.38533E+01 3.20354E+01 1.82001E+02
 -1      1974-1.65053E+01 3.68476E+01 2.09268E+02
 -1      1975-1.37285E+01 1.27622E+01 7.20738E+01
 -1      1976-1.64981E+01 3.36246E+01 1.90947E+02
 -1      1977-1.45349E+01 1.54630E+01 8.74924E+01
 -1      1978-9.75196E+00 7.61359E+00 4.42615E+01
 -1      1979-1.11425E+01 1.12412E+01 6.46485E+01
 -1      1980-8.61876E+00 5.48151E+00 3.23069E+01
 -1      1981-7.10201E-01-6.63975E-02 4.17107E-01
 -1      1982-1.45777E+01 3.80242E+01 2.15956E+02
 -1      1983-1.62790E+01 2.73621E+01 1.55313E+02
 -1      1984-1.34905E+01 2.42081E+01 1.37732E+02
 -1      1985-7.84766E+00 3.21097E+00 1.74448E+01
 -1      1986-5.05987E+00 1.43509E+00 9.72959E+00
 -1      1987-3.96184E+00 9.25889E-01 4.25998E+00
 -1      1988-2.85394E+00 5.92228E-01 2.34169E+00
 -1      1989-2.15766E+00 2.05764E-01 1.70439E+00
 -1      1990-1.65215E+01 3.52055E+01 1.99934E+02
 -1      1991-1.29953E+01 1.96498E+01 1.12002E+02
 -1      1992-1.27634E+01 1.81709E+01 1.03664E+02
 -1      1993-1.38473E+01 1.75087E+01 9.95797E+01
 -1      1994-1.37647E+01 2.88853E+01 1.64171E+02
 -1      1995-1.15449E+01 1.25552E+01 7.20349E+01
 -1      1996-1.58711E+01 2.27547E+01 1.29069E+02
 -1      1997-1.64698E+01 3.20522E+01 1.82005E+02
 -1      1998-1.63630E+01 2.89194E+01 1.64177E+02
 -1      1999-9.20685E+00 6.51568E+00 3.81026E+01
 -1      2000-1.15869E+01 7.90273E+00 4.43136E+01
 -1      2001-1.21996E+01 9.03921E+00 5.08020E+01
 -1      2002-1.14735E+01 9.48050E+00 5.41153E+01
 -1      2003-7.31802E+00 3.62359E+00 2.19155E+01
 -1      2004-7.98895E+00 4.51600E+00 2.69018E+01
 -1      2005-1.38765E+01 3.36140E+01 1.90944E+02
 -1      2006-1.32709E+01 1.14673E+01 6.46752E+01
 -1      2007-8.69252E+00 4.00180E+00 2.19834E+01
 -1      2008-1.41536E+01 1.40934E+01 7.96746E+01
 -1      2009-5.85500E+00 2.07885E+00 1.33021E+01
 -1      2010-5.01372E+00 1.35680E+00 6.76257E+00
 -1      2011-4.21783E+00 8.82593E-01 6.67942E+00
 -1      2012-6.95032E+00 2.50312E+00 1.33772E+01
 -1      2013-1.36023E+01 2.57575E+01 1.46486E+02
 -1      2014-1.02385E+01 5.81477E+00 3.23660E+01
 -1      2015-1.33522E+01 2.26716E+01 1.29054E+02
 -1      2016-1.22274E+01 1.52962E+01 8.74623E+01
 -1      2017-1.38163E+01 3.04586E+01 1.73073E+02
 -1      2018-1.61706E+01 2.58138E+01 1.46497E+02
 -1      2019-1.56750E+01 2.12491E+01 1.20490E+02
 -1      2020-3.14495E+00 4.81512E-01 3.24940E+00
 -1      2021-2.41360E+00 7.93096E-02 2.27322E+00
 -1      2022-8.12588E-01 8.64467E-02 4.75030E-01
 -1      2023-1.48917E+01 1.68302E+01 9.52822E+01
 -1      2024-1.52111E+01 1.83430E+01 1.03912E+02
 -1      2025-1.19708E+01 1.07167E+01 6.11110E+01
 -1      2026-1.02398E+01 8.76695E+00 5.07471E+01
 -1      2027-1.51901E+01 3.59007E+01 2.03899E+02
 -1      2028-1.51943E+01 3.44038E+01 1.95401E+02
 -1      2029-1.49401E+01 2.65607E+01 1.50899E+02
 -1      2030-1.48281E+01 2.50112E+01 1.42114E+02
 -1      2031-1.46909E+01 2.34743E+01 1.33398E+02
 -1      2032-1.51760E+01 3.28310E+01 1.86474E+02
 -1      2033-1.50948E+01 2.96850E+01 1.68625E+02
 -1      2034-1.32139E+01 1.46820E+01 8.35633E+01
 -1      2035-1.43302E+01 2.04484E+01 1.16244E+02
 -1      2036-1.24271E+01 1.19963E+01 6.83542E+01
 -1      2037-6.82281E+00 2.63076E+00 1.53649E+01
 -1      2038-5.97356E+00 1.95428E+00 1.15442E+01
 -1      2039-5.08099E+00 1.36734E+00 8.23508E+00
 -1      2040-4.13600E+00 8.74318E-01 5.45805E+00
 -1      2041-1.50276E+01 2.81192E+01 1.59741E+02
 -1      2042-7.62429E+00 3.39377E+00 1.96697E+01
 -1      2043-1.45256E+01 2.19525E+01 1.24770E+02
 -1      2044-9.75644E+00 6.14420E+00 3.52252E+01
 -1      2045-9.09061E+00 5.15436E+00 2.96270E+01
 -1      2046-8.38027E+00 4.23629E+00 2.44332E+01
 -1      2047-1.51436E+01 3.12565E+01 1.77539E+02
 -1      2048-1.03778E+01 7.20103E+00 4.12014E+01
 -1      2049-1.28425E+01 1.33199E+01 7.58527E+01
 -1      2050-1.35452E+01 1.60790E+01 9.14800E+01
 -1      2051-1.41017E+01 1.89662E+01 1.07841E+02
 -1      2052-1.07067E+01 9.97765E+00 5.75492E+01
 -1      2053-1.09556E+01 8.31898E+00 4.75295E+01
 -1      2054-1.58780E+01 3.79771E+01 2.15686E+02
 -1      2055-1.40790E+00-1.31285E-01 9.29898E-01
 -1      2056-1.39098E+01 3.68378E+01 2.09224E+02
 -1      2057-1.34503E+00 6.37327E-02 8.60795E-01
 -1      2058-7.54844E-01 2.24084E-01 3.98628E-01
 -1      2059-5.87323E-01-1.91095E-01 3.00041E-01
 -1      2060-1.69406E+01 3.81322E+01 2.16566E+02
 -1      2061-1.34839E+01 3.81394E+01 2.16610E+02
 -1      2062-1.52127E+01 3.71175E+01 2.10807E+02
 -1      2063-2.72835E-01-1.49724E-01 1.36264E-01
 -1      2064-2.84753E-01-1.02271E-01 1.83013E-01
 -1      2065-7.48015E-01-2.91867E-01 3.35557E-01
 -1      2066-3.52353E-01 9.76022E-02 2.24162E-01
 -1      2067-3.81042E-01 1.65613E-01 2.10241E-01
 -1      2068-1.01591E+00 3.79216E-01 4.61910E-01
 -1      2069-1.36769E+01 3.86382E+01 2.19442E+02
 -1      2070-1.30070E+01 3.86383E+01 2.19442E+02
 -1      2071-1.30071E+01 3.78498E+01 2.14967E+02
 -1      2072-1.74131E+01 3.86345E+01 2.19420E+02
 -1      2073-1.67439E+01 3.86345E+01 2.19420E+02
 -1      2074-1.74130E+01 3.78472E+01 2.14945E+02
 -1      2075-3.28085E-01-7.23983E-02 2.12306E-01
 -1      2076-3.54317E-01-3.20865E-02 2.42406E-01
 -1      2077-6.46386E-01-1.29302E-01 3.65050E-01
 -1      2078-3.80596E-01 1.44494E-02 2.50587E-01
 -1      2079-4.06685E-01 6.23995E-02 2.67012E-01
 -1      2080-7.63121E-01 4.60258E-03 4.54995E-01
 -1      2081-7.86250E-01 1.51450E-01 4.45135E-01
 -1      2082-1.48933E+01 3.85806E+01 2.19115E+02
 -1      2083-1.42238E+01 3.85805E+01 2.19115E+02
 -1      2084-1.40309E+01 3.80818E+01 2.16283E+02
 -1      2085-1.62126E+01 3.85571E+01 2.18980E+02
 -1      2086-1.55434E+01 3.85569E+01 2.18980E+02
 -1      2087-1.52279E+01 3.80007E+01 2.15821E+02
 -1      2088-1.64093E+01 3.80547E+01 2.16126E+02
 -1      2089-1.59977E+00-2.12511E-01 1.11393E+00
 -1      2090-1.13410E+00-2.65379E-01 6.32694E-01
 -1      2091-9.90204E-01-1.90246E-01 5.63145E-01
 -1      2092-2.52054E+00 4.02384E-02 2.59194E+00
 -1      2093-2.07382E+00-1.04755E-01 1.78593E+00
 -1      2094-1.91610E+00-4.68155E-02 1.51645E+00
 -1      2095-3.38490E+00 4.19747E-01 4.65165E+00
 -1      2096-2.95704E+00 2.16189E-01 3.54553E+00
 -1      2097-2.87884E+00 2.39072E-01 3.15111E+00
 -1      2098-4.21346E+00 9.04530E-01 7.29602E+00
 -1      2099-3.80477E+00 6.50558E-01 5.90595E+00
 -1      2100-3.78134E+00 6.41808E-01 5.35700E+00
 -1      2101-5.00119E+00 1.48555E+00 1.04836E+01
 -1      2102-4.61344E+00 1.18335E+00 8.82380E+00
 -1      2103-4.64285E+00 1.14650E+00 8.13741E+00
 -1      2104-5.74804E+00 2.15663E+00 1.41882E+01
 -1      2105-5.37942E+00 1.81013E+00 1.22724E+01
 -1      2106-5.46253E+00 1.74574E+00 1.14518E+01
 -1      2107-6.45384E+00 2.91465E+00 1.83852E+01
 -1      2108-6.10624E+00 2.52468E+00 1.62268E+01
 -1      2109-6.23603E+00 2.43330E+00 1.52777E+01
 -1      2110-7.12038E+00 3.75338E+00 2.30449E+01
 -1      2111-6.79109E+00 3.32433E+00 2.06583E+01
 -1      2112-6.96873E+00 3.20694E+00 1.95878E+01
 -1      2113-7.74830E+00 4.66946E+00 2.81430E+01
 -1      2114-7.43915E+00 4.20199E+00 2.55411E+01
 -1      2115-7.65810E+00 4.06026E+00 2.43555E+01
 -1      2116-8.33605E+00 5.65813E+00 3.36525E+01
 -1      2117-8.04727E+00 5.15473E+00 3.08481E+01
 -1      2118-8.30803E+00 4.98948E+00 2.95542E+01
 -1      2119-8.88540E+00 6.71403E+00 3.95465E+01
 -1      2120-8.61572E+00 6.17780E+00 3.65528E+01
 -1      2121-8.91744E+00 5.99028E+00 3.51570E+01
 -1      2122-9.39625E+00 7.83211E+00 4.57971E+01
 -1      2123-9.14456E+00 7.26570E+00 4.26284E+01
 -1      2124-9.48440E+00 7.05718E+00 4.11383E+01
 -1      2125-9.85920E+00 9.00659E+00 5.23741E+01
 -1      2126-9.62736E+00 8.41115E+00 4.90424E+01
 -1      2127-1.00004E+01 8.18308E+00 4.74642E+01
 -1      2128-1.02947E+01 1.02366E+01 5.92599E+01
 -1      2129-1.00813E+01 9.61442E+00 5.57776E+01
 -1      2130-1.04778E+01 9.36566E+00 5.41111E+01
 -1      2131-1.06982E+01 1.15165E+01 6.64323E+01
 -1      2132-1.05022E+01 1.08707E+01 6.28122E+01
 -1      2133-1.09287E+01 1.06035E+01 6.10642E+01
 -1      2134-1.10677E+01 1.28437E+01 7.38742E+01
 -1      2135-1.08898E+01 1.21756E+01 7.01284E+01
 -1      2136-1.13475E+01 1.18927E+01 6.83107E+01
 -1      2137-1.14027E+01 1.42097E+01 8.15402E+01
 -1      2138-1.12418E+01 1.35220E+01 7.76799E+01
 -1      2139-1.17319E+01 1.32264E+01 7.58095E+01
 -1      2140-1.16980E+01 1.56114E+01 8.94152E+01
 -1      2141-1.15533E+01 1.49061E+01 8.54524E+01
 -1      2142-1.20729E+01 1.45974E+01 8.35261E+01
 -1      2143-1.19612E+01 1.70461E+01 9.74782E+01
 -1      2144-1.18324E+01 1.63248E+01 9.34244E+01
 -1      2145-1.23730E+01 1.60033E+01 9.14467E+01
 -1      2146-1.21943E+01 1.85093E+01 1.05709E+02
 -1      2147-1.20816E+01 1.77741E+01 1.01574E+02
 -1      2148-1.26398E+01 1.74411E+01 9.95497E+01
 -1      2149-1.24036E+01 1.99978E+01 1.14085E+02
 -1      2150-1.23050E+01 1.92507E+01 1.09880E+02
 -1      2151-1.28830E+01 1.89074E+01 1.07815E+02
 -1      2152-1.25802E+01 2.15077E+01 1.22588E+02
 -1      2153-1.24953E+01 2.07502E+01 1.18322E+02
 -1      2154-1.30950E+01 2.03978E+01 1.16222E+02
 -1      2155-1.27303E+01 2.30361E+01 1.31199E+02
 -1      2156-1.26584E+01 2.22697E+01 1.26881E+02
 -1      2157-1.32733E+01 2.19091E+01 1.24750E+02
 -1      2158-1.28554E+01 2.45794E+01 1.39900E+02
 -1      2159-1.27961E+01 2.38058E+01 1.35539E+02
 -1      2160-1.34240E+01 2.34380E+01 1.33382E+02
 -1      2161-1.29575E+01 2.61344E+01 1.48674E+02
 -1      2162-1.29086E+01 2.53557E+01 1.44279E+02
 -1      2163-1.35494E+01 2.49814E+01 1.42100E+02
 -1      2164-1.30391E+01 2.76992E+01 1.57508E+02
 -1      2165-1.30009E+01 2.69156E+01 1.53085E+02
 -1      2166-1.36504E+01 2.65363E+01 1.50888E+02
 -1      2167-1.31016E+01 2.92710E+01 1.66387E+02
 -1      2168-1.30728E+01 2.84842E+01 1.61942E+02
 -1      2169-1.37313E+01 2.81005E+01 1.59732E+02
 -1      2170-1.31475E+01 3.08472E+01 1.75298E+02
 -1      2171-1.31263E+01 3.00588E+01 1.70839E+02
 -1      2172-1.37926E+01 2.96713E+01 1.68618E+02
 -1      2173-1.31789E+01 3.24266E+01 1.84233E+02
 -1      2174-1.31649E+01 3.16365E+01 1.79763E+02
 -1      2175-1.38362E+01 3.12464E+01 1.77535E+02
 -1      2176-1.31986E+01 3.40069E+01 1.93180E+02
 -1      2177-1.31900E+01 3.32167E+01 1.88705E+02
 -1      2178-1.38663E+01 3.28246E+01 1.86471E+02
 -1      2179-1.31957E+01 3.55789E+01 2.02086E+02
 -1      2180-1.31916E+01 3.47889E+01 1.97610E+02
 -1      2181-1.38706E+01 3.43955E+01 1.95373E+02
 -1      2182-1.32202E+01 3.71989E+01 2.11274E+02
 -1      2183-1.32190E+01 3.64097E+01 2.06797E+02
 -1      2184-1.38870E+01 3.60076E+01 2.04514E+02
 -1      2185-1.36970E+01 3.74887E+01 2.12917E+02
 -1      2186-1.47839E+00 4.30213E-01 7.59472E-01
 -1      2187-2.07762E+00 5.45287E-01 1.24764E+00
 -1      2188-1.21634E+00 2.87823E-01 6.59947E-01
 -1      2189-2.68976E+00 6.73317E-01 1.91261E+00
 -1      2190-3.27080E+00 8.13005E-01 2.71602E+00
 -1      2191-2.26532E+00 4.53936E-01 1.59522E+00
 -1      2192-3.84531E+00 9.77276E-01 3.67760E+00
 -1      2193-4.40205E+00 1.16401E+00 4.78008E+00
 -1      2194-3.41333E+00 7.46719E-01 3.22478E+00
 -1      2195-4.94889E+00 1.37634E+00 6.03359E+00
 -1      2196-5.48100E+00 1.61240E+00 7.42074E+00
 -1      2197-4.49383E+00 1.12889E+00 5.43979E+00
 -1      2198-5.99765E+00 1.87233E+00 8.94614E+00
 -1      2199-6.50278E+00 2.15581E+00 1.06027E+01
 -1      2200-5.51568E+00 1.60778E+00 8.21911E+00
 -1      2201-6.99434E+00 2.46279E+00 1.23882E+01
 -1      2202-7.47440E+00 2.79258E+00 1.43006E+01
 -1      2203-6.48492E+00 2.18124E+00 1.15292E+01
 -1      2204-7.94110E+00 3.14349E+00 1.63361E+01
 -1      2205-8.39426E+00 3.51482E+00 1.84906E+01
 -1      2206-7.40454E+00 2.84674E+00 1.53504E+01
 -1      2207-8.83463E+00 3.90731E+00 2.07619E+01
 -1      2208-9.26163E+00 4.31985E+00 2.31454E+01
 -1      2209-8.27575E+00 3.59630E+00 1.96563E+01
 -1      2210-9.67743E+00 4.75145E+00 2.56378E+01
 -1      2211-1.00797E+01 5.20148E+00 2.82374E+01
 -1      2212-9.09803E+00 4.42752E+00 2.44202E+01
 -1      2213-1.04687E+01 5.67002E+00 3.09393E+01
 -1      2214-1.08453E+01 6.15558E+00 3.37404E+01
 -1      2215-9.87069E+00 5.33433E+00 2.96155E+01
 -1      2216-1.12096E+01 6.65869E+00 3.66381E+01
 -1      2217-1.15608E+01 7.17742E+00 3.96283E+01
 -1      2218-1.05934E+01 6.31231E+00 3.52139E+01
 -1      2219-1.18995E+01 7.71254E+00 4.27079E+01
 -1      2220-1.22255E+01 8.26345E+00 4.58738E+01
 -1      2221-1.12674E+01 7.35665E+00 4.11915E+01
 -1      2222-1.25440E+01 8.82855E+00 4.91193E+01
 -1      2223-1.28470E+01 9.40730E+00 5.24487E+01
 -1      2224-1.18990E+01 8.46400E+00 4.75170E+01
 -1      2225-1.31341E+01 9.99778E+00 5.58421E+01
 -1      2226-1.34125E+01 1.06032E+01 5.93211E+01
 -1      2227-1.24804E+01 9.62575E+00 5.41569E+01
 -1      2228-1.36828E+01 1.12215E+01 6.28679E+01
 -1      2229-1.39377E+01 1.18514E+01 6.64854E+01
 -1      2230-1.30162E+01 1.08402E+01 6.10951E+01
 -1      2231-1.41762E+01 1.24959E+01 7.01864E+01
 -1      2232-1.44089E+01 1.31487E+01 7.39296E+01
 -1      2233-1.35053E+01 1.21089E+01 6.83428E+01
 -1      2234-1.46299E+01 1.38118E+01 7.77316E+01
 -1      2235-1.48397E+01 1.44844E+01 8.15886E+01
 -1      2236-1.39459E+01 1.34228E+01 7.58460E+01
 -1      2237-1.50387E+01 1.51668E+01 8.54990E+01
 -1      2238-1.52271E+01 1.58582E+01 8.94588E+01
 -1      2239-1.43490E+01 1.47736E+01 8.35574E+01
 -1      2240-1.54116E+01 1.65394E+01 9.33558E+01
 -1      2241-1.55796E+01 1.72459E+01 9.74062E+01
 -1      2242-1.47176E+01 1.61431E+01 9.13653E+01
 -1      2243-1.57458E+01 1.80000E+01 1.01723E+02
 -1      2244-1.58930E+01 1.87220E+01 1.05856E+02
 -1      2245-1.50558E+01 1.75824E+01 9.95745E+01
 -1      2246-1.60156E+01 1.94301E+01 1.09912E+02
 -1      2247-1.61445E+01 2.01649E+01 1.14115E+02
 -1      2248-1.53324E+01 1.90504E+01 1.07951E+02
 -1      2249-1.62640E+01 2.09054E+01 1.18350E+02
 -1      2250-1.63745E+01 2.16510E+01 1.22614E+02
 -1      2251-1.55638E+01 2.05040E+01 1.16241E+02
 -1      2252-1.64766E+01 2.24017E+01 1.26905E+02
 -1      2253-1.65702E+01 2.31566E+01 1.31221E+02
 -1      2254-1.57768E+01 2.19997E+01 1.24767E+02
 -1      2255-1.66558E+01 2.39160E+01 1.35559E+02
 -1      2256-1.67338E+01 2.46793E+01 1.39918E+02
 -1      2257-1.59566E+01 2.35140E+01 1.33396E+02
 -1      2258-1.68042E+01 2.54459E+01 1.44295E+02
 -1      2259-1.68673E+01 2.62152E+01 1.48689E+02
 -1      2260-1.61058E+01 2.50442E+01 1.42112E+02
 -1      2261-1.69239E+01 2.69877E+01 1.53098E+02
 -1      2262-1.69738E+01 2.77626E+01 1.57520E+02
 -1      2263-1.62278E+01 2.65867E+01 1.50897E+02
 -1      2264-1.70176E+01 2.85398E+01 1.61953E+02
 -1      2265-1.70556E+01 2.93189E+01 1.66396E+02
 -1      2266-1.63237E+01 2.81397E+01 1.59739E+02
 -1      2267-1.70883E+01 3.00996E+01 1.70847E+02
 -1      2268-1.71161E+01 3.08818E+01 1.75305E+02
 -1      2269-1.63967E+01 2.97006E+01 1.68624E+02
 -1      2270-1.71390E+01 3.16653E+01 1.79769E+02
 -1      2271-1.71575E+01 3.24494E+01 1.84237E+02
 -1      2272-1.64495E+01 3.12675E+01 1.77539E+02
 -1      2273-1.71724E+01 3.32347E+01 1.88709E+02
 -1      2274-1.71837E+01 3.40206E+01 1.93183E+02
 -1      2275-1.64856E+01 3.28381E+01 1.86474E+02
 -1      2276-1.71958E+01 3.48104E+01 1.97677E+02
 -1      2277-1.72015E+01 3.55971E+01 2.02153E+02
 -1      2278-1.65111E+01 3.44149E+01 1.95440E+02
 -1      2279-1.71936E+01 3.64177E+01 2.06820E+02
 -1      2280-1.71954E+01 3.72051E+01 2.11296E+02
 -1      2281-1.65143E+01 3.60264E+01 2.04601E+02
 -1      2282-1.67232E+01 3.74900E+01 2.12917E+02
 -1      2283-1.37626E+01 2.07977E+01 1.18357E+02
 -1      2284-1.36617E+01 2.00485E+01 1.14123E+02
 -1      2285-1.39421E+01 2.23102E+01 1.26911E+02
 -1      2286-1.38561E+01 2.15514E+01 1.22621E+02
 -1      2287-1.44312E+01 2.11979E+01 1.20493E+02
 -1      2288-1.43978E+01 2.85014E+01 1.61955E+02
 -1      2289-1.43609E+01 2.77184E+01 1.57522E+02
 -1      2290-1.43189E+01 2.69378E+01 1.53101E+02
 -1      2291-1.42709E+01 2.61589E+01 1.48693E+02
 -1      2292-1.49862E+01 2.73387E+01 1.55314E+02
 -1      2293-1.57856E+01 3.08692E+01 1.75309E+02
 -1      2294-1.58066E+01 3.16546E+01 1.79772E+02
 -1      2295-1.57302E+01 2.93014E+01 1.66401E+02
 -1      2296-1.57602E+01 3.00845E+01 1.70851E+02
 -1      2297-1.51211E+01 3.04703E+01 1.73079E+02
 -1      2298-1.45293E+01 3.47900E+01 1.97602E+02
 -1      2299-1.45357E+01 3.40090E+01 1.93173E+02
 -1      2300-1.51931E+01 3.51522E+01 1.99650E+02
 -1      2301-1.45267E+01 3.55390E+01 2.01851E+02
 -1      2302-1.45503E+01 3.63691E+01 2.06561E+02
 -1      2303-1.33095E+01 1.78375E+01 1.01621E+02
 -1      2304-1.31769E+01 1.71126E+01 9.75279E+01
 -1      2305-1.37003E+01 1.67901E+01 9.55082E+01
 -1      2306-1.30332E+01 1.63959E+01 9.34771E+01
 -1      2307-1.28847E+01 1.56868E+01 8.94709E+01
 -1      2308-1.52835E+01 2.31127E+01 1.31233E+02
 -1      2309-1.53622E+01 2.38758E+01 1.35571E+02
 -1      2310-1.54338E+01 2.46428E+01 1.39928E+02
 -1      2311-1.54988E+01 2.54126E+01 1.44305E+02
 -1      2312-1.47624E+01 2.42412E+01 1.37746E+02
 -1      2313-1.23823E+01 1.36105E+01 7.77455E+01
 -1      2314-1.21912E+01 1.29364E+01 7.39431E+01
 -1      2315-1.27257E+01 1.49862E+01 8.55113E+01
 -1      2316-1.25597E+01 1.42935E+01 8.16021E+01
 -1      2317-1.30322E+01 1.39964E+01 7.96811E+01
 -1      2318-5.05854E+00 1.35529E+00 7.49635E+00
 -1      2319-5.53538E+00 1.62083E+00 9.01926E+00
 -1      2320-6.00152E+00 1.91159E+00 1.06740E+01
 -1      2321-6.45475E+00 2.22504E+00 1.24579E+01
 -1      2322-5.53246E+00 1.64920E+00 9.82407E+00
 -1      2323-7.48167E+00 3.50271E+00 2.07899E+01
 -1      2324-7.11004E+00 3.09831E+00 1.85202E+01
 -1      2325-6.72629E+00 2.71434E+00 1.63664E+01
 -1      2326-6.33160E+00 2.35088E+00 1.43316E+01
 -1      2327-7.22843E+00 3.00191E+00 1.74585E+01
 -1      2328-4.19014E+00 8.71295E-01 6.06551E+00
 -1      2329-3.72675E+00 6.45953E-01 4.81536E+00
 -1      2330-2.76933E+00 2.74877E-01 2.75919E+00
 -1      2331-3.25238E+00 4.47058E-01 3.70943E+00
 -1      2332-3.64519E+00 6.65032E-01 4.28140E+00
 -1      2333-1.06654E+01 7.00886E+00 3.96777E+01
 -1      2334-1.09770E+01 7.54933E+00 4.27555E+01
 -1      2335-1.00058E+01 5.97437E+00 3.37936E+01
 -1      2336-1.03414E+01 6.48288E+00 3.66896E+01
 -1      2337-1.00718E+01 6.66462E+00 3.81681E+01
 -1      2338-1.18432E+01 9.25566E+00 5.24580E+01
 -1      2339-1.21080E+01 9.85111E+00 5.58488E+01
 -1      2340-1.17267E+01 1.00921E+01 5.75767E+01
 -1      2341-1.23676E+01 1.04668E+01 5.93467E+01
 -1      2342-1.26170E+01 1.10904E+01 6.28918E+01
 -1      2343-8.54583E+00 4.11313E+00 2.32059E+01
 -1      2344-8.92914E+00 4.55098E+00 2.56967E+01
 -1      2345-9.29984E+00 5.00763E+00 2.82942E+01
 -1      2346-9.65864E+00 5.48193E+00 3.09944E+01
 -1      2347-8.74021E+00 4.68617E+00 2.69775E+01
 -1      2348-1.92441E+00 2.64908E-01 1.34521E+00
 -1      2349-2.49592E+00 3.92953E-01 2.02402E+00
 -1      2350-1.49995E+00 1.89951E-01 9.47518E-01
 -1      2351-1.75297E+00 1.26646E-01 1.23842E+00
 -1      2352-1.08447E+00 7.77732E-02 6.49932E-01
 -1      2353-1.22868E+00 2.00542E-01 7.14813E-01
 -1      2354-1.48909E+01 2.01041E+01 1.14133E+02
 -1      2355-1.50013E+01 2.08485E+01 1.18366E+02
 -1      2356-1.46603E+01 1.86521E+01 1.05877E+02
 -1      2357-1.47722E+01 1.93647E+01 1.09931E+02
 -1      2358-1.42192E+01 1.97044E+01 1.12026E+02
 -1      2359-1.45271E+01 3.32220E+01 1.88709E+02
 -1      2360-1.45150E+01 3.24334E+01 1.84238E+02
 -1      2361-1.44994E+01 3.16453E+01 1.79770E+02
 -1      2362-1.44801E+01 3.08576E+01 1.75306E+02
 -1      2363-1.51614E+01 3.20434E+01 1.82005E+02
 -1      2364-1.58561E+01 3.55528E+01 2.01917E+02
 -1      2365-1.58478E+01 3.63744E+01 2.06583E+02
 -1      2366-1.52017E+01 3.65092E+01 2.07353E+02
 -1      2367-1.58590E+01 3.69825E+01 2.10037E+02
 -1      2368-1.61919E+01 3.74123E+01 2.12477E+02
 -1      2369-1.55455E+01 3.75474E+01 2.13247E+02
 -1      2370-1.28552E+01 1.17278E+01 6.65136E+01
 -1      2371-1.30747E+01 1.23780E+01 7.02126E+01
 -1      2372-1.32908E+01 1.30378E+01 7.39622E+01
 -1      2373-1.34952E+01 1.37057E+01 7.77624E+01
 -1      2374-1.26390E+01 1.26532E+01 7.20731E+01
 -1      2375-1.58468E+01 3.40138E+01 1.93174E+02
 -1      2376-1.58581E+01 3.48048E+01 1.97668E+02
 -1      2377-1.58236E+01 3.24411E+01 1.84240E+02
 -1      2378-1.58372E+01 3.32280E+01 1.88711E+02
 -1      2379-1.51864E+01 3.36171E+01 1.90937E+02
 -1      2380-1.36887E+01 1.43845E+01 8.16180E+01
 -1      2381-1.38716E+01 1.50713E+01 8.55268E+01
 -1      2382-1.40452E+01 1.57680E+01 8.94853E+01
 -1      2383-1.42166E+01 1.64540E+01 9.33808E+01
 -1      2384-1.33831E+01 1.53763E+01 8.74977E+01
 -1      2385-1.00734E+01 7.40245E+00 4.27293E+01
 -1      2386-9.78758E+00 6.85588E+00 3.96508E+01
 -1      2387-1.06054E+01 8.53848E+00 4.91367E+01
 -1      2388-1.03491E+01 7.96366E+00 4.58944E+01
 -1      2389-1.06707E+01 7.75195E+00 4.43230E+01
 -1      2390-1.19924E+01 1.22722E+01 7.01930E+01
 -1      2391-1.17818E+01 1.16171E+01 6.65006E+01
 -1      2392-1.22034E+01 1.13505E+01 6.46996E+01
 -1      2393-1.15635E+01 1.09751E+01 6.28782E+01
 -1      2394-1.13352E+01 1.03454E+01 5.93294E+01
 -1      2395-9.49043E+00 6.32509E+00 3.66614E+01
 -1      2396-9.18242E+00 5.81016E+00 3.37646E+01
 -1      2397-8.86376E+00 5.31276E+00 3.09644E+01
 -1      2398-8.53439E+00 4.83218E+00 2.82628E+01
 -1      2399-9.42832E+00 5.64088E+00 3.23773E+01
 -1      2400-1.02028E+00-1.52562E-02 6.18839E-01
 -1      2401-1.37937E+00-3.14978E-02 9.05905E-01
 -1      2402-1.06395E+00-1.07423E-01 6.42232E-01
 -1      2403-1.48954E+01 3.75709E+01 2.13382E+02
 -1      2404-1.42439E+01 3.74312E+01 2.12590E+02
 -1      2405-1.45613E+01 3.69777E+01 2.10015E+02
 -1      2406-1.56549E+01 2.77395E+01 1.57526E+02
 -1      2407-1.56951E+01 2.85195E+01 1.61959E+02
 -1      2408-1.55572E+01 2.61859E+01 1.48698E+02
 -1      2409-1.56091E+01 2.69614E+01 1.53106E+02
 -1      2410-1.42179E+01 2.53829E+01 1.44299E+02
 -1      2411-1.41591E+01 2.46097E+01 1.39923E+02
 -1      2412-1.40934E+01 2.38397E+01 1.35564E+02
 -1      2413-1.40210E+01 2.30728E+01 1.31226E+02
 -1      2414-7.74575E+00 3.29631E+00 1.85549E+01
 -1      2415-8.15117E+00 3.69424E+00 2.08240E+01
 -1      2416-6.89677E+00 2.56092E+00 1.43686E+01
 -1      2417-7.32777E+00 2.91751E+00 1.64021E+01
 -1      2418-5.92600E+00 2.01004E+00 1.24198E+01
 -1      2419-5.50963E+00 1.69071E+00 1.06347E+01
 -1      2420-5.08189E+00 1.39453E+00 8.97902E+00
 -1      2421-4.64097E+00 1.12035E+00 7.45503E+00
 -1      2422-3.01081E+00 5.29880E-01 2.79146E+00
 -1      2423-3.54356E+00 6.98838E-01 3.75197E+00
 -1      2424-4.06092E+00 8.92826E-01 4.85640E+00
 -1      2425-4.56616E+00 1.11136E+00 6.10756E+00
 -1      2426-2.65586E+00 3.31129E-01 2.40849E+00
 -1      2427-2.29679E+00 1.37072E-01 1.98841E+00
 -1      2428-1.76954E+00 2.68762E-02 1.30191E+00
 -1      2429-1.35529E+01 1.93056E+01 1.09920E+02
 -1      2430-1.34318E+01 1.85680E+01 1.05752E+02
 -1      2431-1.39783E+01 1.82341E+01 1.03692E+02
 -1      2432-1.45270E+01 1.79251E+01 1.01745E+02
 -1      2433-1.43739E+01 1.71666E+01 9.74297E+01
 -1      2434-1.44571E+01 3.00710E+01 1.70849E+02
 -1      2435-1.44299E+01 2.92854E+01 1.66398E+02
 -1      2436-1.50631E+01 2.89016E+01 1.64178E+02
 -1      2437-1.51033E+01 2.15988E+01 1.22629E+02
 -1      2438-1.51973E+01 2.23534E+01 1.26919E+02
 -1      2439-1.46114E+01 2.27113E+01 1.29072E+02
 -1      2440-1.12787E+01 8.10599E+00 4.59197E+01
 -1      2441-1.15726E+01 8.67706E+00 4.91642E+01
 -1      2442-1.12191E+01 8.89299E+00 5.07837E+01
 -1      2443-1.10975E+01 9.72492E+00 5.58302E+01
 -1      2444-1.08531E+01 9.12185E+00 5.24306E+01
 -1      2445-8.19428E+00 4.37058E+00 2.56650E+01
 -1      2446-7.84267E+00 3.92631E+00 2.31726E+01
 -1      2447-8.00650E+00 3.80463E+00 2.19959E+01
 -1      2448-6.40259E+00 2.28155E+00 1.33920E+01
 -1      2449-4.61381E+00 1.10858E+00 6.77672E+00
 -1      2450-1.48867E+01 2.57843E+01 1.46498E+02
 -1      2451-7.07012E-02 1.61870E-01 9.12977E-01
 -1      2452-6.54403E-01 3.65708E+01 2.07697E+02
 -1      2453 2.74033E-04 3.36188E+01 1.90931E+02
 -1      2454 4.31294E-03 7.09720E-01 4.02806E+00
 -1      2455 5.14964E-04 3.84009E+00 2.18031E+01
 -1      2456 1.96251E-04 2.89049E+01 1.64160E+02
 -1      2457 1.29055E-05 2.57905E+01 1.46470E+02
 -1      2458 1.66226E-04 2.27194E+01 1.29029E+02
 -1      2459 4.99896E-04 1.97149E+01 1.11968E+02
 -1      2460 1.59407E-04 1.53919E+01 8.74122E+01
 -1      2461 2.45879E-06 7.77938E+00 4.41758E+01
 -1      2462 5.38912E-05 2.31965E+00 1.31763E+01
 -1      2463-2.75807E-03 1.26730E+01 7.19766E+01
 -1      2464-2.50457E-03 5.67104E+00 3.22073E+01
 -1      2465 1.26955E-03 1.01162E+01 5.74509E+01
 -1      2466-1.26323E+00 1.75196E+01 9.95081E+01
 -1      2467-1.38411E+00 3.12576E+01 1.77523E+02
 -1      2468-4.54951E-01 1.40186E+00 7.99308E+00
 -1      2469 6.76651E+00 3.74548E+01 2.12714E+02
 -1      2470 4.66992E-01 1.35072E-01 4.06187E-01
 -1      2471-4.92593E+00 3.74976E+01 2.12962E+02
 -1      2472 3.16581E-01 1.28719E-03 3.64479E-01
 -1      2473 2.17878E+00 4.68571E+00 2.67931E+01
 -1      2474 2.53936E+00 3.07493E+00 1.72604E+01
 -1      2475 3.69978E+00 2.73393E+01 1.55290E+02
 -1      2476-3.69983E+00 2.73391E+01 1.55290E+02
 -1      2477-5.08261E+00 2.12164E+01 1.20445E+02
 -1      2478-5.20145E+00 2.42541E+01 1.37712E+02
 -1      2479 5.20157E+00 2.42543E+01 1.37712E+02
 -1      2480 5.08260E+00 2.12167E+01 1.20444E+02
 -1      2481-2.53396E+00 3.07492E+00 1.72608E+01
 -1      2482 4.58458E+00 1.40303E+01 7.95878E+01
 -1      2483 3.02634E+00 1.13506E+01 6.45777E+01
 -1      2484-2.78481E+00 8.89458E+00 5.06533E+01
 -1      2485-4.58579E+00 1.40306E+01 7.95904E+01
 -1      2486-3.53918E+00 6.72090E+00 3.80139E+01
 -1      2487-2.15043E+00 4.68526E+00 2.67894E+01
 -1      2488-3.01179E+00 1.13505E+01 6.45772E+01
 -1      2489 3.55030E+00 6.72114E+00 3.80139E+01
 -1      2490 2.79007E+00 8.89485E+00 5.06535E+01
 -1      2491-3.31430E-01 2.64263E-03 3.77073E-01
 -1      2492 4.85643E+00 3.75059E+01 2.13007E+02
 -1      2493 4.00450E+00 3.21826E+01 1.82783E+02
 -1      2494 1.47114E+00 1.69647E+00 9.89114E+00
 -1      2495 9.51212E-01 4.28913E-01 2.16442E+00
 -1      2496 5.50271E+00 3.51535E+01 1.99643E+02
 -1      2497-4.67499E-01 1.33125E-01 3.77201E-01
 -1      2498 4.02435E+00 3.03124E+01 1.72167E+02
 -1      2499 1.19178E+00 1.05257E+00 6.25626E+00
 -1      2500-7.25336E+00 3.75415E+01 2.13209E+02
 -1      2501 3.62193E+00 1.66606E+01 9.47074E+01
 -1      2502 3.28012E+00 1.83679E+01 1.04383E+02
 -1      2503-1.02725E+00 4.55357E-01 2.28675E+00
 -1      2504 1.77556E+00 3.50799E+01 1.99230E+02
 -1      2505-5.31363E+00 3.50800E+01 1.99234E+02
 -1      2506 5.81404E+00 1.85924E+01 1.05500E+02
 -1      2507 5.64394E+00 1.65010E+01 9.36081E+01
 -1      2508 6.28506E+00 3.24026E+01 1.84011E+02
 -1      2509-6.28519E+00 3.24021E+01 1.84011E+02
 -1      2510-6.26034E+00 3.01208E+01 1.71047E+02
 -1      2511 6.26028E+00 3.01211E+01 1.71046E+02
 -1      2512 2.35724E+00 1.88054E+00 1.03685E+01
 -1      2513 1.80811E+00 1.10233E+00 5.92874E+00
 -1      2514-4.61926E+00 8.68135E+00 4.91123E+01
 -1      2515-4.20743E+00 2.08343E+01 1.18398E+02
 -1      2516-6.27024E+00 2.77224E+01 1.57414E+02
 -1      2517 6.27028E+00 2.77228E+01 1.57414E+02
 -1      2518-4.32918E+00 2.46075E+01 1.39802E+02
 -1      2519 4.32925E+00 2.46078E+01 1.39802E+02
 -1      2520 4.23536E+00 2.15561E+01 1.22490E+02
 -1      2521-2.16125E+00 3.17110E+00 1.82932E+01
 -1      2522 3.83502E+00 1.43169E+01 8.14393E+01
 -1      2523-3.56653E+00 4.54687E+00 2.55691E+01
 -1      2524-2.98299E+00 6.90719E+00 3.94473E+01
 -1      2525 2.15984E+00 3.17157E+00 1.82947E+01
 -1      2526-3.83511E+00 1.43170E+01 8.14394E+01
 -1      2527 4.61415E+00 8.68080E+00 4.91082E+01
 -1      2528 3.57953E+00 4.54378E+00 2.55487E+01
 -1      2529 2.97882E+00 6.90815E+00 3.94514E+01
 -1      2530 5.13795E+00 1.17121E+01 6.63558E+01
 -1      2531-5.13334E+00 1.17080E+01 6.63345E+01
 -1      2532-5.55697E+00 1.65025E+01 9.36191E+01
 -1      2533-2.35895E+00 1.88039E+00 1.03693E+01
 -1      2534-1.80893E+00 1.10143E+00 5.92380E+00
 -1      2535-8.27304E-01 3.73376E-01 2.47552E+00
 -1      2536 7.90780E-01 3.74607E-01 2.47364E+00
 -1      2537-4.53716E+00 1.88018E+01 1.06888E+02
 -1      2538-4.82161E+00 1.63204E+01 9.28558E+01
 -1      2539-4.88996E+00 3.26617E+01 1.85509E+02
 -1      2540-4.86649E+00 2.98499E+01 1.69551E+02
 -1      2541-5.99744E+00 1.86725E+01 1.05952E+02
 -1      2542-1.36046E+00 8.90551E-01 5.47174E+00
 -1      2543-1.88561E+00 1.85638E+00 1.09199E+01
 -1      2544-7.43068E+00 3.43882E+01 1.95295E+02
 -1      2545 3.28380E+00 5.83643E+00 3.34654E+01
 -1      2546-7.28739E+00 2.61473E+01 1.48448E+02
 -1      2547-4.98810E+00 2.23626E+01 1.27089E+02
 -1      2548 7.28743E+00 2.61477E+01 1.48448E+02
 -1      2549 4.88307E+00 2.00295E+01 1.13858E+02
 -1      2550 2.25771E+00 2.39995E+00 1.40352E+01
 -1      2551 4.51765E+00 5.50778E+00 3.09500E+01
 -1      2552-4.52080E+00 5.51045E+00 3.09671E+01
 -1      2553-3.27118E+00 5.83700E+00 3.34692E+01
 -1      2554-5.77683E+00 1.04392E+01 5.90529E+01
 -1      2555 5.77064E+00 1.04432E+01 5.90740E+01
 -1      2556-4.35567E+00 1.29351E+01 7.36568E+01
 -1      2557 4.35340E+00 1.29358E+01 7.36597E+01
 -1      2558-8.44531E+00 3.59663E+01 2.04262E+02
 -1      2559 5.11488E+00 2.30701E+01 1.31100E+02
 -1      2560 7.14165E+00 2.27926E+01 1.29363E+02
 -1      2561-7.13536E+00 2.26755E+01 1.28701E+02
 -1      2562-4.01154E+00 1.00321E+01 5.72166E+01
 -1      2563 5.33645E+00 1.00865E+01 5.75041E+01
 -1      2564 1.84692E+00 1.00908E+01 5.74302E+01
 -1      2565 7.19214E+00 9.98320E+00 5.74689E+01
 -1      2566 6.65755E+00 9.44318E+00 5.40737E+01
 -1      2567 3.23436E+00 9.45108E+00 5.39789E+01
 -1      2568 1.42768E+00 9.50530E+00 5.40162E+01
 -1      2569 3.36884E+00 1.06826E+01 6.09469E+01
 -1      2570 6.93813E+00 1.06758E+01 6.10379E+01
 -1      2571 1.48457E+00 1.07321E+01 6.09803E+01
 -1      2572 4.73464E+00 3.72868E+01 2.11759E+02
 -1      2573 4.67835E+00 3.66787E+01 2.08305E+02
 -1      2574-1.11096E+00 3.73080E+01 2.11883E+02
 -1      2575-1.16654E+00 3.66996E+01 2.08428E+02
 -1      2576 9.20355E-01 3.74762E+01 2.12838E+02
 -1      2577 1.09931E+01 3.66786E+01 2.08307E+02
 -1      2578 1.09844E+01 3.72868E+01 2.11761E+02
 -1      2579 1.00295E+01 3.73122E+01 2.11907E+02
 -1      2580 5.81158E+00 3.74803E+01 2.12861E+02
 -1      2581 1.00383E+01 3.67038E+01 2.08453E+02
 -1      2582 8.58841E-01 1.28329E-01 6.14343E-01
 -1      2583 2.72908E-01 1.24474E-01 6.23967E-01
 -1      2584 7.03576E-01 1.16206E-01 7.93996E-01
 -1      2585 7.68297E-01 8.34605E-03 5.81932E-01
 -1      2586 1.78781E-01 9.02798E-02 6.04335E-01
 -1      2587 3.88010E-01 6.04809E-02 4.03970E-01
 -1      2588 9.64008E-02 1.35356E-01 6.85645E-01
 -1      2589 3.71678E-01 1.70282E-01 4.01525E-01
 -1      2590-8.85597E-02 3.97936E-02 3.77960E-01
 -1      2591 6.64014E-02 7.09164E-02 3.51602E-01
 -1      2592-2.44006E-01 9.03631E-02 6.17836E-01
 -1      2593 9.24308E+00 2.88862E+01 1.64158E+02
 -1      2594 4.21413E+00 2.81143E+01 1.59714E+02
 -1      2595 8.71609E+00 2.81124E+01 1.59724E+02
 -1      2596 8.89981E+00 2.96008E+01 1.68164E+02
 -1      2597 3.86410E+00 2.88229E+01 1.63712E+02
 -1      2598 4.37815E+00 2.96022E+01 1.68155E+02
 -1      2599 1.85510E+00 2.81227E+01 1.59721E+02
 -1      2600 2.36524E+00 2.89016E+01 1.64156E+02
 -1      2601 2.00862E+00 2.96084E+01 1.68160E+02
 -1      2602 6.87412E+00 2.89005E+01 1.64163E+02
 -1      2603 1.29374E-01 2.12111E-01 1.11287E+00
 -1      2604-1.15554E-01 9.93190E-02 7.25378E-01
 -1      2605 9.03704E-01 1.91407E-01 1.22221E+00
 -1      2606 1.04519E+00 6.38654E-02 9.35092E-01
 -1      2607 4.38808E+00 3.28992E+01 1.86859E+02
 -1      2608 8.93481E+00 3.28986E+01 1.86863E+02
 -1      2609 9.32192E+00 3.36151E+01 1.90941E+02
 -1      2610 3.27456E+00 3.43489E+01 1.95084E+02
 -1      2611 7.82615E+00 3.43484E+01 1.95086E+02
 -1      2612 2.89237E+00 3.36309E+01 1.91004E+02
 -1      2613 2.00398E+00 3.29011E+01 1.86856E+02
 -1      2614 6.93358E+00 3.36184E+01 1.90937E+02
 -1      2615 8.87600E-01 3.43493E+01 1.95080E+02
 -1      2616-4.10135E-01 2.90542E+00 1.65988E+01
 -1      2617-1.00719E+00 2.74149E+00 1.56438E+01
 -1      2618 5.79134E-01 2.50087E+00 1.40963E+01
 -1      2619-4.60091E-01 2.24101E+00 1.28592E+01
 -1      2620-9.84945E-01 2.10148E+00 1.20277E+01
 -1      2621-2.04167E+00 2.47789E+00 1.43973E+01
 -1      2622-4.59112E+00 2.87427E+00 1.67752E+01
 -1      2623-3.28813E+00 2.48204E+00 1.42030E+01
 -1      2624-4.19103E+00 2.20713E+00 1.30524E+01
 -1      2625-2.08665E+00 2.64555E+00 1.55664E+01
 -1      2626-1.94182E+00 1.99450E+00 1.19429E+01
 -1      2627-4.16064E+00 2.62445E+00 1.56838E+01
 -1      2628-3.78480E+00 1.97245E+00 1.20702E+01
 -1      2629 5.09159E-01 2.39402E-01 7.53985E-01
 -1      2630 1.16445E+00 1.96136E-01 9.71602E-01
 -1      2631-1.32615E+00 2.92973E+01 1.66380E+02
 -1      2632-1.32307E+00 2.85148E+01 1.61935E+02
 -1      2633 7.53227E+00 2.92961E+01 1.66388E+02
 -1      2634 7.51519E+00 2.85133E+01 1.61944E+02
 -1      2635 7.59217E+00 3.40120E+01 1.93165E+02
 -1      2636 8.48492E+00 3.47418E+01 1.97315E+02
 -1      2637 7.58627E+00 3.32257E+01 1.88701E+02
 -1      2638 3.63502E+00 3.78472E+00 2.18312E+01
 -1      2639 4.07800E+00 4.04309E+00 2.30566E+01
 -1      2640 4.85619E+00 4.16332E+00 2.42788E+01
 -1      2641 5.33714E+00 4.44270E+00 2.55752E+01
 -1      2642 1.04418E+00 4.26068E+00 2.42445E+01
 -1      2643 5.09659E+00 3.66863E+00 2.12604E+01
 -1      2644 4.63509E+00 3.40173E+00 2.00559E+01
 -1      2645 1.12253E+00 3.51337E+00 2.00194E+01
 -1      2646 3.28760E+00 2.48224E+00 1.42028E+01
 -1      2647 3.46002E+00 2.36640E+00 1.32264E+01
 -1      2648 4.73648E+00 2.87637E+00 1.62794E+01
 -1      2649 4.89311E+00 2.76746E+00 1.52287E+01
 -1      2650 1.19748E+00 2.67795E+00 1.51557E+01
 -1      2651 4.33166E+00 3.88049E+00 2.18474E+01
 -1      2652 3.88840E+00 3.62232E+00 2.06710E+01
 -1      2653 5.47036E+00 3.52212E+00 1.95422E+01
 -1      2654 5.00734E+00 3.25563E+00 1.84343E+01
 -1      2655 1.33969E+00 3.43748E+00 1.94735E+01
 -1      2656 5.90916E+00 1.04290E+01 5.92916E+01
 -1      2657 5.78646E+00 9.81157E+00 5.57878E+01
 -1      2658 2.18842E+00 3.89970E+00 2.23736E+01
 -1      2659 1.36098E+00 8.33528E+00 4.73744E+01
 -1      2660 6.34810E+00 8.26160E+00 4.74005E+01
 -1      2661 4.85085E+00 7.73696E+00 4.41973E+01
 -1      2662 1.52184E+00 7.34975E+00 4.17912E+01
 -1      2663 6.28130E+00 7.26385E+00 4.18192E+01
 -1      2664 2.90029E+00 7.87979E+00 4.49238E+01
 -1      2665 5.73396E+00 3.97868E+00 2.25069E+01
 -1      2666 6.22648E+00 4.26236E+00 2.37117E+01
 -1      2667 1.73039E+00 4.17498E+00 2.36419E+01
 -1      2668 5.38695E+00 8.05400E+00 4.58135E+01
 -1      2669 6.83235E+00 7.58776E+00 4.34196E+01
 -1      2670 7.25543E+00 1.54098E+01 8.74319E+01
 -1      2671 6.63453E+00 1.50398E+01 8.54590E+01
 -1      2672 9.49304E+00 1.47402E+01 8.35053E+01
 -1      2673 8.86223E+00 1.43662E+01 8.15628E+01
 -1      2674 2.32415E+00 1.47018E+01 8.34741E+01
 -1      2675 2.12490E+00 2.38045E+00 1.31441E+01
 -1      2676 3.46477E+00 2.78677E+00 1.51168E+01
 -1      2677 1.85000E+00 2.90587E+00 1.61132E+01
 -1      2678 6.91287E+00 8.59433E+00 4.90706E+01
 -1      2679 3.04479E+00 3.77931E+00 2.12314E+01
 -1      2680-6.85025E-01 3.63999E+00 2.05742E+01
 -1      2681-2.65361E+00 3.89279E+00 2.17747E+01
 -1      2682-1.95342E+00 3.28422E+00 1.82745E+01
 -1      2683-3.86514E+00 3.53970E+00 1.94370E+01
 -1      2684-1.33633E+00 3.43747E+00 1.94737E+01
 -1      2685-4.32848E+00 3.87977E+00 2.18477E+01
 -1      2686-3.88915E+00 3.62244E+00 2.06725E+01
 -1      2687-5.46498E+00 3.52120E+00 1.95427E+01
 -1      2688-5.00586E+00 3.25574E+00 1.84357E+01
 -1      2689-7.17437E-01 4.06001E+00 2.29634E+01
 -1      2690 1.25079E+00 3.79846E+00 2.17584E+01
 -1      2691 2.35269E+00 4.18162E+00 2.41801E+01
 -1      2692 3.13866E-01 4.46827E+00 2.54291E+01
 -1      2693 6.79193E+00 2.57824E+01 1.46474E+02
 -1      2694 7.44738E+00 2.61764E+01 1.48676E+02
 -1      2695 9.32436E+00 2.69480E+01 1.53090E+02
 -1      2696 1.84385E+00 2.65644E+01 1.50873E+02
 -1      2697 8.66424E+00 2.65513E+01 1.50878E+02
 -1      2698-6.79187E+00 2.57819E+01 1.46474E+02
 -1      2699-7.44733E+00 2.61759E+01 1.48676E+02
 -1      2700-8.66415E+00 2.65507E+01 1.50878E+02
 -1      2701-9.32431E+00 2.69474E+01 1.53090E+02
 -1      2702-1.84385E+00 2.65642E+01 1.50873E+02
 -1      2703 5.31720E-01 2.77306E+01 1.57495E+02
 -1      2704-1.31092E+00 2.61787E+01 1.48663E+02
 -1      2705 2.33636E+00 2.57843E+01 1.46463E+02
 -1      2706 5.30067E-01 2.69512E+01 1.53070E+02
 -1      2707 4.18857E+00 2.65537E+01 1.50864E+02
 -1      2708 9.35207E+00 2.77277E+01 1.57512E+02
 -1      2709 1.31098E+00 2.61787E+01 1.48662E+02
 -1      2710-2.33631E+00 2.57840E+01 1.46462E+02
 -1      2711-4.18862E+00 2.65532E+01 1.50863E+02
 -1      2712-5.30002E-01 2.69511E+01 1.53069E+02
 -1      2713 4.72931E+00 1.97315E+01 1.11959E+02
 -1      2714 1.25484E+00 2.00887E+01 1.14061E+02
 -1      2715 3.79653E+00 2.08464E+01 1.18293E+02
 -1      2716 2.52315E+00 2.04612E+01 1.16190E+02
 -1      2717 7.29077E+00 2.04893E+01 1.16180E+02
 -1      2718 7.12527E+00 2.00840E+01 1.14089E+02
 -1      2719 7.70989E+00 1.97277E+01 1.11982E+02
 -1      2720 9.71637E+00 2.08391E+01 1.18336E+02
 -1      2721 1.02982E+01 2.04841E+01 1.16209E+02
 -1      2722-3.45781E+00 2.36550E+00 1.32267E+01
 -1      2723-4.88828E+00 2.76645E+00 1.52292E+01
 -1      2724-1.19488E+00 2.67794E+00 1.51557E+01
 -1      2725-4.73471E+00 2.87636E+00 1.62794E+01
 -1      2726-2.11941E+00 2.38011E+00 1.31444E+01
 -1      2727-5.79813E-01 2.50093E+00 1.40966E+01
 -1      2728-3.45629E+00 2.78620E+00 1.51172E+01
 -1      2729-1.84756E+00 2.90574E+00 1.61136E+01
 -1      2730 6.85506E-01 3.63999E+00 2.05739E+01
 -1      2731 2.65414E+00 3.89295E+00 2.17744E+01
 -1      2732 1.95623E+00 3.28434E+00 1.82740E+01
 -1      2733 3.86801E+00 3.53997E+00 1.94365E+01
 -1      2734 7.53425E+00 1.10310E+01 6.28702E+01
 -1      2735 1.16854E+00 1.50475E+01 8.54146E+01
 -1      2736 4.44901E+00 1.54153E+01 8.73997E+01
 -1      2737 3.46179E+00 1.43789E+01 8.14884E+01
 -1      2738 6.71810E+00 1.47483E+01 8.34574E+01
 -1      2739-1.16850E+00 1.50474E+01 8.54150E+01
 -1      2740-4.44896E+00 1.54151E+01 8.73999E+01
 -1      2741-3.46232E+00 1.43790E+01 8.14902E+01
 -1      2742-6.71859E+00 1.47483E+01 8.34590E+01
 -1      2743-2.32465E+00 1.47019E+01 8.34754E+01
 -1      2744-7.25332E+00 1.54094E+01 8.74321E+01
 -1      2745-6.63434E+00 1.50395E+01 8.54589E+01
 -1      2746-8.86285E+00 1.43660E+01 8.15641E+01
 -1      2747-9.49158E+00 1.47399E+01 8.35068E+01
 -1      2748-3.64100E+00 3.78524E+00 2.18317E+01
 -1      2749-4.07811E+00 4.04309E+00 2.30579E+01
 -1      2750-4.84921E+00 4.16396E+00 2.42777E+01
 -1      2751-5.32372E+00 4.44236E+00 2.55746E+01
 -1      2752-1.03011E+00 4.26038E+00 2.42429E+01
 -1      2753-9.23898E-01 7.50787E+00 4.25638E+01
 -1      2754-3.54267E+00 7.81941E+00 4.41540E+01
 -1      2755-2.69427E+00 6.99948E+00 3.94608E+01
 -1      2756-5.26993E+00 7.31336E+00 4.10221E+01
 -1      2757-1.82323E+00 7.23461E+00 4.10503E+01
 -1      2758-5.77695E+00 7.80942E+00 4.42097E+01
 -1      2759-5.24484E+00 7.49426E+00 4.26393E+01
 -1      2760-7.44786E+00 7.29892E+00 4.11035E+01
 -1      2761-6.89983E+00 6.97748E+00 3.95853E+01
 -1      2762 7.17977E-01 4.05997E+00 2.29630E+01
 -1      2763-1.25022E+00 3.79828E+00 2.17580E+01
 -1      2764-2.99909E-01 4.46823E+00 2.54270E+01
 -1      2765-2.33907E+00 4.18122E+00 2.41777E+01
 -1      2766 9.23897E-01 7.50783E+00 4.25635E+01
 -1      2767 3.54268E+00 7.81956E+00 4.41536E+01
 -1      2768 2.69985E+00 6.99963E+00 3.94604E+01
 -1      2769 5.27573E+00 7.31352E+00 4.10218E+01
 -1      2770 1.82894E+00 7.23472E+00 4.10503E+01
 -1      2771 6.35447E+00 1.30005E+01 7.38825E+01
 -1      2772 6.84798E+00 1.26958E+01 7.20008E+01
 -1      2773 9.22379E+00 1.33852E+01 7.57872E+01
 -1      2774 2.25692E+00 1.33428E+01 7.57525E+01
 -1      2775 8.73684E+00 1.36869E+01 7.77043E+01
 -1      2776 7.07900E+00 9.18374E+00 5.24072E+01
 -1      2777 9.48529E-01 8.06557E+00 4.57347E+01
 -1      2778-1.66988E+00 7.74724E+00 4.41412E+01
 -1      2779-3.07234E+00 8.27491E+00 4.73248E+01
 -1      2780-1.35837E+00 8.33518E+00 4.73743E+01
 -1      2781-3.99755E-01 8.61240E+00 4.89519E+01
 -1      2782-4.85913E+00 7.73720E+00 4.41976E+01
 -1      2783-5.38917E+00 8.05267E+00 4.58069E+01
 -1      2784-6.91202E+00 8.59283E+00 4.90638E+01
 -1      2785-6.35371E+00 8.26181E+00 4.74008E+01
 -1      2786 4.53808E+00 2.18111E+00 1.18135E+01
 -1      2787 4.42699E+00 2.26403E+00 1.27573E+01
 -1      2788 1.24728E+00 2.07899E+00 1.17324E+01
 -1      2789-9.48531E-01 8.06560E+00 4.57351E+01
 -1      2790 1.66985E+00 7.74745E+00 4.41416E+01
 -1      2791 4.02490E-01 8.61258E+00 4.89525E+01
 -1      2792 3.07512E+00 8.27530E+00 4.73254E+01
 -1      2793-4.22659E+00 1.27026E+01 7.19601E+01
 -1      2794-1.12110E+00 1.30092E+01 7.38316E+01
 -1      2795-6.55383E+00 1.33945E+01 7.57346E+01
 -1      2796-3.41328E+00 1.37007E+01 7.76276E+01
 -1      2797-2.26029E+00 1.33430E+01 7.57538E+01
 -1      2798-1.05052E+00 9.81483E+00 5.56764E+01
 -1      2799-1.06598E+00 1.04318E+01 5.91813E+01
 -1      2800 1.20572E+00 7.80332E-01 3.99339E+00
 -1      2801 2.98059E-01 6.27272E-01 3.43594E+00
 -1      2802 1.10721E+00 8.43617E-01 4.24950E+00
 -1      2803 8.27783E-01 8.83969E-01 4.93294E+00
 -1      2804 2.15969E+00 1.02221E+00 4.88678E+00
 -1      2805 4.48194E+00 4.28062E+00 2.36060E+01
 -1      2806 2.40273E+00 4.00814E+00 2.23442E+01
 -1      2807-4.64236E+00 3.40218E+00 2.00558E+01
 -1      2808-1.12282E+00 3.51312E+00 2.00185E+01
 -1      2809-5.09821E+00 3.66837E+00 2.12606E+01
 -1      2810 8.24461E+00 3.36211E+01 1.90937E+02
 -1      2811 1.13868E+01 3.30141E+01 1.87478E+02
 -1      2812 1.07368E+01 3.34037E+01 1.89705E+02
 -1      2813 3.14463E+00 3.30099E+01 1.87470E+02
 -1      2814-2.39647E+00 4.00951E+00 2.23543E+01
 -1      2815-1.72332E+00 4.17653E+00 2.36518E+01
 -1      2816-4.47584E+00 4.28183E+00 2.36162E+01
 -1      2817-6.21794E+00 4.26293E+00 2.37219E+01
 -1      2818-5.72966E+00 3.98032E+00 2.25178E+01
 -1      2819 4.55058E-01 3.69831E+00 2.10952E+01
 -1      2820 2.32691E+00 3.42230E+00 1.99462E+01
 -1      2821 9.60776E+00 2.55797E+01 1.45338E+02
 -1      2822 8.94821E+00 2.51835E+01 1.43138E+02
 -1      2823 2.17110E+00 2.52007E+01 1.43132E+02
 -1      2824-9.60772E+00 2.55790E+01 1.45337E+02
 -1      2825-8.94823E+00 2.51828E+01 1.43137E+02
 -1      2826-2.17103E+00 2.52005E+01 1.43131E+02
 -1      2827 4.50022E+00 2.51865E+01 1.43120E+02
 -1      2828 8.66667E-01 2.55839E+01 1.45312E+02
 -1      2829-8.66634E-01 2.55838E+01 1.45311E+02
 -1      2830-4.50022E+00 2.51861E+01 1.43120E+02
 -1      2831-2.32781E+00 3.42193E+00 1.99450E+01
 -1      2832-4.56058E-01 3.69799E+00 2.10939E+01
 -1      2833-6.13607E-01 7.60886E+00 4.32833E+01
 -1      2834-1.52398E+00 7.34924E+00 4.17891E+01
 -1      2835-3.15868E+00 7.27915E+00 4.17326E+01
 -1      2836-6.83650E+00 7.58604E+00 4.34111E+01
 -1      2837-6.29154E+00 7.26385E+00 4.18177E+01
 -1      2838 3.15655E+00 7.27983E+00 4.17350E+01
 -1      2839 6.11410E-01 7.60942E+00 4.32858E+01
 -1      2840 9.48759E+00 1.55967E+01 8.85392E+01
 -1      2841 1.01288E+01 1.59769E+01 9.05250E+01
 -1      2842 2.79591E+00 1.59395E+01 9.04949E+01
 -1      2843-3.17897E+00 7.97126E+00 4.49537E+01
 -1      2844-2.26406E+00 8.21756E+00 4.66177E+01
 -1      2845-5.88258E+00 8.29741E+00 4.65907E+01
 -1      2846 5.88010E+00 8.29738E+00 4.65883E+01
 -1      2847 3.17648E+00 7.97100E+00 4.49514E+01
 -1      2848 2.26154E+00 8.21729E+00 4.66157E+01
 -1      2849-7.60066E+00 7.94907E+00 4.50784E+01
 -1      2850-8.16960E+00 8.28318E+00 4.66709E+01
 -1      2851 6.81013E-01 2.99997E+01 1.70382E+02
 -1      2852 9.56015E+00 2.99978E+01 1.70393E+02
 -1      2853 1.84369E+00 2.29670E+00 1.25712E+01
 -1      2854 3.26495E+00 2.20223E+00 1.16902E+01
 -1      2855 9.37459E+00 1.22322E+01 6.91876E+01
 -1      2856 8.91193E+00 1.25203E+01 7.10541E+01
 -1      2857 2.60062E+00 1.21819E+01 6.91474E+01
 -1      2858 1.05943E+01 1.91759E+01 1.08746E+02
 -1      2859 1.00275E+01 1.95225E+01 1.10845E+02
 -1      2860 2.92600E+00 1.91475E+01 1.08723E+02
 -1      2861 3.95999E+00 1.56093E+01 8.84677E+01
 -1      2862 7.28970E+00 1.59850E+01 9.04794E+01
 -1      2863 4.18627E+00 1.95312E+01 1.10793E+02
 -1      2864 7.62739E+00 1.91818E+01 1.08711E+02
 -1      2865 1.33334E+00 3.40122E+01 1.93162E+02
 -1      2866 5.05863E+00 3.36213E+01 1.90935E+02
 -1      2867 4.47882E+00 3.34044E+01 1.89699E+02
 -1      2868 8.20084E+00 3.30146E+01 1.87474E+02
 -1      2869 4.19948E+00 1.27027E+01 7.19607E+01
 -1      2870 1.11835E+00 1.30092E+01 7.38313E+01
 -1      2871 6.52832E+00 1.33944E+01 7.57339E+01
 -1      2872 3.41273E+00 1.37005E+01 7.76260E+01
 -1      2873 5.77698E+00 7.80979E+00 4.42095E+01
 -1      2874 5.24174E+00 7.49354E+00 4.26342E+01
 -1      2875 7.45351E+00 7.29953E+00 4.11033E+01
 -1      2876 6.90231E+00 6.97676E+00 3.95805E+01
 -1      2877 1.68138E+00 6.04144E-01 3.55578E+00
 -1      2878 1.96415E+00 7.64349E-01 4.08801E+00
 -1      2879 2.65843E+00 8.05311E-01 4.45443E+00
 -1      2880 3.00555E+00 9.98942E-01 5.02450E+00
 -1      2881-3.03585E+00 3.78065E+00 2.12411E+01
 -1      2882 4.01958E+00 2.59700E+01 1.47523E+02
 -1      2883-4.01949E+00 2.59697E+01 1.47523E+02
 -1      2884 3.81235E-01 9.19473E+00 5.22538E+01
 -1      2885-3.72869E+00 1.25340E+01 7.09524E+01
 -1      2886-6.77471E+00 1.22406E+01 6.91152E+01
 -1      2887-2.60112E+00 1.21799E+01 6.91367E+01
 -1      2888 4.08747E-01 1.10393E+01 6.27265E+01
 -1      2889-2.17608E+00 3.89919E+00 2.23708E+01
 -1      2890-6.35715E+00 1.30001E+01 7.38826E+01
 -1      2891-6.85061E+00 1.26955E+01 7.20010E+01
 -1      2892-8.73733E+00 1.36867E+01 7.77056E+01
 -1      2893-9.22423E+00 1.33848E+01 7.57887E+01
 -1      2894-2.89976E+00 7.87912E+00 4.49214E+01
 -1      2895 9.58563E+00 3.25066E+01 1.84628E+02
 -1      2896 3.05566E+00 3.70128E+01 2.10206E+02
 -1      2897 9.68221E-01 3.62364E+01 2.05796E+02
 -1      2898-2.79002E+00 3.70343E+01 2.10329E+02
 -1      2899-4.06957E+00 7.67816E+00 4.34302E+01
 -1      2900 7.28103E+00 3.62365E+01 2.05797E+02
 -1      2901 2.10070E+00 3.70384E+01 2.10352E+02
 -1      2902 2.47900E+00 2.44258E+00 1.36200E+01
 -1      2903 4.07284E+00 7.67804E+00 4.34282E+01
 -1      2904-4.87782E+00 1.28523E+01 7.28708E+01
 -1      2905 4.87962E+00 1.28543E+01 7.28805E+01
 -1      2906 7.59490E+00 7.94794E+00 4.50714E+01
 -1      2907 8.16715E+00 8.28320E+00 4.66688E+01
 -1      2908 3.73090E+00 1.25361E+01 7.09630E+01
 -1      2909 6.75294E+00 1.22429E+01 6.91264E+01
 -1      2910 5.11156E+00 1.52524E+01 8.65204E+01
 -1      2911-7.24659E+00 1.59853E+01 9.04849E+01
 -1      2912-3.91707E+00 1.56098E+01 8.84733E+01
 -1      2913-2.75265E+00 1.59404E+01 9.05005E+01
 -1      2914 5.45992E+00 1.98949E+01 1.12921E+02
 -1      2915-9.44473E+00 1.55976E+01 8.85447E+01
 -1      2916-1.00836E+01 1.59775E+01 9.05306E+01
 -1      2917-4.53695E+00 2.17991E+00 1.18142E+01
 -1      2918-4.42896E+00 2.26376E+00 1.27577E+01
 -1      2919-1.24822E+00 2.07881E+00 1.17328E+01
 -1      2920-9.37209E+00 1.22299E+01 6.91770E+01
 -1      2921-8.90937E+00 1.25179E+01 7.10432E+01
 -1      2922-1.84462E+00 2.29669E+00 1.25722E+01
 -1      2923-3.26054E+00 2.20181E+00 1.16909E+01
 -1      2924 1.61184E+00 6.79573E-01 2.98119E+00
 -1      2925 5.67127E-01 5.44173E-01 3.02442E+00
 -1      2926 7.74986E-01 5.22427E-01 2.47059E+00
 -1      2927-1.15945E-01 3.97939E-02 2.16656E-01
 -1      2928 4.11408E-02 3.58308E-02 2.11161E-01
 -1      2929-7.05829E-02 2.51562E-02 6.67280E-02
 -1      2930-3.38105E-01 1.29594E-01 6.07428E-01
 -1      2931-1.65298E-01 3.57101E-02 8.81496E-02
 -1      2932-3.91610E+00 2.07995E+00 1.31334E+01
 -1      2933 1.03489E+01 3.47797E+01 1.97521E+02
 -1      2934 1.10015E+01 3.43889E+01 1.95293E+02
 -1      2935 2.75008E+00 3.43860E+01 1.95286E+02
 -1      2936-1.37992E-03 3.69515E-02 2.11850E-01
 -1      2937 2.27410E+00 6.56149E-01 3.11738E+00
 -1      2938 1.96271E+00 4.84764E-01 2.67175E+00
 -1      2939-5.06954E+00 1.52534E+01 8.65272E+01
 -1      2940 7.81231E+00 3.43892E+01 1.95290E+02
 -1      2941 4.08482E+00 3.47800E+01 1.97518E+02
 -1      2942-1.69059E+00 3.78544E+01 2.14986E+02
 -1      2943-1.59775E+00 3.78543E+01 2.14986E+02
 -1      2944 1.12904E+00 3.78544E+01 2.14986E+02
 -1      2945-2.47751E+00 2.44229E+00 1.36205E+01
 -1      2946-4.89747E+00 3.83394E+01 2.17742E+02
 -1      2947-3.95363E+00 3.70562E+01 2.10453E+02
 -1      2948-4.99026E+00 3.83394E+01 2.17742E+02
 -1      2949 1.36605E+00 7.27493E-01 3.82554E+00
 -1      2950 5.89626E+00 3.37774E+01 1.91824E+02
 -1      2951-9.27937E+00 3.04589E+01 1.73063E+02
 -1      2952-9.35993E+00 3.15609E+01 1.79285E+02
 -1      2953-4.82038E+00 3.15621E+01 1.79279E+02
 -1      2954-4.80741E+00 3.01560E+01 1.71303E+02
 -1      2955-4.88055E+00 3.12546E+01 1.77522E+02
 -1      2956-9.33556E+00 3.01545E+01 1.71311E+02
 -1      2957-8.39524E+00 1.67195E+01 9.54177E+01
 -1      2958-8.48246E+00 1.74421E+01 9.94941E+01
 -1      2959-4.55796E+00 1.65293E+01 9.41118E+01
 -1      2960-8.73915E+00 1.72392E+01 9.82206E+01
 -1      2961-8.64716E+00 1.65207E+01 9.41591E+01
 -1      2962-9.29336E+00 3.12468E+01 1.77526E+02
 -1      2963-9.37063E+00 3.23493E+01 1.83754E+02
 -1      2964-9.30491E+00 3.20355E+01 1.81994E+02
 -1      2965-4.82623E+00 3.23501E+01 1.83749E+02
 -1      2966 5.61045E-01 3.58256E+01 2.03464E+02
 -1      2967 8.49508E+00 3.54905E+01 2.01565E+02
 -1      2968 3.31594E+00 3.62929E+01 2.06119E+02
 -1      2969 1.59451E+00 2.58637E-01 2.02534E+00
 -1      2970 2.65923E-01 2.68861E-01 1.60636E+00
 -1      2971 5.76927E-01 1.43357E-01 1.20152E+00
 -1      2972-1.35185E-01 7.19750E-05 9.44441E-02
 -1      2973-6.55589E-02-8.46831E-04 7.24240E-02
 -1      2974 1.06507E+00 3.83218E+01 2.17640E+02
 -1      2975 3.88490E+00 3.83219E+01 2.17641E+02
 -1      2976-3.77279E-01 2.67090E-01 1.61308E+00
 -1      2977-1.38041E-01 2.97326E-01 1.81453E+00
 -1      2978-6.01320E-01 1.42832E-01 1.21141E+00
 -1      2979 5.40403E-01 8.83049E-01 5.08642E+00
 -1      2980 2.72577E+00 9.39025E-01 5.81821E+00
 -1      2981 1.93001E+00 7.99717E-01 4.66465E+00
 -1      2982 4.51577E-01 5.50298E-01 3.21004E+00
 -1      2983 2.23186E+00 5.77614E-01 3.82654E+00
 -1      2984 1.00248E+00 6.78092E-01 4.16164E+00
 -1      2985-9.71614E+00 2.08385E+01 1.18336E+02
 -1      2986-2.52286E+00 2.04610E+01 1.16190E+02
 -1      2987-7.12520E+00 2.00835E+01 1.14089E+02
 -1      2988-1.01215E+01 1.95628E+01 1.11074E+02
 -1      2989-3.01682E+00 1.91876E+01 1.08951E+02
 -1      2990-5.55249E+00 1.99353E+01 1.13151E+02
 -1      2991-1.36184E+00 3.54907E+01 2.01564E+02
 -1      2992-2.98482E+00 3.58256E+01 2.03465E+02
 -1      2993-5.12058E+00 3.62888E+01 2.06098E+02
 -1      2994-1.25510E+00 2.00887E+01 1.14061E+02
 -1      2995-3.79663E+00 2.08462E+01 1.18294E+02
 -1      2996-4.27770E+00 1.95718E+01 1.11023E+02
 -1      2997-3.96937E-01 6.08648E-02 3.96649E-01
 -1      2998 6.04869E-01 1.63733E+01 9.30162E+01
 -1      2999 1.79226E+00 1.60264E+01 9.10411E+01
 -1      3000-1.18276E+00 1.57451E+01 8.93796E+01
 -1      3001 7.75307E-01 1.51958E+01 8.63423E+01
 -1      3002 1.93670E+00 1.48580E+01 8.44128E+01
 -1      3003 3.73628E+00 1.54776E+01 8.80067E+01
 -1      3004-8.10917E-01 5.37309E-01 2.53454E+00
 -1      3005-5.99091E-01 5.57894E-01 3.09494E+00
 -1      3006-2.94422E-01 6.26977E-01 3.43602E+00
 -1      3007-1.10733E+00 8.43138E-01 4.24742E+00
 -1      3008-8.24148E-01 8.83403E-01 4.93076E+00
 -1      3009-1.41197E+00 7.43580E-01 3.90249E+00
 -1      3010 8.59993E+00 1.63623E+01 9.30805E+01
 -1      3011 6.71826E+00 1.57379E+01 8.94206E+01
 -1      3012 8.61275E+00 1.51828E+01 8.64162E+01
 -1      3013-1.02977E+01 2.04836E+01 1.16210E+02
 -1      3014-1.06881E+01 1.92160E+01 1.08974E+02
 -1      3015-7.29066E+00 2.04886E+01 1.16181E+02
 -1      3016-7.72028E+00 1.92224E+01 1.08939E+02
 -1      3017-2.01352E+00 4.98683E-01 2.73941E+00
 -1      3018-1.67720E+00 6.03719E-01 3.55506E+00
 -1      3019-2.65696E+00 8.03937E-01 4.45262E+00
 -1      3020 1.33587E+00 3.32261E+01 1.88697E+02
 -1      3021 4.47834E+00 3.26190E+01 1.85235E+02
 -1      3022 1.24479E+01 1.97800E+01 1.11979E+02
 -1      3023 1.17144E+01 1.54865E+01 8.74288E+01
 -1      3024 1.07271E+01 3.26180E+01 1.85243E+02
 -1      3025 2.39419E+00 7.50084E-01 5.12989E+00
 -1      3026 1.92996E+00 4.06839E-01 3.25614E+00
 -1      3027 1.24464E+00 1.93484E+01 1.09854E+02
 -1      3028 4.15060E+00 1.87964E+01 1.06612E+02
 -1      3029 5.59752E+00 2.56110E+00 1.32177E+01
 -1      3030 1.18308E+00 1.57451E+01 8.93793E+01
 -1      3031 4.00723E+00 1.63124E+01 9.24696E+01
 -1      3032 4.49431E+00 2.49050E+00 1.46825E+01
 -1      3033 1.11161E+00 2.37761E+00 1.36056E+01
 -1      3034 2.32562E+00 2.12678E+00 1.21722E+01
 -1      3035-1.19842E+00 3.75237E+01 2.13108E+02
 -1      3036 9.59202E+00 2.02329E+01 1.15047E+02
 -1      3037 2.43678E+00 1.98768E+01 1.12913E+02
 -1      3038 5.35519E+00 1.93062E+01 1.09671E+02
 -1      3039 9.60069E+00 1.63008E+01 9.25374E+01
 -1      3040-6.71853E+00 1.57377E+01 8.94207E+01
 -1      3041-9.55726E+00 1.63013E+01 9.25428E+01
 -1      3042 3.42174E-01 8.20653E-01 4.53660E+00
 -1      3043 1.25016E+00 1.05508E+00 5.46101E+00
 -1      3044 4.12184E+00 1.94450E+00 1.09407E+01
 -1      3045 4.21224E+00 2.14634E+00 1.27409E+01
 -1      3046 5.41873E-01 2.16372E+00 1.21782E+01
 -1      3047 1.71600E+00 1.97790E+00 1.07496E+01
 -1      3048 1.90511E-01 9.72771E-01 5.61325E+00
 -1      3049-3.36394E-01 8.20252E-01 4.53676E+00
 -1      3050 1.78428E-01 6.16044E-01 3.60928E+00
 -1      3051 9.94215E+00 1.87869E+01 1.06667E+02
 -1      3052 9.51673E+00 1.94896E+01 1.10836E+02
 -1      3053-1.17123E+01 1.54858E+01 8.74294E+01
 -1      3054 3.91278E+00 1.59913E+01 9.10126E+01
 -1      3055 4.01364E+00 1.48170E+01 8.43799E+01
 -1      3056 3.00251E+00 1.01977E+00 5.67407E+00
 -1      3057-2.83216E+00 8.78050E-01 6.46680E+00
 -1      3058-3.12084E+00 1.14122E+00 7.92597E+00
 -1      3059-1.68062E+00 1.37785E+00 8.48407E+00
 -1      3060-3.51490E+00 1.65591E+00 1.02945E+01
 -1      3061-3.23591E+00 1.36081E+00 8.64841E+00
 -1      3062-3.89990E+00 9.99571E+00 5.64436E+01
 -1      3063-3.97565E+00 1.06134E+01 5.99660E+01
 -1      3064-2.87350E+00 1.02668E+01 5.82480E+01
 -1      3065 7.96643E+00 1.59835E+01 9.10567E+01
 -1      3066 7.98562E+00 1.48084E+01 8.44297E+01
 -1      3067-5.58974E+00 2.55963E+00 1.32185E+01
 -1      3068-7.80013E+00 8.51823E+00 4.83098E+01
 -1      3069-1.65818E+00 6.96940E-01 3.05580E+00
 -1      3070-2.15793E+00 1.02216E+00 4.89050E+00
 -1      3071-3.07719E+00 2.14415E+00 1.22883E+01
 -1      3072-4.12308E+00 1.94406E+00 1.09410E+01
 -1      3073-1.24875E+00 1.05461E+00 5.45894E+00
 -1      3074 5.57653E-01 2.52461E+00 1.44887E+01
 -1      3075-2.14670E-01 2.13776E+00 1.21080E+01
 -1      3076-3.26261E+00 8.53928E+00 4.81898E+01
 -1      3077-4.84874E+00 3.26177E+00 1.89603E+01
 -1      3078-4.46937E+00 2.87072E+01 1.62997E+02
 -1      3079-3.14104E+00 2.83116E+01 1.60784E+02
 -1      3080-4.45798E+00 2.79266E+01 1.58559E+02
 -1      3081 1.32321E+00 2.85149E+01 1.61934E+02
 -1      3082 1.32639E+00 2.92973E+01 1.66379E+02
 -1      3083 4.45805E+00 2.79267E+01 1.58558E+02
 -1      3084 4.46942E+00 2.87074E+01 1.62996E+02
 -1      3085 3.14119E+00 2.83118E+01 1.60784E+02
 -1      3086-7.53240E+00 2.92957E+01 1.66388E+02
 -1      3087-7.51527E+00 2.85129E+01 1.61944E+02
 -1      3088-1.06421E+01 2.79230E+01 1.58576E+02
 -1      3089-1.06687E+01 2.87042E+01 1.63013E+02
 -1      3090 1.06688E+01 2.87048E+01 1.63012E+02
 -1      3091 1.06421E+01 2.79238E+01 1.58576E+02
 -1      3092 1.11063E+01 2.63578E+01 1.49673E+02
 -1      3093 5.80412E+00 2.53761E+01 1.44122E+02
 -1      3094 3.64001E+00 2.59667E+01 1.47458E+02
 -1      3095-1.11062E+01 2.63571E+01 1.49673E+02
 -1      3096-5.80407E+00 2.53757E+01 1.44122E+02
 -1      3097-3.63996E+00 2.59665E+01 1.47458E+02
 -1      3098-4.95979E+00 2.63616E+01 1.49649E+02
 -1      3099-1.45614E+00 2.53775E+01 1.44113E+02
 -1      3100 4.95983E+00 2.63619E+01 1.49648E+02
 -1      3101 1.45620E+00 2.53775E+01 1.44112E+02
 -1      3102-4.33429E-01 3.29194E+00 1.87887E+01
 -1      3103-5.99219E+00 4.41521E+00 2.49868E+01
 -1      3104-2.50658E+00 4.44322E+00 2.48281E+01
 -1      3105 7.65042E-01 1.45040E+01 8.24142E+01
 -1      3106 8.50100E+00 1.44906E+01 8.24923E+01
 -1      3107-5.96288E-01 7.06157E+00 4.01759E+01
 -1      3108-6.64478E+00 7.03823E+00 4.03084E+01
 -1      3109 3.12539E+00 2.95119E+01 1.67601E+02
 -1      3110 4.45694E+00 2.99076E+01 1.69821E+02
 -1      3111 6.26801E+00 2.89199E+01 1.64220E+02
 -1      3112-3.12526E+00 2.95118E+01 1.67601E+02
 -1      3113-4.45689E+00 2.99075E+01 1.69822E+02
 -1      3114-6.26798E+00 2.89196E+01 1.64220E+02
 -1      3115-1.06761E+01 2.99049E+01 1.69835E+02
 -1      3116 1.06761E+01 2.99056E+01 1.69834E+02
 -1      3117-1.41425E+00 9.13888E-01 5.88029E+00
 -1      3118-2.72606E+00 8.95427E-01 6.04571E+00
 -1      3119-1.63035E+00 1.33595E+00 7.98102E+00
 -1      3120 3.26008E+00 8.53902E+00 4.81874E+01
 -1      3121 4.32575E-01 3.29221E+00 1.87900E+01
 -1      3122 4.84648E+00 3.26187E+00 1.89598E+01
 -1      3123-1.92655E+00 7.99616E-01 4.66455E+00
 -1      3124-3.00221E+00 1.01864E+00 5.67163E+00
 -1      3125 5.94151E-01 7.06211E+00 4.01783E+01
 -1      3126 7.79545E+00 8.51925E+00 4.83145E+01
 -1      3127-1.71675E+00 1.97801E+00 1.07504E+01
 -1      3128 5.21594E-01 2.18120E+00 1.25412E+01
 -1      3129 5.99749E+00 4.41365E+00 2.49755E+01
 -1      3130 2.51319E+00 4.44178E+00 2.48176E+01
 -1      3131 8.84847E+00 1.06037E+01 6.01367E+01
 -1      3132 8.66718E+00 9.98479E+00 5.66187E+01
 -1      3133 2.87024E+00 1.02686E+01 5.82588E+01
 -1      3134-9.33164E+00 7.94203E+00 4.42048E+01
 -1      3135-3.96380E+00 1.63130E+01 9.24755E+01
 -1      3136 8.57413E+00 1.31165E+01 7.47481E+01
 -1      3137 2.16667E+00 1.28129E+01 7.28180E+01
 -1      3138 4.75600E+00 1.23166E+01 6.99945E+01
 -1      3139-9.13269E+00 2.57580E+01 1.46464E+02
 -1      3140 9.13289E+00 2.57588E+01 1.46465E+02
 -1      3141-6.99509E+00 4.05328E+00 2.18409E+01
 -1      3142 1.90907E+00 4.01631E-01 2.83180E+00
 -1      3143-8.57513E+00 1.31158E+01 7.47466E+01
 -1      3144-2.17057E+00 1.28125E+01 7.28166E+01
 -1      3145-4.75480E+00 1.23141E+01 6.99822E+01
 -1      3146-4.90048E+00 3.62490E+00 2.17651E+01
 -1      3147 6.63963E+00 7.03787E+00 4.03054E+01
 -1      3148 1.05997E+00 1.31327E+01 7.46557E+01
 -1      3149-4.69770E-01 1.23201E+01 6.99517E+01
 -1      3150-1.06109E+00 1.31323E+01 7.46539E+01
 -1      3151 4.70713E-01 1.23217E+01 6.99610E+01
 -1      3152 4.60551E-02 3.08139E-02-2.04965E-02
 -1      3153-3.20207E-02-1.87060E-02-1.31484E-02
 -1      3154 3.88283E-02 4.63625E-02 1.82961E-01
 -1      3155-1.75844E-01-2.70973E-02 2.05073E-01
 -1      3156-1.06554E-01-2.02923E-02 6.74673E-02
 -1      3157 4.89408E+00 3.62427E+00 2.17641E+01
 -1      3158 9.33153E+00 7.94261E+00 4.42042E+01
 -1      3159 1.17595E+00 7.74649E-01 4.99903E+00
 -1      3160 9.58446E-01 4.33492E-01 3.11781E+00
 -1      3161 6.99775E+00 4.05442E+00 2.18400E+01
 -1      3162-3.13526E+00 3.19594E+01 1.81514E+02
 -1      3163-7.59904E+00 3.08608E+01 1.75296E+02
 -1      3164-3.12796E+00 3.05543E+01 1.73535E+02
 -1      3165-3.06789E+00 3.08619E+01 1.75290E+02
 -1      3166-4.45898E+00 1.84964E+01 1.05229E+02
 -1      3167-2.88682E+00 1.81598E+01 1.03183E+02
 -1      3168-2.81529E+00 1.78623E+01 1.01542E+02
 -1      3169-4.60748E+00 1.72477E+01 9.81769E+01
 -1      3170-3.05823E+00 1.69225E+01 9.61691E+01
 -1      3171-4.68814E+00 1.75511E+01 9.98134E+01
 -1      3172-2.32846E+00 6.72414E-01 3.18702E+00
 -1      3173-3.00419E+00 9.97807E-01 5.02012E+00
 -1      3174-1.10851E+01 1.27894E+01 7.19964E+01
 -1      3175 1.10609E+01 1.27898E+01 7.19966E+01
 -1      3176-9.56814E+00 2.48063E+01 1.40955E+02
 -1      3177-1.10652E+01 2.55830E+01 1.45275E+02
 -1      3178 9.56816E+00 2.48070E+01 1.40955E+02
 -1      3179 1.10653E+01 2.55837E+01 1.45275E+02
 -1      3180-8.62969E-01 2.48114E+01 1.40926E+02
 -1      3181 4.94103E+00 2.55882E+01 1.45247E+02
 -1      3182 8.62990E-01 2.48116E+01 1.40927E+02
 -1      3183-4.94099E+00 2.55880E+01 1.45248E+02
 -1      3184-6.53727E+00 7.61473E+00 4.41467E+01
 -1      3185 8.76074E+00 1.18691E+01 6.73559E+01
 -1      3186 8.43794E+00 1.24526E+01 7.09901E+01
 -1      3187-8.75583E+00 1.18653E+01 6.73375E+01
 -1      3188-8.43651E+00 1.24504E+01 7.09808E+01
 -1      3189-1.32182E+00 3.47422E+01 1.97313E+02
 -1      3190-2.65534E+00 3.43493E+01 1.95082E+02
 -1      3191-1.11371E+00 3.35333E+01 1.90448E+02
 -1      3192-2.44598E+00 3.31408E+01 1.88219E+02
 -1      3193-5.10283E+00 3.38708E+01 1.92370E+02
 -1      3194 6.52883E+00 7.61442E+00 4.41461E+01
 -1      3195-3.67661E+00 1.18828E+01 6.72421E+01
 -1      3196 1.03069E+00 1.24685E+01 7.08848E+01
 -1      3197 1.52080E-01 4.41894E-01 2.62091E+00
 -1      3198 3.65597E+00 1.18845E+01 6.72523E+01
 -1      3199-1.05500E+00 1.24678E+01 7.08830E+01
 -1      3200-3.41115E+00 1.43962E+00 9.58324E+00
 -1      3201-1.83082E+00 1.68246E+00 1.01971E+01
 -1      3202 9.38250E+00 3.71764E+01 2.11137E+02
 -1      3203 7.84004E+00 3.59630E+01 2.04249E+02
 -1      3204 1.13726E-01 9.85145E-02 7.19011E-01
 -1      3205-2.03877E-01 2.22830E-01 1.10659E+00
 -1      3206 1.32114E-01 2.97826E-01 1.81423E+00
 -1      3207 1.20071E+01 3.85816E+01 2.19115E+02
 -1      3208 1.26427E+01 3.85817E+01 2.19115E+02
 -1      3209 7.47074E+00 3.82962E+01 2.17494E+02
 -1      3210 8.10633E+00 3.82963E+01 2.17494E+02
 -1      3211 1.13026E+01 3.77403E+01 2.14335E+02
 -1      3212-9.57025E-01 1.14725E+00 6.67981E+00
 -1      3213-2.41530E+00 1.18823E+00 7.28831E+00
 -1      3214-1.12388E+00 1.62800E+00 9.40492E+00
 -1      3215-1.63329E-01 1.47459E-01 6.80022E-01
 -1      3216-3.78369E-01 1.71941E-01 3.85594E-01
 -1      3217-5.11278E-01 2.38546E-01 7.31422E-01
 -1      3218 1.13568E+01 3.85578E+01 2.18980E+02
 -1      3219 6.51559E+00 3.83219E+01 2.17641E+02
 -1      3220 1.03477E+01 3.77658E+01 2.14482E+02
 -1      3221 9.69744E+00 3.77418E+01 2.14347E+02
 -1      3222 8.00418E-02 4.12916E-02 3.71619E-01
 -1      3223-1.65290E+00 3.68447E+01 2.09251E+02
 -1      3224-1.70838E+00 3.62365E+01 2.05796E+02
 -1      3225 1.10204E+00 3.73121E+01 2.11906E+02
 -1      3226 1.04609E+00 3.67038E+01 2.08452E+02
 -1      3227 2.42508E+00 3.58619E+01 2.03670E+02
 -1      3228 4.04707E+00 3.55280E+01 2.01768E+02
 -1      3229 6.13521E+00 3.63042E+01 2.06179E+02
 -1      3230-7.06855E+00 1.93427E+01 1.09884E+02
 -1      3231-1.00361E+01 1.88269E+01 1.06894E+02
 -1      3232-2.35070E+00 3.12202E+00 1.77962E+01
 -1      3233 2.20929E-01 3.12992E+00 1.77523E+01
 -1      3234-1.05583E+00 6.24363E-02 9.42670E-01
 -1      3235-9.84812E-01 1.97704E-01 1.23418E+00
 -1      3236-1.60738E+00 2.57025E-01 2.02627E+00
 -1      3237-7.69199E-01 1.24105E-01 8.06742E-01
 -1      3238-1.16278E+00 1.93039E-01 9.53330E-01
 -1      3239-8.55105E-01 1.27120E-01 6.00784E-01
 -1      3240-1.10913E+00 3.27472E+01 1.85984E+02
 -1      3241-1.02991E+00 1.88874E+01 1.07304E+02
 -1      3242-2.27999E+00 1.92625E+01 1.09423E+02
 -1      3243-1.03893E+00 1.96250E+01 1.11491E+02
 -1      3244-1.19537E+00 1.54992E+01 8.80893E+01
 -1      3245-2.39111E+00 1.58613E+01 9.01247E+01
 -1      3246-1.20969E+00 1.62035E+01 9.20873E+01
 -1      3247-9.95800E+00 2.89817E+01 1.64638E+02
 -1      3248-9.97883E+00 2.97659E+01 1.69087E+02
 -1      3249-2.42993E+00 2.93781E+01 1.66854E+02
 -1      3250-1.10332E+00 2.97684E+01 1.69073E+02
 -1      3251-1.10093E+00 2.89846E+01 1.64622E+02
 -1      3252-9.07896E+00 1.54843E+01 8.81691E+01
 -1      3253-9.18793E+00 1.61896E+01 9.21627E+01
 -1      3254-9.31012E+00 1.88771E+01 1.07360E+02
 -1      3255-9.38864E+00 1.96154E+01 1.11544E+02
 -1      3256 1.03596E+01 3.55279E+01 2.01771E+02
 -1      3257 1.33062E+01 3.36269E+01 1.90942E+02
 -1      3258 1.18734E+00 2.02417E+01 1.14996E+02
 -1      3259-6.00954E-01 1.93496E+01 1.09881E+02
 -1      3260-1.33574E+00 3.32261E+01 1.88697E+02
 -1      3261-1.34008E+00 3.40121E+01 1.93162E+02
 -1      3262-5.05588E+00 3.43976E+01 1.95344E+02
 -1      3263-3.71380E+00 3.40032E+01 1.93113E+02
 -1      3264-5.04910E+00 3.36118E+01 1.90878E+02
 -1      3265-7.79592E-01 8.44006E-03 5.88558E-01
 -1      3266-9.35197E+00 2.77270E+01 1.57512E+02
 -1      3267-1.85514E+00 2.81224E+01 1.59720E+02
 -1      3268-4.28311E+00 2.85921E+01 1.62408E+02
 -1      3269-5.31687E-01 2.77305E+01 1.57494E+02
 -1      3270-9.90315E-01 1.20053E+00 7.15679E+00
 -1      3271-5.04329E+00 3.43484E+01 1.95085E+02
 -1      3272-4.83089E+00 3.31386E+01 1.88222E+02
 -1      3273 3.18130E+00 9.91636E-01 4.07970E+00
 -1      3274-2.43420E+00 6.42722E-01 4.24924E+00
 -1      3275-2.75856E+00 8.55707E-01 5.44510E+00
 -1      3276-6.29659E-01 8.13642E-01 4.72662E+00
 -1      3277-3.90630E+00 1.88126E+00 1.12148E+01
 -1      3278-2.67482E-01 6.82743E-01 4.03385E+00
 -1      3279-3.01927E-01 8.92540E-01 5.22214E+00
 -1      3280-4.28273E-01 1.91610E+00 1.10164E+01
 -1      3281 3.96856E-01-3.39321E-02 4.71832E-01
 -1      3282 7.82782E-01-5.31050E-02 6.12022E-01
 -1      3283 9.34547E-01-1.38788E-01 7.25070E-01
 -1      3284 6.38890E-01 1.28996E-01 1.40319E+00
 -1      3285 1.30238E+00 1.03752E-01 1.54333E+00
 -1      3286-4.95229E+00 3.73301E+01 2.12007E+02
 -1      3287-4.55007E+00 3.62684E+01 2.05979E+02
 -1      3288-5.54870E+00 3.65427E+01 2.07533E+02
 -1      3289-7.84974E+00 3.67540E+01 2.08736E+02
 -1      3290 4.77444E+00 3.71764E+01 2.11137E+02
 -1      3291 9.30031E+00 3.68464E+01 2.09266E+02
 -1      3292 3.23366E+00 3.59632E+01 2.04248E+02
 -1      3293-4.81029E+00 3.71682E+01 2.11092E+02
 -1      3294-5.00477E+00 3.59590E+01 2.04228E+02
 -1      3295 1.19760E-01 6.52589E-02-1.30027E-03
 -1      3296 1.87816E-01 6.29680E-02 8.49607E-02
 -1      3297 3.75960E-01 1.57036E-01 2.24162E-01
 -1      3298 7.65262E-02 3.19862E-02 5.96841E-02
 -1      3299 2.11307E+00 3.82961E+01 2.17494E+02
 -1      3300-3.73364E+00 3.83176E+01 2.17618E+02
 -1      3301-1.24481E+01 1.97792E+01 1.11980E+02
 -1      3302 1.05809E-01-5.85991E-03 7.90702E-02
 -1      3303-7.78013E-02 7.04890E-02 3.31275E-01
 -1      3304 6.46972E-01 3.87210E-01 1.69285E+00
 -1      3305 3.42512E-01 2.69363E-01 1.47668E+00
 -1      3306 7.53039E-01 2.58289E-01 1.12093E+00
 -1      3307 4.84000E+00 3.82961E+01 2.17494E+02
 -1      3308 8.14949E+00 2.95207E+01 1.67598E+02
 -1      3309 8.14785E+00 2.83229E+01 1.60780E+02
 -1      3310-8.14945E+00 2.95203E+01 1.67598E+02
 -1      3311-8.14780E+00 2.83225E+01 1.60781E+02
 -1      3312-1.13162E+01 2.95186E+01 1.67607E+02
 -1      3313-1.13040E+01 2.83204E+01 1.60792E+02
 -1      3314 1.13162E+01 2.95193E+01 1.67607E+02
 -1      3315 1.13040E+01 2.83210E+01 1.60791E+02
 -1      3316 1.62596E+00 3.48928E-01 1.89302E+00
 -1      3317-1.24235E+01 3.85571E+01 2.18980E+02
 -1      3318-1.17733E+01 3.85808E+01 2.19115E+02
 -1      3319-1.09150E+01 3.77829E+01 2.14583E+02
 -1      3320-8.11158E+00 3.83393E+01 2.17742E+02
 -1      3321-1.15651E+01 3.77593E+01 2.14448E+02
 -1      3322-4.05772E-01-3.54900E-02 4.76972E-01
 -1      3323-7.94859E-01-5.27818E-02 6.20548E-01
 -1      3324-9.35734E-01-1.39234E-01 7.25526E-01
 -1      3325-6.53662E-01 1.26752E-01 1.40250E+00
 -1      3326-1.31715E+00 1.03781E-01 1.54822E+00
 -1      3327-1.00378E+01 3.35321E+01 1.90454E+02
 -1      3328-7.59120E+00 3.40114E+01 1.93165E+02
 -1      3329-1.13110E+01 3.43966E+01 1.95348E+02
 -1      3330-6.16028E+00 3.35251E+01 1.90402E+02
 -1      3331-1.00305E+01 3.27457E+01 1.85991E+02
 -1      3332-1.13046E+01 3.36105E+01 1.90883E+02
 -1      3333-1.12323E+01 3.73297E+01 2.12008E+02
 -1      3334-6.08977E+00 3.75195E+01 2.13086E+02
 -1      3335-8.35722E-01 2.06440E+01 1.17269E+02
 -1      3336-2.09154E+00 2.02761E+01 1.15174E+02
 -1      3337-4.37715E+00 1.98132E+01 1.12613E+02
 -1      3338-1.93682E+00 1.48580E+01 8.44126E+01
 -1      3339-7.65158E-01 1.45039E+01 8.24136E+01
 -1      3340-4.32411E+00 1.53093E+01 8.70968E+01
 -1      3341-9.27225E+00 2.06359E+01 1.17315E+02
 -1      3342-8.50064E+00 1.44898E+01 8.24920E+01
 -1      3343-4.24137E+00 1.88368E+01 1.06839E+02
 -1      3344 1.17754E+00 1.94991E+01 1.10781E+02
 -1      3345-1.23571E-01 6.54205E-02 1.89739E-03
 -1      3346-4.38230E-02 1.97480E-02-1.80215E-02
 -1      3347-3.88581E-01 1.63693E-01 2.24261E-01
 -1      3348-1.73196E-01 9.10351E-02 1.79273E-01
 -1      3349-1.81732E-01 5.69674E-02 7.63435E-02
 -1      3350-9.41697E+00 3.71679E+01 2.11093E+02
 -1      3351-9.30117E+00 3.68381E+01 2.09223E+02
 -1      3352-9.61034E+00 3.59588E+01 2.04229E+02
 -1      3353-2.31140E-01-3.17722E-02 1.18118E-01
 -1      3354-2.60357E-01-6.84906E-04 1.40963E-01
 -1      3355-6.52269E-01 1.22523E-01 3.96471E-01
 -1      3356-2.18490E-01 1.82573E-02 1.15740E-01
 -1      3357-6.03807E-01 5.18228E-02 3.85211E-01
 -1      3358-6.69183E-01 3.99190E-01 1.74572E+00
 -1      3359-4.62541E-01 2.86014E-01 1.52960E+00
 -1      3360-7.96130E-01 2.68024E-01 1.14131E+00
 -1      3361 1.91353E+00 3.85814E+01 2.19113E+02
 -1      3362 5.60641E+00 3.85577E+01 2.18979E+02
 -1      3363 2.92996E+00 3.77399E+01 2.14334E+02
 -1      3364 6.62267E+00 3.77164E+01 2.14199E+02
 -1      3365 5.75033E+00 3.82962E+01 2.17494E+02
 -1      3366-1.67127E+00 3.59551E-01 1.95059E+00
 -1      3367 3.63913E+00 3.51165E+01 1.99437E+02
 -1      3368 3.36522E+00 1.50636E+00 9.01288E+00
 -1      3369 3.80696E+00 1.64827E+00 9.25265E+00
 -1      3370 1.91026E+00 1.78153E+00 1.01540E+01
 -1      3371 1.68981E+00 1.36964E+00 7.81748E+00
 -1      3372 2.08896E+00 1.46663E+00 8.00634E+00
 -1      3373 3.33788E+00 1.25807E+00 7.03439E+00
 -1      3374-1.02533E+01 3.47417E+01 1.97317E+02
 -1      3375 6.66738E-01 3.17202E+01 1.80151E+02
 -1      3376-1.13959E+00 3.22925E+01 1.83396E+02
 -1      3377-4.47339E+00 3.18323E+01 1.80765E+02
 -1      3378-4.46470E+00 3.06917E+01 1.74281E+02
 -1      3379-6.27457E+00 3.12604E+01 1.77524E+02
 -1      3380-1.13803E+00 3.11504E+01 1.76909E+02
 -1      3381 9.57502E+00 3.17190E+01 1.80159E+02
 -1      3382 1.07154E+01 3.18313E+01 1.80773E+02
 -1      3383 5.14470E+00 3.22924E+01 1.83398E+02
 -1      3384 5.13596E+00 3.11501E+01 1.76912E+02
 -1      3385 6.27465E+00 3.12608E+01 1.77523E+02
 -1      3386 1.06945E+01 3.06902E+01 1.74292E+02
 -1      3387 1.33426E+00 1.35762E+00 7.97712E+00
 -1      3388 3.02459E+00 1.18391E+00 7.19692E+00
 -1      3389 1.50466E+00 1.06976E+00 6.11778E+00
 -1      3390 2.39886E+00 2.73625E+00 1.56389E+01
 -1      3391-7.23708E-02 2.06254E+01 1.17136E+02
 -1      3392-1.80742E+00 2.67415E+01 1.51861E+02
 -1      3393 5.49892E+00 2.67406E+01 1.51867E+02
 -1      3394-5.49889E+00 2.67403E+01 1.51868E+02
 -1      3395 1.80746E+00 2.67416E+01 1.51861E+02
 -1      3396 4.98349E+00 2.06231E+01 1.17149E+02
 -1      3397 2.60664E-01-4.27027E-03 1.41639E-01
 -1      3398 2.59315E-01 2.92543E-02 1.33893E-01
 -1      3399 5.76568E-01 1.33828E-02 3.80451E-01
 -1      3400 2.06506E-01 1.35542E-03 1.15926E-01
 -1      3401 5.51524E-01-4.54740E-02 3.65811E-01
 -1      3402 6.82440E-01 3.07852E+01 1.74841E+02
 -1      3403 4.01525E+00 3.12469E+01 1.77471E+02
 -1      3404-1.11896E+00 3.02166E+01 1.71605E+02
 -1      3405 9.57594E+00 3.07837E+01 1.74852E+02
 -1      3406 5.14266E+00 3.02162E+01 1.71608E+02
 -1      3407 4.46981E+00 1.34830E+01 7.66197E+01
 -1      3408 8.73492E-01 3.99003E-01 2.34284E+00
 -1      3409 9.45755E-02 3.51167E+01 1.99438E+02
 -1      3410-2.89671E-02 2.74534E+00 1.55870E+01
 -1      3411-8.71568E+00 2.81118E+01 1.59724E+02
 -1      3412-9.31761E+00 2.93686E+01 1.66858E+02
 -1      3413-4.21425E+00 2.81138E+01 1.59713E+02
 -1      3414-4.79805E+00 2.93704E+01 1.66848E+02
 -1      3415-4.68969E-01 5.50044E-01 3.20942E+00
 -1      3416-1.71545E-01 4.39554E-01 2.62119E+00
 -1      3417-1.08729E+00 6.06773E-01 3.83383E+00
 -1      3418 6.36794E-02 1.34869E+01 7.65937E+01
 -1      3419 1.44819E+00 3.85578E+01 2.18979E+02
 -1      3420-2.24472E+00 3.85814E+01 2.19114E+02
 -1      3421 2.98991E+00 3.77418E+01 2.14346E+02
 -1      3422-7.02833E-01 3.77656E+01 2.14481E+02
 -1      3423 3.31486E+00 3.83219E+01 2.17641E+02
 -1      3424 2.07397E-01 1.21781E+00 6.99875E+00
 -1      3425 2.25563E-01 1.53925E+00 8.82036E+00
 -1      3426-1.39400E+00 1.29292E+00 6.82622E+00
 -1      3427-3.76594E-01 1.37845E+00 7.76137E+00
 -1      3428-3.29216E-01 1.07915E+00 6.06063E+00
 -1      3429-6.53716E-02 1.34874E+01 7.65965E+01
 -1      3430-4.47148E+00 1.34827E+01 7.66195E+01
 -1      3431 4.42098E+00 1.08848E+01 6.18190E+01
 -1      3432-1.44140E+00 1.08878E+01 6.17784E+01
 -1      3433 9.54367E-02 4.08719E-01 2.28856E+00
 -1      3434-1.92672E+00 4.00900E-01 2.83273E+00
 -1      3435 9.84837E+00 1.80581E+01 1.02525E+02
 -1      3436 4.70766E+00 1.76196E+01 1.00077E+02
 -1      3437 8.69204E+00 1.70768E+01 9.71297E+01
 -1      3438 9.70419E+00 1.70117E+01 9.65803E+01
 -1      3439 4.63480E+00 1.65782E+01 9.41655E+01
 -1      3440 5.73355E+00 1.75390E+01 9.95112E+01
 -1      3441-4.23775E-01 1.79039E+00 1.01032E+01
 -1      3442-1.58976E+00 1.68195E+00 9.05424E+00
 -1      3443-2.08973E+00 1.46551E+00 8.00373E+00
 -1      3444-6.94786E+00 3.83175E+01 2.17618E+02
 -1      3445-9.75120E+00 3.77609E+01 2.14459E+02
 -1      3446-2.91620E-01 3.88943E-02 1.55773E-01
 -1      3447-2.55927E-01 5.57766E-02 1.22704E-01
 -1      3448-8.59124E-01 2.40421E+01 1.36558E+02
 -1      3449 4.41708E-01 2.44321E+01 1.38752E+02
 -1      3450 3.88917E+00 2.38744E+01 1.35518E+02
 -1      3451-1.21541E+00 2.29200E+01 1.30198E+02
 -1      3452 7.36553E-02 2.33093E+01 1.32379E+02
 -1      3453-4.66365E+00 2.34815E+01 1.33423E+02
 -1      3454-9.95159E+00 2.38687E+01 1.35549E+02
 -1      3455-4.76608E+00 2.44305E+01 1.38760E+02
 -1      3456-9.52402E+00 2.40363E+01 1.36590E+02
 -1      3457-9.81714E+00 2.29129E+01 1.30236E+02
 -1      3458-5.09653E+00 2.33074E+01 1.32389E+02
 -1      3459-4.53790E-01 3.47426E+01 1.97312E+02
 -1      3460-2.82818E+00 3.47340E+01 1.97262E+02
 -1      3461-6.97319E+00 1.78567E+01 1.01572E+02
 -1      3462-7.54228E+00 1.75129E+01 9.95296E+01
 -1      3463-6.90390E+00 1.71340E+01 9.74771E+01
 -1      3464-3.70736E+00 8.78236E+00 4.98945E+01
 -1      3465-7.98352E+00 9.09406E+00 5.15881E+01
 -1      3466-7.07180E+00 9.17470E+00 5.23606E+01
 -1      3467-4.24670E+00 9.65067E+00 5.48125E+01
 -1      3468-8.66605E+00 9.97404E+00 5.65605E+01
 -1      3469-5.18951E+00 9.54622E+00 5.40018E+01
 -1      3470 3.30879E+00 9.11433E+00 5.14699E+01
 -1      3471 9.34982E-01 8.78727E+00 4.98631E+01
 -1      3472-4.40571E-01 9.19374E+00 5.22533E+01
 -1      3473 3.83343E+00 9.99685E+00 5.64535E+01
 -1      3474 1.37791E+00 9.65824E+00 5.47902E+01
 -1      3475 5.18388E+00 9.54788E+00 5.40100E+01
 -1      3476 3.70751E+00 8.78229E+00 4.98924E+01
 -1      3477 7.98462E+00 9.10239E+00 5.16323E+01
 -1      3478 4.24598E+00 9.65273E+00 5.48231E+01
 -1      3479-1.00687E+01 3.73075E+01 2.11885E+02
 -1      3480-1.00579E+01 3.66991E+01 2.08430E+02
 -1      3481-1.18168E+01 3.59337E+01 2.04080E+02
 -1      3482-6.68632E+00 3.67317E+01 2.08612E+02
 -1      3483-1.18285E+01 3.65420E+01 2.07535E+02
 -1      3484-4.17271E+00 2.43440E+00 1.51129E+01
 -1      3485-4.42231E+00 2.81054E+00 1.72137E+01
 -1      3486-2.20913E+00 3.02321E+00 1.76972E+01
 -1      3487-4.40458E+00 3.00329E+00 1.78110E+01
 -1      3488-6.37249E+00 3.47339E+01 1.97265E+02
 -1      3489 6.98653E-01 3.25323E+01 1.84759E+02
 -1      3490 6.95338E-01 2.99861E+01 1.70297E+02
 -1      3491-5.56338E+00 2.99853E+01 1.70301E+02
 -1      3492-2.15792E-03 1.24973E-02 5.35999E-02
 -1      3493 1.59911E-01-2.32421E-02 1.89685E-01
 -1      3494-5.60340E+00 3.59346E+01 2.04078E+02
 -1      3495 4.06493E-01 1.64161E+01 9.32202E+01
 -1      3496 6.46406E-01 1.86992E+01 1.06185E+02
 -1      3497-3.37277E+00 9.11547E+00 5.14728E+01
 -1      3498-9.34727E-01 8.78758E+00 4.98651E+01
 -1      3499-1.37760E+00 9.65643E+00 5.47799E+01
 -1      3500 8.58135E+00 1.79302E+01 1.01965E+02
 -1      3501 3.45520E+00 1.75093E+01 9.95168E+01
 -1      3502 4.54590E+00 1.84775E+01 1.04949E+02
 -1      3503-4.47830E+00 3.26188E+01 1.85236E+02
 -1      3504-3.14485E+00 3.30097E+01 1.87470E+02
 -1      3505-6.85851E+00 3.33950E+01 1.89652E+02
 -1      3506-5.26861E+00 1.87359E+01 1.06430E+02
 -1      3507-5.54210E-01-4.46399E-02 3.62813E-01
 -1      3508-1.89508E-01-2.21713E-02 1.03403E-01
 -1      3509 8.20553E+00 1.52974E+01 8.73963E+01
 -1      3510-1.32455E+01 3.04867E+01 1.73069E+02
 -1      3511-8.18273E+00 3.14422E+01 1.78533E+02
 -1      3512-1.13619E+01 3.14411E+01 1.78539E+02
 -1      3513-1.13373E+01 3.03018E+01 1.72061E+02
 -1      3514-8.16483E+00 3.03033E+01 1.72054E+02
 -1      3515 1.32455E+01 3.04875E+01 1.73068E+02
 -1      3516 8.18276E+00 3.14426E+01 1.78533E+02
 -1      3517 1.13620E+01 3.14418E+01 1.78539E+02
 -1      3518 1.13374E+01 3.03025E+01 1.72061E+02
 -1      3519 8.16486E+00 3.03038E+01 1.72053E+02
 -1      3520-1.32654E+01 3.12704E+01 1.77531E+02
 -1      3521-1.13755E+01 3.22268E+01 1.83007E+02
 -1      3522 1.32654E+01 3.12711E+01 1.77530E+02
 -1      3523 1.13756E+01 3.22275E+01 1.83007E+02
 -1      3524 1.32821E+01 3.20556E+01 1.81998E+02
 -1      3525 8.19281E+00 3.22283E+01 1.83001E+02
 -1      3526-1.32820E+01 3.20548E+01 1.81998E+02
 -1      3527-8.19281E+00 3.22278E+01 1.83002E+02
 -1      3528-5.18973E+00 1.64122E+01 9.32502E+01
 -1      3529-1.58154E+00 9.93776E-01 5.72939E+00
 -1      3530 1.21187E+01 1.76008E+01 9.95222E+01
 -1      3531 1.22382E+01 1.83208E+01 1.03638E+02
 -1      3532 1.04034E+01 1.77214E+01 1.00462E+02
 -1      3533 1.05044E+01 1.84455E+01 1.04585E+02
 -1      3534 7.55988E+00 1.84517E+01 1.04548E+02
 -1      3535-9.86088E-01 2.29734E-01 6.59314E-01
 -1      3536-7.17790E-01 2.63212E-01 5.13409E-01
 -1      3537-1.33396E+00 4.11275E-01 8.21208E-01
 -1      3538-1.54949E+00 3.76821E-01 1.51214E+00
 -1      3539-1.09984E+00 4.03967E-01 1.37301E+00
 -1      3540 2.62804E-01 1.87624E+00 1.06122E+01
 -1      3541-9.62340E-02 3.83178E+01 2.17617E+02
 -1      3542-2.91615E+00 3.77613E+01 2.14458E+02
 -1      3543-1.08980E+01 2.30790E+01 1.31046E+02
 -1      3544-6.06134E+00 2.25179E+01 1.27902E+02
 -1      3545-6.17540E+00 2.34622E+01 1.33195E+02
 -1      3546 4.86808E+00 2.31446E+01 1.31341E+02
 -1      3547 6.17790E+00 2.35212E+01 1.33527E+02
 -1      3548 1.06788E+00 2.25791E+01 1.28218E+02
 -1      3549-2.12627E+00 1.86556E+00 1.06746E+01
 -1      3550 2.22523E+00 4.28352E-01 3.97831E+00
 -1      3551-6.75761E+00 3.77834E+01 2.14583E+02
 -1      3552-2.74040E+00 3.83395E+01 2.17741E+02
 -1      3553 4.03322E+00 1.41916E+00 6.58440E+00
 -1      3554 4.43848E+00 1.66963E+00 8.04470E+00
 -1      3555 3.36485E+00 1.22320E+00 6.31708E+00
 -1      3556 2.67626E+00 1.49414E+00 7.61105E+00
 -1      3557 2.42529E+00 1.24618E+00 6.17978E+00
 -1      3558-7.21908E-01 4.61555E+00 2.61573E+01
 -1      3559 1.94970E-01 1.00579E+00 5.66514E+00
 -1      3560-2.19310E-01 3.13015E+00 1.77536E+01
 -1      3561 2.35297E+00 3.12237E+00 1.77969E+01
 -1      3562-4.64446E+00 2.10252E+01 1.19426E+02
 -1      3563-4.98418E+00 2.75299E+01 1.56354E+02
 -1      3564-1.28112E+00 2.75310E+01 1.56349E+02
 -1      3565 4.98421E+00 2.75302E+01 1.56354E+02
 -1      3566 1.28111E+00 2.75310E+01 1.56349E+02
 -1      3567 4.30376E-01 2.10274E+01 1.19415E+02
 -1      3568 4.21156E+00 1.41732E+01 8.05226E+01
 -1      3569 3.90177E-01 1.41767E+01 8.05024E+01
 -1      3570-3.90767E-01 1.41768E+01 8.05037E+01
 -1      3571-4.21215E+00 1.41733E+01 8.05239E+01
 -1      3572-2.86580E+00 4.60852E+00 2.61945E+01
 -1      3573 7.42913E-01 4.61381E+00 2.61453E+01
 -1      3574-3.26358E+00 6.81340E+00 3.87459E+01
 -1      3575-3.04889E-01 6.81991E+00 3.87141E+01
 -1      3576 3.08324E-01 6.81958E+00 3.87120E+01
 -1      3577 2.88658E+00 4.60728E+00 2.61859E+01
 -1      3578-9.94891E-01 9.76101E+00 5.55304E+01
 -1      3579-3.38793E+00 9.45772E+00 5.39002E+01
 -1      3580 8.52472E-01 1.02415E+01 5.81209E+01
 -1      3581-7.77519E+00 9.74018E+00 5.56483E+01
 -1      3582-4.89037E+00 1.02319E+01 5.81539E+01
 -1      3583 3.26710E+00 6.81392E+00 3.87479E+01
 -1      3584 2.53214E-01-4.21683E-02 1.30571E-01
 -1      3585 1.94470E-01-2.97628E-02 1.05261E-01
 -1      3586 9.34928E+00 3.52009E+01 1.99931E+02
 -1      3587 9.36365E+00 3.60238E+01 2.04599E+02
 -1      3588 3.29751E+00 3.51409E+01 1.99580E+02
 -1      3589 7.82598E+00 3.51406E+01 1.99582E+02
 -1      3590-2.49697E+00 2.25447E+01 1.28059E+02
 -1      3591-2.58759E+00 2.34834E+01 1.33360E+02
 -1      3592-3.56826E+00 2.26937E+01 1.28864E+02
 -1      3593-9.24310E+00 2.88854E+01 1.64157E+02
 -1      3594-5.97899E+00 3.85812E+01 2.19114E+02
 -1      3595-6.47478E+00 3.83394E+01 2.17742E+02
 -1      3596-4.93205E-01 3.54910E+01 2.01562E+02
 -1      3597-1.15548E+01 3.85807E+01 2.19115E+02
 -1      3598-6.72920E+00 3.83175E+01 2.17618E+02
 -1      3599 4.60444E-01 1.56615E+00 8.92255E+00
 -1      3600 8.69033E-01 1.62420E+00 9.13524E+00
 -1      3601 7.62680E-01 1.23357E+00 6.91265E+00
 -1      3602-3.17961E+00 9.91682E-01 4.08216E+00
 -1      3603 6.67536E-01 3.25077E+01 1.84622E+02
 -1      3604 4.18536E-01 1.24561E+00 7.10376E+00
 -1      3605-4.00787E+00 1.70236E+01 9.65223E+01
 -1      3606-1.19912E+00 1.74286E+01 9.89578E+01
 -1      3607 4.05490E-01 1.79414E+01 1.01910E+02
 -1      3608-4.20262E+00 1.81083E+01 1.02691E+02
 -1      3609-1.35068E+00 1.85208E+01 1.05160E+02
 -1      3610-5.77968E+00 1.75798E+01 9.97408E+01
 -1      3611 1.30812E+00 3.17208E+01 1.80152E+02
 -1      3612 2.44725E+00 3.18296E+01 1.80766E+02
 -1      3613 2.44265E+00 3.06883E+01 1.74282E+02
 -1      3614-3.83259E+00 3.18293E+01 1.80766E+02
 -1      3615-3.82511E+00 3.06879E+01 1.74284E+02
 -1      3616-1.18745E+00 1.22951E+00 6.92868E+00
 -1      3617 2.58761E+00 2.34835E+01 1.33360E+02
 -1      3618 3.56976E+00 2.27523E+01 1.29196E+02
 -1      3619-1.19960E+01 1.68688E+01 9.53368E+01
 -1      3620-1.21226E+01 1.75810E+01 9.94108E+01
 -1      3621-1.02069E+01 1.66644E+01 9.44418E+01
 -1      3622-7.40889E+00 1.74040E+01 9.85767E+01
 -1      3623-7.33026E+00 1.66908E+01 9.45091E+01
 -1      3624-1.42435E+00 9.50510E+00 5.40155E+01
 -1      3625-2.00667E+00 1.00850E+01 5.73355E+01
 -1      3626 3.76267E-02-2.63741E-02-1.66999E-02
 -1      3627 1.13054E-01-2.39950E-02 6.54429E-02
 -1      3628-4.85909E+00 1.94937E+00 9.67391E+00
 -1      3629-4.46134E+00 1.67561E+00 8.07694E+00
 -1      3630-3.05307E+00 1.90306E+00 9.96722E+00
 -1      3631-3.87042E+00 1.59178E+00 8.43777E+00
 -1      3632-4.20687E+00 1.87418E+00 1.00607E+01
 -1      3633 1.32294E+00 3.07860E+01 1.74844E+02
 -1      3634-1.35413E+00 1.62119E+00 9.15297E+00
 -1      3635-2.15178E+00 2.36626E+01 1.34400E+02
 -1      3636-1.78479E+00 3.85813E+01 2.19114E+02
 -1      3637-3.79472E+00 3.83176E+01 2.17618E+02
 -1      3638 2.37519E+00 9.37915E+00 5.32201E+01
 -1      3639-9.74142E-01 1.65822E+01 9.41539E+01
 -1      3640-2.37780E+00 9.37939E+00 5.32220E+01
 -1      3641-4.03727E+00 1.41513E+00 6.56122E+00
 -1      3642-2.79857E+00 1.61017E+00 8.27841E+00
 -1      3643-3.36440E+00 1.22212E+00 6.31423E+00
 -1      3644-2.43149E+00 1.24191E+00 6.15449E+00
 -1      3645 2.25096E+00 1.80511E+01 1.02491E+02
 -1      3646 1.19481E+00 1.70960E+01 9.71014E+01
 -1      3647 2.21785E+00 1.70043E+01 9.65428E+01
 -1      3648 1.26664E+00-4.93471E-02 1.30170E+00
 -1      3649 1.62368E+00 2.41708E-01 2.33200E+00
 -1      3650 1.16351E-01 3.15900E-02 8.17391E-02
 -1      3651-9.32185E+00 3.36144E+01 1.90940E+02
 -1      3652-9.59536E+00 3.43480E+01 1.95088E+02
 -1      3653-9.37923E+00 3.31378E+01 1.88226E+02
 -1      3654-1.22480E+01 1.83404E+01 1.03751E+02
 -1      3655-1.03218E+01 1.74168E+01 9.87280E+01
 -1      3656-7.65207E+00 1.84918E+01 1.04774E+02
 -1      3657-1.06077E+01 1.85055E+01 1.04924E+02
 -1      3658-9.39299E+00 3.51771E+01 1.99801E+02
 -1      3659-9.27863E+00 3.60077E+01 2.04512E+02
 -1      3660-5.12017E+00 3.51291E+01 1.99516E+02
 -1      3661-9.58659E+00 3.51287E+01 1.99518E+02
 -1      3662-1.39498E-01 4.22329E-01 2.35006E+00
 -1      3663 2.42235E-01 4.98239E-02 1.19707E-01
 -1      3664 6.49428E-01 1.18283E-01 3.96898E-01
 -1      3665 6.11845E-01 1.70874E+01 9.70690E+01
 -1      3666-9.28368E-01 4.11435E-01 2.40707E+00
 -1      3667-1.02501E+01 3.54902E+01 2.01566E+02
 -1      3668-6.87935E+00 3.55232E+01 2.01748E+02
 -1      3669 1.60549E+00 8.05861E-02 2.05860E+00
 -1      3670 8.06260E-01 2.69595E-01 2.20183E+00
 -1      3671-1.28132E+00-4.89415E-02 1.31128E+00
 -1      3672-8.26882E-01 2.67202E-01 2.20024E+00
 -1      3673 9.95607E-01 1.79484E+01 1.01940E+02
 -1      3674-8.65893E+00 1.84895E+01 1.05267E+02
 -1      3675-9.22807E+00 1.81449E+01 1.03212E+02
 -1      3676-9.29274E+00 1.69032E+01 9.62020E+01
 -1      3677-1.61122E+00 8.04888E-02 2.06702E+00
 -1      3678-1.64440E+00 2.42368E-01 2.34627E+00
 -1      3679 9.27926E+00 3.04595E+01 1.73064E+02
 -1      3680 9.29328E+00 3.12476E+01 1.77527E+02
 -1      3681 4.38342E+00 3.21110E+01 1.82387E+02
 -1      3682 8.91491E+00 3.13224E+01 1.77924E+02
 -1      3683 4.37789E+00 3.13233E+01 1.77918E+02
 -1      3684 9.30518E+00 3.20364E+01 1.81995E+02
 -1      3685 8.92590E+00 3.21102E+01 1.82392E+02
 -1      3686 8.91574E+00 3.03868E+01 1.72619E+02
 -1      3687 4.38645E+00 3.03879E+01 1.72612E+02
 -1      3688 5.85134E-01 1.75207E+01 9.94856E+01
 -1      3689-1.02055E+00 1.81555E+01 1.03151E+02
 -1      3690 6.40286E-01 3.12584E+01 1.77522E+02
 -1      3691-1.10549E+00 3.05538E+01 1.73531E+02
 -1      3692-8.25811E+00 3.12568E+01 1.77529E+02
 -1      3693-9.99625E+00 3.05515E+01 1.73543E+02
 -1      3694-2.75068E+00 1.38121E+00 8.06644E+00
 -1      3695-3.07391E+00 1.09385E+00 6.78294E+00
 -1      3696 2.12742E-01 1.40588E+00 7.92049E+00
 -1      3697-3.41867E-01 1.13011E+00 6.56704E+00
 -1      3698 8.40694E+00 3.71516E+01 2.10990E+02
 -1      3699 1.16354E+01 3.71479E+01 2.10969E+02
 -1      3700 1.32755E+01 3.68451E+01 2.09245E+02
 -1      3701 7.77488E+00 3.60013E+01 2.04454E+02
 -1      3702 1.10024E+01 3.59975E+01 2.04434E+02
 -1      3703 2.82581E+00 8.83366E-01 6.49007E+00
 -1      3704 2.99900E+00 1.29651E+00 8.18057E+00
 -1      3705 1.47678E+00 1.31796E+00 8.05088E+00
 -1      3706 1.32040E+00 1.00791E+00 6.31146E+00
 -1      3707 2.67831E+00 9.85700E-01 6.44375E+00
 -1      3708 3.10832E+00 1.14740E+00 7.95309E+00
 -1      3709 1.60517E+00 1.60460E+00 9.66236E+00
 -1      3710 3.38916E+00 1.43569E+00 9.55000E+00
 -1      3711 3.26691E+00 1.58342E+00 9.78725E+00
 -1      3712-5.95613E+00 2.90192E+00 1.51955E+01
 -1      3713-5.18063E+00 3.13325E+00 1.73271E+01
 -1      3714-6.31262E+00 3.26495E+00 1.72942E+01
 -1      3715-3.66356E+00 3.15279E+00 1.72180E+01
 -1      3716-9.22042E+00 2.81008E+01 1.59716E+02
 -1      3717-4.20204E+00 2.73326E+01 1.55282E+02
 -1      3718-9.19502E+00 2.73177E+01 1.55286E+02
 -1      3719-8.69156E+00 2.73302E+01 1.55295E+02
 -1      3720 9.22036E+00 2.81016E+01 1.59717E+02
 -1      3721 4.20213E+00 2.73329E+01 1.55283E+02
 -1      3722-9.16536E+00 2.65365E+01 1.50868E+02
 -1      3723 9.19487E+00 2.73185E+01 1.55287E+02
 -1      3724 8.69170E+00 2.73310E+01 1.55295E+02
 -1      3725 9.16569E+00 2.65373E+01 1.50869E+02
 -1      3726-1.25443E+01 2.05184E+01 1.16201E+02
 -1      3727-1.03711E+01 2.12304E+01 1.20461E+02
 -1      3728-1.26337E+01 2.12625E+01 1.20453E+02
 -1      3729-7.34285E+00 2.12353E+01 1.20434E+02
 -1      3730 1.25441E+01 2.05192E+01 1.16200E+02
 -1      3731 7.34276E+00 2.12356E+01 1.20433E+02
 -1      3732 1.26341E+01 2.12633E+01 1.20452E+02
 -1      3733 1.03714E+01 2.12312E+01 1.20460E+02
 -1      3734-6.65840E+00 3.64869E+00 1.95103E+01
 -1      3735-8.80582E+00 6.86864E+00 3.80409E+01
 -1      3736-9.07362E+00 7.39720E+00 4.10789E+01
 -1      3737-7.22765E+00 6.76651E+00 3.80661E+01
 -1      3738-5.11419E+00 6.78124E+00 3.79816E+01
 -1      3739-1.15618E+01 1.47974E+01 8.34915E+01
 -1      3740-6.62595E+00 1.40665E+01 7.95702E+01
 -1      3741-1.14040E+01 1.41184E+01 7.96049E+01
 -1      3742-9.36139E+00 1.40576E+01 7.96207E+01
 -1      3743 1.15639E+01 1.47979E+01 8.34910E+01
 -1      3744 6.62561E+00 1.40667E+01 7.95684E+01
 -1      3745-5.12886E+00 4.06086E+00 2.42089E+01
 -1      3746-2.44043E+00 4.63326E+00 2.67309E+01
 -1      3747-5.35149E+00 4.51677E+00 2.67603E+01
 -1      3748-5.05843E+00 4.61620E+00 2.68272E+01
 -1      3749 1.14037E+01 1.41189E+01 7.96046E+01
 -1      3750 9.36073E+00 1.40576E+01 7.96193E+01
 -1      3751 6.66093E+00 3.64985E+00 1.95093E+01
 -1      3752 3.66626E+00 3.15307E+00 1.72176E+01
 -1      3753 6.31465E+00 3.26605E+00 1.72933E+01
 -1      3754 5.18538E+00 3.13405E+00 1.73266E+01
 -1      3755 5.96409E+00 2.90327E+00 1.51948E+01
 -1      3756 1.12365E+01 1.34496E+01 7.57719E+01
 -1      3757-1.12361E+01 1.34491E+01 7.57725E+01
 -1      3758 9.07319E+00 7.39771E+00 4.10782E+01
 -1      3759 5.11960E+00 6.78175E+00 3.79811E+01
 -1      3760 5.34139E+00 4.51512E+00 2.67547E+01
 -1      3761 5.12036E+00 4.05935E+00 2.42031E+01
 -1      3762 5.06337E+00 4.61503E+00 2.68240E+01
 -1      3763 2.45487E+00 4.63326E+00 2.67329E+01
 -1      3764-6.76757E+00 8.18358E+00 4.73549E+01
 -1      3765-6.92666E+00 8.76794E+00 5.06421E+01
 -1      3766-3.20692E+00 8.85563E+00 5.06152E+01
 -1      3767-6.50147E+00 8.84283E+00 5.06865E+01
 -1      3768 8.80911E+00 6.86743E+00 3.80264E+01
 -1      3769 7.23634E+00 6.76492E+00 3.80523E+01
 -1      3770 7.04094E+00 9.37085E+00 5.40220E+01
 -1      3771 6.50808E+00 8.84632E+00 5.07036E+01
 -1      3772 6.72101E+00 8.18468E+00 4.73566E+01
 -1      3773 3.17098E+00 8.85724E+00 5.06186E+01
 -1      3774-3.42710E+00 1.70040E+01 9.65548E+01
 -1      3775-3.61318E+00 1.80901E+01 1.02721E+02
 -1      3776 6.89087E+00 8.77298E+00 5.06618E+01
 -1      3777-8.90862E+00 2.44103E+01 1.38763E+02
 -1      3778-4.48071E+00 2.44139E+01 1.38743E+02
 -1      3779-9.05575E+00 2.42082E+01 1.37704E+02
 -1      3780-9.21008E+00 2.32823E+01 1.32392E+02
 -1      3781-4.81275E+00 2.32866E+01 1.32368E+02
 -1      3782 7.36000E+00 1.06077E+01 6.09863E+01
 -1      3783 3.45482E+00 1.13160E+01 6.45338E+01
 -1      3784 9.32393E+00 3.44079E+01 1.95436E+02
 -1      3785 7.50319E+00 1.12448E+01 6.45696E+01
 -1      3786 7.07195E+00 1.13094E+01 6.46192E+01
 -1      3787-1.81326E+00 5.27307E-01 1.40168E+00
 -1      3788-1.94966E+00 5.14548E-01 2.28234E+00
 -1      3789 9.90933E-01 2.29902E-01 6.75992E-01
 -1      3790 7.17082E-01 2.62226E-01 5.31432E-01
 -1      3791 1.33584E+00 4.12272E-01 8.23433E-01
 -1      3792 1.50328E+00 3.64019E-01 1.46463E+00
 -1      3793 1.05995E+00 3.90399E-01 1.32632E+00
 -1      3794-8.37875E+00 8.85670E+00 4.99407E+01
 -1      3795-6.08927E+00 8.87026E+00 4.98615E+01
 -1      3796-9.88042E+00 9.07460E+00 5.07002E+01
 -1      3797-9.07890E+00 9.72664E+00 5.48579E+01
 -1      3798-6.71003E+00 9.74027E+00 5.47785E+01
 -1      3799 8.37892E+00 8.86042E+00 4.99585E+01
 -1      3800 6.04822E+00 8.87013E+00 4.98616E+01
 -1      3801 9.84459E+00 9.07876E+00 5.07220E+01
 -1      3802 9.07900E+00 9.73268E+00 5.48888E+01
 -1      3803 6.66739E+00 9.74238E+00 5.47912E+01
 -1      3804-9.40191E+00 3.43957E+01 1.95370E+02
 -1      3805 1.06113E+01 2.42647E+01 1.37723E+02
 -1      3806 7.51354E+00 2.42680E+01 1.37704E+02
 -1      3807 1.29264E+01 2.42874E+01 1.37717E+02
 -1      3808 1.16825E+01 2.52096E+01 1.43078E+02
 -1      3809 8.56652E+00 2.52126E+01 1.43059E+02
 -1      3810 6.24127E+00 2.51989E+01 1.43067E+02
 -1      3811-1.06113E+01 2.42640E+01 1.37724E+02
 -1      3812-7.51350E+00 2.42675E+01 1.37705E+02
 -1      3813-1.29263E+01 2.42866E+01 1.37718E+02
 -1      3814-1.16824E+01 2.52089E+01 1.43079E+02
 -1      3815-8.56649E+00 2.52122E+01 1.43060E+02
 -1      3816-6.24120E+00 2.51985E+01 1.43067E+02
 -1      3817 1.02460E+01 1.66829E+01 9.45463E+01
 -1      3818 4.11257E+00 1.80683E+01 1.02466E+02
 -1      3819 4.05188E+00 1.70229E+01 9.65163E+01
 -1      3820 7.45294E+00 1.74034E+01 9.85705E+01
 -1      3821 7.37376E+00 1.66903E+01 9.45033E+01
 -1      3822-2.29620E+00 6.62787E-01 2.15886E+00
 -1      3823-1.39375E+00 5.41118E-01 2.15125E+00
 -1      3824-2.99722E+00 5.19058E+00 2.99910E+01
 -1      3825-5.74639E+00 5.17208E+00 3.00944E+01
 -1      3826-2.69330E+00 5.24844E+00 3.00538E+01
 -1      3827-5.57505E+00 6.17377E+00 3.43818E+01
 -1      3828-7.60929E+00 6.15670E+00 3.44793E+01
 -1      3829-4.06067E+00 6.10144E+00 3.44192E+01
 -1      3830 4.47341E+00 3.18325E+01 1.80764E+02
 -1      3831 4.46479E+00 3.06918E+01 1.74280E+02
 -1      3832-1.07154E+01 3.18305E+01 1.80773E+02
 -1      3833-1.06944E+01 3.06896E+01 1.74292E+02
 -1      3834 4.20588E+00 1.87470E+00 1.00605E+01
 -1      3835 3.71403E+00 1.47067E+00 7.74380E+00
 -1      3836 1.58035E+00 1.68172E+00 9.05325E+00
 -1      3837 3.03052E+00 1.89681E+00 9.93195E+00
 -1      3838 1.38607E+00 1.29300E+00 6.82818E+00
 -1      3839-9.01084E+00 2.34384E+01 1.33351E+02
 -1      3840-8.96229E+00 2.26720E+01 1.29021E+02
 -1      3841-9.15908E+00 2.25182E+01 1.28068E+02
 -1      3842-4.78578E+00 2.25228E+01 1.28042E+02
 -1      3843-1.30362E+01 2.58218E+01 1.46476E+02
 -1      3844-1.29840E+01 2.50527E+01 1.42088E+02
 -1      3845-8.60029E+00 2.59832E+01 1.47453E+02
 -1      3846-1.17282E+01 2.59801E+01 1.47469E+02
 -1      3847 1.29840E+01 2.50535E+01 1.42087E+02
 -1      3848 1.17282E+01 2.59808E+01 1.47469E+02
 -1      3849 1.30362E+01 2.58225E+01 1.46475E+02
 -1      3850 8.60033E+00 2.59837E+01 1.47452E+02
 -1      3851-8.24190E+00 5.85945E+00 3.22411E+01
 -1      3852-8.52825E+00 6.35545E+00 3.50934E+01
 -1      3853-5.38407E+00 5.67941E+00 3.15483E+01
 -1      3854-7.34909E+00 5.66131E+00 3.16501E+01
 -1      3855-5.56606E+00 4.99042E+00 2.94167E+01
 -1      3856-5.77371E+00 5.48195E+00 3.21738E+01
 -1      3857-3.10779E+00 5.68297E+00 3.27718E+01
 -1      3858-5.95751E+00 5.66566E+00 3.28714E+01
 -1      3859 3.00344E+00 5.19040E+00 2.99896E+01
 -1      3860 5.74258E+00 5.17007E+00 3.00871E+01
 -1      3861 2.71425E+00 5.24837E+00 3.00539E+01
 -1      3862 5.57330E+00 6.17253E+00 3.43725E+01
 -1      3863 7.61013E+00 6.15397E+00 3.44569E+01
 -1      3864 4.06447E+00 6.10018E+00 3.44103E+01
 -1      3865 5.55628E+00 4.98815E+00 2.94071E+01
 -1      3866 5.95380E+00 5.66301E+00 3.28598E+01
 -1      3867 8.53111E+00 6.35433E+00 3.50793E+01
 -1      3868 5.38241E+00 5.67821E+00 3.15393E+01
 -1      3869 4.11753E+00 1.20974E+01 6.90254E+01
 -1      3870 7.81724E+00 1.20901E+01 6.91148E+01
 -1      3871 3.67973E+00 1.21351E+01 6.90714E+01
 -1      3872 7.74870E+00 1.25572E+01 7.19559E+01
 -1      3873 7.64985E+00 1.18932E+01 6.82193E+01
 -1      3874 7.95906E+00 1.27506E+01 7.28384E+01
 -1      3875 4.15571E+00 1.27610E+01 7.27774E+01
 -1      3876 5.76371E+00 5.47972E+00 3.21639E+01
 -1      3877 3.11412E+00 5.68279E+00 3.27702E+01
 -1      3878-3.46554E+00 1.13169E+01 6.45406E+01
 -1      3879-7.06591E+00 1.13061E+01 6.46014E+01
 -1      3880-7.52294E+00 1.12423E+01 6.45595E+01
 -1      3881-4.13707E+00 1.20978E+01 6.90312E+01
 -1      3882-7.82023E+00 1.20865E+01 6.90954E+01
 -1      3883-3.67331E+00 1.21346E+01 6.90698E+01
 -1      3884-1.01143E+01 9.66185E+00 5.40662E+01
 -1      3885-6.85884E+00 1.03452E+01 5.82378E+01
 -1      3886-3.80826E+00 1.64762E+00 9.25318E+00
 -1      3887-9.66529E+00 1.70126E+01 9.65857E+01
 -1      3888-9.94647E+00 1.80978E+01 1.02750E+02
 -1      3889-1.03341E+01 1.02601E+01 5.74985E+01
 -1      3890-9.27262E+00 1.03307E+01 5.83053E+01
 -1      3891 1.00628E+01 9.66453E+00 5.40803E+01
 -1      3892 6.80031E+00 1.03457E+01 5.82424E+01
 -1      3893-7.76913E+00 1.25558E+01 7.19532E+01
 -1      3894-7.63422E+00 1.18934E+01 6.82246E+01
 -1      3895-4.18122E+00 1.27602E+01 7.27748E+01
 -1      3896-7.95559E+00 1.27492E+01 7.28354E+01
 -1      3897 8.24277E+00 5.85777E+00 3.22254E+01
 -1      3898 7.34814E+00 5.65810E+00 3.16264E+01
 -1      3899-4.41643E-01 2.44321E+01 1.38753E+02
 -1      3900-3.90760E+00 2.46412E+01 1.39882E+02
 -1      3901-9.99833E+00 2.46362E+01 1.39909E+02
 -1      3902 3.90762E+00 2.46413E+01 1.39881E+02
 -1      3903 4.76614E+00 2.44308E+01 1.38760E+02
 -1      3904 9.99836E+00 2.46368E+01 1.39908E+02
 -1      3905-3.33753E+00 1.25737E+00 7.03176E+00
 -1      3906 8.47810E+00 1.74620E+01 9.96057E+01
 -1      3907 8.38519E+00 1.66999E+01 9.53072E+01
 -1      3908 8.04358E+00 1.66760E+01 9.49744E+01
 -1      3909 3.95741E+00 1.67028E+01 9.50433E+01
 -1      3910 8.13325E+00 1.74348E+01 9.92673E+01
 -1      3911-4.33479E+00 2.02509E+01 1.15154E+02
 -1      3912-4.49856E+00 1.92328E+01 1.09399E+02
 -1      3913 3.64673E+00 1.80268E+00 1.06834E+01
 -1      3914 1.84688E+00 2.03398E+00 1.18815E+01
 -1      3915-4.01399E+00 1.48168E+01 8.43795E+01
 -1      3916-4.50562E+00 1.58188E+01 9.00912E+01
 -1      3917 4.07770E+00 1.15270E+01 6.54768E+01
 -1      3918 7.67899E+00 1.16640E+01 6.64536E+01
 -1      3919-8.62032E+00 2.02452E+01 1.15185E+02
 -1      3920-8.73930E+00 1.92265E+01 1.09435E+02
 -1      3921-4.06820E+00 1.15249E+01 6.54660E+01
 -1      3922-7.66886E+00 1.16621E+01 6.64456E+01
 -1      3923-7.98298E+00 1.48079E+01 8.44294E+01
 -1      3924-8.54962E+00 1.58095E+01 9.01408E+01
 -1      3925 1.02804E+01 1.02645E+01 5.75236E+01
 -1      3926 9.27162E+00 1.03386E+01 5.83474E+01
 -1      3927-1.03501E+00 1.15291E+01 6.54416E+01
 -1      3928 4.31783E-01 1.16784E+01 6.63558E+01
 -1      3929 2.49766E-01 1.83502E+00 1.04993E+01
 -1      3930 8.66419E+00 1.86603E+01 1.06103E+02
 -1      3931 4.07573E+00 1.91945E+01 1.09098E+02
 -1      3932 1.04466E+00 1.15311E+01 6.54520E+01
 -1      3933-4.47044E-01 1.16782E+01 6.63552E+01
 -1      3934 1.82448E+00 5.27603E-01 1.41464E+00
 -1      3935 1.34794E+00 5.25926E-01 2.09517E+00
 -1      3936 1.33381E+01 3.60241E+01 2.04578E+02
 -1      3937 7.83731E+00 3.51801E+01 1.99786E+02
 -1      3938 2.30304E+00 6.66758E-01 2.17299E+00
 -1      3939 1.90617E+00 5.03691E-01 2.23356E+00
 -1      3940-9.77653E-01 4.32751E-01 3.12353E+00
 -1      3941-1.24476E+00 6.93963E-01 4.63848E+00
 -1      3942 1.33546E+01 3.51957E+01 1.99867E+02
 -1      3943 1.10195E+01 3.51685E+01 1.99723E+02
 -1      3944 7.77674E-01 5.49870E+00 3.13502E+01
 -1      3945 3.27519E-01 4.92748E+00 2.80347E+01
 -1      3946-1.07156E+00 5.09036E+00 2.88257E+01
 -1      3947-3.04272E+00 5.38303E+00 3.01297E+01
 -1      3948-6.81101E-01 5.67593E+00 3.21767E+01
 -1      3949 1.31938E+01 2.89248E+01 1.64164E+02
 -1      3950-1.31937E+01 2.89240E+01 1.64164E+02
 -1      3951 8.05656E-01 5.99778E+00 3.41802E+01
 -1      3952-4.18909E-02 6.28525E+00 3.56928E+01
 -1      3953-2.61232E+00 6.47385E+00 3.64647E+01
 -1      3954-3.15427E+00 5.87075E+00 3.29154E+01
 -1      3955 3.15284E+00 5.86938E+00 3.29062E+01
 -1      3956 2.61775E+00 6.47407E+00 3.64643E+01
 -1      3957 5.38332E-02 6.28576E+00 3.56948E+01
 -1      3958-7.99188E-01 5.99817E+00 3.41818E+01
 -1      3959 6.86245E-01 5.67489E+00 3.21699E+01
 -1      3960-5.54515E+00 4.90208E+00 2.81757E+01
 -1      3961-3.30490E+00 5.08237E+00 2.88686E+01
 -1      3962-6.82194E+00 5.35468E+00 3.02892E+01
 -1      3963-6.25576E+00 5.47126E+00 3.15091E+01
 -1      3964-3.90864E+00 5.66582E+00 3.22376E+01
 -1      3965-7.07192E+00 5.84360E+00 3.30693E+01
 -1      3966-6.68938E+00 6.45102E+00 3.65936E+01
 -1      3967-6.47753E+00 5.97126E+00 3.43338E+01
 -1      3968-3.40596E+00 6.27848E+00 3.57353E+01
 -1      3969 3.04133E+00 5.38170E+00 3.01208E+01
 -1      3970 1.08496E+00 5.08890E+00 2.88157E+01
 -1      3971-3.13020E-01 4.92751E+00 2.80326E+01
 -1      3972-7.71409E-01 5.49910E+00 3.13517E+01
 -1      3973-1.95098E+00 4.06847E-01 3.26004E+00
 -1      3974-2.42631E+00 6.67135E-01 4.77575E+00
 -1      3975 6.69051E+00 6.44891E+00 3.65823E+01
 -1      3976 3.41784E+00 6.27830E+00 3.57332E+01
 -1      3977 6.47959E+00 5.96899E+00 3.43206E+01
 -1      3978 7.06574E+00 5.84013E+00 3.30497E+01
 -1      3979 3.91333E+00 5.66429E+00 3.22269E+01
 -1      3980-1.22348E+00 1.69165E+01 9.61310E+01
 -1      3981-1.10782E+00 3.19595E+01 1.81512E+02
 -1      3982-1.00202E+01 3.19578E+01 1.81521E+02
 -1      3983-5.58789E+00 3.25317E+01 1.84761E+02
 -1      3984 6.25531E+00 5.46593E+00 3.14793E+01
 -1      3985 5.55352E+00 4.89763E+00 2.81510E+01
 -1      3986 6.81334E+00 5.34823E+00 3.02536E+01
 -1      3987 3.31816E+00 5.08155E+00 2.88621E+01
 -1      3988 1.33274E+01 3.44056E+01 1.95371E+02
 -1      3989 2.74900E+00 8.17575E-01 3.05330E+00
 -1      3990 9.31435E+00 3.28257E+01 1.86467E+02
 -1      3991-4.00331E-01 1.61219E+00 9.29792E+00
 -1      3992 3.65752E+00 1.74687E+00 1.12790E+01
 -1      3993 1.72976E+00 1.91381E+00 1.14037E+01
 -1      3994 3.91487E+00 2.07555E+00 1.31164E+01
 -1      3995 3.51918E+00 1.88931E+00 1.15079E+01
 -1      3996 9.26269E+00 2.96722E+01 1.68607E+02
 -1      3997 4.09454E-01 1.86706E+01 1.06050E+02
 -1      3998-3.33339E+00 3.55233E+01 2.01746E+02
 -1      3999-3.61361E+00 1.57752E+00 9.50490E+00
 -1      4000 8.72075E+00 1.96509E+01 1.11957E+02
 -1      4001 3.86585E+00 1.90161E+01 1.08139E+02
 -1      4002 8.09329E+00 1.90097E+01 1.08173E+02
 -1      4003 8.93989E+00 1.98424E+01 1.12925E+02
 -1      4004 4.67033E+00 1.98484E+01 1.12891E+02
 -1      4005 2.52979E+00 6.42034E-01 5.16027E+00
 -1      4006 7.88041E-01 2.01060E+00 1.14827E+01
 -1      4007 1.39079E-01 2.08651E-02 9.79759E-02
 -1      4008 9.83707E+00 2.25053E+01 1.27924E+02
 -1      4009 4.67383E+00 2.23107E+01 1.26783E+02
 -1      4010 9.36610E+00 2.17499E+01 1.23625E+02
 -1      4011 1.08410E+01 2.23786E+01 1.27061E+02
 -1      4012 5.68300E+00 2.21715E+01 1.25925E+02
 -1      4013 6.13025E+00 2.29297E+01 1.30239E+02
 -1      4014-8.65150E+00 3.71910E+01 2.11216E+02
 -1      4015-9.24736E+00 3.64036E+01 2.06742E+02
 -1      4016-2.61232E+00 2.50189E+01 1.42082E+02
 -1      4017 2.61238E+00 2.50191E+01 1.42081E+02
 -1      4018 1.65339E+00 1.90421E+01 1.08162E+02
 -1      4019-1.53448E+00 1.20117E+01 6.82460E+01
 -1      4020 1.53935E+00 1.20118E+01 6.82461E+01
 -1      4021 8.63848E+00 1.89285E+01 1.07880E+02
 -1      4022 8.01191E+00 1.82947E+01 1.04129E+02
 -1      4023 2.13024E+00 2.26933E+00 1.35214E+01
 -1      4024 4.06720E+00 2.24321E+00 1.36312E+01
 -1      4025 8.44534E-01 2.17567E+01 1.23584E+02
 -1      4026 1.26169E+00 2.25121E+01 1.27884E+02
 -1      4027-4.83820E+00 2.23272E+01 1.26690E+02
 -1      4028-1.02018E+00 2.28737E+01 1.29892E+02
 -1      4029-1.42526E+00 2.21157E+01 1.25581E+02
 -1      4030 8.56060E+00 1.81919E+01 1.03724E+02
 -1      4031 3.83121E+00 1.82821E+01 1.03980E+02
 -1      4032-1.07269E+01 3.26173E+01 1.85243E+02
 -1      4033 8.29121E+00 1.59847E+01 9.12744E+01
 -1      4034-2.74575E+00 8.15317E-01 3.04692E+00
 -1      4035 1.26886E+00 2.32744E+01 1.32210E+02
 -1      4036-2.34552E-02 2.36642E+01 1.34396E+02
 -1      4037-3.88920E+00 2.38742E+01 1.35519E+02
 -1      4038-4.86600E+00 2.30859E+01 1.31009E+02
 -1      4039 1.62760E+00 5.76760E+00 3.28364E+01
 -1      4040 1.13203E+00 5.17787E+00 2.94505E+01
 -1      4041-2.27967E+00 5.57513E+00 3.15821E+01
 -1      4042 2.27585E+00 5.57378E+00 3.15734E+01
 -1      4043 1.71784E+00 6.18097E+00 3.50627E+01
 -1      4044-1.62381E+00 5.76782E+00 3.28383E+01
 -1      4045-1.71506E+00 6.18085E+00 3.50628E+01
 -1      4046-1.11971E+00 5.17754E+00 2.94487E+01
 -1      4047 7.27079E-02 2.17904E+01 1.23753E+02
 -1      4048-1.20837E+00 2.21596E+01 1.25883E+02
 -1      4049 3.82279E+00 2.15965E+01 1.22561E+02
 -1      4050 6.10737E+00 2.20021E+01 1.24890E+02
 -1      4051 4.84038E+00 2.23856E+01 1.27020E+02
 -1      4052 1.19925E+01 1.68881E+01 9.54468E+01
 -1      4053-8.56575E+00 1.81712E+01 1.03611E+02
 -1      4054-8.84984E+00 1.05928E+01 6.00773E+01
 -1      4055-4.41748E+00 1.08826E+01 6.18081E+01
 -1      4056-7.52546E+00 1.10218E+01 6.28204E+01
 -1      4057-7.94311E+00 1.03589E+01 5.91474E+01
 -1      4058-3.52502E+00 1.06860E+01 6.08600E+01
 -1      4059 1.44607E+00 1.08898E+01 6.17892E+01
 -1      4060 3.92155E+00 1.06145E+01 5.99760E+01
 -1      4061-4.53416E-01 1.10387E+01 6.27259E+01
 -1      4062-1.00943E+00 1.03790E+01 5.90343E+01
 -1      4063 4.83471E+00 1.94357E+00 9.63941E+00
 -1      4064 9.89213E+00 2.32681E+01 1.32247E+02
 -1      4065 1.09027E+01 2.31383E+01 1.31378E+02
 -1      4066 9.95160E+00 2.38693E+01 1.35549E+02
 -1      4067 5.15909E+00 2.36627E+01 1.34405E+02
 -1      4068 4.66008E+00 2.13861E+01 1.21471E+02
 -1      4069 9.78241E+00 2.15899E+01 1.22601E+02
 -1      4070 3.79413E+00 1.75546E+01 9.98588E+01
 -1      4071-9.76010E+00 2.21521E+01 1.25925E+02
 -1      4072-5.03700E+00 2.17881E+01 1.23765E+02
 -1      4073-9.78237E+00 2.15892E+01 1.22601E+02
 -1      4074-1.08359E+01 2.23197E+01 1.26731E+02
 -1      4075-6.10442E+00 2.19438E+01 1.24560E+02
 -1      4076-1.15599E+01 2.34750E+01 1.33209E+02
 -1      4077-8.47615E+00 2.34792E+01 1.33186E+02
 -1      4078-1.21844E+01 2.31113E+01 1.31033E+02
 -1      4079 8.38329E+00 2.20224E+01 1.24879E+02
 -1      4080 1.14338E+01 2.20176E+01 1.24907E+02
 -1      4081 1.21204E+01 2.24133E+01 1.27046E+02
 -1      4082-8.20090E+00 3.30142E+01 1.87474E+02
 -1      4083-8.77501E+00 3.40069E+01 1.93117E+02
 -1      4084-1.13865E+01 3.30134E+01 1.87478E+02
 -1      4085-1.19637E+01 3.40062E+01 1.93120E+02
 -1      4086-8.42980E+00 2.27195E+01 1.28856E+02
 -1      4087-1.14967E+01 2.27148E+01 1.28882E+02
 -1      4088 8.43352E+00 2.27781E+01 1.29187E+02
 -1      4089 1.15018E+01 2.27738E+01 1.29212E+02
 -1      4090 1.11766E+01 1.88350E+01 1.06647E+02
 -1      4091 1.20036E+01 2.99163E+01 1.69829E+02
 -1      4092-1.20035E+01 2.99157E+01 1.69830E+02
 -1      4093 1.07923E+01 1.63598E+01 9.25126E+01
 -1      4094 1.20612E+01 3.26237E+01 1.85240E+02
 -1      4095-1.33062E+01 3.36262E+01 1.90943E+02
 -1      4096-1.20610E+01 3.26230E+01 1.85241E+02
 -1      4097 4.63169E+00 2.11301E+00 1.08721E+01
 -1      4098-3.96959E+00 1.06452E+01 6.08171E+01
 -1      4099-7.50306E+00 1.06326E+01 6.08877E+01
 -1      4100-6.90273E+00 1.02843E+01 5.90890E+01
 -1      4101-2.61312E+00 4.89511E+00 2.74082E+01
 -1      4102-4.03358E+00 5.01933E+00 2.82151E+01
 -1      4103-3.90716E+00 1.00227E+01 5.72996E+01
 -1      4104-7.34792E+00 1.00097E+01 5.73731E+01
 -1      4105-4.63251E+00 2.11241E+00 1.08727E+01
 -1      4106 3.37438E+00 1.20357E+00 5.60297E+00
 -1      4107 4.09678E-01 2.90586E+00 1.66000E+01
 -1      4108 2.22126E+00 2.77553E+00 1.61032E+01
 -1      4109 9.30361E+00 2.09961E+01 1.19353E+02
 -1      4110 4.56292E+00 2.07903E+01 1.18158E+02
 -1      4111-4.44504E+00 2.71482E+01 1.54131E+02
 -1      4112-6.78175E+00 2.69335E+01 1.52924E+02
 -1      4113-1.06110E+01 2.71442E+01 1.54151E+02
 -1      4114 4.44509E+00 2.71483E+01 1.54130E+02
 -1      4115 6.78180E+00 2.69339E+01 1.52924E+02
 -1      4116 1.06110E+01 2.71449E+01 1.54151E+02
 -1      4117-8.41778E-01 2.13948E+01 1.21530E+02
 -1      4118-4.59654E+00 2.15960E+01 1.22729E+02
 -1      4119 8.38780E-01 2.10036E+01 1.19309E+02
 -1      4120-4.31890E-01 2.13878E+01 1.21461E+02
 -1      4121-9.33668E+00 2.13872E+01 1.21573E+02
 -1      4122-5.78542E-01 6.52939E+00 3.71574E+01
 -1      4123-3.13686E+00 6.36432E+00 3.64106E+01
 -1      4124 5.76471E-01 6.52989E+00 3.71598E+01
 -1      4125 3.14139E+00 6.36449E+00 3.64106E+01
 -1      4126 2.55392E+00 2.28981E+01 1.30065E+02
 -1      4127 2.12768E+00 2.21397E+01 1.25753E+02
 -1      4128 2.62005E+00 4.89362E+00 2.73973E+01
 -1      4129 4.03884E+00 5.01646E+00 2.81963E+01
 -1      4130-6.24549E+00 4.86775E+00 2.75621E+01
 -1      4131-6.44479E+00 6.50507E+00 3.72946E+01
 -1      4132 8.59097E-01 2.40423E+01 1.36559E+02
 -1      4133 4.72512E+00 2.38374E+01 1.35441E+02
 -1      4134 9.52407E+00 2.40370E+01 1.36590E+02
 -1      4135 8.38178E+00 1.38066E+01 7.86203E+01
 -1      4136 4.10052E+00 1.36217E+01 7.75207E+01
 -1      4137-8.38166E+00 1.38062E+01 7.86202E+01
 -1      4138-4.10169E+00 1.36213E+01 7.75192E+01
 -1      4139 1.64796E+00 2.47526E-01 2.69918E+00
 -1      4140 7.54515E-01 1.38209E+01 7.85380E+01
 -1      4141-7.54513E-01 1.38208E+01 7.85376E+01
 -1      4142-2.22478E+00 4.29745E-01 3.98553E+00
 -1      4143-1.66703E+00 2.46090E-01 2.70128E+00
 -1      4144 4.58839E+00 2.87469E+00 1.67761E+01
 -1      4145-8.76533E+00 8.62341E+00 4.82662E+01
 -1      4146 1.19614E+01 2.79395E+01 1.58570E+02
 -1      4147-1.19613E+01 2.79389E+01 1.58570E+02
 -1      4148 8.26313E+00 2.47871E+01 1.40937E+02
 -1      4149 8.96223E+00 2.26726E+01 1.29022E+02
 -1      4150 8.08826E+00 2.17214E+01 1.23599E+02
 -1      4151 4.40926E+00 2.21189E+01 1.25736E+02
 -1      4152 8.76725E+00 2.21146E+01 1.25762E+02
 -1      4153-8.26307E+00 2.47864E+01 1.40937E+02
 -1      4154-8.72065E+00 1.96503E+01 1.11956E+02
 -1      4155-8.00702E+00 2.06040E+01 1.17285E+02
 -1      4156-4.18421E+00 3.14078E+00 1.88507E+01
 -1      4157 7.33991E+00 1.44354E+01 8.24426E+01
 -1      4158-6.73229E+00 4.55448E+00 2.49293E+01
 -1      4159-5.73595E+00 6.94493E+00 4.02240E+01
 -1      4160-8.59423E+00 1.12248E+01 6.36971E+01
 -1      4161-5.46564E+00 1.10669E+01 6.26588E+01
 -1      4162-8.20325E+00 1.52967E+01 8.73956E+01
 -1      4163-7.33980E+00 1.44350E+01 8.24421E+01
 -1      4164-7.24668E+00 9.97873E+00 5.74524E+01
 -1      4165 6.43848E+00 6.50340E+00 3.72850E+01
 -1      4166 8.76274E+00 8.62346E+00 4.82638E+01
 -1      4167-3.62468E+00 1.12432E+01 6.35975E+01
 -1      4168 3.57502E+00 1.12445E+01 6.36073E+01
 -1      4169 5.46471E+00 1.10711E+01 6.26800E+01
 -1      4170-3.37396E+00 1.20268E+00 5.60099E+00
 -1      4171 6.24533E+00 4.86119E+00 2.75256E+01
 -1      4172 8.59772E+00 1.12358E+01 6.37573E+01
 -1      4173 5.73392E+00 6.94575E+00 4.02263E+01
 -1      4174 4.18339E+00 3.14141E+00 1.88520E+01
 -1      4175 9.84526E+00 1.19533E+01 6.73216E+01
 -1      4176 6.73823E+00 4.55344E+00 2.49189E+01
 -1      4177-9.84268E+00 1.19509E+01 6.73112E+01
 -1      4178 8.12558E+00 2.75442E+01 1.56347E+02
 -1      4179 1.12731E+01 2.75421E+01 1.56360E+02
 -1      4180-1.12731E+01 2.75414E+01 1.56361E+02
 -1      4181 4.38097E+00 2.13621E+01 1.21448E+02
 -1      4182-8.12554E+00 2.75438E+01 1.56348E+02
 -1      4183 8.71141E+00 2.13574E+01 1.21476E+02
 -1      4184 8.90861E+00 2.44110E+01 1.38763E+02
 -1      4185 4.48076E+00 2.44143E+01 1.38744E+02
 -1      4186-4.36648E+00 2.10005E+01 1.19401E+02
 -1      4187-8.68297E+00 2.09953E+01 1.19430E+02
 -1      4188 3.95948E+00 1.41277E+01 8.04779E+01
 -1      4189 7.87740E+00 1.41186E+01 8.05304E+01
 -1      4190-4.67329E+00 4.72266E+00 2.61426E+01
 -1      4191-6.49043E+00 4.70452E+00 2.62450E+01
 -1      4192-6.10763E+00 6.72139E+00 3.87578E+01
 -1      4193-3.06711E+00 6.73700E+00 3.86695E+01
 -1      4194-3.95954E+00 1.41275E+01 8.04775E+01
 -1      4195 2.20830E+00 3.02366E+00 1.76986E+01
 -1      4196 3.06505E+00 6.73766E+00 3.86718E+01
 -1      4197-7.87724E+00 1.41182E+01 8.05302E+01
 -1      4198 9.21317E+00 1.15898E+01 6.55229E+01
 -1      4199-1.27928E+01 2.27660E+01 1.29038E+02
 -1      4200 1.27929E+01 2.27668E+01 1.29037E+02
 -1      4201-3.82278E+00 2.15964E+01 1.22562E+02
 -1      4202-6.68000E+00 1.15965E+01 6.54346E+01
 -1      4203 4.67972E+00 4.72137E+00 2.61320E+01
 -1      4204 6.09800E+00 6.71971E+00 3.87495E+01
 -1      4205 6.49898E+00 4.70378E+00 2.62345E+01
 -1      4206 4.39613E+00 3.00077E+00 1.78014E+01
 -1      4207-9.21123E+00 1.15837E+01 6.54904E+01
 -1      4208 6.66415E+00 1.15972E+01 6.54372E+01
 -1      4209 1.41449E-02 4.71820E+00 2.67962E+01
 -1      4210 1.88090E+00 5.08158E+00 2.87963E+01
 -1      4211 2.72224E-03 3.03808E+00 1.72538E+01
 -1      4212-7.25298E-06 2.73433E+01 1.55291E+02
 -1      4213-3.12266E+00 2.67531E+01 1.51931E+02
 -1      4214 3.12269E+00 2.67533E+01 1.51931E+02
 -1      4215-7.14883E-05 2.12074E+01 1.20442E+02
 -1      4216 2.55804E+00 2.19632E+01 1.24723E+02
 -1      4217-2.55810E+00 2.19632E+01 1.24723E+02
 -1      4218-2.12125E+00 2.17768E+01 1.23694E+02
 -1      4219 2.09909E+00 2.06345E+01 1.17206E+02
 -1      4220-8.36836E-06 2.42478E+01 1.37710E+02
 -1      4221 2.15175E+00 2.36628E+01 1.34400E+02
 -1      4222 1.00624E+00 2.74233E+00 1.56452E+01
 -1      4223-1.87614E+00 5.08326E+00 2.88071E+01
 -1      4224-5.89027E-04 1.40134E+01 7.95859E+01
 -1      4225 1.88145E+00 1.34934E+01 7.66655E+01
 -1      4226-1.88426E+00 1.34932E+01 7.66654E+01
 -1      4227 1.31248E+01 2.73691E+01 1.55295E+02
 -1      4228 8.85092E+00 2.11521E+01 1.20433E+02
 -1      4229-1.31248E+01 2.73683E+01 1.55296E+02
 -1      4230 9.05584E+00 2.42091E+01 1.37704E+02
 -1      4231-8.85090E+00 2.11515E+01 1.20432E+02
 -1      4232-1.18618E+01 1.61643E+01 9.13058E+01
 -1      4233-7.63845E+00 4.91937E+00 2.68319E+01
 -1      4234 7.98906E+00 1.39084E+01 7.95680E+01
 -1      4235-6.16933E+00 6.51632E+00 3.79782E+01
 -1      4236 5.51299E-03 6.69257E+00 3.80093E+01
 -1      4237-1.43591E+00 6.28628E+00 3.57578E+01
 -1      4238 7.50286E-03 1.13713E+01 6.45809E+01
 -1      4239-1.47669E+00 1.07322E+01 6.09805E+01
 -1      4240 2.50917E+00 1.08976E+01 6.18496E+01
 -1      4241 1.43129E+00 6.28678E+00 3.57598E+01
 -1      4242-7.98898E+00 1.39079E+01 7.95675E+01
 -1      4243 6.16167E+00 6.51433E+00 3.79679E+01
 -1      4244 4.41517E+00 2.80822E+00 1.72028E+01
 -1      4245-2.50706E+00 1.08958E+01 6.18393E+01
 -1      4246 2.83570E-03 8.91959E+00 5.06576E+01
 -1      4247 1.07163E+01 1.15017E+01 6.46124E+01
 -1      4248-1.07351E+01 1.14991E+01 6.45986E+01
 -1      4249 7.64091E+00 4.92035E+00 2.68310E+01
 -1      4250 8.47956E+00 2.35382E+01 1.33518E+02
 -1      4251 1.21896E+01 2.31703E+01 1.31365E+02
 -1      4252 1.15645E+01 2.35343E+01 1.33542E+02
 -1      4253-1.14282E+01 2.19589E+01 1.24578E+02
 -1      4254-1.21148E+01 2.23546E+01 1.26716E+02
 -1      4255-8.37925E+00 2.19640E+01 1.24550E+02
 -1      4256-3.81924E+00 9.41406E+00 5.38588E+01
 -1      4257-6.75876E+00 9.66630E+00 5.56077E+01
 -1      4258-7.19102E+00 9.40066E+00 5.39353E+01
 -1      4259-5.09758E+00 3.51455E+01 1.99594E+02
 -1      4260-7.93835E+00 3.51772E+01 1.99778E+02
 -1      4261-1.12710E+01 1.88751E+01 1.06874E+02
 -1      4262 1.47240E+01 3.81372E+01 2.16587E+02
 -1      4263 1.45103E+01 3.74873E+01 2.12894E+02
 -1      4264 9.64086E+00 3.77940E+01 2.14639E+02
 -1      4265 1.18493E+01 3.77981E+01 2.14663E+02
 -1      4266 1.35890E+01 3.85818E+01 2.19115E+02
 -1      4267 9.05261E+00 3.82964E+01 2.17494E+02
 -1      4268 7.56887E-01-2.01281E-01 4.21279E-01
 -1      4269 4.51674E-01-2.05477E-01 1.74748E-01
 -1      4270 4.93998E-01-9.63597E-02 3.01559E-01
 -1      4271 3.22845E-01-9.09990E-02 2.04564E-01
 -1      4272-1.93055E-01 1.02939E+00 5.85378E+00
 -1      4273-6.90125E-01 3.00801E+01 1.70834E+02
 -1      4274-6.93167E-01 3.24376E+01 1.84223E+02
 -1      4275-2.57521E-01 1.83686E+00 1.04388E+01
 -1      4276 9.08376E+00 3.74896E+01 2.12916E+02
 -1      4277 1.03178E+01 3.81325E+01 2.16565E+02
 -1      4278 6.00817E+00 3.78192E+01 2.14786E+02
 -1      4279 9.16587E+00 3.78192E+01 2.14787E+02
 -1      4280-8.85431E+00 3.47861E+01 1.97548E+02
 -1      4281-9.36204E+00 3.55748E+01 2.02031E+02
 -1      4282-6.21165E-01 1.64470E+01 9.34101E+01
 -1      4283 1.19269E+01 3.86353E+01 2.19419E+02
 -1      4284 8.90844E+00 3.85578E+01 2.18979E+02
 -1      4285-6.40464E-01 1.86106E+01 1.05697E+02
 -1      4286-2.39896E-02 3.89570E-01 2.21263E+00
 -1      4287-1.03001E+01 3.81396E+01 2.16610E+02
 -1      4288-1.05130E+01 3.74889E+01 2.12917E+02
 -1      4289-6.02139E+00 3.78187E+01 2.14786E+02
 -1      4290-9.20434E+00 3.78185E+01 2.14786E+02
 -1      4291-4.53998E-01-2.05604E-01 1.73591E-01
 -1      4292-7.62228E-01-2.02028E-01 4.24526E-01
 -1      4293-3.30705E-01-9.13812E-02 2.13901E-01
 -1      4294-5.01301E-01-9.59006E-02 3.04332E-01
 -1      4295 1.41356E+01 3.86394E+01 2.19442E+02
 -1      4296-6.50860E-01 2.82238E-01 2.62803E-01
 -1      4297-1.04919E+00 3.46121E-01 5.22500E-01
 -1      4298-5.27639E-01 2.08610E-01 2.52598E-01
 -1      4299-6.47675E-01 1.79907E-01 3.51522E-01
 -1      4300-1.44886E+01 3.74942E+01 2.12939E+02
 -1      4301-1.47062E+01 3.81363E+01 2.16588E+02
 -1      4302-1.20965E+01 3.78369E+01 2.14888E+02
 -1      4303-9.86282E+00 3.78410E+01 2.14910E+02
 -1      4304-1.18786E+01 3.71945E+01 2.11239E+02
 -1      4305-1.01251E-01-6.22266E-02-4.39161E-03
 -1      4306-2.00963E-01-5.21280E-02 9.19384E-02
 -1      4307 1.12413E+01 3.85578E+01 2.18980E+02
 -1      4308 6.40000E+00 3.83220E+01 2.17641E+02
 -1      4309 6.43613E-01 2.79693E-01 2.57604E-01
 -1      4310 1.04614E+00 3.45859E-01 5.19958E-01
 -1      4311 5.30654E-01 2.06819E-01 2.61420E-01
 -1      4312 6.52368E-01 1.78460E-01 3.58602E-01
 -1      4313 9.23348E+00 2.28729E+01 1.30073E+02
 -1      4314 4.84859E+00 2.28772E+01 1.30049E+02
 -1      4315-1.48868E-01-9.05909E-02 1.74442E-02
 -1      4316 1.87757E-01 1.08575E-01 1.68124E-02
 -1      4317 2.87450E-01 8.94945E-02 1.19286E-01
 -1      4318 7.55159E+00 3.86353E+01 2.19419E+02
 -1      4319 4.53303E+00 3.85579E+01 2.18980E+02
 -1      4320 1.07097E+01 3.86353E+01 2.19420E+02
 -1      4321 2.10356E-01-6.37106E-02 1.02283E-01
 -1      4322-2.41693E-01-6.52978E-02 1.24543E-01
 -1      4323-2.04633E-01-9.16384E-02 8.64754E-02
 -1      4324-4.88996E+00 3.86388E+01 2.19441E+02
 -1      4325 2.04180E-01-9.18606E-02 8.13937E-02
 -1      4326 1.93653E-01-5.11246E-02 9.00108E-02
 -1      4327 2.30369E-01 1.26983E-01 5.16155E-02
 -1      4328 2.91200E-01 6.64082E-02 1.53958E-01
 -1      4329 2.71123E-01 1.03551E-01 1.24681E-01
 -1      4330 1.24173E+01 2.63787E+01 1.49664E+02
 -1      4331 1.17692E+01 2.67551E+01 1.51875E+02
 -1      4332 8.63057E+00 2.67577E+01 1.51859E+02
 -1      4333-1.17692E+01 2.67544E+01 1.51875E+02
 -1      4334-8.63053E+00 2.67572E+01 1.51860E+02
 -1      4335-1.24173E+01 2.63780E+01 1.49664E+02
 -1      4336-9.10346E+00 2.17584E+01 1.23768E+02
 -1      4337-4.75653E+00 2.17634E+01 1.23740E+02
 -1      4338-8.47766E+00 2.21239E+01 1.25898E+02
 -1      4339 8.33142E+00 2.01984E+01 1.15015E+02
 -1      4340 4.70620E+00 2.05953E+01 1.17121E+02
 -1      4341 9.00788E+00 2.05898E+01 1.17153E+02
 -1      4342-7.08024E+00 5.18332E+00 2.89185E+01
 -1      4343-7.62512E+00 5.49184E+00 3.02312E+01
 -1      4344-5.18684E+00 5.20187E+00 2.88139E+01
 -1      4345 7.44624E+00 1.30532E+01 7.46894E+01
 -1      4346 4.22094E+00 1.34312E+01 7.65688E+01
 -1      4347 8.08344E+00 1.34210E+01 7.66272E+01
 -1      4348-5.62427E+00 5.86718E+00 3.42371E+01
 -1      4349-3.21464E+00 6.19265E+00 3.56493E+01
 -1      4350-6.16156E+00 6.17558E+00 3.57458E+01
 -1      4351-8.08444E+00 1.34203E+01 7.66255E+01
 -1      4352-7.44729E+00 1.30524E+01 7.46876E+01
 -1      4353-4.22202E+00 1.34307E+01 7.65670E+01
 -1      4354 7.08087E+00 5.18279E+00 2.89098E+01
 -1      4355 7.62322E+00 5.49085E+00 3.02224E+01
 -1      4356 5.18521E+00 5.20074E+00 2.88052E+01
 -1      4357-7.53007E+00 3.86387E+01 2.19441E+02
 -1      4358-6.43469E+00 3.83175E+01 2.17618E+02
 -1      4359 6.16056E+00 6.17317E+00 3.57338E+01
 -1      4360 5.63065E+00 5.86721E+00 3.42356E+01
 -1      4361 3.22116E+00 6.19246E+00 3.56477E+01
 -1      4362 9.46084E+00 1.09556E+01 6.18667E+01
 -1      4363 6.95878E+00 1.09642E+01 6.17749E+01
 -1      4364 9.89616E+00 1.06940E+01 6.00609E+01
 -1      4365-8.69384E+00 3.27413E+01 1.85987E+02
 -1      4366 2.26168E+00 2.62617E+00 1.55295E+01
 -1      4367 4.32872E+00 2.60159E+00 1.56425E+01
 -1      4368 3.90265E+00 2.35762E+00 1.45595E+01
 -1      4369-8.06807E+00 1.88383E+01 1.07324E+02
 -1      4370-8.64868E+00 2.97570E+01 1.69078E+02
 -1      4371-7.99062E+00 1.61395E+01 9.21149E+01
 -1      4372-3.38228E+00 1.74354E+00 1.10881E+01
 -1      4373-2.00172E-01 1.14283E-01 1.97815E-02
 -1      4374-2.33512E-01 1.30385E-01 5.12382E-02
 -1      4375-2.79208E-01 8.83006E-02 1.10996E-01
 -1      4376-1.36349E+01 3.85571E+01 2.18980E+02
 -1      4377-1.41662E+01 3.86345E+01 2.19420E+02
 -1      4378-9.32292E+00 3.83393E+01 2.17742E+02
 -1      4379-2.64820E-01 6.51917E-02 1.37236E-01
 -1      4380-9.89894E+00 1.06918E+01 6.00505E+01
 -1      4381-9.46419E+00 1.09497E+01 6.18345E+01
 -1      4382-6.97973E+00 1.09636E+01 6.17720E+01
 -1      4383 9.49300E-02-6.12948E-02-6.20731E-03
 -1      4384 1.43520E-01-8.94163E-02 1.63020E-02
 -1      4385-2.38936E+00 7.04880E-01 5.31057E+00
 -1      4386-1.10079E+01 3.86384E+01 2.19442E+02
 -1      4387-2.70196E-01 1.05002E-01 1.18361E-01
 -1      4388 4.87472E+00 2.36427E+01 1.34385E+02
 -1      4389 9.28276E+00 2.36388E+01 1.34408E+02
 -1      4390 8.59912E+00 2.32430E+01 1.32224E+02
 -1      4391-1.07134E+01 3.86384E+01 2.19442E+02
 -1      4392-1.76867E+00 3.50804E+01 1.99232E+02
 -1      4393-9.08409E+00 3.86387E+01 2.19442E+02
 -1      4394-1.19323E+01 3.86386E+01 2.19442E+02
 -1      4395-1.18203E+01 3.51855E+01 1.99831E+02
 -1      4396-1.32764E+01 3.68442E+01 2.09245E+02
 -1      4397-1.24745E+01 3.64070E+01 2.06765E+02
 -1      4398-1.19737E+01 3.47970E+01 1.97615E+02
 -1      4399-1.24828E+01 3.55857E+01 2.02098E+02
 -1      4400-1.26480E+01 3.44016E+01 1.95357E+02
 -1      4401-1.31623E+01 3.59771E+01 2.04317E+02
 -1      4402-1.33984E+01 3.51949E+01 1.99868E+02
 -1      4403 6.64876E-01 3.32935E+01 1.89085E+02
 -3
    1PSTEP                         2           1           1          
    1PGM                1.000000E+00                                  
    1PGK                2.759255E+07                                  
    1PHID                         -1                                  
    1PSUBC                         0                                  
    1PMODE                         1                                  
  100CL  101 836.0187730        4403                     2    1MODAL      1
 -4  STRESS      6    1
 -5  SXX         1    4    1    1
 -5  SYY         1    4    2    2
 -5  SZZ         1    4    3    3
 -5  SXY         1    4    1    2
 -5  SYZ         1    4    2    3
 -5  SZX         1    4    3    1
 -1         1-8.14355E+04-2.68092E+04-2.49310E+04-1.83141E+04 2.98212E+03 5.55838E+03
 -1         2 1.16297E+05 3.75515E+04 3.62594E+04 2.15188E+04 4.29585E+03 1.26369E+04
 -1         3-1.16491E+05-3.75164E+04-3.62502E+04 2.14835E+04-4.16460E+03 1.23388E+04
 -1         4 8.15015E+04 2.67524E+04 2.50967E+04-1.81723E+04-2.84146E+03 5.49978E+03
 -1         5 1.62269E+01-6.81730E+00 1.87212E+01-5.83144E+00-1.69040E+00-2.25091E+01
 -1         6-2.08188E+01 2.42668E+00-1.63461E+01-1.36657E+00-2.99163E+00-2.08543E+01
 -1         7 2.26578E+01-1.04914E+00 1.67090E+01-1.50580E+00 2.30806E+00-2.13938E+01
 -1         8-1.35328E+01 1.01611E+01-1.68872E+01-7.11142E+00 2.42371E+00-2.11003E+01
 -1         9 6.51830E+04 2.66937E+04 2.76235E+04 1.67250E+04-1.19812E+03-6.14331E+03
 -1        10 1.75154E+04 8.14433E+03 6.93324E+03 4.43804E+03-4.08741E+02-1.00562E+04
 -1        11-3.30788E+04-1.31658E+04-1.40880E+04-9.61714E+03-1.00407E+03-8.95859E+03
 -1        12 9.81836E+04 4.20788E+04 4.20788E+04 2.37595E+04-3.82205E-04 5.38468E+02
 -1        13 4.06354E+04 1.74152E+04 1.74152E+04 1.01190E+04 6.16858E-03-7.49628E+03
 -1        14-7.52647E+03-3.22564E+03-3.22565E+03-2.73467E+03 6.58925E-03-9.55325E+03
 -1        15-6.48285E+04-2.77837E+04-2.77837E+04-1.72664E+04 1.41549E-03-4.16238E+03
 -1        16-8.23116E+04-3.45888E+04-3.46215E+04-8.88883E+03-5.40675E+02 1.75788E+04
 -1        17-9.33760E+04-3.90217E+04-3.92357E+04-1.33964E+03-5.39935E+02 2.02637E+04
 -1        18-1.00777E+05-4.22986E+04-4.26290E+04 7.34716E+03-3.54629E+02 2.13214E+04
 -1        19-8.02816E+04-3.44065E+04-3.44065E+04-1.35967E+04-5.20364E-03 1.47100E+04
 -1        20-8.92930E+04-3.82685E+04-3.82686E+04-5.55656E+03-3.95822E-03 1.91874E+04
 -1        21-9.94902E+04-4.26387E+04-4.26388E+04 2.50883E+03-6.13577E-03 2.08973E+04
 -1        22-1.07341E+05-4.60034E+04-4.60035E+04 1.30244E+04-5.91996E-04 2.02542E+04
 -1        23 3.51609E+04 1.58086E+04 1.44534E+04-1.11114E+04 4.54269E+02-8.31029E+03
 -1        24-1.55591E+04-5.71965E+03-6.83008E+03 2.60641E+03 6.50164E+02-1.03283E+04
 -1        25-6.50413E+04-2.64842E+04-2.75441E+04 1.65722E+04 1.30382E+03-6.36155E+03
 -1        26 6.37860E+04 2.73369E+04 2.73369E+04-1.70916E+04-3.46123E-03-3.69651E+03
 -1        27 1.00889E+04 4.32381E+03 4.32381E+03-3.95933E+03-6.27939E-03-9.46150E+03
 -1        28-4.04683E+04-1.73436E+04-1.73436E+04 9.79850E+03-5.75322E-03-8.16673E+03
 -1        29-9.81798E+04-4.20772E+04-4.20772E+04 2.37244E+04 2.58251E-04 4.17940E+02
 -1        30 9.95355E+04 4.18991E+04 4.16243E+04 6.15815E+03-9.10336E+02 2.22478E+04
 -1        31 9.29272E+04 3.89697E+04 3.87027E+04-2.24258E+03-7.92033E+02 1.98797E+04
 -1        32 8.23613E+04 3.46102E+04 3.45985E+04-9.62895E+03-4.44857E+02 1.65253E+04
 -1        33 1.09054E+05 4.67376E+04 4.67376E+04 1.28921E+04-4.90366E-03 2.19885E+04
 -1        34 9.78600E+04 4.19401E+04 4.19401E+04 2.42286E+03-1.80228E-03 2.14962E+04
 -1        35 8.94122E+04 3.83196E+04 3.83197E+04-5.46196E+03-4.13757E-03 1.82501E+04
 -1        36 7.87521E+04 3.37510E+04 3.37510E+04-1.34795E+04 9.72337E-04 1.33404E+04
 -1        37-7.82754E-01-4.11830E+00-9.26835E+01-3.05382E+00 5.35803E+00 4.55522E+00
 -1        38-2.25694E+00-2.61614E+00-3.48044E+00-2.81743E+00 1.44727E+01 2.32572E+01
 -1        39-2.10094E+00 3.51442E-02 9.53468E+01-1.60319E+00 2.06052E+00 4.11355E+00
 -1        40-1.08144E+01-2.09585E+00-6.53445E+01-4.27703E+00-9.53289E-02-9.32389E+00
 -1        41-4.93831E+00-6.58280E+00-6.05622E+01-2.74995E+00 1.10240E+01 1.73702E+01
 -1        42 1.94884E+00 9.27624E-02 5.51746E+01 2.55233E-01 1.06770E+01 1.58992E+01
 -1        43 1.02001E+01-9.32684E-01 7.07536E+01-4.47249E+00 5.31730E-02-1.19653E+01
 -1        44 1.01299E+01-2.19643E+01 8.84706E+00 7.99299E-01 2.54020E+00-9.54307E+00
 -1        45 1.31137E+01 7.65215E+00 1.33555E+01 5.63127E+00-3.58054E+00-1.24036E+01
 -1        46 1.13841E+01 1.33127E+01 1.25502E+01 4.30106E-01-3.95748E+00-1.21153E+01
 -1        47 7.42988E+00-2.10812E+01 9.22091E+00-4.56433E+00-3.85937E-01-1.29549E+01
 -1        48 1.19826E+01-5.68006E+00 1.12123E+01 2.49243E+00-1.36768E+00-1.04280E+01
 -1        49 1.47550E+01 1.68094E+01 1.64061E+01 4.15538E+00-3.51387E+00-1.36232E+01
 -1        50 1.11242E+01 4.12647E+00 1.10709E+01 9.53134E-01-1.42997E-01-1.34730E+01
 -1        51 3.13737E+00-1.63231E-01-9.42550E+01-1.07231E+00-4.15992E+00 4.66559E+00
 -1        52 2.22488E+00 2.41543E+00-2.02069E+00-1.57313E+00-1.38051E+01 2.25472E+01
 -1        53 9.20913E-01 2.85246E+00 9.15414E+01-1.77971E+00-2.94319E+00 4.16009E+00
 -1        54-7.41238E+00 1.74851E+00-6.96879E+01 2.64617E-01-1.18117E-01-1.07866E+01
 -1        55-8.88126E-02-9.77918E-01-5.83946E+01-2.25139E+00-1.07234E+01 1.69886E+01
 -1        56 5.96632E+00 3.94780E+00 5.48966E+01-4.37174E+00-1.03730E+01 1.57609E+01
 -1        57 1.31102E+01 2.34789E+00 6.71407E+01-1.88566E-02-1.46559E-01-1.10011E+01
 -1        58-9.84705E+00-1.16198E+01-1.07292E+01 9.53880E-01 4.30565E+00-1.05250E+01
 -1        59-1.27740E+01-6.21259E+00-1.28591E+01 3.13763E+00 1.66048E+00-1.19878E+01
 -1        60-1.06317E+01 2.08067E+01-9.84780E+00 1.54137E+00-2.28615E+00-1.06526E+01
 -1        61-1.04185E+01-2.84704E+00-1.03104E+01 1.26763E+00 3.55285E-01-1.26895E+01
 -1        62-1.27016E+01-1.43948E+01-1.38109E+01 3.46545E+00 2.46237E+00-1.20161E+01
 -1        63-1.31822E+01 5.60775E+00-1.28071E+01 2.20693E+00 5.94614E-01-1.25122E+01
 -1        64-6.16377E+00 2.13541E+01-1.09849E+01-4.39797E+00-3.50871E-01-1.18281E+01
 -1        65 8.27639E+04-2.48507E+03-2.53405E+03-1.23251E+03-2.09830E+02-2.54187E+03
 -1        66 8.63322E+04-2.72968E+02-1.82067E+02-2.03742E+02 2.25896E+01-8.51213E+01
 -1        67 8.42194E+04-5.19987E+01-1.24460E+01-1.24015E+02 2.83042E+01 1.88523E+02
 -1        68 8.07058E+04 3.21588E+01 1.28250E+01-8.82582E+01-2.04471E+01 3.11079E+02
 -1        69 7.70070E+04-2.03123E+01-2.00433E+01-9.63594E+01 7.93561E-01 1.94446E+02
 -1        70 7.30970E+04-2.01235E+01-1.11814E+00-8.69163E+01 2.40497E+01 3.19537E+02
 -1        71 6.91903E+04 1.87580E+01 1.90877E-01-1.10152E+02-2.51055E+00 1.93272E+02
 -1        72 6.54122E+04 5.54863E-01 1.23044E+01-1.17121E+02-1.57433E+01 1.92514E+02
 -1        73 6.16037E+04 1.46530E+01 3.77294E+00-8.31621E+01-2.64149E+01 3.13376E+02
 -1        74 5.77596E+04 1.28825E+01-1.93057E+00-7.32268E+01 1.76907E-01 2.82054E+02
 -1        75 5.40406E+04-3.63629E+00-3.67817E+00-9.81561E+01-1.43164E+01 1.90633E+02
 -1        76 5.03399E+04-1.67316E+00 8.06386E+00-1.19777E+02-2.17606E+01 1.80167E+02
 -1        77 4.67051E+04 1.74417E+01 2.22203E+00-7.95523E+01-2.36620E+01 2.95786E+02
 -1        78 4.30931E+04 1.49416E+00-3.74075E+00-8.85647E+01 1.49619E+01 1.78688E+02
 -1        79 3.96277E+04-1.63858E+01-8.82800E+00-7.41372E+01-7.63946E-01 2.52300E+02
 -1        80 3.61515E+04-2.13494E+01-1.11857E+01-7.95658E+01 2.67748E+01 2.76770E+02
 -1        81 3.27556E+04 1.73888E+01 1.16326E-01-9.46851E+01-2.88603E+00 1.65670E+02
 -1        82 2.95556E+04 1.30400E+00 1.02120E+01-9.87720E+01-1.38294E+01 1.61038E+02
 -1        83 2.64028E+04 1.24031E+01-4.32332E+00-5.86637E+01-1.69211E+01 2.60650E+02
 -1        84 2.33955E+04-6.66127E+00-1.02009E+01-7.20929E+01 9.05845E+00 1.48463E+02
 -1        85 2.04991E+04-1.71051E+01-1.21491E+01-5.93280E+01 1.90213E+01 2.35609E+02
 -1        86 1.77494E+04-2.67724E+00-1.35632E+01-8.61519E+01 1.29709E+01 1.34387E+02
 -1        87 1.51193E+04 9.31380E+00 3.25474E+00-5.43441E+01-1.68057E+00 1.85924E+02
 -1        88 1.27630E+04-1.08622E+01-1.34440E+01-5.34823E+01 5.21254E+00 1.63549E+02
 -1        89 1.04227E+04 1.04964E+01 7.59149E+00-6.09153E+01-1.15563E+00 1.09460E+02
 -1        90 8.43363E+03-1.06155E+01-1.42555E+01-3.63007E+01 4.64866E+00 1.43914E+02
 -1        91 6.54061E+03-1.15113E+01-1.16471E+01-4.02538E+01 5.74447E+00 1.36685E+02
 -1        92 4.86426E+03-2.19380E+00-1.79975E+01-3.35076E+01 3.99864E+00 1.24754E+02
 -1        93 3.39137E+03 5.83206E+00 3.79261E+00-3.63234E+01 1.46662E-01 6.98932E+01
 -1        94 2.23700E+03-1.63729E+01-2.15122E+01-2.10683E+01 1.09687E+01 8.72400E+01
 -1        95 1.23169E+03 3.79606E+00-3.86864E+00-2.82883E+01-1.95569E+00 4.68520E+01
 -1        96 5.33967E+02-2.04937E+00-5.91537E+00-1.62242E+01-2.59805E+00 2.98531E+01
 -1        97 9.38961E+01-4.36545E+00-2.02387E+00-2.73165E+00-1.79848E+00-6.10155E-01
 -1        98 9.44221E+04 3.02814E+03 2.53018E+03 5.69099E+03 1.07408E+03 1.08267E+03
 -1        99 8.61371E+04-1.43802E+02-2.25108E+02 1.08208E+02 1.36635E+02-3.51280E+02
 -1       100 8.54850E+04-3.89082E+01-3.44619E+01-1.34948E+02 9.29335E+01 1.38321E+02
 -1       101 8.24400E+04-2.57275E+01-4.55903E+01-1.12837E+02 2.30282E+01 2.62357E+02
 -1       102 7.89697E+04 2.54919E+01 1.32888E+01-1.22197E+02-3.23639E+01 2.60582E+02
 -1       103 7.49057E+04-7.89405E+01-7.83519E+01-1.12918E+02 1.68599E+01 2.65493E+02
 -1       104 7.12441E+04 2.33983E+01 3.61615E+01-1.05154E+02-1.10633E+01 2.68202E+02
 -1       105 6.73099E+04 6.24111E+00 4.31491E+00-1.30238E+02-1.83074E+01 2.21678E+02
 -1       106 6.34242E+04-1.32430E+01-1.35329E+01-1.09910E+02 8.35601E+00 2.69706E+02
 -1       107 5.97422E+04 2.40880E+01 1.26032E+01-1.05289E+02-1.22148E+01 3.01076E+02
 -1       108 5.59511E+04 1.02556E+01 1.26072E+01-1.16365E+02-3.14513E+01 2.40683E+02
 -1       109 5.21499E+04-2.81613E+01-2.49971E+01-1.16539E+02-2.67457E+01 2.03957E+02
 -1       110 4.84335E+04-1.57805E+01-1.56600E+01-1.05214E+02 8.97052E+00 2.57254E+02
 -1       111 4.50153E+04 5.89022E+01 4.68875E+01-1.00593E+02-1.58677E+01 2.45828E+02
 -1       112 4.12907E+04-1.80375E+01-2.08687E+01-1.11028E+02 2.69750E+01 2.17703E+02
 -1       113 3.78109E+04-2.91331E+01-2.08631E+01-9.99141E+01 1.49191E+01 2.68850E+02
 -1       114 3.45211E+04 1.70783E+01 2.36848E+01-9.25747E+01-5.50087E+00 2.33827E+02
 -1       115 3.11552E+04 3.15959E+00 2.86125E-01-1.10183E+02-1.45209E+01 1.88045E+02
 -1       116 2.78954E+04-1.65574E+01-1.77891E+01-8.65323E+01 1.29757E+01 2.24240E+02
 -1       117 2.49834E+04 2.43846E+01 1.03976E+01-8.33925E+01-1.93491E+01 2.10397E+02
 -1       118 2.18446E+04-2.77022E+01-3.32089E+01-8.71895E+01 3.00530E+01 1.92510E+02
 -1       119 1.91622E+04 4.07628E+00 1.06914E+00-7.91290E+01-3.20509E+00 1.95603E+02
 -1       120 1.64089E+04-3.41499E+00-1.49579E+01-8.24084E+01 1.66292E+01 1.71424E+02
 -1       121 1.39179E+04-4.37729E+00-8.07216E+00-7.76930E+01 4.09905E+00 1.72890E+02
 -1       122 1.16001E+04 2.02383E+01 2.17000E+01-5.86144E+01 1.64854E+00 1.52513E+02
 -1       123 9.37487E+03-1.53579E+01-1.85266E+01-6.37978E+01 1.59693E+01 1.32337E+02
 -1       124 7.42961E+03-1.77038E+01-1.90314E+01-5.10203E+01 8.44217E+00 1.42938E+02
 -1       125 5.65954E+03-1.15473E+01-1.67932E+01-4.96776E+01 1.12143E+01 1.36598E+02
 -1       126 4.14638E+03 1.87506E+01 1.11940E+01-4.18662E+01-2.03406E+00 1.03724E+02
 -1       127 2.75509E+03-1.71830E+01-1.96615E+01-3.85383E+01 1.68584E+01 7.89859E+01
 -1       128 1.71634E+03-5.39810E+00-8.73614E+00-2.30788E+01-1.22054E+00 7.30307E+01
 -1       129 8.56565E+02-8.31324E+00-1.48082E+01-2.22250E+01-1.74836E+00 4.51410E+01
 -1       130 2.87512E+02-1.23951E+01-1.17675E+01-9.73997E+00 3.97961E+00 2.09256E+01
 -1       131 7.62250E+00-4.09254E+00-1.22109E+01-1.94965E+00-2.20421E+00-1.26997E+01
 -1       132-5.80746E+04 1.73059E+03 1.74163E+03 3.27374E+02-6.36042E+01-2.28829E+03
 -1       133-6.04778E+04 2.40569E+02 9.16090E+01 1.87434E+02 1.61666E+01-2.02856E+01
 -1       134-5.89702E+04 6.28402E+00 2.06968E+01 2.40335E+02 2.36142E+01 2.78827E+02
 -1       135-5.65602E+04-1.33994E+01 1.94552E+01 2.20734E+02 9.46202E+00 3.57626E+02
 -1       136-5.38652E+04-2.47845E+01-1.39722E+01 1.75973E+02-1.30540E+00 2.32146E+02
 -1       137-5.12610E+04 1.60402E+01 5.08468E+00 1.90700E+02 1.65543E+00 3.50173E+02
 -1       138-4.84639E+04-2.03959E+01-1.35540E+01 1.76671E+02-4.66150E+00 2.38870E+02
 -1       139-4.58291E+04 2.12217E+01 8.08550E+00 1.95214E+02 1.70326E+01 3.74035E+02
 -1       140-4.31669E+04 6.86663E+00 2.32182E+01 1.93392E+02 2.05088E+01 2.38366E+02
 -1       141-4.04528E+04-2.67754E+01-2.36613E+01 1.66472E+02-7.75094E+00 2.35178E+02
 -1       142-3.79062E+04 1.72324E+01 3.77688E+00 1.73565E+02 1.77175E+00 3.20302E+02
 -1       143-3.52496E+04 1.37531E+01-2.22682E-01 1.95995E+02 1.91758E+01 3.51870E+02
 -1       144-3.27226E+04 6.75224E+00 2.20604E+01 1.87901E+02 1.95500E+01 2.32499E+02
 -1       145-3.01629E+04-1.21770E+01-8.22489E+00 1.66816E+02-6.78973E+00 3.03593E+02
 -1       146-2.77643E+04 8.49131E+00 4.89095E+00 1.69984E+02-6.11168E-02 2.78890E+02
 -1       147-2.53152E+04 7.36963E+00 1.13582E+01 1.61282E+02 1.44973E+01 2.11000E+02
 -1       148-2.29971E+04 5.93434E+00 2.65151E+00 1.59435E+02 2.32790E+00 2.83344E+02
 -1       149-2.07202E+04 1.72851E+01-3.03875E+00 1.59685E+02 2.81140E+00 2.81102E+02
 -1       150-1.84865E+04-8.87142E+00 1.59873E+01 1.54667E+02 6.58562E+00 2.78491E+02
 -1       151-1.63748E+04-8.95759E+00-1.03547E+01 1.36509E+02-1.19002E+01 1.83660E+02
 -1       152-1.43866E+04 1.45146E+01 3.52942E+00 1.45999E+02 1.10388E+00 2.64071E+02
 -1       153-1.24258E+04-1.17404E+01 1.40559E+01 1.34628E+02-5.43477E-01 2.38488E+02
 -1       154-1.06080E+04-7.04023E+00 8.86496E+00 1.26170E+02 1.08710E+00 2.15722E+02
 -1       155-8.90603E+03-2.44243E+00-2.31477E+00 1.07026E+02-9.46781E+00 1.48310E+02
 -1       156-7.33505E+03 1.33319E+01 7.00000E+00 1.17609E+02 1.25963E+01 2.02750E+02
 -1       157-5.88370E+03 5.52489E+00 1.84938E+01 9.57656E+01 9.93978E+00 1.25634E+02
 -1       158-4.56352E+03-8.00980E+00-6.75680E+00 8.23603E+01-8.70738E+00 1.11083E+02
 -1       159-3.41256E+03 7.00653E-01 2.02341E+01 8.08662E+01 5.74787E+00 1.47185E+02
 -1       160-2.36991E+03-1.06622E+01-1.90477E+00 6.31228E+01-1.82696E+00 8.39519E+01
 -1       161-1.56630E+03 6.01004E+00 1.38292E+01 5.24176E+01 2.22295E+00 9.74028E+01
 -1       162-8.71845E+02 8.16040E-01 7.78102E+00 3.94678E+01 2.10437E+00 5.15337E+01
 -1       163-3.74830E+02 1.38043E+00 8.79485E+00 2.15727E+01 1.65351E+00 3.10971E+01
 -1       164-6.12651E+01 4.84624E+00 2.66176E+00 4.06737E+00-3.88420E-01 1.64136E+00
 -1       165-6.62401E+04-2.34113E+03-1.72705E+03-5.66026E+03 8.90964E+02-1.05103E+03
 -1       166-6.02824E+04 1.11669E+02 2.10742E+02-2.35936E+02-1.73086E+01-4.39603E+02
 -1       167-5.99023E+04 2.90235E+01 1.65237E+01 2.15137E+02 1.10169E+02 2.29879E+02
 -1       168-5.77736E+04 1.46519E+00 3.03581E+01 2.54524E+02 1.79939E+01 3.45070E+02
 -1       169-5.53048E+04-5.99170E+01-4.75673E+01 2.19523E+02 1.24313E-01 3.13777E+02
 -1       170-5.25264E+04 8.97525E+00-1.72596E+00 2.19006E+02 1.47187E+01 3.20030E+02
 -1       171-4.99317E+04-4.51309E+01-4.60382E+01 2.01227E+02-8.49368E+00 3.14884E+02
 -1       172-4.70794E+04 1.81858E+01 1.03648E+01 2.20099E+02 2.11945E+01 3.29517E+02
 -1       173-4.45490E+04 1.11375E-01-6.86495E+00 2.06532E+02-6.80575E+00 3.24068E+02
 -1       174-4.18354E+04-3.34683E+01-3.48653E+01 1.98118E+02 2.36215E+01 2.59249E+02
 -1       175-3.91389E+04 5.97081E+00 7.35156E+00 2.02585E+02 8.98211E+00 3.02678E+02
 -1       176-3.65250E+04 2.20841E+01 1.05851E+01 2.13200E+02 1.11226E+01 3.52131E+02
 -1       177-3.40310E+04 3.31490E+00-1.82968E+00 2.06340E+02-3.07811E+00 3.10161E+02
 -1       178-3.14254E+04-1.69426E+00 1.37239E+01 2.06282E+02 2.00899E+01 2.88464E+02
 -1       179-2.89572E+04 8.14486E-01 1.07265E-01 2.03928E+02-2.53911E+00 2.99873E+02
 -1       180-2.65526E+04-6.95939E+00-1.15247E+01 1.77912E+02 3.40777E+00 2.68869E+02
 -1       181-2.41093E+04 1.41769E+01 1.97646E+01 1.92991E+02 2.45570E+01 2.59858E+02
 -1       182-2.18189E+04 1.79561E+01 6.49816E+00 1.89700E+02 3.66327E+00 2.96552E+02
 -1       183-1.95901E+04 3.99885E+00 7.33675E+00 1.79575E+02 8.93426E+00 2.94847E+02
 -1       184-1.74662E+04-1.64089E+01-6.59900E+00 1.75559E+02-2.13801E+01 2.43904E+02
 -1       185-1.53209E+04 2.47140E+01 1.63323E+01 1.61981E+02 1.17610E+01 2.37802E+02
 -1       186-1.33957E+04 1.23885E-01 7.24415E+00 1.62522E+02-1.73197E-01 2.66135E+02
 -1       187-1.15238E+04-1.08397E+01 5.99806E+00 1.53557E+02 1.56701E+00 2.38945E+02
 -1       188-9.76776E+03-5.73876E+00 2.36115E+00 1.38448E+02-1.69473E+01 1.93567E+02
 -1       189-8.05585E+03 2.75659E+01 2.50095E+01 1.23916E+02 1.18314E+01 1.86883E+02
 -1       190-6.61910E+03 8.65193E+00 1.04650E+01 1.14698E+02 1.76813E+00 1.75774E+02
 -1       191-5.20458E+03 5.76749E+00 1.20032E+01 1.03924E+02-3.58976E+00 1.27597E+02
 -1       192-3.94634E+03 8.08807E+00 1.63520E+01 9.11063E+01 1.14928E+01 1.39143E+02
 -1       193-2.90032E+03-1.65684E+01-3.97306E+00 7.70613E+01-1.48029E+00 1.23456E+02
 -1       194-1.93744E+03 6.68323E+00 1.01404E+01 6.87883E+01 1.04893E+01 1.00874E+02
 -1       195-1.20652E+03 2.50178E+00 7.06876E+00 4.99914E+01 3.58461E+00 7.93044E+01
 -1       196-5.99067E+02 5.78801E+00 1.43368E+01 3.63592E+01 5.26736E+00 4.27206E+01
 -1       197-1.95789E+02 8.46858E+00 1.47505E+01 1.85296E+01-8.76157E-01 2.06522E+01
 -1       198-2.24362E+00 2.09767E+00 1.26409E+01-8.54771E-01-3.71710E+00-1.33311E+01
 -1       199 5.81447E+04-1.62959E+03-1.71918E+03 3.75989E+02 1.10240E+02-2.29399E+03
 -1       200 6.04618E+04-2.24566E+02-5.76693E+01 2.01632E+02 1.76884E+00-9.84855E+00
 -1       201 5.89462E+04-3.12026E+00-3.32001E+01 2.39093E+02-2.43636E+01 2.94435E+02
 -1       202 5.65731E+04-1.47232E+01-1.88067E+01 1.99356E+02-2.67479E+01 2.45969E+02
 -1       203 5.39114E+04-5.52431E+00-6.99747E+00 1.75090E+02-2.01328E+01 2.39571E+02
 -1       204 5.12513E+04-1.90021E+01-1.37969E+01 1.78415E+02-8.93282E+00 2.48640E+02
 -1       205 4.85177E+04 4.28503E-01 9.91885E+00 1.84604E+02 2.67024E+00 3.27730E+02
 -1       206 4.58265E+04-2.25123E+01-5.66125E+00 2.03526E+02-2.11018E+01 3.68446E+02
 -1       207 4.31200E+04 3.08421E+01 1.10261E+01 1.88485E+02 1.02929E+01 2.38034E+02
 -1       208 4.04516E+04 1.59469E+01 1.39716E+01 1.68981E+02 1.86425E+00 2.34283E+02
 -1       209 3.79133E+04-1.86080E+01-4.37073E+00 1.69459E+02-2.16801E+00 3.20711E+02
 -1       210 3.52487E+04-1.36888E+01 5.19625E-02 1.92320E+02-1.82129E+01 3.51920E+02
 -1       211 3.27113E+04-1.78951E+00-2.10433E+01 1.81021E+02-1.62657E+01 2.31180E+02
 -1       212 3.02347E+04-2.35620E+01-7.24878E+00 1.63218E+02-1.30480E+01 2.23155E+02
 -1       213 2.77321E+04-6.80069E+00-1.93331E+01 1.68369E+02-1.97751E+01 2.08905E+02
 -1       214 2.52782E+04 2.54409E+01 1.89660E+01 1.48110E+02 6.73295E+00 2.09345E+02
 -1       215 2.30211E+04-9.87089E+00-7.29922E+00 1.53829E+02-2.60104E+00 2.82713E+02
 -1       216 2.07251E+04-1.75017E+01-4.88766E+00 1.62762E+02-9.14562E+00 2.89518E+02
 -1       217 1.84683E+04 1.11966E+01 4.09285E+00 1.47662E+02 6.08708E+00 2.02089E+02
 -1       218 1.63770E+04 1.33437E+01 1.07518E+01 1.28761E+02 2.05255E+01 1.76626E+02
 -1       219 1.43902E+04-1.59688E+01-1.70507E+01 1.30485E+02-3.87358E+00 1.73130E+02
 -1       220 1.24494E+04 5.68600E-01-8.13584E-01 1.29328E+02-1.05816E+00 2.26416E+02
 -1       221 1.06364E+04-1.16444E+01-6.37331E+00 1.27571E+02-1.79034E+00 2.18709E+02
 -1       222 8.92898E+03-5.39250E+00-5.03137E+00 1.16023E+02-2.87451E+00 1.97967E+02
 -1       223 7.34241E+03-1.33754E+01-1.04232E+01 1.19041E+02-1.38430E+01 2.05203E+02
 -1       224 5.85546E+03 1.51716E+01-1.78003E+00 9.79928E+01 5.40854E+00 1.29329E+02
 -1       225 4.57022E+03-3.10378E-01 2.48009E+00 8.57719E+01 9.42961E+00 1.10370E+02
 -1       226 3.39552E+03 1.39459E+01 4.46716E+00 7.82999E+01 6.37287E+00 9.60709E+01
 -1       227 2.39720E+03-7.13518E+00-1.27104E+01 5.52394E+01-8.41513E+00 8.11424E+01
 -1       228 1.54608E+03 2.42505E+00-1.91130E+00 5.12079E+01 5.77116E+00 6.89856E+01
 -1       229 8.63598E+02 5.31909E+00-4.05649E+00 4.37571E+01 3.73522E+00 5.63241E+01
 -1       230 3.74016E+02 1.05292E+00-5.94437E+00 2.57711E+01 2.62487E+00 3.60940E+01
 -1       231 7.01943E+01-8.76164E-01 2.08004E+00 6.61771E+00 1.22667E+00 3.39912E+00
 -1       232 6.61692E+04 2.23290E+03 1.69037E+03-5.58352E+03-6.78828E+02-1.05713E+03
 -1       233 6.04072E+04-8.55034E+01-1.40860E+02-1.55153E+02-1.08135E+02-4.74673E+02
 -1       234 5.97979E+04-4.99563E+01-5.48576E+01 2.53427E+02 4.51179E+01 1.93567E+02
 -1       235 5.78186E+04 6.97282E+00-1.79894E+01 2.32694E+02-1.04751E+00 3.03576E+02
 -1       236 5.52601E+04 5.47736E+00 8.74492E-01 2.03793E+02-3.01031E+01 2.64933E+02
 -1       237 5.25670E+04-3.88337E+00-6.30402E+00 1.97112E+02-2.21478E+01 2.65065E+02
 -1       238 4.98112E+04-4.41620E+01-4.98239E+01 2.08357E+02-5.75339E+00 3.07759E+02
 -1       239 4.71245E+04-2.29350E+01-9.77878E+00 2.26953E+02-1.17528E+01 3.60770E+02
 -1       240 4.45341E+04 2.07518E+01 3.92852E+01 2.05850E+02 1.45943E+00 3.22643E+02
 -1       241 4.18337E+04 4.51045E+01 4.55721E+01 1.86671E+02 4.89454E+00 2.76408E+02
 -1       242 3.91449E+04-1.19376E+01-1.21992E+01 2.01490E+02-1.11618E+01 3.01750E+02
 -1       243 3.65277E+04-2.26882E+01-1.14320E+01 2.08944E+02-1.16164E+01 3.52228E+02
 -1       244 3.40237E+04-2.12864E+00 2.49175E+00 2.01252E+02 3.90107E+00 3.10762E+02
 -1       245 3.14559E+04-1.24478E+01-8.74945E+00 1.98296E+02-2.30116E+01 2.58816E+02
 -1       246 2.89538E+04-3.06957E+01-3.24834E+01 1.61062E+02-8.64548E+00 2.30117E+02
 -1       247 2.65247E+04 3.65484E+01 2.76679E+01 1.71673E+02-1.97869E+01 2.29783E+02
 -1       248 2.41077E+04-5.42879E+00-1.11194E+01 1.80314E+02-1.01057E+01 2.68805E+02
 -1       249 2.18271E+04-1.79245E+01-8.98584E+00 1.84381E+02-7.04934E+00 2.97960E+02
 -1       250 1.96307E+04 2.11122E+01 2.79172E+01 1.73956E+02 7.39633E+00 2.66480E+02
 -1       251 1.74237E+04 1.32355E+00-3.57088E+00 1.49731E+02 1.44148E+01 2.07915E+02
 -1       252 1.53596E+04-7.07622E+00-8.55170E+00 1.35001E+02 4.04263E+00 2.01534E+02
 -1       253 1.33559E+04-3.44527E+01-4.46188E+01 1.48918E+02-1.19560E+00 2.14015E+02
 -1       254 1.15083E+04-1.42630E+01-1.14549E+01 1.51536E+02-3.35973E+00 2.33610E+02
 -1       255 9.75247E+03-1.08737E+01-1.06147E+01 1.43590E+02-2.88626E+00 2.23148E+02
 -1       256 8.08708E+03-1.74355E+01-1.46887E+01 1.35370E+02-1.04531E+01 2.10265E+02
 -1       257 6.61389E+03 6.79298E+00 5.99189E+00 1.13912E+02 3.42197E+00 1.78566E+02
 -1       258 5.20409E+03-1.43780E-01-4.14118E+00 1.03028E+02 1.17610E+01 1.39213E+02
 -1       259 3.97012E+03 3.70869E+00 3.91807E+00 7.47511E+01 5.48485E+00 1.16105E+02
 -1       260 2.89632E+03 3.65065E+00-2.92765E+00 7.26858E+01-8.33391E+00 1.01215E+02
 -1       261 1.94211E+03-6.63887E+00-1.48969E+01 6.24801E+01 4.57604E+00 7.93848E+01
 -1       262 1.18531E+03 1.30038E+00-5.94941E+00 4.39362E+01 4.93369E+00 7.13456E+01
 -1       263 6.02049E+02-3.32490E+00-1.39532E+01 3.50338E+01 2.62757E+00 5.40675E+01
 -1       264 2.00230E+02-5.39977E+00-1.01140E+01 1.75840E+01 1.05916E+00 2.86788E+01
 -1       265 1.04804E+01 2.86253E+00-6.28689E+00-4.65511E+00-4.65800E+00-9.40501E+00
 -1       266-8.28038E+04 2.31238E+03 2.39272E+03-1.26632E+03 2.79749E+02-2.48866E+03
 -1       267-8.63073E+04 2.47444E+02 1.40326E+02-2.07594E+02 1.16246E+00-7.43375E+01
 -1       268-8.41712E+04 3.26510E+01 5.66298E+00-1.34554E+02-7.60931E+00 1.64696E+02
 -1       269-8.07328E+04-2.18182E+01 8.15963E+00-9.71543E+01 2.81847E+00 2.87729E+02
 -1       270-7.69360E+04 7.13233E-01-8.84093E-01-1.02891E+02-1.73930E+01 1.95298E+02
 -1       271-7.31273E+04 2.73360E+01 2.67614E+00-8.14659E+01-2.43845E+01 3.27909E+02
 -1       272-6.91922E+04-1.67071E+01 5.79608E-01-1.09923E+02 1.58908E+00 1.91911E+02
 -1       273-6.54123E+04-9.75923E-01-1.22127E+01-1.17251E+02 1.58846E+01 1.91810E+02
 -1       274-6.16009E+04-1.49472E+01-3.09362E+00-8.29369E+01 2.62792E+01 3.13009E+02
 -1       275-5.77541E+04-1.31976E+01 1.05669E+00-7.26458E+01 4.74103E-01 2.82652E+02
 -1       276-5.40407E+04-2.09397E+00-3.14116E+00-9.67268E+01 1.74394E+01 1.82751E+02
 -1       277-5.03702E+04 2.62250E+01 1.35534E+01-1.08044E+02 1.67316E+00 1.67978E+02
 -1       278-4.66867E+04-2.21611E+01-4.95136E+00-8.03552E+01 2.60292E+01 2.95371E+02
 -1       279-4.30955E+04 7.83616E-02 6.10116E+00-8.75953E+01-1.61959E+01 1.72136E+02
 -1       280-3.96267E+04 1.37349E+01 1.47276E+01-7.54968E+01 1.68307E+00 2.48772E+02
 -1       281-3.61354E+04 1.48261E+01 6.61249E+00-7.84414E+01-2.49109E+01 2.75005E+02
 -1       282-3.27883E+04 7.60572E+00 2.02988E+01-9.61264E+01-1.56888E+01 1.65039E+02
 -1       283-2.95606E+04 3.30060E-02-1.07877E+01-8.45630E+01 1.69178E+01 1.55694E+02
 -1       284-2.63778E+04-2.19450E+01-7.62166E+00-8.57437E+01 1.05997E+01 1.52562E+02
 -1       285-2.34244E+04 1.67309E+01 1.77607E+01-6.89431E+01-4.34581E-01 1.41676E+02
 -1       286-2.05183E+04 1.42191E+01 1.98430E+00-6.07962E+01-9.25042E+00 2.20900E+02
 -1       287-1.77266E+04-1.28689E+01-8.24180E+00-8.07385E+01 3.40811E+00 1.33427E+02
 -1       288-1.51320E+04-2.82943E+00 5.15608E+00-5.13955E+01-2.63534E-01 1.80962E+02
 -1       289-1.27698E+04 1.24651E+01 1.53071E+01-5.64219E+01-2.78236E+00 1.59208E+02
 -1       290-1.04236E+04-1.06519E+01-8.11932E+00-6.16342E+01 1.39671E+00 1.10122E+02
 -1       291-8.43358E+03 1.08065E+01 1.43127E+01-3.63230E+01-4.64212E+00 1.44200E+02
 -1       292-6.54034E+03 1.17626E+01 1.15661E+01-3.94299E+01-5.71831E+00 1.35795E+02
 -1       293-4.86385E+03 1.50989E+00 1.80711E+01-3.50819E+01-4.13156E+00 1.23999E+02
 -1       294-3.38800E+03-5.81919E+00-3.46948E+00-3.72004E+01-1.24416E+00 7.06369E+01
 -1       295-2.24076E+03 1.38802E+01 1.59412E+01-1.94265E+01-3.36734E+00 7.96972E+01
 -1       296-1.25509E+03 4.52752E+00 1.09367E+01-1.82835E+01-2.96150E+00 6.06655E+01
 -1       297-5.41075E+02 7.06588E+00 1.36635E+01-1.23710E+01-3.16876E+00 3.79526E+01
 -1       298-8.92398E+01 2.78373E+00 1.33142E+00-2.59795E+00 1.39514E+00 1.16849E+00
 -1       299-9.43455E+04-3.00187E+03-2.28077E+03 5.65166E+03-8.12277E+02 9.65370E+02
 -1       300-8.62298E+04 7.03695E+01 1.35719E+02 4.26792E+01-2.22153E+02-3.50906E+02
 -1       301-8.54352E+04 2.96190E+01 4.28879E+01-1.70377E+02 2.16496E+01 7.53754E+01
 -1       302-8.24673E+04 1.00394E+01 2.21431E+01-1.28770E+02-8.35885E+00 2.53461E+02
 -1       303-7.89684E+04-6.31994E+01-5.02658E+01-1.17693E+02 6.20405E+00 2.54747E+02
 -1       304-7.49326E+04 2.96286E+01 2.41304E+01-1.26638E+02-4.68566E+01 2.58963E+02
 -1       305-7.12536E+04-2.32790E+01-3.71552E+01-1.03739E+02 1.13601E+01 2.72132E+02
 -1       306-6.73109E+04-5.78729E+00-3.84863E+00-1.29875E+02 1.83256E+01 2.19961E+02
 -1       307-6.34228E+04 1.29287E+01 1.36459E+01-1.09877E+02-8.54526E+00 2.69239E+02
 -1       308-5.97397E+04-2.46401E+01-1.29227E+01-1.05316E+02 1.21814E+01 3.01344E+02
 -1       309-5.59484E+04-1.40373E+01-1.65468E+01-1.16490E+02 3.20983E+01 2.36930E+02
 -1       310-5.21522E+04 3.71267E+01 2.87368E+01-1.07472E+02 5.93252E+00 2.06797E+02
 -1       311-4.84300E+04 2.47910E+01 4.39696E+01-9.67166E+01-3.79603E+00 2.49344E+02
 -1       312-4.50073E+04-5.72153E+01-4.47241E+01-1.02095E+02 1.56217E+01 2.40376E+02
 -1       313-4.12929E+04 1.74322E+01 2.08319E+01-1.12470E+02-2.71150E+01 2.13535E+02
 -1       314-3.78016E+04 2.83220E+01 2.16940E+01-9.78963E+01-1.49547E+01 2.67444E+02
 -1       315-3.45192E+04-1.39030E+00 1.15008E-01-9.65425E+01 4.66384E+00 2.34647E+02
 -1       316-3.11587E+04 8.83146E+00 6.66637E+00-1.10417E+02 1.20170E+00 1.73323E+02
 -1       317-2.79591E+04-1.12255E+01-1.47545E+01-6.74804E+01 1.28376E+01 1.72369E+02
 -1       318-2.48947E+04 8.52226E+00 1.32037E+01-8.64581E+01-4.12056E+00 1.72198E+02
 -1       319-2.18536E+04 5.90966E+01 6.70191E+01-7.93872E+01-5.15904E+00 1.88718E+02
 -1       320-1.91607E+04-2.25858E+01-2.52922E+01-7.89456E+01 8.26742E+00 1.91697E+02
 -1       321-1.64044E+04 8.22611E-01 9.77002E+00-7.31254E+01-1.31612E+01 1.73670E+02
 -1       322-1.39245E+04 4.66043E+00 1.07162E+01-7.56485E+01 2.88125E-01 1.70155E+02
 -1       323-1.15987E+04-1.78792E+01-1.99727E+01-5.88165E+01-2.84790E+00 1.52185E+02
 -1       324-9.37533E+03 1.53505E+01 1.86238E+01-6.42295E+01-1.60316E+01 1.32668E+02
 -1       325-7.42931E+03 1.76538E+01 1.89258E+01-5.07229E+01-8.42004E+00 1.42711E+02
 -1       326-5.66044E+03 1.12800E+01 1.59820E+01-4.93311E+01-1.07496E+01 1.35722E+02
 -1       327-4.14427E+03-1.95107E+01-1.19486E+01-4.28509E+01 7.89275E-01 1.04424E+02
 -1       328-2.76103E+03 1.57395E+01 1.76683E+01-3.76696E+01-1.40976E+01 7.62329E+01
 -1       329-1.70592E+03 1.09237E+01 1.50129E+01-2.51408E+01-7.74164E+00 7.51753E+01
 -1       330-8.60052E+02 9.99899E+00 1.45114E+01-1.94146E+01-5.91323E+00 5.02761E+01
 -1       331-2.88214E+02 9.76815E+00 1.27641E+01-9.05415E+00-3.92137E+00 2.51661E+01
 -1       332-6.43277E+00 4.11473E+00 1.13978E+01-2.81758E+00 1.97452E+00-1.21471E+01
 -1       333-2.45820E+04-9.65873E+03-9.02893E+03 2.78702E+03 7.33362E+01-1.89797E+03
 -1       334-1.02856E+04-3.74819E+03-2.97624E+03-1.73171E+03-2.23657E+02-2.82544E+03
 -1       335 3.92328E+04 1.69438E+04 1.57905E+04-3.03025E+03 2.51048E+02 3.00529E+03
 -1       336 2.46105E+04 1.04312E+04 1.05138E+04 3.29395E+03-3.89075E+00-1.72433E+03
 -1       337 3.00347E+03 1.21470E+03 1.14240E+03-8.59715E+01 3.36722E+02-1.33377E+03
 -1       338-3.50247E+04-1.48250E+04-1.41898E+04-2.27371E+03 1.96779E+02 2.47234E+03
 -1       339 1.18890E+04 4.75431E+03 5.04015E+03-2.73298E+03-3.10243E+02-2.53112E+03
 -1       340 4.19832E+04 1.72784E+04 1.67556E+04 1.46131E+03 1.80801E+02 3.32052E+03
 -1       341-4.89154E+04-2.10274E+04-1.94529E+04 2.30468E+03 1.28066E+02 4.90037E+03
 -1       342-1.99482E+04-8.13585E+03-8.12498E+03 2.75690E+02-8.47256E+01-9.56732E+01
 -1       343-3.79919E+04-1.47974E+04-1.36283E+04-6.92547E+03 1.49839E+02 1.37432E+03
 -1       344 3.70225E+04 1.52180E+04 1.53126E+04-6.93944E+03 4.10583E+02 8.29007E+02
 -1       345 5.42533E+04 2.06820E+04 1.99345E+04 7.86850E+03 2.25823E+02 4.03329E+03
 -1       346-5.40660E+04-2.08594E+04-2.09319E+04 8.10190E+03 8.62533E+01 3.35256E+03
 -1       347 1.16309E+04 4.74569E+03 4.16927E+03-6.06387E+02-3.11808E+02-7.50730E+02
 -1       348-5.84408E+04-2.31128E+04-2.18101E+04-1.32670E+04 1.39178E+03 3.86648E+03
 -1       349-3.68822E+04-1.49937E+04-1.47484E+04-9.00336E+03-6.35319E+02-4.44128E+03
 -1       350-5.88252E+04-2.47968E+04-2.49683E+04-8.27309E+03-1.72550E+02 1.01740E+04
 -1       351 6.06626E+04 2.51121E+04 2.47668E+04 1.33536E+04-6.78962E+02-1.62881E+03
 -1       352 8.34500E+04 3.25142E+04 3.16089E+04 1.55083E+04 1.99388E+03 8.96123E+03
 -1       353 7.59882E+04 3.17241E+04 3.20290E+04 7.12824E+03-3.95201E+02 1.41322E+04
 -1       354-8.33186E+04-3.24877E+04-3.19169E+04 1.55614E+04-1.88777E+03 8.43352E+03
 -1       355-7.39161E+04-3.16784E+04-3.16785E+04 7.80235E+03 2.47540E-03 1.23382E+04
 -1       356-6.07248E+04-2.49949E+04-2.47830E+04 1.33822E+04 8.05574E+02-1.82774E+03
 -1       357 5.78308E+04 2.29666E+04 2.19338E+04-1.31795E+04-1.25707E+03 3.48451E+03
 -1       358 3.56436E+04 1.52759E+04 1.52759E+04-9.55941E+03 1.21764E-03-3.59383E+03
 -1       359 5.72465E+04 2.45343E+04 2.45343E+04-8.47905E+03 2.33501E-03 8.55183E+03
 -1       360 2.07255E+04 8.88243E+03 8.88241E+03 4.29599E+03 1.23642E-03-5.54495E+03
 -1       361 4.29417E+04 1.84037E+04 1.84036E+04 9.08631E+03 3.02118E-03-3.64389E+03
 -1       362 4.22143E+04 1.65369E+04 1.75932E+04 5.52446E+03 1.63757E+02-1.09252E+02
 -1       363-1.95591E+04-8.38248E+03-8.38248E+03-4.95115E+03 2.46272E-03-5.57898E+03
 -1       364 2.65607E+03 1.71128E+03 1.51329E+03 9.13891E+02-3.66592E+02-6.63482E+03
 -1       365 4.85444E+03 2.68975E+03 2.26345E+03 1.27440E+03 3.54961E+01-3.10356E+03
 -1       366-2.57318E+04-1.02308E+04-1.07333E+04-4.33280E+03 1.91852E+02-1.79001E+03
 -1       367-6.19088E+04-2.63329E+04-2.63504E+04-2.16411E+03-1.28086E+02 1.16099E+04
 -1       368-5.56883E+04-2.38665E+04-2.38665E+04-5.53206E+03-1.26531E-03 9.49952E+03
 -1       369-3.69251E+04-1.55071E+04-1.43032E+04-4.24350E+03-1.14105E+02 1.92434E+03
 -1       370-7.41759E+04-3.17779E+04-3.18689E+04 4.74290E+03 3.95814E+01 1.36437E+04
 -1       371-6.94420E+04-2.97609E+04-2.97610E+04 7.55078E+02-7.41171E-04 1.25976E+04
 -1       372-4.15634E+04-1.73121E+04-1.65061E+04-6.10943E+01-2.94489E+02 4.04303E+03
 -1       373-5.22055E+04-2.18685E+04-2.06894E+04 4.55234E+03 1.96854E+02 4.16242E+03
 -1       374 2.24734E+04 9.86359E+03 9.20486E+03-6.57849E+03 1.40352E+02-5.47767E+03
 -1       375-2.78166E+01-1.19175E+01-1.19149E+01-9.36770E+02-2.50561E-03-6.47141E+03
 -1       376 2.46702E+04 1.01114E+04 1.04384E+04-4.77719E+03 1.18298E+01-1.41896E+03
 -1       377-2.02184E+04-8.06187E+03-8.11572E+03 3.34003E+03 3.98535E+02-6.07754E+03
 -1       378-4.13800E+04-1.77344E+04-1.77343E+04 8.71823E+03-2.34148E-03-3.66912E+03
 -1       379-8.03964E+03-2.80139E+03-3.24280E+03-1.84436E+02 5.73452E+01-3.30722E+03
 -1       380-4.11176E+04-1.61468E+04-1.71528E+04 5.33686E+03-1.59239E+02-1.93500E+02
 -1       381 6.72781E+04 2.88336E+04 2.88336E+04 3.89526E+03-1.43439E-04 1.21071E+04
 -1       382 6.56750E+04 2.78648E+04 2.77545E+04-7.11173E+01-2.77444E+02 1.21745E+04
 -1       383 4.92095E+04 2.05839E+04 1.90922E+04 3.93631E+03-4.90769E+01 3.72245E+03
 -1       384 6.33332E+04 2.71429E+04 2.71429E+04-2.89689E+03-5.39062E-04 1.09751E+04
 -1       385 6.00680E+04 2.58011E+04 2.57460E+04-6.27978E+03 1.72338E+00 1.02573E+04
 -1       386 4.09531E+04 1.70807E+04 1.61733E+04-1.13025E+03-2.60754E+02 3.48368E+03
 -1       387 3.91627E+04 1.64318E+04 1.54688E+04-4.64163E+03 1.56885E+02 2.00131E+03
 -1       388 1.13008E+04 4.84321E+03 4.84322E+03-1.62571E+03-2.52898E-03-2.01100E+03
 -1       389-6.93265E+03-3.40461E+03-2.98622E+03-7.24155E+00 8.29425E+01-2.05982E+03
 -1       390-3.87486E+04-1.66066E+04-1.66066E+04 2.50739E+03-3.06730E-03 5.67193E+02
 -1       391-2.15264E+04-9.22564E+03-9.22564E+03 1.41789E+03-1.09137E-03-1.30892E+03
 -1       392-3.56257E+04-1.52682E+04-1.52682E+04 1.35324E+03-2.79567E-03 1.20820E+03
 -1       393-3.13711E+03-1.59990E+03-1.59730E+03 4.12227E+02-4.68540E+02-1.22199E+03
 -1       394-3.98390E+03-2.00815E+03-1.35249E+03-4.54689E+02-1.51842E+02-2.39100E+03
 -1       395 1.28936E+04 5.52584E+03 5.52585E+03 1.40859E+03 3.04914E-03-1.89712E+03
 -1       396-2.40326E+04-1.02997E+04-1.02997E+04-2.30652E+03 1.59945E-03-9.30622E+02
 -1       397-1.64741E+04-7.06037E+03-7.06038E+03-1.28217E+03 3.80800E-04-6.69511E+02
 -1       398 2.78418E+04 1.19322E+04 1.19322E+04-2.89983E+03-2.21330E-03-6.14893E+02
 -1       399 2.64901E+04 1.13530E+04 1.13530E+04-1.93316E+03-1.60980E-03 1.11504E+02
 -1       400 2.76912E+04 1.15579E+04 1.18373E+04 8.38420E+01 1.09703E+02 5.70679E+02
 -1       401 2.28220E+04 9.78090E+03 9.78091E+03 7.23427E+02 1.53451E-03-8.58702E+01
 -1       402 3.58606E+04 1.53689E+04 1.53689E+04 2.35908E+03 2.92587E-03 8.20667E+01
 -1       403-2.85760E+04-1.17690E+04-1.18429E+04-9.15934E+02 2.47036E+02 7.19005E+02
 -1       404-8.56681E+03-3.74759E+03-3.85924E+03-3.56135E+02 5.86938E+01-7.23932E+02
 -1       405 7.14813E+03 3.33701E+03 3.23029E+03-2.40431E+02 2.00429E+02-6.60265E+02
 -1       406-6.63615E-01 2.35594E+01 8.96953E+01 1.56615E+00-1.05324E+01 2.13874E+00
 -1       407-5.52794E-01-5.82936E+00-8.75473E+01 1.77815E+00-2.26835E+00-3.37785E+00
 -1       408 7.43885E+00-8.35917E+00 6.68213E+01-1.38571E+00 1.94682E+01 1.19037E+01
 -1       409 8.13146E-01-2.65554E+01-9.86151E+01 2.26254E+00 1.21441E+01-1.24211E+00
 -1       410-1.28820E+00-7.30144E+00-4.66216E+01 3.05050E+00 1.78647E+00 1.65373E+01
 -1       411 3.28438E+00 1.11508E+01-4.42373E+01-1.42424E+00-1.99625E+01 1.14707E+01
 -1       412-6.49338E+00-4.90952E-01 9.01902E+01 1.01648E+00 4.62899E+00-1.76068E+00
 -1       413 3.37298E+00-2.07528E+01-4.98468E+01 1.89503E+00 2.21626E+01 1.17804E+01
 -1       414 6.17965E+00 2.33783E+01 6.72220E+01-7.09425E-02-2.26321E+01 1.35526E+01
 -1       415-3.33342E+00 1.37007E+01 2.63717E+01 2.38102E+00-1.17538E+01 1.74712E+01
 -1       416 3.17703E+00-8.02778E+00 9.01889E+01-3.71053E-01 7.58135E+00-4.97615E+00
 -1       417 4.84062E-01 8.14126E+00-8.38254E+01-1.49833E+00-8.73948E+00-7.36192E+00
 -1       418 5.21071E-01-2.17908E+01-8.61704E+01-1.41299E+00 1.23279E+01-7.52443E+00
 -1       419 6.03824E-01 2.13451E+01 8.71108E+01-1.25239E+00-1.06819E+01-3.23654E+00
 -1       420-7.60273E-01-4.53062E-01 4.03765E+01 3.41994E+00 6.44819E+00 1.68305E+01
 -1       421 6.46530E+00-2.15328E+00 1.05755E+02-8.79611E-01 4.16994E+00-1.87236E+00
 -1       422 5.66972E+00-8.17901E+00 5.94528E+01-2.44591E+00 1.47300E+00-1.10769E+01
 -1       423-2.68442E+00-1.76916E+01 5.82421E+01-1.50283E+00 6.79776E+00-4.31433E+00
 -1       424-7.85618E+00-1.40800E+01-5.93572E+01-9.77470E-01 1.88740E+00-1.06079E+01
 -1       425-1.19661E+00-1.60108E+01-8.97281E+01-2.27054E+00 9.91913E+00-6.72554E+00
 -1       426 6.17859E+00-1.44077E+01-5.72448E+01-5.07627E-01 9.63604E+00-4.58461E+00
 -1       427-4.14640E+00 1.57857E+01 5.68345E+01-2.80884E-02-9.35057E+00-5.09393E+00
 -1       428 7.20971E+00 1.25824E+01 5.79666E+01-1.24798E+00-1.97376E+00-1.00249E+01
 -1       429 5.05939E+00 1.86390E+01 1.04269E+02-3.82567E-01-6.94419E+00-1.26929E+00
 -1       430-2.85191E+00 3.89251E+00-9.02089E+01 4.36924E-01-7.13630E+00-6.67544E+00
 -1       431-5.46021E+00 6.91700E+00-5.87078E+01-3.22749E+00-1.52295E+00-1.09537E+01
 -1       432 6.95378E+00 1.70740E+01-5.51703E+01-1.74538E+00-6.55231E+00-4.64575E+00
 -1       433-5.16911E+00-2.12953E+01-9.04032E+01-1.89753E-02 1.76060E+01 2.26073E+00
 -1       434-2.33095E+00-1.19625E+01-2.83675E+01 1.51938E+00 2.37221E+01 8.54136E+00
 -1       435-7.41349E+00-2.83974E+01-8.56368E+01 1.53828E+00 1.65281E+01 2.03102E+00
 -1       436 7.06374E+00-5.30290E+00 3.57035E+01-1.67804E+00 2.12683E+01 1.02757E+01
 -1       437 3.14077E+00-4.80438E+00 8.06430E+01 1.33905E-01 1.31960E+01 4.85374E+00
 -1       438 1.40048E+01-1.38933E+01 7.79355E+00 4.38446E-01 2.23929E+01 1.12780E+01
 -1       439 1.26377E+01-4.52406E+00 8.73734E+01-1.68428E+00 1.29336E+01 4.35702E+00
 -1       440-7.93552E+00-1.19790E+01 5.68271E+01-6.97004E-02 3.52116E+00-4.64991E+00
 -1       441-5.94955E+00 9.85052E-01 5.63169E+01 1.49702E+00-1.41695E+00-5.49898E+00
 -1       442-1.68955E+00-3.30896E+00 8.98468E+01-6.49998E-01 8.49333E+00-4.08384E+00
 -1       443-4.82559E+00 1.38572E+01 6.27873E+01 2.42240E+00-7.44428E+00-1.80725E+00
 -1       444-2.97042E+00 2.27947E+01 6.60737E+01 3.64612E-01-8.67407E+00-2.28769E+00
 -1       445-3.03974E+00 1.52258E+01 8.82431E+01 1.11699E+00-3.79047E+00 4.17107E-01
 -1       446 2.32208E+00 2.79105E+01 9.17643E+01 3.19847E-01-1.13292E+01-1.26723E-01
 -1       447-4.06510E+00 1.06090E+01-2.51494E+01-2.35300E+00-2.24420E+01 8.17178E+00
 -1       448-5.97002E+00 1.93769E+00-8.76188E+01-8.42276E-01-1.56436E+01 2.07309E+00
 -1       449-7.72191E+00 3.64444E+00-8.19020E+01-2.06106E+00-1.31502E+01 2.22026E+00
 -1       450 3.96777E-01 1.48213E+01 7.83311E+01-2.40179E+00-1.55726E+01 6.14484E+00
 -1       451 5.99479E+00 1.48596E+01 3.62132E+01-8.11567E-01-2.18427E+01 1.11947E+01
 -1       452 1.38883E+01 1.77326E+01 1.22308E+01-8.62707E-01-2.19966E+01 1.12908E+01
 -1       453 1.41012E+01 2.92141E+01 9.03505E+01 5.97266E-01-1.71835E+01 5.40518E+00
 -1       454 2.45558E+00-1.48132E+01-6.20621E+01 2.43016E+00 6.30290E+00-4.61695E+00
 -1       455 2.12802E+00-2.21483E+01-6.58184E+01 5.98567E-01 9.35778E+00-3.85806E+00
 -1       456-1.31121E+00-2.67799E+01-9.50770E+01-4.67301E-01 1.32112E+01-2.51243E+00
 -1       457 4.12558E+00 9.86248E+00-6.19111E+01 3.46337E-01-2.29605E+00-4.58924E+00
 -1       458 5.20498E+00-3.69359E+00-6.17265E+01 4.39377E-01 1.00834E+00-4.85323E+00
 -1       459-1.86866E+00-1.80956E+01-9.01940E+01 2.39384E+00 4.64695E+00-2.73790E+00
 -1       460 1.80022E-01 3.18887E+00-8.93905E+01 1.27205E+00-6.80134E+00-3.34932E+00
 -1       461 1.18199E+01 6.56309E+00 7.68087E+01 3.79526E+00 6.22177E+00 9.07034E+00
 -1       462 1.54235E+01 1.77421E+01 7.23382E+01 2.91102E+00-4.09821E+00 9.87320E+00
 -1       463 1.51421E+01 2.63417E+01 6.73000E+01 1.62454E+00-1.39603E+01 1.07185E+01
 -1       464 8.38940E+00 2.18761E+01 4.78235E+01 6.66259E-01-2.06369E+01 1.76024E+01
 -1       465 1.51350E+01 3.05266E+01 8.89109E+01 2.85412E+00-1.53463E+01 9.55361E+00
 -1       466 3.53358E+00 7.50108E+00 4.08647E+01 3.52901E+00-3.35248E+00 1.98292E+01
 -1       467-1.82461E+01-1.48124E+01-7.46702E+01 2.93153E+00-1.43817E+00 8.20311E+00
 -1       468-1.40718E+01-2.28027E+01-7.84905E+01 2.39775E+00 9.34325E+00 8.21994E+00
 -1       469-1.04280E+01-2.10130E+00-7.85913E+01 2.97787E-01-1.11646E+01 6.72690E+00
 -1       470-5.40939E+00-2.18600E+00-5.00877E+01 1.11939E+00-1.14057E+01 1.94836E+01
 -1       471 9.98505E+00-1.33597E+00 8.71041E+01-1.47642E+00 1.11089E+01 7.14173E+00
 -1       472 4.62002E+00-4.21668E+00 5.42914E+01 2.26931E+00 1.61047E+01 1.73005E+01
 -1       473-2.16384E+00-1.21475E+01-4.46961E+00 2.84130E+00 1.72042E+01 1.47267E+01
 -1       474-9.68115E+00-2.12903E+01-5.27753E+01 2.69748E+00 1.47921E+01 1.79718E+01
 -1       475-1.25219E+01-3.06318E+01-8.65242E+01 3.64095E+00 1.61831E+01 9.22351E+00
 -1       476 3.85510E+00 1.46036E+01-3.25173E+00 5.20581E-01-1.75377E+01 1.47353E+01
 -1       477-5.23438E-01 3.55426E+00-9.27849E+00 6.01492E+00-5.30896E+00 1.67299E+01
 -1       478-3.87278E+00-5.76203E+00-4.77242E+00-2.08185E-01 4.61467E+00 1.78967E+01
 -1       479 7.95250E+03-1.35331E-02-3.44959E+01 2.60632E+01 2.55504E+00 1.59999E+03
 -1       480 3.28800E+03-5.29899E+00-3.96243E+01 6.88113E+00 4.88064E+00 1.05878E+03
 -1       481-3.31435E+02-5.77037E+00 4.72849E+01-3.04724E+00 4.43862E+00 4.76780E+02
 -1       482 1.41461E+04-1.91258E+01-1.68957E+01 1.46780E+01 1.62914E+01 1.98924E+03
 -1       483-5.18023E+03 4.13586E+00 2.89533E+01 1.38539E+01 1.24747E+00 1.81747E+03
 -1       484-2.60311E+03 2.17186E+01 3.60848E+01 2.97005E+01 1.59130E+01 1.34782E+03
 -1       485-8.26251E+02-1.86535E+01 4.25327E+01 2.07593E+00-3.71326E+00 8.21542E+02
 -1       486-8.36038E+03-9.89823E+00 4.29673E+01 9.13733E+00 4.21913E-01 2.18048E+03
 -1       487 4.26871E+04 1.08165E+01-2.85714E+01 2.45719E+01-1.05894E+01 2.50184E+03
 -1       488 3.82279E+04 1.63657E+00 1.68181E+01 4.99472E+01 3.89545E-01 2.55675E+03
 -1       489-2.18963E+04 8.21579E+00 1.53315E+01 5.97319E+01-1.78383E+01 2.48305E+03
 -1       490 2.96777E+04 9.81130E+00 2.87557E+00 4.07960E+01 5.01426E+00 2.42657E+03
 -1       491 2.34699E+04 1.74327E+01-4.68020E+01 3.60430E+01-7.45843E-01 2.30303E+03
 -1       492 3.38395E+04-7.65353E+00 2.94859E+00 1.81925E+01 6.51957E+00 2.46276E+03
 -1       493-2.16572E+04 5.18375E+02 1.15261E+03 6.58004E+02-4.50626E+02 6.09194E+02
 -1       494 4.81824E+04-3.73350E+01-2.02350E+02-1.87763E+02-9.52902E+01 2.00465E+03
 -1       495 2.27830E+02 2.90927E+00-4.64315E+01 2.18125E+00 4.03204E+00 2.76577E+02
 -1       496 1.96012E+04-1.17318E+01-1.07828E+01 4.22263E+01 1.10129E+01 2.13275E+03
 -1       497 1.05672E+03-5.14687E+00-4.97377E+01 8.92235E+00 8.10729E+00 6.05441E+02
 -1       498-1.91489E+04 2.04639E+01-7.93444E-01-2.55934E+00 1.08795E+01 2.56945E+03
 -1       499-1.30275E+04 4.96069E+01 2.93936E+01 4.89151E+01 3.53179E+01 2.39051E+03
 -1       500-1.04126E+04 1.52044E+01 1.56015E+01 2.04015E+01-1.26303E-01 2.27635E+03
 -1       501-1.70202E+04 5.42158E+01 2.70059E+01 5.53416E+01 3.68376E+01 2.50218E+03
 -1       502-1.49210E+04-3.70719E+01 1.57756E+01-1.24309E+01-1.09211E+01 2.56746E+03
 -1       503 3.26651E+04-2.50886E+03 1.32171E+03 3.09359E+02-7.23639E+02-6.82227E+02
 -1       504-3.02825E+01-1.62659E+00 1.21467E+01-1.43167E+00 5.66646E-01 1.87814E+02
 -1       505-3.86667E+03 1.81425E+01 1.42255E+01-1.93454E+01 5.33985E+00 1.64258E+03
 -1       506-1.58646E+03-2.01194E+01 3.30168E+01 6.24881E+00-1.09824E+00 1.10668E+03
 -1       507-6.81639E+03 3.24170E+01 4.63547E+00-2.47095E+01 1.24974E+01 2.03685E+03
 -1       508 1.08807E+04-2.29799E+01-3.68034E+01 2.30816E+01 1.23065E+01 1.76503E+03
 -1       509 5.39082E+03 1.12232E+01-4.05408E+01 2.06817E+01-4.30466E+00 1.36950E+03
 -1       510-2.22487E+04 1.67136E+01 2.94957E+02 2.27372E+02-1.05829E+02 2.04205E+03
 -1       511 4.67794E+04 4.20279E+00-4.42169E+01-1.72941E+01-4.84082E+01 2.34048E+03
 -1       512 4.49860E+04-2.44306E+01 6.35439E+00 2.67284E+01 1.74258E+01 2.53328E+03
 -1       513 1.14366E+04 2.28507E+01-1.70175E+01 3.16375E+01-8.32008E-01 3.20983E+03
 -1       514 5.86774E+02 2.59586E+00-4.82367E+01 9.56323E+00 5.89665E+00 4.53227E+02
 -1       515 6.64093E+03 3.16728E+00-2.96165E+01 1.44790E+01 9.03721E+00 1.44731E+03
 -1       516-3.14102E+03-3.70964E+01 3.34795E+01 5.33787E+00-2.51342E+00 1.51965E+03
 -1       517-9.26679E+03-2.90592E+01 2.97263E+01-3.08802E+01-4.24364E+00 2.26530E+03
 -1       518 1.77596E+04 2.34527E+00-7.63556E+00 4.63062E+01 6.78089E-01 2.15575E+03
 -1       519-5.87774E+03-4.49080E+01-7.00839E+00 4.07958E+01-1.13590E+01 1.91373E+03
 -1       520 1.24666E+04 4.49457E+00-5.18705E+01 2.37676E+01-9.77267E+00 1.87224E+03
 -1       521 3.59868E+04 2.69614E+01-4.96141E+00 3.57734E+01-2.48231E+01 2.45934E+03
 -1       522 2.75101E+04 2.23262E+01-1.43148E+01 3.49985E+01-2.30306E+01 2.34460E+03
 -1       523 2.55768E+04-2.73280E+01-1.98195E+00 2.20421E+01 5.35180E+00 2.33417E+03
 -1       524 6.24209E+03 5.60538E+00 6.42090E+00 2.40320E+01 3.48427E+00 2.98063E+03
 -1       525-1.39505E+04-1.77630E+01 1.90894E+01 1.99475E+01-5.23134E+00 2.48230E+03
 -1       526-2.05549E+03-1.84160E+00 2.99898E+01-1.03114E+01 3.65736E+00 1.26398E+03
 -1       527 4.27922E+03 5.90355E+00-4.88777E+01 1.10094E+01 4.76572E+00 1.21491E+03
 -1       528 2.16637E+04 8.53565E+00-3.20608E+01 1.87547E+01-2.19096E+00 2.22013E+03
 -1       529-5.60286E+02-2.74532E+00 4.46836E+01 9.00885E+00 2.80681E+00 6.32551E+02
 -1       530 1.65935E+03 9.88758E+00-5.26265E+01 1.03917E+01-2.67559E+00 7.94945E+02
 -1       531-1.59726E+04 2.20605E+00 1.30921E+01-6.90124E+00 9.32397E+00 2.54270E+03
 -1       532-1.79665E+04-4.65110E+01 1.56178E+01 7.04635E+00-1.87674E+01 2.62618E+03
 -1       533 2.41707E+03 4.25434E-01-3.75858E+01 1.16655E+01 8.83975E+00 9.19722E+02
 -1       534 4.04972E+04-1.69118E+01-8.57902E+00 4.23054E+01 1.28591E+01 2.46788E+03
 -1       535-1.21804E+03 6.38736E+00 4.70108E+01 1.86293E+01 1.02211E+01 9.33115E+02
 -1       536 1.58733E+04 2.41752E+01-1.04499E+01 2.92364E+01-1.02622E+01 2.02823E+03
 -1       537 3.17751E+04-1.63001E+01 1.16105E+01 4.37349E+01 7.16409E+00 2.45653E+03
 -1       538-7.50498E+03-1.16814E+01 7.26200E+00 1.03480E+01 1.09704E+00 2.08474E+03
 -1       539 9.30957E+03 2.43798E+00-3.21074E+01 2.44451E+01 8.82745E-01 1.69213E+03
 -1       540-4.46441E+03 2.71667E+00 1.41995E+01 7.62084E+00 5.73678E+00 1.73561E+03
 -1       541 1.36574E+04-4.19731E+01 2.58673E+02 4.43988E+01-5.93988E+02 2.12613E+03
 -1       542 1.27276E+04 2.50055E+01 2.58613E+01 5.44260E+01-1.12946E+02 2.98917E+03
 -1       543-2.05427E+04-4.73324E+01 5.27398E+00 7.26762E+00-1.85114E+01 2.62089E+03
 -1       544-5.38370E+03 1.71605E+03 2.66548E+03 4.49747E+02-6.52095E+02-1.37509E+03
 -1       545-1.23440E+04-9.89552E+00 1.15840E+01 8.03317E+00 2.08370E-01 2.37884E+03
 -1       546 5.81021E+03-4.85848E+00-7.98817E-01 1.97647E+01-4.96949E+00 2.92695E+03
 -1       547 7.60038E+01-4.80969E+00-5.10217E+00 9.09502E+00 4.29702E+00 4.75576E+02
 -1       548-2.17982E+04 3.54122E+01 3.04663E+01 4.73635E+01 1.37979E+01 2.52492E+03
 -1       549 1.76682E+02-1.00300E+01-9.63340E+00 7.26294E+00 5.97888E+00 6.89012E+02
 -1       550 1.09332E+04 1.51087E+01-2.23177E+01 5.30407E+01-1.99340E+01 3.25766E+03
 -1       551 9.43659E+02 2.93289E+00-6.86287E+00 1.66356E+01-3.62111E+00 1.46575E+03
 -1       552 1.30869E+03-2.39190E+00-1.21353E+01 2.23810E+01 4.93289E+00 1.63053E+03
 -1       553 2.66257E+03-1.67622E+01-7.66176E+00 2.40462E+01 1.77017E+00 2.21779E+03
 -1       554 7.13151E+02-6.69322E+00-1.93558E+00 1.82246E+01 1.20739E+01 1.29836E+03
 -1       555 3.97718E+03-1.54032E+01 9.25486E+00 4.05112E+01 1.25078E+01 2.57413E+03
 -1       556 2.29143E+03-4.29394E+00 3.97873E+00 2.33967E+01 5.53628E+00 2.10658E+03
 -1       557 3.04829E+03 1.52710E+01-2.16395E+01 3.56891E+01-1.13247E+01 2.35605E+03
 -1       558 3.46291E+03-1.70639E+01 7.86817E+00 2.70051E+01 4.66408E+00 2.44760E+03
 -1       559 3.16438E+02-6.79760E-01-1.06174E+01 1.24678E+01-4.72161E-01 8.99549E+02
 -1       560 5.17062E+02 2.40655E+00-8.68035E+00 9.44562E+00 4.05222E+00 1.09164E+03
 -1       561 1.57299E+03-8.43400E+00 1.95507E+01 1.41949E+01 1.22082E+01 1.81784E+03
 -1       562 4.40081E+03 1.33089E+01 6.01656E+00 3.41823E+01-1.36130E+00 2.64807E+03
 -1       563 5.33185E+03 9.32955E+00-4.55160E+01 2.81637E+01 8.17527E+00 2.86118E+03
 -1       564 1.03494E+04-1.63238E+01-6.74580E+00 3.50547E+01 7.16596E+00 3.18526E+03
 -1       565 9.82328E+03 9.75326E+00 1.61278E+01 4.85460E+01-1.23857E+01 3.19023E+03
 -1       566 8.60525E+03 1.02377E+01-1.07816E+01 2.37467E+01 6.12364E+00 3.16536E+03
 -1       567 8.05093E+03 1.03499E+01-7.40500E+00 3.24139E+01-9.15349E-01 3.13043E+03
 -1       568 9.33695E+03 2.17693E+00 1.57165E+01 3.61844E+01 5.88387E+00 3.18036E+03
 -1       569 7.57624E+03 4.83373E+00 1.28216E+01 4.34514E+01-4.87067E+00 3.06284E+03
 -1       570 1.89300E+03-9.67323E-01 2.93262E+00 1.79176E+01-3.29082E+00 1.96536E+03
 -1       571 4.86084E+03-1.35664E+01 3.89036E+00 4.30506E+01 9.35029E+00 2.72236E+03
 -1       572 7.09331E+03-7.05226E-01 1.96297E+01 3.58725E+01 8.52812E+00 3.02460E+03
 -1       573-1.14754E+04-6.38416E-02 1.25015E+01-1.89222E+01 2.07782E+00 2.36481E+03
 -1       574 1.21750E+04-1.87180E+01 2.39287E+01 4.51202E+01-7.09973E-01 3.18598E+03
 -1       575 3.80543E+01 3.81413E+00-1.90616E+01 7.12441E-01-1.53233E-02 1.83784E+02
 -1       576 4.88058E+04-4.89487E+02-6.43643E+02-6.40557E+02-5.40196E+02 8.40642E+02
 -1       577-1.50356E+02-1.08092E+01 3.66477E+01-7.16915E+00 3.98469E+00 2.86134E+02
 -1       578 1.33696E+04-5.44260E+01 9.02277E+02 1.51409E+01-8.89220E+02 1.07079E+03
 -1       579-3.59528E+04 3.07764E+03 2.67096E+03 1.03902E+02-5.56900E+02-2.00314E+03
 -1       580 6.37047E+04-4.63906E+03-1.29890E+03-2.48263E+02-7.38251E+02-2.29040E+02
 -1       581 7.28809E+01 3.04267E+00-3.79507E+01-9.47429E-01 2.34806E+00 8.88650E+01
 -1       582-6.44224E+01-3.89149E+00 3.04561E+01-5.06412E+00 9.45642E-01 8.96376E+01
 -1       583 2.18670E+01-3.76147E+00-9.01677E+00 3.46842E+00 1.65491E+00 3.23152E+02
 -1       584-3.25146E+04 3.63062E+02-2.54076E+03-4.33291E+03-6.84368E+02-5.21283E+03
 -1       585-5.79312E+04-7.69014E+03-7.24621E+03-8.47382E+03 1.02253E+03 7.32071E+02
 -1       586-4.67561E+04 1.54095E+03 2.05778E+03 6.74339E+02-4.90286E+02-2.53251E+03
 -1       587 8.85365E+04 1.04527E+04 1.24067E+04 1.02255E+04 1.80530E+03 4.99534E+03
 -1       588 6.13988E+04 2.26545E+03 8.87464E+03 7.25901E+03-6.46675E+02-2.62903E+03
 -1       589 7.27994E+04-2.07509E+03-2.04412E+03-1.16752E+03-7.77864E+02-1.84727E+03
 -1       590-3.38322E+01-8.77385E+00 1.75069E+01-3.99796E+00 1.02729E-01 2.60648E+01
 -1       591-2.84533E+01-3.60520E-01 5.70966E+01-2.83036E+00-1.39137E+00 4.77392E+01
 -1       592-7.45443E+01-2.76553E+00 1.99245E+01-7.36820E+00-2.47538E+00 4.86905E+01
 -1       593 2.79263E+01 3.21335E+00-5.24777E+01-9.21731E-01 8.91674E-02 4.62719E+01
 -1       594 3.04078E+01 7.06540E+00-2.02804E+01-6.11238E-01 8.14368E-01 2.84268E+01
 -1       595 9.43796E+01 2.96490E+00-2.31687E+01 1.97937E+00-1.57848E+00 4.76071E+01
 -1       596 4.69219E+04 7.06243E+03 1.18652E+04 6.96530E+03-1.23345E+03-3.43499E+03
 -1       597 2.52781E+04 2.83730E+03 4.26941E+03 2.77781E+03-5.02329E+02-4.97123E+03
 -1       598 4.90788E+04-4.96702E+03 1.06123E+03-3.86071E+02-3.24311E+02-9.69625E+02
 -1       599 5.32814E+03 3.53557E+03 3.76120E+03 1.59151E+03-8.82098E+02-5.75351E+03
 -1       600-1.80214E+04-3.48620E+03-4.04168E+03-3.77534E+03-9.36654E+02-4.88033E+03
 -1       601 1.33164E+04 4.13754E+01 1.57016E+03 6.33846E+02-6.14810E+02-1.54670E+03
 -1       602-2.16021E+04 2.86915E+03 1.78285E+03 3.41622E+02-2.06241E+01-2.06355E+03
 -1       603 1.18310E+01 4.28625E+00-1.04696E+01-4.54176E-01 2.34170E+00 1.07407E+02
 -1       604 1.91096E+01 4.44459E+00-4.75939E+01 1.06076E-02 7.92560E-01 9.31913E+01
 -1       605 4.64633E+01-2.44846E+00-3.50728E+01-5.93997E-01-9.55157E-02 1.37374E+02
 -1       606-2.45725E+01-2.31265E+00 3.84970E+01 4.91672E-01-1.07621E+00 9.23790E+01
 -1       607-1.05749E+01-2.01040E+00 4.32112E+00-2.53654E+00 2.33317E+00 1.07825E+02
 -1       608 1.62637E+00-1.43763E+00-8.24829E+00 1.87902E+00-2.16474E+00 1.95185E+02
 -1       609-4.02462E+01 1.11799E+00 2.68181E+01-6.60650E-01 1.64829E+00 1.39061E+02
 -1       610 6.70621E+04-5.52179E+02-5.77634E+02-6.17628E+02-2.94599E+02 3.50897E+02
 -1       611 6.68240E+04-9.62385E+00-1.67166E+02-1.90897E+02 1.73638E+02-2.52535E+02
 -1       612 5.47548E+04-1.83877E+02-6.80809E+02-4.88818E+02-5.33026E+02-3.43327E+02
 -1       613 6.62086E+04-6.54678E+01-1.24526E+02-1.09172E+02-4.63290E+01 1.18521E+03
 -1       614 6.72376E+04-5.42106E+01-1.29826E+02-1.38547E+02 2.50935E+01 9.68570E+02
 -1       615 4.86161E+04-7.37009E+01-1.98308E+02-2.95507E+02-2.26749E+02 1.54415E+03
 -1       616 6.37904E+04 6.64048E+01-3.01933E+01-3.40861E+01-3.51233E+01 1.32997E+03
 -1       617 6.54606E+04 1.42018E+01-5.45527E+01 6.08659E+00 1.34511E+00 1.29081E+03
 -1       618 4.76648E+04 5.04971E+01-1.34505E+01-5.56337E+01-3.73899E+01 2.24350E+03
 -1       619 6.09767E+04-5.02835E+01-2.18364E+01-6.22452E+00 3.18184E+01 1.38041E+03
 -1       620 6.27734E+04-1.34067E+01 1.03298E+01-2.60871E+01-2.33361E+01 1.41400E+03
 -1       621 4.59538E+04 2.77437E+01-1.04286E+01-6.06323E+00-5.12560E+01 2.48006E+03
 -1       622 5.79592E+04 2.68496E+01-1.26902E+01-2.45139E+01 2.63135E+01 1.40813E+03
 -1       623 5.98234E+04 2.53611E+01-3.12823E+01 2.60598E+01-1.28417E+01 1.37735E+03
 -1       624 4.38380E+04-5.05986E+00 9.33263E+00 4.22773E+01 1.72948E+01 2.51327E+03
 -1       625 5.48416E+04-2.17191E+01 2.40287E+01 3.27358E+01 6.06729E+00 1.35119E+03
 -1       626 5.67596E+04-5.84078E+01 2.40865E+01-6.73688E+00 1.40640E+01 1.38202E+03
 -1       627 4.15849E+04-3.88403E+01-1.80664E+01 1.03276E+01 3.29468E+01 2.52871E+03
 -1       628 5.18678E+04 5.96205E+00 2.76204E+01 2.50159E+00-1.28287E+00 1.39554E+03
 -1       629 5.36589E+04 9.26753E+00 1.23140E+01 5.92127E+00-4.68203E+00 1.40768E+03
 -1       630 3.93017E+04-1.86387E+01-5.36312E+01 6.30257E+01-1.39266E+01 2.51984E+03
 -1       631 4.88376E+04 6.04330E+01-2.92129E+01-1.71015E+01-1.40881E+01 1.38664E+03
 -1       632 5.07490E+04 5.24618E+01 1.41917E+01 1.73773E+01-2.34937E+01 1.36360E+03
 -1       633 3.70803E+04-2.72526E+01 4.15514E+01 5.76903E+01 6.26351E+00 2.50849E+03
 -1       634 4.58275E+04 1.08939E+01-7.51114E+00-1.48963E+01 1.58943E+01 1.36548E+03
 -1       635 4.76983E+04-4.23190E+00 1.87474E+01-2.62944E+01-3.11243E+01 1.38564E+03
 -1       636 3.49071E+04 2.26537E+01-1.48788E+01 4.53967E+00-3.62316E+01 2.49697E+03
 -1       637 4.29237E+04-1.93786E+01 1.49190E+01-1.27239E+00 8.05028E+00 1.32201E+03
 -1       638 4.47036E+04 2.66328E+00-2.47759E+00-1.01365E+01-8.79690E+00 1.36905E+03
 -1       639 3.27674E+04 1.00610E+01-7.40436E+00 2.82057E+01-1.79083E+01 2.49777E+03
 -1       640 4.00503E+04 2.18093E+01 1.54952E+01-1.88186E+00-3.96796E+00 1.33425E+03
 -1       641 4.17908E+04 1.68711E+01-7.79109E+00 3.44049E+01-3.54958E+00 1.35823E+03
 -1       642 3.06660E+04-4.32062E+01 1.27904E+01 5.73629E+01 2.25380E+01 2.43363E+03
 -1       643 3.71449E+04 5.77072E+01-3.52727E+01-1.40870E+01-1.24977E+01 1.32001E+03
 -1       644 3.89714E+04 5.06333E+01 6.99264E+00 1.80300E+01-2.27652E+01 1.30183E+03
 -1       645 2.85490E+04-3.74549E+01 2.53109E+01 4.70016E+01 6.92940E+00 2.39725E+03
 -1       646 3.43419E+04-4.54782E+01-7.67857E+00 1.93196E+01 2.48557E+01 1.29274E+03
 -1       647 3.61053E+04-1.90415E+01 2.04258E+01-2.54345E+01-2.94968E+01 1.31981E+03
 -1       648 2.65584E+04 3.12582E+01-8.74007E+00-6.50269E-01-3.50872E+01 2.37204E+03
 -1       649 3.16099E+04-3.55250E+00-2.15386E+01-1.47500E+01 1.13519E+01 1.27287E+03
 -1       650 3.32783E+04 2.18627E+01-3.34196E+01-3.05005E+00-3.27440E+00 1.24229E+03
 -1       651 2.45333E+04 1.68176E+01-4.73803E+01 3.94901E+01-1.00995E+01 2.31511E+03
 -1       652 2.89349E+04 5.51928E+00-2.90254E+01-2.54474E+01 3.36751E+01 1.24104E+03
 -1       653 3.06326E+04-8.70941E+00-9.55717E+00-1.46697E+01-1.32945E+01 1.23140E+03
 -1       654 2.25838E+04-1.20944E+01-2.84422E+01 2.34646E+01 1.65508E+01 2.29265E+03
 -1       655 2.61864E+04-1.51590E+01 1.65342E+01 2.80545E+01 2.40674E+00 1.16492E+03
 -1       656 2.78443E+04-5.42381E+01 1.12506E+01-9.11368E+00 1.59024E+01 1.20168E+03
 -1       657 2.05811E+04-3.40541E+01-2.34165E+01 9.55590E+00 3.11138E+01 2.21616E+03
 -1       658 2.37029E+04 9.68121E+00 1.18511E+01 2.00838E+00-1.79157E+00 1.17464E+03
 -1       659 2.52232E+04 9.84652E+00 1.47550E-02 4.63226E+00-4.06755E+00 1.19087E+03
 -1       660 1.86292E+04-1.58217E+01-6.07177E+01 6.05353E+01-1.30114E+01 2.14718E+03
 -1       661 2.11804E+04 4.85956E+01-3.91782E+01-7.83031E+00-5.73753E+00 1.13974E+03
 -1       662 2.27658E+04 4.64236E+01 5.86043E-01 1.48459E+01-1.93217E+01 1.12625E+03
 -1       663 1.67871E+04-2.55118E+01 1.25615E+01 5.17278E+01 8.12915E+00 2.09270E+03
 -1       664 1.87735E+04-4.29849E+01-3.25506E+01-4.35973E+00 2.61641E+01 1.07937E+03
 -1       665 2.02231E+04-1.17455E+01-3.26089E+00-1.54885E+01-1.75255E+01 1.12317E+03
 -1       666 1.49976E+04 2.59007E+01-1.98259E+01 4.92295E+00-2.26839E+01 2.02922E+03
 -1       667 1.65256E+04-3.95229E+00-2.56101E+01-1.42875E+01 2.28763E+01 1.05272E+03
 -1       668 1.79259E+04 2.48629E+01-2.87205E+01 1.63082E+01-4.22426E+00 1.03299E+03
 -1       669 1.32984E+04-6.38920E+00-5.07826E+01 2.85190E+01 7.53451E+00 1.93057E+03
 -1       670 1.42960E+04-3.00126E+01-2.45768E+01 1.08341E+01 1.85989E+01 9.69750E+02
 -1       671 1.56751E+04-4.59767E+01 2.88114E+00-1.05123E+01 9.58984E+00 1.00174E+03
 -1       672 1.16592E+04-4.49739E+01-4.13662E+01-5.06409E-01 2.99799E+01 1.84379E+03
 -1       673 1.22748E+04 2.17401E+01-1.23106E+01-4.92300E+00-1.68132E+00 9.31294E+02
 -1       674 1.35400E+04 7.86699E+00-2.69099E+01-7.40040E+00-2.18108E-01 9.32895E+02
 -1       675 1.00900E+04 1.56952E+01-6.73786E+01 3.09389E+01-4.55915E+00 1.74188E+03
 -1       676 1.03779E+04-1.18635E+01-2.38589E+01-8.88542E+00 1.60914E+01 8.70125E+02
 -1       677 1.15334E+04 1.29209E+01-1.29958E+01-1.40271E+01-1.02225E+01 8.86839E+02
 -1       678 8.62859E+03 2.27399E+00-3.61560E+01 2.11404E+01-1.29449E+01 1.65923E+03
 -1       679 8.55872E+03 2.04651E-01-8.63164E+00 6.00739E+00 4.12472E+00 7.94610E+02
 -1       680 9.68349E+03-2.17592E+01-1.80573E+01-1.10125E+01 4.41426E+00 8.15583E+02
 -1       681 7.27004E+03-5.63729E+00-3.22318E+01 1.89101E+01 1.69242E+01 1.54657E+03
 -1       682 6.95783E+03 8.25224E+00-2.37071E+01-8.69571E+00 9.28345E+00 7.53889E+02
 -1       683 7.92828E+03 2.69112E+01-1.05819E+01-7.11864E+00-1.28657E+01 7.52907E+02
 -1       684 6.00105E+03 6.42588E+00-5.43831E+01 2.53806E+01-6.47693E+00 1.40335E+03
 -1       685 5.43157E+03-1.10905E+00-3.10526E+01-1.35513E+01 1.60427E+01 6.71396E+02
 -1       686 6.35700E+03-2.10984E+00-2.05289E+01-6.70266E+00-1.02272E+00 6.80669E+02
 -1       687 4.80625E+03-1.02698E+01-5.11601E+01 1.08234E+01 6.14774E+00 1.30082E+03
 -1       688 4.09201E+03 1.75721E+00-3.21628E+01-9.47385E+00 6.37934E+00 5.82296E+02
 -1       689 4.92336E+03-7.21365E+00-1.15097E+01-1.21873E+01 2.19250E+00 6.01881E+02
 -1       690 3.75731E+03-7.62300E+00-4.82190E+01 3.78987E+00 1.62940E+01 1.15735E+03
 -1       691 2.92743E+03-1.37505E+00-1.68315E+01 7.16329E+00 3.81117E+00 4.99174E+02
 -1       692 3.64143E+03-5.68748E+00-2.23987E+01-1.10784E+01 4.34953E-01 5.27769E+02
 -1       693 2.81570E+03-9.03979E+00-5.49574E+01 5.69001E+00-4.20709E+00 1.01257E+03
 -1       694 1.98746E+03 6.04191E+00-3.15962E+01-4.59370E+00 1.00738E+01 4.35044E+02
 -1       695 2.54693E+03 2.11620E+01-1.91858E+01-1.59110E+00-7.42958E+00 4.43850E+02
 -1       696 2.01752E+03 2.04633E+00-6.19797E+01 1.85564E+01-3.24922E+00 8.53532E+02
 -1       697 1.16056E+03 4.24266E+00-2.47114E+01 3.33448E+00 1.25080E+00 3.24388E+02
 -1       698 1.65540E+03-1.61788E+01-2.69173E+01-1.47582E+00 1.02051E+01 3.50517E+02
 -1       699 1.31980E+03-1.66022E+01-5.69001E+01 4.33341E+00 1.07050E+01 7.08211E+02
 -1       700 5.86961E+02 1.06799E+01-2.44518E+01-3.16872E+00 1.32755E-01 2.36291E+02
 -1       701 9.26734E+02 8.83896E+00-2.29606E+01-3.65921E+00 3.18446E+00 2.65876E+02
 -1       702 7.82991E+02-1.20151E+01-7.28394E+01 1.69630E+01 1.12383E+00 5.35236E+02
 -1       703 1.93350E+02 1.23487E+01-2.51174E+01-3.74169E-01 1.05500E+00 1.38761E+02
 -1       704 3.98415E+02 9.85281E+00-2.62863E+01 1.65475E+00-6.13025E-01 1.69937E+02
 -1       705 3.75859E+02-1.06227E+01-5.04061E+01 1.05860E+01 5.82637E+00 3.62737E+02
 -1       706 1.44768E+02 1.16094E+00-4.82022E+01-3.19645E+00 1.45581E+00 1.81609E+02
 -1       707-3.99548E+04 2.47172E+02 7.83158E+02 9.45925E+01 3.64625E+01-6.47583E+02
 -1       708-4.04253E+04 6.27229E+02 7.76443E+02 6.26176E+02-2.44856E+02 2.76531E+02
 -1       709-2.75829E+04 1.99202E+02 1.74033E+03 5.29456E+02-4.54634E+02-1.22039E+03
 -1       710-4.13375E+04 3.21532E+01 1.68664E+02 1.69553E+02 6.31413E+00 9.58886E+02
 -1       711-4.06720E+04 1.80741E+01 1.39222E+02 2.25583E+02-6.20000E+01 1.22900E+03
 -1       712-2.21493E+04 7.14844E+01 4.10738E+02 2.73842E+02-1.46235E+02 1.49659E+03
 -1       713-4.03895E+04 1.16308E+01 2.61641E+01 1.42957E+02 5.36341E+00 1.36174E+03
 -1       714-3.92490E+04-1.41116E+01 4.77409E+01 1.27898E+02-1.07694E+01 1.43002E+03
 -1       715-2.22748E+04-1.84376E+01 9.87304E+01 1.29719E+02-2.08584E+01 2.37532E+03
 -1       716-3.91513E+04 2.74715E+01-1.70114E+01 1.19868E+02 2.94357E+00 1.45690E+03
 -1       717-3.78347E+04 4.35589E+01-2.99885E+01 3.58183E+00 8.26048E+00 1.43343E+03
 -1       718-2.18738E+04-3.89696E+00-9.81478E+00 8.42439E+01-2.41038E+01 2.58408E+03
 -1       719-3.72472E+04-6.78121E+01-2.49221E+01 4.88919E+01-2.56986E+01 1.45079E+03
 -1       720-3.59639E+04-3.41950E+01 8.76672E+00 9.58504E+01 4.68723E+00 1.48314E+03
 -1       721-2.11381E+04-2.57745E+00 4.27900E+01-1.31840E+01-1.58240E+01 2.57041E+03
 -1       722-3.51143E+04 5.16960E+01-4.93676E+00 7.44292E+01 9.00698E+00 1.46520E+03
 -1       723-3.38237E+04 3.24622E+01-1.75071E+01 9.95205E+00 5.47331E+00 1.44612E+03
 -1       724-1.97912E+04-1.46585E+01-1.58619E+00 3.82390E+01 9.14153E+00 2.63237E+03
 -1       725-3.32581E+04-6.99951E+01-1.81086E+01 4.10624E+01-3.00717E+01 1.46189E+03
 -1       726-3.19832E+04-3.76261E+01 1.69237E+01 9.53800E+01 1.38433E+01 1.50134E+03
 -1       727-1.85314E+04 2.34060E+00 4.46237E+01-2.01627E+01-2.50094E+01 2.59246E+03
 -1       728-3.14172E+04 6.27419E+01-3.04329E+01 9.83923E+01 2.72075E+01 1.45758E+03
 -1       729-3.00059E+04 7.48514E+01 3.97772E+01 2.74639E+01 2.67536E+01 1.44077E+03
 -1       730-1.75634E+04 5.18618E+00-1.40054E+01 7.40218E+01 4.49907E+01 2.60156E+03
 -1       731-2.94727E+04 3.44445E+00 4.54805E+01 1.91244E+01 2.10655E+01 1.44365E+03
 -1       732-2.83026E+04 8.98958E+00-2.90098E+01-1.19443E+01-4.58772E+00 1.44165E+03
 -1       733-1.63828E+04 1.14787E+01 7.86845E+01-7.78563E-01-7.27926E+00 2.56296E+03
 -1       734-2.77253E+04-6.28516E+01-2.34969E+01 3.88617E+01-2.18631E+01 1.42868E+03
 -1       735-2.64701E+04-2.47980E+01 1.08448E+01 8.02603E+01 7.67008E+00 1.44768E+03
 -1       736-1.54801E+04-1.00025E-01 3.49354E+01-3.00637E+01-1.05531E+01 2.54207E+03
 -1       737-2.59279E+04-2.92627E-01-3.72659E+00 7.35796E+01-5.91869E+00 1.39763E+03
 -1       738-2.46433E+04-1.36370E+01 2.39735E+01 9.50277E+01 2.01126E+01 1.41648E+03
 -1       739-1.44418E+04-1.55641E+01 1.44027E+01 2.51195E+01 9.93780E+00 2.55506E+03
 -1       740-2.41362E+04 5.63469E+01-2.83429E+01 9.94914E+01 2.87320E+01 1.39136E+03
 -1       741-2.28024E+04 6.73422E+01 3.75611E+01 2.37076E+01 2.43014E+01 1.37790E+03
 -1       742-1.35653E+04 6.84344E+00-1.04242E+01 6.65767E+01 4.46028E+01 2.48798E+03
 -1       743-2.25215E+04-2.81417E+01 2.31730E+01 3.51279E+01 8.78963E+00 1.34496E+03
 -1       744-2.13238E+04-2.84622E+01-5.09949E+00 5.99140E+01-1.30037E+01 1.33670E+03
 -1       745-1.26375E+04 4.46456E-01 7.42478E+01 8.21133E+00-6.70213E+00 2.41998E+03
 -1       746-2.08137E+04-1.07012E+01-3.92434E+00 6.55405E+01-1.55475E+01 1.32233E+03
 -1       747-1.96274E+04 1.84395E+01 1.72613E+01 6.57911E+01 1.44615E+01 1.30705E+03
 -1       748-1.19149E+04 1.16658E+01 2.06371E+01 9.05346E+00-1.71120E+01 2.40132E+03
 -1       749-1.90619E+04 2.20692E+01-2.90247E+00 7.22156E+01 7.33222E+00 1.29869E+03
 -1       750-1.78621E+04 3.41284E+01 2.16955E+01 2.75240E+01 1.10601E+01 1.28981E+03
 -1       751-1.09894E+04-1.96052E+01-7.93420E+00 5.11265E+00 2.12203E+01 2.35501E+03
 -1       752-1.72954E+04-3.76058E+01 2.81770E+01 2.03614E+01-5.81056E+00 1.25445E+03
 -1       753-1.62086E+04-1.52185E+01 3.92017E+00 5.54626E+01 6.37169E+00 1.26741E+03
 -1       754-9.84910E+03-2.03584E+01 3.73032E+01-2.15210E+01-2.10270E+01 2.27641E+03
 -1       755-1.56809E+04 1.05443E+00 8.37656E+00 7.05109E+01 7.40200E-01 1.22841E+03
 -1       756-1.45596E+04 1.93223E+00 2.80275E+01 7.70940E+01 1.26395E+01 1.22933E+03
 -1       757-8.87067E+03-5.46230E+00 2.28138E+01 1.02045E+01 2.25722E+01 2.24555E+03
 -1       758-1.41160E+04 3.74097E+00-1.00910E+01 7.10808E+01 6.08616E+00 1.17704E+03
 -1       759-1.30199E+04-2.00883E+01 3.30641E+01 6.86380E+01 4.36867E+00 1.17648E+03
 -1       760-7.95157E+03-1.70195E+01 4.82058E+00 2.58439E+01 2.48479E+01 2.17671E+03
 -1       761-1.26047E+04 1.46942E+01 9.13285E+00 6.02578E+01 3.88445E+00 1.15701E+03
 -1       762-1.15949E+04 3.20269E+01-7.89086E+00 1.25444E+01 5.45887E+00 1.11732E+03
 -1       763-7.09318E+03 1.05449E+01 2.51574E+01 2.18095E+01-1.82883E+01 2.09965E+03
 -1       764-1.11823E+04-6.76312E+01 4.10379E-01 1.85728E+01-1.66723E+01 1.10365E+03
 -1       765-1.01582E+04-1.99926E+01 4.26662E+01 8.62771E+01 2.67216E+00 1.11111E+03
 -1       766-6.36519E+03-1.76661E+00-1.05883E+01-2.25508E+01 1.19180E+01 1.98406E+03
 -1       767-9.78536E+03 8.92650E+00-1.12493E+01 6.75054E+01 3.02948E-01 1.04254E+03
 -1       768-8.81653E+03-7.75447E+00 3.03415E+01 6.29500E+01-9.66160E-01 1.01719E+03
 -1       769-5.48512E+03 8.85125E+00 4.40340E+01 5.54993E+01 5.26965E+00 1.91618E+03
 -1       770-8.45139E+03-7.01513E+00-2.84775E-01 6.56786E+01-4.58210E+00 9.88567E+02
 -1       771-7.55448E+03-9.22989E+00 1.82350E+01 5.63210E+01 4.48184E+00 9.66323E+02
 -1       772-4.79387E+03 1.04394E+01 3.98401E+01 2.46231E+01-1.50704E+01 1.81351E+03
 -1       773-7.20501E+03 3.93425E+00 1.38777E+01 4.91446E+01 1.67822E-01 9.33384E+02
 -1       774-6.39752E+03 1.93431E+01 3.34227E+00 1.80176E+01 2.32086E+00 8.97676E+02
 -1       775-4.10509E+03 7.94177E+00 3.25018E+01 8.66933E+00-1.40557E+01 1.71505E+03
 -1       776-6.05719E+03-4.70005E+01 8.86663E+00 1.16636E+01-1.44969E+01 8.69819E+02
 -1       777-5.30334E+03-2.79509E+01 2.60439E+01 5.56958E+01 1.20154E+01 8.67287E+02
 -1       778-3.48309E+03 4.53555E+00 1.51969E+01-2.18454E+01 1.01938E+01 1.57896E+03
 -1       779-4.99208E+03 2.45055E+01-1.00572E+01 5.95795E+01 1.83434E+01 7.93132E+02
 -1       780-4.22289E+03 2.95650E+01 2.68204E+01 1.24695E+01 1.31552E+01 7.68308E+02
 -1       781-2.90422E+03 7.50181E+00 2.79720E+01 4.14689E+01 2.96938E+01 1.46653E+03
 -1       782-3.94578E+03-1.37463E+01 3.48065E+01 2.10188E+00 6.83935E+00 7.23284E+02
 -1       783-3.36314E+03-2.20434E+00 1.21502E+00 2.28687E+00-6.74657E+00 6.95195E+02
 -1       784-2.26786E+03 2.76290E+00 7.11709E+01 2.61620E+00-1.01571E+01 1.32099E+03
 -1       785-3.11546E+03-3.78726E+01 7.63147E+00 1.26636E+01-7.63050E+00 6.38971E+02
 -1       786-2.55214E+03-2.66492E+01 3.43863E+01 3.81794E+01 1.97395E+00 6.27119E+02
 -1       787-1.83493E+03 9.81807E-01 1.19797E+01-9.33917E+00 1.65122E+01 1.18490E+03
 -1       788-2.33308E+03 5.18725E+00 1.17536E+01 4.35513E+01 6.91242E+00 5.54456E+02
 -1       789-1.81049E+03 6.85434E+00 1.32446E+01 3.16372E+00 1.56816E+00 5.23230E+02
 -1       790-1.38449E+03 2.68907E+00 4.40332E+01 2.95849E+01-1.52900E+00 1.05070E+03
 -1       791-1.63422E+03-2.99406E+01 1.06984E+01 1.68798E+01-5.81482E+00 4.69879E+02
 -1       792-1.23840E+03-1.59658E+01 2.65592E+01 2.67733E+01 3.95280E+00 4.55881E+02
 -1       793-9.94215E+02-1.69552E+00 6.41773E+01-3.38281E+00-4.08357E+00 8.75373E+02
 -1       794-1.07945E+03-8.70934E-01 1.35855E+01 2.44286E+01 2.02576E+00 3.75480E+02
 -1       795-7.36455E+02 4.72444E+00 2.43672E+01 8.94218E+00 3.95344E+00 3.46466E+02
 -1       796-6.84627E+02-8.32484E+00 4.30356E+01 1.47960E+01 5.90794E+00 7.37234E+02
 -1       797-6.09340E+02-1.32809E+01 3.07733E+01 9.84967E-01-9.17200E-01 2.80954E+02
 -1       798-4.03079E+02-1.08213E+01 1.82063E+01-1.02725E+00 5.64707E+00 2.46879E+02
 -1       799-4.32937E+02-2.65357E+00 5.46663E+01 4.84160E+00-4.56016E+00 5.54900E+02
 -1       800-2.68638E+02-1.13328E+01 3.08188E+01-5.47685E+00-2.27193E+00 1.74504E+02
 -1       801-1.55659E+02-1.40415E+01 1.51655E+01-5.23027E+00 3.61806E-01 1.40362E+02
 -1       802-2.34584E+02-6.86702E+00 3.94626E+01-5.02179E+00 6.10908E+00 3.76480E+02
 -1       803-1.24268E+02-8.15874E+00 3.48018E+01-4.47571E+00 7.80765E-01 1.81269E+02
 -1       804 4.23609E+03-7.49770E+00-3.10078E+01 3.31056E+01 2.00727E+00 1.73852E+03
 -1       805 4.91688E+03 3.93693E-02-1.64547E+01 3.92005E+01 4.68278E+00 1.82568E+03
 -1       806 5.10502E+03-8.34669E+00-2.38275E+01 3.81318E+01-6.13850E+00 1.88699E+03
 -1       807 5.81114E+03-1.30131E+00-2.94404E+00 4.04879E+01 8.80907E+00 1.92928E+03
 -1       808 2.07649E+03-1.44519E+01 7.06150E+00 1.32031E+01 2.26654E+00 2.05773E+03
 -1       809 2.12320E+03-4.50277E+00-2.11592E+01 2.41768E+01 1.59833E+01 1.29693E+03
 -1       810 2.62045E+03 2.02702E+00-1.50567E+01 2.42547E+01-2.31315E+00 1.38755E+03
 -1       811 1.55607E+03-3.35456E+00-3.77227E+01 2.05709E+01 8.96093E+00 1.13717E+03
 -1       812 1.99792E+03 9.76409E-01-3.35196E+01 2.33403E+01 5.31261E+00 1.19897E+03
 -1       813 8.26131E+02 5.79898E+00-1.67682E+01 1.57399E+01 6.28432E+00 1.37131E+03
 -1       814-1.81855E+02-1.40706E+01 2.13096E+01-1.82955E-01 5.67625E+00 6.83965E+02
 -1       815-8.86388E+01-1.81506E+00 1.61821E+01 7.36441E+00 5.81973E+00 5.92497E+02
 -1       816-1.44638E+02-8.15432E+00 1.67697E+01 1.97488E+00 1.00996E+01 4.89185E+02
 -1       817 1.18635E+02-8.54952E+00-8.28135E+00 9.63847E+00 5.42451E+00 5.90014E+02
 -1       818-4.46741E+01-5.73574E+00 1.47544E+01-1.99686E+00 3.00027E+00 3.85045E+02
 -1       819 7.98615E+03-1.56586E+01-1.22414E+01 3.93411E+01 4.76233E+00 2.22277E+03
 -1       820 8.83163E+03 1.04188E+01-8.32467E+00 3.86766E+01 1.58282E+01 2.27143E+03
 -1       821 9.06725E+03 8.29949E+00-5.20794E+01 4.25279E+01 6.66861E+00 2.32555E+03
 -1       822 9.89473E+03 2.60023E+01 4.98638E+00 5.12895E+01-2.72761E+01 2.33092E+03
 -1       823 3.75282E+03 4.19425E+00 1.63879E+01 3.14571E+01 4.89270E+00 2.55770E+03
 -1       824-1.39230E+03 9.44462E+00-4.99190E+01 1.77253E+01-9.98781E+00 2.20837E+03
 -1       825-1.07671E+03 1.93381E+01-1.16027E+00-5.88440E+00 2.85857E+00 2.13719E+03
 -1       826-1.21817E+03-2.26182E+01 2.34117E+01-1.74328E+01 8.43104E+00 2.10029E+03
 -1       827-8.97266E+02 7.79198E+00 1.50409E+01-2.35844E+00 4.18509E+00 2.04541E+03
 -1       828 2.84323E+03-1.00771E+01-3.65415E+01 3.38321E+01-1.35242E+01 2.25274E+03
 -1       829-8.15579E+02-2.30157E+01 4.73786E+00 4.86638E-02 1.56262E+01 1.71275E+03
 -1       830-5.71440E+02-3.32172E-02 3.39927E+01 4.43205E+00 3.80100E+01 1.62546E+03
 -1       831-6.10050E+02 3.25665E+00 1.63515E+01 3.73454E+01 1.79567E+00 1.50984E+03
 -1       832-3.90319E+02 4.37711E+00-1.39588E-01 1.99863E+01-1.78271E+01 1.48065E+03
 -1       833 1.42573E+03-2.78795E+01 4.71218E+00 1.68376E+01 1.19496E+01 1.72570E+03
 -1       834-2.52347E+02-9.46383E-01-1.97379E+00-2.11618E-01-7.84979E-01 8.85673E+02
 -1       835-1.35765E+02-1.36876E+00 1.30143E+01-1.85165E+00 5.52978E+00 7.80056E+02
 -1       836-3.21293E+02 7.18000E+00 2.74944E+01 1.99657E+01 3.49109E+00 1.04308E+03
 -1       837-1.66542E+02 9.36799E+00 1.06563E+01-5.08611E+00-6.56268E+00 9.66517E+02
 -1       838 3.88129E+02-6.14937E+00-1.64934E+01 1.22362E+01 2.20848E+00 1.01323E+03
 -1       839-2.22707E+03-2.00508E+01 1.70858E+01-3.73415E+01 4.04602E+01 2.58382E+03
 -1       840-1.71720E+03 9.26105E+00 5.43088E+01-8.79683E+00 2.68551E+00 2.52591E+03
 -1       841-1.99465E+03-1.72843E+01 4.11475E+00-3.42731E+00-8.46964E-01 2.50326E+03
 -1       842-1.61514E+03 2.03887E+01-1.40773E+01-2.81257E+01-6.91707E+00 2.46067E+03
 -1       843 4.67847E+03 1.30426E+01-1.42695E+01 4.41328E+01 1.95422E-01 2.72839E+03
 -1       844 2.70416E+04-2.04382E+01-2.86849E+01 5.10966E+01 1.56455E+01 2.94796E+03
 -1       845 2.82125E+04 1.75286E+01-1.48050E+01 5.71090E+01 2.21765E+01 2.94329E+03
 -1       846 2.68551E+04 5.19411E+00 4.56487E+01 5.10000E+01-3.99704E+00 2.95695E+03
 -1       847 1.11446E+04 5.48549E+00-2.13002E+01 4.42020E+01-6.39756E+00 3.29409E+03
 -1       848 2.57325E+04-3.24153E+01-9.40719E+00 6.77014E+01 3.80422E+01 2.91263E+03
 -1       849 2.29171E+04-1.60913E+00 1.17188E+01 3.86153E+01-8.88149E+00 2.82529E+03
 -1       850 2.39885E+04 1.26317E+01 1.98508E+01 3.40771E+01-1.07400E+00 2.91880E+03
 -1       851 2.42360E+04-1.40784E+01-9.47158E+00 4.32781E+01-2.77479E+01 2.92286E+03
 -1       852 2.53780E+04-1.10647E+01-1.09152E+01 3.14729E+01-1.40507E+00 2.88287E+03
 -1       853 1.00646E+04 1.08180E+01-2.61745E+00 6.06826E+01-1.00449E+00 3.25691E+03
 -1       854-4.92514E+03-3.57341E+01 1.06857E+02 7.44515E+01-9.19798E+01 2.62761E+03
 -1       855-4.59920E+03 3.72373E+01-6.11680E-01-6.55034E+00-6.00442E+01 2.85365E+03
 -1       856 1.24635E+04 7.31451E+00 3.11893E+01 5.16722E+01-3.73436E+01 3.06642E+03
 -1       857-4.88039E+03-2.39932E+01 1.21998E+01 2.55245E+00-2.46282E+01 2.90743E+03
 -1       858-4.79828E+03-1.06613E+01 7.35351E+01 1.89168E+01 1.15719E+00 2.98202E+03
 -1       859 1.75570E+04-5.07503E+00 5.95770E+00 3.74571E+01-5.07480E+00 2.70416E+03
 -1       860 1.86244E+04 2.49623E+01 3.41244E+01 2.01712E+01 7.69993E+00 2.79444E+03
 -1       861 1.88418E+04 1.25069E+00-1.75353E+01 4.94993E+01-3.65906E+00 2.80697E+03
 -1       862 1.99175E+04 2.09799E+01-3.64965E+00 3.85506E+01 7.14290E+00 2.84878E+03
 -1       863 7.77432E+03 1.93295E+01 4.82297E+00 5.10045E+01 6.35457E+00 3.13972E+03
 -1       864 1.48813E+04-1.46313E+01-1.21694E+01 4.07455E+01-1.26361E+01 2.68825E+03
 -1       865 1.59258E+04 1.37048E+01-9.72185E+00 4.67423E+01-9.29014E+00 2.68856E+03
 -1       866 1.46371E+04-1.14704E+01 1.57964E+00 5.43955E+01 1.39977E+01 2.67415E+03
 -1       867 6.01785E+03-2.01865E+01 1.33058E+01 3.25934E+01-5.39481E+00 2.98815E+03
 -1       868 1.37317E+04-1.60355E+01-1.36922E+01 4.90813E+01-4.39580E-01 2.61534E+03
 -1       869 2.15149E+04-1.74440E+01-3.37941E+01 4.44089E+01 1.85659E+01 2.91834E+03
 -1       870 2.26046E+04 2.47861E+01 1.66114E+01 5.63422E+01-4.48357E+01 2.90903E+03
 -1       871 2.01899E+04 4.30515E+00-2.17603E+01 6.52938E+01-1.58913E+01 2.88242E+03
 -1       872 2.12349E+04 1.40007E+01-5.10102E+00 5.50427E+01-9.55653E-01 2.86412E+03
 -1       873 8.87960E+03 8.45233E+00-1.69261E+01 2.00698E+01 3.75647E+00 3.20462E+03
 -1       874-4.23047E+03 9.12192E+01 5.94557E+02 1.73064E+02-4.49746E+02 1.42591E+03
 -1       875-4.30141E+03-4.31375E+01 2.04129E+02 1.67754E+02-3.09091E+02 2.15138E+03
 -1       876-4.22994E+03 1.78238E+02 7.87727E+02 3.41044E+02-6.65457E+02 8.06731E+02
 -1       877 1.35242E+04-9.00347E+01 6.53166E+02 8.52316E+00-7.39822E+02 1.60203E+03
 -1       878-1.22104E+04 1.11874E+03 2.34168E+03 5.30500E+02-9.86988E+02-5.35665E+02
 -1       879 4.96172E+03 6.48220E+02 1.14935E+03 5.37281E+02-1.00606E+03-4.30282E+02
 -1       880 2.97975E+04-8.29030E+00-2.27673E+01 1.20967E+01-6.85982E+01 2.73466E+03
 -1       881 3.06560E+04 6.94168E+01-2.73292E+01-2.62682E+01-7.86633E+01 2.54746E+03
 -1       882 3.09025E+04 3.89649E+01 6.12775E+01-1.23003E+02-2.96115E+02 2.14073E+03
 -1       883 1.31468E+04-2.03552E+00 6.36910E+01 5.19356E+01-3.24996E+02 2.67528E+03
 -1       884 3.15276E+04-5.25112E+01 6.00975E+01-1.21243E+02-4.78082E+02 1.54497E+03
 -1       885 1.61393E+02-2.21188E+00-2.64564E+01 8.96024E+00 5.64129E+00 3.78467E+02
 -1       886 3.23515E+02-4.06504E+00-3.05790E+01 7.36996E+00 5.28586E+00 4.82551E+02
 -1       887 1.31061E+02-2.69955E-01-2.19696E+01 4.91409E+00 2.13269E+00 3.03640E+02
 -1       888 4.63341E+01-1.88919E+00-5.33491E+00 6.00158E+00 1.79627E+00 3.99524E+02
 -1       889 1.18041E+02-4.24910E+00-3.22061E+01 6.89325E-01 5.77811E+00 2.30049E+02
 -1       890 4.45058E+01 3.08706E+00-1.35752E+01 2.62953E+00 3.06791E+00 2.54389E+02
 -1       891 1.13028E+04 1.29926E+00-1.22326E+01 5.38608E+01-2.87450E+01 2.47976E+03
 -1       892 1.22199E+04 3.26513E+00-7.12689E+00 3.97237E+01-8.30456E+00 2.46710E+03
 -1       893 1.24657E+04-2.16642E+01-5.65592E+01 5.26383E+01 5.40288E+01 2.56962E+03
 -1       894 1.34983E+04 1.01464E+01-2.35137E+01 4.37804E+01 1.99723E+00 2.60257E+03
 -1       895 5.08772E+03 1.97634E+01-4.22747E+01 2.56972E+01 1.79975E+01 2.80605E+03
 -1       896 3.67011E+02-6.12032E+00-2.77337E+01 1.00704E+01 1.21820E+00 5.77139E+02
 -1       897 6.01693E+02-9.24701E+00-2.82322E+01 4.51799E+00 3.98211E+00 6.66554E+02
 -1       898 6.94599E+02-6.37849E+00-2.66529E+01 1.72719E+01 1.30443E+01 7.61823E+02
 -1       899 9.83176E+02-3.27415E+00-1.65598E+01 1.66400E+01 4.28950E+00 8.64334E+02
 -1       900 2.41497E+02-1.01321E+01-1.46308E+01 9.75828E+00-1.61704E+00 7.83868E+02
 -1       901-4.35258E+03-2.40742E+01 1.82563E+01-2.14600E+01 7.93479E+00 2.98772E+03
 -1       902-3.78113E+03 2.38017E+01 1.52589E+01 2.04977E+00-1.56691E+01 2.98509E+03
 -1       903-4.78376E+03 8.15609E+00-6.51604E+01 5.64868E+00-1.05790E+01 3.02383E+03
 -1       904-4.06675E+03 1.62540E+01-2.85808E+01-9.61617E+00-1.40521E+00 2.98824E+03
 -1       905 1.06394E+04-7.92343E+00-2.97636E+01 4.82331E+01-2.13075E+01 3.17882E+03
 -1       906-3.25042E+03-3.20000E+01-4.50207E+01 7.68197E+00 1.47193E+00 2.88600E+03
 -1       907-2.82545E+03-2.07778E+00-1.18591E+01 1.31838E+01 4.11953E+01 2.81470E+03
 -1       908-2.88540E+03 2.59465E+01 4.31003E+01 6.24313E+01 1.41388E+01 2.72535E+03
 -1       909-2.63926E+03 3.61352E+01 2.80130E+01 3.62713E+01-1.05375E+01 2.76698E+03
 -1       910 7.34948E+03-1.52594E+01 5.55030E+01 3.86282E+01-4.26348E+00 2.99674E+03
 -1       911-2.59595E+03-1.91486E+01-4.32966E+01 1.52781E+01 3.47857E+00 2.58604E+03
 -1       912-1.98646E+03 3.88470E+01 6.07058E-02-4.60473E+00-9.78490E+00 2.59895E+03
 -1       913-2.27039E+03 1.55696E+01 3.30427E+01-5.28563E-01-1.47542E+01 2.64161E+03
 -1       914 5.57915E+03-1.90549E+01-1.08386E+01 2.17111E+01-1.39681E+00 2.90473E+03
 -1       915-2.84677E+03-2.12804E+01-9.32506E+00-2.76375E+01 1.34944E+01 2.71496E+03
 -1       916-3.75279E+03 3.15854E+01 4.31685E+01 6.90226E+01 1.19778E+01 2.86217E+03
 -1       917-3.27398E+03 5.11955E+01 2.94698E+01 3.00361E+01-2.03171E+01 2.92230E+03
 -1       918-4.09480E+03-1.40776E+01-3.81100E+01 1.03308E+01 1.44642E-01 3.00756E+03
 -1       919-3.70203E+03 1.65244E+00-1.19968E+01 1.66372E+01 3.99790E+01 2.93691E+03
 -1       920 9.59817E+03-1.55578E+01 4.99420E+01 3.81185E+01-7.49989E+00 3.13806E+03
 -1       921-3.40056E+03-1.61971E+01-6.77327E+00-2.60225E+01 8.10190E+00 2.90727E+03
 -1       922-2.94796E+03 1.42926E+01 7.07713E+00-1.09890E+01-7.72904E+00 2.87171E+03
 -1       923-3.72622E+03-4.21936E+00-2.26756E+01 1.76289E+01 2.23378E+01 2.90703E+03
 -1       924-3.14902E+03 1.89142E+01 8.80664E+00-1.45465E+01-1.45789E+01 2.90280E+03
 -1       925 8.38978E+03 4.08263E+01-1.58179E+01 2.38189E+01 6.22592E+00 3.17827E+03
 -1       926 2.18065E+04-1.61599E+02 1.31281E+03-1.28149E+00-1.10862E+03 1.62474E+02
 -1       927 3.93078E+04-1.09427E+03-3.48764E+02-4.10496E+02-1.24387E+03-8.66898E+01
 -1       928 3.11004E+04-3.11388E+02 2.95851E+02-3.61418E+02-7.00522E+02 1.02075E+03
 -1       929-2.30558E+01-8.78255E+00-4.79644E+00 1.65169E+00 3.81525E+00 2.57609E+02
 -1       930-9.55567E+01-3.72132E+00 1.79899E+01-7.49156E-01 8.28984E+00 2.33778E+02
 -1       931-8.49019E+01-8.85892E+00 3.75382E+00-2.79317E+00 4.97355E+00 3.11020E+02
 -1       932-9.62890E+02-1.51476E+01 1.25505E+01-1.02562E+01 8.95699E+00 1.84623E+03
 -1       933-6.13926E+02-3.65567E+00 1.04321E+01-5.42190E+00 2.40376E+00 1.75758E+03
 -1       934-1.07946E+03-8.19465E+00 1.26622E+01-9.32850E+00 1.01013E+01 1.96457E+03
 -1       935-7.78058E+02 5.95358E+00 2.15770E+01-1.68484E+01-1.51956E+01 1.92270E+03
 -1       936-5.59228E+02-7.44945E+00 5.14492E-01 1.98938E+01 1.16277E+01 1.40754E+03
 -1       937-3.28030E+02 4.44452E+00 2.84325E-01-3.17198E+00 2.46216E+00 1.30234E+03
 -1       938-4.40750E+02-1.60515E+01 1.51742E+01-3.82671E-01 2.43758E-01 1.24040E+03
 -1       939-2.55753E+02-1.02311E+01 3.34738E+01 8.04644E+00 1.23775E+01 1.15849E+03
 -1       940-1.65446E+03-1.57118E+01 2.62839E+01-2.54457E+01 1.47389E+01 2.30051E+03
 -1       941-1.24647E+03-3.42354E+01-2.04702E+01 3.45543E+01 9.53748E-01 2.20417E+03
 -1       942-1.76522E+03-2.73837E+01 1.89321E+01-1.17265E+01-8.94656E+00 2.38605E+03
 -1       943-1.39903E+03-1.04322E+01 6.05886E+01-6.84511E+00-1.28178E+01 2.38467E+03
 -1       944 6.99968E+03-2.18498E+01-2.81775E+01 4.65195E+01 3.07592E+01 2.08450E+03
 -1       945 7.77579E+03-5.50387E+00 9.74994E+00 3.72321E+01 4.17479E-02 2.16350E+03
 -1       946 5.95452E+03-2.21381E+01-1.62611E+01 1.12724E+01-9.60518E-01 1.99266E+03
 -1       947 6.73996E+03-8.46816E+00-1.56348E+01 2.45228E+01 2.04395E+00 2.01354E+03
 -1       948 3.47983E+03-1.88659E+01-2.25562E+01 2.31992E+01-5.97056E+00 1.59009E+03
 -1       949 4.11840E+03 1.55349E+01 6.73745E+00 1.59695E+01-1.88391E+00 1.65472E+03
 -1       950 2.74967E+03-9.91184E+00-5.06445E+01 2.83185E+01 1.12908E+01 1.45110E+03
 -1       951 3.32061E+03-1.33380E+00-2.77070E+01 4.37502E+01 1.46900E+01 1.53781E+03
 -1       952 2.85886E+04 3.66761E+00-4.74952E+01 5.61697E+01-6.84651E+00 2.92389E+03
 -1       953 2.94936E+04 1.59059E+01-3.98613E+00 4.63363E+01-6.65596E+01 2.81801E+03
 -1       954 1.18236E+04 7.87665E+00 2.38568E+01 3.10954E+01-3.66537E+00 3.26302E+03
 -1       955-4.57056E+03 2.33305E+01-2.62761E+01-2.68038E+01-3.02884E+01 2.96171E+03
 -1       956-5.09419E+03 3.03038E+01 1.78972E+01 5.36652E+01-4.80629E+00 2.93833E+03
 -1       957 1.71399E+03 1.31501E+01 1.54116E+00 2.16136E+01 6.55893E+00 1.90474E+03
 -1       958 1.01737E+04 1.11007E+00-1.35569E+01 3.62561E+01-4.00253E-01 2.36017E+03
 -1       959 1.10883E+04 9.76008E+00-1.87383E+01 2.34684E+01 3.31558E+00 2.44110E+03
 -1       960 3.25238E+03 2.30254E+00-5.82435E+00 3.15753E+01-1.85836E+00 2.44341E+03
 -1       961 1.62702E+04-2.05524E+01-4.34470E+01 4.11625E+01 1.70541E+01 2.76679E+03
 -1       962 1.72458E+04 2.38237E+01 1.25218E+01 5.71789E+01-4.28350E+01 2.76618E+03
 -1       963 6.55692E+03 4.92629E+00-2.50842E+01 2.66261E+01 6.45951E+00 3.03839E+03
 -1       964-3.11227E+03 2.92979E+00-1.51499E+01 4.89599E+00 2.26546E+01 2.73269E+03
 -1       965-2.61393E+03 1.74496E+01 1.88744E+01-2.82374E+01-1.12495E+01 2.74867E+03
 -1       966 1.08690E+03-1.58650E+01-9.85980E+00 1.39242E+01-6.45387E-01 1.57607E+03
 -1       967 1.07598E+03-8.30976E+00-3.10927E+01 1.75171E+01-2.42960E+00 9.61595E+02
 -1       968 1.45804E+03 2.12747E+00-2.52410E+01 1.65695E+01 3.57983E-02 1.04187E+03
 -1       969 6.23237E+02-6.74398E+00-9.45082E+00 1.42525E+01 8.46357E+00 1.21242E+03
 -1       970 4.19861E+03 1.08666E+01 3.75935E+01 3.96242E+01 1.88678E+01 2.57105E+03
 -1       971 2.46949E+03-1.53522E+01 5.32226E+00 2.55372E+01 2.74915E+00 2.17976E+03
 -1       972 3.78046E+03 3.80225E+00-3.34888E+01 3.75258E+00-2.40113E+00 1.62513E+03
 -1       973 1.62337E+03 9.48606E+00-3.24356E+01 1.11678E+01-4.00123E+00 1.08900E+03
 -1       974-5.91069E+02-5.62306E-01 4.98618E+01 5.17911E+00-3.71681E+00 4.48010E+02
 -1       975 6.74519E+03 3.82180E+00-1.64623E+01 1.21211E+00-5.63442E+00 2.02332E+03
 -1       976 5.10918E+03 1.16351E+01-2.54924E+01-9.27480E+00 4.57934E+00 1.84535E+03
 -1       977 2.63154E+03-1.41708E+01-3.57451E+01 1.82137E+01-1.54746E+01 1.33790E+03
 -1       978-1.65954E+03-9.09751E+00 5.16805E+01 1.16022E+01 2.17898E+00 7.96571E+02
 -1       979-1.77005E+04-8.43120E-01 1.70188E+01 5.18481E+01-1.85097E+00 2.13148E+03
 -1       980 2.01589E+04 1.08975E+01-1.92420E+01-1.54088E+01 1.04089E+00 2.62989E+03
 -1       981 1.79867E+04 1.71010E+01-2.67063E+01 1.97157E+01 1.51957E+00 2.57330E+03
 -1       982-4.67144E+04-1.99371E+01 1.82085E+01-1.46766E+01 2.35508E+01 2.37304E+03
 -1       983 1.39495E+04 1.81325E+01-1.64862E+01 2.01313E+01 5.30320E+00 2.48252E+03
 -1       984 1.10793E+04-4.91044E+00-1.47175E+01 3.51628E+01-4.30626E-01 2.32064E+03
 -1       985 1.60547E+04-4.36269E+00-3.07523E+00 1.06455E+01-7.19509E+00 2.56329E+03
 -1       986-4.90486E+04 4.66575E+02 6.43896E+02-5.74747E+02 4.70550E+02 9.18099E+02
 -1       987 2.21712E+04 1.89170E+01-2.62079E+02 1.82647E+02 1.12004E+02 2.10031E+03
 -1       988 1.69834E+02 1.11771E+01-3.75530E+01 3.33816E-03-2.88335E+00 2.78797E+02
 -1       989-6.64328E+03-3.21510E+00 2.93711E+01 1.46387E+01-6.84128E+00 1.44846E+03
 -1       990 9.21639E+03 3.04826E+01-1.83465E+01-1.34841E+01 6.97585E+00 2.28756E+03
 -1       991 5.71836E+02 9.65797E+00-4.43853E+01-1.67153E+00-5.11465E+00 6.26746E+02
 -1       992-1.24488E+04-6.75769E+00 4.14231E+01 1.81285E+01 6.39898E+00 1.87458E+03
 -1       993-4.27946E+03-6.08090E+00 4.91224E+01 1.09794E+01-4.68903E+00 1.21540E+03
 -1       994-9.34516E+03-4.99955E+00 2.81012E+01 2.14308E+01 3.84767E+00 1.70087E+03
 -1       995-4.03923E+04 1.83991E+01-8.41242E+00 4.57192E+01-1.07669E+01 2.47187E+03
 -1       996-2.74782E+04-1.42323E+01 1.66528E+01 3.85331E+01 2.31465E+01 2.33585E+03
 -1       997-2.17526E+04-5.95609E+00 3.63945E+01 1.53191E+01 4.17349E-01 2.21593E+03
 -1       998-3.59847E+04-2.49379E+01 5.76910E+00 3.66987E+01 2.33026E+01 2.45891E+03
 -1       999-3.17722E+04 1.44241E+01-1.50083E+01 3.92983E+01-4.67472E+00 2.46311E+03
 -1      1000 3.81740E+03 1.57806E+02-1.08025E+03-3.46106E+01 8.39180E+02-1.46778E+03
 -1      1001-3.37688E+01-4.28894E-01 2.34852E+01-8.08208E-01-1.22627E+00 1.85972E+02
 -1      1002-4.85820E+04 2.28658E+00 1.52089E+02-1.29592E+02 1.05131E+02 2.03838E+03
 -1      1003 2.20797E+04-5.14264E+01-2.83198E+01 5.69538E+01 5.49961E+00 2.49436E+03
 -1      1004 2.12525E+04 3.31510E-01-2.10262E+01 9.01772E+00 1.20689E+01 2.59344E+03
 -1      1005-1.16582E+04 3.78529E+00 2.75750E+01 3.77119E+01 3.15327E+00 3.23979E+03
 -1      1006 3.51077E+02 4.44944E+00-3.80651E+01-4.44280E-01-4.45525E+00 4.66089E+02
 -1      1007 3.15123E+03 1.57688E+01-3.57472E+01 7.45769E+00-1.39851E+00 1.50768E+03
 -1      1008-3.28659E+03 4.83278E+00 4.19776E+01 6.96505E+00-4.09822E+00 1.05663E+03
 -1      1009-1.41407E+04-3.54309E+00 1.59302E+01 2.83627E+01-1.36060E+01 2.00793E+03
 -1      1010-1.96845E+04 2.16398E+01 1.42649E+01 3.66496E+01-1.03711E+01 2.14001E+03
 -1      1011 8.34854E+03 1.40889E+01-3.44122E+01 9.92361E+00-2.38735E+00 2.17633E+03
 -1      1012 5.91588E+03 5.76821E+00-1.41482E+01 1.26334E+01 1.63492E+00 1.98769E+03
 -1      1013-1.59204E+04-1.50913E+01 2.01597E+01 3.86495E+01 5.27460E+00 2.02825E+03
 -1      1014 1.70744E+04-4.23183E+01-2.41382E+01 2.96356E+01-3.53162E+01 2.49116E+03
 -1      1015 1.30308E+04-4.97338E+01-2.78905E+01 5.25004E+01-3.36679E+01 2.38896E+03
 -1      1016 1.20576E+04 2.71234E+00-2.46241E+01-1.34182E+00-4.04652E+00 2.44631E+03
 -1      1017-6.69312E+03 9.14133E+00-3.39244E+01 4.20347E+01 1.53192E+01 2.96759E+03
 -1      1018-2.96397E+04-1.17121E+01 5.46422E+00 3.41554E+01-5.53559E+00 2.45637E+03
 -1      1019-1.09210E+04 5.17480E+00 2.25401E+01 2.36827E+01-1.05580E+01 1.75219E+03
 -1      1020 2.11597E+03 1.88231E+00-2.45370E+01 1.95698E-01-4.30624E+00 1.26989E+03
 -1      1021 1.03298E+04 2.41214E+00-1.72652E+01-1.10490E+01-2.72575E+00 2.28031E+03
 -1      1022-1.04797E+03-1.75517E+00 4.89656E+01 2.96137E+00-3.12136E+00 6.16015E+02
 -1      1023 8.54292E+02 8.73608E+00-4.79690E+01-6.98189E+00-3.55645E+00 8.07486E+02
 -1      1024-3.38398E+04 8.14154E+00-8.31737E-01 1.78006E+01-6.86724E+00 2.46225E+03
 -1      1025-3.82317E+04-2.86251E+00-1.57448E+01 5.17412E+01 1.78861E+00 2.55681E+03
 -1      1026 1.17049E+03 2.57050E+00-3.68335E+01 1.28200E+01-5.81516E-01 9.70442E+02
 -1      1027-7.94656E+03-1.93591E+00 3.32617E+01 2.61683E+01-4.44933E+00 1.60289E+03
 -1      1028 1.90494E+04 1.37033E+01-4.19253E+00-1.53113E+01 1.25487E+01 2.57127E+03
 -1      1029 7.60787E+03-9.13096E+00-2.73336E+01-6.60232E-02-1.20230E+01 2.06564E+03
 -1      1030 1.49199E+04 3.82230E+01-1.25381E+01-1.23525E+01 1.25450E+01 2.57329E+03
 -1      1031-2.41690E+03-6.08624E-01 3.88247E+01 1.21249E+01-8.70619E+00 9.22195E+02
 -1      1032 4.43909E+03 1.16103E+01-4.37761E+01 3.56979E+00-6.33583E+00 1.73741E+03
 -1      1033-5.38991E+03-1.12828E+01 4.07812E+01 2.05513E+01 4.03944E+00 1.37030E+03
 -1      1034-1.30648E+04 6.92503E+01-1.79403E+02 2.45656E+01 5.34821E+02 2.12354E+03
 -1      1035-1.27336E+04-1.75720E+01 4.73552E-01 6.75041E+01 1.26028E+02 2.99118E+03
 -1      1036-4.30203E+04-2.15136E+01 4.12354E+01 3.54265E+01 1.30039E+01 2.50116E+03
 -1      1037-3.33417E+04 4.38957E+03 7.55456E+00-5.98028E+02 6.80884E+02-5.05209E+02
 -1      1038-2.58438E+04 1.98840E+01-9.05160E+00 1.73348E+01 5.40339E+00 2.30944E+03
 -1      1039-6.05192E+03-8.93423E+00 1.73881E+01 3.77321E+01-1.53524E+01 2.91651E+03
 -1      1040-7.24031E+01 1.21370E+00 8.30832E+00 6.12461E+00-3.36563E+00 4.83501E+02
 -1      1041-4.53158E+04 2.06288E+01-3.12968E+00 1.94890E+01 1.94521E+00 2.49987E+03
 -1      1042-1.98419E+02 8.80204E+00 1.83088E+01 7.27947E+00-8.15843E+00 6.91424E+02
 -1      1043-1.09335E+04-9.74146E+00 2.82651E+01 3.18040E+01 4.56719E+00 3.27189E+03
 -1      1044-9.76991E+02 7.86710E+00 1.07950E+01 2.30071E+01 4.73276E+00 1.47575E+03
 -1      1045-6.95969E+02-4.73979E+00 8.85175E+00 1.82937E+01-1.20494E+01 1.29630E+03
 -1      1046-1.57239E+03 7.24713E+00-2.07357E+01 1.62452E+01-1.24915E+01 1.81518E+03
 -1      1047-3.27741E+02 8.81952E-01-2.43389E+00 1.77001E+01-3.39109E+00 8.96153E+02
 -1      1048-3.05151E+03-4.02994E+00 1.39909E+01 2.51499E+01 1.41143E+00 2.38785E+03
 -1      1049-4.45443E+03-6.88886E+00-5.13764E+00 4.78780E+01 8.47927E+00 2.65330E+03
 -1      1050-2.62456E+03 6.58515E+00-5.11007E-02 4.04691E+01-1.05057E+01 2.21100E+03
 -1      1051-2.24436E+03-3.27019E+00-8.03544E-01 1.69308E+01-1.24924E-01 2.10752E+03
 -1      1052-5.14843E+02 9.68052E+00 1.29425E+01 9.84537E+00-2.42774E+00 1.10277E+03
 -1      1053-1.30701E+03-8.50865E-01 9.21091E+00 1.90841E+01-5.20517E+00 1.63024E+03
 -1      1054-5.44565E+03-9.84439E+00 4.15529E+01 3.20741E+01-9.03383E+00 2.86118E+03
 -1      1055-1.03031E+04 1.16499E+01-1.18963E+01 5.02147E+01-1.22007E+01 3.19348E+03
 -1      1056-9.82477E+03-3.48186E+00-1.47265E+01 4.68225E+01 1.24685E+01 3.18967E+03
 -1      1057-4.00329E+03 7.32717E+00-4.45160E+00 2.90681E+01-2.07098E+01 2.56365E+03
 -1      1058-8.60922E+03-1.15651E+01 9.79507E+00 2.46873E+01-2.88849E+00 3.16614E+03
 -1      1059-8.05377E+03-1.11273E+01 7.73419E+00 3.21382E+01-1.20021E+00 3.13160E+03
 -1      1060-9.32598E+03-6.30745E+00-2.10792E+01 3.49158E+01-1.13166E+01 3.17861E+03
 -1      1061-3.49077E+03-1.50435E+00 1.34897E+01 3.00047E+01-1.37520E+00 2.47002E+03
 -1      1062-1.87474E+03 1.82199E+00 6.89444E+00 1.82320E+01 2.03531E+00 1.96838E+03
 -1      1063-7.57507E+03-6.30246E+00-1.16946E+01 4.60154E+01 5.61943E+00 3.06401E+03
 -1      1064-4.85692E+03 6.61202E+00-9.64017E+00 4.27686E+01-7.69027E+00 2.72586E+03
 -1      1065-7.09231E+03 1.94309E+00-1.29498E+01 4.05712E+01-1.54118E+01 3.02579E+03
 -1      1066-2.38012E+04-1.63042E+01 5.03326E+01 4.06835E+01 1.87547E+00 2.27394E+03
 -1      1067-1.21890E+04 1.81569E+01-1.39267E+01 3.85382E+01 6.33197E+00 3.16244E+03
 -1      1068 3.30619E+01 2.10878E+00-1.05695E+01-5.86228E-01-7.81047E-01 1.85038E+02
 -1      1069 2.17714E+04-4.72412E+02-1.08904E+03 5.51795E+02 4.04188E+02 6.89681E+02
 -1      1070-2.30995E+02-8.29021E-01 4.62776E+01 3.40140E+00-4.74197E+00 2.71358E+02
 -1      1071-1.39261E+04 1.42765E+02-7.52511E+02-5.15274E+01 8.51746E+02 1.11243E+03
 -1      1072-6.39223E+04 4.55059E+03 1.60543E+03-3.88049E+02 6.20554E+02-1.50118E+02
 -1      1073 3.65415E+04-2.49879E+03-2.28126E+03-2.46525E+02 4.49870E+02-1.53550E+03
 -1      1074 6.59866E+01 4.96023E+00-3.24336E+01-1.95731E+00-1.89347E-01 8.70030E+01
 -1      1075-6.74036E+01-2.71738E+00 3.55054E+01-4.19165E-01-1.74894E+00 8.97390E+01
 -1      1076-2.88965E+01 2.25030E+00 8.98151E+00 1.15795E+00-5.95063E+00 3.19654E+02
 -1      1077-8.86317E+04-1.04340E+04-1.21480E+04 1.01489E+04-1.76568E+03 4.94115E+03
 -1      1078-6.13164E+04-2.18688E+03-8.58869E+03 7.11571E+03 7.53317E+02-2.70371E+03
 -1      1079-7.29524E+04 1.95034E+03 2.09388E+03-1.20484E+03 7.36636E+02-1.78046E+03
 -1      1080 3.51610E+04 3.91432E+03 4.65928E+03-5.61460E+03 1.30430E+02-4.33856E+03
 -1      1081 5.82574E+04 8.00704E+03 7.71778E+03-8.40930E+03-8.64931E+02 4.95404E+02
 -1      1082 4.67474E+04-1.42460E+03-2.17212E+03 7.36550E+02 4.76969E+02-2.54919E+03
 -1      1083-2.34073E+01-2.77947E+00 5.68074E+01 1.46191E+00 1.52282E+00 4.80195E+01
 -1      1084-2.84787E+01-6.09478E+00 2.00911E+01-8.76956E-01-2.46157E-01 2.78709E+01
 -1      1085-8.98762E+01-3.20314E+00 2.26716E+01 2.21621E+00 1.48546E+00 4.76761E+01
 -1      1086 3.67522E+01 1.22576E+01-1.81652E+01-1.80759E+00 1.31983E+00 2.88997E+01
 -1      1087 3.23320E+01 2.23083E+00-5.15121E+01-6.70052E-01 7.37874E-01 4.72762E+01
 -1      1088 8.70117E+01 5.10254E+00-1.47537E+01-3.31413E-02-1.39822E+00 4.82810E+01
 -1      1089-5.71119E+03-1.75333E+03-3.61319E+03 8.52111E+02 8.13099E+02-5.59427E+03
 -1      1090 1.79295E+04 5.32589E+03 5.20617E+03-4.11240E+03 1.07650E+03-5.21678E+03
 -1      1091 1.96932E+04-1.71494E+03-1.22321E+03-2.35476E+02 6.52046E+02-2.21193E+03
 -1      1092-4.78899E+04-7.04893E+03-1.14190E+04 6.84253E+03 1.15517E+03-3.20613E+03
 -1      1093-2.44459E+04 5.51308E+02-3.23830E+03 1.43865E+03 1.03853E+03-5.26018E+03
 -1      1094-1.45840E+04 2.11085E+03-1.68244E+03-6.86104E+02 4.92470E+02-1.35708E+03
 -1      1095-4.95570E+04 5.01739E+03-5.24147E+02-6.34486E+02 1.12347E+02-5.21351E+02
 -1      1096 2.16291E+01 1.94445E+00-4.40918E+01-1.59561E+00-1.06817E+00 9.39482E+01
 -1      1097 1.45592E+01 3.32837E+00-4.11882E+00-8.71535E-01-2.71186E+00 1.07362E+02
 -1      1098 4.38793E+01-8.66450E-01-2.61454E+01-2.53867E+00-5.53134E-01 1.38151E+02
 -1      1099-6.32563E+00-3.16405E+00 9.54927E+00 6.03850E-01-1.75866E+00 1.06238E+02
 -1      1100-1.92014E+01-3.47236E+00 4.32585E+01-1.94590E+00 9.35598E-01 9.17083E+01
 -1      1101-3.91046E+00-4.05850E-01 3.71741E+00-2.88732E+00 1.47664E+00 1.94350E+02
 -1      1102-4.08316E+01 3.02194E+00 3.45464E+01-1.55765E+00-3.04801E+00 1.38036E+02
 -1      1103 3.99520E+04-3.04038E+02-8.33282E+02 4.27480E+01 1.33159E+01-6.50189E+02
 -1      1104 4.09428E+04-3.96896E+02-4.89527E+02 4.06469E+02 1.47115E+02 4.01689E+02
 -1      1105 2.74797E+04-7.88504E+01-1.84806E+03 4.66398E+02 5.57641E+02-1.11690E+03
 -1      1106 4.11192E+04-3.85389E+01-2.26316E+02 1.12613E+02 9.50003E+01 9.86962E+02
 -1      1107 4.05691E+04 5.82107E+00-1.38101E+02 2.10228E+02 4.32278E+01 1.23683E+03
 -1      1108 2.19706E+04-1.92322E+01-5.07340E+02 1.90434E+02 1.35210E+02 1.49634E+03
 -1      1109 4.04268E+04-4.17027E+01-1.07114E+01 1.37331E+02-1.21004E+01 1.39996E+03
 -1      1110 3.92687E+04-7.79007E+01-3.80604E+01 6.41798E+01-3.06887E+00 1.42816E+03
 -1      1111 2.22705E+04 3.16374E+01-9.96376E+01 1.51177E+02 1.92793E+01 2.38688E+03
 -1      1112 3.88378E+04 2.38424E+00-3.14816E+01 2.72982E+01-1.07286E+01 1.48404E+03
 -1      1113 3.76720E+04-1.69708E+01 8.85396E+00 2.78619E+00 4.47421E+00 1.47544E+03
 -1      1114 2.17116E+04 2.90862E+01-4.04000E+01 1.48505E+01 4.24882E+01 2.57251E+03
 -1      1115 3.69775E+04 8.01560E+00-3.41592E+01 2.07125E+01-6.21898E+00 1.47169E+03
 -1      1116 3.57905E+04-1.10911E+01-5.69184E+00 1.76345E+01 1.06521E+00 1.47375E+03
 -1      1117 2.08066E+04 5.04563E+01-2.42467E+01-1.37278E+01 3.70786E+01 2.59917E+03
 -1      1118 3.51134E+04 2.46768E+01-2.17741E+01-1.15334E+00 5.17990E+00 1.45361E+03
 -1      1119 3.38511E+04 3.30735E+01 7.76992E+00 6.98880E+01 5.71795E+00 1.45546E+03
 -1      1120 1.96910E+04 3.74408E+01 4.88391E+01-2.89215E+01-1.00407E+01 2.58824E+03
 -1      1121 3.32546E+04 7.98221E+00 3.49141E+00 8.08512E+01 3.62279E+00 1.44238E+03
 -1      1122 3.19462E+04 1.29913E+01-2.49027E+01 9.88652E+01-2.50911E+01 1.47132E+03
 -1      1123 1.85873E+04 1.19923E+01-1.43421E+01 1.61749E+01-7.70216E+00 2.61665E+03
 -1      1124 3.14199E+04-6.82616E+01 1.12850E+01 8.84033E+01-3.28497E+01 1.43341E+03
 -1      1125 3.00802E+04-3.66801E+01 1.20683E+01-4.25992E+00-1.04832E+01 1.42785E+03
 -1      1126 1.75479E+04-1.03134E+01 8.39384E+00 6.18464E+01-4.70807E+01 2.58482E+03
 -1      1127 2.95050E+04-7.94823E+00-5.99203E-01 3.26387E+01-3.83235E-02 1.45983E+03
 -1      1128 2.83229E+04-4.91261E+00 2.80028E+01 5.00991E+00-5.43407E+00 1.46006E+03
 -1      1129 1.64153E+04-6.24379E+01-9.00922E+01-1.45839E+01-4.66694E+00 2.55285E+03
 -1      1130 2.77281E+04 6.38760E+01 2.16242E+01 4.17069E+01 2.08726E+01 1.43220E+03
 -1      1131 2.64758E+04 2.56542E+01-9.49594E+00 7.98033E+01-6.84761E+00 1.45240E+03
 -1      1132 1.54556E+04-9.28716E+00-4.53808E+01-2.28389E+01 1.47497E+01 2.55253E+03
 -1      1133 2.59317E+04 5.00085E-01 4.45097E+00 7.18398E+01 5.60052E+00 1.39833E+03
 -1      1134 2.46426E+04 1.30005E+01-2.32729E+01 9.34846E+01-2.01535E+01 1.41642E+03
 -1      1135 1.44391E+04 1.52614E+01-1.26902E+01 2.49245E+01-9.40876E+00 2.55717E+03
 -1      1136 2.41356E+04-5.46861E+01 2.80516E+01 9.99805E+01-2.76301E+01 1.39318E+03
 -1      1137 2.27902E+04-7.14782E+01-4.15607E+01 2.49009E+01-2.28453E+01 1.37686E+03
 -1      1138 1.35681E+04-4.16574E+00 1.44119E+01 6.76871E+01-4.40617E+01 2.48686E+03
 -1      1139 2.23343E+04 1.11927E+01-3.93782E+01 2.49350E+01-7.87083E+00 1.38660E+03
 -1      1140 2.12300E+04-1.47055E+01-1.15758E+01 1.71902E+01 9.08962E-01 1.37166E+03
 -1      1141 1.25213E+04 7.61358E+00-6.36346E+01 1.17115E+01 6.16920E+00 2.43495E+03
 -1      1142 2.05977E+04-6.28267E+00-2.86627E+01-1.53104E+01-6.81947E+00 1.35489E+03
 -1      1143 1.94778E+04 1.02692E+01 2.55571E+00-7.66838E+00-5.37782E+00 1.33540E+03
 -1      1144 1.17033E+04 5.27575E+01 6.27653E+01-7.17294E+00-1.82158E+01 2.38418E+03
 -1      1145 1.89526E+04-2.23533E+00-4.40487E+01 9.05817E+00-1.15531E+01 1.29334E+03
 -1      1146 1.78842E+04-5.29054E+00 2.40284E+01-1.19783E+01 6.33398E+00 1.28633E+03
 -1      1147 1.06747E+04 2.00716E+01-4.80381E+01-1.34854E+01 2.86429E+01 2.32504E+03
 -1      1148 1.72890E+04 5.68657E+01 1.64522E+01 3.44467E+01 1.93674E+01 1.27505E+03
 -1      1149 1.61747E+04 2.52949E+01-1.26348E+01 6.97802E+01-8.15483E+00 1.28808E+03
 -1      1150 9.79721E+03 5.18860E+00-3.90052E+01-2.78829E+01 9.58282E+00 2.27229E+03
 -1      1151 1.56892E+04 1.66705E+00-4.04692E+00 6.50823E+01 3.73469E-02 1.22589E+03
 -1      1152 1.45639E+04 3.27048E+00-2.41050E+01 7.83021E+01-1.74012E+01 1.23012E+03
 -1      1153 8.78575E+03 1.06090E+01-2.56945E+01 1.95528E+01-1.06077E+01 2.25097E+03
 -1      1154 1.41095E+04-4.04799E+01-6.82014E+00 6.51647E+01-1.99493E+01 1.18076E+03
 -1      1155 1.30609E+04-1.62186E+01 3.69299E+00 9.06682E+00 4.64367E-01 1.16961E+03
 -1      1156 7.94249E+03 2.01205E+00-1.57126E+01 2.78535E+01-3.44464E+01 2.16282E+03
 -1      1157 1.25698E+04 1.12400E+01-6.58788E+00 1.60646E+01-2.23548E+00 1.16709E+03
 -1      1158 1.16258E+04 3.68737E+00 1.66139E+01 3.95147E+00 1.18788E+01 1.14418E+03
 -1      1159 7.11500E+03-1.90319E+01-7.33577E+01-1.33011E+01 1.25023E+01 2.06215E+03
 -1      1160 1.11349E+04 2.52991E+01 1.18376E+01 3.07394E+01 1.29311E+01 1.12212E+03
 -1      1161 1.02023E+04 3.51507E+00-1.62645E+01 3.87326E+01-6.00489E+00 1.11024E+03
 -1      1162 6.29903E+03-1.93491E+01-2.61865E+01 4.72846E+00 6.65817E+00 2.00020E+03
 -1      1163 9.73870E+03 2.16842E+01-3.03617E+01 1.39726E-01 5.49634E+00 1.04811E+03
 -1      1164 8.84317E+03 2.43488E+01-8.03998E+00 4.83272E+01-1.61996E+00 1.03500E+03
 -1      1165 5.50776E+03 1.11081E+01-4.50399E+00 5.46929E+00-2.52373E+00 1.91441E+03
 -1      1166 8.45650E+03 6.48109E+00-1.02838E+01 5.44590E+01-3.88454E+00 9.80112E+02
 -1      1167 7.55814E+03 2.98022E+00-2.84649E+01 6.02146E+01-1.23419E+01 9.74684E+02
 -1      1168 4.81425E+03 6.67147E+00-3.76155E+01 1.06160E+01-8.88548E+00 1.81647E+03
 -1      1169 7.20956E+03-2.73217E+00-7.59994E+00 5.53741E+01-3.53233E+00 9.19145E+02
 -1      1170 6.36756E+03 3.76827E-01-2.81930E+01 5.38843E+01-7.46795E+00 9.10435E+02
 -1      1171 4.11235E+03 1.07864E+01-2.70469E+01 1.91703E+01-1.64368E+01 1.70928E+03
 -1      1172 6.05549E+03 8.64231E+00-1.01035E+01 4.71373E+01-1.93741E-01 8.55244E+02
 -1      1173 5.28789E+03 1.36133E+01-2.52028E+01 5.60566E+01-1.61957E+01 8.52893E+02
 -1      1174 3.47001E+03 7.84235E+00-3.11765E+01 1.03717E+01-6.93853E+00 1.59847E+03
 -1      1175 4.99681E+03-2.99211E+01-3.37743E+00 5.26363E+01-2.09811E+01 7.81905E+02
 -1      1176 4.24964E+03-1.22023E+01-7.83683E+00 1.66570E+00 1.29882E+00 7.58968E+02
 -1      1177 2.89842E+03-6.54410E+00-2.51892E+01 3.28959E+01-2.85877E+01 1.45647E+03
 -1      1178 3.97101E+03 1.68237E+01-1.14384E+01 1.34228E+01-3.80068E+00 7.31086E+02
 -1      1179 3.38779E+03 5.94764E+00-1.05786E+00 1.42174E+01 3.25584E+00 7.07356E+02
 -1      1180 2.28875E+03-2.38798E+01-7.95250E+01-6.39468E+00 5.72542E+00 1.30876E+03
 -1      1181 3.09905E+03 9.46924E+00-1.79434E+01 1.47329E-01 8.91623E-01 6.43583E+02
 -1      1182 2.56000E+03 1.30125E+01-9.86634E+00 2.88344E+00 6.58651E+00 6.27416E+02
 -1      1183 1.82778E+03-2.26401E+01-2.18689E+01-7.20215E+00-1.73769E+01 1.18086E+03
 -1      1184 2.30300E+03 1.67692E+01-1.74819E+00 1.80310E+01 2.98622E+00 5.68436E+02
 -1      1185 1.83715E+03 4.25147E+00-1.30601E+01 5.98442E+00-5.59307E+00 5.45494E+02
 -1      1186 1.36599E+03-1.23542E+01-6.35708E+01 5.51035E+00 3.52980E+00 1.04223E+03
 -1      1187 1.61940E+03 1.52335E+01-3.93068E+01-1.65228E+00-5.87374E+00 4.65901E+02
 -1      1188 1.24481E+03 7.73355E+00-1.76529E+01 1.68980E+00 2.62550E+00 4.38880E+02
 -1      1189 9.75091E+02-3.84869E-01-6.38709E+01 5.78921E+00 1.25008E+01 8.94464E+02
 -1      1190 1.07316E+03 1.18468E+01-2.22237E+01-1.60331E+00-1.13751E+00 3.75969E+02
 -1      1191 7.56231E+02 1.60749E+01-1.93071E+01 2.88279E+00 5.44592E+00 3.51093E+02
 -1      1192 6.92944E+02-1.22158E+01-3.68011E+01-1.50370E+01-1.59082E+01 7.15427E+02
 -1      1193 6.33019E+02 1.67907E+01-1.39098E+01 9.81729E+00-4.73308E+00 2.80084E+02
 -1      1194 3.88423E+02 1.21023E+01-1.80411E+01 9.76401E+00 2.57921E+00 2.47166E+02
 -1      1195 4.21469E+02-9.29300E+00-6.99181E+01-5.20117E+00 2.67116E+00 5.51514E+02
 -1      1196 2.97404E+02 1.61184E+01-2.01234E+01 3.25246E+00-1.39786E+00 1.76363E+02
 -1      1197 1.50268E+02 1.19949E+01-2.25697E+01 1.97559E+00 5.90363E+00 1.42851E+02
 -1      1198 2.30127E+02-7.04127E+00-4.06385E+01-6.55149E+00-4.12839E+00 3.74087E+02
 -1      1199 1.15043E+02 2.55347E+00-4.09074E+01-2.72400E+00-2.16572E+00 1.79432E+02
 -1      1200-6.75846E+04 3.48052E+02 3.34600E+02-4.10859E+02 1.86352E+02 4.44011E+02
 -1      1201-6.68636E+04 6.14076E+01 2.61798E+02-1.77521E+02-1.74184E+02-2.45631E+02
 -1      1202-5.48758E+04 3.15311E+02 9.11479E+02-5.95197E+02 4.40136E+02-3.25724E+02
 -1      1203-6.63722E+04 4.56027E+01 5.40936E+01-8.32900E+01 3.41216E+01 1.16030E+03
 -1      1204-6.72353E+04 7.10536E+01 1.96487E+02-8.67617E+01 5.65744E+01 9.33997E+02
 -1      1205-4.87339E+04 2.90200E+01 3.14333E+02-1.97634E+02 1.99158E+02 1.47797E+03
 -1      1206-6.37633E+04-3.01054E+01 5.56653E+01-4.73137E+01 1.32453E+01 1.35237E+03
 -1      1207-6.54321E+04-2.95017E+01 2.96434E+01-2.41603E+01 2.25193E+01 1.30436E+03
 -1      1208-4.76994E+04-6.42811E+00 3.75372E+01-6.14439E+01 2.65122E+01 2.25180E+03
 -1      1209-6.11293E+04 4.82547E+01 1.20489E+01 1.63722E+01-2.21961E+01 1.38885E+03
 -1      1210-6.30059E+04 2.81070E+00-1.47590E+01-4.10938E+01 2.47782E+01 1.38993E+03
 -1      1211-4.60752E+04-7.64699E+00 1.21659E+01-2.16448E+01 5.13824E+01 2.48682E+03
 -1      1212-5.81464E+04-8.15123E-01 1.80889E+01-1.25495E+01-2.56267E+01 1.40487E+03
 -1      1213-5.99753E+04-2.93174E+01 3.21500E+01-3.49987E+00 9.69190E+00 1.34464E+03
 -1      1214-4.41893E+04-3.19545E+01 3.94614E+01 3.99482E+01 1.42919E+01 2.50191E+03
 -1      1215-5.47967E+04 2.33211E+01-3.01943E+01 3.25537E+01-4.73039E+00 1.35222E+03
 -1      1216-5.67039E+04 6.53912E+01-2.78745E+01-4.76232E+00-1.33893E+01 1.39095E+03
 -1      1217-4.16933E+04 4.24237E+01-3.29270E+00 2.32135E+01-4.37836E+01 2.53264E+03
 -1      1218-5.18689E+04-7.37930E+00-2.75238E+01 2.44370E+00 2.26278E+00 1.39474E+03
 -1      1219-5.36628E+04-9.78103E+00-1.25007E+01 6.50841E+00 5.88015E+00 1.40644E+03
 -1      1220-3.92629E+04 1.93737E+01 4.57617E+01 6.72632E+01 1.72215E+01 2.51816E+03
 -1      1221-4.88359E+04-6.03327E+01 3.01261E+01-1.65054E+01 1.37325E+01 1.38591E+03
 -1      1222-5.07478E+04-5.21494E+01-1.36723E+01 1.71613E+01 2.33614E+01 1.36302E+03
 -1      1223-3.70791E+04 2.88845E+01-4.03996E+01 5.87499E+01-5.44768E+00 2.50932E+03
 -1      1224-4.58255E+04-1.06878E+01 8.34271E+00-1.47477E+01-1.59950E+01 1.36562E+03
 -1      1225-4.76969E+04 3.94127E+00-1.74802E+01-2.66297E+01 3.11042E+01 1.38502E+03
 -1      1226-3.49057E+04-2.21199E+01 1.74211E+01 4.82673E+00 3.61652E+01 2.49579E+03
 -1      1227-4.29151E+04 1.82954E+01-1.95023E+01-3.17189E+00-5.30191E+00 1.32381E+03
 -1      1228-4.47000E+04-4.72456E+00-1.71705E+00-1.07998E+01 1.09746E+01 1.37234E+03
 -1      1229-3.27720E+04-1.20110E+01 6.43517E+00 2.66442E+01 1.83412E+01 2.49942E+03
 -1      1230-4.00256E+04-1.39913E+01 2.49696E+01-9.18066E+00-1.91105E+01 1.35685E+03
 -1      1231-4.17789E+04-1.26344E+01 1.07803E+01 2.28162E+01 1.88880E+01 1.37191E+03
 -1      1232-3.06843E+04 2.40222E+01-2.73108E+01 4.06893E+01-1.87653E+01 2.45128E+03
 -1      1233-3.71310E+04-5.47173E+01 2.75626E+01-6.50283E+00 1.44289E+01 1.30446E+03
 -1      1234-3.89330E+04-2.44412E+01 3.09016E+01 3.04362E+01 1.18674E+01 1.28194E+03
 -1      1235-2.85257E+04-3.49620E+00-7.66006E+00 3.57939E+01-3.25982E+00 2.41121E+03
 -1      1236-3.44734E+04 4.38801E+01 2.30380E+00 1.89858E+01-2.22451E+01 1.27354E+03
 -1      1237-3.62307E+04 1.72149E+01-2.42385E+01-2.79295E+01 3.54960E+01 1.30743E+03
 -1      1238-2.67211E+04-3.47935E+01 1.36318E+00 7.99503E-01 3.76333E+01 2.35711E+03
 -1      1239-3.17713E+04 2.94029E+00 2.60363E+01-1.33982E+01-9.76068E+00 1.25456E+03
 -1      1240-3.34461E+04-2.17746E+01 3.57519E+01-1.81967E+00 3.52951E+00 1.22302E+03
 -1      1241-2.48359E+04-2.43357E+01 3.97379E+01 3.85099E+01 1.67839E+01 2.28510E+03
 -1      1242-2.89686E+04-4.44347E+00 3.08951E+01-2.49602E+01-3.47842E+01 1.23797E+03
 -1      1243-3.06775E+04 7.41787E+00 1.33554E+01-1.74982E+01 1.31647E+01 1.22704E+03
 -1      1244-2.27832E+04 2.03239E+01 3.89053E+01 2.32695E+01-1.55540E+01 2.27680E+03
 -1      1245-2.62121E+04 3.84284E+01 1.11402E+01 1.72935E+01-1.95963E+01 1.17838E+03
 -1      1246-2.78870E+04 5.17819E+01-2.20000E+01-1.54681E+01-1.15897E+01 1.20981E+03
 -1      1247-2.07033E+04 3.27379E+01 1.75384E+01 4.13606E+00-3.46332E+01 2.21321E+03
 -1      1248-2.36885E+04-7.66997E+00-1.58653E+01 2.09450E+01 5.10346E+00 1.15479E+03
 -1      1249-2.52045E+04-1.08409E+00 3.38279E+01 1.55765E+01-7.29668E+00 1.16912E+03
 -1      1250-1.86566E+04-1.65944E+01 6.55381E+01 5.62456E+01 1.71013E+01 2.14471E+03
 -1      1251-2.12070E+04-2.77803E+01 6.42125E+00 2.38131E+01 3.43120E+00 1.12595E+03
 -1      1252-2.26969E+04-2.02537E+00 2.54394E+01 3.41578E+01 9.08326E+00 1.12842E+03
 -1      1253-1.67896E+04 2.95103E+01-2.97606E+01 6.27260E+01-2.40556E+01 2.08088E+03
 -1      1254-1.88246E+04 2.24776E+00 1.40827E+01-5.67261E+00-2.05053E+01 1.09548E+03
 -1      1255-2.02443E+04-8.99992E+00-8.49880E+00-1.12286E+01 6.18014E+00 1.11497E+03
 -1      1256-1.50152E+04 4.55906E+00 4.65294E+01 4.21701E+01 1.33227E+01 2.03072E+03
 -1      1257-1.65368E+04-1.48574E+01 1.82238E+01-1.63176E+01-1.40104E+01 1.04382E+03
 -1      1258-1.79270E+04-1.94270E+01 3.63743E+01 2.23169E+01 1.06333E+01 1.03717E+03
 -1      1259-1.32750E+04-4.69599E+00 2.19955E+01 2.24977E+01-9.52664E+00 1.93724E+03
 -1      1260-1.43427E+04 5.37598E+00-2.91026E+00 1.05581E+01-4.66018E+00 9.63623E+02
 -1      1261-1.56887E+04 2.82872E+01 8.87539E-01-1.01958E+01-9.07605E+00 9.91966E+02
 -1      1262-1.16642E+04 9.29178E+00 3.02005E+01 1.24294E+01-2.09626E+01 1.84750E+03
 -1      1263-1.22933E+04-2.30381E+01 1.94368E+01-1.26205E+01-1.87188E+00 9.37484E+02
 -1      1264-1.35719E+04-1.94484E+01-4.58351E+00-1.54864E+01 1.56648E+01 9.41051E+02
 -1      1265-1.01214E+04 1.05268E+01 5.40118E+01 3.09680E+01 1.09263E+01 1.73807E+03
 -1      1266-1.03763E+04 1.29130E+01 2.42737E+01-1.24969E+01-1.44060E+01 8.68276E+02
 -1      1267-1.15366E+04-1.15178E+01 1.52169E+01-1.07738E+01 1.08692E+01 8.88151E+02
 -1      1268-8.62143E+03-2.96024E+00 3.98005E+01 2.01917E+01 1.55730E+01 1.66246E+03
 -1      1269-8.55893E+03-8.57629E-01 8.72236E+00 5.16794E+00-3.40079E+00 7.95268E+02
 -1      1270-9.68885E+03 2.18877E+01 1.90634E+01-1.26576E+01-3.05143E+00 8.13780E+02
 -1      1271-7.27049E+03 3.99593E+00 3.05113E+01 1.76627E+01-1.54083E+01 1.54532E+03
 -1      1272-6.95770E+03-8.29162E+00 2.37893E+01-8.81229E+00-9.42205E+00 7.54434E+02
 -1      1273-7.92834E+03-2.71592E+01 1.06622E+01-7.47471E+00 1.27956E+01 7.53459E+02
 -1      1274-6.00064E+03-6.72225E+00 5.44940E+01 2.54990E+01 6.97499E+00 1.40434E+03
 -1      1275-5.43145E+03 8.95092E-01 3.04946E+01-1.31286E+01-1.62344E+01 6.71036E+02
 -1      1276-6.35699E+03 1.95088E+00 2.05153E+01-6.65337E+00 1.00846E+00 6.80713E+02
 -1      1277-4.80561E+03 1.04770E+01 5.17999E+01 1.07688E+01-6.26115E+00 1.30109E+03
 -1      1278-4.08991E+03-2.24871E+00 3.33247E+01-1.02130E+01-6.25567E+00 5.81140E+02
 -1      1279-4.92291E+03 7.91006E+00 1.20459E+01-1.17950E+01-1.75782E+00 5.99975E+02
 -1      1280-3.75578E+03 9.25250E+00 5.00036E+01 3.78200E+00-1.45067E+01 1.15605E+03
 -1      1281-2.92625E+03 1.80172E+00 1.67188E+01 7.79184E+00-4.39541E+00 5.01289E+02
 -1      1282-3.64128E+03 6.53154E+00 2.34769E+01-1.25283E+01-1.73285E-02 5.28957E+02
 -1      1283-2.81407E+03 9.46910E+00 5.68297E+01 4.46824E+00 4.23225E+00 1.01332E+03
 -1      1284-1.98424E+03-2.34346E+00 2.93754E+01-4.43423E+00-6.53935E+00 4.31954E+02
 -1      1285-2.54459E+03-2.05674E+01 1.81952E+01-3.10628E+00 6.01901E+00 4.43872E+02
 -1      1286-2.01845E+03-4.29665E+00 6.10561E+01 1.89034E+01 3.10355E+00 8.54506E+02
 -1      1287-1.17083E+03-1.81604E+00 3.19079E+01-6.83362E+00-6.51597E+00 3.34441E+02
 -1      1288-1.65388E+03 3.07327E+00 2.41957E+01-5.17860E+00-2.29322E+00 3.51707E+02
 -1      1289-1.32257E+03 8.94329E+00 5.46975E+01 3.98237E+00-6.62542E+00 7.12948E+02
 -1      1290-5.87970E+02-1.76221E+00 2.92867E+01-4.52788E+00-5.61023E+00 2.36286E+02
 -1      1291-9.33125E+02-4.65510E-01 2.43465E+01-5.45567E+00-6.83103E-01 2.60376E+02
 -1      1292-7.94747E+02 6.31282E+00 5.84501E+01 4.29288E+00-1.20470E+00 5.42603E+02
 -1      1293-1.83350E+02-4.69642E+00 2.44819E+01 2.58909E-01-2.95265E+00 1.34733E+02
 -1      1294-3.98293E+02 1.00269E+00 2.72078E+01-2.96114E+00-3.27876E+00 1.64142E+02
 -1      1295-3.80001E+02 7.10286E+00 5.86775E+01 4.14321E+00-3.11025E+00 3.66032E+02
 -1      1296-1.45519E+02 1.53532E+00 4.86266E+01-5.26321E-01-1.88131E+00 1.77593E+02
 -1      1297 9.52771E+02 1.29039E+01 2.51312E+00-1.63217E+01-3.86623E+00 1.84849E+03
 -1      1298 6.36987E+02-4.39869E+00-1.22531E+01-8.07929E+00 2.90167E+00 1.77242E+03
 -1      1299 1.09673E+03 1.55044E+01-1.47196E+01-1.15679E+01-1.35838E+01 1.97734E+03
 -1      1300 7.91851E+02-2.63155E+00-2.37191E+01-1.08629E+01-2.13596E+00 1.90868E+03
 -1      1301-2.08696E+03-1.42775E+01 2.05044E+00 1.19490E+01 2.36489E-02 2.05687E+03
 -1      1302 5.72238E+02 1.75237E+01 1.13896E+01 2.66017E+01-1.44379E+00 1.40251E+03
 -1      1303 2.87449E+02-2.76308E+00-2.33650E+01 2.39477E+01-1.38208E+00 1.27405E+03
 -1      1304 4.70722E+02 1.16576E+01 1.34829E+01 3.20039E+01-6.36784E+00 1.20976E+03
 -1      1305 2.14402E+02-1.32408E+01-3.87471E+01 1.80772E+01-2.90717E+00 1.14800E+03
 -1      1306-8.29471E+02 1.95905E+00 2.28816E+01 2.40926E+01-2.39433E+00 1.38078E+03
 -1      1307-3.83311E+02-1.85315E+00 3.77245E+01 1.17422E+01-1.09289E+01 5.84021E+02
 -1      1308-6.21137E+02-3.84159E+00 3.15650E+01 1.29484E+01-1.22685E-01 6.78827E+02
 -1      1309-1.12676E+02 1.43690E+00 1.38313E+01 4.68756E+00-3.94075E+00 6.01666E+02
 -1      1310-3.33738E+02-2.81274E+00 2.88143E+01 1.00318E+01-2.41695E+00 4.80617E+02
 -1      1311-1.63104E+02-2.04367E+00 2.48389E+01 8.43491E+00-5.95262E+00 3.80512E+02
 -1      1312 1.60253E+03 1.86634E+01 8.21771E+00 2.90293E+01 9.37586E+00 2.29649E+03
 -1      1313 1.21921E+03-1.26828E+01-7.63199E+00 1.73247E+01 2.35835E+01 2.24904E+03
 -1      1314 1.75657E+03 1.31618E+01-3.60590E+01 6.31238E-01-9.55768E+00 2.38476E+03
 -1      1315 1.35557E+03-1.37256E+01-4.57791E+01 1.44000E+01 5.60998E+00 2.34937E+03
 -1      1316-3.70483E+03-7.81354E+00 7.34298E+00 2.43761E+01-9.83823E+00 2.55787E+03
 -1      1317 1.42185E+03 2.22737E+01 1.55244E+01 1.86083E+01-1.22100E+01 2.19495E+03
 -1      1318 1.06401E+03-3.03647E+00-1.64588E+01 1.06892E+01 4.56610E+00 2.14064E+03
 -1      1319 1.28168E+03 2.10401E+01-2.03954E+01-2.63533E+01-1.80900E+01 2.10149E+03
 -1      1320 8.85102E+02-9.93913E+00-5.25893E+01-6.22432E+00-5.22165E+00 2.03110E+03
 -1      1321-2.82820E+03-2.09836E+01 3.00873E+01 2.14734E+01-1.49173E+01 2.31376E+03
 -1      1322 8.14886E+02 1.89403E+01-1.27837E+01 1.49409E-01-1.46346E+01 1.71222E+03
 -1      1323 5.62979E+02 1.82321E+00-2.96042E+01 2.18625E+00-3.67873E+01 1.62876E+03
 -1      1324 6.08784E+02-5.81095E+00-1.74988E+01 3.84205E+01-1.44872E+00 1.52278E+03
 -1      1325 3.98885E+02-8.24991E+00-6.90424E+00 1.07539E+01 2.24678E+01 1.46966E+03
 -1      1326-1.42694E+03 2.64155E+01-6.94244E+00 1.73579E+01-1.13763E+01 1.72630E+03
 -1      1327-6.92490E+02 3.25017E+00 2.49891E+01 1.59237E+01-3.90644E+00 7.59759E+02
 -1      1328-9.79036E+02 3.70095E+00 2.04044E+01 1.63241E+01-5.70493E+00 8.64622E+02
 -1      1329-1.08555E+03 9.94006E+00 3.13840E+01 1.55586E+01 1.10055E+00 9.59434E+02
 -1      1330-1.45655E+03 1.21944E+00 2.61407E+01 1.61069E+01-2.83973E+00 1.03968E+03
 -1      1331-3.93488E+02 1.42724E+01 7.70715E+00 1.80826E+01-4.63690E+00 1.01674E+03
 -1      1332-1.12927E+04-3.36481E+00 1.10052E+00 3.91124E+01 1.96106E+01 2.49243E+03
 -1      1333-1.22788E+04-8.39666E+00 6.49747E+00 4.42754E+01 7.85918E+00 2.45109E+03
 -1      1334-1.01784E+04 2.58448E+00 4.19239E+00 3.83331E+01 3.75460E+00 2.33984E+03
 -1      1335-1.10728E+04-2.32598E+00-3.46288E+00 2.55671E+01-1.53695E+01 2.44351E+03
 -1      1336-4.65245E+03-1.43153E+01 4.38042E+00 5.58579E+01-3.39429E+00 2.74451E+03
 -1      1337 4.85505E+03 1.16187E+01 1.68550E+01 2.32286E+01-9.54444E-02 2.95438E+03
 -1      1338 4.29413E+03-1.61370E+01 1.55064E+00 2.59947E+01 2.26004E+01 3.01105E+03
 -1      1339-1.13033E+04 2.80308E+01 1.57457E+01 2.93595E+01 1.09363E+01 3.28338E+03
 -1      1340 4.64752E+03 3.67440E+01 3.95190E+01 1.30373E+01-2.81814E+01 2.98682E+03
 -1      1341 4.11574E+03-4.91497E+00-3.28773E+00 8.78394E+00 9.21616E+00 2.97210E+03
 -1      1342 4.14471E+03 3.38217E+01 4.81444E+01 5.19921E+00-8.52439E-01 3.00296E+03
 -1      1343 3.68362E+03 5.02319E+00 2.57237E+01 1.01872E+01-3.80268E+01 2.94419E+03
 -1      1344 4.41372E+03 2.70241E+01-1.79023E+01-4.66327E+01-2.42521E+01 2.99927E+03
 -1      1345 3.79210E+03-2.40149E+01-5.92185E+01-9.20655E+00-6.77849E+00 2.98061E+03
 -1      1346-1.00736E+04-1.97179E+01-6.11102E+00 6.15693E+01-4.10810E+00 3.25788E+03
 -1      1347-2.97090E+04 3.23974E-01-2.00588E+01 4.99937E+01 5.43642E+01 2.70749E+03
 -1      1348-3.07269E+04-6.40168E+01 1.51508E+01-3.07246E+01 1.23701E+02 2.56903E+03
 -1      1349-2.94436E+04-1.09930E+01 8.66787E-02 4.52499E+01 5.18684E+01 2.86480E+03
 -1      1350-1.24710E+04 2.35445E+01-5.37326E+01 5.05441E+01 6.59839E+01 3.03803E+03
 -1      1351-2.87113E+04-2.76469E+00 3.09258E+01 3.96430E+01-4.16093E+00 2.93901E+03
 -1      1352 3.25069E+03 3.16957E+01 4.81074E+01 9.29726E+00-8.96768E-01 2.88525E+03
 -1      1353 2.82712E+03 3.13125E+00 1.53609E+01 1.52330E+01-3.99800E+01 2.81503E+03
 -1      1354 3.39661E+03 1.51508E+01 8.37710E+00-2.71888E+01-8.82037E+00 2.90662E+03
 -1      1355 2.94431E+03-1.56022E+01-5.15855E+00-1.15390E+01 6.85194E+00 2.87160E+03
 -1      1356-7.77558E+03-2.37324E+01-6.44005E+00 5.41854E+01-7.05896E+00 3.13950E+03
 -1      1357 2.77108E+03 1.75804E+01 2.11134E+01 3.64591E+01-4.16286E+01 2.75351E+03
 -1      1358 2.17657E+03-1.60994E+01-6.37133E+01 9.09809E+01-7.43230E+00 2.67424E+03
 -1      1359-6.36144E+03 1.67209E+01-3.43306E+01 5.63078E+01 5.77899E+00 2.96678E+03
 -1      1360 2.60506E+03 1.70512E+01 3.56126E+01 7.65942E+01-2.89529E+00 2.63292E+03
 -1      1361 2.04261E+03-5.75378E+01-4.77374E+01 2.82095E+01 1.64672E+01 2.68092E+03
 -1      1362 3.76542E+03-3.14545E+01-3.74022E+01 7.26902E+01-1.41378E+01 2.88090E+03
 -1      1363 3.29217E+03-4.96986E+01-4.56670E+01 1.22261E+01 3.07575E+01 2.90544E+03
 -1      1364 3.71379E+03 4.00722E+00 1.36290E+01 1.94621E+01-7.81641E+00 2.90348E+03
 -1      1365 3.15130E+03-1.61962E+01-7.32951E+00-1.44381E+01 1.46183E+01 2.90214E+03
 -1      1366-8.88383E+03-1.62409E+01 1.03506E+01 1.70390E+01-4.36302E+00 3.20411E+03
 -1      1367-3.07090E+04-2.35293E+01 8.26618E+00-9.75220E+01 3.07489E+02 2.14299E+03
 -1      1368-3.12681E+04 4.05372E+01-2.47710E+00-1.48495E+02 4.06061E+02 1.54014E+03
 -1      1369-1.35252E+04 9.76424E+01-4.70011E+02-4.65009E+00 6.81845E+02 1.62358E+03
 -1      1370-3.13847E+04 3.52503E+02-2.64018E+02-4.08131E+02 6.17829E+02 1.00618E+03
 -1      1371-2.18063E+04 9.36513E+02-1.03058E+03-7.08953E+02 9.28548E+02-7.56491E+01
 -1      1372-3.90732E+04 1.50110E+03 8.86139E+02-7.33818E+02 9.43680E+02 1.65818E+02
 -1      1373 4.80910E+03 3.20996E+01-7.97434E+01 8.99774E+01 1.06759E+02 2.65064E+03
 -1      1374 4.67885E+03-2.34573E+01 2.53386E+00 5.70299E+00 1.34576E+01 2.85782E+03
 -1      1375-1.28593E+04 3.23242E+00-7.67998E+01 5.48164E+01 3.05681E+02 2.72118E+03
 -1      1376 4.48536E+03 3.93315E+01-2.43179E+02 1.38797E+02 2.99555E+02 2.17819E+03
 -1      1377 4.52159E+03-5.23519E+01-5.89648E+02 1.37242E+02 3.77089E+02 1.42583E+03
 -1      1378 1.42746E+02 3.72567E+00-1.50842E+01 7.12901E+00-6.97176E+00 4.92089E+02
 -1      1379 4.77073E+01 2.22025E+00-1.39532E+01-2.82637E-01-4.34390E+00 3.81513E+02
 -1      1380-4.81512E+01 2.06190E+00 1.49701E+01 4.80453E+00-5.04265E+00 3.96032E+02
 -1      1381 7.76301E+01 6.60487E+00-9.80522E+00-1.46691E+00-2.62885E+00 3.10326E+02
 -1      1382 9.40798E+01 5.86598E+00-2.06521E+01 2.94616E+00-6.96507E+00 2.36439E+02
 -1      1383 1.96235E+01 8.88159E+00-2.25732E+00-1.53431E+00-3.87284E+00 2.57505E+02
 -1      1384-4.23847E+03 1.23486E+01 3.29064E+01 3.28633E+01-7.47517E-01 1.73794E+03
 -1      1385-4.91851E+03-8.10044E+00 1.26147E+01 3.25556E+01-1.00429E+01 1.81958E+03
 -1      1386-3.47872E+03 1.84384E+01 2.22524E+01 2.33650E+01 6.25743E+00 1.59001E+03
 -1      1387-4.11940E+03-1.69331E+01-9.86815E+00 1.77298E+01 2.16491E+00 1.65414E+03
 -1      1388-1.71731E+03-1.33208E+01-7.51397E+00 2.62313E+01-7.52330E+00 1.90347E+03
 -1      1389 2.15698E+03 2.14090E+01-2.05772E+01-3.38296E+01-2.31597E+01 2.57874E+03
 -1      1390 1.70933E+03-1.42423E+01-5.64502E+01-1.03723E+01-3.48911E+00 2.52971E+03
 -1      1391 2.48851E+03 2.19293E+01 4.05769E+01 2.46675E+01-1.19096E+01 2.61318E+03
 -1      1392 1.88779E+03-3.38455E+01-3.14424E+00-8.19145E+00 1.74575E+01 2.58516E+03
 -1      1393-5.14373E+03-2.44634E+01 3.45999E+01 2.57299E+01-1.91829E+01 2.80710E+03
 -1      1394 1.66530E+02 9.62009E+00-1.83263E+01 5.18002E+00-5.09447E+00 6.81201E+02
 -1      1395 8.65600E+01 2.59724E+00-1.85672E+01 5.46634E+00-2.14080E+00 5.86350E+02
 -1      1396 2.75945E+02 3.77087E+00-5.85154E+00 1.52501E+01-6.98884E+00 8.87927E+02
 -1      1397 1.24391E+02-1.67243E+00-1.37566E+01 7.67677E-02-1.33082E+01 7.78060E+02
 -1      1398-2.60399E+02 1.21321E+01-1.20041E+00 1.26788E+01-3.61947E+00 7.82908E+02
 -1      1399-7.97317E+03 2.18456E+01 3.08545E+01 3.21088E+01-1.50218E+01 2.21396E+03
 -1      1400-8.82167E+03-1.74963E+01 1.11484E+01 4.19653E+01-2.60901E+01 2.25869E+03
 -1      1401-6.97157E+03 1.56096E+00 2.30221E+01 4.30121E+01-2.92821E+01 2.11897E+03
 -1      1402-7.78031E+03-3.24265E+00 1.04414E+01 3.52146E+01 3.89169E+00 2.18301E+03
 -1      1403-3.28995E+03 1.20573E+01-7.55956E+00 2.65019E+01 3.03031E+00 2.44274E+03
 -1      1404-2.13509E+03 3.77139E+00 1.63479E+01 2.23146E+01-1.65796E+01 1.29265E+03
 -1      1405-2.61978E+03-1.27258E+00 1.14704E+01 2.49344E+01-1.30720E+00 1.38948E+03
 -1      1406-2.74970E+03 9.15902E+00 5.09590E+01 2.68875E+01-1.06529E+01 1.45079E+03
 -1      1407-3.31994E+03 1.38311E+00 2.73087E+01 4.33508E+01-1.46072E+01 1.53890E+03
 -1      1408-1.08742E+03 1.38011E+01 4.00692E+00 1.43877E+01-1.72466E-01 1.57850E+03
 -1      1409-6.00103E+03 8.33921E+00 3.22152E+01 4.24412E+01 7.14511E+00 1.99060E+03
 -1      1410-6.76844E+03-8.04513E+00 1.99316E+01 3.37937E+01 6.54190E+00 2.02600E+03
 -1      1411-5.11287E+03-5.98905E-01 1.85527E+01 4.85991E+01 1.14777E+01 1.88875E+03
 -1      1412-5.81215E+03-1.32318E+01 2.65360E-01 3.43279E+01 7.74454E+00 1.92178E+03
 -1      1413-2.48050E+03-1.80915E+01 7.35277E+00 2.86007E+01-1.41765E+00 2.18399E+03
 -1      1414-2.42580E+04-1.45686E+00 3.13647E+00 6.22752E+01 3.61985E+01 2.92407E+03
 -1      1415-2.53374E+04 1.52944E+00-2.99191E+00 4.48635E+01 1.12214E+01 2.87656E+03
 -1      1416-2.56546E+04 1.69017E+01 3.41119E+01 6.13227E+01-5.13599E+01 2.94962E+03
 -1      1417-2.70065E+04-3.55660E+00-1.08082E+01 5.20947E+01-1.10367E+01 2.97089E+03
 -1      1418-1.06103E+04-2.66177E+01 3.35470E+01 2.55740E+01-1.55520E+01 3.24364E+03
 -1      1419-1.75561E+04 2.04091E+00-2.30252E+00 3.18069E+01 4.25599E+00 2.72076E+03
 -1      1420-1.86229E+04-2.22986E+01-4.58205E+01 3.42267E+01-1.89642E+01 2.78215E+03
 -1      1421-1.64052E+04 2.00113E+01 4.24041E+01 4.05278E+01-1.63736E+01 2.76418E+03
 -1      1422-1.72537E+04-1.77447E+01-4.65861E+00 6.09804E+01 3.82125E+01 2.77184E+03
 -1      1423-7.35067E+03 1.74806E+01-5.13613E+01 4.08173E+01 1.16873E+00 2.99889E+03
 -1      1424-1.25887E+04 2.17004E+01 6.10592E+01 5.08386E+01-5.65902E+01 2.56216E+03
 -1      1425-1.35979E+04-9.13436E+00 2.42456E+01 4.57416E+01-3.32416E+00 2.60082E+03
 -1      1426-5.77244E+03 9.80820E+00 5.88966E+00 3.10725E+01-3.67443E+00 2.91809E+03
 -1      1427-1.39052E+04 1.38282E+01 5.28770E+01 4.08057E+01-8.72409E+00 2.61976E+03
 -1      1428-1.49264E+04 5.69974E+00 3.45651E+01 5.46259E+01-2.81674E+01 2.66203E+03
 -1      1429-2.15109E+04 1.83226E+01 3.94642E+01 4.30695E+01-1.91456E+01 2.91649E+03
 -1      1430-2.25997E+04-2.45331E+01-1.34464E+01 5.68814E+01 4.31812E+01 2.90712E+03
 -1      1431-2.29145E+04 4.43455E+00-1.07166E+01 3.98062E+01 7.90952E+00 2.82621E+03
 -1      1432-2.39938E+04-1.22469E+01-2.26799E+01 3.10593E+01 1.69816E-01 2.91724E+03
 -1      1433-9.59765E+03 1.31822E+01-5.61080E+01 3.93443E+01 6.62000E+00 3.13913E+03
 -1      1434-1.88482E+04 4.92331E-01 1.14223E+01 4.85181E+01-6.78400E+00 2.80616E+03
 -1      1435-1.99175E+04-1.83603E+01 6.28634E+00 3.71894E+01-6.50684E+00 2.84764E+03
 -1      1436-2.01932E+04-5.87352E+00 2.28913E+01 6.54586E+01 1.75916E+01 2.88196E+03
 -1      1437-2.12393E+04-1.53895E+01 5.23182E+00 5.55589E+01 1.92451E+00 2.86349E+03
 -1      1438-8.39269E+03-4.10307E+01 1.41551E+01 2.43936E+01-5.77177E+00 3.17712E+03
 -1      1439-4.87264E+03 3.06992E+02-8.47086E+02-2.28095E+02 1.07435E+03-1.71453E+02
 -1      1440 3.95948E+03-2.27926E+02-8.25485E+02 2.95934E+02 6.60259E+02 8.51977E+02
 -1      1441 1.24345E+04-8.33069E+02-1.74634E+03 1.59368E+02 1.15185E+03-8.74773E+02
 -1      1442-4.46095E+01 1.82290E+00 1.53846E+01-6.65828E-01-5.75045E+00 2.56524E+02
 -1      1443-1.19945E+02 4.61268E+00 3.45327E+01 3.65480E-02-5.08471E+00 2.26212E+02
 -1      1444-1.33156E+02-1.55160E+00 3.07642E+01 6.89410E+00-4.38108E+00 3.01388E+02
 -1      1445 4.92296E+03 2.27189E+01-3.60901E+01-1.36823E-01 1.02970E+01 2.87702E+03
 -1      1446 4.57249E+03-1.38527E+01-4.43333E+01 3.47479E+01 1.34873E+01 2.98185E+03
 -1      1447-1.18374E+04 1.56196E+01 4.30899E+01 3.31021E+01 8.13443E+00 3.27512E+03
 -1      1448-2.84815E+04 8.69292E+00 2.22812E+01 5.28867E+01 1.20933E+00 2.91217E+03
 -1      1449-2.73481E+04 3.21923E+01 1.53674E+01 3.98517E+01 8.14534E+00 2.95025E+03
 -1      1450-1.54965E+03 5.57566E+00 3.76561E+01 1.75393E+01-7.64279E+00 1.14336E+03
 -1      1451-1.98990E+03-1.61693E+00 3.86034E+01 1.97861E+01-4.67373E+00 1.20531E+03
 -1      1452-9.03905E+03-1.59518E+00 4.60065E+01 3.77489E+01-1.78868E+01 2.32414E+03
 -1      1453-9.93221E+03-1.99632E+01 3.85213E+00 3.98410E+01 3.80084E+01 2.36302E+03
 -1      1454 1.98999E+03 1.54679E+01 2.26858E+01 4.56078E+00-1.76241E+00 2.52138E+03
 -1      1455 1.56617E+03-2.63511E+00 1.50927E+00-5.46493E-01-2.11254E+01 2.45427E+03
 -1      1456-4.23713E+03 1.78152E+01-3.32079E+01 4.40076E+01 1.51089E-01 2.57367E+03
 -1      1457 2.88772E+03-2.67140E+01-3.55485E+01 6.66788E+01-1.59373E+01 2.72325E+03
 -1      1458 2.54482E+03-2.53706E+01-9.81890E+00 4.65841E+01 5.91537E+00 2.77256E+03
 -1      1459-6.77722E+03 7.03200E+00 3.20023E+01 3.45054E+01-6.21738E+00 3.05177E+03
 -1      1460-1.62773E+04-2.38647E+01-4.10455E+01 3.36939E+01 2.81919E+01 2.68125E+03
 -1      1461-1.52688E+04 1.25796E+01-2.81636E+01 3.37564E+01 2.97575E+01 2.67288E+03
 -1      1462 3.35315E+02 1.25845E+01-1.26109E+01 1.17817E+01 7.83975E-01 1.04990E+03
 -1      1463 1.69810E+02 3.50041E+00-1.24610E+01 1.05554E+01 1.06146E+01 9.80899E+02
 -1      1464-6.03666E+02 4.68192E+00 2.53091E+01 1.48075E+01-6.94162E+00 1.21442E+03
 -1      1465 1.51236E+04-2.80861E+01-3.11885E+00 1.68544E+02-2.51430E+00 1.12485E+02
 -1      1466 6.87955E+03-2.05555E+01-1.27059E+01 1.09468E+02 4.51042E+00 4.37387E+01
 -1      1467 3.12742E+03-8.47622E+00-6.38061E+00 2.44481E+02-5.61870E+00 4.05168E+01
 -1      1468 7.93482E+02-3.65887E+01-9.66544E+00 4.15165E+01 3.42114E+00 1.67373E+01
 -1      1469 2.28268E+04 6.03357E+00 4.54149E+01 1.72890E+02 4.66835E+00 8.20516E+01
 -1      1470 8.99804E+03-9.27044E+00-2.20911E+01 3.90956E+02-3.82245E+00 6.18470E+01
 -1      1471 2.88395E+04-7.92287E+00-1.50709E+01 1.86477E+02-5.35125E+00 1.30449E+02
 -1      1472 5.81885E+04-1.27535E+01 6.22319E+00 7.08927E+02 8.32793E-01 7.14127E+01
 -1      1473 6.22898E+04 4.66394E+00-1.24789E+01 2.17645E+02-9.47447E+00 1.53831E+02
 -1      1474 7.66800E+04-7.79123E+01-5.68649E+01 2.07237E+02 1.19271E+01 2.41568E+02
 -1      1475 4.05504E+04 4.96185E+00-2.18487E+01 6.34091E+02-5.09258E+00 1.11364E+02
 -1      1476 3.82202E+04-2.31852E+01-3.43748E+01 1.98852E+02 3.81719E+00 5.21605E+01
 -1      1477 5.50793E+04-4.27718E+00 1.64653E+01 2.25276E+02-1.78808E+00 1.12883E+02
 -1      1478 7.11588E+04 1.78457E+03 2.06815E+01-7.10473E+02-5.29804E+01 1.93366E+02
 -1      1479 1.48939E+04-3.11294E+00-2.71398E+01 4.74034E+02-8.77036E+00 6.10371E+01
 -1      1480 2.58871E+03-3.43795E+01-2.43797E+01 6.59175E+01 4.30527E+00 1.39101E+01
 -1      1481 1.76073E+02-2.53902E+01-3.00276E+01 6.76424E+01-1.49961E+00-1.52521E+01
 -1      1482 2.68993E+04-7.69725E+00-4.65900E+01 6.09582E+02 1.60567E+00 1.36477E+01
 -1      1483 1.30760E+03-2.06230E+01-2.90584E+01 1.51456E+02-2.60492E+00 4.53494E+01
 -1      1484 2.16360E+04 8.37700E+00 1.25850E+01 5.36421E+02 8.11013E+00 9.75227E+01
 -1      1485 4.49286E+04-7.58928E+01-7.72353E+01 2.80402E+02 1.77069E+01 1.98943E+02
 -1      1486 4.91284E+04 6.00309E+01 8.79402E+01 5.62177E+02 3.33654E+01 2.57149E+02
 -1      1487 3.47219E+04-1.54806E+01 8.30738E+00 6.37117E+02-1.42815E+00 1.16945E+02
 -1      1488 8.28771E+04 8.39119E+03-5.89553E+03 1.97398E+03-2.83094E+02 4.87705E+02
 -1      1489 2.12652E+01-3.14951E+01-1.45474E-02 3.04729E+01 5.66892E-01-3.84786E+00
 -1      1490 5.78515E+03-1.14603E+01-1.27213E+01 3.38196E+02 2.06577E+00 6.74237E+01
 -1      1491 1.06437E+04-1.11796E+01 1.04155E+00 1.45392E+02 1.25543E+00 7.50044E+01
 -1      1492 6.94757E+04-2.10943E+01-7.19802E+01 2.27878E+02 8.53322E+00 1.27073E+02
 -1      1493 6.41829E+04 2.76723E+01 4.62489E+01 7.27666E+02 1.06588E+01 1.03238E+02
 -1      1494 6.78937E+04 2.93262E+02-8.61299E+00 5.85036E+02-2.50416E+01 2.30611E+02
 -1      1495 7.62023E+04 1.29044E+03-2.31423E+02 3.74465E+02-1.17237E+02 2.39212E+02
 -1      1496 6.23520E+02-1.46317E+01-9.22652E+00 1.20367E+02-3.46510E+00 1.64151E+01
 -1      1497 1.75550E+04 1.94393E+01 3.59083E+01 2.11515E+02-1.56579E+01 1.61217E+02
 -1      1498 2.02950E+04-2.94648E+01-4.70729E+01 1.66401E+02 8.92456E-01 8.39103E+01
 -1      1499 1.98475E+04-6.69450E+00-3.29127E+00 4.28834E+02-1.51783E+01 1.34484E+02
 -1      1500 5.20657E+03-2.04645E+01-1.59167E+01 9.31317E+01-2.53136E+00 4.62694E+01
 -1      1501 1.08253E+04-5.74025E+00-5.37306E+00 4.23387E+02-4.27285E+00 4.10507E+01
 -1      1502 3.17556E+04 3.40651E+01 4.79526E+01 2.73323E+02-2.86326E+01 2.35494E+02
 -1      1503 3.50528E+04-1.78285E+01-2.22476E+01 2.06201E+02 2.82492E+00 1.01161E+02
 -1      1504 3.35148E+04-1.32091E+01 1.61964E+01 5.13878E+02 1.45027E+01 2.11650E+02
 -1      1505 2.07714E+03-1.53429E+01-2.88742E+00 2.16173E+02 3.68250E-01 4.55714E+01
 -1      1506 4.83880E+04-8.83758E+00-4.02824E+01 2.22733E+02-6.47095E+00 1.18396E+02
 -1      1507 4.40766E+03-2.45051E+01-2.95815E+01 2.47264E+02 2.73230E-01 6.75379E+01
 -1      1508 3.74753E+04 6.13308E+01 7.03037E+01 5.42245E+02 2.73088E+01 2.04726E+02
 -1      1509 5.88025E+04-7.24372E+01-7.51501E+01 2.92362E+02 1.94341E+01 2.09324E+02
 -1      1510 5.16000E+04 5.11704E+00 4.21381E+01 2.10965E+02 3.52799E+00 6.21611E+01
 -1      1511 4.91095E+04-1.82971E+01 4.60428E+00 5.52238E+02 2.57221E+00 1.61724E+02
 -1      1512 1.53904E+03-2.16556E+01-7.56066E+00 7.72530E+01-5.30082E+00 6.74588E+01
 -1      1513 2.42442E+04 7.35354E+00-1.50159E+01 5.67204E+02-4.25556E+00 8.13207E+01
 -1      1514 6.56936E+04 4.20252E+01 6.78425E+01 3.15700E+02-3.35168E+01 2.65707E+02
 -1      1515 5.89894E+04 5.83303E+00-1.42896E+01 5.31646E+02 9.54371E+00 2.54742E+02
 -1      1516 6.10968E+04-8.14851E+00 3.00144E+01 6.89508E+02-4.56329E+00 1.00004E+02
 -1      1517 7.28065E+04 6.09187E+00 6.71859E+01 1.78369E+02-1.47777E+00 7.55932E+01
 -1      1518 4.12970E+04 1.39428E+01 4.94668E+01 2.01818E+02 9.45798E+00 8.37240E+01
 -1      1519 8.74363E+03-3.07692E+01-2.81038E+01 1.11914E+02 1.34904E+00 9.58647E+00
 -1      1520 1.28164E+04-2.49235E+01-7.82569E+00 1.34043E+02 1.58217E+00 3.18649E+01
 -1      1521 2.59354E+04-7.15687E+01-6.95407E+01 2.45852E+02 2.27984E+01 1.68043E+02
 -1      1522 3.71576E+03-3.04347E+01 6.79201E+00 9.12663E+01-4.77861E-01 5.14293E+01
 -1      1523 7.22712E+03 1.75806E+01 2.31368E+01 3.04734E+02 2.10592E+01 1.51117E+02
 -1      1524 1.27757E+04-1.59148E-01-1.05038E+01 4.52193E+02-3.77042E+00 5.87061E+01
 -1      1525 7.22246E+04 1.13613E+02 5.08828E+01 5.07065E+02-1.24589E+01 2.96152E+02
 -1      1526 8.01127E+04 1.49852E+02 4.36341E+01 3.38142E+01-3.06817E+01 1.15689E+02
 -1      1527 7.60379E+04 7.51104E+03-7.31838E+03-2.41896E+03 3.03193E+00-1.14088E+02
 -1      1528 1.94023E+04-7.71879E+00-9.61378E+00 5.46484E+02-8.21403E-01 6.16291E+01
 -1      1529 1.69913E+04-1.81629E+01-1.81980E+01 4.89794E+02-2.13148E+00 5.30595E+01
 -1      1530 5.22909E+04 6.70637E+00-2.46888E+01 6.64567E+02-2.90811E+00 1.22883E+02
 -1      1531 5.53543E+04-1.08018E+00-2.71672E+01 6.62922E+02-1.25027E+01 9.66340E+01
 -1      1532 4.62751E+04-6.31894E+00 2.44470E+01 6.54915E+02 1.45754E+01 1.22457E+02
 -1      1533 3.66344E+04 2.53183E+01-5.98856E+00 5.51599E+02-1.75035E+00 2.31463E+02
 -1      1534 2.92299E+04-4.73408E+00 2.99360E+01 5.85799E+02 8.00736E+00 1.39545E+02
 -1      1535 4.59138E+04-2.65749E+00-8.46564E+00 5.59639E+02 4.45878E+00 1.64679E+02
 -1      1536 4.40916E+02-3.95433E+01-2.40665E+01 8.35550E+01 7.46079E-01 4.96561E+01
 -1      1537 1.05449E+03-3.56602E+01-2.69581E+01 1.25295E+02 2.63483E+00 4.69139E+01
 -1      1538 7.19436E+03-2.63144E+01-2.67283E+01 3.04902E+02-6.93659E+00 1.28399E+02
 -1      1539 8.85020E+03-2.91500E+01-9.18054E+00 3.07021E+02 1.07351E+01 9.29779E+01
 -1      1540 1.07589E+04-2.39202E+01-1.29787E+01 3.51375E+02-3.59787E+00 1.01471E+02
 -1      1541 1.82731E+03-3.61446E+01-1.69129E+01 1.63630E+02-1.21634E+01 7.84452E+01
 -1      1542 4.13805E+03-2.95667E+01-2.35068E+01 2.45690E+02 4.61861E+00 8.97297E+01
 -1      1543 2.49460E+04-2.93563E+01 9.90934E+00 4.34622E+02 1.06099E+00 2.18529E+02
 -1      1544 1.51442E+04-1.53522E+01-2.16814E+01 3.66967E+02 5.56430E+00 1.66565E+02
 -1      1545 6.54675E+04-1.44920E+01 1.62861E+00 5.63497E+02 1.61469E+01 1.77284E+02
 -1      1546 6.90275E+04-1.55467E+01-4.55444E+01 5.28468E+02 4.73038E+00 2.52403E+02
 -1      1547 5.49679E+03-3.25423E+01-1.16970E+01 2.75393E+02-8.02227E+00 1.27589E+02
 -1      1548 1.28161E+04-2.30324E+01 6.67841E-01 3.64304E+02-5.32886E+00 1.12256E+02
 -1      1549 3.98692E+04 1.24894E+01-1.90151E+01 5.60707E+02 8.26361E+00 2.23465E+02
 -1      1550 2.87239E+03-3.97906E+01-3.02599E+01 1.97172E+02 4.12218E+00 5.91950E+01
 -1      1551 4.26048E+04-2.29264E+01 3.04653E+00 5.24643E+02 7.76566E+00 2.25615E+02
 -1      1552 2.79891E+04-8.38377E+00-2.03831E+01 4.52286E+02 1.34646E+01 2.20645E+02
 -1      1553 2.25631E+04-1.79418E+01-4.21659E+01 4.36784E+02 1.48723E+01 1.99138E+02
 -1      1554 1.73626E+04-3.06738E+01 7.63595E+00 4.30466E+02-1.82542E+01 1.28783E+02
 -1      1555 3.19435E+04 1.43293E+01-9.09990E-04 5.56435E+02-4.70522E+00 2.09646E+02
 -1      1556 3.06908E+04-2.67557E+01 5.80657E+00 5.26312E+02-1.44849E+01 1.62069E+02
 -1      1557 6.21059E+04-1.12572E+01 1.87639E+01 6.02743E+02-2.97640E+01 1.77638E+02
 -1      1558 4.35185E+04-9.53021E+00-5.24093E+01 6.72787E+02-6.31914E-01 1.41180E+01
 -1      1559 5.25600E+04 1.36053E+01-1.07368E+01 5.74762E+02 6.12269E+00 2.28392E+02
 -1      1560 5.53957E+04-1.96757E+01 1.00088E+01 5.35774E+02 5.20062E+00 2.39652E+02
 -1      1561 3.60238E+00-2.59822E+01 4.22692E+00 3.64062E+01 4.04651E-01-5.90535E-01
 -1      1562 8.36397E+04 1.31394E+03-2.24470E+02 8.59544E+02-9.11656E+01-1.26803E+02
 -1      1563 2.38058E+02-4.07666E+01-2.19674E+01 3.09477E+01 3.42959E+00-8.35747E+00
 -1      1564 7.77386E+04 4.76163E+03-4.51952E+02 2.16024E+02-1.34663E+02-1.41385E+01
 -1      1565 7.12791E+04 4.45058E+03-4.88722E+03-6.01631E+03 1.65359E+02 3.59803E+02
 -1      1566 8.75183E+04 2.99882E+03-6.39901E+03 5.36186E+03-7.21639E+02-5.58394E+02
 -1      1567-4.35013E+00-8.86049E+00-7.67590E+00 1.49781E+01-4.22147E+00-2.01329E+01
 -1      1568 1.19739E+01-1.83737E+01-5.73452E+00 1.47934E+01 1.94030E+00-8.77761E+00
 -1      1569 1.32197E+02-4.51031E+01-1.28723E+01 5.85890E+01 8.22846E-02 1.89927E+01
 -1      1570 9.05412E+04 1.83762E+04 7.44030E+03 6.39691E+03-6.13874E+01 9.12629E+03
 -1      1571 1.00024E+05 1.60042E+04 9.50061E+03 1.27011E+04 2.22287E+03 6.64864E+03
 -1      1572 8.31402E+04-1.98276E+03-3.65321E+03 1.25633E+03-1.54758E+03-1.92061E+03
 -1      1573 7.46261E+04 1.25258E+04 6.54020E+03-1.14839E+04-1.45618E+03 3.79720E+03
 -1      1574 7.57332E+04 1.80876E+04 9.51799E+03-8.25912E+03-7.94885E+02 7.58972E+03
 -1      1575 6.30383E+04-7.22930E+02-2.21157E+03-2.32056E+03 6.99783E+02-1.38233E+03
 -1      1576-1.00564E+01-5.66266E+00-5.12285E+00 8.60666E+00 1.07334E-01-1.21294E+01
 -1      1577-1.07823E+01-1.15335E+01 3.06556E+00 7.56199E+00 6.13693E-01-4.66460E+00
 -1      1578 3.72781E+01-1.62005E+01-7.11338E+00 7.92516E+00-1.44785E+00-2.59607E+00
 -1      1579-2.34059E+01 7.49877E+00 2.48272E+00 9.04289E+00-6.18657E-01-5.43419E+00
 -1      1580-2.42347E+01-4.13442E+00-1.15765E+01-7.39763E-01-1.43595E+00-1.53649E+01
 -1      1581 3.40062E+01-5.32087E+00-2.04866E+00 1.21742E+01-4.72941E+00-1.55615E+01
 -1      1582 8.58984E+04 2.06463E+04 8.86777E+03 3.57921E+02-4.39745E+02 8.87828E+03
 -1      1583 9.02449E+04 2.26686E+04 1.16302E+04 3.89360E+03-7.82143E+02 9.98675E+03
 -1      1584 8.58857E+04 6.95540E+03-6.46848E+03 3.76254E+03-2.78408E+02-2.56599E+02
 -1      1585 7.75222E+04 1.79365E+04 6.19701E+03-5.62558E+03 8.37382E+01 6.81012E+03
 -1      1586 8.38022E+04 2.13912E+04 1.08948E+04-2.44472E+03-5.49228E+02 9.05796E+03
 -1      1587 7.91973E+04 9.01783E+03-5.68972E+03-2.67446E+02-2.00043E+02 9.26278E+01
 -1      1588 7.29589E+04 6.60365E+03-6.42245E+03-4.29446E+03-2.73219E+01-4.36230E+02
 -1      1589-6.55509E+00-1.94492E+01 6.99109E+00 1.54641E+01 4.18069E-01-4.49092E+00
 -1      1590-9.03302E+00-1.91316E+01 5.31121E+00 1.73749E+01-7.70002E-02-4.19733E+00
 -1      1591 1.08763E+01-2.92197E+01-6.76334E+00 2.03538E+01 8.68315E-01-7.28001E+00
 -1      1592-1.19011E+01-1.83108E+01 3.37925E+00 1.93504E+01 6.95533E-01-3.64750E+00
 -1      1593-1.30090E+01-3.72976E+00 6.08210E+00 1.84782E+01 1.42424E-01-3.87716E+00
 -1      1594 1.52318E+01-3.49732E+01-7.13832E-01 3.45702E+01 2.12642E-01-2.93517E+00
 -1      1595-7.26877E+00-1.53748E+01-3.37083E+00 3.02803E+01-1.10454E+00-6.83240E+00
 -1      1596 8.58703E+04 1.82009E+03 8.70222E+02 9.80565E+02 5.87908E+02-3.34836E+02
 -1      1597 8.51928E+04 3.82266E+02 1.25213E+02 3.00697E+02-4.58360E+01 1.20029E+01
 -1      1598 8.39233E+04 2.51284E+03-8.40163E+02 2.79243E+03-2.47333E+02-4.58502E+02
 -1      1599 8.36349E+04 1.66218E+02 6.47679E+01-6.84366E+00 5.12206E+01-1.72049E+01
 -1      1600 8.21324E+04 1.38102E+01 7.40485E+01-1.04407E+02 7.30256E+00 8.63193E+01
 -1      1601 8.18250E+04 6.24749E+02 2.36596E+01 3.40727E+02-1.33976E+02 2.12463E+01
 -1      1602 8.03502E+04-7.97923E+01-6.19322E+01-4.41254E+01 1.42080E+01 1.21442E+02
 -1      1603 7.87553E+04-1.32932E+00 1.02600E+01 3.46221E+00 3.68756E+01 2.42030E+02
 -1      1604 7.82752E+04 4.64374E+01-2.43927E+01 7.70277E+01-1.40041E+01 1.68725E+02
 -1      1605 7.68229E+04 3.56641E+01 6.89854E+01 4.40418E+01-2.97282E+01 1.89828E+02
 -1      1606 7.49202E+04 3.37767E+00 5.95171E+01 3.02608E+00 7.64340E+00 6.67155E+01
 -1      1607 7.49830E+04 1.56178E+01 7.10571E+01 1.83817E+02 1.56086E+01 2.22317E+02
 -1      1608 7.31678E+04-2.10898E+01-4.27218E+01 5.41352E+01-5.50201E+00 1.18126E+02
 -1      1609 7.11993E+04-2.56716E+01-3.89436E+01 4.85467E+01 4.78345E+01 2.00125E+02
 -1      1610 7.11115E+04-2.70808E+00-4.80443E+01 2.05134E+02-9.03063E+00 7.84773E+01
 -1      1611 6.93092E+04-1.77691E+01-6.00814E+00 5.10819E+01-4.10508E+01 2.50805E+02
 -1      1612 6.75747E+04 6.59165E+01 6.85961E+01 8.26243E+00 2.61833E+00 1.29140E+02
 -1      1613 6.73262E+04-4.99109E+01-7.27215E+01 2.25725E+02-2.28859E+01 2.20630E+02
 -1      1614 6.57703E+04 1.64110E+01-4.73977E+01-1.90457E+01-2.30005E+01 8.82650E+01
 -1      1615 6.37665E+04-1.79476E+01 1.08426E+01 1.13479E+01 1.63959E+01 7.52504E+01
 -1      1616 6.41429E+04 3.53492E+01 6.11409E+01 2.26285E+02-3.45224E+00 2.10533E+02
 -1      1617 6.20632E+04-3.53027E+01-5.04872E+01-1.32795E+01-4.93104E+00 8.48364E+01
 -1      1618 6.02488E+04-1.01280E+01-1.20485E+01 6.36419E+01 3.77311E+01 2.21807E+02
 -1      1619 6.03003E+04-1.03218E+02-7.99615E+01 2.50044E+02 1.41916E-01 1.57047E+02
 -1      1620 5.83696E+04 5.91063E+00 2.00284E+01 6.51888E+01-3.99569E+01 1.95526E+02
 -1      1621 5.64734E+04 8.48325E+00 1.90244E+01 7.58215E+01 2.48993E+01 1.73107E+02
 -1      1622 5.70982E+04 3.15270E+01 4.60725E+01 2.25232E+02 1.19778E+01 2.02842E+02
 -1      1623 5.46548E+04 1.21851E-01 3.35487E+01 5.33000E+01-1.73787E+01 1.70471E+02
 -1      1624 5.28709E+04 1.58793E+01 3.60312E+01 3.14752E+01 1.07354E+01 8.25827E+01
 -1      1625 5.33951E+04 5.89736E+00 6.65212E+01 2.10892E+02 4.02665E+00 1.27470E+02
 -1      1626 5.12066E+04 7.25338E+00-2.12080E+01 1.01789E+01-1.59177E+01 8.76152E+01
 -1      1627 4.92332E+04-2.33012E+01 7.14448E+00 1.12492E+01 3.19328E+01 6.41910E+01
 -1      1628 4.99187E+04-3.85584E+01-4.27073E+01 2.13619E+02-5.84835E-01 5.50430E+01
 -1      1629 4.75925E+04-3.67086E+01-4.33796E+01-1.24156E+01-6.24264E+00 8.26268E+01
 -1      1630 4.58525E+04-1.82147E+01-1.95198E+01 6.34190E+01 3.74475E+01 2.13499E+02
 -1      1631 4.63626E+04-1.23696E+02-1.01506E+02 2.28963E+02 3.24474E+00 1.16866E+02
 -1      1632 4.40978E+04 3.32946E+01 4.26789E+01 5.29535E+01-4.03031E+01 1.70772E+02
 -1      1633 4.22169E+04 3.23528E-01 2.92710E+01 3.59084E+01 1.55627E+01 8.30130E+01
 -1      1634 4.33092E+04 2.63078E+01 5.30117E+01 2.12010E+02 1.32877E+01 1.92312E+02
 -1      1635 4.06048E+04-2.46152E+01-3.03227E+01 3.17362E+01-7.70157E+00 7.31360E+01
 -1      1636 3.89460E+04-1.07959E+01-3.29089E+01 4.75713E+01 1.80755E+01 1.46603E+02
 -1      1637 3.97908E+04 1.00045E+01 2.19312E+01 2.04892E+02 7.10557E+00 4.48092E+01
 -1      1638 3.72851E+04-2.02304E+01-2.82753E+01 6.34526E+01-2.16637E+01 1.54306E+02
 -1      1639 3.55633E+04-1.43657E+01-2.41437E+01 5.48628E+01 3.84573E+01 1.71845E+02
 -1      1640 3.65713E+04-3.59569E+01-6.59158E+01 1.91056E+02-4.62717E-01 1.05695E+02
 -1      1641 3.38665E+04-2.69127E+01-2.29165E+01 4.07543E+01-3.27212E+01 2.15962E+02
 -1      1642 3.23600E+04 5.02353E+01 5.42732E+01 9.17554E+00 2.33069E+00 1.09880E+02
 -1      1643 3.31869E+04-5.02620E+01-6.39384E+01 2.01599E+02-2.06444E+01 1.89466E+02
 -1      1644 3.08245E+04 8.68361E+00-4.35601E+01-1.56935E+01-1.81237E+01 7.41457E+01
 -1      1645 2.91182E+04-2.50589E+01 4.66431E+00 1.32060E+01 1.48628E+01 6.32320E+01
 -1      1646 3.04182E+04 1.99696E+01 4.63615E+01 1.98251E+02 2.82043E-01 1.82879E+02
 -1      1647 2.77056E+04-3.90626E+01-4.33358E+01-1.11931E+01-1.83750E+00 6.79912E+01
 -1      1648 2.61977E+04-2.51484E+01-2.74905E+01 6.13376E+01 3.56067E+01 1.86072E+02
 -1      1649 2.71651E+04-1.04629E+02-7.20505E+01 2.11550E+02 5.25792E+00 1.28090E+02
 -1      1650 2.46905E+04 1.36091E+01 4.31830E+01 5.60968E+01-3.33898E+01 1.49658E+02
 -1      1651 2.31469E+04-7.02482E+00 2.95745E+01 3.25751E+01 7.46477E+00 7.19709E+01
 -1      1652 2.45504E+04 8.17125E+00 4.21507E+01 1.87101E+02 1.28765E+01 1.65543E+02
 -1      1653 2.17992E+04-1.84683E+01-3.36042E+01 2.74602E+01-7.26746E+00 7.04262E+01
 -1      1654 2.03828E+04-2.23918E+01-4.90460E+01 4.36944E+01 2.41462E+01 1.59829E+02
 -1      1655 2.15835E+04 1.67898E+01 2.18765E+01 1.70614E+02 6.24383E+00 6.57144E+01
 -1      1656 1.89718E+04-1.05506E+01-6.93283E+00 4.45679E+01-2.60034E+01 1.66822E+02
 -1      1657 1.76897E+04 1.64499E+01 3.09899E+01-9.36329E+00 9.10411E+00 6.84754E+01
 -1      1658 1.87960E+04-4.43983E+01-6.26403E+01 1.74587E+02-1.61044E+01 1.66483E+02
 -1      1659 1.64562E+04-2.59511E+01-3.69340E+01 1.02235E+01-2.08047E+01 6.39446E+01
 -1      1660 1.51556E+04-1.16504E+01 1.17155E+01 3.85685E+01 1.40593E+01 1.26318E+02
 -1      1661 1.64905E+04 4.99201E+01 4.49677E+01 1.66061E+02 7.63791E-01 1.08951E+02
 -1      1662 1.39427E+04-1.89637E+01 2.31352E+00 3.47571E+01-8.15631E+00 1.00339E+02
 -1      1663 1.28045E+04-9.33847E+00-1.49555E+01 3.51805E+01 9.78452E+00 9.10509E+01
 -1      1664 1.40352E+04-4.20963E+00 4.46304E+01 1.39644E+02-1.67864E+00 7.48227E+01
 -1      1665 1.16960E+04-9.43597E+00-2.74135E+01 2.71330E+01-2.07932E+01 9.17150E+01
 -1      1666 1.05245E+04-9.20420E+00 9.97681E+00 2.76284E+01 1.07536E+01 5.71015E+01
 -1      1667 1.16844E+04-3.44729E+01-4.32175E+01 1.24611E+02 5.52703E+00 4.79526E+01
 -1      1668 9.58270E+03-1.68294E+01-2.71311E+01 2.91303E+00-2.95586E+00 2.42661E+01
 -1      1669 8.56396E+03-3.04180E+01-3.65135E+01 3.81841E+01 1.26892E+01 7.33643E+01
 -1      1670 9.66730E+03-3.73239E+01 1.41388E+01 1.26094E+02 8.90945E+00 3.20860E+01
 -1      1671 7.61559E+03-1.39688E+01-2.03149E+01 3.38099E+01-9.36802E+00 8.34643E+01
 -1      1672 6.69080E+03-1.70988E+01-2.09546E+01 3.16631E+01 1.67634E+01 7.91567E+01
 -1      1673 7.71333E+03-4.00066E+01-5.02595E+01 1.11632E+02-3.94776E+00 5.17310E+01
 -1      1674 5.84628E+03-1.92986E+01-1.93424E+01 2.81163E+01-1.38052E+01 8.24280E+01
 -1      1675 5.03359E+03-1.24258E+01-1.94119E+01 3.05637E+01 1.54759E+01 8.11291E+01
 -1      1676 5.97618E+03-3.59175E+01-2.77488E+01 9.55220E+01-8.82516E+00 5.48357E+01
 -1      1677 4.29542E+03-1.68881E+01-1.01819E+01 2.01671E+01-1.22501E+01 7.67569E+01
 -1      1678 3.56249E+03-1.45279E+01 5.44464E+00 2.12831E+01 4.00750E+00 4.10367E+01
 -1      1679 4.46413E+03-3.28596E+01-1.18849E+01 8.31860E+01 4.64065E+00 6.29662E+01
 -1      1680 2.99410E+03-1.82730E+01-2.10238E+01-3.61964E-01 9.83133E-01 1.55963E+01
 -1      1681 2.37697E+03-3.58262E+01-3.73718E+01 2.12525E+01 1.22477E+01 4.92396E+01
 -1      1682 3.14240E+03-3.81403E+01 5.40137E+00 8.47919E+01 9.17841E+00 3.20014E+01
 -1      1683 1.83684E+03-2.46569E+01-2.71599E+01 1.16206E+01-5.12121E+00 6.43904E+01
 -1      1684 1.38680E+03-4.58533E+00 6.46290E+00 4.66921E-01 4.02689E+00 2.67011E+01
 -1      1685 1.93991E+03-5.00674E+01-4.71378E+01 6.74314E+01-8.71570E+00 5.36597E+01
 -1      1686 1.02470E+03-1.67147E+01-1.44484E+01-8.32964E+00-1.95015E+00 1.24162E+01
 -1      1687 6.28009E+02-3.36517E+01-1.21860E+01 1.00890E+01 3.61651E+00 7.54232E+00
 -1      1688 1.16923E+03-3.51417E+01-7.06216E+00 5.45458E+01 6.22236E+00 4.35315E+01
 -1      1689 3.96261E+02-1.88081E+01-1.02472E+01 4.19644E+00 2.95035E+00-1.51671E+00
 -1      1690 1.53364E+02-2.64088E+01-4.54405E+00 1.19099E+01 7.23988E+00-2.27539E+00
 -1      1691 4.62149E+02-5.72007E+01-2.81082E+01 4.35159E+01 5.00195E+00-4.25372E+00
 -1      1692 8.01024E+01-3.85369E+01-2.38750E+01 2.15230E+01-9.11611E-01-3.37288E+00
 -1      1693 6.64776E+04 7.75934E+02 3.86894E+02-1.94824E+02-8.91775E+01 2.99237E+02
 -1      1694 6.66723E+04 1.74548E+03 7.41343E+02-1.19231E+03-4.08218E+02-1.25783E+02
 -1      1695 6.93421E+04 2.75768E+03-7.22070E+02-3.15747E+03-6.77281E+01-3.91484E+02
 -1      1696 6.33604E+04 9.26544E+01-1.40497E+01 4.55118E+02-6.36980E+01 2.50845E+02
 -1      1697 6.43442E+04 1.73766E+02 2.79130E+01 2.93002E+02-1.44326E+01 1.42090E+02
 -1      1698 6.92792E+04 7.21220E+02-6.91320E+01 1.57735E+02 4.97248E+01 8.71959E+01
 -1      1699 6.03556E+04-1.14941E+01 4.97090E+01 5.14157E+02-1.72799E+01 8.25306E+01
 -1      1700 6.17123E+04 5.16831E+01 5.74493E+01 4.64908E+02 2.62579E+01 1.78051E+02
 -1      1701 6.59810E+04 9.86069E+01-2.02470E+01 7.13394E+02 8.59602E+00 1.86861E+02
 -1      1702 5.74657E+04-2.94945E+01 1.68369E+01 5.01142E+02-1.96629E+01 7.53484E+01
 -1      1703 5.89784E+04 1.96447E+01-3.84764E+00 4.96055E+02 2.42787E+01 6.71198E+01
 -1      1704 6.28388E+04 8.95991E+01 7.02259E+01 7.02884E+02 3.26508E+00 6.59975E+01
 -1      1705 5.46825E+04-1.81015E+01 3.65298E+01 5.17093E+02-1.68967E+01 7.23773E+01
 -1      1706 5.61257E+04 1.79624E+01-1.27859E+01 4.81430E+02 1.50655E+01 6.32862E+01
 -1      1707 5.98111E+04 7.33844E+01 7.84950E+01 6.66564E+02-1.03520E+01 7.39464E+01
 -1      1708 5.19009E+04 1.24376E+01-6.28459E+00 4.52662E+02-2.98428E+01 1.85229E+02
 -1      1709 5.32408E+04-2.29217E+01-5.88085E+01 4.57680E+02 1.85139E+00 1.09340E+02
 -1      1710 5.67742E+04 6.66018E+00-2.42937E+01 6.72064E+02 1.98370E+01 1.02497E+02
 -1      1711 4.90132E+04-5.89411E-01-2.68554E+01 4.38393E+02-3.08928E+01 2.22485E+02
 -1      1712 5.03543E+04-7.91347E+00-2.08512E+01 4.22781E+02 2.13500E+01 1.95004E+02
 -1      1713 5.37400E+04-6.21603E+00-3.03678E+01 6.96761E+02 4.34040E-01 1.20715E+02
 -1      1714 4.62628E+04 6.57343E+01 8.68914E+01 4.83523E+02 6.50047E+00 1.28612E+02
 -1      1715 4.74022E+04-3.35654E+01 6.81871E+00 4.46590E+02 4.43517E+01 2.66592E+02
 -1      1716 5.04780E+04-4.85846E+01-5.10713E+01 6.75162E+02 2.90206E+01 2.28094E+02
 -1      1717 4.33191E+04-2.77746E+01 1.29039E+01 4.54505E+02-4.62981E+00 8.18542E+01
 -1      1718 4.48021E+04 2.19661E+01-4.58099E+01 5.12186E+02 4.21589E+01 7.50647E+01
 -1      1719 4.79197E+04 6.52687E+01 8.15544E+01 6.78354E+02-1.10866E+01 1.59735E+02
 -1      1720 4.06653E+04-2.90629E+01-4.93366E+01 4.18052E+02-1.59774E+01 1.58002E+02
 -1      1721 4.19759E+04-3.41368E+00-5.58912E+01 4.60349E+02 3.28516E+00 5.08954E+01
 -1      1722 4.48584E+04-1.30949E+01 3.38179E+01 6.56860E+02-1.40243E+01 3.95903E+01
 -1      1723 3.78536E+04-3.43568E+00-2.87484E+01 4.16361E+02-3.05484E+01 2.11052E+02
 -1      1724 3.91762E+04-8.72087E+00-2.11021E+01 4.00207E+02 1.93747E+01 1.87961E+02
 -1      1725 4.18911E+04-1.63049E+01-7.20273E+01 6.65764E+02 1.70847E+01 1.14027E+02
 -1      1726 3.51361E+04 2.33618E+01 5.52726E+01 4.71067E+02-4.94324E+00 7.97074E+01
 -1      1727 3.63177E+04-3.20279E+00 2.43416E+01 4.06035E+02 4.31243E+01 2.32349E+02
 -1      1728 3.88461E+04-4.14618E+01-4.53243E+01 6.35535E+02 2.58981E+01 2.05443E+02
 -1      1729 3.24312E+04-3.00600E+01 3.09980E+01 4.76854E+02-1.98984E+01 7.51843E+01
 -1      1730 3.38058E+04 1.00765E+01-1.89016E+01 4.58617E+02 1.65952E+01 7.10460E+01
 -1      1731 3.63460E+04 1.03968E+02 7.59878E+01 5.98523E+02-2.00992E+00 1.36579E+02
 -1      1732 2.97771E+04-8.57682E+00 1.58547E+01 4.71491E+02-2.91996E+01 6.71116E+01
 -1      1733 3.11320E+04 1.19989E+01-1.56207E+01 4.39232E+02 1.57443E+01 7.98419E+01
 -1      1734 3.33348E+04-5.95024E+00-3.91458E+01 5.94836E+02 2.52175E+01 1.47837E+02
 -1      1735 2.72811E+04-1.51587E+00 1.78867E+01 4.17301E+02 3.46026E+00 1.07167E+02
 -1      1736 2.85473E+04-2.17390E+01-3.77188E+01 4.44004E+02 3.29379E+01 8.94586E+01
 -1      1737 3.07558E+04 1.04316E+02 9.92346E+01 5.99923E+02-3.46577E+00 1.21113E+02
 -1      1738 2.49115E+04-2.03473E+01-4.44176E+01 3.78506E+02-1.29742E+01 1.38714E+02
 -1      1739 2.60741E+04 1.85767E+00-5.02164E+01 4.20734E+02 6.52049E+00 4.57637E+01
 -1      1740 2.81071E+04 2.32540E+00 4.28655E+01 6.12972E+02-1.21442E+01 6.02696E+01
 -1      1741 2.24604E+04-2.41486E+00-1.72835E+01 3.66689E+02-2.27614E+01 1.64512E+02
 -1      1742 2.35810E+04-5.25851E+00-1.89009E+01 3.60747E+02 1.76177E+01 1.60391E+02
 -1      1743 2.54381E+04-1.78244E+01-6.69952E+01 5.92427E+02 1.65646E+01 9.44867E+01
 -1      1744 2.00917E+04 2.26431E+01 5.01007E+01 3.72568E+02-8.12821E+00 8.88495E+01
 -1      1745 2.11827E+04-1.44631E+01 3.84710E+00 3.60860E+02 3.05864E+01 1.75616E+02
 -1      1746 2.28619E+04-1.97089E+01-2.98513E+01 5.81028E+02 1.99435E+01 1.22982E+02
 -1      1747 1.78113E+04-3.08385E+01 1.78575E+00 3.65659E+02-8.55042E+00 4.27599E+01
 -1      1748 1.89664E+04 3.38595E+00-3.49723E+01 4.02910E+02 1.11324E+01 6.11418E+01
 -1      1749 2.05073E+04-1.36028E+01-2.13935E+00 5.32159E+02-2.36518E+01 9.07630E+01
 -1      1750 1.55875E+04-2.59340E+01 1.31934E+01 3.54347E+02-2.34594E+01 2.87073E+01
 -1      1751 1.67193E+04 2.65827E+01-2.20651E+01 3.51596E+02 1.06896E+01 3.69537E+01
 -1      1752 1.81030E+04-8.52891E+01-6.63819E+01 4.97425E+02 2.26970E+00 4.85341E+01
 -1      1753 1.36316E+04 5.00870E+00-1.55402E+01 3.18734E+02-2.19221E+01 1.24802E+02
 -1      1754 1.45883E+04-1.45246E+01-4.60635E+01 3.29057E+02 2.42397E+00 7.48578E+01
 -1      1755 1.58072E+04-2.19921E+01-5.54714E+01 4.90339E+02 1.98047E+01 4.75706E+01
 -1      1756 1.16872E+04-3.03122E+00-1.66346E+01 2.92810E+02-1.50100E+01 1.21121E+02
 -1      1757 1.25677E+04-8.64817E+00-1.57086E+01 2.94525E+02 1.40193E+01 1.26822E+02
 -1      1758 1.37493E+04-1.87159E+01-2.86082E+01 4.85715E+02 1.18370E+00 7.24332E+01
 -1      1759 9.86520E+03 1.89073E+00-8.21289E+00 2.74665E+02-1.70059E+01 1.03221E+02
 -1      1760 1.07006E+04-1.37364E+01-8.79700E+00 2.76261E+02 1.45908E+01 1.18359E+02
 -1      1761 1.17267E+04-2.83635E+01-3.31993E+01 4.56217E+02 5.57713E+00 6.84353E+01
 -1      1762 8.12733E+03-7.50033E+00-2.72319E+01 2.59686E+02-1.80104E+01 1.20598E+02
 -1      1763 8.91789E+03-1.45994E+01-2.40345E+01 2.58192E+02 9.81490E+00 1.10682E+02
 -1      1764 9.83171E+03-2.79220E+01-3.36356E+01 4.29183E+02-2.00214E+00 5.53372E+01
 -1      1765 6.59581E+03 2.94350E+01 3.70006E+01 2.58758E+02 1.70535E+00 6.67048E+01
 -1      1766 7.21271E+03-2.90580E+01-1.70542E+01 2.51421E+02 2.21491E+01 1.48294E+02
 -1      1767 7.94561E+03-4.27811E+01-4.92989E+01 3.79729E+02 2.38647E+01 1.23697E+02
 -1      1768 5.10045E+03-2.53328E+01-3.74390E+00 2.30691E+02-8.15631E+00 3.43905E+01
 -1      1769 5.84552E+03 7.06857E+00-3.14597E+01 2.63410E+02 9.37952E+00 4.32323E+01
 -1      1770 6.56821E+03 1.00577E+01 1.45862E+01 3.39690E+02-4.91022E+00 1.07480E+02
 -1      1771 3.83893E+03-2.06066E+01-1.50533E+01 2.06504E+02-9.05476E+00 2.42370E+01
 -1      1772 4.50061E+03 6.69109E-01-1.94909E+01 2.30475E+02 6.34073E+00 1.97282E+01
 -1      1773 4.94788E+03-7.90463E+01-5.97267E+01 2.90211E+02-1.10954E+00 5.25636E+01
 -1      1774 2.72677E+03-2.31686E+01-6.56299E+00 1.67347E+02-1.22826E+01 2.57373E+01
 -1      1775 3.31326E+03 9.51023E+00-1.88030E+01 1.94823E+02 8.94156E+00 1.39098E+01
 -1      1776 3.78040E+03-1.76587E+01-6.57109E+00 2.55700E+02-8.21062E+00 5.07284E+01
 -1      1777 1.78641E+03-9.78873E+00-2.90239E+00 1.49308E+02-2.08036E+00 3.05883E+01
 -1      1778 2.21340E+03-1.54405E+01-2.09265E+01 1.59790E+02 2.32589E+00 3.77664E+01
 -1      1779 2.58041E+03 4.95795E+00 1.31716E+01 2.23309E+02-5.04024E+00 5.52036E+01
 -1      1780 1.02015E+03-2.29779E+01-1.52996E+01 1.18023E+02-7.94365E+00 1.35573E+01
 -1      1781 1.42431E+03-4.32384E+00-1.46069E+01 1.38869E+02-2.06076E-01 1.35299E+01
 -1      1782 1.63321E+03-4.39818E+01-3.14585E+01 1.88229E+02-1.44271E+00 3.70600E+01
 -1      1783 4.47158E+02-2.63936E+01-1.49534E+01 7.30649E+01-1.71345E+00 6.97596E+00
 -1      1784 7.54370E+02-3.20383E+00-1.54112E+01 1.02524E+02 1.15196E+00 9.60419E+00
 -1      1785 9.25007E+02-2.77158E+01-1.89081E+01 1.28221E+02-1.01484E+01 3.85262E+01
 -1      1786 7.34212E+01-2.52030E+01-1.71175E+01 3.40798E+01-7.66568E+00-9.61145E+00
 -1      1787 2.80748E+02-5.73019E+00-1.34461E+01 5.39636E+01-3.65296E+00-2.22695E+00
 -1      1788 3.50407E+02-3.68898E+01-3.21484E+01 8.49158E+01-4.20416E+00-3.80901E+00
 -1      1789 3.55728E+01-3.26672E+01-2.88741E+01 3.54715E+01-4.91380E+00-1.60049E+01
 -1      1790 1.65013E+04-8.41786E-01 2.88663E+01 2.59325E+02-1.69378E+01 2.30811E+02
 -1      1791 1.51443E+04-3.02305E+01 3.21344E+01 2.82088E+02 3.20480E+01 1.41602E+02
 -1      1792 1.39695E+04-2.16043E+01 7.79671E+00 2.54389E+02-2.21615E+01 1.26831E+02
 -1      1793 1.28282E+04-2.64389E+01 2.35859E+01 2.33223E+02 4.52527E+00 6.79867E+01
 -1      1794 1.39481E+04-1.27619E+01 5.72117E+00 3.77483E+02 8.99002E+00 1.29341E+02
 -1      1795 6.13873E+03-3.65825E+01-2.25171E+01 1.67905E+02-1.44014E+01 7.20148E+01
 -1      1796 5.31267E+03-2.87136E+01-2.09955E+01 1.54496E+02 9.09668E+00 5.94013E+01
 -1      1797 7.87959E+03-2.25475E+01-4.88512E+01 2.01960E+02-5.72722E+00 6.42494E+01
 -1      1798 6.96336E+03-2.93282E+01-1.59311E+01 1.74632E+02 2.17675E+01 6.48426E+01
 -1      1799 6.23375E+03-3.98577E+01-2.90911E+01 2.80725E+02-1.71169E+01 1.24030E+02
 -1      1800 2.44697E+03-3.53980E+01-7.59213E+00 2.10838E+02-9.32202E+00 6.64935E+01
 -1      1801 2.97534E+03-3.34684E+01-2.58253E+01 2.38044E+02 1.02591E+01 7.40411E+01
 -1      1802 3.62486E+03 3.08240E+00 5.00618E+00 2.62780E+02-1.21187E+01 7.87287E+01
 -1      1803 4.21928E+03-1.88495E+01-2.25985E+01 2.40913E+02 2.58010E+01 1.24026E+02
 -1      1804 3.42172E+03-6.58097E+01-4.70628E+01 2.25665E+02 7.84948E+00 7.08621E+01
 -1      1805 1.35894E+03-2.82770E+01-8.90475E+00 8.69982E+01-4.02583E+00 6.63288E+01
 -1      1806 8.73237E+02-5.46973E+01-1.17628E+01 8.40236E+01 1.08531E+01 4.19675E+01
 -1      1807 5.78772E+02-4.87890E+01-2.46478E+01 5.82083E+01 1.98137E+00 3.22945E+01
 -1      1808 6.52122E+02-7.26021E+01-4.59742E+01 1.07688E+02 1.09093E+00 4.36940E+01
 -1      1809 3.43601E+02-4.34440E+01-2.12862E+01 5.24301E+01 7.07461E+00 1.67530E+01
 -1      1810 2.13424E+04-1.92999E+01 2.59801E+01 2.79660E+02-2.38715E+01 1.10415E+02
 -1      1811 2.00528E+04-3.23517E+01 1.42688E+00 2.82773E+02 1.14121E+00 1.06603E+02
 -1      1812 2.27368E+04 3.58074E+01 3.79134E+01 2.75611E+02 5.12087E+01 1.40691E+02
 -1      1813 2.11298E+04-6.12437E+01-2.64312E+01 4.35714E+02 1.02820E+01 1.71873E+02
 -1      1814 2.42930E+04 4.46118E+01 2.53930E+01 3.38537E+02-1.52209E+01 1.87312E+02
 -1      1815 9.87542E+03-2.58275E+01-7.56141E-01 4.06467E+02-1.85200E+01 7.32709E+01
 -1      1816 1.07687E+04-3.03415E+01-3.27544E+01 4.22171E+02 1.22188E+01 4.77522E+01
 -1      1817 7.91997E+03-4.47965E+01-4.26969E+01 3.34477E+02 9.46113E+00 1.02010E+02
 -1      1818 8.87015E+03-3.88028E+01-3.18365E+01 3.85994E+02 2.85689E+01 7.79084E+01
 -1      1819 9.79249E+03-1.10974E+01-3.81505E+00 3.41837E+02 1.75023E+01 1.17563E+02
 -1      1820 3.00531E+04 2.13653E+01 5.26900E+01 3.35118E+02-1.69140E+01 2.92599E+02
 -1      1821 2.83703E+04-3.65674E+01 2.80354E+01 3.45411E+02 2.42194E+01 2.24229E+02
 -1      1822 2.68828E+04 3.32575E+00-4.60158E+01 3.24205E+02-2.43980E+01 1.85473E+02
 -1      1823 2.52881E+04-6.79889E+01-6.77161E+01 2.99064E+02 2.13058E+01 2.59559E+02
 -1      1824 2.64769E+04 2.31432E+00 1.18671E+01 4.87194E+02 2.46320E+01 1.97905E+02
 -1      1825 6.18758E+04-3.03776E+01 2.85395E+01 6.48976E+02-2.91700E+01 1.53618E+02
 -1      1826 6.33056E+04-4.78272E+01 8.79576E+00 6.54931E+02 3.32234E+01 1.76202E+02
 -1      1827 5.87071E+04-1.42814E+01-9.60332E+00 6.67236E+02-3.75960E+01 1.25796E+02
 -1      1828 6.02073E+04-1.70609E+01-3.59509E+01 6.78764E+02 4.84675E+00 1.52819E+02
 -1      1829 6.38160E+04 4.55846E+01 2.56805E+01 5.64893E+02-2.03355E+01 1.97565E+02
 -1      1830 5.88552E+04 3.62122E+01-4.47293E+01 4.00702E+02-3.22838E+01 2.11510E+02
 -1      1831 5.68935E+04-6.71341E+01-8.73001E+01 3.64235E+02 1.77624E+01 2.98242E+02
 -1      1832 6.25341E+04 2.90323E+01 6.54565E+01 3.92972E+02-2.39115E+01 3.34642E+02
 -1      1833 6.06023E+04-2.52768E+01 3.74324E+01 4.07301E+02 2.33417E+01 2.58699E+02
 -1      1834 5.72594E+04 3.84542E+01 3.47645E+01 5.89257E+02 2.82140E+01 2.25829E+02
 -1      1835 7.29916E+04 8.12992E+01 5.37930E+01 3.89373E+02-1.91041E+01 2.26100E+02
 -1      1836 7.09424E+04 3.31879E+01 6.14157E+01 3.38893E+02 5.51090E+01 1.80842E+02
 -1      1837 7.43140E+04-1.15575E+01-4.12474E+01 3.28195E+02 6.98101E+00 3.26684E+02
 -1      1838 7.63308E+04 2.12385E+02 2.48085E+01 3.32990E+02-2.16943E+01 2.11210E+02
 -1      1839 7.05807E+04 2.04350E+01-2.36913E+01 5.11003E+02-4.73739E+01 2.70047E+02
 -1      1840 3.99482E+04-9.93778E+01-6.70066E+01 5.67692E+02-5.08535E+00 1.89996E+02
 -1      1841 4.15847E+04-6.04037E+01-4.12722E+01 6.47828E+02 4.77295E+01 1.42864E+02
 -1      1842 4.32135E+04-4.15458E+00 7.07556E+00 6.60880E+02-2.90813E+01 1.22709E+02
 -1      1843 4.43658E+04 3.85171E+01 2.10000E+01 5.75781E+02 2.51237E+01 2.00970E+02
 -1      1844 4.46579E+04 1.48730E+00-6.05862E+01 6.57349E+02 3.07975E+01 8.99720E+01
 -1      1845 3.58909E+04-1.11842E+01-5.44787E+01 3.30439E+02-1.25107E+01 1.03738E+02
 -1      1846 3.42816E+04-2.08051E+01 4.17853E+00 3.05720E+02 2.09225E+01 1.24393E+02
 -1      1847 3.73693E+04-4.05959E+01 9.98283E+00 3.33474E+02-5.83857E-02 8.97122E+01
 -1      1848 3.50943E+04 1.34228E+01-1.08960E+00 5.53125E+02-1.18698E+01 2.37697E+02
 -1      1849 3.89494E+04-2.90823E+01 9.41092E+00 3.24125E+02-2.36832E+01 1.24259E+02
 -1      1850 5.57454E+04 8.96613E+01 6.82182E+01 4.34657E+02-2.10793E+01 2.06432E+02
 -1      1851 5.37833E+04 4.00664E+01 3.06780E+01 3.69515E+02 5.17509E+01 1.52383E+02
 -1      1852 5.21161E+04-7.88037E+00-7.00871E+00 3.45378E+02-2.83971E+01 1.32420E+02
 -1      1853 5.03596E+04-1.36983E+01 5.49452E+01 3.72743E+02 1.30818E+01 1.09131E+02
 -1      1854 5.06840E+04-6.52016E+01-3.18901E+01 5.45558E+02 2.10161E+01 1.99037E+02
 -1      1855 7.19597E+04 7.35195E+02 6.08597E-01 4.61819E+02-8.56017E+01 2.31847E+02
 -1      1856 7.36867E+04 1.80342E+03 3.14384E+01-8.90744E+01-2.64903E+00 7.16294E+01
 -1      1857 7.70889E+04 3.26935E+03-4.28194E+02 2.57129E+02-1.31133E+02 5.22528E+01
 -1      1858 7.38339E+04 3.10450E+03-4.37731E+02-2.45375E+02-4.33374E+01-1.57517E+02
 -1      1859 7.17361E+04 4.63705E+03-5.90705E+02-1.83858E+03-3.84072E+01-6.06375E+02
 -1      1860 7.44455E+04 5.85090E+03-7.27281E+02-9.33643E+02-2.20008E+02-4.18270E+02
 -1      1861 1.38778E+04-6.19691E+00-9.20475E+00 4.70641E+02-2.59206E+01 7.20242E+01
 -1      1862 1.49404E+04-8.17533E+00-3.29115E+01 4.60217E+02 1.19307E+01 6.85674E+01
 -1      1863 1.61238E+04-3.07331E+01-8.13697E+00 4.78626E+02-2.44383E+01 8.77857E+01
 -1      1864 1.70995E+04-5.60009E+01-5.37108E+01 5.07554E+02 2.41388E+01 1.02517E+02
 -1      1865 1.62092E+04-4.62553E+01-2.51268E+01 4.18358E+02 8.50988E+00 1.17936E+02
 -1      1866 2.15203E+03-3.95248E+01-3.02531E+01 1.04772E+02-1.06939E+01 5.03124E+01
 -1      1867 1.61703E+03-5.45221E+01-2.96054E+01 1.07145E+02-1.12066E+00 5.08576E+01
 -1      1868 3.29746E+03-3.61681E+01-3.27816E+00 1.36567E+02-5.50632E+00 5.46560E+01
 -1      1869 2.68972E+03-3.97273E+01-1.37657E+01 1.19053E+02 8.77206E+00 4.55031E+01
 -1      1870 2.28289E+03-5.11553E+01-3.88334E+01 1.80778E+02-8.76121E+00 7.65611E+01
 -1      1871 3.10376E+02-3.42529E+01-2.44022E+01 8.40960E+01-5.15927E+00 1.41383E+01
 -1      1872 4.91326E+02-3.49563E+01-2.94286E+01 1.11348E+02-2.16473E+00 3.27563E+01
 -1      1873 1.17747E+02-4.88447E+01-2.39414E+01 7.29968E+01 7.22843E+00 7.59971E+00
 -1      1874 2.72046E+02-3.24302E+01-9.46670E+00 7.26742E+01 9.47414E-01 3.48452E+01
 -1      1875 4.10168E+01-3.81563E+01-2.92949E+01 5.74024E+01 7.74770E+00-1.38864E+00
 -1      1876 5.66081E+01-4.42791E+01-1.71297E+01 5.03684E+01-1.12887E+00 7.58436E+00
 -1      1877 2.60175E+04 6.27714E+00-8.25767E+00 5.91515E+02-2.97757E+01 1.01081E+02
 -1      1878 2.73284E+04 7.46382E+00-6.49848E+01 5.70066E+02 2.51114E+01 8.99973E+01
 -1      1879 2.87629E+04-2.05058E+01 2.02698E+01 6.08072E+02-5.93763E+00 7.84291E+01
 -1      1880 2.99196E+04-1.96537E+01 1.97193E+01 5.54084E+02 1.75577E+01 1.62457E+02
 -1      1881 2.92785E+04-5.61093E+01-3.54352E+01 5.11699E+02 1.50266E+01 1.52087E+02
 -1      1882 7.87321E+02-1.87399E+01-9.09505E+00 1.29484E+02-9.59828E+00 4.79954E+01
 -1      1883 1.15283E+03-2.27975E+01-3.29444E+01 1.36224E+02 1.55833E+01 6.96502E+01
 -1      1884 1.57722E+03-2.79388E+01-3.45184E+01 1.54217E+02-1.40291E+01 8.12911E+01
 -1      1885 1.91628E+03-4.76171E+01-2.68210E+01 1.96845E+02-4.15482E-01 6.47428E+01
 -1      1886 1.40861E+03-5.18155E+01-4.38220E+01 1.60769E+02-3.62769E+00 5.97278E+01
 -1      1887 2.32743E+04-4.80742E+01-3.20090E+01 5.29664E+02-9.59161E+00 1.21855E+02
 -1      1888 2.46147E+04-4.56528E+01-2.07905E+01 5.68485E+02 3.56199E+01 1.18539E+02
 -1      1889 2.08951E+04-3.11374E+01 1.12076E+01 5.29076E+02-8.10565E+00 1.38470E+02
 -1      1890 2.21668E+04 3.53953E+00-1.90495E+01 5.61818E+02 2.33518E+01 9.98172E+01
 -1      1891 2.37327E+04-1.99896E+01-2.41648E+01 4.31172E+02-2.34924E+01 2.11020E+02
 -1      1892 4.54527E+04 5.85921E+00-6.54134E+01 3.86818E+02-3.14736E+01 1.50896E+02
 -1      1893 4.35778E+04-7.08170E+01-8.86275E+01 3.55468E+02 1.99859E+01 2.85359E+02
 -1      1894 4.24494E+04 8.13292E+01 5.16961E+01 4.23065E+02-2.03806E+01 2.05115E+02
 -1      1895 4.05807E+04 3.87271E+01 3.27439E+01 3.54012E+02 5.94677E+01 1.48157E+02
 -1      1896 4.12339E+04 2.63313E+00-1.50341E+01 5.30412E+02-2.61813E+01 2.16326E+02
 -1      1897 5.21287E+04-1.01055E+02-6.78044E+01 5.84107E+02-3.72793E-01 2.05974E+02
 -1      1898 5.38623E+04-6.70636E+01-4.00296E+01 6.71902E+02 5.28532E+01 1.57548E+02
 -1      1899 4.94085E+04-3.27237E+00 6.64485E+01 6.26710E+02-3.17696E+01 1.71132E+02
 -1      1900 5.10464E+04 7.09855E+01 9.20623E+01 6.12327E+02 2.00167E+01 3.01780E+02
 -1      1901 5.39778E+04 5.30978E+00-1.70456E+00 5.46836E+02-2.86571E+01 2.25614E+02
 -1      1902 3.72820E+04-3.82410E+01 4.30019E+01 5.87644E+02-3.92109E+01 1.85952E+02
 -1      1903 3.88985E+04 6.04734E+01 7.59471E+01 6.13785E+02 2.03358E+01 2.91009E+02
 -1      1904 3.56383E+04-1.10871E+01-4.82247E+01 6.05404E+02 2.37962E+01 2.50934E+02
 -1      1905 3.80351E+04-6.34369E+01-5.75293E+01 5.39265E+02 2.70808E+01 2.23717E+02
 -1      1906 3.43774E+04 5.99645E+01-3.69617E+01 5.31042E+02-3.97583E+01 2.86928E+02
 -1      1907 7.83707E+04 6.75522E+03-2.99358E+02 1.02703E+03-1.19856E+02 7.82491E+01
 -1      1908 8.15560E+04 4.36165E+03-3.51677E+02 1.68631E+03-3.17816E+02-1.25728E+02
 -1      1909 8.03728E+04 3.19619E+03-5.42811E+02 6.25263E+02-1.63583E+02-3.34990E+02
 -1      1910 7.05952E+01-4.57956E+01-2.15725E+01 4.21741E+01 1.81048E+00 6.14538E+00
 -1      1911 7.97443E+01-4.92843E+01-3.23600E+01 2.73615E+01-3.37084E+00-1.71249E+00
 -1      1912 1.58289E+02-5.19636E+01-2.27301E+01 3.76911E+01-4.56815E+00 1.19379E+01
 -1      1913 4.96839E+03-2.83744E+01-2.99942E+01 2.64590E+02-1.86380E+01 1.35734E+02
 -1      1914 5.55331E+03-5.03518E+01-4.36227E+01 3.20129E+02 1.13780E+01 1.14665E+02
 -1      1915 6.43345E+03-4.25321E+01 1.05725E+01 3.14588E+02-1.78971E+01 1.30946E+02
 -1      1916 7.33634E+03 9.62430E-01 1.59175E+01 3.30031E+02 9.19553E+00 1.79705E+02
 -1      1917 9.70954E+03-3.75451E+01-5.33296E+00 2.15946E+02-1.79060E+01 8.56722E+01
 -1      1918 8.76787E+03-3.72041E+01 2.19218E+00 1.87964E+02 3.12874E+00 5.32946E+01
 -1      1919 1.17800E+04-3.64855E+01-3.57592E+01 2.21575E+02-7.56822E+00 5.14598E+01
 -1      1920 1.07468E+04-2.15852E+01-1.47385E+01 2.37969E+02 2.57073E+01 8.71210E+01
 -1      1921 6.57163E+04-4.30261E+01-3.54097E+01 3.71769E+02-5.89255E+01 1.59723E+02
 -1      1922 6.37680E+04-5.38997E+01-3.66203E+01 4.30501E+02 2.34617E+00 2.13001E+02
 -1      1923 6.91802E+04-4.57236E+00-4.68811E+00 3.51235E+02-4.94282E+00 1.44639E+02
 -1      1924 6.74666E+04-3.69216E+00-4.96370E+01 3.77281E+02 3.16953E+01 1.41956E+02
 -1      1925 6.82939E+04 5.06067E+01 8.04450E+00 6.75210E+02-1.93617E+01 1.81789E+02
 -1      1926 7.01029E+04 2.44516E+02 3.36539E+01 5.90090E+02 2.84659E+01 2.03329E+02
 -1      1927 6.51262E+04-1.02409E+01 4.50213E+01 6.71205E+02-3.46766E+01 1.48761E+02
 -1      1928 6.67172E+04 1.74619E+01-2.64858E+01 7.38070E+02 2.28230E+01 1.37984E+02
 -1      1929 7.41436E+04 4.89166E+02-6.11166E+01 4.94469E+02-3.77791E+01 2.41100E+02
 -1      1930 7.81718E+04 6.73027E+02 6.95603E+00 2.82340E+02 1.89007E+00 2.16177E+02
 -1      1931 8.00132E+04 1.69773E+03-3.21540E+01 6.15318E+02-1.56799E+02 3.55946E+01
 -1      1932 1.88038E+04-3.57890E+01-3.97512E+01 2.77636E+02-3.24418E+01 1.23538E+02
 -1      1933 1.73625E+04-6.17154E+01-4.04468E+01 3.03961E+02 4.95485E+00 1.41665E+02
 -1      1934 1.86122E+04 1.53469E+01 2.42407E+00 4.11555E+02-2.28632E+01 1.48429E+02
 -1      1935 1.95781E+04 2.57404E+00-2.31063E+01 5.01369E+02 2.61717E+01 1.27241E+02
 -1      1936 1.84644E+04 1.56611E+01-5.62296E+00 4.83455E+02-2.68906E+01 1.28434E+02
 -1      1937 4.71152E+03-2.94103E+01-2.15497E+01 1.32127E+02-1.10599E+01 4.45411E+01
 -1      1938 3.89179E+03-6.24339E+01-1.64220E+01 1.55513E+02 1.55311E+01 4.94038E+01
 -1      1939 4.79227E+03-5.47466E+01-3.81455E+01 2.80107E+02 6.54125E+00 1.12678E+02
 -1      1940 1.17890E+04-2.41529E+01-4.34034E+00 4.36736E+02-1.69669E+01 6.64675E+01
 -1      1941 1.27889E+04-2.13957E+01-2.35638E+01 4.44540E+02 2.27625E+01 7.28870E+01
 -1      1942 1.18012E+04-1.62996E+01-1.26466E+00 3.57682E+02-1.17252E+00 1.03475E+02
 -1      1943 3.28100E+04-4.59351E+01-3.25883E+01 3.25985E+02-4.47443E+01 1.37798E+02
 -1      1944 3.10870E+04-5.92018E+01-5.30016E+01 3.72399E+02 3.40035E+00 1.78510E+02
 -1      1945 3.21589E+04 3.65929E+01 4.52529E+01 5.10577E+02-1.98861E+01 2.01106E+02
 -1      1946 3.26967E+04-5.27165E+01 2.07777E+01 5.49572E+02 4.85052E+01 2.80916E+02
 -1      1947 3.14936E+04 3.37776E+01 6.90220E+01 5.71120E+02-3.00591E+01 1.80331E+02
 -1      1948 4.87919E+04-9.64506E+00-6.69554E+00 3.66312E+02 1.27430E+00 8.31845E+01
 -1      1949 4.71923E+04-5.23813E+00-2.62569E+01 3.99793E+02 3.58060E+01 1.79723E+02
 -1      1950 4.75148E+04-1.96241E+01-1.39719E-01 5.63871E+02 1.80453E+01 1.52428E+02
 -1      1951 4.75679E+04-1.83726E+01 2.95952E+01 5.95736E+02 4.75607E+01 1.74073E+02
 -1      1952 4.62684E+04 1.08236E+01 1.89225E+01 6.67966E+02-2.31639E+00 7.82006E+01
 -1      1953 6.04982E+04-3.63810E+01-1.58306E+01 5.90291E+02 8.88986E+00 1.72698E+02
 -1      1954 5.55468E+04 2.50044E+01 2.55282E+00 6.98646E+02-3.48895E+01 1.28705E+02
 -1      1955 5.70890E+04 2.22427E+01-2.49398E+01 6.57538E+02 1.24847E+01 1.02035E+02
 -1      1956 6.71584E+04-5.77421E+01-2.84560E+01 5.43838E+02 2.02964E+01 2.16197E+02
 -1      1957 7.96063E+03-5.59880E+01-4.40193E+01 2.90697E+02-3.59615E+00 8.56485E+01
 -1      1958-1.26853E+04 1.91974E+01 1.81449E+00 4.48916E+02-2.48716E+00 6.25758E+01
 -1      1959-5.73558E+03 1.24407E+01 8.99973E+00 3.32541E+02-5.70249E-01 8.26847E+01
 -1      1960-3.71190E+03 2.70468E+01-5.35453E+00 8.94164E+01 1.59451E+00 5.30457E+01
 -1      1961-5.88683E+02 1.80770E+01 4.64044E+00 1.23444E+02 2.05664E+00 2.54841E+01
 -1      1962-1.91678E+04-3.63127E+01-5.50455E+01 5.05478E+02-1.39914E+01 1.56836E+02
 -1      1963-1.06520E+04 1.03699E+01 4.24210E+00 1.45915E+02-8.47456E-01 7.40156E+01
 -1      1964-2.42346E+04-1.20964E+01 1.35110E+01 5.66537E+02 2.78517E+00 7.64266E+01
 -1      1965-6.93955E+04 2.69485E+01 6.07150E+01 2.19329E+02 1.58618E+00 1.09220E+02
 -1      1966-5.24748E+04 9.33635E+00 7.52907E+01 6.91771E+02 3.14416E-01 7.24906E+01
 -1      1967-6.44091E+04 2.48175E+01 3.74842E+00 7.13651E+02 1.81115E+00 1.26909E+02
 -1      1968-4.82578E+04 9.95960E+00 2.79710E+01 2.15413E+02-1.62224E-01 9.48786E+01
 -1      1969-3.82469E+04 2.72091E+01 3.15600E+01 1.96935E+02-4.95948E+00 5.16392E+01
 -1      1970-5.50493E+04 6.46583E+00-1.59748E+01 2.27373E+02 1.62593E+00 1.12291E+02
 -1      1971-8.35936E+04-1.44505E+03 2.04475E+02 9.38432E+02 8.10433E+01-1.30022E+02
 -1      1972-1.75693E+04-3.33659E+00-7.54768E+00 1.64495E+02 1.05925E+01 9.02406E+01
 -1      1973-2.16553E+03 1.53987E+01 3.56539E+01 2.20856E+02 1.07389E+00 1.06030E+01
 -1      1974-2.17829E+02 3.46390E+01 1.12004E+01 2.77533E+01-2.55843E+00 8.90440E+00
 -1      1975-3.17240E+04-4.41806E+01-4.45150E+01 2.54987E+02 2.19499E+01 2.01078E+02
 -1      1976-1.55435E+03 3.19002E+01 1.61389E+01 6.03076E+01-6.23972E+00 1.55563E+01
 -1      1977-2.59107E+04 6.89898E+01 5.83715E+01 2.45061E+02-2.39396E+01 1.71383E+02
 -1      1978-3.75285E+04-6.55602E+01-7.45848E+01 5.53459E+02-2.60344E+01 2.04141E+02
 -1      1979-2.92605E+04-1.53124E+01-1.32874E+01 5.79141E+02 1.05135E+01 8.49077E+01
 -1      1980-4.36028E+04 8.03073E+00 4.94113E+01 6.86885E+02-1.63105E+00 1.80669E+01
 -1      1981-7.64580E+04-8.70694E+03 5.00913E+03-2.32105E+03 2.86224E+01 4.54910E+02
 -1      1982-8.86636E+00 2.87525E+01 4.62414E+00 3.61984E+01 1.11349E+00-7.15418E+00
 -1      1983-6.87839E+03 2.35221E+01 1.31388E+01 1.08571E+02-5.98322E+00 4.37772E+01
 -1      1984-9.08417E+03 2.44154E+01 4.74464E+01 3.96353E+02-4.30971E-01 3.26092E+01
 -1      1985-6.22565E+04-4.36325E+00 1.47288E+01 2.21601E+02 6.28434E+00 1.53304E+02
 -1      1986-5.85028E+04 9.13346E+00 8.45224E+01 7.13357E+02-4.26886E+00 4.59627E+01
 -1      1987-7.67336E+04 3.65235E+01 3.72284E+00 1.19443E+02 2.79353E+00 1.11155E+02
 -1      1988-8.03377E+04-2.09989E+02-4.07193E+00 1.07592E+02 7.91260E+00 1.76889E+02
 -1      1989-7.59969E+04-1.24294E+03 2.30882E+02 3.58874E+02 9.02300E+01 2.00350E+02
 -1      1990-7.62498E+02 3.46054E+01 1.17849E+01 3.98178E+01-3.81732E+00 9.06620E+00
 -1      1991-1.47709E+04-1.02808E+01-5.38385E+00 4.65864E+02-6.04244E+00 7.24072E+01
 -1      1992-1.71897E+04 3.51077E+01 5.49573E+01 4.40008E+02 9.29467E+00 9.59463E+01
 -1      1993-1.98543E+04 1.53219E+01-1.03276E-01 4.40240E+02 2.00610E+00 1.56673E+02
 -1      1994-4.43140E+03 2.90459E+01 3.48368E+01 2.88854E+02 2.70009E+00 2.64839E+01
 -1      1995-2.68017E+04 1.14728E+01 4.81989E+01 5.98519E+02 5.47312E-01 4.89913E+01
 -1      1996-1.28178E+04 2.24399E+01-4.22503E+00 1.35832E+02-2.83974E+00 3.39002E+01
 -1      1997-2.58641E+03 3.54767E+01 2.23149E+01 6.26732E+01-4.28429E+00 7.51505E+00
 -1      1998-5.20539E+03 1.85163E+01 1.58424E+01 9.58790E+01 1.20316E+00 4.58710E+01
 -1      1999-4.06026E+04-4.08194E+00 2.17374E+01 6.38699E+02 5.66493E+00 1.09838E+02
 -1      2000-4.48876E+04 6.67874E+01 8.36326E+01 2.92147E+02-2.30878E+01 2.41108E+02
 -1      2001-4.13060E+04-1.31568E+01-4.58280E+01 2.03542E+02-9.44736E+00 8.11632E+01
 -1      2002-3.66052E+04 6.52580E+00 8.03441E-01 5.21541E+02 1.03932E+01 1.50317E+02
 -1      2003-4.91600E+04-7.01508E+01-8.19543E+01 5.77370E+02-2.43836E+01 2.08184E+02
 -1      2004-4.62735E+04 1.38378E+01-4.23227E+01 6.49195E+02-1.19777E+01 1.56614E+02
 -1      2005-1.22036E+03 6.32282E+00 1.06740E+01 1.62688E+02 1.68033E+00 3.12623E+01
 -1      2006-3.50847E+04 1.72998E+01 2.40210E+01 2.04437E+02-2.21425E+00 1.00296E+02
 -1      2007-5.87647E+04 7.27996E+01 7.38370E+01 2.96984E+02-2.02018E+01 2.07925E+02
 -1      2008-2.87646E+04 5.83334E+00 2.90413E+00 2.02285E+02 1.97582E+00 1.68231E+02
 -1      2009-5.51511E+04-2.51716E+01-6.94128E+01 6.65282E+02-1.87662E+01 8.96979E+01
 -1      2010-7.27472E+04-9.23328E+00-7.01978E+01 1.95978E+02-4.26158E+00 8.49730E+01
 -1      2011-6.10546E+04-2.01981E+01-1.09945E+02 6.19836E+02-4.13997E+01 1.98587E+02
 -1      2012-6.56614E+04-5.28901E+01-7.53789E+01 3.27979E+02 4.16132E+01 2.58805E+02
 -1      2013-7.19719E+03-2.44354E+01-2.03577E+01 3.10644E+02-1.55346E+01 1.32101E+02
 -1      2014-5.15610E+04-1.58893E+00-4.15698E+01 2.16417E+02-4.55540E+00 6.19773E+01
 -1      2015-1.07119E+04 6.99137E+00-2.88044E+01 4.40104E+02-3.22380E+00 3.04547E+01
 -1      2016-2.17267E+04 4.00234E+01 2.29641E+01 5.37239E+02 1.23986E+01 6.67014E+01
 -1      2017-3.06682E+03 2.08833E+00-2.01527E+01 2.20043E+02-1.18268E+01 8.61155E+01
 -1      2018-8.74436E+03 3.20581E+01 2.81259E+01 1.12503E+02-1.52900E+00 1.00560E+01
 -1      2019-1.51717E+04 2.92858E+01 1.67688E+01 1.56291E+02-2.41850E-02 6.47562E+01
 -1      2020-7.22105E+04-1.40442E+02-3.88786E+01 5.41296E+02 2.76700E+01 3.00957E+02
 -1      2021-6.76165E+04-2.47729E+02 7.47306E+00 6.33657E+02 2.51097E+01 1.61281E+02
 -1      2022-8.23168E+04-7.39145E+03 8.09008E+03 2.02394E+03 2.67940E+02-3.07486E+02
 -1      2023-2.30715E+04 5.54755E+00-2.04287E+01 1.68889E+02 2.42495E+00 6.38347E+01
 -1      2024-2.03184E+04 2.64224E+01 5.09068E+01 1.65646E+02-1.40759E+01 7.45619E+01
 -1      2025-3.36016E+04 4.45336E+00 6.62425E+00 5.01887E+02-2.94580E+00 1.40789E+02
 -1      2026-3.47624E+04 3.37778E+01 5.07636E+00 6.09212E+02-4.06408E+00 1.47963E+02
 -1      2027-4.23523E+02 4.02563E+01 1.21565E+01 8.73085E+01 8.23883E-01 2.90973E+01
 -1      2028-1.04854E+03 3.86066E+01 2.53734E+01 1.21117E+02-2.45180E+00 5.74399E+01
 -1      2029-7.18769E+03 2.71239E+01 2.62444E+01 3.05543E+02 3.95644E+00 1.29217E+02
 -1      2030-8.85187E+03 2.77686E+01 4.29548E+00 3.06221E+02-9.41612E+00 9.65954E+01
 -1      2031-1.07852E+04 2.21820E+01 1.24684E+01 3.53685E+02 8.03561E+00 9.38863E+01
 -1      2032-1.79772E+03 3.85833E+01 8.28103E+00 1.52838E+02-4.09592E+00 5.52876E+01
 -1      2033-4.15398E+03 2.98476E+01 3.38124E+01 2.36284E+02-4.69112E+00 1.01998E+02
 -1      2034-2.49201E+04 5.54092E+00-1.11928E+01 4.45478E+02 8.49140E+00 2.01912E+02
 -1      2035-1.51898E+04 4.39563E+01 2.72930E+01 3.93058E+02-6.71367E+00 1.68589E+02
 -1      2036-3.06873E+04 2.49636E+01 1.95996E+00 5.19846E+02 6.68972E+00 1.49287E+02
 -1      2037-5.90783E+04 1.47101E+01 1.84762E+01 5.36010E+02-1.37808E+01 2.23599E+02
 -1      2038-6.20942E+04-2.77464E+00-2.45689E+01 5.70355E+02 1.18059E+01 2.91455E+02
 -1      2039-6.55418E+04 8.60005E+00-1.57424E+01 5.59853E+02 4.55613E+00 2.07218E+02
 -1      2040-6.89152E+04 1.16809E+01 4.07878E+01 5.70104E+02-7.23407E+00 2.98489E+02
 -1      2041-5.45514E+03 2.58522E+01 3.13439E-01 2.67304E+02 8.56198E+00 1.30945E+02
 -1      2042-5.53966E+04 1.72219E+01-1.72306E+01 5.47973E+02-5.95667E+00 2.39346E+02
 -1      2043-1.28837E+04 1.87693E+01 8.05073E+00 3.70921E+02-3.52221E+00 1.06826E+02
 -1      2044-4.59368E+04 2.22735E+00 7.24396E+00 5.57520E+02-7.35056E+00 1.65574E+02
 -1      2045-4.91309E+04 1.78521E+01-5.30715E+00 5.50392E+02 1.35355E+00 1.63242E+02
 -1      2046-5.25520E+04-1.51583E+01 1.20173E+01 5.78268E+02-1.09181E+01 2.27681E+02
 -1      2047-2.89396E+03 3.34751E+01 1.29747E+01 1.97006E+02 1.59128E+00 6.23977E+01
 -1      2048-4.26147E+04 2.10740E+01-4.64632E+00 5.23334E+02-3.39365E+00 2.28491E+02
 -1      2049-2.79862E+04 9.00433E+00 1.92916E+01 4.45606E+02-8.34641E+00 2.13768E+02
 -1      2050-2.24895E+04 2.21117E+01 3.37733E+01 4.41415E+02-9.09152E+00 2.17712E+02
 -1      2051-1.73573E+04 2.18929E+01-1.31585E+01 4.16724E+02 1.03502E+00 2.20373E+02
 -1      2052-3.20156E+04 3.24978E+00-2.16491E+00 6.30338E+02 2.25107E+00 4.07874E+01
 -1      2053-3.98849E+04-1.48854E+01 1.11423E+01 5.50317E+02-9.35451E+00 2.16847E+02
 -1      2054-1.96381E+01 3.04646E+01-5.41135E+00 2.98189E+01 6.07632E-01 8.24788E-01
 -1      2055-7.10761E+04-1.61426E+03 4.82647E+01-5.90480E+02 2.12880E+01 1.59203E+02
 -1      2056-1.57642E+02 2.38603E+01 2.31284E+01 6.83192E+01 4.03685E-01 2.82774E+00
 -1      2057-7.77410E+04-4.79485E+03 4.72949E+02 1.89839E+02 1.74504E+02-4.02960E+01
 -1      2058-8.90403E+04-3.71929E+03 6.81284E+03 5.70341E+03 3.54441E+02 4.88266E+02
 -1      2059-7.02240E+04-3.76086E+03 4.64350E+03-5.78684E+03-3.69902E+02-4.13689E+02
 -1      2060-1.49247E+01 1.90675E+01 4.88612E+00 1.28406E+01-1.18162E+00-6.77963E+00
 -1      2061 4.64924E+00 5.31416E+00 2.61331E+00 1.72296E+01 9.18228E-01-6.13203E+00
 -1      2062-1.43320E+02 4.58036E+01 2.14662E+01 5.54142E+01-9.61788E-01 7.39531E+00
 -1      2063-7.42108E+04-1.24584E+04-6.23195E+03-1.16961E+04 1.75922E+03 3.31591E+03
 -1      2064-7.40566E+04-1.63675E+04-7.08086E+03-7.77155E+03 1.54146E+02 7.06782E+03
 -1      2065-6.30850E+04 6.46452E+02 2.22925E+03-2.29316E+03-8.78589E+02-1.23854E+03
 -1      2066-9.32932E+04-2.07858E+04-1.11374E+04 7.25122E+03-8.02746E+02 9.96955E+03
 -1      2067-1.00703E+05-1.61012E+04-9.61316E+03 1.23548E+04-1.88570E+03 7.04529E+03
 -1      2068-8.30142E+04 2.15914E+03 3.61421E+03 1.25619E+03 1.30616E+03-2.00850E+03
 -1      2069 1.58637E+01-8.58292E+00-6.18623E+00 1.02909E+01 7.25005E-01-4.44753E+00
 -1      2070 1.86968E+01-1.35756E+00 6.83182E+00 2.54780E+00 3.06665E-01-1.07808E+01
 -1      2071-4.17629E+00 1.09467E+01 8.64174E+00 1.04425E+01-2.22839E+00-2.33569E+00
 -1      2072 8.70763E+00 6.23313E+00 4.79224E+00 7.05749E+00-1.26133E-01-1.11388E+01
 -1      2073 7.99246E+00 1.21674E+01-2.78529E+00 6.25718E+00-1.77183E-01-4.10379E+00
 -1      2074-3.58984E+01 1.72403E+01 6.95892E+00 5.62470E+00 1.53821E+00-2.14588E+00
 -1      2075-7.91441E+04-2.00415E+04-9.95316E+03-5.32408E+03-3.77255E+02 8.06992E+03
 -1      2076-8.31023E+04-2.09538E+04-1.00284E+04-2.29624E+03-2.97120E+01 8.89127E+03
 -1      2077-7.35570E+04-7.05660E+03 5.09122E+03-4.28525E+03-1.24439E+02-1.91793E+02
 -1      2078-8.71228E+04-2.13373E+04-1.06925E+04 5.79239E+02-3.16792E+02 9.25822E+03
 -1      2079-8.87895E+04-2.06504E+04-7.78892E+03 4.11286E+03 4.06640E+02 8.34558E+03
 -1      2080-7.89407E+04-9.04222E+03 5.50822E+03-1.65026E+02-3.35702E+01 1.61516E+01
 -1      2081-8.46448E+04-6.08551E+03 8.02674E+03 3.71719E+03 1.80531E+02-4.47237E+02
 -1      2082 1.33315E+01 1.77095E+01-2.68076E+00 2.13919E+01-1.39635E+00-5.61174E+00
 -1      2083 1.78671E+01 8.35114E+00-2.42103E+00 1.76537E+01 1.24680E+00-3.73394E+00
 -1      2084 7.41033E-01 1.88473E+01 5.51221E+00 2.63236E+01 1.27852E+00-7.12746E+00
 -1      2085 3.96172E+00 1.98358E+01-6.22176E+00 1.46511E+01-5.52425E-02-3.77465E+00
 -1      2086 5.62504E+00 2.10890E+01-3.69361E+00 1.91735E+01-5.59301E-02-4.13705E+00
 -1      2087-1.67731E+01 3.59268E+01 1.37477E+00 3.58479E+01 8.27955E-01-2.33949E+00
 -1      2088-1.55275E+01 2.92929E+01 3.07558E+00 1.95774E+01 8.41383E-02-4.10306E+00
 -1      2089-6.60302E+04-5.50312E+02-2.64736E+02-1.33053E+02-7.68489E+00 1.68663E+02
 -1      2090-6.66621E+04-1.74122E+03-7.11166E+02-1.18295E+03 4.39154E+02-1.70810E+02
 -1      2091-6.95281E+04-2.93957E+03 5.53941E+02-3.01046E+03-5.90758E+01-1.44578E+02
 -1      2092-6.32841E+04-8.53613E+01 3.32118E+01 4.59996E+02 4.59075E+01 2.18957E+02
 -1      2093-6.43640E+04-1.87889E+02-3.67881E+01 3.30214E+02 8.95014E+01 4.30980E+01
 -1      2094-6.92061E+04-7.28995E+02-2.03181E+01 2.08003E+02-7.98397E+01 7.98607E+01
 -1      2095-6.04748E+04-5.18081E+00 1.49072E+01 4.67264E+02 4.18451E+01 2.26876E+02
 -1      2096-6.17165E+04 7.54391E+00-1.10647E+00 4.68728E+02-8.30873E+00 1.74529E+02
 -1      2097-6.59299E+04-7.62514E+01 4.97302E+01 7.15641E+02 5.24905E+00 1.82996E+02
 -1      2098-5.75945E+04-2.91833E+01-7.08337E+01 4.71666E+02-1.26744E+01 1.20708E+02
 -1      2099-5.88280E+04 2.05176E+01-2.01782E+01 4.77044E+02-4.72639E+01 2.43534E+02
 -1      2100-6.27234E+04 2.98644E+01 2.83543E-01 7.22608E+02 3.00495E+00 2.12953E+02
 -1      2101-5.48225E+04 2.63137E+01 6.66153E+01 4.47584E+02 1.87943E+01 1.93106E+02
 -1      2102-5.61629E+04-2.67666E+00 7.39177E+01 4.88073E+02-6.94721E+00 5.96152E+01
 -1      2103-5.98868E+04-2.30931E+01-5.22781E+01 7.14322E+02-3.55519E+00 6.08271E+01
 -1      2104-5.18708E+04-2.74281E+01-5.82585E+01 4.46205E+02 3.50822E+00 1.03585E+02
 -1      2105-5.32422E+04 4.22566E-01-2.96089E+01 4.37702E+02-4.63521E+01 2.05726E+02
 -1      2106-5.67542E+04 6.61977E+00 5.26394E+01 6.99925E+02-3.06731E+01 1.66175E+02
 -1      2107-4.90571E+04 3.88542E+01 7.72689E+01 4.39863E+02 2.40600E+01 2.16232E+02
 -1      2108-5.04570E+04-8.78127E-01 6.95753E+01 4.73576E+02-5.69371E+00 7.24988E+01
 -1      2109-5.38405E+04-9.37311E+00-2.92174E+01 6.78097E+02 1.35861E+01 6.01193E+01
 -1      2110-4.62147E+04-2.93570E+01-5.74086E+01 4.99652E+02 7.03095E+00 8.36388E+01
 -1      2111-4.74509E+04-1.71829E+00-2.54217E+01 4.24094E+02-4.27468E+01 2.44618E+02
 -1      2112-5.05933E+04 4.57460E+01 7.63601E+01 6.61334E+02-3.43613E+01 2.27098E+02
 -1      2113-4.34019E+04 1.23486E+00-2.50798E+01 4.66471E+02-3.48307E+00 1.18644E+02
 -1      2114-4.48101E+04 2.37177E+01 3.21909E+01 4.96276E+02-3.64144E+01 9.78644E+01
 -1      2115-4.79707E+04-1.25207E+02-9.76729E+01 6.61227E+02-5.29455E-02 1.35571E+02
 -1      2116-4.07067E+04 2.35781E+01 4.51163E+01 4.28214E+02 1.40714E+01 1.58240E+02
 -1      2117-4.20095E+04-6.45026E-01 5.28058E+01 4.69591E+02-7.35892E+00 5.37234E+01
 -1      2118-4.49828E+04 5.11253E+00-5.39968E+01 6.85977E+02 1.14475E+01 6.49586E+01
 -1      2119-3.78806E+04 2.82423E+00 2.77256E+01 4.21550E+02 3.07597E+01 2.10367E+02
 -1      2120-3.91990E+04 9.86256E+00 2.18411E+01 4.05230E+02-1.87693E+01 1.86552E+02
 -1      2121-4.19636E+04 1.58619E+01 7.03805E+01 6.71429E+02-1.65830E+01 1.13409E+02
 -1      2122-3.51714E+04-2.67421E+01-5.44714E+01 4.80939E+02 6.60597E+00 8.35145E+01
 -1      2123-3.63451E+04 3.07163E+00-2.23984E+01 4.14677E+02-4.16471E+01 2.31565E+02
 -1      2124-3.88939E+04 4.21141E+01 4.72945E+01 6.40658E+02-2.51251E+01 2.03326E+02
 -1      2125-3.25016E+04 7.25928E+00-1.46121E+01 4.14976E+02 1.75599E+01 1.90939E+02
 -1      2126-3.37610E+04 3.94240E+01 5.50547E+01 4.54423E+02-2.00871E+01 9.85984E+01
 -1      2127-3.63674E+04-1.04158E+02-7.79528E+01 6.23429E+02 3.08548E+00 1.28457E+02
 -1      2128-2.99072E+04-5.44114E+00 7.51051E+00 4.00028E+02 5.76248E+00 1.46332E+02
 -1      2129-3.10609E+04 1.26244E+01-7.09166E+00 4.01851E+02-7.91039E+00 1.58807E+02
 -1      2130-3.35052E+04-2.06426E+01-7.40437E+01 6.40867E+02 2.63785E+00 1.07328E+02
 -1      2131-2.72504E+04 1.33396E+01-2.78083E+01 4.19922E+02 2.41660E+01 6.67865E+01
 -1      2132-2.85718E+04-2.10116E+01 6.37154E+00 3.92878E+02-3.45305E+01 1.36563E+02
 -1      2133-3.06350E+04 1.90227E+01 5.51854E+01 6.29435E+02 1.41543E+00 6.26543E+01
 -1      2134-2.48959E+04 2.07291E+00 4.20154E+01 3.92043E+02 1.36884E+01 1.63589E+02
 -1      2135-2.60041E+04 2.86081E+01 5.22343E+01 4.11324E+02-2.94070E+00 8.05762E+01
 -1      2136-2.80342E+04-2.63122E+01-2.18064E+01 5.92964E+02 8.18448E+00 3.19429E+01
 -1      2137-2.24601E+04-9.95436E-01 1.28749E+01 3.66955E+02 1.99226E+01 1.58197E+02
 -1      2138-2.35643E+04 7.20011E+00 1.71996E+01 3.65269E+02-1.94898E+01 1.58272E+02
 -1      2139-2.54541E+04 1.34712E+01 6.35137E+01 5.95939E+02-8.34728E+00 1.05980E+02
 -1      2140-2.01173E+04 2.05477E-01 1.99441E+01 3.41216E+02 3.55067E+01 1.58626E+02
 -1      2141-2.11963E+04 2.96027E+01 7.73217E+00 3.49636E+02-1.88743E+01 1.55984E+02
 -1      2142-2.28990E+04 3.80713E+01 3.25486E+01 5.85448E+02-7.65719E+00 9.54838E+01
 -1      2143-1.78080E+04-1.46138E+01-3.72245E+01 3.73551E+02 1.42514E+00 8.67466E+01
 -1      2144-1.87705E+04 2.74660E+01-2.47978E+00 3.63435E+02-1.92247E+01 1.99498E+02
 -1      2145-2.04071E+04 3.99999E+01 5.73213E+00 5.50978E+02 4.65957E+00 1.68545E+02
 -1      2146-1.57259E+04 1.99404E+01 3.71168E+01 3.23376E+02 3.03405E+01 1.60611E+02
 -1      2147-1.67635E+04 3.53593E+00 3.64640E+01 3.58599E+02-9.66651E+00 5.78267E+01
 -1      2148-1.81853E+04-3.07699E+01-5.94566E+00 4.31296E+02-7.88753E+00 1.12111E+02
 -1      2149-1.36072E+04-1.20379E+01 1.09855E+01 2.97904E+02 1.84716E+01 1.40010E+02
 -1      2150-1.45594E+04 1.13949E+01-3.99960E+00 3.04154E+02-2.51742E+01 1.55227E+02
 -1      2151-1.59024E+04 1.03777E+00 1.23216E+01 4.94258E+02-4.53618E+00 1.37438E+02
 -1      2152-1.16663E+04-1.08547E+00 1.92757E+00 2.85962E+02 1.62740E+01 1.24006E+02
 -1      2153-1.25491E+04 1.23898E+01 7.33114E+00 2.96637E+02-1.68963E+01 1.34590E+02
 -1      2154-1.37656E+04-5.46544E+00-6.39593E+00 4.84264E+02 7.54213E+00 8.95771E+01
 -1      2155-9.83313E+03-6.17884E+00-2.48896E+01 2.90103E+02-4.11155E-01 5.40445E+01
 -1      2156-1.06468E+04 6.69098E+00-1.81077E+01 2.93249E+02-1.10985E+01 1.21836E+02
 -1      2157-1.17237E+04 6.47365E+00-3.33242E+01 4.56165E+02 4.99644E+00 8.31677E+01
 -1      2158-8.10232E+03 3.51422E+01 5.44183E+01 2.62121E+02 2.22862E+01 1.06088E+02
 -1      2159-8.98415E+03 1.90718E+00 3.20835E+01 2.76569E+02-2.69345E+00 4.45792E+01
 -1      2160-9.86335E+03 3.22461E+01 1.48733E+01 4.15542E+02-3.25614E+00 5.24424E+00
 -1      2161-6.56584E+03-1.00519E+01-2.28074E+01 2.65633E+02 6.81465E+00 5.04903E+01
 -1      2162-7.21436E+03 1.14324E+01 4.93039E+00 2.39768E+02-2.26382E+01 1.37458E+02
 -1      2163-7.95500E+03 4.30334E+01 5.88077E+01 3.75413E+02-2.47339E+01 1.12306E+02
 -1      2164-5.12412E+03 7.73494E+00 1.12176E-01 2.36254E+02 2.35382E+00 5.21539E+01
 -1      2165-5.79762E+03 1.88993E+01 2.70896E+01 2.51625E+02-7.12101E+00 6.00466E+01
 -1      2166-6.54198E+03-4.13653E+01-1.97785E+01 3.36834E+02 5.10327E-01 1.02476E+02
 -1      2167-3.85283E+03 2.24777E+01 4.38118E+01 1.80820E+02 2.04832E+01 8.02762E+01
 -1      2168-4.49788E+03 5.46612E+00 2.47990E+01 2.11312E+02-2.51394E+00 2.57647E+01
 -1      2169-5.04863E+03 4.58898E+01 3.02198E+01 3.07017E+02-7.81872E-01 5.38638E+01
 -1      2170-2.74013E+03-3.24086E+00-1.42005E+01 1.66345E+02-2.44763E+00 4.24614E+01
 -1      2171-3.20992E+03 1.88044E+01 1.62096E+01 1.72989E+02-1.49352E+01 1.02160E+02
 -1      2172-3.66277E+03 3.21528E+01 3.01615E+01 2.75963E+02-3.46064E+00 8.76787E+01
 -1      2173-1.82377E+03 2.34851E+01 4.02463E+01 1.32599E+02 5.39016E+00 5.22444E+01
 -1      2174-2.26657E+03 3.65853E+00 2.93266E+01 1.60400E+02-4.83444E-01 1.54974E+01
 -1      2175-2.64468E+03 3.93221E+00-7.55162E+00 2.30373E+02 4.78964E+00 3.13420E+01
 -1      2176-1.04353E+03 2.65268E+00-1.37374E+00 1.10067E+02 8.43864E+00 2.35262E+01
 -1      2177-1.37618E+03 7.31221E+00 1.39428E+01 1.09200E+02-8.90463E+00 5.42248E+01
 -1      2178-1.63390E+03 2.44377E+01 3.74174E+01 1.92089E+02-1.09265E+01 4.62770E+01
 -1      2179-4.78098E+02 1.17250E+01 3.55230E+00 7.83669E+01 6.48910E+00 1.95412E+01
 -1      2180-7.11346E+02 1.80447E+01 1.93186E+01 9.59352E+01-3.74825E+00 1.95383E+01
 -1      2181-9.06182E+02 5.14686E+00 7.20277E+00 1.42120E+02 5.98256E+00 3.13430E+01
 -1      2182-9.28115E+01 1.01010E+01 5.39824E+00 4.05560E+01 7.67950E+00 2.35059E+00
 -1      2183-2.38223E+02 1.47528E+01 2.07750E+01 5.32025E+01-4.08842E-01 1.29564E+01
 -1      2184-3.61638E+02 2.63771E+01 1.70498E+01 1.00023E+02 4.05203E-01 9.88884E+00
 -1      2185-4.12489E+01 2.02212E+01 2.29002E+01 4.37436E+01-3.08123E+00-9.54354E-01
 -1      2186-8.58524E+04-1.84035E+03-9.94582E+02 9.71823E+02-5.28697E+02-2.99191E+02
 -1      2187-8.54416E+04-5.23598E+02-1.98579E+02 3.40828E+02 6.97453E+00 7.14502E+01
 -1      2188-8.35933E+04-2.15603E+03 1.22246E+03 2.95621E+03 8.89812E+01-7.28516E+02
 -1      2189-8.35046E+04-1.20310E+02-2.17162E+01 2.60068E+01-1.64452E+01 9.81258E+01
 -1      2190-8.22990E+04-7.23293E+01-1.12125E+02-4.30117E+01-3.80346E+01 1.48313E+02
 -1      2191-8.17414E+04-6.00369E+02 1.42746E+02 3.96081E+02 8.90880E+01 5.34806E+00
 -1      2192-8.04622E+04 1.76982E+01 3.63921E+01-3.80731E+01 1.10899E+01 8.22953E+01
 -1      2193-7.86689E+04 3.48456E+01 1.83839E+01 2.06586E+01-3.84504E+01 1.76876E+02
 -1      2194-7.83999E+04-3.08572E+00 4.58144E+01 9.68325E+01 1.45776E+01 1.08671E+02
 -1      2195-7.68531E+04-3.62025E+01-4.24359E+01 4.07484E+01 3.58579E+01 1.57450E+02
 -1      2196-7.48520E+04 6.29962E+00-3.76608E+01 1.74398E+01-1.70722E+01 8.56215E+01
 -1      2197-7.48398E+04 8.16508E-01-3.35500E+01 1.66608E+02-1.16374E+01 1.27417E+02
 -1      2198-7.31107E+04 2.74902E+01 4.42178E+01 3.05422E+01 9.85992E+00 9.25768E+01
 -1      2199-7.12531E+04 2.06379E+01 4.81989E+01 5.33254E+01-3.29337E+01 2.18744E+02
 -1      2200-7.11198E+04-2.23519E+01-4.95275E+01 2.13729E+02-7.55428E+00 7.00229E+01
 -1      2201-6.93062E+04 1.42381E+01 7.78592E+00 6.01074E+01 4.53623E+01 2.50283E+02
 -1      2202-6.75505E+04-7.09314E+01-6.67611E+01 1.13629E+01-1.16332E+00 1.28195E+02
 -1      2203-6.73373E+04 4.43412E+01 7.92141E+01 2.42358E+02 2.53539E+01 2.37059E+02
 -1      2204-6.57541E+04-1.57574E+01 4.92612E+01-1.59938E+01 2.14105E+01 8.79239E+01
 -1      2205-6.37508E+04 1.82148E+01-1.02314E+01 1.38653E+01-1.72310E+01 7.48173E+01
 -1      2206-6.41014E+04-4.10794E+01-6.31313E+01 2.31929E+02 5.17749E+00 2.07948E+02
 -1      2207-6.20453E+04 3.61516E+01 5.04668E+01-1.10476E+01 4.19058E+00 8.40284E+01
 -1      2208-6.02277E+04 1.14189E+01 1.24905E+01 6.61493E+01-3.84665E+01 2.20753E+02
 -1      2209-6.02673E+04 1.03704E+02 7.95196E+01 2.53827E+02-2.28219E+00 1.55705E+02
 -1      2210-5.83528E+04-5.47714E+00-1.95563E+01 6.62800E+01 3.96686E+01 1.94839E+02
 -1      2211-5.64568E+04-7.86096E+00-1.90587E+01 7.71765E+01-2.45667E+01 1.73024E+02
 -1      2212-5.70633E+04-2.87614E+01-4.58765E+01 2.28562E+02-1.25529E+01 2.01351E+02
 -1      2213-5.46302E+04 1.24157E+00-3.27598E+01 5.73562E+01 1.70086E+01 1.69542E+02
 -1      2214-5.28515E+04-1.63530E+01-3.58071E+01 3.55611E+01-1.10846E+01 7.80439E+01
 -1      2215-5.33621E+04-4.60926E+00-6.67707E+01 2.14402E+02-3.73412E+00 1.27152E+02
 -1      2216-5.11862E+04-1.71702E+01 1.61928E+01 1.87680E+01 1.58352E+01 6.18177E+01
 -1      2217-4.92008E+04 3.28352E+01-3.63105E+01-7.54822E+00-3.19312E+01 5.02627E+01
 -1      2218-4.98938E+04 3.40538E+01 3.55872E+01 2.21464E+02-2.34882E+00 4.65625E+01
 -1      2219-4.75049E+04 6.10954E+01 6.58751E+01 9.48655E+00 8.18183E-01 1.20068E+02
 -1      2220-4.58548E+04-9.92554E+00-1.33387E+00 5.25054E+01-3.61639E+01 2.31354E+02
 -1      2221-4.63079E+04 6.17540E+01 1.05095E+02 2.00653E+02 5.53815E+00 1.51323E+02
 -1      2222-4.40944E+04-3.06861E+01-4.09478E+01 5.13428E+01 4.18004E+01 1.68422E+02
 -1      2223-4.22224E+04 6.79060E-01-2.58650E+01 3.60632E+01-1.57507E+01 7.85001E+01
 -1      2224-4.33404E+04-3.23475E+01-5.74275E+01 2.09078E+02-1.43297E+01 1.96231E+02
 -1      2225-4.06214E+04 2.45746E+01 2.89903E+01 3.17351E+01 6.29021E+00 7.11417E+01
 -1      2226-3.89568E+04 1.18998E+01 3.62444E+01 4.54696E+01-1.92986E+01 1.44636E+02
 -1      2227-3.98079E+04-7.21038E+00-1.82604E+01 2.04137E+02-8.76955E+00 4.42447E+01
 -1      2228-3.72998E+04 1.89159E+01 3.26016E+01 6.17357E+01 2.24135E+01 1.53267E+02
 -1      2229-3.55708E+04 1.50179E+01 2.49093E+01 5.53771E+01-3.64508E+01 1.71681E+02
 -1      2230-3.66010E+04 3.65085E+01 6.63430E+01 1.90257E+02-1.03803E+00 1.05727E+02
 -1      2231-3.38728E+04 3.35355E+00 5.99311E+00 4.90447E+01 3.19293E+01 1.98457E+02
 -1      2232-3.23025E+04-2.50997E+01-3.54778E+01-1.18897E+01-6.75128E+00 7.91079E+01
 -1      2233-3.32276E+04 4.82643E+01 5.99585E+01 2.03762E+02 2.00371E+01 1.83440E+02
 -1      2234-3.07786E+04 1.17299E+01 2.66030E+01 3.43244E+00 1.50714E+01 9.86544E+01
 -1      2235-2.91539E+04 2.48164E+00-1.88007E+01 8.90054E+00-1.17316E+01 9.33414E+01
 -1      2236-3.03841E+04-6.82934E+01-4.66025E+01 2.07913E+02 7.56161E+00 1.76763E+02
 -1      2237-2.77308E+04 2.94216E+01 2.38279E+01-2.34465E+01 6.05286E+00 6.00978E+01
 -1      2238-2.61160E+04 3.39770E+01-3.39252E+00 5.14323E+00-2.65530E+01 5.58011E+01
 -1      2239-2.71813E+04 9.75755E+01 6.20548E+01 2.00454E+02-8.92459E+00 1.62686E+02
 -1      2240-2.47819E+04-1.33100E+01 1.76283E+01 6.75756E-01 1.93890E+01 4.30033E+01
 -1      2241-2.32020E+04 2.60244E+01-2.25762E+01 9.05074E+00-1.04288E+01 3.35973E+01
 -1      2242-2.45819E+04 1.69810E+01-3.75958E+01 2.17621E+02-2.55442E+01 1.30033E+02
 -1      2243-2.18090E+04 1.76343E+01 3.58412E+01 3.76463E+01 2.25444E+00 8.60837E+01
 -1      2244-2.03597E+04 2.14737E+01 2.26827E+01 3.81093E+01-3.46725E+01 1.29057E+02
 -1      2245-2.16078E+04 1.42324E+01 5.16672E+01 1.68596E+02 4.97154E+00 7.02446E+01
 -1      2246-1.90405E+04 7.90253E+00 4.93440E+00 4.60217E+01 2.88733E+01 1.43155E+02
 -1      2247-1.76700E+04-8.69311E+00-2.63576E+01 2.80418E+01-8.50780E+00 7.28097E+01
 -1      2248-1.88471E+04 3.44294E+01 4.03381E+01 1.51835E+02 1.51667E+01 1.00373E+02
 -1      2249-1.64835E+04 7.85450E+00 4.05088E+01 4.09243E-01 1.27051E+01 3.87267E+01
 -1      2250-1.51434E+04 2.77827E+01 8.58615E+00 4.77438E+01-1.88274E+01 1.01424E+02
 -1      2251-1.64032E+04 1.81430E+01-1.18242E+01 1.59692E+02-1.62774E+01 7.33952E+01
 -1      2252-1.39488E+04 1.82450E+01-4.36011E+00 3.97504E+01 8.50396E+00 1.01234E+02
 -1      2253-1.28056E+04 9.79796E+00 1.10879E+01 3.43554E+01-9.57922E+00 8.64754E+01
 -1      2254-1.40048E+04 1.26428E+01-3.57555E+01 1.41598E+02 4.86835E+00 7.12980E+01
 -1      2255-1.17050E+04 8.74683E+00 3.24783E+01 2.63659E+01 2.10122E+01 8.84352E+01
 -1      2256-1.05269E+04 8.64633E+00-9.94112E+00 2.73013E+01-1.14044E+01 5.65522E+01
 -1      2257-1.16855E+04 3.37379E+01 4.32811E+01 1.26987E+02-7.51970E+00 3.98773E+01
 -1      2258-9.58378E+03 1.73760E+01 2.69403E+01 2.78036E+00 2.97449E+00 2.46810E+01
 -1      2259-8.56410E+03 3.11676E+01 3.67394E+01 3.84410E+01-1.27642E+01 7.37400E+01
 -1      2260-9.66959E+03 3.84932E+01-1.36729E+01 1.26340E+02-8.91143E+00 3.16315E+01
 -1      2261-7.61487E+03 1.50184E+01 2.05041E+01 3.37372E+01 8.94365E+00 8.36164E+01
 -1      2262-6.69049E+03 1.85109E+01 2.09596E+01 3.21418E+01-1.72856E+01 7.86045E+01
 -1      2263-7.71192E+03 4.22247E+01 5.10063E+01 1.11597E+02 3.43805E+00 5.21686E+01
 -1      2264-5.84578E+03 1.91302E+01 1.88236E+01 3.02561E+01 1.33479E+01 8.18842E+01
 -1      2265-5.03341E+03 1.08059E+01 1.90854E+01 3.08256E+01-1.57788E+01 8.05989E+01
 -1      2266-5.97645E+03 3.66334E+01 2.64321E+01 9.71328E+01 5.92028E+00 5.46098E+01
 -1      2267-4.29582E+03 1.55234E+01 1.10104E+01 1.85056E+01 1.32227E+01 7.66044E+01
 -1      2268-3.55906E+03 1.42748E+01-5.81394E+00 2.04876E+01-3.37683E+00 4.26736E+01
 -1      2269-4.46516E+03 2.79330E+01 1.21049E+01 8.27491E+01-3.80705E+00 6.24378E+01
 -1      2270-2.98983E+03 1.87812E+01 2.04807E+01-2.54173E+00-1.60219E+00 1.37908E+01
 -1      2271-2.38395E+03 3.64089E+01 3.40274E+01 2.17795E+01-8.56082E+00 4.17586E+01
 -1      2272-3.13638E+03 3.75717E+01-4.99848E+00 8.14094E+01-9.39973E+00 3.02637E+01
 -1      2273-1.87517E+03 1.91893E+01 1.96499E+01 1.92028E+01 4.62946E+00 4.36706E+01
 -1      2274-1.39191E+03 1.68022E+01 1.69810E+01 2.01392E+01-1.26084E+01 3.44391E+01
 -1      2275-2.00017E+03 4.62470E+01 3.81416E+01 6.31904E+01 7.58503E-01 2.71467E+01
 -1      2276-9.89740E+02 1.99922E+01 1.61980E+01 9.77648E+00 2.43506E+00 3.08344E+01
 -1      2277-6.38722E+02 2.05073E+01 1.81196E+01 1.35152E+01-6.18025E+00 2.08774E+01
 -1      2278-1.10918E+03 4.87314E+01 2.39238E+01 4.63066E+01-3.57498E+00 1.90121E+01
 -1      2279-3.58718E+02 2.45405E+01 1.62700E+01 7.64264E+00 1.05500E+00 1.89740E+01
 -1      2280-1.54852E+02 1.84511E+01 1.10628E+00 8.08224E+00-4.06341E+00 2.57503E+00
 -1      2281-4.43509E+02 4.74467E+01 1.57549E+01 3.31039E+01 6.13092E-01 1.30048E+01
 -1      2282-9.41416E+01 3.44725E+01 1.87595E+01 1.81437E+01 5.75552E-01 3.38754E+00
 -1      2283-1.38798E+04 1.68053E+01-7.28471E+00 4.65017E+02 1.14877E+01 7.69253E+01
 -1      2284-1.50311E+04-2.48995E+01 7.94896E+00 4.93235E+02-2.47373E+01 8.24986E+01
 -1      2285-1.17707E+04 2.28793E+01-2.95398E+01 4.26747E+02 1.21409E+01 5.92930E+01
 -1      2286-1.28080E+04 1.37966E+01 7.07063E+00 4.53969E+02-2.03221E+01 7.00497E+01
 -1      2287-1.39308E+04 3.97349E+01 3.03278E+01 3.78930E+02-5.62524E-01 1.31849E+02
 -1      2288-4.90785E+03 3.54172E+01 1.25818E+01 3.23116E+02 1.66866E+01 6.39220E+01
 -1      2289-5.59081E+03 2.76819E+01 3.06301E+01 3.21113E+02 1.94230E+00 1.05635E+02
 -1      2290-6.41453E+03 4.63215E+01-3.36564E+00 3.02620E+02 2.31964E+01 1.21766E+02
 -1      2291-7.32640E+03 1.31574E+00-1.24447E+01 3.42711E+02-8.91288E+00 1.81306E+02
 -1      2292-6.22791E+03 3.91517E+01 2.69682E+01 2.74614E+02 1.59027E+01 1.20417E+02
 -1      2293-3.29762E+03 3.28263E+01 2.69352E-01 1.37192E+02 9.78141E+00 5.40405E+01
 -1      2294-2.68711E+03 3.78742E+01 7.53570E+00 1.21294E+02-2.07851E+00 4.18801E+01
 -1      2295-4.71285E+03 2.41344E+01 2.45449E+01 1.22273E+02 1.01738E+01 5.03206E+01
 -1      2296-3.90395E+03 5.37855E+01 1.03116E+01 1.45003E+02-1.44929E+01 5.57626E+01
 -1      2297-3.44988E+03 7.13925E+01 3.31862E+01 2.17697E+02-3.97510E+00 6.90775E+01
 -1      2298-7.93982E+02 3.42225E+01 1.06157E+01 1.30221E+02 6.16391E+00 4.26395E+01
 -1      2299-1.16034E+03 2.72168E+01 2.13692E+01 1.72034E+02-6.96234E+00 3.41067E+01
 -1      2300-7.04842E+02 3.66076E+01 1.40117E+01 1.03476E+02 5.60396E+00 4.14488E+01
 -1      2301-4.93649E+02 3.34798E+01 1.50724E+01 1.10337E+02-1.58472E+00 2.79298E+01
 -1      2302-3.07993E+02 3.62974E+01 1.92855E+01 7.46925E+01 1.54794E+00 1.26042E+01
 -1      2303-1.82974E+04 9.25712E+01 9.16645E+01 5.02118E+02 3.51046E+01 1.84666E+02
 -1      2304-1.97515E+04-7.45032E+01-1.05185E+02 4.98404E+02-2.67971E+01 1.79119E+02
 -1      2305-2.12193E+04 5.82887E+01-4.59415E+00 4.27675E+02-1.46912E+01 1.78699E+02
 -1      2306-2.07976E+04 4.70129E+00-1.26791E+01 5.32628E+02 2.61206E+00 1.54326E+02
 -1      2307-2.21041E+04 2.27272E+01 3.04137E+01 5.61168E+02-1.85015E+01 8.86808E+01
 -1      2308-1.17774E+04 3.85347E+01 2.35978E+01 2.27840E+02 8.19362E+00 4.92954E+01
 -1      2309-1.07639E+04 1.47656E+01 1.56697E+01 2.44243E+02-2.80074E+01 8.35881E+01
 -1      2310-9.71249E+03 3.69774E+01 5.18460E+00 2.16261E+02 1.99739E+01 8.62470E+01
 -1      2311-8.76900E+03 3.77916E+01-2.31624E+00 1.88001E+02-2.88839E+00 5.38431E+01
 -1      2312-9.79438E+03 1.35277E+01 9.93454E+00 3.40894E+02-1.77593E+01 1.18263E+02
 -1      2313-2.60062E+04-7.50049E+00 1.19139E+01 5.85078E+02 3.12405E+01 9.31323E+01
 -1      2314-2.73337E+04-4.73973E+00 6.22320E+01 5.58962E+02-1.14132E+01 9.50326E+01
 -1      2315-2.32611E+04 7.15980E+01-1.19870E+00 5.60481E+02 2.59770E+01 8.09383E+01
 -1      2316-2.46464E+04 2.00026E+01 2.56088E+01 5.56257E+02-2.21727E+01 9.17501E+01
 -1      2317-2.65212E+04 4.96075E+00-1.52372E+01 4.72883E+02-8.44004E+00 1.72018E+02
 -1      2318-6.91442E+04 4.14396E+00-4.12595E+01 3.54606E+02 3.53820E+01 1.45424E+02
 -1      2319-6.74080E+04 1.28196E+01-8.24236E+00 3.69418E+02-1.34063E+00 1.31297E+02
 -1      2320-6.56985E+04 2.51617E+01 6.77725E+01 3.46606E+02 3.02862E+01 1.99786E+02
 -1      2321-6.37393E+04 6.42257E+01 5.98919E+01 3.90648E+02-5.39065E+00 2.36561E+02
 -1      2322-6.37193E+04-2.25552E+01 2.68573E+01 5.62202E+02 1.16734E+01 2.37895E+02
 -1      2323-5.21877E+04 1.03484E+02 5.46398E+01 5.92078E+02 5.71842E+00 2.00655E+02
 -1      2324-5.39275E+04 5.36189E+01 5.71015E+01 6.72959E+02-6.05533E+01 1.69095E+02
 -1      2325-5.56467E+04-1.07769E+01-1.58889E+01 6.72366E+02 7.86686E+00 1.29387E+02
 -1      2326-5.71363E+04-5.42431E+01-3.98552E+01 6.44166E+02-3.01480E+01 9.06719E+01
 -1      2327-5.72316E+04-1.66061E+01-4.43820E+00 5.97682E+02-2.56271E+01 2.22830E+02
 -1      2328-6.50085E+04-8.89183E+00-1.78015E+00 7.04722E+02 7.38421E+00 2.07000E+02
 -1      2329-6.66770E+04-1.51183E+01 1.34177E+01 7.30836E+02-2.91141E+01 1.59545E+02
 -1      2330-7.00440E+04-2.50179E+02 2.22000E+00 5.94725E+02 2.44598E+01 1.83187E+02
 -1      2331-6.82733E+04-2.17245E+01-1.98022E+01 7.09808E+02 3.50508E+01 1.58406E+02
 -1      2332-7.05255E+04-1.38518E+02-3.24570E+01 5.60111E+02 1.14219E+01 3.26398E+02
 -1      2333-4.54006E+04-5.19992E+00 6.29538E+01 3.77450E+02 2.72939E+01 1.59316E+02
 -1      2334-4.35795E+04 7.35951E+01 9.40630E+01 3.70125E+02-1.63111E+01 2.87345E+02
 -1      2335-4.87807E+04 1.23075E+01 8.89564E+00 3.64183E+02-1.40213E+00 8.27535E+01
 -1      2336-4.71869E+04-3.74019E+00 1.56292E+01 3.94212E+02-4.77518E+01 1.74163E+02
 -1      2337-4.43819E+04-4.22462E+01-2.52891E+01 5.72357E+02-2.38677E+01 2.05487E+02
 -1      2338-3.89718E+04 2.01340E+01-1.43853E+01 3.37264E+02 3.19569E+01 1.18169E+02
 -1      2339-3.74022E+04 3.18713E+01-1.14572E+01 3.41556E+02 4.93014E+00 8.36166E+01
 -1      2340-3.51200E+04-4.11360E+00 1.58388E+01 5.27145E+02 1.55209E+01 1.45965E+02
 -1      2341-3.59238E+04 1.66451E+01 5.95872E+01 3.37507E+02 1.26043E+01 9.18660E+01
 -1      2342-3.43325E+04 1.91360E+01 2.64416E+00 3.14654E+02-2.46691E+01 1.16521E+02
 -1      2343-5.57240E+04-8.71116E+01-6.68599E+01 4.39535E+02 1.85524E+01 2.05969E+02
 -1      2344-5.37632E+04-3.46406E+01-2.95649E+01 3.70394E+02-5.48546E+01 1.51127E+02
 -1      2345-5.21129E+04 8.25494E+00 5.95771E+00 3.44283E+02 2.98081E+01 1.32593E+02
 -1      2346-5.03492E+04 1.45334E+01-5.60637E+01 3.71064E+02-1.25809E+01 1.10480E+02
 -1      2347-5.06913E+04 6.17114E+01 2.74806E+01 5.43804E+02-2.23444E+01 1.94744E+02
 -1      2348-7.99528E+04-1.77850E+03-2.04470E+01 6.20028E+02 1.14605E+02 2.70187E+01
 -1      2349-7.80804E+04-7.10905E+02-8.85716E+00 2.84729E+02 1.95888E+01 1.92420E+02
 -1      2350-8.00634E+04-3.05080E+03 6.10959E+02 5.85665E+02 1.91149E+02-2.84780E+02
 -1      2351-7.69517E+04-3.20392E+03 4.52872E+02 3.10269E+02 1.26510E+02 2.07241E+01
 -1      2352-7.79417E+04-6.11900E+03 6.74413E+02 9.41695E+02 1.57711E+02-4.63359E+02
 -1      2353-8.10740E+04-4.20701E+03 8.94025E+02 1.62431E+03 3.92707E+02-7.44316E+02
 -1      2354-1.64292E+04-3.31357E+00-7.01638E+00 2.45309E+02 1.96801E+01 1.07826E+02
 -1      2355-1.51256E+04 2.63193E+01-1.45089E+01 2.52765E+02-1.73425E+01 1.12270E+02
 -1      2356-1.87509E+04 3.94538E+01 3.31374E+01 2.34820E+02 1.74604E+01 1.19989E+02
 -1      2357-1.74373E+04 3.03757E+01 2.81840E+01 2.34014E+02-1.85881E+01 1.30554E+02
 -1      2358-1.62678E+04 1.13109E+02 4.26883E+01 4.05768E+02-1.74575E+00 2.14987E+02
 -1      2359-1.49232E+03 3.70579E+01 1.29028E+01 1.75090E+02 1.37694E+00 3.36605E+01
 -1      2360-1.94728E+03 3.54293E+01 3.07083E+01 2.05292E+02-1.52953E+01 4.48537E+01
 -1      2361-2.48676E+03 3.50750E+01 5.55206E+00 2.16748E+02 2.57322E+00 3.91370E+01
 -1      2362-3.02535E+03 9.78935E+00-2.04067E+01 2.21572E+02-1.02933E+01 8.92633E+01
 -1      2363-2.29844E+03 3.56225E+01 2.12331E+01 1.79463E+02-5.40059E+00 6.27316E+01
 -1      2364-5.75647E+02 5.18780E+01 1.29218E+01 5.96063E+01 5.93323E+00 2.04183E+01
 -1      2365-2.98506E+02 4.76527E+01 1.03341E+01 5.14014E+01-4.01528E+00 1.32283E+01
 -1      2366-2.59564E+02 4.90473E+01 1.89659E+01 7.32893E+01-3.46103E+00 2.12247E+01
 -1      2367-1.89739E+02 4.68799E+01 1.87282E+01 3.72994E+01-1.24368E+00 3.89614E+00
 -1      2368-9.24572E+01 4.67441E+01 2.39314E+01 3.00121E+01-3.96583E-02 6.80952E+00
 -1      2369-6.35492E+01 5.11234E+01 2.25123E+01 4.38705E+01-1.47010E+00 2.60270E+00
 -1      2370-3.28205E+04 4.27841E+01 3.50532E+01 3.25608E+02 4.15846E+01 1.34453E+02
 -1      2371-3.10950E+04 6.13923E+01 5.52001E+01 3.66071E+02-1.03380E+01 1.71480E+02
 -1      2372-3.00448E+04-1.50035E+01-4.60759E+01 3.15846E+02 1.89194E+01 2.90539E+02
 -1      2373-2.83468E+04 4.09706E+01-2.92855E+01 3.61355E+02-2.42555E+01 2.23076E+02
 -1      2374-2.92766E+04 5.25692E+01 3.78768E+01 5.06792E+02-1.88174E+01 1.44782E+02
 -1      2375-1.25225E+03 5.20626E+01 2.10921E+01 7.96337E+01-5.10566E-01 3.75950E+01
 -1      2376-8.70507E+02 4.91981E+01 5.34022E+00 6.27676E+01-1.17293E+01 2.90833E+01
 -1      2377-2.16511E+03 3.95028E+01 3.04827E+01 1.02786E+02 6.42535E+00 3.70311E+01
 -1      2378-1.67387E+03 4.78836E+01 1.19883E+01 9.33643E+01-8.91100E+00 3.44060E+01
 -1      2379-1.37109E+03 5.63448E+01 3.27242E+01 1.29478E+02 2.04411E+00 4.53603E+01
 -1      2380-2.69242E+04-4.44623E+00 2.66172E+01 3.46733E+02 1.76905E+01 1.93071E+02
 -1      2381-2.52805E+04 7.31566E+01 8.38077E+01 3.41216E+02-2.28596E+01 2.69513E+02
 -1      2382-2.42568E+04-2.97184E+01-4.66794E+01 3.14790E+02 5.87620E+00 1.97538E+02
 -1      2383-2.28155E+04-1.30082E+01-4.49561E+01 2.68067E+02-3.23661E+01 1.81398E+02
 -1      2384-2.36809E+04-5.82482E+01-1.06322E+01 4.53291E+02 1.79984E+00 2.21884E+02
 -1      2385-3.99768E+04 1.01404E+02 6.91161E+01 5.68092E+02 7.31570E+00 1.89517E+02
 -1      2386-4.16107E+04 6.40970E+01 4.37170E+01 6.47235E+02-4.66148E+01 1.43429E+02
 -1      2387-3.73085E+04 1.43803E+01-5.26978E+01 5.83270E+02 3.55520E+01 1.54525E+02
 -1      2388-3.89254E+04-6.45235E+01-8.28340E+01 6.09922E+02-2.16144E+01 2.87961E+02
 -1      2389-4.12522E+04-2.54833E+00 9.33677E+00 5.27411E+02 2.80276E+01 2.17038E+02
 -1      2390-2.87216E+04 3.23085E+01-1.57733E+01 5.88427E+02 8.10104E+00 7.10654E+01
 -1      2391-2.99176E+04 4.16138E+01 1.43475E+01 5.85454E+02-3.28220E+01 1.23982E+02
 -1      2392-3.21586E+04-1.96449E+01-1.32850E+01 4.97446E+02 2.19115E+01 1.72649E+02
 -1      2393-3.15557E+04-3.35231E+00 1.13727E-01 5.73441E+02 4.22466E+01 1.12445E+02
 -1      2394-3.28069E+04 2.70325E+01 4.27505E+01 6.19992E+02-1.62397E+01 6.22926E+01
 -1      2395-4.32524E+04 3.62098E+00-8.93504E+00 6.60650E+02 2.88652E+01 1.22547E+02
 -1      2396-4.47134E+04 9.32965E-01 6.07076E+01 6.55372E+02-3.17615E+01 8.94249E+01
 -1      2397-4.63208E+04-7.54680E+00-1.56726E+01 6.64036E+02 2.48172E+00 8.07164E+01
 -1      2398-4.76390E+04 6.44248E+00-3.92783E+01 5.87180E+02-3.18990E+01 1.83105E+02
 -1      2399-4.75338E+04 1.87040E+01 9.39437E-01 5.59049E+02-1.82300E+01 1.52966E+02
 -1      2400-7.54959E+04-6.75376E+03 2.86002E+02-1.05958E+03 2.17039E+02 3.74259E+01
 -1      2401-7.40913E+04-3.23499E+03 4.90913E+02-3.25436E+02 5.96013E+01-1.96414E+02
 -1      2402-7.24162E+04-4.78188E+03 4.93677E+01-1.85843E+03 1.42589E+02-1.07382E+00
 -1      2403-5.51382E+01 4.67158E+01 2.75058E+01 5.03051E+01 3.82480E-01-4.93351E-01
 -1      2404-4.91435E+01 4.07020E+01 3.12489E+01 5.42403E+01-4.93469E+00 7.53852E-01
 -1      2405-1.24685E+02 5.08311E+01 2.56333E+01 6.76389E+01-3.99805E+00 1.16604E+01
 -1      2406-6.13539E+03 5.01753E+01 2.54533E+01 1.63490E+02 1.62913E+01 7.52085E+01
 -1      2407-5.29936E+03 3.88924E+01 2.06367E+01 1.57289E+02-1.11163E+01 6.62783E+01
 -1      2408-7.87739E+03 2.44853E+01 4.91494E+01 2.02792E+02 4.72625E+00 6.54466E+01
 -1      2409-6.95856E+03 3.23821E+01 1.69342E+01 1.73568E+02-2.38013E+01 6.55732E+01
 -1      2410-7.93329E+03 4.36448E+01 3.44400E+01 3.38313E+02-5.30826E+00 1.02868E+02
 -1      2411-8.86865E+03 4.30025E+01 3.92482E+01 3.87552E+02-3.35360E+01 7.38461E+01
 -1      2412-9.93051E+03 1.37921E+01 1.51845E+01 3.99901E+02 1.98780E+01 6.14253E+01
 -1      2413-1.07563E+04 1.38180E+01 1.77281E+01 4.14004E+02-1.62572E+00 4.21206E+01
 -1      2414-5.88406E+04-2.83130E+01 4.48649E+01 4.12683E+02 3.37142E+01 2.12409E+02
 -1      2415-5.68815E+04 6.58672E+01 8.18188E+01 3.72693E+02-1.89289E+01 2.93744E+02
 -1      2416-6.25529E+04-6.01284E+01-9.38745E+01 4.16646E+02 2.90523E+01 3.10345E+02
 -1      2417-6.05679E+04 2.05463E+01-1.63178E+01 4.13606E+02-2.22674E+01 2.27705E+02
 -1      2418-5.86328E+04 1.65617E+01 1.37444E+00 7.10656E+02 2.65374E+01 1.43447E+02
 -1      2419-6.02306E+04 3.48021E+01 5.64692E+01 7.20912E+02-3.51343E+01 1.61371E+02
 -1      2420-6.19624E+04 2.28013E+01-1.86683E+00 6.67576E+02 7.14901E+00 9.22092E+01
 -1      2421-6.33883E+04-3.08112E+01-1.15791E+02 6.17730E+02-3.32054E+01 2.36923E+02
 -1      2422-7.63593E+04-2.24234E+02-1.60871E+01 3.41378E+02 3.75720E+01 1.70115E+02
 -1      2423-7.44172E+04-3.98570E+01-2.69074E+01 2.73851E+02-1.38248E+01 1.85678E+02
 -1      2424-7.28399E+04-2.12907E+01-3.50649E+01 2.85478E+02 3.05510E+01 1.73712E+02
 -1      2425-7.09680E+04-8.65464E+00-3.32811E+01 3.07390E+02-3.16828E+01 1.74470E+02
 -1      2426-7.40147E+04-4.54769E+02 8.14289E+01 4.71223E+02 4.46188E+01 2.17377E+02
 -1      2427-7.17632E+04-7.11311E+02 5.96187E-01 4.55407E+02 9.56353E+01 2.01398E+02
 -1      2428-7.35359E+04-1.74208E+03 3.82855E+01-1.02398E+02-1.33339E+01 6.72013E+01
 -1      2429-1.60536E+04 2.43684E+01-6.81488E+00 5.19416E+02 1.91194E+01 1.04856E+02
 -1      2430-1.71950E+04 3.79750E+01 2.05956E+01 5.21672E+02-5.02400E+00 1.45720E+02
 -1      2431-1.85014E+04-9.11633E+00 1.91137E+01 4.16759E+02 9.81230E+00 1.88232E+02
 -1      2432-2.00717E+04 2.70608E+01 4.45813E+01 2.95372E+02-2.45046E+01 1.02505E+02
 -1      2433-2.14320E+04 1.52537E+01 3.33192E+01 2.90108E+02 7.47752E+00 1.19307E+02
 -1      2434-3.55305E+03 2.16610E+01 1.87209E+01 2.56760E+02 5.37227E+00 8.17673E+01
 -1      2435-4.23270E+03 1.59755E+01 2.01838E+01 2.81942E+02-1.75702E+01 6.96710E+01
 -1      2436-4.79050E+03 2.48028E+01 2.30030E+01 2.59651E+02-1.56433E+01 1.23636E+02
 -1      2437-1.39649E+04 1.31203E+01 1.13589E+01 2.54419E+02 2.40228E+01 1.12038E+02
 -1      2438-1.28294E+04 1.34550E+01-2.38299E+01 2.31434E+02-1.02847E+01 6.32844E+01
 -1      2439-1.17800E+04 4.13340E+01 1.50345E+01 3.59184E+02 1.01147E+01 9.72806E+01
 -1      2440-4.24776E+04-7.93280E+01-5.67641E+01 4.23023E+02 1.86148E+01 2.06775E+02
 -1      2441-4.06019E+04-4.02207E+01-3.47934E+01 3.53332E+02-5.51946E+01 1.42013E+02
 -1      2442-3.81032E+04 5.12377E+01 2.25957E+01 5.20940E+02-2.42183E+01 1.87843E+02
 -1      2443-3.43182E+04-9.63983E+00-2.95588E+01 6.24598E+02 1.86287E+01 7.15978E+01
 -1      2444-3.56456E+04 1.21628E+01-2.51268E+00 5.77709E+02-3.11483E+01 1.69849E+02
 -1      2445-4.94203E+04-3.21865E-01-7.03543E+01 6.10318E+02 4.14261E+01 1.59284E+02
 -1      2446-5.10768E+04-6.50586E+01-8.33451E+01 6.36672E+02-2.34882E+01 3.01709E+02
 -1      2447-5.39768E+04-4.23560E+00 3.90100E+00 5.54618E+02 2.82124E+01 2.23930E+02
 -1      2448-6.06044E+04 8.64720E+01 1.79538E+01 5.64248E+02 1.93185E+00 2.74661E+02
 -1      2449-6.72550E+04 7.23078E+01 1.15352E+01 5.57780E+02-9.74924E+00 2.53215E+02
 -1      2450-7.95983E+03 5.77679E+01 4.37375E+01 2.91181E+02 3.29685E+00 8.76356E+01
 -1      2451-3.48821E+03-9.53620E+01 3.87308E+01 8.63161E+02 1.36358E+02 5.08141E+03
 -1      2452-2.68500E+01-2.59982E-02-3.93130E-01 5.90544E+01 1.42841E-01 3.20593E+02
 -1      2453 1.96302E+01 5.65733E+00-6.72504E+00 1.16342E+02-3.18687E+00 6.79846E+02
 -1      2454 9.71537E+01 1.89248E+01 1.40646E+01 5.21766E+02-1.10684E+01 2.94293E+03
 -1      2455 1.26306E+00 1.38934E+00 1.20938E+00 4.87183E+02 1.26729E+00 2.75657E+03
 -1      2456 1.76170E+00 3.05654E+00-2.18289E+00 2.00407E+02 4.92168E-02 1.17722E+03
 -1      2457-1.31948E+00 1.00479E+00 5.62794E-01 2.47678E+02 5.58500E-01 1.47153E+03
 -1      2458 2.96013E+01 6.21466E+00 8.29214E+00 2.74917E+02 2.81355E+00 1.63545E+03
 -1      2459 3.41931E+01-2.18587E+01-8.01204E+00 3.55548E+02 4.60621E+00 1.96092E+03
 -1      2460 4.32843E+00 6.25756E+00 1.31065E+00 4.14535E+02 1.25997E+00 2.25387E+03
 -1      2461-4.16883E+00 1.08694E+00 1.46088E+00 4.61680E+02-4.14151E-01 2.63043E+03
 -1      2462 3.13550E+01-8.67517E+00 2.09459E+01 5.08863E+02-2.64245E+00 2.78743E+03
 -1      2463-7.31827E+00 1.55371E+00 1.78021E-01 4.38206E+02-1.48690E+00 2.40154E+03
 -1      2464-1.26238E+01-9.34018E-01-1.67343E-01 4.47861E+02 1.98858E-01 2.54538E+03
 -1      2465 1.48332E+00-3.68124E+00-2.34391E+01 4.59731E+02 2.23305E+00 2.52966E+03
 -1      2466-1.83663E+03 1.35412E+01 1.70648E+01 3.66116E+02 3.60942E+00 2.07730E+03
 -1      2467-2.81837E+02-9.86921E+00 2.79514E+01 1.58413E+02 3.65774E+00 9.13503E+02
 -1      2468-5.89644E+03-2.22710E+01 2.31795E+01 4.89017E+02-3.67374E+00 2.70512E+03
 -1      2469 1.08085E+02-6.37630E+00-3.06091E+01 3.18624E+01 8.30276E+00 1.89301E+02
 -1      2470 3.81383E+04 2.29623E+03 7.79007E+02 1.23854E+03-1.26372E+03 4.46725E+03
 -1      2471-6.93592E+01-4.73923E+00 2.97235E+01 3.31883E+01 6.13278E+00 1.84758E+02
 -1      2472 2.67316E+04 1.77813E+03-6.86407E+01 1.33105E+02 8.47265E+02 4.26461E+03
 -1      2473 1.26960E+04 9.82141E+00-6.24247E+00 4.86846E+02 1.14825E+01 2.49581E+03
 -1      2474 2.02363E+04 5.97844E-01-3.36715E+00 3.85559E+02 6.29361E+00 2.49170E+03
 -1      2475 1.59690E+03 1.17925E+01-3.26572E+01 2.44815E+02-4.53351E+00 1.22920E+03
 -1      2476-1.60402E+03-8.58102E+00 2.67351E+01 2.41114E+02 5.67081E+00 1.22677E+03
 -1      2477-4.96410E+03 4.94273E+00 2.57809E+01 2.74146E+02-4.61965E+00 1.71058E+03
 -1      2478-3.52122E+03 7.73347E+00 2.64661E+01 2.44262E+02-5.35941E+00 1.47511E+03
 -1      2479 3.54206E+03-1.16120E+01-3.31537E+01 2.45696E+02 8.34970E+00 1.47252E+03
 -1      2480 4.92704E+03 3.30464E+00-2.07011E+01 2.75324E+02-8.86580E-01 1.69440E+03
 -1      2481-2.02203E+04-2.97222E+00-3.08877E+00 3.66135E+02-2.01033E+00 2.53843E+03
 -1      2482 9.38290E+03 2.92832E+00-1.98157E+01 3.21746E+02 3.65872E+00 2.12064E+03
 -1      2483 8.02418E+03 3.36307E+00-2.53198E+01 4.27228E+02-4.13513E-01 2.25933E+03
 -1      2484-9.47238E+03-9.06951E-01-6.48329E+00 4.63273E+02-8.10751E+00 2.35786E+03
 -1      2485-9.38710E+03 5.98340E-01 1.94955E+01 3.19070E+02-4.37578E+00 2.12122E+03
 -1      2486-1.57095E+04 6.63808E+00 6.32067E+00 3.84495E+02-1.65828E+01 2.42771E+03
 -1      2487-1.25355E+04-2.71711E+00 1.25480E+01 4.91438E+02-9.08238E+00 2.49980E+03
 -1      2488-7.99369E+03 3.40157E+00 2.04360E+01 4.28581E+02 4.83489E+00 2.26993E+03
 -1      2489 1.57532E+04-5.53537E-01-2.36066E+00 3.81119E+02 1.47131E+01 2.42298E+03
 -1      2490 9.51549E+03-4.65948E+00 1.86483E+01 4.46014E+02 3.77197E+00 2.34019E+03
 -1      2491-2.72255E+04-1.97948E+03-4.82512E+01 2.33947E+02-8.46494E+02 4.16886E+03
 -1      2492 7.83364E+01 5.51673E+00-3.26722E+01 3.42559E+01-5.45334E+00 1.84452E+02
 -1      2493 6.25218E+02 6.81456E+00-4.06452E+01 1.45900E+02-5.55238E+00 7.55646E+02
 -1      2494 1.67953E+04-8.02971E+00-7.64518E-01 4.78715E+02-4.02977E+00 2.51379E+03
 -1      2495 2.71913E+04-3.36493E+01-2.12991E+01 2.85483E+02-3.01384E+02 2.82645E+03
 -1      2496 3.33709E+02-1.01635E+00-3.31108E+01 6.75164E+01 5.96605E+00 4.53630E+02
 -1      2497-3.99321E+04-2.09063E+03-8.36342E+02 1.52681E+03 1.16006E+03 4.37874E+03
 -1      2498 9.96733E+02 5.02473E+00-2.32036E+01 1.87618E+02-3.00225E+00 9.49753E+02
 -1      2499 1.79435E+04-1.83428E+01 1.34536E+01 5.11556E+02 2.54618E+01 2.55636E+03
 -1      2500-1.01546E+02 7.00103E+00 3.22027E+01 2.97113E+01-7.58002E+00 1.75194E+02
 -1      2501 5.72779E+03 3.70448E+00-2.11452E+01 3.78213E+02 6.77407E+00 1.96820E+03
 -1      2502 4.41002E+03 5.29634E+00-2.30264E+01 3.42070E+02-4.38502E+00 1.90008E+03
 -1      2503-2.83510E+04 5.36597E+01 2.88572E+00 2.54450E+02 2.90998E+02 2.76190E+03
 -1      2504 1.24144E+02 8.03686E+00-2.72081E+01 8.54360E+01-5.19913E+00 5.18122E+02
 -1      2505-3.23465E+02-2.34620E+00 4.25496E+01 9.47604E+01 5.05417E+00 4.26300E+02
 -1      2506 7.55037E+03 1.59706E+00-2.99700E+01 2.79653E+02 6.65070E+00 1.77815E+03
 -1      2507 9.04342E+03-5.08485E+00-3.21535E+00 2.87208E+02-3.47345E+00 1.90512E+03
 -1      2508 9.40094E+02-4.14334E+00-3.96930E+01 1.10973E+02 1.24001E+01 7.17352E+02
 -1      2509-9.35393E+02 6.44903E+00 3.68450E+01 1.14866E+02-8.39519E+00 7.25153E+02
 -1      2510-1.59183E+03 5.64191E+00 3.42015E+01 1.51651E+02-6.64890E+00 9.44584E+02
 -1      2511 1.61133E+03-1.60290E+00-3.53394E+01 1.48262E+02 2.97607E+00 9.44877E+02
 -1      2512 2.61883E+04 2.84956E+00-1.34753E+01 3.74496E+02-4.81293E+00 2.42419E+03
 -1      2513 2.82350E+04-1.43591E+01 2.42946E+01 3.52981E+02-3.78513E+01 2.43905E+03
 -1      2514-1.62241E+04-1.13577E+01-1.52719E+01 3.38899E+02 1.03250E+01 2.24389E+03
 -1      2515-4.26241E+03-1.02948E+01 2.29134E+01 3.23317E+02 5.46207E+00 1.67166E+03
 -1      2516-2.58361E+03 1.24026E+01 3.31657E+01 1.83616E+02-1.00473E+01 1.13070E+03
 -1      2517 2.58221E+03-1.34986E+01-3.46326E+01 1.82046E+02 1.03999E+01 1.13244E+03
 -1      2518-2.79466E+03-3.75607E+00 3.34430E+01 2.72693E+02 1.93389E+00 1.39414E+03
 -1      2519 2.80112E+03 4.68242E+00-3.74057E+01 2.72338E+02-1.99680E+00 1.38891E+03
 -1      2520 4.01070E+03-2.89382E+00-2.35897E+01 3.08834E+02 3.69464E+00 1.62156E+03
 -1      2521-1.65288E+04-3.24194E+00 2.20854E+01 4.83405E+02 9.27995E+00 2.40915E+03
 -1      2522 7.63428E+03-6.18227E+00-1.93572E+01 3.89763E+02-8.72319E+00 2.02592E+03
 -1      2523-2.15213E+04-5.69620E+00-1.74205E+01 3.58878E+02 8.49140E+00 2.35922E+03
 -1      2524-1.28239E+04-3.72853E+00 3.12564E+01 4.60444E+02 8.48869E+00 2.31034E+03
 -1      2525 1.65804E+04-2.57015E+00-2.96373E+01 4.82014E+02-6.60299E+00 2.40106E+03
 -1      2526-7.62943E+03 8.00348E+00 1.32525E+01 4.00436E+02 2.01263E+00 2.04878E+03
 -1      2527 1.62085E+04 9.50079E+00 1.95203E+01 3.36177E+02-1.14709E+01 2.24293E+03
 -1      2528 2.16110E+04 4.21566E+00 1.72309E+01 3.59660E+02-9.35438E+00 2.35566E+03
 -1      2529 1.28051E+04 3.17965E+00-2.94741E+01 4.61083E+02-7.40392E+00 2.31015E+03
 -1      2530 1.32429E+04-1.24837E+01-3.34718E+01 3.24984E+02-5.27907E+00 2.13117E+03
 -1      2531-1.32264E+04 1.29358E+01 2.97445E+01 3.28430E+02 6.78055E+00 2.13077E+03
 -1      2532-8.92054E+03 3.87602E+00-1.73676E+00 2.85801E+02 2.74634E+00 1.89827E+03
 -1      2533-2.60974E+04 1.07436E+01 2.05008E+01 3.64510E+02 8.42931E-01 2.43203E+03
 -1      2534-2.81203E+04 2.28260E+01-4.69025E-02 3.75593E+02 3.25574E+01 2.46117E+03
 -1      2535-2.16137E+04 7.50528E+01-1.66538E+01 7.35332E+02-1.85147E+02 2.70490E+03
 -1      2536 2.06595E+04-7.37047E+01 1.26107E+01 7.04128E+02 1.71111E+02 2.69260E+03
 -1      2537-5.75086E+03-1.01090E+01 1.66260E+01 3.40044E+02 6.73152E+00 1.72681E+03
 -1      2538-7.85990E+03-4.41614E+00 4.75642E+01 3.65984E+02 1.59247E-01 1.79081E+03
 -1      2539-6.72946E+02-1.00477E+01 3.07974E+01 1.35748E+02 7.98821E+00 6.75373E+02
 -1      2540-1.33253E+03-2.74350E+00 3.54547E+01 1.83346E+02 4.82928E+00 9.30952E+02
 -1      2541-7.72910E+03 7.39530E+00 2.59752E+01 2.85198E+02-1.95610E-01 1.78825E+03
 -1      2542-2.21912E+04 2.58811E+01 6.34814E+00 5.11047E+02-2.84103E+01 2.39656E+03
 -1      2543-2.01412E+04 8.17211E+00-2.40671E+01 4.68492E+02 1.17903E+01 2.38493E+03
 -1      2544-5.98323E+02 7.84338E+00 4.44032E+01 7.96982E+01-6.86973E+00 4.88033E+02
 -1      2545 1.60829E+04-6.38269E+00 1.29052E+01 4.41784E+02-9.87845E+00 2.27040E+03
 -1      2546-3.75076E+03 5.17464E+00 2.51891E+01 1.81602E+02-7.26455E+00 1.19392E+03
 -1      2547-4.24394E+03-4.37681E+00 3.65870E+01 2.94303E+02 3.52346E+00 1.50488E+03
 -1      2548 3.75069E+03-5.85874E+00-2.54489E+01 1.81042E+02 6.45905E+00 1.19451E+03
 -1      2549 5.44162E+03 5.83124E+00-2.48374E+01 3.20628E+02 1.54503E+00 1.61933E+03
 -1      2550 2.06330E+04-2.53839E+00 8.84650E+00 4.63126E+02 7.28764E+00 2.29123E+03
 -1      2551 2.36883E+04-5.64342E+00-3.06244E+01 3.52419E+02-4.13167E+00 2.26387E+03
 -1      2552-2.36964E+04 6.45040E+00 3.17758E+01 3.51689E+02 5.25886E+00 2.26346E+03
 -1      2553-1.60217E+04 7.62910E+00-1.15012E+01 4.40257E+02 8.00971E+00 2.27373E+03
 -1      2554-1.68915E+04 1.68499E-01 9.50694E+00 3.34833E+02-6.98537E+00 2.08550E+03
 -1      2555 1.68861E+04 8.74764E-01-8.16435E+00 3.12747E+02 4.64593E+00 2.10547E+03
 -1      2556-9.82994E+03-1.38385E+00-1.27548E+00 4.01570E+02-6.97161E-01 1.97773E+03
 -1      2557 9.81787E+03-5.93231E+00-3.01477E+00 3.95813E+02-2.82025E+00 1.97837E+03
 -1      2558-3.29459E+02 9.23680E+00 4.53776E+01 5.85670E+01-8.44132E+00 3.01119E+02
 -1      2559 3.99585E+03 7.15289E+00-2.27055E+01 2.80299E+02-3.73259E+00 1.44390E+03
 -1      2560 5.80514E+03-7.71068E+00-2.92887E+01 2.30593E+02 8.71060E+00 1.44908E+03
 -1      2561-5.90369E+03 5.65393E+00 3.21528E+01 2.28477E+02-9.64314E+00 1.48550E+03
 -1      2562-1.21370E+04-3.12354E+00 1.26274E+01 4.22601E+02-5.43080E-01 2.13687E+03
 -1      2563 1.60275E+04-2.36799E+00-5.15319E+00 4.85981E+02 5.14368E+00 1.66378E+03
 -1      2564 5.58417E+03-4.78024E+00-2.07083E+01 3.34634E+02-9.63128E-01 2.43477E+03
 -1      2565 2.14512E+04-2.55801E+01-3.21953E+01 2.86674E+02 7.08204E+00 1.23211E+03
 -1      2566 2.11803E+04 6.05887E+01 5.79027E+01 4.13910E+02-3.54703E+01 1.30875E+03
 -1      2567 1.03741E+04 2.47885E+01 9.86987E+00 2.83715E+02-4.64436E+00 2.23050E+03
 -1      2568 4.62137E+03-5.78418E+01-5.33352E+01 4.07058E+02 1.36530E+01 2.43436E+03
 -1      2569 9.60932E+03 4.39720E+00 4.02517E+01 2.58718E+02-4.72738E+00 2.18047E+03
 -1      2570 1.96709E+04-4.21587E+01-4.42505E+01 4.45001E+02 3.02689E+00 1.29358E+03
 -1      2571 4.15477E+03 3.59203E+01 2.15141E+01 4.31581E+02-8.45017E+00 2.41591E+03
 -1      2572 8.04335E+01-2.19642E+00-1.73451E+01 1.74794E+01 7.07950E+00 2.53868E+02
 -1      2573 1.03398E+02-4.40266E+00-1.24571E+01 2.43640E+01 8.15307E+00 3.25476E+02
 -1      2574-3.82851E+01-9.59565E+00 1.31936E+01 1.96585E+01 6.32236E+00 2.50965E+02
 -1      2575-1.82335E+01-9.08112E+00 8.86218E+00 2.26971E+01 7.10425E+00 3.19966E+02
 -1      2576 1.57614E+01-4.01307E+00 9.66068E-01 3.07583E+01 7.65914E+00 2.06928E+02
 -1      2577 2.55770E+02-1.65026E+01-3.78824E+01 6.18761E+01 3.09842E+00 1.36331E+02
 -1      2578 1.35699E+02-1.80539E+01-2.45835E+01 4.56038E+01 4.04332E+00 1.07569E+02
 -1      2579 1.15742E+02-1.19409E+01-2.52387E+01 4.41938E+01-1.50143E+00 1.02441E+02
 -1      2580 8.85508E+01-2.94636E+00-3.59638E+01 3.54983E+01 8.23586E-01 1.79563E+02
 -1      2581 2.33187E+02-1.43885E+01-4.12587E+01 5.11887E+01-6.32355E-01 1.33714E+02
 -1      2582 5.87598E+04 4.04643E+03 2.73163E+02 7.37553E+02-5.49564E+02 2.00574E+03
 -1      2583 1.67547E+04 6.95577E+02 1.94302E+02 8.90394E+02-8.42101E+02 4.71771E+03
 -1      2584 3.81504E+04 2.24545E+03 4.79571E+01 5.02298E+02-7.08212E+01 2.72862E+03
 -1      2585 5.33776E+04 3.71918E+03 3.84776E+01-5.64037E+01 2.05527E+02 2.09139E+03
 -1      2586 1.12712E+04 6.22211E+02 4.19619E+01 7.63359E+02 6.99521E+02 4.50317E+03
 -1      2587 3.26859E+04 2.73611E+03 1.27344E+01 4.62102E+02-3.39138E+02 4.51617E+03
 -1      2588 5.23972E+03 5.17047E+01 5.46076E+02 4.65384E+02-7.61138E+02 3.16027E+03
 -1      2589 2.54338E+04 8.96650E+02 1.33207E+03 5.51891E+02-9.43502E+02 2.60665E+03
 -1      2590-6.29366E+03-8.22174E+02 3.90786E+01 9.44584E+01-8.07062E+02 2.27948E+03
 -1      2591 5.25690E+03 2.31349E+02 5.34182E+02 9.74013E+02-9.93885E+02 4.41393E+03
 -1      2592-1.51302E+04-8.10636E+02 2.48629E+01 7.90136E+02-5.31935E+02 4.61495E+03
 -1      2593 3.06529E+03 2.15903E+01-1.33579E+01 1.44787E+02-7.31750E+00 5.66429E+02
 -1      2594 1.56007E+03-2.14085E+01-9.06471E+01 1.41588E+02-1.98741E+01 1.10724E+03
 -1      2595 3.14163E+03 2.44089E+01 7.68844E+00 2.06999E+02-2.35541E+00 6.55332E+02
 -1      2596 2.58820E+03-4.18501E+01-5.84441E+01 1.80197E+02-5.00208E+00 5.51411E+02
 -1      2597 1.30332E+03 2.28568E+01-1.69398E+01 2.30680E+02-5.90111E-01 1.08717E+03
 -1      2598 1.28754E+03 1.34064E+01 1.80926E+00 1.20656E+02 3.80074E+00 9.93474E+02
 -1      2599 7.36512E+02-8.66532E+00-5.46477E+01 2.46013E+02-2.01611E+00 1.22246E+03
 -1      2600 7.76834E+02 5.87768E+00-8.02558E+00 1.24536E+02-3.95584E+00 1.07701E+03
 -1      2601 5.50012E+02 1.90574E+01 9.93964E+00 2.23910E+02-4.38868E+00 1.09179E+03
 -1      2602 2.21810E+03-1.25072E+01-3.31239E+01 2.10441E+02-5.45460E+00 7.37972E+02
 -1      2603 5.24744E+03-1.09454E+00 1.29002E+02 4.68822E+02-6.60390E+02 3.22233E+03
 -1      2604-5.84370E+03-4.11373E+02 5.91793E+02 2.46102E+02-6.82891E+02 2.66536E+03
 -1      2605 3.70240E+04 5.43813E+02-7.13058E+01 5.63641E+02-7.76329E+01 2.67268E+03
 -1      2606 5.16706E+04 1.95126E+03-2.04065E+02 2.49108E+02 1.43497E+02 1.86616E+03
 -1      2607 5.47945E+02-6.85123E+00-4.06271E+01 8.16003E+01-8.37247E+00 6.59447E+02
 -1      2608 1.04861E+03 1.53377E+01-1.63597E+01 1.29348E+02 5.08893E-01 4.04450E+02
 -1      2609 9.63736E+02 1.05108E+01-2.52255E+01 8.13921E+01-9.03992E+00 3.25716E+02
 -1      2610 3.02656E+02 1.37809E+00-5.11571E+01 6.15134E+01 1.20927E+00 5.64534E+02
 -1      2611 6.63661E+02-1.47574E+01-5.00847E+01 1.05971E+02-2.77104E+00 3.29414E+02
 -1      2612 3.10359E+02 7.55787E+00-3.18760E+01 1.17297E+02-3.67422E+00 6.32846E+02
 -1      2613 2.62152E+02-6.30796E+00-5.17559E+01 1.37469E+02-3.18385E+00 7.31673E+02
 -1      2614 6.76215E+02-1.19927E+01-2.82350E+01 1.24496E+02 1.17675E+00 4.28243E+02
 -1      2615 5.39140E+01-3.39444E+00-1.28634E+01 1.07419E+02-1.25753E+01 6.12986E+02
 -1      2616-3.14464E+03-2.67204E+01-7.60676E+01 2.61503E+02-1.03736E+01 2.75345E+03
 -1      2617-8.47207E+03-1.63742E+01-9.11318E+01 5.37757E+02-3.44155E+00 2.59563E+03
 -1      2618 5.15647E+03-4.43558E+01-2.68357E+01 3.04107E+02 3.19967E+01 2.80387E+03
 -1      2619-4.73088E+03 3.18555E+01 7.70953E+01 2.54205E+02 1.85131E+01 2.73856E+03
 -1      2620-1.00045E+04-3.16300E+01 8.86453E+01 5.39216E+02 1.05239E+01 2.62335E+03
 -1      2621-1.83321E+04 1.41305E+01 6.92757E+00 4.55788E+02-5.13134E+00 2.36739E+03
 -1      2622-3.75415E+04 3.35431E+01 1.07217E+02 4.95923E+02 2.66723E+01 1.30601E+03
 -1      2623-2.96270E+04 4.33329E+00 2.38015E+01 5.12238E+02-1.51776E+00 1.69031E+03
 -1      2624-3.98828E+04 9.58054E+00-4.57676E+01 4.25508E+02-3.95459E+01 1.30067E+03
 -1      2625-1.77351E+04 4.32095E+00 5.65507E+01 2.74855E+02-2.89943E+01 2.44619E+03
 -1      2626-1.96355E+04 2.19879E+01-2.53386E+01 2.84431E+02 2.78262E+01 2.43173E+03
 -1      2627-3.55338E+04 3.08213E-01 6.76184E+01 5.20958E+02-2.24299E+01 1.31249E+03
 -1      2628-3.77904E+04-4.33969E+00-8.06245E+01 5.23827E+02 1.06705E+01 1.28052E+03
 -1      2629 2.49898E+04 3.82477E+02 2.60631E+01 3.72515E+02-7.95587E+02 2.82441E+03
 -1      2630 5.72000E+04 1.89034E+03 3.79622E+01 7.48190E+02-4.50747E+02 1.87779E+03
 -1      2631-3.77882E+02 7.62585E+00-6.15806E+00 1.20454E+02-4.60525E+00 1.15177E+03
 -1      2632-5.02262E+02-6.88340E-01-6.68702E+00 1.22579E+02-3.59844E-02 1.23661E+03
 -1      2633 2.18718E+03-7.13305E+00-2.13408E+01 1.91263E+02-1.56932E+01 7.21358E+02
 -1      2634 2.69539E+03-6.46347E+00-1.21288E+01 2.06849E+02-1.39920E+01 7.44980E+02
 -1      2635 6.07187E+02-5.39226E+00-2.33864E+01 1.10479E+02-2.65875E+00 4.03153E+02
 -1      2636 5.89526E+02 2.70986E+00-2.71314E+01 1.06426E+02 8.14401E-01 3.01144E+02
 -1      2637 9.12669E+02-1.47181E+00-7.19686E+00 1.30658E+02-7.96663E+00 4.37856E+02
 -1      2638 2.45754E+04 2.79106E+01 3.60429E+01 5.08309E+02 4.12647E+01 1.71232E+03
 -1      2639 2.64528E+04 8.36877E+00-2.09232E+01 5.06225E+02 6.72462E+01 1.65671E+03
 -1      2640 3.06364E+04-1.89516E+01-2.10529E+01 4.41904E+02 1.71806E+01 1.42383E+03
 -1      2641 3.23440E+04-7.80634E+01-8.58369E+01 5.26291E+02-4.37749E+00 1.38299E+03
 -1      2642 6.54442E+03 3.91505E+01 4.23194E+01 5.45789E+02 2.93021E+01 2.65768E+03
 -1      2643 3.50558E+04 4.35764E+01 6.83564E+01 5.37790E+02-8.30977E+00 1.33169E+03
 -1      2644 3.30331E+04 5.65204E+01 4.01368E+01 4.59579E+02-7.69308E-01 1.36345E+03
 -1      2645 8.18133E+03-4.01730E+01-7.42731E+01 5.46504E+02-1.95086E+00 2.57647E+03
 -1      2646 2.97073E+04-3.75721E+00-5.82005E+00 5.29801E+02-5.95570E+00 1.69827E+03
 -1      2647 3.28822E+04 2.17247E+01 5.27003E+01 4.04284E+02-3.07570E+01 1.73912E+03
 -1      2648 3.93517E+04-3.91308E+01-7.67372E+01 4.44437E+02 2.01991E+01 1.38473E+03
 -1      2649 4.26441E+04-1.25741E+01-4.45303E+01 4.11444E+02-1.87707E+01 1.40572E+03
 -1      2650 1.03666E+04 1.08142E+02 1.10821E+02 4.37959E+02-1.68764E+00 2.62277E+03
 -1      2651 2.93696E+04-1.61392E+01-4.12327E+01 3.66077E+02 4.72323E+01 1.70881E+03
 -1      2652 2.75117E+04-1.12002E+01 2.05770E+01 4.77285E+02 6.75519E+01 1.66488E+03
 -1      2653 3.98180E+04-1.18675E+01 3.67184E+01 3.93442E+02 1.54040E+01 1.38486E+03
 -1      2654 3.80588E+04 6.00359E+01 9.26248E+01 4.64779E+02-8.25328E-01 1.36583E+03
 -1      2655 9.90612E+03-4.81161E+01-7.23900E+01 3.94278E+02 2.83180E+01 2.64996E+03
 -1      2656 1.70190E+04 4.32222E+01 3.11093E+01 4.41239E+02 1.57558E+01 1.60286E+03
 -1      2657 1.80973E+04-3.18792E+00-3.61886E+01 4.38859E+02 1.64725E+00 1.61590E+03
 -1      2658 1.45876E+04 2.06977E+01-1.78718E+01 5.07931E+02-3.64062E+00 2.42367E+03
 -1      2659 4.91355E+03 2.04996E+01 3.43402E+01 5.09429E+02 1.76298E+01 2.52542E+03
 -1      2660 2.32850E+04 3.30604E+00-2.84813E+01 4.27237E+02 5.18420E+00 1.31971E+03
 -1      2661 1.87775E+04 3.82505E+01 4.86448E+01 4.90975E+02 4.69180E+01 1.63305E+03
 -1      2662 6.28603E+03-4.08971E+01-6.85545E+01 5.17906E+02-4.31424E+00 2.47471E+03
 -1      2663 2.53616E+04 6.69265E+01 5.13546E+01 4.32083E+02 8.38656E+00 1.29979E+03
 -1      2664 1.10702E+04-2.02827E+01-5.32544E+01 4.81042E+02-1.91923E+01 2.31083E+03
 -1      2665 3.80925E+04-4.60007E+01-7.84340E+01 4.14996E+02-3.38810E+00 1.31424E+03
 -1      2666 3.99850E+04-5.83677E+01-6.41425E+01 3.82595E+02 1.82570E+00 1.32703E+03
 -1      2667 1.09762E+04 6.77061E+01 7.89977E+01 3.61030E+02-2.53492E+00 2.53772E+03
 -1      2668 2.01118E+04 1.63923E+01-1.36265E+01 4.83765E+02 6.70219E+01 1.58221E+03
 -1      2669 2.68121E+04 3.50809E+01 5.86770E+01 5.20087E+02-6.27547E+00 1.27642E+03
 -1      2670 1.29683E+04-2.36238E+01-4.64670E+01 3.13670E+02 2.97638E+01 1.40437E+03
 -1      2671 1.23720E+04-2.30455E+01 2.06828E+00 4.16386E+02 4.02002E+01 1.38388E+03
 -1      2672 1.79140E+04-3.21794E+00 2.35927E+01 3.29235E+02 1.55464E+01 1.16273E+03
 -1      2673 1.73750E+04 4.43346E+01 6.28100E+01 3.85860E+02 2.11253E+00 1.15550E+03
 -1      2674 4.50886E+03-6.63061E+01-9.35700E+01 3.33375E+02 7.64910E+00 2.19669E+03
 -1      2675 2.02648E+04-3.18436E+01-8.51904E+01 3.08447E+02 1.64125E+01 2.53949E+03
 -1      2676 3.01896E+04-3.06969E+01 2.22688E+01 1.94189E+02-1.71820E+01 2.42078E+03
 -1      2677 1.53302E+04 3.09415E+00 8.89670E+01 2.18577E+02 1.84640E+01 2.78301E+03
 -1      2678 2.44823E+04-7.54958E+01-8.48507E+01 4.94879E+02-6.56559E+00 1.27872E+03
 -1      2679 2.10718E+04 2.81740E+01 4.19396E+01 3.39029E+02-1.87218E+01 2.39860E+03
 -1      2680-4.80935E+03-3.40814E+01-1.70463E+01 3.02075E+02-1.28569E+00 2.78922E+03
 -1      2681-1.79330E+04-3.26315E+01-6.19799E+01 3.05581E+02-2.68102E+00 2.48856E+03
 -1      2682-1.49768E+04-2.81622E+00 3.15101E+01 2.14529E+02-1.26671E+01 2.80585E+03
 -1      2683-2.82177E+04-1.94490E+01 7.33913E+01 1.86385E+02-1.95834E+01 2.41250E+03
 -1      2684-9.88121E+03 5.49103E+01 7.03294E+01 3.84826E+02-2.65207E+01 2.65795E+03
 -1      2685-2.93480E+04 1.29508E+01 4.24271E+01 3.64674E+02-4.80331E+01 1.71151E+03
 -1      2686-2.75114E+04 1.01725E+01-1.95007E+01 4.80427E+02-6.83660E+01 1.66420E+03
 -1      2687-3.97760E+04 1.19514E+01-3.44770E+01 3.91701E+02-1.71234E+01 1.38835E+03
 -1      2688-3.80656E+04-5.40302E+01-9.77855E+01 4.63084E+02 2.65653E+00 1.37370E+03
 -1      2689-4.61814E+03-2.72958E+01-1.84991E+01 2.84365E+02-1.95588E+01 2.78126E+03
 -1      2690 8.56372E+03-5.73536E+01-7.14182E+01 3.00421E+02-1.80393E+01 2.51860E+03
 -1      2691 1.48277E+04-2.12221E+01 1.40393E+01 2.88244E+02 6.41849E+00 2.42234E+03
 -1      2692 1.85100E+03 2.85057E+01 5.52948E+01 2.53647E+02 5.84032E+00 2.77414E+03
 -1      2693 3.65292E+03 2.40651E+01 1.61304E+01 2.61267E+02 2.05184E+01 9.27191E+02
 -1      2694 3.73760E+03-5.69209E+00-1.71165E+01 2.51032E+02 7.07086E+00 8.88031E+02
 -1      2695 4.27873E+03-2.64010E+01-6.54018E+01 2.68930E+02-1.99321E+01 6.83149E+02
 -1      2696 8.80648E+02 2.46223E+01 2.89699E+01 2.59744E+02-4.63435E+00 1.35322E+03
 -1      2697 4.27748E+03-1.37416E+01-4.81016E+01 2.28502E+02 3.90758E+00 7.15798E+02
 -1      2698-3.64688E+03-2.34622E+01-1.92172E+01 2.63089E+02-2.17316E+01 9.26623E+02
 -1      2699-3.73602E+03 5.18079E+00 1.63122E+01 2.51111E+02-9.22834E+00 8.90721E+02
 -1      2700-4.28308E+03 2.75479E+00 3.38681E+01 2.35935E+02 5.60005E+00 7.14316E+02
 -1      2701-4.28324E+03 2.19642E+01 5.26633E+01 2.65276E+02 1.34740E+01 6.84165E+02
 -1      2702-8.85720E+02-2.08661E+01-2.12025E+01 2.61772E+02 7.20595E+00 1.35838E+03
 -1      2703 2.67249E+02 3.86479E+00-2.11573E+01 1.34340E+02-4.02188E+00 1.33668E+03
 -1      2704-6.67999E+02-1.37527E+01-1.03649E+01 1.54245E+02-1.64318E+01 1.49223E+03
 -1      2705 1.30754E+03-3.14508E+01-5.96680E+01 1.69425E+02-1.93632E+01 1.37534E+03
 -1      2706 1.98810E+02 1.51237E+01 2.07884E+01 1.20499E+02 2.91867E+00 1.40208E+03
 -1      2707 2.05892E+03-1.81106E+00-1.93640E+01 1.49889E+02 4.57969E+00 1.23577E+03
 -1      2708 3.65899E+03 1.63459E+01 5.69615E+00 2.54214E+02-1.10718E+01 6.73168E+02
 -1      2709 6.68673E+02 1.24986E+01 6.15767E+00 1.54259E+02 1.59997E+01 1.49407E+03
 -1      2710-1.31752E+03 2.12931E+01 5.35396E+01 1.67666E+02 1.67113E+01 1.36986E+03
 -1      2711-2.07401E+03 7.61929E-01-1.42523E+01 1.51599E+02-1.22499E+00 1.23607E+03
 -1      2712-1.94124E+02-7.24729E+00-9.15460E+00 1.23773E+02-6.55673E-02 1.40537E+03
 -1      2713 5.48737E+03-1.06942E+01-5.75953E+01 2.23009E+02 1.17591E+01 1.80324E+03
 -1      2714 1.34390E+03-3.00852E+01-3.16026E+01 2.20412E+02 1.80159E+01 1.97597E+03
 -1      2715 3.82825E+03-1.33727E+00 3.28939E+01 1.56670E+02-3.30284E+00 1.91327E+03
 -1      2716 2.66694E+03 5.78589E+01 4.87547E+01 3.03324E+02 1.95888E+00 1.82830E+03
 -1      2717 7.84285E+03-1.08691E+01 3.37205E+01 1.45472E+02-9.83162E+00 1.67893E+03
 -1      2718 7.74122E+03-1.07952E+01-2.49461E+01 3.75249E+02-4.41022E+00 1.20241E+03
 -1      2719 8.82898E+03 1.42528E+01 2.41339E+01 2.91197E+02-2.05354E+01 1.23300E+03
 -1      2720 9.89859E+03-3.60016E+01-6.21715E+01 3.16049E+02 1.39389E+01 9.56584E+02
 -1      2721 1.10651E+04-1.50745E+01-3.53269E+01 2.79262E+02 2.79942E+00 9.75685E+02
 -1      2722-3.28483E+04-1.09257E+01-2.83610E+01 3.85339E+02 1.52585E+01 1.74228E+03
 -1      2723-4.26098E+04-1.98775E+00 3.90838E+01 4.07746E+02 2.96990E+01 1.41043E+03
 -1      2724-1.03054E+04-5.66908E+01-9.99808E+01 3.81773E+02-1.44771E+01 2.66486E+03
 -1      2725-3.93756E+04-4.71846E+00 6.90371E+01 4.44330E+02-7.18494E+00 1.36460E+03
 -1      2726-2.02018E+04 3.92777E+01 6.75305E+01 2.97032E+02-1.87790E+01 2.55550E+03
 -1      2727-5.17967E+03 2.80401E+01 2.64879E+01 3.03206E+02-2.06420E+01 2.87778E+03
 -1      2728-3.01113E+04 3.60996E+01-8.23178E+00 1.99203E+02 1.55751E+01 2.42887E+03
 -1      2729-1.52824E+04 1.16021E+01-4.14511E+01 2.42114E+02-3.72570E+00 2.81282E+03
 -1      2730 4.80693E+03 3.25219E+01 1.12334E+01 3.01763E+02 3.24147E+00 2.78801E+03
 -1      2731 1.79336E+04 3.23601E+01 6.12793E+01 3.06501E+02 2.62232E+00 2.48566E+03
 -1      2732 1.50124E+04 7.83295E-01-3.82842E+01 2.18070E+02 1.19465E+01 2.79738E+03
 -1      2733 2.82407E+04 1.51111E+01-7.24377E+01 1.87585E+02 1.84219E+01 2.40973E+03
 -1      2734 2.06460E+04 3.15464E+00-9.16904E+00 4.74737E+02 7.19591E+00 1.24912E+03
 -1      2735 2.20348E+03 3.61035E+01 4.55650E+01 2.53179E+02-1.26624E+01 2.30857E+03
 -1      2736 7.90122E+03 1.09665E+01 4.22690E+01 2.55488E+02-2.24442E+00 2.05130E+03
 -1      2737 6.89075E+03-1.02385E+00-5.47356E+01 1.75574E+02 1.22491E+01 2.34550E+03
 -1      2738 1.27319E+04 1.72706E+01-6.83582E+01 1.57659E+02 2.11453E+01 2.00888E+03
 -1      2739-2.17580E+03-1.06865E+01 3.93847E+00 2.51545E+02 8.25783E+00 2.30667E+03
 -1      2740-7.90424E+03-1.24119E+01-3.68227E+01 2.51081E+02 5.38519E+00 2.04536E+03
 -1      2741-6.88324E+03 3.44578E+00 4.24056E+01 1.85671E+02-9.41149E+00 2.34999E+03
 -1      2742-1.27330E+04-7.97819E+00 7.50079E+01 1.67038E+02-2.03696E+01 2.00663E+03
 -1      2743-4.49029E+03 6.07129E+01 8.92838E+01 3.30055E+02-2.50420E+00 2.19900E+03
 -1      2744-1.29648E+04 2.04107E+01 4.25174E+01 3.09572E+02-2.24415E+01 1.41249E+03
 -1      2745-1.24005E+04-7.32536E+00-1.38463E+01 4.23941E+02-1.48804E+01 1.38272E+03
 -1      2746-1.73846E+04-1.39168E+01-5.42506E+01 3.76139E+02 4.41252E+00 1.14245E+03
 -1      2747-1.79086E+04 1.07196E+00-2.47418E+01 3.29850E+02-8.79768E+00 1.17136E+03
 -1      2748-2.46114E+04-3.33604E+01-4.27778E+01 5.12910E+02-4.44911E+01 1.70465E+03
 -1      2749-2.64510E+04-1.19272E+01 2.12233E+01 5.05195E+02-6.79213E+01 1.65933E+03
 -1      2750-3.06229E+04 2.88894E+00 1.71778E+01 4.63237E+02 1.52498E+00 1.41782E+03
 -1      2751-3.22753E+04 7.36016E+01 8.40991E+01 5.17761E+02-1.05766E+00 1.38369E+03
 -1      2752-6.46427E+03-2.55126E+01-3.18354E+01 5.44927E+02-1.91783E+01 2.66385E+03
 -1      2753-3.69229E+03-3.41103E+01-1.23985E+01 2.87423E+02-5.81023E+00 2.66727E+03
 -1      2754-1.37093E+04-4.30231E+01-5.32802E+01 2.88064E+02 8.24155E-01 2.38133E+03
 -1      2755-1.15732E+04 1.24079E+00 3.75375E+01 2.30502E+02-7.98005E+00 2.68985E+03
 -1      2756-2.17358E+04-2.26459E+01 2.56114E+01 2.02834E+02-9.10331E+00 2.33510E+03
 -1      2757-7.58547E+03 5.66312E+01 6.63980E+01 3.75078E+02-3.91123E+01 2.54156E+03
 -1      2758-2.24347E+04 8.69696E+00 3.10521E+01 3.54243E+02-3.94383E+01 1.63604E+03
 -1      2759-2.11374E+04 6.12500E+00-2.19133E+01 4.56549E+02-6.30725E+01 1.59320E+03
 -1      2760-3.05898E+04 7.96650E+00-1.32246E+01 3.88545E+02-2.04227E+01 1.37212E+03
 -1      2761-2.94118E+04-6.01112E+01-7.14209E+01 4.41557E+02-1.43560E+00 1.35143E+03
 -1      2762 4.62706E+03 2.56752E+01 1.10280E+01 2.82892E+02 1.61938E+01 2.78624E+03
 -1      2763-8.57289E+03 4.27624E+01 6.86582E+01 2.98372E+02 1.26518E+01 2.51290E+03
 -1      2764-1.76236E+03-3.13928E+01-5.39447E+01 2.57207E+02-1.27482E+01 2.78543E+03
 -1      2765-1.47940E+04 4.11961E+00-7.03812E+01 2.94785E+02-1.19697E+00 2.41138E+03
 -1      2766 3.68856E+03 3.35629E+01 1.13422E+01 2.88142E+02 6.16652E+00 2.66780E+03
 -1      2767 1.36960E+04 3.04000E+01 5.00955E+01 2.92777E+02 3.87019E+00 2.37282E+03
 -1      2768 1.16021E+04-1.97750E+00-3.05269E+01 2.26450E+02 1.18014E+01 2.69256E+03
 -1      2769 2.17097E+04 9.18536E+00-7.73831E+01 2.01060E+02 7.88181E+00 2.31766E+03
 -1      2770 7.60172E+03-4.47248E+01-5.82990E+01 3.75064E+02 3.26877E+01 2.54165E+03
 -1      2771 1.41943E+04-5.78768E+00-9.64637E+00 4.53544E+02-4.50231E+00 1.45998E+03
 -1      2772 1.59189E+04 1.86589E+01 3.97972E+01 3.52809E+02-2.59484E+01 1.50108E+03
 -1      2773 2.02923E+04-3.04730E+00-4.95415E+01 3.48617E+02-1.61410E+01 1.19688E+03
 -1      2774 4.88709E+03 6.72545E+01 8.35755E+01 3.59101E+02 6.84401E+00 2.26083E+03
 -1      2775 1.84696E+04-3.18117E+01-7.88902E+01 3.80204E+02 2.27078E+01 1.17329E+03
 -1      2776 2.32314E+04-1.58590E+01 1.73827E+00 5.07752E+02 1.03936E+01 1.28416E+03
 -1      2777 3.50721E+03 2.58923E+01 1.61652E+01 2.69864E+02 1.84957E+01 2.65171E+03
 -1      2778-6.56777E+03 4.31448E+01 6.84134E+01 2.82727E+02 1.41918E+01 2.39915E+03
 -1      2779-1.12733E+04-5.74545E-01-6.32928E+01 2.77467E+02-2.11486E+00 2.28887E+03
 -1      2780-4.94156E+03-2.92260E+01-4.51826E+01 5.16045E+02-1.75277E+01 2.52914E+03
 -1      2781-1.34836E+03-3.88097E+01-6.02186E+01 2.42823E+02-1.43784E+01 2.64450E+03
 -1      2782-1.88000E+04-3.84660E+01-4.49014E+01 4.91641E+02-4.60495E+01 1.63344E+03
 -1      2783-2.01094E+04-1.33068E+01 1.68353E+01 4.80976E+02-6.85338E+01 1.58224E+03
 -1      2784-2.44373E+04 7.69067E+01 8.44775E+01 4.90802E+02 5.42244E+00 1.30549E+03
 -1      2785-2.32990E+04 5.22095E-01 1.67163E+01 4.38051E+02-8.74120E-01 1.34095E+03
 -1      2786 4.61638E+04 3.18204E+01 4.21475E+01 3.85433E+02-8.54609E+00 1.36624E+03
 -1      2787 4.31000E+04 7.69188E+01 8.04914E+01 4.07388E+02-1.95844E+01 1.36611E+03
 -1      2788 1.28567E+04-9.31925E+01-9.77297E+01 4.44548E+02 1.36038E+00 2.58811E+03
 -1      2789-3.51537E+03-2.64349E+01-1.50750E+01 2.70832E+02-2.15574E+01 2.65443E+03
 -1      2790 6.56185E+03-4.31490E+01-7.01845E+01 2.83450E+02-1.37992E+01 2.39826E+03
 -1      2791 1.32142E+03 2.85027E+01 4.32550E+01 2.47679E+02 1.35011E+01 2.64270E+03
 -1      2792 1.12646E+04 1.20850E+00 6.12326E+01 2.85643E+02 7.56394E+00 2.28085E+03
 -1      2793-9.88760E+03 2.47238E+01 6.47666E+01 2.57846E+02-1.21747E+01 2.20779E+03
 -1      2794-2.47283E+03 2.94235E+01 1.76725E+01 2.61814E+02-1.75387E+01 2.47637E+03
 -1      2795-1.44068E+04 2.17871E+01-5.00756E+01 1.66588E+02 1.55048E+01 2.06109E+03
 -1      2796-7.13381E+03 1.57086E+01-2.30509E+01 2.00160E+02 5.85088E-01 2.38802E+03
 -1      2797-4.89603E+03-6.03187E+01-8.24804E+01 3.59673E+02-1.13413E+01 2.26405E+03
 -1      2798-3.29473E+03-6.72259E+00-1.64666E+00 2.67965E+02 1.47535E+01 2.60250E+03
 -1      2799-3.01830E+03-3.36499E+00-6.01556E+00 2.58711E+02-1.85049E+01 2.58548E+03
 -1      2800 2.34890E+04 1.73382E+01 2.24042E+01 2.94937E+02-9.37272E+01 2.53850E+03
 -1      2801 6.39248E+03 2.66024E+01 1.99213E+01 3.33552E+02-1.30757E+02 2.80176E+03
 -1      2802 2.05767E+04-1.20879E+01 4.56358E+01 2.04562E+02-5.55256E+01 2.71991E+03
 -1      2803 1.42883E+04 4.35469E+01 9.99488E+01 3.88537E+02-4.96628E+01 2.70600E+03
 -1      2804 3.74556E+04-2.39797E+01 1.51721E+01 1.56878E+02-5.64061E+01 2.35597E+03
 -1      2805 2.87390E+04-2.11594E+01 2.01539E+01 1.90761E+02-1.82652E+01 2.37484E+03
 -1      2806 1.58624E+04-2.27693E+01-2.14385E+01 2.01955E+02 6.13955E+00 2.70521E+03
 -1      2807-3.30945E+04-7.07335E+01-8.47172E+01 4.50832E+02 3.21873E-01 1.33563E+03
 -1      2808-8.18974E+03 4.21279E+01 8.85939E+01 5.41128E+02 2.63277E-01 2.57787E+03
 -1      2809-3.50663E+04-4.12391E+01-7.55249E+01 5.32303E+02 5.08351E+00 1.31791E+03
 -1      2810 8.12190E+02-2.52390E+00-2.15485E+01 9.85449E+01 1.18160E+00 4.30096E+02
 -1      2811 1.32724E+03-2.11685E+00-7.92326E+00 1.09176E+02 4.81749E+00 3.84877E+02
 -1      2812 1.12578E+03-1.37450E+01-1.38559E+01 1.14295E+02 5.06863E+00 3.58500E+02
 -1      2813 4.42733E+02-1.36632E+01-5.15189E+01 1.08163E+02 1.29515E+01 7.04962E+02
 -1      2814-1.58142E+04 2.45789E+01 2.07868E+01 2.03410E+02-5.71540E+00 2.70782E+03
 -1      2815-1.09310E+04-6.84825E+01-8.06125E+01 3.60600E+02 3.53269E+00 2.54156E+03
 -1      2816-2.86914E+04 2.16353E+01-2.07112E+01 1.91626E+02 1.67953E+01 2.37635E+03
 -1      2817-3.99205E+04 5.49671E+01 6.35700E+01 3.83845E+02-2.83791E+00 1.32902E+03
 -1      2818-3.80519E+04 4.58193E+01 7.61754E+01 4.15839E+02 1.25538E+00 1.31303E+03
 -1      2819 3.31353E+03-7.38949E+00-4.15380E+00 2.64760E+02 7.63116E+00 2.73037E+03
 -1      2820 1.67691E+04-1.20290E+01-5.45232E+01 2.77046E+02-2.49573E+01 2.39031E+03
 -1      2821 5.32461E+03 3.28690E+01 2.03610E+01 3.16619E+02 3.78701E+00 7.57931E+02
 -1      2822 5.14155E+03 3.23311E+01 9.34583E-01 2.56882E+02 5.99195E+00 7.80651E+02
 -1      2823 1.29383E+03-3.56610E+01-5.78112E+01 2.66920E+02 6.22565E-01 1.42957E+03
 -1      2824-5.32049E+03-2.98704E+01-1.98871E+01 3.16602E+02-4.14941E+00 7.57494E+02
 -1      2825-5.14168E+03-3.35695E+01-7.43419E+00 2.51986E+02-7.43038E+00 7.72664E+02
 -1      2826-1.29220E+03 3.67420E+01 5.72573E+01 2.64612E+02 4.59647E-01 1.43135E+03
 -1      2827 2.67135E+03-9.73394E+00-6.35439E+01 1.54281E+02-1.47418E+01 1.33154E+03
 -1      2828 5.24683E+02-1.95576E+01-1.94952E+01 1.49225E+02-1.48426E+00 1.52304E+03
 -1      2829-5.22334E+02 1.72570E+01 1.81426E+01 1.50573E+02 1.47528E+00 1.52335E+03
 -1      2830-2.68119E+03-5.13359E-01 5.67262E+01 1.60000E+02 1.06559E+01 1.33479E+03
 -1      2831-1.68013E+04-3.66000E+00 4.20565E+01 2.93674E+02 2.83485E+01 2.39339E+03
 -1      2832-3.32748E+03 5.31240E+00 1.24868E+01 2.67075E+02-4.69399E+00 2.72699E+03
 -1      2833-2.57424E+03 5.11308E-01 4.40216E+00 2.52881E+02-5.06191E+00 2.61189E+03
 -1      2834-6.29540E+03 4.27102E+01 7.30868E+01 5.17707E+02 4.55302E+00 2.47364E+03
 -1      2835-1.29125E+04-4.75535E+00 5.11884E+01 2.74047E+02 1.95155E+01 2.30196E+03
 -1      2836-2.68310E+04-3.79763E+01-6.38819E+01 5.17081E+02 7.36720E+00 1.27793E+03
 -1      2837-2.53928E+04-6.69846E+01-4.91907E+01 4.35246E+02-6.56438E+00 1.29923E+03
 -1      2838 1.29049E+04 4.62221E+00-5.12133E+01 2.75316E+02-1.79411E+01 2.30084E+03
 -1      2839 2.56350E+03-5.21008E-01 5.36569E-02 2.54794E+02 4.76334E+00 2.61271E+03
 -1      2840 1.66131E+04-5.05317E+01-6.98772E+01 3.41197E+02 3.38082E-01 1.07695E+03
 -1      2841 1.72856E+04-5.08084E+01-6.43716E+01 3.18215E+02 6.15304E+00 1.06245E+03
 -1      2842 4.65872E+03 4.91390E+01 7.69685E+01 3.12226E+02-4.23163E+00 2.09329E+03
 -1      2843-1.20347E+04 1.79057E+01 1.77190E+01 1.93566E+02-7.77336E+00 2.58574E+03
 -1      2844-8.26476E+03-6.54430E+01-7.79950E+01 3.42742E+02 3.12595E+00 2.41621E+03
 -1      2845-2.18178E+04 6.23276E+00-1.98781E+01 1.84794E+02 1.78875E+01 2.25561E+03
 -1      2846 2.18010E+04-1.96956E+01 1.33815E+01 1.79894E+02-1.64141E+01 2.25927E+03
 -1      2847 1.20253E+04-2.34150E+01-1.78196E+01 1.93682E+02 6.66923E+00 2.58301E+03
 -1      2848 8.26198E+03 7.01221E+01 8.42367E+01 3.41858E+02-3.86263E+00 2.41549E+03
 -1      2849-2.90183E+04 5.07664E+01 8.13485E+01 4.00260E+02 3.88446E+00 1.25723E+03
 -1      2850-3.03774E+04 4.23235E+01 4.96937E+01 3.59407E+02 3.34547E+00 1.27230E+03
 -1      2851 1.71835E+02-3.66108E+00-3.63703E+00 1.02466E+02-1.49508E+01 1.10885E+03
 -1      2852 2.50721E+03-4.79640E-01-1.90796E+01 2.18431E+02 5.73426E+00 5.31497E+02
 -1      2853 1.80883E+04-3.27298E+00-4.54896E+01 2.04233E+02-1.78443E+01 2.75630E+03
 -1      2854 3.33800E+04 4.11575E+00-7.01490E+01 1.96935E+02 1.07620E+01 2.40592E+03
 -1      2855 2.26809E+04 2.67332E+01 2.17879E+01 3.35184E+02-4.13399E+00 1.20301E+03
 -1      2856 2.10330E+04 5.97767E+01 5.58416E+01 3.48340E+02-9.99061E+00 1.18934E+03
 -1      2857 6.37581E+03-9.42767E+01-1.05797E+02 3.68736E+02-7.07465E+00 2.26236E+03
 -1      2858 1.27502E+04 2.57899E+01 3.88044E+01 2.83827E+02-1.16316E+00 9.83206E+02
 -1      2859 1.17344E+04 4.27698E+01 4.45091E+01 2.90337E+02-9.33668E+00 9.81062E+02
 -1      2860 3.64285E+03-7.36902E+01-9.30386E+01 3.23364E+02 2.34879E+00 1.86558E+03
 -1      2861 6.83616E+03-1.21239E+01 1.96988E+01 1.71472E+02 1.31089E+01 2.23687E+03
 -1      2862 1.23801E+04-2.15064E+01 2.77107E+01 1.47220E+02-8.63711E+00 1.93326E+03
 -1      2863 4.98818E+03 8.09184E-01-4.61808E+01 1.47451E+02-4.88926E+00 1.96623E+03
 -1      2864 9.27284E+03 1.60675E+01-6.34221E+01 1.36443E+02 1.40957E+01 1.74012E+03
 -1      2865 9.16292E+01-8.06648E+00-1.26613E+01 7.66093E+01 9.90677E+00 6.47974E+02
 -1      2866 5.32284E+02-8.41295E+00-3.81278E+01 7.69325E+01 1.10857E+01 6.27255E+02
 -1      2867 5.22503E+02-3.41573E+00-3.06578E+01 5.47540E+01 3.84796E+00 6.97885E+02
 -1      2868 1.00988E+03-1.41633E+00-5.21117E+01 5.47941E+01 1.08743E+01 6.52462E+02
 -1      2869 9.81224E+03-3.51558E+01-6.83176E+01 2.51910E+02 1.51132E+01 2.21673E+03
 -1      2870 2.46782E+03-3.25256E+01-2.25632E+01 2.58861E+02 1.96707E+01 2.47385E+03
 -1      2871 1.43268E+04-2.66598E+01-4.25686E-01 1.64811E+02-1.28552E+01 2.06729E+03
 -1      2872 7.13963E+03-1.66385E+01 2.54216E+01 2.01562E+02 3.05755E+00 2.38426E+03
 -1      2873 2.24412E+04-1.52520E+01-3.57524E+01 3.50699E+02 4.18012E+01 1.63128E+03
 -1      2874 2.11291E+04-9.26223E+00 2.28242E+01 4.57267E+02 6.40396E+01 1.59249E+03
 -1      2875 3.06026E+04-7.53745E+00 8.72979E+00 3.81559E+02 5.19484E+00 1.35883E+03
 -1      2876 2.94162E+04 5.58312E+01 7.01938E+01 4.50157E+02 4.84786E+00 1.34596E+03
 -1      2877 3.60349E+04-1.66763E+01-1.03650E+01 4.98269E+02 1.16686E+01 1.81720E+03
 -1      2878 3.83974E+04-5.78903E+01-6.22794E+01 3.26953E+02-2.48614E+01 1.82713E+03
 -1      2879 4.97031E+04-4.69661E+01-6.39050E+01 3.98961E+02-2.45921E+01 1.38074E+03
 -1      2880 5.22013E+04-8.19935E+01-5.98221E+01 3.22959E+02-3.15873E+01 1.35724E+03
 -1      2881-2.10019E+04-2.92094E+01-3.86226E+01 3.36281E+02 1.85389E+01 2.40423E+03
 -1      2882 2.12585E+03 2.28908E+00-4.66288E+01 2.68632E+02-9.49329E+00 1.28072E+03
 -1      2883-2.11945E+03 1.64535E+01 6.29035E+01 2.72997E+02 1.77432E+01 1.28956E+03
 -1      2884 1.36597E+03 3.70951E+01 2.40602E+01 2.27524E+02 8.04426E+00 2.59361E+03
 -1      2885-8.85752E+03 1.51819E+01-1.15632E+00 1.81485E+02 6.46866E+00 2.42915E+03
 -1      2886-1.65034E+04-5.41983E+00 4.92809E+01 1.72506E+02-1.16990E+01 2.09887E+03
 -1      2887-6.38172E+03 9.27203E+01 1.04304E+02 3.73405E+02 4.76887E+00 2.26550E+03
 -1      2888 1.04956E+03-1.79898E+01-4.43737E+00 2.08762E+02-3.93517E+00 2.54100E+03
 -1      2889-1.45045E+04 2.37775E+01 5.42825E+01 5.07574E+02 2.53235E+01 2.42725E+03
 -1      2890-1.41990E+04 5.26495E+00 9.41062E+00 4.53960E+02 5.84749E+00 1.46238E+03
 -1      2891-1.59181E+04-2.32188E+01-4.37277E+01 3.51407E+02 2.88101E+01 1.49820E+03
 -1      2892-1.84791E+04 3.18539E+01 7.79395E+01 3.80181E+02-1.96841E+01 1.16885E+03
 -1      2893-2.03026E+04 5.90271E+00 4.58520E+01 3.36666E+02 1.58872E+00 1.18751E+03
 -1      2894-1.10910E+04 2.21039E+01 5.41870E+01 4.82321E+02 2.15618E+01 2.32146E+03
 -1      2895 1.30279E+03 8.49995E-01-1.48362E+01 1.53695E+02-1.20594E+01 4.19960E+02
 -1      2896 5.06722E+01-4.64725E+00-8.21267E+00 4.28761E+01 2.63848E+00 2.66192E+02
 -1      2897 3.16968E+01-4.59143E+00 1.03233E+00 4.36291E+01 1.66864E+00 3.74284E+02
 -1      2898-4.36555E+01 1.29223E+00 1.28017E+01 5.13765E+01 1.98315E+00 2.49078E+02
 -1      2899-1.60225E+04 9.63303E+00-9.46121E+00 3.32560E+02 7.78440E+00 2.30049E+03
 -1      2900 2.36812E+02-7.90205E+00-2.04572E+01 6.31212E+01-2.37476E-01 2.27299E+02
 -1      2901 3.53872E+01 2.53783E+00-7.90541E+00 4.90006E+01-2.40391E+00 2.65136E+02
 -1      2902 2.30985E+04-4.72165E+00-3.27362E+01 3.54293E+02 1.63469E+01 2.40615E+03
 -1      2903 1.60511E+04 2.59543E+01 3.02741E+01 3.28440E+02-2.24897E+01 2.30578E+03
 -1      2904-1.11505E+04 4.80195E+01 7.00387E+01 2.86346E+02-2.57590E+01 2.07971E+03
 -1      2905 1.11621E+04-1.97859E+01-5.14867E+01 2.92455E+02 1.64279E+01 2.06775E+03
 -1      2906 2.90116E+04-4.26616E+01-7.85938E+01 4.00630E+02-5.21573E+00 1.25372E+03
 -1      2907 3.03693E+04-4.94333E+01-5.94758E+01 3.64878E+02-3.01211E-01 1.26078E+03
 -1      2908 8.86428E+03-1.35278E+01 2.50072E+00 1.82518E+02-7.26627E+00 2.42747E+03
 -1      2909 1.64390E+04-1.13492E+00-5.40929E+01 1.78624E+02 1.47395E+01 2.09711E+03
 -1      2910 9.28840E+03 2.01212E+01 2.88296E+01 2.83251E+02-1.74004E+01 1.98010E+03
 -1      2911-1.23551E+04 1.21465E+01-6.57367E+00 1.38649E+02 1.74233E+01 1.91901E+03
 -1      2912-6.76092E+03 1.25078E+01 4.70273E+00 1.69399E+02-1.56361E+01 2.21717E+03
 -1      2913-4.59721E+03-6.79516E+01-8.26819E+01 3.22036E+02-5.79589E+00 2.07004E+03
 -1      2914 6.18506E+03-2.99121E+01-6.03978E+01 2.47672E+02 2.68728E+01 1.71036E+03
 -1      2915-1.65444E+04 2.86669E+01 9.23117E+01 3.50141E+02-1.08294E+00 1.08098E+03
 -1      2916-1.72179E+04 4.37883E+01 8.85035E+01 3.27316E+02-2.06760E+00 1.07721E+03
 -1      2917-4.61284E+04-2.73607E+01-5.39534E+01 3.93662E+02 7.66107E+00 1.36165E+03
 -1      2918-4.30579E+04-1.40258E+01-7.75586E+01 4.41976E+02-2.55558E-01 1.34678E+03
 -1      2919-1.28769E+04 6.95212E+01 1.17624E+02 3.80949E+02-1.10565E+00 2.63623E+03
 -1      2920-2.26850E+04-3.17427E+01-3.20110E+01 3.38466E+02 8.49510E+00 1.19452E+03
 -1      2921-2.10333E+04-5.90466E+01-5.93798E+01 3.46250E+02 1.25746E+01 1.19070E+03
 -1      2922-1.80820E+04 5.69996E+00-2.30613E+01 2.10125E+02 1.01413E+01 2.80935E+03
 -1      2923-3.33422E+04-1.15295E+01 3.40610E+01 1.95276E+02-1.43148E+01 2.40805E+03
 -1      2924 3.70947E+04 3.95368E+00-3.24116E+01 1.21235E+02-1.46397E+02 2.43202E+03
 -1      2925 1.33682E+04-5.52387E+01-9.74543E+01 3.87491E+02-1.43127E+02 2.89520E+03
 -1      2926 1.98170E+04-3.84404E+01-1.27047E+02 2.12191E+02-2.06060E+02 2.80475E+03
 -1      2927-1.25028E+04-3.79954E+03-2.85571E+03 6.49834E+02 2.28422E+02 3.49580E+03
 -1      2928 4.20144E+03 1.79763E+03 1.31292E+03 4.17489E+02-5.68835E+01 3.26184E+03
 -1      2929-1.30359E+04 9.65369E+01-3.89956E+02 4.73245E+02-2.76033E+00 2.06032E+03
 -1      2930-2.11750E+04-9.24998E+02-4.84594E+02 8.05363E+02 9.62351E+02 4.60883E+03
 -1      2931-2.91620E+04-4.98766E+03-4.27235E+03 1.11158E+03 4.39457E+02 2.70590E+03
 -1      2932-3.71687E+04 2.87774E+00-4.95659E+01 3.27354E+02 7.16976E+00 1.29334E+03
 -1      2933 6.81761E+02-1.15696E+01-3.46290E+01 9.16918E+01 8.23942E+00 2.60722E+02
 -1      2934 8.85889E+02-1.48160E+01-4.05874E+01 8.45939E+01-7.48513E-01 2.89682E+02
 -1      2935 1.93033E+02 8.75028E+00-1.12830E+01 8.12947E+01 6.04305E+00 5.74573E+02
 -1      2936-5.72042E+01 3.57744E+02 7.07818E+02 6.02430E+02 3.59445E+02 3.10791E+03
 -1      2937 5.21756E+04-1.14073E+01 1.17490E+01 3.05644E+02-1.05761E+02 1.48296E+03
 -1      2938 4.99911E+04 1.41471E+02 7.98035E+01 3.93000E+02-1.40989E+02 1.54894E+03
 -1      2939-9.21680E+03-4.07355E+01-2.28884E+01 2.81454E+02 1.65074E+01 1.97786E+03
 -1      2940 6.48557E+02-1.38353E+01-4.02802E+01 3.88968E+01 1.64745E+00 5.20739E+02
 -1      2941 2.63156E+02-2.99141E+00 1.36292E+00 4.26198E+01 6.91164E+00 5.55019E+02
 -1      2942-2.09137E+01 2.42708E+00 1.27152E+01 2.55001E+01-3.73821E+00 1.66945E+02
 -1      2943-2.09091E+01-2.47201E+00 1.30698E+01 3.24780E+01 1.84419E+00 1.65070E+02
 -1      2944 2.75524E-01-1.61210E+00-9.92419E+00 3.03402E+01-1.71273E-01 1.65626E+02
 -1      2945-2.30734E+04 2.25761E+01 4.52079E+01 3.45848E+02-1.58523E+01 2.41890E+03
 -1      2946-3.84375E+01 5.77331E+00 3.60967E+01 1.92379E+01-3.75854E+00 9.02309E+01
 -1      2947-7.64612E+01 3.09379E+00 1.01108E+01 4.30449E+01-5.04676E+00 2.45690E+02
 -1      2948-4.04387E+01 8.58819E+00 2.76162E+01 1.38110E+01-9.27466E+00 9.98855E+01
 -1      2949 2.76465E+04-8.28838E+00 3.65724E+01 3.21613E+02-1.34327E+02 2.51550E+03
 -1      2950 5.87902E+02-1.44195E+01-5.44613E+01 8.70174E+01 1.45663E+01 5.77753E+02
 -1      2951-2.17046E+03-1.58970E+00 1.38834E-01 1.25488E+02 5.79708E+00 4.84995E+02
 -1      2952-1.75332E+03 1.77624E+01 4.17469E+01 1.47785E+02 3.69841E+00 4.11073E+02
 -1      2953-9.13005E+02-6.73245E+00 2.52678E+01 8.55754E+01-2.29342E+00 7.86344E+02
 -1      2954-1.25290E+03 1.39248E+01 6.03065E+01 1.09336E+02 2.00709E+01 9.17691E+02
 -1      2955-9.88672E+02-6.61915E+00 3.12807E+01 1.69311E+02 5.12343E+00 7.99702E+02
 -1      2956-2.24646E+03-1.52520E+01 1.38204E+00 1.86668E+02-6.59214E+00 5.09162E+02
 -1      2957-1.29580E+04 3.60182E+01-2.78965E+00 2.45738E+02 9.79379E+00 1.04063E+03
 -1      2958-1.21195E+04 2.33645E+01 1.12809E+01 2.34922E+02-1.30876E+01 1.00631E+03
 -1      2959-7.36796E+03 7.13183E+00 1.76988E+01 2.06213E+02 2.70830E+01 1.88593E+03
 -1      2960-1.27163E+04-3.94161E+01-2.15529E+01 3.32449E+02-4.02650E+00 9.22763E+02
 -1      2961-1.36070E+04-4.26347E+01-1.73904E+00 4.18625E+02-1.04364E+01 9.93455E+02
 -1      2962-1.76698E+03-1.28032E+01 2.78066E+01 1.10998E+02 2.95890E+00 4.42801E+02
 -1      2963-1.38392E+03 1.16967E+01 3.82186E+01 1.59035E+02 1.00869E+01 3.82465E+02
 -1      2964-1.52681E+03-1.22796E+01 3.39772E+01 1.06634E+02-7.15624E-01 4.05642E+02
 -1      2965-7.32535E+02-7.84119E+00 3.42101E+01 8.49657E+01 3.99976E-02 7.37068E+02
 -1      2966 3.99740E+01 5.65890E+00-2.06207E+01 7.30261E+01-1.60766E+00 4.17286E+02
 -1      2967 3.57808E+02-5.67313E+00-1.52629E+01 8.16136E+01-4.49953E-01 2.77034E+02
 -1      2968 1.11700E+02 4.34815E+00-3.51347E+01 5.93337E+01-5.97583E+00 3.38423E+02
 -1      2969 4.82754E+04 2.60468E+02-1.56282E+02 5.81044E+02 4.53718E+00 1.52428E+03
 -1      2970 8.95048E+03-4.64435E+01 2.12685E+02 8.09870E+02 2.46372E+02 3.50433E+03
 -1      2971 2.31513E+04 5.64910E+02-2.04523E+02 5.73691E+02 4.39880E+02 3.04869E+03
 -1      2972-2.34017E+04-5.04674E+03-3.54648E+03 1.44719E+02-5.56957E+02 2.82051E+03
 -1      2973-1.11232E+04-6.24254E+02 3.33813E+02 9.36192E+01 2.61721E+01 1.97233E+03
 -1      2974 1.64458E+01 5.95712E+00-1.19865E+01 2.26935E+01-6.14743E+00 1.09844E+02
 -1      2975 3.29474E+01 8.24168E-01-3.73088E+01 1.95572E+01-3.18799E+00 9.88380E+01
 -1      2976-1.28505E+04-1.29643E+01-2.24839E+02 8.13431E+02-1.58646E+02 3.49720E+03
 -1      2977-3.86073E+03 4.72937E+01 1.69314E+02 4.22667E+02-3.87237E+02 2.54835E+03
 -1      2978-2.40645E+04-5.74746E+02 1.69846E+02 5.44955E+02-3.94760E+02 3.02005E+03
 -1      2979 9.15637E+03-1.97585E+01 5.92529E+01 5.51023E+02 4.76671E+01 2.75445E+03
 -1      2980 4.34045E+04-4.36023E+01-1.68547E+01 5.12462E+02 1.29250E+01 1.42780E+03
 -1      2981 3.47965E+04-6.03565E+01-3.88775E+01 5.04024E+02 3.91168E+01 1.82018E+03
 -1      2982 1.03579E+04 4.74395E+01-5.62670E+01 6.33880E+02 9.73693E+01 2.82726E+03
 -1      2983 4.52335E+04 2.69167E+01 3.62673E+01 4.84675E+02 5.06360E+01 1.44990E+03
 -1      2984 1.92559E+04-1.56402E+01-1.21585E+01 5.20159E+02 6.38398E+01 2.53995E+03
 -1      2985-9.96251E+03 8.09227E+00 3.49086E+01 3.19747E+02-3.10803E+00 9.58317E+02
 -1      2986-2.66954E+03-2.94567E+01-3.54936E+01 2.71627E+02-6.14482E+00 1.81662E+03
 -1      2987-7.69346E+03 2.16089E+01 2.18210E+01 3.57444E+02 2.92215E+00 1.20377E+03
 -1      2988-1.16404E+04 2.66533E+01 9.19931E-01 3.89079E+02 1.40495E+01 9.79328E+02
 -1      2989-3.73062E+03 1.22247E+01 6.90576E+01 2.61152E+02 3.21334E+00 1.88631E+03
 -1      2990-6.25789E+03 1.87411E+01 4.43579E+01 2.85153E+02-5.86649E+00 1.72990E+03
 -1      2991-1.11547E+02-4.83887E+00 2.51396E+01 5.32378E+01 3.57267E+00 4.48612E+02
 -1      2992-1.42876E+02 9.40560E+00 3.49454E+01 7.67216E+01 4.04386E+00 3.73620E+02
 -1      2993-1.73669E+02 3.07525E+00 4.27268E+01 6.68326E+01 6.11913E+00 3.06450E+02
 -1      2994-1.36123E+03 7.09964E-01-1.80291E+01 2.06930E+02-1.62637E+01 1.98307E+03
 -1      2995-3.78416E+03 2.20201E+01 1.07040E+01 1.80882E+02-6.47899E+00 1.91787E+03
 -1      2996-5.09195E+03 1.14330E+01 1.51304E+01 1.66850E+02 9.20441E-01 1.99095E+03
 -1      2997-3.37731E+04-3.02150E+03-1.47315E+02 1.04905E+03-7.40278E+01 4.39804E+03
 -1      2998 8.67901E+02-1.45086E+00 3.06617E+01 1.99088E+02-5.88577E+00 2.22443E+03
 -1      2999 2.95335E+03-1.71733E+00 2.02626E+01 4.27489E+02 2.05279E+01 2.11401E+03
 -1      3000-1.95147E+03 1.00053E+01 3.56984E+01 2.47747E+02-1.10952E+01 2.22821E+03
 -1      3001 1.63558E+03 6.14617E+00-1.13407E+01 2.11950E+02-1.69537E+01 2.21413E+03
 -1      3002 3.76066E+03 8.54471E+00-5.57525E+01 4.60469E+02-4.17023E+00 2.12516E+03
 -1      3003 6.60051E+03 2.39475E+00-2.45751E+01 3.66203E+02-7.10439E+00 1.97496E+03
 -1      3004-2.04697E+04 2.88624E+01 8.27208E+01 2.10995E+02 1.98443E+02 2.80299E+03
 -1      3005-1.37895E+04 5.96052E+01 1.00574E+02 4.07727E+02 1.49956E+02 2.85126E+03
 -1      3006-6.20733E+03 2.83127E+01 8.58614E+01 3.12572E+02 1.26920E+02 2.74119E+03
 -1      3007-2.04865E+04 2.93078E+01 2.25348E+01 2.27766E+02 7.79383E+01 2.67562E+03
 -1      3008-1.42459E+04-2.74691E+01-8.96630E+01 3.80609E+02 3.28686E+01 2.65746E+03
 -1      3009-2.82783E+04-7.72960E+00-2.60038E+01 3.55087E+02 1.30071E+02 2.52859E+03
 -1      3010 1.40774E+04-2.16379E+01-3.81229E+01 4.03506E+02 6.86019E+00 1.09649E+03
 -1      3011 1.14669E+04-2.18772E+01-2.57526E+01 4.12868E+02 5.53464E+01 1.38794E+03
 -1      3012 1.53678E+04 9.33856E+00 1.30555E+01 3.60237E+02 1.10806E+01 1.12032E+03
 -1      3013-1.10779E+04 9.48806E-01 3.46956E+01 2.37711E+02 1.50935E+01 9.67819E+02
 -1      3014-1.27880E+04 2.36109E+00 5.78366E+00 2.52619E+02-1.99273E+00 9.56883E+02
 -1      3015-7.80211E+03 2.58002E+01 5.57404E+01 1.38414E+02 6.92485E+00 1.71152E+03
 -1      3016-9.34459E+03 7.88730E+00 1.12661E+01 1.36984E+02-1.03526E+01 1.74203E+03
 -1      3017-5.04505E+04-7.38875E+01-4.04683E+01 4.20745E+02 1.44544E+02 1.51201E+03
 -1      3018-3.59720E+04-3.15006E+01 1.69966E+01 4.97730E+02 1.25089E+01 1.83649E+03
 -1      3019-4.98752E+04-3.71295E+00 5.08720E+01 5.09557E+02 9.37377E+00 1.40814E+03
 -1      3020 1.62699E+02-3.68167E+00-7.00974E+00 8.40570E+01 6.15643E+00 7.50275E+02
 -1      3021 6.03059E+02-4.85821E+00-3.24455E+01 5.85890E+01 4.07922E+00 8.03276E+02
 -1      3022 1.41711E+04-1.59466E+01-6.40935E-01 1.02619E+02-8.40163E-01 9.16570E+02
 -1      3023 2.09834E+04 3.74960E+00-3.72929E+01 1.19696E+02 1.03968E+01 1.04838E+03
 -1      3024 1.46163E+03-7.02336E+00-7.51366E+00 1.28676E+02 1.21096E+01 3.93606E+02
 -1      3025 4.08919E+04 7.56055E+00 2.26961E+00 5.83250E+02 9.88079E+00 1.41335E+03
 -1      3026 4.26418E+04-7.71590E+00 5.82530E+01 6.21421E+02 6.52893E+01 1.42145E+03
 -1      3027 1.54141E+03 7.52315E-02-3.77251E+00 2.20882E+02 2.10177E+01 2.04239E+03
 -1      3028 5.19775E+03-1.67200E+00-5.96100E+01 1.49613E+02-6.24944E+00 2.05446E+03
 -1      3029 5.31245E+04 2.94674E+01 5.39643E+01 1.39467E+02-4.88462E+00 1.28976E+03
 -1      3030 2.00119E+03 1.43488E+01 1.48848E+01 2.44856E+02-2.11311E+01 2.26879E+03
 -1      3031 6.62169E+03 5.36954E-01 1.93927E+01 1.58932E+02 1.50575E+01 2.23078E+03
 -1      3032 3.97334E+04-2.17647E+01-4.70409E+01 4.83473E+02 2.61629E+01 1.23182E+03
 -1      3033 1.03107E+04 1.63690E+01 1.11724E+01 5.13273E+02-2.84980E+01 2.54055E+03
 -1      3034 2.34885E+04 4.34236E+01 5.18329E+01 4.42485E+02-3.01061E+01 2.27558E+03
 -1      3035-1.33430E+01 7.64143E+00 1.09465E+00 3.17703E+01-6.69675E+00 2.02582E+02
 -1      3036 1.02440E+04-1.74602E+01-5.39202E+01 3.35804E+02 1.78049E+01 8.66252E+02
 -1      3037 2.71657E+03 1.26976E+01-1.34419E+01 3.47237E+02-2.19741E+01 1.79852E+03
 -1      3038 6.57282E+03 2.51036E+01 1.73093E+01 3.13279E+02-2.17478E+01 1.63806E+03
 -1      3039 1.56366E+04 5.94308E-01-4.82208E+01 3.54009E+02-1.57012E+01 1.06764E+03
 -1      3040-1.15264E+04 2.81848E+01 6.88305E+00 4.34943E+02-2.18100E+01 1.38993E+03
 -1      3041-1.55873E+04 3.14973E+01 4.75366E+01 3.25492E+02 1.48332E+01 1.07861E+03
 -1      3042 6.13472E+03 2.59093E+00-9.08075E-01 3.23507E+02-7.84325E+01 2.85590E+03
 -1      3043 2.03094E+04 9.77463E-01 6.58650E+01 1.92979E+02-1.17217E+01 2.80196E+03
 -1      3044 4.43260E+04 1.19248E+01 3.29668E+00 4.40889E+02 1.27869E+00 1.33810E+03
 -1      3045 4.12561E+04 8.72615E+00 5.17960E+01 5.27928E+02-3.16180E+01 1.22551E+03
 -1      3046 5.45414E+03-2.70312E+00 1.55567E+01 3.04836E+02 2.17210E+01 2.85139E+03
 -1      3047 1.83957E+04-8.44626E+00-4.73582E+01 2.04489E+02-1.84435E+01 2.82364E+03
 -1      3048 2.90686E+03-8.79975E+00 4.45300E+01 2.69013E+02 2.17560E+01 2.81616E+03
 -1      3049-6.02593E+03 1.88926E+01 6.10659E+01 3.19000E+02 5.24016E+01 2.79316E+03
 -1      3050 3.93206E+03-8.22450E+00-3.34066E+01 3.15285E+02 7.51491E+01 2.72723E+03
 -1      3051 1.25960E+04-1.45520E+00-8.32225E-01 3.18859E+02 9.25196E+00 9.74537E+02
 -1      3052 1.13318E+04 3.53752E+00 2.07468E+01 3.74666E+02-2.12856E+01 8.71560E+02
 -1      3053-2.09761E+04-8.15246E+00 2.59428E+01 1.08000E+02-1.88280E+01 1.05149E+03
 -1      3054 6.57655E+03-1.44092E+01-5.77082E+01 2.29947E+02 9.90542E+00 1.97602E+03
 -1      3055 7.55422E+03-9.72143E+00-8.86479E+00 2.29024E+02-1.37811E+01 2.00727E+03
 -1      3056 4.84102E+04-7.04673E+00-4.94657E+01 4.28514E+02-3.45375E+01 1.36416E+03
 -1      3057-4.14823E+04 6.50937E+00-7.28096E+01 3.56306E+02-5.97159E+00 1.30544E+03
 -1      3058-4.03311E+04-2.90063E+01 1.59303E+01 3.48707E+02-2.11620E+00 1.24220E+03
 -1      3059-2.09397E+04-6.35091E+00-4.19311E+01 2.69502E+02-2.13813E+01 2.38492E+03
 -1      3060-3.91758E+04 3.52492E+01 4.98880E+01 5.27708E+02 1.91638E+01 1.30328E+03
 -1      3061-4.02275E+04 6.22784E+01 4.33031E+01 4.44903E+02 2.84681E+00 1.30810E+03
 -1      3062-1.18926E+04 1.24912E+00-3.89444E+01 1.76079E+02 1.00947E+01 2.51406E+03
 -1      3063-1.15134E+04-3.40873E+01 2.15471E+01 1.77106E+02-2.71657E+01 2.46275E+03
 -1      3064-8.52766E+03-3.39728E+01-2.44079E+01 4.20871E+02-4.74577E+00 2.25189E+03
 -1      3065 1.35263E+04 5.15001E+00-3.23696E+01 4.25536E+02 1.29371E+01 1.09917E+03
 -1      3066 1.47884E+04 7.71222E+00 1.24968E+01 4.18281E+02-1.16696E+01 1.11818E+03
 -1      3067-5.30522E+04-3.10059E+01-6.11199E+01 1.42990E+02 9.70475E+00 1.29197E+03
 -1      3068-2.78689E+04-1.93160E+01 4.01022E+01 4.18897E+02 2.55523E+01 1.24519E+03
 -1      3069-3.76083E+04 9.53429E+00-1.57650E+00 1.15982E+02 1.21013E+02 2.41483E+03
 -1      3070-3.74024E+04 1.53933E+01 3.27465E+01 1.56238E+02 3.91934E+01 2.39063E+03
 -1      3071-3.07512E+04-4.38199E+01-6.82140E+00 5.41892E+02 2.13891E+01 1.73699E+03
 -1      3072-4.42886E+04-2.73623E+01-3.48288E+01 4.25872E+02-2.59933E+01 1.37502E+03
 -1      3073-2.02487E+04-9.23707E+00-8.73889E+01 2.06581E+02 3.56732E-01 2.81433E+03
 -1      3074 5.21045E+03 3.29049E+01 2.78539E+01 2.51371E+02-1.96409E+01 2.72562E+03
 -1      3075-2.50556E+03-4.56893E-03-5.25936E+01 3.99704E+02 1.55494E+01 2.54900E+03
 -1      3076-1.17230E+04 8.45959E+00-3.83640E+01 1.82057E+02-2.67864E+01 2.62071E+03
 -1      3077-3.62121E+04-8.04899E+00-6.56680E+01 5.36395E+02 3.49733E+01 1.33050E+03
 -1      3078-1.57494E+03 3.79816E+00 2.59427E+01 9.42555E+01-9.84301E+00 1.18854E+03
 -1      3079-1.22016E+03 1.40994E+01 3.93225E+01 1.60064E+02-8.30643E+00 1.13064E+03
 -1      3080-1.72724E+03 6.75953E+00 3.22982E+01 9.73472E+01 4.62732E+00 1.28261E+03
 -1      3081 5.07662E+02 7.06879E+00 1.70406E+01 1.33637E+02-7.26760E+00 1.22761E+03
 -1      3082 4.13004E+02 6.38691E+00 2.90681E+01 1.27764E+02 3.95485E+00 1.15463E+03
 -1      3083 1.72003E+03-6.20825E+00-4.19629E+01 9.81668E+01-5.78963E+00 1.28580E+03
 -1      3084 1.58905E+03-6.35147E-01-1.59651E+01 9.88991E+01 1.07953E+01 1.18594E+03
 -1      3085 1.23743E+03-9.04783E+00-4.55664E+01 1.58775E+02 1.15161E+01 1.14073E+03
 -1      3086-2.21335E+03-7.07882E+00 1.12094E+01 2.06049E+02 1.92211E+01 7.24426E+02
 -1      3087-2.69221E+03 3.51566E+00 1.33656E+01 2.15723E+02 2.75306E+01 7.51579E+02
 -1      3088-4.09921E+03 2.08934E+01-1.09572E+00 2.24991E+02-1.42548E+01 6.39488E+02
 -1      3089-3.49648E+03 6.08533E+00 9.47205E+00 2.24882E+02 1.32752E+00 6.12488E+02
 -1      3090 3.49261E+03-9.93857E+00-2.57130E+00 2.25132E+02-7.53546E-01 6.05044E+02
 -1      3091 4.09698E+03-1.40680E+01-2.83311E+00 2.21006E+02 1.55551E+01 6.34446E+02
 -1      3092 5.47706E+03-1.63443E+01-3.04553E+01 2.46134E+02-5.33762E+00 6.37124E+02
 -1      3093 3.39347E+03 1.11173E+01 1.90185E+00 2.62304E+02 1.46037E+01 1.24957E+03
 -1      3094 1.87628E+03 4.77277E+00-1.14524E+01 2.03354E+02 2.66601E+01 1.33649E+03
 -1      3095-5.47512E+03 1.59921E+01 3.05647E+01 2.46876E+02 3.82792E+00 6.37233E+02
 -1      3096-3.39263E+03-1.08071E+01-1.25240E+00 2.61490E+02-1.40776E+01 1.24809E+03
 -1      3097-1.87812E+03-4.55208E+00 1.17892E+01 2.04962E+02-2.64766E+01 1.33615E+03
 -1      3098-2.56453E+03-1.03876E+01 8.30520E+00 9.35472E+01-9.54890E+00 1.40477E+03
 -1      3099-6.69828E+02-5.70361E+00 1.94969E+01 2.30167E+02 7.14102E-01 1.39712E+03
 -1      3100 2.56562E+03 8.69512E+00-9.05976E+00 9.43151E+01 8.85345E+00 1.40500E+03
 -1      3101 6.69570E+02 3.35026E+00-2.14271E+01 2.30861E+02-9.30095E-01 1.39806E+03
 -1      3102-3.24205E+03 1.35191E+01 6.60122E+01 2.89123E+02-2.91523E+01 2.79613E+03
 -1      3103-3.68491E+04-1.99678E+01 3.90699E+01 4.41993E+02 2.58803E+01 1.30699E+03
 -1      3104-1.55014E+04 7.73934E+00-4.13530E+01 1.89110E+02-2.58313E+01 2.75707E+03
 -1      3105 1.46950E+03-1.56363E+01-5.22004E+01 2.30645E+02 2.61704E+01 2.31802E+03
 -1      3106 1.64661E+04-9.27227E+00 3.78049E+01 4.09845E+02-3.27494E+01 1.13496E+03
 -1      3107-2.47462E+03 2.39863E+00 4.24407E+01 2.65240E+02-3.30857E+01 2.68555E+03
 -1      3108-2.79521E+04 6.31786E+00-2.78922E+01 5.11423E+02 4.06697E+01 1.28539E+03
 -1      3109 8.72319E+02-5.02402E+00 3.17613E+00 1.55786E+02-2.64829E+00 1.05928E+03
 -1      3110 1.17361E+03-4.19261E+00 5.61840E+00 8.92758E+01 6.11213E+00 1.10052E+03
 -1      3111 2.04183E+03-1.44220E+01-3.89915E+01 1.75894E+02 1.27377E+01 1.02821E+03
 -1      3112-9.01472E+02-1.21849E+01-4.32427E+00 1.64220E+02-1.61936E+00 1.04276E+03
 -1      3113-1.16344E+03 1.33406E+00-5.79879E+00 8.52260E+01-8.88323E+00 1.09339E+03
 -1      3114-2.04685E+03 1.29642E+01 4.07293E+01 1.79706E+02-1.36982E+01 1.02295E+03
 -1      3115-2.89200E+03 7.20085E+00 3.07818E+01 1.88403E+02-8.78333E+00 5.29674E+02
 -1      3116 2.89329E+03-1.56339E+00-2.73320E+01 1.90642E+02 6.62141E+00 5.17100E+02
 -1      3117-2.19640E+04 4.72893E+01 7.56496E+01 3.08488E+02 2.29359E+01 2.41508E+03
 -1      3118-4.17062E+04-1.98793E+01-5.57122E+01 5.27720E+02-3.60530E+01 1.32578E+03
 -1      3119-2.12157E+04-9.54046E+00-4.21564E+01 5.01140E+02-1.74795E+01 2.35077E+03
 -1      3120 1.17252E+04-8.24650E+00 4.49929E+01 1.81705E+02 2.37239E+01 2.62218E+03
 -1      3121 3.22422E+03-2.98861E+00-4.64977E+01 2.79617E+02 3.84896E+01 2.78557E+03
 -1      3122 3.62209E+04-1.19342E+01 3.43266E+01 5.29704E+02-3.83477E+01 1.34132E+03
 -1      3123-3.47800E+04 3.18580E+01 1.09804E+00 5.22591E+02-4.60350E+00 1.82238E+03
 -1      3124-4.84213E+04 4.20572E+01 3.80579E+01 4.47105E+02 3.24641E+01 1.40165E+03
 -1      3125 2.46556E+03-2.93969E+00-4.04531E+01 2.67289E+02 3.49406E+01 2.68532E+03
 -1      3126 2.78560E+04 2.18907E+01-4.38423E+01 4.25307E+02-2.76216E+01 1.24575E+03
 -1      3127-1.84914E+04-2.95672E+01 9.21719E+00 2.15463E+02 1.61877E+01 2.83511E+03
 -1      3128 4.94178E+03-3.37593E+01-5.57674E+00 2.49847E+02 2.49775E+01 2.75639E+03
 -1      3129 3.68942E+04 1.79131E+01-3.88007E+01 4.43361E+02-3.01750E+01 1.30611E+03
 -1      3130 1.55520E+04-8.85163E+00 4.13712E+01 1.89848E+02 2.31697E+01 2.75909E+03
 -1      3131 2.51388E+04-5.36400E+01-1.93230E+01 4.16637E+02 9.15602E-01 1.10928E+03
 -1      3132 2.67650E+04 6.31358E+01 2.67235E+01 4.53305E+02 1.07305E+01 1.12406E+03
 -1      3133 8.48317E+03 1.58367E+01 3.68829E+00 3.67430E+02 1.07770E+01 2.39307E+03
 -1      3134-3.61684E+04 2.58829E+01 5.78735E+01 1.25046E+02-5.77008E+00 1.22182E+03
 -1      3135-6.51667E+03-3.00437E-01-5.23011E+01 1.52981E+02-2.55915E+01 2.23149E+03
 -1      3136 1.88707E+04-1.75985E+01-3.33398E+01 4.13229E+02 1.70530E+01 1.06087E+03
 -1      3137 4.91967E+03 1.47727E+01 2.44248E+00 4.40682E+02-2.58874E+01 2.20447E+03
 -1      3138 1.16286E+04 2.97451E+01 3.74716E+01 3.64724E+02-2.78570E+01 1.97735E+03
 -1      3139-4.86315E+03 1.26398E+01 1.30165E+01 1.67390E+02 4.72423E-01 7.10060E+02
 -1      3140 4.96667E+03 1.18496E+01 1.11218E+01 1.71789E+02-3.34916E+00 7.03203E+02
 -1      3141-4.74632E+04-1.00758E+01 3.08556E+01 1.44524E+02-7.43684E+00 1.27417E+03
 -1      3142 4.67223E+04 1.05551E+02 8.63911E+01 5.87036E+02 4.88924E+01 1.50395E+03
 -1      3143-1.88681E+04 2.18278E+01 3.35164E+01 4.12643E+02-1.64027E+01 1.06222E+03
 -1      3144-4.92732E+03-1.51484E+01-2.19736E+00 4.42160E+02 2.51231E+01 2.20309E+03
 -1      3145-1.16179E+04-3.14260E+01-3.41522E+01 3.70947E+02 3.16495E+01 1.98525E+03
 -1      3146-3.29995E+04 3.14188E+01-1.56752E+01 3.15176E+02 1.22250E+00 1.30415E+03
 -1      3147 2.79359E+04-9.78800E+00 2.69836E+01 5.13452E+02-3.87300E+01 1.28345E+03
 -1      3148 2.54425E+03 2.74930E+01 1.13315E+01 2.19529E+02-1.30330E+01 2.33818E+03
 -1      3149-1.45942E+03-4.45117E+00-4.51250E+01 3.31454E+02 1.65479E+01 2.21817E+03
 -1      3150-2.54164E+03-3.40764E+01-8.33478E+00 2.17064E+02 1.49750E+01 2.33386E+03
 -1      3151 1.44874E+03 5.92065E-01 3.81865E+01 3.35515E+02-1.93753E+01 2.21781E+03
 -1      3152 1.14783E+04-1.04398E+03 8.50506E+02-3.15483E+02-1.34108E+02-1.57058E+03
 -1      3153-7.07748E+03-1.15537E+03 5.64231E+02-1.07548E+03-3.14434E+02-1.52418E+03
 -1      3154 2.77853E+03-9.43468E+02 6.65166E+02 2.04635E+02-9.13241E+02 1.83907E+03
 -1      3155-1.64180E+04-6.83273E+02 6.48304E+02 7.27495E+01-1.13503E+03 1.53750E+03
 -1      3156-1.74807E+04-2.47643E+03-6.30797E+02-9.33173E+02-7.80655E+02 1.57090E+03
 -1      3157 3.31578E+04 1.53733E+01 5.58879E+01 3.19965E+02-2.27467E-01 1.30804E+03
 -1      3158 3.63045E+04 9.09600E+00-3.52984E+01 1.36110E+02 6.79985E+00 1.21336E+03
 -1      3159 2.00108E+04-2.22160E+01 1.47891E+01 3.16078E+02 3.42265E+01 2.46879E+03
 -1      3160 2.13273E+04-5.64069E+01-1.35819E+01 3.91196E+02 8.06210E+01 2.45816E+03
 -1      3161 4.74829E+04 1.22393E+01-3.04626E+01 1.42493E+02 6.80830E+00 1.27541E+03
 -1      3162-4.87639E+02-1.56455E+01-9.70763E+00 1.64209E+02 6.25278E+00 8.10509E+02
 -1      3163-1.65546E+03-1.99013E+01 4.35014E+00 1.70525E+02-1.09548E+01 5.81534E+02
 -1      3164-7.73109E+02 2.26850E+00 7.50651E+01 1.82534E+02 1.58350E+00 9.39974E+02
 -1      3165-7.18843E+02 6.97951E+00 6.18804E+01 1.03173E+02 1.09738E+01 9.00156E+02
 -1      3166-5.78742E+03-2.03169E+01-2.05128E+01 2.14203E+02-2.00454E+01 1.78632E+03
 -1      3167-3.84345E+03-2.71615E+00-5.63467E+01 3.76247E+02 9.07692E+00 1.93440E+03
 -1      3168-3.87947E+03-2.54488E+01-6.62704E+01 2.15393E+02 2.68689E+00 1.90751E+03
 -1      3169-6.81417E+03-3.08260E+00 6.63322E+01 2.14954E+02 1.01731E+01 1.79419E+03
 -1      3170-4.77592E+03 2.17576E+01 1.12488E+02 3.93167E+02-1.03611E+00 1.99295E+03
 -1      3171-6.74875E+03-1.52747E+01 3.99092E+01 3.45572E+02-9.81252E+00 1.74582E+03
 -1      3172-5.27112E+04 4.20121E+01-1.55296E+01 2.01782E+02 1.28232E+02 1.41478E+03
 -1      3173-5.22327E+04 2.91997E+01 3.60050E+01 2.92814E+02 2.87475E+01 1.32961E+03
 -1      3174-2.56462E+04 7.29355E+00-1.46658E+01 1.26938E+02 5.25823E+00 1.11452E+03
 -1      3175 2.57057E+04 2.14128E+01 3.72053E+01 1.23833E+02-3.14183E+00 1.11849E+03
 -1      3176-5.95425E+03-2.49106E+00 2.45991E+01 3.13925E+02 1.10154E+01 7.58969E+02
 -1      3177-6.24910E+03 3.49435E+00 9.56463E+00 2.25771E+02-2.12962E+01 6.44669E+02
 -1      3178 5.95386E+03 2.08255E+00-2.82333E+01 3.15614E+02-1.00265E+01 7.56646E+02
 -1      3179 6.24908E+03-3.44977E+00-1.13212E+01 2.25484E+02 2.11072E+01 6.44124E+02
 -1      3180-5.43902E+02-1.65675E+01 2.01206E+01 1.40148E+02-2.90491E+00 1.60042E+03
 -1      3181 2.69806E+03-1.20139E+01-3.96396E-01 1.00480E+02 5.86466E+00 1.48126E+03
 -1      3182 5.47116E+02 1.66610E+01-2.03444E+01 1.40648E+02 2.88732E+00 1.59588E+03
 -1      3183-2.69643E+03 1.16016E+01 1.17339E+00 1.00905E+02-6.35554E+00 1.48035E+03
 -1      3184-2.51925E+04 2.90613E+01-1.24961E+01 3.00060E+02-2.67789E+00 1.24903E+03
 -1      3185 2.21257E+04-2.37955E+00-1.51344E+01 3.81162E+02 9.04925E+00 1.17245E+03
 -1      3186 2.01156E+04-4.92097E-01 6.89278E+00 4.82580E+02-3.11999E+01 1.05637E+03
 -1      3187-2.21176E+04-4.49339E+00 1.69722E+01 3.80638E+02-9.42651E+00 1.17149E+03
 -1      3188-2.01392E+04-8.13096E+00-1.42411E+01 4.72598E+02 2.67940E+01 1.05361E+03
 -1      3189-6.10932E+01-3.69039E-01 1.01036E+01 5.71304E+01 7.61321E+00 5.47067E+02
 -1      3190-2.17471E+02-1.92317E+01 1.48822E+01 1.13768E+02 1.83084E+00 5.42152E+02
 -1      3191-2.00074E+02-4.76379E+00 2.86049E+01 6.91274E+01 1.02729E+01 6.70609E+02
 -1      3192-3.00233E+02 6.22727E+00 4.80281E+01 1.28721E+02-2.43766E+00 6.75267E+02
 -1      3193-4.80900E+02-5.91650E-01 5.02909E+01 1.04594E+02 8.67618E+00 5.37163E+02
 -1      3194 2.51617E+04-3.24729E+01 9.17093E+00 2.93146E+02 4.94653E+00 1.25090E+03
 -1      3195-9.30579E+03-1.93746E+01 1.01950E+01 1.91545E+02 5.92368E+00 2.47016E+03
 -1      3196 2.28210E+03-2.12990E+01 9.09338E+00 2.10133E+02 8.91796E+00 2.39481E+03
 -1      3197 3.68702E+03-9.97058E+01-1.31266E+02 3.54766E+02 1.71359E+02 2.81399E+03
 -1      3198 9.24310E+03 1.74053E+01-1.78937E+01 1.94893E+02-8.48041E+00 2.47389E+03
 -1      3199-2.34574E+03 1.30578E+01-1.30656E+01 2.09369E+02-1.25289E+01 2.40011E+03
 -1      3200-3.95645E+04-3.83109E+01 3.56222E+01 3.42336E+02-1.09298E+01 1.29499E+03
 -1      3201-2.03526E+04-1.84007E+01-2.13935E+01 2.90294E+02-2.09068E+01 2.46212E+03
 -1      3202 1.41812E+02-1.99690E+00-3.11936E+01 4.26834E+01-1.07949E-02 9.94214E+01
 -1      3203 2.40919E+02 7.63624E+00-1.92434E+01 7.26604E+01-5.91658E+00 2.47458E+02
 -1      3204 5.75200E+03 4.69767E+02-6.02982E+02 2.80580E+02 6.73514E+02 2.72434E+03
 -1      3205-8.33639E+03 1.08936E+01-8.30421E+01 4.33719E+02 7.24772E+02 3.19887E+03
 -1      3206 3.66659E+03-4.67845E+01-1.44949E+02 4.15933E+02 3.78999E+02 2.52974E+03
 -1      3207 1.78445E+01-1.58319E+01-3.62789E+01 1.63349E+01-2.63573E-01-1.52542E+00
 -1      3208 1.68712E+01-2.10291E+01-3.97610E+01 1.64798E+01 5.56572E+00 5.45793E-01
 -1      3209 3.94718E+01-1.25400E+01-5.15673E+01 2.10853E+01 3.36613E+00 8.14224E+01
 -1      3210 4.54141E+01-1.50652E+01-5.24464E+01 1.81617E+01 8.24701E+00 8.30930E+01
 -1      3211 8.24730E+01-1.66591E+01-2.34245E+01 3.25642E+01 4.87746E+00 8.51481E+01
 -1      3212-1.39843E+04 3.19185E+00 1.08136E+02 5.31103E+02-2.07563E+01 2.60547E+03
 -1      3213-3.33457E+04-5.87408E+01-5.98525E+01 5.06743E+02-3.86780E+01 1.67503E+03
 -1      3214-1.30923E+04-1.38701E+01-1.23402E+02 5.24588E+02 5.38143E-03 2.57752E+03
 -1      3215-8.79522E+03-2.53314E+01-3.47915E+02 4.64724E+02 8.42895E+02 3.16329E+03
 -1      3216-2.65946E+04-9.45227E+02-1.39808E+03 6.78706E+02 9.68261E+02 2.45356E+03
 -1      3217-2.55068E+04-3.85466E+02-7.26730E+01 3.95803E+02 7.91105E+02 2.72849E+03
 -1      3218 1.21204E+01-9.15334E+00-3.75879E+01 1.65596E+01-9.08795E-01 1.44045E+00
 -1      3219 3.41403E+01-1.08817E+00-5.13139E+01 1.77822E+01-3.00871E+00 7.84452E+01
 -1      3220 6.37039E+01-1.55876E+01-2.81970E+01 3.47209E+01 4.04261E-01 7.86741E+01
 -1      3221 6.20287E+01-8.86113E+00-2.25124E+01 3.05419E+01-2.02763E+00 8.41030E+01
 -1      3222 5.59225E+03 8.97068E+02-6.60611E+00 1.57115E+02 8.25829E+02 2.45709E+03
 -1      3223-4.96843E+01-8.66264E-01-3.74138E+00 2.99484E+01-3.83412E+00 3.05461E+02
 -1      3224-5.99736E+01 1.95541E+00 8.79201E-01 3.70897E+01-1.51111E+00 3.80289E+02
 -1      3225 4.33480E+01 9.91875E+00-5.33815E+00 1.96299E+01-7.69950E+00 2.53161E+02
 -1      3226 1.19200E+01 4.83517E+00-5.92072E+00 2.37699E+01-6.53424E+00 3.21581E+02
 -1      3227 1.21866E+02-1.34410E+01-4.08262E+01 6.20156E+01 4.09906E+00 3.95484E+02
 -1      3228 2.16689E+02-1.14645E+00-2.49621E+01 3.70882E+01 4.81326E+00 4.57847E+02
 -1      3229 2.08846E+02-1.31384E+01-4.18077E+01 4.86503E+01 8.38802E+00 3.14508E+02
 -1      3230-8.51077E+03-2.16515E+01 8.93196E+00 3.72552E+02 5.87435E+00 1.24408E+03
 -1      3231-1.26491E+04-1.22496E+01-1.52081E+00 3.38699E+02-2.16938E+01 1.00303E+03
 -1      3232-1.83434E+04 5.02986E+01 4.04854E+00 4.78447E+02 4.82321E+01 2.50395E+03
 -1      3233 1.82385E+03-1.34478E+01-5.00072E+01 4.35060E+02-2.49462E+00 2.64387E+03
 -1      3234-5.19807E+04-2.03788E+03 8.69977E+01 2.36896E+02-1.93620E+02 1.81435E+03
 -1      3235-4.02905E+04-5.41780E+02 9.62160E+01 5.41124E+02 1.48328E+02 2.55428E+03
 -1      3236-4.86728E+04-2.74111E+02 1.13051E+02 5.79877E+02-1.65131E+01 1.50588E+03
 -1      3237-4.15567E+04-2.37672E+03-5.97177E+01 5.96839E+02 1.63814E+02 2.61617E+03
 -1      3238-5.78916E+04-1.94608E+03 2.48977E+01 7.36517E+02 4.48848E+02 1.82446E+03
 -1      3239-5.97025E+04-4.09839E+03-3.33010E+02 9.67357E+02 5.83683E+02 2.13169E+03
 -1      3240-1.40459E+02 6.10000E+00 3.67693E+01 7.55974E+01 1.77987E+00 7.81096E+02
 -1      3241-1.25619E+03 3.54448E+01 4.72971E+01 1.92702E+02-9.61475E+00 2.04088E+03
 -1      3242-2.77172E+03-2.41416E+01 7.53531E+01 3.79244E+02 1.08763E+01 1.86624E+03
 -1      3243-1.38720E+03 1.56548E+01 4.00313E+01 1.82415E+02 7.81525E+00 1.93889E+03
 -1      3244-1.92311E+03-2.15688E+01-2.32849E+01 1.96505E+02-3.76870E+00 2.19708E+03
 -1      3245-4.02397E+03 3.29151E+01-4.32796E+01 4.16646E+02-1.47817E+01 2.05123E+03
 -1      3246-2.06472E+03-4.42209E+01-4.18488E+01 2.08326E+02 1.64901E+01 2.19946E+03
 -1      3247-3.28517E+03 1.75188E+01 4.05039E+01 1.84651E+02 1.27944E+01 5.47618E+02
 -1      3248-2.69846E+03 1.73952E+01 5.25799E+01 2.10068E+02-7.74691E+00 5.17686E+02
 -1      3249-6.96969E+02 7.68048E+00-1.95050E+01 2.19078E+02 7.54924E+00 1.06806E+03
 -1      3250-3.55936E+02-2.69210E+01-1.70778E+01 1.02249E+02 1.26498E+01 1.11993E+03
 -1      3251-2.58199E+02-7.92651E+00-1.07795E+00 9.93112E+01-4.85934E-01 1.16202E+03
 -1      3252-1.61519E+04 4.67772E+00 3.74199E+01 3.52158E+02 2.99518E+01 9.96226E+02
 -1      3253-1.50690E+04 3.98042E+01 9.27996E+01 4.24805E+02-1.99680E+01 9.88714E+02
 -1      3254-1.16532E+04-2.89065E+01-3.98979E+01 3.87967E+02 1.85405E+01 9.63450E+02
 -1      3255-1.06864E+04 4.64052E+00-1.11084E+01 3.00707E+02-2.63482E+01 9.46658E+02
 -1      3256 4.44702E+02-1.48359E+01-1.54192E+01 7.87270E+01 3.10033E+00 2.40975E+02
 -1      3257 1.31755E+03-3.65349E+00-2.11116E+01 3.22601E+01 8.24950E+00 3.16065E+02
 -1      3258 1.43993E+03 2.47723E+01 3.81611E+00 1.72251E+02-1.71209E+01 1.90084E+03
 -1      3259-9.79508E+02-7.45553E-01-4.55413E+01 2.92784E+02 1.29912E+01 1.82404E+03
 -1      3260-1.35743E+02 7.34361E+00 5.95866E+00 7.20829E+01-1.00437E+01 7.32627E+02
 -1      3261-9.10250E+01 1.77886E+01 3.54284E+01 6.68143E+01-1.43990E+01 6.35845E+02
 -1      3262-4.07567E+02 7.29430E+00 1.75034E+01 4.11998E+01-1.04154E+01 5.90559E+02
 -1      3263-2.69222E+02 2.39373E+01 4.22361E+01 8.65719E+01-1.15696E+01 5.60227E+02
 -1      3264-4.79316E+02 1.17949E+01 2.12578E+01 4.68790E+01-5.72501E+00 6.70885E+02
 -1      3265-5.34600E+04-3.92212E+03-2.94778E+01 1.49362E+02-2.78058E+02 1.92729E+03
 -1      3266-3.61258E+03-9.69139E+00-6.51155E+00 2.42131E+02 7.49537E+00 6.68758E+02
 -1      3267-7.07129E+02 1.77466E+01 4.79279E+01 2.31573E+02 5.66304E+00 1.19988E+03
 -1      3268-1.48968E+03-1.10078E+01 2.97268E+01 1.95859E+02 2.06807E+00 1.06083E+03
 -1      3269-3.08236E+02-1.38193E+00 3.62328E+01 1.25292E+02 5.32191E+00 1.31981E+03
 -1      3270-1.37885E+04 3.95100E+01 1.22631E+02 3.06705E+02 7.38152E+00 2.53898E+03
 -1      3271-4.06122E+02 3.38919E+00 5.02728E+01 6.74693E+01 2.03629E+00 5.19139E+02
 -1      3272-6.11750E+02-5.05065E+00 3.46003E+01 7.85856E+01 1.08016E+01 6.39010E+02
 -1      3273 6.16681E+04-3.63112E+01-5.22130E+01 4.42722E+01-1.95560E+01 1.22304E+03
 -1      3274-4.68982E+04-6.88541E+00 4.61664E+01 4.41825E+02 2.69121E+01 1.36243E+03
 -1      3275-4.54622E+04 6.60469E+01 7.72360E+01 5.57890E+02-3.20657E+01 1.33875E+03
 -1      3276-1.12054E+04 4.84328E+01-9.01259E+01 5.61225E+02-4.42121E+01 2.68877E+03
 -1      3277-4.12648E+04-5.50766E+01-8.76098E+01 5.29240E+02 4.05146E+01 1.33283E+03
 -1      3278-4.86204E+03 1.43781E+00 1.09976E-01 2.80406E+02-7.64857E+01 2.66659E+03
 -1      3279-5.11530E+03-4.77970E+01-6.20545E+01 2.81295E+02-1.35401E+01 2.78673E+03
 -1      3280-4.49630E+03 4.46331E+01 4.48296E+01 2.76495E+02-2.11114E+01 2.80208E+03
 -1      3281 2.42037E+04 6.72685E+02-6.50046E+02 4.21011E+02 7.28708E+02 2.18141E+03
 -1      3282 4.97103E+04 2.21909E+03 1.35273E+02-1.26612E+02 2.77463E+02 1.86419E+03
 -1      3283 4.67843E+04 5.92166E+02-2.20948E+02 5.40546E+01 1.72508E+02 6.54357E+02
 -1      3284 2.17541E+04 9.97947E+01-9.40793E+01 5.32545E+02 2.76390E+02 2.00438E+03
 -1      3285 4.54815E+04 4.92743E+02-6.48996E+01 3.36814E+02 1.40988E+02 1.39498E+03
 -1      3286-7.80838E+01 2.56955E+00 1.58884E+01 1.53613E+01-8.16617E+00 2.45374E+02
 -1      3287-1.71871E+02 7.13726E+00 2.70850E+01 5.95526E+01-4.78929E+00 3.08408E+02
 -1      3288-1.72803E+02 4.82871E+00 2.13624E+01 2.78216E+01-7.69582E+00 3.16687E+02
 -1      3289-1.88941E+02 1.64995E+01 4.66600E+01 4.57442E+01-5.55001E+00 2.40020E+02
 -1      3290 1.16985E+02 7.08087E+00-3.45157E+01 2.63057E+01-6.98423E+00 2.23987E+02
 -1      3291 1.92884E+02 1.70475E+00-3.24442E+01 3.35288E+01-4.99845E+00 1.33466E+02
 -1      3292 1.39598E+02 5.29044E+00-3.75240E+01 3.96037E+01-7.67424E+00 3.75800E+02
 -1      3293-1.01599E+02-5.19149E+00 3.79475E+01 2.00857E+01 6.04498E+00 2.24490E+02
 -1      3294-2.21075E+02-3.43169E+00 4.06845E+01 4.86214E+01 6.02028E+00 3.44657E+02
 -1      3295 2.83763E+04 2.62106E+03 5.11251E+03 1.91937E+03-8.31135E+01-6.93489E+02
 -1      3296 3.16265E+04 5.96914E+03 5.24020E+03 2.28578E+03-1.04758E+03 2.11538E+03
 -1      3297 3.57703E+04 9.97273E+02 1.56940E+03 1.08987E+03-1.27794E+03 2.22793E+03
 -1      3298 1.36447E+04 1.15190E+03 5.97398E+02 5.29251E+02-1.20340E+03 1.31621E+03
 -1      3299 2.82351E+01-7.08204E+00-8.27094E+00 1.18187E+01 6.88960E+00 1.11520E+02
 -1      3300-2.74900E+01-2.04512E+00 3.22563E+01 1.88030E+01 5.89197E+00 9.87652E+01
 -1      3301-1.42596E+04-5.89889E+00-2.79106E+00 9.37311E+01-5.93096E+00 8.93497E+02
 -1      3302 1.83045E+04 3.33588E+03 1.75071E+03-3.57765E+02 3.59847E+02 2.25582E+03
 -1      3303-6.70084E+03 1.99839E+01-5.01730E+02 9.45660E+02 9.34818E+02 4.19008E+03
 -1      3304 2.02044E+04-9.75237E+01-3.15545E+01 1.43815E+02-4.42119E+02 2.58560E+03
 -1      3305 1.23060E+04 1.54237E+02 2.66537E+02 4.73949E+02-2.23785E+02 3.57770E+03
 -1      3306 3.20474E+04 5.62461E+02-2.66307E+01 5.60544E+02-6.12265E+02 3.18645E+03
 -1      3307 4.38079E+01-6.08124E+00-3.26801E+01 1.76067E+01 5.79336E+00 9.94190E+01
 -1      3308 2.39114E+03-1.60318E+01-4.37978E+01 7.64020E+01-2.17278E+00 9.93915E+02
 -1      3309 2.93989E+03-1.34126E+00-2.72856E+01 8.71233E+01 1.10913E+01 1.08504E+03
 -1      3310-2.39306E+03 1.47630E+01 4.64881E+01 7.80505E+01 2.03197E+00 9.92748E+02
 -1      3311-2.93869E+03 8.42312E-01 2.86513E+01 8.74542E+01-1.03974E+01 1.08151E+03
 -1      3312-3.37018E+03 3.60615E+00 2.76649E+01 1.29297E+02-3.07217E+00 5.21471E+02
 -1      3313-3.97859E+03 8.35082E+00 1.05914E+01 1.60289E+02-1.05009E+01 6.05768E+02
 -1      3314 3.36814E+03-4.29242E+00-2.67848E+01 1.25867E+02 2.46510E+00 5.20594E+02
 -1      3315 3.97849E+03-1.00617E+01-9.95323E+00 1.55747E+02 9.38372E+00 6.07332E+02
 -1      3316 5.15471E+04 2.98015E+02-1.72394E+02 3.49556E+02-1.88799E+02 1.58313E+03
 -1      3317-1.96002E+01 1.98535E+01 3.75502E+01 1.64925E+01-5.14035E+00 4.51863E+00
 -1      3318-1.83135E+01 1.72064E+01 3.72750E+01 1.79789E+01-4.09892E+00-2.40751E-01
 -1      3319-7.29075E+01 1.78097E+01 2.78990E+01 3.30021E+01-2.60992E+00 7.83187E+01
 -1      3320-4.17325E+01 1.46701E+01 5.37346E+01 1.69243E+01-8.46534E+00 8.09720E+01
 -1      3321-8.18748E+01 1.56789E+01 2.38558E+01 2.89569E+01-4.28936E+00 8.36107E+01
 -1      3322-2.47784E+04-6.40430E+02 5.28706E+02 3.69468E+02-7.47152E+02 2.09693E+03
 -1      3323-4.98968E+04-2.17065E+03-1.11842E+02-2.14662E+02-3.13356E+02 1.72825E+03
 -1      3324-4.66737E+04-6.09460E+02 1.95466E+02 1.37318E+02-1.43811E+02 6.23005E+02
 -1      3325-2.23778E+04-9.13422E+01 5.86599E+01 5.43476E+02-2.81830E+02 1.96081E+03
 -1      3326-4.60226E+04-4.68564E+02 1.19560E+02 4.05993E+02-1.70418E+02 1.41076E+03
 -1      3327-1.00461E+03-1.32088E+01 6.05959E+00 1.28613E+02-7.54337E+00 3.50604E+02
 -1      3328-5.97395E+02 1.68238E+01 3.16285E+01 1.11851E+02-4.56348E+00 4.01336E+02
 -1      3329-8.22145E+02 1.92532E+01 4.21514E+01 1.00698E+02 8.98229E-01 2.74576E+02
 -1      3330-6.93230E+02-8.52818E+00 2.94162E+01 1.19042E+02-5.29529E+00 5.59135E+02
 -1      3331-1.28521E+03-4.83391E+00 7.53846E+00 1.51808E+02 6.13468E+00 3.64364E+02
 -1      3332-1.17920E+03 1.25392E+01 2.28664E+01 1.15683E+02-7.04175E+00 2.88940E+02
 -1      3333-1.45298E+02 1.70507E+01 2.52588E+01 4.08191E+01-4.14939E+00 9.39005E+01
 -1      3334-7.87650E+01 5.30420E+00 3.29141E+01 3.72406E+01-2.38398E+00 1.72704E+02
 -1      3335-7.74094E+02 1.01825E+01-3.80467E+00 1.73196E+02 1.21933E+01 1.90161E+03
 -1      3336-2.26442E+03-2.93743E+01-1.91596E+01 3.67208E+02 6.78311E+00 1.78243E+03
 -1      3337-4.99592E+03 1.08640E+01 3.51185E+01 3.00992E+02 8.40858E+00 1.67203E+03
 -1      3338-3.66136E+03 2.75209E+01 5.84769E+01 4.42130E+02 3.65554E+00 2.11995E+03
 -1      3339-1.63574E+03-1.71869E+01 2.57570E+01 2.20351E+02-8.78069E+00 2.29280E+03
 -1      3340-7.73960E+03-1.36200E+01 1.13219E+01 3.48596E+02-2.46085E-02 1.89314E+03
 -1      3341-9.69108E+03-9.54742E+00 2.45774E+01 3.40827E+02-8.67622E+00 9.25811E+02
 -1      3342-1.63473E+04 2.33505E+01-1.57163E+01 4.00229E+02 1.26214E+01 1.12324E+03
 -1      3343-5.35504E+03-1.16690E+00 1.35958E+01 1.62442E+02 6.96212E+00 2.07151E+03
 -1      3344 1.25284E+03-2.49811E+01-2.07580E+01 1.75760E+02 1.54857E+01 1.98078E+03
 -1      3345-2.78327E+04-1.84770E+03-3.50045E+03 1.60583E+03 2.21517E+02-4.84456E+02
 -1      3346-1.02086E+04-2.76519E+03-3.88032E+03 1.47562E+03 2.84965E+02-1.34473E+03
 -1      3347-3.71604E+04-7.92042E+02-1.47204E+03 8.99359E+02 1.34575E+03 2.02598E+03
 -1      3348-1.78202E+04-8.70370E+02-1.70337E+03 7.95925E+02 1.04062E+03 1.77445E+03
 -1      3349-3.13850E+04-5.54671E+03-4.17872E+03 2.28918E+03 6.40505E+02 2.07403E+03
 -1      3350-1.33724E+02 2.22286E+00 2.70228E+01 4.57353E+01-1.18997E+00 1.06657E+02
 -1      3351-1.64693E+02 1.18121E+00 3.11056E+01 3.13679E+01 3.46095E+00 1.43566E+02
 -1      3352-3.07724E+02-2.24033E-01 2.43635E+01 7.55926E+01 6.49848E+00 2.02111E+02
 -1      3353-5.50691E+04-1.14218E+04-2.62513E+03-2.20894E+03 2.77473E+02 1.57580E+03
 -1      3354-5.97741E+04-1.23307E+04-3.75586E+03 1.48067E+02-3.62769E+02 2.48438E+03
 -1      3355-6.32374E+04-6.23823E+03-6.64471E+02 2.03711E+03 8.52493E+02 2.68184E+03
 -1      3356-3.79747E+04-7.97406E+03-6.51105E+03 3.36940E+02 6.19126E+02 3.90363E+03
 -1      3357-5.89975E+04-6.76720E+03-4.06056E+02 3.54052E+02 5.66631E+02 3.08203E+03
 -1      3358-2.04949E+04 1.27076E+02 6.19761E+01 1.09059E+02 4.17524E+02 2.53319E+03
 -1      3359-1.63605E+04-1.49215E+02-2.71544E+02 4.44470E+02 2.93499E+02 3.49809E+03
 -1      3360-3.34111E+04-5.53921E+02 3.44344E+01 5.44532E+02 6.46087E+02 3.08569E+03
 -1      3361-1.37616E+00-6.08907E+00-6.87614E+00-2.08681E-02 1.03240E+01 9.79018E+01
 -1      3362 1.61219E+01-6.34725E+00-3.42557E+01 9.97341E-01 1.16880E+01 9.38907E+01
 -1      3363 3.10649E+01-7.79561E+00-1.00558E+01 1.50867E+01 6.77874E+00 1.99050E+02
 -1      3364 7.41747E+01-5.20433E+00-2.53059E+01 1.37127E+01 7.42647E+00 1.81755E+02
 -1      3365 4.04109E+01-1.21485E+01-3.58530E+01 1.60198E+01 1.21635E+01 1.06126E+02
 -1      3366-5.20149E+04-2.70374E+02 1.41485E+02 3.07105E+02 1.69162E+02 1.52549E+03
 -1      3367 2.48753E+02 7.06760E+00-3.05045E+01 8.00664E+01 3.30794E-01 4.95894E+02
 -1      3368 4.10118E+04 2.47164E+01 3.86060E+00 5.25602E+02 1.33252E+01 1.38910E+03
 -1      3369 4.56564E+04 6.00557E+00-6.42051E+01 4.71707E+02 3.22404E+01 1.32171E+03
 -1      3370 2.13300E+04-4.65178E+01 7.99943E+00 4.58423E+02 5.08596E+01 2.40235E+03
 -1      3371 2.24969E+04 5.25558E-01 3.18008E+00 4.46690E+02-2.69712E+01 2.46729E+03
 -1      3372 2.71708E+04-2.12422E+01-1.22715E+01 3.92396E+02-2.17113E+01 2.42001E+03
 -1      3373 4.70016E+04-1.62525E+01 5.84420E+01 4.45290E+02-3.41761E+01 1.30428E+03
 -1      3374-6.80434E+02 1.94442E+01 3.96313E+01 1.04070E+02 2.58007E+00 2.49139E+02
 -1      3375 7.35897E+01 3.78227E+00-7.01426E+00 7.79797E+01 1.47351E+00 9.06826E+02
 -1      3376-1.05842E+02 2.19683E+01 2.74324E+01 1.36176E+02-1.10888E+01 7.84874E+02
 -1      3377-7.25629E+02 1.06958E+01 9.43218E+00 7.20339E+01-1.09009E+01 8.88550E+02
 -1      3378-1.04608E+03 2.36901E+00 2.77818E+01 7.87360E+01-1.15166E+01 1.00304E+03
 -1      3379-1.26779E+03-2.78304E+00 2.55068E+01 1.30712E+02-6.64444E+00 8.35940E+02
 -1      3380-3.63733E+02 7.48730E+00 2.63995E+01 1.45040E+02-4.86148E+00 8.70761E+02
 -1      3381 1.75440E+03 5.33944E+00-3.78627E+01 1.73083E+02-3.47783E+00 4.24645E+02
 -1      3382 1.87015E+03-6.41093E+00-4.70640E+01 1.43213E+02 1.72719E+01 4.01456E+02
 -1      3383 7.43232E+02-2.64938E+01-3.95721E+01 1.40695E+02 1.19721E+01 7.33061E+02
 -1      3384 1.09799E+03-6.68128E+00-4.65208E+01 1.44538E+02-9.47511E+00 8.41172E+02
 -1      3385 1.25997E+03-5.44573E-01-3.82480E+01 1.34795E+02 4.28710E+00 8.30029E+02
 -1      3386 2.31650E+03-1.08106E+01-2.46464E+01 1.69960E+02 1.03153E+00 4.91095E+02
 -1      3387 1.73848E+04 5.53459E-01-4.62997E+01 4.89501E+02 1.83890E+00 2.51703E+03
 -1      3388 4.17800E+04-8.97819E+01-1.62799E+01 5.24041E+02 9.31784E+00 1.36236E+03
 -1      3389 2.31622E+04 2.29885E+01-8.53000E+00 4.63373E+02-1.89267E+01 2.45208E+03
 -1      3390 2.03514E+04-2.15666E+01-5.26767E+01 4.54691E+02 1.90370E+01 2.30213E+03
 -1      3391 1.11431E+02 3.24660E+01 4.74556E+01 2.85258E+02 5.41470E+00 1.74721E+03
 -1      3392-9.81713E+02 9.09224E+00 1.45395E+00 2.02329E+02 5.41024E+00 1.28599E+03
 -1      3393 2.61164E+03-1.81103E+01-6.43221E+01 2.17760E+02-1.33660E+01 1.16048E+03
 -1      3394-2.61679E+03 1.03745E+01 6.23547E+01 2.20492E+02 9.75650E+00 1.16196E+03
 -1      3395 9.80049E+02-4.61192E+00 9.50799E+00 2.00345E+02-1.79197E+00 1.28693E+03
 -1      3396 5.17783E+03-8.01243E+00-6.84043E+01 3.19090E+02 8.43340E+00 1.60603E+03
 -1      3397 6.00288E+04 1.32214E+04 4.49482E+03-6.32185E+02-3.43369E+02 2.84583E+03
 -1      3398 6.13233E+04 1.20180E+04 3.01793E+03 1.86710E+03 1.45592E+02 2.11181E+03
 -1      3399 5.63073E+04 6.67232E+03 2.93925E+02 2.55328E+02 2.09999E+02 2.95334E+03
 -1      3400 3.47730E+04 8.09786E+03 6.78712E+03 1.52131E+02 3.18361E+02 3.99583E+03
 -1      3401 5.30212E+04 5.46774E+03 2.16010E+01-1.29688E+03 3.39570E+02 2.49687E+03
 -1      3402 2.38458E+02 4.29543E+00-1.48426E+01 8.67830E+01-6.42644E+00 1.00102E+03
 -1      3403 8.19679E+02 4.21203E+00-5.00646E+01 1.56420E+02-1.02704E+01 8.36310E+02
 -1      3404-2.31007E+02 3.58039E+01-1.47494E+00 1.67777E+02 6.49069E+00 9.94675E+02
 -1      3405 1.99206E+03-2.61083E+01-1.85588E+01 1.85614E+02 5.53018E+00 4.85733E+02
 -1      3406 1.33945E+03 3.07081E+00-4.79386E+01 1.70049E+02 3.78336E+00 9.24752E+02
 -1      3407 9.55133E+03-2.52182E+01-6.55595E+01 3.93440E+02 1.89963E+01 1.96014E+03
 -1      3408 2.40157E+04 1.55611E+02 8.30109E+01 5.31585E+02-4.39906E+01 2.80781E+03
 -1      3409-7.28787E-01-7.53171E+00-1.96405E+00 8.64848E+01 9.50365E-01 4.73356E+02
 -1      3410 1.18725E+01 1.49078E+01 2.51431E+01 4.07715E+02 9.59511E+00 2.56825E+03
 -1      3411-3.13158E+03 2.15203E+00 4.11264E+00 2.42444E+02 4.60978E+00 6.43258E+02
 -1      3412-2.84880E+03-4.27442E+00 4.28922E+01 2.11267E+02 2.69809E+00 5.04283E+02
 -1      3413-1.60808E+03-1.47224E+01 3.08665E+01 1.35379E+02 9.86229E+00 1.12238E+03
 -1      3414-1.43406E+03-6.19007E+00 4.99826E+01 1.13215E+02-2.91927E+00 9.98454E+02
 -1      3415-1.05632E+04 2.36637E+01 6.74141E+01 6.24773E+02-1.10790E+02 2.80118E+03
 -1      3416-4.37627E+03 3.55743E+01 1.07716E+02 3.37851E+02-1.49865E+02 2.77576E+03
 -1      3417-2.18736E+04-2.32641E+00-2.40436E+01 5.30683E+02-9.06163E+01 2.46059E+03
 -1      3418-8.53942E+01-2.30605E+01-1.99874E+01 3.47053E+02-4.64553E+00 2.18485E+03
 -1      3419 9.65459E+00 6.85437E+00-2.95754E+01 4.80083E-01-1.08525E+01 9.36622E+01
 -1      3420-7.39254E+00 7.01885E+00-1.09675E+00-5.38848E-02-9.68122E+00 9.67837E+01
 -1      3421 4.82170E+01 2.06109E+00-2.23239E+01 1.88692E+01-6.90523E+00 1.79450E+02
 -1      3422 5.31469E+00 5.80818E-01-4.88127E+00 1.50579E+01-6.48050E+00 1.95659E+02
 -1      3423 2.83625E+01 6.38234E+00-3.36286E+01 1.39261E+01-1.05206E+01 1.03613E+02
 -1      3424 3.13011E+03-5.21794E+00-3.41095E+00 2.54380E+02 2.54843E+01 2.81427E+03
 -1      3425 2.62617E+03-3.30026E+01-8.67370E+00 2.52772E+02 8.58625E+00 2.81287E+03
 -1      3426-1.98584E+04 9.02351E+00 5.68605E+01 2.08397E+02-1.80793E+01 2.78998E+03
 -1      3427-5.38244E+03-9.11030E+00 4.76354E+01 4.19871E+02 2.37068E+00 2.54517E+03
 -1      3428-4.93695E+03 8.32929E+01 7.13189E+01 4.31468E+02 4.90884E+01 2.62905E+03
 -1      3429 8.28055E+01 2.10371E+01 1.84572E+01 3.48751E+02 6.46762E+00 2.18457E+03
 -1      3430-9.55622E+03 1.90166E+01 6.81885E+01 3.98801E+02-2.30656E+01 1.96556E+03
 -1      3431 1.23770E+04-1.66245E+01-3.88557E+01 3.86340E+02-1.93779E+01 2.07047E+03
 -1      3432-4.24898E+03-2.29203E+00-6.75064E+00 3.62119E+02 8.59502E+00 2.26451E+03
 -1      3433 2.73246E+03 2.18840E+01 6.81001E+01 5.30421E+02-1.83340E+02 2.88048E+03
 -1      3434-4.70397E+04-8.27670E+01-4.84794E+01 5.79002E+02-6.29480E+01 1.48039E+03
 -1      3435 1.35917E+04-7.44934E+00-6.13681E+01 3.45739E+02 1.33415E+01 9.66302E+02
 -1      3436 6.65479E+03-7.60692E+00-3.50501E+01 3.42542E+02 9.48676E+00 1.84308E+03
 -1      3437 1.28693E+04-1.85395E+01-5.21053E+00 3.99718E+02-3.10054E+00 1.04569E+03
 -1      3438 1.45591E+04-3.16780E+01 2.26299E+01 3.67402E+02-3.14605E+01 1.01741E+03
 -1      3439 7.51926E+03 4.82698E+01-2.02590E+01 3.57299E+02-2.79617E+01 1.90676E+03
 -1      3440 8.29931E+03-1.11218E+01-2.22732E+01 3.06489E+02 1.25002E+01 1.83889E+03
 -1      3441-4.42718E+03 5.93958E+01 1.43947E+01 4.13874E+02-7.60467E+00 2.62618E+03
 -1      3442-1.88650E+04 1.00876E+01-1.75934E+01 2.26851E+02 1.21165E+01 2.78738E+03
 -1      3443-2.71962E+04-2.93827E+01-4.37841E+01 3.81286E+02 2.06353E+01 2.43132E+03
 -1      3444-3.37426E+01 9.10833E+00 4.81554E+01 1.90044E+01 3.96123E-01 8.21893E+01
 -1      3445-6.44918E+01 5.23378E+00 2.15110E+01 3.37641E+01 3.61509E+00 8.30788E+01
 -1      3446-6.51492E+04-1.35456E+04-2.69077E+03 2.15056E+03 3.96527E+02 2.44370E+03
 -1      3447-4.45944E+04-9.84733E+03-8.02523E+03 1.91473E+03 5.91255E+02 4.46672E+03
 -1      3448-4.68261E+02-9.94829E+00 3.46349E+00 1.31511E+02-2.04181E+01 1.64200E+03
 -1      3449 4.68839E+02 2.26612E+01-1.00808E+01 2.54684E+02 3.71636E+00 1.48480E+03
 -1      3450 2.73695E+03-1.05821E+01-5.23164E+00 1.48592E+02-2.47095E+00 1.67100E+03
 -1      3451-1.07972E+03-3.38638E+00 2.26872E+01 1.46861E+02 1.40224E+01 1.72904E+03
 -1      3452-1.26192E+02-7.99190E+00 1.94154E+01 2.59178E+02 2.62131E+01 1.54861E+03
 -1      3453-3.46191E+03 1.08923E+01 2.12903E+01 2.80703E+02-3.49669E+00 1.44491E+03
 -1      3454-7.11951E+03-9.02326E+00 1.19269E+01 2.91785E+02 4.09057E+00 8.28243E+02
 -1      3455-3.13515E+03 2.31684E+01 2.08707E+01 2.60882E+02 3.05583E+01 1.39974E+03
 -1      3456-6.72600E+03 1.66594E+00 5.04453E+01 3.00767E+02 2.33697E+01 7.60510E+02
 -1      3457-7.61410E+03 1.29638E+01 1.76920E+01 3.27674E+02-6.34949E-01 7.75204E+02
 -1      3458-3.83462E+03 5.73102E+00 3.02158E+01 2.70217E+02-6.73570E+00 1.44878E+03
 -1      3459-4.95294E+01 6.85718E+00 1.35924E+01 4.25090E+01-4.09748E+00 5.86979E+02
 -1      3460-2.59935E+02-1.09208E+00-1.45063E+00 7.99066E+01-5.91673E+00 5.14030E+02
 -1      3461-9.56143E+03 7.55704E+01 4.96017E+01 3.76683E+02 1.68834E+01 1.25282E+03
 -1      3462-1.08440E+04 1.10830E+01 1.19500E+01 3.82983E+02 6.24122E+00 1.22412E+03
 -1      3463-1.03946E+04 6.14025E+00-4.08281E+00 4.02147E+02-7.76768E+00 1.26862E+03
 -1      3464-1.30081E+04-4.88755E+01-1.40288E+01 4.20763E+02 5.17425E+01 2.27788E+03
 -1      3465-2.65381E+04 2.18518E+01-2.59720E+01 4.34960E+02 3.11364E+01 1.20821E+03
 -1      3466-2.31467E+04 2.98472E+01 1.25342E+01 4.84244E+02-9.98999E-01 1.27671E+03
 -1      3467-1.33941E+04-1.67700E+01 3.11963E+01 4.12998E+02-6.23574E+00 2.16013E+03
 -1      3468-2.66783E+04-1.95359E+01 6.07401E+00 4.04702E+02 3.30848E+00 1.11662E+03
 -1      3469-1.66642E+04-1.26258E+01 4.71555E+01 3.39202E+02-1.80101E+01 2.16365E+03
 -1      3470 1.12419E+04-5.24666E+00-2.18133E+01 2.03209E+02 2.32774E+01 2.56423E+03
 -1      3471 3.49807E+03 3.30489E+01 1.47017E+01 3.76141E+02-3.52981E+01 2.43259E+03
 -1      3472-1.57946E+03-1.05201E+01 2.49788E+01 2.34890E+02 1.27349E+01 2.60525E+03
 -1      3473 1.16651E+04-2.46124E+00 9.88011E+00 1.78994E+02-1.31635E+01 2.52502E+03
 -1      3474 4.07038E+03-2.28422E+01 3.41126E+01 3.48850E+02-3.13776E+01 2.34210E+03
 -1      3475 1.66311E+04-1.06053E+00-3.10497E+01 3.13831E+02 1.64045E+01 2.15740E+03
 -1      3476 1.29863E+04 4.61876E+01 2.96446E+01 4.11980E+02-6.00662E+01 2.26616E+03
 -1      3477 2.65152E+04-1.36657E+01 1.16098E+01 4.48525E+02-2.87733E+01 1.22559E+03
 -1      3478 1.34006E+04 4.67063E+01 3.70860E+01 4.05306E+02 2.32219E+01 2.13576E+03
 -1      3479-1.15217E+02 1.36593E+01 2.54430E+01 4.63431E+01 3.50216E+00 1.04853E+02
 -1      3480-2.40876E+02 1.27313E+01 2.51103E+01 5.94892E+01 4.92038E+00 1.27698E+02
 -1      3481-3.85881E+02 2.15014E+01 2.82554E+01 6.99356E+01-4.75586E+00 1.62734E+02
 -1      3482-1.84090E+02 4.17319E+00 4.00388E+01 4.75088E+01 2.96685E+00 2.44298E+02
 -1      3483-2.63141E+02 1.65394E+01 2.88926E+01 5.47452E+01-2.18209E+00 1.40738E+02
 -1      3484-3.60167E+04-3.00890E+01 1.01443E+01 3.25358E+02-2.47657E+00 1.27479E+03
 -1      3485-3.52851E+04-4.55893E+01 3.20792E+01 3.27162E+02-1.22938E+01 1.31478E+03
 -1      3486-1.71812E+04-2.57757E+01 2.56425E+01 2.87750E+02-2.47774E+01 2.46919E+03
 -1      3487-3.44694E+04 6.03882E+00 5.42723E+01 5.20623E+02 1.56817E+01 1.33624E+03
 -1      3488-4.71898E+02-3.68868E+00 4.29549E+01 8.36606E+01 7.01370E+00 4.49482E+02
 -1      3489 1.17830E+02-1.45949E+01 1.21698E+01 1.20112E+02-6.49401E-01 7.52246E+02
 -1      3490 1.52258E+02 1.71684E+00-6.93005E-01 1.66001E+02 2.88124E+00 1.00246E+03
 -1      3491-1.50611E+03-5.81883E+00 2.60336E+01 1.77143E+02-8.97637E+00 9.01995E+02
 -1      3492 1.95575E+02-1.98074E+03-2.36626E+03 8.43251E+02 9.26145E+02 1.30703E+03
 -1      3493 1.52321E+04 1.42589E+03 3.47808E+02-2.55758E+02 1.10039E+03 1.66765E+03
 -1      3494-2.03228E+02 1.00734E+01 3.10070E+01 3.06839E+01-5.28524E+00 3.95471E+02
 -1      3495 6.81867E+02 2.39477E+01-1.88696E+01 3.16555E+02 3.83254E+00 2.03890E+03
 -1      3496 8.49503E+02-2.21788E+01 1.88416E+01 2.93695E+02-5.79086E+00 1.90866E+03
 -1      3497-1.14539E+04 8.38637E+00 1.45849E+01 1.98285E+02-9.41179E+00 2.56947E+03
 -1      3498-3.49664E+03-3.12927E+01-1.86155E+00 3.87115E+02 2.72544E+01 2.44547E+03
 -1      3499-4.07738E+03-1.36523E+01-3.62463E+01 3.97571E+02 7.98425E-01 2.35294E+03
 -1      3500 1.20408E+04 4.86962E+01-7.01030E+00 3.87913E+02 4.23869E+00 1.07506E+03
 -1      3501 4.99527E+03-3.12552E+01-8.02383E+01 3.59159E+02 1.84104E+01 1.92102E+03
 -1      3502 5.92458E+03-1.81940E+01 3.46845E+00 3.40477E+02 2.65150E+01 1.80427E+03
 -1      3503-6.51622E+02-8.71693E+00 1.34871E+01 6.60718E+01-6.40133E+00 7.94303E+02
 -1      3504-4.16493E+02 1.72022E+01 2.27675E+01 1.13664E+02-6.20404E+00 6.78291E+02
 -1      3505-7.62875E+02 1.61023E+01 5.16430E+01 9.80127E+01-8.48057E+00 6.00517E+02
 -1      3506-6.71970E+03 1.01952E+01 4.81035E+01 3.33121E+02-5.05773E+00 1.69148E+03
 -1      3507-5.29950E+04-5.74078E+03-1.65630E+02-1.07348E+03-3.12880E+02 2.74844E+03
 -1      3508-3.23532E+04-8.02332E+03-6.47478E+03-9.30428E+02-1.00462E+02 3.41706E+03
 -1      3509 1.46488E+04 9.90234E+00 9.97749E+00 2.59298E+02-7.90133E+00 1.04504E+03
 -1      3510-3.07922E+03 7.59156E+00 1.11785E+01 4.82231E+01-9.79695E+00 4.73652E+02
 -1      3511-1.61506E+03 7.67468E+00 4.68217E+01 5.63818E+01-2.57945E+00 8.05583E+02
 -1      3512-2.23163E+03 1.36997E+01 2.88203E+01 1.07045E+02 1.97961E+00 4.22565E+02
 -1      3513-2.67863E+03 1.30810E+01 2.66319E+01 1.30084E+02-6.03614E+00 5.16058E+02
 -1      3514-1.99599E+03 1.33333E+01 3.53703E+01 7.50414E+01-1.57681E+01 9.30187E+02
 -1      3515 3.08120E+03-8.06685E+00-9.69167E+00 4.86766E+01 1.11402E+01 4.71084E+02
 -1      3516 1.60302E+03-1.07493E+01-5.55885E+01 5.55981E+01 1.50794E+00 8.03598E+02
 -1      3517 2.22394E+03-1.26356E+01-3.89098E+01 1.08441E+02-4.26344E+00 4.20040E+02
 -1      3518 2.69230E+03-1.22766E+01-2.19939E+01 1.29317E+02 6.19674E+00 5.12604E+02
 -1      3519 2.00310E+03-1.07688E+01-3.20299E+01 7.35199E+01 1.52692E+01 9.27147E+02
 -1      3520-2.56793E+03-2.46735E+00 1.93302E+01 4.04652E+01-8.86124E+00 4.37437E+02
 -1      3521-1.74358E+03 2.26873E+01 3.39594E+01 1.01645E+02-5.99581E+00 3.97456E+02
 -1      3522 2.57146E+03 2.66444E+00-1.80826E+01 4.22244E+01 8.59861E+00 4.38395E+02
 -1      3523 1.76490E+03-1.81385E+01-3.97245E+01 1.02622E+02 5.87840E+00 3.95398E+02
 -1      3524 2.16880E+03 2.13640E+00-2.93621E+01 3.77273E+01 8.73927E-01 3.96458E+02
 -1      3525 1.27188E+03-2.91786E+00-5.43757E+01 5.36693E+01-4.88993E-01 7.42748E+02
 -1      3526-2.16474E+03-6.67818E-01 2.75610E+01 3.53934E+01-1.34818E+00 3.93678E+02
 -1      3527-1.27751E+03 5.70354E+00 4.68352E+01 5.89781E+01-2.57700E+00 7.45684E+02
 -1      3528-8.42210E+03-3.44803E+01 7.94329E+00 3.57976E+02 1.53198E-01 1.78517E+03
 -1      3529-2.52679E+04-9.11728E+00-5.18981E+01 4.64476E+02 8.91053E-01 2.35401E+03
 -1      3530 1.75664E+04 8.60006E+00-3.01823E+01 1.11359E+02 2.04779E+00 9.60573E+02
 -1      3531 1.63969E+04-3.19981E+00-3.30957E+01 9.81666E+01-3.27753E+00 9.56322E+02
 -1      3532 1.49156E+04 5.95103E+00-7.53112E+01 2.46793E+02 1.41353E-01 9.89634E+02
 -1      3533 1.39251E+04-1.55700E+01-4.97657E+01 2.46564E+02 7.97370E+00 9.85215E+02
 -1      3534 9.95148E+03 6.51875E+00-5.88678E+01 1.36974E+02-2.75488E+01 1.80945E+03
 -1      3535-6.27108E+04-2.13858E+03-3.70778E+02 1.00466E+03 6.36350E+02 1.74494E+03
 -1      3536-4.49551E+04-7.48241E+02-1.52656E+02 3.15362E+02 9.35670E+02 2.28726E+03
 -1      3537-6.67279E+04-4.93488E+02 5.87682E+01 9.17537E+01 2.50386E+02 5.86502E+02
 -1      3538-5.58153E+04-5.76459E+02 3.14434E+01 3.68735E+02 2.68390E+02 1.36234E+03
 -1      3539-3.92322E+04-1.16405E+02-8.43949E+01-6.60825E+01 3.73674E+02 2.01979E+03
 -1      3540 2.85106E+03-2.49249E+01 2.58101E+01 4.05975E+02-1.22931E+01 2.60809E+03
 -1      3541-8.09556E+00-7.12212E+00 5.07987E+00 1.24989E+01 9.07301E+00 1.09799E+02
 -1      3542-3.68106E+01 5.42878E-02 2.88282E+01 1.24958E+01 6.19811E+00 1.82594E+02
 -1      3543-8.42641E+03 3.54140E+01 5.82979E+00 2.77385E+02 5.27501E+00 7.66492E+02
 -1      3544-5.10251E+03-5.64488E+00 2.70353E+01 2.92549E+02-1.20841E+00 1.45864E+03
 -1      3545-4.61768E+03 3.99554E+01 5.62901E+01 2.35790E+02-1.39506E+01 1.47015E+03
 -1      3546 3.85922E+03 8.73720E+00-1.82134E+01 1.26525E+02-1.00838E+01 1.69866E+03
 -1      3547 4.59478E+03-4.89639E+01-6.47423E+01 2.35406E+02 1.37013E+01 1.45755E+03
 -1      3548 8.63694E+02 1.96096E+00 9.71252E+00 2.60328E+02-2.74671E+00 1.63742E+03
 -1      3549-2.30892E+04 6.69101E+01 3.07966E+01 4.57154E+02-2.60906E+00 2.31688E+03
 -1      3550 4.30581E+04-3.61411E+01 1.42846E+01 3.76966E+02 1.97556E+01 1.27068E+03
 -1      3551-6.00530E+01 8.25923E+00 3.18690E+01 1.45004E+01-7.16705E+00 1.80271E+02
 -1      3552-2.23474E+01 9.85823E+00 7.39291E+00 1.48835E+01-9.31130E+00 1.07371E+02
 -1      3553 5.88214E+04-3.66443E+01 2.42136E+01 1.07465E+02 1.09292E+01 1.27159E+03
 -1      3554 5.75801E+04-3.06445E+01-1.54201E+01 1.12328E+02-1.08078E+01 1.24317E+03
 -1      3555 5.05815E+04-3.88641E+00 5.79551E+01 3.10482E+02-2.12927E+01 1.33079E+03
 -1      3556 3.56578E+04 1.42398E+01 4.19412E+01 1.74719E+02 8.49356E+00 2.41367E+03
 -1      3557 3.66871E+04-1.72062E+01 3.01489E+01 1.66628E+02 7.90447E+00 2.44835E+03
 -1      3558-4.53908E+03-4.00425E+01-3.69237E+01 4.10285E+02 3.00470E+01 2.54927E+03
 -1      3559 3.06534E+03 2.54359E+01-3.03461E+01 4.19545E+02-1.52062E+01 2.62907E+03
 -1      3560-1.86372E+03-1.38851E+01 4.85836E+01 4.24719E+02 9.10788E+00 2.63304E+03
 -1      3561 1.83475E+04-5.45256E+01-4.36554E+01 4.75079E+02-5.01524E+01 2.43469E+03
 -1      3562-4.65633E+03 6.47972E+00 2.96205E+01 3.21644E+02-4.82066E+00 1.65770E+03
 -1      3563-2.08146E+03 9.59675E+00 5.47341E+01 2.12697E+02-2.08859E+01 1.16176E+03
 -1      3564-4.72779E+02 2.59310E+01 8.48343E-01 2.11710E+02-4.08853E+00 1.25526E+03
 -1      3565 2.07151E+03-1.92514E+01-5.81954E+01 2.15000E+02 1.82562E+01 1.16671E+03
 -1      3566 4.68766E+02-2.55334E+01 6.65118E+00 2.06884E+02 7.25839E+00 1.24535E+03
 -1      3567 3.11680E+02-3.42321E+01-3.84156E+01 3.01318E+02-1.11231E+01 1.74950E+03
 -1      3568 8.47505E+03-2.85764E+01-4.84301E+01 4.00484E+02-3.35522E+01 2.04560E+03
 -1      3569 8.94319E+02 2.29363E+01 7.91222E+00 3.57249E+02 6.22432E+00 2.20923E+03
 -1      3570-9.05472E+02-1.67281E+01 1.22811E+01 3.51357E+02 2.43729E+00 2.20973E+03
 -1      3571-8.48047E+03-5.74961E-01 3.42769E+01 4.04807E+02 1.71079E+01 2.05538E+03
 -1      3572-1.71801E+04-5.64962E+01-1.02076E+01 4.41761E+02 4.19480E+01 2.40411E+03
 -1      3573 4.66446E+03 3.96445E+01 3.46267E+01 4.10361E+02-2.96875E+01 2.54832E+03
 -1      3574-1.41561E+04 4.34791E+01 1.39812E+01 4.44851E+02 3.30629E+01 2.34645E+03
 -1      3575-1.53172E+03-3.70368E+01-2.04822E+01 4.26391E+02-1.70525E+01 2.48801E+03
 -1      3576 1.54278E+03 3.58829E+01 1.85074E+01 4.25928E+02 1.75419E+01 2.48521E+03
 -1      3577 1.73028E+04 5.39696E+01 1.25773E+01 4.40476E+02-4.15954E+01 2.39916E+03
 -1      3578-2.96386E+03 1.44912E+01 9.34886E+00 2.06255E+02 1.91387E+01 2.53777E+03
 -1      3579-1.09143E+04-4.79821E+01-5.39240E+01 4.34258E+02-1.42193E+01 2.21042E+03
 -1      3580 2.51783E+03 1.80353E+01 1.93220E+01 3.22461E+02 1.11201E+01 2.35119E+03
 -1      3581-2.42640E+04-3.47027E+01 2.02399E+01 4.84680E+02-7.43429E-01 1.11737E+03
 -1      3582-1.45130E+04 5.47855E+00 2.74173E+01 4.07807E+02-8.24442E+00 2.06985E+03
 -1      3583 1.41673E+04-4.48310E+01-1.13861E+01 4.44466E+02-3.44846E+01 2.34504E+03
 -1      3584 5.70223E+04 1.16874E+04 1.78455E+03-2.63146E+03 4.29065E+02 1.66994E+03
 -1      3585 3.33208E+04 7.69505E+03 6.09621E+03-1.23872E+03 3.93764E+02 3.56510E+03
 -1      3586 5.05140E+02 4.84158E+00-1.78374E+01 5.94483E+01-5.04639E+00 2.36807E+02
 -1      3587 2.96697E+02-3.25801E+00-2.99676E+01 3.96021E+01 1.91036E+00 2.05818E+02
 -1      3588 2.39490E+02 4.37087E+00-2.81307E+01 4.92699E+01-9.58590E+00 4.72732E+02
 -1      3589 4.07300E+02 3.70682E+00-1.90146E+01 9.22539E+01-1.36246E+00 2.97423E+02
 -1      3590-2.08351E+03 1.01527E+01 2.95364E+01 2.85671E+02-7.23998E+00 1.61490E+03
 -1      3591-1.85065E+03-1.75904E+01-5.97708E+00 2.53290E+02-3.62321E+00 1.51143E+03
 -1      3592-2.94741E+03-8.24782E+00 2.23649E+01 2.57328E+02-2.86868E+00 1.62580E+03
 -1      3593-3.04418E+03-9.38657E+00 3.34965E+01 1.38831E+02 2.01373E+00 5.54344E+02
 -1      3594-1.58340E+01 7.87287E+00 3.84588E+01 1.51370E-01-1.08900E+01 9.39912E+01
 -1      3595-4.22531E+01 1.09420E+01 4.06043E+01 1.53096E+01-1.13638E+01 9.69776E+01
 -1      3596 2.13297E+01 4.40772E+00-1.53481E+01 3.88663E+01-5.94657E+00 4.83456E+02
 -1      3597-1.05293E+01 8.60442E+00 3.85429E+01 1.70394E+01 1.45072E+00-1.49444E+00
 -1      3598-3.24054E+01 5.33979E-01 5.03129E+01 1.68548E+01 4.49711E+00 8.15773E+01
 -1      3599 5.47833E+03-3.70617E+01 1.15223E+01 4.58911E+02-1.96914E+01 2.56008E+03
 -1      3600 1.01868E+04 1.06558E+01 9.43339E+01 4.24273E+02-2.64302E+00 2.54208E+03
 -1      3601 1.10856E+04-2.81355E+01-6.51786E+01 4.23944E+02-2.86616E+01 2.55221E+03
 -1      3602-6.17537E+04-1.39941E+01-2.02152E+00 5.70457E+01 8.30802E+00 1.21815E+03
 -1      3603 1.05201E+02-7.26078E+00-3.57959E+01 8.20044E+01-2.79131E+00 8.24994E+02
 -1      3604 5.98617E+03 1.67510E+01-2.40231E+01 5.18715E+02 3.18788E+01 2.60865E+03
 -1      3605-6.18423E+03 1.05639E+01 4.83625E+01 1.62519E+02-2.37839E+01 2.15042E+03
 -1      3606-2.05570E+03 1.61259E+00 3.93016E+01 3.16549E+02-7.01030E+00 1.93829E+03
 -1      3607 4.57165E+02-2.45213E+01-2.67064E+01 1.77905E+02 3.08585E+00 2.10844E+03
 -1      3608-5.61249E+03 5.97312E+00-2.74762E-01 1.72159E+02 2.55011E+00 2.09720E+03
 -1      3609-1.52336E+03 4.47881E+01 1.78338E+01 2.96812E+02-6.59277E+00 1.92426E+03
 -1      3610-8.34163E+03 8.07832E+00 6.47281E+00 2.90090E+02-6.02792E-01 1.83672E+03
 -1      3611 1.86135E+02-9.33924E+00 8.12455E+00 1.48616E+02-1.20498E+01 8.20077E+02
 -1      3612 3.52047E+02-5.48664E+00 1.15469E+01 1.35010E+02 6.97480E+00 8.05795E+02
 -1      3613 6.24935E+02-1.26997E+01-2.51328E+01 1.47644E+02-2.64639E+00 9.15595E+02
 -1      3614-6.21604E+02 6.05294E+00-4.14869E+00 1.24392E+02-4.19413E+00 8.33615E+02
 -1      3615-9.21544E+02 1.99157E+00 6.07127E+01 1.45438E+02 8.38254E+00 9.28405E+02
 -1      3616-1.70142E+04-1.15610E+01 9.09363E+01 4.13983E+02 5.34680E+01 2.58335E+03
 -1      3617 1.85228E+03-4.60946E+00 4.73849E+00 2.67121E+02 1.43665E+01 1.52185E+03
 -1      3618 2.89384E+03-1.56751E+01-2.36001E+01 2.66223E+02 1.02825E+01 1.60093E+03
 -1      3619-1.86104E+04 6.35523E+00-2.11365E+00 9.31713E+01-4.86189E+00 1.01862E+03
 -1      3620-1.75948E+04 4.04204E+01 3.03937E+01 1.02742E+02 4.48059E+00 9.50042E+02
 -1      3621-1.60154E+04 1.55886E+01-2.36373E+01 2.73192E+02 2.03006E+00 1.05318E+03
 -1      3622-1.08234E+04-7.59161E+00-1.46732E+01 1.38921E+02-2.49740E+01 1.84921E+03
 -1      3623-1.15646E+04 1.66390E+01 1.42952E+00 1.38109E+02-1.68527E+01 1.90283E+03
 -1      3624-4.61552E+03 2.08256E+01 2.60567E+01 4.54623E+02-1.69976E+01 2.31608E+03
 -1      3625-6.07877E+03 1.73430E+01-6.04441E+00 5.06363E+02-1.19579E+01 2.37525E+03
 -1      3626 8.21458E+03 1.74692E+03 1.98982E+03-1.07546E+03 2.50360E+01-1.75104E+03
 -1      3627 1.93288E+04 3.47716E+03 2.35372E+03-1.26206E+03 5.92141E+02 1.68679E+03
 -1      3628-5.62461E+04-9.01858E+00 3.48756E+01 1.26511E+02 1.47222E+01 1.25932E+03
 -1      3629-5.77771E+04-2.88307E+01-1.10226E+01 1.14869E+02-2.29204E+01 1.25158E+03
 -1      3630-3.44673E+04-3.13902E+00 5.99726E+01 1.87169E+02 4.18596E+01 2.43137E+03
 -1      3631-4.91280E+04 1.44600E+01 3.79796E+01 3.01474E+02 1.28336E+01 1.29183E+03
 -1      3632-4.77504E+04 2.66365E+01 6.52147E+01 3.35115E+02-8.73360E-01 1.32698E+03
 -1      3633 3.45556E+02 6.68353E+00-3.69091E+01 1.79792E+02 1.26870E+01 9.30747E+02
 -1      3634-1.60057E+04 2.66437E+01-9.56968E+01 3.98874E+02-2.38031E+01 2.60995E+03
 -1      3635-1.50015E+03-7.34332E+00-2.08052E+01 2.82945E+02 3.53751E+00 1.50526E+03
 -1      3636-1.30019E+01-5.25668E+00 3.46942E+01-1.19869E+00 9.70178E+00 9.35888E+01
 -1      3637-2.79073E+01-6.40911E+00 3.81823E+01 1.15547E+01 8.69046E+00 9.77170E+01
 -1      3638 7.91455E+03-6.27814E+00-8.91077E+01 3.87815E+02 1.20636E+01 2.34536E+03
 -1      3639-1.49308E+03 6.49430E+01 6.30707E+01 3.34507E+02 1.75849E+01 2.07070E+03
 -1      3640-7.89008E+03 2.23071E+01 2.56872E+01 3.56002E+02 7.90178E+00 2.30079E+03
 -1      3641-5.89655E+04 3.00591E+01-2.62132E+01 1.18573E+02-8.20803E+00 1.27058E+03
 -1      3642-3.56059E+04 7.43800E+00-1.26373E+00 1.77071E+02 2.78926E+01 2.37248E+03
 -1      3643-5.04504E+04 2.61636E+01-2.38847E+01 3.24967E+02 1.95121E+01 1.33576E+03
 -1      3644-3.67655E+04 2.28924E+01-1.63489E+01 1.68955E+02-1.21841E+01 2.45211E+03
 -1      3645 2.89723E+03 2.25838E+01 6.29031E+01 3.18585E+02 5.61916E+00 1.88627E+03
 -1      3646 1.92430E+03 7.63954E+00-3.88372E+01 3.85173E+02 4.25349E+00 1.98735E+03
 -1      3647 3.53776E+03-1.96140E+01-8.72701E+01 3.20476E+02-3.77217E+00 1.97269E+03
 -1      3648 4.52870E+04 1.72422E+02-1.93380E+02 4.14199E+02 1.24349E+02 7.59857E+02
 -1      3649 4.42461E+04 1.08221E+02-5.50460E+01 6.94437E+02 5.54356E+01 1.52544E+03
 -1      3650 1.98619E+04 2.60598E+03 1.72612E+03 8.23565E+02-5.22609E+02 2.22174E+03
 -1      3651-8.89655E+02 3.41858E+00 3.03112E+01 7.90794E+01 2.64118E+00 3.20420E+02
 -1      3652-7.61942E+02-5.57611E+00 3.32132E+01 1.18684E+02 3.26381E+00 2.56521E+02
 -1      3653-1.01774E+03-2.61956E+00 3.31015E+00 1.31926E+02 7.96463E+00 3.51046E+02
 -1      3654-1.64044E+04 3.91359E+00 4.00095E+01 8.74617E+01 3.99533E+00 9.56902E+02
 -1      3655-1.48959E+04 2.58049E-01-4.77727E+01 2.42646E+02-3.23966E+01 1.02077E+03
 -1      3656-1.01103E+04-1.59545E+01 4.11045E+01 1.34372E+02 2.51377E+01 1.80114E+03
 -1      3657-1.40698E+04 6.51581E+00 4.07922E+01 2.52074E+02-4.00147E-01 9.51878E+02
 -1      3658-4.70500E+02 6.42396E+00 2.84053E+01 5.93037E+01 4.23549E+00 2.43512E+02
 -1      3659-3.44594E+02 5.98511E+00 2.37771E+01 5.28132E+01 5.74896E+00 1.70727E+02
 -1      3660-3.03017E+02 1.40100E+00 4.43334E+01 6.15265E+01 6.38261E+00 4.37004E+02
 -1      3661-4.82167E+02 1.36065E+00 2.42080E+01 9.37696E+01-2.79698E-01 2.36683E+02
 -1      3662-3.80097E+03 6.50521E+00 9.12502E-01 5.28493E+02 1.85925E+02 2.85702E+03
 -1      3663 4.07317E+04 8.80626E+03 7.98491E+03 1.58111E+03-3.48058E+02 3.93586E+03
 -1      3664 6.17809E+04 5.81137E+03 4.78167E+02 1.70526E+03-7.40233E+02 2.89456E+03
 -1      3665 1.09191E+03 5.33679E+00-1.66275E-01 1.93336E+02 1.37154E+01 2.18214E+03
 -1      3666-2.50994E+04-1.96705E+02-9.81155E+01 5.26694E+02 3.45541E+01 2.75086E+03
 -1      3667-4.07833E+02 1.45098E+01 2.32258E+01 8.97098E+01 2.27068E-01 2.19476E+02
 -1      3668-3.26431E+02 9.20156E+00 4.05715E+01 7.20595E+01-7.09237E+00 3.56898E+02
 -1      3669 4.50817E+04 1.60600E+02-7.39471E+01 3.66763E+02 4.40543E+01 1.18273E+03
 -1      3670 2.15505E+04 2.67894E+01-1.08200E+02 5.06697E+02 2.00540E+02 2.42159E+03
 -1      3671-4.62030E+04-3.17664E+02 2.45707E+02 1.09685E+02-9.45462E+01 9.94850E+02
 -1      3672-2.20670E+04-3.20824E+01 1.65147E+02 5.31971E+02-1.97803E+02 2.39934E+03
 -1      3673 1.31200E+03-3.03782E+01 1.94317E+01 3.44357E+02-2.79741E+01 1.92195E+03
 -1      3674-1.14006E+04 2.55425E+01 4.03161E+01 3.68863E+02 2.45280E+01 9.48759E+02
 -1      3675-1.25712E+04-1.38340E+01 5.92354E+01 3.87635E+02 3.24913E+01 9.48525E+02
 -1      3676-1.41027E+04 4.93777E+00-2.98615E+01 4.02789E+02-3.25500E+01 9.52824E+02
 -1      3677-4.48617E+04-8.71275E+01 1.49415E+02 4.43892E+02-5.64181E+01 1.08041E+03
 -1      3678-4.45380E+04-3.16435E+01-1.12034E+00 7.25132E+02-6.49445E+01 1.48199E+03
 -1      3679 2.15739E+03-1.77103E+00-2.20953E+01 1.22437E+02-4.65380E+00 4.97997E+02
 -1      3680 1.89386E+03 1.38191E+00-3.94196E+01 1.09369E+02-1.51802E+01 4.28885E+02
 -1      3681 7.36771E+02 6.27984E+00-4.30510E+01 9.04001E+01-3.51219E+00 7.57718E+02
 -1      3682 1.79143E+03 1.81857E+00-4.87291E+01 1.73791E+02-2.38963E+00 4.51642E+02
 -1      3683 8.85493E+02 1.34066E+00-3.83108E+01 9.93102E+01-2.60435E+00 8.37619E+02
 -1      3684 1.48744E+03 5.20008E+00-2.63745E+01 1.07575E+02-6.32888E+00 4.14837E+02
 -1      3685 1.40311E+03 1.47986E+01-2.59921E+01 1.59110E+02 2.33766E+00 4.33842E+02
 -1      3686 2.04420E+03-3.18387E+01-1.07793E+01 1.87985E+02-8.42959E+00 5.18859E+02
 -1      3687 1.07974E+03-9.26426E-01-1.27299E+01 1.16097E+02-1.60428E+01 9.18985E+02
 -1      3688 7.71874E+02-2.53836E+01-1.61793E+01 1.90560E+02 2.76620E+00 2.15084E+03
 -1      3689-1.32064E+03-6.75655E+01-2.13413E+01 1.82971E+02 7.68842E+00 2.09205E+03
 -1      3690 1.27662E+02-3.01819E+00 1.28924E+01 8.60713E+01 9.34772E+00 9.54474E+02
 -1      3691-3.11932E+02 2.55202E+01 2.64016E+01 9.31761E+01 4.64228E+00 1.01975E+03
 -1      3692-1.61212E+03 1.26146E+00 3.12633E+01 1.69698E+02 1.24747E+00 5.45016E+02
 -1      3693-2.24415E+03 8.52740E+00-4.87426E+00 1.95006E+02-6.47404E+00 4.80591E+02
 -1      3694-3.57318E+04-1.84418E+01 7.39761E+00 5.00602E+02 9.46255E-01 1.62279E+03
 -1      3695-4.41957E+04 2.57761E+01-8.30571E+01 5.40631E+02-3.30327E+01 1.30938E+03
 -1      3696 2.81864E+03 1.73262E+01 3.05435E+01 2.61941E+02-6.28847E+00 2.81952E+03
 -1      3697-5.11211E+03 8.98819E+01 4.07697E+01 2.59988E+02-2.48883E+01 2.81065E+03
 -1      3698 1.63011E+02-5.19409E+00-3.96755E+01 1.40220E+01 7.04877E+00 2.26443E+02
 -1      3699 1.86351E+02-1.54183E+01-2.85641E+01 3.60619E+01 2.75317E+00 1.02881E+02
 -1      3700 2.60928E+02-1.13652E+01-3.41993E+01 1.63702E+01 5.82877E+00 1.36231E+02
 -1      3701 2.87745E+02-2.24137E+00-4.12639E+01 2.97745E+01 9.68621E+00 3.46318E+02
 -1      3702 3.55494E+02-1.10294E+01-2.12342E+01 5.14063E+01 1.01281E+01 2.11885E+02
 -1      3703 4.11257E+04-3.68837E+01-1.41368E+01 3.44720E+02 1.21088E+01 1.32171E+03
 -1      3704 3.86835E+04-9.94591E+00-2.51958E+01 5.45907E+02 9.81346E+00 1.42698E+03
 -1      3705 1.90921E+04 8.61442E+00 2.55106E+01 2.96194E+02 6.85123E+00 2.46386E+03
 -1      3706 1.95545E+04-2.30027E+01 1.77108E+01 3.31838E+02 4.34866E+00 2.49525E+03
 -1      3707 3.94710E+04-8.14183E+01 2.40597E-01 5.37125E+02-2.72560E+00 1.40950E+03
 -1      3708 4.04153E+04 3.88167E+00-2.21530E+01 3.47737E+02-3.17051E+01 1.33538E+03
 -1      3709 1.84316E+04-2.18125E+01-4.42340E+00 2.89687E+02-2.80390E+00 2.49798E+03
 -1      3710 3.91443E+04-2.63626E+01-2.47151E+01 3.46210E+02 4.56286E+00 1.32355E+03
 -1      3711 3.74408E+04-8.80039E+00 1.16795E+01 5.27881E+02-4.73539E-01 1.41700E+03
 -1      3712-5.15206E+04-6.04613E+01-2.20938E+01 1.38180E+02 1.24697E+01 1.28345E+03
 -1      3713-4.11880E+04 3.45298E+00 1.26413E+00 3.49015E+02 1.55745E+00 1.41730E+03
 -1      3714-5.02548E+04-2.17498E+01-5.96995E+00 1.32504E+02-7.99181E-01 1.32083E+03
 -1      3715-2.92713E+04-1.81281E+01-1.38262E+01 1.76338E+02-1.51587E+01 2.46077E+03
 -1      3716-3.35549E+03 6.97590E+00 4.53323E+00 1.38846E+02-3.68336E+00 6.08888E+02
 -1      3717-1.81129E+03 3.83687E+00 2.43528E+01 1.53480E+02 7.21156E+00 1.20294E+03
 -1      3718-3.90465E+03 9.27231E-01 1.79158E+01 1.64193E+02 1.83188E+00 6.53785E+02
 -1      3719-3.65568E+03 2.20786E+00 1.99441E+01 2.48742E+02 5.51439E+00 6.97941E+02
 -1      3720 3.35460E+03-1.98163E+00-1.05475E+01 1.48711E+02 7.14710E+00 6.33289E+02
 -1      3721 1.86615E+03 1.16605E+01-2.73039E+01 1.56809E+02-1.05981E+01 1.19816E+03
 -1      3722-4.53405E+03-8.84004E+00 3.68716E+01 1.63029E+02 6.32535E+00 6.73746E+02
 -1      3723 3.96979E+03 1.09959E+01-1.13551E+01 1.66480E+02-5.21130E+00 6.54192E+02
 -1      3724 3.69901E+03 4.60024E+00-2.43782E+01 2.50122E+02-3.18581E+00 6.98604E+02
 -1      3725 4.34042E+03 3.42524E+01-8.57745E+00 1.67631E+02 4.54690E+00 6.83090E+02
 -1      3726-1.31936E+04-2.68090E+01 5.96501E+00 8.93501E+01-1.90156E+00 8.73460E+02
 -1      3727-9.98828E+03 3.60695E+01 2.45487E+01 2.45132E+02-8.96162E+00 9.48000E+02
 -1      3728-1.22762E+04 7.86726E+00 2.89147E+01 8.99615E+01 9.82763E-01 8.68571E+02
 -1      3729-7.11881E+03 1.02580E+01 1.64078E+01 1.37701E+02-2.16985E+01 1.65998E+03
 -1      3730 1.33845E+04 1.16490E+01-1.54038E+01 8.73269E+01 7.55608E+00 8.99609E+02
 -1      3731 7.05968E+03-2.02948E+01-2.21331E+01 1.28587E+02 9.63160E+00 1.66210E+03
 -1      3732 1.22177E+04-2.20342E+01-2.48220E+01 9.46028E+01-3.60236E+00 8.76333E+02
 -1      3733 9.91618E+03-5.11211E+01-4.61881E+01 2.42155E+02 1.60899E+01 9.62807E+02
 -1      3734-4.85896E+04 2.46145E+01 3.85026E+00 1.30232E+02 6.77931E+00 1.32127E+03
 -1      3735-3.89832E+04-9.58989E+00 1.02321E+01 1.26299E+02-6.18808E-01 1.26869E+03
 -1      3736-3.76145E+04 6.89907E+01 4.18780E+01 1.27103E+02-4.69025E+00 1.18402E+03
 -1      3737-3.21120E+04-6.00572E+01-1.04347E+01 3.52685E+02 1.29041E+01 1.36612E+03
 -1      3738-2.26787E+04-2.26379E+00 2.86431E+01 1.86782E+02 1.47978E+01 2.38511E+03
 -1      3739-2.18978E+04 2.46013E+01 3.76294E+00 1.07779E+02 1.24491E+00 1.09669E+03
 -1      3740-1.35276E+04 9.10455E+00 1.92413E+01 1.49357E+02-3.94876E+00 2.06784E+03
 -1      3741-2.32421E+04 1.35297E+00 1.05191E+01 1.14096E+02-7.18158E-01 1.11447E+03
 -1      3742-1.90673E+04-4.46613E-01 1.47225E+01 2.92094E+02-2.39286E+00 1.20172E+03
 -1      3743 2.19210E+04-2.46206E+01-1.35974E+01 1.09445E+02-1.70651E+00 1.10831E+03
 -1      3744 1.36100E+04 8.26958E+00-5.75070E+00 1.48522E+02 1.34970E+01 2.07278E+03
 -1      3745-3.23725E+04-9.12875E+00 2.41424E+01 3.15476E+02 1.82067E+01 1.32167E+03
 -1      3746-1.41737E+04 3.22189E+01-1.18717E+01 3.04671E+02 7.24864E+00 2.45652E+03
 -1      3747-3.11509E+04 4.96844E+00-1.83145E+01 3.41363E+02 1.98430E+00 1.31840E+03
 -1      3748-2.92502E+04 7.01751E+01 2.79746E+01 5.07145E+02 1.31830E+01 1.43363E+03
 -1      3749 2.33139E+04 1.38726E+01-5.30339E+00 1.12250E+02 1.93702E+00 1.11589E+03
 -1      3750 1.90683E+04-9.05546E+00-1.99886E+01 2.99415E+02-4.06616E-01 1.19302E+03
 -1      3751 4.86091E+04-2.22920E+01-1.58247E+00 1.27698E+02-6.13569E+00 1.32163E+03
 -1      3752 2.93014E+04 1.38488E+01 2.12804E+01 1.75891E+02 1.42381E+01 2.45537E+03
 -1      3753 5.02696E+04 2.00193E+01 7.47341E+00 1.29588E+02 6.95171E-01 1.32107E+03
 -1      3754 4.12114E+04-9.56966E+00-3.14947E+00 3.53936E+02-2.63282E+00 1.41207E+03
 -1      3755 5.15818E+04 6.10874E+01 1.79415E+01 1.34153E+02-1.12487E+01 1.28006E+03
 -1      3756 2.43903E+04 5.02148E+01 9.08202E+00 1.18639E+02-9.35234E+00 1.10182E+03
 -1      3757-2.46237E+04-1.86670E+01 2.22146E+01 1.20000E+02-3.99515E+00 1.11897E+03
 -1      3758 3.73685E+04-2.78154E+01-1.72138E+01 1.13875E+02-8.79434E+00 1.25747E+03
 -1      3759 2.28003E+04 2.50889E+01-2.70208E+00 1.83158E+02-6.84842E+00 2.37654E+03
 -1      3760 3.11843E+04 9.12344E+00 2.51396E+01 3.35378E+02-4.59223E+00 1.32681E+03
 -1      3761 3.19580E+04 7.17618E+01 2.70434E+01 3.35228E+02 6.72606E+00 1.27529E+03
 -1      3762 2.93630E+04-5.99256E+01-1.05758E+01 5.00834E+02-1.22462E+01 1.42200E+03
 -1      3763 1.43687E+04-7.66814E+00 3.43559E+01 3.04765E+02-1.53133E+01 2.45961E+03
 -1      3764-2.47912E+04-1.63309E+01 2.18533E+01 3.07903E+02 8.09614E+00 1.23902E+03
 -1      3765-2.35418E+04 2.21017E+01 1.99133E+01 3.03102E+02-6.55742E+00 1.22201E+03
 -1      3766-1.08777E+04 7.77298E+00-1.28746E+01 2.92421E+02 1.21880E+00 2.31221E+03
 -1      3767-2.19764E+04 8.44744E+01 5.04213E+01 4.86006E+02 1.20348E+01 1.35130E+03
 -1      3768 3.90665E+04 2.46161E+01-9.78563E+00 1.29782E+02 2.51887E+00 1.25530E+03
 -1      3769 3.22001E+04 6.01097E+01 1.74343E+01 3.48351E+02-1.61215E+01 1.37188E+03
 -1      3770 2.26699E+04-6.38672E+01-1.50585E+01 3.19669E+02-1.57123E+01 1.21542E+03
 -1      3771 2.21646E+04-1.84060E+01-7.32771E-01 4.69006E+02-6.45206E+00 1.31699E+03
 -1      3772 2.46098E+04 1.09662E+01-2.65052E+01 3.03496E+02-1.01371E+01 1.26818E+03
 -1      3773 1.07376E+04-7.03702E+00-4.28626E+00 2.93423E+02 9.07777E+00 2.30195E+03
 -1      3774-5.34671E+03-1.71913E+01 9.68233E+01 3.42160E+02 3.40271E+01 2.00466E+03
 -1      3775-4.79732E+03 9.66260E+00-5.14005E+01 2.91820E+02-2.26314E+01 1.92769E+03
 -1      3776 2.33738E+04-2.68359E+01-2.31704E+01 3.11688E+02 2.98734E+00 1.24911E+03
 -1      3777-6.00103E+03-1.39713E+01 5.18702E+01 3.05189E+02 8.00735E+00 7.60132E+02
 -1      3778-2.92809E+03-2.57413E+01 5.54737E+01 1.61452E+02-2.21972E+01 1.43048E+03
 -1      3779-6.16470E+03-2.47240E+01 3.70346E+01 1.90247E+02-3.32768E+00 7.70251E+02
 -1      3780-6.82115E+03 1.79464E+00 2.87289E+00 3.28648E+02 5.71751E+00 7.73884E+02
 -1      3781-3.64645E+03-7.48198E+00 2.86117E+01 1.72461E+02 1.14147E+01 1.44644E+03
 -1      3782 2.09024E+04-5.77616E+00-2.70712E+01 2.95851E+02-2.96899E+01 1.19142E+03
 -1      3783 9.09021E+03-3.10589E+01-1.58001E+01 2.64342E+02-8.27256E+00 2.21019E+03
 -1      3784 6.66140E+02 1.86411E+01-2.09767E+01 6.30653E+01 1.36509E+00 3.05678E+02
 -1      3785 1.98060E+04-4.03595E-01 1.07353E+01 3.04557E+02 4.48459E-01 1.18119E+03
 -1      3786 1.84681E+04-4.54467E+01-4.39085E+01 4.51444E+02-7.77779E+00 1.28330E+03
 -1      3787-6.50954E+04-1.44936E+02 8.64285E+01-1.03393E+02 1.74400E+02 7.60767E+02
 -1      3788-5.44236E+04-9.41203E+01 7.29516E+00 1.32173E+02 1.68956E+02 1.49167E+03
 -1      3789 6.17700E+04 2.06401E+03 3.25557E+02 9.73404E+02-5.66167E+02 1.67313E+03
 -1      3790 4.39616E+04 7.76425E+02 1.08508E+00 2.28409E+02-8.97909E+02 2.38938E+03
 -1      3791 6.66097E+04 5.30479E+02-3.22215E+01 4.29639E+01-2.48754E+02 5.81511E+02
 -1      3792 5.53389E+04 5.23284E+02-8.88686E+01 3.70327E+02-3.07369E+02 1.39964E+03
 -1      3793 3.86264E+04 1.15229E+02 1.45436E+02-2.06457E+01-4.18542E+02 2.05449E+03
 -1      3794-2.87079E+04 1.77799E+01-2.76762E+01 3.15124E+02-7.63119E+00 1.22218E+03
 -1      3795-2.10642E+04 1.86536E+01-3.17386E+01 1.65387E+02-3.74481E+01 2.25659E+03
 -1      3796-3.35055E+04 2.65251E+01-1.68384E+01 1.23072E+02-8.02928E+00 1.17136E+03
 -1      3797-2.88676E+04 3.70713E+00 2.88570E+01 2.74263E+02-2.01336E+00 1.12860E+03
 -1      3798-2.13042E+04 2.46100E+01 4.19494E+01 1.48975E+02 1.32303E+01 2.13090E+03
 -1      3799 2.86974E+04-1.57575E+01 2.82428E+01 3.15496E+02 5.56512E+00 1.22388E+03
 -1      3800 2.09251E+04-2.52553E+01 2.92737E+01 1.68010E+02 4.31204E+01 2.27074E+03
 -1      3801 3.33718E+04-2.75692E+01 1.72285E+01 1.24751E+02 1.38144E+01 1.18781E+03
 -1      3802 2.88442E+04-1.03961E+01-3.41985E+01 2.77853E+02-1.34557E-01 1.11961E+03
 -1      3803 2.11654E+04-2.08410E+01-1.92387E+01 1.48348E+02-1.13384E+01 2.14468E+03
 -1      3804-7.34550E+02-5.24006E-01 3.78975E+01 7.57262E+01 6.70232E+00 2.61671E+02
 -1      3805 7.09335E+03 9.97824E-01-9.30826E+00 2.21358E+02 4.47313E+00 8.50171E+02
 -1      3806 5.05025E+03-1.98947E+01-2.87937E+01 1.28204E+02 1.31734E+01 1.45618E+03
 -1      3807 8.66222E+03 5.08437E+00-4.33908E+00 7.46004E+01 1.01441E+01 7.47938E+02
 -1      3808 6.98918E+03-3.07051E+01-5.20608E+01 1.74134E+02-1.09103E+01 6.67095E+02
 -1      3809 5.12031E+03-7.95424E+00-4.20087E+01 8.27063E+01-3.81628E+00 1.29394E+03
 -1      3810 3.67761E+03 2.00501E+01-2.03292E+01 2.08762E+02 2.02200E+01 1.34243E+03
 -1      3811-7.09302E+03-3.47693E+00 1.90229E+01 2.21247E+02-2.00744E+00 8.48630E+02
 -1      3812-5.04537E+03 1.95524E+01 3.43120E+01 1.27144E+02-8.25664E+00 1.45810E+03
 -1      3813-8.66663E+03-4.95608E+00 6.75977E+00 7.45158E+01-8.96728E+00 7.49118E+02
 -1      3814-6.99030E+03 3.20098E+01 5.25642E+01 1.74511E+02 1.14073E+01 6.66838E+02
 -1      3815-5.12002E+03 8.06468E+00 4.09983E+01 8.33680E+01 4.02724E+00 1.29439E+03
 -1      3816-3.68280E+03-2.34185E+01 1.82651E+01 2.08288E+02-2.02630E+01 1.34529E+03
 -1      3817 1.59155E+04-1.58195E+01 2.89301E+01 2.55897E+02 1.39941E+01 1.03000E+03
 -1      3818 5.54415E+03 1.30209E+01 5.69849E+01 1.66471E+02-2.49746E+00 2.08698E+03
 -1      3819 6.26811E+03-1.76852E+01-6.52760E+01 1.64448E+02 2.52157E+00 2.15058E+03
 -1      3820 1.08979E+04 1.04385E+01-1.25037E+01 1.32398E+02 9.23724E-01 1.84677E+03
 -1      3821 1.16636E+04-6.89652E+00 2.06772E+01 1.33581E+02 3.11809E+01 1.91508E+03
 -1      3822-6.44736E+04-1.05944E+02 2.11536E+01-1.80689E+01 5.57048E+01 1.11969E+03
 -1      3823-3.86304E+04 1.75405E+00 1.17889E+02 2.10077E+00 2.35810E+02 2.33955E+03
 -1      3824-1.60364E+04-1.58042E+01-1.27066E+01 2.56202E+02 2.97734E+00 2.31529E+03
 -1      3825-3.07841E+04 6.19488E+01 4.17942E+01 4.90730E+02-1.67885E+01 1.25080E+03
 -1      3826-1.44258E+04-6.01720E+01-2.62983E+01 4.64794E+02-6.03196E+00 2.36653E+03
 -1      3827-2.67057E+04-8.77140E+00 2.21845E+01 1.55675E+02-7.16062E+00 2.25174E+03
 -1      3828-3.63192E+04-3.45696E+01-2.34718E+01 3.05427E+02-5.33250E+00 1.19899E+03
 -1      3829-1.94692E+04 7.57858E+01 6.96026E+01 3.62243E+02 3.76323E+00 2.32827E+03
 -1      3830 7.29367E+02-2.19397E+00 4.47860E+00 6.70368E+01 8.88135E+00 8.84623E+02
 -1      3831 1.05516E+03-3.09454E+00-3.77089E+01 7.98407E+01 8.29123E-01 1.00158E+03
 -1      3832-1.86616E+03 4.70183E+00 3.85897E+01 1.48334E+02-3.95093E+00 4.02521E+02
 -1      3833-2.31437E+03 2.58959E+01 2.46023E+01 1.74870E+02 4.45164E-01 4.95429E+02
 -1      3834 4.79053E+04 6.69985E+00-4.46957E+01 3.23326E+02-5.74887E+00 1.33018E+03
 -1      3835 4.92319E+04-8.96741E+00 6.41557E+01 3.22442E+02 1.94566E+01 1.32319E+03
 -1      3836 1.87990E+04 2.34397E+01 8.22541E+01 2.10517E+02-6.45390E+00 2.78255E+03
 -1      3837 3.44222E+04 3.13951E+01-4.50549E+01 1.72715E+02-4.40298E+01 2.44404E+03
 -1      3838 1.98014E+04-8.22114E+00-7.64504E+01 2.11644E+02-1.16215E+01 2.77771E+03
 -1      3839-6.56812E+03 2.23184E+01 2.06923E+01 1.88581E+02-1.01595E+01 8.01121E+02
 -1      3840-7.29962E+03 7.18068E+00-4.42656E+00 2.08718E+02 6.86422E+00 8.13202E+02
 -1      3841-7.56265E+03-1.45460E+01 2.34949E+01 3.41814E+02-3.70653E+00 7.97515E+02
 -1      3842-4.07482E+03-7.29509E-01 2.36533E+01 1.60985E+02 1.27398E+01 1.53911E+03
 -1      3843-7.11767E+03-7.25312E+00 2.24278E+01 6.31401E+01 3.37218E+00 6.76513E+02
 -1      3844-7.78647E+03-1.29671E+01 1.68818E+01 6.07674E+01-5.97283E+00 7.01150E+02
 -1      3845-4.55533E+03 1.18893E+01 3.24602E+01 9.04869E+01 2.33342E+00 1.27034E+03
 -1      3846-6.19914E+03 2.66298E+01 2.68421E+01 1.73360E+02-8.23869E-01 6.40723E+02
 -1      3847 7.78546E+03 1.28214E+01-1.67408E+01 6.08094E+01 6.38344E+00 7.00536E+02
 -1      3848 6.19933E+03-2.61972E+01-2.70932E+01 1.72595E+02 3.02436E-01 6.40077E+02
 -1      3849 7.11736E+03 7.58246E+00-2.24587E+01 6.30939E+01-3.52703E+00 6.75996E+02
 -1      3850 4.55611E+03-1.20596E+01-3.22885E+01 9.05267E+01-2.92764E+00 1.26995E+03
 -1      3851-4.16469E+04 7.18917E+00-1.41132E+01 1.21264E+02-1.32044E+01 1.22681E+03
 -1      3852-4.01386E+04 2.78489E+01 2.14072E+01 1.18774E+02 2.51182E+01 1.23001E+03
 -1      3853-2.77914E+04-4.76670E+00-1.06030E+01 1.72952E+02-1.41606E+01 2.32438E+03
 -1      3854-3.77300E+04-2.54969E+01 3.45593E+00 3.06651E+02-5.82356E-03 1.19919E+03
 -1      3855-3.00088E+04-3.17675E+01 8.73083E+00 3.27392E+02-3.13818E+00 1.24557E+03
 -1      3856-2.93081E+04-3.13980E+01 1.88158E+01 3.26011E+02-7.63688E+00 1.26515E+03
 -1      3857-1.54904E+04 3.35942E+00 1.21157E+00 2.54820E+02-9.45676E+00 2.36695E+03
 -1      3858-2.97256E+04 2.71778E+01 1.17148E+01 5.09570E+02 7.31013E+00 1.20073E+03
 -1      3859 1.60676E+04 1.31214E+01 5.21143E+00 2.73010E+02-5.18265E-01 2.32899E+03
 -1      3860 3.07570E+04-6.87185E+01-4.98133E+01 4.71535E+02 2.02066E+01 1.23498E+03
 -1      3861 1.45464E+04 6.35770E+01 3.34825E+01 4.67965E+02-2.42716E+00 2.36191E+03
 -1      3862 2.66908E+04 4.49012E+00-3.31963E+01 1.63220E+02 7.26681E+00 2.23759E+03
 -1      3863 3.63429E+04 3.41541E+01 2.14793E+01 2.96547E+02 1.14389E+00 1.21239E+03
 -1      3864 1.94969E+04-7.46561E+01-6.28022E+01 3.64788E+02 1.87781E+00 2.32833E+03
 -1      3865 2.99940E+04 2.57178E+01-9.58887E+00 3.34926E+02 3.50549E+00 1.25902E+03
 -1      3866 2.97109E+04-2.73651E+01-1.36824E+01 5.03994E+02-9.26580E+00 1.19787E+03
 -1      3867 4.01840E+04-2.31802E+01-2.26746E+01 1.08863E+02-2.66964E+01 1.24183E+03
 -1      3868 2.77853E+04 3.58683E+00 9.72793E+00 1.74527E+02 1.56567E+01 2.32145E+03
 -1      3869 1.00894E+04 1.16239E+01-6.44900E+00 2.33982E+02 4.28013E+00 2.06641E+03
 -1      3870 1.92054E+04-4.30538E+01-4.63742E+01 4.38695E+02 1.53910E+01 1.11420E+03
 -1      3871 9.00888E+03 5.29358E+01-1.49962E+00 4.34117E+02-1.38438E+01 2.12697E+03
 -1      3872 1.81046E+04 2.95511E+01-1.92183E+01 2.90467E+02 6.98140E+00 1.12741E+03
 -1      3873 1.88091E+04 3.35907E+01-1.37563E+01 2.92282E+02 4.49523E+00 1.10946E+03
 -1      3874 1.82751E+04-2.50132E+01-1.44320E+01 4.48674E+02-2.41227E+00 1.06217E+03
 -1      3875 9.52791E+03-1.09047E+01-8.34442E-01 2.27080E+02 8.46521E+00 2.10615E+03
 -1      3876 2.92789E+04 3.29787E+01-1.54670E+01 3.18777E+02 7.54854E+00 1.26821E+03
 -1      3877 1.55186E+04-3.56772E+00-4.71304E-02 2.55469E+02 8.30042E+00 2.36801E+03
 -1      3878-9.17964E+03 9.56579E+00 2.56398E+01 2.67387E+02 4.79104E+00 2.24170E+03
 -1      3879-1.86556E+04-1.29872E+01-2.06189E+00 4.50668E+02 7.21627E-01 1.30416E+03
 -1      3880-1.98066E+04 9.83426E+00 4.36579E+00 2.85847E+02 3.90161E+00 1.17148E+03
 -1      3881-1.01731E+04-9.06157E-01-7.72140E+00 2.46963E+02-8.79737E+00 2.05386E+03
 -1      3882-1.92714E+04 2.39794E+01 4.56851E+01 4.63388E+02-2.98472E+00 1.07817E+03
 -1      3883-8.97075E+03-4.01066E+01 1.57784E+01 4.25790E+02 2.23559E+01 2.14558E+03
 -1      3884-3.24736E+04-3.04788E+01 6.81937E+00 1.16933E+02-2.35999E+01 1.14088E+03
 -1      3885-2.02738E+04 6.30080E+00 3.96837E+01 1.74597E+02-1.88922E+00 2.16761E+03
 -1      3886-4.56573E+04-1.81727E+01 6.45785E+01 4.64222E+02-2.22056E+01 1.29256E+03
 -1      3887-1.45296E+04 1.95842E+01-4.88795E+01 3.55016E+02 1.62397E+01 1.01534E+03
 -1      3888-1.36986E+04-1.84903E+01 4.32925E+01 3.66056E+02-1.09919E+01 9.58256E+02
 -1      3889-3.10510E+04-1.00203E+00 3.03775E+01 1.13863E+02 4.19324E+00 1.12964E+03
 -1      3890-2.74813E+04 2.38953E+01-1.61500E+01 2.86174E+02-1.07039E+01 1.12743E+03
 -1      3891 3.23004E+04 2.93382E+01-1.90450E+00 1.15220E+02 2.53399E+01 1.15752E+03
 -1      3892 2.00949E+04 1.04111E+00-3.48692E+01 1.66182E+02-4.68502E+00 2.17467E+03
 -1      3893-1.80419E+04-9.23948E+00 3.33622E+01 2.82775E+02-8.09754E+00 1.12455E+03
 -1      3894-1.90880E+04-2.41676E+01 1.37942E+01 2.81527E+02 2.62087E+01 1.13590E+03
 -1      3895-9.52219E+03 7.74657E+00 1.41774E+01 2.21984E+02-1.59616E+01 2.09349E+03
 -1      3896-1.82372E+04 2.42156E+01 7.26898E+00 4.59826E+02-6.95342E-01 1.07291E+03
 -1      3897 4.16787E+04-3.31878E+00 1.45349E+01 1.19160E+02 1.34907E+01 1.22476E+03
 -1      3898 3.77443E+04 2.64920E+01-4.17798E+00 3.04252E+02 7.84099E-01 1.19898E+03
 -1      3899-4.41642E+02-2.06425E+01 2.38263E+00 2.51064E+02 1.51185E+00 1.48013E+03
 -1      3900-2.57073E+03-1.42930E+01 7.97082E+00 1.50644E+02-1.50736E+01 1.61303E+03
 -1      3901-6.25659E+03-1.02721E+00 9.84951E+00 2.79463E+02-7.79685E+00 8.21394E+02
 -1      3902 2.57206E+03 8.33106E+00-1.21571E+01 1.50087E+02 1.81670E+01 1.60996E+03
 -1      3903 3.14448E+03-2.35964E+01-3.03286E+01 2.58119E+02-3.14919E+01 1.39409E+03
 -1      3904 6.25978E+03-5.47647E-02-5.53617E+00 2.79123E+02 7.06447E+00 8.19450E+02
 -1      3905-4.69751E+04 5.01896E+01-3.02993E+01 4.76170E+02 3.07518E+01 1.34354E+03
 -1      3906 1.20465E+04 3.40741E+00 4.98393E+00 2.25738E+02 2.45924E+00 1.01477E+03
 -1      3907 1.31227E+04 2.51866E+01 1.08751E+01 2.66778E+02-4.67645E+00 1.03713E+03
 -1      3908 1.25725E+04-2.76809E+00 1.55014E-01 4.04856E+02-3.82364E+00 1.09868E+03
 -1      3909 6.23499E+03 8.92769E+00-5.72420E+00 2.33704E+02-1.83115E+01 1.92673E+03
 -1      3910 1.16118E+04-3.06250E+01 1.49397E+01 3.92847E+02-1.52644E+01 1.07019E+03
 -1      3911-4.67236E+03 1.40713E+01 3.95945E+01 1.82488E+02-4.56145E+00 1.72969E+03
 -1      3912-5.48022E+03 1.14527E+00 5.44772E+00 1.99216E+02 1.28602E+01 1.73615E+03
 -1      3913 3.94880E+04-1.56036E+01 1.89736E+01 5.36796E+02-3.31796E+00 1.37503E+03
 -1      3914 1.87333E+04 3.51577E+00-1.94138E+01 4.79176E+02-1.83788E+01 2.41321E+03
 -1      3915-7.59796E+03-1.97400E+01-2.07794E+00 2.21650E+02 1.40393E+01 2.04871E+03
 -1      3916-7.66300E+03-5.89063E+00 4.83672E+01 2.11812E+02-8.42045E+00 1.90151E+03
 -1      3917 1.05980E+04-3.66610E+01-3.75812E+01 3.98885E+02 3.95451E+01 2.13617E+03
 -1      3918 1.94088E+04-9.64901E+00-1.23327E+01 4.62743E+02-1.02433E+01 1.22785E+03
 -1      3919-9.44866E+03-1.04776E+01 1.24593E+01 3.76341E+02-2.35897E-01 9.18681E+02
 -1      3920-1.03157E+04 1.24436E+01-6.80227E+00 3.69832E+02 2.31762E+00 9.07750E+02
 -1      3921-1.05334E+04 4.07554E+01 3.11001E+01 4.06688E+02-3.85147E+01 2.14088E+03
 -1      3922-1.94220E+04-4.82717E+00 1.35487E+01 4.49756E+02 2.36965E+00 1.25991E+03
 -1      3923-1.47804E+04 1.35156E+01 4.55084E+00 4.47760E+02 1.21950E+01 1.10595E+03
 -1      3924-1.47387E+04-1.09805E+01 5.34965E+01 4.19651E+02 3.13446E+00 9.40686E+02
 -1      3925 3.08738E+04 2.00209E+00-2.80167E+01 1.13543E+02-4.44497E+00 1.14506E+03
 -1      3926 2.74568E+04-2.11239E+01 1.12736E+00 2.95283E+02 1.04914E+01 1.12056E+03
 -1      3927-2.47642E+03 4.59746E+01-9.11180E+00 3.73583E+02 1.77022E+00 2.29742E+03
 -1      3928 1.33113E+03 4.23700E+01 7.52814E+00 2.15893E+02-1.18910E+01 2.50577E+03
 -1      3929 2.96331E+03 2.47903E+01 1.47831E+01 2.36191E+02-7.08516E+00 2.80921E+03
 -1      3930 1.09482E+04-5.51501E+00 4.00413E+00 3.87658E+02-3.49520E+00 1.05565E+03
 -1      3931 4.92485E+03 1.04890E+01-4.51866E+01 3.40814E+02-1.54344E+01 1.76945E+03
 -1      3932 2.49979E+03-5.00528E+01-2.48163E+00 3.63935E+02 5.56440E+00 2.28288E+03
 -1      3933-1.32793E+03-2.99330E+01 4.23402E+00 2.08733E+02 1.58195E+01 2.50916E+03
 -1      3934 6.55517E+04 2.44670E+02-2.31333E+02 1.42501E+02-1.31147E+02 9.27432E+02
 -1      3935 3.78356E+04 1.74951E+01-1.50038E+02-1.79871E+01-2.69905E+02 2.36350E+03
 -1      3936 4.39347E+02-1.45785E+01-3.15748E+01 1.93987E+01 2.28773E+00 2.00375E+02
 -1      3937 4.66111E+02-2.13169E+00-3.44504E+01 3.41926E+01 1.08336E+01 4.39367E+02
 -1      3938 6.41102E+04 4.15205E+01-7.77936E+01-8.20311E+01-7.10961E+01 1.06573E+03
 -1      3939 5.37986E+04 4.28161E+01-4.77298E+00 1.48986E+02-1.80467E+02 1.49754E+03
 -1      3940-2.17957E+04 8.06875E+00-2.20210E+01 3.66200E+02-7.57622E+01 2.48611E+03
 -1      3941-2.20268E+04-1.25304E-01 3.22157E+01 3.11096E+02-4.21561E+01 2.39426E+03
 -1      3942 7.11067E+02-7.60689E+00-2.47605E+01 2.24407E+01 6.85725E+00 2.32111E+02
 -1      3943 5.73874E+02-1.47090E+01-2.38530E+01 6.49826E+01 4.86013E+00 2.55204E+02
 -1      3944 3.82972E+03-1.86537E+01-5.51424E+00 2.17780E+02-5.96183E+00 2.70331E+03
 -1      3945 2.03964E+03 1.36303E+01-2.47816E+01 2.39366E+02-7.28517E+00 2.76189E+03
 -1      3946-5.64950E+03 3.83552E+01-2.11120E+01 4.03512E+02 3.24135E+01 2.48831E+03
 -1      3947-1.61176E+04 3.44397E+01 1.21393E+01 1.96374E+02 4.72660E+00 2.69622E+03
 -1      3948-3.76454E+03-2.91176E+01-4.64519E+01 3.89928E+02 4.71472E+00 2.50442E+03
 -1      3949 4.26442E+03-8.37862E+00-2.37115E+01 5.80659E+01 1.22598E+00 5.32283E+02
 -1      3950-4.26287E+03 7.60034E+00 2.45818E+01 5.91760E+01-1.55693E+00 5.31153E+02
 -1      3951 4.05319E+03 2.62434E+01 1.90218E+01 2.23108E+02-5.38565E+00 2.68631E+03
 -1      3952 9.43579E+01 3.65398E+01-1.62482E+01 3.96437E+02-3.84643E+01 2.45427E+03
 -1      3953-1.18469E+04 1.69667E+01-2.86738E+01 2.36428E+02 3.33131E+00 2.71166E+03
 -1      3954-1.58400E+04-1.51039E+01 7.28826E+00 1.96723E+02 3.66842E+00 2.68050E+03
 -1      3955 1.58349E+04 1.59355E+01-9.12175E+00 1.97497E+02-2.73874E+00 2.67974E+03
 -1      3956 1.18717E+04-1.82756E+01 3.97051E+01 2.39055E+02-3.80134E+00 2.71085E+03
 -1      3957-3.82581E+01-3.81483E+01 1.49198E+01 3.96209E+02 3.90885E+01 2.45302E+03
 -1      3958-4.02454E+03-2.65210E+01-1.72924E+01 2.21311E+02 3.73270E+00 2.68711E+03
 -1      3959 3.78884E+03 2.70714E+01 4.41634E+01 3.89435E+02-5.05049E+00 2.50460E+03
 -1      3960-3.09418E+04 2.48139E+01-4.77372E+00 5.08701E+02-5.74489E+00 1.35544E+03
 -1      3961-1.82793E+04-2.38160E+01 6.55547E+00 4.43412E+02-5.87134E+00 2.28306E+03
 -1      3962-3.64051E+04-1.30925E+01 2.51905E+01 4.41967E+02 9.47496E+00 1.18558E+03
 -1      3963-3.23879E+04-9.86911E+00 1.27540E+01 5.29645E+02 2.05173E+01 1.18676E+03
 -1      3964-1.98528E+04-7.89517E+00 9.43747E-01 4.39024E+02 3.17849E+01 2.21750E+03
 -1      3965-3.49792E+04 2.06199E+01 1.56555E-01 4.25792E+02 1.77060E+01 1.18367E+03
 -1      3966-3.07154E+04-2.24647E+01 2.28166E+01 4.59477E+02-5.83149E+00 1.33179E+03
 -1      3967-3.09903E+04 1.93647E+01-4.00160E+00 5.03739E+02 5.72939E+00 1.18310E+03
 -1      3968-1.57436E+04 1.62630E+01 2.18502E+01 4.28299E+02-1.53313E+01 2.25084E+03
 -1      3969 1.61115E+04-3.47256E+01-1.06482E+01 1.96589E+02-3.08603E+00 2.69601E+03
 -1      3970 5.72909E+03-3.94258E+01 2.05336E+01 4.02524E+02-3.32180E+01 2.48682E+03
 -1      3971-1.95622E+03-1.25322E+01 3.99789E+01 2.35578E+02 8.35452E+00 2.76418E+03
 -1      3972-3.79986E+03 1.99496E+01 3.40468E+00 2.15370E+02 4.65419E+00 2.70451E+03
 -1      3973-4.30868E+04 2.65477E+01-2.70807E+01 6.69914E+02-8.08400E+01 1.40243E+03
 -1      3974-4.32403E+04-1.01006E+00 2.96847E+01 5.70610E+02-1.52932E+01 1.27767E+03
 -1      3975 3.07315E+04 3.43444E+01-1.62708E+01 4.58059E+02 5.55250E+00 1.32915E+03
 -1      3976 1.58020E+04-1.60476E+01-2.04663E+01 4.26222E+02 1.58801E+01 2.24894E+03
 -1      3977 3.10090E+04-1.85049E+01 3.38154E+00 5.04062E+02-7.11127E+00 1.17986E+03
 -1      3978 3.49639E+04-2.31461E+01 1.69935E-01 4.27384E+02-1.68103E+01 1.18439E+03
 -1      3979 1.98781E+04 4.69381E+00-3.08566E+00 4.38846E+02-3.19966E+01 2.21607E+03
 -1      3980-2.00300E+03 5.73346E+01 8.74213E+01 1.91443E+02 5.60614E+00 2.14938E+03
 -1      3981-1.50627E+02-2.27480E+01-1.35322E+01 7.24281E+01 5.94303E+00 8.73112E+02
 -1      3982-1.66321E+03 2.10425E+01 5.82708E+01 1.69842E+02 1.48420E+01 3.87333E+02
 -1      3983-8.17105E+02 9.48196E+00 4.44673E+01 1.33074E+02 7.88127E+00 6.78238E+02
 -1      3984 3.24081E+04 5.66641E+00-1.28516E+01 5.29721E+02-2.07485E+01 1.18340E+03
 -1      3985 3.10129E+04-8.91265E+00 1.06757E+01 5.07108E+02 5.13064E+00 1.35061E+03
 -1      3986 3.63904E+04 1.48839E+01-2.60571E+01 4.42902E+02-7.45855E+00 1.18635E+03
 -1      3987 1.83594E+04 2.23289E+01-5.18949E+00 4.40863E+02 4.52857E+00 2.28024E+03
 -1      3988 9.75580E+02 1.06430E+00-2.26178E+01 2.72766E+01 3.65429E+00 2.91450E+02
 -1      3989 6.31707E+04-2.84657E+01-4.39411E+01-1.41100E+01-2.03270E+01 1.18950E+03
 -1      3990 1.13768E+03-1.53274E+00-2.60510E+01 8.61362E+01 4.52222E-01 3.89999E+02
 -1      3991-4.59655E+03-5.59166E+01-1.03557E+02 2.44428E+02-7.35369E+00 2.77746E+03
 -1      3992 3.83722E+04-5.45448E+01-2.62632E+01 3.41013E+02-1.45823E+00 1.30001E+03
 -1      3993 1.79614E+04 3.53109E+00 3.51571E+01 2.83122E+02-1.03584E+01 2.47268E+03
 -1      3994 3.71693E+04-4.81610E+00-2.78572E+01 3.21131E+02 1.17688E+01 1.29777E+03
 -1      3995 3.62412E+04-4.88847E+00 1.13367E+01 5.29233E+02-2.51391E+01 1.38486E+03
 -1      3996 2.51639E+03 2.76923E+01-1.86090E+01 1.31560E+02 6.72963E+00 5.39606E+02
 -1      3997 6.84020E+02 2.47656E+01 9.34983E+00 1.67185E+02-8.87617E+00 2.08090E+03
 -1      3998-1.25887E+02 8.77192E+00 1.57157E+01 6.71472E+01-1.35362E+01 4.18979E+02
 -1      3999-4.24651E+04 4.18527E+01 8.85370E+01 5.28519E+02 4.70378E+01 1.29128E+03
 -1      4000 9.99853E+03 4.37030E+00-2.95369E+01 2.27990E+02 2.16197E+00 9.31564E+02
 -1      4001 4.77105E+03 5.48655E+00-5.25934E+00 1.98625E+02-1.59410E+01 1.83439E+03
 -1      4002 9.79168E+03 7.76539E+00-1.42634E+01 3.77953E+02-2.19794E+01 1.04581E+03
 -1      4003 1.01956E+04 1.45691E+01 1.62670E+00 3.73258E+02 2.89259E+00 8.69933E+02
 -1      4004 5.30873E+03 3.48243E+00-2.70528E+01 1.86447E+02 1.45107E+01 1.71081E+03
 -1      4005 4.24578E+04-5.76550E+00-3.76904E+01 3.62258E+02-1.42753E+01 1.32357E+03
 -1      4006 8.28281E+03-4.17695E+01-6.18656E+01 5.22674E+02 3.41109E+00 2.59179E+03
 -1      4007 2.41513E+04 4.52135E+03 2.76051E+03 4.97254E+02-7.17296E+02 2.75494E+03
 -1      4008 8.32607E+03 1.73080E+01-6.33129E+00 3.30658E+02-7.37548E+00 7.66496E+02
 -1      4009 3.99497E+03 5.88706E+00-2.17392E+01 2.94592E+02-9.70057E-01 1.53637E+03
 -1      4010 8.41004E+03-3.37159E+01-2.62754E+01 3.29684E+02 1.51322E+00 8.81201E+02
 -1      4011 9.25560E+03-4.78702E+00-2.29614E+01 2.87720E+02 5.52003E+00 7.70611E+02
 -1      4012 4.94460E+03-7.17082E+00-1.50796E+01 2.92340E+02 4.03070E+00 1.48606E+03
 -1      4013 4.88236E+03 1.49337E+00-2.26050E+01 2.88174E+02-8.28315E+00 1.40138E+03
 -1      4014-1.52901E+02 7.71525E+00 4.29319E+01 1.41202E+01-5.18176E+00 2.18552E+02
 -1      4015-2.77236E+02 7.07408E+00 4.26747E+01 2.85647E+01-8.98438E+00 2.85547E+02
 -1      4016-1.62290E+03 3.90158E+01 4.68464E+01 2.19448E+02-1.12752E+01 1.44931E+03
 -1      4017 1.62027E+03-4.07117E+01-5.23896E+01 2.17331E+02 1.11034E+01 1.44368E+03
 -1      4018 2.12707E+03-2.22854E+01-7.09105E+01 3.65546E+02-3.67731E+00 1.89022E+03
 -1      4019-3.85155E+03 4.32465E+01 4.83065E+01 4.66351E+02 1.04385E+01 2.30298E+03
 -1      4020 3.87610E+03-3.41776E+01-4.04061E+01 4.67337E+02-9.80513E+00 2.31503E+03
 -1      4021 1.08160E+04-4.14292E+01-4.06248E+01 2.27053E+02-6.03257E+00 9.24858E+02
 -1      4022 1.07398E+04 3.56727E+01 1.16057E+01 3.83583E+02 6.75737E+00 1.08910E+03
 -1      4023 1.99078E+04 7.92547E+00 4.02810E+00 2.61818E+02 2.79195E+01 2.41487E+03
 -1      4024 3.80095E+04 1.03972E+01 2.55284E+01 5.27507E+02 6.47058E+00 1.23372E+03
 -1      4025 9.06180E+02 2.33557E+01 1.17839E-01 1.51614E+02-5.05502E+00 1.81764E+03
 -1      4026 9.39271E+02-4.06928E+00-2.21919E+01 1.37673E+02-5.56523E+00 1.76488E+03
 -1      4027-4.06841E+03 2.01988E+01 1.71876E+01 1.36108E+02-1.25763E+00 1.77922E+03
 -1      4028-9.69656E+02-1.39290E+01-2.63668E+01 2.51148E+02-9.18341E+00 1.60160E+03
 -1      4029-1.04117E+03 2.67530E+01 6.53563E+00 2.68638E+02 1.47864E+01 1.64191E+03
 -1      4030 1.14452E+04 1.13817E+01-1.93408E+01 2.52062E+02-9.38205E+00 9.98114E+02
 -1      4031 5.12135E+03-8.90145E+00-2.27517E+01 2.06194E+02-8.99354E+00 1.88185E+03
 -1      4032-1.41326E+03 1.55370E+01 1.89584E+01 1.31622E+02-7.41408E+00 3.93089E+02
 -1      4033 1.36987E+04 4.12942E+01-1.71774E+00 2.64979E+02 6.30193E+00 1.04781E+03
 -1      4034-6.28819E+04-1.90947E+01 1.86783E+00-7.47750E+00 5.85295E+01 1.12439E+03
 -1      4035 1.05744E+03 1.86013E+01-3.31690E+00 1.33669E+02-7.05987E+00 1.69814E+03
 -1      4036 1.48894E+02 3.91499E+01 1.12762E+01 2.43839E+02-2.65266E+01 1.51565E+03
 -1      4037-2.69671E+03 1.97541E+01 5.84654E+00 1.57759E+02 4.98656E-01 1.67855E+03
 -1      4038-3.89081E+03-1.13785E+01 1.43332E+01 1.25451E+02 3.77170E-02 1.70412E+03
 -1      4039 8.08205E+03-1.10532E+00 4.61460E+01 4.50203E+02-1.22079E+00 2.49025E+03
 -1      4040 6.26870E+03-8.01470E+00-7.57578E+01 4.63225E+02 2.10627E+01 2.47843E+03
 -1      4041-1.17857E+04 1.93942E+01 5.71816E+01 4.24452E+02-3.98612E-01 2.49100E+03
 -1      4042 1.17680E+04-2.09492E+01-5.77173E+01 4.24747E+02-2.99239E-01 2.49038E+03
 -1      4043 7.97513E+03 3.47099E+01 7.65356E+01 4.02660E+02 2.92950E+01 2.43945E+03
 -1      4044-8.06446E+03-6.96946E-01-4.70139E+01 4.49853E+02 2.00926E+00 2.49178E+03
 -1      4045-7.96025E+03-3.57982E+01-7.68096E+01 4.04327E+02-3.02438E+01 2.44132E+03
 -1      4046-6.19682E+03 6.66806E+00 7.60047E+01 4.64655E+02-1.94587E+01 2.47857E+03
 -1      4047 2.38493E+02 2.48020E+00-2.63586E+01 2.69777E+02-1.33056E+01 1.66698E+03
 -1      4048-9.76947E+02 1.42729E+01 8.08970E+00 1.43899E+02-4.81717E-01 1.78525E+03
 -1      4049 3.63669E+03 1.08112E+01-3.14328E+01 1.62809E+02 9.11255E+00 1.85893E+03
 -1      4050 5.48220E+03 4.41903E+01 2.43236E+01 2.45348E+02 1.17757E+01 1.56348E+03
 -1      4051 4.03803E+03-1.81500E+01-1.90949E-01 1.30294E+02 1.05322E+01 1.76369E+03
 -1      4052 1.84671E+04-4.15058E+01 8.50558E+00 1.00226E+02 5.08796E+00 1.00027E+03
 -1      4053-1.15812E+04-2.70009E+01 3.77710E+01 2.38377E+02-2.54973E+00 9.84077E+02
 -1      4054-2.52194E+04 2.57467E+01-1.05587E+01 3.97063E+02-2.62295E+00 1.10077E+03
 -1      4055-1.23014E+04 2.57799E+01 4.36001E+01 3.98450E+02 1.29762E+00 2.08655E+03
 -1      4056-2.07144E+04-1.55241E+01-3.85999E+00 4.53139E+02-4.45560E+00 1.25671E+03
 -1      4057-2.30153E+04 1.22972E+01-6.82616E+00 4.82316E+02-1.29371E+01 1.11657E+03
 -1      4058-9.98156E+03 3.78039E+01 5.33755E+01 4.26477E+02 5.64421E+00 2.21327E+03
 -1      4059 4.24843E+03-1.09665E+01-2.77545E+01 3.25271E+02 3.61113E+01 2.27045E+03
 -1      4060 1.13243E+04 2.48648E+01-2.95411E+01 1.87927E+02 6.35286E+00 2.49279E+03
 -1      4061-1.11429E+03 2.20620E+01 4.00562E+00 2.01721E+02-2.23717E+00 2.53295E+03
 -1      4062-3.12774E+03-1.55594E+01 1.48629E+01 2.06734E+02-6.07038E+00 2.51958E+03
 -1      4063 5.60995E+04 1.39004E+00-4.49176E+01 1.23972E+02-1.31504E+01 1.28166E+03
 -1      4064 7.38625E+03-1.73395E+01-2.99531E+01 3.19812E+02-1.07812E+00 7.47920E+02
 -1      4065 8.36546E+03-2.58659E+01-1.56392E+01 2.74354E+02-3.56802E+00 7.57844E+02
 -1      4066 7.10048E+03 7.05690E+00-7.44101E+00 2.90399E+02-2.64982E+00 8.37938E+02
 -1      4067 3.70040E+03-9.16963E+00-5.06876E+01 2.63154E+02-2.82063E+00 1.40598E+03
 -1      4068 4.51557E+03 2.65937E+00-3.52425E+01 3.13326E+02-1.72146E+01 1.61633E+03
 -1      4069 8.96292E+03-1.88324E+01-5.44924E+00 3.06511E+02 1.66376E+00 9.15740E+02
 -1      4070 5.49077E+03-7.85899E+00-3.57206E+01 2.23876E+02-1.20414E+01 1.91092E+03
 -1      4071-8.60057E+03-1.37861E+01 2.10916E+01 3.37091E+02 1.90298E-01 7.84483E+02
 -1      4072-4.66481E+03-6.36828E-01 2.07707E+01 2.98247E+02 7.40273E+00 1.52173E+03
 -1      4073-8.99896E+03 2.58355E+01 7.63017E+00 3.15706E+02-2.22450E+00 9.16718E+02
 -1      4074-9.30610E+03-7.98466E-01 3.93762E+01 2.84041E+02-8.19361E+00 7.85189E+02
 -1      4075-5.51576E+03-2.88507E+01 7.92934E+00 2.46152E+02-1.16963E+01 1.58245E+03
 -1      4076-8.49830E+03-1.70354E+01-6.65526E+00 1.78707E+02-1.45556E+01 7.56305E+02
 -1      4077-6.30981E+03 1.72996E+00 3.55513E+01 1.11875E+02-6.82411E+00 1.42450E+03
 -1      4078-9.47264E+03-1.28929E+01-4.03027E+00 9.78194E+01-9.69872E+00 8.19267E+02
 -1      4079 7.49406E+03-9.29547E+00-1.36889E+01 1.15981E+02 9.22075E+00 1.52903E+03
 -1      4080 1.02570E+04-3.01161E+01-4.51735E+01 1.98984E+02 2.02274E+00 7.99219E+02
 -1      4081 1.03267E+04-2.16636E+01-4.71135E+01 9.86413E+01 2.64577E+00 8.34862E+02
 -1      4082-1.01965E+03-2.60237E+00 3.96408E+01 5.50845E+01-9.61188E+00 6.58866E+02
 -1      4083-8.14262E+02 8.63359E+00 5.20694E+01 3.56556E+01-1.88741E+00 5.49810E+02
 -1      4084-1.32418E+03 1.28859E+01 1.81188E+01 8.91481E+01-1.34007E+01 3.73227E+02
 -1      4085-1.08674E+03 7.38291E+00 2.71724E+01 7.84471E+01-3.10119E+00 2.68415E+02
 -1      4086-6.91529E+03 3.68536E+00 3.28766E+01 1.15164E+02-1.05454E+01 1.51496E+03
 -1      4087-9.37964E+03 8.85244E+00 1.34702E+01 1.95312E+02-8.07491E+00 7.74733E+02
 -1      4088 6.87030E+03-2.71221E+00-3.26705E+01 1.14076E+02 5.36483E+00 1.50614E+03
 -1      4089 9.30619E+03-1.32173E+01-2.58885E+01 1.95999E+02 6.86647E+00 7.65804E+02
 -1      4090 1.41961E+04 4.18586E+01 1.54458E+01 1.36613E+02 5.81213E-01 1.02311E+03
 -1      4091 3.21914E+03-3.59642E+00-3.00553E+01 6.37298E+01 6.47018E+00 5.49675E+02
 -1      4092-3.21888E+03 2.57817E+00 3.07193E+01 6.39222E+01-6.23901E+00 5.50473E+02
 -1      4093 1.75840E+04-3.15047E+01-9.56208E+00 1.45018E+02 1.95962E+00 1.09777E+03
 -1      4094 1.67356E+03 7.43447E+00-1.55450E+01 5.30884E+01 6.93039E+00 4.06366E+02
 -1      4095-1.32703E+03 4.54714E+00 2.87710E+01 3.38549E+01-7.18423E+00 3.06425E+02
 -1      4096-1.64850E+03 3.72698E+00 1.61950E+01 5.13217E+01-5.43585E+00 4.10886E+02
 -1      4097 4.98469E+04 3.99478E+01 6.51207E+00 1.78185E+02-3.44988E+00 1.39618E+03
 -1      4098-1.12735E+04 5.21518E-01 3.06529E+01 2.42108E+02-3.02210E+00 2.15726E+03
 -1      4099-2.10465E+04-4.55622E+01-3.73297E+01 4.82717E+02 1.52660E+01 1.11499E+03
 -1      4100-2.00833E+04-1.24323E+01-1.79345E+01 2.85227E+02 3.85093E+00 1.21869E+03
 -1      4101-1.50705E+04 1.82600E+01 3.28120E+01 2.08709E+02-1.60972E+01 2.70161E+03
 -1      4102-2.26683E+04-8.45153E+00 2.72057E+01 3.58471E+02-1.65544E+01 2.29777E+03
 -1      4103-1.18019E+04-2.47500E+00 1.26670E+01 2.33008E+02 4.39881E+00 2.20901E+03
 -1      4104-2.20921E+04-5.30666E+00 3.06655E+00 4.93755E+02 1.51865E+00 1.13002E+03
 -1      4105-4.98427E+04-4.42509E+01-2.86331E+01 1.81387E+02 5.36602E+00 1.40162E+03
 -1      4106 5.42681E+04-4.36198E+01-2.89537E+01 1.60457E+02-2.49709E+01 1.40084E+03
 -1      4107 3.14668E+03 2.19054E+01 7.12827E+00 2.60106E+02 1.79408E+01 2.75389E+03
 -1      4108 1.85234E+04-2.97049E+01-3.31611E+00 4.66118E+02 2.41224E+01 2.33408E+03
 -1      4109 9.40196E+03 1.75852E+00-2.22837E+01 3.40974E+02-1.00075E+01 9.00332E+02
 -1      4110 4.68572E+03-1.65212E+01-2.51738E+01 3.23406E+02 1.45080E+01 1.62213E+03
 -1      4111-1.90269E+03 5.32175E+00 1.46617E+01 9.76836E+01-3.94183E+00 1.35353E+03
 -1      4112-3.12977E+03 2.78818E+01 3.86012E+01 1.72967E+02 9.27972E+00 1.15653E+03
 -1      4113-4.76858E+03 8.41370E+00 3.61832E+01 2.34607E+02-1.87744E+01 6.34487E+02
 -1      4114 1.90283E+03-8.48284E+00-1.62546E+01 9.93133E+01 3.82000E+00 1.35423E+03
 -1      4115 3.12955E+03-2.90852E+01-3.89249E+01 1.72846E+02-9.28423E+00 1.15651E+03
 -1      4116 4.76543E+03-1.15482E+01-3.84577E+01 2.35463E+02 1.71010E+01 6.35827E+02
 -1      4117-9.38929E+02-2.95007E+00 1.16451E+01 1.65328E+02 1.02014E+01 1.83920E+03
 -1      4118-4.28288E+03-2.24784E+01 4.69712E+01 3.14462E+02 1.17279E+01 1.57573E+03
 -1      4119 7.17628E+02-7.30059E+00-2.32377E+01 1.72803E+02-5.74175E-01 1.87920E+03
 -1      4120-5.42349E+02-2.84870E+01-7.96164E+00 2.83491E+02 1.18583E+01 1.71914E+03
 -1      4121-8.70268E+03 1.51348E+01 2.15051E+01 3.38144E+02-1.14738E+01 8.90686E+02
 -1      4122-2.44133E+03-2.96183E+01-2.00374E+01 2.35714E+02-2.67120E+01 2.65799E+03
 -1      4123-1.43867E+04 1.86843E+01-1.44020E+01 4.46006E+02-8.47617E+00 2.27563E+03
 -1      4124 2.42879E+03 2.90849E+01 2.37345E+01 2.35714E+02 2.59215E+01 2.65745E+03
 -1      4125 1.44074E+04-1.83652E+01 1.59558E+01 4.46707E+02 8.91175E+00 2.27380E+03
 -1      4126 2.00949E+03 1.41590E+00 2.27727E+01 2.91216E+02 3.48081E-01 1.58757E+03
 -1      4127 1.96522E+03 9.75871E+00-3.48288E+01 3.01000E+02 8.48107E+00 1.60773E+03
 -1      4128 1.51124E+04-1.89622E+01-2.87211E+01 2.08768E+02 1.77371E+01 2.70178E+03
 -1      4129 2.27099E+04 9.54055E+00-2.53313E+01 3.59400E+02 1.60333E+01 2.29663E+03
 -1      4130-3.54843E+04 1.84158E+01-2.39477E+01 4.52587E+02 3.30558E+01 1.27021E+03
 -1      4131-2.92220E+04 4.63567E-01 4.35680E+01 4.88224E+02 3.71754E+01 1.24714E+03
 -1      4132 4.98641E+02 1.84735E+01-2.68374E+00 1.36273E+02 1.80433E+01 1.63762E+03
 -1      4133 3.34770E+03-7.09741E+00-3.02036E+01 2.70929E+02 2.55057E+00 1.40762E+03
 -1      4134 6.69379E+03-9.90884E+00-4.88098E+01 3.05927E+02-2.41207E+01 7.61585E+02
 -1      4135 1.76008E+04-4.50645E+00-3.94153E+01 4.17899E+02-2.95259E+01 1.11632E+03
 -1      4136 8.69736E+03-2.89388E+01-8.41782E+00 4.02605E+02 1.73313E+01 1.99240E+03
 -1      4137-1.75837E+04-9.78779E+00 1.40894E+01 4.19017E+02 1.58668E+01 1.12253E+03
 -1      4138-8.69972E+03 2.84185E+01 2.62843E+00 4.12688E+02-1.68048E+01 2.00659E+03
 -1      4139 3.98849E+04-2.07169E+00-1.71248E+01 4.42091E+02 7.18617E+01 1.44120E+03
 -1      4140 1.39006E+03 5.29832E+00-6.22499E+00 2.19684E+02 9.82864E+00 2.33475E+03
 -1      4141-1.39714E+03 6.42302E+00 1.58093E+01 2.23414E+02 3.72158E+00 2.33359E+03
 -1      4142-4.31591E+04 3.90003E+00-2.67701E+00 3.65997E+02-1.22892E+01 1.25655E+03
 -1      4143-4.03618E+04-1.67901E+01-4.28609E+01 4.49301E+02-8.49528E+01 1.43960E+03
 -1      4144 3.75302E+04-6.67305E+00-5.68835E+01 5.00957E+02-4.06146E+01 1.31064E+03
 -1      4145-3.12678E+04 3.39321E+01 1.37305E+01 1.70490E+02-9.22441E-02 1.29961E+03
 -1      4146 4.62781E+03 1.57285E+00-1.56199E+01 7.88591E+01 4.69984E+00 6.53739E+02
 -1      4147-4.62776E+03-1.66625E+00 1.61745E+01 7.91643E+01-5.11070E+00 6.52722E+02
 -1      4148 5.16962E+03 2.42811E+01-2.05647E+01 1.78347E+02-3.63590E+00 8.05183E+02
 -1      4149 7.32161E+03 8.85532E+00-1.42947E+01 1.97324E+02-3.43446E+00 8.04075E+02
 -1      4150 7.36398E+03-4.42619E+00-4.14262E+00 2.19662E+02-2.44154E+00 9.49703E+02
 -1      4151 3.89370E+03 6.49107E+00-2.25005E+01 1.70883E+02-7.63503E+00 1.60156E+03
 -1      4152 7.49872E+03-9.23045E+00-1.43432E+01 3.49115E+02-1.03188E+01 8.72198E+02
 -1      4153-5.16763E+03-2.44332E+01 1.71047E+01 1.75996E+02-2.46101E-01 8.03600E+02
 -1      4154-9.97447E+03 4.27344E+00 1.23362E+01 2.16481E+02-3.09436E-01 9.05122E+02
 -1      4155-8.30761E+03-7.60766E+00 2.70185E+01 2.29840E+02 4.28805E+00 9.90176E+02
 -1      4156-3.13229E+04-2.76937E+01-1.74678E+01 3.05438E+02 9.32695E+00 1.40778E+03
 -1      4157 1.42526E+04 9.12055E+00-6.10368E+00 2.71671E+02-5.67475E+00 1.18856E+03
 -1      4158-4.13693E+04 4.08720E+01 1.11326E+01 1.79197E+02-2.50788E+00 1.37030E+03
 -1      4159-2.41736E+04-4.16292E+01 9.58278E+00 2.98258E+02-1.18247E+00 1.35232E+03
 -1      4160-2.32747E+04 9.00476E+00 4.97930E+01 4.05492E+02-2.52341E+01 1.15822E+03
 -1      4161-1.49237E+04 5.63239E+01 5.05235E+01 3.25633E+02 2.06019E+01 2.07639E+03
 -1      4162-1.46313E+04 7.41531E-01 1.59598E+01 2.50331E+02 7.96839E+00 1.03276E+03
 -1      4163-1.42297E+04 5.11783E+00-7.18390E+00 2.81587E+02 1.33490E+00 1.20452E+03
 -1      4164-2.17494E+04-1.17602E+00 3.01768E+00 2.84025E+02 2.27137E+00 1.15868E+03
 -1      4165 2.91993E+04 2.04068E+00-4.33570E+01 4.89858E+02-3.82796E+01 1.24563E+03
 -1      4166 3.12726E+04-3.80212E+01-1.55485E+01 1.71943E+02 3.45024E+00 1.30025E+03
 -1      4167-9.65485E+03-6.29352E+00 4.89236E+00 1.94689E+02 1.18450E+01 2.47638E+03
 -1      4168 9.52621E+03 6.19435E+00-9.16689E-01 2.00866E+02-2.42855E+01 2.47188E+03
 -1      4169 1.49428E+04-4.25984E+01-3.74829E+01 3.01639E+02-2.19932E+01 2.08146E+03
 -1      4170-5.43306E+04 1.09469E+01 1.53973E+01 1.47373E+02 1.04824E+01 1.40164E+03
 -1      4171 3.55169E+04-1.35271E+01 2.52591E+01 4.54434E+02-3.12438E+01 1.26820E+03
 -1      4172 2.32460E+04-1.24239E+01-3.88886E+01 4.08388E+02 3.23456E+01 1.17091E+03
 -1      4173 2.41623E+04 4.11486E+01-9.68326E+00 2.96533E+02 2.06137E+00 1.35172E+03
 -1      4174 3.13383E+04 3.83137E+01-5.66697E+00 3.11232E+02-6.77824E+00 1.40730E+03
 -1      4175 2.48906E+04 3.37273E+01-2.12568E+00 1.59894E+02 5.09716E+00 1.23046E+03
 -1      4176 4.14169E+04-4.21252E+01-1.01958E+01 1.79824E+02 1.66830E+00 1.36765E+03
 -1      4177-2.48776E+04-3.33461E+01 2.52668E-01 1.58895E+02 8.51039E-01 1.23058E+03
 -1      4178 3.41781E+03 9.73660E+00-4.11786E+01 9.05989E+01-4.68907E+00 1.16488E+03
 -1      4179 4.76621E+03-3.09164E+00-1.68099E+01 1.66077E+02 6.33448E+00 6.22726E+02
 -1      4180-4.76814E+03 3.70337E+00 1.64488E+01 1.66282E+02-7.44146E+00 6.22061E+02
 -1      4181 4.21463E+03 1.06206E+01-2.95387E+01 1.78939E+02 5.09587E+00 1.65777E+03
 -1      4182-3.41811E+03-1.04603E+01 4.04206E+01 9.03805E+01 4.73656E+00 1.16487E+03
 -1      4183 8.41584E+03 1.42414E+01 2.48882E+00 3.54106E+02-3.00798E+00 8.95714E+02
 -1      4184 5.98621E+03 2.44901E+01-3.52708E+01 3.06846E+02-9.03284E+00 7.61679E+02
 -1      4185 2.93464E+03 2.23653E+01-5.52059E+01 1.57556E+02 1.83381E+01 1.42187E+03
 -1      4186-4.36474E+03 2.36139E+00 1.13682E+01 1.85176E+02 1.98302E+01 1.67915E+03
 -1      4187-8.47638E+03 2.20504E+01 2.72259E+01 3.56110E+02 2.58831E+00 9.10284E+02
 -1      4188 7.95623E+03 2.52622E+01-3.42431E+01 2.30062E+02 1.94103E+01 2.07073E+03
 -1      4189 1.59875E+04 2.03563E+01-1.56834E+01 4.35731E+02-1.23141E+01 1.11409E+03
 -1      4190-2.77116E+04 2.66281E+01-2.86772E+01 1.79955E+02-4.24023E+01 2.38772E+03
 -1      4191-3.81980E+04 3.09657E+01-1.19747E+01 3.33689E+02-7.04022E+00 1.28479E+03
 -1      4192-2.68247E+04-4.29694E+01 3.03465E+01 4.98284E+02 1.01520E+01 1.26613E+03
 -1      4193-1.33200E+04-3.26720E+01 5.70667E+01 2.68862E+02-3.78916E+01 2.35948E+03
 -1      4194-7.98012E+03-9.33033E+00 3.38653E+01 2.32417E+02-1.26587E+01 2.08424E+03
 -1      4195 1.72170E+04 3.74878E+01-4.83351E+01 2.79095E+02 3.62836E+01 2.45342E+03
 -1      4196 1.33096E+04 3.29752E+01-5.49955E+01 2.69215E+02 3.87966E+01 2.35922E+03
 -1      4197-1.59527E+04-2.78994E+01-7.18532E+00 4.43565E+02 4.89239E-01 1.12552E+03
 -1      4198 2.42487E+04 1.91408E+01-2.52966E+01 2.95413E+02 2.40623E+00 1.16321E+03
 -1      4199-1.03972E+04 7.57058E+00 1.43225E+01 8.48148E+01-5.97669E+00 7.91934E+02
 -1      4200 1.04047E+04-6.12481E+00-1.66069E+01 8.37781E+01 3.19116E+00 7.90651E+02
 -1      4201-3.65949E+03-2.80955E+01 7.72979E+00 1.57388E+02-9.61964E+00 1.85493E+03
 -1      4202-1.74758E+04-2.15233E+01 3.99404E+01 1.63554E+02 3.12952E+01 2.14598E+03
 -1      4203 2.77573E+04-2.71402E+01 2.99373E+01 1.80753E+02 4.15835E+01 2.38671E+03
 -1      4204 2.67872E+04 4.22882E+01-3.07439E+01 4.96629E+02-9.56970E+00 1.26617E+03
 -1      4205 3.82580E+04-3.08252E+01 1.26052E+01 3.33565E+02 5.56271E+00 1.28273E+03
 -1      4206 3.45403E+04 4.14077E+01-2.56764E+01 5.20116E+02-1.17367E+01 1.32698E+03
 -1      4207-2.42553E+04-1.49913E+01 2.60702E+01 2.94038E+02 2.03892E+00 1.16219E+03
 -1      4208 1.74339E+04 2.73650E+01-4.34241E+01 1.67860E+02-3.20632E+01 2.15052E+03
 -1      4209 8.53059E+01 2.05710E-01 2.15647E-01 5.22880E+02 1.32777E+00 2.62453E+03
 -1      4210 1.05512E+04-3.50646E+01-9.26068E+01 4.08103E+02-1.45599E+00 2.45688E+03
 -1      4211 1.90964E+01 8.96002E+00-1.72288E+01 4.01597E+02 3.15087E+00 2.73089E+03
 -1      4212-1.10316E+01-5.89009E+00 1.63675E+00 2.62371E+02 1.29449E-01 1.31949E+03
 -1      4213-1.43302E+03-1.06454E+01-1.78105E+01 2.02921E+02 6.63617E+00 1.26561E+03
 -1      4214 1.43134E+03 1.01924E+01 1.83889E+01 2.02678E+02-6.10422E+00 1.26351E+03
 -1      4215-4.23505E+00 7.56679E+00 2.25104E+01 2.86233E+02-5.41545E+00 1.76635E+03
 -1      4216 2.40875E+03 6.67738E+00-6.67114E+01 2.64809E+02-1.03576E+01 1.65025E+03
 -1      4217-2.36631E+03 4.13131E+01 3.94671E+01 2.67414E+02-8.09768E-01 1.64470E+03
 -1      4218-1.99059E+03 1.69048E+01 3.43210E+01 3.09291E+02-3.86832E+00 1.65031E+03
 -1      4219 2.12474E+03-3.53061E+00 5.54872E+00 3.21692E+02 1.33569E+01 1.73221E+03
 -1      4220 7.74870E+00 1.14378E+00-3.12176E+00 2.46832E+02-1.61066E+00 1.49406E+03
 -1      4221 1.50346E+03 1.58278E+00 3.38906E+01 2.79311E+02 6.93725E+00 1.51162E+03
 -1      4222 8.47632E+03 8.52164E-03 4.15948E+01 4.83157E+02 6.26459E+00 2.53315E+03
 -1      4223-1.05215E+04 3.28186E+01 9.17671E+01 4.07317E+02 1.75990E+00 2.45825E+03
 -1      4224-8.92600E-01-2.91712E+00-2.39140E+00 3.45196E+02-8.21337E-01 2.29519E+03
 -1      4225 3.98822E+03 7.01280E+00 4.23923E+01 4.19680E+02 7.42043E+00 2.16167E+03
 -1      4226-3.98868E+03-3.13547E+00-3.75576E+01 4.27512E+02-7.90329E+00 2.16689E+03
 -1      4227 5.61600E+03 6.84943E+00-1.85965E+01 6.68088E+01 7.23323E+00 6.13257E+02
 -1      4228 8.63322E+03 1.82075E+01-1.72368E+01 2.10280E+02-6.11057E+00 8.68921E+02
 -1      4229-5.61579E+03-6.34831E+00 1.84753E+01 6.69217E+01-7.89056E+00 6.13296E+02
 -1      4230 6.10520E+03 1.69824E+01-2.31534E+01 1.84139E+02-2.82166E+00 7.59999E+02
 -1      4231-8.56781E+03 1.56137E+01 1.18827E+01 2.08513E+02 3.08711E+00 8.67019E+02
 -1      4232-1.96688E+04-4.18530E+01 4.73897E+00 1.12860E+02 8.63773E+00 1.03803E+03
 -1      4233-4.43977E+04 2.71194E+01 6.05114E+00 1.40538E+02-4.47478E+00 1.25026E+03
 -1      4234 1.63254E+04 2.10516E+01-1.47309E+01 2.62864E+02-5.39260E+00 1.09239E+03
 -1      4235-2.73106E+04-2.62117E+01 1.32267E+01 2.98189E+02-7.02305E-04 1.25230E+03
 -1      4236 2.40948E+01 3.94218E-01-2.67387E-01 3.89909E+02-1.38117E+00 2.54284E+03
 -1      4237-6.58769E+03-4.61307E+00-7.73779E+01 4.51555E+02 1.68191E+00 2.43182E+03
 -1      4238 2.36566E+01 4.05949E+00-1.87219E+00 4.43168E+02 4.14016E+00 2.32152E+03
 -1      4239-4.13242E+03-2.18625E+00-3.78429E+01 4.69050E+02 1.18134E+00 2.28346E+03
 -1      4240 6.90620E+03 4.74336E+01 9.02503E+01 4.12209E+02-2.13090E+01 2.29110E+03
 -1      4241 6.56391E+03 2.03609E+00 7.66839E+01 4.51634E+02-1.84495E+00 2.43128E+03
 -1      4242-1.63280E+04-2.41089E+01 1.51681E+01 2.63699E+02 2.76050E+00 1.09179E+03
 -1      4243 2.72831E+04 2.63174E+01-1.28380E+01 2.95095E+02 3.83106E-02 1.25340E+03
 -1      4244 3.51759E+04 2.98192E+01-1.19929E+01 3.08028E+02-8.13416E-01 1.30147E+03
 -1      4245-6.93742E+03-6.56050E+01-6.18734E+01 3.77109E+02 3.64952E+00 2.24689E+03
 -1      4246 3.61118E+00-4.10998E+00-1.93044E+00 4.97753E+02-4.69602E+00 2.51763E+03
 -1      4247 2.84137E+04 1.87377E+01-9.80551E+00 1.26272E+02 9.67005E-01 1.12639E+03
 -1      4248-2.84762E+04-2.04756E+01 9.24248E+00 1.23662E+02-6.55953E-01 1.12403E+03
 -1      4249 4.44132E+04-2.61891E+01-4.98121E+00 1.39627E+02 4.41476E+00 1.25080E+03
 -1      4250 6.26240E+03-3.04165E+00-4.07773E+01 1.09503E+02 5.61614E+00 1.42095E+03
 -1      4251 9.40955E+03 1.12973E+01 1.95746E+00 9.51527E+01 6.98566E+00 8.14580E+02
 -1      4252 8.43914E+03 1.74167E+01 5.58483E+00 1.78469E+02 1.18923E+01 7.51392E+02
 -1      4253-1.03212E+04 3.26356E+01 5.00933E+01 2.00467E+02 2.29217E+00 7.89420E+02
 -1      4254-1.04007E+04 1.93639E+01 4.46323E+01 9.70127E+01-6.69197E+00 8.38914E+02
 -1      4255-7.53457E+03 1.47357E+01 3.15699E+01 1.08041E+02-5.14839E+00 1.55111E+03
 -1      4256-1.22686E+04-5.79433E+00-3.00113E+01 2.34951E+02 1.48341E+01 2.18458E+03
 -1      4257-2.10200E+04 1.32277E+01 3.53512E+01 2.82678E+02 2.74972E-02 1.22552E+03
 -1      4258-2.31871E+04 3.97688E+01 2.82550E+01 4.93144E+02-8.98251E+00 1.15942E+03
 -1      4259-3.22808E+02 1.01450E+01 2.08112E+01 3.92194E+01-6.70832E+00 4.90897E+02
 -1      4260-4.55438E+02 5.04114E+00 4.86821E+01 7.23681E+01-7.11794E+00 3.96281E+02
 -1      4261-1.42306E+04-5.88575E-01 1.42569E+01 1.21690E+02 3.79810E+00 1.01364E+03
 -1      4262 5.16565E+01-6.05967E+00-2.39906E+01 8.37114E+00 4.55209E+00 3.80530E+01
 -1      4263 1.40018E+02-2.19133E+01-3.02640E+01 1.45646E+01 5.24468E+00 5.18449E+01
 -1      4264 9.75359E+01-5.37529E+00-3.75160E+01 1.31676E+01 7.68525E+00 1.35333E+02
 -1      4265 8.80292E+01-1.24095E+01-2.43029E+01 2.31296E+01 7.02411E+00 8.40914E+01
 -1      4266 1.81040E+01-1.77223E+01-3.55462E+01 1.32401E+01 6.64851E+00-1.26047E+00
 -1      4267 4.67417E+01-1.65553E+01-5.29651E+01 1.37970E+01 1.03605E+01 8.24877E+01
 -1      4268 5.37717E+04 1.52001E+03-7.35375E+02-7.09081E+02 5.99888E+01-5.49958E+02
 -1      4269 5.45996E+04 9.00605E+02-1.72815E+03-2.90777E+03 1.10061E+03-5.18675E+02
 -1      4270 4.99033E+04 3.84976E+03-3.76875E+02-2.31446E+03 2.95674E+02 2.22910E+03
 -1      4271 3.26392E+04 1.67193E+03-2.13958E+02-5.07106E+02 7.31418E+02 1.63976E+03
 -1      4272-3.07504E+03-4.99929E+01 6.58155E+01 5.09066E+02-1.57054E+01 2.73788E+03
 -1      4273-1.97340E+02-2.55314E+01 3.48291E+01 1.75299E+02-3.99384E+00 1.01681E+03
 -1      4274-7.75453E+01 2.79749E+01-2.31031E+01 1.29514E+02 5.75391E-02 7.84050E+02
 -1      4275-2.80501E+03 4.33009E+01-3.13486E+00 4.96180E+02 3.44821E+00 2.72027E+03
 -1      4276 1.04306E+02 4.30921E+00-2.50335E+01 1.07192E+01-1.32827E+00 1.16636E+02
 -1      4277 4.32866E+01 6.81351E-01-2.39040E+01 6.42200E+00-4.04808E+00 3.09153E+01
 -1      4278 5.73402E+01-7.28198E-01-4.41260E+01 1.73959E+01-3.95829E+00 1.27015E+02
 -1      4279 5.65555E+01-2.81354E+00-2.75932E+01 2.27874E+01-4.46843E+00 7.72399E+01
 -1      4280-5.95122E+02 1.09088E+01 4.47857E+01 3.91055E+01-9.44665E+00 4.65191E+02
 -1      4281-4.49112E+02 9.78513E+00 5.40271E+01 3.03332E+01-3.50990E+00 3.71936E+02
 -1      4282-1.02782E+03-3.78932E+01 3.52364E+01 3.89679E+02-2.00732E+00 2.11887E+03
 -1      4283 2.73079E+01-9.98408E+00-5.60753E+01-1.35088E+00 6.20122E+00 3.58705E+01
 -1      4284 1.99581E+01-9.28461E+00-4.84091E+01 1.26335E+00 6.83295E+00 7.95554E+01
 -1      4285-7.77034E+02 4.72315E+01-7.54477E+00 3.69174E+02 1.66522E+00 1.97689E+03
 -1      4286-6.16097E+02 1.60036E+01 1.93958E+01 4.05426E+02 7.44932E+00 2.99359E+03
 -1      4287-3.30746E+01-1.24448E+00 2.23334E+01 3.36890E+00 2.46627E+00 3.87298E+01
 -1      4288-9.59983E+01 8.25521E+00 2.89393E+01 2.79994E+01 2.54562E+00 5.45101E+01
 -1      4289-6.70210E+01-4.79021E+00 2.72464E+01 1.34025E+01 5.24450E+00 1.32369E+02
 -1      4290-5.78567E+01-6.83085E-01 2.26149E+01 2.41403E+01 3.83995E+00 8.37699E+01
 -1      4291-5.46111E+04-1.07474E+03 1.12031E+03-2.88875E+03-1.22536E+03-5.70578E+02
 -1      4292-5.38769E+04-1.49371E+03 5.80473E+02-6.74508E+02-4.53840E+01-6.32304E+02
 -1      4293-3.35971E+04-1.94122E+03-6.34808E+02-5.38825E+02-6.65075E+02 1.08412E+03
 -1      4294-4.99909E+04-4.26794E+03-3.77432E+02-2.36308E+03-5.44140E+02 2.10785E+03
 -1      4295 1.44087E+01-1.24991E+01-3.82284E+01 6.24976E+00 5.72304E+00-3.00662E+00
 -1      4296-7.79695E+04-5.63395E+02 1.37984E+03 2.58176E+03 1.55847E+03 4.03304E+02
 -1      4297-7.40302E+04-1.33135E+03 1.50581E+02 6.90430E+02 1.03848E+02-2.03214E+02
 -1      4298-5.46504E+04-2.37108E+03-2.16464E+03 1.30202E+03 9.12248E+02 1.88702E+03
 -1      4299-6.58549E+04-4.22171E+03-1.68399E+01 3.11422E+03 5.93599E+02 2.59392E+03
 -1      4300-1.44066E+02 1.48924E+01 2.58452E+01 1.27065E+01-3.11812E+00 5.62334E+01
 -1      4301-5.05063E+01 7.42456E+00 2.39470E+01 7.52326E+00-3.74759E+00 3.83151E+01
 -1      4302-8.14237E+01 1.48313E+01 2.79593E+01 2.07384E+01-6.82374E+00 8.01193E+01
 -1      4303-8.76390E+01 6.13922E+00 3.32045E+01 1.19249E+01-6.12359E+00 1.29324E+02
 -1      4304-1.82869E+02 1.37674E+01 2.36730E+01 3.11448E+01-4.53618E+00 1.00244E+02
 -1      4305-2.26248E+04-4.74019E+03-4.28618E+03-3.20793E+03 2.61983E+02-4.14325E+02
 -1      4306-3.24289E+04-6.75454E+03-5.14464E+03-2.71364E+03-6.62374E+02 2.93988E+03
 -1      4307 1.12079E+01-1.45734E+00-3.26035E+01 1.57398E+01-3.91479E+00-8.84240E-01
 -1      4308 3.43120E+01 1.78117E+00-5.22293E+01 1.46789E+01-7.06985E+00 7.92113E+01
 -1      4309 7.78036E+04 8.08081E+02-6.61838E+02 2.70795E+03-1.79431E+03 2.80000E+02
 -1      4310 7.38775E+04 1.30449E+03-1.44665E+02 7.29978E+02-1.57528E+02-1.96618E+02
 -1      4311 5.34674E+04 2.21978E+03 1.93505E+03 1.22369E+03-8.82127E+02 1.93878E+03
 -1      4312 6.49570E+04 4.88879E+03 1.07849E+03 2.84484E+03-7.72201E+02 2.38670E+03
 -1      4313 7.45553E+03 1.95384E+01 2.43540E+00 3.34489E+02 7.71433E-01 7.52449E+02
 -1      4314 3.88317E+03-5.80261E+00-4.34035E+01 1.63548E+02 6.96721E+00 1.50262E+03
 -1      4315-3.62785E+04-3.33997E+03-3.60838E+03-3.52460E+03-2.52097E+02-9.76873E+01
 -1      4316 4.43376E+04 6.13175E+03 9.14532E+03 4.12243E+03 3.43475E+01 9.01778E+02
 -1      4317 4.59354E+04 9.07838E+03 7.84462E+03 3.86307E+03-8.16500E+02 4.01963E+03
 -1      4318 2.40631E+01 4.71495E+00-5.37293E+01 5.67145E-01-4.10131E+00 3.73645E+01
 -1      4319 1.45145E+01 2.60348E+00-4.50752E+01-1.52635E+00-5.43175E+00 8.03942E+01
 -1      4320 3.86015E+00 5.37040E+00-3.85359E+01 5.72549E+00-5.60313E+00-4.32867E+00
 -1      4321 5.55478E+04 1.16047E+04 3.69271E+03-4.67109E+03-1.42529E+01 2.17515E+03
 -1      4322-5.80955E+04-1.23299E+04-3.44322E+03-4.32726E+03-2.81464E+02 1.85088E+03
 -1      4323-5.35054E+04-8.91591E+03-2.39028E+03-6.45915E+03-9.54881E+01 5.54061E+02
 -1      4324-2.06310E+01-3.66395E+00 4.84661E+01-1.04571E+00 8.87734E+00 5.41760E+01
 -1      4325 5.41638E+04 9.71623E+03 3.47040E+03-6.53153E+03 5.26453E+02 1.05108E+03
 -1      4326 3.26284E+04 7.62348E+03 6.35596E+03-2.82271E+03 8.99964E+02 2.69355E+03
 -1      4327 5.78552E+04 4.34362E+03 7.19716E+03 3.97440E+03-3.17651E+02 2.24363E+03
 -1      4328 6.97251E+04 1.46391E+04 5.36642E+03 4.42644E+03-2.80895E+02 3.19374E+03
 -1      4329 7.00837E+04 1.08668E+04 3.82061E+03 6.82175E+03-2.35434E+02 1.89843E+03
 -1      4330 6.16495E+03-8.04801E+00-2.44932E+00 8.14899E+01 1.05910E+00 6.76385E+02
 -1      4331 5.41625E+03-1.06104E+01-6.06097E+00 1.51029E+02 6.56659E+00 6.16895E+02
 -1      4332 4.05467E+03-4.07455E+00-3.52864E+01 8.68227E+01 5.84525E+00 1.18688E+03
 -1      4333-5.41558E+03 1.08533E+01 6.17582E+00 1.51089E+02-7.63761E+00 6.16802E+02
 -1      4334-4.05459E+03 3.60630E+00 3.57392E+01 8.70296E+01-6.23365E+00 1.18663E+03
 -1      4335-6.16477E+03 7.88193E+00 2.31876E+00 8.17322E+01-1.50871E+00 6.76550E+02
 -1      4336-8.40967E+03-2.05436E+00 3.11140E+01 3.57800E+02-5.16240E-01 7.94612E+02
 -1      4337-4.33304E+03 5.23742E+00 2.96140E+01 1.63347E+02 2.81792E+00 1.57972E+03
 -1      4338-7.39781E+03 7.20610E-02 5.66348E+01 2.02748E+02 7.60012E+00 8.60275E+02
 -1      4339 8.99311E+03-7.42308E+00-3.04885E+00 2.18192E+02 6.65809E+00 9.28765E+02
 -1      4340 4.93630E+03-6.72153E+00-3.37857E+01 1.70045E+02-3.62481E+00 1.65222E+03
 -1      4341 9.19192E+03-6.87990E+00-1.76504E+01 3.70834E+02 2.12226E+00 8.46042E+02
 -1      4342-3.92058E+04 3.49981E+00 3.33501E+01 2.91413E+02 6.46082E+00 1.18440E+03
 -1      4343-4.06130E+04 1.75480E+01 6.05676E+01 1.52212E+02-1.17279E+01 1.27394E+03
 -1      4344-2.86690E+04 1.92612E+01 1.32912E+01 1.66077E+02-1.63785E+00 2.31321E+03
 -1      4345 1.64837E+04-2.37355E+01 1.99093E+01 2.63471E+02-1.01841E+00 1.14214E+03
 -1      4346 9.11365E+03-3.79013E+00-1.13880E+01 2.22498E+02-3.26113E+00 2.04595E+03
 -1      4347 1.71597E+04-1.45695E+00 8.84592E+00 4.57534E+02-4.77830E+00 1.03893E+03
 -1      4348-2.70439E+04 2.27091E+01-2.83006E+01 2.96072E+02 3.54221E+00 1.29220E+03
 -1      4349-1.50275E+04-2.81473E+00 5.89532E+00 2.54206E+02 9.30968E-01 2.32408E+03
 -1      4350-2.84681E+04 7.76142E-01-1.82416E+01 5.20880E+02 1.26007E+01 1.18637E+03
 -1      4351-1.71534E+04-1.43441E+00-1.03917E+01 4.59665E+02-5.42695E-01 1.04316E+03
 -1      4352-1.64821E+04-2.34799E-01-4.03105E+01 2.66699E+02-1.16266E+01 1.14158E+03
 -1      4353-9.11787E+03-1.31274E+00 1.50504E+01 2.17920E+02-5.51369E-01 2.04535E+03
 -1      4354 3.92178E+04-2.10296E+00-3.24508E+01 2.90102E+02-5.63607E+00 1.18589E+03
 -1      4355 4.06134E+04-1.68471E+01-6.03524E+01 1.51757E+02 1.24892E+01 1.27433E+03
 -1      4356 2.86664E+04-1.78559E+01-1.21425E+01 1.66481E+02 1.73570E+00 2.31366E+03
 -1      4357-2.50209E+01-5.24771E+00 5.51399E+01 8.86682E-01 2.63070E+00 3.79399E+01
 -1      4358-2.98126E+01-1.55370E+00 4.74765E+01 1.36464E+01 6.52243E+00 8.04053E+01
 -1      4359 2.84726E+04 4.89695E-01 1.92245E+01 5.18909E+02-1.30301E+01 1.18456E+03
 -1      4360 2.70795E+04-2.20991E+01 2.92610E+01 2.95296E+02-4.94956E+00 1.29037E+03
 -1      4361 1.50572E+04 3.64114E+00-4.22933E+00 2.55748E+02-1.52307E+00 2.32299E+03
 -1      4362 2.60856E+04-4.98558E+00 1.63003E+01 2.74672E+02 1.35493E+01 1.09811E+03
 -1      4363 1.93092E+04 1.48275E+01-2.17448E+01 1.62013E+02 6.53637E+00 2.11423E+03
 -1      4364 2.83325E+04 1.43805E+01 3.86076E+01 1.40429E+02-3.24448E+00 1.18319E+03
 -1      4365-1.14673E+03 2.55642E+00 1.28765E+01 8.71568E+01 7.86491E+00 3.87574E+02
 -1      4366 1.93119E+04-1.07607E+01-6.67123E+00 2.52753E+02 4.53262E+00 2.39935E+03
 -1      4367 3.65715E+04-1.35782E+01-9.45580E+00 5.37181E+02 9.54355E+00 1.21666E+03
 -1      4368 3.46280E+04-1.50192E+01 1.95583E+01 3.13809E+02 1.68876E+01 1.32045E+03
 -1      4369-1.00829E+04 1.07109E+01 7.38083E-01 2.30135E+02 4.22364E+00 9.86084E+02
 -1      4370-2.39162E+03-1.09781E+01 2.45008E+01 1.23512E+02 6.54659E+00 5.32860E+02
 -1      4371-1.31847E+04-1.59347E+01 4.07880E+01 2.41187E+02 1.04348E+01 1.02024E+03
 -1      4372-3.57493E+04 2.19593E+01-2.53401E+01 3.14570E+02 1.33233E+01 1.36823E+03
 -1      4373-4.51451E+04-6.10263E+03-8.94533E+03 4.04156E+03-1.53125E+02 1.16092E+03
 -1      4374-5.80109E+04-4.48690E+03-7.52454E+03 3.95350E+03 4.06813E+02 2.21887E+03
 -1      4375-4.69741E+04-9.17329E+03-9.15472E+03 4.02091E+03 9.32897E+02 4.11254E+03
 -1      4376-1.86854E+01 1.82599E+01 3.19022E+01 1.35346E+01-5.64729E+00 7.64023E-01
 -1      4377-1.46367E+01 1.23196E+01 3.64455E+01 6.03976E+00-4.89382E+00-1.61425E+00
 -1      4378-4.46987E+01 1.49050E+01 5.22939E+01 1.37927E+01-9.78731E+00 7.84231E+01
 -1      4379-6.93240E+04-1.33708E+04-4.18543E+03 4.56773E+03-2.81626E+02 3.40184E+03
 -1      4380-2.83421E+04-1.33740E+01-4.31493E+01 1.42378E+02-6.62469E-02 1.18550E+03
 -1      4381-2.61109E+04 1.13994E+01-2.58708E+01 2.68442E+02-1.37449E+01 1.10071E+03
 -1      4382-1.93645E+04-8.34179E+00 1.07281E+01 1.62992E+02-1.56964E+01 2.11242E+03
 -1      4383 2.39923E+04 3.98212E+02 1.64628E+03-1.82851E+03-7.06300E+02-1.09788E+03
 -1      4384 3.70275E+04 4.33916E+03 5.71875E+03-3.62171E+03 3.92615E+02-6.88460E+01
 -1      4385-3.93788E+04-1.42842E+01 2.67378E+01 3.50082E+02-4.31747E+00 1.35595E+03
 -1      4386-1.05193E+01-1.01940E+00 3.80110E+01 1.02002E+01 3.14133E+00-2.63872E+00
 -1      4387-7.13648E+04-1.21827E+04-5.10505E+03 6.88526E+03 7.07553E+02 2.49840E+03
 -1      4388 3.56697E+03-7.60043E-01-3.95689E+01 1.50146E+02-2.16178E+00 1.44088E+03
 -1      4389 6.59425E+03-1.35333E+00-1.68270E+01 3.25493E+02-4.88198E+00 7.43230E+02
 -1      4390 6.51755E+03-2.66715E+00-8.18395E+00 1.93868E+02 2.53824E+00 8.12959E+02
 -1      4391-5.71478E+00-6.52867E+00 3.82422E+01 7.28790E+00 3.96593E+00-1.73035E+00
 -1      4392-1.20697E+02 1.99644E+00 1.33611E+01 9.00746E+01 1.66755E+00 4.87494E+02
 -1      4393-2.43775E+01 9.89233E+00 4.92006E+01-1.91904E-01-1.10062E+01 5.51660E+01
 -1      4394-2.79135E+01 9.11856E+00 5.63674E+01-1.62532E+00-4.50138E+00 3.91051E+01
 -1      4395-6.28375E+02 2.94967E+01 3.38909E+01 8.12329E+01-7.73962E+00 1.85764E+02
 -1      4396-2.45599E+02 1.06750E+01 2.83483E+01 1.65833E+01-5.56658E+00 1.37391E+02
 -1      4397-3.01223E+02 1.61859E+01 2.46869E+01 4.62764E+01-5.77747E+00 1.47523E+02
 -1      4398-7.13663E+02 1.06771E+01 2.71841E+01 6.50617E+01-7.79427E+00 2.51180E+02
 -1      4399-5.58058E+02 1.60253E+01 2.60264E+01 5.45906E+01-4.72504E+00 1.62313E+02
 -1      4400-9.50084E+02 6.21931E+00 2.68902E+01 3.10360E+01-2.52302E+00 2.81399E+02
 -1      4401-4.60551E+02 6.79861E+00 2.68315E+01 2.53120E+01-5.14894E+00 1.67799E+02
 -1      4402-6.99956E+02 7.35726E+00 2.84206E+01 2.29451E+01-5.34028E+00 2.21383E+02
 -1      4403 1.34968E+02-4.75097E+00-3.42947E+01 7.21989E+01-1.05824E+01 7.07013E+02
 -3
    1PSTEP                         3           1           1          
    1PGM                1.000000E+00                                  
    1PGK                2.759255E+07                                  
    1PHID                         -1                                  
    1PSUBC                         0                                  
    1PMODE                         1                                  
  100CL  101 836.0187730        4403                     2    1MODAL      1
 -4  ERROR       1    1
 -5  STR(%)      1    1    0    0
 -1         1 1.35729E+01
 -1         2 1.09435E+01
 -1         3 1.09176E+01
 -1         4 1.31914E+01
 -1         5 2.93233E+01
 -1         6 2.97180E+01
 -1         7 2.96812E+01
 -1         8 3.25383E+01
 -1         9 1.19379E+01
 -1        10 2.52057E+01
 -1        11 2.30049E+01
 -1        12 1.14407E+01
 -1        13 1.85718E+01
 -1        14 2.41053E+01
 -1        15 1.82889E+01
 -1        16 1.14317E+01
 -1        17 1.14317E+01
 -1        18 9.32656E+00
 -1        19 1.25023E+01
 -1        20 1.14317E+01
 -1        21 1.03791E+01
 -1        22 1.01221E+01
 -1        23 2.25346E+01
 -1        24 2.68317E+01
 -1        25 1.27360E+01
 -1        26 1.78630E+01
 -1        27 2.46831E+01
 -1        28 1.97838E+01
 -1        29 1.18268E+01
 -1        30 1.07453E+01
 -1        31 1.05523E+01
 -1        32 9.76699E+00
 -1        33 1.08444E+01
 -1        34 1.06488E+01
 -1        35 1.01596E+01
 -1        36 1.14792E+01
 -1        37 2.72342E+01
 -1        38 2.72342E+01
 -1        39 2.63143E+01
 -1        40 2.84761E+01
 -1        41 2.72342E+01
 -1        42 2.67742E+01
 -1        43 2.78188E+01
 -1        44 2.27701E+01
 -1        45 1.85761E+01
 -1        46 2.35492E+01
 -1        47 2.60467E+01
 -1        48 2.06731E+01
 -1        49 2.10626E+01
 -1        50 2.66152E+01
 -1        51 2.63617E+01
 -1        52 2.63617E+01
 -1        53 1.35042E+01
 -1        54 2.94500E+01
 -1        55 2.63617E+01
 -1        56 1.99330E+01
 -1        57 2.15927E+01
 -1        58 2.25497E+01
 -1        59 1.82598E+01
 -1        60 2.20717E+01
 -1        61 2.61338E+01
 -1        62 2.04048E+01
 -1        63 2.01657E+01
 -1        64 2.73050E+01
 -1        65 7.70182E+00
 -1        66 6.72714E+00
 -1        67 6.79834E+00
 -1        68 1.09828E+01
 -1        69 6.82968E+00
 -1        70 1.08013E+01
 -1        71 6.89939E+00
 -1        72 6.92667E+00
 -1        73 1.09499E+01
 -1        74 9.90211E+00
 -1        75 6.94806E+00
 -1        76 6.97595E+00
 -1        77 1.09803E+01
 -1        78 6.92520E+00
 -1        79 9.42997E+00
 -1        80 1.05221E+01
 -1        81 7.01404E+00
 -1        82 7.06902E+00
 -1        83 1.09264E+01
 -1        84 7.00490E+00
 -1        85 1.02505E+01
 -1        86 7.04850E+00
 -1        87 1.00844E+01
 -1        88 8.46261E+00
 -1        89 7.08083E+00
 -1        90 8.51473E+00
 -1        91 9.10641E+00
 -1        92 1.03829E+01
 -1        93 7.18530E+00
 -1        94 8.05809E+00
 -1        95 9.05933E+00
 -1        96 1.45609E+01
 -1        97 2.97180E+01
 -1        98 9.32268E+00
 -1        99 7.21448E+00
 -1       100 6.76274E+00
 -1       101 8.89056E+00
 -1       102 8.90623E+00
 -1       103 8.81552E+00
 -1       104 8.85037E+00
 -1       105 6.91303E+00
 -1       106 8.93826E+00
 -1       107 1.04260E+01
 -1       108 8.42509E+00
 -1       109 6.96200E+00
 -1       110 8.97812E+00
 -1       111 8.95275E+00
 -1       112 8.17759E+00
 -1       113 9.97603E+00
 -1       114 8.76807E+00
 -1       115 7.04153E+00
 -1       116 8.99769E+00
 -1       117 8.96564E+00
 -1       118 8.62772E+00
 -1       119 8.64952E+00
 -1       120 8.56647E+00
 -1       121 9.27352E+00
 -1       122 7.77172E+00
 -1       123 7.79778E+00
 -1       124 8.81057E+00
 -1       125 9.74467E+00
 -1       126 8.78411E+00
 -1       127 7.62169E+00
 -1       128 8.55871E+00
 -1       129 1.18101E+01
 -1       130 2.21394E+01
 -1       131 2.97180E+01
 -1       132 1.18641E+01
 -1       133 1.16944E+01
 -1       134 1.13356E+01
 -1       135 1.10416E+01
 -1       136 1.06885E+01
 -1       137 1.11645E+01
 -1       138 1.08573E+01
 -1       139 1.15415E+01
 -1       140 1.12043E+01
 -1       141 1.08074E+01
 -1       142 1.10959E+01
 -1       143 1.14685E+01
 -1       144 1.10235E+01
 -1       145 1.09357E+01
 -1       146 1.07378E+01
 -1       147 1.11194E+01
 -1       148 1.09177E+01
 -1       149 1.13661E+01
 -1       150 1.08334E+01
 -1       151 1.04741E+01
 -1       152 1.11724E+01
 -1       153 1.17675E+01
 -1       154 1.09040E+01
 -1       155 1.00434E+01
 -1       156 1.08640E+01
 -1       157 1.09520E+01
 -1       158 8.96214E+00
 -1       159 1.06078E+01
 -1       160 8.65053E+00
 -1       161 8.98998E+00
 -1       162 9.14128E+00
 -1       163 1.64413E+01
 -1       164 2.93233E+01
 -1       165 1.27185E+01
 -1       166 1.17793E+01
 -1       167 1.15150E+01
 -1       168 1.11886E+01
 -1       169 1.08650E+01
 -1       170 1.09265E+01
 -1       171 1.10109E+01
 -1       172 1.11994E+01
 -1       173 1.13729E+01
 -1       174 1.10058E+01
 -1       175 1.09516E+01
 -1       176 1.12822E+01
 -1       177 1.12460E+01
 -1       178 1.09796E+01
 -1       179 1.08368E+01
 -1       180 1.09286E+01
 -1       181 1.10186E+01
 -1       182 1.11419E+01
 -1       183 1.10997E+01
 -1       184 1.06537E+01
 -1       185 1.08232E+01
 -1       186 1.14699E+01
 -1       187 1.13357E+01
 -1       188 1.04737E+01
 -1       189 1.04537E+01
 -1       190 1.09080E+01
 -1       191 9.95708E+00
 -1       192 9.78499E+00
 -1       193 9.62919E+00
 -1       194 8.82026E+00
 -1       195 9.06563E+00
 -1       196 1.27913E+01
 -1       197 2.28823E+01
 -1       198 2.93233E+01
 -1       199 1.18446E+01
 -1       200 1.17231E+01
 -1       201 1.16877E+01
 -1       202 1.10452E+01
 -1       203 1.10418E+01
 -1       204 1.11321E+01
 -1       205 1.11205E+01
 -1       206 1.15049E+01
 -1       207 1.08370E+01
 -1       208 1.08021E+01
 -1       209 1.10963E+01
 -1       210 1.14605E+01
 -1       211 1.11112E+01
 -1       212 1.11052E+01
 -1       213 1.10812E+01
 -1       214 1.06448E+01
 -1       215 1.09404E+01
 -1       216 1.13849E+01
 -1       217 1.05485E+01
 -1       218 1.03540E+01
 -1       219 1.12365E+01
 -1       220 1.07736E+01
 -1       221 1.10719E+01
 -1       222 1.04725E+01
 -1       223 1.08887E+01
 -1       224 9.48266E+00
 -1       225 9.02235E+00
 -1       226 8.24505E+00
 -1       227 1.02334E+01
 -1       228 6.85564E+00
 -1       229 8.93910E+00
 -1       230 1.65194E+01
 -1       231 3.25383E+01
 -1       232 1.25180E+01
 -1       233 1.17839E+01
 -1       234 1.17054E+01
 -1       235 1.13665E+01
 -1       236 1.10435E+01
 -1       237 1.10869E+01
 -1       238 1.11263E+01
 -1       239 1.13127E+01
 -1       240 1.11710E+01
 -1       241 1.08196E+01
 -1       242 1.09492E+01
 -1       243 1.12784E+01
 -1       244 1.12858E+01
 -1       245 1.11082E+01
 -1       246 1.10932E+01
 -1       247 1.08630E+01
 -1       248 1.07926E+01
 -1       249 1.11626E+01
 -1       250 1.09667E+01
 -1       251 1.04513E+01
 -1       252 1.07953E+01
 -1       253 1.10051E+01
 -1       254 1.09228E+01
 -1       255 1.07722E+01
 -1       256 1.06806E+01
 -1       257 1.01857E+01
 -1       258 9.25250E+00
 -1       259 8.63370E+00
 -1       260 9.23921E+00
 -1       261 8.54451E+00
 -1       262 7.89737E+00
 -1       263 1.27293E+01
 -1       264 2.45289E+01
 -1       265 3.25383E+01
 -1       266 7.64833E+00
 -1       267 6.70299E+00
 -1       268 6.85451E+00
 -1       269 1.10040E+01
 -1       270 6.73951E+00
 -1       271 1.07874E+01
 -1       272 6.89953E+00
 -1       273 6.92768E+00
 -1       274 1.09791E+01
 -1       275 9.89983E+00
 -1       276 6.93876E+00
 -1       277 6.94737E+00
 -1       278 1.09594E+01
 -1       279 6.79196E+00
 -1       280 9.41308E+00
 -1       281 1.05075E+01
 -1       282 6.97873E+00
 -1       283 7.08309E+00
 -1       284 7.05403E+00
 -1       285 7.05277E+00
 -1       286 1.01032E+01
 -1       287 7.09762E+00
 -1       288 9.98662E+00
 -1       289 8.34532E+00
 -1       290 7.08148E+00
 -1       291 8.51737E+00
 -1       292 9.10900E+00
 -1       293 1.03581E+01
 -1       294 7.18183E+00
 -1       295 7.91866E+00
 -1       296 9.48036E+00
 -1       297 1.46563E+01
 -1       298 2.96812E+01
 -1       299 9.28297E+00
 -1       300 7.17566E+00
 -1       301 6.77875E+00
 -1       302 8.92924E+00
 -1       303 8.87174E+00
 -1       304 8.76347E+00
 -1       305 8.84348E+00
 -1       306 6.91361E+00
 -1       307 8.95340E+00
 -1       308 1.04395E+01
 -1       309 8.41929E+00
 -1       310 6.94307E+00
 -1       311 8.95338E+00
 -1       312 8.87567E+00
 -1       313 8.10252E+00
 -1       314 9.96027E+00
 -1       315 8.74310E+00
 -1       316 7.03091E+00
 -1       317 7.06856E+00
 -1       318 7.05340E+00
 -1       319 8.57798E+00
 -1       320 8.60041E+00
 -1       321 8.54212E+00
 -1       322 9.16597E+00
 -1       323 7.71340E+00
 -1       324 7.79942E+00
 -1       325 8.81319E+00
 -1       326 9.73355E+00
 -1       327 8.76996E+00
 -1       328 7.55025E+00
 -1       329 8.69951E+00
 -1       330 1.20683E+01
 -1       331 2.21687E+01
 -1       332 2.96812E+01
 -1       333 3.85842E+01
 -1       334 3.07173E+01
 -1       335 1.40205E+01
 -1       336 2.75415E+01
 -1       337 3.56969E+01
 -1       338 2.23912E+01
 -1       339 3.85842E+01
 -1       340 1.85392E+01
 -1       341 1.13903E+01
 -1       342 3.56969E+01
 -1       343 1.85569E+01
 -1       344 1.31914E+01
 -1       345 1.09435E+01
 -1       346 1.15116E+01
 -1       347 3.85842E+01
 -1       348 1.60649E+01
 -1       349 2.07809E+01
 -1       350 1.49943E+01
 -1       351 1.14407E+01
 -1       352 1.09435E+01
 -1       353 1.08444E+01
 -1       354 1.12146E+01
 -1       355 1.04191E+01
 -1       356 1.21238E+01
 -1       357 1.31914E+01
 -1       358 1.78630E+01
 -1       359 1.14792E+01
 -1       360 2.63736E+01
 -1       361 1.97397E+01
 -1       362 1.92425E+01
 -1       363 2.68611E+01
 -1       364 2.79615E+01
 -1       365 2.91294E+01
 -1       366 2.46371E+01
 -1       367 1.69115E+01
 -1       368 1.69115E+01
 -1       369 2.04740E+01
 -1       370 1.03584E+01
 -1       371 1.14110E+01
 -1       372 1.68908E+01
 -1       373 1.14510E+01
 -1       374 3.05594E+01
 -1       375 3.27079E+01
 -1       376 2.58878E+01
 -1       377 3.27079E+01
 -1       378 2.56601E+01
 -1       379 3.85842E+01
 -1       380 2.50479E+01
 -1       381 1.46422E+01
 -1       382 1.45458E+01
 -1       383 1.47414E+01
 -1       384 1.22864E+01
 -1       385 1.18937E+01
 -1       386 1.62798E+01
 -1       387 1.36059E+01
 -1       388 3.85842E+01
 -1       389 3.85842E+01
 -1       390 2.49873E+01
 -1       391 3.71405E+01
 -1       392 2.35436E+01
 -1       393 3.71405E+01
 -1       394 3.32071E+01
 -1       395 3.16192E+01
 -1       396 2.65542E+01
 -1       397 2.90441E+01
 -1       398 2.63023E+01
 -1       399 2.63023E+01
 -1       400 2.85617E+01
 -1       401 2.71181E+01
 -1       402 2.30403E+01
 -1       403 2.90441E+01
 -1       404 3.56969E+01
 -1       405 3.71405E+01
 -1       406 2.97020E+01
 -1       407 2.91141E+01
 -1       408 2.93368E+01
 -1       409 2.92766E+01
 -1       410 2.86382E+01
 -1       411 2.91141E+01
 -1       412 2.93368E+01
 -1       413 2.92766E+01
 -1       414 2.97020E+01
 -1       415 2.71383E+01
 -1       416 2.93368E+01
 -1       417 2.91141E+01
 -1       418 2.92766E+01
 -1       419 2.97020E+01
 -1       420 2.76562E+01
 -1       421 2.78256E+01
 -1       422 2.93301E+01
 -1       423 2.60534E+01
 -1       424 2.94973E+01
 -1       425 2.82554E+01
 -1       426 2.59132E+01
 -1       427 2.66256E+01
 -1       428 2.96916E+01
 -1       429 2.16031E+01
 -1       430 2.77379E+01
 -1       431 3.08262E+01
 -1       432 2.55929E+01
 -1       433 2.82554E+01
 -1       434 2.82554E+01
 -1       435 2.92766E+01
 -1       436 2.82855E+01
 -1       437 2.78256E+01
 -1       438 2.93067E+01
 -1       439 2.93368E+01
 -1       440 2.60534E+01
 -1       441 2.39564E+01
 -1       442 2.93368E+01
 -1       443 2.41391E+01
 -1       444 2.66256E+01
 -1       445 2.95194E+01
 -1       446 2.97020E+01
 -1       447 2.77379E+01
 -1       448 2.77379E+01
 -1       449 2.91141E+01
 -1       450 2.16031E+01
 -1       451 2.80319E+01
 -1       452 2.94081E+01
 -1       453 2.97020E+01
 -1       454 2.37682E+01
 -1       455 2.59132E+01
 -1       456 2.92766E+01
 -1       457 2.55929E+01
 -1       458 2.36870E+01
 -1       459 2.91954E+01
 -1       460 2.91141E+01
 -1       461 2.84965E+01
 -1       462 2.86791E+01
 -1       463 2.84201E+01
 -1       464 2.84201E+01
 -1       465 2.97020E+01
 -1       466 2.73972E+01
 -1       467 2.88762E+01
 -1       468 2.89574E+01
 -1       469 2.91141E+01
 -1       470 2.88762E+01
 -1       471 2.93368E+01
 -1       472 2.84965E+01
 -1       473 2.84664E+01
 -1       474 2.89574E+01
 -1       475 2.92766E+01
 -1       476 2.81262E+01
 -1       477 2.78882E+01
 -1       478 2.81472E+01
 -1       479 1.06289E+01
 -1       480 1.03829E+01
 -1       481 1.13509E+01
 -1       482 1.17954E+01
 -1       483 1.63864E+01
 -1       484 1.37027E+01
 -1       485 8.98998E+00
 -1       486 1.93068E+01
 -1       487 1.30626E+01
 -1       488 1.31769E+01
 -1       489 2.58061E+01
 -1       490 1.30236E+01
 -1       491 1.24648E+01
 -1       492 1.28346E+01
 -1       493 2.86088E+01
 -1       494 1.31747E+01
 -1       495 1.45609E+01
 -1       496 1.76328E+01
 -1       497 1.09892E+01
 -1       498 2.47070E+01
 -1       499 2.25431E+01
 -1       500 2.04247E+01
 -1       501 2.40784E+01
 -1       502 2.33942E+01
 -1       503 2.87784E+01
 -1       504 2.63143E+01
 -1       505 1.45074E+01
 -1       506 1.07732E+01
 -1       507 1.81500E+01
 -1       508 1.62213E+01
 -1       509 1.00354E+01
 -1       510 2.68627E+01
 -1       511 1.86292E+01
 -1       512 1.30880E+01
 -1       513 2.84504E+01
 -1       514 1.27719E+01
 -1       515 1.09104E+01
 -1       516 1.44680E+01
 -1       517 2.02051E+01
 -1       518 1.24035E+01
 -1       519 1.89477E+01
 -1       520 1.16835E+01
 -1       521 1.85859E+01
 -1       522 1.82646E+01
 -1       523 1.27845E+01
 -1       524 2.68686E+01
 -1       525 2.25986E+01
 -1       526 1.32642E+01
 -1       527 9.60245E+00
 -1       528 1.25526E+01
 -1       529 7.99816E+00
 -1       530 9.51285E+00
 -1       531 2.36598E+01
 -1       532 2.43335E+01
 -1       533 1.17478E+01
 -1       534 1.87288E+01
 -1       535 1.28913E+01
 -1       536 1.72153E+01
 -1       537 1.25482E+01
 -1       538 1.87614E+01
 -1       539 1.21079E+01
 -1       540 1.52992E+01
 -1       541 2.83093E+01
 -1       542 2.77241E+01
 -1       543 2.48958E+01
 -1       544 2.87784E+01
 -1       545 2.17890E+01
 -1       546 2.62608E+01
 -1       547 1.33974E+01
 -1       548 2.53994E+01
 -1       549 1.13509E+01
 -1       550 2.79177E+01
 -1       551 1.45325E+01
 -1       552 1.70755E+01
 -1       553 2.10294E+01
 -1       554 1.68714E+01
 -1       555 2.53998E+01
 -1       556 2.13560E+01
 -1       557 2.22810E+01
 -1       558 2.32356E+01
 -1       559 1.19720E+01
 -1       560 1.26740E+01
 -1       561 1.77984E+01
 -1       562 2.32957E+01
 -1       563 2.56567E+01
 -1       564 2.76175E+01
 -1       565 2.70675E+01
 -1       566 2.77691E+01
 -1       567 2.72205E+01
 -1       568 2.66102E+01
 -1       569 2.60469E+01
 -1       570 2.06643E+01
 -1       571 2.51226E+01
 -1       572 2.54896E+01
 -1       573 2.11263E+01
 -1       574 2.88239E+01
 -1       575 2.72342E+01
 -1       576 1.26339E+01
 -1       577 1.64413E+01
 -1       578 2.86821E+01
 -1       579 1.52922E+01
 -1       580 1.09435E+01
 -1       581 2.97180E+01
 -1       582 2.93233E+01
 -1       583 1.33974E+01
 -1       584 1.91485E+01
 -1       585 1.44326E+01
 -1       586 1.35782E+01
 -1       587 1.09435E+01
 -1       588 1.14407E+01
 -1       589 9.32268E+00
 -1       590 2.93233E+01
 -1       591 2.78188E+01
 -1       592 2.93233E+01
 -1       593 2.84761E+01
 -1       594 2.97180E+01
 -1       595 2.97180E+01
 -1       596 2.03582E+01
 -1       597 2.69921E+01
 -1       598 1.98610E+01
 -1       599 2.69921E+01
 -1       600 2.58916E+01
 -1       601 2.87784E+01
 -1       602 2.20353E+01
 -1       603 2.72342E+01
 -1       604 2.72342E+01
 -1       605 2.84761E+01
 -1       606 2.63143E+01
 -1       607 2.67742E+01
 -1       608 2.67742E+01
 -1       609 2.78188E+01
 -1       610 9.68054E+00
 -1       611 1.01679E+01
 -1       612 1.17887E+01
 -1       613 9.98654E+00
 -1       614 9.95094E+00
 -1       615 1.29043E+01
 -1       616 1.48060E+01
 -1       617 1.27138E+01
 -1       618 1.59020E+01
 -1       619 9.95885E+00
 -1       620 1.20354E+01
 -1       621 1.58586E+01
 -1       622 1.19320E+01
 -1       623 9.94615E+00
 -1       624 1.30753E+01
 -1       625 1.28141E+01
 -1       626 1.47651E+01
 -1       627 1.58957E+01
 -1       628 1.00518E+01
 -1       629 1.00382E+01
 -1       630 1.59529E+01
 -1       631 1.47679E+01
 -1       632 1.27563E+01
 -1       633 1.58814E+01
 -1       634 1.13683E+01
 -1       635 1.18922E+01
 -1       636 1.57102E+01
 -1       637 9.74812E+00
 -1       638 1.12252E+01
 -1       639 1.26914E+01
 -1       640 9.99978E+00
 -1       641 9.98584E+00
 -1       642 1.27859E+01
 -1       643 1.46225E+01
 -1       644 1.26203E+01
 -1       645 1.56441E+01
 -1       646 9.85483E+00
 -1       647 1.18824E+01
 -1       648 1.55245E+01
 -1       649 1.09474E+01
 -1       650 9.69500E+00
 -1       651 1.26246E+01
 -1       652 1.15373E+01
 -1       653 1.09913E+01
 -1       654 1.25087E+01
 -1       655 1.23234E+01
 -1       656 1.40775E+01
 -1       657 1.50927E+01
 -1       658 9.73624E+00
 -1       659 9.70875E+00
 -1       660 1.50181E+01
 -1       661 1.40709E+01
 -1       662 1.21422E+01
 -1       663 1.48094E+01
 -1       664 9.40017E+00
 -1       665 1.13609E+01
 -1       666 1.45054E+01
 -1       667 1.09670E+01
 -1       668 9.34421E+00
 -1       669 1.17395E+01
 -1       670 1.16349E+01
 -1       671 1.32359E+01
 -1       672 1.39524E+01
 -1       673 1.10962E+01
 -1       674 9.57821E+00
 -1       675 1.41646E+01
 -1       676 9.54574E+00
 -1       677 1.03567E+01
 -1       678 1.13684E+01
 -1       679 8.99561E+00
 -1       680 9.68650E+00
 -1       681 1.07696E+01
 -1       682 9.27509E+00
 -1       683 8.55814E+00
 -1       684 1.04729E+01
 -1       685 9.35443E+00
 -1       686 9.05859E+00
 -1       687 9.81895E+00
 -1       688 1.03829E+01
 -1       689 9.74467E+00
 -1       690 9.99269E+00
 -1       691 9.46657E+00
 -1       692 1.10654E+01
 -1       693 1.10654E+01
 -1       694 8.78547E+00
 -1       695 8.34907E+00
 -1       696 1.06303E+01
 -1       697 1.00243E+01
 -1       698 9.52366E+00
 -1       699 1.02510E+01
 -1       700 1.36664E+01
 -1       701 1.09156E+01
 -1       702 1.18805E+01
 -1       703 2.21394E+01
 -1       704 1.45609E+01
 -1       705 1.36664E+01
 -1       706 2.21394E+01
 -1       707 2.02364E+01
 -1       708 2.01516E+01
 -1       709 2.19505E+01
 -1       710 1.92786E+01
 -1       711 1.90992E+01
 -1       712 2.77357E+01
 -1       713 1.85709E+01
 -1       714 1.84239E+01
 -1       715 2.63344E+01
 -1       716 1.82205E+01
 -1       717 1.80439E+01
 -1       718 2.56027E+01
 -1       719 1.77921E+01
 -1       720 1.80302E+01
 -1       721 2.51476E+01
 -1       722 1.79358E+01
 -1       723 1.77821E+01
 -1       724 2.48014E+01
 -1       725 1.75954E+01
 -1       726 1.79375E+01
 -1       727 2.45202E+01
 -1       728 1.78099E+01
 -1       729 1.76413E+01
 -1       730 2.42059E+01
 -1       731 1.74320E+01
 -1       732 1.72336E+01
 -1       733 2.38691E+01
 -1       734 1.71008E+01
 -1       735 1.72451E+01
 -1       736 2.35270E+01
 -1       737 1.68473E+01
 -1       738 1.70336E+01
 -1       739 2.29964E+01
 -1       740 1.70058E+01
 -1       741 1.67833E+01
 -1       742 2.25708E+01
 -1       743 1.64062E+01
 -1       744 1.63624E+01
 -1       745 2.21660E+01
 -1       746 1.60310E+01
 -1       747 1.59321E+01
 -1       748 2.14577E+01
 -1       749 1.55813E+01
 -1       750 1.57721E+01
 -1       751 2.07755E+01
 -1       752 1.56623E+01
 -1       753 1.55614E+01
 -1       754 2.03149E+01
 -1       755 1.51123E+01
 -1       756 1.53364E+01
 -1       757 1.97560E+01
 -1       758 1.50637E+01
 -1       759 1.47974E+01
 -1       760 1.90341E+01
 -1       761 1.44917E+01
 -1       762 1.43121E+01
 -1       763 1.84557E+01
 -1       764 1.47109E+01
 -1       765 1.50601E+01
 -1       766 1.85489E+01
 -1       767 1.37794E+01
 -1       768 1.40769E+01
 -1       769 1.76671E+01
 -1       770 1.35333E+01
 -1       771 1.31016E+01
 -1       772 1.58428E+01
 -1       773 1.27057E+01
 -1       774 1.22754E+01
 -1       775 1.49033E+01
 -1       776 1.22557E+01
 -1       777 1.26660E+01
 -1       778 1.44877E+01
 -1       779 1.22834E+01
 -1       780 1.23274E+01
 -1       781 1.40853E+01
 -1       782 1.21081E+01
 -1       783 1.11132E+01
 -1       784 1.34835E+01
 -1       785 9.86766E+00
 -1       786 1.06905E+01
 -1       787 1.20187E+01
 -1       788 1.17496E+01
 -1       789 1.07709E+01
 -1       790 1.18322E+01
 -1       791 8.82026E+00
 -1       792 8.98998E+00
 -1       793 1.09406E+01
 -1       794 8.49407E+00
 -1       795 8.56972E+00
 -1       796 8.49407E+00
 -1       797 1.02461E+01
 -1       798 1.38961E+01
 -1       799 9.67454E+00
 -1       800 1.64413E+01
 -1       801 2.28823E+01
 -1       802 1.38961E+01
 -1       803 2.28823E+01
 -1       804 1.57874E+01
 -1       805 1.56466E+01
 -1       806 1.59924E+01
 -1       807 1.67319E+01
 -1       808 2.10101E+01
 -1       809 1.24577E+01
 -1       810 1.20675E+01
 -1       811 1.43096E+01
 -1       812 1.36272E+01
 -1       813 1.57020E+01
 -1       814 9.67454E+00
 -1       815 1.13509E+01
 -1       816 1.23741E+01
 -1       817 1.23741E+01
 -1       818 1.49194E+01
 -1       819 1.74595E+01
 -1       820 1.75155E+01
 -1       821 1.85976E+01
 -1       822 2.13076E+01
 -1       823 2.43177E+01
 -1       824 2.06144E+01
 -1       825 1.93337E+01
 -1       826 1.87079E+01
 -1       827 1.81643E+01
 -1       828 2.16552E+01
 -1       829 1.61332E+01
 -1       830 1.57506E+01
 -1       831 1.53891E+01
 -1       832 1.51699E+01
 -1       833 1.74369E+01
 -1       834 1.04810E+01
 -1       835 9.98508E+00
 -1       836 1.27826E+01
 -1       837 1.08320E+01
 -1       838 1.23230E+01
 -1       839 2.26638E+01
 -1       840 2.22147E+01
 -1       841 2.13013E+01
 -1       842 2.10286E+01
 -1       843 2.42091E+01
 -1       844 2.07565E+01
 -1       845 2.07692E+01
 -1       846 2.04902E+01
 -1       847 2.81840E+01
 -1       848 2.33233E+01
 -1       849 2.28267E+01
 -1       850 2.01222E+01
 -1       851 2.03972E+01
 -1       852 2.31732E+01
 -1       853 2.73425E+01
 -1       854 2.72934E+01
 -1       855 2.67651E+01
 -1       856 2.82740E+01
 -1       857 2.73150E+01
 -1       858 2.71116E+01
 -1       859 2.21557E+01
 -1       860 1.95352E+01
 -1       861 2.01221E+01
 -1       862 1.98844E+01
 -1       863 2.66337E+01
 -1       864 1.96667E+01
 -1       865 1.98265E+01
 -1       866 1.93628E+01
 -1       867 2.65647E+01
 -1       868 1.94067E+01
 -1       869 1.97224E+01
 -1       870 2.25980E+01
 -1       871 2.01586E+01
 -1       872 2.03018E+01
 -1       873 2.71896E+01
 -1       874 2.84590E+01
 -1       875 2.75860E+01
 -1       876 2.86454E+01
 -1       877 2.84957E+01
 -1       878 2.86936E+01
 -1       879 2.87303E+01
 -1       880 2.31767E+01
 -1       881 2.04494E+01
 -1       882 2.07420E+01
 -1       883 2.80167E+01
 -1       884 2.04716E+01
 -1       885 1.39791E+01
 -1       886 1.30846E+01
 -1       887 1.39791E+01
 -1       888 1.33974E+01
 -1       889 2.08975E+01
 -1       890 2.03158E+01
 -1       891 1.87630E+01
 -1       892 2.13777E+01
 -1       893 2.16448E+01
 -1       894 1.91046E+01
 -1       895 2.53896E+01
 -1       896 1.20614E+01
 -1       897 1.11701E+01
 -1       898 1.14806E+01
 -1       899 1.07424E+01
 -1       900 1.16615E+01
 -1       901 2.61622E+01
 -1       902 2.59755E+01
 -1       903 2.64067E+01
 -1       904 2.63123E+01
 -1       905 2.77676E+01
 -1       906 2.43227E+01
 -1       907 2.42950E+01
 -1       908 2.40164E+01
 -1       909 2.36393E+01
 -1       910 2.57683E+01
 -1       911 2.30407E+01
 -1       912 2.29309E+01
 -1       913 2.33428E+01
 -1       914 2.59587E+01
 -1       915 2.36936E+01
 -1       916 2.53443E+01
 -1       917 2.51350E+01
 -1       918 2.57005E+01
 -1       919 2.55730E+01
 -1       920 2.68388E+01
 -1       921 2.53074E+01
 -1       922 2.49096E+01
 -1       923 2.57145E+01
 -1       924 2.55817E+01
 -1       925 2.74948E+01
 -1       926 2.87303E+01
 -1       927 2.07062E+01
 -1       928 2.06580E+01
 -1       929 1.98558E+01
 -1       930 2.13778E+01
 -1       931 1.49194E+01
 -1       932 1.75859E+01
 -1       933 1.75661E+01
 -1       934 1.83276E+01
 -1       935 1.79317E+01
 -1       936 1.38984E+01
 -1       937 1.26528E+01
 -1       938 1.38223E+01
 -1       939 1.48813E+01
 -1       940 2.06928E+01
 -1       941 2.10917E+01
 -1       942 2.20806E+01
 -1       943 2.17749E+01
 -1       944 1.92511E+01
 -1       945 1.69823E+01
 -1       946 1.65687E+01
 -1       947 1.86253E+01
 -1       948 1.39169E+01
 -1       949 1.43544E+01
 -1       950 1.33390E+01
 -1       951 1.35555E+01
 -1       952 2.09560E+01
 -1       953 2.37265E+01
 -1       954 2.86371E+01
 -1       955 2.66731E+01
 -1       956 2.69249E+01
 -1       957 1.92314E+01
 -1       958 2.02555E+01
 -1       959 1.78496E+01
 -1       960 2.27583E+01
 -1       961 1.91370E+01
 -1       962 2.18771E+01
 -1       963 2.61791E+01
 -1       964 2.43288E+01
 -1       965 2.39974E+01
 -1       966 1.58040E+01
 -1       967 1.10934E+01
 -1       968 1.22109E+01
 -1       969 1.47727E+01
 -1       970 2.43478E+01
 -1       971 2.11927E+01
 -1       972 1.45634E+01
 -1       973 1.22298E+01
 -1       974 9.48036E+00
 -1       975 1.77523E+01
 -1       976 1.62546E+01
 -1       977 1.37078E+01
 -1       978 9.47639E+00
 -1       979 1.24438E+01
 -1       980 2.51278E+01
 -1       981 2.42799E+01
 -1       982 1.30419E+01
 -1       983 2.25937E+01
 -1       984 2.18224E+01
 -1       985 2.36807E+01
 -1       986 1.26686E+01
 -1       987 2.67715E+01
 -1       988 2.36665E+01
 -1       989 1.09670E+01
 -1       990 2.03323E+01
 -1       991 9.64833E+00
 -1       992 1.16005E+01
 -1       993 9.60082E+00
 -1       994 1.11250E+01
 -1       995 1.86917E+01
 -1       996 1.82580E+01
 -1       997 1.24545E+01
 -1       998 1.85903E+01
 -1       999 1.25455E+01
 -1      1000 3.41447E+01
 -1      1001 2.07094E+01
 -1      1002 1.31727E+01
 -1      1003 2.58820E+01
 -1      1004 2.54358E+01
 -1      1005 2.80991E+01
 -1      1006 1.40585E+01
 -1      1007 1.38030E+01
 -1      1008 1.03581E+01
 -1      1009 1.18929E+01
 -1      1010 1.76335E+01
 -1      1011 1.92918E+01
 -1      1012 1.69559E+01
 -1      1013 1.72465E+01
 -1      1014 2.40430E+01
 -1      1015 2.25303E+01
 -1      1016 2.17611E+01
 -1      1017 2.62971E+01
 -1      1018 1.30264E+01
 -1      1019 1.20974E+01
 -1      1020 1.19350E+01
 -1      1021 2.06156E+01
 -1      1022 7.34777E+00
 -1      1023 1.18977E+01
 -1      1024 1.28359E+01
 -1      1025 1.31825E+01
 -1      1026 1.10184E+01
 -1      1027 1.06302E+01
 -1      1028 2.48731E+01
 -1      1029 1.83200E+01
 -1      1030 2.34200E+01
 -1      1031 1.16811E+01
 -1      1032 1.59908E+01
 -1      1033 1.00441E+01
 -1      1034 2.81196E+01
 -1      1035 2.76761E+01
 -1      1036 1.30755E+01
 -1      1037 2.11775E+01
 -1      1038 1.25266E+01
 -1      1039 2.48629E+01
 -1      1040 1.33809E+01
 -1      1041 1.30624E+01
 -1      1042 9.33510E+00
 -1      1043 2.82490E+01
 -1      1044 1.44513E+01
 -1      1045 1.38406E+01
 -1      1046 1.78087E+01
 -1      1047 1.04767E+01
 -1      1048 2.26510E+01
 -1      1049 2.33516E+01
 -1      1050 2.23103E+01
 -1      1051 2.15427E+01
 -1      1052 1.49005E+01
 -1      1053 1.70820E+01
 -1      1054 2.56581E+01
 -1      1055 2.81083E+01
 -1      1056 2.71623E+01
 -1      1057 2.29160E+01
 -1      1058 2.77773E+01
 -1      1059 2.72355E+01
 -1      1060 2.66473E+01
 -1      1061 2.23162E+01
 -1      1062 2.09832E+01
 -1      1063 2.60419E+01
 -1      1064 2.51137E+01
 -1      1065 2.54372E+01
 -1      1066 1.23719E+01
 -1      1067 2.79661E+01
 -1      1068 2.63617E+01
 -1      1069 2.83581E+01
 -1      1070 1.46563E+01
 -1      1071 2.88843E+01
 -1      1072 1.09176E+01
 -1      1073 1.77747E+01
 -1      1074 3.25383E+01
 -1      1075 2.96812E+01
 -1      1076 1.33809E+01
 -1      1077 1.09176E+01
 -1      1078 1.18268E+01
 -1      1079 9.28297E+00
 -1      1080 2.01546E+01
 -1      1081 1.54830E+01
 -1      1082 1.48097E+01
 -1      1083 2.15927E+01
 -1      1084 2.96812E+01
 -1      1085 2.96812E+01
 -1      1086 3.25383E+01
 -1      1087 2.94500E+01
 -1      1088 3.25383E+01
 -1      1089 3.04882E+01
 -1      1090 2.83396E+01
 -1      1091 2.59597E+01
 -1      1092 1.69567E+01
 -1      1093 2.40046E+01
 -1      1094 2.76611E+01
 -1      1095 1.60476E+01
 -1      1096 2.63617E+01
 -1      1097 2.63617E+01
 -1      1098 2.94500E+01
 -1      1099 2.35355E+01
 -1      1100 1.71068E+01
 -1      1101 2.35355E+01
 -1      1102 2.51953E+01
 -1      1103 2.01014E+01
 -1      1104 2.00406E+01
 -1      1105 2.30664E+01
 -1      1106 1.92473E+01
 -1      1107 1.92296E+01
 -1      1108 2.75648E+01
 -1      1109 1.87848E+01
 -1      1110 1.84636E+01
 -1      1111 2.63267E+01
 -1      1112 1.82405E+01
 -1      1113 1.82388E+01
 -1      1114 2.56589E+01
 -1      1115 1.80848E+01
 -1      1116 1.81300E+01
 -1      1117 2.52818E+01
 -1      1118 1.80026E+01
 -1      1119 1.79968E+01
 -1      1120 2.50005E+01
 -1      1121 1.77002E+01
 -1      1122 1.78924E+01
 -1      1123 2.45765E+01
 -1      1124 1.77740E+01
 -1      1125 1.74400E+01
 -1      1126 2.41615E+01
 -1      1127 1.72589E+01
 -1      1128 1.72414E+01
 -1      1129 2.38619E+01
 -1      1130 1.71111E+01
 -1      1131 1.72581E+01
 -1      1132 2.35504E+01
 -1      1133 1.68450E+01
 -1      1134 1.70271E+01
 -1      1135 2.30068E+01
 -1      1136 1.69954E+01
 -1      1137 1.68207E+01
 -1      1138 2.25620E+01
 -1      1139 1.64362E+01
 -1      1140 1.64332E+01
 -1      1141 2.21457E+01
 -1      1142 1.64638E+01
 -1      1143 1.64518E+01
 -1      1144 2.17917E+01
 -1      1145 1.58484E+01
 -1      1146 1.56302E+01
 -1      1147 2.12190E+01
 -1      1148 1.54885E+01
 -1      1149 1.56363E+01
 -1      1150 2.04740E+01
 -1      1151 1.51161E+01
 -1      1152 1.53383E+01
 -1      1153 1.98120E+01
 -1      1154 1.48525E+01
 -1      1155 1.44343E+01
 -1      1156 1.88059E+01
 -1      1157 1.41504E+01
 -1      1158 1.40531E+01
 -1      1159 1.80361E+01
 -1      1160 1.36549E+01
 -1      1161 1.40962E+01
 -1      1162 1.73541E+01
 -1      1163 1.37456E+01
 -1      1164 1.35141E+01
 -1      1165 1.66052E+01
 -1      1166 1.33822E+01
 -1      1167 1.35314E+01
 -1      1168 1.61227E+01
 -1      1169 1.28177E+01
 -1      1170 1.25180E+01
 -1      1171 1.52771E+01
 -1      1172 1.21377E+01
 -1      1173 1.23459E+01
 -1      1174 1.41832E+01
 -1      1175 1.22983E+01
 -1      1176 1.15952E+01
 -1      1177 1.37554E+01
 -1      1178 1.07088E+01
 -1      1179 1.04787E+01
 -1      1180 1.28214E+01
 -1      1181 1.06261E+01
 -1      1182 1.02374E+01
 -1      1183 1.20824E+01
 -1      1184 9.63174E+00
 -1      1185 1.06259E+01
 -1      1186 1.16241E+01
 -1      1187 1.10655E+01
 -1      1188 9.37665E+00
 -1      1189 1.14580E+01
 -1      1190 8.25199E+00
 -1      1191 9.29372E+00
 -1      1192 1.07730E+01
 -1      1193 1.14988E+01
 -1      1194 1.52890E+01
 -1      1195 1.18534E+01
 -1      1196 2.00930E+01
 -1      1197 2.81024E+01
 -1      1198 1.88625E+01
 -1      1199 2.81024E+01
 -1      1200 9.68582E+00
 -1      1201 1.01585E+01
 -1      1202 1.17931E+01
 -1      1203 1.00136E+01
 -1      1204 9.93785E+00
 -1      1205 1.29207E+01
 -1      1206 1.20229E+01
 -1      1207 9.94819E+00
 -1      1208 1.31073E+01
 -1      1209 9.90094E+00
 -1      1210 1.20332E+01
 -1      1211 1.30521E+01
 -1      1212 1.19314E+01
 -1      1213 9.90749E+00
 -1      1214 1.30689E+01
 -1      1215 1.27956E+01
 -1      1216 1.47396E+01
 -1      1217 1.58836E+01
 -1      1218 1.00551E+01
 -1      1219 1.00410E+01
 -1      1220 1.59371E+01
 -1      1221 1.47847E+01
 -1      1222 1.27590E+01
 -1      1223 1.58864E+01
 -1      1224 1.13679E+01
 -1      1225 1.19075E+01
 -1      1226 1.57131E+01
 -1      1227 9.74214E+00
 -1      1228 1.12227E+01
 -1      1229 1.26907E+01
 -1      1230 9.98691E+00
 -1      1231 9.98260E+00
 -1      1232 1.27860E+01
 -1      1233 1.46087E+01
 -1      1234 1.26027E+01
 -1      1235 1.56422E+01
 -1      1236 9.65927E+00
 -1      1237 1.17430E+01
 -1      1238 1.53923E+01
 -1      1239 1.08925E+01
 -1      1240 9.58192E+00
 -1      1241 1.24492E+01
 -1      1242 1.14810E+01
 -1      1243 1.09338E+01
 -1      1244 1.24132E+01
 -1      1245 1.23061E+01
 -1      1246 1.40705E+01
 -1      1247 1.50440E+01
 -1      1248 9.76345E+00
 -1      1249 9.71127E+00
 -1      1250 1.50386E+01
 -1      1251 1.21502E+01
 -1      1252 1.21648E+01
 -1      1253 1.48451E+01
 -1      1254 9.47285E+00
 -1      1255 9.47348E+00
 -1      1256 1.45697E+01
 -1      1257 1.08519E+01
 -1      1258 9.32664E+00
 -1      1259 1.17467E+01
 -1      1260 9.59753E+00
 -1      1261 1.11003E+01
 -1      1262 1.18490E+01
 -1      1263 1.05558E+01
 -1      1264 9.11131E+00
 -1      1265 1.16112E+01
 -1      1266 9.48778E+00
 -1      1267 1.03084E+01
 -1      1268 1.08776E+01
 -1      1269 9.02421E+00
 -1      1270 9.65614E+00
 -1      1271 1.07986E+01
 -1      1272 9.28073E+00
 -1      1273 8.56278E+00
 -1      1274 1.05055E+01
 -1      1275 9.35491E+00
 -1      1276 9.05909E+00
 -1      1277 9.82245E+00
 -1      1278 1.03581E+01
 -1      1279 9.73355E+00
 -1      1280 9.97945E+00
 -1      1281 9.43147E+00
 -1      1282 1.10196E+01
 -1      1283 1.10196E+01
 -1      1284 8.69752E+00
 -1      1285 8.32911E+00
 -1      1286 1.05787E+01
 -1      1287 8.41406E+00
 -1      1288 7.63321E+00
 -1      1289 8.41208E+00
 -1      1290 1.20683E+01
 -1      1291 9.48036E+00
 -1      1292 8.41406E+00
 -1      1293 2.21687E+01
 -1      1294 1.46563E+01
 -1      1295 1.20683E+01
 -1      1296 2.21687E+01
 -1      1297 1.77733E+01
 -1      1298 1.73931E+01
 -1      1299 1.87668E+01
 -1      1300 1.80531E+01
 -1      1301 2.12630E+01
 -1      1302 1.31931E+01
 -1      1303 1.33405E+01
 -1      1304 1.30352E+01
 -1      1305 1.24295E+01
 -1      1306 1.41460E+01
 -1      1307 9.40773E+00
 -1      1308 8.34143E+00
 -1      1309 1.13580E+01
 -1      1310 1.14306E+01
 -1      1311 1.40186E+01
 -1      1312 2.00342E+01
 -1      1313 1.96360E+01
 -1      1314 2.06180E+01
 -1      1315 2.03341E+01
 -1      1316 2.26161E+01
 -1      1317 1.98034E+01
 -1      1318 1.94528E+01
 -1      1319 1.92824E+01
 -1      1320 1.91505E+01
 -1      1321 2.24806E+01
 -1      1322 1.58058E+01
 -1      1323 1.57583E+01
 -1      1324 1.53949E+01
 -1      1325 1.45085E+01
 -1      1326 1.74453E+01
 -1      1327 8.91224E+00
 -1      1328 9.97655E+00
 -1      1329 1.21884E+01
 -1      1330 1.32908E+01
 -1      1331 1.26886E+01
 -1      1332 1.87787E+01
 -1      1333 2.13736E+01
 -1      1334 2.02990E+01
 -1      1335 1.78977E+01
 -1      1336 2.42326E+01
 -1      1337 2.67675E+01
 -1      1338 2.66135E+01
 -1      1339 2.81740E+01
 -1      1340 2.66884E+01
 -1      1341 2.65611E+01
 -1      1342 2.57211E+01
 -1      1343 2.56027E+01
 -1      1344 2.64907E+01
 -1      1345 2.61941E+01
 -1      1346 2.76353E+01
 -1      1347 2.03590E+01
 -1      1348 2.04244E+01
 -1      1349 2.05040E+01
 -1      1350 2.78211E+01
 -1      1351 2.05142E+01
 -1      1352 2.43178E+01
 -1      1353 2.42861E+01
 -1      1354 2.53278E+01
 -1      1355 2.49146E+01
 -1      1356 2.66387E+01
 -1      1357 2.40291E+01
 -1      1358 2.40597E+01
 -1      1359 2.55800E+01
 -1      1360 2.33426E+01
 -1      1361 2.27393E+01
 -1      1362 2.53452E+01
 -1      1363 2.51640E+01
 -1      1364 2.57290E+01
 -1      1365 2.55987E+01
 -1      1366 2.72123E+01
 -1      1367 2.06461E+01
 -1      1368 2.03941E+01
 -1      1369 2.85020E+01
 -1      1370 2.07765E+01
 -1      1371 2.50309E+01
 -1      1372 1.69231E+01
 -1      1373 2.72238E+01
 -1      1374 2.67790E+01
 -1      1375 2.78979E+01
 -1      1376 2.74455E+01
 -1      1377 2.82388E+01
 -1      1378 1.37197E+01
 -1      1379 1.85237E+01
 -1      1380 1.33809E+01
 -1      1381 1.85237E+01
 -1      1382 2.50141E+01
 -1      1383 1.98713E+01
 -1      1384 1.59751E+01
 -1      1385 1.58067E+01
 -1      1386 1.39264E+01
 -1      1387 1.43878E+01
 -1      1388 1.93959E+01
 -1      1389 2.27230E+01
 -1      1390 2.22027E+01
 -1      1391 2.31369E+01
 -1      1392 2.29952E+01
 -1      1393 2.53859E+01
 -1      1394 9.49172E+00
 -1      1395 1.16968E+01
 -1      1396 1.11872E+01
 -1      1397 1.00625E+01
 -1      1398 9.90590E+00
 -1      1399 1.69583E+01
 -1      1400 1.71045E+01
 -1      1401 1.73742E+01
 -1      1402 1.71257E+01
 -1      1403 2.24836E+01
 -1      1404 1.24047E+01
 -1      1405 1.20260E+01
 -1      1406 1.33414E+01
 -1      1407 1.35630E+01
 -1      1408 1.57666E+01
 -1      1409 1.67176E+01
 -1      1410 1.72039E+01
 -1      1411 1.60865E+01
 -1      1412 1.63339E+01
 -1      1413 2.19265E+01
 -1      1414 2.06454E+01
 -1      1415 2.34000E+01
 -1      1416 2.34704E+01
 -1      1417 2.06622E+01
 -1      1418 2.81786E+01
 -1      1419 2.21499E+01
 -1      1420 1.95342E+01
 -1      1421 1.89819E+01
 -1      1422 2.18476E+01
 -1      1423 2.57395E+01
 -1      1424 2.16458E+01
 -1      1425 1.90563E+01
 -1      1426 2.52605E+01
 -1      1427 1.86587E+01
 -1      1428 1.86174E+01
 -1      1429 1.97416E+01
 -1      1430 2.26188E+01
 -1      1431 2.28763E+01
 -1      1432 2.01724E+01
 -1      1433 2.69048E+01
 -1      1434 2.01310E+01
 -1      1435 1.98905E+01
 -1      1436 2.01614E+01
 -1      1437 2.03066E+01
 -1      1438 2.75064E+01
 -1      1439 3.15145E+01
 -1      1440 2.86212E+01
 -1      1441 3.12514E+01
 -1      1442 1.70451E+01
 -1      1443 1.76828E+01
 -1      1444 1.40186E+01
 -1      1445 2.69240E+01
 -1      1446 2.67010E+01
 -1      1447 2.80326E+01
 -1      1448 2.05807E+01
 -1      1449 2.05873E+01
 -1      1450 1.27609E+01
 -1      1451 1.20994E+01
 -1      1452 1.74045E+01
 -1      1453 2.00812E+01
 -1      1454 2.13217E+01
 -1      1455 2.08358E+01
 -1      1456 2.31338E+01
 -1      1457 2.39837E+01
 -1      1458 2.35991E+01
 -1      1459 2.58671E+01
 -1      1460 1.94118E+01
 -1      1461 1.93345E+01
 -1      1462 1.29595E+01
 -1      1463 1.33991E+01
 -1      1464 1.43706E+01
 -1      1465 1.21079E+01
 -1      1466 9.60245E+00
 -1      1467 1.22298E+01
 -1      1468 1.27719E+01
 -1      1469 1.14303E+01
 -1      1470 1.19501E+01
 -1      1471 1.15775E+01
 -1      1472 1.30336E+01
 -1      1473 1.13406E+01
 -1      1474 1.93375E+01
 -1      1475 1.24389E+01
 -1      1476 9.56906E+00
 -1      1477 1.03134E+01
 -1      1478 1.31321E+01
 -1      1479 1.22562E+01
 -1      1480 1.20505E+01
 -1      1481 2.41248E+01
 -1      1482 1.16733E+01
 -1      1483 1.25297E+01
 -1      1484 1.32159E+01
 -1      1485 1.91446E+01
 -1      1486 1.94609E+01
 -1      1487 1.31361E+01
 -1      1488 1.19821E+01
 -1      1489 2.38082E+01
 -1      1490 1.30760E+01
 -1      1491 1.09104E+01
 -1      1492 1.07898E+01
 -1      1493 1.34096E+01
 -1      1494 1.27437E+01
 -1      1495 2.05588E+01
 -1      1496 1.40585E+01
 -1      1497 1.77640E+01
 -1      1498 1.10433E+01
 -1      1499 1.40564E+01
 -1      1500 1.04249E+01
 -1      1501 1.09848E+01
 -1      1502 1.87150E+01
 -1      1503 1.05359E+01
 -1      1504 1.80481E+01
 -1      1505 1.18977E+01
 -1      1506 1.16888E+01
 -1      1507 1.59224E+01
 -1      1508 1.91890E+01
 -1      1509 1.93007E+01
 -1      1510 9.28005E+00
 -1      1511 1.33027E+01
 -1      1512 1.33631E+01
 -1      1513 1.21921E+01
 -1      1514 1.93008E+01
 -1      1515 1.95747E+01
 -1      1516 1.34590E+01
 -1      1517 1.03378E+01
 -1      1518 1.03415E+01
 -1      1519 1.05180E+01
 -1      1520 9.81724E+00
 -1      1521 1.85587E+01
 -1      1522 1.20505E+01
 -1      1523 1.67732E+01
 -1      1524 1.19031E+01
 -1      1525 1.98693E+01
 -1      1526 1.09492E+01
 -1      1527 1.14519E+01
 -1      1528 1.26834E+01
 -1      1529 1.31384E+01
 -1      1530 1.24723E+01
 -1      1531 1.27420E+01
 -1      1532 1.33613E+01
 -1      1533 1.98731E+01
 -1      1534 1.29401E+01
 -1      1535 1.32375E+01
 -1      1536 1.34966E+01
 -1      1537 1.33631E+01
 -1      1538 1.75975E+01
 -1      1539 1.19679E+01
 -1      1540 1.26495E+01
 -1      1541 1.25297E+01
 -1      1542 1.42896E+01
 -1      1543 1.94173E+01
 -1      1544 1.86200E+01
 -1      1545 1.37541E+01
 -1      1546 1.99072E+01
 -1      1547 1.63845E+01
 -1      1548 1.20869E+01
 -1      1549 1.86913E+01
 -1      1550 1.20505E+01
 -1      1551 1.97963E+01
 -1      1552 1.92884E+01
 -1      1553 1.87161E+01
 -1      1554 1.30082E+01
 -1      1555 1.92506E+01
 -1      1556 1.32565E+01
 -1      1557 1.33311E+01
 -1      1558 1.18819E+01
 -1      1559 1.89715E+01
 -1      1560 1.98824E+01
 -1      1561 2.41248E+01
 -1      1562 1.17140E+01
 -1      1563 2.15454E+01
 -1      1564 2.04942E+01
 -1      1565 1.10667E+01
 -1      1566 9.53216E+00
 -1      1567 3.25383E+01
 -1      1568 2.97180E+01
 -1      1569 1.86855E+01
 -1      1570 1.01387E+01
 -1      1571 1.02378E+01
 -1      1572 8.61699E+00
 -1      1573 1.21290E+01
 -1      1574 1.04168E+01
 -1      1575 1.14557E+01
 -1      1576 2.97180E+01
 -1      1577 2.61338E+01
 -1      1578 2.97180E+01
 -1      1579 2.73050E+01
 -1      1580 3.25383E+01
 -1      1581 3.25383E+01
 -1      1582 1.12672E+01
 -1      1583 1.13637E+01
 -1      1584 1.07571E+01
 -1      1585 1.06095E+01
 -1      1586 1.10021E+01
 -1      1587 1.17170E+01
 -1      1588 1.12593E+01
 -1      1589 2.31790E+01
 -1      1590 2.10340E+01
 -1      1591 2.67631E+01
 -1      1592 2.11923E+01
 -1      1593 2.30982E+01
 -1      1594 2.39665E+01
 -1      1595 2.83316E+01
 -1      1596 9.70790E+00
 -1      1597 9.22056E+00
 -1      1598 1.06231E+01
 -1      1599 8.83819E+00
 -1      1600 8.87379E+00
 -1      1601 1.13316E+01
 -1      1602 1.30679E+01
 -1      1603 1.51601E+01
 -1      1604 1.51434E+01
 -1      1605 1.06603E+01
 -1      1606 8.58375E+00
 -1      1607 1.48376E+01
 -1      1608 8.80976E+00
 -1      1609 1.07956E+01
 -1      1610 1.05638E+01
 -1      1611 1.50511E+01
 -1      1612 1.31001E+01
 -1      1613 1.50453E+01
 -1      1614 9.11999E+00
 -1      1615 9.13363E+00
 -1      1616 1.53207E+01
 -1      1617 1.31137E+01
 -1      1618 1.51253E+01
 -1      1619 1.53206E+01
 -1      1620 1.06316E+01
 -1      1621 1.01077E+01
 -1      1622 1.48070E+01
 -1      1623 9.59108E+00
 -1      1624 8.11405E+00
 -1      1625 9.79671E+00
 -1      1626 9.31842E+00
 -1      1627 9.33236E+00
 -1      1628 1.04844E+01
 -1      1629 1.30603E+01
 -1      1630 1.50625E+01
 -1      1631 1.54167E+01
 -1      1632 1.06609E+01
 -1      1633 8.63337E+00
 -1      1634 1.47431E+01
 -1      1635 8.24713E+00
 -1      1636 9.49951E+00
 -1      1637 9.95530E+00
 -1      1638 9.98291E+00
 -1      1639 1.05290E+01
 -1      1640 1.00525E+01
 -1      1641 1.46186E+01
 -1      1642 1.28645E+01
 -1      1643 1.46254E+01
 -1      1644 9.29577E+00
 -1      1645 9.32326E+00
 -1      1646 1.51463E+01
 -1      1647 1.28139E+01
 -1      1648 1.47426E+01
 -1      1649 1.50681E+01
 -1      1650 1.11783E+01
 -1      1651 9.21759E+00
 -1      1652 1.49945E+01
 -1      1653 9.02409E+00
 -1      1654 1.06469E+01
 -1      1655 1.12368E+01
 -1      1656 1.40073E+01
 -1      1657 1.24062E+01
 -1      1658 1.44036E+01
 -1      1659 9.57821E+00
 -1      1660 1.10962E+01
 -1      1661 1.49359E+01
 -1      1662 9.95084E+00
 -1      1663 9.13992E+00
 -1      1664 1.09626E+01
 -1      1665 9.68650E+00
 -1      1666 8.99561E+00
 -1      1667 1.03638E+01
 -1      1668 8.79943E+00
 -1      1669 9.51638E+00
 -1      1670 1.07142E+01
 -1      1671 9.05859E+00
 -1      1672 9.35443E+00
 -1      1673 1.00602E+01
 -1      1674 9.76565E+00
 -1      1675 1.04039E+01
 -1      1676 1.00137E+01
 -1      1677 1.12167E+01
 -1      1678 9.61791E+00
 -1      1679 1.12377E+01
 -1      1680 9.61791E+00
 -1      1681 1.00543E+01
 -1      1682 1.20505E+01
 -1      1683 1.07106E+01
 -1      1684 1.12112E+01
 -1      1685 1.27068E+01
 -1      1686 1.09156E+01
 -1      1687 1.36664E+01
 -1      1688 1.30675E+01
 -1      1689 1.80531E+01
 -1      1690 2.56317E+01
 -1      1691 1.71586E+01
 -1      1692 2.56317E+01
 -1      1693 1.24276E+01
 -1      1694 1.24884E+01
 -1      1695 1.20994E+01
 -1      1696 1.22157E+01
 -1      1697 1.22334E+01
 -1      1698 1.29379E+01
 -1      1699 1.22274E+01
 -1      1700 1.25487E+01
 -1      1701 1.30766E+01
 -1      1702 1.22504E+01
 -1      1703 1.22521E+01
 -1      1704 1.34343E+01
 -1      1705 1.20829E+01
 -1      1706 1.20377E+01
 -1      1707 1.32463E+01
 -1      1708 1.19312E+01
 -1      1709 1.19371E+01
 -1      1710 1.28878E+01
 -1      1711 1.19886E+01
 -1      1712 1.17964E+01
 -1      1713 1.26072E+01
 -1      1714 1.51490E+01
 -1      1715 1.54829E+01
 -1      1716 1.59666E+01
 -1      1717 1.20817E+01
 -1      1718 1.20991E+01
 -1      1719 1.64111E+01
 -1      1720 1.14891E+01
 -1      1721 1.13420E+01
 -1      1722 1.26216E+01
 -1      1723 1.19497E+01
 -1      1724 1.17676E+01
 -1      1725 1.21604E+01
 -1      1726 1.51501E+01
 -1      1727 1.53247E+01
 -1      1728 1.58139E+01
 -1      1729 1.21206E+01
 -1      1730 1.21236E+01
 -1      1731 1.61625E+01
 -1      1732 1.51659E+01
 -1      1733 1.51779E+01
 -1      1734 1.61933E+01
 -1      1735 1.17924E+01
 -1      1736 1.20106E+01
 -1      1737 1.60953E+01
 -1      1738 1.13068E+01
 -1      1739 1.11590E+01
 -1      1740 1.23067E+01
 -1      1741 1.17885E+01
 -1      1742 1.15662E+01
 -1      1743 1.19327E+01
 -1      1744 1.18822E+01
 -1      1745 1.23004E+01
 -1      1746 1.27040E+01
 -1      1747 1.15187E+01
 -1      1748 1.16160E+01
 -1      1749 1.29496E+01
 -1      1750 1.21875E+01
 -1      1751 1.17462E+01
 -1      1752 1.29109E+01
 -1      1753 1.15149E+01
 -1      1754 1.17464E+01
 -1      1755 1.26973E+01
 -1      1756 1.14875E+01
 -1      1757 1.13384E+01
 -1      1758 1.20797E+01
 -1      1759 1.07287E+01
 -1      1760 1.10284E+01
 -1      1761 1.14440E+01
 -1      1762 1.14194E+01
 -1      1763 1.12113E+01
 -1      1764 1.14675E+01
 -1      1765 1.31279E+01
 -1      1766 1.38310E+01
 -1      1767 1.43617E+01
 -1      1768 1.10492E+01
 -1      1769 1.12793E+01
 -1      1770 1.49246E+01
 -1      1771 1.20837E+01
 -1      1772 1.24724E+01
 -1      1773 1.44992E+01
 -1      1774 1.12316E+01
 -1      1775 1.02374E+01
 -1      1776 1.40761E+01
 -1      1777 9.37665E+00
 -1      1778 1.10655E+01
 -1      1779 1.20637E+01
 -1      1780 1.07344E+01
 -1      1781 9.69267E+00
 -1      1782 1.22137E+01
 -1      1783 1.52890E+01
 -1      1784 1.14988E+01
 -1      1785 1.32941E+01
 -1      1786 2.83316E+01
 -1      1787 2.03221E+01
 -1      1788 1.90917E+01
 -1      1789 2.83316E+01
 -1      1790 1.81920E+01
 -1      1791 1.53640E+01
 -1      1792 1.20974E+01
 -1      1793 1.09521E+01
 -1      1794 1.53535E+01
 -1      1795 1.29935E+01
 -1      1796 1.34047E+01
 -1      1797 1.40578E+01
 -1      1798 1.36000E+01
 -1      1799 1.69910E+01
 -1      1800 1.19741E+01
 -1      1801 1.21402E+01
 -1      1802 1.32597E+01
 -1      1803 1.51060E+01
 -1      1804 1.31701E+01
 -1      1805 1.33631E+01
 -1      1806 1.30675E+01
 -1      1807 1.31342E+01
 -1      1808 1.34298E+01
 -1      1809 1.75210E+01
 -1      1810 1.27434E+01
 -1      1811 1.25499E+01
 -1      1812 1.50732E+01
 -1      1813 1.63863E+01
 -1      1814 1.86374E+01
 -1      1815 1.22998E+01
 -1      1816 1.18172E+01
 -1      1817 1.43706E+01
 -1      1818 1.19590E+01
 -1      1819 1.23087E+01
 -1      1820 1.90017E+01
 -1      1821 1.54329E+01
 -1      1822 1.54974E+01
 -1      1823 1.89880E+01
 -1      1824 1.93528E+01
 -1      1825 1.33938E+01
 -1      1826 1.36065E+01
 -1      1827 1.30365E+01
 -1      1828 1.31823E+01
 -1      1829 1.35426E+01
 -1      1830 1.56115E+01
 -1      1831 1.95916E+01
 -1      1832 1.94377E+01
 -1      1833 1.54576E+01
 -1      1834 1.97285E+01
 -1      1835 1.96223E+01
 -1      1836 1.51225E+01
 -1      1837 1.96034E+01
 -1      1838 1.54093E+01
 -1      1839 1.98882E+01
 -1      1840 1.94926E+01
 -1      1841 1.61176E+01
 -1      1842 1.28382E+01
 -1      1843 1.65169E+01
 -1      1844 1.25597E+01
 -1      1845 1.38086E+01
 -1      1846 1.42920E+01
 -1      1847 1.47211E+01
 -1      1848 1.89606E+01
 -1      1849 1.51073E+01
 -1      1850 1.91361E+01
 -1      1851 1.46424E+01
 -1      1852 1.18080E+01
 -1      1853 1.12914E+01
 -1      1854 1.61371E+01
 -1      1855 1.66512E+01
 -1      1856 1.68454E+01
 -1      1857 2.05265E+01
 -1      1858 1.68131E+01
 -1      1859 1.22920E+01
 -1      1860 1.59730E+01
 -1      1861 1.52616E+01
 -1      1862 1.54381E+01
 -1      1863 1.26322E+01
 -1      1864 1.30733E+01
 -1      1865 1.58141E+01
 -1      1866 1.22901E+01
 -1      1867 1.29464E+01
 -1      1868 1.20505E+01
 -1      1869 1.20505E+01
 -1      1870 1.22901E+01
 -1      1871 1.88107E+01
 -1      1872 1.37775E+01
 -1      1873 2.14052E+01
 -1      1874 1.60911E+01
 -1      1875 2.41248E+01
 -1      1876 2.14052E+01
 -1      1877 1.57402E+01
 -1      1878 1.54808E+01
 -1      1879 1.24649E+01
 -1      1880 1.30983E+01
 -1      1881 1.62724E+01
 -1      1882 1.37108E+01
 -1      1883 1.29464E+01
 -1      1884 1.25297E+01
 -1      1885 1.22137E+01
 -1      1886 1.29464E+01
 -1      1887 1.63166E+01
 -1      1888 1.58047E+01
 -1      1889 1.56998E+01
 -1      1890 1.59660E+01
 -1      1891 1.90667E+01
 -1      1892 1.57425E+01
 -1      1893 1.94705E+01
 -1      1894 1.89180E+01
 -1      1895 1.45164E+01
 -1      1896 1.92438E+01
 -1      1897 1.96717E+01
 -1      1898 1.61774E+01
 -1      1899 1.61664E+01
 -1      1900 1.92162E+01
 -1      1901 1.94270E+01
 -1      1902 1.59137E+01
 -1      1903 1.89401E+01
 -1      1904 1.65046E+01
 -1      1905 1.92822E+01
 -1      1906 1.95619E+01
 -1      1907 1.62381E+01
 -1      1908 1.18480E+01
 -1      1909 1.61041E+01
 -1      1910 2.12469E+01
 -1      1911 2.26768E+01
 -1      1912 2.01155E+01
 -1      1913 1.61535E+01
 -1      1914 1.47303E+01
 -1      1915 1.53368E+01
 -1      1916 1.71854E+01
 -1      1917 1.14391E+01
 -1      1918 1.12429E+01
 -1      1919 1.12334E+01
 -1      1920 1.17799E+01
 -1      1921 1.20605E+01
 -1      1922 1.63160E+01
 -1      1923 1.20459E+01
 -1      1924 1.22719E+01
 -1      1925 1.66395E+01
 -1      1926 1.63065E+01
 -1      1927 1.66831E+01
 -1      1928 1.66584E+01
 -1      1929 2.02140E+01
 -1      1930 1.57540E+01
 -1      1931 1.61364E+01
 -1      1932 1.20257E+01
 -1      1933 1.53861E+01
 -1      1934 1.35323E+01
 -1      1935 1.33699E+01
 -1      1936 1.35974E+01
 -1      1937 1.23573E+01
 -1      1938 1.31701E+01
 -1      1939 1.53371E+01
 -1      1940 1.15359E+01
 -1      1941 1.19950E+01
 -1      1942 1.23682E+01
 -1      1943 1.18962E+01
 -1      1944 1.59858E+01
 -1      1945 1.56523E+01
 -1      1946 1.86493E+01
 -1      1947 1.54941E+01
 -1      1948 1.12588E+01
 -1      1949 1.24631E+01
 -1      1950 1.32701E+01
 -1      1951 1.33320E+01
 -1      1952 1.25923E+01
 -1      1953 1.64529E+01
 -1      1954 1.60235E+01
 -1      1955 1.61583E+01
 -1      1956 1.68306E+01
 -1      1957 1.47827E+01
 -1      1958 1.11693E+01
 -1      1959 1.32642E+01
 -1      1960 1.20276E+01
 -1      1961 1.33735E+01
 -1      1962 1.58018E+01
 -1      1963 1.09670E+01
 -1      1964 1.21644E+01
 -1      1965 1.02941E+01
 -1      1966 1.25831E+01
 -1      1967 1.21827E+01
 -1      1968 1.16857E+01
 -1      1969 9.54700E+00
 -1      1970 1.03387E+01
 -1      1971 1.13779E+01
 -1      1972 1.20974E+01
 -1      1973 1.28913E+01
 -1      1974 2.03222E+01
 -1      1975 1.87055E+01
 -1      1976 8.41836E+00
 -1      1977 1.86171E+01
 -1      1978 1.91805E+01
 -1      1979 1.32174E+01
 -1      1980 1.18890E+01
 -1      1981 1.17905E+01
 -1      1982 2.32176E+01
 -1      1983 9.60082E+00
 -1      1984 1.19680E+01
 -1      1985 1.13581E+01
 -1      1986 1.18911E+01
 -1      1987 1.09481E+01
 -1      1988 1.06886E+01
 -1      1989 1.84345E+01
 -1      1990 1.21979E+01
 -1      1991 1.21988E+01
 -1      1992 1.53120E+01
 -1      1993 1.65745E+01
 -1      1994 1.19504E+01
 -1      1995 1.13301E+01
 -1      1996 9.60119E+00
 -1      1997 1.20276E+01
 -1      1998 1.03874E+01
 -1      1999 1.24424E+01
 -1      2000 1.91563E+01
 -1      2001 1.03212E+01
 -1      2002 1.32369E+01
 -1      2003 1.94960E+01
 -1      2004 1.31441E+01
 -1      2005 9.47347E+00
 -1      2006 1.05570E+01
 -1      2007 1.93110E+01
 -1      2008 1.16852E+01
 -1      2009 1.28341E+01
 -1      2010 1.10017E+01
 -1      2011 1.71728E+01
 -1      2012 1.93170E+01
 -1      2013 1.67959E+01
 -1      2014 9.27624E+00
 -1      2015 1.00944E+01
 -1      2016 1.15567E+01
 -1      2017 1.36909E+01
 -1      2018 1.05247E+01
 -1      2019 1.16030E+01
 -1      2020 1.99428E+01
 -1      2021 1.16061E+01
 -1      2022 1.13903E+01
 -1      2023 1.06516E+01
 -1      2024 1.03956E+01
 -1      2025 1.36159E+01
 -1      2026 1.28858E+01
 -1      2027 1.33381E+01
 -1      2028 1.34220E+01
 -1      2029 1.75468E+01
 -1      2030 1.19491E+01
 -1      2031 1.27681E+01
 -1      2032 1.12667E+01
 -1      2033 1.49629E+01
 -1      2034 1.95124E+01
 -1      2035 1.78293E+01
 -1      2036 1.33170E+01
 -1      2037 1.95378E+01
 -1      2038 1.96139E+01
 -1      2039 1.73726E+01
 -1      2040 1.88515E+01
 -1      2041 1.68073E+01
 -1      2042 1.98754E+01
 -1      2043 1.15890E+01
 -1      2044 1.32379E+01
 -1      2045 1.33815E+01
 -1      2046 1.89878E+01
 -1      2047 1.36909E+01
 -1      2048 1.97950E+01
 -1      2049 1.92773E+01
 -1      2050 1.74471E+01
 -1      2051 1.90952E+01
 -1      2052 1.06896E+01
 -1      2053 1.86587E+01
 -1      2054 2.36388E+01
 -1      2055 1.30881E+01
 -1      2056 2.32176E+01
 -1      2057 1.83103E+01
 -1      2058 9.83217E+00
 -1      2059 1.06786E+01
 -1      2060 2.96812E+01
 -1      2061 2.93233E+01
 -1      2062 2.02841E+01
 -1      2063 1.21258E+01
 -1      2064 1.10552E+01
 -1      2065 1.12714E+01
 -1      2066 9.57936E+00
 -1      2067 1.03749E+01
 -1      2068 8.74025E+00
 -1      2069 2.60467E+01
 -1      2070 2.93233E+01
 -1      2071 2.93233E+01
 -1      2072 2.96812E+01
 -1      2073 2.66152E+01
 -1      2074 2.96812E+01
 -1      2075 1.16111E+01
 -1      2076 1.16111E+01
 -1      2077 1.12346E+01
 -1      2078 1.14110E+01
 -1      2079 1.03584E+01
 -1      2080 1.15904E+01
 -1      2081 1.06113E+01
 -1      2082 2.08968E+01
 -1      2083 2.29938E+01
 -1      2084 2.62704E+01
 -1      2085 2.35940E+01
 -1      2086 2.11075E+01
 -1      2087 2.34282E+01
 -1      2088 2.66600E+01
 -1      2089 1.23913E+01
 -1      2090 1.24761E+01
 -1      2091 1.18834E+01
 -1      2092 1.14708E+01
 -1      2093 1.16502E+01
 -1      2094 1.23471E+01
 -1      2095 1.16122E+01
 -1      2096 1.17592E+01
 -1      2097 1.18944E+01
 -1      2098 1.39306E+01
 -1      2099 1.41072E+01
 -1      2100 1.46778E+01
 -1      2101 1.15278E+01
 -1      2102 1.12898E+01
 -1      2103 1.45320E+01
 -1      2104 1.18457E+01
 -1      2105 1.19993E+01
 -1      2106 1.23626E+01
 -1      2107 1.20623E+01
 -1      2108 1.17202E+01
 -1      2109 1.27086E+01
 -1      2110 1.53501E+01
 -1      2111 1.55187E+01
 -1      2112 1.60396E+01
 -1      2113 1.19757E+01
 -1      2114 1.21742E+01
 -1      2115 1.63201E+01
 -1      2116 1.14924E+01
 -1      2117 1.13482E+01
 -1      2118 1.25166E+01
 -1      2119 1.19555E+01
 -1      2120 1.17691E+01
 -1      2121 1.21657E+01
 -1      2122 1.51020E+01
 -1      2123 1.53245E+01
 -1      2124 1.58114E+01
 -1      2125 1.19108E+01
 -1      2126 1.19546E+01
 -1      2127 1.60331E+01
 -1      2128 1.07137E+01
 -1      2129 1.08127E+01
 -1      2130 1.17877E+01
 -1      2131 1.21684E+01
 -1      2132 1.19776E+01
 -1      2133 1.19535E+01
 -1      2134 1.11239E+01
 -1      2135 1.12247E+01
 -1      2136 1.22737E+01
 -1      2137 1.17652E+01
 -1      2138 1.15411E+01
 -1      2139 1.17473E+01
 -1      2140 1.11950E+01
 -1      2141 1.14614E+01
 -1      2142 1.18606E+01
 -1      2143 1.31379E+01
 -1      2144 1.33176E+01
 -1      2145 1.36793E+01
 -1      2146 1.32422E+01
 -1      2147 1.28931E+01
 -1      2148 1.55569E+01
 -1      2149 1.19832E+01
 -1      2150 1.16856E+01
 -1      2151 1.37554E+01
 -1      2152 1.10366E+01
 -1      2153 1.14684E+01
 -1      2154 1.16841E+01
 -1      2155 1.00689E+01
 -1      2156 1.04992E+01
 -1      2157 1.06319E+01
 -1      2158 1.14160E+01
 -1      2159 1.10057E+01
 -1      2160 1.10312E+01
 -1      2161 1.38740E+01
 -1      2162 1.38300E+01
 -1      2163 1.43819E+01
 -1      2164 1.11132E+01
 -1      2165 1.21081E+01
 -1      2166 1.50301E+01
 -1      2167 1.12791E+01
 -1      2168 1.04563E+01
 -1      2169 1.26073E+01
 -1      2170 1.11707E+01
 -1      2171 1.21494E+01
 -1      2172 1.28207E+01
 -1      2173 1.09406E+01
 -1      2174 1.07709E+01
 -1      2175 1.32911E+01
 -1      2176 9.30737E+00
 -1      2177 9.23173E+00
 -1      2178 1.11824E+01
 -1      2179 1.49074E+01
 -1      2180 1.12574E+01
 -1      2181 1.14235E+01
 -1      2182 2.62704E+01
 -1      2183 1.98295E+01
 -1      2184 1.82956E+01
 -1      2185 2.62704E+01
 -1      2186 9.51313E+00
 -1      2187 9.04047E+00
 -1      2188 1.06051E+01
 -1      2189 8.69582E+00
 -1      2190 8.77157E+00
 -1      2191 1.10333E+01
 -1      2192 8.90132E+00
 -1      2193 1.09761E+01
 -1      2194 1.08184E+01
 -1      2195 1.10028E+01
 -1      2196 8.87058E+00
 -1      2197 1.09749E+01
 -1      2198 8.51680E+00
 -1      2199 1.05408E+01
 -1      2200 1.06479E+01
 -1      2201 1.50522E+01
 -1      2202 1.31083E+01
 -1      2203 1.48055E+01
 -1      2204 9.12881E+00
 -1      2205 9.14288E+00
 -1      2206 1.53375E+01
 -1      2207 1.31193E+01
 -1      2208 1.51450E+01
 -1      2209 1.53345E+01
 -1      2210 1.06589E+01
 -1      2211 1.01193E+01
 -1      2212 1.48248E+01
 -1      2213 9.58803E+00
 -1      2214 8.10750E+00
 -1      2215 9.80746E+00
 -1      2216 9.31225E+00
 -1      2217 9.31656E+00
 -1      2218 1.04810E+01
 -1      2219 1.30518E+01
 -1      2220 1.50578E+01
 -1      2221 1.54210E+01
 -1      2222 1.06403E+01
 -1      2223 8.55656E+00
 -1      2224 1.47387E+01
 -1      2225 8.16948E+00
 -1      2226 9.48004E+00
 -1      2227 9.93408E+00
 -1      2228 9.98506E+00
 -1      2229 1.05322E+01
 -1      2230 1.00520E+01
 -1      2231 1.46065E+01
 -1      2232 1.28421E+01
 -1      2233 1.46313E+01
 -1      2234 9.33198E+00
 -1      2235 9.38416E+00
 -1      2236 1.51954E+01
 -1      2237 1.28501E+01
 -1      2238 1.28356E+01
 -1      2239 1.51512E+01
 -1      2240 8.85283E+00
 -1      2241 8.85220E+00
 -1      2242 1.46344E+01
 -1      2243 8.72417E+00
 -1      2244 1.02494E+01
 -1      2245 1.05236E+01
 -1      2246 1.11003E+01
 -1      2247 9.59753E+00
 -1      2248 1.12465E+01
 -1      2249 9.35031E+00
 -1      2250 1.07948E+01
 -1      2251 1.18502E+01
 -1      2252 9.79390E+00
 -1      2253 8.97325E+00
 -1      2254 1.06021E+01
 -1      2255 9.65614E+00
 -1      2256 9.02421E+00
 -1      2257 1.02841E+01
 -1      2258 8.80306E+00
 -1      2259 9.52101E+00
 -1      2260 1.07458E+01
 -1      2261 9.05909E+00
 -1      2262 9.35491E+00
 -1      2263 1.00627E+01
 -1      2264 9.74819E+00
 -1      2265 1.03727E+01
 -1      2266 9.99410E+00
 -1      2267 1.11929E+01
 -1      2268 9.60474E+00
 -1      2269 1.12075E+01
 -1      2270 9.60474E+00
 -1      2271 9.97315E+00
 -1      2272 1.20276E+01
 -1      2273 8.16851E+00
 -1      2274 8.94936E+00
 -1      2275 1.02230E+01
 -1      2276 1.08391E+01
 -1      2277 1.34271E+01
 -1      2278 1.03081E+01
 -1      2279 1.74892E+01
 -1      2280 2.50017E+01
 -1      2281 1.62600E+01
 -1      2282 2.50017E+01
 -1      2283 1.44993E+01
 -1      2284 1.50141E+01
 -1      2285 1.08417E+01
 -1      2286 1.13792E+01
 -1      2287 1.47091E+01
 -1      2288 1.43789E+01
 -1      2289 1.50358E+01
 -1      2290 1.54055E+01
 -1      2291 1.71714E+01
 -1      2292 1.71771E+01
 -1      2293 1.28593E+01
 -1      2294 1.28593E+01
 -1      2295 1.26751E+01
 -1      2296 1.34953E+01
 -1      2297 1.43269E+01
 -1      2298 1.33978E+01
 -1      2299 1.14478E+01
 -1      2300 1.33801E+01
 -1      2301 1.33558E+01
 -1      2302 1.82779E+01
 -1      2303 1.59433E+01
 -1      2304 1.61881E+01
 -1      2305 1.70108E+01
 -1      2306 1.66245E+01
 -1      2307 1.45019E+01
 -1      2308 1.11847E+01
 -1      2309 1.18675E+01
 -1      2310 1.14580E+01
 -1      2311 1.12369E+01
 -1      2312 1.23586E+01
 -1      2313 1.57209E+01
 -1      2314 1.53037E+01
 -1      2315 1.55346E+01
 -1      2316 1.58384E+01
 -1      2317 1.93949E+01
 -1      2318 1.41871E+01
 -1      2319 1.38333E+01
 -1      2320 1.49540E+01
 -1      2321 1.94654E+01
 -1      2322 1.84932E+01
 -1      2323 1.96857E+01
 -1      2324 1.62292E+01
 -1      2325 1.60605E+01
 -1      2326 1.61860E+01
 -1      2327 1.97066E+01
 -1      2328 1.80122E+01
 -1      2329 1.55171E+01
 -1      2330 1.57745E+01
 -1      2331 1.60628E+01
 -1      2332 1.93972E+01
 -1      2333 1.57404E+01
 -1      2334 1.94756E+01
 -1      2335 1.12571E+01
 -1      2336 1.24618E+01
 -1      2337 1.65164E+01
 -1      2338 1.17790E+01
 -1      2339 1.13920E+01
 -1      2340 1.34264E+01
 -1      2341 1.15815E+01
 -1      2342 1.20865E+01
 -1      2343 1.91494E+01
 -1      2344 1.46633E+01
 -1      2345 1.18601E+01
 -1      2346 1.13289E+01
 -1      2347 1.61847E+01
 -1      2348 1.49062E+01
 -1      2349 1.45616E+01
 -1      2350 1.48441E+01
 -1      2351 1.83724E+01
 -1      2352 1.48503E+01
 -1      2353 1.13841E+01
 -1      2354 1.49634E+01
 -1      2355 1.47161E+01
 -1      2356 1.47454E+01
 -1      2357 1.55963E+01
 -1      2358 1.84622E+01
 -1      2359 1.03701E+01
 -1      2360 1.20790E+01
 -1      2361 1.32911E+01
 -1      2362 1.36909E+01
 -1      2363 1.24788E+01
 -1      2364 1.27680E+01
 -1      2365 1.68302E+01
 -1      2366 1.68111E+01
 -1      2367 2.03032E+01
 -1      2368 2.19805E+01
 -1      2369 2.19615E+01
 -1      2370 1.19370E+01
 -1      2371 1.60113E+01
 -1      2372 1.89914E+01
 -1      2373 1.54813E+01
 -1      2374 1.62972E+01
 -1      2375 1.09202E+01
 -1      2376 1.28100E+01
 -1      2377 1.16472E+01
 -1      2378 9.84255E+00
 -1      2379 1.23444E+01
 -1      2380 1.55988E+01
 -1      2381 1.90648E+01
 -1      2382 1.80321E+01
 -1      2383 1.40494E+01
 -1      2384 1.84798E+01
 -1      2385 1.94877E+01
 -1      2386 1.61187E+01
 -1      2387 1.57722E+01
 -1      2388 1.89196E+01
 -1      2389 1.92269E+01
 -1      2390 1.23236E+01
 -1      2391 1.32672E+01
 -1      2392 1.34665E+01
 -1      2393 1.34167E+01
 -1      2394 1.21528E+01
 -1      2395 1.28401E+01
 -1      2396 1.25634E+01
 -1      2397 1.26353E+01
 -1      2398 1.32628E+01
 -1      2399 1.33097E+01
 -1      2400 1.50504E+01
 -1      2401 1.56992E+01
 -1      2402 1.24393E+01
 -1      2403 2.17509E+01
 -1      2404 2.32176E+01
 -1      2405 2.17509E+01
 -1      2406 1.32041E+01
 -1      2407 1.35973E+01
 -1      2408 1.40357E+01
 -1      2409 1.35738E+01
 -1      2410 1.43725E+01
 -1      2411 1.19586E+01
 -1      2412 1.23681E+01
 -1      2413 1.14313E+01
 -1      2414 1.56167E+01
 -1      2415 1.95932E+01
 -1      2416 1.94274E+01
 -1      2417 1.54479E+01
 -1      2418 1.62240E+01
 -1      2419 1.57525E+01
 -1      2420 1.46318E+01
 -1      2421 1.72727E+01
 -1      2422 1.53157E+01
 -1      2423 1.54455E+01
 -1      2424 1.48998E+01
 -1      2425 1.49266E+01
 -1      2426 1.91887E+01
 -1      2427 1.50203E+01
 -1      2428 1.57613E+01
 -1      2429 1.56470E+01
 -1      2430 1.72036E+01
 -1      2431 1.78348E+01
 -1      2432 1.34850E+01
 -1      2433 1.36131E+01
 -1      2434 1.43269E+01
 -1      2435 1.34567E+01
 -1      2436 1.58851E+01
 -1      2437 1.15960E+01
 -1      2438 1.05951E+01
 -1      2439 1.21786E+01
 -1      2440 1.89075E+01
 -1      2441 1.44899E+01
 -1      2442 1.59478E+01
 -1      2443 1.19633E+01
 -1      2444 1.30613E+01
 -1      2445 1.60660E+01
 -1      2446 1.92419E+01
 -1      2447 1.94316E+01
 -1      2448 1.95758E+01
 -1      2449 1.81120E+01
 -1      2450 1.47480E+01
 -1      2451 3.56969E+01
 -1      2452 2.07635E+01
 -1      2453 1.34220E+01
 -1      2454 2.88239E+01
 -1      2455 2.72258E+01
 -1      2456 1.68714E+01
 -1      2457 1.75975E+01
 -1      2458 2.18128E+01
 -1      2459 2.28979E+01
 -1      2460 2.53998E+01
 -1      2461 2.63214E+01
 -1      2462 2.82693E+01
 -1      2463 2.57837E+01
 -1      2464 2.78932E+01
 -1      2465 2.70583E+01
 -1      2466 2.36930E+01
 -1      2467 1.49694E+01
 -1      2468 2.84504E+01
 -1      2469 2.92766E+01
 -1      2470 3.07173E+01
 -1      2471 2.93368E+01
 -1      2472 3.85842E+01
 -1      2473 2.78932E+01
 -1      2474 2.78438E+01
 -1      2475 1.70440E+01
 -1      2476 1.69844E+01
 -1      2477 2.19612E+01
 -1      2478 2.07946E+01
 -1      2479 2.01627E+01
 -1      2480 2.17658E+01
 -1      2481 2.81083E+01
 -1      2482 2.50423E+01
 -1      2483 2.57837E+01
 -1      2484 2.70583E+01
 -1      2485 2.50182E+01
 -1      2486 2.72634E+01
 -1      2487 2.78891E+01
 -1      2488 2.64142E+01
 -1      2489 2.72634E+01
 -1      2490 2.62971E+01
 -1      2491 3.07173E+01
 -1      2492 2.91141E+01
 -1      2493 1.49694E+01
 -1      2494 2.82490E+01
 -1      2495 2.85890E+01
 -1      2496 1.27719E+01
 -1      2497 2.98602E+01
 -1      2498 1.38406E+01
 -1      2499 2.82270E+01
 -1      2500 2.97020E+01
 -1      2501 2.29160E+01
 -1      2502 2.28979E+01
 -1      2503 2.85890E+01
 -1      2504 1.40585E+01
 -1      2505 1.33735E+01
 -1      2506 2.32188E+01
 -1      2507 2.53998E+01
 -1      2508 1.33631E+01
 -1      2509 1.49694E+01
 -1      2510 1.49694E+01
 -1      2511 1.68714E+01
 -1      2512 2.84504E+01
 -1      2513 2.88239E+01
 -1      2514 2.54372E+01
 -1      2515 2.11138E+01
 -1      2516 1.70440E+01
 -1      2517 1.69844E+01
 -1      2518 2.01627E+01
 -1      2519 2.00242E+01
 -1      2520 2.18128E+01
 -1      2521 2.77878E+01
 -1      2522 2.47276E+01
 -1      2523 2.66473E+01
 -1      2524 2.72634E+01
 -1      2525 2.78438E+01
 -1      2526 2.47048E+01
 -1      2527 2.54896E+01
 -1      2528 2.66102E+01
 -1      2529 2.72581E+01
 -1      2530 2.57773E+01
 -1      2531 2.57837E+01
 -1      2532 2.29160E+01
 -1      2533 2.82490E+01
 -1      2534 2.82270E+01
 -1      2535 2.85890E+01
 -1      2536 2.85747E+01
 -1      2537 2.32188E+01
 -1      2538 2.53998E+01
 -1      2539 1.34220E+01
 -1      2540 1.68714E+01
 -1      2541 2.28979E+01
 -1      2542 2.88239E+01
 -1      2543 2.84504E+01
 -1      2544 1.34220E+01
 -1      2545 2.78932E+01
 -1      2546 1.75468E+01
 -1      2547 2.17658E+01
 -1      2548 1.75975E+01
 -1      2549 2.28979E+01
 -1      2550 2.82490E+01
 -1      2551 2.78891E+01
 -1      2552 2.78932E+01
 -1      2553 2.78891E+01
 -1      2554 2.62971E+01
 -1      2555 2.70583E+01
 -1      2556 2.57773E+01
 -1      2557 2.57837E+01
 -1      2558 1.33381E+01
 -1      2559 2.18128E+01
 -1      2560 2.17658E+01
 -1      2561 2.18128E+01
 -1      2562 2.70583E+01
 -1      2563 2.31544E+01
 -1      2564 2.44404E+01
 -1      2565 2.05365E+01
 -1      2566 2.27738E+01
 -1      2567 2.40597E+01
 -1      2568 2.66777E+01
 -1      2569 2.38030E+01
 -1      2570 2.25171E+01
 -1      2571 2.64210E+01
 -1      2572 2.13370E+01
 -1      2573 2.13370E+01
 -1      2574 2.13671E+01
 -1      2575 2.13671E+01
 -1      2576 2.93067E+01
 -1      2577 2.13866E+01
 -1      2578 2.39811E+01
 -1      2579 2.38998E+01
 -1      2580 2.91954E+01
 -1      2581 2.13054E+01
 -1      2582 2.56057E+01
 -1      2583 3.32071E+01
 -1      2584 2.80955E+01
 -1      2585 2.95392E+01
 -1      2586 3.71405E+01
 -1      2587 3.46507E+01
 -1      2588 3.21895E+01
 -1      2589 2.96997E+01
 -1      2590 2.96997E+01
 -1      2591 3.07173E+01
 -1      2592 3.32071E+01
 -1      2593 1.40761E+01
 -1      2594 1.46369E+01
 -1      2595 1.64832E+01
 -1      2596 1.48815E+01
 -1      2597 1.54423E+01
 -1      2598 1.30352E+01
 -1      2599 1.69577E+01
 -1      2600 1.45506E+01
 -1      2601 1.53560E+01
 -1      2602 1.63969E+01
 -1      2603 3.20031E+01
 -1      2604 2.95133E+01
 -1      2605 2.81278E+01
 -1      2606 2.95715E+01
 -1      2607 1.23088E+01
 -1      2608 1.37495E+01
 -1      2609 1.10890E+01
 -1      2610 1.18534E+01
 -1      2611 1.32941E+01
 -1      2612 1.45139E+01
 -1      2613 1.41957E+01
 -1      2614 1.29759E+01
 -1      2615 1.37403E+01
 -1      2616 2.77026E+01
 -1      2617 2.80286E+01
 -1      2618 2.79434E+01
 -1      2619 2.80339E+01
 -1      2620 2.83599E+01
 -1      2621 2.81191E+01
 -1      2622 2.36628E+01
 -1      2623 2.39036E+01
 -1      2624 2.39941E+01
 -1      2625 2.62474E+01
 -1      2626 2.65787E+01
 -1      2627 2.03110E+01
 -1      2628 2.06423E+01
 -1      2629 2.95133E+01
 -1      2630 2.56380E+01
 -1      2631 1.53560E+01
 -1      2632 1.56613E+01
 -1      2633 1.55805E+01
 -1      2634 1.66280E+01
 -1      2635 1.33926E+01
 -1      2636 1.37108E+01
 -1      2637 1.29759E+01
 -1      2638 2.33433E+01
 -1      2639 2.30986E+01
 -1      2640 2.36771E+01
 -1      2641 2.34324E+01
 -1      2642 2.75595E+01
 -1      2643 2.34076E+01
 -1      2644 2.36523E+01
 -1      2645 2.75348E+01
 -1      2646 2.39220E+01
 -1      2647 2.37851E+01
 -1      2648 2.37092E+01
 -1      2649 2.35723E+01
 -1      2650 2.80565E+01
 -1      2651 2.32632E+01
 -1      2652 2.35541E+01
 -1      2653 2.35722E+01
 -1      2654 2.38631E+01
 -1      2655 2.75348E+01
 -1      2656 2.25532E+01
 -1      2657 2.34657E+01
 -1      2658 2.78685E+01
 -1      2659 2.63093E+01
 -1      2660 2.27430E+01
 -1      2661 2.27552E+01
 -1      2662 2.67898E+01
 -1      2663 2.32235E+01
 -1      2664 2.67776E+01
 -1      2665 2.32463E+01
 -1      2666 2.29554E+01
 -1      2667 2.69180E+01
 -1      2668 2.25064E+01
 -1      2669 2.29747E+01
 -1      2670 2.19793E+01
 -1      2671 2.24085E+01
 -1      2672 2.18005E+01
 -1      2673 2.22298E+01
 -1      2674 2.52211E+01
 -1      2675 2.34991E+01
 -1      2676 2.32863E+01
 -1      2677 2.77306E+01
 -1      2678 2.24942E+01
 -1      2679 2.72270E+01
 -1      2680 2.71941E+01
 -1      2681 2.29080E+01
 -1      2682 2.76353E+01
 -1      2683 2.33493E+01
 -1      2684 2.76670E+01
 -1      2685 2.32684E+01
 -1      2686 2.35506E+01
 -1      2687 2.37096E+01
 -1      2688 2.39918E+01
 -1      2689 2.69366E+01
 -1      2690 2.56344E+01
 -1      2691 2.59681E+01
 -1      2692 2.72703E+01
 -1      2693 1.71854E+01
 -1      2694 1.75975E+01
 -1      2695 1.73208E+01
 -1      2696 1.73208E+01
 -1      2697 1.69086E+01
 -1      2698 1.71967E+01
 -1      2699 1.75722E+01
 -1      2700 1.68902E+01
 -1      2701 1.72656E+01
 -1      2702 1.72910E+01
 -1      2703 1.57476E+01
 -1      2704 1.73398E+01
 -1      2705 1.56527E+01
 -1      2706 1.70630E+01
 -1      2707 1.53759E+01
 -1      2708 1.67143E+01
 -1      2709 1.73365E+01
 -1      2710 1.56501E+01
 -1      2711 1.53436E+01
 -1      2712 1.70300E+01
 -1      2713 1.95596E+01
 -1      2714 2.19637E+01
 -1      2715 2.13976E+01
 -1      2716 2.23319E+01
 -1      2717 1.89935E+01
 -1      2718 2.07590E+01
 -1      2719 2.03309E+01
 -1      2720 2.01929E+01
 -1      2721 1.97649E+01
 -1      2722 2.37931E+01
 -1      2723 2.37126E+01
 -1      2724 2.81888E+01
 -1      2725 2.38230E+01
 -1      2726 2.34805E+01
 -1      2727 2.81888E+01
 -1      2728 2.34000E+01
 -1      2729 2.81083E+01
 -1      2730 2.71467E+01
 -1      2731 2.29058E+01
 -1      2732 2.74556E+01
 -1      2733 2.32148E+01
 -1      2734 2.19159E+01
 -1      2735 2.43478E+01
 -1      2736 2.13076E+01
 -1      2737 2.41690E+01
 -1      2738 2.11288E+01
 -1      2739 2.43757E+01
 -1      2740 2.13231E+01
 -1      2741 2.41849E+01
 -1      2742 2.11324E+01
 -1      2743 2.52090E+01
 -1      2744 2.20085E+01
 -1      2745 2.24561E+01
 -1      2746 2.22653E+01
 -1      2747 2.18177E+01
 -1      2748 2.33609E+01
 -1      2749 2.31068E+01
 -1      2750 2.36925E+01
 -1      2751 2.34384E+01
 -1      2752 2.75574E+01
 -1      2753 2.61817E+01
 -1      2754 2.22897E+01
 -1      2755 2.66527E+01
 -1      2756 2.27607E+01
 -1      2757 2.67924E+01
 -1      2758 2.27389E+01
 -1      2759 2.30582E+01
 -1      2760 2.32099E+01
 -1      2761 2.35292E+01
 -1      2762 2.69180E+01
 -1      2763 2.56521E+01
 -1      2764 2.72496E+01
 -1      2765 2.59837E+01
 -1      2766 2.61842E+01
 -1      2767 2.22930E+01
 -1      2768 2.66552E+01
 -1      2769 2.27640E+01
 -1      2770 2.67924E+01
 -1      2771 2.25360E+01
 -1      2772 2.22493E+01
 -1      2773 2.18787E+01
 -1      2774 2.54130E+01
 -1      2775 2.21653E+01
 -1      2776 2.30851E+01
 -1      2777 2.59055E+01
 -1      2778 2.44323E+01
 -1      2779 2.48007E+01
 -1      2780 2.66899E+01
 -1      2781 2.62740E+01
 -1      2782 2.27510E+01
 -1      2783 2.24901E+01
 -1      2784 2.28585E+01
 -1      2785 2.31194E+01
 -1      2786 2.38756E+01
 -1      2787 2.40125E+01
 -1      2788 2.83599E+01
 -1      2789 2.58793E+01
 -1      2790 2.44259E+01
 -1      2791 2.58671E+01
 -1      2792 2.44137E+01
 -1      2793 2.17086E+01
 -1      2794 2.54487E+01
 -1      2795 2.13259E+01
 -1      2796 2.50660E+01
 -1      2797 2.54009E+01
 -1      2798 2.66777E+01
 -1      2799 2.59606E+01
 -1      2800 2.37265E+01
 -1      2801 2.82740E+01
 -1      2802 2.82740E+01
 -1      2803 2.88239E+01
 -1      2804 2.37265E+01
 -1      2805 2.25980E+01
 -1      2806 2.68388E+01
 -1      2807 2.36419E+01
 -1      2808 2.75068E+01
 -1      2809 2.33878E+01
 -1      2810 1.33926E+01
 -1      2811 1.33631E+01
 -1      2812 1.33631E+01
 -1      2813 1.33926E+01
 -1      2814 2.69048E+01
 -1      2815 2.69366E+01
 -1      2816 2.26188E+01
 -1      2817 2.29792E+01
 -1      2818 2.32613E+01
 -1      2819 2.72455E+01
 -1      2820 2.59434E+01
 -1      2821 1.88109E+01
 -1      2822 1.83987E+01
 -1      2823 1.88109E+01
 -1      2824 1.88547E+01
 -1      2825 1.84793E+01
 -1      2826 1.88801E+01
 -1      2827 1.68660E+01
 -1      2828 1.85531E+01
 -1      2829 1.86191E+01
 -1      2830 1.69327E+01
 -1      2831 2.59331E+01
 -1      2832 2.71990E+01
 -1      2833 2.63765E+01
 -1      2834 2.67924E+01
 -1      2835 2.49033E+01
 -1      2836 2.29611E+01
 -1      2837 2.32219E+01
 -1      2838 2.48942E+01
 -1      2839 2.63476E+01
 -1      2840 2.24085E+01
 -1      2841 2.19793E+01
 -1      2842 2.53998E+01
 -1      2843 2.57395E+01
 -1      2844 2.58793E+01
 -1      2845 2.18476E+01
 -1      2846 2.18771E+01
 -1      2847 2.57683E+01
 -1      2848 2.59055E+01
 -1      2849 2.26161E+01
 -1      2850 2.22967E+01
 -1      2851 1.38406E+01
 -1      2852 1.40651E+01
 -1      2853 2.80339E+01
 -1      2854 2.35896E+01
 -1      2855 2.22462E+01
 -1      2856 2.25328E+01
 -1      2857 2.57805E+01
 -1      2858 2.04914E+01
 -1      2859 2.09194E+01
 -1      2860 2.30584E+01
 -1      2861 2.43478E+01
 -1      2862 2.13076E+01
 -1      2863 2.21241E+01
 -1      2864 1.97200E+01
 -1      2865 1.23865E+01
 -1      2866 1.22056E+01
 -1      2867 1.23570E+01
 -1      2868 1.21762E+01
 -1      2869 2.17082E+01
 -1      2870 2.54531E+01
 -1      2871 2.13376E+01
 -1      2872 2.50824E+01
 -1      2873 2.27330E+01
 -1      2874 2.30589E+01
 -1      2875 2.32040E+01
 -1      2876 2.35299E+01
 -1      2877 2.43466E+01
 -1      2878 2.40807E+01
 -1      2879 2.43466E+01
 -1      2880 2.40807E+01
 -1      2881 2.73778E+01
 -1      2882 1.85341E+01
 -1      2883 1.85735E+01
 -1      2884 2.62971E+01
 -1      2885 2.54487E+01
 -1      2886 2.17086E+01
 -1      2887 2.57837E+01
 -1      2888 2.53233E+01
 -1      2889 2.78384E+01
 -1      2890 2.25305E+01
 -1      2891 2.22446E+01
 -1      2892 2.21478E+01
 -1      2893 2.18619E+01
 -1      2894 2.71609E+01
 -1      2895 1.37495E+01
 -1      2896 2.50201E+01
 -1      2897 1.70804E+01
 -1      2898 2.50502E+01
 -1      2899 2.63503E+01
 -1      2900 1.71300E+01
 -1      2901 2.49388E+01
 -1      2902 2.81471E+01
 -1      2903 2.63765E+01
 -1      2904 2.54009E+01
 -1      2905 2.54098E+01
 -1      2906 2.26430E+01
 -1      2907 2.23171E+01
 -1      2908 2.54499E+01
 -1      2909 2.17051E+01
 -1      2910 2.52211E+01
 -1      2911 2.00812E+01
 -1      2912 2.31338E+01
 -1      2913 2.41579E+01
 -1      2914 2.24923E+01
 -1      2915 2.12142E+01
 -1      2916 2.07666E+01
 -1      2917 2.37830E+01
 -1      2918 2.38934E+01
 -1      2919 2.82591E+01
 -1      2920 2.22446E+01
 -1      2921 2.25305E+01
 -1      2922 2.81786E+01
 -1      2923 2.34704E+01
 -1      2924 2.36091E+01
 -1      2925 2.87064E+01
 -1      2926 2.81565E+01
 -1      2927 3.56969E+01
 -1      2928 3.71405E+01
 -1      2929 3.42222E+01
 -1      2930 3.27785E+01
 -1      2931 3.27785E+01
 -1      2932 1.87705E+01
 -1      2933 1.30675E+01
 -1      2934 1.30675E+01
 -1      2935 1.30969E+01
 -1      2936 3.56969E+01
 -1      2937 2.39632E+01
 -1      2938 2.42291E+01
 -1      2939 2.39671E+01
 -1      2940 1.18805E+01
 -1      2941 1.20614E+01
 -1      2942 2.39509E+01
 -1      2943 2.42098E+01
 -1      2944 2.47009E+01
 -1      2945 2.81786E+01
 -1      2946 2.86791E+01
 -1      2947 2.52328E+01
 -1      2948 2.84201E+01
 -1      2949 2.87064E+01
 -1      2950 1.30675E+01
 -1      2951 1.32911E+01
 -1      2952 1.35565E+01
 -1      2953 1.31567E+01
 -1      2954 1.48813E+01
 -1      2955 1.51467E+01
 -1      2956 1.52812E+01
 -1      2957 1.69759E+01
 -1      2958 1.67310E+01
 -1      2959 2.17749E+01
 -1      2960 2.03559E+01
 -1      2961 2.06008E+01
 -1      2962 1.28913E+01
 -1      2963 1.31567E+01
 -1      2964 1.09406E+01
 -1      2965 1.12060E+01
 -1      2966 1.74110E+01
 -1      2967 1.37775E+01
 -1      2968 2.15863E+01
 -1      2969 2.45667E+01
 -1      2970 3.21358E+01
 -1      2971 3.35794E+01
 -1      2972 3.32071E+01
 -1      2973 3.32071E+01
 -1      2974 2.81262E+01
 -1      2975 2.88762E+01
 -1      2976 3.21429E+01
 -1      2977 2.84491E+01
 -1      2978 2.96531E+01
 -1      2979 2.85255E+01
 -1      2980 2.40671E+01
 -1      2981 2.43655E+01
 -1      2982 2.86993E+01
 -1      2983 2.42409E+01
 -1      2984 2.84009E+01
 -1      2985 1.98953E+01
 -1      2986 2.24296E+01
 -1      2987 2.03636E+01
 -1      2988 2.03636E+01
 -1      2989 2.28979E+01
 -1      2990 2.24296E+01
 -1      2991 1.33854E+01
 -1      2992 1.70685E+01
 -1      2993 2.13552E+01
 -1      2994 2.26041E+01
 -1      2995 2.21358E+01
 -1      2996 2.26041E+01
 -1      2997 3.02887E+01
 -1      2998 2.29160E+01
 -1      2999 2.41579E+01
 -1      3000 2.41579E+01
 -1      3001 2.38218E+01
 -1      3002 2.50637E+01
 -1      3003 2.38218E+01
 -1      3004 2.81326E+01
 -1      3005 2.87064E+01
 -1      3006 2.82500E+01
 -1      3007 2.79516E+01
 -1      3008 2.85255E+01
 -1      3009 2.84080E+01
 -1      3010 2.08160E+01
 -1      3011 2.20580E+01
 -1      3012 2.17219E+01
 -1      3013 1.70293E+01
 -1      3014 1.74977E+01
 -1      3015 1.70293E+01
 -1      3016 1.74977E+01
 -1      3017 2.42659E+01
 -1      3018 2.43834E+01
 -1      3019 2.40849E+01
 -1      3020 1.26970E+01
 -1      3021 1.26675E+01
 -1      3022 1.69926E+01
 -1      3023 1.78870E+01
 -1      3024 1.29464E+01
 -1      3025 2.08183E+01
 -1      3026 2.09921E+01
 -1      3027 2.25895E+01
 -1      3028 2.27499E+01
 -1      3029 1.90148E+01
 -1      3030 2.53998E+01
 -1      3031 2.53998E+01
 -1      3032 2.39118E+01
 -1      3033 2.82591E+01
 -1      3034 2.83497E+01
 -1      3035 2.94081E+01
 -1      3036 2.07590E+01
 -1      3037 2.28979E+01
 -1      3038 2.30584E+01
 -1      3039 2.20580E+01
 -1      3040 2.14235E+01
 -1      3041 2.01816E+01
 -1      3042 2.88239E+01
 -1      3043 2.88239E+01
 -1      3044 2.08907E+01
 -1      3045 2.07900E+01
 -1      3046 2.80935E+01
 -1      3047 2.81840E+01
 -1      3048 2.80966E+01
 -1      3049 2.83950E+01
 -1      3050 2.82704E+01
 -1      3051 1.81135E+01
 -1      3052 1.79531E+01
 -1      3053 1.79318E+01
 -1      3054 2.06180E+01
 -1      3055 2.15238E+01
 -1      3056 2.43655E+01
 -1      3057 2.12861E+01
 -1      3058 1.86452E+01
 -1      3059 2.69249E+01
 -1      3060 2.01708E+01
 -1      3061 2.28116E+01
 -1      3062 2.62971E+01
 -1      3063 2.55800E+01
 -1      3064 2.66777E+01
 -1      3065 1.80659E+01
 -1      3066 1.89718E+01
 -1      3067 1.90044E+01
 -1      3068 2.20479E+01
 -1      3069 2.08154E+01
 -1      3070 2.06345E+01
 -1      3071 2.39416E+01
 -1      3072 2.39314E+01
 -1      3073 2.80966E+01
 -1      3074 2.81786E+01
 -1      3075 2.82490E+01
 -1      3076 2.54372E+01
 -1      3077 2.38316E+01
 -1      3078 1.54423E+01
 -1      3079 1.69577E+01
 -1      3080 1.57476E+01
 -1      3081 1.57020E+01
 -1      3082 1.68714E+01
 -1      3083 1.57585E+01
 -1      3084 1.69279E+01
 -1      3085 1.69279E+01
 -1      3086 1.59172E+01
 -1      3087 1.68393E+01
 -1      3088 1.69257E+01
 -1      3089 1.60035E+01
 -1      3090 1.56370E+01
 -1      3091 1.66845E+01
 -1      3092 1.75975E+01
 -1      3093 1.88109E+01
 -1      3094 1.75975E+01
 -1      3095 1.75468E+01
 -1      3096 1.88547E+01
 -1      3097 1.75722E+01
 -1      3098 1.73144E+01
 -1      3099 1.87855E+01
 -1      3100 1.73365E+01
 -1      3101 1.88801E+01
 -1      3102 2.74277E+01
 -1      3103 2.28176E+01
 -1      3104 2.66473E+01
 -1      3105 2.40396E+01
 -1      3106 2.20725E+01
 -1      3107 2.66552E+01
 -1      3108 2.35292E+01
 -1      3109 1.68714E+01
 -1      3110 1.68714E+01
 -1      3111 1.69279E+01
 -1      3112 1.59204E+01
 -1      3113 1.44050E+01
 -1      3114 1.60067E+01
 -1      3115 1.49661E+01
 -1      3116 1.55805E+01
 -1      3117 2.71116E+01
 -1      3118 2.29984E+01
 -1      3119 2.86371E+01
 -1      3120 2.54896E+01
 -1      3121 2.75031E+01
 -1      3122 2.38631E+01
 -1      3123 2.38377E+01
 -1      3124 2.35393E+01
 -1      3125 2.66500E+01
 -1      3126 2.20905E+01
 -1      3127 2.82490E+01
 -1      3128 2.82490E+01
 -1      3129 2.27908E+01
 -1      3130 2.66102E+01
 -1      3131 2.25532E+01
 -1      3132 2.34657E+01
 -1      3133 2.70583E+01
 -1      3134 1.87071E+01
 -1      3135 2.29160E+01
 -1      3136 2.25360E+01
 -1      3137 2.57837E+01
 -1      3138 2.57805E+01
 -1      3139 1.52493E+01
 -1      3140 1.52405E+01
 -1      3141 1.89506E+01
 -1      3142 2.42220E+01
 -1      3143 2.25273E+01
 -1      3144 2.57805E+01
 -1      3145 2.57805E+01
 -1      3146 2.17872E+01
 -1      3147 2.35272E+01
 -1      3148 2.54487E+01
 -1      3149 2.57837E+01
 -1      3150 2.54499E+01
 -1      3151 2.57773E+01
 -1      3152 2.97479E+01
 -1      3153 2.97479E+01
 -1      3154 2.97479E+01
 -1      3155 2.97479E+01
 -1      3156 3.07173E+01
 -1      3157 2.17520E+01
 -1      3158 1.87046E+01
 -1      3159 2.70545E+01
 -1      3160 2.72283E+01
 -1      3161 1.89433E+01
 -1      3162 1.41957E+01
 -1      3163 1.43301E+01
 -1      3164 1.59204E+01
 -1      3165 1.39303E+01
 -1      3166 2.10833E+01
 -1      3167 2.34559E+01
 -1      3168 2.13204E+01
 -1      3169 2.21738E+01
 -1      3170 2.45464E+01
 -1      3171 2.43093E+01
 -1      3172 1.97685E+01
 -1      3173 1.95876E+01
 -1      3174 1.81695E+01
 -1      3175 1.81739E+01
 -1      3176 1.60559E+01
 -1      3177 1.47480E+01
 -1      3178 1.59960E+01
 -1      3179 1.47827E+01
 -1      3180 1.89805E+01
 -1      3181 1.76980E+01
 -1      3182 1.89164E+01
 -1      3183 1.76778E+01
 -1      3184 2.08618E+01
 -1      3185 1.95169E+01
 -1      3186 1.95201E+01
 -1      3187 1.95503E+01
 -1      3188 1.95472E+01
 -1      3189 1.23622E+01
 -1      3190 1.33978E+01
 -1      3191 1.23865E+01
 -1      3192 1.34220E+01
 -1      3193 1.33978E+01
 -1      3194 2.08596E+01
 -1      3195 2.57209E+01
 -1      3196 2.57209E+01
 -1      3197 2.81254E+01
 -1      3198 2.57170E+01
 -1      3199 2.57170E+01
 -1      3200 1.83934E+01
 -1      3201 2.66731E+01
 -1      3202 2.66195E+01
 -1      3203 1.90917E+01
 -1      3204 3.33519E+01
 -1      3205 3.19082E+01
 -1      3206 2.83471E+01
 -1      3207 2.64612E+01
 -1      3208 2.65424E+01
 -1      3209 2.91954E+01
 -1      3210 2.92766E+01
 -1      3211 2.65424E+01
 -1      3212 2.86371E+01
 -1      3213 2.28116E+01
 -1      3214 2.84504E+01
 -1      3215 3.22906E+01
 -1      3216 2.93723E+01
 -1      3217 2.89899E+01
 -1      3218 2.66195E+01
 -1      3219 2.91141E+01
 -1      3220 2.64612E+01
 -1      3221 2.66195E+01
 -1      3222 3.37343E+01
 -1      3223 1.70722E+01
 -1      3224 1.70722E+01
 -1      3225 2.12475E+01
 -1      3226 2.12475E+01
 -1      3227 1.67677E+01
 -1      3228 1.30846E+01
 -1      3229 2.10243E+01
 -1      3230 2.09965E+01
 -1      3231 2.09965E+01
 -1      3232 2.79480E+01
 -1      3233 2.78158E+01
 -1      3234 2.45759E+01
 -1      3235 2.70657E+01
 -1      3236 2.35117E+01
 -1      3237 2.70036E+01
 -1      3238 2.41473E+01
 -1      3239 2.40852E+01
 -1      3240 1.26970E+01
 -1      3241 2.27499E+01
 -1      3242 2.30584E+01
 -1      3243 2.21241E+01
 -1      3244 2.43478E+01
 -1      3245 2.53998E+01
 -1      3246 2.53998E+01
 -1      3247 1.68393E+01
 -1      3248 1.59172E+01
 -1      3249 1.68714E+01
 -1      3250 1.68714E+01
 -1      3251 1.57020E+01
 -1      3252 2.24561E+01
 -1      3253 2.14235E+01
 -1      3254 2.11570E+01
 -1      3255 2.05241E+01
 -1      3256 1.31342E+01
 -1      3257 1.21762E+01
 -1      3258 2.26041E+01
 -1      3259 2.28979E+01
 -1      3260 1.19494E+01
 -1      3261 1.13786E+01
 -1      3262 1.13786E+01
 -1      3263 1.34220E+01
 -1      3264 1.19494E+01
 -1      3265 2.45138E+01
 -1      3266 1.68959E+01
 -1      3267 1.69279E+01
 -1      3268 1.69279E+01
 -1      3269 1.57585E+01
 -1      3270 2.69249E+01
 -1      3271 1.06858E+01
 -1      3272 1.07101E+01
 -1      3273 1.89833E+01
 -1      3274 2.43834E+01
 -1      3275 2.38377E+01
 -1      3276 2.88239E+01
 -1      3277 2.40321E+01
 -1      3278 2.82740E+01
 -1      3279 2.88239E+01
 -1      3280 2.81840E+01
 -1      3281 3.34711E+01
 -1      3282 2.58581E+01
 -1      3283 2.07451E+01
 -1      3284 2.84664E+01
 -1      3285 2.08534E+01
 -1      3286 2.15415E+01
 -1      3287 1.70508E+01
 -1      3288 1.33595E+01
 -1      3289 2.15201E+01
 -1      3290 2.63903E+01
 -1      3291 2.38956E+01
 -1      3292 1.88625E+01
 -1      3293 2.28891E+01
 -1      3294 1.49074E+01
 -1      3295 2.81600E+01
 -1      3296 2.91294E+01
 -1      3297 2.97479E+01
 -1      3298 3.07173E+01
 -1      3299 2.84664E+01
 -1      3300 2.84965E+01
 -1      3301 1.20974E+01
 -1      3302 3.85842E+01
 -1      3303 3.42222E+01
 -1      3304 2.84491E+01
 -1      3305 3.21429E+01
 -1      3306 2.96531E+01
 -1      3307 2.89574E+01
 -1      3308 1.36272E+01
 -1      3309 1.36837E+01
 -1      3310 1.26637E+01
 -1      3311 1.37011E+01
 -1      3312 1.26784E+01
 -1      3313 1.37157E+01
 -1      3314 1.36481E+01
 -1      3315 1.37047E+01
 -1      3316 2.45739E+01
 -1      3317 2.66704E+01
 -1      3318 2.64598E+01
 -1      3319 2.64598E+01
 -1      3320 2.97020E+01
 -1      3321 2.66704E+01
 -1      3322 2.96630E+01
 -1      3323 2.19027E+01
 -1      3324 2.08484E+01
 -1      3325 2.85989E+01
 -1      3326 2.08385E+01
 -1      3327 1.34220E+01
 -1      3328 1.34220E+01
 -1      3329 1.34220E+01
 -1      3330 1.34220E+01
 -1      3331 1.23444E+01
 -1      3332 1.23444E+01
 -1      3333 2.49931E+01
 -1      3334 2.95194E+01
 -1      3335 2.10716E+01
 -1      3336 2.20059E+01
 -1      3337 2.21663E+01
 -1      3338 2.50523E+01
 -1      3339 2.40003E+01
 -1      3340 2.50523E+01
 -1      3341 1.94715E+01
 -1      3342 2.21086E+01
 -1      3343 2.27745E+01
 -1      3344 2.27745E+01
 -1      3345 2.98808E+01
 -1      3346 3.63645E+01
 -1      3347 2.55188E+01
 -1      3348 3.20025E+01
 -1      3349 3.42222E+01
 -1      3350 2.62772E+01
 -1      3351 1.98295E+01
 -1      3352 1.82956E+01
 -1      3353 1.70909E+01
 -1      3354 1.68908E+01
 -1      3355 2.06253E+01
 -1      3356 2.61257E+01
 -1      3357 2.08253E+01
 -1      3358 2.83543E+01
 -1      3359 3.21429E+01
 -1      3360 2.92246E+01
 -1      3361 2.77955E+01
 -1      3362 2.82554E+01
 -1      3363 2.77955E+01
 -1      3364 2.82554E+01
 -1      3365 2.92766E+01
 -1      3366 2.35117E+01
 -1      3367 1.34152E+01
 -1      3368 2.10015E+01
 -1      3369 2.11022E+01
 -1      3370 2.83497E+01
 -1      3371 2.85364E+01
 -1      3372 2.86371E+01
 -1      3373 2.12890E+01
 -1      3374 1.33978E+01
 -1      3375 1.49349E+01
 -1      3376 1.49694E+01
 -1      3377 1.49349E+01
 -1      3378 1.49349E+01
 -1      3379 1.49694E+01
 -1      3380 1.49694E+01
 -1      3381 1.35099E+01
 -1      3382 1.27068E+01
 -1      3383 1.41662E+01
 -1      3384 1.59204E+01
 -1      3385 1.51172E+01
 -1      3386 1.44610E+01
 -1      3387 2.82380E+01
 -1      3388 2.09905E+01
 -1      3389 2.85255E+01
 -1      3390 2.80464E+01
 -1      3391 2.24296E+01
 -1      3392 1.72954E+01
 -1      3393 1.73208E+01
 -1      3394 1.72656E+01
 -1      3395 1.72910E+01
 -1      3396 2.23319E+01
 -1      3397 1.49956E+01
 -1      3398 1.52607E+01
 -1      3399 2.52831E+01
 -1      3400 2.85617E+01
 -1      3401 2.50181E+01
 -1      3402 1.43706E+01
 -1      3403 1.44050E+01
 -1      3404 1.44050E+01
 -1      3405 1.29456E+01
 -1      3406 1.53560E+01
 -1      3407 2.54130E+01
 -1      3408 2.85818E+01
 -1      3409 1.30727E+01
 -1      3410 2.81786E+01
 -1      3411 1.44674E+01
 -1      3412 1.44109E+01
 -1      3413 1.38788E+01
 -1      3414 1.38223E+01
 -1      3415 2.87064E+01
 -1      3416 2.81565E+01
 -1      3417 2.87064E+01
 -1      3418 2.54098E+01
 -1      3419 2.77379E+01
 -1      3420 2.49118E+01
 -1      3421 2.77379E+01
 -1      3422 2.49118E+01
 -1      3423 2.91141E+01
 -1      3424 2.81631E+01
 -1      3425 2.81740E+01
 -1      3426 2.81631E+01
 -1      3427 2.82380E+01
 -1      3428 2.82270E+01
 -1      3429 2.54009E+01
 -1      3430 2.53978E+01
 -1      3431 2.64210E+01
 -1      3432 2.60404E+01
 -1      3433 2.85890E+01
 -1      3434 2.42659E+01
 -1      3435 1.86376E+01
 -1      3436 2.30674E+01
 -1      3437 1.84862E+01
 -1      3438 1.97281E+01
 -1      3439 2.41579E+01
 -1      3440 2.43093E+01
 -1      3441 2.82490E+01
 -1      3442 2.81740E+01
 -1      3443 2.82380E+01
 -1      3444 2.95194E+01
 -1      3445 2.62772E+01
 -1      3446 1.13903E+01
 -1      3447 2.06253E+01
 -1      3448 2.04135E+01
 -1      3449 2.01627E+01
 -1      3450 2.04135E+01
 -1      3451 2.12151E+01
 -1      3452 2.09642E+01
 -1      3453 2.09642E+01
 -1      3454 1.67814E+01
 -1      3455 2.04786E+01
 -1      3456 1.64654E+01
 -1      3457 1.72670E+01
 -1      3458 2.12802E+01
 -1      3459 1.16968E+01
 -1      3460 1.37403E+01
 -1      3461 1.95025E+01
 -1      3462 2.01337E+01
 -1      3463 1.97474E+01
 -1      3464 2.62477E+01
 -1      3465 1.93370E+01
 -1      3466 2.01476E+01
 -1      3467 2.66777E+01
 -1      3468 1.97670E+01
 -1      3469 2.58671E+01
 -1      3470 2.61791E+01
 -1      3471 2.62740E+01
 -1      3472 2.69635E+01
 -1      3473 2.69635E+01
 -1      3474 2.70583E+01
 -1      3475 2.62740E+01
 -1      3476 2.58934E+01
 -1      3477 2.26814E+01
 -1      3478 2.66777E+01
 -1      3479 2.48105E+01
 -1      3480 2.13375E+01
 -1      3481 1.33381E+01
 -1      3482 2.13375E+01
 -1      3483 1.68111E+01
 -1      3484 1.86450E+01
 -1      3485 1.84583E+01
 -1      3486 2.60606E+01
 -1      3487 2.01855E+01
 -1      3488 1.33978E+01
 -1      3489 1.33926E+01
 -1      3490 1.68714E+01
 -1      3491 1.59204E+01
 -1      3492 3.85842E+01
 -1      3493 3.63645E+01
 -1      3494 1.33595E+01
 -1      3495 2.53998E+01
 -1      3496 2.32188E+01
 -1      3497 2.58671E+01
 -1      3498 2.58671E+01
 -1      3499 2.62971E+01
 -1      3500 1.84772E+01
 -1      3501 2.29069E+01
 -1      3502 2.30584E+01
 -1      3503 1.27230E+01
 -1      3504 1.41957E+01
 -1      3505 1.41957E+01
 -1      3506 2.30584E+01
 -1      3507 2.12539E+01
 -1      3508 2.65542E+01
 -1      3509 1.57679E+01
 -1      3510 1.18544E+01
 -1      3511 1.33252E+01
 -1      3512 1.34985E+01
 -1      3513 1.34985E+01
 -1      3514 1.33252E+01
 -1      3515 1.18992E+01
 -1      3516 1.25555E+01
 -1      3517 1.27068E+01
 -1      3518 1.44610E+01
 -1      3519 1.43096E+01
 -1      3520 1.18544E+01
 -1      3521 1.34985E+01
 -1      3522 1.18992E+01
 -1      3523 1.27068E+01
 -1      3524 1.07817E+01
 -1      3525 1.14380E+01
 -1      3526 1.07520E+01
 -1      3527 1.22229E+01
 -1      3528 2.41579E+01
 -1      3529 2.85255E+01
 -1      3530 1.15569E+01
 -1      3531 1.13634E+01
 -1      3532 1.73246E+01
 -1      3533 1.71311E+01
 -1      3534 1.74512E+01
 -1      3535 2.06191E+01
 -1      3536 2.12644E+01
 -1      3537 1.20233E+01
 -1      3538 1.99835E+01
 -1      3539 2.06288E+01
 -1      3540 2.84504E+01
 -1      3541 2.93067E+01
 -1      3542 2.78256E+01
 -1      3543 1.72905E+01
 -1      3544 2.17893E+01
 -1      3545 2.13037E+01
 -1      3546 2.12151E+01
 -1      3547 2.09642E+01
 -1      3548 2.17658E+01
 -1      3549 2.83497E+01
 -1      3550 1.96458E+01
 -1      3551 2.52057E+01
 -1      3552 2.94081E+01
 -1      3553 1.17129E+01
 -1      3554 1.17002E+01
 -1      3555 1.95809E+01
 -1      3556 2.09433E+01
 -1      3557 2.09560E+01
 -1      3558 2.72703E+01
 -1      3559 2.88239E+01
 -1      3560 2.79760E+01
 -1      3561 2.78438E+01
 -1      3562 2.15375E+01
 -1      3563 1.70142E+01
 -1      3564 1.70440E+01
 -1      3565 1.70142E+01
 -1      3566 1.69844E+01
 -1      3567 2.14398E+01
 -1      3568 2.48850E+01
 -1      3569 2.48736E+01
 -1      3570 2.48729E+01
 -1      3571 2.48615E+01
 -1      3572 2.72682E+01
 -1      3573 2.72496E+01
 -1      3574 2.72634E+01
 -1      3575 2.72608E+01
 -1      3576 2.72634E+01
 -1      3577 2.72517E+01
 -1      3578 2.69635E+01
 -1      3579 2.70583E+01
 -1      3580 2.70583E+01
 -1      3581 2.01476E+01
 -1      3582 2.66777E+01
 -1      3583 2.72608E+01
 -1      3584 1.27362E+01
 -1      3585 2.63023E+01
 -1      3586 1.40585E+01
 -1      3587 1.90917E+01
 -1      3588 1.40585E+01
 -1      3589 1.40585E+01
 -1      3590 2.17893E+01
 -1      3591 2.13037E+01
 -1      3592 2.18128E+01
 -1      3593 1.13618E+01
 -1      3594 2.52057E+01
 -1      3595 2.97020E+01
 -1      3596 1.37197E+01
 -1      3597 2.62772E+01
 -1      3598 2.93368E+01
 -1      3599 2.83497E+01
 -1      3600 2.84504E+01
 -1      3601 2.86371E+01
 -1      3602 1.19950E+01
 -1      3603 1.27230E+01
 -1      3604 2.83387E+01
 -1      3605 2.26161E+01
 -1      3606 2.29069E+01
 -1      3607 2.26070E+01
 -1      3608 2.26070E+01
 -1      3609 2.28979E+01
 -1      3610 2.29069E+01
 -1      3611 1.49694E+01
 -1      3612 1.41662E+01
 -1      3613 1.59204E+01
 -1      3614 1.49694E+01
 -1      3615 1.49694E+01
 -1      3616 2.83387E+01
 -1      3617 2.09877E+01
 -1      3618 2.17893E+01
 -1      3619 1.12723E+01
 -1      3620 1.11261E+01
 -1      3621 1.67838E+01
 -1      3622 1.72582E+01
 -1      3623 1.74045E+01
 -1      3624 2.70583E+01
 -1      3625 2.70583E+01
 -1      3626 3.63645E+01
 -1      3627 3.85842E+01
 -1      3628 1.16848E+01
 -1      3629 1.20386E+01
 -1      3630 2.06622E+01
 -1      3631 1.96253E+01
 -1      3632 1.92715E+01
 -1      3633 1.44050E+01
 -1      3634 2.83497E+01
 -1      3635 2.09877E+01
 -1      3636 2.78256E+01
 -1      3637 2.93368E+01
 -1      3638 2.62740E+01
 -1      3639 2.29160E+01
 -1      3640 2.62477E+01
 -1      3641 1.20320E+01
 -1      3642 2.06557E+01
 -1      3643 1.96143E+01
 -1      3644 2.06447E+01
 -1      3645 2.34559E+01
 -1      3646 2.33045E+01
 -1      3647 2.45464E+01
 -1      3648 2.05509E+01
 -1      3649 2.06592E+01
 -1      3650 3.32071E+01
 -1      3651 8.73582E+00
 -1      3652 1.14235E+01
 -1      3653 1.14478E+01
 -1      3654 1.09980E+01
 -1      3655 1.66558E+01
 -1      3656 1.72492E+01
 -1      3657 1.66467E+01
 -1      3658 1.23622E+01
 -1      3659 1.49074E+01
 -1      3660 1.23622E+01
 -1      3661 1.33735E+01
 -1      3662 2.85818E+01
 -1      3663 2.46282E+01
 -1      3664 2.13497E+01
 -1      3665 2.26161E+01
 -1      3666 2.85890E+01
 -1      3667 1.33558E+01
 -1      3668 1.33558E+01
 -1      3669 1.97576E+01
 -1      3670 2.76731E+01
 -1      3671 1.99754E+01
 -1      3672 2.77258E+01
 -1      3673 2.32954E+01
 -1      3674 1.92654E+01
 -1      3675 1.98967E+01
 -1      3676 2.09871E+01
 -1      3677 1.92344E+01
 -1      3678 2.00975E+01
 -1      3679 1.16241E+01
 -1      3680 1.20637E+01
 -1      3681 1.34335E+01
 -1      3682 1.35996E+01
 -1      3683 1.29939E+01
 -1      3684 1.18977E+01
 -1      3685 1.34335E+01
 -1      3686 1.30352E+01
 -1      3687 1.24295E+01
 -1      3688 2.34643E+01
 -1      3689 2.32272E+01
 -1      3690 1.38217E+01
 -1      3691 1.47727E+01
 -1      3692 1.43301E+01
 -1      3693 1.52812E+01
 -1      3694 2.29115E+01
 -1      3695 2.30982E+01
 -1      3696 2.84504E+01
 -1      3697 2.86371E+01
 -1      3698 2.19188E+01
 -1      3699 2.54110E+01
 -1      3700 1.80531E+01
 -1      3701 1.36664E+01
 -1      3702 1.71586E+01
 -1      3703 1.94474E+01
 -1      3704 2.08540E+01
 -1      3705 2.68424E+01
 -1      3706 2.68314E+01
 -1      3707 2.08430E+01
 -1      3708 1.92934E+01
 -1      3709 2.66884E+01
 -1      3710 1.90807E+01
 -1      3711 2.06413E+01
 -1      3712 1.50249E+01
 -1      3713 1.97332E+01
 -1      3714 1.22703E+01
 -1      3715 2.06454E+01
 -1      3716 1.26073E+01
 -1      3717 1.51243E+01
 -1      3718 1.32642E+01
 -1      3719 1.51243E+01
 -1      3720 1.39287E+01
 -1      3721 1.44895E+01
 -1      3722 1.50301E+01
 -1      3723 1.25055E+01
 -1      3724 1.50600E+01
 -1      3725 1.33919E+01
 -1      3726 1.18502E+01
 -1      3727 1.67821E+01
 -1      3728 1.13640E+01
 -1      3729 1.65431E+01
 -1      3730 1.49359E+01
 -1      3731 1.69369E+01
 -1      3732 1.21079E+01
 -1      3733 1.69369E+01
 -1      3734 1.62467E+01
 -1      3735 1.23561E+01
 -1      3736 1.49719E+01
 -1      3737 1.94746E+01
 -1      3738 2.01449E+01
 -1      3739 1.55305E+01
 -1      3740 1.87310E+01
 -1      3741 1.20645E+01
 -1      3742 1.83517E+01
 -1      3743 1.54811E+01
 -1      3744 1.87229E+01
 -1      3745 2.15779E+01
 -1      3746 2.57744E+01
 -1      3747 1.84020E+01
 -1      3748 2.05166E+01
 -1      3749 1.19905E+01
 -1      3750 1.83099E+01
 -1      3751 1.62388E+01
 -1      3752 2.05103E+01
 -1      3753 1.22588E+01
 -1      3754 1.95922E+01
 -1      3755 1.50347E+01
 -1      3756 1.46052E+01
 -1      3757 1.55747E+01
 -1      3758 1.60841E+01
 -1      3759 2.01435E+01
 -1      3760 1.85210E+01
 -1      3761 1.87022E+01
 -1      3762 2.06272E+01
 -1      3763 2.57870E+01
 -1      3764 2.04847E+01
 -1      3765 1.73374E+01
 -1      3766 2.44237E+01
 -1      3767 1.99720E+01
 -1      3768 1.23562E+01
 -1      3769 1.94761E+01
 -1      3770 1.74792E+01
 -1      3771 1.97166E+01
 -1      3772 2.04751E+01
 -1      3773 2.40291E+01
 -1      3774 2.33045E+01
 -1      3775 2.32954E+01
 -1      3776 1.74486E+01
 -1      3777 1.60653E+01
 -1      3778 1.73153E+01
 -1      3779 1.32180E+01
 -1      3780 1.68669E+01
 -1      3781 1.81169E+01
 -1      3782 1.99331E+01
 -1      3783 2.31997E+01
 -1      3784 1.18534E+01
 -1      3785 1.67779E+01
 -1      3786 1.93619E+01
 -1      3787 1.16786E+01
 -1      3788 1.96388E+01
 -1      3789 2.12156E+01
 -1      3790 2.16756E+01
 -1      3791 1.21740E+01
 -1      3792 2.01515E+01
 -1      3793 2.06115E+01
 -1      3794 1.78792E+01
 -1      3795 1.89819E+01
 -1      3796 1.14239E+01
 -1      3797 1.83091E+01
 -1      3798 1.94118E+01
 -1      3799 1.79156E+01
 -1      3800 1.91370E+01
 -1      3801 1.15630E+01
 -1      3802 1.86999E+01
 -1      3803 1.99214E+01
 -1      3804 1.04122E+01
 -1      3805 1.55365E+01
 -1      3806 1.55365E+01
 -1      3807 1.09104E+01
 -1      3808 1.42540E+01
 -1      3809 1.42540E+01
 -1      3810 1.88801E+01
 -1      3811 1.58808E+01
 -1      3812 1.58808E+01
 -1      3813 1.09670E+01
 -1      3814 1.42569E+01
 -1      3815 1.42569E+01
 -1      3816 1.91707E+01
 -1      3817 1.84150E+01
 -1      3818 2.32272E+01
 -1      3819 2.43177E+01
 -1      3820 1.85417E+01
 -1      3821 1.85976E+01
 -1      3822 1.19307E+01
 -1      3823 2.08808E+01
 -1      3824 2.57744E+01
 -1      3825 2.05166E+01
 -1      3826 2.78891E+01
 -1      3827 2.04598E+01
 -1      3828 1.97895E+01
 -1      3829 2.75783E+01
 -1      3830 1.30185E+01
 -1      3831 1.47727E+01
 -1      3832 1.43301E+01
 -1      3833 1.43301E+01
 -1      3834 1.96201E+01
 -1      3835 1.98069E+01
 -1      3836 2.84504E+01
 -1      3837 2.07565E+01
 -1      3838 2.86371E+01
 -1      3839 1.32377E+01
 -1      3840 1.23009E+01
 -1      3841 1.59301E+01
 -1      3842 1.81366E+01
 -1      3843 1.02844E+01
 -1      3844 1.07458E+01
 -1      3845 1.37955E+01
 -1      3846 1.40357E+01
 -1      3847 1.07142E+01
 -1      3848 1.40578E+01
 -1      3849 1.02767E+01
 -1      3850 1.38165E+01
 -1      3851 1.09109E+01
 -1      3852 1.21156E+01
 -1      3853 2.02194E+01
 -1      3854 1.85847E+01
 -1      3855 1.77744E+01
 -1      3856 1.76416E+01
 -1      3857 2.56416E+01
 -1      3858 1.98890E+01
 -1      3859 2.57870E+01
 -1      3860 2.06272E+01
 -1      3861 2.78932E+01
 -1      3862 2.04563E+01
 -1      3863 1.97889E+01
 -1      3864 2.75762E+01
 -1      3865 1.77813E+01
 -1      3866 1.98876E+01
 -1      3867 1.21185E+01
 -1      3868 2.02186E+01
 -1      3869 2.31997E+01
 -1      3870 1.93619E+01
 -1      3871 2.57837E+01
 -1      3872 1.60028E+01
 -1      3873 1.61445E+01
 -1      3874 1.87285E+01
 -1      3875 2.30580E+01
 -1      3876 1.76510E+01
 -1      3877 2.56566E+01
 -1      3878 2.34195E+01
 -1      3879 1.98158E+01
 -1      3880 1.68211E+01
 -1      3881 2.31010E+01
 -1      3882 1.94974E+01
 -1      3883 2.60957E+01
 -1      3884 1.13465E+01
 -1      3885 1.93345E+01
 -1      3886 2.28108E+01
 -1      3887 1.97452E+01
 -1      3888 1.97362E+01
 -1      3889 1.09594E+01
 -1      3890 1.79220E+01
 -1      3891 1.14032E+01
 -1      3892 1.97616E+01
 -1      3893 1.57676E+01
 -1      3894 1.67113E+01
 -1      3895 2.29912E+01
 -1      3896 1.85537E+01
 -1      3897 1.09141E+01
 -1      3898 1.85846E+01
 -1      3899 2.04094E+01
 -1      3900 1.93017E+01
 -1      3901 1.63719E+01
 -1      3902 1.89805E+01
 -1      3903 2.00934E+01
 -1      3904 1.60653E+01
 -1      3905 2.27998E+01
 -1      3906 1.54453E+01
 -1      3907 1.52178E+01
 -1      3908 1.77997E+01
 -1      3909 2.03341E+01
 -1      3910 1.80272E+01
 -1      3911 1.87501E+01
 -1      3912 1.98026E+01
 -1      3913 2.07900E+01
 -1      3914 2.82490E+01
 -1      3915 2.17331E+01
 -1      3916 2.20806E+01
 -1      3917 2.57805E+01
 -1      3918 1.95201E+01
 -1      3919 1.66563E+01
 -1      3920 1.77088E+01
 -1      3921 2.60989E+01
 -1      3922 1.98656E+01
 -1      3923 1.81308E+01
 -1      3924 1.84783E+01
 -1      3925 1.10169E+01
 -1      3926 1.83137E+01
 -1      3927 2.57837E+01
 -1      3928 2.57209E+01
 -1      3929 2.82490E+01
 -1      3930 1.79531E+01
 -1      3931 2.28979E+01
 -1      3932 2.60957E+01
 -1      3933 2.60354E+01
 -1      3934 1.24444E+01
 -1      3935 2.08819E+01
 -1      3936 1.71586E+01
 -1      3937 1.27719E+01
 -1      3938 1.20620E+01
 -1      3939 1.97691E+01
 -1      3940 2.71975E+01
 -1      3941 2.73150E+01
 -1      3942 1.27719E+01
 -1      3943 1.27719E+01
 -1      3944 2.78353E+01
 -1      3945 2.78353E+01
 -1      3946 2.78932E+01
 -1      3947 2.78353E+01
 -1      3948 2.78932E+01
 -1      3949 1.04039E+01
 -1      3950 1.03727E+01
 -1      3951 2.75644E+01
 -1      3952 2.75783E+01
 -1      3953 2.72495E+01
 -1      3954 2.75644E+01
 -1      3955 2.75548E+01
 -1      3956 2.72420E+01
 -1      3957 2.75762E+01
 -1      3958 2.75548E+01
 -1      3959 2.78891E+01
 -1      3960 2.06353E+01
 -1      3961 2.78911E+01
 -1      3962 2.06374E+01
 -1      3963 2.06353E+01
 -1      3964 2.78911E+01
 -1      3965 2.05655E+01
 -1      3966 2.02507E+01
 -1      3967 2.05635E+01
 -1      3968 2.75762E+01
 -1      3969 2.78291E+01
 -1      3970 2.78891E+01
 -1      3971 2.78291E+01
 -1      3972 2.78291E+01
 -1      3973 2.03858E+01
 -1      3974 2.05033E+01
 -1      3975 2.02504E+01
 -1      3976 2.75783E+01
 -1      3977 2.05653E+01
 -1      3978 2.05633E+01
 -1      3979 2.78911E+01
 -1      3980 2.43177E+01
 -1      3981 1.30480E+01
 -1      3982 1.35565E+01
 -1      3983 1.41957E+01
 -1      3984 2.05980E+01
 -1      3985 2.05980E+01
 -1      3986 2.05959E+01
 -1      3987 2.78911E+01
 -1      3988 1.18805E+01
 -1      3989 1.47892E+01
 -1      3990 1.22137E+01
 -1      3991 2.84504E+01
 -1      3992 1.89534E+01
 -1      3993 2.65611E+01
 -1      3994 1.88076E+01
 -1      3995 2.04955E+01
 -1      3996 1.22298E+01
 -1      3997 2.27745E+01
 -1      3998 1.36983E+01
 -1      3999 2.29115E+01
 -1      4000 1.42554E+01
 -1      4001 1.95763E+01
 -1      4002 1.75770E+01
 -1      4003 1.75770E+01
 -1      4004 1.95763E+01
 -1      4005 1.94227E+01
 -1      4006 2.82591E+01
 -1      4007 3.46507E+01
 -1      4008 1.69498E+01
 -1      4009 2.18128E+01
 -1      4010 1.69498E+01
 -1      4011 1.69263E+01
 -1      4012 2.17893E+01
 -1      4013 2.17893E+01
 -1      4014 2.21792E+01
 -1      4015 1.39972E+01
 -1      4016 1.91961E+01
 -1      4017 1.88801E+01
 -1      4018 2.28979E+01
 -1      4019 2.60989E+01
 -1      4020 2.57837E+01
 -1      4021 1.46965E+01
 -1      4022 1.80182E+01
 -1      4023 2.65611E+01
 -1      4024 2.04955E+01
 -1      4025 2.16778E+01
 -1      4026 2.16778E+01
 -1      4027 2.16778E+01
 -1      4028 2.18128E+01
 -1      4029 2.18128E+01
 -1      4030 1.50471E+01
 -1      4031 1.99269E+01
 -1      4032 1.31180E+01
 -1      4033 1.55017E+01
 -1      4034 1.20604E+01
 -1      4035 2.13980E+01
 -1      4036 2.13037E+01
 -1      4037 2.08889E+01
 -1      4038 2.13980E+01
 -1      4039 2.78932E+01
 -1      4040 2.78932E+01
 -1      4041 2.78932E+01
 -1      4042 2.78911E+01
 -1      4043 2.75783E+01
 -1      4044 2.78911E+01
 -1      4045 2.75783E+01
 -1      4046 2.78911E+01
 -1      4047 2.17658E+01
 -1      4048 2.15609E+01
 -1      4049 2.15609E+01
 -1      4050 2.17658E+01
 -1      4051 2.15609E+01
 -1      4052 1.16129E+01
 -1      4053 1.71299E+01
 -1      4054 1.99565E+01
 -1      4055 2.63556E+01
 -1      4056 2.00151E+01
 -1      4057 2.03371E+01
 -1      4058 2.67363E+01
 -1      4059 2.67363E+01
 -1      4060 2.66596E+01
 -1      4061 2.63375E+01
 -1      4062 2.66596E+01
 -1      4063 1.19262E+01
 -1      4064 1.72311E+01
 -1      4065 1.72077E+01
 -1      4066 1.64061E+01
 -1      4067 2.09877E+01
 -1      4068 2.17893E+01
 -1      4069 1.69263E+01
 -1      4070 2.03251E+01
 -1      4071 1.66774E+01
 -1      4072 2.18635E+01
 -1      4073 1.67751E+01
 -1      4074 1.67009E+01
 -1      4075 2.18870E+01
 -1      4076 1.63899E+01
 -1      4077 1.63899E+01
 -1      4078 1.50791E+01
 -1      4079 1.69369E+01
 -1      4080 1.69369E+01
 -1      4081 1.59251E+01
 -1      4082 1.11586E+01
 -1      4083 1.03849E+01
 -1      4084 1.16939E+01
 -1      4085 1.09202E+01
 -1      4086 1.62215E+01
 -1      4087 1.57070E+01
 -1      4088 1.61974E+01
 -1      4089 1.57915E+01
 -1      4090 1.67347E+01
 -1      4091 1.36272E+01
 -1      4092 1.26637E+01
 -1      4093 1.81631E+01
 -1      4094 1.07106E+01
 -1      4095 7.88306E+00
 -1      4096 1.14440E+01
 -1      4097 1.96259E+01
 -1      4098 2.37415E+01
 -1      4099 2.01379E+01
 -1      4100 1.88981E+01
 -1      4101 2.72123E+01
 -1      4102 2.72703E+01
 -1      4103 2.40923E+01
 -1      4104 1.88740E+01
 -1      4105 1.95182E+01
 -1      4106 1.99033E+01
 -1      4107 2.79760E+01
 -1      4108 2.80464E+01
 -1      4109 2.02164E+01
 -1      4110 2.23554E+01
 -1      4111 1.70630E+01
 -1      4112 1.72954E+01
 -1      4113 1.72954E+01
 -1      4114 1.70300E+01
 -1      4115 1.72910E+01
 -1      4116 1.72910E+01
 -1      4117 2.12349E+01
 -1      4118 2.14398E+01
 -1      4119 2.20615E+01
 -1      4120 2.18870E+01
 -1      4121 1.63514E+01
 -1      4122 2.72420E+01
 -1      4123 2.75762E+01
 -1      4124 2.72468E+01
 -1      4125 2.75757E+01
 -1      4126 2.18128E+01
 -1      4127 2.18128E+01
 -1      4128 2.71896E+01
 -1      4129 2.72496E+01
 -1      4130 2.00144E+01
 -1      4131 2.02507E+01
 -1      4132 2.05037E+01
 -1      4133 2.09185E+01
 -1      4134 1.63368E+01
 -1      4135 2.20080E+01
 -1      4136 2.52557E+01
 -1      4137 2.19910E+01
 -1      4138 2.52411E+01
 -1      4139 2.01312E+01
 -1      4140 2.49207E+01
 -1      4141 2.49137E+01
 -1      4142 1.89944E+01
 -1      4143 1.99623E+01
 -1      4144 2.37092E+01
 -1      4145 1.81983E+01
 -1      4146 1.30454E+01
 -1      4147 1.30765E+01
 -1      4148 1.54565E+01
 -1      4149 1.27741E+01
 -1      4150 1.64424E+01
 -1      4151 1.81881E+01
 -1      4152 1.63988E+01
 -1      4153 1.55133E+01
 -1      4154 1.42926E+01
 -1      4155 1.64406E+01
 -1      4156 1.96646E+01
 -1      4157 1.80563E+01
 -1      4158 1.88132E+01
 -1      4159 1.93660E+01
 -1      4160 1.96998E+01
 -1      4161 2.60404E+01
 -1      4162 1.51590E+01
 -1      4163 1.80354E+01
 -1      4164 1.59080E+01
 -1      4165 2.02478E+01
 -1      4166 1.82350E+01
 -1      4167 2.53233E+01
 -1      4168 2.60190E+01
 -1      4169 2.64178E+01
 -1      4170 1.96155E+01
 -1      4171 1.99564E+01
 -1      4172 2.19127E+01
 -1      4173 1.93593E+01
 -1      4174 1.96743E+01
 -1      4175 1.81497E+01
 -1      4176 1.87800E+01
 -1      4177 1.81456E+01
 -1      4178 1.32934E+01
 -1      4179 1.32934E+01
 -1      4180 1.33224E+01
 -1      4181 1.89018E+01
 -1      4182 1.33224E+01
 -1      4183 1.68580E+01
 -1      4184 1.59871E+01
 -1      4185 1.69136E+01
 -1      4186 1.82065E+01
 -1      4187 1.61416E+01
 -1      4188 2.20097E+01
 -1      4189 1.84599E+01
 -1      4190 1.97416E+01
 -1      4191 1.84930E+01
 -1      4192 1.98529E+01
 -1      4193 2.49310E+01
 -1      4194 2.20058E+01
 -1      4195 2.60618E+01
 -1      4196 2.49259E+01
 -1      4197 1.84346E+01
 -1      4198 1.81566E+01
 -1      4199 1.01157E+01
 -1      4200 1.02231E+01
 -1      4201 2.17520E+01
 -1      4202 1.91191E+01
 -1      4203 1.97224E+01
 -1      4204 1.98485E+01
 -1      4205 1.84618E+01
 -1      4206 2.01580E+01
 -1      4207 1.81703E+01
 -1      4208 1.91649E+01
 -1      4209 2.78911E+01
 -1      4210 2.72517E+01
 -1      4211 2.79760E+01
 -1      4212 1.70142E+01
 -1      4213 1.73208E+01
 -1      4214 1.72910E+01
 -1      4215 2.18635E+01
 -1      4216 2.17893E+01
 -1      4217 2.18870E+01
 -1      4218 2.14633E+01
 -1      4219 2.23554E+01
 -1      4220 2.04786E+01
 -1      4221 2.09185E+01
 -1      4222 2.80565E+01
 -1      4223 2.72703E+01
 -1      4224 2.50303E+01
 -1      4225 2.52557E+01
 -1      4226 2.52442E+01
 -1      4227 9.60245E+00
 -1      4228 1.39470E+01
 -1      4229 9.60082E+00
 -1      4230 1.28765E+01
 -1      4231 1.32342E+01
 -1      4232 1.39490E+01
 -1      4233 1.15873E+01
 -1      4234 1.57419E+01
 -1      4235 1.75205E+01
 -1      4236 2.72634E+01
 -1      4237 2.75783E+01
 -1      4238 2.60989E+01
 -1      4239 2.67363E+01
 -1      4240 2.64178E+01
 -1      4241 2.75757E+01
 -1      4242 1.57356E+01
 -1      4243 1.75163E+01
 -1      4244 1.83761E+01
 -1      4245 2.64210E+01
 -1      4246 2.66777E+01
 -1      4247 1.15442E+01
 -1      4248 1.15058E+01
 -1      4249 1.15740E+01
 -1      4250 1.63381E+01
 -1      4251 1.51142E+01
 -1      4252 1.63381E+01
 -1      4253 1.67079E+01
 -1      4254 1.58997E+01
 -1      4255 1.64689E+01
 -1      4256 2.44237E+01
 -1      4257 1.89970E+01
 -1      4258 1.99720E+01
 -1      4259 1.34015E+01
 -1      4260 1.33801E+01
 -1      4261 1.65006E+01
 -1      4262 2.97180E+01
 -1      4263 2.56317E+01
 -1      4264 2.94973E+01
 -1      4265 2.94973E+01
 -1      4266 2.65424E+01
 -1      4267 2.92766E+01
 -1      4268 1.54534E+01
 -1      4269 1.44207E+01
 -1      4270 2.48254E+01
 -1      4271 2.81795E+01
 -1      4272 2.86371E+01
 -1      4273 1.59204E+01
 -1      4274 1.41957E+01
 -1      4275 2.83599E+01
 -1      4276 2.81024E+01
 -1      4277 3.25383E+01
 -1      4278 3.08262E+01
 -1      4279 3.08262E+01
 -1      4280 1.14512E+01
 -1      4281 1.14093E+01
 -1      4282 2.45464E+01
 -1      4283 2.94973E+01
 -1      4284 2.82554E+01
 -1      4285 2.32954E+01
 -1      4286 2.85890E+01
 -1      4287 2.93233E+01
 -1      4288 2.62704E+01
 -1      4289 2.93301E+01
 -1      4290 2.93301E+01
 -1      4291 1.29854E+01
 -1      4292 1.41902E+01
 -1      4293 2.30047E+01
 -1      4294 2.06979E+01
 -1      4295 2.94973E+01
 -1      4296 1.03749E+01
 -1      4297 1.11478E+01
 -1      4298 2.03889E+01
 -1      4299 1.98462E+01
 -1      4300 2.50017E+01
 -1      4301 2.96812E+01
 -1      4302 2.96916E+01
 -1      4303 2.96916E+01
 -1      4304 2.50121E+01
 -1      4305 2.36676E+01
 -1      4306 2.46371E+01
 -1      4307 2.66195E+01
 -1      4308 2.91141E+01
 -1      4309 1.02378E+01
 -1      4310 1.13288E+01
 -1      4311 2.08304E+01
 -1      4312 2.01247E+01
 -1      4313 1.63988E+01
 -1      4314 1.81881E+01
 -1      4315 1.69245E+01
 -1      4316 1.98610E+01
 -1      4317 2.08304E+01
 -1      4318 3.08262E+01
 -1      4319 2.77379E+01
 -1      4320 3.08262E+01
 -1      4321 1.25436E+01
 -1      4322 1.51737E+01
 -1      4323 1.46177E+01
 -1      4324 2.93301E+01
 -1      4325 1.21290E+01
 -1      4326 2.58878E+01
 -1      4327 1.09435E+01
 -1      4328 1.14628E+01
 -1      4329 1.02378E+01
 -1      4330 1.30561E+01
 -1      4331 1.36000E+01
 -1      4332 1.36000E+01
 -1      4333 1.35738E+01
 -1      4334 1.35738E+01
 -1      4335 1.30321E+01
 -1      4336 1.64676E+01
 -1      4337 1.85325E+01
 -1      4338 1.63349E+01
 -1      4339 1.68358E+01
 -1      4340 1.94444E+01
 -1      4341 1.74005E+01
 -1      4342 1.91160E+01
 -1      4343 1.88965E+01
 -1      4344 2.03646E+01
 -1      4345 1.83620E+01
 -1      4346 2.25377E+01
 -1      4347 1.89879E+01
 -1      4348 1.94925E+01
 -1      4349 2.52438E+01
 -1      4350 2.01657E+01
 -1      4351 1.89709E+01
 -1      4352 1.83475E+01
 -1      4353 2.25421E+01
 -1      4354 1.91012E+01
 -1      4355 1.88956E+01
 -1      4356 2.03618E+01
 -1      4357 2.93301E+01
 -1      4358 2.93368E+01
 -1      4359 2.01660E+01
 -1      4360 1.94947E+01
 -1      4361 2.52434E+01
 -1      4362 1.87971E+01
 -1      4363 1.98055E+01
 -1      4364 1.82442E+01
 -1      4365 1.12060E+01
 -1      4366 2.62645E+01
 -1      4367 2.03607E+01
 -1      4368 1.96847E+01
 -1      4369 1.71956E+01
 -1      4370 1.37396E+01
 -1      4371 1.81166E+01
 -1      4372 1.98075E+01
 -1      4373 1.63446E+01
 -1      4374 1.12146E+01
 -1      4375 2.06859E+01
 -1      4376 2.66704E+01
 -1      4377 2.96916E+01
 -1      4378 2.97020E+01
 -1      4379 1.06113E+01
 -1      4380 1.78551E+01
 -1      4381 1.84271E+01
 -1      4382 1.93758E+01
 -1      4383 2.81795E+01
 -1      4384 1.54830E+01
 -1      4385 1.99328E+01
 -1      4386 2.93301E+01
 -1      4387 1.06719E+01
 -1      4388 1.78079E+01
 -1      4389 1.68814E+01
 -1      4390 1.61426E+01
 -1      4391 2.93301E+01
 -1      4392 1.37160E+01
 -1      4393 2.96916E+01
 -1      4394 2.96916E+01
 -1      4395 1.33801E+01
 -1      4396 1.74892E+01
 -1      4397 1.68302E+01
 -1      4398 1.28100E+01
 -1      4399 1.27680E+01
 -1      4400 1.14512E+01
 -1      4401 1.39972E+01
 -1      4402 1.08391E+01
 -1      4403 1.21522E+01
 -3
    1PSTEP                         4           1           1          
    1PGM                1.000000E+00                                  
    1PGK                2.759259E+07                                  
    1PHID                         -1                                  
    1PSUBC                         0                                  
    1PMODE                         2                                  
  100CL  102 836.0193528        4403                     2    2MODAL      1
 -4  DISP        4    1
 -5  D1          1    2    1    0
 -5  D2          1    2    2    0
 -5  D3          1    2    3    0
 -5  ALL         1    2    0    0    1ALL
 -1         1 0.00000E+00 0.00000E+00 0.00000E+00
 -1         2 0.00000E+00 0.00000E+00 0.00000E+00
 -1         3 0.00000E+00 0.00000E+00 0.00000E+00
 -1         4 0.00000E+00 0.00000E+00 0.00000E+00
 -1         5 1.78855E+01 2.22273E+02-3.91371E+01
 -1         6 1.25300E+01 2.22273E+02-3.91376E+01
 -1         7-1.25301E+01 2.22273E+02-3.91379E+01
 -1         8-1.78856E+01 2.22273E+02-3.91375E+01
 -1         9 0.00000E+00 0.00000E+00 0.00000E+00
 -1        10 0.00000E+00 0.00000E+00 0.00000E+00
 -1        11 0.00000E+00 0.00000E+00 0.00000E+00
 -1        12 0.00000E+00 0.00000E+00 0.00000E+00
 -1        13 0.00000E+00 0.00000E+00 0.00000E+00
 -1        14 0.00000E+00 0.00000E+00 0.00000E+00
 -1        15 0.00000E+00 0.00000E+00 0.00000E+00
 -1        16 0.00000E+00 0.00000E+00 0.00000E+00
 -1        17 0.00000E+00 0.00000E+00 0.00000E+00
 -1        18 0.00000E+00 0.00000E+00 0.00000E+00
 -1        19 0.00000E+00 0.00000E+00 0.00000E+00
 -1        20 0.00000E+00 0.00000E+00 0.00000E+00
 -1        21 0.00000E+00 0.00000E+00 0.00000E+00
 -1        22 0.00000E+00 0.00000E+00 0.00000E+00
 -1        23 0.00000E+00 0.00000E+00 0.00000E+00
 -1        24 0.00000E+00 0.00000E+00 0.00000E+00
 -1        25 0.00000E+00 0.00000E+00 0.00000E+00
 -1        26 0.00000E+00 0.00000E+00 0.00000E+00
 -1        27 0.00000E+00 0.00000E+00 0.00000E+00
 -1        28 0.00000E+00 0.00000E+00 0.00000E+00
 -1        29 0.00000E+00 0.00000E+00 0.00000E+00
 -1        30 0.00000E+00 0.00000E+00 0.00000E+00
 -1        31 0.00000E+00 0.00000E+00 0.00000E+00
 -1        32 0.00000E+00 0.00000E+00 0.00000E+00
 -1        33 0.00000E+00 0.00000E+00 0.00000E+00
 -1        34 0.00000E+00 0.00000E+00 0.00000E+00
 -1        35 0.00000E+00 0.00000E+00 0.00000E+00
 -1        36 0.00000E+00 0.00000E+00 0.00000E+00
 -1        37 1.38698E+01 2.22273E+02-3.91373E+01
 -1        38 1.52088E+01 2.22274E+02-3.91371E+01
 -1        39 1.65473E+01 2.22273E+02-3.91372E+01
 -1        40 1.32000E+01 2.22273E+02-3.91375E+01
 -1        41 1.45394E+01 2.22273E+02-3.91372E+01
 -1        42 1.58781E+01 2.22274E+02-3.91371E+01
 -1        43 1.72164E+01 2.22273E+02-3.91372E+01
 -1        44 1.02807E+01 2.22272E+02-3.91371E+01
 -1        45 2.67790E+00 2.22272E+02-3.91376E+01
 -1        46-4.92498E+00 2.22272E+02-3.91381E+01
 -1        47 1.40829E+01 2.22273E+02-3.91371E+01
 -1        48 6.47913E+00 2.22272E+02-3.91373E+01
 -1        49-1.12336E+00 2.22272E+02-3.91379E+01
 -1        50-8.72730E+00 2.22273E+02-3.91381E+01
 -1        51-1.65473E+01 2.22273E+02-3.91376E+01
 -1        52-1.52089E+01 2.22274E+02-3.91375E+01
 -1        53-1.38699E+01 2.22274E+02-3.91376E+01
 -1        54-1.72165E+01 2.22273E+02-3.91376E+01
 -1        55-1.58781E+01 2.22273E+02-3.91375E+01
 -1        56-1.45395E+01 2.22274E+02-3.91375E+01
 -1        57-1.32001E+01 2.22273E+02-3.91378E+01
 -1        58 4.92489E+00 2.22272E+02-3.91379E+01
 -1        59-2.67801E+00 2.22271E+02-3.91376E+01
 -1        60-1.02808E+01 2.22272E+02-3.91373E+01
 -1        61 8.72722E+00 2.22273E+02-3.91378E+01
 -1        62 1.12325E+00 2.22272E+02-3.91379E+01
 -1        63-6.47925E+00 2.22272E+02-3.91374E+01
 -1        64-1.40830E+01 2.22273E+02-3.91374E+01
 -1        65 9.09309E-01 3.46498E-01 3.77824E-01
 -1        66 1.75698E+00 1.30409E+00 2.74303E-01
 -1        67 2.59536E+00 2.91657E+00-1.66000E-02
 -1        68 3.40443E+00 5.13317E+00-4.27050E-01
 -1        69 4.17917E+00 7.91860E+00-9.40989E-01
 -1        70 4.91433E+00 1.12442E+01-1.55001E+00
 -1        71 5.61331E+00 1.50802E+01-2.24729E+00
 -1        72 6.27398E+00 1.94017E+01-3.03138E+00
 -1        73 6.89637E+00 2.41794E+01-3.89433E+00
 -1        74 7.48213E+00 2.93893E+01-4.83433E+00
 -1        75 8.03103E+00 3.50035E+01-5.84526E+00
 -1        76 8.54314E+00 4.09952E+01-6.92216E+00
 -1        77 9.01859E+00 4.73370E+01-8.05959E+00
 -1        78 9.45968E+00 5.40059E+01-9.25534E+00
 -1        79 9.86493E+00 6.09759E+01-1.05036E+01
 -1        80 1.02361E+01 6.82214E+01-1.17999E+01
 -1        81 1.05747E+01 7.57176E+01-1.31387E+01
 -1        82 1.08806E+01 8.34425E+01-1.45185E+01
 -1        83 1.11546E+01 9.13711E+01-1.59323E+01
 -1        84 1.13993E+01 9.94831E+01-1.73790E+01
 -1        85 1.16138E+01 1.07757E+02-1.88533E+01
 -1        86 1.18017E+01 1.16171E+02-2.03503E+01
 -1        87 1.19628E+01 1.24707E+02-2.18685E+01
 -1        88 1.20994E+01 1.33346E+02-2.34044E+01
 -1        89 1.22133E+01 1.42070E+02-2.49535E+01
 -1        90 1.23054E+01 1.50864E+02-2.65144E+01
 -1        91 1.23783E+01 1.59714E+02-2.80836E+01
 -1        92 1.24339E+01 1.68604E+02-2.96586E+01
 -1        93 1.24746E+01 1.77525E+02-3.12378E+01
 -1        94 1.25016E+01 1.86465E+02-3.28194E+01
 -1        95 1.25186E+01 1.95416E+02-3.44007E+01
 -1        96 1.25271E+01 2.04371E+02-3.59817E+01
 -1        97 1.25299E+01 2.13324E+02-3.75606E+01
 -1        98 4.90983E-01 1.43096E-01 3.03400E-01
 -1        99 1.33292E+00 7.42158E-01 3.57583E-01
 -1       100 2.17912E+00 2.03244E+00 1.46260E-01
 -1       101 3.00404E+00 3.95228E+00-2.08475E-01
 -1       102 3.79633E+00 6.45687E+00-6.71929E-01
 -1       103 4.55137E+00 9.51600E+00-1.23363E+00
 -1       104 5.26847E+00 1.30997E+01-1.88770E+00
 -1       105 5.94804E+00 1.71818E+01-2.62906E+00
 -1       106 6.58989E+00 2.17350E+01-3.45325E+00
 -1       107 7.19395E+00 2.67322E+01-4.35535E+00
 -1       108 7.76092E+00 3.21475E+01-5.33134E+00
 -1       109 8.29148E+00 3.79536E+01-6.37570E+00
 -1       110 8.78537E+00 4.41237E+01-7.48360E+00
 -1       111 9.24357E+00 5.06324E+01-8.65086E+00
 -1       112 9.66634E+00 5.74549E+01-9.87303E+00
 -1       113 1.00548E+01 6.45657E+01-1.11458E+01
 -1       114 1.04094E+01 7.19394E+01-1.24641E+01
 -1       115 1.07314E+01 7.95527E+01-1.38240E+01
 -1       116 1.10215E+01 8.73825E+01-1.52213E+01
 -1       117 1.12805E+01 9.54057E+01-1.66521E+01
 -1       118 1.15099E+01 1.03602E+02-1.81127E+01
 -1       119 1.17112E+01 1.11948E+02-1.95989E+01
 -1       120 1.18853E+01 1.20425E+02-2.11071E+01
 -1       121 1.20340E+01 1.29014E+02-2.26345E+01
 -1       122 1.21590E+01 1.37698E+02-2.41773E+01
 -1       123 1.22617E+01 1.46459E+02-2.57327E+01
 -1       124 1.23441E+01 1.55283E+02-2.72980E+01
 -1       125 1.24081E+01 1.64154E+02-2.88704E+01
 -1       126 1.24559E+01 1.73061E+02-3.04479E+01
 -1       127 1.24895E+01 1.81993E+02-3.20284E+01
 -1       128 1.25113E+01 1.90939E+02-3.36100E+01
 -1       129 1.25236E+01 1.99893E+02-3.51914E+01
 -1       130 1.25290E+01 2.08847E+02-3.67714E+01
 -1       131 1.25300E+01 2.17799E+02-3.83493E+01
 -1       132 1.29822E+00 5.06204E-01-5.28364E-01
 -1       133 2.50751E+00 1.48770E+00-7.65543E-01
 -1       134 3.70451E+00 3.09764E+00-1.04232E+00
 -1       135 4.85969E+00 5.30705E+00-1.41024E+00
 -1       136 5.96511E+00 8.08427E+00-1.87650E+00
 -1       137 7.01528E+00 1.14001E+01-2.43732E+00
 -1       138 8.01294E+00 1.52289E+01-3.08871E+00
 -1       139 8.95459E+00 1.95415E+01-3.82502E+00
 -1       140 9.84463E+00 2.43112E+01-4.64345E+00
 -1       141 1.06807E+01 2.95136E+01-5.53663E+00
 -1       142 1.14635E+01 3.51190E+01-6.50144E+00
 -1       143 1.21939E+01 4.11027E+01-7.53289E+00
 -1       144 1.28740E+01 4.74370E+01-8.62772E+00
 -1       145 1.35023E+01 5.40986E+01-9.77947E+00
 -1       146 1.40814E+01 6.10606E+01-1.09840E+01
 -1       147 1.46120E+01 6.82983E+01-1.22389E+01
 -1       148 1.50941E+01 7.57881E+01-1.35374E+01
 -1       149 1.55305E+01 8.35056E+01-1.48773E+01
 -1       150 1.59223E+01 9.14282E+01-1.62540E+01
 -1       151 1.62713E+01 9.95341E+01-1.76631E+01
 -1       152 1.65779E+01 1.07801E+02-1.91021E+01
 -1       153 1.68457E+01 1.16209E+02-2.05665E+01
 -1       154 1.70760E+01 1.24740E+02-2.20532E+01
 -1       155 1.72714E+01 1.33373E+02-2.35588E+01
 -1       156 1.74329E+01 1.42093E+02-2.50807E+01
 -1       157 1.75650E+01 1.50882E+02-2.66168E+01
 -1       158 1.76693E+01 1.59728E+02-2.81629E+01
 -1       159 1.77484E+01 1.68615E+02-2.97180E+01
 -1       160 1.78064E+01 1.77533E+02-3.12799E+01
 -1       161 1.78452E+01 1.86470E+02-3.28464E+01
 -1       162 1.78692E+01 1.95419E+02-3.44165E+01
 -1       163 1.78812E+01 2.04372E+02-3.59889E+01
 -1       164 1.78853E+01 2.13324E+02-3.75627E+01
 -1       165 7.00986E-01 2.62479E-01-3.74852E-01
 -1       166 1.90261E+00 9.19806E-01-6.49966E-01
 -1       167 3.11015E+00 2.21570E+00-8.94097E-01
 -1       168 4.28815E+00 4.12955E+00-1.21415E+00
 -1       169 5.41889E+00 6.62631E+00-1.63101E+00
 -1       170 6.49662E+00 9.67624E+00-2.14547E+00
 -1       171 7.52068E+00 1.32520E+01-2.75190E+00
 -1       172 8.49028E+00 1.73261E+01-3.44670E+00
 -1       173 9.40631E+00 2.18709E+01-4.22452E+00
 -1       174 1.02689E+01 2.68601E+01-5.08068E+00
 -1       175 1.10783E+01 3.22673E+01-6.01045E+00
 -1       176 1.18352E+01 3.80653E+01-7.00931E+00
 -1       177 1.25403E+01 4.42276E+01-8.07290E+00
 -1       178 1.31942E+01 5.07287E+01-9.19651E+00
 -1       179 1.37978E+01 5.75436E+01-1.03753E+01
 -1       180 1.43527E+01 6.46465E+01-1.16056E+01
 -1       181 1.48585E+01 7.20132E+01-1.28828E+01
 -1       182 1.53180E+01 7.96198E+01-1.42025E+01
 -1       183 1.57319E+01 8.74426E+01-1.55613E+01
 -1       184 1.61018E+01 9.54596E+01-1.69546E+01
 -1       185 1.64296E+01 1.03648E+02-1.83793E+01
 -1       186 1.67167E+01 1.11989E+02-1.98312E+01
 -1       187 1.69654E+01 1.20460E+02-2.13072E+01
 -1       188 1.71777E+01 1.29045E+02-2.28038E+01
 -1       189 1.73560E+01 1.37724E+02-2.43181E+01
 -1       190 1.75026E+01 1.46480E+02-2.58473E+01
 -1       191 1.76202E+01 1.55299E+02-2.73887E+01
 -1       192 1.77117E+01 1.64167E+02-2.89396E+01
 -1       193 1.77798E+01 1.73071E+02-3.04982E+01
 -1       194 1.78277E+01 1.81999E+02-3.20627E+01
 -1       195 1.78589E+01 1.90944E+02-3.36311E+01
 -1       196 1.78764E+01 1.99895E+02-3.52024E+01
 -1       197 1.78840E+01 2.08849E+02-3.67757E+01
 -1       198 1.78856E+01 2.17799E+02-3.83499E+01
 -1       199-1.29735E+00 5.06217E-01-5.29611E-01
 -1       200-2.50721E+00 1.48730E+00-7.66392E-01
 -1       201-3.70488E+00 3.09741E+00-1.04240E+00
 -1       202-4.86056E+00 5.30626E+00-1.41086E+00
 -1       203-5.96511E+00 8.08345E+00-1.87699E+00
 -1       204-7.01597E+00 1.13997E+01-2.43784E+00
 -1       205-8.01233E+00 1.52284E+01-3.08880E+00
 -1       206-8.95461E+00 1.95414E+01-3.82525E+00
 -1       207-9.84471E+00 2.43117E+01-4.64338E+00
 -1       208-1.06809E+01 2.95134E+01-5.53686E+00
 -1       209-1.14636E+01 3.51188E+01-6.50165E+00
 -1       210-1.21940E+01 4.11025E+01-7.53311E+00
 -1       211-1.28742E+01 4.74369E+01-8.62798E+00
 -1       212-1.35030E+01 5.40981E+01-9.77937E+00
 -1       213-1.40818E+01 6.10601E+01-1.09849E+01
 -1       214-1.46121E+01 6.82987E+01-1.22387E+01
 -1       215-1.50943E+01 7.57878E+01-1.35377E+01
 -1       216-1.55306E+01 8.35053E+01-1.48775E+01
 -1       217-1.59228E+01 9.14281E+01-1.62541E+01
 -1       218-1.62715E+01 9.95340E+01-1.76634E+01
 -1       219-1.65786E+01 1.07801E+02-1.91024E+01
 -1       220-1.68458E+01 1.16209E+02-2.05666E+01
 -1       221-1.70761E+01 1.24739E+02-2.20534E+01
 -1       222-1.72712E+01 1.33373E+02-2.35592E+01
 -1       223-1.74329E+01 1.42093E+02-2.50811E+01
 -1       224-1.75652E+01 1.50882E+02-2.66170E+01
 -1       225-1.76694E+01 1.59728E+02-2.81632E+01
 -1       226-1.77488E+01 1.68615E+02-2.97185E+01
 -1       227-1.78064E+01 1.77532E+02-3.12803E+01
 -1       228-1.78454E+01 1.86470E+02-3.28467E+01
 -1       229-1.78693E+01 1.95419E+02-3.44168E+01
 -1       230-1.78814E+01 2.04372E+02-3.59892E+01
 -1       231-1.78855E+01 2.13324E+02-3.75630E+01
 -1       232-7.01081E-01 2.63116E-01-3.74609E-01
 -1       233-1.90240E+00 9.19033E-01-6.50605E-01
 -1       234-3.11017E+00 2.21532E+00-8.94192E-01
 -1       235-4.28865E+00 4.12921E+00-1.21440E+00
 -1       236-5.41925E+00 6.62581E+00-1.63160E+00
 -1       237-6.49678E+00 9.67605E+00-2.14582E+00
 -1       238-7.52066E+00 1.32519E+01-2.75246E+00
 -1       239-8.49029E+00 1.73260E+01-3.44686E+00
 -1       240-9.40624E+00 2.18708E+01-4.22453E+00
 -1       241-1.02691E+01 2.68600E+01-5.08077E+00
 -1       242-1.10785E+01 3.22670E+01-6.01069E+00
 -1       243-1.18353E+01 3.80651E+01-7.00952E+00
 -1       244-1.25405E+01 4.42274E+01-8.07312E+00
 -1       245-1.31944E+01 5.07286E+01-9.19670E+00
 -1       246-1.37984E+01 5.75433E+01-1.03758E+01
 -1       247-1.43526E+01 6.46462E+01-1.16058E+01
 -1       248-1.48587E+01 7.20131E+01-1.28829E+01
 -1       249-1.53181E+01 7.96195E+01-1.42028E+01
 -1       250-1.57320E+01 8.74424E+01-1.55614E+01
 -1       251-1.61021E+01 9.54593E+01-1.69549E+01
 -1       252-1.64297E+01 1.03648E+02-1.83795E+01
 -1       253-1.67168E+01 1.11989E+02-1.98316E+01
 -1       254-1.69654E+01 1.20460E+02-2.13074E+01
 -1       255-1.71778E+01 1.29044E+02-2.28042E+01
 -1       256-1.73560E+01 1.37723E+02-2.43184E+01
 -1       257-1.75026E+01 1.46480E+02-2.58476E+01
 -1       258-1.76203E+01 1.55299E+02-2.73889E+01
 -1       259-1.77119E+01 1.64167E+02-2.89399E+01
 -1       260-1.77801E+01 1.73070E+02-3.04986E+01
 -1       261-1.78278E+01 1.81999E+02-3.20630E+01
 -1       262-1.78590E+01 1.90943E+02-3.36314E+01
 -1       263-1.78765E+01 1.99895E+02-3.52028E+01
 -1       264-1.78842E+01 2.08848E+02-3.67760E+01
 -1       265-1.78857E+01 2.17799E+02-3.83503E+01
 -1       266-9.08497E-01 3.46274E-01 3.78458E-01
 -1       267-1.75595E+00 1.30405E+00 2.75043E-01
 -1       268-2.59534E+00 2.91707E+00-1.64037E-02
 -1       269-3.40479E+00 5.13375E+00-4.27710E-01
 -1       270-4.17911E+00 7.91910E+00-9.41228E-01
 -1       271-4.91427E+00 1.12444E+01-1.55030E+00
 -1       272-5.61340E+00 1.50803E+01-2.24746E+00
 -1       273-6.27406E+00 1.94019E+01-3.03155E+00
 -1       274-6.89645E+00 2.41796E+01-3.89450E+00
 -1       275-7.48226E+00 2.93895E+01-4.83453E+00
 -1       276-8.03128E+00 3.50037E+01-5.84544E+00
 -1       277-8.54327E+00 4.09948E+01-6.92232E+00
 -1       278-9.01854E+00 4.73372E+01-8.05977E+00
 -1       279-9.45977E+00 5.40062E+01-9.25555E+00
 -1       280-9.86501E+00 6.09762E+01-1.05038E+01
 -1       281-1.02363E+01 6.82217E+01-1.18002E+01
 -1       282-1.05747E+01 7.57173E+01-1.31390E+01
 -1       283-1.08804E+01 8.34426E+01-1.45186E+01
 -1       284-1.11551E+01 9.13717E+01-1.59329E+01
 -1       285-1.13993E+01 9.94835E+01-1.73792E+01
 -1       286-1.16140E+01 1.07757E+02-1.88532E+01
 -1       287-1.18020E+01 1.16172E+02-2.03507E+01
 -1       288-1.19629E+01 1.24707E+02-2.18688E+01
 -1       289-1.20995E+01 1.33346E+02-2.34046E+01
 -1       290-1.22133E+01 1.42071E+02-2.49538E+01
 -1       291-1.23054E+01 1.50865E+02-2.65147E+01
 -1       292-1.23784E+01 1.59714E+02-2.80839E+01
 -1       293-1.24339E+01 1.68605E+02-2.96590E+01
 -1       294-1.24746E+01 1.77525E+02-3.12382E+01
 -1       295-1.25018E+01 1.86465E+02-3.28196E+01
 -1       296-1.25185E+01 1.95416E+02-3.44012E+01
 -1       297-1.25270E+01 2.04371E+02-3.59821E+01
 -1       298-1.25299E+01 2.13324E+02-3.75610E+01
 -1       299-4.90553E-01 1.43763E-01 3.03617E-01
 -1       300-1.33218E+00 7.41635E-01 3.57995E-01
 -1       301-2.17852E+00 2.03224E+00 1.46207E-01
 -1       302-3.00436E+00 3.95241E+00-2.08745E-01
 -1       303-3.79659E+00 6.45732E+00-6.72350E-01
 -1       304-4.55125E+00 9.51615E+00-1.23397E+00
 -1       305-5.26851E+00 1.30999E+01-1.88791E+00
 -1       306-5.94812E+00 1.71819E+01-2.62923E+00
 -1       307-6.58996E+00 2.17352E+01-3.45342E+00
 -1       308-7.19404E+00 2.67324E+01-4.35554E+00
 -1       309-7.76109E+00 3.21477E+01-5.33152E+00
 -1       310-8.29169E+00 3.79538E+01-6.37584E+00
 -1       311-8.78522E+00 4.41238E+01-7.48362E+00
 -1       312-9.24363E+00 5.06326E+01-8.65107E+00
 -1       313-9.66641E+00 5.74552E+01-9.87327E+00
 -1       314-1.00549E+01 6.45659E+01-1.11461E+01
 -1       315-1.04097E+01 7.19396E+01-1.24642E+01
 -1       316-1.07313E+01 7.95529E+01-1.38241E+01
 -1       317-1.10215E+01 8.73827E+01-1.52216E+01
 -1       318-1.12808E+01 9.54061E+01-1.66524E+01
 -1       319-1.15101E+01 1.03602E+02-1.81128E+01
 -1       320-1.17112E+01 1.11948E+02-1.95992E+01
 -1       321-1.18855E+01 1.20425E+02-2.11075E+01
 -1       322-1.20341E+01 1.29015E+02-2.26348E+01
 -1       323-1.21591E+01 1.37698E+02-2.41776E+01
 -1       324-1.22618E+01 1.46460E+02-2.57330E+01
 -1       325-1.23442E+01 1.55283E+02-2.72983E+01
 -1       326-1.24082E+01 1.64155E+02-2.88708E+01
 -1       327-1.24560E+01 1.73062E+02-3.04483E+01
 -1       328-1.24896E+01 1.81993E+02-3.20287E+01
 -1       329-1.25113E+01 1.90940E+02-3.36104E+01
 -1       330-1.25236E+01 1.99893E+02-3.51918E+01
 -1       331-1.25290E+01 2.08848E+02-3.67718E+01
 -1       332-1.25301E+01 2.17799E+02-3.83496E+01
 -1       333 0.00000E+00 0.00000E+00 0.00000E+00
 -1       334 0.00000E+00 0.00000E+00 0.00000E+00
 -1       335 0.00000E+00 0.00000E+00 0.00000E+00
 -1       336 0.00000E+00 0.00000E+00 0.00000E+00
 -1       337 0.00000E+00 0.00000E+00 0.00000E+00
 -1       338 0.00000E+00 0.00000E+00 0.00000E+00
 -1       339 0.00000E+00 0.00000E+00 0.00000E+00
 -1       340 0.00000E+00 0.00000E+00 0.00000E+00
 -1       341 0.00000E+00 0.00000E+00 0.00000E+00
 -1       342 0.00000E+00 0.00000E+00 0.00000E+00
 -1       343 0.00000E+00 0.00000E+00 0.00000E+00
 -1       344 0.00000E+00 0.00000E+00 0.00000E+00
 -1       345 0.00000E+00 0.00000E+00 0.00000E+00
 -1       346 0.00000E+00 0.00000E+00 0.00000E+00
 -1       347 0.00000E+00 0.00000E+00 0.00000E+00
 -1       348 0.00000E+00 0.00000E+00 0.00000E+00
 -1       349 0.00000E+00 0.00000E+00 0.00000E+00
 -1       350 0.00000E+00 0.00000E+00 0.00000E+00
 -1       351 0.00000E+00 0.00000E+00 0.00000E+00
 -1       352 0.00000E+00 0.00000E+00 0.00000E+00
 -1       353 0.00000E+00 0.00000E+00 0.00000E+00
 -1       354 0.00000E+00 0.00000E+00 0.00000E+00
 -1       355 0.00000E+00 0.00000E+00 0.00000E+00
 -1       356 0.00000E+00 0.00000E+00 0.00000E+00
 -1       357 0.00000E+00 0.00000E+00 0.00000E+00
 -1       358 0.00000E+00 0.00000E+00 0.00000E+00
 -1       359 0.00000E+00 0.00000E+00 0.00000E+00
 -1       360 0.00000E+00 0.00000E+00 0.00000E+00
 -1       361 0.00000E+00 0.00000E+00 0.00000E+00
 -1       362 0.00000E+00 0.00000E+00 0.00000E+00
 -1       363 0.00000E+00 0.00000E+00 0.00000E+00
 -1       364 0.00000E+00 0.00000E+00 0.00000E+00
 -1       365 0.00000E+00 0.00000E+00 0.00000E+00
 -1       366 0.00000E+00 0.00000E+00 0.00000E+00
 -1       367 0.00000E+00 0.00000E+00 0.00000E+00
 -1       368 0.00000E+00 0.00000E+00 0.00000E+00
 -1       369 0.00000E+00 0.00000E+00 0.00000E+00
 -1       370 0.00000E+00 0.00000E+00 0.00000E+00
 -1       371 0.00000E+00 0.00000E+00 0.00000E+00
 -1       372 0.00000E+00 0.00000E+00 0.00000E+00
 -1       373 0.00000E+00 0.00000E+00 0.00000E+00
 -1       374 0.00000E+00 0.00000E+00 0.00000E+00
 -1       375 0.00000E+00 0.00000E+00 0.00000E+00
 -1       376 0.00000E+00 0.00000E+00 0.00000E+00
 -1       377 0.00000E+00 0.00000E+00 0.00000E+00
 -1       378 0.00000E+00 0.00000E+00 0.00000E+00
 -1       379 0.00000E+00 0.00000E+00 0.00000E+00
 -1       380 0.00000E+00 0.00000E+00 0.00000E+00
 -1       381 0.00000E+00 0.00000E+00 0.00000E+00
 -1       382 0.00000E+00 0.00000E+00 0.00000E+00
 -1       383 0.00000E+00 0.00000E+00 0.00000E+00
 -1       384 0.00000E+00 0.00000E+00 0.00000E+00
 -1       385 0.00000E+00 0.00000E+00 0.00000E+00
 -1       386 0.00000E+00 0.00000E+00 0.00000E+00
 -1       387 0.00000E+00 0.00000E+00 0.00000E+00
 -1       388 0.00000E+00 0.00000E+00 0.00000E+00
 -1       389 0.00000E+00 0.00000E+00 0.00000E+00
 -1       390 0.00000E+00 0.00000E+00 0.00000E+00
 -1       391 0.00000E+00 0.00000E+00 0.00000E+00
 -1       392 0.00000E+00 0.00000E+00 0.00000E+00
 -1       393 0.00000E+00 0.00000E+00 0.00000E+00
 -1       394 0.00000E+00 0.00000E+00 0.00000E+00
 -1       395 0.00000E+00 0.00000E+00 0.00000E+00
 -1       396 0.00000E+00 0.00000E+00 0.00000E+00
 -1       397 0.00000E+00 0.00000E+00 0.00000E+00
 -1       398 0.00000E+00 0.00000E+00 0.00000E+00
 -1       399 0.00000E+00 0.00000E+00 0.00000E+00
 -1       400 0.00000E+00 0.00000E+00 0.00000E+00
 -1       401 0.00000E+00 0.00000E+00 0.00000E+00
 -1       402 0.00000E+00 0.00000E+00 0.00000E+00
 -1       403 0.00000E+00 0.00000E+00 0.00000E+00
 -1       404 0.00000E+00 0.00000E+00 0.00000E+00
 -1       405 0.00000E+00 0.00000E+00 0.00000E+00
 -1       406-2.09215E+00 2.22272E+02-3.91377E+01
 -1       407-5.05566E+00 2.22272E+02-3.91375E+01
 -1       408 9.94910E+00 2.22273E+02-3.91372E+01
 -1       409 2.24135E+00 2.22272E+02-3.91376E+01
 -1       410-4.16755E-01 2.22272E+02-3.91374E+01
 -1       411-8.76432E+00 2.22273E+02-3.91374E+01
 -1       412 5.92270E+00 2.22272E+02-3.91373E+01
 -1       413 7.83588E+00 2.22273E+02-3.91373E+01
 -1       414-8.98448E+00 2.22273E+02-3.91375E+01
 -1       415-3.36518E+00 2.22272E+02-3.91375E+01
 -1       416 1.13384E+01 2.22273E+02-3.91372E+01
 -1       417-1.13385E+01 2.22273E+02-3.91374E+01
 -1       418 7.94328E+00 2.22273E+02-3.91376E+01
 -1       419-7.98107E+00 2.22273E+02-3.91378E+01
 -1       420 3.38363E+00 2.22272E+02-3.91374E+01
 -1       421 1.39428E+01 2.22273E+02-3.91372E+01
 -1       422 1.46119E+01 2.22273E+02-3.91371E+01
 -1       423 1.08096E+01 2.22273E+02-3.91372E+01
 -1       424 1.02366E+01 2.22273E+02-3.91376E+01
 -1       425 1.09065E+01 2.22273E+02-3.91375E+01
 -1       426 6.43409E+00 2.22272E+02-3.91378E+01
 -1       427-6.45304E+00 2.22273E+02-3.91380E+01
 -1       428-1.02555E+01 2.22273E+02-3.91379E+01
 -1       429-1.09254E+01 2.22273E+02-3.91377E+01
 -1       430-1.39428E+01 2.22273E+02-3.91375E+01
 -1       431-1.46120E+01 2.22273E+02-3.91375E+01
 -1       432-1.08096E+01 2.22272E+02-3.91374E+01
 -1       433 1.08527E+01 2.22273E+02-3.91373E+01
 -1       434 1.15223E+01 2.22273E+02-3.91372E+01
 -1       435 7.88964E+00 2.22273E+02-3.91374E+01
 -1       436 1.25789E+01 2.22273E+02-3.91372E+01
 -1       437 1.32481E+01 2.22273E+02-3.91372E+01
 -1       438 8.89253E+00 2.22273E+02-3.91372E+01
 -1       439 1.06438E+01 2.22273E+02-3.91372E+01
 -1       440 8.10171E+00 2.22272E+02-3.91373E+01
 -1       441 4.30020E+00 2.22272E+02-3.91375E+01
 -1       442 8.63042E+00 2.22272E+02-3.91372E+01
 -1       443 2.92957E-01 2.22272E+02-3.91377E+01
 -1       444-3.50863E+00 2.22272E+02-3.91379E+01
 -1       445 1.91525E+00 2.22272E+02-3.91375E+01
 -1       446-5.03647E+00 2.22272E+02-3.91378E+01
 -1       447-1.19865E+01 2.22273E+02-3.91374E+01
 -1       448-1.26557E+01 2.22273E+02-3.91375E+01
 -1       449-1.00514E+01 2.22273E+02-3.91374E+01
 -1       450-1.14271E+01 2.22273E+02-3.91376E+01
 -1       451-1.20966E+01 2.22273E+02-3.91375E+01
 -1       452-8.87443E+00 2.22273E+02-3.91375E+01
 -1       453-8.48283E+00 2.22273E+02-3.91377E+01
 -1       454-2.18395E-01 2.22272E+02-3.91377E+01
 -1       455 3.58317E+00 2.22272E+02-3.91378E+01
 -1       456 5.09217E+00 2.22272E+02-3.91376E+01
 -1       457-7.66825E+00 2.22272E+02-3.91374E+01
 -1       458-3.86672E+00 2.22272E+02-3.91376E+01
 -1       459-1.40719E+00 2.22272E+02-3.91375E+01
 -1       460-8.19694E+00 2.22272E+02-3.91374E+01
 -1       461 4.65319E+00 2.22272E+02-3.91374E+01
 -1       462 6.45683E-01 2.22272E+02-3.91375E+01
 -1       463-2.72872E+00 2.22272E+02-3.91376E+01
 -1       464-6.17471E+00 2.22273E+02-3.91375E+01
 -1       465-5.53818E+00 2.22273E+02-3.91376E+01
 -1       466 9.25856E-03 2.22272E+02-3.91374E+01
 -1       467-2.73621E+00 2.22272E+02-3.91375E+01
 -1       468 9.12341E-01 2.22272E+02-3.91375E+01
 -1       469-6.90992E+00 2.22272E+02-3.91374E+01
 -1       470-4.59041E+00 2.22272E+02-3.91374E+01
 -1       471 7.93580E+00 2.22273E+02-3.91373E+01
 -1       472 6.66625E+00 2.22273E+02-3.91373E+01
 -1       473 5.60966E+00 2.22273E+02-3.91373E+01
 -1       474 3.70940E+00 2.22272E+02-3.91374E+01
 -1       475 5.03858E+00 2.22272E+02-3.91375E+01
 -1       476-6.06471E+00 2.22273E+02-3.91375E+01
 -1       477-1.89095E+00 2.22272E+02-3.91375E+01
 -1       478 1.48344E+00 2.22272E+02-3.91374E+01
 -1       479 1.33526E+01 1.29054E+02-2.26718E+01
 -1       480 1.37644E+01 1.64171E+02-2.88856E+01
 -1       481 1.65400E+01 1.99804E+02-3.51830E+01
 -1       482 1.25186E+01 9.54766E+01-1.67190E+01
 -1       483 1.54456E+01 1.12022E+02-1.97644E+01
 -1       484 1.61693E+01 1.46496E+02-2.58144E+01
 -1       485 1.64697E+01 1.82004E+02-3.20528E+01
 -1       486 1.41544E+01 7.96747E+01-1.40935E+01
 -1       487 5.05669E+00 9.72582E+00-1.43352E+00
 -1       488 6.60774E+00 1.73735E+01-2.80981E+00
 -1       489 3.96440E+00 4.27483E+00-9.24554E-01
 -1       490 9.20586E+00 3.81027E+01-6.51560E+00
 -1       491 1.07254E+01 5.75413E+01-9.97828E+00
 -1       492 7.99032E+00 2.69022E+01-4.51588E+00
 -1       493 1.66975E+00 1.01487E+00-3.35212E-01
 -1       494 2.41665E+00 2.27489E+00-8.47072E-02
 -1       495 1.39102E+01 2.09267E+02-3.68458E+01
 -1       496 1.15522E+01 7.20373E+01-1.25564E+01
 -1       497 1.38759E+01 1.90945E+02-3.36144E+01
 -1       498 6.95256E+00 1.33769E+01-2.50311E+00
 -1       499 1.15868E+01 4.43128E+01-7.90326E+00
 -1       500 1.32775E+01 6.46892E+01-1.14709E+01
 -1       501 8.69210E+00 2.19825E+01-4.00243E+00
 -1       502 1.02385E+01 3.23656E+01-5.81465E+00
 -1       503 7.12815E-01 4.24281E-01 6.75418E-02
 -1       504 1.58399E+01 2.15957E+02-3.80251E+01
 -1       505 1.58710E+01 1.29069E+02-2.27551E+01
 -1       506 1.63631E+01 1.64177E+02-2.89196E+01
 -1       507 1.48780E+01 9.55033E+01-1.68676E+01
 -1       508 1.29936E+01 1.12002E+02-1.96501E+01
 -1       509 1.36033E+01 1.46486E+02-2.57579E+01
 -1       510 2.86439E+00 2.35789E+00-5.93926E-01
 -1       511 3.33456E+00 4.17727E+00-4.28605E-01
 -1       512 4.21654E+00 6.67283E+00-8.80996E-01
 -1       513 5.08048E+00 8.22839E+00-1.36688E+00
 -1       514 1.38818E+01 1.99933E+02-3.52003E+01
 -1       515 1.34901E+01 1.37731E+02-2.42083E+01
 -1       516 1.60355E+01 1.37744E+02-2.42776E+01
 -1       517 1.37387E+01 7.20716E+01-1.27624E+01
 -1       518 1.19099E+01 7.96414E+01-1.39076E+01
 -1       519 1.51799E+01 1.03687E+02-1.83024E+01
 -1       520 1.27733E+01 1.03665E+02-1.81716E+01
 -1       521 7.31753E+00 2.19163E+01-3.62392E+00
 -1       522 9.75158E+00 4.42623E+01-7.61396E+00
 -1       523 1.02548E+01 5.07542E+01-8.76995E+00
 -1       524 1.14955E+01 5.41158E+01-9.48374E+00
 -1       525 1.09382E+01 3.81575E+01-6.82670E+00
 -1       526 1.62789E+01 1.55312E+02-2.73624E+01
 -1       527 1.36943E+01 1.55304E+02-2.73178E+01
 -1       528 1.11485E+01 6.46348E+01-1.12396E+01
 -1       529 1.64979E+01 1.90947E+02-3.36251E+01
 -1       530 1.38532E+01 1.82001E+02-3.20358E+01
 -1       531 9.49080E+00 2.69648E+01-4.87168E+00
 -1       532 7.84826E+00 1.74447E+01-3.21103E+00
 -1       533 1.38169E+01 1.73073E+02-3.04589E+01
 -1       534 5.85127E+00 1.33014E+01-2.07780E+00
 -1       535 1.64254E+01 1.73078E+02-3.04838E+01
 -1       536 1.22298E+01 8.74626E+01-1.52965E+01
 -1       537 8.61877E+00 3.23068E+01-5.48135E+00
 -1       538 1.45364E+01 8.74920E+01-1.54632E+01
 -1       539 1.31878E+01 1.20472E+02-2.11514E+01
 -1       540 1.56752E+01 1.20489E+02-2.12496E+01
 -1       541 2.16812E+00 1.71658E+00-2.09072E-01
 -1       542 3.15272E+00 3.26066E+00-4.84215E-01
 -1       543 6.03314E+00 9.86901E+00-1.89791E+00
 -1       544 8.16419E-01 4.75270E-01-8.56828E-02
 -1       545 1.22121E+01 5.07956E+01-9.04018E+00
 -1       546 1.19889E+01 6.11113E+01-1.07189E+01
 -1       547 1.52202E+01 2.03899E+02-3.59012E+01
 -1       548 4.99672E+00 6.70736E+00-1.35018E+00
 -1       549 1.51973E+01 1.95401E+02-3.44042E+01
 -1       550 5.97351E+00 1.15442E+01-1.95448E+00
 -1       551 1.50275E+01 1.59741E+02-2.81196E+01
 -1       552 1.49399E+01 1.50899E+02-2.65604E+01
 -1       553 1.43308E+01 1.16245E+02-2.04490E+01
 -1       554 1.50949E+01 1.68625E+02-2.96858E+01
 -1       555 1.35452E+01 9.14799E+01-1.60790E+01
 -1       556 1.45257E+01 1.24770E+02-2.19525E+01
 -1       557 1.41020E+01 1.07841E+02-1.89665E+01
 -1       558 1.38422E+01 9.95796E+01-1.75086E+01
 -1       559 1.51756E+01 1.86475E+02-3.28315E+01
 -1       560 1.51436E+01 1.77540E+02-3.12569E+01
 -1       561 1.48282E+01 1.42114E+02-2.50117E+01
 -1       562 1.32139E+01 8.35633E+01-1.46817E+01
 -1       563 1.24351E+01 6.83543E+01-1.19972E+01
 -1       564 6.82300E+00 1.53649E+01-2.63128E+00
 -1       565 7.62437E+00 1.96696E+01-3.39292E+00
 -1       566 9.09068E+00 2.96270E+01-5.15474E+00
 -1       567 9.75635E+00 3.52252E+01-6.14460E+00
 -1       568 8.37998E+00 2.44330E+01-4.23549E+00
 -1       569 1.03779E+01 4.12013E+01-7.20032E+00
 -1       570 1.46908E+01 1.33398E+02-2.34746E+01
 -1       571 1.28426E+01 7.58528E+01-1.33212E+01
 -1       572 1.09553E+01 4.75294E+01-8.31818E+00
 -1       573 1.27716E+01 5.75938E+01-1.02298E+01
 -1       574 4.13218E+00 5.44755E+00-8.72377E-01
 -1       575 1.45395E+01 2.15686E+02-3.79771E+01
 -1       576 1.40967E+00 9.31129E-01 1.30093E-01
 -1       577 1.65059E+01 2.09225E+02-3.68405E+01
 -1       578 1.34747E+00 8.63796E-01-6.49141E-02
 -1       579 7.52941E-01 3.94180E-01-2.25897E-01
 -1       580 5.85616E-01 3.02630E-01 1.92135E-01
 -1       581 1.34764E+01 2.16565E+02-3.81319E+01
 -1       582 1.69331E+01 2.16611E+02-3.81406E+01
 -1       583 1.52036E+01 2.10807E+02-3.71180E+01
 -1       584 3.58730E-01 2.39065E-01-9.68260E-02
 -1       585 3.79901E-01 2.11206E-01-1.66462E-01
 -1       586 1.01774E+00 4.56543E-01-3.78550E-01
 -1       587 2.73062E-01 1.37103E-01 1.49492E-01
 -1       588 2.84547E-01 1.82961E-01 1.01969E-01
 -1       589 7.49794E-01 3.31253E-01 2.91323E-01
 -1       590 1.74094E+01 2.19442E+02-3.86390E+01
 -1       591 1.67402E+01 2.19442E+02-3.86390E+01
 -1       592 1.74093E+01 2.14968E+02-3.78516E+01
 -1       593 1.36731E+01 2.19419E+02-3.86347E+01
 -1       594 1.30032E+01 2.19419E+02-3.86347E+01
 -1       595 1.30033E+01 2.14945E+02-3.78463E+01
 -1       596 3.30919E-01 2.13771E-01 7.11666E-02
 -1       597 3.46938E-01 2.26807E-01 3.18032E-02
 -1       598 6.47739E-01 3.67906E-01 1.30222E-01
 -1       599 3.90814E-01 2.62373E-01-1.11204E-02
 -1       600 3.94136E-01 2.57930E-01-6.31609E-02
 -1       601 7.64520E-01 4.58832E-01-5.46683E-03
 -1       602 7.83870E-01 4.41090E-01-1.53224E-01
 -1       603 1.48742E+01 2.18980E+02-3.85573E+01
 -1       604 1.42047E+01 2.18980E+02-3.85572E+01
 -1       605 1.40080E+01 2.16126E+02-3.80545E+01
 -1       606 1.61936E+01 2.19115E+02-3.85813E+01
 -1       607 1.55244E+01 2.19115E+02-3.85812E+01
 -1       608 1.51898E+01 2.15821E+02-3.80011E+01
 -1       609 1.63866E+01 2.16284E+02-3.80829E+01
 -1       610 1.60080E+00 1.11600E+00 2.11429E-01
 -1       611 1.13592E+00 6.37350E-01 2.65222E-01
 -1       612 9.90493E-01 5.64074E-01 1.88430E-01
 -1       613 2.52280E+00 2.59309E+00-4.26843E-02
 -1       614 2.07486E+00 1.78622E+00 1.02158E-01
 -1       615 1.91796E+00 1.51770E+00 4.38082E-02
 -1       616 3.38500E+00 4.65178E+00-4.20227E-01
 -1       617 2.95786E+00 3.54623E+00-2.17191E-01
 -1       618 2.88049E+00 3.15147E+00-2.42420E-01
 -1       619 4.21255E+00 7.29220E+00-9.04068E-01
 -1       620 3.80401E+00 5.90232E+00-6.49382E-01
 -1       621 3.78115E+00 5.35356E+00-6.41848E-01
 -1       622 4.99941E+00 1.04819E+01-1.48510E+00
 -1       623 4.61211E+00 8.82185E+00-1.18280E+00
 -1       624 4.64086E+00 8.13094E+00-1.14533E+00
 -1       625 5.74622E+00 1.41878E+01-2.15631E+00
 -1       626 5.37729E+00 1.22724E+01-1.81010E+00
 -1       627 5.45917E+00 1.14496E+01-1.74468E+00
 -1       628 6.45411E+00 1.83846E+01-2.91473E+00
 -1       629 6.10570E+00 1.62269E+01-2.52477E+00
 -1       630 6.23411E+00 1.52774E+01-2.43315E+00
 -1       631 7.11951E+00 2.30452E+01-3.75316E+00
 -1       632 6.79210E+00 2.06587E+01-3.32435E+00
 -1       633 6.96707E+00 1.95878E+01-3.20734E+00
 -1       634 7.74809E+00 2.81434E+01-4.66953E+00
 -1       635 7.43922E+00 2.55406E+01-4.20191E+00
 -1       636 7.65917E+00 2.43552E+01-4.06023E+00
 -1       637 8.33629E+00 3.36525E+01-5.65830E+00
 -1       638 8.04680E+00 3.08482E+01-5.15489E+00
 -1       639 8.30922E+00 2.95545E+01-4.98977E+00
 -1       640 8.88549E+00 3.95463E+01-6.71415E+00
 -1       641 8.61583E+00 3.65530E+01-6.17787E+00
 -1       642 8.91642E+00 3.51572E+01-5.99055E+00
 -1       643 9.39543E+00 4.57974E+01-7.83199E+00
 -1       644 9.14552E+00 4.26287E+01-7.26581E+00
 -1       645 9.48296E+00 4.11385E+01-7.05755E+00
 -1       646 9.86708E+00 5.23780E+01-9.00823E+00
 -1       647 9.63447E+00 4.90457E+01-8.41262E+00
 -1       648 1.00083E+01 4.74675E+01-8.18456E+00
 -1       649 1.03043E+01 5.92562E+01-1.02368E+01
 -1       650 1.00909E+01 5.57741E+01-9.61474E+00
 -1       651 1.04939E+01 5.41108E+01-9.36723E+00
 -1       652 1.07008E+01 6.64260E+01-1.15159E+01
 -1       653 1.05053E+01 6.28056E+01-1.08699E+01
 -1       654 1.09413E+01 6.10531E+01-1.06029E+01
 -1       655 1.10719E+01 7.38756E+01-1.28442E+01
 -1       656 1.08930E+01 7.01297E+01-1.21768E+01
 -1       657 1.13549E+01 6.83045E+01-1.18926E+01
 -1       658 1.14030E+01 8.15401E+01-1.42100E+01
 -1       659 1.12417E+01 7.76802E+01-1.35219E+01
 -1       660 1.17351E+01 7.58113E+01-1.32270E+01
 -1       661 1.16992E+01 8.94153E+01-1.56113E+01
 -1       662 1.15555E+01 8.54528E+01-1.49066E+01
 -1       663 1.20736E+01 8.35265E+01-1.45980E+01
 -1       664 1.19654E+01 9.74783E+01-1.70463E+01
 -1       665 1.18365E+01 9.34243E+01-1.63248E+01
 -1       666 1.23786E+01 9.14466E+01-1.60036E+01
 -1       667 1.21992E+01 1.05710E+02-1.85101E+01
 -1       668 1.20865E+01 1.01574E+02-1.77745E+01
 -1       669 1.26492E+01 9.95498E+01-1.74418E+01
 -1       670 1.24035E+01 1.14085E+02-1.99979E+01
 -1       671 1.23042E+01 1.09880E+02-1.92514E+01
 -1       672 1.28873E+01 1.07816E+02-1.89080E+01
 -1       673 1.25801E+01 1.22588E+02-2.15080E+01
 -1       674 1.24954E+01 1.18322E+02-2.07504E+01
 -1       675 1.30938E+01 1.16222E+02-2.03979E+01
 -1       676 1.27302E+01 1.31199E+02-2.30364E+01
 -1       677 1.26584E+01 1.26881E+02-2.22699E+01
 -1       678 1.32733E+01 1.24750E+02-2.19094E+01
 -1       679 1.28555E+01 1.39900E+02-2.45795E+01
 -1       680 1.27956E+01 1.35539E+02-2.38062E+01
 -1       681 1.34242E+01 1.33382E+02-2.34383E+01
 -1       682 1.29576E+01 1.48675E+02-2.61349E+01
 -1       683 1.29093E+01 1.44279E+02-2.53557E+01
 -1       684 1.35492E+01 1.42100E+02-2.49816E+01
 -1       685 1.30390E+01 1.57508E+02-2.76997E+01
 -1       686 1.30009E+01 1.53085E+02-2.69162E+01
 -1       687 1.36513E+01 1.50888E+02-2.65368E+01
 -1       688 1.31014E+01 1.66387E+02-2.92712E+01
 -1       689 1.30724E+01 1.61943E+02-2.84847E+01
 -1       690 1.37316E+01 1.59732E+02-2.81009E+01
 -1       691 1.31476E+01 1.75299E+02-3.08477E+01
 -1       692 1.31264E+01 1.70839E+02-3.00589E+01
 -1       693 1.37926E+01 1.68618E+02-2.96716E+01
 -1       694 1.31789E+01 1.84233E+02-3.24271E+01
 -1       695 1.31649E+01 1.79764E+02-3.16370E+01
 -1       696 1.38365E+01 1.77535E+02-3.12470E+01
 -1       697 1.31984E+01 1.93180E+02-3.40072E+01
 -1       698 1.31897E+01 1.88705E+02-3.32172E+01
 -1       699 1.38661E+01 1.86471E+02-3.28251E+01
 -1       700 1.32051E+01 2.02152E+02-3.55908E+01
 -1       701 1.32010E+01 1.97675E+02-3.48007E+01
 -1       702 1.38799E+01 1.95438E+02-3.44074E+01
 -1       703 1.32203E+01 2.11295E+02-3.72032E+01
 -1       704 1.32193E+01 2.06819E+02-3.64140E+01
 -1       705 1.38967E+01 2.04600E+02-3.60233E+01
 -1       706 1.36935E+01 2.12916E+02-3.74890E+01
 -1       707 1.48129E+00 7.63076E-01-4.31255E-01
 -1       708 2.07884E+00 1.24895E+00-5.45403E-01
 -1       709 1.21670E+00 6.57893E-01-2.86935E-01
 -1       710 2.69502E+00 1.92025E+00-6.73972E-01
 -1       711 3.27582E+00 2.72523E+00-8.13727E-01
 -1       712 2.27175E+00 1.60285E+00-4.54696E-01
 -1       713 3.84653E+00 3.68490E+00-9.76245E-01
 -1       714 4.40336E+00 4.78858E+00-1.16327E+00
 -1       715 3.42042E+00 3.24107E+00-7.46906E-01
 -1       716 4.93976E+00 6.00707E+00-1.37319E+00
 -1       717 5.47234E+00 7.39126E+00-1.60905E+00
 -1       718 4.48605E+00 5.42342E+00-1.12553E+00
 -1       719 6.01104E+00 8.97415E+00-1.88001E+00
 -1       720 6.51655E+00 1.06330E+01-2.16402E+00
 -1       721 5.52088E+00 8.21632E+00-1.61134E+00
 -1       722 6.99526E+00 1.23877E+01-2.46323E+00
 -1       723 7.47509E+00 1.43004E+01-2.79227E+00
 -1       724 6.49903E+00 1.15614E+01-2.18949E+00
 -1       725 7.94114E+00 1.63362E+01-3.14340E+00
 -1       726 8.39432E+00 1.84911E+01-3.51482E+00
 -1       727 7.40574E+00 1.53508E+01-2.84651E+00
 -1       728 8.83397E+00 2.07613E+01-3.90720E+00
 -1       729 9.26227E+00 2.31449E+01-4.32008E+00
 -1       730 8.27655E+00 1.96565E+01-3.59643E+00
 -1       731 9.67745E+00 2.56378E+01-4.75168E+00
 -1       732 1.00797E+01 2.82370E+01-5.20139E+00
 -1       733 9.09686E+00 2.44200E+01-4.42786E+00
 -1       734 1.04687E+01 3.09393E+01-5.67001E+00
 -1       735 1.08453E+01 3.37404E+01-6.15556E+00
 -1       736 9.87004E+00 2.96154E+01-5.33434E+00
 -1       737 1.12095E+01 3.66377E+01-6.65861E+00
 -1       738 1.15608E+01 3.96284E+01-7.17764E+00
 -1       739 1.05940E+01 3.52139E+01-6.31233E+00
 -1       740 1.18988E+01 4.27074E+01-7.71272E+00
 -1       741 1.22262E+01 4.58733E+01-8.26364E+00
 -1       742 1.12684E+01 4.11913E+01-7.35702E+00
 -1       743 1.25506E+01 4.91161E+01-8.82934E+00
 -1       744 1.28530E+01 5.24452E+01-9.40820E+00
 -1       745 1.19043E+01 4.75137E+01-8.46492E+00
 -1       746 1.31440E+01 5.58458E+01-1.00002E+01
 -1       747 1.34226E+01 5.93251E+01-1.06054E+01
 -1       748 1.24972E+01 5.41575E+01-9.62848E+00
 -1       749 1.36861E+01 6.28747E+01-1.12232E+01
 -1       750 1.39415E+01 6.64920E+01-1.18537E+01
 -1       751 1.30298E+01 6.11067E+01-1.08442E+01
 -1       752 1.41814E+01 7.01851E+01-1.24969E+01
 -1       753 1.44133E+01 7.39283E+01-1.31489E+01
 -1       754 1.35128E+01 6.83491E+01-1.21114E+01
 -1       755 1.46300E+01 7.77313E+01-1.38117E+01
 -1       756 1.48397E+01 8.15889E+01-1.44845E+01
 -1       757 1.39516E+01 7.58443E+01-1.34230E+01
 -1       758 1.50387E+01 8.54987E+01-1.51668E+01
 -1       759 1.52271E+01 8.94589E+01-1.58580E+01
 -1       760 1.43502E+01 8.35575E+01-1.47738E+01
 -1       761 1.54049E+01 9.34658E+01-1.65576E+01
 -1       762 1.55727E+01 9.75174E+01-1.72647E+01
 -1       763 1.47120E+01 9.14748E+01-1.61614E+01
 -1       764 1.57300E+01 1.01611E+02-1.79799E+01
 -1       765 1.58774E+01 1.05743E+02-1.87020E+01
 -1       766 1.50330E+01 9.95749E+01-1.75811E+01
 -1       767 1.60157E+01 1.09912E+02-1.94306E+01
 -1       768 1.61443E+01 1.14115E+02-2.01652E+01
 -1       769 1.53172E+01 1.07837E+02-1.90302E+01
 -1       770 1.62638E+01 1.18350E+02-2.09057E+01
 -1       771 1.63746E+01 1.22614E+02-2.16513E+01
 -1       772 1.55644E+01 1.16241E+02-2.05043E+01
 -1       773 1.64765E+01 1.26905E+02-2.24021E+01
 -1       774 1.65704E+01 1.31220E+02-2.31569E+01
 -1       775 1.57769E+01 1.24766E+02-2.20000E+01
 -1       776 1.66561E+01 1.35559E+02-2.39164E+01
 -1       777 1.67337E+01 1.39918E+02-2.46793E+01
 -1       778 1.59564E+01 1.33396E+02-2.35142E+01
 -1       779 1.68035E+01 1.44295E+02-2.54458E+01
 -1       780 1.68672E+01 1.48689E+02-2.62159E+01
 -1       781 1.61059E+01 1.42111E+02-2.50443E+01
 -1       782 1.69239E+01 1.53098E+02-2.69883E+01
 -1       783 1.69740E+01 1.57520E+02-2.77629E+01
 -1       784 1.62269E+01 1.50897E+02-2.65873E+01
 -1       785 1.70178E+01 1.61953E+02-2.85401E+01
 -1       786 1.70557E+01 1.66396E+02-2.93192E+01
 -1       787 1.63234E+01 1.59739E+02-2.81400E+01
 -1       788 1.70882E+01 1.70847E+02-3.00999E+01
 -1       789 1.71161E+01 1.75305E+02-3.08822E+01
 -1       790 1.63967E+01 1.68624E+02-2.97010E+01
 -1       791 1.71389E+01 1.79769E+02-3.16657E+01
 -1       792 1.71576E+01 1.84237E+02-3.24499E+01
 -1       793 1.64494E+01 1.77539E+02-3.12678E+01
 -1       794 1.71724E+01 1.88709E+02-3.32351E+01
 -1       795 1.71837E+01 1.93183E+02-3.40211E+01
 -1       796 1.64855E+01 1.86474E+02-3.28386E+01
 -1       797 1.72051E+01 1.97612E+02-3.47994E+01
 -1       798 1.72107E+01 2.02088E+02-3.55862E+01
 -1       799 1.65201E+01 1.95375E+02-3.44039E+01
 -1       800 1.71938E+01 2.06799E+02-3.64145E+01
 -1       801 1.71956E+01 2.11274E+02-3.72018E+01
 -1       802 1.65238E+01 2.04514E+02-3.60116E+01
 -1       803 1.67198E+01 2.12918E+02-3.74906E+01
 -1       804 1.40932E+01 1.35564E+02-2.38399E+01
 -1       805 1.40212E+01 1.31226E+02-2.30731E+01
 -1       806 1.39422E+01 1.26911E+02-2.23104E+01
 -1       807 1.38561E+01 1.22620E+02-2.15517E+01
 -1       808 1.46114E+01 1.29072E+02-2.27116E+01
 -1       809 1.43977E+01 1.61955E+02-2.85016E+01
 -1       810 1.43610E+01 1.57523E+02-2.77189E+01
 -1       811 1.44572E+01 1.70849E+02-3.00715E+01
 -1       812 1.44298E+01 1.66398E+02-2.92857E+01
 -1       813 1.50631E+01 1.64178E+02-2.89017E+01
 -1       814 1.58480E+01 1.93174E+02-3.40143E+01
 -1       815 1.58686E+01 1.97603E+02-3.47938E+01
 -1       816 1.58804E+01 2.01852E+02-3.55419E+01
 -1       817 1.52095E+01 1.99649E+02-3.51527E+01
 -1       818 1.58632E+01 2.06562E+02-3.63710E+01
 -1       819 1.33122E+01 1.01621E+02-1.78377E+01
 -1       820 1.31788E+01 9.75276E+01-1.71130E+01
 -1       821 1.30373E+01 9.34769E+01-1.63961E+01
 -1       822 1.28863E+01 8.94708E+01-1.56870E+01
 -1       823 1.36978E+01 9.55081E+01-1.67900E+01
 -1       824 1.46451E+01 1.05764E+02-1.86319E+01
 -1       825 1.47724E+01 1.09931E+02-1.93651E+01
 -1       826 1.48913E+01 1.14133E+02-2.01045E+01
 -1       827 1.50014E+01 1.18366E+02-2.08490E+01
 -1       828 1.42196E+01 1.12026E+02-1.97047E+01
 -1       829 1.54341E+01 1.39929E+02-2.46430E+01
 -1       830 1.54984E+01 1.44305E+02-2.54132E+01
 -1       831 1.55564E+01 1.48698E+02-2.61863E+01
 -1       832 1.56090E+01 1.53105E+02-2.69617E+01
 -1       833 1.48867E+01 1.46498E+02-2.57849E+01
 -1       834 1.58236E+01 1.84239E+02-3.24415E+01
 -1       835 1.58370E+01 1.88710E+02-3.32285E+01
 -1       836 1.57854E+01 1.75309E+02-3.08697E+01
 -1       837 1.58066E+01 1.79772E+02-3.16550E+01
 -1       838 1.51612E+01 1.82005E+02-3.20439E+01
 -1       839 1.32961E+01 7.39610E+01-1.30382E+01
 -1       840 1.34954E+01 7.77623E+01-1.37061E+01
 -1       841 1.36889E+01 8.16181E+01-1.43844E+01
 -1       842 1.38723E+01 8.55265E+01-1.50714E+01
 -1       843 1.30323E+01 7.96810E+01-1.39965E+01
 -1       844 5.08042E+00 8.97386E+00-1.39366E+00
 -1       845 4.64030E+00 7.44847E+00-1.11957E+00
 -1       846 5.50794E+00 1.06328E+01-1.69013E+00
 -1       847 5.53227E+00 9.82055E+00-1.64919E+00
 -1       848 5.92446E+00 1.24198E+01-2.00966E+00
 -1       849 7.48086E+00 2.07901E+01-3.50312E+00
 -1       850 7.10941E+00 1.85199E+01-3.09804E+00
 -1       851 6.72596E+00 1.63662E+01-2.71448E+00
 -1       852 6.32966E+00 1.43312E+01-2.35037E+00
 -1       853 7.22850E+00 1.74584E+01-3.00169E+00
 -1       854 3.01958E+00 2.80543E+00-5.32194E-01
 -1       855 3.54880E+00 3.76453E+00-6.99607E-01
 -1       856 3.64710E+00 4.28315E+00-6.65868E-01
 -1       857 4.05989E+00 4.85897E+00-8.91425E-01
 -1       858 4.55595E+00 6.07623E+00-1.10717E+00
 -1       859 1.00726E+01 4.27296E+01-7.40294E+00
 -1       860 9.78704E+00 3.96506E+01-6.85562E+00
 -1       861 9.48995E+00 3.66617E+01-6.32525E+00
 -1       862 9.18226E+00 3.37645E+01-5.81027E+00
 -1       863 1.00718E+01 3.81680E+01-6.66436E+00
 -1       864 1.11178E+01 5.58267E+01-9.72677E+00
 -1       865 1.08713E+01 5.24347E+01-9.12471E+00
 -1       866 1.13537E+01 5.93255E+01-1.03468E+01
 -1       867 1.17468E+01 5.75772E+01-1.00949E+01
 -1       868 1.15756E+01 6.28714E+01-1.09754E+01
 -1       869 8.19485E+00 2.56646E+01-4.37022E+00
 -1       870 7.84312E+00 2.31728E+01-3.92676E+00
 -1       871 8.86393E+00 3.09644E+01-5.31284E+00
 -1       872 8.53492E+00 2.82631E+01-4.83227E+00
 -1       873 8.74014E+00 2.69774E+01-4.68591E+00
 -1       874 1.93113E+00 1.35126E+00-2.66651E-01
 -1       875 2.50656E+00 2.03803E+00-3.95569E-01
 -1       876 1.50293E+00 9.49214E-01-1.90918E-01
 -1       877 1.75943E+00 1.24506E+00-1.28636E-01
 -1       878 1.23050E+00 7.14947E-01-1.99253E-01
 -1       879 1.08672E+00 6.51053E-01-7.85026E-02
 -1       880 3.25574E+00 3.71592E+00-4.49735E-01
 -1       881 2.77442E+00 2.76406E+00-2.78797E-01
 -1       882 2.30329E+00 1.99506E+00-1.41648E-01
 -1       883 2.66491E+00 2.42078E+00-3.34389E-01
 -1       884 1.77536E+00 1.30813E+00-2.87472E-02
 -1       885 1.45656E+01 2.06583E+02-3.63734E+01
 -1       886 1.45513E+01 2.01916E+02-3.55509E+01
 -1       887 1.45570E+01 2.10037E+02-3.69819E+01
 -1       888 1.52123E+01 2.07353E+02-3.65097E+01
 -1       889 1.42250E+01 2.12477E+02-3.74116E+01
 -1       890 1.48717E+01 2.13247E+02-3.75475E+01
 -1       891 1.23821E+01 7.77455E+01-1.36109E+01
 -1       892 1.21945E+01 7.39442E+01-1.29371E+01
 -1       893 1.20004E+01 7.01940E+01-1.22731E+01
 -1       894 1.17889E+01 6.64939E+01-1.16170E+01
 -1       895 1.26431E+01 7.20731E+01-1.26534E+01
 -1       896 1.45400E+01 1.97667E+02-3.48019E+01
 -1       897 1.45368E+01 1.93173E+02-3.40094E+01
 -1       898 1.45269E+01 1.88709E+02-3.32224E+01
 -1       899 1.45149E+01 1.84238E+02-3.24339E+01
 -1       900 1.51876E+01 1.90937E+02-3.36176E+01
 -1       901 6.89770E+00 1.43686E+01-2.56104E+00
 -1       902 7.32790E+00 1.64022E+01-2.91756E+00
 -1       903 6.01442E+00 1.07057E+01-1.91966E+00
 -1       904 6.45529E+00 1.24577E+01-2.22510E+00
 -1       905 6.40264E+00 1.33920E+01-2.28172E+00
 -1       906 1.06657E+01 3.96778E+01-7.00862E+00
 -1       907 1.09774E+01 4.27553E+01-7.54980E+00
 -1       908 1.12782E+01 4.59196E+01-8.10643E+00
 -1       909 1.15788E+01 4.91612E+01-8.67729E+00
 -1       910 1.06707E+01 4.43230E+01-7.75239E+00
 -1       911 1.28623E+01 6.65205E+01-1.17303E+01
 -1       912 1.30835E+01 7.02117E+01-1.23785E+01
 -1       913 1.26293E+01 6.28990E+01-1.10933E+01
 -1       914 1.22164E+01 6.46998E+01-1.13524E+01
 -1       915 1.23866E+01 5.93514E+01-1.04703E+01
 -1       916 8.54522E+00 2.32057E+01-4.11354E+00
 -1       917 8.92874E+00 2.56968E+01-4.55070E+00
 -1       918 7.74618E+00 1.85551E+01-3.29597E+00
 -1       919 8.15147E+00 2.08238E+01-3.69468E+00
 -1       920 8.00640E+00 2.19958E+01-3.80502E+00
 -1       921 1.00059E+01 3.37935E+01-5.97436E+00
 -1       922 1.03417E+01 3.66892E+01-6.48311E+00
 -1       923 9.29953E+00 2.82938E+01-5.00783E+00
 -1       924 9.65852E+00 3.09943E+01-5.48191E+00
 -1       925 9.42831E+00 3.23772E+01-5.64086E+00
 -1       926 1.02282E+00 6.22835E-01 1.46090E-02
 -1       927 1.06541E+00 6.44711E-01 1.06333E-01
 -1       928 1.38129E+00 9.08516E-01 3.01540E-02
 -1       929 1.55219E+01 2.13382E+02-3.75717E+01
 -1       930 1.61731E+01 2.12591E+02-3.74328E+01
 -1       931 1.58548E+01 2.10016E+02-3.69792E+01
 -1       932 1.52835E+01 1.31233E+02-2.31131E+01
 -1       933 1.53623E+01 1.35571E+02-2.38759E+01
 -1       934 1.51034E+01 1.22629E+02-2.15991E+01
 -1       935 1.51973E+01 1.26919E+02-2.23537E+01
 -1       936 1.56549E+01 1.57526E+02-2.77399E+01
 -1       937 1.56951E+01 1.61959E+02-2.85197E+01
 -1       938 1.57303E+01 1.66401E+02-2.93017E+01
 -1       939 1.57601E+01 1.70851E+02-3.00850E+01
 -1       940 1.43642E+01 9.75407E+01-1.71854E+01
 -1       941 1.45089E+01 1.01633E+02-1.79048E+01
 -1       942 1.40455E+01 8.94853E+01-1.57681E+01
 -1       943 1.42097E+01 9.34907E+01-1.64726E+01
 -1       944 1.35525E+01 1.09921E+02-1.93059E+01
 -1       945 1.34367E+01 1.05753E+02-1.85686E+01
 -1       946 1.37627E+01 1.18357E+02-2.07981E+01
 -1       947 1.36610E+01 1.14123E+02-2.00488E+01
 -1       948 1.42181E+01 1.44300E+02-2.53834E+01
 -1       949 1.41589E+01 1.39922E+02-2.46098E+01
 -1       950 1.43191E+01 1.53101E+02-2.69381E+01
 -1       951 1.42716E+01 1.48693E+02-2.61593E+01
 -1       952 4.18746E+00 6.05657E+00-8.69477E-01
 -1       953 3.72535E+00 4.81005E+00-6.46025E-01
 -1       954 4.61158E+00 6.76795E+00-1.10742E+00
 -1       955 5.54781E+00 9.04502E+00-1.62818E+00
 -1       956 5.05011E+00 7.46436E+00-1.35156E+00
 -1       957 1.47624E+01 1.37746E+02-2.42413E+01
 -1       958 1.27269E+01 8.55116E+01-1.49865E+01
 -1       959 1.25596E+01 8.16020E+01-1.42936E+01
 -1       960 1.39760E+01 1.03692E+02-1.82342E+01
 -1       961 1.06128E+01 4.91397E+01-8.53964E+00
 -1       962 1.03496E+01 4.58945E+01-7.96414E+00
 -1       963 1.12298E+01 5.07838E+01-8.89423E+00
 -1       964 1.18606E+01 5.24547E+01-9.25764E+00
 -1       965 1.21292E+01 5.58531E+01-9.85499E+00
 -1       966 1.49862E+01 1.55314E+02-2.73392E+01
 -1       967 1.44994E+01 1.79770E+02-3.16458E+01
 -1       968 1.44804E+01 1.75307E+02-3.08580E+01
 -1       969 1.51211E+01 1.73079E+02-3.04708E+01
 -1       970 1.33831E+01 8.74976E+01-1.53762E+01
 -1       971 1.44315E+01 1.20493E+02-2.11983E+01
 -1       972-1.58711E+01 1.29069E+02-2.27553E+01
 -1       973-1.63625E+01 1.64177E+02-2.89201E+01
 -1       974-1.38631E+01 1.99803E+02-3.51777E+01
 -1       975-1.48780E+01 9.55026E+01-1.68676E+01
 -1       976-1.54458E+01 1.12023E+02-1.97644E+01
 -1       977-1.61695E+01 1.46496E+02-2.58148E+01
 -1       978-1.38532E+01 1.82001E+02-3.20361E+01
 -1       979-1.19104E+01 7.96418E+01-1.39078E+01
 -1       980-6.00794E+00 9.80421E+00-1.88367E+00
 -1       981-7.84867E+00 1.74449E+01-3.21126E+00
 -1       982-3.34115E+00 4.18766E+00-4.31141E-01
 -1       983-1.09383E+01 3.81574E+01-6.82691E+00
 -1       984-1.27504E+01 5.75847E+01-1.02257E+01
 -1       985-9.49055E+00 2.69645E+01-4.87191E+00
 -1       986-1.40650E+00 9.27468E-01 1.31416E-01
 -1       987-2.86768E+00 2.36427E+00-5.93655E-01
 -1       988-1.65055E+01 2.09267E+02-3.68484E+01
 -1       989-1.34902E+01 1.37731E+02-2.42086E+01
 -1       990-1.37300E+01 7.20737E+01-1.27622E+01
 -1       991-1.64980E+01 1.90946E+02-3.36255E+01
 -1       992-1.27731E+01 1.03664E+02-1.81719E+01
 -1       993-1.36944E+01 1.55305E+02-2.73181E+01
 -1       994-1.31876E+01 1.20472E+02-2.11517E+01
 -1       995-5.85332E+00 1.33022E+01-2.07888E+00
 -1       996-9.75214E+00 4.42626E+01-7.61435E+00
 -1       997-1.11432E+01 6.46493E+01-1.12419E+01
 -1       998-7.31760E+00 2.19164E+01-3.62409E+00
 -1       999-8.61879E+00 3.23069E+01-5.48161E+00
 -1      1000-7.73142E-01 4.54413E-01-7.69270E-02
 -1      1001-1.45778E+01 2.15957E+02-3.80251E+01
 -1      1002-2.41213E+00 2.26655E+00-8.18316E-02
 -1      1003-3.95991E+00 4.26382E+00-9.24117E-01
 -1      1004-5.01105E+00 6.75650E+00-1.35596E+00
 -1      1005-5.07737E+00 8.22808E+00-1.36570E+00
 -1      1006-1.65214E+01 1.99934E+02-3.52062E+01
 -1      1007-1.60356E+01 1.37744E+02-2.42779E+01
 -1      1008-1.37645E+01 1.64171E+02-2.88859E+01
 -1      1009-1.25181E+01 9.54768E+01-1.67193E+01
 -1      1010-1.15432E+01 7.20350E+01-1.25558E+01
 -1      1011-1.41546E+01 7.96747E+01-1.40937E+01
 -1      1012-1.51798E+01 1.03687E+02-1.83027E+01
 -1      1013-1.22299E+01 8.74626E+01-1.52967E+01
 -1      1014-8.69245E+00 2.19822E+01-4.00279E+00
 -1      1015-1.15869E+01 4.43127E+01-7.90349E+00
 -1      1016-1.21989E+01 5.08025E+01-9.03939E+00
 -1      1017-1.14733E+01 5.41156E+01-9.48141E+00
 -1      1018-9.20556E+00 3.81030E+01-6.51580E+00
 -1      1019-1.29952E+01 1.12002E+02-1.96504E+01
 -1      1020-1.62788E+01 1.55312E+02-2.73628E+01
 -1      1021-1.32706E+01 6.46740E+01-1.14678E+01
 -1      1022-1.38767E+01 1.90945E+02-3.36149E+01
 -1      1023-1.64698E+01 1.82004E+02-3.20530E+01
 -1      1024-7.99040E+00 2.69022E+01-4.51608E+00
 -1      1025-6.60783E+00 1.73736E+01-2.80997E+00
 -1      1026-1.64256E+01 1.73078E+02-3.04841E+01
 -1      1027-1.33526E+01 1.29054E+02-2.26721E+01
 -1      1028-6.95474E+00 1.33772E+01-2.50383E+00
 -1      1029-1.45364E+01 8.74916E+01-1.54637E+01
 -1      1030-1.02386E+01 3.23655E+01-5.81488E+00
 -1      1031-1.38169E+01 1.73073E+02-3.04593E+01
 -1      1032-1.56752E+01 1.20489E+02-2.12499E+01
 -1      1033-1.36034E+01 1.46487E+02-2.57582E+01
 -1      1034-2.17135E+00 1.71754E+00-2.12711E-01
 -1      1035-3.15114E+00 3.26085E+00-4.84506E-01
 -1      1036-5.06688E+00 9.78964E+00-1.44329E+00
 -1      1037-7.44484E-01 4.36917E-01 7.23917E-02
 -1      1038-1.02407E+01 5.07471E+01-8.76740E+00
 -1      1039-1.19708E+01 6.11106E+01-1.07168E+01
 -1      1040-1.51900E+01 2.03899E+02-3.59016E+01
 -1      1041-4.19780E+00 6.62286E+00-8.70601E-01
 -1      1042-1.51947E+01 1.95401E+02-3.44043E+01
 -1      1043-5.97458E+00 1.15439E+01-1.95464E+00
 -1      1044-1.50277E+01 1.59741E+02-2.81198E+01
 -1      1045-1.50952E+01 1.68625E+02-2.96863E+01
 -1      1046-1.48283E+01 1.42114E+02-2.50120E+01
 -1      1047-1.51758E+01 1.86474E+02-3.28319E+01
 -1      1048-1.41028E+01 1.07841E+02-1.89666E+01
 -1      1049-1.32135E+01 8.35633E+01-1.46819E+01
 -1      1050-1.43295E+01 1.16245E+02-2.04495E+01
 -1      1051-1.45255E+01 1.24769E+02-2.19531E+01
 -1      1052-1.51436E+01 1.77540E+02-3.12572E+01
 -1      1053-1.49401E+01 1.50899E+02-2.65608E+01
 -1      1054-1.24272E+01 6.83541E+01-1.19967E+01
 -1      1055-6.82245E+00 1.53650E+01-2.63184E+00
 -1      1056-7.62431E+00 1.96696E+01-3.39309E+00
 -1      1057-1.35459E+01 9.14802E+01-1.60790E+01
 -1      1058-9.09074E+00 2.96270E+01-5.15494E+00
 -1      1059-9.75641E+00 3.52253E+01-6.14480E+00
 -1      1060-8.38010E+00 2.44330E+01-4.23565E+00
 -1      1061-1.38423E+01 9.95797E+01-1.75086E+01
 -1      1062-1.46909E+01 1.33398E+02-2.34750E+01
 -1      1063-1.03781E+01 4.12012E+01-7.20051E+00
 -1      1064-1.28427E+01 7.58527E+01-1.33214E+01
 -1      1065-1.09555E+01 4.75295E+01-8.31833E+00
 -1      1066-1.07068E+01 5.75497E+01-9.97812E+00
 -1      1067-4.13302E+00 5.44785E+00-8.72761E-01
 -1      1068-1.58781E+01 2.15686E+02-3.79780E+01
 -1      1069-1.67277E+00 1.01797E+00-3.35328E-01
 -1      1070-1.39097E+01 2.09224E+02-3.68386E+01
 -1      1071-1.34730E+00 8.62858E-01-6.29844E-02
 -1      1072-5.89399E-01 3.04913E-01 1.93593E-01
 -1      1073-7.45250E-01 3.98274E-01-2.22071E-01
 -1      1074-1.69407E+01 2.16565E+02-3.81330E+01
 -1      1075-1.34840E+01 2.16611E+02-3.81402E+01
 -1      1076-1.52129E+01 2.10807E+02-3.71184E+01
 -1      1077-2.74821E-01 1.38207E-01 1.50892E-01
 -1      1078-2.86654E-01 1.84521E-01 1.03480E-01
 -1      1079-7.51401E-01 3.32189E-01 2.92544E-01
 -1      1080-3.48551E-01 2.25610E-01-9.64989E-02
 -1      1081-3.76471E-01 2.09836E-01-1.63420E-01
 -1      1082-1.01306E+00 4.57506E-01-3.77650E-01
 -1      1083-1.36769E+01 2.19442E+02-3.86390E+01
 -1      1084-1.30070E+01 2.19442E+02-3.86391E+01
 -1      1085-1.30071E+01 2.14968E+02-3.78507E+01
 -1      1086-1.74132E+01 2.19419E+02-3.86354E+01
 -1      1087-1.67440E+01 2.19419E+02-3.86353E+01
 -1      1088-1.74131E+01 2.14945E+02-3.78480E+01
 -1      1089-3.62408E-01 2.40029E-01-1.24203E-02
 -1      1090-3.87415E-01 2.59774E-01-5.73779E-02
 -1      1091-7.62868E-01 4.35154E-01-1.44652E-01
 -1      1092-3.43944E-01 2.20958E-01 7.66541E-02
 -1      1093-3.70473E-01 2.50239E-01 3.31189E-02
 -1      1094-7.61088E-01 4.55858E-01-1.36275E-03
 -1      1095-6.63927E-01 3.75044E-01 1.33864E-01
 -1      1096-1.62127E+01 2.18980E+02-3.85579E+01
 -1      1097-1.55435E+01 2.18980E+02-3.85578E+01
 -1      1098-1.64094E+01 2.16126E+02-3.80555E+01
 -1      1099-1.48933E+01 2.19115E+02-3.85814E+01
 -1      1100-1.42239E+01 2.19115E+02-3.85814E+01
 -1      1101-1.52280E+01 2.15821E+02-3.80015E+01
 -1      1102-1.40310E+01 2.16284E+02-3.80826E+01
 -1      1103-1.48285E+00 7.64347E-01-4.31537E-01
 -1      1104-2.08066E+00 1.25010E+00-5.46023E-01
 -1      1105-1.21462E+00 6.58782E-01-2.85353E-01
 -1      1106-2.69742E+00 1.92431E+00-6.73827E-01
 -1      1107-3.27768E+00 2.72892E+00-8.13625E-01
 -1      1108-2.27501E+00 1.60772E+00-4.54398E-01
 -1      1109-3.84435E+00 3.67962E+00-9.76072E-01
 -1      1110-4.40164E+00 4.78226E+00-1.16327E+00
 -1      1111-3.41975E+00 3.24039E+00-7.46579E-01
 -1      1112-4.94806E+00 6.03068E+00-1.37624E+00
 -1      1113-5.47967E+00 7.41715E+00-1.61251E+00
 -1      1114-4.49080E+00 5.43910E+00-1.12785E+00
 -1      1115-5.99838E+00 8.94313E+00-1.87339E+00
 -1      1116-6.50381E+00 1.05991E+01-2.15695E+00
 -1      1117-5.51493E+00 8.21305E+00-1.60830E+00
 -1      1118-6.99663E+00 1.23878E+01-2.46409E+00
 -1      1119-7.47581E+00 1.43003E+01-2.79282E+00
 -1      1120-6.48685E+00 1.15260E+01-2.18243E+00
 -1      1121-7.94128E+00 1.63358E+01-3.14341E+00
 -1      1122-8.39450E+00 1.84910E+01-3.51508E+00
 -1      1123-7.40746E+00 1.53499E+01-2.84694E+00
 -1      1124-8.83400E+00 2.07612E+01-3.90747E+00
 -1      1125-9.26228E+00 2.31447E+01-4.32002E+00
 -1      1126-8.27670E+00 1.96565E+01-3.59668E+00
 -1      1127-9.67724E+00 2.56379E+01-4.75164E+00
 -1      1128-1.00798E+01 2.82367E+01-5.20161E+00
 -1      1129-9.09715E+00 2.44202E+01-4.42788E+00
 -1      1130-1.04689E+01 3.09391E+01-5.67025E+00
 -1      1131-1.08454E+01 3.37402E+01-6.15579E+00
 -1      1132-9.87001E+00 2.96153E+01-5.33457E+00
 -1      1133-1.12096E+01 3.66376E+01-6.65882E+00
 -1      1134-1.15609E+01 3.96282E+01-7.17785E+00
 -1      1135-1.05941E+01 3.52137E+01-6.31254E+00
 -1      1136-1.18990E+01 4.27073E+01-7.71294E+00
 -1      1137-1.22263E+01 4.58732E+01-8.26387E+00
 -1      1138-1.12686E+01 4.11911E+01-7.35722E+00
 -1      1139-1.25442E+01 4.91196E+01-8.82903E+00
 -1      1140-1.28466E+01 5.24484E+01-9.40762E+00
 -1      1141-1.18980E+01 4.75170E+01-8.46461E+00
 -1      1142-1.31341E+01 5.58416E+01-9.99804E+00
 -1      1143-1.34126E+01 5.93206E+01-1.06039E+01
 -1      1144-1.24799E+01 5.41558E+01-9.62582E+00
 -1      1145-1.36828E+01 6.28673E+01-1.12223E+01
 -1      1146-1.39380E+01 6.64844E+01-1.18519E+01
 -1      1147-1.30154E+01 6.10951E+01-1.08410E+01
 -1      1148-1.41771E+01 7.01862E+01-1.24966E+01
 -1      1149-1.44091E+01 7.39294E+01-1.31488E+01
 -1      1150-1.35053E+01 6.83427E+01-1.21094E+01
 -1      1151-1.46302E+01 7.77311E+01-1.38120E+01
 -1      1152-1.48399E+01 8.15888E+01-1.44847E+01
 -1      1153-1.39474E+01 7.58453E+01-1.34229E+01
 -1      1154-1.50387E+01 8.54985E+01-1.51671E+01
 -1      1155-1.52273E+01 8.94585E+01-1.58582E+01
 -1      1156-1.43504E+01 8.35574E+01-1.47740E+01
 -1      1157-1.54051E+01 9.34657E+01-1.65578E+01
 -1      1158-1.55729E+01 9.75171E+01-1.72649E+01
 -1      1159-1.47116E+01 9.14747E+01-1.61617E+01
 -1      1160-1.57301E+01 1.01611E+02-1.79802E+01
 -1      1161-1.58777E+01 1.05743E+02-1.87022E+01
 -1      1162-1.50331E+01 9.95753E+01-1.75817E+01
 -1      1163-1.60161E+01 1.09912E+02-1.94309E+01
 -1      1164-1.61445E+01 1.14115E+02-2.01653E+01
 -1      1165-1.53169E+01 1.07837E+02-1.90304E+01
 -1      1166-1.62640E+01 1.18350E+02-2.09059E+01
 -1      1167-1.63745E+01 1.22614E+02-2.16515E+01
 -1      1168-1.55645E+01 1.16240E+02-2.05045E+01
 -1      1169-1.64766E+01 1.26904E+02-2.24023E+01
 -1      1170-1.65704E+01 1.31220E+02-2.31573E+01
 -1      1171-1.57769E+01 1.24766E+02-2.20002E+01
 -1      1172-1.66560E+01 1.35559E+02-2.39167E+01
 -1      1173-1.67338E+01 1.39918E+02-2.46796E+01
 -1      1174-1.59569E+01 1.33395E+02-2.35146E+01
 -1      1175-1.68036E+01 1.44295E+02-2.54462E+01
 -1      1176-1.68673E+01 1.48689E+02-2.62161E+01
 -1      1177-1.61061E+01 1.42111E+02-2.50446E+01
 -1      1178-1.69239E+01 1.53098E+02-2.69886E+01
 -1      1179-1.69740E+01 1.57519E+02-2.77632E+01
 -1      1180-1.62271E+01 1.50897E+02-2.65875E+01
 -1      1181-1.70178E+01 1.61952E+02-2.85405E+01
 -1      1182-1.70558E+01 1.66395E+02-2.93195E+01
 -1      1183-1.63232E+01 1.59739E+02-2.81403E+01
 -1      1184-1.70885E+01 1.70847E+02-3.01003E+01
 -1      1185-1.71162E+01 1.75305E+02-3.08825E+01
 -1      1186-1.63964E+01 1.68624E+02-2.97013E+01
 -1      1187-1.71391E+01 1.79769E+02-3.16660E+01
 -1      1188-1.71578E+01 1.84237E+02-3.24502E+01
 -1      1189-1.64496E+01 1.77539E+02-3.12682E+01
 -1      1190-1.71725E+01 1.88708E+02-3.32355E+01
 -1      1191-1.71838E+01 1.93182E+02-3.40214E+01
 -1      1192-1.64854E+01 1.86474E+02-3.28388E+01
 -1      1193-1.71959E+01 1.97677E+02-3.48112E+01
 -1      1194-1.72016E+01 2.02153E+02-3.55979E+01
 -1      1195-1.65109E+01 1.95440E+02-3.44156E+01
 -1      1196-1.71938E+01 2.06820E+02-3.64186E+01
 -1      1197-1.71955E+01 2.11296E+02-3.72059E+01
 -1      1198-1.65142E+01 2.04601E+02-3.60272E+01
 -1      1199-1.67233E+01 2.12917E+02-3.74908E+01
 -1      1200-1.59918E+00 1.11288E+00 2.12479E-01
 -1      1201-1.13442E+00 6.35325E-01 2.65929E-01
 -1      1202-9.90821E-01 5.63673E-01 1.89555E-01
 -1      1203-2.52071E+00 2.58872E+00-4.13907E-02
 -1      1204-2.07302E+00 1.78379E+00 1.03370E-01
 -1      1205-1.91431E+00 1.51267E+00 4.53426E-02
 -1      1206-3.38849E+00 4.65776E+00-4.21979E-01
 -1      1207-2.96101E+00 3.55170E+00-2.18543E-01
 -1      1208-2.88102E+00 3.15225E+00-2.42778E-01
 -1      1209-4.20366E+00 7.26623E+00-8.98663E-01
 -1      1210-3.79511E+00 5.87863E+00-6.44659E-01
 -1      1211-3.77482E+00 5.33742E+00-6.38528E-01
 -1      1212-5.00382E+00 1.05150E+01-1.49046E+00
 -1      1213-4.61687E+00 8.85241E+00-1.18763E+00
 -1      1214-4.63673E+00 8.13382E+00-1.14378E+00
 -1      1215-5.74736E+00 1.41884E+01-2.15688E+00
 -1      1216-5.37830E+00 1.22730E+01-1.81074E+00
 -1      1217-5.46484E+00 1.14846E+01-1.75048E+00
 -1      1218-6.45419E+00 1.83848E+01-2.91489E+00
 -1      1219-6.10579E+00 1.62270E+01-2.52494E+00
 -1      1220-6.23527E+00 1.52779E+01-2.43373E+00
 -1      1221-7.11958E+00 2.30454E+01-3.75334E+00
 -1      1222-6.79217E+00 2.06588E+01-3.32452E+00
 -1      1223-6.96715E+00 1.95879E+01-3.20750E+00
 -1      1224-7.74818E+00 2.81436E+01-4.66973E+00
 -1      1225-7.43929E+00 2.55408E+01-4.20210E+00
 -1      1226-7.65925E+00 2.43553E+01-4.06041E+00
 -1      1227-8.33650E+00 3.36527E+01-5.65851E+00
 -1      1228-8.04691E+00 3.08483E+01-5.15511E+00
 -1      1229-8.30928E+00 2.95546E+01-4.98998E+00
 -1      1230-8.88539E+00 3.95462E+01-6.71420E+00
 -1      1231-8.61597E+00 3.65533E+01-6.17809E+00
 -1      1232-8.91630E+00 3.51574E+01-5.99079E+00
 -1      1233-9.39552E+00 4.57977E+01-7.83225E+00
 -1      1234-9.14551E+00 4.26289E+01-7.26579E+00
 -1      1235-9.48331E+00 4.11382E+01-7.05743E+00
 -1      1236-9.85999E+00 5.23743E+01-9.00709E+00
 -1      1237-9.62748E+00 4.90421E+01-8.41148E+00
 -1      1238-1.00016E+01 4.74640E+01-8.18337E+00
 -1      1239-1.02948E+01 5.92603E+01-1.02370E+01
 -1      1240-1.00816E+01 5.57781E+01-9.61479E+00
 -1      1241-1.04776E+01 5.41113E+01-9.36582E+00
 -1      1242-1.06981E+01 6.64333E+01-1.15172E+01
 -1      1243-1.05027E+01 6.28128E+01-1.08712E+01
 -1      1244-1.09292E+01 6.10645E+01-1.06040E+01
 -1      1245-1.10677E+01 7.38744E+01-1.28437E+01
 -1      1246-1.08887E+01 7.01286E+01-1.21766E+01
 -1      1247-1.13478E+01 6.83107E+01-1.18934E+01
 -1      1248-1.14030E+01 8.15404E+01-1.42102E+01
 -1      1249-1.12420E+01 7.76801E+01-1.35220E+01
 -1      1250-1.17306E+01 7.58098E+01-1.32264E+01
 -1      1251-1.17000E+01 8.94153E+01-1.56119E+01
 -1      1252-1.15555E+01 8.54529E+01-1.49067E+01
 -1      1253-1.20738E+01 8.35266E+01-1.45982E+01
 -1      1254-1.19654E+01 9.74785E+01-1.70466E+01
 -1      1255-1.18368E+01 9.34249E+01-1.63252E+01
 -1      1256-1.23779E+01 9.14469E+01-1.60040E+01
 -1      1257-1.21993E+01 1.05710E+02-1.85101E+01
 -1      1258-1.20865E+01 1.01575E+02-1.77747E+01
 -1      1259-1.26489E+01 9.95499E+01-1.74421E+01
 -1      1260-1.24040E+01 1.14086E+02-1.99985E+01
 -1      1261-1.23049E+01 1.09880E+02-1.92513E+01
 -1      1262-1.28877E+01 1.07816E+02-1.89082E+01
 -1      1263-1.25801E+01 1.22588E+02-2.15083E+01
 -1      1264-1.24955E+01 1.18322E+02-2.07509E+01
 -1      1265-1.30945E+01 1.16222E+02-2.03984E+01
 -1      1266-1.27303E+01 1.31199E+02-2.30367E+01
 -1      1267-1.26585E+01 1.26881E+02-2.22702E+01
 -1      1268-1.32733E+01 1.24750E+02-2.19096E+01
 -1      1269-1.28556E+01 1.39900E+02-2.45798E+01
 -1      1270-1.27957E+01 1.35539E+02-2.38065E+01
 -1      1271-1.34242E+01 1.33382E+02-2.34386E+01
 -1      1272-1.29577E+01 1.48675E+02-2.61352E+01
 -1      1273-1.29094E+01 1.44279E+02-2.53560E+01
 -1      1274-1.35492E+01 1.42101E+02-2.49820E+01
 -1      1275-1.30391E+01 1.57509E+02-2.77000E+01
 -1      1276-1.30010E+01 1.53085E+02-2.69165E+01
 -1      1277-1.36514E+01 1.50888E+02-2.65371E+01
 -1      1278-1.31015E+01 1.66387E+02-2.92716E+01
 -1      1279-1.30725E+01 1.61943E+02-2.84851E+01
 -1      1280-1.37317E+01 1.59732E+02-2.81013E+01
 -1      1281-1.31477E+01 1.75299E+02-3.08481E+01
 -1      1282-1.31264E+01 1.70840E+02-3.00593E+01
 -1      1283-1.37926E+01 1.68618E+02-2.96720E+01
 -1      1284-1.31789E+01 1.84233E+02-3.24274E+01
 -1      1285-1.31650E+01 1.79764E+02-3.16374E+01
 -1      1286-1.38365E+01 1.77535E+02-3.12473E+01
 -1      1287-1.31986E+01 1.93180E+02-3.40077E+01
 -1      1288-1.31901E+01 1.88705E+02-3.32175E+01
 -1      1289-1.38663E+01 1.86472E+02-3.28254E+01
 -1      1290-1.31957E+01 2.02087E+02-3.55797E+01
 -1      1291-1.31916E+01 1.97610E+02-3.47897E+01
 -1      1292-1.38709E+01 1.95374E+02-3.43963E+01
 -1      1293-1.32201E+01 2.11274E+02-3.71997E+01
 -1      1294-1.32190E+01 2.06798E+02-3.64106E+01
 -1      1295-1.38872E+01 2.04514E+02-3.60083E+01
 -1      1296-1.36971E+01 2.12918E+02-3.74895E+01
 -1      1297-1.52836E+01 1.31233E+02-2.31133E+01
 -1      1298-1.53625E+01 1.35571E+02-2.38763E+01
 -1      1299-1.51032E+01 1.22629E+02-2.15994E+01
 -1      1300-1.51972E+01 1.26919E+02-2.23540E+01
 -1      1301-1.46114E+01 1.29072E+02-2.27119E+01
 -1      1302-1.56550E+01 1.57526E+02-2.77402E+01
 -1      1303-1.56949E+01 1.61959E+02-2.85201E+01
 -1      1304-1.57302E+01 1.66401E+02-2.93022E+01
 -1      1305-1.57603E+01 1.70851E+02-3.00853E+01
 -1      1306-1.50634E+01 1.64178E+02-2.89021E+01
 -1      1307-1.45294E+01 1.97602E+02-3.47907E+01
 -1      1308-1.45359E+01 1.93173E+02-3.40098E+01
 -1      1309-1.51932E+01 1.99649E+02-3.51530E+01
 -1      1310-1.45268E+01 2.01851E+02-3.55397E+01
 -1      1311-1.45504E+01 2.06561E+02-3.63699E+01
 -1      1312-1.43642E+01 9.75406E+01-1.71856E+01
 -1      1313-1.45092E+01 1.01633E+02-1.79051E+01
 -1      1314-1.40456E+01 8.94853E+01-1.57685E+01
 -1      1315-1.42097E+01 9.34906E+01-1.64727E+01
 -1      1316-1.36980E+01 9.55081E+01-1.67902E+01
 -1      1317-1.46453E+01 1.05763E+02-1.86322E+01
 -1      1318-1.47727E+01 1.09931E+02-1.93650E+01
 -1      1319-1.48912E+01 1.14133E+02-2.01046E+01
 -1      1320-1.50011E+01 1.18366E+02-2.08493E+01
 -1      1321-1.42196E+01 1.12026E+02-1.97048E+01
 -1      1322-1.54342E+01 1.39928E+02-2.46433E+01
 -1      1323-1.54985E+01 1.44305E+02-2.54135E+01
 -1      1324-1.55566E+01 1.48698E+02-2.61866E+01
 -1      1325-1.56090E+01 1.53105E+02-2.69620E+01
 -1      1326-1.48868E+01 1.46498E+02-2.57853E+01
 -1      1327-1.45271E+01 1.88710E+02-3.32230E+01
 -1      1328-1.45149E+01 1.84238E+02-3.24342E+01
 -1      1329-1.44994E+01 1.79770E+02-3.16460E+01
 -1      1330-1.44804E+01 1.75307E+02-3.08584E+01
 -1      1331-1.51613E+01 1.82005E+02-3.20442E+01
 -1      1332-1.23823E+01 7.77456E+01-1.36111E+01
 -1      1333-1.21901E+01 7.39431E+01-1.29368E+01
 -1      1334-1.27268E+01 8.55116E+01-1.49866E+01
 -1      1335-1.25596E+01 8.16021E+01-1.42938E+01
 -1      1336-1.30323E+01 7.96811E+01-1.39967E+01
 -1      1337-5.05553E+00 7.48980E+00-1.35404E+00
 -1      1338-5.53420E+00 9.01360E+00-1.62074E+00
 -1      1339-5.53105E+00 9.82013E+00-1.64869E+00
 -1      1340-6.00227E+00 1.06714E+01-1.91256E+00
 -1      1341-6.45662E+00 1.24577E+01-2.22535E+00
 -1      1342-7.74613E+00 1.85551E+01-3.29618E+00
 -1      1343-8.15148E+00 2.08237E+01-3.69491E+00
 -1      1344-6.89889E+00 1.43684E+01-2.56138E+00
 -1      1345-7.32798E+00 1.64020E+01-2.91789E+00
 -1      1346-7.22823E+00 1.74586E+01-3.00188E+00
 -1      1347-3.25880E+00 3.72055E+00-4.51013E-01
 -1      1348-2.77171E+00 2.76027E+00-2.77654E-01
 -1      1349-3.72870E+00 4.81585E+00-6.47691E-01
 -1      1350-3.64667E+00 4.28307E+00-6.66607E-01
 -1      1351-4.17786E+00 6.03344E+00-8.64792E-01
 -1      1352-1.06658E+01 3.96777E+01-7.00884E+00
 -1      1353-1.09776E+01 4.27552E+01-7.55000E+00
 -1      1354-1.00060E+01 3.37934E+01-5.97457E+00
 -1      1355-1.03418E+01 3.66891E+01-6.48331E+00
 -1      1356-1.00719E+01 3.81680E+01-6.66459E+00
 -1      1357-1.18432E+01 5.24579E+01-9.25597E+00
 -1      1358-1.21076E+01 5.58486E+01-9.85164E+00
 -1      1359-1.17265E+01 5.75767E+01-1.00927E+01
 -1      1360-1.23671E+01 5.93464E+01-1.04673E+01
 -1      1361-1.26168E+01 6.28916E+01-1.10908E+01
 -1      1362-8.54538E+00 2.32056E+01-4.11379E+00
 -1      1363-8.92873E+00 2.56967E+01-4.55086E+00
 -1      1364-9.29952E+00 2.82937E+01-5.00801E+00
 -1      1365-9.65856E+00 3.09942E+01-5.48211E+00
 -1      1366-8.74021E+00 2.69774E+01-4.68612E+00
 -1      1367-2.30238E+00 1.99273E+00-1.42293E-01
 -1      1368-1.77527E+00 1.30676E+00-3.01458E-02
 -1      1369-1.76052E+00 1.24509E+00-1.29070E-01
 -1      1370-1.37953E+00 9.05622E-01 3.17791E-02
 -1      1371-1.03858E+00 6.29435E-01 1.87789E-02
 -1      1372-1.07882E+00 6.52304E-01 1.08503E-01
 -1      1373-3.02080E+00 2.80901E+00-5.32157E-01
 -1      1374-3.54616E+00 3.75955E+00-6.99754E-01
 -1      1375-2.66627E+00 2.42131E+00-3.36412E-01
 -1      1376-2.50988E+00 2.04099E+00-3.97385E-01
 -1      1377-1.93370E+00 1.35288E+00-2.68755E-01
 -1      1378-1.58561E+01 2.01916E+02-3.55536E+01
 -1      1379-1.58479E+01 2.06583E+02-3.63752E+01
 -1      1380-1.52018E+01 2.07353E+02-3.65100E+01
 -1      1381-1.58592E+01 2.10037E+02-3.69834E+01
 -1      1382-1.61920E+01 2.12477E+02-3.74131E+01
 -1      1383-1.55456E+01 2.13247E+02-3.75483E+01
 -1      1384-1.40933E+01 1.35564E+02-2.38402E+01
 -1      1385-1.40212E+01 1.31226E+02-2.30733E+01
 -1      1386-1.42182E+01 1.44300E+02-2.53837E+01
 -1      1387-1.41590E+01 1.39922E+02-2.46101E+01
 -1      1388-1.47625E+01 1.37746E+02-2.42416E+01
 -1      1389-1.32920E+01 7.39620E+01-1.30382E+01
 -1      1390-1.34956E+01 7.77623E+01-1.37063E+01
 -1      1391-1.28549E+01 6.65129E+01-1.17285E+01
 -1      1392-1.30753E+01 7.02127E+01-1.23781E+01
 -1      1393-1.26391E+01 7.20730E+01-1.26533E+01
 -1      1394-1.58468E+01 1.93174E+02-3.40146E+01
 -1      1395-1.58582E+01 1.97667E+02-3.48055E+01
 -1      1396-1.58237E+01 1.84239E+02-3.24419E+01
 -1      1397-1.58370E+01 1.88710E+02-3.32289E+01
 -1      1398-1.51863E+01 1.90937E+02-3.36181E+01
 -1      1399-1.33120E+01 1.01621E+02-1.78378E+01
 -1      1400-1.31788E+01 9.75277E+01-1.71132E+01
 -1      1401-1.35530E+01 1.09921E+02-1.93062E+01
 -1      1402-1.34367E+01 1.05753E+02-1.85686E+01
 -1      1403-1.39763E+01 1.03692E+02-1.82344E+01
 -1      1404-1.43978E+01 1.61955E+02-2.85019E+01
 -1      1405-1.43612E+01 1.57523E+02-2.77192E+01
 -1      1406-1.43192E+01 1.53101E+02-2.69384E+01
 -1      1407-1.42717E+01 1.48693E+02-2.61596E+01
 -1      1408-1.49863E+01 1.55314E+02-2.73395E+01
 -1      1409-1.37623E+01 1.18357E+02-2.07984E+01
 -1      1410-1.36614E+01 1.14123E+02-2.00493E+01
 -1      1411-1.39422E+01 1.26911E+02-2.23108E+01
 -1      1412-1.38560E+01 1.22620E+02-2.15520E+01
 -1      1413-1.44309E+01 1.20493E+02-2.11986E+01
 -1      1414-6.72589E+00 1.63662E+01-2.71470E+00
 -1      1415-6.33051E+00 1.43315E+01-2.35121E+00
 -1      1416-5.92570E+00 1.24200E+01-2.01028E+00
 -1      1417-5.51345E+00 1.06664E+01-1.69509E+00
 -1      1418-6.40327E+00 1.33919E+01-2.28170E+00
 -1      1419-1.00729E+01 4.27296E+01-7.40319E+00
 -1      1420-9.78703E+00 3.96506E+01-6.85577E+00
 -1      1421-1.06060E+01 4.91365E+01-8.53840E+00
 -1      1422-1.03498E+01 4.58947E+01-7.96435E+00
 -1      1423-1.06708E+01 4.43230E+01-7.75258E+00
 -1      1424-1.19921E+01 7.01928E+01-1.22724E+01
 -1      1425-1.17823E+01 6.65011E+01-1.16178E+01
 -1      1426-1.22034E+01 6.46995E+01-1.13512E+01
 -1      1427-1.15639E+01 6.28781E+01-1.09756E+01
 -1      1428-1.13354E+01 5.93295E+01-1.03458E+01
 -1      1429-8.19493E+00 2.56647E+01-4.37042E+00
 -1      1430-7.84320E+00 2.31729E+01-3.92693E+00
 -1      1431-7.48089E+00 2.07902E+01-3.50329E+00
 -1      1432-7.10946E+00 1.85199E+01-3.09819E+00
 -1      1433-8.00645E+00 2.19958E+01-3.80522E+00
 -1      1434-9.48994E+00 3.66618E+01-6.32542E+00
 -1      1435-9.18229E+00 3.37646E+01-5.81046E+00
 -1      1436-8.86399E+00 3.09644E+01-5.31305E+00
 -1      1437-8.53500E+00 2.82632E+01-4.83247E+00
 -1      1438-9.42838E+00 3.23772E+01-5.64106E+00
 -1      1439-1.06578E+00 6.40171E-01-7.14418E-02
 -1      1440-1.50326E+00 9.50761E-01-1.89500E-01
 -1      1441-1.21064E+00 7.05023E-01-1.94082E-01
 -1      1442-1.48955E+01 2.13382E+02-3.75717E+01
 -1      1443-1.42440E+01 2.12591E+02-3.74320E+01
 -1      1444-1.45614E+01 2.10016E+02-3.69785E+01
 -1      1445-4.05784E+00 4.85317E+00-8.91625E-01
 -1      1446-4.56310E+00 6.09914E+00-1.11019E+00
 -1      1447-4.61054E+00 6.76784E+00-1.10706E+00
 -1      1448-4.62916E+00 7.42236E+00-1.11358E+00
 -1      1449-5.08450E+00 9.00450E+00-1.39750E+00
 -1      1450-1.44574E+01 1.70849E+02-3.00719E+01
 -1      1451-1.44299E+01 1.66398E+02-2.92861E+01
 -1      1452-1.30372E+01 9.34771E+01-1.63964E+01
 -1      1453-1.28865E+01 8.94709E+01-1.56871E+01
 -1      1454-1.36889E+01 8.16181E+01-1.43846E+01
 -1      1455-1.38721E+01 8.55264E+01-1.50720E+01
 -1      1456-1.33832E+01 8.74975E+01-1.53766E+01
 -1      1457-1.12784E+01 4.59196E+01-8.10661E+00
 -1      1458-1.15725E+01 4.91643E+01-8.67697E+00
 -1      1459-1.12191E+01 5.07837E+01-8.89297E+00
 -1      1460-1.08533E+01 5.24308E+01-9.12222E+00
 -1      1461-1.10976E+01 5.58306E+01-9.72540E+00
 -1      1462-1.57856E+01 1.75309E+02-3.08699E+01
 -1      1463-1.58067E+01 1.79772E+02-3.16553E+01
 -1      1464-1.51212E+01 1.73079E+02-3.04711E+01
 -1      1465 4.52176E+00 1.20396E+02-2.11647E+01
 -1      1466 4.70078E+00 1.55269E+02-2.73241E+01
 -1      1467-1.00711E+01 1.73058E+02-3.04875E+01
 -1      1468 4.92499E+00 1.99798E+02-3.51782E+01
 -1      1469 4.33083E+00 9.53620E+01-1.67386E+01
 -1      1470-9.82676E+00 1.37690E+02-2.42873E+01
 -1      1471 4.07743E+00 7.94977E+01-1.39333E+01
 -1      1472-3.66315E+00 9.46216E+00-1.94400E+00
 -1      1473 2.27079E+00 1.70636E+01-2.86354E+00
 -1      1474 1.14609E+00 3.79840E+00-4.93044E-01
 -1      1475-6.76782E+00 3.78984E+01-6.86812E+00
 -1      1476 3.68790E+00 5.74135E+01-1.00232E+01
 -1      1477 2.75083E+00 2.66276E+01-4.56302E+00
 -1      1478-1.01792E+00 6.18153E-01-4.18092E-01
 -1      1479-9.46212E+00 1.11934E+02-1.97800E+01
 -1      1480 4.76013E+00 1.81988E+02-3.20384E+01
 -1      1481-1.00472E+01 2.09265E+02-3.68486E+01
 -1      1482-8.40566E+00 7.19143E+01-1.27900E+01
 -1      1483-1.01184E+01 1.90938E+02-3.36268E+01
 -1      1484-8.90184E+00 8.73627E+01-1.54863E+01
 -1      1485 3.33234E+00 4.40379E+01-7.65363E+00
 -1      1486-5.38759E+00 2.16927E+01-4.05721E+00
 -1      1487-7.55055E+00 5.06235E+01-9.08180E+00
 -1      1488 4.94283E-02 1.30044E-02 2.24184E-02
 -1      1489 9.06119E-01 2.15955E+02-3.80252E+01
 -1      1490-9.97864E+00 1.55277E+02-2.73687E+01
 -1      1491 4.62806E+00 1.37678E+02-2.42179E+01
 -1      1492 1.71431E+00 9.38332E+00-1.49670E+00
 -1      1493-2.43208E+00 3.88240E+00-9.93007E-01
 -1      1494-1.74789E+00 1.94921E+00-6.62678E-01
 -1      1495-3.66603E-01 1.18626E+00-2.96456E-01
 -1      1496-1.01720E+01 1.99929E+02-3.52069E+01
 -1      1497 4.45443E+00 1.11914E+02-1.96657E+01
 -1      1498 4.42749E+00 1.03562E+02-1.81892E+01
 -1      1499-2.46438E+00 9.94371E+01-1.75343E+01
 -1      1500 4.72650E+00 1.64144E+02-2.88904E+01
 -1      1501-9.72483E+00 1.29004E+02-2.27667E+01
 -1      1502 3.95452E+00 7.18790E+01-1.25847E+01
 -1      1503 3.85909E+00 6.45043E+01-1.12785E+01
 -1      1504-2.17571E+00 6.09683E+01-1.07787E+01
 -1      1505-1.00997E+01 1.81991E+02-3.20554E+01
 -1      1506 3.18942E+00 3.78348E+01-6.55219E+00
 -1      1507-1.00314E+01 1.64150E+02-2.89246E+01
 -1      1508-7.18473E+00 4.40911E+01-7.94509E+00
 -1      1509 2.52317E+00 2.16233E+01-3.67415E+00
 -1      1510 2.96621E+00 3.20198E+01-5.52053E+00
 -1      1511-1.64729E+00 2.92217E+01-5.20913E+00
 -1      1512 4.77026E+00 1.90936E+02-3.36161E+01
 -1      1513-8.66664E+00 7.95303E+01-1.41190E+01
 -1      1514 2.01262E+00 1.29754E+01-2.13499E+00
 -1      1515-1.21479E+00 1.49438E+01-2.70653E+00
 -1      1516-3.06925E+00 6.40075E+00-1.42078E+00
 -1      1517 1.44283E+00 6.31788E+00-9.45748E-01
 -1      1518 3.56303E+00 5.05892E+01-8.81254E+00
 -1      1519 4.66810E+00 1.46442E+02-2.57659E+01
 -1      1520 4.57899E+00 1.28990E+02-2.26833E+01
 -1      1521 4.21246E+00 8.73328E+01-1.53191E+01
 -1      1522 4.74604E+00 1.73054E+02-3.04624E+01
 -1      1523-9.91095E+00 1.46453E+02-2.58222E+01
 -1      1524-9.60371E+00 1.20413E+02-2.12632E+01
 -1      1525-5.49448E-01 2.73994E+00-5.71159E-01
 -1      1526 8.45753E-01 1.88641E+00-1.45816E-01
 -1      1527-3.30751E-01 5.15103E-02-1.85157E-01
 -1      1528-9.23310E+00 9.51680E+01-1.68506E+01
 -1      1529-9.43243E+00 1.03812E+02-1.83612E+01
 -1      1530-4.86079E+00 1.71169E+01-3.26612E+00
 -1      1531-4.29319E+00 1.30192E+01-2.55882E+00
 -1      1532-5.90456E+00 2.66841E+01-4.92262E+00
 -1      1533-2.07231E+00 5.39479E+01-9.54642E+00
 -1      1534-8.24509E+00 6.45520E+01-1.15082E+01
 -1      1535-1.75696E+00 3.48749E+01-6.19988E+00
 -1      1536-2.59163E+00 2.03894E+02-3.59022E+01
 -1      1537-2.66887E+00 1.95392E+02-3.44060E+01
 -1      1538-2.63046E+00 1.50847E+02-2.65700E+01
 -1      1539-2.61110E+00 1.42049E+02-2.50232E+01
 -1      1540-2.58673E+00 1.33320E+02-2.34886E+01
 -1      1541-2.67212E+00 1.86460E+02-3.28342E+01
 -1      1542-2.65802E+00 1.68594E+02-2.96913E+01
 -1      1543-2.32720E+00 8.33839E+01-1.47135E+01
 -1      1544-2.52360E+00 1.16136E+02-2.04684E+01
 -1      1545-8.94907E-01 7.76705E+00-1.44970E+00
 -1      1546-7.27823E-01 4.96687E+00-9.60561E-01
 -1      1547-2.64596E+00 1.59700E+02-2.81269E+01
 -1      1548-2.55769E+00 1.24676E+02-2.19693E+01
 -1      1549-1.95803E+00 4.72583E+01-8.37178E+00
 -1      1550-2.66651E+00 1.77517E+02-3.12609E+01
 -1      1551-1.86021E+00 4.08862E+01-7.25360E+00
 -1      1552-2.26170E+00 7.56526E+01-1.33563E+01
 -1      1553-2.38498E+00 9.13184E+01-1.61075E+01
 -1      1554-2.48308E+00 1.07716E+02-1.89885E+01
 -1      1555-7.93311E+00 5.74488E+01-1.02709E+01
 -1      1556-2.18884E+00 6.81495E+01-1.20384E+01
 -1      1557-1.05177E+00 1.11001E+01-2.03268E+00
 -1      1558-6.36393E+00 3.20923E+01-5.86044E+00
 -1      1559-1.48207E+00 2.40555E+01-4.30174E+00
 -1      1560-1.35650E+00 1.92704E+01-3.46332E+00
 -1      1561-6.47899E+00 2.15685E+02-3.79780E+01
 -1      1562 4.78673E-01 5.39601E-01 7.63106E-02
 -1      1563 4.69383E+00 2.09222E+02-3.68388E+01
 -1      1564-2.37519E-01 3.61012E-01-1.50942E-01
 -1      1565-5.77873E-01 1.27912E-01-3.19288E-01
 -1      1566 3.37921E-01 5.37772E-02 1.92080E-01
 -1      1567-1.25154E+01 2.16565E+02-3.81329E+01
 -1      1568 7.11656E+00 2.16610E+02-3.81402E+01
 -1      1569-2.70365E+00 2.10804E+02-3.71186E+01
 -1      1570 1.45690E-01-3.68223E-02 1.18279E-01
 -1      1571 2.37080E-01 1.47247E-02 1.77412E-01
 -1      1572 5.95403E-01 1.85291E-01 2.79882E-01
 -1      1573-3.54272E-01 7.13855E-02-2.39388E-01
 -1      1574-2.55067E-01 3.92542E-03-1.87948E-01
 -1      1575-9.09064E-01 3.05582E-01-4.22155E-01
 -1      1576 9.82328E+00 2.19442E+02-3.86389E+01
 -1      1577 6.02074E+00 2.19441E+02-3.86391E+01
 -1      1578 9.82285E+00 2.14967E+02-3.78504E+01
 -1      1579-1.13981E+01 2.19419E+02-3.86351E+01
 -1      1580-1.52005E+01 2.19419E+02-3.86353E+01
 -1      1581-1.52001E+01 2.14944E+02-3.78480E+01
 -1      1582-1.67176E-02-6.57118E-02-1.02657E-02
 -1      1583 6.79595E-02-5.06893E-02 5.80031E-02
 -1      1584 1.98177E-01 2.38623E-02 1.12855E-01
 -1      1585-2.13490E-01-2.97959E-02-1.55828E-01
 -1      1586-1.16990E-01-5.17330E-02-8.21500E-02
 -1      1587-1.37936E-01 1.90523E-02-8.00872E-02
 -1      1588-4.64966E-01 7.87113E-02-2.59244E-01
 -1      1589 2.91542E+00 2.19114E+02-3.85815E+01
 -1      1590-8.85903E-01 2.19114E+02-3.85815E+01
 -1      1591 4.01110E+00 2.16282E+02-3.80827E+01
 -1      1592-4.57854E+00 2.18979E+02-3.85577E+01
 -1      1593-8.37983E+00 2.18979E+02-3.85577E+01
 -1      1594-2.78639E+00 2.15820E+02-3.80016E+01
 -1      1595-9.49696E+00 2.16125E+02-3.80555E+01
 -1      1596 7.54329E-01 4.09619E-01 2.39025E-01
 -1      1597 1.04021E+00 8.82189E-01 1.75700E-01
 -1      1598 4.43114E-01 2.35893E-01 1.61144E-01
 -1      1599 1.36081E+00 1.55847E+00 6.54662E-02
 -1      1600 1.65011E+00 2.36743E+00-7.95893E-02
 -1      1601 6.58545E-01 1.12483E+00-1.68077E-02
 -1      1602 1.92508E+00 3.32279E+00-2.55652E-01
 -1      1603 2.20646E+00 4.43258E+00-4.58113E-01
 -1      1604 9.98936E-01 2.76872E+00-3.06291E-01
 -1      1605 2.47677E+00 5.69159E+00-6.87761E-01
 -1      1606 2.74437E+00 7.08677E+00-9.41703E-01
 -1      1607 1.29639E+00 4.98647E+00-7.06685E-01
 -1      1608 2.99603E+00 8.61880E+00-1.22009E+00
 -1      1609 3.25096E+00 1.02840E+01-1.52129E+00
 -1      1610 1.58165E+00 7.78321E+00-1.20958E+00
 -1      1611 3.51087E+00 1.20791E+01-1.84374E+00
 -1      1612 3.75190E+00 1.39993E+01-2.18927E+00
 -1      1613 1.86424E+00 1.11155E+01-1.80477E+00
 -1      1614 3.98555E+00 1.60427E+01-2.55655E+00
 -1      1615 4.21434E+00 1.82060E+01-2.94534E+00
 -1      1616 2.14395E+00 1.49584E+01-2.48822E+00
 -1      1617 4.43938E+00 2.04851E+01-3.35390E+00
 -1      1618 4.65608E+00 2.28765E+01-3.78244E+00
 -1      1619 2.39891E+00 1.92862E+01-3.25855E+00
 -1      1620 4.86232E+00 2.53776E+01-4.23008E+00
 -1      1621 5.06522E+00 2.79849E+01-4.69702E+00
 -1      1622 2.63880E+00 2.40715E+01-4.10882E+00
 -1      1623 5.25921E+00 3.06805E+01-5.17894E+00
 -1      1624 5.44895E+00 3.34894E+01-5.68104E+00
 -1      1625 2.86031E+00 2.92736E+01-5.03314E+00
 -1      1626 5.64218E+00 3.63965E+01-6.19992E+00
 -1      1627 5.81991E+00 3.93945E+01-6.73502E+00
 -1      1628 3.07961E+00 3.48797E+01-6.02776E+00
 -1      1629 5.96771E+00 4.24952E+01-7.28908E+00
 -1      1630 6.13298E+00 4.56685E+01-7.85495E+00
 -1      1631 3.26365E+00 4.08920E+01-7.09495E+00
 -1      1632 6.31905E+00 4.89432E+01-8.43749E+00
 -1      1633 6.47169E+00 5.22806E+01-9.03250E+00
 -1      1634 3.44865E+00 4.72723E+01-8.22559E+00
 -1      1635 6.59848E+00 5.56915E+01-9.64056E+00
 -1      1636 6.73928E+00 5.91789E+01-1.02616E+01
 -1      1637 3.62791E+00 5.39641E+01-9.41156E+00
 -1      1638 6.88473E+00 6.27235E+01-1.08921E+01
 -1      1639 7.01357E+00 6.63485E+01-1.15376E+01
 -1      1640 3.77489E+00 6.09249E+01-1.06447E+01
 -1      1641 7.11585E+00 7.00348E+01-1.21935E+01
 -1      1642 7.23202E+00 7.37849E+01-1.28602E+01
 -1      1643 3.90855E+00 6.81603E+01-1.19263E+01
 -1      1644 7.34342E+00 7.75936E+01-1.35371E+01
 -1      1645 7.44927E+00 8.14582E+01-1.42242E+01
 -1      1646 4.01778E+00 7.56593E+01-1.32536E+01
 -1      1647 7.56177E+00 8.53752E+01-1.49199E+01
 -1      1648 7.65762E+00 8.93415E+01-1.56244E+01
 -1      1649 4.14651E+00 8.33897E+01-1.46215E+01
 -1      1650 7.75644E+00 9.33553E+01-1.63367E+01
 -1      1651 7.84094E+00 9.74133E+01-1.70576E+01
 -1      1652 4.27292E+00 9.13246E+01-1.60246E+01
 -1      1653 7.92416E+00 1.01513E+02-1.77852E+01
 -1      1654 7.99946E+00 1.05652E+02-1.85198E+01
 -1      1655 4.38074E+00 9.94423E+01-1.74604E+01
 -1      1656 8.04413E+00 1.09827E+02-1.92605E+01
 -1      1657 8.10876E+00 1.14035E+02-2.00069E+01
 -1      1658 4.44239E+00 1.07721E+02-1.89246E+01
 -1      1659 8.16908E+00 1.18276E+02-2.07587E+01
 -1      1660 8.22552E+00 1.22545E+02-2.15156E+01
 -1      1661 4.48956E+00 1.16140E+02-2.04127E+01
 -1      1662 8.27702E+00 1.26842E+02-2.22769E+01
 -1      1663 8.32460E+00 1.31163E+02-2.30427E+01
 -1      1664 4.55152E+00 1.24680E+02-2.19218E+01
 -1      1665 8.36844E+00 1.35506E+02-2.38120E+01
 -1      1666 8.40776E+00 1.39870E+02-2.45847E+01
 -1      1667 4.60466E+00 1.33323E+02-2.34488E+01
 -1      1668 8.44369E+00 1.44252E+02-2.53605E+01
 -1      1669 8.47626E+00 1.48650E+02-2.61392E+01
 -1      1670 4.64933E+00 1.42051E+02-2.49903E+01
 -1      1671 8.50528E+00 1.53063E+02-2.69199E+01
 -1      1672 8.53095E+00 1.57489E+02-2.77030E+01
 -1      1673 4.68542E+00 1.50849E+02-2.65437E+01
 -1      1674 8.55375E+00 1.61926E+02-2.84876E+01
 -1      1675 8.57344E+00 1.66373E+02-2.92738E+01
 -1      1676 4.71444E+00 1.59702E+02-2.81064E+01
 -1      1677 8.59045E+00 1.70827E+02-3.00611E+01
 -1      1678 8.60470E+00 1.75288E+02-3.08495E+01
 -1      1679 4.73699E+00 1.68595E+02-2.96758E+01
 -1      1680 8.61684E+00 1.79755E+02-3.16386E+01
 -1      1681 8.62705E+00 1.84226E+02-3.24283E+01
 -1      1682 4.75384E+00 1.77518E+02-3.12499E+01
 -1      1683 8.63541E+00 1.88700E+02-3.32181E+01
 -1      1684 8.64158E+00 1.93176E+02-3.40080E+01
 -1      1685 4.76566E+00 1.86461E+02-3.28271E+01
 -1      1686 8.72077E+00 1.97607E+02-3.47898E+01
 -1      1687 8.72443E+00 2.02085E+02-3.55796E+01
 -1      1688 4.84804E+00 1.95367E+02-3.43971E+01
 -1      1689 8.60953E+00 2.06796E+02-3.64105E+01
 -1      1690 8.61115E+00 2.11273E+02-3.71996E+01
 -1      1691 4.80981E+00 2.04510E+02-3.60086E+01
 -1      1692 5.90528E+00 2.12916E+02-3.74895E+01
 -1      1693-1.68576E+00 1.01317E+00-5.90077E-01
 -1      1694-1.21275E+00 5.30217E-01-4.84300E-01
 -1      1695-8.33523E-01 3.20409E-01-3.77701E-01
 -1      1696-2.65488E+00 2.48807E+00-8.53244E-01
 -1      1697-2.18557E+00 1.68252E+00-7.15548E-01
 -1      1698-1.38315E+00 1.19937E+00-5.29628E-01
 -1      1699-3.57800E+00 4.56164E+00-1.20252E+00
 -1      1700-3.12438E+00 3.45467E+00-1.01669E+00
 -1      1701-2.09240E+00 2.83962E+00-8.15109E-01
 -1      1702-4.45176E+00 7.21138E+00-1.64957E+00
 -1      1703-4.01801E+00 5.81923E+00-1.41408E+00
 -1      1704-2.75529E+00 5.06985E+00-1.19422E+00
 -1      1705-5.27640E+00 1.04015E+01-2.19163E+00
 -1      1706-4.86461E+00 8.73991E+00-1.90887E+00
 -1      1707-3.37092E+00 7.86430E+00-1.67046E+00
 -1      1708-6.09334E+00 1.40960E+01-2.82470E+00
 -1      1709-5.70053E+00 1.21793E+01-2.49683E+00
 -1      1710-3.98011E+00 1.11779E+01-2.24008E+00
 -1      1711-6.85210E+00 1.83032E+01-3.54664E+00
 -1      1712-6.48084E+00 1.61438E+01-3.17605E+00
 -1      1713-4.58051E+00 1.50072E+01-2.90167E+00
 -1      1714-7.56290E+00 2.29777E+01-4.35122E+00
 -1      1715-7.21342E+00 2.05892E+01-3.93975E+00
 -1      1716-5.12792E+00 1.93470E+01-3.65130E+00
 -1      1717-8.24239E+00 2.80760E+01-5.23072E+00
 -1      1718-7.91287E+00 2.54719E+01-4.78176E+00
 -1      1719-5.64947E+00 2.41343E+01-4.48086E+00
 -1      1720-8.86687E+00 3.35843E+01-6.18205E+00
 -1      1721-8.55792E+00 3.07786E+01-5.69754E+00
 -1      1722-6.13823E+00 2.93379E+01-5.38305E+00
 -1      1723-9.43677E+00 3.94806E+01-7.20165E+00
 -1      1724-9.14920E+00 3.64858E+01-6.68357E+00
 -1      1725-6.57010E+00 3.49482E+01-6.35596E+00
 -1      1726-9.98799E+00 4.57458E+01-8.28726E+00
 -1      1727-9.72088E+00 4.25752E+01-7.73777E+00
 -1      1728-6.97970E+00 4.09505E+01-7.39858E+00
 -1      1729-1.04879E+01 5.23443E+01-9.43122E+00
 -1      1730-1.02403E+01 4.90102E+01-8.85335E+00
 -1      1731-7.37148E+00 4.73163E+01-8.50618E+00
 -1      1732-1.09718E+01 5.92395E+01-1.06286E+01
 -1      1733-1.07433E+01 5.57550E+01-1.00236E+01
 -1      1734-7.74500E+00 5.39988E+01-9.66936E+00
 -1      1735-1.13950E+01 6.64114E+01-1.18745E+01
 -1      1736-1.11861E+01 6.27890E+01-1.12451E+01
 -1      1737-8.09269E+00 6.09663E+01-1.08835E+01
 -1      1738-1.17190E+01 7.38383E+01-1.31649E+01
 -1      1739-1.15295E+01 7.00908E+01-1.25135E+01
 -1      1740-8.32990E+00 6.82019E+01-1.21438E+01
 -1      1741-1.20704E+01 8.15065E+01-1.44992E+01
 -1      1742-1.18993E+01 7.76448E+01-1.38273E+01
 -1      1743-8.53938E+00 7.56940E+01-1.34495E+01
 -1      1744-1.23861E+01 8.93852E+01-1.58712E+01
 -1      1745-1.22329E+01 8.54210E+01-1.51808E+01
 -1      1746-8.78724E+00 8.34209E+01-1.47980E+01
 -1      1747-1.27282E+01 9.73417E+01-1.72579E+01
 -1      1748-1.25906E+01 9.32872E+01-1.65516E+01
 -1      1749-9.06973E+00 9.12435E+01-1.61648E+01
 -1      1750-1.29857E+01 1.05799E+02-1.87324E+01
 -1      1751-1.28647E+01 1.01662E+02-1.80113E+01
 -1      1752-9.33606E+00 9.94672E+01-1.76018E+01
 -1      1753-1.31356E+01 1.14065E+02-2.01742E+01
 -1      1754-1.30301E+01 1.09858E+02-1.94402E+01
 -1      1755-9.45048E+00 1.07856E+02-1.90674E+01
 -1      1756-1.33238E+01 1.22571E+02-2.16591E+01
 -1      1757-1.32334E+01 1.18303E+02-2.09141E+01
 -1      1758-9.53550E+00 1.16158E+02-2.05189E+01
 -1      1759-1.34840E+01 1.31184E+02-2.31637E+01
 -1      1760-1.34074E+01 1.26865E+02-2.24092E+01
 -1      1761-9.66665E+00 1.24696E+02-2.20126E+01
 -1      1762-1.36181E+01 1.39888E+02-2.46849E+01
 -1      1763-1.35543E+01 1.35526E+02-2.39225E+01
 -1      1764-9.77808E+00 1.33336E+02-2.35249E+01
 -1      1765-1.37278E+01 1.48665E+02-2.62203E+01
 -1      1766-1.36761E+01 1.44268E+02-2.54510E+01
 -1      1767-9.87089E+00 1.42062E+02-2.50530E+01
 -1      1768-1.38155E+01 1.57500E+02-2.77667E+01
 -1      1769-1.37743E+01 1.53076E+02-2.69924E+01
 -1      1770-9.94679E+00 1.50858E+02-2.65944E+01
 -1      1771-1.38834E+01 1.66381E+02-2.93221E+01
 -1      1772-1.38518E+01 1.61936E+02-2.85434E+01
 -1      1773-1.00068E+01 1.59708E+02-2.81457E+01
 -1      1774-1.39337E+01 1.75294E+02-3.08842E+01
 -1      1775-1.39106E+01 1.70834E+02-3.01025E+01
 -1      1776-1.00529E+01 1.68600E+02-2.97054E+01
 -1      1777-1.39687E+01 1.84230E+02-3.24515E+01
 -1      1778-1.39528E+01 1.79760E+02-3.16674E+01
 -1      1779-1.00867E+01 1.77522E+02-3.12709E+01
 -1      1780-1.39913E+01 1.93178E+02-3.40221E+01
 -1      1781-1.39814E+01 1.88703E+02-3.32365E+01
 -1      1782-1.01102E+01 1.86463E+02-3.28407E+01
 -1      1783-1.40252E+01 2.02151E+02-3.55983E+01
 -1      1784-1.40199E+01 1.97674E+02-3.48117E+01
 -1      1785-1.01461E+01 1.95433E+02-3.44167E+01
 -1      1786-1.39657E+01 2.11295E+02-3.72059E+01
 -1      1787-1.39636E+01 2.06818E+02-3.64188E+01
 -1      1788-1.01103E+01 2.04597E+02-3.60277E+01
 -1      1789-1.12815E+01 2.12915E+02-3.74908E+01
 -1      1790 9.77781E-01 1.14017E+02-2.00676E+01
 -1      1791 9.85189E-01 1.18259E+02-2.08154E+01
 -1      1792 9.91956E-01 1.22530E+02-2.15677E+01
 -1      1793 9.98620E-01 1.26827E+02-2.23253E+01
 -1      1794-2.54116E+00 1.20392E+02-2.12161E+01
 -1      1795 1.03148E+00 1.57482E+02-2.77261E+01
 -1      1796 1.03452E+00 1.61920E+02-2.85079E+01
 -1      1797 1.02422E+00 1.48641E+02-2.61686E+01
 -1      1798 1.02804E+00 1.53055E+02-2.69464E+01
 -1      1799-2.63868E+00 1.55268E+02-2.73474E+01
 -1      1800-6.38014E+00 1.79753E+02-3.16586E+01
 -1      1801-6.37109E+00 1.75286E+02-3.08738E+01
 -1      1802-6.36054E+00 1.70824E+02-3.00898E+01
 -1      1803-6.34806E+00 1.66370E+02-2.93075E+01
 -1      1804-2.66259E+00 1.73053E+02-3.04755E+01
 -1      1805 1.05153E+00 1.93163E+02-3.40113E+01
 -1      1806 1.12674E+00 1.97595E+02-3.47918E+01
 -1      1807 1.16693E+00 2.01846E+02-3.55404E+01
 -1      1808-2.63041E+00 1.99643E+02-3.51540E+01
 -1      1809 1.05028E+00 2.06558E+02-3.63704E+01
 -1      1810 9.49144E-01 9.73897E+01-1.71373E+01
 -1      1811 9.63076E-01 1.01491E+02-1.78605E+01
 -1      1812 9.51997E-01 9.33300E+01-1.64217E+01
 -1      1813-2.42527E+00 9.53563E+01-1.68169E+01
 -1      1814 9.31598E-01 8.93147E+01-1.57142E+01
 -1      1815-6.19671E+00 1.35500E+02-2.38885E+01
 -1      1816-6.16458E+00 1.31156E+02-2.31267E+01
 -1      1817-6.25256E+00 1.44247E+02-2.54233E+01
 -1      1818-6.22602E+00 1.39865E+02-2.46544E+01
 -1      1819-2.59945E+00 1.37675E+02-2.42541E+01
 -1      1820 8.69504E-01 7.37518E+01-1.29710E+01
 -1      1821 8.82759E-01 7.75623E+01-1.36432E+01
 -1      1822 8.95811E-01 8.14285E+01-1.43244E+01
 -1      1823 9.20160E-01 8.53472E+01-1.50153E+01
 -1      1824-2.29505E+00 7.94912E+01-1.40301E+01
 -1      1825-2.22196E+00 8.58469E+00-1.69774E+00
 -1      1826-2.03753E+00 7.05179E+00-1.43368E+00
 -1      1827-2.61782E+00 1.20313E+01-2.29649E+00
 -1      1828-2.40999E+00 1.02508E+01-1.98656E+00
 -1      1829-9.74305E-01 9.36790E+00-1.72983E+00
 -1      1830 5.04158E-01 1.81400E+01-3.16446E+00
 -1      1831 5.33971E-01 2.04211E+01-3.56740E+00
 -1      1832 4.48949E-01 1.39306E+01-2.42128E+00
 -1      1833 4.75564E-01 1.59761E+01-2.78301E+00
 -1      1834-1.28641E+00 1.70483E+01-3.07447E+00
 -1      1835 2.66633E-01 4.34935E+00-7.27746E-01
 -1      1836 2.95955E-01 5.60994E+00-9.51233E-01
 -1      1837 2.35001E-01 3.23573E+00-5.30571E-01
 -1      1838 2.08195E-01 2.27808E+00-3.58779E-01
 -1      1839-6.39014E-01 3.78034E+00-7.53340E-01
 -1      1840-4.48372E+00 4.24690E+01-7.60036E+00
 -1      1841-4.34994E+00 3.93709E+01-7.05930E+00
 -1      1842-4.22142E+00 3.63657E+01-6.53472E+00
 -1      1843-1.80954E+00 3.78347E+01-6.71871E+00
 -1      1844-4.09949E+00 3.34607E+01-6.02862E+00
 -1      1845 7.84161E-01 5.91743E+01-1.04020E+01
 -1      1846 8.11171E-01 6.27210E+01-1.10273E+01
 -1      1847 7.74434E-01 5.56636E+01-9.78332E+00
 -1      1848-2.12445E+00 5.74216E+01-1.01562E+01
 -1      1849 7.75681E-01 5.22505E+01-9.18044E+00
 -1      1850 5.63870E-01 2.28141E+01-3.98897E+00
 -1      1851 5.87106E-01 2.53171E+01-4.43055E+00
 -1      1852 5.92162E-01 2.79011E+01-4.88709E+00
 -1      1853 6.14482E-01 3.05974E+01-5.36309E+00
 -1      1854-1.56475E+00 2.65875E+01-4.74629E+00
 -1      1855-9.98502E-01 1.53568E+00-4.80817E-01
 -1      1856-7.65038E-01 8.57657E-01-3.57748E-01
 -1      1857-3.03882E-01 7.25950E-01-2.16288E-01
 -1      1858-6.01967E-01 4.68673E-01-2.85446E-01
 -1      1859-6.29778E-01 2.85159E-01-2.98049E-01
 -1      1860-3.19581E-01 1.76347E-01-1.70735E-01
 -1      1861-6.04978E+00 1.18268E+02-2.08663E+01
 -1      1862-6.00505E+00 1.14027E+02-2.01231E+01
 -1      1863-5.95671E+00 1.09817E+02-1.93849E+01
 -1      1864-5.97143E+00 1.05755E+02-1.86739E+01
 -1      1865-2.50383E+00 1.11909E+02-1.97253E+01
 -1      1866 1.04528E+00 1.84223E+02-3.24367E+01
 -1      1867 1.04676E+00 1.88697E+02-3.32248E+01
 -1      1868 1.04176E+00 1.75284E+02-3.08621E+01
 -1      1869 1.04375E+00 1.79751E+02-3.16492E+01
 -1      1870-2.66961E+00 1.81987E+02-3.20472E+01
 -1      1871-6.31868E+00 2.06579E+02-3.63756E+01
 -1      1872-6.38217E+00 2.01911E+02-3.55544E+01
 -1      1873-6.37529E+00 2.10035E+02-3.69836E+01
 -1      1874-2.64769E+00 2.07349E+02-3.65104E+01
 -1      1875-8.26334E+00 2.12475E+02-3.74132E+01
 -1      1876-4.59121E+00 2.13245E+02-3.75484E+01
 -1      1877-5.43914E+00 7.75791E+01-1.37382E+01
 -1      1878-5.35676E+00 7.37696E+01-1.30718E+01
 -1      1879-5.27022E+00 7.00182E+01-1.24151E+01
 -1      1880-5.24269E+00 6.63353E+01-1.17722E+01
 -1      1881-2.22588E+00 7.18710E+01-1.26917E+01
 -1      1882-6.41917E+00 1.97660E+02-3.48067E+01
 -1      1883-6.39450E+00 1.93164E+02-3.40161E+01
 -1      1884-6.39326E+00 1.88698E+02-3.32308E+01
 -1      1885-6.38741E+00 1.84224E+02-3.24444E+01
 -1      1886-2.67062E+00 1.90925E+02-3.36199E+01
 -1      1887-5.59161E+00 8.53621E+01-1.51009E+01
 -1      1888-5.51748E+00 8.14444E+01-1.44151E+01
 -1      1889-5.78962E+00 9.32338E+01-1.64801E+01
 -1      1890-5.66203E+00 8.93291E+01-1.57959E+01
 -1      1891-2.35669E+00 8.73270E+01-1.54064E+01
 -1      1892 7.01071E-01 3.93392E+01-6.90392E+00
 -1      1893 6.98029E-01 4.24425E+01-7.45242E+00
 -1      1894 7.19709E-01 4.56288E+01-8.01373E+00
 -1      1895 7.65868E-01 4.89051E+01-8.59056E+00
 -1      1896-1.90992E+00 4.40297E+01-7.80545E+00
 -1      1897-3.32190E+00 2.04557E+01-3.76131E+00
 -1      1898-3.15616E+00 1.81658E+01-3.36302E+00
 -1      1899-3.64661E+00 2.53456E+01-4.61335E+00
 -1      1900-3.47994E+00 2.28477E+01-4.17838E+00
 -1      1901-1.42023E+00 2.16075E+01-3.87302E+00
 -1      1902-4.71906E+00 4.89229E+01-8.72773E+00
 -1      1903-4.60556E+00 4.56545E+01-8.15738E+00
 -1      1904-4.84239E+00 5.22674E+01-9.31251E+00
 -1      1905-2.01588E+00 5.05637E+01-8.95203E+00
 -1      1906-4.96992E+00 5.56818E+01-9.90936E+00
 -1      1907-5.82541E-02 1.52239E-01-5.50384E-02
 -1      1908 2.14647E-01 2.21222E-01 5.51724E-02
 -1      1909 9.49294E-02 4.31379E-01-4.09492E-02
 -1      1910-8.98914E-01 2.13380E+02-3.75719E+01
 -1      1911 2.80015E+00 2.12589E+02-3.74322E+01
 -1      1912 9.94912E-01 2.10013E+02-3.69788E+01
 -1      1913-6.33342E+00 1.61923E+02-2.85262E+01
 -1      1914-6.31687E+00 1.57486E+02-2.77472E+01
 -1      1915-6.29797E+00 1.53059E+02-2.69700E+01
 -1      1916-6.27666E+00 1.48646E+02-2.61956E+01
 -1      1917 1.01522E+00 1.39859E+02-2.46212E+01
 -1      1918 1.02008E+00 1.44242E+02-2.53937E+01
 -1      1919 1.00464E+00 1.31149E+02-2.30867E+01
 -1      1920 1.01018E+00 1.35494E+02-2.38524E+01
 -1      1921 3.82769E-01 1.02120E+01-1.76571E+00
 -1      1922 4.24479E-01 1.20087E+01-2.08199E+00
 -1      1923 3.29220E-01 7.01086E+00-1.19882E+00
 -1      1924 3.51684E-01 8.54479E+00-1.47146E+00
 -1      1925-1.42671E+00 3.27741E+00-7.83006E-01
 -1      1926-1.20984E+00 2.30818E+00-6.15649E-01
 -1      1927-1.83805E+00 5.65207E+00-1.19164E+00
 -1      1928-1.63908E+00 4.39048E+00-9.75232E-01
 -1      1929-4.57653E-01 1.89263E+00-4.21820E-01
 -1      1930 1.79098E-01 1.50369E+00-2.20313E-01
 -1      1931 1.26757E-01 8.18547E-01-1.04186E-01
 -1      1932 9.85933E-01 1.05631E+02-1.85898E+01
 -1      1933 9.69218E-01 1.09807E+02-1.93260E+01
 -1      1934-2.47454E+00 1.03558E+02-1.82580E+01
 -1      1935-5.86648E+00 9.72917E+01-1.71911E+01
 -1      1936-5.92917E+00 1.01615E+02-1.79484E+01
 -1      1937 1.03731E+00 1.66367E+02-2.92913E+01
 -1      1938 1.03972E+00 1.70822E+02-3.00762E+01
 -1      1939-2.65221E+00 1.64142E+02-2.89082E+01
 -1      1940-6.12943E+00 1.26835E+02-2.23686E+01
 -1      1941-6.09120E+00 1.22538E+02-2.16153E+01
 -1      1942-2.57276E+00 1.28987E+02-2.27267E+01
 -1      1943 8.60072E-01 6.63121E+01-1.16596E+01
 -1      1944 8.54569E-01 7.00002E+01-1.23101E+01
 -1      1945-2.18370E+00 6.45269E+01-1.14031E+01
 -1      1946-5.08313E+00 5.91915E+01-1.05236E+01
 -1      1947-5.18073E+00 6.27453E+01-1.11446E+01
 -1      1948 6.43398E-01 3.34247E+01-5.86110E+00
 -1      1949 6.74200E-01 3.63332E+01-6.37448E+00
 -1      1950-1.70318E+00 3.19988E+01-5.69552E+00
 -1      1951-3.81667E+00 2.79290E+01-5.06453E+00
 -1      1952-3.96143E+00 3.06342E+01-5.53568E+00
 -1      1953-1.13358E+00 1.29595E+01-2.35826E+00
 -1      1954-2.98552E+00 1.60034E+01-2.98693E+00
 -1      1955-2.80482E+00 1.39520E+01-2.63077E+00
 -1      1956-8.12317E-01 6.29746E+00-1.19306E+00
 -1      1957-2.62131E+00 1.46440E+02-2.57953E+01
 -1      1958 9.60356E+00 1.20413E+02-2.12631E+01
 -1      1959 9.97865E+00 1.55277E+02-2.73687E+01
 -1      1960-4.74613E+00 1.73054E+02-3.04625E+01
 -1      1961 1.02783E+01 1.99800E+02-3.51840E+01
 -1      1962 9.15527E+00 9.53891E+01-1.68881E+01
 -1      1963-4.62813E+00 1.37678E+02-2.42180E+01
 -1      1964 8.66657E+00 7.95305E+01-1.41189E+01
 -1      1965-1.71456E+00 9.38367E+00-1.49685E+00
 -1      1966 4.79312E+00 1.71338E+01-3.26550E+00
 -1      1967 2.42983E+00 3.88677E+00-9.92983E-01
 -1      1968-3.14305E+00 3.78617E+01-6.55848E+00
 -1      1969-3.68659E+00 5.73504E+01-1.00121E+01
 -1      1970-2.72350E+00 2.66274E+01-4.56435E+00
 -1      1971-4.77079E-01 5.36297E-01 7.65577E-02
 -1      1972-4.45434E+00 1.11914E+02-1.96659E+01
 -1      1973 1.00994E+01 1.81991E+02-3.20552E+01
 -1      1974-4.69169E+00 2.09265E+02-3.68465E+01
 -1      1975-3.95424E+00 7.18790E+01-1.25846E+01
 -1      1976-4.77004E+00 1.90936E+02-3.36163E+01
 -1      1977-4.18921E+00 8.73331E+01-1.53195E+01
 -1      1978 7.08978E+00 4.40895E+01-7.94260E+00
 -1      1979 8.21316E+00 6.45162E+01-1.15016E+01
 -1      1980 6.26059E+00 3.21074E+01-5.85991E+00
 -1      1981 3.10769E-01 3.80092E-02-1.75128E-01
 -1      1982 6.26205E+00 2.15955E+02-3.80254E+01
 -1      1983-4.70085E+00 1.55270E+02-2.73242E+01
 -1      1984 9.82663E+00 1.37690E+02-2.42870E+01
 -1      1985-2.24823E+00 1.70634E+01-2.86500E+00
 -1      1986 3.66284E+00 9.46200E+00-1.94344E+00
 -1      1987-1.14777E+00 3.79411E+00-4.92078E-01
 -1      1988-8.22806E-01 1.85894E+00-1.45714E-01
 -1      1989 3.94124E-01 1.18692E+00-3.03696E-01
 -1      1990-4.81854E+00 1.99929E+02-3.52014E+01
 -1      1991 9.46185E+00 1.11934E+02-1.97799E+01
 -1      1992 9.34960E+00 1.03586E+02-1.83209E+01
 -1      1993 2.41015E+00 9.94372E+01-1.75335E+01
 -1      1994 1.00313E+01 1.64150E+02-2.89244E+01
 -1      1995 8.45463E+00 7.19130E+01-1.27904E+01
 -1      1996-4.57906E+00 1.28990E+02-2.26834E+01
 -1      1997-4.76026E+00 1.81988E+02-3.20385E+01
 -1      1998-4.72657E+00 1.64144E+02-2.88905E+01
 -1      1999 6.68996E+00 3.79163E+01-6.86912E+00
 -1      2000-3.33285E+00 4.40378E+01-7.65356E+00
 -1      2001-3.54481E+00 5.05488E+01-8.80587E+00
 -1      2002 2.08476E+00 5.38534E+01-9.53012E+00
 -1      2003 5.31247E+00 2.16902E+01-4.05395E+00
 -1      2004 5.80200E+00 2.66901E+01-4.92026E+00
 -1      2005 1.01182E+01 1.90938E+02-3.36267E+01
 -1      2006-3.87710E+00 6.44608E+01-1.12705E+01
 -1      2007-2.49338E+00 2.16230E+01-3.67580E+00
 -1      2008-4.07787E+00 7.94979E+01-1.39332E+01
 -1      2009 4.24353E+00 1.30495E+01-2.56081E+00
 -1      2010-1.44326E+00 6.31764E+00-9.45886E-01
 -1      2011 3.06919E+00 6.40228E+00-1.42039E+00
 -1      2012-1.98945E+00 1.29749E+01-2.13677E+00
 -1      2013 9.91073E+00 1.46453E+02-2.58221E+01
 -1      2014-2.94062E+00 3.20494E+01-5.52698E+00
 -1      2015 9.72483E+00 1.29005E+02-2.27665E+01
 -1      2016 8.92537E+00 8.73627E+01-1.54864E+01
 -1      2017 1.00712E+01 1.73059E+02-3.04872E+01
 -1      2018-4.66817E+00 1.46443E+02-2.57661E+01
 -1      2019-4.52154E+00 1.20396E+02-2.11651E+01
 -1      2020 5.59179E-01 2.74019E+00-5.73020E-01
 -1      2021 1.77674E+00 1.97815E+00-6.70902E-01
 -1      2022-5.61989E-02 2.38945E-02 2.36255E-02
 -1      2023-4.41177E+00 9.51417E+01-1.66988E+01
 -1      2024-4.50795E+00 1.03788E+02-1.82283E+01
 -1      2025 2.16061E+00 6.08708E+01-1.07613E+01
 -1      2026 7.57631E+00 5.05914E+01-9.07637E+00
 -1      2027 2.76298E+00 2.03894E+02-3.59023E+01
 -1      2028 2.68252E+00 1.95392E+02-3.44059E+01
 -1      2029 2.63037E+00 1.50847E+02-2.65700E+01
 -1      2030 2.61103E+00 1.42049E+02-2.50231E+01
 -1      2031 2.58661E+00 1.33320E+02-2.34886E+01
 -1      2032 2.67218E+00 1.86460E+02-3.28341E+01
 -1      2033 2.65794E+00 1.68594E+02-2.96913E+01
 -1      2034 2.32692E+00 8.33837E+01-1.47136E+01
 -1      2035 2.52321E+00 1.16136E+02-2.04681E+01
 -1      2036 2.21153E+00 6.81342E+01-1.20360E+01
 -1      2037 1.20173E+00 1.49438E+01-2.70540E+00
 -1      2038 1.05168E+00 1.11009E+01-2.03266E+00
 -1      2039 8.94309E-01 7.76720E+00-1.45002E+00
 -1      2040 7.28674E-01 4.96726E+00-9.61060E-01
 -1      2041 2.64586E+00 1.59700E+02-2.81270E+01
 -1      2042 1.34306E+00 1.92731E+01-3.46311E+00
 -1      2043 2.55754E+00 1.24677E+02-2.19691E+01
 -1      2044 1.71778E+00 3.48972E+01-6.20243E+00
 -1      2045 1.60074E+00 2.92756E+01-5.21676E+00
 -1      2046 1.47494E+00 2.40582E+01-4.30186E+00
 -1      2047 2.66630E+00 1.77518E+02-3.12609E+01
 -1      2048 1.82783E+00 4.08960E+01-7.25442E+00
 -1      2049 2.26167E+00 7.56528E+01-1.33563E+01
 -1      2050 2.38507E+00 9.13186E+01-1.61076E+01
 -1      2051 2.48308E+00 1.07717E+02-1.89885E+01
 -1      2052 7.93053E+00 5.74057E+01-1.02631E+01
 -1      2053 1.92844E+00 4.72449E+01-8.36864E+00
 -1      2054-1.12310E+00 2.15685E+02-3.79777E+01
 -1      2055 1.02092E+00 6.21825E-01-4.19237E-01
 -1      2056 1.00494E+01 2.09223E+02-3.68409E+01
 -1      2057 2.35827E-01 3.60883E-01-1.52238E-01
 -1      2058-3.41735E-01 5.47144E-02 1.95387E-01
 -1      2059 5.73020E-01 1.26826E-01-3.13453E-01
 -1      2060-7.15957E+00 2.16565E+02-3.81324E+01
 -1      2061 1.24724E+01 2.16610E+02-3.81407E+01
 -1      2062 2.65209E+00 2.10805E+02-3.71186E+01
 -1      2063 3.51391E-01 7.02436E-02-2.38304E-01
 -1      2064 2.58467E-01-1.92621E-03-1.92374E-01
 -1      2065 9.05237E-01 3.03376E-01-4.19831E-01
 -1      2066-1.44020E-01-3.08222E-02 1.17231E-01
 -1      2067-2.39687E-01 1.64379E-02 1.78595E-01
 -1      2068-5.98344E-01 1.86810E-01 2.81740E-01
 -1      2069 1.13765E+01 2.19442E+02-3.86389E+01
 -1      2070 1.51790E+01 2.19442E+02-3.86390E+01
 -1      2071 1.51785E+01 2.14968E+02-3.78517E+01
 -1      2072-9.84482E+00 2.19419E+02-3.86352E+01
 -1      2073-6.04229E+00 2.19419E+02-3.86353E+01
 -1      2074-9.84439E+00 2.14945E+02-3.78467E+01
 -1      2075 1.91315E-01-2.74584E-02-1.38662E-01
 -1      2076 1.11067E-01-5.79729E-02-7.71291E-02
 -1      2077 4.45918E-01 7.25219E-02-2.52435E-01
 -1      2078 1.37264E-02-5.97950E-02-3.35651E-03
 -1      2079-8.12458E-02-5.37613E-02 6.92517E-02
 -1      2080 1.30819E-01 1.88827E-02-8.00947E-02
 -1      2081-2.09628E-01 2.88826E-02 1.14242E-01
 -1      2082 4.47002E+00 2.19114E+02-3.85815E+01
 -1      2083 8.27129E+00 2.19114E+02-3.85814E+01
 -1      2084 9.36697E+00 2.16283E+02-3.80831E+01
 -1      2085-3.02396E+00 2.18979E+02-3.85579E+01
 -1      2086 7.77366E-01 2.18979E+02-3.85578E+01
 -1      2087 2.56954E+00 2.15820E+02-3.80016E+01
 -1      2088-4.14109E+00 2.16125E+02-3.80550E+01
 -1      2089 1.68800E+00 1.01598E+00-5.91651E-01
 -1      2090 1.21461E+00 5.32329E-01-4.84327E-01
 -1      2091 8.31380E-01 3.20042E-01-3.76265E-01
 -1      2092 2.67218E+00 2.50427E+00-8.57313E-01
 -1      2093 2.20152E+00 1.69636E+00-7.18607E-01
 -1      2094 1.39699E+00 1.21380E+00-5.33297E-01
 -1      2095 3.57710E+00 4.56421E+00-1.20253E+00
 -1      2096 3.12334E+00 3.45689E+00-1.01673E+00
 -1      2097 2.10760E+00 2.85845E+00-8.19580E-01
 -1      2098 4.45132E+00 7.21209E+00-1.64943E+00
 -1      2099 4.01836E+00 5.82021E+00-1.41373E+00
 -1      2100 2.75351E+00 5.07279E+00-1.19425E+00
 -1      2101 5.27666E+00 1.04016E+01-2.19150E+00
 -1      2102 4.86473E+00 8.74026E+00-1.90878E+00
 -1      2103 3.37077E+00 7.86463E+00-1.67050E+00
 -1      2104 6.06784E+00 1.41111E+01-2.82574E+00
 -1      2105 5.67783E+00 1.21934E+01-2.49748E+00
 -1      2106 3.95691E+00 1.11918E+01-2.24086E+00
 -1      2107 6.81750E+00 1.83115E+01-3.54650E+00
 -1      2108 6.44790E+00 1.61517E+01-3.17595E+00
 -1      2109 4.52222E+00 1.50310E+01-2.90280E+00
 -1      2110 7.52455E+00 2.29761E+01-4.34947E+00
 -1      2111 7.17667E+00 2.05877E+01-3.93808E+00
 -1      2112 5.05651E+00 1.93549E+01-3.64952E+00
 -1      2113 8.18967E+00 2.80787E+01-5.22954E+00
 -1      2114 7.86219E+00 2.54741E+01-4.78024E+00
 -1      2115 5.56112E+00 2.41363E+01-4.47771E+00
 -1      2116 8.81417E+00 3.35917E+01-6.18181E+00
 -1      2117 8.50701E+00 3.07857E+01-5.69720E+00
 -1      2118 6.03513E+00 2.93483E+01-5.38154E+00
 -1      2119 9.39721E+00 3.94896E+01-7.20214E+00
 -1      2120 9.11091E+00 3.64944E+01-6.68398E+00
 -1      2121 6.47893E+00 3.49648E+01-6.35622E+00
 -1      2122 9.93954E+00 4.57448E+01-8.28597E+00
 -1      2123 9.67377E+00 4.25742E+01-7.73646E+00
 -1      2124 6.89340E+00 4.09590E+01-7.39789E+00
 -1      2125 1.05009E+01 5.23283E+01-9.42877E+00
 -1      2126 1.02527E+01 4.89945E+01-8.85063E+00
 -1      2127 7.33532E+00 4.73000E+01-8.50245E+00
 -1      2128 1.09702E+01 5.92178E+01-1.06244E+01
 -1      2129 1.07418E+01 5.57340E+01-1.00199E+01
 -1      2130 7.75679E+00 5.39612E+01-9.66323E+00
 -1      2131 1.13791E+01 6.63934E+01-1.18709E+01
 -1      2132 1.11706E+01 6.27715E+01-1.12416E+01
 -1      2133 8.07564E+00 6.09265E+01-1.08760E+01
 -1      2134 1.17435E+01 7.38379E+01-1.31650E+01
 -1      2135 1.15536E+01 7.00902E+01-1.25134E+01
 -1      2136 8.33778E+00 6.81832E+01-1.21404E+01
 -1      2137 1.20704E+01 8.15067E+01-1.44991E+01
 -1      2138 1.18992E+01 7.76450E+01-1.38271E+01
 -1      2139 8.56415E+00 7.56934E+01-1.34496E+01
 -1      2140 1.23983E+01 8.93854E+01-1.58711E+01
 -1      2141 1.22446E+01 8.54213E+01-1.51808E+01
 -1      2142 8.79886E+00 8.34212E+01-1.47981E+01
 -1      2143 1.26897E+01 9.74526E+01-1.72766E+01
 -1      2144 1.25529E+01 9.33970E+01-1.65700E+01
 -1      2145 9.04313E+00 9.13529E+01-1.61834E+01
 -1      2146 1.29434E+01 1.05686E+02-1.87124E+01
 -1      2147 1.28223E+01 1.01550E+02-1.79911E+01
 -1      2148 9.25525E+00 9.94671E+01-1.76010E+01
 -1      2149 1.31356E+01 1.14065E+02-2.01740E+01
 -1      2150 1.30304E+01 1.09858E+02-1.94400E+01
 -1      2151 9.40864E+00 1.07742E+02-1.90471E+01
 -1      2152 1.33238E+01 1.22571E+02-2.16589E+01
 -1      2153 1.32333E+01 1.18303E+02-2.09139E+01
 -1      2154 9.53526E+00 1.16158E+02-2.05188E+01
 -1      2155 1.34837E+01 1.31184E+02-2.31634E+01
 -1      2156 1.34072E+01 1.26865E+02-2.24090E+01
 -1      2157 9.66659E+00 1.24696E+02-2.20125E+01
 -1      2158 1.36180E+01 1.39888E+02-2.46847E+01
 -1      2159 1.35540E+01 1.35526E+02-2.39223E+01
 -1      2160 9.77816E+00 1.33337E+02-2.35248E+01
 -1      2161 1.37278E+01 1.48665E+02-2.62200E+01
 -1      2162 1.36761E+01 1.44268E+02-2.54508E+01
 -1      2163 9.87077E+00 1.42063E+02-2.50529E+01
 -1      2164 1.38154E+01 1.57501E+02-2.77665E+01
 -1      2165 1.37741E+01 1.53076E+02-2.69921E+01
 -1      2166 9.94667E+00 1.50858E+02-2.65941E+01
 -1      2167 1.38835E+01 1.66381E+02-2.93218E+01
 -1      2168 1.38517E+01 1.61936E+02-2.85432E+01
 -1      2169 1.00068E+01 1.59709E+02-2.81456E+01
 -1      2170 1.39336E+01 1.75295E+02-3.08840E+01
 -1      2171 1.39107E+01 1.70835E+02-3.01022E+01
 -1      2172 1.00528E+01 1.68601E+02-2.97051E+01
 -1      2173 1.39687E+01 1.84230E+02-3.24512E+01
 -1      2174 1.39528E+01 1.79760E+02-3.16672E+01
 -1      2175 1.00867E+01 1.77522E+02-3.12709E+01
 -1      2176 1.39913E+01 1.93179E+02-3.40218E+01
 -1      2177 1.39815E+01 1.88703E+02-3.32362E+01
 -1      2178 1.01099E+01 1.86463E+02-3.28405E+01
 -1      2179 1.40784E+01 2.02086E+02-3.55866E+01
 -1      2180 1.40730E+01 1.97609E+02-3.48001E+01
 -1      2181 1.01990E+01 1.95369E+02-3.44052E+01
 -1      2182 1.39667E+01 2.11274E+02-3.72019E+01
 -1      2183 1.39646E+01 2.06797E+02-3.64147E+01
 -1      2184 1.01645E+01 2.04511E+02-3.60123E+01
 -1      2185 1.12611E+01 2.12917E+02-3.74908E+01
 -1      2186-7.52970E-01 4.07675E-01 2.39791E-01
 -1      2187-1.03832E+00 8.79727E-01 1.74739E-01
 -1      2188-4.45066E-01 2.35985E-01 1.62222E-01
 -1      2189-1.34761E+00 1.54548E+00 6.64686E-02
 -1      2190-1.63541E+00 2.35212E+00-7.91094E-02
 -1      2191-6.48374E-01 1.11105E+00-1.59418E-02
 -1      2192-1.92632E+00 3.32066E+00-2.54782E-01
 -1      2193-2.20746E+00 4.43060E+00-4.57743E-01
 -1      2194-9.86222E-01 2.74987E+00-3.04396E-01
 -1      2195-2.47702E+00 5.69180E+00-6.88137E-01
 -1      2196-2.74475E+00 7.08711E+00-9.41786E-01
 -1      2197-1.29795E+00 4.98391E+00-7.06288E-01
 -1      2198-2.99620E+00 8.61917E+00-1.22033E+00
 -1      2199-3.25097E+00 1.02842E+01-1.52148E+00
 -1      2200-1.58197E+00 7.78345E+00-1.20973E+00
 -1      2201-3.49955E+00 1.20787E+01-1.84479E+00
 -1      2202-3.73983E+00 1.39990E+01-2.19028E+00
 -1      2203-1.85347E+00 1.11154E+01-1.80580E+00
 -1      2204-3.97455E+00 1.60425E+01-2.55740E+00
 -1      2205-4.20270E+00 1.82058E+01-2.94618E+00
 -1      2206-2.12096E+00 1.49580E+01-2.48981E+00
 -1      2207-4.42477E+00 2.04848E+01-3.35486E+00
 -1      2208-4.64077E+00 2.28762E+01-3.78338E+00
 -1      2209-2.37284E+00 1.92860E+01-3.26011E+00
 -1      2210-4.84890E+00 2.53775E+01-4.23087E+00
 -1      2211-5.05125E+00 2.79848E+01-4.69781E+00
 -1      2212-2.61011E+00 2.40713E+01-4.11030E+00
 -1      2213-5.24713E+00 3.06950E+01-5.18224E+00
 -1      2214-5.43640E+00 3.35044E+01-5.68440E+00
 -1      2215-2.83382E+00 2.92878E+01-5.03693E+00
 -1      2216-5.61983E+00 3.64097E+01-6.20316E+00
 -1      2217-5.79684E+00 3.94079E+01-6.73878E+00
 -1      2218-3.04397E+00 3.49081E+01-6.03424E+00
 -1      2219-5.96756E+00 4.24953E+01-7.28922E+00
 -1      2220-6.13303E+00 4.56687E+01-7.85500E+00
 -1      2221-3.24003E+00 4.09063E+01-7.09856E+00
 -1      2222-6.30957E+00 4.89233E+01-8.43429E+00
 -1      2223-6.46210E+00 5.22603E+01-9.02923E+00
 -1      2224-3.43989E+00 4.72527E+01-8.22239E+00
 -1      2225-6.59727E+00 5.56604E+01-9.63514E+00
 -1      2226-6.73812E+00 5.91472E+01-1.02561E+01
 -1      2227-3.61796E+00 5.39126E+01-9.40266E+00
 -1      2228-6.89337E+00 6.27021E+01-1.08883E+01
 -1      2229-7.02247E+00 6.63267E+01-1.15336E+01
 -1      2230-3.78308E+00 6.08713E+01-1.06351E+01
 -1      2231-7.11600E+00 7.00349E+01-1.21936E+01
 -1      2232-7.23226E+00 7.37850E+01-1.28604E+01
 -1      2233-3.91770E+00 6.81382E+01-1.19222E+01
 -1      2234-7.34335E+00 7.75937E+01-1.35375E+01
 -1      2235-7.44923E+00 8.14585E+01-1.42243E+01
 -1      2236-4.01781E+00 7.56600E+01-1.32540E+01
 -1      2237-7.54985E+00 8.53752E+01-1.49202E+01
 -1      2238-7.64492E+00 8.93418E+01-1.56247E+01
 -1      2239-4.13525E+00 8.33899E+01-1.46218E+01
 -1      2240-7.79543E+00 9.32461E+01-1.63169E+01
 -1      2241-7.88087E+00 9.73029E+01-1.70377E+01
 -1      2242-4.30142E+00 9.12155E+01-1.60050E+01
 -1      2243-7.96535E+00 1.01626E+02-1.78048E+01
 -1      2244-8.04089E+00 1.05765E+02-1.85395E+01
 -1      2245-4.46184E+00 9.94426E+01-1.74597E+01
 -1      2246-8.04392E+00 1.09827E+02-1.92607E+01
 -1      2247-8.10856E+00 1.14036E+02-2.00071E+01
 -1      2248-4.48287E+00 1.07835E+02-1.89443E+01
 -1      2249-8.16920E+00 1.18276E+02-2.07588E+01
 -1      2250-8.22561E+00 1.22546E+02-2.15159E+01
 -1      2251-4.48947E+00 1.16140E+02-2.04127E+01
 -1      2252-8.27713E+00 1.26842E+02-2.22771E+01
 -1      2253-8.32467E+00 1.31163E+02-2.30430E+01
 -1      2254-4.55153E+00 1.24680E+02-2.19219E+01
 -1      2255-8.36853E+00 1.35507E+02-2.38122E+01
 -1      2256-8.40783E+00 1.39870E+02-2.45850E+01
 -1      2257-4.60475E+00 1.33323E+02-2.34489E+01
 -1      2258-8.44376E+00 1.44252E+02-2.53607E+01
 -1      2259-8.47633E+00 1.48651E+02-2.61394E+01
 -1      2260-4.64939E+00 1.42052E+02-2.49904E+01
 -1      2261-8.50535E+00 1.53064E+02-2.69202E+01
 -1      2262-8.53102E+00 1.57490E+02-2.77033E+01
 -1      2263-4.68549E+00 1.50849E+02-2.65439E+01
 -1      2264-8.55382E+00 1.61927E+02-2.84879E+01
 -1      2265-8.57351E+00 1.66373E+02-2.92741E+01
 -1      2266-4.71451E+00 1.59702E+02-2.81066E+01
 -1      2267-8.59052E+00 1.70827E+02-3.00614E+01
 -1      2268-8.60478E+00 1.75289E+02-3.08498E+01
 -1      2269-4.73708E+00 1.68596E+02-2.96759E+01
 -1      2270-8.61694E+00 1.79755E+02-3.16388E+01
 -1      2271-8.62714E+00 1.84226E+02-3.24285E+01
 -1      2272-4.75395E+00 1.77519E+02-3.12501E+01
 -1      2273-8.63534E+00 1.88700E+02-3.32183E+01
 -1      2274-8.64168E+00 1.93176E+02-3.40084E+01
 -1      2275-4.76567E+00 1.86461E+02-3.28272E+01
 -1      2276-8.66774E+00 1.97672E+02-3.48016E+01
 -1      2277-8.67129E+00 2.02150E+02-3.55914E+01
 -1      2278-4.79469E+00 1.95432E+02-3.44088E+01
 -1      2279-8.60860E+00 2.06818E+02-3.64145E+01
 -1      2280-8.61012E+00 2.11295E+02-3.72037E+01
 -1      2281-4.75543E+00 2.04597E+02-3.60241E+01
 -1      2282-5.92571E+00 2.12915E+02-3.74895E+01
 -1      2283 6.04967E+00 1.18268E+02-2.08664E+01
 -1      2284 6.00490E+00 1.14027E+02-2.01231E+01
 -1      2285 6.12938E+00 1.26835E+02-2.23686E+01
 -1      2286 6.09102E+00 1.22538E+02-2.16153E+01
 -1      2287 2.54100E+00 1.20392E+02-2.12162E+01
 -1      2288 6.33331E+00 1.61923E+02-2.85262E+01
 -1      2289 6.31679E+00 1.57486E+02-2.77472E+01
 -1      2290 6.29790E+00 1.53059E+02-2.69700E+01
 -1      2291 6.27653E+00 1.48646E+02-2.61956E+01
 -1      2292 2.63861E+00 1.55268E+02-2.73475E+01
 -1      2293-1.04192E+00 1.75284E+02-3.08622E+01
 -1      2294-1.04391E+00 1.79752E+02-3.16492E+01
 -1      2295-1.03739E+00 1.66367E+02-2.92914E+01
 -1      2296-1.03983E+00 1.70822E+02-3.00763E+01
 -1      2297 2.66246E+00 1.73053E+02-3.04755E+01
 -1      2298 6.47916E+00 1.97596E+02-3.47952E+01
 -1      2299 6.40123E+00 1.93164E+02-3.40160E+01
 -1      2300 2.72288E+00 1.99643E+02-3.51541E+01
 -1      2301 6.52100E+00 2.01847E+02-3.55430E+01
 -1      2302 6.40550E+00 2.06558E+02-3.63718E+01
 -1      2303 5.86199E+00 1.01503E+02-1.79279E+01
 -1      2304 5.79943E+00 9.74028E+01-1.72099E+01
 -1      2305 2.39853E+00 9.53564E+01-1.68168E+01
 -1      2306 5.74979E+00 9.33440E+01-1.64989E+01
 -1      2307 5.67372E+00 8.93295E+01-1.57958E+01
 -1      2308-1.00474E+00 1.31150E+02-2.30867E+01
 -1      2309-1.01025E+00 1.35494E+02-2.38525E+01
 -1      2310-1.01527E+00 1.39859E+02-2.46212E+01
 -1      2311-1.02014E+00 1.44242E+02-2.53938E+01
 -1      2312 2.59936E+00 1.37675E+02-2.42540E+01
 -1      2313 5.43908E+00 7.75793E+01-1.37382E+01
 -1      2314 5.38132E+00 7.37690E+01-1.30720E+01
 -1      2315 5.60359E+00 8.53623E+01-1.51009E+01
 -1      2316 5.51746E+00 8.14445E+01-1.44151E+01
 -1      2317 2.29489E+00 7.94913E+01-1.40301E+01
 -1      2318-3.29316E-01 7.01082E+00-1.19881E+00
 -1      2319-3.52430E-01 8.54511E+00-1.47158E+00
 -1      2320-3.83011E-01 1.02125E+01-1.76578E+00
 -1      2321-4.13384E-01 1.20088E+01-2.08294E+00
 -1      2322 9.73967E-01 9.36840E+00-1.72975E+00
 -1      2323 3.27865E+00 2.04563E+01-3.75945E+00
 -1      2324 3.11461E+00 1.81764E+01-3.36272E+00
 -1      2325 2.94598E+00 1.60120E+01-2.98630E+00
 -1      2326 2.77194E+00 1.39679E+01-2.63146E+00
 -1      2327 1.27308E+00 1.70497E+01-3.07391E+00
 -1      2328 1.83799E+00 5.65288E+00-1.19170E+00
 -1      2329 1.63760E+00 4.39340E+00-9.75293E-01
 -1      2330 1.22778E+00 2.32373E+00-6.20920E-01
 -1      2331 1.43113E+00 3.28009E+00-7.83736E-01
 -1      2332 6.45125E-01 3.78124E+00-7.54314E-01
 -1      2333-6.93364E-01 3.93581E+01-6.90751E+00
 -1      2334-7.14764E-01 4.24476E+01-7.45284E+00
 -1      2335-6.49540E-01 3.34510E+01-5.86554E+00
 -1      2336-6.71449E-01 3.63582E+01-6.37891E+00
 -1      2337 1.77363E+00 3.78509E+01-6.72040E+00
 -1      2338-7.59894E-01 5.21834E+01-9.16898E+00
 -1      2339-7.67278E-01 5.55847E+01-9.76958E+00
 -1      2340 2.12363E+00 5.73257E+01-1.01394E+01
 -1      2341-7.90792E-01 5.90941E+01-1.03878E+01
 -1      2342-8.27260E-01 6.26502E+01-1.10145E+01
 -1      2343-5.52202E-01 2.28155E+01-3.98981E+00
 -1      2344-5.77430E-01 2.53185E+01-4.43126E+00
 -1      2345-6.01976E-01 2.79278E+01-4.89142E+00
 -1      2346-6.26132E-01 3.06397E+01-5.37013E+00
 -1      2347 1.53872E+00 2.66147E+01-4.75000E+00
 -1      2348-1.14655E-01 8.16045E-01-1.07840E-01
 -1      2349-1.55225E-01 1.49102E+00-2.23869E-01
 -1      2350-9.56297E-02 4.29702E-01-4.05842E-02
 -1      2351 3.13614E-01 7.25906E-01-2.19746E-01
 -1      2352 5.41047E-02 1.59541E-01-5.47132E-02
 -1      2353-2.23785E-01 2.30698E-01 5.70436E-02
 -1      2354-9.77569E-01 1.14017E+02-2.00678E+01
 -1      2355-9.85162E-01 1.18259E+02-2.08155E+01
 -1      2356-1.02545E+00 1.05744E+02-1.86094E+01
 -1      2357-9.69136E-01 1.09807E+02-1.93261E+01
 -1      2358 2.50372E+00 1.11909E+02-1.97253E+01
 -1      2359 6.39315E+00 1.88699E+02-3.32307E+01
 -1      2360 6.38723E+00 1.84224E+02-3.24443E+01
 -1      2361 6.38005E+00 1.79753E+02-3.16585E+01
 -1      2362 6.37105E+00 1.75286E+02-3.08737E+01
 -1      2363 2.66952E+00 1.81987E+02-3.20472E+01
 -1      2364-1.02798E+00 2.01911E+02-3.55520E+01
 -1      2365-9.63475E-01 2.06580E+02-3.63742E+01
 -1      2366 2.70761E+00 2.07350E+02-3.65104E+01
 -1      2367-1.01964E+00 2.10035E+02-3.69826E+01
 -1      2368-2.90755E+00 2.12475E+02-3.74123E+01
 -1      2369 7.64640E-01 2.13245E+02-3.75481E+01
 -1      2370-8.58108E-01 6.62824E+01-1.16544E+01
 -1      2371-8.42970E-01 6.99925E+01-1.23089E+01
 -1      2372-8.69424E-01 7.37520E+01-1.29711E+01
 -1      2373-8.82912E-01 7.75626E+01-1.36433E+01
 -1      2374 2.23744E+00 7.18633E+01-1.26905E+01
 -1      2375-1.04441E+00 1.93164E+02-3.40114E+01
 -1      2376-1.06661E+00 1.97660E+02-3.48034E+01
 -1      2377-1.04539E+00 1.84223E+02-3.24367E+01
 -1      2378-1.04676E+00 1.88698E+02-3.32249E+01
 -1      2379 2.67757E+00 1.90925E+02-3.36199E+01
 -1      2380-8.95995E-01 8.14286E+01-1.43244E+01
 -1      2381-9.08771E-01 8.53474E+01-1.50156E+01
 -1      2382-9.19817E-01 8.93150E+01-1.57144E+01
 -1      2383-9.93275E-01 9.32204E+01-1.64020E+01
 -1      2384 2.35664E+00 8.73276E+01-1.54064E+01
 -1      2385 4.42072E+00 4.24735E+01-7.59948E+00
 -1      2386 4.29445E+00 3.93851E+01-7.06019E+00
 -1      2387 4.71690E+00 4.89001E+01-8.72361E+00
 -1      2388 4.54279E+00 4.56473E+01-8.15457E+00
 -1      2389 1.87885E+00 4.40282E+01-7.80433E+00
 -1      2390 5.30578E+00 7.00099E+01-1.24140E+01
 -1      2391 5.23811E+00 6.63097E+01-1.17675E+01
 -1      2392 2.18709E+00 6.44696E+01-1.13930E+01
 -1      2393 5.15653E+00 6.26783E+01-1.11323E+01
 -1      2394 5.07398E+00 5.91213E+01-1.05109E+01
 -1      2395 4.16334E+00 3.63860E+01-6.53648E+00
 -1      2396 4.02781E+00 3.34797E+01-6.02960E+00
 -1      2397 3.88767E+00 3.06693E+01-5.53920E+00
 -1      2398 3.74232E+00 2.79588E+01-5.06700E+00
 -1      2399 1.66008E+00 3.20375E+01-5.70073E+00
 -1      2400 3.08721E-01 1.67527E-01-1.66297E-01
 -1      2401 6.02182E-01 4.70446E-01-2.85630E-01
 -1      2402 6.15138E-01 2.74375E-01-2.92054E-01
 -1      2403 4.45696E+00 2.13380E+02-3.75721E+01
 -1      2404 8.15598E+00 2.12589E+02-3.74331E+01
 -1      2405 6.35058E+00 2.10014E+02-3.69797E+01
 -1      2406-1.03155E+00 1.57482E+02-2.77262E+01
 -1      2407-1.03461E+00 1.61920E+02-2.85080E+01
 -1      2408-1.02429E+00 1.48641E+02-2.61687E+01
 -1      2409-1.02811E+00 1.53055E+02-2.69465E+01
 -1      2410 6.25246E+00 1.44248E+02-2.54233E+01
 -1      2411 6.22593E+00 1.39865E+02-2.46542E+01
 -1      2412 6.19653E+00 1.35501E+02-2.38884E+01
 -1      2413 6.16465E+00 1.31157E+02-2.31267E+01
 -1      2414-4.99200E-01 1.81415E+01-3.16501E+00
 -1      2415-5.26450E-01 2.04227E+01-3.56810E+00
 -1      2416-4.43530E-01 1.39305E+01-2.42159E+00
 -1      2417-4.71452E-01 1.59762E+01-2.78323E+00
 -1      2418 2.59296E+00 1.20465E+01-2.29746E+00
 -1      2419 2.40972E+00 1.02510E+01-1.98625E+00
 -1      2420 2.22180E+00 8.58469E+00-1.69763E+00
 -1      2421 2.03736E+00 7.05250E+00-1.43372E+00
 -1      2422-1.93085E-01 2.26342E+00-3.59261E-01
 -1      2423-2.30266E-01 3.23337E+00-5.30706E-01
 -1      2424-2.67738E-01 4.34722E+00-7.27389E-01
 -1      2425-2.95849E-01 5.61011E+00-9.51576E-01
 -1      2426 4.78611E-01 1.89333E+00-4.26295E-01
 -1      2427 1.02530E+00 1.54987E+00-4.88199E-01
 -1      2428 7.77898E-01 8.61166E-01-3.62137E-01
 -1      2429 5.95654E+00 1.09818E+02-1.93850E+01
 -1      2430 5.93072E+00 1.05642E+02-1.86535E+01
 -1      2431 2.44724E+00 1.03558E+02-1.82577E+01
 -1      2432-1.02910E+00 1.01603E+02-1.78797E+01
 -1      2433-1.01812E+00 9.72789E+01-1.71170E+01
 -1      2434 6.36037E+00 1.70825E+02-3.00898E+01
 -1      2435 6.34780E+00 1.66370E+02-2.93073E+01
 -1      2436 2.65222E+00 1.64143E+02-2.89082E+01
 -1      2437-9.92021E-01 1.22530E+02-2.15678E+01
 -1      2438-9.98669E-01 1.26828E+02-2.23253E+01
 -1      2439 2.57265E+00 1.28987E+02-2.27268E+01
 -1      2440-7.34296E-01 4.56223E+01-8.01214E+00
 -1      2441-7.72130E-01 4.88785E+01-8.58566E+00
 -1      2442 2.00671E+00 5.05108E+01-8.94252E+00
 -1      2443 4.97443E+00 5.56128E+01-9.89748E+00
 -1      2444 4.86060E+00 5.22044E+01-9.30197E+00
 -1      2445 3.59280E+00 2.53504E+01-4.61203E+00
 -1      2446 3.43827E+00 2.28483E+01-4.17671E+00
 -1      2447 1.40976E+00 2.16102E+01-3.87299E+00
 -1      2448 1.12740E+00 1.29595E+01-2.35800E+00
 -1      2449 8.12562E-01 6.29773E+00-1.19318E+00
 -1      2450 2.62123E+00 1.46440E+02-2.57953E+01
 -1      2451-4.88194E-02 9.12681E-01-1.59748E-01
 -1      2452-4.60254E-01 2.07697E+02-3.65710E+01
 -1      2453-1.41234E-05 1.90931E+02-3.36188E+01
 -1      2454-4.90700E-04 4.02783E+00-7.08748E-01
 -1      2455 2.78157E-04 2.18027E+01-3.83795E+00
 -1      2456-2.96414E-04 1.64160E+02-2.89053E+01
 -1      2457-5.26907E-05 1.46470E+02-2.57898E+01
 -1      2458-2.66246E-04 1.29029E+02-2.27191E+01
 -1      2459 2.72552E-04 1.11968E+02-1.97154E+01
 -1      2460-2.11920E-04 8.74120E+01-1.53908E+01
 -1      2461-6.67488E-06 4.41754E+01-7.77733E+00
 -1      2462-1.00319E-04 1.31764E+01-2.32046E+00
 -1      2463-1.87824E-03 7.19767E+01-1.26741E+01
 -1      2464 3.55728E-03 3.22073E+01-5.67098E+00
 -1      2465-1.82320E-03 5.74507E+01-1.01155E+01
 -1      2466 1.79906E+00 9.95087E+01-1.75230E+01
 -1      2467 1.97566E+00 1.77523E+02-3.12583E+01
 -1      2468 6.48214E-01 7.99509E+00-1.41328E+00
 -1      2469 4.64315E+00 2.12714E+02-3.74542E+01
 -1      2470 3.28229E-01 3.83183E-01-4.76224E-03
 -1      2471 7.03127E+00 2.12962E+02-3.74982E+01
 -1      2472-4.57092E-01 3.89449E-01-1.31372E-01
 -1      2473-3.05988E+00 2.68034E+01-4.75158E+00
 -1      2474 1.77148E+00 1.72470E+01-3.00105E+00
 -1      2475-5.28112E+00 1.55291E+02-2.73475E+01
 -1      2476 5.28108E+00 1.55292E+02-2.73474E+01
 -1      2477-3.56089E+00 1.20441E+02-2.11983E+01
 -1      2478-3.64408E+00 1.37710E+02-2.42416E+01
 -1      2479 3.64390E+00 1.37709E+02-2.42415E+01
 -1      2480 3.56051E+00 1.20441E+02-2.11982E+01
 -1      2481-1.77523E+00 1.72477E+01-3.00134E+00
 -1      2482 3.21175E+00 7.95817E+01-1.39961E+01
 -1      2483-4.28713E+00 6.45846E+01-1.13922E+01
 -1      2484 3.97494E+00 5.06623E+01-8.94479E+00
 -1      2485-3.21255E+00 7.95843E+01-1.39966E+01
 -1      2486-2.47960E+00 3.80038E+01-6.66406E+00
 -1      2487 3.06938E+00 2.68011E+01-4.75077E+00
 -1      2488 4.29912E+00 6.45846E+01-1.13920E+01
 -1      2489 2.47138E+00 3.80036E+01-6.66400E+00
 -1      2490-3.95824E+00 5.06619E+01-8.94474E+00
 -1      2491 4.63784E-01 3.97574E-01-1.33885E-01
 -1      2492-6.93223E+00 2.13007E+02-3.75062E+01
 -1      2493-5.71589E+00 1.82784E+02-3.21861E+01
 -1      2494-2.10719E+00 9.90777E+00-1.78979E+00
 -1      2495 6.56344E-01 2.14557E+00-3.30032E-01
 -1      2496 3.82305E+00 1.99643E+02-3.51522E+01
 -1      2497-3.27031E-01 3.53791E-01 5.72867E-03
 -1      2498-5.74450E+00 1.72168E+02-3.03178E+01
 -1      2499-1.70100E+00 6.27397E+00-1.15380E+00
 -1      2500-5.17666E+00 2.13209E+02-3.75415E+01
 -1      2501-5.13991E+00 9.47125E+01-1.66923E+01
 -1      2502-5.40250E+00 1.04391E+02-1.83929E+01
 -1      2503-7.16430E-01 2.26704E+00-3.46291E-01
 -1      2504-6.31375E+00 1.99231E+02-3.50807E+01
 -1      2505 3.88390E+00 1.99233E+02-3.50813E+01
 -1      2506 4.06084E+00 1.05494E+02-1.85593E+01
 -1      2507 3.94381E+00 9.36014E+01-1.64627E+01
 -1      2508 4.40312E+00 1.84010E+02-3.23982E+01
 -1      2509-4.40327E+00 1.84011E+02-3.23985E+01
 -1      2510-4.38573E+00 1.71045E+02-3.01141E+01
 -1      2511 4.38579E+00 1.71045E+02-3.01140E+01
 -1      2512 1.65635E+00 1.03487E+01-1.76751E+00
 -1      2513 1.26602E+00 5.90745E+00-9.81833E-01
 -1      2514-3.25376E+00 4.91002E+01-8.61166E+00
 -1      2515 6.00572E+00 1.18402E+02-2.08608E+01
 -1      2516-4.39278E+00 1.57412E+02-2.77115E+01
 -1      2517 4.39270E+00 1.57412E+02-2.77114E+01
 -1      2518 6.17956E+00 1.39805E+02-2.46250E+01
 -1      2519-6.17964E+00 1.39805E+02-2.46251E+01
 -1      2520-6.04566E+00 1.22494E+02-2.15803E+01
 -1      2521 3.08511E+00 1.83114E+01-3.27404E+00
 -1      2522-5.47418E+00 8.14474E+01-1.43641E+01
 -1      2523-2.49866E+00 2.55526E+01-4.45447E+00
 -1      2524 4.25799E+00 3.94614E+01-6.98679E+00
 -1      2525-3.08729E+00 1.83128E+01-3.27433E+00
 -1      2526 5.47432E+00 8.14478E+01-1.43638E+01
 -1      2527 3.24834E+00 4.90963E+01-8.61097E+00
 -1      2528 2.50140E+00 2.55321E+01-4.45055E+00
 -1      2529-4.26164E+00 3.94654E+01-6.98753E+00
 -1      2530 3.61329E+00 6.63458E+01-1.16540E+01
 -1      2531-3.60975E+00 6.63244E+01-1.16502E+01
 -1      2532-3.99978E+00 9.36134E+01-1.64650E+01
 -1      2533-1.65113E+00 1.03494E+01-1.76751E+00
 -1      2534-1.26131E+00 5.90197E+00-9.80706E-01
 -1      2535 1.15653E+00 2.49566E+00-5.01752E-01
 -1      2536-1.17572E+00 2.50069E+00-5.01443E-01
 -1      2537 6.46357E+00 1.06895E+02-1.88406E+01
 -1      2538 7.17077E+00 9.28692E+01-1.63815E+01
 -1      2539 6.97997E+00 1.85510E+02-3.26665E+01
 -1      2540 6.94649E+00 1.69553E+02-2.98589E+01
 -1      2541-4.23341E+00 1.05947E+02-1.86382E+01
 -1      2542 1.92004E+00 5.49661E+00-1.04056E+00
 -1      2543 2.66945E+00 1.09431E+01-1.99302E+00
 -1      2544-5.20573E+00 1.95295E+02-3.43860E+01
 -1      2545-4.66067E+00 3.34849E+01-5.95222E+00
 -1      2546-5.10540E+00 1.48445E+02-2.61289E+01
 -1      2547 7.11998E+00 1.27094E+02-2.23933E+01
 -1      2548 5.10533E+00 1.48444E+02-2.61288E+01
 -1      2549-6.97023E+00 1.13864E+02-2.00677E+01
 -1      2550-3.20332E+00 1.40601E+01-2.54720E+00
 -1      2551 3.16788E+00 3.09291E+01-5.38792E+00
 -1      2552-3.16709E+00 3.09460E+01-5.39096E+00
 -1      2553 4.66944E+00 3.34897E+01-5.95285E+00
 -1      2554-4.06023E+00 5.90378E+01-1.03539E+01
 -1      2555 4.05709E+00 5.90595E+01-1.03577E+01
 -1      2556 6.21723E+00 7.36694E+01-1.30057E+01
 -1      2557-6.21422E+00 7.36719E+01-1.30063E+01
 -1      2558-3.97583E+00 2.04261E+02-3.59655E+01
 -1      2559-7.30108E+00 1.31105E+02-2.30988E+01
 -1      2560 5.00319E+00 1.29359E+02-2.27630E+01
 -1      2561-4.99881E+00 1.28695E+02-2.26461E+01
 -1      2562 5.72612E+00 5.72322E+01-1.01197E+01
 -1      2563-3.96337E+00 5.74678E+01-1.01577E+01
 -1      2564-6.35855E+00 5.74886E+01-1.01440E+01
 -1      2565-1.03355E+01 5.75199E+01-1.02641E+01
 -1      2566-5.90635E+00 5.40289E+01-9.59176E+00
 -1      2567-8.25523E+00 5.40716E+01-9.57438E+00
 -1      2568-2.02546E+00 5.40181E+01-9.51725E+00
 -1      2569-8.59997E+00 6.10326E+01-1.07955E+01
 -1      2570-6.15028E+00 6.09959E+01-1.08120E+01
 -1      2571-2.10310E+00 6.09820E+01-1.07429E+01
 -1      2572 9.92274E+00 2.11761E+02-3.72860E+01
 -1      2573 9.93158E+00 2.08306E+02-3.66777E+01
 -1      2574 1.11168E+01 2.11885E+02-3.73083E+01
 -1      2575 1.11255E+01 2.08431E+02-3.67001E+01
 -1      2576 5.83727E+00 2.12838E+02-3.74762E+01
 -1      2577 1.02518E+00 2.08305E+02-3.66780E+01
 -1      2578 9.69592E-01 2.11759E+02-3.72863E+01
 -1      2579-4.81752E+00 2.11906E+02-3.73126E+01
 -1      2580-1.14455E+00 2.12860E+02-3.74803E+01
 -1      2581-4.76123E+00 2.08451E+02-3.67045E+01
 -1      2582 8.25384E-02 3.80029E-01-4.14830E-02
 -1      2583 1.91538E-01 6.18598E-01-9.44011E-02
 -1      2584-1.52821E-01 6.85817E-01-1.44466E-01
 -1      2585-3.69897E-01 3.92614E-01-1.67740E-01
 -1      2586-3.19190E-01 6.17740E-01-1.24951E-01
 -1      2587-6.93471E-02 3.47154E-01-7.23212E-02
 -1      2588 7.14535E-01 7.97087E-01-1.25207E-01
 -1      2589 7.80089E-01 5.93319E-01-9.75037E-03
 -1      2590 8.56871E-01 6.11273E-01-1.28353E-01
 -1      2591 3.92902E-01 4.09178E-01-6.26681E-02
 -1      2592 2.81334E-01 6.16580E-01-1.27131E-01
 -1      2593-1.31937E+01 1.64164E+02-2.89246E+01
 -1      2594-1.08055E+01 1.59728E+02-2.81328E+01
 -1      2595-7.65141E+00 1.59717E+02-2.81346E+01
 -1      2596-7.89276E+00 1.68158E+02-2.96185E+01
 -1      2597-5.51570E+00 1.63713E+02-2.88297E+01
 -1      2598-1.10604E+01 1.68166E+02-2.96170E+01
 -1      2599-2.64798E+00 1.59721E+02-2.81242E+01
 -1      2600-8.17362E+00 1.64165E+02-2.89088E+01
 -1      2601-2.86720E+00 1.68160E+02-2.96105E+01
 -1      2602-5.01483E+00 1.64158E+02-2.89100E+01
 -1      2603 9.16949E-01 1.22928E+00-2.00005E-01
 -1      2604 1.16334E+00 9.70494E-01-1.95226E-01
 -1      2605-1.88738E-01 1.10872E+00-2.18973E-01
 -1      2606-4.95621E-01 7.37003E-01-2.34026E-01
 -1      2607-1.11013E+01 1.86864E+02-3.29056E+01
 -1      2608-7.91599E+00 1.86860E+02-3.29063E+01
 -1      2609-1.33063E+01 1.90942E+02-3.36268E+01
 -1      2610-1.14069E+01 1.95087E+02-3.43521E+01
 -1      2611-8.21756E+00 1.95085E+02-3.43527E+01
 -1      2612-6.01672E+00 1.91004E+02-3.36327E+01
 -1      2613-2.86044E+00 1.86856E+02-3.29017E+01
 -1      2614-5.05873E+00 1.90935E+02-3.36213E+01
 -1      2615-3.15525E+00 1.95080E+02-3.43497E+01
 -1      2616 5.03394E+00 1.67928E+01-2.97390E+00
 -1      2617 1.43768E+00 1.56486E+01-2.76835E+00
 -1      2618 3.28802E+00 1.42030E+01-2.48186E+00
 -1      2619 4.61433E+00 1.30725E+01-2.32496E+00
 -1      2620 1.39437E+00 1.20334E+01-2.13504E+00
 -1      2621 2.90170E+00 1.44177E+01-2.59566E+00
 -1      2622 2.10487E+00 1.66166E+01-3.00512E+00
 -1      2623 5.78769E-01 1.40964E+01-2.50076E+00
 -1      2624 2.00065E+00 1.28796E+01-2.35856E+00
 -1      2625 5.18514E+00 1.57263E+01-2.86441E+00
 -1      2626 4.72102E+00 1.21170E+01-2.24153E+00
 -1      2627 3.73224E+00 1.56089E+01-2.88503E+00
 -1      2628 3.42995E+00 1.19899E+01-2.26386E+00
 -1      2629 1.05762E+00 9.51943E-01-6.47379E-02
 -1      2630 1.18451E-01 7.26468E-01-9.87846E-02
 -1      2631-7.53233E+00 1.66388E+02-2.92959E+01
 -1      2632-7.51529E+00 1.61944E+02-2.85133E+01
 -1      2633-1.32641E+00 1.66380E+02-2.92974E+01
 -1      2634-1.32348E+00 1.61934E+02-2.85149E+01
 -1      2635-1.33327E+00 1.93162E+02-3.40121E+01
 -1      2636-4.49012E+00 1.97312E+02-3.47438E+01
 -1      2637-1.33589E+00 1.88697E+02-3.32262E+01
 -1      2638-2.69106E+00 2.17754E+01-3.89357E+00
 -1      2639-7.21870E-01 2.29619E+01-4.05984E+00
 -1      2640-4.28568E+00 2.42136E+01-4.37556E+00
 -1      2641-2.25281E+00 2.54395E+01-4.54031E+00
 -1      2642-1.46597E+00 2.42472E+01-4.27772E+00
 -1      2643-2.34227E+00 2.11105E+01-3.79201E+00
 -1      2644-4.20101E+00 1.99869E+01-3.64902E+00
 -1      2645-1.60403E+00 2.00236E+01-3.53738E+00
 -1      2646-5.84685E-01 1.40963E+01-2.50085E+00
 -1      2647 1.00999E+00 1.31257E+01-2.27390E+00
 -1      2648 2.36338E-01 1.60988E+01-2.82489E+00
 -1      2649 1.91181E+00 1.50786E+01-2.56922E+00
 -1      2650 8.35319E-01 1.51520E+01-2.65857E+00
 -1      2651 1.26555E+00 2.17579E+01-3.79754E+00
 -1      2652-6.91171E-01 2.05726E+01-3.63986E+00
 -1      2653 2.13837E+00 1.94006E+01-3.33517E+00
 -1      2654 2.50676E-01 1.82587E+01-3.20553E+00
 -1      2655 9.34553E-01 1.94702E+01-3.41963E+00
 -1      2656-1.07431E+00 5.92296E+01-1.04401E+01
 -1      2657-1.04487E+00 5.57237E+01-9.82348E+00
 -1      2658-3.10278E+00 2.23874E+01-3.98186E+00
 -1      2659-1.93084E+00 4.73766E+01-8.34837E+00
 -1      2660-5.61868E+00 4.73512E+01-8.42252E+00
 -1      2661-3.59004E+00 4.41545E+01-7.81999E+00
 -1      2662-2.17724E+00 4.17943E+01-7.36793E+00
 -1      2663-5.69557E+00 4.17660E+01-7.45381E+00
 -1      2664-4.13342E+00 4.49345E+01-7.94246E+00
 -1      2665 4.61892E-01 2.23265E+01-3.91554E+00
 -1      2666 2.51920E+00 2.35680E+01-4.06266E+00
 -1      2667 1.20920E+00 2.36374E+01-4.14994E+00
 -1      2668-9.63874E-01 4.57415E+01-8.06694E+00
 -1      2669-3.15363E+00 4.33049E+01-7.68261E+00
 -1      2670 2.10939E+00 8.73924E+01-1.53731E+01
 -1      2671-1.16792E+00 8.54147E+01-1.50475E+01
 -1      2672 3.71017E+00 8.34412E+01-1.46558E+01
 -1      2673 4.62498E-01 8.14823E+01-1.43429E+01
 -1      2674 1.62809E+00 8.34727E+01-1.46940E+01
 -1      2675 2.90783E+00 1.32077E+01-2.25960E+00
 -1      2676 3.94198E+00 1.51903E+01-2.54988E+00
 -1      2677 4.36442E+00 1.62648E+01-2.79520E+00
 -1      2678-2.94434E+00 4.89684E+01-8.66860E+00
 -1      2679 2.12612E+00 2.12164E+01-3.69492E+00
 -1      2680-3.88923E+00 2.06725E+01-3.62279E+00
 -1      2681-3.64120E+00 2.18309E+01-3.78522E+00
 -1      2682-4.61635E+00 1.84219E+01-3.17708E+00
 -1      2683-4.41022E+00 1.95067E+01-3.31724E+00
 -1      2684-9.36253E-01 1.94705E+01-3.41976E+00
 -1      2685-1.25038E+00 2.17579E+01-3.79799E+00
 -1      2686 6.84554E-01 2.05741E+01-3.63994E+00
 -1      2687-2.12619E+00 1.94008E+01-3.33581E+00
 -1      2688-2.59241E-01 1.82605E+01-3.20556E+00
 -1      2689-4.07843E+00 2.30578E+01-4.04343E+00
 -1      2690-4.32865E+00 2.18483E+01-3.87988E+00
 -1      2691-6.00502E+00 2.43126E+01-4.35687E+00
 -1      2692-5.76876E+00 2.55885E+01-4.51469E+00
 -1      2693-4.95423E+00 1.46465E+02-2.57982E+01
 -1      2694-1.31176E+00 1.48662E+02-2.61787E+01
 -1      2695-3.95269E+00 1.53071E+02-2.69607E+01
 -1      2696-2.63195E+00 1.50873E+02-2.65667E+01
 -1      2697-7.60551E+00 1.50868E+02-2.65801E+01
 -1      2698 4.95415E+00 1.46465E+02-2.57981E+01
 -1      2699 1.31167E+00 1.48663E+02-2.61787E+01
 -1      2700 7.60535E+00 1.50868E+02-2.65799E+01
 -1      2701 3.95260E+00 1.53071E+02-2.69606E+01
 -1      2702 2.63188E+00 1.50873E+02-2.65666E+01
 -1      2703-1.01438E+01 1.57514E+02-2.77358E+01
 -1      2704-7.44751E+00 1.48676E+02-2.61764E+01
 -1      2705-8.07563E+00 1.46476E+02-2.57963E+01
 -1      2706-1.01137E+01 1.53091E+02-2.69573E+01
 -1      2707-1.07409E+01 1.50882E+02-2.65776E+01
 -1      2708-3.96455E+00 1.57496E+02-2.77388E+01
 -1      2709 7.44746E+00 1.48676E+02-2.61763E+01
 -1      2710 8.07558E+00 1.46476E+02-2.57961E+01
 -1      2711 1.07409E+01 1.50882E+02-2.65775E+01
 -1      2712 1.01136E+01 1.53091E+02-2.69571E+01
 -1      2713 6.48441E+00 1.11977E+02-1.96989E+01
 -1      2714 7.12473E+00 1.14089E+02-2.00834E+01
 -1      2715 8.95820E+00 1.18332E+02-2.08184E+01
 -1      2716 1.76743E+00 1.16189E+02-2.04559E+01
 -1      2717 8.30751E+00 1.16199E+02-2.04280E+01
 -1      2718-1.25409E+00 1.14061E+02-2.00886E+01
 -1      2719 2.22999E+00 1.11954E+02-1.97029E+01
 -1      2720 5.08405E-01 1.18290E+02-2.08258E+01
 -1      2721 4.01460E+00 1.16170E+02-2.04332E+01
 -1      2722-9.98281E-01 1.31256E+01-2.27434E+00
 -1      2723-1.90111E+00 1.50788E+01-2.56980E+00
 -1      2724-8.37168E-01 1.51524E+01-2.65865E+00
 -1      2725-2.44879E-01 1.60993E+01-2.82459E+00
 -1      2726-2.90894E+00 1.32080E+01-2.25981E+00
 -1      2727-3.28841E+00 1.42028E+01-2.48193E+00
 -1      2728-3.94490E+00 1.51910E+01-2.55031E+00
 -1      2729-4.36655E+00 1.62652E+01-2.79551E+00
 -1      2730 3.88946E+00 2.06725E+01-3.62266E+00
 -1      2731 3.64146E+00 2.18308E+01-3.78512E+00
 -1      2732 4.61437E+00 1.84216E+01-3.17684E+00
 -1      2733 4.40817E+00 1.95063E+01-3.31702E+00
 -1      2734-3.21956E+00 6.27838E+01-1.10942E+01
 -1      2735 6.63422E+00 8.54589E+01-1.50397E+01
 -1      2736 6.10059E+00 8.74246E+01-1.53675E+01
 -1      2737 8.17127E+00 8.15565E+01-1.43297E+01
 -1      2738 7.65692E+00 8.34892E+01-1.46474E+01
 -1      2739-6.63446E+00 8.54591E+01-1.50399E+01
 -1      2740-6.10066E+00 8.74247E+01-1.53677E+01
 -1      2741-8.17176E+00 8.15578E+01-1.43301E+01
 -1      2742-7.65744E+00 8.34905E+01-1.46478E+01
 -1      2743-1.62862E+00 8.34740E+01-1.46942E+01
 -1      2744-2.09769E+00 8.73925E+01-1.53733E+01
 -1      2745 1.16776E+00 8.54148E+01-1.50474E+01
 -1      2746-4.62974E-01 8.14836E+01-1.43431E+01
 -1      2747-3.69904E+00 8.34426E+01-1.46561E+01
 -1      2748 2.65399E+00 2.17749E+01-3.89271E+00
 -1      2749 7.18703E-01 2.29632E+01-4.05996E+00
 -1      2750 4.25097E+00 2.42119E+01-4.37393E+00
 -1      2751 2.25390E+00 2.54399E+01-4.54017E+00
 -1      2752 1.47086E+00 2.42459E+01-4.27738E+00
 -1      2753-5.24476E+00 4.26392E+01-7.49465E+00
 -1      2754-4.85918E+00 4.41968E+01-7.73724E+00
 -1      2755-6.36223E+00 3.95745E+01-6.91667E+00
 -1      2756-6.00921E+00 4.10756E+01-7.14198E+00
 -1      2757-1.27737E+00 4.10478E+01-7.22104E+00
 -1      2758-1.66989E+00 4.41411E+01-7.74700E+00
 -1      2759 9.23085E-01 4.25637E+01-7.50786E+00
 -1      2760-2.90058E+00 4.09943E+01-7.15667E+00
 -1      2761-3.59131E-01 3.94498E+01-6.93887E+00
 -1      2762 4.07872E+00 2.30578E+01-4.04335E+00
 -1      2763 4.32891E+00 2.18484E+01-3.87978E+00
 -1      2764 5.77342E+00 2.55873E+01-4.51402E+00
 -1      2765 6.00964E+00 2.43116E+01-4.35635E+00
 -1      2766 5.24471E+00 4.26392E+01-7.49460E+00
 -1      2767 4.85913E+00 4.41968E+01-7.73717E+00
 -1      2768 6.35810E+00 3.95745E+01-6.91652E+00
 -1      2769 6.00503E+00 4.10755E+01-7.14200E+00
 -1      2770 1.27315E+00 4.10478E+01-7.22100E+00
 -1      2771-1.11946E+00 7.38313E+01-1.30090E+01
 -1      2772 1.97946E+00 7.19517E+01-1.26514E+01
 -1      2773 3.59407E+00 7.57159E+01-1.32914E+01
 -1      2774 1.58112E+00 7.57509E+01-1.33337E+01
 -1      2775 4.55886E-01 7.76194E+01-1.36624E+01
 -1      2776-3.02472E+00 5.23091E+01-9.25503E+00
 -1      2777 5.38933E+00 4.58069E+01-8.05299E+00
 -1      2778 5.77698E+00 4.42103E+01-7.80951E+00
 -1      2779 7.87690E+00 4.74267E+01-8.40843E+00
 -1      2780 1.93891E+00 4.73766E+01-8.34834E+00
 -1      2781 7.49964E+00 4.90734E+01-8.64745E+00
 -1      2782 3.54267E+00 4.41541E+01-7.81938E+00
 -1      2783 9.49336E-01 4.57349E+01-8.06560E+00
 -1      2784 2.93736E+00 4.89618E+01-8.66734E+00
 -1      2785 5.57794E+00 4.73509E+01-8.42183E+00
 -1      2786 1.83345E+00 1.16465E+01-1.95003E+00
 -1      2787 3.49045E-01 1.25534E+01-2.19284E+00
 -1      2788 8.76413E-01 1.17277E+01-2.05201E+00
 -1      2789-5.38941E+00 4.58068E+01-8.05307E+00
 -1      2790-5.77707E+00 4.42102E+01-7.80959E+00
 -1      2791-7.49189E+00 4.90732E+01-8.64757E+00
 -1      2792-7.86918E+00 4.74264E+01-8.40850E+00
 -1      2793-5.75759E+00 7.19907E+01-1.26439E+01
 -1      2794-6.35660E+00 7.38825E+01-1.30000E+01
 -1      2795-7.43745E+00 7.57692E+01-1.32820E+01
 -1      2796-8.05610E+00 7.76988E+01-1.36489E+01
 -1      2797-1.58343E+00 7.57522E+01-1.33339E+01
 -1      2798-5.78366E+00 5.57402E+01-9.80315E+00
 -1      2799-5.90893E+00 5.92430E+01-1.04202E+01
 -1      2800 1.64831E+00 4.06533E+00-6.38642E-01
 -1      2801 1.67993E+00 3.56145E+00-6.04828E-01
 -1      2802 2.42740E+00 4.44019E+00-6.86465E-01
 -1      2803 5.77622E-01 4.92723E+00-8.52178E-01
 -1      2804 2.41083E+00 4.97426E+00-7.14127E-01
 -1      2805 4.98998E+00 2.36735E+01-4.04453E+00
 -1      2806 5.22614E+00 2.24919E+01-3.88672E+00
 -1      2807 4.16382E+00 1.99850E+01-3.64779E+00
 -1      2808 1.60332E+00 2.00228E+01-3.53722E+00
 -1      2809 2.33804E+00 2.11107E+01-3.79191E+00
 -1      2810 2.38597E+00 1.90935E+02-3.36187E+01
 -1      2811 4.58734E+00 1.87473E+02-3.30071E+01
 -1      2812 8.70713E-01 1.89699E+02-3.34016E+01
 -1      2813 2.20293E+00 1.87470E+02-3.30091E+01
 -1      2814-5.22543E+00 2.25015E+01-3.88877E+00
 -1      2815-1.20739E+00 2.36473E+01-4.15176E+00
 -1      2816-4.98917E+00 2.36835E+01-4.04665E+00
 -1      2817-2.50249E+00 2.35779E+01-4.06519E+00
 -1      2818-4.67540E-01 2.23379E+01-3.91739E+00
 -1      2819-5.59120E+00 2.12781E+01-3.76298E+00
 -1      2820-5.78649E+00 2.00965E+01-3.62864E+00
 -1      2821-4.41385E+00 1.45314E+02-2.55982E+01
 -1      2822-8.04026E+00 1.43126E+02-2.52218E+01
 -1      2823-3.09905E+00 1.43132E+02-2.52043E+01
 -1      2824 4.41376E+00 1.45314E+02-2.55982E+01
 -1      2825 8.04016E+00 1.43126E+02-2.52217E+01
 -1      2826 3.09897E+00 1.43132E+02-2.52042E+01
 -1      2827-1.11564E+01 1.43144E+02-2.52188E+01
 -1      2828-1.05376E+01 1.45340E+02-2.55938E+01
 -1      2829 1.05375E+01 1.45340E+02-2.55936E+01
 -1      2830 1.11563E+01 1.43144E+02-2.52185E+01
 -1      2831 5.78531E+00 2.00958E+01-3.62830E+00
 -1      2832 5.59018E+00 2.12772E+01-3.76267E+00
 -1      2833 7.49696E+00 4.34238E+01-7.65848E+00
 -1      2834 2.17540E+00 4.17924E+01-7.36757E+00
 -1      2835 7.84198E+00 4.18485E+01-7.43763E+00
 -1      2836 3.13741E+00 4.32963E+01-7.68083E+00
 -1      2837 5.64721E+00 4.17633E+01-7.45257E+00
 -1      2838-7.84396E+00 4.18505E+01-7.43810E+00
 -1      2839-7.49899E+00 4.34259E+01-7.65891E+00
 -1      2840 7.60153E-01 8.84606E+01-1.55693E+01
 -1      2841 4.08268E+00 9.04631E+01-1.58913E+01
 -1      2842 1.95353E+00 9.04930E+01-1.59285E+01
 -1      2843-6.94038E+00 4.50662E+01-7.87943E+00
 -1      2844-1.59473E+00 4.66144E+01-8.19858E+00
 -1      2845-6.56333E+00 4.66422E+01-8.11887E+00
 -1      2846 6.56046E+00 4.66401E+01-8.11840E+00
 -1      2847 6.93761E+00 4.50643E+01-7.87902E+00
 -1      2848 1.59214E+00 4.66125E+01-8.19820E+00
 -1      2849-6.28605E-01 4.49414E+01-7.90104E+00
 -1      2850-3.29868E+00 4.65617E+01-8.13268E+00
 -1      2851-1.04194E+01 1.70394E+02-3.00037E+01
 -1      2852-4.19899E+00 1.70382E+02-3.00058E+01
 -1      2853 4.04404E+00 1.27392E+01-2.15983E+00
 -1      2854 3.64347E+00 1.17694E+01-1.92850E+00
 -1      2855 3.78516E+00 6.91049E+01-1.21184E+01
 -1      2856 7.37927E-01 7.09541E+01-1.24845E+01
 -1      2857 1.82890E+00 6.91451E+01-1.21685E+01
 -1      2858 4.25893E+00 1.08699E+02-1.91119E+01
 -1      2859 8.03586E-01 1.10789E+02-1.95027E+01
 -1      2860 2.04375E+00 1.08722E+02-1.91400E+01
 -1      2861 8.65054E+00 8.85323E+01-1.55566E+01
 -1      2862 8.12026E+00 9.05087E+01-1.58833E+01
 -1      2863 9.14142E+00 1.10840E+02-1.94936E+01
 -1      2864 8.49393E+00 1.08734E+02-1.91058E+01
 -1      2865 7.59208E+00 1.93165E+02-3.40116E+01
 -1      2866 6.93372E+00 1.90937E+02-3.36182E+01
 -1      2867 9.79486E+00 1.89705E+02-3.34005E+01
 -1      2868 9.13512E+00 1.87477E+02-3.30063E+01
 -1      2869 5.75990E+00 7.19918E+01-1.26442E+01
 -1      2870 6.35458E+00 7.38825E+01-1.29999E+01
 -1      2871 7.44127E+00 7.57692E+01-1.32822E+01
 -1      2872 8.05552E+00 7.76976E+01-1.36487E+01
 -1      2873 1.66986E+00 4.41410E+01-7.74694E+00
 -1      2874-9.39534E-01 4.25587E+01-7.50718E+00
 -1      2875 2.89629E+00 4.09939E+01-7.15641E+00
 -1      2876 3.38995E-01 3.94447E+01-6.93830E+00
 -1      2877-2.92815E-01 3.42974E+00-6.25885E-01
 -1      2878 5.75681E-01 3.97203E+00-6.54775E-01
 -1      2879 2.13805E-01 4.22157E+00-7.22216E-01
 -1      2880 1.21452E+00 4.83769E+00-7.37513E-01
 -1      2881-2.12695E+00 2.12262E+01-3.69683E+00
 -1      2882-5.73757E+00 1.47525E+02-2.59818E+01
 -1      2883 5.73753E+00 1.47525E+02-2.59816E+01
 -1      2884-7.66604E+00 5.23698E+01-9.22708E+00
 -1      2885-8.13137E+00 7.10342E+01-1.24668E+01
 -1      2886-7.52104E+00 6.91539E+01-1.21054E+01
 -1      2887-1.82908E+00 6.91343E+01-1.21666E+01
 -1      2888-8.15770E+00 6.28286E+01-1.10684E+01
 -1      2889 3.10628E+00 2.23854E+01-3.98126E+00
 -1      2890 1.11749E+00 7.38315E+01-1.30091E+01
 -1      2891-1.98144E+00 7.19518E+01-1.26514E+01
 -1      2892-4.56365E-01 7.76208E+01-1.36627E+01
 -1      2893-3.59444E+00 7.57173E+01-1.32919E+01
 -1      2894 4.13925E+00 4.49326E+01-7.94210E+00
 -1      2895-4.19400E+00 1.84622E+02-3.25108E+01
 -1      2896 2.09119E+00 2.10206E+02-3.70126E+01
 -1      2897 7.37813E+00 2.05797E+02-3.62362E+01
 -1      2898 3.28510E+00 2.10330E+02-3.70347E+01
 -1      2899-2.85935E+00 4.34189E+01-7.61397E+00
 -1      2900-1.52557E+00 2.05796E+02-3.62365E+01
 -1      2901-3.69594E+00 2.10352E+02-3.70386E+01
 -1      2902 1.73603E+00 1.36039E+01-2.35115E+00
 -1      2903 2.85264E+00 4.34169E+01-7.61361E+00
 -1      2904-3.42423E+00 7.28630E+01-1.28081E+01
 -1      2905 3.42555E+00 7.28728E+01-1.28098E+01
 -1      2906 6.09168E-01 4.49343E+01-7.90018E+00
 -1      2907 3.29590E+00 4.65598E+01-8.13245E+00
 -1      2908 8.13337E+00 7.10451E+01-1.24685E+01
 -1      2909 7.52737E+00 6.91659E+01-1.21075E+01
 -1      2910 3.57594E+00 8.65139E+01-1.52152E+01
 -1      2911-8.14824E+00 9.05150E+01-1.58848E+01
 -1      2912-8.67831E+00 8.85383E+01-1.55582E+01
 -1      2913-1.98143E+00 9.04988E+01-1.59297E+01
 -1      2914 3.81874E+00 1.12917E+02-1.98706E+01
 -1      2915-7.87931E-01 8.84670E+01-1.55701E+01
 -1      2916-4.09873E+00 9.04694E+01-1.58925E+01
 -1      2917-1.81968E+00 1.16465E+01-1.95082E+00
 -1      2918-3.52383E-01 1.25534E+01-2.19278E+00
 -1      2919-8.73648E-01 1.17280E+01-2.05191E+00
 -1      2920-3.78332E+00 6.90941E+01-1.21165E+01
 -1      2921-7.36244E-01 7.09433E+01-1.24826E+01
 -1      2922-4.04131E+00 1.27391E+01-2.16009E+00
 -1      2923-3.64176E+00 1.17699E+01-1.92892E+00
 -1      2924 1.82618E+00 3.06829E+00-3.85714E-01
 -1      2925 3.89865E-01 3.01972E+00-5.20067E-01
 -1      2926 1.80274E+00 2.65742E+00-3.80773E-01
 -1      2927-4.62125E-02 2.11025E-01-3.46344E-02
 -1      2928-9.87090E-02 2.14843E-01-3.94088E-02
 -1      2929-1.23913E-01 8.74228E-02-2.77428E-03
 -1      2930-2.36694E-01 5.99353E-01-8.24883E-02
 -1      2931-9.61193E-02 7.24047E-02 7.22743E-03
 -1      2932 5.58971E+00 1.32181E+01-2.55967E+00
 -1      2933 5.76583E-01 1.97518E+02-3.47786E+01
 -1      2934 4.29807E+00 1.95290E+02-3.43847E+01
 -1      2935 1.91057E+00 1.95286E+02-3.43854E+01
 -1      2936 5.84551E-02 2.13113E-01-3.85649E-02
 -1      2937 8.89932E-01 2.93357E+00-4.09194E-01
 -1      2938 1.07459E-01 2.44618E+00-4.16203E-01
 -1      2939-3.60388E+00 8.65212E+01-1.52166E+01
 -1      2940 8.85026E+00 1.95292E+02-3.43842E+01
 -1      2941 9.50926E+00 1.97521E+02-3.47779E+01
 -1      2942-1.91259E+00 2.14986E+02-3.78545E+01
 -1      2943 1.46144E+00 2.14986E+02-3.78545E+01
 -1      2944-4.38541E-01 2.14986E+02-3.78545E+01
 -1      2945-1.73484E+00 1.36044E+01-2.35124E+00
 -1      2946-8.96768E-01 2.17741E+02-3.83397E+01
 -1      2947-2.81823E+00 2.10453E+02-3.70563E+01
 -1      2948-4.27104E+00 2.17742E+02-3.83397E+01
 -1      2949 9.49780E-01 3.80514E+00-6.16071E-01
 -1      2950 4.11472E+00 1.91824E+02-3.37751E+01
 -1      2951 1.32454E+01 1.73069E+02-3.04870E+01
 -1      2952 8.53045E+00 1.79281E+02-3.15745E+01
 -1      2953 1.17107E+01 1.79287E+02-3.15734E+01
 -1      2954 1.16801E+01 1.71314E+02-3.01712E+01
 -1      2955 6.96651E+00 1.77524E+02-3.12612E+01
 -1      2956 8.50783E+00 1.71306E+02-3.01727E+01
 -1      2957 1.20100E+01 9.54480E+01-1.68875E+01
 -1      2958 1.21401E+01 9.95228E+01-1.76002E+01
 -1      2959 1.10055E+01 9.41792E+01-1.66245E+01
 -1      2960 8.25163E+00 9.81959E+01-1.73452E+01
 -1      2961 8.15972E+00 9.41322E+01-1.66331E+01
 -1      2962 1.32653E+01 1.77531E+02-3.12707E+01
 -1      2963 8.54049E+00 1.83751E+02-3.23601E+01
 -1      2964 1.32822E+01 1.81998E+02-3.20551E+01
 -1      2965 1.17242E+01 1.83756E+02-3.23592E+01
 -1      2966-3.38792E+00 2.03464E+02-3.58257E+01
 -1      2967-4.45256E+00 2.01562E+02-3.54918E+01
 -1      2968-6.62381E+00 2.06120E+02-3.62936E+01
 -1      2969-7.26539E-01 1.83095E+00-4.20706E-01
 -1      2970-5.00775E-01 1.61976E+00-2.99294E-01
 -1      2971-8.44478E-01 1.22979E+00-2.84857E-01
 -1      2972 8.26523E-02 7.25960E-02-3.02302E-02
 -1      2973 1.47325E-01 9.40629E-02-2.92216E-02
 -1      2974-5.14894E+00 2.17640E+02-3.83219E+01
 -1      2975-3.67474E+00 2.17640E+02-3.83219E+01
 -1      2976 4.26197E-01 1.61139E+00-3.00595E-01
 -1      2977 1.75546E+00 2.05426E+00-3.83454E-01
 -1      2978 8.40984E-01 1.23408E+00-2.87477E-01
 -1      2979-7.68452E-01 5.09088E+00-9.09015E-01
 -1      2980-1.19228E+00 5.63678E+00-1.07831E+00
 -1      2981-3.39876E-01 4.54146E+00-8.21349E-01
 -1      2982-6.68798E-01 3.21649E+00-5.81255E-01
 -1      2983-1.02884E+00 3.63761E+00-7.36561E-01
 -1      2984-1.46123E+00 4.18374E+00-7.91385E-01
 -1      2985-5.08444E-01 1.18290E+02-2.08257E+01
 -1      2986-1.76768E+00 1.16190E+02-2.04561E+01
 -1      2987 1.25443E+00 1.14061E+02-2.00887E+01
 -1      2988-8.89288E-01 1.11017E+02-1.95424E+01
 -1      2989-2.12952E+00 1.08949E+02-1.91797E+01
 -1      2990-3.90615E+00 1.13147E+02-1.99106E+01
 -1      2991 9.54931E+00 2.01566E+02-3.54916E+01
 -1      2992 1.71260E+00 2.03465E+02-3.58259E+01
 -1      2993 5.45772E+00 2.06098E+02-3.62899E+01
 -1      2994-7.12560E+00 1.14089E+02-2.00837E+01
 -1      2995-8.95827E+00 1.18332E+02-2.08185E+01
 -1      2996-9.23069E+00 1.11069E+02-1.95335E+01
 -1      2997 6.03661E-02 3.34417E-01-6.74230E-02
 -1      2998-9.35487E+00 9.30862E+01-1.63953E+01
 -1      2999-2.54338E+00 9.10424E+01-1.60346E+01
 -1      3000-6.71834E+00 8.94206E+01-1.57379E+01
 -1      3001-9.44569E+00 8.64234E+01-1.52248E+01
 -1      3002-2.76448E+00 8.44146E+01-1.48689E+01
 -1      3003-5.31840E+00 8.80132E+01-1.55158E+01
 -1      3004-1.84842E+00 2.72485E+00-3.88769E-01
 -1      3005-4.19288E-01 3.09016E+00-5.31118E-01
 -1      3006-1.68142E+00 3.56149E+00-6.05167E-01
 -1      3007-2.42461E+00 4.43776E+00-6.86427E-01
 -1      3008-5.76640E-01 4.92511E+00-8.51952E-01
 -1      3009-9.84716E-01 3.88143E+00-6.26976E-01
 -1      3010-3.75386E+00 9.30215E+01-1.64067E+01
 -1      3011-1.18314E+00 8.93793E+01-1.57450E+01
 -1      3012-3.95505E+00 8.63494E+01-1.52376E+01
 -1      3013-4.01491E+00 1.16171E+02-2.04334E+01
 -1      3014-4.34612E+00 1.08927E+02-1.91511E+01
 -1      3015-8.30708E+00 1.16200E+02-2.04282E+01
 -1      3016-8.58242E+00 1.08961E+02-1.91451E+01
 -1      3017-1.25876E-01 2.50918E+00-4.25279E-01
 -1      3018 2.97984E-01 3.43006E+00-6.26122E-01
 -1      3019-2.06079E-01 4.21941E+00-7.22705E-01
 -1      3020 7.58636E+00 1.88701E+02-3.32254E+01
 -1      3021 9.78603E+00 1.85242E+02-3.26143E+01
 -1      3022 8.72060E+00 1.11957E+02-1.96507E+01
 -1      3023 8.21731E+00 8.73958E+01-1.52965E+01
 -1      3024 8.66356E-01 1.85235E+02-3.26155E+01
 -1      3025-2.13236E+00 5.04450E+00-1.04145E+00
 -1      3026-1.75665E+00 3.17170E+00-7.25230E-01
 -1      3027 7.06841E+00 1.09885E+02-1.93428E+01
 -1      3028 9.06391E+00 1.06662E+02-1.87566E+01
 -1      3029 3.92652E+00 1.31337E+01-2.07907E+00
 -1      3030 6.71853E+00 8.94207E+01-1.57377E+01
 -1      3031 8.75359E+00 9.25306E+01-1.62621E+01
 -1      3032-2.22376E+00 1.45101E+01-2.64985E+00
 -1      3033-1.57721E+00 1.36118E+01-2.41487E+00
 -1      3034-6.06076E-01 1.21094E+01-2.14885E+00
 -1      3035-6.05452E+00 2.13108E+02-3.75238E+01
 -1      3036-4.74942E+00 1.15002E+02-2.02740E+01
 -1      3037-3.47794E+00 1.12914E+02-1.98867E+01
 -1      3038-1.40847E+00 1.09654E+02-1.93123E+01
 -1      3039 7.69349E-01 9.24630E+01-1.62741E+01
 -1      3040 1.18293E+00 8.93795E+01-1.57450E+01
 -1      3041-7.97316E-01 9.24693E+01-1.62751E+01
 -1      3042 1.92681E+00 4.65962E+00-7.98486E-01
 -1      3043 2.73841E+00 5.64791E+00-9.00859E-01
 -1      3044 3.30212E-01 1.07312E+01-1.87145E+00
 -1      3045-2.07660E+00 1.25629E+01-2.30928E+00
 -1      3046 3.07714E+00 1.22883E+01-2.14428E+00
 -1      3047 3.76484E+00 1.09221E+01-1.83801E+00
 -1      3048-2.96777E+00 5.83100E+00-1.04220E+00
 -1      3049-1.92771E+00 4.65964E+00-7.99082E-01
 -1      3050-2.46708E+00 3.84590E+00-6.96899E-01
 -1      3051 7.96614E-01 1.06607E+02-1.87661E+01
 -1      3052-4.71152E+00 1.10787E+02-1.95336E+01
 -1      3053-8.20528E+00 8.73959E+01-1.52970E+01
 -1      3054-9.88313E+00 9.10716E+01-1.60701E+01
 -1      3055-9.95537E+00 8.44474E+01-1.49099E+01
 -1      3056 2.38460E-01 5.44573E+00-9.38408E-01
 -1      3057 4.02705E+00 6.55969E+00-1.41532E+00
 -1      3058 4.42522E+00 8.01537E+00-1.66548E+00
 -1      3059 4.03520E+00 8.66641E+00-1.64174E+00
 -1      3060 3.18465E+00 1.02127E+01-1.95476E+00
 -1      3061 2.94259E+00 8.56463E+00-1.66977E+00
 -1      3062-7.82194E+00 5.65471E+01-9.89944E+00
 -1      3063-7.98789E+00 6.00644E+01-1.05214E+01
 -1      3064-2.01959E+00 5.82443E+01-1.02451E+01
 -1      3065-7.04347E+00 9.10274E+01-1.60778E+01
 -1      3066-7.17273E+00 8.43975E+01-1.49187E+01
 -1      3067-3.91580E+00 1.31338E+01-2.08016E+00
 -1      3068-6.45360E-01 4.81777E+01-8.47101E+00
 -1      3069-1.87326E+00 3.14434E+00-3.95128E-01
 -1      3070-2.40932E+00 4.97794E+00-7.15335E-01
 -1      3071 5.41763E-01 1.21784E+01-2.16363E+00
 -1      3072-3.27661E-01 1.07315E+01-1.87171E+00
 -1      3073-2.73604E+00 5.64524E+00-9.00600E-01
 -1      3074-4.97591E+00 1.47041E+01-2.61579E+00
 -1      3075-2.38759E+00 1.21740E+01-2.13776E+00
 -1      3076-7.12247E+00 4.82979E+01-8.44990E+00
 -1      3077 2.22332E+00 1.88059E+01-3.38795E+00
 -1      3078-9.72722E+00 1.63011E+02-2.86958E+01
 -1      3079-2.20068E+00 1.60784E+02-2.83095E+01
 -1      3080-9.70293E+00 1.58575E+02-2.79138E+01
 -1      3081 7.51528E+00 1.61944E+02-2.85131E+01
 -1      3082 7.53236E+00 1.66388E+02-2.92958E+01
 -1      3083 9.70289E+00 1.58575E+02-2.79136E+01
 -1      3084 9.72715E+00 1.63011E+02-2.86955E+01
 -1      3085 2.20045E+00 1.60784E+02-2.83094E+01
 -1      3086 1.32618E+00 1.66380E+02-2.92974E+01
 -1      3087 1.32334E+00 1.61934E+02-2.85149E+01
 -1      3088-8.75739E-01 1.58557E+02-2.79169E+01
 -1      3089-8.78149E-01 1.62995E+02-2.86985E+01
 -1      3090 8.78065E-01 1.62995E+02-2.86985E+01
 -1      3091 8.75662E-01 1.58556E+02-2.79168E+01
 -1      3092 1.24088E+00 1.49645E+02-2.63461E+01
 -1      3093-5.60039E-01 1.44112E+02-2.53759E+01
 -1      3094 2.55003E+00 1.47457E+02-2.59615E+01
 -1      3095-1.24095E+00 1.49646E+02-2.63461E+01
 -1      3096 5.59950E-01 1.44112E+02-2.53759E+01
 -1      3097-2.55011E+00 1.47457E+02-2.59616E+01
 -1      3098-1.00145E+01 1.49670E+02-2.63418E+01
 -1      3099-5.64634E+00 1.44121E+02-2.53743E+01
 -1      3100 1.00144E+01 1.49670E+02-2.63416E+01
 -1      3101 5.64627E+00 1.44121E+02-2.53742E+01
 -1      3102 5.31652E+00 1.89773E+01-3.35757E+00
 -1      3103-4.89311E-01 2.48121E+01-4.35319E+00
 -1      3104-5.46475E+00 2.49708E+01-4.32512E+00
 -1      3105-9.32306E+00 8.24998E+01-1.45337E+01
 -1      3106-3.90351E+00 8.24215E+01-1.45476E+01
 -1      3107 7.28666E+00 4.03215E+01-7.11204E+00
 -1      3108 3.04930E+00 4.01892E+01-7.13553E+00
 -1      3109 2.18938E+00 1.67600E+02-2.95098E+01
 -1      3110 9.73956E+00 1.69833E+02-2.98983E+01
 -1      3111 4.39112E+00 1.64218E+02-2.89111E+01
 -1      3112-2.18961E+00 1.67601E+02-2.95099E+01
 -1      3113-9.73959E+00 1.69833E+02-2.98986E+01
 -1      3114-4.39118E+00 1.64219E+02-2.89113E+01
 -1      3115-8.62188E-01 1.69821E+02-2.99007E+01
 -1      3116 8.62109E-01 1.69820E+02-2.99006E+01
 -1      3117 3.39464E+00 6.07033E+00-1.19009E+00
 -1      3118 2.47492E+00 5.95807E+00-1.21794E+00
 -1      3119 2.30440E+00 8.00493E+00-1.47868E+00
 -1      3120 7.11959E+00 4.82959E+01-8.44950E+00
 -1      3121-5.31745E+00 1.89781E+01-3.35783E+00
 -1      3122-2.23088E+00 1.88054E+01-3.38815E+00
 -1      3123 3.39287E-01 4.54178E+00-8.21278E-01
 -1      3124-2.36141E-01 5.44324E+00-9.38262E-01
 -1      3125-7.28863E+00 4.03234E+01-7.11247E+00
 -1      3126 6.27959E-01 4.81824E+01-8.47219E+00
 -1      3127-3.76202E+00 1.09222E+01-1.83831E+00
 -1      3128-4.66206E+00 1.27629E+01-2.27451E+00
 -1      3129 4.87342E-01 2.48004E+01-4.35118E+00
 -1      3130 5.46554E+00 2.49607E+01-4.32302E+00
 -1      3131 9.57702E-01 6.00127E+01-1.05522E+01
 -1      3132 9.44267E-01 5.64884E+01-9.93116E+00
 -1      3133 2.01795E+00 5.82549E+01-1.02469E+01
 -1      3134-6.53734E+00 4.41468E+01-7.61445E+00
 -1      3135-8.78176E+00 9.25367E+01-1.62636E+01
 -1      3136-4.24388E+00 7.46659E+01-1.31923E+01
 -1      3137-3.09571E+00 7.28211E+01-1.28311E+01
 -1      3138-1.21940E+00 6.99634E+01-1.23272E+01
 -1      3139 1.30363E+01 1.46475E+02-2.58218E+01
 -1      3140-1.30363E+01 1.46475E+02-2.58220E+01
 -1      3141-4.90080E+00 2.17652E+01-3.62455E+00
 -1      3142-8.77409E-01 2.63947E+00-5.61998E-01
 -1      3143 4.24538E+00 7.46647E+01-1.31920E+01
 -1      3144 3.09534E+00 7.28198E+01-1.28309E+01
 -1      3145 1.22254E+00 6.99512E+01-1.23250E+01
 -1      3146 6.99526E+00 2.18408E+01-4.05289E+00
 -1      3147-3.06711E+00 4.01863E+01-7.13536E+00
 -1      3148-9.50805E+00 7.47585E+01-1.31761E+01
 -1      3149-4.89404E+00 6.99845E+01-1.23197E+01
 -1      3150 9.50948E+00 7.47572E+01-1.31757E+01
 -1      3151 4.89747E+00 6.99941E+01-1.23213E+01
 -1      3152 2.56349E-01 1.40100E-01 3.75513E-03
 -1      3153 2.77448E-01 1.45464E-01-3.45858E-02
 -1      3154 6.06776E-01 3.92653E-01-5.15135E-02
 -1      3155 6.57719E-01 4.02177E-01-1.23015E-01
 -1      3156 2.48966E-01 1.20510E-01-5.01749E-02
 -1      3157-7.03280E+00 2.18423E+01-4.05411E+00
 -1      3158 6.53749E+00 4.41466E+01-7.61434E+00
 -1      3159-2.97730E+00 5.17917E+00-1.01777E+00
 -1      3160-2.43075E+00 3.31339E+00-6.98834E-01
 -1      3161 4.91577E+00 2.17655E+01-3.62379E+00
 -1      3162 4.47526E+00 1.81515E+02-3.19620E+01
 -1      3163 6.02585E+00 1.75292E+02-3.08698E+01
 -1      3164 4.46487E+00 1.73536E+02-3.05574E+01
 -1      3165 9.20024E+00 1.75298E+02-3.08688E+01
 -1      3166 1.08319E+01 1.05281E+02-1.85698E+01
 -1      3167 4.11236E+00 1.03186E+02-1.81772E+01
 -1      3168 8.44564E+00 1.01581E+02-1.79031E+01
 -1      3169 1.11241E+01 9.82397E+01-1.73368E+01
 -1      3170 4.50869E+00 9.61740E+01-1.69449E+01
 -1      3171 6.83249E+00 9.98233E+01-1.76004E+01
 -1      3172-9.25891E-01 3.00092E+00-4.16669E-01
 -1      3173-1.21439E+00 4.83319E+00-7.37161E-01
 -1      3174-7.74456E+00 7.19546E+01-1.25570E+01
 -1      3175 7.74861E+00 7.19559E+01-1.25573E+01
 -1      3176 4.39547E+00 1.40929E+02-2.48272E+01
 -1      3177-1.23584E+00 1.45244E+02-2.55709E+01
 -1      3178-4.39554E+00 1.40929E+02-2.48273E+01
 -1      3179 1.23577E+00 1.45244E+02-2.55708E+01
 -1      3180 1.04940E+01 1.40958E+02-2.48219E+01
 -1      3181 9.97759E+00 1.45272E+02-2.55658E+01
 -1      3182-1.04941E+01 1.40958E+02-2.48222E+01
 -1      3183-9.97767E+00 1.45272E+02-2.55661E+01
 -1      3184 9.33161E+00 4.42046E+01-7.94174E+00
 -1      3185 7.25320E-01 6.72510E+01-1.18322E+01
 -1      3186-4.17559E+00 7.09033E+01-1.25319E+01
 -1      3187-7.12237E-01 6.72326E+01-1.18291E+01
 -1      3188 4.18855E+00 7.08944E+01-1.25304E+01
 -1      3189 9.53874E+00 1.97316E+02-3.47435E+01
 -1      3190 1.94112E+00 1.95082E+02-3.43499E+01
 -1      3191 1.10850E+01 1.90455E+02-3.35354E+01
 -1      3192 3.49163E+00 1.88220E+02-3.31419E+01
 -1      3193 5.43473E+00 1.92370E+02-3.38732E+01
 -1      3194-9.37942E+00 4.42056E+01-7.94269E+00
 -1      3195-7.99115E+00 6.73280E+01-1.18124E+01
 -1      3196-9.35434E+00 7.09932E+01-1.25133E+01
 -1      3197-2.11292E+00 2.86136E+00-5.23267E-01
 -1      3198 7.99709E+00 6.73389E+01-1.18144E+01
 -1      3199 9.35981E+00 7.09919E+01-1.25133E+01
 -1      3200 4.83843E+00 9.67015E+00-1.95004E+00
 -1      3201 4.39480E+00 1.03737E+01-1.93928E+00
 -1      3202-8.48985E+00 2.11136E+02-3.71773E+01
 -1      3203-8.18053E+00 2.04248E+02-3.59650E+01
 -1      3204-1.15908E+00 9.64326E-01-1.94048E-01
 -1      3205-9.76659E-01 1.23799E+00-1.90347E-01
 -1      3206-1.76611E+00 2.05695E+00-3.83219E-01
 -1      3207-2.07446E+00 2.19114E+02-3.85815E+01
 -1      3208 1.57382E+00 2.19114E+02-3.85815E+01
 -1      3209-2.06027E-01 2.17494E+02-3.82961E+01
 -1      3210 3.44236E+00 2.17494E+02-3.82960E+01
 -1      3211 2.77477E+00 2.14335E+02-3.77397E+01
 -1      3212 1.35347E+00 6.68980E+00-1.20675E+00
 -1      3213 1.91937E+00 7.21357E+00-1.36502E+00
 -1      3214 1.59333E+00 9.41478E+00-1.68564E+00
 -1      3215-7.59923E-01 8.05796E-01-1.14630E-01
 -1      3216-7.73445E-01 5.77945E-01-3.98964E-03
 -1      3217-1.05561E+00 9.32440E-01-5.88278E-02
 -1      3218-5.76733E+00 2.18979E+02-3.85577E+01
 -1      3219-5.99408E+00 2.17640E+02-3.83220E+01
 -1      3220-3.01283E+00 2.14481E+02-3.77658E+01
 -1      3221-6.70555E+00 2.14346E+02-3.77422E+01
 -1      3222-8.50621E-01 6.05727E-01-1.25818E-01
 -1      3223-7.83441E+00 2.09252E+02-3.68447E+01
 -1      3224-7.82348E+00 2.05797E+02-3.62363E+01
 -1      3225-1.10718E+01 2.11907E+02-3.73125E+01
 -1      3226-1.10609E+01 2.08453E+02-3.67043E+01
 -1      3227 1.68206E+00 2.03670E+02-3.58619E+01
 -1      3228 9.51961E+00 2.01771E+02-3.55265E+01
 -1      3229 4.23353E+00 2.06179E+02-3.63033E+01
 -1      3230 1.24459E+00 1.09854E+02-1.93482E+01
 -1      3231-8.81460E-01 1.06833E+02-1.88056E+01
 -1      3232 6.22169E-01 1.77539E+01-3.13734E+00
 -1      3233 2.41997E+00 1.77972E+01-3.12968E+00
 -1      3234 5.08035E-01 7.43320E-01-2.38537E-01
 -1      3235 1.43888E-01 1.09940E+00-2.13134E-01
 -1      3236 7.33926E-01 1.82894E+00-4.22345E-01
 -1      3237 1.06392E-01 6.76952E-01-1.36862E-01
 -1      3238-1.18174E-01 7.02670E-01-9.45103E-02
 -1      3239-9.19067E-02 3.63073E-01-3.71879E-02
 -1      3240 1.10754E+01 1.85992E+02-3.27497E+01
 -1      3241 1.02737E+01 1.07366E+02-1.89114E+01
 -1      3242 3.24836E+00 1.09424E+02-1.92716E+01
 -1      3243 1.03605E+01 1.11550E+02-1.96476E+01
 -1      3244 1.02368E+01 8.81800E+01-1.55379E+01
 -1      3245 3.55594E+00 9.01282E+01-1.58772E+01
 -1      3246 1.03596E+01 9.21730E+01-1.62405E+01
 -1      3247 4.79035E+00 1.64624E+02-2.89940E+01
 -1      3248 4.80047E+00 1.69075E+02-2.97769E+01
 -1      3249 3.46851E+00 1.66855E+02-2.93809E+01
 -1      3250 1.10184E+01 1.69088E+02-2.97743E+01
 -1      3251 1.09953E+01 1.64640E+02-2.89910E+01
 -1      3252 4.71339E+00 8.81004E+01-1.55527E+01
 -1      3253 4.76999E+00 9.20978E+01-1.62547E+01
 -1      3254 4.47293E+00 1.07310E+02-1.89212E+01
 -1      3255 4.51093E+00 1.11497E+02-1.96569E+01
 -1      3256 6.16336E-01 2.01768E+02-3.55271E+01
 -1      3257 9.32179E+00 1.90940E+02-3.36147E+01
 -1      3258-1.06374E+01 1.15053E+02-2.02652E+01
 -1      3259-5.59360E+00 1.09900E+02-1.93491E+01
 -1      3260-7.58640E+00 1.88701E+02-3.32256E+01
 -1      3261-7.59109E+00 1.93165E+02-3.40119E+01
 -1      3262-1.01987E+01 1.95348E+02-3.43947E+01
 -1      3263-2.60188E+00 1.93112E+02-3.40026E+01
 -1      3264-1.01930E+01 1.90883E+02-3.36080E+01
 -1      3265 3.69780E-01 3.96305E-01-1.70461E-01
 -1      3266 3.96444E+00 1.57496E+02-2.77388E+01
 -1      3267 2.64802E+00 1.59721E+02-2.81242E+01
 -1      3268 6.11377E+00 1.62410E+02-2.86012E+01
 -1      3269 1.01436E+01 1.57514E+02-2.77356E+01
 -1      3270 2.92184E+00 7.28717E+00-1.34262E+00
 -1      3271 1.01913E+01 1.95088E+02-3.43526E+01
 -1      3272 1.17351E+01 1.88228E+02-3.31458E+01
 -1      3273 2.23535E+00 3.98218E+00-4.27996E-01
 -1      3274 1.16271E+00 4.05070E+00-8.18619E-01
 -1      3275 1.31417E+00 5.25034E+00-1.02751E+00
 -1      3276 8.91484E-01 4.73299E+00-8.51910E-01
 -1      3277 1.86415E+00 1.10373E+01-2.03643E+00
 -1      3278 2.68011E+00 4.27916E+00-7.80846E-01
 -1      3279 3.03262E+00 5.46258E+00-9.88466E-01
 -1      3280 4.30062E+00 1.12355E+01-2.00198E+00
 -1      3281-9.83073E-01 6.67080E-01-2.27901E-01
 -1      3282-7.10292E-01 5.20577E-01-2.59254E-01
 -1      3283-1.33579E+00 8.23013E-01-4.11020E-01
 -1      3284-1.63785E+00 1.60312E+00-3.98088E-01
 -1      3285-1.17224E+00 1.45498E+00-4.26055E-01
 -1      3286-1.01941E+01 2.12008E+02-3.73298E+01
 -1      3287-2.21818E+00 2.05979E+02-3.62684E+01
 -1      3288-9.59307E+00 2.07535E+02-3.65418E+01
 -1      3289-4.57635E+00 2.08736E+02-3.67536E+01
 -1      3290-1.17181E+01 2.11137E+02-3.71773E+01
 -1      3291-1.32754E+01 2.09266E+02-3.68487E+01
 -1      3292-1.14082E+01 2.04250E+02-3.59647E+01
 -1      3293 1.17678E+01 2.11093E+02-3.71693E+01
 -1      3294 1.01921E+01 2.04229E+02-3.59612E+01
 -1      3295 2.37142E-01 1.15333E-01 3.74254E-02
 -1      3296 1.93252E-01 1.07519E-01 2.65055E-02
 -1      3297 5.54861E-01 3.68143E-01 4.21658E-02
 -1      3298 2.16451E-01 1.21241E-01-2.14850E-03
 -1      3299 4.01352E+00 2.17494E+02-3.82960E+01
 -1      3300 5.20763E+00 2.17618E+02-3.83179E+01
 -1      3301-8.72064E+00 1.11957E+02-1.96508E+01
 -1      3302-1.55431E-01 8.73668E-02-3.52095E-02
 -1      3303-3.88246E-01 3.90001E-01-5.60381E-02
 -1      3304 1.49315E+00 1.87966E+00-2.42466E-01
 -1      3305 2.36286E-01 1.47305E+00-2.50045E-01
 -1      3306 5.24244E-01 1.09807E+00-1.32445E-01
 -1      3307 2.11336E+00 2.17494E+02-3.82960E+01
 -1      3308 9.07857E+00 1.67604E+02-2.95011E+01
 -1      3309 9.06622E+00 1.60788E+02-2.82984E+01
 -1      3310-9.07861E+00 1.67604E+02-2.95014E+01
 -1      3311-9.06629E+00 1.60788E+02-2.82987E+01
 -1      3312-4.55843E+00 1.67595E+02-2.95030E+01
 -1      3313-4.56110E+00 1.60777E+02-2.83005E+01
 -1      3314 4.55837E+00 1.67595E+02-2.95028E+01
 -1      3315 4.56102E+00 1.60776E+02-2.83004E+01
 -1      3316 9.45125E-02 1.66650E+00-2.77184E-01
 -1      3317-1.60773E+00 2.18979E+02-3.85578E+01
 -1      3318 2.08518E+00 2.19114E+02-3.85815E+01
 -1      3319 5.42767E-01 2.14582E+02-3.77835E+01
 -1      3320-3.63449E+00 2.17741E+02-3.83397E+01
 -1      3321-3.15000E+00 2.14447E+02-3.77596E+01
 -1      3322 9.86557E-01 6.69958E-01-2.30387E-01
 -1      3323 7.15500E-01 5.26101E-01-2.61808E-01
 -1      3324 1.33584E+00 8.23504E-01-4.11383E-01
 -1      3325 1.62914E+00 1.59758E+00-3.99362E-01
 -1      3326 1.16615E+00 1.45434E+00-4.26952E-01
 -1      3327 4.83291E+00 1.90449E+02-3.35365E+01
 -1      3328 1.34036E+00 1.93162E+02-3.40122E+01
 -1      3329-1.26146E+00 1.95343E+02-3.43954E+01
 -1      3330 8.92598E-01 1.90400E+02-3.35256E+01
 -1      3331 4.82536E+00 1.85985E+02-3.27510E+01
 -1      3332-1.26386E+00 1.90877E+02-3.36089E+01
 -1      3333-1.26211E+00 2.12007E+02-3.73300E+01
 -1      3334 9.27352E-01 2.13086E+02-3.75199E+01
 -1      3335 1.01693E+01 1.17319E+02-2.06616E+01
 -1      3336 2.98572E+00 1.15176E+02-2.02834E+01
 -1      3337 6.24149E+00 1.12618E+02-1.98449E+01
 -1      3338 2.76468E+00 8.44145E+01-1.48687E+01
 -1      3339 9.32267E+00 8.24998E+01-1.45338E+01
 -1      3340 6.31390E+00 8.71078E+01-1.53642E+01
 -1      3341 4.25891E+00 1.17274E+02-2.06699E+01
 -1      3342 3.90346E+00 8.24216E+01-1.45475E+01
 -1      3343-9.15273E+00 1.06888E+02-1.87960E+01
 -1      3344-1.05536E+01 1.10842E+02-1.95241E+01
 -1      3345-2.43109E-01 1.24973E-01 3.63863E-02
 -1      3346-2.49880E-01 1.36306E-01 3.57326E-03
 -1      3347-5.54794E-01 3.61398E-01 4.91225E-02
 -1      3348-5.79348E-01 3.77116E-01-1.05877E-02
 -1      3349-1.86580E-01 9.87157E-02 2.42401E-02
 -1      3350 8.54042E+00 2.11093E+02-3.71695E+01
 -1      3351 1.32767E+01 2.09224E+02-3.68409E+01
 -1      3352 6.96618E+00 2.04228E+02-3.59613E+01
 -1      3353 1.14150E-01-2.87637E-03-5.94940E-02
 -1      3354 3.75591E-02-1.42876E-02-1.85748E-02
 -1      3355-1.75111E-01 1.94131E-01 3.04653E-02
 -1      3356-5.34388E-03 5.04257E-02-9.13374E-03
 -1      3357 3.12992E-02 1.72191E-01-4.53322E-02
 -1      3358-1.53754E+00 1.93741E+00-2.49775E-01
 -1      3359-3.22279E-01 1.52325E+00-2.51617E-01
 -1      3360-5.56431E-01 1.11657E+00-1.29594E-01
 -1      3361 1.18377E+01 2.19115E+02-3.85812E+01
 -1      3362 1.11874E+01 2.18980E+02-3.85574E+01
 -1      3363 1.02410E+01 2.14336E+02-3.77396E+01
 -1      3364 9.59070E+00 2.14200E+02-3.77157E+01
 -1      3365 6.23959E+00 2.17494E+02-3.82959E+01
 -1      3366-9.87737E-02 1.71872E+00-2.86034E-01
 -1      3367-1.24529E+00 1.99436E+02-3.51166E+01
 -1      3368-1.47131E+00 8.84105E+00-1.63750E+00
 -1      3369 3.05051E-01 9.03787E+00-1.57252E+00
 -1      3370-2.45461E-01 1.01019E+01-1.78538E+00
 -1      3371-2.17891E-01 7.76342E+00-1.37393E+00
 -1      3372 1.46470E+00 7.98619E+00-1.34942E+00
 -1      3373 2.65351E-01 6.81140E+00-1.17998E+00
 -1      3374 3.28269E+00 1.97313E+02-3.47437E+01
 -1      3375-1.04301E+01 1.80160E+02-3.17229E+01
 -1      3376-5.05983E+00 1.83398E+02-3.22921E+01
 -1      3377-9.77540E+00 1.80773E+02-3.18267E+01
 -1      3378-9.75626E+00 1.74291E+02-3.06843E+01
 -1      3379-4.39591E+00 1.77523E+02-3.12555E+01
 -1      3380-5.05105E+00 1.76912E+02-3.11498E+01
 -1      3381-4.18921E+00 1.80151E+02-3.17243E+01
 -1      3382 8.65358E-01 1.80764E+02-3.18280E+01
 -1      3383-6.57289E-01 1.83396E+02-3.22924E+01
 -1      3384-6.55702E-01 1.76909E+02-3.11502E+01
 -1      3385 4.39568E+00 1.77523E+02-3.12554E+01
 -1      3386 8.63750E-01 1.74280E+02-3.06860E+01
 -1      3387-1.90780E+00 7.99423E+00-1.45469E+00
 -1      3388-1.32409E+00 7.01941E+00-1.31947E+00
 -1      3389-1.97567E-01 6.06227E+00-1.07467E+00
 -1      3390-8.31685E-01 1.55894E+01-2.76239E+00
 -1      3391-5.27629E+00 1.17150E+02-2.06273E+01
 -1      3392-5.19395E+00 1.51867E+02-2.67385E+01
 -1      3393-7.53696E-02 1.51861E+02-2.67396E+01
 -1      3394 7.52951E-02 1.51861E+02-2.67396E+01
 -1      3395 5.19390E+00 1.51867E+02-2.67384E+01
 -1      3396-1.73415E+00 1.17136E+02-2.06296E+01
 -1      3397-5.38462E-02-1.52170E-02-3.05873E-02
 -1      3398 2.83688E-02-1.48738E-02 1.60344E-02
 -1      3399-1.70265E-01 1.85755E-01-8.68070E-02
 -1      3400-7.70377E-02 5.57650E-02-2.99954E-02
 -1      3401-3.82522E-01 2.29547E-01-1.61688E-01
 -1      3402-1.04367E+01 1.74852E+02-3.07885E+01
 -1      3403-5.73141E+00 1.77472E+02-3.12512E+01
 -1      3404-5.06513E+00 1.71608E+02-3.02158E+01
 -1      3405-4.20626E+00 1.74842E+02-3.07902E+01
 -1      3406-6.78446E-01 1.71605E+02-3.02163E+01
 -1      3407-1.55551E+00 7.65965E+01-1.34952E+01
 -1      3408-2.24777E-01 2.29088E+00-4.16994E-01
 -1      3409 3.85340E+00 1.99438E+02-3.51168E+01
 -1      3410-2.52893E+00 1.56418E+01-2.75349E+00
 -1      3411 7.65139E+00 1.59717E+02-2.81346E+01
 -1      3412 8.49131E+00 1.66852E+02-2.93901E+01
 -1      3413 1.08050E+01 1.59728E+02-2.81325E+01
 -1      3414 1.16576E+01 1.66862E+02-2.93884E+01
 -1      3415 6.57954E-01 3.21444E+00-5.81030E-01
 -1      3416 2.10208E+00 2.85839E+00-5.25199E-01
 -1      3417 1.52773E+00 3.85661E+00-7.47278E-01
 -1      3418 4.73384E+00 7.66197E+01-1.34906E+01
 -1      3419-1.23209E+01 2.18980E+02-3.85577E+01
 -1      3420-1.16708E+01 2.19115E+02-3.85814E+01
 -1      3421-1.14046E+01 2.14347E+02-3.77421E+01
 -1      3422-1.07545E+01 2.14482E+02-3.77657E+01
 -1      3423-7.84840E+00 2.17641E+02-3.83220E+01
 -1      3424-3.29348E+00 7.21156E+00-1.28434E+00
 -1      3425-3.66632E+00 9.02673E+00-1.60337E+00
 -1      3426-3.04141E+00 7.00818E+00-1.14296E+00
 -1      3427-1.66153E+00 7.81350E+00-1.36391E+00
 -1      3428-1.47867E+00 6.11414E+00-1.06470E+00
 -1      3429-4.73272E+00 7.66222E+01-1.34911E+01
 -1      3430 1.55669E+00 7.65964E+01-1.34952E+01
 -1      3431-5.33537E-02 6.17874E+01-1.08797E+01
 -1      3432-4.17415E+00 6.18062E+01-1.08728E+01
 -1      3433 8.96379E-01 2.34338E+00-4.06660E-01
 -1      3434 8.72494E-01 2.63620E+00-5.62001E-01
 -1      3435 7.75666E-01 1.02461E+02-1.80356E+01
 -1      3436-6.00902E-01 1.00061E+02-1.76205E+01
 -1      3437-3.80865E+00 9.70741E+01-1.71186E+01
 -1      3438 7.64991E-01 9.65102E+01-1.69875E+01
 -1      3439-5.91419E-01 9.41477E+01-1.65796E+01
 -1      3440 4.00512E+00 9.95049E+01-1.75035E+01
 -1      3441-1.88236E+00 1.01534E+01-1.77613E+00
 -1      3442-3.47335E+00 9.22991E+00-1.53734E+00
 -1      3443-1.46045E+00 7.98258E+00-1.34922E+00
 -1      3444 2.46984E+00 2.17618E+02-3.83179E+01
 -1      3445 6.64655E+00 2.14459E+02-3.77619E+01
 -1      3446-3.80932E-02-1.68433E-02 2.72184E-02
 -1      3447-1.09833E-01 6.07094E-02 2.57231E-02
 -1      3448 1.04457E+01 1.36593E+02-2.40539E+01
 -1      3449 4.91053E+00 1.38760E+02-2.44320E+01
 -1      3450 9.17498E+00 1.35546E+02-2.38542E+01
 -1      3451 1.08871E+01 1.30241E+02-2.29375E+01
 -1      3452 5.39586E+00 1.32390E+02-2.33108E+01
 -1      3453 6.65694E+00 1.33427E+02-2.35048E+01
 -1      3454-5.21425E-01 1.35516E+02-2.38596E+01
 -1      3455 1.26214E+00 1.38753E+02-2.44333E+01
 -1      3456 4.37535E+00 1.36562E+02-2.40595E+01
 -1      3457 4.86097E+00 1.30203E+02-2.29443E+01
 -1      3458 1.77380E+00 1.32380E+02-2.33126E+01
 -1      3459-1.07534E+01 1.97316E+02-3.47429E+01
 -1      3460-5.75983E+00 1.97263E+02-3.47334E+01
 -1      3461 5.55489E+00 1.01551E+02-1.79085E+01
 -1      3462 2.10233E+00 9.94874E+01-1.75294E+01
 -1      3463 5.49542E+00 9.74537E+01-1.71890E+01
 -1      3464 3.40975E-01 4.98644E+01-8.78284E+00
 -1      3465-6.30805E-01 5.14610E+01-9.05037E+00
 -1      3466 3.03882E+00 5.22628E+01-9.24703E+00
 -1      3467 6.73550E-02 5.47780E+01-9.64583E+00
 -1      3468-9.39151E-01 5.64303E+01-9.92085E+00
 -1      3469-3.65113E+00 5.39882E+01-9.46841E+00
 -1      3470 7.29717E+00 5.15749E+01-9.02972E+00
 -1      3471 3.61001E+00 4.98917E+01-8.77746E+00
 -1      3472 7.68442E+00 5.23700E+01-9.22800E+00
 -1      3473 7.83155E+00 5.65580E+01-9.90215E+00
 -1      3474 4.02142E+00 5.48211E+01-9.64184E+00
 -1      3475 3.64681E+00 5.39967E+01-9.46989E+00
 -1      3476-3.35499E-01 4.98622E+01-8.78244E+00
 -1      3477 6.34889E-01 5.15053E+01-9.05818E+00
 -1      3478-6.12753E-02 5.47884E+01-9.64756E+00
 -1      3479 4.84125E+00 2.11884E+02-3.73086E+01
 -1      3480 4.89643E+00 2.08429E+02-3.67005E+01
 -1      3481-6.06243E-01 2.04078E+02-3.59337E+01
 -1      3482 1.52674E+00 2.08612E+02-3.67322E+01
 -1      3483-6.62204E-01 2.07533E+02-3.65421E+01
 -1      3484 5.95573E+00 1.51957E+01-2.90196E+00
 -1      3485 6.31286E+00 1.72939E+01-3.26511E+00
 -1      3486 5.48920E+00 1.78521E+01-3.23607E+00
 -1      3487 3.95109E+00 1.77387E+01-3.25598E+00
 -1      3488-6.61550E-01 1.97263E+02-3.47338E+01
 -1      3489 5.69151E+00 1.84761E+02-3.25322E+01
 -1      3490 5.66667E+00 1.70301E+02-2.99857E+01
 -1      3491 1.28202E+00 1.70297E+02-2.99866E+01
 -1      3492-2.17697E-01 1.18567E-01-1.70115E-02
 -1      3493-6.39234E-01 3.90644E-01-1.14524E-01
 -1      3494-9.58172E+00 2.04080E+02-3.59332E+01
 -1      3495 5.55947E+00 9.32461E+01-1.64166E+01
 -1      3496 5.26092E+00 1.06203E+02-1.86977E+01
 -1      3497-7.28917E+00 5.15766E+01-9.02921E+00
 -1      3498-3.60454E+00 4.98936E+01-8.77781E+00
 -1      3499-4.01418E+00 5.48107E+01-9.64017E+00
 -1      3500-3.92287E+00 1.01916E+02-1.79693E+01
 -1      3501-5.27280E+00 9.95238E+01-1.75375E+01
 -1      3502-6.76679E-01 1.04934E+02-1.84788E+01
 -1      3503-9.78588E+00 1.85242E+02-3.26144E+01
 -1      3504-2.20316E+00 1.87470E+02-3.30091E+01
 -1      3505-4.80480E+00 1.89651E+02-3.33918E+01
 -1      3506 1.10971E+00 1.06411E+02-1.87405E+01
 -1      3507 3.74418E-01 2.21380E-01-1.57720E-01
 -1      3508 1.75995E-01 8.11455E-02-5.72766E-02
 -1      3509-1.17125E+01 8.74291E+01-1.54859E+01
 -1      3510-9.27935E+00 1.73064E+02-3.04594E+01
 -1      3511-9.11521E+00 1.78537E+02-3.14300E+01
 -1      3512-4.57725E+00 1.78531E+02-3.14310E+01
 -1      3513-4.56710E+00 1.72051E+02-3.02885E+01
 -1      3514-9.09556E+00 1.72058E+02-3.02873E+01
 -1      3515 9.27928E+00 1.73063E+02-3.04592E+01
 -1      3516 9.11513E+00 1.78537E+02-3.14298E+01
 -1      3517 4.57713E+00 1.78531E+02-3.14309E+01
 -1      3518 4.56705E+00 1.72051E+02-3.02884E+01
 -1      3519 9.09553E+00 1.72058E+02-3.02870E+01
 -1      3520-9.29325E+00 1.77527E+02-3.12474E+01
 -1      3521-4.58295E+00 1.83000E+02-3.22189E+01
 -1      3522 9.29318E+00 1.77527E+02-3.12471E+01
 -1      3523 4.58281E+00 1.83000E+02-3.22187E+01
 -1      3524 9.30503E+00 1.81994E+02-3.20359E+01
 -1      3525 9.12605E+00 1.83005E+02-3.22178E+01
 -1      3526-9.30509E+00 1.81995E+02-3.20362E+01
 -1      3527-9.12603E+00 1.83005E+02-3.22180E+01
 -1      3528 1.59063E+00 9.32278E+01-1.64223E+01
 -1      3529 3.58433E-01 5.66342E+00-1.01213E+00
 -1      3530 8.50896E+00 9.94945E+01-1.74420E+01
 -1      3531 8.59584E+00 1.03612E+02-1.81716E+01
 -1      3532 4.20292E+00 1.00408E+02-1.76477E+01
 -1      3533 4.24716E+00 1.04535E+02-1.83763E+01
 -1      3534 8.41823E+00 1.04572E+02-1.83700E+01
 -1      3535-4.05438E-01 4.62122E-01 4.01484E-02
 -1      3536-7.88526E-01 6.06466E-01 5.91144E-02
 -1      3537-9.34761E-01 7.24229E-01 1.39265E-01
 -1      3538-6.05543E-01 1.32149E+00-1.20141E-01
 -1      3539-1.24804E+00 1.46306E+00-9.77926E-02
 -1      3540 2.15743E+00 1.06753E+01-1.87196E+00
 -1      3541 7.43379E+00 2.17618E+02-3.83178E+01
 -1      3542 1.14350E+01 2.14460E+02-3.77617E+01
 -1      3543-1.21685E+00 1.31004E+02-2.30621E+01
 -1      3544 1.06710E+00 1.27887E+02-2.25207E+01
 -1      3545-4.32630E+00 1.33191E+02-2.34424E+01
 -1      3546 9.83104E+00 1.31374E+02-2.31140E+01
 -1      3547 4.32799E+00 1.33524E+02-2.35010E+01
 -1      3548 6.06399E+00 1.28233E+02-2.25764E+01
 -1      3549 4.81991E-01 1.06135E+01-1.88270E+00
 -1      3550-3.18878E+00 4.07912E+00-9.90576E-01
 -1      3551-9.87665E+00 2.14583E+02-3.77833E+01
 -1      3552-6.97062E+00 2.17742E+02-3.83397E+01
 -1      3553 2.82488E+00 6.49004E+00-8.83003E-01
 -1      3554 3.11081E+00 7.95306E+00-1.14737E+00
 -1      3555 1.35662E+00 6.13395E+00-9.69281E-01
 -1      3556 2.97937E+00 7.69425E+00-1.20095E+00
 -1      3557 2.69757E+00 6.26505E+00-9.45184E-01
 -1      3558-2.77700E+00 2.61946E+01-4.60255E+00
 -1      3559 1.60001E+00 5.73264E+00-1.00116E+00
 -1      3560-2.42306E+00 1.77983E+01-3.12990E+00
 -1      3561-6.24787E-01 1.77545E+01-3.13747E+00
 -1      3562 1.22993E+00 1.19415E+02-2.10292E+01
 -1      3563 4.48262E-01 1.56349E+02-2.75302E+01
 -1      3564-4.83757E+00 1.56354E+02-2.75294E+01
 -1      3565-4.48288E-01 1.56349E+02-2.75302E+01
 -1      3566 4.83752E+00 1.56354E+02-2.75293E+01
 -1      3567 4.78515E+00 1.19426E+02-2.10273E+01
 -1      3568-1.11545E+00 8.05028E+01-1.41801E+01
 -1      3569 4.33926E+00 8.05232E+01-1.41763E+01
 -1      3570-4.33967E+00 8.05244E+01-1.41767E+01
 -1      3571 1.11507E+00 8.05042E+01-1.41802E+01
 -1      3572 2.58441E-01 2.61545E+01-4.60885E+00
 -1      3573 2.78308E+00 2.61830E+01-4.60013E+00
 -1      3574 8.63888E-01 3.87132E+01-6.82528E+00
 -1      3575-3.36424E+00 3.87489E+01-6.81972E+00
 -1      3576 3.35834E+00 3.87469E+01-6.81929E+00
 -1      3577-2.51829E-01 2.61454E+01-4.60718E+00
 -1      3578 8.63429E+00 5.56619E+01-9.81735E+00
 -1      3579 4.83594E+00 5.39123E+01-9.52563E+00
 -1      3580 4.89735E+00 5.81646E+01-1.02338E+01
 -1      3581 3.88426E+00 5.55443E+01-9.83826E+00
 -1      3582 8.60105E-01 5.81103E+01-1.02396E+01
 -1      3583-8.69724E-01 3.87150E+01-6.82569E+00
 -1      3584-1.36508E-01 5.96853E-04-7.73987E-02
 -1      3585-1.92050E-01 8.08225E-02-6.34361E-02
 -1      3586-1.33453E+01 1.99932E+02-3.52069E+01
 -1      3587-1.32842E+01 2.04599E+02-3.60277E+01
 -1      3588-1.14160E+01 1.99582E+02-3.51433E+01
 -1      3589-8.24274E+00 1.99581E+02-3.51437E+01
 -1      3590 3.56415E+00 1.28060E+02-2.25522E+01
 -1      3591-1.81282E+00 1.33359E+02-2.34800E+01
 -1      3592-2.49976E+00 1.28863E+02-2.26864E+01
 -1      3593 1.31938E+01 1.64164E+02-2.89244E+01
 -1      3594-1.17809E+01 2.19115E+02-3.85814E+01
 -1      3595-7.08062E+00 2.17742E+02-3.83397E+01
 -1      3596-1.07503E+01 2.01565E+02-3.54912E+01
 -1      3597 6.09235E+00 2.19114E+02-3.85814E+01
 -1      3598 6.47713E+00 2.17618E+02-3.83179E+01
 -1      3599-6.61328E-01 8.92437E+00-1.57632E+00
 -1      3600 1.12587E+00 9.14818E+00-1.59496E+00
 -1      3601 9.84654E-01 6.92666E+00-1.20343E+00
 -1      3602-2.23892E+00 3.98556E+00-4.28694E-01
 -1      3603-1.04417E+01 1.84629E+02-3.25096E+01
 -1      3604-5.97988E-01 7.10561E+00-1.25635E+00
 -1      3605-8.87880E+00 9.65802E+01-1.69776E+01
 -1      3606-4.69580E+00 9.89744E+01-1.74230E+01
 -1      3607-9.63992E+00 1.01972E+02-1.79579E+01
 -1      3608-9.06868E+00 1.02744E+02-1.80643E+01
 -1      3609-4.81946E+00 1.05175E+02-1.85147E+01
 -1      3610-4.11930E+00 9.97346E+01-1.75434E+01
 -1      3611-1.86726E+00 1.80153E+02-3.17213E+01
 -1      3612 3.18839E+00 1.80766E+02-3.18284E+01
 -1      3613 3.18214E+00 1.74283E+02-3.06867E+01
 -1      3614-1.21104E+00 1.80766E+02-3.18286E+01
 -1      3615-1.20884E+00 1.74282E+02-3.06869E+01
 -1      3616-3.78004E-01 6.90503E+00-1.20606E+00
 -1      3617 1.81274E+00 1.33359E+02-2.34800E+01
 -1      3618 2.50089E+00 1.29195E+02-2.27448E+01
 -1      3619-8.46030E+00 9.53079E+01-1.66994E+01
 -1      3620-8.54885E+00 9.93834E+01-1.74221E+01
 -1      3621-4.20793E+00 9.43845E+01-1.65835E+01
 -1      3622-8.32900E+00 9.86029E+01-1.73150E+01
 -1      3623-8.24125E+00 9.45374E+01-1.65961E+01
 -1      3624 2.03310E+00 5.40177E+01-9.51717E+00
 -1      3625 2.86435E+00 5.73394E+01-1.01067E+01
 -1      3626-2.72589E-01 1.43321E-01-3.74302E-02
 -1      3627-2.50732E-01 1.21500E-01-5.58617E-02
 -1      3628-3.38205E+00 9.58103E+00-1.44070E+00
 -1      3629-3.11434E+00 7.98246E+00-1.15196E+00
 -1      3630-3.37721E+00 1.00456E+01-1.62060E+00
 -1      3631-1.56150E+00 8.26113E+00-1.34843E+00
 -1      3632-1.68768E+00 9.88861E+00-1.63828E+00
 -1      3633-1.88842E+00 1.74844E+02-3.07865E+01
 -1      3634-4.33274E-01 9.13085E+00-1.59826E+00
 -1      3635 3.07147E+00 1.34401E+02-2.36674E+01
 -1      3636 1.28943E+01 2.19115E+02-3.85812E+01
 -1      3637 8.49029E+00 2.17618E+02-3.83178E+01
 -1      3638 1.67210E+00 5.32170E+01-9.36222E+00
 -1      3639-4.56933E+00 9.41709E+01-1.65780E+01
 -1      3640-1.67486E+00 5.32192E+01-9.36252E+00
 -1      3641-2.81795E+00 6.46469E+00-8.78265E-01
 -1      3642-3.09589E+00 8.35925E+00-1.31923E+00
 -1      3643-1.35446E+00 6.13124E+00-9.68990E-01
 -1      3644-2.68771E+00 6.23775E+00-9.39991E-01
 -1      3645 2.92235E+00 1.02495E+02-1.80423E+01
 -1      3646-1.69229E+00 9.71020E+01-1.70992E+01
 -1      3647 2.88012E+00 9.65475E+01-1.69950E+01
 -1      3648-1.82341E+00 1.40802E+00-5.26077E-01
 -1      3649-1.47518E+00 2.24643E+00-5.65142E-01
 -1      3650 1.16619E-01 8.76124E-02 1.90843E-03
 -1      3651 1.33063E+01 1.90943E+02-3.36265E+01
 -1      3652 7.00299E+00 1.95086E+02-3.43528E+01
 -1      3653 8.54859E+00 1.88224E+02-3.31466E+01
 -1      3654-8.63734E+00 1.03725E+02-1.81913E+01
 -1      3655-4.25615E+00 9.86744E+01-1.73412E+01
 -1      3656-8.50653E+00 1.04798E+02-1.84091E+01
 -1      3657-4.37357E+00 1.04874E+02-1.84351E+01
 -1      3658 1.34077E+01 1.99802E+02-3.51839E+01
 -1      3659 1.33913E+01 2.04513E+02-3.60122E+01
 -1      3660 1.02092E+01 1.99519E+02-3.51322E+01
 -1      3661 7.08090E+00 1.99517E+02-3.51324E+01
 -1      3662-9.39384E-01 2.40870E+00-4.15630E-01
 -1      3663 1.02576E-01 6.99442E-02 1.85425E-02
 -1      3664 1.64327E-01 1.96291E-01 2.38756E-02
 -1      3665-9.45733E+00 9.71351E+01-1.71079E+01
 -1      3666 1.97867E-01 2.34986E+00-4.26123E-01
 -1      3667 3.32337E+00 2.01564E+02-3.54919E+01
 -1      3668-4.49887E-02 2.01747E+02-3.55233E+01
 -1      3669-2.29965E+00 2.16282E+00-6.62686E-01
 -1      3670-2.04917E+00 2.40023E+00-5.39899E-01
 -1      3671 1.81891E+00 1.40981E+00-5.28178E-01
 -1      3672 2.03851E+00 2.39354E+00-5.40968E-01
 -1      3673-1.78103E+00 1.01941E+02-1.79509E+01
 -1      3674 7.91202E+00 1.05244E+02-1.85764E+01
 -1      3675 4.41881E+00 1.03158E+02-1.81921E+01
 -1      3676 4.81023E+00 9.61409E+01-1.69639E+01
 -1      3677 2.31483E+00 2.17400E+00-6.66131E-01
 -1      3678 1.47977E+00 2.25723E+00-5.68955E-01
 -1      3679-1.32457E+01 1.73068E+02-3.04873E+01
 -1      3680-1.32655E+01 1.77531E+02-3.12709E+01
 -1      3681-1.10901E+01 1.82393E+02-3.21192E+01
 -1      3682-7.89787E+00 1.77920E+02-3.13344E+01
 -1      3683-1.10764E+01 1.77926E+02-3.13334E+01
 -1      3684-1.32821E+01 1.81998E+02-3.20554E+01
 -1      3685-7.90791E+00 1.82388E+02-3.21200E+01
 -1      3686-7.90728E+00 1.72614E+02-3.04018E+01
 -1      3687-1.10804E+01 1.72621E+02-3.04005E+01
 -1      3688 7.80803E+00 9.95310E+01-1.75217E+01
 -1      3689 1.01807E+01 1.03218E+02-1.81816E+01
 -1      3690 8.55385E+00 1.77529E+02-3.12585E+01
 -1      3691 1.10377E+01 1.73545E+02-3.05586E+01
 -1      3692 2.31992E+00 1.77523E+02-3.12598E+01
 -1      3693 4.80909E+00 1.73533E+02-3.05607E+01
 -1      3694 7.68154E-01 7.92896E+00-1.43484E+00
 -1      3695 1.46480E+00 6.59231E+00-1.26100E+00
 -1      3696 2.84739E+00 8.06811E+00-1.40946E+00
 -1      3697 3.38126E+00 6.80194E+00-1.22375E+00
 -1      3698 9.27573E+00 2.10991E+02-3.71502E+01
 -1      3699 4.66889E+00 2.10968E+02-3.71467E+01
 -1      3700 9.30139E+00 2.09244E+02-3.68422E+01
 -1      3701 8.86474E+00 2.04455E+02-3.59989E+01
 -1      3702 4.25901E+00 2.04432E+02-3.59954E+01
 -1      3703-4.03252E+00 6.58401E+00-1.41889E+00
 -1      3704-2.66402E+00 8.09859E+00-1.57007E+00
 -1      3705-3.73041E+00 8.22145E+00-1.54752E+00
 -1      3706-3.32867E+00 6.48650E+00-1.24556E+00
 -1      3707-2.37775E+00 6.35975E+00-1.26906E+00
 -1      3708-4.44017E+00 8.04492E+00-1.66978E+00
 -1      3709-4.06121E+00 9.82814E+00-1.82741E+00
 -1      3710-4.82748E+00 9.63820E+00-1.94329E+00
 -1      3711-2.89042E+00 9.70666E+00-1.84921E+00
 -1      3712-4.17221E+00 1.51131E+01-2.43440E+00
 -1      3713-2.01523E+00 1.71814E+01-2.94273E+00
 -1      3714-4.42247E+00 1.72138E+01-2.81094E+00
 -1      3715-4.18079E+00 1.72898E+01-2.92309E+00
 -1      3716 1.31615E+01 1.59725E+02-2.81453E+01
 -1      3717 1.07749E+01 1.55299E+02-2.73538E+01
 -1      3718 1.31246E+01 1.55295E+02-2.73685E+01
 -1      3719 7.62984E+00 1.55287E+02-2.73561E+01
 -1      3720-1.31616E+01 1.59724E+02-2.81456E+01
 -1      3721-1.07751E+01 1.55299E+02-2.73542E+01
 -1      3722 1.30830E+01 1.50878E+02-2.65941E+01
 -1      3723-1.31249E+01 1.55295E+02-2.73688E+01
 -1      3724-7.62980E+00 1.55287E+02-2.73561E+01
 -1      3725-1.30829E+01 1.50878E+02-2.65943E+01
 -1      3726-8.78801E+00 1.16180E+02-2.03986E+01
 -1      3727-4.04358E+00 1.20425E+02-2.11841E+01
 -1      3728-8.85105E+00 1.20433E+02-2.11519E+01
 -1      3729-8.36628E+00 1.20451E+02-2.11793E+01
 -1      3730 8.78825E+00 1.16179E+02-2.03983E+01
 -1      3731 8.36637E+00 1.20451E+02-2.11792E+01
 -1      3732 8.85067E+00 1.20433E+02-2.11516E+01
 -1      3733 4.04352E+00 1.20425E+02-2.11838E+01
 -1      3734-4.66519E+00 1.94327E+01-3.20800E+00
 -1      3735-6.16961E+00 3.79787E+01-6.51647E+00
 -1      3736-6.35624E+00 4.10188E+01-7.05823E+00
 -1      3737-2.81465E+00 3.79525E+01-6.61867E+00
 -1      3738-5.83160E+00 3.80374E+01-6.60379E+00
 -1      3739-8.10016E+00 8.34564E+01-1.45984E+01
 -1      3740-7.55237E+00 7.96035E+01-1.39604E+01
 -1      3741-7.98860E+00 7.95677E+01-1.39083E+01
 -1      3742-3.64821E+00 7.95529E+01-1.39693E+01
 -1      3743 8.11194E+00 8.34564E+01-1.45980E+01
 -1      3744 7.55181E+00 7.96021E+01-1.39598E+01
 -1      3745 7.32171E+00 2.42822E+01-4.47702E+00
 -1      3746 6.26906E+00 2.68602E+01-4.80263E+00
 -1      3747 7.63807E+00 2.68315E+01-4.91935E+00
 -1      3748 4.43511E+00 2.67638E+01-4.81991E+00
 -1      3749 7.98902E+00 7.95674E+01-1.39081E+01
 -1      3750 3.64758E+00 7.95518E+01-1.39692E+01
 -1      3751 4.67944E+00 1.94330E+01-3.20722E+00
 -1      3752 4.17882E+00 1.72894E+01-2.92283E+00
 -1      3753 4.43381E+00 1.72140E+01-2.81025E+00
 -1      3754 2.02465E+00 1.71810E+01-2.94216E+00
 -1      3755 4.18184E+00 1.51130E+01-2.43346E+00
 -1      3756 7.87146E+00 7.57331E+01-1.32273E+01
 -1      3757-7.87202E+00 7.57331E+01-1.32276E+01
 -1      3758 6.35685E+00 4.10188E+01-7.05799E+00
 -1      3759 5.82751E+00 3.80370E+01-6.60333E+00
 -1      3760-7.69003E+00 2.68289E+01-4.92007E+00
 -1      3761-7.37067E+00 2.42801E+01-4.47782E+00
 -1      3762-4.48164E+00 2.67616E+01-4.82066E+00
 -1      3763-6.26435E+00 2.68612E+01-4.80350E+00
 -1      3764 9.58965E+00 4.74087E+01-8.50189E+00
 -1      3765 9.88669E+00 5.06966E+01-9.07533E+00
 -1      3766 8.08298E+00 5.07119E+01-8.98558E+00
 -1      3767 5.77508E+00 5.06403E+01-8.99848E+00
 -1      3768 6.19181E+00 3.79653E+01-6.51329E+00
 -1      3769 2.83383E+00 3.79391E+01-6.61588E+00
 -1      3770-1.00955E+01 5.40741E+01-9.66281E+00
 -1      3771-5.75390E+00 5.06561E+01-9.00124E+00
 -1      3772-9.63226E+00 4.74133E+01-8.50249E+00
 -1      3773-8.06874E+00 5.07152E+01-8.98546E+00
 -1      3774-1.12299E+00 9.65474E+01-1.69969E+01
 -1      3775-1.19497E+00 1.02714E+02-1.80827E+01
 -1      3776-9.86778E+00 5.07163E+01-9.07786E+00
 -1      3777 8.00501E+00 1.38750E+02-2.44534E+01
 -1      3778 1.11071E+01 1.38770E+02-2.44500E+01
 -1      3779 1.29264E+01 1.37718E+02-2.42871E+01
 -1      3780 8.46790E+00 1.32378E+02-2.33375E+01
 -1      3781 1.15485E+01 1.32401E+02-2.33332E+01
 -1      3782-1.05515E+01 6.10345E+01-1.08778E+01
 -1      3783-8.76897E+00 6.46149E+01-1.14244E+01
 -1      3784-1.33355E+01 1.95437E+02-3.44167E+01
 -1      3785-1.07509E+01 6.46157E+01-1.15023E+01
 -1      3786-6.26534E+00 6.45796E+01-1.14399E+01
 -1      3787-1.27967E+00 1.30417E+00 5.05788E-02
 -1      3788-7.72866E-01 2.09322E+00-2.55141E-01
 -1      3789 4.03877E-01 4.81965E-01 3.29256E-02
 -1      3790 7.94878E-01 6.24743E-01 5.13796E-02
 -1      3791 9.37217E-01 7.28101E-01 1.38302E-01
 -1      3792 5.79657E-01 1.27761E+00-1.16542E-01
 -1      3793 1.21038E+00 1.41598E+00-9.45097E-02
 -1      3794-3.40180E+00 4.98361E+01-8.71155E+00
 -1      3795-6.71792E+00 4.99094E+01-8.69712E+00
 -1      3796-6.88779E+00 5.06449E+01-8.76985E+00
 -1      3797-3.80413E+00 5.47517E+01-9.57305E+00
 -1      3798-7.23516E+00 5.48248E+01-9.55826E+00
 -1      3799 3.40810E+00 4.98541E+01-8.71462E+00
 -1      3800 6.72202E+00 4.99109E+01-8.69781E+00
 -1      3801 6.90445E+00 5.06689E+01-8.77422E+00
 -1      3802 3.81185E+00 5.47829E+01-9.57843E+00
 -1      3803 7.24091E+00 5.48389E+01-9.56116E+00
 -1      3804 1.33273E+01 1.95372E+02-3.44051E+01
 -1      3805 4.13788E+00 1.37698E+02-2.42314E+01
 -1      3806 8.55970E+00 1.37717E+02-2.42279E+01
 -1      3807 9.05565E+00 1.37704E+02-2.42087E+01
 -1      3808 4.86896E+00 1.43052E+02-2.51723E+01
 -1      3809 9.31670E+00 1.43071E+02-2.51690E+01
 -1      3810 4.37235E+00 1.43064E+02-2.51827E+01
 -1      3811-4.13796E+00 1.37698E+02-2.42314E+01
 -1      3812-8.55979E+00 1.37717E+02-2.42281E+01
 -1      3813-9.05573E+00 1.37704E+02-2.42089E+01
 -1      3814-4.86903E+00 1.43053E+02-2.51725E+01
 -1      3815-9.31678E+00 1.43072E+02-2.51692E+01
 -1      3816-4.37246E+00 1.43064E+02-2.51828E+01
 -1      3817 4.13952E+00 9.44879E+01-1.66021E+01
 -1      3818 8.98026E+00 1.02519E+02-1.80254E+01
 -1      3819 8.85018E+00 9.65739E+01-1.69760E+01
 -1      3820 8.30014E+00 9.85965E+01-1.73136E+01
 -1      3821 8.21262E+00 9.45313E+01-1.65948E+01
 -1      3822-1.61081E+00 2.05669E+00-7.94940E-02
 -1      3823-1.56984E+00 2.23999E+00-2.32745E-01
 -1      3824 7.20346E+00 3.01340E+01-5.39590E+00
 -1      3825 5.27750E+00 3.00306E+01-5.41436E+00
 -1      3826 3.84442E+00 3.00697E+01-5.33793E+00
 -1      3827-6.07011E+00 3.44418E+01-5.94442E+00
 -1      3828-3.16638E+00 3.43441E+01-5.96140E+00
 -1      3829-2.84484E+00 3.44042E+01-6.01667E+00
 -1      3830 9.77540E+00 1.80772E+02-3.18265E+01
 -1      3831 9.75616E+00 1.74291E+02-3.06840E+01
 -1      3832-8.65445E-01 1.80764E+02-3.18281E+01
 -1      3833-8.63900E-01 1.74280E+02-3.06861E+01
 -1      3834 1.68993E+00 9.88834E+00-1.63810E+00
 -1      3835 1.48980E+00 7.56527E+00-1.22493E+00
 -1      3836 3.47735E+00 9.23020E+00-1.53786E+00
 -1      3837 3.37720E+00 1.00130E+01-1.61505E+00
 -1      3838 3.04562E+00 7.01134E+00-1.14369E+00
 -1      3839 1.28625E+01 1.33367E+02-2.35245E+01
 -1      3840 1.27927E+01 1.29038E+02-2.27661E+01
 -1      3841 8.42069E+00 1.28052E+02-2.25786E+01
 -1      3842 1.14845E+01 1.28078E+02-2.25740E+01
 -1      3843-9.13295E+00 1.46464E+02-2.57583E+01
 -1      3844-9.09603E+00 1.42075E+02-2.49820E+01
 -1      3845-9.35315E+00 1.47463E+02-2.59448E+01
 -1      3846-4.88831E+00 1.47446E+02-2.59478E+01
 -1      3847 9.09595E+00 1.42075E+02-2.49818E+01
 -1      3848 4.88824E+00 1.47446E+02-2.59476E+01
 -1      3849 9.13288E+00 1.46464E+02-2.57581E+01
 -1      3850 9.35307E+00 1.47462E+02-2.59445E+01
 -1      3851-5.77377E+00 3.21743E+01-5.48259E+00
 -1      3852-5.97512E+00 3.50291E+01-5.99128E+00
 -1      3853-5.86279E+00 3.16111E+01-5.44139E+00
 -1      3854-3.05788E+00 3.15095E+01-5.45956E+00
 -1      3855 7.94442E+00 2.94859E+01-5.38082E+00
 -1      3856 8.24189E+00 3.22404E+01-5.85957E+00
 -1      3857 7.46808E+00 3.29095E+01-5.88181E+00
 -1      3858 5.47166E+00 3.28103E+01-5.89925E+00
 -1      3859-7.19909E+00 3.01316E+01-5.39577E+00
 -1      3860-5.32716E+00 3.00247E+01-5.41460E+00
 -1      3861-3.83523E+00 3.00686E+01-5.33804E+00
 -1      3862 6.07035E+00 3.44330E+01-5.94274E+00
 -1      3863 3.18907E+00 3.43224E+01-5.95683E+00
 -1      3864 2.84142E+00 3.43952E+01-6.01508E+00
 -1      3865-7.99443E+00 2.94790E+01-5.38072E+00
 -1      3866-5.51949E+00 3.28000E+01-5.89859E+00
 -1      3867 5.99693E+00 3.50162E+01-5.98817E+00
 -1      3868 5.86288E+00 3.16026E+01-5.43974E+00
 -1      3869-9.81931E+00 6.91139E+01-1.22262E+01
 -1      3870-7.25841E+00 6.90758E+01-1.22424E+01
 -1      3871-5.23584E+00 6.90810E+01-1.21908E+01
 -1      3872-1.10610E+01 7.19965E+01-1.27899E+01
 -1      3873-1.08804E+01 6.82614E+01-1.21384E+01
 -1      3874-7.31408E+00 7.28005E+01-1.28936E+01
 -1      3875-9.97859E+00 7.28615E+01-1.28830E+01
 -1      3876-8.29376E+00 3.22332E+01-5.85938E+00
 -1      3877-7.46364E+00 3.29070E+01-5.88168E+00
 -1      3878 8.77752E+00 6.46226E+01-1.14258E+01
 -1      3879 6.25522E+00 6.45619E+01-1.14365E+01
 -1      3880 1.07385E+01 6.46052E+01-1.15005E+01
 -1      3881 9.82420E+00 6.91202E+01-1.22276E+01
 -1      3882 7.24388E+00 6.90564E+01-1.22386E+01
 -1      3883 5.24332E+00 6.90797E+01-1.21904E+01
 -1      3884-7.04796E+00 5.40127E+01-9.36829E+00
 -1      3885-7.39076E+00 5.82815E+01-1.01712E+01
 -1      3886-3.02662E-01 9.03814E+00-1.57266E+00
 -1      3887-8.19918E-01 9.65165E+01-1.69884E+01
 -1      3888-8.87151E-01 1.02685E+02-1.80744E+01
 -1      3889-7.19094E+00 5.74469E+01-9.97897E+00
 -1      3890-3.87543E+00 5.82038E+01-1.01838E+01
 -1      3891 7.06707E+00 5.40295E+01-9.37153E+00
 -1      3892 7.39883E+00 5.82880E+01-1.01729E+01
 -1      3893 1.10894E+01 7.19948E+01-1.27901E+01
 -1      3894 1.09288E+01 6.82689E+01-1.21398E+01
 -1      3895 9.98431E+00 7.28592E+01-1.28827E+01
 -1      3896 7.34014E+00 7.27984E+01-1.28935E+01
 -1      3897 5.78604E+00 3.21596E+01-5.47937E+00
 -1      3898 3.07099E+00 3.14864E+01-5.45496E+00
 -1      3899-4.91063E+00 1.38760E+02-2.44321E+01
 -1      3900-9.21807E+00 1.39906E+02-2.46234E+01
 -1      3901-5.24047E-01 1.39879E+02-2.46281E+01
 -1      3902 9.21800E+00 1.39906E+02-2.46231E+01
 -1      3903-1.26224E+00 1.38753E+02-2.44333E+01
 -1      3904 5.23981E-01 1.39879E+02-2.46281E+01
 -1      3905-2.63651E-01 6.80862E+00-1.17964E+00
 -1      3906-1.21823E+01 9.96348E+01-1.76203E+01
 -1      3907-1.20485E+01 9.53374E+01-1.68688E+01
 -1      3908-7.18473E+00 9.49475E+01-1.67655E+01
 -1      3909-9.99584E+00 9.50987E+01-1.67772E+01
 -1      3910-7.26521E+00 9.92422E+01-1.75188E+01
 -1      3911 1.07473E+01 1.15196E+02-2.03086E+01
 -1      3912 1.09269E+01 1.09448E+02-1.93011E+01
 -1      3913-1.59484E+00 1.05160E+01-1.93035E+00
 -1      3914-2.63126E+00 1.19022E+01-2.15394E+00
 -1      3915 9.95480E+00 8.44476E+01-1.49098E+01
 -1      3916 1.08797E+01 9.01621E+01-1.59198E+01
 -1      3917-3.55245E-01 6.54514E+01-1.15268E+01
 -1      3918-3.24582E+00 6.63707E+01-1.17237E+01
 -1      3919 7.74497E+00 1.15165E+02-2.03140E+01
 -1      3920 7.95601E+00 1.09412E+02-1.93074E+01
 -1      3921 3.62494E-01 6.54407E+01-1.15250E+01
 -1      3922 3.26270E+00 6.63633E+01-1.17224E+01
 -1      3923 7.18455E+00 8.43977E+01-1.49188E+01
 -1      3924 8.05685E+00 9.01127E+01-1.59289E+01
 -1      3925 7.20181E+00 5.74745E+01-9.98426E+00
 -1      3926 3.87452E+00 5.82462E+01-1.01912E+01
 -1      3927-3.95043E+00 6.54654E+01-1.15207E+01
 -1      3928-8.31265E+00 6.64534E+01-1.17064E+01
 -1      3929-3.97473E+00 1.07003E+01-1.89780E+00
 -1      3930-3.94600E+00 1.06057E+02-1.86967E+01
 -1      3931-6.18167E+00 1.09105E+02-1.92266E+01
 -1      3932 3.95814E+00 6.54760E+01-1.15224E+01
 -1      3933 8.32207E+00 6.64534E+01-1.17065E+01
 -1      3934 1.27372E+00 1.31119E+00 4.78502E-02
 -1      3935 1.52916E+00 2.18355E+00-2.28154E-01
 -1      3936 9.28804E+00 2.04577E+02-3.60196E+01
 -1      3937 8.85047E+00 1.99788E+02-3.51764E+01
 -1      3938 1.62750E+00 2.07491E+00-8.11908E-02
 -1      3939 7.53338E-01 2.04802E+00-2.49594E-01
 -1      3940 2.42026E+00 3.31461E+00-7.00528E-01
 -1      3941 3.02715E+00 4.83406E+00-9.73865E-01
 -1      3942 9.40246E+00 1.99866E+02-3.51889E+01
 -1      3943 4.37463E+00 1.99721E+02-3.51654E+01
 -1      3944-6.93207E+00 3.15246E+01-5.57217E+00
 -1      3945-6.00889E+00 2.81892E+01-4.97241E+00
 -1      3946-3.11669E+00 2.88674E+01-5.06814E+00
 -1      3947-6.15274E+00 3.02711E+01-5.25223E+00
 -1      3948-3.90465E+00 3.22353E+01-5.66572E+00
 -1      3949 9.24307E+00 1.64157E+02-2.88858E+01
 -1      3950-9.24314E+00 1.64157E+02-2.88860E+01
 -1      3951-7.17799E+00 3.43486E+01-6.06879E+00
 -1      3952-3.60189E+00 3.57353E+01-6.29171E+00
 -1      3953-6.16813E+00 3.65824E+01-6.38816E+00
 -1      3954-6.37817E+00 3.30518E+01-5.74449E+00
 -1      3955 6.37825E+00 3.30432E+01-5.74282E+00
 -1      3956 6.16407E+00 3.65823E+01-6.38786E+00
 -1      3957 3.60239E+00 3.57376E+01-6.29189E+00
 -1      3958 7.18247E+00 3.43510E+01-6.06891E+00
 -1      3959 3.90930E+00 3.22290E+01-5.66442E+00
 -1      3960 2.34828E+00 2.80450E+01-4.99692E+00
 -1      3961 4.54024E-02 2.88214E+01-5.07549E+00
 -1      3962-7.58198E-01 3.01114E+01-5.28028E+00
 -1      3963 3.09426E+00 3.13697E+01-5.60016E+00
 -1      3964 6.89088E-01 3.21787E+01-5.67626E+00
 -1      3965-7.86062E-01 3.28976E+01-5.77162E+00
 -1      3966-3.48454E-01 3.64533E+01-6.41075E+00
 -1      3967 3.20443E+00 3.41993E+01-6.09562E+00
 -1      3968 1.18623E+00 3.56972E+01-6.29912E+00
 -1      3969 6.15275E+00 3.02627E+01-5.25063E+00
 -1      3970 3.12200E+00 2.88578E+01-5.06615E+00
 -1      3971 6.01372E+00 2.81880E+01-4.97162E+00
 -1      3972 6.93641E+00 3.15270E+01-5.57225E+00
 -1      3973 1.74490E+00 3.16993E+00-7.25452E-01
 -1      3974 2.20756E+00 4.68710E+00-9.98726E-01
 -1      3975 3.24260E-01 3.64418E+01-6.40926E+00
 -1      3976-1.18578E+00 3.56948E+01-6.29875E+00
 -1      3977-3.21929E+00 3.41859E+01-6.09374E+00
 -1      3978 7.67309E-01 3.28780E+01-5.76865E+00
 -1      3979-6.84027E-01 3.21678E+01-5.67430E+00
 -1      3980 1.04753E+01 9.62117E+01-1.69508E+01
 -1      3981 1.10640E+01 1.81522E+02-3.19629E+01
 -1      3982 4.82023E+00 1.81514E+02-3.19645E+01
 -1      3983 1.28741E+00 1.84759E+02-3.25327E+01
 -1      3984-3.11347E+00 3.13398E+01-5.59551E+00
 -1      3985-2.36592E+00 2.80198E+01-4.99310E+00
 -1      3986 7.34406E-01 3.00756E+01-5.27464E+00
 -1      3987-3.96662E-02 2.88145E+01-5.07419E+00
 -1      3988 9.40185E+00 1.95370E+02-3.43960E+01
 -1      3989 1.93947E+00 2.95554E+00-2.40602E-01
 -1      3990-1.32956E+01 1.86469E+02-3.28407E+01
 -1      3991 3.97835E+00 9.52269E+00-1.70146E+00
 -1      3992-5.21379E+00 1.13648E+01-2.24052E+00
 -1      3993-4.38297E+00 1.15654E+01-2.13075E+00
 -1      3994-5.61510E+00 1.32035E+01-2.55906E+00
 -1      3995-3.14387E+00 1.14315E+01-2.15004E+00
 -1      3996-1.32216E+01 1.68612E+02-2.97053E+01
 -1      3997-9.72992E+00 1.06109E+02-1.86862E+01
 -1      3998-5.14531E+00 2.01746E+02-3.55229E+01
 -1      3999 1.72410E+00 9.32289E+00-1.73749E+00
 -1      4000-1.24480E+01 1.11980E+02-1.97800E+01
 -1      4001-1.03802E+01 1.08187E+02-1.90745E+01
 -1      4002-7.41812E+00 1.08153E+02-1.90809E+01
 -1      4003-8.21830E+00 1.12903E+02-1.99213E+01
 -1      4004-1.12093E+01 1.12937E+02-1.99154E+01
 -1      4005-3.61870E+00 5.25780E+00-1.19261E+00
 -1      4006-1.12878E+00 1.14868E+01-2.03389E+00
 -1      4007 1.99754E-02 6.99937E-02-7.56097E-03
 -1      4008-4.91750E+00 1.27888E+02-2.25383E+01
 -1      4009-6.67151E+00 1.26787E+02-2.23377E+01
 -1      4010-4.30247E+00 1.23588E+02-2.17794E+01
 -1      4011 1.21026E+00 1.27016E+02-2.23592E+01
 -1      4012-5.48205E-01 1.25911E+02-2.21716E+01
 -1      4013-1.14197E+00 1.30224E+02-2.29323E+01
 -1      4014-9.54238E+00 2.11217E+02-3.71902E+01
 -1      4015-8.94127E+00 2.06743E+02-3.64020E+01
 -1      4016-1.83018E+00 1.42081E+02-2.50159E+01
 -1      4017 1.83007E+00 1.42081E+02-2.50159E+01
 -1      4018-2.72297E+00 1.08164E+02-1.90483E+01
 -1      4019 2.18750E+00 6.82478E+01-1.20219E+01
 -1      4020-2.18356E+00 6.82478E+01-1.20219E+01
 -1      4021-1.24124E+01 1.07905E+02-1.90671E+01
 -1      4022-7.41804E+00 1.04108E+02-1.83716E+01
 -1      4023-5.09855E+00 1.36960E+01-2.52338E+00
 -1      4024-3.75725E+00 1.35538E+01-2.54364E+00
 -1      4025-1.02724E+01 1.23629E+02-2.17723E+01
 -1      4026-1.09251E+01 1.27929E+02-2.25311E+01
 -1      4027-9.77110E+00 1.26726E+02-2.22938E+01
 -1      4028-6.14900E+00 1.29907E+02-2.28713E+01
 -1      4029-5.52586E+00 1.25595E+02-2.21111E+01
 -1      4030-1.23014E+01 1.03751E+02-1.83404E+01
 -1      4031-1.02877E+01 1.04031E+02-1.83445E+01
 -1      4032-8.66547E-01 1.85235E+02-3.26155E+01
 -1      4033-1.19133E+01 9.13069E+01-1.61642E+01
 -1      4034-1.92960E+00 2.94735E+00-2.40060E-01
 -1      4035-1.09863E+01 1.32251E+02-2.32916E+01
 -1      4036-5.48072E+00 1.34406E+02-2.36659E+01
 -1      4037-9.17500E+00 1.35546E+02-2.38545E+01
 -1      4038-9.82709E+00 1.31042E+02-2.30555E+01
 -1      4039-2.31000E+00 3.28412E+01-5.79688E+00
 -1      4040-1.58979E+00 2.94529E+01-5.19380E+00
 -1      4041-1.59442E+00 3.15768E+01-5.54571E+00
 -1      4042 1.59854E+00 3.15683E+01-5.54417E+00
 -1      4043 1.19856E+00 3.50601E+01-6.16617E+00
 -1      4044 2.31788E+00 3.28436E+01-5.79725E+00
 -1      4045-1.19883E+00 3.50601E+01-6.16621E+00
 -1      4046 1.59823E+00 2.94516E+01-5.19348E+00
 -1      4047 5.33284E+00 1.23765E+02-2.17922E+01
 -1      4048 1.08238E+01 1.25930E+02-2.21789E+01
 -1      4049 9.01906E+00 1.22597E+02-2.15708E+01
 -1      4050 4.27853E+00 1.24886E+02-2.19782E+01
 -1      4051 9.77554E+00 1.27057E+02-2.23520E+01
 -1      4052 8.42067E+00 9.54179E+01-1.67193E+01
 -1      4053 1.22591E+01 1.03638E+02-1.83205E+01
 -1      4054-9.66322E-01 5.99531E+01-1.05418E+01
 -1      4055 5.64908E-02 6.17767E+01-1.08779E+01
 -1      4056 3.21736E+00 6.27344E+01-1.10854E+01
 -1      4057 3.96073E+00 5.90475E+01-1.04523E+01
 -1      4058 5.03168E+00 6.08711E+01-1.07481E+01
 -1      4059 4.17850E+00 6.18173E+01-1.08746E+01
 -1      4060 7.99513E+00 6.00758E+01-1.05240E+01
 -1      4061 8.17180E+00 6.28287E+01-1.10687E+01
 -1      4062 8.81825E+00 5.91603E+01-1.04324E+01
 -1      4063 3.37968E+00 9.54919E+00-1.43529E+00
 -1      4064-4.94511E+00 1.32214E+02-2.32980E+01
 -1      4065 1.21725E+00 1.31337E+02-2.31207E+01
 -1      4066 5.21397E-01 1.35516E+02-2.38597E+01
 -1      4067-1.85001E+00 1.34396E+02-2.36676E+01
 -1      4068-1.23413E+00 1.21461E+02-2.13893E+01
 -1      4069 5.12232E-01 1.22558E+02-2.15775E+01
 -1      4070-1.01884E+01 9.99132E+01-1.76212E+01
 -1      4071 4.83270E+00 1.25888E+02-2.21864E+01
 -1      4072 1.75317E+00 1.23753E+02-2.17943E+01
 -1      4073-5.12277E-01 1.22559E+02-2.15777E+01
 -1      4074-1.20973E+00 1.26685E+02-2.23009E+01
 -1      4075-4.27665E+00 1.24556E+02-2.19201E+01
 -1      4076-4.81748E+00 1.33177E+02-2.34295E+01
 -1      4077-9.21926E+00 1.33200E+02-2.34254E+01
 -1      4078-8.53603E+00 1.31018E+02-2.30300E+01
 -1      4079 9.11874E+00 1.24896E+02-2.19581E+01
 -1      4080 4.76447E+00 1.24869E+02-2.19628E+01
 -1      4081 8.49109E+00 1.27031E+02-2.23245E+01
 -1      4082-9.13478E+00 1.87477E+02-3.30065E+01
 -1      4083-9.54028E+00 1.93119E+02-3.40008E+01
 -1      4084-4.58759E+00 1.87473E+02-3.30071E+01
 -1      4085-4.98869E+00 1.93116E+02-3.40013E+01
 -1      4086-9.16881E+00 1.28872E+02-2.26606E+01
 -1      4087-4.79109E+00 1.28846E+02-2.26651E+01
 -1      4088 9.17278E+00 1.29203E+02-2.27190E+01
 -1      4089 4.79315E+00 1.29178E+02-2.27235E+01
 -1      4090 7.82364E+00 1.06627E+02-1.87183E+01
 -1      4091 8.40924E+00 1.69825E+02-2.98898E+01
 -1      4092-8.40931E+00 1.69825E+02-2.98901E+01
 -1      4093 7.55557E+00 9.24873E+01-1.62148E+01
 -1      4094 8.44961E+00 1.85238E+02-3.26098E+01
 -1      4095-9.32192E+00 1.90941E+02-3.36149E+01
 -1      4096-8.44963E+00 1.85238E+02-3.26101E+01
 -1      4097 3.24724E+00 1.08004E+01-1.70324E+00
 -1      4098 9.42579E+00 6.09154E+01-1.07891E+01
 -1      4099 6.95034E+00 6.08449E+01-1.08016E+01
 -1      4100 9.85307E+00 5.91328E+01-1.05317E+01
 -1      4101-5.69554E+00 2.75467E+01-4.78129E+00
 -1      4102-2.82582E+00 2.81963E+01-4.91340E+00
 -1      4103 9.23807E+00 5.74021E+01-1.01736E+01
 -1      4104 6.82759E+00 5.73287E+01-1.01865E+01
 -1      4105-3.24469E+00 1.08004E+01-1.70350E+00
 -1      4106 2.36347E+00 5.52408E+00-7.55768E-01
 -1      4107-5.03430E+00 1.67937E+01-2.97413E+00
 -1      4108-3.16240E+00 1.61245E+01-2.89923E+00
 -1      4109-4.27367E+00 1.19313E+02-2.10282E+01
 -1      4110-6.51326E+00 1.18164E+02-2.08211E+01
 -1      4111-9.67462E+00 1.54149E+02-2.71333E+01
 -1      4112-4.75114E+00 1.52922E+02-2.69192E+01
 -1      4113-8.73239E-01 1.54129E+02-2.71368E+01
 -1      4114 9.67454E+00 1.54149E+02-2.71331E+01
 -1      4115 4.75106E+00 1.52921E+02-2.69191E+01
 -1      4116 8.73156E-01 1.54128E+02-2.71368E+01
 -1      4117 1.02401E+01 1.21577E+02-2.14110E+01
 -1      4118 6.56112E+00 1.22735E+02-2.16247E+01
 -1      4119-1.02038E+01 1.19357E+02-2.10205E+01
 -1      4120-4.80141E+00 1.21472E+02-2.13874E+01
 -1      4121 4.28879E+00 1.21535E+02-2.14186E+01
 -1      4122 7.06742E+00 3.73082E+01-6.58235E+00
 -1      4123 4.47764E+00 3.64277E+01-6.46078E+00
 -1      4124-7.06932E+00 3.73101E+01-6.58279E+00
 -1      4125-4.47491E+00 3.64272E+01-6.46082E+00
 -1      4126-3.64551E+00 1.30066E+02-2.29055E+01
 -1      4127-3.03711E+00 1.25753E+02-2.21452E+01
 -1      4128 5.69646E+00 2.75362E+01-4.77909E+00
 -1      4129 2.82763E+00 2.81775E+01-4.90988E+00
 -1      4130-5.10622E-01 2.73928E+01-4.80832E+00
 -1      4131 2.95774E+00 3.71713E+01-6.60646E+00
 -1      4132-1.04458E+01 1.36593E+02-2.40542E+01
 -1      4133-6.74473E+00 1.35445E+02-2.38599E+01
 -1      4134-4.37538E+00 1.36562E+02-2.40596E+01
 -1      4135-3.84896E+00 7.85459E+01-1.38673E+01
 -1      4136-5.85320E+00 7.75308E+01-1.36797E+01
 -1      4137 3.84889E+00 7.85460E+01-1.38672E+01
 -1      4138 5.85478E+00 7.75296E+01-1.36793E+01
 -1      4139-2.37723E+00 2.78664E+00-7.18488E-01
 -1      4140-9.19238E+00 7.86284E+01-1.38527E+01
 -1      4141 9.19223E+00 7.86285E+01-1.38526E+01
 -1      4142 3.18927E+00 4.08694E+00-9.91410E-01
 -1      4143 2.36667E+00 2.78237E+00-7.19340E-01
 -1      4144-2.11284E+00 1.66175E+01-3.00544E+00
 -1      4145-6.14955E+00 4.82209E+01-8.36563E+00
 -1      4146 8.37969E+00 1.58563E+02-2.79010E+01
 -1      4147-8.37976E+00 1.58563E+02-2.79012E+01
 -1      4148-1.17949E+01 1.40947E+02-2.48471E+01
 -1      4149-1.27929E+01 1.29038E+02-2.27666E+01
 -1      4150-1.15454E+01 1.23614E+02-2.18079E+01
 -1      4151-1.09307E+01 1.25771E+02-2.21662E+01
 -1      4152-7.87769E+00 1.25745E+02-2.21707E+01
 -1      4153 1.17949E+01 1.40948E+02-2.48469E+01
 -1      4154 1.24480E+01 1.11980E+02-1.97796E+01
 -1      4155 1.14293E+01 1.17303E+02-2.07015E+01
 -1      4156 5.97265E+00 1.89158E+01-3.50879E+00
 -1      4157-1.04771E+01 8.24717E+01-1.46027E+01
 -1      4158-4.71649E+00 2.48690E+01-4.21368E+00
 -1      4159 8.18758E+00 4.02742E+01-7.22878E+00
 -1      4160-6.84743E-01 6.35873E+01-1.11870E+01
 -1      4161-3.84237E+00 6.26463E+01-1.09964E+01
 -1      4162 1.17242E+01 8.74294E+01-1.54859E+01
 -1      4163 1.04769E+01 8.24719E+01-1.46026E+01
 -1      4164 1.03440E+01 5.75025E+01-1.02620E+01
 -1      4165-2.97945E+00 3.71619E+01-6.60527E+00
 -1      4166 6.14677E+00 4.82188E+01-8.36525E+00
 -1      4167-7.84333E+00 6.36870E+01-1.11689E+01
 -1      4168 7.85442E+00 6.36979E+01-1.11712E+01
 -1      4169 3.84253E+00 6.26679E+01-1.10002E+01
 -1      4170-2.36093E+00 5.52168E+00-7.55644E-01
 -1      4171 4.88926E-01 2.73557E+01-4.80239E+00
 -1      4172 6.79341E-01 6.36476E+01-1.11976E+01
 -1      4173-8.18957E+00 4.02761E+01-7.22924E+00
 -1      4174-5.97360E+00 1.89167E+01-3.50909E+00
 -1      4175 6.90419E+00 6.72858E+01-1.17484E+01
 -1      4176 4.71741E+00 2.48587E+01-4.21150E+00
 -1      4177-6.90229E+00 6.72752E+01-1.17466E+01
 -1      4178 9.04143E+00 1.56356E+02-2.75163E+01
 -1      4179 4.54856E+00 1.56343E+02-2.75185E+01
 -1      4180-4.54863E+00 1.56343E+02-2.75186E+01
 -1      4181-1.08611E+01 1.21485E+02-2.14134E+01
 -1      4182-9.04151E+00 1.56356E+02-2.75165E+01
 -1      4183-7.82731E+00 1.21457E+02-2.14183E+01
 -1      4184-8.00512E+00 1.38750E+02-2.44536E+01
 -1      4185-1.11071E+01 1.38770E+02-2.44502E+01
 -1      4186 1.08255E+01 1.19440E+02-2.10540E+01
 -1      4187 7.80147E+00 1.19411E+02-2.10591E+01
 -1      4188-9.82047E+00 8.05491E+01-1.42257E+01
 -1      4189-7.07571E+00 8.04965E+01-1.42351E+01
 -1      4190-5.20743E+00 2.62079E+01-4.49500E+00
 -1      4191-2.61361E+00 2.61055E+01-4.51306E+00
 -1      4192 5.48301E+00 3.87014E+01-6.91726E+00
 -1      4193 7.61308E+00 3.87897E+01-6.90168E+00
 -1      4194 9.82032E+00 8.05492E+01-1.42256E+01
 -1      4195-5.48998E+00 1.78533E+01-3.23636E+00
 -1      4196-7.61503E+00 3.87916E+01-6.90213E+00
 -1      4197 7.07571E+00 8.04967E+01-1.42349E+01
 -1      4198 3.73994E+00 6.54364E+01-1.14694E+01
 -1      4199-8.96228E+00 1.29021E+02-2.26723E+01
 -1      4200 8.96221E+00 1.29021E+02-2.26721E+01
 -1      4201-9.01912E+00 1.22597E+02-2.15709E+01
 -1      4202-7.38354E+00 6.54746E+01-1.14537E+01
 -1      4203 5.20835E+00 2.61975E+01-4.49282E+00
 -1      4204-5.52420E+00 3.86942E+01-6.91673E+00
 -1      4205 2.62850E+00 2.60951E+01-4.51055E+00
 -1      4206-3.98654E+00 1.77305E+01-3.25592E+00
 -1      4207-3.74721E+00 6.54038E+01-1.14636E+01
 -1      4208 7.38835E+00 6.54779E+01-1.14543E+01
 -1      4209 4.84696E-03 2.67962E+01-4.71827E+00
 -1      4210 1.31690E+00 2.87923E+01-5.05860E+00
 -1      4211-1.85857E-03 1.72538E+01-3.03798E+00
 -1      4212-6.67358E-06 1.55291E+02-2.73434E+01
 -1      4213-2.18768E+00 1.51931E+02-2.67503E+01
 -1      4214 2.18762E+00 1.51931E+02-2.67503E+01
 -1      4215 5.91542E-05 1.20442E+02-2.12072E+01
 -1      4216 1.79208E+00 1.24722E+02-2.19588E+01
 -1      4217-1.79210E+00 1.24723E+02-2.19588E+01
 -1      4218 3.02787E+00 1.23695E+02-2.17829E+01
 -1      4219-2.99623E+00 1.17207E+02-2.06408E+01
 -1      4220 2.39902E-06 1.37711E+02-2.42479E+01
 -1      4221-3.07146E+00 1.34401E+02-2.36674E+01
 -1      4222-1.43831E+00 1.56496E+01-2.76808E+00
 -1      4223-1.31184E+00 2.88030E+01-5.06059E+00
 -1      4224-3.65978E-04 7.95859E+01-1.40133E+01
 -1      4225-2.68860E+00 7.66675E+01-1.35053E+01
 -1      4226 2.68665E+00 7.66675E+01-1.35053E+01
 -1      4227 9.19477E+00 1.55286E+02-2.73180E+01
 -1      4228-1.26340E+01 1.20452E+02-2.12631E+01
 -1      4229-9.19484E+00 1.55287E+02-2.73182E+01
 -1      4230-1.29265E+01 1.37718E+02-2.42872E+01
 -1      4231 1.26339E+01 1.20453E+02-2.12627E+01
 -1      4232-8.36488E+00 9.12752E+01-1.59841E+01
 -1      4233-5.35131E+00 2.67608E+01-4.51688E+00
 -1      4234-1.14037E+01 7.96047E+01-1.41188E+01
 -1      4235 8.80619E+00 3.80405E+01-6.86864E+00
 -1      4236-4.04937E-03 3.80093E+01-6.69265E+00
 -1      4237 2.04965E+00 3.57614E+01-6.30662E+00
 -1      4238 5.56464E-03 6.45808E+01-1.13713E+01
 -1      4239 2.10787E+00 6.09824E+01-1.07428E+01
 -1      4240 1.76459E+00 6.18471E+01-1.08826E+01
 -1      4241-2.04766E+00 3.57633E+01-6.30694E+00
 -1      4242 1.14036E+01 7.96049E+01-1.41186E+01
 -1      4243-8.84519E+00 3.80318E+01-6.86786E+00
 -1      4244-6.34647E+00 1.72860E+01-3.26479E+00
 -1      4245-1.76290E+00 6.18365E+01-1.08810E+01
 -1      4246 8.09966E-03 5.06576E+01-8.91983E+00
 -1      4247 7.49915E+00 6.45669E+01-1.12442E+01
 -1      4248-7.50496E+00 6.45524E+01-1.12415E+01
 -1      4249 5.36502E+00 2.67610E+01-4.51623E+00
 -1      4250 9.22285E+00 1.33533E+02-2.34840E+01
 -1      4251 8.53953E+00 1.31351E+02-2.30886E+01
 -1      4252 4.81933E+00 1.33510E+02-2.34882E+01
 -1      4253-4.76214E+00 1.24539E+02-2.19047E+01
 -1      4254-8.48728E+00 1.26700E+02-2.22662E+01
 -1      4255-9.11431E+00 1.24567E+02-2.19000E+01
 -1      4256 9.03930E+00 5.39655E+01-9.57108E+00
 -1      4257 9.64749E+00 5.56533E+01-9.92407E+00
 -1      4258 6.67716E+00 5.38890E+01-9.58476E+00
 -1      4259-1.01959E+01 1.99597E+02-3.51435E+01
 -1      4260-4.59134E+00 1.99778E+02-3.51757E+01
 -1      4261-7.91210E+00 1.06854E+02-1.87574E+01
 -1      4262 1.02963E+01 2.16588E+02-3.81360E+01
 -1      4263 9.08482E+00 2.12894E+02-3.74854E+01
 -1      4264 9.05912E+00 2.14640E+02-3.77930E+01
 -1      4265 5.88000E+00 2.14662E+02-3.77972E+01
 -1      4266 4.42451E+00 2.19114E+02-3.85815E+01
 -1      4267 6.29329E+00 2.17494E+02-3.82959E+01
 -1      4268-9.75185E-01 4.57176E-01-3.60863E-01
 -1      4269-6.46916E-01 2.59977E-01-2.82346E-01
 -1      4270-5.27084E-01 2.54981E-01-2.07266E-01
 -1      4271-6.44140E-01 3.54413E-01-1.75402E-01
 -1      4272 2.77871E-01 5.85427E+00-1.03211E+00
 -1      4273 9.85067E-01 1.70834E+02-3.00802E+01
 -1      4274 9.89414E-01 1.84223E+02-3.24379E+01
 -1      4275 3.66965E-01 1.04392E+01-1.83928E+00
 -1      4276-1.45102E+01 2.12916E+02-3.74909E+01
 -1      4277-1.47278E+01 2.16565E+02-3.81330E+01
 -1      4278-1.19359E+01 2.14786E+02-3.78197E+01
 -1      4279-9.72375E+00 2.14786E+02-3.78197E+01
 -1      4280-9.53212E+00 1.97549E+02-3.47817E+01
 -1      4281-8.91820E+00 2.02032E+02-3.55718E+01
 -1      4282 8.84883E-01 9.34103E+01-1.64480E+01
 -1      4283 1.07096E+01 2.19419E+02-3.86348E+01
 -1      4284 1.12412E+01 2.18980E+02-3.85574E+01
 -1      4285 9.12177E-01 1.05697E+02-1.86113E+01
 -1      4286-2.00861E-02 2.21261E+00-3.89605E-01
 -1      4287 1.47025E+01 2.16611E+02-3.81407E+01
 -1      4288 1.34909E+01 2.12917E+02-3.74908E+01
 -1      4289 1.19817E+01 2.14787E+02-3.78195E+01
 -1      4290 9.75178E+00 2.14786E+02-3.78196E+01
 -1      4291 6.47910E-01 2.57161E-01-2.81780E-01
 -1      4292 9.79540E-01 4.60193E-01-3.62207E-01
 -1      4293 6.51150E-01 3.56465E-01-1.79392E-01
 -1      4294 5.27319E-01 2.56694E-01-2.06410E-01
 -1      4295 7.53004E+00 2.19442E+02-3.86390E+01
 -1      4296-4.56027E-01 1.73500E-01 2.07225E-01
 -1      4297-6.59439E-01 3.61598E-01 1.96062E-01
 -1      4298-4.95671E-01 2.96733E-01 9.91502E-02
 -1      4299-3.29204E-01 2.01345E-01 9.55318E-02
 -1      4300-9.08755E+00 2.12939E+02-3.74934E+01
 -1      4301-1.03216E+01 2.16588E+02-3.81363E+01
 -1      4302-6.16827E+00 2.14887E+02-3.78369E+01
 -1      4303-9.32976E+00 2.14910E+02-3.78408E+01
 -1      4304-4.93455E+00 2.11237E+02-3.71941E+01
 -1      4305 3.06186E-01 1.60996E-01-7.11915E-02
 -1      4306 2.85395E-01 1.16259E-01-8.84554E-02
 -1      4307-8.90849E+00 2.18979E+02-3.85578E+01
 -1      4308-9.13548E+00 2.17640E+02-3.83220E+01
 -1      4309 4.51909E-01 1.70710E-01 2.04673E-01
 -1      4310 6.58762E-01 3.62341E-01 1.94815E-01
 -1      4311 5.01788E-01 3.07144E-01 9.36077E-02
 -1      4312 3.26905E-01 2.12491E-01 8.95603E-02
 -1      4313-8.51455E+00 1.30058E+02-2.29310E+01
 -1      4314-1.15865E+01 1.30083E+02-2.29266E+01
 -1      4315 2.73165E-01 1.26420E-01-1.04848E-01
 -1      4316 2.41820E-01 1.24596E-01 6.53118E-02
 -1      4317 2.00987E-01 9.28683E-02 5.32429E-02
 -1      4318-1.41394E+01 2.19419E+02-3.86352E+01
 -1      4319-1.36081E+01 2.18980E+02-3.85578E+01
 -1      4320-1.19270E+01 2.19419E+02-3.86352E+01
 -1      4321-1.78477E-01 1.78755E-02-1.03017E-01
 -1      4322 1.87581E-01 1.52170E-02-1.07962E-01
 -1      4323 2.30603E-01 5.12885E-02-1.26335E-01
 -1      4324 1.34409E+01 2.19442E+02-3.86389E+01
 -1      4325-2.28883E-01 5.14605E-02-1.25458E-01
 -1      4326-2.77746E-01 1.14747E-01-8.72884E-02
 -1      4327 2.04143E-01 8.72491E-02 9.14427E-02
 -1      4328 9.39108E-02-8.07730E-03 5.90332E-02
 -1      4329 1.47003E-01 1.69112E-02 8.91394E-02
 -1      4330 8.69914E+00 1.49654E+02-2.63251E+01
 -1      4331 4.90558E+00 1.51854E+02-2.67253E+01
 -1      4332 9.38571E+00 1.51869E+02-2.67226E+01
 -1      4333-4.90566E+00 1.51854E+02-2.67254E+01
 -1      4334-9.38579E+00 1.51869E+02-2.67228E+01
 -1      4335-8.69922E+00 1.49655E+02-2.63253E+01
 -1      4336 8.36930E+00 1.23751E+02-2.18239E+01
 -1      4337 1.14146E+01 1.23779E+02-2.18189E+01
 -1      4338 1.21011E+01 1.25915E+02-2.22145E+01
 -1      4339-1.18924E+01 1.15034E+02-2.03087E+01
 -1      4340-1.12947E+01 1.17165E+02-2.06577E+01
 -1      4341-8.28111E+00 1.17133E+02-2.06632E+01
 -1      4342-2.94568E+00 2.87737E+01-4.97479E+00
 -1      4343-5.34193E+00 3.01696E+01-5.14320E+00
 -1      4344-5.64836E+00 2.88783E+01-4.95636E+00
 -1      4345-1.06289E+01 7.47248E+01-1.32557E+01
 -1      4346-1.01347E+01 7.66492E+01-1.35473E+01
 -1      4347-7.42877E+00 7.65907E+01-1.35576E+01
 -1      4348 8.02820E+00 3.42959E+01-6.19971E+00
 -1      4349 7.72409E+00 3.57828E+01-6.38479E+00
 -1      4350 5.65958E+00 3.56864E+01-6.40177E+00
 -1      4351 7.43027E+00 7.65896E+01-1.35573E+01
 -1      4352 1.06303E+01 7.47236E+01-1.32554E+01
 -1      4353 1.01362E+01 7.66480E+01-1.35470E+01
 -1      4354 2.96016E+00 2.87656E+01-4.97281E+00
 -1      4355 5.34203E+00 3.01612E+01-5.14158E+00
 -1      4356 5.64839E+00 2.88701E+01-4.95478E+00
 -1      4357 1.41356E+01 2.19442E+02-3.86389E+01
 -1      4358 9.18495E+00 2.17618E+02-3.83179E+01
 -1      4359-5.69311E+00 3.56750E+01-6.40061E+00
 -1      4360-8.02370E+00 3.42933E+01-6.19952E+00
 -1      4361-7.71953E+00 3.57802E+01-6.38463E+00
 -1      4362 3.96407E+00 6.17697E+01-1.08142E+01
 -1      4363 7.54506E+00 6.18183E+01-1.07980E+01
 -1      4364 6.94007E+00 6.00182E+01-1.04495E+01
 -1      4365 1.24098E+01 1.85990E+02-3.27553E+01
 -1      4366-5.42500E+00 1.56996E+01-2.87284E+00
 -1      4367-4.00435E+00 1.55676E+01-2.89405E+00
 -1      4368-5.56066E+00 1.46334E+01-2.78286E+00
 -1      4369 1.15100E+01 1.07346E+02-1.89601E+01
 -1      4370 1.23453E+01 1.69084E+02-2.97856E+01
 -1      4371 1.15500E+01 9.21462E+01-1.63046E+01
 -1      4372 4.81661E+00 1.11633E+01-2.17417E+00
 -1      4373-2.53560E-01 1.31076E-01 6.88585E-02
 -1      4374-2.06273E-01 8.89316E-02 9.29288E-02
 -1      4375-1.96310E-01 8.77940E-02 5.34307E-02
 -1      4376-4.55190E+00 2.18979E+02-3.85578E+01
 -1      4377-7.57045E+00 2.19419E+02-3.86352E+01
 -1      4378-6.57894E+00 2.17742E+02-3.83397E+01
 -1      4379-9.37260E-02-8.13778E-03 6.21743E-02
 -1      4380-6.94164E+00 6.00075E+01-1.04477E+01
 -1      4381-3.97459E+00 6.17373E+01-1.08084E+01
 -1      4382-7.54381E+00 6.18145E+01-1.07972E+01
 -1      4383-2.57661E-01 1.31998E-01-6.58677E-02
 -1      4384-2.66836E-01 1.19406E-01-1.03070E-01
 -1      4385 3.39958E+00 5.39292E+00-1.17950E+00
 -1      4386 9.19748E+00 2.19442E+02-3.86390E+01
 -1      4387-1.45705E-01 1.85314E-02 8.95869E-02
 -1      4388-1.16484E+01 1.34416E+02-2.36878E+01
 -1      4389-8.56026E+00 1.34393E+02-2.36918E+01
 -1      4390-1.22745E+01 1.32237E+02-2.33233E+01
 -1      4391 1.19054E+01 2.19442E+02-3.86389E+01
 -1      4392-1.21472E+00 1.99232E+02-3.50805E+01
 -1      4393-1.12340E+01 2.19442E+02-3.86391E+01
 -1      4394-1.07323E+01 2.19442E+02-3.86391E+01
 -1      4395-6.45268E-01 1.99827E+02-3.51852E+01
 -1      4396-9.30009E+00 2.09245E+02-3.68425E+01
 -1      4397-4.33395E+00 2.06763E+02-3.64060E+01
 -1      4398-5.01277E+00 1.97612E+02-3.47935E+01
 -1      4399-4.39777E+00 2.02095E+02-3.55837E+01
 -1      4400-8.86087E+00 1.95356E+02-3.43941E+01
 -1      4401-8.25016E+00 2.04316E+02-3.59740E+01
 -1      4402-9.33985E+00 1.99866E+02-3.51892E+01
 -1      4403-1.04501E+01 1.89091E+02-3.32953E+01
 -3
    1PSTEP                         5           1           1          
    1PGM                1.000000E+00                                  
    1PGK                2.759259E+07                                  
    1PHID                         -1                                  
    1PSUBC                         0                                  
    1PMODE                         2                                  
  100CL  102 836.0193528        4403                     2    2MODAL      1
 -4  STRESS      6    1
 -5  SXX         1    4    1    1
 -5  SYY         1    4    2    2
 -5  SZZ         1    4    3    3
 -5  SXY         1    4    1    2
 -5  SYZ         1    4    2    3
 -5  SZX         1    4    3    1
 -1         1 1.16404E+05 3.61988E+04 3.74082E+04 1.25996E+04-4.32489E+03-2.15501E+04
 -1         2 8.15944E+04 2.48660E+04 2.66656E+04 5.59015E+03 3.04726E+03 1.83706E+04
 -1         3-8.16159E+04-2.49569E+04-2.66790E+04 5.74030E+03-2.98668E+03 1.82709E+04
 -1         4-1.16497E+05-3.62984E+04-3.75021E+04 1.24870E+04 4.10034E+03-2.14053E+04
 -1         5-2.12916E+01-1.54473E+01 2.52232E+00-2.07145E+01 2.80126E+00 6.71334E-01
 -1         6-1.36826E+01-1.69271E+01 1.00196E+01-2.10489E+01-2.48875E+00 7.13290E+00
 -1         7 1.38311E+01 1.65868E+01-9.98443E+00-2.12504E+01 2.76403E+00 6.95425E+00
 -1         8 2.09876E+01 1.63790E+01-2.23317E+00-2.08404E+01-2.80202E+00 1.42803E+00
 -1         9 8.29060E+04 3.48583E+04 3.47439E+04 1.74995E+04-5.41405E+02 8.76359E+03
 -1        10 9.32663E+04 3.89259E+04 3.92125E+04 1.95804E+04 6.68903E+02 2.37859E+03
 -1        11 9.98827E+04 4.17199E+04 4.19978E+04 2.20361E+04 9.55284E+02-6.25715E+03
 -1        12 8.04834E+04 3.44930E+04 3.44930E+04 1.46542E+04-4.93391E-03 1.34943E+04
 -1        13 8.75312E+04 3.75135E+04 3.75134E+04 1.77726E+04 1.33939E-03 5.38372E+03
 -1        14 9.83811E+04 4.21635E+04 4.21634E+04 2.10902E+04 1.33893E-03-2.34576E+03
 -1        15 1.09138E+05 4.67734E+04 4.67733E+04 2.17990E+04 4.69404E-03-1.29443E+04
 -1        16 6.46334E+04 2.73738E+04 2.64347E+04-6.36063E+03 1.21938E+03-1.66210E+04
 -1        17 1.55566E+04 6.77879E+03 5.70892E+03-1.03095E+04 7.60677E+02-2.71043E+03
 -1        18-3.53572E+04-1.45724E+04-1.60018E+04-8.12290E+03 3.90813E+02 1.09764E+04
 -1        19 9.83567E+04 4.21530E+04 4.21530E+04 4.26203E+02 1.69503E-04-2.38089E+04
 -1        20 4.01034E+04 1.71872E+04 1.71872E+04-8.14052E+03-5.53549E-03-9.99495E+03
 -1        21-1.02940E+04-4.41173E+03-4.41173E+03-9.36394E+03-6.30398E-03 4.03515E+03
 -1        22-6.41801E+04-2.75058E+04-2.75058E+04-3.59625E+03-3.95148E-03 1.70702E+04
 -1        23-1.00459E+05-4.24728E+04-4.21286E+04 2.19072E+04 3.70391E+02-7.20637E+03
 -1        24-9.30475E+04-3.92132E+04-3.90075E+04 2.00490E+04 4.32909E+02 1.24110E+03
 -1        25-8.24607E+04-3.46256E+04-3.46247E+04 1.74181E+04 5.82514E+02 8.92308E+03
 -1        26-1.07107E+05-4.59033E+04-4.59032E+04 2.05211E+04-8.59605E-05-1.29290E+04
 -1        27-9.89143E+04-4.23920E+04-4.23919E+04 2.12082E+04 7.11120E-03-2.43786E+03
 -1        28-8.93550E+04-3.82951E+04-3.82951E+04 1.88571E+04 3.62562E-03 5.48965E+03
 -1        29-8.03932E+04-3.44544E+04-3.44543E+04 1.46605E+04 4.85010E-03 1.35674E+04
 -1        30 3.27122E+04 1.39388E+04 1.30559E+04-9.02327E+03-9.57786E+02 9.63099E+03
 -1        31-1.72318E+04-6.95163E+03-8.03466E+03-1.01859E+04-5.10925E+02-4.33128E+03
 -1        32-6.71622E+04-2.79327E+04-2.93751E+04-5.25347E+03-3.70896E+02-1.77631E+04
 -1        33 6.50371E+04 2.78731E+04 2.78731E+04-4.25737E+03 1.55936E-03 1.73515E+04
 -1        34 7.23717E+03 3.10166E+03 3.10165E+03-9.58001E+03 6.55253E-03 2.84728E+03
 -1        35-4.31150E+04-1.84779E+04-1.84779E+04-8.00457E+03 8.15737E-03-1.08485E+04
 -1        36-9.66153E+04-4.14066E+04-4.14067E+04 9.78271E+02 3.94066E-03-2.30631E+04
 -1        37-1.06581E+01-1.11760E+01 1.99717E+01-1.13460E+01 2.29966E+00-1.52317E+00
 -1        38-1.28864E+01-1.28948E+01-5.97820E+00-1.19207E+01-1.51188E+00-2.74841E+00
 -1        39-9.46828E+00-9.33597E+00-1.02323E+01-9.63724E+00-3.55110E+00-3.84657E-01
 -1        40-6.10998E+00-1.11003E+01 2.09603E+01-1.18029E+01 3.55747E-01 4.39855E+00
 -1        41-1.31723E+01-1.43920E+01 5.08317E+00-1.33317E+01-5.46607E-01-1.97167E+00
 -1        42-1.35138E+01-1.20231E+01-1.32875E+01-1.14201E+01-2.23666E+00-3.38561E+00
 -1        43-1.03081E+01-9.82877E+00-2.14231E+00-1.18122E+01 1.31936E-01-6.86486E-01
 -1        44-1.35600E+00-9.50693E+01-3.20181E+00 4.05422E+00-3.05492E+00 2.04253E+00
 -1        45-1.98288E+00-7.48811E-01-1.90896E+00 2.24483E+01-1.41097E+01 1.25247E+00
 -1        46-2.90243E+00 9.20636E+01 1.78101E-01 4.97654E+00-4.23528E+00 8.60688E-01
 -1        47-1.30065E+01-6.90280E+01-2.71327E+00-1.11574E+01-4.49255E-01 2.83642E-01
 -1        48-6.10147E+00-5.81221E+01-3.91541E+00 1.60235E+01-1.04808E+01 3.99214E+00
 -1        49 4.48447E-01 5.60104E+01 1.18598E+00 1.71417E+01-1.05655E+01 2.11237E+00
 -1        50 7.50077E+00 6.79036E+01-1.46349E+00-1.03692E+01-1.62490E-01-2.37692E-01
 -1        51 1.11748E+01 1.30181E+01 1.34264E+01-1.24002E+01 4.35573E+00-6.24351E-01
 -1        52 1.30110E+01 1.23138E+01 7.37637E+00-1.17760E+01 2.89990E+00-5.29985E+00
 -1        53 9.66364E+00 8.18519E+00-2.01958E+01-9.32809E+00-2.66221E+00-6.97299E-01
 -1        54 1.06999E+01 1.14394E+01 3.85707E+00-1.34275E+01 5.20015E-01-1.25680E+00
 -1        55 1.48735E+01 1.68372E+01 1.68314E+01-1.37444E+01 3.14632E+00-3.87090E+00
 -1        56 1.16626E+01 9.97012E+00-5.03948E+00-9.63863E+00 1.06222E+00-1.98776E+00
 -1        57 7.62758E+00 1.00311E+01-2.06357E+01-1.26976E+01 2.80014E-01 4.61407E+00
 -1        58 1.48403E+00-9.57288E+01-5.60988E-01 4.29263E+00 3.45608E+00 4.21672E-01
 -1        59 1.98683E+00 1.89290E+00 2.33606E+00 2.32985E+01 1.42475E+01 2.17927E+00
 -1        60 1.16128E+00 9.16915E+01 3.97871E+00 4.75534E+00 5.10463E+00 3.07328E+00
 -1        61-8.17606E+00-7.00570E+01 1.17324E+00-1.07223E+01-2.59809E-02-2.73530E-01
 -1        62-2.85825E+00-5.84577E+01-1.16112E+00 1.66127E+01 1.01845E+01 2.33313E+00
 -1        63 5.35204E+00 5.89069E+01 6.40249E+00 1.76527E+01 1.04986E+01 2.41599E+00
 -1        64 1.08859E+01 6.50211E+01 2.15256E+00-9.26479E+00-8.78542E-02 4.33459E+00
 -1        65 5.77386E+04-1.70759E+03-1.74904E+03-2.42639E+03-3.95702E+02-2.25498E+02
 -1        66 6.04788E+04-3.91406E+01-2.00782E+02 1.12702E+01-6.80985E+00-1.74678E+02
 -1        67 5.89538E+04 2.07671E+01-3.36629E+01 2.22203E+02-9.60527E+00-2.20301E+02
 -1        68 5.65845E+04-1.23244E+01 2.39700E+01 3.63538E+02-1.20248E+01-2.15030E+02
 -1        69 5.39124E+04 6.90891E+00 4.36092E+00 2.45723E+02-1.43297E+01-1.75387E+02
 -1        70 5.12051E+04 1.04747E+01-2.07833E+01 3.68770E+02 1.72255E+01-2.04888E+02
 -1        71 4.85067E+04-2.24955E+01-2.95282E+00 2.41193E+02 1.82085E+01-1.94960E+02
 -1        72 4.58592E+04-3.74512E+00-2.51706E+01 2.44679E+02 8.65696E+00-1.85912E+02
 -1        73 4.31317E+04 4.84572E-01 2.01290E+01 3.62324E+02-2.06615E+01-2.02873E+02
 -1        74 4.04348E+04-1.44358E+00 1.69421E+01 3.24505E+02-8.41712E-01-1.74809E+02
 -1        75 3.78947E+04-1.51114E+01-1.55106E+01 2.28533E+02 1.80398E+00-1.70767E+02
 -1        76 3.52860E+04-1.13637E+01-2.90730E+01 2.25875E+02 9.00823E+00-1.84352E+02
 -1        77 3.27111E+04-8.07269E+00 1.87445E+01 3.44319E+02-1.60735E+01-1.95750E+02
 -1        78 3.01590E+04 1.22241E+01 1.75808E+01 2.18631E+02-1.27915E+00-1.57959E+02
 -1        79 2.77767E+04-1.31215E+01-1.31779E+01 2.92252E+02-1.36808E+00-1.68167E+02
 -1        80 2.53074E+04-2.32562E-03-1.03220E+01 3.23728E+02 1.65304E+01-1.83613E+02
 -1        81 2.29795E+04-2.07262E+01-1.57738E+00 2.08104E+02 1.54773E+01-1.66164E+02
 -1        82 2.07351E+04-3.09419E+00-1.90039E+01 2.03675E+02 6.37381E+00-1.53880E+02
 -1        83 1.84924E+04-1.30273E+01 1.64503E+01 3.00454E+02-1.29966E+01-1.63729E+02
 -1        84 1.63738E+04 7.42596E+00 1.05190E+01 1.86572E+02-1.42261E+01-1.34862E+02
 -1        85 1.43949E+04-9.86856E+00-2.49842E+01 2.68621E+02 1.52012E+01-1.47934E+02
 -1        86 1.24109E+04 6.13218E+00 2.20136E+01 1.70492E+02-6.18586E+00-1.36788E+02
 -1        87 1.06018E+04-7.96670E+00 4.16206E+00 2.11810E+02 2.07552E+00-1.25403E+02
 -1        88 8.93464E+03-9.71079E+00-3.68859E+00 1.91241E+02 1.48071E+00-1.15004E+02
 -1        89 7.32297E+03-9.41583E+00-4.35387E+00 1.36363E+02 9.44614E+00-1.02469E+02
 -1        90 5.89565E+03-8.30012E+00-4.64195E+00 1.67812E+02 2.48146E+00-9.42290E+01
 -1        91 4.58097E+03-8.45698E+00-8.96774E+00 1.58756E+02 4.04019E+00-9.19372E+01
 -1        92 3.40292E+03-1.40292E+01 6.47717E+00 1.42655E+02 1.20656E+00-8.09404E+01
 -1        93 2.38520E+03-6.73100E+00-2.72155E+00 8.52228E+01 6.43376E+00-6.08174E+01
 -1        94 1.55710E+03-9.63048E+00-8.66162E+00 1.01351E+02 5.84762E+00-5.64726E+01
 -1        95 8.71557E+02-8.97306E+00 2.89072E-02 5.31364E+01 2.95168E+00-4.37524E+01
 -1        96 3.76151E+02-9.53955E+00-2.89034E+00 3.34453E+01 1.98159E+00-2.24214E+01
 -1        97 6.50392E+01-1.33381E-01-1.80400E+00 2.27902E+00 1.28628E+00-5.71956E+00
 -1        98 6.59403E+04 1.56205E+03 1.82521E+03-9.12472E+02 2.48691E+02 5.97784E+03
 -1        99 6.05533E+04 1.83959E+01 8.29534E+01-4.03351E+02 4.31948E+02 3.38947E+02
 -1       100 5.98478E+04-3.54426E+01-5.88160E+00 1.39940E+02-5.65234E+01-2.43451E+02
 -1       101 5.77642E+04-1.55577E+01 6.71052E+00 3.13651E+02-4.39526E+00-2.33832E+02
 -1       102 5.53270E+04 1.16929E+01 2.52107E+01 3.18362E+02-3.34215E+01-2.31463E+02
 -1       103 5.24687E+04-2.94274E+01-4.23458E+01 3.25349E+02 1.18156E+01-2.12524E+02
 -1       104 4.99044E+04-2.67569E+00-4.29607E+00 3.28194E+02-7.26128E+00-2.13969E+02
 -1       105 4.71648E+04-1.12053E+01-1.22679E+01 2.78178E+02 2.55439E+01-2.18671E+02
 -1       106 4.44206E+04-3.79540E+01-2.14969E+01 3.19375E+02 3.42339E+00-2.09694E+02
 -1       107 4.18308E+04 6.31073E+00 2.13022E+01 3.57120E+02-1.02113E+01-2.19961E+02
 -1       108 3.91971E+04 8.07986E+00 1.04191E+01 3.00699E+02-8.76775E+00-2.06144E+02
 -1       109 3.65359E+04-4.83612E+01-4.58706E+01 2.65369E+02 4.73540E+00-1.86729E+02
 -1       110 3.39276E+04-4.14419E+01-2.18354E+01 3.03292E+02 1.97527E+00-2.00508E+02
 -1       111 3.15253E+04 4.93599E+01 5.63869E+01 2.97521E+02-8.60003E+00-1.98638E+02
 -1       112 2.89298E+04-8.13446E+00-9.29249E+00 2.78169E+02 7.38971E+00-1.91907E+02
 -1       113 2.64871E+04-1.33450E+01-2.17291E+01 3.23750E+02 1.14278E+01-1.98090E+02
 -1       114 2.41774E+04-5.32307E+00-3.00893E+00 2.84476E+02-2.88019E+00-1.88547E+02
 -1       115 2.18354E+04-1.29434E+01-1.10212E+01 2.35166E+02 2.28709E+01-1.84887E+02
 -1       116 1.95408E+04-3.65652E+01-1.99683E+01 2.63708E+02 4.68391E+00-1.73349E+02
 -1       117 1.74808E+04 5.33035E+00 1.71853E+01 2.51044E+02-2.59225E+01-1.74745E+02
 -1       118 1.53017E+04-1.44472E+01-2.43701E+01 2.41460E+02 1.24870E+01-1.61636E+02
 -1       119 1.34296E+04 1.74931E+01 1.12510E+01 2.36113E+02-1.71934E+00-1.46616E+02
 -1       120 1.15020E+04-5.95145E+00 9.53315E+00 2.19150E+02 5.74843E+00-1.43561E+02
 -1       121 9.75154E+03-9.92585E+00-1.17156E+00 2.10886E+02 2.30018E+00-1.42954E+02
 -1       122 8.12908E+03 3.67709E+00 3.21477E+00 1.78465E+02 5.52593E+00-1.17269E+02
 -1       123 6.56614E+03-1.99229E+01-1.11719E+01 1.58596E+02 1.49719E+01-1.19936E+02
 -1       124 5.19902E+03-1.30782E+01-1.21580E+01 1.69999E+02 5.17340E+00-1.08392E+02
 -1       125 3.96406E+03-1.23214E+01-6.15739E+00 1.62433E+02 6.82639E+00-1.01159E+02
 -1       126 2.90733E+03-4.94767E-01 9.77870E+00 1.20998E+02 3.72464E+00-8.20751E+01
 -1       127 1.92384E+03-1.87058E+01-1.21340E+01 9.35279E+01 1.00918E+01-7.23638E+01
 -1       128 1.20327E+03-1.00951E+01-7.73378E+00 8.19891E+01 4.43218E+00-5.35793E+01
 -1       129 6.01928E+02-1.41022E+01-6.96222E+00 4.48044E+01 5.98478E+00-4.14697E+01
 -1       130 1.91111E+02-1.61167E+01-9.09143E+00 2.31656E+01-7.44705E+00-1.80996E+01
 -1       131 8.71406E+00-6.68263E+00 2.76559E+00-9.62139E+00 4.91897E+00 4.48926E+00
 -1       132 8.25254E+04-2.45216E+03-2.48021E+03-2.70051E+03 4.28777E+02 1.06422E+03
 -1       133 8.63318E+04-1.29715E+02-2.59672E+02-6.06948E+01-4.43918E+00 1.92746E+02
 -1       134 8.41767E+04-3.19791E+01-1.83285E+01 2.15223E+02-3.57671E+01 1.49124E+02
 -1       135 8.07115E+04-7.30732E+00 1.43719E+01 3.03512E+02-1.08112E+01 9.87719E+01
 -1       136 7.69452E+04-6.76302E+00 3.35681E+00 1.91121E+02-1.95104E+01 1.05164E+02
 -1       137 7.31202E+04 1.64023E+00-6.73014E+00 3.05686E+02-1.00650E+00 7.56250E+01
 -1       138 6.92233E+04-7.70832E+00-6.85628E-01 1.89243E+02-1.33884E+01 1.02846E+02
 -1       139 6.54140E+04-1.39662E+01-2.99463E+01 3.28659E+02-2.59486E+01 7.75908E+01
 -1       140 6.15460E+04 1.16094E+01 2.69392E+01 1.74328E+02-1.14089E+00 1.12544E+02
 -1       141 5.77937E+04-4.95474E+00-2.90979E+00 1.83843E+02-1.77483E+01 9.65110E+01
 -1       142 5.40855E+04-3.60579E+00-1.45017E+01 2.78729E+02-1.43364E+00 7.21614E+01
 -1       143 5.03387E+04-1.12960E+01-2.32463E+01 3.02061E+02-2.92826E+01 8.26685E+01
 -1       144 4.66612E+04 8.93852E+00 2.14186E+01 1.73921E+02 3.88774E-01 1.09274E+02
 -1       145 4.30750E+04 1.45992E+00 6.12628E+00 2.53605E+02 1.99752E+00 7.22667E+01
 -1       146 3.96526E+04-1.30522E+01-1.45955E+01 2.37314E+02-2.90016E+00 7.91307E+01
 -1       147 3.60904E+04 1.41485E+01 1.62739E+01 1.67181E+02 1.41701E+00 9.43506E+01
 -1       148 3.28527E+04-1.09013E+01-1.16306E+01 2.44143E+02-4.37895E+00 6.19889E+01
 -1       149 2.95730E+04-2.55213E+00-1.70558E+01 2.40876E+02-4.63008E+00 6.75797E+01
 -1       150 2.63794E+04 2.12006E-01 4.79485E+00 2.24893E+02 3.69219E-01 6.65143E+01
 -1       151 2.34151E+04-1.37195E+01-1.54377E+01 1.37648E+02-1.61728E+00 7.56736E+01
 -1       152 2.05220E+04-1.48785E+00-1.09126E+01 2.29178E+02 2.56957E+00 6.25418E+01
 -1       153 1.77361E+04-1.12975E+01 6.42540E+00 2.06194E+02 1.17522E-01 5.67016E+01
 -1       154 1.51253E+04-2.94036E+00 6.02366E+00 1.84385E+02-1.54041E+00 5.29473E+01
 -1       155 1.27421E+04-1.24483E+01-1.11774E+01 1.16074E+02 2.22740E+00 5.65648E+01
 -1       156 1.04703E+04-1.31228E+01-1.82248E+01 1.73585E+02-1.80026E+01 5.23792E+01
 -1       157 8.36551E+03 1.39374E+00 1.15229E+01 9.53494E+01 2.54171E+00 5.67924E+01
 -1       158 6.53914E+03-9.19528E+00-9.22813E+00 8.34869E+01-2.06628E+00 4.42687E+01
 -1       159 4.85600E+03-1.49960E+01-2.27244E+00 1.27126E+02-5.16405E+00 3.14799E+01
 -1       160 3.40249E+03-5.52609E+00 1.67150E+00 6.47852E+01-5.55805E+00 3.47055E+01
 -1       161 2.23079E+03-1.85351E+01-1.25987E+01 8.82696E+01-6.61571E+00 2.12793E+01
 -1       162 1.22858E+03-4.12857E+00 1.92148E+00 4.61734E+01 1.27872E+00 2.80443E+01
 -1       163 5.34019E+02-7.62027E+00-1.81350E+00 3.00716E+01 2.51635E+00 1.60857E+01
 -1       164 9.72021E+01 3.72281E-01-2.22440E+00 2.37270E+00 1.55062E+00 6.77902E+00
 -1       165 9.42066E+04 2.51473E+03 2.53376E+03 1.08443E+03-6.06375E+02-5.91867E+03
 -1       166 8.63268E+04-4.07386E+01-1.21481E+01-3.43321E+02-4.58333E+02-2.06442E+02
 -1       167 8.54315E+04-6.39490E+01-4.73288E+01 1.32585E+02 6.17449E+00 1.86756E+02
 -1       168 8.24675E+04-2.96242E+01-1.05516E+01 2.78315E+02-2.30432E+01 1.39544E+02
 -1       169 7.89542E+04 3.58490E+01 5.77930E+01 2.56548E+02 5.01762E+00 1.19916E+02
 -1       170 7.49730E+04-1.26279E+01-1.41864E+01 2.55708E+02-3.91538E+01 1.23837E+02
 -1       171 7.12556E+04 3.58434E+01 4.10756E+01 2.59268E+02 1.52748E+01 1.01859E+02
 -1       172 6.72151E+04-2.91850E+01-3.02028E+01 2.60970E+02-4.76632E+01 1.26494E+02
 -1       173 6.35702E+04 4.61007E+01 2.67127E+01 2.65620E+02 6.47536E+00 9.80920E+01
 -1       174 5.97161E+04 2.55947E+01 3.46532E+01 2.11213E+02-8.42630E+00 1.10091E+02
 -1       175 5.58762E+04-2.23649E+01-1.68943E+01 2.34765E+02-3.28501E+01 1.16607E+02
 -1       176 5.21356E+04-1.85516E+01-2.74623E+01 2.93507E+02-1.52224E+01 1.05583E+02
 -1       177 4.85758E+04 3.48442E+01 2.07206E+01 2.52627E+02 2.08447E+00 1.01011E+02
 -1       178 4.48629E+04-1.32533E+00 1.09844E+01 2.41243E+02-1.30974E+01 1.03708E+02
 -1       179 4.13460E+04-4.46700E+00-4.05408E+00 2.43614E+02 1.67649E+00 1.08519E+02
 -1       180 3.79053E+04 4.28586E+01 3.55578E+01 2.25668E+02-1.74559E+00 8.89603E+01
 -1       181 3.44110E+04-1.79399E+01-1.71843E+01 2.15328E+02-2.04976E+01 1.02863E+02
 -1       182 3.11546E+04-1.40328E+01-2.11943E+01 2.48787E+02-6.61143E+00 8.97901E+01
 -1       183 2.79720E+04-8.97440E-01-1.32330E+00 2.43162E+02-3.91120E+00 8.40977E+01
 -1       184 2.49109E+04-1.02942E+01 1.56882E+00 1.95947E+02 7.01782E+00 9.10760E+01
 -1       185 2.18667E+04-5.09253E+01-5.15751E+01 1.87367E+02-7.08981E+00 8.42538E+01
 -1       186 1.91176E+04-5.77502E+00-1.79164E+00 2.23998E+02 1.70912E+00 7.92673E+01
 -1       187 1.64406E+04-2.15829E+00 8.90603E+00 2.00698E+02-1.40520E+00 7.44988E+01
 -1       188 1.39504E+04-3.74252E+00 3.02547E+00 1.58328E+02 6.83980E+00 7.23314E+01
 -1       189 1.14997E+04-5.78134E+01-5.23523E+01 1.49748E+02-8.66897E+00 6.61433E+01
 -1       190 9.43749E+03 4.83200E+00 2.67942E+00 1.44885E+02 2.67908E+00 5.56964E+01
 -1       191 7.43949E+03-8.73165E+00-6.15632E+00 1.06586E+02-4.96809E+00 5.58297E+01
 -1       192 5.62540E+03-3.88532E+01-2.82924E+01 1.09058E+02-9.26105E+00 4.67944E+01
 -1       193 4.14464E+03 7.90637E-01 1.07431E+01 9.78534E+01-1.69888E+00 3.95395E+01
 -1       194 2.76211E+03-2.00403E+01-1.46489E+01 7.52260E+01-1.54785E+01 4.31245E+01
 -1       195 1.71138E+03-5.69678E+00-6.50061E-01 7.17953E+01 3.38401E+00 2.59482E+01
 -1       196 8.53026E+02-1.58797E+01-9.20302E+00 4.26735E+01 1.18537E+00 2.12543E+01
 -1       197 2.84309E+02-1.46777E+01-1.13839E+01 2.37940E+01 1.50927E+00 1.17115E+01
 -1       198 1.18623E+01-7.62017E+00-1.94378E+00-9.53741E+00-3.73041E+00-2.15942E-01
 -1       199-8.25573E+04 2.38790E+03 2.47270E+03-2.71277E+03-4.53007E+02 1.06054E+03
 -1       200-8.63633E+04 1.24246E+02 2.51571E+02-7.50611E+01-2.05194E+00 1.72306E+02
 -1       201-8.41751E+04 3.39057E+01 1.93857E+01 2.16183E+02 4.23867E+01 1.59531E+02
 -1       202-8.07271E+04-1.40912E+01-1.94306E+01 1.81024E+02 8.24866E-01 1.21846E+02
 -1       203-7.69186E+04-1.34460E+01-1.73841E+01 1.92876E+02-1.08682E+00 9.70282E+01
 -1       204-7.31188E+04-6.72235E+00-5.39504E+00 1.92128E+02-1.32518E+01 1.02985E+02
 -1       205-6.92854E+04-2.50810E+00 3.54274E+00 2.80359E+02 3.62291E+00 7.24267E+01
 -1       206-6.53856E+04 6.71478E+00 1.79187E+01 3.15359E+02 2.76542E+01 8.18821E+01
 -1       207-6.15786E+04 9.31228E+00-1.21584E+00 1.79370E+02 2.18312E+01 1.24042E+02
 -1       208-5.77953E+04-2.10209E+00-3.15515E+00 1.84874E+02 1.47280E+01 9.83615E+01
 -1       209-5.40829E+04 2.25258E+00 1.42915E+01 2.74690E+02 8.18104E-01 7.21026E+01
 -1       210-5.03436E+04 1.09814E+01 2.37779E+01 2.98421E+02 2.92561E+01 8.18264E+01
 -1       211-4.66509E+04-1.11541E+00-1.70793E+01 1.78083E+02-2.20198E+00 1.03701E+02
 -1       212-4.31324E+04-4.94565E+00 2.55472E+00 1.68398E+02-1.34044E+01 1.00927E+02
 -1       213-3.95486E+04-1.37550E+01-2.37510E+01 1.52295E+02-5.07943E+00 1.01442E+02
 -1       214-3.61372E+04 5.20564E+00 1.69671E+00 1.63184E+02 1.61583E+01 8.47420E+01
 -1       215-3.28382E+04 6.49730E+00 9.56518E+00 2.46585E+02 3.42382E+00 6.32714E+01
 -1       216-2.95608E+04 6.27881E+00 1.60385E+01 2.47612E+02 8.93604E+00 6.68422E+01
 -1       217-2.64009E+04 1.03545E+01 5.46447E+00 1.52457E+02 1.27316E+01 9.30991E+01
 -1       218-2.33911E+04 1.07644E+01 1.36078E+01 1.43737E+02 1.37747E+01 6.98747E+01
 -1       219-2.04989E+04-6.12363E+00-1.00161E+01 1.39719E+02-1.42086E+01 7.26049E+01
 -1       220-1.77800E+04 7.47983E+00 6.37999E+00 1.92023E+02 6.13133E+00 5.58503E+01
 -1       221-1.51824E+04 1.09447E+01 1.37211E+01 1.86913E+02 2.51905E+00 5.59760E+01
 -1       222-1.27431E+04 7.83519E+00 7.76821E+00 1.68728E+02 4.41808E+00 5.09649E+01
 -1       223-1.04630E+04 1.13793E+01 1.31124E+01 1.75038E+02 1.74099E+01 5.10185E+01
 -1       224-8.38264E+03 1.06877E+01 1.05843E+00 9.72924E+01 7.19298E+00 5.88156E+01
 -1       225-6.53523E+03 7.40797E+00 1.10770E+01 8.54658E+01 2.11279E+00 4.52325E+01
 -1       226-4.85919E+03 1.02017E+01 2.59504E+00 7.23362E+01 7.42891E+00 4.58191E+01
 -1       227-3.39619E+03-1.61071E+00-7.15219E+00 6.57632E+01-1.61042E+00 3.41028E+01
 -1       228-2.21541E+03 8.03806E+00 7.83844E+00 4.82416E+01 2.42178E+00 2.47044E+01
 -1       229-1.24015E+03 8.13671E+00 2.68129E+00 3.73873E+01 2.10424E+00 2.11514E+01
 -1       230-5.35648E+02 8.73274E+00 4.24205E+00 2.42822E+01 5.91469E-01 1.00949E+01
 -1       231-9.09082E+01 3.23579E+00 4.25499E+00-7.73501E-01-7.71630E-01 3.23327E+00
 -1       232-9.41464E+04-2.48944E+03-2.56588E+03 1.06883E+03 2.82069E+02-5.97850E+03
 -1       233-8.63361E+04 9.36966E+01 6.36263E+01-3.24522E+02 3.48472E+02-2.49440E+02
 -1       234-8.54901E+04 3.06366E+01 4.62295E+01 1.52953E+02 1.01235E+02 1.52845E+02
 -1       235-8.25280E+04-1.84382E+01-2.56333E+01 2.27907E+02 6.87531E+00 1.40729E+02
 -1       236-7.88951E+04-5.13858E+01-5.12782E+01 2.16203E+02 2.04806E+00 1.11756E+02
 -1       237-7.50364E+04-9.05148E+00-1.10422E+01 2.13156E+02-1.28040E+01 1.10738E+02
 -1       238-7.11156E+04 3.89353E+01 4.05065E+01 2.47860E+02 7.29635E+00 1.10638E+02
 -1       239-6.72651E+04 1.68627E+01 2.67260E+01 2.99805E+02 1.64883E+01 1.07160E+02
 -1       240-6.35610E+04-1.35201E+01-1.28496E+01 2.65067E+02-5.29453E+00 1.10859E+02
 -1       241-5.97189E+04-2.21440E+01-2.48478E+01 2.00030E+02 2.80528E+01 1.20251E+02
 -1       242-5.58731E+04 1.82411E+01 1.47692E+01 2.32737E+02 3.23630E+01 1.17855E+02
 -1       243-5.21363E+04 1.83277E+01 2.81870E+01 2.88535E+02 1.49825E+01 1.05910E+02
 -1       244-4.85778E+04-3.13931E+01-1.89283E+01 2.50547E+02-4.68843E+00 1.00386E+02
 -1       245-4.48984E+04-1.88060E+00-6.47376E-01 1.99746E+02-1.73306E+01 1.17015E+02
 -1       246-4.13352E+04-1.84082E+01-9.87599E+00 1.84126E+02-4.10660E+00 8.65755E+01
 -1       247-3.78753E+04-1.84175E+01-3.02846E+01 1.85319E+02 1.13850E+01 9.60670E+01
 -1       248-3.44179E+04 2.61369E+01 1.82151E+01 2.07455E+02 3.00555E+01 1.04027E+02
 -1       249-3.11387E+04 1.40168E+01 2.13347E+01 2.49492E+02 7.37171E+00 8.92267E+01
 -1       250-2.80140E+04-1.45882E+01-1.35090E+01 2.16372E+02-5.34439E+00 9.01272E+01
 -1       251-2.48883E+04 9.75180E+00 1.00116E+01 1.65549E+02 1.88770E+01 8.88401E+01
 -1       252-2.19263E+04 5.26435E+00 1.77318E+00 1.49357E+02-2.89693E+00 7.79798E+01
 -1       253-1.90615E+04 3.60686E+01 3.16017E+01 1.76765E+02 6.84544E+00 7.91043E+01
 -1       254-1.64283E+04 1.85719E+01 2.06762E+01 1.94356E+02 6.60576E+00 7.53097E+01
 -1       255-1.39198E+04 1.56124E+01 1.53726E+01 1.85436E+02 4.05869E+00 7.14051E+01
 -1       256-1.15361E+04 2.15604E+01 2.35682E+01 1.75536E+02 1.42611E+01 6.58679E+01
 -1       257-9.43683E+03 7.66508E+00 4.20549E+00 1.46099E+02 1.27768E+00 5.94856E+01
 -1       258-7.43101E+03 1.51346E+01 1.19417E+01 1.02813E+02 9.37487E+00 6.25394E+01
 -1       259-5.66116E+03 2.18550E+01 1.69203E+01 8.75398E+01 2.11695E+00 3.98203E+01
 -1       260-4.11269E+03 2.78927E+00-5.15775E+00 7.67115E+01 4.02507E+00 4.29944E+01
 -1       261-2.78076E+03 9.89009E+00 6.57078E+00 6.77410E+01 7.40436E+00 3.29390E+01
 -1       262-1.69413E+03 1.91924E+01 1.49050E+01 4.60487E+01 2.20873E+00 2.30363E+01
 -1       263-8.56514E+02 1.80381E+01 1.07986E+01 3.35022E+01 4.01086E+00 1.95970E+01
 -1       264-2.81393E+02 1.74202E+01 1.31439E+01 1.55884E+01-1.12032E+00 9.16195E+00
 -1       265-6.67074E+00 1.21966E+01 4.28225E+00-1.25516E+01-2.03101E+00 2.78932E+00
 -1       266-5.77210E+04 1.70898E+03 1.74996E+03-2.41479E+03 3.62566E+02-2.01596E+02
 -1       267-6.05134E+04 5.36661E+01 2.20411E+02-6.80572E+00-6.10723E+00-1.53438E+02
 -1       268-5.90201E+04 2.50246E+00 4.77660E+01 2.45879E+02-2.86117E+01-1.94856E+02
 -1       269-5.65543E+04 1.49042E+01-2.50843E+01 3.46163E+02 3.18317E+00-2.07329E+02
 -1       270-5.38694E+04-2.00166E+01-1.69498E+01 2.43127E+02 2.62708E+00-1.74747E+02
 -1       271-5.12218E+04 3.93502E+00 2.10593E+01 3.76953E+02-1.56207E+01-1.97164E+02
 -1       272-4.85086E+04 2.22351E+01 2.05467E+00 2.44095E+02-1.81387E+01-1.94245E+02
 -1       273-4.58579E+04 3.89213E+00 2.49745E+01 2.47346E+02-8.70245E+00-1.85809E+02
 -1       274-4.31323E+04-7.69788E-01-2.01431E+01 3.63791E+02 2.06057E+01-2.03643E+02
 -1       275-4.04421E+04 1.39151E+00-1.64436E+01 3.24423E+02 3.38322E-01-1.76654E+02
 -1       276-3.78933E+04 2.52326E+01 2.63480E+01 2.32761E+02-7.80519E+00-1.64235E+02
 -1       277-3.52420E+04-2.08801E+01-7.72145E+00 2.30562E+02 2.07515E+01-1.87894E+02
 -1       278-3.27386E+04 1.26923E+01-1.31885E+01 3.44037E+02 1.31062E+01-1.94964E+02
 -1       279-3.01588E+04-1.52234E+01-1.94355E+01 2.21232E+02 2.07732E+00-1.55625E+02
 -1       280-2.77800E+04 8.75771E+00 1.48341E+01 2.93202E+02-3.49472E-01-1.63871E+02
 -1       281-2.53285E+04 5.90486E+00 2.04878E+01 3.23412E+02-1.90347E+01-1.82581E+02
 -1       282-2.29301E+04-8.28586E+00-2.97353E+01 2.02195E+02 1.01542E+01-1.56655E+02
 -1       283-2.07348E+04 8.37069E+00 2.53029E+01 1.86052E+02-8.24409E+00-1.42285E+02
 -1       284-1.85095E+04 2.36057E+01 6.95987E+00 1.93011E+02-1.54073E+01-1.46847E+02
 -1       285-1.63757E+04-5.30906E+00-8.54309E+00 1.75541E+02 1.34903E+01-1.30133E+02
 -1       286-1.43687E+04 2.18240E+00 1.27528E+01 2.52646E+02-6.51493E+00-1.42984E+02
 -1       287-1.24428E+04 1.39180E+01 8.31826E+00 1.70903E+02-1.16183E+01-1.33147E+02
 -1       288-1.05903E+04 1.18430E+00-7.88710E+00 2.16265E+02 2.31058E+00-1.20713E+02
 -1       289-8.93856E+03 6.40970E+00 7.24020E+00 1.89111E+02-8.06934E-01-1.17003E+02
 -1       290-7.32231E+03 9.07687E+00 4.51807E+00 1.36373E+02-9.16418E+00-1.03040E+02
 -1       291-5.89589E+03 8.13735E+00 4.58144E+00 1.67621E+02-2.49563E+00-9.41130E+01
 -1       292-4.58071E+03 8.47243E+00 8.66139E+00 1.59673E+02-4.13591E+00-9.25446E+01
 -1       293-3.40145E+03 1.44501E+01-5.70223E+00 1.44803E+02-1.02048E+00-7.97208E+01
 -1       294-2.38787E+03 7.16550E+00 2.19514E+00 8.42424E+01-5.89021E+00-6.05265E+01
 -1       295-1.56401E+03 1.17890E+01 6.80966E+00 9.41492E+01-1.43968E+00-5.28973E+01
 -1       296-8.78153E+02 1.32237E+01 9.52800E-01 7.22959E+01-3.16183E+00-4.13586E+01
 -1       297-3.85727E+02 1.43937E+01 2.41537E+00 5.13527E+01-3.70773E+00-2.46287E+01
 -1       298-6.38756E+01-7.54832E-01 1.29312E+00 4.25939E+00-1.20822E+00-5.39637E+00
 -1       299-6.59139E+04-1.69366E+03-1.79912E+03-8.30576E+02-1.93535E+02 5.92811E+03
 -1       300-6.04968E+04 5.86960E+01-2.17897E+01-3.61285E+02-3.04711E+02 4.10066E+02
 -1       301-5.99196E+04 1.59368E+01 2.36053E+01 1.97850E+02-1.01672E+02-1.61485E+02
 -1       302-5.77739E+04 4.44458E+01 2.39993E+01 3.20343E+02-3.05447E+01-2.26429E+02
 -1       303-5.53183E+04-4.99872E+01-5.77079E+01 3.13581E+02 4.64899E+00-2.14982E+02
 -1       304-5.24819E+04 9.55261E+00 1.69402E+01 3.30467E+02-1.93366E+01-2.15826E+02
 -1       305-4.99194E+04-3.80031E+00-2.26502E+00 3.31346E+02 9.21761E+00-2.09346E+02
 -1       306-4.71639E+04 1.12585E+01 1.19087E+01 2.80814E+02-2.61649E+01-2.18532E+02
 -1       307-4.44202E+04 3.82384E+01 2.16331E+01 3.21656E+02-3.50460E+00-2.09913E+02
 -1       308-4.18347E+04-6.82690E+00-2.15480E+01 3.58668E+02 1.05134E+01-2.20880E+02
 -1       309-3.92023E+04-2.99385E+00-4.64537E+00 3.03458E+02 6.60796E+00-2.03391E+02
 -1       310-3.65330E+04 3.96495E+01 3.51825E+01 2.53358E+02 2.53803E+01-1.93409E+02
 -1       311-3.39320E+04 7.23429E+00-5.04637E-01 3.06615E+02-8.37859E+00-2.05388E+02
 -1       312-3.15368E+04-5.18475E+01-5.82668E+01 3.01144E+02 7.89187E+00-1.94805E+02
 -1       313-2.89279E+04 8.16353E+00 1.06605E+01 2.78455E+02-8.98967E+00-1.88109E+02
 -1       314-2.64977E+04 1.36798E+01 2.32715E+01 3.21884E+02-1.18362E+01-1.99019E+02
 -1       315-2.41777E+04-2.64227E+01-1.74951E+01 2.80272E+02 3.27867E+00-1.80909E+02
 -1       316-2.18269E+04-1.46394E+00 1.51529E+00 2.39531E+02-2.70759E+00-1.68251E+02
 -1       317-1.96001E+04 2.77876E+01 2.16840E+01 2.01491E+02-1.34328E+00-1.36571E+02
 -1       318-1.74226E+04 2.54696E+01 1.32756E+01 1.98982E+02 5.08706E+00-1.62769E+02
 -1       319-1.53077E+04 3.31107E+01 2.79336E+01 2.30999E+02-1.09827E+01-1.54207E+02
 -1       320-1.34239E+04-1.15140E+00-3.34896E+00 2.30014E+02 2.34999E+00-1.53159E+02
 -1       321-1.14861E+04 1.85436E+01 4.23553E+00 2.05814E+02-1.33450E+01-1.43103E+02
 -1       322-9.74986E+03 6.62042E+00 1.61170E+00 2.10288E+02 9.08762E-01-1.43267E+02
 -1       323-8.12701E+03-1.64744E+00-1.10849E+00 1.79023E+02-5.40756E+00-1.18546E+02
 -1       324-6.56603E+03 1.98238E+01 1.11579E+01 1.58484E+02-1.49531E+01-1.19928E+02
 -1       325-5.19954E+03 1.27851E+01 1.18930E+01 1.70294E+02-5.16332E+00-1.08556E+02
 -1       326-3.96158E+03 1.33898E+01 6.71368E+00 1.63683E+02-7.62825E+00-1.01563E+02
 -1       327-2.90697E+03 1.42435E+00-9.23789E+00 1.21023E+02-2.46917E+00-8.15399E+01
 -1       328-1.93121E+03 1.92036E+01 1.15339E+01 9.00349E+01-8.34271E+00-7.09184E+01
 -1       329-1.19097E+03 1.24916E+01 6.58372E+00 8.98325E+01-5.74764E+00-5.57341E+01
 -1       330-5.99515E+02 1.50995E+01 6.52191E+00 6.33994E+01-7.37813E+00-4.06788E+01
 -1       331-2.02456E+02 8.78799E+00 3.10085E+00 3.46726E+01 1.75660E+00-1.76690E+01
 -1       332-8.81225E+00 5.31463E+00-3.02242E+00-9.11620E+00-5.24444E+00 4.22056E+00
 -1       333-3.55691E+04-1.43586E+04-1.49976E+04 2.60134E+03-1.48794E+02 2.55795E+03
 -1       334 4.43034E+04 1.73712E+04 1.79680E+04 3.95239E+03-4.71412E+01-1.72564E+03
 -1       335-2.69595E+04-1.16241E+04-1.08182E+04-1.49696E+03 1.93386E+02-3.95492E+03
 -1       336 3.68332E+04 1.56726E+04 1.57625E+04 1.76885E+03-5.45957E+01 2.98928E+03
 -1       337 1.35518E+04 5.59240E+03 5.81752E+03-4.31911E+02-1.31545E+01 2.24364E+02
 -1       338 2.26497E+04 8.37386E+03 8.85241E+03-2.04582E+03 5.81422E+01-2.35007E+03
 -1       339-4.67503E+04-1.87845E+04-2.01741E+04 4.24329E+03-1.85497E+02-2.39263E+03
 -1       340 9.35338E+03 2.81890E+03 3.48819E+03-2.81322E+03-8.86677E+01 1.40383E+03
 -1       341-1.02281E+04-4.46508E+03-4.14290E+03-2.83249E+03-2.86873E+02 2.68567E+03
 -1       342-7.31927E+03-2.45023E+03-2.75275E+03-1.19530E+03-2.33872E+02 5.33318E+02
 -1       343 5.42191E+04 1.97435E+04 2.06271E+04 3.98875E+03-2.46243E+02-7.84743E+03
 -1       344-5.29097E+04-2.18220E+04-2.17762E+04 3.40553E+03-5.69546E+02-7.65464E+03
 -1       345 3.78949E+04 1.35411E+04 1.48014E+04 1.30257E+03 1.48566E+02 6.91561E+03
 -1       346-3.74528E+04-1.42855E+04-1.52973E+04 1.62547E+03 1.50832E+02 6.93482E+03
 -1       347-1.74913E+04-6.41471E+03-7.00348E+03-3.96544E+02 2.66895E+02-4.48367E+02
 -1       348 8.35815E+04 3.16151E+04 3.25337E+04 8.91306E+03-2.01731E+03-1.55185E+04
 -1       349 7.60464E+04 3.20023E+04 3.16888E+04 1.40188E+04 4.36766E+02-7.19150E+03
 -1       350 6.04290E+04 2.45974E+04 2.49878E+04-1.83877E+03 6.91324E+02-1.32839E+04
 -1       351 5.89310E+04 2.49553E+04 2.47740E+04 1.00718E+04-2.19508E+02 8.18231E+03
 -1       352 5.86076E+04 2.18329E+04 2.31185E+04 3.84442E+03 1.42260E+03 1.32325E+04
 -1       353 3.67827E+04 1.46692E+04 1.49924E+04-4.55672E+03-5.87267E+02 9.01453E+03
 -1       354-5.83557E+04-2.17798E+04-2.31061E+04 3.97420E+03-1.38209E+03 1.32426E+04
 -1       355-3.58404E+04-1.53602E+04-1.53602E+04-3.41589E+03 1.12214E-03 9.40165E+03
 -1       356-5.90044E+04-2.49963E+04-2.48242E+04 1.01727E+04 2.09933E+02 8.29028E+03
 -1       357-8.27645E+04-3.17194E+04-3.24375E+04 8.50066E+03 1.82657E+03-1.52719E+04
 -1       358-7.37848E+04-3.16222E+04-3.16222E+04 1.26681E+04-2.95453E-03-7.68818E+03
 -1       359-5.88047E+04-2.52021E+04-2.52021E+04-7.38383E+02-1.88973E-03-1.32474E+04
 -1       360 6.19954E+04 2.65696E+04 2.65695E+04 1.01140E+04-1.43498E-03 2.75862E+03
 -1       361 5.76334E+04 2.47002E+04 2.47001E+04 9.09984E+03 3.11484E-03 5.82113E+03
 -1       362 3.78336E+04 1.50556E+04 1.59685E+04 1.77025E+03-2.04210E+02 4.64368E+03
 -1       363 6.87769E+04 2.94759E+04 2.94759E+04 1.23674E+04-4.37153E-04-4.09653E+03
 -1       364 6.72553E+04 2.84366E+04 2.84406E+04 1.23379E+04 2.47706E+02 2.00390E+01
 -1       365 4.11993E+04 1.66268E+04 1.73489E+04 3.06282E+03 2.05384E+02 1.05959E+03
 -1       366 5.04292E+04 1.93702E+04 2.10237E+04 4.04239E+03 1.23061E+02-4.06386E+03
 -1       367 1.95435E+04 8.06533E+03 7.83006E+03-6.18210E+03 4.05224E+02-3.23606E+03
 -1       368 4.09443E+04 1.75476E+04 1.75476E+04-3.84587E+03-2.37109E-03-8.62032E+03
 -1       369 4.05683E+04 1.68934E+04 1.59505E+04-2.90109E+02-2.17829E+02-5.15360E+03
 -1       370-2.18942E+04-9.08498E+03-9.71715E+03-5.56273E+03 1.48488E+02 6.46590E+03
 -1       371 9.74781E+02 4.17756E+02 4.17759E+02-6.60945E+03-2.45093E-03 8.98994E+02
 -1       372 7.88557E+03 3.10627E+03 2.63445E+03-3.38056E+03 1.45256E+02 1.58554E+02
 -1       373-2.41560E+04-1.02440E+04-9.99041E+03-1.50721E+03 1.96595E+01 4.81459E+03
 -1       374-7.25704E+04-3.11215E+04-3.10450E+04 1.35457E+04-1.17408E+01-4.74578E+03
 -1       375-6.76468E+04-2.89916E+04-2.89916E+04 1.21480E+04 1.71333E-03-8.85916E+02
 -1       376-5.09524E+04-2.02188E+04-2.13893E+04 3.89013E+03-1.82901E+02-4.46646E+03
 -1       377-6.21405E+04-2.65464E+04-2.64691E+04 1.15815E+04 5.44989E+01 2.26472E+03
 -1       378-5.60951E+04-2.40409E+04-2.40408E+04 9.51085E+03 7.82171E-04 5.73343E+03
 -1       379-4.07707E+04-1.62702E+04-1.70544E+04 3.68270E+03 2.34830E+02 1.82719E+00
 -1       380-3.71634E+04-1.43537E+04-1.56101E+04 2.10999E+03 1.46790E+02 4.36383E+03
 -1       381 1.95375E+04 8.37322E+03 8.37322E+03-5.61730E+03 2.65323E-03 4.89731E+03
 -1       382-2.77802E+03-1.42587E+03-1.65139E+03-6.67506E+03-3.31463E+02-8.78150E+02
 -1       383 2.54682E+04 1.05808E+04 1.01206E+04-1.81094E+03 2.42599E+02 4.24129E+03
 -1       384-2.30121E+04-9.86238E+03-9.86240E+03-5.73693E+03 2.73063E-03-4.99672E+03
 -1       385-4.57540E+04-1.92824E+04-1.99160E+04-3.39857E+03-1.93026E+02-1.06801E+04
 -1       386-7.24540E+03-3.18418E+03-3.34837E+03-3.06965E+03-3.09750E+01-1.41328E+03
 -1       387-4.05399E+04-1.71031E+04-1.63957E+04 1.68792E+02-7.46344E+01-5.78479E+03
 -1       388-3.31373E+04-1.42017E+04-1.42017E+04 7.53838E+02 2.84907E-03-1.35315E+03
 -1       389-2.73088E+04-1.15529E+04-1.14613E+04 6.33855E+02-1.16600E+02 7.97714E+02
 -1       390-2.52545E+04-1.08234E+04-1.08234E+04-9.48566E+02-2.00595E-03 2.55719E+03
 -1       391-2.26484E+04-9.70650E+03-9.70649E+03-3.13575E+02-6.95929E-04 1.55299E+03
 -1       392-8.06423E+03-3.45613E+03-3.45612E+03-2.37710E+03-1.83952E-03 1.63350E+03
 -1       393-1.27423E+04-5.31577E+03-5.43992E+03-4.59112E+02-5.06132E+01 2.29839E+02
 -1       394 3.02255E+04 1.27498E+04 1.23687E+04 8.38955E+02-1.41022E+02-3.46447E+02
 -1       395 2.65926E+04 1.13969E+04 1.13969E+04 1.84505E+02 6.71396E-04 1.60527E+03
 -1       396 3.55969E+04 1.52559E+04 1.52559E+04 1.51074E+02-2.42628E-03-2.13395E+03
 -1       397 1.68569E+04 7.22442E+03 7.22442E+03-1.24210E+03-6.05377E-04-1.03016E+03
 -1       398-3.99691E+04-1.71297E+04-1.71297E+04 4.04997E+02 3.31034E-03-2.85775E+03
 -1       399-2.21892E+04-9.50970E+03-9.50970E+03-1.41446E+03 3.39648E-03-1.75690E+03
 -1       400-3.97096E+03-1.57358E+03-1.14286E+03-2.20475E+03-1.59638E+02-2.14061E+02
 -1       401 1.00491E+04 4.30681E+03 4.30680E+03-1.77418E+03 1.27113E-03 1.19018E+03
 -1       402 2.40306E+04 1.02989E+04 1.02988E+04-7.36494E+02 3.01755E-03 2.47236E+03
 -1       403 8.34055E+03 3.38217E+03 4.14940E+03-2.15090E+03 3.95884E+01-1.13922E+02
 -1       404 2.86564E+03 1.70214E+03 1.51157E+03-9.85149E+02-2.36170E+02-1.39170E+02
 -1       405-2.76397E+03-7.20411E+02-8.24211E+02-1.12290E+03 3.34687E+02 2.99067E+02
 -1       406-4.27089E+00 4.62621E+01-1.05331E+01 1.08464E+01-1.93575E+01 1.43780E+00
 -1       407-3.75084E+00 5.14272E+01 2.01222E+01 1.05378E+01 2.18815E+01-1.60074E+00
 -1       408 3.62371E+00-9.43888E+01-2.42705E+01-1.65898E+00-1.22937E+01-3.31256E+00
 -1       409-5.35416E+00-6.29492E+01 9.07331E+00 1.15136E+01 1.99380E+01 1.85537E+00
 -1       410 3.91031E+00-6.71781E-01 8.10400E+00 2.09599E+01 8.60177E+00-3.31556E+00
 -1       411-1.70571E+00 9.18552E+01 2.34154E+01 2.49275E+00 9.93059E+00-1.37192E+00
 -1       412-5.59190E+00-7.32302E+01-2.42681E+01 1.25255E+01-2.26013E+01-3.53014E-01
 -1       413-4.82601E-01-9.01201E+01-7.27085E+00-7.79668E-01 2.81792E+00-2.68024E+00
 -1       414-5.19563E+00 8.92909E+01 1.10715E+00-4.80866E+00-4.23294E+00-1.73483E+00
 -1       415 2.95817E+00 5.26448E+01 4.10994E+00 1.60285E+01-4.21655E+00-5.23057E+00
 -1       416-3.83188E+00-9.50371E+01-2.46523E+01-5.71413E+00-1.22589E+01 1.29141E+00
 -1       417-2.70466E-01 8.50906E+01 2.18236E+01-7.00600E+00 1.16156E+01 1.17811E+00
 -1       418 2.29719E-01-8.42470E+01 7.37829E+00-7.75178E+00 8.40480E+00 1.49206E+00
 -1       419 2.59354E+00 8.63385E+01-5.63599E+00-9.48502E+00-8.96720E+00-2.14080E-01
 -1       420 5.46044E+00-4.14039E+01-1.41881E+01 1.76435E+01-1.01137E+01-1.82084E+00
 -1       421 2.04047E+00-6.12456E+01-1.81440E+01-4.87361E+00-9.48780E+00-4.55667E-01
 -1       422-7.86561E+00-6.15714E+01-1.29585E+01-1.08302E+01-3.04675E+00 9.50893E-01
 -1       423-4.58739E+00-1.07156E+02-1.85455E+01-1.36243E+00-7.73351E+00 8.78728E-01
 -1       424-5.50845E+00-5.89079E+01 6.83780E+00-1.11677E+01 1.39619E+00 3.09917E+00
 -1       425 6.56866E+00-5.60630E+01 1.61604E+01-5.00138E+00 6.46366E+00 1.87505E+00
 -1       426-3.82008E+00-9.12731E+01 3.39051E+00-6.35059E+00 6.56843E+00-9.48587E-01
 -1       427 3.13490E+00 8.86860E+01-3.70115E+00-6.62955E+00-7.08457E+00-9.98232E-01
 -1       428 8.00509E+00 6.04458E+01-5.50627E+00-1.17376E+01-1.60450E+00 2.70859E+00
 -1       429-4.33496E+00 5.72890E+01-1.72605E+01-4.75707E+00-6.64437E+00 6.03059E-01
 -1       430-4.83443E+00 5.74942E+01 1.53313E+01-4.98311E+00 9.44209E+00 1.87842E-01
 -1       431 8.11801E+00 5.89465E+01 1.40408E+01-1.04995E+01 1.70831E+00 9.66602E-01
 -1       432 1.18364E+00 8.88468E+01 1.56966E+01-6.49192E+00 9.41729E+00 2.27987E+00
 -1       433 4.49148E+00-6.40450E+01 8.59960E+00-3.48307E+00 2.42409E+00-1.91549E-01
 -1       434 5.93253E+00-6.34576E+01-4.29888E+00-3.41157E+00-1.06073E+00-4.76759E-01
 -1       435 1.40807E+00-8.92911E+01 2.47257E+00-2.49821E+00 6.55294E+00-1.23598E+00
 -1       436 3.63918E+00-5.89562E+01-1.38435E+01-5.00750E+00-6.29794E+00-1.83942E+00
 -1       437 7.69805E+00-5.99347E+01-1.65116E+01-4.88310E+00-9.04217E+00-1.59933E+00
 -1       438-2.53115E+00-9.05071E+01-1.93673E+01-1.04978E+00-3.99836E+00-2.59114E+00
 -1       439-2.71882E+00-9.54837E+01-2.86214E+01-4.38553E+00-1.43006E+01-2.20275E+00
 -1       440-4.68766E-01-8.33192E+01-1.59185E+01 5.13725E+00-1.54528E+01 2.02711E+00
 -1       441-5.22967E+00-4.00895E+01-1.49671E+01 1.02412E+01-2.21107E+01 1.31456E-01
 -1       442-1.24039E+01-9.40784E+01-2.86068E+01 4.68012E+00-1.76629E+01-3.28338E-02
 -1       443 4.33691E+00 2.50821E+01-9.91926E+00 7.72318E+00-2.22061E+01 2.37461E+00
 -1       444 5.83960E+00 8.69159E+01-1.35042E+00 1.86009E+00-1.48507E+01 6.51117E-01
 -1       445-1.48437E+01-1.43708E+01-1.76537E+01 1.12681E+01-2.22555E+01 5.75008E-01
 -1       446 5.88817E+00 8.07954E+01-3.80614E+00 1.62948E+00-1.27771E+01 1.28490E+00
 -1       447-5.95228E+00 6.37217E+01 1.36391E+01-1.74224E+00 6.47839E+00-2.28316E+00
 -1       448-3.50612E+00 6.76506E+01 2.28032E+01-2.46486E+00 8.66927E+00-6.65354E-01
 -1       449 1.21892E+00 9.37282E+01 2.68313E+01 1.55925E-01 1.18015E+01 7.65133E-01
 -1       450-6.73979E+00 5.56074E+01-1.01633E+01-6.07166E+00-3.40103E+00-2.81197E-01
 -1       451-4.85221E+00 5.44867E+01 1.67610E+00-6.56125E+00 1.17509E+00-1.68700E+00
 -1       452-3.03972E+00 8.86561E+01 1.58839E+01-6.60030E-01 3.97838E+00-1.47538E+00
 -1       453-2.89576E+00 8.99528E+01-4.01514E+00-5.67415E+00-8.58288E+00-9.71049E-01
 -1       454-7.02914E+00-3.36530E+01 6.82308E+00 1.04453E+01 2.11030E+01 2.05021E+00
 -1       455-3.59429E+00-9.02508E+01 2.50666E+00 2.88806E+00 1.41015E+01 6.88157E-01
 -1       456-7.12746E+00-8.49231E+01 2.80888E+00 1.38853E+00 1.26798E+01 2.53038E+00
 -1       457 5.07509E+00 8.94519E+01 2.01728E+01 2.51376E+00 1.71787E+01 2.28343E-02
 -1       458 2.79683E+00 2.92464E+01 1.15938E+01 8.45834E+00 2.32626E+01-1.43496E+00
 -1       459-1.31286E+01-2.69560E+00 1.46800E+01 1.08557E+01 2.14180E+01-2.12355E-01
 -1       460 7.31990E+00 8.51453E+01 2.85179E+01 2.19711E+00 1.59435E+01-1.93279E+00
 -1       461-9.18096E+00-6.16552E+01-2.37953E+01 1.78740E+01-2.02304E+01-4.96914E-01
 -1       462-4.03077E+00-1.39171E-01-1.30177E+01 1.50524E+01-1.78169E+01-7.40428E-01
 -1       463 3.72309E+00 5.43430E+01 7.60430E-01 1.82107E+01-1.28870E+01-1.37802E+00
 -1       464 1.28827E+01 8.25242E+01 1.11682E+01 6.59584E+00-4.18120E+00-4.31554E+00
 -1       465 1.05877E+01 8.43727E+01 1.75239E+00 6.89066E+00-1.16650E+01 1.15635E+00
 -1       466 8.40892E+00 7.20691E+00-7.08557E+00 2.02329E+01-7.02410E+00-7.23763E+00
 -1       467 2.17895E+00 2.54819E+01 1.64540E+01 1.66795E+01 1.75168E+01-1.14324E+00
 -1       468-5.02359E+00-2.96493E+01 6.34078E+00 1.77618E+01 1.75347E+01-2.75637E+00
 -1       469 1.24794E+01 8.42964E+01 3.05492E+01 1.01380E+01 1.49063E+01-3.06421E+00
 -1       470 2.23150E+01 5.81573E+01 2.37322E+01 1.24934E+01 1.18477E+01-1.26197E+00
 -1       471-1.57725E+01-9.49581E+01-3.11768E+01 7.83986E+00-1.65766E+01-4.03110E+00
 -1       472-1.55676E+01-8.17765E+01-2.77795E+01 8.54965E+00-1.31638E+01-2.75463E+00
 -1       473-1.64958E+01-7.52125E+01-1.86233E+01 8.44962E+00-2.18689E+00-2.76769E+00
 -1       474-1.64354E+01-5.64707E+01-7.02216E+00 1.07113E+01 8.53068E+00-5.53192E+00
 -1       475-8.86118E+00-8.27230E+01-8.46667E-01 7.39197E+00 1.03010E+01-1.27783E-01
 -1       476 1.45618E+01 7.62633E+01 1.92654E+01 9.05390E+00 5.37061E+00-2.78327E+00
 -1       477 8.20355E+00 3.06203E+01 7.77554E+00 1.96029E+01 1.43323E+00-3.49747E+00
 -1       478 2.91683E-01-2.69511E+01-3.66737E+00 2.19738E+01-8.69849E-01-2.55405E+00
 -1       479 1.07460E+04-4.88131E+00-1.76468E+01 2.72494E+01 1.49146E-01-4.35116E+02
 -1       480 4.34383E+03-1.49315E+01-6.00691E+00 4.59889E+01-3.33326E+00-2.82327E+02
 -1       481 7.89524E+02-8.68880E+00-3.44168E+01 1.42994E+01-6.13901E+00-4.16870E+01
 -1       482 1.92285E+04 5.62873E+01 4.17408E+00 7.83063E+01-6.39442E+00-5.40441E+02
 -1       483 1.76044E+04 6.19673E+00 2.44141E+00 7.38264E+01 8.70182E+00-1.64416E+02
 -1       484 8.63457E+03 1.83665E+01 5.11084E+00 1.49921E+02 1.57900E+01-1.66764E+02
 -1       485 2.56524E+03-2.87726E+01-3.56719E+01 3.36879E+01 8.93671E-01-6.73292E+01
 -1       486 2.88192E+04-8.54414E+00-1.01212E+00 7.87262E+01-4.79631E+00-1.90201E+02
 -1       487 5.84937E+04-7.31106E+01-2.72734E+01 8.52173E+01-2.68854E+00-6.80871E+02
 -1       488 5.21728E+04 1.08780E+01-2.13056E+00 1.45415E+02 8.94077E+00-6.95715E+02
 -1       489 7.65556E+04-3.17955E+00-3.54934E+01 1.18477E+02-1.92035E-01-1.36732E+02
 -1       490 4.05111E+04-2.94147E+01 2.70453E-01 1.16540E+02 1.57943E+01-6.45188E+02
 -1       491 3.22371E+04-4.75813E+01-1.08616E+01 1.19340E+01 9.14618E+00-6.41387E+02
 -1       492 4.62784E+04 1.73841E+01-1.12600E+01 1.12771E+02-6.44547E+00-6.54399E+02
 -1       493 8.34090E+04-1.52457E+02 1.29660E+03-1.78978E+02 2.37419E+02-8.53812E+02
 -1       494 6.78685E+04 4.18066E+01 2.96945E+02 2.74346E+02 2.44563E+01-6.06618E+02
 -1       495 1.60973E+02-2.61670E+01-2.40610E+01-3.25267E-01 7.49952E-01-6.64165E+01
 -1       496 2.66312E+04 5.46420E+01 4.86370E+01 1.94503E+02-2.87901E+01-4.98544E+02
 -1       497 1.24855E+03-5.53106E+00-8.79551E-01 6.67596E+01-9.43844E+00-1.39276E+02
 -1       498 6.55743E+04 5.19996E+01 3.34493E+01 6.07450E+01 1.72790E+00-2.21753E+02
 -1       499 4.47200E+04 7.00306E+01 5.19652E+01 2.41245E+02 2.17685E+01-2.92507E+02
 -1       500 3.49814E+04 1.06723E+01 3.29216E+00 1.11033E+02 1.71204E+00-2.17386E+02
 -1       501 5.85490E+04 7.71720E+01 5.17902E+01 2.46445E+02 2.08625E+01-3.09678E+02
 -1       502 5.17208E+04-4.22856E+01-1.29935E+01 6.27547E+01 4.11197E+00-2.16888E+02
 -1       503 7.72021E+04-5.50048E+03 8.95922E+03 1.24885E+03-6.36763E+01 2.15505E+03
 -1       504 2.00613E+01-2.98025E+00-3.44757E+01-5.32237E+00-1.70362E+00-2.96479E+01
 -1       505 1.27510E+04 2.32893E+01-1.51807E+01 2.46877E+01-2.09340E+00-1.24750E+02
 -1       506 5.25006E+03-3.51013E+01-3.77402E+01 4.87450E+01-5.30886E+00-9.92363E+01
 -1       507 2.28429E+04 4.25967E+01-9.50204E+00 3.27374E+01-6.01495E+00-1.57680E+02
 -1       508 1.47526E+04 5.07421E+01 4.00234E+01 1.83548E+02-3.38135E+01-3.98526E+02
 -1       509 7.29666E+03-3.13493E+01-1.67176E+01 3.09836E+01 1.48818E-01-3.69867E+02
 -1       510 8.03302E+04 2.05270E+00 2.02781E+02 1.42046E+02 9.74768E+00-1.26601E+02
 -1       511 6.45740E+04-5.95954E+01-5.72794E+01 2.39756E+02 3.20676E+01-6.40104E+02
 -1       512 6.12100E+04 7.69433E+01 9.71537E+00 1.17034E+02-6.98497E+00-7.08460E+02
 -1       513 6.55402E+04 1.47898E+01-5.81134E+00 2.04806E+02 1.21104E+01-5.70659E+02
 -1       514 5.87899E+02-6.49251E+00-2.06346E+01 3.37737E+01 2.72212E+00-1.22070E+02
 -1       515 8.88904E+03 1.40547E+00 7.02533E+00 5.99092E+01 8.10802E+00-3.79988E+02
 -1       516 1.07615E+04-4.56300E+01-3.24070E+01 5.81545E+01-9.25465E+00-1.31854E+02
 -1       517 3.19686E+04-4.06131E+01-2.23270E+01 2.40266E+01 1.45379E+00-1.78906E+02
 -1       518 2.40874E+04 7.45930E+00-5.21248E+00 1.29870E+02 6.23391E+00-5.84493E+02
 -1       519 2.03972E+04-7.33545E+01-3.58894E+01 1.27910E+02-2.61130E+01-2.12963E+02
 -1       520 1.71723E+04-6.95090E+01-2.44450E+01 6.17524E+01 5.36387E+00-5.02441E+02
 -1       521 4.94042E+04-9.01484E+01-6.71934E+01 2.57559E+02 3.47014E+01-5.64714E+02
 -1       522 3.77649E+04-9.59342E+01-6.67319E+01 2.45162E+02 3.27684E+01-5.42651E+02
 -1       523 3.46859E+04 6.52030E+01 4.80068E+00 1.07822E+02-1.18356E+01-6.22796E+02
 -1       524 3.66797E+04-3.60170E+00-1.39490E+01 1.50568E+02-5.21253E+00-5.28403E+02
 -1       525 4.82714E+04-1.94511E+01-4.05629E+00 1.08791E+02-4.29695E+00-2.21710E+02
 -1       526 6.86225E+03-8.05514E+00-2.56021E+01 5.26869E+01-1.17735E+00-1.03136E+02
 -1       527 5.76487E+03-1.70619E+01-8.00440E+00 4.29840E+01 3.88938E+00-3.24929E+02
 -1       528 2.94541E+04-2.62395E+01-4.46170E+00 1.00291E+02 3.88817E+00-5.89443E+02
 -1       529 1.51478E+03-1.53419E+01-2.65433E+01 4.57420E+01 2.47047E+00-5.89404E+01
 -1       530 2.11492E+03-2.47137E+01-2.09490E+01 3.29568E+01 1.80541E+00-2.14546E+02
 -1       531 5.50710E+04 2.41131E+01-1.11904E+00 9.85096E+01-2.27689E+00-2.22092E+02
 -1       532 6.22632E+04-6.36233E+01-2.50163E+01 1.21008E+02 2.87869E+00-2.23370E+02
 -1       533 3.06654E+03 7.76756E+00-1.01567E+01 4.61770E+01 3.36842E+00-2.45204E+02
 -1       534 5.51193E+04 8.11417E+01 6.98472E+01 2.13906E+02-4.14777E+01-5.67627E+02
 -1       535 3.69549E+03 1.34512E+01-1.35655E+01 7.38562E+01 2.11965E+00-1.02010E+02
 -1       536 2.17752E+04-8.88731E+01-6.09048E+01 2.12220E+02 3.93814E+01-4.55145E+02
 -1       537 4.32435E+04 4.94716E+01 3.87158E+00 1.38760E+01 4.73535E-01-6.78221E+02
 -1       538 2.58467E+04-1.20887E+01-3.73506E+01 5.69959E+01-1.29237E+01-1.84831E+02
 -1       539 1.27638E+04-1.41173E+01-1.89210E+01 7.95155E+01-4.69280E+00-4.44068E+02
 -1       540 1.51209E+04-4.75590E+00-3.05290E+01 6.46820E+01 7.65494E-01-1.52655E+02
 -1       541 7.60509E+04-2.18088E+02 1.24562E+03 2.31908E+02 9.39184E+01-3.82555E+02
 -1       542 7.21638E+04 2.75856E+01 1.30703E+02 2.75827E+02 1.15103E+01-5.33720E+02
 -1       543 6.94556E+04-7.59309E+01-2.13741E+01 9.02230E+01 8.92905E+00-2.10794E+02
 -1       544 8.25941E+04-8.41880E+03 7.05192E+03-6.09984E+02 1.32320E+02-2.13064E+03
 -1       545 4.15624E+04-1.16399E+01-3.32258E+01 1.16389E+02 1.09677E+01-2.10392E+02
 -1       546 3.36381E+04-5.88279E+00-4.85530E+00 1.42814E+02 4.45199E+00-5.28921E+02
 -1       547 4.39782E+02-2.39280E+01-3.80536E+01 5.10539E+01-2.42686E+00-8.43369E+01
 -1       548 7.28182E+04 8.30928E+01 2.12737E+01 1.53218E+02 1.69356E+01-2.45616E+02
 -1       549 1.08169E+03-3.42145E+01-4.15309E+01 4.29859E+01 9.80835E-01-1.23862E+02
 -1       550 6.20955E+04 2.21439E+01 6.12539E+00 2.87060E+02-8.34165E+00-5.72422E+02
 -1       551 5.45791E+03-3.83597E+00-2.38782E+01 1.33707E+02-3.48455E+00-2.50275E+02
 -1       552 7.17735E+03-2.71066E+01-2.53557E+01 1.30135E+02-8.99061E+00-2.68729E+02
 -1       553 1.52289E+04-2.38288E+01-3.39205E+01 1.50085E+02 1.25387E+01-4.05557E+02
 -1       554 4.16130E+03-3.28487E+01-3.04779E+01 1.01062E+02 5.62813E-01-2.20827E+02
 -1       555 2.24826E+04-2.68037E+01-3.02417E+01 2.18478E+02-1.90763E+00-4.60696E+02
 -1       556 1.28647E+04-7.79753E+00-2.38284E+01 1.01745E+02-1.30326E+00-3.72191E+02
 -1       557 1.73633E+04 1.35231E+01-1.23775E+01 2.09411E+02-9.24154E+00-4.19812E+02
 -1       558 1.98293E+04-2.03882E+01-1.77639E+01 1.59977E+02 7.88557E+00-4.36837E+02
 -1       559 1.81130E+03-1.19307E+01-3.22732E+01 8.71824E+01-2.73887E+00-1.56719E+02
 -1       560 2.89111E+03-1.88301E+01-2.93437E+01 6.72364E+01-2.58922E+00-1.89259E+02
 -1       561 8.84308E+03-2.71307E+00-3.44021E+01 9.68347E+01 3.28976E+00-3.35428E+02
 -1       562 2.49086E+04 5.54815E+00-8.51502E+00 2.01594E+02-1.06749E+01-4.91926E+02
 -1       563 3.07201E+04-4.38164E+00-1.33322E+01 1.48814E+02-1.51764E+01-4.88448E+02
 -1       564 5.90911E+04-1.06252E+01-1.13110E+01 2.22140E+02 1.25342E+01-5.88320E+02
 -1       565 5.53677E+04 1.69780E+01-2.14299E+01 2.39155E+02 6.88543E+00-5.76349E+02
 -1       566 4.91417E+04-2.46291E-01-1.12477E+01 1.64772E+02 7.24873E+00-5.63754E+02
 -1       567 4.59467E+04-1.12659E+01 4.33958E+00 1.63331E+02 2.74345E+00-5.42777E+02
 -1       568 5.25314E+04-1.46155E+01 7.56544E+00 2.33177E+02 2.87374E+00-5.43576E+02
 -1       569 4.25887E+04 2.30167E+00-2.59918E+01 2.28341E+02 6.27998E+00-5.57117E+02
 -1       570 1.07803E+04-1.40567E+01-2.24004E+01 9.45439E+01-4.84346E+00-3.39650E+02
 -1       571 2.80099E+04-1.45603E+01-1.13274E+01 2.12702E+02 8.59837E+00-5.14826E+02
 -1       572 3.98666E+04-1.45272E+01 5.74653E+00 2.19618E+02 5.71017E-01-5.15637E+02
 -1       573 3.82364E+04 4.53279E+00-4.07449E+00 5.15302E+01-4.04007E+00-1.91200E+02
 -1       574 6.89188E+04-2.98273E+01-2.57269E+01 2.79444E+02 1.51453E+01-5.67443E+02
 -1       575 5.17297E+00 3.61070E+00-2.45250E+01-6.56814E-01-3.83661E-01-3.62687E+01
 -1       576 7.10547E+04 3.19282E+01 1.65302E+03 8.99326E+01-5.64378E+01 5.87208E+02
 -1       577 2.45392E+02-2.71739E+01-4.17015E+01-1.41267E+01-2.76957E+00-3.16809E+01
 -1       578 7.77791E+04-4.46865E+02 4.77629E+03-2.28936E+01 1.44251E+02-1.37291E+02
 -1       579 8.81119E+04-5.18542E+03 2.98124E+03-4.69682E+02 3.72898E+02-4.88631E+03
 -1       580 7.05828E+04-3.79765E+03 3.83812E+03-3.62023E+02-1.83486E+02 5.37993E+03
 -1       581-3.47488E+00-8.55723E+00-9.13286E+00-1.96442E+01 3.38267E+00-1.70789E+01
 -1       582 2.25804E+01-2.52157E+00-1.93134E+01-1.60348E+01-3.75827E+00-1.64441E+01
 -1       583 1.32992E+02-1.24362E+01-4.43207E+01 1.79334E+01-4.70312E-01-5.74852E+01
 -1       584 9.02790E+04 7.32050E+03 1.80627E+04 9.11257E+03 1.68157E+02-6.45125E+03
 -1       585 1.00034E+05 9.31002E+03 1.57830E+04 6.57656E+03-2.44490E+03-1.25203E+04
 -1       586 8.46843E+04-1.91269E+03-5.29956E+02-1.56914E+03 8.13347E+02-1.64250E+03
 -1       587 7.42660E+04 6.14961E+03 1.24562E+04 3.31908E+03 1.96257E+03 1.16056E+04
 -1       588 7.38929E+04 7.11212E+03 1.61984E+04 7.16302E+03 8.40587E+01 7.92242E+03
 -1       589 6.36636E+04-1.27342E+03 2.78151E+02-1.21997E+03-6.03302E+02 2.44226E+03
 -1       590-9.77403E+00-6.69394E+00-1.00855E+01-1.39660E+01-1.31433E+00-1.02943E+01
 -1       591-9.51406E+00 6.93231E+00-1.04237E+01-4.70220E+00-9.39151E-02-7.89465E+00
 -1       592 6.33358E+01-1.03165E+00-1.27282E+01-1.38914E+01-3.62568E+00-4.44498E+00
 -1       593-2.27319E+01 2.42937E+00 6.86135E+00-5.55632E+00 5.38828E-01-9.39465E+00
 -1       594-2.43132E+01-1.11842E+01-3.85039E+00-1.49830E+01 1.11633E+00-7.43542E-02
 -1       595 3.15710E+01-3.99440E+00-5.86031E+00-1.51688E+01 5.08298E+00-1.32830E+01
 -1       596 7.94961E+04 9.50614E+03 2.00810E+04 8.53531E+03-7.99890E+02 5.13893E+03
 -1       597 8.43430E+04 1.16549E+04 2.23264E+04 9.62416E+03 7.13851E+02 2.60564E+03
 -1       598 7.32727E+04-5.31743E+03 6.92023E+03-2.00058E+02-7.14780E+01 4.40396E+03
 -1       599 8.59290E+04 7.83455E+03 1.98031E+04 8.23737E+03 3.79965E+02-3.14941E+02
 -1       600 9.05870E+04 1.08138E+04 2.21711E+04 9.56544E+03 7.84663E+02-4.02647E+03
 -1       601 7.91697E+04-6.26235E+03 8.83691E+03-1.15056E+02-1.65674E+02 9.79353E+01
 -1       602 8.55786E+04-7.14081E+03 6.36034E+03-6.71228E+02 1.26825E+02-3.94957E+03
 -1       603-1.14143E+01 3.07054E+00-1.78720E+01-4.09334E+00-7.19450E-01-1.91476E+01
 -1       604-1.24747E+01 5.63266E+00-3.41254E+00-4.30513E+00-2.61755E-01-1.86380E+01
 -1       605-4.93700E+00-4.04161E+00-1.50166E+01-7.31926E+00 8.16628E-01-3.02565E+01
 -1       606-1.04292E+01 3.19622E+00-2.23341E+01-4.14983E+00-1.18155E+00-1.48575E+01
 -1       607-1.03161E+01 4.00701E+00-1.95556E+01-4.98694E+00 2.61093E-01-1.68421E+01
 -1       608 1.74311E+01-1.47436E+00-3.43778E+01-3.54831E+00-2.26405E-01-3.41133E+01
 -1       609 1.06481E+01-5.07894E+00-2.60641E+01-6.98518E+00-2.89155E+00-2.11056E+01
 -1       610 6.63391E+04 2.94443E+02 6.94839E+02 1.48430E+02-5.68046E+01 1.56287E+02
 -1       611 6.69496E+04 6.86008E+02 1.79291E+03-2.81166E+02 4.40579E+02 1.20037E+03
 -1       612 7.01270E+04-1.72186E+02 2.96019E+03 9.02038E+01 3.02991E+01 2.69298E+03
 -1       613 6.34412E+04 1.44993E+02 1.19370E+02 2.01092E+02 5.68507E+01-4.84495E+02
 -1       614 6.43716E+04 4.61815E+01 1.77176E+02 1.58865E+02 1.26422E+01-3.23094E+02
 -1       615 6.92952E+04-2.19395E+01 7.93878E+02 1.38209E+02-6.79653E+01-1.56842E+02
 -1       616 6.05919E+04-2.58708E+01-3.06842E+00 2.48604E+02 5.67168E+01-4.66561E+02
 -1       617 6.17384E+04-5.95049E+01-2.36163E+01 9.77974E+01-1.51465E+00-5.37950E+02
 -1       618 6.58723E+04-1.01934E+02-2.93390E+01 1.73662E+02 7.33120E+00-6.99214E+02
 -1       619 5.76232E+04 6.88468E+01 2.55069E+01 1.08354E+02 6.81649E-01-4.75295E+02
 -1       620 5.89381E+04 6.06850E+01 1.48936E+01 2.39045E+02-2.20337E+01-4.74229E+02
 -1       621 6.30071E+04 6.48830E+01 2.87210E+01 2.40328E+02 3.58911E+01-6.95714E+02
 -1       622 5.46947E+04-6.02774E+01-4.49483E+01 1.98382E+02 3.77766E+01-4.51826E+02
 -1       623 5.61887E+04-4.68423E+01 7.40374E-01 8.50803E+01-9.79650E+00-4.69942E+02
 -1       624 5.97901E+04-3.91496E+01-4.58759E+01 6.43343E+01-1.24186E+01-6.88150E+02
 -1       625 5.18611E+04 5.82199E+01 3.44961E+01 7.90805E+01 1.36510E+00-5.01138E+02
 -1       626 5.31260E+04 4.15585E+01 9.34625E+00 2.44661E+02-5.27374E+01-4.27468E+02
 -1       627 5.65472E+04-6.25716E+01-5.30127E+01 2.03066E+02-3.99082E+01-6.63089E+02
 -1       628 4.89699E+04 4.41702E+01-2.45919E+01 9.15394E+01 2.38596E+01-5.25003E+02
 -1       629 5.04466E+04-1.86885E+01 1.70379E+01 7.71520E+01-1.62337E+01-4.97345E+02
 -1       630 5.39239E+04 8.69684E+01 1.33466E+02 1.50597E+02 1.11443E+00-6.40791E+02
 -1       631 4.63388E+04-1.12452E+01 2.74447E+01 2.62169E+02 4.36267E+01-4.48435E+02
 -1       632 4.74787E+04-9.16730E+01-7.63080E+01 1.26901E+02 6.53900E+00-4.86145E+02
 -1       633 5.06451E+04-5.85810E+01-5.19109E+01 1.94330E+02 2.16391E-02-6.74969E+02
 -1       634 4.34057E+04 1.60055E+01 5.77571E+00 1.90502E+02 1.92946E+01-4.12659E+02
 -1       635 4.47429E+04 1.99983E+01-4.78900E+00 2.15579E+02-3.33303E+01-4.34440E+02
 -1       636 4.80632E+04 4.63149E+01 4.19590E+01 2.21602E+02 2.66230E+01-6.69361E+02
 -1       637 4.05801E+04 5.32481E+01 1.54484E+00 4.96156E+01 4.22260E+00-4.62497E+02
 -1       638 4.18783E+04 4.13904E+01 2.16383E+01 1.60019E+02-1.57728E+01-4.25528E+02
 -1       639 4.48940E+04 6.84440E+01 8.34658E+00 1.15711E+02 1.61647E+01-6.77773E+02
 -1       640 3.77951E+04 4.28737E+01-2.46773E+01 7.00776E+01 4.15298E+01-5.01389E+02
 -1       641 3.92340E+04-1.81572E+01 2.00769E+01 7.73382E+01-3.61718E+00-4.51595E+02
 -1       642 4.19089E+04-3.76513E+01 6.27929E+00 3.34088E+01-9.83611E+00-6.57863E+02
 -1       643 3.52960E+04-1.99890E+01 2.48144E+01 2.51906E+02 4.46419E+01-4.27991E+02
 -1       644 3.63806E+04-8.86896E+01-6.92805E+01 1.22193E+02 7.07016E+00-4.66662E+02
 -1       645 3.89153E+04-9.03978E+01-7.20184E+01 1.50851E+02-9.40612E+00-6.61840E+02
 -1       646 3.24871E+04 5.35442E+01 1.20854E+01 1.06397E+02-3.39217E+00-4.10795E+02
 -1       647 3.37851E+04 3.61997E+01 8.01964E+00 2.06041E+02-3.78553E+01-4.31963E+02
 -1       648 3.64471E+04 4.62142E+01 3.81523E+01 2.16568E+02 2.70762E+01-6.43811E+02
 -1       649 2.99582E+04-4.78462E+01-2.26208E+01 1.39684E+02 1.88594E+01-4.04282E+02
 -1       650 3.11846E+04-5.90284E+01-2.76462E+00 5.08842E+01-1.87521E-01-4.36985E+02
 -1       651 3.34727E+04 2.94075E+01-5.99611E+00 3.99861E+01 1.25922E+01-6.30203E+02
 -1       652 2.73303E+04-2.87453E+01-4.05472E+00 1.92980E+02 2.70545E+01-3.90706E+02
 -1       653 2.85607E+04-2.98312E+01-1.23057E+01 1.70458E+02-1.85619E+01-3.79538E+02
 -1       654 3.07115E+04-6.80101E+01-3.02113E+01 9.43785E+01-1.01759E+01-6.28816E+02
 -1       655 2.48459E+04 4.64347E+01 1.98859E+01 7.12943E+01 5.24241E+00-4.32427E+02
 -1       656 2.59197E+04 1.61512E+01-7.24991E+00 2.14590E+02-4.17415E+01-3.81642E+02
 -1       657 2.78781E+04-4.95364E+01-4.15875E+01 1.90832E+02-3.25969E+01-5.87079E+02
 -1       658 2.23723E+04 3.59092E+01-2.26182E+01 8.17158E+01 2.05417E+01-4.38963E+02
 -1       659 2.36125E+04-2.12307E+01 7.47492E+00 6.93774E+01-1.43251E+01-4.21652E+02
 -1       660 2.55919E+04 6.81972E+01 1.04593E+02 1.36019E+02 3.91257E+00-5.45862E+02
 -1       661 2.01776E+04-2.55478E+01 1.43302E+01 2.17828E+02 4.20604E+01-3.62789E+02
 -1       662 2.11146E+04-8.20334E+01-7.09136E+01 1.08717E+02 7.14763E+00-4.00813E+02
 -1       663 2.28038E+04-5.66189E+01-5.36092E+01 1.66105E+02 3.66143E+00-5.62286E+02
 -1       664 1.78441E+04 4.48804E+01 1.24382E+01 7.18661E+01-2.92308E+00-3.61546E+02
 -1       665 1.88818E+04 3.92249E+01 1.86686E+00 1.89793E+02-2.20931E+01-3.62234E+02
 -1       666 2.06448E+04 4.77794E+01 2.71684E+01 1.99844E+02 2.86325E+01-5.33124E+02
 -1       667 1.56572E+04-6.54678E+01-3.23958E+01 1.38158E+02 3.25400E+01-3.27293E+02
 -1       668 1.67435E+04-4.68292E+01 2.44882E+00 6.48528E+01-3.61112E-01-3.47914E+02
 -1       669 1.81614E+04-4.12388E+01-4.66762E+01 4.19761E+01-6.61828E+00-5.22086E+02
 -1       670 1.36587E+04 5.12121E+01 4.63776E+01 8.64690E+01-5.40231E+00-3.46196E+02
 -1       671 1.44989E+04-5.12351E+00-2.35168E+01 1.91823E+02-3.47335E+01-3.19573E+02
 -1       672 1.56862E+04-6.95582E+01-5.26059E+01 1.46279E+02-3.31172E+01-4.87390E+02
 -1       673 1.16531E+04-1.09662E+01-2.24783E+01 1.13974E+02 1.76319E+01-2.89140E+02
 -1       674 1.26266E+04-5.03981E+01 4.45603E+00 5.00975E+01-1.93184E+01-3.42613E+02
 -1       675 1.38983E+04 4.51863E+01 4.27878E+01 1.13759E+02 5.79746E+00-4.68169E+02
 -1       676 9.84750E+03-1.31675E+01-3.35485E+00 9.94375E+01 4.44992E+00-2.75196E+02
 -1       677 1.06479E+04-3.52335E+00-1.66451E+01 1.10549E+02-4.53909E+00-2.81052E+02
 -1       678 1.17732E+04 3.88772E+01 1.53221E+00 6.71939E+01-1.51182E+00-4.51134E+02
 -1       679 8.07826E+03 1.24652E+01-1.04650E+01 4.77504E+01 1.69690E+01-2.72467E+02
 -1       680 8.93178E+03-1.58718E+01 7.71778E+00 9.10411E+01-2.10312E+01-2.63000E+02
 -1       681 9.79874E+03-4.48136E+01-2.66834E+01 4.10941E+01 1.58830E+00-4.24558E+02
 -1       682 6.58600E+03-3.22363E+01-7.79517E+00 9.69125E+01 8.19252E+00-2.40290E+02
 -1       683 7.26577E+03-3.76372E+01-2.49820E+01 5.25327E+01-2.12181E+00-2.58670E+02
 -1       684 8.08839E+03 1.30293E+01 9.62706E+00 3.00033E+01 6.51355E+00-3.76309E+02
 -1       685 5.14462E+03-2.21245E+01-9.01432E+00 8.86828E+01 1.19136E+01-2.10321E+02
 -1       686 5.78791E+03-2.08547E+01-1.11419E+01 9.14761E+01-9.70725E+00-2.12764E+02
 -1       687 6.47807E+03-4.50522E+01-2.27064E+01 5.98623E+01-2.86008E+00-3.55598E+02
 -1       688 3.86651E+03-2.01733E+01-6.41374E-01 8.87256E+01 1.34772E+01-1.77504E+02
 -1       689 4.43019E+03-1.73493E+01-1.64694E+01 9.12386E+01-1.50571E+01-1.86347E+02
 -1       690 4.99296E+03-2.55788E+01-2.20310E+01 5.67118E+01-1.30210E+01-3.17028E+02
 -1       691 2.72731E+03 8.13262E+00-9.38018E+00 3.88120E+01 8.87912E+00-1.66425E+02
 -1       692 3.25387E+03-5.44949E+00-4.27491E+00 7.83842E+01-1.22908E+01-1.68422E+02
 -1       693 3.73762E+03-7.71130E+00-1.03859E+01 6.10348E+01 6.32897E+00-2.78497E+02
 -1       694 1.81065E+03-2.80236E+01-1.47927E+01 6.46134E+01 6.23702E+00-1.39517E+02
 -1       695 2.21098E+03-2.96660E+01-2.20899E+01 3.54251E+01-5.88318E-01-1.53823E+02
 -1       696 2.59653E+03 1.03710E+01-2.90679E+00 3.74067E+01 8.66722E+00-2.27003E+02
 -1       697 1.06369E+03 6.64967E+00 2.41937E+00 2.70581E+01 5.97515E+00-1.19703E+02
 -1       698 1.35330E+03-1.87088E+01-1.52349E+01 6.64295E+01-1.07715E+01-1.11781E+02
 -1       699 1.60518E+03-3.54817E+01-3.03437E+01 6.05362E+01-1.29820E+01-1.82682E+02
 -1       700 4.75691E+02-3.76929E+00-1.33816E+01 2.15628E+01 6.15917E+00-8.06908E+01
 -1       701 7.15563E+02-2.11983E+01-1.96718E+01 2.19366E+01-4.49981E+00-9.98053E+01
 -1       702 9.45272E+02 3.05476E-01 1.76354E+00 4.81145E+01 3.37858E+00-1.38376E+02
 -1       703 7.53556E+01-1.21797E+01-1.53681E+01-3.22028E+00 7.08265E+00-3.82352E+01
 -1       704 2.34557E+02-2.01924E+01-1.55510E+01 1.43145E+01 3.67226E-01-5.16959E+01
 -1       705 3.56237E+02-2.12652E+01-2.36621E+01 1.50112E+01 7.74287E-01-9.74597E+01
 -1       706 4.67388E+01-2.56822E+01-2.58233E+01-1.05429E+01 1.72971E+00-4.06205E+01
 -1       707 8.57510E+04 6.41376E+02 1.62935E+03-3.27572E+02-4.78352E+02-1.06358E+03
 -1       708 8.52442E+04 8.00543E+01 4.35216E+02-7.66294E+01 1.48308E+02-2.70778E+02
 -1       709 8.46349E+04-2.70770E+02 2.47642E+03-1.38137E+02 9.22664E+01-2.44455E+03
 -1       710 8.34833E+04 2.47478E+01 1.17801E+02 8.13884E+01-2.31333E+01-5.10959E+01
 -1       711 8.22216E+04-1.09010E+01 4.62678E+01 1.70566E+02-4.68967E+01 3.36250E+01
 -1       712 8.17693E+04-9.86754E+00 6.52393E+02-1.50193E+01 1.56060E+02-3.85889E+02
 -1       713 8.03865E+04 4.44934E+00-1.04220E+01 1.45509E+02 3.53309E+00 4.46402E+00
 -1       714 7.86306E+04-1.00009E+01-1.70468E+01 1.99338E+02-3.96672E+01-2.43948E+01
 -1       715 7.83404E+04-3.31791E+01 4.77518E+01 1.26913E+02 1.12720E+01-1.02584E+02
 -1       716 7.68163E+04 3.19352E+01 1.16778E+01 1.96724E+02 4.50823E+01-3.89800E+01
 -1       717 7.49412E+04 3.51672E+01 1.09828E+01 8.97635E+01-1.02423E+01-5.40130E+00
 -1       718 7.47484E+04 8.35941E+00-2.59842E+01 1.86059E+02-7.10249E-02-1.73979E+02
 -1       719 7.31510E+04-4.13825E+01-1.96272E+01 8.87239E+01 1.54508E+01-2.37867E+01
 -1       720 7.12999E+04-6.13618E+01-1.50123E+01 2.01569E+02-2.01056E+01-5.40196E+01
 -1       721 7.12528E+04 2.48557E+01 3.45901E+01 5.47233E+01 2.20595E+00-1.98623E+02
 -1       722 6.94026E+04 2.94331E+01 2.45315E+01 1.67308E+02 4.49433E+01-7.69982E+01
 -1       723 6.74101E+04 3.32615E+01 9.31455E+00 7.38688E+01-1.55644E+01-3.16596E+01
 -1       724 6.75562E+04-5.54918E+01-5.05286E-02 1.59942E+02 1.55108E+01-2.17357E+02
 -1       725 6.56969E+04-4.57637E+01-2.10036E+01 9.67533E+01 1.18783E+01-3.80710E+01
 -1       726 6.38302E+04-5.82768E+01-2.36936E+01 2.23552E+02-3.24748E+01-5.95708E+01
 -1       727 6.39683E+04 2.28769E+01 2.92757E+01 6.66905E+01-2.50321E+00-2.27392E+02
 -1       728 6.18923E+04-1.61374E+01-2.74138E+01 2.46648E+02 3.67163E+01-5.84167E+01
 -1       729 6.01661E+04 6.36034E+01 5.27016E+01 1.21343E+02-3.22223E+00-1.12391E+01
 -1       730 6.02108E+04-8.28603E+01-4.77904E+01 2.39022E+02 1.28666E+01-2.31931E+02
 -1       731 5.84254E+04-3.94658E+01 2.63771E+01 4.99528E+01 3.08666E+01 8.53454E+00
 -1       732 5.63939E+04 1.34916E+01-2.50411E+01 6.43629E+01-1.78267E+01-2.17221E+01
 -1       733 5.70684E+04 9.67274E+01 4.46447E+01 1.54826E+02-7.93937E+00-2.13755E+02
 -1       734 5.47024E+04-3.83760E+01-2.33483E+01 7.90327E+01 1.10567E+01-3.52528E+01
 -1       735 5.29275E+04-3.62450E+01-5.42366E+00 1.67263E+02-1.72040E+01-5.78025E+01
 -1       736 5.34025E+04 3.49893E+01 2.18111E+01 5.29292E+01 8.82415E-01-2.25707E+02
 -1       737 5.11198E+04-2.43712E+01-1.35883E+01 1.70077E+02 2.24762E+01-7.34144E+01
 -1       738 4.92715E+04-2.39807E+01-1.05474E+01 1.87388E+02-4.10061E+01-6.14956E+01
 -1       739 4.99298E+04-7.04211E+01-1.85686E+01 1.24292E+02 2.00262E+00-2.11780E+02
 -1       740 4.74434E+04-1.68813E+01-2.50116E+01 2.30691E+02 3.32223E+01-4.78796E+01
 -1       741 4.57993E+04 5.88839E+01 5.29564E+01 1.16209E+02-2.19195E+00-4.53351E+00
 -1       742 4.62774E+04-5.74965E+01-4.82329E+01 1.99932E+02 1.27340E+01-2.14656E+02
 -1       743 4.41597E+04-5.38459E+01-3.40421E+00 6.32456E+01 2.51783E+01 7.65390E+00
 -1       744 4.23238E+04 1.01652E+01-2.45823E+01 1.48171E+02-1.96947E+01-5.84973E+01
 -1       745 4.33375E+04 7.90256E+01 3.84565E+01 1.55391E+02-5.13703E+00-1.93711E+02
 -1       746 4.06260E+04 1.10015E+01-1.18671E+01 1.42648E+02 1.27570E+01-5.46190E+01
 -1       747 3.89664E+04-1.22414E+01 2.01765E+00 1.31840E+02-1.40017E+01-4.95548E+01
 -1       748 3.99437E+04 6.62117E+01 1.08810E+01 1.03736E+02 7.60355E+00-1.95039E+02
 -1       749 3.73251E+04-3.16520E+01 4.92495E-01 1.37175E+02 3.49081E+01-4.31630E+01
 -1       750 3.55380E+04 2.49665E+01 1.02905E+00 8.81125E+01-1.66069E+01-3.90959E+01
 -1       751 3.65622E+04-5.59274E+01-2.12522E+01 7.01079E+01-8.81045E+00-1.81328E+02
 -1       752 3.40220E+04-3.95665E+01-1.34572E+01 4.29502E+01 7.90195E+00-8.07688E+00
 -1       753 3.23861E+04-4.42744E+01-2.63272E+01 1.28034E+02-1.80375E+01-5.94935E+01
 -1       754 3.34504E+04 3.01840E+01-3.00717E+01 4.47536E+01-9.30595E+00-1.87441E+02
 -1       755 3.07809E+04-1.80303E+01-5.94626E+00 1.45289E+02 1.94640E+01-6.08167E+01
 -1       756 2.91853E+04-1.38669E+01-7.96910E+00 1.40534E+02-2.73501E+01-5.82054E+01
 -1       757 3.02717E+04-6.78205E+01-2.71239E+01 9.62890E+01 9.59400E+00-1.86038E+02
 -1       758 2.76818E+04-6.51285E+00-2.47727E+01 1.36526E+02 1.90142E+01-5.60849E+01
 -1       759 2.61376E+04-5.24772E+00-1.05562E+01 1.28928E+02-3.17549E+01-6.15130E+01
 -1       760 2.72551E+04-2.53207E+01-3.84090E+01 9.08862E+01-1.23320E+00-1.70611E+02
 -1       761 2.46173E+04 3.13347E+01 1.12808E+00 1.22847E+02 1.42632E+01-4.78688E+01
 -1       762 2.31479E+04 3.56211E+01-8.07995E+00 4.38422E+01-1.22678E+01-1.34267E+01
 -1       763 2.43969E+04 3.37226E+01-1.69097E+01 1.03598E+02-1.85216E+01-1.76581E+02
 -1       764 2.17990E+04-3.73335E+01-3.40998E+01 8.72885E+01-3.08908E+00-3.14319E+01
 -1       765 2.04453E+04-2.39609E+01-8.27316E+00 1.60234E+02-3.73105E+01-4.39742E+01
 -1       766 2.15316E+04-4.00252E+01-2.65036E+01 3.55663E+01-1.04799E+01-1.45398E+02
 -1       767 1.90459E+04 3.60934E+00-9.56611E+00 1.41968E+02 3.10090E+01-5.23087E+01
 -1       768 1.76838E+04-8.52160E+00 1.80314E+00 1.27260E+02-1.82614E+01-5.13688E+01
 -1       769 1.89646E+04-1.78167E+01-9.39300E+00 1.38393E+02 5.92093E+00-1.65258E+02
 -1       770 1.64229E+04-5.31793E+00-1.47349E+01 1.20015E+02 1.94850E+01-4.41631E+01
 -1       771 1.51499E+04 4.53206E-01-9.65582E+00 1.13752E+02-1.85176E+01-4.85863E+01
 -1       772 1.63890E+04 2.29769E+00-1.14053E+01 8.74069E+01-1.12153E+00-1.42262E+02
 -1       773 1.39404E+04 1.64707E+01-3.91388E+00 9.79264E+01 1.14527E+01-3.63675E+01
 -1       774 1.27653E+04 2.78001E+01-6.59607E+00 3.79411E+01-6.02278E+00-1.22483E+01
 -1       775 1.39828E+04 2.96236E+01-1.97923E+01 7.86845E+01-7.51946E+00-1.39949E+02
 -1       776 1.16941E+04-3.20176E+01-2.33065E+01 7.06105E+01 1.41076E+00-3.22369E+01
 -1       777 1.05567E+04-3.36789E+01-2.70400E+01 1.06280E+02-2.97402E+01-2.73671E+01
 -1       778 1.17275E+04-3.20346E+01-2.15323E+01 2.74004E+01-2.15973E+00-1.20910E+02
 -1       779 9.48424E+03-2.40125E+01-2.76257E+01 1.36045E+02 1.81337E+01-2.39786E+01
 -1       780 8.54894E+03 2.60882E+01 1.81868E+01 6.34866E+01-2.64251E+00-5.71115E+00
 -1       781 9.51633E+03-6.22059E+01-5.71790E+01 1.16554E+02 1.69453E+01-1.26247E+02
 -1       782 7.65046E+03-2.54828E+01-2.83773E+00 2.54399E+01 8.38644E+00 6.39655E+00
 -1       783 6.67011E+03 9.77188E+00-2.65627E+01 2.87955E+01-9.89167E+00-5.35757E+00
 -1       784 7.83437E+03 2.55882E+01-3.43483E+00 9.93175E+01-5.62482E+00-1.18284E+02
 -1       785 5.85571E+03-2.98244E+01-2.56353E+01 4.73272E+01 4.23107E+00-1.96485E+01
 -1       786 5.02862E+03-2.68851E+01-1.86958E+01 8.45970E+01-2.05591E+01-3.10989E+01
 -1       787 5.99137E+03-3.82250E+01-3.56193E+01 5.57937E+01 6.73850E+00-1.04759E+02
 -1       788 4.26093E+03-1.45513E+01-1.81103E+01 8.63308E+01 1.32557E+01-2.23163E+01
 -1       789 3.57176E+03 8.51871E+00-6.46571E+00 3.85541E+01-7.10464E+00-9.50819E+00
 -1       790 4.42840E+03-2.85307E+01-4.56618E+01 8.44957E+01 2.88770E+00-8.75716E+01
 -1       791 2.95787E+03-2.12797E+01-2.45092E+01 3.21222E+01 4.95228E+00-4.62567E+00
 -1       792 2.39390E+03-3.15511E+01-2.25539E+01 5.98009E+01-7.64143E+00-1.74466E+01
 -1       793 3.15531E+03 6.18567E+00-1.59858E+01 3.90264E+01-3.51226E+00-7.53132E+01
 -1       794 1.84770E+03-2.25029E+01-2.19173E+01 5.92516E+01 6.68942E+00-1.49576E+01
 -1       795 1.36520E+03 2.58201E+00-1.04273E+01 2.39426E+01-5.65848E+00-6.87206E+00
 -1       796 1.98617E+03-4.51505E+01-4.47519E+01 5.64045E+01 9.18750E+00-6.29842E+01
 -1       797 1.01976E+03-1.37615E+01-1.69879E+01 1.00534E+01 1.10134E-01 7.73110E+00
 -1       798 6.25479E+02-1.24012E+01-3.40585E+01 6.76615E+00-3.91985E+00-1.09863E+01
 -1       799 1.13129E+03-1.79229E+01-4.40261E+01 3.64082E+01-8.54304E+00-5.59302E+01
 -1       800 3.97889E+02-1.01682E+01-1.78119E+01 7.13462E-02-3.11273E+00-6.21976E+00
 -1       801 1.35211E+02-1.34405E+01-3.28953E+01-8.22858E+00-8.42761E+00-1.47839E+01
 -1       802 4.64610E+02-3.09831E+01-5.50248E+01-5.39775E+00-6.40727E+00-4.47361E+01
 -1       803 8.24965E+01-2.77306E+01-4.86948E+01-1.56233E+01-4.90410E+00-2.89394E+01
 -1       804 9.90990E+03-9.04783E+00-6.07680E+00 7.47249E+01 3.02339E+01-3.77469E+02
 -1       805 1.07397E+04-3.24603E+01-3.87634E+01 4.37202E+01-1.22537E+01-4.20966E+02
 -1       806 1.17946E+04 2.49054E+01-8.82931E+00 4.96490E+01 1.04995E+01-4.39354E+02
 -1       807 1.27338E+04-1.15860E+01-2.00315E+01 1.14146E+02-3.00591E+01-4.21830E+02
 -1       808 1.17754E+04-1.21910E+01-4.11488E+01 1.00130E+02-1.27053E+01-3.67625E+02
 -1       809 4.86595E+03-2.13287E+01-3.39411E+01 6.13881E+01 6.87320E+00-3.04388E+02
 -1       810 5.57327E+03-2.87544E+01-4.78887E+01 7.17222E+01-1.57374E+01-3.30225E+02
 -1       811 3.59547E+03-8.18143E+00-4.45546E+01 4.98119E+01 1.30890E+01-2.61414E+02
 -1       812 4.28892E+03-2.59648E+01-1.42541E+01 4.48654E+01-1.24652E+01-3.05791E+02
 -1       813 4.79684E+03-2.81962E+01-2.07123E+01 1.24591E+02 1.56355E+01-2.22938E+02
 -1       814 1.31851E+03-2.12879E+01-2.97098E+01 4.33866E+01 8.79485E+00-8.44715E+01
 -1       815 8.66981E+02-1.85732E+01-4.47848E+01 4.03791E+01-1.19015E+01-8.00950E+01
 -1       816 5.81484E+02-2.58114E+01-4.33859E+01 3.03494E+01-5.96995E+00-5.90337E+01
 -1       817 6.45473E+02-4.85444E+01-7.25186E+01 4.18018E+01-4.97963E+00-1.04682E+02
 -1       818 3.48316E+02-2.33930E+01-4.19909E+01 1.54289E+01-7.08475E+00-5.02939E+01
 -1       819 1.85204E+04-4.17894E+01-2.54142E+01 1.07610E+02 2.29714E+01-5.11346E+02
 -1       820 1.95549E+04-2.06953E+01-1.43232E+01 8.65886E+01-1.89749E+00-5.26780E+02
 -1       821 2.08836E+04 4.96019E+01 2.01917E+01 1.50934E+02 2.33980E+01-5.55117E+02
 -1       822 2.22414E+04 3.55407E+01 3.36410E+01 1.87032E+02 1.58685E+00-5.18418E+02
 -1       823 2.11963E+04 1.19501E+01-5.72187E+01 1.77493E+02 1.15085E+01-4.67719E+02
 -1       824 1.88449E+04-2.26659E+01-1.72917E+01 1.45695E+02 9.32000E+00-2.65771E+02
 -1       825 1.74814E+04 7.50373E+00-1.51909E+01 1.11139E+02-2.47215E+01-2.36229E+02
 -1       826 1.64430E+04-3.43038E+00 2.07764E+01 8.42123E+01 2.30717E+01-2.53846E+02
 -1       827 1.50780E+04-1.77851E+00-3.00897E+01 7.38773E+01-1.71517E+01-2.61480E+02
 -1       828 1.62985E+04-3.85823E+01-9.12618E+01 1.89257E+02 3.71849E+00-3.91660E+02
 -1       829 9.73971E+03-3.25698E+01-5.28580E+01 8.20314E+01 2.80504E+01-2.13177E+02
 -1       830 8.63495E+03-3.88095E+01-5.71001E+01 1.09917E+02-6.32874E+00-2.35584E+02
 -1       831 8.02580E+03 1.63777E+01-4.50465E+00 1.78369E+02 7.66381E+00-1.96390E+02
 -1       832 6.99456E+03 7.82087E+00-4.52359E+01 1.21451E+02-2.33417E+01-1.97494E+02
 -1       833 7.95165E+03-3.42243E+01-5.85570E+01 8.51277E+01-9.34209E+00-3.18747E+02
 -1       834 2.15861E+03-3.50336E+01-4.95579E+01 5.56289E+01 1.96825E+00-9.39520E+01
 -1       835 1.63127E+03-2.07656E+01-5.45847E+01 4.73734E+01-4.53201E+00-8.79394E+01
 -1       836 3.33666E+03 1.23857E+01-1.85488E+01 8.91033E+01 8.48077E+00-1.35055E+02
 -1       837 2.69359E+03-8.33682E+00-4.26059E+01 4.71447E+01-3.60213E+00-1.27908E+02
 -1       838 2.26761E+03-3.45381E+01-3.63404E+01 8.39905E+01-1.03203E+00-1.79364E+02
 -1       839 2.98755E+04-6.04214E+01 1.62654E+00 1.08444E+02 1.23549E+01-3.35627E+02
 -1       840 2.82943E+04-1.42705E+01-1.46033E+01 1.04258E+02-3.34624E+01-2.95304E+02
 -1       841 2.69427E+04-2.18907E+01-2.60320E+01 9.99661E+01 2.20002E+01-3.19222E+02
 -1       842 2.53336E+04-2.90650E+00-7.05819E+01 9.14793E+01-2.62458E+01-2.99753E+02
 -1       843 2.65148E+04 1.47939E+01 6.56450E+00 1.69706E+02 7.86772E+00-4.90992E+02
 -1       844 6.19823E+04-3.21391E+01 7.34001E-02 1.33243E+02 3.31509E+01-6.87526E+02
 -1       845 6.33838E+04-1.33314E+01 4.63087E+00 1.26870E+02-6.27573E+00-6.78880E+02
 -1       846 6.01382E+04-5.77673E+01-5.72061E+01 1.67671E+02-4.58775E+01-7.18709E+02
 -1       847 6.37372E+04-1.64470E+01 4.49880E+01 2.35407E+02-4.75869E+00-6.00546E+02
 -1       848 5.85006E+04-4.71553E+01-6.84990E+01 2.25143E+02-9.72051E-01-6.50044E+02
 -1       849 5.21849E+04-9.27794E+01-7.64856E+01 3.03198E+02 2.13916E+01-6.12429E+02
 -1       850 5.38678E+04-3.85358E+01 2.37033E+01 2.28185E+02-1.65693E+01-6.28175E+02
 -1       851 5.56128E+04 3.46121E+01-2.14403E+01 2.11993E+02 5.28063E+01-6.17518E+02
 -1       852 5.73329E+04 9.75399E+01 6.53411E+01 3.13790E+02-2.95240E+01-6.26338E+02
 -1       853 5.72332E+04 1.46250E+01 3.88188E+01 2.14797E+02 2.48835E+01-5.47678E+02
 -1       854 7.63972E+04 3.14703E+01 2.44766E+02 1.44999E+02 3.89568E+01-3.44824E+02
 -1       855 7.43384E+04 1.32208E+01 2.03697E+01 1.62326E+02-1.54793E+01-3.01575E+02
 -1       856 7.04846E+04 2.46596E+01 1.09635E+02 2.90551E+02 6.21110E+00-5.27651E+02
 -1       857 7.27487E+04-6.61267E+00 6.59213E+00 1.61761E+02 3.76927E+01-2.96454E+02
 -1       858 7.09280E+04 1.00675E+01-2.14028E+01 1.98673E+02-1.64518E+01-3.41375E+02
 -1       859 3.99889E+04-9.81472E+01-7.92395E+01 2.93448E+02 1.96817E+01-5.90046E+02
 -1       860 4.15435E+04-7.48079E+01-1.07342E+01 1.66868E+02-3.01415E+01-6.11209E+02
 -1       861 4.33506E+04-3.42444E+01 6.45837E+00 1.68866E+02 4.83202E+01-5.83838E+02
 -1       862 4.46350E+04-2.12599E+01-2.33704E+01 7.44759E+01-1.27939E+00-6.63257E+02
 -1       863 4.43967E+04 1.94466E+01 4.46560E+01 2.00897E+02 2.16116E+01-5.31636E+02
 -1       864 3.44151E+04 2.01156E+01-2.31731E+01 7.60743E+01 4.43224E-01-6.25526E+02
 -1       865 3.56782E+04 2.48390E+01-1.53570E+01 1.10267E+02-2.66617E+01-6.02009E+02
 -1       866 3.28917E+04-6.05503E+01-1.65184E+01 7.29963E+01-2.82959E+01-6.18916E+02
 -1       867 3.51784E+04-1.12075E+01-5.19708E+00 1.44172E+02-1.16096E+01-5.24333E+02
 -1       868 3.15378E+04 4.48768E+00-1.59309E+01 1.07050E+02 2.58667E+01-6.16736E+02
 -1       869 4.93891E+04 3.78301E+01 5.15726E+01 1.45003E+02 4.73905E+01-6.65801E+02
 -1       870 5.10986E+04 6.63412E+01 8.79955E+01 2.05281E+02-1.26813E+00-5.85938E+02
 -1       871 4.62400E+04 5.55007E+01-1.55900E+01 8.85404E+01 3.16732E+01-6.58622E+02
 -1       872 4.77292E+04-1.46114E+01-6.80548E+00 1.22562E+02-2.87795E+01-6.74898E+02
 -1       873 5.07133E+04-3.84862E+01-6.31942E+01 2.05608E+02 2.34228E+01-5.84442E+02
 -1       874 7.99091E+04 1.31939E+01 1.71745E+03 1.78422E+01 1.18644E+02-5.97761E+02
 -1       875 7.80744E+04 2.89978E+01 7.25680E+02 1.78051E+02 2.72693E+01-2.95176E+02
 -1       876 8.02084E+04-4.50857E+02 3.11380E+03-2.96284E+02 1.13246E+02-6.06239E+02
 -1       877 7.70417E+04-4.18958E+02 3.21298E+03 4.85289E+01 1.09422E+02-2.85435E+02
 -1       878 8.09338E+04-1.01124E+03 4.12620E+03-6.52561E+02 1.03850E+02-1.88371E+03
 -1       879 7.76102E+04-7.64908E+02 6.27001E+03-4.88786E+02-1.22969E+01-7.99012E+02
 -1       880 6.81816E+04-6.59489E+01-1.46150E+00 3.48137E+02 2.94419E+01-6.31699E+02
 -1       881 7.00349E+04 7.13494E-01 2.59178E+02 1.99950E+02-2.30388E+01-5.22488E+02
 -1       882 7.18463E+04 1.63206E-01 7.19718E+02 2.73989E+02 7.63921E+01-4.68661E+02
 -1       883 7.40936E+04-7.28202E+01 4.77602E+02 2.08476E+02 6.86952E+01-4.63708E+02
 -1       884 7.36453E+04 2.55153E+01 1.75986E+03 9.13242E+01 5.90842E+01 8.76207E+01
 -1       885 3.05226E+02-2.40751E+01-3.87576E+01 1.76077E+01 2.63942E+00-7.69063E+01
 -1       886 4.88935E+02-2.28777E+01-4.20527E+01 3.89374E+01 2.57338E+00-1.10835E+02
 -1       887 1.23585E+02-2.36280E+01-5.14100E+01 9.89010E+00-6.03152E+00-6.99129E+01
 -1       888 2.72401E+02-9.41685E+00-3.09312E+01 3.51119E+01-8.30156E-01-6.92151E+01
 -1       889 4.91221E+01-2.93727E+01-3.82727E+01 2.31813E+00-7.28535E+00-5.61047E+01
 -1       890 5.70879E+01-1.81408E+01-4.26822E+01 6.50819E+00 8.94894E-01-5.01497E+01
 -1       891 2.60689E+04 4.12441E+01-3.22666E+01 2.05255E+02 4.96411E+01-5.27471E+02
 -1       892 2.75285E+04 5.01201E+01 2.09494E+01 2.92899E+02-1.62553E+01-5.60312E+02
 -1       893 2.85608E+04-4.86859E+01-4.26992E+01 1.62402E+02-9.58829E+00-5.44472E+02
 -1       894 3.00170E+04-3.99031E+01-3.52902E+01 1.26897E+02-4.53958E+01-6.00038E+02
 -1       895 2.93011E+04-4.98318E+01-4.79919E+01 1.46790E+02 1.14553E+01-4.80871E+02
 -1       896 7.86326E+02-7.27340E+00-4.02185E+01 4.20505E+01 1.26156E+01-1.19193E+02
 -1       897 1.22846E+03-7.67352E+00-1.02201E+01 7.26408E+01-8.30487E+00-1.50962E+02
 -1       898 1.47141E+03-3.09487E+01-5.01029E+01 5.42872E+01-2.25835E+00-1.70156E+02
 -1       899 1.93237E+03-3.13540E+01-4.30287E+01 5.61830E+01-6.36222E+00-2.10168E+02
 -1       900 1.42781E+03-4.31382E+01-6.46625E+01 6.44271E+01-9.12275E-01-1.35052E+02
 -1       901 6.23660E+04 3.51001E+01 4.38005E+01 1.02162E+02 3.27431E+01-3.79180E+02
 -1       902 6.05454E+04 5.86321E+00-2.47730E+00 1.34766E+02-6.18627E+00-3.87403E+02
 -1       903 6.57509E+04-6.90498E+01-1.61913E+01 1.69659E+02 1.91575E+01-3.41335E+02
 -1       904 6.38728E+04-7.98401E+00-1.46258E+01 1.42939E+02-3.10123E+01-3.23852E+02
 -1       905 6.06206E+04-1.60487E+01-9.11188E+01 2.72438E+02 2.11779E+00-5.55846E+02
 -1       906 4.54550E+04-3.61751E+01-5.55858E+01 1.49162E+02 4.89601E+01-3.59428E+02
 -1       907 4.35428E+04-7.49014E+01-1.00796E+02 2.01979E+02-1.80479E+01-4.24050E+02
 -1       908 4.24749E+04 8.41161E+01 5.68214E+01 2.81976E+02 1.44363E+01-3.64567E+02
 -1       909 4.06901E+04 4.11627E+01-2.81355E+01 1.61367E+02-2.52553E+01-3.65676E+02
 -1       910 4.12207E+04-4.82397E+00-1.56750E+01 2.18117E+02-2.95174E+01-5.29757E+02
 -1       911 3.27901E+04 9.42823E+00-2.51671E+01 1.26266E+02 3.08746E+01-3.38909E+02
 -1       912 3.13130E+04 7.74430E+00-2.61137E+01 7.89607E+01-3.33132E+00-2.99916E+02
 -1       913 3.43889E+04-9.07649E+00-2.97863E+00 1.26325E+02-3.73124E+01-3.56236E+02
 -1       914 3.21875E+04 2.06855E+01 2.41342E+01 1.74535E+02-2.50956E+01-5.27048E+02
 -1       915 3.59390E+04-3.80231E+01-2.28461E+01 7.62638E+01 1.24125E+01-3.27858E+02
 -1       916 5.57219E+04 8.55173E+01 5.71671E+01 2.96061E+02 1.64573E+01-3.87047E+02
 -1       917 5.38246E+04 5.60450E+01-2.13464E+01 1.64013E+02-3.03570E+01-3.90153E+02
 -1       918 5.88824E+04-5.28898E+01-4.96113E+01 1.83438E+02 4.65380E+01-3.86647E+02
 -1       919 5.68488E+04-6.18819E+01-1.01116E+02 2.10372E+02-1.71895E+01-4.43551E+02
 -1       920 5.39471E+04 3.06053E+00-1.38021E+01 2.27260E+02-2.95726E+01-5.51961E+02
 -1       921 4.88220E+04-6.04514E+01-7.60422E-01 1.10384E+02 1.24487E+01-3.68368E+02
 -1       922 4.70884E+04 2.42731E+00-4.70073E+00 1.32462E+02-2.99167E+01-3.39963E+02
 -1       923 5.20125E+04 9.03693E+00-1.59495E+01 1.78806E+02 4.70211E+01-3.99525E+02
 -1       924 5.03931E+04 7.44757E+00-1.57538E+00 8.58459E+01 5.03650E-01-3.67284E+02
 -1       925 4.75255E+04-8.78040E+00 2.60681E-01 1.51672E+02 1.91899E+01-5.58687E+02
 -1       926 7.51452E+04-6.10431E+02 6.48737E+03-1.56461E+02 1.24340E+02 9.56714E+02
 -1       927 7.23786E+04 2.94994E+01 4.88373E+03-1.54517E+02 2.51434E+02 1.81282E+03
 -1       928 7.41577E+04-4.08145E+02 3.27608E+03-1.77945E+02 1.53067E+02 3.48184E+02
 -1       929 7.22499E+01-2.06293E+01-4.56146E+01 5.30735E+00-2.36166E+00-4.08174E+01
 -1       930 8.27142E+01-2.93291E+01-4.75478E+01-4.10536E+00 3.68566E+00-2.45778E+01
 -1       931 1.57578E+02-2.28166E+01-5.37053E+01 9.82705E+00 6.37358E+00-3.53586E+01
 -1       932 1.17705E+04-1.85333E+01-2.37249E+01 5.31186E+01-4.26051E+00-2.20766E+02
 -1       933 1.07802E+04-2.93716E+01-2.52782E+01 6.86780E+01-1.91155E+01-2.27872E+02
 -1       934 1.40161E+04-4.84305E+00-2.18031E+01 7.71989E+01 1.67312E+01-2.32669E+02
 -1       935 1.28125E+04 2.64755E+01-3.45049E+01 6.51566E+01-1.88321E+01-2.41149E+02
 -1       936 6.12453E+03-3.71324E+01-3.27784E+01 1.02140E+02 1.96521E+00-1.56221E+02
 -1       937 5.33367E+03-2.19907E+01-4.66330E+01 6.96722E+01-1.37858E+01-1.41205E+02
 -1       938 4.67049E+03-1.52085E+01-2.70381E+01 7.72577E+01 1.67309E+01-1.53516E+02
 -1       939 3.87996E+03-1.46649E+01-3.38556E+01 8.07363E+01-1.13366E+01-1.46484E+02
 -1       940 2.13612E+04 6.79149E+00-1.14992E+01 6.44820E+01 4.64757E+00-2.94135E+02
 -1       941 2.00564E+04-8.53734E+01-4.13317E+01 1.66248E+02-2.41106E+01-3.13261E+02
 -1       942 2.41782E+04-3.54089E+00-1.46514E+01 9.36818E+01 1.79037E+01-2.64667E+02
 -1       943 2.27062E+04 4.18354E+01-1.75596E+01 1.08362E+02-2.36751E+01-2.70286E+02
 -1       944 1.59318E+04-4.43757E+01-6.17367E+01 1.60779E+02-5.12023E+00-4.64009E+02
 -1       945 1.71182E+04-6.39537E+01-6.98974E+01 1.21804E+02-3.86005E+01-5.36081E+02
 -1       946 1.39401E+04 2.57583E+01-2.60268E+01 1.22466E+02 2.77713E+01-4.32279E+02
 -1       947 1.51392E+04 5.59661E+01 3.97761E+01 2.16056E+02-1.99970E+01-4.26009E+02
 -1       948 8.04985E+03 8.66087E+00-3.74314E+01 5.06828E+01 4.71112E+00-3.68788E+02
 -1       949 8.82981E+03-1.83823E+01-4.10738E+01 8.55572E+01-2.05215E+01-3.81957E+02
 -1       950 6.40802E+03-1.35741E+01-1.38218E+01 5.96329E+01 2.03197E+01-3.41634E+02
 -1       951 7.18454E+03-4.82173E+01-1.84971E+01 5.79233E+01-5.80351E+00-3.40367E+02
 -1       952 6.51255E+04 7.04022E+01 3.05601E+01 1.93063E+02 3.50859E+01-7.14342E+02
 -1       953 6.68692E+04 5.91092E+01 7.02645E+01 2.15731E+02 3.99801E+00-6.60769E+02
 -1       954 6.72390E+04-1.20747E+01-9.43000E+01 2.40959E+02 1.98101E+01-6.00311E+02
 -1       955 6.74555E+04-1.34010E+01-3.02110E+01 1.05501E+02-4.10117E-04-3.93325E+02
 -1       956 6.92765E+04 9.97568E+01 1.04687E+01 2.26508E+02 4.12357E+01-3.86271E+02
 -1       957 9.79722E+03-1.54154E+01-1.31231E+01 1.17262E+02 1.69847E+01-3.30885E+02
 -1       958 2.31817E+04-1.00694E+02-7.64167E+01 2.66158E+02 2.34296E+01-4.94288E+02
 -1       959 2.45907E+04-3.34584E+01 1.10286E+01 1.95755E+02-1.61659E+01-5.34105E+02
 -1       960 1.85530E+04-1.56790E+01 2.96733E+01 1.90830E+02-8.66673E+00-4.49820E+02
 -1       961 3.72826E+04 4.21982E+01 6.39455E+01 1.40748E+02 4.88017E+01-6.26545E+02
 -1       962 3.89331E+04 5.30264E+01 7.95713E+01 1.98979E+02-6.50942E+00-5.57318E+02
 -1       963 3.81589E+04-3.29883E+01-5.46386E+01 1.93583E+02 2.23109E+01-5.48675E+02
 -1       964 3.90388E+04-8.89381E+00-2.01734E+01 1.67965E+02 4.18620E+01-3.70139E+02
 -1       965 3.74704E+04 3.08620E+01 7.33562E+00 8.64895E+01-1.42871E+01-3.34208E+02
 -1       966 6.23257E+03-2.42959E+01-3.87842E+01 1.27029E+02-1.61709E+01-2.79916E+02
 -1       967 2.46136E+03-4.71627E+00-3.39622E+01 4.67692E+01 5.30085E+00-2.16212E+02
 -1       968 2.98274E+03-3.11513E+00-2.38480E+01 5.34367E+01-1.00515E+01-2.41251E+02
 -1       969 3.44577E+03-3.37245E+01-7.17918E+01 6.94830E+01 7.97163E-01-2.10265E+02
 -1       970 2.36682E+04 6.79630E+00 4.29989E+01 2.21957E+02-9.47987E+00-4.52824E+02
 -1       971 1.38818E+04-4.13533E+01-5.87768E+01 1.17740E+02-1.51961E+00-3.89888E+02
 -1       972-1.28924E+04 3.99455E+00 1.81472E+01 4.29229E+01 5.40121E+00-1.39667E+02
 -1       973-5.21321E+03 2.30474E+01 2.47400E+01 8.56228E+01 3.48279E+00-1.31188E+02
 -1       974-6.12005E+02 1.19850E+01 1.47312E+01 1.88059E+01-2.42725E-01-1.22879E+02
 -1       975-2.28420E+04-1.50939E+01 6.92809E+00 9.89799E+01 5.23520E+00-1.83144E+02
 -1       976-1.77635E+04 2.37259E+01 3.07822E+01 4.06071E+01 4.84439E+00-1.61985E+02
 -1       977-8.61861E+03-1.63550E+01-9.59463E+00 1.30475E+02-1.24555E+01-1.58480E+02
 -1       978-2.10942E+03 2.16677E+01 1.79624E+01 2.76953E+01-3.74268E+00-2.16467E+02
 -1       979-2.41802E+04 6.96919E+00 9.48559E-01 9.54290E+01 8.82335E-01-5.77810E+02
 -1       980-6.94300E+04 2.02728E+01 1.04353E+01 7.54535E+01 3.28842E+00-2.05802E+02
 -1       981-6.22652E+04 1.89924E+01 3.45904E+00 1.19377E+02 2.36479E+00-2.25889E+02
 -1       982-6.45054E+04 1.57663E+01 3.72406E+01 1.35167E+02-7.84094E+00-7.23859E+02
 -1       983-4.82729E+04 1.93745E+01 2.85998E+00 1.07301E+02 3.42520E+00-2.20157E+02
 -1       984-3.82466E+04 1.00939E+01 1.41439E+01 1.96559E+02-7.66767E+00-2.53824E+02
 -1       985-5.49923E+04-3.66045E+01 2.73680E+00 1.24843E+02 7.90410E+00-2.31680E+02
 -1       986-7.09587E+04-2.66910E+01-1.47229E+03 5.15581E+01 6.34428E+01 4.99066E+02
 -1       987-8.01893E+04 2.29767E+00-1.69882E+02 1.04251E+02-1.52433E+01-9.45144E+01
 -1       988-2.28307E+02 2.19413E+01 3.81059E+01 3.53956E+00 1.22724E+00-2.96112E+01
 -1       989-8.89251E+03 1.18014E+00-2.89532E+00 6.05783E+01-8.89777E+00-3.79415E+02
 -1       990-3.18828E+04 3.97131E+01 1.49377E+01 5.54403E+01-2.87594E+00-1.98816E+02
 -1       991-1.52424E+03 1.91481E+01 2.29207E+01 3.20762E+01 3.01586E+00-5.16551E+01
 -1       992-1.71638E+04 5.38775E+01 2.13478E+01 4.82520E+01 1.20019E+00-5.06966E+02
 -1       993-5.76548E+03 1.67847E+01 7.03476E+00 4.28440E+01-3.28294E+00-3.24680E+02
 -1       994-1.26887E+04 7.88278E+00 1.80100E+01 9.35532E+01 2.41706E+00-4.42681E+02
 -1       995-5.51354E+04-7.71746E+01-5.60191E+01 2.14732E+02 3.09903E+01-5.70703E+02
 -1       996-3.78168E+04 8.61023E+01 7.52777E+01 2.00862E+02-2.65669E+01-5.53703E+02
 -1       997-2.94285E+04 2.37975E+01 2.22578E+00 1.03358E+02-3.42012E+00-5.87731E+02
 -1       998-4.94038E+04 9.07351E+01 6.78392E+01 2.57576E+02-3.48853E+01-5.65902E+02
 -1       999-4.32447E+04-4.67349E+01-2.26036E+00 2.11133E+01-2.79093E+00-6.86683E+02
 -1      1000-8.25613E+04 5.92345E+03-8.76991E+03 6.26516E+02-3.80698E+02-1.66391E+03
 -1      1001-6.51550E+00 4.72571E+00 3.01085E+01-7.79135E+00-1.86434E+00-3.30152E+01
 -1      1002-6.75196E+04-4.24670E+01-2.18642E+02 1.36455E+02 5.56441E+00-6.88493E+02
 -1      1003-7.64788E+04-3.44260E+01-8.76160E+00 1.30355E+02-2.93822E+01-1.32668E+02
 -1      1004-7.29339E+04-6.01183E+00 2.03393E+01 1.15189E+02-1.01348E+01-1.97938E+02
 -1      1005-6.54857E+04 2.07210E+00 1.52636E+01 1.75289E+02-6.73729E+00-5.75021E+02
 -1      1006-7.49003E+02 2.28605E+00 3.70355E+01 2.73021E+01 4.76216E+00-3.97788E+01
 -1      1007-1.07192E+04 1.81148E+01 2.39627E+01 6.32846E+01 3.84556E+00-1.33297E+02
 -1      1008-4.34364E+03 1.55460E+01 7.55654E+00 4.64012E+01 3.86875E+00-2.84513E+02
 -1      1009-1.93052E+04-1.37858E+01-8.29914E+00 1.17740E+02-2.27786E+00-5.31043E+02
 -1      1010-2.66592E+04-6.05585E+01-3.93803E+01 2.34830E+02 3.35566E+01-4.87743E+02
 -1      1011-2.88320E+04 1.41999E+01 9.45915E+00 8.28256E+01 3.80853E+00-1.91275E+02
 -1      1012-2.02359E+04 1.12488E+01 1.99091E+01 7.88737E+01 3.26260E+00-1.67156E+02
 -1      1013-2.16848E+04 6.19319E+01 3.64260E+01 1.75881E+02-2.79930E+01-4.79788E+02
 -1      1014-5.85198E+04-6.81874E+01-6.41227E+01 2.09709E+02-1.61484E+01-2.91230E+02
 -1      1015-4.47312E+04-6.28623E+01-5.07747E+01 2.45246E+02-2.25226E+01-2.93164E+02
 -1      1016-4.15833E+04 9.99070E+00 1.62874E+01 1.29674E+02-5.99779E+00-2.01334E+02
 -1      1017-3.66625E+04 4.23419E+00-8.21763E+00 2.30921E+02-2.39513E+00-4.94690E+02
 -1      1018-4.06067E+04 4.64791E+01-7.79191E+00 1.49468E+02-1.27565E+01-6.36032E+02
 -1      1019-1.46945E+04-1.15549E+01-1.05180E+01 6.81814E+01-3.36955E+00-4.72132E+02
 -1      1020-6.80876E+03 1.43783E+00 2.53930E+01 8.42611E+01 5.95383E+00-1.07767E+02
 -1      1021-3.49297E+04-1.67871E+01-4.71137E+00 7.74257E+01 6.40029E+00-2.01375E+02
 -1      1022-1.27678E+03 1.97659E+01 1.80721E+01 1.70989E+01-2.98528E+00-1.61934E+02
 -1      1023-2.55061E+03 1.26214E+01 3.26830E+01 2.33717E+01 8.51585E+00-6.49384E+01
 -1      1024-4.62777E+04-1.73612E+01 1.17865E+01 1.13551E+02 6.19576E+00-6.55329E+02
 -1      1025-5.21715E+04-1.16291E+01 7.70846E-02 1.46441E+02-6.26126E+00-6.94288E+02
 -1      1026-3.73242E+03 3.82887E+00 2.82084E+01 7.50017E+01-4.27511E-01-9.37842E+01
 -1      1027-1.07511E+04-5.85218E-01 9.56276E+00 2.43281E+01-1.49721E+00-4.38227E+02
 -1      1028-6.59386E+04 2.65821E+01 1.34030E+01 5.92042E+01 1.65767E+00-2.29040E+02
 -1      1029-2.57294E+04-7.53372E+00-4.60275E+00 7.15361E+01 3.83305E+00-1.81906E+02
 -1      1030-5.17228E+04 4.32041E+01 1.61727E+01 6.26113E+01-2.90364E+00-2.12552E+02
 -1      1031-3.06283E+03-4.83135E+00 1.30704E+01 4.32070E+01-5.24184E+00-2.43661E+02
 -1      1032-1.52044E+04 6.89490E+00 1.15130E+01 5.98961E+01 3.62448E+00-1.49652E+02
 -1      1033-7.29681E+03 3.13214E+01 1.65187E+01 3.09100E+01 3.01096E-02-3.70057E+02
 -1      1034-7.61083E+04 2.28205E+02-1.26569E+03 2.22022E+02-8.77114E+01-3.91343E+02
 -1      1035-7.22275E+04-5.58989E+01-1.32251E+02 3.09463E+02-3.41567E+01-5.17255E+02
 -1      1036-5.83166E+04 7.36712E+01 1.23410E+01 7.36859E+01 9.17282E-01-6.96858E+02
 -1      1037-7.59619E+04 6.96063E+03-7.65042E+03-3.08756E+02-9.21403E+01 2.48562E+03
 -1      1038-3.46432E+04-6.58729E+01-3.52115E+00 1.12889E+02 8.69146E+00-6.20342E+02
 -1      1039-3.35682E+04-1.16648E+01 1.25252E+01 2.13356E+02-2.31678E+00-5.17510E+02
 -1      1040-4.55232E+02 2.44778E+01 3.84863E+01 3.70004E+01-5.15346E-01-8.71596E+01
 -1      1041-6.11116E+04-8.39745E+01 1.08366E+01 1.16188E+02 1.64672E+01-6.96297E+02
 -1      1042-1.05315E+03 3.35947E+01 3.69811E+01 4.60966E+01 3.99155E+00-1.30811E+02
 -1      1043-6.21048E+04-1.77966E+01 1.82523E+00 1.80492E+02 3.50989E+01-5.51512E+02
 -1      1044-5.48963E+03 6.89365E+00 2.96560E+01 1.28784E+02 5.16755E+00-2.40441E+02
 -1      1045-4.14634E+03 2.59402E+01 2.88848E+01 8.87115E+01-3.08018E+00-2.10626E+02
 -1      1046-8.84292E+03 7.88818E+00 3.61362E+01 9.28761E+01-4.10482E+00-3.33434E+02
 -1      1047-1.80040E+03 1.20360E+01 3.68541E+01 8.30563E+01-5.37220E+00-1.62879E+02
 -1      1048-1.73583E+04-1.76533E+01 2.09219E+01 1.30433E+02 1.94530E+01-3.95352E+02
 -1      1049-2.49190E+04-1.39411E+01 3.53908E+01 2.20759E+02 1.45138E+00-4.99874E+02
 -1      1050-1.51289E+04 2.49442E+01 2.61441E+01 1.87373E+02 8.60400E-01-3.91770E+02
 -1      1051-1.28359E+04-6.20725E-01 2.31529E+01 1.18854E+02 5.45865E+00-3.76446E+02
 -1      1052-2.86798E+03 2.90759E+01 3.93786E+01 6.23612E+01 2.39074E+00-1.87052E+02
 -1      1053-7.17854E+03 2.61924E+01 2.31612E+01 1.27807E+02 7.23189E+00-2.67633E+02
 -1      1054-3.06837E+04-3.68046E-01 1.09981E+01 1.59425E+02 9.20578E+00-4.81070E+02
 -1      1055-5.90356E+04 1.01859E+01-3.34306E+00 2.52719E+02-3.02464E+00-5.94524E+02
 -1      1056-5.53807E+04-1.34863E+01 2.60546E+01 2.39745E+02-6.45700E+00-5.88868E+02
 -1      1057-2.25439E+04 4.30767E+01 1.66005E+01 1.96775E+02-4.68872E+00-4.77791E+02
 -1      1058-4.91420E+04-1.03863E+00 1.11289E+01 1.66269E+02-3.91189E+00-5.63300E+02
 -1      1059-4.59454E+04 1.21147E+01-3.81214E+00 1.64183E+02 1.59066E+00-5.43727E+02
 -1      1060-5.25348E+04 1.01526E+01-1.02412E+01 2.30654E+02-7.70788E+00-5.42413E+02
 -1      1061-1.98481E+04-2.80660E+00 2.60944E+01 1.28107E+02-1.92810E+01-4.39174E+02
 -1      1062-1.07714E+04 1.34228E+01 2.22957E+01 1.00990E+02 1.65840E+00-3.40054E+02
 -1      1063-4.25988E+04 1.41149E-01 2.89422E+01 2.25539E+02-1.16188E+01-5.58054E+02
 -1      1064-2.80168E+04 1.79349E+01 1.25519E+01 2.18172E+02-1.18300E+01-5.08572E+02
 -1      1065-3.98746E+04 2.35648E+01-6.39495E+00 2.25613E+02 4.69615E-01-5.05038E+02
 -1      1066-3.21772E+04 5.02681E+01 5.53611E+00 1.09174E+01-7.10657E+00-6.35897E+02
 -1      1067-6.90270E+04 4.52257E+01 1.28880E+01 2.79062E+02 5.73716E+00-5.82528E+02
 -1      1068-1.78656E+01-5.34375E+00 3.12668E+01 2.64322E-01-7.71498E-01-2.90169E+01
 -1      1069-8.33848E+04 1.11173E+02-1.19352E+03-1.16430E+02-2.17480E+02-7.38055E+02
 -1      1070-1.54069E+02 1.07478E+01 1.79009E+01 4.90205E+00 7.19259E-01-6.85905E+01
 -1      1071-7.77203E+04 4.67487E+02-4.85600E+03-6.22968E+01-1.46379E+02-2.62342E+02
 -1      1072-7.05425E+04 3.85511E+03-3.65939E+03-4.50376E+02 1.25630E+02 5.33458E+03
 -1      1073-8.93384E+04 5.46267E+03-3.95415E+03 4.12860E+02-1.40787E+02-5.49304E+03
 -1      1074-1.32168E+01 5.27867E+00 1.87624E+01-7.62677E+00 1.47028E+00-1.37077E+01
 -1      1075-1.80172E+00 4.47897E+00 8.42416E+00-1.48436E+01-2.44044E+00-1.82745E+01
 -1      1076-1.55180E+02 2.58371E+01 4.31617E+01 9.69499E+00 1.28093E+00-5.44063E+01
 -1      1077-7.41498E+04-6.18038E+03-1.23252E+04 3.34556E+03-1.93399E+03 1.15214E+04
 -1      1078-7.36026E+04-6.89884E+03-1.60777E+04 7.08995E+03-4.35114E+01 7.84295E+03
 -1      1079-6.36968E+04 1.23676E+03-1.84799E+02-1.26935E+03 5.67618E+02 2.44603E+03
 -1      1080-9.30671E+04-1.13515E+04-2.09078E+04 1.02664E+04 8.28404E+02-7.35401E+03
 -1      1081-1.00655E+05-9.69717E+03-1.62764E+04 7.10170E+03 2.12096E+03-1.23322E+04
 -1      1082-8.47389E+04 1.82398E+03 5.70602E+02-1.63574E+03-6.35753E+02-1.76670E+03
 -1      1083 1.67951E+01-7.46820E+00-7.69989E+00-4.47137E+00-8.19597E-01-9.53559E+00
 -1      1084 2.02029E+01 9.50348E+00 3.02585E+00-1.36305E+01-7.41589E-01-8.61032E-01
 -1      1085-3.00947E+01 5.24487E+00 6.30528E+00-1.38229E+01-4.42268E+00-1.43406E+01
 -1      1086 9.32148E+00 4.87394E+00 6.11568E+00-1.15735E+01 4.77716E-02-7.85036E+00
 -1      1087 9.26374E+00-2.70392E+00 1.22083E+01-4.72611E+00 5.34141E-01-6.72218E+00
 -1      1088-3.66395E+01 7.26670E+00 1.71163E+01-2.61970E+00-1.54654E+00-6.66840E+00
 -1      1089-8.70883E+04-1.16108E+04-2.21313E+04 9.56809E+03 1.85736E+02-5.25873E+02
 -1      1090-8.89032E+04-8.75586E+03-2.12969E+04 9.07973E+03-4.97483E+02-3.92867E+03
 -1      1091-8.48631E+04 7.19022E+03-6.71052E+03-7.26803E+01-4.31170E+02-3.64197E+03
 -1      1092-7.91373E+04-9.32015E+03-1.96316E+04 7.77808E+03 4.05609E+02 5.40566E+03
 -1      1093-8.28044E+04-9.26274E+03-2.01518E+04 8.51695E+03 6.62185E+00 2.22103E+03
 -1      1094-7.90570E+04 5.62354E+03-8.95814E+03 1.88184E+02-2.19867E+02 3.56935E+02
 -1      1095-7.30072E+04 5.72496E+03-6.52090E+03-5.06203E+02 1.19811E+02 4.45629E+03
 -1      1096 5.08438E+00-6.12652E+00 2.02127E+01-4.45373E+00 1.50464E-01-1.42024E+01
 -1      1097 7.51729E+00-3.97924E+00 2.14556E+01-4.36800E+00-1.20946E-01-1.84629E+01
 -1      1098-1.28771E+01 3.73366E+00 2.90807E+01-4.95063E+00 3.34046E-02-1.90616E+01
 -1      1099 1.41890E+01-3.17216E+00 1.77784E+01-5.48675E+00 1.00259E+00-2.02322E+01
 -1      1100 1.82817E+01-2.26528E+00 9.83775E+00-3.24475E+00-1.69044E+00-1.60648E+01
 -1      1101-1.53016E+01 1.82400E+00 3.57522E+01-3.08430E+00-9.69680E-01-3.40640E+01
 -1      1102 1.33164E+00 4.76660E+00 1.80939E+01-7.83457E+00-2.27531E+00-2.62248E+01
 -1      1103-8.58450E+04-6.34388E+02-1.59894E+03-3.17035E+02 4.93606E+02-1.04884E+03
 -1      1104-8.50569E+04-7.38506E+01-3.81800E+02-7.05746E+01-1.59136E+02-2.67795E+02
 -1      1105-8.44941E+04 4.32950E+02-2.33126E+03-2.66779E+02-1.60526E+01-2.57317E+03
 -1      1106-8.35242E+04-2.09541E+01-1.18803E+02 5.56636E+00 5.97948E+01-2.29270E+01
 -1      1107-8.21691E+04 3.64284E+01-3.98177E+01 1.56242E+02 3.59866E+01 4.27593E+01
 -1      1108-8.17364E+04-2.36229E+01-5.92414E+02 2.46327E+01-1.48956E+02-3.03857E+02
 -1      1109-8.03796E+04-8.66782E+00-7.93411E-01 1.51485E+02-1.96066E+01 1.43333E+01
 -1      1110-7.86496E+04-7.39717E+01-2.09067E+01 1.11166E+02 1.06697E+01 1.07278E+01
 -1      1111-7.82989E+04 3.10810E+01-5.99132E+01 1.62976E+02-1.18485E+01-1.06777E+02
 -1      1112-7.69105E+04 5.29897E+01-3.02199E+00 6.56021E+01-3.11865E+01 3.11078E+01
 -1      1113-7.48964E+04-1.06677E+01 3.00277E+01 9.11754E+01 1.12007E+01-3.28044E+01
 -1      1114-7.47726E+04-2.82049E+01 2.51424E+01 1.10240E+02 5.87832E+00-1.57022E+02
 -1      1115-7.31932E+04 3.89888E+01-4.75511E+00 5.63222E+01-1.23244E+01 8.63207E+00
 -1      1116-7.12169E+04-4.76943E+00 2.66911E+01 5.75568E+01 1.85858E+01-2.40163E+01
 -1      1117-7.11394E+04-2.43311E+01 4.12355E+01 1.03760E+02 1.81165E+01-2.26749E+02
 -1      1118-6.95220E+04 2.97545E+01 2.83210E+00 6.80110E+01-1.41103E+01-2.80396E+01
 -1      1119-6.75477E+04 1.94601E+01 1.45254E+01 1.38867E+02 3.63226E+01-7.09331E+01
 -1      1120-6.75732E+04 5.83997E+01 6.39476E+01 8.16385E+01-2.41084E+00-2.47169E+02
 -1      1121-6.57183E+04 1.91555E+01 4.93294E+00 1.74796E+02-2.12168E+01-7.52961E+01
 -1      1122-6.37933E+04 2.36577E+01 1.17340E+01 1.98522E+02 4.06217E+01-6.87688E+01
 -1      1123-6.39518E+04 4.77033E+01 2.14665E+01 9.59240E+01 3.03787E+00-2.16197E+02
 -1      1124-6.18988E+04-3.32785E+00-2.52766E+00 2.22734E+02-3.58588E+01-6.32696E+01
 -1      1125-6.00922E+04-4.29299E+01-3.10534E+01 8.24155E+01 8.36218E+00 1.32248E+01
 -1      1126-6.02149E+04 5.64263E+01 4.45717E+01 2.05918E+02-1.02931E+01-2.28172E+02
 -1      1127-5.84116E+04 1.44759E+01-1.40959E+01 6.27698E+01-3.20582E+01-1.17686E+01
 -1      1128-5.64037E+04-1.98826E+01 1.27283E+01 8.52410E+01 1.70220E+01-1.42046E+01
 -1      1129-5.70454E+04-9.46888E+01-1.09838E+02 1.25224E+02-1.06455E+00-2.37669E+02
 -1      1130-5.47048E+04 3.86418E+01 2.30855E+01 7.96954E+01-1.09571E+01-3.11385E+01
 -1      1131-5.29244E+04 3.67491E+01 6.91959E+00 1.66552E+02 1.77532E+01-5.41316E+01
 -1      1132-5.34268E+04-4.14516E+01-2.57612E+01 6.05559E+01 1.42979E+00-2.19062E+02
 -1      1133-5.11186E+04 2.46184E+01 1.37928E+01 1.67459E+02-2.30602E+01-7.25266E+01
 -1      1134-4.92744E+04 2.33156E+01 1.09173E+01 1.84682E+02 4.03827E+01-6.11540E+01
 -1      1135-4.99323E+04 7.02249E+01 1.88475E+01 1.23479E+02-2.20525E+00-2.09314E+02
 -1      1136-4.74497E+04 1.83306E+01 2.38862E+01 2.30159E+02-3.21392E+01-4.77940E+01
 -1      1137-4.58011E+04-6.11772E+01-5.50963E+01 1.16452E+02 3.07607E+00-7.42926E+00
 -1      1138-4.62824E+04 5.82324E+01 4.70153E+01 2.00204E+02-1.33144E+01-2.14254E+02
 -1      1139-4.41435E+04 4.35318E+01-4.75285E+00 7.64717E+01-1.79782E+01 1.85520E+01
 -1      1140-4.22827E+04-1.12737E+01 2.80061E+01 6.50680E+01 1.57074E+01-1.55167E+01
 -1      1141-4.32796E+04-5.18563E+01-1.34039E+01 1.87699E+02 6.16047E-01-2.08934E+02
 -1      1142-4.07316E+04 2.76275E+01-2.37108E-01 6.21839E+01-2.49978E+01 6.32532E+00
 -1      1143-3.88438E+04-4.60967E+00 2.65267E+01 7.08414E+01 1.80437E+01-2.14721E+01
 -1      1144-3.97447E+04 8.59905E+01 9.42925E+01 1.28664E+02-3.01444E+00-2.46408E+02
 -1      1145-3.73481E+04 2.88570E+01-2.54366E+01 2.98013E+01-2.68769E+01 5.15459E+00
 -1      1146-3.55008E+04-7.67829E+00 2.40310E+01 5.52104E+01 1.68651E+01-2.23832E+01
 -1      1147-3.66815E+04-7.52054E+01-1.96571E-01 1.09214E+02 2.14608E+01-2.16700E+02
 -1      1148-3.39579E+04 3.62645E+01 2.32561E+01 6.95065E+01-1.08823E+01-3.20837E+01
 -1      1149-3.23802E+04 3.48025E+01 4.64026E+00 1.48168E+02 1.66321E+01-5.52657E+01
 -1      1150-3.34087E+04-2.73396E+01-2.10079E+01 4.87584E+01 1.78971E+00-2.03544E+02
 -1      1151-3.07815E+04 2.04004E+01 1.22000E+01 1.45596E+02-1.99012E+01-6.23385E+01
 -1      1152-2.91803E+04 1.88783E+01 1.50672E+01 1.46840E+02 2.77774E+01-5.91434E+01
 -1      1153-3.02887E+04 6.72245E+01 2.50563E+01 1.05250E+02-3.47891E+00-1.88038E+02
 -1      1154-2.76683E+04-6.40341E+00-4.46434E+00 1.42551E+02-2.78594E+01-6.13666E+01
 -1      1155-2.60626E+04-2.47005E+01 3.16996E+00 6.01330E+01 1.72202E+01-1.70752E+01
 -1      1156-2.72431E+04 2.49129E+01 2.41417E+01 1.10343E+02-6.94220E+00-1.75519E+02
 -1      1157-2.47095E+04 9.01664E+00 2.83590E+00 4.19950E+01-1.84087E+01-1.76801E+01
 -1      1158-2.31359E+04-1.78011E+01 2.58838E+01 6.56810E+01 1.23982E+01-1.72666E+01
 -1      1159-2.44135E+04-3.96314E+01-3.13584E+01 6.43644E+01 7.06590E+00-1.91668E+02
 -1      1160-2.17937E+04 2.03752E+01 1.19534E+01 6.02945E+01-7.72508E+00-1.37222E+01
 -1      1161-2.03693E+04-1.01678E+01 3.70413E+00 6.18091E+01 9.99899E+00-1.32380E+01
 -1      1162-2.15684E+04-3.01419E+01-3.63096E+01 9.46019E+01 6.00051E+00-1.76897E+02
 -1      1163-1.91266E+04 1.97181E+01 9.43972E+00 4.96728E+01-1.05622E+01-1.74362E+01
 -1      1164-1.77099E+04 2.38127E+01 2.51283E+01 9.49367E+01 2.87470E+01-4.71201E+01
 -1      1165-1.89639E+04 3.59997E+01 5.42288E+01 7.30548E+01-1.59062E-01-1.70211E+02
 -1      1166-1.64471E+04 1.51398E+01 1.12438E+01 1.13144E+02-1.23194E+01-4.38067E+01
 -1      1167-1.51822E+04 1.71407E+01 1.17833E+01 1.06992E+02 1.99256E+01-4.30591E+01
 -1      1168-1.63486E+04 4.11937E+01 4.39756E+01 5.90048E+01 4.66972E+00-1.49864E+02
 -1      1169-1.40056E+04 9.98491E+00 1.66525E+01 1.06417E+02-1.42121E+01-3.98306E+01
 -1      1170-1.28096E+04 8.84402E+00 8.45406E+00 9.05675E+01 2.07579E+01-3.88821E+01
 -1      1171-1.39727E+04 3.10839E+01 3.72704E+01 6.70759E+01-6.41152E-01-1.34156E+02
 -1      1172-1.16879E+04 2.24294E+01 1.95126E+01 1.00575E+02-1.05791E+01-3.72699E+01
 -1      1173-1.05604E+04 2.47400E+01 1.86545E+01 1.08745E+02 2.37915E+01-3.59556E+01
 -1      1174-1.17217E+04 3.32101E+01 4.12976E+01 5.53464E+01 4.23391E+00-1.25173E+02
 -1      1175-9.48751E+03 1.74109E+01 1.65651E+01 1.25807E+02-1.79139E+01-2.91732E+01
 -1      1176-8.52524E+03-2.11467E+01-6.52126E+00 5.05674E+01 6.37341E+00 4.93886E+00
 -1      1177-9.53042E+03 5.11348E+01 5.17477E+01 1.13763E+02-1.39099E+01-1.30367E+02
 -1      1178-7.61963E+03 1.74877E+01 1.14811E+01 4.21818E+01-8.25021E+00-3.45077E+00
 -1      1179-6.66306E+03-1.38317E+01 2.12890E+01 4.54500E+01 1.29751E+01 2.15559E+00
 -1      1180-7.81375E+03-2.52127E+01-2.19714E+01 9.93243E+01 2.52434E+00-1.29153E+02
 -1      1181-5.85082E+03 1.96623E+01 1.95779E+01 3.95199E+01-4.29858E+00-2.85359E+00
 -1      1182-5.01867E+03-7.15686E+00 1.47659E+01 3.38170E+01 1.63385E+01 8.85037E+00
 -1      1183-5.95418E+03 4.11948E+01 3.59203E+01 8.48717E+01 2.60445E+00-1.05606E+02
 -1      1184-4.30461E+03 2.57687E+01 2.19413E+01 4.18126E+01-1.38720E+01-2.98631E+00
 -1      1185-3.56272E+03 4.62540E-01 1.62147E+01 4.32151E+01 3.28621E+00-1.64381E+01
 -1      1186-4.51168E+03-4.70548E+00-3.45312E+00 7.40843E+01-6.18176E+00-9.67062E+01
 -1      1187-2.99609E+03 1.71499E+01 1.26039E+01 7.89189E+00 3.52693E-01 4.60671E+00
 -1      1188-2.36432E+03-3.00741E-01 2.97533E+01 1.83976E+01 1.09890E+01-7.33901E+00
 -1      1189-3.14662E+03-7.68061E+00 3.54914E+01 4.93737E+01 1.23473E+01-8.49542E+01
 -1      1190-1.85550E+03 1.86676E+01 1.61481E+01 2.33355E+01-3.03206E+00-8.00391E+00
 -1      1191-1.37618E+03-1.09413E+00 1.22368E+01 2.26057E+01 9.77763E+00-3.15016E+00
 -1      1192-1.98819E+03 3.17279E+01 3.23746E+01 3.29047E+01-4.93990E+00-6.36377E+01
 -1      1193-9.82957E+02 1.67046E+01 2.60423E+01 1.78134E+01-2.30013E+00-4.60874E-01
 -1      1194-6.46906E+02-8.49985E-01 2.05422E+01 1.71416E+01 6.32812E+00-6.10189E+00
 -1      1195-1.12407E+03 1.16732E+01 2.90543E+01 3.80762E+01 6.43206E+00-4.90738E+01
 -1      1196-3.61229E+02 1.60772E+01 2.31234E+01 1.23621E+01 7.40401E-02-8.44036E+00
 -1      1197-1.53197E+02 1.38823E+00 1.85961E+01 1.40241E+00 5.99658E+00-9.10638E+00
 -1      1198-4.63825E+02 2.10376E+01 4.43033E+01 1.22508E+01 1.97843E+00-3.19441E+01
 -1      1199-8.61551E+01 2.35801E+01 3.62207E+01 1.56370E-01-1.94575E+00-1.86579E+01
 -1      1200-6.59442E+04-1.86765E+02-5.03287E+02 5.29591E+01 9.28623E+01 1.22538E+02
 -1      1201-6.70280E+04-7.11661E+02-1.81713E+03-2.89853E+02-4.88016E+02 1.20850E+03
 -1      1202-7.01816E+04 2.49630E+02-2.87886E+03 4.69368E+01-9.83773E+01 2.70782E+03
 -1      1203-6.32402E+04-9.83306E+01-4.06663E+01 1.07176E+02-1.23171E+01-5.19449E+02
 -1      1204-6.44956E+04-9.46346E+01-2.43924E+02 7.18785E+00-7.03825E+01-3.20887E+02
 -1      1205-6.93102E+04-4.91393E+01-7.80064E+02 8.57519E+01 8.91952E+01-1.90799E+02
 -1      1206-6.04920E+04 1.93848E+01 7.88746E-02 2.24079E+02-4.33757E+01-4.81100E+02
 -1      1207-6.17415E+04 5.84566E+01 3.86928E+01 1.12574E+02-1.13717E+01-4.92389E+02
 -1      1208-6.59961E+04-2.00903E+00-1.04527E+02 1.38670E+02 2.40875E+01-7.15785E+02
 -1      1209-5.75582E+04-6.26640E+01-6.71662E+00 1.19298E+02 9.52726E-01-4.64240E+02
 -1      1210-5.89165E+04-3.31339E+01-8.59231E+00 2.02491E+02 3.35850E+01-4.73570E+02
 -1      1211-6.29056E+04-3.30760E+01 4.91323E+00 1.62269E+02-2.50905E+01-7.39826E+02
 -1      1212-5.46709E+04 7.44587E+01 3.91981E+01 2.17113E+02-2.18589E+01-4.42541E+02
 -1      1213-5.60789E+04 6.75119E+01 3.46819E+00 7.16256E+01 6.40946E+00-4.78143E+02
 -1      1214-5.97388E+04-5.04054E+01 5.88826E+00 7.44574E+01-9.01860E+00-6.93798E+02
 -1      1215-5.18745E+04-6.06931E+01-2.69823E+01 7.94346E+01-5.73078E+00-4.99654E+02
 -1      1216-5.31346E+04-3.16913E+01-9.89804E-01 2.48091E+02 4.89157E+01-4.25611E+02
 -1      1217-5.65042E+04 7.41369E+01 3.98304E+01 2.30557E+02 4.46394E+01-6.64211E+02
 -1      1218-4.89693E+04-4.44405E+01 2.33125E+01 9.35906E+01-2.31815E+01-5.24830E+02
 -1      1219-5.04450E+04 1.87231E+01-1.63381E+01 7.88473E+01 1.64827E+01-4.96282E+02
 -1      1220-5.39353E+04-8.48422E+01-1.27524E+02 1.50786E+02-4.01446E+00-6.37375E+02
 -1      1221-4.63390E+04 1.15420E+01-2.76054E+01 2.62860E+02-4.32979E+01-4.48678E+02
 -1      1222-4.74772E+04 9.22581E+01 7.61361E+01 1.28666E+02-6.28352E+00-4.86573E+02
 -1      1223-5.06446E+04 5.83149E+01 5.10481E+01 1.95421E+02 1.09576E+00-6.74980E+02
 -1      1224-4.34083E+04-1.63018E+01-6.23958E+00 1.90632E+02-1.92910E+01-4.13930E+02
 -1      1225-4.47438E+04-2.06989E+01 4.32917E+00 2.16441E+02 3.29408E+01-4.35387E+02
 -1      1226-4.80628E+04-4.50440E+01-4.03233E+01 2.22014E+02-2.67442E+01-6.70825E+02
 -1      1227-4.05892E+04-5.02141E+01 2.97854E+00 5.64640E+01-8.54017E+00-4.66394E+02
 -1      1228-4.18826E+04-3.85167E+01-1.74151E+01 1.61723E+02 1.34319E+01-4.30514E+02
 -1      1229-4.48888E+04-6.53621E+01-6.81524E+00 1.17771E+02-1.73393E+01-6.80232E+02
 -1      1230-3.78253E+04-2.57997E+01-1.75130E+01 9.37091E+01-3.60010E+01-4.82901E+02
 -1      1231-3.92012E+04 2.95076E+01 3.74797E+00 1.17383E+02-3.97569E+00-4.58377E+02
 -1      1232-4.18774E+04 5.62950E+01 1.12780E+00 6.13830E+01 9.37463E+00-6.81406E+02
 -1      1233-3.52992E+04 3.93474E+01 6.01945E+00 2.29545E+02-4.53537E+01-4.10766E+02
 -1      1234-3.64784E+04 5.75988E+01 2.98938E+01 7.94195E+01 3.18644E+00-4.82225E+02
 -1      1235-3.89550E+04 1.04448E+02 1.31410E+02 1.27106E+02-1.44089E+00-6.41361E+02
 -1      1236-3.24658E+04-5.59924E+01-1.15148E+01 1.09094E+02 2.65102E+00-4.06381E+02
 -1      1237-3.37766E+04-3.72240E+01-1.00065E+01 2.08527E+02 3.43055E+01-4.27739E+02
 -1      1238-3.63897E+04-4.17975E+01-3.08831E+01 2.10729E+02-2.63333E+01-6.37413E+02
 -1      1239-2.99300E+04 4.71624E+01 2.20421E+01 1.40699E+02-1.73777E+01-3.98504E+02
 -1      1240-3.11551E+04 5.64920E+01 1.44674E+00 5.10471E+01 2.44316E+00-4.32951E+02
 -1      1241-3.34214E+04-3.01783E+01 3.67907E+00 4.00313E+01-1.31637E+01-6.24168E+02
 -1      1242-2.73272E+04 2.79793E+01 3.33834E+00 1.92657E+02-2.84095E+01-3.90587E+02
 -1      1243-2.85492E+04 2.59372E+01 1.17030E+01 1.71895E+02 1.82496E+01-3.76479E+02
 -1      1244-3.06725E+04 6.66001E+01 2.39205E+01 9.59790E+01 1.13732E+01-6.26862E+02
 -1      1245-2.49135E+04-6.85898E+01-5.15538E+01 1.06023E+02 5.02497E+00-4.16374E+02
 -1      1246-2.59095E+04 4.10306E+00 3.90176E+01 2.35362E+02 3.90756E+01-3.94145E+02
 -1      1247-2.78208E+04 5.39319E+01 4.71035E+01 2.00765E+02 3.48513E+01-5.91516E+02
 -1      1248-2.23710E+04-2.66622E+01 3.51666E+01 4.21592E+01-1.83259E+01-4.17571E+02
 -1      1249-2.36372E+04 4.05888E+01-3.08249E+01 4.72155E+01 2.07084E+01-4.28834E+02
 -1      1250-2.56258E+04-6.23567E+01-5.82063E+01 1.61177E+02-1.31898E+01-5.66702E+02
 -1      1251-2.00594E+04-1.57796E+01 1.69246E+01 4.92566E+01-3.28116E+01-4.32088E+02
 -1      1252-2.11976E+04 2.20593E+01 1.17415E+01 6.14683E+01-1.49904E+00-4.09107E+02
 -1      1253-2.27697E+04 7.09974E+01 6.18020E+01 1.35908E+02 1.56781E+01-5.51858E+02
 -1      1254-1.78185E+04-1.27948E+01 1.82924E+00 7.84116E+01-5.29412E+00-3.77325E+02
 -1      1255-1.88963E+04 4.06094E+01 2.47024E+01 9.86646E+01 1.27113E+01-3.92100E+02
 -1      1256-2.06070E+04-3.43630E+01-6.79077E+01 1.47242E+02-9.66389E+00-5.05372E+02
 -1      1257-1.56607E+04 4.72748E+01 3.59186E+01 1.29559E+02-2.55219E+01-3.28902E+02
 -1      1258-1.67667E+04 3.42540E+01-2.20628E+00 4.94135E+01 6.88871E+00-3.53373E+02
 -1      1259-1.81835E+04 4.00616E+01 4.02188E+01 7.18302E+01-7.73959E-01-5.14223E+02
 -1      1260-1.35654E+04-2.48542E+01 4.04795E+00 5.80556E+01-1.60733E+01-3.34372E+02
 -1      1261-1.45667E+04-1.69148E+01-6.70772E+00 1.41604E+02 2.76774E+01-3.06222E+02
 -1      1262-1.58458E+04 3.64093E+01 1.80762E+01 1.00019E+02 1.50716E+01-5.07340E+02
 -1      1263-1.16567E+04 1.09253E+00 4.70527E+00 1.32704E+02-1.58508E+01-2.97567E+02
 -1      1264-1.25587E+04 4.27716E+01 2.60345E+01 6.82472E+01 1.31583E+01-3.23752E+02
 -1      1265-1.37559E+04-2.56446E+01-4.24029E+01 6.65368E+01-1.26584E+01-4.57231E+02
 -1      1266-9.85252E+03 6.48544E+00 1.33012E+00 9.67601E+01-3.26045E+00-2.78803E+02
 -1      1267-1.06445E+04-8.65027E-01 1.38669E+01 1.12773E+02 5.86302E+00-2.82803E+02
 -1      1268-1.17940E+04-4.42902E+01-1.08340E+01 7.46535E+01-3.39709E+00-4.56188E+02
 -1      1269-8.07776E+03-1.26548E+01 1.27283E+01 4.74810E+01-1.81445E+01-2.72752E+02
 -1      1270-8.93961E+03 1.58584E+01-6.31126E+00 8.99207E+01 2.14478E+01-2.63738E+02
 -1      1271-9.80612E+03 4.03289E+01 2.27464E+01 3.43440E+01-1.34842E+00-4.25847E+02
 -1      1272-6.58614E+03 3.21938E+01 7.74296E+00 9.68616E+01-8.13453E+00-2.40320E+02
 -1      1273-7.26553E+03 3.77904E+01 2.51169E+01 5.26023E+01 2.18543E+00-2.58972E+02
 -1      1274-8.08764E+03-1.30938E+01-8.19811E+00 2.94024E+01-6.82187E+00-3.76193E+02
 -1      1275-5.14468E+03 2.19501E+01 8.26055E+00 8.91743E+01-1.17084E+01-2.10685E+02
 -1      1276-5.78847E+03 2.05165E+01 1.06300E+01 9.12791E+01 9.79475E+00-2.12837E+02
 -1      1277-6.47869E+03 4.47413E+01 2.20222E+01 5.98097E+01 3.14492E+00-3.55753E+02
 -1      1278-3.86557E+03 2.08972E+01 2.04430E+00 8.99190E+01-1.33716E+01-1.77755E+02
 -1      1279-4.42972E+03 1.77403E+01 1.66842E+01 9.18698E+01 1.51224E+01-1.88025E+02
 -1      1280-4.99226E+03 2.65144E+01 2.20122E+01 5.68934E+01 1.43040E+01-3.18033E+02
 -1      1281-2.72711E+03-7.40979E+00 1.07294E+01 3.71483E+01-9.04161E+00-1.65688E+02
 -1      1282-3.24974E+03 3.96602E+00 5.80847E+00 7.96017E+01 1.11038E+01-1.68128E+02
 -1      1283-3.73383E+03 6.55003E+00 1.50639E+01 6.20991E+01-7.80099E+00-2.78928E+02
 -1      1284-1.81946E+03 2.67301E+01 1.29208E+01 5.75959E+01-5.75206E+00-1.38148E+02
 -1      1285-2.21032E+03 2.77090E+01 2.03634E+01 3.48847E+01 5.51257E-01-1.53982E+02
 -1      1286-2.59060E+03-4.38645E+00 2.93863E+00 3.45433E+01-9.14496E+00-2.26126E+02
 -1      1287-1.05476E+03 2.17437E+01 8.96015E+00 4.05518E+01-1.00966E+01-1.00582E+02
 -1      1288-1.39467E+03 2.09507E+01 1.40041E+01 4.89917E+01 6.00167E+00-1.09768E+02
 -1      1289-1.65889E+03 3.34288E+01 2.97973E+01 3.31626E+01 1.26855E+00-1.94657E+02
 -1      1290-4.82699E+02 1.79482E+01 7.08605E+00 3.24111E+01-6.52436E+00-7.12810E+01
 -1      1291-7.15317E+02 1.80448E+01 1.40895E+01 4.12962E+01 3.85834E+00-8.38142E+01
 -1      1292-8.95557E+02 2.28259E+01 2.81280E+01 2.68765E+01 3.18259E+00-1.51691E+02
 -1      1293-8.25894E+01 7.77964E+00 1.26473E+01-1.90026E+00-3.26293E+00-3.83258E+01
 -1      1294-2.42556E+02 1.90507E+01 1.17499E+01 2.51653E+01 2.48604E+00-5.10158E+01
 -1      1295-3.42964E+02 2.35924E+01 2.61893E+01 1.81243E+01 7.44222E-01-9.83303E+01
 -1      1296-5.32244E+01 1.89706E+01 2.29059E+01-6.99483E+00-1.14645E+00-4.02194E+01
 -1      1297-1.18058E+04 2.99704E+01 3.03382E+01 5.70397E+01-1.17361E+01-2.22296E+02
 -1      1298-1.07406E+04 2.44754E+00 3.15369E+01 8.10009E+01 1.85576E+01-2.11574E+02
 -1      1299-1.40131E+04 2.13098E+01 2.51699E+01 8.52271E+01-2.05952E+01-2.40805E+02
 -1      1300-1.28358E+04 6.09813E+00 3.38788E+01 7.83988E+01 1.88847E+01-2.25698E+02
 -1      1301-1.18041E+04 3.47275E+00 1.68454E+01 1.07272E+02-2.04595E+00-3.64976E+02
 -1      1302-6.11154E+03 3.22718E+01 4.72954E+01 1.24684E+02 2.70712E+00-1.65923E+02
 -1      1303-5.38670E+03 3.49359E+01 3.87651E+01 1.32945E+02 2.06919E+01-1.88524E+02
 -1      1304-4.65322E+03 2.25124E+01 1.98849E+01 1.28339E+02-2.48438E+01-1.80796E+02
 -1      1305-3.92132E+03-5.12664E-01 1.06318E+01 7.92275E+01 1.25489E+01-1.52066E+02
 -1      1306-4.79717E+03 3.87052E+01 5.09474E+01 1.12216E+02-7.83760E+00-2.03539E+02
 -1      1307-7.77141E+02 1.82522E+01 3.07199E+01 2.13599E+01-3.86061E+00-1.32144E+02
 -1      1308-1.13427E+03 1.58774E+01 2.45712E+01 3.22821E+01 9.03574E+00-1.52257E+02
 -1      1309-6.57918E+02 4.25076E+01 6.78099E+01 3.13673E+01 4.15644E+00-9.90134E+01
 -1      1310-5.38135E+02 2.14135E+01 3.05201E+01 1.18750E+01 3.15322E-01-1.26082E+02
 -1      1311-2.62789E+02 2.60564E+01 4.90696E+01 8.62837E+00-4.76018E+00-8.58656E+01
 -1      1312-2.13290E+04-1.04991E+01 3.99463E+01 1.44772E+02-2.53217E+01-3.09891E+02
 -1      1313-2.00217E+04 6.34557E-01 4.48530E+01 1.26370E+02 4.63334E+00-3.09334E+02
 -1      1314-2.42054E+04 2.57604E+01 1.57889E+01 1.02549E+02-2.07729E+01-2.52039E+02
 -1      1315-2.27167E+04-2.42166E+01 2.13575E+01 1.24811E+02 2.91545E+01-2.97533E+02
 -1      1316-2.11431E+04 1.20847E+01 4.94683E+01 1.69193E+02-1.85229E+01-4.77573E+02
 -1      1317-1.88229E+04 1.54456E+01 1.33844E+01 1.12986E+02-1.37194E+00-2.80981E+02
 -1      1318-1.75421E+04 5.86020E+00 2.86446E+01 9.39550E+01 3.06392E+01-2.48500E+02
 -1      1319-1.63293E+04 3.05562E+01 2.41746E+01 9.43170E+01-5.98783E+00-2.47980E+02
 -1      1320-1.50992E+04 3.85146E+00 2.22601E+01 9.19702E+01 2.42245E+01-2.12947E+02
 -1      1321-1.61597E+04 3.79635E+01 5.09590E+01 1.28305E+02-6.12817E+00-3.87757E+02
 -1      1322-9.73207E+03 2.81693E+01 4.64016E+01 8.37738E+01-2.52097E+01-2.12031E+02
 -1      1323-8.64323E+03 4.34883E+01 6.01430E+01 1.03491E+02 6.85280E+00-2.31688E+02
 -1      1324-8.02371E+03-1.28507E+01 6.18607E+00 1.76768E+02-8.65934E+00-1.87546E+02
 -1      1325-6.98106E+03-1.33316E+01 4.57874E+01 1.27697E+02 2.45518E+01-2.07368E+02
 -1      1326-7.95426E+03 3.54782E+01 5.79593E+01 8.33060E+01 9.29615E+00-3.17147E+02
 -1      1327-1.52575E+03 1.46332E+01 4.65548E+01 3.31844E+01-9.80335E+00-1.89358E+02
 -1      1328-1.93342E+03 3.31200E+01 4.72087E+01 4.47032E+01-2.65694E+00-2.11243E+02
 -1      1329-2.45261E+03 1.05613E+01 3.66558E+01 4.29820E+01-9.08157E+00-2.14658E+02
 -1      1330-2.97058E+03 9.85391E+00 3.08943E+01 5.21300E+01 7.76722E+00-2.36448E+02
 -1      1331-2.27047E+03 3.85020E+01 5.43847E+01 7.82308E+01-2.81101E+00-1.73634E+02
 -1      1332-2.60961E+04-3.75994E+01 3.48980E+01 2.17125E+02-4.52093E+01-5.44829E+02
 -1      1333-2.75246E+04-5.45104E+01-2.62362E+01 2.93688E+02 1.34858E+01-5.36742E+02
 -1      1334-2.31950E+04 7.24861E+01 8.00979E+01 2.71956E+02-2.31074E+01-5.16061E+02
 -1      1335-2.45512E+04 4.80868E+01 4.26570E+00 1.92612E+02 3.03221E+01-5.52559E+02
 -1      1336-2.64826E+04-1.34891E+01-7.91784E+00 1.92873E+02-2.12217E+01-4.78895E+02
 -1      1337-6.91493E+04-1.24938E+01 3.10093E+01 1.77072E+02-4.27343E+01-3.95152E+02
 -1      1338-6.74274E+04-1.28555E+01 1.20148E+01 1.70449E+02 1.22870E+01-3.85966E+02
 -1      1339-6.38129E+04-1.80624E+01-2.74451E+01 2.01222E+02 2.61202E+01-5.91586E+02
 -1      1340-6.57537E+04 2.96997E+01-9.62784E+00 1.48862E+02-1.32898E+01-3.73887E+02
 -1      1341-6.39881E+04 2.73995E+00 9.47094E+00 1.25661E+02 4.10458E+01-3.42030E+02
 -1      1342-5.88620E+04 3.21918E+01 5.62892E+01 1.65146E+02-5.56000E+01-3.77416E+02
 -1      1343-5.68792E+04 6.82051E+01 1.04764E+02 2.08613E+02 2.15186E+01-4.41284E+02
 -1      1344-6.23549E+04 2.83481E+01-2.01694E+01 1.10206E+02-7.46919E+00-3.83976E+02
 -1      1345-6.05355E+04 3.66721E+00 1.22017E-01 1.38574E+02 4.11128E+01-3.41192E+02
 -1      1346-5.72795E+04-3.99293E+01-5.04165E+01 2.16285E+02-2.23959E+01-5.57686E+02
 -1      1347-6.83423E+04-4.48149E+01-3.56805E+01 1.64975E+02-3.62737E+01-7.07078E+02
 -1      1348-6.99922E+04 9.90590E+00-2.23256E+02 2.16518E+02-2.63915E+01-6.10282E+02
 -1      1349-6.68058E+04-2.57895E+01-3.25090E+01 1.75200E+02 1.68464E+01-6.83964E+02
 -1      1350-7.05911E+04 4.79119E+00-2.88237E+01 3.07645E+02 3.58458E+01-5.54310E+02
 -1      1351-6.51115E+04-2.30712E+01-4.05100E+01 1.60241E+02-4.24963E+01-7.18791E+02
 -1      1352-4.54653E+04 3.39096E+01 5.03942E+01 1.46407E+02-5.06832E+01-3.58161E+02
 -1      1353-4.35527E+04 7.38896E+01 9.97990E+01 2.03052E+02 1.54060E+01-4.26557E+02
 -1      1354-4.88233E+04 6.06344E+01 3.05178E+00 1.10220E+02-1.14970E+01-3.68069E+02
 -1      1355-4.70870E+04-7.72597E-01 4.83441E+00 1.31662E+02 3.07839E+01-3.39449E+02
 -1      1356-4.44003E+04-1.30704E+01-3.91110E+01 1.96088E+02-2.28946E+01-5.30599E+02
 -1      1357-3.90200E+04 5.34867E+01 6.49081E+00 2.36929E+02-3.43927E+01-3.67147E+02
 -1      1358-3.74759E+04 3.13315E+01-4.65385E+01 2.80866E+02 4.51123E+01-3.86317E+02
 -1      1359-3.51367E+04-4.59535E+00 2.16278E+00 2.32485E+02 1.50528E+01-4.94136E+02
 -1      1360-3.58364E+04-3.82078E+01 3.05742E+01 2.55592E+02-4.84921E+01-3.88061E+02
 -1      1361-3.43659E+04-5.46700E+01-1.29250E+01 1.81587E+02 2.28713E+01-3.45779E+02
 -1      1362-5.57290E+04-8.16627E+01-5.74638E+01 2.95784E+02-1.94359E+01-3.67306E+02
 -1      1363-5.37944E+04-6.08859E+01 2.50450E+01 1.57621E+02 3.38755E+01-4.01191E+02
 -1      1364-5.20237E+04-1.94151E+01 8.50274E+00 1.87038E+02-3.54646E+01-4.05654E+02
 -1      1365-5.03928E+04-5.51853E+00 3.97440E+00 8.72971E+01-4.92818E-02-3.68439E+02
 -1      1366-5.07114E+04 3.40210E+01 5.90122E+01 2.04180E+02-2.50598E+01-5.86488E+02
 -1      1367-7.18651E+04-6.42144E+00-7.38053E+02 2.35029E+02-1.10736E+02-4.73865E+02
 -1      1368-7.36581E+04-1.62844E+01-1.80019E+03 8.85258E+01-1.97640E+01 8.62007E+01
 -1      1369-7.70012E+04 4.60801E+02-3.27334E+03 1.48655E+01-1.21213E+02-2.93945E+02
 -1      1370-7.39919E+04 3.63225E+02-3.18387E+03-1.60155E+02-8.68690E+01 3.26060E+02
 -1      1371-7.47449E+04 4.66258E+02-6.31505E+03-3.35199E+02-3.14264E+02 9.33518E+02
 -1      1372-7.19082E+04 5.78681E+02-4.59692E+03-4.50336E+02-2.23397E+02 1.98073E+03
 -1      1373-7.63175E+04-2.99761E+01-2.19392E+02 1.98465E+02-3.77017E+01-3.14572E+02
 -1      1374-7.43579E+04 8.26085E+00-6.51527E+01 2.01314E+02 6.03263E+00-3.06072E+02
 -1      1375-7.40064E+04 8.36768E+01-4.69760E+02 2.43477E+02-7.37035E+01-4.69508E+02
 -1      1376-7.80936E+04-1.79168E+01-6.72573E+02 1.73654E+02 1.93152E+00-3.08074E+02
 -1      1377-7.99377E+04-2.12255E+01-1.63877E+03 4.61079E+01-1.06564E+02-6.02031E+02
 -1      1378-5.64357E+02 1.92053E+01 4.75521E+01 3.40096E+01 4.83470E+00-6.25832E+01
 -1      1379-3.42313E+02 2.57344E+01 4.28513E+01 1.55995E+01 5.76891E+00-5.60353E+01
 -1      1380-2.73191E+02 3.71915E+01 4.79696E+01 2.74332E+01-6.68848E+00-6.48780E+01
 -1      1381-1.67401E+02 2.15190E+01 5.10941E+01 1.34238E+01-4.59220E+00-4.32553E+01
 -1      1382-8.47952E+01 3.06351E+01 5.00728E+01 4.62169E+00-5.35771E+00-2.60956E+01
 -1      1383-6.00368E+01 1.75830E+01 4.62095E+01 5.71297E+00 2.71131E+00-4.18696E+01
 -1      1384-9.90778E+03 1.38083E+01 1.25356E+01 7.72544E+01-2.90763E+01-3.78999E+02
 -1      1385-1.07480E+04 3.62160E+01 3.23252E+01 3.80349E+01 8.68723E+00-4.24953E+02
 -1      1386-8.05028E+03-8.56653E+00 3.83072E+01 4.96377E+01-4.80383E+00-3.67576E+02
 -1      1387-8.82844E+03 2.23892E+01 4.53429E+01 8.35023E+01 2.08551E+01-3.80890E+02
 -1      1388-9.79749E+03 9.81238E+00 1.33439E+01 1.16027E+02-1.46757E+01-3.27142E+02
 -1      1389-2.98751E+04 6.12225E+01 1.84587E+00 1.13571E+02-3.34257E+00-3.39345E+02
 -1      1390-2.83056E+04 1.46556E+01 1.36514E+01 1.10001E+02 3.31648E+01-2.92892E+02
 -1      1391-3.27431E+04-2.36295E-01 1.60175E+01 1.53095E+02-3.16028E+01-3.31191E+02
 -1      1392-3.12646E+04-7.14005E+00 2.72645E+01 8.22223E+01 1.60663E+00-3.09821E+02
 -1      1393-2.92906E+04 4.34829E+01 4.01244E+01 1.47929E+02-1.32230E+01-4.74618E+02
 -1      1394-1.31915E+03 2.65894E+01 4.14700E+01 3.10635E+01-4.40013E+00-7.22157E+01
 -1      1395-8.63389E+02 1.25618E+01 5.72851E+01 3.50531E+01 1.19500E+01-8.34752E+01
 -1      1396-2.13643E+03 2.67072E+01 3.94512E+01 6.19633E+01-6.02547E+00-1.01810E+02
 -1      1397-1.64952E+03 2.69227E+01 3.80698E+01 3.62138E+01 3.05317E+00-9.58993E+01
 -1      1398-1.42360E+03 2.96450E+01 3.21301E+01 6.89083E+01 8.49102E+00-1.58858E+02
 -1      1399-1.84759E+04 2.69739E+01 1.51410E+00 8.66721E+01-2.63766E+01-5.11001E+02
 -1      1400-1.95699E+04 1.96708E+01-6.69884E-01 1.33765E+02 5.22432E+00-4.96333E+02
 -1      1401-1.60356E+04 8.03897E+00 1.91513E+01 9.82734E+01-7.03901E+00-4.85531E+02
 -1      1402-1.71720E+04 2.04498E+01 3.01824E+01 9.68026E+01 3.76848E+01-5.07693E+02
 -1      1403-1.86046E+04-1.29692E+01-4.16328E+00 1.44160E+02 1.37168E+01-4.36777E+02
 -1      1404-4.87444E+03 2.09422E+01 2.69964E+01 5.50083E+01-4.57180E+00-3.05238E+02
 -1      1405-5.57757E+03 2.47571E+01 3.91877E+01 6.80646E+01 1.53744E+01-3.25647E+02
 -1      1406-6.40870E+03 1.37667E+01 1.39267E+01 5.80731E+01-2.07845E+01-3.40311E+02
 -1      1407-7.18595E+03 4.82753E+01 1.78502E+01 5.74839E+01 5.61781E+00-3.39014E+02
 -1      1408-6.23884E+03 1.82453E+01 3.37351E+01 1.26491E+02 1.55647E+01-2.74751E+02
 -1      1409-1.39217E+04-2.86322E+01 1.82731E+01 1.30803E+02-2.34598E+01-4.54038E+02
 -1      1410-1.49650E+04 2.74697E+01 3.12124E+01 1.06052E+02 1.78706E+01-5.13255E+02
 -1      1411-1.17957E+04-2.94480E+01 1.84321E+01 5.90027E+01-1.08580E+01-4.37556E+02
 -1      1412-1.27644E+04-3.86955E+00 1.83292E+01 1.12666E+02 2.34298E+01-4.35556E+02
 -1      1413-1.40051E+04-1.47589E+01-4.81702E+00 1.43554E+02-7.54619E+00-3.93771E+02
 -1      1414-5.56356E+04-5.08346E+01 2.35869E+01 2.38055E+02-5.69587E+01-6.21604E+02
 -1      1415-5.73097E+04-6.47064E+01-2.86059E+01 3.36864E+02 2.24417E+01-6.43425E+02
 -1      1416-5.85169E+04 3.39466E+01 4.91857E+01 1.95610E+02 1.68587E+01-6.18621E+02
 -1      1417-6.01224E+04 5.79403E+01 2.97704E+01 1.65404E+02 6.63034E+01-6.85728E+02
 -1      1418-6.05226E+04 2.70168E+01 2.38174E+01 1.75530E+02-1.85638E+00-5.53630E+02
 -1      1419-3.99976E+04 9.30041E+01 7.50240E+01 2.94764E+02-2.34295E+01-6.12335E+02
 -1      1420-4.15825E+04 7.74508E+01 1.46866E+01 1.54876E+02 3.87561E+01-5.95377E+02
 -1      1421-3.72554E+04-3.94549E+01-6.47835E+01 1.47911E+02-5.35691E+01-6.27796E+02
 -1      1422-3.89139E+04-5.03709E+01-8.67326E+01 1.95657E+02 9.53213E+00-5.60360E+02
 -1      1423-4.12216E+04 1.12315E+01 1.51790E+01 2.18203E+02 2.77604E+01-5.28692E+02
 -1      1424-2.85181E+04 5.08022E+01 4.38087E+01 1.70324E+02 1.45678E+01-5.36818E+02
 -1      1425-2.99949E+04 3.84602E+01 4.01478E+01 1.31137E+02 4.66157E+01-5.99536E+02
 -1      1426-3.21777E+04-4.56081E+01-3.60653E+01 2.06497E+02 2.11901E+01-5.18291E+02
 -1      1427-3.14984E+04-1.20048E+01 1.84739E+00 1.19881E+02-1.69809E+01-6.30626E+02
 -1      1428-3.28529E+04 5.65338E+01-6.35051E+00 8.56709E+01 3.56977E+01-6.29721E+02
 -1      1429-4.93872E+04-3.72877E+01-5.13864E+01 1.45621E+02-4.87486E+01-6.66470E+02
 -1      1430-5.11009E+04-6.69619E+01-8.92845E+01 2.05376E+02 1.19935E+00-5.84439E+02
 -1      1431-5.21862E+04 9.42322E+01 7.84587E+01 3.05578E+02-2.13147E+01-6.17953E+02
 -1      1432-5.38738E+04 3.88748E+01-2.95900E+01 2.27950E+02 1.62740E+01-6.37296E+02
 -1      1433-5.39599E+04-5.73029E+00 1.78542E+01 2.26843E+02 2.81238E+01-5.55069E+02
 -1      1434-4.33386E+04 4.56596E+01 5.36782E+00 1.77933E+02-3.18623E+01-5.75930E+02
 -1      1435-4.46334E+04 1.79336E+01 1.91428E+01 7.85289E+01 1.67061E+00-6.60308E+02
 -1      1436-4.62374E+04-5.45376E+01 1.19286E+01 9.02694E+01-3.17620E+01-6.58950E+02
 -1      1437-4.77296E+04 1.32971E+01 6.82061E+00 1.23305E+02 2.97283E+01-6.75139E+02
 -1      1438-4.75258E+04 8.10223E+00-7.34812E-02 1.54358E+02-1.70298E+01-5.58612E+02
 -1      1439-7.84689E+04 4.26592E+02-6.76358E+03-2.94457E+01-2.11569E+02-9.85066E+02
 -1      1440-8.02911E+04 6.07144E+02-3.10580E+03-3.40543E+02-1.12533E+02-6.62464E+02
 -1      1441-8.15861E+04 2.37357E+02-4.75805E+03-2.42660E+02-3.44932E+02-1.53820E+03
 -1      1442-4.46172E+01 3.23062E+01 5.27809E+01-2.93012E+00 1.06785E-01-4.38128E+01
 -1      1443-5.76688E+01 2.12716E+01 3.83362E+01 2.52692E-01-1.00315E+00-5.01040E+01
 -1      1444-1.67842E+02 1.72039E+01 3.81711E+01 6.88056E-01 1.64569E+00-6.96182E+01
 -1      1445-7.28239E+04 1.31757E+01-2.67535E+01 1.55721E+02-3.05019E+01-2.78950E+02
 -1      1446-7.09965E+04-4.25654E+01-1.59109E+00 1.75228E+02 2.24499E+01-3.45696E+02
 -1      1447-6.71968E+04 2.89461E+01 4.94910E+01 2.31360E+02-1.55616E+01-6.02710E+02
 -1      1448-6.32834E+04-5.60006E+01 1.31707E+00 1.33971E+02 3.49589E+01-6.59262E+02
 -1      1449-6.18609E+04-1.44210E+01-8.69758E+00 1.17495E+02-9.08167E+00-6.95375E+02
 -1      1450-3.57890E+03 1.39597E+01 5.41866E+01 4.41524E+01-1.57542E+01-2.52806E+02
 -1      1451-4.28760E+03 2.40956E+01 1.89978E+01 4.02397E+01 1.23120E+01-2.97697E+02
 -1      1452-2.08871E+04-2.29066E+01-3.66353E+01 1.72216E+02-3.37431E+01-5.16110E+02
 -1      1453-2.22101E+04-1.72438E+01-3.45960E+01 2.01644E+02 2.99527E+00-4.94866E+02
 -1      1454-2.69072E+04 1.88383E+01 4.57007E+01 1.26580E+02-3.74553E+01-3.11520E+02
 -1      1455-2.53471E+04 3.09744E+01 5.84220E+01 1.23875E+02 2.33329E+01-3.20651E+02
 -1      1456-2.37135E+04 1.67510E+01 4.00826E+01 2.11378E+02 3.25991E+01-4.77118E+02
 -1      1457-4.24926E+04-7.49955E+01-5.32783E+01 2.85372E+02-1.52442E+01-3.60785E+02
 -1      1458-4.06474E+04-2.87909E+01 4.45225E+01 1.99469E+02 1.41333E+01-3.74292E+02
 -1      1459-3.80745E+04 7.10957E+01 7.13421E+01 2.25333E+02-2.13964E+01-5.39491E+02
 -1      1460-3.56156E+04-1.83237E+01 3.98675E+01 1.21863E+02 1.45045E+01-6.18951E+02
 -1      1461-3.43408E+04-1.72954E+01 4.16697E+01 8.61227E+01-9.45109E+00-6.34105E+02
 -1      1462-3.30161E+03 1.42545E+01 3.85439E+01 8.10881E+01-5.39355E+00-1.37984E+02
 -1      1463-2.68138E+03 1.61524E+01 4.29184E+01 6.57720E+01 1.55509E+01-1.19638E+02
 -1      1464-3.42074E+03 4.55491E+01 6.10489E+01 6.96696E+01-4.52479E+00-2.01185E+02
 -1      1465 4.43863E+03-1.60252E+01 7.02139E+00 1.75288E+03-1.07667E+00-1.86265E+01
 -1      1466 2.05391E+03-4.32786E+01 1.01441E+01 1.25275E+03 2.19431E+00-4.46390E+00
 -1      1467-2.39462E+03 4.50770E+01-3.68461E+00 9.26305E+02 4.73492E+00-1.78525E+01
 -1      1468 3.23479E+02-4.42395E+01 5.16482E+00 4.79200E+02 5.16489E+00 3.02200E+00
 -1      1469 6.82944E+03-2.85842E-01-2.05480E+01 1.99563E+03 1.01406E+01-5.63805E+00
 -1      1470-6.62253E+03 4.15773E+01-8.78408E+00 1.46359E+03 1.95105E+00-1.45592E+01
 -1      1471 8.28833E+03-2.95662E+01 3.22665E+00 2.23076E+03 2.77007E-01 2.39565E-01
 -1      1472-4.25811E+04-1.19252E+01 3.55276E+00 2.55835E+03-2.78917E+00-3.69198E+01
 -1      1473 1.80877E+04-1.66885E+01 1.22936E+00 2.63218E+03-1.77952E-01-3.44267E-01
 -1      1474 2.22833E+04-1.49963E+01 4.40124E+01 2.41261E+03-5.58799E+01-1.12785E+02
 -1      1475-2.99591E+04 1.71889E+01-8.28689E+00 2.38142E+03-4.00653E+00-1.66656E+01
 -1      1476 1.10954E+04-2.98266E+01 3.19306E+01 2.40234E+03-1.21658E+01 1.97831E+01
 -1      1477 1.61586E+04 3.51325E+00-1.62941E+01 2.52751E+03 4.90457E+00-2.17619E+01
 -1      1478-4.90118E+04 6.82669E+02 6.02653E+02 7.41294E+02-3.87438E+02 9.24557E+02
 -1      1479-1.08988E+04 2.95437E+01-7.08533E+00 1.79182E+03 5.54610E+00-1.80981E+01
 -1      1480 8.18786E+02-5.16958E+01 1.94768E+01 8.18267E+02-1.39236E+00 5.34618E+00
 -1      1481-2.25037E+02 4.91386E+01-6.35258E-01 2.79459E+02 4.37948E+00-1.87426E+00
 -1      1482-1.95152E+04 3.72677E+01-1.14819E+01 2.20142E+03-1.36424E+00-3.44693E+01
 -1      1483-1.03706E+03 4.92464E+01 2.55316E+00 6.23391E+02 1.01807E+00-9.87324E+00
 -1      1484-1.58920E+04 2.75547E+01 2.00851E+01 2.01927E+03 1.02434E+01-1.98624E+01
 -1      1485 1.29064E+04 1.13517E+01 4.39414E+01 2.38231E+03-3.13291E+01-2.71232E+01
 -1      1486-3.65059E+04 1.65127E+00 2.25841E+01 2.42956E+03 2.50413E+01-3.51016E+01
 -1      1487-2.58168E+04 2.38515E+00-1.44284E+00 2.34840E+03 6.55499E+00-4.49931E+01
 -1      1488 4.45691E+03-2.27761E+03-1.09807E+03-1.31882E+03-8.78022E+02 4.68241E+01
 -1      1489 3.10389E+01-1.28489E+01 1.78843E+00 1.84232E+02 1.55610E+00 1.14205E+00
 -1      1490-4.24708E+03 4.43345E+01 9.75746E-01 1.24043E+03 1.85573E+00-2.49611E+01
 -1      1491 3.16164E+03-2.97921E+01-8.34573E+00 1.50325E+03 6.40493E-01-1.30646E+01
 -1      1492 2.00426E+04-1.43077E+01 5.81748E+01 2.61571E+03-3.23486E+00-2.38426E+01
 -1      1493-4.72931E+04 2.43224E+01 2.96619E+01 2.35878E+03-9.18995E+00 4.86061E+00
 -1      1494-4.84737E+04 2.23579E+02 2.72867E+01 1.94758E+03-8.65161E+01 1.76864E+02
 -1      1495-1.29573E+04-2.24649E+02 3.39410E+01 2.13187E+03-5.64517E+02-7.06563E+01
 -1      1496-5.68636E+02 5.60198E+01-2.87218E+00 4.65026E+02 6.20459E+00-7.41839E+00
 -1      1497 5.23485E+03-3.38853E+01-2.71380E+01 1.78424E+03 1.76730E+01-2.62655E+01
 -1      1498 5.97553E+03-2.88962E+01 3.79121E+01 1.96115E+03-1.13308E+01-1.17104E+01
 -1      1499-3.53332E+03 1.16160E+01 6.70299E+00 2.47234E+03 6.86849E-01-1.61823E+01
 -1      1500 1.60631E+03-3.67587E+01 4.78206E-01 1.08967E+03 4.82586E+00-9.30081E+00
 -1      1501-7.95452E+03 3.68643E+01-2.73696E+00 1.57540E+03 4.13333E+00-1.08142E+01
 -1      1502 9.28658E+03-2.89468E+01-4.26892E+01 2.18829E+03 2.11839E+01-4.60435E+01
 -1      1503 1.02425E+04-3.24242E+01 1.58511E+01 2.29715E+03-3.40006E-01-1.95795E+01
 -1      1504-6.10398E+03-1.02542E+01 5.95537E+00 2.91794E+03 1.37693E+01-3.75329E+01
 -1      1505-1.65727E+03 4.84088E+01-8.86738E-01 7.98198E+02 1.17220E+00-1.10319E+01
 -1      1506 1.41079E+04-1.11183E+01 6.47101E+00 2.49410E+03-6.68610E+00-1.06803E+01
 -1      1507-3.26744E+03 4.23873E+01 3.15886E+00 1.07388E+03 6.60559E-01-1.80712E+01
 -1      1508-2.79195E+04 1.69445E+00 1.16352E+01 2.30326E+03 2.32426E+01-4.04257E+01
 -1      1509 1.71034E+04 1.18226E+01 3.98777E+01 2.48098E+03-3.18680E+01-3.20742E+01
 -1      1510 1.51628E+04-7.95076E-01-3.63129E+01 2.56278E+03 1.28702E+01 1.25102E+01
 -1      1511-8.95442E+03-5.05440E+00 1.21581E+01 3.16880E+03 1.58702E+00-3.24071E+01
 -1      1512 5.53140E+02-4.42896E+01-7.63674E+00 6.23104E+02 1.07366E+01-1.73866E+01
 -1      1513-1.76957E+04 3.43615E+01-6.73305E+00 2.11095E+03 1.83905E+00-1.81026E+01
 -1      1514 1.93065E+04-1.42001E+01-5.73772E+01 2.51901E+03 2.30639E+01-5.17371E+01
 -1      1515-1.05987E+04 1.33644E+01-1.30711E+00 3.20587E+03 9.12501E+00-4.11577E+01
 -1      1516-4.49666E+04 7.39372E+00-7.18563E+00 2.50533E+03-1.02924E-01-2.70811E+01
 -1      1517 2.14111E+04 2.82594E+01-4.37158E+01 2.60519E+03 9.97858E+00 6.00796E+00
 -1      1518 1.23215E+04-4.30969E-01-1.98497E+01 2.37647E+03 4.41052E+00-5.86949E+00
 -1      1519 2.53549E+03-4.24905E+01 2.10552E+01 1.40679E+03-9.53894E-01 1.98648E+01
 -1      1520 3.80304E+03-2.55715E+01 2.35803E+00 1.65728E+03 1.77353E+00 1.65854E+01
 -1      1521 7.48866E+03-2.92285E+00 4.05038E+01 2.04382E+03-2.05075E+01-2.38385E+01
 -1      1522 1.19029E+03-2.99345E+01-1.11565E+01 9.63983E+02 4.71561E+00-8.37479E+00
 -1      1523-5.39906E+03 3.36565E+01 1.52810E+01 1.32467E+03 9.66428E+00-2.35363E+01
 -1      1524-9.36414E+03 4.54112E+01-9.51070E+00 1.68183E+03 6.60701E+00-1.71981E+01
 -1      1525-1.25567E+04-2.83247E+01 1.62496E+01 2.98903E+03-1.21292E+02-4.42107E+01
 -1      1526 2.32564E+04-2.03245E+02-1.77198E+01 2.12806E+03-9.93222E+01-1.93161E+02
 -1      1527-3.25332E+04-1.53647E+03 2.64898E+03-6.29820E+02-8.58330E+02 1.71960E+01
 -1      1528-1.43400E+04 4.28003E+01-3.35679E+00 1.97969E+03 4.95969E+00-2.55276E+01
 -1      1529-1.26189E+04 2.76134E+01 7.85298E+00 1.83635E+03 4.00092E+00-3.00759E+01
 -1      1530-3.87407E+04 2.29539E+01-1.11796E+01 2.46652E+03-2.31590E+00-2.11988E+01
 -1      1531-4.09135E+04 4.03977E-02-1.44358E+01 2.50143E+03-9.33372E-02-2.44783E+01
 -1      1532-3.43649E+04 1.94576E+01 9.07491E+00 2.44811E+03-3.93878E+00-3.99756E+01
 -1      1533-6.58615E+03 3.05234E+01-1.82051E+00 2.96110E+03-1.09680E+01-3.66986E+01
 -1      1534-2.17669E+04 1.21267E+01 1.01403E+01 2.24230E+03-4.15062E+00-3.06345E+01
 -1      1535-8.32127E+03-8.18868E+00 1.21959E+01 3.13170E+03-1.43410E+00-2.47148E+01
 -1      1536-7.17362E+01 6.59691E+00 2.63755E+00 4.74476E+02 4.16040E+00-9.18605E+00
 -1      1537-2.13739E+02 5.43042E+00 4.76993E+00 6.86818E+02 8.53253E+00-9.37018E+00
 -1      1538-1.22255E+03-9.49899E-01 7.96038E+00 1.62413E+03 8.42264E+00-2.52075E+01
 -1      1539-1.54614E+03 3.19322E+01-5.09747E+00 1.81894E+03 8.04851E+00-1.71833E+01
 -1      1540-1.91277E+03 2.36956E+00 2.41259E+00 1.96726E+03-1.48477E+00-1.73172E+01
 -1      1541-3.15485E+02-7.36162E-01-1.06014E+00 8.98179E+02 4.60476E-01-1.40240E+01
 -1      1542-7.62618E+02 2.30379E+00 1.12696E+01 1.29102E+03 1.07239E+01-1.17995E+01
 -1      1543-4.33040E+03 1.87695E+01 7.70419E+00 2.66288E+03-9.77182E+00-2.83176E+01
 -1      1544-2.72687E+03 7.69619E+00-1.14100E+01 2.21712E+03 3.89074E+00-2.90549E+01
 -1      1545-1.15330E+04-2.63804E+01 3.93714E+00 3.24348E+03-5.49153E+00-2.19149E+01
 -1      1546-1.20796E+04 2.99997E+01-9.93997E+00 3.16261E+03-3.77419E+00-6.19177E+01
 -1      1547-9.54399E+02-1.00749E+00-7.16250E+00 1.46707E+03-2.87127E+00-2.33077E+01
 -1      1548-2.26864E+03 1.28505E+01 3.13116E+00 2.10786E+03 1.31361E+00-2.18697E+01
 -1      1549-7.06009E+03 1.18936E+01 9.90422E+00 3.01518E+03 1.40073E+01-4.06953E+01
 -1      1550-5.01108E+02-1.45488E+00 7.12306E-01 1.09961E+03 3.65117E+00-1.27131E+01
 -1      1551-7.56531E+03 2.17198E+01 6.15704E+00 3.07160E+03-9.34754E+00-3.36019E+01
 -1      1552-5.00491E+03 1.40755E+01 8.55753E-02 2.73617E+03 5.19191E+00-3.41923E+01
 -1      1553-3.93692E+03 5.72981E+00-3.49241E-01 2.57095E+03 1.48836E+01-3.38299E+01
 -1      1554-3.05861E+03-1.41539E+01-3.08561E+00 2.37627E+03 8.25950E+00-2.89690E+01
 -1      1555-2.38722E+04 1.03667E+01-5.39434E+00 2.24222E+03 1.08319E+01-3.18090E+01
 -1      1556-5.41112E+03-3.32029E+01 1.15446E+01 2.85325E+03 7.01968E+00-2.33736E+01
 -1      1557-1.09317E+04-2.27350E+01 5.70545E+00 3.27220E+03 8.17280E+00-2.62188E+01
 -1      1558-3.21840E+04 3.03259E+01-1.63762E+01 2.42264E+03-5.05674E+00-4.15483E+01
 -1      1559-9.21871E+03 1.37788E+01 7.59948E+00 3.17510E+03 7.27044E+00-4.42223E+01
 -1      1560-9.78515E+03 2.64091E+01 2.96541E+00 3.19909E+03-1.46685E+01-3.50246E+01
 -1      1561-3.89101E+01 1.82209E+01-3.94312E+00 1.83644E+02 9.26590E-02-1.11521E+00
 -1      1562 2.19902E+04-1.20082E+03-4.48458E+02 5.48190E+02-3.57250E+02-8.07439E+02
 -1      1563 1.61008E+02-3.78303E+01 9.80881E+00 2.80916E+02 2.95765E+00 5.57603E+00
 -1      1564-1.39398E+04-9.46998E+02 8.77675E+01 1.13772E+03-8.64029E+02-1.60764E+02
 -1      1565-6.46843E+04 9.90670E+02 5.29632E+03 4.32147E+02-6.77814E+02-3.18971E+02
 -1      1566 3.52458E+04-2.73302E+03-4.06909E+03-2.21946E+03-8.37860E+02-3.10418E+02
 -1      1567-7.19941E+01 3.78134E+01-2.83756E+00 8.85680E+01 2.41761E+00 5.43319E-01
 -1      1568 6.65736E+01-3.23846E+01 4.80802E+00 8.66012E+01 6.43257E-02 2.44150E+00
 -1      1569-2.29602E+01 7.61879E+00 3.23087E+00 3.23166E+02 1.30356E+00-3.10361E+00
 -1      1570 3.22977E+04 2.61522E+03-4.11394E+02-5.18007E+03-6.46830E+02 4.37799E+03
 -1      1571 5.80177E+04 7.55826E+03 7.80604E+03 6.98573E+02 9.62219E+02 8.51267E+03
 -1      1572 4.41596E+04-3.53100E+03-3.36090E+03-3.25317E+03-1.67736E+03-1.57431E+03
 -1      1573-8.93582E+04-1.28919E+04-1.09700E+04 4.59829E+03 1.34608E+03-1.03767E+04
 -1      1574-6.48014E+04-1.14087E+04-7.57583E+03-1.55353E+03 1.10700E+02-8.75429E+03
 -1      1575-7.00172E+04 4.26250E+03 4.37618E+03-2.64824E+03-1.91559E+03 2.22504E+03
 -1      1576 3.63052E+01-1.85955E+01 1.21612E+01 2.81575E+01-1.40678E+00 2.14327E+00
 -1      1577 3.14937E+01-5.27676E+01 1.90170E+00 4.75647E+01-8.39302E-01 5.49547E-01
 -1      1578 8.54938E+01-1.49101E+01 4.71533E+00 4.78869E+01 1.46761E+00 4.68169E-01
 -1      1579-2.75868E+01 5.18795E+01-3.15735E+00 4.64453E+01 1.23138E-02 8.97932E-01
 -1      1580-3.00317E+01 1.99615E+01-7.18529E+00 2.85772E+01 8.52229E-01 5.86657E-01
 -1      1581-9.24958E+01 2.31423E+01-2.25763E+00 4.74155E+01-1.05646E+00-1.83536E+00
 -1      1582-6.21934E+03-4.23069E+03-3.81272E+03-5.70275E+03-1.06709E+03-1.28846E+03
 -1      1583 1.70304E+04 3.93109E+03 3.47389E+03-4.87953E+03-1.01880E+03 3.90980E+03
 -1      1584 2.10179E+04-1.50570E+03-2.82887E+03-2.18000E+03-3.50235E+02-1.29830E+02
 -1      1585-4.76142E+04-1.17762E+04-7.86151E+03-3.42100E+03-1.15334E+03-6.86130E+03
 -1      1586-2.50131E+04-4.19042E+03-2.13804E+03-4.92974E+03-7.37594E+02-2.42023E+03
 -1      1587-1.32650E+04-1.53999E+03 7.49700E+02-1.23086E+03-5.88954E+02 8.22246E+01
 -1      1588-4.78964E+04-4.06463E+02 4.28660E+03-7.20811E+02-6.29993E+02-2.40658E+02
 -1      1589 2.11551E+01-4.52425E+01 1.45250E+00 8.99546E+01 1.20891E+00 1.63180E+00
 -1      1590 1.02326E+01-5.80819E+00 1.90562E+00 1.07645E+02 3.14206E+00 1.34995E+00
 -1      1591 4.44359E+01-2.41573E+01-6.33826E-01 1.35510E+02 1.37831E+00 2.47882E+00
 -1      1592-1.21230E+01 9.58708E+00-4.00597E+00 1.07293E+02 1.89380E+00 2.69588E-02
 -1      1593-1.94024E+01 4.68401E+01-4.27725E+00 9.31456E+01 7.74696E-01-1.59664E-01
 -1      1594-1.92608E+00 7.04979E+00 1.65649E+00 1.94979E+02-2.58936E+00-2.04543E+00
 -1      1595-4.71234E+01 3.42130E+01 2.09435E+00 1.37287E+02-1.99083E-02 3.49122E-01
 -1      1596 4.11524E+04-8.99207E+01 3.97586E+02-8.03514E+02 2.92946E+02-4.13728E+02
 -1      1597 4.10734E+04-5.62458E+02-4.01144E+02 4.30244E+02-1.46001E+02-4.09080E+02
 -1      1598 2.73462E+04-1.71561E+03-7.54781E+02-1.17291E+03-4.92853E+02-8.58905E+02
 -1      1599 4.14879E+04-2.51290E+02-9.35277E+01 9.96145E+02-6.75435E+01-7.85352E+01
 -1      1600 4.11150E+04-4.82543E+01-7.26729E+01 1.26717E+03-4.47514E+01-1.26098E+02
 -1      1601 2.24283E+04-6.19568E+02-4.71806E+01 1.46530E+03-1.75165E+02-2.31322E+02
 -1      1602 4.06651E+04 8.59645E+00 6.57751E+01 1.39236E+03-3.57938E+01-5.59081E+01
 -1      1603 3.94455E+04-4.91318E+01 6.18287E+01 1.42341E+03-4.19082E+01-1.37222E+02
 -1      1604 2.28751E+04-3.96463E+01 1.13796E+01 2.33986E+03-3.34603E+01-1.41393E+02
 -1      1605 3.88946E+04 2.56668E+00-2.01108E+01 1.47684E+03-1.26419E+01-9.15981E+01
 -1      1606 3.76543E+04 2.30229E+01-5.00274E+01 1.44065E+03 7.90056E+00-2.79417E+01
 -1      1607 2.17328E+04-4.03924E+01-1.47913E+00 2.56973E+03-7.88285E+01-9.00163E+01
 -1      1608 3.70027E+04 3.87863E+00 7.10464E+01 1.48155E+03-2.41755E+01-2.05121E+01
 -1      1609 3.56993E+04-2.26248E+01 3.46232E+01 1.50436E+03 1.86961E+01-1.02487E+02
 -1      1610 2.07208E+04 2.99488E+01-9.05324E-01 2.61155E+03 1.98567E+01 1.44372E+01
 -1      1611 3.52467E+04 5.19578E+01-5.90038E+01 1.46733E+03 2.87412E+01-1.05023E+02
 -1      1612 3.38115E+04-2.98686E+01-7.95048E+01 1.45066E+03 2.29840E+01-2.65315E+01
 -1      1613 1.97413E+04 8.53910E+00-1.55591E+01 2.62806E+03 5.00222E+01-8.09544E+01
 -1      1614 3.32412E+04-3.47938E+01 9.65489E+00 1.48540E+03 7.08421E+00-2.81887E+01
 -1      1615 3.20613E+04-5.00728E+00-1.35538E+01 1.48291E+03-1.60667E+00-2.02517E+01
 -1      1616 1.86728E+04-5.48838E+01 7.72304E+00 2.58994E+03-1.39943E+01-1.00581E+01
 -1      1617 3.15000E+04-1.48889E+01 4.25852E+01 1.42248E+03-5.36193E+00 1.95330E+00
 -1      1618 3.01530E+04-1.98594E+01 6.86785E+01 1.42304E+03-3.11132E+01-8.90009E+01
 -1      1619 1.77344E+04 8.42123E+01 4.59322E+01 2.56332E+03 8.53579E+00 9.69211E+00
 -1      1620 2.96090E+04 1.48000E+01-1.23722E+01 1.44346E+03-2.17002E+01-9.99771E+01
 -1      1621 2.83038E+04-1.28512E+01 2.33586E+00 1.41768E+03 6.72256E+00-7.45067E+01
 -1      1622 1.66082E+04-2.06951E+01 1.05324E+01 2.55609E+03-4.23235E+01-6.30478E+01
 -1      1623 2.77487E+04 2.06195E+00-2.37797E+01 1.44896E+03-6.13803E+00-8.20259E+01
 -1      1624 2.64941E+04-2.78339E+01-6.08851E+01 1.41970E+03 2.15992E+01-4.32346E+01
 -1      1625 1.56478E+04-2.26274E+00-1.47786E+01 2.57582E+03-1.01839E+01-2.59231E+01
 -1      1626 2.59411E+04-3.49568E+01 9.22385E+00 1.42194E+03-6.34895E+00-8.27460E+00
 -1      1627 2.47879E+04-5.24760E+00 1.24456E+01 1.41237E+03 9.79405E-01-3.39475E+01
 -1      1628 1.46606E+04 2.72993E+01 8.36622E+00 2.51344E+03 1.41938E+01 2.20898E+01
 -1      1629 2.41182E+04-2.09977E+01 3.87407E+01 1.36733E+03-1.03172E+01 3.51282E+00
 -1      1630 2.28467E+04-1.98399E+01 6.82411E+01 1.36341E+03-2.85191E+01-8.47633E+01
 -1      1631 1.36418E+04 6.97734E+01 5.90821E+01 2.46236E+03-3.13875E+00 1.31565E+01
 -1      1632 2.24156E+04-8.90133E+00-4.28503E+01 1.36845E+03-1.27233E+01-8.66780E+01
 -1      1633 2.12590E+04 2.08277E+01-3.04336E+01 1.33310E+03 9.69975E+00-5.24280E+00
 -1      1634 1.25452E+04-2.12397E+01 7.06733E+00 2.43409E+03-4.27068E+01-5.65914E+01
 -1      1635 2.06602E+04 1.04858E+01 5.35600E+01 1.33683E+03-2.18243E+01-3.31659E+01
 -1      1636 1.94874E+04-2.21747E+01 2.33443E+01 1.34940E+03 2.71745E+00-7.52295E+01
 -1      1637 1.16967E+04-3.92853E+01 6.79256E+00 2.37630E+03-1.82964E+01 2.75459E+01
 -1      1638 1.90172E+04-5.74386E+00 4.27007E+00 1.29062E+03-5.37392E+00-7.20582E+01
 -1      1639 1.78167E+04-2.80977E+01 1.40710E+01 1.30702E+03 2.32127E+01-8.89321E+01
 -1      1640 1.06695E+04-3.34358E+01 7.11878E+00 2.37621E+03 7.25376E+00-1.96082E+01
 -1      1641 1.73016E+04 3.13453E+01-4.65333E+01 1.28196E+03 2.44242E+01-9.55611E+01
 -1      1642 1.60632E+04-3.36836E+01-6.28397E+01 1.25770E+03 1.92791E+01-2.25475E+01
 -1      1643 9.83040E+03 1.25901E+00-9.11976E+00 2.29554E+03 4.45538E+01-6.41198E+01
 -1      1644 1.55901E+04-3.86489E+01 1.32881E+01 1.26456E+03 5.16888E+00-2.22985E+01
 -1      1645 1.45981E+04-1.08118E+01-7.86516E+00 1.25227E+03-4.98893E-01-1.42478E+01
 -1      1646 8.75906E+03-6.36898E+01 9.48228E+00 2.22112E+03-1.20080E+01-1.01146E+01
 -1      1647 1.41325E+04-2.42701E+01 4.05222E+01 1.17453E+03-4.60934E+00 4.31498E+00
 -1      1648 1.30395E+04-2.79669E+01 6.37631E+01 1.16934E+03-2.20757E+01-7.21436E+01
 -1      1649 8.00021E+03 5.37625E+01 4.01206E+01 2.14170E+03 9.84422E+00 1.09115E+01
 -1      1650 1.26097E+04-1.00792E+01-1.13210E+01 1.15750E+03-9.87216E+00-7.58643E+01
 -1      1651 1.16116E+04 3.62981E+00-3.12847E+01 1.11331E+03-6.08443E-01-1.29479E+01
 -1      1652 7.12551E+03-3.05603E+01 2.06640E+01 2.06813E+03-3.90708E+01-5.61732E+01
 -1      1653 1.12097E+04 1.35303E+01 6.35614E+01 1.10075E+03-2.18507E+01-2.87359E+01
 -1      1654 1.02612E+04-1.79200E+01 2.81272E+01 1.11169E+03 1.21786E+01-7.53272E+01
 -1      1655 6.37881E+03-1.56231E+01-5.72799E+00 1.97687E+03-1.08130E+01 9.50610E+00
 -1      1656 9.80896E+03 5.13428E+00-4.46963E+01 1.03534E+03 2.44973E+01-6.46347E+01
 -1      1657 8.81803E+03-1.03426E+00-2.27336E+01 1.01889E+03 2.29908E+00-5.87002E+00
 -1      1658 5.59895E+03-2.03237E+01-1.30384E+01 1.90077E+03 3.19394E+01-5.02979E+01
 -1      1659 8.46628E+03 2.04500E+01 3.56250E+01 1.00163E+03-7.50620E+00-4.34330E+01
 -1      1660 7.56609E+03-1.35246E+01 1.92464E+01 9.84883E+02-2.35657E+00-6.02374E+01
 -1      1661 4.77794E+03-7.63736E+01-2.30354E+01 1.79051E+03-7.86521E+00-3.47606E+00
 -1      1662 7.21140E+03-9.23339E+00 1.31076E+01 9.31958E+02-8.42675E+00-5.14020E+01
 -1      1663 6.38511E+03-2.39213E+01-7.19663E+00 9.13776E+02 1.21135E+01-4.20355E+01
 -1      1664 4.07031E+03-3.72411E+01-1.49825E+01 1.71800E+03-1.68894E+01-6.06942E+00
 -1      1665 6.04450E+03-7.74035E+00-9.58659E+00 8.65946E+02 4.63707E+00-4.74026E+01
 -1      1666 5.25956E+03-2.24301E+01-1.77047E+01 8.46577E+02 7.25762E+00-1.69807E+01
 -1      1667 3.50286E+03-1.54692E+01 1.24891E+01 1.60399E+03 1.22733E+01-8.15915E-01
 -1      1668 4.93788E+03-3.12833E+01 2.78817E+01 7.86293E+02-3.44275E+00-1.11746E+01
 -1      1669 4.27533E+03-1.51644E+01 1.25187E+01 7.79409E+02 5.96890E+00-3.10014E+01
 -1      1670 2.84788E+03-4.80631E+01 1.18618E+01 1.45758E+03-1.36743E+01 1.08287E+01
 -1      1671 3.98854E+03-1.66564E+01 3.82534E+00 7.12057E+02 1.54195E+00-3.96551E+01
 -1      1672 3.34660E+03-2.60338E+01 6.20723E+00 7.01404E+02 1.06953E+01-4.29174E+01
 -1      1673 2.32352E+03-3.69806E+01 4.82064E+00 1.34180E+03 1.36125E+01-4.24956E+00
 -1      1674 3.11365E+03-5.45184E+00-1.30420E+00 6.27892E+02 6.64610E+00-4.27745E+01
 -1      1675 2.52075E+03-3.07882E+01 8.85757E+00 6.06732E+02 4.46829E-01-3.95912E+01
 -1      1676 1.82498E+03-3.81603E+01 4.88472E-01 1.19407E+03 1.76188E+01-1.60849E+01
 -1      1677 2.30492E+03-9.88256E+00 8.91193E-01 5.60416E+02-1.20264E+00-4.16504E+01
 -1      1678 1.80481E+03-2.01361E+01-1.57661E+01 5.34176E+02 8.94595E+00-8.15333E+00
 -1      1679 1.38117E+03-4.40534E+01-2.22467E+00 1.04957E+03-7.18362E+00-2.23179E+01
 -1      1680 1.61444E+03-3.27570E+01 2.44129E+01 4.64004E+02-1.96183E+00-4.92347E+00
 -1      1681 1.24114E+03-2.25393E+01 1.25910E+01 4.50138E+02 7.66823E+00-2.01739E+01
 -1      1682 9.91546E+02-5.28535E+01 4.36620E+00 8.88962E+02-6.21929E+00 8.75439E-01
 -1      1683 1.08280E+03-1.25497E+01-7.34552E+00 3.72474E+02 9.80614E+00-2.76199E+01
 -1      1684 7.21424E+02-2.90070E+01-7.25110E+00 3.47352E+02 6.93475E+00-7.91600E+00
 -1      1685 7.12393E+02-3.68268E+01-8.55182E-01 7.29530E+02 1.84206E+01-1.61424E+01
 -1      1686 6.04417E+02-3.07754E+01 1.32707E+01 2.83053E+02 2.23512E-01-1.51288E+00
 -1      1687 4.03420E+02-1.61572E+01 1.09543E+01 2.49082E+02 5.03610E+00 2.47507E+00
 -1      1688 4.15335E+02-5.97405E+01-8.19332E-02 5.56728E+02 6.67428E-01-7.69079E+00
 -1      1689 2.74078E+02-2.97426E+01 1.20834E+01 1.74532E+02-9.11305E-01 5.00027E+00
 -1      1690 1.46789E+02-2.01020E+01 1.07262E+01 1.38142E+02-4.07079E+00 2.24400E+00
 -1      1691 2.36224E+02-3.72542E+01 5.28081E+00 3.77050E+02 5.36003E+00 5.47417E+00
 -1      1692 1.21310E+02-3.73004E+01 4.01219E+00 1.77349E+02 1.75464E+00 5.36151E+00
 -1      1693-6.72794E+04 5.75280E+02 5.22221E+02 4.34056E+02-2.30577E+02 5.54196E+02
 -1      1694-6.79893E+04-5.71111E+02-7.67939E+02-3.98993E+02 4.18426E+02 5.23240E+02
 -1      1695-5.44496E+04 1.00209E+03 1.03741E+03 4.29688E+01-5.62703E+02 1.05456E+03
 -1      1696-6.63777E+04 1.21837E+02 1.84247E+01 1.14488E+03-3.11845E+01 1.64707E+02
 -1      1697-6.74315E+04 1.25314E+02 3.55859E+01 9.11726E+02 1.44472E+01 1.22755E+02
 -1      1698-4.87757E+04 3.08203E+02 1.23287E+02 1.54932E+03-1.41806E+02 2.58495E+02
 -1      1699-6.40108E+04-1.42097E+01 1.72867E+01 1.31033E+03 2.84230E-01 9.86184E+00
 -1      1700-6.56429E+04 2.93980E+01 5.05520E+01 1.27521E+03 1.36658E+01 8.05772E+01
 -1      1701-4.79813E+04 9.29556E+01 1.35075E+01 2.24875E+03-1.68759E+01 8.51151E+01
 -1      1702-6.10207E+04-2.87755E+01-1.10280E+01 1.39341E+03 3.73811E+00-2.89402E+01
 -1      1703-6.28105E+04 3.26345E+00 1.55832E+01 1.38314E+03-1.38362E+01 6.17152E+00
 -1      1704-4.60999E+04 5.31102E+01 4.30378E+01 2.45556E+03-2.00001E+01-3.05501E+01
 -1      1705-5.78982E+04-2.29150E+01-6.11355E+00 1.39477E+03-2.95891E+00 2.27369E+00
 -1      1706-5.97005E+04-1.08941E+01-1.16585E+01 1.39924E+03-6.64012E+00-7.01895E-02
 -1      1707-4.37226E+04 5.19391E+01 2.62260E+01 2.52718E+03-1.99895E+01-4.63129E+01
 -1      1708-5.51244E+04 1.26010E+01-1.69777E+01 1.40028E+03 1.93325E+01 2.45792E+01
 -1      1709-5.70186E+04-1.41037E+01-4.37582E+01 1.38230E+03-1.88528E+01-7.33567E+00
 -1      1710-4.17172E+04-2.08737E+01 3.12329E+01 2.52514E+03 7.01569E+00-4.16648E+01
 -1      1711-5.20873E+04 2.68313E+01-3.50083E+00 1.38830E+03 3.60854E+01 2.36924E+01
 -1      1712-5.39981E+04-3.66830E+00-2.91949E+00 1.36305E+03-1.02703E+01 1.37575E+01
 -1      1713-3.97865E+04 2.61939E+01 1.41894E+01 2.51813E+03 7.65093E+00-3.80037E+00
 -1      1714-4.89993E+04 1.68487E+01 4.89805E+01 1.33846E+03 2.34616E+01-1.73236E+01
 -1      1715-5.09120E+04-2.24889E+01 6.25381E+01 1.36849E+03 1.35161E+01 1.40257E+01
 -1      1716-3.76202E+04 1.51055E-01 2.77446E+01 2.48471E+03 4.07730E+01-5.70712E+00
 -1      1717-4.61556E+04-3.55739E-01 1.42506E+01 1.36095E+03 4.93804E+00-3.43899E+01
 -1      1718-4.79400E+04 2.47228E+01 1.92734E+01 1.34478E+03 2.74249E+00 3.27350E+00
 -1      1719-3.54768E+04 4.57117E+01-3.80046E+01 2.45048E+03-4.92316E+00-4.51141E+01
 -1      1720-4.32009E+04 7.73464E+00 3.31029E+00 1.34322E+03 1.09712E+01 8.97252E+00
 -1      1721-4.49810E+04 2.63028E+01-2.13848E+01 1.30282E+03-7.26240E+00 1.44118E+00
 -1      1722-3.33231E+04 3.41318E+01-4.20480E+01 2.42768E+03-2.04170E+01-5.42600E+01
 -1      1723-4.01787E+04 2.39308E+01-3.99041E+00 1.33322E+03 3.38964E+01 2.65632E+01
 -1      1724-4.20011E+04 1.59330E+00 1.00515E+01 1.32185E+03-1.38570E+01 1.42171E+01
 -1      1725-3.10962E+04 1.26646E+01 1.41485E+01 2.44071E+03 1.81714E+01-2.51881E+01
 -1      1726-3.72893E+04-1.63657E+01 1.74480E+01 1.25714E+03 6.14026E+00-2.83843E+01
 -1      1727-3.90935E+04-1.09233E+01 5.87479E+01 1.28968E+03 1.75983E+01 7.92232E+00
 -1      1728-2.88987E+04 8.42686E+00 2.80615E+01 2.37749E+03 3.49529E+01-8.83075E+00
 -1      1729-3.45195E+04-1.73162E+01-4.69537E+00 1.27458E+03 4.58982E+00-2.67740E+00
 -1      1730-3.61946E+04-2.35152E+00-1.21659E+01 1.29187E+03-1.88822E+00-4.66374E+00
 -1      1731-2.68155E+04 5.99403E+01 1.64307E+01 2.33151E+03-7.96152E+00-6.07949E+01
 -1      1732-3.17611E+04-1.28315E+01-1.81175E+01 1.24552E+03 5.94833E+00-2.79405E+01
 -1      1733-3.34691E+04 6.53360E+00 5.60018E+00 1.25699E+03-8.78586E+00-3.02219E+01
 -1      1734-2.47953E+04-1.24278E+01 5.38813E+01 2.29960E+03 2.30538E+01-5.33993E+01
 -1      1735-2.90195E+04-2.77879E+00 6.55187E+00 1.24346E+03 1.68837E+01-1.85871E+01
 -1      1736-3.06589E+04-1.79399E+01 5.34916E+00 1.23863E+03-1.79312E+01 9.88571E+00
 -1      1737-2.28122E+04 3.34757E+01 1.43474E+01 2.25583E+03-6.92241E+00-2.74705E+01
 -1      1738-2.62425E+04 1.47145E+01 2.51562E+00 1.21979E+03 1.30528E+01 7.45360E+00
 -1      1739-2.78273E+04 3.31064E+01-2.02657E+01 1.18764E+03-5.49064E+00 1.61626E+00
 -1      1740-2.06435E+04 5.01028E+01-2.10348E+01 2.21595E+03-1.59198E+01-3.36405E+01
 -1      1741-2.36472E+04 2.83939E+01 4.65190E+00 1.17560E+03 2.40318E+01 2.28240E+01
 -1      1742-2.52500E+04 8.22924E+00 7.05336E+00 1.17468E+03-7.78379E+00 1.44314E+01
 -1      1743-1.86195E+04 2.87937E+01 1.83183E+01 2.17904E+03 1.72769E+01-2.31046E+01
 -1      1744-2.11338E+04 2.45258E+01 2.95166E+01 1.11510E+03 1.67226E+01 1.09336E+00
 -1      1745-2.26956E+04-7.23219E+00 3.32325E+01 1.14358E+03 2.54537E+00 1.66566E+01
 -1      1746-1.67873E+04 1.62139E+01 4.32749E+00 2.09769E+03 2.89491E+01-6.93546E+00
 -1      1747-1.89303E+04 2.78754E+01 8.62294E+00 1.07162E+03 8.11193E+00-8.75753E-01
 -1      1748-2.03472E+04 3.63927E+01-1.17447E+00 1.08184E+03 2.22744E+00 6.27656E+00
 -1      1749-1.51271E+04 5.86788E+01-1.85428E+01 2.00579E+03-7.54438E+00-3.33344E+01
 -1      1750-1.65839E+04 3.30018E+00-2.17467E+00 1.00347E+03-2.48077E+00-3.27774E+00
 -1      1751-1.79604E+04 3.61095E+01-2.81801E+00 1.01736E+03 1.26363E+01-2.18442E+01
 -1      1752-1.34878E+04 4.01015E+01-9.20805E+00 1.91086E+03 1.19889E+01-3.90929E+01
 -1      1753-1.43657E+04 2.84990E+01-9.42705E+00 1.00070E+03 1.69400E+01 1.92556E+01
 -1      1754-1.57022E+04 9.30198E+00-3.22531E+01 1.00141E+03-1.31426E+01-8.70715E+00
 -1      1755-1.17257E+04 1.17000E+01 3.26342E+01 1.81974E+03 1.48790E+01-2.47557E+01
 -1      1756-1.22884E+04 3.12859E+01 2.83778E+00 9.30747E+02 1.83293E+01 1.99871E+01
 -1      1757-1.35696E+04 1.20047E+01-2.34711E+00 9.34589E+02 7.28825E-01 1.26249E+01
 -1      1758-1.00902E+04 5.18998E+01 1.30740E+01 1.76092E+03 1.05234E+01-4.83735E+00
 -1      1759-1.03585E+04 2.92707E+01 2.33994E+00 8.68874E+02 1.41884E+01 1.96555E+01
 -1      1760-1.15584E+04 1.28042E+01 5.22024E+00 8.77893E+02-1.60975E+00 1.57468E+01
 -1      1761-8.63620E+03 3.78916E+01 7.08170E-03 1.65281E+03 1.52074E+01-5.09429E+00
 -1      1762-8.57062E+03 3.05690E+01-4.18219E+00 8.14659E+02 2.23683E+01 1.47397E+01
 -1      1763-9.68226E+03 1.62735E+01-8.29745E-01 8.17192E+02-3.78875E+00 9.85299E+00
 -1      1764-7.26438E+03 4.25414E+01 3.07377E+00 1.54542E+03 7.56439E+00-8.94523E+00
 -1      1765-6.88445E+03 2.17461E+01 2.02887E+01 7.23290E+02 1.25787E+01-9.19763E+00
 -1      1766-7.92614E+03 2.66487E+00 3.22602E+01 7.54991E+02 1.01187E+01 1.03340E+01
 -1      1767-5.99271E+03 3.76553E+01 2.22936E+01 1.41771E+03 2.23313E+01-4.63881E+00
 -1      1768-5.43640E+03 2.65146E+01 1.41192E+00 6.68410E+02 3.69380E+00-6.43724E+00
 -1      1769-6.30698E+03 3.58372E+01-3.59855E+00 6.86514E+02-1.43732E+00-4.02715E+00
 -1      1770-4.81827E+03 6.06990E+01-1.05838E+01 1.28452E+03-3.97700E+00-2.94101E+01
 -1      1771-4.10846E+03 2.26997E+01-1.40269E+01 5.84222E+02 8.00450E+00-1.14448E+01
 -1      1772-4.88832E+03 3.56136E+01-1.87272E+00 6.03002E+02-4.74071E-01-1.74983E+01
 -1      1773-3.76285E+03 2.53137E+01-1.47984E+00 1.15452E+03 1.28354E+01-2.77983E+01
 -1      1774-2.94116E+03 1.44186E+01-7.63916E+00 5.01769E+02-5.13252E-01-1.54941E+01
 -1      1775-3.62539E+03 3.69388E+01 2.28473E-01 5.22902E+02 9.47700E-01-5.32370E+00
 -1      1776-2.81865E+03 6.54128E+01-1.15437E+01 1.01181E+03-9.02186E+00-2.20672E+01
 -1      1777-1.97122E+03 2.87564E+01-7.26927E+00 4.25999E+02 5.14787E+00 3.02819E+00
 -1      1778-2.53844E+03 2.01076E+01-1.09779E+01 4.49248E+02-6.50926E+00 2.39915E+00
 -1      1779-2.01687E+03 5.87725E+01 4.40858E+00 8.58529E+02-2.20551E+00-1.85961E+01
 -1      1780-1.17720E+03 2.50947E+01-7.43990E+00 3.31318E+02 4.44485E+00-6.43287E+00
 -1      1781-1.62914E+03 3.31385E+01-4.15292E+00 3.53925E+02-1.73165E+00-9.95814E+00
 -1      1782-1.32326E+03 5.04475E+01 3.81798E+00 7.13785E+02 5.95744E+00-8.55060E+00
 -1      1783-5.87198E+02 2.90907E+01-5.94418E+00 2.38068E+02 6.36682E+00-3.27818E+00
 -1      1784-9.15005E+02 3.58629E+01-7.43719E+00 2.62958E+02-6.65890E-01-2.91512E+00
 -1      1785-7.87160E+02 6.79693E+01 1.04292E+00 5.44186E+02-2.56686E+00-8.73907E+00
 -1      1786-1.92012E+02 2.57927E+01-8.61633E+00 1.36779E+02 3.08785E+00-1.94145E+00
 -1      1787-3.89037E+02 3.46368E+01-7.35825E+00 1.65791E+02-1.04675E+00-4.68149E+00
 -1      1788-3.74368E+02 5.61473E+01 3.41522E+00 3.69908E+02 7.59872E+00-2.59412E+00
 -1      1789-1.45760E+02 4.85282E+01 1.58775E+00 1.79668E+02 2.52302E+00 1.39509E+00
 -1      1790 1.18600E+03-1.51149E+01-1.95552E+01 2.04758E+03-1.34469E+00-5.58174E+01
 -1      1791 8.58835E+02-1.45079E+01-2.42218E+01 2.01075E+03-2.45991E+01-8.28886E+00
 -1      1792 1.10191E+03 7.81570E+00 1.31912E+01 1.95350E+03-1.80772E+00-8.10189E+00
 -1      1793 7.78174E+02-7.28624E+00-1.29502E+01 1.92359E+03-1.68629E+01 2.63040E+01
 -1      1794-2.42808E+03 3.50376E+00 1.64541E+01 2.17967E+03-3.94128E+00-1.51647E+01
 -1      1795 5.57895E+02 5.01081E+00 9.19509E+00 1.41550E+03 5.92360E+00-2.90187E-01
 -1      1796 3.42884E+02-5.01482E+00 2.87603E+00 1.31848E+03 1.35140E+01 1.97342E+00
 -1      1797 6.75671E+02-1.90154E+01 1.47463E+01 1.56730E+03 2.53268E+01 2.32677E+01
 -1      1798 3.95339E+02-4.08229E+01-5.23726E+00 1.48015E+03 3.07192E+00 5.07455E+00
 -1      1799-1.10932E+03 4.27034E+00-1.17553E+01 1.57675E+03 6.09374E+00-2.90459E+01
 -1      1800-1.08198E+03 3.01131E+01 5.93315E+00 9.58994E+02-1.24728E-01-1.71838E+01
 -1      1801-1.45213E+03 1.87810E+01-5.01928E+00 1.03840E+03-1.15867E+00-1.51080E+01
 -1      1802-1.53763E+03 3.11805E+01 1.30734E+01 1.13943E+03 9.24537E+00-8.19224E+00
 -1      1803-2.03507E+03-2.76374E+00-7.17966E+00 1.19397E+03 3.99778E-01-1.65429E+01
 -1      1804-6.04837E+02-3.50944E+00 9.37923E+00 1.21071E+03 6.07620E+00-8.70003E+00
 -1      1805 1.48146E+02-2.23033E+01-4.67779E+00 6.70169E+02 7.33744E+00-2.09387E+01
 -1      1806 7.63039E+01-1.12552E+01-2.22250E+00 5.88612E+02 2.23489E+00-9.94656E+00
 -1      1807 1.44824E+02-1.34808E+01 4.34273E+00 4.90204E+02 1.05953E+01-5.10883E+00
 -1      1808-1.04844E+02 1.56788E+01 1.10920E+01 5.88745E+02 6.79691E+00-6.35664E+00
 -1      1809 4.54696E+01-1.58255E+01 2.13290E+00 3.84788E+02 1.73958E+00 1.38267E+00
 -1      1810 1.63061E+03 7.42334E+00 1.62628E+01 2.30590E+03-7.78807E+00-6.78681E+00
 -1      1811 1.22749E+03 1.87440E+00-9.85148E+00 2.25207E+03-2.41741E+01-6.02901E-04
 -1      1812 1.38066E+03-4.85470E+01-1.59039E+01 2.37667E+03-3.63668E+00-1.10690E+01
 -1      1813-3.76566E+03 2.38555E+00 9.19795E+00 2.56917E+03 2.35336E+00-2.79292E+01
 -1      1814 1.74139E+03-2.89059E+01 4.63526E+00 2.38976E+03-2.74347E+01-1.02508E+01
 -1      1815-4.26690E+03 2.17516E+01 5.09476E+00 1.73883E+03 3.03485E+00-3.51189E+01
 -1      1816-4.92605E+03 7.53719E+00-1.62146E+00 1.81255E+03-6.41816E-01-3.37756E+01
 -1      1817-3.48972E+03 4.95705E+01 1.28025E+01 1.60800E+03 3.73647E+01-3.15394E+01
 -1      1818-4.09004E+03 2.59770E+01-8.67212E+00 1.68143E+03 4.41404E+00-2.89056E+01
 -1      1819-1.73236E+03 1.06842E+01 1.54875E+01 1.90049E+03 6.08162E-01-1.54941E+01
 -1      1820 2.08143E+03-1.27453E+01-1.31938E+01 2.48957E+03-2.19991E+00-5.86645E+01
 -1      1821 1.70848E+03 1.55280E+01-9.13939E+00 2.52320E+03-1.63497E+01-3.65448E+01
 -1      1822 2.00873E+03 1.38396E+01 2.38597E+01 2.46844E+03 3.51226E+01-2.52015E+01
 -1      1823 1.66305E+03 2.21855E+01 3.07119E+01 2.38773E+03-6.67939E+00-5.82655E+01
 -1      1824-4.67251E+03-2.37024E+00 1.54617E+01 2.74296E+03-4.60823E+00-1.14067E+01
 -1      1825-2.70237E+04 8.88233E+00 1.50485E+01 2.94977E+03-3.95246E+01-4.51193E+01
 -1      1826-2.82282E+04-1.97280E+01-2.16206E+01 2.93207E+03-2.98530E+01-2.75214E+01
 -1      1827-2.59349E+04 7.96030E-01 7.66072E+00 2.88964E+03 5.09964E+00-3.86402E+01
 -1      1828-2.67222E+04-2.02767E+01-1.72988E+01 2.94873E+03 2.21955E+00-2.54436E+01
 -1      1829-1.12160E+04-1.53253E+01-2.14917E+01 3.28923E+03 3.90729E+00-3.11600E+01
 -1      1830 4.18044E+03 2.98358E+01 2.91054E+01 2.94478E+03 3.89594E+01-2.91459E+01
 -1      1831 3.76387E+03 3.70764E+01 2.76118E+01 2.88800E+03-1.48466E+01-7.26100E+01
 -1      1832 4.29402E+03-7.17976E+00-2.18620E+01 2.89429E+03-1.85322E+00-6.67377E+01
 -1      1833 3.82116E+03 2.11573E+01-1.21141E+01 2.97188E+03-2.02497E+01-4.10654E+01
 -1      1834-1.02022E+04 4.88176E-01 1.94011E+01 3.25423E+03-5.56339E+00-1.46366E+01
 -1      1835 5.00117E+03-4.27605E+01-8.87315E+00 2.88589E+03-6.63871E+01-4.03079E+01
 -1      1836 4.58281E+03-5.02610E+01-1.73714E+01 3.01621E+03-2.49750E+01-1.84734E+01
 -1      1837 4.91866E+03-1.22003E+01 1.77235E+01 2.72944E+03-8.10607E+01-9.87477E+01
 -1      1838 5.38313E+03-1.15593E+02 7.05757E+01 2.58611E+03-1.08369E+02-1.21565E+02
 -1      1839-1.22815E+04 4.91199E+01-1.34684E+01 3.03924E+03-4.56497E+01-5.61290E+01
 -1      1840-1.77752E+04 1.53814E+01 2.29491E+01 2.78541E+03 4.11369E+01-5.68494E+01
 -1      1841-1.88307E+04-2.70261E+01-1.70239E+01 2.82345E+03-1.74712E+01-3.91244E+01
 -1      1842-1.91266E+04 4.35144E+00 1.48072E+01 2.80534E+03 3.20482E+00-5.38277E+01
 -1      1843-8.02022E+03-7.73786E+00 1.75493E+01 3.13310E+03-3.51105E+00-1.63885E+01
 -1      1844-2.02498E+04-1.11751E+01 7.34030E+00 2.85259E+03 1.70407E+01-6.38234E+01
 -1      1845 2.45666E+03-3.92590E+01 1.46160E+01 2.71949E+03 2.22861E+01 1.98698E+01
 -1      1846 2.07240E+03-5.16998E+01-1.69365E+01 2.68408E+03 2.38585E+00-2.92417E-01
 -1      1847 2.28868E+03 3.50980E+01-1.46942E+01 2.72535E+03-3.84715E+01 8.63024E+00
 -1      1848-6.35871E+03 2.84526E+01-1.35980E+01 2.95738E+03 3.66880E+00-2.28541E+01
 -1      1849 2.86648E+03 6.15928E+01 3.46458E+01 2.75958E+03-1.84497E+01-8.42714E+00
 -1      1850 3.88532E+03-2.17757E+01 9.28396E-01 2.93362E+03-3.74094E+01-1.17747E+01
 -1      1851 3.40857E+03-5.10840E+01-2.94725E+01 2.96687E+03-2.76239E-01-9.29682E+00
 -1      1852 3.60783E+03 1.42289E+00 1.74746E+01 2.91993E+03 7.56152E+00 1.16973E+01
 -1      1853 3.14638E+03-1.31090E+01-1.40665E+01 2.92436E+03-8.22479E+00 2.76929E+01
 -1      1854-9.12844E+03 6.06214E+00 2.15450E+01 3.21476E+03-4.81983E+00-5.12112E+01
 -1      1855-3.07012E+04-5.76718E+01-5.41244E+01 2.10735E+03-2.88473E+02 8.58877E+01
 -1      1856-3.13099E+04-1.11736E+02 5.60809E+01 1.51764E+03-4.06265E+02 1.25723E+02
 -1      1857-1.34761E+04-5.86111E+02 3.94242E+01 1.62916E+03-6.99888E+02-1.05690E+02
 -1      1858-3.14120E+04-3.50028E+02 5.23602E+02 9.49903E+02-6.52735E+02 3.75397E+02
 -1      1859-3.99817E+04 4.75903E+02 9.05189E+02-2.74721E+02-1.18025E+03 4.41309E+02
 -1      1860-2.30146E+04-1.62425E+03 1.52536E+02 7.26171E+01-1.10932E+03 7.62009E+01
 -1      1861-5.98531E+03 5.58657E+01 9.32743E+00 1.98527E+03 1.24345E+01-3.59863E+01
 -1      1862-6.79371E+03 9.44665E+00-1.23530E+01 2.06378E+03 1.47833E+01-5.32565E+01
 -1      1863-6.99250E+03 1.88852E+01 3.71623E+00 2.07739E+03 8.29540E+00-3.10363E+01
 -1      1864-7.84727E+03-9.21350E-01-1.37580E+01 2.15326E+03 7.90647E+00-2.03746E+01
 -1      1865-2.88542E+03-7.69226E+00 2.44742E+01 2.29870E+03 9.16645E+00-3.07394E+01
 -1      1866 2.71674E+02-5.10426E-01 9.75856E+00 8.89701E+02 9.16240E+00-2.02285E+00
 -1      1867 1.57680E+02-4.31481E+00 6.65935E+00 7.77572E+02 1.50137E+01-2.63965E+00
 -1      1868 3.46718E+02-1.92293E+01-5.31807E+00 1.05099E+03 7.53880E+00-1.53920E+00
 -1      1869 1.68626E+02-1.80703E+01-9.03774E+00 9.80596E+02-2.55851E+00-3.43063E+00
 -1      1870-3.98334E+02 8.48919E+00-8.39545E-01 1.01464E+03 3.96323E+00-1.61199E+01
 -1      1871-1.57766E+02 2.61312E+01 1.71268E+00 3.79695E+02 4.80750E+00-8.07233E+00
 -1      1872-3.25606E+02 2.72107E+01-5.84563E-01 4.80824E+02 1.08563E+01-9.03399E+00
 -1      1873-1.33188E+02 2.34661E+01 1.19616E+00 3.04319E+02 1.35586E+00-5.67271E+00
 -1      1874-4.61280E+01 4.32618E+00 1.56263E+00 3.99108E+02 1.19347E+00-6.54392E+00
 -1      1875-1.20832E+02 3.21877E+01 4.28126E+00 2.29772E+02 5.45714E+00-1.74297E+00
 -1      1876-4.54609E+01 1.25990E+01-3.86735E+00 2.54856E+02 2.76925E+00-2.70247E+00
 -1      1877-1.12739E+04 5.48475E+01 2.03625E+01 2.47773E+03 1.46152E+01-4.62861E+01
 -1      1878-1.22400E+04 1.65545E+01 3.45803E+00 2.54544E+03 3.39618E+01-7.25280E+01
 -1      1879-1.24721E+04 9.18931E+00 3.26965E+01 2.54500E+03-9.39343E+00-2.99955E+01
 -1      1880-1.36087E+04-2.10643E+01-1.55454E+01 2.54966E+03-7.87860E+00-3.27012E+01
 -1      1881-5.19407E+03-1.97509E+01 3.89357E+01 2.79891E+03 1.15693E+01-2.53081E+01
 -1      1882-3.68914E+02 3.25528E+01 8.33333E+00 5.82724E+02 9.39948E+00-7.09406E+00
 -1      1883-6.39647E+02 1.52779E+01-8.74945E-02 6.62265E+02 2.05971E+00-9.40080E+00
 -1      1884-6.79326E+02 3.47995E+01 7.20685E+00 7.56811E+02 6.97729E+00-1.16031E+01
 -1      1885-9.92483E+02 1.04124E+01-1.89358E+00 8.55708E+02 7.65590E+00-1.36879E+01
 -1      1886-2.61823E+02 4.36037E-01 7.73904E+00 7.83727E+02 1.56223E+00-8.93898E+00
 -1      1887-1.01397E+04 2.15521E+01 1.47919E+01 2.41416E+03 2.68411E+01-4.04832E+01
 -1      1888-1.10634E+04-1.12292E+01-8.22535E+00 2.47392E+03-1.27542E+01-3.93562E+01
 -1      1889-9.15975E+03 4.65551E+01 2.96332E+00 2.32302E+03 8.56121E+00-1.83483E+01
 -1      1890-9.91477E+03 3.73895E+01-5.48139E+00 2.31367E+03 1.48959E+00-3.71539E+01
 -1      1891-4.11823E+03 4.39728E+01-1.05172E+01 2.58128E+03 7.93026E+00-2.90388E+01
 -1      1892 3.34476E+03 3.99749E+01 4.84377E+01 2.82087E+03 3.15299E+01-1.19274E+01
 -1      1893 2.77296E+03 2.87552E+01 3.00638E+01 2.76930E+03-1.09746E+01-6.95037E+01
 -1      1894 2.87546E+03-2.55571E+01 2.93833E+00 2.79903E+03-3.31294E+01-1.05172E+01
 -1      1895 2.52172E+03-5.79246E+01-3.33449E+01 2.81887E+03-3.69639E+00-5.56355E+00
 -1      1896-7.29051E+03 5.43223E+01-1.07196E+01 3.00124E+03 8.23481E+00-3.57350E+01
 -1      1897-2.32073E+04 1.77764E+01 2.19504E+01 2.90531E+03 4.46874E+01-5.81564E+01
 -1      1898-2.43304E+04-3.08165E+01-2.02668E+01 2.94000E+03-1.92817E+01-4.87115E+01
 -1      1899-2.17959E+04 4.32956E+01 2.68104E+01 2.86666E+03-5.60213E+00-1.81206E+01
 -1      1900-2.28470E+04 1.45403E+01-3.61954E+00 2.80852E+03 7.26520E+00-3.70667E+01
 -1      1901-9.48064E+03 5.90211E+01-1.37657E+01 3.14197E+03 3.99234E+00-3.90166E+01
 -1      1902-1.64066E+04 4.01861E+01 1.29647E+01 2.71869E+03-2.40837E+01-3.71040E+01
 -1      1903-1.74597E+04 1.54907E+01 4.24445E-01 2.68911E+03 8.93696E+00-2.87611E+01
 -1      1904-1.61897E+04-9.46630E-01-1.03928E+00 2.71419E+03 6.87418E+00-3.45324E+01
 -1      1905-6.86585E+03 3.19417E+00 2.56179E+01 3.05216E+03 1.77725E-01-4.45997E+01
 -1      1906-1.51785E+04 4.11333E+01 2.80198E+01 2.62155E+03 2.09059E+01-2.16690E+01
 -1      1907-5.26628E+03-1.10130E+03 6.68819E+01-2.37799E+02-9.97908E+02-1.19766E+02
 -1      1908 1.23113E+04-2.08533E+03-9.20359E+02-7.69786E+02-1.24063E+03-4.05240E+02
 -1      1909 4.12633E+03-7.34545E+02-1.37311E+02 7.93250E+02-5.92858E+02-4.17606E+02
 -1      1910 2.23598E+01 2.35446E+00 8.58497E+00 2.57222E+02 3.79160E+00-1.03498E+00
 -1      1911 9.52402E+01-2.04091E+01 4.65334E+00 2.33443E+02 8.25949E+00-6.86924E-01
 -1      1912 8.28236E+01-6.38064E+00 8.40510E+00 3.10918E+02 3.25652E+00 1.64542E+00
 -1      1913-2.10875E+03 3.79765E+01 1.42343E+01 1.26760E+03 1.00098E+01-1.76525E+01
 -1      1914-2.62622E+03-2.82404E+00-5.16854E+00 1.36877E+03 1.44802E+01-2.10845E+01
 -1      1915-2.75673E+03 1.46837E+01 3.87025E+00 1.45780E+03-6.22553E-01-2.41085E+01
 -1      1916-3.31655E+03 1.71641E+01-1.11768E+00 1.48699E+03-4.95623E-01-2.69805E+01
 -1      1917 8.45038E+02 1.98121E+01 1.55818E+01 1.67227E+03 4.84060E+00-1.00446E+01
 -1      1918 5.05942E+02-8.11307E+00-2.39240E+01 1.63065E+03-4.22383E+00 2.05677E+00
 -1      1919 9.50116E+02 1.02306E+00 1.50125E+01 1.85625E+03 1.02436E+01 1.71014E+01
 -1      1920 6.08816E+02-3.13154E+01-6.59708E+00 1.76004E+03-8.08189E+00-9.70918E-01
 -1      1921 4.58957E+03 2.84556E+01 3.22460E+01 3.02655E+03 1.89345E+01-9.10047E+00
 -1      1922 4.26216E+03-2.68783E+01-6.12963E+00 2.97465E+03 5.74767E+01-9.56424E+00
 -1      1923 4.91326E+03-2.13291E+01 1.82989E+01 3.00624E+03 2.02578E+01 2.52379E-01
 -1      1924 4.23722E+03-2.02300E+01-1.41379E+00 2.98009E+03 1.15136E+01 2.51872E+00
 -1      1925-2.98938E+04-1.39058E+01 3.69566E+01 2.79237E+03-1.14319E+01-5.82510E+01
 -1      1926-3.07166E+04 1.58170E+00-3.16462E+01 2.58462E+03-9.92016E+01 2.42621E+01
 -1      1927-2.85032E+04 5.83949E+01 5.06755E+00 2.90619E+03-1.43906E+01-4.13325E+01
 -1      1928-2.96734E+04 2.53511E+01-2.12569E+01 2.80719E+03-1.89591E+01-4.61079E+01
 -1      1929-1.28416E+04-1.36402E+02 3.28719E+00 2.68409E+03-3.21670E+02-2.96647E+01
 -1      1930 5.01541E+03-2.29654E+02 2.24220E+01 2.16180E+03-3.32250E+02-1.90493E+02
 -1      1931 4.71253E+03-4.51429E+02 2.68441E+01 1.40007E+03-3.81097E+02-1.78329E+02
 -1      1932 1.45697E+03-7.03355E+00 6.61634E+00 2.22229E+03 1.30797E+01-1.22807E+01
 -1      1933 1.12432E+03-2.19592E+01-5.24820E-02 2.13943E+03 3.96961E+01-7.04479E+00
 -1      1934-3.28187E+03-1.03177E+01-1.59441E+01 2.44788E+03 3.02117E+00-3.14529E+01
 -1      1935-8.95287E+03 1.62179E+01 5.25893E-01 2.26640E+03 3.20716E+01-3.02802E+01
 -1      1936-8.07959E+03 3.27165E+01 3.09610E+01 2.20557E+03 1.44956E+01-2.36390E+01
 -1      1937 4.05398E+02-2.84835E+01 8.99784E+00 1.23422E+03 8.47847E+00 5.67183E+00
 -1      1938 2.37629E+02-1.68338E+01 7.05135E-01 1.15966E+03 2.74915E+00-1.26602E+00
 -1      1939-8.59296E+02-4.42865E+00 9.43790E+00 1.36700E+03-9.38788E-01-1.59054E+01
 -1      1940-5.12679E+03 3.34543E+01 3.44329E+00 1.87234E+03 8.76802E+00-3.66449E+01
 -1      1941-5.81473E+03 2.37113E+01-7.05333E+00 1.94090E+03 5.69496E+00-3.91896E+01
 -1      1942-2.06677E+03 8.36108E+00 1.21159E+01 2.05727E+03-1.00040E+00-2.49605E+01
 -1      1943 2.43834E+03-6.93264E+00 2.37709E+01 2.65404E+03 1.84620E+01-7.13309E-02
 -1      1944 2.01085E+03-4.00829E+01-2.33589E-01 2.59460E+03 5.63549E+01-1.02171E+01
 -1      1945-5.74495E+03-1.16526E+01-2.07103E+01 2.91869E+03 9.40486E+00-4.25544E+01
 -1      1946-1.50090E+04-2.90202E+01-2.59748E+01 2.60348E+03-1.71197E+01-1.99504E+00
 -1      1947-1.39057E+04 5.71005E+01 2.73542E+01 2.61182E+03-1.23898E+01-3.78520E+01
 -1      1948 3.42569E+03 2.47078E+00 1.70591E+01 2.88441E+03 1.59645E+01 1.51346E+01
 -1      1949 2.90343E+03-1.91091E+01-2.25220E+00 2.85335E+03-6.32121E+00-1.88319E+01
 -1      1950-8.57307E+03-1.12811E+01 4.25415E+01 3.17888E+03-4.42450E+00-2.55581E+01
 -1      1951-2.16834E+04-8.19203E+00 1.75818E+00 2.84179E+03 4.14919E+00-4.82895E+01
 -1      1952-2.05643E+04 6.40229E+00 2.23279E+01 2.85227E+03-6.64421E+00-3.66634E+01
 -1      1953-1.07526E+04-2.18308E+01 3.73705E+01 3.23913E+03 1.50765E+01-3.42584E+01
 -1      1954-2.45835E+04 5.44064E+01 2.42222E+01 2.90969E+03 1.92548E+01-5.67483E+01
 -1      1955-2.57022E+04 2.02492E+00-1.29840E+01 2.93955E+03 1.91137E+01-7.24118E+01
 -1      1956-1.18582E+04-7.24510E-01 4.53391E+00 3.27910E+03-1.10830E+01-5.47905E+01
 -1      1957-1.37674E+03 2.91697E+01-1.19117E+01 1.73001E+03 1.29042E+01-1.36709E+01
 -1      1958 9.36244E+03-2.20006E+01-5.73934E+00 1.68439E+03-4.40590E+00-1.46228E+01
 -1      1959 4.27480E+03-3.58057E+01 1.24043E+00 1.24921E+03-2.02191E+00-2.22774E+01
 -1      1960-1.19271E+03 3.30320E+01 7.61862E+00 9.61093E+02-3.80478E+00-9.36053E+00
 -1      1961 5.98334E+02-4.86009E+01 3.91917E+00 4.48619E+02-4.14866E+00-8.95508E+00
 -1      1962 1.41817E+04-4.78157E+01 2.03508E+00 1.98288E+03-6.21801E+00-8.53429E+00
 -1      1963-3.15909E+03 2.93657E+01 6.42476E+00 1.50315E+03-2.54834E+00-1.27591E+01
 -1      1964 1.77007E+04-3.93253E+01 8.52483E+00 2.11510E+03-2.69921E+00-1.88175E+01
 -1      1965-2.00313E+04 1.20319E+01-4.98965E+01 2.64521E+03 2.09913E+01-9.38718E+00
 -1      1966 3.81127E+04-3.70700E+01 1.63478E+01 2.52076E+03 1.23507E+01-3.98705E+01
 -1      1967 4.71511E+04-2.17311E+01-3.10737E+00 2.36340E+03 1.83931E+01 1.35180E+01
 -1      1968-1.39750E+04 1.30219E+00-4.67417E+00 2.48539E+03 8.17770E+00 8.04683E+00
 -1      1969-1.11068E+04 2.38376E+01-3.26058E+01 2.40302E+03 1.20099E+01 1.31824E+01
 -1      1970-1.60003E+04-2.96567E+00 1.65977E+01 2.53560E+03-5.34202E+00-2.11489E+01
 -1      1971-2.17107E+04 1.26104E+03 5.78597E+02 4.49478E+02 3.85207E+02-9.27073E+02
 -1      1972-5.18577E+03 3.55439E+01 1.54088E+01 1.82247E+03-7.24530E+00-1.44998E+01
 -1      1973 1.64369E+03-5.85246E+01 6.60841E+00 7.89262E+02-3.93681E-01-9.59326E+00
 -1      1974-1.74897E+02 3.71744E+01-5.80088E+00 2.72785E+02-2.53600E+00 5.45730E-01
 -1      1975-9.32645E+03 2.75504E+01 2.99678E+01 2.18085E+03-1.94677E+01-3.03516E+01
 -1      1976-5.50174E+02 4.19846E+01-7.72449E+00 6.35626E+02-9.61525E-01-2.35542E+00
 -1      1977-7.45330E+03-3.29733E+00-2.76555E+01 2.07651E+03 1.54816E+01-2.28861E+01
 -1      1978 2.75536E+04-5.80046E+00-1.29127E+01 2.33473E+03-2.59019E+01-4.05369E+01
 -1      1979 2.17835E+04-9.34784E+00 4.69847E+00 2.19592E+03-8.73405E+00-2.01696E+01
 -1      1980 3.16479E+04-3.40580E+01 1.55843E+01 2.46584E+03 3.07080E+00-3.83489E+01
 -1      1981 3.25742E+04 7.77520E+02-2.94947E+03-5.63963E+02 9.01093E+02-2.16444E+02
 -1      1982 3.29970E+01-2.49238E+01 1.33353E-02 1.86679E+02-1.53606E+00 1.25930E+00
 -1      1983-2.05368E+03 4.48910E+01-9.76924E+00 1.25233E+03-2.47107E+00-4.60051E+00
 -1      1984 6.59285E+03-4.54354E+01 6.83047E+00 1.46546E+03 5.56039E+00-1.69073E+01
 -1      1985-1.79031E+04 1.47853E+01-1.67638E+00 2.64248E+03-1.30950E+00-4.58965E+00
 -1      1986 4.24637E+04-2.66437E+01 1.20732E+01 2.53410E+03 1.25554E+01-3.57528E+01
 -1      1987-2.22517E+04 1.43408E+01 3.28479E+00 2.43997E+03 2.68303E+01-5.26213E+01
 -1      1988-2.24270E+04 3.18123E+02 4.91298E+01 2.06390E+03 8.14696E+01-2.68244E+02
 -1      1989 1.38915E+04 2.20109E+02-1.69575E+01 2.13272E+03 5.23412E+02-4.79017E+00
 -1      1990-3.34613E+02 4.40212E+01-5.37896E+00 4.63458E+02-3.45032E+00-2.13731E-01
 -1      1991 1.08812E+04-2.88859E+01-2.97313E+00 1.76631E+03-1.66931E-01-1.25076E+01
 -1      1992 1.25275E+04-1.63832E+01-4.02285E+00 1.85087E+03 6.80224E+00-1.71202E+01
 -1      1993 3.45597E+03-4.44809E+00-2.93598E+00 2.44638E+03-3.04047E+00-3.00809E+01
 -1      1994 3.26369E+03-4.69295E+01 3.33427E+00 1.07222E+03 7.13081E-01-1.32777E+01
 -1      1995 1.96660E+04-2.23045E+01 1.54701E+01 2.21106E+03 8.93282E+00-3.22684E+01
 -1      1996-3.79695E+03 2.90326E+01-1.02855E+00 1.65336E+03-3.80373E+00 1.48521E+01
 -1      1997-8.16481E+02 5.07434E+01-1.63225E+01 8.20996E+02-1.07671E+00 8.59227E+00
 -1      1998-1.60716E+03 3.60509E+01 4.30648E-01 1.09199E+03-5.82726E+00-9.42570E+00
 -1      1999 2.96005E+04-1.95484E+01 7.92698E+00 2.40772E+03 3.91898E+00-1.79359E+01
 -1      2000-1.29586E+04-9.78843E+00-5.42266E+01 2.38901E+03 3.24021E+01-4.81599E+01
 -1      2001-1.22709E+04 5.44174E+00 2.47364E+01 2.38644E+03-1.43415E+01-1.53675E+00
 -1      2002 6.65642E+03-1.16427E+01-8.77246E+00 2.98478E+03-6.70646E+00-2.83263E+01
 -1      2003 3.60370E+04-5.11396E+00-1.49767E+01 2.44439E+03-2.71811E+01-3.59830E+01
 -1      2004 3.37960E+04-1.17194E+01-1.15258E+01 2.51223E+03 4.80272E+00-3.51355E+01
 -1      2005 1.05623E+03-4.63535E+01 9.82461E-01 6.03323E+02-6.15602E+00-8.50468E+00
 -1      2006-1.02987E+04 2.75103E+01-1.94723E+01 2.28918E+03 1.97190E+00-1.61971E+01
 -1      2007-1.69012E+04-1.24720E+01-4.13377E+01 2.49141E+03 3.23168E+01-3.20727E+01
 -1      2008-8.38284E+03 1.59921E+01 1.03493E+00 2.24935E+03-1.82021E-03-2.44162E+01
 -1      2009 4.03377E+04 4.41345E+00-2.06923E+01 2.51233E+03 8.12915E-01-1.81189E+01
 -1      2010-2.14295E+04-3.28676E+00 2.82612E+01 2.57947E+03-1.02451E+01-7.06997E+00
 -1      2011 4.49123E+04-3.21434E+01-2.64150E+01 2.49411E+03 7.76186E-01-7.33576E+00
 -1      2012-1.90794E+04 3.60724E+01 5.92853E+01 2.53521E+03-2.82998E+01-5.75213E+01
 -1      2013 5.41778E+03-2.98791E+01-7.53761E+00 1.31411E+03-9.71887E+00-2.63546E+01
 -1      2014-1.50201E+04-1.36213E+00 3.59860E+01 2.56601E+03-1.18790E+01 1.21874E+01
 -1      2015 7.96171E+03-2.58035E+01-1.11354E+01 1.60572E+03-1.02913E+01-2.04376E+01
 -1      2016 1.59254E+04-1.96874E+01 5.31502E+00 2.02212E+03-6.85612E+00-1.11259E+01
 -1      2017 2.38311E+03-5.05681E+01-1.00655E+01 9.24204E+02-5.22535E+00-5.89829E+00
 -1      2018-2.53584E+03 4.22526E+01-2.14952E+01 1.40658E+03 1.19803E+00 2.00946E+01
 -1      2019-4.40792E+03 2.98454E+01-1.10624E+01 1.74145E+03 8.28975E-01 2.22710E+00
 -1      2020 1.28292E+04 3.26816E+01 5.27697E+00 2.98897E+03 1.23616E+02-4.29974E+01
 -1      2021 4.90571E+04-1.96684E+02 1.60863E+01 1.97073E+03 1.05570E+02 1.42940E+02
 -1      2022-4.50136E+03 1.17670E+03-3.87401E+01-1.47347E+03 7.86261E+02-2.48414E+01
 -1      2023-6.90712E+03 7.01434E+00 1.02812E+01 2.00735E+03-2.64383E+00 1.69218E+01
 -1      2024-6.03979E+03 2.78992E+01-3.42629E+01 1.92320E+03 1.17514E+00-1.36402E+01
 -1      2025 6.02998E+03-8.13817E-01 3.67162E+00 2.93105E+03 7.70729E+00-2.96468E+01
 -1      2026 2.58352E+04-1.43982E+01 8.70579E+00 2.33126E+03 4.62115E+00-2.28155E+01
 -1      2027 8.60489E+01-1.03478E+01-4.03483E+00 4.85150E+02-1.82040E+00-5.77016E+00
 -1      2028 1.65660E+02-6.05621E+00-9.49818E+00 6.90042E+02-7.25327E+00-9.82218E+00
 -1      2029 1.22300E+03 2.19577E+00-9.09161E+00 1.62481E+03-9.07285E+00-2.41451E+01
 -1      2030 1.54549E+03-3.05992E+01 7.27498E+00 1.82165E+03-8.16481E+00-1.91124E+01
 -1      2031 1.90523E+03-9.30794E+00-5.17495E+00 1.96337E+03 2.64065E+00-1.57884E+01
 -1      2032 3.08865E+02-8.43853E+00 1.96178E-02 9.10316E+02-1.51843E+00-6.99790E+00
 -1      2033 7.49373E+02-7.93072E+00-4.85413E+00 1.29586E+03-1.14146E+01-1.69116E+01
 -1      2034 4.37604E+03-7.90214E+00-1.35256E+01 2.65561E+03-4.53609E-01-3.53199E+01
 -1      2035 2.67025E+03-1.00664E+01-4.14616E+00 2.21953E+03-4.75598E+00-2.79621E+01
 -1      2036 5.48518E+03 3.70104E+01-9.11763E+00 2.85672E+03-1.52668E+01-2.47100E+01
 -1      2037 1.04624E+04-5.75850E-01 7.01344E+00 3.19550E+03 1.47776E+00-4.48367E+01
 -1      2038 1.09398E+04 2.46946E+01-6.37911E+00 3.25158E+03 1.56042E+01-5.13371E+01
 -1      2039 1.15095E+04 9.68580E+00-1.47924E+01 3.20865E+03 2.63686E+00-4.23542E+01
 -1      2040 1.21460E+04-2.34135E+01-3.78140E-01 3.19920E+03 3.03043E-01-4.93641E+01
 -1      2041 9.75226E+02-6.37883E-01-4.18338E+00 1.46376E+03 3.41183E+00-3.01001E+01
 -1      2042 9.68324E+03-2.45211E+01-8.51903E+00 3.19300E+03 1.47507E+01-3.36012E+01
 -1      2043 2.24954E+03-7.52062E+00 2.45230E+00 2.10879E+03-6.60091E+00-1.62367E+01
 -1      2044 8.13319E+03 6.91588E+00-1.07552E+01 3.12811E+03 5.18442E+00-2.45482E+01
 -1      2045 8.68855E+03 5.02469E+00-1.26292E+01 3.16846E+03-9.37429E-02-3.22551E+01
 -1      2046 9.17136E+03-1.37135E+01-1.18799E+01 3.17539E+03-6.70816E+00-4.69772E+01
 -1      2047 5.01270E+02-5.03445E+00-8.22631E+00 1.08985E+03-2.98585E+00-1.51859E+01
 -1      2048 7.42637E+03-2.13453E+01-4.29398E+00 3.06834E+03 6.53427E+00-3.72515E+01
 -1      2049 4.99662E+03-8.54100E+00 4.61453E+00 2.73601E+03-6.41520E+00-3.28052E+01
 -1      2050 3.94020E+03-1.63052E+01-3.24693E-01 2.57970E+03-8.91650E+00-3.97233E+01
 -1      2051 3.05640E+03 1.18408E+01-1.94587E+00 2.36246E+03 1.18238E+01-3.48059E+01
 -1      2052 2.38463E+04-1.32428E+01 2.28879E+00 2.28912E+03-3.84793E+00-3.63331E+01
 -1      2053 6.95298E+03-1.73844E+01-7.20431E+00 3.01829E+03-8.72017E+00-4.28120E+01
 -1      2054-3.42662E+01 7.68644E+00-2.70437E+00 1.84688E+02-4.35328E-01 1.85111E+00
 -1      2055 4.91907E+04-6.93754E+02-5.18093E+02 8.27856E+02 3.47221E+02 8.24782E+02
 -1      2056 2.38859E+02-4.83869E+01 3.85733E+00 2.72385E+02-2.80355E+00-1.27380E+00
 -1      2057 1.34446E+04 7.63411E+02-6.08566E+01 1.09242E+03 7.90556E+02 1.87514E+02
 -1      2058-3.63976E+04 2.46350E+03 3.43925E+03-1.78336E+03 5.64237E+02 2.01297E+02
 -1      2059 6.30507E+04-1.56462E+03-6.00568E+03-2.56120E+02 1.06193E+03 4.78837E+02
 -1      2060-6.55071E+01 3.11246E+01-4.31422E+00 8.69726E+01 4.21972E-01 2.16167E+00
 -1      2061 6.29669E+01-3.39806E+01 2.65756E+00 8.82742E+01-9.53387E-01 7.88692E-01
 -1      2062 2.26873E+01-4.39314E+00-6.45739E-01 3.22022E+02-3.15847E+00-4.14689E+00
 -1      2063 8.86946E+04 1.25556E+04 1.05665E+04 5.00631E+03-1.65880E+03-1.02355E+04
 -1      2064 6.12773E+04 8.73408E+03 2.13310E+03-2.68393E+03 6.55207E+02-7.20826E+03
 -1      2065 6.99093E+04-3.99022E+03-4.33934E+03-2.62890E+03 2.09342E+03 2.11303E+03
 -1      2066-3.51218E+04-4.54930E+03-3.86798E+03-4.29102E+03 4.80278E+01 5.58794E+03
 -1      2067-5.84683E+04-7.83465E+03-7.98854E+03 4.26873E+02-8.21265E+02 8.43889E+03
 -1      2068-4.41935E+04 3.79017E+03 3.38616E+03-3.28914E+03 1.56708E+03-1.61656E+03
 -1      2069 2.25964E+01-5.79781E+01 2.80954E+00 4.80020E+01 1.66106E+00-1.12653E+00
 -1      2070 2.94761E+01-1.91892E+01 8.53012E+00 2.93917E+01 1.48259E+00 2.80266E+00
 -1      2071 9.39902E+01-1.95473E+01 2.03461E+00 4.76963E+01-8.53657E-01 6.89931E-01
 -1      2072-3.53571E+01 1.76240E+01-1.16915E+01 2.89896E+01 1.67601E+00 1.95557E+00
 -1      2073-3.20141E+01 4.97047E+01-2.23333E+00 4.77529E+01 5.12460E-01 5.49240E-01
 -1      2074-8.33469E+01 1.44287E+01-3.77661E+00 4.91200E+01-1.12057E+00 6.97934E-01
 -1      2075 4.68956E+04 1.14845E+04 7.34820E+03-3.24973E+03 1.22139E+03-7.08070E+03
 -1      2076 2.36135E+04 3.15558E+03-3.99181E+02-5.22140E+03 1.18181E+03-1.85456E+03
 -1      2077 4.91843E+04 9.93215E+02-4.81251E+03-7.69610E+02 4.38031E+02 2.11074E+02
 -1      2078 5.18535E+03 3.42304E+03 1.64167E+03-5.48736E+03 8.98996E+02-8.59111E+02
 -1      2079-1.82969E+04-4.95519E+03-5.34682E+03-5.13262E+03 9.34715E+02 4.04159E+03
 -1      2080 1.45754E+04 1.67471E+03-1.24855E+03-1.24243E+03 5.96649E+02-1.11790E+02
 -1      2081-1.98765E+04 1.90586E+03 1.96924E+03-2.22598E+03 5.58409E+02 3.47443E+02
 -1      2082 5.93354E+00-1.22961E+01 3.07643E+00 1.06598E+02-2.23202E+00-6.92269E-01
 -1      2083 1.91097E+01-4.56403E+01 3.01401E+00 9.19839E+01 4.77658E-01 2.11790E+00
 -1      2084 4.06325E+01-3.45238E+01-3.22200E+00 1.36780E+02-3.40168E+00 8.76788E-01
 -1      2085-2.17499E+01 4.17886E+01-2.38383E+00 9.39270E+01-9.36011E-01 1.97707E+00
 -1      2086-1.49809E+01 1.44287E+00-3.62146E+00 1.07078E+02-2.68508E+00 1.27959E+00
 -1      2087 2.32397E+00-5.70939E+00 5.69718E-01 1.94135E+02 1.51704E+00 3.62561E+00
 -1      2088-4.46693E+01 2.40316E+01 1.09326E+00 1.38475E+02-3.09244E-01 3.16937E+00
 -1      2089 6.76965E+04-4.14384E+02-3.46248E+02 5.13951E+02 1.41280E+02 3.95890E+02
 -1      2090 6.79808E+04 5.14784E+02 7.01275E+02-4.09196E+02-4.82988E+02 5.10264E+02
 -1      2091 5.43476E+04-7.85324E+02-1.00652E+03-1.56326E+02 5.73546E+02 9.59489E+02
 -1      2092 6.66172E+04-1.11659E+02-5.83532E+00 1.12806E+03 2.92893E+01 1.49203E+02
 -1      2093 6.75978E+04-1.66177E+02-2.21236E+01 9.15249E+02 5.57729E+01 1.03002E+02
 -1      2094 4.90269E+04-3.40202E+02-1.08855E+01 1.51647E+03 1.66936E+02 1.83358E+02
 -1      2095 6.39516E+04-4.90989E+01 9.52016E+00 1.34189E+03-1.06834E+00 4.80998E+01
 -1      2096 6.56367E+04-2.39197E+01-4.00230E-01 1.27204E+03-3.58821E+00 7.60528E+01
 -1      2097 4.82165E+04-7.24710E+01 3.45823E+01 2.24800E+03 2.68726E+01 8.87585E+01
 -1      2098 6.09266E+04 1.90848E+00-5.24498E+01 1.38673E+03-2.32666E+01-2.69232E+01
 -1      2099 6.28143E+04 3.35817E+01-1.48636E+01 1.40897E+03 1.48255E+01 4.60006E+01
 -1      2100 4.61213E+04 1.04903E+01 8.05618E+00 2.49198E+03 2.08004E+01 2.17575E+01
 -1      2101 5.78651E+04-1.64722E+01-7.93685E+00 1.41706E+03-7.19237E+00 1.02185E+01
 -1      2102 5.97002E+04-2.83507E+01 2.10163E+01 1.36182E+03 8.36337E+00 7.08486E+00
 -1      2103 4.37024E+04-4.10173E+01 2.59106E+01 2.50703E+03 1.87534E+01-4.01948E+01
 -1      2104 5.47762E+04-8.13809E+00-4.16740E+01 1.39023E+03-2.20522E+01-1.12449E+01
 -1      2105 5.66819E+04 2.79429E+01-3.45708E+01 1.41731E+03 1.49348E+01 2.00770E+01
 -1      2106 4.14618E+04 1.47678E+01-9.26636E+00 2.56573E+03-9.75705E+00-1.89632E+01
 -1      2107 5.18450E+04-2.07092E+01 1.42851E+00 1.41788E+03-2.53052E+01 9.85453E+00
 -1      2108 5.36723E+04-3.13325E+01 2.60920E+01 1.35943E+03 1.23312E+01 1.09214E+00
 -1      2109 3.92325E+04-4.50630E+01 1.74266E+01 2.51733E+03 2.27059E+01-4.00816E+01
 -1      2110 4.87877E+04 1.78172E+01-2.24399E+01 1.33670E+03-1.28506E+01-2.93135E+01
 -1      2111 5.06705E+04 9.14347E+00-6.61378E+01 1.37484E+03-1.49126E+01 5.11019E+00
 -1      2112 3.70695E+04-1.94200E+00-3.72025E+01 2.51469E+03-4.52679E+01-2.13527E+01
 -1      2113 4.58662E+04 2.78070E+00-9.97069E+00 1.39868E+03-1.92393E+01-2.31486E+01
 -1      2114 4.76585E+04 1.70107E+01-1.12601E+01 1.39195E+03 1.93573E+01 9.48961E+00
 -1      2115 3.49404E+04-3.19385E+01-6.30897E+00 2.49409E+03 2.39381E+00-3.69434E+01
 -1      2116 4.29346E+04-1.29956E+01-4.84819E+00 1.36917E+03-1.26372E+01 1.02458E+01
 -1      2117 4.47173E+04-3.03832E+01 2.07446E+01 1.32829E+03 4.80543E+00 2.64362E+00
 -1      2118 3.27357E+04-4.79528E+01 2.31858E+01 2.48104E+03 1.87460E+01-3.94486E+01
 -1      2119 3.99988E+04-2.51804E+01 4.41630E+00 1.35030E+03-3.37895E+01 2.69400E+01
 -1      2120 4.18202E+04-1.96833E+00-1.03697E+01 1.33853E+03 1.37333E+01 1.41970E+01
 -1      2121 3.06477E+04-1.48476E+01-1.40098E+01 2.47174E+03-1.97793E+01-2.60834E+01
 -1      2122 3.71077E+04 1.58569E+01-2.00981E+01 1.27816E+03-9.06912E+00-2.72054E+01
 -1      2123 3.89032E+04 9.39037E+00-5.87639E+01 1.30930E+03-1.80415E+01 8.69301E+00
 -1      2124 2.85356E+04-1.12160E+01-2.78234E+01 2.40547E+03-3.58386E+01-9.68786E+00
 -1      2125 3.45156E+04-1.02756E+01 2.73779E+01 1.28784E+03-4.23229E+00 1.70594E+01
 -1      2126 3.62946E+04 2.25769E+01 2.69590E+01 1.28012E+03 1.87684E+01 2.60068E+01
 -1      2127 2.67075E+04-4.27557E+01-1.19840E+00 2.34710E+03 3.92441E+00-3.91702E+01
 -1      2128 3.17652E+04-1.47540E+01-1.98015E+01 1.24639E+03-1.98337E+01 1.73904E+01
 -1      2129 3.34482E+04-1.58312E+00 1.43975E+01 1.26054E+03 1.80862E+01 1.32538E+01
 -1      2130 2.48259E+04-2.07015E+01 7.84125E+00 2.32649E+03 2.23897E+01-2.51592E+01
 -1      2131 2.89598E+04 6.44970E+00-5.37074E+00 1.20991E+03-7.70887E+00-8.52123E+00
 -1      2132 3.06782E+04-8.63056E+00-3.48186E+01 1.22296E+03-2.30398E+00 1.69547E+01
 -1      2133 2.27961E+04-7.03047E+00-4.49330E+00 2.27038E+03-2.35346E+01-2.37312E+01
 -1      2134 2.63181E+04-1.38575E+01 1.18877E+01 1.22513E+03-1.30928E+01 1.54829E+01
 -1      2135 2.78993E+04 4.42385E+00 3.92598E+01 1.20381E+03 2.23950E+01 1.15983E+01
 -1      2136 2.07150E+04-3.70079E+01 1.17233E+01 2.19741E+03 1.11047E+01-3.64557E+01
 -1      2137 2.36517E+04-2.83368E+01-6.17690E+00 1.17624E+03-2.19714E+01 2.44076E+01
 -1      2138 2.52618E+04-8.64851E+00-4.98314E+00 1.17597E+03 5.43027E+00 1.34805E+01
 -1      2139 1.86582E+04-3.45666E+01-1.43764E+01 2.17766E+03-8.67674E+00-1.72417E+01
 -1      2140 2.11730E+04-3.19224E+01 9.91508E+00 1.12108E+03-1.26742E+01 2.09641E+01
 -1      2141 2.27411E+04 1.44852E+00-6.29553E+00 1.12501E+03 1.41458E-01 2.15241E+01
 -1      2142 1.68077E+04-1.62023E+01 8.76098E+00 2.10354E+03-2.40645E+01-7.38728E+00
 -1      2143 1.88101E+04-1.74089E+01-2.56128E+01 1.07634E+03-1.76476E+01 9.38416E+00
 -1      2144 2.02819E+04 1.02187E+01 4.21311E+00 1.11969E+03 1.83248E+01 2.99534E+01
 -1      2145 1.50905E+04-1.73746E+01 1.31424E+01 2.03966E+03 6.28495E+00 1.14067E+00
 -1      2146 1.65554E+04-3.54853E+01 8.28235E+00 1.04409E+03-1.26552E+01 2.22773E+01
 -1      2147 1.79729E+04-4.21716E+01 2.25985E+01 1.01674E+03 9.02625E+00-2.14994E+01
 -1      2148 1.33385E+04-5.25212E+01-1.23768E+01 1.89734E+03-8.81158E+00-2.37650E+01
 -1      2149 1.43268E+04-2.81069E+01 3.90283E+00 9.75612E+02-6.46481E+00 1.54670E+01
 -1      2150 1.56951E+04 6.41370E+00-9.54985E+00 9.99234E+02 1.13500E+01 1.67232E+01
 -1      2151 1.16848E+04-3.86172E+01-1.29077E+01 1.85201E+03-7.64279E+00-4.36088E-01
 -1      2152 1.22698E+04-2.07302E+01 7.05111E+00 9.25318E+02-1.03596E+01 1.20592E+01
 -1      2153 1.35530E+04-4.34307E+00 4.35391E+00 9.45958E+02 1.12242E+01 2.12391E+01
 -1      2154 1.01031E+04-4.10576E+01-9.94946E+00 1.75645E+03 1.29279E+01-6.42337E+00
 -1      2155 1.03591E+04-2.58410E+01-2.27469E+01 8.65808E+02-1.80472E+01 5.56137E+00
 -1      2156 1.15187E+04-1.16512E+01-5.30607E+00 8.96863E+02 5.14408E+00 1.64958E+01
 -1      2157 8.64862E+03-3.30958E+01 9.12759E-01 1.66080E+03 3.98543E+00-1.28239E+01
 -1      2158 8.58899E+03-2.37431E+01 1.74606E+01 8.15649E+02-1.86079E+01 1.25739E+01
 -1      2159 9.66377E+03-3.52735E+01 1.97034E+01 8.15467E+02 1.08284E+01-1.62744E+01
 -1      2160 7.25701E+03-3.08449E+01-6.92301E+00 1.53060E+03-8.42900E+00-2.34916E+01
 -1      2161 6.90273E+03-3.88757E+00-4.05148E+00 7.12209E+02-1.90526E+00-1.58319E+01
 -1      2162 7.93607E+03-7.25801E+00-3.26396E+01 7.45953E+02-1.28140E+01 6.42437E+00
 -1      2163 5.98408E+03-4.41248E+01-2.45710E+01 1.41518E+03-2.07933E+01-9.31645E+00
 -1      2164 5.44580E+03-2.26620E+01 4.07789E+00 6.75177E+02-1.01990E+01 2.31166E+00
 -1      2165 6.32533E+03-1.00452E+01 8.58090E+00 6.95004E+02 9.23771E+00 5.23913E+00
 -1      2166 4.83260E+03-5.38626E+01-3.41606E+00 1.28360E+03 5.14344E+00-2.97978E+01
 -1      2167 4.10977E+03-3.27928E+01 1.52062E+01 5.93577E+02-6.57769E+00 2.08968E+00
 -1      2168 4.90809E+03-3.47834E+01 1.27972E+01 5.98878E+02 4.37880E+00-1.14381E+01
 -1      2169 3.74958E+03-3.70136E+01 2.15408E+00 1.16341E+03-7.54987E+00-1.76819E+01
 -1      2170 2.91179E+03-2.08695E+01-1.39917E+01 5.03454E+02-9.93597E+00-9.99896E+00
 -1      2171 3.63724E+03-1.06601E+01-8.04400E+00 5.33451E+02 2.43907E+00 1.21198E+01
 -1      2172 2.83074E+03-5.16015E+01-9.45481E+00 1.01599E+03 2.07276E+00-5.74728E-01
 -1      2173 1.97561E+03-3.51488E+01-3.18645E+00 4.29639E+02-8.20632E+00 1.52586E+00
 -1      2174 2.53676E+03-3.70804E+01 1.37732E+01 4.33843E+02 1.67222E+00 7.32306E-01
 -1      2175 1.99641E+03-6.77468E+01 3.84864E+00 8.56533E+02 2.73008E+00-1.14626E+01
 -1      2176 1.16426E+03-2.38655E+01 4.63721E+00 3.24201E+02-6.99508E-01-3.07819E+00
 -1      2177 1.64651E+03-2.69008E+01-1.11919E+01 3.53414E+02-4.86501E+00 2.76627E+00
 -1      2178 1.32498E+03-4.85494E+01-1.01377E+01 7.09788E+02-7.98577E+00-6.17857E+00
 -1      2179 5.91531E+02-2.45127E+01 1.21388E+01 2.31319E+02 8.72960E-01 4.15200E+00
 -1      2180 9.31615E+02-2.30809E+01 8.37817E+00 2.60649E+02-2.56151E+00 2.92908E+00
 -1      2181 7.95294E+02-6.68835E+01-8.25155E+00 5.30713E+02 5.17050E-01-1.67070E+01
 -1      2182 1.94142E+02-2.73431E+01 1.10461E+01 1.37873E+02 3.35596E+00 1.45479E+00
 -1      2183 4.03219E+02-2.74549E+01 9.59519E+00 1.69221E+02-1.51458E+00-1.49221E+00
 -1      2184 3.80972E+02-5.34178E+01-1.39299E+01 3.61509E+02-3.69206E+00-9.85145E+00
 -1      2185 1.36680E+02-5.17760E+01-5.79386E+00 1.75436E+02-1.56107E+00-2.96904E+00
 -1      2186-4.10786E+04 3.84034E+01-4.60465E+02-7.70124E+02-2.81340E+02-4.31642E+02
 -1      2187-4.05192E+04 8.07691E+02 6.40140E+02 3.39020E+02 2.65244E+02-6.38420E+02
 -1      2188-2.73615E+04 1.94591E+03 8.02261E+02-1.01207E+03 5.48060E+02-8.44335E+02
 -1      2189-4.13684E+04 1.91815E+02 7.66655E+01 1.00033E+03-2.66119E+01-1.70417E+02
 -1      2190-4.07216E+04 1.67363E+02 1.09089E+02 1.26302E+03 5.48594E+01-1.74291E+02
 -1      2191-2.22029E+04 5.58416E+02 8.11464E+01 1.51124E+03 1.42364E+02-3.16190E+02
 -1      2192-4.05769E+04 5.78735E+01-1.46892E+01 1.37806E+03-1.08307E+01-4.06105E+01
 -1      2193-3.95035E+04 2.01818E+01-5.21965E+01 1.40093E+03 3.94435E+01-1.07948E+02
 -1      2194-2.25690E+04 3.98349E+01-6.38862E+01 2.33259E+03 2.04593E+01-9.97851E+01
 -1      2195-3.88993E+04 1.68908E+01 2.68425E+01 1.46069E+03 1.72169E+00-9.19463E+01
 -1      2196-3.76673E+04-1.83007E+01 3.74277E+01 1.45280E+03-1.01337E+01-8.96586E+00
 -1      2197-2.18708E+04 5.80169E+00 2.24351E+00 2.57184E+03 4.98034E+01-4.65832E+01
 -1      2198-3.69930E+04-2.41743E+01-7.31693E+01 1.47169E+03 3.03683E+01-3.94621E+01
 -1      2199-3.57110E+04 1.39313E+01-3.68458E+01 1.51176E+03-1.40017E+01-9.68409E+01
 -1      2200-2.07124E+04 3.62910E+01 7.90233E+00 2.60377E+03 1.84394E+01 1.67709E+01
 -1      2201-3.51443E+04-3.65161E+01 6.24896E+01 1.47929E+03-2.64419E+01-1.01589E+02
 -1      2202-3.36952E+04 4.31279E+01 7.90510E+01 1.46373E+03-2.52246E+01-2.82225E+01
 -1      2203-1.96272E+04-1.02275E+01 9.79877E+00 2.63068E+03-4.25778E+01-7.70367E+01
 -1      2204-3.31491E+04 3.58084E+01-1.06563E+01 1.49351E+03-8.07012E+00-3.00464E+01
 -1      2205-3.19710E+04 5.36553E+00 1.48872E+01 1.49002E+03 1.36848E+00-2.05656E+01
 -1      2206-1.84588E+04 6.69355E+01-8.75090E+00 2.60911E+03 1.00693E+01-1.73785E+01
 -1      2207-3.13978E+04 1.40490E+01-4.27296E+01 1.43031E+03 5.38381E+00 2.53219E+00
 -1      2208-3.00527E+04 1.94550E+01-6.85152E+01 1.43037E+03 3.14173E+01-8.93578E+01
 -1      2209-1.75439E+04-8.67843E+01-4.81815E+01 2.57273E+03-9.72223E+00 8.79597E+00
 -1      2210-2.95292E+04-1.47135E+01 1.25244E+01 1.44942E+03 2.13984E+01-1.00474E+02
 -1      2211-2.82285E+04 1.27662E+01-2.43012E+00 1.42325E+03-6.86340E+00-7.53605E+01
 -1      2212-1.64260E+04 2.31423E+01-8.51859E+00 2.56493E+03 4.26468E+01-6.25356E+01
 -1      2213-2.76823E+04-2.89079E+00 2.29601E+01 1.45041E+03 6.58181E+00-8.20188E+01
 -1      2214-2.64268E+04 3.00143E+01 5.97605E+01 1.42337E+03-2.26714E+01-3.85196E+01
 -1      2215-1.54967E+04 2.19726E+00 1.63046E+01 2.58205E+03 9.83014E+00-2.61570E+01
 -1      2216-2.58535E+04 3.62592E+01-1.30484E+01 1.41415E+03-4.07785E+00 1.21287E+01
 -1      2217-2.47106E+04-3.63671E+01-7.77607E+00 1.40512E+03 2.13793E+01-1.93842E+01
 -1      2218-1.44587E+04-1.73031E+01 4.58565E-01 2.51487E+03-1.03905E+01 3.06357E+01
 -1      2219-2.41939E+04-2.73947E+01-7.51704E+01 1.37982E+03 2.47232E+01-2.34203E+01
 -1      2220-2.28613E+04 4.07054E+01-6.21359E+01 1.38374E+03 2.53993E+01-9.93551E+01
 -1      2221-1.35712E+04-5.67229E+01-9.74160E+00 2.47275E+03-8.96252E+00 5.57111E+00
 -1      2222-2.24041E+04 9.36780E+00 4.28337E+01 1.37220E+03 6.96264E+00-8.43536E+01
 -1      2223-2.12358E+04-1.76118E+01 3.17087E+01 1.34195E+03-1.25810E+01-3.07754E+00
 -1      2224-1.24837E+04 2.97795E+01-3.59549E+00 2.44209E+03 4.10545E+01-6.12645E+01
 -1      2225-2.06653E+04-1.21813E+01-5.32551E+01 1.33775E+03 2.18047E+01-3.36008E+01
 -1      2226-1.94983E+04 1.68763E+01-2.27477E+01 1.35048E+03-4.38397E+00-7.52503E+01
 -1      2227-1.16751E+04 4.25769E+01-1.85280E+00 2.38376E+03 1.19087E+01 2.73710E+01
 -1      2228-1.90479E+04 2.64623E+00-4.38910E+00 1.28792E+03 5.04986E+00-6.80024E+01
 -1      2229-1.78579E+04 2.53363E+01-1.46639E+01 1.30179E+03-2.33808E+01-8.87410E+01
 -1      2230-1.07083E+04 2.13439E+01-1.40394E+01 2.37301E+03-7.83755E+00-2.06962E+01
 -1      2231-1.73119E+04-1.42155E+01 5.32952E+01 1.26363E+03-2.73961E+01-8.18072E+01
 -1      2232-1.61132E+04-9.47888E+00 2.81915E+01 1.24445E+03-7.14370E-01 1.08025E+00
 -1      2233-9.82495E+03 7.46560E+00 1.32369E+01 2.28513E+03-4.07139E+01-5.69619E+01
 -1      2234-1.56369E+04-7.33099E+00-1.88207E+01 1.28030E+03 1.37227E+01-4.61224E+01
 -1      2235-1.45927E+04 2.13422E+01 1.58317E+01 1.26559E+03-1.14769E+01-4.27537E+01
 -1      2236-8.79954E+03 6.78366E+01 2.32215E+01 2.22646E+03 8.92865E+00-1.78265E+01
 -1      2237-1.40584E+04 3.59309E+01-2.33090E+00 1.20761E+03-2.23079E+00 1.42184E+01
 -1      2238-1.30623E+04 1.29801E+01-2.65937E+01 1.20087E+03-7.26840E+00 7.99694E+00
 -1      2239-7.97453E+03-4.99013E+01-3.28448E+01 2.17671E+03-8.87872E+00-2.04358E+01
 -1      2240-1.26520E+04 3.02694E+01-1.16000E+01 1.14322E+03-6.82701E+00-1.39482E+00
 -1      2241-1.17202E+04-2.72339E+01 3.43622E+00 1.10427E+03 8.95270E+00-4.63217E+00
 -1      2242-7.15211E+03 4.92245E+01-2.79098E+01 2.05162E+03 3.37018E+01 9.25227E+00
 -1      2243-1.12388E+04 7.49562E+00-5.44947E+01 1.08947E+03 1.40904E+01-1.83056E+01
 -1      2244-1.02539E+04 2.86011E+01-1.67937E+01 1.08937E+03-1.08081E+01-6.93873E+01
 -1      2245-6.51646E+03-6.29713E+00-6.86045E+00 1.96023E+03-2.25918E+01 1.10256E+01
 -1      2246-9.76310E+03-1.13215E+01 2.05147E+01 1.04979E+03-1.04953E+01-6.69100E+01
 -1      2247-8.80304E+03 2.69671E+01 3.44008E+01 1.02812E+03-1.26478E+01-2.39800E+01
 -1      2248-5.61523E+03 3.06742E+01 4.03033E+00 1.90657E+03-2.42644E+01-3.80337E+01
 -1      2249-8.42535E+03 2.69686E+01-2.64945E+01 9.87518E+02-1.81068E+00-2.16094E+01
 -1      2250-7.56182E+03 9.65830E+00-2.47521E+01 9.71539E+02 7.45825E+00-4.25541E+01
 -1      2251-4.78248E+03 6.11158E+01-9.01772E+00 1.79620E+03 1.84047E+01 1.82237E+00
 -1      2252-7.19723E+03 8.13953E+00-9.79536E+00 9.30782E+02 8.53311E+00-4.89025E+01
 -1      2253-6.38170E+03 2.13485E+01 1.10947E+01 9.11518E+02-1.17603E+01-4.43733E+01
 -1      2254-4.09239E+03 3.87928E+01 9.77024E+00 1.71390E+03 1.15527E+01-2.60886E+00
 -1      2255-6.04416E+03 7.44405E+00 9.57693E+00 8.65847E+02-6.41028E+00-4.72912E+01
 -1      2256-5.25866E+03 2.19497E+01 1.61774E+01 8.47083E+02-7.36920E+00-1.76388E+01
 -1      2257-3.50256E+03 1.68540E+01-1.36795E+01 1.60230E+03-1.62388E+01 8.71859E-01
 -1      2258-4.93794E+03 3.10846E+01-2.83370E+01 7.86278E+02 3.73454E+00-1.12249E+01
 -1      2259-4.27538E+03 1.49770E+01-1.25682E+01 7.79088E+02-5.94251E+00-3.07617E+01
 -1      2260-2.84771E+03 4.82207E+01-1.23434E+01 1.45750E+03 1.36748E+01 1.06848E+01
 -1      2261-3.98850E+03 1.71148E+01-3.68556E+00 7.11938E+02-1.66920E+00-3.97173E+01
 -1      2262-3.34646E+03 2.70760E+01-6.09941E+00 7.01984E+02-1.05458E+01-4.32041E+01
 -1      2263-2.32335E+03 3.78290E+01-4.68823E+00 1.34140E+03-1.38298E+01-4.18325E+00
 -1      2264-3.11346E+03 5.49476E+00 8.35906E-01 6.29817E+02-7.23852E+00-4.30626E+01
 -1      2265-2.52163E+03 3.09221E+01-7.93325E+00 6.08648E+02-6.56959E-01-3.89586E+01
 -1      2266-1.82570E+03 3.82541E+01-1.33767E+00 1.19605E+03-1.94141E+01-1.61058E+01
 -1      2267-2.30517E+03 8.71122E+00-2.81621E+00 5.61045E+02 4.29941E-01-4.08501E+01
 -1      2268-1.80733E+03 1.96741E+01 1.44559E+01 5.31688E+02-8.97248E+00-8.58685E+00
 -1      2269-1.38249E+03 4.56680E+01 1.34638E+00 1.05053E+03 6.46280E+00-2.13303E+01
 -1      2270-1.61499E+03 3.20867E+01-2.33907E+01 4.64245E+02 1.32609E+00-4.59927E+00
 -1      2271-1.23574E+03 2.24001E+01-8.30578E+00 4.46584E+02-5.35241E+00-1.75803E+01
 -1      2272-9.93061E+02 5.65173E+01-4.96165E+00 8.88696E+02 7.45931E+00 9.02530E-01
 -1      2273-1.07414E+03 1.99753E+01-3.85845E+00 3.68935E+02-2.82540E+00-2.28326E+01
 -1      2274-7.39717E+02 2.82667E+01-9.56228E+00 3.49425E+02-4.04539E+00-1.94654E+01
 -1      2275-6.87051E+02 4.06181E+01-1.77121E+00 7.34423E+02-9.35302E+00-5.09712E+00
 -1      2276-6.27464E+02 2.25705E+01-6.74722E+00 2.71900E+02-3.23086E+00-1.68230E+01
 -1      2277-3.86813E+02 2.66596E+01-6.01164E+00 2.49597E+02-5.88421E+00-8.68912E+00
 -1      2278-4.30754E+02 4.64424E+01-3.82316E+00 5.60964E+02-1.23120E+00-5.57518E+00
 -1      2279-2.95585E+02 2.22089E+01-3.44068E+00 1.72171E+02-3.42548E+00-9.67621E+00
 -1      2280-1.37723E+02 2.20795E+01-6.34024E+00 1.36744E+02 2.65080E+00-9.22151E-01
 -1      2281-2.38471E+02 4.38370E+01 7.65030E-03 3.77819E+02-4.32932E+00-1.90383E+00
 -1      2282-1.17926E+02 3.79329E+01-4.12654E+00 1.75204E+02 1.22966E-01 2.85651E+00
 -1      2283 6.00196E+03-2.57017E+01-6.55686E+00 2.00750E+03-1.08913E+01-3.14303E+01
 -1      2284 6.75415E+03-2.37161E+01 1.80901E+01 2.05312E+03-2.53151E+00-4.92866E+01
 -1      2285 5.11872E+03-2.97994E+01 3.69440E+00 1.88433E+03-1.63030E+00-3.48896E+01
 -1      2286 5.80451E+03-1.61942E+01 4.59556E+00 1.92554E+03-3.62649E+00-3.62708E+01
 -1      2287 2.44965E+03-1.32959E+01 7.45944E+00 2.18840E+03-6.24988E+00-2.43265E+01
 -1      2288 2.12656E+03-1.96352E+01-1.05958E+01 1.27952E+03-5.81619E+00-2.46089E+01
 -1      2289 2.61849E+03-5.05676E+00 1.45117E-01 1.36713E+03-8.11906E+00-2.50494E+01
 -1      2290 2.76105E+03-2.11739E+01-2.57677E+00 1.44963E+03 6.91347E+00-3.26109E+01
 -1      2291 3.31393E+03-1.53357E+01-3.81638E-01 1.49476E+03 1.59141E+00-2.30347E+01
 -1      2292 1.10682E+03-2.74890E+00 5.86339E+00 1.57743E+03-4.64013E+00-3.13869E+01
 -1      2293-3.49365E+02 1.78791E+01-1.43643E+00 1.05226E+03-2.26970E+00-2.42150E+00
 -1      2294-1.67147E+02 1.45784E+01 6.60558E+00 9.83168E+02 3.83482E+00-2.22537E+00
 -1      2295-4.13147E+02 2.65294E+01-8.90988E+00 1.23142E+03-9.34595E+00 7.15130E+00
 -1      2296-2.40649E+02 2.40439E+01-5.62455E-01 1.15725E+03-4.65292E+00-7.50841E-01
 -1      2297 5.90512E+02-1.59990E+01-4.87917E+00 1.21110E+03-7.37139E+00-1.00624E+01
 -1      2298 3.87868E+02-3.43109E+01-1.26175E+00 5.82607E+02-1.31060E+00-9.88428E+00
 -1      2299 6.04175E+02-3.23478E+01 6.79818E-02 6.66289E+02-8.43434E-01-4.84596E+00
 -1      2300 1.26827E+02-1.11490E+01 1.26785E+00 5.94677E+02-3.46714E+00-5.73869E+00
 -1      2301 3.35856E+02-2.75550E+01 2.41680E+00 4.79315E+02-6.90851E+00-2.04263E+00
 -1      2302 1.66744E+02-2.80449E+01-1.59601E+00 3.77083E+02-4.01193E+00-4.41388E+00
 -1      2303 8.06949E+03 1.47897E+01-4.80843E+00 2.19607E+03-5.17098E+00-2.61198E+01
 -1      2304 8.73258E+03-3.91311E+01 2.94118E-01 2.24020E+03-2.02304E+00-2.96186E+01
 -1      2305 3.68128E+03-2.58827E+01-4.33947E+00 2.56248E+03 1.79965E+00-3.83905E+01
 -1      2306 9.10880E+03-6.88272E+01 2.57151E+01 2.32337E+03-6.60401E+00-3.75225E+01
 -1      2307 9.93402E+03-2.18292E+01 2.02801E+01 2.33418E+03 1.68804E+01-5.08078E+01
 -1      2308-9.53397E+02 2.38869E+00-1.55145E+01 1.85859E+03-9.73012E+00 2.32765E+01
 -1      2309-5.99174E+02 2.75304E+01 8.59241E-01 1.75920E+03 7.28301E+00 1.63485E+00
 -1      2310-8.45469E+02-1.77575E+01-1.39792E+01 1.67332E+03-5.83520E+00-1.18504E+01
 -1      2311-5.07136E+02 9.10801E+00 2.41033E+01 1.63160E+03 3.86569E+00 1.44557E+00
 -1      2312 1.73553E+03-6.41074E+00-1.84190E+01 1.90259E+03 8.34714E-01-1.85810E+01
 -1      2313 1.12769E+04-5.61225E+01-1.37177E+01 2.47487E+03-1.42027E+01-4.51844E+01
 -1      2314 1.22870E+04-1.66972E+01-1.65374E-01 2.53799E+03-2.19019E+01-7.09041E+01
 -1      2315 1.01974E+04-1.32016E+01-2.16662E+01 2.41546E+03-1.37164E+00-5.84810E+01
 -1      2316 1.10811E+04-1.17791E+01 8.89104E+00 2.46053E+03 8.04860E+00-3.63849E+01
 -1      2317 4.65709E+03 9.43962E+00-1.42512E+01 2.73075E+03 3.05293E+00-1.38242E+01
 -1      2318-4.93961E+03 2.53736E+00-2.09631E+00 2.99619E+03-2.10110E+00-9.52502E-01
 -1      2319-4.24865E+03 9.45348E+00 2.17763E+01 3.00968E+03 2.30673E+01 1.01681E+01
 -1      2320-4.55268E+03-6.01605E+01-1.94680E+01 3.02513E+03-5.42216E+00-1.46257E+01
 -1      2321-4.16741E+03-1.24234E+01 9.21389E+00 2.95511E+03-3.89959E+01-1.88144E+01
 -1      2322 1.12437E+04 4.87350E+01-3.17827E-01 3.29454E+03 7.77056E+00-4.52886E+01
 -1      2323 2.28858E+04-1.65821E+01-2.33260E+01 2.91677E+03-4.04392E+01-5.66993E+01
 -1      2324 2.39733E+04 2.48411E+01-8.97900E+00 2.96259E+03 3.15908E+00-5.10122E+01
 -1      2325 2.42299E+04-1.62908E+00-2.18426E+01 2.95090E+03 6.77021E+00-3.87385E+01
 -1      2326 2.53875E+04-9.85578E+00 2.63078E+01 2.92226E+03 6.22625E+00-5.72103E+01
 -1      2327 1.00881E+04 8.10608E+00-1.68620E+01 3.24741E+03 1.29536E+01-1.52828E+01
 -1      2328 2.85763E+04-7.46690E+01 1.04844E+01 2.92536E+03-1.30080E+01-4.51407E+01
 -1      2329 2.96711E+04-3.69584E+00 2.17183E+01 2.82937E+03 3.41594E+01-5.18233E+01
 -1      2330 3.10709E+04-2.77831E+01 6.06552E+01 2.57177E+03 1.13866E+02 2.32362E+01
 -1      2331 2.99954E+04 2.26764E+01-2.20335E+01 2.76928E+03 5.64506E+01-6.62812E+01
 -1      2332 1.24745E+04 7.86371E+00 7.68115E+00 3.07272E+03 3.97375E+01-4.92315E+01
 -1      2333-3.32485E+03-2.96938E+01-5.26438E+01 2.83983E+03-1.99460E+01-2.95346E+01
 -1      2334-2.84322E+03-3.32554E+01-2.86089E+01 2.74431E+03 1.01900E+01-6.43786E+01
 -1      2335-3.45377E+03-4.36731E+00-1.88360E+01 2.88525E+03-1.59447E+01 1.48827E+01
 -1      2336-2.87895E+03 2.67819E+01 2.51995E+00 2.85773E+03 2.11781E+01-1.66229E+01
 -1      2337 7.85773E+03 1.02049E+01-1.18621E+01 3.13183E+03 3.26270E+00-2.18663E+01
 -1      2338-2.80216E+03-8.28899E+00-2.24561E+01 2.75098E+03-1.70195E+00 5.04321E+00
 -1      2339-2.24988E+03 5.64472E+00 1.67511E+01 2.72529E+03 2.00695E+01 1.72802E+01
 -1      2340 6.35892E+03-9.06851E+00 1.74249E+01 2.98752E+03-3.32154E-02-1.62974E+01
 -1      2341-2.50670E+03-4.39058E+00-1.00776E+01 2.71588E+03-6.26500E+00 2.16061E+01
 -1      2342-2.13373E+03 8.98593E+00 1.51601E+01 2.66825E+03 9.27744E+00 1.10621E+01
 -1      2343-3.80784E+03 2.03448E+01-5.57617E-01 2.94029E+03 3.83474E+01-1.17606E+01
 -1      2344-3.34738E+03 4.90489E+01 2.99090E+01 2.96958E+03 7.84545E-01-1.01564E+01
 -1      2345-3.66127E+03-3.51233E-01-1.80672E+01 2.92029E+03-7.34635E+00 1.19614E+01
 -1      2346-3.20324E+03 1.18451E+01 1.45728E+01 2.92486E+03 7.55780E+00 2.65384E+01
 -1      2347 8.97117E+03-1.03190E+01-2.68157E+01 3.21186E+03 5.58256E+00-5.42776E+01
 -1      2348-4.21288E+03 5.20728E+02 3.55873E+01 1.37324E+03 3.58564E+02-1.26291E+02
 -1      2349-4.29314E+03 2.29400E+02-4.32803E+01 2.15348E+03 2.95634E+02-1.93632E+02
 -1      2350-4.28245E+03 7.70718E+02 3.40496E+02 7.85161E+02 5.72587E+02-2.61611E+02
 -1      2351 1.36772E+04 5.79450E+02-9.00339E+01 1.58240E+03 6.40621E+02 1.09333E+02
 -1      2352 3.73560E+03 4.88486E+02-9.69535E+01-2.89401E+02 1.03382E+03 1.21102E+02
 -1      2353-1.31304E+04 1.94701E+03 6.14890E+02-9.00280E+02 1.10141E+03-1.83949E+02
 -1      2354-1.23365E+03 2.58659E+01-2.08832E+01 2.07315E+03-7.29080E+00 4.60698E+00
 -1      2355-8.66097E+02 2.09059E+01 1.86269E+01 2.03751E+03 7.60971E-01-2.24151E+01
 -1      2356-1.52150E+03-4.05714E+01-6.81019E+00 2.21241E+03-6.36593E+00-5.20575E+00
 -1      2357-1.08791E+03 1.40650E+01 8.07341E+00 2.13547E+03-1.33965E+01-6.49558E-01
 -1      2358 2.86845E+03 6.33577E+00-4.95377E+00 2.26134E+03 1.26426E+01-3.15961E+01
 -1      2359 6.83601E+02-2.64836E+01-2.93678E-02 7.75328E+02-6.65248E+00-1.62498E+01
 -1      2360 9.82243E+02-2.26000E+01-9.79908E+00 8.71136E+02 9.79549E-01-1.42945E+01
 -1      2361 1.06879E+03-2.30520E+01-1.55923E+01 9.55798E+02 3.12367E+00-1.85993E+01
 -1      2362 1.43743E+03-3.54290E+01-5.34373E+00 1.02147E+03-9.52011E-01-1.29851E+01
 -1      2363 4.19641E+02 2.06979E+00-4.02052E+00 1.00967E+03 1.32736E+00-1.02225E+01
 -1      2364-1.36679E+02 1.15242E+01-6.22185E+00 4.95219E+02 8.08252E-01-3.58459E-01
 -1      2365-6.07738E+01 9.42242E+00-7.07886E+00 3.89459E+02-2.64722E+00 3.68645E+00
 -1      2366 5.30732E+01-2.18125E+00-7.99415E+00 4.02065E+02-2.22153E-01-8.34510E+00
 -1      2367-7.52201E+01 1.23807E+01-4.40425E+00 3.06475E+02-2.54260E+00 2.94487E+00
 -1      2368-9.74348E+01 1.95890E+01-6.09954E+00 2.33470E+02-3.18974E+00-1.20160E+00
 -1      2369-2.55651E+01-1.35574E+00-5.72729E+00 2.54378E+02-3.84431E+00 1.84322E+00
 -1      2370-2.43267E+03 1.05145E+01-2.31115E+01 2.65211E+03-1.86990E+01-1.83107E+00
 -1      2371-1.96166E+03 3.88376E+01 3.82557E+00 2.60070E+03-5.46216E+01-7.20457E+00
 -1      2372-2.08655E+03 1.14318E+01 1.31582E+01 2.50842E+03 1.59266E+00-6.35815E+01
 -1      2373-1.72574E+03-1.63261E+00 1.35043E+01 2.50234E+03 2.65777E+01-2.25059E+01
 -1      2374 5.22479E+03 1.82062E+01-3.79756E+01 2.80208E+03-1.47396E+01-2.79859E+01
 -1      2375-1.99937E+02 1.75381E+01-1.05934E+01 6.87331E+02-2.78017E+00 5.76954E+00
 -1      2376-8.73652E+01 2.39241E+01-2.21916E+00 5.92609E+02-1.66082E+00 1.10555E+00
 -1      2377-2.60544E+02 9.70233E+00-9.04487E+00 8.83823E+02-1.33614E+01 3.02386E+00
 -1      2378-1.25900E+02 1.51571E+01-1.24165E+00 7.79169E+02-2.05499E-01 1.63585E+00
 -1      2379 2.40396E+02-1.43896E+01 7.89385E+00 8.02114E+02-5.88021E+00-3.66197E+00
 -1      2380-2.01554E+03 8.21288E+00-2.22889E+01 2.45642E+03-2.04785E+01-3.24433E+01
 -1      2381-1.64188E+03 1.19251E+00-3.15308E+01 2.39791E+03 1.08348E+01-6.47511E+01
 -1      2382-1.75061E+03-7.32450E+00-3.03106E+01 2.35458E+03 2.69591E+01-1.82528E+01
 -1      2383-1.45567E+03 6.09623E+01 8.23955E+00 2.37866E+03 3.11299E+00-3.10863E+01
 -1      2384 4.14074E+03-1.72274E+01-9.26926E+00 2.57190E+03-1.91272E+01-3.87127E+01
 -1      2385 1.75193E+04-1.82652E+01-2.29667E+01 2.79361E+03-4.29685E+01-5.82598E+01
 -1      2386 1.85817E+04 2.27953E+01 1.65012E+01 2.83398E+03 1.57307E+01-4.30758E+01
 -1      2387 1.63817E+04-4.73626E+01-1.68500E+01 2.71108E+03 1.05814E+01-3.47894E+01
 -1      2388 1.72226E+04-1.96996E+01 1.93543E+00 2.70039E+03-8.39278E+00-3.18056E+01
 -1      2389 7.17172E+03-5.72475E+01 1.11084E+01 2.99867E+03-6.17510E+00-3.74299E+01
 -1      2390 1.25729E+04-1.18241E+01-2.89438E+01 2.53395E+03 1.43518E+01-3.60292E+01
 -1      2391 1.36521E+04 3.68845E+01 2.79545E+01 2.55913E+03 7.85138E+00-2.48637E+01
 -1      2392 5.75109E+03 1.83462E+01 2.48952E+01 2.91017E+03-7.92567E+00-3.95380E+01
 -1      2393 1.38739E+04-2.91618E+01-1.91008E+01 2.60759E+03 2.80994E+00-4.90547E+01
 -1      2394 1.49519E+04-3.74241E-01 7.37434E+00 2.66304E+03-8.71324E+00-5.23143E+01
 -1      2395 1.88549E+04-6.31853E+00-1.32747E+01 2.81511E+03-2.05853E+00-5.46922E+01
 -1      2396 1.98867E+04 1.24619E+01-5.85842E+00 2.86447E+03-1.78440E+01-6.42896E+01
 -1      2397 2.01618E+04-3.68649E+00-1.90787E+01 2.86475E+03 5.34649E+00-3.74659E+01
 -1      2398 2.12426E+04 1.26103E+00-3.13307E-03 2.85305E+03 5.15949E+00-4.92632E+01
 -1      2399 8.34685E+03 1.09687E+01-4.19592E+01 3.17764E+03 5.31532E+00-2.42065E+01
 -1      2400 2.18284E+04 1.29805E+03-3.22955E+01 1.04327E+02 9.26628E+02 1.06361E+02
 -1      2401 3.12920E+04 3.74357E+02-3.41152E+02 9.48589E+02 5.77652E+02 5.26267E+02
 -1      2402 3.93896E+04-4.82800E+02-1.00958E+03-1.51156E+02 1.24052E+03 4.37764E+02
 -1      2403 4.01957E+01-1.30002E+01 2.70351E+00 2.55897E+02-5.13252E+00-2.70207E-01
 -1      2404 1.13910E+02-3.67818E+01-6.37124E+00 2.29614E+02-5.63291E+00 3.83853E+00
 -1      2405 1.31759E+02-2.21714E+01 1.58010E+00 3.07028E+02 3.51988E-01-7.17141E+00
 -1      2406-5.60970E+02-1.23968E+00-1.16303E+01 1.41601E+03-2.38785E+00-1.47041E+00
 -1      2407-3.34427E+02 9.16412E+00-3.02412E+00 1.32330E+03-1.24829E+01 1.81291E+00
 -1      2408-6.75554E+02 1.95689E+01-1.50934E+01 1.56766E+03-2.58677E+01 2.36594E+01
 -1      2409-3.93963E+02 4.24240E+01 5.59502E+00 1.48013E+03-4.09453E+00 5.23735E+00
 -1      2410 3.48367E+03-4.61940E+01-1.21516E+01 1.61035E+03-3.64782E+01-3.38572E+01
 -1      2411 4.10036E+03-2.58272E+01 1.01090E+01 1.68327E+03-5.24133E+00-3.05713E+01
 -1      2412 4.24711E+03-2.43161E+01-1.51730E+01 1.73764E+03-7.99063E+00-2.70365E+01
 -1      2413 4.92421E+03-1.67845E+01 6.42572E+00 1.80406E+03-1.65089E+01-3.08285E+01
 -1      2414-4.13801E+03-2.84512E+01-2.91858E+01 2.94534E+03-3.89475E+01-2.77261E+01
 -1      2415-3.71476E+03-3.61855E+01-3.07867E+01 2.88924E+03 1.50246E+01-7.31544E+01
 -1      2416-4.20784E+03 3.30487E+01 4.60235E+01 2.90273E+03-8.74389E+00-7.34627E+01
 -1      2417-3.77516E+03-2.07929E+01 1.94342E+01 2.97115E+03 1.11208E+01-5.14781E+01
 -1      2418 2.56457E+04 1.77220E+01-1.78814E+01 2.91458E+03-9.43816E+00-5.20003E+01
 -1      2419 2.66987E+04 6.07921E+01-3.88621E+01 2.96939E+03 4.36738E+00-5.86207E+01
 -1      2420 2.69942E+04 9.33584E+00-3.71918E+01 2.94248E+03 1.92193E+01-5.59399E+01
 -1      2421 2.81860E+04-3.22592E+01-1.19258E+01 2.88487E+03 1.29628E+01-3.42574E+01
 -1      2422-4.96811E+03 9.01191E+01-6.13423E+01 2.58473E+03 9.16940E+01-9.57263E+01
 -1      2423-4.75486E+03 6.72278E+00 3.80656E+01 2.83254E+03 6.07039E+01-1.52212E+01
 -1      2424-5.12505E+03 6.68335E+00-1.09319E+01 2.90140E+03 4.24392E+01-1.38355E+01
 -1      2425-4.56718E+03 4.93984E+01 4.17649E+00 3.00302E+03 2.03998E+01-2.41499E+00
 -1      2426 1.32988E+04 4.92444E+01-4.18080E+01 2.70401E+03 3.21333E+02-2.31257E+01
 -1      2427 3.13858E+04-2.11897E+01 3.71493E+01 2.13836E+03 2.79767E+02 8.92489E+01
 -1      2428 3.17171E+04 6.66192E+01-2.94191E+00 1.54600E+03 3.64311E+02 1.59912E+02
 -1      2429 6.97301E+03-6.42391E+00-1.57956E+01 2.09035E+03-1.02919E+01-4.39247E+01
 -1      2430 7.78110E+03 4.18826E+01-1.47423E+01 2.17133E+03 9.49379E+00-3.51044E+01
 -1      2431 3.27236E+03 1.19775E+01 2.73958E-01 2.44732E+03-3.54169E-01-3.20621E+01
 -1      2432-1.28043E+03 4.75097E+00-1.98815E+00 2.23827E+03-1.81212E+00 4.86783E+00
 -1      2433-1.76522E+03 1.05058E+01-2.50140E+01 2.31327E+03-2.40742E+01-1.09197E+01
 -1      2434 1.56692E+03-4.26286E+01 4.68862E+00 1.13762E+03-1.62445E+01-1.73433E+01
 -1      2435 2.00944E+03-2.80313E+01 7.73807E+00 1.21884E+03 5.00727E+00-2.86184E+01
 -1      2436 8.60368E+02 9.76016E+00-1.54511E+01 1.36498E+03-2.03562E-01-2.72079E+01
 -1      2437-1.11095E+03-4.14002E-01-2.65776E+00 1.95885E+03-1.85194E+01 1.68718E+00
 -1      2438-7.68878E+02 2.26882E+01 1.27438E+01 1.92406E+03 7.16032E+00 1.68343E+01
 -1      2439 2.07462E+03-1.38367E+01 8.68357E+00 2.05943E+03-6.28405E+00-2.35911E+01
 -1      2440-2.91252E+03 1.67511E+01-6.79547E+00 2.79207E+03 3.82723E+01-1.46339E+01
 -1      2441-2.54371E+03 5.84475E+01 3.52743E+01 2.81595E+03 1.62358E+00-2.89425E+00
 -1      2442 6.86990E+03 6.38613E-01-2.08888E+01 3.04267E+03 7.38366E-01-4.40681E+01
 -1      2443 1.52561E+04-1.68797E+01-3.42464E+00 2.69753E+03 4.37792E+00-5.71402E+01
 -1      2444 1.62482E+04-6.49414E-01-4.42366E+00 2.69488E+03 1.66024E+00-5.26500E+01
 -1      2445 2.14713E+04-5.26967E+01-2.39312E+01 2.86303E+03 1.72617E+01-3.44738E+01
 -1      2446 2.25663E+04-1.66251E+01-3.84456E+00 2.83719E+03-4.83376E+00-3.07235E+01
 -1      2447 9.40390E+03-5.21525E+01 1.15985E+01 3.13968E+03-3.83791E+00-4.07209E+01
 -1      2448 1.07118E+04-7.48720E+00 9.35837E-01 3.17361E+03 2.19379E+01-5.05961E+01
 -1      2449 1.18195E+04-3.51936E+01-4.78739E+00 3.27621E+03 4.80883E+00-4.85696E+01
 -1      2450 1.37693E+03-2.80250E+01 1.30666E+01 1.73082E+03-1.34986E+01-1.39456E+01
 -1      2451-2.39500E+03 1.31259E+01 8.43647E+00 5.08390E+03 3.84133E+01-9.04613E+02
 -1      2452-2.25098E+01 6.72636E+00-2.43271E+00 3.35616E+02 3.11128E+00-5.65849E+01
 -1      2453 1.29966E+00-8.97706E+00 5.37419E+00 6.80019E+02-1.12640E+00-1.15914E+02
 -1      2454-2.61968E+00 7.95888E+00-1.16890E+01 2.94080E+03-1.41211E+01-5.15549E+02
 -1      2455 3.92551E+00 7.62337E-01 6.41699E-01 2.75139E+03-1.09490E-01-4.85943E+02
 -1      2456-3.63131E+00 2.60821E+00-1.35699E+00 1.17923E+03 1.00141E+00-2.14142E+02
 -1      2457 1.17026E+00 5.59547E-01 8.41177E-01 1.47547E+03 3.13452E-01-2.71918E+02
 -1      2458-3.82729E+01-7.39793E+00-8.42033E+00 1.64058E+03-3.77065E+00-3.02007E+02
 -1      2459-3.85943E+01-2.02716E+01 9.32729E+00 1.95443E+03-3.88878E+00-3.37897E+02
 -1      2460-1.15153E+00-3.39433E+00-9.25355E+00 2.24676E+03-4.40084E+00-3.77838E+02
 -1      2461 4.69826E+00-1.27890E+00-1.05841E+00 2.62704E+03 3.44747E-01-4.62398E+02
 -1      2462-4.51631E+01-1.96436E+01 3.63839E+00 2.78489E+03 3.92837E+00-4.69372E+02
 -1      2463-3.52262E+00-6.46433E-01-1.48254E+00 2.39671E+03 2.34266E+00-4.06518E+02
 -1      2464 1.80872E+01 3.82160E-02 6.48768E-02 2.54573E+03 3.98573E-01-4.46933E+02
 -1      2465 2.54985E+00 2.36313E+01 8.11309E+00 2.52655E+03-4.18482E+00-4.28746E+02
 -1      2466 2.62178E+03 2.29737E+00-1.56273E+00 2.03525E+03 2.24727E+00-3.56768E+02
 -1      2467 3.97170E+02-2.68784E+01-1.60714E+00 9.14597E+02-5.69986E+00-1.62374E+02
 -1      2468 8.41470E+03-2.77647E+01 4.39417E+00 2.70231E+03-1.71217E+00-4.64205E+02
 -1      2469 7.37041E+01-3.11126E+01 6.24691E+00 1.91384E+02 5.29565E+00-3.50152E+01
 -1      2470 2.68634E+04-1.91342E+02 1.67441E+03 4.23900E+03-7.03023E+02-2.65705E+02
 -1      2471 1.10839E+02-3.07805E+01-4.88374E+00 1.84878E+02-7.70408E+00-3.10760E+01
 -1      2472-3.82928E+04-5.85813E+02-1.87600E+03 4.50139E+03-1.24194E+03-1.37135E+03
 -1      2473-1.78293E+04 8.08099E+00 1.28872E+00 2.48727E+03-1.33475E+01-3.88330E+02
 -1      2474 1.41553E+04-2.68067E-01-3.44253E+00 2.56019E+03-1.51952E-01-5.17224E+02
 -1      2475-2.28333E+03 3.27666E+01 3.68395E+00 1.21953E+03 6.64668E+00-1.87254E+02
 -1      2476 2.28945E+03-2.36200E+01 1.15403E+00 1.22098E+03-6.95461E+00-1.92092E+02
 -1      2477-3.42625E+03 2.58174E+01-1.10931E+01 1.70486E+03 3.23309E+00-3.16905E+02
 -1      2478-2.48581E+03 3.05196E+01 2.69581E+00 1.47983E+03-7.54353E+00-2.73258E+02
 -1      2479 2.46069E+03-2.63781E+01 2.25537E+00 1.48022E+03 2.48377E+00-2.73598E+02
 -1      2480 3.49903E+03-1.51343E+01 8.70123E+00 1.71802E+03 4.02600E+00-3.33519E+02
 -1      2481-1.41457E+04 9.35757E+00 1.00016E+01 2.52132E+03-7.17388E+00-5.11848E+02
 -1      2482 6.57698E+03-2.33769E+01 3.05963E+00 2.14149E+03 3.59477E+00-4.28088E+02
 -1      2483-1.13556E+04 2.75831E+01 6.65178E+00 2.25983E+03 5.43456E-01-3.74277E+02
 -1      2484 1.35165E+04 1.22685E+01 9.48418E+00 2.34437E+03 1.27255E+01-3.69308E+02
 -1      2485-6.57645E+03 2.09867E+01-7.96978E+00 2.14273E+03-2.08540E+00-4.25247E+02
 -1      2486-1.09990E+04 9.64011E-02-3.10648E-01 2.43825E+03-1.02251E+01-4.78909E+02
 -1      2487 1.78841E+04-6.95541E+00 4.33593E+00 2.48661E+03 1.44313E+01-3.93567E+02
 -1      2488 1.14116E+04-2.25985E+01-9.32109E+00 2.25721E+03-6.67214E+00-3.66255E+02
 -1      2489 1.09698E+04-6.35504E+00-7.27733E+00 2.44470E+03 1.28674E+01-4.73891E+02
 -1      2490-1.34850E+04-1.98395E+01-5.84047E+00 2.32994E+03-5.00440E+00-3.77020E+02
 -1      2491 3.83638E+04 8.69591E+02 2.01271E+03 4.33049E+03 1.13483E+03-1.33756E+03
 -1      2492-1.07744E+02 3.13260E+01 5.85359E+00 1.83295E+02 9.17167E+00-2.98254E+01
 -1      2493-9.32976E+02 3.93991E+01 7.42168E+00 7.53027E+02 1.38871E+01-1.24955E+02
 -1      2494-2.40417E+04 9.70366E-01 5.99577E+00 2.49688E+03 4.03649E+00-4.05034E+02
 -1      2495 1.87556E+04-2.03507E+00-2.65165E+01 2.91335E+03-2.15169E+02-7.28892E+02
 -1      2496 2.34770E+02-3.34814E+01 8.57952E+00 4.58010E+02 4.98504E+00-9.24760E+01
 -1      2497-2.78435E+04-3.13353E+02-2.21607E+03 4.22981E+03 9.54837E+02-5.72779E+01
 -1      2498-1.42493E+03 2.25994E+01 3.20873E+00 9.38844E+02 5.05241E+00-1.41822E+02
 -1      2499-2.56018E+04-9.66557E+00 1.61263E+01 2.53129E+03-3.53905E+01-3.86337E+02
 -1      2500-7.14676E+01 3.24967E+01-5.00791E+00 1.75438E+02-5.99381E+00-3.41772E+01
 -1      2501-8.04325E+03 1.55037E+01-4.27553E-02 1.96267E+03-6.28478E+00-3.15615E+02
 -1      2502-7.16438E+03 2.28045E+01-1.30277E+00 1.82247E+03 5.05530E+00-3.09698E+02
 -1      2503-1.97871E+04-3.42747E+00 5.94585E+01 2.85387E+03 2.10443E+02-7.24018E+02
 -1      2504-3.91333E+02 3.75568E+01 3.01949E+00 4.25294E+02 4.61832E+00-8.40368E+01
 -1      2505 2.52551E+02-2.86555E+01-4.60601E+00 5.13552E+02-6.13712E+00-6.77392E+01
 -1      2506 5.30555E+03-3.75188E+01 9.60219E+00 1.80958E+03 6.12975E+00-3.49207E+02
 -1      2507 6.34308E+03 8.41542E+00 3.63691E+00 1.90987E+03-8.20894E-01-3.79929E+02
 -1      2508 6.60869E+02-4.26305E+01 1.09236E+01 7.14335E+02 6.71507E+00-1.41192E+02
 -1      2509-6.57127E+02 3.31137E+01-1.11387E+01 7.29123E+02-6.38847E+00-1.41990E+02
 -1      2510-1.13574E+03 3.63512E+01-1.08107E+01 9.50744E+02-1.06951E+00-1.84416E+02
 -1      2511 1.10584E+03-3.59259E+01 7.19571E+00 9.50897E+02 5.86015E+00-1.81600E+02
 -1      2512 1.83628E+04-2.38847E+01-7.15177E+00 2.46544E+03-1.04424E+00-4.89296E+02
 -1      2513 1.97153E+04 3.06512E+01-3.10718E+01 2.45972E+03-1.69912E+01-5.12472E+02
 -1      2514-1.14303E+04-1.80667E+01-2.03959E+00 2.25639E+03 8.13033E+00-4.57723E+02
 -1      2515 6.08926E+03-1.90703E+01 4.21590E+00 1.66416E+03-4.74797E+00-2.62075E+02
 -1      2516-1.80920E+03 3.32569E+01 8.69312E-01 1.13833E+03-7.16046E+00-2.16891E+02
 -1      2517 1.80984E+03-3.11756E+01 8.28677E-01 1.13673E+03 6.44418E+00-2.15598E+02
 -1      2518 3.98986E+03-3.55225E+01-8.49853E+00 1.38348E+03-3.19091E+00-2.16150E+02
 -1      2519-3.99576E+03 3.69884E+01 7.25854E+00 1.37889E+03 1.65863E+00-2.14093E+02
 -1      2520-5.71145E+03 2.31407E+01 1.42551E+01 1.61047E+03-5.95078E+00-2.62013E+02
 -1      2521 2.36070E+04-2.26434E+01-1.35610E+00 2.38332E+03-1.04579E+01-3.59186E+02
 -1      2522-1.08953E+04 2.29245E+01 1.09027E+01 2.01520E+03 1.15084E+01-3.22249E+02
 -1      2523-1.50725E+04-1.84930E+01-1.12817E+00 2.37933E+03 7.97017E+00-4.74141E+02
 -1      2524 1.83099E+04-3.31893E+01-8.30255E+00 2.29203E+03-1.33299E+01-3.51450E+02
 -1      2525-2.36955E+04 3.40796E+01 1.04223E+01 2.37724E+03 7.64403E+00-3.58286E+02
 -1      2526 1.08964E+04-1.93194E+01-1.22819E+01 2.03454E+03-2.85678E+00-3.18862E+02
 -1      2527 1.14123E+04 1.42934E+01 2.51201E+00 2.26000E+03-7.51043E+00-4.53311E+02
 -1      2528 1.51002E+04 1.88488E+01 4.44561E-01 2.37814E+03-8.13706E+00-4.73313E+02
 -1      2529-1.83241E+04 3.19693E+01 8.57221E+00 2.28939E+03 1.20080E+01-3.50758E+02
 -1      2530 9.30321E+03-2.69913E+01-2.20526E+00 2.14441E+03-5.71337E+00-4.25547E+02
 -1      2531-9.30994E+03 3.06100E+01 2.56862E+00 2.14578E+03 3.40364E+00-4.28209E+02
 -1      2532-6.45470E+03-6.71165E-01 3.22187E+00 1.89908E+03 6.65250E+00-3.89459E+02
 -1      2533-1.82941E+04 1.12806E+01-8.18375E+00 2.44167E+03 2.85533E+00-4.88461E+02
 -1      2534-1.96666E+04-2.59714E+00 1.64577E+01 2.48854E+03 2.91941E+01-5.00641E+02
 -1      2535 3.02398E+04-4.23277E+00-9.58147E+01 2.63138E+03 2.63111E+02-2.06008E+02
 -1      2536-3.07136E+04 2.16693E+01 6.65788E+01 2.57926E+03-2.45121E+02-2.29682E+02
 -1      2537 8.17022E+03-9.01598E+00 5.98585E+00 1.71430E+03-9.44235E+00-2.62926E+02
 -1      2538 1.17077E+04-4.00544E+01-8.17207E+00 1.75702E+03 3.34135E+00-2.76407E+02
 -1      2539 9.42604E+02-2.79362E+01-3.47114E+00 6.77356E+02-1.17194E+01-1.02211E+02
 -1      2540 1.89736E+03-3.41445E+01-7.81111E+00 9.23092E+02-6.81508E+00-1.42489E+02
 -1      2541-5.48351E+03 2.22858E+01-4.20775E+00 1.78471E+03-7.20460E-01-3.41892E+02
 -1      2542 3.13132E+04-2.07144E+01-2.49163E+01 2.38012E+03 4.48506E+01-3.26275E+02
 -1      2543 2.85219E+04 2.72166E+01 5.59328E+00 2.37064E+03-1.46527E+01-3.62376E+02
 -1      2544-4.38263E+02 4.27092E+01-5.84057E+00 4.97818E+02-3.27313E+00-9.48946E+01
 -1      2545-2.28359E+04-1.53474E+01-3.72553E+00 2.25421E+03 7.70068E+00-3.49964E+02
 -1      2546-2.63098E+03 2.29307E+01-4.64271E+00 1.20200E+03-3.23499E+00-2.43406E+02
 -1      2547 6.06595E+03-3.45923E+01-3.63832E+00 1.49733E+03-1.36764E+00-2.37437E+02
 -1      2548 2.63180E+03-2.29765E+01 4.96064E+00 1.20138E+03 3.31489E+00-2.43220E+02
 -1      2549-7.78054E+03 2.98942E+01 8.83047E-01 1.60409E+03-5.99137E-01-2.55528E+02
 -1      2550-2.92837E+04-7.11602E+00-2.13018E+00 2.28066E+03-1.16724E+01-3.42041E+02
 -1      2551 1.66207E+04-2.85799E+01 9.45421E+00 2.28537E+03-8.03494E+00-4.43793E+02
 -1      2552-1.66071E+04 2.73180E+01-1.01953E+01 2.28513E+03 6.11168E+00-4.42358E+02
 -1      2553 2.28775E+04 1.52218E+01 3.34464E+00 2.25192E+03-9.03090E+00-3.49842E+02
 -1      2554-1.18893E+04 9.70844E+00-7.50517E-01 2.11747E+03-4.31956E+00-4.21619E+02
 -1      2555 1.18465E+04-1.24961E+01-2.64155E-01 2.10683E+03 9.03702E+00-4.05119E+02
 -1      2556 1.40228E+04-3.00023E+00-2.25717E+00 1.96511E+03-3.04412E+00-2.97322E+02
 -1      2557-1.40228E+04-9.47088E-02 2.16281E+00 1.95501E+03 1.46237E+00-2.90621E+02
 -1      2558-1.73521E+02 3.68254E+01-8.67925E+00 3.65294E+02-8.34162E+00-5.71074E+01
 -1      2559-5.70116E+03 2.07860E+01 1.66497E+00 1.43454E+03 5.59868E+00-2.26171E+02
 -1      2560 4.07621E+03-3.08440E+01 4.78364E+00 1.48675E+03 9.15333E+00-2.84912E+02
 -1      2561-4.12751E+03 2.80640E+01-4.74143E+00 1.46810E+03-4.16589E+00-2.93773E+02
 -1      2562 1.73262E+04-1.13213E+01-1.41940E+00 2.12120E+03-2.50871E+00-3.27075E+02
 -1      2563-1.19277E+04 1.88578E+01 2.40459E+01 2.40475E+03 1.25608E+00-2.45393E+02
 -1      2564-1.91325E+04 1.38174E+01 7.56305E-02 1.64554E+03-4.34107E+00-3.66763E+02
 -1      2565-3.11080E+04-6.13174E+00-1.79470E+01 1.19033E+03 7.28145E+00-1.41092E+02
 -1      2566-1.88153E+04 2.13020E+01-3.44925E+01 2.18741E+03 2.09590E+01-1.84090E+02
 -1      2567-2.62556E+04-5.29706E+01-3.58232E+01 1.28830E+03 2.26041E+01-3.43676E+02
 -1      2568-6.54854E+03 7.69861E+01 7.84914E+01 2.44394E+03-2.35873E+01-4.52089E+02
 -1      2569-2.43537E+04 6.92559E+01 6.47032E+01 1.28454E+03-2.41951E+01-3.46608E+02
 -1      2570-1.74362E+04 3.06588E+01 2.89506E+01 2.18265E+03-1.10810E+00-1.80912E+02
 -1      2571-5.87501E+03-3.72275E+01-4.93554E+01 2.41759E+03 7.31748E+00-4.19411E+02
 -1      2572 1.19042E+02-2.34760E+01-1.10814E+01 1.06473E+02 1.85913E+00-4.59519E+01
 -1      2573 2.32320E+02-3.89005E+01-1.14816E+01 1.38547E+02 6.88257E-01-5.28955E+01
 -1      2574 1.31605E+02-2.59676E+01-1.92732E+01 1.04546E+02-4.74014E+00-4.55025E+01
 -1      2575 2.59314E+02-3.76813E+01-1.61834E+01 1.33428E+02-3.96391E+00-6.24344E+01
 -1      2576 8.80190E+01-3.47019E+01-4.19455E+00 1.80431E+02-1.81211E+00-3.67713E+01
 -1      2577 1.93127E+01-6.56676E+00 8.81976E+00 3.23755E+02 7.17352E+00-2.36471E+01
 -1      2578 3.71186E+01-1.14065E+01 9.45146E+00 2.55243E+02 6.22581E+00-2.04108E+01
 -1      2579-8.10900E+01 1.80575E+01 1.43124E+00 2.51191E+02 7.14207E+00-1.61911E+01
 -1      2580-1.64058E+01 2.70791E+00 6.73570E+00 2.08364E+02 8.09814E+00-3.29774E+01
 -1      2581-1.00492E+02 1.40431E+01 4.14158E+00 3.22557E+02 8.16970E+00-2.35676E+01
 -1      2582 5.72659E+03-1.97000E+02 6.85638E+02 2.41815E+03-7.61716E+02-2.42795E+02
 -1      2583 1.17594E+04 1.16933E+02 7.16044E+02 4.70652E+03-6.13850E+02-8.00575E+02
 -1      2584-8.15329E+03-3.16731E+02-1.26679E+01 3.19543E+03-7.75822E+02-5.33961E+02
 -1      2585-2.54704E+04-1.30405E+03-8.64500E+02 2.63260E+03-1.03095E+03-7.03259E+02
 -1      2586-2.00862E+04-4.14888E+02-8.94752E+02 4.53733E+03-8.65584E+02-8.30256E+02
 -1      2587-5.53509E+03-4.40123E+02-1.62573E+02 4.36932E+03-9.25452E+02-5.61800E+02
 -1      2588 3.86837E+04 5.71779E+01 2.22303E+03 2.72831E+03 1.84136E+02-5.96420E+02
 -1      2589 5.32362E+04-8.04248E+01 3.85978E+03 1.92692E+03-2.51578E+02-7.30161E+01
 -1      2590 5.89988E+04 4.20817E+02 3.92237E+03 2.20110E+03 5.78059E+02-9.26785E+02
 -1      2591 3.30499E+04 1.06945E+02 2.95241E+03 4.48171E+03 2.00420E+02-6.74006E+02
 -1      2592 1.73211E+04 2.11397E+02 6.77636E+02 4.61785E+03 9.62046E+02-8.40417E+02
 -1      2593-4.21906E+03 4.39244E+01 2.49518E+01 5.56490E+02 3.75272E+00-5.23646E+01
 -1      2594-3.92701E+03-1.62294E+01-1.12217E+01 6.46095E+02 1.08045E+01-1.94821E+02
 -1      2595-2.83938E+03 5.37200E+01-7.48525E-01 1.11414E+03 1.60077E+01-8.84582E+01
 -1      2596-2.32435E+03-1.48335E+01-7.13182E+00 9.85551E+02-7.49702E+00-7.83000E+01
 -1      2597-1.84243E+03 4.26421E+01 1.96955E+01 1.07053E+03 1.64236E+01-1.51789E+02
 -1      2598-3.22938E+03 3.98910E+01 2.32142E+01 5.47366E+02 6.50996E+00-1.58528E+02
 -1      2599-1.05070E+03 6.73488E+01 3.57129E+01 1.21153E+03 7.97053E+00-1.83991E+02
 -1      2600-2.64136E+03 2.35038E+01 1.09751E+01 7.41443E+02 5.57454E+00-1.67824E+02
 -1      2601-7.86202E+02-1.24027E+01-1.84775E+01 1.07864E+03 1.04129E+01-1.56934E+02
 -1      2602-1.64188E+03 1.31043E+01-5.40448E+00 1.07113E+03 3.84970E+00-1.35932E+02
 -1      2603 3.74593E+04-6.99212E+01 4.85897E+02 2.67160E+03 1.42808E+02-5.84889E+02
 -1      2604 5.70885E+04-1.26776E+01 1.80042E+03 1.85493E+03 4.40948E+02-7.56651E+02
 -1      2605-7.72869E+03-7.13952E+01 1.41253E+01 3.24321E+03-6.66433E+02-4.60193E+02
 -1      2606-2.46189E+04-2.67213E+01-4.69641E+02 2.81616E+03-8.11223E+02-4.13657E+02
 -1      2607-1.33118E+03 4.11431E+00 6.18613E-01 3.92084E+02 1.08706E+01-1.07538E+02
 -1      2608-1.00723E+03 5.12781E+01 3.30323E+00 6.72650E+02 1.41570E+01-5.71427E+01
 -1      2609-1.28547E+03 3.65488E+01 1.42352E+01 3.17673E+02 2.73126E+00-3.08823E+01
 -1      2610-9.24542E+02 4.09237E+01 1.28157E+01 2.57036E+02 1.77669E+00-7.73938E+01
 -1      2611-6.82658E+02 2.57176E+01 4.84664E+00 5.14093E+02-3.99725E+00-4.81674E+01
 -1      2612-6.17096E+02 5.51803E+01 1.51098E+01 5.83780E+02 1.25806E+01-1.11683E+02
 -1      2613-4.30360E+02 4.28836E+01 2.19864E+01 7.09093E+02 8.46871E+00-9.80638E+01
 -1      2614-5.22351E+02 2.24400E+01 1.24347E+00 6.13817E+02 4.35214E+00-7.35805E+01
 -1      2615-2.29646E+02 7.49778E+00-1.25680E+01 5.39930E+02 3.60061E+00-9.31555E+01
 -1      2616 4.10973E+04-9.93120E+01 1.58331E-01 1.29277E+03-2.26543E+01-4.77364E+02
 -1      2617 1.20991E+04 9.56649E+01 4.71291E+01 2.56673E+03 2.56113E+00-3.71796E+02
 -1      2618 2.96462E+04-9.32519E+00 4.46456E+00 1.68903E+03-1.24579E+01-4.73759E+02
 -1      2619 4.40330E+04 3.89117E+01-3.92888E+01 1.29890E+03 3.60345E+01-5.43464E+02
 -1      2620 1.41565E+04-8.40981E+01 2.83524E+00 2.59871E+03-1.57836E+01-3.77822E+02
 -1      2621 2.60507E+04-1.80728E+01-2.14836E+01 2.36445E+03 3.70106E-01-3.82318E+02
 -1      2622 1.69976E+04 7.18589E+01-7.35316E+00 2.75597E+03 7.91300E+00-1.97092E+02
 -1      2623 5.28156E+03 2.26127E+01 3.73660E+01 2.79890E+03-3.26773E+01-2.91120E+02
 -1      2624 1.94061E+04-8.79395E+01-1.66985E+01 2.76334E+03-4.65829E+00-2.06368E+02
 -1      2625 4.42780E+04-6.84830E+01-7.75250E+00 1.28685E+03 1.93487E+01-3.18294E+02
 -1      2626 4.72339E+04 8.98498E+01 1.39314E+01 1.25900E+03-1.50097E+01-3.28845E+02
 -1      2627 3.18172E+04-3.63218E+01-3.87396E+01 2.39412E+03 4.29795E+01-1.82762E+02
 -1      2628 3.45194E+04 3.49252E+01 2.56669E+01 2.40541E+03-2.46851E+01-1.58723E+02
 -1      2629 5.17048E+04-1.38368E+02 1.94825E+03 1.84797E+03-1.99347E+02-2.51950E+02
 -1      2630 5.90689E+03-7.01385E+02 3.61067E+02 2.69757E+03-6.54938E+02-2.62583E+02
 -1      2631-2.18832E+03 2.01423E+01 8.27471E+00 7.23596E+02 1.69798E+01-2.15121E+02
 -1      2632-2.68447E+03 1.24517E+01 7.47229E+00 7.48558E+02 1.35522E+01-2.27433E+02
 -1      2633-3.93508E+02 7.30138E+00-1.18022E+00 1.15661E+03 9.81020E+00-1.33572E+02
 -1      2634-4.45053E+02 7.54663E+00 4.07716E+00 1.23936E+03 4.16029E+00-1.41105E+02
 -1      2635-1.14449E+02 3.65482E+00 6.34822E+00 6.46834E+02 1.26231E+01-6.87556E+01
 -1      2636-2.99393E+02 1.37950E+01 7.80998E+00 5.45234E+02 8.59248E+00-4.72451E+01
 -1      2637-1.37548E+02 2.01963E+00 7.79051E+00 7.41596E+02 6.36930E+00-7.63464E+01
 -1      2638-1.83167E+04 6.00943E+01 3.08675E+01 2.47842E+03-2.35326E+00-3.05683E+02
 -1      2639-4.71896E+03 1.14604E+01 3.44556E+01 2.77885E+03-5.30224E+00-3.01949E+02
 -1      2640-2.70751E+04-6.82771E+01 1.25468E+01 2.39305E+03-7.76602E+00-2.05837E+02
 -1      2641-1.35891E+04-2.68741E+01-2.20329E-02 2.77688E+03-9.89772E+00-2.32502E+02
 -1      2642-9.19097E+03-4.99767E+01-4.33495E+01 2.63422E+03-3.29920E+01-3.89527E+02
 -1      2643-1.63023E+04-8.08355E+00-1.91743E+01 2.70873E+03-3.28345E+00-1.99567E+02
 -1      2644-3.01489E+04 3.03635E+01-2.03429E+01 2.37116E+03 2.13201E+01-1.87275E+02
 -1      2645-1.16775E+04 1.01274E+02 7.36384E+01 2.54351E+03 4.08390E+00-3.59957E+02
 -1      2646-5.34421E+03-2.17660E+01-2.27910E+01 2.87064E+03 2.21196E+01-2.93291E+02
 -1      2647 9.68207E+03-7.70796E+01-4.64086E+01 2.55907E+03 2.65798E+01-3.10261E+02
 -1      2648 1.88066E+03 4.32805E+01 1.69755E+01 2.83520E+03-9.41278E+00-2.50694E+02
 -1      2649 1.66885E+04 6.33022E+01-9.41641E+00 2.42544E+03-1.51527E+01-3.04426E+02
 -1      2650 7.19339E+03 6.21725E+01 1.42209E+01 2.67851E+03 1.95678E+01-5.48686E+02
 -1      2651 8.53814E+03 7.58163E+01 6.42287E+01 2.52004E+03-1.76954E+01-3.01293E+02
 -1      2652-4.93110E+03 2.54648E+01 3.12446E+01 2.79294E+03-2.32725E+01-2.85140E+02
 -1      2653 1.56970E+04-1.94216E+01 1.97306E+01 2.42113E+03 9.75876E+00-3.00646E+02
 -1      2654 2.03282E+03-7.02668E+01-2.96311E+01 2.81162E+03 7.49456E+00-2.61559E+02
 -1      2655 6.91022E+03-6.15240E+01-3.86608E+01 2.68095E+03 2.40058E+01-5.51690E+02
 -1      2656-3.15655E+03-7.18180E+00-7.94653E+00 2.59299E+03 1.36877E+01-3.05996E+02
 -1      2657-3.26249E+03 3.51708E+00 2.16555E+01 2.61135E+03-1.57314E+01-3.01031E+02
 -1      2658-2.06630E+04 4.95150E+01 3.34751E+01 2.40782E+03 2.58297E+01-3.38633E+02
 -1      2659-6.96875E+03-5.20580E+01-4.28839E+01 2.49919E+03-3.26084E+01-3.76650E+02
 -1      2660-2.05561E+04-1.19526E+01 2.39786E+01 2.26485E+03-8.67392E+00-1.85855E+02
 -1      2661-1.39846E+04 6.65847E+01 4.48365E+01 2.37481E+03 1.76082E+00-2.89137E+02
 -1      2662-8.99927E+03 8.76467E+01 6.79232E+01 2.43955E+03 5.35631E+00-3.47749E+02
 -1      2663-2.31523E+04 3.57483E+01-8.38862E+00 2.26904E+03 2.09056E+01-1.91736E+02
 -1      2664-1.57971E+04 3.35519E+01 7.90875E+00 2.27622E+03 1.33466E+01-3.34427E+02
 -1      2665 2.96014E+03-3.94229E+00 4.46771E+00 2.73048E+03 7.91397E+00-2.59350E+02
 -1      2666 1.61459E+04 4.51264E+01 1.10519E+01 2.37754E+03-2.27006E+01-2.72263E+02
 -1      2667 7.66800E+03 6.06883E+01 4.34223E+01 2.56739E+03-2.04734E+00-5.39818E+02
 -1      2668-3.62780E+03 1.40526E+01 3.63741E+01 2.64709E+03-2.65485E-01-2.85723E+02
 -1      2669-1.25526E+04-1.38882E+01-1.86959E+01 2.59025E+03-3.89628E+00-1.96256E+02
 -1      2670 3.73274E+03 4.81949E+01 4.76364E+01 2.07156E+03-1.91720E+01-2.43742E+02
 -1      2671-2.18128E+03 8.63283E+00 1.51914E+01 2.30324E+03-2.62013E+01-2.35703E+02
 -1      2672 7.09511E+03-2.89011E+01 2.03453E+01 2.01738E+03 1.10502E+01-2.47330E+02
 -1      2673 9.96830E+02-6.86629E+01-2.64432E+01 2.35490E+03 6.00832E+00-2.20712E+02
 -1      2674 3.14178E+03-7.46613E+01-3.86510E+01 2.21811E+03 4.89478E+00-4.44013E+02
 -1      2675 2.75791E+04 4.44176E+01 4.78330E+01 1.73818E+03-2.70622E+01-5.16268E+02
 -1      2676 3.43704E+04-2.83054E+01-4.92041E+00 1.41907E+03-1.41410E+01-4.58550E+02
 -1      2677 3.63255E+04-7.93793E+01-3.25354E+01 1.36982E+03-1.33221E+00-5.29009E+02
 -1      2678-1.03254E+04-3.71816E+01 7.74804E-01 2.62496E+03-5.62363E+00-2.09728E+02
 -1      2679 1.46971E+04 9.97642E+00-1.33174E+01 2.42094E+03-2.36087E+00-5.03747E+02
 -1      2680-2.75249E+04-1.03078E+01 1.67574E+01 1.66132E+03-6.83743E+01-5.09036E+02
 -1      2681-2.46952E+04 5.01695E+01 3.58123E+01 1.71241E+03-4.54031E+01-5.11842E+02
 -1      2682-3.50462E+04-9.16924E+01-6.56965E+01 1.37927E+03 1.03283E+01-5.36339E+02
 -1      2683-3.20760E+04-3.59886E+01-1.45201E+01 1.41954E+03-1.97135E+01-4.47787E+02
 -1      2684-6.92891E+03 6.20573E+01 3.23769E+01 2.67675E+03-2.55724E+01-5.44512E+02
 -1      2685-8.43431E+03-7.44019E+01-6.41974E+01 2.52162E+03 1.78964E+01-2.99457E+02
 -1      2686 4.88591E+03-1.82107E+01-2.92013E+01 2.78868E+03 2.20089E+01-2.83483E+02
 -1      2687-1.56107E+04 1.72043E+01-1.66423E+01 2.42496E+03-9.48658E+00-2.99095E+02
 -1      2688-2.10271E+03 7.77425E+01 3.46190E+01 2.80494E+03-7.66591E+00-2.61054E+02
 -1      2689-2.64635E+04 3.01426E+01-8.09019E+00 1.66094E+03-6.71122E+01-4.75362E+02
 -1      2690-2.92981E+04-2.67885E+01-1.41429E+01 1.70711E+03-4.23979E+01-3.69297E+02
 -1      2691-3.79094E+04 2.01880E+01-3.95254E+00 1.40685E+03-3.57478E+00-3.90853E+02
 -1      2692-3.49490E+04 7.91793E+01 6.11238E+01 1.38498E+03-3.06353E+00-4.61060E+02
 -1      2693-2.72742E+03 5.29959E+01 1.83786E+01 1.36314E+03 1.09014E+01-1.58311E+02
 -1      2694-6.47522E+02 9.72337E+00 1.88708E+01 1.49805E+03 1.44852E+01-1.59690E+02
 -1      2695-1.76178E+03-3.75944E+00 8.24743E+00 1.39836E+03 1.17578E+00-1.16383E+02
 -1      2696-1.25641E+03-3.62623E+01-3.20052E+01 1.34669E+03 9.95292E+00-2.15769E+02
 -1      2697-3.76076E+03-9.19780E+00 1.19699E+01 1.23161E+03-7.64722E+00-9.72840E+01
 -1      2698 2.72132E+03-5.09868E+01-2.36731E+01 1.36640E+03-1.26167E+01-1.55736E+02
 -1      2699 6.46630E+02-1.10886E+01-2.02230E+01 1.49791E+03-1.55607E+01-1.57889E+02
 -1      2700 3.74919E+03-1.75865E+01-1.58910E+01 1.23681E+03 4.96692E+00-9.71487E+01
 -1      2701 1.76469E+03 8.94361E-01-1.14162E+01 1.39760E+03-7.09102E+00-1.18285E+02
 -1      2702 1.25996E+03 3.48716E+01 3.55986E+01 1.34949E+03-6.33832E+00-2.15703E+02
 -1      2703-3.99026E+03-4.61790E+00-1.72942E+00 6.68635E+02 1.02854E+01-2.07171E+02
 -1      2704-3.73259E+03 2.24696E+01 8.76911E+00 8.89729E+02-2.91988E+00-2.76689E+02
 -1      2705-4.35838E+03-1.11010E+01-6.32826E+00 9.22807E+02-1.71003E+01-2.19285E+02
 -1      2706-4.62885E+03 6.64725E+01 2.69740E+01 6.79714E+02 1.73986E+01-2.28360E+02
 -1      2707-5.30647E+03 4.78869E+01 9.57682E+00 7.00037E+02-1.29886E+00-2.01916E+02
 -1      2708-1.60927E+03 2.48257E+01-6.73244E+00 1.32520E+03 4.79055E+00-1.04782E+02
 -1      2709 3.73300E+03-2.23659E+01-1.06775E+01 8.89784E+02 2.28618E+00-2.75433E+02
 -1      2710 4.36092E+03 7.65452E+00 2.26647E+00 9.25421E+02 1.48398E+01-2.20780E+02
 -1      2711 5.29952E+03-4.05313E+01-9.77590E+00 7.09849E+02 6.35078E+00-2.07486E+02
 -1      2712 4.61998E+03-5.59079E+01-2.61756E+01 6.86096E+02-1.65300E+01-2.27038E+02
 -1      2713 7.38130E+03 1.03100E+00 2.22914E+01 1.23415E+03-1.41856E+01-3.58500E+02
 -1      2714 7.69396E+03-2.82583E+01-8.25782E+00 1.19295E+03-1.16420E+01-3.30602E+02
 -1      2715 9.14873E+03-5.25289E+01-4.13838E+01 9.48512E+02 1.06578E+01-3.70010E+02
 -1      2716 1.82104E+03 1.84006E+01 1.66290E+01 1.85981E+03 4.74897E+00-3.77508E+02
 -1      2717 8.91953E+03-2.83381E+01-1.56489E+01 9.98398E+02-1.22947E+01-3.13347E+02
 -1      2718-1.39996E+03-1.75738E+01-1.35272E+01 2.00152E+03 1.52533E+01-2.02148E+02
 -1      2719 2.60544E+03-6.29024E+01-3.34978E+01 1.82000E+03 2.18557E+01-2.17228E+02
 -1      2720 4.64939E+02 6.00609E+00 4.46355E+00 1.92899E+03-1.09677E+00-1.62838E+02
 -1      2721 4.29334E+03-1.20940E+01-1.11961E+01 1.70047E+03-5.36609E+00-2.00753E+02
 -1      2722-9.58672E+03 8.97532E+01 2.96875E+01 2.55600E+03-2.04689E+01-3.03213E+02
 -1      2723-1.66014E+04-8.16480E+01 6.70990E+00 2.43061E+03 1.36009E+01-3.10799E+02
 -1      2724-7.26310E+03-9.50703E+01-7.21773E+01 2.65587E+03-5.32412E-02-5.03629E+02
 -1      2725-1.96585E+03-7.59540E+01-2.78935E+01 2.80715E+03-8.80814E+00-2.69094E+02
 -1      2726-2.76122E+04-7.80825E+01-5.27743E+01 1.73503E+03 4.16324E+01-4.97699E+02
 -1      2727-2.97322E+04-5.57883E+00-9.07347E+00 1.69865E+03 1.53087E+01-4.77767E+02
 -1      2728-3.43969E+04 3.18930E+01 1.12631E+01 1.41404E+03 3.22812E+00-4.53039E+02
 -1      2729-3.63125E+04 8.39382E+01 6.23117E+01 1.38447E+03-1.75305E+01-5.38331E+02
 -1      2730 2.75258E+04 1.03257E+01-1.38861E+01 1.65889E+03 6.97851E+01-5.05070E+02
 -1      2731 2.46981E+04-5.04594E+01-3.18752E+01 1.71393E+03 4.60690E+01-5.13923E+02
 -1      2732 3.50501E+04 9.70154E+01 6.37674E+01 1.38535E+03-1.14952E+01-5.37511E+02
 -1      2733 3.20593E+04 3.25287E+01 1.11981E+01 1.42142E+03 2.07942E+01-4.50717E+02
 -1      2734-8.74887E+03 5.68639E+00 2.68535E+01 2.52760E+03 7.89393E+00-2.37618E+02
 -1      2735 1.23961E+04 2.24905E+00-9.57314E+00 1.37812E+03 1.98064E+01-3.85892E+02
 -1      2736 1.09016E+04-4.94093E+01-3.55535E+01 1.40952E+03 2.50466E+01-4.15641E+02
 -1      2737 1.60032E+04 5.91970E+01 3.82435E+01 1.15429E+03-1.17877E+01-4.56965E+02
 -1      2738 1.44345E+04 2.11284E+01 1.97577E+01 1.18919E+03 1.89638E+01-3.66192E+02
 -1      2739-1.23709E+04 4.26460E-01 1.92466E+01 1.38170E+03-4.18677E+01-3.95417E+02
 -1      2740-1.09143E+04 4.54034E+01 2.64050E+01 1.41150E+03-2.91735E+01-4.09219E+02
 -1      2741-1.59994E+04-7.26605E+01-6.56182E+01 1.16502E+03 4.62522E+00-4.49691E+02
 -1      2742-1.44502E+04-4.62183E+01-4.40165E+01 1.18514E+03-1.40690E+01-3.60798E+02
 -1      2743-3.16921E+03 8.54307E+01 4.48904E+01 2.21642E+03-1.40197E+01-4.43224E+02
 -1      2744-3.72168E+03-5.92597E+01-4.33922E+01 2.07047E+03 1.53627E+01-2.47510E+02
 -1      2745 2.16014E+03-4.73549E+01-3.70214E+01 2.30065E+03 1.84307E+01-2.33362E+02
 -1      2746-1.00336E+03 7.30243E+01 2.19262E+01 2.35671E+03-1.05883E+01-2.25684E+02
 -1      2747-7.07570E+03 2.42985E+01-1.59354E+01 2.03113E+03-2.10683E+01-2.59692E+02
 -1      2748 1.80592E+04-6.65709E+01-4.50320E+01 2.49511E+03-3.83246E+00-2.97401E+02
 -1      2749 4.69389E+03-1.14170E+01-3.69187E+01 2.77774E+03 3.80146E+00-2.99790E+02
 -1      2750 2.68129E+04 1.37283E+01-2.57000E+01 2.41778E+03 7.42884E+00-2.07192E+02
 -1      2751 1.36039E+04 3.50994E+01-5.74238E-01 2.77018E+03 5.91648E+00-2.36430E+02
 -1      2752 9.22048E+03 5.50851E+01 5.40323E+01 2.63243E+03 3.66813E+01-3.89000E+02
 -1      2753-2.11525E+04-1.04590E+01 1.54448E+01 1.59000E+03-6.72026E+01-4.82673E+02
 -1      2754-1.88963E+04 5.31588E+01 3.64531E+01 1.63118E+03-4.51262E+01-4.92179E+02
 -1      2755-2.70756E+04-7.40253E+01-7.17387E+01 1.35019E+03-3.34935E+00-5.01144E+02
 -1      2756-2.46321E+04-1.90348E+00-2.62918E-01 1.37458E+03-1.74110E+00-4.45841E+02
 -1      2757-5.30678E+03 4.15422E+01 2.33413E+01 2.56711E+03-2.03650E+01-5.24469E+02
 -1      2758-6.41896E+03-5.63654E+01-4.31035E+01 2.39625E+03 9.72839E+00-2.81930E+02
 -1      2759 3.75655E+03-1.44459E+01-2.83491E+01 2.67262E+03 1.61420E+01-2.71854E+02
 -1      2760-1.19556E+04 7.78293E+01-5.99003E+00 2.32498E+03-1.59978E+00-2.83973E+02
 -1      2761-1.62733E+03 5.44673E+01 2.85854E+01 2.70355E+03-1.26390E+01-2.52024E+02
 -1      2762 2.64661E+04-3.17328E+01 4.59069E+00 1.65983E+03 6.29763E+01-4.74622E+02
 -1      2763 2.93067E+04 1.93371E+01 1.58100E+00 1.70650E+03 3.74748E+01-3.74556E+02
 -1      2764 3.49661E+04-8.06630E+01-6.45112E+01 1.38537E+03-1.02141E+00-4.53733E+02
 -1      2765 3.79243E+04-2.91449E+01 3.13223E+00 1.41407E+03 1.74880E+01-4.02899E+02
 -1      2766 2.11506E+04 1.05805E+01-1.10001E+01 1.59035E+03 6.53455E+01-4.83470E+02
 -1      2767 1.88939E+04-4.31202E+01-2.78661E+01 1.63435E+03 4.04613E+01-4.85501E+02
 -1      2768 2.70664E+04 7.58244E+01 7.42181E+01 1.35652E+03-2.06418E+00-5.10493E+02
 -1      2769 2.46471E+04 1.13079E+01 1.88050E+01 1.38802E+03 1.84591E+01-4.30274E+02
 -1      2770 5.29942E+03-5.36225E+01-3.77730E+01 2.56705E+03 2.93359E+01-5.24449E+02
 -1      2771-2.53332E+03-1.48584E+01-2.67703E+01 2.46979E+03 2.17490E+01-2.52228E+02
 -1      2772 4.67190E+03-7.62172E+01-4.03289E+01 2.22354E+03 2.31063E+01-2.71577E+02
 -1      2773 7.90075E+03 5.18900E+01-1.49971E+00 2.07236E+03-1.28316E+01-2.62484E+02
 -1      2774 3.42192E+03 6.26437E+01 3.40814E+01 2.27909E+03 9.91415E+00-4.38517E+02
 -1      2775 8.75282E+02 3.10422E+01 1.31549E+01 2.40339E+03-8.81678E+00-2.15826E+02
 -1      2776-1.00589E+04-3.06453E+01-4.03186E+01 2.58165E+03-3.97388E+00-2.19358E+02
 -1      2777 2.01233E+04-2.95365E+01 3.83273E+00 1.58363E+03 6.29687E+01-4.50264E+02
 -1      2778 2.23928E+04 2.11674E+01 7.33183E+00 1.63670E+03 3.87711E+01-3.54301E+02
 -1      2779 2.88593E+04-2.65109E+01 4.18595E+00 1.33602E+03 1.66540E+01-3.83197E+02
 -1      2780 7.04389E+03 6.70554E+01 5.78665E+01 2.50143E+03 3.31320E+01-3.69867E+02
 -1      2781 2.64804E+04-7.79388E+01-6.12175E+01 1.30615E+03-6.78056E+00-4.30504E+02
 -1      2782 1.38098E+04-6.56904E+01-4.54985E+01 2.38192E+03-4.39585E+00-2.88946E+02
 -1      2783 3.57817E+03-1.64595E+01-3.57464E+01 2.64460E+03 2.66087E+00-2.86186E+02
 -1      2784 1.03194E+04 4.06555E+01 8.09856E+00 2.62827E+03 7.09878E+00-2.20945E+02
 -1      2785 2.04136E+04 1.52184E+01-1.92456E+01 2.29436E+03 7.38932E+00-1.96371E+02
 -1      2786 1.88507E+04-5.56801E+01-7.77867E+00 2.42577E+03 9.45777E+00-2.92798E+02
 -1      2787 3.52822E+03-4.77521E+00-3.76557E+01 2.84349E+03-5.01886E+00-2.71517E+02
 -1      2788 9.04180E+03-8.91534E+01-3.10018E+01 2.65222E+03 6.26662E+00-5.31682E+02
 -1      2789-2.01359E+04 2.73488E+01-8.85256E+00 1.58350E+03-6.10734E+01-4.47256E+02
 -1      2790-2.24039E+04-2.38251E+01-9.59160E+00 1.63623E+03-4.04285E+01-3.53308E+02
 -1      2791-2.64931E+04 7.60330E+01 5.20515E+01 1.27922E+03 7.75063E+00-4.22046E+02
 -1      2792-2.88407E+04 3.88961E+01-7.14442E+00 1.31795E+03-1.78686E+01-3.79912E+02
 -1      2793-1.33600E+04-5.13525E+01-4.20283E+01 1.50217E+03 3.23472E+01-4.26834E+02
 -1      2794-1.42105E+04 9.15402E-03 1.91114E+00 1.45722E+03 1.11941E+01-4.16248E+02
 -1      2795-1.63620E+04 4.78471E+01 2.49228E+01 1.21031E+03 1.44016E+01-3.75863E+02
 -1      2796-1.70581E+04 8.39999E+01 5.12618E+01 1.17579E+03-2.39571E+01-4.60796E+02
 -1      2797-3.42445E+03-6.75933E+01-4.27143E+01 2.27520E+03-2.99203E+00-4.40555E+02
 -1      2798-1.81073E+04 4.08628E+01 5.55032E+00 1.62359E+03-6.50399E+00-4.79722E+02
 -1      2799-1.70609E+04-3.30547E+01-4.63410E+01 1.61024E+03-6.99177E+00-4.74233E+02
 -1      2800 3.22583E+04-8.39971E+01-7.61392E+01 1.84034E+03 4.69268E+00-5.86049E+02
 -1      2801 3.60193E+04-1.00905E+01 1.38102E+01 1.81622E+03 3.25377E+01-4.70607E+02
 -1      2802 4.54067E+04-8.07923E+01-1.81347E+01 1.39600E+03-6.08084E+00-5.46368E+02
 -1      2803 1.00150E+04 1.01301E+02 2.77690E+01 2.71504E+03-2.98507E+01-5.54417E+02
 -1      2804 4.19050E+04-7.24080E+01-8.23131E+01 1.37710E+03-5.25716E-01-5.08027E+02
 -1      2805 3.20686E+04-4.60239E+01-6.02684E+01 1.35814E+03 3.06809E+00-4.61113E+02
 -1      2806 3.47514E+04-7.20758E+01-4.61789E+01 1.32639E+03-4.43320E+00-5.38767E+02
 -1      2807 2.98930E+04-2.82925E+01 2.31658E+01 2.37207E+03-3.06985E+01-1.87448E+02
 -1      2808 1.16965E+04-1.07788E+02-7.18213E+01 2.54112E+03 1.46616E+00-3.58682E+02
 -1      2809 1.62859E+04 7.45359E+00 2.16474E+01 2.70881E+03 4.96147E+00-1.97625E+02
 -1      2810 2.76951E+02-3.44110E+01 1.77683E+00 6.25789E+02 1.21917E+01-7.33838E+01
 -1      2811 5.95440E+02-5.08512E+01 6.71035E+00 6.54657E+02 7.95790E+00-8.18130E+01
 -1      2812 1.37539E+02-2.30207E+01 1.18651E+00 7.00165E+02 2.88765E+00-7.67629E+01
 -1      2813 2.97861E+02-4.19716E+01-2.92461E+00 7.03130E+02 8.66105E+00-1.35983E+02
 -1      2814-3.47385E+04 7.33947E+01 4.70089E+01 1.32937E+03 5.70378E+00-5.39509E+02
 -1      2815-7.64827E+03-5.74424E+01-4.10522E+01 2.56800E+03 1.62243E+00-5.38944E+02
 -1      2816-3.20528E+04 4.72425E+01 6.12080E+01 1.35881E+03-3.22436E+00-4.61235E+02
 -1      2817-1.60323E+04-4.52071E+01-1.18666E+01 2.38241E+03 2.28572E+01-2.72803E+02
 -1      2818-2.99789E+03 7.43282E+00-5.84816E+00 2.72843E+03-8.31017E+00-2.60696E+02
 -1      2819-3.85210E+04-7.09604E+01-3.86120E+01 1.31818E+03 6.17919E+00-4.17663E+02
 -1      2820-4.13161E+04-5.38923E+01-5.13162E+01 1.33317E+03 4.38353E+00-3.84012E+02
 -1      2821-2.49083E+03 8.93160E+00 1.19789E+01 1.50597E+03 4.72271E-01-1.14821E+02
 -1      2822-4.71957E+03 5.25096E+01-1.23178E-01 1.32840E+03 1.04489E+01-1.12388E+02
 -1      2823-1.84313E+03 7.60755E+01 6.02188E+01 1.42595E+03-5.36366E-01-2.36691E+02
 -1      2824 2.49182E+03-7.49349E+00-1.21529E+01 1.50609E+03-1.22035E-01-1.15485E+02
 -1      2825 4.71405E+03-5.37767E+01-5.66600E+00 1.32490E+03-1.06740E+01-1.16670E+02
 -1      2826 1.84701E+03-7.30055E+01-5.75728E+01 1.42473E+03 2.31328E-01-2.37195E+02
 -1      2827-6.44703E+03-7.00959E+00-1.53407E+01 7.65514E+02-3.92317E+00-2.15097E+02
 -1      2828-5.85443E+03-1.60235E+01-2.63927E+01 7.50710E+02-4.00615E+00-2.15360E+02
 -1      2829 5.85508E+03 1.50792E+01 2.78002E+01 7.51924E+02 3.40618E+00-2.16474E+02
 -1      2830 6.43980E+03 2.58644E-01 1.05158E+01 7.71708E+02 2.09929E+00-2.13468E+02
 -1      2831 4.13071E+04 7.63929E+01 5.08175E+01 1.33008E+03-1.28663E+01-3.82107E+02
 -1      2832 3.85244E+04 8.05470E+01 4.85168E+01 1.30895E+03-3.82470E+00-4.26176E+02
 -1      2833 2.94875E+04 6.75370E+01 4.50350E+01 1.27027E+03-5.95013E+00-4.01110E+02
 -1      2834 8.99466E+03-9.06968E+01-6.91005E+01 2.44077E+03-5.49924E+00-3.46387E+02
 -1      2835 3.17032E+04 3.91117E+01 4.36977E+01 1.29647E+03-5.47202E+00-3.67379E+02
 -1      2836 1.24937E+04 1.25718E+01 2.15251E+01 2.59178E+03 3.89370E+00-1.97374E+02
 -1      2837 2.29568E+04-3.73531E+01 7.93020E+00 2.28443E+03-2.28857E+01-1.91227E+02
 -1      2838-3.17205E+04-3.89155E+01-4.44731E+01 1.29838E+03 3.55800E+00-3.65352E+02
 -1      2839-2.94946E+04-6.09455E+01-4.19267E+01 1.26860E+03 4.51112E+00-3.99245E+02
 -1      2840 1.22328E+03-6.79447E+00 8.96572E+00 2.23316E+03 1.48224E+01-2.10377E+02
 -1      2841 6.91590E+03 2.91172E+01 9.85622E+00 1.93272E+03-1.23059E+01-2.20885E+02
 -1      2842 3.27698E+03 5.60296E+01 3.81542E+01 2.09158E+03 1.67252E+00-4.16200E+02
 -1      2843-2.65442E+04 7.75444E+01 3.87473E+01 1.26249E+03 8.38105E+00-5.14514E+02
 -1      2844-5.83003E+03-6.65397E+01-4.41987E+01 2.44235E+03 2.50529E+00-5.13249E+02
 -1      2845-2.44258E+04 5.93797E+01 6.13437E+01 1.27152E+03-5.97471E+00-4.31149E+02
 -1      2846 2.44202E+04-4.47967E+01-5.27445E+01 1.28628E+03 2.30605E+00-4.38382E+02
 -1      2847 2.65246E+04-7.83458E+01-4.73349E+01 1.26648E+03-6.96765E+00-5.12932E+02
 -1      2848 5.81048E+03 5.83756E+01 3.71336E+01 2.44391E+03-2.05511E+00-5.12421E+02
 -1      2849-2.29096E+03 1.57124E+00-4.29343E+00 2.60081E+03-8.78671E+00-2.50256E+02
 -1      2850-1.21994E+04-3.11123E+01 3.88699E+00 2.27065E+03 1.54537E+01-2.69057E+02
 -1      2851-2.73437E+03 2.13118E+01 1.05963E-02 5.26402E+02-2.36684E+00-1.71595E+02
 -1      2852-1.09162E+03 6.83054E+00 1.08271E+01 1.10114E+03 1.18823E+01-8.23869E+01
 -1      2853 3.92562E+04 7.56898E+01 2.50175E+01 1.35890E+03 6.26611E+00-5.35462E+02
 -1      2854 3.69875E+04 4.29394E+01 5.44774E+01 1.36585E+03-2.22143E+01-4.50669E+02
 -1      2855 9.27704E+03-6.36353E+01-3.14334E+00 2.11456E+03 1.34880E+01-2.54210E+02
 -1      2856 1.80014E+03-2.02780E+01-3.71530E+01 2.45721E+03-3.05418E+00-2.40070E+02
 -1      2857 4.48752E+03-7.59419E+01-5.94586E+01 2.27490E+03-2.58745E+00-4.25659E+02
 -1      2858 5.22259E+03-6.22824E+01-9.86132E+00 1.74394E+03 1.92878E+01-2.02557E+02
 -1      2859 1.00590E+03-2.25886E+01-2.91030E+01 2.02170E+03 5.18280E-01-1.92956E+02
 -1      2860 2.54359E+03-8.50362E+01-1.70661E+01 1.90316E+03-2.38560E+00-3.74168E+02
 -1      2861 1.52024E+04-7.99946E+01-2.82728E+01 1.08943E+03-1.57950E+00-4.31820E+02
 -1      2862 1.38998E+04-5.42699E+01-4.06289E+01 1.09491E+03 1.21027E+01-3.67125E+02
 -1      2863 1.06263E+04 3.70608E+01 1.79662E+01 9.76795E+02 3.80132E+00-3.78467E+02
 -1      2864 1.01664E+04 1.61859E+01 4.08795E+01 9.98191E+02-7.64720E+00-3.26694E+02
 -1      2865 5.96920E+02-2.91674E+01-8.06971E+00 3.97568E+02-2.27297E+00-1.09551E+02
 -1      2866 6.66774E+02-1.74151E+01 5.16686E+00 4.27917E+02-3.35280E+00-1.22882E+02
 -1      2867 1.00476E+03-1.96411E+01-7.42597E+00 3.62726E+02 2.64137E+00-1.34196E+02
 -1      2868 1.03822E+03-1.13754E+01 1.43101E+01 3.87242E+02-1.71268E+00-1.17503E+02
 -1      2869 1.33605E+04 5.97022E+01 4.84099E+01 1.50164E+03-3.62336E+01-4.31165E+02
 -1      2870 1.42014E+04 1.98835E+00 2.73280E+00 1.46171E+03-1.23300E+01-4.13977E+02
 -1      2871 1.63893E+04-4.00886E+01-5.49577E+00 1.20419E+03-3.80628E+00-3.90126E+02
 -1      2872 1.70605E+04-8.07557E+01-5.06008E+01 1.17155E+03 2.02529E+01-4.57037E+02
 -1      2873 6.42891E+03 6.26583E+01 5.85190E+01 2.40645E+03-1.60523E+01-2.85148E+02
 -1      2874-3.82067E+03 1.81053E+01 2.95543E+01 2.67250E+03-1.75338E+01-2.72666E+02
 -1      2875 1.19920E+04-2.34241E+01 2.24414E+01 2.34481E+03 7.91779E+00-2.77536E+02
 -1      2876 1.54116E+03-5.89757E+01-2.62578E+01 2.69885E+03 7.53369E+00-2.45755E+02
 -1      2877-6.32000E+03-4.02970E+01 4.72208E-01 2.79538E+03-1.44171E+02-3.11053E+02
 -1      2878 1.11484E+04 2.80223E+01 2.44197E+01 2.56399E+03-8.99619E+01-3.49924E+02
 -1      2879 3.88033E+03 1.36150E+01-1.43844E-01 2.71353E+03-5.35629E+01-2.85811E+02
 -1      2880 2.10247E+04 2.67051E+01-2.20421E+01 2.38443E+03-4.25023E+01-3.29418E+02
 -1      2881-1.47002E+04-1.21572E+01 1.33558E+01 2.42056E+03 2.19791E+00-5.01293E+02
 -1      2882-3.02372E+03 6.43902E+01 3.26602E+01 1.26984E+03 1.99290E+01-1.75627E+02
 -1      2883 3.03447E+03-5.18114E+01-1.50990E+01 1.26804E+03-1.49654E+01-1.79876E+02
 -1      2884-2.52168E+04-1.56006E+01 6.54453E+00 1.28423E+03-1.03303E+01-4.15439E+02
 -1      2885-1.91746E+04-6.64839E+01-6.41119E+01 1.19741E+03 8.24712E+00-5.13402E+02
 -1      2886-1.81598E+04-2.26682E+01-4.59105E+01 1.21487E+03 8.60081E+00-4.05268E+02
 -1      2887-4.48589E+03 7.85624E+01 6.17545E+01 2.27149E+03 6.15309E+00-4.31813E+02
 -1      2888-2.23397E+04 2.14272E+01 6.97860E+00 1.26011E+03-8.41368E-01-4.13568E+02
 -1      2889 2.07213E+04-2.59395E+01 7.72725E+00 2.39057E+03-1.42604E+01-3.44833E+02
 -1      2890 2.52767E+03 2.22149E+01 3.04916E+01 2.46730E+03-2.29362E+01-2.56588E+02
 -1      2891-4.66466E+03 8.05777E+01 5.33554E+01 2.22997E+03-2.74228E+01-2.77929E+02
 -1      2892-8.81274E+02-3.26482E+01-1.30528E+01 2.39957E+03 5.55968E+00-2.12679E+02
 -1      2893-7.87023E+03-3.64920E+00 7.03561E+00 2.08286E+03 2.04927E+01-2.60353E+02
 -1      2894 1.58503E+04-2.90935E+01 6.70650E-01 2.28748E+03-1.21548E+01-3.32883E+02
 -1      2895-6.18788E+02 1.81796E+01-5.88721E+00 8.12430E+02 6.63055E+00-6.68618E+01
 -1      2896 3.75152E+01-5.95681E+00-1.02613E+00 2.67134E+02 1.91646E+00-5.25483E+01
 -1      2897 2.37651E+02-2.19182E+01-7.95806E+00 2.25915E+02-1.48210E+00-6.95849E+01
 -1      2898 6.34113E+01-7.37866E+00-3.80956E+00 2.66235E+02-5.71322E+00-3.43925E+01
 -1      2899-1.12739E+04-3.68927E+01-2.42717E+01 2.33058E+03 2.08145E+01-4.85706E+02
 -1      2900-5.15996E+01 2.74254E+00 7.40414E-01 3.76566E+02 2.02147E+00-3.82366E+01
 -1      2901-6.99584E+01 1.68166E+01 4.69531E+00 2.63244E+02 7.58649E+00-3.85342E+01
 -1      2902 1.61471E+04-7.31168E+01-4.36546E+01 2.46099E+03 1.95801E+01-5.15762E+02
 -1      2903 1.12265E+04 1.35323E+00-2.10594E+01 2.32693E+03-3.37577E-01-4.83549E+02
 -1      2904-7.83698E+03 3.59233E+01-1.01771E+01 2.09551E+03-5.43032E+00-4.47463E+02
 -1      2905 7.82461E+03-6.48713E+01-2.90639E+01 2.10557E+03 2.02979E+01-4.48319E+02
 -1      2906 2.21311E+03-4.02486E+00 9.44551E+00 2.60556E+03 1.00641E+01-2.48822E+02
 -1      2907 1.21994E+04 4.15886E+01 1.50032E+01 2.26545E+03-1.92773E+01-2.58924E+02
 -1      2908 1.91781E+04 6.94101E+01 6.25293E+01 1.19715E+03-1.02904E+01-5.12743E+02
 -1      2909 1.81844E+04 3.71608E+01 5.35752E+01 1.20138E+03-1.56605E+01-4.00936E+02
 -1      2910 6.49625E+03 3.97138E+00-2.49311E-01 1.99641E+03 1.02409E-01-4.13109E+02
 -1      2911-1.39079E+04 6.81893E+01 4.60447E+01 1.08118E+03-1.32022E+01-3.58930E+02
 -1      2912-1.52255E+04 8.04136E+01 5.55868E+01 1.07916E+03 1.04829E+01-4.40656E+02
 -1      2913-3.28206E+03-5.54777E+01-2.36326E+01 2.10107E+03-2.83298E+00-4.26879E+02
 -1      2914 4.31989E+03-5.16675E+01 7.33448E+00 1.73507E+03 7.98632E+00-3.59856E+02
 -1      2915-1.26823E+03-4.38932E+01-2.20898E+01 2.24424E+03-1.24977E+01-2.12054E+02
 -1      2916-6.99529E+03-7.51149E+01-2.50056E+01 1.90031E+03 2.06924E+01-2.37634E+02
 -1      2917-1.87077E+04 7.06765E+01-6.22391E+00 2.42653E+03-1.81391E+01-3.00645E+02
 -1      2918-3.59961E+03 5.05262E+01 2.57455E+01 2.77059E+03 1.70272E+01-2.78598E+02
 -1      2919-9.00012E+03 8.74698E+01 6.29977E+01 2.61516E+03 2.08018E+00-4.87863E+02
 -1      2920-9.26148E+03 6.88891E+01 1.23420E+01 2.10769E+03-1.83687E+01-2.44883E+02
 -1      2921-1.80186E+03 1.77812E+01 3.48388E+01 2.45518E+03 3.03296E+00-2.39057E+02
 -1      2922-3.92968E+04-9.64878E+01-7.10458E+01 1.37005E+03 1.65581E+01-5.86897E+02
 -1      2923-3.69911E+04-7.88303E+01-6.16906E+01 1.36498E+03 1.04885E+01-4.56113E+02
 -1      2924 4.18703E+04-3.44379E-01-1.43253E+01 1.53540E+03-8.18822E+01-5.68815E+02
 -1      2925 9.17240E+03-6.18057E+01-2.07357E+01 2.95282E+03-1.12917E+02-6.41141E+02
 -1      2926 4.58438E+04 8.94753E+01 1.78269E+02 1.56186E+03-8.47810E+01-5.97584E+02
 -1      2927-4.85205E+03-9.98190E+02-1.11109E+03 3.10105E+03-1.86163E+02-4.46865E+02
 -1      2928-1.01017E+04-1.93482E+03-2.56445E+03 3.41432E+03 6.63634E+01-7.31076E+02
 -1      2929-2.21955E+04-3.02034E+03-5.02079E+03 2.75497E+03 6.38006E+02-1.76680E+02
 -1      2930-1.47842E+04 1.52211E+02-7.68590E+02 4.54826E+03 7.03632E+02-7.40522E+02
 -1      2931-1.70548E+04-1.81979E+03-3.23781E+03 2.04668E+03 5.68495E+02 3.24900E+02
 -1      2932 5.29044E+04 2.81239E+01-1.58426E+01 1.26178E+03-4.41304E+00-1.28341E+02
 -1      2933 3.00955E+01 3.34322E-01 1.13143E+01 5.58964E+02 5.24528E+00-5.02994E+01
 -1      2934 3.64027E+02-2.43907E+01 1.07386E-01 5.25631E+02 2.67104E+00-6.19203E+01
 -1      2935 1.40853E+02-1.50303E+01 1.05631E+01 5.80157E+02 7.56825E+00-1.22127E+02
 -1      2936 6.61614E+03 2.22571E+03 3.06668E+03 3.40293E+03-6.01288E+01-5.44377E+02
 -1      2937 2.04888E+04-7.65839E+01-1.35790E+01 2.47713E+03-1.08505E+02-4.09581E+02
 -1      2938 2.84378E+03-1.36536E+02-6.50602E+01 2.85477E+03-1.65985E+02-3.37801E+02
 -1      2939-6.51571E+03 3.72226E+01 3.79549E+01 1.99004E+03-9.42109E+00-4.14400E+02
 -1      2940 7.07260E+02-3.49860E+01-1.59435E-02 2.91454E+02 3.41309E-01-9.81663E+01
 -1      2941 6.28002E+02-3.98507E+01-1.37544E+01 2.59838E+02 3.36551E+00-1.04893E+02
 -1      2942-1.57359E+01 1.76521E+01 8.86787E-03 1.62997E+02-4.10200E-01-2.88321E+01
 -1      2943 1.12145E+01-8.55826E+00-3.31466E+00 1.68156E+02-1.82970E+00-2.67920E+01
 -1      2944-5.25085E+00 2.62058E-01 1.08496E+00 1.69296E+02 1.85677E+00-2.84223E+01
 -1      2945-1.61594E+04 4.56852E+01 1.99631E+01 2.44596E+03-2.66303E+01-5.16722E+02
 -1      2946-1.34004E+01 5.98264E+00-6.92952E+00 1.06464E+02-6.70061E+00-2.06005E+01
 -1      2947-5.50723E+01 1.99006E+01-2.91604E+00 2.55535E+02-1.59429E+00-5.04965E+01
 -1      2948-3.24549E+01 3.49664E+01-1.28026E+00 9.36491E+01-6.06595E+00-2.05368E+01
 -1      2949 1.92567E+04 7.42319E+01 1.03362E+01 2.57401E+03-1.04029E+02-5.81235E+02
 -1      2950 4.03610E+02-5.63129E+01-3.38856E+00 5.85564E+02 1.21665E+01-1.19815E+02
 -1      2951 3.03395E+03-1.47230E+01-1.60941E+01 4.78845E+02-6.71905E+00-5.14281E+01
 -1      2952 1.61911E+03-1.74394E+01-9.78880E+00 7.75945E+02 1.55224E+00-5.56278E+01
 -1      2953 2.20848E+03-4.46548E+01-2.27533E+01 3.99359E+02-6.64037E+00-1.20719E+02
 -1      2954 2.84673E+03-3.10831E+00-3.81676E+00 4.98398E+02 1.14290E+00-1.37048E+02
 -1      2955 1.40261E+03-4.19882E+01-1.89334E+01 7.88809E+02-1.24772E+01-1.11242E+02
 -1      2956 2.15207E+03-5.32919E+01-7.79787E+00 9.11028E+02-1.66046E+01-6.48825E+01
 -1      2957 1.85056E+04 1.06012E+01-1.58650E+01 9.88850E+02-4.86941E+00-8.93646E+01
 -1      2958 1.75979E+04-1.55298E+01-3.04029E+01 9.18300E+02 1.29261E+00-9.44853E+01
 -1      2959 1.73736E+04-1.21127E+00 1.47097E+01 9.35151E+02 6.70492E+00-2.54202E+02
 -1      2960 1.21919E+04-6.08418E+01-1.54671E+01 1.76276E+03-2.27812E+01-1.47508E+02
 -1      2961 1.29475E+04-6.44221E+01-5.92951E+00 1.85284E+03-1.41393E+01-1.27049E+02
 -1      2962 2.65490E+03-2.38977E+01 8.71348E+00 4.19584E+02-1.17974E+01-4.17341E+01
 -1      2963 1.25493E+03-5.05944E+01-6.45085E+00 7.23711E+02-1.47058E+00-5.08550E+01
 -1      2964 2.13744E+03-3.62321E+01-4.74795E+00 3.96740E+02 1.89334E-02-3.89456E+01
 -1      2965 1.72998E+03-3.29140E+01-2.24092E+01 3.76592E+02-9.47384E+00-9.61065E+01
 -1      2966-1.57327E+02 4.57248E+01 2.13010E+01 3.79984E+02 3.40957E+00-6.95812E+01
 -1      2967-2.38336E+02 3.00627E+01 3.12708E+00 4.47603E+02 4.27307E+00-4.32191E+01
 -1      2968-2.23807E+02 4.13283E+01 1.65771E+01 2.98954E+02 9.22279E+00-5.09606E+01
 -1      2969-2.16449E+04 6.99496E+01 9.35822E+01 2.49670E+03-4.26843E+02-1.27728E+02
 -1      2970-1.70312E+04-2.59770E+02-1.15027E+02 3.41057E+03-2.57260E+02-4.09548E+02
 -1      2971-3.38897E+04 2.97964E+01-5.77575E+02 3.02396E+03-6.17064E+02-4.95457E+02
 -1      2972 1.46478E+04 8.74114E+02 4.86930E+02 2.04093E+03 2.25927E+02-6.47330E+02
 -1      2973 2.54127E+04 3.19377E+03 4.41601E+03 2.66586E+03 4.63672E+02-7.50092E+02
 -1      2974-4.48863E+01 3.88114E+01 6.27175E+00 9.34179E+01 2.85137E+00-1.75670E+01
 -1      2975-3.56978E+01 1.86340E+01 7.57836E+00 1.04751E+02 7.42371E+00-1.42881E+01
 -1      2976 1.44130E+04 2.29408E+02 3.71404E+01 3.44183E+03 3.02569E+02-4.07057E+02
 -1      2977 5.29156E+04-1.59644E+02 2.38147E+02 1.47578E+03 1.66968E+02-3.10676E+02
 -1      2978 3.36146E+04-1.91103E+01 4.67661E+02 3.02292E+03 6.34542E+02-5.28304E+02
 -1      2979-1.30878E+04-6.57257E+01-2.51857E+01 2.71781E+03-6.38657E+01-4.05465E+02
 -1      2980-1.88407E+04-2.09410E+01 1.52348E+01 2.79784E+03-2.14648E+01-2.36304E+02
 -1      2981-6.19843E+03-3.53879E+01-1.56913E+01 2.79050E+03-7.18559E+01-3.09078E+02
 -1      2982-1.52553E+04 5.42184E+01-1.21942E-01 2.73599E+03-1.48616E+02-3.43946E+02
 -1      2983-2.11872E+04 2.35878E+01-6.18247E+00 2.71731E+03-1.00811E+02-1.92488E+02
 -1      2984-2.80603E+04 1.00063E+01 2.20545E+01 2.49039E+03-9.52244E+01-3.67340E+02
 -1      2985-4.11359E+02-4.50998E+01-2.84231E+00 1.91754E+03-8.12672E-01-1.71690E+02
 -1      2986-1.91017E+03-4.19876E+01-5.19987E+01 1.79814E+03 3.71587E+00-3.32291E+02
 -1      2987 1.33171E+03 3.71501E+00 6.26996E+00 1.94002E+03-2.11038E+01-2.19914E+02
 -1      2988-1.23310E+03 6.19764E+01 7.38683E+00 1.95580E+03-1.02135E+01-1.80177E+02
 -1      2989-2.62110E+03 7.30271E+01 3.55348E+01 1.86033E+03-2.12861E+00-3.52569E+02
 -1      2990-4.41246E+03 3.73515E+01-1.12930E+00 1.72353E+03-1.09225E+01-3.08517E+02
 -1      2991 4.16363E+02-1.85455E+01-1.57773E+01 2.77553E+02-2.21456E+00-7.57225E+01
 -1      2992 8.25794E+01-3.05587E+01-1.38630E+01 4.19233E+02-1.07979E-01-5.34162E+01
 -1      2993 1.85774E+02-3.60264E+01-9.33805E+00 3.43650E+02-8.76285E+00-4.62354E+01
 -1      2994-7.73091E+03 1.70983E+01 2.52840E+01 1.21659E+03 1.01064E+01-3.36623E+02
 -1      2995-9.20435E+03 4.60430E+01 1.85677E+01 9.71066E+02-8.42183E+00-3.50642E+02
 -1      2996-1.06404E+04-2.81443E+01-2.97390E+01 1.00040E+03 2.28081E+01-3.53891E+02
 -1      2997 5.64147E+03 5.54765E+02-2.92287E+02 4.19426E+03 1.08792E+03-9.36315E+02
 -1      2998-1.52481E+04 5.30859E+01 9.81454E+00 1.10152E+03 1.73835E-01-3.82900E+02
 -1      2999-4.20878E+03-4.10264E+01-1.97118E+01 2.08844E+03-2.23404E+01-3.12786E+02
 -1      3000-1.14854E+04 2.71662E+01 7.41839E+00 1.38367E+03-5.30459E+01-3.74926E+02
 -1      3001-1.69403E+04-1.55519E+01-7.97406E+00 1.11398E+03-5.17410E+00-4.24940E+02
 -1      3002-5.36624E+03 5.95886E+01 1.10015E+01 2.09401E+03 5.14225E+00-2.81616E+02
 -1      3003-9.40740E+03 2.47181E+01 5.90757E+00 1.97087E+03 1.20278E+01-3.29765E+02
 -1      3004-4.61778E+04-5.79182E+01-1.29146E+02 1.55140E+03 6.89506E+01-5.79232E+02
 -1      3005-9.67155E+03 1.05628E+02 2.77010E+01 2.87676E+03 9.97895E+01-6.05224E+02
 -1      3006-3.59870E+04 2.61282E+01-2.18025E+01 1.83758E+03-7.33305E+01-4.84001E+02
 -1      3007-4.55752E+04 2.08592E+01 1.35469E+01 1.41898E+03-1.78359E+01-4.43039E+02
 -1      3008-9.93210E+03-7.14930E+01 1.98319E+01 2.71888E+03 3.31643E+01-5.81479E+02
 -1      3009-1.97014E+04-2.67897E+01 1.05095E+01 2.56378E+03 9.34710E+01-5.39730E+02
 -1      3010-6.00515E+03-2.04061E+01 1.20762E+01 2.21453E+03-3.14839E+00-1.85442E+02
 -1      3011-2.08400E+03-3.16919E+01-2.70878E-01 2.22270E+03-1.00956E+01-2.40018E+02
 -1      3012-7.31929E+03 8.75697E+00-1.26098E+01 2.22873E+03 1.40251E+01-1.79864E+02
 -1      3013-4.27036E+03 3.69538E+01 1.63026E+01 1.72273E+03 9.27495E+00-1.95947E+02
 -1      3014-5.31993E+03 1.95856E+01-5.50885E+00 1.76457E+03-6.53466E+00-2.08369E+02
 -1      3015-8.95005E+03 3.47033E+01-1.66387E+01 9.65362E+02-4.37772E+00-3.63836E+02
 -1      3016-1.02560E+04-1.29177E+01-2.14341E-01 9.62612E+02-7.66404E+00-3.68903E+02
 -1      3017-3.35124E+03 1.53326E+02 4.79368E+01 2.82804E+03 1.67165E+02-3.25649E+02
 -1      3018 6.41652E+03 1.53036E+01-1.39967E+01 2.74659E+03 1.35552E+02-3.24685E+02
 -1      3019-3.56382E+03-5.72339E+00 1.38316E+01 2.69070E+03 7.57198E+01-2.68008E+02
 -1      3020 8.89705E+02-9.42314E+00 1.36648E+01 4.43931E+02-5.85504E+00-1.22568E+02
 -1      3021 1.33035E+03-1.38267E+01 8.05060E+00 4.04002E+02 1.37805E+01-1.59305E+02
 -1      3022 1.00333E+04 2.51354E+01 1.52809E+01 9.34871E+02-2.55133E+00-2.29457E+02
 -1      3023 1.45902E+04-7.03401E+01-1.65422E+01 1.06997E+03 7.48516E+00-2.60060E+02
 -1      3024 1.23665E+02-2.83244E+01 4.44925E+00 8.04750E+02-5.47312E+00-8.08046E+01
 -1      3025-3.63401E+04 2.39672E+01 2.21623E+01 2.41533E+03-4.01021E+01-1.72508E+02
 -1      3026-3.89774E+04 3.07746E+00 3.33825E+01 2.35585E+03-1.08159E+02-1.13793E+02
 -1      3027 8.48323E+03-5.30481E+00 2.60427E+01 1.24570E+03-2.69638E+01-3.26323E+02
 -1      3028 1.14982E+04 1.37153E+01 3.22590E+01 1.01752E+03 1.83213E+01-4.14309E+02
 -1      3029 3.71153E+04 2.62608E+01-2.70242E+01 1.31548E+03-1.26235E+01-3.06344E+02
 -1      3030 1.15374E+04-1.21250E+01-4.23331E+01 1.39185E+03 2.78180E+01-3.56614E+02
 -1      3031 1.42459E+04-3.85683E+01-3.83151E+01 1.09215E+03-2.93465E+01-4.51624E+02
 -1      3032-1.99598E+04-2.17765E+01-1.55151E+01 2.72752E+03 9.81298E+00-1.82109E+02
 -1      3033-1.46299E+04-2.10209E+01-2.40468E+01 2.52304E+03 3.95935E+01-3.76982E+02
 -1      3034-5.76863E+03 4.35946E+01-2.38009E+01 2.55862E+03-5.95157E+00-4.02124E+02
 -1      3035-9.32847E+01 3.11120E+01 1.06902E+00 1.68412E+02 9.90661E-02-3.66615E+01
 -1      3036-5.26707E+03 3.90579E+00-1.15668E+01 1.90077E+03 8.60239E+00-1.33681E+02
 -1      3037-3.86807E+03 1.68323E+01-5.74208E+00 1.76100E+03 3.30050E+01-2.80906E+02
 -1      3038-1.47450E+03 1.14068E+01-1.81130E+01 1.83310E+03-1.93444E+00-2.87305E+02
 -1      3039 1.32486E+03 4.25039E+01 1.28718E+01 2.24459E+03 3.64548E+01-2.14746E+02
 -1      3040 2.06259E+03-2.22634E+01-1.74711E+01 2.25543E+03 2.92898E+01-2.46077E+02
 -1      3041-1.38697E+03-4.06316E+01-1.59160E+01 2.25560E+03-1.96275E+01-2.22815E+02
 -1      3042 3.48483E+04-9.23244E+00-4.67438E+01 1.82399E+03 4.02940E+01-4.61627E+02
 -1      3043 4.41288E+04-4.40327E+01-6.71565E+01 1.39798E+03-3.20260E+01-5.85902E+02
 -1      3044 3.58278E+03-1.11358E+01 1.72978E+01 2.86710E+03-2.15443E+01-2.53809E+02
 -1      3045-2.01626E+04-1.93477E+00 1.89684E+01 2.74858E+03-1.61544E+01-1.80425E+02
 -1      3046 3.07382E+04 6.67208E+00 3.62731E+01 1.73755E+03-3.17066E+01-4.58673E+02
 -1      3047 4.04649E+04 1.79706E+01 4.36030E+01 1.38920E+03 2.98490E+01-5.66691E+02
 -1      3048-4.72232E+04 1.53556E+01 3.18112E+01 1.43192E+03-1.79871E+01-4.68508E+02
 -1      3049-3.47671E+04 3.15749E+01 2.18791E+01 1.81596E+03-5.52003E+01-5.03964E+02
 -1      3050-5.01489E+04-3.23399E+01-1.65102E+01 1.42360E+03-7.38024E+01-4.83180E+02
 -1      3051 1.02331E+03-3.27775E+01 1.28881E+01 2.08813E+03-5.41282E+00-1.87050E+02
 -1      3052-5.44955E+03 2.40110E+01 1.70250E+01 1.96298E+03-8.17613E+00-1.32485E+02
 -1      3053-1.44943E+04 7.57244E+01 3.52820E+01 1.09596E+03-7.86008E+00-2.73045E+02
 -1      3054-1.67608E+04 3.29528E+01 7.31473E-01 1.07915E+03-2.57051E+00-2.64617E+02
 -1      3055-1.84841E+04-1.79688E+01-3.19502E+00 1.09364E+03 1.65442E+01-2.90083E+02
 -1      3056 3.96555E+03 1.07120E+02 3.76814E+00 2.82601E+03 1.45613E+01-2.96794E+02
 -1      3057 5.88095E+04 4.35604E+01-2.45878E+01 1.28268E+03 2.17401E+00-1.19747E+02
 -1      3058 5.75824E+04 1.75647E+01 4.17461E+01 1.27429E+03-2.00471E+01-1.04952E+02
 -1      3059 5.03284E+04-4.40988E+01-3.15219E+01 1.28390E+03-1.47061E+00-3.58756E+02
 -1      3060 3.53940E+04-1.64757E+01 4.24367E+00 2.43122E+03 2.13618E+01-1.78770E+02
 -1      3061 3.66426E+04 5.52011E+01-1.32720E+01 2.35633E+03 2.59867E+01-1.73054E+02
 -1      3062-2.42391E+04-2.41059E+01-4.73523E+01 1.13003E+03-1.49577E+01-4.34331E+02
 -1      3063-2.26492E+04 3.43059E+01 4.92683E+01 1.11338E+03 1.22242E+01-4.51829E+02
 -1      3064-5.95888E+03 5.01680E+00-1.01058E+01 2.39282E+03-8.58793E+00-4.25630E+02
 -1      3065-1.18970E+04 2.19481E+01 2.37508E+01 1.94845E+03-1.92986E+01-1.61926E+02
 -1      3066-1.34220E+04 4.55508E+00-5.68866E+00 1.99235E+03 1.61201E+01-1.53294E+02
 -1      3067-3.70082E+04-1.61880E+01 3.44557E+01 1.32474E+03 3.72614E+00-3.08253E+02
 -1      3068-2.38694E+03-4.10418E+01-6.04043E+00 2.63246E+03-3.57518E+01-2.60827E+02
 -1      3069-4.22923E+04-1.98469E+01 3.45514E+01 1.47287E+03 6.42353E+01-6.60692E+02
 -1      3070-4.18766E+04 2.51906E+01 3.57268E+01 1.37208E+03 2.24276E+01-5.60748E+02
 -1      3071 5.37201E+03-3.23637E+00 5.05527E+00 2.83380E+03-3.13926E+01-3.08418E+02
 -1      3072-3.47897E+03 6.00097E+01 1.16604E+01 2.84476E+03 2.67833E+01-2.89417E+02
 -1      3073-4.41304E+04 5.60678E+01 3.96810E+01 1.40290E+03 3.60975E+01-5.29422E+02
 -1      3074-4.40963E+04 3.93326E+01 1.15588E+01 1.22606E+03-2.00973E+01-4.76950E+02
 -1      3075-2.39971E+04-6.41641E+01-2.60590E+01 2.27554E+03 2.63969E+01-4.56473E+02
 -1      3076-2.54308E+04 4.47868E+01-8.91360E+00 1.25797E+03 4.17280E+01-4.99073E+02
 -1      3077 1.66114E+04-7.49077E+01 9.15664E+00 2.77442E+03 2.01102E+01-1.77856E+02
 -1      3078-3.14400E+03 1.61837E+00 2.85444E-01 6.09711E+02 3.63302E+00-1.92551E+02
 -1      3079-8.74187E+02 4.36729E+01-5.67711E+00 1.15550E+03-8.51391E+00-2.41818E+02
 -1      3080-3.73084E+03 1.53983E-01 3.21185E+00 6.40871E+02-1.91656E+01-2.29204E+02
 -1      3081 2.67954E+03-1.63880E+01-7.55225E+00 7.50410E+02-2.53179E+01-2.17352E+02
 -1      3082 2.20517E+03-1.35660E+01-4.04750E+00 7.23833E+02-2.17950E+01-2.00550E+02
 -1      3083 3.73433E+03 2.89644E+00-4.02304E+00 6.44847E+02 1.86315E+01-2.27980E+02
 -1      3084 3.14312E+03-9.77977E+00-3.18960E-01 6.15441E+02-5.35926E+00-1.92120E+02
 -1      3085 8.47617E+02-3.86016E+01 2.48038E+00 1.14535E+03 4.72214E+00-2.44331E+02
 -1      3086 3.64347E+02-2.87142E+01-1.07851E+01 1.15339E+03-1.11058E+01-1.26914E+02
 -1      3087 4.36849E+02-1.82110E+01-1.23713E+01 1.22804E+03-1.15001E+00-1.30260E+02
 -1      3088-3.42995E+02 3.86375E+01 6.24142E+00 1.28626E+03 1.23448E+01-1.27618E+02
 -1      3089-4.20860E+02 1.52590E+01-3.19988E+00 1.18029E+03-1.17632E+01-1.17188E+02
 -1      3090 4.06299E+02-2.43399E+01-2.87690E+00 1.18270E+03 9.98208E+00-1.19451E+02
 -1      3091 3.50160E+02-2.83004E+01-6.44993E+00 1.28244E+03-1.14070E+01-1.27970E+02
 -1      3092 7.37783E+02-4.87306E+00 2.24623E+01 1.40423E+03 1.18068E+01-1.31266E+02
 -1      3093-5.18267E+02-2.47027E+01 3.80912E+00 1.39091E+03-6.20767E+00-2.08641E+02
 -1      3094 1.31616E+03-1.32580E+01 9.56888E+00 1.34584E+03 1.86405E+01-2.69615E+02
 -1      3095-7.37710E+02 5.04235E+00-2.26872E+01 1.40436E+03-1.19644E+01-1.30398E+02
 -1      3096 5.19579E+02 2.64298E+01-2.62833E+00 1.39097E+03 6.43072E+00-2.09223E+02
 -1      3097-1.31465E+03 1.36401E+01-8.85767E+00 1.34754E+03-1.88277E+01-2.69958E+02
 -1      3098-4.89394E+03 3.54264E+01 1.62207E+01 6.43429E+02 7.97847E+00-2.49732E+02
 -1      3099-3.36770E+03-6.64953E-01-1.93186E+01 1.24529E+03-1.67277E+01-2.29477E+02
 -1      3100 4.89309E+03-3.68015E+01-1.75113E+01 6.43704E+02-8.97280E+00-2.49718E+02
 -1      3101 3.36859E+03-1.40414E+00 1.97592E+01 1.24475E+03 1.62026E+01-2.29641E+02
 -1      3102 3.97066E+04 6.39704E+01-2.03186E+01 1.31333E+03-2.85185E+01-4.42969E+02
 -1      3103-3.10347E+03-4.00915E+01-8.19049E+00 2.77355E+03-3.70304E+01-2.73326E+02
 -1      3104-3.35715E+04 3.65926E+01-7.31780E+00 1.32411E+03 3.86336E+01-5.31985E+02
 -1      3105-1.80517E+04-3.79992E+01 2.44220E+01 1.12589E+03 2.73795E+01-4.08288E+02
 -1      3106-7.55353E+03 5.43313E+01 5.19440E-01 2.31665E+03-1.67421E+01-1.66720E+02
 -1      3107 3.06430E+04 2.76934E+01-2.18751E+01 1.27370E+03-3.05252E+01-4.31165E+02
 -1      3108 1.27927E+04-4.73226E+01 6.02791E+00 2.67039E+03 2.12441E+01-1.86811E+02
 -1      3109 6.41013E+02 7.35103E+00 1.26192E+01 1.05188E+03 3.01376E+00-2.09902E+02
 -1      3110 2.65037E+03-3.10141E+01-1.01223E+01 5.30309E+02 7.21489E+00-1.99564E+02
 -1      3111 1.43536E+03-3.86967E+01 1.54758E+00 1.02394E+03 9.71938E+00-1.82747E+02
 -1      3112-6.00871E+02 1.91034E+00 7.37057E+00 1.06754E+03 3.99086E+00-2.12280E+02
 -1      3113-2.65297E+03 2.90358E+01 4.52795E+00 5.19700E+02-5.01005E+00-1.94906E+02
 -1      3114-1.42841E+03 3.75943E+01-1.00989E+00 1.02912E+03-8.20280E+00-1.84330E+02
 -1      3115-1.97326E+02-8.51682E+00-7.13309E+00 1.10337E+03-3.56817E+00-9.68911E+01
 -1      3116 1.86587E+02 8.93939E+00 8.66715E+00 1.09526E+03 6.94186E+00-9.67399E+01
 -1      3117 5.21757E+04 4.50939E+01 2.62801E+00 1.29843E+03 3.21690E+01-3.18168E+02
 -1      3118 3.81595E+04-6.18121E+01-1.48221E+01 2.39700E+03-4.78086E+00-1.46908E+02
 -1      3119 2.99735E+04 1.67562E+01-1.67484E+01 2.33183E+03 4.97853E+00-3.27805E+02
 -1      3120 2.54147E+04-4.02735E+01 1.38453E+00 1.25768E+03-3.96395E+01-5.06043E+02
 -1      3121-3.97330E+04-3.80373E+01 2.85399E+01 1.32414E+03 2.91744E+01-4.51349E+02
 -1      3122-1.66637E+04 5.26817E+01-1.13051E+01 2.77039E+03-2.63704E+01-1.87007E+02
 -1      3123 6.13703E+03 3.26933E+00-1.29253E+01 2.83973E+03 8.09773E+01-3.28672E+02
 -1      3124-3.93507E+03-7.75057E+01-3.29044E+01 2.82655E+03 2.39740E+00-2.84423E+02
 -1      3125-3.06541E+04-2.73443E+01 2.54338E+01 1.27053E+03 2.76089E+01-4.29812E+02
 -1      3126 2.31284E+03 3.13182E+01 7.35915E+00 2.62903E+03 3.83611E+01-2.60844E+02
 -1      3127-4.04336E+04-1.63675E+01-2.07903E+01 1.34251E+03-1.12587E+01-5.62830E+02
 -1      3128-4.56041E+04-4.30479E+01-1.47772E+01 1.22043E+03 2.53968E+01-4.45224E+02
 -1      3129 3.09437E+03 3.74033E+01 6.34183E+00 2.77266E+03 3.70415E+01-2.71273E+02
 -1      3130 3.35880E+04-3.76294E+01 2.35526E+00 1.32326E+03-4.00312E+01-5.31566E+02
 -1      3131 2.94012E+03 3.69272E+00 4.04798E+01 2.47166E+03 2.98539E+01-2.16429E+02
 -1      3132 2.73609E+03 1.85742E+01-1.21651E+01 2.50986E+03-1.00547E+01-2.20588E+02
 -1      3133 5.99902E+03 1.94509E+01 3.27815E+01 2.26325E+03 1.84658E+00-4.20190E+02
 -1      3134-2.54784E+04 2.94100E+01-2.83502E+01 1.24608E+03-4.35633E+00-3.00438E+02
 -1      3135-1.43089E+04 5.71346E+01 1.21055E+01 1.06281E+03 2.95397E+01-4.46776E+02
 -1      3136-9.56170E+03-1.22316E-01-1.98641E+01 2.33581E+03 8.62365E+00-1.52415E+02
 -1      3137-7.02917E+03-6.84105E+00-1.50620E+01 2.18360E+03 3.67956E+01-3.29150E+02
 -1      3138-2.65411E+03 3.84345E+01-6.68034E+00 2.22531E+03-7.26816E+00-3.64255E+02
 -1      3139 7.04734E+03 5.52934E+00 7.59286E+00 6.91106E+02-1.67586E+00-7.59623E+01
 -1      3140-6.97772E+03 1.01391E+01 1.29557E+01 6.92884E+02-5.68594E-01-8.05881E+01
 -1      3141-3.31017E+04 6.40824E+01 1.73196E+01 1.30393E+03-8.36820E-01-3.21002E+02
 -1      3142-2.14534E+04 1.02145E+02 5.91626E+01 2.76946E+03-2.00512E+02-1.69741E+02
 -1      3143 9.56263E+03 6.27899E+00 2.07333E+01 2.33631E+03-1.01603E+01-1.53650E+02
 -1      3144 7.02574E+03 6.96716E+00 1.64295E+01 2.18586E+03-3.61361E+01-3.32407E+02
 -1      3145 2.66536E+03-2.98272E+01 1.31221E+01 2.22598E+03 8.82893E+00-3.65309E+02
 -1      3146 4.73140E+04 4.54756E+01 2.06972E+01 1.27461E+03 5.35410E-01-1.30266E+02
 -1      3147-1.28695E+04 4.71059E+01-5.87179E+00 2.66852E+03-2.36881E+01-1.84791E+02
 -1      3148-2.10014E+04 2.37659E+01 2.15903E+01 1.04917E+03-1.35054E+01-4.07730E+02
 -1      3149-1.18582E+04-3.68567E+01-1.36183E+01 1.98138E+03 2.54918E+01-4.16916E+02
 -1      3150 2.10021E+04-2.39004E+01-1.56587E+01 1.05112E+03 1.29023E+01-4.11634E+02
 -1      3151 1.18528E+04 3.80083E+01 1.95650E+01 1.98841E+03-2.59436E+01-4.12759E+02
 -1      3152 6.11667E+04 5.03407E+03 1.34764E+04 3.62606E+03 3.77130E+02 1.22844E+02
 -1      3153 6.23758E+04 2.00159E+03 1.17659E+04 1.92324E+03-2.04372E+02-2.27997E+03
 -1      3154 5.83790E+04 3.03137E+02 6.46042E+03 2.89376E+03 4.91155E+02-3.21907E+02
 -1      3155 6.19387E+04 3.70366E+02 5.54254E+03 2.62305E+03 7.26544E+02-1.75661E+03
 -1      3156 4.16714E+04 7.90554E+03 8.82251E+03 4.14997E+03 4.05569E+02-1.74848E+03
 -1      3157-4.74298E+04-2.27585E+01 1.37653E+01 1.25395E+03-5.10695E+00-1.41146E+02
 -1      3158 2.52838E+04-6.58582E+01-1.68587E+01 1.24911E+03 2.97774E+00-3.07347E+02
 -1      3159-5.08222E+04 3.80482E+00 9.33012E+00 1.39743E+03-4.77080E+01-2.80571E+02
 -1      3160-5.37496E+04-3.64917E+01 2.90750E+00 1.36835E+03-9.90190E+01-2.30678E+02
 -1      3161 3.32027E+04-6.47777E+01-1.87285E+01 1.29743E+03 9.61919E-01-3.20609E+02
 -1      3162 6.96151E+02 1.06190E+01 1.23129E+01 8.03536E+02-1.21840E+01-1.19696E+02
 -1      3163 1.36511E+03-5.53763E+01-6.93647E+00 8.94337E+02-5.99167E+00-1.01687E+02
 -1      3164 1.09854E+03-7.99620E+01-3.10468E+01 9.34731E+02-2.26163E+00-1.48273E+02
 -1      3165 2.02377E+03-4.11981E+00 2.68399E+00 5.80021E+02 9.03710E+00-1.43348E+02
 -1      3166 1.42205E+04-4.16765E+01-1.82348E+01 9.44496E+02-1.14902E+01-2.54714E+02
 -1      3167 5.46191E+03 6.51541E+01 3.09802E+01 1.90760E+03-6.67106E+00-2.91475E+02
 -1      3168 1.16171E+04-5.85922E+01-3.43447E+01 1.25117E+03-1.54763E+01-2.81211E+02
 -1      3169 1.62996E+04 1.74378E+01 8.15402E+00 9.33698E+02-8.16160E+00-3.02171E+02
 -1      3170 7.08630E+03-9.20993E+01-2.26926E+01 1.92138E+03 4.32035E+00-3.01362E+02
 -1      3171 9.82408E+03-4.33902E+01-2.56704E+01 1.70840E+03-8.99192E+00-2.56461E+02
 -1      3172-2.10827E+04-5.54896E+01 1.78159E+01 2.48749E+03 9.63439E+01-4.06202E+02
 -1      3173-2.10369E+04 5.41339E+00-9.10930E+00 2.42230E+03 3.39452E+01-3.13197E+02
 -1      3174-1.80356E+04-4.08547E+01-1.44889E+01 1.14781E+03 2.61477E+00-2.74092E+02
 -1      3175 1.78779E+04 6.54418E+00-2.68776E+01 1.14735E+03-6.62100E+00-2.66683E+02
 -1      3176 2.74289E+03-2.04394E+01 7.91515E+00 1.58666E+03-3.57905E-01-1.26730E+02
 -1      3177-6.01636E+02-1.18069E-01 6.65859E+00 1.49618E+03 4.71844E+00-1.28772E+02
 -1      3178-2.74670E+03 2.00706E+01-8.31896E+00 1.58403E+03 8.47658E-02-1.24684E+02
 -1      3179 5.99785E+02-4.30343E-01-6.16174E+00 1.49443E+03-4.39234E+00-1.28459E+02
 -1      3180 6.53129E+03-2.06243E+01-3.48688E+00 7.56643E+02-1.13745E+01-2.46471E+02
 -1      3181 5.67357E+03-3.54440E+00 2.24685E+00 6.48501E+02 1.87862E+01-2.96087E+02
 -1      3182-6.53143E+03 2.32322E+01 3.85931E+00 7.53216E+02 1.03293E+01-2.44869E+02
 -1      3183-5.67455E+03 4.59508E+00-2.04754E+00 6.47538E+02-1.86193E+01-2.95446E+02
 -1      3184 3.61555E+04 4.23480E+01 2.02755E+01 1.21929E+03 1.73465E+00-1.25144E+02
 -1      3185 1.85569E+03-1.29233E+01 2.59893E+01 2.48720E+03-1.29574E+01-2.21831E+02
 -1      3186-9.77485E+03-9.74767E+00 1.23428E+01 2.37848E+03-4.65217E+00-1.55737E+02
 -1      3187-1.80673E+03 1.96742E+01-2.45868E+01 2.49301E+03 1.09280E+01-2.19004E+02
 -1      3188 9.80813E+03 1.35578E+01-1.50273E+01 2.37728E+03-3.14529E+00-1.63325E+02
 -1      3189 6.60023E+02-3.31271E+01-3.36153E+00 2.97819E+02-2.04498E+00-9.01562E+01
 -1      3190 1.47396E+02-7.82130E+00 4.81800E-01 5.86725E+02-1.00159E+01-8.43502E+01
 -1      3191 1.09575E+03-2.41624E+01-1.90585E+01 3.36797E+02 8.87220E+00-1.26891E+02
 -1      3192 4.47586E+02-4.65947E+01-6.53947E+00 6.90988E+02-3.44902E+00-9.64149E+01
 -1      3193 5.34078E+02-4.31492E+01-2.01761E+01 5.92985E+02-1.29287E+01-9.31310E+01
 -1      3194-3.63454E+04-4.13164E+01-2.08328E+01 1.20065E+03-1.28061E+00-1.27817E+02
 -1      3195-2.01757E+04 2.38975E+01-4.87183E+00 1.17620E+03-1.53438E+01-4.91389E+02
 -1      3196-2.22481E+04-8.32606E+00-9.03537E+00 1.04460E+03 2.59153E+01-3.63595E+02
 -1      3197-5.16693E+04-6.12476E+01-6.79479E+01 1.47448E+03-1.06931E+02-3.89462E+02
 -1      3198 2.01964E+04-2.48427E+01 8.58945E+00 1.17272E+03 1.09777E+01-4.94634E+02
 -1      3199 2.22708E+04 2.41244E+00 4.68597E+00 1.04704E+03-2.85720E+01-3.63995E+02
 -1      3200 5.59901E+04-3.08883E+01 5.43694E+00 1.26882E+03 1.78759E+01-1.18235E+02
 -1      3201 4.88250E+04-3.14366E+01-3.53027E+01 1.29853E+03-9.75769E+00-3.22564E+02
 -1      3202-1.60466E+02 4.16684E+01 6.08702E+00 2.22412E+02 6.94182E+00-1.34319E+01
 -1      3203-3.23624E+02 4.12462E+01 4.47307E+00 3.38398E+02 8.90395E+00-3.76714E+01
 -1      3204-5.72021E+04-9.77936E+00-1.84633E+03 1.87692E+03-4.60473E+02-6.67292E+02
 -1      3205-3.98210E+04 7.95324E+01-5.42891E+02 2.57087E+03-1.01741E+02-5.83904E+02
 -1      3206-5.32618E+04 1.51975E+02-2.43264E+02 1.44404E+03-1.27195E+02-3.18947E+02
 -1      3207 8.65159E-01 6.78363E+00 5.54742E+00 9.78270E+01 1.01785E+01 2.01420E-02
 -1      3208 1.15881E+01-3.52794E+01 5.90536E+00 9.21711E+01 1.13433E+01 7.46658E-01
 -1      3209 6.85290E+00-3.39533E+00 8.34614E+00 1.14653E+02 9.69765E+00-1.48312E+01
 -1      3210 2.95065E+01-3.54999E+01 9.14450E+00 1.03718E+02 9.77254E+00-1.29255E+01
 -1      3211 4.09460E+01-2.45994E+01 2.51658E+00 1.84033E+02 7.00829E+00-1.50550E+01
 -1      3212 1.97710E+04-1.24524E+02-4.80126E+01 2.58794E+03 2.68649E+01-3.87162E+02
 -1      3213 2.65862E+04-1.02386E+02-1.55692E+01 2.51560E+03 1.20063E+01-2.86854E+02
 -1      3214 1.85680E+04 1.23032E+02 4.47244E+01 2.55776E+03-1.17500E+01-3.81910E+02
 -1      3215-4.10474E+04-5.85745E+01-2.37643E+03 2.61089E+03-1.12918E+02-5.55281E+02
 -1      3216-5.38809E+04-8.38049E+01-3.80385E+03 2.02309E+03 2.61551E+02 1.11780E+02
 -1      3217-5.23279E+04 1.52574E+02-2.00187E+03 1.79340E+03 2.07093E+02-2.02369E+02
 -1      3218-1.67193E+01 3.40139E+01 5.58865E+00 9.39223E+01 1.15200E+01-1.27331E+00
 -1      3219-4.10058E+01 3.74273E+01 1.16384E+01 1.01783E+02 1.21399E+01-1.56869E+01
 -1      3220-3.21293E+01 9.59825E+00 7.59530E+00 1.95589E+02 6.67171E+00-1.42035E+01
 -1      3221-7.27940E+01 2.59673E+01 5.36748E+00 1.78527E+02 7.82349E+00-1.31560E+01
 -1      3222-5.87925E+04-2.30980E+02-4.06582E+03 2.01621E+03-5.70813E+02-8.04067E+02
 -1      3223-1.44496E+02 2.30231E+01 8.57716E+00 1.88960E+02 6.12924E+00-5.40410E+01
 -1      3224-2.43699E+02 3.25644E+01 1.24296E+01 2.19581E+02 2.88638E+00-6.77089E+01
 -1      3225-1.39504E+02 2.46016E+01 1.57526E+01 1.01655E+02 3.40633E+00-4.23064E+01
 -1      3226-2.64024E+02 3.39760E+01 1.62162E+01 1.31758E+02 3.32457E+00-6.40136E+01
 -1      3227 7.83417E+01-3.92858E+01-3.03544E+00 3.98991E+02 2.91625E+00-7.96538E+01
 -1      3228 3.93962E+02-1.72392E+01-7.91840E+00 2.42770E+02 7.34205E-01-8.57522E+01
 -1      3229 1.46226E+02-3.81690E+01 1.82502E+00 3.16906E+02 7.90795E+00-6.27963E+01
 -1      3230 1.47850E+03-1.11570E+01-2.98851E+00 2.02951E+03-1.91409E+01-2.31108E+02
 -1      3231-1.06655E+03 5.58115E+01 2.08913E+01 2.05963E+03 1.36499E+01-1.94720E+02
 -1      3232 4.74983E+03 2.68922E+01 1.18890E+01 2.63869E+03-1.33608E+01-4.46976E+02
 -1      3233 1.88587E+04-5.41265E+00-3.37188E+01 2.50581E+03-4.71793E+01-4.52077E+02
 -1      3234 2.51599E+04 3.21261E+01 3.62420E+02 2.75236E+03 7.62172E+02-3.84580E+02
 -1      3235 5.90982E+03 9.99469E+01-1.36036E+01 3.19645E+03 6.98536E+02-4.78968E+02
 -1      3236 2.19012E+04-7.48595E+01-1.14612E+02 2.49173E+03 3.99593E+02-8.32257E+01
 -1      3237 5.88289E+03 4.53747E+02-3.80594E+01 3.09397E+03 7.90060E+02-4.15302E+02
 -1      3238-5.93715E+03 6.55055E+02-4.83212E+02 2.66254E+03 7.01345E+02-2.38764E+02
 -1      3239-6.17213E+03 9.13284E+01-7.70329E+02 2.35682E+03 8.76878E+02-2.84735E+01
 -1      3240 1.44240E+03 1.73048E+00 6.62489E-01 3.71930E+02-1.69678E+01-1.26115E+02
 -1      3241 1.28231E+04 3.70607E+01 1.26843E+01 9.50809E+02-2.21318E+01-3.26818E+02
 -1      3242 3.98986E+03-6.82908E+01 1.09616E+01 1.86424E+03-2.15071E+01-2.84015E+02
 -1      3243 1.18708E+04-5.93750E-01-2.28589E+01 9.24021E+02 2.84752E+01-3.75298E+02
 -1      3244 1.81318E+04-2.98465E+01 8.41210E+00 9.66596E+02-3.01784E+01-4.26534E+02
 -1      3245 5.99787E+03 4.42674E+01-1.00288E+01 2.01573E+03 1.86486E+01-2.97396E+02
 -1      3246 1.70042E+04-8.92394E+01-4.40464E+01 9.68649E+02 1.77567E+01-3.56396E+02
 -1      3247 1.46505E+03-4.95171E+00-6.36185E+00 1.16795E+03-3.83759E+00-9.20464E+01
 -1      3248 1.35765E+03 1.40788E+01 1.14171E+01 1.11472E+03-1.17467E+01-7.83780E+01
 -1      3249 9.93542E+02 1.92495E+01-3.55307E-01 1.05579E+03-1.11793E+01-1.54076E+02
 -1      3250 2.99901E+03-4.46609E+01-1.17353E+01 5.12393E+02 3.03476E+00-1.83221E+02
 -1      3251 3.58596E+03-4.07465E+01-1.81567E+01 5.45399E+02-1.23347E+01-2.25513E+02
 -1      3252 8.16717E+03 2.20056E+01 7.84771E+00 2.19470E+03-5.33498E+00-1.47458E+02
 -1      3253 7.91637E+03 3.27583E+01 1.63910E+01 2.17706E+03-8.40614E+00-1.40587E+02
 -1      3254 5.54527E+03-4.58999E+01-2.14022E+01 2.03090E+03 1.43614E+00-1.44955E+02
 -1      3255 5.34940E+03-3.86819E+01-9.17255E+00 1.95259E+03-3.83255E+00-1.50779E+02
 -1      3256 7.33549E+01-2.19116E+01 4.69832E+00 4.58033E+02 3.41317E+00-4.75651E+01
 -1      3257 8.91302E+02-2.81099E+01-6.02613E+00 3.29909E+02 1.59619E+00-7.68621E+01
 -1      3258-1.14253E+04 4.34839E+01 1.80944E+01 8.83181E+02-1.21682E+01-3.33946E+02
 -1      3259-6.77007E+03-2.34375E+00-2.78026E+01 1.63217E+03 1.82662E+01-3.34139E+02
 -1      3260-9.02096E+02 9.91926E+00 4.56207E+00 4.42257E+02-1.53751E+01-1.29298E+02
 -1      3261-6.25118E+02 1.25155E+01-2.03598E+00 4.06527E+02-5.02345E+00-1.17842E+02
 -1      3262-7.35291E+02 3.64093E+01 5.43026E+00 2.74353E+02 6.26645E+00-1.05836E+02
 -1      3263-2.20317E+02 1.98005E+01 1.02618E+01 5.90817E+02-1.08306E+01-1.22921E+02
 -1      3264-1.07494E+03 3.29224E+01 1.26241E+01 3.06281E+02-2.89580E+00-1.10105E+02
 -1      3265 2.54608E+04 1.21323E+03 7.12843E+02 2.46820E+03 9.01366E+02-4.35679E+02
 -1      3266 1.64141E+03-3.05463E+01 2.87959E+00 1.31564E+03-6.02923E+00-1.08861E+02
 -1      3267 1.01387E+03-5.75178E+01-3.71829E+01 1.19322E+03-8.97325E+00-1.90537E+02
 -1      3268 2.12702E+03-3.07177E+01-4.11565E+00 1.05390E+03-7.16855E+00-1.74230E+02
 -1      3269 3.96417E+03 1.03213E+01 6.11137E+00 6.67218E+02-7.77461E+00-2.22543E+02
 -1      3270 4.04703E+04 4.92884E+01 2.51725E+01 1.67128E+03 3.81576E+01-3.73229E+02
 -1      3271 8.49138E+02-3.88192E+01-7.90096E+00 3.27103E+02 2.54293E+00-7.06771E+01
 -1      3272 1.30154E+03-6.96357E+00-8.13481E+00 3.50608E+02-6.33984E+00-8.71576E+01
 -1      3273 4.35264E+04 6.65679E+00 4.30320E+01 1.29483E+03 3.34914E+00-3.77190E+02
 -1      3274 2.20969E+04-5.27570E+00-2.01008E+01 2.67670E+03 8.24828E+01-1.95727E+02
 -1      3275 2.18150E+04 4.71551E+01 2.67330E+01 2.77618E+03 2.50793E+01-1.84667E+02
 -1      3276 1.58118E+04 6.51784E+01-3.74078E+01 2.68131E+03 6.82013E+01-3.89611E+02
 -1      3277 1.96660E+04-3.25412E+01-5.89350E+00 2.78680E+03 4.21430E+00-1.94075E+02
 -1      3278 5.14779E+04-4.32044E+01 7.75666E+00 1.32779E+03-6.99857E-01-4.83572E+02
 -1      3279 5.00695E+04-6.78424E+01-4.74638E+01 1.32188E+03 3.98821E+01-4.25431E+02
 -1      3280 4.54210E+04 8.32203E+01 3.34400E+01 1.32233E+03-3.84799E+01-4.51662E+02
 -1      3281-6.14749E+04-2.36799E+02-1.83638E+03 1.71491E+03-5.86399E+02-8.87826E+02
 -1      3282-4.41541E+04-3.69688E+01-7.00885E+02 2.30460E+03-9.01036E+02-9.09987E+01
 -1      3283-6.65025E+04 1.57293E+02-5.07859E+02 4.43205E+02-2.75495E+02 4.74298E+01
 -1      3284-5.70082E+04 8.47950E+00-5.01785E+02 1.29400E+03-2.85970E+02-2.99513E+02
 -1      3285-4.04386E+04-5.72911E+01-5.84765E+01 1.94795E+03-3.34387E+02 5.15405E+01
 -1      3286-1.32685E+02 2.68432E+01 1.17651E+01 9.39641E+01-1.18862E+00-4.40008E+01
 -1      3287-9.75163E+01 2.51650E+01-1.03578E+01 3.48362E+02-1.77624E+00-6.89520E+01
 -1      3288-2.01586E+02 2.89914E+01 1.04567E+01 1.80071E+02 1.16880E+00-5.67909E+01
 -1      3289-1.10753E+02 3.90929E+01-1.65870E+00 2.72331E+02-8.76349E+00-4.38331E+01
 -1      3290-1.83953E+02 2.71857E+01 1.52254E+01 1.04261E+02 1.12360E+00-3.43896E+01
 -1      3291-2.45240E+02 3.32877E+01 1.29413E+01 1.40260E+02 4.92592E+00-1.59191E+01
 -1      3292-3.77358E+02 2.24394E+01 1.29766E+01 1.96816E+02 9.30035E+00-5.80161E+01
 -1      3293 1.92304E+02-2.95391E+01-1.53990E+01 9.74196E+01-1.59861E+00-3.58469E+01
 -1      3294 3.36964E+02-2.26104E+01-7.49040E+00 2.47528E+02-8.31589E+00-4.74851E+01
 -1      3295 5.66004E+04 2.51494E+03 1.18005E+04 1.98025E+03-1.74144E+02 2.58466E+03
 -1      3296 3.30016E+04 6.72015E+03 7.39552E+03 3.42530E+03-3.66175E+02 1.00229E+03
 -1      3297 5.31015E+04-3.63414E+02 5.63574E+03 2.85678E+03-2.73352E+02 9.92096E+02
 -1      3298 3.65082E+04 6.82015E+03 8.25431E+03 4.07725E+03 1.10228E+02-2.79273E+02
 -1      3299 3.64028E+01-3.43233E+01-1.09117E+00 9.93470E+01 2.77003E-02-2.15274E+01
 -1      3300 4.44499E+01-3.27343E+01-8.62225E+00 9.92359E+01-8.77053E+00-1.35815E+01
 -1      3301-9.90775E+03 1.29814E+01 1.49686E+01 9.19756E+02-4.39478E+00-2.24028E+02
 -1      3302-2.69866E+04-3.29238E+03-4.50605E+03 2.61718E+03-5.30971E+02-1.20627E+03
 -1      3303-3.33565E+04-6.82062E+01-2.89556E+03 4.46150E+03-2.14217E+02-8.18214E+02
 -1      3304 4.73270E+04-1.25765E+02 3.45505E+02 1.63258E+03-3.39841E+01-5.86489E+02
 -1      3305 8.48737E+03 2.37870E+02 4.76543E+01 3.63675E+03-1.67696E+02-7.91252E+02
 -1      3306 2.22145E+04-2.98709E+02 5.63339E+02 3.17503E+03-4.62702E+02-5.42233E+02
 -1      3307 2.45969E+01-1.77958E+01 5.77083E+00 1.08565E+02 5.67621E+00-2.08924E+01
 -1      3308 2.71555E+03-2.38443E+01 1.15019E+01 5.26638E+02 3.58798E+00-2.23239E+02
 -1      3309 3.16498E+03-1.07579E+01 1.60088E+00 6.12785E+02 6.77073E+00-2.23576E+02
 -1      3310-2.71166E+03 2.38236E+01-1.20485E+01 5.25921E+02-3.27869E+00-2.26398E+02
 -1      3311-3.16478E+03 1.08492E+01-5.52604E-01 6.14457E+02-6.39199E+00-2.26950E+02
 -1      3312-1.31853E+03 4.60961E+01 6.73920E+00 1.01074E+03 3.17310E+00-1.08283E+02
 -1      3313-1.68240E+03 2.68943E+01-2.57034E+00 1.09662E+03-7.76695E+00-1.27403E+02
 -1      3314 1.32194E+03-4.76558E+01-5.81577E+00 1.00975E+03-3.28359E+00-1.06321E+02
 -1      3315 1.68138E+03-2.76319E+01 3.17128E+00 1.09368E+03 6.78824E+00-1.27584E+02
 -1      3316 2.73549E+03-1.61187E+02-6.22852E+01 2.61554E+03-4.09982E+02-4.35760E+02
 -1      3317-1.05976E+01 2.86268E+01-7.10936E+00 9.29585E+01-1.03598E+01-1.49820E-02
 -1      3318 6.25714E+00 1.02241E+00-7.33328E+00 9.70428E+01-9.69107E+00 3.80714E-01
 -1      3319-5.35229E+00 4.49897E+00-3.62843E+00 1.92907E+02-5.75945E+00-1.20000E+01
 -1      3320-2.62831E+01 3.45957E+01-7.01001E+00 9.97578E+01-8.46892E+00-1.27660E+01
 -1      3321-4.55788E+01 2.16246E+01-4.50810E+00 1.77544E+02-5.58486E+00-1.58253E+01
 -1      3322 6.16870E+04 4.22304E+02 1.90826E+03 1.76568E+03 6.44843E+02-9.38808E+02
 -1      3323 4.41916E+04 4.04098E+01 6.50749E+02 2.32462E+03 8.85334E+02-1.47586E+02
 -1      3324 6.66571E+04-1.97567E+02 4.80632E+02 4.21174E+02 3.02055E+02 1.95098E+01
 -1      3325 5.67545E+04 1.90771E+01 5.54281E+02 1.30514E+03 2.80396E+02-3.56964E+02
 -1      3326 4.01752E+04 2.69606E+01 5.06221E+01 1.99331E+03 3.13462E+02 8.50623E+01
 -1      3327 5.31303E+02-1.95494E+01-1.03439E+01 6.89501E+02-9.51226E+00-5.15169E+01
 -1      3328 1.25511E+02 2.52153E+00 3.78568E+00 6.46497E+02-8.83568E+00-7.49306E+01
 -1      3329-1.55560E+02 8.59202E+00-1.71502E+01 5.93197E+02-1.11470E+01-5.49599E+01
 -1      3330 1.79952E+02-5.72023E+00-1.27700E+01 6.36318E+02-1.97138E+00-9.60845E+01
 -1      3331 6.33631E+02-2.90871E+01 3.40297E+00 7.93053E+02-8.83452E+00-5.68567E+01
 -1      3332-9.62531E+01 2.19808E+01-5.32268E-01 6.88738E+02 2.33591E+00-5.55302E+01
 -1      3333-2.74225E+01 1.41844E+01-2.80031E+00 2.48505E+02-5.73995E+00-1.61309E+01
 -1      3334 2.86608E+01 4.43918E+00-2.90555E+00 2.03805E+02-7.54935E+00-2.84769E+01
 -1      3335 1.06048E+04-3.58488E+01 1.32384E+01 9.10204E+02 7.49566E+00-3.31473E+02
 -1      3336 3.18583E+03 3.49371E+01 1.99868E+01 1.78598E+03-5.95733E+00-2.63405E+02
 -1      3337 7.12452E+03-3.61911E+01-2.55710E+01 1.67464E+03-1.10139E+01-2.83625E+02
 -1      3338 5.23340E+03-7.02465E+01-4.89345E+01 2.09393E+03-3.97450E+00-2.97342E+02
 -1      3339 1.79868E+04 2.08748E+01-3.35796E+01 1.11680E+03-1.19208E+01-4.08995E+02
 -1      3340 1.13069E+04-4.53209E+00 1.57430E+01 1.86877E+03 6.57236E-01-3.14563E+02
 -1      3341 4.35529E+03 1.07617E+01-1.73614E+01 1.89984E+03-1.01871E+01-1.53251E+02
 -1      3342 7.68646E+03-3.70419E+01 2.33662E+01 2.29153E+03 5.46019E+00-1.73000E+02
 -1      3343-1.15429E+04 2.00817E-01-2.91051E+00 9.75020E+02-5.44188E+00-3.86501E+02
 -1      3344-1.25332E+04-1.93412E+01-5.58381E+00 8.74406E+02 1.63656E+01-3.28642E+02
 -1      3345-5.49413E+04-1.49739E+03-1.09200E+04 1.24389E+03-3.19068E+02 2.60361E+03
 -1      3346-6.01177E+04-4.61482E+03-1.27277E+04 2.91842E+03 1.78874E+02 3.85064E+02
 -1      3347-5.31688E+04-1.13588E+02-5.53024E+03 2.45450E+03 3.01724E+02 1.26570E+03
 -1      3348-5.63713E+04-9.64389E+01-6.49441E+03 2.83054E+03 1.92935E+02-2.80207E+02
 -1      3349-3.26687E+04-6.46224E+03-8.11379E+03 3.48228E+03 1.86774E+02 1.20293E+03
 -1      3350 1.75906E+02-3.69485E+01-6.04540E-01 2.21882E+02-6.08321E+00-1.16978E+01
 -1      3351 2.67100E+02-3.49319E+01-1.00746E+01 1.31188E+02-6.60604E+00-1.64546E+01
 -1      3352 2.55081E+02-4.18899E+01-6.25108E+00 3.74881E+02-1.14026E+01-3.15397E+01
 -1      3353 2.64231E+04 3.36263E+03 1.69606E+03-7.00701E+02 3.48633E+02-1.54222E+03
 -1      3354 9.02622E+03 3.80410E+03 2.12738E+03-1.45075E+03 1.42078E+02-9.96030E+02
 -1      3355-1.64751E+04-5.96248E+02-1.47792E+03 1.66546E+03 1.11581E+03 2.81865E+02
 -1      3356-2.33216E+03 1.80817E+03 1.54250E+03 1.46979E+03 9.37110E+02-6.45097E+02
 -1      3357 4.01519E+03 1.27701E+03-4.08017E+02 1.72211E+03 9.11000E+02-1.75448E+02
 -1      3358-4.78605E+04 1.12030E+02-3.34306E+02 1.59903E+03 3.43504E+01-5.76158E+02
 -1      3359-1.14145E+04-2.47098E+02-7.79876E+01 3.55870E+03 2.01714E+02-8.01558E+02
 -1      3360-2.33946E+04 2.31118E+02-6.46704E+02 3.10050E+03 4.62966E+02-5.53658E+02
 -1      3361 1.84090E+01-3.76627E+01-1.63856E+01-1.00498E+00 1.72261E-01-1.64902E+01
 -1      3362 1.40993E+01-3.84322E+01-8.99138E+00 2.73394E+00 9.44270E-01-1.67190E+01
 -1      3363 6.55203E+01-2.69342E+01-1.59736E+01 8.32580E+01-1.40038E-01-3.58937E+01
 -1      3364 6.19250E+01-2.23019E+01-8.30066E+00 9.02506E+01 2.36268E+00-3.12777E+01
 -1      3365 3.19323E+01-5.22862E+01-2.23409E+00 8.60554E+01 3.64508E+00-1.97929E+01
 -1      3366-2.76336E+03 1.55584E+02 7.22377E+01 2.60604E+03 3.83419E+02-4.05258E+02
 -1      3367-8.62982E+01 3.09143E+00 3.49261E+00 4.78597E+02 1.25647E+00-8.58876E+01
 -1      3368-1.77959E+04-4.94294E+00 3.43481E+01 2.79000E+03-1.07720E+01-2.37074E+02
 -1      3369 3.45575E+03 1.36754E+01 1.79006E+01 2.81044E+03-2.87666E+01-2.34256E+02
 -1      3370-3.05889E+03 2.15012E+01-6.09133E+01 2.61783E+03-5.74159E+00-4.40025E+02
 -1      3371-2.50976E+03-8.47318E+01-4.76842E+00 2.55944E+03 9.45354E+00-4.40585E+02
 -1      3372 1.90585E+04 2.88966E+01-1.67940E+00 2.43229E+03-1.45930E+01-4.75085E+02
 -1      3373 4.00058E+03-5.06822E+01-3.66980E+01 2.79525E+03 3.02810E+01-2.54972E+02
 -1      3374 1.91351E+02-5.24300E+00-1.53410E+01 5.80995E+02-7.49322E+00-5.09014E+01
 -1      3375-1.89223E+03 3.69986E+01 3.90534E+00 4.23384E+02 8.83903E+00-1.44567E+02
 -1      3376-7.73611E+02 3.35596E+01 6.48206E+00 7.29042E+02 1.18082E+00-1.38463E+02
 -1      3377-1.72707E+03 3.55733E+01-6.91514E+00 4.08959E+02-4.19940E+00-1.64768E+02
 -1      3378-2.08436E+03 2.73329E+01 6.43074E+00 4.95543E+02 4.94511E+00-1.81104E+02
 -1      3379-8.90247E+02 4.25236E+01-1.04685E+01 8.40373E+02-2.43834E+00-1.60287E+02
 -1      3380-1.03300E+03 4.60207E+01-5.85869E-03 8.42685E+02 1.00202E+01-1.67188E+02
 -1      3381-7.21651E+02 7.78494E+00 6.58700E+00 9.04260E+02 3.79086E+00-7.13440E+01
 -1      3382 9.08709E+01-4.46547E+00 1.26697E+01 8.88555E+02 1.46214E-01-7.24806E+01
 -1      3383-1.82916E+02-1.00286E+01-9.54873E+00 7.87049E+02 7.01759E+00-1.25819E+02
 -1      3384-1.22541E+01-2.65791E+01 6.52204E+00 8.80055E+02 9.47350E+00-1.53626E+02
 -1      3385 8.85612E+02-2.74753E+01 1.54810E+01 8.33327E+02 6.00320E+00-1.59400E+02
 -1      3386 2.67165E+02-2.54918E+01 7.11454E+00 1.00507E+03 1.35619E+01-9.53929E+01
 -1      3387-2.48604E+04 3.00977E+01 3.27821E+00 2.49510E+03-6.07007E+00-3.92553E+02
 -1      3388-1.85788E+04 3.17413E+01 1.28702E+01 2.80828E+03-3.49004E+01-2.23271E+02
 -1      3389-3.16518E+03-7.46050E+01-7.56048E+01 2.63650E+03-3.43507E+01-4.38523E+02
 -1      3390-7.32736E+03-1.62715E+01 4.40711E+00 2.56781E+03-1.93644E+01-4.02785E+02
 -1      3391-5.55465E+03 4.43097E+01-1.52228E+01 1.58210E+03-6.64906E+00-2.98518E+02
 -1      3392-2.42139E+03 6.81033E+01 1.88074E+01 1.16184E+03 1.34230E+01-2.37121E+02
 -1      3393 9.39298E+01 3.71583E+00 1.46665E+01 1.28780E+03-1.60482E+00-2.06536E+02
 -1      3394-9.23911E+01-1.49505E+01-1.55813E+01 1.29007E+03-1.26430E+00-2.08257E+02
 -1      3395 2.42569E+03-6.16116E+01-1.60349E+01 1.16254E+03-8.19471E+00-2.35316E+02
 -1      3396-2.00469E+03-3.94016E+01-9.93592E-01 1.75565E+03-1.51502E+01-2.80831E+02
 -1      3397-1.19546E+04-6.85656E+02 7.88502E+02-1.38645E+03 2.86721E+01 7.33686E+01
 -1      3398 6.02844E+03-7.63990E+02 6.79416E+02-1.49592E+03-4.07697E+02 9.49044E+02
 -1      3399-1.56229E+04-1.08223E+03-4.95745E+02 1.83110E+03-1.05710E+03-9.19084E+02
 -1      3400-1.44386E+04-8.31783E+02-5.51914E+02 1.54736E+03-1.04394E+03-6.90945E+02
 -1      3401-3.63644E+04-2.58249E+03-1.56175E+03 2.36977E+03-1.36498E+03-1.21477E+03
 -1      3402-2.20813E+03 1.89986E+01 3.65520E+01 4.84848E+02-1.53919E+00-1.62425E+02
 -1      3403-1.15273E+03 5.43576E+01 1.35029E+01 8.34216E+02 1.25095E+01-1.39490E+02
 -1      3404-1.34348E+03 3.81409E+01-4.80543E+00 9.23219E+02-5.57322E+00-1.79428E+02
 -1      3405-9.79437E+02 3.03301E+01 3.10851E+00 9.96228E+02 4.65073E+00-8.44430E+01
 -1      3406-2.43584E+02-2.84361E+00-2.24227E+01 9.95042E+02-8.19183E+00-1.56925E+02
 -1      3407-3.55913E+03-9.95175E+00 2.64752E+00 2.18005E+03-1.38276E+01-3.41094E+02
 -1      3408-6.05276E+03-1.79588E+01-2.13694E+01 2.87680E+03-1.93788E+02-4.52864E+02
 -1      3409 2.64606E+02-2.90977E+01 5.73800E+00 4.93081E+02 4.60414E-01-8.38489E+01
 -1      3410-2.15492E+04 5.95777E+01 1.59031E+01 2.30767E+03-2.68058E+01-4.48167E+02
 -1      3411 2.85628E+03-1.10855E+01 1.23009E+01 1.11768E+03-1.98819E+01-8.55998E+01
 -1      3412 2.56315E+03-4.98880E+01-3.10780E+00 9.82230E+02 3.28160E+00-6.68202E+01
 -1      3413 3.92950E+03 6.44974E+00-2.19348E+00 6.40762E+02-2.33206E+01-1.57094E+02
 -1      3414 3.55201E+03-3.86927E+01-1.27584E+01 5.01107E+02-8.22650E-02-1.36159E+02
 -1      3415 1.49317E+04-6.36917E+01-1.73703E+01 2.78380E+03 1.47679E+02-3.53359E+02
 -1      3416 5.13151E+04 3.38360E+01 4.59617E+01 1.44207E+03 1.26552E+02-4.04103E+02
 -1      3417 3.07449E+04 1.94714E+01 8.05103E+00 2.44160E+03 1.29412E+02-3.22633E+02
 -1      3418 1.01992E+04-6.48747E+01-1.42173E+01 1.96438E+03 2.53610E+01-3.70463E+02
 -1      3419-1.89729E+01 3.86863E+01 2.05069E+01 4.08850E+00 4.80176E+00-1.62579E+01
 -1      3420-1.70317E+01 3.85718E+01 1.80057E+01-5.74138E-01 3.39761E+00-1.67741E+01
 -1      3421-8.32504E+01 2.03368E+01 1.54420E+01 8.55293E+01 4.42638E+00-3.08252E+01
 -1      3422-7.13884E+01 2.70428E+01 1.76179E+01 7.81467E+01 1.63872E+00-3.18171E+01
 -1      3423-4.42862E+01 5.46754E+01 1.37788E+01 8.37073E+01 7.57440E+00-1.69584E+01
 -1      3424-4.56116E+04 1.69713E+01 9.69618E+01 1.36172E+03-1.83185E+01-4.64422E+02
 -1      3425-4.46529E+04 6.96351E+00-1.68464E+01 1.38135E+03-1.40511E+01-4.52572E+02
 -1      3426-4.27164E+04-2.58168E+01 6.66773E+00 1.33314E+03 3.68951E+01-5.14856E+02
 -1      3427-2.19837E+04-1.11576E+01-3.41071E+01 2.46706E+03 1.92302E+01-4.66866E+02
 -1      3428-2.27830E+04-9.50963E+00-1.45272E+01 2.45529E+03 4.55285E+00-4.66067E+02
 -1      3429-1.01906E+04 6.31655E+01 2.20170E+01 1.95826E+03-2.27413E+01-3.71948E+02
 -1      3430 3.56617E+03 1.20787E+01-2.03932E+00 2.18226E+03 1.39086E+01-3.45040E+02
 -1      3431 8.31619E+01 1.69870E+01 1.39980E+01 2.27288E+03-2.29097E+00-3.65731E+02
 -1      3432-1.16106E+04 3.77137E+01 2.36985E+01 2.06889E+03 1.42195E+01-4.11656E+02
 -1      3433 2.46138E+04 1.01198E+02 1.84553E+02 2.80261E+03 3.36855E+01-4.83812E+02
 -1      3434 2.14901E+04-8.32995E+01-4.14670E+01 2.75079E+03 1.88023E+02-1.75485E+02
 -1      3435 9.39181E+02 1.55123E+01 2.23197E+01 2.09079E+03-2.57298E+01-1.76763E+02
 -1      3436-1.12640E+03 4.10244E+01 5.73147E+00 1.92948E+03-8.88959E+00-3.31727E+02
 -1      3437-5.80562E+03 1.20684E+01-1.55480E+01 2.14452E+03 6.01550E+00-1.71587E+02
 -1      3438 1.35923E+03-2.06357E+01-2.01580E+01 2.16959E+03 2.12228E+01-1.82928E+02
 -1      3439-7.45685E+02 4.27319E-01 3.75197E+01 2.05197E+03-9.99704E+00-3.54907E+02
 -1      3440 5.77176E+03-7.64278E+01-2.75437E+01 1.83870E+03 1.11808E+00-3.49508E+02
 -1      3441-2.11135E+04-3.24455E+01 5.75494E+01 2.40568E+03-4.84205E+01-4.59217E+02
 -1      3442-4.16891E+04 8.45377E+01 6.31340E+00 1.31216E+03-3.60003E+01-5.41382E+02
 -1      3443-1.89943E+04-7.46744E+00-7.96225E+00 2.44447E+03 2.38437E+01-4.65405E+02
 -1      3444 2.08514E+01-7.26648E+00-1.05129E+01 1.10914E+02-9.77451E+00-1.53204E+01
 -1      3445 6.30690E+01-3.36195E+01-7.90845E+00 1.84360E+02-8.17846E+00-1.42430E+01
 -1      3446-7.86626E+03-1.64616E+03-1.57173E+03-1.85954E+03 3.99715E+01 1.03985E+03
 -1      3447-1.90370E+04-2.37862E+03-3.25792E+03 1.46704E+03 5.25692E+02 1.39220E+03
 -1      3448 7.32324E+03-5.12275E+01-5.93112E+00 7.60897E+02-1.68768E+01-2.77017E+02
 -1      3449 3.16662E+03-3.19861E+01-2.16768E+01 1.39634E+03-3.38205E+01-2.61305E+02
 -1      3450 6.57638E+03-9.01767E+00 1.18346E+01 8.26570E+02-2.70894E+00-2.97380E+02
 -1      3451 8.49866E+03-1.29165E+01-1.58159E+01 7.71838E+02-2.01273E+00-2.76332E+02
 -1      3452 4.12950E+03-3.18119E+01-1.43935E+01 1.44762E+03-3.20068E+00-2.75703E+02
 -1      3453 4.94795E+03-2.80835E+01-2.04356E+01 1.43307E+03 9.59794E-01-2.24061E+02
 -1      3454-3.19922E+02 7.80195E+00 7.26691E+00 1.67318E+03 2.18486E+00-1.42539E+02
 -1      3455 6.42228E+02 7.96322E-01-3.22560E+01 1.48481E+03-1.47605E+01-2.37413E+02
 -1      3456 2.94011E+03-6.02619E+00-7.96817E+00 1.63685E+03 1.32361E+01-1.36498E+02
 -1      3457 3.92480E+03-2.67242E+01 2.05753E+00 1.71728E+03-1.02405E+01-1.27171E+02
 -1      3458 1.53935E+03-2.29469E+01-5.65380E-01 1.54896E+03-2.58646E+01-2.51299E+02
 -1      3459-7.22923E+02 3.82975E+01 1.38628E+01 2.46137E+02 7.68596E+00-1.01382E+02
 -1      3460-4.26225E+02 4.43404E+01-7.55637E+00 4.48309E+02 4.92374E+00-1.00786E+02
 -1      3461 7.62366E+03 5.18917E+01 1.42276E+01 1.88892E+03 9.03495E+00-2.18521E+02
 -1      3462 3.04372E+03-4.70770E+00 5.33437E-01 2.14864E+03-1.46132E+00-2.34935E+02
 -1      3463 8.38136E+03-3.47032E+01 2.70522E+01 1.93015E+03 7.88416E+00-2.22608E+02
 -1      3464 9.61698E+02-3.00366E+00-3.12423E+01 2.43511E+03 1.78572E+01-4.28366E+02
 -1      3465-2.35770E+03 1.75999E+01 1.67921E+01 2.56627E+03-3.48858E+01-2.23337E+02
 -1      3466 1.00950E+04-2.36427E+01 7.31017E+00 2.59777E+03-1.41595E+01-2.12175E+02
 -1      3467 5.09558E+02-3.25318E+01 1.29773E+01 2.34363E+03 3.51977E+01-4.15094E+02
 -1      3468-2.74655E+03-2.09893E+00 3.36095E+00 2.53547E+03 1.04933E+01-2.13444E+02
 -1      3469-1.17065E+04 3.56137E+01-1.74894E+01 2.16422E+03-7.09534E+00-4.55629E+02
 -1      3470 2.41708E+04 3.22698E+01-9.92126E+00 1.20864E+03-3.90821E+01-4.67364E+02
 -1      3471 1.25837E+04 4.22768E+00 4.36832E+01 2.28482E+03-4.23673E+01-4.37922E+02
 -1      3472 2.52066E+04-3.29484E+00-2.72151E+01 1.27290E+03-2.63018E+00-4.35082E+02
 -1      3473 2.41476E+04-1.10849E+01 1.27387E+01 1.12244E+03 4.61965E+00-4.90038E+02
 -1      3474 1.27822E+04-2.34531E+01 5.38715E+00 2.17021E+03 1.64364E+01-4.12701E+02
 -1      3475 1.17081E+04-4.83434E+01 2.58965E+01 2.18293E+03 9.25182E+00-4.24289E+02
 -1      3476-9.33264E+02-7.03762E+00 2.42368E+01 2.45077E+03-7.85889E+00-4.12070E+02
 -1      3477 2.36949E+03-1.04880E+01-1.33919E+01 2.57283E+03 2.13599E+01-2.32015E+02
 -1      3478-4.83746E+02 2.39104E+01 6.26647E-01 2.35489E+03-8.99695E+00-3.54164E+02
 -1      3479 8.48232E+01-1.68689E+01 6.39492E-01 2.56016E+02-6.27018E+00-2.03590E+01
 -1      3480 1.10461E+02-1.86351E+01-5.05324E+00 3.30134E+02-3.21266E+00-2.49099E+01
 -1      3481-4.60451E+01 1.13431E+01-9.54316E+00 4.19483E+02-4.58344E+00-2.98379E+01
 -1      3482-1.04795E+01-2.39012E+00-5.12476E+00 2.90097E+02-1.06199E+01-4.39501E+01
 -1      3483-5.74915E+01 1.01350E+01-4.92624E+00 3.40323E+02-1.00407E+01-2.58740E+01
 -1      3484 5.17435E+04-5.85219E+00 3.42773E+01 1.25789E+03-1.35834E+01-1.29242E+02
 -1      3485 5.02381E+04-3.44085E+01 9.42059E+00 1.27854E+03 1.54738E+01-1.34796E+02
 -1      3486 4.28973E+04-4.22312E+01-1.93058E+01 1.32667E+03-1.14577E+01-3.35013E+02
 -1      3487 3.07450E+04-4.43074E+01 7.23405E+00 2.43222E+03 2.60066E+01-1.86850E+02
 -1      3488-9.82393E+01 6.58148E+00-1.07368E+01 5.14027E+02-3.17216E+00-8.49937E+01
 -1      3489 8.20660E+02-4.42525E+01-1.97115E+01 6.74397E+02 9.60300E-01-1.35260E+02
 -1      3490 1.54606E+03-2.67686E+01 7.65115E+00 8.97989E+02 8.61927E+00-1.75608E+02
 -1      3491 3.84064E+02 4.15072E+00-1.08521E+01 1.00248E+03 7.44491E-02-1.50457E+02
 -1      3492-3.73453E+04-6.24686E+03-7.49886E+03 3.88563E+03-5.63482E+02-1.83552E+02
 -1      3493-6.22829E+04-8.06584E+02-6.56037E+03 2.94005E+03-7.95237E+02-1.80944E+03
 -1      3494-3.55920E+02 1.95023E+01-1.32680E+00 2.04516E+02-6.53955E+00-7.16875E+01
 -1      3495 9.02860E+03-9.07831E+00 4.88716E+01 1.76232E+03-1.50275E+01-3.57836E+02
 -1      3496 6.70091E+03-4.00592E+01-4.00064E+01 1.70877E+03 9.42336E-01-3.37323E+02
 -1      3497-2.41411E+04-1.63129E+01 7.50390E+00 1.22609E+03 3.52148E+01-4.60756E+02
 -1      3498-1.25385E+04-2.45215E+01-4.57685E+01 2.26989E+03 5.11969E+01-4.49858E+02
 -1      3499-1.27669E+04-4.08612E+01-4.01054E+01 2.12763E+03-2.53041E+01-4.22195E+02
 -1      3500-5.35131E+03 4.45510E+00 1.47201E+01 2.10722E+03 1.27996E+01-1.93063E+02
 -1      3501-7.65935E+03-2.52093E+01-1.62988E+01 1.88027E+03 1.33966E+01-3.13050E+02
 -1      3502-8.77415E+02 5.68299E+01 3.14469E+01 1.93451E+03-1.35800E+00-3.18012E+02
 -1      3503-1.27065E+03 1.58953E+01 5.98017E+00 4.01145E+02-1.06299E+01-1.44833E+02
 -1      3504-2.89427E+02 4.73109E+01 5.57939E+00 7.09695E+02-6.95907E+00-1.49809E+02
 -1      3505-5.34400E+02 4.99435E+01-3.56122E+00 6.13116E+02-4.74951E+00-1.16731E+02
 -1      3506 1.38820E+03-3.05806E+01 1.92039E-01 1.89627E+03 4.79770E+00-2.91428E+02
 -1      3507 3.57771E+04 1.42003E+03 1.02828E+03 2.05783E+03 1.31230E+03-1.04468E+03
 -1      3508 2.97028E+04 3.92930E+03 5.43593E+03 1.84083E+03 5.88941E+02-2.05357E+03
 -1      3509-2.07769E+04 7.86522E+00 1.59311E+01 1.01944E+03 4.41728E+00-1.08621E+02
 -1      3510-2.11723E+03 1.81914E+01 1.44547E+01 4.87614E+02-6.14191E+00-1.17512E+02
 -1      3511-1.78479E+03 3.18763E+01-3.28419E+00 4.29537E+02-3.55125E+00-1.80102E+02
 -1      3512-8.95836E+02 3.93624E+01 6.26431E+00 8.19942E+02-2.83635E+00-8.90306E+01
 -1      3513-1.16154E+03 2.60280E+01-6.22017E+00 9.41195E+02-1.18987E+01-1.11757E+02
 -1      3514-2.13591E+03 2.07583E+01 4.19105E+00 5.14983E+02-2.53270E+00-1.98900E+02
 -1      3515 2.11855E+03-1.59871E+01-1.51977E+01 4.91543E+02 4.75181E+00-1.16835E+02
 -1      3516 1.79352E+03-3.61250E+01 4.99974E+00 4.18668E+02 4.44385E+00-1.79948E+02
 -1      3517 9.04966E+02-3.38859E+01 4.67019E+00 8.13245E+02 4.00234E-01-8.95852E+01
 -1      3518 1.14907E+03-2.82508E+01 7.88425E-01 9.45293E+02 1.26217E+01-1.09440E+02
 -1      3519 2.12375E+03-2.48135E+01-5.39360E+00 5.19805E+02 1.15482E+00-1.97644E+02
 -1      3520-1.88320E+03 3.11844E+01-1.08361E+01 4.30974E+02-1.18599E+01-1.10944E+02
 -1      3521-7.08191E+02 4.61199E+01-1.61221E+00 7.59508E+02-2.48616E+00-8.28428E+01
 -1      3522 1.88278E+03-2.86435E+01 9.91308E+00 4.31043E+02 1.11801E+01-1.12061E+02
 -1      3523 6.98861E+02-5.77946E+01 1.20836E+01 7.53986E+02-7.17831E+00-8.52192E+01
 -1      3524 1.48656E+03-3.66507E+01 6.55271E+00 4.11357E+02 7.47514E-01-1.00513E+02
 -1      3525 1.42088E+03-4.15430E+01 5.19843E-01 4.01293E+02 6.57806E+00-1.59817E+02
 -1      3526-1.48136E+03 3.39866E+01-6.46414E+00 4.10443E+02-2.16516E+00-1.00665E+02
 -1      3527-1.38985E+03 2.34225E+01-2.66750E+00 4.06212E+02-4.55567E+00-1.62960E+02
 -1      3528 2.57914E+03 2.83275E+01-2.64855E+01 2.03289E+03-1.14384E+01-3.13335E+02
 -1      3529 5.79578E+03 4.84223E+01 2.72663E+00 2.62408E+03 2.63128E+01-4.05547E+02
 -1      3530 1.21288E+04-5.60443E+00-9.46410E+00 9.95438E+02-1.67004E+00-2.34056E+02
 -1      3531 1.16085E+04-4.14497E+01 4.50037E+01 9.78457E+02 7.07922E+00-2.43906E+02
 -1      3532 6.00442E+03-4.36841E+01 1.55503E+00 1.85568E+03 1.25238E+00-2.15785E+02
 -1      3533 5.56193E+03-5.84905E+01 2.03377E+01 1.84000E+03-1.72033E+01-2.10261E+02
 -1      3534 1.13085E+04-5.07771E+01 2.65392E+01 9.91485E+02 5.19418E+00-3.88516E+02
 -1      3535-2.49634E+04 6.48263E+02-5.94894E+02 2.05765E+03 7.60053E+02-5.10855E+02
 -1      3536-5.01877E+04-2.10953E+02-2.04765E+03 1.76076E+03 3.36253E+02 1.90261E+02
 -1      3537-4.65195E+04 3.53054E+02-5.39458E+02 4.03439E+02 2.11306E+02-2.78421E+02
 -1      3538-2.14188E+04 9.35912E+01-9.89026E+01 2.01008E+03 2.79905E+02-5.38588E+02
 -1      3539-4.51888E+04 4.32714E+01-5.48865E+02 1.47685E+03 1.95302E+02-3.82712E+02
 -1      3540 2.34354E+04-2.23259E+01-6.57261E+01 2.32374E+03 1.32258E+01-4.59908E+02
 -1      3541 4.26265E+01-4.95550E+01-1.11753E+01 7.96294E+01-3.46952E+00-1.87020E+01
 -1      3542 8.07837E+01-2.44163E+01-1.84241E+01 8.16544E+01-6.24567E+00-3.21876E+01
 -1      3543-1.07608E+03 8.66889E+00-7.35566E+00 1.71188E+03 1.06342E+01-1.44156E+02
 -1      3544 9.07955E+02-8.78178E+00-1.17248E+01 1.64197E+03 4.72552E+00-2.52638E+02
 -1      3545-3.24430E+03 5.19969E+01 3.04347E+01 1.47209E+03-9.14921E+00-2.83124E+02
 -1      3546 7.50177E+03-7.58438E+00-2.93428E+01 7.65455E+02 8.00568E-01-3.21125E+02
 -1      3547 3.20468E+03-4.60244E+01-2.02155E+01 1.47182E+03 9.36448E+00-2.77979E+02
 -1      3548 5.07063E+03-3.17927E+01-3.11909E-01 1.45304E+03 3.97362E+00-2.85269E+02
 -1      3549 5.23618E+03-3.75898E+01 1.76236E+01 2.61377E+03 1.81258E+01-4.10308E+02
 -1      3550-6.18932E+04-2.87040E+01-6.95063E-01 1.20942E+03-2.10353E+01-5.58356E+01
 -1      3551-6.33097E+01 2.49309E+01 8.42363E+00 7.74642E+01-4.86194E+00-3.20172E+01
 -1      3552-3.67183E+01 5.13252E+01 9.76235E+00 7.78039E+01-1.13403E+00-2.02952E+01
 -1      3553 4.12844E+04 4.73327E+01-2.62601E+01 1.31420E+03 7.71656E+00-3.38970E+02
 -1      3554 4.01196E+04 4.21295E+00-3.18810E+01 1.30103E+03-1.74414E+01-3.23560E+02
 -1      3555 2.06791E+04 5.09102E+01-3.86018E+01 2.48694E+03 2.14807E+01-2.98141E+02
 -1      3556 3.93911E+04 5.99247E+01-1.96420E+01 1.33601E+03 1.72085E+00-5.54330E+02
 -1      3557 4.04769E+04 5.25245E+01-1.39126E+01 1.37022E+03-2.75890E+01-5.59527E+02
 -1      3558-1.65676E+04 1.00277E+00-4.64866E+01 2.41007E+03 3.47125E+01-4.56960E+02
 -1      3559 2.56136E+04 4.94024E+01 5.27274E+01 2.35884E+03 6.82556E+00-4.62178E+02
 -1      3560-1.88410E+04 5.75032E+01 4.02423E+01 2.43578E+03 4.63555E+01-4.50935E+02
 -1      3561-4.70325E+03-2.32423E+01 3.18841E+01 2.62825E+03 7.30155E+00-4.31587E+02
 -1      3562 1.36548E+03 3.23348E+01 2.89847E+01 1.73596E+03 1.49705E+01-2.79471E+02
 -1      3563 2.57305E+02-1.14643E+01 6.65187E+00 1.24968E+03 3.34498E-01-2.01998E+02
 -1      3564-2.03474E+03 5.40544E+01 1.81402E+01 1.16453E+03-1.58868E+01-2.28027E+02
 -1      3565-2.51585E+02 1.75047E+00-5.64781E+00 1.25795E+03-2.02766E+00-1.98079E+02
 -1      3566 2.04431E+03-4.81706E+01-1.23364E+01 1.16070E+03 2.03179E+01-2.27366E+02
 -1      3567 4.85021E+03-1.87730E+01 1.06256E+01 1.66237E+03 6.76040E+00-2.91079E+02
 -1      3568-2.11734E+03-1.64900E+00 3.39569E+01 2.20732E+03 9.21652E+00-3.69096E+02
 -1      3569 8.70035E+03-4.77351E+01-1.81015E+00 2.05597E+03-1.92910E+01-3.70229E+02
 -1      3570-8.69154E+03 5.78187E+01 2.33292E+01 2.04880E+03 3.29491E+01-3.76456E+02
 -1      3571 2.12975E+03-1.30937E+01-3.85558E+01 2.20519E+03-1.21444E+01-3.66883E+02
 -1      3572 1.32506E+03-2.20879E+01-4.11023E+01 2.55432E+03 1.55262E+01-4.37465E+02
 -1      3573 1.66065E+04-1.11429E+00 4.46816E+01 2.40767E+03-3.37450E+01-4.57624E+02
 -1      3574 3.53143E+03-3.50935E+01-4.18400E+01 2.48186E+03-3.06903E+01-4.00791E+02
 -1      3575-1.45148E+04 2.54007E+01 5.57016E+01 2.33998E+03 4.17869E+01-4.30650E+02
 -1      3576 1.44946E+04-2.73365E+01-5.34371E+01 2.34279E+03-4.08931E+01-4.29990E+02
 -1      3577-1.28754E+03 1.61285E+01 3.90681E+01 2.55133E+03-1.65957E+01-4.36579E+02
 -1      3578 2.68953E+04-2.71340E+01 2.75091E+01 1.11337E+03-6.09876E+00-4.07479E+02
 -1      3579 1.55894E+04 8.14239E+01 7.27134E+01 2.19345E+03 1.01326E+01-3.39200E+02
 -1      3580 1.45341E+04-3.62169E+01-1.43765E+01 2.08384E+03 3.41696E+00-4.19693E+02
 -1      3581 1.19692E+04 2.31536E-01-2.18571E+01 2.52513E+03-2.26992E+01-1.85542E+02
 -1      3582 2.56388E+03-2.29637E+01-2.89285E+01 2.35342E+03-9.02151E+00-4.09468E+02
 -1      3583-3.55135E+03 3.71812E+01 4.23295E+01 2.48394E+03 3.04571E+01-4.00082E+02
 -1      3584-3.01159E+04-6.39280E+03-2.59982E+03-7.30721E+02-1.88008E+02-1.80385E+03
 -1      3585-3.28681E+04-5.29815E+03-5.82354E+03 2.27153E+03-8.00346E+02-2.64148E+03
 -1      3586-6.75637E+02 2.82047E+01 1.48754E+01 2.38454E+02 7.20465E+00-2.28262E+01
 -1      3587-4.70963E+02 2.75598E+01 1.85585E+01 1.66581E+02 5.69937E+00-1.84740E+01
 -1      3588-5.99886E+02 1.91689E+01 1.25718E+01 2.32464E+02 4.13608E+00-7.19921E+01
 -1      3589-4.71787E+02 4.16106E+01 6.77505E+00 4.32001E+02 6.83329E+00-4.12188E+01
 -1      3590 2.97938E+03-3.10893E+01-1.85483E+01 1.61602E+03 1.20514E+01-2.83913E+02
 -1      3591-1.29350E+03 7.54181E-01 8.00272E+00 1.52699E+03-1.44162E+01-2.65673E+02
 -1      3592-2.04196E+03 2.81066E+01 6.57506E+00 1.61335E+03-8.06466E+00-3.07992E+02
 -1      3593 4.27610E+03-3.89228E+01-1.09426E+01 5.45272E+02-1.41066E+00-5.69039E+01
 -1      3594-8.39038E+00 3.74747E+01 1.02345E+01-3.13769E+00-1.77266E+00-1.61829E+01
 -1      3595-3.29644E+01 5.28266E+01 2.19125E+00 7.62941E+01-4.38739E+00-1.70991E+01
 -1      3596-4.65609E+02 1.90543E+01 1.37467E+01 2.24298E+02 3.09492E+00-8.18371E+01
 -1      3597 1.71374E+01-4.16145E+01-8.48683E+00 9.35872E+01-1.10031E+01-3.95883E-01
 -1      3598 4.43008E+01-4.30760E+01-1.15646E+01 9.82864E+01-1.07720E+01-1.54881E+01
 -1      3599-7.85842E+03-7.26098E+00 2.53665E+01 2.55626E+03 2.00699E+01-4.41787E+02
 -1      3600 1.33478E+04 1.01079E+02-6.60451E+01 2.61483E+03 2.65195E+01-5.08093E+02
 -1      3601 1.40815E+04-8.90607E+01 4.88604E+01 2.60082E+03-4.95754E+01-4.77159E+02
 -1      3602-4.33215E+04 3.73323E+01 3.61790E+01 1.24150E+03 2.13825E+01-3.92159E+02
 -1      3603-1.45085E+03 4.13477E+00 8.06040E+00 4.18122E+02 7.89102E+00-1.35696E+02
 -1      3604-8.54521E+03 1.87829E+01-1.26906E+01 2.58806E+03-4.63415E+01-3.96677E+02
 -1      3605-1.32656E+04-4.41691E+01 3.69514E+00 1.00153E+03 2.10137E+01-4.08178E+02
 -1      3606-6.87713E+03 1.35039E+01-2.59814E+01 1.84320E+03 8.30329E+00-3.42196E+02
 -1      3607-1.34498E+04 1.63389E+01-1.14218E+01 9.92704E+02-1.19405E+01-3.50101E+02
 -1      3608-1.25396E+04 4.51942E+01-1.11377E+01 9.72607E+02-2.72967E+01-3.82394E+02
 -1      3609-6.28621E+03 5.71135E+00 1.67944E+01 1.75896E+03-2.50617E+01-3.45213E+02
 -1      3610-5.93949E+03 2.41340E+01 8.27144E+00 1.83965E+03 5.97921E+00-3.43305E+02
 -1      3611-2.65900E+02-9.75728E-01 1.17972E+01 8.22491E+02 1.46311E+01-1.44497E+02
 -1      3612 5.12109E+02 7.49717E+00-1.85362E+01 8.29196E+02 7.15064E+00-1.58758E+02
 -1      3613 7.50282E+02-5.96186E+01 6.13818E+00 9.33800E+02-8.23731E+00-1.76792E+02
 -1      3614-1.62140E+02-4.16073E+00 3.69975E+00 8.08349E+02-3.53866E+00-1.55228E+02
 -1      3615-3.31938E+02 2.55742E+01-8.03539E+00 9.20997E+02-4.45058E-01-1.78532E+02
 -1      3616-5.56162E+03 6.32681E+01-4.35606E+00 2.55219E+03 1.30410E+01-4.94388E+02
 -1      3617 1.30000E+03 7.01983E+00 1.78809E+01 1.51253E+03-1.59027E+00-2.82182E+02
 -1      3618 2.05836E+03-1.46358E+01 1.67816E+01 1.62782E+03 1.78203E+00-3.07268E+02
 -1      3619-1.30990E+04-4.12298E+00 8.50645E+00 1.03596E+03 1.95773E+00-2.64003E+02
 -1      3620-1.22083E+04-5.38888E+00 1.21596E+01 9.78359E+02 1.56820E+01-2.41528E+02
 -1      3621-6.68346E+03-1.84407E+01 3.50378E+01 1.89054E+03-1.22979E+01-2.42789E+02
 -1      3622-1.20095E+04-3.06906E+01 1.49741E+01 1.00542E+03 2.59846E-01-4.08184E+02
 -1      3623-1.28803E+04-3.85617E+01 1.00622E+01 1.07038E+03 5.94405E+00-4.14674E+02
 -1      3624 6.59298E+03-3.83307E+01-3.52767E+01 2.30055E+03 2.55736E+01-3.57890E+02
 -1      3625 8.67711E+03-2.17380E+00-2.06318E+01 2.34372E+03 1.67631E+01-3.22143E+02
 -1      3626-6.40821E+04-3.10233E+03-1.36943E+04 2.44029E+03-5.28771E+02-2.06479E+03
 -1      3627-4.30644E+04-7.79143E+03-9.25333E+03 4.21914E+03-6.12734E+02-1.93034E+03
 -1      3628-3.92376E+04 2.76016E+01-4.47664E+01 1.32411E+03 1.39360E+01-3.31794E+02
 -1      3629-4.00883E+04 1.80999E+00-2.44172E+01 1.27916E+03-6.61312E-01-3.31904E+02
 -1      3630-3.82883E+04 6.47748E+01 5.26158E+00 1.35063E+03-1.34829E+01-5.36254E+02
 -1      3631-1.97641E+04 3.76863E+01-2.01195E+00 2.44818E+03 1.61766E+01-2.80214E+02
 -1      3632-1.90842E+04 3.62419E+01-3.54177E+01 2.49301E+03 3.56040E+01-2.94207E+02
 -1      3633-4.95841E+02 3.38554E+01 2.93916E+00 9.24542E+02-1.63712E+01-1.45999E+02
 -1      3634-5.02053E+03-1.15113E+02 2.13538E+01 2.57211E+03 1.28879E+01-4.87536E+02
 -1      3635 2.14231E+03 2.26237E+01 1.49367E+01 1.49861E+03-4.16283E+00-2.45259E+02
 -1      3636 1.49149E+01-3.93508E+01-2.16048E+01-6.38542E-01-5.32206E+00-1.55914E+01
 -1      3637 4.64675E+01-5.25887E+01-1.59790E+01 8.08795E+01-7.83507E+00-1.78160E+01
 -1      3638 5.53653E+03-2.48962E+01 6.17279E+00 2.30366E+03-1.24116E+01-4.73135E+02
 -1      3639-7.36043E+03 2.10514E+01-5.34907E+01 1.92091E+03 2.37585E+01-3.61941E+02
 -1      3640-5.58963E+03 8.34091E+01-6.54897E+00 2.36395E+03-1.67435E+01-4.22528E+02
 -1      3641-4.12775E+04-4.90355E+01 1.59957E+01 1.31462E+03-8.35656E+00-3.49315E+02
 -1      3642-3.93496E+04 4.35003E+01 1.60176E+01 1.33499E+03 2.72392E+01-5.37447E+02
 -1      3643-2.05464E+04-1.95933E+01 4.16230E+01 2.49292E+03-2.22093E+01-3.04088E+02
 -1      3644-4.03674E+04-4.17870E+01 2.99669E+01 1.36449E+03 2.23564E+01-5.56320E+02
 -1      3645 3.96383E+03 4.62474E+01-4.46588E+01 1.93872E+03 3.99003E+01-3.50010E+02
 -1      3646-2.66828E+03 3.95918E+01-2.51605E+01 1.98926E+03-3.49618E+01-3.36415E+02
 -1      3647 4.48481E+03-1.00580E+02 3.93672E+01 2.00244E+03-2.39138E+01-3.83267E+02
 -1      3648-6.57455E+04 1.17754E+02-3.03659E+02 8.86689E+02-1.66727E+02-1.42308E+02
 -1      3649-3.97138E+04 1.45070E+02-4.10626E+01 2.28194E+03-2.33684E+02 2.31943E+01
 -1      3650 1.99412E+04 2.40181E+03 3.57237E+03 2.66945E+03-1.96589E+02 9.94941E+00
 -1      3651 1.31181E+03-2.26098E+01-4.64473E+00 3.11981E+02-8.28622E+00-3.50008E+01
 -1      3652 5.97326E+02-5.92235E+01-1.85680E+01 5.60303E+02-1.83515E+00-3.30468E+01
 -1      3653 1.01044E+03-3.07580E+01-4.25830E-01 6.29431E+02-1.40087E+01-4.69440E+01
 -1      3654-1.16483E+04 3.47537E+01-2.36784E+01 9.68371E+02 5.49232E+00-2.46935E+02
 -1      3655-6.27169E+03 1.42694E+01-9.16574E+00 1.84586E+03-8.50442E+00-2.13302E+02
 -1      3656-1.13087E+04 4.69909E+01-9.07575E+00 9.70138E+02-9.18621E+00-3.95270E+02
 -1      3657-5.71365E+03 4.58688E+01-1.91361E+01 1.81866E+03 2.08491E+01-2.13531E+02
 -1      3658 7.15731E+02-2.33859E+01-5.01115E+00 2.27170E+02-7.04385E+00-2.31863E+01
 -1      3659 4.45674E+02-3.54442E+01-1.32239E+01 1.97616E+02 3.58388E-01-1.92030E+01
 -1      3660 5.62213E+02-1.96022E+01-5.61344E+00 2.94306E+02-2.20372E+00-6.10723E+01
 -1      3661 4.35445E+02-3.69138E+01-4.87175E+00 4.71331E+02-1.02638E+01-3.57269E+01
 -1      3662-2.53856E+04-8.09712E+01-1.60400E+02 2.72976E+03-1.10223E+01-4.75757E+02
 -1      3663 1.72102E+04 1.09217E+03 3.01578E+03 1.56092E+03-6.22664E+02 6.68338E+02
 -1      3664 1.56184E+04-6.51548E+02 9.10216E+02 1.64179E+03-1.17748E+03 2.13366E+01
 -1      3665-1.40266E+04 2.14626E+01 7.29288E+01 1.07496E+03-7.62195E+00-3.62706E+02
 -1      3666 5.33822E+03 4.25590E+01 2.58160E+01 2.84061E+03 1.77733E+02-4.36864E+02
 -1      3667 1.89231E+02-1.27164E+01 2.66368E-01 4.78569E+02-7.84714E+00-3.98415E+01
 -1      3668 3.48457E+01 7.49627E+00-3.76308E+00 4.33451E+02-4.77617E+00-6.23913E+01
 -1      3669-6.42972E+04 9.85352E+01-6.83587E+01 1.00594E+03-6.77399E+01 4.53346E+01
 -1      3670-5.54695E+04 1.85729E+01 2.63764E+00 1.38470E+03-1.25038E+02-1.28339E+02
 -1      3671 6.50785E+04-1.71210E+02 9.47773E+01 7.58491E+02 1.40625E+02 9.78477E+01
 -1      3672 5.52768E+04-8.25406E+00 5.22042E+01 1.41897E+03 1.42923E+02-1.34125E+02
 -1      3673-2.31725E+03-1.38174E+01-1.02770E+01 1.90003E+03 5.39142E+00-3.18290E+02
 -1      3674 1.03213E+04 2.49024E+01 1.25586E+01 1.75884E+03 1.61441E+01-1.28835E+02
 -1      3675 5.92015E+03 8.44201E+00 3.13739E+01 2.07751E+03-1.74005E+01-1.55534E+02
 -1      3676 7.39819E+03-5.21923E+01-6.10794E+01 2.13385E+03 1.24494E+01-1.52167E+02
 -1      3677 6.47371E+04-3.88938E+01 1.14846E+02 1.06459E+03 5.88279E+01 6.12733E+00
 -1      3678 3.97986E+04-1.01486E+02-3.08127E+00 2.30508E+03 2.21116E+02 4.24759E+00
 -1      3679-3.08220E+03 1.97198E+01 7.60125E+00 4.86282E+02 5.32588E+00-5.07938E+01
 -1      3680-2.55746E+03 1.88579E+01-8.39889E+00 4.44042E+02 7.99647E+00-4.70467E+01
 -1      3681-1.74695E+03 3.24177E+01 1.34346E+01 4.21395E+02 5.05953E+00-1.11239E+02
 -1      3682-1.60410E+03 5.26264E+01 7.74079E+00 8.19188E+02 4.07197E-01-5.80040E+01
 -1      3683-2.22355E+03 4.67220E+01 1.71268E+01 4.54686E+02-9.04879E+00-1.16952E+02
 -1      3684-2.12717E+03 2.62529E+01 9.74581E+00 4.03073E+02 5.52442E+00-3.55734E+01
 -1      3685-1.27129E+03 4.78948E+01 7.56543E+00 7.54259E+02 6.56287E+00-5.85390E+01
 -1      3686-1.85574E+03 2.60108E+01 1.88216E+01 9.07460E+02 1.63798E+01-6.79903E+01
 -1      3687-2.54252E+03 1.91857E+01 3.46826E+01 5.18394E+02 1.36340E+01-1.27939E+02
 -1      3688 1.12251E+04-2.23452E+01-2.32414E+01 1.23084E+03 6.25853E+00-3.71067E+02
 -1      3689 1.38217E+04-5.24178E+01 1.39668E+01 9.54363E+02-2.67133E+01-3.45076E+02
 -1      3690 1.67274E+03-3.23754E+01-3.33566E+00 5.49225E+02-4.13088E+00-1.68145E+02
 -1      3691 2.49890E+03-5.91948E+00-2.00746E+01 4.77749E+02 5.41694E+00-1.63596E+02
 -1      3692 4.50096E+02-1.60285E+01-9.33410E+00 9.56278E+02-8.84520E+00-1.06814E+02
 -1      3693 1.14654E+03-3.12310E+01-2.40336E+01 1.01429E+03-2.96497E+00-7.56670E+01
 -1      3694 9.93299E+03-2.40226E+01-1.88797E+01 2.81867E+03 1.10582E+00-3.12751E+02
 -1      3695 2.12675E+04-4.45416E+01-5.47463E+01 2.79303E+03 3.35481E+01-1.99896E+02
 -1      3696 3.69750E+04-6.92578E+00 6.12844E+00 1.63147E+03-1.21644E+00-4.92613E+02
 -1      3697 4.86930E+04 5.42044E+01-4.47123E+01 1.30206E+03 4.60173E+01-4.46986E+02
 -1      3698 1.41946E+02-2.71244E+01-9.52178E-01 1.09196E+02-1.13262E+00-4.24977E+01
 -1      3699 1.12184E+02-3.60584E+01 7.30975E+00 2.26651E+02 6.27120E+00-2.28369E+01
 -1      3700 1.68822E+02-3.01571E+01 5.90920E-01 1.39572E+02 3.99749E+00-3.22950E+01
 -1      3701 2.75442E+02-2.02822E+01 5.58183E+00 2.16991E+02 7.69683E+00-7.03946E+01
 -1      3702 1.92788E+02-3.70104E+01 4.86762E+00 3.56005E+02 6.16990E+00-4.28911E+01
 -1      3703-5.89677E+04-1.05667E+01-1.27637E+01 1.28947E+03 3.71043E+00-1.06111E+02
 -1      3704-3.43591E+04 1.78110E+01 5.64175E+00 2.45119E+03-1.37525E+01-1.88797E+02
 -1      3705-4.81182E+04 3.63524E+01 1.83907E+01 1.40534E+03-4.27842E+01-3.38014E+02
 -1      3706-4.91751E+04 2.85523E+00 5.71907E+01 1.39582E+03 4.11900E-01-3.29368E+02
 -1      3707-3.52049E+04-5.30759E+00 3.13406E+01 2.44742E+03 1.02804E+01-1.79761E+02
 -1      3708-5.73976E+04-6.64114E+00-5.51948E+01 1.26397E+03-7.21259E-01-1.05055E+02
 -1      3709-4.66315E+04-7.17217E+00 8.63611E+00 1.40232E+03-8.94702E-01-3.52784E+02
 -1      3710-5.60270E+04-5.91089E+00-1.85320E+01 1.28970E+03 2.83225E+00-1.13571E+02
 -1      3711-3.33187E+04-2.20649E+01-1.84635E+00 2.47144E+03 1.81855E+01-2.02539E+02
 -1      3712-3.63590E+04 2.24222E+01-1.94351E+01 1.36441E+03-1.08252E+01-3.22915E+02
 -1      3713-1.59707E+04 1.96295E+01 2.75406E+01 2.48863E+03 6.10151E+00-3.29060E+02
 -1      3714-3.50267E+04 1.66038E+01 2.26551E+01 1.35874E+03 2.70336E+00-3.40863E+02
 -1      3715-3.31706E+04 5.79052E-01-7.23765E+00 1.43909E+03 3.43542E-01-5.16666E+02
 -1      3716 4.96656E+03-3.33858E+01-3.25606E+01 5.65917E+02-2.76417E+00-6.59659E+01
 -1      3717 4.55404E+03-2.05710E+01-1.63229E+01 6.79204E+02-9.04467E+00-1.75732E+02
 -1      3718 5.58091E+03-2.09593E+01-1.08502E+01 6.39023E+02-1.85320E+00-5.98177E+01
 -1      3719 3.26317E+03-2.93059E+01-7.77252E+00 1.19232E+03-1.01615E+01-8.99618E+01
 -1      3720-4.94965E+03 2.57490E+01 3.84612E+01 5.78965E+02 1.10563E+01-5.95743E+01
 -1      3721-4.57673E+03 2.36520E+01 6.66297E-01 6.85944E+02 6.43503E+00-1.74897E+02
 -1      3722 6.24768E+03-1.05112E+01 1.83952E+01 6.56243E+02 2.33238E-01-7.58231E+01
 -1      3723-5.53660E+03 2.62034E+01 1.84615E+01 6.42791E+02 2.47735E+00-6.63161E+01
 -1      3724-3.21642E+03 4.49519E+01 1.67507E+01 1.19440E+03 8.71800E-01-8.43498E+01
 -1      3725-6.38862E+03 2.42293E+01-4.53018E+00 6.65851E+02 5.49501E+00-6.97702E+01
 -1      3726-9.41248E+03 3.68070E+01-9.09464E+00 8.96743E+02-1.61741E+01-2.22142E+02
 -1      3727-3.90420E+03 1.61713E+01 5.49654E+00 1.68771E+03-3.01765E+00-2.02166E+02
 -1      3728-8.54559E+03 2.85417E+01 1.01457E+01 8.90103E+02 2.59976E+00-2.16335E+02
 -1      3729-8.00172E+03 4.62598E+01 3.25399E+01 9.70549E+02-9.86892E-01-3.38050E+02
 -1      3730 9.18235E+03-5.16792E+00 4.18773E+01 9.00959E+02-5.01446E+00-2.25016E+02
 -1      3731 8.02836E+03-1.67358E+01-4.60984E+01 9.64081E+02 1.34970E+01-3.45228E+02
 -1      3732 8.60993E+03-2.15756E+01-3.15571E+00 9.01691E+02-1.92188E+00-2.20145E+02
 -1      3733 3.96980E+03 1.10850E+01 6.82421E+00 1.67789E+03 2.19081E+01-2.09881E+02
 -1      3734-3.43003E+04 1.88393E+01 6.01399E+01 1.30591E+03-9.79759E+00-3.37658E+02
 -1      3735-2.72679E+04 2.64042E+01-5.33222E+00 1.28799E+03 1.14360E-01-3.34459E+02
 -1      3736-2.60867E+04-1.27367E+01 9.38864E+00 1.28295E+03 1.53705E+01-3.03880E+02
 -1      3737-1.25629E+04 2.29176E+01-3.26077E+01 2.39863E+03 4.75992E+00-2.97001E+02
 -1      3738-2.59664E+04-1.98263E+01-7.01858E+01 1.39970E+03 1.22958E+01-4.95000E+02
 -1      3739-1.55878E+04 1.81542E+01 5.68010E+01 1.08281E+03-1.06590E+01-2.69625E+02
 -1      3740-1.53732E+04 1.36873E+01-7.31936E+00 1.20719E+03-3.75003E-01-4.27320E+02
 -1      3741-1.62832E+04 1.24884E+01-2.07432E-01 1.15374E+03 1.24360E+00-2.92924E+02
 -1      3742-7.45731E+03 2.58996E+01 6.02559E+00 2.10705E+03-4.59297E+00-2.79871E+02
 -1      3743 1.55925E+04-2.48630E+01-5.04699E+01 1.07994E+03 1.14675E+01-2.81010E+02
 -1      3744 1.53429E+04-1.32938E+01 8.86972E+00 1.21593E+03 5.72910E-01-4.35319E+02
 -1      3745 4.58166E+04 3.03418E+01 6.57117E+01 1.23075E+03 1.84170E+00-1.30627E+02
 -1      3746 3.63539E+04-1.92542E+01-6.53770E+01 1.39762E+03-1.50272E+01-3.60821E+02
 -1      3747 4.44059E+04-1.45906E-02-1.33146E+01 1.29715E+03-1.49303E+00-1.29710E+02
 -1      3748 2.58350E+04 1.49042E+01-4.54072E+00 2.43912E+03-1.81432E+01-1.91125E+02
 -1      3749 1.61815E+04-2.32890E+01-1.95572E+01 1.14986E+03-2.24797E+00-2.84303E+02
 -1      3750 7.36780E+03-3.88048E+01-2.11213E+01 2.10178E+03-5.03080E+00-2.77307E+02
 -1      3751 3.44038E+04-1.87636E+01-6.00695E+01 1.29871E+03 1.08013E+01-3.38277E+02
 -1      3752 3.31685E+04 3.00899E+00 1.07635E+01 1.44383E+03 1.17082E+00-5.23078E+02
 -1      3753 3.51185E+04-1.70071E+01-2.12073E+01 1.35293E+03-2.80185E+00-3.39587E+02
 -1      3754 1.60419E+04-2.69272E+01-2.24336E+01 2.48704E+03-4.82503E+00-3.25182E+02
 -1      3755 3.64385E+04-2.27989E+01 2.17146E+01 1.35883E+03 5.18672E+00-3.21822E+02
 -1      3756 1.73183E+04-3.08833E+01 1.69095E+01 1.16125E+03 8.25529E+00-2.76315E+02
 -1      3757-1.69817E+04-2.37710E+00-5.82748E+01 1.11777E+03 5.93437E+00-2.65576E+02
 -1      3758 2.64347E+04-3.63604E+01-7.01530E+01 1.22409E+03 7.49441E+00-3.28821E+02
 -1      3759 2.58656E+04 5.46323E-01 5.85624E+01 1.39472E+03-1.15612E+01-4.90257E+02
 -1      3760-4.46498E+04-3.55069E-01 2.80915E+01 1.26386E+03-9.01661E-01-1.34949E+02
 -1      3761-4.63838E+04-8.72730E+00-2.51659E+01 1.27370E+03 1.08568E+01-1.17135E+02
 -1      3762-2.60089E+04 1.06402E+01 2.80565E+01 2.42038E+03 9.08811E+00-1.85840E+02
 -1      3763-3.62843E+04 2.78211E+01 6.61547E+01 1.41009E+03 1.83493E+01-3.55603E+02
 -1      3764 3.47611E+04 1.66324E+01 4.70074E+01 1.18076E+03 2.04722E+00-1.23547E+02
 -1      3765 3.36994E+04-2.57078E+01-1.59582E+01 1.20030E+03 7.64689E+00-1.21380E+02
 -1      3766 2.74125E+04-3.86053E+01-7.42153E+01 1.32182E+03-1.22426E+01-3.31666E+02
 -1      3767 1.96762E+04 8.03534E+00-1.37868E+00 2.29175E+03-1.43014E+01-1.77117E+02
 -1      3768 2.72954E+04-3.27987E+01-8.72590E+00 1.28754E+03-2.99831E+00-3.31726E+02
 -1      3769 1.25383E+04-4.72419E+01 8.57219E+00 2.40356E+03-1.27639E+01-2.96718E+02
 -1      3770-3.21724E+04 1.07390E+01 1.03397E+01 1.20337E+03-2.16987E+01-1.18796E+02
 -1      3771-1.97336E+04-2.49179E+01-2.79915E+01 2.26551E+03 1.31562E+01-1.69019E+02
 -1      3772-3.49264E+04-1.45750E+01-4.73735E+01 1.18566E+03-4.86497E+00-1.24792E+02
 -1      3773-2.75380E+04-2.10108E+00 2.31961E+01 1.30396E+03 3.77941E+00-3.30740E+02
 -1      3774-1.86156E+03 8.81929E+01-4.71077E+00 1.98094E+03-9.38665E+00-3.79640E+02
 -1      3775-1.49935E+03-6.05828E+01 3.44951E+00 1.89891E+03 9.46049E-01-3.57181E+02
 -1      3776-3.37122E+04 3.19343E-01-1.19324E+01 1.20804E+03 5.31214E+00-1.17236E+02
 -1      3777 5.30010E+03-5.10938E+01 1.49574E+01 1.40749E+03 2.22942E+01-1.11341E+02
 -1      3778 7.44960E+03-4.26851E+01-4.78044E+00 7.56636E+02 3.65737E-01-1.92576E+02
 -1      3779 8.70082E+03-3.99782E+01-4.65608E+00 7.49540E+02 1.61176E+00-7.09942E+01
 -1      3780 6.39336E+03-2.43198E+01 7.15909E-01 1.43922E+03-1.11247E+01-1.07725E+02
 -1      3781 8.60612E+03 3.13935E+00-5.56629E+00 7.70100E+02-1.89590E+01-1.88578E+02
 -1      3782-2.96333E+04-1.33468E+01-6.40861E+01 1.12126E+03-5.61442E-01-1.06801E+02
 -1      3783-2.30085E+04 3.80347E+01 4.91739E+01 1.25349E+03 1.12784E+01-3.31693E+02
 -1      3784-1.01659E+03 3.75824E+01 7.75898E+00 2.60068E+02 8.10046E+00-2.63782E+01
 -1      3785-2.83329E+04 1.20120E+00 6.55798E+00 1.14869E+03 2.42380E+00-1.16860E+02
 -1      3786-1.65336E+04 1.03479E+01 1.73321E+01 2.19413E+03 1.91375E+01-1.79587E+02
 -1      3787-4.63238E+04 2.11097E+02-3.51394E+02 9.92281E+02 1.02059E+02-1.38624E+02
 -1      3788-2.12354E+04 1.95406E+02-1.16297E+01 2.42171E+03 2.07823E+02-5.79239E+02
 -1      3789 2.45788E+04-7.89467E+02 5.79445E+02 2.11967E+03-7.11424E+02-4.39269E+02
 -1      3790 4.94143E+04-3.46360E+01 1.94265E+03 1.71537E+03-3.00588E+02 1.71729E+02
 -1      3791 4.67407E+04-3.98108E+02 5.50432E+02 4.32353E+02-2.32225E+02-1.98910E+02
 -1      3792 2.08955E+04-1.79798E+02 1.17256E+02 2.05080E+03-2.82828E+02-5.60790E+02
 -1      3793 4.46354E+04-2.73248E+01 6.39673E+02 1.51674E+03-1.89681E+02-3.16401E+02
 -1      3794-1.18642E+04-2.95060E+01 4.97310E+01 2.29336E+03-4.74349E+01-2.58540E+02
 -1      3795-2.29472E+04-3.72463E+01 2.50847E+01 1.24515E+03 8.32570E+00-4.88035E+02
 -1      3796-2.34668E+04-3.79850E+01 1.07164E+01 1.21787E+03-1.07465E+01-3.05049E+02
 -1      3797-1.20371E+04 3.35703E+01 2.15150E-02 2.19403E+03 5.11120E+00-2.46765E+02
 -1      3798-2.29951E+04 3.39553E+01 1.12208E+00 1.14471E+03 1.29777E+01-4.70674E+02
 -1      3799 1.18787E+04 3.12446E+01-4.30259E+01 2.28736E+03 4.28357E+01-2.60447E+02
 -1      3800 2.29596E+04 3.95847E+01-2.59080E+01 1.24289E+03-8.00227E+00-4.90802E+02
 -1      3801 2.35102E+04 3.63272E+01-1.02086E+01 1.20849E+03 3.53068E+00-3.10006E+02
 -1      3802 1.20540E+04-5.13035E+01-1.43752E-01 2.18981E+03-4.74310E+00-2.42576E+02
 -1      3803 2.30136E+04-2.86701E+01 2.54243E-01 1.15545E+03-1.09359E+01-4.77904E+02
 -1      3804 9.74328E+02-2.05941E+01 1.26754E+00 2.91167E+02-4.41506E+00-2.96857E+01
 -1      3805 2.79043E+03-3.63702E+01-1.05222E+01 1.47125E+03 5.83052E+00-1.76005E+02
 -1      3806 5.70441E+03-1.26460E+01 9.43629E+00 8.50991E+02-1.65380E+00-2.94859E+02
 -1      3807 6.01192E+03-1.71067E+01-4.86922E+00 7.74616E+02 3.59861E+00-1.87408E+02
 -1      3808 2.91966E+03-1.67592E+01 2.46660E+00 1.30699E+03-2.44313E+00-1.53690E+02
 -1      3809 5.59222E+03-4.57868E+01-1.19697E+01 6.71792E+02 7.13105E-01-2.94082E+02
 -1      3810 2.58461E+03-2.92141E+01 2.80994E+01 1.35627E+03 1.61819E+01-2.64936E+02
 -1      3811-2.79642E+03 2.79292E+01 6.74239E+00 1.47242E+03-1.09425E+01-1.73322E+02
 -1      3812-5.71453E+03 4.96932E+00-8.63102E+00 8.57358E+02-2.27786E+00-2.92689E+02
 -1      3813-6.01383E+03 1.85072E+01 5.74451E+00 7.75751E+02-4.88806E+00-1.87905E+02
 -1      3814-2.92030E+03 1.66339E+01-3.29546E+00 1.30667E+03 2.36775E+00-1.54243E+02
 -1      3815-5.59084E+03 4.81407E+01 1.42214E+01 6.71338E+02-7.17158E-01-2.94246E+02
 -1      3816-2.57845E+03 2.99694E+01-2.56774E+01 1.35426E+03-1.66757E+01-2.65396E+02
 -1      3817 6.64136E+03 2.23030E+01-2.10805E+01 1.91608E+03 4.08644E+01-2.19727E+02
 -1      3818 1.24780E+04-5.58388E+01 5.13390E-01 9.92357E+02 2.24740E+01-3.71618E+02
 -1      3819 1.32429E+04 4.45622E+01 2.37551E-02 1.00800E+03-1.63324E+01-3.94519E+02
 -1      3820 1.19920E+04 2.83514E+01-1.55824E+01 1.02083E+03 5.68305E+00-4.09346E+02
 -1      3821 1.27779E+04 4.54205E+01 5.38742E+00 1.05021E+03-1.03008E+01-4.12509E+02
 -1      3822-4.49346E+04 1.28181E+02-5.12046E+01 1.11168E+03 5.28190E+01-4.87272E+02
 -1      3823-4.36781E+04 5.08540E+00-6.16651E+01 1.54942E+03 9.47680E+01-7.01893E+02
 -1      3824 3.86291E+04-3.49620E+01-4.03904E+01 1.20178E+03 2.25148E+00-3.07840E+02
 -1      3825 2.82919E+04 6.64689E+00-1.12958E+01 2.27397E+03 5.08298E+00-1.55554E+02
 -1      3826 2.06103E+04 5.47821E+01 7.21178E+01 2.35032E+03-7.08774E+00-3.65861E+02
 -1      3827-2.89735E+04-3.18594E+01-6.22114E+01 1.24655E+03-1.76235E+01-4.85147E+02
 -1      3828-1.52463E+04 2.91511E+01 1.45085E+01 2.29476E+03 1.75256E+00-2.53392E+02
 -1      3829-1.36529E+04 4.08693E+01 5.84554E+01 2.34379E+03-8.02491E+00-4.60742E+02
 -1      3830 1.73471E+03-4.85098E+01-4.00195E+00 3.96244E+02 8.16653E+00-1.63192E+02
 -1      3831 2.08203E+03-2.60426E+01-1.30217E+01 4.99199E+02-1.12569E+00-1.79199E+02
 -1      3832-9.63963E+01 4.57344E+00-2.77027E+00 8.87794E+02-9.38488E+00-7.41779E+01
 -1      3833-2.80197E+02 2.92424E+01-6.37972E+00 1.00216E+03-7.25361E-01-9.53116E+01
 -1      3834 1.91568E+04-5.53067E+01 3.55780E+01 2.48441E+03-4.72068E+01-2.98942E+02
 -1      3835 1.98862E+04 1.99693E+01-5.28148E+00 2.44269E+03 1.17733E+01-2.94548E+02
 -1      3836 4.17926E+04-6.33046E+01-2.78907E+00 1.30504E+03 2.44454E+01-4.94536E+02
 -1      3837 3.85311E+04-6.52896E+01 2.24356E+01 1.32235E+03 5.53308E+00-5.23787E+02
 -1      3838 4.28129E+04 7.77869E+01-8.33287E+00 1.32915E+03-2.89775E+01-5.28591E+02
 -1      3839 9.59165E+03-1.95772E+01-2.14478E+01 7.36130E+02 3.27640E+00-7.03326E+01
 -1      3840 1.03384E+04-6.51823E+00-2.34326E+01 7.96557E+02-9.62806E+00-7.31808E+01
 -1      3841 7.03890E+03-3.09601E+01-3.76367E+00 1.52394E+03-7.76829E+00-1.14939E+02
 -1      3842 9.49728E+03-1.86781E+01 3.31743E+00 7.86862E+02 7.47152E-01-2.04640E+02
 -1      3843-4.92909E+03 3.38525E+01-5.30868E+00 6.99168E+02 2.93701E+00-1.74391E+02
 -1      3844-5.59741E+03 2.46693E+01-1.52057E+01 7.17848E+02-1.93221E+01-1.82691E+02
 -1      3845-4.93078E+03 1.86639E+01 1.33755E+01 6.53021E+02-3.04415E-01-2.82495E+02
 -1      3846-2.56192E+03 3.38006E+01 3.30363E+00 1.28491E+03 6.86490E+00-1.35767E+02
 -1      3847 5.59811E+03-2.42818E+01 1.67429E+01 7.18294E+02 1.84311E+01-1.82592E+02
 -1      3848 2.56160E+03-3.43529E+01-3.37273E+00 1.28519E+03-6.53440E+00-1.36089E+02
 -1      3849 4.92905E+03-3.38503E+01 5.22994E+00 6.99243E+02-2.85223E+00-1.74282E+02
 -1      3850 4.93109E+03-1.84270E+01-1.34184E+01 6.53204E+02 5.63186E-01-2.82035E+02
 -1      3851-2.90923E+04-1.12011E+01 3.16728E+01 1.26523E+03-8.78353E+00-3.25535E+02
 -1      3852-2.83961E+04-9.78314E-01 3.10380E+01 1.22570E+03-4.34069E+00-3.25438E+02
 -1      3853-3.00191E+04-1.93325E+00-2.72664E+01 1.20608E+03 6.50929E+00-5.10642E+02
 -1      3854-1.57884E+04 1.52425E+01-4.53375E+00 2.37337E+03-1.11962E+01-2.55535E+02
 -1      3855 4.32339E+04 1.03806E+01 2.45274E+01 1.23867E+03-2.79582E+01-1.21179E+02
 -1      3856 4.17124E+04-2.33152E+01 4.52712E+00 1.22838E+03 1.11744E+01-1.21491E+02
 -1      3857 3.72060E+04-6.44039E+00-3.04043E+01 1.19417E+03-1.81848E+00-3.05514E+02
 -1      3858 2.72029E+04-2.80351E+01-7.14037E+00 2.31907E+03 1.14130E+01-1.71229E+02
 -1      3859-3.86069E+04 3.18043E+01 3.94483E+01 1.21831E+03 1.25712E+00-2.99238E+02
 -1      3860-2.85755E+04-1.69286E+01 9.15530E+00 2.24351E+03-5.16728E+00-1.63504E+02
 -1      3861-2.05555E+04-5.02520E+01-7.23810E+01 2.35384E+03 1.25754E+00-3.66487E+02
 -1      3862 2.89909E+04 3.96395E+01 6.74969E+01 1.23290E+03 2.18186E+01-4.69654E+02
 -1      3863 1.53636E+04-2.05474E+01-1.14958E+01 2.30287E+03 7.44819E-01-2.69831E+02
 -1      3864 1.36319E+04-4.81989E+01-6.17364E+01 2.34394E+03-2.52558E-01-4.63322E+02
 -1      3865-4.34911E+04-1.34210E+01-2.00410E+01 1.22893E+03 2.88805E+01-1.12066E+02
 -1      3866-2.74512E+04 2.66901E+01 6.05063E+00 2.30029E+03-1.26445E+01-1.71799E+02
 -1      3867 2.84773E+04 2.12818E+00-2.39090E+01 1.22731E+03 3.88965E+00-3.37510E+02
 -1      3868 3.00312E+04 3.61100E+00 2.76659E+01 1.20482E+03-8.01009E+00-5.07868E+02
 -1      3869-2.41618E+04 4.51281E+01 3.33463E+01 1.06696E+03-4.57215E+00-2.73951E+02
 -1      3870-1.78344E+04 6.84410E+00 1.69117E+01 2.02536E+03-1.12491E+01-1.31973E+02
 -1      3871-1.28355E+04-2.03493E+01-5.21930E+01 2.10974E+03 3.32171E+01-3.12199E+02
 -1      3872-2.57329E+04 2.25198E+01-5.94290E+00 1.09676E+03-9.80744E+00-1.09842E+02
 -1      3873-2.71149E+04-2.26016E+00-2.59431E+01 1.10917E+03 2.61677E+01-1.09837E+02
 -1      3874-1.67080E+04 2.58963E+01 1.55706E+01 2.06662E+03-1.30014E+01-1.47970E+02
 -1      3875-2.28648E+04 1.18360E+01 2.73240E+01 1.05493E+03-3.06275E+00-2.79385E+02
 -1      3876-4.19725E+04 2.30280E+01-1.33935E+00 1.20525E+03-1.12377E+01-1.20236E+02
 -1      3877-3.71867E+04 5.81088E+00 3.07603E+01 1.19607E+03 1.13021E+00-3.03392E+02
 -1      3878 2.31904E+04-4.41141E+00 1.03918E+01 1.29718E+03-3.13470E+00-3.34576E+02
 -1      3879 1.65479E+04-2.29919E+01-1.96330E+01 2.21932E+03-8.02438E+00-1.94442E+02
 -1      3880 2.83991E+04 1.20927E+01 1.25762E+01 1.13366E+03-1.00153E+01-1.11218E+02
 -1      3881 2.41643E+04-5.44797E+01-3.99009E+01 1.07133E+03 2.18415E+01-2.75280E+02
 -1      3882 1.77880E+04-2.56855E+01-7.01624E+00 2.03966E+03 1.15843E+01-1.37132E+02
 -1      3883 1.27961E+04 1.37801E+00 4.33114E+01 2.12551E+03-2.66778E+01-3.24053E+02
 -1      3884-2.24017E+04 1.44598E+01-2.28536E+01 1.16364E+03-6.36408E+00-3.02069E+02
 -1      3885-2.19413E+04 8.07557E+00 1.14961E+01 1.12330E+03-1.23844E+01-4.68688E+02
 -1      3886-3.44708E+03-6.50094E+01-3.78999E+01 2.78576E+03 9.99728E+00-2.42957E+02
 -1      3887-1.42224E+03 6.92581E+01 3.02230E+01 2.16312E+03-1.03810E+01-1.92780E+02
 -1      3888-1.05662E+03-4.18019E+01-1.81196E+01 2.08151E+03 2.26000E+00-1.80430E+02
 -1      3889-2.16956E+04 2.33395E+01-3.38730E+01 1.18366E+03 4.08026E+00-2.99640E+02
 -1      3890-1.14768E+04 1.19353E+01 3.93919E+00 2.21461E+03 4.41667E+00-2.35345E+02
 -1      3891 2.24526E+04-1.90567E+01 2.15033E+01 1.15594E+03 2.72053E+00-3.07937E+02
 -1      3892 2.19668E+04 4.00743E+00-1.45701E+01 1.13458E+03 1.68821E+01-4.75667E+02
 -1      3893 2.58780E+04-1.56124E+01 2.05176E+01 1.09255E+03 1.02455E+01-1.01795E+02
 -1      3894 2.70063E+04-7.34332E+00 2.77280E+01 1.07690E+03-6.19127E+00-9.49063E+01
 -1      3895 2.29018E+04-1.99438E+01-2.97373E+01 1.05396E+03 3.34297E+00-2.82567E+02
 -1      3896 1.68238E+04-1.04612E+01-1.40124E+01 2.07382E+03 1.02885E+01-1.49318E+02
 -1      3897 2.91489E+04 8.00877E+00-3.32006E+01 1.26032E+03 8.49935E+00-3.22153E+02
 -1      3898 1.58714E+04-1.53061E+01 5.54960E+00 2.37219E+03 1.02073E+01-2.55430E+02
 -1      3899-3.18333E+03 3.84187E+01 2.38916E+01 1.39227E+03 3.23652E+01-2.62726E+02
 -1      3900-5.72400E+03 1.19383E+01-1.12670E+00 8.18247E+02-1.19412E+00-2.88335E+02
 -1      3901-4.60606E+02 1.29783E+01-1.32292E+01 1.61315E+03-1.59819E+01-1.37578E+02
 -1      3902 5.71990E+03-1.61460E+01 3.19887E+00 8.19482E+02 4.31035E-01-2.88219E+02
 -1      3903-6.71919E+02 4.10948E+00 3.15587E+01 1.48144E+03 9.95787E+00-2.37912E+02
 -1      3904 4.59973E+02-8.56631E+00 1.76561E+01 1.61489E+03 1.33822E+01-1.36508E+02
 -1      3905-3.99484E+03 7.27398E+01 2.28830E+01 2.78878E+03 2.26902E+00-2.64446E+02
 -1      3906-1.76229E+04 3.34217E+01 8.14319E+00 9.57011E+02 7.74743E+00-1.11734E+02
 -1      3907-1.86317E+04 8.38389E+00 2.86084E+01 9.95315E+02-6.11895E+00-9.52693E+01
 -1      3908-1.11943E+04 1.58637E+01-6.55278E-01 1.92230E+03-8.77924E-01-1.49370E+02
 -1      3909-1.54059E+04 4.28852E+01 4.73930E+01 1.10432E+03 2.12666E+01-2.66097E+02
 -1      3910-1.04470E+04 2.77275E+01-1.12564E+01 1.85155E+03-8.20608E+00-1.46650E+02
 -1      3911 1.17556E+04-1.90427E+01-2.38089E+00 9.12489E+02 4.66098E+00-2.25904E+02
 -1      3912 1.29525E+04 1.18494E+01-1.66271E+01 8.95460E+02-4.35566E+00-2.31467E+02
 -1      3913-1.75451E+04-1.87362E+01-3.73087E+01 2.80281E+03 1.68511E+01-2.42646E+02
 -1      3914-2.66989E+04 1.62901E+01-1.16331E+00 2.39865E+03 2.15848E+01-3.70864E+02
 -1      3915 1.84887E+04 2.56288E+00-9.76714E+00 1.09456E+03-1.78974E+01-2.69628E+02
 -1      3916 1.86751E+04-6.11311E+01-1.17370E+01 9.04538E+02 6.20527E+00-2.47394E+02
 -1      3917-1.14914E+03 2.66588E+01-3.38418E+01 2.30210E+03-1.68691E+01-3.80185E+02
 -1      3918-8.45686E+03-1.91997E+01-4.09833E+01 2.50180E+03 1.48012E+01-2.16624E+02
 -1      3919 8.40783E+03-3.65204E+01-2.05699E+01 1.70548E+03 6.13402E+00-1.40184E+02
 -1      3920 9.57072E+03-8.79165E+00 4.51637E+00 1.71286E+03-1.52865E+01-1.19532E+02
 -1      3921 1.15625E+03-1.13793E+01 4.42675E+01 2.28011E+03 7.92945E+00-3.90194E+02
 -1      3922 8.47346E+03-2.37517E+00 2.68409E+01 2.50483E+03-1.88745E+01-2.34371E+02
 -1      3923 1.34828E+04-2.30163E+00 2.10439E+01 2.01773E+03-1.92891E+01-1.65876E+02
 -1      3924 1.37663E+04-4.79814E+01-1.18517E+01 1.85494E+03 9.89945E+00-1.12583E+02
 -1      3925 2.17179E+04-2.69159E+01 3.21267E+01 1.18377E+03-2.38129E+00-3.00581E+02
 -1      3926 1.14668E+04-1.90829E+01-8.54145E+00 2.21931E+03 4.38973E+00-2.22649E+02
 -1      3927-1.03460E+04 2.30193E+01 4.35571E+01 2.13740E+03-4.40400E+01-4.13039E+02
 -1      3928-2.11004E+04-7.29383E+00-7.66987E+00 1.23222E+03 1.31421E+01-4.23685E+02
 -1      3929-4.31254E+04-3.77246E+01 1.09864E+01 1.37423E+03 8.48016E+00-4.61890E+02
 -1      3930-5.16729E+03 2.55192E+00-3.42357E+01 2.05497E+03 7.68219E+00-1.94505E+02
 -1      3931-7.47883E+03 4.76144E+01 6.60426E+00 1.72713E+03 1.79155E+01-2.80339E+02
 -1      3932 1.03210E+04-1.50032E+01-4.25811E+01 2.14294E+03 3.84754E+01-3.96301E+02
 -1      3933 2.11521E+04-1.32541E+00 6.71195E+00 1.26341E+03-1.02924E+01-4.33134E+02
 -1      3934 4.54120E+04-2.68657E+02 2.22707E+02 7.78658E+02-1.15310E+02-4.52247E+02
 -1      3935 4.34294E+04 7.24078E+00 1.84359E+02 1.64460E+03-9.78807E+01-6.88080E+02
 -1      3936 3.40399E+02-2.61019E+01-9.57406E+00 1.72585E+02 5.09854E+00-5.19251E+01
 -1      3937 4.34349E+02-2.31003E+01-1.82209E+00 2.61001E+02 3.15161E+00-9.17361E+01
 -1      3938 4.55934E+04-1.89783E+01 1.40107E+02 1.21186E+03-2.79528E+01-4.10766E+02
 -1      3939 2.11611E+04-1.42555E+02 2.17299E+01 2.43983E+03-1.94798E+02-5.31908E+02
 -1      3940 5.34975E+04 1.21252E+01-3.28187E+01 1.36677E+03 1.10585E+02-1.86538E+02
 -1      3941 5.38631E+04-3.37579E+01-1.17786E+01 1.25249E+03 3.03764E+01-2.52487E+02
 -1      3942 4.66507E+02-2.65524E+01-6.67590E+00 2.47210E+02 3.60694E+00-5.74499E+01
 -1      3943 2.56264E+02-3.75604E+01-8.17046E-02 4.53307E+02 6.47100E+00-5.69636E+01
 -1      3944-3.58310E+04 1.01350E+01-1.86775E+01 1.18487E+03 1.92628E+01-4.27128E+02
 -1      3945-3.36011E+04-7.17316E+00 3.95711E+01 1.36016E+03-4.88586E+00-4.63480E+02
 -1      3946-1.73336E+04-6.05272E+00-1.42131E+01 2.28544E+03-1.61292E+01-4.32164E+02
 -1      3947-3.28721E+04 1.27867E+01-1.55174E+01 1.18974E+03 5.91860E+00-5.08506E+02
 -1      3948-1.97276E+04 1.30224E+01 7.64287E+00 2.21890E+03 3.18509E+01-4.39711E+02
 -1      3949 2.98707E+03-2.27088E+01 8.21288E-01 5.43756E+02 7.29369E-01-1.30410E+02
 -1      3950-2.98808E+03 2.24332E+01-1.98359E-01 5.45073E+02-5.93422E-01-1.31311E+02
 -1      3951-3.44080E+04-1.53683E+01 1.75307E+01 1.18143E+03 1.12894E+01-4.37747E+02
 -1      3952-1.67531E+04 9.05194E+00 2.43732E+01 2.25177E+03-4.51933E+00-4.36610E+02
 -1      3953-2.83783E+04 1.25970E+01-2.34325E+01 1.32971E+03-5.66834E+00-4.99836E+02
 -1      3954-3.14697E+04-2.97613E+00 1.32986E+01 1.18921E+03 1.97817E+01-5.27939E+02
 -1      3955 3.14786E+04 2.27371E+00-8.28983E+00 1.18813E+03-2.04613E+01-5.27492E+02
 -1      3956 2.83556E+04-1.98181E+01 6.17439E+00 1.33088E+03 6.04777E+00-4.96731E+02
 -1      3957 1.67523E+04-1.02118E+01-2.52068E+01 2.25108E+03 3.35468E+00-4.34614E+02
 -1      3958 3.44291E+04 1.54883E+01-2.01626E+01 1.17926E+03-9.80511E+00-4.38289E+02
 -1      3959 1.97551E+04-1.32549E+01-7.11209E+00 2.21709E+03-3.30101E+01-4.40151E+02
 -1      3960 1.33248E+04-3.64433E+01 1.56979E+01 2.75739E+03-6.20134E+00-2.40735E+02
 -1      3961 5.45003E+02-1.61729E+01 3.47427E+01 2.48907E+03 3.61611E+01-4.00865E+02
 -1      3962-3.91930E+03 2.52335E+01 2.41373E+01 2.71024E+03 3.38627E+00-2.22463E+02
 -1      3963 1.58180E+04-3.74343E-01-1.70703E+01 2.69078E+03-6.26734E+00-1.96738E+02
 -1      3964 3.17848E+03-4.55898E+01-3.08176E+01 2.50505E+03-7.15987E+00-3.89149E+02
 -1      3965-4.14272E+03 1.91530E+00-2.14931E+01 2.69395E+03 2.89102E+00-2.16436E+02
 -1      3966-1.43986E+03-3.36658E+01 1.14609E+01 2.71716E+03 6.56096E+00-2.31303E+02
 -1      3967 1.55419E+04 1.49393E+00 3.31019E+01 2.67329E+03-5.59448E+00-1.95223E+02
 -1      3968 5.78655E+03-2.24274E+01 3.47892E+01 2.45198E+03-3.57991E+01-3.96251E+02
 -1      3969 3.28790E+04-1.38675E+01 1.81437E+01 1.18918E+03-4.88835E+00-5.07853E+02
 -1      3970 1.73695E+04 6.09156E+00 1.48602E+01 2.28253E+03 1.57267E+01-4.34441E+02
 -1      3971 3.36341E+04 1.47626E+01-2.72308E+01 1.35725E+03 5.18208E+00-4.66803E+02
 -1      3972 3.58507E+04-1.09089E+01 1.51016E+01 1.18139E+03-1.94214E+01-4.27169E+02
 -1      3973 3.87635E+04-5.38947E-01-2.65702E+01 2.40352E+03 1.06638E+02-1.12034E+02
 -1      3974 3.91855E+04-3.66460E+01-7.80515E+00 2.33537E+03 5.37905E+01-1.31148E+02
 -1      3975 1.32606E+03 1.81791E+01-1.19860E+01 2.71974E+03-5.35554E+00-2.33111E+02
 -1      3976-5.78624E+03 2.31622E+01-3.36238E+01 2.45442E+03 3.46278E+01-3.96952E+02
 -1      3977-1.56173E+04-5.74963E+00-3.37401E+01 2.67309E+03 7.60662E+00-1.95991E+02
 -1      3978 4.05680E+03 6.95599E-01 2.14798E+01 2.69600E+03-3.60793E+00-2.17470E+02
 -1      3979-3.15156E+03 4.59091E+01 3.12893E+01 2.50518E+03 6.65110E+00-3.90617E+02
 -1      3980 1.59853E+04 3.15735E+01-1.65923E+00 9.39289E+02 3.34401E+01-3.51228E+02
 -1      3981 1.83125E+03-5.21445E+01-1.32727E+01 3.84538E+02-1.81628E+01-1.42191E+02
 -1      3982 7.64158E+02 2.45337E+00 3.10936E+00 8.70426E+02-9.24381E+00-6.42916E+01
 -1      3983 1.32429E+02-1.37028E+01-1.23441E+01 7.53796E+02-3.03253E-01-1.18869E+02
 -1      3984-1.59313E+04-2.83405E+00 1.79442E+01 2.68898E+03 5.49937E+00-1.97974E+02
 -1      3985-1.34294E+04 4.45674E+01-1.78620E+01 2.75937E+03 6.60899E+00-2.43039E+02
 -1      3986 3.79457E+03-2.36436E+01-2.43618E+01 2.71203E+03-2.88807E+00-2.23189E+02
 -1      3987-5.10492E+02 1.32435E+01-3.59107E+01 2.48892E+03-3.74990E+01-4.00869E+02
 -1      3988 7.47797E+02-3.48032E+01 1.53289E+00 2.73730E+02 4.58018E+00-7.37128E+01
 -1      3989 4.42122E+04 4.73762E+00 2.95036E+01 1.21790E+03-4.53586E+01-4.49870E+02
 -1      3990-1.74069E+03 2.93129E+01 2.78072E+01 3.36769E+02 7.47779E+00-3.98857E+01
 -1      3991 4.67315E+04-5.41348E+01-3.71285E+00 1.28825E+03-4.27873E+01-4.56024E+02
 -1      3992-5.43901E+04-2.74822E+00 9.99919E+00 1.28635E+03-2.23160E+01-1.26140E+02
 -1      3993-4.51623E+04-1.65563E+01 1.17529E+01 1.35417E+03 1.07047E+01-3.32761E+02
 -1      3994-5.34854E+04 4.92489E-01-2.23818E+01 1.25386E+03-4.85523E+00-1.33676E+02
 -1      3995-3.25503E+04 1.04895E+01-8.83929E+00 2.42466E+03 2.14468E+01-2.02936E+02
 -1      3996-3.74296E+03 3.28021E+01 1.31339E+01 5.07921E+02 1.10675E+01-5.28876E+01
 -1      3997-1.23115E+04 4.74211E+00 2.05736E+01 9.98621E+02 1.28422E+01-3.38919E+02
 -1      3998-2.51526E+02 4.65811E+01 6.71947E+00 3.85942E+02-9.06064E+00-8.05162E+01
 -1      3999 2.01547E+04 9.30534E+01 4.57123E+01 2.77742E+03-7.47682E+00-2.03784E+02
 -1      4000-1.43771E+04 1.44595E+01-8.47857E+00 9.01533E+02 1.15824E+00-9.27581E+01
 -1      4001-1.25966E+04 1.79089E+01 1.47221E+01 9.76896E+02 5.47581E+00-2.50748E+02
 -1      4002-9.08532E+03 3.97038E+01-3.64284E+00 1.74878E+03 1.16836E+01-1.60067E+02
 -1      4003-9.34535E+03 2.87286E+01 6.91556E+00 1.68971E+03-1.37177E+01-1.12058E+02
 -1      4004-1.27880E+04 4.35185E+00-3.66383E+00 8.51401E+02-3.86196E+00-2.36201E+02
 -1      4005-6.03675E+04-8.44291E+00-4.92604E+01 1.21325E+03-2.12875E+01-7.46653E+01
 -1      4006-1.18633E+04 8.84276E+01 7.60493E+01 2.56909E+03 7.10727E-01-3.85093E+02
 -1      4007 3.90828E+03-1.27003E+03-1.35521E+03 2.19466E+03 3.21904E+01-5.34503E+02
 -1      4008-4.02636E+03 1.64187E+01 3.46803E+00 1.75695E+03 1.03730E+01-1.31646E+02
 -1      4009-5.70212E+03 1.49712E+01 1.16362E+00 1.52619E+03 1.59231E+00-2.45670E+02
 -1      4010-4.01397E+03 1.33813E+01-1.30564E+01 1.81117E+03 6.34508E+00-1.57398E+02
 -1      4011 9.34770E+02-1.33259E+01-9.37934E+00 1.78237E+03-1.51901E-02-1.37032E+02
 -1      4012-7.01339E+02-1.92760E+00-1.91381E+01 1.63462E+03-1.60993E+01-2.56068E+02
 -1      4013-7.59862E+02 2.79671E+01 2.58476E+01 1.59553E+03 1.47583E+01-2.43010E+02
 -1      4014-1.48909E+02 1.50556E+01-6.04341E+00 9.76878E+01-2.70627E+00-4.74358E+01
 -1      4015-2.05688E+02 2.19691E+01-4.46197E+00 1.89127E+02-1.36096E+00-5.95392E+01
 -1      4016-1.13620E+03 4.12711E+01 2.65211E+01 1.45696E+03-7.42170E+00-2.94630E+02
 -1      4017 1.13667E+03-3.60708E+01-2.32794E+01 1.46228E+03 7.94509E+00-2.91178E+02
 -1      4018-3.44594E+03 5.47895E+01 6.32466E+01 1.84458E+03 4.44021E+00-2.81586E+02
 -1      4019 5.49060E+03-6.41314E+01-6.02749E+01 2.28009E+03-1.53564E+01-3.38896E+02
 -1      4020-5.50555E+03 5.90086E+01 5.33045E+01 2.29690E+03 1.23060E+01-3.46650E+02
 -1      4021-1.52728E+04 7.03065E+00 2.20159E+01 9.17517E+02-8.55628E+00-8.83208E+01
 -1      4022-9.92944E+03 7.71087E+00-6.14651E+00 1.79238E+03-2.34061E+00-1.58447E+02
 -1      4023-4.76103E+04-1.40365E+01-1.60284E+01 1.20437E+03-1.43567E+01-3.24794E+02
 -1      4024-3.51110E+04 2.21005E-01 4.53995E+00 2.38415E+03-2.70792E+01-1.54297E+02
 -1      4025-9.27365E+03 1.96700E+01 3.83112E+01 8.84939E+02-1.66182E+00-3.08508E+02
 -1      4026-9.20048E+03 6.74213E+00-6.22913E+00 7.68070E+02 9.75656E+00-2.87996E+02
 -1      4027-8.42961E+03 1.68145E+01-9.22089E-01 7.77731E+02-4.10687E+00-3.37732E+02
 -1      4028-4.88472E+03 2.73791E+01 6.67476E+00 1.40359E+03 1.35169E+01-2.75151E+02
 -1      4029-4.91746E+03 1.19469E+00 4.12862E+00 1.48602E+03-1.07355E+01-2.86659E+02
 -1      4030-1.64107E+04 1.82590E+01 1.47214E+01 9.38687E+02 9.04627E+00-8.41820E+01
 -1      4031-1.36702E+04 2.54510E+01 9.13573E+00 1.02023E+03 4.17096E-01-2.67059E+02
 -1      4032-1.94011E+02 1.10198E+01-1.67969E+01 8.01019E+02-8.43964E+00-7.11597E+01
 -1      4033-1.99269E+04 2.81307E+01-3.61475E+00 1.00663E+03 1.80864E+01-1.04342E+02
 -1      4034-4.45188E+04 4.89552E+01 2.09728E+01 1.25288E+03 2.68448E-01-4.18282E+02
 -1      4035-8.24317E+03 2.49024E+01 2.11203E+01 7.47228E+02 2.83000E+00-2.76802E+02
 -1      4036-3.98908E+03 3.61779E+01 4.76457E+00 1.40733E+03 1.12992E+01-2.71094E+02
 -1      4037-6.57780E+03 4.74286E-01-1.02235E+01 8.35722E+02 1.94260E+00-2.99068E+02
 -1      4038-7.54593E+03 2.12179E+01 2.06820E+01 7.64310E+02 5.79239E+00-3.26945E+02
 -1      4039-1.14735E+04-5.03370E+01-1.81245E+01 2.48517E+03 2.18005E+00-4.23089E+02
 -1      4040-8.80093E+03 8.21444E+01 3.64787E+01 2.47025E+03-2.83288E+01-4.06764E+02
 -1      4041-8.24360E+03 5.46792E+01 1.35986E+00 2.49799E+03 2.51808E-01-4.50639E+02
 -1      4042 8.26713E+03-5.34459E+01 1.35495E-01 2.49747E+03-3.07135E-01-4.51290E+02
 -1      4043 5.56322E+03 6.83479E+01 8.57725E+00 2.45144E+03 2.14366E+01-4.56677E+02
 -1      4044 1.15114E+04 4.82903E+01 1.63827E+01 2.48468E+03-2.30793E+00-4.22559E+02
 -1      4045-5.56593E+03-6.78646E+01-7.84020E+00 2.44917E+03-1.96837E+01-4.59028E+02
 -1      4046 8.85025E+03-8.41170E+01-3.67513E+01 2.46969E+03 2.99794E+01-4.08591E+02
 -1      4047 4.88227E+03-2.40613E+01 1.17179E+01 1.51865E+03-6.35681E+00-2.87680E+02
 -1      4048 9.50109E+03-2.71248E+01 8.74211E+00 7.78328E+02-1.41538E+00-2.92247E+02
 -1      4049 8.25734E+03 1.92413E-01-9.88621E+00 9.07077E+02-1.47828E+00-3.42799E+02
 -1      4050 3.84567E+03-1.78668E+01 2.39953E+01 1.58343E+03 1.08796E+01-3.10668E+02
 -1      4051 8.37052E+03-3.47245E+01-1.63359E+00 7.82445E+02 6.66044E+00-3.40492E+02
 -1      4052 1.30483E+04 2.64939E+01-7.97478E+00 1.00910E+03 5.53935E+00-2.58677E+02
 -1      4053 1.64487E+04-5.89322E+01-1.32261E+01 9.53808E+02-5.96217E+00-9.08975E+01
 -1      4054-2.91684E+03 1.69137E+01-1.92791E+01 2.50784E+03-5.39186E+00-2.00846E+02
 -1      4055-8.06989E+01 1.98467E+01-2.60541E+00 2.27024E+03-3.91259E+01-4.13816E+02
 -1      4056 8.71514E+03 2.03725E-01-2.20907E+01 2.52779E+03 4.90391E+00-2.41114E+02
 -1      4057 1.16927E+04-2.28627E+01 1.80167E+01 2.50564E+03 1.11237E+01-1.85595E+02
 -1      4058 1.42516E+04-7.17627E+01-6.15233E+01 2.19863E+03-8.10121E+00-3.49166E+02
 -1      4059 1.15553E+04-4.32452E+01-1.67914E+01 2.10108E+03-1.46438E+01-3.99134E+02
 -1      4060 2.27267E+04 1.22511E+00-1.21184E+01 1.10061E+03 2.94319E-01-4.81891E+02
 -1      4061 2.24447E+04-4.09236E+00 1.63185E+01 1.26322E+03 5.46965E+00-4.36978E+02
 -1      4062 2.56254E+04 1.15487E+01-2.02939E+01 1.11237E+03 1.52129E+01-4.03218E+02
 -1      4063 3.93366E+04-3.13937E+01 4.43186E+01 1.32784E+03-6.58015E+00-3.28638E+02
 -1      4064-3.80434E+03 1.18157E+01-7.69502E+00 1.69137E+03 8.22195E+00-1.29300E+02
 -1      4065 1.06637E+03-6.06261E+00 2.17009E+01 1.70791E+03 2.62803E+00-1.42492E+02
 -1      4066 2.92575E+02-9.34000E+00-1.78711E+01 1.68146E+03 7.84492E-01-1.35828E+02
 -1      4067-1.49373E+03-7.05991E+00-2.13968E+01 1.51892E+03 2.92311E+01-2.50073E+02
 -1      4068-1.05194E+03-2.02472E+00 4.53399E+01 1.72004E+03-6.24973E+00-2.88738E+02
 -1      4069 6.40605E+02-6.29281E-01 3.13353E+01 1.86291E+03 1.20834E+01-1.67507E+02
 -1      4070-1.47923E+04 2.70424E+01-2.61742E+01 1.02679E+03 5.51768E+00-2.67498E+02
 -1      4071 4.16787E+03-6.80921E+00-1.88401E+01 1.77979E+03 1.03673E+00-1.31953E+02
 -1      4072 1.44930E+03 2.01358E+01-8.54838E+00 1.66676E+03 1.24694E+01-2.65239E+02
 -1      4073-5.94645E+02 1.63119E+01-1.61258E+01 1.86253E+03-6.11981E+00-1.59162E+02
 -1      4074-9.47258E+02 2.46622E+00 8.17033E+00 1.77806E+03-7.91529E+00-1.47009E+02
 -1      4075-3.85640E+03-9.74705E+00-4.66796E+01 1.58483E+03-7.04942E+00-3.10970E+02
 -1      4076-3.62648E+03 4.54611E+01 1.86626E+00 1.45555E+03 2.53174E+00-1.63698E+02
 -1      4077-6.74838E+03-4.42764E+00-2.86070E+01 7.59320E+02-1.01428E+01-3.24328E+02
 -1      4078-6.62876E+03 3.08587E+00-1.01450E+01 8.34951E+02-2.98975E+00-1.95550E+02
 -1      4079 8.18715E+03-5.14274E+01-3.23335E+01 8.03814E+02-6.53284E+00-3.39667E+02
 -1      4080 4.23653E+03-2.08486E+01 1.77405E+00 1.57438E+03 7.71267E+00-1.75620E+02
 -1      4081 7.24304E+03-3.96863E+01-5.68603E+00 8.55464E+02 5.86703E+00-1.98553E+02
 -1      4082-1.03306E+03 2.00225E+01-2.27796E+00 3.71914E+02-9.14275E+00-1.43704E+02
 -1      4083-8.65028E+02 2.44891E+01-4.58387E+00 2.74034E+02-1.54842E+00-1.19494E+02
 -1      4084-5.97394E+02 4.03690E+01-6.45990E+00 6.65923E+02-6.65279E+00-7.55868E+01
 -1      4085-4.79116E+02 4.70227E+01-3.69256E+00 5.58915E+02 6.16936E-02-6.06766E+01
 -1      4086-7.46340E+03 1.99089E+01-5.16417E+00 7.77239E+02-3.71666E+00-3.40999E+02
 -1      4087-3.95328E+03 3.17675E+01-4.41233E+00 1.53587E+03-3.93615E+00-1.60412E+02
 -1      4088 7.40688E+03-1.64669E+01-4.82326E+00 7.79307E+02 6.03348E+00-3.38604E+02
 -1      4089 3.92307E+03-2.91261E+01 4.04544E+00 1.53609E+03 8.15177E+00-1.56180E+02
 -1      4090 9.94910E+03-1.94651E+01 2.08602E+01 1.04375E+03 9.74125E+00-2.27572E+02
 -1      4091 2.24994E+03-3.04635E+01 8.78648E+00 5.61954E+02 2.49063E+00-1.31036E+02
 -1      4092-2.24878E+03 3.08794E+01-8.00458E+00 5.62125E+02-3.18488E+00-1.31663E+02
 -1      4093 1.22977E+04-2.66306E+01-3.52691E+01 1.12126E+03 5.70645E+00-2.44813E+02
 -1      4094 1.16620E+03-1.83956E+01 1.66573E+01 4.10608E+02 3.13593E-02-9.08450E+01
 -1      4095-9.33628E+02 2.84085E+01-4.65195E+00 3.15426E+02-4.07708E+00-7.59486E+01
 -1      4096-1.14921E+03 1.25747E+01-6.04892E+00 4.15299E+02-1.39113E+00-9.60325E+01
 -1      4097 3.49467E+04-1.54838E+01 2.78025E+01 1.41988E+03-7.42926E+00-3.17417E+02
 -1      4098 2.64858E+04 3.72049E+01 3.75878E+01 1.10943E+03-1.63673E+01-2.63057E+02
 -1      4099 1.96351E+04-2.09995E+01 5.65232E+00 2.11201E+03-6.13564E+00-1.59616E+02
 -1      4100 2.86831E+04 2.61347E+01 2.25505E+01 1.19469E+03-9.67828E+00-1.40293E+02
 -1      4101-3.22795E+04-3.48678E+01 4.63361E+00 1.27667E+03 4.02342E+01-4.98711E+02
 -1      4102-1.58737E+04 3.09768E+01-1.92730E+01 2.31438E+03-1.08111E+01-4.52294E+02
 -1      4103 2.77972E+04-2.23404E+00 1.81868E+00 1.11923E+03-5.64572E+00-2.79796E+02
 -1      4104 2.05852E+04-1.17389E+01 1.34150E+00 2.17378E+03-7.67902E+00-1.64199E+02
 -1      4105-3.49067E+04-7.06544E+00-3.25746E+01 1.42775E+03-4.95049E+00-3.12905E+02
 -1      4106 3.80286E+04-4.13280E+01-5.36251E+01 1.43269E+03-1.75941E+00-3.39044E+02
 -1      4107-4.11018E+04 5.11232E+01 3.20897E+00 1.29501E+03 3.89383E+01-4.66401E+02
 -1      4108-2.63741E+04 1.63304E+01 3.06731E+01 2.31599E+03-3.51927E+01-3.50680E+02
 -1      4109-4.17050E+03 2.73445E+01 1.58609E+01 1.86925E+03 4.80363E+00-1.42188E+02
 -1      4110-6.68466E+03 3.85825E+01 2.79558E+01 1.60235E+03-1.64606E+01-2.49877E+02
 -1      4111-4.37928E+03 3.74647E+01 6.67662E+00 6.40085E+02-1.81124E+01-2.42317E+02
 -1      4112-2.18909E+03 3.22042E+01 1.68201E+01 1.16754E+03 6.15712E+00-2.36434E+02
 -1      4113-2.90383E+02 1.43588E+01-5.44887E+00 1.35420E+03 1.61320E+00-1.25436E+02
 -1      4114 4.38368E+03-3.61035E+01-4.70715E+00 6.40836E+02 1.66204E+01-2.40680E+02
 -1      4115 2.18946E+03-3.05540E+01-1.51139E+01 1.16774E+03-7.14086E+00-2.35464E+02
 -1      4116 2.93739E+02-9.01945E+00 8.01064E+00 1.35540E+03-2.23741E+00-1.25159E+02
 -1      4117 9.60493E+03-2.01264E+01-1.67634E+01 8.86200E+02 8.02090E+00-3.08490E+02
 -1      4118 6.10945E+03-4.02181E+01 9.39891E+00 1.56288E+03-1.51705E+01-2.38156E+02
 -1      4119-1.02630E+04 2.23720E+01 1.20773E+01 9.06771E+02 5.55321E+00-3.08826E+02
 -1      4120-4.58267E+03 4.34858E+01 8.92977E+00 1.61035E+03 8.86620E+00-2.91273E+02
 -1      4121 4.16513E+03-1.27008E+01-2.07159E+00 1.83585E+03-6.50154E+00-1.48183E+02
 -1      4122 3.19799E+04-3.52226E+01 8.84197E+00 1.24370E+03-3.14292E+01-4.45750E+02
 -1      4123 2.05285E+04 7.91262E+00-1.42601E+01 2.26010E+03 1.18615E+01-3.53086E+02
 -1      4124-3.19858E+04 3.43666E+01-1.30586E+01 1.24199E+03 3.30278E+01-4.44592E+02
 -1      4125-2.05140E+04-9.02357E+00 1.37964E+01 2.25933E+03-1.30206E+01-3.52713E+02
 -1      4126-2.86500E+03-2.29334E+01-9.60662E+00 1.58394E+03-1.36413E+00-2.66257E+02
 -1      4127-2.80206E+03 2.91119E+01-9.36795E-01 1.60021E+03-1.34076E+01-2.66785E+02
 -1      4128 3.22947E+04 3.52919E+01-1.19082E+00 1.27588E+03-3.89617E+01-4.97609E+02
 -1      4129 1.58905E+04-3.06849E+01 1.92928E+01 2.31371E+03 1.00652E+01-4.52178E+02
 -1      4130-3.13963E+03 2.82195E+01 2.74426E+01 2.70967E+03-2.82293E+01-2.39636E+02
 -1      4131 1.32172E+04 2.09411E+01 1.57892E+01 2.65087E+03 1.50486E+01-2.05071E+02
 -1      4132-7.30458E+03 4.51314E+01 1.13603E+01 7.60547E+02 1.82789E+01-2.69128E+02
 -1      4133-4.77828E+03 3.40013E+01 1.79833E+01 1.39890E+03-4.20565E+00-2.22713E+02
 -1      4134-2.96310E+03 6.00679E+00-2.30656E+00 1.63184E+03-1.11137E+01-1.31191E+02
 -1      4135-7.87679E+03 7.05145E+00 7.62990E+00 2.33224E+03 7.25305E-01-1.72563E+02
 -1      4136-1.24072E+04 1.99297E+01 3.34404E+01 1.97336E+03-2.50937E+01-2.95882E+02
 -1      4137 7.87600E+03-1.35720E+01-1.43228E+01 2.33053E+03-9.38203E+00-1.70062E+02
 -1      4138 1.24288E+04-1.34497E+01-3.03908E+01 1.98494E+03 2.38969E+01-2.90373E+02
 -1      4139-5.75779E+04-1.96658E+01-3.38351E+01 1.35092E+03-1.06462E+02-5.26017E+01
 -1      4140-1.92347E+04 3.86845E+01 7.81065E+00 1.10859E+03 2.74798E+01-4.05265E+02
 -1      4141 1.92168E+04-1.94290E+01 2.01165E+00 1.11336E+03-1.70518E+01-4.02900E+02
 -1      4142 6.18625E+04 1.57005E+00-2.79042E+00 1.19539E+03 1.55978E+01-6.56541E+01
 -1      4143 5.73091E+04 1.20963E+01-1.47370E+01 1.38032E+03 1.04731E+02-4.14937E+01
 -1      4144-1.70645E+04-6.43191E+00-2.83557E-01 2.75022E+03-4.97597E+00-1.99425E+02
 -1      4145-2.19613E+04 4.28652E+00 3.72424E+01 1.31709E+03-6.89975E+00-2.90207E+02
 -1      4146 3.24209E+03-1.77931E+01 7.68670E+00 6.65680E+02 3.47019E+00-1.53268E+02
 -1      4147-3.24191E+03 1.77903E+01-7.59749E+00 6.66975E+02-3.22147E+00-1.53178E+02
 -1      4148-7.36707E+03 1.19900E+01-2.00133E+01 7.91753E+02 8.44390E-01-1.03118E+02
 -1      4149-1.04499E+04 1.17443E+01-4.35607E+00 7.84017E+02 4.80279E+00-8.18982E+01
 -1      4150-1.05091E+04 5.44664E+00 6.61325E+00 9.31170E+02 2.43699E+00-1.12030E+02
 -1      4151-9.39225E+03 1.02953E+01 1.72290E+01 8.66595E+02 1.21436E+01-2.10986E+02
 -1      4152-6.86482E+03 2.62531E+01-1.06479E+00 1.57735E+03 1.15021E+01-1.35735E+02
 -1      4153 7.37321E+03-1.13800E+01 1.82433E+01 7.91364E+02-7.29929E-01-1.04505E+02
 -1      4154 1.42416E+04-1.36976E+01-8.73064E+00 8.85684E+02 2.19451E+00-9.81724E+01
 -1      4155 1.18602E+04-2.65924E+01-2.56261E+00 9.70491E+02-5.60221E+00-1.15478E+02
 -1      4156 4.47191E+04 4.72620E+01 5.43505E+01 1.38252E+03-6.70244E+00-1.84750E+02
 -1      4157-2.03280E+04 4.02578E+00-7.43319E+00 1.16544E+03 3.56960E+00-1.43316E+02
 -1      4158-2.89677E+04-4.47384E+00 3.77170E+01 1.39332E+03 4.00377E+00-3.07785E+02
 -1      4159 3.45227E+04 2.74767E+00 3.76416E+01 1.33126E+03-4.90411E+00-1.74129E+02
 -1      4160-1.69095E+03-2.09336E+00-2.34999E+01 2.48171E+03 3.56798E+01-2.07629E+02
 -1      4161-1.05260E+04 1.79442E+01 2.77917E+01 2.09211E+03 1.65822E+01-4.33164E+02
 -1      4162 2.08997E+04-1.37542E+01-3.55140E+00 1.00358E+03-1.00057E+01-1.05851E+02
 -1      4163 2.03108E+04 4.29359E+00-3.27515E+00 1.18032E+03-2.98374E+00-1.38410E+02
 -1      4164 3.10476E+04-4.35870E+00-7.98722E-01 1.13124E+03-5.38280E+00-1.20764E+02
 -1      4165-1.33166E+04-2.63439E+01-1.60935E+01 2.64882E+03-1.36077E+01-2.05538E+02
 -1      4166 2.19342E+04-9.18943E-01-3.23225E+01 1.31668E+03 1.94091E+00-2.91255E+02
 -1      4167-2.12864E+04 4.82177E+01 1.69051E+01 1.17478E+03-3.53848E+01-4.62752E+02
 -1      4168 2.13215E+04-5.54245E+01-9.63153E+00 1.15599E+03 3.51959E+01-4.67008E+02
 -1      4169 1.04831E+04-3.82138E+01-4.66214E+01 2.09634E+03-1.36058E+01-4.09434E+02
 -1      4170-3.80143E+04 1.07260E+01 1.31467E+01 1.43984E+03 7.46877E+00-3.55045E+02
 -1      4171 3.01992E+03-2.48466E+01-2.70951E+01 2.71179E+03 2.91504E+01-2.39690E+02
 -1      4172 1.66817E+03 1.54507E-01 2.19487E+01 2.48459E+03-2.33150E+01-2.21438E+02
 -1      4173-3.45310E+04-3.08637E+00-3.77332E+01 1.32877E+03 3.75543E+00-1.73661E+02
 -1      4174-4.47302E+04-9.60098E+00-4.28488E+01 1.38258E+03 1.98283E+00-1.79549E+02
 -1      4175 1.74403E+04-1.34396E+01 3.55010E+01 1.24811E+03-2.70593E+00-2.77672E+02
 -1      4176 2.89816E+04 4.38681E+00-3.77918E+01 1.39264E+03-4.12117E+00-3.07334E+02
 -1      4177-1.74536E+04 1.50163E+01-3.53118E+01 1.25013E+03-5.51724E+00-2.75065E+02
 -1      4178 3.83129E+03-2.08629E+01 1.15781E+01 6.29454E+02 8.78386E+00-2.45635E+02
 -1      4179 1.90544E+03-4.07850E+01 1.79043E+01 1.17852E+03-8.50782E+00-1.29593E+02
 -1      4180-1.90480E+03 4.30714E+01-1.66588E+01 1.17855E+03 8.08713E+00-1.29301E+02
 -1      4181-1.04775E+04-6.37295E+00-5.59892E+00 8.86682E+02-1.64364E+00-2.27636E+02
 -1      4182-3.82986E+03 2.18690E+01-1.14120E+01 6.30311E+02-8.46307E+00-2.46506E+02
 -1      4183-7.53822E+03 2.72571E+01-9.84347E+00 1.63372E+03-4.96847E+00-1.34347E+02
 -1      4184-5.29665E+03 5.04791E+01-1.10890E+01 1.40215E+03-1.76616E+01-1.08220E+02
 -1      4185-7.43481E+03 2.93413E+01-4.96587E+00 7.52794E+02 1.41577E+00-1.90947E+02
 -1      4186 1.06116E+04-2.96047E+01-2.76105E+01 9.02267E+02-9.18839E+00-2.29775E+02
 -1      4187 7.72717E+03-1.74490E+01-1.19154E+01 1.65807E+03-2.01773E+01-1.32999E+02
 -1      4188-1.99016E+04 7.81603E+00-8.64363E+00 1.10263E+03 4.34009E+00-2.91208E+02
 -1      4189-1.42766E+04 2.83347E+01-2.20331E+01 2.04530E+03-1.83971E+01-1.60354E+02
 -1      4190-3.05721E+04-2.31586E+01 4.50438E+01 1.30190E+03 1.09598E+01-5.12910E+02
 -1      4191-1.56037E+04-4.20917E+01 3.23129E+01 2.41819E+03-3.97848E+01-2.74666E+02
 -1      4192 2.39239E+04-4.35792E+01 2.39475E+01 2.32914E+03 3.61349E+01-1.76894E+02
 -1      4193 3.33846E+04-2.02029E+01 2.70419E+01 1.25192E+03 2.12308E+00-3.27054E+02
 -1      4194 1.98722E+04 9.47664E+00 1.68683E+01 1.11373E+03 2.64143E+00-2.86509E+02
 -1      4195-4.30693E+04 1.42721E+01-2.62220E+01 1.30621E+03-2.32008E+00-3.37195E+02
 -1      4196-3.33902E+04 2.03036E+01-2.73630E+01 1.24968E+03-3.67374E+00-3.24976E+02
 -1      4197 1.42883E+04-2.70101E+01 1.24096E+01 2.05716E+03 1.23378E+01-1.61591E+02
 -1      4198 9.71999E+03-5.04204E+01 3.13070E+01 2.18061E+03-3.31234E+01-2.48959E+02
 -1      4199-7.28433E+03 1.14460E+01 2.50962E-01 8.10897E+02-3.04735E+00-1.98763E+02
 -1      4200 7.28816E+03-1.55139E+01-3.08286E+00 8.12949E+02 2.71652E+00-1.95879E+02
 -1      4201-8.20593E+03 2.83189E+01 1.88989E+01 9.28441E+02 4.15961E+00-3.43888E+02
 -1      4202-1.94806E+04 3.56081E+01-3.48481E+01 1.17686E+03-1.39933E+01-4.64280E+02
 -1      4203 3.05871E+04 2.35137E+01-4.50784E+01 1.30089E+03-1.11684E+01-5.11724E+02
 -1      4204-2.41090E+04 4.16895E+01-2.47485E+01 2.31447E+03-3.71074E+01-1.75599E+02
 -1      4205 1.56965E+04 4.21704E+01-3.24167E+01 2.41538E+03 3.93677E+01-2.74605E+02
 -1      4206-3.11845E+04 3.72893E+01-3.15775E+01 2.40647E+03-3.61845E+01-1.81584E+02
 -1      4207-9.74805E+03 5.17347E+01-3.82827E+01 2.18085E+03 3.28246E+01-2.43855E+02
 -1      4208 1.94908E+04-3.72333E+01 3.13466E+01 1.17206E+03 1.02618E+01-4.68495E+02
 -1      4209 2.97739E+01-2.46690E+00 1.12485E-01 2.60540E+03 1.09362E+00-3.99605E+02
 -1      4210 7.38633E+03-8.41793E+01-3.08314E+00 2.46608E+03-1.19527E+00-4.58357E+02
 -1      4211-1.01592E+01 1.50854E+01-2.23046E+00 2.75978E+03-5.08627E+00-5.64995E+02
 -1      4212 1.60575E+01-2.87222E+00 3.28376E+00 1.31069E+03 2.14086E+00-2.02731E+02
 -1      4213-1.00027E+03-1.39928E+01-3.40265E+00 1.27083E+03 4.44752E+00-2.44410E+02
 -1      4214 1.00569E+03 1.60865E+01 7.97862E+00 1.27241E+03-4.41470E+00-2.43808E+02
 -1      4215 2.57823E+01-2.79017E+01-6.83494E+00 1.77290E+03 1.40648E+00-3.35308E+02
 -1      4216 1.65239E+03-4.10037E+01-1.62940E+01 1.65252E+03 1.60146E+00-3.13988E+02
 -1      4217-1.69690E+03 4.89709E+01-2.05587E+01 1.65939E+03 9.83814E+00-3.18004E+02
 -1      4218 2.84485E+03-3.54441E+01-2.50326E+01 1.64551E+03 8.13052E+00-2.69825E+02
 -1      4219-3.08765E+03 3.11671E+00-2.18637E+01 1.72219E+03-6.80850E+00-2.86385E+02
 -1      4220-8.58442E+00 1.85958E+00 2.36607E-02 1.50022E+03 2.19090E+00-2.79576E+02
 -1      4221-2.14559E+03-3.69638E+01-1.31032E+01 1.50756E+03-1.01399E+01-2.52218E+02
 -1      4222-1.21171E+04-4.71849E+01-1.77051E+01 2.51883E+03-1.12825E+01-4.06172E+02
 -1      4223-7.35657E+03 8.32661E+01 1.35496E+00 2.46688E+03 1.25174E+00-4.58657E+02
 -1      4224-1.37227E+00 1.83363E+00 2.69846E+00 2.31847E+03 5.29227E-01-4.62553E+02
 -1      4225-5.69766E+03-4.85392E+01-2.53722E+01 2.14699E+03-1.12150E+01-3.38208E+02
 -1      4226 5.69080E+03 3.84929E+01 1.71255E+01 2.15101E+03 1.10530E+01-3.32618E+02
 -1      4227 3.93707E+03-2.11372E+01 1.37857E+01 6.28141E+02 4.27702E+00-1.51637E+02
 -1      4228-1.23204E+04 1.27879E+01-1.30143E+01 8.46830E+02 8.22176E+00-9.22551E+01
 -1      4229-3.93696E+03 2.17728E+01-1.38185E+01 6.27991E+02-4.07743E+00-1.51937E+02
 -1      4230-8.71495E+03 1.78462E+01-1.01149E+01 7.42566E+02 2.71632E+00-8.09587E+01
 -1      4231 1.22353E+04-1.70890E+01-2.07344E+01 8.47288E+02-3.27304E+00-9.32579E+01
 -1      4232-1.41164E+04 4.94188E+01 7.79593E+00 1.05201E+03-1.65743E+01-2.53760E+02
 -1      4233-3.11105E+04-5.34735E+00 2.59158E+01 1.27885E+03 4.81477E-01-3.05891E+02
 -1      4234-2.33104E+04 5.81933E+00-1.80526E+01 1.06752E+03 4.08413E+00-1.18470E+02
 -1      4235 3.89886E+04-4.34920E+00 2.30939E+01 1.22284E+03 6.32017E-01-1.36476E+02
 -1      4236-1.74650E+01-1.91439E-01-4.12742E-01 2.56333E+03 1.86405E+00-5.10076E+02
 -1      4237 9.40388E+03 8.44706E+01 3.28183E+01 2.42310E+03-2.23052E+00-4.02626E+02
 -1      4238 8.93886E+00 4.29558E+00-3.59489E-01 2.31221E+03-6.41765E+00-3.74183E+02
 -1      4239 5.89812E+03 3.82528E+01 1.28498E+01 2.25936E+03-2.14266E+00-3.28762E+02
 -1      4240 4.89499E+03 4.56266E+01 3.46010E+01 2.24070E+03 3.38199E+00-4.31027E+02
 -1      4241-9.39062E+03-8.31443E+01-3.08172E+01 2.42196E+03 2.66147E+00-4.02206E+02
 -1      4242 2.32989E+04-8.25520E+00 1.97134E+01 1.06711E+03-6.60852E+00-1.16989E+02
 -1      4243-3.91694E+04 3.43364E+00-2.36351E+01 1.20755E+03-9.66211E-01-1.35762E+02
 -1      4244-5.05577E+04 7.79751E-01-2.79076E+01 1.25351E+03 1.10797E+00-1.42878E+02
 -1      4245-4.84503E+03-7.53688E+01-3.35949E+01 2.30090E+03 2.14405E+01-3.76610E+02
 -1      4246 3.81646E+01 5.98719E+00 7.01839E+00 2.49972E+03 5.57612E+00-3.87145E+02
 -1      4247 1.98849E+04-1.80346E+01 2.48406E+01 1.15769E+03 1.85585E+00-2.77573E+02
 -1      4248-1.98980E+04 1.88794E+01-2.34156E+01 1.15502E+03-2.09115E+00-2.74745E+02
 -1      4249 3.11899E+04 5.51300E+00-2.59682E+01 1.27329E+03-1.03888E+00-3.05366E+02
 -1      4250 6.70681E+03 1.09527E+01 3.23607E+01 7.53458E+02 1.51229E+01-3.22670E+02
 -1      4251 6.58620E+03-5.00787E-01 1.13983E+01 8.31368E+02 6.52009E+00-1.92882E+02
 -1      4252 3.60514E+03-3.99271E+01 3.84483E+00 1.44982E+03 1.97315E+00-1.61261E+02
 -1      4253-4.27267E+03 6.92177E+00-7.12438E+00 1.55969E+03-8.52030E+00-1.63962E+02
 -1      4254-7.27723E+03 4.14677E+01 4.37453E+00 8.55268E+02-8.79191E-01-2.01447E+02
 -1      4255-8.24742E+03 3.72899E+01 1.70064E+01 8.05431E+02 1.50330E+00-3.52729E+02
 -1      4256 2.91205E+04-3.47940E+01-3.92655E+01 1.12948E+03 7.67847E+00-2.84892E+02
 -1      4257 3.00174E+04-4.60443E+01-2.91819E+01 1.20042E+03-4.75955E+00-1.43654E+02
 -1      4258 2.14662E+04 3.19656E+00-1.17287E+01 2.16451E+03-1.13158E+01-1.55223E+02
 -1      4259-4.94545E+02 2.65058E+01 1.10865E+01 2.45758E+02 3.23801E+00-9.12715E+01
 -1      4260-2.66564E+02 5.39206E+01 8.81572E+00 4.26978E+02-8.75550E+00-6.90837E+01
 -1      4261-9.98647E+03 1.21468E+01-9.98281E+00 1.02771E+03 1.25949E+00-2.36249E+02
 -1      4262 4.23289E+01-2.44134E+01 2.92484E-01 3.07714E+01 3.17877E+00-7.20132E+00
 -1      4263 1.03142E+02-2.39002E+01 2.60330E+00 1.14179E+02 5.76859E-01-8.80464E+00
 -1      4264 5.60968E+01-2.69638E+01-1.69952E+00 8.34241E+01 3.40736E+00-2.39075E+01
 -1      4265 5.50023E+01-4.17121E+01 9.98825E-01 1.31186E+02 2.89288E+00-1.60254E+01
 -1      4266 1.46646E+01-4.58766E+01 2.11073E+00 7.67882E+01 5.33607E+00 1.45553E+00
 -1      4267 3.30185E+01-4.91245E+01 3.51825E+00 8.40391E+01 6.75874E+00-1.41271E+01
 -1      4268-6.84656E+04 3.26812E+02-1.18000E+03 1.04773E+02-1.50320E+02-1.24890E+03
 -1      4269-7.82097E+04 1.37366E+03-6.90697E+02 1.16243E+02-1.46780E+03-2.51197E+03
 -1      4270-5.31891E+04-1.49295E+03-1.51871E+03 2.65992E+03-8.00725E+02-1.46831E+03
 -1      4271-6.54476E+04-1.67447E+02-4.01042E+03 2.40153E+03-4.25625E+02-3.00302E+03
 -1      4272 4.36274E+03-5.03137E+01 9.45565E-02 2.72978E+03 2.33569E+01-4.53566E+02
 -1      4273 2.80512E+02-2.67040E+01 1.47523E+01 1.01779E+03 6.16272E+00-1.82314E+02
 -1      4274 1.25892E+02-1.12690E+01-2.01501E+01 7.88751E+02-7.85146E+00-1.39304E+02
 -1      4275 3.99190E+03-2.28896E+01-5.42225E+01 2.71609E+03-6.22548E+00-4.58727E+02
 -1      4276-1.40860E+02 2.98482E+01 1.76323E+01 5.40256E+01 2.87800E+00-1.27159E+01
 -1      4277-5.12886E+01 2.37849E+01 6.38960E+00 3.83267E+01 4.26445E+00-8.23392E+00
 -1      4278-8.50399E+01 2.44698E+01 1.30358E+01 8.23765E+01 7.84897E+00-2.26718E+01
 -1      4279-9.34522E+01 3.70386E+01 5.49060E+00 1.32228E+02 7.53937E+00-1.24400E+01
 -1      4280-5.57616E+02 1.91999E+01 2.11809E+00 2.56421E+02-1.44952E+00-1.00776E+02
 -1      4281-4.15779E+02 2.09695E+01-6.51723E+00 2.11857E+02-3.51375E+00-8.39054E+01
 -1      4282 1.45747E+03-2.79496E+00 4.32477E+01 2.11462E+03 7.42220E+00-3.51661E+02
 -1      4283 4.33819E+00-3.84804E+01 4.99966E+00-4.66740E+00 5.15523E+00-6.33018E+00
 -1      4284 1.24325E+01-3.22667E+01-9.46651E-01-1.06864E+00 3.72656E+00-1.54608E+01
 -1      4285 1.18070E+03-9.83387E+00-9.83787E+00 1.96614E+03-9.72285E+00-3.30541E+02
 -1      4286-5.40171E+02 1.84884E+01 5.66179E+00 3.04287E+03 6.04867E+00-6.56712E+02
 -1      4287 5.83378E+01-2.42429E+01-8.15005E+00 3.24054E+01-4.66296E+00-7.07182E+00
 -1      4288 1.45205E+02-2.99009E+01-6.27376E+00 1.14197E+02-1.74090E+00-8.43248E+00
 -1      4289 8.22496E+01-2.64710E+01-1.38479E+01 7.78777E+01-5.30801E+00-2.26788E+01
 -1      4290 8.15463E+01-3.59771E+01-6.57845E+00 1.27439E+02-5.88618E+00-1.31175E+01
 -1      4291 7.78447E+04-6.23777E+02 9.86419E+02-6.78233E+01 1.71672E+03-2.39108E+03
 -1      4292 6.83833E+04-2.90857E+02 1.20850E+03 2.09878E+02 1.85149E+02-1.12943E+03
 -1      4293 6.56132E+04 1.32125E+03 4.70042E+03 2.30377E+03 7.40057E+02-2.60160E+03
 -1      4294 5.34169E+04 2.66857E+03 2.18942E+03 1.95856E+03 9.26204E+02-1.42182E+03
 -1      4295 2.35706E+01-5.47910E+01 4.27085E+00 3.69073E+01 4.04000E+00-3.90945E-01
 -1      4296-5.48516E+04 1.11166E+03-1.24448E+03-1.14792E+03 1.09737E+03 2.48584E+03
 -1      4297-4.59458E+04 7.08035E+02-1.34524E+03-6.53160E+01 1.96296E+02 1.30228E+03
 -1      4298-5.08578E+04-6.03091E+02-4.28523E+03 1.90594E+03 3.95756E+02 2.11039E+03
 -1      4299-3.32589E+04-1.71358E+02-1.43712E+03 1.55449E+03 6.19249E+02 6.65368E+02
 -1      4300-1.01645E+02 2.65994E+01-1.09290E+00 1.13205E+02-3.76449E-01-1.10685E+01
 -1      4301-4.35347E+01 2.30787E+01-1.48085E-01 3.30417E+01-2.35153E+00-7.87947E+00
 -1      4302-5.36505E+01 4.22936E+01-3.77539E-01 1.25412E+02-3.76369E+00-1.60756E+01
 -1      4303-5.27315E+01 2.79890E+01 3.52981E+00 7.66675E+01-3.20601E+00-2.55956E+01
 -1      4304-1.11606E+02 3.96467E+01-4.28048E+00 2.17849E+02-4.56638E+00-2.22010E+01
 -1      4305 6.97361E+04 4.60381E+03 1.42248E+04 2.82579E+03 2.45629E+02-4.46494E+03
 -1      4306 4.59115E+04 8.01888E+03 8.95515E+03 4.06490E+03 7.52820E+02-3.89206E+03
 -1      4307-2.04858E+01 4.76044E+01 9.29170E+00 7.96553E+01 6.47178E+00-1.44479E+00
 -1      4308-4.59519E+01 5.34086E+01 1.63922E+01 7.95791E+01 1.06468E+01-1.37397E+01
 -1      4309 5.45397E+04-9.24096E+02 1.35744E+03-1.03455E+03-1.19080E+03 2.48706E+03
 -1      4310 4.59229E+04-7.67311E+02 1.34860E+03-2.35341E+01-1.65202E+02 1.31862E+03
 -1      4311 5.02055E+04 2.91537E+02 4.08143E+03 1.95120E+03-3.33166E+02 2.12960E+03
 -1      4312 3.33049E+04 9.62083E+02 1.97083E+03 1.08847E+03-6.34545E+02 5.25261E+02
 -1      4313-6.83998E+03 3.84477E+01 5.55269E+00 1.47717E+03-7.75224E+00-9.86171E+01
 -1      4314-9.34330E+03-1.18633E+00-4.07659E+00 7.41081E+02-3.84674E+00-1.90521E+02
 -1      4315 6.98834E+04 3.46560E+03 1.05254E+04 1.98151E+03 2.07002E+02-6.76760E+03
 -1      4316 5.77195E+04 2.63013E+03 1.21242E+04 2.03625E+03-5.71963E+02 4.28082E+03
 -1      4317 3.23961E+04 5.21234E+03 6.79174E+03 2.87964E+03-4.50500E+02 2.48483E+03
 -1      4318-1.45295E+01 3.73902E+01 1.27219E+01-2.03469E+00 5.22028E+00-5.65578E+00
 -1      4319-1.82410E+01 3.28838E+01 1.78789E+01 4.87187E-01 5.79901E+00-1.25869E+01
 -1      4320-2.73276E+01 5.54264E+01 9.82009E+00 3.61256E+01 5.87623E+00 1.22064E+00
 -1      4321-4.58008E+04-5.96494E+03-1.76936E+03 6.22799E+02 7.24531E+02-2.77099E+03
 -1      4322 4.44744E+04 9.00149E+03 6.43838E+03 1.09811E+03-7.82917E+01-4.19725E+03
 -1      4323 5.79588E+04 7.24886E+03 4.44692E+03 2.19021E+03 3.85608E+02-3.95709E+03
 -1      4324 1.73013E+01-3.96166E+01-1.48228E+01-3.39924E+00-7.37790E+00-9.14083E+00
 -1      4325-5.92929E+04-9.83033E+03-5.94839E+03 2.21785E+03-6.86153E+02-4.28634E+03
 -1      4326-4.68387E+04-9.53587E+03-1.04476E+04 3.87134E+03-1.20132E+03-3.97367E+03
 -1      4327 5.32674E+04 2.12336E+03 8.77698E+03 6.45541E+02-1.53673E+02 6.45110E+03
 -1      4328 2.18870E+04 4.24711E+03 4.89791E+03-4.67380E+02 1.37736E+02 3.32323E+03
 -1      4329 3.61644E+04 3.78184E+03 3.39667E+03-1.68013E+02-3.11256E+02 3.52664E+03
 -1      4330 4.31492E+03 8.43541E+00 2.36910E+00 6.87772E+02-4.92287E+00-1.59878E+02
 -1      4331 2.34653E+03-3.34882E+01 1.22056E+00 1.20608E+03 1.59849E+00-1.29369E+02
 -1      4332 4.28580E+03-6.22455E+00 5.17776E-01 6.25419E+02 3.89405E+00-2.70761E+02
 -1      4333-2.34632E+03 3.37237E+01-9.68939E-01 1.20588E+03-1.66588E+00-1.29441E+02
 -1      4334-4.28565E+03 6.27417E+00-3.30153E-01 6.25520E+02-3.50115E+00-2.71178E+02
 -1      4335-4.31470E+03-8.36911E+00-2.12918E+00 6.87700E+02 5.04810E+00-1.59780E+02
 -1      4336 7.66605E+03-2.95852E+01-1.24121E+01 1.55213E+03 5.23870E-01-1.12364E+02
 -1      4337 1.05210E+04-3.23684E+01-8.64705E+00 7.82049E+02 1.84444E+00-1.95066E+02
 -1      4338 1.05578E+04-4.27508E+01-2.92261E+00 8.42634E+02-1.41485E+00-9.94382E+01
 -1      4339-1.28508E+04 7.72772E+00 9.86201E+00 9.10020E+02-6.40842E+00-1.04797E+02
 -1      4340-1.15793E+04 2.16760E+01 1.56429E+01 8.37794E+02 5.45701E-01-2.13542E+02
 -1      4341-8.59436E+03 3.68886E+01 1.26896E+01 1.62406E+03 2.57290E+00-1.26784E+02
 -1      4342-1.62550E+04 1.10805E+01 2.25199E+00 2.35712E+03 4.26482E-01-2.56871E+02
 -1      4343-2.84503E+04 3.83984E+01-2.48862E+01 1.30155E+03 2.26138E+00-2.99207E+02
 -1      4344-3.12950E+04 2.57508E+01-1.77920E+00 1.19773E+03 1.13403E+01-5.29880E+02
 -1      4345-2.35267E+04-3.61181E+01-7.71105E+00 1.11727E+03-1.12567E+01-1.32769E+02
 -1      4346-2.15679E+04-1.08720E+01 5.61571E+00 1.02739E+03 2.10463E+00-2.55978E+02
 -1      4347-1.59331E+04 1.09405E+01-5.47162E+00 2.00890E+03 4.97268E-01-1.44380E+02
 -1      4348 3.86008E+04 5.00016E+01 1.62611E+01 1.26426E+03 9.61395E+00-1.51500E+02
 -1      4349 3.57475E+04 2.41254E+01-1.35309E+00 1.17386E+03-1.01124E+01-2.87029E+02
 -1      4350 2.63334E+04-5.33360E+00 1.65545E+01 2.27927E+03-1.47777E+00-1.65487E+02
 -1      4351 1.59362E+04-1.61832E+01 2.53427E-01 2.01313E+03-3.68272E+00-1.42808E+02
 -1      4352 2.35331E+04 2.02108E+01-8.77568E+00 1.12178E+03 2.90690E+00-1.34155E+02
 -1      4353 2.15673E+04 9.24467E+00-3.57303E+00 1.02809E+03-3.90509E+00-2.56578E+02
 -1      4354 1.63385E+04-1.24556E+01-3.27984E+00 2.35314E+03-1.42178E+00-2.58418E+02
 -1      4355 2.84532E+04-3.98290E+01 2.35387E+01 1.30246E+03-3.05281E+00-2.99244E+02
 -1      4356 3.13011E+04-2.69216E+01 1.47131E+00 1.19733E+03-1.17879E+01-5.30430E+02
 -1      4357 1.32734E+01-4.08188E+01-1.59486E+01-4.76054E+00-7.76997E+00-8.24924E+00
 -1      4358 4.64557E+01-4.97328E+01-1.35303E+01 7.94739E+01-8.16508E+00-1.31964E+01
 -1      4359-2.64937E+04 4.45120E+00-1.70980E+01 2.26861E+03 1.48376E+00-1.64623E+02
 -1      4360-3.85781E+04-5.01381E+01-1.65556E+01 1.26585E+03-1.06180E+01-1.50691E+02
 -1      4361-3.57283E+04-2.45082E+01 1.01080E+00 1.17581E+03 9.30598E+00-2.86248E+02
 -1      4362 1.10503E+04-9.68264E+00-2.34870E+00 2.15617E+03 1.54407E+01-2.27750E+02
 -1      4363 2.07711E+04 2.06154E+01-4.51730E+00 1.10825E+03 1.51291E+01-4.80956E+02
 -1      4364 1.98695E+04 2.52554E+01-1.76066E+01 1.21086E+03 1.10516E+01-2.75924E+02
 -1      4365 1.64400E+03-4.74522E+00 4.02371E+00 3.78174E+02-6.39169E+00-4.72807E+01
 -1      4366-4.59003E+04 1.34628E+01 1.25596E+01 1.20712E+03-1.06595E+01-2.99880E+02
 -1      4367-3.40626E+04 1.01256E+01 1.26893E+01 2.34845E+03-8.65559E+00-1.71992E+02
 -1      4368-4.93700E+04-1.15420E+01 1.00886E+01 1.29949E+03-1.66867E+01-1.49959E+02
 -1      4369 1.43620E+04 4.44819E+00-6.17533E+00 9.65519E+02 2.48171E+00-1.14035E+02
 -1      4370 3.40070E+03-1.93337E+01 5.71402E+00 5.22587E+02-4.43521E+00-6.31347E+01
 -1      4371 1.89818E+04-4.60754E+01-4.65817E+00 9.83900E+02 6.61070E+00-1.13394E+02
 -1      4372 5.09003E+04 5.29105E+01 2.26837E+01 1.34865E+03 1.37997E+00-1.63016E+02
 -1      4373-5.79490E+04-2.91531E+03-1.20447E+04 1.62930E+03 2.80640E+02 4.37864E+03
 -1      4374-5.31922E+04-2.11056E+03-8.70373E+03 6.76537E+02 1.21597E+02 6.51985E+03
 -1      4375-3.31523E+04-5.58609E+03-7.63491E+03 2.75447E+03 8.52845E+02 2.89565E+03
 -1      4376-1.55519E+01 4.31168E+01-2.94748E+00 8.01856E+01-5.31196E+00 1.31786E+00
 -1      4377-2.34122E+01 5.33454E+01-4.15528E+00 3.65109E+01-4.15942E+00-1.05185E+00
 -1      4378-3.06145E+01 5.04298E+01-2.72041E+00 7.66528E+01-5.75500E+00-1.50589E+01
 -1      4379-2.33362E+04-1.36940E+03-1.05783E+02-1.34137E+03-7.27222E+02 1.88279E+03
 -1      4380-1.98833E+04-2.30931E+01 1.62940E+01 1.20616E+03-5.40343E+00-2.77809E+02
 -1      4381-1.10884E+04 1.93421E+01-2.04969E+00 2.15292E+03-5.00535E+00-2.29870E+02
 -1      4382-2.07704E+04-1.39193E+01 1.00273E+00 1.10511E+03-1.15870E+01-4.74479E+02
 -1      4383-6.80992E+04-4.01886E+03-1.30951E+04 3.07997E+03 1.64718E+02-4.73372E+03
 -1      4384-7.08708E+04-4.90827E+03-1.23574E+04 2.54654E+03-6.41889E+02-6.90693E+03
 -1      4385 5.60104E+04-2.12826E+01 1.08725E+01 1.32636E+03 1.53518E+01-1.24498E+02
 -1      4386 2.37691E+01-5.11667E+01-1.05657E+01 5.36371E+01-1.13059E+01-3.58046E-01
 -1      4387-3.73295E+04-5.50383E+03-4.30949E+03-1.11087E+02 4.21770E+02 3.74662E+03
 -1      4388-8.31300E+03 1.73854E+01 1.56377E+01 7.36024E+02 5.15645E+00-1.77947E+02
 -1      4389-6.19174E+03 4.25377E+01 6.94656E+00 1.41552E+03 3.23227E+00-1.10021E+02
 -1      4390-9.30207E+03 9.57365E+00 6.30128E+00 7.94762E+02-3.70363E+00-8.93375E+01
 -1      4391 2.81102E+01-5.75545E+01-7.71439E+00 3.92806E+01-5.04780E+00 2.42931E+00
 -1      4392-8.31556E+01 1.09884E+01-2.22656E+00 4.83869E+02-1.42047E+00-7.89767E+01
 -1      4393-1.00440E+01 3.61896E+01-1.42865E+00-4.38502E+00-3.40980E+00-1.09488E+01
 -1      4394-5.81449E+00 3.91589E+01-2.96131E+00-3.22985E+00-5.77316E+00-7.64229E+00
 -1      4395-2.59944E+01 1.73874E+01-1.01839E+01 5.14323E+02-5.35314E+00-3.44357E+01
 -1      4396-1.76152E+02 2.42200E+01-1.75102E+00 1.34902E+02-3.51281E+00-3.29677E+01
 -1      4397-1.56436E+02 4.17350E+01 8.88270E-01 3.19694E+02-7.83317E+00-2.75804E+01
 -1      4398-3.64433E+02 4.59465E+01 2.17133E+00 4.73805E+02-1.00878E+01-5.04233E+01
 -1      4399-2.36420E+02 4.83458E+01-4.83661E+00 4.10217E+02-2.86618E+00-3.50274E+01
 -1      4400-6.68752E+02 2.35942E+01-1.43891E+00 2.85896E+02-3.18415E+00-6.78561E+01
 -1      4401-3.01930E+02 2.59581E+01-4.67133E+00 2.17440E+02-2.53712E+00-3.97534E+01
 -1      4402-4.94330E+02 2.43558E+01-3.43620E+00 2.32307E+02-4.35966E+00-5.31464E+01
 -1      4403-1.09653E+03 1.94996E+01 1.96547E+01 3.84165E+02-8.12439E-01-1.43037E+02
 -3
    1PSTEP                         6           1           1          
    1PGM                1.000000E+00                                  
    1PGK                2.759259E+07                                  
    1PHID                         -1                                  
    1PSUBC                         0                                  
    1PMODE                         2                                  
  100CL  102 836.0193528        4403                     2    2MODAL      1
 -4  ERROR       1    1
 -5  STR(%)      1    1    0    0
 -1         1 1.09884E+01
 -1         2 1.37217E+01
 -1         3 1.33418E+01
 -1         4 1.06782E+01
 -1         5 2.91658E+01
 -1         6 3.26063E+01
 -1         7 3.21372E+01
 -1         8 2.97054E+01
 -1         9 1.04541E+01
 -1        10 1.11539E+01
 -1        11 1.03550E+01
 -1        12 1.20879E+01
 -1        13 1.08040E+01
 -1        14 1.07544E+01
 -1        15 1.06717E+01
 -1        16 1.27589E+01
 -1        17 2.58067E+01
 -1        18 2.26660E+01
 -1        19 1.18736E+01
 -1        20 1.92828E+01
 -1        21 2.42363E+01
 -1        22 1.80039E+01
 -1        23 9.64972E+00
 -1        24 1.12797E+01
 -1        25 1.12797E+01
 -1        26 1.01639E+01
 -1        27 1.04647E+01
 -1        28 1.12797E+01
 -1        29 1.23108E+01
 -1        30 2.30095E+01
 -1        31 2.51924E+01
 -1        32 1.26622E+01
 -1        33 1.83656E+01
 -1        34 2.41010E+01
 -1        35 1.89273E+01
 -1        36 1.16702E+01
 -1        37 2.23002E+01
 -1        38 1.83673E+01
 -1        39 2.21984E+01
 -1        40 2.74533E+01
 -1        41 2.03337E+01
 -1        42 2.02828E+01
 -1        43 2.56821E+01
 -1        44 1.32502E+01
 -1        45 2.66020E+01
 -1        46 2.66020E+01
 -1        47 2.12080E+01
 -1        48 1.99261E+01
 -1        49 2.66020E+01
 -1        50 2.93696E+01
 -1        51 2.30398E+01
 -1        52 1.87027E+01
 -1        53 2.27352E+01
 -1        54 2.63726E+01
 -1        55 2.08712E+01
 -1        56 2.07189E+01
 -1        57 2.74362E+01
 -1        58 2.57955E+01
 -1        59 2.70629E+01
 -1        60 2.70629E+01
 -1        61 2.92009E+01
 -1        62 2.64292E+01
 -1        63 2.70629E+01
 -1        64 2.83842E+01
 -1        65 1.15584E+01
 -1        66 1.15245E+01
 -1        67 1.08919E+01
 -1        68 1.18299E+01
 -1        69 1.08986E+01
 -1        70 1.15418E+01
 -1        71 1.10850E+01
 -1        72 1.10835E+01
 -1        73 1.18970E+01
 -1        74 1.09934E+01
 -1        75 1.10959E+01
 -1        76 1.11973E+01
 -1        77 1.19997E+01
 -1        78 1.06808E+01
 -1        79 1.09375E+01
 -1        80 1.13969E+01
 -1        81 1.11901E+01
 -1        82 1.11657E+01
 -1        83 1.22538E+01
 -1        84 1.03710E+01
 -1        85 1.14304E+01
 -1        86 1.02413E+01
 -1        87 1.13401E+01
 -1        88 1.04269E+01
 -1        89 1.08916E+01
 -1        90 1.02290E+01
 -1        91 1.03201E+01
 -1        92 1.11653E+01
 -1        93 1.03938E+01
 -1        94 8.41218E+00
 -1        95 9.85539E+00
 -1        96 1.68591E+01
 -1        97 3.26063E+01
 -1        98 1.26400E+01
 -1        99 1.15414E+01
 -1       100 1.12082E+01
 -1       101 1.13609E+01
 -1       102 1.13642E+01
 -1       103 1.12202E+01
 -1       104 1.13134E+01
 -1       105 1.10843E+01
 -1       106 1.14903E+01
 -1       107 1.14452E+01
 -1       108 1.10446E+01
 -1       109 1.11466E+01
 -1       110 1.15985E+01
 -1       111 1.13402E+01
 -1       112 1.08091E+01
 -1       113 1.11672E+01
 -1       114 1.12935E+01
 -1       115 1.11779E+01
 -1       116 1.17098E+01
 -1       117 1.13124E+01
 -1       118 1.09007E+01
 -1       119 1.08359E+01
 -1       120 1.07907E+01
 -1       121 1.08835E+01
 -1       122 1.06592E+01
 -1       123 1.05603E+01
 -1       124 1.02745E+01
 -1       125 1.07427E+01
 -1       126 1.07795E+01
 -1       127 9.40298E+00
 -1       128 9.13379E+00
 -1       129 1.33573E+01
 -1       130 2.47327E+01
 -1       131 3.26063E+01
 -1       132 7.62732E+00
 -1       133 6.60064E+00
 -1       134 1.07433E+01
 -1       135 1.02878E+01
 -1       136 6.86541E+00
 -1       137 1.01885E+01
 -1       138 6.88328E+00
 -1       139 1.07212E+01
 -1       140 6.91484E+00
 -1       141 6.91862E+00
 -1       142 9.51907E+00
 -1       143 1.06511E+01
 -1       144 6.82482E+00
 -1       145 9.97882E+00
 -1       146 9.19861E+00
 -1       147 6.93848E+00
 -1       148 9.36341E+00
 -1       149 1.03895E+01
 -1       150 9.15659E+00
 -1       151 6.96431E+00
 -1       152 9.72218E+00
 -1       153 1.07989E+01
 -1       154 9.72158E+00
 -1       155 7.09365E+00
 -1       156 9.61530E+00
 -1       157 7.18378E+00
 -1       158 7.39309E+00
 -1       159 9.59385E+00
 -1       160 7.69600E+00
 -1       161 8.35415E+00
 -1       162 8.98866E+00
 -1       163 1.46487E+01
 -1       164 2.91658E+01
 -1       165 9.30785E+00
 -1       166 7.11398E+00
 -1       167 8.67199E+00
 -1       168 1.05156E+01
 -1       169 8.57662E+00
 -1       170 8.52697E+00
 -1       171 8.53591E+00
 -1       172 8.80223E+00
 -1       173 8.81801E+00
 -1       174 6.91673E+00
 -1       175 8.21884E+00
 -1       176 1.00851E+01
 -1       177 8.73795E+00
 -1       178 8.40182E+00
 -1       179 9.58872E+00
 -1       180 8.06855E+00
 -1       181 8.15094E+00
 -1       182 9.87643E+00
 -1       183 9.77303E+00
 -1       184 8.06045E+00
 -1       185 8.34325E+00
 -1       186 1.02606E+01
 -1       187 1.02603E+01
 -1       188 8.40762E+00
 -1       189 8.35448E+00
 -1       190 8.39954E+00
 -1       191 7.28843E+00
 -1       192 8.49347E+00
 -1       193 8.64492E+00
 -1       194 8.02508E+00
 -1       195 8.67140E+00
 -1       196 1.18187E+01
 -1       197 2.19073E+01
 -1       198 2.91658E+01
 -1       199 7.61636E+00
 -1       200 6.69259E+00
 -1       201 1.06501E+01
 -1       202 6.81994E+00
 -1       203 6.88338E+00
 -1       204 6.77334E+00
 -1       205 9.57444E+00
 -1       206 1.06885E+01
 -1       207 6.70963E+00
 -1       208 6.75021E+00
 -1       209 9.50814E+00
 -1       210 1.06190E+01
 -1       211 6.85515E+00
 -1       212 6.83908E+00
 -1       213 6.84410E+00
 -1       214 6.97643E+00
 -1       215 9.34686E+00
 -1       216 1.04238E+01
 -1       217 6.88478E+00
 -1       218 6.89941E+00
 -1       219 7.09371E+00
 -1       220 9.00275E+00
 -1       221 9.95450E+00
 -1       222 8.60723E+00
 -1       223 9.60368E+00
 -1       224 7.41929E+00
 -1       225 7.44799E+00
 -1       226 7.73829E+00
 -1       227 6.72222E+00
 -1       228 7.80756E+00
 -1       229 9.00360E+00
 -1       230 1.45350E+01
 -1       231 2.97054E+01
 -1       232 9.14726E+00
 -1       233 7.15448E+00
 -1       234 8.67132E+00
 -1       235 8.73500E+00
 -1       236 6.85166E+00
 -1       237 6.82836E+00
 -1       238 8.17389E+00
 -1       239 1.01315E+01
 -1       240 8.69906E+00
 -1       241 6.72992E+00
 -1       242 8.12918E+00
 -1       243 1.00636E+01
 -1       244 8.73708E+00
 -1       245 6.84712E+00
 -1       246 6.84159E+00
 -1       247 6.91026E+00
 -1       248 8.16164E+00
 -1       249 9.88532E+00
 -1       250 8.65428E+00
 -1       251 6.89209E+00
 -1       252 6.99656E+00
 -1       253 8.04823E+00
 -1       254 9.47863E+00
 -1       255 9.28087E+00
 -1       256 9.10545E+00
 -1       257 8.51148E+00
 -1       258 7.43364E+00
 -1       259 7.59314E+00
 -1       260 7.23025E+00
 -1       261 7.26489E+00
 -1       262 8.40558E+00
 -1       263 1.17693E+01
 -1       264 2.21202E+01
 -1       265 2.97054E+01
 -1       266 1.15970E+01
 -1       267 1.16130E+01
 -1       268 1.11299E+01
 -1       269 1.17408E+01
 -1       270 1.08425E+01
 -1       271 1.15961E+01
 -1       272 1.11596E+01
 -1       273 1.11622E+01
 -1       274 1.19140E+01
 -1       275 1.10745E+01
 -1       276 1.12276E+01
 -1       277 1.07866E+01
 -1       278 1.19885E+01
 -1       279 1.06641E+01
 -1       280 1.08974E+01
 -1       281 1.13834E+01
 -1       282 1.05644E+01
 -1       283 1.12153E+01
 -1       284 1.10530E+01
 -1       285 1.03795E+01
 -1       286 1.11569E+01
 -1       287 1.11111E+01
 -1       288 1.12307E+01
 -1       289 1.04663E+01
 -1       290 1.08881E+01
 -1       291 1.02301E+01
 -1       292 1.03143E+01
 -1       293 1.12027E+01
 -1       294 1.03925E+01
 -1       295 8.14898E+00
 -1       296 9.40772E+00
 -1       297 1.55843E+01
 -1       298 3.21372E+01
 -1       299 1.24694E+01
 -1       300 1.16050E+01
 -1       301 1.13715E+01
 -1       302 1.14354E+01
 -1       303 1.12917E+01
 -1       304 1.12193E+01
 -1       305 1.13778E+01
 -1       306 1.11609E+01
 -1       307 1.15381E+01
 -1       308 1.14943E+01
 -1       309 1.11510E+01
 -1       310 1.10071E+01
 -1       311 1.13875E+01
 -1       312 1.13263E+01
 -1       313 1.07807E+01
 -1       314 1.11404E+01
 -1       315 1.09739E+01
 -1       316 1.08899E+01
 -1       317 1.11341E+01
 -1       318 1.07162E+01
 -1       319 1.07682E+01
 -1       320 1.11340E+01
 -1       321 1.11709E+01
 -1       322 1.08485E+01
 -1       323 1.06772E+01
 -1       324 1.05591E+01
 -1       325 1.02722E+01
 -1       326 1.07585E+01
 -1       327 1.07976E+01
 -1       328 9.27072E+00
 -1       329 8.77835E+00
 -1       330 1.24960E+01
 -1       331 2.38608E+01
 -1       332 3.21372E+01
 -1       333 1.57028E+01
 -1       334 1.31224E+01
 -1       335 2.51635E+01
 -1       336 1.45678E+01
 -1       337 3.66579E+01
 -1       338 3.84625E+01
 -1       339 1.17289E+01
 -1       340 3.55132E+01
 -1       341 3.84625E+01
 -1       342 3.84625E+01
 -1       343 1.15623E+01
 -1       344 1.11912E+01
 -1       345 1.96476E+01
 -1       346 1.33418E+01
 -1       347 3.66579E+01
 -1       348 1.12753E+01
 -1       349 1.09586E+01
 -1       350 1.21606E+01
 -1       351 1.50509E+01
 -1       352 1.66846E+01
 -1       353 2.13285E+01
 -1       354 1.33418E+01
 -1       355 1.80039E+01
 -1       356 1.23108E+01
 -1       357 1.09347E+01
 -1       358 1.04205E+01
 -1       359 1.19267E+01
 -1       360 1.28609E+01
 -1       361 1.25110E+01
 -1       362 1.71077E+01
 -1       363 1.17387E+01
 -1       364 1.21381E+01
 -1       365 1.38451E+01
 -1       366 1.23424E+01
 -1       367 3.21346E+01
 -1       368 2.56107E+01
 -1       369 2.50124E+01
 -1       370 3.05642E+01
 -1       371 3.21346E+01
 -1       372 3.84625E+01
 -1       373 2.59021E+01
 -1       374 1.06893E+01
 -1       375 1.15043E+01
 -1       376 1.14600E+01
 -1       377 1.34913E+01
 -1       378 1.34913E+01
 -1       379 1.37158E+01
 -1       380 1.45223E+01
 -1       381 2.92614E+01
 -1       382 3.03528E+01
 -1       383 2.75804E+01
 -1       384 2.51780E+01
 -1       385 1.89128E+01
 -1       386 3.03384E+01
 -1       387 1.81774E+01
 -1       388 2.41934E+01
 -1       389 2.61804E+01
 -1       390 2.70826E+01
 -1       391 2.70826E+01
 -1       392 3.84625E+01
 -1       393 3.75602E+01
 -1       394 2.48902E+01
 -1       395 2.56129E+01
 -1       396 2.57925E+01
 -1       397 3.75602E+01
 -1       398 1.84462E+01
 -1       399 3.09107E+01
 -1       400 3.60856E+01
 -1       401 3.60856E+01
 -1       402 2.50405E+01
 -1       403 3.84625E+01
 -1       404 3.75602E+01
 -1       405 3.66579E+01
 -1       406 2.86987E+01
 -1       407 2.92843E+01
 -1       408 2.90712E+01
 -1       409 2.90417E+01
 -1       410 2.73728E+01
 -1       411 2.92843E+01
 -1       412 2.90712E+01
 -1       413 2.90417E+01
 -1       414 2.86987E+01
 -1       415 2.81559E+01
 -1       416 2.90712E+01
 -1       417 2.92843E+01
 -1       418 2.90417E+01
 -1       419 2.86987E+01
 -1       420 2.86567E+01
 -1       421 2.56348E+01
 -1       422 2.91185E+01
 -1       423 2.11607E+01
 -1       424 3.08240E+01
 -1       425 2.56709E+01
 -1       426 2.74186E+01
 -1       427 2.76504E+01
 -1       428 3.04180E+01
 -1       429 2.57170E+01
 -1       430 2.61620E+01
 -1       431 2.94949E+01
 -1       432 2.81736E+01
 -1       433 2.56709E+01
 -1       434 2.37045E+01
 -1       435 2.90417E+01
 -1       436 2.37192E+01
 -1       437 2.56348E+01
 -1       438 2.90564E+01
 -1       439 2.90712E+01
 -1       440 2.11607E+01
 -1       441 2.78366E+01
 -1       442 2.90712E+01
 -1       443 2.76504E+01
 -1       444 2.76504E+01
 -1       445 2.88850E+01
 -1       446 2.86987E+01
 -1       447 2.39935E+01
 -1       448 2.61620E+01
 -1       449 2.92843E+01
 -1       450 2.57170E+01
 -1       451 2.37007E+01
 -1       452 2.89915E+01
 -1       453 2.86987E+01
 -1       454 2.80523E+01
 -1       455 2.74186E+01
 -1       456 2.90417E+01
 -1       457 2.81736E+01
 -1       458 2.81736E+01
 -1       459 2.91630E+01
 -1       460 2.92843E+01
 -1       461 2.88639E+01
 -1       462 2.86777E+01
 -1       463 2.84273E+01
 -1       464 2.84273E+01
 -1       465 2.86987E+01
 -1       466 2.84063E+01
 -1       467 2.83286E+01
 -1       468 2.82072E+01
 -1       469 2.92843E+01
 -1       470 2.83286E+01
 -1       471 2.90712E+01
 -1       472 2.88639E+01
 -1       473 2.88492E+01
 -1       474 2.82072E+01
 -1       475 2.90417E+01
 -1       476 2.87201E+01
 -1       477 2.77643E+01
 -1       478 2.80147E+01
 -1       479 1.07919E+01
 -1       480 1.11653E+01
 -1       481 1.28065E+01
 -1       482 1.13121E+01
 -1       483 1.07370E+01
 -1       484 1.70115E+01
 -1       485 1.28338E+01
 -1       486 1.04208E+01
 -1       487 1.26734E+01
 -1       488 1.33728E+01
 -1       489 1.03491E+01
 -1       490 1.34533E+01
 -1       491 1.17314E+01
 -1       492 1.21216E+01
 -1       493 1.09886E+01
 -1       494 1.33368E+01
 -1       495 2.34487E+01
 -1       496 1.86889E+01
 -1       497 1.31981E+01
 -1       498 1.09705E+01
 -1       499 1.90227E+01
 -1       500 1.15550E+01
 -1       501 1.92265E+01
 -1       502 9.39871E+00
 -1       503 1.15512E+01
 -1       504 2.36582E+01
 -1       505 9.08974E+00
 -1       506 9.73131E+00
 -1       507 8.53711E+00
 -1       508 1.75488E+01
 -1       509 1.20560E+01
 -1       510 1.02291E+01
 -1       511 1.96918E+01
 -1       512 1.11524E+01
 -1       513 1.68899E+01
 -1       514 1.33387E+01
 -1       515 1.26562E+01
 -1       516 1.01857E+01
 -1       517 9.61163E+00
 -1       518 1.30479E+01
 -1       519 1.50240E+01
 -1       520 1.22077E+01
 -1       521 1.95564E+01
 -1       522 1.92653E+01
 -1       523 1.19236E+01
 -1       524 1.24873E+01
 -1       525 1.05678E+01
 -1       526 1.22200E+01
 -1       527 1.17073E+01
 -1       528 1.23238E+01
 -1       529 1.11810E+01
 -1       530 1.23071E+01
 -1       531 1.13706E+01
 -1       532 1.03231E+01
 -1       533 1.23071E+01
 -1       534 1.96158E+01
 -1       535 1.39412E+01
 -1       536 1.83767E+01
 -1       537 1.20968E+01
 -1       538 9.78921E+00
 -1       539 1.32027E+01
 -1       540 1.01696E+01
 -1       541 2.02968E+01
 -1       542 1.98896E+01
 -1       543 9.81046E+00
 -1       544 1.03550E+01
 -1       545 1.13780E+01
 -1       546 1.31951E+01
 -1       547 1.32086E+01
 -1       548 1.64251E+01
 -1       549 1.31981E+01
 -1       550 1.95898E+01
 -1       551 1.68389E+01
 -1       552 1.73092E+01
 -1       553 1.75488E+01
 -1       554 1.50215E+01
 -1       555 1.72330E+01
 -1       556 1.23292E+01
 -1       557 1.88431E+01
 -1       558 1.58995E+01
 -1       559 1.35151E+01
 -1       560 1.39412E+01
 -1       561 1.22137E+01
 -1       562 1.94743E+01
 -1       563 1.23410E+01
 -1       564 1.91239E+01
 -1       565 1.97957E+01
 -1       566 1.27130E+01
 -1       567 1.37753E+01
 -1       568 1.90383E+01
 -1       569 1.97209E+01
 -1       570 1.31060E+01
 -1       571 1.93317E+01
 -1       572 1.87001E+01
 -1       573 9.42720E+00
 -1       574 1.88694E+01
 -1       575 2.34487E+01
 -1       576 1.36839E+01
 -1       577 2.24509E+01
 -1       578 2.01651E+01
 -1       579 9.54704E+00
 -1       580 1.32310E+01
 -1       581 3.26063E+01
 -1       582 2.91658E+01
 -1       583 1.87820E+01
 -1       584 9.95101E+00
 -1       585 1.02677E+01
 -1       586 8.58718E+00
 -1       587 1.34764E+01
 -1       588 1.18426E+01
 -1       589 1.23947E+01
 -1       590 2.91658E+01
 -1       591 2.56821E+01
 -1       592 2.91658E+01
 -1       593 2.74533E+01
 -1       594 3.26063E+01
 -1       595 3.26063E+01
 -1       596 1.10027E+01
 -1       597 1.13525E+01
 -1       598 1.23911E+01
 -1       599 1.07544E+01
 -1       600 1.03550E+01
 -1       601 1.09531E+01
 -1       602 9.95101E+00
 -1       603 2.09080E+01
 -1       604 2.28745E+01
 -1       605 2.80275E+01
 -1       606 2.29283E+01
 -1       607 2.10127E+01
 -1       608 2.35535E+01
 -1       609 2.64120E+01
 -1       610 1.26042E+01
 -1       611 1.26211E+01
 -1       612 1.34575E+01
 -1       613 1.21144E+01
 -1       614 1.24307E+01
 -1       615 1.35104E+01
 -1       616 1.57608E+01
 -1       617 1.52918E+01
 -1       618 1.65143E+01
 -1       619 1.10255E+01
 -1       620 1.14912E+01
 -1       621 1.54221E+01
 -1       622 1.21076E+01
 -1       623 1.17860E+01
 -1       624 1.19129E+01
 -1       625 1.53504E+01
 -1       626 1.55788E+01
 -1       627 1.61446E+01
 -1       628 1.22281E+01
 -1       629 1.22289E+01
 -1       630 1.64943E+01
 -1       631 1.57267E+01
 -1       632 1.53199E+01
 -1       633 1.64646E+01
 -1       634 1.15575E+01
 -1       635 1.20093E+01
 -1       636 1.58390E+01
 -1       637 1.15964E+01
 -1       638 1.15451E+01
 -1       639 1.21092E+01
 -1       640 1.23253E+01
 -1       641 1.22746E+01
 -1       642 1.27751E+01
 -1       643 1.56325E+01
 -1       644 1.52313E+01
 -1       645 1.63593E+01
 -1       646 1.13022E+01
 -1       647 1.19616E+01
 -1       648 1.55945E+01
 -1       649 1.13345E+01
 -1       650 1.12061E+01
 -1       651 1.18275E+01
 -1       652 1.18603E+01
 -1       653 1.16307E+01
 -1       654 1.20276E+01
 -1       655 1.49395E+01
 -1       656 1.50429E+01
 -1       657 1.55063E+01
 -1       658 1.21068E+01
 -1       659 1.21190E+01
 -1       660 1.58684E+01
 -1       661 1.53153E+01
 -1       662 1.47712E+01
 -1       663 1.57123E+01
 -1       664 1.08415E+01
 -1       665 1.17829E+01
 -1       666 1.48444E+01
 -1       667 1.18191E+01
 -1       668 1.12894E+01
 -1       669 1.17599E+01
 -1       670 1.38950E+01
 -1       671 1.44896E+01
 -1       672 1.48783E+01
 -1       673 1.22714E+01
 -1       674 1.17220E+01
 -1       675 1.53757E+01
 -1       676 1.06094E+01
 -1       677 1.10660E+01
 -1       678 1.19973E+01
 -1       679 1.17739E+01
 -1       680 1.15415E+01
 -1       681 1.17241E+01
 -1       682 1.11425E+01
 -1       683 1.14738E+01
 -1       684 1.23561E+01
 -1       685 1.10137E+01
 -1       686 1.09681E+01
 -1       687 1.18817E+01
 -1       688 1.11653E+01
 -1       689 1.07427E+01
 -1       690 1.14363E+01
 -1       691 1.13504E+01
 -1       692 1.17362E+01
 -1       693 1.17362E+01
 -1       694 1.03596E+01
 -1       695 1.13504E+01
 -1       696 1.23071E+01
 -1       697 1.15267E+01
 -1       698 1.08051E+01
 -1       699 1.27526E+01
 -1       700 1.50989E+01
 -1       701 1.15970E+01
 -1       702 1.32684E+01
 -1       703 2.80275E+01
 -1       704 2.01539E+01
 -1       705 1.83937E+01
 -1       706 2.80275E+01
 -1       707 9.30794E+00
 -1       708 8.79461E+00
 -1       709 1.02678E+01
 -1       710 8.41487E+00
 -1       711 1.04862E+01
 -1       712 1.06088E+01
 -1       713 1.05462E+01
 -1       714 1.03184E+01
 -1       715 1.02891E+01
 -1       716 1.33565E+01
 -1       717 1.16453E+01
 -1       718 1.33871E+01
 -1       719 8.33793E+00
 -1       720 9.99949E+00
 -1       721 1.31178E+01
 -1       722 1.05795E+01
 -1       723 8.92691E+00
 -1       724 1.03905E+01
 -1       725 8.60322E+00
 -1       726 1.05222E+01
 -1       727 1.06468E+01
 -1       728 1.49738E+01
 -1       729 1.30707E+01
 -1       730 1.47748E+01
 -1       731 9.14273E+00
 -1       732 9.14462E+00
 -1       733 1.52986E+01
 -1       734 8.15866E+00
 -1       735 9.45889E+00
 -1       736 1.03847E+01
 -1       737 1.00434E+01
 -1       738 1.06094E+01
 -1       739 9.98326E+00
 -1       740 1.48369E+01
 -1       741 1.29237E+01
 -1       742 1.47952E+01
 -1       743 9.10142E+00
 -1       744 1.06784E+01
 -1       745 1.52003E+01
 -1       746 9.70301E+00
 -1       747 9.31291E+00
 -1       748 1.04026E+01
 -1       749 1.03768E+01
 -1       750 9.24672E+00
 -1       751 1.04911E+01
 -1       752 8.27505E+00
 -1       753 9.48752E+00
 -1       754 1.05833E+01
 -1       755 9.89209E+00
 -1       756 1.04051E+01
 -1       757 1.00162E+01
 -1       758 1.00893E+01
 -1       759 9.47290E+00
 -1       760 1.01050E+01
 -1       761 8.84685E+00
 -1       762 7.75071E+00
 -1       763 9.16316E+00
 -1       764 1.09941E+01
 -1       765 1.23731E+01
 -1       766 1.17805E+01
 -1       767 1.02296E+01
 -1       768 1.07679E+01
 -1       769 1.28805E+01
 -1       770 1.04843E+01
 -1       771 9.94561E+00
 -1       772 1.04533E+01
 -1       773 9.40566E+00
 -1       774 8.09170E+00
 -1       775 9.62969E+00
 -1       776 8.63966E+00
 -1       777 9.90048E+00
 -1       778 9.63770E+00
 -1       779 1.33134E+01
 -1       780 1.20976E+01
 -1       781 1.35986E+01
 -1       782 9.70189E+00
 -1       783 9.80655E+00
 -1       784 1.46157E+01
 -1       785 8.56220E+00
 -1       786 9.66258E+00
 -1       787 1.09757E+01
 -1       788 1.17675E+01
 -1       789 1.08186E+01
 -1       790 1.18363E+01
 -1       791 1.02649E+01
 -1       792 1.05940E+01
 -1       793 1.33875E+01
 -1       794 9.76759E+00
 -1       795 1.00848E+01
 -1       796 1.20074E+01
 -1       797 1.08976E+01
 -1       798 1.37276E+01
 -1       799 1.19937E+01
 -1       800 1.85498E+01
 -1       801 2.58084E+01
 -1       802 1.76287E+01
 -1       803 2.58084E+01
 -1       804 1.28811E+01
 -1       805 1.19490E+01
 -1       806 1.15605E+01
 -1       807 1.27659E+01
 -1       808 1.27176E+01
 -1       809 1.40021E+01
 -1       810 1.42731E+01
 -1       811 1.36643E+01
 -1       812 1.30934E+01
 -1       813 1.59302E+01
 -1       814 1.21895E+01
 -1       815 1.30023E+01
 -1       816 1.30075E+01
 -1       817 1.32033E+01
 -1       818 1.78297E+01
 -1       819 1.40536E+01
 -1       820 1.36058E+01
 -1       821 1.42725E+01
 -1       822 1.78049E+01
 -1       823 1.65662E+01
 -1       824 1.69335E+01
 -1       825 1.47900E+01
 -1       826 1.41429E+01
 -1       827 1.38592E+01
 -1       828 1.81959E+01
 -1       829 1.11997E+01
 -1       830 1.46126E+01
 -1       831 1.71604E+01
 -1       832 1.47646E+01
 -1       833 1.47615E+01
 -1       834 1.31745E+01
 -1       835 1.23481E+01
 -1       836 1.39412E+01
 -1       837 1.33875E+01
 -1       838 1.37282E+01
 -1       839 1.44717E+01
 -1       840 1.48762E+01
 -1       841 1.49475E+01
 -1       842 1.46318E+01
 -1       843 1.94030E+01
 -1       844 1.47817E+01
 -1       845 1.40212E+01
 -1       846 1.61316E+01
 -1       847 1.82399E+01
 -1       848 1.96028E+01
 -1       849 1.96760E+01
 -1       850 1.65843E+01
 -1       851 1.62483E+01
 -1       852 1.93699E+01
 -1       853 1.94598E+01
 -1       854 1.50593E+01
 -1       855 1.51193E+01
 -1       856 1.93795E+01
 -1       857 1.46092E+01
 -1       858 1.76472E+01
 -1       859 1.94931E+01
 -1       860 1.65871E+01
 -1       861 1.36143E+01
 -1       862 1.29360E+01
 -1       863 1.67481E+01
 -1       864 1.21094E+01
 -1       865 1.22055E+01
 -1       866 1.24633E+01
 -1       867 1.28412E+01
 -1       868 1.27594E+01
 -1       869 1.55799E+01
 -1       870 1.92973E+01
 -1       871 1.24049E+01
 -1       872 1.24173E+01
 -1       873 1.58756E+01
 -1       874 1.56427E+01
 -1       875 1.52629E+01
 -1       876 1.55768E+01
 -1       877 2.02310E+01
 -1       878 1.06718E+01
 -1       879 1.52600E+01
 -1       880 1.97907E+01
 -1       881 1.66132E+01
 -1       882 1.68168E+01
 -1       883 2.00932E+01
 -1       884 1.69904E+01
 -1       885 1.83287E+01
 -1       886 1.32736E+01
 -1       887 2.11154E+01
 -1       888 1.59953E+01
 -1       889 2.34487E+01
 -1       890 2.11154E+01
 -1       891 1.61898E+01
 -1       892 1.90103E+01
 -1       893 1.55149E+01
 -1       894 1.23324E+01
 -1       895 1.58363E+01
 -1       896 1.32684E+01
 -1       897 1.31981E+01
 -1       898 1.33566E+01
 -1       899 1.29111E+01
 -1       900 1.33566E+01
 -1       901 1.50472E+01
 -1       902 1.47235E+01
 -1       903 1.47001E+01
 -1       904 1.52802E+01
 -1       905 1.93568E+01
 -1       906 1.51444E+01
 -1       907 1.93718E+01
 -1       908 1.88614E+01
 -1       909 1.50391E+01
 -1       910 1.92105E+01
 -1       911 1.19480E+01
 -1       912 1.09763E+01
 -1       913 1.23750E+01
 -1       914 1.27680E+01
 -1       915 1.13111E+01
 -1       916 1.91324E+01
 -1       917 1.52045E+01
 -1       918 1.50594E+01
 -1       919 1.95111E+01
 -1       920 1.94170E+01
 -1       921 1.15870E+01
 -1       922 1.21715E+01
 -1       923 1.20418E+01
 -1       924 1.10559E+01
 -1       925 1.32441E+01
 -1       926 1.58581E+01
 -1       927 1.26175E+01
 -1       928 1.69245E+01
 -1       929 2.12201E+01
 -1       930 2.30545E+01
 -1       931 2.06165E+01
 -1       932 1.10979E+01
 -1       933 1.16458E+01
 -1       934 1.12494E+01
 -1       935 1.07094E+01
 -1       936 1.45295E+01
 -1       937 1.32851E+01
 -1       938 1.23764E+01
 -1       939 1.44814E+01
 -1       940 1.22183E+01
 -1       941 1.54617E+01
 -1       942 1.35111E+01
 -1       943 1.28851E+01
 -1       944 1.81959E+01
 -1       945 1.55254E+01
 -1       946 1.53757E+01
 -1       947 1.75488E+01
 -1       948 1.21349E+01
 -1       949 1.24350E+01
 -1       950 1.45083E+01
 -1       951 1.46826E+01
 -1       952 1.50109E+01
 -1       953 1.92806E+01
 -1       954 1.78796E+01
 -1       955 1.33502E+01
 -1       956 1.66575E+01
 -1       957 1.26599E+01
 -1       958 1.89255E+01
 -1       959 1.62611E+01
 -1       960 1.73713E+01
 -1       961 1.53119E+01
 -1       962 1.89827E+01
 -1       963 1.55937E+01
 -1       964 1.19327E+01
 -1       965 1.09573E+01
 -1       966 1.70741E+01
 -1       967 1.31242E+01
 -1       968 1.31242E+01
 -1       969 1.44814E+01
 -1       970 1.83537E+01
 -1       971 1.49390E+01
 -1       972 9.43366E+00
 -1       973 1.53498E+01
 -1       974 1.20028E+01
 -1       975 1.16326E+01
 -1       976 9.78821E+00
 -1       977 1.70498E+01
 -1       978 1.22919E+01
 -1       979 1.31220E+01
 -1       980 1.09371E+01
 -1       981 1.05463E+01
 -1       982 1.28945E+01
 -1       983 1.05512E+01
 -1       984 1.84648E+01
 -1       985 1.13609E+01
 -1       986 1.33445E+01
 -1       987 9.97126E+00
 -1       988 2.11763E+01
 -1       989 1.25445E+01
 -1       990 9.75883E+00
 -1       991 1.03574E+01
 -1       992 1.20230E+01
 -1       993 1.16972E+01
 -1       994 1.29455E+01
 -1       995 1.96049E+01
 -1       996 1.92406E+01
 -1       997 1.22896E+01
 -1       998 1.95548E+01
 -1       999 1.22418E+01
 -1      1000 1.14256E+01
 -1      1001 2.29178E+01
 -1      1002 1.29379E+01
 -1      1003 1.15186E+01
 -1      1004 1.16022E+01
 -1      1005 1.34616E+01
 -1      1006 1.22313E+01
 -1      1007 1.01285E+01
 -1      1008 1.12027E+01
 -1      1009 1.21092E+01
 -1      1010 1.86750E+01
 -1      1011 1.04531E+01
 -1      1012 1.12608E+01
 -1      1013 1.83551E+01
 -1      1014 1.92423E+01
 -1      1015 1.90488E+01
 -1      1016 1.13384E+01
 -1      1017 1.99442E+01
 -1      1018 1.34714E+01
 -1      1019 1.34102E+01
 -1      1020 1.24051E+01
 -1      1021 1.14524E+01
 -1      1022 1.11839E+01
 -1      1023 1.18297E+01
 -1      1024 1.21393E+01
 -1      1025 1.33778E+01
 -1      1026 1.19018E+01
 -1      1027 1.06749E+01
 -1      1028 1.08256E+01
 -1      1029 1.16908E+01
 -1      1030 9.40531E+00
 -1      1031 1.22919E+01
 -1      1032 1.01432E+01
 -1      1033 1.20553E+01
 -1      1034 1.88254E+01
 -1      1035 2.00358E+01
 -1      1036 1.26186E+01
 -1      1037 1.16756E+01
 -1      1038 1.19196E+01
 -1      1039 1.81689E+01
 -1      1040 1.28660E+01
 -1      1041 1.29274E+01
 -1      1042 1.11839E+01
 -1      1043 1.25840E+01
 -1      1044 1.63106E+01
 -1      1045 1.43088E+01
 -1      1046 1.21847E+01
 -1      1047 1.33024E+01
 -1      1048 1.19286E+01
 -1      1049 1.93600E+01
 -1      1050 1.88825E+01
 -1      1051 1.26599E+01
 -1      1052 1.18297E+01
 -1      1053 1.73194E+01
 -1      1054 1.23029E+01
 -1      1055 1.95487E+01
 -1      1056 1.97980E+01
 -1      1057 1.79958E+01
 -1      1058 1.27247E+01
 -1      1059 1.37544E+01
 -1      1060 1.90468E+01
 -1      1061 1.30712E+01
 -1      1062 1.29719E+01
 -1      1063 1.97235E+01
 -1      1064 1.93278E+01
 -1      1065 1.87408E+01
 -1      1066 1.17143E+01
 -1      1067 1.91270E+01
 -1      1068 2.36853E+01
 -1      1069 1.08525E+01
 -1      1070 2.29178E+01
 -1      1071 1.86989E+01
 -1      1072 1.32890E+01
 -1      1073 1.00001E+01
 -1      1074 2.97054E+01
 -1      1075 3.21372E+01
 -1      1076 2.10279E+01
 -1      1077 1.33154E+01
 -1      1078 1.22844E+01
 -1      1079 1.24430E+01
 -1      1080 9.82489E+00
 -1      1081 1.03391E+01
 -1      1082 8.80821E+00
 -1      1083 2.74362E+01
 -1      1084 3.21372E+01
 -1      1085 3.21372E+01
 -1      1086 2.97054E+01
 -1      1087 2.63726E+01
 -1      1088 2.97054E+01
 -1      1089 1.13527E+01
 -1      1090 1.05377E+01
 -1      1091 1.07128E+01
 -1      1092 1.14777E+01
 -1      1093 1.14777E+01
 -1      1094 1.15506E+01
 -1      1095 1.24823E+01
 -1      1096 2.33625E+01
 -1      1097 2.11940E+01
 -1      1098 2.66954E+01
 -1      1099 2.08103E+01
 -1      1100 2.28265E+01
 -1      1101 2.33016E+01
 -1      1102 2.75275E+01
 -1      1103 9.23442E+00
 -1      1104 8.77253E+00
 -1      1105 1.04263E+01
 -1      1106 8.33192E+00
 -1      1107 1.03107E+01
 -1      1108 1.04119E+01
 -1      1109 1.10843E+01
 -1      1110 9.16928E+00
 -1      1111 1.07449E+01
 -1      1112 9.21108E+00
 -1      1113 9.24280E+00
 -1      1114 1.15604E+01
 -1      1115 8.91026E+00
 -1      1116 8.85524E+00
 -1      1117 1.12697E+01
 -1      1118 8.79947E+00
 -1      1119 1.02000E+01
 -1      1120 1.08814E+01
 -1      1121 1.00604E+01
 -1      1122 1.06174E+01
 -1      1123 1.06860E+01
 -1      1124 1.49654E+01
 -1      1125 1.29760E+01
 -1      1126 1.48943E+01
 -1      1127 9.03525E+00
 -1      1128 9.05554E+00
 -1      1129 1.53016E+01
 -1      1130 8.07776E+00
 -1      1131 9.45673E+00
 -1      1132 1.03831E+01
 -1      1133 1.00297E+01
 -1      1134 1.05851E+01
 -1      1135 9.97824E+00
 -1      1136 1.48339E+01
 -1      1137 1.29520E+01
 -1      1138 1.48000E+01
 -1      1139 9.09679E+00
 -1      1140 9.08875E+00
 -1      1141 1.51936E+01
 -1      1142 1.26520E+01
 -1      1143 1.26545E+01
 -1      1144 1.49016E+01
 -1      1145 9.14825E+00
 -1      1146 9.21441E+00
 -1      1147 1.49586E+01
 -1      1148 8.36763E+00
 -1      1149 9.55285E+00
 -1      1150 1.06056E+01
 -1      1151 9.90001E+00
 -1      1152 1.04385E+01
 -1      1153 1.01060E+01
 -1      1154 1.10573E+01
 -1      1155 9.28777E+00
 -1      1156 1.10720E+01
 -1      1157 9.25871E+00
 -1      1158 9.26602E+00
 -1      1159 1.16617E+01
 -1      1160 9.08011E+00
 -1      1161 9.17726E+00
 -1      1162 1.14467E+01
 -1      1163 8.44096E+00
 -1      1164 9.39548E+00
 -1      1165 1.05245E+01
 -1      1166 9.57296E+00
 -1      1167 1.00488E+01
 -1      1168 9.96569E+00
 -1      1169 9.69408E+00
 -1      1170 9.02044E+00
 -1      1171 9.78841E+00
 -1      1172 9.36788E+00
 -1      1173 9.86610E+00
 -1      1174 9.78109E+00
 -1      1175 1.33268E+01
 -1      1176 1.22346E+01
 -1      1177 1.35892E+01
 -1      1178 9.91222E+00
 -1      1179 9.92657E+00
 -1      1180 1.47275E+01
 -1      1181 1.13989E+01
 -1      1182 1.15441E+01
 -1      1183 1.38775E+01
 -1      1184 9.82002E+00
 -1      1185 9.31199E+00
 -1      1186 1.36258E+01
 -1      1187 9.27598E+00
 -1      1188 9.81865E+00
 -1      1189 1.18658E+01
 -1      1190 9.08248E+00
 -1      1191 9.68050E+00
 -1      1192 1.10936E+01
 -1      1193 1.06174E+01
 -1      1194 1.33832E+01
 -1      1195 1.12943E+01
 -1      1196 1.78557E+01
 -1      1197 2.54409E+01
 -1      1198 1.67038E+01
 -1      1199 2.54409E+01
 -1      1200 1.24788E+01
 -1      1201 1.24708E+01
 -1      1202 1.33168E+01
 -1      1203 1.20339E+01
 -1      1204 1.22755E+01
 -1      1205 1.31412E+01
 -1      1206 1.23177E+01
 -1      1207 1.20122E+01
 -1      1208 1.29162E+01
 -1      1209 1.18850E+01
 -1      1210 1.23341E+01
 -1      1211 1.29109E+01
 -1      1212 1.21073E+01
 -1      1213 1.17306E+01
 -1      1214 1.27730E+01
 -1      1215 1.53823E+01
 -1      1216 1.56005E+01
 -1      1217 1.61118E+01
 -1      1218 1.22700E+01
 -1      1219 1.22687E+01
 -1      1220 1.64914E+01
 -1      1221 1.57344E+01
 -1      1222 1.53585E+01
 -1      1223 1.64663E+01
 -1      1224 1.16069E+01
 -1      1225 1.20267E+01
 -1      1226 1.58471E+01
 -1      1227 1.17347E+01
 -1      1228 1.16582E+01
 -1      1229 1.21906E+01
 -1      1230 1.21290E+01
 -1      1231 1.23495E+01
 -1      1232 1.28566E+01
 -1      1233 1.56145E+01
 -1      1234 1.50136E+01
 -1      1235 1.63560E+01
 -1      1236 1.12918E+01
 -1      1237 1.19540E+01
 -1      1238 1.55801E+01
 -1      1239 1.13058E+01
 -1      1240 1.11892E+01
 -1      1241 1.18170E+01
 -1      1242 1.18365E+01
 -1      1243 1.15935E+01
 -1      1244 1.20020E+01
 -1      1245 1.46197E+01
 -1      1246 1.50292E+01
 -1      1247 1.54823E+01
 -1      1248 1.21686E+01
 -1      1249 1.18432E+01
 -1      1250 1.58985E+01
 -1      1251 1.47040E+01
 -1      1252 1.47852E+01
 -1      1253 1.57385E+01
 -1      1254 1.12444E+01
 -1      1255 1.15811E+01
 -1      1256 1.52321E+01
 -1      1257 1.15899E+01
 -1      1258 1.12012E+01
 -1      1259 1.20661E+01
 -1      1260 1.22606E+01
 -1      1261 1.22836E+01
 -1      1262 1.27166E+01
 -1      1263 1.20881E+01
 -1      1264 1.20283E+01
 -1      1265 1.31779E+01
 -1      1266 1.05706E+01
 -1      1267 1.09528E+01
 -1      1268 1.18102E+01
 -1      1269 1.17163E+01
 -1      1270 1.15054E+01
 -1      1271 1.16097E+01
 -1      1272 1.11427E+01
 -1      1273 1.14717E+01
 -1      1274 1.22999E+01
 -1      1275 1.10057E+01
 -1      1276 1.09636E+01
 -1      1277 1.18762E+01
 -1      1278 1.12027E+01
 -1      1279 1.07585E+01
 -1      1280 1.14500E+01
 -1      1281 1.13422E+01
 -1      1282 1.17473E+01
 -1      1283 1.17473E+01
 -1      1284 1.02204E+01
 -1      1285 1.13422E+01
 -1      1286 1.22919E+01
 -1      1287 1.02958E+01
 -1      1288 9.66645E+00
 -1      1289 1.17379E+01
 -1      1290 1.37936E+01
 -1      1291 1.07052E+01
 -1      1292 1.15933E+01
 -1      1293 2.75275E+01
 -1      1294 1.92511E+01
 -1      1295 1.74603E+01
 -1      1296 2.75275E+01
 -1      1297 1.12028E+01
 -1      1298 1.15502E+01
 -1      1299 1.14015E+01
 -1      1300 1.10468E+01
 -1      1301 1.28159E+01
 -1      1302 1.43579E+01
 -1      1303 1.58302E+01
 -1      1304 1.48293E+01
 -1      1305 1.31053E+01
 -1      1306 1.53097E+01
 -1      1307 1.15933E+01
 -1      1308 1.11839E+01
 -1      1309 1.20249E+01
 -1      1310 1.24344E+01
 -1      1311 1.78919E+01
 -1      1312 1.23519E+01
 -1      1313 1.21660E+01
 -1      1314 1.48433E+01
 -1      1315 1.48142E+01
 -1      1316 1.55335E+01
 -1      1317 1.15947E+01
 -1      1318 1.08584E+01
 -1      1319 1.43353E+01
 -1      1320 1.45128E+01
 -1      1321 1.54056E+01
 -1      1322 1.11566E+01
 -1      1323 1.46173E+01
 -1      1324 1.71846E+01
 -1      1325 1.48623E+01
 -1      1326 1.47521E+01
 -1      1327 1.22432E+01
 -1      1328 1.27972E+01
 -1      1329 1.20608E+01
 -1      1330 1.20608E+01
 -1      1331 1.25661E+01
 -1      1332 1.62249E+01
 -1      1333 1.90014E+01
 -1      1334 1.88575E+01
 -1      1335 1.62410E+01
 -1      1336 1.93439E+01
 -1      1337 1.25319E+01
 -1      1338 1.21994E+01
 -1      1339 1.30228E+01
 -1      1340 1.17606E+01
 -1      1341 1.17048E+01
 -1      1342 1.51722E+01
 -1      1343 1.95202E+01
 -1      1344 1.51871E+01
 -1      1345 1.50475E+01
 -1      1346 1.96733E+01
 -1      1347 1.64651E+01
 -1      1348 1.64868E+01
 -1      1349 1.60108E+01
 -1      1350 1.95814E+01
 -1      1351 1.60272E+01
 -1      1352 1.51373E+01
 -1      1353 1.93862E+01
 -1      1354 1.15799E+01
 -1      1355 1.21528E+01
 -1      1356 1.67390E+01
 -1      1357 1.56413E+01
 -1      1358 1.92045E+01
 -1      1359 1.90565E+01
 -1      1360 1.83169E+01
 -1      1361 1.48106E+01
 -1      1362 1.91446E+01
 -1      1363 1.52038E+01
 -1      1364 1.20428E+01
 -1      1365 1.10650E+01
 -1      1366 1.58858E+01
 -1      1367 1.58816E+01
 -1      1368 1.60849E+01
 -1      1369 1.87621E+01
 -1      1370 1.60217E+01
 -1      1371 1.51873E+01
 -1      1372 1.25101E+01
 -1      1373 1.50035E+01
 -1      1374 1.57772E+01
 -1      1375 1.94306E+01
 -1      1376 1.43983E+01
 -1      1377 1.48389E+01
 -1      1378 1.25486E+01
 -1      1379 1.70211E+01
 -1      1380 1.69469E+01
 -1      1381 2.11021E+01
 -1      1382 2.24308E+01
 -1      1383 2.23566E+01
 -1      1384 1.27582E+01
 -1      1385 1.18234E+01
 -1      1386 1.21200E+01
 -1      1387 1.23646E+01
 -1      1388 1.25783E+01
 -1      1389 1.45433E+01
 -1      1390 1.48905E+01
 -1      1391 1.18777E+01
 -1      1392 1.10309E+01
 -1      1393 1.58154E+01
 -1      1394 1.07707E+01
 -1      1395 1.17076E+01
 -1      1396 1.25661E+01
 -1      1397 1.18299E+01
 -1      1398 1.22432E+01
 -1      1399 1.25471E+01
 -1      1400 1.25902E+01
 -1      1401 1.26694E+01
 -1      1402 1.19758E+01
 -1      1403 1.24999E+01
 -1      1404 1.37567E+01
 -1      1405 1.40039E+01
 -1      1406 1.45083E+01
 -1      1407 1.46873E+01
 -1      1408 1.68150E+01
 -1      1409 1.59140E+01
 -1      1410 1.61463E+01
 -1      1411 1.16674E+01
 -1      1412 1.28027E+01
 -1      1413 1.57712E+01
 -1      1414 1.64633E+01
 -1      1415 1.95768E+01
 -1      1416 1.60945E+01
 -1      1417 1.26013E+01
 -1      1418 1.60663E+01
 -1      1419 1.94821E+01
 -1      1420 1.65974E+01
 -1      1421 1.53302E+01
 -1      1422 1.89907E+01
 -1      1423 1.92322E+01
 -1      1424 1.54890E+01
 -1      1425 1.22963E+01
 -1      1426 1.52359E+01
 -1      1427 1.52293E+01
 -1      1428 1.49416E+01
 -1      1429 1.55931E+01
 -1      1430 1.93008E+01
 -1      1431 1.96764E+01
 -1      1432 1.65879E+01
 -1      1433 1.94224E+01
 -1      1434 1.36129E+01
 -1      1435 1.29981E+01
 -1      1436 1.24833E+01
 -1      1437 1.24320E+01
 -1      1438 1.32396E+01
 -1      1439 1.50623E+01
 -1      1440 1.47757E+01
 -1      1441 1.11390E+01
 -1      1442 2.19729E+01
 -1      1443 2.29178E+01
 -1      1444 2.19729E+01
 -1      1445 1.53228E+01
 -1      1446 1.53646E+01
 -1      1447 1.62943E+01
 -1      1448 1.31945E+01
 -1      1449 1.30401E+01
 -1      1450 1.33003E+01
 -1      1451 1.27558E+01
 -1      1452 1.50525E+01
 -1      1453 1.81754E+01
 -1      1454 1.49066E+01
 -1      1455 1.55254E+01
 -1      1456 1.86779E+01
 -1      1457 1.88948E+01
 -1      1458 1.50396E+01
 -1      1459 1.93425E+01
 -1      1460 1.59319E+01
 -1      1461 1.58292E+01
 -1      1462 1.18658E+01
 -1      1463 1.18297E+01
 -1      1464 1.30693E+01
 -1      1465 1.57388E+01
 -1      1466 1.20328E+01
 -1      1467 1.19018E+01
 -1      1468 1.04030E+01
 -1      1469 1.75331E+01
 -1      1470 1.03829E+01
 -1      1471 1.92113E+01
 -1      1472 1.31441E+01
 -1      1473 2.45087E+01
 -1      1474 2.61522E+01
 -1      1475 1.26778E+01
 -1      1476 2.14351E+01
 -1      1477 2.35721E+01
 -1      1478 1.28711E+01
 -1      1479 1.11790E+01
 -1      1480 1.23071E+01
 -1      1481 1.45350E+01
 -1      1482 1.20274E+01
 -1      1483 9.50242E+00
 -1      1484 1.20001E+01
 -1      1485 2.27593E+01
 -1      1486 1.85894E+01
 -1      1487 1.27661E+01
 -1      1488 2.87193E+01
 -1      1489 2.57955E+01
 -1      1490 1.24051E+01
 -1      1491 1.44989E+01
 -1      1492 2.49634E+01
 -1      1493 1.30834E+01
 -1      1494 1.30436E+01
 -1      1495 2.82980E+01
 -1      1496 1.02096E+01
 -1      1497 1.72139E+01
 -1      1498 1.69633E+01
 -1      1499 2.25270E+01
 -1      1500 1.11653E+01
 -1      1501 1.06847E+01
 -1      1502 2.04765E+01
 -1      1503 2.05738E+01
 -1      1504 2.56691E+01
 -1      1505 9.28241E+00
 -1      1506 2.29138E+01
 -1      1507 1.29061E+01
 -1      1508 1.82374E+01
 -1      1509 2.43605E+01
 -1      1510 2.34307E+01
 -1      1511 2.72404E+01
 -1      1512 9.60123E+00
 -1      1513 1.20891E+01
 -1      1514 2.48275E+01
 -1      1515 2.77160E+01
 -1      1516 1.31530E+01
 -1      1517 2.53722E+01
 -1      1518 2.17275E+01
 -1      1519 1.26701E+01
 -1      1520 1.43593E+01
 -1      1521 1.92035E+01
 -1      1522 1.10040E+01
 -1      1523 1.40219E+01
 -1      1524 1.11787E+01
 -1      1525 2.72771E+01
 -1      1526 2.69462E+01
 -1      1527 2.51924E+01
 -1      1528 1.19901E+01
 -1      1529 1.18598E+01
 -1      1530 1.29413E+01
 -1      1531 1.27438E+01
 -1      1532 1.29727E+01
 -1      1533 2.67489E+01
 -1      1534 1.26826E+01
 -1      1535 2.76013E+01
 -1      1536 1.30865E+01
 -1      1537 9.60123E+00
 -1      1538 1.88150E+01
 -1      1539 1.90270E+01
 -1      1540 2.07796E+01
 -1      1541 1.15548E+01
 -1      1542 1.51588E+01
 -1      1543 2.26633E+01
 -1      1544 2.11873E+01
 -1      1545 2.81369E+01
 -1      1546 2.82238E+01
 -1      1547 1.56255E+01
 -1      1548 2.07796E+01
 -1      1549 2.56987E+01
 -1      1550 1.43690E+01
 -1      1551 2.52970E+01
 -1      1552 2.44625E+01
 -1      1553 2.30493E+01
 -1      1554 2.15226E+01
 -1      1555 1.86382E+01
 -1      1556 2.44714E+01
 -1      1557 2.75818E+01
 -1      1558 1.25880E+01
 -1      1559 2.69574E+01
 -1      1560 2.64190E+01
 -1      1561 2.70629E+01
 -1      1562 2.85471E+01
 -1      1563 2.30658E+01
 -1      1564 2.86655E+01
 -1      1565 1.11912E+01
 -1      1566 1.54988E+01
 -1      1567 2.97054E+01
 -1      1568 3.26063E+01
 -1      1569 1.30865E+01
 -1      1570 1.92542E+01
 -1      1571 1.46103E+01
 -1      1572 1.35286E+01
 -1      1573 1.09347E+01
 -1      1574 1.19267E+01
 -1      1575 9.40380E+00
 -1      1576 3.26063E+01
 -1      1577 2.92009E+01
 -1      1578 3.26063E+01
 -1      1579 2.83842E+01
 -1      1580 2.97054E+01
 -1      1581 2.97054E+01
 -1      1582 2.69559E+01
 -1      1583 2.58644E+01
 -1      1584 2.21091E+01
 -1      1585 1.89273E+01
 -1      1586 2.51924E+01
 -1      1587 2.69559E+01
 -1      1588 1.81918E+01
 -1      1589 2.57955E+01
 -1      1590 2.64292E+01
 -1      1591 2.92009E+01
 -1      1592 2.70629E+01
 -1      1593 2.70629E+01
 -1      1594 2.64292E+01
 -1      1595 2.83842E+01
 -1      1596 2.00527E+01
 -1      1597 2.00358E+01
 -1      1598 2.20230E+01
 -1      1599 1.92354E+01
 -1      1600 1.89191E+01
 -1      1601 2.77467E+01
 -1      1602 1.85221E+01
 -1      1603 1.89911E+01
 -1      1604 2.65492E+01
 -1      1605 1.86010E+01
 -1      1606 1.81354E+01
 -1      1607 2.57622E+01
 -1      1608 1.79310E+01
 -1      1609 1.82526E+01
 -1      1610 2.51678E+01
 -1      1611 1.81846E+01
 -1      1612 1.79563E+01
 -1      1613 2.48954E+01
 -1      1614 1.77969E+01
 -1      1615 1.77961E+01
 -1      1616 2.46681E+01
 -1      1617 1.77220E+01
 -1      1618 1.81288E+01
 -1      1619 2.44346E+01
 -1      1620 1.77346E+01
 -1      1621 1.72827E+01
 -1      1622 2.39663E+01
 -1      1623 1.72121E+01
 -1      1624 1.72633E+01
 -1      1625 2.35014E+01
 -1      1626 1.70049E+01
 -1      1627 1.70556E+01
 -1      1628 2.31723E+01
 -1      1629 1.69783E+01
 -1      1630 1.73795E+01
 -1      1631 2.28366E+01
 -1      1632 1.68636E+01
 -1      1633 1.62041E+01
 -1      1634 2.22434E+01
 -1      1635 1.60579E+01
 -1      1636 1.61863E+01
 -1      1637 2.15813E+01
 -1      1638 1.57556E+01
 -1      1639 1.59853E+01
 -1      1640 2.10044E+01
 -1      1641 1.59367E+01
 -1      1642 1.58333E+01
 -1      1643 2.05251E+01
 -1      1644 1.52007E+01
 -1      1645 1.51885E+01
 -1      1646 1.98439E+01
 -1      1647 1.51846E+01
 -1      1648 1.57287E+01
 -1      1649 1.92074E+01
 -1      1650 1.48935E+01
 -1      1651 1.39521E+01
 -1      1652 1.83683E+01
 -1      1653 1.36672E+01
 -1      1654 1.41969E+01
 -1      1655 1.72482E+01
 -1      1656 1.43222E+01
 -1      1657 1.37276E+01
 -1      1658 1.70886E+01
 -1      1659 1.29901E+01
 -1      1660 1.35395E+01
 -1      1661 1.64764E+01
 -1      1662 1.28497E+01
 -1      1663 1.23931E+01
 -1      1664 1.50491E+01
 -1      1665 1.24629E+01
 -1      1666 1.26952E+01
 -1      1667 1.44291E+01
 -1      1668 1.17809E+01
 -1      1669 1.14496E+01
 -1      1670 1.35845E+01
 -1      1671 1.11309E+01
 -1      1672 1.11764E+01
 -1      1673 1.23515E+01
 -1      1674 1.07427E+01
 -1      1675 1.11653E+01
 -1      1676 1.15990E+01
 -1      1677 1.10846E+01
 -1      1678 1.06989E+01
 -1      1679 1.10846E+01
 -1      1680 1.13504E+01
 -1      1681 1.03596E+01
 -1      1682 1.16555E+01
 -1      1683 9.00670E+00
 -1      1684 9.72831E+00
 -1      1685 1.09542E+01
 -1      1686 1.01292E+01
 -1      1687 1.36311E+01
 -1      1688 1.00021E+01
 -1      1689 1.99625E+01
 -1      1690 2.78361E+01
 -1      1691 1.67344E+01
 -1      1692 2.78361E+01
 -1      1693 9.78182E+00
 -1      1694 1.02437E+01
 -1      1695 1.20311E+01
 -1      1696 1.18468E+01
 -1      1697 9.86808E+00
 -1      1698 1.29573E+01
 -1      1699 9.95169E+00
 -1      1700 1.18667E+01
 -1      1701 1.30635E+01
 -1      1702 1.00182E+01
 -1      1703 9.98646E+00
 -1      1704 1.31182E+01
 -1      1705 9.95874E+00
 -1      1706 1.00138E+01
 -1      1707 1.31486E+01
 -1      1708 1.11591E+01
 -1      1709 9.75855E+00
 -1      1710 1.29440E+01
 -1      1711 1.18149E+01
 -1      1712 1.12579E+01
 -1      1713 1.28425E+01
 -1      1714 1.26495E+01
 -1      1715 1.46389E+01
 -1      1716 1.57653E+01
 -1      1717 9.86147E+00
 -1      1718 9.84118E+00
 -1      1719 1.57810E+01
 -1      1720 1.10481E+01
 -1      1721 9.66913E+00
 -1      1722 1.27804E+01
 -1      1723 1.16484E+01
 -1      1724 1.10930E+01
 -1      1725 1.26329E+01
 -1      1726 1.25463E+01
 -1      1727 1.44282E+01
 -1      1728 1.54576E+01
 -1      1729 9.80258E+00
 -1      1730 9.81062E+00
 -1      1731 1.55018E+01
 -1      1732 1.27412E+01
 -1      1733 1.27386E+01
 -1      1734 1.57022E+01
 -1      1735 9.82951E+00
 -1      1736 9.76335E+00
 -1      1737 1.56604E+01
 -1      1738 1.06871E+01
 -1      1739 9.50190E+00
 -1      1740 1.23550E+01
 -1      1741 1.12564E+01
 -1      1742 1.07180E+01
 -1      1743 1.20582E+01
 -1      1744 9.44243E+00
 -1      1745 1.12119E+01
 -1      1746 1.20446E+01
 -1      1747 9.44478E+00
 -1      1748 9.43746E+00
 -1      1749 1.19951E+01
 -1      1750 9.47675E+00
 -1      1751 9.37960E+00
 -1      1752 1.19250E+01
 -1      1753 1.00909E+01
 -1      1754 9.13636E+00
 -1      1755 1.15194E+01
 -1      1756 1.05666E+01
 -1      1757 1.00907E+01
 -1      1758 1.11789E+01
 -1      1759 9.64599E+00
 -1      1760 1.03196E+01
 -1      1761 1.09317E+01
 -1      1762 9.99327E+00
 -1      1763 9.49505E+00
 -1      1764 1.05338E+01
 -1      1765 1.07206E+01
 -1      1766 1.18128E+01
 -1      1767 1.22024E+01
 -1      1768 9.92657E+00
 -1      1769 9.91222E+00
 -1      1770 1.32135E+01
 -1      1771 1.03222E+01
 -1      1772 1.01771E+01
 -1      1773 1.26556E+01
 -1      1774 9.31199E+00
 -1      1775 9.82002E+00
 -1      1776 1.24039E+01
 -1      1777 8.54498E+00
 -1      1778 8.00232E+00
 -1      1779 1.05921E+01
 -1      1780 9.25301E+00
 -1      1781 8.65499E+00
 -1      1782 9.39242E+00
 -1      1783 1.23723E+01
 -1      1784 9.60661E+00
 -1      1785 9.85602E+00
 -1      1786 2.21202E+01
 -1      1787 1.45350E+01
 -1      1788 1.23723E+01
 -1      1789 2.21202E+01
 -1      1790 1.92006E+01
 -1      1791 1.84630E+01
 -1      1792 1.82592E+01
 -1      1793 1.75695E+01
 -1      1794 2.09834E+01
 -1      1795 1.38292E+01
 -1      1796 1.33954E+01
 -1      1797 1.57426E+01
 -1      1798 1.54239E+01
 -1      1799 1.72203E+01
 -1      1800 1.18257E+01
 -1      1801 1.31354E+01
 -1      1802 1.35303E+01
 -1      1803 1.40325E+01
 -1      1804 1.47639E+01
 -1      1805 9.60123E+00
 -1      1806 1.00021E+01
 -1      1807 1.17448E+01
 -1      1808 1.13439E+01
 -1      1809 1.80762E+01
 -1      1810 2.00301E+01
 -1      1811 1.97452E+01
 -1      1812 2.02912E+01
 -1      1813 2.27882E+01
 -1      1814 2.11264E+01
 -1      1815 1.55812E+01
 -1      1816 1.57322E+01
 -1      1817 1.65245E+01
 -1      1818 1.47049E+01
 -1      1819 1.99033E+01
 -1      1820 2.24695E+01
 -1      1821 2.18369E+01
 -1      1822 2.09373E+01
 -1      1823 2.09334E+01
 -1      1824 2.35629E+01
 -1      1825 2.06405E+01
 -1      1826 2.06450E+01
 -1      1827 2.01628E+01
 -1      1828 2.03630E+01
 -1      1829 2.78594E+01
 -1      1830 2.54639E+01
 -1      1831 2.53898E+01
 -1      1832 2.62717E+01
 -1      1833 2.61124E+01
 -1      1834 2.70675E+01
 -1      1835 2.71880E+01
 -1      1836 2.67980E+01
 -1      1837 2.67147E+01
 -1      1838 2.71117E+01
 -1      1839 2.77505E+01
 -1      1840 2.17672E+01
 -1      1841 1.89874E+01
 -1      1842 2.01396E+01
 -1      1843 2.64492E+01
 -1      1844 2.00947E+01
 -1      1845 2.35521E+01
 -1      1846 2.31214E+01
 -1      1847 2.40920E+01
 -1      1848 2.62090E+01
 -1      1849 2.42382E+01
 -1      1850 2.56590E+01
 -1      1851 2.52648E+01
 -1      1852 2.54062E+01
 -1      1853 2.53355E+01
 -1      1854 2.70989E+01
 -1      1855 2.06708E+01
 -1      1856 2.05845E+01
 -1      1857 2.84817E+01
 -1      1858 2.07683E+01
 -1      1859 1.90317E+01
 -1      1860 2.69290E+01
 -1      1861 1.61830E+01
 -1      1862 1.61832E+01
 -1      1863 1.63508E+01
 -1      1864 1.66912E+01
 -1      1865 2.13550E+01
 -1      1866 1.19310E+01
 -1      1867 1.05780E+01
 -1      1868 1.26865E+01
 -1      1869 1.33381E+01
 -1      1870 1.29619E+01
 -1      1871 1.38108E+01
 -1      1872 1.16481E+01
 -1      1873 1.38108E+01
 -1      1874 1.30865E+01
 -1      1875 2.07990E+01
 -1      1876 2.00747E+01
 -1      1877 1.82758E+01
 -1      1878 1.82449E+01
 -1      1879 1.82494E+01
 -1      1880 1.85770E+01
 -1      1881 2.44670E+01
 -1      1882 9.90542E+00
 -1      1883 9.55183E+00
 -1      1884 1.05286E+01
 -1      1885 1.04186E+01
 -1      1886 1.05780E+01
 -1      1887 1.73317E+01
 -1      1888 1.73762E+01
 -1      1889 1.75197E+01
 -1      1890 1.75247E+01
 -1      1891 2.28563E+01
 -1      1892 2.41054E+01
 -1      1893 2.40282E+01
 -1      1894 2.42290E+01
 -1      1895 2.37131E+01
 -1      1896 2.54978E+01
 -1      1897 2.25042E+01
 -1      1898 1.96801E+01
 -1      1899 1.99651E+01
 -1      1900 2.27734E+01
 -1      1901 2.66882E+01
 -1      1902 1.92324E+01
 -1      1903 2.19681E+01
 -1      1904 1.97575E+01
 -1      1905 2.62238E+01
 -1      1906 2.26935E+01
 -1      1907 2.86924E+01
 -1      1908 2.86332E+01
 -1      1909 2.86063E+01
 -1      1910 1.94410E+01
 -1      1911 2.44306E+01
 -1      1912 1.80762E+01
 -1      1913 1.42658E+01
 -1      1914 1.40153E+01
 -1      1915 1.56101E+01
 -1      1916 1.64185E+01
 -1      1917 1.67630E+01
 -1      1918 1.58486E+01
 -1      1919 1.75695E+01
 -1      1920 1.76392E+01
 -1      1921 2.62726E+01
 -1      1922 2.62047E+01
 -1      1923 2.67545E+01
 -1      1924 2.65502E+01
 -1      1925 2.01803E+01
 -1      1926 2.01603E+01
 -1      1927 2.06884E+01
 -1      1928 2.06536E+01
 -1      1929 2.77875E+01
 -1      1930 2.76221E+01
 -1      1931 2.84226E+01
 -1      1932 1.92430E+01
 -1      1933 1.93683E+01
 -1      1934 2.20248E+01
 -1      1935 1.72586E+01
 -1      1936 1.71934E+01
 -1      1937 1.31620E+01
 -1      1938 1.30814E+01
 -1      1939 1.53922E+01
 -1      1940 1.57322E+01
 -1      1941 1.59792E+01
 -1      1942 2.07796E+01
 -1      1943 2.25226E+01
 -1      1944 2.24740E+01
 -1      1945 2.50703E+01
 -1      1946 2.21537E+01
 -1      1947 1.91759E+01
 -1      1948 2.55160E+01
 -1      1949 2.52576E+01
 -1      1950 2.74208E+01
 -1      1951 2.01065E+01
 -1      1952 1.99142E+01
 -1      1953 2.76489E+01
 -1      1954 2.03286E+01
 -1      1955 2.02299E+01
 -1      1956 2.81804E+01
 -1      1957 1.89210E+01
 -1      1958 1.10506E+01
 -1      1959 1.02314E+01
 -1      1960 1.08311E+01
 -1      1961 1.26202E+01
 -1      1962 1.31600E+01
 -1      1963 1.46586E+01
 -1      1964 1.21742E+01
 -1      1965 2.50101E+01
 -1      1966 1.28673E+01
 -1      1967 1.29582E+01
 -1      1968 2.27657E+01
 -1      1969 2.15368E+01
 -1      1970 2.35048E+01
 -1      1971 2.84596E+01
 -1      1972 1.61953E+01
 -1      1973 1.28338E+01
 -1      1974 2.28537E+01
 -1      1975 2.04595E+01
 -1      1976 7.09323E+00
 -1      1977 1.92471E+01
 -1      1978 1.81700E+01
 -1      1979 1.26346E+01
 -1      1980 1.25811E+01
 -1      1981 2.86314E+01
 -1      1982 2.07616E+01
 -1      1983 1.20201E+01
 -1      1984 1.04041E+01
 -1      1985 2.44300E+01
 -1      1986 1.28662E+01
 -1      1987 2.58986E+01
 -1      1988 2.70022E+01
 -1      1989 2.84715E+01
 -1      1990 1.26994E+01
 -1      1991 1.12361E+01
 -1      1992 1.31600E+01
 -1      1993 2.30170E+01
 -1      1994 9.66907E+00
 -1      1995 1.20703E+01
 -1      1996 1.44831E+01
 -1      1997 1.22919E+01
 -1      1998 1.12027E+01
 -1      1999 1.26954E+01
 -1      2000 2.26681E+01
 -1      2001 2.16386E+01
 -1      2002 2.62235E+01
 -1      2003 1.85456E+01
 -1      2004 1.29929E+01
 -1      2005 1.04868E+01
 -1      2006 2.05606E+01
 -1      2007 2.43006E+01
 -1      2008 1.92549E+01
 -1      2009 1.27271E+01
 -1      2010 2.53979E+01
 -1      2011 1.45920E+01
 -1      2012 2.48378E+01
 -1      2013 1.40311E+01
 -1      2014 2.32863E+01
 -1      2015 1.06728E+01
 -1      2016 1.18541E+01
 -1      2017 1.14869E+01
 -1      2018 1.26490E+01
 -1      2019 1.55030E+01
 -1      2020 2.75106E+01
 -1      2021 1.30571E+01
 -1      2022 3.24912E+01
 -1      2023 1.77297E+01
 -1      2024 1.70691E+01
 -1      2025 2.60395E+01
 -1      2026 1.26900E+01
 -1      2027 1.26994E+01
 -1      2028 1.29867E+01
 -1      2029 1.88107E+01
 -1      2030 1.90330E+01
 -1      2031 2.08677E+01
 -1      2032 1.29867E+01
 -1      2033 1.63820E+01
 -1      2034 2.26194E+01
 -1      2035 2.04159E+01
 -1      2036 2.44700E+01
 -1      2037 2.70466E+01
 -1      2038 2.77416E+01
 -1      2039 2.80065E+01
 -1      2040 2.84027E+01
 -1      2041 1.55482E+01
 -1      2042 2.64385E+01
 -1      2043 2.20308E+01
 -1      2044 2.76046E+01
 -1      2045 2.72519E+01
 -1      2046 2.69523E+01
 -1      2047 1.31599E+01
 -1      2048 2.53118E+01
 -1      2049 2.44778E+01
 -1      2050 2.46565E+01
 -1      2051 2.23665E+01
 -1      2052 1.23005E+01
 -1      2053 2.57804E+01
 -1      2054 2.66020E+01
 -1      2055 1.26068E+01
 -1      2056 2.08250E+01
 -1      2057 2.86314E+01
 -1      2058 1.78631E+01
 -1      2059 1.09884E+01
 -1      2060 3.21372E+01
 -1      2061 2.91658E+01
 -1      2062 1.15241E+01
 -1      2063 1.09884E+01
 -1      2064 1.18736E+01
 -1      2065 9.30785E+00
 -1      2066 2.02646E+01
 -1      2067 1.56025E+01
 -1      2068 1.47301E+01
 -1      2069 2.12080E+01
 -1      2070 2.91658E+01
 -1      2071 2.91658E+01
 -1      2072 3.21372E+01
 -1      2073 2.93696E+01
 -1      2074 3.21372E+01
 -1      2075 2.06951E+01
 -1      2076 2.72190E+01
 -1      2077 1.98099E+01
 -1      2078 2.91489E+01
 -1      2079 2.75786E+01
 -1      2080 3.05613E+01
 -1      2081 2.51772E+01
 -1      2082 2.36818E+01
 -1      2083 1.70059E+01
 -1      2084 2.49637E+01
 -1      2085 2.66020E+01
 -1      2086 2.66020E+01
 -1      2087 2.36818E+01
 -1      2088 2.93696E+01
 -1      2089 9.60372E+00
 -1      2090 1.01171E+01
 -1      2091 1.17976E+01
 -1      2092 1.19002E+01
 -1      2093 9.82886E+00
 -1      2094 1.28319E+01
 -1      2095 1.16230E+01
 -1      2096 1.18508E+01
 -1      2097 1.30076E+01
 -1      2098 1.07287E+01
 -1      2099 1.24399E+01
 -1      2100 1.37751E+01
 -1      2101 1.15274E+01
 -1      2102 9.86580E+00
 -1      2103 1.37291E+01
 -1      2104 9.80520E+00
 -1      2105 1.14578E+01
 -1      2106 1.27966E+01
 -1      2107 1.17943E+01
 -1      2108 9.87531E+00
 -1      2109 1.27972E+01
 -1      2110 1.27302E+01
 -1      2111 1.46334E+01
 -1      2112 1.57064E+01
 -1      2113 9.95577E+00
 -1      2114 9.95389E+00
 -1      2115 1.57692E+01
 -1      2116 1.10501E+01
 -1      2117 9.74988E+00
 -1      2118 1.27870E+01
 -1      2119 1.16732E+01
 -1      2120 1.11072E+01
 -1      2121 1.26383E+01
 -1      2122 1.24974E+01
 -1      2123 1.44105E+01
 -1      2124 1.54327E+01
 -1      2125 1.13344E+01
 -1      2126 9.75740E+00
 -1      2127 1.54300E+01
 -1      2128 1.07496E+01
 -1      2129 1.11397E+01
 -1      2130 1.24953E+01
 -1      2131 9.78654E+00
 -1      2132 1.09166E+01
 -1      2133 1.24676E+01
 -1      2134 1.07169E+01
 -1      2135 9.50440E+00
 -1      2136 1.23525E+01
 -1      2137 1.12818E+01
 -1      2138 1.07688E+01
 -1      2139 1.21223E+01
 -1      2140 1.05054E+01
 -1      2141 1.11218E+01
 -1      2142 1.20142E+01
 -1      2143 1.00622E+01
 -1      2144 1.11583E+01
 -1      2145 1.25071E+01
 -1      2146 1.14411E+01
 -1      2147 1.00622E+01
 -1      2148 1.31600E+01
 -1      2149 1.10175E+01
 -1      2150 1.04791E+01
 -1      2151 1.21981E+01
 -1      2152 1.03861E+01
 -1      2153 1.09248E+01
 -1      2154 1.11434E+01
 -1      2155 8.88320E+00
 -1      2156 1.01972E+01
 -1      2157 1.08617E+01
 -1      2158 1.00097E+01
 -1      2159 8.74888E+00
 -1      2160 1.05384E+01
 -1      2161 1.06074E+01
 -1      2162 1.18232E+01
 -1      2163 1.22176E+01
 -1      2164 8.81223E+00
 -1      2165 8.70758E+00
 -1      2166 1.21312E+01
 -1      2167 9.63146E+00
 -1      2168 8.53108E+00
 -1      2169 9.95022E+00
 -1      2170 9.59144E+00
 -1      2171 1.05404E+01
 -1      2172 1.05780E+01
 -1      2173 1.05940E+01
 -1      2174 1.02649E+01
 -1      2175 1.21603E+01
 -1      2176 9.73772E+00
 -1      2177 9.42047E+00
 -1      2178 1.16603E+01
 -1      2179 1.36345E+01
 -1      2180 1.08044E+01
 -1      2181 1.15535E+01
 -1      2182 2.49954E+01
 -1      2183 1.77368E+01
 -1      2184 1.67226E+01
 -1      2185 2.49954E+01
 -1      2186 2.00283E+01
 -1      2187 2.00363E+01
 -1      2188 2.31614E+01
 -1      2189 1.93076E+01
 -1      2190 1.90661E+01
 -1      2191 2.77309E+01
 -1      2192 1.85142E+01
 -1      2193 1.88197E+01
 -1      2194 2.64504E+01
 -1      2195 1.85693E+01
 -1      2196 1.81202E+01
 -1      2197 2.56482E+01
 -1      2198 1.79263E+01
 -1      2199 1.83031E+01
 -1      2200 2.52040E+01
 -1      2201 1.82169E+01
 -1      2202 1.79987E+01
 -1      2203 2.49239E+01
 -1      2204 1.77948E+01
 -1      2205 1.77961E+01
 -1      2206 2.46339E+01
 -1      2207 1.77314E+01
 -1      2208 1.81073E+01
 -1      2209 2.43653E+01
 -1      2210 1.77094E+01
 -1      2211 1.72896E+01
 -1      2212 2.39027E+01
 -1      2213 1.71804E+01
 -1      2214 1.72570E+01
 -1      2215 2.33955E+01
 -1      2216 1.69966E+01
 -1      2217 1.67762E+01
 -1      2218 2.30260E+01
 -1      2219 1.67274E+01
 -1      2220 1.73283E+01
 -1      2221 2.27169E+01
 -1      2222 1.68135E+01
 -1      2223 1.61513E+01
 -1      2224 2.21534E+01
 -1      2225 1.61004E+01
 -1      2226 1.62171E+01
 -1      2227 2.15877E+01
 -1      2228 1.57290E+01
 -1      2229 1.59720E+01
 -1      2230 2.10487E+01
 -1      2231 1.59215E+01
 -1      2232 1.55120E+01
 -1      2233 2.05101E+01
 -1      2234 1.49096E+01
 -1      2235 1.52351E+01
 -1      2236 1.98572E+01
 -1      2237 1.52312E+01
 -1      2238 1.51500E+01
 -1      2239 1.92510E+01
 -1      2240 1.43913E+01
 -1      2241 1.40546E+01
 -1      2242 1.84884E+01
 -1      2243 1.37243E+01
 -1      2244 1.41130E+01
 -1      2245 1.73994E+01
 -1      2246 1.36761E+01
 -1      2247 1.36532E+01
 -1      2248 1.66322E+01
 -1      2249 1.33070E+01
 -1      2250 1.33668E+01
 -1      2251 1.58491E+01
 -1      2252 1.28569E+01
 -1      2253 1.24747E+01
 -1      2254 1.49930E+01
 -1      2255 1.25624E+01
 -1      2256 1.27733E+01
 -1      2257 1.45708E+01
 -1      2258 1.17685E+01
 -1      2259 1.14395E+01
 -1      2260 1.36538E+01
 -1      2261 1.11251E+01
 -1      2262 1.11672E+01
 -1      2263 1.23346E+01
 -1      2264 1.07585E+01
 -1      2265 1.12027E+01
 -1      2266 1.16114E+01
 -1      2267 1.10169E+01
 -1      2268 1.06118E+01
 -1      2269 1.10169E+01
 -1      2270 1.13422E+01
 -1      2271 1.02204E+01
 -1      2272 1.15615E+01
 -1      2273 7.62111E+00
 -1      2274 8.25048E+00
 -1      2275 9.69257E+00
 -1      2276 1.10536E+01
 -1      2277 1.41419E+01
 -1      2278 9.89633E+00
 -1      2279 1.92190E+01
 -1      2280 2.74954E+01
 -1      2281 1.77766E+01
 -1      2282 2.74954E+01
 -1      2283 1.57333E+01
 -1      2284 1.58260E+01
 -1      2285 1.63518E+01
 -1      2286 1.65407E+01
 -1      2287 2.12234E+01
 -1      2288 1.26086E+01
 -1      2289 1.28898E+01
 -1      2290 1.45210E+01
 -1      2291 1.64209E+01
 -1      2292 1.71794E+01
 -1      2293 1.19955E+01
 -1      2294 1.27259E+01
 -1      2295 1.37924E+01
 -1      2296 1.36066E+01
 -1      2297 1.47709E+01
 -1      2298 1.28035E+01
 -1      2299 1.17368E+01
 -1      2300 1.28431E+01
 -1      2301 1.26598E+01
 -1      2302 1.67622E+01
 -1      2303 1.80885E+01
 -1      2304 1.80885E+01
 -1      2305 2.38368E+01
 -1      2306 1.89083E+01
 -1      2307 1.82553E+01
 -1      2308 1.76754E+01
 -1      2309 1.77631E+01
 -1      2310 1.68458E+01
 -1      2311 1.58410E+01
 -1      2312 1.99503E+01
 -1      2313 1.83260E+01
 -1      2314 1.82740E+01
 -1      2315 1.72368E+01
 -1      2316 1.73968E+01
 -1      2317 2.35486E+01
 -1      2318 2.67022E+01
 -1      2319 2.65083E+01
 -1      2320 2.63758E+01
 -1      2321 2.62897E+01
 -1      2322 2.78741E+01
 -1      2323 2.24920E+01
 -1      2324 1.96529E+01
 -1      2325 1.99570E+01
 -1      2326 1.98868E+01
 -1      2327 2.67425E+01
 -1      2328 2.14974E+01
 -1      2329 2.06805E+01
 -1      2330 2.02838E+01
 -1      2331 2.02344E+01
 -1      2332 2.79566E+01
 -1      2333 2.40387E+01
 -1      2334 2.39900E+01
 -1      2335 2.54454E+01
 -1      2336 2.51851E+01
 -1      2337 2.64582E+01
 -1      2338 2.39310E+01
 -1      2339 2.38802E+01
 -1      2340 2.61315E+01
 -1      2341 2.37882E+01
 -1      2342 2.33001E+01
 -1      2343 2.56265E+01
 -1      2344 2.52285E+01
 -1      2345 2.53783E+01
 -1      2346 2.52691E+01
 -1      2347 2.71021E+01
 -1      2348 2.84655E+01
 -1      2349 2.77368E+01
 -1      2350 2.85455E+01
 -1      2351 2.85514E+01
 -1      2352 3.05613E+01
 -1      2353 3.04754E+01
 -1      2354 1.83056E+01
 -1      2355 1.79594E+01
 -1      2356 1.97178E+01
 -1      2357 1.92809E+01
 -1      2358 2.13912E+01
 -1      2359 1.17368E+01
 -1      2360 1.29103E+01
 -1      2361 1.29969E+01
 -1      2362 1.23234E+01
 -1      2363 1.30733E+01
 -1      2364 1.26994E+01
 -1      2365 1.77766E+01
 -1      2366 1.21117E+01
 -1      2367 1.71889E+01
 -1      2368 2.47279E+01
 -1      2369 1.90630E+01
 -1      2370 2.25153E+01
 -1      2371 2.24648E+01
 -1      2372 2.24686E+01
 -1      2373 2.18663E+01
 -1      2374 2.44739E+01
 -1      2375 1.00400E+01
 -1      2376 1.28431E+01
 -1      2377 1.26393E+01
 -1      2378 1.00400E+01
 -1      2379 1.29867E+01
 -1      2380 2.09371E+01
 -1      2381 2.09333E+01
 -1      2382 2.19518E+01
 -1      2383 2.11931E+01
 -1      2384 2.36380E+01
 -1      2385 2.17409E+01
 -1      2386 1.90036E+01
 -1      2387 1.92352E+01
 -1      2388 2.19752E+01
 -1      2389 2.55461E+01
 -1      2390 1.82702E+01
 -1      2391 1.85523E+01
 -1      2392 2.52548E+01
 -1      2393 1.93370E+01
 -1      2394 1.91700E+01
 -1      2395 2.01500E+01
 -1      2396 2.00929E+01
 -1      2397 1.99165E+01
 -1      2398 2.01224E+01
 -1      2399 2.74282E+01
 -1      2400 2.86314E+01
 -1      2401 2.06191E+01
 -1      2402 2.06191E+01
 -1      2403 1.61428E+01
 -1      2404 2.07933E+01
 -1      2405 1.61745E+01
 -1      2406 1.37842E+01
 -1      2407 1.33755E+01
 -1      2408 1.57298E+01
 -1      2409 1.54154E+01
 -1      2410 1.65320E+01
 -1      2411 1.47185E+01
 -1      2412 1.56359E+01
 -1      2413 1.57702E+01
 -1      2414 2.54343E+01
 -1      2415 2.53696E+01
 -1      2416 2.59422E+01
 -1      2417 2.57383E+01
 -1      2418 2.02344E+01
 -1      2419 2.03039E+01
 -1      2420 2.04363E+01
 -1      2421 2.12993E+01
 -1      2422 2.72564E+01
 -1      2423 2.67046E+01
 -1      2424 2.71506E+01
 -1      2425 2.69003E+01
 -1      2426 2.79910E+01
 -1      2427 2.07643E+01
 -1      2428 2.05391E+01
 -1      2429 1.68013E+01
 -1      2430 1.77632E+01
 -1      2431 2.26917E+01
 -1      2432 2.00431E+01
 -1      2433 2.03734E+01
 -1      2434 1.39344E+01
 -1      2435 1.30255E+01
 -1      2436 1.59651E+01
 -1      2437 1.87669E+01
 -1      2438 1.82570E+01
 -1      2439 2.14492E+01
 -1      2440 2.42243E+01
 -1      2441 2.37095E+01
 -1      2442 2.60019E+01
 -1      2443 1.92620E+01
 -1      2444 1.94567E+01
 -1      2445 1.99726E+01
 -1      2446 2.27489E+01
 -1      2447 2.66954E+01
 -1      2448 2.73941E+01
 -1      2449 2.82046E+01
 -1      2450 1.89218E+01
 -1      2451 3.66579E+01
 -1      2452 2.16259E+01
 -1      2453 1.35151E+01
 -1      2454 2.84027E+01
 -1      2455 2.73393E+01
 -1      2456 1.68389E+01
 -1      2457 1.91663E+01
 -1      2458 2.18820E+01
 -1      2459 2.25732E+01
 -1      2460 2.46565E+01
 -1      2461 2.62735E+01
 -1      2462 2.78788E+01
 -1      2463 2.47906E+01
 -1      2464 2.76933E+01
 -1      2465 2.67489E+01
 -1      2466 2.37294E+01
 -1      2467 1.45402E+01
 -1      2468 2.83199E+01
 -1      2469 2.90417E+01
 -1      2470 3.55132E+01
 -1      2471 2.90712E+01
 -1      2472 3.04058E+01
 -1      2473 2.75492E+01
 -1      2474 2.71355E+01
 -1      2475 1.76000E+01
 -1      2476 1.76850E+01
 -1      2477 2.20308E+01
 -1      2478 2.09645E+01
 -1      2479 2.09145E+01
 -1      2480 2.08803E+01
 -1      2481 2.70466E+01
 -1      2482 2.39312E+01
 -1      2483 2.57801E+01
 -1      2484 2.65567E+01
 -1      2485 2.39187E+01
 -1      2486 2.76910E+01
 -1      2487 2.75472E+01
 -1      2488 2.58043E+01
 -1      2489 2.76933E+01
 -1      2490 2.67489E+01
 -1      2491 2.99010E+01
 -1      2492 2.92843E+01
 -1      2493 1.45402E+01
 -1      2494 2.82340E+01
 -1      2495 2.78381E+01
 -1      2496 1.33387E+01
 -1      2497 3.84625E+01
 -1      2498 1.51588E+01
 -1      2499 2.83199E+01
 -1      2500 2.86987E+01
 -1      2501 2.32718E+01
 -1      2502 2.32718E+01
 -1      2503 2.78963E+01
 -1      2504 1.22313E+01
 -1      2505 1.28065E+01
 -1      2506 2.32718E+01
 -1      2507 2.30493E+01
 -1      2508 1.45402E+01
 -1      2509 1.33024E+01
 -1      2510 1.63820E+01
 -1      2511 1.51588E+01
 -1      2512 2.82340E+01
 -1      2513 2.83199E+01
 -1      2514 2.62735E+01
 -1      2515 2.04159E+01
 -1      2516 1.69359E+01
 -1      2517 1.72472E+01
 -1      2518 2.00503E+01
 -1      2519 1.96253E+01
 -1      2520 2.11221E+01
 -1      2521 2.70466E+01
 -1      2522 2.35210E+01
 -1      2523 2.73285E+01
 -1      2524 2.60837E+01
 -1      2525 2.68398E+01
 -1      2526 2.35172E+01
 -1      2527 2.62183E+01
 -1      2528 2.73393E+01
 -1      2529 2.60600E+01
 -1      2530 2.55389E+01
 -1      2531 2.57801E+01
 -1      2532 2.46565E+01
 -1      2533 2.80065E+01
 -1      2534 2.84027E+01
 -1      2535 2.78963E+01
 -1      2536 2.77027E+01
 -1      2537 2.30170E+01
 -1      2538 2.46565E+01
 -1      2539 1.35151E+01
 -1      2540 1.63820E+01
 -1      2541 2.30170E+01
 -1      2542 2.84027E+01
 -1      2543 2.80065E+01
 -1      2544 1.29867E+01
 -1      2545 2.76933E+01
 -1      2546 1.91663E+01
 -1      2547 2.20308E+01
 -1      2548 1.91564E+01
 -1      2549 2.11873E+01
 -1      2550 2.77160E+01
 -1      2551 2.76933E+01
 -1      2552 2.76910E+01
 -1      2553 2.76910E+01
 -1      2554 2.65567E+01
 -1      2555 2.67489E+01
 -1      2556 2.46970E+01
 -1      2557 2.47724E+01
 -1      2558 1.28660E+01
 -1      2559 2.11221E+01
 -1      2560 2.11221E+01
 -1      2561 2.20308E+01
 -1      2562 2.65567E+01
 -1      2563 2.26935E+01
 -1      2564 2.26068E+01
 -1      2565 1.85515E+01
 -1      2566 2.26935E+01
 -1      2567 2.26068E+01
 -1      2568 2.67489E+01
 -1      2569 2.21225E+01
 -1      2570 2.22092E+01
 -1      2571 2.62645E+01
 -1      2572 2.39118E+01
 -1      2573 2.11251E+01
 -1      2574 2.39266E+01
 -1      2575 2.11399E+01
 -1      2576 2.90564E+01
 -1      2577 2.10641E+01
 -1      2578 2.10641E+01
 -1      2579 2.11854E+01
 -1      2580 2.91630E+01
 -1      2581 2.11854E+01
 -1      2582 3.20894E+01
 -1      2583 3.60856E+01
 -1      2584 3.26617E+01
 -1      2585 2.95357E+01
 -1      2586 3.35319E+01
 -1      2587 3.29595E+01
 -1      2588 2.84115E+01
 -1      2589 2.78392E+01
 -1      2590 2.50331E+01
 -1      2591 3.27071E+01
 -1      2592 3.32795E+01
 -1      2593 1.41280E+01
 -1      2594 1.64749E+01
 -1      2595 1.52531E+01
 -1      2596 1.40325E+01
 -1      2597 1.63794E+01
 -1      2598 1.52543E+01
 -1      2599 1.72195E+01
 -1      2600 1.60944E+01
 -1      2601 1.59989E+01
 -1      2602 1.48725E+01
 -1      2603 2.84774E+01
 -1      2604 2.50989E+01
 -1      2605 3.24780E+01
 -1      2606 2.93519E+01
 -1      2607 1.24488E+01
 -1      2608 1.20213E+01
 -1      2609 9.92991E+00
 -1      2610 1.12943E+01
 -1      2611 1.08669E+01
 -1      2612 1.33857E+01
 -1      2613 1.40277E+01
 -1      2614 1.15088E+01
 -1      2615 1.28732E+01
 -1      2616 2.30852E+01
 -1      2617 2.74627E+01
 -1      2618 2.35014E+01
 -1      2619 2.35652E+01
 -1      2620 2.79427E+01
 -1      2621 2.75265E+01
 -1      2622 2.70466E+01
 -1      2623 2.74627E+01
 -1      2624 2.75265E+01
 -1      2625 1.90086E+01
 -1      2626 1.94885E+01
 -1      2627 1.98868E+01
 -1      2628 2.03668E+01
 -1      2629 2.79050E+01
 -1      2630 3.19056E+01
 -1      2631 1.55738E+01
 -1      2632 1.65747E+01
 -1      2633 1.59989E+01
 -1      2634 1.62322E+01
 -1      2635 1.15582E+01
 -1      2636 1.09163E+01
 -1      2637 1.25350E+01
 -1      2638 2.29643E+01
 -1      2639 2.71484E+01
 -1      2640 2.30693E+01
 -1      2641 2.72533E+01
 -1      2642 2.74443E+01
 -1      2643 2.68986E+01
 -1      2644 2.27146E+01
 -1      2645 2.70896E+01
 -1      2646 2.77974E+01
 -1      2647 2.63532E+01
 -1      2648 2.74257E+01
 -1      2649 2.59815E+01
 -1      2650 2.75071E+01
 -1      2651 2.58499E+01
 -1      2652 2.68792E+01
 -1      2653 2.57480E+01
 -1      2654 2.67772E+01
 -1      2655 2.72374E+01
 -1      2656 2.62090E+01
 -1      2657 2.67489E+01
 -1      2658 2.71945E+01
 -1      2659 2.65112E+01
 -1      2660 2.24931E+01
 -1      2661 2.22555E+01
 -1      2662 2.61668E+01
 -1      2663 2.21487E+01
 -1      2664 2.64044E+01
 -1      2665 2.68792E+01
 -1      2666 2.58499E+01
 -1      2667 2.73393E+01
 -1      2668 2.59861E+01
 -1      2669 2.58794E+01
 -1      2670 2.19300E+01
 -1      2671 2.36599E+01
 -1      2672 2.15673E+01
 -1      2673 2.32973E+01
 -1      2674 2.42939E+01
 -1      2675 2.37473E+01
 -1      2676 2.33756E+01
 -1      2677 2.31297E+01
 -1      2678 2.62238E+01
 -1      2679 2.72374E+01
 -1      2680 2.35687E+01
 -1      2681 2.34471E+01
 -1      2682 2.34223E+01
 -1      2683 2.33007E+01
 -1      2684 2.71929E+01
 -1      2685 2.58200E+01
 -1      2686 2.68889E+01
 -1      2687 2.56736E+01
 -1      2688 2.67425E+01
 -1      2689 2.31931E+01
 -1      2690 2.32908E+01
 -1      2691 2.33958E+01
 -1      2692 2.32980E+01
 -1      2693 1.65941E+01
 -1      2694 1.89907E+01
 -1      2695 1.82075E+01
 -1      2696 1.83832E+01
 -1      2697 1.58110E+01
 -1      2698 1.65987E+01
 -1      2699 1.89885E+01
 -1      2700 1.58581E+01
 -1      2701 1.82479E+01
 -1      2702 1.84257E+01
 -1      2703 1.69553E+01
 -1      2704 1.82429E+01
 -1      2705 1.81081E+01
 -1      2706 1.74597E+01
 -1      2707 1.73249E+01
 -1      2708 1.66128E+01
 -1      2709 1.82378E+01
 -1      2710 1.80889E+01
 -1      2711 1.73483E+01
 -1      2712 1.74971E+01
 -1      2713 2.00610E+01
 -1      2714 2.00610E+01
 -1      2715 1.92145E+01
 -1      2716 2.17267E+01
 -1      2717 1.92145E+01
 -1      2718 2.18802E+01
 -1      2719 1.98935E+01
 -1      2720 2.10338E+01
 -1      2721 1.90471E+01
 -1      2722 2.63583E+01
 -1      2723 2.59422E+01
 -1      2724 2.74627E+01
 -1      2725 2.70466E+01
 -1      2726 2.37419E+01
 -1      2727 2.37138E+01
 -1      2728 2.33258E+01
 -1      2729 2.32976E+01
 -1      2730 2.35675E+01
 -1      2731 2.34478E+01
 -1      2732 2.34656E+01
 -1      2733 2.33459E+01
 -1      2734 2.57246E+01
 -1      2735 2.20654E+01
 -1      2736 2.15166E+01
 -1      2737 2.17028E+01
 -1      2738 2.11540E+01
 -1      2739 2.20082E+01
 -1      2740 2.15058E+01
 -1      2741 2.16393E+01
 -1      2742 2.11369E+01
 -1      2743 2.42876E+01
 -1      2744 2.19518E+01
 -1      2745 2.36380E+01
 -1      2746 2.32690E+01
 -1      2747 2.15829E+01
 -1      2748 2.29424E+01
 -1      2749 2.71458E+01
 -1      2750 2.30464E+01
 -1      2751 2.72497E+01
 -1      2752 2.74432E+01
 -1      2753 2.29985E+01
 -1      2754 2.27570E+01
 -1      2755 2.37072E+01
 -1      2756 2.34658E+01
 -1      2757 2.69822E+01
 -1      2758 2.44708E+01
 -1      2759 2.57926E+01
 -1      2760 2.51796E+01
 -1      2761 2.65014E+01
 -1      2762 2.31888E+01
 -1      2763 2.32829E+01
 -1      2764 2.32927E+01
 -1      2765 2.33868E+01
 -1      2766 2.29972E+01
 -1      2767 2.27694E+01
 -1      2768 2.37071E+01
 -1      2769 2.34793E+01
 -1      2770 2.69834E+01
 -1      2771 2.46266E+01
 -1      2772 2.26336E+01
 -1      2773 2.22038E+01
 -1      2774 2.43609E+01
 -1      2775 2.41968E+01
 -1      2776 2.67489E+01
 -1      2777 2.24868E+01
 -1      2778 2.26481E+01
 -1      2779 2.27897E+01
 -1      2780 2.64151E+01
 -1      2781 2.26284E+01
 -1      2782 2.22217E+01
 -1      2783 2.60269E+01
 -1      2784 2.61685E+01
 -1      2785 2.23633E+01
 -1      2786 2.65307E+01
 -1      2787 2.79750E+01
 -1      2788 2.80564E+01
 -1      2789 2.25072E+01
 -1      2790 2.26611E+01
 -1      2791 2.27448E+01
 -1      2792 2.28988E+01
 -1      2793 2.17328E+01
 -1      2794 2.20592E+01
 -1      2795 2.12968E+01
 -1      2796 2.16233E+01
 -1      2797 2.43547E+01
 -1      2798 2.33465E+01
 -1      2799 2.24589E+01
 -1      2800 2.40472E+01
 -1      2801 2.41461E+01
 -1      2802 2.41048E+01
 -1      2803 2.83613E+01
 -1      2804 2.40058E+01
 -1      2805 2.34478E+01
 -1      2806 2.35675E+01
 -1      2807 2.27961E+01
 -1      2808 2.71929E+01
 -1      2809 2.69994E+01
 -1      2810 1.15582E+01
 -1      2811 1.20707E+01
 -1      2812 1.20707E+01
 -1      2813 1.40277E+01
 -1      2814 2.35632E+01
 -1      2815 2.73339E+01
 -1      2816 2.34417E+01
 -1      2817 2.58145E+01
 -1      2818 2.68835E+01
 -1      2819 2.29433E+01
 -1      2820 2.30411E+01
 -1      2821 1.92201E+01
 -1      2822 1.68236E+01
 -1      2823 1.93958E+01
 -1      2824 1.94305E+01
 -1      2825 1.70407E+01
 -1      2826 1.96083E+01
 -1      2827 1.83376E+01
 -1      2828 1.84723E+01
 -1      2829 1.86798E+01
 -1      2830 1.85309E+01
 -1      2831 2.31365E+01
 -1      2832 2.30424E+01
 -1      2833 2.23919E+01
 -1      2834 2.61786E+01
 -1      2835 2.25532E+01
 -1      2836 2.59320E+01
 -1      2837 2.21268E+01
 -1      2838 2.25544E+01
 -1      2839 2.24004E+01
 -1      2840 2.28563E+01
 -1      2841 2.11264E+01
 -1      2842 2.38529E+01
 -1      2843 2.29985E+01
 -1      2844 2.62735E+01
 -1      2845 2.27570E+01
 -1      2846 2.27418E+01
 -1      2847 2.29696E+01
 -1      2848 2.62459E+01
 -1      2849 2.57926E+01
 -1      2850 2.44708E+01
 -1      2851 1.47338E+01
 -1      2852 1.51588E+01
 -1      2853 2.36789E+01
 -1      2854 2.39249E+01
 -1      2855 2.30077E+01
 -1      2856 2.50007E+01
 -1      2857 2.51647E+01
 -1      2858 2.02428E+01
 -1      2859 2.22295E+01
 -1      2860 2.29225E+01
 -1      2861 2.12618E+01
 -1      2862 2.07130E+01
 -1      2863 2.04103E+01
 -1      2864 2.04103E+01
 -1      2865 1.33566E+01
 -1      2866 1.33566E+01
 -1      2867 1.38691E+01
 -1      2868 1.38691E+01
 -1      2869 2.17398E+01
 -1      2870 2.20612E+01
 -1      2871 2.13100E+01
 -1      2872 2.16315E+01
 -1      2873 2.45164E+01
 -1      2874 2.57852E+01
 -1      2875 2.52263E+01
 -1      2876 2.64951E+01
 -1      2877 2.78399E+01
 -1      2878 2.72775E+01
 -1      2879 2.77985E+01
 -1      2880 2.72361E+01
 -1      2881 2.71875E+01
 -1      2882 1.86126E+01
 -1      2883 1.88677E+01
 -1      2884 2.33465E+01
 -1      2885 2.25540E+01
 -1      2886 2.22276E+01
 -1      2887 2.52854E+01
 -1      2888 2.19745E+01
 -1      2889 2.72969E+01
 -1      2890 2.46342E+01
 -1      2891 2.26251E+01
 -1      2892 2.41982E+01
 -1      2893 2.21891E+01
 -1      2894 2.63202E+01
 -1      2895 1.30475E+01
 -1      2896 2.53338E+01
 -1      2897 1.74173E+01
 -1      2898 2.53486E+01
 -1      2899 2.69822E+01
 -1      2900 1.73562E+01
 -1      2901 2.54551E+01
 -1      2902 2.76847E+01
 -1      2903 2.69558E+01
 -1      2904 2.48494E+01
 -1      2905 2.47350E+01
 -1      2906 2.57576E+01
 -1      2907 2.44888E+01
 -1      2908 2.24353E+01
 -1      2909 2.21139E+01
 -1      2910 2.34903E+01
 -1      2911 2.15058E+01
 -1      2912 2.20082E+01
 -1      2913 2.46565E+01
 -1      2914 2.20760E+01
 -1      2915 2.36380E+01
 -1      2916 2.19518E+01
 -1      2917 2.64222E+01
 -1      2918 2.75265E+01
 -1      2919 2.79427E+01
 -1      2920 2.31198E+01
 -1      2921 2.51290E+01
 -1      2922 2.37776E+01
 -1      2923 2.38057E+01
 -1      2924 2.37649E+01
 -1      2925 2.81204E+01
 -1      2926 2.38638E+01
 -1      2927 3.75602E+01
 -1      2928 3.66579E+01
 -1      2929 3.75602E+01
 -1      2930 3.75602E+01
 -1      2931 3.84625E+01
 -1      2932 1.18488E+01
 -1      2933 1.14700E+01
 -1      2934 1.14700E+01
 -1      2935 1.34269E+01
 -1      2936 3.66579E+01
 -1      2937 2.69951E+01
 -1      2938 2.75576E+01
 -1      2939 2.42876E+01
 -1      2940 1.32684E+01
 -1      2941 1.32684E+01
 -1      2942 2.48909E+01
 -1      2943 2.51413E+01
 -1      2944 2.44994E+01
 -1      2945 2.75265E+01
 -1      2946 2.86777E+01
 -1      2947 2.51623E+01
 -1      2948 2.84273E+01
 -1      2949 2.80790E+01
 -1      2950 1.39394E+01
 -1      2951 1.27141E+01
 -1      2952 1.25010E+01
 -1      2953 1.37282E+01
 -1      2954 1.51616E+01
 -1      2955 1.49486E+01
 -1      2956 1.39344E+01
 -1      2957 1.08486E+01
 -1      2958 1.08486E+01
 -1      2959 1.65968E+01
 -1      2960 1.89083E+01
 -1      2961 1.89083E+01
 -1      2962 1.33875E+01
 -1      2963 1.31745E+01
 -1      2964 1.28338E+01
 -1      2965 1.31745E+01
 -1      2966 1.69286E+01
 -1      2967 1.26589E+01
 -1      2968 2.07578E+01
 -1      2969 2.80004E+01
 -1      2970 3.21803E+01
 -1      2971 2.90543E+01
 -1      2972 3.41818E+01
 -1      2973 3.32795E+01
 -1      2974 2.87201E+01
 -1      2975 2.83286E+01
 -1      2976 3.22771E+01
 -1      2977 2.40966E+01
 -1      2978 2.88987E+01
 -1      2979 2.83613E+01
 -1      2980 2.82719E+01
 -1      2981 2.83133E+01
 -1      2982 2.80527E+01
 -1      2983 2.79633E+01
 -1      2984 2.80113E+01
 -1      2985 2.12234E+01
 -1      2986 2.23020E+01
 -1      2987 2.14945E+01
 -1      2988 2.17165E+01
 -1      2989 2.27951E+01
 -1      2990 2.25239E+01
 -1      2991 1.30075E+01
 -1      2992 1.72162E+01
 -1      2993 2.09388E+01
 -1      2994 2.07278E+01
 -1      2995 2.04566E+01
 -1      2996 2.09498E+01
 -1      2997 3.41818E+01
 -1      2998 2.06338E+01
 -1      2999 2.39641E+01
 -1      3000 2.13261E+01
 -1      3001 2.07584E+01
 -1      3002 2.40888E+01
 -1      3003 2.33964E+01
 -1      3004 2.39660E+01
 -1      3005 2.81495E+01
 -1      3006 2.42192E+01
 -1      3007 2.42192E+01
 -1      3008 2.84027E+01
 -1      3009 2.81495E+01
 -1      3010 2.31606E+01
 -1      3011 2.38529E+01
 -1      3012 2.32852E+01
 -1      3013 1.91131E+01
 -1      3014 1.96062E+01
 -1      3015 1.77205E+01
 -1      3016 1.82136E+01
 -1      3017 2.77034E+01
 -1      3018 2.79566E+01
 -1      3019 2.79566E+01
 -1      3020 1.35151E+01
 -1      3021 1.40277E+01
 -1      3022 1.73813E+01
 -1      3023 1.87901E+01
 -1      3024 1.30475E+01
 -1      3025 2.07017E+01
 -1      3026 2.03931E+01
 -1      3027 2.07081E+01
 -1      3028 2.10574E+01
 -1      3029 2.22216E+01
 -1      3030 2.09448E+01
 -1      3031 2.01412E+01
 -1      3032 2.77160E+01
 -1      3033 2.77974E+01
 -1      3034 2.79750E+01
 -1      3035 2.89915E+01
 -1      3036 2.11873E+01
 -1      3037 2.18802E+01
 -1      3038 2.22295E+01
 -1      3039 2.30493E+01
 -1      3040 2.46565E+01
 -1      3041 2.46565E+01
 -1      3042 2.36360E+01
 -1      3043 2.35946E+01
 -1      3044 2.79079E+01
 -1      3045 2.76489E+01
 -1      3046 2.37343E+01
 -1      3047 2.39119E+01
 -1      3048 2.37235E+01
 -1      3049 2.37649E+01
 -1      3050 2.34149E+01
 -1      3051 2.23972E+01
 -1      3052 2.13550E+01
 -1      3053 1.88011E+01
 -1      3054 1.74813E+01
 -1      3055 1.76059E+01
 -1      3056 2.82719E+01
 -1      3057 1.55086E+01
 -1      3058 1.46456E+01
 -1      3059 2.22158E+01
 -1      3060 2.04363E+01
 -1      3061 2.12993E+01
 -1      3062 2.32504E+01
 -1      3063 2.23628E+01
 -1      3064 2.66528E+01
 -1      3065 1.76359E+01
 -1      3066 1.77605E+01
 -1      3067 2.22214E+01
 -1      3068 2.60269E+01
 -1      3069 2.03954E+01
 -1      3070 2.06486E+01
 -1      3071 2.78102E+01
 -1      3072 2.78741E+01
 -1      3073 2.37649E+01
 -1      3074 2.36323E+01
 -1      3075 2.78613E+01
 -1      3076 2.25072E+01
 -1      3077 2.67425E+01
 -1      3078 1.56223E+01
 -1      3079 1.68874E+01
 -1      3080 1.66232E+01
 -1      3081 1.68389E+01
 -1      3082 1.59302E+01
 -1      3083 1.70430E+01
 -1      3084 1.61343E+01
 -1      3085 1.70430E+01
 -1      3086 1.66105E+01
 -1      3087 1.61936E+01
 -1      3088 1.62420E+01
 -1      3089 1.66589E+01
 -1      3090 1.62030E+01
 -1      3091 1.64363E+01
 -1      3092 1.89857E+01
 -1      3093 1.93908E+01
 -1      3094 1.91613E+01
 -1      3095 1.89885E+01
 -1      3096 1.96083E+01
 -1      3097 1.91663E+01
 -1      3098 1.82429E+01
 -1      3099 1.93958E+01
 -1      3100 1.82328E+01
 -1      3101 1.96033E+01
 -1      3102 2.34211E+01
 -1      3103 2.71404E+01
 -1      3104 2.31876E+01
 -1      3105 2.14405E+01
 -1      3106 2.30922E+01
 -1      3107 2.29023E+01
 -1      3108 2.56977E+01
 -1      3109 1.59989E+01
 -1      3110 1.50901E+01
 -1      3111 1.62030E+01
 -1      3112 1.66105E+01
 -1      3113 1.53454E+01
 -1      3114 1.66589E+01
 -1      3115 1.63820E+01
 -1      3116 1.51588E+01
 -1      3117 2.24139E+01
 -1      3118 2.14974E+01
 -1      3119 2.82046E+01
 -1      3120 2.24592E+01
 -1      3121 2.33189E+01
 -1      3122 2.66294E+01
 -1      3123 2.84027E+01
 -1      3124 2.84027E+01
 -1      3125 2.28918E+01
 -1      3126 2.59585E+01
 -1      3127 2.02952E+01
 -1      3128 2.01500E+01
 -1      3129 2.71484E+01
 -1      3130 2.31888E+01
 -1      3131 2.62090E+01
 -1      3132 2.67489E+01
 -1      3133 2.67489E+01
 -1      3134 2.09544E+01
 -1      3135 2.13261E+01
 -1      3136 2.46174E+01
 -1      3137 2.47815E+01
 -1      3138 2.51556E+01
 -1      3139 1.55213E+01
 -1      3140 1.55359E+01
 -1      3141 2.19277E+01
 -1      3142 2.74899E+01
 -1      3143 2.45874E+01
 -1      3144 2.47438E+01
 -1      3145 2.52386E+01
 -1      3146 1.88860E+01
 -1      3147 2.56785E+01
 -1      3148 2.20501E+01
 -1      3149 2.52763E+01
 -1      3150 2.20144E+01
 -1      3151 2.51179E+01
 -1      3152 1.23368E+01
 -1      3153 1.17387E+01
 -1      3154 2.07261E+01
 -1      3155 2.01280E+01
 -1      3156 2.15117E+01
 -1      3157 1.89159E+01
 -1      3158 2.10123E+01
 -1      3159 1.99193E+01
 -1      3160 1.96107E+01
 -1      3161 2.19585E+01
 -1      3162 1.40277E+01
 -1      3163 1.30135E+01
 -1      3164 1.54611E+01
 -1      3165 1.42407E+01
 -1      3166 1.90205E+01
 -1      3167 2.33732E+01
 -1      3168 1.93767E+01
 -1      3169 1.98402E+01
 -1      3170 2.41930E+01
 -1      3171 2.38368E+01
 -1      3172 2.68974E+01
 -1      3173 2.71506E+01
 -1      3174 1.95673E+01
 -1      3175 1.95827E+01
 -1      3176 1.95417E+01
 -1      3177 1.90997E+01
 -1      3178 1.93262E+01
 -1      3179 1.90917E+01
 -1      3180 1.61320E+01
 -1      3181 1.56850E+01
 -1      3182 1.59050E+01
 -1      3183 1.56755E+01
 -1      3184 1.85963E+01
 -1      3185 2.50051E+01
 -1      3186 2.46219E+01
 -1      3187 2.51251E+01
 -1      3188 2.45835E+01
 -1      3189 1.30023E+01
 -1      3190 1.31608E+01
 -1      3191 1.33566E+01
 -1      3192 1.35151E+01
 -1      3193 1.31608E+01
 -1      3194 1.86431E+01
 -1      3195 1.90415E+01
 -1      3196 1.85377E+01
 -1      3197 2.38692E+01
 -1      3198 1.89399E+01
 -1      3199 1.85190E+01
 -1      3200 1.13383E+01
 -1      3201 1.89085E+01
 -1      3202 2.19097E+01
 -1      3203 1.33832E+01
 -1      3204 2.46156E+01
 -1      3205 2.77416E+01
 -1      3206 2.32640E+01
 -1      3207 2.75399E+01
 -1      3208 2.74186E+01
 -1      3209 2.91630E+01
 -1      3210 2.90417E+01
 -1      3211 2.74186E+01
 -1      3212 2.83613E+01
 -1      3213 2.14560E+01
 -1      3214 2.81632E+01
 -1      3215 2.76784E+01
 -1      3216 2.85807E+01
 -1      3217 2.86439E+01
 -1      3218 2.81736E+01
 -1      3219 2.92843E+01
 -1      3220 2.75399E+01
 -1      3221 2.81736E+01
 -1      3222 2.45524E+01
 -1      3223 2.13269E+01
 -1      3224 1.72459E+01
 -1      3225 2.51561E+01
 -1      3226 2.10751E+01
 -1      3227 1.74823E+01
 -1      3228 1.32736E+01
 -1      3229 2.11902E+01
 -1      3230 2.24698E+01
 -1      3231 2.26917E+01
 -1      3232 2.70466E+01
 -1      3233 2.70910E+01
 -1      3234 2.91862E+01
 -1      3235 3.25647E+01
 -1      3236 2.81839E+01
 -1      3237 3.26446E+01
 -1      3238 3.34670E+01
 -1      3239 3.35469E+01
 -1      3240 1.35151E+01
 -1      3241 2.09301E+01
 -1      3242 2.27951E+01
 -1      3243 2.02829E+01
 -1      3244 2.20654E+01
 -1      3245 2.46565E+01
 -1      3246 2.09448E+01
 -1      3247 1.59651E+01
 -1      3248 1.63820E+01
 -1      3249 1.66105E+01
 -1      3250 1.57017E+01
 -1      3251 1.66105E+01
 -1      3252 2.36380E+01
 -1      3253 2.46565E+01
 -1      3254 2.26917E+01
 -1      3255 2.17165E+01
 -1      3256 1.32126E+01
 -1      3257 1.13996E+01
 -1      3258 2.00349E+01
 -1      3259 2.21022E+01
 -1      3260 1.34088E+01
 -1      3261 1.23495E+01
 -1      3262 1.20853E+01
 -1      3263 1.32509E+01
 -1      3264 1.31446E+01
 -1      3265 2.92662E+01
 -1      3266 1.66166E+01
 -1      3267 1.72620E+01
 -1      3268 1.70335E+01
 -1      3269 1.72620E+01
 -1      3270 2.23725E+01
 -1      3271 1.19937E+01
 -1      3272 1.23481E+01
 -1      3273 2.29220E+01
 -1      3274 2.79566E+01
 -1      3275 2.84027E+01
 -1      3276 2.84027E+01
 -1      3277 2.78741E+01
 -1      3278 2.41461E+01
 -1      3279 2.36360E+01
 -1      3280 2.37982E+01
 -1      3281 2.06292E+01
 -1      3282 2.16384E+01
 -1      3283 1.18618E+01
 -1      3284 1.92776E+01
 -1      3285 2.02869E+01
 -1      3286 2.48633E+01
 -1      3287 1.72459E+01
 -1      3288 1.69469E+01
 -1      3289 2.07823E+01
 -1      3290 2.52303E+01
 -1      3291 1.78557E+01
 -1      3292 1.67038E+01
 -1      3293 2.57610E+01
 -1      3294 1.76287E+01
 -1      3295 1.30595E+01
 -1      3296 2.50405E+01
 -1      3297 2.35322E+01
 -1      3298 2.43178E+01
 -1      3299 2.88492E+01
 -1      3300 2.88639E+01
 -1      3301 1.48028E+01
 -1      3302 3.35319E+01
 -1      3303 3.44342E+01
 -1      3304 2.40674E+01
 -1      3305 3.22480E+01
 -1      3306 3.16756E+01
 -1      3307 2.82072E+01
 -1      3308 1.31620E+01
 -1      3309 1.42062E+01
 -1      3310 1.37924E+01
 -1      3311 1.40693E+01
 -1      3312 1.37924E+01
 -1      3313 1.40693E+01
 -1      3314 1.31620E+01
 -1      3315 1.42062E+01
 -1      3316 2.80680E+01
 -1      3317 2.76504E+01
 -1      3318 2.47302E+01
 -1      3319 2.47302E+01
 -1      3320 2.86987E+01
 -1      3321 2.76504E+01
 -1      3322 2.04448E+01
 -1      3323 2.12539E+01
 -1      3324 1.17977E+01
 -1      3325 1.94424E+01
 -1      3326 2.02515E+01
 -1      3327 1.32509E+01
 -1      3328 1.32509E+01
 -1      3329 1.29867E+01
 -1      3330 1.32509E+01
 -1      3331 1.32509E+01
 -1      3332 1.29867E+01
 -1      3333 2.01114E+01
 -1      3334 2.88850E+01
 -1      3335 1.89824E+01
 -1      3336 2.14945E+01
 -1      3337 2.17165E+01
 -1      3338 2.40869E+01
 -1      3339 2.14958E+01
 -1      3340 2.40869E+01
 -1      3341 2.04159E+01
 -1      3342 2.30683E+01
 -1      3343 1.74728E+01
 -1      3344 1.65580E+01
 -1      3345 1.36892E+01
 -1      3346 1.35642E+01
 -1      3347 2.50691E+01
 -1      3348 2.49440E+01
 -1      3349 2.70826E+01
 -1      3350 2.49481E+01
 -1      3351 2.16379E+01
 -1      3352 1.68157E+01
 -1      3353 3.35469E+01
 -1      3354 3.54768E+01
 -1      3355 3.54768E+01
 -1      3356 3.84625E+01
 -1      3357 3.35469E+01
 -1      3358 2.33608E+01
 -1      3359 3.22771E+01
 -1      3360 3.31794E+01
 -1      3361 2.63499E+01
 -1      3362 2.62452E+01
 -1      3363 2.63499E+01
 -1      3364 2.62452E+01
 -1      3365 2.90417E+01
 -1      3366 2.81839E+01
 -1      3367 1.27850E+01
 -1      3368 2.81854E+01
 -1      3369 2.81854E+01
 -1      3370 2.82340E+01
 -1      3371 2.82769E+01
 -1      3372 2.82769E+01
 -1      3373 2.82284E+01
 -1      3374 1.28966E+01
 -1      3375 1.31850E+01
 -1      3376 1.39213E+01
 -1      3377 1.25661E+01
 -1      3378 1.41059E+01
 -1      3379 1.48422E+01
 -1      3380 1.54611E+01
 -1      3381 1.44546E+01
 -1      3382 1.44546E+01
 -1      3383 1.45402E+01
 -1      3384 1.48495E+01
 -1      3385 1.48495E+01
 -1      3386 1.47639E+01
 -1      3387 2.82769E+01
 -1      3388 2.82284E+01
 -1      3389 2.83199E+01
 -1      3390 2.74257E+01
 -1      3391 2.16091E+01
 -1      3392 1.83832E+01
 -1      3393 1.83782E+01
 -1      3394 1.84257E+01
 -1      3395 1.84207E+01
 -1      3396 2.10338E+01
 -1      3397 3.03528E+01
 -1      3398 3.21163E+01
 -1      3399 2.95626E+01
 -1      3400 3.29595E+01
 -1      3401 2.77991E+01
 -1      3402 1.34943E+01
 -1      3403 1.48495E+01
 -1      3404 1.57704E+01
 -1      3405 1.47639E+01
 -1      3406 1.51588E+01
 -1      3407 2.43518E+01
 -1      3408 2.77704E+01
 -1      3409 1.30726E+01
 -1      3410 2.73813E+01
 -1      3411 1.36770E+01
 -1      3412 1.30255E+01
 -1      3413 1.37082E+01
 -1      3414 1.30567E+01
 -1      3415 2.81495E+01
 -1      3416 2.38929E+01
 -1      3417 2.81495E+01
 -1      3418 2.43141E+01
 -1      3419 2.64848E+01
 -1      3420 2.61011E+01
 -1      3421 2.64848E+01
 -1      3422 2.61011E+01
 -1      3423 2.92843E+01
 -1      3424 2.08908E+01
 -1      3425 2.08478E+01
 -1      3426 2.09322E+01
 -1      3427 2.83183E+01
 -1      3428 2.83613E+01
 -1      3429 2.43455E+01
 -1      3430 2.43078E+01
 -1      3431 2.62645E+01
 -1      3432 2.61684E+01
 -1      3433 2.78672E+01
 -1      3434 2.77034E+01
 -1      3435 2.28994E+01
 -1      3436 2.32718E+01
 -1      3437 2.28994E+01
 -1      3438 2.27882E+01
 -1      3439 2.31606E+01
 -1      3440 2.31606E+01
 -1      3441 2.81202E+01
 -1      3442 2.07341E+01
 -1      3443 2.82046E+01
 -1      3444 2.88850E+01
 -1      3445 2.49164E+01
 -1      3446 3.54768E+01
 -1      3447 3.84625E+01
 -1      3448 1.65782E+01
 -1      3449 2.04824E+01
 -1      3450 1.70102E+01
 -1      3451 1.75684E+01
 -1      3452 2.14726E+01
 -1      3453 2.10406E+01
 -1      3454 2.09161E+01
 -1      3455 2.05074E+01
 -1      3456 2.04590E+01
 -1      3457 2.14492E+01
 -1      3458 2.14976E+01
 -1      3459 1.17076E+01
 -1      3460 1.26090E+01
 -1      3461 1.84447E+01
 -1      3462 2.33732E+01
 -1      3463 1.84447E+01
 -1      3464 2.64151E+01
 -1      3465 2.62485E+01
 -1      3466 2.63901E+01
 -1      3467 2.65567E+01
 -1      3468 2.63901E+01
 -1      3469 2.64151E+01
 -1      3470 1.93528E+01
 -1      3471 2.63875E+01
 -1      3472 1.95220E+01
 -1      3473 1.96181E+01
 -1      3474 2.66528E+01
 -1      3475 2.64836E+01
 -1      3476 2.64836E+01
 -1      3477 2.64836E+01
 -1      3478 2.67489E+01
 -1      3479 2.02976E+01
 -1      3480 2.08853E+01
 -1      3481 1.27827E+01
 -1      3482 2.09686E+01
 -1      3483 1.21950E+01
 -1      3484 1.19189E+01
 -1      3485 1.15952E+01
 -1      3486 1.86849E+01
 -1      3487 1.99570E+01
 -1      3488 1.28966E+01
 -1      3489 1.40277E+01
 -1      3490 1.57704E+01
 -1      3491 1.63820E+01
 -1      3492 2.30543E+01
 -1      3493 2.09157E+01
 -1      3494 1.28660E+01
 -1      3495 2.38529E+01
 -1      3496 2.31444E+01
 -1      3497 2.31088E+01
 -1      3498 2.65112E+01
 -1      3499 2.66528E+01
 -1      3500 2.28994E+01
 -1      3501 2.32718E+01
 -1      3502 2.32718E+01
 -1      3503 1.33024E+01
 -1      3504 1.34088E+01
 -1      3505 1.31446E+01
 -1      3506 2.30170E+01
 -1      3507 2.92662E+01
 -1      3508 3.41818E+01
 -1      3509 1.18454E+01
 -1      3510 1.15615E+01
 -1      3511 1.27972E+01
 -1      3512 1.20668E+01
 -1      3513 1.36066E+01
 -1      3514 1.43370E+01
 -1      3515 1.16555E+01
 -1      3516 1.34237E+01
 -1      3517 1.27721E+01
 -1      3518 1.30814E+01
 -1      3519 1.37330E+01
 -1      3520 1.22919E+01
 -1      3521 1.27972E+01
 -1      3522 1.23071E+01
 -1      3523 1.34237E+01
 -1      3524 1.23071E+01
 -1      3525 1.34237E+01
 -1      3526 1.22919E+01
 -1      3527 1.27972E+01
 -1      3528 2.46565E+01
 -1      3529 2.84027E+01
 -1      3530 1.48704E+01
 -1      3531 1.45855E+01
 -1      3532 2.04024E+01
 -1      3533 2.01175E+01
 -1      3534 1.77398E+01
 -1      3535 3.34611E+01
 -1      3536 2.59035E+01
 -1      3537 2.09021E+01
 -1      3538 2.81780E+01
 -1      3539 2.06204E+01
 -1      3540 2.81202E+01
 -1      3541 2.90564E+01
 -1      3542 2.63647E+01
 -1      3543 2.14492E+01
 -1      3544 2.20308E+01
 -1      3545 2.14976E+01
 -1      3546 1.71141E+01
 -1      3547 2.10183E+01
 -1      3548 2.15765E+01
 -1      3549 2.80065E+01
 -1      3550 1.23010E+01
 -1      3551 2.58083E+01
 -1      3552 2.89915E+01
 -1      3553 1.82623E+01
 -1      3554 1.90228E+01
 -1      3555 2.68461E+01
 -1      3556 2.04967E+01
 -1      3557 1.97362E+01
 -1      3558 2.74389E+01
 -1      3559 2.83613E+01
 -1      3560 2.69432E+01
 -1      3561 2.69876E+01
 -1      3562 2.12234E+01
 -1      3563 1.73105E+01
 -1      3564 1.72679E+01
 -1      3565 1.74236E+01
 -1      3566 1.74661E+01
 -1      3567 2.06481E+01
 -1      3568 2.37261E+01
 -1      3569 2.37242E+01
 -1      3570 2.37198E+01
 -1      3571 2.37179E+01
 -1      3572 2.74378E+01
 -1      3573 2.74432E+01
 -1      3574 2.68873E+01
 -1      3575 2.68755E+01
 -1      3576 2.68885E+01
 -1      3577 2.74443E+01
 -1      3578 1.95220E+01
 -1      3579 2.65567E+01
 -1      3580 2.66528E+01
 -1      3581 2.63901E+01
 -1      3582 2.65567E+01
 -1      3583 2.68766E+01
 -1      3584 2.51780E+01
 -1      3585 2.77846E+01
 -1      3586 1.12205E+01
 -1      3587 1.33832E+01
 -1      3588 1.22313E+01
 -1      3589 1.12205E+01
 -1      3590 2.19564E+01
 -1      3591 2.14233E+01
 -1      3592 2.19564E+01
 -1      3593 9.70019E+00
 -1      3594 2.58083E+01
 -1      3595 2.86987E+01
 -1      3596 1.25486E+01
 -1      3597 2.49164E+01
 -1      3598 2.90712E+01
 -1      3599 2.82769E+01
 -1      3600 2.82769E+01
 -1      3601 2.83199E+01
 -1      3602 1.93965E+01
 -1      3603 1.39213E+01
 -1      3604 2.83199E+01
 -1      3605 1.88639E+01
 -1      3606 2.39641E+01
 -1      3607 1.81715E+01
 -1      3608 1.80441E+01
 -1      3609 2.31444E+01
 -1      3610 2.38368E+01
 -1      3611 1.45402E+01
 -1      3612 1.45402E+01
 -1      3613 1.48495E+01
 -1      3614 1.39213E+01
 -1      3615 1.54611E+01
 -1      3616 2.83613E+01
 -1      3617 2.13983E+01
 -1      3618 2.15021E+01
 -1      3619 1.49195E+01
 -1      3620 1.48763E+01
 -1      3621 2.11931E+01
 -1      3622 1.83397E+01
 -1      3623 1.83829E+01
 -1      3624 2.66528E+01
 -1      3625 2.66528E+01
 -1      3626 1.15772E+01
 -1      3627 2.10673E+01
 -1      3628 1.88144E+01
 -1      3629 1.90083E+01
 -1      3630 2.03126E+01
 -1      3631 2.67022E+01
 -1      3632 2.65083E+01
 -1      3633 1.48495E+01
 -1      3634 2.81632E+01
 -1      3635 2.09662E+01
 -1      3636 2.63647E+01
 -1      3637 2.90712E+01
 -1      3638 2.64836E+01
 -1      3639 2.39641E+01
 -1      3640 2.65112E+01
 -1      3641 1.91626E+01
 -1      3642 2.04669E+01
 -1      3643 2.69003E+01
 -1      3644 2.06650E+01
 -1      3645 2.35006E+01
 -1      3646 2.35006E+01
 -1      3647 2.33894E+01
 -1      3648 1.19480E+01
 -1      3649 2.03732E+01
 -1      3650 3.60856E+01
 -1      3651 1.08339E+01
 -1      3652 1.16466E+01
 -1      3653 1.20010E+01
 -1      3654 1.45460E+01
 -1      3655 2.08628E+01
 -1      3656 1.75200E+01
 -1      3657 2.00431E+01
 -1      3658 1.27133E+01
 -1      3659 1.75356E+01
 -1      3660 1.28065E+01
 -1      3661 1.27133E+01
 -1      3662 2.77995E+01
 -1      3663 3.55132E+01
 -1      3664 3.21163E+01
 -1      3665 1.81715E+01
 -1      3666 2.78963E+01
 -1      3667 1.27529E+01
 -1      3668 1.28362E+01
 -1      3669 1.15074E+01
 -1      3670 1.88370E+01
 -1      3671 1.14179E+01
 -1      3672 1.90627E+01
 -1      3673 2.35006E+01
 -1      3674 1.80885E+01
 -1      3675 2.30170E+01
 -1      3676 2.38368E+01
 -1      3677 1.16431E+01
 -1      3678 2.04767E+01
 -1      3679 1.19018E+01
 -1      3680 1.18658E+01
 -1      3681 1.31850E+01
 -1      3682 1.32210E+01
 -1      3683 1.32210E+01
 -1      3684 1.05561E+01
 -1      3685 1.19113E+01
 -1      3686 1.35303E+01
 -1      3687 1.35303E+01
 -1      3688 1.98145E+01
 -1      3689 1.94583E+01
 -1      3690 1.42407E+01
 -1      3691 1.51616E+01
 -1      3692 1.38500E+01
 -1      3693 1.47709E+01
 -1      3694 2.81632E+01
 -1      3695 2.82046E+01
 -1      3696 2.26049E+01
 -1      3697 2.26463E+01
 -1      3698 2.62452E+01
 -1      3699 2.60537E+01
 -1      3700 2.32573E+01
 -1      3701 1.83937E+01
 -1      3702 1.82023E+01
 -1      3703 1.23776E+01
 -1      3704 2.06935E+01
 -1      3705 1.99181E+01
 -1      3706 1.99611E+01
 -1      3707 2.07365E+01
 -1      3708 1.20451E+01
 -1      3709 1.95856E+01
 -1      3710 1.20406E+01
 -1      3711 2.06891E+01
 -1      3712 2.20175E+01
 -1      3713 2.57383E+01
 -1      3714 1.89039E+01
 -1      3715 2.02122E+01
 -1      3716 1.09445E+01
 -1      3717 1.49525E+01
 -1      3718 1.12257E+01
 -1      3719 1.39582E+01
 -1      3720 1.26556E+01
 -1      3721 1.50026E+01
 -1      3722 1.31255E+01
 -1      3723 1.24051E+01
 -1      3724 1.50026E+01
 -1      3725 1.47275E+01
 -1      3726 1.44566E+01
 -1      3727 1.87669E+01
 -1      3728 1.42242E+01
 -1      3729 1.74882E+01
 -1      3730 1.52083E+01
 -1      3731 1.70415E+01
 -1      3732 1.44708E+01
 -1      3733 1.83095E+01
 -1      3734 1.88392E+01
 -1      3735 1.81185E+01
 -1      3736 2.10031E+01
 -1      3737 2.52283E+01
 -1      3738 2.05812E+01
 -1      3739 1.61846E+01
 -1      3740 1.85203E+01
 -1      3741 1.61884E+01
 -1      3742 2.15868E+01
 -1      3743 1.61257E+01
 -1      3744 1.84895E+01
 -1      3745 1.49581E+01
 -1      3746 1.94589E+01
 -1      3747 1.21818E+01
 -1      3748 2.02701E+01
 -1      3749 1.61296E+01
 -1      3750 2.15713E+01
 -1      3751 1.88667E+01
 -1      3752 2.02541E+01
 -1      3753 1.89408E+01
 -1      3754 2.58221E+01
 -1      3755 2.20623E+01
 -1      3756 1.89501E+01
 -1      3757 1.67907E+01
 -1      3758 1.81063E+01
 -1      3759 2.05733E+01
 -1      3760 1.21668E+01
 -1      3761 1.61075E+01
 -1      3762 2.02610E+01
 -1      3763 1.94551E+01
 -1      3764 1.47740E+01
 -1      3765 1.20340E+01
 -1      3766 1.89673E+01
 -1      3767 1.96233E+01
 -1      3768 1.81836E+01
 -1      3769 2.53036E+01
 -1      3770 1.56155E+01
 -1      3771 1.97575E+01
 -1      3772 1.47879E+01
 -1      3773 1.90436E+01
 -1      3774 2.41930E+01
 -1      3775 2.33732E+01
 -1      3776 1.20523E+01
 -1      3777 1.52272E+01
 -1      3778 1.51180E+01
 -1      3779 1.02949E+01
 -1      3780 1.62175E+01
 -1      3781 1.61082E+01
 -1      3782 1.50453E+01
 -1      3783 1.86163E+01
 -1      3784 1.02835E+01
 -1      3785 1.20675E+01
 -1      3786 1.92314E+01
 -1      3787 2.01733E+01
 -1      3788 2.74492E+01
 -1      3789 3.20302E+01
 -1      3790 2.45986E+01
 -1      3791 2.11155E+01
 -1      3792 2.81926E+01
 -1      3793 2.07610E+01
 -1      3794 2.39560E+01
 -1      3795 1.90965E+01
 -1      3796 1.67791E+01
 -1      3797 2.40976E+01
 -1      3798 1.92381E+01
 -1      3799 2.39729E+01
 -1      3800 1.90709E+01
 -1      3801 1.68256E+01
 -1      3802 2.42382E+01
 -1      3803 1.93362E+01
 -1      3804 1.16466E+01
 -1      3805 1.77067E+01
 -1      3806 1.67853E+01
 -1      3807 1.35776E+01
 -1      3808 1.68276E+01
 -1      3809 1.59063E+01
 -1      3810 2.00354E+01
 -1      3811 1.78115E+01
 -1      3812 1.67545E+01
 -1      3813 1.36015E+01
 -1      3814 1.69125E+01
 -1      3815 1.58554E+01
 -1      3816 2.00654E+01
 -1      3817 2.02912E+01
 -1      3818 1.95856E+01
 -1      3819 1.94744E+01
 -1      3820 1.76285E+01
 -1      3821 1.71807E+01
 -1      3822 1.99700E+01
 -1      3823 2.04171E+01
 -1      3824 1.95308E+01
 -1      3825 2.03420E+01
 -1      3826 2.76191E+01
 -1      3827 2.05812E+01
 -1      3828 2.52283E+01
 -1      3829 2.76910E+01
 -1      3830 1.42407E+01
 -1      3831 1.45500E+01
 -1      3832 1.32312E+01
 -1      3833 1.47709E+01
 -1      3834 2.65987E+01
 -1      3835 2.66417E+01
 -1      3836 2.25619E+01
 -1      3837 2.04537E+01
 -1      3838 2.26049E+01
 -1      3839 9.74693E+00
 -1      3840 9.88125E+00
 -1      3841 1.63518E+01
 -1      3842 1.55603E+01
 -1      3843 1.23521E+01
 -1      3844 1.25967E+01
 -1      3845 1.56108E+01
 -1      3846 1.59077E+01
 -1      3847 1.26632E+01
 -1      3848 1.59132E+01
 -1      3849 1.23631E+01
 -1      3850 1.56062E+01
 -1      3851 1.77641E+01
 -1      3852 1.75038E+01
 -1      3853 1.99664E+01
 -1      3854 2.54887E+01
 -1      3855 1.19759E+01
 -1      3856 1.09899E+01
 -1      3857 1.85448E+01
 -1      3858 2.01361E+01
 -1      3859 1.95271E+01
 -1      3860 2.03330E+01
 -1      3861 2.76213E+01
 -1      3862 2.05733E+01
 -1      3863 2.53036E+01
 -1      3864 2.76933E+01
 -1      3865 1.19745E+01
 -1      3866 2.01407E+01
 -1      3867 1.75053E+01
 -1      3868 1.98950E+01
 -1      3869 1.81124E+01
 -1      3870 1.87275E+01
 -1      3871 2.52763E+01
 -1      3872 1.08931E+01
 -1      3873 1.17399E+01
 -1      3874 1.83999E+01
 -1      3875 1.72656E+01
 -1      3876 1.09967E+01
 -1      3877 1.85493E+01
 -1      3878 1.86796E+01
 -1      3879 1.92194E+01
 -1      3880 1.20948E+01
 -1      3881 1.81260E+01
 -1      3882 1.86658E+01
 -1      3883 2.52506E+01
 -1      3884 1.66764E+01
 -1      3885 1.91355E+01
 -1      3886 2.80065E+01
 -1      3887 2.38368E+01
 -1      3888 2.30170E+01
 -1      3889 1.66256E+01
 -1      3890 2.40467E+01
 -1      3891 1.67295E+01
 -1      3892 1.92401E+01
 -1      3893 1.08410E+01
 -1      3894 1.11231E+01
 -1      3895 1.71543E+01
 -1      3896 1.83837E+01
 -1      3897 1.77638E+01
 -1      3898 2.55620E+01
 -1      3899 2.02949E+01
 -1      3900 1.65746E+01
 -1      3901 1.99987E+01
 -1      3902 1.65641E+01
 -1      3903 2.02699E+01
 -1      3904 1.99707E+01
 -1      3905 2.82046E+01
 -1      3906 1.17462E+01
 -1      3907 1.18114E+01
 -1      3908 1.76310E+01
 -1      3909 1.74522E+01
 -1      3910 1.75658E+01
 -1      3911 1.55764E+01
 -1      3912 1.68770E+01
 -1      3913 2.79079E+01
 -1      3914 2.79750E+01
 -1      3915 1.66532E+01
 -1      3916 1.72229E+01
 -1      3917 2.56595E+01
 -1      3918 2.51258E+01
 -1      3919 1.58260E+01
 -1      3920 1.71266E+01
 -1      3921 2.57922E+01
 -1      3922 2.51372E+01
 -1      3923 1.76857E+01
 -1      3924 1.82553E+01
 -1      3925 1.65832E+01
 -1      3926 2.40920E+01
 -1      3927 2.57801E+01
 -1      3928 1.90415E+01
 -1      3929 2.04090E+01
 -1      3930 2.23972E+01
 -1      3931 2.22295E+01
 -1      3932 2.56716E+01
 -1      3933 1.90726E+01
 -1      3934 2.09420E+01
 -1      3935 2.05874E+01
 -1      3936 1.82023E+01
 -1      3937 1.33387E+01
 -1      3938 2.01415E+01
 -1      3939 2.73921E+01
 -1      3940 1.91227E+01
 -1      3941 1.93759E+01
 -1      3942 1.18708E+01
 -1      3943 1.18708E+01
 -1      3944 2.02090E+01
 -1      3945 2.01370E+01
 -1      3946 2.76201E+01
 -1      3947 2.02079E+01
 -1      3948 2.76921E+01
 -1      3949 1.11653E+01
 -1      3950 1.12027E+01
 -1      3951 2.07238E+01
 -1      3952 2.76921E+01
 -1      3953 2.07227E+01
 -1      3954 2.07227E+01
 -1      3955 2.07343E+01
 -1      3956 2.07343E+01
 -1      3957 2.76921E+01
 -1      3958 2.07331E+01
 -1      3959 2.76921E+01
 -1      3960 2.73995E+01
 -1      3961 2.76191E+01
 -1      3962 2.74714E+01
 -1      3963 2.74714E+01
 -1      3964 2.76910E+01
 -1      3965 2.76478E+01
 -1      3966 2.76478E+01
 -1      3967 2.76478E+01
 -1      3968 2.76910E+01
 -1      3969 2.02031E+01
 -1      3970 2.76202E+01
 -1      3971 2.01301E+01
 -1      3972 2.02020E+01
 -1      3973 2.04272E+01
 -1      3974 2.06805E+01
 -1      3975 2.76473E+01
 -1      3976 2.76933E+01
 -1      3977 2.76473E+01
 -1      3978 2.76473E+01
 -1      3979 2.76933E+01
 -1      3980 2.02780E+01
 -1      3981 1.37282E+01
 -1      3982 1.33375E+01
 -1      3983 1.34088E+01
 -1      3984 2.74668E+01
 -1      3985 2.73948E+01
 -1      3986 2.74668E+01
 -1      3987 2.76213E+01
 -1      3988 1.18005E+01
 -1      3989 2.33190E+01
 -1      3990 1.06661E+01
 -1      3991 2.24482E+01
 -1      3992 1.19849E+01
 -1      3993 1.95298E+01
 -1      3994 1.17847E+01
 -1      3995 2.04889E+01
 -1      3996 1.36258E+01
 -1      3997 1.76002E+01
 -1      3998 1.25486E+01
 -1      3999 2.80065E+01
 -1      4000 1.04836E+01
 -1      4001 1.65300E+01
 -1      4002 1.72254E+01
 -1      4003 1.61832E+01
 -1      4004 1.54878E+01
 -1      4005 1.23428E+01
 -1      4006 2.80564E+01
 -1      4007 3.60856E+01
 -1      4008 2.09508E+01
 -1      4009 2.11221E+01
 -1      4010 2.09508E+01
 -1      4011 2.09508E+01
 -1      4012 2.11221E+01
 -1      4013 2.11221E+01
 -1      4014 2.58083E+01
 -1      4015 1.78919E+01
 -1      4016 2.00654E+01
 -1      4017 2.00404E+01
 -1      4018 2.29225E+01
 -1      4019 2.52975E+01
 -1      4020 2.52854E+01
 -1      4021 1.08240E+01
 -1      4022 1.75658E+01
 -1      4023 1.92708E+01
 -1      4024 2.02299E+01
 -1      4025 1.68910E+01
 -1      4026 1.68910E+01
 -1      4027 1.73453E+01
 -1      4028 2.15765E+01
 -1      4029 2.15765E+01
 -1      4030 1.15603E+01
 -1      4031 1.72663E+01
 -1      4032 1.31446E+01
 -1      4033 1.18405E+01
 -1      4034 1.94182E+01
 -1      4035 1.70470E+01
 -1      4036 2.10433E+01
 -1      4037 1.69682E+01
 -1      4038 1.75014E+01
 -1      4039 2.76933E+01
 -1      4040 2.76213E+01
 -1      4041 2.76921E+01
 -1      4042 2.76933E+01
 -1      4043 2.76933E+01
 -1      4044 2.76921E+01
 -1      4045 2.76921E+01
 -1      4046 2.76202E+01
 -1      4047 2.14555E+01
 -1      4048 1.71800E+01
 -1      4049 1.66047E+01
 -1      4050 2.10012E+01
 -1      4051 1.67256E+01
 -1      4052 1.44226E+01
 -1      4053 1.40920E+01
 -1      4054 2.62981E+01
 -1      4055 2.61805E+01
 -1      4056 2.59219E+01
 -1      4057 2.62981E+01
 -1      4058 2.61805E+01
 -1      4059 2.62766E+01
 -1      4060 1.99720E+01
 -1      4061 1.94997E+01
 -1      4062 1.98759E+01
 -1      4063 1.88184E+01
 -1      4064 2.09508E+01
 -1      4065 2.09508E+01
 -1      4066 2.08470E+01
 -1      4067 2.10183E+01
 -1      4068 2.10012E+01
 -1      4069 2.08299E+01
 -1      4070 1.74522E+01
 -1      4071 2.20308E+01
 -1      4072 2.20308E+01
 -1      4073 2.20308E+01
 -1      4074 2.20308E+01
 -1      4075 2.20308E+01
 -1      4076 1.83447E+01
 -1      4077 1.72876E+01
 -1      4078 1.62486E+01
 -1      4079 1.71624E+01
 -1      4080 1.84304E+01
 -1      4081 1.62311E+01
 -1      4082 1.22432E+01
 -1      4083 1.20853E+01
 -1      4084 1.01978E+01
 -1      4085 1.00400E+01
 -1      4086 1.63529E+01
 -1      4087 1.82570E+01
 -1      4088 1.59570E+01
 -1      4089 1.77407E+01
 -1      4090 1.73511E+01
 -1      4091 1.31620E+01
 -1      4092 1.37924E+01
 -1      4093 1.76516E+01
 -1      4094 1.14762E+01
 -1      4095 9.13857E+00
 -1      4096 1.07257E+01
 -1      4097 1.98879E+01
 -1      4098 1.90558E+01
 -1      4099 1.95956E+01
 -1      4100 1.78776E+01
 -1      4101 2.00266E+01
 -1      4102 2.75097E+01
 -1      4103 1.79919E+01
 -1      4104 1.94286E+01
 -1      4105 1.98013E+01
 -1      4106 2.00749E+01
 -1      4107 2.31942E+01
 -1      4108 2.72779E+01
 -1      4109 2.11547E+01
 -1      4110 2.11547E+01
 -1      4111 1.71276E+01
 -1      4112 1.80511E+01
 -1      4113 1.78733E+01
 -1      4114 1.72782E+01
 -1      4115 1.82018E+01
 -1      4116 1.80311E+01
 -1      4117 1.63725E+01
 -1      4118 2.12234E+01
 -1      4119 2.00023E+01
 -1      4120 2.15765E+01
 -1      4121 2.12234E+01
 -1      4122 1.99295E+01
 -1      4123 2.68873E+01
 -1      4124 1.99072E+01
 -1      4125 2.68766E+01
 -1      4126 2.15021E+01
 -1      4127 2.15021E+01
 -1      4128 2.00262E+01
 -1      4129 2.75163E+01
 -1      4130 2.72902E+01
 -1      4131 2.68441E+01
 -1      4132 1.62986E+01
 -1      4133 2.03737E+01
 -1      4134 2.02024E+01
 -1      4135 2.39917E+01
 -1      4136 2.41467E+01
 -1      4137 2.39975E+01
 -1      4138 2.41071E+01
 -1      4139 1.91764E+01
 -1      4140 2.14244E+01
 -1      4141 2.14245E+01
 -1      4142 1.16536E+01
 -1      4143 1.93198E+01
 -1      4144 2.72779E+01
 -1      4145 1.91310E+01
 -1      4146 1.37836E+01
 -1      4147 1.36251E+01
 -1      4148 1.46145E+01
 -1      4149 1.00592E+01
 -1      4150 1.55383E+01
 -1      4151 1.52779E+01
 -1      4152 1.59034E+01
 -1      4153 1.48328E+01
 -1      4154 1.09865E+01
 -1      4155 1.56074E+01
 -1      4156 1.88839E+01
 -1      4157 1.69724E+01
 -1      4158 1.96212E+01
 -1      4159 1.83674E+01
 -1      4160 2.59098E+01
 -1      4161 2.61684E+01
 -1      4162 1.08217E+01
 -1      4163 1.69533E+01
 -1      4164 1.08639E+01
 -1      4165 2.68307E+01
 -1      4166 1.91090E+01
 -1      4167 2.19745E+01
 -1      4168 1.93670E+01
 -1      4169 2.61439E+01
 -1      4170 2.00718E+01
 -1      4171 2.72898E+01
 -1      4172 2.56040E+01
 -1      4173 1.83395E+01
 -1      4174 1.87641E+01
 -1      4175 1.84679E+01
 -1      4176 1.96182E+01
 -1      4177 1.85818E+01
 -1      4178 1.44772E+01
 -1      4179 1.46400E+01
 -1      4180 1.44780E+01
 -1      4181 1.56326E+01
 -1      4182 1.43165E+01
 -1      4183 1.61504E+01
 -1      4184 1.50041E+01
 -1      4185 1.48769E+01
 -1      4186 1.52928E+01
 -1      4187 1.57333E+01
 -1      4188 1.69871E+01
 -1      4189 1.78051E+01
 -1      4190 1.97339E+01
 -1      4191 2.54166E+01
 -1      4192 1.93895E+01
 -1      4193 1.83257E+01
 -1      4194 1.69690E+01
 -1      4195 1.86931E+01
 -1      4196 1.83056E+01
 -1      4197 1.78457E+01
 -1      4198 2.30563E+01
 -1      4199 1.25790E+01
 -1      4200 1.25756E+01
 -1      4201 1.73453E+01
 -1      4202 1.90349E+01
 -1      4203 1.97304E+01
 -1      4204 1.93689E+01
 -1      4205 2.54557E+01
 -1      4206 1.98905E+01
 -1      4207 2.31704E+01
 -1      4208 1.89313E+01
 -1      4209 2.75482E+01
 -1      4210 2.75163E+01
 -1      4211 2.70910E+01
 -1      4212 1.76425E+01
 -1      4213 1.80511E+01
 -1      4214 1.82067E+01
 -1      4215 2.14555E+01
 -1      4216 2.13812E+01
 -1      4217 2.19564E+01
 -1      4218 2.11490E+01
 -1      4219 2.18476E+01
 -1      4220 2.09395E+01
 -1      4221 2.07537E+01
 -1      4222 2.73593E+01
 -1      4223 2.75109E+01
 -1      4224 2.39249E+01
 -1      4225 2.41558E+01
 -1      4226 2.41539E+01
 -1      4227 1.18701E+01
 -1      4228 1.06610E+01
 -1      4229 1.18587E+01
 -1      4230 1.02557E+01
 -1      4231 1.06101E+01
 -1      4232 1.80424E+01
 -1      4233 1.78220E+01
 -1      4234 1.12711E+01
 -1      4235 1.16316E+01
 -1      4236 2.76921E+01
 -1      4237 2.68885E+01
 -1      4238 2.57922E+01
 -1      4239 2.62766E+01
 -1      4240 2.61439E+01
 -1      4241 2.68766E+01
 -1      4242 1.12975E+01
 -1      4243 1.16145E+01
 -1      4244 1.17438E+01
 -1      4245 2.62645E+01
 -1      4246 2.66528E+01
 -1      4247 1.64488E+01
 -1      4248 1.64251E+01
 -1      4249 1.78468E+01
 -1      4250 1.68892E+01
 -1      4251 1.57745E+01
 -1      4252 1.78105E+01
 -1      4253 1.87669E+01
 -1      4254 1.66308E+01
 -1      4255 1.74882E+01
 -1      4256 1.89673E+01
 -1      4257 1.82677E+01
 -1      4258 1.96233E+01
 -1      4259 1.29263E+01
 -1      4260 1.29263E+01
 -1      4261 1.70870E+01
 -1      4262 3.26063E+01
 -1      4263 2.78361E+01
 -1      4264 3.08240E+01
 -1      4265 3.08240E+01
 -1      4266 2.74186E+01
 -1      4267 2.90417E+01
 -1      4268 1.14356E+01
 -1      4269 1.05956E+01
 -1      4270 2.07985E+01
 -1      4271 2.02029E+01
 -1      4272 2.83613E+01
 -1      4273 1.56896E+01
 -1      4274 1.40277E+01
 -1      4275 2.80994E+01
 -1      4276 2.54409E+01
 -1      4277 2.97054E+01
 -1      4278 2.94949E+01
 -1      4279 2.94949E+01
 -1      4280 1.24947E+01
 -1      4281 1.24344E+01
 -1      4282 2.41930E+01
 -1      4283 3.08240E+01
 -1      4284 2.62452E+01
 -1      4285 2.31513E+01
 -1      4286 2.78672E+01
 -1      4287 2.91658E+01
 -1      4288 2.49954E+01
 -1      4289 2.91185E+01
 -1      4290 2.91185E+01
 -1      4291 1.02677E+01
 -1      4292 1.10769E+01
 -1      4293 1.97240E+01
 -1      4294 2.04447E+01
 -1      4295 3.08240E+01
 -1      4296 1.55761E+01
 -1      4297 2.08743E+01
 -1      4298 2.58757E+01
 -1      4299 2.81628E+01
 -1      4300 2.74954E+01
 -1      4301 3.21372E+01
 -1      4302 3.04180E+01
 -1      4303 3.04180E+01
 -1      4304 2.57762E+01
 -1      4305 1.09586E+01
 -1      4306 2.07317E+01
 -1      4307 2.81736E+01
 -1      4308 2.92843E+01
 -1      4309 1.43649E+01
 -1      4310 2.08891E+01
 -1      4311 2.43721E+01
 -1      4312 2.55060E+01
 -1      4313 1.59034E+01
 -1      4314 1.52779E+01
 -1      4315 1.05547E+01
 -1      4316 1.55994E+01
 -1      4317 2.75804E+01
 -1      4318 2.94949E+01
 -1      4319 2.64848E+01
 -1      4320 2.94949E+01
 -1      4321 1.81774E+01
 -1      4322 2.00968E+01
 -1      4323 1.12753E+01
 -1      4324 2.91185E+01
 -1      4325 1.11912E+01
 -1      4326 2.07985E+01
 -1      4327 1.64393E+01
 -1      4328 2.41834E+01
 -1      4329 1.75732E+01
 -1      4330 1.46927E+01
 -1      4331 1.55946E+01
 -1      4332 1.54318E+01
 -1      4333 1.55932E+01
 -1      4334 1.54318E+01
 -1      4335 1.46982E+01
 -1      4336 1.65407E+01
 -1      4337 1.61002E+01
 -1      4338 1.58762E+01
 -1      4339 1.50950E+01
 -1      4340 1.56652E+01
 -1      4341 1.61830E+01
 -1      4342 2.55979E+01
 -1      4343 1.93827E+01
 -1      4344 1.99152E+01
 -1      4345 1.70596E+01
 -1      4346 1.76128E+01
 -1      4347 1.84307E+01
 -1      4348 1.86050E+01
 -1      4349 1.91294E+01
 -1      4350 2.01932E+01
 -1      4351 1.84356E+01
 -1      4352 1.70302E+01
 -1      4353 1.75589E+01
 -1      4354 2.56327E+01
 -1      4355 1.93433E+01
 -1      4356 1.99074E+01
 -1      4357 2.91185E+01
 -1      4358 2.90712E+01
 -1      4359 2.01855E+01
 -1      4360 1.86007E+01
 -1      4361 1.91222E+01
 -1      4362 2.36613E+01
 -1      4363 1.95363E+01
 -1      4364 1.88432E+01
 -1      4365 1.09346E+01
 -1      4366 1.91312E+01
 -1      4367 2.03286E+01
 -1      4368 1.86452E+01
 -1      4369 1.63696E+01
 -1      4370 1.29879E+01
 -1      4371 1.69066E+01
 -1      4372 1.90975E+01
 -1      4373 1.25087E+01
 -1      4374 1.33154E+01
 -1      4375 2.59021E+01
 -1      4376 2.76504E+01
 -1      4377 3.04180E+01
 -1      4378 2.86987E+01
 -1      4379 2.81628E+01
 -1      4380 1.87270E+01
 -1      4381 2.35586E+01
 -1      4382 1.94231E+01
 -1      4383 1.08645E+01
 -1      4384 1.05956E+01
 -1      4385 1.93453E+01
 -1      4386 2.91185E+01
 -1      4387 1.56025E+01
 -1      4388 1.56253E+01
 -1      4389 1.57525E+01
 -1      4390 1.48647E+01
 -1      4391 2.91185E+01
 -1      4392 1.25189E+01
 -1      4393 3.04180E+01
 -1      4394 3.04180E+01
 -1      4395 1.29263E+01
 -1      4396 2.28858E+01
 -1      4397 1.78598E+01
 -1      4398 1.28431E+01
 -1      4399 1.27827E+01
 -1      4400 1.11972E+01
 -1      4401 1.42252E+01
 -1      4402 1.23511E+01
 -1      4403 1.28621E+01
 -3
 9999
