    1C
    1USimple_beam.                                                      
    1UUSER                                                              
    1UDATE              16.february.2025                                
    1UTIME              10:35:27                                        
    1UHOST                                                              
    1UPGM               CalculiX                                        
    1UVERSION           Version 2.22                             
    1UCOMPILETIME       Sun Aug  4 19:39:24     2024                    
    1UDIR                                                               
    1UDBN                                                               
    1UMAT    1STEEL                                                     

    1PSTEP                         1           1           1          
  100CL  101 0.00000E+00        4403                     4    1           1
 -4  DISP        4    1
 -5  D1          1    2    1    0
 -5  D2          1    2    2    0
 -5  D3          1    2    3    0
 -5  ALL         1    2    0    0    1ALL
 -1         1 0.00000E+00 0.00000E+00 0.00000E+00
 -1         2 0.00000E+00 0.00000E+00 0.00000E+00
 -1         3 0.00000E+00 0.00000E+00 0.00000E+00
 -1         4 0.00000E+00 0.00000E+00 0.00000E+00
 -1         5-9.49257E-02-1.42346E-03 1.42390E-03
 -1         6-9.49262E-02-1.42274E-03-1.43324E-03
 -1         7-9.49263E-02 1.43368E-03 1.42463E-03
 -1         8-9.49268E-02 1.43440E-03-1.43252E-03
 -1         9 0.00000E+00 0.00000E+00 0.00000E+00
 -1        10 0.00000E+00 0.00000E+00 0.00000E+00
 -1        11 0.00000E+00 0.00000E+00 0.00000E+00
 -1        12 0.00000E+00 0.00000E+00 0.00000E+00
 -1        13 0.00000E+00 0.00000E+00 0.00000E+00
 -1        14 0.00000E+00 0.00000E+00 0.00000E+00
 -1        15 0.00000E+00 0.00000E+00 0.00000E+00
 -1        16 0.00000E+00 0.00000E+00 0.00000E+00
 -1        17 0.00000E+00 0.00000E+00 0.00000E+00
 -1        18 0.00000E+00 0.00000E+00 0.00000E+00
 -1        19 0.00000E+00 0.00000E+00 0.00000E+00
 -1        20 0.00000E+00 0.00000E+00 0.00000E+00
 -1        21 0.00000E+00 0.00000E+00 0.00000E+00
 -1        22 0.00000E+00 0.00000E+00 0.00000E+00
 -1        23 0.00000E+00 0.00000E+00 0.00000E+00
 -1        24 0.00000E+00 0.00000E+00 0.00000E+00
 -1        25 0.00000E+00 0.00000E+00 0.00000E+00
 -1        26 0.00000E+00 0.00000E+00 0.00000E+00
 -1        27 0.00000E+00 0.00000E+00 0.00000E+00
 -1        28 0.00000E+00 0.00000E+00 0.00000E+00
 -1        29 0.00000E+00 0.00000E+00 0.00000E+00
 -1        30 0.00000E+00 0.00000E+00 0.00000E+00
 -1        31 0.00000E+00 0.00000E+00 0.00000E+00
 -1        32 0.00000E+00 0.00000E+00 0.00000E+00
 -1        33 0.00000E+00 0.00000E+00 0.00000E+00
 -1        34 0.00000E+00 0.00000E+00 0.00000E+00
 -1        35 0.00000E+00 0.00000E+00 0.00000E+00
 -1        36 0.00000E+00 0.00000E+00 0.00000E+00
 -1        37-9.49260E-02-1.42292E-03-7.18953E-04
 -1        38-9.49259E-02-1.42310E-03-4.66732E-06
 -1        39-9.49258E-02-1.42328E-03 7.09618E-04
 -1        40-9.49261E-02-1.42283E-03-1.07610E-03
 -1        41-9.49260E-02-1.42301E-03-3.61810E-04
 -1        42-9.49259E-02-1.42319E-03 3.52476E-04
 -1        43-9.49257E-02-1.42337E-03 1.06676E-03
 -1        44-9.49258E-02-7.09176E-04 1.42408E-03
 -1        45-9.49260E-02 5.10932E-06 1.42427E-03
 -1        46-9.49261E-02 7.19395E-04 1.42445E-03
 -1        47-9.49258E-02-1.06632E-03 1.42399E-03
 -1        48-9.49259E-02-3.52034E-04 1.42418E-03
 -1        49-9.49261E-02 3.62252E-04 1.42436E-03
 -1        50-9.49262E-02 1.07654E-03 1.42454E-03
 -1        51-9.49266E-02 1.43422E-03-7.18229E-04
 -1        52-9.49265E-02 1.43404E-03-3.94364E-06
 -1        53-9.49264E-02 1.43386E-03 7.10342E-04
 -1        54-9.49267E-02 1.43431E-03-1.07537E-03
 -1        55-9.49266E-02 1.43413E-03-3.61086E-04
 -1        56-9.49265E-02 1.43395E-03 3.53199E-04
 -1        57-9.49263E-02 1.43377E-03 1.06748E-03
 -1        58-9.49263E-02-7.08453E-04-1.43306E-03
 -1        59-9.49265E-02 5.83301E-06-1.43288E-03
 -1        60-9.49266E-02 7.20119E-04-1.43270E-03
 -1        61-9.49262E-02-1.06560E-03-1.43315E-03
 -1        62-9.49264E-02-3.51310E-04-1.43297E-03
 -1        63-9.49265E-02 3.62976E-04-1.43279E-03
 -1        64-9.49267E-02 1.07726E-03-1.43261E-03
 -1        65-2.95201E-03-1.20998E-03-1.21221E-03
 -1        66-5.43632E-03-1.41754E-03-1.41156E-03
 -1        67-8.11863E-03-1.43775E-03-1.43676E-03
 -1        68-1.08948E-02-1.43229E-03-1.43318E-03
 -1        69-1.36922E-02-1.42923E-03-1.43037E-03
 -1        70-1.64941E-02-1.42796E-03-1.42948E-03
 -1        71-1.92957E-02-1.42758E-03-1.42942E-03
 -1        72-2.20970E-02-1.42739E-03-1.42955E-03
 -1        73-2.48981E-02-1.42722E-03-1.42971E-03
 -1        74-2.76993E-02-1.42704E-03-1.42985E-03
 -1        75-3.05004E-02-1.42687E-03-1.43000E-03
 -1        76-3.33015E-02-1.42669E-03-1.43014E-03
 -1        77-3.61026E-02-1.42651E-03-1.43028E-03
 -1        78-3.89038E-02-1.42633E-03-1.43042E-03
 -1        79-4.17049E-02-1.42615E-03-1.43056E-03
 -1        80-4.45060E-02-1.42597E-03-1.43070E-03
 -1        81-4.73071E-02-1.42579E-03-1.43084E-03
 -1        82-5.01082E-02-1.42561E-03-1.43098E-03
 -1        83-5.29094E-02-1.42543E-03-1.43112E-03
 -1        84-5.57105E-02-1.42525E-03-1.43127E-03
 -1        85-5.85116E-02-1.42507E-03-1.43141E-03
 -1        86-6.13127E-02-1.42489E-03-1.43155E-03
 -1        87-6.41138E-02-1.42471E-03-1.43169E-03
 -1        88-6.69150E-02-1.42453E-03-1.43183E-03
 -1        89-6.97161E-02-1.42435E-03-1.43197E-03
 -1        90-7.25172E-02-1.42417E-03-1.43211E-03
 -1        91-7.53183E-02-1.42399E-03-1.43225E-03
 -1        92-7.81194E-02-1.42382E-03-1.43239E-03
 -1        93-8.09206E-02-1.42364E-03-1.43253E-03
 -1        94-8.37217E-02-1.42346E-03-1.43267E-03
 -1        95-8.65228E-02-1.42328E-03-1.43282E-03
 -1        96-8.93239E-02-1.42310E-03-1.43296E-03
 -1        97-9.21250E-02-1.42292E-03-1.43310E-03
 -1        98-1.71886E-03-9.18039E-04-9.21400E-04
 -1        99-4.17006E-03-1.35956E-03-1.35551E-03
 -1       100-6.76169E-03-1.43491E-03-1.43438E-03
 -1       101-9.50169E-03-1.43567E-03-1.43583E-03
 -1       102-1.22924E-02-1.43060E-03-1.43173E-03
 -1       103-1.50931E-02-1.42842E-03-1.42975E-03
 -1       104-1.78950E-02-1.42772E-03-1.42941E-03
 -1       105-2.06964E-02-1.42747E-03-1.42948E-03
 -1       106-2.34976E-02-1.42730E-03-1.42963E-03
 -1       107-2.62987E-02-1.42713E-03-1.42978E-03
 -1       108-2.90998E-02-1.42695E-03-1.42993E-03
 -1       109-3.19009E-02-1.42678E-03-1.43007E-03
 -1       110-3.47021E-02-1.42660E-03-1.43021E-03
 -1       111-3.75032E-02-1.42642E-03-1.43035E-03
 -1       112-4.03043E-02-1.42624E-03-1.43049E-03
 -1       113-4.31054E-02-1.42606E-03-1.43063E-03
 -1       114-4.59066E-02-1.42588E-03-1.43077E-03
 -1       115-4.87077E-02-1.42570E-03-1.43091E-03
 -1       116-5.15088E-02-1.42552E-03-1.43105E-03
 -1       117-5.43099E-02-1.42534E-03-1.43120E-03
 -1       118-5.71110E-02-1.42516E-03-1.43134E-03
 -1       119-5.99122E-02-1.42498E-03-1.43148E-03
 -1       120-6.27133E-02-1.42480E-03-1.43162E-03
 -1       121-6.55144E-02-1.42462E-03-1.43176E-03
 -1       122-6.83155E-02-1.42444E-03-1.43190E-03
 -1       123-7.11166E-02-1.42426E-03-1.43204E-03
 -1       124-7.39178E-02-1.42408E-03-1.43218E-03
 -1       125-7.67189E-02-1.42390E-03-1.43232E-03
 -1       126-7.95200E-02-1.42373E-03-1.43246E-03
 -1       127-8.23211E-02-1.42355E-03-1.43260E-03
 -1       128-8.51222E-02-1.42337E-03-1.43275E-03
 -1       129-8.79234E-02-1.42319E-03-1.43289E-03
 -1       130-9.07245E-02-1.42301E-03-1.43303E-03
 -1       131-9.35256E-02-1.42283E-03-1.43317E-03
 -1       132-2.95163E-03-1.21023E-03 1.21189E-03
 -1       133-5.43639E-03-1.41774E-03 1.41147E-03
 -1       134-8.11973E-03-1.43772E-03 1.43754E-03
 -1       135-1.08935E-02-1.43315E-03 1.43249E-03
 -1       136-1.36918E-02-1.42982E-03 1.42916E-03
 -1       137-1.64937E-02-1.42866E-03 1.42802E-03
 -1       138-1.92953E-02-1.42831E-03 1.42770E-03
 -1       139-2.20965E-02-1.42811E-03 1.42755E-03
 -1       140-2.48977E-02-1.42794E-03 1.42742E-03
 -1       141-2.76988E-02-1.42777E-03 1.42729E-03
 -1       142-3.04999E-02-1.42759E-03 1.42715E-03
 -1       143-3.33010E-02-1.42741E-03 1.42700E-03
 -1       144-3.61021E-02-1.42723E-03 1.42686E-03
 -1       145-3.89033E-02-1.42705E-03 1.42672E-03
 -1       146-4.17044E-02-1.42687E-03 1.42658E-03
 -1       147-4.45055E-02-1.42669E-03 1.42644E-03
 -1       148-4.73066E-02-1.42651E-03 1.42630E-03
 -1       149-5.01078E-02-1.42633E-03 1.42616E-03
 -1       150-5.29089E-02-1.42615E-03 1.42602E-03
 -1       151-5.57100E-02-1.42597E-03 1.42588E-03
 -1       152-5.85111E-02-1.42579E-03 1.42574E-03
 -1       153-6.13122E-02-1.42562E-03 1.42560E-03
 -1       154-6.41134E-02-1.42544E-03 1.42545E-03
 -1       155-6.69145E-02-1.42526E-03 1.42531E-03
 -1       156-6.97156E-02-1.42508E-03 1.42517E-03
 -1       157-7.25167E-02-1.42490E-03 1.42503E-03
 -1       158-7.53178E-02-1.42472E-03 1.42489E-03
 -1       159-7.81190E-02-1.42454E-03 1.42475E-03
 -1       160-8.09201E-02-1.42436E-03 1.42461E-03
 -1       161-8.37212E-02-1.42418E-03 1.42447E-03
 -1       162-8.65223E-02-1.42400E-03 1.42433E-03
 -1       163-8.93234E-02-1.42382E-03 1.42419E-03
 -1       164-9.21246E-02-1.42364E-03 1.42405E-03
 -1       165-1.71880E-03-9.17953E-04 9.21078E-04
 -1       166-4.16976E-03-1.35960E-03 1.35579E-03
 -1       167-6.76216E-03-1.43576E-03 1.43494E-03
 -1       168-9.50128E-03-1.43618E-03 1.43564E-03
 -1       169-1.22917E-02-1.43134E-03 1.43062E-03
 -1       170-1.50928E-02-1.42905E-03 1.42842E-03
 -1       171-1.78945E-02-1.42845E-03 1.42782E-03
 -1       172-2.06959E-02-1.42820E-03 1.42762E-03
 -1       173-2.34971E-02-1.42803E-03 1.42749E-03
 -1       174-2.62982E-02-1.42786E-03 1.42735E-03
 -1       175-2.90994E-02-1.42768E-03 1.42722E-03
 -1       176-3.19005E-02-1.42750E-03 1.42708E-03
 -1       177-3.47016E-02-1.42732E-03 1.42693E-03
 -1       178-3.75027E-02-1.42714E-03 1.42679E-03
 -1       179-4.03038E-02-1.42696E-03 1.42665E-03
 -1       180-4.31050E-02-1.42678E-03 1.42651E-03
 -1       181-4.59061E-02-1.42660E-03 1.42637E-03
 -1       182-4.87072E-02-1.42642E-03 1.42623E-03
 -1       183-5.15083E-02-1.42624E-03 1.42609E-03
 -1       184-5.43094E-02-1.42606E-03 1.42595E-03
 -1       185-5.71106E-02-1.42588E-03 1.42581E-03
 -1       186-5.99117E-02-1.42571E-03 1.42567E-03
 -1       187-6.27128E-02-1.42553E-03 1.42552E-03
 -1       188-6.55139E-02-1.42535E-03 1.42538E-03
 -1       189-6.83150E-02-1.42517E-03 1.42524E-03
 -1       190-7.11162E-02-1.42499E-03 1.42510E-03
 -1       191-7.39173E-02-1.42481E-03 1.42496E-03
 -1       192-7.67184E-02-1.42463E-03 1.42482E-03
 -1       193-7.95195E-02-1.42445E-03 1.42468E-03
 -1       194-8.23206E-02-1.42427E-03 1.42454E-03
 -1       195-8.51218E-02-1.42409E-03 1.42440E-03
 -1       196-8.79229E-02-1.42391E-03 1.42426E-03
 -1       197-9.07240E-02-1.42373E-03 1.42412E-03
 -1       198-9.35251E-02-1.42355E-03 1.42397E-03
 -1       199-2.94991E-03 1.21157E-03-1.21485E-03
 -1       200-5.43755E-03 1.41334E-03-1.41568E-03
 -1       201-8.12095E-03 1.43798E-03-1.43700E-03
 -1       202-1.08942E-02 1.43342E-03-1.43248E-03
 -1       203-1.36930E-02 1.43035E-03-1.42955E-03
 -1       204-1.64948E-02 1.42955E-03-1.42874E-03
 -1       205-1.92964E-02 1.42955E-03-1.42870E-03
 -1       206-2.20976E-02 1.42972E-03-1.42884E-03
 -1       207-2.48988E-02 1.42991E-03-1.42899E-03
 -1       208-2.76999E-02 1.43010E-03-1.42913E-03
 -1       209-3.05010E-02 1.43028E-03-1.42927E-03
 -1       210-3.33021E-02 1.43046E-03-1.42941E-03
 -1       211-3.61032E-02 1.43064E-03-1.42956E-03
 -1       212-3.89044E-02 1.43082E-03-1.42970E-03
 -1       213-4.17055E-02 1.43100E-03-1.42984E-03
 -1       214-4.45066E-02 1.43117E-03-1.42998E-03
 -1       215-4.73077E-02 1.43135E-03-1.43012E-03
 -1       216-5.01088E-02 1.43153E-03-1.43026E-03
 -1       217-5.29100E-02 1.43171E-03-1.43040E-03
 -1       218-5.57111E-02 1.43189E-03-1.43054E-03
 -1       219-5.85122E-02 1.43207E-03-1.43068E-03
 -1       220-6.13133E-02 1.43225E-03-1.43082E-03
 -1       221-6.41144E-02 1.43243E-03-1.43096E-03
 -1       222-6.69156E-02 1.43261E-03-1.43111E-03
 -1       223-6.97167E-02 1.43279E-03-1.43125E-03
 -1       224-7.25178E-02 1.43297E-03-1.43139E-03
 -1       225-7.53189E-02 1.43315E-03-1.43153E-03
 -1       226-7.81200E-02 1.43333E-03-1.43167E-03
 -1       227-8.09212E-02 1.43351E-03-1.43181E-03
 -1       228-8.37223E-02 1.43369E-03-1.43195E-03
 -1       229-8.65234E-02 1.43387E-03-1.43209E-03
 -1       230-8.93245E-02 1.43405E-03-1.43223E-03
 -1       231-9.21256E-02 1.43423E-03-1.43237E-03
 -1       232-1.72168E-03 9.19433E-04-9.21109E-04
 -1       233-4.17055E-03 1.35684E-03-1.35804E-03
 -1       234-6.76321E-03 1.43561E-03-1.43460E-03
 -1       235-9.50218E-03 1.43620E-03-1.43570E-03
 -1       236-1.22928E-02 1.43163E-03-1.43083E-03
 -1       237-1.50939E-02 1.42980E-03-1.42900E-03
 -1       238-1.78956E-02 1.42952E-03-1.42868E-03
 -1       239-2.06970E-02 1.42963E-03-1.42876E-03
 -1       240-2.34982E-02 1.42982E-03-1.42891E-03
 -1       241-2.62993E-02 1.43001E-03-1.42906E-03
 -1       242-2.91004E-02 1.43019E-03-1.42920E-03
 -1       243-3.19016E-02 1.43037E-03-1.42934E-03
 -1       244-3.47027E-02 1.43055E-03-1.42948E-03
 -1       245-3.75038E-02 1.43073E-03-1.42963E-03
 -1       246-4.03049E-02 1.43091E-03-1.42977E-03
 -1       247-4.31060E-02 1.43108E-03-1.42991E-03
 -1       248-4.59072E-02 1.43126E-03-1.43005E-03
 -1       249-4.87083E-02 1.43144E-03-1.43019E-03
 -1       250-5.15094E-02 1.43162E-03-1.43033E-03
 -1       251-5.43105E-02 1.43180E-03-1.43047E-03
 -1       252-5.71116E-02 1.43198E-03-1.43061E-03
 -1       253-5.99128E-02 1.43216E-03-1.43075E-03
 -1       254-6.27139E-02 1.43234E-03-1.43089E-03
 -1       255-6.55150E-02 1.43252E-03-1.43104E-03
 -1       256-6.83161E-02 1.43270E-03-1.43118E-03
 -1       257-7.11172E-02 1.43288E-03-1.43132E-03
 -1       258-7.39184E-02 1.43306E-03-1.43146E-03
 -1       259-7.67195E-02 1.43324E-03-1.43160E-03
 -1       260-7.95206E-02 1.43342E-03-1.43174E-03
 -1       261-8.23217E-02 1.43360E-03-1.43188E-03
 -1       262-8.51228E-02 1.43378E-03-1.43202E-03
 -1       263-8.79240E-02 1.43396E-03-1.43216E-03
 -1       264-9.07251E-02 1.43414E-03-1.43230E-03
 -1       265-9.35262E-02 1.43431E-03-1.43244E-03
 -1       266-2.95130E-03 1.20876E-03 1.21612E-03
 -1       267-5.43662E-03 1.41258E-03 1.41808E-03
 -1       268-8.11823E-03 1.43626E-03 1.43869E-03
 -1       269-1.08943E-02 1.43257E-03 1.43319E-03
 -1       270-1.36923E-02 1.42968E-03 1.42993E-03
 -1       271-1.64943E-02 1.42884E-03 1.42876E-03
 -1       272-1.92959E-02 1.42883E-03 1.42842E-03
 -1       273-2.20971E-02 1.42900E-03 1.42827E-03
 -1       274-2.48983E-02 1.42919E-03 1.42815E-03
 -1       275-2.76994E-02 1.42937E-03 1.42801E-03
 -1       276-3.05005E-02 1.42955E-03 1.42787E-03
 -1       277-3.33016E-02 1.42973E-03 1.42773E-03
 -1       278-3.61028E-02 1.42991E-03 1.42759E-03
 -1       279-3.89039E-02 1.43009E-03 1.42745E-03
 -1       280-4.17050E-02 1.43027E-03 1.42731E-03
 -1       281-4.45061E-02 1.43045E-03 1.42716E-03
 -1       282-4.73072E-02 1.43063E-03 1.42702E-03
 -1       283-5.01084E-02 1.43081E-03 1.42688E-03
 -1       284-5.29095E-02 1.43099E-03 1.42674E-03
 -1       285-5.57106E-02 1.43117E-03 1.42660E-03
 -1       286-5.85117E-02 1.43135E-03 1.42646E-03
 -1       287-6.13128E-02 1.43153E-03 1.42632E-03
 -1       288-6.41140E-02 1.43171E-03 1.42618E-03
 -1       289-6.69151E-02 1.43189E-03 1.42604E-03
 -1       290-6.97162E-02 1.43207E-03 1.42590E-03
 -1       291-7.25173E-02 1.43225E-03 1.42576E-03
 -1       292-7.53184E-02 1.43242E-03 1.42561E-03
 -1       293-7.81196E-02 1.43260E-03 1.42547E-03
 -1       294-8.09207E-02 1.43278E-03 1.42533E-03
 -1       295-8.37218E-02 1.43296E-03 1.42519E-03
 -1       296-8.65229E-02 1.43314E-03 1.42505E-03
 -1       297-8.93240E-02 1.43332E-03 1.42491E-03
 -1       298-9.21252E-02 1.43350E-03 1.42477E-03
 -1       299-1.72107E-03 9.16907E-04 9.23107E-04
 -1       300-4.17038E-03 1.35525E-03 1.36084E-03
 -1       301-6.76150E-03 1.43442E-03 1.43607E-03
 -1       302-9.50142E-03 1.43521E-03 1.43642E-03
 -1       303-1.22923E-02 1.43094E-03 1.43146E-03
 -1       304-1.50933E-02 1.42911E-03 1.42916E-03
 -1       305-1.78951E-02 1.42879E-03 1.42855E-03
 -1       306-2.06965E-02 1.42890E-03 1.42834E-03
 -1       307-2.34977E-02 1.42909E-03 1.42821E-03
 -1       308-2.62988E-02 1.42928E-03 1.42808E-03
 -1       309-2.91000E-02 1.42946E-03 1.42794E-03
 -1       310-3.19011E-02 1.42964E-03 1.42780E-03
 -1       311-3.47022E-02 1.42982E-03 1.42766E-03
 -1       312-3.75033E-02 1.43000E-03 1.42752E-03
 -1       313-4.03044E-02 1.43018E-03 1.42738E-03
 -1       314-4.31056E-02 1.43036E-03 1.42724E-03
 -1       315-4.59067E-02 1.43054E-03 1.42709E-03
 -1       316-4.87078E-02 1.43072E-03 1.42695E-03
 -1       317-5.15089E-02 1.43090E-03 1.42681E-03
 -1       318-5.43100E-02 1.43108E-03 1.42667E-03
 -1       319-5.71112E-02 1.43126E-03 1.42653E-03
 -1       320-5.99123E-02 1.43144E-03 1.42639E-03
 -1       321-6.27134E-02 1.43162E-03 1.42625E-03
 -1       322-6.55145E-02 1.43180E-03 1.42611E-03
 -1       323-6.83156E-02 1.43198E-03 1.42597E-03
 -1       324-7.11168E-02 1.43216E-03 1.42583E-03
 -1       325-7.39179E-02 1.43234E-03 1.42568E-03
 -1       326-7.67190E-02 1.43251E-03 1.42554E-03
 -1       327-7.95201E-02 1.43269E-03 1.42540E-03
 -1       328-8.23212E-02 1.43287E-03 1.42526E-03
 -1       329-8.51224E-02 1.43305E-03 1.42512E-03
 -1       330-8.79235E-02 1.43323E-03 1.42498E-03
 -1       331-9.07246E-02 1.43341E-03 1.42484E-03
 -1       332-9.35257E-02 1.43359E-03 1.42470E-03
 -1       333 0.00000E+00 0.00000E+00 0.00000E+00
 -1       334 0.00000E+00 0.00000E+00 0.00000E+00
 -1       335 0.00000E+00 0.00000E+00 0.00000E+00
 -1       336 0.00000E+00 0.00000E+00 0.00000E+00
 -1       337 0.00000E+00 0.00000E+00 0.00000E+00
 -1       338 0.00000E+00 0.00000E+00 0.00000E+00
 -1       339 0.00000E+00 0.00000E+00 0.00000E+00
 -1       340 0.00000E+00 0.00000E+00 0.00000E+00
 -1       341 0.00000E+00 0.00000E+00 0.00000E+00
 -1       342 0.00000E+00 0.00000E+00 0.00000E+00
 -1       343 0.00000E+00 0.00000E+00 0.00000E+00
 -1       344 0.00000E+00 0.00000E+00 0.00000E+00
 -1       345 0.00000E+00 0.00000E+00 0.00000E+00
 -1       346 0.00000E+00 0.00000E+00 0.00000E+00
 -1       347 0.00000E+00 0.00000E+00 0.00000E+00
 -1       348 0.00000E+00 0.00000E+00 0.00000E+00
 -1       349 0.00000E+00 0.00000E+00 0.00000E+00
 -1       350 0.00000E+00 0.00000E+00 0.00000E+00
 -1       351 0.00000E+00 0.00000E+00 0.00000E+00
 -1       352 0.00000E+00 0.00000E+00 0.00000E+00
 -1       353 0.00000E+00 0.00000E+00 0.00000E+00
 -1       354 0.00000E+00 0.00000E+00 0.00000E+00
 -1       355 0.00000E+00 0.00000E+00 0.00000E+00
 -1       356 0.00000E+00 0.00000E+00 0.00000E+00
 -1       357 0.00000E+00 0.00000E+00 0.00000E+00
 -1       358 0.00000E+00 0.00000E+00 0.00000E+00
 -1       359 0.00000E+00 0.00000E+00 0.00000E+00
 -1       360 0.00000E+00 0.00000E+00 0.00000E+00
 -1       361 0.00000E+00 0.00000E+00 0.00000E+00
 -1       362 0.00000E+00 0.00000E+00 0.00000E+00
 -1       363 0.00000E+00 0.00000E+00 0.00000E+00
 -1       364 0.00000E+00 0.00000E+00 0.00000E+00
 -1       365 0.00000E+00 0.00000E+00 0.00000E+00
 -1       366 0.00000E+00 0.00000E+00 0.00000E+00
 -1       367 0.00000E+00 0.00000E+00 0.00000E+00
 -1       368 0.00000E+00 0.00000E+00 0.00000E+00
 -1       369 0.00000E+00 0.00000E+00 0.00000E+00
 -1       370 0.00000E+00 0.00000E+00 0.00000E+00
 -1       371 0.00000E+00 0.00000E+00 0.00000E+00
 -1       372 0.00000E+00 0.00000E+00 0.00000E+00
 -1       373 0.00000E+00 0.00000E+00 0.00000E+00
 -1       374 0.00000E+00 0.00000E+00 0.00000E+00
 -1       375 0.00000E+00 0.00000E+00 0.00000E+00
 -1       376 0.00000E+00 0.00000E+00 0.00000E+00
 -1       377 0.00000E+00 0.00000E+00 0.00000E+00
 -1       378 0.00000E+00 0.00000E+00 0.00000E+00
 -1       379 0.00000E+00 0.00000E+00 0.00000E+00
 -1       380 0.00000E+00 0.00000E+00 0.00000E+00
 -1       381 0.00000E+00 0.00000E+00 0.00000E+00
 -1       382 0.00000E+00 0.00000E+00 0.00000E+00
 -1       383 0.00000E+00 0.00000E+00 0.00000E+00
 -1       384 0.00000E+00 0.00000E+00 0.00000E+00
 -1       385 0.00000E+00 0.00000E+00 0.00000E+00
 -1       386 0.00000E+00 0.00000E+00 0.00000E+00
 -1       387 0.00000E+00 0.00000E+00 0.00000E+00
 -1       388 0.00000E+00 0.00000E+00 0.00000E+00
 -1       389 0.00000E+00 0.00000E+00 0.00000E+00
 -1       390 0.00000E+00 0.00000E+00 0.00000E+00
 -1       391 0.00000E+00 0.00000E+00 0.00000E+00
 -1       392 0.00000E+00 0.00000E+00 0.00000E+00
 -1       393 0.00000E+00 0.00000E+00 0.00000E+00
 -1       394 0.00000E+00 0.00000E+00 0.00000E+00
 -1       395 0.00000E+00 0.00000E+00 0.00000E+00
 -1       396 0.00000E+00 0.00000E+00 0.00000E+00
 -1       397 0.00000E+00 0.00000E+00 0.00000E+00
 -1       398 0.00000E+00 0.00000E+00 0.00000E+00
 -1       399 0.00000E+00 0.00000E+00 0.00000E+00
 -1       400 0.00000E+00 0.00000E+00 0.00000E+00
 -1       401 0.00000E+00 0.00000E+00 0.00000E+00
 -1       402 0.00000E+00 0.00000E+00 0.00000E+00
 -1       403 0.00000E+00 0.00000E+00 0.00000E+00
 -1       404 0.00000E+00 0.00000E+00 0.00000E+00
 -1       405 0.00000E+00 0.00000E+00 0.00000E+00
 -1       406-9.49262E-02 3.39820E-04 7.79480E-04
 -1       407-9.49264E-02 3.35198E-04-8.30153E-04
 -1       408-9.49260E-02-8.58412E-04 3.97790E-04
 -1       409-9.49263E-02-3.50114E-04-8.29099E-04
 -1       410-9.49263E-02-3.22637E-06-2.76425E-04
 -1       411-9.49264E-02 7.75663E-04-3.06291E-04
 -1       412-9.49260E-02-3.97540E-04 8.68037E-04
 -1       413-9.49261E-02-7.84370E-04-3.10137E-04
 -1       414-9.49264E-02 9.15363E-04 3.70800E-04
 -1       415-9.49263E-02 3.55797E-04 1.90258E-04
 -1       416-9.49259E-02-9.00436E-04 9.01143E-04
 -1       417-9.49266E-02 9.11379E-04-9.09754E-04
 -1       418-9.49262E-02-8.99977E-04-9.10213E-04
 -1       419-9.49263E-02 9.15218E-04 9.05902E-04
 -1       420-9.49261E-02-2.62147E-04 2.81457E-04
 -1       421-9.49258E-02-1.16186E-03 8.05381E-04
 -1       422-9.49258E-02-1.16195E-03 1.16252E-03
 -1       423-9.49259E-02-8.04806E-04 1.16261E-03
 -1       424-9.49262E-02-1.16136E-03-1.17173E-03
 -1       425-9.49261E-02-1.16145E-03-8.14583E-04
 -1       426-9.49262E-02-8.04215E-04-1.17164E-03
 -1       427-9.49262E-02 8.17307E-04 1.16517E-03
 -1       428-9.49263E-02 1.17445E-03 1.16527E-03
 -1       429-9.49263E-02 1.17454E-03 8.08122E-04
 -1       430-9.49266E-02 1.17280E-03-8.13992E-04
 -1       431-9.49267E-02 1.17289E-03-1.17113E-03
 -1       432-9.49266E-02 8.15749E-04-1.17122E-03
 -1       433-9.49261E-02-1.10364E-03-5.14545E-04
 -1       434-9.49260E-02-1.10374E-03-1.57402E-04
 -1       435-9.49261E-02-8.42174E-04-6.10175E-04
 -1       436-9.49259E-02-1.14076E-03 1.96561E-04
 -1       437-9.49259E-02-1.14085E-03 5.53704E-04
 -1       438-9.49260E-02-8.21391E-04 4.38265E-05
 -1       439-9.49259E-02-8.79424E-04 6.49466E-04
 -1       440-9.49259E-02-5.53358E-04 1.14606E-03
 -1       441-9.49260E-02-1.96216E-04 1.14615E-03
 -1       442-9.49259E-02-6.48988E-04 8.84590E-04
 -1       443-9.49261E-02 1.72465E-04 1.10187E-03
 -1       444-9.49261E-02 5.29608E-04 1.10196E-03
 -1       445-9.49261E-02-2.88600E-05 8.23758E-04
 -1       446-9.49262E-02 6.27519E-04 8.42691E-04
 -1       447-9.49265E-02 1.10485E-03-1.55117E-04
 -1       448-9.49265E-02 1.10494E-03-5.12260E-04
 -1       449-9.49265E-02 8.43521E-04-6.08022E-04
 -1       450-9.49264E-02 1.17461E-03 5.40571E-04
 -1       451-9.49264E-02 1.17470E-03 1.83428E-04
 -1       452-9.49264E-02 8.45513E-04 3.22547E-05
 -1       453-9.49263E-02 9.15291E-04 6.38351E-04
 -1       454-9.49264E-02-1.72140E-04-1.13099E-03
 -1       455-9.49263E-02-5.29283E-04-1.13108E-03
 -1       456-9.49262E-02-6.25046E-04-8.69656E-04
 -1       457-9.49265E-02 5.27658E-04-1.13142E-03
 -1       458-9.49264E-02 1.70516E-04-1.13152E-03
 -1       459-9.49264E-02-7.45793E-06-8.29626E-04
 -1       460-9.49265E-02 6.23288E-04-8.69954E-04
 -1       461-9.49261E-02-3.29844E-04 5.74747E-04
 -1       462-9.49261E-02 3.88365E-05 5.30468E-04
 -1       463-9.49262E-02 3.47809E-04 4.84869E-04
 -1       464-9.49263E-02 6.35580E-04 2.80529E-04
 -1       465-9.49263E-02 6.27592E-04 5.75140E-04
 -1       466-9.49262E-02 4.68246E-05 2.35857E-04
 -1       467-9.49263E-02 1.65986E-04-5.53289E-04
 -1       468-9.49263E-02-1.76670E-04-5.52762E-04
 -1       469-9.49264E-02 5.55430E-04-5.68222E-04
 -1       470-9.49264E-02 3.86218E-04-2.91358E-04
 -1       471-9.49260E-02-6.27976E-04 6.32913E-04
 -1       472-9.49260E-02-5.60280E-04 3.39623E-04
 -1       473-9.49261E-02-5.23259E-04-1.43400E-05
 -1       474-9.49262E-02-3.93798E-04-2.93281E-04
 -1       475-9.49262E-02-5.67242E-04-5.69618E-04
 -1       476-9.49263E-02 5.65730E-04-5.80165E-05
 -1       477-9.49263E-02 1.76285E-04-4.30838E-05
 -1       478-9.49262E-02-1.32687E-04 2.51567E-06
 -1       479-6.55143E-02-1.42481E-03-7.04006E-04
 -1       480-7.67188E-02-1.42409E-03-7.04570E-04
 -1       481-8.78941E-02-1.42373E-03 7.10493E-04
 -1       482-5.43098E-02-1.42552E-03-7.03443E-04
 -1       483-5.99118E-02-1.42552E-03 6.97913E-04
 -1       484-7.11163E-02-1.42480E-03 6.97350E-04
 -1       485-8.23208E-02-1.42409E-03 6.96786E-04
 -1       486-4.87073E-02-1.42624E-03 6.98477E-04
 -1       487-1.50901E-02-1.42830E-03-7.06077E-04
 -1       488-2.06963E-02-1.42764E-03-7.01709E-04
 -1       489-9.49275E-03-1.43685E-03 7.10093E-04
 -1       490-3.19008E-02-1.42696E-03-7.02315E-04
 -1       491-4.02915E-02-1.42642E-03-7.04939E-04
 -1       492-2.62986E-02-1.42732E-03-7.02030E-04
 -1       493-3.87825E-03-1.38716E-03 6.59995E-04
 -1       494-6.71587E-03-1.44473E-03-7.19095E-04
 -1       495-9.08552E-02-1.42319E-03-6.96989E-04
 -1       496-4.59064E-02-1.42606E-03-7.03020E-04
 -1       497-8.51221E-02-1.42355E-03-7.04993E-04
 -1       498-1.78949E-02-1.42820E-03 7.00017E-04
 -1       499-3.47017E-02-1.42714E-03 6.99182E-04
 -1       500-4.30960E-02-1.42660E-03 7.10013E-04
 -1       501-2.34972E-02-1.42784E-03 6.99734E-04
 -1       502-2.90995E-02-1.42749E-03 6.99464E-04
 -1       503-1.91809E-03-1.15782E-03-1.98863E-04
 -1       504-9.29484E-02-1.42331E-03 3.32200E-04
 -1       505-6.55140E-02-1.42516E-03 6.97632E-04
 -1       506-7.67185E-02-1.42444E-03 6.97068E-04
 -1       507-5.43096E-02-1.42588E-03 6.98195E-04
 -1       508-5.99120E-02-1.42517E-03-7.03725E-04
 -1       509-7.11165E-02-1.42445E-03-7.04288E-04
 -1       510-6.70443E-03-1.44610E-03 7.23990E-04
 -1       511-9.48106E-03-1.43640E-03-7.13105E-04
 -1       512-1.22844E-02-1.43078E-03-7.10039E-04
 -1       513-1.36858E-02-1.42924E-03 1.96808E-06
 -1       514-8.79349E-02-1.42337E-03-7.09109E-04
 -1       515-6.83154E-02-1.42463E-03-7.04147E-04
 -1       516-6.83152E-02-1.42498E-03 6.97491E-04
 -1       517-4.59054E-02-1.42642E-03 7.04156E-04
 -1       518-4.87075E-02-1.42588E-03-7.03161E-04
 -1       519-5.71107E-02-1.42570E-03 6.98054E-04
 -1       520-5.71109E-02-1.42535E-03-7.03584E-04
 -1       521-2.34975E-02-1.42749E-03-7.01877E-04
 -1       522-3.47019E-02-1.42678E-03-7.02456E-04
 -1       523-3.75009E-02-1.42660E-03-7.07454E-04
 -1       524-3.88756E-02-1.42669E-03 5.95428E-06
 -1       525-3.19006E-02-1.42732E-03 6.99323E-04
 -1       526-7.39174E-02-1.42462E-03 6.97209E-04
 -1       527-7.39176E-02-1.42427E-03-7.04429E-04
 -1       528-4.30905E-02-1.42624E-03-7.09936E-04
 -1       529-8.51219E-02-1.42391E-03 6.96645E-04
 -1       530-8.23210E-02-1.42373E-03-7.04852E-04
 -1       531-2.62984E-02-1.42767E-03 6.99602E-04
 -1       532-2.06961E-02-1.42800E-03 6.99850E-04
 -1       533-7.95199E-02-1.42391E-03-7.04711E-04
 -1       534-1.78949E-02-1.42783E-03-7.04117E-04
 -1       535-7.95196E-02-1.42426E-03 6.96927E-04
 -1       536-5.15087E-02-1.42570E-03-7.03302E-04
 -1       537-2.90997E-02-1.42714E-03-7.02174E-04
 -1       538-5.15084E-02-1.42606E-03 6.98336E-04
 -1       539-6.27132E-02-1.42499E-03-7.03865E-04
 -1       540-6.27129E-02-1.42534E-03 6.97773E-04
 -1       541-5.45587E-03-1.45759E-03-5.77987E-06
 -1       542-8.08423E-03-1.44703E-03-1.83917E-07
 -1       543-1.51458E-02-1.42871E-03 7.13283E-04
 -1       544-2.01460E-03-1.16504E-03 2.22277E-04
 -1       545-3.74982E-02-1.42696E-03 7.13808E-04
 -1       546-4.16939E-02-1.42651E-03 4.13319E-06
 -1       547-8.91752E-02-1.42347E-03 3.68195E-06
 -1       548-1.22357E-02-1.43109E-03 7.15863E-04
 -1       549-8.65161E-02-1.42364E-03-3.58974E-06
 -1       550-1.64944E-02-1.42812E-03-7.34185E-07
 -1       551-7.53181E-02-1.42436E-03-3.68072E-06
 -1       552-7.25170E-02-1.42454E-03-3.53978E-06
 -1       553-6.13125E-02-1.42525E-03-2.97601E-06
 -1       554-7.81192E-02-1.42418E-03-3.82167E-06
 -1       555-5.29091E-02-1.42579E-03-2.55318E-06
 -1       556-6.41136E-02-1.42507E-03-3.11695E-06
 -1       557-5.85114E-02-1.42543E-03-2.83506E-06
 -1       558-5.57102E-02-1.42561E-03-2.69412E-06
 -1       559-8.37214E-02-1.42382E-03-4.10355E-06
 -1       560-8.09203E-02-1.42400E-03-3.96261E-06
 -1       561-6.97158E-02-1.42472E-03-3.39884E-06
 -1       562-5.01080E-02-1.42597E-03-2.41223E-06
 -1       563-4.44998E-02-1.42633E-03 5.12349E-07
 -1       564-1.92957E-02-1.42789E-03-8.62817E-07
 -1       565-2.20968E-02-1.42774E-03-1.00024E-06
 -1       566-2.76990E-02-1.42741E-03-1.28432E-06
 -1       567-3.05001E-02-1.42723E-03-1.42551E-06
 -1       568-2.48979E-02-1.42758E-03-1.14311E-06
 -1       569-3.33013E-02-1.42705E-03-1.56734E-06
 -1       570-6.69147E-02-1.42489E-03-3.25789E-06
 -1       571-4.73069E-02-1.42615E-03-2.27129E-06
 -1       572-3.61024E-02-1.42687E-03-1.71225E-06
 -1       573-4.02952E-02-1.42678E-03 7.14536E-04
 -1       574-1.08687E-02-1.43335E-03-9.88231E-07
 -1       575-9.28640E-02-1.42314E-03-3.61706E-04
 -1       576-3.88686E-03-1.38713E-03-6.58289E-04
 -1       577-9.08416E-02-1.42354E-03 6.88280E-04
 -1       578-3.36556E-03-1.38092E-03 1.34335E-06
 -1       579-1.80754E-03-1.06105E-03 5.79500E-04
 -1       580-1.79348E-03-1.05894E-03-5.73859E-04
 -1       581-9.31393E-02-1.42298E-03-9.28797E-04
 -1       582-9.31532E-02-1.42345E-03 9.15609E-04
 -1       583-9.13369E-02-1.42333E-03-6.90682E-06
 -1       584-9.07575E-04-7.21333E-04 2.67609E-04
 -1       585-9.57040E-04-6.91837E-04 4.24004E-04
 -1       586-2.38754E-03-1.14572E-03 9.19755E-04
 -1       587-9.49299E-04-6.88633E-04-4.19298E-04
 -1       588-9.01195E-04-7.18831E-04-2.63002E-04
 -1       589-2.38020E-03-1.14492E-03-9.17047E-04
 -1       590-9.40394E-02-1.42345E-03 1.16976E-03
 -1       591-9.40395E-02-1.42336E-03 8.12614E-04
 -1       592-9.26389E-02-1.42354E-03 1.16983E-03
 -1       593-9.40327E-02-1.42295E-03-8.23875E-04
 -1       594-9.40327E-02-1.42286E-03-1.18102E-03
 -1       595-9.26322E-02-1.42295E-03-1.18095E-03
 -1       596-9.50727E-04-7.44879E-04-1.76292E-04
 -1       597-9.40392E-04-7.35145E-04-5.71205E-05
 -1       598-1.84720E-03-1.11470E-03-3.85629E-04
 -1       599-1.01856E-03-7.88580E-04 5.98823E-05
 -1       600-9.90154E-04-7.65943E-04 1.93448E-04
 -1       601-1.95732E-03-1.16882E-03 6.12764E-06
 -1       602-1.89894E-03-1.12138E-03 4.01262E-04
 -1       603-9.38950E-02-1.42312E-03-1.83187E-04
 -1       604-9.38950E-02-1.42303E-03-5.40330E-04
 -1       605-9.30017E-02-1.42306E-03-6.45252E-04
 -1       606-9.39371E-02-1.42330E-03 5.20909E-04
 -1       607-9.39372E-02-1.42321E-03 1.63766E-04
 -1       608-9.29062E-02-1.42323E-03-1.47533E-05
 -1       609-9.30508E-02-1.42338E-03 6.23905E-04
 -1       610-4.67730E-03-1.39886E-03-1.04505E-03
 -1       611-3.38157E-03-1.31426E-03-9.62501E-04
 -1       612-2.83423E-03-1.27931E-03-6.69117E-04
 -1       613-7.42642E-03-1.43917E-03-1.08106E-03
 -1       614-6.06415E-03-1.42994E-03-1.07751E-03
 -1       615-5.29352E-03-1.43513E-03-7.06017E-04
 -1       616-1.01901E-02-1.43384E-03-1.07336E-03
 -1       617-8.79906E-03-1.43672E-03-1.07772E-03
 -1       618-8.09545E-03-1.44186E-03-7.17661E-04
 -1       619-1.29888E-02-1.42995E-03-1.07017E-03
 -1       620-1.15894E-02-1.43154E-03-1.07209E-03
 -1       621-1.08819E-02-1.43298E-03-7.10591E-04
 -1       622-1.57922E-02-1.42817E-03-1.06774E-03
 -1       623-1.43914E-02-1.42876E-03-1.06816E-03
 -1       624-1.36872E-02-1.42923E-03-7.07553E-04
 -1       625-1.85953E-02-1.42772E-03-1.06675E-03
 -1       626-1.71946E-02-1.42788E-03-1.06676E-03
 -1       627-1.64926E-02-1.42803E-03-7.04953E-04
 -1       628-2.13966E-02-1.42752E-03-1.06563E-03
 -1       629-1.99960E-02-1.42761E-03-1.06555E-03
 -1       630-1.92956E-02-1.42773E-03-7.02896E-04
 -1       631-2.41978E-02-1.42735E-03-1.06579E-03
 -1       632-2.27972E-02-1.42744E-03-1.06571E-03
 -1       633-2.20969E-02-1.42756E-03-7.01795E-04
 -1       634-2.69989E-02-1.42718E-03-1.06594E-03
 -1       635-2.55984E-02-1.42727E-03-1.06587E-03
 -1       636-2.48980E-02-1.42740E-03-7.01955E-04
 -1       637-2.98000E-02-1.42700E-03-1.06609E-03
 -1       638-2.83995E-02-1.42709E-03-1.06601E-03
 -1       639-2.76991E-02-1.42723E-03-7.02102E-04
 -1       640-3.26012E-02-1.42682E-03-1.06623E-03
 -1       641-3.12006E-02-1.42691E-03-1.06616E-03
 -1       642-3.05003E-02-1.42705E-03-7.02245E-04
 -1       643-3.54023E-02-1.42664E-03-1.06637E-03
 -1       644-3.40017E-02-1.42673E-03-1.06630E-03
 -1       645-3.33014E-02-1.42687E-03-7.02386E-04
 -1       646-3.82023E-02-1.42646E-03-1.06894E-03
 -1       647-3.68018E-02-1.42655E-03-1.06887E-03
 -1       648-3.61014E-02-1.42669E-03-7.04955E-04
 -1       649-4.09982E-02-1.42628E-03-1.06775E-03
 -1       650-3.95976E-02-1.42637E-03-1.06768E-03
 -1       651-3.88962E-02-1.42651E-03-7.06197E-04
 -1       652-4.37982E-02-1.42610E-03-1.07032E-03
 -1       653-4.23977E-02-1.42619E-03-1.07025E-03
 -1       654-4.16910E-02-1.42633E-03-7.07438E-04
 -1       655-4.66068E-02-1.42593E-03-1.06693E-03
 -1       656-4.52062E-02-1.42602E-03-1.06686E-03
 -1       657-4.44985E-02-1.42615E-03-7.06478E-04
 -1       658-4.94079E-02-1.42575E-03-1.06707E-03
 -1       659-4.80073E-02-1.42584E-03-1.06700E-03
 -1       660-4.73070E-02-1.42597E-03-7.03090E-04
 -1       661-5.22090E-02-1.42557E-03-1.06721E-03
 -1       662-5.08085E-02-1.42566E-03-1.06714E-03
 -1       663-5.01081E-02-1.42579E-03-7.03231E-04
 -1       664-5.50101E-02-1.42539E-03-1.06735E-03
 -1       665-5.36096E-02-1.42548E-03-1.06728E-03
 -1       666-5.29092E-02-1.42561E-03-7.03372E-04
 -1       667-5.78113E-02-1.42521E-03-1.06749E-03
 -1       668-5.64107E-02-1.42530E-03-1.06742E-03
 -1       669-5.57103E-02-1.42543E-03-7.03513E-04
 -1       670-6.06124E-02-1.42503E-03-1.06764E-03
 -1       671-5.92118E-02-1.42512E-03-1.06757E-03
 -1       672-5.85115E-02-1.42526E-03-7.03654E-04
 -1       673-6.34135E-02-1.42485E-03-1.06778E-03
 -1       674-6.20129E-02-1.42494E-03-1.06771E-03
 -1       675-6.13126E-02-1.42508E-03-7.03795E-04
 -1       676-6.62146E-02-1.42467E-03-1.06792E-03
 -1       677-6.48141E-02-1.42476E-03-1.06785E-03
 -1       678-6.41137E-02-1.42490E-03-7.03936E-04
 -1       679-6.90157E-02-1.42449E-03-1.06806E-03
 -1       680-6.76152E-02-1.42458E-03-1.06799E-03
 -1       681-6.69148E-02-1.42472E-03-7.04077E-04
 -1       682-7.18169E-02-1.42431E-03-1.06820E-03
 -1       683-7.04163E-02-1.42440E-03-1.06813E-03
 -1       684-6.97160E-02-1.42454E-03-7.04218E-04
 -1       685-7.46180E-02-1.42413E-03-1.06834E-03
 -1       686-7.32174E-02-1.42422E-03-1.06827E-03
 -1       687-7.25171E-02-1.42436E-03-7.04359E-04
 -1       688-7.74191E-02-1.42395E-03-1.06848E-03
 -1       689-7.60185E-02-1.42404E-03-1.06841E-03
 -1       690-7.53182E-02-1.42418E-03-7.04500E-04
 -1       691-8.02202E-02-1.42377E-03-1.06862E-03
 -1       692-7.88197E-02-1.42386E-03-1.06855E-03
 -1       693-7.81193E-02-1.42400E-03-7.04641E-04
 -1       694-8.30213E-02-1.42359E-03-1.06876E-03
 -1       695-8.16208E-02-1.42368E-03-1.06869E-03
 -1       696-8.09204E-02-1.42382E-03-7.04782E-04
 -1       697-8.58225E-02-1.42341E-03-1.06890E-03
 -1       698-8.44219E-02-1.42350E-03-1.06883E-03
 -1       699-8.37216E-02-1.42364E-03-7.04923E-04
 -1       700-8.86294E-02-1.42323E-03-1.07103E-03
 -1       701-8.72289E-02-1.42332E-03-1.07096E-03
 -1       702-8.65285E-02-1.42346E-03-7.07051E-04
 -1       703-9.14901E-02-1.42305E-03-1.06504E-03
 -1       704-9.00896E-02-1.42314E-03-1.06497E-03
 -1       705-8.93951E-02-1.42328E-03-7.03049E-04
 -1       706-9.19973E-02-1.42308E-03-8.12893E-04
 -1       707-3.37778E-03-1.31337E-03 9.63084E-04
 -1       708-4.67351E-03-1.39855E-03 1.04600E-03
 -1       709-2.83699E-03-1.27875E-03 6.71694E-04
 -1       710-6.05911E-03-1.43045E-03 1.07941E-03
 -1       711-7.42074E-03-1.43898E-03 1.08402E-03
 -1       712-5.28445E-03-1.43455E-03 7.08917E-04
 -1       713-8.80447E-03-1.43760E-03 1.07653E-03
 -1       714-1.01957E-02-1.43428E-03 1.07171E-03
 -1       715-8.09504E-03-1.44268E-03 7.18010E-04
 -1       716-1.15647E-02-1.43198E-03 1.07460E-03
 -1       717-1.29640E-02-1.43037E-03 1.07240E-03
 -1       718-1.08637E-02-1.43339E-03 7.12043E-04
 -1       719-1.44190E-02-1.42919E-03 1.07115E-03
 -1       720-1.58198E-02-1.42868E-03 1.07062E-03
 -1       721-1.36906E-02-1.42947E-03 7.14159E-04
 -1       722-1.71943E-02-1.42842E-03 1.06399E-03
 -1       723-1.85950E-02-1.42826E-03 1.06384E-03
 -1       724-1.65204E-02-1.42839E-03 7.06544E-04
 -1       725-1.99957E-02-1.42815E-03 1.06376E-03
 -1       726-2.13963E-02-1.42806E-03 1.06370E-03
 -1       727-1.92955E-02-1.42809E-03 6.99919E-04
 -1       728-2.27969E-02-1.42798E-03 1.06364E-03
 -1       729-2.41974E-02-1.42789E-03 1.06358E-03
 -1       730-2.20967E-02-1.42792E-03 6.99795E-04
 -1       731-2.55980E-02-1.42781E-03 1.06351E-03
 -1       732-2.69986E-02-1.42772E-03 1.06344E-03
 -1       733-2.48978E-02-1.42776E-03 6.99670E-04
 -1       734-2.83991E-02-1.42763E-03 1.06337E-03
 -1       735-2.97997E-02-1.42754E-03 1.06330E-03
 -1       736-2.76989E-02-1.42758E-03 6.99533E-04
 -1       737-3.12003E-02-1.42745E-03 1.06323E-03
 -1       738-3.26008E-02-1.42736E-03 1.06316E-03
 -1       739-3.05000E-02-1.42740E-03 6.99394E-04
 -1       740-3.40014E-02-1.42727E-03 1.06309E-03
 -1       741-3.54019E-02-1.42718E-03 1.06302E-03
 -1       742-3.33012E-02-1.42723E-03 6.99253E-04
 -1       743-3.68002E-02-1.42710E-03 1.07034E-03
 -1       744-3.82007E-02-1.42701E-03 1.07027E-03
 -1       745-3.60999E-02-1.42705E-03 7.06495E-04
 -1       746-3.95992E-02-1.42692E-03 1.07063E-03
 -1       747-4.09998E-02-1.42683E-03 1.07056E-03
 -1       748-3.88967E-02-1.42687E-03 7.14172E-04
 -1       749-4.24002E-02-1.42674E-03 1.06830E-03
 -1       750-4.38008E-02-1.42665E-03 1.06823E-03
 -1       751-4.16956E-02-1.42669E-03 7.12274E-04
 -1       752-4.52055E-02-1.42656E-03 1.06530E-03
 -1       753-4.66060E-02-1.42647E-03 1.06523E-03
 -1       754-4.45007E-02-1.42651E-03 7.07084E-04
 -1       755-4.80070E-02-1.42638E-03 1.06239E-03
 -1       756-4.94075E-02-1.42629E-03 1.06232E-03
 -1       757-4.73064E-02-1.42633E-03 7.01316E-04
 -1       758-5.08081E-02-1.42620E-03 1.06225E-03
 -1       759-5.22087E-02-1.42611E-03 1.06218E-03
 -1       760-5.01079E-02-1.42615E-03 6.98407E-04
 -1       761-5.36092E-02-1.42602E-03 1.06211E-03
 -1       762-5.50098E-02-1.42593E-03 1.06204E-03
 -1       763-5.29090E-02-1.42597E-03 6.98266E-04
 -1       764-5.64103E-02-1.42584E-03 1.06197E-03
 -1       765-5.78109E-02-1.42575E-03 1.06190E-03
 -1       766-5.57101E-02-1.42579E-03 6.98125E-04
 -1       767-5.92115E-02-1.42566E-03 1.06182E-03
 -1       768-6.06120E-02-1.42557E-03 1.06175E-03
 -1       769-5.85112E-02-1.42561E-03 6.97984E-04
 -1       770-6.20126E-02-1.42548E-03 1.06168E-03
 -1       771-6.34131E-02-1.42539E-03 1.06161E-03
 -1       772-6.13124E-02-1.42543E-03 6.97843E-04
 -1       773-6.48137E-02-1.42530E-03 1.06154E-03
 -1       774-6.62143E-02-1.42521E-03 1.06147E-03
 -1       775-6.41135E-02-1.42525E-03 6.97702E-04
 -1       776-6.76148E-02-1.42512E-03 1.06140E-03
 -1       777-6.90154E-02-1.42503E-03 1.06133E-03
 -1       778-6.69146E-02-1.42507E-03 6.97561E-04
 -1       779-7.04159E-02-1.42494E-03 1.06126E-03
 -1       780-7.18165E-02-1.42485E-03 1.06119E-03
 -1       781-6.97157E-02-1.42489E-03 6.97420E-04
 -1       782-7.32171E-02-1.42476E-03 1.06112E-03
 -1       783-7.46176E-02-1.42467E-03 1.06105E-03
 -1       784-7.25168E-02-1.42471E-03 6.97279E-04
 -1       785-7.60182E-02-1.42458E-03 1.06098E-03
 -1       786-7.74187E-02-1.42449E-03 1.06091E-03
 -1       787-7.53180E-02-1.42453E-03 6.97138E-04
 -1       788-7.88193E-02-1.42440E-03 1.06084E-03
 -1       789-8.02199E-02-1.42431E-03 1.06077E-03
 -1       790-7.81191E-02-1.42435E-03 6.96997E-04
 -1       791-8.16204E-02-1.42422E-03 1.06070E-03
 -1       792-8.30210E-02-1.42413E-03 1.06063E-03
 -1       793-8.09202E-02-1.42417E-03 6.96856E-04
 -1       794-8.44215E-02-1.42404E-03 1.06056E-03
 -1       795-8.58221E-02-1.42395E-03 1.06049E-03
 -1       796-8.37213E-02-1.42400E-03 6.96715E-04
 -1       797-8.72082E-02-1.42387E-03 1.06741E-03
 -1       798-8.86088E-02-1.42378E-03 1.06734E-03
 -1       799-8.65080E-02-1.42382E-03 7.03569E-04
 -1       800-9.00825E-02-1.42368E-03 1.05623E-03
 -1       801-9.14831E-02-1.42359E-03 1.05616E-03
 -1       802-8.93678E-02-1.42363E-03 6.99386E-04
 -1       803-9.19974E-02-1.42349E-03 8.01945E-04
 -1       804-6.76151E-02-1.42476E-03-3.53703E-04
 -1       805-6.62145E-02-1.42485E-03-3.53632E-04
 -1       806-6.48139E-02-1.42494E-03-3.53562E-04
 -1       807-6.34134E-02-1.42503E-03-3.53491E-04
 -1       808-6.55142E-02-1.42498E-03-3.18742E-06
 -1       809-7.60184E-02-1.42422E-03-3.54125E-04
 -1       810-7.46179E-02-1.42431E-03-3.54055E-04
 -1       811-7.88195E-02-1.42404E-03-3.54266E-04
 -1       812-7.74190E-02-1.42413E-03-3.54196E-04
 -1       813-7.67186E-02-1.42427E-03-3.75119E-06
 -1       814-8.58190E-02-1.42377E-03 3.46528E-04
 -1       815-8.72051E-02-1.42369E-03 3.53452E-04
 -1       816-8.85346E-02-1.42360E-03 3.57087E-04
 -1       817-8.78457E-02-1.42355E-03 4.61027E-08
 -1       818-9.00084E-02-1.42350E-03 3.45981E-04
 -1       819-5.64106E-02-1.42548E-03-3.53139E-04
 -1       820-5.50100E-02-1.42557E-03-3.53068E-04
 -1       821-5.36095E-02-1.42566E-03-3.52998E-04
 -1       822-5.22089E-02-1.42575E-03-3.52927E-04
 -1       823-5.43097E-02-1.42570E-03-2.62365E-06
 -1       824-5.78110E-02-1.42557E-03 3.47610E-04
 -1       825-5.92116E-02-1.42548E-03 3.47539E-04
 -1       826-6.06121E-02-1.42539E-03 3.47469E-04
 -1       827-6.20127E-02-1.42530E-03 3.47398E-04
 -1       828-5.99119E-02-1.42534E-03-2.90553E-06
 -1       829-6.90155E-02-1.42485E-03 3.47046E-04
 -1       830-7.04161E-02-1.42476E-03 3.46975E-04
 -1       831-7.18166E-02-1.42467E-03 3.46905E-04
 -1       832-7.32172E-02-1.42458E-03 3.46834E-04
 -1       833-7.11164E-02-1.42463E-03-3.46931E-06
 -1       834-8.30211E-02-1.42395E-03 3.46341E-04
 -1       835-8.44217E-02-1.42386E-03 3.46271E-04
 -1       836-8.02200E-02-1.42413E-03 3.46482E-04
 -1       837-8.16205E-02-1.42404E-03 3.46412E-04
 -1       838-8.23209E-02-1.42391E-03-4.03308E-06
 -1       839-4.66061E-02-1.42628E-03 3.50942E-04
 -1       840-4.80071E-02-1.42619E-03 3.48103E-04
 -1       841-4.94077E-02-1.42610E-03 3.48032E-04
 -1       842-5.08082E-02-1.42602E-03 3.47962E-04
 -1       843-4.87074E-02-1.42606E-03-2.34176E-06
 -1       844-1.43881E-02-1.42864E-03-3.52315E-04
 -1       845-1.29846E-02-1.43004E-03-3.53808E-04
 -1       846-1.57923E-02-1.42822E-03-3.53312E-04
 -1       847-1.50902E-02-1.42850E-03 5.58085E-07
 -1       848-1.71947E-02-1.42796E-03-3.52436E-04
 -1       849-2.27971E-02-1.42761E-03-3.51435E-04
 -1       850-2.13966E-02-1.42769E-03-3.51356E-04
 -1       851-1.99960E-02-1.42776E-03-3.51276E-04
 -1       852-1.85953E-02-1.42784E-03-3.52469E-04
 -1       853-2.06962E-02-1.42781E-03-9.30942E-07
 -1       854-7.38445E-03-1.44901E-03 3.62424E-04
 -1       855-8.78741E-03-1.44149E-03 3.57609E-04
 -1       856-9.47723E-03-1.43918E-03-6.73255E-07
 -1       857-1.01786E-02-1.43544E-03 3.54096E-04
 -1       858-1.15522E-02-1.43230E-03 3.58455E-04
 -1       859-3.40016E-02-1.42691E-03-3.52012E-04
 -1       860-3.26010E-02-1.42700E-03-3.51941E-04
 -1       861-3.12005E-02-1.42709E-03-3.51870E-04
 -1       862-2.97999E-02-1.42718E-03-3.51800E-04
 -1       863-3.19007E-02-1.42714E-03-1.49644E-06
 -1       864-3.95835E-02-1.42656E-03-3.49493E-04
 -1       865-3.81883E-02-1.42665E-03-3.50750E-04
 -1       866-4.09927E-02-1.42647E-03-3.50403E-04
 -1       867-4.02847E-02-1.42660E-03 5.04375E-06
 -1       868-4.23922E-02-1.42638E-03-3.52901E-04
 -1       869-2.55983E-02-1.42745E-03-3.51585E-04
 -1       870-2.41977E-02-1.42753E-03-3.51511E-04
 -1       871-2.83994E-02-1.42727E-03-3.51729E-04
 -1       872-2.69988E-02-1.42736E-03-3.51657E-04
 -1       873-2.62985E-02-1.42749E-03-1.21372E-06
 -1       874-4.64301E-03-1.43565E-03 3.42528E-04
 -1       875-6.06979E-03-1.45026E-03 3.62063E-04
 -1       876-3.60431E-03-1.38250E-03 3.19011E-04
 -1       877-4.40017E-03-1.43881E-03-1.50274E-06
 -1       878-2.92179E-03-1.31165E-03 4.36857E-04
 -1       879-2.67644E-03-1.29308E-03 1.42315E-04
 -1       880-8.78171E-03-1.44138E-03-3.59013E-04
 -1       881-7.39056E-03-1.44885E-03-3.60462E-04
 -1       882-6.07582E-03-1.44968E-03-3.65031E-04
 -1       883-6.76611E-03-1.45408E-03-2.87240E-06
 -1       884-4.64695E-03-1.43501E-03-3.48431E-04
 -1       885-9.00152E-02-1.42333E-03-3.46654E-04
 -1       886-8.85551E-02-1.42342E-03-3.52713E-04
 -1       887-9.10961E-02-1.42326E-03-3.51948E-04
 -1       888-9.02561E-02-1.42340E-03-1.61244E-06
 -1       889-9.18596E-02-1.42316E-03-5.29348E-04
 -1       890-9.21005E-02-1.42324E-03-1.84307E-04
 -1       891-4.80072E-02-1.42602E-03-3.52716E-04
 -1       892-4.66067E-02-1.42611E-03-3.52646E-04
 -1       893-4.52031E-02-1.42620E-03-3.51254E-04
 -1       894-4.37952E-02-1.42629E-03-3.54712E-04
 -1       895-4.59034E-02-1.42624E-03-8.79471E-07
 -1       896-8.72255E-02-1.42350E-03-3.56349E-04
 -1       897-8.58191E-02-1.42359E-03-3.54291E-04
 -1       898-8.44218E-02-1.42368E-03-3.54548E-04
 -1       899-8.30212E-02-1.42377E-03-3.54478E-04
 -1       900-8.51188E-02-1.42373E-03-3.84666E-06
 -1       901-1.85953E-02-1.42802E-03 3.49561E-04
 -1       902-1.99959E-02-1.42795E-03 3.49487E-04
 -1       903-1.58201E-02-1.42839E-03 3.56212E-04
 -1       904-1.71947E-02-1.42815E-03 3.49663E-04
 -1       905-1.78951E-02-1.42797E-03-7.87529E-07
 -1       906-3.26009E-02-1.42718E-03 3.48878E-04
 -1       907-3.40015E-02-1.42709E-03 3.48807E-04
 -1       908-3.54021E-02-1.42700E-03 3.48735E-04
 -1       909-3.68003E-02-1.42691E-03 3.56048E-04
 -1       910-3.47018E-02-1.42696E-03-1.63981E-06
 -1       911-4.37979E-02-1.42647E-03 3.55262E-04
 -1       912-4.52026E-02-1.42638E-03 3.52334E-04
 -1       913-4.23949E-02-1.42656E-03 3.57073E-04
 -1       914-4.30969E-02-1.42642E-03 2.32277E-06
 -1       915-4.09945E-02-1.42665E-03 3.59334E-04
 -1       916-2.41976E-02-1.42771E-03 3.49296E-04
 -1       917-2.55981E-02-1.42763E-03 3.49228E-04
 -1       918-2.13965E-02-1.42787E-03 3.49426E-04
 -1       919-2.27970E-02-1.42779E-03 3.49362E-04
 -1       920-2.34974E-02-1.42766E-03-1.07133E-06
 -1       921-2.97998E-02-1.42736E-03 3.49019E-04
 -1       922-3.12004E-02-1.42727E-03 3.48949E-04
 -1       923-2.69987E-02-1.42754E-03 3.49159E-04
 -1       924-2.83993E-02-1.42745E-03 3.49090E-04
 -1       925-2.90996E-02-1.42732E-03-1.35495E-06
 -1       926-2.63181E-03-1.30035E-03-1.25335E-04
 -1       927-2.87830E-03-1.30836E-03-4.25374E-04
 -1       928-3.60859E-03-1.38317E-03-3.15394E-04
 -1       929-9.21427E-02-1.42332E-03 1.62647E-04
 -1       930-9.18950E-02-1.42342E-03 5.10240E-04
 -1       931-9.10892E-02-1.42343E-03 3.40686E-04
 -1       932-6.62144E-02-1.42503E-03 3.47187E-04
 -1       933-6.76149E-02-1.42494E-03 3.47116E-04
 -1       934-6.34133E-02-1.42521E-03 3.47328E-04
 -1       935-6.48138E-02-1.42512E-03 3.47257E-04
 -1       936-7.46177E-02-1.42449E-03 3.46764E-04
 -1       937-7.60183E-02-1.42440E-03 3.46694E-04
 -1       938-7.74189E-02-1.42431E-03 3.46623E-04
 -1       939-7.88194E-02-1.42422E-03 3.46553E-04
 -1       940-5.50099E-02-1.42575E-03 3.47751E-04
 -1       941-5.64105E-02-1.42566E-03 3.47680E-04
 -1       942-5.22088E-02-1.42593E-03 3.47892E-04
 -1       943-5.36093E-02-1.42584E-03 3.47821E-04
 -1       944-5.92117E-02-1.42530E-03-3.53280E-04
 -1       945-5.78111E-02-1.42539E-03-3.53209E-04
 -1       946-6.20128E-02-1.42512E-03-3.53421E-04
 -1       947-6.06123E-02-1.42521E-03-3.53350E-04
 -1       948-7.04162E-02-1.42458E-03-3.53844E-04
 -1       949-6.90156E-02-1.42467E-03-3.53773E-04
 -1       950-7.32173E-02-1.42440E-03-3.53985E-04
 -1       951-7.18167E-02-1.42449E-03-3.53914E-04
 -1       952-1.15765E-02-1.43206E-03-3.56521E-04
 -1       953-1.01723E-02-1.43525E-03-3.56833E-04
 -1       954-1.22775E-02-1.43077E-03 4.10492E-07
 -1       955-1.44159E-02-1.42889E-03 3.57779E-04
 -1       956-1.29604E-02-1.42998E-03 3.58691E-04
 -1       957-6.83153E-02-1.42480E-03-3.32836E-06
 -1       958-5.08083E-02-1.42584E-03-3.52857E-04
 -1       959-4.94078E-02-1.42593E-03-3.52786E-04
 -1       960-5.71108E-02-1.42552E-03-2.76459E-06
 -1       961-3.68017E-02-1.42673E-03-3.54583E-04
 -1       962-3.54022E-02-1.42682E-03-3.52084E-04
 -1       963-3.74890E-02-1.42678E-03 2.12100E-06
 -1       964-3.81869E-02-1.42683E-03 3.59881E-04
 -1       965-3.95854E-02-1.42674E-03 3.60245E-04
 -1       966-7.39175E-02-1.42445E-03-3.61025E-06
 -1       967-8.16207E-02-1.42386E-03-3.54407E-04
 -1       968-8.02201E-02-1.42395E-03-3.54337E-04
 -1       969-7.95198E-02-1.42409E-03-3.89214E-06
 -1       970-5.15086E-02-1.42588E-03-2.48271E-06
 -1       971-6.27130E-02-1.42516E-03-3.04648E-06
 -1       972-6.55149E-02 1.43234E-03-7.03283E-04
 -1       973-7.67194E-02 1.43305E-03-7.03847E-04
 -1       974-8.78947E-02 1.43341E-03 7.11217E-04
 -1       975-5.43104E-02 1.43162E-03-7.02719E-04
 -1       976-5.99126E-02 1.43198E-03-7.03001E-04
 -1       977-7.11171E-02 1.43269E-03-7.03565E-04
 -1       978-8.23214E-02 1.43306E-03 6.97510E-04
 -1       979-4.87079E-02 1.43090E-03 6.99201E-04
 -1       980-1.50908E-02 1.42945E-03-7.05404E-04
 -1       981-2.06969E-02 1.42944E-03-7.00997E-04
 -1       982-9.49341E-03 1.43666E-03 7.10941E-04
 -1       983-3.19014E-02 1.43018E-03-7.01592E-04
 -1       984-4.02921E-02 1.43072E-03-7.04216E-04
 -1       985-2.62992E-02 1.42982E-03-7.01307E-04
 -1       986-3.87792E-03 1.38751E-03 6.61865E-04
 -1       987-6.71540E-03 1.44563E-03-7.20547E-04
 -1       988-9.08558E-02 1.43396E-03-6.96266E-04
 -1       989-6.83158E-02 1.43216E-03 6.98214E-04
 -1       990-4.59070E-02 1.43108E-03-7.02296E-04
 -1       991-8.51227E-02 1.43359E-03-7.04269E-04
 -1       992-5.71113E-02 1.43144E-03 6.98778E-04
 -1       993-7.39180E-02 1.43252E-03 6.97932E-04
 -1       994-6.27135E-02 1.43180E-03 6.98496E-04
 -1       995-1.78954E-02 1.42891E-03 7.00747E-04
 -1       996-3.47023E-02 1.43001E-03 6.99906E-04
 -1       997-4.30966E-02 1.43054E-03 7.10736E-04
 -1       998-2.34978E-02 1.42928E-03 7.00455E-04
 -1       999-2.91001E-02 1.42965E-03 7.00187E-04
 -1      1000-1.90603E-03 1.14494E-03-2.00789E-04
 -1      1001-9.29490E-02 1.43383E-03 3.32924E-04
 -1      1002-6.70490E-03 1.44467E-03 7.25359E-04
 -1      1003-9.48155E-03 1.43713E-03-7.12247E-04
 -1      1004-1.22849E-02 1.43126E-03-7.09324E-04
 -1      1005-1.36864E-02 1.42977E-03 2.53840E-06
 -1      1006-8.79355E-02 1.43377E-03-7.08385E-04
 -1      1007-6.83160E-02 1.43252E-03-7.03424E-04
 -1      1008-7.67191E-02 1.43270E-03 6.97792E-04
 -1      1009-5.43102E-02 1.43126E-03 6.98919E-04
 -1      1010-4.59060E-02 1.43072E-03 7.04879E-04
 -1      1011-4.87082E-02 1.43126E-03-7.02437E-04
 -1      1012-5.71115E-02 1.43180E-03-7.02860E-04
 -1      1013-5.15090E-02 1.43108E-03 6.99060E-04
 -1      1014-2.34981E-02 1.42963E-03-7.01158E-04
 -1      1015-3.47026E-02 1.43036E-03-7.01732E-04
 -1      1016-3.75016E-02 1.43054E-03-7.06730E-04
 -1      1017-3.88762E-02 1.43045E-03 6.67797E-06
 -1      1018-3.19012E-02 1.42983E-03 7.00047E-04
 -1      1019-5.99124E-02 1.43162E-03 6.98637E-04
 -1      1020-7.39182E-02 1.43287E-03-7.03706E-04
 -1      1021-4.30911E-02 1.43090E-03-7.09213E-04
 -1      1022-8.51225E-02 1.43324E-03 6.97369E-04
 -1      1023-8.23216E-02 1.43341E-03-7.04128E-04
 -1      1024-2.62990E-02 1.42947E-03 7.00325E-04
 -1      1025-2.06967E-02 1.42908E-03 7.00570E-04
 -1      1026-7.95205E-02 1.43323E-03-7.03987E-04
 -1      1027-6.55146E-02 1.43198E-03 6.98355E-04
 -1      1028-1.78955E-02 1.42925E-03-7.03408E-04
 -1      1029-5.15093E-02 1.43144E-03-7.02578E-04
 -1      1030-2.91003E-02 1.43000E-03-7.01450E-04
 -1      1031-7.95202E-02 1.43288E-03 6.97651E-04
 -1      1032-6.27138E-02 1.43216E-03-7.03142E-04
 -1      1033-7.11169E-02 1.43234E-03 6.98073E-04
 -1      1034-5.45524E-03 1.45578E-03-5.20884E-06
 -1      1035-8.08591E-03 1.44714E-03 4.43940E-07
 -1      1036-1.51463E-02 1.42908E-03 7.14070E-04
 -1      1037-2.01473E-03 1.16475E-03 2.20386E-04
 -1      1038-3.74988E-02 1.43018E-03 7.14532E-04
 -1      1039-4.16945E-02 1.43063E-03 4.85688E-06
 -1      1040-8.91758E-02 1.43367E-03 4.40563E-06
 -1      1041-1.22361E-02 1.43113E-03 7.16644E-04
 -1      1042-8.65167E-02 1.43350E-03-2.86605E-06
 -1      1043-1.64950E-02 1.42903E-03-7.94242E-09
 -1      1044-7.53187E-02 1.43279E-03-2.95704E-06
 -1      1045-7.81198E-02 1.43297E-03-3.09798E-06
 -1      1046-6.97164E-02 1.43243E-03-2.67515E-06
 -1      1047-8.37220E-02 1.43332E-03-3.37987E-06
 -1      1048-5.85120E-02 1.43171E-03-2.11138E-06
 -1      1049-5.01086E-02 1.43117E-03-1.68855E-06
 -1      1050-6.13131E-02 1.43189E-03-2.25232E-06
 -1      1051-6.41142E-02 1.43207E-03-2.39326E-06
 -1      1052-8.09209E-02 1.43315E-03-3.23892E-06
 -1      1053-7.25176E-02 1.43261E-03-2.81609E-06
 -1      1054-4.45005E-02 1.43081E-03 1.23604E-06
 -1      1055-1.92963E-02 1.42914E-03-1.43775E-07
 -1      1056-2.20974E-02 1.42935E-03-2.82065E-07
 -1      1057-5.29097E-02 1.43135E-03-1.82949E-06
 -1      1058-2.76996E-02 1.42974E-03-5.61419E-07
 -1      1059-3.05008E-02 1.42992E-03-7.02082E-07
 -1      1060-2.48985E-02 1.42955E-03-4.20253E-07
 -1      1061-5.57108E-02 1.43153E-03-1.97043E-06
 -1      1062-6.69153E-02 1.43225E-03-2.53421E-06
 -1      1063-3.33019E-02 1.43010E-03-8.43725E-07
 -1      1064-4.73075E-02 1.43099E-03-1.54760E-06
 -1      1065-3.61030E-02 1.43027E-03-9.88581E-07
 -1      1066-4.02958E-02 1.43036E-03 7.15259E-04
 -1      1067-1.08692E-02 1.43320E-03-1.56067E-07
 -1      1068-9.28646E-02 1.43400E-03-3.60983E-04
 -1      1069-3.88725E-03 1.38764E-03-6.58444E-04
 -1      1070-9.08422E-02 1.43361E-03 6.89004E-04
 -1      1071-3.36455E-03 1.38003E-03 2.18663E-06
 -1      1072-1.80450E-03 1.06294E-03 5.79090E-04
 -1      1073-1.79402E-03 1.07503E-03-5.69297E-04
 -1      1074-9.31399E-02 1.43416E-03-9.28073E-04
 -1      1075-9.31538E-02 1.43370E-03 9.16333E-04
 -1      1076-9.13375E-02 1.43381E-03-6.18314E-06
 -1      1077-9.55189E-04 6.92471E-04 4.22603E-04
 -1      1078-9.07695E-04 7.24162E-04 2.66317E-04
 -1      1079-2.38667E-03 1.14534E-03 9.22746E-04
 -1      1080-8.73676E-04 6.89227E-04-2.62421E-04
 -1      1081-9.51148E-04 6.87108E-04-4.15460E-04
 -1      1082-2.37912E-03 1.15050E-03-9.18116E-04
 -1      1083-9.40401E-02 1.43378E-03 8.13338E-04
 -1      1084-9.40401E-02 1.43369E-03 1.17048E-03
 -1      1085-9.26395E-02 1.43360E-03 1.17055E-03
 -1      1086-9.40333E-02 1.43428E-03-1.18029E-03
 -1      1087-9.40333E-02 1.43419E-03-8.23151E-04
 -1      1088-9.26328E-02 1.43419E-03-1.18022E-03
 -1      1089-9.33002E-04 7.35910E-04-5.69690E-05
 -1      1090-9.85356E-04 7.69526E-04-1.74983E-04
 -1      1091-1.85285E-03 1.12324E-03-3.78598E-04
 -1      1092-9.87376E-04 7.65293E-04 1.92808E-04
 -1      1093-1.01246E-03 7.87957E-04 5.88844E-05
 -1      1094-1.95436E-03 1.16367E-03 3.63213E-06
 -1      1095-1.89692E-03 1.12208E-03 4.00594E-04
 -1      1096-9.38956E-02 1.43411E-03-5.39606E-04
 -1      1097-9.38956E-02 1.43402E-03-1.82463E-04
 -1      1098-9.30023E-02 1.43408E-03-6.44528E-04
 -1      1099-9.39378E-02 1.43394E-03 1.64490E-04
 -1      1100-9.39377E-02 1.43385E-03 5.21633E-04
 -1      1101-9.29068E-02 1.43392E-03-1.40296E-05
 -1      1102-9.30514E-02 1.43376E-03 6.24628E-04
 -1      1103-3.38219E-03 1.31317E-03-9.62953E-04
 -1      1104-4.68000E-03 1.39988E-03-1.04746E-03
 -1      1105-2.83506E-03 1.28171E-03-6.67698E-04
 -1      1106-6.06841E-03 1.43167E-03-1.07839E-03
 -1      1107-7.42637E-03 1.43901E-03-1.08141E-03
 -1      1108-5.29269E-03 1.43199E-03-7.05156E-04
 -1      1109-8.79896E-03 1.43758E-03-1.07753E-03
 -1      1110-1.01905E-02 1.43496E-03-1.07275E-03
 -1      1111-8.09470E-03 1.44239E-03-7.16723E-04
 -1      1112-1.15902E-02 1.43218E-03-1.07115E-03
 -1      1113-1.29895E-02 1.43086E-03-1.06933E-03
 -1      1114-1.08824E-02 1.43327E-03-7.09975E-04
 -1      1115-1.43922E-02 1.42988E-03-1.06741E-03
 -1      1116-1.57929E-02 1.42954E-03-1.06700E-03
 -1      1117-1.36878E-02 1.42995E-03-7.06905E-04
 -1      1118-1.71952E-02 1.42941E-03-1.06603E-03
 -1      1119-1.85959E-02 1.42942E-03-1.06604E-03
 -1      1120-1.64932E-02 1.42926E-03-7.04264E-04
 -1      1121-1.99967E-02 1.42949E-03-1.06484E-03
 -1      1122-2.13973E-02 1.42958E-03-1.06491E-03
 -1      1123-1.92963E-02 1.42934E-03-7.02180E-04
 -1      1124-2.27978E-02 1.42968E-03-1.06499E-03
 -1      1125-2.41984E-02 1.42977E-03-1.06507E-03
 -1      1126-2.20975E-02 1.42954E-03-7.01079E-04
 -1      1127-2.55990E-02 1.42987E-03-1.06515E-03
 -1      1128-2.69995E-02 1.42996E-03-1.06522E-03
 -1      1129-2.48986E-02 1.42973E-03-7.01234E-04
 -1      1130-2.84001E-02 1.43005E-03-1.06529E-03
 -1      1131-2.98007E-02 1.43014E-03-1.06536E-03
 -1      1132-2.76998E-02 1.42991E-03-7.01379E-04
 -1      1133-3.12012E-02 1.43023E-03-1.06543E-03
 -1      1134-3.26018E-02 1.43032E-03-1.06550E-03
 -1      1135-3.05009E-02 1.43009E-03-7.01521E-04
 -1      1136-3.40023E-02 1.43041E-03-1.06557E-03
 -1      1137-3.54029E-02 1.43050E-03-1.06564E-03
 -1      1138-3.33020E-02 1.43027E-03-7.01662E-04
 -1      1139-3.68024E-02 1.43059E-03-1.06814E-03
 -1      1140-3.82030E-02 1.43068E-03-1.06821E-03
 -1      1141-3.61021E-02 1.43045E-03-7.04231E-04
 -1      1142-3.95982E-02 1.43077E-03-1.06696E-03
 -1      1143-4.09988E-02 1.43086E-03-1.06703E-03
 -1      1144-3.88968E-02 1.43063E-03-7.05473E-04
 -1      1145-4.23983E-02 1.43095E-03-1.06952E-03
 -1      1146-4.37988E-02 1.43104E-03-1.06960E-03
 -1      1147-4.16916E-02 1.43081E-03-7.06714E-04
 -1      1148-4.52068E-02 1.43113E-03-1.06614E-03
 -1      1149-4.66074E-02 1.43122E-03-1.06621E-03
 -1      1150-4.44991E-02 1.43099E-03-7.05754E-04
 -1      1151-4.80079E-02 1.43131E-03-1.06628E-03
 -1      1152-4.94085E-02 1.43140E-03-1.06635E-03
 -1      1153-4.73076E-02 1.43117E-03-7.02367E-04
 -1      1154-5.08091E-02 1.43149E-03-1.06642E-03
 -1      1155-5.22096E-02 1.43158E-03-1.06649E-03
 -1      1156-5.01087E-02 1.43135E-03-7.02508E-04
 -1      1157-5.36102E-02 1.43167E-03-1.06656E-03
 -1      1158-5.50107E-02 1.43176E-03-1.06663E-03
 -1      1159-5.29098E-02 1.43153E-03-7.02648E-04
 -1      1160-5.64113E-02 1.43185E-03-1.06670E-03
 -1      1161-5.78119E-02 1.43193E-03-1.06677E-03
 -1      1162-5.57110E-02 1.43171E-03-7.02789E-04
 -1      1163-5.92124E-02 1.43202E-03-1.06684E-03
 -1      1164-6.06130E-02 1.43211E-03-1.06691E-03
 -1      1165-5.85121E-02 1.43189E-03-7.02930E-04
 -1      1166-6.20135E-02 1.43220E-03-1.06698E-03
 -1      1167-6.34141E-02 1.43229E-03-1.06705E-03
 -1      1168-6.13132E-02 1.43207E-03-7.03071E-04
 -1      1169-6.48147E-02 1.43238E-03-1.06712E-03
 -1      1170-6.62152E-02 1.43247E-03-1.06719E-03
 -1      1171-6.41143E-02 1.43225E-03-7.03212E-04
 -1      1172-6.76158E-02 1.43256E-03-1.06726E-03
 -1      1173-6.90163E-02 1.43265E-03-1.06734E-03
 -1      1174-6.69154E-02 1.43243E-03-7.03353E-04
 -1      1175-7.04169E-02 1.43274E-03-1.06741E-03
 -1      1176-7.18175E-02 1.43283E-03-1.06748E-03
 -1      1177-6.97166E-02 1.43261E-03-7.03494E-04
 -1      1178-7.32180E-02 1.43292E-03-1.06755E-03
 -1      1179-7.46186E-02 1.43301E-03-1.06762E-03
 -1      1180-7.25177E-02 1.43278E-03-7.03635E-04
 -1      1181-7.60191E-02 1.43310E-03-1.06769E-03
 -1      1182-7.74197E-02 1.43319E-03-1.06776E-03
 -1      1183-7.53188E-02 1.43296E-03-7.03776E-04
 -1      1184-7.88203E-02 1.43328E-03-1.06783E-03
 -1      1185-8.02208E-02 1.43337E-03-1.06790E-03
 -1      1186-7.81199E-02 1.43314E-03-7.03917E-04
 -1      1187-8.16214E-02 1.43346E-03-1.06797E-03
 -1      1188-8.30219E-02 1.43355E-03-1.06804E-03
 -1      1189-8.09210E-02 1.43332E-03-7.04058E-04
 -1      1190-8.44225E-02 1.43364E-03-1.06811E-03
 -1      1191-8.58231E-02 1.43373E-03-1.06818E-03
 -1      1192-8.37222E-02 1.43350E-03-7.04199E-04
 -1      1193-8.72295E-02 1.43382E-03-1.07024E-03
 -1      1194-8.86300E-02 1.43391E-03-1.07031E-03
 -1      1195-8.65291E-02 1.43368E-03-7.06327E-04
 -1      1196-9.00902E-02 1.43400E-03-1.06425E-03
 -1      1197-9.14907E-02 1.43409E-03-1.06432E-03
 -1      1198-8.93957E-02 1.43387E-03-7.02325E-04
 -1      1199-9.19979E-02 1.43406E-03-8.12170E-04
 -1      1200-4.67570E-03 1.39926E-03 1.05091E-03
 -1      1201-3.37795E-03 1.31112E-03 9.66289E-04
 -1      1202-2.83519E-03 1.27851E-03 6.73459E-04
 -1      1203-7.41978E-03 1.43911E-03 1.08412E-03
 -1      1204-6.06231E-03 1.43104E-03 1.08229E-03
 -1      1205-5.28260E-03 1.43170E-03 7.09382E-04
 -1      1206-1.01965E-02 1.43391E-03 1.07241E-03
 -1      1207-8.80565E-03 1.43647E-03 1.07752E-03
 -1      1208-8.09623E-03 1.44178E-03 7.18945E-04
 -1      1209-1.29646E-02 1.43038E-03 1.07324E-03
 -1      1210-1.15652E-02 1.43174E-03 1.07538E-03
 -1      1211-1.08642E-02 1.43322E-03 7.12861E-04
 -1      1212-1.58203E-02 1.42897E-03 1.07137E-03
 -1      1213-1.44196E-02 1.42937E-03 1.07191E-03
 -1      1214-1.36910E-02 1.42965E-03 7.14917E-04
 -1      1215-1.85956E-02 1.42888E-03 1.06457E-03
 -1      1216-1.71949E-02 1.42886E-03 1.06472E-03
 -1      1217-1.65209E-02 1.42894E-03 7.07264E-04
 -1      1218-2.13969E-02 1.42904E-03 1.06442E-03
 -1      1219-1.99963E-02 1.42895E-03 1.06448E-03
 -1      1220-1.92961E-02 1.42899E-03 7.00641E-04
 -1      1221-2.41981E-02 1.42923E-03 1.06430E-03
 -1      1222-2.27975E-02 1.42914E-03 1.06436E-03
 -1      1223-2.20973E-02 1.42918E-03 7.00514E-04
 -1      1224-2.69992E-02 1.42942E-03 1.06417E-03
 -1      1225-2.55986E-02 1.42933E-03 1.06423E-03
 -1      1226-2.48984E-02 1.42937E-03 7.00392E-04
 -1      1227-2.98003E-02 1.42960E-03 1.06403E-03
 -1      1228-2.83997E-02 1.42951E-03 1.06410E-03
 -1      1229-2.76995E-02 1.42956E-03 7.00257E-04
 -1      1230-3.26014E-02 1.42978E-03 1.06389E-03
 -1      1231-3.12009E-02 1.42969E-03 1.06396E-03
 -1      1232-3.05006E-02 1.42974E-03 7.00117E-04
 -1      1233-3.54025E-02 1.42996E-03 1.06375E-03
 -1      1234-3.40020E-02 1.42987E-03 1.06382E-03
 -1      1235-3.33018E-02 1.42992E-03 6.99976E-04
 -1      1236-3.82013E-02 1.43014E-03 1.07099E-03
 -1      1237-3.68008E-02 1.43005E-03 1.07106E-03
 -1      1238-3.61006E-02 1.43010E-03 7.07219E-04
 -1      1239-4.10004E-02 1.43032E-03 1.07128E-03
 -1      1240-3.95999E-02 1.43023E-03 1.07135E-03
 -1      1241-3.88973E-02 1.43027E-03 7.14896E-04
 -1      1242-4.38014E-02 1.43050E-03 1.06895E-03
 -1      1243-4.24008E-02 1.43041E-03 1.06902E-03
 -1      1244-4.16962E-02 1.43045E-03 7.12998E-04
 -1      1245-4.66066E-02 1.43068E-03 1.06595E-03
 -1      1246-4.52061E-02 1.43059E-03 1.06602E-03
 -1      1247-4.45013E-02 1.43063E-03 7.07808E-04
 -1      1248-4.94081E-02 1.43086E-03 1.06304E-03
 -1      1249-4.80076E-02 1.43077E-03 1.06311E-03
 -1      1250-4.73070E-02 1.43081E-03 7.02040E-04
 -1      1251-5.22093E-02 1.43104E-03 1.06290E-03
 -1      1252-5.08087E-02 1.43095E-03 1.06297E-03
 -1      1253-5.01085E-02 1.43099E-03 6.99130E-04
 -1      1254-5.50104E-02 1.43122E-03 1.06276E-03
 -1      1255-5.36098E-02 1.43113E-03 1.06283E-03
 -1      1256-5.29096E-02 1.43117E-03 6.98989E-04
 -1      1257-5.78115E-02 1.43140E-03 1.06262E-03
 -1      1258-5.64109E-02 1.43131E-03 1.06269E-03
 -1      1259-5.57107E-02 1.43135E-03 6.98849E-04
 -1      1260-6.06126E-02 1.43157E-03 1.06248E-03
 -1      1261-5.92121E-02 1.43149E-03 1.06255E-03
 -1      1262-5.85118E-02 1.43153E-03 6.98708E-04
 -1      1263-6.34137E-02 1.43175E-03 1.06234E-03
 -1      1264-6.20132E-02 1.43166E-03 1.06241E-03
 -1      1265-6.13130E-02 1.43171E-03 6.98567E-04
 -1      1266-6.62149E-02 1.43193E-03 1.06220E-03
 -1      1267-6.48143E-02 1.43184E-03 1.06227E-03
 -1      1268-6.41141E-02 1.43189E-03 6.98426E-04
 -1      1269-6.90160E-02 1.43211E-03 1.06206E-03
 -1      1270-6.76154E-02 1.43202E-03 1.06213E-03
 -1      1271-6.69152E-02 1.43207E-03 6.98285E-04
 -1      1272-7.18171E-02 1.43229E-03 1.06191E-03
 -1      1273-7.04165E-02 1.43220E-03 1.06198E-03
 -1      1274-6.97163E-02 1.43225E-03 6.98144E-04
 -1      1275-7.46182E-02 1.43247E-03 1.06177E-03
 -1      1276-7.32177E-02 1.43238E-03 1.06184E-03
 -1      1277-7.25174E-02 1.43243E-03 6.98003E-04
 -1      1278-7.74193E-02 1.43265E-03 1.06163E-03
 -1      1279-7.60188E-02 1.43256E-03 1.06170E-03
 -1      1280-7.53186E-02 1.43261E-03 6.97862E-04
 -1      1281-8.02205E-02 1.43283E-03 1.06149E-03
 -1      1282-7.88199E-02 1.43274E-03 1.06156E-03
 -1      1283-7.81197E-02 1.43279E-03 6.97721E-04
 -1      1284-8.30216E-02 1.43301E-03 1.06135E-03
 -1      1285-8.16210E-02 1.43292E-03 1.06142E-03
 -1      1286-8.09208E-02 1.43297E-03 6.97580E-04
 -1      1287-8.58227E-02 1.43319E-03 1.06121E-03
 -1      1288-8.44221E-02 1.43310E-03 1.06128E-03
 -1      1289-8.37219E-02 1.43315E-03 6.97439E-04
 -1      1290-8.86094E-02 1.43337E-03 1.06806E-03
 -1      1291-8.72088E-02 1.43328E-03 1.06813E-03
 -1      1292-8.65086E-02 1.43332E-03 7.04293E-04
 -1      1293-9.14837E-02 1.43355E-03 1.05689E-03
 -1      1294-9.00831E-02 1.43346E-03 1.05696E-03
 -1      1295-8.93684E-02 1.43351E-03 7.00110E-04
 -1      1296-9.19980E-02 1.43365E-03 8.02668E-04
 -1      1297-6.62151E-02 1.43229E-03-3.52908E-04
 -1      1298-6.76157E-02 1.43238E-03-3.52979E-04
 -1      1299-6.34140E-02 1.43211E-03-3.52767E-04
 -1      1300-6.48145E-02 1.43220E-03-3.52838E-04
 -1      1301-6.55148E-02 1.43216E-03-2.46373E-06
 -1      1302-7.46185E-02 1.43283E-03-3.53331E-04
 -1      1303-7.60190E-02 1.43292E-03-3.53402E-04
 -1      1304-7.74196E-02 1.43301E-03-3.53472E-04
 -1      1305-7.88201E-02 1.43310E-03-3.53543E-04
 -1      1306-7.67192E-02 1.43288E-03-3.02751E-06
 -1      1307-8.72057E-02 1.43346E-03 3.54175E-04
 -1      1308-8.58196E-02 1.43337E-03 3.47251E-04
 -1      1309-8.78463E-02 1.43359E-03 7.69789E-07
 -1      1310-8.85353E-02 1.43354E-03 3.57811E-04
 -1      1311-9.00090E-02 1.43364E-03 3.46705E-04
 -1      1312-5.50106E-02 1.43157E-03-3.52345E-04
 -1      1313-5.64112E-02 1.43166E-03-3.52415E-04
 -1      1314-5.22095E-02 1.43140E-03-3.52204E-04
 -1      1315-5.36101E-02 1.43148E-03-3.52274E-04
 -1      1316-5.43103E-02 1.43144E-03-1.89996E-06
 -1      1317-5.78117E-02 1.43175E-03-3.52486E-04
 -1      1318-5.92123E-02 1.43184E-03-3.52556E-04
 -1      1319-6.06129E-02 1.43193E-03-3.52627E-04
 -1      1320-6.20134E-02 1.43202E-03-3.52697E-04
 -1      1321-5.99125E-02 1.43180E-03-2.18185E-06
 -1      1322-6.90162E-02 1.43247E-03-3.53049E-04
 -1      1323-7.04168E-02 1.43256E-03-3.53120E-04
 -1      1324-7.18173E-02 1.43265E-03-3.53190E-04
 -1      1325-7.32179E-02 1.43274E-03-3.53261E-04
 -1      1326-7.11170E-02 1.43252E-03-2.74562E-06
 -1      1327-8.44223E-02 1.43328E-03 3.46994E-04
 -1      1328-8.30217E-02 1.43319E-03 3.47065E-04
 -1      1329-8.16211E-02 1.43310E-03 3.47135E-04
 -1      1330-8.02206E-02 1.43301E-03 3.47206E-04
 -1      1331-8.23215E-02 1.43324E-03-3.30939E-06
 -1      1332-4.80077E-02 1.43095E-03 3.48827E-04
 -1      1333-4.66068E-02 1.43086E-03 3.51666E-04
 -1      1334-5.08088E-02 1.43113E-03 3.48686E-04
 -1      1335-4.94083E-02 1.43104E-03 3.48756E-04
 -1      1336-4.87080E-02 1.43108E-03-1.61808E-06
 -1      1337-1.29853E-02 1.43038E-03-3.53166E-04
 -1      1338-1.43887E-02 1.42958E-03-3.51609E-04
 -1      1339-1.50908E-02 1.42920E-03 1.26492E-06
 -1      1340-1.57929E-02 1.42922E-03-3.52609E-04
 -1      1341-1.71953E-02 1.42913E-03-3.51722E-04
 -1      1342-2.13972E-02 1.42939E-03-3.50640E-04
 -1      1343-2.27977E-02 1.42949E-03-3.50716E-04
 -1      1344-1.85960E-02 1.42919E-03-3.51756E-04
 -1      1345-1.99966E-02 1.42929E-03-3.50563E-04
 -1      1346-2.06968E-02 1.42925E-03-2.12153E-07
 -1      1347-8.78862E-03 1.44143E-03 3.58312E-04
 -1      1348-7.38535E-03 1.44817E-03 3.63411E-04
 -1      1349-1.01794E-02 1.43530E-03 3.54970E-04
 -1      1350-9.47843E-03 1.43922E-03 4.70003E-07
 -1      1351-1.15527E-02 1.43237E-03 3.59241E-04
 -1      1352-3.26017E-02 1.43014E-03-3.51218E-04
 -1      1353-3.40022E-02 1.43023E-03-3.51288E-04
 -1      1354-2.98005E-02 1.42996E-03-3.51076E-04
 -1      1355-3.12011E-02 1.43005E-03-3.51147E-04
 -1      1356-3.19013E-02 1.43001E-03-7.72888E-07
 -1      1357-3.81889E-02 1.43050E-03-3.50026E-04
 -1      1358-3.95842E-02 1.43059E-03-3.48769E-04
 -1      1359-4.02854E-02 1.43054E-03 5.76744E-06
 -1      1360-4.09933E-02 1.43068E-03-3.49679E-04
 -1      1361-4.23928E-02 1.43077E-03-3.52178E-04
 -1      1362-2.41983E-02 1.42959E-03-3.50790E-04
 -1      1363-2.55989E-02 1.42969E-03-3.50863E-04
 -1      1364-2.69994E-02 1.42978E-03-3.50935E-04
 -1      1365-2.84000E-02 1.42987E-03-3.51006E-04
 -1      1366-2.62991E-02 1.42964E-03-4.91035E-07
 -1      1367-6.06959E-03 1.44923E-03 3.62478E-04
 -1      1368-4.64232E-03 1.43549E-03 3.44460E-04
 -1      1369-4.39924E-03 1.43823E-03-1.74322E-07
 -1      1370-3.60362E-03 1.38200E-03 3.20047E-04
 -1      1371-2.67596E-03 1.29153E-03 1.42294E-04
 -1      1372-2.92033E-03 1.31105E-03 4.36853E-04
 -1      1373-7.39079E-03 1.44843E-03-3.60143E-04
 -1      1374-8.78192E-03 1.44262E-03-3.58619E-04
 -1      1375-6.76650E-03 1.45337E-03-2.34782E-06
 -1      1376-6.07543E-03 1.44978E-03-3.65530E-04
 -1      1377-4.64697E-03 1.43460E-03-3.47619E-04
 -1      1378-8.85557E-02 1.43372E-03-3.51990E-04
 -1      1379-9.00158E-02 1.43381E-03-3.45930E-04
 -1      1380-9.02567E-02 1.43374E-03-8.88751E-07
 -1      1381-9.10967E-02 1.43389E-03-3.51224E-04
 -1      1382-9.18602E-02 1.43398E-03-5.28624E-04
 -1      1383-9.21011E-02 1.43391E-03-1.83583E-04
 -1      1384-6.76155E-02 1.43220E-03 3.47840E-04
 -1      1385-6.62150E-02 1.43211E-03 3.47911E-04
 -1      1386-7.04167E-02 1.43238E-03 3.47699E-04
 -1      1387-6.90161E-02 1.43229E-03 3.47770E-04
 -1      1388-6.83159E-02 1.43234E-03-2.60468E-06
 -1      1389-4.66073E-02 1.43104E-03-3.51922E-04
 -1      1390-4.80078E-02 1.43113E-03-3.51992E-04
 -1      1391-4.37958E-02 1.43086E-03-3.53988E-04
 -1      1392-4.52037E-02 1.43095E-03-3.50530E-04
 -1      1393-4.59040E-02 1.43090E-03-1.55784E-07
 -1      1394-8.58197E-02 1.43355E-03-3.53568E-04
 -1      1395-8.72261E-02 1.43364E-03-3.55626E-04
 -1      1396-8.30218E-02 1.43337E-03-3.53754E-04
 -1      1397-8.44224E-02 1.43346E-03-3.53825E-04
 -1      1398-8.51194E-02 1.43341E-03-3.12297E-06
 -1      1399-5.64111E-02 1.43149E-03 3.48404E-04
 -1      1400-5.50105E-02 1.43140E-03 3.48474E-04
 -1      1401-5.92122E-02 1.43167E-03 3.48263E-04
 -1      1402-5.78116E-02 1.43158E-03 3.48333E-04
 -1      1403-5.71114E-02 1.43162E-03-2.04091E-06
 -1      1404-7.60189E-02 1.43274E-03 3.47417E-04
 -1      1405-7.46183E-02 1.43265E-03 3.47488E-04
 -1      1406-7.32178E-02 1.43256E-03 3.47558E-04
 -1      1407-7.18172E-02 1.43247E-03 3.47629E-04
 -1      1408-7.39181E-02 1.43270E-03-2.88656E-06
 -1      1409-6.20133E-02 1.43185E-03 3.48122E-04
 -1      1410-6.06127E-02 1.43176E-03 3.48192E-04
 -1      1411-6.48144E-02 1.43202E-03 3.47981E-04
 -1      1412-6.34139E-02 1.43194E-03 3.48051E-04
 -1      1413-6.27136E-02 1.43198E-03-2.32279E-06
 -1      1414-1.99965E-02 1.42911E-03 3.50205E-04
 -1      1415-1.85959E-02 1.42901E-03 3.50283E-04
 -1      1416-1.71953E-02 1.42896E-03 3.50384E-04
 -1      1417-1.58207E-02 1.42902E-03 3.56938E-04
 -1      1418-1.78957E-02 1.42904E-03-7.64963E-08
 -1      1419-3.40021E-02 1.43005E-03 3.49531E-04
 -1      1420-3.26015E-02 1.42996E-03 3.49601E-04
 -1      1421-3.68009E-02 1.43023E-03 3.56772E-04
 -1      1422-3.54027E-02 1.43014E-03 3.49459E-04
 -1      1423-3.47024E-02 1.43018E-03-9.16144E-07
 -1      1424-4.52032E-02 1.43077E-03 3.53058E-04
 -1      1425-4.37985E-02 1.43068E-03 3.55986E-04
 -1      1426-4.30975E-02 1.43072E-03 3.04646E-06
 -1      1427-4.23955E-02 1.43059E-03 3.57797E-04
 -1      1428-4.09952E-02 1.43050E-03 3.60058E-04
 -1      1429-2.55987E-02 1.42951E-03 3.49951E-04
 -1      1430-2.41982E-02 1.42941E-03 3.50018E-04
 -1      1431-2.27976E-02 1.42932E-03 3.50083E-04
 -1      1432-2.13971E-02 1.42921E-03 3.50144E-04
 -1      1433-2.34980E-02 1.42945E-03-3.51977E-07
 -1      1434-3.12010E-02 1.42987E-03 3.49672E-04
 -1      1435-2.98004E-02 1.42978E-03 3.49743E-04
 -1      1436-2.83999E-02 1.42969E-03 3.49813E-04
 -1      1437-2.69993E-02 1.42960E-03 3.49882E-04
 -1      1438-2.91002E-02 1.42983E-03-6.31705E-07
 -1      1439-2.62636E-03 1.29640E-03-1.25345E-04
 -1      1440-3.60726E-03 1.38232E-03-3.14933E-04
 -1      1441-2.87555E-03 1.30696E-03-4.26635E-04
 -1      1442-9.21433E-02 1.43382E-03 1.63370E-04
 -1      1443-9.18956E-02 1.43372E-03 5.10963E-04
 -1      1444-9.10898E-02 1.43371E-03 3.41410E-04
 -1      1445-1.01724E-02 1.43545E-03-3.56245E-04
 -1      1446-1.15771E-02 1.43250E-03-3.55639E-04
 -1      1447-1.22782E-02 1.43113E-03 1.13252E-06
 -1      1448-1.29608E-02 1.43031E-03 3.59415E-04
 -1      1449-1.44164E-02 1.42938E-03 3.58473E-04
 -1      1450-7.88200E-02 1.43292E-03 3.47276E-04
 -1      1451-7.74195E-02 1.43283E-03 3.47347E-04
 -1      1452-5.36099E-02 1.43131E-03 3.48545E-04
 -1      1453-5.22094E-02 1.43122E-03 3.48615E-04
 -1      1454-4.94084E-02 1.43122E-03-3.52063E-04
 -1      1455-5.08089E-02 1.43131E-03-3.52133E-04
 -1      1456-5.15092E-02 1.43126E-03-1.75902E-06
 -1      1457-3.54028E-02 1.43032E-03-3.51360E-04
 -1      1458-3.68023E-02 1.43041E-03-3.53859E-04
 -1      1459-3.74896E-02 1.43036E-03 2.84468E-06
 -1      1460-3.81875E-02 1.43032E-03 3.60605E-04
 -1      1461-3.95860E-02 1.43041E-03 3.60969E-04
 -1      1462-8.02207E-02 1.43319E-03-3.53613E-04
 -1      1463-8.16213E-02 1.43328E-03-3.53684E-04
 -1      1464-7.95204E-02 1.43306E-03-3.16845E-06
 -1      1465-6.27134E-02-6.97049E-04-1.43143E-03
 -1      1466-7.39179E-02-6.96332E-04-1.43200E-03
 -1      1467-7.95204E-02 7.05665E-04-1.43192E-03
 -1      1468-8.78946E-02-7.09424E-04-1.43270E-03
 -1      1469-5.43101E-02-7.02077E-04-1.43101E-03
 -1      1470-6.83160E-02 7.04947E-04-1.43136E-03
 -1      1471-4.87078E-02-6.97947E-04-1.43073E-03
 -1      1472-1.50942E-02 7.01992E-04-1.42904E-03
 -1      1473-2.06966E-02-7.04190E-04-1.42929E-03
 -1      1474-9.48344E-03-7.18672E-04-1.43690E-03
 -1      1475-3.18923E-02 7.13867E-04-1.42952E-03
 -1      1476-4.03172E-02-7.00686E-04-1.43031E-03
 -1      1477-2.62989E-02-7.03868E-04-1.42960E-03
 -1      1478-3.87626E-03 6.57742E-04-1.38844E-03
 -1      1479-5.99126E-02 7.04409E-04-1.43094E-03
 -1      1480-8.23213E-02-6.95793E-04-1.43242E-03
 -1      1481-9.08558E-02 6.98099E-04-1.43250E-03
 -1      1482-4.59070E-02 7.03512E-04-1.43023E-03
 -1      1483-8.51227E-02 7.06024E-04-1.43221E-03
 -1      1484-5.15092E-02 7.03871E-04-1.43051E-03
 -1      1485-3.47022E-02-6.98844E-04-1.43002E-03
 -1      1486-2.34980E-02 7.15446E-04-1.42909E-03
 -1      1487-3.75127E-02 7.14227E-04-1.42981E-03
 -1      1488-1.90422E-03-1.98420E-04-1.13633E-03
 -1      1489-9.29490E-02-3.31061E-04-1.43286E-03
 -1      1490-7.39182E-02 7.05306E-04-1.43164E-03
 -1      1491-6.83157E-02-6.96691E-04-1.43172E-03
 -1      1492-1.50937E-02-7.00507E-04-1.42930E-03
 -1      1493-9.47739E-03 7.20792E-04-1.43678E-03
 -1      1494-6.67884E-03 7.27642E-04-1.44543E-03
 -1      1495-5.43086E-03-9.16507E-06-1.45643E-03
 -1      1496-8.79355E-02 7.10178E-04-1.43235E-03
 -1      1497-5.99123E-02-6.97229E-04-1.43129E-03
 -1      1498-5.71112E-02-7.02646E-04-1.43115E-03
 -1      1499-5.57108E-02 6.10242E-06-1.43090E-03
 -1      1500-7.67190E-02-6.96152E-04-1.43214E-03
 -1      1501-6.55148E-02 7.04768E-04-1.43122E-03
 -1      1502-4.59067E-02-6.98126E-04-1.43059E-03
 -1      1503-4.31077E-02-7.03162E-04-1.43045E-03
 -1      1504-4.17331E-02 1.02270E-05-1.43020E-03
 -1      1505-8.23216E-02 7.05845E-04-1.43207E-03
 -1      1506-3.18884E-02-7.05715E-04-1.42988E-03
 -1      1507-7.67193E-02 7.05486E-04-1.43178E-03
 -1      1508-3.47025E-02 7.15523E-04-1.42967E-03
 -1      1509-2.34977E-02-7.04891E-04-1.42945E-03
 -1      1510-2.90851E-02-7.03269E-04-1.42974E-03
 -1      1511-2.76717E-02 9.07721E-06-1.42949E-03
 -1      1512-8.51224E-02-6.95614E-04-1.43256E-03
 -1      1513-4.87081E-02 7.03691E-04-1.43037E-03
 -1      1514-1.78953E-02-7.05155E-04-1.42916E-03
 -1      1515-1.92962E-02 3.77609E-06-1.42901E-03
 -1      1516-1.22912E-02 7.09491E-04-1.43095E-03
 -1      1517-1.22914E-02-7.08424E-04-1.43142E-03
 -1      1518-3.75182E-02-7.05721E-04-1.43017E-03
 -1      1519-7.11168E-02-6.96511E-04-1.43186E-03
 -1      1520-6.55145E-02-6.96870E-04-1.43157E-03
 -1      1521-5.15089E-02-7.00299E-04-1.43087E-03
 -1      1522-7.95202E-02-6.95973E-04-1.43228E-03
 -1      1523-7.11171E-02 7.05127E-04-1.43150E-03
 -1      1524-6.27137E-02 7.04589E-04-1.43108E-03
 -1      1525-8.06911E-03-2.15160E-06-1.44708E-03
 -1      1526-6.72338E-03-7.37465E-04-1.44401E-03
 -1      1527-2.00816E-03 2.26650E-04-1.16978E-03
 -1      1528-5.42341E-02 7.17258E-04-1.43065E-03
 -1      1529-5.71878E-02 7.17447E-04-1.43080E-03
 -1      1530-2.06842E-02 7.15737E-04-1.42893E-03
 -1      1531-1.78724E-02 7.13881E-04-1.42880E-03
 -1      1532-2.62945E-02 7.19209E-04-1.42924E-03
 -1      1533-3.89148E-02 8.36716E-06-1.43006E-03
 -1      1534-4.31105E-02 7.18100E-04-1.43009E-03
 -1      1535-3.04899E-02 7.53665E-06-1.42963E-03
 -1      1536-8.91758E-02-2.59528E-06-1.43259E-03
 -1      1537-8.65166E-02 4.63988E-06-1.43245E-03
 -1      1538-7.25175E-02 4.39757E-06-1.43175E-03
 -1      1539-6.97164E-02 4.21814E-06-1.43161E-03
 -1      1540-6.69153E-02 4.03871E-06-1.43147E-03
 -1      1541-8.37220E-02 5.11529E-06-1.43231E-03
 -1      1542-7.81197E-02 4.75643E-06-1.43203E-03
 -1      1543-5.01085E-02 2.96213E-06-1.43062E-03
 -1      1544-6.13130E-02 3.67905E-06-1.43119E-03
 -1      1545-1.36924E-02 7.01244E-07-1.42974E-03
 -1      1546-1.08807E-02 3.16812E-07-1.43322E-03
 -1      1547-7.53186E-02 4.57700E-06-1.43189E-03
 -1      1548-6.41141E-02 3.85914E-06-1.43133E-03
 -1      1549-3.61087E-02 5.90633E-06-1.42992E-03
 -1      1550-8.09209E-02 4.93586E-06-1.43217E-03
 -1      1551-3.32974E-02 6.37913E-06-1.42977E-03
 -1      1552-4.73074E-02 2.78190E-06-1.43048E-03
 -1      1553-5.29097E-02 3.13682E-06-1.43076E-03
 -1      1554-5.85119E-02 3.49568E-06-1.43104E-03
 -1      1555-4.03135E-02 7.18789E-04-1.42995E-03
 -1      1556-4.45063E-02 2.59853E-06-1.43034E-03
 -1      1557-1.64949E-02 8.06278E-07-1.42894E-03
 -1      1558-2.90916E-02 7.18344E-04-1.42938E-03
 -1      1559-2.48970E-02 2.56061E-06-1.42935E-03
 -1      1560-2.20957E-02 3.71848E-06-1.42919E-03
 -1      1561-9.28646E-02 3.62844E-04-1.43268E-03
 -1      1562-3.88525E-03-6.58350E-04-1.38840E-03
 -1      1563-9.08421E-02-6.87170E-04-1.43285E-03
 -1      1564-3.35673E-03 1.00061E-08-1.37904E-03
 -1      1565-1.81001E-03 5.79348E-04-1.07123E-03
 -1      1566-1.79338E-03-5.75265E-04-1.05099E-03
 -1      1567-9.31399E-02 9.29938E-04-1.43255E-03
 -1      1568-9.31537E-02-9.14468E-04-1.43302E-03
 -1      1569-9.13374E-02 8.02319E-06-1.43270E-03
 -1      1570-8.99557E-04-2.63272E-04-7.17254E-04
 -1      1571-9.50156E-04-4.18581E-04-6.88905E-04
 -1      1572-2.37238E-03-9.19814E-04-1.14637E-03
 -1      1573-9.60218E-04 4.20750E-04-6.91013E-04
 -1      1574-8.79948E-04 2.67117E-04-6.88416E-04
 -1      1575-2.38001E-03 9.25284E-04-1.15259E-03
 -1      1576-9.40399E-02-1.16860E-03-1.43313E-03
 -1      1577-9.40400E-02-8.11460E-04-1.43304E-03
 -1      1578-9.26394E-02-1.16869E-03-1.43306E-03
 -1      1579-9.40332E-02 8.25028E-04-1.43262E-03
 -1      1580-9.40333E-02 1.18217E-03-1.43253E-03
 -1      1581-9.26328E-02 1.18208E-03-1.43246E-03
 -1      1582-9.67139E-04-5.71384E-05-7.70425E-04
 -1      1583-9.36505E-04-1.80919E-04-7.41544E-04
 -1      1584-1.83995E-03-3.86219E-04-1.10608E-03
 -1      1585-1.02788E-03 1.88437E-04-7.87820E-04
 -1      1586-9.77898E-04 6.07679E-05-7.57580E-04
 -1      1587-1.95291E-03 1.69480E-06-1.16197E-03
 -1      1588-1.90632E-03 3.98915E-04-1.13364E-03
 -1      1589-9.39376E-02-5.19757E-04-1.43296E-03
 -1      1590-9.39377E-02-1.62614E-04-1.43287E-03
 -1      1591-9.30513E-02-6.22765E-04-1.43294E-03
 -1      1592-9.38955E-02 1.84338E-04-1.43278E-03
 -1      1593-9.38956E-02 5.41481E-04-1.43269E-03
 -1      1594-9.29068E-02 1.58912E-05-1.43277E-03
 -1      1595-9.30022E-02 6.46391E-04-1.43262E-03
 -1      1596-3.37158E-03-9.62407E-04-1.30563E-03
 -1      1597-4.67835E-03-1.05022E-03-1.39786E-03
 -1      1598-2.83386E-03-6.77918E-04-1.28317E-03
 -1      1599-6.07162E-03-1.08756E-03-1.43044E-03
 -1      1600-7.42886E-03-1.08950E-03-1.43918E-03
 -1      1601-5.29549E-03-7.14793E-04-1.43120E-03
 -1      1602-8.80051E-03-1.08095E-03-1.43701E-03
 -1      1603-1.01913E-02-1.07569E-03-1.43438E-03
 -1      1604-8.10029E-03-7.28901E-04-1.44186E-03
 -1      1605-1.15930E-02-1.07080E-03-1.43235E-03
 -1      1606-1.29921E-02-1.06874E-03-1.43086E-03
 -1      1607-1.08865E-02-7.12517E-04-1.43355E-03
 -1      1608-1.43932E-02-1.06480E-03-1.42986E-03
 -1      1609-1.57940E-02-1.06421E-03-1.42942E-03
 -1      1610-1.36925E-02-7.04011E-04-1.43011E-03
 -1      1611-1.71948E-02-1.06652E-03-1.42930E-03
 -1      1612-1.85955E-02-1.06634E-03-1.42931E-03
 -1      1613-1.64946E-02-7.02708E-04-1.42920E-03
 -1      1614-1.99962E-02-1.06587E-03-1.42935E-03
 -1      1615-2.13968E-02-1.06579E-03-1.42942E-03
 -1      1616-1.92960E-02-7.04653E-04-1.42921E-03
 -1      1617-2.27974E-02-1.06614E-03-1.42950E-03
 -1      1618-2.41979E-02-1.06605E-03-1.42958E-03
 -1      1619-2.20972E-02-7.04542E-04-1.42937E-03
 -1      1620-2.55985E-02-1.06554E-03-1.42965E-03
 -1      1621-2.69991E-02-1.06546E-03-1.42973E-03
 -1      1622-2.48983E-02-7.04382E-04-1.42953E-03
 -1      1623-2.83922E-02-1.06516E-03-1.42980E-03
 -1      1624-2.97928E-02-1.06507E-03-1.42987E-03
 -1      1625-2.76920E-02-7.03569E-04-1.42967E-03
 -1      1626-3.11944E-02-1.06629E-03-1.42994E-03
 -1      1627-3.25949E-02-1.06620E-03-1.43001E-03
 -1      1628-3.04868E-02-7.04492E-04-1.42981E-03
 -1      1629-3.40019E-02-1.06276E-03-1.43008E-03
 -1      1630-3.54024E-02-1.06268E-03-1.43015E-03
 -1      1631-3.32953E-02-7.02279E-04-1.42995E-03
 -1      1632-3.68104E-02-1.06611E-03-1.43022E-03
 -1      1633-3.82110E-02-1.06602E-03-1.43029E-03
 -1      1634-3.61102E-02-7.02283E-04-1.43010E-03
 -1      1635-3.96105E-02-1.06351E-03-1.43036E-03
 -1      1636-4.10110E-02-1.06342E-03-1.43043E-03
 -1      1637-3.89177E-02-7.03204E-04-1.43024E-03
 -1      1638-4.24063E-02-1.06465E-03-1.43050E-03
 -1      1639-4.38068E-02-1.06457E-03-1.43058E-03
 -1      1640-4.17124E-02-7.01924E-04-1.43038E-03
 -1      1641-4.52063E-02-1.06205E-03-1.43064E-03
 -1      1642-4.66069E-02-1.06196E-03-1.43072E-03
 -1      1643-4.45072E-02-7.00644E-04-1.43052E-03
 -1      1644-4.80075E-02-1.06187E-03-1.43079E-03
 -1      1645-4.94080E-02-1.06178E-03-1.43086E-03
 -1      1646-4.73073E-02-6.98036E-04-1.43066E-03
 -1      1647-5.08086E-02-1.06295E-03-1.43093E-03
 -1      1648-5.22092E-02-1.06286E-03-1.43100E-03
 -1      1649-5.01084E-02-6.99123E-04-1.43080E-03
 -1      1650-5.36097E-02-1.06375E-03-1.43107E-03
 -1      1651-5.50103E-02-1.06366E-03-1.43114E-03
 -1      1652-5.29095E-02-7.01188E-04-1.43094E-03
 -1      1653-5.64108E-02-1.06395E-03-1.43121E-03
 -1      1654-5.78114E-02-1.06386E-03-1.43128E-03
 -1      1655-5.57106E-02-7.02362E-04-1.43108E-03
 -1      1656-5.92120E-02-1.06115E-03-1.43135E-03
 -1      1657-6.06125E-02-1.06106E-03-1.43142E-03
 -1      1658-5.85117E-02-6.99938E-04-1.43122E-03
 -1      1659-6.20131E-02-1.06097E-03-1.43149E-03
 -1      1660-6.34136E-02-1.06088E-03-1.43156E-03
 -1      1661-6.13129E-02-6.97139E-04-1.43136E-03
 -1      1662-6.48142E-02-1.06079E-03-1.43163E-03
 -1      1663-6.62148E-02-1.06070E-03-1.43170E-03
 -1      1664-6.41140E-02-6.96960E-04-1.43150E-03
 -1      1665-6.76153E-02-1.06061E-03-1.43177E-03
 -1      1666-6.90159E-02-1.06052E-03-1.43184E-03
 -1      1667-6.69151E-02-6.96780E-04-1.43165E-03
 -1      1668-7.04164E-02-1.06043E-03-1.43191E-03
 -1      1669-7.18170E-02-1.06034E-03-1.43198E-03
 -1      1670-6.97162E-02-6.96601E-04-1.43179E-03
 -1      1671-7.32176E-02-1.06025E-03-1.43205E-03
 -1      1672-7.46181E-02-1.06016E-03-1.43212E-03
 -1      1673-7.25174E-02-6.96421E-04-1.43193E-03
 -1      1674-7.60187E-02-1.06007E-03-1.43220E-03
 -1      1675-7.74192E-02-1.05998E-03-1.43227E-03
 -1      1676-7.53185E-02-6.96242E-04-1.43207E-03
 -1      1677-7.88198E-02-1.05989E-03-1.43234E-03
 -1      1678-8.02204E-02-1.05980E-03-1.43241E-03
 -1      1679-7.81196E-02-6.96063E-04-1.43221E-03
 -1      1680-8.16209E-02-1.05971E-03-1.43248E-03
 -1      1681-8.30215E-02-1.05962E-03-1.43255E-03
 -1      1682-8.09207E-02-6.95883E-04-1.43235E-03
 -1      1683-8.44220E-02-1.05954E-03-1.43262E-03
 -1      1684-8.58226E-02-1.05945E-03-1.43269E-03
 -1      1685-8.37218E-02-6.95704E-04-1.43249E-03
 -1      1686-8.72087E-02-1.06635E-03-1.43276E-03
 -1      1687-8.86093E-02-1.06626E-03-1.43283E-03
 -1      1688-8.65085E-02-7.02519E-04-1.43263E-03
 -1      1689-9.00830E-02-1.05513E-03-1.43290E-03
 -1      1690-9.14836E-02-1.05504E-03-1.43297E-03
 -1      1691-8.93683E-02-6.98297E-04-1.43278E-03
 -1      1692-9.19979E-02-8.00819E-04-1.43293E-03
 -1      1693-4.67253E-03 1.04770E-03-1.39544E-03
 -1      1694-3.36730E-03 9.61270E-04-1.30713E-03
 -1      1695-2.84011E-03 6.77145E-04-1.28787E-03
 -1      1696-7.40831E-03 1.08595E-03-1.43812E-03
 -1      1697-6.04748E-03 1.08168E-03-1.42866E-03
 -1      1698-5.27094E-03 7.10437E-04-1.43391E-03
 -1      1699-1.01877E-02 1.07716E-03-1.43426E-03
 -1      1700-8.79716E-03 1.08212E-03-1.43715E-03
 -1      1701-8.07400E-03 7.25058E-04-1.44211E-03
 -1      1702-1.29925E-02 1.06981E-03-1.43016E-03
 -1      1703-1.15932E-02 1.07178E-03-1.43154E-03
 -1      1704-1.08835E-02 7.14297E-04-1.43307E-03
 -1      1705-1.57945E-02 1.06572E-03-1.42889E-03
 -1      1706-1.43938E-02 1.06612E-03-1.42924E-03
 -1      1707-1.36927E-02 7.05337E-04-1.42964E-03
 -1      1708-1.85843E-02 1.07171E-03-1.42876E-03
 -1      1709-1.71836E-02 1.07168E-03-1.42877E-03
 -1      1710-1.64833E-02 7.07816E-04-1.42885E-03
 -1      1711-2.13909E-02 1.07273E-03-1.42889E-03
 -1      1712-1.99903E-02 1.07263E-03-1.42882E-03
 -1      1713-1.92783E-02 7.14791E-04-1.42886E-03
 -1      1714-2.41984E-02 1.07268E-03-1.42904E-03
 -1      1715-2.27978E-02 1.07258E-03-1.42896E-03
 -1      1716-2.20911E-02 7.15593E-04-1.42901E-03
 -1      1717-2.69972E-02 1.07465E-03-1.42919E-03
 -1      1718-2.55966E-02 1.07456E-03-1.42911E-03
 -1      1719-2.48963E-02 7.17329E-04-1.42917E-03
 -1      1720-2.97963E-02 1.07431E-03-1.42933E-03
 -1      1721-2.83957E-02 1.07422E-03-1.42926E-03
 -1      1722-2.76930E-02 7.18777E-04-1.42931E-03
 -1      1723-3.25972E-02 1.07216E-03-1.42947E-03
 -1      1724-3.11967E-02 1.07207E-03-1.42940E-03
 -1      1725-3.04919E-02 7.16106E-04-1.42945E-03
 -1      1726-3.54029E-02 1.07308E-03-1.42961E-03
 -1      1727-3.40023E-02 1.07299E-03-1.42954E-03
 -1      1728-3.32974E-02 7.14695E-04-1.42960E-03
 -1      1729-3.82085E-02 1.07252E-03-1.42975E-03
 -1      1730-3.68080E-02 1.07243E-03-1.42968E-03
 -1      1731-3.61076E-02 7.14875E-04-1.42974E-03
 -1      1732-4.10095E-02 1.07489E-03-1.42989E-03
 -1      1733-3.96089E-02 1.07480E-03-1.42982E-03
 -1      1734-3.89131E-02 7.16508E-04-1.42988E-03
 -1      1735-4.38086E-02 1.07464E-03-1.43003E-03
 -1      1736-4.24080E-02 1.07455E-03-1.42996E-03
 -1      1737-4.17120E-02 7.18444E-04-1.43002E-03
 -1      1738-4.66074E-02 1.06743E-03-1.43018E-03
 -1      1739-4.52068E-02 1.06734E-03-1.43011E-03
 -1      1740-4.45088E-02 7.10806E-04-1.43016E-03
 -1      1741-4.94085E-02 1.06761E-03-1.43032E-03
 -1      1742-4.80079E-02 1.06752E-03-1.43025E-03
 -1      1743-4.73076E-02 7.03602E-04-1.43030E-03
 -1      1744-5.22096E-02 1.06779E-03-1.43046E-03
 -1      1745-5.08090E-02 1.06770E-03-1.43039E-03
 -1      1746-5.01087E-02 7.03781E-04-1.43044E-03
 -1      1747-5.49726E-02 1.07458E-03-1.43060E-03
 -1      1748-5.35720E-02 1.07449E-03-1.43052E-03
 -1      1749-5.28717E-02 7.10564E-04-1.43058E-03
 -1      1750-5.78500E-02 1.07476E-03-1.43074E-03
 -1      1751-5.64494E-02 1.07467E-03-1.43067E-03
 -1      1752-5.57109E-02 7.17353E-04-1.43072E-03
 -1      1753-6.06130E-02 1.06833E-03-1.43088E-03
 -1      1754-5.92124E-02 1.06824E-03-1.43081E-03
 -1      1755-5.85502E-02 7.10928E-04-1.43087E-03
 -1      1756-6.34141E-02 1.06851E-03-1.43102E-03
 -1      1757-6.20135E-02 1.06842E-03-1.43095E-03
 -1      1758-6.13132E-02 7.04499E-04-1.43101E-03
 -1      1759-6.62152E-02 1.06869E-03-1.43116E-03
 -1      1760-6.48146E-02 1.06860E-03-1.43109E-03
 -1      1761-6.41143E-02 7.04678E-04-1.43115E-03
 -1      1762-6.90163E-02 1.06887E-03-1.43130E-03
 -1      1763-6.76158E-02 1.06878E-03-1.43123E-03
 -1      1764-6.69154E-02 7.04858E-04-1.43129E-03
 -1      1765-7.18175E-02 1.06905E-03-1.43144E-03
 -1      1766-7.04169E-02 1.06896E-03-1.43137E-03
 -1      1767-6.97165E-02 7.05037E-04-1.43143E-03
 -1      1768-7.46186E-02 1.06923E-03-1.43159E-03
 -1      1769-7.32180E-02 1.06914E-03-1.43151E-03
 -1      1770-7.25176E-02 7.05217E-04-1.43157E-03
 -1      1771-7.74197E-02 1.06941E-03-1.43173E-03
 -1      1772-7.60191E-02 1.06932E-03-1.43166E-03
 -1      1773-7.53188E-02 7.05396E-04-1.43171E-03
 -1      1774-8.02208E-02 1.06959E-03-1.43187E-03
 -1      1775-7.88203E-02 1.06950E-03-1.43180E-03
 -1      1776-7.81199E-02 7.05575E-04-1.43185E-03
 -1      1777-8.30219E-02 1.06977E-03-1.43201E-03
 -1      1778-8.16214E-02 1.06968E-03-1.43194E-03
 -1      1779-8.09210E-02 7.05755E-04-1.43199E-03
 -1      1780-8.58231E-02 1.06995E-03-1.43215E-03
 -1      1781-8.44225E-02 1.06986E-03-1.43208E-03
 -1      1782-8.37221E-02 7.05934E-04-1.43214E-03
 -1      1783-8.86300E-02 1.07211E-03-1.43229E-03
 -1      1784-8.72295E-02 1.07202E-03-1.43222E-03
 -1      1785-8.65291E-02 7.08101E-04-1.43228E-03
 -1      1786-9.14907E-02 1.06616E-03-1.43244E-03
 -1      1787-9.00902E-02 1.06607E-03-1.43236E-03
 -1      1788-8.93956E-02 7.04139E-04-1.43242E-03
 -1      1789-9.19978E-02 8.14019E-04-1.43252E-03
 -1      1790-6.06127E-02-3.46775E-04-1.43124E-03
 -1      1791-6.20132E-02-3.46685E-04-1.43131E-03
 -1      1792-6.34138E-02-3.46595E-04-1.43138E-03
 -1      1793-6.48143E-02-3.46505E-04-1.43145E-03
 -1      1794-6.27136E-02 3.76911E-06-1.43126E-03
 -1      1795-7.46183E-02-3.45877E-04-1.43194E-03
 -1      1796-7.60188E-02-3.45788E-04-1.43201E-03
 -1      1797-7.18171E-02-3.46057E-04-1.43180E-03
 -1      1798-7.32177E-02-3.45967E-04-1.43187E-03
 -1      1799-7.39181E-02 4.48728E-06-1.43182E-03
 -1      1800-8.16212E-02 3.55390E-04-1.43212E-03
 -1      1801-8.02207E-02 3.55300E-04-1.43205E-03
 -1      1802-7.88201E-02 3.55211E-04-1.43198E-03
 -1      1803-7.74195E-02 3.55121E-04-1.43191E-03
 -1      1804-7.95203E-02 4.84614E-06-1.43210E-03
 -1      1805-8.58195E-02-3.45487E-04-1.43251E-03
 -1      1806-8.72056E-02-3.52392E-04-1.43258E-03
 -1      1807-8.85352E-02-3.56010E-04-1.43265E-03
 -1      1808-8.78462E-02 1.02230E-06-1.43252E-03
 -1      1809-9.00089E-02-3.44883E-04-1.43272E-03
 -1      1810-5.50104E-02-3.47987E-04-1.43096E-03
 -1      1811-5.64110E-02-3.48272E-04-1.43103E-03
 -1      1812-5.36099E-02-3.49470E-04-1.43089E-03
 -1      1813-5.43102E-02 4.61962E-06-1.43083E-03
 -1      1814-5.22093E-02-3.48581E-04-1.43082E-03
 -1      1815-6.76156E-02 3.54493E-04-1.43141E-03
 -1      1816-6.62151E-02 3.54403E-04-1.43134E-03
 -1      1817-7.04167E-02 3.54672E-04-1.43155E-03
 -1      1818-6.90162E-02 3.54583E-04-1.43148E-03
 -1      1819-6.83158E-02 4.12843E-06-1.43154E-03
 -1      1820-4.66071E-02-3.47672E-04-1.43053E-03
 -1      1821-4.80076E-02-3.47582E-04-1.43060E-03
 -1      1822-4.94082E-02-3.47492E-04-1.43068E-03
 -1      1823-5.08087E-02-3.48668E-04-1.43075E-03
 -1      1824-4.87080E-02 2.87202E-06-1.43055E-03
 -1      1825-1.43934E-02 3.51527E-04-1.42935E-03
 -1      1826-1.29914E-02 3.54872E-04-1.43019E-03
 -1      1827-1.71837E-02 3.57363E-04-1.42886E-03
 -1      1828-1.57946E-02 3.51318E-04-1.42897E-03
 -1      1829-1.50938E-02 7.30715E-07-1.42914E-03
 -1      1830-2.13961E-02-3.50236E-04-1.42923E-03
 -1      1831-2.27967E-02-3.50583E-04-1.42932E-03
 -1      1832-1.85958E-02-3.50671E-04-1.42907E-03
 -1      1833-1.99964E-02-3.50198E-04-1.42915E-03
 -1      1834-2.06959E-02 3.74625E-06-1.42910E-03
 -1      1835-1.01796E-02-3.58993E-04-1.43560E-03
 -1      1836-1.15861E-02-3.55065E-04-1.43250E-03
 -1      1837-8.77543E-03-3.62867E-04-1.44163E-03
 -1      1838-7.38609E-03-3.70546E-04-1.44847E-03
 -1      1839-9.47576E-03-1.30229E-06-1.43931E-03
 -1      1840-3.39999E-02 3.60951E-04-1.42972E-03
 -1      1841-3.25948E-02 3.60123E-04-1.42965E-03
 -1      1842-3.11911E-02 3.60702E-04-1.42958E-03
 -1      1843-3.18936E-02 6.95788E-06-1.42970E-03
 -1      1844-2.97907E-02 3.62941E-04-1.42951E-03
 -1      1845-4.10251E-02-3.45230E-04-1.43025E-03
 -1      1846-4.24204E-02-3.46468E-04-1.43032E-03
 -1      1847-3.96160E-02-3.46160E-04-1.43018E-03
 -1      1848-4.03239E-02 9.29708E-06-1.43013E-03
 -1      1849-3.82165E-02-3.48677E-04-1.43011E-03
 -1      1850-2.41974E-02-3.51166E-04-1.42940E-03
 -1      1851-2.55980E-02-3.50652E-04-1.42947E-03
 -1      1852-2.69853E-02-3.47396E-04-1.42954E-03
 -1      1853-2.83784E-02-3.47096E-04-1.42962E-03
 -1      1854-2.62844E-02 5.81908E-06-1.42942E-03
 -1      1855-6.04418E-03 3.62364E-04-1.44972E-03
 -1      1856-4.62870E-03 3.40338E-04-1.43573E-03
 -1      1857-4.38341E-03-3.68766E-06-1.43723E-03
 -1      1858-3.59835E-03 3.18066E-04-1.38291E-03
 -1      1859-2.91917E-03 4.41006E-04-1.31307E-03
 -1      1860-2.67141E-03 1.41816E-04-1.29347E-03
 -1      1861-6.20134E-02 3.54134E-04-1.43113E-03
 -1      1862-6.06128E-02 3.54044E-04-1.43106E-03
 -1      1863-5.92123E-02 3.53952E-04-1.43099E-03
 -1      1864-5.78498E-02 3.60472E-04-1.43092E-03
 -1      1865-5.99125E-02 3.58737E-06-1.43112E-03
 -1      1866-8.30216E-02-3.45339E-04-1.43237E-03
 -1      1867-8.44222E-02-3.45249E-04-1.43244E-03
 -1      1868-8.02205E-02-3.45518E-04-1.43223E-03
 -1      1869-8.16211E-02-3.45429E-04-1.43230E-03
 -1      1870-8.23214E-02 5.02557E-06-1.43224E-03
 -1      1871-9.00158E-02 3.47752E-04-1.43254E-03
 -1      1872-8.85556E-02 3.53792E-04-1.43247E-03
 -1      1873-9.10966E-02 3.53061E-04-1.43260E-03
 -1      1874-9.02566E-02 2.71396E-06-1.43264E-03
 -1      1875-9.18602E-02 5.30471E-04-1.43259E-03
 -1      1876-9.21010E-02 1.85433E-04-1.43269E-03
 -1      1877-4.80078E-02 3.53237E-04-1.43043E-03
 -1      1878-4.66072E-02 3.53147E-04-1.43036E-03
 -1      1879-4.52067E-02 3.53055E-04-1.43029E-03
 -1      1880-4.38084E-02 3.60349E-04-1.43021E-03
 -1      1881-4.59069E-02 2.69022E-06-1.43041E-03
 -1      1882-8.72261E-02 3.57409E-04-1.43240E-03
 -1      1883-8.58197E-02 3.55332E-04-1.43233E-03
 -1      1884-8.44223E-02 3.55570E-04-1.43226E-03
 -1      1885-8.30218E-02 3.55480E-04-1.43219E-03
 -1      1886-8.51193E-02 4.87760E-06-1.43238E-03
 -1      1887-5.08089E-02 3.53416E-04-1.43057E-03
 -1      1888-4.94083E-02 3.53327E-04-1.43050E-03
 -1      1889-5.35719E-02 3.60198E-04-1.43071E-03
 -1      1890-5.22095E-02 3.53504E-04-1.43064E-03
 -1      1891-5.15091E-02 3.04948E-06-1.43069E-03
 -1      1892-3.25929E-02-3.49668E-04-1.42983E-03
 -1      1893-3.39998E-02-3.46232E-04-1.42990E-03
 -1      1894-3.54055E-02-3.46469E-04-1.42997E-03
 -1      1895-3.68134E-02-3.49908E-04-1.43004E-03
 -1      1896-3.47030E-02 6.14272E-06-1.42985E-03
 -1      1897-2.27969E-02 3.59578E-04-1.42914E-03
 -1      1898-2.13899E-02 3.59728E-04-1.42906E-03
 -1      1899-2.55958E-02 3.60884E-04-1.42929E-03
 -1      1900-2.41975E-02 3.59004E-04-1.42922E-03
 -1      1901-2.34964E-02 3.14029E-06-1.42927E-03
 -1      1902-3.68107E-02 3.60067E-04-1.42986E-03
 -1      1903-3.54056E-02 3.60715E-04-1.42979E-03
 -1      1904-3.82138E-02 3.61297E-04-1.42993E-03
 -1      1905-3.75118E-02 7.13674E-06-1.42999E-03
 -1      1906-3.96142E-02 3.63578E-04-1.43000E-03
 -1      1907-2.62123E-03-1.26550E-04-1.29265E-03
 -1      1908-2.87336E-03-4.29613E-04-1.30400E-03
 -1      1909-3.60342E-03-3.17637E-04-1.38087E-03
 -1      1910-9.21432E-02-1.61519E-04-1.43278E-03
 -1      1911-9.18955E-02-5.09116E-04-1.43285E-03
 -1      1912-9.10898E-02-3.39574E-04-1.43277E-03
 -1      1913-7.60190E-02 3.55031E-04-1.43184E-03
 -1      1914-7.46184E-02 3.54942E-04-1.43177E-03
 -1      1915-7.32179E-02 3.54852E-04-1.43170E-03
 -1      1916-7.18173E-02 3.54762E-04-1.43163E-03
 -1      1917-6.90160E-02-3.46236E-04-1.43166E-03
 -1      1918-7.04166E-02-3.46146E-04-1.43173E-03
 -1      1919-6.62149E-02-3.46416E-04-1.43152E-03
 -1      1920-6.76155E-02-3.46326E-04-1.43159E-03
 -1      1921-1.57944E-02-3.49768E-04-1.42913E-03
 -1      1922-1.71952E-02-3.52190E-04-1.42904E-03
 -1      1923-1.29914E-02-3.53600E-04-1.43065E-03
 -1      1924-1.43932E-02-3.50153E-04-1.42940E-03
 -1      1925-8.77149E-03 3.62173E-04-1.44262E-03
 -1      1926-7.36324E-03 3.63275E-04-1.44854E-03
 -1      1927-1.15860E-02 3.55839E-04-1.43225E-03
 -1      1928-1.01760E-02 3.60584E-04-1.43530E-03
 -1      1929-6.74608E-03-5.64504E-06-1.45365E-03
 -1      1930-6.06674E-03-3.75856E-04-1.44902E-03
 -1      1931-4.63372E-03-3.49913E-04-1.43435E-03
 -1      1932-5.78115E-02-3.49575E-04-1.43110E-03
 -1      1933-5.92121E-02-3.46867E-04-1.43117E-03
 -1      1934-5.71113E-02 4.79905E-06-1.43097E-03
 -1      1935-5.49724E-02 3.61680E-04-1.43078E-03
 -1      1936-5.64493E-02 3.61775E-04-1.43085E-03
 -1      1937-7.74194E-02-3.45698E-04-1.43208E-03
 -1      1938-7.88199E-02-3.45608E-04-1.43216E-03
 -1      1939-7.67192E-02 4.66671E-06-1.43196E-03
 -1      1940-6.48145E-02 3.54314E-04-1.43127E-03
 -1      1941-6.34139E-02 3.54224E-04-1.43120E-03
 -1      1942-6.55147E-02 3.94894E-06-1.43140E-03
 -1      1943-4.38070E-02-3.50282E-04-1.43039E-03
 -1      1944-4.52065E-02-3.47764E-04-1.43046E-03
 -1      1945-4.31197E-02 6.41274E-06-1.43027E-03
 -1      1946-4.10233E-02 3.64508E-04-1.43007E-03
 -1      1947-4.24218E-02 3.64163E-04-1.43014E-03
 -1      1948-2.97875E-02-3.47866E-04-1.42969E-03
 -1      1949-3.11892E-02-3.49089E-04-1.42976E-03
 -1      1950-2.90808E-02 8.30689E-06-1.42956E-03
 -1      1951-2.69831E-02 3.64143E-04-1.42937E-03
 -1      1952-2.83816E-02 3.63711E-04-1.42944E-03
 -1      1953-1.78956E-02 2.29195E-06-1.42894E-03
 -1      1954-1.99902E-02 3.59750E-04-1.42897E-03
 -1      1955-1.85843E-02 3.58813E-04-1.42890E-03
 -1      1956-1.22869E-02 5.07383E-07-1.43110E-03
 -1      1957-7.11169E-02 4.30786E-06-1.43168E-03
 -1      1958-6.27130E-02-6.97773E-04 1.42571E-03
 -1      1959-7.39174E-02-6.97055E-04 1.42515E-03
 -1      1960-7.95200E-02 7.04941E-04 1.42522E-03
 -1      1961-8.78941E-02-7.10147E-04 1.42444E-03
 -1      1962-5.43096E-02-7.02801E-04 1.42613E-03
 -1      1963-6.83155E-02 7.04224E-04 1.42578E-03
 -1      1964-4.87073E-02-6.98670E-04 1.42641E-03
 -1      1965-1.50936E-02 7.01232E-04 1.42886E-03
 -1      1966-2.06961E-02-7.00431E-04 1.42779E-03
 -1      1967-9.48143E-03-7.19198E-04 1.43652E-03
 -1      1968-3.19009E-02 7.01891E-04 1.42761E-03
 -1      1969-4.02916E-02 7.04631E-04 1.42719E-03
 -1      1970-2.62987E-02 7.01529E-04 1.42789E-03
 -1      1971-3.87637E-03 6.56452E-04 1.38963E-03
 -1      1972-5.99121E-02 7.03685E-04 1.42621E-03
 -1      1973-8.23208E-02-6.96517E-04 1.42472E-03
 -1      1974-9.08553E-02 6.97375E-04 1.42465E-03
 -1      1975-4.59065E-02 7.02788E-04 1.42691E-03
 -1      1976-8.51222E-02 7.05300E-04 1.42494E-03
 -1      1977-5.15088E-02 7.03147E-04 1.42663E-03
 -1      1978-3.47017E-02-6.99567E-04 1.42712E-03
 -1      1979-4.30960E-02-7.10283E-04 1.42669E-03
 -1      1980-2.90995E-02-6.99926E-04 1.42740E-03
 -1      1981-1.90635E-03-1.98290E-04 1.13650E-03
 -1      1982-9.29485E-02-3.31785E-04 1.42428E-03
 -1      1983-7.39177E-02 7.04583E-04 1.42550E-03
 -1      1984-6.83152E-02-6.97414E-04 1.42543E-03
 -1      1985-2.06964E-02 7.01134E-04 1.42814E-03
 -1      1986-1.50934E-02-7.01247E-04 1.42841E-03
 -1      1987-9.47559E-03 7.20131E-04 1.43691E-03
 -1      1988-6.67859E-03 7.26133E-04 1.44567E-03
 -1      1989-5.42969E-03-1.01645E-05 1.45632E-03
 -1      1990-8.79350E-02 7.09455E-04 1.42480E-03
 -1      1991-5.99118E-02-6.97953E-04 1.42585E-03
 -1      1992-5.71107E-02-7.03370E-04 1.42599E-03
 -1      1993-5.57103E-02 5.37873E-06 1.42624E-03
 -1      1994-7.67186E-02-6.96876E-04 1.42500E-03
 -1      1995-4.59055E-02-7.04387E-04 1.42655E-03
 -1      1996-6.55144E-02 7.04044E-04 1.42592E-03
 -1      1997-8.23211E-02 7.05121E-04 1.42508E-03
 -1      1998-7.67189E-02 7.04762E-04 1.42536E-03
 -1      1999-3.19006E-02-6.99747E-04 1.42726E-03
 -1      2000-3.47020E-02 7.02071E-04 1.42747E-03
 -1      2001-3.75010E-02 7.07107E-04 1.42733E-03
 -1      2002-3.88757E-02-6.28240E-06 1.42708E-03
 -1      2003-2.34973E-02-7.00274E-04 1.42767E-03
 -1      2004-2.62984E-02-7.00104E-04 1.42754E-03
 -1      2005-8.51219E-02-6.96338E-04 1.42458E-03
 -1      2006-4.30906E-02 7.09666E-04 1.42705E-03
 -1      2007-2.34976E-02 7.01338E-04 1.42803E-03
 -1      2008-4.87076E-02 7.02968E-04 1.42677E-03
 -1      2009-1.78949E-02-7.00637E-04 1.42796E-03
 -1      2010-1.22907E-02 7.08715E-04 1.43110E-03
 -1      2011-1.22912E-02-7.08843E-04 1.43077E-03
 -1      2012-1.78952E-02 7.00987E-04 1.42831E-03
 -1      2013-7.11163E-02-6.97235E-04 1.42529E-03
 -1      2014-2.90998E-02 7.01711E-04 1.42776E-03
 -1      2015-6.55141E-02-6.97594E-04 1.42557E-03
 -1      2016-5.15085E-02-7.01023E-04 1.42627E-03
 -1      2017-7.95197E-02-6.96697E-04 1.42486E-03
 -1      2018-7.11166E-02 7.04403E-04 1.42564E-03
 -1      2019-6.27133E-02 7.03865E-04 1.42606E-03
 -1      2020-8.06836E-03-3.09706E-06 1.44752E-03
 -1      2021-6.72235E-03-7.38735E-04 1.44506E-03
 -1      2022-2.00772E-03 2.26012E-04 1.16822E-03
 -1      2023-5.42336E-02 7.16535E-04 1.42649E-03
 -1      2024-5.71873E-02 7.16724E-04 1.42635E-03
 -1      2025-4.16939E-02-4.42259E-06 1.42694E-03
 -1      2026-3.74982E-02-7.14155E-04 1.42697E-03
 -1      2027-8.91753E-02-3.31896E-06 1.42455E-03
 -1      2028-8.65162E-02 3.91619E-06 1.42469E-03
 -1      2029-7.25170E-02 3.67388E-06 1.42539E-03
 -1      2030-6.97159E-02 3.49445E-06 1.42553E-03
 -1      2031-6.69148E-02 3.31502E-06 1.42568E-03
 -1      2032-8.37215E-02 4.39160E-06 1.42483E-03
 -1      2033-7.81193E-02 4.03274E-06 1.42511E-03
 -1      2034-5.01081E-02 2.23845E-06 1.42652E-03
 -1      2035-6.13125E-02 2.95536E-06 1.42596E-03
 -1      2036-4.44999E-02-7.63190E-07 1.42680E-03
 -1      2037-1.92957E-02 2.67114E-07 1.42802E-03
 -1      2038-1.64944E-02 8.72138E-08 1.42822E-03
 -1      2039-1.36918E-02-1.55945E-07 1.42929E-03
 -1      2040-1.08808E-02-3.66365E-07 1.43339E-03
 -1      2041-7.53181E-02 3.85331E-06 1.42525E-03
 -1      2042-2.20969E-02 4.41459E-07 1.42790E-03
 -1      2043-6.41137E-02 3.13545E-06 1.42582E-03
 -1      2044-3.05002E-02 9.82302E-07 1.42751E-03
 -1      2045-2.76991E-02 8.02601E-07 1.42765E-03
 -1      2046-2.48980E-02 6.22879E-07 1.42778E-03
 -1      2047-8.09204E-02 4.21217E-06 1.42497E-03
 -1      2048-3.33013E-02 1.16263E-06 1.42737E-03
 -1      2049-4.73069E-02 2.05902E-06 1.42666E-03
 -1      2050-5.29092E-02 2.41313E-06 1.42638E-03
 -1      2051-5.85114E-02 2.77199E-06 1.42610E-03
 -1      2052-4.02953E-02-7.14844E-04 1.42683E-03
 -1      2053-3.61025E-02 1.34603E-06 1.42723E-03
 -1      2054-9.28641E-02 3.62120E-04 1.42446E-03
 -1      2055-3.88511E-03-6.58277E-04 1.38873E-03
 -1      2056-9.08416E-02-6.87894E-04 1.42430E-03
 -1      2057-3.35799E-03-2.40601E-07 1.38033E-03
 -1      2058-1.81449E-03 5.79153E-04 1.07269E-03
 -1      2059-1.79374E-03-5.75507E-04 1.05103E-03
 -1      2060-9.31394E-02 9.29215E-04 1.42459E-03
 -1      2061-9.31532E-02-9.15192E-04 1.42412E-03
 -1      2062-9.13370E-02 7.29951E-06 1.42445E-03
 -1      2063-9.50206E-04-4.18953E-04 6.88564E-04
 -1      2064-8.99677E-04-2.63685E-04 7.17311E-04
 -1      2065-2.37237E-03-9.19985E-04 1.14668E-03
 -1      2066-8.82473E-04 2.67141E-04 6.84840E-04
 -1      2067-9.64230E-04 4.21619E-04 6.91466E-04
 -1      2068-2.38168E-03 9.22486E-04 1.15383E-03
 -1      2069-9.40395E-02-8.12184E-04 1.42410E-03
 -1      2070-9.40395E-02-1.16933E-03 1.42401E-03
 -1      2071-9.26389E-02-1.16942E-03 1.42408E-03
 -1      2072-9.40328E-02 1.18145E-03 1.42461E-03
 -1      2073-9.40328E-02 8.24305E-04 1.42452E-03
 -1      2074-9.26323E-02 1.18136E-03 1.42468E-03
 -1      2075-9.35780E-04-1.81548E-04 7.40720E-04
 -1      2076-9.65249E-04-5.70548E-05 7.70296E-04
 -1      2077-1.84101E-03-3.86578E-04 1.10549E-03
 -1      2078-9.80791E-04 6.26344E-05 7.59447E-04
 -1      2079-1.03510E-03 1.89570E-04 7.86824E-04
 -1      2080-1.95442E-03 1.53467E-06 1.16096E-03
 -1      2081-1.90861E-03 3.98573E-04 1.13527E-03
 -1      2082-9.39372E-02-1.63338E-04 1.42427E-03
 -1      2083-9.39372E-02-5.20481E-04 1.42418E-03
 -1      2084-9.30509E-02-6.23488E-04 1.42420E-03
 -1      2085-9.38951E-02 5.40758E-04 1.42445E-03
 -1      2086-9.38950E-02 1.83615E-04 1.42436E-03
 -1      2087-9.29063E-02 1.51675E-05 1.42437E-03
 -1      2088-9.30017E-02 6.45667E-04 1.42453E-03
 -1      2089-4.67808E-03-1.05016E-03 1.39804E-03
 -1      2090-3.37147E-03-9.62460E-04 1.30622E-03
 -1      2091-2.83418E-03-6.77623E-04 1.28371E-03
 -1      2092-7.42902E-03-1.09069E-03 1.43866E-03
 -1      2093-6.07170E-03-1.08800E-03 1.43069E-03
 -1      2094-5.29529E-03-7.15500E-04 1.43156E-03
 -1      2095-1.01899E-02-1.07656E-03 1.43385E-03
 -1      2096-8.79875E-03-1.08117E-03 1.43725E-03
 -1      2097-8.09814E-03-7.29197E-04 1.44228E-03
 -1      2098-1.29919E-02-1.06929E-03 1.42993E-03
 -1      2099-1.15924E-02-1.07144E-03 1.43147E-03
 -1      2100-1.08857E-02-7.13071E-04 1.43307E-03
 -1      2101-1.57936E-02-1.06491E-03 1.42823E-03
 -1      2102-1.43929E-02-1.06545E-03 1.42879E-03
 -1      2103-1.36921E-02-7.04646E-04 1.42916E-03
 -1      2104-1.85951E-02-1.06446E-03 1.42784E-03
 -1      2105-1.71943E-02-1.06462E-03 1.42798E-03
 -1      2106-1.64942E-02-7.00816E-04 1.42814E-03
 -1      2107-2.13963E-02-1.06427E-03 1.42768E-03
 -1      2108-1.99957E-02-1.06436E-03 1.42775E-03
 -1      2109-1.92955E-02-7.00519E-04 1.42786E-03
 -1      2110-2.41975E-02-1.06411E-03 1.42755E-03
 -1      2111-2.27969E-02-1.06419E-03 1.42761E-03
 -1      2112-2.20967E-02-7.00355E-04 1.42773E-03
 -1      2113-2.69986E-02-1.06394E-03 1.42741E-03
 -1      2114-2.55980E-02-1.06402E-03 1.42748E-03
 -1      2115-2.48978E-02-7.00190E-04 1.42761E-03
 -1      2116-2.97997E-02-1.06376E-03 1.42727E-03
 -1      2117-2.83991E-02-1.06385E-03 1.42734E-03
 -1      2118-2.76989E-02-7.00015E-04 1.42747E-03
 -1      2119-3.26008E-02-1.06358E-03 1.42713E-03
 -1      2120-3.12003E-02-1.06367E-03 1.42720E-03
 -1      2121-3.05001E-02-6.99837E-04 1.42733E-03
 -1      2122-3.54019E-02-1.06340E-03 1.42699E-03
 -1      2123-3.40014E-02-1.06349E-03 1.42706E-03
 -1      2124-3.33012E-02-6.99657E-04 1.42719E-03
 -1      2125-3.82007E-02-1.07060E-03 1.42685E-03
 -1      2126-3.68002E-02-1.07069E-03 1.42692E-03
 -1      2127-3.61000E-02-7.06861E-04 1.42705E-03
 -1      2128-4.09998E-02-1.07086E-03 1.42671E-03
 -1      2129-3.95993E-02-1.07095E-03 1.42678E-03
 -1      2130-3.88967E-02-7.14500E-04 1.42690E-03
 -1      2131-4.38008E-02-1.06849E-03 1.42657E-03
 -1      2132-4.24002E-02-1.06858E-03 1.42664E-03
 -1      2133-4.16956E-02-7.12563E-04 1.42676E-03
 -1      2134-4.66060E-02-1.06545E-03 1.42643E-03
 -1      2135-4.52055E-02-1.06554E-03 1.42650E-03
 -1      2136-4.45007E-02-7.07335E-04 1.42662E-03
 -1      2137-4.94075E-02-1.06250E-03 1.42629E-03
 -1      2138-4.80070E-02-1.06259E-03 1.42636E-03
 -1      2139-4.73064E-02-7.01529E-04 1.42648E-03
 -1      2140-5.22087E-02-1.06359E-03 1.42615E-03
 -1      2141-5.08081E-02-1.06368E-03 1.42622E-03
 -1      2142-5.01079E-02-6.99847E-04 1.42634E-03
 -1      2143-5.50098E-02-1.06439E-03 1.42600E-03
 -1      2144-5.36092E-02-1.06448E-03 1.42607E-03
 -1      2145-5.29090E-02-7.01912E-04 1.42620E-03
 -1      2146-5.78109E-02-1.06458E-03 1.42586E-03
 -1      2147-5.64103E-02-1.06467E-03 1.42593E-03
 -1      2148-5.57101E-02-7.03086E-04 1.42606E-03
 -1      2149-6.06120E-02-1.06178E-03 1.42572E-03
 -1      2150-5.92115E-02-1.06187E-03 1.42579E-03
 -1      2151-5.85113E-02-7.00661E-04 1.42592E-03
 -1      2152-6.34132E-02-1.06160E-03 1.42558E-03
 -1      2153-6.20126E-02-1.06169E-03 1.42565E-03
 -1      2154-6.13124E-02-6.97863E-04 1.42578E-03
 -1      2155-6.62143E-02-1.06143E-03 1.42544E-03
 -1      2156-6.48137E-02-1.06151E-03 1.42551E-03
 -1      2157-6.41135E-02-6.97683E-04 1.42564E-03
 -1      2158-6.90154E-02-1.06125E-03 1.42530E-03
 -1      2159-6.76148E-02-1.06134E-03 1.42537E-03
 -1      2160-6.69146E-02-6.97504E-04 1.42550E-03
 -1      2161-7.18165E-02-1.06107E-03 1.42516E-03
 -1      2162-7.04160E-02-1.06116E-03 1.42523E-03
 -1      2163-6.97158E-02-6.97325E-04 1.42536E-03
 -1      2164-7.46176E-02-1.06089E-03 1.42502E-03
 -1      2165-7.32171E-02-1.06098E-03 1.42509E-03
 -1      2166-7.25169E-02-6.97145E-04 1.42522E-03
 -1      2167-7.74188E-02-1.06071E-03 1.42488E-03
 -1      2168-7.60182E-02-1.06080E-03 1.42495E-03
 -1      2169-7.53180E-02-6.96966E-04 1.42507E-03
 -1      2170-8.02199E-02-1.06053E-03 1.42474E-03
 -1      2171-7.88193E-02-1.06062E-03 1.42481E-03
 -1      2172-7.81191E-02-6.96786E-04 1.42493E-03
 -1      2173-8.30210E-02-1.06035E-03 1.42460E-03
 -1      2174-8.16204E-02-1.06044E-03 1.42467E-03
 -1      2175-8.09202E-02-6.96607E-04 1.42479E-03
 -1      2176-8.58221E-02-1.06017E-03 1.42445E-03
 -1      2177-8.44216E-02-1.06026E-03 1.42452E-03
 -1      2178-8.37214E-02-6.96427E-04 1.42465E-03
 -1      2179-8.86088E-02-1.06698E-03 1.42431E-03
 -1      2180-8.72082E-02-1.06707E-03 1.42438E-03
 -1      2181-8.65080E-02-7.03243E-04 1.42451E-03
 -1      2182-9.14831E-02-1.05577E-03 1.42417E-03
 -1      2183-9.00825E-02-1.05586E-03 1.42424E-03
 -1      2184-8.93679E-02-6.99021E-04 1.42437E-03
 -1      2185-9.19974E-02-8.01543E-04 1.42421E-03
 -1      2186-3.36755E-03 9.59613E-04 1.30928E-03
 -1      2187-4.67175E-03 1.04664E-03 1.39787E-03
 -1      2188-2.84143E-03 6.75939E-04 1.28893E-03
 -1      2189-6.04622E-03 1.08097E-03 1.43020E-03
 -1      2190-7.40729E-03 1.08420E-03 1.44011E-03
 -1      2191-5.27025E-03 7.09561E-04 1.43573E-03
 -1      2192-8.79646E-03 1.08085E-03 1.43745E-03
 -1      2193-1.01874E-02 1.07663E-03 1.43452E-03
 -1      2194-8.07383E-03 7.24461E-04 1.44250E-03
 -1      2195-1.15925E-02 1.07108E-03 1.43208E-03
 -1      2196-1.29918E-02 1.06910E-03 1.43046E-03
 -1      2197-1.08826E-02 7.13363E-04 1.43343E-03
 -1      2198-1.43932E-02 1.06539E-03 1.42931E-03
 -1      2199-1.57940E-02 1.06501E-03 1.42879E-03
 -1      2200-1.36921E-02 7.04589E-04 1.42961E-03
 -1      2201-1.71948E-02 1.06488E-03 1.42852E-03
 -1      2202-1.85955E-02 1.06489E-03 1.42838E-03
 -1      2203-1.64944E-02 7.00990E-04 1.42850E-03
 -1      2204-1.99961E-02 1.06497E-03 1.42828E-03
 -1      2205-2.13968E-02 1.06506E-03 1.42821E-03
 -1      2206-1.92958E-02 7.01042E-04 1.42821E-03
 -1      2207-2.27973E-02 1.06517E-03 1.42815E-03
 -1      2208-2.41979E-02 1.06526E-03 1.42809E-03
 -1      2209-2.20970E-02 7.01237E-04 1.42809E-03
 -1      2210-2.55985E-02 1.06536E-03 1.42802E-03
 -1      2211-2.69990E-02 1.06545E-03 1.42795E-03
 -1      2212-2.48981E-02 7.01435E-04 1.42796E-03
 -1      2213-2.83996E-02 1.06554E-03 1.42788E-03
 -1      2214-2.98002E-02 1.06563E-03 1.42781E-03
 -1      2215-2.76992E-02 7.01621E-04 1.42782E-03
 -1      2216-3.12007E-02 1.06572E-03 1.42774E-03
 -1      2217-3.26013E-02 1.06581E-03 1.42767E-03
 -1      2218-3.05004E-02 7.01801E-04 1.42769E-03
 -1      2219-3.40018E-02 1.06590E-03 1.42760E-03
 -1      2220-3.54024E-02 1.06599E-03 1.42753E-03
 -1      2221-3.33015E-02 7.01981E-04 1.42754E-03
 -1      2222-3.68019E-02 1.06851E-03 1.42746E-03
 -1      2223-3.82025E-02 1.06860E-03 1.42739E-03
 -1      2224-3.61015E-02 7.04589E-04 1.42740E-03
 -1      2225-3.95977E-02 1.06736E-03 1.42732E-03
 -1      2226-4.09983E-02 1.06745E-03 1.42725E-03
 -1      2227-3.88963E-02 7.05869E-04 1.42726E-03
 -1      2228-4.23978E-02 1.06997E-03 1.42718E-03
 -1      2229-4.37983E-02 1.07006E-03 1.42711E-03
 -1      2230-4.16911E-02 7.07148E-04 1.42712E-03
 -1      2231-4.52063E-02 1.06662E-03 1.42704E-03
 -1      2232-4.66069E-02 1.06671E-03 1.42697E-03
 -1      2233-4.44986E-02 7.06227E-04 1.42698E-03
 -1      2234-4.80074E-02 1.06680E-03 1.42690E-03
 -1      2235-4.94080E-02 1.06689E-03 1.42683E-03
 -1      2236-4.73071E-02 7.02878E-04 1.42684E-03
 -1      2237-5.08086E-02 1.06698E-03 1.42676E-03
 -1      2238-5.22091E-02 1.06707E-03 1.42669E-03
 -1      2239-5.01082E-02 7.03057E-04 1.42670E-03
 -1      2240-5.35715E-02 1.07376E-03 1.42662E-03
 -1      2241-5.49721E-02 1.07385E-03 1.42655E-03
 -1      2242-5.28712E-02 7.09841E-04 1.42656E-03
 -1      2243-5.64490E-02 1.07395E-03 1.42647E-03
 -1      2244-5.78495E-02 1.07404E-03 1.42640E-03
 -1      2245-5.57104E-02 7.16629E-04 1.42642E-03
 -1      2246-5.92119E-02 1.06752E-03 1.42633E-03
 -1      2247-6.06125E-02 1.06761E-03 1.42626E-03
 -1      2248-5.85497E-02 7.10205E-04 1.42628E-03
 -1      2249-6.20130E-02 1.06770E-03 1.42619E-03
 -1      2250-6.34136E-02 1.06779E-03 1.42612E-03
 -1      2251-6.13127E-02 7.03775E-04 1.42613E-03
 -1      2252-6.48142E-02 1.06788E-03 1.42605E-03
 -1      2253-6.62147E-02 1.06797E-03 1.42598E-03
 -1      2254-6.41138E-02 7.03955E-04 1.42599E-03
 -1      2255-6.76153E-02 1.06806E-03 1.42591E-03
 -1      2256-6.90158E-02 1.06814E-03 1.42584E-03
 -1      2257-6.69149E-02 7.04134E-04 1.42585E-03
 -1      2258-7.04164E-02 1.06823E-03 1.42577E-03
 -1      2259-7.18170E-02 1.06832E-03 1.42570E-03
 -1      2260-6.97161E-02 7.04313E-04 1.42571E-03
 -1      2261-7.32175E-02 1.06841E-03 1.42563E-03
 -1      2262-7.46181E-02 1.06850E-03 1.42556E-03
 -1      2263-7.25172E-02 7.04493E-04 1.42557E-03
 -1      2264-7.60186E-02 1.06859E-03 1.42549E-03
 -1      2265-7.74192E-02 1.06868E-03 1.42542E-03
 -1      2266-7.53183E-02 7.04672E-04 1.42543E-03
 -1      2267-7.88198E-02 1.06877E-03 1.42535E-03
 -1      2268-8.02203E-02 1.06886E-03 1.42528E-03
 -1      2269-7.81194E-02 7.04852E-04 1.42529E-03
 -1      2270-8.16209E-02 1.06895E-03 1.42521E-03
 -1      2271-8.30214E-02 1.06904E-03 1.42513E-03
 -1      2272-8.09205E-02 7.05031E-04 1.42515E-03
 -1      2273-8.44220E-02 1.06913E-03 1.42506E-03
 -1      2274-8.58226E-02 1.06922E-03 1.42499E-03
 -1      2275-8.37217E-02 7.05211E-04 1.42501E-03
 -1      2276-8.72290E-02 1.07130E-03 1.42492E-03
 -1      2277-8.86295E-02 1.07139E-03 1.42485E-03
 -1      2278-8.65286E-02 7.07378E-04 1.42487E-03
 -1      2279-9.00897E-02 1.06535E-03 1.42478E-03
 -1      2280-9.14902E-02 1.06544E-03 1.42471E-03
 -1      2281-8.93952E-02 7.03415E-04 1.42472E-03
 -1      2282-9.19974E-02 8.13295E-04 1.42462E-03
 -1      2283-6.20127E-02-3.47409E-04 1.42583E-03
 -1      2284-6.06122E-02-3.47499E-04 1.42590E-03
 -1      2285-6.48139E-02-3.47229E-04 1.42569E-03
 -1      2286-6.34133E-02-3.47319E-04 1.42576E-03
 -1      2287-6.27131E-02 3.04542E-06 1.42589E-03
 -1      2288-7.60183E-02-3.46511E-04 1.42513E-03
 -1      2289-7.46178E-02-3.46601E-04 1.42520E-03
 -1      2290-7.32172E-02-3.46691E-04 1.42527E-03
 -1      2291-7.18167E-02-3.46780E-04 1.42534E-03
 -1      2292-7.39176E-02 3.76360E-06 1.42532E-03
 -1      2293-8.02202E-02 3.54577E-04 1.42509E-03
 -1      2294-8.16207E-02 3.54667E-04 1.42502E-03
 -1      2295-7.74191E-02 3.54397E-04 1.42524E-03
 -1      2296-7.88196E-02 3.54487E-04 1.42517E-03
 -1      2297-7.95198E-02 4.12246E-06 1.42504E-03
 -1      2298-8.72051E-02-3.53116E-04 1.42456E-03
 -1      2299-8.58190E-02-3.46211E-04 1.42464E-03
 -1      2300-8.78457E-02 2.98613E-07 1.42462E-03
 -1      2301-8.85347E-02-3.56733E-04 1.42450E-03
 -1      2302-9.00085E-02-3.45606E-04 1.42442E-03
 -1      2303-5.64105E-02-3.48996E-04 1.42611E-03
 -1      2304-5.50099E-02-3.48711E-04 1.42619E-03
 -1      2305-5.43097E-02 3.89593E-06 1.42631E-03
 -1      2306-5.36094E-02-3.50194E-04 1.42626E-03
 -1      2307-5.22088E-02-3.49305E-04 1.42633E-03
 -1      2308-6.62146E-02 3.53680E-04 1.42580E-03
 -1      2309-6.76151E-02 3.53769E-04 1.42573E-03
 -1      2310-6.90157E-02 3.53859E-04 1.42566E-03
 -1      2311-7.04163E-02 3.53949E-04 1.42559E-03
 -1      2312-6.83153E-02 3.40474E-06 1.42560E-03
 -1      2313-4.80071E-02-3.48306E-04 1.42654E-03
 -1      2314-4.66062E-02-3.51164E-04 1.42661E-03
 -1      2315-5.08083E-02-3.49392E-04 1.42640E-03
 -1      2316-4.94077E-02-3.48216E-04 1.42647E-03
 -1      2317-4.87075E-02 2.14873E-06 1.42659E-03
 -1      2318-1.29909E-02 3.54123E-04 1.43008E-03
 -1      2319-1.43929E-02 3.50743E-04 1.42902E-03
 -1      2320-1.57941E-02 3.50581E-04 1.42849E-03
 -1      2321-1.71948E-02 3.50550E-04 1.42825E-03
 -1      2322-1.50933E-02-5.61208E-09 1.42858E-03
 -1      2323-2.27971E-02-3.49912E-04 1.42779E-03
 -1      2324-2.13965E-02-3.49996E-04 1.42785E-03
 -1      2325-1.99959E-02-3.50075E-04 1.42791E-03
 -1      2326-1.85953E-02-3.50169E-04 1.42797E-03
 -1      2327-2.06963E-02 3.53297E-07 1.42796E-03
 -1      2328-1.15860E-02-3.55604E-04 1.43216E-03
 -1      2329-1.01789E-02-3.59352E-04 1.43531E-03
 -1      2330-7.38531E-03-3.71237E-04 1.44871E-03
 -1      2331-8.77379E-03-3.63860E-04 1.44146E-03
 -1      2332-9.47539E-03-1.65643E-06 1.43926E-03
 -1      2333-3.26011E-02 3.51527E-04 1.42749E-03
 -1      2334-3.40017E-02 3.51617E-04 1.42742E-03
 -1      2335-2.98000E-02 3.51347E-04 1.42763E-03
 -1      2336-3.12006E-02 3.51437E-04 1.42756E-03
 -1      2337-3.19008E-02 1.07248E-06 1.42744E-03
 -1      2338-3.81884E-02 3.50412E-04 1.42721E-03
 -1      2339-3.95836E-02 3.49174E-04 1.42714E-03
 -1      2340-4.02848E-02-5.35251E-06 1.42701E-03
 -1      2341-4.09928E-02 3.50104E-04 1.42707E-03
 -1      2342-4.23923E-02 3.52622E-04 1.42700E-03
 -1      2343-2.41978E-02 3.50981E-04 1.42790E-03
 -1      2344-2.55983E-02 3.51075E-04 1.42784E-03
 -1      2345-2.69989E-02 3.51166E-04 1.42777E-03
 -1      2346-2.83995E-02 3.51257E-04 1.42770E-03
 -1      2347-2.62985E-02 7.12728E-07 1.42772E-03
 -1      2348-4.62749E-03 3.40178E-04 1.43670E-03
 -1      2349-6.04338E-03 3.60848E-04 1.45009E-03
 -1      2350-3.59863E-03 3.17707E-04 1.38420E-03
 -1      2351-4.38342E-03-3.59430E-06 1.43825E-03
 -1      2352-2.67222E-03 1.41117E-04 1.29350E-03
 -1      2353-2.92016E-03 4.40765E-04 1.31319E-03
 -1      2354-6.06123E-02 3.53320E-04 1.42608E-03
 -1      2355-6.20129E-02 3.53410E-04 1.42601E-03
 -1      2356-5.78494E-02 3.59748E-04 1.42622E-03
 -1      2357-5.92118E-02 3.53229E-04 1.42615E-03
 -1      2358-5.99120E-02 2.86368E-06 1.42603E-03
 -1      2359-8.44217E-02-3.45973E-04 1.42471E-03
 -1      2360-8.30211E-02-3.46063E-04 1.42478E-03
 -1      2361-8.16206E-02-3.46152E-04 1.42485E-03
 -1      2362-8.02200E-02-3.46242E-04 1.42492E-03
 -1      2363-8.23209E-02 4.30189E-06 1.42490E-03
 -1      2364-8.85552E-02 3.53068E-04 1.42467E-03
 -1      2365-9.00153E-02 3.47028E-04 1.42460E-03
 -1      2366-9.02561E-02 1.99027E-06 1.42450E-03
 -1      2367-9.10961E-02 3.52337E-04 1.42455E-03
 -1      2368-9.18597E-02 5.29748E-04 1.42455E-03
 -1      2369-9.21005E-02 1.84710E-04 1.42445E-03
 -1      2370-4.37952E-02 3.54451E-04 1.42693E-03
 -1      2371-4.52032E-02 3.51013E-04 1.42686E-03
 -1      2372-4.66067E-02 3.52424E-04 1.42679E-03
 -1      2373-4.80073E-02 3.52513E-04 1.42672E-03
 -1      2374-4.59034E-02 6.47913E-07 1.42673E-03
 -1      2375-8.58192E-02 3.54608E-04 1.42481E-03
 -1      2376-8.72256E-02 3.56685E-04 1.42474E-03
 -1      2377-8.30213E-02 3.54756E-04 1.42495E-03
 -1      2378-8.44219E-02 3.54846E-04 1.42488E-03
 -1      2379-8.51188E-02 4.15391E-06 1.42476E-03
 -1      2380-4.94079E-02 3.52603E-04 1.42664E-03
 -1      2381-5.08084E-02 3.52693E-04 1.42657E-03
 -1      2382-5.22090E-02 3.52780E-04 1.42650E-03
 -1      2383-5.35714E-02 3.59474E-04 1.42644E-03
 -1      2384-5.15086E-02 2.32579E-06 1.42645E-03
 -1      2385-3.40015E-02-3.49202E-04 1.42724E-03
 -1      2386-3.26010E-02-3.49292E-04 1.42731E-03
 -1      2387-3.68003E-02-3.56405E-04 1.42710E-03
 -1      2388-3.54021E-02-3.49111E-04 1.42717E-03
 -1      2389-3.47019E-02 1.25434E-06 1.42730E-03
 -1      2390-4.52027E-02-3.52575E-04 1.42668E-03
 -1      2391-4.37980E-02-3.55523E-04 1.42675E-03
 -1      2392-4.30969E-02-2.59289E-06 1.42687E-03
 -1      2393-4.23950E-02-3.57353E-04 1.42682E-03
 -1      2394-4.09946E-02-3.59633E-04 1.42689E-03
 -1      2395-3.12004E-02-3.49382E-04 1.42738E-03
 -1      2396-2.97999E-02-3.49472E-04 1.42745E-03
 -1      2397-2.83993E-02-3.49562E-04 1.42752E-03
 -1      2398-2.69987E-02-3.49651E-04 1.42759E-03
 -1      2399-2.90997E-02 8.92497E-07 1.42758E-03
 -1      2400-2.62276E-03-1.26846E-04 1.29313E-03
 -1      2401-3.60418E-03-3.17444E-04 1.38148E-03
 -1      2402-2.87427E-03-4.29267E-04 1.30414E-03
 -1      2403-9.21427E-02-1.62243E-04 1.42436E-03
 -1      2404-9.18951E-02-5.09840E-04 1.42429E-03
 -1      2405-9.10893E-02-3.40297E-04 1.42437E-03
 -1      2406-7.46179E-02 3.54218E-04 1.42538E-03
 -1      2407-7.60185E-02 3.54308E-04 1.42531E-03
 -1      2408-7.18168E-02 3.54039E-04 1.42552E-03
 -1      2409-7.32174E-02 3.54128E-04 1.42545E-03
 -1      2410-7.04161E-02-3.46870E-04 1.42541E-03
 -1      2411-6.90155E-02-3.46960E-04 1.42548E-03
 -1      2412-6.76150E-02-3.47050E-04 1.42555E-03
 -1      2413-6.62144E-02-3.47139E-04 1.42562E-03
 -1      2414-2.13967E-02 3.50789E-04 1.42802E-03
 -1      2415-2.27972E-02 3.50886E-04 1.42797E-03
 -1      2416-1.85955E-02 3.50605E-04 1.42814E-03
 -1      2417-1.99961E-02 3.50691E-04 1.42808E-03
 -1      2418-1.71947E-02-3.50294E-04 1.42808E-03
 -1      2419-1.57939E-02-3.50503E-04 1.42831E-03
 -1      2420-1.43927E-02-3.50854E-04 1.42881E-03
 -1      2421-1.29912E-02-3.54297E-04 1.42987E-03
 -1      2422-7.36303E-03 3.62255E-04 1.44918E-03
 -1      2423-8.77088E-03 3.61206E-04 1.44180E-03
 -1      2424-1.01760E-02 3.59408E-04 1.43543E-03
 -1      2425-1.15857E-02 3.55127E-04 1.43232E-03
 -1      2426-6.74506E-03-6.68217E-06 1.45395E-03
 -1      2427-6.06617E-03-3.77203E-04 1.44984E-03
 -1      2428-4.63387E-03-3.49737E-04 1.43492E-03
 -1      2429-5.92116E-02-3.47590E-04 1.42597E-03
 -1      2430-5.78111E-02-3.50299E-04 1.42604E-03
 -1      2431-5.71109E-02 4.07536E-06 1.42617E-03
 -1      2432-5.64488E-02 3.61051E-04 1.42629E-03
 -1      2433-5.49720E-02 3.60957E-04 1.42637E-03
 -1      2434-7.88195E-02-3.46332E-04 1.42499E-03
 -1      2435-7.74189E-02-3.46422E-04 1.42506E-03
 -1      2436-7.67187E-02 3.94303E-06 1.42518E-03
 -1      2437-6.34135E-02 3.53500E-04 1.42594E-03
 -1      2438-6.48140E-02 3.53590E-04 1.42587E-03
 -1      2439-6.55142E-02 3.22525E-06 1.42575E-03
 -1      2440-3.54022E-02 3.51708E-04 1.42735E-03
 -1      2441-3.68018E-02 3.54226E-04 1.42728E-03
 -1      2442-3.74891E-02-2.46817E-06 1.42715E-03
 -1      2443-3.95855E-02-3.60563E-04 1.42696E-03
 -1      2444-3.81869E-02-3.60219E-04 1.42703E-03
 -1      2445-2.55982E-02-3.49739E-04 1.42766E-03
 -1      2446-2.41976E-02-3.49826E-04 1.42773E-03
 -1      2447-2.34974E-02 5.31704E-07 1.42785E-03
 -1      2448-1.78951E-02 1.68578E-07 1.42808E-03
 -1      2449-1.22866E-02-2.23034E-07 1.43084E-03
 -1      2450-7.11165E-02 3.58417E-06 1.42546E-03
 -1      2451-4.08892E-03 5.23983E-05 5.30129E-05
 -1      2452-9.03645E-02 5.76182E-05 4.82124E-05
 -1      2453-8.51191E-02 4.84295E-06-3.81202E-06
 -1      2454-9.45809E-03 4.13959E-08-1.24042E-06
 -1      2455-2.34977E-02 8.20121E-07-7.86442E-07
 -1      2456-7.67189E-02 4.30487E-06-3.38935E-06
 -1      2457-7.11167E-02 3.94601E-06-3.10746E-06
 -1      2458-6.55145E-02 3.58715E-06-2.82558E-06
 -1      2459-5.99122E-02 3.22829E-06-2.54369E-06
 -1      2460-5.15089E-02 2.69000E-06-2.12086E-06
 -1      2461-3.47021E-02 1.61343E-06-1.27520E-06
 -1      2462-1.78958E-02 5.25468E-07-4.17475E-07
 -1      2463-4.59066E-02 2.59319E-06-1.57680E-06
 -1      2464-2.90999E-02 7.88733E-07-5.27693E-07
 -1      2465-4.02850E-02 1.97105E-06-1.55611E-06
 -1      2466-5.57105E-02-1.55262E-04 1.56119E-04
 -1      2467-8.09189E-02-1.54075E-04 1.54968E-04
 -1      2468-1.36870E-02-1.56182E-04 1.56400E-04
 -1      2469-9.19344E-02-5.26298E-04-5.46421E-04
 -1      2470-2.52532E-03-4.61643E-04-4.62156E-04
 -1      2471-9.20117E-02-5.56580E-04 5.57421E-04
 -1      2472-2.45957E-03 4.55070E-04-4.50989E-04
 -1      2473-2.62997E-02 4.27634E-04-4.33785E-04
 -1      2474-2.06964E-02-4.27325E-04-4.30528E-04
 -1      2475-7.39180E-02 4.32948E-04-4.31854E-04
 -1      2476-7.39177E-02-4.24697E-04 4.25357E-04
 -1      2477-6.27134E-02 4.32013E-04 4.26138E-04
 -1      2478-6.83156E-02 4.32372E-04 4.25856E-04
 -1      2479-6.83156E-02-4.24839E-04-4.31789E-04
 -1      2480-6.27133E-02-4.25198E-04-4.31507E-04
 -1      2481-2.06967E-02 4.29289E-04 4.28217E-04
 -1      2482-4.87073E-02-4.26042E-04-4.30750E-04
 -1      2483-4.30960E-02 4.29729E-04-4.32110E-04
 -1      2484-3.74934E-02-4.30093E-04 4.30251E-04
 -1      2485-4.87082E-02 4.31169E-04 4.26895E-04
 -1      2486-3.19010E-02 4.30039E-04 4.27688E-04
 -1      2487-2.62978E-02-4.27840E-04 4.27845E-04
 -1      2488-4.30956E-02-4.26989E-04 4.27225E-04
 -1      2489-3.19010E-02-4.26331E-04-4.31667E-04
 -1      2490-3.74937E-02 4.31561E-04-4.33455E-04
 -1      2491-2.49657E-03-4.60912E-04 4.69363E-04
 -1      2492-9.20262E-02 5.59229E-04-5.57823E-04
 -1      2493-8.25681E-02 4.63069E-04-4.61841E-04
 -1      2494-1.53484E-02 4.60472E-04-4.58670E-04
 -1      2495-6.71736E-03-4.48106E-04-4.54735E-04
 -1      2496-8.78449E-02-4.31914E-04-4.44524E-04
 -1      2497-2.41549E-03 4.69253E-04 4.71175E-04
 -1      2498-7.92379E-02 4.66722E-04-4.65538E-04
 -1      2499-1.20106E-02 4.64054E-04-4.63939E-04
 -1      2500-9.20893E-02 5.93269E-04 5.73916E-04
 -1      2501-5.40603E-02 4.60426E-04-4.62130E-04
 -1      2502-5.73691E-02 4.81783E-04-4.22050E-04
 -1      2503-6.92728E-03 4.73237E-04 4.75904E-04
 -1      2504-8.77161E-02 5.52382E-04-2.67155E-04
 -1      2505-8.77167E-02-2.64037E-04 5.42967E-04
 -1      2506-5.77440E-02-4.99960E-04-5.07180E-04
 -1      2507-5.36769E-02-5.00299E-04-5.06846E-04
 -1      2508-8.29525E-02-4.98919E-04-5.07582E-04
 -1      2509-8.29525E-02 5.08328E-04 5.00176E-04
 -1      2510-7.88855E-02 5.08154E-04 5.00467E-04
 -1      2511-7.88855E-02-4.99266E-04-5.07463E-04
 -1      2512-1.57273E-02-5.04189E-04-5.03777E-04
 -1      2513-1.16494E-02-5.06636E-04-5.07554E-04
 -1      2514-3.68376E-02 5.11264E-04 5.05807E-04
 -1      2515-6.20416E-02-5.04978E-04 5.05434E-04
 -1      2516-7.45893E-02 5.12254E-04 5.05061E-04
 -1      2517-7.45893E-02-5.03917E-04-5.11625E-04
 -1      2518-6.89869E-02-5.04533E-04 5.05085E-04
 -1      2519-6.89873E-02 5.12152E-04-5.11086E-04
 -1      2520-6.33850E-02 5.11794E-04-5.10804E-04
 -1      2521-2.13680E-02-5.07577E-04 5.07474E-04
 -1      2522-4.93795E-02 5.10905E-04-5.10108E-04
 -1      2523-2.56271E-02 5.09099E-04 5.07505E-04
 -1      2524-3.25723E-02-5.06866E-04 5.06917E-04
 -1      2525-2.13695E-02 5.09443E-04-5.08365E-04
 -1      2526-4.93791E-02-5.05798E-04 5.06080E-04
 -1      2527-3.68359E-02-5.07001E-04-5.08055E-04
 -1      2528-2.56159E-02-5.08031E-04-5.11335E-04
 -1      2529-3.25745E-02 5.10389E-04-5.08750E-04
 -1      2530-4.37778E-02-5.07475E-04-5.09816E-04
 -1      2531-4.37696E-02 5.11412E-04 5.05970E-04
 -1      2532-5.36810E-02 5.10100E-04 4.92503E-04
 -1      2533-1.57276E-02 5.03842E-04 5.03743E-04
 -1      2534-1.16436E-02 5.05893E-04 5.08068E-04
 -1      2535-7.27501E-03-5.07956E-04 5.18126E-04
 -1      2536-7.27880E-03 5.20962E-04-5.01338E-04
 -1      2537-5.82133E-02-5.55914E-04 5.57332E-04
 -1      2538-5.34191E-02-6.42878E-04 6.18943E-04
 -1      2539-8.34216E-02-5.54657E-04 5.55381E-04
 -1      2540-7.84159E-02-5.55145E-04 5.55800E-04
 -1      2541-5.78966E-02 5.25892E-04 5.16914E-04
 -1      2542-1.11835E-02-5.58936E-04 5.64602E-04
 -1      2543-1.61870E-02-5.55000E-04 5.59133E-04
 -1      2544-8.64846E-02 5.99121E-04 5.90611E-04
 -1      2545-2.97281E-02 5.94657E-04-5.97295E-04
 -1      2546-7.17459E-02 5.98364E-04 5.91539E-04
 -1      2547-6.48850E-02-5.91132E-04 5.91583E-04
 -1      2548-7.17459E-02-5.90391E-04-5.97818E-04
 -1      2549-6.05416E-02 5.97947E-04-5.96953E-04
 -1      2550-1.85236E-02 5.94238E-04-5.97185E-04
 -1      2551-2.84620E-02-5.93345E-04-5.95268E-04
 -1      2552-2.84706E-02 5.95591E-04 5.93716E-04
 -1      2553-2.97298E-02-5.93644E-04 5.93612E-04
 -1      2554-4.09230E-02 5.97551E-04 5.92418E-04
 -1      2555-4.09316E-02-5.92948E-04-5.94871E-04
 -1      2556-4.65347E-02-5.92610E-04 5.92810E-04
 -1      2557-4.65361E-02 5.97050E-04-5.96248E-04
 -1      2558-8.92897E-02 5.02951E-04 7.02158E-04
 -1      2559-6.61862E-02 6.10192E-04-6.09114E-04
 -1      2560-6.56220E-02-5.90783E-04-5.97509E-04
 -1      2561-6.54069E-02 5.97957E-04 5.91858E-04
 -1      2562-4.01936E-02-5.93588E-04 5.93700E-04
 -1      2563-4.02993E-02 3.60380E-04-7.15752E-04
 -1      2564-4.02885E-02 7.16346E-04-3.52886E-04
 -1      2565-4.03028E-02 1.07475E-03-1.06708E-03
 -1      2566-3.89036E-02 5.75175E-04-9.31701E-04
 -1      2567-3.88929E-02 9.31141E-04-5.68835E-04
 -1      2568-3.88894E-02 2.16766E-04-2.17506E-04
 -1      2569-4.16940E-02 9.30225E-04-5.68163E-04
 -1      2570-4.17047E-02 5.74259E-04-9.31029E-04
 -1      2571-4.16905E-02 2.15850E-04-2.16833E-04
 -1      2572-9.16356E-02-9.74814E-04-2.76664E-04
 -1      2573-9.05548E-02-9.74884E-04-2.71370E-04
 -1      2574-9.16743E-02-9.89955E-04 2.75257E-04
 -1      2575-9.05935E-02-9.90025E-04 2.80552E-04
 -1      2576-9.19730E-02-5.41439E-04 5.49989E-06
 -1      2577-9.05551E-02-2.64446E-04-9.89505E-04
 -1      2578-9.16359E-02-2.59137E-04-9.89559E-04
 -1      2579-9.16818E-02 2.83626E-04-9.95259E-04
 -1      2580-9.19803E-02 1.64658E-05-5.52122E-04
 -1      2581-9.06010E-02 2.78317E-04-9.95206E-04
 -1      2582-2.91272E-03-2.33512E-04-9.13875E-04
 -1      2583-3.27403E-03-2.35721E-04-2.35780E-04
 -1      2584-3.64637E-03 2.54286E-05-6.70896E-04
 -1      2585-2.87982E-03 2.31256E-04-9.12495E-04
 -1      2586-3.24091E-03 2.82549E-04-2.29478E-04
 -1      2587-2.46010E-03 4.56824E-06-4.55393E-04
 -1      2588-3.65066E-03-6.71828E-04 2.60609E-05
 -1      2589-2.91720E-03-9.16389E-04-2.32851E-04
 -1      2590-2.90171E-03-9.16682E-04 2.36777E-04
 -1      2591-2.47680E-03-4.60071E-04 5.06021E-06
 -1      2592-3.26232E-03-2.34377E-04 2.89538E-04
 -1      2593-7.67194E-02 1.06927E-03-1.06781E-03
 -1      2594-7.53187E-02 9.33001E-04-5.67850E-04
 -1      2595-7.53187E-02 5.69217E-04-9.31819E-04
 -1      2596-7.79786E-02 5.86104E-04-9.48660E-04
 -1      2597-7.65779E-02 4.49835E-04-4.48696E-04
 -1      2598-7.79786E-02 9.49888E-04-5.84692E-04
 -1      2599-7.53185E-02 2.18626E-04-2.17622E-04
 -1      2600-7.67191E-02 7.18679E-04-3.53618E-04
 -1      2601-7.79784E-02 2.35513E-04-2.34463E-04
 -1      2602-7.67191E-02 3.54895E-04-7.17586E-04
 -1      2603-4.75111E-03-6.99255E-04 2.40999E-05
 -1      2604-3.97661E-03-9.83002E-04 2.63661E-04
 -1      2605-4.73778E-03 2.23432E-05-6.98596E-04
 -1      2606-3.94586E-03 2.57680E-04-9.79553E-04
 -1      2607-8.38454E-02 9.48330E-04-5.83055E-04
 -1      2608-8.38454E-02 5.84546E-04-9.47023E-04
 -1      2609-8.51227E-02 1.06981E-03-1.06824E-03
 -1      2610-8.64194E-02 9.92987E-04-4.85712E-04
 -1      2611-8.64194E-02 6.29203E-04-8.49680E-04
 -1      2612-8.51421E-02 5.07725E-04-3.64498E-04
 -1      2613-8.38436E-02 2.33956E-04-2.32826E-04
 -1      2614-8.51209E-02 3.55433E-04-7.18009E-04
 -1      2615-8.64176E-02 2.78613E-04-1.35483E-04
 -1      2616-2.03318E-02-9.67723E-04 2.53305E-04
 -1      2617-1.96318E-02-2.53504E-04 2.53508E-04
 -1      2618-1.85957E-02-7.13642E-04-6.41165E-07
 -1      2619-1.77413E-02-9.91357E-04 2.79085E-04
 -1      2620-1.70414E-02-2.77195E-04 2.79315E-04
 -1      2621-1.87774E-02-5.31201E-04 5.33214E-04
 -1      2622-2.03319E-02-2.53655E-04 9.67735E-04
 -1      2623-1.85957E-02 3.96887E-07 7.13762E-04
 -1      2624-1.77413E-02-2.77319E-04 9.93488E-04
 -1      2625-1.96315E-02-9.67850E-04 6.03721E-04
 -1      2626-1.70408E-02-9.91563E-04 6.29568E-04
 -1      2627-1.96315E-02-6.04083E-04 9.67675E-04
 -1      2628-1.70409E-02-6.27811E-04 9.93505E-04
 -1      2629-3.99253E-03-9.83427E-04-2.65871E-04
 -1      2630-3.97924E-03-2.67386E-04-9.81560E-04
 -1      2631-7.74194E-02 7.18635E-04-3.24366E-06
 -1      2632-7.60188E-02 7.18546E-04-3.17319E-06
 -1      2633-7.74193E-02 4.53065E-06-7.17710E-04
 -1      2634-7.60188E-02 4.44094E-06-7.17640E-04
 -1      2635-8.58179E-02 4.74143E-06-7.18133E-04
 -1      2636-8.71164E-02 2.78511E-04-8.49804E-04
 -1      2637-8.44205E-02 4.97912E-06-7.18063E-04
 -1      2638-2.34979E-02 3.58133E-04-7.14933E-04
 -1      2639-2.41974E-02 1.69208E-06-7.15060E-04
 -1      2640-2.48989E-02 5.71542E-04-9.31439E-04
 -1      2641-2.55984E-02 2.15098E-04-9.31566E-04
 -1      2642-2.48987E-02 2.14226E-04-2.17285E-04
 -1      2643-2.31333E-02 2.56008E-04-9.68854E-04
 -1      2644-2.24337E-02 6.12446E-04-9.68725E-04
 -1      2645-2.24336E-02 2.55134E-04-2.54578E-04
 -1      2646-1.85959E-02 2.15875E-06-7.14689E-04
 -1      2647-1.78956E-02-3.52293E-04-7.14760E-04
 -1      2648-1.99963E-02-2.11770E-04-9.29755E-04
 -1      2649-1.92960E-02-5.66206E-04-9.29804E-04
 -1      2650-1.92961E-02-2.13383E-04-2.15460E-04
 -1      2651-2.34977E-02-3.52034E-04-7.15110E-04
 -1      2652-2.27967E-02 2.26927E-06-7.14982E-04
 -1      2653-2.20971E-02-5.66106E-04-9.29979E-04
 -1      2654-2.13960E-02-2.11802E-04-9.29846E-04
 -1      2655-2.20971E-02-2.13255E-04-2.15659E-04
 -1      2656-4.10090E-02 6.09900E-06-7.15877E-04
 -1      2657-3.95999E-02 5.16910E-06-7.15807E-04
 -1      2658-2.38346E-02 4.68543E-04-4.71080E-04
 -1      2659-3.60979E-02 2.16587E-04-2.17365E-04
 -1      2660-3.60981E-02 5.73542E-04-9.31560E-04
 -1      2661-3.47023E-02 3.58568E-04-7.15471E-04
 -1      2662-3.36383E-02 2.56001E-04-2.55012E-04
 -1      2663-3.36385E-02 6.12956E-04-9.69208E-04
 -1      2664-3.50341E-02 4.70975E-04-4.71102E-04
 -1      2665-2.38558E-02-2.52153E-04-9.70263E-04
 -1      2666-2.45568E-02-6.06462E-04-9.70392E-04
 -1      2667-2.45568E-02-2.53603E-04-2.56058E-04
 -1      2668-3.54054E-02 3.75989E-06-7.15596E-04
 -1      2669-3.43416E-02 2.58148E-04-9.69333E-04
 -1      2670-5.15089E-02-3.48805E-04-7.16496E-04
 -1      2671-5.08087E-02 2.82607E-06-7.16371E-04
 -1      2672-5.01081E-02-5.63171E-04-9.30810E-04
 -1      2673-4.94079E-02-2.11540E-04-9.30686E-04
 -1      2674-5.01081E-02-2.11676E-04-2.16435E-04
 -1      2675-1.78954E-02-7.13609E-04-3.52262E-04
 -1      2676-1.92958E-02-9.27539E-04-5.67291E-04
 -1      2677-1.99961E-02-9.27588E-04-2.15686E-04
 -1      2678-3.68012E-02 2.18734E-04-9.31686E-04
 -1      2679-2.31562E-02-4.67678E-04-4.70930E-04
 -1      2680-2.27975E-02 7.15081E-04-5.34194E-07
 -1      2681-2.34978E-02 7.15041E-04 3.49832E-04
 -1      2682-2.13971E-02 9.29309E-04 2.13966E-04
 -1      2683-2.20973E-02 9.29273E-04 5.64333E-04
 -1      2684-2.20972E-02 2.15056E-04 2.13718E-04
 -1      2685-2.34976E-02 3.51077E-04 7.13611E-04
 -1      2686-2.27973E-02 6.30925E-07 7.13555E-04
 -1      2687-2.20971E-02 5.65311E-04 9.28112E-04
 -1      2688-2.13968E-02 2.14863E-04 9.28049E-04
 -1      2689-2.41981E-02 7.15179E-04-6.05066E-07
 -1      2690-2.34979E-02 7.15221E-04-3.50972E-04
 -1      2691-2.48989E-02 9.28634E-04-5.67473E-04
 -1      2692-2.55991E-02 9.28593E-04-2.17103E-04
 -1      2693-7.11169E-02 3.54536E-04-7.17304E-04
 -1      2694-7.18171E-02 4.17179E-06-7.17428E-04
 -1      2695-7.32177E-02 2.18673E-04-9.31802E-04
 -1      2696-7.25173E-02 2.18447E-04-2.17481E-04
 -1      2697-7.25175E-02 5.69037E-04-9.31678E-04
 -1      2698-7.11165E-02-3.46644E-04 7.11089E-04
 -1      2699-7.18169E-02 3.80995E-06 7.11143E-04
 -1      2700-7.25170E-02-5.60966E-04 9.25322E-04
 -1      2701-7.32173E-02-2.10512E-04 9.25375E-04
 -1      2702-7.25172E-02-2.10376E-04 2.11125E-04
 -1      2703-7.46183E-02 9.32867E-04-2.17405E-04
 -1      2704-7.18171E-02 7.18277E-04-2.96178E-06
 -1      2705-7.11169E-02 7.18320E-04-3.53336E-04
 -1      2706-7.32178E-02 9.32778E-04-2.17335E-04
 -1      2707-7.25176E-02 9.32821E-04-5.67709E-04
 -1      2708-7.46183E-02 2.18762E-04-9.31872E-04
 -1      2709-7.18168E-02-7.10295E-04-3.32362E-06
 -1      2710-7.11165E-02-7.10428E-04 3.47121E-04
 -1      2711-7.25170E-02-9.24750E-04 5.61353E-04
 -1      2712-7.32173E-02-9.24616E-04 2.10909E-04
 -1      2713-5.99121E-02-7.10969E-04-3.53134E-04
 -1      2714-6.06123E-02-7.11013E-04-2.75985E-06
 -1      2715-6.20129E-02-9.25225E-04-2.17242E-04
 -1      2716-6.13128E-02-2.10985E-04-2.17025E-04
 -1      2717-6.13127E-02-9.25182E-04-5.67616E-04
 -1      2718-6.06126E-02 3.45367E-06-7.16865E-04
 -1      2719-5.99123E-02-3.47000E-04-7.16918E-04
 -1      2720-6.20132E-02-2.10759E-04-9.31346E-04
 -1      2721-6.13128E-02-5.61213E-04-9.31400E-04
 -1      2722-1.78955E-02 3.50749E-04 7.13900E-04
 -1      2723-1.92960E-02 5.65107E-04 9.28220E-04
 -1      2724-1.92962E-02 2.14894E-04 2.13883E-04
 -1      2725-1.99963E-02 2.14769E-04 9.28098E-04
 -1      2726-1.78956E-02 7.14690E-04 3.50145E-04
 -1      2727-1.85960E-02 7.14806E-04-2.88411E-07
 -1      2728-1.92962E-02 9.29061E-04 5.64451E-04
 -1      2729-1.99965E-02 9.29199E-04 2.14033E-04
 -1      2730-2.27972E-02-7.13455E-04-8.93290E-07
 -1      2731-2.34976E-02-7.13325E-04-3.51330E-04
 -1      2732-2.13966E-02-9.27521E-04-2.15761E-04
 -1      2733-2.20969E-02-9.27396E-04-5.66199E-04
 -1      2734-4.24145E-02 2.19978E-04-9.31154E-04
 -1      2735-5.08084E-02-7.11641E-04-2.26655E-06
 -1      2736-5.15088E-02-7.11507E-04-3.52711E-04
 -1      2737-4.94076E-02-9.26007E-04-2.16581E-04
 -1      2738-5.01080E-02-9.25873E-04-5.67026E-04
 -1      2739-5.08087E-02 7.16931E-04-1.90470E-06
 -1      2740-5.15090E-02 7.16887E-04 3.48470E-04
 -1      2741-4.94084E-02 9.31170E-04 2.12603E-04
 -1      2742-5.01086E-02 9.31126E-04 5.62978E-04
 -1      2743-5.01085E-02 2.16929E-04 2.12387E-04
 -1      2744-5.15088E-02 3.52919E-04 7.12254E-04
 -1      2745-5.08085E-02 2.46423E-06 7.12200E-04
 -1      2746-4.94081E-02 2.16704E-04 9.26708E-04
 -1      2747-5.01085E-02 5.67158E-04 9.26762E-04
 -1      2748-2.34975E-02-3.49726E-04 7.13436E-04
 -1      2749-2.41978E-02 7.20578E-07 7.13491E-04
 -1      2750-2.48975E-02-5.64059E-04 9.27759E-04
 -1      2751-2.55979E-02-2.13608E-04 9.27815E-04
 -1      2752-2.48977E-02-2.13508E-04 2.13528E-04
 -1      2753-3.40020E-02 7.15854E-04-1.05947E-06
 -1      2754-3.47022E-02 7.15810E-04 3.49315E-04
 -1      2755-3.26015E-02 9.30067E-04 2.13422E-04
 -1      2756-3.33017E-02 9.30023E-04 5.63797E-04
 -1      2757-3.33016E-02 2.15826E-04 2.13207E-04
 -1      2758-3.47021E-02 3.51842E-04 7.13099E-04
 -1      2759-3.40017E-02 1.38802E-06 7.13046E-04
 -1      2760-3.33015E-02 5.66055E-04 9.27581E-04
 -1      2761-3.26012E-02 2.15601E-04 9.27528E-04
 -1      2762-2.41978E-02-7.13373E-04-9.63838E-07
 -1      2763-2.34974E-02-7.13505E-04 3.49473E-04
 -1      2764-2.55979E-02-9.27710E-04 2.13351E-04
 -1      2765-2.48975E-02-9.27842E-04 5.63792E-04
 -1      2766-3.40017E-02-7.12717E-04-1.42126E-06
 -1      2767-3.47020E-02-7.12584E-04-3.51866E-04
 -1      2768-3.26011E-02-9.26690E-04-2.16617E-04
 -1      2769-3.33015E-02-9.26556E-04-5.67062E-04
 -1      2770-3.33016E-02-2.12359E-04-2.16471E-04
 -1      2771-4.66070E-02 2.68755E-06-7.16029E-04
 -1      2772-4.59067E-02-3.47766E-04-7.16082E-04
 -1      2773-4.73070E-02-5.62084E-04-9.30669E-04
 -1      2774-4.73069E-02-2.11724E-04-2.16163E-04
 -1      2775-4.80073E-02-2.11630E-04-9.30615E-04
 -1      2776-3.82043E-02 2.19964E-04-9.31756E-04
 -1      2777-3.54023E-02-7.12627E-04-1.49372E-06
 -1      2778-3.47019E-02-7.12761E-04 3.48953E-04
 -1      2779-3.60976E-02-9.28615E-04 5.64717E-04
 -1      2780-3.60978E-02-2.14240E-04 2.14488E-04
 -1      2781-3.67979E-02-9.28481E-04 2.14270E-04
 -1      2782-3.47019E-02-3.48977E-04 7.12922E-04
 -1      2783-3.54023E-02 1.47972E-06 7.12975E-04
 -1      2784-3.67979E-02-2.14374E-04 9.28739E-04
 -1      2785-3.60976E-02-5.64830E-04 9.28685E-04
 -1      2786-1.68113E-02-6.04655E-04-9.66429E-04
 -1      2787-1.75117E-02-2.50137E-04-9.66300E-04
 -1      2788-1.68116E-02-2.51775E-04-2.52040E-04
 -1      2789-3.54026E-02 7.15944E-04-1.13190E-06
 -1      2790-3.47023E-02 7.15988E-04-3.51504E-04
 -1      2791-3.67984E-02 9.30918E-04-2.17222E-04
 -1      2792-3.60981E-02 9.30962E-04-5.67594E-04
 -1      2793-4.59063E-02 7.16658E-04 3.51651E-04
 -1      2794-4.66071E-02 7.16793E-04-1.56220E-06
 -1      2795-4.73071E-02 9.30946E-04 5.65887E-04
 -1      2796-4.80078E-02 9.31080E-04 2.12674E-04
 -1      2797-4.73074E-02 2.16881E-04 2.12659E-04
 -1      2798-3.95806E-02 7.16211E-04 2.56091E-06
 -1      2799-4.09897E-02 7.16301E-04 1.65038E-06
 -1      2800-9.47223E-03-7.24391E-04-3.58294E-04
 -1      2801-8.77085E-03-7.27312E-04-9.31582E-07
 -1      2802-9.86614E-03-9.75904E-04-2.56339E-04
 -1      2803-1.05580E-02-2.54984E-04-2.56055E-04
 -1      2804-1.05638E-02-9.72273E-04-6.09844E-04
 -1      2805-2.45567E-02-9.67759E-04-6.06607E-04
 -1      2806-2.38564E-02-9.67888E-04-2.56164E-04
 -1      2807-2.24326E-02-6.03925E-04 9.67568E-04
 -1      2808-2.24328E-02-2.53379E-04 2.53345E-04
 -1      2809-2.31330E-02-2.53480E-04 9.67624E-04
 -1      2810-8.51207E-02-3.45386E-04-7.18187E-04
 -1      2811-8.40374E-02-5.97267E-04-9.70071E-04
 -1      2812-8.47346E-02-2.47140E-04-9.70018E-04
 -1      2813-8.40358E-02-2.47038E-04-2.55697E-04
 -1      2814-2.38623E-02 9.69227E-04 2.53608E-04
 -1      2815-2.45624E-02 2.54957E-04 2.53356E-04
 -1      2816-2.45625E-02 9.69188E-04 6.03981E-04
 -1      2817-2.45623E-02 6.05219E-04 9.67766E-04
 -1      2818-2.38620E-02 2.54767E-04 9.67707E-04
 -1      2819-2.31340E-02 9.69495E-04-2.54399E-04
 -1      2820-2.24338E-02 9.69535E-04-6.04763E-04
 -1      2821-7.07524E-02 2.58275E-04-9.71418E-04
 -1      2822-7.00522E-02 6.08640E-04-9.71293E-04
 -1      2823-7.00520E-02 2.58049E-04-2.57097E-04
 -1      2824-7.07520E-02-2.50430E-04 9.65239E-04
 -1      2825-7.00516E-02-6.00884E-04 9.65186E-04
 -1      2826-7.00518E-02-2.50294E-04 2.50989E-04
 -1      2827-7.00522E-02 9.72424E-04-6.07325E-04
 -1      2828-7.07524E-02 9.72380E-04-2.56951E-04
 -1      2829-7.07519E-02-9.64534E-04 2.50773E-04
 -1      2830-7.00516E-02-9.64668E-04 6.01217E-04
 -1      2831-2.24326E-02-9.67705E-04 6.03604E-04
 -1      2832-2.31329E-02-9.67574E-04 2.53169E-04
 -1      2833-3.43374E-02-9.66867E-04 2.52603E-04
 -1      2834-3.36372E-02-2.52626E-04 2.52821E-04
 -1      2835-3.36370E-02-9.67001E-04 6.03050E-04
 -1      2836-3.43374E-02-2.52760E-04 9.67072E-04
 -1      2837-3.36370E-02-6.03217E-04 9.67018E-04
 -1      2838-3.36385E-02 9.70376E-04-6.05241E-04
 -1      2839-3.43388E-02 9.70332E-04-2.54869E-04
 -1      2840-5.18927E-02-2.48669E-04-9.68734E-04
 -1      2841-5.25929E-02-6.00299E-04-9.68858E-04
 -1      2842-5.25929E-02-2.48805E-04-2.54484E-04
 -1      2843-3.50697E-02 9.70680E-04 2.52482E-04
 -1      2844-3.57699E-02 2.56439E-04 2.52266E-04
 -1      2845-3.57699E-02 9.70636E-04 6.02856E-04
 -1      2846-3.57689E-02-9.66891E-04-6.05255E-04
 -1      2847-3.50686E-02-9.67024E-04-2.54811E-04
 -1      2848-3.57690E-02-2.52694E-04-2.54665E-04
 -1      2849-3.50695E-02 2.56214E-04 9.66587E-04
 -1      2850-3.57698E-02 6.06667E-04 9.66640E-04
 -1      2851-7.86789E-02 9.49844E-04-2.34318E-04
 -1      2852-7.86788E-02 2.35739E-04-9.48784E-04
 -1      2853-1.75114E-02-9.65937E-04-2.52235E-04
 -1      2854-1.68111E-02-9.65970E-04-6.03932E-04
 -1      2855-4.48422E-02-6.02801E-04-9.70202E-04
 -1      2856-4.55426E-02-2.52347E-04-9.70148E-04
 -1      2857-4.48422E-02-2.52441E-04-2.55696E-04
 -1      2858-5.88282E-02-5.98594E-04-9.69237E-04
 -1      2859-5.95285E-02-2.48140E-04-9.69183E-04
 -1      2860-5.88281E-02-2.48366E-04-2.54862E-04
 -1      2861-5.18924E-02-9.63135E-04-2.54629E-04
 -1      2862-5.25928E-02-9.63002E-04-6.05074E-04
 -1      2863-5.95283E-02-9.62607E-04-2.55078E-04
 -1      2864-5.88280E-02-9.62563E-04-6.05452E-04
 -1      2865-8.58176E-02-7.09398E-04-3.70089E-06
 -1      2866-8.51206E-02-7.09354E-04-3.54402E-04
 -1      2867-8.47343E-02-9.61279E-04-2.55586E-04
 -1      2868-8.40373E-02-9.61235E-04-6.06287E-04
 -1      2869-4.59065E-02-7.11735E-04-3.52298E-04
 -1      2870-4.66067E-02-7.11779E-04-1.92404E-06
 -1      2871-4.73069E-02-9.26052E-04-5.66885E-04
 -1      2872-4.80071E-02-9.26096E-04-2.16510E-04
 -1      2873-3.47022E-02-3.48615E-04-7.15650E-04
 -1      2874-3.39997E-02 3.99629E-06-7.15525E-04
 -1      2875-3.33016E-02-5.62588E-04-9.30846E-04
 -1      2876-3.25992E-02-2.09976E-04-9.30721E-04
 -1      2877-8.76255E-03-8.76766E-07-7.28148E-04
 -1      2878-9.47313E-03-3.60227E-04-7.25393E-04
 -1      2879-9.85823E-03-2.56871E-04-9.76533E-04
 -1      2880-1.05649E-02-6.12052E-04-9.73035E-04
 -1      2881-2.31619E-02 4.69193E-04 4.67861E-04
 -1      2882-7.14526E-02 4.72550E-04-4.71470E-04
 -1      2883-7.14523E-02-4.64615E-04 4.65221E-04
 -1      2884-3.81850E-02 9.31006E-04-2.13388E-04
 -1      2885-4.55385E-02 9.71202E-04 2.52211E-04
 -1      2886-4.48378E-02 9.71068E-04 6.05424E-04
 -1      2887-4.48381E-02 2.57003E-04 2.52196E-04
 -1      2888-4.23952E-02 9.30180E-04-2.13626E-04
 -1      2889-2.38329E-02-4.67710E-04 4.67662E-04
 -1      2890-4.66068E-02 2.32611E-06 7.12543E-04
 -1      2891-4.59066E-02 3.52691E-04 7.12667E-04
 -1      2892-4.80076E-02 2.16614E-04 9.26779E-04
 -1      2893-4.73074E-02 5.66979E-04 9.26903E-04
 -1      2894-3.50329E-02-4.68480E-04 4.68584E-04
 -1      2895-8.31450E-02 2.34092E-04-9.47077E-04
 -1      2896-9.11494E-02-2.34340E-04-2.49104E-04
 -1      2897-8.97698E-02-6.82926E-04 2.59472E-05
 -1      2898-9.11881E-02-2.49481E-04 3.02817E-04
 -1      2899-3.43693E-02 4.70652E-04 4.66748E-04
 -1      2900-8.97701E-02 2.75115E-05-6.92189E-04
 -1      2901-9.11953E-02 3.08424E-04-2.54805E-04
 -1      2902-1.82119E-02-4.65653E-04-4.67039E-04
 -1      2903-3.43684E-02-4.66666E-04-4.69861E-04
 -1      2904-4.62389E-02 4.71290E-04 4.66432E-04
 -1      2905-4.62425E-02-4.66759E-04-4.70283E-04
 -1      2906-3.50666E-02-2.50311E-04-9.68915E-04
 -1      2907-3.57691E-02-6.02922E-04-9.69040E-04
 -1      2908-4.55423E-02-9.66813E-04-2.56044E-04
 -1      2909-4.48421E-02-9.66769E-04-6.06418E-04
 -1      2910-5.11921E-02-4.63171E-04-4.68798E-04
 -1      2911-5.25950E-02 9.70592E-04 5.95781E-04
 -1      2912-5.18948E-02 9.70636E-04 2.45407E-04
 -1      2913-5.25949E-02 2.56395E-04 2.45191E-04
 -1      2914-6.02287E-02-4.62579E-04-4.69344E-04
 -1      2915-5.18945E-02 2.56169E-04 9.59512E-04
 -1      2916-5.25949E-02 6.06624E-04 9.59565E-04
 -1      2917-1.68113E-02 6.02398E-04 9.65985E-04
 -1      2918-1.75116E-02 2.51969E-04 9.65781E-04
 -1      2919-1.68117E-02 2.52127E-04 2.51606E-04
 -1      2920-4.48380E-02 6.07100E-04 9.66440E-04
 -1      2921-4.55382E-02 2.56736E-04 9.66316E-04
 -1      2922-1.75119E-02 9.66396E-04 2.51727E-04
 -1      2923-1.68115E-02 9.66339E-04 6.02227E-04
 -1      2924-8.11567E-03-9.48765E-04-5.84536E-04
 -1      2925-8.08542E-03-2.23621E-04-2.27599E-04
 -1      2926-7.40743E-03-9.55239E-04-2.27257E-04
 -1      2927-1.81961E-03 8.04446E-05 1.31432E-04
 -1      2928-1.82341E-03 1.08476E-04-6.64879E-05
 -1      2929-1.06925E-03 2.02601E-04 7.50583E-05
 -1      2930-3.22250E-03 2.92435E-04 2.93199E-04
 -1      2931-1.07560E-03 1.78371E-04 2.16561E-04
 -1      2932-1.78949E-02-1.06443E-03 1.06400E-03
 -1      2933-8.71808E-02-2.13637E-04-9.38489E-04
 -1      2934-8.64836E-02-5.63764E-04-9.38542E-04
 -1      2935-8.64820E-02-2.13536E-04-2.24168E-04
 -1      2936-1.81728E-03-6.99670E-05 1.56620E-05
 -1      2937-8.11606E-03-5.84341E-04-9.52256E-04
 -1      2938-7.39947E-03-2.25465E-04-9.58387E-04
 -1      2939-5.11946E-02 4.70635E-04 4.59699E-04
 -1      2940-8.64835E-02-9.27733E-04-5.74758E-04
 -1      2941-8.71805E-02-9.27777E-04-2.24057E-04
 -1      2942-9.26454E-02 2.06707E-04 1.19235E-04
 -1      2943-9.26453E-02-1.02265E-04 1.64835E-04
 -1      2944-9.26454E-02 2.71959E-05-1.14106E-04
 -1      2945-1.82122E-02 4.66453E-04 4.65875E-04
 -1      2946-9.35077E-02 1.65561E-04 4.27686E-04
 -1      2947-9.12269E-02 3.25444E-04 3.11064E-04
 -1      2948-9.35078E-02 4.74533E-04 3.82087E-04
 -1      2949-9.19405E-03-4.78340E-04-4.81919E-04
 -1      2950-8.53987E-02-4.65417E-04-4.76053E-04
 -1      2951-7.95197E-02-1.06048E-03 1.06090E-03
 -1      2952-8.14706E-02-6.25677E-04 9.90122E-04
 -1      2953-8.14706E-02-9.89461E-04 6.26154E-04
 -1      2954-7.89678E-02-9.89705E-04 6.26364E-04
 -1      2955-8.09187E-02-5.54901E-04 5.55591E-04
 -1      2956-7.89678E-02-6.25921E-04 9.90332E-04
 -1      2957-5.43096E-02-1.06434E-03 1.06216E-03
 -1      2958-5.57101E-02-1.06462E-03 1.06209E-03
 -1      2959-5.38643E-02-1.03438E-03 6.58569E-04
 -1      2960-5.52649E-02-6.73124E-04 1.02247E-03
 -1      2961-5.38643E-02-6.72840E-04 1.02254E-03
 -1      2962-8.09202E-02-1.06039E-03 1.06082E-03
 -1      2963-8.28712E-02-6.25587E-04 9.90052E-04
 -1      2964-8.23208E-02-1.06030E-03 1.06075E-03
 -1      2965-8.28712E-02-9.89371E-04 6.26084E-04
 -1      2966-8.90403E-02 3.05000E-04-1.09471E-04
 -1      2967-8.84459E-02 2.74893E-04-8.49872E-04
 -1      2968-8.98711E-02 5.55806E-04-4.12489E-04
 -1      2969-6.33226E-03 2.56190E-04-9.88409E-04
 -1      2970-5.69076E-03 2.92274E-04-2.27846E-04
 -1      2971-4.86188E-03 5.41716E-04-5.28688E-04
 -1      2972-1.10694E-03-8.72781E-05 2.22065E-04
 -1      2973-1.10540E-03-1.98841E-04 1.34350E-04
 -1      2974-9.34762E-02 4.57513E-04-1.83783E-04
 -1      2975-9.34762E-02 2.78002E-04-4.17124E-04
 -1      2976-5.68949E-03-2.31369E-04 2.91054E-04
 -1      2977-6.34344E-03-9.92023E-04 2.56213E-04
 -1      2978-4.87832E-03-5.34649E-04 5.44664E-04
 -1      2979-1.07380E-02 2.33426E-04-2.34104E-04
 -1      2980-1.14467E-02 2.32574E-04-9.49260E-04
 -1      2981-1.01764E-02 1.53351E-07-7.23229E-04
 -1      2982-8.36406E-03 2.60298E-04-2.51128E-04
 -1      2983-9.08867E-03 2.59344E-04-9.72657E-04
 -1      2984-9.64952E-03 4.92516E-04-4.82852E-04
 -1      2985-6.20129E-02 2.17484E-04 9.26048E-04
 -1      2986-6.13128E-02 2.17621E-04 2.11797E-04
 -1      2987-6.06124E-02 3.09183E-06 7.11707E-04
 -1      2988-5.96046E-02 2.64424E-04 9.71436E-04
 -1      2989-5.89044E-02 2.64560E-04 2.57185E-04
 -1      2990-6.03050E-02 4.78953E-04 4.71526E-04
 -1      2991-8.84460E-02-8.43754E-04 2.73324E-04
 -1      2992-8.90406E-02-1.03210E-04 2.95590E-04
 -1      2993-8.98642E-02-4.10309E-04 5.50194E-04
 -1      2994-6.06127E-02 7.17559E-04-2.39801E-06
 -1      2995-6.20132E-02 9.31951E-04 2.11943E-04
 -1      2996-5.96048E-02 9.78891E-04 2.57331E-04
 -1      2997-2.42027E-03 1.35185E-05 4.68368E-04
 -1      2998-5.34850E-02 9.45888E-04-2.31980E-04
 -1      2999-5.27846E-02 2.31558E-04-2.32126E-04
 -1      3000-5.22093E-02 7.17021E-04-1.97518E-06
 -1      3001-5.11446E-02 9.71128E-04-2.55969E-04
 -1      3002-5.04442E-02 2.56797E-04-2.56114E-04
 -1      3003-5.17199E-02 4.85665E-04-4.86119E-04
 -1      3004-7.51120E-03 9.66831E-04 2.38691E-04
 -1      3005-8.18963E-03 2.36549E-04 2.37168E-04
 -1      3006-8.77025E-03 7.27379E-04-5.84826E-07
 -1      3007-9.86412E-03 9.75255E-04 2.56550E-04
 -1      3008-1.05542E-02 2.54424E-04 2.54854E-04
 -1      3009-9.29327E-03 4.90035E-04 4.92410E-04
 -1      3010-5.34850E-02 2.31781E-04-9.46447E-04
 -1      3011-5.22093E-02 2.91341E-06-7.16442E-04
 -1      3012-5.11446E-02 2.57021E-04-9.70435E-04
 -1      3013-6.13127E-02 5.67849E-04 9.26172E-04
 -1      3014-5.89044E-02 6.14789E-04 9.71560E-04
 -1      3015-6.13129E-02 9.31818E-04 5.62388E-04
 -1      3016-5.89045E-02 9.78757E-04 6.07776E-04
 -1      3017-7.50284E-03 2.35407E-04 9.68516E-04
 -1      3018-8.76211E-03-1.32394E-06 7.26836E-04
 -1      3019-9.85563E-03 2.53773E-04 9.76398E-04
 -1      3020-8.44203E-02-7.09488E-04-3.95778E-06
 -1      3021-8.33369E-02-9.61369E-04-2.55843E-04
 -1      3022-5.99122E-02-1.06120E-03-1.06751E-03
 -1      3023-5.15088E-02-1.06300E-03-1.06709E-03
 -1      3024-8.33372E-02-2.46902E-04-9.69947E-04
 -1      3025-1.07431E-02 5.91304E-04-9.51053E-04
 -1      3026-8.38981E-03 6.21499E-04-9.73427E-04
 -1      3027-5.92118E-02-7.11102E-04-2.68938E-06
 -1      3028-5.81277E-02-9.62696E-04-2.55008E-04
 -1      3029-1.78951E-02-1.06650E-03-1.06665E-03
 -1      3030-5.22090E-02-7.11551E-04-2.33702E-06
 -1      3031-5.32930E-02-9.63046E-04-2.54700E-04
 -1      3032-1.89099E-02 2.99011E-04-1.01308E-03
 -1      3033-1.82097E-02 2.97379E-04-2.98799E-04
 -1      3034-1.71255E-02 4.51142E-05-5.50405E-04
 -1      3035-9.20577E-02 5.76249E-04 8.04651E-06
 -1      3036-6.09273E-02 3.00813E-04-1.01407E-03
 -1      3037-6.02269E-02 3.00588E-04-2.99748E-04
 -1      3038-5.91428E-02 4.89936E-05-5.52066E-04
 -1      3039-5.32933E-02-2.48581E-04-9.68804E-04
 -1      3040-5.22090E-02 2.55157E-06 7.12130E-04
 -1      3041-5.32951E-02 2.56257E-04 9.59441E-04
 -1      3042-1.01701E-02-7.21954E-04-1.25949E-06
 -1      3043-1.12593E-02-9.70938E-04-2.54764E-04
 -1      3044-1.61112E-02-2.51690E-04-9.66331E-04
 -1      3045-1.75094E-02 2.97552E-04-1.01304E-03
 -1      3046-1.71952E-02-7.13760E-04-5.69996E-07
 -1      3047-1.61109E-02-9.66114E-04-2.52250E-04
 -1      3048-1.14408E-02 9.49371E-04-2.32459E-04
 -1      3049-1.01702E-02 7.22392E-04-9.13537E-07
 -1      3050-9.08265E-03 9.82178E-04-2.49606E-04
 -1      3051-5.81280E-02-2.48232E-04-9.69113E-04
 -1      3052-5.95268E-02 3.00721E-04-1.01400E-03
 -1      3053-5.15089E-02 1.06712E-03 1.06284E-03
 -1      3054-5.27848E-02 9.45932E-04-5.82354E-04
 -1      3055-5.04444E-02 9.71172E-04-6.06343E-04
 -1      3056-1.12654E-02-2.53660E-04-9.71512E-04
 -1      3057-1.22645E-02-1.07023E-03 1.07351E-03
 -1      3058-1.36650E-02-1.06585E-03 1.07184E-03
 -1      3059-1.42114E-02-9.92369E-04 6.36760E-04
 -1      3060-1.56403E-02-6.28106E-04 9.93746E-04
 -1      3061-1.42392E-02-6.31242E-04 9.94286E-04
 -1      3062-3.98996E-02 1.01400E-03 2.99548E-04
 -1      3063-4.13088E-02 1.01409E-03 2.98637E-04
 -1      3064-4.06040E-02 2.99761E-04 2.95431E-04
 -1      3065-5.27848E-02 5.82148E-04-9.46323E-04
 -1      3066-5.04444E-02 6.07388E-04-9.70311E-04
 -1      3067-1.78953E-02 1.06496E-03 1.06453E-03
 -1      3068-3.64700E-02 2.56305E-04 9.66516E-04
 -1      3069-8.22549E-03 9.60816E-04 5.94446E-04
 -1      3070-1.05683E-02 9.71978E-04 6.08844E-04
 -1      3071-1.71952E-02 3.03608E-07 7.13865E-04
 -1      3072-1.61111E-02 2.51955E-04 9.65947E-04
 -1      3073-1.12569E-02 9.70558E-04 2.54438E-04
 -1      3074-1.89100E-02 1.01167E-03-2.98668E-04
 -1      3075-1.71257E-02 5.48963E-04-4.68132E-05
 -1      3076-3.64703E-02 9.70769E-04 2.52409E-04
 -1      3077-2.17324E-02-2.53567E-04 9.67682E-04
 -1      3078-7.63546E-02 9.72610E-04 2.50981E-04
 -1      3079-7.56541E-02 2.58279E-04 2.50836E-04
 -1      3080-7.49540E-02 9.72520E-04 2.51052E-04
 -1      3081-7.60185E-02-7.10026E-04-3.53504E-06
 -1      3082-7.74191E-02-7.09936E-04-3.60551E-06
 -1      3083-7.49537E-02-9.64137E-04-2.57653E-04
 -1      3084-7.63543E-02-9.64047E-04-2.57723E-04
 -1      3085-7.56541E-02-2.49806E-04-2.57507E-04
 -1      3086-7.74191E-02 4.16881E-06 7.10861E-04
 -1      3087-7.60185E-02 4.07909E-06 7.10932E-04
 -1      3088-7.49537E-02 2.58054E-04 9.65157E-04
 -1      3089-7.63543E-02 2.58143E-04 9.65086E-04
 -1      3090-7.63545E-02-2.49580E-04-9.71828E-04
 -1      3091-7.49540E-02-2.49670E-04-9.71758E-04
 -1      3092-7.21317E-02-2.92997E-04-1.01478E-03
 -1      3093-7.03666E-02-3.91192E-05-5.54452E-04
 -1      3094-7.14313E-02-2.93222E-04-3.00462E-04
 -1      3095-7.21315E-02 3.01019E-04 1.00847E-03
 -1      3096-7.03664E-02 4.69152E-05 5.48312E-04
 -1      3097-7.14313E-02 3.01155E-04 2.94216E-04
 -1      3098-7.21317E-02 1.01549E-03 2.94362E-04
 -1      3099-7.03666E-02 5.55258E-04 4.02268E-05
 -1      3100-7.21314E-02-1.00746E-03-3.00679E-04
 -1      3101-7.03664E-02-5.47462E-04-4.63662E-05
 -1      3102-2.17324E-02-9.67650E-04 2.53236E-04
 -1      3103-2.52625E-02 2.54860E-04 9.67644E-04
 -1      3104-2.52628E-02 9.69324E-04 2.53541E-04
 -1      3105-4.97441E-02 9.71038E-04-2.55898E-04
 -1      3106-4.97440E-02 2.56934E-04-9.70365E-04
 -1      3107-3.29368E-02-9.66957E-04 2.52675E-04
 -1      3108-3.29368E-02-2.52852E-04 9.67142E-04
 -1      3109-7.78022E-02-2.47481E-04-2.55426E-04
 -1      3110-7.85023E-02-9.61722E-04-2.55643E-04
 -1      3111-7.67374E-02-5.01592E-04-5.09544E-04
 -1      3112-7.78022E-02 2.56229E-04 2.48539E-04
 -1      3113-7.85027E-02 9.70560E-04 2.48684E-04
 -1      3114-7.67374E-02 5.10204E-04 5.02764E-04
 -1      3115-7.85024E-02 2.56093E-04 9.62789E-04
 -1      3116-7.85026E-02-2.47255E-04-9.69747E-04
 -1      3117-1.17106E-02-9.95304E-04 6.40192E-04
 -1      3118-1.17384E-02-6.33843E-04 9.97984E-04
 -1      3119-1.36860E-02-5.55771E-04 5.60669E-04
 -1      3120-3.64691E-02-9.66934E-04-2.54884E-04
 -1      3121-2.17334E-02 9.69391E-04-2.54324E-04
 -1      3122-2.17326E-02 2.56582E-04-9.68770E-04
 -1      3123-1.01758E-02-1.80381E-07 7.21191E-04
 -1      3124-1.12626E-02 2.53243E-04 9.71604E-04
 -1      3125-3.29382E-02 9.70242E-04-2.54797E-04
 -1      3126-3.64723E-02-2.50547E-04-9.68986E-04
 -1      3127-1.61114E-02 9.66406E-04 2.51865E-04
 -1      3128-1.75094E-02 1.01160E-03-2.98625E-04
 -1      3129-2.52565E-02-2.52734E-04-9.70340E-04
 -1      3130-2.52569E-02-9.67805E-04-2.56238E-04
 -1      3131-4.13323E-02-2.91360E-04-1.01253E-03
 -1      3132-3.99232E-02-2.92290E-04-1.01246E-03
 -1      3133-4.06083E-02-2.95488E-04-2.98214E-04
 -1      3134-3.47022E-02 1.06604E-03 1.06369E-03
 -1      3135-5.32953E-02 9.70726E-04 2.45337E-04
 -1      3136-4.69218E-02 2.99916E-04-1.01336E-03
 -1      3137-4.62214E-02 2.99821E-04-2.98912E-04
 -1      3138-4.51569E-02 4.47873E-05-5.53032E-04
 -1      3139-7.11163E-02-1.06102E-03 1.06132E-03
 -1      3140-7.11171E-02 1.06891E-03-1.06753E-03
 -1      3141-2.34977E-02 1.06531E-03 1.06424E-03
 -1      3142-7.67610E-03 2.60022E-04-9.80279E-04
 -1      3143-4.69208E-02-2.95276E-04 1.00974E-03
 -1      3144-4.62206E-02-2.95009E-04 2.95617E-04
 -1      3145-4.51521E-02-4.05991E-05 5.49390E-04
 -1      3146-2.34972E-02-1.06406E-03 1.06370E-03
 -1      3147-3.29359E-02 2.58384E-04-9.69262E-04
 -1      3148-4.69218E-02 1.01402E-03-2.98898E-04
 -1      3149-4.51528E-02 5.54231E-04-4.51391E-05
 -1      3150-4.69208E-02-1.00938E-03 2.95269E-04
 -1      3151-4.51562E-02-5.50043E-04 4.14970E-05
 -1      3152-8.08345E-04-4.95560E-04 1.18931E-06
 -1      3153-8.25183E-04-4.94906E-04 1.19660E-04
 -1      3154-2.10159E-03-8.02004E-04 7.83083E-05
 -1      3155-2.15853E-03-8.05280E-04 3.35070E-04
 -1      3156-1.13343E-03-3.47227E-04 2.10406E-04
 -1      3157-2.34981E-02 1.07254E-03-1.06512E-03
 -1      3158-3.47021E-02-1.06281E-03-1.06624E-03
 -1      3159-1.07452E-02 9.51334E-04-5.87061E-04
 -1      3160-8.39174E-03 9.83165E-04-6.07578E-04
 -1      3161-2.34976E-02-1.06619E-03-1.06566E-03
 -1      3162-8.21703E-02-3.54366E-04 3.55175E-04
 -1      3163-8.02193E-02-4.25386E-04 7.89916E-04
 -1      3164-7.96674E-02-3.54610E-04 3.55384E-04
 -1      3165-8.02193E-02-7.89170E-04 4.25947E-04
 -1      3166-5.76620E-02-9.90807E-04 6.27693E-04
 -1      3167-5.69619E-02-3.55588E-04 3.56726E-04
 -1      3168-5.64106E-02-7.90481E-04 4.27087E-04
 -1      3169-5.52649E-02-1.03429E-03 6.58499E-04
 -1      3170-5.45648E-02-3.99070E-04 3.87531E-04
 -1      3171-5.58162E-02-5.99396E-04 5.88138E-04
 -1      3172-8.21749E-03 5.97431E-04 9.62382E-04
 -1      3173-1.05593E-02 6.12278E-04 9.73254E-04
 -1      3174-4.59063E-02 1.06676E-03 1.06589E-03
 -1      3175-4.59066E-02-1.06209E-03-1.06680E-03
 -1      3176-6.93514E-02-2.50519E-04 9.65310E-04
 -1      3177-7.07309E-02 3.00929E-04 1.00854E-03
 -1      3178-6.93518E-02 2.58185E-04-9.71347E-04
 -1      3179-7.07311E-02-2.93086E-04-1.01471E-03
 -1      3180-6.93514E-02-9.64624E-04 2.50843E-04
 -1      3181-7.07309E-02-1.00755E-03-3.00608E-04
 -1      3182-6.93519E-02 9.72290E-04-2.56880E-04
 -1      3183-7.07312E-02 1.01540E-03 2.94432E-04
 -1      3184-3.47017E-02-1.06335E-03 1.06315E-03
 -1      3185-4.41420E-02-2.52438E-04-9.70078E-04
 -1      3186-4.55212E-02 2.99824E-04-1.01329E-03
 -1      3187-4.41347E-02 2.55324E-04 9.66386E-04
 -1      3188-4.55173E-02-2.96687E-04 1.00981E-03
 -1      3189-8.71164E-02-8.43838E-04 2.69689E-04
 -1      3190-8.64179E-02-1.29597E-04 2.69578E-04
 -1      3191-8.49688E-02-9.89148E-04 2.75896E-04
 -1      3192-8.42703E-02-2.74907E-04 2.75785E-04
 -1      3193-8.55692E-02-4.09347E-04 5.49174E-04
 -1      3194-3.47025E-02 1.07294E-03-1.06570E-03
 -1      3195-4.41350E-02 9.71112E-04 2.53603E-04
 -1      3196-4.55183E-02 1.01393E-03-2.97506E-04
 -1      3197-7.68453E-03 9.89673E-04-2.51031E-04
 -1      3198-4.41388E-02-9.66903E-04-2.54652E-04
 -1      3199-4.55173E-02-1.00947E-03 2.96661E-04
 -1      3200-1.51198E-02-1.06498E-03 1.07092E-03
 -1      3201-1.56665E-02-9.91813E-04 6.36196E-04
 -1      3202-9.14410E-02 6.28664E-04-9.95160E-04
 -1      3203-8.92859E-02 6.25241E-04-8.49826E-04
 -1      3204-3.95994E-03 9.82220E-04-2.62536E-04
 -1      3205-4.75779E-03 7.52523E-04 2.44941E-05
 -1      3206-6.34602E-03 9.97726E-04-2.53172E-04
 -1      3207-9.39377E-02 2.06838E-06-1.13151E-03
 -1      3208-9.39376E-02-3.40588E-04-1.13098E-03
 -1      3209-9.34304E-02-9.55498E-05-6.88287E-04
 -1      3210-9.34303E-02-4.38206E-04-6.87760E-04
 -1      3211-9.24417E-02-4.28680E-04-9.89642E-04
 -1      3212-1.24352E-02-3.56986E-04 3.59905E-04
 -1      3213-1.29895E-02-4.32344E-04 7.93874E-04
 -1      3214-1.49373E-02-3.55597E-04 3.57783E-04
 -1      3215-3.65966E-03 7.22400E-04 2.72620E-05
 -1      3216-2.86298E-03 9.21753E-04 2.41227E-04
 -1      3217-3.93686E-03 9.92683E-04 2.71390E-04
 -1      3218-9.38955E-02 3.49021E-04-1.13142E-03
 -1      3219-9.34763E-02 4.47214E-04-6.93988E-04
 -1      3220-9.24876E-02 1.14084E-04-9.95343E-04
 -1      3221-9.24454E-02 4.61037E-04-9.95253E-04
 -1      3222-2.88347E-03 9.11640E-04-2.28724E-04
 -1      3223-9.08510E-02 7.45716E-04 2.10146E-05
 -1      3224-8.97701E-02 7.45645E-04 2.63090E-05
 -1      3225-9.16818E-02 9.96521E-04-2.82003E-04
 -1      3226-9.06010E-02 9.96451E-04-2.76709E-04
 -1      3227-8.91047E-02-1.87148E-04-1.98156E-04
 -1      3228-8.85101E-02-9.27693E-04-2.20421E-04
 -1      3229-8.98896E-02-4.79106E-04-4.95473E-04
 -1      3230-5.92118E-02 3.00014E-06 7.11777E-04
 -1      3231-5.82040E-02 2.64332E-04 9.71506E-04
 -1      3232-2.10324E-02-3.91414E-05 4.67841E-04
 -1      3233-2.10322E-02-4.67446E-04 3.84710E-05
 -1      3234-3.96543E-03-2.66324E-04 9.86872E-04
 -1      3235-4.74471E-03 2.20790E-05 7.52938E-04
 -1      3236-6.33128E-03-2.59381E-04 9.96705E-04
 -1      3237-3.65559E-03 2.59512E-05 7.23331E-04
 -1      3238-3.92391E-03 2.68498E-04 9.93800E-04
 -1      3239-2.85916E-03 2.39496E-04 9.24179E-04
 -1      3240-8.35715E-02-9.89237E-04 2.75639E-04
 -1      3241-5.83623E-02-9.90673E-04 2.77249E-04
 -1      3242-5.90628E-02-2.76343E-04 2.77394E-04
 -1      3243-5.97629E-02-9.90584E-04 2.77178E-04
 -1      3244-5.17635E-02-1.03442E-03 3.08265E-04
 -1      3245-5.24640E-02-3.20094E-04 3.08411E-04
 -1      3246-5.31641E-02-1.03434E-03 3.08195E-04
 -1      3247-7.68670E-02-2.75646E-04 9.90526E-04
 -1      3248-7.82676E-02-2.75556E-04 9.90456E-04
 -1      3249-7.75674E-02-2.75420E-04 2.76206E-04
 -1      3250-7.82675E-02-9.89661E-04 2.75989E-04
 -1      3251-7.68670E-02-9.89751E-04 2.76060E-04
 -1      3252-5.17636E-02-3.20320E-04 1.02273E-03
 -1      3253-5.31641E-02-3.20233E-04 1.02266E-03
 -1      3254-5.83624E-02-2.76571E-04 9.91715E-04
 -1      3255-5.97629E-02-2.76479E-04 9.91645E-04
 -1      3256-8.85103E-02-2.17255E-04-9.38557E-04
 -1      3257-8.51223E-02-1.05958E-03-1.06878E-03
 -1      3258-6.09274E-02 1.01492E-03-2.99602E-04
 -1      3259-5.92191E-02 5.61919E-04-4.00193E-05
 -1      3260-8.44206E-02 7.19084E-04-3.59594E-06
 -1      3261-8.58179E-02 7.19173E-04-3.33905E-06
 -1      3262-8.65007E-02 1.01631E-03 2.93873E-04
 -1      3263-8.58018E-02 3.01982E-04 2.93400E-04
 -1      3264-8.51033E-02 1.01622E-03 2.93616E-04
 -1      3265-2.89937E-03-2.33313E-04 9.17974E-04
 -1      3266-7.46179E-02-2.10422E-04 9.25305E-04
 -1      3267-7.53183E-02-2.10196E-04 2.10984E-04
 -1      3268-7.61668E-02-4.89921E-04 4.90579E-04
 -1      3269-7.46179E-02-9.24527E-04 2.10838E-04
 -1      3270-1.29617E-02-7.93922E-04 4.35922E-04
 -1      3271-8.64193E-02-8.43972E-04 6.19806E-04
 -1      3272-8.42717E-02-9.89281E-04 6.26013E-04
 -1      3273-9.48701E-03-1.07803E-03-1.07530E-03
 -1      3274-9.62553E-03-2.83202E-04 1.00503E-03
 -1      3275-1.10326E-02-2.80039E-04 9.99981E-04
 -1      3276-1.03231E-02-2.80893E-04 2.83062E-04
 -1      3277-1.63407E-02-2.77457E-04 9.93641E-04
 -1      3278-9.63372E-03-1.00208E-03 2.84477E-04
 -1      3279-1.10268E-02-9.97087E-04 2.82204E-04
 -1      3280-1.63407E-02-9.91525E-04 2.79198E-04
 -1      3281-3.17348E-03 9.26898E-04-5.53630E-04
 -1      3282-3.16233E-03 5.57440E-04-9.23263E-04
 -1      3283-3.86818E-03 1.01446E-03-1.01074E-03
 -1      3284-5.52912E-03 9.91967E-04-6.04786E-04
 -1      3285-5.52184E-03 6.16120E-04-9.82295E-04
 -1      3286-9.17134E-02 1.01354E-03 2.83866E-04
 -1      3287-8.98271E-02 2.80285E-04 3.75185E-04
 -1      3288-9.03136E-02 9.68382E-04 3.47987E-04
 -1      3289-9.06895E-02 5.48110E-04 6.38037E-04
 -1      3290-9.14410E-02 9.96593E-04-6.27044E-04
 -1      3291-9.08558E-02 1.06603E-03-1.06438E-03
 -1      3292-8.92860E-02 9.93170E-04-4.81710E-04
 -1      3293-9.14266E-02-9.90059E-04 6.22850E-04
 -1      3294-8.92792E-02-8.43787E-04 6.15623E-04
 -1      3295-7.77581E-04-4.58466E-04-1.19678E-04
 -1      3296-1.13123E-03-3.53012E-04-2.20018E-04
 -1      3297-2.14220E-03-8.09783E-04-3.17330E-04
 -1      3298-1.12775E-03-3.47200E-04-4.90998E-05
 -1      3299-9.34302E-02-3.94223E-04-1.32482E-04
 -1      3300-9.34689E-02-4.09364E-04 4.19439E-04
 -1      3301-5.99123E-02 1.06765E-03 1.06242E-03
 -1      3302-1.09566E-03 1.97253E-04-1.91102E-04
 -1      3303-2.40440E-03 4.60580E-04 1.20198E-05
 -1      3304-6.06590E-03-9.61407E-04-2.28851E-04
 -1      3305-5.40468E-03-1.98806E-04-2.01740E-04
 -1      3306-4.60973E-03-5.00319E-04-5.02978E-04
 -1      3307-9.34303E-02-2.64762E-04-4.11423E-04
 -1      3308-7.78021E-02-9.61678E-04-6.06017E-04
 -1      3309-7.56540E-02-9.64003E-04-6.08098E-04
 -1      3310-7.78023E-02 9.70426E-04 5.99129E-04
 -1      3311-7.56542E-02 9.72476E-04 6.01426E-04
 -1      3312-7.78022E-02 6.06458E-04 9.62913E-04
 -1      3313-7.56541E-02 6.08508E-04 9.65210E-04
 -1      3314-7.78023E-02-5.97709E-04-9.69801E-04
 -1      3315-7.56542E-02-6.00035E-04-9.71882E-04
 -1      3316-6.05319E-03-2.27678E-04-9.64058E-04
 -1      3317-9.38951E-02 3.50970E-04 1.10197E-03
 -1      3318-9.39373E-02 4.01771E-06 1.10188E-03
 -1      3319-9.25189E-02 1.30742E-04 9.99098E-04
 -1      3320-9.35077E-02 4.66545E-04 6.76698E-04
 -1      3321-9.24767E-02 4.77695E-04 9.99188E-04
 -1      3322-3.18337E-03-9.27699E-04 5.63007E-04
 -1      3323-3.18556E-03-5.58248E-04 9.32098E-04
 -1      3324-3.86696E-03-1.01572E-03 1.01168E-03
 -1      3325-5.52183E-03-9.85245E-04 6.13464E-04
 -1      3326-5.52588E-03-6.10091E-04 9.90764E-04
 -1      3327-8.49689E-02-2.75370E-04 9.90035E-04
 -1      3328-8.58176E-02 4.37958E-06 7.10438E-04
 -1      3329-8.65004E-02 3.01519E-04 1.00765E-03
 -1      3330-8.49531E-02 2.22321E-05 5.72996E-04
 -1      3331-8.35715E-02-2.75133E-04 9.90106E-04
 -1      3332-8.51031E-02 3.01756E-04 1.00772E-03
 -1      3333-9.17131E-02 3.00284E-04 9.99182E-04
 -1      3334-9.20505E-02 1.83446E-05 5.65669E-04
 -1      3335-6.16771E-02-9.65116E-04 2.51229E-04
 -1      3336-6.09769E-02-2.50875E-04 2.51445E-04
 -1      3337-6.01275E-02-5.30446E-04 5.31383E-04
 -1      3338-5.04440E-02-2.51554E-04 2.51980E-04
 -1      3339-4.97436E-02-9.65884E-04 2.51834E-04
 -1      3340-5.13991E-02-5.74338E-04 5.62512E-04
 -1      3341-6.16771E-02-2.51011E-04 9.65696E-04
 -1      3342-4.97436E-02-2.51780E-04 9.66301E-04
 -1      3343-5.82043E-02 9.78801E-04 2.57401E-04
 -1      3344-5.95268E-02 1.01483E-03-2.99532E-04
 -1      3345-8.17196E-04 4.79675E-04 1.20516E-04
 -1      3346-8.00509E-04 4.79735E-04 1.22939E-06
 -1      3347-2.12103E-03 8.09052E-04 3.35974E-04
 -1      3348-2.06390E-03 8.02995E-04 8.26054E-05
 -1      3349-1.09277E-03 3.32011E-04 2.08745E-04
 -1      3350-9.14267E-02-6.22237E-04 9.90859E-04
 -1      3351-9.08416E-02-1.05572E-03 1.05629E-03
 -1      3352-8.92792E-02-4.75966E-04 9.83631E-04
 -1      3353-7.85181E-04-1.02204E-04 4.61653E-04
 -1      3354-8.27436E-04 4.13390E-06 4.90205E-04
 -1      3355-2.11822E-03 3.36659E-04 8.13924E-04
 -1      3356-1.08979E-03 6.20725E-05 3.30136E-04
 -1      3357-2.06258E-03 8.39350E-05 8.05790E-04
 -1      3358-6.17043E-03 9.73216E-04 2.34382E-04
 -1      3359-5.51423E-03 2.66975E-04 2.68632E-04
 -1      3360-4.65898E-03 5.25748E-04 5.27636E-04
 -1      3361-9.39373E-02-1.10384E-03 1.10316E-05
 -1      3362-9.38951E-02-1.10376E-03-3.35922E-04
 -1      3363-9.24414E-02-9.74805E-04-1.07111E-04
 -1      3364-9.23992E-02-9.74720E-04-4.54064E-04
 -1      3365-9.34302E-02-6.55334E-04-4.28279E-04
 -1      3366-6.15761E-03 2.30879E-04 9.75216E-04
 -1      3367-8.77805E-02 6.02338E-05-3.55839E-04
 -1      3368-1.45208E-02 2.30728E-04-9.44144E-04
 -1      3369-1.47103E-02-2.51959E-04-9.66628E-04
 -1      3370-1.55379E-02-2.19224E-05-4.81230E-04
 -1      3371-1.34992E-02-2.20053E-05-4.82477E-04
 -1      3372-1.36888E-02-5.04828E-04-5.05042E-04
 -1      3373-1.26714E-02-2.52648E-04-9.68898E-04
 -1      3374-8.71164E-02-1.30061E-04 9.83828E-04
 -1      3375-8.17445E-02 9.48107E-04-2.32540E-04
 -1      3376-8.27603E-02 4.85698E-04 1.91675E-05
 -1      3377-8.19367E-02 9.70736E-04 2.48468E-04
 -1      3378-7.99032E-02 9.70649E-04 2.48614E-04
 -1      3379-8.09190E-02 5.08241E-04 5.00321E-04
 -1      3380-8.07268E-02 4.85611E-04 1.93130E-05
 -1      3381-8.17445E-02 2.34002E-04-9.47006E-04
 -1      3382-8.19367E-02-2.46992E-04-9.69877E-04
 -1      3383-8.27603E-02-1.79253E-05-4.84711E-04
 -1      3384-8.07268E-02-1.80988E-05-4.84652E-04
 -1      3385-8.09190E-02-4.99093E-04-5.07523E-04
 -1      3386-7.99032E-02-2.47165E-04-9.69818E-04
 -1      3387-1.36801E-02 4.61804E-04-4.60828E-04
 -1      3388-1.28522E-02 2.32019E-04-9.47115E-04
 -1      3389-1.18293E-02-2.11422E-05-4.85963E-04
 -1      3390-1.96101E-02 8.34623E-05-5.13841E-04
 -1      3391-6.16275E-02 5.14980E-04-8.54073E-05
 -1      3392-7.28320E-02 5.15656E-04 7.98427E-05
 -1      3393-7.28319E-02-7.87214E-05-5.14836E-04
 -1      3394-7.28318E-02 8.68332E-05 5.08448E-04
 -1      3395-7.28318E-02-5.07544E-04-8.62303E-05
 -1      3396-6.16275E-02 8.63747E-05-5.14230E-04
 -1      3397-8.31042E-04 3.91381E-06-4.96891E-04
 -1      3398-7.88270E-04-1.02905E-04-4.68319E-04
 -1      3399-2.08240E-03 7.66739E-05-7.97264E-04
 -1      3400-1.11111E-03 5.72056E-05-3.32543E-04
 -1      3401-2.13728E-03 3.29859E-04-8.05513E-04
 -1      3402-8.00794E-02 9.49934E-04-2.34388E-04
 -1      3403-8.09030E-02 4.64895E-04-4.63689E-04
 -1      3404-7.90617E-02 4.87438E-04 1.74645E-05
 -1      3405-8.00794E-02 2.35829E-04-9.48855E-04
 -1      3406-7.90617E-02-1.62722E-05-4.86501E-04
 -1      3407-4.76217E-02 8.55039E-05-5.13499E-04
 -1      3408-6.98463E-03 3.71066E-05-4.79381E-04
 -1      3409-8.77808E-02-3.47976E-04 4.92217E-05
 -1      3410-1.96102E-02 5.11748E-04-8.44892E-05
 -1      3411-7.53181E-02-5.60787E-04 9.25181E-04
 -1      3412-7.75672E-02-6.26010E-04 9.90402E-04
 -1      3413-7.53181E-02-9.24571E-04 5.61212E-04
 -1      3414-7.75672E-02-9.89794E-04 6.26434E-04
 -1      3415-8.36184E-03-2.54154E-04 2.58575E-04
 -1      3416-7.68260E-03-9.83936E-04 2.59758E-04
 -1      3417-9.23445E-03-5.34108E-04 5.41877E-04
 -1      3418-4.76210E-02-5.09326E-04 8.10301E-05
 -1      3419-9.38955E-02 1.10483E-03-3.33637E-04
 -1      3420-9.39377E-02 1.10475E-03 1.33163E-05
 -1      3421-9.24454E-02 9.96615E-04-4.59403E-04
 -1      3422-9.24876E-02 9.96530E-04-1.12450E-04
 -1      3423-9.34763E-02 6.67446E-04-4.32057E-04
 -1      3424-1.28492E-02 9.47260E-04-2.30343E-04
 -1      3425-1.45178E-02 9.45057E-04-2.28225E-04
 -1      3426-1.26657E-02 9.68068E-04 2.54879E-04
 -1      3427-1.34964E-02 4.82455E-04 2.35077E-05
 -1      3428-1.18263E-02 4.85178E-04 2.17890E-05
 -1      3429-4.76221E-02 5.14109E-04-8.46762E-05
 -1      3430-4.76214E-02-8.07208E-05 5.09853E-04
 -1      3431-4.20138E-02-8.16094E-05-5.13491E-04
 -1      3432-4.20095E-02 5.13640E-04 8.01541E-05
 -1      3433-6.98289E-03-4.79527E-04 3.24588E-05
 -1      3434-7.67460E-03-2.56399E-04 9.88981E-04
 -1      3435-5.67274E-02-2.46929E-04-9.69042E-04
 -1      3436-5.59022E-02-1.97671E-05-4.84655E-04
 -1      3437-5.48855E-02 2.33264E-04-9.46517E-04
 -1      3438-5.46938E-02-2.47098E-04-9.68875E-04
 -1      3439-5.38686E-02-1.99369E-05-4.84488E-04
 -1      3440-5.57105E-02-5.00130E-04-5.07013E-04
 -1      3441-1.55380E-02 4.82158E-04 2.25960E-05
 -1      3442-1.47075E-02 9.66641E-04 2.53289E-04
 -1      3443-1.36861E-02 5.04186E-04 5.05262E-04
 -1      3444-9.34689E-02-1.08380E-04 6.68451E-04
 -1      3445-9.24801E-02-4.44183E-04 9.90851E-04
 -1      3446-8.37887E-04 1.28922E-04 5.19381E-04
 -1      3447-1.09192E-03 2.22053E-04 3.73870E-04
 -1      3448-6.79508E-02-9.64714E-04 2.50914E-04
 -1      3449-6.86512E-02-4.64686E-04 3.66480E-05
 -1      3450-6.76151E-02-9.24867E-04-2.17523E-04
 -1      3451-6.58999E-02-1.00801E-03 2.94163E-04
 -1      3452-6.66003E-02-5.07985E-04 7.98971E-05
 -1      3453-6.69360E-02-5.47832E-04 5.48334E-04
 -1      3454-6.76152E-02 2.17843E-04 9.25766E-04
 -1      3455-6.86512E-02-3.60806E-05 4.65471E-04
 -1      3456-6.79508E-02-2.50609E-04 9.65380E-04
 -1      3457-6.58999E-02-2.93908E-04 1.00863E-03
 -1      3458-6.66003E-02-7.93798E-05 5.08720E-04
 -1      3459-8.71164E-02 9.92943E-04-1.35010E-04
 -1      3460-8.71003E-02 5.75752E-04 1.61728E-04
 -1      3461-5.64106E-02-4.29316E-04 7.91055E-04
 -1      3462-5.57104E-02-7.49416E-05 7.91180E-04
 -1      3463-5.50100E-02-4.29031E-04 7.91125E-04
 -1      3464-3.71655E-02 4.05854E-05 4.68029E-04
 -1      3465-3.78566E-02 2.52491E-04 9.66446E-04
 -1      3466-3.81845E-02-2.18188E-04 9.28668E-04
 -1      3467-3.92082E-02 8.37289E-05 5.11335E-04
 -1      3468-3.98994E-02 2.95634E-04 1.00975E-03
 -1      3469-3.88803E-02 5.54408E-04 5.49112E-04
 -1      3470-3.78557E-02-9.66847E-04-2.51050E-04
 -1      3471-3.71646E-02-4.68547E-04-3.89018E-05
 -1      3472-3.81845E-02-9.28393E-04 2.18103E-04
 -1      3473-3.99036E-02-1.00982E-03-2.94459E-04
 -1      3474-3.92125E-02-5.11521E-04-8.23100E-05
 -1      3475-3.88837E-02-5.49974E-04-5.51463E-04
 -1      3476-3.71648E-02-3.77199E-05-4.70755E-04
 -1      3477-3.78754E-02-2.49317E-04-9.69056E-04
 -1      3478-3.92127E-02-8.06934E-05-5.14163E-04
 -1      3479-9.16743E-02-2.74640E-04 9.90934E-04
 -1      3480-9.05935E-02-2.79950E-04 9.90987E-04
 -1      3481-8.92325E-02 2.49816E-04 1.06336E-03
 -1      3482-9.06507E-02-2.68145E-05 6.29790E-04
 -1      3483-9.03133E-02 2.55125E-04 1.06330E-03
 -1      3484-1.92955E-02-1.06431E-03 1.06389E-03
 -1      3485-2.06961E-02-1.06422E-03 1.06382E-03
 -1      3486-2.10320E-02-9.67778E-04 6.03665E-04
 -1      3487-2.10320E-02-6.04006E-04 9.67622E-04
 -1      3488-8.71007E-02 1.67542E-04 5.66789E-04
 -1      3489-8.31870E-02-5.26788E-04 2.38999E-05
 -1      3490-7.86507E-02-5.27206E-04 2.41684E-05
 -1      3491-7.86507E-02-2.34957E-05 5.28134E-04
 -1      3492-1.10156E-03 3.31194E-04-4.77611E-05
 -1      3493-2.10564E-03 8.00754E-04-3.12226E-04
 -1      3494-8.92328E-02 9.68312E-04 3.53282E-04
 -1      3495-5.35480E-02-5.71589E-04 5.60485E-05
 -1      3496-5.79787E-02-5.27937E-04 2.50758E-05
 -1      3497-3.78569E-02 9.70857E-04 2.56242E-04
 -1      3498-3.71656E-02 4.71413E-04 3.61760E-05
 -1      3499-3.92084E-02 5.14556E-04 7.94815E-05
 -1      3500-5.65399E-02 2.43943E-04-9.26476E-04
 -1      3501-5.57147E-02 4.71105E-04-4.42090E-04
 -1      3502-5.75566E-02-9.08819E-06-4.64615E-04
 -1      3503-8.33373E-02 9.70826E-04 2.48398E-04
 -1      3504-8.40358E-02 2.56585E-04 2.48182E-04
 -1      3505-8.47186E-02 5.53724E-04 5.45393E-04
 -1      3506-5.80550E-02-1.50109E-05 5.37123E-04
 -1      3507-2.12495E-03-3.20839E-04 8.04929E-04
 -1      3508-1.12263E-03-2.02949E-04 3.33691E-04
 -1      3509-5.15093E-02 1.06765E-03-1.06655E-03
 -1      3510-7.95201E-02 1.06891E-03 1.06143E-03
 -1      3511-8.12364E-02 9.70603E-04 5.98913E-04
 -1      3512-8.12362E-02 6.06635E-04 9.62697E-04
 -1      3513-7.92028E-02 6.06547E-04 9.62843E-04
 -1      3514-7.92029E-02 9.70516E-04 5.99059E-04
 -1      3515-7.95200E-02-1.05994E-03-1.06850E-03
 -1      3516-8.12362E-02-9.61414E-04-6.06146E-04
 -1      3517-8.12363E-02-5.97446E-04-9.69930E-04
 -1      3518-7.92028E-02-5.97620E-04-9.69871E-04
 -1      3519-7.92027E-02-9.61588E-04-6.06087E-04
 -1      3520-8.09207E-02 1.06900E-03 1.06136E-03
 -1      3521-8.26368E-02 6.06724E-04 9.62627E-04
 -1      3522-8.09206E-02-1.05985E-03-1.06857E-03
 -1      3523-8.26369E-02-5.97356E-04-9.70001E-04
 -1      3524-8.23211E-02-1.05976E-03-1.06864E-03
 -1      3525-8.26367E-02-9.61325E-04-6.06217E-04
 -1      3526-8.23212E-02 1.06909E-03 1.06129E-03
 -1      3527-8.26369E-02 9.70693E-04 5.98843E-04
 -1      3528-5.35500E-02-6.63890E-05 5.55723E-04
 -1      3529-1.14120E-02-2.61560E-05 5.36665E-04
 -1      3530-5.57105E-02-1.06371E-03-1.06730E-03
 -1      3531-5.71111E-02-1.06400E-03-1.06737E-03
 -1      3532-5.60271E-02-6.01019E-04-9.69096E-04
 -1      3533-5.74276E-02-6.01303E-04-9.69167E-04
 -1      3534-5.74275E-02-9.62652E-04-6.05382E-04
 -1      3535-3.14333E-03 5.64732E-04 9.35927E-04
 -1      3536-3.14484E-03 9.33559E-04 5.66776E-04
 -1      3537-3.86307E-03 1.01293E-03 1.01396E-03
 -1      3538-5.34547E-03 5.89966E-04 9.68592E-04
 -1      3539-5.34895E-03 9.66146E-04 5.92088E-04
 -1      3540-1.59572E-02-5.29572E-04 2.77269E-05
 -1      3541-9.34689E-02-6.70475E-04 1.23642E-04
 -1      3542-9.24801E-02-9.89946E-04 4.44810E-04
 -1      3543-6.61609E-02 3.00636E-04 1.00877E-03
 -1      3544-6.51460E-02 3.41297E-06 5.91721E-04
 -1      3545-6.68613E-02 5.15165E-04 5.08857E-04
 -1      3546-6.62683E-02-1.00784E-03-3.00384E-04
 -1      3547-6.69688E-02-5.07811E-04-5.14649E-04
 -1      3548-6.52535E-02-5.90957E-04-2.96304E-06
 -1      3549-1.59574E-02-2.56260E-05 5.31419E-04
 -1      3550-9.48423E-03 1.07926E-03-1.07517E-03
 -1      3551-9.25192E-02 1.01355E-03 4.53420E-04
 -1      3552-9.35079E-02 6.84466E-04 1.33813E-04
 -1      3553-1.22892E-02-1.06968E-03-1.07094E-03
 -1      3554-1.36914E-02-1.06809E-03-1.06852E-03
 -1      3555-1.19712E-02-6.07592E-04-9.69854E-04
 -1      3556-1.33706E-02-9.67433E-04-6.06467E-04
 -1      3557-1.19677E-02-9.69067E-04-6.08881E-04
 -1      3558-2.59634E-02 4.68366E-04 3.68603E-05
 -1      3559-1.14151E-02-5.33175E-04 2.80363E-05
 -1      3560-2.10331E-02 4.69362E-04-4.00707E-05
 -1      3561-2.10330E-02 4.10559E-05-4.69443E-04
 -1      3562-6.23775E-02-3.64825E-05 4.65786E-04
 -1      3563-7.42535E-02 4.37783E-05 4.65209E-04
 -1      3564-7.42537E-02 4.72601E-04 3.66034E-05
 -1      3565-7.42536E-02-3.54845E-05-4.71739E-04
 -1      3566-7.42535E-02-4.64307E-04-4.31340E-05
 -1      3567-6.23775E-02-4.65088E-04 3.69637E-05
 -1      3568-4.90434E-02 4.24315E-05-4.70429E-04
 -1      3569-4.90432E-02-4.65920E-04 3.76653E-05
 -1      3570-4.90439E-02 4.71037E-04-4.16061E-05
 -1      3571-4.90437E-02-3.73145E-05 4.66488E-04
 -1      3572-2.59625E-02 4.06298E-05 4.67675E-04
 -1      3573-2.59569E-02-4.67935E-04-4.17452E-05
 -1      3574-3.22367E-02-3.84133E-05 4.67303E-04
 -1      3575-3.22378E-02 4.70214E-04-4.05306E-05
 -1      3576-3.22367E-02-4.66599E-04 3.76251E-05
 -1      3577-2.59578E-02-4.01988E-05-4.72560E-04
 -1      3578-3.95346E-02-1.01014E-03 2.99827E-04
 -1      3579-3.88435E-02-5.11841E-04 5.11976E-04
 -1      3580-4.05626E-02-5.93268E-04-5.85518E-07
 -1      3581-3.95346E-02-2.99935E-04 1.01039E-03
 -1      3582-4.05583E-02 1.98152E-06 5.93059E-04
 -1      3583-3.22378E-02 4.20290E-05-4.70208E-04
 -1      3584-8.29292E-04 1.32822E-04-5.02204E-04
 -1      3585-1.11071E-03 2.28353E-04-3.57207E-04
 -1      3586-8.79355E-02 1.07198E-03-1.07037E-03
 -1      3587-8.93957E-02 1.06594E-03-1.07044E-03
 -1      3588-8.78258E-02 9.93078E-04-4.87770E-04
 -1      3589-8.78258E-02 6.31280E-04-8.49751E-04
 -1      3590-6.51997E-02-2.93772E-04 2.94379E-04
 -1      3591-6.69150E-02 2.17980E-04 2.11515E-04
 -1      3592-6.54607E-02 3.00772E-04 2.94516E-04
 -1      3593-7.67185E-02-1.06066E-03 1.06104E-03
 -1      3594-9.39377E-02 1.17460E-03 3.51862E-04
 -1      3595-9.35078E-02 7.54316E-04 4.72358E-04
 -1      3596-8.84460E-02 9.93027E-04-1.31374E-04
 -1      3597-9.39372E-02-3.64663E-04 1.14616E-03
 -1      3598-9.34689E-02-4.77060E-04 7.12729E-04
 -1      3599-1.45178E-02 1.52314E-04-1.51317E-04
 -1      3600-1.47074E-02-3.30264E-04-1.73861E-04
 -1      3601-1.26680E-02-3.30962E-04-1.75009E-04
 -1      3602-9.49023E-03 1.07851E-03 1.07439E-03
 -1      3603-8.31451E-02 9.48197E-04-2.32610E-04
 -1      3604-1.28487E-02 1.53326E-04-1.53166E-04
 -1      3605-5.46959E-02 9.70815E-04 2.45266E-04
 -1      3606-5.55250E-02 4.95942E-04 3.52264E-05
 -1      3607-5.65400E-02 9.56657E-04-2.12010E-04
 -1      3608-5.68037E-02 9.78711E-04 2.57472E-04
 -1      3609-5.76329E-02 5.03838E-04 4.74320E-05
 -1      3610-5.57888E-02 5.17996E-04 5.04708E-04
 -1      3611-8.17435E-02 1.54497E-04-1.53436E-04
 -1      3612-8.19357E-02-3.26497E-04-1.76307E-04
 -1      3613-7.99022E-02-3.26671E-04-1.76248E-04
 -1      3614-8.19357E-02 1.77126E-04 3.27572E-04
 -1      3615-7.99022E-02 1.77039E-04 3.27717E-04
 -1      3616-1.26651E-02 1.74222E-04 3.31719E-04
 -1      3617-6.69150E-02-2.10626E-04-2.17307E-04
 -1      3618-6.55682E-02-2.93598E-04-3.00167E-04
 -1      3619-5.42719E-02 1.07390E-03 1.06271E-03
 -1      3620-5.56724E-02 1.07399E-03 1.06264E-03
 -1      3621-5.39573E-02 6.13317E-04 9.59499E-04
 -1      3622-5.53961E-02 9.70772E-04 5.95640E-04
 -1      3623-5.39956E-02 9.70682E-04 5.95711E-04
 -1      3624-3.88892E-02-2.14061E-04 2.14348E-04
 -1      3625-4.02393E-02-2.95809E-04 2.96072E-04
 -1      3626-7.91110E-04 4.89806E-04-1.26072E-04
 -1      3627-1.11176E-03 3.59355E-04-2.26939E-04
 -1      3628-1.51202E-02 1.06522E-03 1.07145E-03
 -1      3629-1.37190E-02 1.06859E-03 1.07227E-03
 -1      3630-1.54371E-02 9.66450E-04 6.08906E-04
 -1      3631-1.40095E-02 6.05648E-04 9.66949E-04
 -1      3632-1.54107E-02 6.02545E-04 9.66276E-04
 -1      3633-8.00784E-02 1.56323E-04-1.55285E-04
 -1      3634-1.47075E-02 1.74003E-04 3.30157E-04
 -1      3635-6.72507E-02-2.50473E-04 2.51130E-04
 -1      3636-9.39372E-02-1.14086E-03 3.64995E-04
 -1      3637-9.34689E-02-7.07496E-04 4.77605E-04
 -1      3638-3.85604E-02-2.52515E-04-2.54806E-04
 -1      3639-5.38706E-02 4.85263E-04 1.51862E-05
 -1      3640-3.85613E-02 2.56618E-04 2.52125E-04
 -1      3641-1.22646E-02 1.07011E-03 1.07412E-03
 -1      3642-1.39821E-02 9.66971E-04 6.09546E-04
 -1      3643-1.19682E-02 6.07340E-04 9.70002E-04
 -1      3644-1.19409E-02 9.68927E-04 6.12410E-04
 -1      3645-5.67273E-02-3.27611E-04-1.75531E-04
 -1      3646-5.48854E-02 1.52582E-04-1.53006E-04
 -1      3647-5.46937E-02-3.27781E-04-1.75363E-04
 -1      3648-5.27828E-03 1.07311E-03-1.06199E-03
 -1      3649-6.97542E-03 6.23120E-04-9.82925E-04
 -1      3650-1.11539E-03-1.97520E-04-1.34057E-04
 -1      3651-8.51219E-02-1.06012E-03 1.06061E-03
 -1      3652-8.64193E-02-4.80188E-04 9.83774E-04
 -1      3653-8.42718E-02-6.25497E-04 9.89982E-04
 -1      3654-5.71493E-02 1.07408E-03 1.06256E-03
 -1      3655-5.54341E-02 6.13412E-04 9.59424E-04
 -1      3656-5.75039E-02 9.78667E-04 6.07846E-04
 -1      3657-5.75419E-02 6.21308E-04 9.71630E-04
 -1      3658-8.78941E-02-1.06694E-03 1.06747E-03
 -1      3659-8.93678E-02-1.06684E-03 1.05636E-03
 -1      3660-8.78054E-02-8.43885E-04 6.26730E-04
 -1      3661-8.78054E-02-4.87092E-04 9.83703E-04
 -1      3662-7.08947E-03 4.98894E-04-1.31317E-05
 -1      3663-1.13524E-03-2.04938E-04-3.38378E-04
 -1      3664-2.13741E-03-3.21523E-04-8.02741E-04
 -1      3665-5.48856E-02 9.45978E-04-2.32050E-04
 -1      3666-7.08780E-03-1.78890E-05 4.98848E-04
 -1      3667-8.84460E-02-1.33678E-04 9.83760E-04
 -1      3668-8.85032E-02 1.19457E-04 6.22563E-04
 -1      3669-6.70569E-03 1.08621E-03-1.08126E-03
 -1      3670-6.99496E-03 9.92440E-04-6.09640E-04
 -1      3671-5.28960E-03-1.06493E-03 1.07098E-03
 -1      3672-6.98711E-03-9.86227E-04 6.19685E-04
 -1      3673-5.65398E-02 1.63261E-04-1.32965E-04
 -1      3674-5.76620E-02-6.29642E-04 9.91661E-04
 -1      3675-5.69618E-02-2.75268E-04 9.91786E-04
 -1      3676-5.45647E-02-3.18750E-04 1.02259E-03
 -1      3677-6.72216E-03-1.09045E-03 1.08419E-03
 -1      3678-6.99665E-03-6.22268E-04 9.90941E-04
 -1      3679-7.95205E-02 1.06945E-03-1.06796E-03
 -1      3680-8.09210E-02 1.06954E-03-1.06803E-03
 -1      3681-8.24448E-02 9.48241E-04-5.82985E-04
 -1      3682-8.10443E-02 5.84367E-04-9.46882E-04
 -1      3683-8.10443E-02 9.48151E-04-5.82914E-04
 -1      3684-8.23216E-02 1.06963E-03-1.06810E-03
 -1      3685-8.24448E-02 5.84457E-04-9.46953E-04
 -1      3686-7.93792E-02 5.86194E-04-9.48731E-04
 -1      3687-7.93792E-02 9.49978E-04-5.84763E-04
 -1      3688-5.57104E-02-7.90437E-04 7.67126E-05
 -1      3689-5.69618E-02-9.90763E-04 2.77319E-04
 -1      3690-8.09196E-02-7.89036E-04 7.55026E-05
 -1      3691-7.96681E-02-9.89571E-04 2.75919E-04
 -1      3692-8.09197E-02-7.49314E-05 7.89969E-04
 -1      3693-7.96681E-02-2.75466E-04 9.90386E-04
 -1      3694-1.36901E-02-7.81615E-05 7.93388E-04
 -1      3695-1.24385E-02-2.78706E-04 9.96968E-04
 -1      3696-1.36871E-02-7.93220E-04 7.91337E-05
 -1      3697-1.24354E-02-9.94055E-04 2.82433E-04
 -1      3698-9.13948E-02-9.74742E-04-6.21705E-04
 -1      3699-9.13882E-02-6.06734E-04-9.89634E-04
 -1      3700-9.08487E-02-1.05518E-03-1.06492E-03
 -1      3701-8.93501E-02-9.27550E-04-5.70757E-04
 -1      3702-8.93435E-02-5.59542E-04-9.38685E-04
 -1      3703-1.22895E-02 1.07061E-03-1.07025E-03
 -1      3704-1.38201E-02 5.84402E-04-9.44425E-04
 -1      3705-1.38170E-02 9.45492E-04-5.83325E-04
 -1      3706-1.21489E-02 9.48292E-04-5.86538E-04
 -1      3707-1.21517E-02 5.86723E-04-9.47916E-04
 -1      3708-1.36917E-02 1.06913E-03-1.06783E-03
 -1      3709-1.52198E-02 9.44970E-04-5.82010E-04
 -1      3710-1.50928E-02 1.06577E-03-1.06721E-03
 -1      3711-1.52214E-02 5.81229E-04-9.43850E-04
 -1      3712-1.92959E-02 1.06501E-03 1.06443E-03
 -1      3713-2.06966E-02 5.65211E-04 9.28166E-04
 -1      3714-2.06965E-02 1.06511E-03 1.06436E-03
 -1      3715-2.06967E-02 9.29169E-04 5.64394E-04
 -1      3716-7.53180E-02-1.06075E-03 1.06111E-03
 -1      3717-7.39175E-02-9.24660E-04 5.61283E-04
 -1      3718-7.39174E-02-1.06084E-03 1.06118E-03
 -1      3719-7.39175E-02-5.60876E-04 9.25251E-04
 -1      3720-7.53188E-02 1.06918E-03-1.06774E-03
 -1      3721-7.39181E-02 9.32911E-04-5.67780E-04
 -1      3722-7.25169E-02-1.06093E-03 1.06125E-03
 -1      3723-7.39182E-02 1.06909E-03-1.06767E-03
 -1      3724-7.39181E-02 5.69127E-04-9.31748E-04
 -1      3725-7.25177E-02 1.06900E-03-1.06760E-03
 -1      3726-6.13128E-02 1.06774E-03 1.06235E-03
 -1      3727-6.27133E-02 5.67939E-04 9.26101E-04
 -1      3728-6.27134E-02 1.06783E-03 1.06228E-03
 -1      3729-6.27134E-02 9.31907E-04 5.62317E-04
 -1      3730-6.13127E-02-1.06111E-03-1.06758E-03
 -1      3731-6.27132E-02-9.25092E-04-5.67686E-04
 -1      3732-6.27133E-02-1.06102E-03-1.06765E-03
 -1      3733-6.27134E-02-5.61124E-04-9.31470E-04
 -1      3734-2.20971E-02 1.06521E-03 1.06430E-03
 -1      3735-3.19011E-02 1.06586E-03 1.06383E-03
 -1      3736-3.33016E-02 1.06595E-03 1.06376E-03
 -1      3737-3.19010E-02 5.65965E-04 9.27652E-04
 -1      3738-3.19011E-02 9.29934E-04 5.63867E-04
 -1      3739-5.01083E-02 1.06703E-03 1.06291E-03
 -1      3740-4.87081E-02 9.31037E-04 5.63048E-04
 -1      3741-4.87078E-02 1.06694E-03 1.06298E-03
 -1      3742-4.87079E-02 5.67068E-04 9.26832E-04
 -1      3743-5.01082E-02-1.06309E-03-1.06702E-03
 -1      3744-4.87074E-02-9.25963E-04-5.66955E-04
 -1      3745-2.48978E-02-1.06397E-03 1.06364E-03
 -1      3746-2.62981E-02-9.27755E-04 5.63724E-04
 -1      3747-2.62984E-02-1.06389E-03 1.06357E-03
 -1      3748-2.62981E-02-5.63972E-04 9.27692E-04
 -1      3749-4.87077E-02-1.06191E-03-1.06694E-03
 -1      3750-4.87075E-02-5.61994E-04-9.30739E-04
 -1      3751-2.20970E-02-1.06627E-03-1.06558E-03
 -1      3752-2.06964E-02-9.27469E-04-5.66118E-04
 -1      3753-2.06964E-02-1.06592E-03-1.06550E-03
 -1      3754-2.06965E-02-5.65757E-04-9.29893E-04
 -1      3755-1.92958E-02-1.06600E-03-1.06669E-03
 -1      3756-4.73071E-02-1.06200E-03-1.06687E-03
 -1      3757-4.73072E-02 1.06685E-03 1.06306E-03
 -1      3758-3.33015E-02-1.06290E-03-1.06617E-03
 -1      3759-3.19009E-02-9.26646E-04-5.66991E-04
 -1      3760-2.62969E-02 1.07452E-03-1.06527E-03
 -1      3761-2.48963E-02 1.07442E-03-1.06520E-03
 -1      3762-2.62971E-02 5.73421E-04-9.31512E-04
 -1      3763-2.62995E-02 9.28728E-04-5.67546E-04
 -1      3764-3.61000E-02-1.06326E-03 1.07046E-03
 -1      3765-3.74982E-02-1.07056E-03 1.07039E-03
 -1      3766-3.74958E-02-9.28527E-04 5.72030E-04
 -1      3767-3.74958E-02-5.72124E-04 9.28613E-04
 -1      3768-3.18946E-02-1.06634E-03-1.06610E-03
 -1      3769-3.18947E-02-5.66023E-04-9.30776E-04
 -1      3770-3.89024E-02 1.07247E-03-1.06701E-03
 -1      3771-3.75032E-02 5.72894E-04-9.31631E-04
 -1      3772-3.61020E-02 1.07303E-03-1.06820E-03
 -1      3773-3.74976E-02 9.31052E-04-5.70092E-04
 -1      3774-5.46957E-02 1.77419E-04 3.24311E-04
 -1      3775-5.68035E-02 1.85315E-04 3.36517E-04
 -1      3776-3.75071E-02 1.07239E-03-1.06827E-03
 -1      3777-6.86510E-02-6.00974E-04 9.65256E-04
 -1      3778-6.86510E-02-9.64758E-04 6.01288E-04
 -1      3779-6.83152E-02-1.06120E-03 1.06146E-03
 -1      3780-6.66001E-02-6.44273E-04 1.00851E-03
 -1      3781-6.66001E-02-1.00806E-03 6.44537E-04
 -1      3782-4.17023E-02 1.07485E-03-1.06958E-03
 -1      3783-4.30935E-02 9.30315E-04-5.70661E-04
 -1      3784-8.65291E-02 1.07189E-03-1.06831E-03
 -1      3785-4.31008E-02 1.07450E-03-1.06965E-03
 -1      3786-4.31033E-02 5.73914E-04-9.31099E-04
 -1      3787-5.27336E-03 1.07280E-03 1.06522E-03
 -1      3788-6.80109E-03 5.98462E-04 9.70067E-04
 -1      3789-3.19953E-03-5.58894E-04-9.27728E-04
 -1      3790-3.20501E-03-9.29745E-04-5.56968E-04
 -1      3791-3.87150E-03-1.01631E-03-1.01004E-03
 -1      3792-5.24665E-03-5.76548E-04-9.54743E-04
 -1      3793-5.24680E-03-9.51549E-04-5.76983E-04
 -1      3794-3.71693E-02 6.09185E-04 9.66571E-04
 -1      3795-3.71682E-02 9.70724E-04 6.10169E-04
 -1      3796-3.74999E-02 1.06864E-03 1.07093E-03
 -1      3797-3.92120E-02 6.52329E-04 1.00988E-03
 -1      3798-3.92109E-02 1.01387E-03 6.53475E-04
 -1      3799-3.71770E-02-6.06361E-04-9.69111E-04
 -1      3800-3.71684E-02-9.66800E-04-6.07754E-04
 -1      3801-3.75096E-02-1.06616E-03-1.06881E-03
 -1      3802-3.92249E-02-6.49335E-04-1.01252E-03
 -1      3803-3.92163E-02-1.00977E-03-6.51162E-04
 -1      3804-8.65080E-02-1.06003E-03 1.06754E-03
 -1      3805-6.83156E-02-5.60765E-04-9.31752E-04
 -1      3806-6.83155E-02-9.24733E-04-5.67968E-04
 -1      3807-6.83155E-02-1.06066E-03-1.06793E-03
 -1      3808-7.00308E-02-6.43541E-04-1.01477E-03
 -1      3809-7.00306E-02-1.00751E-03-6.50982E-04
 -1      3810-7.00307E-02-5.07615E-04-5.14803E-04
 -1      3811-6.83155E-02 5.68298E-04 9.25819E-04
 -1      3812-6.83157E-02 9.32266E-04 5.62035E-04
 -1      3813-6.83156E-02 1.06819E-03 1.06200E-03
 -1      3814-7.00307E-02 6.51294E-04 1.00866E-03
 -1      3815-7.00308E-02 1.01526E-03 6.44877E-04
 -1      3816-7.00308E-02 5.15368E-04 5.08698E-04
 -1      3817-5.39935E-02-6.01188E-04-9.68929E-04
 -1      3818-5.67271E-02-9.62786E-04-2.54937E-04
 -1      3819-5.46936E-02-9.62956E-04-2.54770E-04
 -1      3820-5.53939E-02-9.62822E-04-6.05215E-04
 -1      3821-5.39933E-02-9.62912E-04-6.05144E-04
 -1      3822-6.70045E-03 1.08549E-03 1.08421E-03
 -1      3823-6.81611E-03 9.67787E-04 5.99360E-04
 -1      3824-2.80141E-02-1.01066E-03 6.46608E-04
 -1      3825-2.80141E-02-6.46874E-04 1.01058E-03
 -1      3826-2.80138E-02-5.10742E-04 5.10729E-04
 -1      3827-3.01859E-02 1.01271E-03 6.46881E-04
 -1      3828-3.01857E-02 6.48741E-04 1.01067E-03
 -1      3829-3.01858E-02 5.12815E-04 5.10702E-04
 -1      3830-8.19364E-02-9.61458E-04-2.55772E-04
 -1      3831-7.99029E-02-9.61632E-04-2.55713E-04
 -1      3832-8.19364E-02 2.56270E-04 9.62573E-04
 -1      3833-7.99030E-02 2.56183E-04 9.62719E-04
 -1      3834-1.54107E-02-6.02384E-04-9.66554E-04
 -1      3835-1.33723E-02-6.03267E-04-9.68401E-04
 -1      3836-1.47070E-02-9.66608E-04-2.51191E-04
 -1      3837-1.54089E-02-9.66270E-04-6.04953E-04
 -1      3838-1.26682E-02-9.68214E-04-2.52485E-04
 -1      3839-6.69146E-02-1.06129E-03 1.06153E-03
 -1      3840-6.55141E-02-1.06138E-03 1.06160E-03
 -1      3841-6.51996E-02-6.44363E-04 1.00858E-03
 -1      3842-6.51995E-02-1.00815E-03 6.44607E-04
 -1      3843-7.11168E-02 1.06837E-03 1.06186E-03
 -1      3844-6.97162E-02 1.06828E-03 1.06193E-03
 -1      3845-7.14314E-02 1.01535E-03 6.44806E-04
 -1      3846-7.14313E-02 6.51383E-04 1.00859E-03
 -1      3847-6.97161E-02-1.06057E-03-1.06800E-03
 -1      3848-7.14313E-02-6.43451E-04-1.01484E-03
 -1      3849-7.11166E-02-1.06048E-03-1.06807E-03
 -1      3850-7.14312E-02-1.00742E-03-6.51053E-04
 -1      3851-2.90999E-02 1.06568E-03 1.06397E-03
 -1      3852-3.05005E-02 1.06577E-03 1.06390E-03
 -1      3853-2.87853E-02 1.01262E-03 6.46951E-04
 -1      3854-2.87852E-02 6.48651E-04 1.01074E-03
 -1      3855-2.76989E-02-1.06380E-03 1.06350E-03
 -1      3856-2.90995E-02-1.06371E-03 1.06343E-03
 -1      3857-2.94146E-02-1.01057E-03 6.46538E-04
 -1      3858-2.94146E-02-6.46785E-04 1.01051E-03
 -1      3859-2.80136E-02 1.01224E-03-6.49302E-04
 -1      3860-2.80113E-02 6.56934E-04-1.01327E-03
 -1      3861-2.80139E-02 5.11146E-04-5.15541E-04
 -1      3862-3.01814E-02-1.01015E-03-6.48792E-04
 -1      3863-3.01752E-02-6.49530E-04-1.01258E-03
 -1      3864-3.01815E-02-5.09838E-04-5.13468E-04
 -1      3865-2.76954E-02 1.07408E-03-1.06535E-03
 -1      3866-2.94098E-02 6.56501E-04-1.01334E-03
 -1      3867-3.04940E-02-1.06643E-03-1.06603E-03
 -1      3868-2.87808E-02-1.01024E-03-6.48721E-04
 -1      3869-4.48136E-02 1.01398E-03-6.52730E-04
 -1      3870-4.48233E-02 6.57575E-04-1.01317E-03
 -1      3871-4.48160E-02 5.13389E-04-5.14179E-04
 -1      3872-4.59070E-02 1.06730E-03-1.06626E-03
 -1      3873-4.44990E-02 1.06721E-03-1.06972E-03
 -1      3874-4.62216E-02 6.50281E-04-1.01324E-03
 -1      3875-4.62216E-02 1.01406E-03-6.49272E-04
 -1      3876-2.90959E-02 1.07417E-03-1.06542E-03
 -1      3877-2.94142E-02 1.01233E-03-6.49373E-04
 -1      3878-4.30958E-02-9.26795E-04 5.68619E-04
 -1      3879-4.30958E-02-5.68636E-04 9.26959E-04
 -1      3880-4.30960E-02-1.06844E-03 1.06835E-03
 -1      3881-4.48153E-02-1.00961E-03 6.51411E-04
 -1      3882-4.48153E-02-6.51447E-04 1.00975E-03
 -1      3883-4.48152E-02-5.09800E-04 5.10017E-04
 -1      3884-3.88984E-02 1.06873E-03 1.07130E-03
 -1      3885-4.06094E-02 1.01396E-03 6.53839E-04
 -1      3886-1.47102E-02 2.52061E-04 9.66396E-04
 -1      3887-5.46956E-02 2.57740E-04 9.59371E-04
 -1      3888-5.68034E-02 2.65635E-04 9.71577E-04
 -1      3889-4.02937E-02 1.06750E-03 1.07123E-03
 -1      3890-4.06073E-02 6.51091E-04 1.00981E-03
 -1      3891-3.89048E-02-1.06607E-03-1.06755E-03
 -1      3892-4.06115E-02-1.00968E-03-6.49905E-04
 -1      3893-4.59054E-02-1.06540E-03 1.06535E-03
 -1      3894-4.45007E-02-1.06835E-03 1.06542E-03
 -1      3895-4.62200E-02-1.00951E-03 6.48483E-04
 -1      3896-4.62201E-02-6.48499E-04 1.00968E-03
 -1      3897-2.90924E-02-1.06520E-03-1.06596E-03
 -1      3898-2.87736E-02-6.48307E-04-1.01251E-03
 -1      3899-6.86514E-02 4.72262E-04-4.26148E-05
 -1      3900-6.90160E-02 9.32400E-04 2.11590E-04
 -1      3901-6.90157E-02 2.17933E-04 9.25695E-04
 -1      3902-6.90157E-02-9.24777E-04-2.17594E-04
 -1      3903-6.86514E-02 4.36568E-05-4.71437E-04
 -1      3904-6.90160E-02-2.10310E-04-9.31699E-04
 -1      3905-1.26685E-02 2.52473E-04 9.68960E-04
 -1      3906-5.57491E-02 1.07453E-03-1.06676E-03
 -1      3907-5.42722E-02 1.07444E-03-1.06668E-03
 -1      3908-5.41472E-02 5.88842E-04-9.46389E-04
 -1      3909-5.41854E-02 9.46022E-04-5.82425E-04
 -1      3910-5.56240E-02 5.88936E-04-9.46464E-04
 -1      3911-6.09767E-02-9.65249E-04 6.01674E-04
 -1      3912-5.90626E-02-9.90717E-04 6.27623E-04
 -1      3913-1.59217E-02 2.30593E-04-9.43775E-04
 -1      3914-1.69360E-02 5.27275E-04-5.27846E-04
 -1      3915-5.04438E-02-9.65928E-04 6.02208E-04
 -1      3916-5.24638E-02-1.03447E-03 6.58640E-04
 -1      3917-4.34369E-02-3.88732E-05-4.70963E-04
 -1      3918-4.38011E-02 2.16164E-04-9.31225E-04
 -1      3919-6.09767E-02-6.01465E-04 9.65642E-04
 -1      3920-5.90626E-02-6.26933E-04 9.91591E-04
 -1      3921-4.34326E-02 4.22117E-05 4.66597E-04
 -1      3922-4.37978E-02-2.13876E-04 9.27014E-04
 -1      3923-5.04438E-02-6.03410E-04 9.66176E-04
 -1      3924-5.24638E-02-6.71951E-04 1.02261E-03
 -1      3925-4.03043E-02-1.06355E-03-1.06762E-03
 -1      3926-4.06244E-02-6.46817E-04-1.01259E-03
 -1      3927-4.34328E-02 4.70571E-04 3.69299E-05
 -1      3928-4.37982E-02 9.30270E-04-2.15437E-04
 -1      3929-1.59217E-02 9.44711E-04-2.29294E-04
 -1      3930-5.79405E-02 2.42640E-04-9.26547E-04
 -1      3931-5.89554E-02 5.39865E-04-5.09501E-04
 -1      3932-4.34367E-02-4.67232E-04-4.12954E-05
 -1      3933-4.37977E-02-9.26660E-04 2.13869E-04
 -1      3934-5.29472E-03-1.06521E-03-1.06938E-03
 -1      3935-6.71660E-03-9.55295E-04-5.85157E-04
 -1      3936-8.93885E-02-1.05527E-03-1.07098E-03
 -1      3937-8.78899E-02-9.27642E-04-5.76816E-04
 -1      3938-6.72818E-03-1.08940E-03-1.08167E-03
 -1      3939-6.72129E-03-5.91367E-04-9.58184E-04
 -1      3940-8.39639E-03-9.77365E-04 6.15118E-04
 -1      3941-1.03386E-02-9.98810E-04 6.36787E-04
 -1      3942-8.79148E-02-1.06640E-03-1.07091E-03
 -1      3943-8.78697E-02-5.70669E-04-9.38614E-04
 -1      3944-2.87139E-02 1.01220E-03-2.98928E-04
 -1      3945-2.69997E-02 9.28685E-04-2.17174E-04
 -1      3946-2.73852E-02 5.11613E-04 7.99646E-05
 -1      3947-2.80851E-02 1.01266E-03 2.96577E-04
 -1      3948-2.90993E-02 5.95124E-04-1.78939E-06
 -1      3949-7.67189E-02-1.06012E-03-1.06835E-03
 -1      3950-7.67190E-02 1.06873E-03 1.06158E-03
 -1      3951-3.01144E-02 1.01229E-03-2.98999E-04
 -1      3952-3.08146E-02 5.12348E-04-8.48035E-05
 -1      3953-3.12009E-02 9.29978E-04 2.13493E-04
 -1      3954-2.94857E-02 1.01275E-03 2.96507E-04
 -1      3955-2.94811E-02-1.01029E-03-2.98347E-04
 -1      3956-3.12006E-02-9.26779E-04-2.16546E-04
 -1      3957-3.08154E-02-5.09988E-04 8.09726E-05
 -1      3958-3.01150E-02-1.01044E-03 2.96093E-04
 -1      3959-2.90959E-02-5.93494E-04-8.28257E-07
 -1      3960-2.69985E-02-2.13519E-04 9.27746E-04
 -1      3961-2.73842E-02 8.38747E-05 5.10781E-04
 -1      3962-2.80848E-02 2.98196E-04 1.01068E-03
 -1      3963-2.87144E-02-2.96420E-04 1.01063E-03
 -1      3964-2.91002E-02 9.73728E-07 5.93664E-04
 -1      3965-2.94854E-02 2.98287E-04 1.01061E-03
 -1      3966-3.12006E-02 2.15511E-04 9.27598E-04
 -1      3967-3.01150E-02-2.96331E-04 1.01056E-03
 -1      3968-3.08154E-02-8.18023E-05 5.10650E-04
 -1      3969-2.80805E-02-1.01038E-03-2.98276E-04
 -1      3970-2.73799E-02-5.10592E-04-8.37107E-05
 -1      3971-2.69984E-02-9.27623E-04 2.13281E-04
 -1      3972-2.87144E-02-1.01053E-03 2.96164E-04
 -1      3973-8.39087E-03-6.14816E-04 9.82101E-04
 -1      3974-1.03329E-02-6.38473E-04 1.00150E-03
 -1      3975-3.11955E-02-2.09397E-04-9.30650E-04
 -1      3976-3.08145E-02 8.41631E-05-5.14481E-04
 -1      3977-3.01090E-02 3.01097E-04-1.01346E-03
 -1      3978-2.94760E-02-2.92904E-04-1.01245E-03
 -1      3979-2.90950E-02 6.56052E-07-5.96282E-04
 -1      3980-5.45647E-02-1.03425E-03 3.08124E-04
 -1      3981-8.21710E-02-9.89327E-04 2.75709E-04
 -1      3982-8.21710E-02-2.75222E-04 9.90176E-04
 -1      3983-8.31871E-02-2.31647E-05 5.27778E-04
 -1      3984-2.86999E-02 3.01867E-04-1.01339E-03
 -1      3985-2.69857E-02 2.18356E-04-9.31637E-04
 -1      3986-2.80668E-02-2.92133E-04-1.01238E-03
 -1      3987-2.73809E-02-8.28545E-05-5.14527E-04
 -1      3988-8.65083E-02-1.06649E-03-1.06885E-03
 -1      3989-8.10539E-03-1.08745E-03-1.07968E-03
 -1      3990-8.37222E-02 1.06972E-03-1.06817E-03
 -1      3991-1.49368E-02-9.91912E-04 2.80611E-04
 -1      3992-1.64950E-02 1.06554E-03-1.06616E-03
 -1      3993-1.66219E-02 9.44809E-04-5.80984E-04
 -1      3994-1.78840E-02 1.07160E-03-1.06611E-03
 -1      3995-1.66103E-02 5.87131E-04-9.43679E-04
 -1      3996-7.81199E-02 1.06936E-03-1.06789E-03
 -1      3997-5.79405E-02 9.56747E-04-2.12081E-04
 -1      3998-8.85029E-02 5.27667E-04 2.17502E-04
 -1      3999-1.49398E-02-2.77689E-04 9.94015E-04
 -1      4000-5.99126E-02 1.06819E-03-1.06697E-03
 -1      4001-5.86409E-02 9.56880E-04-5.62525E-04
 -1      4002-5.86409E-02 5.93096E-04-9.26494E-04
 -1      4003-6.02271E-02 6.51178E-04-1.01395E-03
 -1      4004-6.02271E-02 1.01496E-03-6.49977E-04
 -1      4005-1.08831E-02 1.07526E-03-1.07252E-03
 -1      4006-1.66221E-02 2.30411E-04-2.29453E-04
 -1      4007-1.11641E-03-6.57449E-05-2.00126E-04
 -1      4008-6.51502E-02 3.07025E-04-1.02022E-03
 -1      4009-6.47856E-02 5.60993E-04-5.59959E-04
 -1      4010-6.37496E-02 2.57826E-04-9.71065E-04
 -1      4011-6.48681E-02-2.93462E-04-1.01442E-03
 -1      4012-6.45035E-02-3.94948E-05-5.54157E-04
 -1      4013-6.59041E-02 9.70425E-06-6.03312E-04
 -1      4014-9.14657E-02 1.01344E-03 6.31460E-04
 -1      4015-9.00659E-02 9.68278E-04 6.95581E-04
 -1      4016-6.97161E-02 2.18159E-04 2.11374E-04
 -1      4017-6.97161E-02-2.10446E-04-2.17448E-04
 -1      4018-5.86407E-02 2.42506E-04-2.12297E-04
 -1      4019-4.45011E-02-2.12198E-04 2.12824E-04
 -1      4020-4.45013E-02 2.16161E-04-2.16843E-04
 -1      4021-5.85502E-02 1.07471E-03-1.06690E-03
 -1      4022-5.72784E-02 5.99615E-04-9.26424E-04
 -1      4023-1.82096E-02 1.01173E-03-6.50303E-04
 -1      4024-1.81980E-02 6.54069E-04-1.01298E-03
 -1      4025-6.37496E-02 9.71931E-04-2.56599E-04
 -1      4026-6.51502E-02 1.02113E-03-3.05753E-04
 -1      4027-6.47606E-02 1.01501E-03 2.94732E-04
 -1      4028-6.57966E-02 6.04075E-04-8.62773E-06
 -1      4029-6.43960E-02 5.54875E-04 4.05272E-05
 -1      4030-5.71496E-02 1.07462E-03-1.06683E-03
 -1      4031-5.72403E-02 9.56791E-04-5.62455E-04
 -1      4032-8.33370E-02 2.56360E-04 9.62503E-04
 -1      4033-5.28717E-02 1.07435E-03-1.06661E-03
 -1      4034-8.09468E-03 1.08312E-03 1.08199E-03
 -1      4035-6.65508E-02 1.02122E-03-3.05824E-04
 -1      4036-6.72509E-02 5.21282E-04-9.16288E-05
 -1      4037-6.76155E-02 9.32310E-04 2.11661E-04
 -1      4038-6.61611E-02 1.01510E-03 2.94662E-04
 -1      4039-2.94140E-02 2.97723E-04-2.98911E-04
 -1      4040-2.76998E-02 2.14212E-04-2.17157E-04
 -1      4041-2.87852E-02 2.98190E-04 2.96594E-04
 -1      4042-2.87809E-02-2.96278E-04-2.97898E-04
 -1      4043-3.05004E-02-2.12771E-04-2.16097E-04
 -1      4044-2.94148E-02-2.96428E-04 2.96542E-04
 -1      4045-3.05005E-02 2.15414E-04 2.13580E-04
 -1      4046-2.76989E-02-2.13526E-04 2.13659E-04
 -1      4047-6.37992E-02-5.08165E-04 8.00381E-05
 -1      4048-6.44993E-02-1.00810E-03 2.94233E-04
 -1      4049-6.34135E-02-9.25136E-04-2.17312E-04
 -1      4050-6.41676E-02-5.07990E-04-5.14508E-04
 -1      4051-6.48678E-02-1.00793E-03-3.00313E-04
 -1      4052-5.43099E-02-1.06380E-03-1.06723E-03
 -1      4053-5.71107E-02-1.06453E-03 1.06202E-03
 -1      4054-4.13085E-02 2.96564E-04 1.00968E-03
 -1      4055-4.20093E-02 8.52812E-05 5.09821E-04
 -1      4056-4.23948E-02-2.15706E-04 9.27084E-04
 -1      4057-4.09438E-02-2.99005E-04 1.01032E-03
 -1      4058-4.16446E-02-5.10288E-04 5.10463E-04
 -1      4059-4.20136E-02-5.09968E-04-8.38232E-05
 -1      4060-4.13127E-02-1.00973E-03-2.95369E-04
 -1      4061-4.23948E-02-9.26750E-04 2.15679E-04
 -1      4062-4.09437E-02-1.01005E-03 2.98917E-04
 -1      4063-1.50923E-02-1.06454E-03-1.06777E-03
 -1      4064-6.65507E-02 3.07115E-04-1.02029E-03
 -1      4065-6.62686E-02-2.93372E-04-1.01449E-03
 -1      4066-6.76154E-02-2.10400E-04-9.31628E-04
 -1      4067-6.72509E-02 9.26764E-05-5.20451E-04
 -1      4068-6.30492E-02 4.32979E-05-4.71155E-04
 -1      4069-6.34137E-02-2.10669E-04-9.31417E-04
 -1      4070-5.58398E-02 9.56701E-04-5.62384E-04
 -1      4071-6.44993E-02-2.93998E-04 1.00870E-03
 -1      4072-6.37992E-02-7.95592E-05 5.08861E-04
 -1      4073-6.34135E-02 2.17574E-04 9.25977E-04
 -1      4074-6.47603E-02 3.00546E-04 1.00884E-03
 -1      4075-6.40602E-02 5.14985E-04 5.08998E-04
 -1      4076-6.68612E-02 6.51091E-04 1.00882E-03
 -1      4077-6.68614E-02 1.01506E-03 6.45036E-04
 -1      4078-6.61610E-02 1.01492E-03 1.00895E-03
 -1      4079-6.41676E-02-1.00788E-03-6.50687E-04
 -1      4080-6.41677E-02-6.43916E-04-1.01447E-03
 -1      4081-6.48679E-02-1.00775E-03-1.01460E-03
 -1      4082-8.40375E-02 9.70782E-04 5.98772E-04
 -1      4083-8.58036E-02 1.01618E-03 6.43990E-04
 -1      4084-8.40374E-02 6.06814E-04 9.62556E-04
 -1      4085-8.58034E-02 6.52211E-04 1.00777E-03
 -1      4086-6.54608E-02 1.01497E-03 6.45107E-04
 -1      4087-6.54607E-02 6.51001E-04 1.00889E-03
 -1      4088-6.55681E-02-1.00779E-03-6.50758E-04
 -1      4089-6.55683E-02-6.43827E-04-1.01454E-03
 -1      4090-5.81278E-02-9.62515E-04-9.69293E-04
 -1      4091-7.85025E-02-9.61541E-04-9.69928E-04
 -1      4092-7.85026E-02 9.70379E-04 9.62970E-04
 -1      4093-5.32931E-02-9.62865E-04-9.68985E-04
 -1      4094-8.33371E-02-9.61188E-04-9.70128E-04
 -1      4095-8.51224E-02 1.06927E-03 1.06115E-03
 -1      4096-8.33372E-02 9.70645E-04 9.62684E-04
 -1      4097-1.61107E-02-9.66072E-04-9.66621E-04
 -1      4098-4.16448E-02-1.01009E-03 6.51856E-04
 -1      4099-4.16448E-02-6.51936E-04 1.01020E-03
 -1      4100-4.09490E-02-1.01023E-03 1.01014E-03
 -1      4101-2.66634E-02 9.69417E-04 2.53472E-04
 -1      4102-2.70488E-02 5.52345E-04 5.50611E-04
 -1      4103-4.02444E-02-1.01018E-03 6.54118E-04
 -1      4104-4.02444E-02-6.54216E-04 1.01027E-03
 -1      4105-1.61110E-02 9.66340E-04 9.66247E-04
 -1      4106-1.12728E-02-9.70659E-04-9.71583E-04
 -1      4107-2.03329E-02 9.69282E-04-2.54251E-04
 -1      4108-1.99465E-02 5.51837E-04-5.52772E-04
 -1      4109-6.23490E-02 2.57736E-04-9.70995E-04
 -1      4110-6.19633E-02 5.54870E-04-5.53878E-04
 -1      4111-7.35535E-02 9.72430E-04 2.51122E-04
 -1      4112-7.31676E-02 5.55309E-04 5.48300E-04
 -1      4113-7.35532E-02 2.57964E-04 9.65227E-04
 -1      4114-7.35531E-02-9.64226E-04-2.57582E-04
 -1      4115-7.31676E-02-5.47154E-04-5.54721E-04
 -1      4116-7.35534E-02-2.49760E-04-9.71687E-04
 -1      4117-6.30776E-02-9.65026E-04 2.51159E-04
 -1      4118-6.34633E-02-5.48055E-04 5.48509E-04
 -1      4119-6.23491E-02 9.71841E-04-2.56528E-04
 -1      4120-6.30492E-02 4.71903E-04-4.23329E-05
 -1      4121-6.30777E-02-2.50921E-04 9.65625E-04
 -1      4122-3.15362E-02-9.67047E-04 2.52746E-04
 -1      4123-3.11511E-02-5.50255E-04 5.50265E-04
 -1      4124-3.15376E-02 9.70153E-04-2.54726E-04
 -1      4125-3.11513E-02 5.52523E-04-5.53022E-04
 -1      4126-6.58503E-02 3.06889E-04-3.05970E-04
 -1      4127-6.44497E-02 2.57690E-04-2.56815E-04
 -1      4128-2.66575E-02-9.67719E-04-2.56310E-04
 -1      4129-2.70390E-02-5.50688E-04-5.53302E-04
 -1      4130-2.66631E-02 2.54951E-04 9.67577E-04
 -1      4131-3.15363E-02-2.52942E-04 9.67213E-04
 -1      4132-6.79513E-02 9.72200E-04-2.56810E-04
 -1      4133-6.75867E-02 5.61172E-04-5.60100E-04
 -1      4134-6.79513E-02 2.58096E-04-9.71277E-04
 -1      4135-4.83435E-02 2.56843E-04-9.70294E-04
 -1      4136-4.79578E-02 5.53977E-04-5.53178E-04
 -1      4137-4.83430E-02-2.51869E-04 9.66371E-04
 -1      4138-4.79569E-02-5.49204E-04 5.49445E-04
 -1      4139-7.71278E-03 9.84773E-04-9.74699E-04
 -1      4140-4.83435E-02 9.70949E-04-2.55828E-04
 -1      4141-4.83430E-02-9.65974E-04 2.51904E-04
 -1      4142-9.49310E-03-1.07836E-03 1.07373E-03
 -1      4143-7.71075E-03-9.78667E-04 9.83308E-04
 -1      4144-2.03329E-02 2.56607E-04-9.68681E-04
 -1      4145-3.64702E-02 9.70589E-04 9.66697E-04
 -1      4146-7.49538E-02-9.63956E-04-9.71939E-04
 -1      4147-7.49539E-02 9.72339E-04 9.65338E-04
 -1      4148-6.93520E-02 9.72471E-04-9.71166E-04
 -1      4149-6.55149E-02 1.06855E-03-1.06725E-03
 -1      4150-6.37497E-02 9.72112E-04-9.70884E-04
 -1      4151-6.44500E-02 9.72065E-04-6.07043E-04
 -1      4152-6.44499E-02 6.08281E-04-9.71012E-04
 -1      4153-6.93512E-02-9.64805E-04 9.65129E-04
 -1      4154-5.99118E-02-1.06174E-03 1.06188E-03
 -1      4155-6.16769E-02-9.65297E-04 9.65515E-04
 -1      4156-2.17322E-02-9.67838E-04 9.67507E-04
 -1      4157-4.97442E-02 9.71219E-04-9.70184E-04
 -1      4158-2.52627E-02 9.69142E-04 9.67824E-04
 -1      4159-3.29367E-02-9.67138E-04 9.66961E-04
 -1      4160-4.27317E-02 2.53495E-04 9.66456E-04
 -1      4161-4.23463E-02 5.54482E-04 5.49194E-04
 -1      4162-5.15085E-02-1.06354E-03 1.06230E-03
 -1      4163-4.97434E-02-9.66065E-04 9.66120E-04
 -1      4164-4.02952E-02-1.07081E-03 1.07068E-03
 -1      4165-3.15322E-02 2.58963E-04-9.69191E-04
 -1      4166-3.64693E-02-9.66754E-04-9.69167E-04
 -1      4167-4.27320E-02 9.71022E-04 2.55413E-04
 -1      4168-4.27358E-02-9.66993E-04-2.52841E-04
 -1      4169-4.23547E-02-5.50211E-04-5.52344E-04
 -1      4170-1.12702E-02 9.70173E-04 9.71590E-04
 -1      4171-2.66438E-02-2.49477E-04-9.70413E-04
 -1      4172-4.27554E-02-2.48624E-04-9.70007E-04
 -1      4173-3.29383E-02 9.70423E-04-9.69082E-04
 -1      4174-2.17335E-02 9.69579E-04-9.68597E-04
 -1      4175-4.41419E-02-9.66722E-04-9.70259E-04
 -1      4176-2.52570E-02-9.67623E-04-9.70520E-04
 -1      4177-4.41378E-02 9.70932E-04 9.66567E-04
 -1      4178-7.42535E-02-9.64093E-04-6.08027E-04
 -1      4179-7.42536E-02-6.00124E-04-9.71811E-04
 -1      4180-7.42535E-02 6.08418E-04 9.65281E-04
 -1      4181-6.30494E-02 9.71975E-04-6.06973E-04
 -1      4182-7.42537E-02 9.72387E-04 6.01496E-04
 -1      4183-6.30494E-02 6.08191E-04-9.70941E-04
 -1      4184-6.86516E-02 6.08550E-04-9.71223E-04
 -1      4185-6.86516E-02 9.72334E-04-6.07255E-04
 -1      4186-6.23773E-02-9.65160E-04 6.01603E-04
 -1      4187-6.23773E-02-6.01376E-04 9.65572E-04
 -1      4188-4.90438E-02 9.71082E-04-6.06272E-04
 -1      4189-4.90438E-02 6.07298E-04-9.70241E-04
 -1      4190-2.59630E-02 9.69282E-04 6.03915E-04
 -1      4191-2.59629E-02 6.05313E-04 9.67699E-04
 -1      4192-3.22365E-02-6.03306E-04 9.67089E-04
 -1      4193-3.22365E-02-9.67091E-04 6.03120E-04
 -1      4194-4.90432E-02-9.66018E-04 6.02279E-04
 -1      4195-2.10332E-02 9.69432E-04-6.04683E-04
 -1      4196-3.22380E-02 9.70286E-04-6.05171E-04
 -1      4197-4.90432E-02-6.02234E-04 9.66247E-04
 -1      4198-4.34427E-02-6.05319E-04-9.70132E-04
 -1      4199-6.55145E-02 1.06801E-03 1.06214E-03
 -1      4200-6.55144E-02-1.06084E-03-1.06779E-03
 -1      4201-6.34138E-02 9.32041E-04 2.11872E-04
 -1      4202-4.34331E-02 9.70977E-04 6.08353E-04
 -1      4203-2.59573E-02-9.67673E-04-6.06682E-04
 -1      4204-3.22334E-02 6.12128E-04-9.69137E-04
 -1      4205-2.59574E-02-6.05949E-04-9.70467E-04
 -1      4206-2.10268E-02 6.12592E-04-9.68642E-04
 -1      4207-4.34301E-02 6.10539E-04 9.66511E-04
 -1      4208-4.34341E-02-9.66858E-04-6.09876E-04
 -1      4209-2.62988E-02-1.02836E-07-2.96991E-06
 -1      4210-2.73579E-02-2.53622E-04-2.55933E-04
 -1      4211-2.06966E-02 9.80804E-07-1.15436E-06
 -1      4212-7.39178E-02 4.12544E-06-3.24841E-06
 -1      4213-7.28530E-02 2.58100E-04 2.50977E-04
 -1      4214-7.28530E-02-2.49985E-04-2.57366E-04
 -1      4215-6.27133E-02 3.40772E-06-2.68463E-06
 -1      4216-6.41139E-02-2.10805E-04-2.17166E-04
 -1      4217-6.41139E-02 2.17800E-04 2.11656E-04
 -1      4218-6.37781E-02-2.50695E-04 2.51304E-04
 -1      4219-6.16486E-02 2.57511E-04-2.56674E-04
 -1      4220-6.83156E-02 3.76658E-06-2.96652E-06
 -1      4221-6.72509E-02 2.57870E-04-2.56956E-04
 -1      4222-1.96326E-02 2.54979E-04-2.54386E-04
 -1      4223-2.73635E-02 2.54945E-04 2.53490E-04
 -1      4224-4.87077E-02 2.56333E-06-1.92713E-06
 -1      4225-4.76431E-02 2.56749E-04-2.55842E-04
 -1      4226-4.76429E-02-2.51602E-04 2.52252E-04
 -1      4227-7.39178E-02-1.06030E-03-1.06821E-03
 -1      4228-6.27137E-02 1.06837E-03-1.06711E-03
 -1      4229-7.39179E-02 1.06855E-03 1.06172E-03
 -1      4230-6.83160E-02 1.06873E-03-1.06739E-03
 -1      4231-6.27129E-02-1.06156E-03 1.06174E-03
 -1      4232-5.28713E-02 1.07381E-03 1.06278E-03
 -1      4233-2.62988E-02 1.06550E-03 1.06411E-03
 -1      4234-4.87081E-02 1.06748E-03-1.06641E-03
 -1      4235-3.19006E-02-1.06353E-03 1.06329E-03
 -1      4236-3.19010E-02 1.85402E-06-1.98947E-06
 -1      4237-3.08361E-02-2.53039E-04 2.53195E-04
 -1      4238-4.30958E-02 1.37006E-06-2.44243E-06
 -1      4239-4.16903E-02-2.12509E-04 2.12834E-04
 -1      4240-4.20314E-02-2.52752E-04-2.55686E-04
 -1      4241-3.08372E-02 2.55589E-04-2.54639E-04
 -1      4242-4.87073E-02-1.06245E-03 1.06245E-03
 -1      4243-3.18969E-02 1.07203E-03-1.06556E-03
 -1      4244-2.06905E-02 1.07259E-03-1.06497E-03
 -1      4245-4.20273E-02 2.56692E-04 2.52207E-04
 -1      4246-3.74936E-02 7.33740E-07-1.60184E-06
 -1      4247-4.30991E-02-1.06470E-03-1.07019E-03
 -1      4248-4.30936E-02 1.07010E-03 1.06889E-03
 -1      4249-2.62987E-02-1.06559E-03-1.06581E-03
 -1      4250-6.69687E-02-1.00771E-03-6.50828E-04
 -1      4251-6.62685E-02-1.00766E-03-1.01467E-03
 -1      4252-6.69688E-02-6.43737E-04-1.01461E-03
 -1      4253-6.40601E-02 6.50911E-04 1.00896E-03
 -1      4254-6.47605E-02 1.01483E-03 1.00902E-03
 -1      4255-6.40602E-02 1.01488E-03 6.45177E-04
 -1      4256-3.88459E-02-1.01027E-03 6.53754E-04
 -1      4257-3.95484E-02-1.01032E-03 1.01021E-03
 -1      4258-3.88459E-02-6.53872E-04 1.01034E-03
 -1      4259-8.78302E-02 1.01640E-03 2.97508E-04
 -1      4260-8.78871E-02 5.51036E-04 6.46385E-04
 -1      4261-5.82042E-02 9.78620E-04 9.71687E-04
 -1      4262-9.31465E-02-1.16872E-03-1.18091E-03
 -1      4263-9.19907E-02-1.05508E-03-1.18082E-03
 -1      4264-9.25368E-02-9.74639E-04-7.37609E-04
 -1      4265-9.25440E-02-7.20383E-04-9.89721E-04
 -1      4266-9.39376E-02-6.15519E-04-1.17154E-03
 -1      4267-9.34303E-02-7.13138E-04-7.28317E-04
 -1      4268-2.79017E-03 9.10101E-04-1.01813E-03
 -1      4269-1.73431E-03 8.02554E-04-8.05296E-04
 -1      4270-2.04275E-03 5.33621E-04-7.70078E-04
 -1      4271-2.03724E-03 7.74823E-04-5.27852E-04
 -1      4272-1.15790E-02-7.87500E-05 7.80147E-05
 -1      4273-7.88189E-02-7.48851E-05 7.57893E-05
 -1      4274-8.30190E-02-7.46160E-05 7.55779E-05
 -1      4275-1.57917E-02-7.77178E-05 7.78899E-05
 -1      4276-9.19979E-02 1.18195E-03-1.06441E-03
 -1      4277-9.31399E-02 1.18205E-03-1.18031E-03
 -1      4278-9.25830E-02 9.96696E-04-7.42948E-04
 -1      4279-9.25830E-02 7.44584E-04-9.95188E-04
 -1      4280-8.71897E-02 1.01627E-03 6.50914E-04
 -1      4281-8.85922E-02 9.68181E-04 7.06687E-04
 -1      4282-5.36097E-02-7.62859E-05 7.69992E-05
 -1      4283-9.40327E-02-1.16148E-03-9.19505E-04
 -1      4284-9.38951E-02-1.16156E-03-6.35960E-04
 -1      4285-5.78113E-02-7.60168E-05 7.67878E-05
 -1      4286-6.79871E-03 1.32039E-05 1.12171E-05
 -1      4287-9.31532E-02-1.16932E-03 1.16987E-03
 -1      4288-9.19974E-02-1.05567E-03 1.16995E-03
 -1      4289-9.25825E-02-9.90013E-04 7.36515E-04
 -1      4290-9.25825E-02-7.35886E-04 9.90772E-04
 -1      4291-1.73767E-03-7.94584E-04 8.01631E-04
 -1      4292-2.80134E-03-9.11237E-04 1.02052E-03
 -1      4293-2.05914E-03-7.71967E-04 5.41888E-04
 -1      4294-2.05305E-03-5.33225E-04 7.72779E-04
 -1      4295-9.40399E-02-9.07223E-04-1.17162E-03
 -1      4296-1.74506E-03 7.99313E-04 8.09949E-04
 -1      4297-2.79811E-03 9.08384E-04 1.02365E-03
 -1      4298-2.01885E-03 7.75172E-04 5.39738E-04
 -1      4299-2.02752E-03 5.39675E-04 7.76801E-04
 -1      4300-9.20046E-02 1.06554E-03 1.17049E-03
 -1      4301-9.31466E-02 1.18146E-03 1.17046E-03
 -1      4302-9.26143E-02 7.61242E-04 9.99253E-04
 -1      4303-9.26215E-02 1.01348E-03 7.45125E-04
 -1      4304-9.14723E-02 6.45322E-04 9.99281E-04
 -1      4305-8.63003E-04-5.34605E-04 2.25946E-04
 -1      4306-1.16731E-03-3.66965E-04 3.68560E-04
 -1      4307-9.38956E-02 6.37111E-04-1.17122E-03
 -1      4308-9.34764E-02 7.35304E-04-7.33789E-04
 -1      4309-1.72930E-03-7.92739E-04-7.97702E-04
 -1      4310-2.79327E-03-9.10581E-04-1.01662E-03
 -1      4311-2.06706E-03-7.75303E-04-5.34900E-04
 -1      4312-2.06545E-03-5.35921E-04-7.71348E-04
 -1      4313-6.58505E-02 6.57480E-04-1.02017E-03
 -1      4314-6.58505E-02 1.02126E-03-6.56198E-04
 -1      4315-7.55477E-04-4.59671E-04 3.16217E-04
 -1      4316-8.22347E-04-5.19987E-04-2.13989E-04
 -1      4317-1.17681E-03-3.67903E-04-3.74117E-04
 -1      4318-9.40332E-02 1.17277E-03-9.18914E-04
 -1      4319-9.38956E-02 1.17269E-03-6.35368E-04
 -1      4320-9.40332E-02 9.20658E-04-1.17115E-03
 -1      4321-7.39261E-04 2.12251E-04-4.60841E-04
 -1      4322-8.21482E-04-2.10527E-04 5.17134E-04
 -1      4323-7.49378E-04-3.12801E-04 4.54211E-04
 -1      4324-9.40396E-02-1.14093E-03 6.56699E-04
 -1      4325-7.41738E-04 3.12975E-04-4.42599E-04
 -1      4326-1.13904E-03 3.65552E-04-3.63992E-04
 -1      4327-7.48964E-04-4.57228E-04-3.12762E-04
 -1      4328-8.21439E-04-2.10151E-04-5.17322E-04
 -1      4329-7.49919E-04-3.12879E-04-4.54347E-04
 -1      4330-7.21315E-02-1.00728E-03-1.01496E-03
 -1      4331-7.28319E-02-6.43361E-04-1.01491E-03
 -1      4332-7.28317E-02-1.00733E-03-6.51123E-04
 -1      4333-7.28318E-02 6.51473E-04 1.00852E-03
 -1      4334-7.28320E-02 1.01544E-03 6.44736E-04
 -1      4335-7.21316E-02 1.01530E-03 1.00865E-03
 -1      4336-6.37990E-02-6.44452E-04 1.00865E-03
 -1      4337-6.37990E-02-1.00824E-03 6.44678E-04
 -1      4338-6.44992E-02-1.00828E-03 1.00852E-03
 -1      4339-6.09275E-02 1.01510E-03-1.01389E-03
 -1      4340-6.16277E-02 1.01505E-03-6.50047E-04
 -1      4341-6.16277E-02 6.51268E-04-1.01402E-03
 -1      4342-2.73846E-02 6.48560E-04 1.01081E-03
 -1      4343-2.80850E-02 1.01248E-03 1.01086E-03
 -1      4344-2.73848E-02 1.01253E-03 6.47021E-04
 -1      4345-4.69219E-02 1.01420E-03-1.01318E-03
 -1      4346-4.76221E-02 1.01415E-03-6.49342E-04
 -1      4347-4.76221E-02 6.50371E-04-1.01331E-03
 -1      4348-3.01149E-02-1.01062E-03 1.01038E-03
 -1      4349-3.08152E-02-1.01048E-03 6.46468E-04
 -1      4350-3.08152E-02-6.46695E-04 1.01044E-03
 -1      4351-4.76210E-02-6.45640E-04 1.00961E-03
 -1      4352-4.69206E-02-1.00956E-03 1.00955E-03
 -1      4353-4.76210E-02-1.00942E-03 6.45644E-04
 -1      4354-2.73804E-02-6.48607E-04-1.01243E-03
 -1      4355-2.80806E-02-1.01019E-03-1.01256E-03
 -1      4356-2.73803E-02-1.01033E-03-6.48649E-04
 -1      4357-9.40395E-02-1.16194E-03 9.08376E-04
 -1      4358-9.34688E-02-7.28508E-04 7.29282E-04
 -1      4359-3.08102E-02 6.54262E-04-1.01341E-03
 -1      4360-3.01145E-02 1.01247E-03-1.01328E-03
 -1      4361-3.08148E-02 1.01242E-03-6.49443E-04
 -1      4362-4.20196E-02-6.48055E-04-1.01266E-03
 -1      4363-4.20110E-02-1.00959E-03-6.52404E-04
 -1      4364-4.13182E-02-1.00955E-03-1.01272E-03
 -1      4365-8.35714E-02-9.89418E-04 9.89925E-04
 -1      4366-1.96102E-02 1.01182E-03-6.49095E-04
 -1      4367-1.96039E-02 6.54992E-04-1.01305E-03
 -1      4368-1.89100E-02 1.01189E-03-1.01294E-03
 -1      4369-5.83622E-02-9.90854E-04 9.91534E-04
 -1      4370-7.82674E-02-9.89842E-04 9.90275E-04
 -1      4371-5.31640E-02-1.03452E-03 1.02248E-03
 -1      4372-1.63404E-02-9.91811E-04 9.93565E-04
 -1      4373-8.63114E-04 5.37104E-04 2.25972E-04
 -1      4374-7.55305E-04 4.65559E-04 3.14400E-04
 -1      4375-1.12476E-03 3.65760E-04 3.64404E-04
 -1      4376-9.38952E-02 6.38669E-04 1.16518E-03
 -1      4377-9.40328E-02 9.22216E-04 1.16525E-03
 -1      4378-9.35078E-02 7.54244E-04 7.39909E-04
 -1      4379-7.47540E-04 2.07905E-04 4.75436E-04
 -1      4380-4.13140E-02 1.01391E-03 1.00986E-03
 -1      4381-4.20068E-02 6.53609E-04 1.00974E-03
 -1      4382-4.20098E-02 1.01405E-03 6.51577E-04
 -1      4383-7.35062E-04 4.62610E-04-2.10700E-04
 -1      4384-7.33146E-04 4.42795E-04-3.09798E-04
 -1      4385-1.10405E-02-9.96801E-04 9.99324E-04
 -1      4386-9.40396E-02-6.56366E-04 1.14608E-03
 -1      4387-7.41000E-04 3.17027E-04 4.39458E-04
 -1      4388-6.72511E-02 1.02135E-03-6.56269E-04
 -1      4389-6.72511E-02 6.57570E-04-1.02024E-03
 -1      4390-6.65509E-02 1.02140E-03-1.02011E-03
 -1      4391-9.40396E-02-9.07814E-04 1.16263E-03
 -1      4392-8.77164E-02 1.44172E-04 1.37906E-04
 -1      4393-9.40401E-02 1.17453E-03 6.43567E-04
 -1      4394-9.40400E-02 1.17446E-03 9.11118E-04
 -1      4395-8.79029E-02 2.53434E-04 1.06342E-03
 -1      4396-9.08488E-02 1.06549E-03 1.05682E-03
 -1      4397-9.00725E-02 6.00163E-04 1.06340E-03
 -1      4398-8.72098E-02 6.54288E-04 1.00770E-03
 -1      4399-8.86123E-02 6.06203E-04 1.06348E-03
 -1      4400-8.65038E-02 1.01613E-03 1.00783E-03
 -1      4401-8.93069E-02 9.68136E-04 1.06353E-03
 -1      4402-8.79149E-02 1.07143E-03 1.06801E-03
 -1      4403-8.45424E-02 9.48286E-04-2.32353E-04
 -3
    1PSTEP                         2           1           1          
  100CL  101 0.00000E+00        4403                     4    1           1
 -4  STRESS      6    1
 -5  SXX         1    4    1    1
 -5  SYY         1    4    2    2
 -5  SZZ         1    4    3    3
 -5  SXY         1    4    1    2
 -5  SYZ         1    4    2    3
 -5  SZX         1    4    3    1
 -1         1-2.97067E+02-9.54428E+01-9.51659E+01-5.70676E+01 9.95221E+00 5.71810E+01
 -1         2-2.97128E+02-9.54545E+01-9.52997E+01-5.70875E+01-9.97202E+00-5.72796E+01
 -1         3-2.97839E+02-9.53696E+01-9.53688E+01 5.71656E+01-9.65250E+00 5.65015E+01
 -1         4-2.97985E+02-9.55072E+01-9.54872E+01 5.65267E+01 9.30706E+00-5.66583E+01
 -1         5-1.99998E+02-1.89351E-09 2.71093E-08 1.46468E-08-1.52749E-08-3.51090E-08
 -1         6-1.99998E+02 1.02727E-08 1.11439E-08 5.75976E-08 2.54168E-08 3.96564E-08
 -1         7-1.99998E+02-3.46780E-10 4.57616E-09-2.03409E-07 1.16264E-07-1.57909E-07
 -1         8-1.99998E+02 2.34299E-08-8.35939E-09-3.51592E-08-8.67934E-09 8.11851E-09
 -1         9-2.62715E+02-1.10324E+02-1.11235E+02-7.36337E+01 2.05110E+00-1.88259E+01
 -1        10-2.56239E+02-1.07823E+02-1.08199E+02-7.05564E+01-1.27574E+00-1.59926E+00
 -1        11-2.60982E+02-1.09648E+02-1.10813E+02-7.33518E+01-2.04021E+00 1.92828E+01
 -1        12-2.89882E+02-1.24236E+02-1.24235E+02-7.62448E+01 1.44274E-05-3.43338E+01
 -1        13-2.53806E+02-1.08774E+02-1.08774E+02-7.01075E+01-2.38698E-06-1.04238E+01
 -1        14-2.61506E+02-1.12074E+02-1.12074E+02-7.25223E+01-7.20683E-06 1.06091E+01
 -1        15-2.89551E+02-1.24094E+02-1.24094E+02-7.59962E+01-1.36174E-05 3.46006E+01
 -1        16-2.59121E+02-1.10278E+02-1.09001E+02-1.90040E+01-1.93357E+00 7.37413E+01
 -1        17-2.54722E+02-1.07354E+02-1.07052E+02 1.16156E+00-1.52484E+00 7.15449E+01
 -1        18-2.64606E+02-1.12205E+02-1.12151E+02 2.21129E+01-7.31471E-01 7.15545E+01
 -1        19-2.89890E+02-1.24239E+02-1.24239E+02-3.43191E+01-1.37429E-05 7.65116E+01
 -1        20-2.58590E+02-1.10824E+02-1.10824E+02-1.08704E+01-7.54265E-06 7.34862E+01
 -1        21-2.64279E+02-1.13262E+02-1.13263E+02 1.03857E+01-9.80577E-06 7.17876E+01
 -1        22-2.83288E+02-1.21409E+02-1.21409E+02 3.43918E+01 1.25778E-06 7.23672E+01
 -1        23-2.63908E+02-1.11952E+02-1.11842E+02 7.30458E+01 7.28587E-01-2.16655E+01
 -1        24-2.53772E+02-1.07111E+02-1.07346E+02 7.09716E+01 1.09145E+00-1.51582E+00
 -1        25-2.60275E+02-1.09184E+02-1.10583E+02 7.33890E+01 2.15124E+00 1.90387E+01
 -1        26-2.81999E+02-1.20857E+02-1.20857E+02 7.28432E+01-3.82427E-06-3.41483E+01
 -1        27-2.62865E+02-1.12657E+02-1.12657E+02 7.25854E+01 1.06856E-05-1.02352E+01
 -1        28-2.59171E+02-1.11074E+02-1.11074E+02 7.24382E+01 7.55714E-06 1.05574E+01
 -1        29-2.89488E+02-1.24067E+02-1.24067E+02 7.62130E+01 1.36382E-05 3.43864E+01
 -1        30-2.59525E+02-1.10433E+02-1.09202E+02-1.89669E+01 1.90233E+00-7.38362E+01
 -1        31-2.54240E+02-1.07276E+02-1.06718E+02 1.14963E+00 1.58221E+00-7.12384E+01
 -1        32-2.62849E+02-1.11437E+02-1.11751E+02 2.18175E+01 5.73021E-01-7.22974E+01
 -1        33-2.89892E+02-1.24240E+02-1.24240E+02-3.42614E+01 1.38358E-05-7.65378E+01
 -1        34-2.59593E+02-1.11254E+02-1.11254E+02-1.08228E+01 7.33863E-06-7.35670E+01
 -1        35-2.61581E+02-1.12106E+02-1.12107E+02 1.01381E+01 1.06526E-05-7.16644E+01
 -1        36-2.81992E+02-1.20854E+02-1.20854E+02 3.43064E+01-1.34411E-06-7.26993E+01
 -1        37-1.99998E+02-3.00899E-08-1.03159E-08-8.72106E-09-2.58063E-08-5.30589E-08
 -1        38-1.99998E+02-1.04700E-07 1.98278E-08-1.22753E-07 4.29775E-08 8.85029E-08
 -1        39-1.99998E+02 9.79026E-08-1.08406E-08 1.35538E-07 4.40377E-08 1.10988E-07
 -1        40-1.99998E+02-4.36026E-08 7.22654E-08-1.01216E-07 9.20663E-09 1.69688E-10
 -1        41-1.99998E+02-1.58025E-07-5.80567E-08-1.26221E-07 2.29938E-08 5.21280E-08
 -1        42-1.99998E+02 1.57932E-08-2.20708E-08 2.08054E-08-3.88315E-08-6.45369E-08
 -1        43-1.99998E+02 9.18345E-08 6.38301E-08 9.57525E-08 7.98019E-09 5.38171E-08
 -1        44-1.99998E+02-1.19970E-08-9.07876E-08 1.23245E-07 4.91042E-09 2.96090E-08
 -1        45-1.99998E+02-3.40317E-08-3.87675E-09-1.75387E-08 2.32539E-08-8.77750E-08
 -1        46-1.99998E+02 4.89655E-08-1.44045E-07 6.90771E-08-5.70277E-08-5.43227E-10
 -1        47-1.99998E+02-2.42517E-08 1.34356E-08-5.65812E-08-5.24162E-09-7.38627E-08
 -1        48-1.99998E+02 1.75596E-07-6.26152E-08-1.03426E-07 4.81010E-08 3.07748E-07
 -1        49-1.99998E+02 1.32324E-07-4.78520E-08 4.90672E-08-2.66675E-08 2.61943E-07
 -1        50-1.99998E+02 3.31914E-07-9.07581E-08 2.03009E-09 2.27000E-08 3.09559E-07
 -1        51-1.99998E+02-1.06130E-07 7.34641E-09 1.56465E-08-2.38764E-08 1.04669E-07
 -1        52-1.99998E+02-3.03601E-08-2.46977E-08-1.83507E-08 6.73749E-08-2.02517E-07
 -1        53-1.99998E+02-4.12154E-08 4.41179E-08 6.04742E-08-8.00227E-08 2.72529E-07
 -1        54-1.99998E+02 2.89554E-08 4.09685E-08 6.43193E-09 1.62825E-08-7.79346E-09
 -1        55-1.99998E+02-2.16152E-07 1.23760E-07 3.76065E-07-4.28774E-08 2.10944E-08
 -1        56-1.99998E+02 2.18584E-07-2.07072E-07-5.00755E-07 4.76987E-08 4.45855E-08
 -1        57-1.99998E+02-2.06021E-07 3.06614E-07 4.94893E-07 6.98728E-08-1.17267E-07
 -1        58-1.99998E+02 1.32787E-08 4.92204E-09 2.22499E-08-2.91738E-08 1.24413E-07
 -1        59-1.99998E+02 1.58149E-08-3.13905E-08-1.78272E-07-6.33986E-08 1.44000E-08
 -1        60-1.99998E+02 2.85859E-09-1.01976E-08 1.92619E-08 2.04658E-08-5.56859E-09
 -1        61-1.99998E+02 1.30544E-07 1.10605E-07-4.29671E-08-4.83441E-08 2.44484E-08
 -1        62-1.99998E+02 2.04965E-07 8.21501E-09 4.89117E-09 2.86013E-08-2.48211E-07
 -1        63-1.99998E+02-7.84006E-09 7.06828E-09 2.32591E-08 3.17891E-08-1.78021E-08
 -1        64-1.99998E+02 6.35121E-08-3.53624E-08 1.06943E-08 2.92214E-09-7.43254E-08
 -1        65-1.61144E+02 7.06842E+00 7.24333E+00 5.98727E+00 9.03091E-01 5.11182E+00
 -1        66-1.85611E+02 4.58539E-01 4.75065E-01 7.70893E-01 3.47614E-01 9.02138E-01
 -1        67-1.96105E+02-9.63274E-02-8.50611E-02 1.32076E-01 1.07265E-01 1.50888E-01
 -1        68-1.99289E+02-5.97342E-02-6.33519E-02 6.86274E-02 1.65404E-02 6.90377E-02
 -1        69-2.00015E+02-9.12912E-03-9.12581E-03 1.08076E-03 2.27763E-03-8.04545E-03
 -1        70-2.00042E+02-5.35769E-03-5.98734E-03-4.31904E-03 2.31550E-03-3.96620E-03
 -1        71-2.00018E+02 9.32801E-04 9.11112E-04-6.65985E-04-8.60942E-04-4.95860E-04
 -1        72-2.00003E+02 1.21856E-04 1.63508E-04-9.33785E-05-9.83010E-05-1.47616E-04
 -1        73-1.99999E+02 8.94310E-05 8.13765E-05-6.57923E-05-2.55387E-05-6.27787E-05
 -1        74-1.99998E+02 1.94028E-05 2.03100E-05 1.18678E-06-9.77213E-06 2.11882E-06
 -1        75-1.99998E+02-1.38168E-06-1.31449E-06 5.16669E-06 2.69895E-06 2.96038E-06
 -1        76-1.99998E+02-9.68814E-07-1.29334E-06 8.09857E-07 1.18306E-06 6.11895E-07
 -1        77-1.99998E+02-3.52331E-07-3.20067E-07 5.06923E-07 1.99157E-07 5.00686E-07
 -1        78-1.99998E+02-4.49572E-08-5.55136E-08 2.85115E-08 3.60920E-08-1.41323E-08
 -1        79-1.99998E+02-3.40644E-08-3.40358E-08-3.46982E-09 6.54028E-09 3.20659E-09
 -1        80-1.99998E+02 1.51889E-09 9.72568E-10 4.52531E-10-4.96198E-09 9.32127E-11
 -1        81-1.99998E+02 2.63700E-09 2.52566E-09-1.13538E-10-2.85907E-09 1.88095E-10
 -1        82-1.99998E+02 7.42644E-10 8.92937E-10-1.29874E-10-1.07893E-09 1.17000E-10
 -1        83-1.99998E+02 1.69514E-10 2.32289E-10 3.04496E-10-5.99509E-10 3.09411E-10
 -1        84-1.99998E+02 8.16843E-11 6.08843E-11 3.67388E-11-1.17363E-10 5.00731E-12
 -1        85-1.99998E+02 1.56349E-12-1.06196E-11 7.29313E-12-8.74969E-11-4.63127E-12
 -1        86-1.99998E+02 8.11009E-12 3.87788E-12-3.73888E-12-1.23703E-11-1.00382E-11
 -1        87-1.99998E+02-1.51081E-12 4.74994E-12 5.63512E-13-4.08706E-12-3.43165E-12
 -1        88-1.99998E+02-3.75479E-12 4.28745E-12-1.84562E-12-2.75398E-13-5.35716E-12
 -1        89-1.99998E+02 1.10364E-12-3.45522E-12 8.67602E-15-2.97044E-13-5.35576E-12
 -1        90-1.99998E+02-1.90551E-13 1.60548E-12 1.97036E-12-1.71028E-12-5.13703E-12
 -1        91-1.99998E+02-9.88226E-12 8.05013E-12 3.51789E-12-4.59225E-12-8.34805E-12
 -1        92-1.99998E+02 1.05470E-11 5.79767E-12 4.55705E-12-2.83475E-12-7.37082E-12
 -1        93-1.99998E+02 2.41333E-12-2.21697E-12 6.60390E-12 2.09952E-12-8.19216E-12
 -1        94-1.99998E+02-2.38568E-12-1.70817E-12 7.37159E-12 3.95362E-12 8.69021E-12
 -1        95-1.99998E+02-1.72439E-11-1.21614E-11-1.87615E-12 1.56140E-11-1.33358E-12
 -1        96-1.99998E+02 1.39925E-10-4.05605E-10-2.85442E-10-2.20189E-11 5.86689E-10
 -1        97-1.99998E+02-7.00669E-09-5.15628E-09 2.96294E-10 2.38857E-09-1.52900E-09
 -1        98-2.14979E+02-7.49544E+00-6.53137E+00-1.27154E+01-7.94996E-01-1.33696E+01
 -1        99-1.77030E+02 6.41928E-01 5.18578E-01 8.38360E-01-6.23704E-01 6.21568E-01
 -1       100-1.91612E+02-9.97856E-02-2.24373E-01 3.81907E-01 5.27421E-02 4.36215E-01
 -1       101-1.98336E+02-1.96081E-01-2.12073E-01 1.00548E-01 7.73277E-02 9.04271E-02
 -1       102-1.99751E+02-2.86735E-02-2.37239E-02 3.27805E-02 8.15089E-04 2.91110E-02
 -1       103-2.00060E+02-9.71736E-03-1.31115E-02-2.37105E-03 1.76694E-03-5.86451E-03
 -1       104-2.00035E+02-4.72973E-04-9.34749E-04-1.41931E-03 2.02243E-03-9.87396E-04
 -1       105-2.00009E+02 5.60046E-04 3.72521E-04-4.90945E-04-1.13964E-04-5.29745E-04
 -1       106-2.00000E+02 2.88843E-04 2.65815E-04-6.18846E-05-9.75161E-05-1.09747E-04
 -1       107-1.99998E+02 3.17939E-05 3.51761E-05-3.17973E-05-2.81964E-05-2.65766E-05
 -1       108-1.99998E+02 2.79058E-06 4.41231E-06 2.78063E-06-3.52847E-06 1.65326E-06
 -1       109-1.99998E+02-2.93906E-06-3.20702E-06 3.19640E-06 8.13714E-07 2.14104E-06
 -1       110-1.99998E+02-1.34789E-06-1.10464E-06 6.25766E-07 5.46628E-07 8.70152E-07
 -1       111-1.99998E+02-1.38914E-07-1.33282E-07 2.52362E-07 3.93684E-08 2.07256E-07
 -1       112-1.99998E+02-7.13448E-08-8.22960E-08-2.66090E-09 3.79391E-08-1.27710E-08
 -1       113-1.99998E+02-8.08813E-10-2.36104E-10 2.32174E-09 5.42774E-09 5.56902E-09
 -1       114-1.99998E+02 4.43789E-09 3.86991E-09-1.84228E-10-1.87541E-09-2.07891E-10
 -1       115-1.99998E+02 9.28259E-10 8.25883E-10-1.89429E-10-1.33230E-09-6.76258E-11
 -1       116-1.99998E+02 2.22766E-10 3.59522E-10 8.11850E-11-5.47574E-10 1.17844E-10
 -1       117-1.99998E+02 1.61500E-10 1.73011E-10 1.68205E-10-2.76201E-10 1.12495E-10
 -1       118-1.99998E+02 1.26530E-11-2.71389E-11-1.56768E-11-7.72767E-11-9.87631E-12
 -1       119-1.99998E+02-1.28776E-11-4.75985E-12 1.20526E-11-1.36419E-11 5.53055E-12
 -1       120-1.99998E+02 2.72770E-12 1.62429E-12-2.68686E-12-4.59156E-12-7.78771E-12
 -1       121-1.99998E+02-8.48693E-12-7.77381E-13-1.42615E-12-1.08098E-12-5.32790E-12
 -1       122-1.99998E+02 8.68748E-13 4.00088E-13-1.65146E-12 8.73503E-13-4.39905E-12
 -1       123-1.99998E+02-2.02688E-12 1.60407E-12 5.20253E-12-3.00990E-14-8.61818E-13
 -1       124-1.99998E+02-8.21302E-12 1.74573E-13 3.83888E-12-1.82847E-12-7.12157E-12
 -1       125-1.99998E+02 6.13486E-12 1.29166E-11 3.79851E-12-4.77103E-12-3.77729E-12
 -1       126-1.99998E+02 1.27598E-11 3.36887E-12 1.82685E-12-3.63113E-13-6.07354E-12
 -1       127-1.99998E+02 2.90178E-12-7.61381E-12 2.62575E-12 4.44841E-13-4.01189E-12
 -1       128-1.99998E+02 1.46012E-12 6.67350E-13-2.94199E-12 5.83075E-12 4.46773E-12
 -1       129-1.99998E+02 9.97323E-11 2.75106E-11-4.51938E-11 4.98695E-11 1.71976E-10
 -1       130-1.99998E+02-3.52498E-10 9.61791E-10-1.75683E-09-1.44197E-10-1.10794E-09
 -1       131-1.99998E+02 2.38376E-09 2.82975E-09 4.25093E-08-2.95614E-08 3.13510E-08
 -1       132-1.61141E+02 7.05622E+00 7.15915E+00 5.96309E+00-8.71807E-01-5.04530E+00
 -1       133-1.85660E+02 4.98215E-01 5.06330E-01 7.35938E-01-3.76982E-01-8.86822E-01
 -1       134-1.95776E+02-2.55704E-01-2.40472E-01 3.47089E-01-1.16168E-01-3.62538E-01
 -1       135-1.99344E+02-8.55163E-02-8.97922E-02 4.62696E-02-6.37780E-02-4.57473E-02
 -1       136-2.00031E+02-8.79240E-03-7.18773E-03-7.54549E-03-3.12441E-03 9.79032E-04
 -1       137-2.00038E+02-4.82585E-03-4.48528E-03-2.99613E-03-1.47483E-03 3.76731E-03
 -1       138-2.00015E+02 5.66228E-04 4.93509E-04-4.80377E-04 6.15443E-04 5.41965E-04
 -1       139-2.00002E+02 5.29268E-04 5.37073E-04-4.11224E-04 3.17898E-04 4.01347E-04
 -1       140-1.99998E+02 5.07825E-05 5.46759E-05 1.53883E-06 4.00005E-05-2.01974E-05
 -1       141-1.99998E+02 1.37458E-05 1.48154E-05 1.54074E-05-2.89209E-07-5.39938E-06
 -1       142-1.99998E+02 3.96535E-06 3.09612E-06 3.71575E-06 1.54665E-06-4.02567E-06
 -1       143-1.99998E+02-1.04028E-06-9.67334E-07 1.40777E-06-4.84122E-07-1.56010E-06
 -1       144-1.99998E+02-1.96200E-07-2.28844E-07-2.15700E-08-1.58569E-07 8.29073E-08
 -1       145-1.99998E+02-1.02015E-07-1.01244E-07 3.15950E-09-3.50232E-08-2.32861E-08
 -1       146-1.99998E+02-2.94827E-08-3.19709E-08-3.73832E-08 3.86554E-09 3.51021E-08
 -1       147-1.99998E+02 1.61760E-09 2.16744E-09-5.13081E-09 2.48285E-09 4.85706E-09
 -1       148-1.99998E+02 2.08004E-09 1.95544E-09-4.28731E-09-9.41022E-10 5.09759E-09
 -1       149-1.99998E+02 5.76006E-10 5.45906E-10-8.19747E-10-1.17905E-09 9.49435E-10
 -1       150-1.99998E+02-3.23062E-11 2.02943E-11-6.44262E-11-3.55251E-10 1.48288E-10
 -1       151-1.99998E+02-1.17433E-10-1.08279E-10 4.40315E-11-1.67805E-10-2.43509E-12
 -1       152-1.99998E+02-1.86141E-11-2.57429E-11 2.30267E-11-9.04812E-11-1.54427E-11
 -1       153-1.99998E+02-1.01045E-11-6.93943E-12 5.21333E-12-2.37536E-11-3.21945E-12
 -1       154-1.99998E+02 1.82088E-12 5.04814E-12 2.86062E-12-3.76229E-12-3.60524E-12
 -1       155-1.99998E+02 2.75798E-12 1.23628E-12 1.54046E-12 2.49745E-13-3.68331E-13
 -1       156-1.99998E+02 1.52980E-11 1.65015E-12 1.26148E-12 6.92224E-12-4.82184E-12
 -1       157-1.99998E+02-8.35044E-12 7.61238E-13 9.68966E-13-1.52300E-12-3.06631E-13
 -1       158-1.99998E+02 7.91629E-12-4.13528E-12-2.73206E-12 1.16399E-12-7.28140E-13
 -1       159-1.99998E+02-3.94482E-12-5.66820E-12-2.11106E-12 2.37030E-12 3.56308E-12
 -1       160-1.99998E+02-1.88365E-12 8.22317E-12-2.30358E-12 4.87686E-12 9.24532E-13
 -1       161-1.99998E+02 5.99296E-12-8.73938E-12-5.93236E-12-3.05903E-13-4.65642E-12
 -1       162-1.99998E+02-3.30501E-11 4.42110E-12-2.14763E-11-1.22898E-11-3.15990E-11
 -1       163-1.99998E+02-1.23935E-10-2.95242E-10-1.06206E-10-8.36781E-11-3.97950E-10
 -1       164-1.99998E+02-2.27780E-09-6.51082E-09-5.71909E-09-2.88846E-09-3.45047E-09
 -1       165-2.14928E+02-7.54316E+00-6.40504E+00-1.27257E+01 8.02524E-01 1.32022E+01
 -1       166-1.77050E+02 6.62674E-01 5.37547E-01 8.35321E-01 5.85571E-01-5.77053E-01
 -1       167-1.91710E+02-1.52208E-01-2.51306E-01 3.89086E-01-2.31048E-01-4.45887E-01
 -1       168-1.98116E+02-1.21169E-01-1.18573E-01 1.83002E-01-4.82849E-02-1.88395E-01
 -1       169-1.99816E+02-3.11801E-02-3.36570E-02 2.02892E-02-2.03711E-02-2.58615E-02
 -1       170-2.00064E+02-1.23524E-02-1.14615E-02-5.69353E-03-4.44282E-03 4.12514E-03
 -1       171-2.00029E+02-3.10536E-04-5.25975E-04-8.24841E-04-8.55104E-04 1.24832E-03
 -1       172-2.00007E+02 6.73343E-04 4.88233E-04-4.19286E-04 5.01480E-04 5.06978E-04
 -1       173-2.00000E+02 1.19858E-04 1.19479E-04-2.28462E-04 8.30415E-05 2.06492E-04
 -1       174-1.99998E+02 4.84193E-05 5.01867E-05 1.44200E-05 2.20107E-05-1.56331E-05
 -1       175-1.99998E+02 1.13094E-05 1.02855E-05 7.65582E-06 4.69355E-06-3.06451E-06
 -1       176-1.99998E+02-1.76153E-06-1.89215E-06 1.76193E-06 1.02499E-06-2.20640E-06
 -1       177-1.99998E+02-7.08495E-07-7.19019E-07 8.78742E-07-6.93361E-08-8.73368E-07
 -1       178-1.99998E+02-2.57491E-07-2.65939E-07-4.40623E-08-1.53462E-07 4.25354E-08
 -1       179-1.99998E+02-4.23325E-08-3.96593E-08-1.35010E-08-1.62095E-08 1.90772E-09
 -1       180-1.99998E+02-4.03512E-09-2.66376E-09-1.55951E-08-1.33586E-08 1.44015E-08
 -1       181-1.99998E+02 3.14991E-09 4.80236E-09-4.13744E-09 1.82122E-09 4.30203E-09
 -1       182-1.99998E+02 1.13512E-09 1.02735E-09-2.35370E-09-6.99517E-10 2.81072E-09
 -1       183-1.99998E+02-5.06872E-11-5.16200E-11-5.61360E-10-1.57252E-10 6.71867E-10
 -1       184-1.99998E+02-5.08888E-11-1.10364E-11-3.03396E-11-1.18406E-10 9.27097E-11
 -1       185-1.99998E+02 2.19349E-11 2.08890E-11 4.78787E-11-8.90156E-11-3.30265E-11
 -1       186-1.99998E+02-2.06459E-11-1.21644E-11 5.77057E-12-2.20655E-11-5.89861E-12
 -1       187-1.99998E+02-4.06212E-12-6.64386E-12 2.76851E-12-4.75849E-12 1.82990E-12
 -1       188-1.99998E+02-2.29285E-13 2.17718E-12 2.40799E-12 1.07948E-12-5.07792E-12
 -1       189-1.99998E+02 2.33575E-12-1.28443E-12 2.80723E-12-3.74908E-13-1.02545E-12
 -1       190-1.99998E+02 5.45110E-12 1.14745E-11 2.79465E-12 3.02992E-12-1.54608E-13
 -1       191-1.99998E+02-4.44450E-12-1.67352E-12-6.71644E-12 3.11750E-12-9.68939E-13
 -1       192-1.99998E+02-1.12034E-12-6.33167E-14 2.36271E-12 4.15932E-12 1.28101E-12
 -1       193-1.99998E+02-7.60886E-12 3.64224E-12-3.90475E-12-1.03194E-12 2.11888E-12
 -1       194-1.99998E+02-4.74616E-12-4.22148E-12-1.98596E-12 6.24868E-12 1.78239E-12
 -1       195-1.99998E+02-1.48052E-11-2.02038E-11-5.30315E-13 1.34487E-11-2.05569E-11
 -1       196-1.99998E+02 1.73988E-11 3.34651E-11-6.06958E-11-5.38604E-11-1.09615E-10
 -1       197-1.99998E+02-3.39154E-10-1.07863E-09-2.04614E-09 4.94861E-11-3.14466E-10
 -1       198-1.99998E+02-1.22548E-08 4.78740E-10 1.31341E-08 1.19595E-08-3.36161E-08
 -1       199-1.61238E+02 6.75004E+00 7.06101E+00-6.15951E+00-1.03341E+00 5.02194E+00
 -1       200-1.85679E+02 4.07812E-01 4.02450E-01-9.37418E-01-4.40546E-01 6.59494E-01
 -1       201-1.95782E+02-2.56411E-01-2.52467E-01-3.60560E-01-1.40320E-01 3.64794E-01
 -1       202-1.99454E+02-4.70357E-02-4.69507E-02-1.58436E-02-3.20886E-02-1.52615E-02
 -1       203-2.00011E+02-8.80432E-03-1.12146E-02-1.31000E-03-4.84990E-04-1.28244E-02
 -1       204-2.00041E+02-5.54550E-04-8.43051E-04 1.63392E-03 1.94571E-03-4.85615E-03
 -1       205-2.00014E+02 2.00293E-04-2.55098E-04 9.46087E-04 1.14344E-04-8.30042E-04
 -1       206-2.00002E+02 4.02352E-04 4.29688E-04 3.05258E-04 3.05397E-04-2.75773E-04
 -1       207-1.99998E+02 4.58253E-05 4.45846E-05-2.73864E-05 3.79876E-05-3.04376E-06
 -1       208-1.99998E+02 1.22316E-05 9.46861E-06-1.56652E-05-2.51147E-06 2.78858E-06
 -1       209-1.99998E+02 3.83964E-06 3.76778E-06-2.53118E-06 1.89706E-06 4.47102E-06
 -1       210-1.99998E+02-1.05423E-06-9.49332E-07-1.39598E-06-4.85102E-07 1.57523E-06
 -1       211-1.99998E+02-2.20280E-07-2.56770E-07-7.03873E-09-1.69617E-07-9.12417E-08
 -1       212-1.99998E+02-6.57475E-08-5.75545E-08 1.65718E-08 1.84508E-08-8.28604E-08
 -1       213-1.99998E+02-3.71732E-09-8.96307E-09 1.38862E-08 1.98294E-08-3.58385E-08
 -1       214-1.99998E+02-2.93335E-09-3.35438E-09 7.27877E-09 1.49472E-09-8.49364E-09
 -1       215-1.99998E+02 2.08866E-09 2.07314E-09 4.86295E-09-9.63243E-10-4.50431E-09
 -1       216-1.99998E+02 7.02122E-10 7.68304E-10 8.88726E-10-9.76990E-10-9.61750E-10
 -1       217-1.99998E+02-1.98493E-10-2.21947E-10-2.23348E-10-3.71710E-10-3.72155E-11
 -1       218-1.99998E+02-3.57304E-11-6.84902E-11-9.13982E-11-1.64749E-10 1.39570E-11
 -1       219-1.99998E+02-2.52599E-11-1.72355E-11-2.49664E-11-5.83690E-11 2.08787E-11
 -1       220-1.99998E+02-6.67553E-12-2.67779E-12-1.38545E-11-2.94296E-11 1.21969E-11
 -1       221-1.99998E+02-1.17789E-11-7.82092E-12-5.46353E-12-1.87984E-11 1.08233E-11
 -1       222-1.99998E+02-5.73113E-12 1.71094E-12 5.52522E-12-6.59202E-13 2.02597E-12
 -1       223-1.99998E+02-5.85425E-13 1.04783E-12-1.29054E-13-3.87181E-12 1.44523E-12
 -1       224-1.99998E+02 1.16971E-12 2.58292E-12 4.59004E-12-2.88110E-12-3.29858E-12
 -1       225-1.99998E+02 3.46295E-12 2.19834E-12 9.10957E-12-3.16402E-13-3.21659E-12
 -1       226-1.99998E+02 8.91153E-12 3.76800E-12 2.97965E-12 3.68563E-12 2.36726E-12
 -1       227-1.99998E+02 8.85948E-12-6.45602E-12 5.20263E-12-5.24555E-15 9.51512E-12
 -1       228-1.99998E+02-1.54230E-11 3.56129E-13-1.10737E-11-9.47092E-12-8.41742E-14
 -1       229-1.99998E+02 1.91482E-12-4.19797E-12-1.67870E-11-1.22435E-11-3.51288E-11
 -1       230-1.99998E+02-4.96333E-11-3.32892E-11-1.75065E-10 1.08859E-11-6.84892E-11
 -1       231-1.99998E+02-5.00105E-09-3.13761E-09-1.02837E-09-2.62798E-09-1.38677E-09
 -1       232-2.14431E+02-6.78671E+00-5.91063E+00 1.25200E+01-2.55163E-01-1.32916E+01
 -1       233-1.77261E+02 5.38070E-01 6.47214E-01-1.05664E+00 5.06639E-01 3.98053E-01
 -1       234-1.91706E+02-2.23010E-01-1.56034E-01-4.50095E-01-2.65016E-01 4.13776E-01
 -1       235-1.98047E+02-6.59464E-02-6.29595E-02-1.91412E-01-1.07897E-02 1.72260E-01
 -1       236-1.99857E+02-4.31359E-02-3.83723E-02-9.85755E-03-1.74687E-02-1.43526E-02
 -1       237-2.00054E+02-1.04420E-02-8.61899E-03 1.35915E-03-2.42850E-03-6.68096E-03
 -1       238-2.00028E+02 4.88579E-04-2.25344E-04 1.51783E-03 1.48107E-04-2.25017E-03
 -1       239-2.00007E+02 6.78579E-04 6.56864E-04 5.89768E-04 1.89835E-05-4.40727E-04
 -1       240-2.00000E+02 1.60154E-04 1.77764E-04 1.68284E-04 8.79021E-05-1.81351E-04
 -1       241-1.99998E+02 3.57692E-05 4.69506E-05-2.63985E-05 1.75014E-05 2.76071E-06
 -1       242-1.99998E+02 1.22528E-05 1.08385E-05-6.31417E-06 4.28709E-06 4.86055E-06
 -1       243-1.99998E+02-2.05321E-06-1.79671E-06-1.31738E-06 9.75869E-07 2.40382E-06
 -1       244-1.99998E+02-7.29733E-07-7.08206E-07-8.90883E-07-5.95209E-08 8.65782E-07
 -1       245-1.99998E+02-2.67036E-07-2.28823E-07 1.86600E-08-7.34193E-08-8.41727E-08
 -1       246-1.99998E+02-5.68026E-08-5.62435E-08 1.26204E-08 1.17673E-08-5.16396E-08
 -1       247-1.99998E+02-1.18610E-08-9.92618E-09 1.51044E-08 1.96814E-09-1.61606E-08
 -1       248-1.99998E+02 3.99941E-09 2.53541E-09 4.12895E-09 1.46996E-09-4.53294E-09
 -1       249-1.99998E+02 1.10976E-09 1.17752E-09 2.63562E-09-6.46303E-10-2.51564E-09
 -1       250-1.99998E+02-9.57427E-11 3.73059E-11 5.17281E-10-2.26727E-10-7.57855E-10
 -1       251-1.99998E+02 7.96673E-11 1.21570E-10-1.66996E-10-1.51822E-10 4.42188E-11
 -1       252-1.99998E+02 4.09007E-11 9.64426E-12-2.69836E-11-7.78628E-11 2.85943E-11
 -1       253-1.99998E+02-7.45333E-13 2.57366E-12-1.85035E-11-3.82227E-11 9.55570E-12
 -1       254-1.99998E+02-1.21115E-11-9.59123E-12-5.31925E-12-9.13025E-12 1.06873E-11
 -1       255-1.99998E+02-7.15243E-12 2.00109E-12-1.56893E-12-2.69201E-12 6.02249E-12
 -1       256-1.99998E+02-5.49249E-12 2.60589E-13 6.73338E-12 3.57739E-13 9.75929E-13
 -1       257-1.99998E+02 3.77556E-12 2.30113E-12 5.43512E-13-4.61430E-12-2.45976E-12
 -1       258-1.99998E+02 1.38895E-11-5.17256E-12 5.01855E-12-2.34732E-12-2.32242E-12
 -1       259-1.99998E+02 1.47559E-12 2.58718E-12 1.13858E-11 4.91318E-12-8.19142E-14
 -1       260-1.99998E+02 6.14939E-12-2.13979E-12 6.30501E-12-1.98385E-12 3.88445E-12
 -1       261-1.99998E+02-7.77290E-12-1.01613E-11-1.00058E-11 5.81621E-13 2.61814E-12
 -1       262-1.99998E+02-1.03877E-11-1.45449E-11-7.27549E-12-7.61745E-12-1.00683E-11
 -1       263-1.99998E+02 1.26430E-11-9.55017E-12-2.45114E-11 9.30134E-12-6.61789E-11
 -1       264-1.99998E+02 2.54913E-10 5.37258E-10 3.74619E-10-7.71436E-11-2.79754E-10
 -1       265-1.99998E+02 5.89464E-09-3.58645E-09-2.23469E-08 1.41445E-08 1.35126E-08
 -1       266-1.61213E+02 6.72709E+00 6.95574E+00-6.08573E+00 1.01979E+00-4.94966E+00
 -1       267-1.85563E+02 3.91558E-01 3.83581E-01-9.45522E-01 4.15948E-01-6.90757E-01
 -1       268-1.96120E+02-7.85572E-02-8.63880E-02-1.53602E-01 1.14652E-01-1.51895E-01
 -1       269-1.99321E+02-7.41246E-02-7.04086E-02-6.14819E-02 4.23275E-02-5.27427E-02
 -1       270-2.00030E+02-7.71278E-03-9.48165E-03 2.23893E-04 3.26428E-03 8.23054E-03
 -1       271-2.00041E+02-6.25003E-03-6.20101E-03 4.79958E-03 1.72235E-03 3.69780E-03
 -1       272-2.00018E+02 8.16044E-04 7.68098E-04 6.48337E-04-6.95561E-04 4.11565E-04
 -1       273-2.00003E+02 1.29336E-04 1.63527E-04 1.11765E-04-1.08635E-04 1.38450E-04
 -1       274-1.99999E+02 9.29690E-05 7.60488E-05 6.63323E-05-2.55986E-05 6.21745E-05
 -1       275-1.99998E+02 1.90172E-05 1.97871E-05 3.73916E-07-9.42984E-06-2.01305E-06
 -1       276-1.99998E+02-1.42781E-06-1.46188E-06-4.94736E-06 2.82128E-06-2.94292E-06
 -1       277-1.99998E+02-9.45772E-07-1.00268E-06-7.84551E-07 1.04531E-06-6.30886E-07
 -1       278-1.99998E+02-3.48598E-07-3.39623E-07-4.72887E-07 2.13107E-07-5.02226E-07
 -1       279-1.99998E+02-4.49205E-08-5.47070E-08-2.63204E-08 3.72203E-08 1.56372E-08
 -1       280-1.99998E+02-3.29634E-08-3.52421E-08 6.48295E-09 7.07931E-09-6.19198E-09
 -1       281-1.99998E+02 9.87682E-10 1.64382E-09 2.58879E-10-4.96282E-09-1.03777E-09
 -1       282-1.99998E+02 2.60384E-09 2.52673E-09-3.88916E-10-2.83818E-09 2.54368E-10
 -1       283-1.99998E+02 7.68754E-10 6.88186E-10-6.53831E-12-1.05975E-09-6.58739E-11
 -1       284-1.99998E+02 2.11094E-10 3.04092E-10 2.54717E-11-3.24354E-10-1.87662E-11
 -1       285-1.99998E+02 5.86320E-11 4.46483E-11-2.39800E-11-1.36315E-10 2.26928E-11
 -1       286-1.99998E+02 1.92894E-11 6.62066E-12 5.75827E-12-9.12413E-11-3.08791E-12
 -1       287-1.99998E+02 1.85024E-11 9.14029E-12 1.68456E-11-6.62686E-12 2.29754E-12
 -1       288-1.99998E+02-5.73871E-12-6.13386E-12 1.21056E-13-4.24067E-12 4.27725E-12
 -1       289-1.99998E+02 8.30356E-12-3.81821E-13 9.03447E-12-1.87074E-12 4.39911E-12
 -1       290-1.99998E+02 6.91596E-12-3.65689E-12 3.82393E-12-3.71536E-13 6.62012E-12
 -1       291-1.99998E+02-4.19938E-12 5.96194E-12 1.12026E-11 3.50272E-12-1.19565E-12
 -1       292-1.99998E+02-1.06197E-11-6.46277E-12-1.11444E-12 8.34364E-12 1.63638E-12
 -1       293-1.99998E+02 1.23357E-12-1.39911E-12 4.28678E-13 4.41496E-12-4.27653E-12
 -1       294-1.99998E+02 7.63316E-13-7.71516E-12 3.00624E-12-1.18770E-12-4.86307E-12
 -1       295-1.99998E+02-1.47968E-12-8.46751E-12-1.37070E-12 6.02875E-13-2.01801E-11
 -1       296-1.99998E+02 1.87525E-11-7.55114E-11 1.31549E-11 4.72793E-12-9.13051E-11
 -1       297-1.99998E+02 3.11991E-10-6.62585E-10 1.20386E-10-1.74712E-10-2.98172E-10
 -1       298-1.99998E+02-2.72730E-08-2.58671E-08-8.34672E-10 1.33422E-08 3.68464E-09
 -1       299-2.14633E+02-7.20427E+00-5.83797E+00 1.27731E+01-1.93918E-01 1.30113E+01
 -1       300-1.77152E+02 4.60294E-01 5.32963E-01-1.03702E+00-5.43270E-01-3.90762E-01
 -1       301-1.91535E+02-1.63070E-01-6.98559E-02-4.46784E-01 9.03290E-02-4.06158E-01
 -1       302-1.98350E+02-2.33986E-01-2.26763E-01-8.65211E-02 8.07784E-02-9.65019E-02
 -1       303-1.99790E+02-2.91028E-02-2.82058E-02-3.27257E-02 1.37033E-02-2.11147E-02
 -1       304-2.00064E+02-1.15003E-02-1.17552E-02 4.30130E-03 5.46592E-03 5.55487E-03
 -1       305-2.00033E+02-4.27855E-04-5.87831E-04 1.48620E-03 1.40817E-03 8.69071E-04
 -1       306-2.00009E+02 5.51975E-04 3.85148E-04 4.94694E-04-1.10936E-04 4.74180E-04
 -1       307-2.00000E+02 2.83522E-04 2.66176E-04 7.20504E-05-9.33334E-05 1.04659E-04
 -1       308-1.99998E+02 3.34119E-05 3.31546E-05 3.12222E-05-2.70885E-05 2.77035E-05
 -1       309-1.99998E+02 2.37506E-06 4.25357E-06-2.00818E-06-3.33816E-06-1.81735E-06
 -1       310-1.99998E+02-2.62284E-06-3.09747E-06-2.81078E-06 8.15473E-07-2.36478E-06
 -1       311-1.99998E+02-1.13341E-06-1.34469E-06-7.93480E-07 4.52794E-07-6.04840E-07
 -1       312-1.99998E+02-1.48610E-07-1.32009E-07-2.34855E-07 4.28329E-08-2.10104E-07
 -1       313-1.99998E+02-7.07920E-08-7.93198E-08 5.54290E-09 3.82378E-08 1.09429E-08
 -1       314-1.99998E+02-1.04438E-09 7.00321E-10-8.03876E-10 5.10421E-09-6.77842E-09
 -1       315-1.99998E+02 3.77320E-09 4.70143E-09 2.24246E-10-1.95288E-09 1.11029E-10
 -1       316-1.99998E+02 8.50365E-10 8.42141E-10 3.93791E-11-1.29781E-09 1.51566E-10
 -1       317-1.99998E+02 1.19190E-10 2.24076E-10-8.25657E-11-5.85590E-10-1.74804E-10
 -1       318-1.99998E+02-3.44898E-11-4.46392E-11-1.40689E-11-1.87985E-10 5.63892E-11
 -1       319-1.99998E+02-4.19169E-11-6.05946E-11 9.41485E-12-9.86136E-11 8.13277E-12
 -1       320-1.99998E+02 1.67864E-11 3.57654E-13 1.05677E-12-9.45457E-12-1.58848E-11
 -1       321-1.99998E+02-8.55225E-12-7.20254E-12 2.64085E-12-2.85744E-12 8.72609E-12
 -1       322-1.99998E+02-6.08939E-12-4.72966E-12 4.84899E-12-2.25611E-12 1.43340E-12
 -1       323-1.99998E+02 1.23490E-11-1.21365E-12 5.78701E-12-5.52686E-13 5.60981E-12
 -1       324-1.99998E+02-1.09579E-11 4.68686E-12 4.48635E-12 9.29306E-14 3.25105E-12
 -1       325-1.99998E+02-7.69822E-12-3.05803E-12 5.09245E-12 6.69733E-12-3.68080E-12
 -1       326-1.99998E+02-2.97899E-12-5.74184E-13 2.37909E-12 1.43250E-12-2.33252E-13
 -1       327-1.99998E+02-2.19102E-12-2.61533E-12 2.29755E-12 2.12220E-12-3.09044E-12
 -1       328-1.99998E+02-7.14407E-12-6.38274E-12 3.22684E-13 2.50097E-13-8.05672E-12
 -1       329-1.99998E+02 9.78418E-13-1.85232E-11 1.64415E-11 1.52816E-11-4.74392E-11
 -1       330-1.99998E+02 1.07269E-11 1.03898E-11 5.96936E-11 5.13865E-11-9.84505E-11
 -1       331-1.99998E+02-4.17701E-10 3.54015E-09 3.56765E-09 8.32518E-10 5.22728E-09
 -1       332-1.99998E+02 2.25987E-08 3.24456E-08-1.28327E-07-9.91503E-08-1.25021E-07
 -1       333-1.76179E+02-7.14077E+01-7.27369E+01 2.65963E+01-2.62952E-01 9.32826E+00
 -1       334-1.77002E+02-7.05740E+01-7.26678E+01-2.81915E+01 1.61842E-01 9.08432E+00
 -1       335-1.76513E+02-7.43720E+01-7.19876E+01 1.16378E+01-5.96700E-02-2.98536E+01
 -1       336-1.73248E+02-7.34363E+01-7.40054E+01-2.65049E+01-2.15516E-02-1.08131E+01
 -1       337-1.77634E+02-7.26455E+01-7.25616E+01-8.59223E+00 1.67699E-01-2.45852E-01
 -1       338-1.75764E+02-7.29204E+01-7.12756E+01-8.12123E+00 3.56278E-01 2.58363E+01
 -1       339-1.77102E+02-7.21550E+01-7.47238E+01 3.00767E+01-1.67756E-01-1.17724E+01
 -1       340-1.76397E+02-7.30365E+01-7.11936E+01-8.17721E+00-3.76976E-01-2.63747E+01
 -1       341-1.78594E+02-7.52090E+01-7.23462E+01 1.09298E+01 6.30474E-02 3.18001E+01
 -1       342-1.78956E+02-7.26086E+01-7.27598E+01 5.28113E+00 5.38936E-01 1.07787E+01
 -1       343-1.83652E+02-7.06691E+01-7.08122E+01-3.04551E+01 1.24485E+00 3.03706E+01
 -1       344-1.79312E+02-7.47245E+01-7.47697E+01 2.95927E+01-3.94506E-01-2.94605E+01
 -1       345-1.83394E+02-7.07396E+01-7.11077E+01-3.02850E+01-1.16120E+00-3.04523E+01
 -1       346-1.81723E+02-7.15662E+01-7.32009E+01 3.13399E+01-4.84449E-01 2.92071E+01
 -1       347-1.77928E+02-7.13914E+01-7.15678E+01 8.31078E+00-4.50422E-01-7.49485E+00
 -1       348-2.36106E+02-9.14833E+01-9.14901E+01-4.60707E+01 5.22423E+00 4.61723E+01
 -1       349-2.23443E+02-9.42019E+01-9.32178E+01-5.45824E+01-1.12942E+00 2.34548E+01
 -1       350-2.22933E+02-9.31969E+01-9.40987E+01-2.31770E+01-1.04760E+00 5.47237E+01
 -1       351-2.23928E+02-9.43365E+01-9.34005E+01-5.46222E+01 1.19910E+00-2.32727E+01
 -1       352-2.36160E+02-9.15270E+01-9.14994E+01-4.60868E+01-5.22242E+00-4.61349E+01
 -1       353-2.23232E+02-9.32727E+01-9.42351E+01-2.31559E+01 1.03025E+00-5.47774E+01
 -1       354-2.34670E+02-9.09250E+01-9.18309E+01 4.61703E+01-4.95123E+00 4.50245E+01
 -1       355-2.15974E+02-9.25605E+01-9.25606E+01 2.53806E+01 1.16056E-05 5.06552E+01
 -1       356-2.23371E+02-9.40321E+01-9.33911E+01 5.49562E+01 1.28179E+00 2.32197E+01
 -1       357-2.32838E+02-9.11794E+01-9.11538E+01 4.48832E+01 4.64246E+00-4.48588E+01
 -1       358-2.15739E+02-9.24599E+01-9.24598E+01 5.16269E+01-1.27817E-05-2.49726E+01
 -1       359-2.16111E+02-9.26190E+01-9.26192E+01 2.50210E+01-1.16211E-05-5.12970E+01
 -1       360-2.06658E+02-8.85679E+01-8.85677E+01-4.78242E+01 5.57381E-06-6.01920E+00
 -1       361-2.09472E+02-8.97740E+01-8.97738E+01-4.85815E+01-5.62166E-06-1.52908E+01
 -1       362-1.81906E+02-7.40624E+01-7.67250E+01-2.89864E+01-3.71638E-01-1.84662E+01
 -1       363-2.11008E+02-9.04324E+01-9.04322E+01-5.06109E+01-2.02918E-06 1.50692E+01
 -1       364-2.15595E+02-9.12464E+01-9.07512E+01-5.13486E+01-7.36463E-01 3.95959E+00
 -1       365-1.75451E+02-7.17970E+01-7.41751E+01-2.71997E+01-1.23961E-01-1.77917E+00
 -1       366-1.84178E+02-7.32157E+01-7.71596E+01-2.99734E+01 4.38962E-01 1.77029E+01
 -1       367-2.12831E+02-8.99508E+01-9.01151E+01-3.45059E+00-7.67829E-01 5.04133E+01
 -1       368-2.09464E+02-8.97705E+01-8.97706E+01-1.43896E+01-3.23507E-06 4.94283E+01
 -1       369-1.83745E+02-7.70524E+01-7.36687E+01-1.71721E+01 6.89180E-01 2.85513E+01
 -1       370-2.21791E+02-9.43940E+01-9.47852E+01 1.65615E+01-1.87371E-01 5.32321E+01
 -1       371-2.12779E+02-9.11912E+01-9.11913E+01 5.86068E+00 3.84154E-07 5.18334E+01
 -1       372-1.77001E+02-7.42694E+01-7.11173E+01 1.96508E+00-6.48401E-01 2.91729E+01
 -1       373-1.82714E+02-7.71863E+01-7.45725E+01 1.96483E+01 2.70503E-01 3.07288E+01
 -1       374-2.19558E+02-9.38387E+01-9.33793E+01 5.29771E+01 1.67403E-01-1.67560E+01
 -1       375-2.09971E+02-8.99880E+01-8.99879E+01 5.08229E+01 9.14286E-07-6.42991E+00
 -1       376-1.81325E+02-7.39141E+01-7.66142E+01 3.00091E+01-1.57694E-01-1.98275E+01
 -1       377-2.12643E+02-9.02421E+01-8.95870E+01 5.04872E+01 5.71996E-01 4.13354E+00
 -1       378-2.08180E+02-8.92204E+01-8.92203E+01 4.94368E+01 2.75053E-06 1.51558E+01
 -1       379-1.77012E+02-7.14175E+01-7.44729E+01 2.80326E+01 3.66272E-01-2.23092E+00
 -1       380-1.82507E+02-7.30142E+01-7.65574E+01 2.92673E+01-5.70869E-01 1.77900E+01
 -1       381-2.10794E+02-9.03405E+01-9.03406E+01-1.43901E+01 2.66384E-06-5.00186E+01
 -1       382-2.13708E+02-9.03909E+01-9.03946E+01-3.44223E+00 8.25913E-01-5.07599E+01
 -1       383-1.83750E+02-7.70638E+01-7.35946E+01-1.71933E+01-6.23602E-01-2.89761E+01
 -1       384-2.09722E+02-8.98809E+01-8.98811E+01 5.98861E+00 7.65638E-07-5.03542E+01
 -1       385-2.18479E+02-9.28617E+01-9.35301E+01 1.66830E+01 6.86639E-02-5.23458E+01
 -1       386-1.76754E+02-7.42965E+01-7.12129E+01 2.40831E+00 5.09605E-01-2.84025E+01
 -1       387-1.81284E+02-7.66234E+01-7.39901E+01 1.97577E+01-8.06735E-02-2.98401E+01
 -1       388-1.82391E+02-7.81679E+01-7.81679E+01 1.75411E+01 6.40266E-07-1.02635E+01
 -1       389-1.79747E+02-7.65154E+01-7.46304E+01 1.62440E+01-9.81515E-01 9.44158E-01
 -1       390-1.85648E+02-7.95636E+01-7.95636E+01 1.73436E+01 4.08228E-06 1.88415E+01
 -1       391-1.82545E+02-7.82339E+01-7.82339E+01 1.49719E+01 2.91103E-06 1.03006E+01
 -1       392-1.82385E+02-7.81653E+01-7.81653E+01 9.00186E+00 4.73351E-07 1.92659E+01
 -1       393-1.82195E+02-7.42403E+01-7.65749E+01 8.08464E+00 1.11886E+00 2.24079E+00
 -1       394-1.79695E+02-7.63906E+01-7.45733E+01-1.66782E+01 4.60121E-01 4.02058E+00
 -1       395-1.79519E+02-7.69369E+01-7.69369E+01-1.66657E+01 4.95470E-07-6.41145E+00
 -1       396-1.85807E+02-7.96320E+01-7.96319E+01-1.68424E+01-4.11290E-06 1.62996E+01
 -1       397-1.80639E+02-7.74169E+01-7.74169E+01-9.02560E+00-2.23987E-06 1.22930E+01
 -1       398-1.85199E+02-7.93712E+01-7.93712E+01 1.91988E+01-2.58810E-06-1.91177E+01
 -1       399-1.82195E+02-7.80839E+01-7.80839E+01 1.05581E+01 7.14565E-07-1.72074E+01
 -1       400-1.80000E+02-7.45320E+01-7.64627E+01-5.06058E-01-1.01331E+00-1.58045E+01
 -1       401-1.80251E+02-7.72506E+01-7.72506E+01-8.94690E+00 9.18535E-07-1.25813E+01
 -1       402-1.83142E+02-7.84896E+01-7.84896E+01-1.70523E+01 2.07275E-06-1.70622E+01
 -1       403-1.80137E+02-7.47385E+01-7.64801E+01-1.58070E+00 1.01703E+00 1.68141E+01
 -1       404-1.82063E+02-7.56907E+01-7.53716E+01-2.15318E+00-1.34830E+00 5.88244E+00
 -1       405-1.81832E+02-7.60567E+01-7.47588E+01-9.59987E-01 1.22867E+00-4.88126E+00
 -1       406-1.99998E+02 2.80986E-08 3.49246E-09 4.58957E-08-9.45236E-09-1.95223E-08
 -1       407-1.99998E+02 2.12571E-08 1.79923E-08-3.03436E-09-2.94966E-08-5.87138E-08
 -1       408-1.99998E+02-2.48092E-08-1.45917E-08-3.85735E-09-1.90663E-08-7.20302E-08
 -1       409-1.99998E+02-4.72308E-08-5.18171E-08 1.35705E-07 2.96099E-08 1.00553E-07
 -1       410-1.99998E+02-2.16276E-08 1.84798E-08 5.87794E-08 1.49215E-08-3.33143E-08
 -1       411-1.99998E+02-1.89543E-08-5.67045E-09-9.94341E-08 2.55691E-08 3.35002E-08
 -1       412-1.99998E+02 1.18795E-09 2.33304E-08 2.44175E-08-8.73172E-09-2.08760E-09
 -1       413-1.99998E+02 1.99004E-08 3.54221E-08-5.69315E-08 3.06860E-09-3.81522E-09
 -1       414-1.99998E+02 5.40596E-08 4.09104E-09 1.51006E-07-1.93543E-08-8.31445E-08
 -1       415-1.99998E+02-9.74754E-10-1.21732E-08-1.78920E-08-1.18407E-08-1.21249E-08
 -1       416-1.99998E+02 5.08752E-09 2.03946E-08-2.38540E-08 1.52675E-08 1.24376E-08
 -1       417-1.99998E+02 1.27283E-09-1.45963E-08 6.91353E-09-6.89162E-09-1.75278E-08
 -1       418-1.99998E+02-8.88576E-09-6.51668E-09-1.37243E-08 1.42705E-08-3.65070E-08
 -1       419-1.99998E+02-5.45117E-08-3.36742E-08-8.79827E-08 6.97258E-09-6.55230E-09
 -1       420-1.99998E+02 6.19927E-11-3.56445E-08-1.64765E-08 4.75245E-09 3.05921E-08
 -1       421-1.99998E+02 1.29745E-07 9.96024E-08 1.39494E-08 4.27319E-08 7.37283E-08
 -1       422-1.99998E+02 5.55462E-09 4.72696E-08-2.06693E-08-9.86808E-09-1.92571E-08
 -1       423-1.99998E+02-3.52151E-08 2.30919E-08-8.59116E-08 2.66767E-08-1.82435E-08
 -1       424-1.99998E+02-2.12074E-08-2.94761E-08 5.82555E-08 4.03422E-08-5.34442E-09
 -1       425-1.99998E+02-3.20449E-08-2.56609E-08 6.72962E-09-1.80552E-08-4.62048E-08
 -1       426-1.99998E+02 3.91936E-08 2.88233E-08-1.29644E-07-3.81824E-08 5.33825E-08
 -1       427-1.99998E+02-4.42568E-09-4.79252E-08 2.03116E-07-5.75084E-08-1.00640E-07
 -1       428-1.99998E+02-1.14813E-07-1.07210E-07-2.01737E-07 1.28777E-07-8.67540E-08
 -1       429-1.99998E+02-1.76657E-07-6.66538E-08 2.87729E-09-6.27434E-08 1.24574E-07
 -1       430-1.99998E+02-4.85291E-08-2.66232E-08-5.03717E-08 1.26779E-08-7.73487E-08
 -1       431-1.99998E+02 6.25102E-09-2.45840E-08-2.38178E-08-1.72556E-08 1.58529E-08
 -1       432-1.99998E+02-1.03814E-08-2.73876E-08 3.96831E-08 1.69554E-08 1.64166E-08
 -1       433-1.99998E+02 6.34386E-08 3.03823E-08 8.46165E-08-1.04434E-08 1.20271E-08
 -1       434-1.99998E+02-6.47157E-08-3.98395E-08 5.18008E-08 2.22760E-08 1.17968E-08
 -1       435-1.99998E+02 3.12716E-08 3.30675E-08-1.93298E-08 1.04918E-08 1.19727E-07
 -1       436-1.99998E+02 4.00059E-08 8.96989E-08-4.52054E-08 1.58437E-08 1.99395E-08
 -1       437-1.99998E+02 2.42955E-09-2.15568E-08 3.72535E-08 8.59750E-09 1.07402E-08
 -1       438-1.99998E+02-5.91392E-10 1.08843E-08 3.70439E-08-5.71904E-09-8.48039E-08
 -1       439-1.99998E+02-5.13873E-08-4.00161E-08-9.11802E-08-2.05362E-09-2.66451E-08
 -1       440-1.99998E+02-3.03839E-08-7.10673E-08 1.94615E-07-3.46554E-08-7.27608E-08
 -1       441-1.99998E+02-2.94351E-08 4.18359E-08-2.98963E-07 9.45196E-08-7.28385E-08
 -1       442-1.99998E+02 1.50620E-08-3.26945E-09 1.30340E-07-1.47850E-08 3.92889E-08
 -1       443-1.99998E+02-4.07235E-08-1.93987E-08 1.95738E-07-4.40655E-08-1.13598E-07
 -1       444-1.99998E+02-1.11167E-07-1.65754E-07-2.16114E-07 2.83046E-08-3.59657E-08
 -1       445-1.99998E+02-1.22462E-08-2.83276E-08-2.52930E-08 5.55035E-09 4.94817E-08
 -1       446-1.99998E+02 1.91664E-08 5.57043E-08-2.51668E-08-1.30798E-08 7.41968E-09
 -1       447-1.99998E+02-1.27720E-07-8.72256E-08-4.72650E-08 2.01337E-08-2.67204E-08
 -1       448-1.99998E+02-1.37697E-07-5.14748E-08-4.77142E-08-3.39892E-08 1.45185E-07
 -1       449-1.99998E+02 9.34746E-10 3.26521E-09-3.27757E-08-1.33204E-08 4.11376E-08
 -1       450-1.99998E+02 4.12840E-08 5.54871E-08 6.02556E-08-2.49474E-08 3.75851E-09
 -1       451-1.99998E+02 2.21704E-07 1.09248E-07-6.14353E-09 6.24716E-08-1.16986E-07
 -1       452-1.99998E+02 3.84449E-08-7.31277E-09 6.65898E-09 2.83002E-08-5.58651E-08
 -1       453-1.99998E+02-3.44935E-08-5.02800E-08 2.40096E-09-3.56013E-08 3.74009E-08
 -1       454-1.99998E+02-4.71103E-08-5.71117E-08-1.45265E-07-7.20454E-08-8.69010E-09
 -1       455-1.99998E+02-1.51438E-07-1.82975E-07 1.68682E-07 4.29025E-08 1.33562E-08
 -1       456-1.99998E+02-4.52035E-08-4.20748E-08-1.44937E-08 9.82413E-09-3.16871E-08
 -1       457-1.99998E+02 2.34085E-08 4.64679E-08-5.29631E-08-1.25580E-09 1.82701E-08
 -1       458-1.99998E+02-1.60836E-08 1.74396E-09 4.37705E-08-3.51018E-09 7.93891E-08
 -1       459-1.99998E+02-7.03497E-11-5.49804E-09 6.62426E-08-1.30922E-09 6.23366E-08
 -1       460-1.99998E+02 2.74941E-09 4.62430E-09-5.04111E-08-5.75521E-09-2.21855E-08
 -1       461-1.99998E+02-2.85880E-08-8.07701E-09-9.14113E-08 2.20798E-08 4.73590E-08
 -1       462-1.99998E+02 3.76931E-10-1.27575E-08 9.96479E-08-5.41160E-09-5.27816E-08
 -1       463-1.99998E+02 8.15821E-08 8.14389E-08-9.12930E-08-4.78857E-09 9.83504E-08
 -1       464-1.99998E+02-1.12869E-10-1.23083E-07 5.30197E-08-7.93432E-09-3.60846E-08
 -1       465-1.99998E+02-4.22232E-08-1.06808E-07-4.46518E-08 7.55516E-09 1.38088E-08
 -1       466-1.99998E+02-2.81123E-08-4.21878E-08-5.06414E-08-8.45570E-09 4.18348E-08
 -1       467-1.99998E+02-3.00076E-08 3.61087E-09-9.53143E-08-8.68961E-09-8.80837E-08
 -1       468-1.99998E+02 1.50026E-07 1.51753E-07 1.39635E-07 2.51468E-08-1.28345E-08
 -1       469-1.99998E+02 7.78125E-09 2.59592E-08 1.34408E-08-1.54740E-08-2.79837E-08
 -1       470-1.99998E+02-4.47689E-08-5.01097E-09 1.54330E-08 2.99021E-08 1.52269E-07
 -1       471-1.99998E+02-1.13818E-08-3.59511E-08 8.91493E-08-3.43572E-08 2.20240E-08
 -1       472-1.99998E+02 5.62654E-08 3.48139E-08 4.77444E-09-3.49690E-09-7.00347E-08
 -1       473-1.99998E+02-3.15840E-08-1.41152E-08-1.98197E-07 6.66514E-09 6.51385E-08
 -1       474-1.99998E+02-1.18385E-07-9.59407E-08-5.14106E-08-2.64039E-08-1.86884E-07
 -1       475-1.99998E+02 2.37062E-09-5.93939E-08-5.36070E-08 2.36692E-08 9.91535E-08
 -1       476-1.99998E+02 2.62279E-08 4.46770E-08 4.44995E-08 7.89268E-09-8.79135E-08
 -1       477-1.99998E+02 2.35428E-08 4.60436E-08-1.82053E-08-1.06307E-09-8.91865E-08
 -1       478-1.99998E+02-5.87884E-08-5.45636E-08 1.40298E-07-2.57473E-09 4.05366E-08
 -1       479-1.99998E+02 5.67993E-13 9.65286E-12-5.96016E-12-1.79787E-12-1.49382E-11
 -1       480-1.99998E+02-3.29365E-12 2.35651E-12 4.46733E-12 2.80902E-12-2.32650E-12
 -1       481-1.99998E+02-6.00155E-12-2.98041E-10 1.23609E-10 1.98961E-11-5.10519E-10
 -1       482-1.99998E+02-2.06004E-11 5.62576E-10 1.52838E-10-6.36794E-12 1.38272E-09
 -1       483-1.99998E+02 8.41799E-12-4.65308E-11-1.19526E-11 3.29671E-12 7.75825E-11
 -1       484-1.99998E+02-1.00167E-12-6.62686E-12 5.04568E-12-2.29194E-12-5.26454E-12
 -1       485-1.99998E+02-1.22763E-11-1.92374E-11 6.15227E-12 1.83074E-13-4.37769E-12
 -1       486-1.99998E+02 1.30170E-09-6.79864E-09-1.01778E-10 2.53033E-10 1.88472E-08
 -1       487-2.00014E+02-3.20313E-02-2.49901E-03-2.85692E-02 4.61897E-03 2.13101E-02
 -1       488-2.00003E+02-6.77408E-05-2.42674E-03-1.26219E-03 1.92511E-04-3.69891E-03
 -1       489-1.99176E+02-8.97127E-02 5.25347E-01 5.47963E-02 4.02112E-02-8.14364E-01
 -1       490-1.99998E+02 2.66869E-06 1.04167E-05 5.57749E-06-7.42858E-07 1.06065E-05
 -1       491-1.99998E+02-2.95542E-08-1.01573E-08-1.34856E-07 8.03267E-08 3.14108E-07
 -1       492-1.99998E+02 1.79761E-05-9.17070E-05 1.47572E-05-1.26855E-05-2.02851E-04
 -1       493-1.89943E+02 1.89593E+00 2.14799E+00 2.80072E+00 5.73067E-01-8.95734E-01
 -1       494-1.96533E+02-1.31093E-01 1.62691E+00 1.06784E+00-3.67894E-01 2.08497E+00
 -1       495-1.99998E+02-5.75452E-10-6.93365E-10 8.79371E-10 9.95681E-10 2.43139E-09
 -1       496-1.99998E+02-2.05108E-09-1.05360E-08-2.24889E-09 5.00667E-09 1.23091E-08
 -1       497-1.99998E+02-1.27149E-11-1.22334E-10 5.25351E-12-1.68084E-11 1.24625E-10
 -1       498-2.00011E+02-1.30446E-03-4.14547E-03-2.42187E-03-1.49812E-03 4.06722E-03
 -1       499-1.99998E+02 3.63070E-10 3.75036E-06 1.38023E-06 4.06898E-07-4.84325E-06
 -1       500-1.99998E+02-1.86325E-08-3.61703E-08-3.20957E-08-2.07511E-09 9.49934E-08
 -1       501-1.99999E+02 4.65783E-05-6.63194E-04-1.07809E-04-5.91160E-05 9.35448E-04
 -1       502-1.99998E+02-3.48553E-06 7.87563E-06 1.52179E-05 5.64212E-06 3.82823E-06
 -1       503-1.95659E+02 1.86581E+01-1.41921E+01-3.17331E+00-2.07421E-01-5.00374E+00
 -1       504-1.99998E+02 7.58673E-09-4.87354E-09-1.14488E-08-1.22440E-08-3.50906E-09
 -1       505-1.99998E+02-6.02896E-12-3.97220E-12-3.30666E-13-5.38561E-12-1.28147E-11
 -1       506-1.99998E+02 5.69444E-12-2.19756E-12-3.66175E-12-2.69578E-12 3.03052E-12
 -1       507-1.99998E+02 1.33395E-10-2.92579E-10-5.79855E-11 1.31536E-10 1.34772E-09
 -1       508-1.99998E+02-1.23227E-11 6.32498E-11 3.24183E-11-2.97561E-12 1.36751E-10
 -1       509-1.99998E+02-9.59949E-12-4.85241E-12 1.13330E-12-9.65709E-13-1.02283E-11
 -1       510-1.96299E+02-2.76454E-01 1.58423E+00 9.48642E-01 3.96368E-01-2.04951E+00
 -1       511-1.98977E+02-1.46272E-01 5.36734E-01 1.64355E-01-2.97693E-02 8.51634E-01
 -1       512-1.99954E+02 4.75351E-04 1.00455E-01-6.49722E-03 3.05726E-03 1.87786E-01
 -1       513-2.00049E+02-2.88013E-02 1.04581E-01-1.27007E-02-1.99008E-03 3.60086E-04
 -1       514-1.99998E+02-7.07469E-11-4.41553E-10-7.58890E-11-6.30609E-11 7.77795E-10
 -1       515-1.99998E+02 2.48274E-12 2.28738E-12-8.48387E-13-1.96227E-12-8.99671E-12
 -1       516-1.99998E+02 2.89046E-12-6.27089E-12 1.18608E-12-7.42772E-13-1.34613E-11
 -1       517-1.99998E+02 5.03758E-09-1.50817E-08-2.64699E-09 1.05695E-09 5.14796E-08
 -1       518-1.99998E+02-5.31921E-10-1.79437E-09 6.56428E-10 1.08524E-09 5.59051E-09
 -1       519-1.99998E+02 8.53816E-11-6.18230E-11 4.92558E-11-1.43082E-10 3.88598E-10
 -1       520-1.99998E+02-6.74966E-11 1.92506E-10-2.23340E-11-8.20633E-11 5.31310E-10
 -1       521-1.99999E+02 2.69115E-04-7.21263E-04-1.73453E-04 3.28464E-05-1.20602E-03
 -1       522-1.99998E+02-2.96140E-07 2.90805E-06 1.33971E-06 6.95084E-08 4.67803E-06
 -1       523-1.99998E+02-4.87790E-08 5.91147E-07 6.02633E-08 4.82960E-08 1.26033E-06
 -1       524-1.99998E+02-1.61159E-07 6.76767E-07-7.28858E-08 5.10547E-08 1.88418E-07
 -1       525-1.99998E+02 3.26759E-07 9.92882E-06 3.92599E-06 1.98500E-06-1.23115E-05
 -1       526-1.99998E+02 1.85780E-12 1.54172E-12-6.06895E-12-2.41710E-13-7.66742E-12
 -1       527-1.99998E+02 1.16901E-11 3.50650E-12 4.94842E-12 2.63622E-12-9.23962E-12
 -1       528-1.99998E+02-1.16448E-08-2.37781E-08-2.20620E-08 1.31219E-08 3.76322E-08
 -1       529-1.99998E+02-5.64889E-11-1.05707E-10 6.63921E-11 1.56128E-12-9.15542E-11
 -1       530-1.99998E+02-1.05271E-11-1.89615E-11 5.68008E-12 8.74696E-13 1.03415E-11
 -1       531-1.99998E+02 3.50724E-05-6.28830E-05 4.24796E-05 2.97685E-05 1.68277E-04
 -1       532-2.00002E+02 2.37071E-04-2.36390E-03-9.64897E-04-2.52783E-04 3.52324E-03
 -1       533-1.99998E+02-2.09975E-11-9.09790E-12 6.95350E-12 2.27330E-12-5.04277E-13
 -1       534-2.00013E+02-1.87879E-03-4.33808E-03-4.52454E-03 1.73584E-03-5.47286E-03
 -1       535-1.99998E+02-3.60581E-12-7.58688E-12 5.07265E-12-1.99498E-12 4.61240E-12
 -1       536-1.99998E+02 1.91192E-10 5.16786E-10 9.20015E-10-1.62552E-10 3.98984E-09
 -1       537-1.99998E+02 2.30927E-06 9.75702E-06 1.07511E-05-6.03649E-06-1.05355E-05
 -1       538-1.99998E+02 7.36588E-10-1.46347E-09 4.45757E-10 8.31187E-11 5.78029E-09
 -1       539-1.99998E+02-1.10864E-11 1.92057E-11 1.35424E-12-4.21505E-12 4.78505E-12
 -1       540-1.99998E+02 5.94488E-12-1.06777E-11-7.31662E-14-5.18268E-12-3.97160E-12
 -1       541-1.96553E+02 2.22194E+00 4.14208E+00 3.17097E+00 5.89324E-03 3.57444E-02
 -1       542-1.99626E+02 1.04996E-01 1.82120E+00 7.95261E-01-1.28597E-02-2.61510E-02
 -1       543-2.00029E+02 8.07163E-04 1.32993E-04-1.11690E-02-3.53691E-03-2.21952E-02
 -1       544-1.89956E+02 2.45055E+01-8.85074E+00 3.30705E+00 4.66322E-01 5.17337E+00
 -1       545-1.99998E+02-2.59133E-07 6.78284E-07-4.38609E-08-2.91679E-08-1.08470E-06
 -1       546-1.99998E+02-3.55514E-08 1.36885E-08-7.08436E-08 8.36483E-09 1.23889E-07
 -1       547-1.99998E+02-6.57975E-10-5.70446E-10-6.60479E-10-2.05072E-10 1.87820E-10
 -1       548-1.99899E+02 5.71917E-04 1.07660E-01 2.00332E-02-1.74744E-03-1.61932E-01
 -1       549-1.99998E+02 9.83929E-12-1.84521E-10-6.91204E-11-1.18276E-11 6.58290E-11
 -1       550-2.00024E+02-1.13614E-03 1.61353E-03-9.95727E-03-2.77463E-04 1.24032E-03
 -1       551-1.99998E+02-3.14565E-13 1.79945E-12 9.52002E-14-1.09486E-12-2.88428E-12
 -1       552-1.99998E+02-9.62823E-13 4.58368E-12 7.64948E-12-4.30207E-12-9.85827E-12
 -1       553-1.99998E+02 1.83208E-12 3.15672E-11 4.71357E-12-3.91294E-11 4.92739E-11
 -1       554-1.99998E+02 3.24262E-12 9.09801E-13 7.07202E-13 9.04824E-13-1.91709E-12
 -1       555-1.99998E+02 2.72440E-10-8.56918E-10 7.58433E-11 2.00284E-10 3.68222E-09
 -1       556-1.99998E+02-2.36581E-12 3.96681E-12 3.06339E-13-1.47909E-12-9.07113E-12
 -1       557-1.99998E+02-4.67672E-12 6.83497E-11 3.30184E-11 7.83475E-11 2.79615E-10
 -1       558-1.99998E+02 3.33142E-11 2.28382E-11 8.09437E-11 1.33144E-10 1.22490E-09
 -1       559-1.99998E+02-8.72491E-12-6.58249E-11-1.94721E-11 2.33346E-12 2.36143E-11
 -1       560-1.99998E+02 4.68507E-12-8.75099E-12 5.78025E-12 2.33598E-12 9.42948E-12
 -1       561-1.99998E+02-1.50706E-12-7.23047E-12-1.69513E-12 8.44574E-13-1.48939E-11
 -1       562-1.99998E+02 3.16558E-10-3.97199E-09-7.96050E-10 1.89990E-09 1.03922E-08
 -1       563-1.99998E+02-1.64617E-09-3.74216E-08-1.84799E-08 5.15019E-09 6.13531E-08
 -1       564-2.00004E+02-1.78573E-03-9.36346E-03-5.09085E-03-6.38177E-06-4.93211E-04
 -1       565-1.99998E+02-1.41136E-05-2.69010E-03-8.31207E-04-2.45648E-05-2.58595E-04
 -1       566-1.99998E+02 3.46816E-05-8.48674E-05 4.15040E-05-1.78268E-06-1.97530E-05
 -1       567-1.99998E+02 6.46857E-06 1.52091E-05 1.73503E-05-1.55491E-06-5.66200E-06
 -1       568-1.99998E+02 2.89534E-04-7.29501E-04-1.94418E-05 2.83264E-05-1.06771E-04
 -1       569-1.99998E+02 2.86141E-07 1.03667E-05 4.20154E-06-2.19863E-07-7.99206E-07
 -1       570-1.99998E+02-5.79962E-12-2.29389E-12 2.45253E-13-3.69466E-12-1.54601E-11
 -1       571-1.99998E+02 1.33433E-09-1.71406E-08-5.99392E-09 2.82797E-09 2.84600E-08
 -1       572-1.99998E+02-7.36771E-07 3.92605E-06 4.08524E-07 2.04035E-08 3.62849E-07
 -1       573-1.99998E+02 2.86355E-09 4.97965E-08-4.69705E-08-2.03413E-08-4.71075E-08
 -1       574-2.00018E+02-1.15235E-01 5.75340E-01 1.13919E-01 1.23707E-03-1.30124E-02
 -1       575-1.99998E+02 3.24354E-08-3.50433E-09 7.94916E-09 6.24352E-09 5.58052E-10
 -1       576-1.90033E+02 1.56277E+00 1.96376E+00 2.67213E+00-4.61831E-01 9.08401E-01
 -1       577-1.99998E+02 2.52451E-10 5.72164E-10-5.55456E-10-3.54608E-10-8.91481E-10
 -1       578-1.88846E+02 2.05309E+00-3.63189E+00 3.53612E+00-2.97670E-02 7.24996E-02
 -1       579-1.96061E+02 1.44793E+01-3.54798E+00-1.61421E-02 9.16609E-01 1.11885E+01
 -1       580-1.96162E+02 1.44403E+01-3.92805E+00-1.46117E-01-9.43428E-01-1.15110E+01
 -1       581-1.99998E+02 1.28068E-08 1.43588E-10-1.40657E-08 2.57188E-09-4.54017E-09
 -1       582-1.99998E+02-2.68587E-08-1.86969E-08-1.36101E-09-1.53432E-08 1.87222E-08
 -1       583-1.99998E+02-2.83789E-09-1.50862E-09 9.89267E-10-1.96480E-09 2.54988E-10
 -1       584-2.17390E+02-1.87798E+01-4.58613E+01-3.06395E+01 6.18355E-01 1.69394E+01
 -1       585-2.41057E+02-2.43734E+01-3.86037E+01-2.74280E+01 6.25996E+00 3.16817E+01
 -1       586-1.77413E+02 4.84704E+00 3.80701E+00 3.57501E+00-8.81638E-01 1.95275E+00
 -1       587-2.41245E+02-2.44799E+01-3.89859E+01-2.75675E+01-6.36757E+00-3.19874E+01
 -1       588-2.18026E+02-1.90624E+01-4.60557E+01-3.10419E+01-7.29669E-01-1.72306E+01
 -1       589-1.77507E+02 4.82161E+00 3.62187E+00 3.54937E+00 9.16290E-01-2.06340E+00
 -1       590-1.99998E+02-2.62520E-08-2.36840E-08-1.73469E-08-1.10966E-08-3.32711E-08
 -1       591-1.99998E+02 1.40562E-08-2.49158E-08 1.07093E-07 8.36410E-09 1.27391E-07
 -1       592-1.99998E+02 2.09927E-09-1.20099E-08-1.00563E-08-3.63843E-09-3.19012E-09
 -1       593-1.99998E+02 2.34045E-08 1.69815E-08-2.36426E-08-1.12560E-08-8.84906E-08
 -1       594-1.99998E+02 1.25206E-08-1.19169E-09-2.85973E-08 3.15868E-09 5.54608E-08
 -1       595-1.99998E+02-2.79639E-09-2.83918E-09-9.23224E-09 1.00407E-09 3.94970E-10
 -1       596-2.22191E+02-2.81665E+01-5.44340E+01-3.38464E+01 1.73627E+00-1.07323E+01
 -1       597-2.21168E+02-3.01576E+01-5.51370E+01-3.41023E+01-1.35670E+00-4.38455E+00
 -1       598-1.93909E+02 1.90984E+01-1.04496E+01 1.48879E-02-1.82322E+00-9.26474E+00
 -1       599-2.15506E+02-2.09302E+01-4.92864E+01-2.82892E+01 4.74023E-03 2.84420E+00
 -1       600-2.20604E+02-2.64329E+01-5.23990E+01-3.12684E+01-9.90987E-01 1.20808E+01
 -1       601-1.90313E+02 1.89959E+01-1.49914E+01 6.54567E-01 9.30382E-01-4.07592E-01
 -1       602-1.93536E+02 2.00404E+01-9.64741E+00 1.30124E+00 1.39746E+00 9.58359E+00
 -1       603-1.99998E+02-4.67332E-08-7.64024E-09-1.41758E-07 3.24654E-08 2.10020E-08
 -1       604-1.99998E+02 1.91328E-09-2.62403E-08 5.60182E-09 1.25103E-09 1.12234E-08
 -1       605-1.99998E+02 1.36271E-08 7.75657E-09 8.93886E-09 1.74632E-09 8.34741E-10
 -1       606-1.99998E+02-2.19759E-08-3.73972E-08-8.56627E-09 7.54070E-09-5.70445E-08
 -1       607-1.99998E+02-2.09259E-08 2.36310E-08-6.04733E-08 2.39520E-09 6.11552E-08
 -1       608-1.99998E+02 4.60177E-08 1.28843E-08-8.09421E-09-3.88314E-09 8.93096E-09
 -1       609-1.99998E+02-9.76359E-09 1.12626E-08-7.36995E-10 8.12704E-10-6.59247E-09
 -1       610-1.87910E+02 6.22150E-01 1.42492E+00 1.93519E+00 4.00925E-01 1.31697E+00
 -1       611-1.81676E+02-1.24654E+00-9.06484E-01 1.39658E+00-1.76147E+00 3.24748E-01
 -1       612-1.86434E+02 1.66066E+00 4.83707E-02 7.95598E-01-8.93363E-01-3.45415E+00
 -1       613-1.96497E+02-9.97761E-02 5.83893E-01 2.84246E-01-4.08518E-02 1.07829E+00
 -1       614-1.91679E+02-5.81112E-01 5.03857E-01 6.53031E-01-3.24356E-01 1.25772E+00
 -1       615-1.92930E+02 4.56687E-01 1.28914E+00 1.76279E+00-5.81879E-01 1.58128E+00
 -1       616-1.99183E+02-3.69270E-02 1.41463E-01 9.57455E-02 1.94052E-02 4.06872E-01
 -1       617-1.97518E+02-1.46311E-01 2.07627E-01 9.03214E-02 7.85268E-03 4.79360E-01
 -1       618-1.98113E+02-1.76801E-01 9.98763E-01 5.11308E-01-1.56180E-01 1.43663E+00
 -1       619-1.99972E+02-7.28812E-03 2.64960E-02-8.38549E-03 6.66184E-03 8.67149E-02
 -1       620-1.99614E+02-9.46717E-03 4.70171E-02 4.13881E-02-8.75711E-03 1.34846E-01
 -1       621-1.99652E+02 6.47541E-02 2.92931E-01 1.06588E-01-4.11730E-02 4.32452E-01
 -1       622-2.00034E+02-1.56771E-02-8.23928E-03-1.39331E-02 6.19185E-03 1.11157E-02
 -1       623-1.99991E+02 1.54937E-03 7.78152E-03-1.07778E-02 4.41781E-03 1.21284E-02
 -1       624-2.00015E+02-3.45411E-02 3.53182E-02-2.81078E-02-5.60069E-04 9.65691E-02
 -1       625-2.00016E+02 2.36762E-04-2.51165E-03-2.53720E-03 4.03362E-04-2.35595E-03
 -1       626-2.00027E+02-1.78140E-03-2.52067E-03-4.15768E-03 1.86049E-03-4.21683E-03
 -1       627-2.00041E+02-1.70035E-02-9.51067E-03-1.58166E-02 2.65795E-05 3.52838E-03
 -1       628-2.00003E+02-1.57116E-04-8.15571E-04-5.12190E-04 3.84661E-05-1.80300E-03
 -1       629-2.00011E+02 8.27368E-05-1.30826E-03-7.15593E-04 1.86660E-04-2.50278E-03
 -1       630-2.00009E+02-3.22281E-04-3.60238E-03-2.64842E-03 1.35402E-03-4.44860E-03
 -1       631-1.99999E+02 1.82447E-05-2.23146E-04-6.21222E-05-3.59000E-05-6.01048E-04
 -1       632-2.00001E+02 6.72836E-05-3.61263E-04-1.11918E-04 3.30824E-05-7.79960E-04
 -1       633-2.00000E+02 5.28866E-04-1.31251E-03-7.05779E-04 2.12930E-04-2.23202E-03
 -1       634-1.99998E+02 2.34601E-05-2.09116E-05 7.13564E-06-1.86389E-05-9.67604E-05
 -1       635-1.99998E+02 3.44544E-05-4.55034E-05-2.64332E-05-3.10264E-06-1.48911E-04
 -1       636-1.99998E+02-5.70730E-05-3.09417E-04-6.48370E-05 3.95629E-05-5.63720E-04
 -1       637-1.99998E+02 1.45319E-06 4.21953E-06 7.06106E-06-1.55053E-06-3.29765E-06
 -1       638-1.99998E+02 7.02145E-06 6.92777E-06 6.08260E-06-6.46713E-06-7.69376E-06
 -1       639-1.99998E+02-1.77147E-06-2.94357E-05 1.74166E-06-1.36477E-05-9.16476E-05
 -1       640-1.99998E+02 9.92466E-07 1.97602E-06 2.28965E-06 3.83651E-07 4.38334E-06
 -1       641-1.99998E+02-1.27228E-06 1.28002E-06 4.28332E-06-1.05981E-06 7.56108E-06
 -1       642-1.99998E+02 2.33143E-06 1.35966E-05 8.25050E-06-1.77617E-06 4.53943E-06
 -1       643-1.99998E+02 1.73350E-07 7.53297E-07 6.81522E-07 1.86027E-07 2.45231E-06
 -1       644-1.99998E+02-3.15754E-07 1.16878E-06 8.39546E-07 5.79841E-09 3.22155E-06
 -1       645-1.99998E+02-2.44423E-08 5.89245E-06 3.28677E-06-7.09670E-07 7.28366E-06
 -1       646-1.99998E+02-4.17316E-08 1.78940E-07 2.91705E-09 4.85604E-08 6.28502E-07
 -1       647-1.99998E+02-1.13921E-07 3.14336E-07 2.66005E-07-1.82216E-09 9.21557E-07
 -1       648-1.99998E+02 3.23192E-07 1.48663E-06 6.36372E-07-2.94281E-07 2.73020E-06
 -1       649-1.99998E+02-5.69620E-08-6.35935E-08-5.20800E-08 4.80450E-08 1.45372E-07
 -1       650-1.99998E+02 6.07507E-10-7.81112E-09-7.93291E-08 6.14272E-08 1.57607E-07
 -1       651-1.99998E+02-5.44206E-09 2.11818E-07-3.99171E-08 6.04851E-08 7.95707E-07
 -1       652-1.99998E+02-3.06854E-09-4.42790E-09-9.51286E-09 5.79776E-09 2.00074E-08
 -1       653-1.99998E+02-1.44086E-08-1.84640E-09-8.42298E-09 4.92472E-09 2.41019E-08
 -1       654-1.99998E+02-5.91943E-08-3.64548E-08-5.98319E-08 2.06165E-08 1.40769E-07
 -1       655-1.99998E+02-3.10869E-10-3.25043E-09-1.31296E-09 1.08791E-09 4.83859E-09
 -1       656-1.99998E+02-2.13073E-09-6.21160E-09-3.13828E-10 1.76634E-10 5.09813E-09
 -1       657-1.99998E+02-5.86406E-09-1.87767E-08-1.05838E-08 7.19247E-09 1.99170E-08
 -1       658-1.99998E+02-5.55234E-10 3.30637E-10 2.38978E-11 7.04166E-11 2.66521E-09
 -1       659-1.99998E+02-1.43446E-10-1.32143E-10 1.61210E-10-5.40054E-11 2.61272E-09
 -1       660-1.99998E+02-1.36620E-09-5.84876E-09-7.12221E-10 3.39835E-09 8.66113E-09
 -1       661-1.99998E+02 3.51351E-11 9.18821E-10 6.48117E-10-1.94590E-10 1.61618E-09
 -1       662-1.99998E+02-1.90724E-11 8.61120E-10 4.01169E-10-3.47055E-10 1.70972E-09
 -1       663-1.99998E+02-6.56259E-10-1.78185E-09 7.16212E-10 3.03767E-10 4.46016E-09
 -1       664-1.99998E+02-1.47001E-10 3.30717E-10 8.55963E-11-3.16789E-11 6.36722E-10
 -1       665-1.99998E+02-4.29126E-11 3.20244E-10 2.84561E-10-3.02595E-10 9.38117E-10
 -1       666-1.99998E+02 1.48286E-10 7.70843E-10 5.51335E-10 1.67733E-10 2.20099E-09
 -1       667-1.99998E+02-6.87454E-11 1.18417E-10 2.22935E-11-4.74494E-11 2.07552E-10
 -1       668-1.99998E+02 2.30642E-11 2.29346E-10 1.85822E-11-5.64913E-11 3.44741E-10
 -1       669-1.99998E+02-1.66225E-10 1.95202E-10-1.60307E-11-9.78570E-11 9.05944E-10
 -1       670-1.99998E+02-1.75473E-11 2.54076E-11 1.16375E-12-8.60572E-13 3.37619E-11
 -1       671-1.99998E+02-2.96907E-11 2.44412E-11 2.58384E-11-3.93759E-11 6.31061E-11
 -1       672-1.99998E+02-1.16616E-10 7.63067E-11-1.94960E-12-6.49120E-11 2.20324E-10
 -1       673-1.99998E+02-2.53032E-12 1.52067E-11 3.12465E-12-1.70550E-12-1.27511E-12
 -1       674-1.99998E+02 8.47002E-12 1.82920E-11 2.43439E-12-5.56986E-12 2.08620E-12
 -1       675-1.99998E+02-1.62659E-11 5.36599E-11 1.58532E-11 1.01473E-11 5.55585E-11
 -1       676-1.99998E+02-3.91698E-13 4.59383E-12-6.04043E-12-1.90483E-12-9.12238E-12
 -1       677-1.99998E+02-2.67380E-13 8.78553E-12-5.12815E-13-1.24001E-12-7.49685E-12
 -1       678-1.99998E+02-3.29487E-12 1.42996E-11-6.36402E-13 2.84624E-12-9.82869E-12
 -1       679-1.99998E+02-8.24989E-14 1.72737E-12-7.75748E-13-8.39840E-13-6.26104E-12
 -1       680-1.99998E+02-5.59837E-13 7.04126E-12-1.39415E-12-1.75414E-12-3.77915E-12
 -1       681-1.99998E+02 3.41439E-12 1.05350E-11-2.39734E-12-1.66747E-12-1.08888E-11
 -1       682-1.99998E+02-4.79038E-12-2.29241E-12 6.17818E-13-6.87874E-13-6.31522E-12
 -1       683-1.99998E+02-6.14859E-13-3.57276E-12 1.92715E-12-5.58458E-13-7.70266E-12
 -1       684-1.99998E+02-6.24343E-12-2.21110E-12 3.13750E-14-1.71360E-12-1.03232E-11
 -1       685-1.99998E+02 3.43451E-12 8.12244E-12 5.20724E-12-3.55251E-12-1.12046E-11
 -1       686-1.99998E+02 6.23998E-12 3.51694E-12-2.63745E-13-1.50710E-12-8.44413E-12
 -1       687-1.99998E+02-8.29726E-12-5.47310E-12 1.00483E-12 3.05567E-12-1.03631E-11
 -1       688-1.99998E+02 4.41272E-12 5.20771E-12 3.79568E-12 2.04789E-12-5.20532E-12
 -1       689-1.99998E+02-3.26057E-12 9.09245E-12 5.11343E-12-1.76803E-12-6.71526E-12
 -1       690-1.99998E+02 1.22591E-11 7.89344E-12 1.04926E-11 2.35359E-12-5.69094E-12
 -1       691-1.99998E+02-8.64881E-12-8.47335E-12 8.67402E-12 4.57598E-12-2.58047E-12
 -1       692-1.99998E+02-7.49232E-12-3.63610E-12 7.58883E-12 2.49706E-12-4.67947E-12
 -1       693-1.99998E+02-5.95013E-12 1.88337E-12 5.51366E-13 3.26832E-12-3.72200E-13
 -1       694-1.99998E+02-7.82743E-12-1.77116E-11 6.81508E-12 1.21867E-12 1.13518E-11
 -1       695-1.99998E+02 1.42471E-13-9.35429E-12 8.02699E-12 9.63472E-13 1.10662E-12
 -1       696-1.99998E+02-2.67519E-12-7.83559E-12-2.04293E-13 2.28344E-12 3.15972E-12
 -1       697-1.99998E+02-1.69709E-11-7.07887E-11 1.78620E-12 6.13696E-12 7.81861E-11
 -1       698-1.99998E+02 4.36034E-12-3.85252E-11 1.26049E-11-8.06831E-12 5.35887E-11
 -1       699-1.99998E+02-1.19205E-11-5.58348E-11 2.50789E-14-9.55180E-12 4.84959E-11
 -1       700-1.99998E+02-1.13625E-10-2.24021E-10-1.29168E-10 1.61321E-12 6.21589E-10
 -1       701-1.99998E+02-6.01713E-11-1.70787E-10 3.06498E-11-6.02564E-11 3.30784E-10
 -1       702-1.99998E+02 1.99219E-11-2.19677E-10-5.42895E-12-4.42583E-11 3.55183E-10
 -1       703-1.99998E+02 1.91315E-09 2.34021E-09-4.16600E-10 1.31077E-09-7.11284E-10
 -1       704-1.99998E+02-3.39191E-12-5.95448E-10-3.43217E-10 4.57970E-10 1.56054E-09
 -1       705-1.99998E+02-4.47549E-10-1.00266E-09 2.00236E-11 1.72215E-10 1.61942E-09
 -1       706-1.99998E+02-3.75157E-09 1.98415E-09 1.16597E-09 1.69790E-09-3.95981E-10
 -1       707-1.81659E+02-1.21826E+00-8.84491E-01 1.39077E+00 1.83400E+00-3.01781E-01
 -1       708-1.87962E+02 6.57918E-01 1.43280E+00 1.97083E+00-3.48836E-01-1.34300E+00
 -1       709-1.86290E+02 2.00431E+00 3.11472E-01 9.32597E-01 1.08954E+00 3.48547E+00
 -1       710-1.91591E+02-5.63004E-01 4.89662E-01 6.20562E-01 3.30070E-01-1.23277E+00
 -1       711-1.96104E+02-3.68734E-01 5.25767E-01 5.10341E-01 5.29013E-02-1.19396E+00
 -1       712-1.92879E+02 4.64862E-01 1.34823E+00 1.55785E+00 6.21645E-01-1.45505E+00
 -1       713-1.97569E+02-1.80195E-01 2.11026E-01 1.77773E-01 5.13609E-02-6.28342E-01
 -1       714-1.99295E+02-7.48915E-02 1.28957E-01 3.27564E-02-4.62908E-02-4.12789E-01
 -1       715-1.98068E+02-3.04055E-01 1.11046E+00 5.11712E-01 1.43995E-01-1.41960E+00
 -1       716-1.99635E+02-3.47530E-02 3.74403E-02 2.23557E-02-9.99996E-03-1.20431E-01
 -1       717-1.99936E+02-5.50479E-04 3.24526E-02 2.82189E-03-1.05809E-03-7.57324E-02
 -1       718-1.99800E+02-3.71884E-02 2.58235E-01 4.99808E-02 4.32695E-02-4.32220E-01
 -1       719-2.00025E+02 1.88569E-03 3.71471E-04-8.55378E-03-3.60580E-03-1.28003E-02
 -1       720-2.00025E+02-1.88172E-03-1.61735E-03-8.04292E-03-1.71187E-03-8.48264E-03
 -1       721-1.99989E+02 1.08172E-02 3.52730E-02 1.46154E-02-5.51298E-03-7.76996E-02
 -1       722-2.00022E+02-1.27792E-03-1.64397E-03-2.26461E-03-1.52598E-03 3.36012E-03
 -1       723-2.00012E+02 1.55596E-04-1.53239E-03-1.50573E-03-2.20595E-04 2.20413E-03
 -1       724-2.00026E+02-3.25272E-03-4.00039E-03-6.04406E-03-1.41746E-03-5.08580E-03
 -1       725-2.00009E+02 9.93001E-05-1.15461E-03-6.32765E-04-2.48933E-04 2.29357E-03
 -1       726-2.00002E+02 5.24935E-04-5.59723E-04-6.18385E-04 1.21459E-04 1.91901E-03
 -1       727-2.00007E+02-7.60693E-05-2.94809E-03-1.46537E-03-1.19853E-03 3.99543E-03
 -1       728-2.00000E+02 3.28619E-04-1.95666E-04-2.03722E-04-1.51831E-06 6.82503E-04
 -1       729-1.99998E+02 3.83692E-05-1.91303E-04 1.19929E-05 1.59533E-05 4.00740E-04
 -1       730-1.99999E+02 6.33960E-04-1.23592E-03-5.12538E-04-1.73416E-04 2.07129E-03
 -1       731-1.99998E+02 2.69853E-05-2.18755E-05 4.05860E-05 3.69701E-05 9.28019E-05
 -1       732-1.99998E+02 3.37463E-06 6.70134E-06 1.27141E-05 1.18437E-05 8.26245E-05
 -1       733-1.99998E+02 2.31251E-05-2.62843E-04-1.93726E-05 7.08011E-06 5.40304E-04
 -1       734-1.99998E+02-4.33410E-06 1.06105E-06 1.19820E-05 5.42849E-06 4.37944E-06
 -1       735-1.99998E+02-2.77136E-06 2.37308E-06 1.07435E-05 2.05950E-06 1.57207E-06
 -1       736-1.99998E+02-4.26885E-06-1.00514E-05 4.45482E-06 1.06152E-05 7.12770E-05
 -1       737-1.99998E+02 1.23176E-07 3.87593E-06 2.76802E-06 2.20322E-06-8.32803E-06
 -1       738-1.99998E+02-1.24557E-06 2.64663E-06 2.17993E-06 3.16803E-07-6.26475E-06
 -1       739-1.99998E+02-3.08794E-07 1.06647E-05 8.52222E-06 2.85505E-06-8.55897E-06
 -1       740-1.99998E+02-8.10206E-07 1.72822E-06 1.19974E-06 3.13226E-07-3.30292E-06
 -1       741-1.99998E+02-2.19599E-07 1.44975E-06 3.66970E-07-2.24940E-08-2.03860E-06
 -1       742-1.99998E+02-1.62265E-06 5.61474E-06 2.17479E-06 1.59795E-06-8.20425E-06
 -1       743-1.99998E+02-1.83005E-07 3.43167E-07-1.03906E-07-7.11114E-08-5.68995E-07
 -1       744-1.99998E+02-1.41684E-07 1.16218E-07 1.58256E-08-5.22355E-08-5.34883E-07
 -1       745-1.99998E+02-5.83274E-09 1.96946E-06 5.64010E-07 6.80387E-08-2.69018E-06
 -1       746-1.99998E+02-3.98200E-09 3.21156E-08-8.70329E-09-1.99727E-08-6.11661E-08
 -1       747-1.99998E+02-1.22872E-08 1.69341E-09-4.15841E-08-5.47634E-09-3.64221E-09
 -1       748-1.99998E+02 4.32029E-08 3.35575E-07 4.81098E-08-1.57708E-08-4.71150E-07
 -1       749-1.99998E+02-1.34795E-08-1.85620E-08-2.88974E-08-3.83402E-09 6.35368E-08
 -1       750-1.99998E+02 2.37024E-10-1.66089E-08-1.86701E-08 3.53140E-09 4.84606E-08
 -1       751-1.99998E+02-2.66832E-08-9.04727E-09-4.31047E-08 4.82709E-09 4.72267E-08
 -1       752-1.99998E+02 5.69895E-09-5.97795E-09-1.18532E-09-4.92143E-11 2.78710E-08
 -1       753-1.99998E+02 6.24761E-09-3.63900E-09-3.38315E-09 9.70164E-10 2.71395E-08
 -1       754-1.99998E+02-4.37111E-09-1.96549E-08-1.42508E-08-2.37132E-09 6.97361E-08
 -1       755-1.99998E+02 2.12260E-09-3.96375E-09-2.17977E-09-1.15379E-09 1.30550E-08
 -1       756-1.99998E+02 1.47249E-09-2.53893E-09-3.11480E-10 1.48825E-10 9.11747E-09
 -1       757-1.99998E+02 6.15668E-09-1.06427E-08-2.43734E-09-6.01550E-10 3.36194E-08
 -1       758-1.99998E+02 8.73664E-10-1.09452E-09-2.86457E-10-6.25116E-10 3.82684E-09
 -1       759-1.99998E+02 3.78074E-10-8.10017E-10 7.87706E-11 9.23149E-11 2.72046E-09
 -1       760-1.99998E+02 2.01581E-09-2.82635E-09 4.04599E-10-4.52662E-10 1.09977E-08
 -1       761-1.99998E+02 1.73590E-10-1.81576E-10-7.78689E-11-7.71094E-11 8.72911E-10
 -1       762-1.99998E+02 9.93420E-11-2.02706E-10-3.96208E-11 2.13568E-12 6.64028E-10
 -1       763-1.99998E+02 1.39769E-10-8.31687E-10-4.23127E-11 1.12813E-10 3.00324E-09
 -1       764-1.99998E+02 2.45774E-12-2.45060E-10-1.05232E-12-3.37616E-11 2.15809E-10
 -1       765-1.99998E+02 3.41445E-11-1.91707E-10 7.93188E-12-7.10846E-11 1.37092E-10
 -1       766-1.99998E+02 1.46509E-10 2.61239E-11 7.27719E-11-2.66291E-11 7.53089E-10
 -1       767-1.99998E+02 1.28906E-11-3.34635E-11-9.65413E-12-2.80907E-11 4.75188E-11
 -1       768-1.99998E+02 7.74656E-12-3.05596E-11-9.38237E-12-6.57686E-12 2.78058E-11
 -1       769-1.99998E+02 6.41592E-11-8.08333E-11 6.60422E-12-3.44285E-11 1.34417E-10
 -1       770-1.99998E+02 8.29241E-12-5.90352E-12-9.75609E-13-8.68937E-12-2.47697E-12
 -1       771-1.99998E+02 7.68057E-12-2.56879E-12 6.54498E-14-2.92874E-12-3.88298E-12
 -1       772-1.99998E+02 1.81671E-12-3.17223E-11-7.28737E-12 7.58903E-12 1.77900E-11
 -1       773-1.99998E+02 4.60138E-13 1.48601E-12 2.79771E-12-3.49601E-12-7.16146E-12
 -1       774-1.99998E+02 2.13607E-13-3.23015E-12-3.99131E-13-2.97366E-12-7.16777E-12
 -1       775-1.99998E+02 6.83428E-13-6.54535E-12 2.94790E-12-2.86153E-12-8.88552E-12
 -1       776-1.99998E+02 1.80114E-12 1.20054E-14 2.09279E-13-2.07140E-13-8.35072E-12
 -1       777-1.99998E+02 9.12434E-12-1.16456E-13 1.05694E-12 4.89988E-13-8.55181E-12
 -1       778-1.99998E+02-6.66881E-12-4.06010E-12-1.47597E-12-3.24435E-12-1.65240E-11
 -1       779-1.99998E+02 8.85037E-12-4.82308E-12 4.59250E-12 6.44586E-13-5.07928E-13
 -1       780-1.99998E+02-7.69327E-12-6.73301E-12 4.97550E-12-3.82877E-12-3.62055E-12
 -1       781-1.99998E+02-4.86391E-12-1.15333E-11 1.93070E-12-5.69801E-12-5.17152E-12
 -1       782-1.99998E+02-4.12240E-12 1.56473E-12-1.64668E-12-3.48619E-13-4.78921E-12
 -1       783-1.99998E+02 2.76194E-12-4.40148E-13-5.34635E-12-1.19199E-13-8.54606E-12
 -1       784-1.99998E+02 1.43700E-12-1.55481E-12-1.45391E-12-4.69168E-13-7.08224E-12
 -1       785-1.99998E+02 1.03098E-11-5.37698E-14-1.38087E-12-6.58159E-13-1.39125E-13
 -1       786-1.99998E+02 3.31955E-12-1.78688E-12-2.72396E-12 6.73061E-13 1.19543E-12
 -1       787-1.99998E+02 2.02296E-12-1.33943E-12-3.72904E-12-2.09963E-12-3.18385E-12
 -1       788-1.99998E+02-4.58006E-12-9.00731E-12 1.45145E-12 1.75593E-13 9.73098E-12
 -1       789-1.99998E+02-1.71860E-12-4.68198E-12-6.48556E-13 1.78754E-12 3.68816E-12
 -1       790-1.99998E+02-5.18742E-12-7.45023E-12 1.82018E-12-8.67603E-13 8.36178E-12
 -1       791-1.99998E+02-5.33122E-12-7.82354E-12 7.65608E-12 4.39641E-12 2.58973E-12
 -1       792-1.99998E+02 3.96660E-14-1.50947E-11-2.33522E-12 2.02612E-12-2.59581E-12
 -1       793-1.99998E+02-1.12742E-11-1.43618E-11 7.21075E-12 2.70058E-13-9.64132E-13
 -1       794-1.99998E+02-2.37792E-11-4.98772E-11 1.91833E-11-9.70381E-12-3.75081E-11
 -1       795-1.99998E+02-4.48639E-11-8.16380E-11 1.20777E-11-9.52533E-12-6.42114E-11
 -1       796-1.99998E+02-1.73975E-11-5.23690E-11 1.44679E-11 4.79774E-12-4.17037E-11
 -1       797-1.99998E+02-3.33114E-11-1.00823E-10 2.12012E-11-3.55906E-12-2.44718E-10
 -1       798-1.99998E+02-3.29966E-11-1.40501E-10 2.71398E-12-3.32389E-12-3.93488E-10
 -1       799-1.99998E+02-4.40888E-11-2.20355E-10 1.18863E-10 1.89518E-11-2.66595E-10
 -1       800-1.99998E+02 2.08380E-10-3.45187E-10-1.80282E-10-1.26351E-10-6.11662E-10
 -1       801-1.99998E+02-5.24450E-10-2.10663E-10-2.62458E-09 1.89444E-10-4.00021E-10
 -1       802-1.99998E+02 1.50365E-10-2.92310E-10-5.87917E-11 6.30982E-11-8.20814E-10
 -1       803-1.99998E+02 9.82274E-10 2.70090E-09 4.91776E-10-5.21873E-10 5.09018E-09
 -1       804-1.99998E+02 3.32506E-13 1.30001E-12 1.43884E-12 3.08888E-13-1.41499E-11
 -1       805-1.99998E+02 5.73729E-14 7.16746E-12 1.28757E-12-1.98022E-12-1.75845E-11
 -1       806-1.99998E+02-2.91855E-12 1.16669E-11-4.94219E-12 1.58039E-12-1.66296E-11
 -1       807-1.99998E+02-3.22338E-12 1.31826E-11-4.01258E-13-3.12068E-12-4.41150E-12
 -1       808-1.99998E+02-5.90951E-12-7.26125E-13 1.00002E-12-1.33437E-13-1.51630E-11
 -1       809-1.99998E+02-6.64747E-12-5.82712E-12 4.52761E-12-2.14805E-12-1.10374E-12
 -1       810-1.99998E+02-5.95044E-12-4.37506E-12 2.23252E-12 1.58542E-12-5.92221E-12
 -1       811-1.99998E+02-1.01753E-11-6.46164E-12 4.14064E-12-3.10311E-12 4.76544E-13
 -1       812-1.99998E+02-2.48363E-13-1.01971E-12 2.35159E-13-3.12724E-13 2.04523E-13
 -1       813-1.99998E+02 5.01698E-12 3.33664E-12 2.31138E-12 1.82049E-12-2.14757E-12
 -1       814-1.99998E+02-5.21544E-11-1.68520E-10 2.49567E-11 7.67674E-12-3.25535E-11
 -1       815-1.99998E+02 7.03399E-11-2.19564E-10 7.74016E-11 5.61398E-12-2.10059E-10
 -1       816-1.99998E+02 2.06011E-11-4.98311E-10-1.70438E-10-8.56299E-11-1.58550E-10
 -1       817-1.99998E+02-4.42314E-11-2.98348E-10-1.67065E-10-5.10414E-11 1.08206E-10
 -1       818-1.99998E+02 5.73640E-10 3.62759E-10-6.56917E-10-6.19030E-11-7.06416E-10
 -1       819-1.99998E+02 4.99459E-11 1.55316E-10-5.39426E-11-2.01551E-11 8.01949E-10
 -1       820-1.99998E+02 2.20548E-10 3.57177E-10 1.23546E-10-4.14107E-11 1.09158E-09
 -1       821-1.99998E+02 4.66610E-10 5.62853E-10-3.48303E-11 1.28417E-10 2.11354E-09
 -1       822-1.99998E+02 3.05115E-10 1.31232E-10 2.68571E-10 4.47994E-10 3.46121E-09
 -1       823-1.99998E+02 1.08270E-10-4.26422E-10 1.88344E-10 4.42172E-11 2.06048E-09
 -1       824-1.99998E+02 5.92242E-11 8.71802E-11 2.21934E-11 1.42733E-11 2.21033E-10
 -1       825-1.99998E+02-2.70412E-11 3.49723E-11 3.87499E-11 1.21134E-11 1.45950E-10
 -1       826-1.99998E+02-5.09187E-11-5.30026E-11 5.81643E-12-9.33553E-12 6.08988E-11
 -1       827-1.99998E+02 5.97052E-12-2.19178E-11 9.16299E-12-1.04797E-11 3.16984E-13
 -1       828-1.99998E+02 3.08633E-12 7.00382E-11 1.57868E-11-5.05943E-12 1.81588E-10
 -1       829-1.99998E+02-3.24186E-12-1.10359E-11 3.90207E-12 4.84471E-13-1.34640E-11
 -1       830-1.99998E+02-1.26539E-11-6.51952E-12-7.10483E-13 4.12850E-13-9.02431E-12
 -1       831-1.99998E+02-2.13844E-12-2.09397E-12 4.61907E-12-1.34841E-12-9.23944E-12
 -1       832-1.99998E+02 9.35935E-13 1.00025E-12 2.96194E-13 1.01797E-12-5.00530E-12
 -1       833-1.99998E+02-2.98356E-12-2.00842E-12 1.12301E-12-2.20567E-12-9.92597E-12
 -1       834-1.99998E+02-5.22754E-12-3.17479E-11-6.50726E-12-3.82948E-12-5.81542E-13
 -1       835-1.99998E+02-1.38624E-11-9.28071E-11 1.40442E-11 1.57050E-11-4.21884E-11
 -1       836-1.99998E+02 1.32341E-12-3.80363E-12 5.27034E-12 1.98014E-12 3.63398E-12
 -1       837-1.99998E+02-8.91438E-12-2.29146E-11 8.40062E-12 3.21500E-12-3.99553E-12
 -1       838-1.99998E+02-1.10986E-11-4.67850E-11-3.53859E-12 2.91425E-12 1.39590E-11
 -1       839-1.99998E+02 4.61707E-09-1.98326E-08-3.99703E-09 1.96383E-09 3.69186E-08
 -1       840-1.99998E+02 1.06540E-09-1.26120E-08-1.33451E-09 1.50210E-09 2.24127E-08
 -1       841-1.99998E+02 1.63617E-09-4.31367E-09-3.33055E-11 5.30717E-10 1.29998E-08
 -1       842-1.99998E+02 8.49443E-10-1.90851E-09 2.65391E-10 6.63120E-10 7.98432E-09
 -1       843-1.99998E+02 3.48533E-10-9.11041E-09-2.28483E-09 2.27525E-09 1.69702E-08
 -1       844-2.00063E+02-4.09590E-02 3.84357E-02-1.92339E-02 2.21269E-03 1.39485E-02
 -1       845-2.00050E+02-2.09864E-02 1.21506E-01-2.08096E-02 8.98979E-03 1.00011E-01
 -1       846-2.00045E+02-1.23910E-02-5.42466E-03-1.77986E-02 6.66045E-05 9.44615E-03
 -1       847-2.00063E+02-5.31575E-03 3.57907E-02-6.97844E-03-4.16689E-03-4.31486E-03
 -1       848-2.00021E+02-2.95042E-03-8.17234E-03-6.91300E-03 3.67706E-04-3.88796E-03
 -1       849-1.99998E+02 2.64821E-04-1.57898E-03-5.51353E-04-1.50979E-05-7.74690E-04
 -1       850-2.00000E+02 3.20355E-04-2.95025E-03-1.00288E-03 8.87492E-05-1.71003E-03
 -1       851-2.00002E+02-2.95589E-04-6.03686E-03-2.63782E-03-1.67676E-05-2.16731E-03
 -1       852-2.00008E+02-1.95562E-03-6.20743E-03-5.33336E-03 1.41835E-03-2.76020E-03
 -1       853-2.00000E+02-4.39673E-04-5.21938E-03-1.95650E-03-6.52321E-05-1.09284E-04
 -1       854-1.98265E+02-2.18801E-01 1.91100E+00 7.94726E-01 8.29067E-02-8.83605E-01
 -1       855-1.99694E+02-1.51628E-01 1.15191E+00 3.81194E-01 1.50070E-02-4.46356E-01
 -1       856-1.99838E+02 7.32624E-02 1.17009E+00 3.94324E-01-5.23356E-04-1.09363E-02
 -1       857-1.99871E+02-5.39138E-02 5.88666E-01 1.14200E-01 3.26204E-02-3.37714E-01
 -1       858-2.00182E+02-1.06738E-01 2.37807E-01 3.98916E-02-1.04599E-02-1.19227E-01
 -1       859-1.99998E+02-7.38079E-07 6.37469E-06 3.02852E-06 4.44865E-08 2.24203E-06
 -1       860-1.99998E+02 4.51665E-07 1.16672E-05 4.30645E-06-7.45310E-07 4.09844E-06
 -1       861-1.99998E+02 4.04855E-06 1.75723E-05 1.12534E-05-4.14603E-07 3.41086E-06
 -1       862-1.99998E+02 2.49867E-06 1.00441E-05 1.57152E-05-3.38788E-06-1.21467E-05
 -1       863-1.99998E+02 3.09222E-06 1.36313E-05 9.05970E-06-8.12259E-07-3.34006E-06
 -1       864-1.99998E+02-4.45833E-08 2.32571E-07-3.08640E-08-1.06151E-09 2.85881E-07
 -1       865-1.99998E+02-1.10177E-07 7.20541E-07 2.00808E-08 3.40313E-08 7.21158E-07
 -1       866-1.99998E+02-6.71095E-08 6.62101E-09-8.36676E-08 2.57742E-08 2.04430E-07
 -1       867-1.99998E+02-3.88546E-08 2.58309E-07-7.16980E-08 9.52491E-09 1.65017E-07
 -1       868-1.99998E+02-2.60453E-08-3.35922E-08-4.30932E-08 9.89244E-09 8.25549E-08
 -1       869-1.99998E+02 1.20788E-04-2.91379E-04 2.67127E-06-3.39363E-05-1.88298E-04
 -1       870-1.99998E+02-6.42021E-05-8.06367E-04-1.52081E-04 1.88104E-05-5.51359E-04
 -1       871-1.99998E+02 2.04503E-05-9.74357E-06 2.53890E-05-5.78006E-07-2.33766E-05
 -1       872-1.99998E+02 1.38087E-05-1.11701E-04 2.51441E-05-7.59064E-06-1.10915E-04
 -1       873-1.99998E+02 1.16472E-04-2.83080E-04 6.24476E-05 4.24475E-06-3.85943E-05
 -1       874-1.94534E+02 1.34849E+00 2.45163E+00 2.51813E+00 5.86727E-01-3.15879E-01
 -1       875-1.95793E+02 2.06764E-01 3.18506E+00 1.66851E+00 1.16587E-01-9.11988E-01
 -1       876-1.87523E+02 2.78281E+00 8.72675E-01 3.53634E+00 2.97104E-01 2.44205E-02
 -1       877-1.92649E+02 2.78161E+00 5.16284E-01 3.56697E+00-1.67169E-02 1.26378E-01
 -1       878-1.80539E+02 5.54954E+00-1.54179E+00 3.69210E+00 3.11875E-01 3.23726E+00
 -1       879-1.79230E+02 4.34910E+00-5.17126E+00 3.74429E+00 3.96503E-01 2.00875E+00
 -1       880-1.99585E+02-8.92285E-02 1.16647E+00 5.33042E-01-2.00648E-02 4.75515E-01
 -1       881-1.98322E+02-1.53607E-01 1.89216E+00 8.60009E-01-9.08441E-02 8.60202E-01
 -1       882-1.95826E+02 4.75823E-01 3.26796E+00 1.94806E+00-1.53025E-01 9.56250E-01
 -1       883-1.96728E+02 6.13320E-01 3.08933E+00 1.69806E+00 2.93753E-03-5.02864E-02
 -1       884-1.94314E+02 1.31620E+00 2.58839E+00 2.49585E+00-6.00932E-01 2.84439E-01
 -1       885-1.99998E+02-1.78769E-10-4.91531E-10 2.65033E-10 8.50408E-11 1.02024E-09
 -1       886-1.99998E+02 2.61281E-10-2.52008E-10-2.76430E-10-4.31277E-11 2.73308E-10
 -1       887-1.99998E+02-4.07683E-09-3.45014E-09 1.88871E-09-5.99672E-10 1.70868E-09
 -1       888-1.99998E+02-2.36810E-09-2.09772E-09 1.48857E-10-1.21213E-09-1.58304E-10
 -1       889-1.99998E+02-1.10092E-09-7.12817E-09 7.53983E-09 1.86396E-09 4.40406E-09
 -1       890-1.99998E+02 4.33788E-10-7.64457E-10 6.48150E-09-5.02980E-10 4.83690E-09
 -1       891-1.99998E+02 1.08348E-09-6.86030E-09-2.81716E-09 1.59668E-09 1.40032E-08
 -1       892-1.99998E+02 8.20980E-10-1.50132E-08-4.93025E-09 4.48049E-09 2.21266E-08
 -1       893-1.99998E+02 2.57287E-09-2.53842E-08-1.21925E-08 2.26294E-09 3.12745E-08
 -1       894-1.99998E+02-6.60267E-09-3.77355E-08-2.26070E-08 8.96369E-09 5.26647E-08
 -1       895-1.99998E+02 4.31185E-09-2.35050E-08-1.18212E-08 2.91625E-09 4.32348E-08
 -1       896-1.99998E+02 1.51252E-10-2.00808E-10-3.52011E-11-2.48504E-11 3.20212E-10
 -1       897-1.99998E+02-7.27354E-12-1.58317E-10-4.57509E-11-7.43658E-12 1.05091E-10
 -1       898-1.99998E+02-5.13508E-12-8.81119E-11-6.47799E-12-9.22894E-12 6.64364E-11
 -1       899-1.99998E+02-1.34214E-11-4.23393E-11-9.36803E-12 6.61295E-12 1.82723E-11
 -1       900-1.99998E+02 1.16281E-11-9.94646E-11-4.38405E-11-3.76211E-12 3.82212E-11
 -1       901-2.00007E+02-2.09655E-04-5.91991E-03-3.08596E-03-1.46861E-03 1.08408E-03
 -1       902-2.00002E+02-2.33258E-04-5.11311E-03-2.25999E-03 2.00787E-04 1.65169E-03
 -1       903-2.00036E+02-2.58484E-03 1.85305E-03-8.70079E-03-2.37782E-03-1.09493E-02
 -1       904-2.00020E+02-2.95410E-03-6.40780E-03-5.78105E-03-9.63773E-04 2.30000E-03
 -1       905-2.00012E+02-2.57212E-03-5.49476E-03-7.50307E-03-2.57529E-04 2.81140E-05
 -1       906-1.99998E+02-5.09989E-07 1.06834E-05 3.90414E-06 1.36303E-06-5.04610E-06
 -1       907-1.99998E+02-1.65868E-06 5.76424E-06 1.97671E-06 7.58169E-08-3.38123E-06
 -1       908-1.99998E+02-9.05597E-08 4.38581E-06 1.16732E-06 2.97679E-07-1.81938E-06
 -1       909-1.99998E+02-3.40659E-07 1.69073E-06 1.78655E-07-9.99729E-08-6.63712E-07
 -1       910-1.99998E+02-2.44830E-07 7.19544E-06 2.09925E-06-4.29554E-07-2.62141E-07
 -1       911-1.99998E+02-6.68216E-09-3.42024E-08-2.19308E-08-2.61453E-09 7.19161E-08
 -1       912-1.99998E+02 1.22906E-09-3.06241E-08-9.48215E-09 3.91617E-09 5.42425E-08
 -1       913-1.99998E+02-3.97308E-08-3.79342E-08-4.33217E-08 4.29836E-09 1.04734E-07
 -1       914-1.99998E+02-2.04836E-08-2.13926E-08-3.67060E-08 5.47592E-09 8.88508E-08
 -1       915-1.99998E+02-2.91201E-08 3.08420E-08-6.00302E-08-5.95262E-09 3.61249E-08
 -1       916-1.99998E+02 1.42961E-04-7.96081E-04-1.47480E-04-3.40618E-05 3.60572E-04
 -1       917-1.99998E+02 1.08073E-04-2.54725E-04 2.39896E-05 4.47164E-05 1.13045E-04
 -1       918-1.99999E+02 5.29028E-04-2.72905E-03-8.67609E-04-8.72227E-05 1.35687E-03
 -1       919-1.99997E+02 6.07238E-04-1.19601E-03-2.74286E-04-5.42713E-05 4.86260E-04
 -1       920-1.99998E+02 1.76542E-04-1.61927E-03-3.69523E-04 9.07045E-05-1.58393E-04
 -1       921-1.99998E+02 5.91550E-06 1.69608E-05 1.44656E-05 3.07495E-06-7.66125E-07
 -1       922-1.99998E+02 3.18298E-06 1.58045E-05 9.14831E-06 1.31722E-07-8.42334E-06
 -1       923-1.99998E+02 4.15252E-05-1.07930E-04 1.71095E-05 1.58457E-06 6.78490E-05
 -1       924-1.99998E+02 8.56073E-06-1.14497E-05 1.46504E-05 1.92086E-06-1.22458E-06
 -1       925-1.99998E+02 1.54955E-05-1.30380E-05 2.73935E-05-9.30549E-07-1.34391E-05
 -1       926-1.81932E+02 4.42720E+00-7.87850E+00 2.51964E+00-5.04831E-01-2.14330E+00
 -1       927-1.82791E+02 3.51241E+00-2.52135E+00 2.19950E+00-5.17931E-01-2.85285E+00
 -1       928-1.87974E+02 2.92950E+00 4.03556E-01 3.70048E+00-3.33417E-01-1.75885E-01
 -1       929-1.99998E+02 6.09168E-09 5.17396E-09-4.85124E-09-3.45072E-09 1.67381E-10
 -1       930-1.99998E+02-3.93523E-09-8.98279E-10-2.85572E-09 1.64189E-09-6.40028E-09
 -1       931-1.99998E+02-3.05779E-09-1.95035E-09 2.86328E-10-7.09526E-10-1.60158E-09
 -1       932-1.99998E+02-8.62669E-12-6.48246E-12-3.23941E-12-4.61256E-12-1.69555E-11
 -1       933-1.99998E+02-2.12706E-12-9.85308E-12-9.65618E-13-3.70868E-12-1.40467E-11
 -1       934-1.99998E+02-1.18503E-11-1.02732E-11 2.96464E-12-1.90525E-12-6.50954E-12
 -1       935-1.99998E+02-6.19432E-12-3.66337E-12 9.11744E-13 1.03109E-12-1.69564E-11
 -1       936-1.99998E+02 3.43296E-12 5.32629E-12-3.42769E-12-1.27154E-12 8.26297E-13
 -1       937-1.99998E+02 7.64072E-12 4.19302E-12-1.28245E-12-1.62393E-12 3.78122E-12
 -1       938-1.99998E+02 5.36416E-12-1.63990E-12-9.83912E-13-6.98208E-13 1.29642E-12
 -1       939-1.99998E+02 1.16689E-11 4.48261E-12 2.06332E-12-1.83427E-12 5.76545E-13
 -1       940-1.99998E+02-2.45457E-10-4.46107E-10 1.32202E-10 3.11427E-11 1.21722E-09
 -1       941-1.99998E+02 1.29016E-12-1.80945E-11 8.99469E-11-3.70127E-11 8.10473E-10
 -1       942-1.99998E+02-1.69942E-10-1.45747E-09 1.46499E-10 1.89681E-10 4.46524E-09
 -1       943-1.99998E+02-8.13361E-11-7.79761E-10 2.77240E-10 8.44852E-11 2.20651E-09
 -1       944-1.99998E+02-1.84699E-11 8.51057E-13-5.81042E-12-9.16984E-12 1.70321E-10
 -1       945-1.99998E+02-7.71780E-11 3.40721E-11 1.71732E-11-1.16184E-11 2.70821E-10
 -1       946-1.99998E+02 3.40232E-12 4.52151E-11-6.88196E-14-5.18875E-12 3.55558E-12
 -1       947-1.99998E+02 2.39071E-11 7.45790E-11 2.08571E-11-1.32084E-11 9.70811E-11
 -1       948-1.99998E+02-6.83610E-12-1.21913E-11-4.24603E-13 1.34281E-13-1.12258E-11
 -1       949-1.99998E+02 2.00968E-12-7.28747E-12-1.43190E-12-6.24054E-13-1.47456E-11
 -1       950-1.99998E+02 1.55086E-12 2.82307E-12 9.16403E-12 1.83390E-12-7.38037E-12
 -1       951-1.99998E+02-1.27115E-11-4.11444E-12 5.72068E-12-2.70385E-12-7.46215E-12
 -1       952-2.00132E+02-6.15762E-02 2.84223E-01 5.62948E-02 1.52357E-02 1.15447E-01
 -1       953-1.99724E+02 3.96810E-02 6.68593E-01 2.00136E-01-3.81941E-02 3.48713E-01
 -1       954-2.00116E+02-8.43182E-02 2.98758E-01 1.77296E-02 1.14023E-03-1.51058E-02
 -1       955-2.00073E+02-6.98202E-03 2.45784E-02-1.00859E-03-1.38094E-03-2.44240E-02
 -1       956-1.99958E+02 4.77844E-03 1.39480E-01 1.44974E-02-3.46551E-03-7.71794E-02
 -1       957-1.99998E+02-3.00425E-13-2.60659E-12-8.20282E-13-1.21259E-12-1.57027E-11
 -1       958-1.99998E+02 8.91046E-10-1.55826E-09-9.63005E-11 6.53570E-10 6.82689E-09
 -1       959-1.99998E+02 6.99171E-10-3.29185E-09-8.82487E-11 7.29719E-10 7.56104E-09
 -1       960-1.99998E+02-3.72183E-11 6.48853E-11 1.63605E-11 2.01727E-10 6.58978E-10
 -1       961-1.99998E+02-5.43007E-07 1.66825E-06 2.94925E-07 1.39549E-07 1.04470E-06
 -1       962-1.99998E+02 3.87722E-07 3.95877E-06 1.08181E-06-3.03253E-07 2.42983E-06
 -1       963-1.99998E+02-4.35634E-07 1.68141E-06 7.28246E-08 2.67342E-08 1.78494E-07
 -1       964-1.99998E+02-1.99030E-07 8.42564E-07 5.22321E-08 4.63207E-08-3.92406E-07
 -1       965-1.99998E+02-5.39724E-08 2.69251E-07-4.16627E-08 5.10014E-09 3.98854E-08
 -1       966-1.99998E+02-8.91998E-12-1.77224E-12 3.95312E-12-4.73361E-12-9.47377E-12
 -1       967-1.99998E+02-3.57694E-12-1.48106E-11 6.00826E-12 2.37530E-12 8.97252E-12
 -1       968-1.99998E+02 1.20329E-12-1.54311E-12 1.24993E-12-3.41068E-12 6.35892E-12
 -1       969-1.99998E+02 1.24204E-12-2.61407E-12-5.01935E-13 8.79524E-13 4.59940E-12
 -1       970-1.99998E+02 3.37464E-10-1.88466E-09-3.49501E-10 1.29478E-09 6.61009E-09
 -1       971-1.99998E+02 2.90616E-12-3.49804E-12 5.35888E-12-3.55708E-13-4.41028E-12
 -1       972-1.99998E+02 8.13482E-12 1.64744E-12 2.82900E-13-8.42257E-12 9.48131E-12
 -1       973-1.99998E+02-8.22874E-13 4.21250E-12 3.21793E-12-3.34917E-13-2.46721E-12
 -1       974-1.99998E+02-1.18077E-10 1.13045E-10-9.72042E-11-3.61545E-11 2.17394E-10
 -1       975-1.99998E+02 1.26888E-10-3.48797E-10 1.49453E-10 1.09209E-10-1.50225E-09
 -1       976-1.99998E+02 3.46713E-11-4.33034E-11-2.06182E-11-1.68571E-11-8.85642E-11
 -1       977-1.99998E+02-1.57308E-12-1.11206E-12 2.16190E-12-3.99676E-12-3.62950E-13
 -1       978-1.99998E+02 4.30938E-12-1.66436E-12-7.50744E-13-4.80125E-12-2.28379E-11
 -1       979-1.99998E+02-7.52199E-11-1.86348E-09-2.33304E-10 1.12449E-09-6.29299E-09
 -1       980-2.00017E+02-6.10244E-03 5.43290E-04 2.57189E-02-1.21978E-02 2.79954E-02
 -1       981-2.00003E+02 1.10201E-04-2.26601E-03 7.74411E-04-1.29839E-04-3.06531E-03
 -1       982-1.99141E+02-1.03583E-01 5.35086E-01-1.06549E-01-5.70594E-02-8.06439E-01
 -1       983-1.99998E+02 5.36292E-07 1.02902E-05-4.04365E-06 1.92579E-06 1.24071E-05
 -1       984-1.99998E+02-1.52245E-07 5.94104E-08 1.29111E-07-3.76246E-08 5.30662E-08
 -1       985-1.99998E+02 9.67844E-06-6.72590E-05-6.37183E-06 7.99476E-06-1.51352E-04
 -1       986-1.90823E+02 1.58363E+00 2.11577E+00-2.40828E+00-6.64219E-01-1.00980E+00
 -1       987-1.96187E+02-2.26705E-01 1.66152E+00-8.64391E-01 2.15089E-01 2.17623E+00
 -1       988-1.99998E+02 2.04239E-10-2.08484E-09-7.83107E-10 8.76631E-11 1.28176E-09
 -1       989-1.99998E+02-3.92503E-12 1.58724E-12 1.35251E-12 4.76602E-13 5.97742E-13
 -1       990-1.99998E+02 2.73332E-09-1.74688E-08 6.00726E-09-1.91622E-10-5.26413E-08
 -1       991-1.99998E+02 1.38382E-11 8.08515E-11 1.02799E-11 1.29065E-11-6.79772E-11
 -1       992-1.99998E+02-5.73465E-11 2.45289E-10 1.69570E-11-6.55776E-11-5.33781E-10
 -1       993-1.99998E+02 6.56787E-12 1.94359E-12-8.11218E-12 2.17006E-12-1.13610E-11
 -1       994-1.99998E+02-4.42979E-12 1.73662E-11-3.00675E-12-2.28711E-12-2.00129E-11
 -1       995-2.00012E+02-2.06852E-03-3.87370E-03 3.93193E-03 1.70736E-03 5.34718E-03
 -1       996-1.99998E+02-5.49640E-07 2.62879E-06-1.02339E-06-8.76140E-08-4.37422E-06
 -1       997-1.99998E+02-1.05034E-08-2.59395E-08 2.17203E-08 1.52039E-08-3.82814E-08
 -1       998-1.99999E+02 2.88426E-04-6.65335E-04 1.45149E-04 1.24031E-05 1.17535E-03
 -1       999-1.99998E+02 2.59367E-06 1.14477E-05-1.08822E-05-6.53399E-06 1.08234E-05
 -1      1000-1.91608E+02 1.88113E+01-1.42832E+01 1.59032E+00-1.78773E-01-4.92849E+00
 -1      1001-1.99998E+02-6.38531E-08 2.61645E-10-3.00618E-08-7.29655E-10 2.07185E-09
 -1      1002-1.96379E+02-3.30857E-02 1.59625E+00-8.88203E-01-1.97231E-01-2.12094E+00
 -1      1003-1.99253E+02-6.28844E-02 5.21403E-01-5.31827E-02 6.17729E-02 7.58318E-01
 -1      1004-1.99894E+02-3.50599E-02 9.45140E-02 2.86577E-02-1.27777E-02 1.95887E-01
 -1      1005-2.00060E+02-2.54719E-02 1.05829E-01 1.44614E-02-1.54309E-04-6.32683E-04
 -1      1006-1.99998E+02 6.59359E-13 5.78427E-11 1.40131E-10 7.58562E-11-2.58729E-10
 -1      1007-1.99998E+02 5.48968E-12-2.83470E-12-1.44608E-13-7.63320E-14 8.90398E-12
 -1      1008-1.99998E+02-8.32284E-12-6.17097E-12-9.11803E-13-4.37861E-14-1.41026E-11
 -1      1009-1.99998E+02-5.36265E-11 5.70053E-10-2.14923E-10-5.58960E-11-1.45170E-09
 -1      1010-1.99998E+02-2.06456E-09-1.10784E-08 2.66119E-09 5.07702E-09-1.29280E-08
 -1      1011-1.99998E+02 1.40087E-09-6.52843E-09 2.47503E-10 2.91610E-10-1.89917E-08
 -1      1012-1.99998E+02 8.12515E-12-1.53705E-10-1.90089E-13 2.04884E-11-3.60433E-10
 -1      1013-1.99998E+02 8.59831E-11 4.88740E-10-9.26499E-10-1.39687E-10-3.89859E-09
 -1      1014-1.99999E+02 1.99757E-05-6.32929E-04 1.89627E-04-4.64180E-05-8.10397E-04
 -1      1015-1.99998E+02 3.69804E-08 3.78465E-06-1.44810E-06 4.04920E-07 4.86581E-06
 -1      1016-1.99998E+02-2.77480E-07 6.82892E-07 8.04532E-08-3.16591E-08 1.12207E-06
 -1      1017-1.99998E+02-1.19815E-07 6.56588E-07 2.97307E-08 2.69753E-08-1.98647E-07
 -1      1018-1.99998E+02 2.78304E-06 1.16795E-05-6.28351E-06-3.84602E-07-1.11433E-05
 -1      1019-1.99998E+02-1.77370E-11 5.25723E-11-1.90513E-11-4.16619E-12-1.28543E-10
 -1      1020-1.99998E+02 1.20176E-11 3.61240E-13-6.18390E-13-2.07426E-13-8.25287E-12
 -1      1021-1.99998E+02-3.35087E-09-2.55941E-08 3.83594E-08-1.03639E-08-8.02856E-08
 -1      1022-1.99998E+02-1.74868E-11 1.66928E-11 1.48111E-12-1.30098E-11-3.31790E-12
 -1      1023-1.99998E+02 3.17525E-12 1.10575E-11 6.67344E-12 1.25737E-12-2.13720E-11
 -1      1024-1.99998E+02 1.62981E-05-8.63917E-05-1.15393E-05-1.70847E-05 1.95836E-04
 -1      1025-2.00003E+02-3.45356E-05-2.24085E-03 1.17985E-03 1.34377E-04 3.56985E-03
 -1      1026-1.99998E+02-1.06016E-11-6.43903E-12-2.76683E-12 1.26274E-12-9.75436E-12
 -1      1027-1.99998E+02-1.57422E-12 6.55758E-12 1.21012E-12 1.47085E-13 3.02970E-12
 -1      1028-2.00013E+02-4.62578E-03-6.17238E-03 8.13864E-03-2.56367E-03-3.14339E-03
 -1      1029-1.99998E+02 6.95375E-10-1.17924E-09 1.66978E-10 3.12749E-10-5.47321E-09
 -1      1030-1.99998E+02-3.10641E-06 8.97588E-06-1.48230E-05 4.69765E-06-4.68117E-06
 -1      1031-1.99998E+02-1.57891E-11-1.07355E-11-6.70689E-12-1.94468E-12-1.56999E-11
 -1      1032-1.99998E+02 4.51819E-12-1.44168E-11 4.41955E-12-6.07537E-12-3.11479E-13
 -1      1033-1.99998E+02-1.37566E-12 1.88509E-12 3.19190E-12 2.81694E-12-4.65883E-13
 -1      1034-1.96492E+02 2.16761E+00 4.36135E+00-3.12682E+00 5.92095E-02-5.13089E-02
 -1      1035-1.99551E+02 1.21480E-01 1.86991E+00-8.05192E-01-2.20556E-02-6.92562E-02
 -1      1036-2.00018E+02-6.08159E-03 8.44816E-05 2.09916E-02 1.08314E-02-2.42029E-02
 -1      1037-1.90700E+02 2.35593E+01-9.25822E+00-2.94347E+00-4.24443E-01 5.30467E+00
 -1      1038-1.99998E+02-3.71947E-08 5.83698E-07-6.04423E-08 4.67268E-08-1.24326E-06
 -1      1039-1.99998E+02-4.76844E-08 1.06882E-08 7.87721E-08 1.79697E-08-1.32904E-07
 -1      1040-1.99998E+02-2.97813E-10 1.07057E-09-8.39682E-10-1.70671E-10-4.32160E-10
 -1      1041-1.99929E+02-6.41244E-03 1.03554E-01-4.07534E-03-9.96372E-04-1.76283E-01
 -1      1042-1.99998E+02-1.22195E-11 1.95683E-10-1.94868E-12-1.21678E-11-2.31014E-11
 -1      1043-2.00023E+02-4.74102E-03-6.83794E-04 1.23843E-02-1.27088E-03-5.65843E-04
 -1      1044-1.99998E+02-2.13713E-12 2.77366E-12 7.46366E-12-7.16392E-13-8.11565E-12
 -1      1045-1.99998E+02 2.16064E-12 1.69996E-13-2.58269E-12 1.67413E-12-1.05835E-11
 -1      1046-1.99998E+02-7.90154E-12-5.60709E-12 4.78924E-12 1.10483E-12 3.15946E-12
 -1      1047-1.99998E+02-7.86682E-12 4.94369E-11 2.15426E-13-5.52913E-12-1.29599E-11
 -1      1048-1.99998E+02-8.42808E-12 4.45365E-11-2.33704E-11 1.53360E-11-2.93986E-10
 -1      1049-1.99998E+02 1.56254E-10-4.08087E-09 8.15151E-10 1.68319E-09-1.05926E-08
 -1      1050-1.99998E+02 7.81300E-12 2.24655E-11 7.90575E-12-8.96746E-12-7.67491E-11
 -1      1051-1.99998E+02 3.31745E-13 3.62937E-12 1.27045E-12-5.63264E-12-1.68123E-12
 -1      1052-1.99998E+02 5.03225E-13 5.99524E-12 2.42887E-12-2.90458E-12-1.21562E-11
 -1      1053-1.99998E+02 1.17993E-11 5.49749E-12 1.97488E-12 1.40045E-12-5.86769E-12
 -1      1054-1.99998E+02-2.33755E-09-4.14733E-08 2.34987E-08 6.02366E-09-6.26919E-08
 -1      1055-2.00003E+02-1.54463E-03-7.22877E-03 4.35118E-03 3.14936E-04 5.12414E-04
 -1      1056-1.99998E+02 2.48260E-05-2.54571E-03 7.58862E-04-1.59319E-05 1.68802E-04
 -1      1057-1.99998E+02 3.79236E-10-1.03457E-09-4.28941E-10 1.69431E-10-3.93703E-09
 -1      1058-1.99998E+02 3.36654E-05-7.53570E-05-4.21295E-05-1.37362E-06 2.67082E-05
 -1      1059-1.99998E+02 6.44264E-06 1.57570E-05-1.74662E-05-1.52907E-06 6.72389E-06
 -1      1060-1.99998E+02 2.49498E-04-6.81126E-04-4.77759E-06 3.75388E-05 1.33754E-04
 -1      1061-1.99998E+02 3.34157E-11 7.32773E-11-1.03399E-10 9.57463E-11-1.16677E-09
 -1      1062-1.99998E+02 3.63204E-12 6.79264E-12 1.03721E-12 1.75256E-12 8.02560E-12
 -1      1063-1.99998E+02 3.46773E-07 1.05499E-05-4.27765E-06-2.17525E-07 1.01525E-06
 -1      1064-1.99998E+02 1.40621E-09-1.74677E-08 6.54864E-09 2.91988E-09-2.90236E-08
 -1      1065-1.99998E+02-7.44196E-07 3.95136E-06-4.12240E-07 2.99622E-09-3.01707E-07
 -1      1066-1.99998E+02-2.90674E-08-1.56260E-08 1.32181E-07 7.73626E-08-3.06165E-07
 -1      1067-1.99943E+02-1.83225E-01 6.29453E-01-1.28279E-01-2.15466E-02-2.95026E-03
 -1      1068-1.99998E+02 1.08692E-07 8.01163E-09 6.32502E-08 7.63363E-09 3.28400E-10
 -1      1069-1.90734E+02 1.45302E+00 1.91886E+00-2.30809E+00 5.67372E-01 1.08623E+00
 -1      1070-1.99998E+02 2.07498E-09 1.86056E-09 1.49210E-09 2.53095E-09 3.84626E-09
 -1      1071-1.88860E+02 2.31060E+00-3.49852E+00-3.49517E+00 4.10342E-02-1.18395E-02
 -1      1072-1.96195E+02 1.41731E+01-3.17128E+00-4.02527E-01-9.91658E-01 1.14117E+01
 -1      1073-2.00730E+02 1.51393E+01-4.71123E+00 2.20206E+00 1.77811E+00-1.33462E+01
 -1      1074-1.99998E+02-2.67724E-09-1.35227E-10 2.40671E-09-3.87198E-10-1.49899E-09
 -1      1075-1.99998E+02 7.89395E-08-1.84737E-08 4.79150E-08 3.24932E-09 9.16140E-09
 -1      1076-1.99998E+02-5.31380E-11 3.38276E-09-2.69427E-09-1.88222E-09-5.68174E-09
 -1      1077-2.41043E+02-2.44596E+01-3.84068E+01 2.73636E+01-6.20291E+00 3.15960E+01
 -1      1078-2.16998E+02-1.88010E+01-4.58760E+01 3.04844E+01-4.44027E-01 1.68802E+01
 -1      1079-1.77800E+02 4.43570E+00 3.79125E+00-3.76475E+00 8.65602E-01 2.09787E+00
 -1      1080-2.25612E+02-2.90434E+01-5.15280E+01 3.46673E+01 2.73085E+00-1.99378E+01
 -1      1081-2.43983E+02-2.55907E+01-3.99263E+01 2.84684E+01 5.62541E+00-3.10399E+01
 -1      1082-1.77623E+02 4.41354E+00 4.01830E+00-3.97660E+00-3.96232E-01-2.39685E+00
 -1      1083-1.99998E+02 6.23369E-08 4.53547E-08 1.35266E-07 1.46762E-09 8.67320E-08
 -1      1084-1.99998E+02 4.85285E-08-7.17287E-09 1.02642E-07-9.71622E-10-2.03823E-07
 -1      1085-1.99998E+02-1.13841E-08-2.75675E-08 2.91240E-08-7.13176E-11-9.35589E-09
 -1      1086-1.99998E+02 3.42148E-09-1.75642E-09 1.14496E-08 3.42775E-09 2.32172E-08
 -1      1087-1.99998E+02-1.90727E-08 5.31725E-09-6.16185E-08 2.90290E-08-2.76821E-08
 -1      1088-1.99998E+02-5.79396E-09-1.16929E-09 2.74962E-09-8.45766E-10-1.65007E-09
 -1      1089-2.18007E+02-2.89799E+01-5.41482E+01 3.31434E+01 5.82412E-01-3.65278E+00
 -1      1090-2.16646E+02-2.11583E+01-5.13363E+01 2.96253E+01-5.18993E-01-1.14256E+01
 -1      1091-1.92278E+02 2.04920E+01-1.01407E+01 5.82643E-01 3.47821E-01-9.06366E+00
 -1      1092-2.21041E+02-2.71428E+01-5.28080E+01 3.15957E+01 9.96957E-01 1.19366E+01
 -1      1093-2.16151E+02-2.25778E+01-4.99903E+01 2.91613E+01-1.70526E-01 2.72839E+00
 -1      1094-1.90760E+02 1.84861E+01-1.52776E+01-3.32756E-01-5.80972E-01-7.85510E-01
 -1      1095-1.93435E+02 1.97439E+01-9.50006E+00-1.51332E+00-1.26297E+00 9.85127E+00
 -1      1096-1.99998E+02 1.96827E-08 8.08703E-09 8.15766E-08-1.13235E-08 1.17429E-07
 -1      1097-1.99998E+02 2.18729E-08 2.09263E-08 2.37803E-07-1.74907E-08-2.11546E-07
 -1      1098-1.99998E+02 3.52672E-08 2.33957E-08 2.64272E-08 1.49317E-08 1.74703E-08
 -1      1099-1.99998E+02-6.45282E-08-3.36427E-08-1.00806E-07 2.06050E-08-3.01237E-08
 -1      1100-1.99998E+02-1.13764E-07-7.99456E-08-1.62112E-07 9.14349E-11 2.01062E-07
 -1      1101-1.99998E+02 6.04270E-08 2.20545E-08 2.19101E-08-1.58727E-08-3.22900E-08
 -1      1102-1.99998E+02-1.48048E-08-6.21336E-10-1.14767E-08 1.29722E-08 3.14268E-08
 -1      1103-1.81832E+02-9.49678E-01-6.75765E-01-1.32061E+00 1.79060E+00 3.19874E-01
 -1      1104-1.89065E+02 1.48817E-01 8.87562E-01-1.47032E+00-1.13797E-01 9.09833E-01
 -1      1105-1.85687E+02 2.55417E+00 1.00089E+00-1.34662E+00 1.27911E+00-3.87992E+00
 -1      1106-1.91161E+02-1.30137E-01 7.92182E-01-6.66888E-01 2.32503E-01 1.39391E+00
 -1      1107-1.96005E+02-3.82835E-01 4.32930E-01-5.92672E-01-3.72199E-02 1.22888E+00
 -1      1108-1.92855E+02 6.25219E-02 1.69327E+00-1.00274E+00 6.18500E-01 1.97088E+00
 -1      1109-1.97649E+02-1.71447E-01 2.22248E-01-1.91939E-01 5.15975E-02 5.85702E-01
 -1      1110-1.99388E+02-3.85735E-02 1.53786E-01-9.90854E-03-2.14778E-02 3.66772E-01
 -1      1111-1.98221E+02-3.43057E-01 1.03629E+00-4.86200E-01 1.68708E-01 1.42363E+00
 -1      1112-1.99590E+02-2.48506E-02 4.07807E-02 2.27780E-02-1.90340E-02 1.01796E-01
 -1      1113-1.99957E+02-1.97188E-02 2.66440E-03 1.25073E-02-7.64900E-03 9.26031E-02
 -1      1114-1.99708E+02-5.29790E-02 2.22484E-01-1.22662E-02 8.44452E-03 4.90391E-01
 -1      1115-1.99987E+02 4.57760E-03 2.82540E-03 1.39364E-02-9.24879E-03 1.11834E-02
 -1      1116-2.00029E+02-3.23579E-03-9.00690E-03 9.35540E-03-4.79886E-03 1.28881E-02
 -1      1117-2.00033E+02-2.36656E-02 1.80896E-02 2.27424E-02-1.89611E-02 1.10747E-01
 -1      1118-2.00021E+02 2.16880E-03-7.79099E-04 4.54839E-03-1.45926E-03-2.30308E-03
 -1      1119-2.00014E+02-1.92680E-03-3.51990E-03 3.06916E-03-1.55091E-03-9.87074E-04
 -1      1120-2.00035E+02-1.48114E-02-1.12787E-02 1.68149E-02-5.71164E-03 1.09102E-02
 -1      1121-2.00008E+02 3.51053E-04-8.63814E-04 7.35212E-04-1.17462E-04-1.99905E-03
 -1      1122-2.00002E+02 2.99104E-04-5.14715E-04 4.42921E-04 1.46827E-04-1.56104E-03
 -1      1123-2.00011E+02-1.71163E-03-4.65252E-03 3.65721E-03-6.14290E-04-3.63247E-03
 -1      1124-2.00000E+02 2.59088E-04-2.24448E-04 1.79240E-04 1.81766E-05-5.87141E-04
 -1      1125-1.99999E+02-4.87381E-06-2.18929E-04 5.04955E-05-1.10938E-08-3.54858E-04
 -1      1126-1.99999E+02 4.02675E-04-1.12782E-03 3.70247E-04-2.48686E-04-1.82138E-03
 -1      1127-1.99998E+02 1.57582E-05-1.75069E-05-2.78608E-05 1.05630E-05-9.33212E-05
 -1      1128-1.99998E+02-2.45953E-06-1.76896E-05-1.61181E-05-4.96080E-06-7.33514E-05
 -1      1129-1.99998E+02-4.51098E-05-2.62163E-04 1.23404E-04-3.02993E-06-4.17907E-04
 -1      1130-1.99998E+02-3.46078E-06 3.89942E-06-1.19685E-05 4.12201E-06-3.71205E-06
 -1      1131-1.99998E+02-2.53391E-06 3.44123E-06-9.94975E-06 1.98972E-06-1.36229E-06
 -1      1132-1.99998E+02-4.36523E-06-1.46571E-05 9.38131E-07 5.79138E-06-6.22377E-05
 -1      1133-1.99998E+02 1.67096E-07 4.33956E-06-2.44881E-06 2.11565E-06 8.60371E-06
 -1      1134-1.99998E+02-1.13470E-06 2.79902E-06-2.22530E-06 3.16227E-07 6.30003E-06
 -1      1135-1.99998E+02 5.51522E-07 1.15556E-05-8.39899E-06 2.52943E-06 8.31992E-06
 -1      1136-1.99998E+02-8.09017E-07 1.76345E-06-1.23076E-06 3.05623E-07 3.33178E-06
 -1      1137-1.99998E+02-1.75224E-07 1.47296E-06-4.07332E-07-3.65371E-08 2.03022E-06
 -1      1138-1.99998E+02-1.59312E-06 5.74991E-06-2.25417E-06 1.57143E-06 8.28427E-06
 -1      1139-1.99998E+02-1.66734E-07 3.30980E-07 7.14611E-08-7.11582E-08 5.49456E-07
 -1      1140-1.99998E+02-8.61658E-08 1.22558E-07 5.04089E-08-1.67895E-08 5.06277E-07
 -1      1141-1.99998E+02-8.34264E-09 1.97433E-06-6.22762E-07 5.60561E-08 2.69250E-06
 -1      1142-1.99998E+02 2.02569E-08 7.82174E-08 5.54669E-08-3.21099E-08 3.31838E-08
 -1      1143-1.99998E+02-3.23331E-08-1.75388E-08 5.25283E-08-2.08828E-08 2.52414E-08
 -1      1144-1.99998E+02-4.41636E-07 1.48402E-07 1.56624E-07 5.05317E-10 5.36216E-07
 -1      1145-1.99998E+02 2.81658E-08-1.66464E-09 2.06042E-08-7.23171E-09-4.62048E-08
 -1      1146-1.99998E+02 2.52558E-09-1.74369E-08 1.40555E-08-4.59973E-09-4.13670E-08
 -1      1147-1.99998E+02-7.31767E-08-1.90515E-08 8.41835E-08-4.06069E-08-1.08479E-08
 -1      1148-1.99998E+02 9.06327E-10-9.59448E-09 4.73428E-09-2.38907E-09-3.18507E-08
 -1      1149-1.99998E+02 3.54545E-09-6.35203E-09 5.00642E-09 4.14171E-12-2.73291E-08
 -1      1150-1.99998E+02-3.85200E-09-2.51643E-08 1.67757E-08-3.47864E-09-6.80625E-08
 -1      1151-1.99998E+02 2.10408E-09-3.59952E-09 2.45497E-09-1.08512E-09-1.29055E-08
 -1      1152-1.99998E+02 1.47859E-09-2.37426E-09 4.50916E-10 2.31813E-10-9.08008E-09
 -1      1153-1.99998E+02 5.70882E-09-1.09257E-08 3.32607E-09-9.10935E-10-3.39381E-08
 -1      1154-1.99998E+02 1.10858E-09-6.64498E-10 5.36097E-10-4.78088E-10-3.65760E-09
 -1      1155-1.99998E+02 1.90365E-10-7.53493E-10 3.65265E-11 1.19639E-10-2.60400E-09
 -1      1156-1.99998E+02 2.22337E-09-2.53191E-09-1.19268E-10-5.26608E-10-1.07363E-08
 -1      1157-1.99998E+02 1.10206E-10-2.53037E-10-8.44983E-11-1.81079E-11-7.96209E-10
 -1      1158-1.99998E+02 1.30767E-10-2.34463E-10-3.87125E-11-4.35435E-11-7.32621E-10
 -1      1159-1.99998E+02 1.93411E-10-4.93800E-10 4.05575E-10 4.32711E-10-3.19469E-09
 -1      1160-1.99998E+02-5.55685E-11-1.88906E-10-2.03709E-11-3.01154E-11-1.91367E-10
 -1      1161-1.99998E+02 3.35565E-11-1.10858E-10-4.38485E-11-4.18373E-11-1.55524E-10
 -1      1162-1.99998E+02 4.21041E-11-1.79209E-10 1.13798E-10 1.29402E-10-8.37263E-10
 -1      1163-1.99998E+02-2.87940E-12-8.03902E-11-1.02473E-11-1.73574E-11-6.15382E-11
 -1      1164-1.99998E+02 3.13410E-11-2.90167E-11-2.14510E-12-1.27254E-11-2.43715E-11
 -1      1165-1.99998E+02 6.54688E-11-6.87156E-11-4.05450E-11-2.66710E-11-2.14410E-10
 -1      1166-1.99998E+02 1.34042E-11-3.55318E-12-2.77657E-12-9.54197E-12 2.57887E-12
 -1      1167-1.99998E+02-2.26532E-12-1.24554E-11 7.28364E-13-9.01544E-12 8.62246E-12
 -1      1168-1.99998E+02 3.05131E-11-1.25293E-11-1.17209E-11-2.33306E-11-1.20827E-11
 -1      1169-1.99998E+02-4.63138E-12-3.91077E-12 1.26410E-13-9.04360E-12 9.19066E-12
 -1      1170-1.99998E+02 5.35272E-12 3.70144E-12 2.51456E-12-2.35103E-12 6.68277E-12
 -1      1171-1.99998E+02-2.12723E-12-4.52249E-12 1.85879E-12-4.04550E-12 8.14179E-12
 -1      1172-1.99998E+02 4.01727E-12 4.43238E-12 1.69356E-12 1.33833E-12 6.56902E-12
 -1      1173-1.99998E+02 5.88618E-12 2.25705E-12 1.25482E-12-6.08927E-13 4.45341E-12
 -1      1174-1.99998E+02 8.60056E-12-1.59501E-12-1.37879E-12-4.80742E-12 1.34076E-11
 -1      1175-1.99998E+02 1.59081E-12-1.00652E-12-8.21111E-13-3.30512E-12 1.50592E-12
 -1      1176-1.99998E+02-1.13715E-12 5.07528E-13 2.93782E-12-2.38837E-12-4.55245E-12
 -1      1177-1.99998E+02 6.05098E-12-3.73672E-13 1.36840E-12-1.54990E-12 1.31104E-12
 -1      1178-1.99998E+02 5.21150E-12 6.12415E-12 2.79210E-12-8.11238E-13-8.95494E-13
 -1      1179-1.99998E+02 6.03729E-12 7.14766E-12 5.41908E-12 1.94294E-13-1.05256E-11
 -1      1180-1.99998E+02-1.72707E-12-4.03859E-12 1.00717E-12-2.00105E-12-3.99823E-13
 -1      1181-1.99998E+02-5.39214E-12-8.75072E-13 8.82512E-12-9.98333E-13-3.82986E-12
 -1      1182-1.99998E+02 2.68784E-12 7.74836E-13 3.52582E-12 2.06795E-12 2.37095E-13
 -1      1183-1.99998E+02 1.97975E-12 9.63047E-14-4.44436E-13-1.48515E-12-9.17973E-12
 -1      1184-1.99998E+02-6.11427E-12-3.84740E-12-3.81081E-12-3.33845E-13-4.39867E-12
 -1      1185-1.99998E+02-3.74054E-12-2.31537E-12 5.15223E-12-1.26439E-13-2.90847E-12
 -1      1186-1.99998E+02-1.02455E-11-6.04848E-12-1.48958E-12 1.05888E-14-5.34468E-12
 -1      1187-1.99998E+02 9.00551E-12 5.36661E-12 8.19226E-12-1.36304E-13-7.72642E-12
 -1      1188-1.99998E+02-1.22343E-11 9.76655E-12 7.00226E-13-1.64226E-12-1.77576E-11
 -1      1189-1.99998E+02-2.14307E-12 2.50165E-12 1.21898E-12 1.52696E-12-1.30856E-11
 -1      1190-1.99998E+02 4.16151E-12 4.02532E-11 6.34569E-12 8.98647E-13-3.29740E-11
 -1      1191-1.99998E+02 2.31613E-12 3.33664E-11 1.35378E-11 5.92693E-12-6.26237E-11
 -1      1192-1.99998E+02 5.93381E-12 3.80788E-11 4.45653E-12 9.36096E-12-3.83875E-11
 -1      1193-1.99998E+02 6.74076E-13 7.96468E-11 3.47120E-11 4.22913E-12-1.15487E-10
 -1      1194-1.99998E+02-8.70131E-11-5.39283E-11-3.71147E-12 6.16287E-11-1.88598E-10
 -1      1195-1.99998E+02 1.70688E-11 1.34835E-10 4.20522E-11 1.33425E-11-1.18144E-10
 -1      1196-1.99998E+02 4.03222E-10-6.98589E-10-8.69411E-11 1.11289E-10 5.04448E-10
 -1      1197-1.99998E+02 2.09051E-09 5.76597E-10-1.86458E-10-1.33794E-09 6.50615E-10
 -1      1198-1.99998E+02 4.54241E-10-6.16106E-10 1.94473E-10 1.57367E-10-7.09725E-11
 -1      1199-1.99998E+02 3.41345E-10 2.88573E-09 5.76768E-10 2.07233E-09 1.28386E-09
 -1      1200-1.88975E+02 2.03581E-01 1.03290E+00-1.47742E+00 4.08899E-02-9.65383E-01
 -1      1201-1.81841E+02-1.00538E+00-6.57837E-01-1.33750E+00-1.87379E+00-3.45752E-01
 -1      1202-1.86461E+02 2.28853E+00 7.93679E-01-1.06392E+00-1.14277E+00 3.43590E+00
 -1      1203-1.96170E+02 4.45915E-02 5.71900E-01-4.40303E-01-2.02297E-02-1.05907E+00
 -1      1204-1.91100E+02-1.37162E-01 8.19233E-01-6.26106E-01-2.13323E-01-1.41995E+00
 -1      1205-1.92904E+02 6.74823E-02 1.77685E+00-1.13108E+00-6.68966E-01-2.02295E+00
 -1      1206-1.99233E+02-3.13354E-02 1.53169E-01-6.11266E-02 2.39594E-02-4.30803E-01
 -1      1207-1.97663E+02-5.90801E-02 2.66714E-01-1.17092E-01-3.62281E-02-5.76864E-01
 -1      1208-1.98081E+02-2.14002E-01 1.02150E+00-5.08912E-01-1.71809E-01-1.41194E+00
 -1      1209-1.99971E+02-8.46357E-03 2.93289E-02 6.09029E-03 3.38262E-03-7.95206E-02
 -1      1210-1.99611E+02-1.55821E-02 5.28898E-02-2.96090E-02 4.45522E-03-1.26357E-01
 -1      1211-1.99760E+02 9.88763E-03 2.74345E-01-6.54265E-02-4.68805E-02-4.30813E-01
 -1      1212-2.00030E+02-9.14555E-03-8.85474E-03 1.00769E-02 6.12200E-03-8.98196E-03
 -1      1213-2.00001E+02 9.33132E-04 5.06500E-04 1.21174E-02 8.86975E-03-1.07132E-02
 -1      1214-2.00003E+02-6.21511E-03 3.82452E-02 8.35266E-03 1.01164E-02-9.89438E-02
 -1      1215-2.00015E+02 1.42718E-04-2.43971E-03 2.28639E-03 4.86133E-04 2.17549E-03
 -1      1216-2.00026E+02-2.72265E-03-2.40979E-03 3.85740E-03 1.26781E-03 4.18464E-03
 -1      1217-2.00033E+02-9.76789E-03-5.95029E-03 1.07717E-02 2.15337E-03-3.69937E-03
 -1      1218-2.00003E+02-1.24725E-04-7.47828E-04 5.02914E-04 9.40367E-06 1.72461E-03
 -1      1219-2.00010E+02 1.10043E-04-1.18798E-03 6.97771E-04 1.68164E-04 2.34466E-03
 -1      1220-2.00009E+02-1.75806E-04-3.26149E-03 2.43254E-03 1.25853E-03 4.21164E-03
 -1      1221-1.99999E+02 3.59272E-05-2.05866E-04 5.57373E-05-4.13039E-05 5.86079E-04
 -1      1222-2.00001E+02 7.22839E-05-3.37932E-04 1.11679E-04 2.54780E-05 7.56987E-04
 -1      1223-2.00000E+02 5.05842E-04-1.24419E-03 6.50937E-04 1.75189E-04 2.16034E-03
 -1      1224-1.99998E+02 2.11109E-05-2.00581E-05-5.47248E-06-1.91846E-05 9.47040E-05
 -1      1225-1.99998E+02 3.37682E-05-4.91936E-05 2.88009E-05-5.57629E-06 1.46109E-04
 -1      1226-1.99998E+02-3.23572E-05-2.82842E-04 6.27101E-05 3.23292E-05 5.51905E-04
 -1      1227-1.99998E+02 1.47820E-06 4.60933E-06-7.02885E-06-1.68799E-06 3.35146E-06
 -1      1228-1.99998E+02 7.22245E-06 8.02142E-06-5.41971E-06-6.44402E-06 7.78588E-06
 -1      1229-1.99998E+02-2.40094E-06-2.45349E-05-1.84431E-06-1.41465E-05 8.99005E-05
 -1      1230-1.99998E+02 9.08953E-07 2.14424E-06-2.66881E-06 1.07886E-06-5.43728E-06
 -1      1231-1.99998E+02-1.82018E-06 5.64724E-07-4.58267E-06-1.08265E-06-7.47023E-06
 -1      1232-1.99998E+02 2.13716E-06 1.43519E-05-8.35644E-06-1.85063E-06-4.04808E-06
 -1      1233-1.99998E+02-3.85892E-08 6.02765E-07-4.58697E-07 7.45502E-08-2.33633E-06
 -1      1234-1.99998E+02-1.14552E-06 5.22958E-07-6.43955E-07 5.95803E-08-2.48878E-06
 -1      1235-1.99998E+02 2.66096E-07 3.96970E-06-3.22054E-06-3.76078E-07-7.21027E-06
 -1      1236-1.99998E+02-3.58182E-08 1.76212E-07-2.32055E-09 5.00979E-08-6.15309E-07
 -1      1237-1.99998E+02-1.10005E-07 3.04075E-07-2.51523E-07 7.06638E-10-9.16633E-07
 -1      1238-1.99998E+02 2.77579E-07 1.46908E-06-5.72944E-07-3.31359E-07-2.64847E-06
 -1      1239-1.99998E+02-5.68463E-08-6.65956E-08 5.16283E-08 4.57180E-08-1.43725E-07
 -1      1240-1.99998E+02 1.43769E-09-1.26714E-08 7.83868E-08 6.04265E-08-1.52028E-07
 -1      1241-1.99998E+02-8.25380E-10 2.02721E-07 4.33014E-08 5.71094E-08-7.80107E-07
 -1      1242-1.99998E+02-3.34297E-09-5.20207E-09 9.66372E-09 6.87421E-09-2.04315E-08
 -1      1243-1.99998E+02-1.12861E-08-1.83275E-09 9.58334E-09 5.55017E-09-2.48271E-08
 -1      1244-1.99998E+02-5.69230E-08-3.73342E-08 5.55610E-08 1.88605E-08-1.38668E-07
 -1      1245-1.99998E+02-5.55481E-10-3.58137E-09 1.62653E-09 7.26352E-10-4.22008E-09
 -1      1246-1.99998E+02-2.17982E-09-5.87616E-09 6.54445E-10 2.12759E-10-5.65355E-09
 -1      1247-1.99998E+02-5.92388E-09-1.91348E-08 1.10340E-08 8.41819E-09-2.09919E-08
 -1      1248-1.99998E+02-5.36727E-10 1.75229E-10-2.63212E-10 2.43979E-10-2.76598E-09
 -1      1249-1.99998E+02 1.47352E-09 4.05253E-10 5.73096E-11-4.17120E-10-3.39507E-09
 -1      1250-1.99998E+02-1.85927E-09-5.53651E-09 1.62787E-09 3.50634E-09-9.57688E-09
 -1      1251-1.99998E+02-1.21093E-10 8.35442E-10-3.12028E-10-1.04388E-10-1.44004E-09
 -1      1252-1.99998E+02-3.66362E-11 8.15623E-10-3.80727E-10-3.32886E-10-1.68201E-09
 -1      1253-1.99998E+02-6.47978E-10-1.91185E-09-6.72379E-10 3.04183E-10-4.52656E-09
 -1      1254-1.99998E+02-1.00318E-10 3.63978E-10-3.39751E-11-9.09292E-11-6.65420E-10
 -1      1255-1.99998E+02-3.85903E-11 3.95571E-10-7.09965E-11-1.58224E-10-7.58549E-10
 -1      1256-1.99998E+02-9.90893E-11 4.97923E-10-5.45182E-10 1.31694E-10-2.26055E-09
 -1      1257-1.99998E+02-6.67478E-11 1.46483E-10-2.01465E-11-4.90872E-11-2.12126E-10
 -1      1258-1.99998E+02-3.48594E-11 2.48890E-10-2.40202E-11-5.85036E-11-3.40344E-10
 -1      1259-1.99998E+02-1.31804E-10 2.71039E-10-2.72390E-11-9.95278E-11-9.60890E-10
 -1      1260-1.99998E+02-1.26978E-11 2.57679E-11-3.29423E-12-1.23629E-12-5.87149E-11
 -1      1261-1.99998E+02-2.64360E-11 2.88949E-11-1.60240E-11-3.78487E-11-8.08741E-11
 -1      1262-1.99998E+02-7.98437E-11 1.12636E-10 5.68647E-12-6.41076E-11-2.24350E-10
 -1      1263-1.99998E+02-8.39340E-12 3.53530E-12-3.24620E-12-6.00024E-12-9.87637E-12
 -1      1264-1.99998E+02-3.87047E-12 8.21249E-12 3.68395E-12-3.28584E-12-1.08033E-11
 -1      1265-1.99998E+02-2.52572E-12 2.87434E-11-1.52372E-11 8.80428E-12-6.65727E-11
 -1      1266-1.99998E+02 4.40414E-12 3.01364E-12 5.60195E-12-1.14795E-12 2.48031E-12
 -1      1267-1.99998E+02-1.97048E-12 2.41788E-12 1.37649E-12 4.13165E-14 1.43440E-12
 -1      1268-1.99998E+02-4.44474E-12 1.08697E-11-5.77593E-12 3.57435E-12-3.18541E-12
 -1      1269-1.99998E+02 6.26979E-14-5.21474E-12 2.02382E-12-5.46698E-13 1.66257E-12
 -1      1270-1.99998E+02 7.88937E-12 2.05650E-12 3.48179E-12 7.59849E-13 2.28661E-12
 -1      1271-1.99998E+02 7.18697E-13 2.68660E-12 9.85007E-13 3.40578E-13 4.37423E-12
 -1      1272-1.99998E+02-5.71991E-12 3.28894E-12 7.45690E-12 3.59154E-12 8.81402E-13
 -1      1273-1.99998E+02 1.90394E-12-1.94366E-12 1.13056E-12 3.79085E-13 5.35884E-12
 -1      1274-1.99998E+02-2.99283E-12 1.01288E-12 2.61278E-12 1.60971E-12-1.57154E-12
 -1      1275-1.99998E+02-4.83309E-12-4.62242E-12-7.19754E-12 2.10609E-12-3.24181E-12
 -1      1276-1.99998E+02-4.74010E-12 1.65572E-12 1.69876E-12 4.59475E-13-5.91357E-12
 -1      1277-1.99998E+02-3.77767E-12 6.80998E-13 4.75732E-13 1.55579E-12-8.63150E-12
 -1      1278-1.99998E+02-3.53812E-12-7.19627E-12 1.09489E-12 2.60749E-12-9.66275E-12
 -1      1279-1.99998E+02-4.84994E-12-6.18052E-12-1.10325E-12 2.81226E-12-3.74920E-12
 -1      1280-1.99998E+02 7.85740E-12-7.78396E-13-3.90317E-12 1.11944E-12-1.15778E-11
 -1      1281-1.99998E+02-2.13529E-12-1.08179E-11 9.41471E-13-7.11323E-13-1.02974E-11
 -1      1282-1.99998E+02-9.31261E-12-7.74945E-12-5.96186E-12 9.14546E-13-9.18571E-12
 -1      1283-1.99998E+02-9.50172E-12-4.84979E-12-5.15140E-12-3.38411E-12-1.72952E-11
 -1      1284-1.99998E+02-3.38152E-13-2.40804E-12-2.33569E-12-2.85094E-12-2.20536E-11
 -1      1285-1.99998E+02-4.98590E-13-7.06762E-12-5.16764E-13-2.77581E-12-1.29732E-11
 -1      1286-1.99998E+02-5.01563E-12-4.42134E-12-3.66615E-12-1.10384E-12-1.78296E-11
 -1      1287-1.99998E+02-1.27119E-12-7.98143E-12 2.69811E-12-8.84932E-12-3.31285E-11
 -1      1288-1.99998E+02-2.97543E-12 6.01964E-12-1.84824E-13-4.74614E-12-1.78279E-11
 -1      1289-1.99998E+02 4.05379E-12 1.10316E-11 4.66787E-12-2.12284E-12-1.89722E-11
 -1      1290-1.99998E+02-3.05706E-12 7.09758E-11 3.16310E-11-6.96358E-11 1.01531E-10
 -1      1291-1.99998E+02-6.85736E-11 9.98117E-12-1.83786E-11-1.75682E-11 4.77677E-12
 -1      1292-1.99998E+02-3.97504E-11 4.19018E-11-3.00772E-11-6.13095E-12 6.74757E-11
 -1      1293-1.99998E+02 5.69690E-09 6.64863E-09 1.69409E-09 4.60202E-09 9.58517E-09
 -1      1294-1.99998E+02 1.23909E-09 2.44086E-10 7.00497E-10 6.88787E-10 6.94691E-10
 -1      1295-1.99998E+02 7.62189E-10 1.00945E-09 5.00018E-11 4.30885E-10 1.14805E-09
 -1      1296-1.99998E+02-7.77246E-09-3.18471E-09 2.31488E-09 6.95544E-09 9.21492E-09
 -1      1297-1.99998E+02 5.91749E-12 9.63699E-12 2.09253E-12-4.78606E-12 1.34236E-11
 -1      1298-1.99998E+02-8.49313E-13 4.73208E-13 7.56353E-13 1.09673E-12 9.50028E-12
 -1      1299-1.99998E+02-1.97648E-12-1.59574E-12 2.51712E-12-3.98805E-12 5.19476E-12
 -1      1300-1.99998E+02-2.55668E-13 1.05232E-12-1.28918E-12-6.67966E-12 4.58887E-12
 -1      1301-1.99998E+02-7.07738E-13 8.02762E-12 3.68204E-12-4.34361E-14 5.42708E-12
 -1      1302-1.99998E+02 6.41901E-12-6.43729E-12 1.36742E-12-8.70934E-14-8.28515E-12
 -1      1303-1.99998E+02 2.34143E-13 3.39052E-12 4.50588E-12 2.14775E-12-4.02934E-12
 -1      1304-1.99998E+02 1.22664E-12 4.68387E-12 1.44440E-12 8.68546E-13-6.31142E-12
 -1      1305-1.99998E+02-9.46717E-12-5.16114E-12-1.47162E-12 1.50705E-12-9.34005E-12
 -1      1306-1.99998E+02 2.28396E-12 6.47803E-12 3.94756E-13 3.39708E-12-8.59986E-12
 -1      1307-1.99998E+02 1.81026E-11 1.76130E-10-6.58297E-11 1.56080E-11 1.24928E-10
 -1      1308-1.99998E+02 8.41729E-12 1.06446E-10-1.02411E-11-5.45704E-12 4.90542E-12
 -1      1309-1.99998E+02-3.43275E-10 2.10602E-10-3.23419E-10-1.02371E-10-1.09659E-10
 -1      1310-1.99998E+02-2.15305E-10 1.76864E-10-5.01635E-10 1.92707E-11 2.79580E-10
 -1      1311-1.99998E+02-8.65356E-11 4.16608E-10-2.50339E-10 5.82594E-10 1.49601E-09
 -1      1312-1.99998E+02-8.60156E-11-2.63012E-10 8.82161E-12 1.05962E-10-1.26792E-09
 -1      1313-1.99998E+02 5.40890E-11 6.66529E-12-5.64137E-11 1.12558E-10-6.56174E-10
 -1      1314-1.99998E+02-9.74753E-11-1.70206E-09-4.64102E-10 1.69947E-10-4.56868E-09
 -1      1315-1.99998E+02 2.29403E-10-6.70660E-10-2.43706E-10 2.11243E-10-2.24466E-09
 -1      1316-1.99998E+02 2.43647E-10-1.24851E-10-1.78563E-10 2.48091E-10-2.07850E-09
 -1      1317-1.99998E+02-1.60765E-11-5.49476E-11 2.41685E-12 1.73876E-11-2.84246E-10
 -1      1318-1.99998E+02-1.68852E-11-1.71519E-11-4.92453E-11-2.11083E-11-1.69728E-10
 -1      1319-1.99998E+02 1.31128E-11-4.74548E-13-5.25930E-12-2.02869E-11-3.73002E-11
 -1      1320-1.99998E+02-1.72660E-11-2.09179E-11-5.32063E-12-6.07023E-12-3.01182E-11
 -1      1321-1.99998E+02 3.40290E-11 1.11263E-10 2.73091E-12-8.39600E-12-1.70668E-10
 -1      1322-1.99998E+02-4.59657E-12-7.12048E-12 2.79604E-12-7.68182E-13 5.25930E-12
 -1      1323-1.99998E+02 1.02228E-12 1.01709E-12 3.07471E-12-2.31846E-12 1.22531E-12
 -1      1324-1.99998E+02 4.66986E-12 4.84837E-12 4.06031E-12-1.51000E-12-1.41740E-12
 -1      1325-1.99998E+02 1.33710E-11 1.30943E-12 1.57435E-13 4.45960E-13-4.50134E-12
 -1      1326-1.99998E+02-2.01264E-12-3.10299E-12 7.24722E-12 6.90002E-13-5.29214E-13
 -1      1327-1.99998E+02-6.99500E-12 3.86295E-11-6.84820E-12-6.21851E-12-8.72932E-12
 -1      1328-1.99998E+02-7.93026E-12 8.36104E-12 1.67676E-12-3.06740E-12-1.82039E-11
 -1      1329-1.99998E+02-3.29079E-12 3.76060E-12-7.40531E-13-5.89955E-12-1.19042E-11
 -1      1330-1.99998E+02-1.27239E-11 9.07231E-13-2.78097E-12-5.68083E-12-1.29209E-11
 -1      1331-1.99998E+02-1.33740E-11 1.96858E-11 2.37517E-12 1.12586E-12-1.38947E-11
 -1      1332-1.99998E+02 9.63785E-10-7.01575E-09 3.13504E-09 1.56168E-09-1.41758E-08
 -1      1333-1.99998E+02 7.79090E-10-1.52046E-08 5.33946E-09 4.69529E-09-2.26019E-08
 -1      1334-1.99998E+02 8.91040E-10-1.49639E-09 1.57955E-10 6.68756E-10-6.93727E-09
 -1      1335-1.99998E+02 7.06059E-10-3.20412E-09 1.18207E-10 7.42699E-10-7.71445E-09
 -1      1336-1.99998E+02-5.72656E-12-9.47246E-09 2.35963E-09 2.26586E-09-1.72062E-08
 -1      1337-2.00011E+02-2.90665E-02 1.36521E-01-1.37900E-04 1.81990E-03 7.59941E-02
 -1      1338-2.00087E+02-1.23151E-02 3.81352E-02 1.29778E-02 4.27725E-04 1.40815E-02
 -1      1339-2.00064E+02-4.70761E-03 3.36174E-02 1.35765E-02-1.17090E-03-1.27212E-03
 -1      1340-2.00037E+02-7.12774E-03 5.62573E-03 1.43728E-02-4.17869E-03 1.01778E-02
 -1      1341-2.00018E+02-5.78416E-03-6.94893E-03 8.60564E-03-8.91806E-04-3.13629E-03
 -1      1342-1.99999E+02 1.68798E-04-2.60521E-03 7.27829E-04-2.29004E-04-1.18993E-03
 -1      1343-1.99997E+02 5.57695E-04-1.19172E-03 3.11689E-04-2.82895E-06-4.92388E-04
 -1      1344-2.00010E+02-1.34659E-03-6.72309E-03 4.89652E-03-3.50154E-04-1.72554E-03
 -1      1345-2.00001E+02 2.24304E-04-4.55782E-03 1.87493E-03 1.16766E-04-1.41933E-03
 -1      1346-2.00000E+02-5.05097E-04-4.88984E-03 1.96501E-03-1.55899E-05 4.53390E-05
 -1      1347-1.99661E+02-1.65706E-01 1.15256E+00-4.06047E-01-2.35777E-02-4.05999E-01
 -1      1348-1.98403E+02-1.86322E-01 1.95212E+00-7.92060E-01-1.13147E-01-8.74796E-01
 -1      1349-1.99797E+02-1.89078E-02 6.08601E-01-1.62583E-01-3.42385E-02-3.36530E-01
 -1      1350-1.99774E+02-4.01027E-02 1.23303E+00-4.44156E-01-9.70332E-02-2.93221E-02
 -1      1351-2.00137E+02-8.20715E-02 2.60023E-01-4.88608E-02 1.80140E-02-1.23252E-01
 -1      1352-1.99998E+02-4.06461E-07 1.10362E-05-3.94137E-06 1.32149E-06 5.27976E-06
 -1      1353-1.99998E+02-1.60129E-06 5.90485E-06-2.03137E-06 6.95162E-08 3.51512E-06
 -1      1354-1.99998E+02 6.69892E-06 1.74392E-05-1.41466E-05 2.77948E-06 1.02584E-06
 -1      1355-1.99998E+02 3.47834E-06 1.63564E-05-9.25229E-06 7.24496E-08 8.96865E-06
 -1      1356-1.99998E+02 3.00839E-06 1.40130E-05-9.13983E-06-7.89172E-07 3.89055E-06
 -1      1357-1.99998E+02-2.97902E-07 8.02721E-07-1.79330E-08 2.13378E-08 4.16879E-07
 -1      1358-1.99998E+02-2.07553E-07 2.86297E-07 7.83945E-08-9.88443E-09-3.53649E-08
 -1      1359-1.99998E+02-4.94281E-08 2.76487E-07 6.39252E-08 2.70470E-10-1.80356E-07
 -1      1360-1.99998E+02-8.67532E-08 5.46459E-08 7.86637E-08 3.67579E-09-6.93062E-08
 -1      1361-1.99998E+02-2.84156E-08-3.93939E-08 5.48113E-08 2.57234E-09-1.12520E-07
 -1      1362-1.99998E+02 9.88489E-05-7.96114E-04 1.42499E-04-1.64016E-05-2.76134E-04
 -1      1363-1.99998E+02 9.75794E-05-1.85860E-04-1.07310E-06 4.77002E-05-1.30158E-04
 -1      1364-1.99998E+02 2.37614E-05-1.00310E-04-5.92679E-06 7.62578E-06-6.61786E-05
 -1      1365-1.99998E+02 7.38629E-06-1.14049E-05-1.28530E-05 2.15386E-06 1.72950E-06
 -1      1366-1.99998E+02 1.19222E-04-2.61150E-04-5.38718E-05 5.71131E-06 2.90262E-05
 -1      1367-1.95945E+02 4.13905E-01 3.26256E+00-1.70873E+00-1.18076E-01-8.95255E-01
 -1      1368-1.94547E+02 1.15218E+00 2.39644E+00-2.50768E+00-6.52840E-01-3.64431E-01
 -1      1369-1.92524E+02 2.95593E+00 8.84320E-01-3.52705E+00 6.54362E-02 4.65885E-02
 -1      1370-1.87543E+02 2.96382E+00 9.61677E-01-3.41408E+00-2.88928E-01 9.85228E-02
 -1      1371-1.79129E+02 4.42069E+00-5.13267E+00-3.95286E+00-3.63505E-01 2.10220E+00
 -1      1372-1.80380E+02 5.88056E+00-1.16054E+00-3.79975E+00-3.08344E-01 3.40032E+00
 -1      1373-1.98333E+02-2.40274E-01 1.94446E+00-7.72289E-01 8.55659E-02 8.51363E-01
 -1      1374-1.99882E+02-2.62409E-01 1.02861E+00-2.95187E-01 4.01076E-02 4.04787E-01
 -1      1375-1.96936E+02 5.59099E-01 3.03860E+00-1.61345E+00-7.94093E-03 3.72284E-02
 -1      1376-1.95985E+02 1.93300E-01 3.22946E+00-1.54863E+00 1.23777E-01 8.91480E-01
 -1      1377-1.94441E+02 1.15570E+00 2.50077E+00-2.37952E+00 6.76259E-01 3.68113E-01
 -1      1378-1.99998E+02-1.62236E-10 5.52762E-10-7.69145E-11-1.83594E-10-6.26091E-10
 -1      1379-1.99998E+02-3.41310E-10-4.21983E-10 2.41921E-11-3.46208E-10-1.27224E-09
 -1      1380-1.99998E+02-8.09062E-10 1.61697E-09-1.46193E-09-6.06338E-12-1.94610E-09
 -1      1381-1.99998E+02-5.75044E-09-3.48328E-09-1.38644E-09-1.24675E-09-6.14419E-09
 -1      1382-1.99998E+02 1.76693E-08-1.75682E-10 8.24805E-09 3.49754E-09 6.95370E-09
 -1      1383-1.99998E+02 1.45735E-08-7.41234E-09 1.36081E-08 1.09405E-09-1.59676E-08
 -1      1384-1.99998E+02 2.48796E-12 3.43352E-12 6.99207E-13-1.61201E-12 4.70111E-12
 -1      1385-1.99998E+02 1.92546E-12 5.17910E-12-1.04515E-12-1.27831E-12 5.50030E-12
 -1      1386-1.99998E+02-3.79747E-12 2.46952E-13 6.46636E-12 2.33859E-12-1.57609E-12
 -1      1387-1.99998E+02-4.70398E-12-1.68749E-12 2.53973E-12 1.67169E-12 1.57689E-12
 -1      1388-1.99998E+02-4.63654E-13 2.54917E-12 4.77776E-13 2.68567E-12 6.08203E-12
 -1      1389-1.99998E+02 4.54030E-09-1.96614E-08 4.81982E-09 1.83167E-09-3.75390E-08
 -1      1390-1.99998E+02 1.25565E-09-1.27456E-08 1.50829E-09 1.53035E-09-2.26487E-08
 -1      1391-1.99998E+02-4.95256E-09-3.76618E-08 2.75576E-08-7.66064E-10-7.60356E-08
 -1      1392-1.99998E+02 3.15559E-10-3.18970E-08 1.14030E-08 3.77305E-09-5.51427E-08
 -1      1393-1.99998E+02 3.86930E-09-2.49853E-08 1.40597E-08 2.83503E-09-4.42140E-08
 -1      1394-1.99998E+02 5.41220E-12 1.32192E-10-8.11553E-12-9.74189E-12-5.40813E-11
 -1      1395-1.99998E+02-7.47019E-12 1.22308E-10 5.89180E-11-1.29491E-11-1.39419E-10
 -1      1396-1.99998E+02-8.12780E-13 2.95557E-11 6.52969E-12-7.23503E-13-1.99751E-11
 -1      1397-1.99998E+02 3.04622E-12 6.77235E-11 3.01451E-12 4.84520E-13-3.75009E-11
 -1      1398-1.99998E+02-7.19299E-12 1.18089E-10 3.33920E-12-1.17214E-11 7.70491E-13
 -1      1399-1.99998E+02 9.20098E-11 2.45553E-10 4.02019E-11-3.83104E-11-7.76682E-10
 -1      1400-1.99998E+02 1.28603E-10 4.27297E-10-1.83451E-10-3.81152E-11-1.10262E-09
 -1      1401-1.99998E+02 1.07369E-11 5.75655E-11 1.49215E-11-2.78083E-11-1.81619E-10
 -1      1402-1.99998E+02-5.87598E-11 8.91983E-11-1.22143E-11-3.79330E-11-2.93861E-10
 -1      1403-1.99998E+02 2.63547E-11 1.13259E-11-4.47205E-11 1.30635E-10-6.47331E-10
 -1      1404-1.99998E+02-5.74635E-12 8.39740E-12 4.71512E-12-5.24497E-12-1.04416E-11
 -1      1405-1.99998E+02-1.21455E-11 7.12464E-13 2.05172E-12-1.27321E-12-1.39089E-11
 -1      1406-1.99998E+02 9.92962E-12 2.96199E-12-5.50070E-12 1.59688E-12-1.05596E-11
 -1      1407-1.99998E+02 3.23694E-12 3.27228E-12 2.67220E-12-2.52873E-13-4.84004E-12
 -1      1408-1.99998E+02 2.05679E-12 1.44609E-12 3.51639E-12-1.74509E-12-9.39807E-12
 -1      1409-1.99998E+02-1.73312E-13 2.59255E-11 2.74391E-12 4.60823E-12-2.24845E-11
 -1      1410-1.99998E+02 3.07069E-11 6.14435E-11 2.40795E-12-8.45548E-12-8.92153E-11
 -1      1411-1.99998E+02-8.51129E-12-4.76618E-13 1.03086E-12-2.92994E-12 4.67848E-12
 -1      1412-1.99998E+02 1.06664E-12 8.31216E-12-4.32868E-12-1.94851E-12-6.20936E-12
 -1      1413-1.99998E+02 1.27763E-11 1.96069E-11-5.63197E-12 6.08047E-12-2.20358E-11
 -1      1414-2.00002E+02-3.64447E-04-5.23181E-03 2.60888E-03 8.95501E-07 2.07421E-03
 -1      1415-2.00008E+02-2.60739E-03-5.71552E-03 4.62277E-03 1.75121E-03 2.30293E-03
 -1      1416-2.00020E+02-5.70650E-03-7.96915E-03 8.24860E-03-5.80977E-05 3.66175E-03
 -1      1417-2.00042E+02-1.04895E-02-1.35836E-04 1.31811E-02 1.85120E-03-1.06376E-02
 -1      1418-2.00013E+02-3.42547E-03-5.44209E-03 7.22705E-03 2.48451E-06-6.12223E-04
 -1      1419-1.99998E+02-6.04636E-07 6.45314E-06-3.03152E-06 2.65962E-08-2.07871E-06
 -1      1420-1.99998E+02 5.24971E-07 1.23714E-05-4.39759E-06-6.01649E-07-3.91006E-06
 -1      1421-1.99998E+02-5.29918E-07 1.68547E-06-3.07433E-07 1.43293E-07-1.02970E-06
 -1      1422-1.99998E+02 2.99129E-07 3.87387E-06-1.04190E-06-3.83196E-07-2.31727E-06
 -1      1423-1.99998E+02-2.10881E-07 7.29153E-06-2.11608E-06-4.48522E-07 4.07021E-07
 -1      1424-1.99998E+02 3.34362E-09-2.55118E-08 1.42389E-08 2.69666E-09-3.22746E-08
 -1      1425-1.99998E+02-6.35396E-09-3.90179E-08 2.51700E-08 1.11798E-08-5.57661E-08
 -1      1426-1.99998E+02-2.14763E-08-3.43036E-08 4.67539E-08 7.76758E-09-9.46744E-08
 -1      1427-1.99998E+02-3.30308E-08-4.59531E-08 4.54608E-08 1.85766E-08-9.44565E-08
 -1      1428-1.99998E+02-7.40856E-08 3.63147E-09 8.22236E-08 3.11944E-08-2.11443E-07
 -1      1429-1.99998E+02 1.08277E-04-3.15153E-04 8.22396E-06-2.85740E-05 1.89011E-04
 -1      1430-1.99998E+02-7.11509E-05-8.07818E-04 1.37884E-04 3.56235E-05 5.78882E-04
 -1      1431-1.99998E+02 3.16534E-04-1.47755E-03 5.05758E-04-3.16247E-05 7.33956E-04
 -1      1432-1.99999E+02 4.20353E-04-2.70796E-03 8.63269E-04 2.81438E-05 1.65460E-03
 -1      1433-1.99998E+02 1.82903E-04-1.47228E-03 3.32710E-04 8.24082E-05 1.25835E-04
 -1      1434-1.99998E+02 3.75930E-06 1.82299E-05-1.14919E-05-4.04148E-07-2.66467E-06
 -1      1435-1.99998E+02 2.53561E-06 1.16148E-05-1.58104E-05-3.56091E-06 1.28637E-05
 -1      1436-1.99998E+02 1.97782E-05-5.51323E-06-2.61974E-05-5.99539E-07 2.68675E-05
 -1      1437-1.99998E+02 1.66909E-05-1.02232E-04-2.60232E-05-1.07169E-05 1.11549E-04
 -1      1438-1.99998E+02 1.44768E-05-1.13661E-05-2.75233E-05-6.66873E-07 1.64123E-05
 -1      1439-1.83122E+02 3.96048E+00-8.32670E+00-2.05299E+00 5.34982E-01-2.27376E+00
 -1      1440-1.87924E+02 3.42700E+00 6.95155E-01-3.73871E+00 3.23179E-01-7.02405E-02
 -1      1441-1.83350E+02 3.26062E+00-3.43380E+00-1.99997E+00 2.12620E-02-2.26406E+00
 -1      1442-1.99998E+02 4.62265E-09 1.24586E-08-2.94972E-09-6.75493E-09-8.52320E-09
 -1      1443-1.99998E+02-1.46139E-10 1.81898E-08-1.09620E-09-4.16948E-09 5.13942E-09
 -1      1444-1.99998E+02 2.50574E-09 4.02266E-09-9.12214E-10 1.29857E-09 1.27092E-09
 -1      1445-1.99618E+02-1.73933E-01 6.42398E-01-7.27943E-02 5.02139E-02 2.99638E-01
 -1      1446-2.00176E+02-6.90376E-02 2.89287E-01-1.91012E-02-1.64910E-02 1.08963E-01
 -1      1447-2.00115E+02-7.14778E-02 2.95979E-01-8.41197E-03 1.66554E-03-5.58279E-04
 -1      1448-2.00001E+02-9.58291E-03 1.29437E-01-2.56006E-03-7.19459E-04-8.49027E-02
 -1      1449-2.00086E+02-5.52285E-03 3.56643E-02 9.53463E-03 1.48515E-04-1.52923E-02
 -1      1450-1.99998E+02 6.33064E-13 2.71279E-12-7.94276E-12-4.60845E-13-1.26552E-11
 -1      1451-1.99998E+02-3.97183E-12 2.43920E-13-2.29560E-12 5.02709E-14-1.52574E-11
 -1      1452-1.99998E+02 4.14967E-10 5.41655E-10-5.61823E-11 1.53495E-10-2.16096E-09
 -1      1453-1.99998E+02 1.48231E-10 7.36404E-12-4.15883E-10 4.24562E-10-3.49258E-09
 -1      1454-1.99998E+02 1.45136E-09-4.31861E-09 1.96381E-11 4.72236E-10-1.32120E-08
 -1      1455-1.99998E+02 1.29417E-09-9.82015E-10-6.30666E-10 2.62752E-10-7.54855E-09
 -1      1456-1.99998E+02-2.54561E-10-3.44791E-09 1.01074E-10 1.00122E-09-7.35149E-09
 -1      1457-1.99998E+02-7.09083E-08 4.41947E-06-1.19853E-06 2.86426E-07 1.87104E-06
 -1      1458-1.99998E+02-3.15740E-07 1.74577E-06-2.14091E-07-1.14471E-07 7.00149E-07
 -1      1459-1.99998E+02-4.51458E-07 1.62799E-06-8.77620E-08-2.39425E-10-1.87517E-07
 -1      1460-1.99998E+02-1.03897E-07 7.18243E-07-1.98308E-08 2.38058E-08-7.11199E-07
 -1      1461-1.99998E+02-2.29351E-08 2.49607E-07 3.17732E-08-1.64028E-08-2.79333E-07
 -1      1462-1.99998E+02-1.42515E-12-9.72619E-13 1.77522E-12 2.34605E-12-9.81774E-12
 -1      1463-1.99998E+02-1.99928E-12 3.72728E-12 4.61451E-13 2.07265E-12-1.55995E-11
 -1      1464-1.99998E+02 7.55534E-12 6.81969E-12 1.82272E-12-1.64288E-12-1.25726E-11
 -1      1465-1.99998E+02 1.52672E-11-8.28354E-12 2.07447E-11-3.83189E-13 6.19500E-12
 -1      1466-1.99998E+02 5.44455E-13 3.95309E-12 7.88133E-12 2.96466E-13-9.18127E-14
 -1      1467-1.99998E+02 5.70156E-12-2.75812E-12 9.89928E-13 2.24841E-12 1.00441E-11
 -1      1468-1.99998E+02 7.04665E-11 4.65768E-11 2.90836E-10-6.30628E-11 1.33147E-10
 -1      1469-1.99998E+02 4.39998E-10-8.87775E-11 1.45796E-09 1.05713E-10 2.82682E-10
 -1      1470-1.99998E+02 4.94065E-12-5.72280E-13 9.73978E-12 2.49948E-13-1.00546E-12
 -1      1471-1.99998E+02-1.56376E-09 3.11058E-10 6.56289E-09 7.46334E-10-1.77455E-10
 -1      1472-2.00020E+02 2.86174E-03-5.76086E-04-2.33630E-02-3.90070E-03-9.45824E-03
 -1      1473-2.00003E+02-2.42365E-03 3.75575E-04-3.65847E-03 2.55666E-04-1.30054E-03
 -1      1474-1.99019E+02 5.73860E-01-1.11570E-01 8.58820E-01-3.52139E-02 2.37218E-01
 -1      1475-1.99998E+02 9.73987E-06 4.33147E-07-1.34268E-05 1.58162E-06 4.37831E-06
 -1      1476-1.99998E+02-1.91951E-09 5.49915E-09 2.95227E-07 2.38298E-08-6.32659E-08
 -1      1477-1.99998E+02-9.05234E-05 1.62628E-05-1.85522E-04-1.53109E-05 1.02331E-05
 -1      1478-1.90611E+02 1.83764E+00 2.03153E+00-7.29437E-01 1.13521E+00 3.50064E+00
 -1      1479-1.99998E+02-4.46880E-11 2.52272E-11 6.77989E-11-5.11162E-11 3.32667E-11
 -1      1480-1.99998E+02-6.23716E-12 1.78419E-12 1.51111E-11-2.25064E-12-4.67982E-12
 -1      1481-1.99998E+02-1.08444E-09-3.19797E-10-6.35821E-10-2.22078E-10 1.37379E-09
 -1      1482-1.99998E+02-1.51118E-08 5.61266E-09 5.07698E-08 1.11492E-09-3.52620E-09
 -1      1483-1.99998E+02-4.49641E-12-7.33533E-12-9.62063E-12 1.24242E-11-2.02317E-11
 -1      1484-1.99998E+02-1.27622E-09 7.94641E-10 5.58275E-09 1.97732E-10 1.01891E-10
 -1      1485-1.99998E+02 2.78333E-06-4.27609E-07 4.54999E-06-1.02864E-07 1.09287E-06
 -1      1486-1.99999E+02-6.97059E-04 4.36040E-05 8.80556E-04-5.24563E-05-1.74734E-04
 -1      1487-1.99998E+02 6.16854E-07-7.22589E-08-1.01192E-06 9.69837E-09 1.25574E-07
 -1      1488-1.91981E+02-1.36076E+01 1.81308E+01-5.27922E+00-3.58499E-01-1.47110E+00
 -1      1489-1.99998E+02 1.53989E-08 3.81277E-08 4.13498E-09 1.39432E-08-2.88104E-08
 -1      1490-1.99998E+02-3.60764E-12-4.75141E-12 1.41769E-12 2.56470E-13 1.01876E-12
 -1      1491-1.99998E+02-1.46873E-12-3.98025E-12 4.05038E-12 8.71156E-13-2.08378E-12
 -1      1492-2.00024E+02-5.79591E-03-2.91013E-02 1.94353E-02 4.64154E-03-2.17637E-02
 -1      1493-1.99134E+02 4.82869E-01-2.76980E-02-7.39587E-01 3.35815E-02 9.08658E-02
 -1      1494-1.96090E+02 1.62882E+00-2.34255E-01-2.09080E+00 4.68480E-01 9.89508E-01
 -1      1495-1.96606E+02 4.17795E+00 2.19886E+00 3.28423E-03-4.32752E-02 3.19295E+00
 -1      1496-1.99998E+02 2.57913E-11 1.74976E-11-8.25557E-11 3.03758E-12-8.66664E-11
 -1      1497-1.99998E+02 6.88282E-11-1.01545E-11 1.52176E-10 9.42689E-13 3.41099E-11
 -1      1498-1.99998E+02 2.26893E-10-3.47297E-11 4.72641E-10 2.84879E-12 7.08122E-11
 -1      1499-1.99998E+02 4.36918E-11 5.33260E-11 1.20714E-09 1.21028E-10 5.61831E-11
 -1      1500-1.99998E+02-6.48555E-12 2.19606E-12 8.07985E-12 9.00115E-13-5.13314E-12
 -1      1501-1.99998E+02-9.41895E-12 4.23442E-12 1.24176E-12-2.28489E-12-1.08809E-12
 -1      1502-1.99998E+02-1.14207E-08-2.31522E-09 1.29865E-08 4.94389E-09-2.97865E-09
 -1      1503-1.99998E+02-2.75638E-08-1.16646E-08 4.31134E-08 1.66749E-08-2.04937E-08
 -1      1504-1.99998E+02 8.66524E-09-4.98525E-08 1.30463E-07 1.68920E-08-7.76204E-08
 -1      1505-1.99998E+02 3.59951E-13-9.39749E-12 3.28487E-12-5.39844E-13 1.74197E-12
 -1      1506-1.99998E+02 9.70747E-06 2.17834E-06 9.95449E-06-1.34632E-06 6.94198E-06
 -1      1507-1.99998E+02-4.12175E-12 9.02102E-13 6.28063E-12-4.44321E-13 1.57707E-12
 -1      1508-1.99998E+02 3.40817E-06 6.77778E-08-4.62429E-06 3.79144E-07 1.47854E-06
 -1      1509-1.99999E+02-5.84801E-04 3.84889E-04-1.18037E-03-2.52171E-05 3.29798E-06
 -1      1510-1.99998E+02 1.11012E-05 2.09806E-06-1.00063E-05-3.55264E-06 1.54408E-05
 -1      1511-1.99998E+02-7.83555E-05 3.47673E-05-2.06529E-05-1.40356E-06 4.26310E-05
 -1      1512-1.99998E+02-1.99690E-11 1.15420E-11 3.64014E-11-5.88073E-12 1.13448E-11
 -1      1513-1.99998E+02-6.59708E-09 1.38712E-09 1.85803E-08 2.58102E-10-2.23241E-10
 -1      1514-2.00013E+02-4.56253E-03-2.50155E-03-5.24160E-03 1.86955E-03-4.51078E-03
 -1      1515-2.00003E+02-7.10883E-03-1.46215E-03-5.60881E-04 1.92089E-04-4.31031E-03
 -1      1516-1.99923E+02 9.39201E-02-5.63699E-03-1.78372E-01-3.00473E-03 1.22919E-02
 -1      1517-1.99917E+02 9.39791E-02 4.00409E-03 1.75059E-01 8.41230E-03 7.52630E-03
 -1      1518-1.99998E+02 5.34409E-07-6.59368E-09 1.15640E-06 7.99948E-08 8.60094E-08
 -1      1519-1.99998E+02 6.84293E-13 2.05727E-12 4.83038E-12-2.71339E-12 2.74105E-12
 -1      1520-1.99998E+02 8.15917E-13-3.41038E-12 4.87570E-12-6.94597E-13 1.64306E-12
 -1      1521-1.99998E+02 4.57800E-10 2.11338E-10 4.21520E-09-1.00075E-10 7.51681E-10
 -1      1522-1.99998E+02 1.25558E-11 1.17893E-11 5.90136E-12 3.38616E-12-3.69688E-12
 -1      1523-1.99998E+02-1.48152E-12 8.69015E-13 6.02123E-12-3.49229E-12 4.65757E-13
 -1      1524-1.99998E+02-2.59147E-11-7.04301E-13 7.86847E-12-7.09839E-12 1.12884E-12
 -1      1525-1.99544E+02 1.88773E+00 1.14297E-01 4.78772E-02-4.33267E-02 8.07279E-01
 -1      1526-1.96285E+02 1.55019E+00 1.84601E-02 2.11727E+00-1.92042E-01 9.05329E-01
 -1      1527-1.90611E+02-9.26357E+00 2.36784E+01 5.49381E+00-3.75464E-01 2.02732E+00
 -1      1528-1.99998E+02-3.90651E-10 1.80001E-10 1.71863E-09 1.06746E-10 2.38261E-10
 -1      1529-1.99998E+02-6.57230E-11 1.10170E-10 4.11019E-10-3.01693E-11 7.86540E-11
 -1      1530-2.00002E+02-2.43920E-03 1.51412E-05 2.96976E-03-2.25688E-04-6.92544E-04
 -1      1531-2.00014E+02-5.66961E-03-2.43417E-03 3.85640E-03-1.47957E-03-4.81953E-03
 -1      1532-1.99998E+02-6.53943E-05 4.69118E-05 1.67272E-04 2.57462E-05 4.14604E-05
 -1      1533-1.99998E+02 6.39025E-07-1.25972E-07 1.95259E-07 2.76915E-08-2.99116E-08
 -1      1534-1.99998E+02-2.84548E-08-3.89127E-09 9.00661E-08-6.16969E-09-3.33142E-08
 -1      1535-1.99998E+02 1.67117E-05 6.68941E-06-5.68045E-06-1.45568E-06 1.74522E-05
 -1      1536-1.99998E+02-1.77865E-11-2.06727E-10-5.32521E-12-1.05311E-11-3.47466E-10
 -1      1537-1.99998E+02 2.53505E-11 3.18998E-11 3.65204E-11-4.61217E-12-1.04277E-10
 -1      1538-1.99998E+02 9.02165E-12 4.52717E-12 1.51211E-11-1.15229E-12-2.65933E-12
 -1      1539-1.99998E+02-6.52514E-13 8.28730E-12 1.06390E-11 1.17587E-12-4.45079E-12
 -1      1540-1.99998E+02-5.93539E-12 1.47473E-13 5.08327E-12 7.00598E-13-2.28413E-12
 -1      1541-1.99998E+02 6.61958E-12 2.29017E-12-5.72506E-12 4.60808E-12-1.34723E-11
 -1      1542-1.99998E+02 6.76642E-13 1.46240E-12 1.86022E-12 1.65800E-12-1.55224E-12
 -1      1543-1.99998E+02-3.94286E-09 1.02722E-10 1.05376E-08 1.63875E-09-9.05371E-10
 -1      1544-1.99998E+02 2.26852E-11 8.56351E-12 7.58794E-11-1.25005E-11-8.11366E-12
 -1      1545-2.00069E+02 1.02209E-01-2.56532E-02 6.13084E-04 1.23948E-03-1.29412E-02
 -1      1546-1.99945E+02 6.39781E-01-1.90619E-01-6.38349E-03-1.55807E-02 1.18619E-01
 -1      1547-1.99998E+02 5.03508E-12-7.15094E-12 9.63418E-12-5.52055E-12-5.40908E-12
 -1      1548-1.99998E+02-3.76088E-12 9.59862E-13 1.09711E-11-1.35241E-12-3.71190E-12
 -1      1549-1.99998E+02 3.94916E-06-7.60619E-07 3.57335E-07 2.37452E-08 4.25415E-07
 -1      1550-1.99998E+02-2.39455E-13 2.57184E-12 8.92175E-12 2.20783E-12-1.97567E-12
 -1      1551-1.99998E+02 1.06267E-05 3.21113E-07-9.72292E-07-2.06031E-07 4.26980E-06
 -1      1552-1.99998E+02-1.72153E-08 1.15087E-09 2.86187E-08 2.76010E-09-6.73174E-09
 -1      1553-1.99998E+02-9.12774E-10 3.77171E-10 3.95082E-09 1.71589E-10 4.10216E-10
 -1      1554-1.99998E+02 7.65075E-11-1.42020E-12 3.14715E-10 1.02162E-11 2.99654E-11
 -1      1555-1.99998E+02 5.63154E-08-8.91417E-08-2.94244E-08-2.22862E-08-6.18728E-08
 -1      1556-1.99998E+02-4.08730E-08-2.33642E-09 6.18270E-08 5.44201E-09-2.33941E-08
 -1      1557-2.00022E+02 1.36801E-04-3.80121E-03 2.12016E-04-1.34172E-03-1.15573E-02
 -1      1558-1.99998E+02 1.07917E-05 2.69201E-06 8.66784E-06 1.58585E-05 2.77560E-05
 -1      1559-1.99998E+02-6.88361E-04 2.42112E-04-1.25218E-04 3.93267E-05 4.54482E-06
 -1      1560-1.99998E+02-2.60454E-03 8.25563E-06-1.73613E-04-3.97021E-05-7.52389E-04
 -1      1561-1.99998E+02-8.75357E-09-4.75614E-09 2.38743E-09-1.30543E-08 5.38646E-09
 -1      1562-1.91502E+02 1.82426E+00 1.61973E+00 9.48012E-01-1.10241E+00 3.06086E+00
 -1      1563-1.99998E+02 2.48574E-09 1.46186E-09 1.91839E-09-5.78722E-10-5.21785E-10
 -1      1564-1.88971E+02-3.55767E+00 2.03304E+00 5.26438E-02-1.65915E-01 3.47202E+00
 -1      1565-1.98754E+02-4.23376E+00 1.85126E+01 1.41603E+01 6.52438E-01-1.91820E+00
 -1      1566-1.92992E+02-3.48433E+00 1.86974E+01-1.23723E+01 2.55427E-01 6.45906E-01
 -1      1567-1.99998E+02-1.31930E-08 1.15233E-08 8.68108E-09-5.57928E-09-7.61115E-09
 -1      1568-1.99998E+02-2.55849E-08-2.56259E-08-7.33738E-09 1.07911E-08-9.31185E-09
 -1      1569-1.99998E+02-7.99360E-10-1.27482E-09-1.86077E-09 1.78236E-09 1.42415E-09
 -1      1570-2.17702E+02-4.64605E+01-1.89266E+01-1.68447E+01-9.38983E-01-3.08247E+01
 -1      1571-2.41362E+02-3.96938E+01-2.51603E+01-3.20581E+01-5.53653E+00-2.77597E+01
 -1      1572-1.68894E+02 8.59357E+00 1.09567E+01-2.85507E-01 3.86319E+00 5.75513E+00
 -1      1573-2.44055E+02-4.03095E+01-2.64059E+01 3.10281E+01 4.59355E+00-2.85963E+01
 -1      1574-2.25499E+02-5.12525E+01-2.92242E+01 1.98201E+01 2.49767E+00-3.42860E+01
 -1      1575-1.68595E+02 9.06088E+00 1.06345E+01 3.34908E-01-3.18571E+00 6.23917E+00
 -1      1576-1.99998E+02-1.01515E-08-1.47086E-08 6.02667E-08 6.48869E-09-3.48572E-08
 -1      1577-1.99998E+02-1.14556E-08 8.77810E-09-1.03555E-07-5.92012E-08 1.65893E-07
 -1      1578-1.99998E+02-1.25124E-08-4.73027E-09 7.04659E-10 2.10305E-09-1.50521E-08
 -1      1579-1.99998E+02 1.31741E-09 1.20313E-08 7.00251E-08 3.53524E-09-1.68871E-08
 -1      1580-1.99998E+02-4.96097E-09 5.30966E-09-3.17955E-08-4.97657E-09-2.78622E-08
 -1      1581-1.99998E+02-7.58531E-09 2.05238E-10-1.32051E-09-2.19796E-09-6.01705E-09
 -1      1582-2.15330E+02-5.19304E+01-2.33888E+01-3.26206E+00 3.36258E-01-3.12769E+01
 -1      1583-2.19026E+02-5.33362E+01-2.80136E+01-1.18068E+01 1.08626E+00-3.33482E+01
 -1      1584-1.94617E+02-1.04859E+01 1.88253E+01-9.09890E+00-1.07691E+00-4.85044E-01
 -1      1585-2.17354E+02-5.02590E+01-2.04988E+01 1.22428E+01-6.88756E-01-2.82680E+01
 -1      1586-2.18498E+02-5.18838E+01-2.71427E+01 3.61954E+00 9.38860E-01-3.17942E+01
 -1      1587-1.90290E+02-1.49658E+01 1.82880E+01-3.08744E-02-6.01195E-01-5.95764E-02
 -1      1588-1.92425E+02-9.14482E+00 2.11809E+01 9.98756E+00 4.46904E-01 6.25276E-01
 -1      1589-1.99998E+02-1.17902E-08 3.26520E-09 1.10049E-07 4.77168E-09 1.22461E-08
 -1      1590-1.99998E+02 5.36998E-09 6.49791E-09-1.75234E-07-1.77920E-08-1.06290E-08
 -1      1591-1.99998E+02 6.13899E-09-9.63247E-09 9.30185E-09-4.72110E-09-1.92004E-08
 -1      1592-1.99998E+02-2.84230E-08-3.26469E-08 3.76101E-08-8.13607E-09 1.71135E-08
 -1      1593-1.99998E+02-1.90540E-08-1.06729E-08-2.30505E-08-9.33867E-09 3.91134E-09
 -1      1594-1.99998E+02 3.73170E-09 1.10692E-08-1.14994E-08 7.05743E-09-7.46273E-09
 -1      1595-1.99998E+02-1.69724E-09 5.31875E-09 6.98850E-09-5.03735E-09 3.15814E-09
 -1      1596-1.84624E+02-2.22749E+00-2.78422E+00 7.16689E-01-2.38241E+00 2.11734E+00
 -1      1597-1.89402E+02 1.27883E+00 1.16864E-01 8.12712E-01-3.01497E-01 1.21813E+00
 -1      1598-1.83749E+02 6.12870E-01 4.72327E+00-5.04384E+00-6.69734E-01 2.91232E+00
 -1      1599-1.91152E+02 7.45705E-01-1.37191E-01 1.41264E+00-2.28182E-01 6.17718E-01
 -1      1600-1.96121E+02 5.31394E-01 6.05236E-02 1.02284E+00-1.01524E-02 4.44200E-01
 -1      1601-1.92724E+02 1.86325E+00 1.11679E-01 1.95557E+00-6.88684E-01 1.25787E+00
 -1      1602-1.97667E+02 2.44651E-01-7.69136E-02 5.41264E-01-3.76636E-02 1.50852E-01
 -1      1603-1.99139E+02 1.80567E-01-1.97700E-03 4.19853E-01 1.28392E-02 1.10231E-01
 -1      1604-1.98094E+02 9.94135E-01-2.30825E-01 1.39818E+00-1.65741E-01 5.74991E-01
 -1      1605-1.99603E+02 3.68611E-02-1.82712E-02 1.33935E-01 2.18720E-04 4.18530E-02
 -1      1606-1.99937E+02 2.50276E-02 1.69186E-03 8.20362E-02 6.76790E-03 7.46499E-04
 -1      1607-1.99632E+02 2.92238E-01 6.55641E-02 4.36316E-01-4.29657E-02 1.17988E-01
 -1      1608-2.00013E+02 1.00115E-02 1.86735E-03 1.72131E-02 4.55036E-03-6.71253E-03
 -1      1609-2.00035E+02-2.43220E-03-1.09787E-02 1.10331E-02 4.01962E-03-1.43062E-02
 -1      1610-2.00012E+02 3.32615E-02-3.17934E-02 7.99750E-02 1.25120E-03-8.02363E-03
 -1      1611-2.00026E+02-2.89463E-03-1.97768E-03-4.30332E-03 2.11760E-03-3.77813E-03
 -1      1612-2.00016E+02-2.85751E-03 9.54819E-05-2.74282E-03 5.09865E-05-2.97372E-03
 -1      1613-2.00041E+02-8.93715E-03-1.60520E-02 3.05502E-03-3.18843E-04-1.59017E-02
 -1      1614-2.00011E+02-8.52260E-04 1.10021E-03-2.00898E-03 3.05547E-05-6.81330E-04
 -1      1615-2.00002E+02-7.22012E-04 2.54541E-04-1.84707E-03-2.77292E-05-2.55930E-04
 -1      1616-2.00009E+02-3.78561E-03-9.88845E-04-3.90281E-03 1.48915E-03-3.09466E-03
 -1      1617-2.00001E+02-2.81771E-04 1.71741E-04-6.30696E-04-5.84944E-05-4.88527E-06
 -1      1618-1.99999E+02-1.03279E-04 1.26900E-04-5.76215E-04-7.76237E-05-4.00074E-05
 -1      1619-2.00000E+02-1.09890E-03 6.56092E-04-2.37911E-03 1.12867E-04-4.17315E-04
 -1      1620-1.99998E+02-5.21109E-05 2.91983E-05-1.44309E-04 1.29310E-07-2.99553E-05
 -1      1621-1.99998E+02-2.10661E-05 2.26319E-05-9.33602E-05-1.84547E-05 8.04357E-06
 -1      1622-1.99998E+02-2.80913E-04-2.40431E-05-5.46205E-04 2.43640E-05-5.58073E-05
 -1      1623-1.99998E+02 4.47625E-06 4.02994E-06-7.07466E-06-4.44738E-06 7.42165E-06
 -1      1624-1.99998E+02 3.32998E-06 1.95534E-06-6.13027E-07 3.55438E-07 1.00365E-05
 -1      1625-1.99998E+02-2.67839E-05-2.98347E-06-8.56410E-05-1.24989E-05 3.70470E-06
 -1      1626-1.99998E+02 4.50423E-07-3.42021E-06 6.52983E-06-3.03320E-07 4.26031E-06
 -1      1627-1.99998E+02 2.55050E-06 1.16915E-06 4.96071E-06 1.05610E-07 1.83570E-06
 -1      1628-1.99998E+02 1.11631E-05 2.15642E-06 2.13785E-06-7.70244E-07 1.23884E-05
 -1      1629-1.99998E+02 5.42628E-07-1.12068E-06 2.59103E-06 6.38192E-08 6.27828E-07
 -1      1630-1.99998E+02 6.21203E-07-3.01428E-08 2.35879E-06 4.88944E-08 5.10034E-07
 -1      1631-1.99998E+02 5.07032E-06 1.32088E-06 7.20462E-06-1.22638E-06 3.25879E-06
 -1      1632-1.99998E+02 2.58806E-07-1.36111E-07 9.14045E-07 2.51071E-08 2.58072E-07
 -1      1633-1.99998E+02 1.82191E-07 1.57847E-08 5.97397E-07 5.28286E-08 4.98542E-08
 -1      1634-1.99998E+02 1.50519E-06 2.80216E-07 2.70051E-06-3.02237E-07 6.33325E-07
 -1      1635-1.99998E+02-1.64955E-09 1.61793E-08 1.78656E-07 1.80083E-08-4.21218E-08
 -1      1636-1.99998E+02-9.00575E-09-4.54589E-09 1.40557E-07 1.30746E-08-3.86488E-08
 -1      1637-1.99998E+02 1.86134E-07 6.96026E-08 6.64411E-07 4.02977E-08 7.51657E-08
 -1      1638-1.99998E+02-7.63306E-09-1.23430E-08 2.35626E-08 8.33696E-09-4.55774E-09
 -1      1639-1.99998E+02-5.35182E-09-2.14689E-09 2.07453E-08 6.72005E-09-8.42696E-09
 -1      1640-1.99998E+02-2.42165E-08-2.95804E-08 1.38841E-07 1.16261E-08-3.18045E-08
 -1      1641-1.99998E+02-6.24157E-09-2.28782E-09 5.32758E-09 1.14906E-10-7.41240E-10
 -1      1642-1.99998E+02-3.67155E-09-7.74008E-10 4.41441E-09 6.90794E-10-1.85057E-09
 -1      1643-1.99998E+02-2.03600E-08-5.57889E-09 2.15075E-08 8.42326E-09-1.07254E-08
 -1      1644-1.99998E+02 8.28565E-10 1.73467E-09 3.54729E-09-6.16473E-10-1.45460E-10
 -1      1645-1.99998E+02 5.87181E-10-2.92776E-10 2.72669E-09 1.84546E-11 1.50575E-10
 -1      1646-1.99998E+02-5.68146E-09-1.88717E-09 9.75143E-09 3.33571E-09-1.88360E-09
 -1      1647-1.99998E+02 8.58154E-10 1.13399E-10 1.95547E-09-4.38609E-10 2.95952E-10
 -1      1648-1.99998E+02 7.85656E-10-8.62470E-11 1.66774E-09-8.89271E-11 6.75029E-10
 -1      1649-1.99998E+02-1.30424E-09-4.05524E-10 4.90407E-09 1.43553E-10 2.70036E-10
 -1      1650-1.99998E+02 2.18060E-10-1.24891E-10 9.95075E-10-2.67212E-10 3.04467E-10
 -1      1651-1.99998E+02 2.86424E-10-1.57684E-10 7.22025E-10 2.60893E-11 1.35984E-10
 -1      1652-1.99998E+02 7.51603E-10 1.05381E-10 2.26664E-09 1.80505E-10 5.66546E-10
 -1      1653-1.99998E+02 1.85353E-10-1.86892E-12 2.85292E-10-3.54764E-11 3.75374E-11
 -1      1654-1.99998E+02 1.17343E-10-4.31329E-11 2.33318E-10-5.92691E-11 2.87079E-11
 -1      1655-1.99998E+02 2.74397E-10-5.12561E-11 8.98398E-10 1.28746E-10 1.82114E-10
 -1      1656-1.99998E+02 2.55952E-11-4.19490E-11 8.13652E-11-3.28893E-11 2.24567E-11
 -1      1657-1.99998E+02 3.23066E-11-8.77000E-12 5.27648E-11 2.44744E-12 1.01637E-11
 -1      1658-1.99998E+02 1.12470E-10-7.11670E-11 2.66699E-10-4.50826E-11 2.30952E-11
 -1      1659-1.99998E+02 1.76806E-11-2.91554E-12 1.20217E-11-1.63095E-12 4.55798E-13
 -1      1660-1.99998E+02 7.81673E-12-5.50854E-12 1.25015E-11-5.24309E-12 2.88325E-12
 -1      1661-1.99998E+02 4.18764E-11 5.24322E-12 6.80305E-11 1.28695E-11 2.21501E-11
 -1      1662-1.99998E+02-1.52403E-12 3.04217E-13 6.54559E-12 1.00924E-12-1.55710E-13
 -1      1663-1.99998E+02-4.38114E-12-1.60164E-12 4.69592E-13-3.07045E-13-2.62566E-12
 -1      1664-1.99998E+02 1.28931E-11 1.00660E-12 9.56098E-12 2.78400E-12 4.66370E-12
 -1      1665-1.99998E+02-7.62630E-12-1.55172E-13 6.90493E-13 2.23943E-12-3.64716E-12
 -1      1666-1.99998E+02-2.65135E-12-1.08948E-12 1.95571E-12-1.19793E-12-6.63820E-12
 -1      1667-1.99998E+02 2.03372E-12-2.90445E-12 1.90910E-12 8.54162E-13-9.99679E-13
 -1      1668-1.99998E+02 1.10250E-12-1.97576E-12 2.25953E-12-5.38507E-13-2.79911E-12
 -1      1669-1.99998E+02-1.13435E-12 1.08159E-12 2.23660E-12-1.29550E-12 2.91887E-13
 -1      1670-1.99998E+02-2.62071E-12-1.07898E-12 6.31750E-12-3.05397E-12-5.09587E-13
 -1      1671-1.99998E+02 2.77808E-12 6.25012E-12 6.94050E-12-1.63488E-13-3.60739E-12
 -1      1672-1.99998E+02-7.01337E-12 4.96883E-12 7.02573E-12-1.53139E-13-5.65744E-12
 -1      1673-1.99998E+02 7.99273E-13 2.91609E-13 8.06819E-12-1.37341E-12 4.01994E-12
 -1      1674-1.99998E+02-9.84231E-12 2.76649E-12 3.07522E-12-4.76537E-12-6.32452E-12
 -1      1675-1.99998E+02 4.26985E-13 2.44671E-12 5.43022E-12-3.89503E-12-3.06268E-12
 -1      1676-1.99998E+02-2.84790E-12-3.22057E-13 8.63437E-12 1.21908E-12-5.16056E-12
 -1      1677-1.99998E+02 5.12261E-13 3.93555E-12-8.60116E-14-2.30393E-12-7.48763E-12
 -1      1678-1.99998E+02 7.75689E-13 5.26195E-12 7.76062E-12-1.29656E-12-3.23589E-12
 -1      1679-1.99998E+02-9.79357E-12 6.91743E-13 4.70655E-12 6.17373E-12-5.82370E-12
 -1      1680-1.99998E+02 1.78732E-12 4.46895E-12 1.10494E-11 1.30842E-12-5.59412E-12
 -1      1681-1.99998E+02 6.55449E-13-7.29660E-13 8.47479E-12-1.21500E-12 1.09509E-12
 -1      1682-1.99998E+02 7.64467E-12 7.26969E-12 9.01780E-12 2.67332E-13-1.41053E-12
 -1      1683-1.99998E+02-2.39804E-11 1.39245E-11 2.27880E-11 8.09083E-12 6.90043E-12
 -1      1684-1.99998E+02-2.18542E-11 2.20113E-11 2.74081E-12 1.99583E-11 2.56725E-13
 -1      1685-1.99998E+02-1.13275E-11-6.02801E-13 1.09076E-11-3.84293E-12 9.70757E-13
 -1      1686-1.99998E+02 3.23897E-11 1.61862E-11 9.69077E-11-2.84466E-11 7.92395E-12
 -1      1687-1.99998E+02 1.47033E-10 1.02359E-10 4.03765E-11 3.48549E-11 1.64712E-10
 -1      1688-1.99998E+02 7.24077E-12 2.14194E-11 1.27165E-10-1.81438E-11 8.86923E-11
 -1      1689-1.99998E+02 9.41003E-10 1.23443E-11 3.09528E-10-3.25486E-10 4.00050E-10
 -1      1690-1.99998E+02 2.84732E-09 2.25456E-09 6.23979E-10 1.39818E-09-1.08540E-09
 -1      1691-1.99998E+02 5.06370E-10 1.57115E-10 7.88777E-10-2.44871E-10-1.80656E-10
 -1      1692-1.99998E+02-6.14494E-10-4.15539E-09-2.01482E-09 4.36617E-10-3.94669E-09
 -1      1693-1.88631E+02 1.38536E+00 5.07944E-01-1.02623E+00 1.00377E-01 1.56629E+00
 -1      1694-1.84605E+02-2.32818E+00-3.08982E+00-6.57543E-01 2.19455E+00 2.16182E+00
 -1      1695-1.82681E+02 1.76923E+00 5.70307E+00 5.63797E+00 9.55644E-01 3.84634E+00
 -1      1696-1.96005E+02 5.28082E-01-3.79169E-01-1.18777E+00 7.17902E-02 5.57261E-01
 -1      1697-1.91473E+02 4.99525E-01-5.31879E-01-1.27642E+00 3.44976E-01 5.97039E-01
 -1      1698-1.92432E+02 1.90277E+00 9.19778E-01-1.39796E+00 9.55645E-01 1.63447E+00
 -1      1699-1.99237E+02 1.59678E-01 1.47419E-03-3.60970E-01-1.58122E-02 4.81024E-02
 -1      1700-1.97569E+02 1.88394E-01-1.76315E-01-5.93975E-01 2.71291E-02 2.03781E-01
 -1      1701-1.98018E+02 1.10520E+00-2.82074E-01-1.44792E+00 1.82582E-01 5.72991E-01
 -1      1702-1.99919E+02 3.11108E-02 5.25862E-03-9.09436E-02 3.48539E-03-4.21535E-03
 -1      1703-1.99681E+02 3.24950E-02-1.97456E-02-1.19697E-01-6.12312E-03-1.01675E-02
 -1      1704-1.99695E+02 2.15803E-01-6.98777E-03-4.30276E-01 1.25534E-02 9.10914E-02
 -1      1705-2.00019E+02-4.97819E-04 2.75839E-03-1.09061E-02 7.76464E-04-8.40830E-03
 -1      1706-2.00015E+02-2.07877E-03-6.38525E-04-1.42073E-02-4.91728E-03-1.01550E-02
 -1      1707-2.00014E+02 2.94279E-02 2.81842E-03-8.43335E-02-6.20380E-03 1.17120E-02
 -1      1708-2.00013E+02-1.38291E-03-3.46711E-04 1.32911E-03-3.81468E-04-2.72123E-03
 -1      1709-2.00025E+02-9.93293E-04 1.00851E-03 2.49649E-03-1.06092E-03-3.53792E-03
 -1      1710-2.00024E+02-3.31765E-03-4.80322E-03-5.47458E-03-2.20544E-03-5.77512E-03
 -1      1711-2.00002E+02-5.76000E-04 3.48517E-04 1.59413E-03 1.21022E-04-3.51752E-04
 -1      1712-2.00008E+02-1.02198E-03 1.08622E-04 2.04571E-03-2.39805E-04-6.11636E-04
 -1      1713-2.00009E+02-4.11181E-03-8.34883E-04 3.50877E-03-4.41885E-04-2.67441E-03
 -1      1714-1.99998E+02-2.23537E-04 2.84122E-05 3.73505E-04 6.67598E-06-1.90541E-05
 -1      1715-2.00000E+02-2.69991E-04 2.51770E-04 6.13141E-04 1.26568E-05-1.78199E-04
 -1      1716-1.99999E+02-1.19914E-03 4.00716E-04 1.85503E-03-2.60864E-04-3.33874E-04
 -1      1717-1.99998E+02 1.07598E-05 1.71990E-05 7.45658E-05 8.15836E-06 2.07417E-05
 -1      1718-1.99998E+02-3.22920E-05 2.73839E-05 7.68630E-05 2.89636E-05 3.29732E-05
 -1      1719-1.99998E+02-2.89422E-04 1.14446E-05 4.92578E-04 6.25600E-06-4.71602E-05
 -1      1720-1.99998E+02 1.34551E-05 6.55161E-06 2.66786E-06 8.71711E-06 1.19801E-05
 -1      1721-1.99998E+02 1.78284E-06-7.13779E-06 1.89454E-06 1.11789E-05 1.65607E-05
 -1      1722-1.99998E+02-2.88491E-07 2.37874E-05 9.13265E-05 2.17306E-05 3.01355E-05
 -1      1723-1.99998E+02 2.67550E-06-7.89487E-07-6.36878E-06 3.13220E-07 2.61018E-06
 -1      1724-1.99998E+02 3.16659E-06 3.23409E-07-8.29149E-06 1.55296E-06 3.52632E-06
 -1      1725-1.99998E+02 1.43069E-05 5.73765E-06-9.11935E-06 4.22096E-06 1.31604E-05
 -1      1726-1.99998E+02 1.34864E-06-4.18180E-08-1.92603E-06 4.41690E-08 5.47927E-07
 -1      1727-1.99998E+02 1.52577E-06-7.81333E-07-3.18677E-06 3.14006E-07 1.29998E-06
 -1      1728-1.99998E+02 5.47636E-06-1.39700E-06-8.42513E-06 1.53112E-06 2.44779E-06
 -1      1729-1.99998E+02 1.66653E-07-6.61117E-09-4.55273E-07 4.63427E-08-1.94627E-08
 -1      1730-1.99998E+02 2.53051E-07-9.35480E-08-5.78581E-07-2.08216E-08-4.10595E-08
 -1      1731-1.99998E+02 1.68223E-06 2.62688E-07-2.41037E-06 6.74892E-08 9.02909E-07
 -1      1732-1.99998E+02 1.35004E-08 3.02769E-09-3.08962E-08 2.42462E-09-4.08906E-08
 -1      1733-1.99998E+02 4.22268E-08-1.41590E-08-4.51109E-08-2.20177E-08-3.06453E-08
 -1      1734-1.99998E+02 2.47559E-07-2.03542E-07-4.05756E-07 2.02734E-08 5.43590E-08
 -1      1735-1.99998E+02-1.88546E-08-3.13643E-10 4.87579E-08 2.32912E-09-2.17655E-08
 -1      1736-1.99998E+02-2.02863E-08 3.88516E-09 5.41446E-08-6.79380E-09-2.27096E-08
 -1      1737-1.99998E+02-1.61751E-08-1.12208E-08 4.65961E-08-2.02030E-08-3.86263E-08
 -1      1738-1.99998E+02-4.21568E-09 5.99205E-09 2.68307E-08 6.54265E-10-3.88624E-09
 -1      1739-1.99998E+02-6.39683E-09 5.77146E-09 2.81553E-08-6.13652E-10-3.19132E-09
 -1      1740-1.99998E+02-1.84394E-08-4.10052E-09 6.80774E-08-1.80192E-09-1.64551E-08
 -1      1741-1.99998E+02-2.38973E-09 1.52608E-09 8.93629E-09 2.30365E-10-4.44417E-10
 -1      1742-1.99998E+02-3.81259E-09 2.12577E-09 1.28345E-08-1.15629E-09-2.31114E-09
 -1      1743-1.99998E+02-1.08641E-08 6.21160E-09 3.32887E-08-7.08486E-10-2.73970E-09
 -1      1744-1.99998E+02-7.21833E-10 4.07986E-10 2.40798E-09 7.44169E-11 2.52884E-10
 -1      1745-1.99998E+02-8.94062E-10 9.50703E-10 3.57056E-09-5.47889E-10-5.42843E-10
 -1      1746-1.99998E+02-2.53628E-09 2.26059E-09 1.05801E-08-5.58678E-10 1.39188E-10
 -1      1747-1.99998E+02-1.92975E-10 1.78102E-10 7.39666E-10 2.91051E-11 5.13551E-11
 -1      1748-1.99998E+02-4.66490E-10-1.55981E-10 8.58780E-10-5.14871E-11 1.31608E-10
 -1      1749-1.99998E+02-8.35624E-10 5.85168E-10 3.63511E-09 4.79127E-10 1.44190E-10
 -1      1750-1.99998E+02-9.52897E-11 5.55761E-11 1.88552E-10 1.02582E-11-5.24185E-12
 -1      1751-1.99998E+02-1.84270E-10-6.16124E-11 2.52989E-10-4.60692E-11 3.31548E-11
 -1      1752-1.99998E+02 6.84658E-11 4.34559E-10 9.39818E-10-3.83581E-11 2.27947E-10
 -1      1753-1.99998E+02-5.68952E-11 1.28519E-11 2.23860E-11-3.39957E-11 1.55865E-11
 -1      1754-1.99998E+02-9.21793E-11-7.90044E-13 4.89898E-11-2.00456E-11 2.20286E-12
 -1      1755-1.99998E+02 6.45821E-11 1.34574E-10 1.60708E-10-4.78588E-11 4.90100E-11
 -1      1756-1.99998E+02-1.64797E-11-2.22462E-12 1.96681E-12-1.32080E-11 3.14668E-12
 -1      1757-1.99998E+02-1.67447E-11 3.65252E-12 5.84891E-12-1.09294E-11 5.17115E-12
 -1      1758-1.99998E+02-2.12021E-11 2.98803E-11 1.16799E-11-2.63643E-11 2.59282E-11
 -1      1759-1.99998E+02-3.99763E-12 2.59614E-12 3.49414E-12-7.40391E-13 2.70448E-13
 -1      1760-1.99998E+02-1.13570E-12 3.93674E-12-5.20325E-12-8.25556E-12 4.13873E-12
 -1      1761-1.99998E+02-1.17692E-11 4.84692E-12-2.60945E-12-6.60253E-12 6.11803E-13
 -1      1762-1.99998E+02 1.28454E-12-1.47892E-12 8.19495E-12-1.93628E-12-1.44694E-12
 -1      1763-1.99998E+02-1.64114E-13-7.50897E-13 4.56850E-12-1.92178E-12 8.62394E-14
 -1      1764-1.99998E+02 7.50820E-12 8.23160E-12 2.24044E-12-7.01266E-13-4.48562E-13
 -1      1765-1.99998E+02 3.53881E-12 4.84089E-12 4.91205E-12-2.28301E-12-3.10592E-12
 -1      1766-1.99998E+02-3.60928E-12-2.72998E-12 1.61980E-12-4.39173E-12 2.48476E-13
 -1      1767-1.99998E+02 2.58301E-12-3.07524E-12 1.15901E-11-2.18710E-12-2.81288E-12
 -1      1768-1.99998E+02-9.48638E-13-1.82235E-12 5.71008E-13 1.64443E-12 1.93504E-12
 -1      1769-1.99998E+02-2.29399E-12-9.50966E-13 4.85322E-12-7.35231E-13 6.30710E-13
 -1      1770-1.99998E+02-4.08430E-12-1.97657E-12 4.44570E-12 5.09930E-13 2.59884E-13
 -1      1771-1.99998E+02 4.73641E-12 4.29725E-12 3.80866E-12 5.84194E-12 3.16456E-12
 -1      1772-1.99998E+02-3.25026E-13 3.02411E-12 4.49659E-12 1.23316E-12 3.93712E-12
 -1      1773-1.99998E+02-3.73835E-12-8.27165E-13 1.75960E-12-1.49357E-12 3.29366E-12
 -1      1774-1.99998E+02 6.22646E-12-1.48744E-14 1.17222E-12-3.80771E-13 1.20828E-11
 -1      1775-1.99998E+02 7.09506E-12 5.91990E-12 5.93183E-13 1.60346E-12 5.85052E-12
 -1      1776-1.99998E+02 1.72204E-12-1.69292E-12 4.07427E-12 3.92594E-12 2.53878E-12
 -1      1777-1.99998E+02-1.06667E-11-2.80734E-12-9.99090E-12-2.36466E-12-2.97630E-12
 -1      1778-1.99998E+02 1.01135E-12-1.16850E-11 1.03772E-12 8.71052E-13 6.54820E-12
 -1      1779-1.99998E+02-6.47694E-14-8.79274E-12 4.03621E-12 4.41751E-13 6.72649E-12
 -1      1780-1.99998E+02 1.76450E-14-2.04860E-11-2.18636E-11 4.59896E-12-1.27350E-11
 -1      1781-1.99998E+02 3.79914E-12-6.13704E-12-2.11021E-11-3.86046E-12-2.56369E-12
 -1      1782-1.99998E+02 8.99565E-12 5.49505E-12-8.98246E-12 5.64014E-12-1.27286E-11
 -1      1783-1.99998E+02 6.64615E-11-2.32517E-11-5.92700E-11 6.66398E-12-9.16754E-11
 -1      1784-1.99998E+02 2.10459E-11-1.89824E-12-5.02234E-11-7.99968E-12-5.22982E-11
 -1      1785-1.99998E+02 6.00629E-14-3.02952E-12-4.50623E-11 1.25222E-11-2.81013E-11
 -1      1786-1.99998E+02-3.25254E-10 1.25220E-09 7.72964E-11-9.39485E-10 6.88457E-10
 -1      1787-1.99998E+02-4.52684E-10-7.56691E-11-5.77629E-10-1.95739E-10 4.19059E-10
 -1      1788-1.99998E+02-3.72609E-10-3.67052E-10-3.65719E-10 7.92544E-11 3.91285E-10
 -1      1789-1.99998E+02-3.09970E-09-6.73906E-10 1.66396E-09-1.24300E-09 2.41695E-09
 -1      1790-1.99998E+02 5.89735E-11 2.14081E-11 1.16996E-10-3.54902E-12 1.84022E-11
 -1      1791-1.99998E+02 3.36229E-11 5.02045E-12 2.91491E-11 5.42494E-12 4.26532E-12
 -1      1792-1.99998E+02 6.83717E-12-4.77838E-13 1.54303E-11 2.19049E-12 2.46797E-12
 -1      1793-1.99998E+02 1.17992E-12-1.51548E-12 4.03591E-12-1.54258E-13-7.34752E-13
 -1      1794-1.99998E+02 1.43708E-11 8.92036E-12 2.55665E-11 7.84899E-12 4.53405E-12
 -1      1795-1.99998E+02-3.18362E-12-8.97388E-12 5.31245E-12-3.95122E-12-3.59580E-12
 -1      1796-1.99998E+02 2.23591E-12-1.68738E-12 7.59158E-12-4.69226E-12-8.28205E-12
 -1      1797-1.99998E+02 2.73199E-12 4.28929E-13 1.00121E-11-2.66011E-12-4.31537E-13
 -1      1798-1.99998E+02 1.11966E-11 5.84804E-12 6.82776E-12-1.25421E-12-1.18533E-12
 -1      1799-1.99998E+02 5.28639E-12-3.39189E-12 9.29479E-12-3.70057E-12-3.77249E-12
 -1      1800-1.99998E+02 3.65568E-12-2.62133E-12 8.60116E-12 5.94831E-13 2.29556E-12
 -1      1801-1.99998E+02 8.17898E-12-3.74999E-12 6.42669E-12 2.22641E-12 4.38468E-12
 -1      1802-1.99998E+02 1.16240E-11 3.13374E-12 1.85698E-12 1.97647E-12 3.94800E-12
 -1      1803-1.99998E+02 4.03813E-12 6.80885E-12 4.95110E-12 1.01117E-13-1.52858E-12
 -1      1804-1.99998E+02-5.64801E-12 1.52887E-12 6.24545E-12 3.20896E-12-1.25709E-12
 -1      1805-1.99998E+02 2.24155E-11 1.25369E-11 3.43009E-11-1.38124E-11-4.18690E-11
 -1      1806-1.99998E+02 1.27403E-10 1.58644E-10 1.37000E-10-2.66220E-11 4.78940E-11
 -1      1807-1.99998E+02 6.00079E-11-1.14493E-11 3.26924E-10-1.62973E-11-1.45098E-10
 -1      1808-1.99998E+02 3.61373E-11-1.35828E-11 1.45537E-10-1.88675E-11-2.23383E-10
 -1      1809-1.99998E+02 1.98208E-10 3.00638E-10 8.64454E-10-7.65678E-11-8.28210E-10
 -1      1810-1.99998E+02 3.28797E-10 1.51240E-10 1.23255E-09 9.38707E-11 1.08860E-10
 -1      1811-1.99998E+02 1.18682E-10-6.70231E-11 7.06370E-10 1.16669E-10 1.49275E-11
 -1      1812-1.99998E+02 5.89784E-10 3.70283E-10 2.15399E-09 1.49972E-10 9.16811E-12
 -1      1813-1.99998E+02 2.08597E-11 3.89704E-10 2.09406E-09 2.56332E-10 1.38943E-10
 -1      1814-1.99998E+02 1.67295E-10 1.61099E-10 3.54423E-09 4.42369E-10 3.16645E-10
 -1      1815-1.99998E+02-5.42241E-12-2.07561E-12 3.71375E-12 2.25067E-12-2.03890E-12
 -1      1816-1.99998E+02-6.28113E-12 3.42107E-12 7.18764E-14-6.31164E-13-9.53677E-13
 -1      1817-1.99998E+02 1.12558E-11 6.62873E-12 5.44992E-12-9.61533E-13-2.34298E-12
 -1      1818-1.99998E+02 4.97115E-12 9.62884E-12 1.11918E-11 4.10488E-12-3.32936E-12
 -1      1819-1.99998E+02-7.74048E-13 6.22137E-12 7.23505E-12 8.30963E-13-6.20025E-12
 -1      1820-1.99998E+02-1.51893E-08 5.94111E-10 2.24048E-08 4.56198E-09-5.51847E-09
 -1      1821-1.99998E+02-7.09464E-09 8.45913E-10 1.41342E-08 1.41275E-09-3.36822E-09
 -1      1822-1.99998E+02-3.33485E-09 5.89357E-10 7.68800E-09 6.46412E-10-2.93790E-10
 -1      1823-1.99998E+02-1.35013E-09 9.04396E-10 6.89058E-09 6.38200E-10-3.03624E-10
 -1      1824-1.99998E+02-9.35889E-09-8.77247E-11 1.70069E-08 2.16354E-09-2.48131E-09
 -1      1825-2.00081E+02 3.26587E-02-1.22197E-02-2.00285E-02-4.00730E-04-5.90147E-03
 -1      1826-2.00022E+02 1.25806E-01-1.95749E-02-8.09092E-02-2.48357E-03 7.70678E-03
 -1      1827-2.00017E+02-6.36805E-03-4.59591E-03 1.91093E-03-1.49456E-03-6.90321E-03
 -1      1828-2.00034E+02 3.92928E-03-5.56421E-03-1.23766E-02-4.15425E-03-1.03439E-02
 -1      1829-2.00061E+02 3.95051E-02-7.26260E-03-1.82143E-03-3.20444E-03-1.10573E-02
 -1      1830-2.00000E+02-2.72756E-03 4.56532E-04-1.67821E-03 4.12523E-05-9.54613E-04
 -1      1831-1.99998E+02-1.54026E-03 3.01619E-04-7.37686E-04-3.91059E-05-4.56712E-04
 -1      1832-2.00008E+02-5.82386E-03-2.66616E-03-2.22296E-03 1.69778E-03-4.75067E-03
 -1      1833-2.00002E+02-5.26736E-03-2.41027E-04-2.27150E-03-1.03527E-04-2.75033E-03
 -1      1834-2.00000E+02-4.89479E-03-4.42602E-04-1.19318E-04-7.98133E-05-1.90188E-03
 -1      1835-1.99666E+02 6.74561E-01 3.90092E-02 3.68354E-01-2.62637E-02 2.06518E-01
 -1      1836-2.00128E+02 2.91162E-01-6.91866E-02 1.27258E-01 2.50935E-02 5.61277E-02
 -1      1837-1.99617E+02 1.15837E+00-1.14097E-01 4.61031E-01-1.85761E-02 5.67560E-01
 -1      1838-1.98345E+02 1.94899E+00-1.74398E-01 9.19708E-01-1.12670E-01 8.05005E-01
 -1      1839-1.99785E+02 1.23821E+00-6.62155E-02 2.23626E-02-9.90654E-02 4.23674E-01
 -1      1840-1.99998E+02 5.76741E-06-1.70111E-06-3.47527E-06 9.57298E-08 2.03142E-06
 -1      1841-1.99998E+02 1.09521E-05-3.15869E-07-5.63784E-06 1.26824E-06 4.10297E-06
 -1      1842-1.99998E+02 1.70888E-05 3.14863E-06-9.39926E-06-1.20037E-07 9.10724E-06
 -1      1843-1.99998E+02 1.46044E-05 3.28124E-06-3.50766E-06-7.62588E-07 9.21038E-06
 -1      1844-1.99998E+02 1.65793E-05 9.70481E-06-1.55475E-06 3.16031E-06 1.73332E-05
 -1      1845-1.99998E+02-9.38814E-09-5.76155E-08 2.07058E-07 2.97331E-08-6.48407E-08
 -1      1846-1.99998E+02-4.30346E-08-3.37264E-08 9.65672E-08 1.87511E-08-4.62000E-08
 -1      1847-1.99998E+02 2.20271E-07-2.12564E-08 2.86770E-07-1.47635E-08-1.59954E-08
 -1      1848-1.99998E+02 2.63573E-07-5.42261E-08 1.78380E-07-1.13275E-09-6.27814E-08
 -1      1849-1.99998E+02 7.30144E-07-9.61245E-08 6.98495E-07 3.26660E-08 2.31712E-08
 -1      1850-1.99998E+02-8.29597E-04-6.94932E-05-5.80602E-04 4.06213E-05-1.30812E-04
 -1      1851-1.99998E+02-3.15419E-04 1.07915E-04-1.73707E-04-2.64614E-05-1.00432E-05
 -1      1852-1.99998E+02-1.06000E-04 1.83841E-05-1.03426E-04-1.01136E-05 2.56699E-05
 -1      1853-1.99998E+02-6.39584E-06 1.92863E-05-2.34529E-05 3.53919E-07 2.72715E-05
 -1      1854-1.99998E+02-2.66520E-04 1.17778E-04-2.26129E-05 8.76742E-06 5.27958E-05
 -1      1855-1.95748E+02 3.22315E+00 1.76440E-01-9.73385E-01 1.13192E-01 1.71404E+00
 -1      1856-1.94694E+02 2.16314E+00 1.28223E+00-4.11210E-01 6.56568E-01 2.63377E+00
 -1      1857-1.92722E+02 6.12843E-01 2.77334E+00 1.17125E-01-1.39865E-01 3.54005E+00
 -1      1858-1.87399E+02 8.03828E-01 2.99323E+00-2.74577E-01 2.88742E-01 3.62362E+00
 -1      1859-1.80612E+02-1.59072E+00 5.41917E+00 2.33581E+00-3.66373E-01 4.26321E+00
 -1      1860-1.79393E+02-4.19645E+00 4.41553E+00 2.14946E+00-6.02179E-02 3.83526E+00
 -1      1861-1.99998E+02-3.30800E-11-1.52532E-11 2.87909E-11-4.74132E-12 9.64556E-12
 -1      1862-1.99998E+02 4.48403E-12 1.29157E-11 2.62123E-11-3.26387E-11 9.22304E-12
 -1      1863-1.99998E+02 4.91606E-12-1.65728E-11 1.79244E-10-3.65564E-11 6.05781E-11
 -1      1864-1.99998E+02 2.55122E-11 5.70905E-11 2.54297E-10-2.69506E-11 3.79348E-11
 -1      1865-1.99998E+02 1.28031E-10 4.19497E-11 1.79845E-10-1.35308E-11-2.88203E-13
 -1      1866-1.99998E+02-8.39663E-12-1.43012E-12 1.72620E-12 6.75037E-13-1.25043E-11
 -1      1867-1.99998E+02 2.44213E-12-3.76038E-12 3.63233E-12-5.39294E-12-6.45614E-12
 -1      1868-1.99998E+02 5.74395E-12 6.25100E-12 9.51659E-12 4.66143E-12-1.99612E-12
 -1      1869-1.99998E+02-4.66020E-12 3.27811E-12 7.44316E-12 8.02115E-13-5.01868E-12
 -1      1870-1.99998E+02 7.01074E-12 3.18511E-12 3.95965E-13 3.00629E-12-5.46821E-12
 -1      1871-1.99998E+02-9.35563E-10-4.31490E-10-3.98146E-11 1.43688E-10 5.20292E-10
 -1      1872-1.99998E+02 7.28596E-11 9.35534E-11 2.26707E-11-2.39354E-11-1.21323E-10
 -1      1873-1.99998E+02-1.54934E-09-1.19444E-09-1.21373E-09 4.58148E-10 2.05587E-09
 -1      1874-1.99998E+02-7.42428E-10-6.15642E-10-3.99205E-10 1.08565E-09 1.26886E-10
 -1      1875-1.99998E+02-2.33362E-09 3.09489E-10-3.48627E-10-1.26918E-09 4.47735E-09
 -1      1876-1.99998E+02-4.12683E-09-2.46655E-09-2.90977E-10 1.68380E-10 4.56264E-09
 -1      1877-1.99998E+02-1.25768E-08 1.14754E-09 2.21387E-08 1.43269E-09-1.61117E-09
 -1      1878-1.99998E+02-2.00252E-08 4.60793E-09 3.67152E-08 1.81754E-09-4.32204E-09
 -1      1879-1.99998E+02-3.20715E-08 1.35176E-09 5.35263E-08 4.09375E-09-1.07787E-08
 -1      1880-1.99998E+02-3.81423E-08-4.93313E-09 7.33509E-08-1.66630E-09-2.56321E-08
 -1      1881-1.99998E+02-2.44417E-08 3.86134E-09 4.35481E-08 2.52145E-09-1.41270E-08
 -1      1882-1.99998E+02 3.10113E-11 4.41662E-11-3.50910E-11 9.83180E-12-7.15001E-11
 -1      1883-1.99998E+02 1.01140E-11 1.09344E-11 2.66193E-12 1.05748E-11-5.72648E-11
 -1      1884-1.99998E+02 3.66957E-12 1.11162E-11-9.53329E-12 1.61759E-11-2.22512E-11
 -1      1885-1.99998E+02 1.16271E-11 1.39181E-12-3.87271E-12 3.07807E-12-2.19714E-12
 -1      1886-1.99998E+02 2.08874E-11 1.78843E-11-8.14012E-13 7.31820E-14-4.41340E-11
 -1      1887-1.99998E+02-8.77407E-10 1.29053E-09 7.49549E-09 2.66254E-10 5.97445E-10
 -1      1888-1.99998E+02-4.23938E-09 1.45675E-09 1.30025E-08 4.28920E-10-5.16520E-11
 -1      1889-1.99998E+02-5.88729E-10 2.29354E-10 2.22463E-09 1.54139E-10 3.84756E-10
 -1      1890-1.99998E+02-1.56822E-09-6.83786E-11 4.52084E-09 1.57454E-10 4.31628E-10
 -1      1891-1.99998E+02-3.29298E-09-2.54066E-10 7.34161E-09 9.99181E-10-1.54008E-10
 -1      1892-1.99998E+02 1.15226E-05 8.01813E-08 3.94766E-06-9.74112E-07 4.45196E-06
 -1      1893-1.99998E+02 6.60350E-06-5.67345E-07 2.24473E-06 9.68113E-08 3.06167E-06
 -1      1894-1.99998E+02 3.93979E-06 3.28393E-07 2.44082E-06-3.32625E-07 1.07191E-06
 -1      1895-1.99998E+02 1.68808E-06-5.32425E-07 1.02262E-06 1.53305E-07 3.14389E-07
 -1      1896-1.99998E+02 7.29706E-06-2.37980E-07-3.33126E-07-4.30453E-07 2.12637E-06
 -1      1897-1.99998E+02-1.26615E-03 5.32084E-04 5.23832E-04 2.89974E-06-3.14890E-04
 -1      1898-1.99999E+02-2.69539E-03 1.58961E-04 1.18608E-03-2.57848E-04-6.98665E-04
 -1      1899-1.99998E+02-1.90343E-04 1.09651E-04 1.25149E-04 4.19254E-05 2.24601E-05
 -1      1900-1.99998E+02-8.04636E-04 1.04132E-04 3.00831E-04-1.28488E-05-1.39065E-04
 -1      1901-1.99998E+02-1.50861E-03 1.75938E-04-1.24969E-04 7.26380E-05-3.27303E-04
 -1      1902-1.99998E+02 1.73255E-06-2.41545E-07-7.15856E-07-1.42710E-07 3.07075E-07
 -1      1903-1.99998E+02 4.37795E-06-9.01058E-08-1.83789E-06 2.92385E-07 1.17888E-06
 -1      1904-1.99998E+02 7.77386E-07-2.03962E-07-4.32244E-07-1.19784E-08 6.58775E-08
 -1      1905-1.99998E+02 1.63979E-06-4.53578E-07 1.83643E-07 1.82904E-08 9.21383E-08
 -1      1906-1.99998E+02 2.91772E-07-1.70784E-07 2.03712E-08-2.19153E-08-4.70056E-08
 -1      1907-1.83152E+02-8.52052E+00 3.26714E+00-2.45706E+00-7.60250E-01 1.72830E+00
 -1      1908-1.83497E+02-2.22162E+00 3.46485E+00-2.47189E+00-8.05304E-04 1.89801E+00
 -1      1909-1.88122E+02 3.15347E-01 3.24202E+00 1.11923E-01-2.58881E-01 3.91095E+00
 -1      1910-1.99998E+02 6.63431E-09 9.87549E-09-3.24193E-09 4.60559E-09-4.18253E-09
 -1      1911-1.99998E+02 5.49128E-09 5.88063E-09 5.79038E-09 1.99335E-09-7.20619E-09
 -1      1912-1.99998E+02-1.08747E-09-2.14499E-09 1.23144E-09 9.48285E-10 2.14364E-10
 -1      1913-1.99998E+02-8.34998E-12-3.99719E-12 9.53189E-12-5.38114E-12-2.30469E-12
 -1      1914-1.99998E+02-5.57957E-12-1.06741E-11 2.20281E-12-4.97151E-12-3.55538E-12
 -1      1915-1.99998E+02-1.32849E-12-3.80467E-12 6.78967E-12-2.20308E-12-4.36797E-12
 -1      1916-1.99998E+02 4.96056E-12 4.56563E-12 1.30995E-11-2.35765E-12-1.03346E-12
 -1      1917-1.99998E+02-4.41635E-12-2.32332E-12 1.14146E-11-9.15046E-13-6.78869E-13
 -1      1918-1.99998E+02-5.78992E-12 2.01985E-12 1.19982E-11-2.80249E-12 2.82513E-12
 -1      1919-1.99998E+02 3.38495E-13 9.59713E-13 1.40878E-12-3.73348E-12 1.45698E-12
 -1      1920-1.99998E+02 3.03310E-12-1.09363E-13 5.80855E-12 2.00951E-12-1.81776E-12
 -1      1921-2.00046E+02-7.60320E-03-1.42257E-02 8.78124E-03-6.03969E-04-1.90974E-02
 -1      1922-2.00021E+02-7.40030E-03-4.53886E-03-3.67788E-03 4.50526E-04-7.36166E-03
 -1      1923-2.00052E+02 1.21582E-01-1.63289E-02 9.74431E-02 7.29056E-03-1.64860E-02
 -1      1924-2.00064E+02 3.07644E-02-3.79623E-02 1.69629E-02 5.36199E-03-1.52772E-02
 -1      1925-1.99859E+02 1.07092E+00-2.66096E-01-4.38682E-01 1.77598E-02 3.01509E-01
 -1      1926-1.98194E+02 1.95400E+00-2.16637E-01-8.98019E-01 7.63316E-02 8.26615E-01
 -1      1927-2.00187E+02 2.78384E-01-6.25456E-02-1.25761E-01-2.27726E-02 2.99660E-02
 -1      1928-1.99608E+02 6.51088E-01-1.61637E-01-3.17092E-01 4.59737E-02 6.88286E-02
 -1      1929-1.96773E+02 3.16997E+00 6.28119E-01-3.45383E-02-1.10227E-02 1.71745E+00
 -1      1930-1.95855E+02 3.27893E+00 5.05239E-01 9.21730E-01-2.04671E-01 1.79962E+00
 -1      1931-1.94623E+02 2.17363E+00 1.22442E+00 3.81461E-01-6.60889E-01 2.61369E+00
 -1      1932-1.99998E+02 1.69098E-10-5.21982E-14 3.34609E-10-4.22167E-13 3.23141E-11
 -1      1933-1.99998E+02 6.26853E-11-6.33267E-12 1.97344E-10-3.00417E-11-7.60494E-12
 -1      1934-1.99998E+02 9.43617E-11-8.68529E-12 6.66474E-10 1.47292E-10 3.92608E-11
 -1      1935-1.99998E+02-3.33250E-10 3.49633E-12 1.22907E-09-2.30867E-11 7.27179E-11
 -1      1936-1.99998E+02-1.33776E-10-8.48595E-12 7.33194E-10 9.53677E-13 1.31897E-10
 -1      1937-1.99998E+02-8.42408E-12-2.00740E-12 3.92727E-12 3.86717E-12-4.48566E-12
 -1      1938-1.99998E+02 3.84448E-12 2.33494E-12 2.92484E-12 5.20383E-12-2.34697E-12
 -1      1939-1.99998E+02 1.06887E-11-1.82007E-12 3.45463E-12-3.22216E-12-4.85299E-12
 -1      1940-1.99998E+02-1.68580E-11-1.49240E-12 4.11682E-12-1.76908E-12-8.19075E-13
 -1      1941-1.99998E+02-1.31503E-11-4.05585E-12 9.22270E-13-6.30360E-12-3.77636E-12
 -1      1942-1.99998E+02 2.21036E-12 4.70368E-12 3.20355E-12 2.30338E-12-9.88036E-13
 -1      1943-1.99998E+02-3.96413E-08-6.34354E-09 5.64280E-08 1.11738E-08-2.48179E-08
 -1      1944-1.99998E+02-2.60517E-08 2.52437E-09 3.20071E-08 2.36856E-09-1.47316E-08
 -1      1945-1.99998E+02-3.31033E-08-2.17210E-08 9.25584E-08 7.25516E-09-4.60907E-08
 -1      1946-1.99998E+02 4.87207E-08-7.82535E-08 6.20902E-08-1.76509E-09-7.06767E-08
 -1      1947-1.99998E+02-3.70079E-08-2.50974E-08 1.04973E-07-9.12207E-10-4.72764E-08
 -1      1948-1.99998E+02 1.29282E-05 1.62898E-06-1.10245E-05-2.75473E-06 1.62505E-05
 -1      1949-1.99998E+02 1.84479E-05 4.80409E-06 3.87982E-06-1.96755E-07 1.23472E-05
 -1      1950-1.99998E+02-1.03068E-05 1.51805E-05-1.36158E-05 2.43008E-07 2.78391E-05
 -1      1951-1.99998E+02-1.00506E-04 4.14080E-05 6.76311E-05 2.76427E-06 1.65592E-05
 -1      1952-1.99998E+02-1.34977E-05 8.76525E-06-4.06206E-06 2.39299E-06 1.80533E-05
 -1      1953-2.00012E+02-4.84631E-03-3.08155E-03 4.56701E-04-2.29776E-04-6.82133E-03
 -1      1954-2.00001E+02-4.56345E-03 4.83824E-05 1.32259E-03 5.71792E-05-1.87751E-03
 -1      1955-2.00009E+02-6.93139E-03-1.02607E-03 1.22620E-03-4.30731E-04-4.14726E-03
 -1      1956-2.00137E+02 2.84592E-01-7.60609E-02-1.11804E-02 8.02925E-03 4.98919E-03
 -1      1957-1.99998E+02-8.23741E-13 2.13144E-12 1.46846E-11 1.86461E-12-2.59482E-12
 -1      1958-1.99998E+02-1.39027E-11 4.44489E-12 2.23013E-11-5.30159E-12-1.50621E-13
 -1      1959-1.99998E+02-1.25546E-12-1.09611E-14 1.71961E-11-1.55407E-12 1.97433E-12
 -1      1960-1.99998E+02-5.95853E-12-3.63138E-12 3.56255E-12 3.25830E-12-4.47919E-12
 -1      1961-1.99998E+02 1.02315E-10 9.12693E-11-3.13712E-10 5.17024E-12-2.39842E-11
 -1      1962-1.99998E+02-4.87314E-10 9.23314E-11-1.46960E-09 1.74415E-10 2.23350E-10
 -1      1963-1.99998E+02 8.35823E-14-5.32451E-13 1.94771E-11-1.59422E-12-6.08230E-15
 -1      1964-1.99998E+02-6.53344E-09 1.34460E-09-1.87160E-08 3.04437E-10 1.97219E-10
 -1      1965-2.00033E+02 2.88053E-03 4.48975E-04-2.28805E-02 2.80406E-03 1.00355E-02
 -1      1966-2.00002E+02-2.10185E-03 4.86801E-04-3.17344E-03-2.98804E-04 8.95539E-04
 -1      1967-1.99162E+02 5.05450E-01-9.19833E-02 7.96565E-01 4.48026E-02-4.63173E-02
 -1      1968-1.99998E+02 9.02624E-06 2.01545E-06-8.58222E-06-1.65169E-06-6.00125E-06
 -1      1969-1.99998E+02-1.00800E-08 7.32094E-09-2.89569E-07 2.80944E-08 6.35877E-08
 -1      1970-1.99998E+02-8.76787E-05 1.68139E-05 1.90924E-04-1.31202E-05-1.28165E-05
 -1      1971-1.90339E+02 1.80851E+00 1.95425E+00-7.10562E-01-1.09752E+00-3.43444E+00
 -1      1972-1.99998E+02 6.38507E-11-2.00845E-11-1.09173E-10-1.67089E-12-2.30485E-12
 -1      1973-1.99998E+02 5.97654E-12 2.94588E-12-1.95503E-11-7.20751E-12 1.84618E-12
 -1      1974-1.99998E+02 2.70541E-09 4.08808E-09-3.59414E-09-1.64785E-10-4.11987E-10
 -1      1975-1.99998E+02-1.12091E-08-2.21428E-09-1.26509E-08 5.07672E-09 2.43479E-09
 -1      1976-1.99998E+02 6.16829E-11-1.34808E-11 3.50007E-11-1.45847E-11-5.22363E-12
 -1      1977-1.99998E+02 5.94627E-10 2.46640E-10-4.29046E-09-3.12985E-11-7.42183E-10
 -1      1978-1.99998E+02 3.45475E-06 7.95912E-08 4.61000E-06 3.65340E-07-1.50193E-06
 -1      1979-1.99998E+02-3.80832E-08-1.79662E-08-9.40756E-08-3.53998E-10 3.01875E-08
 -1      1980-1.99998E+02 1.17866E-05-5.68392E-07-6.96665E-06 1.24038E-05-2.95514E-05
 -1      1981-1.92397E+02-1.38109E+01 1.77753E+01-5.28898E+00 3.84289E-01 1.51460E+00
 -1      1982-1.99998E+02-1.63573E-08 1.95262E-08-3.79636E-08-1.88941E-08 1.23708E-08
 -1      1983-1.99998E+02-5.11262E-13-2.81501E-12 1.34264E-11 3.71051E-13 4.26943E-12
 -1      1984-1.99998E+02 1.78264E-12 1.12278E-12 2.56724E-11-3.05628E-13-1.44138E-12
 -1      1985-2.00003E+02-2.47027E-03 2.89962E-04 3.59224E-03 3.32113E-04 1.36837E-03
 -1      1986-2.00016E+02 4.85164E-04-4.86259E-03 2.54192E-02-9.23165E-03 1.93678E-02
 -1      1987-1.99031E+02 4.91986E-01-1.55918E-01-7.99561E-01-3.39406E-02-4.92252E-02
 -1      1988-1.96281E+02 1.66174E+00-1.43971E-01-2.11815E+00-4.30754E-01-1.05640E+00
 -1      1989-1.96462E+02 4.22327E+00 2.15952E+00-6.03640E-02 7.70807E-02-3.11667E+00
 -1      1990-1.99998E+02 1.29078E-10-1.11933E-10 1.38054E-10 2.09786E-11-2.06628E-11
 -1      1991-1.99998E+02-3.12657E-11 1.49989E-11-5.44660E-11 2.89572E-12 2.01114E-12
 -1      1992-1.99998E+02-1.27854E-10 3.21343E-11-4.58485E-10-1.14409E-10-7.30929E-11
 -1      1993-1.99998E+02 8.71573E-11 1.09383E-11-1.20118E-09 1.34554E-10-1.26834E-10
 -1      1994-1.99998E+02 4.08325E-12-1.51073E-12 1.94513E-11-3.67218E-12 5.61671E-13
 -1      1995-1.99998E+02-1.77873E-08 2.12787E-09-5.26399E-08-2.08836E-10 6.11199E-09
 -1      1996-1.99998E+02 5.91639E-12-7.59407E-13 2.55936E-11 7.40358E-13 3.97026E-12
 -1      1997-1.99998E+02 1.76789E-11 9.68124E-12 1.35049E-11-2.59043E-12 1.98037E-12
 -1      1998-1.99998E+02-3.45546E-12 1.07512E-12 1.27715E-11-1.63442E-12-2.56580E-13
 -1      1999-1.99998E+02 1.04013E-05 5.62059E-07 1.36573E-05 1.53994E-06-4.51614E-06
 -1      2000-1.99998E+02 2.96130E-06-3.14537E-07-4.51804E-06 2.08914E-08-1.27980E-06
 -1      2001-1.99998E+02 5.12125E-07-6.91126E-09-1.12642E-06 7.86258E-08-8.38217E-08
 -1      2002-1.99998E+02 6.46941E-07-1.56944E-07-1.86532E-07 4.15890E-08 6.10230E-08
 -1      2003-1.99999E+02-5.93750E-04 1.28804E-05-8.44334E-04-4.48525E-05 1.34554E-04
 -1      2004-1.99998E+02-7.14073E-05 1.34197E-05-1.65747E-04 2.76405E-06-1.05344E-05
 -1      2005-1.99998E+02 4.61230E-11 3.84778E-11-9.19476E-11-7.28544E-12 2.53607E-11
 -1      2006-1.99998E+02-2.86527E-08-1.24859E-08-4.09420E-08 1.52222E-08 2.05086E-08
 -1      2007-1.99999E+02-5.96613E-04 3.46424E-04 1.15718E-03-5.69476E-06 3.05772E-05
 -1      2008-1.99998E+02-1.43859E-09-1.06202E-10-5.97605E-09 6.99895E-10-3.49331E-10
 -1      2009-2.00012E+02-4.20427E-03-1.56574E-03-4.43712E-03-1.51327E-03 2.92782E-03
 -1      2010-1.99917E+02 9.30071E-02-4.57931E-03-1.58802E-01 3.17261E-03-6.67588E-03
 -1      2011-1.99924E+02 1.17217E-01-2.99857E-03 1.67183E-01 1.53546E-03-1.51612E-02
 -1      2012-2.00012E+02-4.19394E-03-2.38342E-03 4.81530E-03 1.92238E-03 4.37577E-03
 -1      2013-1.99998E+02-8.77674E-12-3.74054E-12 1.75091E-11 3.40867E-12-3.47463E-12
 -1      2014-1.99998E+02 1.06449E-05 1.73492E-06 1.19140E-05-3.77900E-06-1.49860E-05
 -1      2015-1.99998E+02-5.61347E-12-3.70206E-13 2.91239E-11-2.56728E-12-6.01754E-13
 -1      2016-1.99998E+02-1.33972E-09 7.67270E-10-5.62543E-09 8.76543E-11-4.06572E-10
 -1      2017-1.99998E+02 1.17073E-12-4.68693E-13 1.16475E-12-2.68803E-12 6.68263E-14
 -1      2018-1.99998E+02 2.08297E-12 1.88980E-12 2.06462E-11-6.07077E-12 1.08275E-12
 -1      2019-1.99998E+02 2.65858E-11-2.98400E-12 4.86566E-12 2.26464E-12 5.00403E-13
 -1      2020-1.99608E+02 1.84601E+00 1.10636E-01 8.55156E-03-3.50237E-04-8.12580E-01
 -1      2021-1.96048E+02 1.62159E+00-2.01024E-01 2.19224E+00 2.32565E-01-8.30225E-01
 -1      2022-1.89737E+02-8.68448E+00 2.45332E+01 5.41834E+00 4.49906E-01-2.72735E+00
 -1      2023-1.99998E+02 4.49183E-10-1.86683E-10-1.51704E-09 7.99655E-11-2.33394E-10
 -1      2024-1.99998E+02 2.29373E-10-3.07931E-11-4.45900E-10-1.30805E-10 1.35271E-11
 -1      2025-1.99998E+02 3.77733E-09-3.63225E-08-1.22609E-07 8.79046E-09 7.06855E-08
 -1      2026-1.99998E+02 6.65256E-07-1.03146E-07 1.03043E-06 3.80995E-08-1.22819E-07
 -1      2027-1.99998E+02 1.10371E-09-1.48032E-10 8.37935E-10 2.32470E-10 2.36520E-10
 -1      2028-1.99998E+02 2.52675E-10-1.08070E-10-6.71740E-11 3.80066E-12 3.68926E-11
 -1      2029-1.99998E+02 1.84265E-11 8.34803E-12 2.30975E-11 2.97038E-12 3.75032E-12
 -1      2030-1.99998E+02-7.86161E-12-3.20348E-12 2.65361E-11-6.27331E-13 2.84732E-12
 -1      2031-1.99998E+02 5.23740E-12-3.55976E-12 3.45433E-11 1.06674E-12 2.11421E-12
 -1      2032-1.99998E+02 7.28253E-11-1.14692E-11-3.96382E-11-2.80214E-12 2.87455E-12
 -1      2033-1.99998E+02 4.63080E-13 3.52123E-12 9.76067E-12 1.85809E-12-3.23446E-12
 -1      2034-1.99998E+02-3.77611E-09 2.72993E-10-1.04195E-08 1.90116E-09 8.73532E-10
 -1      2035-1.99998E+02 2.51668E-11-4.44386E-12-4.00353E-11-3.59674E-11-9.81923E-12
 -1      2036-1.99998E+02-4.05229E-08-2.06790E-09-6.21891E-08 5.29190E-09 1.91734E-08
 -1      2037-2.00004E+02-9.27239E-03-1.91533E-03 2.67032E-04 1.37933E-04 5.12410E-03
 -1      2038-2.00026E+02 9.27517E-04-2.20686E-03-1.21159E-03-2.20402E-04 1.04178E-02
 -1      2039-2.00040E+02 1.05505E-01-2.95682E-02-2.15939E-03-1.95184E-03 1.13729E-02
 -1      2040-2.00007E+02 5.64558E-01-1.08258E-01 1.24657E-03-3.41140E-03-1.21661E-01
 -1      2041-1.99998E+02-8.86753E-13-5.50303E-12 2.11514E-11-2.96041E-12-4.32152E-12
 -1      2042-1.99998E+02-2.57522E-03-3.85435E-05 2.33183E-04-3.17926E-05 8.45912E-04
 -1      2043-1.99998E+02 6.81025E-12-8.19350E-13 2.86649E-11-1.74254E-12-3.60368E-12
 -1      2044-1.99998E+02 1.66308E-05 6.70046E-06 6.01912E-06-1.51281E-06-1.72327E-05
 -1      2045-1.99998E+02-7.27130E-05 3.30571E-05 2.25956E-05-1.55377E-06-4.13863E-05
 -1      2046-1.99998E+02-6.99280E-04 2.97819E-04 1.14734E-04 2.46348E-05 1.73917E-05
 -1      2047-1.99998E+02 3.90126E-12 3.21767E-13-8.98273E-12-7.41021E-14-1.07125E-12
 -1      2048-1.99998E+02 1.05275E-05 2.68019E-07 1.10443E-06-3.30424E-07-4.24121E-06
 -1      2049-1.99998E+02-1.73284E-08 1.16882E-09-2.87149E-08 2.85688E-09 6.22659E-09
 -1      2050-1.99998E+02-7.53571E-10 2.96542E-10-3.69862E-09 2.00179E-10-6.53898E-11
 -1      2051-1.99998E+02 8.12172E-11-1.39392E-12-2.61535E-10 7.24611E-11-4.60884E-11
 -1      2052-1.99998E+02 3.51755E-08 7.55343E-10 3.53722E-08-2.14044E-08 4.87835E-08
 -1      2053-1.99998E+02 3.92442E-06-7.47614E-07-2.78576E-07 5.19268E-10-4.20541E-07
 -1      2054-1.99998E+02 2.27490E-09 5.99818E-08-9.08201E-09 7.31581E-09 4.08240E-08
 -1      2055-1.91378E+02 1.92986E+00 1.66912E+00 9.07667E-01 1.01668E+00-3.07587E+00
 -1      2056-1.99998E+02 3.78548E-09 1.76243E-09-1.19037E-09-1.40361E-10-2.38047E-10
 -1      2057-1.88706E+02-3.44627E+00 2.23590E+00 1.26052E-01 1.79625E-01-3.52988E+00
 -1      2058-1.98626E+02-3.98369E+00 1.95926E+01 1.37808E+01-7.76454E-01 1.91440E+00
 -1      2059-1.93092E+02-3.46602E+00 1.87243E+01-1.23622E+01-3.57201E-01-6.42343E-01
 -1      2060-1.99998E+02-4.96154E-08 4.00507E-08 2.46518E-08 8.99117E-09 5.22460E-08
 -1      2061-1.99998E+02 2.28381E-08 1.88723E-09-2.75986E-08-6.76951E-09 4.58677E-09
 -1      2062-1.99998E+02 3.22855E-09-3.79840E-09 4.69764E-09 7.60354E-10-5.54466E-10
 -1      2063-2.41370E+02-3.96883E+01-2.51039E+01-3.20707E+01 5.51556E+00 2.76553E+01
 -1      2064-2.17685E+02-4.64828E+01-1.88396E+01-1.68258E+01 8.56073E-01 3.07357E+01
 -1      2065-1.68940E+02 8.55123E+00 1.07861E+01-3.01512E-01-3.85109E+00-5.66773E+00
 -1      2066-2.25694E+02-5.09898E+01-2.83987E+01 1.98199E+01-2.64422E+00 3.37443E+01
 -1      2067-2.44121E+02-4.02760E+01-2.58469E+01 3.10839E+01-4.78522E+00 2.83720E+01
 -1      2068-1.68206E+02 9.06072E+00 1.09279E+01 3.38779E-01 3.18511E+00-6.08918E+00
 -1      2069-1.99998E+02-3.42010E-08-5.06383E-08-1.09723E-07 2.47492E-08-4.37401E-08
 -1      2070-1.99998E+02-5.77824E-09 2.84690E-09 2.04139E-08-6.00738E-09 3.10226E-09
 -1      2071-1.99998E+02 5.36724E-09-1.19188E-09-8.36125E-09 7.55146E-10 7.27426E-09
 -1      2072-1.99998E+02-9.17772E-09 2.46493E-08-2.06487E-07 1.13169E-08 1.20454E-07
 -1      2073-1.99998E+02 1.17111E-08 3.11799E-08 3.03523E-07-6.58797E-08-3.96932E-08
 -1      2074-1.99998E+02-3.92243E-08-1.93524E-08-7.04685E-09 5.42010E-09 4.86378E-08
 -1      2075-2.19493E+02-5.35670E+01-2.85144E+01-1.17965E+01-1.05351E+00 3.34454E+01
 -1      2076-2.16120E+02-5.22300E+01-2.43245E+01-3.34689E+00-2.91893E-01 3.16982E+01
 -1      2077-1.94895E+02-1.05734E+01 1.87286E+01-9.10971E+00 1.03164E+00 4.76556E-01
 -1      2078-2.18019E+02-5.14162E+01-2.64542E+01 3.50995E+00-9.91585E-01 3.14637E+01
 -1      2079-2.16554E+02-4.97026E+01-1.88235E+01 1.22360E+01 6.22745E-01 2.68607E+01
 -1      2080-1.90275E+02-1.50633E+01 1.81482E+01-9.97932E-03 5.55913E-01-6.19865E-02
 -1      2081-1.91497E+02-8.47401E+00 2.23950E+01 9.75818E+00-4.07509E-01-1.18385E+00
 -1      2082-1.99998E+02-1.10565E-07-2.82737E-08-2.62301E-07 3.41408E-08-7.19161E-08
 -1      2083-1.99998E+02-4.89230E-09-2.12402E-08 2.67184E-07-1.22217E-08 1.81239E-07
 -1      2084-1.99998E+02 3.32107E-08 5.84608E-08 2.07857E-08 8.60330E-09 3.12273E-08
 -1      2085-1.99998E+02-2.24712E-08-5.04247E-08-1.57797E-07 1.95230E-08 4.87439E-08
 -1      2086-1.99998E+02-8.27477E-10 3.64378E-08 3.13221E-07-2.59611E-08 7.42079E-09
 -1      2087-1.99998E+02 2.82767E-08 3.53633E-08 9.14200E-09 3.12694E-09 2.04958E-08
 -1      2088-1.99998E+02 3.69648E-08 5.14082E-08 4.18695E-09-5.50178E-09 2.29240E-08
 -1      2089-1.89486E+02 1.23620E+00 9.39616E-02 7.83495E-01 2.42140E-01-1.24594E+00
 -1      2090-1.84546E+02-2.21605E+00-2.87362E+00 6.97586E-01 2.36293E+00-2.10467E+00
 -1      2091-1.83655E+02 7.36667E-01 4.79028E+00-5.03498E+00 5.57243E-01-2.87922E+00
 -1      2092-1.95920E+02 4.08118E-01-3.72092E-01 1.21135E+00-2.54776E-02-5.76132E-01
 -1      2093-1.91155E+02 7.30981E-01-1.51247E-01 1.39462E+00 2.60865E-01-6.37306E-01
 -1      2094-1.92680E+02 1.86208E+00 7.66358E-02 1.83533E+00 6.72469E-01-1.04744E+00
 -1      2095-1.99296E+02 1.21292E-01-8.36345E-02 4.07466E-01-5.02757E-02-2.98235E-02
 -1      2096-1.97572E+02 2.06267E-01-1.67463E-01 6.07341E-01 6.36193E-02-1.75067E-01
 -1      2097-1.98061E+02 1.01011E+00-3.70614E-01 1.43184E+00 1.50878E-01-4.52879E-01
 -1      2098-1.99970E+02 3.14296E-02-1.05220E-02 7.34337E-02-1.77235E-04 8.00920E-03
 -1      2099-1.99650E+02 4.25950E-02-3.59676E-02 1.18551E-01-7.12858E-03-2.13762E-02
 -1      2100-1.99801E+02 2.53367E-01-3.86955E-02 4.25609E-01 4.23191E-02-4.59855E-02
 -1      2101-2.00027E+02-7.51795E-03-6.94573E-03 9.39416E-03-5.55379E-03 9.13355E-03
 -1      2102-2.00002E+02 1.85149E-03 8.91522E-04 1.22059E-02-8.01095E-03 1.13350E-02
 -1      2103-1.99991E+02 4.33385E-02-2.77029E-03 9.30795E-02-7.18013E-03 3.05107E-03
 -1      2104-2.00014E+02-1.59131E-03-2.84589E-04-2.43670E-03-3.14150E-05 2.15193E-03
 -1      2105-2.00024E+02-1.21146E-03-9.90875E-04-3.23828E-03-1.26271E-03 2.79106E-03
 -1      2106-2.00032E+02-6.56770E-03-7.14785E-03 5.06138E-03-1.35839E-03 9.64050E-03
 -1      2107-2.00002E+02-4.23755E-04 7.45637E-04-1.77215E-03 1.25423E-04 5.15800E-04
 -1      2108-2.00009E+02-6.26698E-04 8.13932E-04-1.72242E-03-1.25211E-04 5.18664E-04
 -1      2109-2.00007E+02-2.50045E-03-7.19690E-04-3.49503E-03-1.24641E-03 1.89944E-03
 -1      2110-1.99999E+02-1.89048E-04-4.34648E-06-3.59672E-04 1.06471E-05 3.46908E-05
 -1      2111-2.00000E+02-1.54307E-04 3.54605E-04-6.60438E-04 5.86295E-06 2.04902E-04
 -1      2112-1.99999E+02-1.18630E-03 6.51115E-04-1.95308E-03-1.49770E-04 5.26235E-04
 -1      2113-1.99998E+02-6.91475E-06 7.93356E-06-6.72170E-05-8.54487E-06-3.09281E-05
 -1      2114-1.99998E+02-1.95937E-05 1.07995E-05-9.57475E-05 8.31582E-06-2.50537E-05
 -1      2115-1.99998E+02-2.42957E-04-4.65806E-05-4.39187E-04-8.33471E-06 1.05553E-04
 -1      2116-1.99998E+02 1.49018E-05 6.38565E-06 1.63898E-07 7.37243E-06-1.19667E-05
 -1      2117-1.99998E+02 2.99351E-06-9.64811E-06-5.67625E-07 9.81220E-06-1.88073E-05
 -1      2118-1.99998E+02-2.21124E-05 3.62895E-06-8.52531E-05 6.31181E-06-2.57493E-05
 -1      2119-1.99998E+02 2.94898E-06-7.00606E-07 6.46057E-06 2.98722E-07-2.63982E-06
 -1      2120-1.99998E+02 3.68551E-06 5.26169E-08 8.96578E-06 1.50761E-06-3.45560E-06
 -1      2121-1.99998E+02 1.62847E-05 6.06373E-06 9.94321E-06 3.23497E-06-1.35429E-05
 -1      2122-1.99998E+02 1.35559E-06-3.47261E-08 1.91602E-06 4.48214E-08-5.53001E-07
 -1      2123-1.99998E+02 1.56581E-06-7.99068E-07 3.21930E-06 2.91540E-07-1.29610E-06
 -1      2124-1.99998E+02 5.68292E-06-1.35684E-06 8.46729E-06 1.47863E-06-2.46728E-06
 -1      2125-1.99998E+02 1.62387E-07-1.01678E-07 4.84611E-07 1.15845E-08-2.87798E-08
 -1      2126-1.99998E+02 3.27600E-07-6.59805E-08 5.90835E-07 3.22240E-08 4.73988E-08
 -1      2127-1.99998E+02 1.75671E-06 2.89561E-07 2.41807E-06 9.28261E-08-8.65799E-07
 -1      2128-1.99998E+02-2.70338E-09-1.45316E-08-5.27270E-09-5.45059E-09 3.99624E-08
 -1      2129-1.99998E+02 2.22162E-08-5.71177E-10 4.31902E-08-2.42240E-08 3.71285E-09
 -1      2130-1.99998E+02 3.28064E-07 4.64881E-08 4.34963E-07 1.48854E-09-7.69051E-08
 -1      2131-1.99998E+02-1.75662E-08-6.18595E-10-4.56531E-08 1.52619E-09 1.61678E-08
 -1      2132-1.99998E+02-2.06218E-08-1.77648E-08-6.60726E-08-2.43823E-09 2.77725E-08
 -1      2133-1.99998E+02-1.89763E-08-3.08424E-08-5.50289E-08 4.28653E-09 4.40440E-08
 -1      2134-1.99998E+02-6.62622E-09 2.78203E-09-2.74435E-08-9.28846E-12 4.95718E-09
 -1      2135-1.99998E+02-1.01162E-08 3.58035E-10-3.17413E-08-2.26402E-09 4.38424E-09
 -1      2136-1.99998E+02-2.31651E-08-1.63360E-09-6.99333E-08-2.34523E-09 1.47454E-08
 -1      2137-1.99998E+02-2.43417E-09 1.44231E-09-8.92055E-09 1.58331E-10 4.41375E-10
 -1      2138-1.99998E+02-3.59942E-09 2.00620E-09-1.26433E-08-1.07273E-09 2.53236E-09
 -1      2139-1.99998E+02-1.07743E-08 5.37654E-09-3.36334E-08-8.87104E-10 3.29342E-09
 -1      2140-1.99998E+02-7.80452E-10 4.44420E-10-2.61005E-09 1.08711E-10-2.48284E-11
 -1      2141-1.99998E+02-1.00775E-09 8.71662E-10-3.67276E-09-6.36658E-10 3.55446E-10
 -1      2142-1.99998E+02-2.62282E-09 2.02109E-09-1.07711E-08-4.42496E-10-3.28509E-10
 -1      2143-1.99998E+02-2.19171E-10 1.01930E-10-5.91116E-10-1.77918E-11-1.84814E-11
 -1      2144-1.99998E+02-1.76421E-10 2.26521E-10-7.91717E-10-9.57158E-11 1.95708E-10
 -1      2145-1.99998E+02-7.00791E-10 3.13600E-10-2.90672E-09 1.29369E-10 1.57875E-10
 -1      2146-1.99998E+02-1.48107E-10 3.63897E-11-1.19723E-10-5.20152E-11 1.03765E-11
 -1      2147-1.99998E+02-2.58480E-10-2.76109E-11-2.52533E-10-6.48435E-11-7.41889E-12
 -1      2148-1.99998E+02-3.88307E-10 5.37890E-11-1.07826E-09-1.86075E-11 1.60563E-11
 -1      2149-1.99998E+02-3.03603E-11 7.03904E-12-2.04746E-11-7.26510E-12 3.46927E-12
 -1      2150-1.99998E+02-3.27909E-11 1.27346E-11-3.33486E-11-3.28059E-11 5.95189E-12
 -1      2151-1.99998E+02-5.09514E-11 5.66786E-11-1.05766E-10-3.76806E-11-1.74818E-11
 -1      2152-1.99998E+02-8.76633E-12 7.12737E-12 1.21510E-11-4.35741E-12 2.05987E-12
 -1      2153-1.99998E+02-1.18025E-11 2.76266E-12 8.88052E-12-1.05806E-11 1.86268E-12
 -1      2154-1.99998E+02-2.05147E-11 2.46766E-12 2.05603E-13 1.05501E-11 1.27369E-12
 -1      2155-1.99998E+02 2.06244E-12 9.11457E-13 1.13136E-11-8.42130E-13 5.03592E-13
 -1      2156-1.99998E+02-2.65124E-12 1.68630E-12 1.33199E-11-1.01099E-12-2.78507E-12
 -1      2157-1.99998E+02-1.38062E-11 3.34547E-12 3.02045E-11-2.39706E-12 3.46012E-13
 -1      2158-1.99998E+02 6.24865E-13-9.17023E-13 1.62585E-11 3.79791E-13-2.70678E-12
 -1      2159-1.99998E+02-3.79318E-12 3.33766E-12 1.22780E-11 8.95934E-13-3.43759E-13
 -1      2160-1.99998E+02 2.42060E-12 4.17645E-12 2.36319E-11 1.03955E-12-2.01690E-12
 -1      2161-1.99998E+02 3.67754E-13-3.98806E-12 8.72879E-12-2.06886E-13-1.51938E-12
 -1      2162-1.99998E+02 1.32415E-11-8.51881E-13 1.20901E-11 1.00890E-11-3.28180E-12
 -1      2163-1.99998E+02 2.65669E-12-1.45932E-12 2.53830E-11 3.57102E-12-1.40400E-12
 -1      2164-1.99998E+02 5.06198E-12-1.71057E-12 6.07486E-12-1.25077E-12-2.38057E-13
 -1      2165-1.99998E+02-7.04824E-14 5.65776E-12 1.42136E-11 7.46056E-13 1.00265E-12
 -1      2166-1.99998E+02-4.92598E-12 3.01343E-12 1.71662E-11-1.92469E-12 3.73868E-13
 -1      2167-1.99998E+02 5.35376E-13-1.83126E-12 8.24346E-12-3.30682E-13 1.11878E-12
 -1      2168-1.99998E+02 6.62395E-12-3.66892E-12 1.09537E-11 6.38056E-13 1.43161E-12
 -1      2169-1.99998E+02-1.22997E-13-4.30654E-12 1.59255E-11-9.98557E-13 1.99433E-12
 -1      2170-1.99998E+02 3.08751E-13 3.99650E-12-6.49867E-12-5.81323E-13-1.12894E-12
 -1      2171-1.99998E+02-6.14084E-12-4.39114E-12-8.67466E-13-1.05359E-12 2.03557E-12
 -1      2172-1.99998E+02-6.04818E-13 1.79781E-12 1.29264E-11-5.38083E-12 7.97707E-13
 -1      2173-1.99998E+02 9.99441E-12 2.35627E-14-1.86228E-11-5.79157E-12-1.64438E-12
 -1      2174-1.99998E+02-3.04168E-12 6.54602E-12-1.02208E-11-1.33607E-12 2.09210E-12
 -1      2175-1.99998E+02 5.42616E-12 7.88642E-13-1.15819E-11-4.10414E-12 7.21676E-13
 -1      2176-1.99998E+02 8.21565E-12 3.89885E-11-6.41746E-11 1.41407E-12 2.65341E-11
 -1      2177-1.99998E+02 2.31316E-11 2.48166E-11-4.04936E-11 5.30072E-12 2.53839E-12
 -1      2178-1.99998E+02 3.08502E-11 7.20041E-12-6.38521E-11-3.10488E-12 3.65484E-12
 -1      2179-1.99998E+02 1.94231E-11 2.23384E-11-2.25423E-10-2.80208E-12-8.24306E-11
 -1      2180-1.99998E+02 6.81270E-11 3.73579E-11-1.07455E-10 2.35116E-11-2.19023E-11
 -1      2181-1.99998E+02 1.69649E-10 1.24273E-10-1.67420E-10 8.19938E-12 1.31188E-12
 -1      2182-1.99998E+02 1.51866E-09 2.21653E-09-2.81114E-09-1.97357E-09-1.50805E-10
 -1      2183-1.99998E+02 7.01170E-10 4.35453E-10-5.19110E-10-4.50119E-10 1.38112E-10
 -1      2184-1.99998E+02 4.31002E-10 4.13418E-10-6.61814E-10-1.05723E-10 1.39511E-10
 -1      2185-1.99998E+02 3.13393E-08 2.01460E-08-2.21790E-10 7.03472E-09 5.72488E-09
 -1      2186-1.84364E+02-2.39260E+00-3.17254E+00-6.32019E-01-2.23321E+00-2.06619E+00
 -1      2187-1.88508E+02 1.40441E+00 4.94175E-01-9.87886E-01-4.25676E-02-1.58869E+00
 -1      2188-1.82092E+02 1.96882E+00 6.19528E+00 5.58303E+00-1.00606E+00-3.76723E+00
 -1      2189-1.91496E+02 5.08815E-01-5.79692E-01-1.27796E+00-3.36105E-01-5.97828E-01
 -1      2190-1.96356E+02 5.99052E-01-1.09010E-01-1.07656E+00-6.79161E-02-3.04257E-01
 -1      2191-1.92435E+02 1.83509E+00 8.88310E-01-1.45159E+00-9.14923E-01-1.78602E+00
 -1      2192-1.97494E+02 2.03621E-01-1.49314E-01-5.01899E-01 1.10162E-02-7.81267E-02
 -1      2193-1.99266E+02 1.06151E-01-7.13417E-02-4.20699E-01 3.74447E-02-4.59123E-02
 -1      2194-1.97899E+02 1.02754E+00-1.74545E-01-1.46361E+00-1.62090E-01-4.95665E-01
 -1      2195-1.99624E+02 4.28098E-02-2.32697E-02-1.27094E-01 5.70580E-03-2.56387E-02
 -1      2196-1.99947E+02 2.91985E-02-6.89758E-04-7.81475E-02 3.66778E-03-1.14959E-03
 -1      2197-1.99769E+02 2.67953E-01 2.90571E-03-4.26635E-01-3.78482E-02-5.84805E-02
 -1      2198-2.00027E+02 1.38439E-03 1.77515E-03-1.38491E-02 2.99472E-03 7.85578E-03
 -1      2199-2.00028E+02-9.18176E-04-1.96735E-03-9.17151E-03 1.38612E-03 8.29503E-03
 -1      2200-2.00004E+02 3.55376E-02 1.00699E-02-7.95157E-02 4.91178E-03-1.06762E-02
 -1      2201-2.00024E+02-2.88873E-03-2.32504E-03 4.01674E-03 1.81115E-03 3.51968E-03
 -1      2202-2.00016E+02-2.36918E-03 2.66100E-04 2.52491E-03 1.18475E-04 2.54157E-03
 -1      2203-2.00029E+02-3.20764E-03-5.21079E-03-4.75448E-03 1.30582E-03 6.89362E-03
 -1      2204-2.00010E+02-8.94670E-04 9.59652E-04 2.01024E-03 1.07195E-04 6.84393E-04
 -1      2205-2.00002E+02-7.48491E-04 1.88859E-04 1.82703E-03-8.16948E-06 2.85822E-04
 -1      2206-2.00009E+02-3.42210E-03-9.21087E-04 3.84513E-03 1.46926E-03 2.93478E-03
 -1      2207-2.00001E+02-2.80902E-04 1.57293E-04 6.33049E-04-4.97255E-05 1.32360E-05
 -1      2208-1.99999E+02-1.04256E-04 9.57374E-05 5.68733E-04-7.10608E-05 4.68236E-05
 -1      2209-2.00000E+02-1.15080E-03 5.96918E-04 2.32000E-03 1.59519E-04 4.71878E-04
 -1      2210-1.99998E+02-4.50449E-05 2.82065E-05 1.46412E-04 8.56712E-07 2.73572E-05
 -1      2211-1.99998E+02-2.00688E-05 2.29744E-05 9.56900E-05-1.83396E-05-8.58665E-06
 -1      2212-1.99998E+02-2.85990E-04-4.93988E-05 5.42689E-04 3.25795E-05 5.89748E-05
 -1      2213-1.99998E+02 4.16107E-06 3.86679E-06 8.80944E-06-4.55067E-06-7.15334E-06
 -1      2214-1.99998E+02 3.06935E-06 1.79275E-06 1.60275E-06 1.82343E-07-9.79945E-06
 -1      2215-1.99998E+02-2.71694E-05-2.57870E-06 8.87800E-05-1.30229E-05-3.64823E-06
 -1      2216-1.99998E+02 8.05547E-07-3.14467E-06-5.82720E-06-2.18909E-07-3.96363E-06
 -1      2217-1.99998E+02 2.67074E-06 1.16135E-06-3.82603E-06-4.89414E-07-1.58673E-06
 -1      2218-1.99998E+02 1.10249E-05 2.07675E-06-8.09183E-07-9.66179E-07-1.20742E-05
 -1      2219-1.99998E+02 1.15623E-06-3.13237E-07-3.13671E-06-8.41663E-08-7.77066E-07
 -1      2220-1.99998E+02 7.57258E-07 1.78726E-07-2.37524E-06 1.69689E-07-6.55700E-07
 -1      2221-1.99998E+02 5.91904E-06-1.99039E-07-6.71728E-06-1.03023E-06-3.14246E-06
 -1      2222-1.99998E+02 2.49277E-07-1.34759E-07-8.75109E-07 3.07726E-08-2.55129E-07
 -1      2223-1.99998E+02 1.72106E-07 1.61797E-08-5.82541E-07 5.21793E-08-4.52668E-08
 -1      2224-1.99998E+02 1.45393E-06 2.88239E-07-2.62560E-06-3.13229E-07-6.27716E-07
 -1      2225-1.99998E+02-5.48904E-09 1.68774E-08-1.73357E-07 1.91561E-08 4.20142E-08
 -1      2226-1.99998E+02-1.02417E-08-3.82434E-09-1.35410E-07 1.63386E-08 3.77190E-08
 -1      2227-1.99998E+02 1.71625E-07 6.90016E-08-6.49862E-07 4.03663E-08-7.46024E-08
 -1      2228-1.99998E+02-9.43127E-09-1.49603E-08-2.16577E-08 8.18971E-09 3.54901E-09
 -1      2229-1.99998E+02-5.73912E-09-1.36652E-09-1.96978E-08 5.80885E-09 8.05329E-09
 -1      2230-1.99998E+02-2.77317E-08-2.97454E-08-1.35446E-07 1.50292E-08 3.37459E-08
 -1      2231-1.99998E+02-6.79701E-09-2.11663E-09-5.03100E-09 1.53425E-10 2.04502E-10
 -1      2232-1.99998E+02-3.44049E-09-4.05475E-10-5.17866E-09 1.11798E-09 1.38282E-09
 -1      2233-1.99998E+02-2.10797E-08-4.98078E-09-2.02486E-08 7.60055E-09 1.00761E-08
 -1      2234-1.99998E+02 3.93539E-10 2.56924E-10-2.97161E-09-2.60371E-10-4.62451E-11
 -1      2235-1.99998E+02 7.13169E-10-3.13604E-10-2.65525E-09-1.90270E-10 1.12584E-10
 -1      2236-1.99998E+02-5.87025E-09-1.10874E-09-9.17964E-09 3.15430E-09 9.06959E-10
 -1      2237-1.99998E+02 9.36160E-10 1.28492E-10-1.96285E-09-4.09757E-10-2.43760E-10
 -1      2238-1.99998E+02 8.04909E-10-3.25515E-10-1.49136E-09 5.84214E-11-2.77014E-10
 -1      2239-1.99998E+02-9.36035E-10-1.49193E-10-4.92054E-09 4.37552E-11-3.43208E-10
 -1      2240-1.99998E+02 3.96257E-10-4.56130E-11-8.51668E-10-8.51711E-11-7.35507E-11
 -1      2241-1.99998E+02 2.87224E-10-1.23301E-10-7.15957E-10 4.86438E-12-1.29164E-10
 -1      2242-1.99998E+02 7.99098E-10-4.40750E-10-2.47092E-09 2.96056E-10-4.24111E-10
 -1      2243-1.99998E+02 2.90494E-10-3.92164E-12-3.15646E-10-5.92788E-11-3.28093E-11
 -1      2244-1.99998E+02 2.05536E-10-2.67595E-11-1.89281E-10-8.69983E-11-6.71153E-12
 -1      2245-1.99998E+02 9.92669E-11-1.93054E-10-8.74338E-10-8.60988E-11-9.10275E-11
 -1      2246-1.99998E+02 4.27271E-11-2.42380E-11-7.11382E-11-3.66469E-11-1.27538E-11
 -1      2247-1.99998E+02 3.96121E-11-1.30334E-11-3.21829E-11 1.47641E-12 3.00264E-12
 -1      2248-1.99998E+02 9.39797E-11-1.05211E-10-1.87296E-10-7.32984E-11 1.91858E-11
 -1      2249-1.99998E+02 3.34850E-11 9.77993E-12 4.66403E-12 4.24093E-12 4.12956E-12
 -1      2250-1.99998E+02 1.02792E-11-3.95575E-12 3.20660E-13-5.27568E-13-2.00417E-12
 -1      2251-1.99998E+02 5.36995E-11-1.78478E-11-4.53266E-11 1.70591E-11-2.58679E-12
 -1      2252-1.99998E+02 2.81052E-12-2.99711E-12 1.31155E-11-7.31068E-13 4.27115E-12
 -1      2253-1.99998E+02 5.21175E-12-3.13261E-12 1.63388E-11-1.17693E-12 3.91359E-12
 -1      2254-1.99998E+02 1.33796E-11 1.51181E-12 1.93811E-11 2.27723E-12-5.79833E-13
 -1      2255-1.99998E+02 9.22659E-12 1.11630E-12 1.46719E-11-1.90677E-13 3.62978E-12
 -1      2256-1.99998E+02 1.02438E-11-3.06632E-12 1.21155E-11 1.32620E-12 3.05129E-12
 -1      2257-1.99998E+02 1.84671E-12 1.92679E-13 2.48194E-11-1.51356E-12 1.36720E-12
 -1      2258-1.99998E+02 6.19064E-12 8.30070E-13 1.14902E-11-2.32365E-12 4.83579E-12
 -1      2259-1.99998E+02-9.89443E-13 3.76986E-12 1.62608E-11-6.63122E-13 7.61820E-13
 -1      2260-1.99998E+02 4.49803E-12 3.17281E-12 2.00875E-11-3.95103E-12 1.45704E-12
 -1      2261-1.99998E+02 2.36831E-12 2.96284E-12 1.24546E-11 6.11245E-13 8.27443E-13
 -1      2262-1.99998E+02-2.89321E-13-7.13693E-12 9.50161E-12 7.62313E-12 3.32343E-12
 -1      2263-1.99998E+02-3.30084E-12 3.99247E-12 1.51646E-11-4.94604E-12 1.63553E-12
 -1      2264-1.99998E+02-4.55363E-12-7.19138E-13 5.77149E-12 2.43502E-12-1.22374E-13
 -1      2265-1.99998E+02 4.36398E-14-9.06243E-13 7.72991E-12 7.05983E-13-2.08123E-12
 -1      2266-1.99998E+02 2.75486E-12 1.96009E-12 1.29301E-11 2.24175E-13 2.25179E-12
 -1      2267-1.99998E+02-1.59379E-13 3.04176E-13 1.74620E-12 4.33038E-12-3.85571E-12
 -1      2268-1.99998E+02-3.10348E-13-3.09574E-12 1.28014E-12 1.07143E-12-5.88442E-12
 -1      2269-1.99998E+02-9.54791E-12-5.85306E-12 1.08955E-11 2.80498E-12-1.87975E-12
 -1      2270-1.99998E+02 7.57378E-12 1.79140E-12 5.66242E-12-2.51041E-12-2.60222E-12
 -1      2271-1.99998E+02 5.05794E-12-8.22354E-13 5.47951E-12 6.35820E-13-6.45738E-12
 -1      2272-1.99998E+02 9.81387E-12 5.40037E-12 6.06529E-12 3.67781E-14-1.90989E-12
 -1      2273-1.99998E+02 2.02737E-11-9.29445E-12 2.04708E-11-5.01491E-12-1.02007E-11
 -1      2274-1.99998E+02 3.53970E-11-3.55029E-11 2.66306E-11 5.15900E-12-4.14246E-11
 -1      2275-1.99998E+02 3.11365E-11 1.20387E-12 2.40508E-11-4.37120E-12 3.20897E-12
 -1      2276-1.99998E+02 8.86493E-11-6.55757E-11 9.33523E-11 1.24391E-12-5.34241E-12
 -1      2277-1.99998E+02 9.34059E-11-1.72332E-10 1.01349E-10 7.98750E-11-3.45178E-11
 -1      2278-1.99998E+02 5.89110E-11-3.94487E-11 7.39600E-11-6.93770E-12 8.86279E-12
 -1      2279-1.99998E+02 7.24354E-10-6.18598E-10-6.91739E-10-6.82488E-10-4.40753E-11
 -1      2280-1.99998E+02 5.22565E-09 3.60159E-09-1.52072E-09 9.53194E-09 2.35946E-09
 -1      2281-1.99998E+02 5.51001E-10 1.85272E-10-4.10898E-11 9.54307E-11 1.37013E-09
 -1      2282-1.99998E+02-1.20956E-09-7.51835E-09 2.82180E-09-1.85364E-09 8.63565E-09
 -1      2283-1.99998E+02-2.44818E-11 2.23783E-12 1.72846E-11-7.84361E-12-9.60278E-12
 -1      2284-1.99998E+02-4.05883E-11-4.58350E-11-4.29030E-11-8.24657E-12-1.33654E-11
 -1      2285-1.99998E+02-6.74717E-13-3.05375E-12 3.59779E-11-1.71555E-12 2.90834E-14
 -1      2286-1.99998E+02-5.38083E-12-1.05090E-11 2.63005E-11-2.34059E-12-5.71095E-13
 -1      2287-1.99998E+02-1.54055E-12-6.46498E-12 1.80575E-11 2.14092E-12-2.51761E-12
 -1      2288-1.99998E+02-1.02926E-12-2.54700E-12 1.98671E-11-4.84001E-12-3.84711E-12
 -1      2289-1.99998E+02-4.49968E-12-4.47892E-12 1.28379E-11-3.56707E-12-3.32772E-12
 -1      2290-1.99998E+02 1.17128E-11 4.67236E-12 2.13772E-11-1.26411E-12 1.33037E-13
 -1      2291-1.99998E+02 3.23670E-12 6.33745E-12 2.19530E-11 1.19475E-12-1.09205E-12
 -1      2292-1.99998E+02 4.72365E-12-2.01903E-12 2.01512E-11-4.77650E-14 5.64570E-13
 -1      2293-1.99998E+02-4.52037E-12-3.86044E-12 3.17503E-12 2.65208E-12-2.82399E-12
 -1      2294-1.99998E+02 1.14868E-11 5.11735E-13 6.01181E-12 3.52849E-13-5.36152E-13
 -1      2295-1.99998E+02-3.94796E-12-2.20145E-12 1.54812E-11 1.06474E-12-2.18353E-12
 -1      2296-1.99998E+02-4.94360E-12-2.01313E-12 1.15303E-11 2.50658E-12-1.37886E-12
 -1      2297-1.99998E+02 1.60246E-12 4.89922E-12 3.62309E-12-1.93950E-12 2.60880E-13
 -1      2298-1.99998E+02 1.72278E-10 2.85531E-11-2.73427E-10-5.49233E-11-1.02778E-10
 -1      2299-1.99998E+02 1.47977E-10-2.75227E-11-1.01718E-10-2.93759E-11 1.91199E-11
 -1      2300-1.99998E+02 6.48894E-10-4.83736E-11 2.00090E-10 7.67493E-11 1.51051E-10
 -1      2301-1.99998E+02 6.58040E-10 5.40121E-11-4.47635E-11 2.04021E-10 7.38679E-11
 -1      2302-1.99998E+02 2.03672E-09 9.18075E-11-4.57291E-10 1.17661E-11 1.32643E-11
 -1      2303-1.99998E+02 5.43179E-11 7.07569E-11-7.67492E-10 3.66187E-12-4.07463E-11
 -1      2304-1.99998E+02-3.67432E-10-2.58851E-10-1.29904E-09 2.04585E-10 6.93001E-11
 -1      2305-1.99998E+02-3.60142E-10 1.18630E-10-2.06892E-09 5.86244E-11-2.15948E-10
 -1      2306-1.99998E+02-6.62927E-10 4.88913E-11-2.19282E-09 9.66944E-11-1.74127E-10
 -1      2307-1.99998E+02-1.29920E-09-1.12633E-10-4.39949E-09 1.71650E-10-1.37163E-10
 -1      2308-1.99998E+02-2.83752E-12 8.51614E-13 3.11547E-11 1.64371E-12 1.19016E-12
 -1      2309-1.99998E+02-9.22514E-12-2.78830E-12 2.59431E-11-6.01615E-13-1.60348E-12
 -1      2310-1.99998E+02-9.75797E-12-3.50372E-12 1.76965E-11-2.79616E-12-7.56273E-13
 -1      2311-1.99998E+02-1.24846E-11-1.71384E-12 2.06925E-11-4.56227E-12 2.79056E-13
 -1      2312-1.99998E+02 2.16594E-12-3.18606E-12 2.88726E-11 2.75854E-13 1.52551E-12
 -1      2313-1.99998E+02-1.26344E-08 1.08102E-09-2.23982E-08 1.52019E-09 1.40161E-09
 -1      2314-1.99998E+02-1.98095E-08 4.03747E-09-3.70993E-08 1.89961E-09 4.72414E-09
 -1      2315-1.99998E+02-1.72622E-09 8.53736E-10-7.90411E-09 6.68102E-10-2.16447E-10
 -1      2316-1.99998E+02-4.09241E-09 1.63709E-09-1.29235E-08 5.31767E-10 9.41759E-11
 -1      2317-1.99998E+02-9.13020E-09 2.44835E-10-1.70558E-08 2.26110E-09 2.42973E-09
 -1      2318-1.99999E+02 1.35666E-01-1.13884E-02-8.25622E-02 1.15536E-04 1.45432E-03
 -1      2319-2.00081E+02 4.14119E-02-4.84789E-03-1.66744E-02-8.79823E-04 4.96611E-03
 -1      2320-2.00041E+02-8.31136E-04-5.65255E-03-1.06483E-02 2.45293E-03 8.89448E-03
 -1      2321-2.00021E+02-6.88175E-03-4.15464E-03 2.78824E-03 4.00808E-04 8.03421E-03
 -1      2322-2.00065E+02 3.22051E-02-2.55620E-03 9.14459E-04-1.82974E-03 8.55364E-03
 -1      2323-1.99997E+02-1.14483E-03 5.85276E-04-4.63365E-04-5.75381E-05 2.90743E-04
 -1      2324-1.99999E+02-2.61140E-03 5.27679E-04-1.28183E-03-8.67321E-05 8.76813E-04
 -1      2325-2.00002E+02-4.92235E-03-1.62225E-04-1.62077E-03 2.66793E-04 2.35268E-03
 -1      2326-2.00007E+02-5.58136E-03-3.14979E-04-1.11286E-03-1.36663E-03 3.23322E-03
 -1      2327-2.00001E+02-5.09629E-03-4.75263E-04 3.42578E-05-5.04093E-05 2.01654E-03
 -1      2328-2.00173E+02 2.34782E-01-1.06963E-01 1.06041E-01-9.52650E-03-4.71253E-02
 -1      2329-1.99851E+02 5.82623E-01-5.10311E-02 3.26649E-01 3.26514E-02-1.17041E-01
 -1      2330-1.98260E+02 1.93057E+00-2.65503E-01 9.13409E-01 1.11221E-01-7.64752E-01
 -1      2331-1.99683E+02 1.12218E+00-1.61721E-01 4.31887E-01 2.96966E-02-3.91761E-01
 -1      2332-1.99815E+02 1.18184E+00 9.17616E-02-1.30996E-03-5.87135E-03-4.25689E-01
 -1      2333-1.99998E+02 1.12402E-05 2.96223E-07-3.57484E-06-1.15207E-06-4.35180E-06
 -1      2334-1.99998E+02 6.47863E-06-7.66219E-07-2.01510E-06-4.08587E-08-3.03452E-06
 -1      2335-1.99998E+02 1.26977E-05 1.47014E-06 1.18758E-05-2.76781E-06-1.59412E-05
 -1      2336-1.99998E+02 1.83269E-05 4.98351E-06-3.22661E-06-2.36857E-07-1.20733E-05
 -1      2337-1.99998E+02 1.44992E-05 3.11779E-06 3.73047E-06-8.67808E-07-9.09797E-06
 -1      2338-1.99998E+02 7.09773E-07-9.58992E-08-6.95779E-07 3.47759E-08-2.79813E-08
 -1      2339-1.99998E+02 1.95838E-07-3.86552E-08-2.93345E-07-1.56870E-09 9.36739E-09
 -1      2340-1.99998E+02 2.38401E-07-4.23088E-08-1.63577E-07 5.15000E-09 6.52590E-08
 -1      2341-1.99998E+02-1.46985E-08-4.78360E-08-1.98869E-07 2.69902E-08 6.53911E-08
 -1      2342-1.99998E+02-3.69495E-08-2.64632E-08-8.52997E-08 1.14603E-08 4.37595E-08
 -1      2343-1.99998E+02-7.82400E-04-6.25814E-05 5.49517E-04 2.02038E-05 1.45289E-04
 -1      2344-1.99998E+02-2.67373E-04 1.19486E-04 1.81504E-04-4.08712E-05-2.60049E-07
 -1      2345-1.99998E+02-1.01583E-04 1.48431E-05 1.06227E-04-8.67107E-06-2.54510E-05
 -1      2346-1.99998E+02-3.68022E-06 1.96475E-05 2.49015E-05-6.39573E-07-2.64908E-05
 -1      2347-1.99998E+02-2.56879E-04 1.23314E-04 3.95193E-05 9.55757E-07-6.51654E-05
 -1      2348-1.94577E+02 2.05975E+00 1.12780E+00-4.37298E-01-6.71923E-01-2.60957E+00
 -1      2349-1.95799E+02 3.26370E+00 3.35536E-01-1.01865E+00-1.03013E-01-1.86121E+00
 -1      2350-1.87114E+02 7.75159E-01 2.96332E+00-2.34078E-01-2.61155E-01-3.59848E+00
 -1      2351-1.92401E+02 7.65856E-01 2.92971E+00 1.10498E-01 1.54638E-01-3.55064E+00
 -1      2352-1.79508E+02-4.22074E+00 4.39088E+00 2.23493E+00 3.94147E-02-3.89263E+00
 -1      2353-1.80615E+02-1.66066E+00 5.45272E+00 2.28436E+00 4.78728E-01-4.34918E+00
 -1      2354-1.99998E+02 8.71376E-11 3.56541E-11-6.22684E-11-1.04893E-11-2.28850E-12
 -1      2355-1.99998E+02 4.46580E-11-6.33996E-12 1.59269E-11-8.13101E-13 5.32397E-12
 -1      2356-1.99998E+02 2.62923E-11-7.42541E-11-2.24866E-10-2.80373E-11-1.48923E-11
 -1      2357-1.99998E+02 2.58198E-11-2.21611E-11-1.47554E-10-1.78526E-12 1.61883E-11
 -1      2358-1.99998E+02 6.57737E-11 9.63086E-14-1.67069E-10-2.27628E-12-2.74011E-11
 -1      2359-1.99998E+02 6.80808E-11 2.57819E-12-9.71613E-11-8.52139E-12-6.51776E-13
 -1      2360-1.99998E+02 3.77539E-11-1.00747E-14-3.33064E-11-5.28210E-12 5.59357E-12
 -1      2361-1.99998E+02 2.22539E-11 4.66889E-12-1.74535E-11-2.67231E-12-1.39044E-12
 -1      2362-1.99998E+02 1.28830E-11 5.98566E-12-5.89612E-12-3.62373E-12 2.21218E-12
 -1      2363-1.99998E+02 3.38097E-11-6.42032E-12-2.01817E-11-1.67882E-13-1.61143E-12
 -1      2364-1.99998E+02 3.03529E-10-2.54350E-10 3.96041E-10-1.70245E-10-2.01085E-10
 -1      2365-1.99998E+02 6.21677E-10 3.39021E-10 6.05838E-10 4.68125E-10 6.73734E-10
 -1      2366-1.99998E+02 1.12277E-09-1.07233E-09 2.23470E-09 1.36386E-11 1.87829E-10
 -1      2367-1.99998E+02-3.33548E-09-5.30899E-09 3.20483E-09 9.03204E-10-3.32980E-10
 -1      2368-1.99998E+02 5.46230E-09 1.71650E-08-6.59545E-09-1.08292E-09 1.64233E-09
 -1      2369-1.99998E+02-5.07683E-09 1.12081E-08 1.52655E-08 1.36471E-10 6.94729E-09
 -1      2370-1.99998E+02-4.13871E-08-6.29434E-09-5.38637E-08 9.53771E-09 2.23031E-08
 -1      2371-1.99998E+02-2.72560E-08 2.11159E-09-3.19012E-08 2.40812E-09 1.27166E-08
 -1      2372-1.99998E+02-1.55327E-08 5.74614E-10-2.24591E-08 4.54280E-09 5.17562E-09
 -1      2373-1.99998E+02-7.08282E-09 9.30777E-10-1.43998E-08 1.51336E-09 3.03233E-09
 -1      2374-1.99998E+02-2.49679E-08 4.07058E-09-4.37683E-08 2.98986E-09 1.22341E-08
 -1      2375-1.99998E+02 1.31858E-10-5.85713E-11 9.28227E-12-1.20639E-11-4.96892E-12
 -1      2376-1.99998E+02 2.82246E-10-8.78146E-11-3.27933E-11 2.80242E-12 4.02149E-11
 -1      2377-1.99998E+02 4.18232E-11-5.81425E-12-2.71652E-12-3.69187E-12 2.21594E-12
 -1      2378-1.99998E+02 9.10079E-11-3.42775E-12-7.36719E-12-7.41076E-12 1.58995E-12
 -1      2379-1.99998E+02 1.50729E-10-3.07629E-11-3.87419E-11 6.47341E-12 1.70762E-11
 -1      2380-1.99998E+02-3.45385E-09 5.17769E-10-7.68435E-09 6.39857E-10 2.26674E-10
 -1      2381-1.99998E+02-1.34518E-09 9.91402E-10-6.95095E-09 6.90233E-10 1.67452E-10
 -1      2382-1.99998E+02 2.76883E-10 3.31758E-10-3.63173E-09 4.42230E-10-3.38501E-10
 -1      2383-1.99998E+02 6.23457E-10 4.22809E-10-2.10878E-09 1.26058E-10 3.32542E-11
 -1      2384-1.99998E+02-1.73591E-09 3.18274E-10-6.61838E-09 1.31136E-09 3.75648E-10
 -1      2385-1.99998E+02 5.75659E-06-1.71449E-06 3.48809E-06 5.09851E-08-2.01727E-06
 -1      2386-1.99998E+02 1.10726E-05-3.26913E-07 5.72109E-06 1.14371E-06-4.07580E-06
 -1      2387-1.99998E+02 1.67285E-06-2.69143E-07 7.29597E-07-1.59614E-07-2.94850E-07
 -1      2388-1.99998E+02 4.38890E-06-6.10192E-08 1.86772E-06 2.71479E-07-1.19631E-06
 -1      2389-1.99998E+02 7.24727E-06-2.60029E-07 4.44531E-07-4.98337E-07-2.11602E-06
 -1      2390-1.99998E+02-3.12077E-08 4.50741E-10-5.49292E-08 3.55327E-09 9.81841E-09
 -1      2391-1.99998E+02-3.85935E-08-6.52005E-09-7.40295E-08-2.48198E-09 2.21720E-08
 -1      2392-1.99998E+02-2.77247E-08-2.03122E-08-8.91989E-08 5.77530E-09 3.69220E-08
 -1      2393-1.99998E+02-4.53514E-08-4.12104E-08-1.06440E-07 4.54479E-09 4.37759E-08
 -1      2394-1.99998E+02 1.72153E-08-3.09420E-08-4.09264E-08-6.26339E-09 5.96036E-08
 -1      2395-1.99998E+02 1.77146E-05 3.53128E-06 9.63431E-06-2.20327E-07-9.10772E-06
 -1      2396-1.99998E+02 1.80814E-05 1.04780E-05 1.80122E-06 1.95440E-06-1.76995E-05
 -1      2397-1.99998E+02-9.39258E-06 8.37052E-06 5.56875E-06 1.48637E-07-1.72941E-05
 -1      2398-1.99998E+02-8.78880E-05 3.06855E-05-6.53236E-05 4.87294E-06-5.86100E-06
 -1      2399-1.99998E+02-9.17645E-06 1.41766E-05 1.47907E-05-1.15404E-06-2.67844E-05
 -1      2400-1.83032E+02-8.53044E+00 3.42311E+00-2.43280E+00 7.65889E-01-1.86571E+00
 -1      2401-1.88006E+02 3.49559E-01 3.27410E+00 1.05465E-01 2.91787E-01-3.94339E+00
 -1      2402-1.83284E+02-2.11418E+00 3.61406E+00-2.52793E+00 4.68028E-02-1.97585E+00
 -1      2403-1.99998E+02 2.22892E-08 7.06813E-09-6.53225E-09 3.54805E-10-3.75343E-09
 -1      2404-1.99998E+02-2.91711E-08-1.58824E-08-2.56622E-09-5.15895E-09-8.96960E-10
 -1      2405-1.99998E+02-1.86569E-09-2.98416E-09 2.01351E-09-1.92001E-11-1.62723E-09
 -1      2406-1.99998E+02-7.46670E-12-1.18317E-11 1.65612E-11 2.23184E-12 2.57026E-12
 -1      2407-1.99998E+02 5.87653E-13 3.26579E-13 1.79739E-11-1.08078E-12 3.86070E-13
 -1      2408-1.99998E+02-2.45150E-12 2.94021E-12 2.14803E-11-1.91822E-12 4.01120E-13
 -1      2409-1.99998E+02-5.02906E-12-1.18787E-12 1.29529E-11 2.08865E-12 3.57573E-12
 -1      2410-1.99998E+02-1.41506E-11-7.65369E-12 2.45597E-11 5.41450E-12-1.16790E-12
 -1      2411-1.99998E+02 5.21884E-12 2.31307E-12 3.10896E-11 7.16233E-13 6.86284E-13
 -1      2412-1.99998E+02 1.37136E-11-3.98665E-12 2.98050E-11 9.56672E-14 6.21892E-13
 -1      2413-1.99998E+02 2.73093E-12-4.33867E-12 3.50494E-11-1.54784E-12 2.93131E-12
 -1      2414-2.00000E+02-2.80631E-03 3.40826E-04 1.61127E-03 1.05931E-04 1.07974E-03
 -1      2415-1.99998E+02-1.53943E-03 2.39553E-04 7.23981E-04-2.06094E-05 5.14098E-04
 -1      2416-2.00008E+02-6.13966E-03-2.04745E-03 2.34028E-03 1.53074E-03 5.11389E-03
 -1      2417-2.00003E+02-6.04303E-03-2.74775E-04 2.05006E-03-1.52362E-05 2.79960E-03
 -1      2418-2.00021E+02-7.52079E-03-2.91187E-03-2.78535E-03-7.98995E-04 5.50013E-03
 -1      2419-2.00039E+02 1.42992E-03-5.43431E-03 1.03586E-02-1.09114E-03 1.10557E-02
 -1      2420-2.00074E+02 3.01096E-02-7.02753E-03 2.02028E-02 2.40125E-04 2.95474E-03
 -1      2421-1.99958E+02 1.40052E-01 3.06895E-03 7.41130E-02-1.60607E-03-1.52501E-02
 -1      2422-1.98265E+02 1.94532E+00-1.77056E-01-9.01717E-01-1.15282E-01-8.74568E-01
 -1      2423-1.99608E+02 1.18621E+00-1.50741E-01-4.33335E-01-1.35761E-02-3.85019E-01
 -1      2424-1.99824E+02 6.09054E-01-1.49768E-02-3.26501E-01-4.18444E-02-1.52377E-01
 -1      2425-2.00134E+02 2.53940E-01-7.43307E-02-1.02131E-01 8.85738E-03-5.20153E-02
 -1      2426-1.96842E+02 3.10941E+00 5.72577E-01 6.26717E-02 7.90871E-05-1.59639E+00
 -1      2427-1.95875E+02 3.17969E+00 2.15392E-01 9.26287E-01 1.52470E-01-1.53358E+00
 -1      2428-1.94511E+02 2.19409E+00 1.19920E+00 3.37772E-01 6.35227E-01-2.53645E+00
 -1      2429-1.99998E+02 5.61718E-11-1.30029E-11-1.19569E-10 6.92193E-12-5.03257E-11
 -1      2430-1.99998E+02 1.10599E-10 5.52816E-11-2.02740E-10 1.11320E-11-3.90713E-11
 -1      2431-1.99998E+02 1.01075E-10-3.05574E-11-6.28764E-10 1.79790E-10-3.07407E-11
 -1      2432-1.99998E+02 1.81935E-10 8.02153E-11-7.62983E-10-4.18383E-11 4.22714E-11
 -1      2433-1.99998E+02 4.65816E-10 1.61145E-10-1.11829E-09-2.82034E-11-1.76116E-10
 -1      2434-1.99998E+02 6.81526E-12 1.22578E-11 9.39886E-12-1.59030E-12-4.46499E-13
 -1      2435-1.99998E+02 4.82575E-12 7.24004E-12 1.22977E-11-3.84575E-12 1.59001E-12
 -1      2436-1.99998E+02 1.73500E-12-3.61820E-13 1.74096E-11 9.16363E-13-5.39346E-12
 -1      2437-1.99998E+02 2.19248E-11 8.62984E-12 2.15400E-11-1.29217E-12-5.38831E-12
 -1      2438-1.99998E+02 2.92758E-12-4.43603E-13 3.23062E-11 2.80527E-12 6.11423E-13
 -1      2439-1.99998E+02 5.43564E-12-4.96740E-13 3.75716E-11 6.51573E-13-1.17840E-12
 -1      2440-1.99998E+02 3.96456E-06 3.75598E-07-2.32203E-06-3.29304E-07-1.06735E-06
 -1      2441-1.99998E+02 1.64659E-06-5.42314E-07-9.87277E-07 1.41987E-07-3.13162E-07
 -1      2442-1.99998E+02 1.64663E-06-4.61862E-07-1.43510E-07 1.88869E-08-7.76365E-08
 -1      2443-1.99998E+02 2.55253E-07-4.63165E-08-4.08595E-08 1.65316E-10 3.14810E-08
 -1      2444-1.99998E+02 8.15471E-07-1.22494E-07 3.95122E-07 1.51213E-08-1.12680E-07
 -1      2445-1.99998E+02-2.26851E-04 9.59107E-05-1.17729E-04 4.94853E-05-4.01541E-06
 -1      2446-1.99998E+02-7.71167E-04 1.37579E-04-3.28174E-04-3.87404E-05 1.50623E-04
 -1      2447-1.99998E+02-1.55806E-03 1.79479E-04 1.55517E-04 9.08849E-05 3.70091E-04
 -1      2448-2.00013E+02-5.74046E-03-2.86210E-03-2.21619E-04 1.27530E-04 7.57036E-03
 -1      2449-2.00089E+02 2.99815E-01-8.44853E-02 5.19677E-03-2.64341E-03-2.37842E-02
 -1      2450-1.99998E+02 5.70109E-12 3.48373E-12 2.51059E-11 1.49749E-12 3.31646E-12
 -1      2451-2.14886E+02-2.92213E+00-2.80506E+00-8.00467E-02-8.60092E-02-4.79263E-02
 -1      2452-1.99998E+02-1.34415E-09 7.47313E-10 3.81857E-09-2.06706E-09-6.46450E-10
 -1      2453-1.99998E+02 3.86126E-11 3.41130E-11 2.20805E-11-2.57751E-11-1.76644E-11
 -1      2454-2.01941E+02 9.36581E-01 9.42640E-01 7.48001E-02 2.20924E-02 3.44615E-02
 -1      2455-1.99996E+02-1.34877E-03-1.35218E-03 1.65303E-05-1.64370E-04-2.47832E-05
 -1      2456-1.99998E+02-5.38590E-12 2.52940E-12 1.11175E-11-2.30188E-12-5.19377E-12
 -1      2457-1.99998E+02-2.24164E-12-2.44059E-13 1.24519E-11-3.54145E-12-4.16249E-12
 -1      2458-1.99998E+02 4.14040E-12-4.01461E-13 1.63479E-11 9.29514E-12-2.01046E-12
 -1      2459-1.99998E+02 2.43129E-11 1.87621E-11 2.42949E-11 3.49895E-10 1.31059E-11
 -1      2460-1.99998E+02-2.16619E-09-2.25885E-09-2.85480E-11 8.24443E-09 7.27710E-11
 -1      2461-1.99998E+02 5.43248E-06 5.48209E-06-6.16493E-08-1.65932E-06-5.40866E-08
 -1      2462-1.99970E+02 1.53732E-03 1.69194E-03 5.68857E-04-4.02982E-04-5.73228E-04
 -1      2463-1.99998E+02-1.89086E-08-1.85173E-08-4.91549E-10 3.41166E-08 6.72974E-10
 -1      2464-1.99998E+02-7.11506E-06-7.83195E-06 9.64163E-07-2.09910E-05-2.16739E-06
 -1      2465-1.99998E+02 3.04917E-07 3.10656E-07-2.22749E-08 5.30849E-09 1.88202E-08
 -1      2466-1.99998E+02 3.74152E-11-8.83893E-12-3.47224E-10 1.69623E-09 3.68722E-10
 -1      2467-1.99998E+02-4.29498E-12 1.70427E-12 9.58707E-12-1.02187E-11 7.00838E-12
 -1      2468-2.00001E+02 1.31913E-01 1.36151E-01 3.20160E-02-3.09193E-04-2.63238E-02
 -1      2469-1.99998E+02 6.95084E-09-2.40728E-09-5.36244E-09-7.46885E-09 2.23042E-09
 -1      2470-2.12197E+02-1.14528E+01-1.15239E+01-3.76758E+00-7.81143E-01-3.90247E+00
 -1      2471-1.99998E+02 9.51846E-11 5.16227E-09-1.98991E-10 7.01478E-09 1.80475E-09
 -1      2472-2.12626E+02-1.23902E+01-1.21320E+01 4.11723E+00 1.06173E+00-4.31706E+00
 -1      2473-1.99998E+02-2.95802E-04-2.94626E-04 7.30963E-05-5.79506E-05-7.87765E-05
 -1      2474-1.99993E+02-3.24125E-03-2.90036E-03-2.92326E-03-1.58655E-04-2.86256E-03
 -1      2475-1.99998E+02-3.21207E-12 1.63586E-13 1.03997E-11 6.14214E-13-5.67237E-12
 -1      2476-1.99998E+02-5.58826E-13-7.80638E-13 1.87579E-11-3.64712E-12-3.16318E-12
 -1      2477-1.99998E+02-5.05456E-12 2.77395E-12-1.93404E-11 7.23290E-11-3.37168E-11
 -1      2478-1.99998E+02 8.87083E-12 3.33560E-12 1.41896E-11 1.63712E-12-2.69322E-12
 -1      2479-1.99998E+02-5.32741E-12-4.13999E-12 1.10410E-11-8.03251E-13-7.31987E-12
 -1      2480-1.99998E+02-1.07404E-12-6.15657E-12 3.62383E-11 7.26686E-11 2.62872E-11
 -1      2481-1.99993E+02-2.89744E-03-3.18806E-03 2.82050E-03-7.95654E-05 2.89606E-03
 -1      2482-1.99998E+02-7.93700E-09-8.01322E-09 3.09070E-09 1.41765E-08 3.02939E-09
 -1      2483-1.99998E+02 1.16589E-08 1.43040E-08 4.85122E-08 3.05483E-08-4.90016E-08
 -1      2484-1.99998E+02 1.46778E-06 1.50772E-06 7.17400E-07-1.60242E-07-7.54950E-07
 -1      2485-1.99998E+02-7.92141E-09-8.06496E-09-3.14514E-09 1.42821E-08-2.96515E-09
 -1      2486-1.99998E+02 7.81548E-06 7.74576E-06-7.53345E-06-6.57667E-06-7.62883E-06
 -1      2487-1.99998E+02-2.88433E-04-2.93897E-04-9.42037E-05-5.94813E-05 9.55400E-05
 -1      2488-1.99998E+02-2.49691E-09 6.13070E-11-5.22691E-08 3.21812E-08 5.06449E-08
 -1      2489-1.99998E+02 7.74614E-06 7.79278E-06 7.46960E-06-6.08450E-06 7.45981E-06
 -1      2490-1.99998E+02 1.44304E-06 1.44745E-06-7.31517E-07-1.30248E-07 7.32178E-07
 -1      2491-2.12581E+02-1.28003E+01-1.26137E+01-4.19870E+00 7.67358E-01 3.97572E+00
 -1      2492-1.99998E+02-2.11875E-09-4.33382E-09 4.73106E-10 1.65959E-09 4.49214E-09
 -1      2493-1.99998E+02-2.11437E-12 5.97332E-12 2.39182E-11-3.54883E-12-1.36180E-11
 -1      2494-1.99961E+02 2.29554E-02 2.21045E-02-8.73741E-03-3.00388E-03 8.28749E-03
 -1      2495-2.04482E+02 1.14566E+00 1.14125E+00 1.58575E+00-1.54335E-01 1.56388E+00
 -1      2496-1.99998E+02 5.59998E-11-1.32458E-10-1.34968E-10-1.79274E-10-8.95478E-11
 -1      2497-2.12722E+02-1.33155E+01-1.29410E+01 4.94377E+00-9.03206E-01 4.75726E+00
 -1      2498-1.99998E+02-1.98583E-12 4.87121E-12 1.07807E-11-2.36639E-12-4.84993E-12
 -1      2499-2.00080E+02 2.81397E-01 2.74378E-01-1.79282E-01 2.40943E-02 1.90861E-01
 -1      2500-1.99998E+02-7.76905E-09 6.77728E-09-2.56114E-09 6.54868E-10 1.02207E-08
 -1      2501-1.99998E+02-5.95610E-11-8.71355E-11 1.44534E-09 2.52268E-09-1.38082E-09
 -1      2502-1.99998E+02 5.85153E-11 8.12662E-11 3.52900E-10 7.51238E-10-3.49143E-10
 -1      2503-2.04049E+02 1.22713E+00 1.23684E+00-1.67617E+00-1.53833E-01-1.67575E+00
 -1      2504-1.99998E+02-4.06298E-11 1.43422E-10 2.69147E-10 3.41098E-12-2.68899E-10
 -1      2505-1.99998E+02 2.02369E-10-1.06809E-10-4.26870E-10 1.76624E-10 8.35903E-11
 -1      2506-1.99998E+02 1.54556E-13 2.03634E-11 3.75283E-10 5.44903E-10 3.83454E-10
 -1      2507-1.99998E+02-6.19356E-10-6.05632E-10 1.56334E-09 2.61315E-09 1.53781E-09
 -1      2508-1.99998E+02 2.27333E-12 5.49765E-12 2.56709E-11-1.83802E-11 4.16458E-12
 -1      2509-1.99998E+02 2.00734E-11 2.09349E-11 2.66638E-11-2.29532E-11 3.37427E-12
 -1      2510-1.99998E+02 1.82587E-12 3.11201E-12 9.31270E-12-6.77572E-12-5.64182E-12
 -1      2511-1.99998E+02 3.31165E-12 3.82216E-13 1.00869E-11-2.25014E-12-2.73966E-12
 -1      2512-1.99961E+02 1.95938E-02 1.83208E-02 4.65468E-03 5.39333E-03 4.04757E-03
 -1      2513-2.00049E+02 2.78125E-01 2.83602E-01 1.91557E-01-1.46909E-02 2.00273E-01
 -1      2514-1.99998E+02 1.80809E-06 1.85924E-06-1.15672E-06-4.84440E-07-1.17752E-06
 -1      2515-1.99998E+02 2.67174E-11 2.93648E-11-1.95539E-11 8.92059E-11 3.11030E-11
 -1      2516-1.99998E+02-9.24924E-12-1.99605E-13 1.26206E-11-7.57962E-12-6.15359E-12
 -1      2517-1.99998E+02-6.69147E-12 1.26008E-12 6.97424E-12 8.91847E-13-4.98857E-12
 -1      2518-1.99998E+02-1.13867E-11 5.74304E-15 1.44500E-11-9.64950E-13-6.54684E-12
 -1      2519-1.99998E+02-6.86102E-13-3.15783E-13 8.77956E-12-2.55125E-12-2.46079E-13
 -1      2520-1.99998E+02 2.23652E-11 1.65712E-11 2.58945E-11 4.45389E-11-1.47475E-11
 -1      2521-1.99995E+02-2.32561E-03-2.37661E-03-2.32365E-03-3.61314E-04 2.37467E-03
 -1      2522-1.99998E+02-3.49967E-09-3.52275E-09 1.09704E-08 9.77472E-09-1.09939E-08
 -1      2523-1.99998E+02-3.18315E-04-3.03956E-04 2.49162E-04-1.79606E-05 2.51032E-04
 -1      2524-1.99998E+02 6.16854E-06 6.14901E-06 9.90074E-06-8.80667E-07-1.01368E-05
 -1      2525-1.99996E+02-2.09238E-03-2.00593E-03 1.97112E-03-4.41437E-04-1.94561E-03
 -1      2526-1.99998E+02-3.48637E-09-3.59858E-09-1.12582E-08 9.95284E-09 1.14404E-08
 -1      2527-1.99998E+02 1.82867E-06 1.85689E-06 1.15988E-06-4.55507E-07 1.19522E-06
 -1      2528-1.99998E+02-3.06381E-04-3.22811E-04-2.51795E-04-1.77512E-05-2.62820E-04
 -1      2529-1.99998E+02 6.19253E-06 6.25616E-06-1.01249E-05-8.36950E-07 9.89819E-06
 -1      2530-1.99998E+02-1.18069E-08-1.18329E-08 1.20316E-09 4.58087E-08 4.63070E-09
 -1      2531-1.99998E+02-1.38099E-08-1.10346E-08-3.68497E-09 4.59800E-08-1.17093E-09
 -1      2532-1.99998E+02-5.31193E-10-6.14982E-10-1.40739E-09 2.59534E-09-1.47372E-09
 -1      2533-1.99964E+02 1.65187E-02 1.86085E-02-4.24843E-04 4.32253E-03-7.51646E-04
 -1      2534-2.00085E+02 2.82963E-01 2.87962E-01-2.33590E-01-1.31683E-02-2.27291E-01
 -1      2535-2.03357E+02 1.40490E+00 1.37682E+00 1.66216E+00 1.61259E-01-1.70316E+00
 -1      2536-2.03110E+02 1.33211E+00 1.38048E+00-1.69270E+00 1.61495E-01 1.63306E+00
 -1      2537-1.99998E+02 7.91206E-11 8.37976E-11-1.94392E-10 4.52568E-10 2.04680E-10
 -1      2538-1.99998E+02-1.55747E-11-9.95749E-11-2.00545E-09 2.36002E-09 2.13879E-09
 -1      2539-1.99998E+02 2.15012E-11-7.16628E-12-1.66688E-11-1.24564E-11 4.34556E-12
 -1      2540-1.99998E+02-6.92776E-12-2.97989E-12 1.07301E-11-5.94932E-12-3.38778E-13
 -1      2541-1.99998E+02 4.35548E-12 1.36287E-13-3.30838E-10 5.19572E-10-3.64569E-10
 -1      2542-2.00072E+02 3.20107E-01 3.26052E-01 3.06815E-01 2.49584E-02-3.00490E-01
 -1      2543-1.99966E+02 8.64880E-03 9.53269E-03-8.03839E-03-3.22993E-03 7.88940E-03
 -1      2544-1.99998E+02-4.40551E-12 1.34894E-10 1.64305E-10-1.32660E-11 9.56780E-11
 -1      2545-1.99998E+02-8.78696E-06-8.67801E-06-2.30967E-05 2.98992E-06 1.99290E-05
 -1      2546-1.99998E+02 4.06749E-12-4.86280E-12 1.22377E-11-2.98346E-12-2.68796E-12
 -1      2547-1.99998E+02-3.12237E-12 3.38823E-12 1.16841E-11 1.21733E-11 2.81343E-13
 -1      2548-1.99998E+02 5.87208E-13 1.33192E-12 7.74478E-12-4.50047E-13-4.50320E-12
 -1      2549-1.99998E+02 1.89726E-11 2.38586E-11 1.01345E-10 1.61779E-10-8.40822E-11
 -1      2550-1.99987E+02-2.63538E-03-2.33818E-03 4.45818E-03-2.86873E-03-4.45388E-03
 -1      2551-1.99998E+02-4.10126E-05-4.15033E-05-1.79442E-05-3.25917E-05-1.91629E-05
 -1      2552-1.99998E+02-4.00651E-05-4.02785E-05 1.73715E-05-3.42942E-05 1.82514E-05
 -1      2553-1.99998E+02-6.99559E-06-8.01365E-06 2.07763E-05 2.34172E-06-2.17543E-05
 -1      2554-1.99998E+02 7.20903E-08 6.51994E-08-6.45650E-08 8.44973E-08-5.82824E-08
 -1      2555-1.99998E+02 5.95907E-08 7.92542E-08 6.14851E-08 8.74588E-08 6.85732E-08
 -1      2556-1.99998E+02-1.18080E-08-1.18426E-08-3.19793E-08 1.74166E-08 3.21932E-08
 -1      2557-1.99998E+02-1.23754E-08-1.20202E-08 3.23869E-08 1.74866E-08-3.23183E-08
 -1      2558-1.99998E+02-6.72190E-10 1.12724E-09 1.00427E-09 1.99127E-10-6.11562E-12
 -1      2559-1.99998E+02-3.35992E-12 1.16498E-12 1.13678E-11 4.38480E-12-2.05918E-12
 -1      2560-1.99998E+02 4.68223E-12-6.50339E-13 1.53383E-11 7.05193E-12-2.78129E-12
 -1      2561-1.99998E+02 2.99538E-12 2.97190E-12 1.23661E-11 9.53231E-12-8.44587E-12
 -1      2562-1.99998E+02 2.28634E-07 2.42893E-07 4.27688E-08-6.48578E-08-4.72660E-08
 -1      2563-1.99998E+02 2.87516E-07 1.98283E-07-2.20625E-08-2.77461E-08 7.38230E-09
 -1      2564-1.99998E+02 1.91544E-07 2.90777E-07-5.43545E-09-3.59115E-08 2.22195E-08
 -1      2565-1.99998E+02 3.05461E-08 2.85824E-08 1.83740E-08-4.68681E-08 1.20572E-08
 -1      2566-1.99998E+02 5.61867E-07 4.27220E-07-3.02164E-07-8.74397E-08 2.82825E-07
 -1      2567-1.99998E+02 4.91944E-07 6.61944E-07-3.00336E-07-9.64222E-08 3.43252E-07
 -1      2568-1.99998E+02 7.43034E-07 7.50243E-07-3.29533E-07-1.05051E-07 3.25558E-07
 -1      2569-1.99998E+02-3.23472E-08 5.72052E-08 7.27275E-08-9.65316E-10-1.51802E-08
 -1      2570-1.99998E+02 6.99970E-08 2.09309E-09 2.31622E-08 9.41953E-09-6.91818E-08
 -1      2571-1.99998E+02 1.45030E-07 1.48435E-07 5.79147E-09 1.93013E-08-7.91685E-09
 -1      2572-1.99998E+02-2.83380E-09-3.51511E-09-9.21345E-10-3.16701E-09-2.69417E-09
 -1      2573-1.99998E+02-1.38512E-09-3.72245E-09-2.41250E-09-1.25321E-09-2.12978E-09
 -1      2574-1.99998E+02 2.47678E-09 2.37893E-09-3.38532E-09 2.74091E-10 1.76357E-09
 -1      2575-1.99998E+02 2.46855E-09 1.81219E-09-2.02396E-09 1.05088E-09 2.11999E-09
 -1      2576-1.99998E+02-8.73864E-10-8.93706E-09-1.43922E-08 9.17981E-10 1.57375E-09
 -1      2577-1.99998E+02 2.35687E-09 8.94274E-10-3.97914E-10-5.92293E-10-6.97077E-11
 -1      2578-1.99998E+02-7.06322E-10-1.62266E-09 1.33210E-09-1.99401E-10 8.83380E-10
 -1      2579-1.99998E+02-1.13293E-09-2.46318E-09-2.74760E-11 8.28169E-10 2.75003E-09
 -1      2580-1.99998E+02 3.51145E-09 3.43198E-09 2.22601E-09 1.31145E-09-3.28674E-09
 -1      2581-1.99998E+02-1.78694E-09-2.83405E-09 6.84837E-10 7.41114E-10 1.89052E-10
 -1      2582-2.03110E+02-1.12745E+01-6.08618E+00-1.14032E+00-6.42677E-01-4.76197E-01
 -1      2583-2.13601E+02-8.82379E+00-9.13190E+00-1.13168E+00-3.56556E-01-7.93900E-01
 -1      2584-2.05719E+02-6.24901E+00-3.98689E+00 2.59811E-01-5.25033E-02 1.04830E+00
 -1      2585-2.04439E+02-1.20613E+01-6.94092E+00 1.59945E+00 6.86270E-01-1.14352E+00
 -1      2586-2.13912E+02-1.04305E+01-1.03777E+01 7.55324E-01 3.43139E-01-7.77414E-01
 -1      2587-2.11546E+02-1.74129E+01-1.14877E+01 1.65386E-01 7.83061E-01-4.78179E+00
 -1      2588-2.05475E+02-3.84512E+00-6.08930E+00 1.12545E+00 5.97033E-03 1.29392E-01
 -1      2589-2.03192E+02-5.95295E+00-1.16328E+01-3.38050E-01-6.86023E-01-1.08183E+00
 -1      2590-2.04528E+02-7.08669E+00-1.16272E+01-1.23384E+00 7.50897E-01 1.55171E+00
 -1      2591-2.12489E+02-1.18080E+01-1.73884E+01-4.78636E+00-2.06120E-01-3.85956E-01
 -1      2592-2.13410E+02-8.79379E+00-8.85118E+00-9.62650E-01 3.88613E-01 7.35902E-01
 -1      2593-1.99998E+02 1.53990E-12 1.70755E-12 3.87508E-12-3.16740E-13-9.04823E-13
 -1      2594-1.99998E+02-2.08799E-12 5.46336E-12 8.26023E-12 9.37313E-13-4.97761E-12
 -1      2595-1.99998E+02-9.30688E-13 2.38366E-12 1.02097E-11-5.86755E-13-2.23984E-12
 -1      2596-1.99998E+02-2.40299E-12 1.61074E-12 7.99388E-12-1.85179E-12-4.22404E-12
 -1      2597-1.99998E+02 9.36625E-13-7.80338E-13 8.17671E-12 9.80844E-13-6.14778E-12
 -1      2598-1.99998E+02 3.27880E-12 7.07543E-12 3.67734E-12 1.25796E-13-4.44760E-12
 -1      2599-1.99998E+02-1.67565E-12 1.17759E-12 1.10021E-11 2.86398E-12-4.92383E-12
 -1      2600-1.99998E+02-2.13987E-13 4.36661E-12 8.17234E-12-1.73519E-13-1.27270E-12
 -1      2601-1.99998E+02-4.07626E-12 1.77102E-13 1.13202E-11-1.81854E-12-5.71624E-12
 -1      2602-1.99998E+02-1.16165E-13 2.29577E-12 1.03581E-11 7.29013E-13-3.56427E-12
 -1      2603-2.05554E+02-5.75671E-01 8.82590E-01 1.76765E+00-3.76460E-03 4.12595E-02
 -1      2604-2.03810E+02-3.23144E+00-4.64385E+00 1.20541E+00 1.09059E+00 2.65327E-01
 -1      2605-2.05600E+02 9.29140E-01-6.24208E-01 9.47954E-02-3.99786E-02 1.75222E+00
 -1      2606-2.03877E+02-4.75779E+00-3.23041E+00 2.84163E-01 1.05393E+00 1.18285E+00
 -1      2607-1.99998E+02 1.28980E-11 3.09704E-11 1.29139E-11 5.17961E-12-3.56442E-11
 -1      2608-1.99998E+02-2.03767E-11 2.28598E-12 1.89333E-11 3.97301E-12-1.89944E-11
 -1      2609-1.99998E+02 6.90784E-12 2.41492E-11-3.62410E-12 1.18709E-11-4.06711E-11
 -1      2610-1.99998E+02-2.22489E-11 1.09879E-10 4.77076E-11 1.56832E-11-8.07424E-11
 -1      2611-1.99998E+02-8.77593E-12 4.85838E-11 4.61132E-11 1.70194E-11-8.16420E-11
 -1      2612-1.99998E+02-1.52900E-11 5.58193E-11 6.20418E-11 1.60700E-13-4.33509E-11
 -1      2613-1.99998E+02 1.18964E-11 1.24367E-11 3.27126E-11-1.25823E-11-1.73460E-11
 -1      2614-1.99998E+02 3.61584E-12 2.11772E-11 2.81768E-11-7.39110E-13-3.38802E-11
 -1      2615-1.99998E+02 3.36956E-11 9.64847E-11 8.65569E-11 3.64369E-13-6.37338E-11
 -1      2616-1.99997E+02-1.06088E-03-5.04257E-03-3.46330E-03 1.95944E-04 1.76843E-03
 -1      2617-1.99986E+02-4.32112E-03-4.28874E-03-1.81240E-03 1.31779E-04 1.84232E-03
 -1      2618-1.99987E+02-1.38178E-03-4.10233E-03-4.83011E-03-9.40257E-05-1.11717E-03
 -1      2619-1.99991E+02 7.41123E-04 2.59569E-03-5.49949E-03-2.47631E-03 7.73283E-04
 -1      2620-1.99963E+02 1.34324E-02 1.35770E-02-2.19495E-03-3.45331E-03 2.25744E-03
 -1      2621-1.99987E+02 3.35667E-04 3.60889E-04-3.33001E-03-2.59537E-03 3.42008E-03
 -1      2622-1.99998E+02-4.82144E-03-1.10105E-03-1.74321E-03 2.06755E-04 3.52506E-03
 -1      2623-1.99987E+02-4.14527E-03-1.30656E-03 9.94241E-04 2.14461E-05 4.82112E-03
 -1      2624-1.99992E+02 2.37880E-03 5.51305E-04-6.48743E-04-2.39975E-03 5.57881E-03
 -1      2625-2.00000E+02-5.65930E-04-1.86722E-03-2.83964E-03-1.64803E-03 3.46933E-03
 -1      2626-1.99993E+02-8.04914E-05 1.89309E-03-3.45061E-03-2.59232E-03 2.72552E-03
 -1      2627-2.00000E+02-1.75572E-03-4.48336E-04-3.25051E-03-1.87943E-03 3.00491E-03
 -1      2628-1.99992E+02 2.29813E-03 8.55163E-04-2.89967E-03-2.57769E-03 3.05298E-03
 -1      2629-2.03783E+02-3.21354E+00-4.72854E+00 1.12712E+00-9.44549E-01-1.90902E-01
 -1      2630-2.03844E+02-4.74847E+00-3.44005E+00-3.42863E-01-9.69033E-01 1.02700E+00
 -1      2631-1.99998E+02 8.59513E-13-1.33651E-13 4.58454E-12 1.06813E-12-8.67783E-12
 -1      2632-1.99998E+02 1.91480E-12 1.35389E-12 7.91099E-12 2.44790E-12-7.18006E-12
 -1      2633-1.99998E+02-6.95448E-12-2.29550E-12 1.02546E-11 4.41254E-14-2.91563E-12
 -1      2634-1.99998E+02 7.18565E-12 2.94590E-12 1.23263E-11-2.62007E-13-3.76533E-12
 -1      2635-1.99998E+02-1.09891E-11 3.17893E-12 3.16295E-11-1.85707E-11-6.04580E-11
 -1      2636-1.99998E+02 1.08950E-11 5.77463E-11 7.41807E-11 4.61519E-12-1.29589E-10
 -1      2637-1.99998E+02 5.36902E-12 4.97535E-12 2.28210E-11-1.40829E-11-2.39983E-11
 -1      2638-1.99998E+02-1.14051E-03-7.33205E-04 4.44152E-04-1.16378E-04-6.18031E-04
 -1      2639-1.99997E+02-9.75268E-04-4.49617E-04-1.17147E-04-9.79613E-05-4.54639E-04
 -1      2640-1.99998E+02-5.18629E-04-2.19385E-04 4.54680E-04-7.71299E-05-1.74103E-04
 -1      2641-1.99998E+02-4.48918E-04-4.09780E-05 6.54341E-06-3.08642E-06-9.50291E-05
 -1      2642-1.99997E+02-7.26305E-04-7.24189E-04 1.84270E-04-1.74202E-04-1.94946E-04
 -1      2643-1.99998E+02-1.52097E-03-7.74800E-04 5.29030E-04-2.23535E-04-8.68174E-04
 -1      2644-1.99998E+02-1.34870E-03-8.85861E-04 1.27515E-03-1.88172E-04-1.01583E-03
 -1      2645-1.99996E+02-1.43143E-03-1.39325E-03 1.03613E-03-2.43452E-04-1.03847E-03
 -1      2646-1.99988E+02-1.29042E-03-1.04887E-04-5.09661E-04-3.59380E-04-5.38505E-03
 -1      2647-1.99990E+02 2.67220E-04 8.75735E-04-1.90057E-03 1.32019E-03-4.85416E-03
 -1      2648-1.99996E+02-4.48851E-03-1.51541E-03-1.71280E-03-8.99102E-05-3.51701E-03
 -1      2649-2.00000E+02-2.84975E-03-1.03932E-03-4.32775E-03 9.23736E-04-3.89299E-03
 -1      2650-1.99984E+02-3.56418E-03-2.77444E-03-2.13482E-03-6.14371E-04-2.94434E-03
 -1      2651-1.99998E+02-1.22849E-03-7.13586E-04-7.80997E-04-1.03312E-04-5.46296E-04
 -1      2652-1.99997E+02-1.93929E-03-9.17093E-04-2.26605E-04-1.14146E-04-9.34052E-04
 -1      2653-1.99998E+02-1.98109E-03-1.44062E-03-1.51416E-03-1.06262E-04-1.12636E-03
 -1      2654-1.99996E+02-2.57085E-03-1.54098E-03-1.06247E-03-7.28496E-05-1.67336E-03
 -1      2655-1.99995E+02-1.95396E-03-1.79329E-03-1.02009E-03 5.14167E-05-9.98328E-04
 -1      2656-1.99998E+02 2.48156E-07 1.79991E-07 3.70291E-08-3.51186E-10 1.31447E-08
 -1      2657-1.99998E+02 5.64634E-07 2.90091E-07 6.23718E-08-9.36884E-09 8.18980E-08
 -1      2658-1.99997E+02-7.94304E-04-7.70274E-04 7.32933E-04-1.00691E-04-7.22639E-04
 -1      2659-1.99998E+02 3.07529E-06 3.10321E-06-1.16713E-06-5.38446E-07 1.14839E-06
 -1      2660-1.99998E+02 2.08291E-06 9.50908E-07-2.67339E-06 1.60856E-07 1.25610E-06
 -1      2661-1.99998E+02 4.69545E-06 3.11134E-06-2.85132E-06-4.99302E-07 3.32202E-06
 -1      2662-1.99998E+02 5.43751E-06 5.46322E-06-5.50729E-06-1.49670E-06 5.36200E-06
 -1      2663-1.99998E+02 4.90229E-06 3.00812E-06-7.00611E-06 1.05881E-08 5.47209E-06
 -1      2664-1.99998E+02 3.15363E-06 3.15109E-06-4.11391E-06-6.94071E-07 4.09313E-06
 -1      2665-1.99998E+02-1.13134E-03-1.55023E-04-3.00044E-04 2.65735E-05-4.90521E-04
 -1      2666-1.99999E+02-4.18826E-04-6.15564E-05-7.45660E-04-2.87996E-05-2.02337E-04
 -1      2667-1.99997E+02-8.20189E-04-8.33790E-04-3.80540E-04-7.49658E-05-4.23304E-04
 -1      2668-1.99998E+02 4.26157E-06 1.94716E-06-1.24849E-07-5.44782E-07 2.33754E-06
 -1      2669-1.99998E+02 5.84028E-06 2.71485E-06-3.41250E-06-8.93554E-08 4.62943E-06
 -1      2670-1.99998E+02-1.78431E-09-1.47165E-09 3.28450E-09 4.25294E-09 7.66144E-10
 -1      2671-1.99998E+02-2.97179E-09-1.53786E-09 6.04891E-09 5.61418E-09-9.62588E-10
 -1      2672-1.99998E+02-2.85651E-09-2.29285E-09 4.99405E-09 5.59546E-09 2.08899E-09
 -1      2673-1.99998E+02-5.70030E-09-2.56584E-09 8.52659E-09 7.31800E-09 1.74393E-10
 -1      2674-1.99998E+02-6.09739E-09-6.12115E-09 1.47903E-09 1.09803E-08 1.40032E-09
 -1      2675-1.99990E+02-3.88154E-04 3.60644E-04-4.58927E-03 1.51930E-03-2.56586E-03
 -1      2676-1.99999E+02-1.26636E-03-2.81970E-03-4.01264E-03 1.07664E-03-4.51756E-03
 -1      2677-1.99995E+02-1.18695E-03-4.31869E-03-3.71569E-03-2.56639E-04-1.63909E-03
 -1      2678-1.99998E+02 2.28726E-06 2.91384E-07-4.29609E-07-1.18736E-07 8.40194E-07
 -1      2679-1.99997E+02-1.28311E-03-1.17160E-03-8.72149E-04-6.48228E-05-9.37551E-04
 -1      2680-1.99997E+02-9.29916E-04-1.92618E-03 9.39099E-04-9.91353E-05 2.10059E-04
 -1      2681-1.99998E+02-6.74789E-04-1.20781E-03 5.78061E-04-9.42687E-05 7.36480E-04
 -1      2682-1.99996E+02-1.51606E-03-2.55061E-03 1.64949E-03-3.96598E-05 1.00602E-03
 -1      2683-1.99998E+02-1.35791E-03-1.67003E-03 1.14894E-03-9.24711E-05 1.38784E-03
 -1      2684-1.99995E+02-1.82866E-03-1.93404E-03 9.66370E-04 7.56729E-05 1.02908E-03
 -1      2685-1.99998E+02-1.26872E-03-7.73398E-04 7.76957E-04-8.16934E-05 5.45336E-04
 -1      2686-1.99997E+02-1.96700E-03-9.98885E-04 2.68611E-04-9.07334E-05 9.43192E-04
 -1      2687-1.99998E+02-1.82559E-03-1.41937E-03 1.45308E-03-9.57029E-05 1.15864E-03
 -1      2688-1.99996E+02-2.33245E-03-1.58582E-03 1.04762E-03-6.05756E-05 1.80384E-03
 -1      2689-1.99997E+02-4.50718E-04-9.69182E-04 4.49187E-04-9.31051E-05 1.10656E-04
 -1      2690-1.99997E+02-7.36877E-04-1.12066E-03 6.15861E-04-1.16440E-04-4.38203E-04
 -1      2691-1.99998E+02-2.13567E-04-4.60889E-04 1.66005E-04-6.56747E-05-4.24816E-04
 -1      2692-1.99998E+02-3.46408E-05-4.43246E-04 9.06698E-05-7.14937E-06-6.58640E-06
 -1      2693-1.99998E+02 3.46967E-12 3.47281E-12 8.66078E-12-1.90075E-12-1.31317E-12
 -1      2694-1.99998E+02-8.43721E-12-3.78809E-12 1.60528E-11 9.19307E-13-2.15217E-12
 -1      2695-1.99998E+02 6.69876E-12 6.26564E-12 1.13862E-11-2.97553E-13-2.78834E-12
 -1      2696-1.99998E+02-7.72359E-12-4.92095E-12 1.05806E-11-1.01164E-12-4.92991E-12
 -1      2697-1.99998E+02-2.85048E-12 3.05549E-12 9.12073E-12-2.14843E-12-7.91562E-13
 -1      2698-1.99998E+02-5.39124E-12-1.09117E-12 1.42938E-11-2.10862E-13-6.85304E-12
 -1      2699-1.99998E+02 1.08031E-11 2.81579E-12 1.92202E-11 1.16362E-12-1.51803E-12
 -1      2700-1.99998E+02-1.07101E-11-4.58936E-12 1.65941E-11-2.33697E-12-3.43426E-12
 -1      2701-1.99998E+02 1.55099E-11 4.76093E-12 2.16167E-11 2.63757E-13-6.77776E-13
 -1      2702-1.99998E+02 7.40012E-13 4.90853E-14 1.55106E-11-4.07984E-12-3.72970E-12
 -1      2703-1.99998E+02-4.18014E-12-8.61555E-13 1.03366E-11 1.14875E-12-7.95878E-12
 -1      2704-1.99998E+02 5.98064E-12 2.72452E-12 6.89705E-12 8.30926E-13-4.44748E-12
 -1      2705-1.99998E+02-4.97361E-12 7.79406E-13 8.45513E-12-5.51328E-12-1.03269E-12
 -1      2706-1.99998E+02-1.69666E-13 1.39497E-12 5.01783E-12-6.23270E-13-8.70148E-12
 -1      2707-1.99998E+02-3.67961E-12-1.30358E-12 4.34733E-12-4.98250E-12-5.12447E-12
 -1      2708-1.99998E+02 6.02030E-12 6.21269E-13 8.20346E-12 2.27340E-13-3.75756E-12
 -1      2709-1.99998E+02 2.73378E-13 5.79689E-12 1.10208E-11-3.85924E-12-8.02194E-12
 -1      2710-1.99998E+02-2.98161E-12-1.04962E-12 1.11013E-11-2.82932E-12-5.98029E-12
 -1      2711-1.99998E+02-5.01299E-12-6.46854E-12 1.12477E-11 3.39431E-13-5.45942E-12
 -1      2712-1.99998E+02-1.81633E-12 2.39185E-12 1.23525E-11-3.54780E-12-6.61862E-12
 -1      2713-1.99998E+02 1.98504E-11 2.04644E-11 7.12409E-11 1.87279E-10 1.29899E-10
 -1      2714-1.99998E+02 1.40213E-11 3.60835E-11 1.74673E-11 1.50610E-10 7.56725E-11
 -1      2715-1.99998E+02-2.41559E-13-2.04054E-12 2.07826E-11 3.55250E-11 4.81635E-11
 -1      2716-1.99998E+02-1.08417E-11-1.97027E-11 4.38635E-11 1.95710E-10 2.44276E-11
 -1      2717-1.99998E+02 2.02407E-12 5.06035E-12 3.66501E-11 4.59704E-11 9.74397E-11
 -1      2718-1.99998E+02 2.44520E-11 1.45758E-11 1.06069E-10 1.71005E-10 3.86098E-12
 -1      2719-1.99998E+02 4.14966E-11 1.88438E-11 1.51572E-10 1.93971E-10 5.42648E-11
 -1      2720-1.99998E+02 7.72845E-12 3.53215E-12 6.72254E-11 4.05627E-11 1.38940E-11
 -1      2721-1.99998E+02 1.22382E-11-4.34860E-12 1.04670E-10 4.54130E-11 3.44914E-11
 -1      2722-1.99990E+02 4.93955E-04-1.98956E-04 2.54289E-03 1.58496E-03 4.39387E-03
 -1      2723-2.00000E+02-2.89767E-03-1.25595E-03 4.37442E-03 1.20389E-03 3.71801E-03
 -1      2724-1.99984E+02-2.74178E-03-3.40079E-03 2.92291E-03-5.52711E-04 2.15064E-03
 -1      2725-1.99995E+02-4.29515E-03-1.24231E-03 1.49377E-03-1.61607E-04 3.72100E-03
 -1      2726-1.99990E+02 8.16539E-04 4.83315E-04 4.64281E-03 1.33679E-03 2.12873E-03
 -1      2727-1.99988E+02-1.00409E-04-1.12533E-03 5.33906E-03-2.24779E-04 5.00763E-04
 -1      2728-1.99999E+02-9.70970E-04-2.55336E-03 3.83186E-03 9.36238E-04 4.37040E-03
 -1      2729-1.99996E+02-1.51635E-03-4.44169E-03 3.54203E-03 4.52811E-06 1.64845E-03
 -1      2730-1.99997E+02-9.96852E-04-2.04607E-03-9.40163E-04-9.14457E-05-2.90202E-04
 -1      2731-1.99998E+02-7.38958E-04-1.29072E-03-5.83909E-04-7.78676E-05-7.73689E-04
 -1      2732-1.99996E+02-1.59490E-03-2.44556E-03-1.79889E-03-1.00716E-04-1.08065E-03
 -1      2733-1.99998E+02-1.36692E-03-1.58058E-03-1.22230E-03-1.44757E-04-1.40808E-03
 -1      2734-1.99998E+02 2.63476E-08-2.91260E-10 7.75730E-08 2.31247E-08-5.90680E-08
 -1      2735-1.99998E+02-1.25233E-09-2.77455E-09-7.98892E-10 5.56362E-09 5.93838E-09
 -1      2736-1.99998E+02-1.56613E-09-1.83787E-09 8.86534E-10 4.35258E-09 3.23796E-09
 -1      2737-1.99998E+02-2.27671E-09-5.89166E-09 1.45168E-10 7.30166E-09 8.42556E-09
 -1      2738-1.99998E+02-2.22822E-09-2.52692E-09 1.90915E-09 5.30352E-09 4.97649E-09
 -1      2739-1.99998E+02-1.46271E-09-3.04693E-09 9.26846E-10 5.64252E-09-6.06143E-09
 -1      2740-1.99998E+02-1.43624E-09-1.81626E-09-8.64312E-10 4.31166E-09-3.27471E-09
 -1      2741-1.99998E+02-2.47055E-09-5.86626E-09-2.12997E-10 7.36101E-09-8.45106E-09
 -1      2742-1.99998E+02-2.25098E-09-2.64487E-09-1.97542E-09 5.36547E-09-5.00222E-09
 -1      2743-1.99998E+02-6.00193E-09-6.25969E-09-1.42038E-09 1.10377E-08-1.38809E-09
 -1      2744-1.99998E+02-1.67705E-09-1.47084E-09-3.25053E-09 4.34436E-09-8.09139E-10
 -1      2745-1.99998E+02-2.62110E-09-1.31578E-09-5.90689E-09 5.58031E-09 8.79352E-10
 -1      2746-1.99998E+02-5.66804E-09-2.34844E-09-8.55100E-09 7.37309E-09-8.72709E-11
 -1      2747-1.99998E+02-2.72206E-09-2.15096E-09-5.05636E-09 5.63244E-09-2.09840E-09
 -1      2748-1.99998E+02-1.12439E-03-7.86648E-04-4.54957E-04-9.50498E-05 5.61988E-04
 -1      2749-1.99997E+02-1.02417E-03-4.79208E-04 1.07469E-04-7.25313E-05 4.49152E-04
 -1      2750-1.99998E+02-4.70476E-04-1.94045E-04-4.60549E-04-6.47557E-05 1.67324E-04
 -1      2751-1.99998E+02-4.55990E-04-2.10788E-05-1.03387E-05-1.18699E-05 1.03920E-04
 -1      2752-1.99997E+02-7.41971E-04-7.54618E-04-1.86822E-04-1.53416E-04 1.88050E-04
 -1      2753-1.99998E+02 3.55641E-06 7.38232E-06-4.62288E-06-1.22153E-06 5.36051E-07
 -1      2754-1.99998E+02 2.92162E-06 4.40020E-06-2.66920E-06-1.07096E-06-2.44828E-06
 -1      2755-1.99998E+02 2.88134E-06 6.99587E-06-6.95983E-06-3.17902E-06-1.64494E-06
 -1      2756-1.99998E+02 3.77397E-06 5.42266E-06-4.74570E-06-2.86419E-06-4.85664E-06
 -1      2757-1.99998E+02 6.73411E-06 6.75554E-06-4.20664E-06-3.91723E-06-4.26996E-06
 -1      2758-1.99998E+02 4.50205E-06 2.91835E-06-2.39663E-06-1.04982E-06-2.76663E-06
 -1      2759-1.99998E+02 7.35363E-06 3.54347E-06 5.79909E-07-1.26540E-06-4.63462E-06
 -1      2760-1.99998E+02 4.84542E-06 3.57933E-06-4.55059E-06-2.46769E-06-5.03781E-06
 -1      2761-1.99998E+02 7.36353E-06 2.90605E-06-1.55726E-06-3.14628E-06-7.02958E-06
 -1      2762-1.99997E+02-4.81280E-04-1.05324E-03-4.52002E-04-7.43939E-05-1.10552E-04
 -1      2763-1.99998E+02-7.79460E-04-1.15154E-03-5.57182E-04-9.30735E-05 4.70346E-04
 -1      2764-1.99998E+02-2.80397E-05-4.70611E-04-1.04597E-04-8.50567E-06 1.47956E-05
 -1      2765-1.99998E+02-1.91979E-04-5.43085E-04-1.74971E-04-8.11394E-05 5.07898E-04
 -1      2766-1.99998E+02 3.56397E-06 7.36088E-06 4.51639E-06-1.15767E-06-4.98687E-07
 -1      2767-1.99998E+02 2.94833E-06 4.54396E-06 2.71196E-06-9.63188E-07 2.46282E-06
 -1      2768-1.99998E+02 2.83772E-06 7.15370E-06 6.87660E-06-2.89478E-06 1.72744E-06
 -1      2769-1.99998E+02 3.55737E-06 4.66009E-06 5.03269E-06-2.29196E-06 4.66425E-06
 -1      2770-1.99998E+02 6.77441E-06 6.75956E-06 4.11526E-06-3.68658E-06 4.14461E-06
 -1      2771-1.99998E+02-1.63123E-08-9.26964E-09 1.88964E-08 1.86638E-08-1.05534E-08
 -1      2772-1.99998E+02-1.54002E-08-1.07938E-08 1.35073E-08 2.14472E-08-6.43167E-09
 -1      2773-1.99998E+02-9.69510E-09-5.48703E-09 9.09162E-09 1.06276E-08 9.02064E-10
 -1      2774-1.99998E+02-1.60054E-08-1.60445E-08 2.08277E-10 2.46127E-08 6.66113E-10
 -1      2775-1.99998E+02-1.15728E-08-2.53727E-09 1.46713E-08 9.13541E-09-2.50577E-09
 -1      2776-1.99998E+02 1.07835E-06 5.19661E-07-2.09119E-07-4.71085E-08 3.71790E-07
 -1      2777-1.99998E+02 1.91740E-06 4.26071E-06 2.30686E-06-5.41615E-07-1.17335E-07
 -1      2778-1.99998E+02 3.09255E-06 4.72586E-06 3.29401E-06-5.18605E-07-2.81496E-06
 -1      2779-1.99998E+02 1.02921E-06 2.33444E-06 1.26143E-06 1.79630E-07-2.79224E-06
 -1      2780-1.99998E+02 3.06739E-06 3.12930E-06 1.11168E-06-5.48498E-07-1.20069E-06
 -1      2781-1.99998E+02 3.34843E-07 2.29164E-06 8.39470E-07-1.40917E-07-4.53638E-07
 -1      2782-1.99998E+02 4.70811E-06 3.09498E-06 2.77644E-06-5.37657E-07-3.39018E-06
 -1      2783-1.99998E+02 4.25670E-06 1.94071E-06 1.20536E-07-5.94530E-07-2.39165E-06
 -1      2784-1.99998E+02 2.24282E-06 3.15769E-07 4.54809E-07-1.39413E-07-8.69075E-07
 -1      2785-1.99998E+02 2.11549E-06 9.89378E-07 2.66869E-06 1.44098E-07-1.30244E-06
 -1      2786-1.99988E+02 7.34839E-03 5.03373E-03-1.15923E-03 3.88850E-03-1.10779E-03
 -1      2787-1.99991E+02 3.64363E-03 2.59988E-03 8.43667E-04 1.75362E-03-3.12131E-03
 -1      2788-1.99971E+02 8.60283E-03 1.13725E-02 2.65033E-04 1.14465E-03-6.84765E-04
 -1      2789-1.99998E+02 1.89975E-06 4.25390E-06-2.36896E-06-5.89127E-07 1.12529E-07
 -1      2790-1.99998E+02 3.09797E-06 4.73582E-06-3.38612E-06-5.23808E-07 2.77921E-06
 -1      2791-1.99998E+02 3.26344E-07 2.29513E-06-8.34221E-07-1.48937E-07 4.62613E-07
 -1      2792-1.99998E+02 1.04925E-06 2.32952E-06-1.27425E-06 1.93927E-07 2.78074E-06
 -1      2793-1.99998E+02-1.11433E-08-1.52943E-08 6.45586E-09 2.16056E-08-1.34781E-08
 -1      2794-1.99998E+02-9.40726E-09-1.62396E-08 1.05993E-08 1.87940E-08-1.90679E-08
 -1      2795-1.99998E+02-5.52443E-09-9.80264E-09-1.09234E-09 1.07100E-08-9.02027E-09
 -1      2796-1.99998E+02-2.44089E-09-1.18424E-08 2.38558E-09 9.21279E-09-1.47330E-08
 -1      2797-1.99998E+02-1.62141E-08-1.59708E-08-6.55402E-10 2.47303E-08-4.22144E-11
 -1      2798-1.99998E+02 2.84287E-07 5.76463E-07-8.24200E-08-1.28638E-08-5.60364E-08
 -1      2799-1.99998E+02 1.80184E-07 2.56868E-07-1.42064E-08-2.61505E-09-3.39128E-08
 -1      2800-2.00329E+02 5.05162E-01 8.21579E-01 4.51183E-01-1.94666E-03 5.30842E-01
 -1      2801-2.00955E+02 5.94855E-01 1.27939E+00 7.72587E-01 4.97794E-04 3.09643E-02
 -1      2802-2.00195E+02 1.86069E-01 8.79038E-01 4.54796E-01-6.30551E-02 1.99182E-01
 -1      2803-2.00856E+02 6.53480E-01 6.72551E-01 2.74147E-01-1.71783E-02 2.63296E-01
 -1      2804-1.99617E+02 1.09160E-01 3.90934E-01 2.11133E-01-2.73310E-02 5.62781E-01
 -1      2805-1.99999E+02-1.01107E-04-5.06945E-04-2.21939E-04 1.07181E-05-7.59785E-04
 -1      2806-1.99998E+02-1.77273E-04-1.15062E-03-4.98214E-04 2.78002E-05-3.32398E-04
 -1      2807-1.99998E+02-1.42164E-03-1.27013E-03-1.20186E-03-8.79191E-05 9.20527E-04
 -1      2808-1.99996E+02-1.34799E-03-1.36880E-03-9.27868E-04-3.11969E-04 9.41207E-04
 -1      2809-1.99997E+02-1.46729E-03-8.92857E-04-5.26463E-04-2.41892E-04 7.93592E-04
 -1      2810-1.99998E+02 1.29466E-11 1.21927E-11 1.93229E-11-3.23693E-11-1.20958E-11
 -1      2811-1.99998E+02-1.96708E-11-3.87948E-12 2.88702E-11-1.41089E-11 1.31634E-11
 -1      2812-1.99998E+02 2.80101E-12 9.25362E-12 1.38124E-11-1.61818E-11-2.54058E-11
 -1      2813-1.99998E+02 1.43323E-11 1.12779E-11 1.25749E-11-3.08963E-11-1.02022E-11
 -1      2814-1.99998E+02-1.56226E-04-1.09812E-03 4.91814E-04 3.20774E-05 3.06103E-04
 -1      2815-1.99997E+02-8.26190E-04-8.21701E-04 4.03785E-04-7.15127E-05 3.81581E-04
 -1      2816-1.99999E+02-8.17039E-05-4.46172E-04 2.17349E-04-3.01227E-06 7.35222E-04
 -1      2817-1.99999E+02-4.53251E-04-7.69731E-05 7.36246E-04-1.54481E-05 1.98177E-04
 -1      2818-1.99998E+02-1.12062E-03-1.77395E-04 3.01635E-04 2.58651E-05 4.97027E-04
 -1      2819-1.99998E+02-7.92880E-04-1.48009E-03 8.82957E-04-2.23338E-04-5.23380E-04
 -1      2820-1.99998E+02-9.05145E-04-1.29454E-03 1.04139E-03-1.86432E-04-1.24877E-03
 -1      2821-1.99998E+02 6.86841E-12 4.60055E-12 1.60258E-11-1.67666E-12-2.65358E-12
 -1      2822-1.99998E+02 3.09953E-12 3.93251E-12 5.53251E-12-2.94398E-12-3.40841E-13
 -1      2823-1.99998E+02-3.30203E-12-1.46664E-12 1.05819E-11-9.58483E-13-2.48083E-12
 -1      2824-1.99998E+02 1.93470E-11 1.04619E-11 1.58920E-11-1.15028E-12 3.91953E-13
 -1      2825-1.99998E+02-1.03295E-11 1.57618E-12 1.41407E-11-9.51521E-13-3.44186E-12
 -1      2826-1.99998E+02-8.13810E-12-2.68219E-12 1.25373E-11-9.66844E-13-5.81078E-12
 -1      2827-1.99998E+02-9.83680E-13-1.64399E-12 3.87405E-12-2.70253E-12-9.59852E-14
 -1      2828-1.99998E+02 4.68815E-13-2.07016E-12 6.22836E-12-6.01992E-13-2.49187E-12
 -1      2829-1.99998E+02-4.26947E-13 3.54474E-12 6.23359E-12-1.14087E-12-9.40407E-12
 -1      2830-1.99998E+02-7.59141E-13 8.78070E-13 5.27705E-12-2.63130E-12-5.31791E-12
 -1      2831-1.99998E+02-1.24928E-03-1.48326E-03-8.90982E-04-8.92422E-05 1.24654E-03
 -1      2832-1.99997E+02-8.75627E-04-1.50613E-03-7.80160E-04-2.37717E-04 5.41802E-04
 -1      2833-1.99998E+02 2.68689E-06 5.84066E-06 4.57348E-06-1.07958E-07-3.39158E-06
 -1      2834-1.99998E+02 5.39810E-06 5.43246E-06 5.29633E-06-1.50765E-06-5.51601E-06
 -1      2835-1.99998E+02 3.06518E-06 5.03058E-06 5.42276E-06-2.10386E-08-7.01065E-06
 -1      2836-1.99998E+02 5.78933E-06 2.68507E-06 3.36637E-06-1.64712E-07-4.70638E-06
 -1      2837-1.99998E+02 4.93335E-06 2.98016E-06 6.89847E-06-4.39028E-08-5.57629E-06
 -1      2838-1.99998E+02 3.03888E-06 5.04059E-06-5.57128E-06-1.16962E-08 6.93905E-06
 -1      2839-1.99998E+02 2.67493E-06 5.83063E-06-4.68895E-06-1.44466E-07 3.36937E-06
 -1      2840-1.99998E+02-1.95375E-09-1.77023E-10 4.82947E-09 2.69071E-09 1.43798E-10
 -1      2841-1.99998E+02-1.28551E-10-3.63924E-10 2.80193E-09 1.30338E-09 1.28201E-09
 -1      2842-1.99998E+02-1.60614E-09-1.67073E-09 1.11873E-09 5.39036E-09 1.06715E-09
 -1      2843-1.99998E+02 8.16829E-07 5.08055E-06-2.69787E-06-7.86232E-07-6.94648E-07
 -1      2844-1.99998E+02 3.61089E-06 3.66406E-06-1.60700E-06-1.13716E-06-1.61041E-06
 -1      2845-1.99998E+02 7.78827E-07 1.99567E-06-1.14596E-06-3.81156E-07-2.95102E-06
 -1      2846-1.99998E+02 8.08345E-07 2.02175E-06 1.23617E-06-3.19631E-07 3.03558E-06
 -1      2847-1.99998E+02 7.77034E-07 4.96674E-06 2.66493E-06-7.52024E-07 7.66098E-07
 -1      2848-1.99998E+02 3.61971E-06 3.67471E-06 1.53611E-06-1.07636E-06 1.57895E-06
 -1      2849-1.99998E+02 4.95494E-06 7.72909E-07-6.67516E-07-8.30074E-07-2.70454E-06
 -1      2850-1.99998E+02 1.99520E-06 8.12127E-07-2.94031E-06-3.59485E-07-1.22488E-06
 -1      2851-1.99998E+02 3.05301E-12 3.41740E-12 3.49185E-12 1.11521E-13-6.75641E-12
 -1      2852-1.99998E+02-2.66436E-14 4.72240E-12 7.36006E-12-1.44226E-12-2.77987E-12
 -1      2853-1.99992E+02 1.38069E-03 3.31284E-03-4.86785E-03 2.61003E-03 5.16140E-05
 -1      2854-1.99989E+02 5.17658E-03 7.60775E-03-1.47001E-03 4.02991E-03-1.16717E-03
 -1      2855-1.99998E+02-1.06850E-08-6.72743E-09 1.20390E-08 2.38808E-08-2.28273E-09
 -1      2856-1.99998E+02-2.15137E-08-1.18183E-08 2.40887E-08 2.33950E-08-9.66261E-09
 -1      2857-1.99998E+02-1.75577E-08-1.75211E-08-2.63227E-09 3.79813E-08-8.75731E-10
 -1      2858-1.99998E+02 6.68187E-11 3.39439E-11 2.94750E-10 2.14542E-10 1.62619E-10
 -1      2859-1.99998E+02 4.89009E-12 1.60663E-12 2.45813E-10 2.31298E-10 9.21747E-11
 -1      2860-1.99998E+02-2.12388E-11-4.30097E-11 1.77552E-10 4.39504E-10 1.52636E-10
 -1      2861-1.99998E+02-2.53121E-10-2.14331E-09 3.75126E-10 2.86149E-09 4.73487E-09
 -1      2862-1.99998E+02-3.92408E-10-6.53617E-11 1.36748E-09 1.29697E-09 2.71245E-09
 -1      2863-1.99998E+02-8.41004E-12 1.17606E-11 1.14854E-10 2.01096E-10 2.02558E-10
 -1      2864-1.99998E+02 2.73695E-11 7.78679E-11 1.83059E-10 2.16245E-10 2.69244E-10
 -1      2865-1.99998E+02 4.92188E-11-7.95420E-11-4.76531E-11-2.83184E-11 3.84320E-11
 -1      2866-1.99998E+02 1.91006E-11-6.52997E-11-6.07628E-12-3.59806E-11 4.06896E-11
 -1      2867-1.99998E+02 1.07012E-11-6.06404E-11-2.70433E-11-2.46610E-11 3.23992E-11
 -1      2868-1.99998E+02 1.42152E-11-4.03806E-11 2.03270E-11-2.47748E-11 4.79235E-11
 -1      2869-1.99998E+02-1.03113E-08-1.50576E-08-6.86690E-09 2.12232E-08 1.39874E-08
 -1      2870-1.99998E+02-8.84283E-09-1.60161E-08-1.06680E-08 1.85141E-08 1.93767E-08
 -1      2871-1.99998E+02-5.46288E-09-9.32261E-09 1.17647E-09 1.04003E-08 8.60656E-09
 -1      2872-1.99998E+02-2.47827E-09-1.18226E-08-2.18722E-09 9.06364E-09 1.45683E-08
 -1      2873-1.99998E+02 4.47565E-06 3.00315E-06 2.51375E-06-9.69619E-07 2.66207E-06
 -1      2874-1.99998E+02 7.43231E-06 3.60895E-06-5.65823E-07-1.15646E-06 4.58474E-06
 -1      2875-1.99998E+02 5.55839E-06 3.78939E-06 4.97409E-06-2.68567E-06 4.82972E-06
 -1      2876-1.99998E+02 7.28367E-06 2.93259E-06 1.67863E-06-2.94460E-06 6.94843E-06
 -1      2877-2.00903E+02 1.33316E+00 6.57183E-01 1.06272E-01-1.15957E-02 7.63113E-01
 -1      2878-2.00363E+02 8.52210E-01 5.14806E-01 5.23647E-01-8.47609E-03 4.66357E-01
 -1      2879-2.00199E+02 8.52242E-01 1.88849E-01 1.93792E-01-5.54085E-02 4.74070E-01
 -1      2880-1.99620E+02 3.95903E-01 1.19578E-01 5.63830E-01-3.51123E-02 2.22845E-01
 -1      2881-1.99997E+02-1.21322E-03-1.22177E-03 8.35908E-04-4.77117E-05 9.39012E-04
 -1      2882-1.99998E+02-1.14552E-12 7.38354E-13 1.00601E-11 1.35287E-12-4.12215E-12
 -1      2883-1.99998E+02-2.92301E-11-1.12910E-11 1.48063E-11-2.21120E-12-4.24665E-12
 -1      2884-1.99998E+02 5.56301E-07 1.12281E-06-3.91268E-07-6.94042E-08 2.36162E-07
 -1      2885-1.99998E+02-1.23649E-08-2.14711E-08 9.94174E-09 2.36304E-08-2.43797E-08
 -1      2886-1.99998E+02-7.46737E-09-1.02873E-08 2.50069E-09 2.40765E-08-1.19444E-08
 -1      2887-1.99998E+02-1.84747E-08-1.70707E-08 1.28680E-09 3.81931E-08 2.70648E-09
 -1      2888-1.99998E+02-1.00160E-09 2.80986E-08 6.03476E-08 2.30155E-08-7.80160E-08
 -1      2889-1.99997E+02-7.81184E-04-8.00697E-04-6.44084E-04-5.50464E-05 6.61085E-04
 -1      2890-1.99998E+02-1.63336E-08-8.77478E-09-1.94314E-08 1.86075E-08 1.08810E-08
 -1      2891-1.99998E+02-1.58035E-08-1.02604E-08-1.39948E-08 2.13816E-08 7.04471E-09
 -1      2892-1.99998E+02-1.16265E-08-2.53248E-09-1.47681E-08 9.20742E-09 2.36071E-09
 -1      2893-1.99998E+02-9.46321E-09-5.56072E-09-8.76639E-09 1.04880E-08-1.05936E-09
 -1      2894-1.99998E+02 3.10616E-06 3.16611E-06 4.01558E-06-7.10972E-07-4.18321E-06
 -1      2895-1.99998E+02-2.15966E-12 7.58999E-12 1.33993E-11 1.37957E-12-1.26180E-11
 -1      2896-1.99998E+02 1.00375E-09-1.80813E-09 1.23118E-09-2.06614E-09-8.13766E-09
 -1      2897-1.99998E+02 9.87539E-10 1.26559E-09 2.17373E-10-3.01290E-10-2.31386E-10
 -1      2898-1.99998E+02 4.42950E-09 2.04615E-09-2.28023E-09-4.25567E-10 2.15707E-10
 -1      2899-1.99998E+02 4.66127E-06 4.73714E-06-3.74366E-06-2.47492E-06-3.66802E-06
 -1      2900-1.99998E+02-7.21403E-10 6.50792E-11 9.54629E-10 1.80194E-10-9.29689E-10
 -1      2901-1.99998E+02-2.62643E-09-5.34877E-09 5.73710E-09-1.23849E-09 3.69369E-09
 -1      2902-1.99985E+02 1.05230E-03 1.63302E-03-2.83242E-03 2.62804E-03-2.70530E-03
 -1      2903-1.99998E+02 4.71934E-06 4.65836E-06 3.59345E-06-2.31029E-06 3.79110E-06
 -1      2904-1.99998E+02-1.38606E-08-1.31443E-08-1.33979E-09 2.72028E-08-7.29955E-10
 -1      2905-1.99998E+02-1.33140E-08-1.33988E-08 9.10799E-10 2.69618E-08 1.39266E-09
 -1      2906-1.99998E+02 5.08451E-06 8.26263E-07 7.09202E-07-7.36565E-07 2.71277E-06
 -1      2907-1.99998E+02 2.04672E-06 8.52730E-07 3.02467E-06-3.41158E-07 1.22396E-06
 -1      2908-1.99998E+02-1.08624E-08-2.08317E-08-9.93339E-09 2.24787E-08 2.50342E-08
 -1      2909-1.99998E+02-6.37942E-09-1.00670E-08-3.12417E-09 2.34551E-08 1.30838E-08
 -1      2910-1.99998E+02-2.20677E-09-2.41956E-09 2.42266E-09 6.42376E-09 2.33506E-09
 -1      2911-1.99998E+02-3.06266E-10-1.08782E-10-1.33888E-09 1.25028E-09-2.73552E-09
 -1      2912-1.99998E+02-1.58640E-10-2.03999E-09-1.73458E-10 2.68676E-09-4.80374E-09
 -1      2913-1.99998E+02-1.63184E-09-1.69902E-09-1.04982E-09 5.42194E-09-1.06092E-09
 -1      2914-1.99998E+02 1.71147E-11 1.50364E-11 1.45448E-10 2.44123E-10 1.24158E-10
 -1      2915-1.99998E+02-2.00122E-09-2.98286E-10-4.72201E-09 2.89266E-09-3.05071E-10
 -1      2916-1.99998E+02-6.18183E-11-3.21494E-10-2.79809E-09 1.41487E-09-1.30208E-09
 -1      2917-1.99992E+02 6.77166E-03 3.54192E-03 1.26927E-03 3.64045E-03 2.24382E-03
 -1      2918-1.99991E+02 4.17276E-03 2.33449E-03 3.99402E-04 2.44338E-03 4.53690E-03
 -1      2919-1.99971E+02 1.13426E-02 9.13474E-03 7.61249E-04 1.07515E-03-2.80515E-04
 -1      2920-1.99998E+02-1.14840E-08-6.28584E-09-1.28977E-08 2.36627E-08 3.32080E-09
 -1      2921-1.99998E+02-2.18675E-08-1.06958E-08-2.49957E-08 2.27120E-08 1.01143E-08
 -1      2922-1.99991E+02 2.61699E-03 3.85124E-03 2.92757E-03 1.91196E-03-6.53496E-04
 -1      2923-1.99990E+02 4.23819E-03 6.90041E-03 1.13600E-03 3.43729E-03 2.14370E-03
 -1      2924-2.00425E+02 7.83098E-01 1.09857E+00 8.50513E-01-1.28781E-01 1.01509E+00
 -1      2925-2.02717E+02 1.03701E+00 1.05609E+00 6.76706E-01-1.00367E-01 6.77475E-01
 -1      2926-2.01648E+02 6.94802E-01 1.26208E+00 1.21497E+00-1.10994E-01 5.36575E-01
 -1      2927-1.98322E+02-3.25811E+01-3.11919E+01 2.05339E+00 2.22284E-01 4.29377E+00
 -1      2928-1.98438E+02-3.23742E+01-3.21825E+01 3.36654E+00-7.98651E-01-2.77744E+00
 -1      2929-1.91107E+02-3.67794E+01-4.05111E+01 7.96875E+00 2.08736E-01 1.20269E+00
 -1      2930-2.13404E+02-9.80218E+00-9.22675E+00 6.93225E-01-3.87704E-01 1.21318E+00
 -1      2931-1.91086E+02-3.86295E+01-3.70237E+01 6.33723E+00 6.68904E-01 8.22462E+00
 -1      2932-2.00010E+02-1.91526E-03-1.93942E-03-2.89952E-03-1.63997E-03 3.21272E-03
 -1      2933-1.99998E+02-4.15612E-11-5.31579E-11-2.96141E-11-1.00407E-10-1.05955E-10
 -1      2934-1.99998E+02 1.05816E-11-2.27281E-11-7.29072E-12-9.47629E-11-1.64932E-11
 -1      2935-1.99998E+02 7.53377E-11 2.23234E-11-3.84590E-11-5.33821E-11-3.02723E-11
 -1      2936-1.97939E+02-3.13881E+01-3.22497E+01-3.14449E+00 8.01210E-02 1.78595E-01
 -1      2937-2.00466E+02 9.32977E-01 7.43042E-01 9.69749E-01-8.29689E-02 8.95099E-01
 -1      2938-2.01594E+02 1.31458E+00 6.99808E-01 5.67893E-01-8.50673E-02 1.23553E+00
 -1      2939-1.99998E+02-2.23677E-09-2.58375E-09-2.39934E-09 6.49998E-09-2.29393E-09
 -1      2940-1.99998E+02 1.72572E-12-9.98140E-11-3.17080E-11-8.78009E-11 4.89721E-11
 -1      2941-1.99998E+02-3.59322E-11-2.11681E-10-9.24329E-11-5.86234E-11-9.15770E-13
 -1      2942-1.99998E+02-1.46322E-08-7.36013E-09-3.62269E-08-7.87513E-09-3.22458E-08
 -1      2943-1.99998E+02 1.16185E-08-4.29254E-09 1.01700E-08-6.35576E-09 2.89817E-08
 -1      2944-1.99998E+02 5.55062E-09 2.48252E-08 4.98714E-08 5.64321E-09-1.01406E-08
 -1      2945-1.99985E+02 1.83068E-03 1.49096E-03 2.64189E-03 2.50628E-03 2.83593E-03
 -1      2946-1.99998E+02-1.05271E-08-1.78381E-08 1.01616E-09 4.25501E-09-2.04316E-08
 -1      2947-1.99998E+02-4.93633E-09 7.32842E-09 3.36032E-09 9.14085E-10-2.23378E-09
 -1      2948-1.99998E+02-2.18510E-08-6.46129E-09 1.03655E-08-1.13676E-08 5.93328E-08
 -1      2949-2.01108E+02 8.02675E-01 8.23980E-01 6.84940E-01-9.77172E-02 6.42171E-01
 -1      2950-1.99998E+02 3.10077E-11-1.58160E-11-9.94926E-12-6.40493E-11-1.73366E-11
 -1      2951-1.99998E+02-3.66911E-12-6.67207E-12-3.81247E-13-1.79129E-12 4.32507E-12
 -1      2952-1.99998E+02 1.01284E-11 5.98099E-13-6.49728E-12-8.30123E-12 3.30842E-12
 -1      2953-1.99998E+02 6.69787E-14-8.81439E-12-1.88470E-12-8.30570E-12 1.92837E-12
 -1      2954-1.99998E+02-1.05886E-12 5.40845E-13 8.97758E-12-2.38518E-12 2.62875E-12
 -1      2955-1.99998E+02 3.24219E-12 5.28682E-12 3.43891E-12-1.00237E-11 2.01316E-12
 -1      2956-1.99998E+02-3.99146E-12-4.42351E-12 8.68463E-12-4.50270E-12-1.92717E-12
 -1      2957-1.99998E+02 5.00563E-11 7.14732E-11-7.82662E-10 2.39666E-10 8.08445E-10
 -1      2958-1.99998E+02-6.68653E-11-4.89645E-11-3.49075E-10 9.60766E-11 5.70639E-10
 -1      2959-1.99998E+02 6.01302E-11-2.09115E-10-1.03588E-09 1.04334E-09 1.89161E-09
 -1      2960-1.99998E+02-1.55588E-10-3.90212E-11-1.18196E-09 8.19779E-10 7.66524E-10
 -1      2961-1.99998E+02-2.80406E-10 7.74599E-12-1.92503E-09 1.14790E-09 1.12260E-09
 -1      2962-1.99998E+02-6.19013E-12-7.02352E-12-4.05257E-12-4.04143E-12 1.50675E-12
 -1      2963-1.99998E+02 8.53184E-12-6.70684E-12-1.58346E-11-6.24225E-12 4.26511E-12
 -1      2964-1.99998E+02-8.88234E-12-9.86143E-12-4.33489E-12-4.58578E-12 1.74285E-12
 -1      2965-1.99998E+02-2.43948E-12-1.50502E-11-4.32276E-12-3.12966E-12 1.44714E-14
 -1      2966-1.99998E+02-3.28621E-10 4.27189E-10 1.07496E-09-3.05381E-10-3.86316E-10
 -1      2967-1.99998E+02 1.43420E-10-1.18833E-10 3.23730E-10-1.16495E-11-3.98732E-10
 -1      2968-1.99998E+02-3.02104E-10-1.84516E-09-2.01612E-10 3.94752E-10-2.89978E-10
 -1      2969-2.01116E+02 2.46739E+00 1.24027E+00-1.04412E+00-9.17993E-02 2.34218E+00
 -1      2970-2.06790E+02 5.61209E-01 6.62510E-01-9.98047E-01-3.77622E-01 8.73153E-01
 -1      2971-2.05773E+02-2.60056E+00-2.71429E+00-6.62063E-01 1.13350E+00 6.07036E-01
 -1      2972-1.91652E+02-3.94414E+01-3.67853E+01-1.60615E+00-8.34097E-01 8.53056E+00
 -1      2973-1.90957E+02-3.68684E+01-3.83971E+01-7.24387E+00-4.62184E-01 3.60791E+00
 -1      2974-1.99998E+02 7.00927E-09-1.70689E-08 1.46019E-08-2.98016E-09-4.44140E-08
 -1      2975-1.99998E+02-1.41770E-08-1.24703E-08 5.62538E-09 2.23020E-08 9.45843E-08
 -1      2976-2.06652E+02 6.84692E-01 5.96322E-01 9.14952E-01-3.61032E-01-1.01074E+00
 -1      2977-2.01116E+02 1.23850E+00 2.32079E+00 2.30779E+00-5.52118E-02-9.63611E-01
 -1      2978-2.05675E+02-2.65924E+00-2.65631E+00 5.79330E-01 1.20469E+00-5.99786E-01
 -1      2979-2.00970E+02 5.54897E-01 5.57017E-01-1.70107E-01 1.75880E-02 1.94512E-01
 -1      2980-2.00018E+02 4.28281E-01 4.94699E-02-9.31210E-02 5.45089E-03 1.91760E-01
 -1      2981-2.00774E+02 7.84978E-01 3.84119E-01 3.17686E-02-6.14638E-03 3.90637E-01
 -1      2982-2.02184E+02 8.89797E-01 9.22789E-01-6.53542E-01 1.74639E-01 6.45204E-01
 -1      2983-2.00490E+02 9.60542E-01 5.49551E-01-5.00174E-01 1.06658E-01 7.15325E-01
 -1      2984-2.00794E+02 6.44780E-01 6.55196E-01-6.53391E-01 5.37042E-02 6.57420E-01
 -1      2985-1.99998E+02-7.26380E-12-2.92335E-12-3.55166E-11 3.10575E-11-1.30696E-11
 -1      2986-1.99998E+02-2.89600E-11-1.84623E-11-3.99027E-12 1.81036E-10-2.64407E-11
 -1      2987-1.99998E+02 3.49775E-11 1.06716E-11-5.95783E-11 1.40483E-10-1.82233E-11
 -1      2988-1.99998E+02 4.77613E-11 1.11350E-11-1.94064E-10 1.90126E-10-1.18660E-10
 -1      2989-1.99998E+02-1.21509E-11-1.29236E-14-1.27848E-10 4.37792E-10-1.50480E-10
 -1      2990-1.99998E+02 1.11052E-11 3.13456E-11-1.35278E-10 2.27951E-10-1.55817E-10
 -1      2991-1.99998E+02-2.64684E-10-2.01127E-10-7.39302E-10 3.57105E-11 4.53256E-10
 -1      2992-1.99998E+02 6.08704E-10-3.62166E-10 6.27862E-10-6.15786E-11-3.03590E-10
 -1      2993-1.99998E+02 1.69213E-09 9.64634E-11-1.36439E-09 3.55620E-10 3.20000E-10
 -1      2994-1.99998E+02 2.70620E-12-2.19463E-13-5.30322E-12 1.59316E-10-7.89264E-11
 -1      2995-1.99998E+02-2.08008E-12-5.31888E-12-4.85919E-12 3.67763E-11-6.14958E-11
 -1      2996-1.99998E+02-1.61616E-12 3.55536E-11-9.56477E-11 2.19450E-10-2.31656E-10
 -1      2997-2.11232E+02-1.75112E+01-1.13905E+01 3.78080E-01-7.85396E-01 4.96299E+00
 -1      2998-1.99998E+02 1.94537E-10-1.97711E-10 4.75173E-10 1.45779E-09-2.74737E-09
 -1      2999-1.99998E+02-2.66623E-10-2.92744E-10 8.56313E-10 4.90438E-09-8.47821E-10
 -1      3000-1.99998E+02-3.39582E-10-5.94884E-10 1.82264E-10 3.81550E-09-2.93873E-09
 -1      3001-1.99998E+02-9.86428E-10-2.63362E-09 3.34627E-09 4.31726E-09-7.30865E-09
 -1      3002-1.99998E+02-1.28730E-09-1.33474E-09 4.03928E-09 9.10750E-09-4.05154E-09
 -1      3003-1.99998E+02-1.32304E-09-1.34631E-09 4.91006E-09 5.64870E-09-4.93167E-09
 -1      3004-2.01382E+02 7.13280E-01 1.32933E+00-1.19071E+00-8.76421E-02-5.68182E-01
 -1      3005-2.02581E+02 1.01301E+00 1.01423E+00-6.49101E-01-1.11709E-01-6.61996E-01
 -1      3006-2.00878E+02 6.42990E-01 1.31728E+00-7.77565E-01 7.88064E-03-1.02303E-01
 -1      3007-2.00051E+02 1.90006E-01 9.40723E-01-5.38536E-01 8.57298E-03-2.92955E-01
 -1      3008-2.00967E+02 5.96208E-01 5.83943E-01-2.40684E-01-1.09278E-02-2.52240E-01
 -1      3009-2.00970E+02 7.62938E-01 7.68597E-01-7.16620E-01-1.37458E-01-7.38699E-01
 -1      3010-1.99998E+02-1.78422E-10 1.42323E-10 2.76256E-09 1.45896E-09-4.79270E-10
 -1      3011-1.99998E+02-5.27355E-10-3.97301E-10 2.95105E-09 3.79501E-09-2.04954E-10
 -1      3012-1.99998E+02-2.58678E-09-1.01375E-09 7.28806E-09 4.31575E-09-3.37410E-09
 -1      3013-1.99998E+02 2.53646E-11 9.06523E-12-7.20293E-11 5.36084E-11-3.02817E-11
 -1      3014-1.99998E+02 4.33151E-11 4.16639E-12-2.57337E-10 1.94987E-10-1.64167E-10
 -1      3015-1.99998E+02-4.38987E-13 2.82664E-11-2.42044E-11 5.10201E-11-9.01229E-11
 -1      3016-1.99998E+02-1.41797E-12 1.75548E-11-1.56175E-10 1.97139E-10-2.80940E-10
 -1      3017-2.01414E+02 1.29841E+00 7.19752E-01-5.41612E-01-9.23201E-02-1.18852E+00
 -1      3018-2.00926E+02 1.26620E+00 5.87290E-01-1.70450E-02 7.41422E-03-8.04009E-01
 -1      3019-2.00055E+02 9.29300E-01 1.79986E-01-2.88752E-01 7.01785E-03-5.29756E-01
 -1      3020-1.99998E+02 1.83116E-11-3.67185E-11-1.93540E-11-1.19870E-11 1.49109E-11
 -1      3021-1.99998E+02 1.64914E-12-2.74378E-11 1.18938E-12-1.12900E-11 1.93198E-11
 -1      3022-1.99998E+02 1.71687E-12-1.64598E-12 8.88283E-11 1.80677E-11 8.02237E-11
 -1      3023-1.99998E+02-1.32863E-10-1.64112E-10 2.55063E-09 1.93140E-10 2.27182E-09
 -1      3024-1.99998E+02-4.89275E-12-1.77141E-12 9.50999E-12-5.80050E-12-3.31323E-12
 -1      3025-1.99570E+02 4.01514E-01 1.73240E-01-4.22885E-01 4.47708E-02 1.91854E-01
 -1      3026-2.00136E+02 9.61729E-01 8.50391E-01-1.04378E+00 7.96568E-02 7.73510E-01
 -1      3027-1.99998E+02 2.32440E-11 4.07219E-11 3.86422E-11 2.72684E-10 2.28192E-10
 -1      3028-1.99998E+02 3.04550E-11 5.44654E-11 1.69351E-10 3.23871E-10 3.68650E-10
 -1      3029-2.00011E+02-3.47086E-03-3.12555E-03-4.34185E-03 2.24557E-03-4.39289E-03
 -1      3030-1.99998E+02-7.37500E-10-1.27084E-09-3.15464E-10 3.78389E-09 3.21064E-09
 -1      3031-1.99998E+02-1.94621E-10-9.08223E-10 6.94639E-10 1.62366E-09 2.62549E-09
 -1      3032-1.99994E+02-3.71785E-03-5.20345E-04 8.67423E-04-1.06278E-03-4.44386E-03
 -1      3033-1.99981E+02-1.81891E-03-1.67560E-03 3.69875E-03-2.64661E-03-3.72530E-03
 -1      3034-1.99983E+02 4.41653E-03 2.68529E-03 3.50017E-03-1.02533E-03-1.26485E-03
 -1      3035-1.99998E+02-4.82231E-09 1.43483E-09-8.51470E-09-3.35129E-10-5.41676E-10
 -1      3036-1.99998E+02 1.12116E-11 1.01952E-11 9.86016E-11 7.26162E-11-4.96333E-11
 -1      3037-1.99998E+02 1.28881E-11 1.48265E-11 5.36885E-11 2.38484E-10-3.21542E-11
 -1      3038-1.99998E+02-4.86270E-11-2.52348E-11 2.33157E-10 3.64647E-10 4.74553E-11
 -1      3039-1.99998E+02-7.59943E-10-1.43075E-10 2.68540E-09 1.70661E-09 7.36175E-10
 -1      3040-1.99998E+02-1.20462E-09-7.92667E-10-3.18877E-09 3.79455E-09 3.65184E-10
 -1      3041-1.99998E+02-8.52068E-10-2.18423E-10-2.62957E-09 1.65668E-09-6.41389E-10
 -1      3042-2.00802E+02 3.44415E-01 6.81416E-01 3.92014E-01 2.55273E-02 3.16144E-02
 -1      3043-2.00066E+02 8.32698E-02 4.47453E-01 1.72127E-01-2.11263E-02 1.03927E-01
 -1      3044-1.99987E+02 1.61126E-02 7.04036E-03 5.23440E-03 2.34959E-03-3.64779E-03
 -1      3045-1.99995E+02 5.80478E-04 7.52431E-04 1.91679E-03-1.85318E-03-6.55074E-03
 -1      3046-1.99987E+02 2.74556E-03 8.27421E-03-5.97070E-03-5.67963E-04-1.65613E-05
 -1      3047-1.99986E+02 1.00911E-02 1.95477E-02-3.24322E-03 3.77215E-03 5.64606E-03
 -1      3048-2.00033E+02 5.96416E-02 4.26024E-01-1.95156E-01 5.45763E-03 9.89336E-02
 -1      3049-2.00799E+02 3.62059E-01 7.79765E-01-3.94235E-01-1.28044E-02-4.76784E-03
 -1      3050-2.00479E+02 5.29057E-01 9.60700E-01-7.23936E-01 1.00386E-01 4.88726E-01
 -1      3051-1.99998E+02 4.40040E-11 4.75445E-11 4.06195E-10 2.96265E-10 1.59820E-10
 -1      3052-1.99998E+02 2.25841E-11 1.98799E-12 2.41871E-10 1.05525E-10-2.26412E-11
 -1      3053-1.99998E+02-6.58387E-11-1.10616E-10-2.46572E-09 2.26293E-10-2.17879E-09
 -1      3054-1.99998E+02-2.35203E-11-6.66994E-10 1.09466E-09 1.67168E-09-3.57087E-09
 -1      3055-1.99998E+02-1.40888E-09-2.47804E-09 4.89730E-09 4.33671E-09-8.78179E-09
 -1      3056-2.00099E+02 4.14836E-01 4.80321E-02 9.93655E-02-1.64655E-02 1.70745E-01
 -1      3057-1.99872E+02 4.61633E-02 4.61041E-02 8.44669E-02-2.90605E-03-8.40016E-02
 -1      3058-1.99933E+02 1.21794E-02 3.05392E-02 2.99224E-02-9.36165E-03-5.13401E-02
 -1      3059-1.99928E+02 2.20056E-02 6.00061E-02 1.46121E-03-6.14473E-03-6.51370E-02
 -1      3060-1.99998E+02 6.06810E-03 3.80056E-03 7.70408E-03-8.23869E-03 1.24505E-02
 -1      3061-1.99935E+02 6.41900E-02 2.34532E-02 7.05422E-02-3.98648E-03-3.92497E-03
 -1      3062-1.99998E+02 5.51831E-08 3.47153E-07-2.73273E-08 5.25616E-08-1.61049E-07
 -1      3063-1.99998E+02 3.97496E-08 9.73631E-08 1.65201E-08 4.89364E-08-1.17523E-07
 -1      3064-1.99998E+02 1.60541E-07 1.68258E-07-5.22645E-08 6.68042E-08-5.07272E-08
 -1      3065-1.99998E+02-7.80851E-10-1.04988E-10 3.69181E-09 1.72355E-09-1.10941E-09
 -1      3066-1.99998E+02-2.55477E-09-1.53225E-09 8.72348E-09 4.29328E-09-4.90725E-09
 -1      3067-2.00011E+02-3.08429E-03-2.57468E-03 3.82329E-03 2.15027E-03 4.07850E-03
 -1      3068-1.99998E+02 2.75327E-06 5.16741E-07-5.90530E-07-3.87498E-07-9.25469E-07
 -1      3069-2.00293E+02 8.16692E-01 9.66293E-01-8.25027E-01-5.88797E-02-1.02929E+00
 -1      3070-1.99665E+02 1.36224E-01 3.85461E-01-1.98997E-01-4.61211E-02-5.21136E-01
 -1      3071-1.99987E+02 8.09610E-03 2.99532E-03-4.95553E-05-2.98243E-04 5.91821E-03
 -1      3072-1.99987E+02 1.91286E-02 8.76733E-03-3.33406E-03 2.85667E-03 4.61381E-03
 -1      3073-2.00078E+02 5.88505E-02 4.29236E-01-1.84687E-01-1.44360E-02-1.26416E-01
 -1      3074-1.99994E+02-7.07075E-04-3.68867E-03 4.49370E-03-9.58950E-04-8.57146E-04
 -1      3075-1.99982E+02 2.79340E-03 5.12977E-03 1.08209E-03-8.37324E-04-3.25980E-03
 -1      3076-1.99998E+02 5.24174E-07 2.82947E-06-9.08587E-07-3.89903E-07-5.98806E-07
 -1      3077-1.99997E+02-2.08265E-03-1.15601E-03-6.83688E-04-1.96184E-04 1.41464E-03
 -1      3078-1.99998E+02-3.51574E-12-3.40784E-12 4.52270E-12-1.30170E-12-6.55020E-12
 -1      3079-1.99998E+02-1.88660E-13 2.03324E-12 1.01121E-11-4.53095E-12-5.41253E-12
 -1      3080-1.99998E+02-8.09111E-12 1.70434E-12 1.36762E-11-5.08725E-12-6.65745E-12
 -1      3081-1.99998E+02-4.07377E-14 6.23813E-12 7.48523E-12-1.48018E-12-3.98107E-12
 -1      3082-1.99998E+02-3.62961E-12 5.83776E-12 7.53612E-12-3.18805E-12-4.39470E-12
 -1      3083-1.99998E+02-3.08669E-12 1.40149E-12 3.22600E-12-9.23097E-13-4.26105E-12
 -1      3084-1.99998E+02-1.50694E-13 2.24764E-12 4.88730E-12 8.04243E-13-3.96533E-12
 -1      3085-1.99998E+02-1.22381E-11-1.19481E-13 1.14155E-11-2.46237E-12-3.40873E-12
 -1      3086-1.99998E+02-8.30889E-12-9.22545E-13 8.91644E-12-9.47475E-13-3.93192E-12
 -1      3087-1.99998E+02-2.78953E-12-2.09039E-14 1.51664E-11-5.07973E-12-4.84655E-12
 -1      3088-1.99998E+02-4.08911E-12-2.17668E-12 1.28436E-11-7.11462E-12-4.17152E-12
 -1      3089-1.99998E+02-5.49937E-12 4.67228E-13 1.01070E-11-5.10561E-12-5.88267E-12
 -1      3090-1.99998E+02-4.49540E-12 2.11991E-12 6.99965E-12 1.44089E-12-2.46972E-12
 -1      3091-1.99998E+02-8.61822E-12-5.39658E-12 8.51109E-12-1.93242E-12-5.72399E-12
 -1      3092-1.99998E+02 5.52549E-13 5.95028E-13 7.54222E-12-3.25191E-13-2.78805E-12
 -1      3093-1.99998E+02-5.28720E-12-1.89178E-12 1.13309E-11-2.57240E-13-2.77691E-12
 -1      3094-1.99998E+02-2.75246E-12 1.89011E-12 1.09699E-11-1.09094E-12-3.32082E-12
 -1      3095-1.99998E+02 1.55897E-12-5.54648E-13 1.72690E-11 9.88185E-13-1.61696E-13
 -1      3096-1.99998E+02-5.13093E-12-2.53348E-12 1.45953E-11 3.74824E-13-4.54029E-12
 -1      3097-1.99998E+02-1.60532E-12-5.23137E-12 1.27182E-11-3.51554E-12-3.35548E-12
 -1      3098-1.99998E+02 8.17793E-12-3.08577E-12 7.18510E-12-1.85534E-12-3.45067E-12
 -1      3099-1.99998E+02 2.35325E-12-4.81983E-12 8.23614E-12-3.19021E-12-5.11720E-13
 -1      3100-1.99998E+02 2.50209E-13 3.18387E-12 8.35011E-12-3.47128E-12-6.18687E-12
 -1      3101-1.99998E+02-3.65770E-12 4.11221E-13 9.46220E-12-1.85565E-12-7.19548E-12
 -1      3102-1.99997E+02-1.12513E-03-2.19845E-03-1.37689E-03-1.84436E-04 7.04611E-04
 -1      3103-1.99998E+02-4.69901E-04-2.29137E-05 1.64062E-04 8.50932E-06 1.37224E-04
 -1      3104-1.99998E+02-7.08124E-05-5.12759E-04 1.40176E-04 3.38543E-05 1.80818E-04
 -1      3105-1.99998E+02-2.30449E-09-4.77913E-09 4.97376E-09 5.90900E-09-1.19083E-08
 -1      3106-1.99998E+02-4.71305E-09-2.32856E-09 1.18577E-08 5.89232E-09-5.01870E-09
 -1      3107-1.99998E+02 2.86472E-06 8.19115E-06 7.24961E-06-7.03255E-07-5.07164E-06
 -1      3108-1.99998E+02 8.22852E-06 2.79634E-06 5.10981E-06-7.75834E-07-7.38745E-06
 -1      3109-1.99998E+02-2.05318E-12 4.48157E-12 1.23425E-11-2.12790E-12-8.44531E-12
 -1      3110-1.99998E+02 5.86289E-14 3.06340E-12 6.83390E-12 1.12916E-12-3.84466E-12
 -1      3111-1.99998E+02 2.68396E-12 6.30610E-12 9.61940E-12-4.04940E-13-6.72259E-12
 -1      3112-1.99998E+02-6.13271E-13 4.76851E-12 1.07274E-11-2.43802E-12-5.08469E-12
 -1      3113-1.99998E+02-2.99172E-13 9.60231E-13 6.19131E-12 5.01360E-13-7.96326E-12
 -1      3114-1.99998E+02 1.19912E-12 3.25115E-12 1.16006E-11-5.98621E-12-6.80550E-12
 -1      3115-1.99998E+02-5.61245E-13 1.31234E-12 8.56955E-12-2.64905E-12-4.35441E-12
 -1      3116-1.99998E+02-1.93554E-12-1.90900E-12 7.60701E-12 6.08698E-13-1.30527E-12
 -1      3117-1.99929E+02 1.27434E-01 2.23373E-01 1.47087E-01 3.10639E-04-2.14788E-01
 -1      3118-1.99934E+02 2.23316E-01 1.33476E-01 2.13988E-01 3.61963E-03-1.43702E-01
 -1      3119-2.00010E+02 9.22143E-02 9.65662E-02 7.86771E-02-1.26154E-02-7.90603E-02
 -1      3120-1.99998E+02 5.10233E-07 2.78771E-06 9.07458E-07-3.72619E-07 6.21315E-07
 -1      3121-1.99997E+02-9.28998E-04-2.22844E-03 1.49559E-03-2.09888E-04-7.95291E-04
 -1      3122-1.99997E+02-2.30120E-03-9.00179E-04 7.88813E-04-2.25005E-04-1.46709E-03
 -1      3123-2.00805E+02 6.74065E-01 3.35790E-01-7.38705E-03 1.57707E-02-4.00889E-01
 -1      3124-2.00050E+02 4.43519E-01 9.25420E-02-1.25464E-01-1.95249E-02-1.87638E-01
 -1      3125-1.99998E+02 2.82798E-06 8.26143E-06-7.41298E-06-7.06279E-07 5.08164E-06
 -1      3126-1.99998E+02 2.80856E-06 5.32403E-07 6.11363E-07-3.60572E-07 9.34551E-07
 -1      3127-1.99987E+02 6.35784E-03 1.63331E-02 4.79398E-03 2.01917E-03-3.55414E-03
 -1      3128-1.99996E+02 1.59029E-04 1.52093E-04 6.95957E-03-1.53539E-03-2.07956E-03
 -1      3129-1.99998E+02-5.20085E-04-7.81182E-05-1.76345E-04 3.46046E-05-1.47233E-04
 -1      3130-1.99998E+02-2.56476E-05-4.81317E-04-1.40344E-04 9.98615E-06-1.68942E-04
 -1      3131-1.99998E+02 9.47381E-08 3.84647E-08 1.14289E-07 4.89916E-08-1.65225E-08
 -1      3132-1.99998E+02 3.37448E-07 5.67890E-08 1.55860E-07 5.36207E-08 2.89598E-08
 -1      3133-1.99998E+02 1.60676E-07 1.67067E-07 4.95642E-08 7.05721E-08 5.30365E-08
 -1      3134-1.99998E+02 1.17782E-06 1.31496E-06-2.42440E-06-2.47039E-07-2.37464E-06
 -1      3135-1.99998E+02-9.74572E-11-7.85466E-10-7.08100E-10 1.69469E-09-2.64056E-09
 -1      3136-1.99998E+02-1.36009E-08-5.33848E-09 3.13146E-08 1.00824E-08-1.72543E-08
 -1      3137-1.99998E+02-1.41582E-08-1.37782E-08 1.97247E-08 2.50006E-08-1.96364E-08
 -1      3138-1.99998E+02-2.13333E-08-1.66221E-08 2.39143E-08 3.13600E-08-2.17622E-08
 -1      3139-1.99998E+02 4.24816E-12-3.98123E-12 1.45599E-11 8.59575E-13-4.35250E-12
 -1      3140-1.99998E+02 3.23466E-13 2.91530E-13 5.00927E-12-1.03144E-12 4.13999E-13
 -1      3141-1.99999E+02-1.48949E-04-1.70472E-04 5.72875E-04 2.84756E-05 5.82258E-04
 -1      3142-2.01109E+02 1.31857E+00 7.67108E-01-5.71596E-01 5.48906E-02 1.17496E+00
 -1      3143-1.99998E+02-1.36871E-08-5.19583E-09-3.11389E-08 1.01421E-08 1.70790E-08
 -1      3144-1.99998E+02-1.29934E-08-1.27333E-08-1.97654E-08 2.46471E-08 2.00041E-08
 -1      3145-1.99998E+02-1.99238E-08-1.43854E-08-2.42397E-08 3.05645E-08 2.29044E-08
 -1      3146-1.99999E+02-2.91133E-04-3.02892E-04-4.38468E-04-1.67189E-05 4.67734E-04
 -1      3147-1.99998E+02 8.26047E-06 2.83728E-06-5.16644E-06-6.68291E-07 7.31578E-06
 -1      3148-1.99998E+02-5.31853E-09-1.36277E-08 1.71829E-08 1.02304E-08-3.14904E-08
 -1      3149-1.99998E+02-1.74470E-08-2.08898E-08 2.22069E-08 3.15256E-08-2.40098E-08
 -1      3150-1.99998E+02-5.25090E-09-1.35061E-08-1.69112E-08 1.01345E-08 3.10875E-08
 -1      3151-1.99998E+02-1.49961E-08-1.91843E-08-2.27834E-08 3.03322E-08 2.46586E-08
 -1      3152-1.89957E+02-2.40076E+01-4.38871E+01-1.85866E+01-7.76005E-01 9.86156E-01
 -1      3153-1.82518E+02-1.59476E+01-3.79465E+01-1.32139E+01 5.76050E-01 7.84481E+00
 -1      3154-2.06852E+02-7.46784E+00-2.14877E+01-5.87629E+00 3.62605E-01 5.17284E-01
 -1      3155-2.07494E+02-7.82344E+00-1.73517E+01-4.38900E+00 3.44103E-01 4.56473E+00
 -1      3156-1.93159E+02-3.75657E+01-3.92315E+01-1.56289E+01 2.83806E-01 7.56548E+00
 -1      3157-1.99999E+02-3.32457E-04-3.26688E-04 4.64575E-04-3.60993E-05-4.58765E-04
 -1      3158-1.99998E+02 1.30203E-06 1.08265E-06 2.44480E-06-2.63130E-07 2.47156E-06
 -1      3159-1.99604E+02 1.72108E-01 4.44246E-01-2.02181E-01 6.53687E-02 4.41325E-01
 -1      3160-2.00113E+02 8.49561E-01 1.00506E+00-7.67574E-01 8.87682E-02 1.02421E+00
 -1      3161-2.00000E+02-1.52096E-04-1.65349E-04-5.91628E-04 2.95677E-05-5.87622E-04
 -1      3162-1.99998E+02 1.06259E-11 4.06160E-13-7.34761E-13-1.55633E-11 1.12925E-11
 -1      3163-1.99998E+02 1.94059E-12-1.96772E-14 9.15546E-12-9.50193E-12 5.80447E-12
 -1      3164-1.99998E+02-5.40071E-12 3.29241E-13 9.88625E-12-7.84240E-12 4.48785E-12
 -1      3165-1.99998E+02-5.29882E-12-4.28254E-12 6.63356E-12-9.61906E-12 6.15278E-12
 -1      3166-1.99998E+02 9.40950E-11 8.54884E-11-1.00810E-10 1.68031E-10 3.06361E-10
 -1      3167-1.99998E+02 1.84367E-10 2.16744E-10-2.24643E-10 1.08213E-09 2.44888E-10
 -1      3168-1.99998E+02 6.06835E-11 2.11799E-10-2.22031E-10 7.64372E-10 5.38471E-10
 -1      3169-1.99998E+02 3.72539E-11-2.64201E-10-7.05987E-10 7.70236E-10 1.23825E-09
 -1      3170-1.99998E+02 8.20687E-11 5.52642E-11-1.06033E-09 2.05577E-09 1.17556E-09
 -1      3171-1.99998E+02-6.03451E-11-6.32467E-11-7.90958E-10 1.12887E-09 8.40191E-10
 -1      3172-2.00267E+02 1.15517E+00 8.53630E-01-1.07111E+00-9.13473E-02-7.84971E-01
 -1      3173-1.99641E+02 3.75111E-01 1.26799E-01-5.16533E-01-3.43266E-02-1.88373E-01
 -1      3174-1.99998E+02-8.46511E-09-8.60221E-09-4.58625E-09 6.16407E-09-4.89606E-09
 -1      3175-1.99998E+02-8.68131E-09-8.25922E-09 4.99669E-09 6.07876E-09 4.30070E-09
 -1      3176-1.99998E+02-7.82734E-12 5.66414E-13 2.38085E-11-3.02770E-12-1.09002E-12
 -1      3177-1.99998E+02-2.76065E-12-2.15517E-12 1.62560E-11-1.44491E-12-3.64806E-13
 -1      3178-1.99998E+02 2.94130E-12 6.73964E-12 8.56968E-12-6.09208E-13-2.21837E-12
 -1      3179-1.99998E+02-4.97748E-12 2.21758E-12 8.23494E-12 5.57359E-13-4.83104E-12
 -1      3180-1.99998E+02-5.56561E-13 1.39543E-12 5.37681E-12 1.33336E-12-1.18201E-11
 -1      3181-1.99998E+02 1.43964E-12-4.09594E-12 2.47024E-12-1.16091E-12-9.17778E-12
 -1      3182-1.99998E+02-3.68924E-12-3.15303E-12 5.45584E-12-8.24375E-13 9.58947E-13
 -1      3183-1.99998E+02-1.79029E-13-7.06533E-12 8.96313E-12-2.79739E-12 1.07439E-12
 -1      3184-1.99998E+02 1.70006E-06 1.77128E-06 2.78347E-06 2.62595E-07-2.86195E-06
 -1      3185-1.99998E+02-1.85363E-08-1.65442E-09 3.84237E-08 2.73557E-08-1.62046E-08
 -1      3186-1.99998E+02-2.50959E-08-4.83290E-09 4.74317E-08 1.29977E-08-2.68526E-08
 -1      3187-1.99998E+02-1.95753E-08-1.02947E-09-3.97474E-08 2.61292E-08 1.55178E-08
 -1      3188-1.99998E+02-2.52735E-08-5.47164E-09-4.68711E-08 1.36554E-08 2.53024E-08
 -1      3189-1.99998E+02 4.67050E-11-1.42036E-10-2.24187E-10-1.45763E-12 9.66332E-11
 -1      3190-1.99998E+02 1.86532E-10 8.30316E-11-5.93506E-11-4.64210E-12 1.58490E-11
 -1      3191-1.99998E+02 2.55197E-11-8.61038E-11-3.82762E-11-9.08767E-12 3.56531E-11
 -1      3192-1.99998E+02 3.47264E-11 3.92941E-12-9.85833E-12-1.57360E-11 4.84403E-12
 -1      3193-1.99998E+02 1.12523E-10-1.88241E-11-1.14205E-10 2.83989E-11 3.04202E-11
 -1      3194-1.99998E+02 1.71145E-06 1.78002E-06-2.81529E-06 2.65722E-07 2.85665E-06
 -1      3195-1.99998E+02-2.58156E-09-1.83699E-08 1.67014E-08 2.76683E-08-3.86319E-08
 -1      3196-1.99998E+02-5.79854E-09-2.63393E-08 2.73769E-08 1.38033E-08-4.79941E-08
 -1      3197-2.01013E+02 7.84685E-01 1.35502E+00-1.18787E+00 6.59588E-02 5.55018E-01
 -1      3198-1.99998E+02-1.27801E-09-1.69353E-08-1.51706E-08 2.59065E-08 3.98939E-08
 -1      3199-1.99998E+02-5.47933E-09-2.38483E-08-2.48280E-08 1.33202E-08 4.66658E-08
 -1      3200-1.99990E+02 8.41676E-03 9.63351E-03 5.05470E-03-8.90436E-03-5.34759E-03
 -1      3201-2.00001E+02 4.24767E-03 5.16132E-03-9.32668E-03-5.86367E-03-6.39310E-03
 -1      3202-1.99998E+02 4.50890E-10-1.20726E-09-1.45384E-09-2.01533E-10 1.77409E-09
 -1      3203-1.99998E+02-6.67267E-10-3.76488E-10-1.16395E-10 4.48965E-11 1.65325E-10
 -1      3204-2.03910E+02-3.22432E+00-4.71656E+00-1.08628E+00 8.95410E-01-9.79661E-02
 -1      3205-2.05203E+02-4.91053E-01 1.18903E+00-1.84131E+00 1.24905E-01-1.85053E-01
 -1      3206-2.01028E+02 1.11044E+00 2.45540E+00-2.30427E+00-6.39860E-02 9.85489E-01
 -1      3207-1.99998E+02 3.81354E-08 4.05636E-08-3.09685E-09 1.18795E-08 2.07979E-08
 -1      3208-1.99998E+02-5.01248E-08-1.07846E-08 4.10616E-08 1.35724E-08-1.13548E-08
 -1      3209-1.99998E+02-2.60510E-08-5.20604E-08 2.53097E-08-3.08260E-08-6.82919E-08
 -1      3210-1.99998E+02 2.09561E-08-1.27389E-08 8.16872E-08 1.11005E-08 8.33019E-08
 -1      3211-1.99998E+02 5.03768E-09 5.91433E-09 8.52758E-09 2.44538E-09-4.39901E-09
 -1      3212-2.00081E+02 2.19745E-01 2.27500E-01 1.27277E-01 1.52110E-02-1.21307E-01
 -1      3213-1.99946E+02 1.73800E-01 1.15941E-01 8.86365E-02-4.72049E-03-5.32900E-02
 -1      3214-1.99995E+02 6.17550E-02 6.37860E-02 1.07903E-02 8.46130E-03-1.00317E-02
 -1      3215-2.05337E+02-3.76153E+00-6.27249E+00-1.09072E+00 9.72925E-02-8.36362E-02
 -1      3216-2.04133E+02-6.88878E+00-1.18588E+01 1.40939E+00-7.33189E-01 1.71961E+00
 -1      3217-2.03677E+02-3.31616E+00-4.80544E+00-1.00805E+00-1.06943E+00 3.71713E-01
 -1      3218-1.99998E+02 1.58773E-08 2.60843E-08-1.23068E-08-1.40870E-08 2.75615E-08
 -1      3219-1.99998E+02 1.70192E-08 2.78089E-08-1.34074E-08-8.16102E-09-6.41240E-08
 -1      3220-1.99998E+02-1.15890E-08-8.03616E-09 2.98606E-10 3.83774E-09-2.44085E-09
 -1      3221-1.99998E+02-3.90065E-09-3.09348E-09-8.26071E-10-2.93951E-09 3.33965E-09
 -1      3222-2.03152E+02-5.92080E+00-1.17981E+01 5.08927E-01 5.64455E-01-1.10029E+00
 -1      3223-1.99998E+02-1.30863E-09-5.69175E-10-1.12712E-09-1.22643E-09-2.52238E-09
 -1      3224-1.99998E+02-6.17795E-10 2.12322E-09 2.74614E-10-6.54635E-10-4.11999E-10
 -1      3225-1.99998E+02-3.67546E-09-7.01584E-09-3.37191E-09 3.76263E-10-5.39556E-09
 -1      3226-1.99998E+02 1.82772E-10-2.05952E-09-6.00582E-10 2.65849E-10-1.12115E-09
 -1      3227-1.99998E+02 2.34000E-10 4.10051E-10 8.31433E-10 2.32819E-11-1.55014E-10
 -1      3228-1.99998E+02-2.77729E-10-3.20369E-10-4.28977E-10-1.94011E-10-2.43612E-10
 -1      3229-1.99998E+02 9.57204E-10-2.93818E-10-5.62233E-10-5.34805E-10 1.87815E-10
 -1      3230-1.99998E+02 4.54979E-11 2.06807E-11-2.13992E-10 2.62051E-10-3.44036E-11
 -1      3231-1.99998E+02 8.34845E-11 3.48361E-11-3.55308E-10 2.99338E-10-1.73329E-10
 -1      3232-1.99994E+02-1.68959E-03-2.38646E-03 1.44531E-05-1.94446E-04 2.51095E-03
 -1      3233-1.99994E+02-2.35628E-03-1.69832E-03-2.48604E-03-2.28677E-04-8.75216E-06
 -1      3234-2.03733E+02-4.73919E+00-3.28466E+00-2.98679E-01 9.82171E-01-1.04942E+00
 -1      3235-2.05167E+02 1.15350E+00-4.62897E-01-1.16622E-01 1.46486E-01-1.84254E+00
 -1      3236-2.01008E+02 2.41338E+00 1.16804E+00 9.64639E-01-7.09919E-02-2.27805E+00
 -1      3237-2.05002E+02-5.98837E+00-3.57670E+00 1.23398E-01 1.31931E-01-1.14109E+00
 -1      3238-2.03651E+02-4.90442E+00-3.22360E+00 3.80522E-01-1.03873E+00-1.04833E+00
 -1      3239-2.04205E+02-1.21475E+01-6.83377E+00 1.68930E+00-6.92304E-01 1.25789E+00
 -1      3240-1.99998E+02 5.76851E-12-3.60036E-11-1.81701E-11-5.55252E-12 1.61077E-11
 -1      3241-1.99998E+02 1.04809E-11-4.14670E-12-4.97861E-11 2.80562E-10 2.98936E-10
 -1      3242-1.99998E+02 5.06150E-11 3.94832E-11-8.10628E-11 4.52807E-10 1.00635E-10
 -1      3243-1.99998E+02 3.29116E-11 5.27162E-12-5.32606E-11 1.63426E-10 1.68688E-10
 -1      3244-1.99998E+02-6.10616E-10-2.46548E-09-1.44646E-09 2.38937E-09 6.35439E-09
 -1      3245-1.99998E+02-2.29502E-10-2.95739E-10-1.40951E-09 5.04540E-09 1.53317E-09
 -1      3246-1.99998E+02-2.67249E-11-6.73470E-10-9.03216E-10 1.38798E-09 3.19912E-09
 -1      3247-1.99998E+02-5.60506E-12-6.69889E-12 1.34997E-11-4.73803E-12-4.59003E-12
 -1      3248-1.99998E+02-4.44457E-12-1.32856E-12 7.79809E-12-3.75164E-12-2.96461E-12
 -1      3249-1.99998E+02-8.74745E-12 1.81166E-12 1.06448E-11-7.66321E-12-1.43778E-13
 -1      3250-1.99998E+02 1.24114E-13 3.24299E-12 6.90789E-12-3.39841E-12 5.91725E-13
 -1      3251-1.99998E+02 3.54738E-14 1.93976E-12 9.77912E-12-3.61028E-12 2.43793E-13
 -1      3252-1.99998E+02-2.33589E-09-6.39664E-10-6.26913E-09 2.44178E-09 1.57357E-09
 -1      3253-1.99998E+02-6.11899E-10-7.66702E-11-3.13194E-09 1.41266E-09 9.61089E-10
 -1      3254-1.99998E+02 4.34504E-12 1.79428E-11-2.89680E-10 2.80994E-10 4.64797E-11
 -1      3255-1.99998E+02 1.34747E-11 3.34793E-11-1.53936E-10 1.67690E-10 5.46467E-11
 -1      3256-1.99998E+02-3.09609E-10-1.81204E-10-1.83166E-10-2.76228E-10-2.46163E-10
 -1      3257-1.99998E+02-2.37575E-11-4.02055E-11 3.22795E-11-1.08771E-11 6.82194E-11
 -1      3258-1.99998E+02 5.33013E-12 1.12999E-11 5.25719E-11 7.50271E-11-8.77287E-11
 -1      3259-1.99998E+02-3.39444E-11-4.26830E-11-4.81317E-11 3.57105E-10-2.14352E-10
 -1      3260-1.99998E+02 3.45959E-12 3.60286E-11 3.32657E-11-2.07261E-11-1.15882E-11
 -1      3261-1.99998E+02 1.48208E-11 1.18986E-10 3.81327E-11-2.43119E-11-8.11503E-12
 -1      3262-1.99998E+02 7.91760E-12 2.05304E-10 8.69582E-11 8.99564E-12 3.80288E-11
 -1      3263-1.99998E+02-1.48152E-11 5.35171E-11 9.63939E-11-4.05359E-12 2.51718E-11
 -1      3264-1.99998E+02-1.17656E-11 7.71450E-11 5.72475E-11 8.23932E-12 1.20382E-11
 -1      3265-2.02940E+02-1.12522E+01-5.96098E+00-1.02692E+00 6.17021E-01 4.90594E-01
 -1      3266-1.99998E+02 1.94884E-14-3.47118E-12 1.77482E-11-4.38265E-12-4.76013E-12
 -1      3267-1.99998E+02 1.52984E-13 3.93267E-12 1.28954E-11-4.84385E-12-2.73758E-12
 -1      3268-1.99998E+02-2.04502E-12-2.29904E-12 1.42508E-11-4.83634E-12-2.30953E-12
 -1      3269-1.99998E+02 1.12114E-12 3.71461E-12 9.67258E-12-2.57291E-12-3.47928E-12
 -1      3270-1.99943E+02 1.11784E-01 1.76081E-01 5.53521E-02-6.95249E-03-8.89078E-02
 -1      3271-1.99998E+02 5.66322E-11-6.63866E-11-1.73112E-10 4.13046E-11 7.77798E-12
 -1      3272-1.99998E+02 9.38653E-12-2.62600E-11 1.62638E-11 7.61234E-13-3.72175E-11
 -1      3273-1.98852E+02 1.87920E-01 1.92920E-01 4.66364E-01-5.68954E-02 4.68048E-01
 -1      3274-2.00068E+02 9.82728E-01 2.01720E-01 3.36177E-01-7.85997E-03-5.83713E-01
 -1      3275-2.00060E+02 4.66017E-01 1.01349E-01 1.59626E-01 2.01186E-02-2.13931E-01
 -1      3276-2.01037E+02 5.84663E-01 5.81739E-01 2.94646E-01 2.50562E-02-2.78321E-01
 -1      3277-1.99993E+02 1.34314E-02 4.47995E-03 1.94206E-03-2.67905E-03 6.54955E-03
 -1      3278-2.00092E+02 1.90970E-01 9.76009E-01 5.60005E-01-1.18160E-02-3.21773E-01
 -1      3279-2.00060E+02 9.53333E-02 4.70909E-01 2.11259E-01 1.90577E-02-1.62661E-01
 -1      3280-1.99992E+02 4.20649E-03 1.43467E-02-7.12217E-03-2.63958E-03-7.93684E-04
 -1      3281-2.03101E+02-4.21295E+00-5.34067E+00 2.75218E-01 7.75145E-01-6.73490E-01
 -1      3282-2.04582E+02-6.20009E+00-4.78585E+00 9.07834E-01 9.37303E-01-2.93790E-01
 -1      3283-1.93573E+02 2.83032E-01-1.40119E-03-1.54835E+00 9.75725E-01 1.67815E+00
 -1      3284-2.00125E+02 4.73509E-02 1.54534E-01-2.14306E+00 6.88487E-01 1.79475E+00
 -1      3285-1.99973E+02 2.26218E-01 3.77998E-01-1.70437E+00 9.52505E-01 2.17812E+00
 -1      3286-1.99998E+02 5.17683E-09 1.26775E-08-2.18270E-09 4.61078E-11-4.30577E-10
 -1      3287-1.99998E+02-2.03077E-09-9.90908E-10 1.64802E-09-9.83517E-10-1.14626E-09
 -1      3288-1.99998E+02-2.33844E-11 2.34484E-09-1.47469E-09 4.28985E-10-1.22867E-09
 -1      3289-1.99998E+02-3.85975E-09 2.95715E-09 1.65015E-09 2.31242E-09 8.94080E-10
 -1      3290-1.99998E+02-1.72187E-09-4.30314E-09-2.59952E-09-4.88032E-10 9.69809E-10
 -1      3291-1.99998E+02-3.21100E-10-1.10381E-09-6.03226E-10-1.38832E-10 1.02876E-09
 -1      3292-1.99998E+02-1.71106E-10-1.01492E-09 3.56712E-10 2.06655E-10-4.22943E-10
 -1      3293-1.99998E+02 2.66401E-09 1.21656E-09-3.87719E-10 1.09360E-09-2.58526E-09
 -1      3294-1.99998E+02 1.45215E-10-3.29507E-10-5.87824E-10 2.22666E-11-5.33642E-10
 -1      3295-1.84467E+02-1.92587E+01-4.03865E+01-1.58051E+01 2.15969E-02-7.88457E+00
 -1      3296-1.93418E+02-3.82635E+01-3.78389E+01-1.50575E+01-1.41099E-02-7.53096E+00
 -1      3297-2.08567E+02-6.31627E+00-1.74117E+01-5.52875E+00-3.95624E-01-4.78927E+00
 -1      3298-1.94060E+02-3.68095E+01-4.03287E+01-1.46653E+01-1.24214E-01-4.08602E-01
 -1      3299-1.99998E+02 3.71955E-08-5.55548E-09 1.21735E-08-1.89997E-08 2.37334E-08
 -1      3300-1.99998E+02 4.72926E-09 6.24957E-09-1.78010E-08 1.91941E-08 5.86398E-09
 -1      3301-1.99998E+02 3.91835E-12 8.91188E-12-7.46988E-11 1.34110E-11-7.80327E-11
 -1      3302-1.90740E+02-3.71416E+01-3.69398E+01 7.21159E+00-7.69668E-01-6.68490E+00
 -1      3303-2.11165E+02-1.17689E+01-1.79402E+01 5.17307E+00 5.16597E-01-2.24775E-02
 -1      3304-2.01705E+02 1.07909E+00 2.08728E+00 2.30173E+00 1.83820E-02 9.06437E-01
 -1      3305-2.07533E+02 3.09068E-01 2.91868E-01 8.52532E-01 1.88924E-01 8.28287E-01
 -1      3306-2.06501E+02-3.03600E+00-3.22463E+00 5.27196E-01-1.22189E+00 5.12766E-01
 -1      3307-1.99998E+02 1.09124E-08 1.28806E-08 4.18980E-08-8.50232E-09-6.71011E-08
 -1      3308-1.99998E+02 1.57062E-13 3.23125E-12 4.58727E-12-1.37925E-13-2.44511E-12
 -1      3309-1.99998E+02-4.60638E-12 1.12454E-12 7.36148E-12 3.06944E-12-4.03355E-12
 -1      3310-1.99998E+02-4.47177E-12 5.33688E-13 7.54045E-12-3.22510E-12-1.16262E-11
 -1      3311-1.99998E+02-9.11498E-12-8.07220E-13 7.29336E-12-3.78271E-12-1.05999E-11
 -1      3312-1.99998E+02-5.21776E-12-4.94596E-13 9.90613E-12-5.74286E-12-3.73125E-12
 -1      3313-1.99998E+02-2.24512E-12 5.20371E-12 1.17541E-11-4.81952E-12-4.64097E-12
 -1      3314-1.99998E+02-2.19318E-13 1.95500E-12 9.24899E-12-4.33827E-14-2.80682E-12
 -1      3315-1.99998E+02-3.76208E-12 4.01359E-12 8.79915E-12 1.45090E-12-6.84591E-12
 -1      3316-2.01712E+02 2.17967E+00 1.06928E+00 9.52230E-01 3.64604E-02 2.30024E+00
 -1      3317-1.99998E+02-9.98828E-09 3.41208E-08-1.12688E-09 2.75803E-09-3.80398E-08
 -1      3318-1.99998E+02 4.09796E-08-1.37715E-08 2.41681E-08-2.80993E-08-1.34407E-08
 -1      3319-1.99998E+02-3.54860E-09-1.28319E-08 2.26822E-09 1.95092E-09 4.41444E-09
 -1      3320-1.99998E+02 3.02561E-08 4.18679E-08-1.18182E-08 6.98903E-09 3.03913E-08
 -1      3321-1.99998E+02-1.71615E-08-4.43793E-09-5.52040E-09 3.37284E-09 5.76866E-09
 -1      3322-2.04032E+02-4.95300E+00-5.66413E+00-4.27038E-01 9.01321E-01 6.34606E-01
 -1      3323-2.03782E+02-6.04604E+00-4.62465E+00-1.05418E+00 9.26908E-01 1.00917E-01
 -1      3324-1.93686E+02 2.81048E-01 6.05450E-02 1.74757E+00 9.38211E-01-1.62605E+00
 -1      3325-2.00038E+02 1.85639E-01-2.44065E-03 2.09126E+00 7.15624E-01-1.60290E+00
 -1      3326-2.00096E+02 4.58827E-01 4.24766E-01 1.78395E+00 8.06580E-01-2.21024E+00
 -1      3327-1.99998E+02 1.15650E-10-2.09885E-11-3.79296E-11-1.40014E-12 1.65059E-11
 -1      3328-1.99998E+02 1.05913E-10 2.65528E-11 2.80589E-12 2.21431E-13 4.34567E-11
 -1      3329-1.99998E+02 1.27091E-10 5.23687E-11 6.15804E-11-1.42158E-11 1.05646E-10
 -1      3330-1.99998E+02 4.76537E-11 3.18747E-11 2.91227E-11-1.93400E-11 4.47219E-11
 -1      3331-1.99998E+02 4.28987E-11-1.11023E-11-3.14786E-11-7.57640E-12 4.00243E-12
 -1      3332-1.99998E+02 7.06358E-11 4.40028E-11 3.39608E-11-1.93731E-11 4.40996E-11
 -1      3333-1.99998E+02-6.54081E-09-7.71250E-09 9.66781E-09 2.02492E-09 2.66577E-10
 -1      3334-1.99998E+02-4.06374E-09 1.26892E-09 4.90665E-10 3.53516E-09-4.11600E-09
 -1      3335-1.99998E+02 1.76949E-11 3.29520E-11 8.74413E-12 3.91569E-11 5.15446E-11
 -1      3336-1.99998E+02 4.44120E-11 4.33323E-11-3.44782E-12 2.05161E-10 1.77880E-11
 -1      3337-1.99998E+02 1.17827E-11 1.08110E-11-1.02376E-10 2.16547E-10 1.14341E-10
 -1      3338-1.99998E+02-7.78237E-10-8.67143E-10-4.17274E-09 9.14248E-09 4.30692E-09
 -1      3339-1.99998E+02-2.33440E-09-5.08085E-09-5.17315E-09 5.95739E-09 1.18185E-08
 -1      3340-1.99998E+02-6.27677E-10-7.07277E-10-5.39832E-09 5.87610E-09 5.59637E-09
 -1      3341-1.99998E+02 2.56707E-11 1.02363E-11-3.80488E-11 4.09142E-11-4.53274E-12
 -1      3342-1.99998E+02-4.90065E-09-2.37451E-09-1.17541E-08 5.96994E-09 5.30480E-09
 -1      3343-1.99998E+02 1.77063E-11 4.78255E-11-1.43904E-10 2.87543E-10-3.84201E-10
 -1      3344-1.99998E+02 3.92975E-12 3.10578E-11 3.32949E-11 1.11364E-10-2.18954E-10
 -1      3345-1.82132E+02-1.69047E+01-3.80770E+01 1.27753E+01-6.09561E-01 7.95095E+00
 -1      3346-1.89080E+02-2.53341E+01-4.41895E+01 1.77236E+01 4.40510E-01 9.92061E-01
 -1      3347-2.07475E+02-7.71069E+00-1.78172E+01 4.61215E+00-2.19100E-01 5.05134E+00
 -1      3348-2.06849E+02-7.77380E+00-2.21658E+01 6.43954E+00-2.32250E-01 6.01414E-01
 -1      3349-1.93101E+02-3.84425E+01-3.97041E+01 1.54429E+01-2.79815E-01 8.14767E+00
 -1      3350-1.99998E+02 3.32626E-09 2.02236E-09-8.07900E-10 6.51652E-10-7.86247E-10
 -1      3351-1.99998E+02 8.62256E-10 6.30643E-10-1.13403E-09-4.28473E-10-4.05383E-10
 -1      3352-1.99998E+02 6.07078E-10-6.18409E-11-7.55579E-10-7.12525E-11-4.76932E-12
 -1      3353-1.83205E+02-4.11460E+01-2.00305E+01-7.07592E+00 6.10131E-01 1.43256E+01
 -1      3354-1.88099E+02-4.19809E+01-2.29273E+01 1.28422E-01-6.92314E-01 1.55719E+01
 -1      3355-2.08942E+02-1.89416E+01-8.51437E+00 6.05448E+00-5.85330E-02 4.77955E+00
 -1      3356-1.92029E+02-4.15467E+01-3.73976E+01 9.71526E-01 1.10187E-01 1.50744E+01
 -1      3357-2.07625E+02-2.31164E+01-8.21451E+00 1.34020E+00 8.12806E-02 6.56793E+00
 -1      3358-2.01371E+02 1.09085E+00 2.32563E+00-2.35490E+00 8.21011E-02-1.00895E+00
 -1      3359-2.07017E+02 5.67444E-01 5.88710E-01-9.32830E-01 2.27122E-01-9.46716E-01
 -1      3360-2.06048E+02-3.03355E+00-2.95561E+00-4.50487E-01-1.24168E+00-4.68157E-01
 -1      3361-1.99998E+02 2.69713E-08 1.39441E-08 7.47765E-08-1.75045E-08-2.20697E-08
 -1      3362-1.99998E+02 7.78681E-08 3.00865E-08 9.08005E-08 6.69356E-09 6.76936E-09
 -1      3363-1.99998E+02-1.19320E-08-1.99392E-08-8.65657E-09-4.72295E-09-8.14203E-10
 -1      3364-1.99998E+02-8.60229E-09-1.10743E-08 9.79960E-10 8.12070E-10 8.33146E-09
 -1      3365-1.99998E+02 2.42948E-08 2.70722E-08-1.27090E-07-5.35734E-09 2.99508E-08
 -1      3366-2.01361E+02 2.37789E+00 1.14621E+00-9.68062E-01 8.72199E-02-2.33928E+00
 -1      3367-1.99998E+02 1.73520E-10 1.76094E-10-4.11272E-11-3.65990E-11-9.40774E-11
 -1      3368-1.99995E+02 6.32070E-02 1.46466E-02-5.79573E-03-1.48277E-03 2.60224E-03
 -1      3369-1.99995E+02 6.65139E-02 1.07379E-02 8.93825E-03 2.66758E-03 3.79167E-03
 -1      3370-1.99970E+02 3.54796E-02 1.78518E-02-7.74051E-03 4.17768E-04 5.68922E-03
 -1      3371-2.00028E+02 1.37309E-01 1.18947E-01 3.83562E-02-7.99189E-04 7.35055E-02
 -1      3372-1.99992E+02 1.12091E-01 1.12172E-01 5.37006E-02 9.73447E-03 5.81128E-02
 -1      3373-2.00044E+02 2.05589E-01 1.05931E-01 7.03932E-02-2.76013E-03 7.52529E-02
 -1      3374-1.99998E+02 2.84168E-10-7.67166E-11-9.74192E-11 8.72601E-11 1.05181E-10
 -1      3375-1.99998E+02 6.02089E-12 1.01496E-11 1.21123E-11-1.67005E-12-1.34403E-11
 -1      3376-1.99998E+02 1.65548E-11 1.82923E-11 2.81180E-11-1.23017E-11-9.90737E-12
 -1      3377-1.99998E+02 5.73235E-12 9.97282E-12 1.49135E-11-1.21427E-11-6.87825E-12
 -1      3378-1.99998E+02-1.79604E-12 2.33335E-12 8.21221E-12-6.19356E-12-8.19826E-12
 -1      3379-1.99998E+02 1.69378E-11 1.03770E-11 1.24916E-11-1.57746E-11-3.41682E-12
 -1      3380-1.99998E+02 6.48503E-12 6.69774E-12 1.34236E-11-8.42241E-12-7.27454E-12
 -1      3381-1.99998E+02-4.05596E-12 6.49307E-12 1.46176E-11-3.02100E-12-7.08159E-12
 -1      3382-1.99998E+02-2.41035E-12 9.66032E-13 1.41278E-11-5.38672E-12-1.39092E-12
 -1      3383-1.99998E+02 7.33691E-13 1.42099E-11 1.95044E-11-1.10629E-11-8.27896E-12
 -1      3384-1.99998E+02 3.84297E-12 1.97616E-12 1.14715E-11-5.69826E-12-5.27107E-12
 -1      3385-1.99998E+02-6.35919E-13 5.99184E-13 1.72140E-11-8.83111E-12-3.42856E-13
 -1      3386-1.99998E+02-3.99711E-13-1.18435E-12 1.07795E-11-1.17407E-12 1.39374E-14
 -1      3387-2.00004E+02 1.40325E-01 1.31198E-01-7.30087E-02-2.95113E-03 7.64900E-02
 -1      3388-2.00020E+02 2.14711E-01 9.33939E-02-6.80059E-02-6.00701E-06 7.99485E-02
 -1      3389-2.00027E+02 3.78814E-01 2.95336E-01 1.23017E-02-5.89989E-03 1.77199E-01
 -1      3390-1.99991E+02-2.85436E-03-2.43049E-03 1.05592E-04-4.25273E-04-3.81999E-03
 -1      3391-1.99998E+02 4.14703E-11 3.62738E-11 3.03345E-11 1.22357E-10-4.91825E-11
 -1      3392-1.99998E+02-6.06997E-12-9.90160E-12 1.14943E-11-2.00047E-13-4.96970E-12
 -1      3393-1.99998E+02-3.61790E-12 1.38957E-12 7.83300E-12 1.33594E-12-5.40483E-13
 -1      3394-1.99998E+02 5.15900E-12-2.64080E-12 1.78657E-11-1.78083E-12-5.88440E-12
 -1      3395-1.99998E+02-3.14764E-12 1.67520E-12 1.52559E-11-4.05327E-12-2.79589E-12
 -1      3396-1.99998E+02 4.32257E-11 4.79598E-11 6.38126E-11 1.27579E-10-1.76946E-11
 -1      3397-1.88788E+02-4.23135E+01-2.30512E+01 6.03073E-02 6.70987E-01-1.60734E+01
 -1      3398-1.83196E+02-4.09696E+01-1.95228E+01-7.13714E+00-5.86994E-01-1.45765E+01
 -1      3399-2.08153E+02-2.32013E+01-8.53414E+00 1.27138E+00-1.09060E-01-6.40928E+00
 -1      3400-1.92183E+02-4.11226E+01-3.71682E+01 7.64596E-01-8.83571E-02-1.50928E+01
 -1      3401-2.08981E+02-1.87800E+01-8.42859E+00 5.94744E+00 1.51123E-01-4.71857E+00
 -1      3402-1.99998E+02 4.70274E-12 8.36754E-12 7.43448E-12-6.27668E-13-6.17486E-12
 -1      3403-1.99998E+02-1.86314E-12 7.95231E-12 1.64979E-11-4.49335E-12-6.27128E-12
 -1      3404-1.99998E+02 1.56642E-12 6.31175E-12 1.40138E-11-2.32864E-12-6.13467E-12
 -1      3405-1.99998E+02-5.89587E-12 4.36973E-13 1.35478E-11-2.38053E-13-2.26302E-12
 -1      3406-1.99998E+02-4.17280E-12-1.92389E-12 1.13961E-11-3.93091E-12-3.43146E-12
 -1      3407-1.99998E+02-8.77267E-09-8.09076E-09 1.49605E-08 1.73129E-08-1.15513E-08
 -1      3408-2.04075E+02 6.02274E-01 1.00849E+00-1.16980E-01 5.59631E-02 1.36775E+00
 -1      3409-1.99998E+02 1.66956E-10 1.11730E-10-3.18971E-10-4.13975E-11-3.53537E-11
 -1      3410-1.99991E+02-2.51561E-03-2.70381E-03 3.84510E-03-3.52491E-04-1.08516E-04
 -1      3411-1.99998E+02 2.69524E-12-2.27468E-12 1.88753E-11-4.34939E-12-2.60827E-12
 -1      3412-1.99998E+02-5.36006E-12-4.83347E-12 1.35969E-11-4.61619E-12-1.19271E-12
 -1      3413-1.99998E+02 1.69691E-13-9.95103E-13 8.13229E-12-3.52925E-12-1.47475E-12
 -1      3414-1.99998E+02-1.59517E-12-3.93827E-12 6.35170E-12-3.60832E-12 9.77437E-13
 -1      3415-2.02460E+02 9.23298E-01 9.19641E-01 6.48624E-01 1.54106E-01-6.61784E-01
 -1      3416-2.01207E+02 6.95588E-01 1.23855E+00 1.13990E+00 8.01642E-02-5.73528E-01
 -1      3417-2.00734E+02 7.71728E-01 7.66205E-01 7.39859E-01 1.42290E-01-7.52781E-01
 -1      3418-1.99998E+02-7.99229E-09-8.68952E-09-1.13986E-08 1.73037E-08 1.47916E-08
 -1      3419-1.99998E+02 5.69220E-08-2.43071E-08-5.79363E-08 9.56912E-09 1.95317E-08
 -1      3420-1.99998E+02-5.67934E-08-3.72309E-08-8.61322E-08 1.73089E-08-5.49331E-09
 -1      3421-1.99998E+02 1.63095E-09-2.02787E-08 7.06879E-09 5.19296E-09-5.53099E-11
 -1      3422-1.99998E+02-1.90267E-09-8.50533E-09-5.91156E-09-4.23194E-09 9.47589E-10
 -1      3423-1.99998E+02 7.56286E-09 2.82635E-08-4.48685E-09 3.55375E-09 4.20924E-08
 -1      3424-2.00029E+02 9.71053E-02 2.10624E-01-8.31305E-02 1.36289E-03 8.08639E-02
 -1      3425-1.99998E+02 1.22842E-02 5.71721E-02-1.91471E-03-4.30786E-04 4.65785E-03
 -1      3426-2.00052E+02 9.83636E-02 2.22126E-01-8.66509E-02-5.29852E-03-7.85735E-02
 -1      3427-2.00042E+02 1.23282E-01 1.48570E-01-7.95664E-02 1.57982E-03-3.98929E-02
 -1      3428-2.00077E+02 2.91569E-01 3.82986E-01-1.82946E-01 4.36845E-03-5.03962E-03
 -1      3429-1.99998E+02-8.22106E-09-8.73399E-09 1.15572E-08 1.74127E-08-1.48687E-08
 -1      3430-1.99998E+02-8.79706E-09-8.10156E-09-1.47793E-08 1.73569E-08 1.15878E-08
 -1      3431-1.99998E+02 5.54857E-08 3.20712E-08 5.16163E-08 3.55198E-08 8.95816E-09
 -1      3432-1.99998E+02 2.63788E-08 5.75497E-08-7.38107E-09 3.47756E-08-5.16141E-08
 -1      3433-2.04012E+02 1.04490E+00 6.28002E-01 1.35420E+00 5.68823E-02-7.82422E-02
 -1      3434-2.01135E+02 1.28654E+00 7.17734E-01 5.74682E-01 6.54403E-02-1.16860E+00
 -1      3435-1.99998E+02-1.55667E-12-1.70412E-11 8.27912E-10 4.19254E-10 2.19865E-10
 -1      3436-1.99998E+02-1.06507E-10-8.42194E-11 7.41000E-10 1.48665E-09-2.09089E-10
 -1      3437-1.99998E+02-1.44771E-10-1.28274E-10 1.53976E-09 1.16711E-09-5.34377E-10
 -1      3438-1.99998E+02-1.28543E-10-3.95516E-11 1.67124E-09 1.25933E-09 6.11702E-10
 -1      3439-1.99998E+02-4.86303E-10-5.04411E-10 1.58226E-09 2.84441E-09 5.28071E-11
 -1      3440-1.99998E+02-1.83468E-10-2.31716E-10 8.98825E-10 1.44332E-09 8.90880E-10
 -1      3441-1.99968E+02 1.75098E-02 3.64903E-02-4.92268E-03 5.35326E-05 9.28929E-03
 -1      3442-2.00008E+02 6.53651E-03 5.50907E-02 2.37204E-03 3.96316E-03 1.12834E-03
 -1      3443-1.99996E+02 1.26022E-01 1.27853E-01-7.69756E-02 1.21359E-02-7.37243E-02
 -1      3444-1.99998E+02 1.07384E-08-1.63981E-08 6.34294E-08-1.09311E-08 1.18539E-13
 -1      3445-1.99998E+02-1.52488E-08-6.77697E-09-1.25715E-08-1.11268E-08 5.68606E-09
 -1      3446-1.83997E+02-3.92393E+01-1.58188E+01 7.68588E+00 4.57379E-01 1.45623E+01
 -1      3447-1.92343E+02-3.88362E+01-3.63345E+01 8.21230E+00-5.60612E-01 1.74624E+01
 -1      3448-1.99998E+02-1.90884E-12-8.58553E-13 9.35154E-12-1.87120E-12-1.09221E-11
 -1      3449-1.99998E+02-1.37192E-11-5.74111E-12 1.73714E-11 2.78922E-12-6.11000E-12
 -1      3450-1.99998E+02-1.04847E-11-3.70041E-12 6.09647E-12-1.06372E-12-9.91757E-12
 -1      3451-1.99998E+02 2.50086E-14 2.78919E-12 5.90912E-12 3.80317E-12-8.81472E-12
 -1      3452-1.99998E+02-6.47627E-12-4.57439E-12 1.62276E-11 6.86418E-12-5.82780E-12
 -1      3453-1.99998E+02-8.13412E-12 1.70965E-12 1.83218E-11 4.20644E-12-6.15697E-12
 -1      3454-1.99998E+02 3.46835E-12-1.77706E-12 2.13962E-11 2.03902E-12-7.92844E-15
 -1      3455-1.99998E+02-1.30696E-11-3.37692E-12 1.94141E-11 3.00882E-12-5.47337E-12
 -1      3456-1.99998E+02-2.12295E-12-2.71081E-12 2.57105E-11 7.69850E-14-3.56116E-12
 -1      3457-1.99998E+02 1.65660E-12 3.24729E-13 2.39083E-11 4.72623E-12 9.20532E-13
 -1      3458-1.99998E+02-4.57200E-12 2.18034E-12 1.56414E-11 8.85148E-12-3.98969E-12
 -1      3459-1.99998E+02 9.92758E-12 2.27721E-10 9.00759E-11-5.94452E-12-3.73529E-11
 -1      3460-1.99998E+02-3.75107E-11 1.61269E-10 2.51722E-10 2.27554E-11-2.01932E-11
 -1      3461-1.99998E+02 2.94304E-10-3.50454E-12-5.41092E-10 7.33779E-10 2.51507E-10
 -1      3462-1.99998E+02 2.45091E-11-8.55357E-11-9.60840E-10 1.03909E-09 9.27399E-11
 -1      3463-1.99998E+02-2.16470E-10-1.63764E-10-1.20017E-09 1.15328E-09 5.18812E-10
 -1      3464-1.99998E+02 2.26312E-06 1.96300E-06-8.73477E-08-4.24175E-07-9.68947E-07
 -1      3465-1.99998E+02 1.37629E-06 6.91140E-07-5.20111E-07-1.18384E-07-5.19788E-07
 -1      3466-1.99998E+02 1.13706E-06 5.30129E-07 1.98623E-07-6.46547E-08-3.76790E-07
 -1      3467-1.99998E+02 6.19254E-07 4.91172E-07 1.35950E-07-5.46646E-08-3.16860E-07
 -1      3468-1.99998E+02 3.40400E-07 3.22719E-08-1.27129E-07 4.84878E-08-1.16976E-08
 -1      3469-1.99998E+02 7.63714E-07 7.81320E-07-4.30843E-07-7.45090E-08-4.53040E-07
 -1      3470-1.99998E+02 6.92860E-07 1.43550E-06 5.07070E-07-1.02868E-07 5.38129E-07
 -1      3471-1.99998E+02 1.92668E-06 2.30642E-06 9.42567E-07-4.09518E-07 8.59454E-08
 -1      3472-1.99998E+02 5.49962E-07 1.20690E-06 3.65703E-07-8.04210E-08-2.40396E-07
 -1      3473-1.99998E+02 3.24187E-08 3.58444E-07 1.04271E-08 5.46162E-08 1.36600E-07
 -1      3474-1.99998E+02 4.80679E-07 6.37284E-07 3.03006E-07-5.53118E-08-1.45225E-07
 -1      3475-1.99998E+02 7.67235E-07 7.79935E-07 4.46239E-07-5.87262E-08 4.56164E-07
 -1      3476-1.99998E+02 2.29288E-06 1.92227E-06 6.78972E-08-4.00178E-07 9.58351E-07
 -1      3477-1.99998E+02 1.40180E-06 6.98098E-07 5.41437E-07-1.00419E-07 5.29477E-07
 -1      3478-1.99998E+02 6.07140E-07 4.07191E-07-1.69475E-07-2.37127E-08 3.31415E-07
 -1      3479-1.99998E+02 6.16984E-09 2.20443E-09-2.05363E-09-2.10636E-09-2.93836E-10
 -1      3480-1.99998E+02 1.52092E-09 2.13045E-10-1.16744E-09 3.17745E-10-6.18227E-10
 -1      3481-1.99998E+02 2.74304E-10 1.79292E-10 1.19946E-09 6.31175E-11 5.27850E-10
 -1      3482-1.99998E+02 3.50432E-09 2.30555E-10-1.03451E-09-1.70449E-09-3.39442E-10
 -1      3483-1.99998E+02 2.05548E-09 8.88848E-11 3.00585E-09 1.78615E-10 1.04258E-09
 -1      3484-2.00006E+02-1.12632E-03-1.18961E-03-2.59367E-03-9.26064E-04 2.30917E-03
 -1      3485-2.00003E+02-9.35806E-04-7.56454E-04-1.98074E-03-3.90459E-04 2.11711E-03
 -1      3486-1.99998E+02-1.11600E-03-2.43527E-03-1.91389E-03-2.51686E-04 3.01863E-03
 -1      3487-1.99998E+02-2.20088E-03-1.02751E-03-2.99775E-03-3.39631E-04 2.04149E-03
 -1      3488-1.99998E+02 1.36086E-10 4.86743E-11 3.63533E-11 2.55470E-11 9.63915E-11
 -1      3489-1.99998E+02 1.09062E-11-2.36871E-12 5.57417E-12-1.70505E-11 1.10859E-11
 -1      3490-1.99998E+02-6.35911E-12 6.47558E-12 7.95305E-12-4.27641E-12-1.85893E-12
 -1      3491-1.99998E+02 5.33701E-14 4.11830E-13 7.28459E-12-3.90366E-12-1.83241E-12
 -1      3492-1.92514E+02-3.70038E+01-4.05706E+01 1.43885E+01 1.26859E-01-1.40665E-01
 -1      3493-2.08936E+02-8.65823E+00-2.01503E+01 5.61578E+00 8.47349E-02-5.40096E+00
 -1      3494-1.99998E+02-5.60346E-10 8.84799E-10-4.85335E-10 2.54175E-10-2.72640E-10
 -1      3495-1.99998E+02-1.08737E-10-3.82970E-10-2.72223E-10 2.84003E-09 2.09334E-09
 -1      3496-1.99998E+02-4.99750E-11-8.27211E-11 9.40767E-11 5.69077E-10 3.18893E-10
 -1      3497-1.99998E+02 6.98022E-07 1.42544E-06-5.07946E-07-1.19640E-07-5.44073E-07
 -1      3498-1.99998E+02 1.91089E-06 2.31509E-06-9.39665E-07-4.15678E-07-7.05994E-08
 -1      3499-1.99998E+02 3.96735E-07 6.19340E-07-3.32821E-07-3.16356E-08 1.70681E-07
 -1      3500-1.99998E+02-5.00160E-12-4.72913E-11 8.40630E-10 5.54115E-10-1.07206E-10
 -1      3501-1.99998E+02 4.41554E-11 1.41385E-11 7.74670E-10 1.52487E-09-7.69506E-10
 -1      3502-1.99998E+02 6.00323E-11 1.02054E-10 3.39918E-10 6.94346E-10 7.06054E-11
 -1      3503-1.99998E+02 5.96494E-12 3.24814E-11 1.56119E-11-1.26736E-11-6.20414E-12
 -1      3504-1.99998E+02 1.61311E-11 2.59450E-11 2.69142E-11-2.12879E-11-6.10198E-12
 -1      3505-1.99998E+02 2.13834E-11 5.35816E-11 6.99750E-11-1.72362E-11 3.44943E-11
 -1      3506-1.99998E+02-2.82445E-11-1.33891E-11-2.87448E-10 5.66841E-10-8.41896E-11
 -1      3507-2.07279E+02-1.80642E+01-7.90322E+00-4.56585E+00 2.96181E-01 5.58792E+00
 -1      3508-1.93113E+02-3.88744E+01-3.82038E+01-6.84861E+00 2.54281E-01 1.45236E+01
 -1      3509-1.99998E+02-2.41947E-10-3.16786E-10 3.00697E-09 6.86010E-10-2.91850E-09
 -1      3510-1.99998E+02-5.98625E-12-6.58686E-12-2.24192E-12 7.31898E-13-1.12011E-11
 -1      3511-1.99998E+02-1.72914E-12 1.05987E-12 9.16723E-12-1.03040E-11-1.02362E-11
 -1      3512-1.99998E+02 1.03920E-11 3.41392E-12 9.22666E-12-1.09589E-11-3.00551E-12
 -1      3513-1.99998E+02-6.12603E-12-1.50584E-12 5.87446E-12-4.47270E-12-5.22818E-12
 -1      3514-1.99998E+02-5.01553E-12-8.37425E-13 1.90923E-12-4.80266E-12-9.16361E-12
 -1      3515-1.99998E+02-9.87676E-12 8.79451E-13 8.07966E-12 3.00491E-12-2.23794E-12
 -1      3516-1.99998E+02-6.55292E-12-6.45859E-12 1.62781E-11-5.93569E-12 3.06113E-12
 -1      3517-1.99998E+02 9.24040E-12 5.15090E-12 1.82862E-11-3.09708E-12 1.54146E-12
 -1      3518-1.99998E+02 1.10159E-11 3.97326E-12 7.53108E-12 6.18937E-13-1.42554E-12
 -1      3519-1.99998E+02-1.46079E-11-8.02829E-12 1.14046E-11-1.62521E-12 1.33405E-12
 -1      3520-1.99998E+02 2.00653E-12-1.01185E-12 3.01789E-12-1.82633E-12-8.21840E-12
 -1      3521-1.99998E+02 1.96741E-11 1.39387E-11 2.00264E-11-1.33095E-11 3.56257E-12
 -1      3522-1.99998E+02-9.13681E-12-3.26924E-12 1.08882E-11 2.89227E-12-1.35206E-12
 -1      3523-1.99998E+02-3.00090E-12-3.98989E-12 2.24368E-11-9.20626E-12 8.14217E-13
 -1      3524-1.99998E+02-6.47749E-12-6.56437E-12 1.42650E-11-1.84139E-12 4.02548E-12
 -1      3525-1.99998E+02 2.25744E-12-1.00888E-11 1.90094E-11-9.68909E-12 1.02389E-11
 -1      3526-1.99998E+02 9.46860E-12 4.88539E-12 3.19141E-12-2.44482E-12-1.11774E-11
 -1      3527-1.99998E+02 8.67659E-12 8.11262E-12 1.91135E-11-1.36894E-11-8.45270E-12
 -1      3528-1.99998E+02-3.33765E-10-1.31624E-10-2.02688E-09 2.86223E-09 3.76880E-10
 -1      3529-2.00138E+02 4.28517E-01 3.00263E-01 2.21630E-02 3.71489E-03-2.42408E-01
 -1      3530-1.99998E+02 1.08696E-10-8.88459E-12 6.86695E-10 4.79915E-11 5.03998E-10
 -1      3531-1.99998E+02 8.16559E-11 9.17953E-11 2.80260E-10 3.53781E-11 3.36786E-10
 -1      3532-1.99998E+02 9.19448E-11-8.18881E-12 9.17429E-10 4.23531E-10 3.71932E-10
 -1      3533-1.99998E+02 6.56018E-11 9.46738E-12 4.96589E-10 2.75329E-10 2.66638E-10
 -1      3534-1.99998E+02-6.64148E-12 1.14849E-10 2.41584E-10 2.79945E-10 4.95073E-10
 -1      3535-2.04237E+02-6.36702E+00-4.82626E+00 1.12770E+00-9.06094E-01 4.91065E-01
 -1      3536-2.04020E+02-4.72735E+00-5.62468E+00 7.54045E-01-8.25615E-01 9.32350E-01
 -1      3537-1.93540E+02 2.76694E-01 2.05008E-02-1.55541E+00-1.00988E+00-1.70704E+00
 -1      3538-2.00264E+02-3.88654E-02 1.81406E-01-1.62335E+00-9.49450E-01-2.18015E+00
 -1      3539-2.00682E+02-9.02482E-02-4.04084E-02-2.16636E+00-7.45041E-01-1.77806E+00
 -1      3540-1.99949E+02 1.99493E-02 3.55140E-02 6.75731E-04-8.49526E-04 2.99783E-03
 -1      3541-1.99998E+02-2.35694E-08 2.52670E-08-4.95561E-08 1.85656E-08-4.05138E-08
 -1      3542-1.99998E+02-1.97416E-09-1.27001E-08-4.33473E-09 7.03564E-11-1.51194E-09
 -1      3543-1.99998E+02 5.38622E-12 1.15302E-12 2.24485E-11 7.13459E-12-4.11812E-12
 -1      3544-1.99998E+02 2.45533E-13 4.60122E-12 1.33831E-11 1.63988E-11-3.01832E-12
 -1      3545-1.99998E+02 8.23031E-12 2.84881E-12 1.39787E-11 4.65310E-12-3.66939E-12
 -1      3546-1.99998E+02 5.11218E-12 1.74721E-12 8.58252E-12 1.80029E-12-9.48241E-12
 -1      3547-1.99998E+02-2.12245E-12-3.10472E-12 7.72188E-12 1.74139E-13-7.44757E-12
 -1      3548-1.99998E+02-1.02408E-12 6.92058E-13 1.28297E-11 1.47562E-11-1.88482E-12
 -1      3549-1.99949E+02 3.57274E-02 2.01364E-02-1.74436E-03-1.83903E-03-9.80081E-04
 -1      3550-1.99014E+02 2.40073E-01 2.52503E-01-3.96830E-01 1.34102E-02 4.12008E-01
 -1      3551-1.99998E+02 1.65188E-09 1.78198E-08-4.70183E-09-5.59027E-09 7.15540E-09
 -1      3552-1.99998E+02 1.65595E-08 5.84738E-08-2.92408E-08 9.24000E-10-1.68468E-08
 -1      3553-1.99883E+02 4.67364E-02 5.17670E-02 8.88684E-02 1.81068E-02 9.84710E-02
 -1      3554-1.99943E+02 2.15686E-02 1.50109E-02 5.59629E-02 4.77345E-03 2.27655E-02
 -1      3555-1.99958E+02 2.00821E-01 1.30795E-01 1.93941E-01 1.49698E-02 1.08181E-01
 -1      3556-1.99965E+02 7.95338E-02 1.15487E-01 5.82840E-02 1.17289E-02 8.04801E-02
 -1      3557-1.99980E+02 1.31199E-01 2.07293E-01 1.04030E-01 1.26372E-02 2.03677E-01
 -1      3558-1.99998E+02-3.57580E-04-4.53217E-04 1.64384E-04-2.43388E-05 7.18692E-05
 -1      3559-2.00075E+02 3.08060E-01 4.38879E-01 2.28665E-01-4.02623E-03-1.52271E-02
 -1      3560-1.99994E+02-2.32701E-03-2.01411E-03 2.17216E-03 1.56922E-04 6.65315E-05
 -1      3561-1.99994E+02-2.11572E-03-2.30247E-03-8.74355E-05 1.32128E-04-2.17571E-03
 -1      3562-1.99998E+02 2.81259E-11 2.33685E-11-1.81141E-11 9.37558E-11-2.52873E-12
 -1      3563-1.99998E+02 2.82959E-12 2.84623E-12 1.42902E-11-5.41979E-12-4.34829E-12
 -1      3564-1.99998E+02-9.27680E-12-6.80664E-12 1.18112E-11-2.12189E-12-5.37597E-12
 -1      3565-1.99998E+02-4.98986E-12 2.31049E-12 1.08777E-11 2.42338E-12-3.90344E-12
 -1      3566-1.99998E+02-1.12533E-12 2.90493E-12 1.49403E-11-3.71431E-12-2.52192E-12
 -1      3567-1.99998E+02 1.32922E-11 1.85544E-11 9.13297E-12 9.09493E-11 3.39369E-11
 -1      3568-1.99998E+02-5.62028E-09-3.97949E-09 7.29593E-09 1.27164E-08-3.89456E-09
 -1      3569-1.99998E+02-4.21484E-09-5.85995E-09-3.76223E-09 1.27721E-08 7.23403E-09
 -1      3570-1.99998E+02-3.90661E-09-5.63191E-09 3.87263E-09 1.27473E-08-7.26496E-09
 -1      3571-1.99998E+02-5.85149E-09-4.41878E-09-7.18243E-09 1.28321E-08 3.92672E-09
 -1      3572-1.99998E+02-4.25081E-04-3.44055E-04 5.72183E-05-3.27988E-05 1.80596E-04
 -1      3573-1.99998E+02-3.43348E-04-4.30143E-04-1.78905E-04-3.41224E-05-6.18760E-05
 -1      3574-1.99998E+02 5.59216E-06 6.90870E-06 2.28636E-06-4.38275E-06-9.63683E-06
 -1      3575-1.99998E+02 7.10645E-06 5.64520E-06-9.53534E-06-4.44650E-06 2.16272E-06
 -1      3576-1.99998E+02 6.74086E-06 5.52441E-06 9.30263E-06-4.18137E-06-2.49335E-06
 -1      3577-1.99998E+02-4.56054E-04-3.56860E-04-7.49493E-05-2.41288E-05-1.71966E-04
 -1      3578-1.99998E+02 4.22383E-08 4.14135E-07 1.47115E-08-1.27375E-08 3.20546E-08
 -1      3579-1.99998E+02 7.56471E-07 7.57570E-07 3.38903E-07-1.43386E-07-3.45930E-07
 -1      3580-1.99998E+02 1.95671E-07 3.09690E-07 3.78799E-08-8.71903E-09 6.31359E-08
 -1      3581-1.99998E+02 4.15004E-07 6.81566E-08-3.10781E-08-2.07071E-08-2.66502E-08
 -1      3582-1.99998E+02 2.98251E-07 2.05384E-07-6.17283E-08-1.04056E-08-3.87519E-08
 -1      3583-1.99998E+02 5.67307E-06 7.03196E-06-2.34472E-06-4.23115E-06 9.26827E-06
 -1      3584-1.83374E+02-3.91813E+01-1.63876E+01 8.08510E+00-4.60742E-01-1.40782E+01
 -1      3585-1.92371E+02-3.81586E+01-3.68098E+01 8.43614E+00 4.75655E-01-1.64086E+01
 -1      3586-1.99998E+02-1.84587E-11 1.38625E-11 1.22033E-11 4.12914E-11-1.81820E-10
 -1      3587-1.99998E+02-4.07261E-10-3.07643E-10-2.97679E-10 4.96804E-11 2.85498E-10
 -1      3588-1.99998E+02 2.18533E-11 1.75665E-10 1.70731E-10 4.53800E-11-2.57401E-10
 -1      3589-1.99998E+02 7.08951E-11 9.90953E-11 6.03236E-11 8.72207E-12-2.16341E-10
 -1      3590-1.99998E+02-1.09555E-12-1.29788E-12 1.63329E-11 1.15625E-11-3.74555E-12
 -1      3591-1.99998E+02 8.66377E-12 5.91328E-12 8.12123E-12 2.22755E-12-1.62115E-12
 -1      3592-1.99998E+02 5.93276E-12 6.38146E-12 1.70326E-11 1.00279E-11-3.20573E-12
 -1      3593-1.99998E+02 7.81490E-12-1.64928E-12 6.90018E-12-2.94598E-12 6.30731E-13
 -1      3594-1.99998E+02-1.41575E-08 4.46834E-08 6.70382E-08 1.76762E-09-4.32142E-08
 -1      3595-1.99998E+02-1.35571E-08-4.55844E-08 3.67496E-08-8.42943E-09-1.80760E-08
 -1      3596-1.99998E+02-4.15870E-11 8.21118E-10-1.34931E-10-1.53190E-10-3.82477E-10
 -1      3597-1.99998E+02-2.28511E-08 5.96334E-08-3.69994E-08-7.86336E-09-2.59797E-08
 -1      3598-1.99998E+02 1.05243E-08 3.21779E-08 4.26002E-09 1.00741E-08 5.39669E-08
 -1      3599-2.00040E+02 2.81868E-02 2.99527E-02 6.66036E-04-7.03285E-03 1.88942E-03
 -1      3600-2.00014E+02 6.13755E-02 4.89471E-02 2.02663E-02-2.38392E-03-3.53763E-03
 -1      3601-1.99999E+02 2.06887E-01 2.27687E-01 7.43013E-02-1.77555E-02 6.48709E-02
 -1      3602-1.98859E+02 1.94877E-01 1.97000E-01-4.19804E-01-5.47824E-02-4.36518E-01
 -1      3603-1.99998E+02 3.08952E-12 3.38529E-11 1.89552E-11-1.91900E-12-1.84496E-11
 -1      3604-1.99950E+02 2.72758E-01 2.67633E-01-3.31358E-02 2.02805E-02 5.03347E-02
 -1      3605-1.99998E+02-1.47990E-10-1.84972E-10-5.61136E-10 1.18678E-09-1.56624E-09
 -1      3606-1.99998E+02-1.58248E-10-1.89486E-10-2.87285E-10 1.66414E-09-8.76026E-10
 -1      3607-1.99998E+02 3.45771E-11 7.29556E-11 8.55325E-11 4.90352E-10-8.30460E-10
 -1      3608-1.99998E+02 1.02446E-10 6.24654E-11-1.76429E-10 4.29853E-10-8.01478E-10
 -1      3609-1.99998E+02 2.43365E-11 1.24470E-12 4.98282E-11 6.82110E-10-3.44956E-10
 -1      3610-1.99998E+02-2.18667E-10-2.10719E-10-8.22049E-10 1.36085E-09-8.46336E-10
 -1      3611-1.99998E+02-1.12835E-12 6.14944E-12 1.63384E-11-7.51590E-12-3.68247E-12
 -1      3612-1.99998E+02 8.10424E-12 1.56836E-11 1.52732E-11-1.05303E-11 5.66547E-13
 -1      3613-1.99998E+02 2.62057E-12 2.68944E-12 8.49464E-12-2.32004E-12-5.34950E-13
 -1      3614-1.99998E+02-2.80905E-12 6.01254E-12 1.66825E-11-1.86505E-11 2.35538E-12
 -1      3615-1.99998E+02-2.95553E-12-1.03913E-12 8.27944E-12-8.46494E-12-8.42661E-13
 -1      3616-2.00035E+02 2.36168E-01 2.22485E-01-6.42896E-02-8.63768E-03-8.05883E-02
 -1      3617-1.99998E+02 9.55204E-12 1.61521E-12 8.42723E-12 3.79498E-12-3.42715E-12
 -1      3618-1.99998E+02 8.94720E-12 2.66132E-12 1.63443E-11 1.30982E-11-2.02006E-12
 -1      3619-1.99998E+02 5.98637E-11 1.19522E-10-9.03547E-10 7.25788E-11-9.30742E-10
 -1      3620-1.99998E+02-2.05076E-11-3.88482E-11-6.55855E-10 2.31444E-11-5.01686E-10
 -1      3621-1.99998E+02-1.19005E-10-3.74744E-10-1.65089E-09 1.14952E-09-9.55511E-10
 -1      3622-1.99998E+02-6.81177E-12 4.23978E-12-6.86616E-10 8.87680E-10-1.15407E-09
 -1      3623-1.99998E+02-2.86220E-10-1.68016E-10-8.92240E-10 1.12057E-09-1.68237E-09
 -1      3624-1.99998E+02 7.66541E-07 7.83874E-07 3.12968E-07-1.15732E-07-3.31119E-07
 -1      3625-1.99998E+02 3.59848E-07 3.69161E-07 1.58059E-08-1.04178E-08-1.97319E-08
 -1      3626-1.83196E+02-1.72160E+01-4.04884E+01 1.54557E+01-4.86867E-01-7.67825E+00
 -1      3627-1.92742E+02-3.67898E+01-3.81500E+01 1.62006E+01 4.02278E-01-8.41501E+00
 -1      3628-1.99992E+02 1.09124E-02 8.77269E-03-5.63823E-03 8.63907E-03-4.87464E-03
 -1      3629-1.99942E+02 3.18956E-02 1.24345E-02-5.14619E-02 1.22584E-02-2.64158E-02
 -1      3630-1.99991E+02 7.37757E-03 1.34967E-02 8.52440E-03 8.68903E-03-9.77249E-03
 -1      3631-1.99926E+02 6.43477E-02 2.55390E-02-6.37343E-02 6.12868E-03-6.33974E-03
 -1      3632-1.99997E+02 8.75093E-03 7.92053E-03-9.17851E-03 6.19493E-03 3.80712E-03
 -1      3633-1.99998E+02-3.06539E-12 5.18276E-12 1.51649E-11-4.61051E-12-2.58698E-12
 -1      3634-2.00016E+02 4.70338E-02 6.30029E-02 5.92531E-03-3.08473E-03-1.95899E-02
 -1      3635-1.99998E+02-9.71063E-12-3.70108E-12 1.57111E-11 2.17083E-12-2.40131E-12
 -1      3636-1.99998E+02-3.21763E-09 3.23835E-10-2.64904E-08-8.94293E-09-2.31812E-08
 -1      3637-1.99998E+02-1.28045E-08-2.89461E-09 1.82338E-08 1.70841E-09-4.09391E-08
 -1      3638-1.99998E+02 1.19981E-06 1.20287E-06 3.10797E-07-2.85397E-07 3.19367E-07
 -1      3639-1.99998E+02-4.95085E-10-5.20171E-10 1.09249E-10 2.84264E-09-1.59672E-09
 -1      3640-1.99998E+02 1.18903E-06 1.22265E-06-3.06087E-07-3.01110E-07-3.26725E-07
 -1      3641-1.99872E+02 4.94115E-02 4.85924E-02-8.38167E-02 9.46555E-03-8.57021E-02
 -1      3642-1.99934E+02 2.41360E-02 7.57468E-02-1.11126E-02 4.92412E-03-7.40651E-02
 -1      3643-1.99977E+02 1.90144E-01 1.11597E-01-1.97594E-01 2.68945E-03-1.15423E-01
 -1      3644-1.99969E+02 1.17866E-01 1.97478E-01-1.16748E-01-5.81543E-05-2.04296E-01
 -1      3645-1.99998E+02-3.47615E-11 4.69847E-11 5.95803E-11 1.01061E-09 3.45100E-10
 -1      3646-1.99998E+02-2.15518E-10-2.99503E-10 4.34237E-10 2.18395E-09-3.80404E-10
 -1      3647-1.99998E+02-4.58498E-10-4.71558E-10 4.41045E-10 2.29743E-09 8.50154E-10
 -1      3648-1.94452E+02 5.76335E-01 2.68326E-01-1.75177E+00 6.09172E-01 1.12077E+00
 -1      3649-2.00431E+02 1.28104E+00 5.32099E-01-2.11283E+00 3.73197E-01 1.63442E+00
 -1      3650-1.91379E+02-3.66205E+01-3.80214E+01-7.22744E+00 4.86102E-01-3.78778E+00
 -1      3651-1.99998E+02-1.31306E-11-2.48513E-11-5.53058E-12-2.34004E-12-3.79013E-11
 -1      3652-1.99998E+02 1.15736E-10-7.15079E-11-1.90723E-10 7.22160E-11 3.61706E-11
 -1      3653-1.99998E+02 2.53718E-11 9.24796E-12-6.02981E-11-1.18156E-11-4.88078E-12
 -1      3654-1.99998E+02 7.99166E-11 9.05171E-11-2.82282E-10-1.24974E-11-3.11748E-10
 -1      3655-1.99998E+02 5.78497E-12-7.77629E-11-1.08941E-09 8.52122E-10-6.88544E-10
 -1      3656-1.99998E+02-3.22955E-12 9.53032E-11-2.15373E-10 2.54307E-10-4.66328E-10
 -1      3657-1.99998E+02 1.45537E-10 2.67241E-11-4.49709E-10 2.14203E-10-2.16265E-10
 -1      3658-1.99998E+02 3.26001E-11-1.11691E-10-7.39319E-11 1.76755E-11-2.68050E-10
 -1      3659-1.99998E+02 2.30896E-10-3.21739E-10-2.67988E-10-4.37562E-11-4.99090E-10
 -1      3660-1.99998E+02 1.50766E-10-1.88411E-10-1.80088E-10 8.74344E-11-1.39371E-10
 -1      3661-1.99998E+02 2.33950E-10 1.22191E-11-3.51417E-10 9.78496E-11-8.98189E-11
 -1      3662-2.03840E+02 9.49758E-01 5.76500E-01-1.45571E+00 9.96811E-03 1.32525E-02
 -1      3663-1.93577E+02-3.85127E+01-3.76857E+01-7.12651E+00-1.06793E-01-1.42749E+01
 -1      3664-2.07584E+02-1.79908E+01-7.94882E+00-4.57026E+00-1.57329E-01-5.39578E+00
 -1      3665-1.99998E+02-2.29910E-10-2.51330E-10 5.52432E-10 1.20720E-09-1.55716E-09
 -1      3666-2.03816E+02 5.47213E-01 9.89725E-01-6.19881E-03 1.14150E-02-1.44847E+00
 -1      3667-1.99998E+02 6.74902E-10-8.81201E-11 5.88683E-11 4.42654E-10 2.31175E-10
 -1      3668-1.99998E+02 3.97465E-10 3.51348E-10 5.46344E-10 7.14142E-11 9.12684E-11
 -1      3669-1.96226E+02 5.27879E-01 3.90610E-01-1.44629E+00 4.39953E-01 1.42806E+00
 -1      3670-2.00252E+02 5.75264E-01 1.41796E+00-1.52466E+00 2.43416E-01 2.00956E+00
 -1      3671-1.94404E+02 6.46151E-01 8.22271E-01 1.09476E+00 7.65853E-01-1.74748E+00
 -1      3672-2.00532E+02 5.31212E-01 1.27588E+00 1.60987E+00 3.35442E-01-2.04841E+00
 -1      3673-1.99998E+02 3.13418E-11 4.69418E-11 1.45761E-10 1.07089E-09-3.48851E-11
 -1      3674-1.99998E+02 1.13557E-10 8.92329E-11-2.89458E-10 1.83393E-10 9.72161E-11
 -1      3675-1.99998E+02-4.26570E-11-6.10638E-11-7.13645E-10 4.02233E-10 8.17212E-11
 -1      3676-1.99998E+02-4.61195E-11 3.41996E-11-1.86406E-09 1.21943E-09 6.99022E-10
 -1      3677-1.96246E+02 3.55743E-01 5.48811E-01 1.42534E+00 4.12531E-01-1.42104E+00
 -1      3678-2.00213E+02 1.39089E+00 6.11050E-01 2.02920E+00 2.43534E-01-1.50832E+00
 -1      3679-1.99998E+02-3.58619E-12-1.80269E-12-1.28823E-12 1.43767E-12-5.41990E-14
 -1      3680-1.99998E+02 7.88779E-13 2.91546E-12 2.25972E-12 1.35242E-12-2.63199E-12
 -1      3681-1.99998E+02 6.47928E-12 1.26503E-11 1.37469E-11-1.94416E-12-1.56498E-11
 -1      3682-1.99998E+02-5.08702E-13 2.71593E-12 1.05926E-11-1.01790E-12-2.97006E-12
 -1      3683-1.99998E+02-2.09451E-13 7.09494E-12 7.50767E-12-1.02411E-12-1.12263E-11
 -1      3684-1.99998E+02 1.35240E-12 1.13885E-12 4.08610E-12-5.56922E-13-1.11182E-11
 -1      3685-1.99998E+02-6.36663E-12 1.84114E-13 1.67132E-11-1.82185E-12-6.03911E-12
 -1      3686-1.99998E+02 6.60598E-12 1.68488E-12 7.34999E-12 2.98366E-13 6.84401E-13
 -1      3687-1.99998E+02-7.22295E-13 1.72307E-12 3.37824E-12 5.76608E-13-6.11484E-12
 -1      3688-1.99998E+02-5.17402E-11 5.50661E-11-1.11043E-10 1.01362E-09 9.33236E-10
 -1      3689-1.99998E+02-6.06522E-11-6.76934E-11-9.51461E-11 4.22787E-10 7.34318E-10
 -1      3690-1.99998E+02 3.16889E-12-3.07565E-12 8.69009E-12-3.06309E-12 1.06424E-11
 -1      3691-1.99998E+02-1.62353E-12-8.68531E-13 4.95592E-12-2.84330E-12 6.40833E-12
 -1      3692-1.99998E+02-9.26549E-12-3.80046E-13-2.32689E-12-7.18988E-12 4.81473E-12
 -1      3693-1.99998E+02-6.93710E-13-3.04749E-13 1.22746E-12-5.22433E-12-8.91631E-13
 -1      3694-2.00024E+02 1.23131E-01 6.47378E-02 8.75250E-03-4.31378E-03-2.59723E-02
 -1      3695-2.00039E+02 2.67119E-01 1.15940E-01 1.15994E-01 1.29643E-02-1.18976E-01
 -1      3696-2.00024E+02 6.52564E-02 1.27311E-01 2.56625E-02-6.41131E-03-9.81365E-03
 -1      3697-2.00031E+02 1.17333E-01 2.76844E-01 1.18708E-01 9.18820E-03-1.13334E-01
 -1      3698-1.99998E+02-2.25807E-10 1.39118E-09-7.66344E-11-2.95409E-10 4.75921E-09
 -1      3699-1.99998E+02 3.91531E-10 6.49265E-11 2.12883E-09-1.19653E-09 1.38435E-09
 -1      3700-1.99998E+02 6.19407E-10 4.87048E-10 4.32612E-10 2.13465E-10 1.40937E-09
 -1      3701-1.99998E+02 3.13339E-10-5.87345E-10 2.66818E-10 1.90219E-10 1.15693E-09
 -1      3702-1.99998E+02 5.50782E-10 2.52659E-10 3.11098E-10-4.81159E-10-4.41317E-10
 -1      3703-1.99826E+02 5.37352E-02 5.07706E-02-8.76826E-02-1.38281E-02 9.26674E-02
 -1      3704-1.99913E+02 8.57567E-02 4.15494E-02-7.37450E-02-4.34263E-03 8.00745E-03
 -1      3705-1.99928E+02 2.03617E-02 8.17037E-02-8.65536E-03-6.52605E-03 7.78578E-02
 -1      3706-2.00003E+02 9.82976E-02 1.85859E-01-9.25567E-02 6.18862E-03 1.83811E-01
 -1      3707-2.00035E+02 1.61800E-01 7.80116E-02-1.63542E-01-1.53090E-03 1.08397E-01
 -1      3708-1.99928E+02 3.70567E-02 2.29268E-02-5.89818E-02-1.13508E-02 2.44416E-02
 -1      3709-1.99986E+02 1.11188E-02 2.00838E-02 6.40279E-03-6.06307E-03 1.39314E-02
 -1      3710-1.99989E+02 9.09421E-03 6.81420E-03-3.39546E-03-1.01134E-02 6.79284E-03
 -1      3711-1.99989E+02 1.63186E-02 9.95866E-03-1.30025E-02-4.44583E-03-7.09051E-04
 -1      3712-2.00007E+02-1.30399E-03-1.43434E-03 3.51748E-03 1.30393E-03 2.78171E-03
 -1      3713-1.99997E+02-2.36047E-03-1.43239E-03 3.39639E-03 4.96917E-05 2.59881E-03
 -1      3714-2.00003E+02-1.02391E-03-7.36969E-04 2.31976E-03 2.33708E-04 2.36147E-03
 -1      3715-1.99998E+02-1.72238E-03-2.78321E-03 2.23341E-03-7.80368E-05 3.21783E-03
 -1      3716-1.99998E+02 1.51338E-12-1.22322E-12 6.89513E-12-1.37090E-13-5.89554E-12
 -1      3717-1.99998E+02 6.81595E-13-1.98037E-13 5.39560E-12-2.36487E-12-3.63134E-12
 -1      3718-1.99998E+02 2.23960E-12 1.75440E-12 8.40109E-12-1.89445E-13-4.58153E-12
 -1      3719-1.99998E+02-1.85323E-12-3.01470E-12 1.50560E-11-2.14049E-12 4.76343E-13
 -1      3720-1.99998E+02 7.74050E-12 7.18175E-13 1.02829E-12-2.41813E-13-5.34777E-12
 -1      3721-1.99998E+02 2.17690E-12-1.59071E-12 3.61479E-12-2.63454E-12-7.31134E-12
 -1      3722-1.99998E+02 1.42984E-12-1.07591E-12 4.47597E-12-2.33585E-13-4.82114E-12
 -1      3723-1.99998E+02 4.04803E-12 2.16509E-12 1.72471E-12 2.23634E-12-1.76023E-12
 -1      3724-1.99998E+02 1.64741E-12 7.62311E-13 3.79362E-12-2.09236E-12-3.23129E-12
 -1      3725-1.99998E+02-1.07141E-12-2.57329E-12 4.92490E-12-9.89649E-13-1.32198E-12
 -1      3726-1.99998E+02 7.25976E-12 2.26496E-11-2.17299E-11 9.92102E-12-5.50354E-11
 -1      3727-1.99998E+02-8.32328E-13-6.66493E-12-1.20672E-11 2.89641E-11-2.12794E-11
 -1      3728-1.99998E+02 6.85193E-12 7.95567E-12-2.10319E-12 1.12592E-12-1.62948E-11
 -1      3729-1.99998E+02-7.44686E-12 8.05191E-12-1.09084E-11 2.89518E-11-3.20362E-11
 -1      3730-1.99998E+02 1.91425E-11 5.74644E-12 5.85755E-11 6.63716E-12 3.00331E-11
 -1      3731-1.99998E+02-1.40855E-11-4.50945E-13 2.20996E-11 2.80668E-11 1.92595E-11
 -1      3732-1.99998E+02 3.93856E-12 7.54356E-13 1.49986E-11-1.25882E-12 8.95828E-12
 -1      3733-1.99998E+02 3.99164E-12-8.41229E-12 3.45316E-11 3.09303E-11 1.36786E-11
 -1      3734-2.00001E+02-2.43465E-04-4.30318E-04 1.17300E-03 1.13331E-04 1.50968E-03
 -1      3735-1.99998E+02 3.19088E-06 3.55922E-06-6.02365E-06-2.48029E-06-7.27762E-06
 -1      3736-1.99998E+02 1.77095E-06 1.89556E-06-3.89961E-06-1.64094E-06-3.96416E-06
 -1      3737-1.99998E+02 7.25045E-06 4.23049E-06-8.05129E-06-5.33649E-06-7.91149E-06
 -1      3738-1.99998E+02 3.85937E-06 6.98684E-06-8.35966E-06-5.00735E-06-8.30336E-06
 -1      3739-1.99998E+02-6.83732E-10-1.16102E-09-2.58946E-09 6.43553E-10-3.10628E-09
 -1      3740-1.99998E+02-3.05656E-09-4.62295E-09-2.19833E-09 7.15411E-09-5.45575E-09
 -1      3741-1.99998E+02-9.02733E-10-1.32718E-09-3.17777E-09 1.23792E-09-3.36297E-09
 -1      3742-1.99998E+02-4.76100E-09-3.05491E-09-5.75498E-09 7.22037E-09-1.94927E-09
 -1      3743-1.99998E+02-6.27159E-10-9.18257E-10 2.50208E-09 5.20689E-10 3.08407E-09
 -1      3744-1.99998E+02-2.91074E-09-4.56270E-09 2.29342E-09 7.01844E-09 5.34116E-09
 -1      3745-1.99998E+02-1.92320E-04-1.21596E-04-2.80911E-04 2.64321E-05 2.05366E-04
 -1      3746-1.99998E+02-8.56713E-05-1.85025E-04-3.55869E-05-4.84845E-06 1.17093E-04
 -1      3747-1.99998E+02-4.38724E-05-4.68319E-05-6.75887E-05 2.33118E-05 6.70777E-05
 -1      3748-1.99998E+02-1.72368E-04-9.27280E-05-1.01780E-04-9.79389E-06 5.34883E-05
 -1      3749-1.99998E+02-1.29950E-09-9.64869E-10 3.58906E-09 1.22910E-09 2.84395E-09
 -1      3750-1.99998E+02-4.79816E-09-3.17201E-09 5.72213E-09 7.19787E-09 1.83136E-09
 -1      3751-2.00001E+02-2.38306E-04-4.51989E-04-1.21096E-03 1.25224E-04-1.56101E-03
 -1      3752-1.99998E+02-1.74650E-03-2.71160E-03-2.33869E-03-7.95130E-05-3.30369E-03
 -1      3753-2.00003E+02-1.04927E-03-7.77097E-04-2.36677E-03 2.23545E-04-2.42060E-03
 -1      3754-1.99997E+02-2.51502E-03-1.43906E-03-3.46623E-03-3.04206E-05-2.56039E-03
 -1      3755-2.00008E+02-1.36802E-03-1.58138E-03-3.70120E-03 1.27173E-03-2.94978E-03
 -1      3756-1.99998E+02-2.22823E-09-2.99723E-09 3.10200E-09 3.26530E-09 4.78314E-09
 -1      3757-1.99998E+02-3.25299E-09-2.29749E-09-5.04428E-09 3.50925E-09-3.02007E-09
 -1      3758-1.99998E+02 1.49694E-06 8.50335E-07 4.39767E-06-1.07425E-06 4.16964E-06
 -1      3759-1.99998E+02 3.95382E-06 6.87472E-06 7.83856E-06-4.54006E-06 8.43845E-06
 -1      3760-1.99998E+02-4.10961E-05-4.59455E-05 6.49905E-05 2.07202E-05-6.85069E-05
 -1      3761-1.99998E+02-1.29882E-04-2.05881E-04 2.06847E-04 1.43166E-05-2.79030E-04
 -1      3762-1.99998E+02-1.74287E-04-7.84516E-05 1.06491E-04-1.02128E-05-3.81297E-05
 -1      3763-1.99998E+02-7.38684E-05-1.65945E-04 5.08532E-05-1.07587E-05-1.00183E-04
 -1      3764-1.99998E+02 1.12944E-06 6.82304E-07 1.68261E-06 3.59042E-08-1.43942E-06
 -1      3765-1.99998E+02 2.89339E-07 2.98028E-07 5.64736E-07-1.33008E-08-5.76926E-07
 -1      3766-1.99998E+02 3.81549E-07 9.78451E-07 4.54857E-07-9.28149E-08-9.31826E-07
 -1      3767-1.99998E+02 9.40963E-07 4.23189E-07 8.48185E-07-8.46831E-08-5.41540E-07
 -1      3768-1.99998E+02 3.41961E-06 3.29759E-06 6.34989E-06-2.43360E-06 7.62842E-06
 -1      3769-1.99998E+02 7.40542E-06 4.07636E-06 8.49892E-06-5.30922E-06 8.56406E-06
 -1      3770-1.99998E+02 1.72310E-07 8.68959E-08-3.57782E-07-3.92016E-09 1.41942E-07
 -1      3771-1.99998E+02 9.95946E-07 5.02290E-07-8.66658E-07-8.12159E-08 5.18806E-07
 -1      3772-1.99998E+02 1.15113E-06 7.12432E-07-1.73091E-06 4.76369E-08 1.42660E-06
 -1      3773-1.99998E+02 4.39860E-07 1.02041E-06-4.79448E-07-7.82448E-08 9.31719E-07
 -1      3774-1.99998E+02-2.96942E-10-4.01053E-10-8.16737E-10 2.26256E-09-4.67400E-10
 -1      3775-1.99998E+02-7.42660E-11-6.88359E-11-2.59874E-10 1.04127E-09-7.84455E-11
 -1      3776-1.99998E+02 3.18909E-07 3.22493E-07-5.50411E-07-4.44528E-08 5.85886E-07
 -1      3777-1.99998E+02 1.57215E-12 3.64643E-12 2.07614E-11-4.19678E-12-2.86429E-12
 -1      3778-1.99998E+02 2.33671E-12-3.15491E-12 1.06366E-11-2.14927E-12-9.06478E-12
 -1      3779-1.99998E+02-3.18038E-12-2.17868E-12 1.30109E-11-1.20929E-12-7.89227E-12
 -1      3780-1.99998E+02 3.81854E-12 3.65092E-12 1.85581E-11 3.97430E-13-2.49702E-12
 -1      3781-1.99998E+02 5.77443E-12 2.95502E-12 6.61569E-12 9.63221E-13-9.29202E-12
 -1      3782-1.99998E+02 2.57682E-08-5.71019E-09 4.16045E-09-2.22029E-08-5.85729E-08
 -1      3783-1.99998E+02 4.16597E-09 6.05588E-09 6.09580E-08 1.13199E-08-7.95185E-08
 -1      3784-1.99998E+02 4.52058E-12 4.06608E-11-2.57604E-11 5.94177E-12-7.47948E-11
 -1      3785-1.99998E+02-1.78985E-09-6.16606E-09 5.76037E-08-1.00516E-08-5.39833E-08
 -1      3786-1.99998E+02-5.91578E-09 6.51176E-10 8.12318E-08 1.32578E-08-5.48957E-08
 -1      3787-1.94555E+02 5.81725E-01 2.57143E-01-1.79568E+00-6.79469E-01-1.22244E+00
 -1      3788-2.00910E+02 1.29489E+00 5.08436E-01-2.09432E+00-3.25843E-01-1.70718E+00
 -1      3789-2.03949E+02-5.85546E+00-4.58335E+00-9.80099E-01-9.43123E-01-8.38483E-02
 -1      3790-2.03179E+02-4.41432E+00-5.45861E+00-1.44114E-01-8.59863E-01-7.77801E-01
 -1      3791-1.93686E+02 1.49066E-01-1.39362E-02 1.71627E+00-9.69623E-01 1.53620E+00
 -1      3792-2.00798E+02 1.16465E-01 1.79007E-01 1.73008E+00-8.40126E-01 2.11866E+00
 -1      3793-2.00505E+02-8.12775E-02-3.43601E-01 2.01537E+00-6.84393E-01 1.46322E+00
 -1      3794-1.99998E+02 1.15421E-06 7.03396E-07-1.19335E-06-4.70151E-08-6.79538E-07
 -1      3795-1.99998E+02 7.29468E-07 1.22115E-06-6.49020E-07-6.15242E-08-1.23721E-06
 -1      3796-1.99998E+02 3.09671E-07 3.22915E-07-5.95618E-07 9.13381E-08-6.21502E-07
 -1      3797-1.99998E+02 3.64077E-07 1.45990E-07-4.67899E-07 7.31690E-08-5.39966E-08
 -1      3798-1.99998E+02 1.19367E-07 4.07856E-07-7.81151E-08 5.26530E-08-5.33890E-07
 -1      3799-1.99998E+02 1.18553E-06 7.08247E-07 1.22917E-06-3.08454E-08 6.93484E-07
 -1      3800-1.99998E+02 7.19282E-07 1.22119E-06 6.57459E-07-4.49198E-08 1.25033E-06
 -1      3801-1.99998E+02 3.16227E-07 3.26353E-07 6.09934E-07 9.32145E-08 6.36875E-07
 -1      3802-1.99998E+02 3.62102E-07 1.42615E-07 4.82147E-07 7.70577E-08 5.32307E-08
 -1      3803-1.99998E+02 1.22030E-07 4.26871E-07 8.60534E-08 5.29603E-08 5.43964E-07
 -1      3804-1.99998E+02 4.73570E-11-5.70070E-11 5.72470E-12 1.01774E-11-1.87543E-10
 -1      3805-1.99998E+02-5.38805E-12-5.62376E-12 4.93693E-12-8.75420E-13-5.49837E-12
 -1      3806-1.99998E+02-2.54480E-12-2.16905E-12 5.27330E-12-2.99198E-12-1.05055E-11
 -1      3807-1.99998E+02-8.13358E-13-2.49050E-13 2.00840E-12-1.77285E-12-5.24990E-12
 -1      3808-1.99998E+02 3.26475E-12 2.23251E-13 5.56783E-12 6.22603E-13-2.90282E-12
 -1      3809-1.99998E+02 4.98054E-12 1.18428E-12 2.96472E-12-1.12502E-12-8.45047E-12
 -1      3810-1.99998E+02-3.35657E-12-2.82127E-13 1.14390E-11-2.56032E-14-5.82922E-12
 -1      3811-1.99998E+02 1.89450E-12-1.08680E-13 1.68180E-11 1.00210E-12-7.92180E-13
 -1      3812-1.99998E+02 2.58892E-12 2.50467E-12 1.10867E-11 1.97698E-12-1.07871E-13
 -1      3813-1.99998E+02-6.22672E-13 2.48935E-13 9.02619E-12 6.38377E-13 6.70247E-13
 -1      3814-1.99998E+02 1.03565E-12-1.20641E-12 1.49329E-11-2.80200E-12-1.08123E-12
 -1      3815-1.99998E+02 1.79388E-12 8.27323E-13 7.09117E-12-2.15538E-12-1.46044E-12
 -1      3816-1.99998E+02 6.68652E-12 9.43131E-13 1.29571E-11-1.35682E-12-1.81438E-12
 -1      3817-1.99998E+02-8.53858E-11-2.77556E-10 1.73756E-09 1.13469E-09 9.53411E-10
 -1      3818-1.99998E+02 3.93378E-11 3.45751E-11 1.95076E-10 4.45728E-10 8.60184E-10
 -1      3819-1.99998E+02-3.57400E-11-1.03076E-10 6.42077E-10 1.26921E-09 1.58472E-09
 -1      3820-1.99998E+02-1.67798E-10-9.78441E-11 6.89524E-10 9.17228E-10 1.17517E-09
 -1      3821-1.99998E+02-2.40347E-10-3.82056E-11 9.27408E-10 1.15210E-09 1.74040E-09
 -1      3822-1.96517E+02 5.85587E-01 4.30111E-01-1.46270E+00-3.40382E-01-1.44825E+00
 -1      3823-2.00399E+02 6.70397E-01 1.46679E+00-1.50736E+00-1.76929E-01-1.97372E+00
 -1      3824-1.99998E+02 4.67476E-06-4.73458E-05 2.46331E-05 1.43487E-05 4.51336E-05
 -1      3825-1.99998E+02-6.49588E-05-1.25325E-05-5.76689E-05 5.58674E-06-7.97012E-06
 -1      3826-1.99998E+02-1.15722E-04-1.12950E-04-2.10187E-05-8.60488E-06 1.87352E-05
 -1      3827-1.99998E+02-1.33559E-07-4.43930E-06-4.22372E-06-1.28717E-05-1.49938E-07
 -1      3828-1.99998E+02-1.70984E-06-1.00238E-06 1.52636E-07-1.49755E-05-2.84727E-06
 -1      3829-1.99998E+02-1.20895E-05-1.23234E-05-2.04508E-06-1.73601E-05-2.01807E-06
 -1      3830-1.99998E+02 6.03363E-12-3.14472E-12 1.69370E-11-8.05104E-12 7.68468E-12
 -1      3831-1.99998E+02 1.79310E-12 1.56145E-13 6.99543E-12-8.26131E-13 4.83798E-12
 -1      3832-1.99998E+02 9.33139E-12 5.58699E-12 7.24881E-12-1.06466E-11 2.08037E-12
 -1      3833-1.99998E+02-7.16609E-12-6.91961E-13 1.10399E-12-4.89116E-12-2.52640E-12
 -1      3834-1.99978E+02 1.55219E-02 4.73452E-03 1.43408E-02 7.79131E-03-7.29624E-03
 -1      3835-1.99976E+02 1.09538E-01 7.99438E-02 7.40073E-02 1.12590E-02 5.87125E-02
 -1      3836-1.99999E+02 5.03996E-04 5.77474E-02 5.11574E-03-1.42954E-03 5.93907E-03
 -1      3837-1.99977E+02 3.54824E-03 1.16421E-02-6.61949E-03 9.81652E-03 1.44529E-02
 -1      3838-2.00043E+02 1.06065E-01 2.09693E-01 7.65464E-02-1.36361E-03 8.44697E-02
 -1      3839-1.99998E+02-6.54970E-12-1.53196E-12 9.59479E-12-2.08945E-12-7.43453E-12
 -1      3840-1.99998E+02-2.05487E-12-8.79343E-13 1.01302E-11-3.46716E-12-5.32717E-12
 -1      3841-1.99998E+02-3.25972E-13 1.09592E-12 1.97654E-11 1.78616E-12-4.15308E-13
 -1      3842-1.99998E+02 7.92272E-13 3.26123E-12 6.67823E-12 6.62906E-13-5.29988E-12
 -1      3843-1.99998E+02 2.41839E-13-1.17030E-12 9.51193E-12-9.56807E-13 1.38171E-12
 -1      3844-1.99998E+02-3.17643E-12 4.39515E-13 8.85798E-12-3.36463E-12-1.33915E-12
 -1      3845-1.99998E+02 5.26606E-12-7.72077E-14 7.42024E-12-6.36748E-13-1.37537E-12
 -1      3846-1.99998E+02 3.38896E-12-1.54864E-12 1.59300E-11-3.99447E-12-1.38735E-12
 -1      3847-1.99998E+02-1.06347E-12 1.03238E-12 2.83455E-12-1.49868E-12-4.52284E-12
 -1      3848-1.99998E+02 2.26185E-12 1.55002E-12 5.26019E-12-1.40897E-12-1.29107E-12
 -1      3849-1.99998E+02-1.74586E-12 8.86495E-14 2.41664E-12-1.88795E-12-4.49728E-12
 -1      3850-1.99998E+02-1.54411E-12-1.57964E-12 6.71627E-12-6.46104E-13-7.09719E-12
 -1      3851-1.99998E+02 2.93952E-06 3.33904E-06 1.51998E-06-8.96179E-06-2.41291E-07
 -1      3852-1.99998E+02 2.48544E-07 2.69326E-06-6.87542E-06-4.84930E-06 3.76007E-07
 -1      3853-1.99998E+02-1.39105E-05-1.67514E-05 1.37448E-06-2.10571E-05 1.48130E-05
 -1      3854-1.99998E+02-1.95818E-05-1.68090E-05 1.67631E-05-2.05095E-05 1.28737E-06
 -1      3855-1.99998E+02 2.28308E-06-1.21800E-05-1.72041E-06 2.32739E-05 4.60809E-05
 -1      3856-1.99998E+02-6.25057E-06-1.34888E-05 6.20335E-06 1.21468E-05-8.40091E-06
 -1      3857-1.99998E+02-2.02078E-06 2.26060E-07 2.07889E-05 6.99020E-06-1.25889E-05
 -1      3858-1.99998E+02-1.70791E-06-4.72361E-06 9.37771E-06 9.04434E-06-2.58201E-05
 -1      3859-1.99998E+02-1.97006E-05-5.91274E-05-1.67685E-05 8.50139E-06-4.71876E-05
 -1      3860-1.99998E+02-4.92214E-05 9.56647E-06 5.43057E-05 1.14028E-05 1.27001E-05
 -1      3861-1.99998E+02-1.10211E-04-1.15036E-04 1.80556E-05-9.68895E-06-2.30942E-05
 -1      3862-1.99998E+02-3.48666E-07-5.01512E-06 4.19359E-06-1.22468E-05 1.96376E-07
 -1      3863-1.99998E+02-1.94463E-06-1.03938E-06 6.52050E-07-1.42797E-05 2.50891E-06
 -1      3864-1.99998E+02-1.27342E-05-1.25276E-05 2.23274E-06-1.63177E-05 1.41661E-06
 -1      3865-1.99998E+02-1.16187E-05-2.58824E-05 5.50081E-06 1.28473E-05-4.19545E-05
 -1      3866-1.99998E+02-2.77324E-06-2.73015E-06-1.07214E-05 1.05612E-05 2.41168E-05
 -1      3867-1.99998E+02 3.35878E-07 2.20181E-06 7.40493E-06-4.51540E-06-1.57644E-07
 -1      3868-1.99998E+02-1.50673E-05-1.81176E-05-1.77823E-06-1.97773E-05-1.50817E-05
 -1      3869-1.99998E+02-7.11368E-09-1.35836E-08 3.62748E-08 5.01640E-09-5.80155E-08
 -1      3870-1.99998E+02-8.93636E-09-1.03697E-09 5.70645E-08 5.10496E-09-3.48458E-08
 -1      3871-1.99998E+02-1.58315E-08-1.43920E-08 3.91143E-08 2.56149E-08-3.89115E-08
 -1      3872-1.99998E+02-6.84848E-09-5.60490E-09 2.72522E-08 4.17949E-10-2.80330E-08
 -1      3873-1.99998E+02-1.39155E-08-1.37008E-08 4.02157E-08-1.45023E-09-3.77276E-08
 -1      3874-1.99998E+02-1.00804E-08-1.99115E-09 4.34152E-08 8.28877E-09-2.13232E-08
 -1      3875-1.99998E+02-3.93087E-09-1.20900E-08 2.17103E-08 7.82163E-09-4.35089E-08
 -1      3876-1.99998E+02-8.03470E-06-1.08084E-05-4.94448E-06 1.26672E-05 6.29855E-06
 -1      3877-1.99998E+02-3.09185E-06-2.36543E-08-2.04017E-05 6.73432E-06 9.95354E-06
 -1      3878-1.99998E+02 9.89567E-10-3.50864E-09-5.28915E-08 7.40697E-09 7.69968E-08
 -1      3879-1.99998E+02-5.34497E-09 3.45418E-09-7.89494E-08 7.89190E-09 5.18280E-08
 -1      3880-1.99998E+02-1.60840E-08-1.63897E-08-5.92227E-08-4.27723E-09 5.77921E-08
 -1      3881-1.99998E+02-5.18423E-09-1.06526E-08-3.17138E-08 5.14623E-09 5.71554E-08
 -1      3882-1.99998E+02-1.22672E-08-6.06199E-09-5.78458E-08 6.71326E-09 3.12467E-08
 -1      3883-1.99998E+02-1.11452E-08-1.02694E-08-4.19184E-08 2.39543E-08 4.13853E-08
 -1      3884-1.99998E+02 1.90852E-07 8.79437E-08-3.78118E-07 1.02007E-07-2.42695E-07
 -1      3885-1.99998E+02 3.48130E-08 4.69102E-08 2.66153E-08 8.21003E-08-1.73795E-07
 -1      3886-2.00007E+02 5.03640E-02-2.58884E-03 7.50326E-04-3.90819E-05-9.79179E-04
 -1      3887-1.99998E+02-8.92549E-11-7.14560E-11-1.56530E-09 1.28293E-09-6.44755E-10
 -1      3888-1.99998E+02 7.91591E-11 4.27689E-11-8.26351E-10 4.07716E-10-1.98141E-10
 -1      3889-1.99998E+02 6.07262E-08 5.51324E-08-9.84002E-08 6.60905E-08-9.80858E-08
 -1      3890-1.99998E+02 3.51401E-08 4.33291E-08-1.58736E-07 6.63132E-08 2.82659E-09
 -1      3891-1.99998E+02 1.98454E-07 9.20070E-08 3.87416E-07 1.03185E-07 2.50213E-07
 -1      3892-1.99998E+02 3.95938E-08 5.52158E-08-2.55033E-08 8.40589E-08 1.78441E-07
 -1      3893-1.99998E+02-6.24169E-09-7.01036E-09-2.76036E-08 5.52609E-10 2.75318E-08
 -1      3894-1.99998E+02-1.18458E-08-1.02484E-08-3.95497E-08 5.83913E-10 3.84475E-08
 -1      3895-1.99998E+02-2.33593E-09-1.01827E-08-2.12030E-08 8.03240E-09 4.37880E-08
 -1      3896-1.99998E+02-1.20662E-08-3.68107E-09-4.30045E-08 7.83016E-09 2.17713E-08
 -1      3897-1.99998E+02 2.85899E-06 2.82756E-06-6.57102E-07-8.58861E-06 5.08174E-07
 -1      3898-1.99998E+02-1.98113E-05-1.65095E-05-1.57473E-05-1.99764E-05-1.53996E-06
 -1      3899-1.99998E+02 6.56080E-12 1.14138E-12 1.15153E-11-1.15736E-12-3.98939E-12
 -1      3900-1.99998E+02 4.55418E-13-1.88154E-12 1.07611E-11 1.78769E-12-2.79289E-13
 -1      3901-1.99998E+02 7.87995E-13-2.13327E-12 1.86590E-11 1.05936E-13 1.31337E-12
 -1      3902-1.99998E+02-3.24282E-12-5.24138E-12 6.60526E-12-5.46109E-14-1.10556E-11
 -1      3903-1.99998E+02 1.63016E-12-1.21328E-12 1.42074E-11-1.07761E-12-1.64482E-12
 -1      3904-1.99998E+02-4.20097E-12 6.02804E-13 1.04034E-11 2.44260E-13-5.97865E-12
 -1      3905-2.00047E+02 2.20530E-01 1.01265E-01-9.42506E-02-3.80090E-04-9.04859E-02
 -1      3906-1.99998E+02 8.15136E-12-1.23350E-10 3.78464E-10 5.82645E-11-6.81236E-10
 -1      3907-1.99998E+02-5.78785E-11-1.74894E-10 8.99414E-10 1.97179E-10-7.78988E-10
 -1      3908-1.99998E+02-1.39703E-10 3.24449E-11 1.76275E-09 1.17135E-09-7.43348E-10
 -1      3909-1.99998E+02 8.72761E-11-7.61031E-11 8.72888E-10 1.12766E-09-1.59369E-09
 -1      3910-1.99998E+02 1.43512E-12 5.21664E-11 1.06226E-09 9.62736E-10-5.72970E-10
 -1      3911-1.99998E+02 1.47067E-11-1.55925E-13-1.68344E-11 5.89751E-11 6.13060E-11
 -1      3912-1.99998E+02 4.84805E-11 8.35031E-12-9.48500E-11 1.68577E-10 1.86590E-10
 -1      3913-1.99985E+02 2.61767E-02 1.12511E-02-5.97533E-03-3.23452E-03-1.84509E-03
 -1      3914-1.99980E+02 1.11324E-02 1.13510E-02-5.40142E-04-1.95597E-03 5.79367E-04
 -1      3915-1.99998E+02-1.56506E-09-2.50038E-09-4.98145E-09 4.41456E-09 9.12500E-09
 -1      3916-1.99998E+02-3.39989E-11-8.56166E-10-1.04796E-09 1.39840E-09 3.92790E-09
 -1      3917-1.99998E+02 8.67151E-09-9.66724E-09 1.82680E-08 3.49656E-08-2.14178E-08
 -1      3918-1.99998E+02-6.06867E-09-4.62021E-09 5.39582E-08 1.86664E-08-3.85674E-08
 -1      3919-1.99998E+02 1.23971E-12 1.32620E-11-4.75831E-11 6.10112E-11 1.75229E-11
 -1      3920-1.99998E+02 2.24166E-11 6.03440E-11-1.68432E-10 1.71990E-10 9.86596E-11
 -1      3921-1.99998E+02 7.70525E-11-9.71339E-09-2.08660E-08 3.70350E-08 2.42766E-08
 -1      3922-1.99998E+02-9.74209E-09 1.90046E-09-5.59306E-08 1.60008E-08 3.69545E-08
 -1      3923-1.99998E+02-2.38959E-09-1.61048E-09-8.95997E-09 4.41911E-09 5.10909E-09
 -1      3924-1.99998E+02-8.11185E-10-1.19545E-10-3.79044E-09 1.42183E-09 1.12543E-09
 -1      3925-1.99998E+02 6.37991E-08 5.89445E-08 1.00904E-07 6.65593E-08 1.02549E-07
 -1      3926-1.99998E+02 3.35672E-08 3.73556E-08 1.63753E-07 6.64967E-08-5.80794E-10
 -1      3927-1.99998E+02-1.18401E-08 1.04077E-08 2.20555E-08 3.50372E-08-1.83958E-08
 -1      3928-1.99998E+02-4.75670E-09-3.77242E-09 3.90046E-08 1.84319E-08-5.33848E-08
 -1      3929-1.99984E+02 1.17971E-02 2.54301E-02 1.07961E-03-3.25589E-03 7.39554E-03
 -1      3930-1.99998E+02 6.59654E-12-3.20694E-11 4.00380E-10 3.73398E-10-1.29291E-10
 -1      3931-1.99998E+02 1.04425E-10 1.03647E-10 1.85446E-10 4.20583E-10-1.83044E-10
 -1      3932-1.99998E+02-1.14362E-08 2.56946E-09-2.51667E-08 3.70756E-08 2.05533E-08
 -1      3933-1.99998E+02 5.81908E-10-7.19116E-09-3.73308E-08 1.62025E-08 5.51200E-08
 -1      3934-1.94474E+02 6.08792E-01 8.15671E-01 1.24807E+00-8.32214E-01 1.81759E+00
 -1      3935-2.01136E+02 5.00729E-01 1.23528E+00 1.66524E+00-3.22839E-01 1.98392E+00
 -1      3936-1.99998E+02 4.24297E-10 2.23438E-10 3.06912E-10-4.53924E-10 3.68994E-10
 -1      3937-1.99998E+02 2.38670E-11-3.88293E-10-1.29457E-10-1.14398E-10 3.22702E-10
 -1      3938-1.96569E+02 4.15492E-01 6.15592E-01 1.44951E+00-3.00006E-01 1.46915E+00
 -1      3939-2.00446E+02 1.41902E+00 6.83872E-01 1.97430E+00-2.17767E-01 1.47453E+00
 -1      3940-2.00064E+02 8.64097E-01 9.84604E-01 7.39829E-01 8.28020E-02-1.06810E+00
 -1      3941-1.99612E+02 1.60788E-01 4.20436E-01 2.22296E-01 4.90833E-02-5.70237E-01
 -1      3942-1.99998E+02 1.03402E-12-1.29289E-10 1.29194E-10-1.02418E-10 4.29207E-10
 -1      3943-1.99998E+02 6.21715E-11 1.04270E-11 4.24110E-11-2.00532E-10 1.15779E-10
 -1      3944-1.99998E+02 6.95885E-07-4.00003E-05-2.66248E-05 2.66941E-06 2.19353E-05
 -1      3945-1.99998E+02-9.34796E-05-2.12661E-04 2.62051E-05-1.66536E-05-6.69822E-06
 -1      3946-1.99998E+02-9.65931E-05-1.47025E-04 4.22153E-05-3.20303E-05-9.44590E-06
 -1      3947-1.99998E+02-1.31204E-05-6.08119E-05-8.14436E-06-1.69620E-05 2.68395E-05
 -1      3948-1.99998E+02-2.70205E-05-3.41943E-05-5.64082E-06-1.53466E-05 2.01131E-05
 -1      3949-1.99998E+02-5.32633E-12 2.67009E-12 5.88479E-12 5.69145E-13-4.56593E-12
 -1      3950-1.99998E+02-7.11221E-12-5.76320E-12 4.81250E-12-1.70589E-13-4.95063E-12
 -1      3951-1.99998E+02-7.45862E-07-3.50307E-06-1.98267E-05-8.66869E-08 7.45586E-06
 -1      3952-1.99998E+02 5.00754E-06 2.14487E-06-1.64017E-05-3.98152E-06 1.22864E-06
 -1      3953-1.99998E+02 2.38096E-06 7.43643E-06-1.30403E-05-4.60084E-06 1.04174E-06
 -1      3954-1.99998E+02-1.05531E-05-2.24375E-05-7.18874E-06-1.71530E-05 1.40242E-05
 -1      3955-1.99998E+02-1.10699E-05-2.34755E-05 6.84495E-06-1.63072E-05-1.38521E-05
 -1      3956-1.99998E+02 2.34855E-06 7.45055E-06 1.28674E-05-4.21913E-06-6.03835E-07
 -1      3957-1.99998E+02 5.62945E-06 2.05485E-06 1.53988E-05-3.85429E-06-1.29160E-06
 -1      3958-1.99998E+02-2.76509E-07-4.08366E-06 1.93280E-05-6.55630E-07-7.35059E-06
 -1      3959-1.99998E+02-2.65593E-05-3.56779E-05 3.22237E-06-1.45380E-05-2.04866E-05
 -1      3960-1.99998E+02-2.06942E-04-9.94529E-05-1.10769E-05-1.62275E-05 2.90787E-05
 -1      3961-1.99998E+02-1.39278E-04-1.00468E-04-1.05382E-05-3.27911E-05 4.33475E-05
 -1      3962-1.99998E+02-6.17205E-05-1.31861E-05 2.53606E-05-1.71497E-05-7.48573E-06
 -1      3963-1.99998E+02-3.67489E-05 4.86756E-07 1.92201E-05 1.54626E-06-2.55156E-05
 -1      3964-1.99998E+02-3.39710E-05-2.66784E-05 1.91334E-05-1.51669E-05-4.75008E-06
 -1      3965-1.99998E+02-2.27395E-05-1.06135E-05 1.37411E-05-1.70096E-05-6.72213E-06
 -1      3966-1.99998E+02 7.93497E-06 2.44019E-06 7.40775E-07-4.50241E-06-1.30658E-05
 -1      3967-1.99998E+02-2.76107E-06-1.21271E-06 6.41956E-06-2.52527E-09-1.87467E-05
 -1      3968-1.99998E+02 2.50706E-06 5.23591E-06 1.17571E-06-3.98546E-06-1.59007E-05
 -1      3969-1.99998E+02-1.32238E-05-6.64177E-05 7.03846E-06-1.59264E-05-2.44215E-05
 -1      3970-1.99998E+02-1.02100E-04-1.44302E-04-4.36311E-05-3.09322E-05 1.05642E-05
 -1      3971-1.99998E+02-1.04578E-04-2.20351E-04-3.16491E-05-1.27010E-05 1.85895E-05
 -1      3972-1.99998E+02 6.56446E-06-3.61844E-05 2.58521E-05 2.03783E-07-2.12084E-05
 -1      3973-2.00018E+02 9.96310E-01 8.70438E-01 1.05332E+00 7.57541E-02-7.58972E-01
 -1      3974-1.99598E+02 4.14653E-01 1.63856E-01 5.69847E-01 4.79951E-02-2.15880E-01
 -1      3975-1.99998E+02 7.84090E-06 2.49926E-06-6.04256E-07-4.18748E-06 1.30663E-05
 -1      3976-1.99998E+02 2.22632E-06 5.06458E-06-1.70902E-06-3.55896E-06 1.56482E-05
 -1      3977-1.99998E+02-2.97900E-06-1.61755E-06-7.34880E-06-3.47280E-07 1.85651E-05
 -1      3978-1.99998E+02-2.28938E-05-1.03104E-05-1.33372E-05-1.66648E-05 6.26846E-06
 -1      3979-1.99998E+02-3.36983E-05-2.70204E-05-2.07877E-05-1.46364E-05 3.18460E-06
 -1      3980-1.99998E+02 3.81079E-11-2.09765E-10-6.84855E-10 1.18354E-09 1.85026E-09
 -1      3981-1.99998E+02 3.63083E-12-1.70598E-11-8.34078E-13-5.19369E-12 7.86843E-12
 -1      3982-1.99998E+02 2.07627E-11 3.04625E-13-1.28227E-11-7.44574E-12 2.77850E-12
 -1      3983-1.99998E+02 2.21614E-11 1.21071E-12 1.27374E-12-2.08615E-11 6.31009E-12
 -1      3984-1.99998E+02-3.62558E-05 2.46727E-06-2.10242E-05 2.45954E-06 2.53219E-05
 -1      3985-1.99998E+02-2.23143E-04-1.02136E-04 1.38964E-05-1.27617E-05-3.16241E-05
 -1      3986-1.99998E+02-6.35573E-05-1.28280E-05-2.38680E-05-1.61701E-05 6.92642E-06
 -1      3987-1.99998E+02-1.49896E-04-1.00106E-04 9.29776E-06-3.02911E-05-4.53723E-05
 -1      3988-1.99998E+02 2.89270E-11-7.02005E-11 1.31672E-10-3.91857E-11 1.47869E-10
 -1      3989-1.97907E+02 3.14864E-01 1.92751E-01 9.73931E-01-1.34424E-01 8.76537E-01
 -1      3990-1.99998E+02 5.71434E-12 7.57875E-12-3.59984E-12 5.19765E-12-2.47141E-11
 -1      3991-2.00017E+02-8.14697E-03 3.66748E-02-4.50173E-03-2.99294E-03-3.05406E-03
 -1      3992-2.00004E+02 2.38499E-03 2.52245E-03-5.18826E-03-2.94927E-03-4.61327E-03
 -1      3993-1.99990E+02 4.71734E-03 8.39863E-03 3.92527E-04-3.48183E-03 1.15458E-03
 -1      3994-2.00006E+02-7.82000E-04-7.95203E-04 4.48296E-03-3.01997E-03-2.97571E-03
 -1      3995-1.99994E+02 7.95006E-03 4.30235E-03-5.46825E-04-2.91744E-03-7.25063E-04
 -1      3996-1.99998E+02 5.53765E-12 2.17392E-12 2.03618E-12 5.06425E-13 1.74053E-12
 -1      3997-1.99998E+02-2.30198E-11 1.84317E-11 1.25537E-10 3.61503E-10-3.98820E-10
 -1      3998-1.99998E+02-4.76636E-10 2.46930E-10 8.12020E-10 6.06898E-11-1.68968E-10
 -1      3999-2.00019E+02 3.52628E-02-8.52379E-03 2.35848E-03-2.85125E-03 3.86035E-03
 -1      4000-1.99998E+02-9.86915E-12-3.00338E-12 5.23081E-11-1.55032E-12-5.35793E-11
 -1      4001-1.99998E+02 3.40895E-12-6.17471E-12 1.49770E-10 3.10296E-10-2.66258E-10
 -1      4002-1.99998E+02-6.54776E-12 5.32195E-12 2.54516E-10 2.82852E-10-1.39647E-10
 -1      4003-1.99998E+02-2.93373E-11 6.61966E-12 1.01265E-10 6.74586E-11-4.03213E-11
 -1      4004-1.99998E+02 1.90924E-11-5.86541E-13 5.62048E-11 8.28915E-11-9.09301E-11
 -1      4005-1.99446E+02 1.59845E-01 9.58282E-02-2.80537E-01-1.15605E-02 1.90369E-01
 -1      4006-1.99971E+02 1.93739E-02 1.94235E-02-3.56133E-03 6.04287E-03 4.02534E-03
 -1      4007-1.91927E+02-3.96264E+01-3.66514E+01-6.98367E-01 4.94307E-01-7.24165E+00
 -1      4008-1.99998E+02-2.32853E-12 8.54044E-13 1.21436E-11 1.85962E-12-1.67185E-12
 -1      4009-1.99998E+02 1.38485E-11 9.76973E-12 1.31751E-11 2.21972E-11-6.55457E-12
 -1      4010-1.99998E+02 5.79961E-12 1.80077E-12 2.20271E-11 2.05088E-11-1.01730E-11
 -1      4011-1.99998E+02-6.46090E-12-2.32121E-12 1.64977E-11 5.67396E-12-3.18581E-12
 -1      4012-1.99998E+02 6.01368E-12 4.69738E-12 1.89242E-11 2.31729E-11-6.58001E-12
 -1      4013-1.99998E+02-8.37780E-12-3.42164E-12 1.69379E-11 6.64528E-12-1.84525E-12
 -1      4014-1.99998E+02 2.60626E-09 2.12272E-09-5.54061E-10 1.61126E-09 4.16215E-09
 -1      4015-1.99998E+02-7.47082E-10 6.18186E-10 2.09756E-10 1.00301E-09 5.34889E-10
 -1      4016-1.99998E+02 6.36433E-12 5.12716E-12 1.40146E-11-2.60642E-12-3.56332E-12
 -1      4017-1.99998E+02-4.22676E-13 4.11032E-13 1.56556E-11-1.52039E-12-4.07170E-12
 -1      4018-1.99998E+02 2.60856E-10 2.34714E-10 1.50768E-10 5.29189E-10-1.31565E-10
 -1      4019-1.99998E+02-8.81952E-09-7.24034E-09-2.34040E-08 3.61111E-08 2.29449E-08
 -1      4020-1.99998E+02-1.14911E-09 1.38223E-11 2.00572E-08 3.38732E-08-1.99074E-08
 -1      4021-1.99998E+02 4.14608E-11 6.10558E-11 1.56072E-10 1.15779E-11-7.02669E-11
 -1      4022-1.99998E+02-5.38092E-11 1.52486E-11 4.15602E-10 3.98835E-10-1.89287E-10
 -1      4023-1.99999E+02-2.13757E-03-3.13296E-03 5.76597E-03-2.99748E-03-4.24415E-03
 -1      4024-1.99999E+02-2.47013E-03-6.66185E-04 3.86627E-03-2.48529E-03-4.93538E-03
 -1      4025-1.99998E+02 2.84609E-12 5.60833E-12 1.31065E-11 1.66269E-11-1.05369E-11
 -1      4026-1.99998E+02-9.92836E-13 2.57948E-12 3.73281E-12 6.01753E-12-4.63872E-12
 -1      4027-1.99998E+02-8.38290E-13 3.58344E-13 9.23844E-12 1.83756E-12-7.57480E-12
 -1      4028-1.99998E+02-2.46069E-13 5.24924E-12 1.16156E-11 1.05720E-11-6.98181E-12
 -1      4029-1.99998E+02 1.41584E-11 1.15039E-11 1.51118E-11 2.48275E-11-8.15800E-12
 -1      4030-1.99998E+02-4.38031E-11-4.99181E-11 2.43251E-10 5.82474E-11-1.93472E-10
 -1      4031-1.99998E+02 1.56636E-11-1.30915E-11 1.85354E-10 3.91915E-10-4.47966E-10
 -1      4032-1.99998E+02 3.48684E-11 5.31361E-12-3.10927E-12-1.41244E-11 7.91375E-12
 -1      4033-1.99998E+02-1.93523E-10-5.79351E-10 1.39757E-09 4.66756E-10-2.26009E-09
 -1      4034-1.97890E+02 1.75840E-01 3.62994E-01-8.70510E-01-1.44830E-01-9.59800E-01
 -1      4035-1.99998E+02 3.36874E-12 7.72810E-12 6.79494E-12 5.92246E-12 3.25745E-12
 -1      4036-1.99998E+02 8.44079E-12 6.36475E-12 1.29544E-11 3.28858E-12-3.71941E-12
 -1      4037-1.99998E+02 2.51425E-12-1.23735E-12 6.56991E-12 1.59661E-12 1.62799E-12
 -1      4038-1.99998E+02 1.86893E-12 4.33008E-12 7.20022E-12 2.79003E-12-1.23512E-12
 -1      4039-1.99998E+02-2.46982E-05-2.49289E-05-1.00109E-05-6.32055E-06 8.35851E-06
 -1      4040-1.99998E+02-1.25364E-04-1.24961E-04 3.93170E-05-2.70657E-05-4.11994E-05
 -1      4041-1.99998E+02-3.43697E-05-3.40441E-05 3.92515E-06-3.69118E-05 2.31548E-06
 -1      4042-1.99998E+02-3.42637E-05-3.60257E-05-2.59024E-06-3.57200E-05-5.63931E-06
 -1      4043-1.99998E+02-3.07218E-06-3.64174E-06 1.05901E-06-8.82248E-06 1.18686E-06
 -1      4044-1.99998E+02-2.21505E-05-2.31891E-05 8.69357E-06-7.23819E-06-9.83537E-06
 -1      4045-1.99998E+02-3.44624E-06-3.23231E-06-1.98793E-06-9.10917E-06-1.81206E-06
 -1      4046-1.99998E+02-1.16694E-04-1.19445E-04-3.74795E-05-2.91174E-05 3.71535E-05
 -1      4047-1.99998E+02-1.66017E-11-4.06887E-12 2.03405E-11 4.02488E-11 1.47528E-11
 -1      4048-1.99998E+02 2.15046E-12 6.93153E-12 6.16740E-12 9.58220E-12-2.36779E-13
 -1      4049-1.99998E+02 5.68955E-12 1.01938E-11 2.04053E-11 3.00954E-11 1.95166E-11
 -1      4050-1.99998E+02 2.69036E-12 3.51572E-12 3.11227E-11 3.50862E-11 1.15854E-11
 -1      4051-1.99998E+02 9.09055E-12 5.01417E-12 6.67246E-12 3.81018E-12-2.87328E-12
 -1      4052-1.99998E+02 2.44230E-11 2.98863E-11 8.69934E-10 1.15193E-10 8.49043E-10
 -1      4053-1.99998E+02-1.09211E-10-1.19657E-10-2.13365E-10 1.88654E-11 1.84544E-10
 -1      4054-1.99998E+02 1.10761E-07 4.41109E-08-1.09458E-07 4.28708E-08 2.33300E-08
 -1      4055-1.99998E+02 5.32423E-08 1.48278E-08-4.99089E-08 4.21411E-08 3.28401E-09
 -1      4056-1.99998E+02 2.13578E-08 7.17344E-09-7.65053E-08 1.91147E-08 5.65911E-08
 -1      4057-1.99998E+02 1.57482E-07 6.95647E-08-3.21619E-08-2.59251E-08 2.46781E-08
 -1      4058-1.99998E+02 9.05662E-08 9.71380E-08-3.81950E-08 5.71722E-09 3.38329E-08
 -1      4059-1.99998E+02 1.04161E-08 5.81887E-08-4.32192E-09 4.39805E-08 5.09590E-08
 -1      4060-1.99998E+02 4.59881E-08 1.20138E-07-2.03323E-08 4.48716E-08 1.16665E-07
 -1      4061-1.99998E+02 4.91357E-09 2.72421E-08-5.78460E-08 1.91426E-08 7.64430E-08
 -1      4062-1.99998E+02 6.44549E-08 1.69774E-07-2.93397E-08-2.55512E-08 2.91255E-08
 -1      4063-1.99985E+02-3.99621E-04 3.64310E-04 4.10061E-04 7.19796E-03 4.53050E-03
 -1      4064-1.99998E+02-1.00627E-11-4.26678E-12 9.08316E-12-4.51647E-13-2.59876E-13
 -1      4065-1.99998E+02-4.99783E-12-1.49367E-12 8.77303E-12 5.44168E-12-1.39053E-12
 -1      4066-1.99998E+02 1.38213E-13-4.71812E-13 7.59602E-12 6.12988E-13-6.10635E-12
 -1      4067-1.99998E+02-4.90529E-12-3.41550E-12 1.34611E-11 1.41218E-12-6.46988E-12
 -1      4068-1.99998E+02 2.82590E-11 1.69021E-11 3.50146E-11 6.21357E-11 6.65368E-12
 -1      4069-1.99998E+02 9.23720E-12 6.51125E-12 3.44785E-11 3.25286E-11 1.02165E-11
 -1      4070-1.99998E+02 1.14322E-11-9.06920E-11 2.93579E-10 5.26429E-10-9.33784E-10
 -1      4071-1.99998E+02 1.94604E-12-9.61911E-13 1.44520E-11 7.76821E-12 2.99991E-13
 -1      4072-1.99998E+02-5.34285E-12-7.07333E-13-3.27594E-12 4.26362E-11-1.07825E-11
 -1      4073-1.99998E+02 9.29491E-12 7.84596E-12-5.82254E-12 2.91355E-11-2.23186E-11
 -1      4074-1.99998E+02 4.14577E-12 3.03442E-12 1.61102E-11 9.25670E-12-5.34061E-12
 -1      4075-1.99998E+02 2.27983E-12 2.29329E-12-5.10931E-12 3.84276E-11-2.13144E-11
 -1      4076-1.99998E+02-3.15364E-12-1.61616E-12 1.92377E-11 2.92078E-12-4.17053E-12
 -1      4077-1.99998E+02-4.08180E-12 2.24594E-12 9.52544E-12 2.64740E-12-1.69556E-12
 -1      4078-1.99998E+02 2.50145E-12 1.09184E-12 1.23740E-11 1.82058E-12-1.45013E-12
 -1      4079-1.99998E+02 4.11309E-13 5.70710E-12 1.16589E-11 4.00854E-12 2.76414E-12
 -1      4080-1.99998E+02 7.05347E-12-4.81511E-12 2.22704E-11 6.23802E-12 3.12045E-12
 -1      4081-1.99998E+02 7.07005E-12 4.64911E-12 8.77597E-12 2.27049E-12-2.05070E-12
 -1      4082-1.99998E+02 1.55144E-11 3.00767E-11 1.89861E-11-1.23771E-11 5.44852E-12
 -1      4083-1.99998E+02-2.53945E-11 6.19066E-11 7.08884E-11-1.08601E-11 3.59797E-11
 -1      4084-1.99998E+02 4.72110E-11 1.72920E-11 2.94793E-11-1.86358E-11 8.23309E-12
 -1      4085-1.99998E+02 4.92642E-11 5.70182E-11 8.52986E-11-2.80792E-11 5.35792E-11
 -1      4086-1.99998E+02 1.03414E-12 5.36918E-12 7.97287E-12 2.12979E-12-3.24823E-12
 -1      4087-1.99998E+02 2.75254E-13-2.03577E-13 1.68971E-11 4.38461E-12-3.22632E-12
 -1      4088-1.99998E+02 8.99083E-12 5.02593E-12 4.24624E-12 1.98412E-12-8.53650E-12
 -1      4089-1.99998E+02 3.79727E-12-1.09460E-12 9.80220E-12 4.47823E-12-1.58540E-12
 -1      4090-1.99998E+02 4.31229E-11 4.49373E-11 2.54695E-10 1.90097E-10 2.41533E-10
 -1      4091-1.99998E+02 5.47233E-12-1.01518E-12 7.54800E-12-3.83671E-12-4.32419E-12
 -1      4092-1.99998E+02 4.66813E-12 2.82965E-12 4.08247E-12-4.05475E-12-6.50468E-12
 -1      4093-1.99998E+02-2.83329E-10-2.42925E-10 1.25106E-09 7.03080E-10 1.19023E-09
 -1      4094-1.99998E+02-3.27534E-13-9.97727E-12 2.36123E-11-8.36972E-12 9.33675E-12
 -1      4095-1.99998E+02 2.12695E-11 9.04681E-12 2.00413E-11-1.38274E-11 2.14099E-13
 -1      4096-1.99998E+02 1.45746E-11 9.41743E-12 1.64284E-11-1.10263E-11-4.92953E-12
 -1      4097-1.99990E+02 9.98717E-03 8.70228E-03 2.12415E-03 5.96673E-03 2.17821E-03
 -1      4098-1.99998E+02 4.01111E-08 6.58438E-08-2.42187E-08-2.26420E-08 4.42688E-08
 -1      4099-1.99998E+02 5.90890E-08 4.74287E-08-4.96057E-08-2.24029E-08 1.92846E-08
 -1      4100-1.99998E+02 4.43889E-08 5.08595E-08-1.12690E-08-3.68910E-08 2.99135E-09
 -1      4101-1.99998E+02-1.29066E-04-2.46422E-04 7.86251E-05-2.69734E-05 1.23033E-04
 -1      4102-1.99998E+02-1.64452E-04-1.60875E-04 9.31532E-05-4.57831E-05 1.01912E-04
 -1      4103-1.99998E+02 9.33014E-08 1.49998E-07-2.73566E-10-5.59963E-08-5.42891E-08
 -1      4104-1.99998E+02 1.35782E-07 9.91050E-08 4.85807E-08-5.65806E-08-6.17815E-09
 -1      4105-1.99997E+02 5.55409E-03 5.55965E-03-8.36861E-04 4.58200E-03-2.22625E-05
 -1      4106-1.99671E+02 1.09944E-01 1.07726E-01 1.68726E-01 2.05938E-02 1.71947E-01
 -1      4107-1.99997E+02-1.07651E-03-3.52614E-03 2.87873E-03-2.47935E-04-1.11433E-03
 -1      4108-1.99993E+02-2.86511E-03-2.66992E-03 3.20981E-03-1.24983E-03-3.17208E-03
 -1      4109-1.99998E+02-1.79864E-12-3.03058E-12 5.34025E-11 3.41437E-11-1.55078E-12
 -1      4110-1.99998E+02 5.87891E-11 5.92838E-11 5.18198E-11 9.94702E-11-3.51719E-11
 -1      4111-1.99998E+02-4.09121E-12-1.17321E-12 6.90475E-12-1.55780E-12-6.62477E-12
 -1      4112-1.99998E+02-9.20793E-12-5.07993E-12 1.27826E-11-3.51856E-12-5.84023E-12
 -1      4113-1.99998E+02-8.30607E-13 2.23375E-12 1.15939E-11-3.06581E-12-4.74284E-13
 -1      4114-1.99998E+02-4.71242E-12 5.68390E-12 8.31036E-12-2.79269E-12-7.65663E-12
 -1      4115-1.99998E+02-5.90883E-12 3.07476E-13 7.96305E-12-5.58543E-14-4.45748E-12
 -1      4116-1.99998E+02 1.19137E-12 3.66561E-12 4.50317E-12-1.78557E-12-3.65895E-12
 -1      4117-1.99998E+02 3.37033E-12 1.37963E-11-5.91615E-12 3.53642E-11 2.06803E-11
 -1      4118-1.99998E+02 9.03315E-12 1.28995E-11-1.85322E-12 4.67938E-11 1.48597E-11
 -1      4119-1.99998E+02-4.91870E-12-6.35062E-13 9.51710E-12 3.39341E-11-4.93742E-11
 -1      4120-1.99998E+02 1.64217E-11 1.63245E-11 1.69824E-12 6.08802E-11-2.43505E-11
 -1      4121-1.99998E+02 1.33196E-11 2.97222E-12-3.51922E-12 3.74251E-11 1.18332E-11
 -1      4122-1.99998E+02 3.52967E-06 8.27791E-06 1.24536E-05-1.20345E-06-8.27793E-06
 -1      4123-1.99998E+02 8.48096E-07 1.80231E-07 1.38937E-05-1.50127E-06-1.40727E-05
 -1      4124-1.99998E+02 3.50820E-06 8.51536E-06-1.25670E-05-1.16011E-06 8.49440E-06
 -1      4125-1.99998E+02 4.11823E-07 4.93521E-07-1.45644E-05-1.29310E-06 1.39776E-05
 -1      4126-1.99998E+02-1.32259E-11-3.84480E-12 1.51799E-11 1.37715E-11-2.52962E-12
 -1      4127-1.99998E+02 1.16132E-11 7.68553E-12 2.15345E-11 2.82609E-11-5.28328E-12
 -1      4128-1.99998E+02-1.19115E-04-2.55173E-04-8.56431E-05-3.43421E-05-1.16672E-04
 -1      4129-1.99998E+02-1.62347E-04-1.67611E-04-1.02944E-04-4.42220E-05-9.73677E-05
 -1      4130-1.99998E+02-2.43722E-04-1.17087E-04 1.12355E-04-3.37521E-05 8.31593E-05
 -1      4131-1.99998E+02 8.87870E-06 3.56436E-06 8.27411E-06-1.28149E-06-1.24896E-05
 -1      4132-1.99998E+02-2.37313E-12 1.19741E-12 2.09681E-12 1.38501E-13 1.85954E-12
 -1      4133-1.99998E+02-4.30629E-12 2.90902E-12 1.11121E-11-4.36560E-13 5.55329E-13
 -1      4134-1.99998E+02-6.40374E-12-1.52432E-12 8.60575E-12 8.22686E-13-2.53320E-13
 -1      4135-1.99998E+02-1.13648E-08-3.23971E-09 1.99992E-08 7.36489E-09-7.98495E-09
 -1      4136-1.99998E+02-5.41488E-09-5.33688E-09 1.93336E-08 1.35262E-08-1.92842E-08
 -1      4137-1.99998E+02-1.13019E-08-3.27679E-09-1.99482E-08 7.36789E-09 7.86081E-09
 -1      4138-1.99998E+02-5.18790E-09-5.22767E-09-1.90281E-08 1.35480E-08 1.92144E-08
 -1      4139-1.98388E+02 9.22617E-01 9.43521E-01-1.03005E+00 1.13985E-01 1.02396E+00
 -1      4140-1.99998E+02-3.23068E-09-1.15102E-08 7.92658E-09 7.43773E-09-2.01990E-08
 -1      4141-1.99998E+02-3.18736E-09-1.13034E-08-7.66281E-09 7.34817E-09 1.99870E-08
 -1      4142-1.98921E+02 2.28195E-01 2.32193E-01 4.16810E-01 2.85580E-02-4.18914E-01
 -1      4143-1.98427E+02 9.32807E-01 9.42186E-01 9.93276E-01 1.18837E-01-1.01557E+00
 -1      4144-1.99997E+02-3.56297E-03-9.64567E-04 1.05970E-03-2.93263E-04-2.77506E-03
 -1      4145-1.99998E+02 6.21379E-07 6.33361E-07-9.85553E-07 3.40113E-08-1.02450E-06
 -1      4146-1.99998E+02-6.89596E-12-1.54581E-13 2.64360E-12 2.85068E-13-6.66894E-12
 -1      4147-1.99998E+02-1.50754E-11-4.54395E-12 9.53396E-12 2.71339E-12-4.06786E-12
 -1      4148-1.99998E+02 6.55328E-13 2.76641E-12 2.22838E-12-3.07438E-12 2.06625E-12
 -1      4149-1.99998E+02 4.26770E-12 4.36483E-12 3.00465E-12-2.89626E-12 2.98890E-12
 -1      4150-1.99998E+02 2.44794E-12 1.25613E-12 1.32820E-11 1.37757E-11-5.31619E-12
 -1      4151-1.99998E+02 4.93312E-12 2.90085E-12 1.11794E-11 1.42258E-11-3.90328E-12
 -1      4152-1.99998E+02 1.18602E-12 2.42227E-12 1.43928E-11 1.73940E-11-6.65568E-12
 -1      4153-1.99998E+02 7.67800E-12 3.16495E-12 5.52016E-12-2.96274E-13-5.34530E-12
 -1      4154-1.99998E+02 3.05503E-12-7.96393E-13-4.87046E-11 1.66334E-11 5.12153E-11
 -1      4155-1.99998E+02 8.46555E-12 9.60123E-12-1.23573E-11 2.47827E-11 2.02714E-11
 -1      4156-2.00000E+02-1.45794E-03-1.48929E-03-1.27977E-03-3.88279E-05 1.32543E-03
 -1      4157-1.99998E+02-2.20599E-09-2.20668E-09 7.11621E-09 3.81037E-09-7.16372E-09
 -1      4158-1.99998E+02-1.51820E-04-1.48218E-04 1.90846E-04-5.87193E-05 1.86387E-04
 -1      4159-1.99998E+02 3.30865E-06 3.24004E-06 6.26131E-06 1.89808E-07-6.41425E-06
 -1      4160-1.99998E+02 1.51312E-08 2.04567E-09-6.44323E-08 2.96942E-08 2.80660E-08
 -1      4161-1.99998E+02 2.96239E-08 2.75005E-08-3.26569E-08 4.94155E-08-2.49553E-08
 -1      4162-1.99998E+02-1.97917E-10-2.33981E-10-2.78523E-09 5.51693E-10 2.87696E-09
 -1      4163-1.99998E+02-1.96640E-09-2.02889E-09-7.07610E-09 3.71972E-09 7.23283E-09
 -1      4164-1.99998E+02 4.34166E-08 4.85783E-08 1.22581E-08-3.73876E-08-2.07124E-08
 -1      4165-1.99998E+02 8.70808E-06 3.58690E-06-8.28477E-06-1.19383E-06 1.24875E-05
 -1      4166-1.99998E+02 6.30360E-07 6.55545E-07 1.01714E-06 4.00381E-08 1.03694E-06
 -1      4167-1.99998E+02-2.53009E-09 1.54610E-08 3.10745E-08 3.69283E-08-6.69978E-08
 -1      4168-1.99998E+02 8.25624E-10 2.09925E-08-2.82556E-08 2.92380E-08 6.61001E-08
 -1      4169-1.99998E+02 2.52318E-08 3.38992E-08 2.54707E-08 5.05530E-08 3.51939E-08
 -1      4170-1.99586E+02 1.42046E-01 1.44539E-01-1.68116E-01 1.75627E-02-1.67273E-01
 -1      4171-1.99998E+02-2.52841E-04-1.32460E-04-1.20667E-04-2.63265E-05-8.28820E-05
 -1      4172-1.99998E+02 1.49531E-08-6.24514E-10 6.58506E-08 3.67150E-08-3.00486E-08
 -1      4173-1.99998E+02 3.21693E-06 3.31374E-06-6.34084E-06 2.49169E-07 6.32994E-06
 -1      4174-2.00000E+02-1.03342E-03-9.83808E-04 1.25781E-03-1.46175E-04-1.21118E-03
 -1      4175-1.99998E+02-4.26820E-09-4.41762E-09 3.70666E-09 2.06265E-08 5.09057E-09
 -1      4176-1.99998E+02-1.45180E-04-1.65436E-04-1.93474E-04-5.84268E-05-1.92808E-04
 -1      4177-1.99998E+02-5.62685E-09-3.98877E-09-4.28967E-09 2.07557E-08-3.93302E-09
 -1      4178-1.99998E+02 2.54681E-12 3.73499E-13 4.62201E-12 3.78286E-12-6.48593E-12
 -1      4179-1.99998E+02-8.64935E-12-2.21515E-12 1.60947E-12-3.31234E-13-4.88950E-12
 -1      4180-1.99998E+02-9.50131E-12-2.47036E-12 1.18913E-11-2.25638E-12-1.57650E-12
 -1      4181-1.99998E+02 4.96710E-12-1.96047E-12 2.01045E-11 2.56091E-11-1.24340E-11
 -1      4182-1.99998E+02-6.12080E-12 2.67433E-13 4.37552E-12-2.41098E-13-9.33602E-12
 -1      4183-1.99998E+02-3.35706E-12 1.34981E-12 2.11755E-11 2.53782E-11-1.20580E-11
 -1      4184-1.99998E+02 1.63120E-13 5.79307E-13 1.07188E-11-3.13510E-13 1.87927E-12
 -1      4185-1.99998E+02-1.87043E-12-3.47218E-12 3.65718E-12-2.26172E-12 4.44417E-12
 -1      4186-1.99998E+02 1.27399E-11 1.24630E-11-8.92695E-12 2.95049E-11 2.19536E-11
 -1      4187-1.99998E+02 8.00244E-12 1.17535E-11-6.42433E-12 3.13236E-11 1.24400E-11
 -1      4188-1.99998E+02-2.52539E-09-5.39328E-09 6.76858E-09 5.41251E-09-1.59576E-08
 -1      4189-1.99998E+02-5.41876E-09-2.51753E-09 1.57912E-08 5.40070E-09-6.77611E-09
 -1      4190-1.99998E+02-1.39012E-04-2.11845E-04 1.15153E-04-4.43257E-05 2.29902E-04
 -1      4191-1.99998E+02-2.16166E-04-1.22032E-04 2.20917E-04-4.64947E-05 1.15934E-04
 -1      4192-1.99998E+02 7.31616E-06 2.98879E-06 1.13431E-05 1.44668E-06-8.08835E-06
 -1      4193-1.99998E+02 2.96787E-06 7.26980E-06 7.79023E-06 1.55561E-06-1.10944E-05
 -1      4194-1.99998E+02-2.40782E-09-5.43022E-09-6.67774E-09 5.34734E-09 1.59242E-08
 -1      4195-1.99999E+02-1.17059E-03-2.09254E-03 1.62033E-03-5.28418E-04-2.47473E-03
 -1      4196-1.99998E+02 2.91114E-06 7.40148E-06-7.88436E-06 1.59659E-06 1.09613E-05
 -1      4197-1.99998E+02-5.27365E-09-2.46083E-09-1.57528E-08 5.37703E-09 6.83122E-09
 -1      4198-1.99998E+02-1.23767E-08-2.57680E-09 2.52373E-08 3.72814E-08-7.45970E-09
 -1      4199-1.99998E+02 5.29064E-12 4.52843E-12 1.30307E-11 2.67925E-13 6.35551E-13
 -1      4200-1.99998E+02-4.70616E-12-2.02024E-12 1.66640E-12-1.78441E-13-4.57166E-12
 -1      4201-1.99998E+02 2.76881E-13 6.14731E-12-1.18566E-11 2.59103E-11-2.41037E-11
 -1      4202-1.99998E+02-4.21374E-09-1.09143E-08 8.85488E-09 3.72127E-08-2.41936E-08
 -1      4203-1.99998E+02-1.23033E-04-2.22449E-04-1.16261E-04-4.64350E-05-2.34410E-04
 -1      4204-1.99998E+02 6.99853E-06 3.00499E-06-1.13445E-05 1.54652E-06 7.93623E-06
 -1      4205-1.99998E+02-2.15202E-04-1.43638E-04-2.25666E-04-4.36237E-05-1.21496E-04
 -1      4206-1.99999E+02-2.22027E-03-1.11330E-03 2.48373E-03-5.54845E-04-1.53364E-03
 -1      4207-1.99998E+02-1.37829E-08-2.53504E-09-2.59139E-08 3.59261E-08 8.84805E-09
 -1      4208-1.99998E+02-3.39911E-09-1.01977E-08-9.72359E-09 3.55075E-08 2.63432E-08
 -1      4209-1.99998E+02-4.73539E-04-4.74836E-04-1.08432E-05-6.13871E-05 1.10798E-05
 -1      4210-1.99998E+02-1.91381E-04-1.92173E-04-5.97262E-05-1.56129E-05-5.65727E-05
 -1      4211-1.99993E+02-2.64772E-03-2.59064E-03-3.97995E-05 4.53742E-04 2.59622E-05
 -1      4212-1.99998E+02 1.36418E-12 5.50658E-12 1.68419E-11-1.52577E-12-2.62559E-12
 -1      4213-1.99998E+02 3.95433E-12 2.92555E-12 9.90654E-12-6.77609E-12-4.01156E-12
 -1      4214-1.99998E+02-1.57925E-12 6.22969E-12 1.16299E-11-6.03815E-12-4.40914E-12
 -1      4215-1.99998E+02 2.49252E-11 1.76587E-11 9.82477E-12 8.69732E-11-1.86233E-13
 -1      4216-1.99998E+02 6.40640E-12 1.97184E-13 2.91121E-11 4.08885E-11 9.03229E-12
 -1      4217-1.99998E+02-2.38607E-12-2.55614E-12 8.07775E-12 3.91879E-11-1.44204E-11
 -1      4218-1.99998E+02 2.19009E-11 1.78361E-11 7.12684E-12 5.30781E-11 5.84311E-12
 -1      4219-1.99998E+02-2.62067E-11-1.85318E-11 3.67222E-11 1.45067E-10-1.47840E-11
 -1      4220-1.99998E+02-1.32121E-12 2.11287E-12 1.61375E-11 1.13860E-12-4.17638E-12
 -1      4221-1.99998E+02-3.23753E-12-1.29558E-12 9.08206E-12 1.06229E-12-5.99372E-13
 -1      4222-1.99985E+02-1.83830E-03-1.72148E-03 1.88323E-03-1.34598E-03-1.87050E-03
 -1      4223-1.99998E+02-1.90622E-04-1.92640E-04 5.33778E-05-1.56657E-05 5.91235E-05
 -1      4224-1.99998E+02-1.01713E-08-1.01847E-08 3.67500E-11 1.59966E-08 1.01295E-11
 -1      4225-1.99998E+02-8.82723E-09-8.75301E-09 8.88237E-09 1.97739E-08-8.78148E-09
 -1      4226-1.99998E+02-8.90823E-09-8.85243E-09-9.08536E-09 1.97649E-08 9.24321E-09
 -1      4227-1.99998E+02 7.47093E-12 5.74408E-12 7.38141E-12-7.92868E-13-5.44069E-12
 -1      4228-1.99998E+02 6.81483E-15 2.29073E-13 1.15889E-11 2.74454E-12-4.50973E-12
 -1      4229-1.99998E+02 5.90887E-12-3.49828E-13 2.63305E-12 2.87246E-13-1.48929E-12
 -1      4230-1.99998E+02 6.03842E-12-1.13017E-12 2.97960E-12 2.20978E-13 3.11605E-12
 -1      4231-1.99998E+02 6.66910E-13 1.31631E-12 4.98908E-12-1.37874E-12 8.60276E-13
 -1      4232-1.99998E+02 5.57943E-11 3.76517E-10-1.39568E-09 1.55533E-10-1.60286E-09
 -1      4233-1.99998E+02-4.23117E-05-4.27051E-05 1.00806E-04-2.66989E-05 9.84933E-05
 -1      4234-1.99998E+02-2.85719E-09-2.78307E-09 1.00837E-08 1.57383E-09-1.01774E-08
 -1      4235-1.99998E+02 4.24257E-06 4.39725E-06 7.99184E-06 2.11193E-06-8.03180E-06
 -1      4236-1.99998E+02 5.15771E-06 5.11413E-06-2.53080E-08-5.50765E-06-2.37809E-07
 -1      4237-1.99998E+02-5.37636E-06-5.72902E-06 2.63819E-06-5.68427E-06-3.36254E-06
 -1      4238-1.99998E+02 3.50725E-08 3.77300E-08 1.54917E-10 3.17615E-08-8.97576E-10
 -1      4239-1.99998E+02 1.04387E-07 1.08837E-07-1.28325E-08 3.69021E-08 1.06375E-08
 -1      4240-1.99998E+02 8.09504E-08 8.89395E-08 1.21097E-08 4.54433E-08 5.72677E-09
 -1      4241-1.99998E+02-5.56016E-06-5.61389E-06-3.74526E-06-5.68836E-06 3.01137E-06
 -1      4242-1.99998E+02-2.76594E-09-2.88803E-09-9.99314E-09 1.59484E-09 1.01701E-08
 -1      4243-1.99998E+02 4.11269E-06 4.53993E-06-7.88606E-06 2.12985E-06 7.98683E-06
 -1      4244-2.00003E+02-1.35538E-03-1.25231E-03 1.82289E-03-2.65214E-04-1.72907E-03
 -1      4245-1.99998E+02 8.39410E-08 8.35644E-08-6.12472E-09 4.46550E-08-1.32636E-08
 -1      4246-1.99998E+02 2.46467E-06 2.49526E-06-4.18849E-09-2.17600E-07-2.49128E-09
 -1      4247-1.99998E+02-9.18611E-09-6.67101E-09 1.38030E-08 2.13131E-08 1.49268E-08
 -1      4248-1.99998E+02-9.54891E-09-7.46827E-09-1.35568E-08 2.14092E-08-1.42386E-08
 -1      4249-1.99998E+02-4.35447E-05-4.36422E-05-9.70326E-05-2.57681E-05-1.02878E-04
 -1      4250-1.99998E+02 1.11393E-11 2.06196E-12 5.68338E-12 2.27763E-13-6.84912E-12
 -1      4251-1.99998E+02 8.12498E-12 3.24855E-12 7.98714E-12 2.92151E-12-5.42288E-12
 -1      4252-1.99998E+02 2.63654E-12-3.00226E-12 7.77996E-12 3.45494E-12-4.45676E-12
 -1      4253-1.99998E+02-4.07757E-13-5.98217E-12 4.58003E-12 7.17561E-12-7.35663E-12
 -1      4254-1.99998E+02-3.83548E-12-2.59920E-12 6.03005E-12 1.66157E-12-4.38945E-12
 -1      4255-1.99998E+02-2.93674E-12 6.63888E-12 2.72858E-12 5.71767E-12-1.53340E-11
 -1      4256-1.99998E+02 3.23087E-08 4.32775E-07 1.11190E-07-4.32943E-08-5.17727E-07
 -1      4257-1.99998E+02 1.36711E-07 1.50163E-07 5.88503E-08-6.01167E-08-6.66213E-08
 -1      4258-1.99998E+02 4.76605E-07 1.25272E-07 5.07565E-07-2.58595E-08-1.49723E-07
 -1      4259-1.99998E+02-7.29592E-11 3.70954E-10-3.00137E-10-3.21190E-11 8.54754E-11
 -1      4260-1.99998E+02-1.71210E-10 3.94660E-10 5.55051E-10 7.68489E-11 8.04322E-11
 -1      4261-1.99998E+02 2.67722E-11 1.91593E-11-2.32942E-10 1.73509E-10-2.49420E-10
 -1      4262-1.99998E+02 7.92930E-09 8.73039E-09-7.27624E-09 8.61538E-10-9.89958E-09
 -1      4263-1.99998E+02-2.09949E-09 3.66413E-09 3.48069E-10-2.78993E-10 3.87191E-10
 -1      4264-1.99998E+02-6.19980E-09 5.82937E-09-3.44650E-09 8.91058E-10 8.80433E-09
 -1      4265-1.99998E+02 5.04679E-09 5.87712E-09-1.28172E-09 1.05238E-10 3.58310E-09
 -1      4266-1.99998E+02 6.29176E-08 5.95722E-08-2.67068E-09 6.78112E-09-7.48773E-08
 -1      4267-1.99998E+02-1.43648E-08 7.18160E-09-2.68797E-08-7.31299E-09 1.50643E-08
 -1      4268-1.94444E+02-7.02760E-01-1.35431E+00 5.60218E-01 1.78214E+00-2.22946E+00
 -1      4269-2.04285E+02-1.84974E-01-6.00629E-01 7.11021E+00-1.48068E+00-6.91529E+00
 -1      4270-2.10758E+02-1.40249E+01-6.94770E+00 8.79037E+00 1.69061E+00-6.00711E+00
 -1      4271-2.11912E+02-6.94393E+00-1.32181E+01 5.14306E+00 2.10781E+00-8.85978E+00
 -1      4272-2.00707E+02 4.91603E-01 4.93354E-01 6.20389E-02 1.16391E-02-2.11288E-02
 -1      4273-1.99998E+02-7.40620E-12 2.27413E-12 1.13833E-11-4.81329E-12-1.71057E-12
 -1      4274-1.99998E+02 1.60069E-11 1.23616E-11 1.18682E-11-2.14572E-11 1.74861E-13
 -1      4275-1.99998E+02 4.56963E-02 4.71668E-02 6.01385E-03 2.70351E-03-5.20147E-03
 -1      4276-1.99998E+02-1.46597E-09-1.67224E-09-1.10019E-09-1.18077E-09 1.66311E-09
 -1      4277-1.99998E+02-2.59520E-09 8.88253E-09 2.96812E-09-8.30719E-10-5.18013E-09
 -1      4278-1.99998E+02 2.56216E-09 3.64734E-09-2.67903E-09-4.41973E-10 8.72890E-10
 -1      4279-1.99998E+02-1.21681E-09-2.55438E-09-3.55158E-10-2.64354E-09 1.69584E-09
 -1      4280-1.99998E+02-2.77310E-11 1.54996E-10 4.59620E-11-2.34339E-12 1.56985E-10
 -1      4281-1.99998E+02-5.88088E-10 5.47223E-10 8.18722E-11 1.37050E-10 7.73692E-11
 -1      4282-1.99998E+02-6.52921E-10-7.43575E-10-2.93909E-10 4.10194E-09 3.09818E-10
 -1      4283-1.99998E+02-6.93878E-10-1.66674E-08-4.49855E-09 3.22081E-09-8.90943E-09
 -1      4284-1.99998E+02-1.05997E-08-1.20512E-08 1.45263E-08 6.70215E-09-1.21034E-10
 -1      4285-1.99998E+02 8.70779E-11 1.34527E-10-3.98911E-11 8.72660E-10 7.07111E-11
 -1      4286-2.03910E+02 7.79879E-01 7.90457E-01-8.73447E-02-1.23932E-01-9.55993E-02
 -1      4287-1.99998E+02 1.29592E-08 8.92587E-09-1.15705E-08 8.97016E-10 8.20885E-10
 -1      4288-1.99998E+02-4.46621E-09-6.40450E-09-1.85772E-09-2.62281E-09-7.27335E-10
 -1      4289-1.99998E+02 4.40492E-09 1.12407E-08 5.41061E-09-1.68734E-09 2.27670E-09
 -1      4290-1.99998E+02 9.94258E-09 3.57133E-09-1.95987E-09 5.96078E-09 6.53382E-10
 -1      4291-2.03149E+02-1.85484E+00-1.94872E+00-6.82773E+00-2.22414E+00 6.65071E+00
 -1      4292-1.94191E+02-7.94819E-01-1.63124E+00-8.74160E-01 1.59219E+00 1.91462E+00
 -1      4293-2.11942E+02-1.00742E+01-1.57482E+01-5.32048E+00 1.53024E+00 7.18096E+00
 -1      4294-2.09865E+02-1.74275E+01-9.56307E+00-8.06051E+00 1.09658E+00 5.84046E+00
 -1      4295-1.99998E+02-1.96313E-08-2.87638E-08-5.29537E-09 2.15919E-08-3.98982E-08
 -1      4296-2.03730E+02-1.48196E+00-3.97531E-01 6.45414E+00 1.78318E+00 6.75638E+00
 -1      4297-1.94402E+02-9.96831E-01-1.56430E+00 7.88170E-01-1.54557E+00 1.92593E+00
 -1      4298-2.12376E+02-1.02612E+01-1.58745E+01 5.33178E+00-1.45053E+00 7.47965E+00
 -1      4299-2.10251E+02-1.40999E+01-6.34283E+00 8.93150E+00-1.86271E+00 6.24168E+00
 -1      4300-1.99998E+02-8.01236E-09-9.94774E-12 1.65450E-09-2.09289E-09-2.01097E-09
 -1      4301-1.99998E+02 2.36753E-08 1.37694E-08 2.51066E-08-6.12829E-09 2.47602E-08
 -1      4302-1.99998E+02-8.88274E-09-1.26096E-08-9.80544E-10 2.97274E-09 4.27713E-09
 -1      4303-1.99998E+02-3.42975E-09-7.64710E-09 4.35332E-10 6.05673E-09 2.27639E-09
 -1      4304-1.99998E+02-2.48328E-09-3.46643E-09-3.80847E-09 1.05932E-09-1.27890E-10
 -1      4305-1.92660E+02-2.08845E+01-4.02765E+01-1.66810E+01 2.65283E-01 1.54333E+01
 -1      4306-1.93933E+02-3.63340E+01-3.60854E+01-1.65096E+01 1.17969E+00 1.62867E+01
 -1      4307-1.99998E+02 1.52394E-09-1.24130E-08 1.44341E-08-2.28556E-09 9.95269E-09
 -1      4308-1.99998E+02 4.59688E-09-4.70570E-10 2.27926E-09 2.75645E-09-1.70879E-08
 -1      4309-2.03193E+02-1.89681E+00-2.13977E+00-6.88523E+00 2.19503E+00-6.80319E+00
 -1      4310-1.94307E+02-8.57047E-01-1.68467E+00-9.02967E-01-1.59268E+00-2.06106E+00
 -1      4311-2.11645E+02-9.19612E+00-1.53470E+01-4.93855E+00-1.75458E+00-7.48823E+00
 -1      4312-2.10201E+02-1.71024E+01-9.58967E+00-7.96506E+00-1.19180E+00-5.47167E+00
 -1      4313-1.99998E+02-6.28915E-12 7.87849E-13 5.65126E-12-6.51334E-13-1.19937E-12
 -1      4314-1.99998E+02 9.21395E-12 2.87233E-12 2.06915E-12-1.93688E-12 3.15227E-12
 -1      4315-1.87494E+02-1.68497E+01-3.29226E+01-1.56045E+01 9.25770E-01 2.13584E+01
 -1      4316-1.92507E+02-2.07478E+01-4.12083E+01-1.83858E+01 2.17664E-01-1.48785E+01
 -1      4317-1.94736E+02-3.63233E+01-3.63812E+01-1.60754E+01-1.25388E+00-1.58135E+01
 -1      4318-1.99998E+02-3.06378E-09-1.07717E-08-5.55901E-09-8.81956E-09-8.59840E-09
 -1      4319-1.99998E+02 6.12549E-08 2.61140E-08 2.90523E-08-5.45708E-11-1.72126E-08
 -1      4320-1.99998E+02-7.17180E-09 8.31814E-09 6.36179E-09-3.22036E-09 4.95959E-09
 -1      4321-1.89925E+02-3.94198E+01-2.12321E+01 1.52662E+01 1.93935E+00-1.81069E+01
 -1      4322-1.92681E+02-4.10084E+01-2.24623E+01-1.55138E+01 2.76003E-01 1.83676E+01
 -1      4323-1.88073E+02-3.39753E+01-1.76096E+01-2.14427E+01 6.66455E-01 1.54823E+01
 -1      4324-1.99998E+02-5.64956E-08-1.72768E-08 1.65831E-09-2.30077E-08 3.07170E-08
 -1      4325-1.91338E+02-3.85964E+01-2.17075E+01 2.18575E+01-1.62838E-01-1.68766E+01
 -1      4326-1.95484E+02-3.99191E+01-4.00815E+01 1.62128E+01 8.48783E-01-1.61858E+01
 -1      4327-1.87432E+02-1.68301E+01-3.34225E+01-1.56120E+01-9.29067E-01-2.15378E+01
 -1      4328-1.92296E+02-4.09126E+01-2.24108E+01-1.54404E+01-1.64823E-01-1.83734E+01
 -1      4329-1.87966E+02-3.39624E+01-1.77607E+01-2.14060E+01-7.05129E-01-1.55113E+01
 -1      4330-1.99998E+02-2.70681E-12-2.43748E-12 8.90706E-12-1.19417E-12-5.88302E-12
 -1      4331-1.99998E+02-2.80686E-12 8.09683E-14 8.61919E-12 8.26002E-14-1.53391E-12
 -1      4332-1.99998E+02 2.39354E-12-1.55057E-12 8.19479E-12 8.14270E-13-6.42666E-12
 -1      4333-1.99998E+02 5.07617E-13-1.31176E-12 9.81906E-12-9.38452E-13-8.88287E-13
 -1      4334-1.99998E+02 6.44823E-12-5.57985E-13 4.29131E-12 1.50218E-13-7.94485E-12
 -1      4335-1.99998E+02 3.03314E-13 2.18209E-13 9.83156E-12 1.18212E-12-9.21980E-13
 -1      4336-1.99998E+02-2.42781E-12 4.80861E-12 1.12289E-11 4.34888E-12 3.65856E-12
 -1      4337-1.99998E+02 5.19022E-12 5.82128E-13 4.21207E-12 5.25369E-12 4.95073E-12
 -1      4338-1.99998E+02 5.64720E-12 5.79325E-12 5.46412E-12 1.40009E-13-6.96128E-14
 -1      4339-1.99998E+02-3.92141E-13 5.63019E-12 5.55936E-11 5.54540E-11-4.79492E-11
 -1      4340-1.99998E+02 1.04776E-11 1.45594E-11 4.67868E-11 5.99765E-11-4.48342E-11
 -1      4341-1.99998E+02 5.70829E-12 1.24002E-11 5.86513E-11 6.37767E-11-3.46287E-11
 -1      4342-1.99998E+02-8.19857E-05-3.57471E-05 1.03223E-04-2.82620E-05 1.26567E-05
 -1      4343-1.99998E+02-2.66328E-05-2.68385E-05 1.33824E-05-2.14910E-05 1.35557E-05
 -1      4344-1.99998E+02-3.59839E-05-8.12113E-05 1.29280E-05-2.90377E-05 1.03956E-04
 -1      4345-1.99998E+02-7.85765E-09-7.85988E-09 1.99351E-08 5.14077E-09-1.98624E-08
 -1      4346-1.99998E+02-6.61143E-09-8.43543E-09 1.45645E-08 7.47660E-09-2.53529E-08
 -1      4347-1.99998E+02-8.61460E-09-6.66656E-09 2.51112E-08 7.46007E-09-1.45900E-08
 -1      4348-1.99998E+02 2.76259E-06 6.86713E-07 1.12446E-05 4.97507E-06-9.63823E-06
 -1      4349-1.99998E+02 1.53378E-06 1.20286E-06 1.22687E-05 2.40988E-06-1.41584E-05
 -1      4350-1.99998E+02 1.41901E-06-6.14256E-07 1.50535E-05 2.37079E-06-1.11878E-05
 -1      4351-1.99998E+02-8.36885E-09-6.24220E-09-2.51461E-08 7.51710E-09 1.45540E-08
 -1      4352-1.99998E+02-7.56653E-09-7.42099E-09-1.97033E-08 5.17459E-09 1.99421E-08
 -1      4353-1.99998E+02-6.49808E-09-8.48809E-09-1.45179E-08 7.49044E-09 2.52021E-08
 -1      4354-1.99998E+02-8.45769E-05-3.62754E-05-1.01156E-04-2.74280E-05-1.37498E-05
 -1      4355-1.99998E+02-2.78763E-05-2.73504E-05-1.29828E-05-2.07635E-05-1.39608E-05
 -1      4356-1.99998E+02-3.73137E-05-8.43506E-05-1.29501E-05-2.71802E-05-1.07632E-04
 -1      4357-1.99998E+02-2.44872E-08-8.54643E-09-6.86798E-08-4.10340E-09-1.40693E-08
 -1      4358-1.99998E+02-6.82151E-09-7.88613E-09 1.95523E-08 1.64052E-08 6.48102E-09
 -1      4359-1.99998E+02 6.95519E-07-5.58142E-07-1.55859E-05 2.33071E-06 1.13014E-05
 -1      4360-1.99998E+02 1.39359E-06 1.10091E-06-1.09005E-05 5.16445E-06 9.89760E-06
 -1      4361-1.99998E+02 7.68807E-07 1.28093E-06-1.23806E-05 2.73352E-06 1.39748E-05
 -1      4362-1.99998E+02 3.62152E-08 2.76300E-08 5.49801E-08 4.66855E-08 2.01123E-08
 -1      4363-1.99998E+02 3.28962E-08 3.84929E-08 1.85227E-08 4.56195E-08 5.71671E-08
 -1      4364-1.99998E+02 3.01425E-08 2.79630E-08 5.00515E-08 4.74706E-08 4.75794E-08
 -1      4365-1.99998E+02 1.00562E-11-1.28020E-11-1.23985E-11-2.09609E-12-2.13388E-13
 -1      4366-1.99997E+02-8.73044E-04-1.69162E-03 2.88191E-03-1.22900E-03-3.74529E-03
 -1      4367-1.99997E+02-2.00456E-03-7.96637E-04 3.66931E-03-1.31966E-03-2.75344E-03
 -1      4368-2.00003E+02-9.08878E-04-8.58530E-04 2.87969E-03-1.76226E-03-2.72612E-03
 -1      4369-1.99998E+02 4.37819E-11 4.19942E-11-1.43138E-10 1.28723E-10 1.48879E-10
 -1      4370-1.99998E+02-1.19062E-15-4.52331E-12 5.30431E-12-2.05664E-13-1.31356E-13
 -1      4371-1.99998E+02-1.46001E-10-1.82304E-10-1.35278E-09 7.86216E-10 1.39232E-09
 -1      4372-1.99998E+02 1.99335E-03 2.83853E-03-1.87459E-03-3.52632E-03 1.25413E-03
 -1      4373-1.92664E+02-2.11367E+01-4.05512E+01 1.69333E+01-2.45025E-01 1.55780E+01
 -1      4374-1.86911E+02-1.70166E+01-3.40793E+01 1.54411E+01-6.93223E-01 2.15928E+01
 -1      4375-1.94227E+02-3.66526E+01-3.89559E+01 1.67945E+01-1.00112E+00 1.68232E+01
 -1      4376-1.99998E+02 4.79021E-08 8.20701E-08-1.31455E-08 2.91147E-09-4.09074E-09
 -1      4377-1.99998E+02-6.28772E-08 2.18855E-08 1.33988E-08 2.89826E-08-2.42117E-10
 -1      4378-1.99998E+02 1.23099E-08 2.62086E-08-2.54201E-08-4.80515E-09 1.23543E-09
 -1      4379-1.91271E+02-3.95910E+01-2.07525E+01 1.47578E+01-2.04605E+00 1.90645E+01
 -1      4380-1.99998E+02 2.85416E-08 2.77861E-08-4.72685E-08 4.65882E-08-4.60094E-08
 -1      4381-1.99998E+02 2.98383E-08 2.59030E-08-5.84992E-08 4.64021E-08-1.38670E-08
 -1      4382-1.99998E+02 3.34753E-08 4.13637E-08-2.20732E-08 4.43812E-08-4.89816E-08
 -1      4383-1.90250E+02-2.09988E+01-3.99264E+01 1.83303E+01 1.84522E+00-1.54850E+01
 -1      4384-1.90535E+02-2.06276E+01-3.78361E+01 1.70890E+01 3.63855E-01-2.19731E+01
 -1      4385-1.99499E+02 1.65094E-01 1.65872E-01 1.91266E-01-1.45447E-02-1.91071E-01
 -1      4386-1.99998E+02 6.65026E-09-7.59560E-09 2.68313E-08-2.62901E-08-8.20777E-08
 -1      4387-1.91696E+02-3.71178E+01-2.10585E+01 2.17441E+01 6.86489E-03 1.70571E+01
 -1      4388-1.99998E+02 4.95833E-12 2.63743E-12 3.78145E-12 1.35333E-12 5.66633E-12
 -1      4389-1.99998E+02 2.40013E-12-6.35573E-13 4.89755E-12-1.56353E-12 2.53599E-12
 -1      4390-1.99998E+02-7.92128E-13 9.44086E-14 5.36700E-12-8.91001E-13 7.59356E-13
 -1      4391-1.99998E+02-4.21196E-09-1.23602E-08-1.56973E-10-8.12670E-09 3.81918E-08
 -1      4392-1.99998E+02 3.29467E-10 2.22847E-10-9.36053E-11 1.94771E-11-1.67552E-10
 -1      4393-1.99998E+02 8.79035E-08 4.10876E-08 6.48898E-08-7.17119E-09 1.74100E-09
 -1      4394-1.99998E+02 2.93334E-08-8.10904E-08-5.37276E-08-4.68048E-09 2.69107E-08
 -1      4395-1.99998E+02 3.33207E-10 3.42328E-10 4.10475E-10-2.80816E-11 2.51275E-10
 -1      4396-1.99998E+02 4.61269E-10 1.97834E-10-2.64019E-10 1.02551E-09 9.67938E-11
 -1      4397-1.99998E+02 1.30471E-10 2.96400E-09 1.43379E-10 4.55166E-10 1.04264E-09
 -1      4398-1.99998E+02 9.54730E-11 1.07817E-10 1.30570E-10-2.77212E-11 1.21298E-10
 -1      4399-1.99998E+02-1.75330E-10 4.44141E-10 4.83813E-10 6.10872E-11 2.25782E-10
 -1      4400-1.99998E+02 3.44255E-11 7.78322E-11 7.14885E-11-1.52429E-11 2.53492E-11
 -1      4401-1.99998E+02-5.07095E-10 6.43092E-10 3.41526E-10 1.20895E-10 2.48671E-10
 -1      4402-1.99998E+02 7.18622E-11 1.16362E-10 3.93840E-11-1.42378E-11 1.37114E-10
 -1      4403-1.99998E+02-6.41793E-12 6.67513E-11 1.63689E-11 6.32833E-12-3.55110E-11
 -3
    1PSTEP                         3           1           1          
  100CL  101 0.00000E+00        4403                     4    1           1
 -4  ERROR       1    1
 -5  STR(%)      1    1    0    0
 -1         1 1.09158E+01
 -1         2 1.09243E+01
 -1         3 1.09335E+01
 -1         4 1.09583E+01
 -1         5 4.35892E-08
 -1         6 3.77451E-08
 -1         7 1.34803E-07
 -1         8 2.59864E-08
 -1         9 8.57166E+00
 -1        10 6.82056E+00
 -1        11 8.58973E+00
 -1        12 9.74798E+00
 -1        13 7.69611E+00
 -1        14 7.70514E+00
 -1        15 9.75277E+00
 -1        16 8.58031E+00
 -1        17 7.58570E+00
 -1        18 8.04453E+00
 -1        19 9.74806E+00
 -1        20 8.08300E+00
 -1        21 7.81511E+00
 -1        22 9.48901E+00
 -1        23 7.94378E+00
 -1        24 7.54844E+00
 -1        25 8.59796E+00
 -1        26 9.45106E+00
 -1        27 7.74611E+00
 -1        28 8.07320E+00
 -1        29 9.76572E+00
 -1        30 8.58356E+00
 -1        31 7.25997E+00
 -1        32 7.95847E+00
 -1        33 9.75393E+00
 -1        34 7.92177E+00
 -1        35 7.60922E+00
 -1        36 9.45840E+00
 -1        37 4.68711E-08
 -1        38 8.38248E-08
 -1        39 5.62640E-08
 -1        40 4.23081E-08
 -1        41 6.53479E-08
 -1        42 7.00444E-08
 -1        43 4.99266E-08
 -1        44 9.24946E-08
 -1        45 1.28337E-07
 -1        46 1.23603E-07
 -1        47 6.80419E-08
 -1        48 1.10416E-07
 -1        49 1.25970E-07
 -1        50 1.29203E-07
 -1        51 9.99040E-08
 -1        52 1.42252E-07
 -1        53 1.37902E-07
 -1        54 6.29452E-08
 -1        55 1.21078E-07
 -1        56 1.40077E-07
 -1        57 1.36353E-07
 -1        58 1.45845E-07
 -1        59 8.26004E-08
 -1        60 3.79626E-08
 -1        61 9.17952E-08
 -1        62 1.14223E-07
 -1        63 6.02815E-08
 -1        64 3.19745E-08
 -1        65 1.09243E+01
 -1        66 1.72943E+00
 -1        67 6.95653E-01
 -1        68 1.93085E-01
 -1        69 4.32848E-02
 -1        70 7.88991E-03
 -1        71 2.61145E-03
 -1        72 9.13220E-04
 -1        73 2.36912E-04
 -1        74 4.28994E-05
 -1        75 6.97523E-06
 -1        76 3.96512E-06
 -1        77 1.12865E-06
 -1        78 3.12321E-07
 -1        79 3.16207E-08
 -1        80 6.45385E-09
 -1        81 1.65898E-09
 -1        82 9.28559E-10
 -1        83 8.21444E-10
 -1        84 3.19505E-10
 -1        85 9.05260E-11
 -1        86 2.69011E-11
 -1        87 1.06922E-11
 -1        88 6.34373E-12
 -1        89 4.98375E-12
 -1        90 4.39968E-12
 -1        91 5.91740E-12
 -1        92 5.02212E-12
 -1        93 3.64082E-12
 -1        94 1.72236E-11
 -1        95 1.08278E-10
 -1        96 7.30765E-10
 -1        97 2.39777E-08
 -1        98 1.09243E+01
 -1        99 6.32687E+00
 -1       100 1.21254E+00
 -1       101 4.44369E-01
 -1       102 1.18185E-01
 -1       103 2.55874E-02
 -1       104 5.25068E-03
 -1       105 1.76233E-03
 -1       106 5.75066E-04
 -1       107 1.39906E-04
 -1       108 2.49373E-05
 -1       109 5.47018E-06
 -1       110 2.54688E-06
 -1       111 7.20486E-07
 -1       112 1.71971E-07
 -1       113 1.90373E-08
 -1       114 4.05641E-09
 -1       115 1.29377E-09
 -1       116 8.75001E-10
 -1       117 5.70475E-10
 -1       118 2.05016E-10
 -1       119 5.87136E-11
 -1       120 1.87967E-11
 -1       121 8.51799E-12
 -1       122 5.66374E-12
 -1       123 4.69171E-12
 -1       124 5.15854E-12
 -1       125 5.46976E-12
 -1       126 4.33147E-12
 -1       127 1.04322E-11
 -1       128 6.27509E-11
 -1       129 4.19521E-10
 -1       130 1.23542E-08
 -1       131 3.08614E-08
 -1       132 1.09158E+01
 -1       133 1.72877E+00
 -1       134 6.90161E-01
 -1       135 2.16682E-01
 -1       136 3.64209E-02
 -1       137 6.08001E-03
 -1       138 2.11256E-03
 -1       139 8.31664E-04
 -1       140 2.28223E-04
 -1       141 2.85794E-05
 -1       142 9.08835E-06
 -1       143 3.46734E-06
 -1       144 1.23185E-06
 -1       145 1.65210E-07
 -1       146 5.70091E-08
 -1       147 2.90588E-08
 -1       148 1.04896E-08
 -1       149 4.11867E-09
 -1       150 1.10950E-09
 -1       151 2.52700E-10
 -1       152 8.15220E-11
 -1       153 2.18833E-11
 -1       154 1.42904E-11
 -1       155 8.71410E-12
 -1       156 8.45404E-12
 -1       157 4.26326E-12
 -1       158 4.21210E-12
 -1       159 3.40208E-12
 -1       160 6.86384E-12
 -1       161 2.36611E-11
 -1       162 5.79803E-11
 -1       163 6.63218E-10
 -1       164 1.59765E-08
 -1       165 1.09158E+01
 -1       166 6.32230E+00
 -1       167 1.20947E+00
 -1       168 4.53421E-01
 -1       169 1.26551E-01
 -1       170 2.12505E-02
 -1       171 4.09628E-03
 -1       172 1.47211E-03
 -1       173 5.29944E-04
 -1       174 1.28401E-04
 -1       175 1.88339E-05
 -1       176 6.27785E-06
 -1       177 2.34960E-06
 -1       178 6.98531E-07
 -1       179 1.11110E-07
 -1       180 4.30339E-08
 -1       181 1.97742E-08
 -1       182 7.30414E-09
 -1       183 2.61408E-09
 -1       184 6.81098E-10
 -1       185 1.67111E-10
 -1       186 5.17026E-11
 -1       187 1.80869E-11
 -1       188 1.15023E-11
 -1       189 8.58407E-12
 -1       190 6.35865E-12
 -1       191 4.23768E-12
 -1       192 3.80709E-12
 -1       193 5.13296E-12
 -1       194 1.52625E-11
 -1       195 4.08207E-11
 -1       196 3.60599E-10
 -1       197 8.31986E-09
 -1       198 2.97828E-08
 -1       199 1.09583E+01
 -1       200 1.68277E+00
 -1       201 6.79965E-01
 -1       202 2.12080E-01
 -1       203 2.97592E-02
 -1       204 5.21038E-03
 -1       205 2.36665E-03
 -1       206 8.18596E-04
 -1       207 2.15892E-04
 -1       208 2.42336E-05
 -1       209 8.52905E-06
 -1       210 3.42612E-06
 -1       211 1.24633E-06
 -1       212 1.56116E-07
 -1       213 4.15883E-08
 -1       214 2.77841E-08
 -1       215 1.04988E-08
 -1       216 4.12862E-09
 -1       217 1.10985E-09
 -1       218 2.18100E-10
 -1       219 6.55774E-11
 -1       220 1.99137E-11
 -1       221 5.09033E-12
 -1       222 4.00746E-12
 -1       223 6.04530E-12
 -1       224 4.30163E-12
 -1       225 4.57447E-12
 -1       226 4.57447E-12
 -1       227 2.06342E-12
 -1       228 6.44604E-12
 -1       229 4.15923E-11
 -1       230 2.16752E-10
 -1       231 1.35865E-08
 -1       232 1.09583E+01
 -1       233 6.32055E+00
 -1       234 1.18137E+00
 -1       235 4.46023E-01
 -1       236 1.20920E-01
 -1       237 1.74848E-02
 -1       238 3.78851E-03
 -1       239 1.59262E-03
 -1       240 5.17244E-04
 -1       241 1.20063E-04
 -1       242 1.63813E-05
 -1       243 5.97759E-06
 -1       244 2.33623E-06
 -1       245 7.01222E-07
 -1       246 9.88522E-08
 -1       247 3.46862E-08
 -1       248 1.91414E-08
 -1       249 7.31372E-09
 -1       250 2.61924E-09
 -1       251 6.63977E-10
 -1       252 1.41839E-10
 -1       253 4.27455E-11
 -1       254 1.25020E-11
 -1       255 4.54889E-12
 -1       256 5.02638E-12
 -1       257 5.17346E-12
 -1       258 4.43805E-12
 -1       259 4.57447E-12
 -1       260 3.31895E-12
 -1       261 4.25473E-12
 -1       262 2.40192E-11
 -1       263 1.29172E-10
 -1       264 6.90164E-09
 -1       265 1.97864E-08
 -1       266 1.09335E+01
 -1       267 1.68283E+00
 -1       268 6.87634E-01
 -1       269 1.90323E-01
 -1       270 3.98061E-02
 -1       271 6.50390E-03
 -1       272 2.42129E-03
 -1       273 8.83451E-04
 -1       274 2.33406E-04
 -1       275 4.28837E-05
 -1       276 6.53044E-06
 -1       277 3.76119E-06
 -1       278 1.09168E-06
 -1       279 3.05578E-07
 -1       280 3.12486E-08
 -1       281 6.42565E-09
 -1       282 1.54708E-09
 -1       283 9.13467E-10
 -1       284 6.52338E-10
 -1       285 2.62753E-10
 -1       286 9.66139E-11
 -1       287 2.42579E-11
 -1       288 1.35273E-11
 -1       289 9.09779E-12
 -1       290 6.77005E-12
 -1       291 4.77485E-12
 -1       292 4.41673E-12
 -1       293 6.06235E-12
 -1       294 4.53610E-12
 -1       295 1.44695E-11
 -1       296 4.21466E-11
 -1       297 2.78752E-09
 -1       298 8.28829E-08
 -1       299 1.09335E+01
 -1       300 6.30816E+00
 -1       301 1.18523E+00
 -1       302 4.38979E-01
 -1       303 1.15065E-01
 -1       304 2.31550E-02
 -1       305 4.46259E-03
 -1       306 1.65237E-03
 -1       307 5.58428E-04
 -1       308 1.38145E-04
 -1       309 2.47071E-05
 -1       310 5.14582E-06
 -1       311 2.42643E-06
 -1       312 6.98627E-07
 -1       313 1.68413E-07
 -1       314 1.88371E-08
 -1       315 3.98636E-09
 -1       316 1.23027E-09
 -1       317 7.82902E-10
 -1       318 4.57545E-10
 -1       319 1.79683E-10
 -1       320 6.04359E-11
 -1       321 1.88926E-11
 -1       322 1.13126E-11
 -1       323 7.93392E-12
 -1       324 5.77245E-12
 -1       325 4.59579E-12
 -1       326 5.23954E-12
 -1       327 5.29923E-12
 -1       328 9.50280E-12
 -1       329 2.83080E-11
 -1       330 1.41483E-09
 -1       331 4.28352E-08
 -1       332 1.08843E-07
 -1       333 6.52573E+00
 -1       334 6.82056E+00
 -1       335 7.25997E+00
 -1       336 6.33149E+00
 -1       337 3.52968E+00
 -1       338 6.71764E+00
 -1       339 7.54844E+00
 -1       340 6.87059E+00
 -1       341 7.58570E+00
 -1       342 3.52560E+00
 -1       343 8.58973E+00
 -1       344 7.95847E+00
 -1       345 8.58356E+00
 -1       346 8.59796E+00
 -1       347 3.32326E+00
 -1       348 9.75277E+00
 -1       349 8.58973E+00
 -1       350 8.58502E+00
 -1       351 8.57761E+00
 -1       352 9.75393E+00
 -1       353 8.58356E+00
 -1       354 9.76572E+00
 -1       355 8.32124E+00
 -1       356 8.59796E+00
 -1       357 9.45840E+00
 -1       358 7.95113E+00
 -1       359 7.95847E+00
 -1       360 6.57602E+00
 -1       361 7.45158E+00
 -1       362 7.45752E+00
 -1       363 7.70514E+00
 -1       364 6.82056E+00
 -1       365 6.57602E+00
 -1       366 7.70514E+00
 -1       367 7.15167E+00
 -1       368 7.64898E+00
 -1       369 7.65369E+00
 -1       370 7.81511E+00
 -1       371 7.58570E+00
 -1       372 7.15167E+00
 -1       373 8.09183E+00
 -1       374 7.74611E+00
 -1       375 7.54844E+00
 -1       376 7.75346E+00
 -1       377 7.03708E+00
 -1       378 7.56184E+00
 -1       379 7.03708E+00
 -1       380 7.56184E+00
 -1       381 7.72707E+00
 -1       382 7.06528E+00
 -1       383 7.72707E+00
 -1       384 7.25997E+00
 -1       385 7.60922E+00
 -1       386 7.06528E+00
 -1       387 7.60922E+00
 -1       388 5.43585E+00
 -1       389 4.92449E+00
 -1       390 7.05571E+00
 -1       391 5.02566E+00
 -1       392 5.55565E+00
 -1       393 3.42443E+00
 -1       394 5.17512E+00
 -1       395 4.93058E+00
 -1       396 6.76910E+00
 -1       397 5.12366E+00
 -1       398 7.40421E+00
 -1       399 5.29162E+00
 -1       400 5.09692E+00
 -1       401 5.20013E+00
 -1       402 6.60104E+00
 -1       403 5.12162E+00
 -1       404 3.52764E+00
 -1       405 3.42647E+00
 -1       406 1.28337E-07
 -1       407 1.27176E-07
 -1       408 8.38248E-08
 -1       409 1.45845E-07
 -1       410 1.27176E-07
 -1       411 1.42252E-07
 -1       412 1.28337E-07
 -1       413 8.38248E-08
 -1       414 1.42252E-07
 -1       415 5.35403E-08
 -1       416 5.62640E-08
 -1       417 6.93645E-08
 -1       418 1.45845E-07
 -1       419 1.34803E-07
 -1       420 6.99962E-08
 -1       421 5.62640E-08
 -1       422 4.99266E-08
 -1       423 7.43793E-08
 -1       424 9.17952E-08
 -1       425 9.63582E-08
 -1       426 1.45845E-07
 -1       427 1.29203E-07
 -1       428 1.34803E-07
 -1       429 1.36353E-07
 -1       430 8.46342E-08
 -1       431 4.76754E-08
 -1       432 5.36635E-08
 -1       433 6.53479E-08
 -1       434 8.38248E-08
 -1       435 1.14835E-07
 -1       436 8.38248E-08
 -1       437 7.00444E-08
 -1       438 8.38248E-08
 -1       439 7.00444E-08
 -1       440 1.10416E-07
 -1       441 1.28337E-07
 -1       442 9.23005E-08
 -1       443 1.28337E-07
 -1       444 1.25970E-07
 -1       445 1.28337E-07
 -1       446 1.31570E-07
 -1       447 1.42252E-07
 -1       448 1.21078E-07
 -1       449 1.05808E-07
 -1       450 1.40077E-07
 -1       451 1.42252E-07
 -1       452 1.42252E-07
 -1       453 1.38528E-07
 -1       454 1.14223E-07
 -1       455 1.45845E-07
 -1       456 1.45845E-07
 -1       457 8.25691E-08
 -1       458 1.04888E-07
 -1       459 1.36511E-07
 -1       460 9.82701E-08
 -1       461 9.91666E-08
 -1       462 9.91666E-08
 -1       463 9.09386E-08
 -1       464 9.78962E-08
 -1       465 1.35295E-07
 -1       466 6.17682E-08
 -1       467 1.27176E-07
 -1       468 1.36511E-07
 -1       469 1.34714E-07
 -1       470 1.34714E-07
 -1       471 1.06081E-07
 -1       472 7.69105E-08
 -1       473 7.69105E-08
 -1       474 1.05500E-07
 -1       475 1.14835E-07
 -1       476 9.78962E-08
 -1       477 9.03580E-08
 -1       478 9.85860E-08
 -1       479 6.56968E-12
 -1       480 3.55129E-12
 -1       481 1.91923E-10
 -1       482 6.01750E-10
 -1       483 3.36030E-11
 -1       484 8.85905E-12
 -1       485 8.21956E-12
 -1       486 5.45000E-09
 -1       487 2.53018E-02
 -1       488 1.89637E-03
 -1       489 3.80633E-01
 -1       490 6.44035E-06
 -1       491 1.25001E-07
 -1       492 8.00317E-05
 -1       493 3.70196E+00
 -1       494 1.20540E+00
 -1       495 4.42046E-09
 -1       496 6.45385E-09
 -1       497 4.38561E-11
 -1       498 4.82730E-03
 -1       499 1.97401E-06
 -1       500 4.21035E-08
 -1       501 3.45314E-04
 -1       502 1.58462E-05
 -1       503 6.44915E+00
 -1       504 8.38248E-08
 -1       505 1.39067E-11
 -1       506 4.21210E-12
 -1       507 4.31595E-10
 -1       508 6.04615E-11
 -1       509 4.41673E-12
 -1       510 1.14424E+00
 -1       511 3.50883E-01
 -1       512 7.82928E-02
 -1       513 3.23910E-02
 -1       514 2.21502E-10
 -1       515 6.84679E-12
 -1       516 8.45404E-12
 -1       517 1.83043E-08
 -1       518 1.54670E-09
 -1       519 2.01852E-10
 -1       520 1.73067E-10
 -1       521 3.96682E-04
 -1       522 2.02938E-06
 -1       523 5.86801E-07
 -1       524 1.23750E-07
 -1       525 7.03307E-06
 -1       526 6.82547E-12
 -1       527 5.91740E-12
 -1       528 3.92750E-08
 -1       529 4.91511E-11
 -1       530 6.70610E-12
 -1       531 9.83223E-05
 -1       532 1.41096E-03
 -1       533 5.02212E-12
 -1       534 8.04520E-03
 -1       535 5.39728E-12
 -1       536 1.05620E-09
 -1       537 2.15918E-05
 -1       538 1.70041E-09
 -1       539 2.05617E-11
 -1       540 1.95087E-11
 -1       541 1.66133E+00
 -1       542 7.26757E-01
 -1       543 1.42054E-02
 -1       544 6.82056E+00
 -1       545 6.09997E-07
 -1       546 8.30966E-08
 -1       547 2.05319E-09
 -1       548 6.47908E-02
 -1       549 1.28021E-10
 -1       550 1.11227E-02
 -1       551 5.05622E-12
 -1       552 6.59526E-12
 -1       553 6.04615E-11
 -1       554 4.44231E-12
 -1       555 6.10341E-10
 -1       556 9.92060E-12
 -1       557 7.24114E-11
 -1       558 3.96508E-10
 -1       559 2.38060E-11
 -1       560 5.39728E-12
 -1       561 6.84679E-12
 -1       562 2.37662E-09
 -1       563 2.41192E-08
 -1       564 3.66017E-03
 -1       565 6.81847E-04
 -1       566 4.78305E-05
 -1       567 1.68129E-05
 -1       568 3.45314E-04
 -1       569 4.00353E-06
 -1       570 7.55023E-12
 -1       571 6.71225E-09
 -1       572 1.97401E-06
 -1       573 8.12978E-08
 -1       574 1.59677E-01
 -1       575 4.93116E-08
 -1       576 2.94222E+00
 -1       577 3.23586E-09
 -1       578 3.70196E+00
 -1       579 1.09158E+01
 -1       580 1.09243E+01
 -1       581 3.77451E-08
 -1       582 5.62640E-08
 -1       583 4.42046E-09
 -1       584 9.75277E+00
 -1       585 1.09158E+01
 -1       586 1.09158E+01
 -1       587 1.09243E+01
 -1       588 9.74798E+00
 -1       589 1.09243E+01
 -1       590 4.99266E-08
 -1       591 5.62640E-08
 -1       592 3.61203E-08
 -1       593 4.23081E-08
 -1       594 3.77451E-08
 -1       595 3.08614E-08
 -1       596 7.51040E+00
 -1       597 6.63485E+00
 -1       598 8.68672E+00
 -1       599 6.82056E+00
 -1       600 7.70514E+00
 -1       601 6.63485E+00
 -1       602 8.86819E+00
 -1       603 6.65682E-08
 -1       604 4.80913E-08
 -1       605 4.35283E-08
 -1       606 7.00444E-08
 -1       607 8.38248E-08
 -1       608 6.65682E-08
 -1       609 7.00444E-08
 -1       610 2.33583E+00
 -1       611 6.93326E+00
 -1       612 6.93326E+00
 -1       613 9.50528E-01
 -1       614 1.46742E+00
 -1       615 2.07381E+00
 -1       616 2.71984E-01
 -1       617 5.23268E-01
 -1       618 7.78143E-01
 -1       619 6.07888E-02
 -1       620 1.35689E-01
 -1       621 2.14588E-01
 -1       622 1.65958E-02
 -1       623 3.42933E-02
 -1       624 5.17973E-02
 -1       625 5.32832E-03
 -1       626 7.96756E-03
 -1       627 1.66735E-02
 -1       628 1.40480E-03
 -1       629 2.25391E-03
 -1       630 4.97079E-03
 -1       631 3.16797E-04
 -1       632 6.54951E-04
 -1       633 1.14653E-03
 -1       634 6.14656E-05
 -1       635 1.58472E-04
 -1       636 2.38357E-04
 -1       637 1.42835E-05
 -1       638 3.22456E-05
 -1       639 5.08117E-05
 -1       640 5.20273E-06
 -1       641 6.70779E-06
 -1       642 1.40161E-05
 -1       643 1.57902E-06
 -1       644 2.99725E-06
 -1       645 4.23486E-06
 -1       646 4.49561E-07
 -1       647 8.57726E-07
 -1       648 1.30809E-06
 -1       649 7.83107E-08
 -1       650 2.18661E-07
 -1       651 3.55901E-07
 -1       652 2.28644E-08
 -1       653 3.54479E-08
 -1       654 8.21379E-08
 -1       655 4.05641E-09
 -1       656 6.45385E-09
 -1       657 2.28644E-08
 -1       658 1.23763E-09
 -1       659 1.60284E-09
 -1       660 4.00027E-09
 -1       661 9.38820E-10
 -1       662 9.92377E-10
 -1       663 1.30145E-09
 -1       664 4.60628E-10
 -1       665 7.11597E-10
 -1       666 8.28973E-10
 -1       667 1.31796E-10
 -1       668 2.46286E-10
 -1       669 3.87408E-10
 -1       670 4.36813E-11
 -1       671 7.54937E-11
 -1       672 1.16764E-10
 -1       673 1.56270E-11
 -1       674 2.37314E-11
 -1       675 4.05116E-11
 -1       676 6.45670E-12
 -1       677 8.63096E-12
 -1       678 1.35657E-11
 -1       679 5.91527E-12
 -1       680 6.59526E-12
 -1       681 6.70823E-12
 -1       682 4.40821E-12
 -1       683 4.70024E-12
 -1       684 5.63176E-12
 -1       685 5.91740E-12
 -1       686 5.15854E-12
 -1       687 5.16707E-12
 -1       688 4.28670E-12
 -1       689 4.73435E-12
 -1       690 4.73435E-12
 -1       691 4.33147E-12
 -1       692 5.02212E-12
 -1       693 4.28670E-12
 -1       694 1.19648E-11
 -1       695 5.17346E-12
 -1       696 5.86411E-12
 -1       697 7.60672E-11
 -1       698 3.05398E-11
 -1       699 2.52811E-11
 -1       700 4.76133E-10
 -1       701 1.64890E-10
 -1       702 1.32679E-10
 -1       703 1.41991E-08
 -1       704 2.57561E-09
 -1       705 2.32098E-09
 -1       706 2.10828E-08
 -1       707 7.30889E+00
 -1       708 2.71537E+00
 -1       709 7.30889E+00
 -1       710 1.43651E+00
 -1       711 9.17201E-01
 -1       712 2.42310E+00
 -1       713 5.35397E-01
 -1       714 2.98657E-01
 -1       715 7.62437E-01
 -1       716 1.40736E-01
 -1       717 5.06059E-02
 -1       718 2.22712E-01
 -1       719 2.53131E-02
 -1       720 1.01427E-02
 -1       721 3.94981E-02
 -1       722 5.45366E-03
 -1       723 3.46993E-03
 -1       724 9.51633E-03
 -1       725 1.76176E-03
 -1       726 1.12131E-03
 -1       727 3.11913E-03
 -1       728 5.88489E-04
 -1       729 2.86768E-04
 -1       730 8.78137E-04
 -1       731 1.63273E-04
 -1       732 6.34508E-05
 -1       733 2.21818E-04
 -1       734 2.22128E-05
 -1       735 1.24673E-05
 -1       736 5.70842E-05
 -1       737 8.06071E-06
 -1       738 5.25021E-06
 -1       739 1.14396E-05
 -1       740 2.72068E-06
 -1       741 1.60293E-06
 -1       742 4.50354E-06
 -1       743 9.20924E-07
 -1       744 3.87604E-07
 -1       745 1.29200E-06
 -1       746 1.23254E-07
 -1       747 6.91535E-08
 -1       748 3.45647E-07
 -1       749 4.95563E-08
 -1       750 3.55811E-08
 -1       751 6.17007E-08
 -1       752 2.36816E-08
 -1       753 1.43970E-08
 -1       754 3.02039E-08
 -1       755 7.96980E-09
 -1       756 4.78434E-09
 -1       757 1.18772E-08
 -1       758 2.90954E-09
 -1       759 1.40495E-09
 -1       760 3.57521E-09
 -1       761 7.70545E-10
 -1       762 3.42148E-10
 -1       763 1.06600E-09
 -1       764 2.27276E-10
 -1       765 1.41687E-10
 -1       766 3.16724E-10
 -1       767 5.75625E-11
 -1       768 2.77431E-11
 -1       769 1.17728E-10
 -1       770 2.06960E-11
 -1       771 1.68995E-11
 -1       772 2.65558E-11
 -1       773 1.40986E-11
 -1       774 1.13104E-11
 -1       775 1.67077E-11
 -1       776 8.58407E-12
 -1       777 8.45404E-12
 -1       778 1.11804E-11
 -1       779 8.65654E-12
 -1       780 6.56115E-12
 -1       781 8.65654E-12
 -1       782 5.54436E-12
 -1       783 5.51879E-12
 -1       784 7.84226E-12
 -1       785 4.21210E-12
 -1       786 3.80709E-12
 -1       787 5.51879E-12
 -1       788 4.39968E-12
 -1       789 6.13056E-12
 -1       790 4.80469E-12
 -1       791 7.54170E-12
 -1       792 1.59403E-11
 -1       793 6.80842E-12
 -1       794 3.64061E-11
 -1       795 5.35657E-11
 -1       796 2.86853E-11
 -1       797 1.24952E-10
 -1       798 4.27571E-10
 -1       799 1.20537E-10
 -1       800 1.94954E-09
 -1       801 9.60618E-09
 -1       802 1.71389E-09
 -1       803 2.97499E-08
 -1       804 7.19851E-12
 -1       805 7.05995E-12
 -1       806 8.24514E-12
 -1       807 1.52411E-11
 -1       808 8.73541E-12
 -1       809 4.30376E-12
 -1       810 5.48681E-12
 -1       811 4.73221E-12
 -1       812 3.99680E-12
 -1       813 4.74927E-12
 -1       814 8.85862E-11
 -1       815 1.59972E-10
 -1       816 1.12256E-09
 -1       817 1.09060E-09
 -1       818 2.64452E-09
 -1       819 2.84788E-10
 -1       820 4.99129E-10
 -1       821 6.06045E-10
 -1       822 8.33268E-10
 -1       823 5.03425E-10
 -1       824 1.37132E-10
 -1       825 5.30072E-11
 -1       826 4.70322E-11
 -1       827 3.99851E-11
 -1       828 6.64365E-11
 -1       829 7.65041E-12
 -1       830 7.85292E-12
 -1       831 7.72715E-12
 -1       832 6.71037E-12
 -1       833 6.72102E-12
 -1       834 1.60128E-11
 -1       835 3.64786E-11
 -1       836 5.39728E-12
 -1       837 6.80842E-12
 -1       838 1.46017E-11
 -1       839 1.25083E-08
 -1       840 6.08113E-09
 -1       841 3.91331E-09
 -1       842 2.03852E-09
 -1       843 4.54444E-09
 -1       844 2.88464E-02
 -1       845 5.53419E-02
 -1       846 1.82122E-02
 -1       847 2.17568E-02
 -1       848 9.58397E-03
 -1       849 5.39265E-04
 -1       850 1.28911E-03
 -1       851 2.77827E-03
 -1       852 5.85269E-03
 -1       853 2.17101E-03
 -1       854 9.35499E-01
 -1       855 5.53695E-01
 -1       856 4.43217E-01
 -1       857 2.70155E-01
 -1       858 1.12234E-01
 -1       859 3.01646E-06
 -1       860 5.22194E-06
 -1       861 1.16266E-05
 -1       862 1.92023E-05
 -1       863 1.04082E-05
 -1       864 1.24375E-07
 -1       865 3.55275E-07
 -1       866 1.04049E-07
 -1       867 1.03423E-07
 -1       868 6.11858E-08
 -1       869 2.12673E-04
 -1       870 3.70998E-04
 -1       871 3.47111E-05
 -1       872 6.39311E-05
 -1       873 1.96572E-04
 -1       874 2.68164E+00
 -1       875 1.40278E+00
 -1       876 3.70196E+00
 -1       877 2.68164E+00
 -1       878 5.26126E+00
 -1       879 5.26126E+00
 -1       880 5.38820E-01
 -1       881 9.66080E-01
 -1       882 1.43336E+00
 -1       883 1.19404E+00
 -1       884 2.30177E+00
 -1       885 3.23683E-09
 -1       886 1.13735E-09
 -1       887 4.42046E-09
 -1       888 3.23683E-09
 -1       889 2.68660E-08
 -1       890 2.68660E-08
 -1       891 4.12948E-09
 -1       892 6.58305E-09
 -1       893 1.52865E-08
 -1       894 3.16971E-08
 -1       895 1.54157E-08
 -1       896 1.74762E-10
 -1       897 8.59387E-11
 -1       898 3.38311E-11
 -1       899 1.52561E-11
 -1       900 7.59137E-11
 -1       901 4.24374E-03
 -1       902 2.53557E-03
 -1       903 1.26640E-02
 -1       904 7.97502E-03
 -1       905 7.39145E-03
 -1       906 5.51830E-06
 -1       907 2.98877E-06
 -1       908 1.97401E-06
 -1       909 1.29200E-06
 -1       910 2.98877E-06
 -1       911 3.31114E-08
 -1       912 2.12118E-08
 -1       913 6.26001E-08
 -1       914 5.36079E-08
 -1       915 8.21972E-08
 -1       916 3.45314E-04
 -1       917 2.21818E-04
 -1       918 1.04640E-03
 -1       919 5.13581E-04
 -1       920 5.13581E-04
 -1       921 1.63295E-05
 -1       922 1.19230E-05
 -1       923 7.30764E-05
 -1       924 3.18383E-05
 -1       925 3.23217E-05
 -1       926 5.07555E+00
 -1       927 4.69568E+00
 -1       928 3.32209E+00
 -1       929 4.41226E-08
 -1       930 4.35303E-08
 -1       931 3.82816E-09
 -1       932 1.07285E-11
 -1       933 8.00213E-12
 -1       934 1.47146E-11
 -1       935 1.19137E-11
 -1       936 5.94085E-12
 -1       937 4.63416E-12
 -1       938 4.32721E-12
 -1       939 4.91980E-12
 -1       940 4.14052E-10
 -1       941 2.99180E-10
 -1       942 1.15538E-09
 -1       943 5.20968E-10
 -1       944 6.64365E-11
 -1       945 1.22739E-10
 -1       946 4.05116E-11
 -1       947 6.04615E-11
 -1       948 5.63176E-12
 -1       949 6.84679E-12
 -1       950 6.25633E-12
 -1       951 5.50600E-12
 -1       952 1.18985E-01
 -1       953 2.55280E-01
 -1       954 9.60340E-02
 -1       955 2.32982E-02
 -1       956 4.85909E-02
 -1       957 7.19851E-12
 -1       958 1.71641E-09
 -1       959 1.96166E-09
 -1       960 2.34460E-10
 -1       961 1.28040E-06
 -1       962 2.00170E-06
 -1       963 1.04888E-06
 -1       964 3.66873E-07
 -1       965 1.02524E-07
 -1       966 5.82574E-12
 -1       967 6.05169E-12
 -1       968 5.20970E-12
 -1       969 4.91980E-12
 -1       970 1.49348E-09
 -1       971 3.51911E-11
 -1       972 7.91260E-12
 -1       973 4.58726E-12
 -1       974 1.94191E-10
 -1       975 5.35597E-10
 -1       976 5.61002E-11
 -1       977 8.29630E-12
 -1       978 6.79563E-12
 -1       979 2.03953E-09
 -1       980 2.27559E-02
 -1       981 1.94982E-03
 -1       982 3.11261E-01
 -1       983 7.05884E-06
 -1       984 1.34641E-07
 -1       985 9.53740E-05
 -1       986 3.71293E+00
 -1       987 1.12612E+00
 -1       988 7.67020E-09
 -1       989 6.77005E-12
 -1       990 1.97205E-08
 -1       991 2.38700E-11
 -1       992 2.00514E-10
 -1       993 4.41673E-12
 -1       994 1.35273E-11
 -1       995 6.50390E-03
 -1       996 2.23752E-06
 -1       997 3.77802E-08
 -1       998 3.90009E-04
 -1       999 2.14744E-05
 -1      1000 7.54844E+00
 -1      1001 1.42252E-07
 -1      1002 1.15993E+00
 -1      1003 3.54353E-01
 -1      1004 8.71091E-02
 -1      1005 1.69882E-02
 -1      1006 1.94882E-10
 -1      1007 6.22435E-12
 -1      1008 3.48734E-12
 -1      1009 5.64378E-10
 -1      1010 7.00022E-09
 -1      1011 5.67479E-09
 -1      1012 1.27480E-10
 -1      1013 1.03978E-09
 -1      1014 3.46389E-04
 -1      1015 1.99510E-06
 -1      1016 6.04154E-07
 -1      1017 1.38062E-07
 -1      1018 6.32247E-06
 -1      1019 3.81476E-11
 -1      1020 5.41434E-12
 -1      1021 5.56762E-08
 -1      1022 2.38103E-11
 -1      1023 5.82787E-12
 -1      1024 7.57425E-05
 -1      1025 1.78907E-03
 -1      1026 4.58726E-12
 -1      1027 1.03427E-11
 -1      1028 6.59228E-03
 -1      1029 1.75649E-09
 -1      1030 1.59602E-05
 -1      1031 6.06235E-12
 -1      1032 1.22611E-11
 -1      1033 5.27791E-12
 -1      1034 1.62804E+00
 -1      1035 6.71975E-01
 -1      1036 1.82392E-02
 -1      1037 6.52573E+00
 -1      1038 5.66026E-07
 -1      1039 7.64602E-08
 -1      1040 9.80208E-10
 -1      1041 6.32022E-02
 -1      1042 1.53810E-10
 -1      1043 1.17460E-02
 -1      1044 3.76446E-12
 -1      1045 4.29736E-12
 -1      1046 6.22435E-12
 -1      1047 1.44823E-11
 -1      1048 8.99718E-11
 -1      1049 2.40648E-09
 -1      1050 2.66454E-11
 -1      1051 8.92726E-12
 -1      1052 3.35945E-12
 -1      1053 8.29630E-12
 -1      1054 2.77039E-08
 -1      1055 3.26282E-03
 -1      1056 6.95503E-04
 -1      1057 7.36375E-10
 -1      1058 4.97481E-05
 -1      1059 1.74730E-05
 -1      1060 3.46389E-04
 -1      1061 3.59401E-10
 -1      1062 6.98321E-12
 -1      1063 4.11046E-06
 -1      1064 7.00022E-09
 -1      1065 1.99510E-06
 -1      1066 1.19962E-07
 -1      1067 1.80184E-01
 -1      1068 9.99040E-08
 -1      1069 2.93429E+00
 -1      1070 5.17198E-09
 -1      1071 3.71293E+00
 -1      1072 1.09335E+01
 -1      1073 1.09583E+01
 -1      1074 3.22743E-08
 -1      1075 1.34803E-07
 -1      1076 7.67020E-09
 -1      1077 1.09335E+01
 -1      1078 9.76572E+00
 -1      1079 1.09335E+01
 -1      1080 9.45106E+00
 -1      1081 1.09583E+01
 -1      1082 1.09583E+01
 -1      1083 1.36353E-07
 -1      1084 1.34803E-07
 -1      1085 1.08843E-07
 -1      1086 2.91303E-08
 -1      1087 6.60891E-08
 -1      1088 2.29304E-08
 -1      1089 7.54844E+00
 -1      1090 7.74611E+00
 -1      1091 9.25339E+00
 -1      1092 7.56184E+00
 -1      1093 7.03708E+00
 -1      1094 7.03708E+00
 -1      1095 8.72960E+00
 -1      1096 9.99040E-08
 -1      1097 1.21078E-07
 -1      1098 6.60891E-08
 -1      1099 1.42252E-07
 -1      1100 1.40077E-07
 -1      1101 1.21078E-07
 -1      1102 1.38528E-07
 -1      1103 6.94631E+00
 -1      1104 2.30853E+00
 -1      1105 6.94631E+00
 -1      1106 1.40444E+00
 -1      1107 9.03040E-01
 -1      1108 2.03020E+00
 -1      1109 5.17159E-01
 -1      1110 2.83217E-01
 -1      1111 7.40234E-01
 -1      1112 1.49595E-01
 -1      1113 5.84341E-02
 -1      1114 2.20731E-01
 -1      1115 2.62576E-02
 -1      1116 1.39831E-02
 -1      1117 5.49325E-02
 -1      1118 5.90133E-03
 -1      1119 4.47946E-03
 -1      1120 1.46741E-02
 -1      1121 2.15823E-03
 -1      1122 1.38421E-03
 -1      1123 4.27105E-03
 -1      1124 5.82493E-04
 -1      1125 2.81141E-04
 -1      1126 1.14810E-03
 -1      1127 1.55633E-04
 -1      1128 5.98038E-05
 -1      1129 2.20882E-04
 -1      1130 2.00969E-05
 -1      1131 1.22446E-05
 -1      1132 5.56671E-05
 -1      1133 7.79394E-06
 -1      1134 5.24248E-06
 -1      1135 1.15095E-05
 -1      1136 2.71061E-06
 -1      1137 1.62071E-06
 -1      1138 4.52697E-06
 -1      1139 9.25241E-07
 -1      1140 3.80135E-07
 -1      1141 1.29963E-06
 -1      1142 1.45379E-07
 -1      1143 8.81148E-08
 -1      1144 3.69398E-07
 -1      1145 4.86323E-08
 -1      1146 4.17301E-08
 -1      1147 9.51588E-08
 -1      1148 2.37523E-08
 -1      1149 1.51097E-08
 -1      1150 3.76984E-08
 -1      1151 8.08680E-09
 -1      1152 4.90170E-09
 -1      1153 1.26976E-08
 -1      1154 2.94256E-09
 -1      1155 1.43317E-09
 -1      1156 3.71564E-09
 -1      1157 8.22725E-10
 -1      1158 3.76848E-10
 -1      1159 1.14604E-09
 -1      1160 1.72790E-10
 -1      1161 9.65287E-11
 -1      1162 3.31539E-10
 -1      1163 6.08388E-11
 -1      1164 3.80069E-11
 -1      1165 9.17900E-11
 -1      1166 1.60874E-11
 -1      1167 8.67573E-12
 -1      1168 3.41807E-11
 -1      1169 6.50147E-12
 -1      1170 5.96003E-12
 -1      1171 1.00869E-11
 -1      1172 5.11591E-12
 -1      1173 6.13483E-12
 -1      1174 7.06848E-12
 -1      1175 7.17080E-12
 -1      1176 6.29896E-12
 -1      1177 7.26033E-12
 -1      1178 4.85798E-12
 -1      1179 4.99441E-12
 -1      1180 6.85532E-12
 -1      1181 4.58087E-12
 -1      1182 4.58087E-12
 -1      1183 5.00080E-12
 -1      1184 4.58087E-12
 -1      1185 3.32534E-12
 -1      1186 4.58726E-12
 -1      1187 3.94564E-12
 -1      1188 6.13696E-12
 -1      1189 5.20757E-12
 -1      1190 1.51580E-11
 -1      1191 3.27312E-11
 -1      1192 1.48489E-11
 -1      1193 1.18237E-10
 -1      1194 2.05817E-10
 -1      1195 1.09376E-10
 -1      1196 3.94347E-09
 -1      1197 1.06284E-08
 -1      1198 3.93254E-09
 -1      1199 1.99722E-08
 -1      1200 2.69788E+00
 -1      1201 7.32321E+00
 -1      1202 7.32321E+00
 -1      1203 9.23783E-01
 -1      1204 1.42138E+00
 -1      1205 2.43643E+00
 -1      1206 2.50792E-01
 -1      1207 4.99447E-01
 -1      1208 7.35596E-01
 -1      1209 5.15041E-02
 -1      1210 1.26763E-01
 -1      1211 1.87232E-01
 -1      1212 1.23715E-02
 -1      1213 2.90226E-02
 -1      1214 4.07207E-02
 -1      1215 4.46259E-03
 -1      1216 6.50390E-03
 -1      1217 1.23715E-02
 -1      1218 1.33626E-03
 -1      1219 2.10518E-03
 -1      1220 4.14648E-03
 -1      1221 3.11707E-04
 -1      1222 6.36730E-04
 -1      1223 1.08954E-03
 -1      1224 5.93131E-05
 -1      1225 1.54574E-04
 -1      1226 2.32876E-04
 -1      1227 1.40024E-05
 -1      1228 3.21791E-05
 -1      1229 4.86085E-05
 -1      1230 5.04183E-06
 -1      1231 6.42646E-06
 -1      1232 1.38984E-05
 -1      1233 1.66460E-06
 -1      1234 2.99936E-06
 -1      1235 4.27999E-06
 -1      1236 4.35802E-07
 -1      1237 8.28851E-07
 -1      1238 1.40177E-06
 -1      1239 7.56052E-08
 -1      1240 2.12770E-07
 -1      1241 3.42994E-07
 -1      1242 2.21029E-08
 -1      1243 3.45144E-08
 -1      1244 7.88710E-08
 -1      1245 4.27365E-09
 -1      1246 6.71294E-09
 -1      1247 2.23902E-08
 -1      1248 1.47650E-09
 -1      1249 1.79330E-09
 -1      1250 4.51988E-09
 -1      1251 8.46060E-10
 -1      1252 9.76625E-10
 -1      1253 1.53966E-09
 -1      1254 4.13566E-10
 -1      1255 6.08358E-10
 -1      1256 8.02081E-10
 -1      1257 1.48564E-10
 -1      1258 2.31633E-10
 -1      1259 3.82446E-10
 -1      1260 3.12028E-11
 -1      1261 6.73808E-11
 -1      1262 1.19331E-10
 -1      1263 1.35273E-11
 -1      1264 1.88926E-11
 -1      1265 2.58375E-11
 -1      1266 9.72022E-12
 -1      1267 1.19350E-11
 -1      1268 1.19350E-11
 -1      1269 6.77005E-12
 -1      1270 7.93392E-12
 -1      1271 8.55636E-12
 -1      1272 5.02638E-12
 -1      1273 6.02398E-12
 -1      1274 6.02398E-12
 -1      1275 4.41673E-12
 -1      1276 4.59579E-12
 -1      1277 4.84732E-12
 -1      1278 4.77485E-12
 -1      1279 3.95204E-12
 -1      1280 3.95204E-12
 -1      1281 5.29923E-12
 -1      1282 6.06235E-12
 -1      1283 4.77485E-12
 -1      1284 1.06326E-11
 -1      1285 5.66587E-12
 -1      1286 6.42899E-12
 -1      1287 3.29784E-11
 -1      1288 1.91399E-11
 -1      1289 1.53030E-11
 -1      1290 1.49086E-09
 -1      1291 1.18169E-10
 -1      1292 1.09001E-10
 -1      1293 4.40274E-08
 -1      1294 3.97975E-09
 -1      1295 2.68308E-09
 -1      1296 6.99875E-08
 -1      1297 7.44791E-12
 -1      1298 6.60378E-12
 -1      1299 1.05942E-11
 -1      1300 8.41993E-12
 -1      1301 7.95524E-12
 -1      1302 4.58940E-12
 -1      1303 4.17586E-12
 -1      1304 4.44231E-12
 -1      1305 4.44231E-12
 -1      1306 4.03091E-12
 -1      1307 1.74001E-10
 -1      1308 8.88100E-11
 -1      1309 5.67009E-10
 -1      1310 5.87200E-10
 -1      1311 3.07609E-09
 -1      1312 4.47499E-10
 -1      1313 2.43440E-10
 -1      1314 1.24643E-09
 -1      1315 6.35986E-10
 -1      1316 5.47888E-10
 -1      1317 1.08726E-10
 -1      1318 7.30360E-11
 -1      1319 4.13728E-11
 -1      1320 1.94532E-11
 -1      1321 5.83086E-11
 -1      1322 6.22435E-12
 -1      1323 7.26033E-12
 -1      1324 8.29630E-12
 -1      1325 6.85532E-12
 -1      1326 7.26033E-12
 -1      1327 1.91463E-11
 -1      1328 1.06390E-11
 -1      1329 5.07754E-12
 -1      1330 4.71090E-12
 -1      1331 8.92086E-12
 -1      1332 4.51988E-09
 -1      1333 7.00022E-09
 -1      1334 1.72313E-09
 -1      1335 2.22301E-09
 -1      1336 4.70335E-09
 -1      1337 5.20486E-02
 -1      1338 1.98720E-02
 -1      1339 1.43671E-02
 -1      1340 1.72510E-02
 -1      1341 9.16915E-03
 -1      1342 1.32266E-03
 -1      1343 5.20946E-04
 -1      1344 4.92755E-03
 -1      1345 2.60632E-03
 -1      1346 1.97916E-03
 -1      1347 4.91618E-01
 -1      1348 9.15953E-01
 -1      1349 2.45722E-01
 -1      1350 4.26079E-01
 -1      1351 1.21693E-01
 -1      1352 5.58465E-06
 -1      1353 3.05278E-06
 -1      1354 1.67166E-05
 -1      1355 1.22659E-05
 -1      1356 1.07917E-05
 -1      1357 3.71108E-07
 -1      1358 1.36351E-07
 -1      1359 1.07261E-07
 -1      1360 1.05551E-07
 -1      1361 6.60682E-08
 -1      1362 3.46389E-04
 -1      1363 2.20882E-04
 -1      1364 7.25610E-05
 -1      1365 3.28541E-05
 -1      1366 1.98069E-04
 -1      1367 1.39399E+00
 -1      1368 2.67049E+00
 -1      1369 2.67049E+00
 -1      1370 3.71293E+00
 -1      1371 5.11933E+00
 -1      1372 5.11933E+00
 -1      1373 8.99045E-01
 -1      1374 5.13164E-01
 -1      1375 1.15001E+00
 -1      1376 1.37708E+00
 -1      1377 2.28117E+00
 -1      1378 5.87545E-10
 -1      1379 4.32520E-09
 -1      1380 4.32520E-09
 -1      1381 7.67020E-09
 -1      1382 5.37871E-08
 -1      1383 5.37871E-08
 -1      1384 6.87663E-12
 -1      1385 8.66294E-12
 -1      1386 5.75113E-12
 -1      1387 6.49720E-12
 -1      1388 6.60378E-12
 -1      1389 1.33604E-08
 -1      1390 6.33751E-09
 -1      1391 4.16901E-08
 -1      1392 2.37122E-08
 -1      1393 1.73521E-08
 -1      1394 8.88399E-11
 -1      1395 1.74346E-10
 -1      1396 1.01551E-11
 -1      1397 1.91761E-11
 -1      1398 8.41460E-11
 -1      1399 2.79957E-10
 -1      1400 4.61890E-10
 -1      1401 6.40597E-11
 -1      1402 1.45243E-10
 -1      1403 2.24686E-10
 -1      1404 3.62590E-12
 -1      1405 4.09059E-12
 -1      1406 6.35652E-12
 -1      1407 6.78710E-12
 -1      1408 6.03038E-12
 -1      1409 2.00863E-11
 -1      1410 3.23965E-11
 -1      1411 9.63496E-12
 -1      1412 1.12273E-11
 -1      1413 1.77863E-11
 -1      1414 2.52594E-03
 -1      1415 4.88336E-03
 -1      1416 9.12496E-03
 -1      1417 1.49926E-02
 -1      1418 7.50442E-03
 -1      1419 3.17399E-06
 -1      1420 5.21646E-06
 -1      1421 1.28056E-06
 -1      1422 2.11631E-06
 -1      1423 3.05278E-06
 -1      1424 1.73521E-08
 -1      1425 3.27421E-08
 -1      1426 5.20821E-08
 -1      1427 5.71202E-08
 -1      1428 9.82110E-08
 -1      1429 2.11066E-04
 -1      1430 3.68199E-04
 -1      1431 5.42756E-04
 -1      1432 1.24229E-03
 -1      1433 5.20946E-04
 -1      1434 1.18978E-05
 -1      1435 1.94737E-05
 -1      1436 3.56112E-05
 -1      1437 6.27453E-05
 -1      1438 3.36105E-05
 -1      1439 5.63068E+00
 -1      1440 3.32361E+00
 -1      1441 5.24136E+00
 -1      1442 7.49612E-08
 -1      1443 7.37121E-08
 -1      1444 6.42109E-09
 -1      1445 2.67268E-01
 -1      1446 1.33646E-01
 -1      1447 9.85860E-02
 -1      1448 4.00952E-02
 -1      1449 1.76137E-02
 -1      1450 5.17986E-12
 -1      1451 3.89235E-12
 -1      1452 6.50377E-10
 -1      1453 8.88079E-10
 -1      1454 4.04063E-09
 -1      1455 2.08148E-09
 -1      1456 1.57143E-09
 -1      1457 1.99510E-06
 -1      1458 1.29963E-06
 -1      1459 1.06658E-06
 -1      1460 3.52044E-07
 -1      1461 1.29012E-07
 -1      1462 3.97336E-12
 -1      1463 4.59366E-12
 -1      1464 3.82840E-12
 -1      1465 1.42308E-11
 -1      1466 5.91740E-12
 -1      1467 4.58726E-12
 -1      1468 2.29457E-10
 -1      1469 5.81257E-10
 -1      1470 6.04530E-12
 -1      1471 2.07083E-09
 -1      1472 1.35452E-02
 -1      1473 1.85703E-03
 -1      1474 3.16764E-01
 -1      1475 8.50205E-06
 -1      1476 1.22834E-07
 -1      1477 7.42011E-05
 -1      1478 3.61116E+00
 -1      1479 5.61002E-11
 -1      1480 4.10125E-12
 -1      1481 2.51598E-09
 -1      1482 1.94237E-08
 -1      1483 2.48036E-11
 -1      1484 1.73888E-09
 -1      1485 2.21122E-06
 -1      1486 3.40708E-04
 -1      1487 5.07210E-07
 -1      1488 6.87059E+00
 -1      1489 1.45845E-07
 -1      1490 6.02398E-12
 -1      1491 6.34373E-12
 -1      1492 2.57154E-02
 -1      1493 3.77525E-01
 -1      1494 1.12612E+00
 -1      1495 1.64521E+00
 -1      1496 1.13624E-10
 -1      1497 5.06645E-11
 -1      1498 1.79756E-10
 -1      1499 3.61874E-10
 -1      1500 3.50440E-12
 -1      1501 6.36931E-12
 -1      1502 7.22426E-09
 -1      1503 3.47575E-08
 -1      1504 7.46314E-08
 -1      1505 5.91740E-12
 -1      1506 7.27389E-06
 -1      1507 4.57447E-12
 -1      1508 1.99588E-06
 -1      1509 4.30154E-04
 -1      1510 2.15665E-05
 -1      1511 4.71260E-05
 -1      1512 3.42382E-11
 -1      1513 5.46425E-09
 -1      1514 8.23828E-03
 -1      1515 3.20160E-03
 -1      1516 8.12472E-02
 -1      1517 7.97941E-02
 -1      1518 5.81565E-07
 -1      1519 5.82361E-12
 -1      1520 6.56968E-12
 -1      1521 1.03583E-09
 -1      1522 5.02212E-12
 -1      1523 7.26459E-12
 -1      1524 1.41881E-11
 -1      1525 7.22006E-01
 -1      1526 1.20540E+00
 -1      1527 7.25997E+00
 -1      1528 7.21616E-10
 -1      1529 2.37796E-10
 -1      1530 1.65235E-03
 -1      1531 5.14303E-03
 -1      1532 9.58101E-05
 -1      1533 1.38299E-07
 -1      1534 5.21471E-08
 -1      1535 1.72881E-05
 -1      1536 7.19616E-10
 -1      1537 1.31116E-10
 -1      1538 7.26459E-12
 -1      1539 5.82361E-12
 -1      1540 5.54650E-12
 -1      1541 1.99776E-11
 -1      1542 4.48495E-12
 -1      1543 2.38313E-09
 -1      1544 5.06645E-11
 -1      1545 2.57154E-02
 -1      1546 1.80964E-01
 -1      1547 6.02398E-12
 -1      1548 8.77378E-12
 -1      1549 1.99588E-06
 -1      1550 4.46789E-12
 -1      1551 4.08226E-06
 -1      1552 7.16320E-09
 -1      1553 7.28804E-10
 -1      1554 1.02459E-10
 -1      1555 1.07576E-07
 -1      1556 2.78055E-08
 -1      1557 1.10589E-02
 -1      1558 1.96651E-05
 -1      1559 3.40708E-04
 -1      1560 6.78638E-04
 -1      1561 4.45753E-08
 -1      1562 2.94116E+00
 -1      1563 2.99191E-09
 -1      1564 3.61116E+00
 -1      1565 1.09583E+01
 -1      1566 1.09243E+01
 -1      1567 2.59864E-08
 -1      1568 7.89791E-08
 -1      1569 4.54150E-09
 -1      1570 9.75393E+00
 -1      1571 1.09243E+01
 -1      1572 1.09243E+01
 -1      1573 1.09583E+01
 -1      1574 9.45840E+00
 -1      1575 1.09583E+01
 -1      1576 5.83621E-08
 -1      1577 1.12412E-07
 -1      1578 5.14784E-08
 -1      1579 3.19745E-08
 -1      1580 2.59864E-08
 -1      1581 1.97864E-08
 -1      1582 7.06528E+00
 -1      1583 7.72707E+00
 -1      1584 8.89744E+00
 -1      1585 7.60922E+00
 -1      1586 7.25997E+00
 -1      1587 7.06528E+00
 -1      1588 9.10915E+00
 -1      1589 1.45845E-07
 -1      1590 1.14223E-07
 -1      1591 1.12412E-07
 -1      1592 6.35878E-08
 -1      1593 4.12689E-08
 -1      1594 9.52103E-08
 -1      1595 3.52808E-08
 -1      1596 6.93273E+00
 -1      1597 2.33530E+00
 -1      1598 6.93273E+00
 -1      1599 1.46742E+00
 -1      1600 9.50528E-01
 -1      1601 2.07328E+00
 -1      1602 5.06208E-01
 -1      1603 2.54924E-01
 -1      1604 7.61083E-01
 -1      1605 1.36440E-01
 -1      1606 6.15395E-02
 -1      1607 1.98279E-01
 -1      1608 3.45001E-02
 -1      1609 1.68027E-02
 -1      1610 5.27548E-02
 -1      1611 8.06410E-03
 -1      1612 5.42486E-03
 -1      1613 1.69769E-02
 -1      1614 2.23424E-03
 -1      1615 1.38513E-03
 -1      1616 5.04766E-03
 -1      1617 6.71687E-04
 -1      1618 3.33533E-04
 -1      1619 1.14359E-03
 -1      1620 1.55556E-04
 -1      1621 5.85503E-05
 -1      1622 2.52177E-04
 -1      1623 3.22330E-05
 -1      1624 1.42709E-05
 -1      1625 4.78838E-05
 -1      1626 7.12456E-06
 -1      1627 5.61950E-06
 -1      1628 1.44202E-05
 -1      1629 3.08817E-06
 -1      1630 1.66994E-06
 -1      1631 4.74256E-06
 -1      1632 8.55108E-07
 -1      1633 4.46943E-07
 -1      1634 1.39639E-06
 -1      1635 2.17577E-07
 -1      1636 7.72274E-08
 -1      1637 3.52199E-07
 -1      1638 3.31891E-08
 -1      1639 2.06057E-08
 -1      1640 7.87958E-08
 -1      1641 6.83905E-09
 -1      1642 4.44162E-09
 -1      1643 2.09909E-08
 -1      1644 1.86491E-09
 -1      1645 1.49970E-09
 -1      1646 4.64755E-09
 -1      1647 9.82197E-10
 -1      1648 9.28640E-10
 -1      1649 1.55333E-09
 -1      1650 7.01350E-10
 -1      1651 4.50381E-10
 -1      1652 8.08546E-10
 -1      1653 2.49631E-10
 -1      1654 1.35141E-10
 -1      1655 3.80506E-10
 -1      1656 7.05953E-11
 -1      1657 3.87828E-11
 -1      1658 1.15210E-10
 -1      1659 2.05659E-11
 -1      1660 1.24615E-11
 -1      1661 3.24476E-11
 -1      1662 8.63096E-12
 -1      1663 6.45670E-12
 -1      1664 1.04002E-11
 -1      1665 6.34373E-12
 -1      1666 5.66374E-12
 -1      1667 6.45670E-12
 -1      1668 5.40368E-12
 -1      1669 5.11164E-12
 -1      1670 6.08367E-12
 -1      1671 5.15854E-12
 -1      1672 5.91740E-12
 -1      1673 5.87050E-12
 -1      1674 4.71090E-12
 -1      1675 4.26326E-12
 -1      1676 4.71090E-12
 -1      1677 5.02212E-12
 -1      1678 4.33147E-12
 -1      1679 4.26326E-12
 -1      1680 3.87104E-12
 -1      1681 1.06624E-11
 -1      1682 4.56168E-12
 -1      1683 2.57309E-11
 -1      1684 7.12582E-11
 -1      1685 1.91697E-11
 -1      1686 1.68868E-10
 -1      1687 4.80111E-10
 -1      1688 1.31848E-10
 -1      1689 1.86134E-09
 -1      1690 1.34848E-08
 -1      1691 1.61068E-09
 -1      1692 4.09855E-08
 -1      1693 2.64697E+00
 -1      1694 7.28475E+00
 -1      1695 7.28475E+00
 -1      1696 9.03040E-01
 -1      1697 1.40444E+00
 -1      1698 2.36864E+00
 -1      1699 2.94803E-01
 -1      1700 5.28745E-01
 -1      1701 7.51820E-01
 -1      1702 5.55032E-02
 -1      1703 1.46664E-01
 -1      1704 2.29386E-01
 -1      1705 9.37779E-03
 -1      1706 2.16522E-02
 -1      1707 4.73962E-02
 -1      1708 3.75484E-03
 -1      1709 5.17670E-03
 -1      1710 9.34412E-03
 -1      1711 1.23547E-03
 -1      1712 2.00950E-03
 -1      1713 3.39769E-03
 -1      1714 2.78300E-04
 -1      1715 5.79652E-04
 -1      1716 9.96529E-04
 -1      1717 6.00218E-05
 -1      1718 1.55851E-04
 -1      1719 2.18259E-04
 -1      1720 1.40971E-05
 -1      1721 2.19493E-05
 -1      1722 5.77376E-05
 -1      1723 5.96409E-06
 -1      1724 8.51555E-06
 -1      1725 1.40836E-05
 -1      1726 1.62110E-06
 -1      1727 2.71100E-06
 -1      1728 5.24897E-06
 -1      1729 3.31663E-07
 -1      1730 8.76769E-07
 -1      1731 1.25154E-06
 -1      1732 7.45824E-08
 -1      1733 1.31846E-07
 -1      1734 3.07393E-07
 -1      1735 3.99656E-08
 -1      1736 4.68677E-08
 -1      1737 7.98617E-08
 -1      1738 1.49612E-08
 -1      1739 2.36039E-08
 -1      1740 3.57854E-08
 -1      1741 4.79644E-09
 -1      1742 7.98153E-09
 -1      1743 1.24440E-08
 -1      1744 1.42437E-09
 -1      1745 2.93375E-09
 -1      1746 3.60157E-09
 -1      1747 4.69858E-10
 -1      1748 9.15735E-10
 -1      1749 1.23025E-09
 -1      1750 1.51687E-10
 -1      1751 2.27948E-10
 -1      1752 4.79706E-10
 -1      1753 3.80069E-11
 -1      1754 6.08388E-11
 -1      1755 1.46948E-10
 -1      1756 9.63922E-12
 -1      1757 1.70509E-11
 -1      1758 3.51442E-11
 -1      1759 5.18838E-12
 -1      1760 5.72982E-12
 -1      1761 1.02787E-11
 -1      1762 6.04530E-12
 -1      1763 5.02638E-12
 -1      1764 6.20730E-12
 -1      1765 5.78311E-12
 -1      1766 6.65494E-12
 -1      1767 6.65494E-12
 -1      1768 5.29923E-12
 -1      1769 5.16280E-12
 -1      1770 6.64428E-12
 -1      1771 4.57447E-12
 -1      1772 4.57447E-12
 -1      1773 5.29923E-12
 -1      1774 3.32534E-12
 -1      1775 4.58087E-12
 -1      1776 4.58087E-12
 -1      1777 6.18172E-12
 -1      1778 3.99041E-12
 -1      1779 5.25233E-12
 -1      1780 3.31980E-11
 -1      1781 1.56248E-11
 -1      1782 1.53605E-11
 -1      1783 1.65188E-10
 -1      1784 7.76083E-11
 -1      1785 6.92140E-11
 -1      1786 8.05125E-09
 -1      1787 1.36637E-09
 -1      1788 1.31480E-09
 -1      1789 1.42512E-08
 -1      1790 5.06645E-11
 -1      1791 3.24476E-11
 -1      1792 1.15023E-11
 -1      1793 7.67173E-12
 -1      1794 2.97192E-11
 -1      1795 5.97069E-12
 -1      1796 4.76419E-12
 -1      1797 6.54410E-12
 -1      1798 6.59099E-12
 -1      1799 6.64428E-12
 -1      1800 5.19265E-12
 -1      1801 4.52758E-12
 -1      1802 4.53610E-12
 -1      1803 4.52971E-12
 -1      1804 4.47642E-12
 -1      1805 8.26773E-11
 -1      1806 1.80287E-10
 -1      1807 4.74537E-10
 -1      1808 4.25366E-10
 -1      1809 1.85576E-09
 -1      1810 4.71565E-10
 -1      1811 2.70815E-10
 -1      1812 6.55030E-10
 -1      1813 5.45339E-10
 -1      1814 8.82319E-10
 -1      1815 5.79590E-12
 -1      1816 5.95790E-12
 -1      1817 6.54410E-12
 -1      1818 5.93445E-12
 -1      1819 5.68505E-12
 -1      1820 7.19373E-09
 -1      1821 4.61702E-09
 -1      1822 2.22698E-09
 -1      1823 1.70948E-09
 -1      1824 4.77317E-09
 -1      1825 1.96303E-02
 -1      1826 5.34813E-02
 -1      1827 8.10096E-03
 -1      1828 1.23020E-02
 -1      1829 1.83872E-02
 -1      1830 1.26784E-03
 -1      1831 5.54396E-04
 -1      1832 5.71994E-03
 -1      1833 2.52932E-03
 -1      1834 1.94012E-03
 -1      1835 2.48864E-01
 -1      1836 1.30379E-01
 -1      1837 5.19385E-01
 -1      1838 9.63704E-01
 -1      1839 4.51485E-01
 -1      1840 3.03907E-06
 -1      1841 6.29216E-06
 -1      1842 1.28951E-05
 -1      1843 1.06852E-05
 -1      1844 1.84766E-05
 -1      1845 9.87328E-08
 -1      1846 5.46944E-08
 -1      1847 1.30567E-07
 -1      1848 1.06465E-07
 -1      1849 3.59932E-07
 -1      1850 3.85431E-04
 -1      1851 2.07455E-04
 -1      1852 6.06636E-05
 -1      1853 3.43462E-05
 -1      1854 1.93917E-04
 -1      1855 1.38566E+00
 -1      1856 2.62819E+00
 -1      1857 2.62819E+00
 -1      1858 3.61116E+00
 -1      1859 5.43557E+00
 -1      1860 5.43557E+00
 -1      1861 3.24263E-11
 -1      1862 5.33824E-11
 -1      1863 7.92795E-11
 -1      1864 1.70127E-10
 -1      1865 7.65617E-11
 -1      1866 1.20394E-11
 -1      1867 2.71079E-11
 -1      1868 4.74500E-12
 -1      1869 4.28457E-12
 -1      1870 1.22228E-11
 -1      1871 1.61780E-09
 -1      1872 4.16620E-10
 -1      1873 3.52874E-09
 -1      1874 2.63056E-09
 -1      1875 2.35456E-08
 -1      1876 2.45584E-08
 -1      1877 6.31373E-09
 -1      1878 1.32934E-08
 -1      1879 2.36146E-08
 -1      1880 3.99763E-08
 -1      1881 1.74844E-08
 -1      1882 1.22370E-10
 -1      1883 7.79600E-11
 -1      1884 2.23906E-11
 -1      1885 1.29475E-11
 -1      1886 7.55470E-11
 -1      1887 2.06101E-09
 -1      1888 3.92369E-09
 -1      1889 7.25210E-10
 -1      1890 1.23384E-09
 -1      1891 1.55597E-09
 -1      1892 5.67808E-06
 -1      1893 3.14674E-06
 -1      1894 2.10355E-06
 -1      1895 1.28872E-06
 -1      1896 3.03907E-06
 -1      1897 5.09673E-04
 -1      1898 1.16549E-03
 -1      1899 2.18259E-04
 -1      1900 3.40708E-04
 -1      1901 5.09673E-04
 -1      1902 1.25154E-06
 -1      1903 1.99588E-06
 -1      1904 3.22755E-07
 -1      1905 1.06709E-06
 -1      1906 1.22938E-07
 -1      1907 5.24087E+00
 -1      1908 4.90587E+00
 -1      1909 3.27616E+00
 -1      1910 7.51934E-08
 -1      1911 7.44186E-08
 -1      1912 3.76671E-09
 -1      1913 5.29923E-12
 -1      1914 6.02398E-12
 -1      1915 6.64428E-12
 -1      1916 7.26459E-12
 -1      1917 6.08367E-12
 -1      1918 5.82361E-12
 -1      1919 6.05809E-12
 -1      1920 5.94511E-12
 -1      1921 1.83872E-02
 -1      1922 9.64859E-03
 -1      1923 5.27548E-02
 -1      1924 2.57154E-02
 -1      1925 5.49766E-01
 -1      1926 9.24060E-01
 -1      1927 1.31106E-01
 -1      1928 2.79245E-01
 -1      1929 1.18361E+00
 -1      1930 1.42531E+00
 -1      1931 2.29319E+00
 -1      1932 1.41107E-10
 -1      1933 7.65617E-11
 -1      1934 2.32166E-10
 -1      1935 5.41745E-10
 -1      1936 2.99835E-10
 -1      1937 3.99467E-12
 -1      1938 4.75353E-12
 -1      1939 5.25446E-12
 -1      1940 7.57154E-12
 -1      1941 1.14809E-11
 -1      1942 7.16014E-12
 -1      1943 3.12815E-08
 -1      1944 1.75149E-08
 -1      1945 5.12185E-08
 -1      1946 9.11039E-08
 -1      1947 6.33893E-08
 -1      1948 1.94273E-05
 -1      1949 1.22810E-05
 -1      1950 3.22070E-05
 -1      1951 7.14680E-05
 -1      1952 3.33955E-05
 -1      1953 7.13025E-03
 -1      1954 2.42698E-03
 -1      1955 4.17232E-03
 -1      1956 1.03340E-01
 -1      1957 6.54410E-12
 -1      1958 2.10562E-11
 -1      1959 4.86438E-12
 -1      1960 6.06235E-12
 -1      1961 2.26281E-10
 -1      1962 4.22642E-10
 -1      1963 6.77005E-12
 -1      1964 5.55954E-09
 -1      1965 1.41060E-02
 -1      1966 1.46663E-03
 -1      1967 3.64766E-01
 -1      1968 7.15718E-06
 -1      1969 1.20813E-07
 -1      1970 7.62853E-05
 -1      1971 3.56534E+00
 -1      1972 3.37266E-11
 -1      1973 1.27514E-11
 -1      1974 7.71973E-09
 -1      1975 6.73052E-09
 -1      1976 2.29193E-11
 -1      1977 1.01283E-09
 -1      1978 2.00951E-06
 -1      1979 4.28245E-08
 -1      1980 1.70518E-05
 -1      1981 6.71764E+00
 -1      1982 1.28337E-07
 -1      1983 5.06901E-12
 -1      1984 8.45404E-12
 -1      1985 1.79918E-03
 -1      1986 1.88840E-02
 -1      1987 3.82592E-01
 -1      1988 1.15993E+00
 -1      1989 1.63225E+00
 -1      1990 5.66480E-10
 -1      1991 3.61183E-11
 -1      1992 2.07007E-10
 -1      1993 3.92816E-10
 -1      1994 4.86438E-12
 -1      1995 1.83846E-08
 -1      1996 9.49001E-12
 -1      1997 9.53264E-12
 -1      1998 3.78577E-12
 -1      1999 8.44441E-06
 -1      2000 1.97660E-06
 -1      2001 5.74048E-07
 -1      2002 1.23068E-07
 -1      2003 3.55070E-04
 -1      2004 9.86917E-05
 -1      2005 4.91511E-11
 -1      2006 3.51887E-08
 -1      2007 4.32427E-04
 -1      2008 1.45559E-09
 -1      2009 6.08001E-03
 -1      2010 6.17962E-02
 -1      2011 6.44085E-02
 -1      2012 5.23075E-03
 -1      2013 6.82547E-12
 -1      2014 2.12822E-05
 -1      2015 1.38812E-11
 -1      2016 1.70903E-09
 -1      2017 5.32481E-12
 -1      2018 6.77005E-12
 -1      2019 1.35273E-11
 -1      2020 6.78478E-01
 -1      2021 1.14424E+00
 -1      2022 7.58570E+00
 -1      2023 6.19485E-10
 -1      2024 1.65150E-10
 -1      2025 8.18646E-08
 -1      2026 5.17508E-07
 -1      2027 1.03205E-09
 -1      2028 1.13531E-10
 -1      2029 5.78950E-12
 -1      2030 6.05382E-12
 -1      2031 7.74634E-12
 -1      2032 1.27514E-11
 -1      2033 4.56168E-12
 -1      2034 2.37090E-09
 -1      2035 3.39867E-11
 -1      2036 2.41459E-08
 -1      2037 3.70995E-03
 -1      2038 1.20589E-02
 -1      2039 3.08632E-02
 -1      2040 1.34492E-01
 -1      2041 4.05862E-12
 -1      2042 7.39002E-04
 -1      2043 8.89315E-12
 -1      2044 1.70869E-05
 -1      2045 4.84559E-05
 -1      2046 3.55070E-04
 -1      2047 5.08180E-12
 -1      2048 4.05249E-06
 -1      2049 6.74431E-09
 -1      2050 6.19485E-10
 -1      2051 6.91628E-11
 -1      2052 8.12978E-08
 -1      2053 2.00951E-06
 -1      2054 1.23603E-07
 -1      2055 2.93569E+00
 -1      2056 5.69470E-09
 -1      2057 3.56534E+00
 -1      2058 1.09335E+01
 -1      2059 1.09158E+01
 -1      2060 1.23400E-07
 -1      2061 9.24946E-08
 -1      2062 7.71973E-09
 -1      2063 1.09158E+01
 -1      2064 9.74806E+00
 -1      2065 1.09158E+01
 -1      2066 9.48901E+00
 -1      2067 1.09335E+01
 -1      2068 1.09335E+01
 -1      2069 9.24946E-08
 -1      2070 6.80419E-08
 -1      2071 5.42355E-08
 -1      2072 1.29102E-07
 -1      2073 1.23502E-07
 -1      2074 1.03142E-07
 -1      2075 7.64898E+00
 -1      2076 7.15167E+00
 -1      2077 8.81673E+00
 -1      2078 7.58570E+00
 -1      2079 7.81511E+00
 -1      2080 7.15167E+00
 -1      2081 9.25959E+00
 -1      2082 1.28337E-07
 -1      2083 1.10416E-07
 -1      2084 1.10416E-07
 -1      2085 1.23603E-07
 -1      2086 1.25970E-07
 -1      2087 1.25970E-07
 -1      2088 1.23502E-07
 -1      2089 2.33223E+00
 -1      2090 6.92576E+00
 -1      2091 6.92576E+00
 -1      2092 9.17201E-01
 -1      2093 1.43651E+00
 -1      2094 2.03997E+00
 -1      2095 2.90724E-01
 -1      2096 5.27463E-01
 -1      2097 7.54504E-01
 -1      2098 5.04147E-02
 -1      2099 1.40545E-01
 -1      2100 2.14587E-01
 -1      2101 1.24820E-02
 -1      2102 2.76525E-02
 -1      2103 4.16463E-02
 -1      2104 4.09628E-03
 -1      2105 6.08001E-03
 -1      2106 1.24820E-02
 -1      2107 1.14915E-03
 -1      2108 1.78959E-03
 -1      2109 3.77332E-03
 -1      2110 2.91646E-04
 -1      2111 5.93367E-04
 -1      2112 9.10848E-04
 -1      2113 6.36356E-05
 -1      2114 1.63457E-04
 -1      2115 2.26881E-04
 -1      2116 1.30701E-05
 -1      2117 2.28156E-05
 -1      2118 5.78718E-05
 -1      2119 5.95588E-06
 -1      2120 8.76638E-06
 -1      2121 1.27481E-05
 -1      2122 1.62068E-06
 -1      2123 2.73843E-06
 -1      2124 5.22696E-06
 -1      2125 3.41359E-07
 -1      2126 8.74680E-07
 -1      2127 1.26351E-06
 -1      2128 6.91535E-08
 -1      2129 1.23254E-07
 -1      2130 2.99403E-07
 -1      2131 3.59416E-08
 -1      2132 4.99168E-08
 -1      2133 6.20612E-08
 -1      2134 1.44371E-08
 -1      2135 2.37217E-08
 -1      2136 3.06045E-08
 -1      2137 4.83911E-09
 -1      2138 8.02457E-09
 -1      2139 1.19721E-08
 -1      2140 1.40926E-09
 -1      2141 2.91385E-09
 -1      2142 3.63429E-09
 -1      2143 3.37671E-10
 -1      2144 7.66069E-10
 -1      2145 1.06584E-09
 -1      2146 1.44264E-10
 -1      2147 2.29853E-10
 -1      2148 3.14824E-10
 -1      2149 2.90008E-11
 -1      2150 5.88202E-11
 -1      2151 1.21562E-10
 -1      2152 1.76733E-11
 -1      2153 2.14698E-11
 -1      2154 2.85873E-11
 -1      2155 1.12976E-11
 -1      2156 1.40858E-11
 -1      2157 1.74687E-11
 -1      2158 8.45404E-12
 -1      2159 8.58407E-12
 -1      2160 1.11676E-11
 -1      2161 5.54436E-12
 -1      2162 7.63976E-12
 -1      2163 7.63976E-12
 -1      2164 4.53824E-12
 -1      2165 4.56382E-12
 -1      2166 5.84492E-12
 -1      2167 4.13323E-12
 -1      2168 4.53824E-12
 -1      2169 4.86438E-12
 -1      2170 6.09433E-12
 -1      2171 4.36344E-12
 -1      2172 5.09459E-12
 -1      2173 1.82062E-11
 -1      2174 9.80762E-12
 -1      2175 9.03810E-12
 -1      2176 5.35657E-11
 -1      2177 3.64061E-11
 -1      2178 3.09512E-11
 -1      2179 4.44749E-10
 -1      2180 1.42131E-10
 -1      2181 1.37716E-10
 -1      2182 1.08356E-08
 -1      2183 3.17896E-09
 -1      2184 2.96049E-09
 -1      2185 4.90946E-08
 -1      2186 7.24941E+00
 -1      2187 2.62409E+00
 -1      2188 7.24941E+00
 -1      2189 1.42138E+00
 -1      2190 9.23783E-01
 -1      2191 2.36264E+00
 -1      2192 5.35113E-01
 -1      2193 2.86458E-01
 -1      2194 7.71262E-01
 -1      2195 1.26060E-01
 -1      2196 5.08011E-02
 -1      2197 2.22194E-01
 -1      2198 2.69560E-02
 -1      2199 1.03049E-02
 -1      2200 3.79511E-02
 -1      2201 5.86732E-03
 -1      2202 3.82602E-03
 -1      2203 9.66837E-03
 -1      2204 2.11024E-03
 -1      2205 1.34132E-03
 -1      2206 3.51497E-03
 -1      2207 6.57939E-04
 -1      2208 3.32917E-04
 -1      2209 1.11580E-03
 -1      2210 1.54846E-04
 -1      2211 5.95845E-05
 -1      2212 2.54356E-04
 -1      2213 3.20830E-05
 -1      2214 1.39063E-05
 -1      2215 4.87838E-05
 -1      2216 6.84381E-06
 -1      2217 5.45919E-06
 -1      2218 1.42197E-05
 -1      2219 2.86889E-06
 -1      2220 1.53414E-06
 -1      2221 4.56689E-06
 -1      2222 8.32862E-07
 -1      2223 4.39813E-07
 -1      2224 1.27532E-06
 -1      2225 2.13196E-07
 -1      2226 7.60308E-08
 -1      2227 3.47430E-07
 -1      2228 3.32187E-08
 -1      2229 2.08072E-08
 -1      2230 7.80008E-08
 -1      2231 6.57809E-09
 -1      2232 4.13880E-09
 -1      2233 2.09596E-08
 -1      2234 1.50133E-09
 -1      2235 1.18453E-09
 -1      2236 4.09305E-09
 -1      2237 9.63148E-10
 -1      2238 8.32584E-10
 -1      2239 1.23421E-09
 -1      2240 6.35912E-10
 -1      2241 4.41119E-10
 -1      2242 8.16158E-10
 -1      2243 2.13952E-10
 -1      2244 1.30882E-10
 -1      2245 3.92318E-10
 -1      2246 6.51703E-11
 -1      2247 2.89923E-11
 -1      2248 9.94383E-11
 -1      2249 1.88926E-11
 -1      2250 1.35273E-11
 -1      2251 2.36270E-11
 -1      2252 1.15087E-11
 -1      2253 9.29390E-12
 -1      2254 1.15087E-11
 -1      2255 7.93392E-12
 -1      2256 6.77005E-12
 -1      2257 8.13003E-12
 -1      2258 6.77005E-12
 -1      2259 5.77245E-12
 -1      2260 6.77005E-12
 -1      2261 4.92193E-12
 -1      2262 4.74287E-12
 -1      2263 5.91953E-12
 -1      2264 4.10125E-12
 -1      2265 4.92406E-12
 -1      2266 4.42739E-12
 -1      2267 6.06235E-12
 -1      2268 5.29923E-12
 -1      2269 4.92406E-12
 -1      2270 7.03437E-12
 -1      2271 1.20011E-11
 -1      2272 7.79750E-12
 -1      2273 1.86944E-11
 -1      2274 3.25329E-11
 -1      2275 1.62260E-11
 -1      2276 3.04313E-10
 -1      2277 1.67700E-09
 -1      2278 2.94700E-10
 -1      2279 5.25362E-09
 -1      2280 4.53013E-08
 -1      2281 4.14310E-09
 -1      2282 6.55600E-08
 -1      2283 2.75215E-11
 -1      2284 3.50525E-11
 -1      2285 1.13872E-11
 -1      2286 1.49747E-11
 -1      2287 2.14399E-11
 -1      2288 4.46150E-12
 -1      2289 4.46150E-12
 -1      2290 5.32694E-12
 -1      2291 6.30749E-12
 -1      2292 4.92406E-12
 -1      2293 5.57208E-12
 -1      2294 7.30722E-12
 -1      2295 4.17373E-12
 -1      2296 5.31202E-12
 -1      2297 4.82174E-12
 -1      2298 1.69906E-10
 -1      2299 8.13408E-11
 -1      2300 5.72790E-10
 -1      2301 6.29165E-10
 -1      2302 3.36338E-09
 -1      2303 2.99912E-10
 -1      2304 4.07729E-10
 -1      2305 5.06151E-10
 -1      2306 5.21064E-10
 -1      2307 1.16426E-09
 -1      2308 8.61817E-12
 -1      2309 7.25819E-12
 -1      2310 6.41194E-12
 -1      2311 6.41194E-12
 -1      2312 6.90008E-12
 -1      2313 6.15192E-09
 -1      2314 1.25644E-08
 -1      2315 2.03997E-09
 -1      2316 3.96522E-09
 -1      2317 4.55760E-09
 -1      2318 4.63297E-02
 -1      2319 2.24846E-02
 -1      2320 1.30824E-02
 -1      2321 8.64480E-03
 -1      2322 2.14610E-02
 -1      2323 5.47036E-04
 -1      2324 1.10281E-03
 -1      2325 2.58829E-03
 -1      2326 4.89498E-03
 -1      2327 2.22447E-03
 -1      2328 9.94502E-02
 -1      2329 2.49629E-01
 -1      2330 9.11360E-01
 -1      2331 5.21622E-01
 -1      2332 4.06485E-01
 -1      2333 5.60484E-06
 -1      2334 3.01454E-06
 -1      2335 1.91846E-05
 -1      2336 1.21221E-05
 -1      2337 1.05697E-05
 -1      2338 3.48558E-07
 -1      2339 1.21940E-07
 -1      2340 1.02466E-07
 -1      2341 1.01339E-07
 -1      2342 5.85267E-08
 -1      2343 3.93748E-04
 -1      2344 2.15678E-04
 -1      2345 6.23706E-05
 -1      2346 3.48691E-05
 -1      2347 2.01763E-04
 -1      2348 2.59880E+00
 -1      2349 1.39609E+00
 -1      2350 3.56534E+00
 -1      2351 2.59880E+00
 -1      2352 5.57552E+00
 -1      2353 5.57552E+00
 -1      2354 3.38567E-11
 -1      2355 2.37570E-11
 -1      2356 1.17156E-10
 -1      2357 5.14447E-11
 -1      2358 5.15747E-11
 -1      2359 3.09512E-11
 -1      2360 1.27514E-11
 -1      2361 8.91660E-12
 -1      2362 5.20330E-12
 -1      2363 8.91660E-12
 -1      2364 7.99265E-10
 -1      2365 4.37589E-09
 -1      2366 4.37589E-09
 -1      2367 7.71973E-09
 -1      2368 6.56615E-08
 -1      2369 6.56615E-08
 -1      2370 2.96673E-08
 -1      2371 1.54382E-08
 -1      2372 6.73741E-09
 -1      2373 4.09995E-09
 -1      2374 1.54451E-08
 -1      2375 6.82249E-11
 -1      2376 3.40005E-10
 -1      2377 1.11420E-11
 -1      2378 1.78353E-11
 -1      2379 6.31410E-11
 -1      2380 1.91324E-09
 -1      2381 1.69186E-09
 -1      2382 8.16158E-10
 -1      2383 6.19485E-10
 -1      2384 1.49519E-09
 -1      2385 3.03100E-06
 -1      2386 6.24845E-06
 -1      2387 1.26351E-06
 -1      2388 2.00951E-06
 -1      2389 3.03100E-06
 -1      2390 2.12652E-08
 -1      2391 3.34852E-08
 -1      2392 5.30052E-08
 -1      2393 6.23445E-08
 -1      2394 8.15812E-08
 -1      2395 1.27657E-05
 -1      2396 1.70694E-05
 -1      2397 3.27539E-05
 -1      2398 7.35738E-05
 -1      2399 3.27714E-05
 -1      2400 5.14149E+00
 -1      2401 3.25052E+00
 -1      2402 4.82667E+00
 -1      2403 6.80284E-08
 -1      2404 6.70158E-08
 -1      2405 6.70722E-09
 -1      2406 4.56382E-12
 -1      2407 3.92220E-12
 -1      2408 6.27978E-12
 -1      2409 5.42926E-12
 -1      2410 6.43965E-12
 -1      2411 7.25393E-12
 -1      2412 8.10019E-12
 -1      2413 1.08138E-11
 -1      2414 1.26909E-03
 -1      2415 5.85715E-04
 -1      2416 4.47035E-03
 -1      2417 2.75456E-03
 -1      2418 9.06943E-03
 -1      2419 1.54714E-02
 -1      2420 2.48736E-02
 -1      2421 4.76359E-02
 -1      2422 9.19205E-01
 -1      2423 5.30535E-01
 -1      2424 2.58542E-01
 -1      2425 9.81440E-02
 -1      2426 1.15536E+00
 -1      2427 1.38825E+00
 -1      2428 2.28397E+00
 -1      2429 5.26406E-11
 -1      2430 1.38085E-10
 -1      2431 2.30990E-10
 -1      2432 2.78983E-10
 -1      2433 5.06151E-10
 -1      2434 4.94325E-12
 -1      2435 4.71303E-12
 -1      2436 4.31015E-12
 -1      2437 1.12102E-11
 -1      2438 9.19158E-12
 -1      2439 8.31975E-12
 -1      2440 1.99305E-06
 -1      2441 1.29178E-06
 -1      2442 1.06629E-06
 -1      2443 1.02183E-07
 -1      2444 3.20288E-07
 -1      2445 2.26881E-04
 -1      2446 3.55070E-04
 -1      2447 5.47036E-04
 -1      2448 7.88440E-03
 -1      2449 8.26775E-02
 -1      2450 5.92166E-12
 -1      2451 3.52968E+00
 -1      2452 2.13460E-08
 -1      2453 5.88074E-11
 -1      2454 3.32222E-01
 -1      2455 4.32427E-04
 -1      2456 4.56168E-12
 -1      2457 8.85905E-12
 -1      2458 8.77378E-12
 -1      2459 6.04615E-11
 -1      2460 1.05620E-09
 -1      2461 2.24035E-06
 -1      2462 9.06196E-03
 -1      2463 9.53056E-09
 -1      2464 1.35216E-05
 -1      2465 7.94545E-08
 -1      2466 3.49621E-10
 -1      2467 1.09651E-11
 -1      2468 1.58581E-01
 -1      2469 1.27176E-07
 -1      2470 3.52968E+00
 -1      2471 6.54285E-08
 -1      2472 3.61116E+00
 -1      2473 2.43564E-04
 -1      2474 2.31021E-03
 -1      2475 6.21583E-12
 -1      2476 8.85905E-12
 -1      2477 2.18790E-11
 -1      2478 7.74634E-12
 -1      2479 7.55023E-12
 -1      2480 3.45963E-11
 -1      2481 2.32861E-03
 -1      2482 5.10792E-09
 -1      2483 5.56762E-08
 -1      2484 1.24460E-06
 -1      2485 5.09952E-09
 -1      2486 4.96489E-06
 -1      2487 2.43564E-04
 -1      2488 2.74653E-08
 -1      2489 5.07775E-06
 -1      2490 1.24460E-06
 -1      2491 3.70196E+00
 -1      2492 3.31793E-08
 -1      2493 1.56803E-11
 -1      2494 2.27559E-02
 -1      2495 1.20540E+00
 -1      2496 7.19616E-10
 -1      2497 3.71293E+00
 -1      2498 4.58726E-12
 -1      2499 1.81323E-01
 -1      2500 5.35403E-08
 -1      2501 7.36375E-10
 -1      2502 1.60571E-10
 -1      2503 1.15993E+00
 -1      2504 5.71208E-10
 -1      2505 8.23712E-10
 -1      2506 1.79756E-10
 -1      2507 8.29966E-10
 -1      2508 2.38060E-11
 -1      2509 1.44823E-11
 -1      2510 6.06235E-12
 -1      2511 5.02212E-12
 -1      2512 1.11227E-02
 -1      2513 2.67456E-01
 -1      2514 1.65498E-06
 -1      2515 3.01114E-11
 -1      2516 5.60192E-12
 -1      2517 5.98561E-12
 -1      2518 8.85905E-12
 -1      2519 8.29630E-12
 -1      2520 1.31308E-11
 -1      2521 2.22284E-03
 -1      2522 4.38450E-09
 -1      2523 3.59843E-04
 -1      2524 4.91904E-06
 -1      2525 2.18104E-03
 -1      2526 4.37524E-09
 -1      2527 1.69808E-06
 -1      2528 3.49415E-04
 -1      2529 4.85328E-06
 -1      2530 2.78055E-08
 -1      2531 2.77039E-08
 -1      2532 8.26552E-10
 -1      2533 1.71079E-02
 -1      2534 2.27212E-01
 -1      2535 1.14424E+00
 -1      2536 1.12612E+00
 -1      2537 1.95249E-10
 -1      2538 9.36608E-10
 -1      2539 4.91511E-11
 -1      2540 5.39728E-12
 -1      2541 1.22253E-10
 -1      2542 1.90564E-01
 -1      2543 1.69042E-02
 -1      2544 1.53810E-10
 -1      2545 1.81558E-05
 -1      2546 6.07514E-12
 -1      2547 1.42904E-11
 -1      2548 6.61657E-12
 -1      2549 3.65191E-11
 -1      2550 3.26282E-03
 -1      2551 2.15918E-05
 -1      2552 2.14744E-05
 -1      2553 1.69679E-05
 -1      2554 1.20813E-07
 -1      2555 1.22834E-07
 -1      2556 1.83846E-08
 -1      2557 1.97205E-08
 -1      2558 1.47400E-09
 -1      2559 7.91260E-12
 -1      2560 7.56302E-12
 -1      2561 1.03427E-11
 -1      2562 8.12978E-08
 -1      2563 9.35154E-08
 -1      2564 1.07048E-07
 -1      2565 1.21109E-07
 -1      2566 6.76089E-07
 -1      2567 6.89622E-07
 -1      2568 6.62029E-07
 -1      2569 9.51588E-08
 -1      2570 8.16263E-08
 -1      2571 6.75653E-08
 -1      2572 6.57981E-08
 -1      2573 6.46145E-08
 -1      2574 3.49245E-08
 -1      2575 3.37408E-08
 -1      2576 9.63021E-08
 -1      2577 6.39477E-08
 -1      2578 6.58586E-08
 -1      2579 1.88604E-08
 -1      2580 8.01775E-08
 -1      2581 1.69494E-08
 -1      2582 3.57042E+00
 -1      2583 3.52968E+00
 -1      2584 3.57042E+00
 -1      2585 3.61116E+00
 -1      2586 3.57042E+00
 -1      2587 3.57042E+00
 -1      2588 3.61582E+00
 -1      2589 3.61582E+00
 -1      2590 3.70196E+00
 -1      2591 3.61582E+00
 -1      2592 3.61582E+00
 -1      2593 4.58087E-12
 -1      2594 5.40155E-12
 -1      2595 5.39515E-12
 -1      2596 4.58087E-12
 -1      2597 5.40155E-12
 -1      2598 4.58726E-12
 -1      2599 5.38876E-12
 -1      2600 4.57447E-12
 -1      2601 4.57447E-12
 -1      2602 4.56808E-12
 -1      2603 2.59550E+00
 -1      2604 2.68164E+00
 -1      2605 2.58745E+00
 -1      2606 2.62819E+00
 -1      2607 1.97751E-11
 -1      2608 2.02419E-11
 -1      2609 2.43368E-11
 -1      2610 2.97539E-10
 -1      2611 2.98006E-10
 -1      2612 2.93444E-10
 -1      2613 3.72438E-11
 -1      2614 4.18055E-11
 -1      2615 3.15008E-10
 -1      2616 2.94150E-03
 -1      2617 5.64240E-03
 -1      2618 6.36106E-03
 -1      2619 1.02822E-02
 -1      2620 1.29831E-02
 -1      2621 9.56351E-03
 -1      2622 2.96639E-03
 -1      2623 6.38595E-03
 -1      2624 1.03071E-02
 -1      2625 3.52507E-03
 -1      2626 1.08657E-02
 -1      2627 4.15142E-03
 -1      2628 1.14921E-02
 -1      2629 2.59550E+00
 -1      2630 2.58745E+00
 -1      2631 4.42952E-12
 -1      2632 4.16307E-12
 -1      2633 4.52331E-12
 -1      2634 5.29283E-12
 -1      2635 9.49619E-11
 -1      2636 3.51162E-10
 -1      2637 3.93925E-11
 -1      2638 3.86568E-04
 -1      2639 3.86568E-04
 -1      2640 2.92136E-04
 -1      2641 2.92136E-04
 -1      2642 3.37995E-04
 -1      2643 1.26087E-03
 -1      2644 1.26087E-03
 -1      2645 1.30673E-03
 -1      2646 6.13178E-03
 -1      2647 8.65012E-03
 -1      2648 2.75591E-03
 -1      2649 5.27425E-03
 -1      2650 5.68608E-03
 -1      2651 4.31291E-04
 -1      2652 5.55532E-04
 -1      2653 1.37018E-03
 -1      2654 1.49442E-03
 -1      2655 1.37132E-03
 -1      2656 7.70429E-08
 -1      2657 1.08877E-07
 -1      2658 1.21230E-03
 -1      2659 1.74248E-06
 -1      2660 1.62024E-06
 -1      2661 2.11812E-06
 -1      2662 3.54682E-06
 -1      2663 3.42458E-06
 -1      2664 3.04894E-06
 -1      2665 5.14026E-04
 -1      2666 3.89784E-04
 -1      2667 3.90921E-04
 -1      2668 2.11812E-06
 -1      2669 3.42458E-06
 -1      2670 1.04602E-09
 -1      2671 1.71966E-09
 -1      2672 3.07188E-09
 -1      2673 3.74553E-09
 -1      2674 3.08206E-09
 -1      2675 8.55358E-03
 -1      2676 5.17771E-03
 -1      2677 2.98519E-03
 -1      2678 1.62024E-06
 -1      2679 1.32981E-03
 -1      2680 5.63965E-04
 -1      2681 4.11218E-04
 -1      2682 1.51206E-03
 -1      2683 1.35931E-03
 -1      2684 1.38052E-03
 -1      2685 4.32427E-04
 -1      2686 5.85715E-04
 -1      2687 1.38052E-03
 -1      2688 1.53381E-03
 -1      2689 3.89408E-04
 -1      2690 3.89408E-04
 -1      2691 2.94976E-04
 -1      2692 2.94976E-04
 -1      2693 8.06182E-12
 -1      2694 8.06182E-12
 -1      2695 6.74021E-12
 -1      2696 7.53744E-12
 -1      2697 6.74021E-12
 -1      2698 7.84226E-12
 -1      2699 7.32427E-12
 -1      2700 7.84226E-12
 -1      2701 7.32427E-12
 -1      2702 8.85905E-12
 -1      2703 4.99014E-12
 -1      2704 8.57767E-12
 -1      2705 8.57767E-12
 -1      2706 7.25606E-12
 -1      2707 7.25606E-12
 -1      2708 6.11990E-12
 -1      2709 7.72715E-12
 -1      2710 8.85905E-12
 -1      2711 8.85905E-12
 -1      2712 7.72715E-12
 -1      2713 6.04615E-11
 -1      2714 6.04615E-11
 -1      2715 4.75289E-11
 -1      2716 4.75289E-11
 -1      2717 4.75289E-11
 -1      2718 5.55630E-11
 -1      2719 5.55630E-11
 -1      2720 4.26304E-11
 -1      2721 4.26304E-11
 -1      2722 7.14635E-03
 -1      2723 3.77968E-03
 -1      2724 5.69528E-03
 -1      2725 3.01928E-03
 -1      2726 7.78293E-03
 -1      2727 6.16239E-03
 -1      2728 4.41625E-03
 -1      2729 2.79571E-03
 -1      2730 5.57137E-04
 -1      2731 4.14555E-04
 -1      2732 1.49603E-03
 -1      2733 1.35345E-03
 -1      2734 6.51538E-08
 -1      2735 1.71641E-09
 -1      2736 1.05620E-09
 -1      2737 3.74227E-09
 -1      2738 3.08206E-09
 -1      2739 1.73134E-09
 -1      2740 1.04799E-09
 -1      2741 3.75300E-09
 -1      2742 3.06965E-09
 -1      2743 3.07786E-09
 -1      2744 1.03451E-09
 -1      2745 1.71355E-09
 -1      2746 3.73521E-09
 -1      2747 3.05618E-09
 -1      2748 3.93748E-04
 -1      2749 3.93748E-04
 -1      2750 2.99317E-04
 -1      2751 2.99317E-04
 -1      2752 3.37995E-04
 -1      2753 3.17541E-06
 -1      2754 2.23894E-06
 -1      2755 4.53768E-06
 -1      2756 3.60121E-06
 -1      2757 3.60262E-06
 -1      2758 2.10847E-06
 -1      2759 3.14642E-06
 -1      2760 3.47074E-06
 -1      2761 4.50869E-06
 -1      2762 3.88871E-04
 -1      2763 3.88871E-04
 -1      2764 2.94439E-04
 -1      2765 2.94439E-04
 -1      2766 3.12194E-06
 -1      2767 2.13487E-06
 -1      2768 4.54064E-06
 -1      2769 3.55357E-06
 -1      2770 3.65905E-06
 -1      2771 8.34688E-09
 -1      2772 8.37741E-09
 -1      2773 6.16609E-09
 -1      2774 7.31924E-09
 -1      2775 6.13556E-09
 -1      2776 6.91451E-07
 -1      2777 2.10718E-06
 -1      2778 2.10718E-06
 -1      2779 1.60930E-06
 -1      2780 1.74248E-06
 -1      2781 1.60930E-06
 -1      2782 2.12493E-06
 -1      2783 2.12493E-06
 -1      2784 1.62705E-06
 -1      2785 1.62705E-06
 -1      2786 9.68051E-03
 -1      2787 7.16217E-03
 -1      2788 1.00923E-02
 -1      2789 2.11773E-06
 -1      2790 2.11773E-06
 -1      2791 1.61985E-06
 -1      2792 1.61985E-06
 -1      2793 8.26539E-09
 -1      2794 8.26539E-09
 -1      2795 6.04987E-09
 -1      2796 6.04987E-09
 -1      2797 7.31504E-09
 -1      2798 1.08758E-07
 -1      2799 7.79573E-08
 -1      2800 3.41553E-01
 -1      2801 5.29490E-01
 -1      2802 4.97107E-01
 -1      2803 2.99839E-01
 -1      2804 3.09170E-01
 -1      2805 3.73048E-04
 -1      2806 5.15631E-04
 -1      2807 1.28895E-03
 -1      2808 1.32763E-03
 -1      2809 1.28895E-03
 -1      2810 4.65228E-11
 -1      2811 2.90221E-11
 -1      2812 7.74612E-11
 -1      2813 4.13067E-11
 -1      2814 5.27673E-04
 -1      2815 3.96135E-04
 -1      2816 3.74926E-04
 -1      2817 3.96135E-04
 -1      2818 5.49423E-04
 -1      2819 1.26371E-03
 -1      2820 1.26371E-03
 -1      2821 7.78044E-12
 -1      2822 7.78044E-12
 -1      2823 8.57767E-12
 -1      2824 7.32427E-12
 -1      2825 7.84226E-12
 -1      2826 8.85905E-12
 -1      2827 8.29630E-12
 -1      2828 8.29630E-12
 -1      2829 7.72715E-12
 -1      2830 8.85905E-12
 -1      2831 1.28408E-03
 -1      2832 1.28408E-03
 -1      2833 3.44652E-06
 -1      2834 3.57969E-06
 -1      2835 3.44652E-06
 -1      2836 3.46427E-06
 -1      2837 3.46427E-06
 -1      2838 3.42419E-06
 -1      2839 3.42419E-06
 -1      2840 1.60655E-09
 -1      2841 9.32901E-10
 -1      2842 9.43081E-10
 -1      2843 2.88272E-06
 -1      2844 1.94767E-06
 -1      2845 1.94625E-06
 -1      2846 1.86373E-06
 -1      2847 2.85081E-06
 -1      2848 1.96922E-06
 -1      2849 2.85374E-06
 -1      2850 1.81579E-06
 -1      2851 4.44231E-12
 -1      2852 4.53610E-12
 -1      2853 7.39145E-03
 -1      2854 9.58397E-03
 -1      2855 1.75149E-08
 -1      2856 1.74844E-08
 -1      2857 1.86681E-08
 -1      2858 1.15210E-10
 -1      2859 1.15210E-10
 -1      2860 1.20109E-10
 -1      2861 1.60330E-09
 -1      2862 9.43081E-10
 -1      2863 1.20109E-10
 -1      2864 1.20109E-10
 -1      2865 9.34143E-11
 -1      2866 5.13317E-11
 -1      2867 7.59137E-11
 -1      2868 3.38311E-11
 -1      2869 7.99220E-09
 -1      2870 8.12141E-09
 -1      2871 5.78088E-09
 -1      2872 5.91009E-09
 -1      2873 2.22579E-06
 -1      2874 3.16131E-06
 -1      2875 3.64449E-06
 -1      2876 4.58001E-06
 -1      2877 5.27114E-01
 -1      2878 3.24493E-01
 -1      2879 4.94731E-01
 -1      2880 2.92110E-01
 -1      2881 1.34423E-03
 -1      2882 7.25606E-12
 -1      2883 8.85905E-12
 -1      2884 6.91332E-07
 -1      2885 1.73521E-08
 -1      2886 1.73521E-08
 -1      2887 1.86172E-08
 -1      2888 6.60682E-08
 -1      2889 1.23320E-03
 -1      2890 8.13743E-09
 -1      2891 8.13054E-09
 -1      2892 5.92191E-09
 -1      2893 5.91502E-09
 -1      2894 3.08182E-06
 -1      2895 1.78289E-11
 -1      2896 7.42609E-08
 -1      2897 1.16996E-08
 -1      2898 4.33872E-08
 -1      2899 3.30994E-06
 -1      2900 1.10328E-08
 -1      2901 2.72626E-08
 -1      2902 6.71647E-03
 -1      2903 3.38792E-06
 -1      2904 1.64017E-08
 -1      2905 1.64567E-08
 -1      2906 2.89017E-06
 -1      2907 1.95465E-06
 -1      2908 1.72589E-08
 -1      2909 1.71297E-08
 -1      2910 2.96894E-09
 -1      2911 9.33167E-10
 -1      2912 1.61652E-09
 -1      2913 9.41374E-10
 -1      2914 1.07176E-10
 -1      2915 1.59873E-09
 -1      2916 9.19691E-10
 -1      2917 1.11693E-02
 -1      2918 1.04089E-02
 -1      2919 1.30849E-02
 -1      2920 1.72172E-08
 -1      2921 1.72241E-08
 -1      2922 1.01853E-02
 -1      2923 1.18059E-02
 -1      2924 7.78143E-01
 -1      2925 7.68813E-01
 -1      2926 9.66080E-01
 -1      2927 3.52764E+00
 -1      2928 3.42647E+00
 -1      2929 3.51809E+00
 -1      2930 3.62130E+00
 -1      2931 3.61927E+00
 -1      2932 5.45366E-03
 -1      2933 4.25366E-10
 -1      2934 3.76927E-10
 -1      2935 3.89212E-10
 -1      2936 3.52968E+00
 -1      2937 7.61083E-01
 -1      2938 9.63704E-01
 -1      2939 2.96304E-09
 -1      2940 3.81736E-10
 -1      2941 4.23819E-10
 -1      2942 3.74431E-08
 -1      2943 4.56711E-08
 -1      2944 7.42609E-08
 -1      2945 9.71824E-03
 -1      2946 6.17682E-08
 -1      2947 3.74431E-08
 -1      2948 5.35403E-08
 -1      2949 7.36430E-01
 -1      2950 3.71711E-10
 -1      2951 5.36104E-12
 -1      2952 2.72379E-11
 -1      2953 2.72742E-11
 -1      2954 5.39728E-12
 -1      2955 2.72742E-11
 -1      2956 5.36104E-12
 -1      2957 4.27119E-10
 -1      2958 3.19301E-10
 -1      2959 6.84101E-10
 -1      2960 5.71807E-10
 -1      2961 6.79625E-10
 -1      2962 9.07434E-12
 -1      2963 3.09512E-11
 -1      2964 1.04855E-11
 -1      2965 2.86853E-11
 -1      2966 1.09586E-08
 -1      2967 6.45412E-10
 -1      2968 1.68752E-08
 -1      2969 1.38566E+00
 -1      2970 2.32790E+00
 -1      2971 2.36864E+00
 -1      2972 3.61378E+00
 -1      2973 3.61582E+00
 -1      2974 4.33598E-08
 -1      2975 8.01775E-08
 -1      2976 2.33696E+00
 -1      2977 1.40278E+00
 -1      2978 2.42310E+00
 -1      2979 2.56773E-01
 -1      2980 1.81144E-01
 -1      2981 2.56593E-01
 -1      2982 7.29169E-01
 -1      2983 6.53540E-01
 -1      2984 6.53719E-01
 -1      2985 2.79329E-11
 -1      2986 4.11703E-11
 -1      2987 4.72241E-11
 -1      2988 7.81199E-11
 -1      2989 9.13573E-11
 -1      2990 7.20661E-11
 -1      2991 1.43845E-09
 -1      2992 1.10848E-08
 -1      2993 3.31261E-08
 -1      2994 4.35534E-11
 -1      2995 2.42622E-11
 -1      2996 7.44492E-11
 -1      2997 3.70744E+00
 -1      2998 7.36375E-10
 -1      2999 8.96286E-10
 -1      3000 8.96286E-10
 -1      3001 2.56044E-09
 -1      3002 2.72035E-09
 -1      3003 2.56044E-09
 -1      3004 9.15953E-01
 -1      3005 7.46077E-01
 -1      3006 5.02099E-01
 -1      3007 4.49593E-01
 -1      3008 2.79717E-01
 -1      3009 6.93572E-01
 -1      3010 7.32589E-10
 -1      3011 8.92500E-10
 -1      3012 2.55665E-09
 -1      3013 2.78028E-11
 -1      3014 7.79899E-11
 -1      3015 3.00133E-11
 -1      3016 8.02004E-11
 -1      3017 9.19205E-01
 -1      3018 5.05350E-01
 -1      3019 4.52845E-01
 -1      3020 4.13067E-11
 -1      3021 2.38060E-11
 -1      3022 5.55630E-11
 -1      3023 1.04602E-09
 -1      3024 2.18918E-11
 -1      3025 2.79424E-01
 -1      3026 7.51820E-01
 -1      3027 6.64365E-11
 -1      3028 1.26084E-10
 -1      3029 8.14174E-03
 -1      3030 8.33268E-10
 -1      3031 7.20154E-10
 -1      3032 3.23221E-03
 -1      3033 6.16239E-03
 -1      3034 7.19278E-03
 -1      3035 4.33598E-08
 -1      3036 4.35918E-11
 -1      3037 4.84903E-11
 -1      3038 1.08137E-10
 -1      3039 7.79385E-10
 -1      3040 8.37841E-10
 -1      3041 7.23018E-10
 -1      3042 2.45950E-01
 -1      3043 2.13567E-01
 -1      3044 1.10908E-02
 -1      3045 7.16085E-03
 -1      3046 1.00923E-02
 -1      3047 1.11227E-02
 -1      3048 1.80753E-01
 -1      3049 2.56203E-01
 -1      3050 6.53150E-01
 -1      3051 1.41107E-10
 -1      3052 6.94889E-11
 -1      3053 1.02631E-09
 -1      3054 1.24643E-09
 -1      3055 3.07049E-09
 -1      3056 2.24210E-01
 -1      3057 6.45997E-02
 -1      3058 4.18374E-02
 -1      3059 4.08475E-02
 -1      3060 1.78941E-02
 -1      3061 4.06564E-02
 -1      3062 1.29437E-07
 -1      3063 9.86365E-08
 -1      3064 1.00134E-07
 -1      3065 1.23763E-09
 -1      3066 3.06169E-09
 -1      3067 5.86732E-03
 -1      3068 1.83224E-06
 -1      3069 7.35596E-01
 -1      3070 2.69237E-01
 -1      3071 1.05604E-02
 -1      3072 1.45834E-02
 -1      3073 2.03698E-01
 -1      3074 3.26282E-03
 -1      3075 1.01853E-02
 -1      3076 1.82504E-06
 -1      3077 1.48092E-03
 -1      3078 4.94964E-12
 -1      3079 5.08180E-12
 -1      3080 4.68319E-12
 -1      3081 4.80895E-12
 -1      3082 4.50200E-12
 -1      3083 5.52092E-12
 -1      3084 5.21396E-12
 -1      3085 5.27365E-12
 -1      3086 4.56168E-12
 -1      3087 4.31015E-12
 -1      3088 4.83027E-12
 -1      3089 5.08180E-12
 -1      3090 5.23528E-12
 -1      3091 6.00480E-12
 -1      3092 6.94058E-12
 -1      3093 7.45644E-12
 -1      3094 7.73781E-12
 -1      3095 5.93232E-12
 -1      3096 7.46709E-12
 -1      3097 7.46709E-12
 -1      3098 7.18572E-12
 -1      3099 7.18572E-12
 -1      3100 6.60592E-12
 -1      3101 7.73781E-12
 -1      3102 1.45234E-03
 -1      3103 3.57456E-04
 -1      3104 3.53116E-04
 -1      3105 3.39549E-09
 -1      3106 3.38381E-09
 -1      3107 4.46129E-06
 -1      3108 4.48577E-06
 -1      3109 4.79190E-12
 -1      3110 4.73221E-12
 -1      3111 5.50386E-12
 -1      3112 5.31202E-12
 -1      3113 5.17986E-12
 -1      3114 5.83213E-12
 -1      3115 5.31202E-12
 -1      3116 4.75353E-12
 -1      3117 1.27677E-01
 -1      3118 1.27486E-01
 -1      3119 1.03734E-01
 -1      3120 1.83604E-06
 -1      3121 1.43827E-03
 -1      3122 1.42984E-03
 -1      3123 2.33357E-01
 -1      3124 1.80852E-01
 -1      3125 4.48187E-06
 -1      3126 1.84698E-06
 -1      3127 1.44270E-02
 -1      3128 7.50442E-03
 -1      3129 3.45062E-04
 -1      3130 3.47364E-04
 -1      3131 9.87328E-08
 -1      3132 1.30567E-07
 -1      3133 1.01144E-07
 -1      3134 2.10706E-06
 -1      3135 7.81463E-10
 -1      3136 1.34418E-08
 -1      3137 1.46255E-08
 -1      3138 2.37630E-08
 -1      3139 7.84226E-12
 -1      3140 7.78044E-12
 -1      3141 4.11218E-04
 -1      3142 9.24060E-01
 -1      3143 1.25644E-08
 -1      3144 1.39576E-08
 -1      3145 2.30443E-08
 -1      3146 3.50192E-04
 -1      3147 4.46777E-06
 -1      3148 1.33604E-08
 -1      3149 2.37122E-08
 -1      3150 1.25484E-08
 -1      3151 2.30951E-08
 -1      3152 6.63485E+00
 -1      3153 6.82056E+00
 -1      3154 5.07555E+00
 -1      3155 5.26126E+00
 -1      3156 5.26126E+00
 -1      3157 3.43549E-04
 -1      3158 2.12030E-06
 -1      3159 2.67838E-01
 -1      3160 7.40234E-01
 -1      3161 4.13418E-04
 -1      3162 3.00581E-11
 -1      3163 8.14495E-12
 -1      3164 8.18119E-12
 -1      3165 8.18119E-12
 -1      3166 1.98551E-10
 -1      3167 2.72435E-10
 -1      3168 2.75737E-10
 -1      3169 5.69230E-10
 -1      3170 6.43114E-10
 -1      3171 5.65928E-10
 -1      3172 7.71262E-01
 -1      3173 3.04902E-01
 -1      3174 6.86537E-09
 -1      3175 6.83905E-09
 -1      3176 7.45644E-12
 -1      3177 6.06448E-12
 -1      3178 7.05995E-12
 -1      3179 6.22009E-12
 -1      3180 7.85292E-12
 -1      3181 6.73168E-12
 -1      3182 7.26033E-12
 -1      3183 6.14975E-12
 -1      3184 1.99176E-06
 -1      3185 2.78055E-08
 -1      3186 2.37630E-08
 -1      3187 2.59249E-08
 -1      3188 2.12652E-08
 -1      3189 4.75867E-10
 -1      3190 4.41260E-10
 -1      3191 8.85862E-11
 -1      3192 5.39792E-11
 -1      3193 4.36432E-10
 -1      3194 1.99549E-06
 -1      3195 2.77039E-08
 -1      3196 2.37122E-08
 -1      3197 8.99045E-01
 -1      3198 2.59624E-08
 -1      3199 2.12519E-08
 -1      3200 1.65447E-02
 -1      3201 1.55548E-02
 -1      3202 1.78476E-08
 -1      3203 1.54359E-09
 -1      3204 2.61960E+00
 -1      3205 2.57886E+00
 -1      3206 1.37708E+00
 -1      3207 1.36511E-07
 -1      3208 1.45845E-07
 -1      3209 1.27176E-07
 -1      3210 1.36511E-07
 -1      3211 1.36511E-07
 -1      3212 1.74572E-01
 -1      3213 1.11495E-01
 -1      3214 8.77427E-02
 -1      3215 3.62130E+00
 -1      3216 3.71293E+00
 -1      3217 2.67049E+00
 -1      3218 8.58755E-08
 -1      3219 8.01775E-08
 -1      3220 8.95123E-08
 -1      3221 3.88773E-08
 -1      3222 3.66205E+00
 -1      3223 1.45081E-08
 -1      3224 1.11631E-08
 -1      3225 2.04247E-08
 -1      3226 1.70797E-08
 -1      3227 1.10328E-08
 -1      3228 1.38640E-09
 -1      3229 6.39477E-08
 -1      3230 6.48122E-11
 -1      3231 9.57080E-11
 -1      3232 2.27572E-03
 -1      3233 2.26652E-03
 -1      3234 2.66710E+00
 -1      3235 2.58096E+00
 -1      3236 1.38825E+00
 -1      3237 3.54751E+00
 -1      3238 2.67259E+00
 -1      3239 3.63914E+00
 -1      3240 3.64786E-11
 -1      3241 1.33830E-10
 -1      3242 1.27855E-10
 -1      3243 1.27855E-10
 -1      3244 1.65662E-09
 -1      3245 9.96402E-10
 -1      3246 7.73474E-10
 -1      3247 4.72795E-12
 -1      3248 4.97948E-12
 -1      3249 4.97948E-12
 -1      3250 4.91980E-12
 -1      3251 5.22675E-12
 -1      3252 1.65375E-09
 -1      3253 7.78046E-10
 -1      3254 1.32206E-10
 -1      3255 1.14618E-10
 -1      3256 7.19616E-10
 -1      3257 3.90472E-11
 -1      3258 3.15822E-11
 -1      3259 7.93861E-11
 -1      3260 3.66448E-11
 -1      3261 1.06309E-10
 -1      3262 1.53810E-10
 -1      3263 1.06309E-10
 -1      3264 8.41460E-11
 -1      3265 3.63365E+00
 -1      3266 6.45883E-12
 -1      3267 6.71037E-12
 -1      3268 7.12816E-12
 -1      3269 6.95763E-12
 -1      3270 1.11686E-01
 -1      3271 4.36432E-10
 -1      3272 4.91511E-11
 -1      3273 3.33823E-01
 -1      3274 4.34521E-01
 -1      3275 1.62528E-01
 -1      3276 2.61393E-01
 -1      3277 1.44815E-02
 -1      3278 4.58660E-01
 -1      3279 1.75120E-01
 -1      3280 1.40135E-02
 -1      3281 3.27273E+00
 -1      3282 3.61116E+00
 -1      3283 3.27273E+00
 -1      3284 2.03020E+00
 -1      3285 2.36864E+00
 -1      3286 3.06052E-08
 -1      3287 1.14100E-08
 -1      3288 4.57210E-09
 -1      3289 2.75071E-08
 -1      3290 2.04247E-08
 -1      3291 5.09309E-09
 -1      3292 4.12070E-09
 -1      3293 3.43322E-08
 -1      3294 2.02979E-09
 -1      3295 6.39032E+00
 -1      3296 4.93058E+00
 -1      3297 4.98941E+00
 -1      3298 5.17512E+00
 -1      3299 9.85860E-08
 -1      3300 6.77123E-08
 -1      3301 3.59371E-11
 -1      3302 3.46721E+00
 -1      3303 3.66205E+00
 -1      3304 1.43336E+00
 -1      3305 2.36754E+00
 -1      3306 2.36754E+00
 -1      3307 1.27176E-07
 -1      3308 4.28670E-12
 -1      3309 4.76845E-12
 -1      3310 4.77485E-12
 -1      3311 4.54463E-12
 -1      3312 4.92406E-12
 -1      3313 4.69385E-12
 -1      3314 4.26326E-12
 -1      3315 4.74500E-12
 -1      3316 1.42531E+00
 -1      3317 1.25970E-07
 -1      3318 1.28337E-07
 -1      3319 9.09386E-08
 -1      3320 9.09386E-08
 -1      3321 8.85718E-08
 -1      3322 3.70196E+00
 -1      3323 3.31883E+00
 -1      3324 3.31883E+00
 -1      3325 2.42310E+00
 -1      3326 2.03997E+00
 -1      3327 8.13408E-11
 -1      3328 8.61689E-11
 -1      3329 1.33670E-10
 -1      3330 1.01480E-10
 -1      3331 3.09512E-11
 -1      3332 8.32806E-11
 -1      3333 3.06300E-08
 -1      3334 5.94844E-08
 -1      3335 4.52864E-11
 -1      3336 4.52864E-11
 -1      3337 1.12680E-10
 -1      3338 2.71572E-09
 -1      3339 3.37593E-09
 -1      3340 2.65592E-09
 -1      3341 3.20490E-11
 -1      3342 3.37307E-09
 -1      3343 1.06112E-10
 -1      3344 6.32454E-11
 -1      3345 6.52573E+00
 -1      3346 7.03708E+00
 -1      3347 5.11933E+00
 -1      3348 5.63068E+00
 -1      3349 5.11933E+00
 -1      3350 3.55616E-08
 -1      3351 4.46528E-09
 -1      3352 3.25921E-09
 -1      3353 6.71764E+00
 -1      3354 7.15167E+00
 -1      3355 5.64932E+00
 -1      3356 5.21529E+00
 -1      3357 5.21529E+00
 -1      3358 1.39399E+00
 -1      3359 2.34480E+00
 -1      3360 2.43643E+00
 -1      3361 8.38248E-08
 -1      3362 6.65682E-08
 -1      3363 1.05500E-07
 -1      3364 8.82437E-08
 -1      3365 1.05500E-07
 -1      3366 1.39609E+00
 -1      3367 6.45412E-10
 -1      3368 2.42357E-02
 -1      3369 1.84191E-02
 -1      3370 1.69393E-02
 -1      3371 1.45106E-01
 -1      3372 1.39290E-01
 -1      3373 1.46586E-01
 -1      3374 4.68621E-10
 -1      3375 9.51985E-12
 -1      3376 1.50813E-11
 -1      3377 8.92086E-12
 -1      3378 4.71090E-12
 -1      3379 1.02723E-11
 -1      3380 1.08713E-11
 -1      3381 1.00741E-11
 -1      3382 1.41370E-11
 -1      3383 1.97431E-11
 -1      3384 1.03512E-11
 -1      3385 1.44141E-11
 -1      3386 4.74500E-12
 -1      3387 1.02040E-01
 -1      3388 1.03519E-01
 -1      3389 2.24390E-01
 -1      3390 2.78651E-03
 -1      3391 2.91990E-11
 -1      3392 6.14548E-12
 -1      3393 6.41620E-12
 -1      3394 7.46709E-12
 -1      3395 7.73781E-12
 -1      3396 3.55577E-11
 -1      3397 7.06528E+00
 -1      3398 6.87059E+00
 -1      3399 5.24087E+00
 -1      3400 5.24087E+00
 -1      3401 5.43557E+00
 -1      3402 3.97336E-12
 -1      3403 1.01338E-11
 -1      3404 5.32481E-12
 -1      3405 4.52758E-12
 -1      3406 4.80469E-12
 -1      3407 1.24142E-08
 -1      3408 1.16576E+00
 -1      3409 7.71664E-10
 -1      3410 2.79571E-03
 -1      3411 6.86171E-12
 -1      3412 5.13083E-12
 -1      3413 6.53557E-12
 -1      3414 4.80469E-12
 -1      3415 7.38232E-01
 -1      3416 9.35499E-01
 -1      3417 6.67403E-01
 -1      3418 1.17463E-08
 -1      3419 1.21078E-07
 -1      3420 1.42252E-07
 -1      3421 6.65416E-08
 -1      3422 8.77157E-08
 -1      3423 8.77157E-08
 -1      3424 9.91557E-02
 -1      3425 1.98720E-02
 -1      3426 1.22100E-01
 -1      3427 1.24984E-01
 -1      3428 2.04268E-01
 -1      3429 1.24100E-08
 -1      3430 1.17420E-08
 -1      3431 8.92552E-08
 -1      3432 8.82446E-08
 -1      3433 1.17482E+00
 -1      3434 9.11360E-01
 -1      3435 2.70815E-10
 -1      3436 4.58066E-10
 -1      3437 5.49124E-10
 -1      3438 5.95920E-10
 -1      3439 7.83171E-10
 -1      3440 5.04861E-10
 -1      3441 1.99319E-02
 -1      3442 1.70480E-02
 -1      3443 1.22160E-01
 -1      3444 9.68827E-08
 -1      3445 9.68827E-08
 -1      3446 7.58570E+00
 -1      3447 5.64932E+00
 -1      3448 8.20464E-12
 -1      3449 8.20464E-12
 -1      3450 7.55023E-12
 -1      3451 1.09203E-11
 -1      3452 1.09203E-11
 -1      3453 1.15747E-11
 -1      3454 7.74634E-12
 -1      3455 8.30269E-12
 -1      3456 8.30269E-12
 -1      3457 1.10184E-11
 -1      3458 1.10184E-11
 -1      3459 3.62509E-10
 -1      3460 3.62509E-10
 -1      3461 2.78314E-10
 -1      3462 3.71219E-10
 -1      3463 3.86132E-10
 -1      3464 1.44979E-06
 -1      3465 8.89024E-07
 -1      3466 6.83835E-07
 -1      3467 6.82708E-07
 -1      3468 1.21940E-07
 -1      3469 8.87896E-07
 -1      3470 9.10915E-07
 -1      3471 1.47134E-06
 -1      3472 6.84176E-07
 -1      3473 1.23292E-07
 -1      3474 6.83718E-07
 -1      3475 9.10458E-07
 -1      3476 1.47134E-06
 -1      3477 9.18190E-07
 -1      3478 6.83718E-07
 -1      3479 3.65741E-08
 -1      3480 3.32303E-08
 -1      3481 1.25302E-09
 -1      3482 3.34512E-08
 -1      3483 4.59686E-09
 -1      3484 3.14696E-03
 -1      3485 1.43879E-03
 -1      3486 1.81690E-03
 -1      3487 1.84473E-03
 -1      3488 4.88761E-10
 -1      3489 3.64786E-11
 -1      3490 5.20970E-12
 -1      3491 5.72982E-12
 -1      3492 5.06844E+00
 -1      3493 5.57980E+00
 -1      3494 1.22710E-09
 -1      3495 8.83287E-10
 -1      3496 1.87502E-10
 -1      3497 8.96521E-07
 -1      3498 1.44979E-06
 -1      3499 6.82708E-07
 -1      3500 2.61223E-10
 -1      3501 4.48473E-10
 -1      3502 1.70164E-10
 -1      3503 1.44823E-11
 -1      3504 3.66448E-11
 -1      3505 8.41460E-11
 -1      3506 1.58751E-10
 -1      3507 5.20980E+00
 -1      3508 5.20980E+00
 -1      3509 1.74769E-09
 -1      3510 6.06235E-12
 -1      3511 1.02723E-11
 -1      3512 1.02723E-11
 -1      3513 6.06235E-12
 -1      3514 6.06235E-12
 -1      3515 5.02212E-12
 -1      3516 1.44141E-11
 -1      3517 1.44141E-11
 -1      3518 5.02212E-12
 -1      3519 5.02212E-12
 -1      3520 7.79750E-12
 -1      3521 1.20075E-11
 -1      3522 4.56168E-12
 -1      3523 1.39536E-11
 -1      3524 5.40368E-12
 -1      3525 1.52561E-11
 -1      3526 8.16414E-12
 -1      3527 1.06390E-11
 -1      3528 8.81580E-10
 -1      3529 2.08888E-01
 -1      3530 3.77162E-10
 -1      3531 1.76411E-10
 -1      3532 3.80506E-10
 -1      3533 1.79756E-10
 -1      3534 1.76411E-10
 -1      3535 3.63914E+00
 -1      3536 3.71293E+00
 -1      3537 3.63914E+00
 -1      3538 2.36264E+00
 -1      3539 2.43643E+00
 -1      3540 1.40135E-02
 -1      3541 7.46266E-08
 -1      3542 7.46266E-08
 -1      3543 9.04450E-12
 -1      3544 1.23165E-11
 -1      3545 9.04450E-12
 -1      3546 7.55662E-12
 -1      3547 7.55662E-12
 -1      3548 1.09267E-11
 -1      3549 1.70060E-02
 -1      3550 3.65939E-01
 -1      3551 9.78962E-08
 -1      3552 9.78962E-08
 -1      3553 7.90435E-02
 -1      3554 5.25479E-02
 -1      3555 1.73625E-01
 -1      3556 1.46379E-01
 -1      3557 1.72875E-01
 -1      3558 3.01703E-04
 -1      3559 2.29010E-01
 -1      3560 2.25483E-03
 -1      3561 2.24562E-03
 -1      3562 2.59952E-11
 -1      3563 7.23048E-12
 -1      3564 5.90887E-12
 -1      3565 6.10072E-12
 -1      3566 7.42233E-12
 -1      3567 3.23539E-11
 -1      3568 4.74621E-09
 -1      3569 4.74158E-09
 -1      3570 4.74201E-09
 -1      3571 4.73738E-09
 -1      3572 3.01703E-04
 -1      3573 2.96489E-04
 -1      3574 4.94197E-06
 -1      3575 4.90909E-06
 -1      3576 4.99839E-06
 -1      3577 2.96489E-04
 -1      3578 1.02524E-07
 -1      3579 6.62950E-07
 -1      3580 1.02066E-07
 -1      3581 1.02183E-07
 -1      3582 1.01055E-07
 -1      3583 4.96552E-06
 -1      3584 7.25997E+00
 -1      3585 5.43557E+00
 -1      3586 1.54253E-10
 -1      3587 1.35543E-09
 -1      3588 3.83045E-10
 -1      3589 3.42416E-10
 -1      3590 1.15321E-11
 -1      3591 8.26006E-12
 -1      3592 9.55822E-12
 -1      3593 4.53824E-12
 -1      3594 1.42252E-07
 -1      3595 9.78962E-08
 -1      3596 7.75708E-10
 -1      3597 1.28337E-07
 -1      3598 9.68827E-08
 -1      3599 9.06686E-02
 -1      3600 8.48520E-02
 -1      3601 2.13019E-01
 -1      3602 3.46927E-01
 -1      3603 1.50813E-11
 -1      3604 1.69952E-01
 -1      3605 5.92976E-10
 -1      3606 4.93561E-10
 -1      3607 2.59986E-10
 -1      3608 2.40827E-10
 -1      3609 1.41412E-10
 -1      3610 4.74402E-10
 -1      3611 1.33227E-11
 -1      3612 1.73856E-11
 -1      3613 7.99361E-12
 -1      3614 1.27237E-11
 -1      3615 8.51372E-12
 -1      3616 1.92897E-01
 -1      3617 8.16200E-12
 -1      3618 8.16840E-12
 -1      3619 5.91932E-10
 -1      3620 4.10000E-10
 -1      3621 7.23018E-10
 -1      3622 5.13533E-10
 -1      3623 6.95465E-10
 -1      3624 6.62029E-07
 -1      3625 8.03761E-08
 -1      3626 7.54844E+00
 -1      3627 5.57980E+00
 -1      3628 1.61726E-02
 -1      3629 4.00177E-02
 -1      3630 1.76735E-02
 -1      3631 3.94520E-02
 -1      3632 1.56069E-02
 -1      3633 7.77618E-12
 -1      3634 8.78446E-02
 -1      3635 8.81641E-12
 -1      3636 8.38248E-08
 -1      3637 7.46266E-08
 -1      3638 8.88768E-07
 -1      3639 7.81463E-10
 -1      3640 8.67217E-07
 -1      3641 6.24992E-02
 -1      3642 4.01550E-02
 -1      3643 1.44504E-01
 -1      3644 1.45207E-01
 -1      3645 2.64689E-10
 -1      3646 5.42998E-10
 -1      3647 5.89794E-10
 -1      3648 2.03020E+00
 -1      3649 1.12612E+00
 -1      3650 3.52968E+00
 -1      3651 4.91511E-11
 -1      3652 4.36432E-10
 -1      3653 4.91511E-11
 -1      3654 1.82832E-10
 -1      3655 4.95851E-10
 -1      3656 1.61383E-10
 -1      3657 1.43702E-10
 -1      3658 2.09102E-10
 -1      3659 1.73107E-09
 -1      3660 5.07818E-10
 -1      3661 5.24997E-10
 -1      3662 1.14302E+00
 -1      3663 5.20013E+00
 -1      3664 5.20013E+00
 -1      3665 5.47888E-10
 -1      3666 1.15209E+00
 -1      3667 9.27881E-10
 -1      3668 1.14885E-09
 -1      3669 1.12612E+00
 -1      3670 1.12612E+00
 -1      3671 2.03997E+00
 -1      3672 1.14424E+00
 -1      3673 2.55096E-10
 -1      3674 2.01128E-10
 -1      3675 2.94033E-10
 -1      3676 6.64712E-10
 -1      3677 1.14424E+00
 -1      3678 1.14424E+00
 -1      3679 4.58726E-12
 -1      3680 5.20757E-12
 -1      3681 1.07541E-11
 -1      3682 1.01338E-11
 -1      3683 1.01338E-11
 -1      3684 5.87264E-12
 -1      3685 1.07988E-11
 -1      3686 4.58726E-12
 -1      3687 4.58726E-12
 -1      3688 3.73065E-10
 -1      3689 2.95879E-10
 -1      3690 8.18119E-12
 -1      3691 5.39728E-12
 -1      3692 8.02345E-12
 -1      3693 5.23954E-12
 -1      3694 9.47222E-02
 -1      3695 1.10713E-01
 -1      3696 9.54861E-02
 -1      3697 1.11477E-01
 -1      3698 6.57981E-08
 -1      3699 6.50838E-08
 -1      3700 3.70619E-09
 -1      3701 2.57004E-09
 -1      3702 1.85576E-09
 -1      3703 8.41781E-02
 -1      3704 5.20016E-02
 -1      3705 5.49325E-02
 -1      3706 1.34216E-01
 -1      3707 1.31285E-01
 -1      3708 5.20016E-02
 -1      3709 2.27559E-02
 -1      3710 1.81506E-02
 -1      3711 1.81506E-02
 -1      3712 4.15154E-03
 -1      3713 2.06390E-03
 -1      3714 1.79412E-03
 -1      3715 2.05884E-03
 -1      3716 5.84492E-12
 -1      3717 7.84226E-12
 -1      3718 5.84492E-12
 -1      3719 6.86171E-12
 -1      3720 4.99441E-12
 -1      3721 5.81508E-12
 -1      3722 6.82547E-12
 -1      3723 5.71916E-12
 -1      3724 6.11990E-12
 -1      3725 7.16014E-12
 -1      3726 2.58375E-11
 -1      3727 1.77032E-11
 -1      3728 1.35273E-11
 -1      3729 1.77032E-11
 -1      3730 3.56131E-11
 -1      3731 2.75790E-11
 -1      3732 1.73962E-11
 -1      3733 2.44135E-11
 -1      3734 1.11075E-03
 -1      3735 6.73982E-06
 -1      3736 4.69735E-06
 -1      3737 6.06104E-06
 -1      3738 5.64368E-06
 -1      3739 1.52618E-09
 -1      3740 3.56953E-09
 -1      3741 1.74756E-09
 -1      3742 3.27755E-09
 -1      3743 1.29127E-09
 -1      3744 3.32731E-09
 -1      3745 2.26696E-04
 -1      3746 1.70943E-04
 -1      3747 9.85070E-05
 -1      3748 1.71128E-04
 -1      3749 1.80877E-09
 -1      3750 3.58938E-09
 -1      3751 1.16326E-03
 -1      3752 2.10329E-03
 -1      3753 1.87670E-03
 -1      3754 2.08362E-03
 -1      3755 4.95112E-03
 -1      3756 4.26234E-09
 -1      3757 4.38503E-09
 -1      3758 4.32578E-06
 -1      3759 5.75905E-06
 -1      3760 9.55920E-05
 -1      3761 2.21100E-04
 -1      3762 1.69687E-04
 -1      3763 1.69469E-04
 -1      3764 1.30975E-06
 -1      3765 5.63753E-07
 -1      3766 9.27300E-07
 -1      3767 8.81055E-07
 -1      3768 6.85712E-06
 -1      3769 6.17582E-06
 -1      3770 3.20926E-07
 -1      3771 8.75906E-07
 -1      3772 1.30002E-06
 -1      3773 9.24379E-07
 -1      3774 5.88086E-10
 -1      3775 2.35937E-10
 -1      3776 5.55682E-07
 -1      3777 8.65654E-12
 -1      3778 8.65654E-12
 -1      3779 8.45404E-12
 -1      3780 1.13722E-11
 -1      3781 1.13722E-11
 -1      3782 8.16263E-08
 -1      3783 5.56762E-08
 -1      3784 6.87471E-11
 -1      3785 5.39117E-08
 -1      3786 5.39117E-08
 -1      3787 2.43643E+00
 -1      3788 1.15993E+00
 -1      3789 3.23542E+00
 -1      3790 3.23595E+00
 -1      3791 2.94169E+00
 -1      3792 2.07328E+00
 -1      3793 2.07381E+00
 -1      3794 1.11451E-06
 -1      3795 1.11050E-06
 -1      3796 5.70037E-07
 -1      3797 3.47430E-07
 -1      3798 3.43419E-07
 -1      3799 1.13982E-06
 -1      3800 1.14244E-06
 -1      3801 5.84183E-07
 -1      3802 3.52199E-07
 -1      3803 3.54818E-07
 -1      3804 1.20537E-10
 -1      3805 6.94698E-12
 -1      3806 7.19851E-12
 -1      3807 6.59526E-12
 -1      3808 6.48015E-12
 -1      3809 6.73168E-12
 -1      3810 7.08340E-12
 -1      3811 7.25819E-12
 -1      3812 7.25819E-12
 -1      3813 6.77005E-12
 -1      3814 6.42260E-12
 -1      3815 6.42260E-12
 -1      3816 6.91074E-12
 -1      3817 7.05612E-10
 -1      3818 2.88132E-10
 -1      3819 6.13237E-10
 -1      3820 5.01517E-10
 -1      3821 7.15858E-10
 -1      3822 1.15993E+00
 -1      3823 1.15993E+00
 -1      3824 5.76451E-05
 -1      3825 5.78298E-05
 -1      3826 1.30266E-04
 -1      3827 1.38984E-05
 -1      3828 1.43158E-05
 -1      3829 1.32196E-05
 -1      3830 1.46017E-11
 -1      3831 5.20970E-12
 -1      3832 9.78204E-12
 -1      3833 5.57208E-12
 -1      3834 1.84191E-02
 -1      3835 1.46586E-01
 -1      3836 2.17568E-02
 -1      3837 1.82122E-02
 -1      3838 1.49924E-01
 -1      3839 1.11804E-11
 -1      3840 1.38940E-11
 -1      3841 1.40858E-11
 -1      3842 1.40986E-11
 -1      3843 6.02398E-12
 -1      3844 6.77005E-12
 -1      3845 5.67653E-12
 -1      3846 6.42260E-12
 -1      3847 6.33520E-12
 -1      3848 6.22009E-12
 -1      3849 5.12017E-12
 -1      3850 5.51665E-12
 -1      3851 2.13783E-05
 -1      3852 1.43158E-05
 -1      3853 2.14744E-05
 -1      3854 2.13783E-05
 -1      3855 5.76871E-05
 -1      3856 1.64490E-05
 -1      3857 1.64070E-05
 -1      3858 1.70099E-05
 -1      3859 5.67649E-05
 -1      3860 5.69830E-05
 -1      3861 1.30860E-04
 -1      3862 1.40161E-05
 -1      3863 1.44328E-05
 -1      3864 1.33348E-05
 -1      3865 5.75195E-05
 -1      3866 1.89104E-05
 -1      3867 1.44328E-05
 -1      3868 2.15918E-05
 -1      3869 3.76984E-08
 -1      3870 3.59338E-08
 -1      3871 3.76984E-08
 -1      3872 1.95721E-08
 -1      3873 3.75499E-08
 -1      3874 1.95721E-08
 -1      3875 1.97205E-08
 -1      3876 1.78126E-05
 -1      3877 1.70580E-05
 -1      3878 3.47844E-08
 -1      3879 3.51449E-08
 -1      3880 4.24640E-08
 -1      3881 3.02440E-08
 -1      3882 3.06045E-08
 -1      3883 2.29250E-08
 -1      3884 3.47005E-07
 -1      3885 1.20387E-07
 -1      3886 2.39856E-02
 -1      3887 6.09684E-10
 -1      3888 2.57535E-10
 -1      3889 1.20387E-07
 -1      3890 1.20813E-07
 -1      3891 3.53283E-07
 -1      3892 1.23917E-07
 -1      3893 1.83444E-08
 -1      3894 3.05644E-08
 -1      3895 1.83444E-08
 -1      3896 1.83846E-08
 -1      3897 2.15791E-05
 -1      3898 2.15791E-05
 -1      3899 8.02132E-12
 -1      3900 6.98535E-12
 -1      3901 6.90008E-12
 -1      3902 7.19851E-12
 -1      3903 7.92326E-12
 -1      3904 6.68692E-12
 -1      3905 1.29038E-01
 -1      3906 3.86697E-10
 -1      3907 6.28607E-10
 -1      3908 7.28996E-10
 -1      3909 6.35986E-10
 -1      3910 4.87086E-10
 -1      3911 3.18572E-11
 -1      3912 1.14426E-10
 -1      3913 1.69074E-02
 -1      3914 1.30094E-02
 -1      3915 3.03782E-09
 -1      3916 1.31851E-09
 -1      3917 4.17409E-08
 -1      3918 4.17409E-08
 -1      3919 3.31148E-11
 -1      3920 1.15683E-10
 -1      3921 2.75846E-08
 -1      3922 2.58056E-08
 -1      3923 3.04213E-09
 -1      3924 1.32282E-09
 -1      3925 1.23917E-07
 -1      3926 1.22834E-07
 -1      3927 4.16901E-08
 -1      3928 4.16901E-08
 -1      3929 1.72510E-02
 -1      3930 1.31515E-10
 -1      3931 9.85452E-11
 -1      3932 2.76354E-08
 -1      3933 2.57923E-08
 -1      3934 2.07328E+00
 -1      3935 1.20540E+00
 -1      3936 1.60671E-09
 -1      3937 4.70559E-10
 -1      3938 1.20540E+00
 -1      3939 1.20540E+00
 -1      3940 7.62437E-01
 -1      3941 2.85598E-01
 -1      3942 2.25479E-10
 -1      3943 4.74537E-10
 -1      3944 3.39519E-05
 -1      3945 1.46656E-04
 -1      3946 1.32519E-04
 -1      3947 3.56112E-05
 -1      3948 1.98151E-05
 -1      3949 3.52784E-12
 -1      3950 3.63656E-12
 -1      3951 1.78144E-05
 -1      3952 1.15604E-05
 -1      3953 1.12190E-05
 -1      3954 1.94737E-05
 -1      3955 1.92023E-05
 -1      3956 1.09453E-05
 -1      3957 1.10228E-05
 -1      3958 1.68904E-05
 -1      3959 1.92798E-05
 -1      3960 1.46010E-04
 -1      3961 1.32519E-04
 -1      3962 3.49652E-05
 -1      3963 3.27119E-05
 -1      3964 1.92212E-05
 -1      3965 1.92807E-05
 -1      3966 1.10259E-05
 -1      3967 1.70274E-05
 -1      3968 1.09664E-05
 -1      3969 3.47111E-05
 -1      3970 1.32578E-04
 -1      3971 1.45697E-04
 -1      3972 3.23992E-05
 -1      3973 7.54504E-01
 -1      3974 2.77665E-01
 -1      3975 1.11829E-05
 -1      3976 1.16168E-05
 -1      3977 1.77220E-05
 -1      3978 1.94399E-05
 -1      3979 1.98738E-05
 -1      3980 6.66558E-10
 -1      3981 2.72742E-11
 -1      3982 2.71164E-11
 -1      3983 3.18167E-11
 -1      3984 3.26409E-05
 -1      3985 1.45345E-04
 -1      3986 3.43589E-05
 -1      3987 1.32578E-04
 -1      3988 1.36657E-10
 -1      3989 7.78143E-01
 -1      3990 1.53157E-11
 -1      3991 2.46476E-02
 -1      3992 1.00687E-02
 -1      3993 1.46741E-02
 -1      3994 5.86765E-03
 -1      3995 1.39495E-02
 -1      3996 4.58726E-12
 -1      3997 1.25272E-10
 -1      3998 1.02260E-09
 -1      3999 2.38837E-02
 -1      4000 5.61002E-11
 -1      4001 1.08336E-10
 -1      4002 1.08336E-10
 -1      4003 4.63096E-11
 -1      4004 4.63096E-11
 -1      4005 2.32317E-01
 -1      4006 1.59089E-02
 -1      4007 3.42647E+00
 -1      4008 8.34319E-12
 -1      4009 1.05217E-11
 -1      4010 1.09523E-11
 -1      4011 8.16840E-12
 -1      4012 1.03469E-11
 -1      4013 7.73781E-12
 -1      4014 2.93561E-08
 -1      4015 3.32299E-09
 -1      4016 8.30269E-12
 -1      4017 8.20464E-12
 -1      4018 1.10516E-10
 -1      4019 1.84979E-08
 -1      4020 3.26034E-08
 -1      4021 1.46948E-10
 -1      4022 1.99184E-10
 -1      4023 4.92755E-03
 -1      4024 4.20292E-03
 -1      4025 1.10290E-11
 -1      4026 8.41993E-12
 -1      4027 9.63496E-12
 -1      4028 9.12763E-12
 -1      4029 1.17367E-11
 -1      4030 1.82638E-10
 -1      4031 1.44026E-10
 -1      4032 1.36168E-11
 -1      4033 1.23905E-09
 -1      4034 7.71262E-01
 -1      4035 7.44791E-12
 -1      4036 7.82947E-12
 -1      4037 7.36478E-12
 -1      4038 8.66294E-12
 -1      4039 1.58387E-05
 -1      4040 1.28543E-04
 -1      4041 1.74980E-05
 -1      4042 1.75567E-05
 -1      4043 9.29968E-06
 -1      4044 1.52448E-05
 -1      4045 9.24325E-06
 -1      4046 1.28543E-04
 -1      4047 2.44434E-11
 -1      4048 1.21055E-11
 -1      4049 2.22585E-11
 -1      4050 2.10797E-11
 -1      4051 8.74181E-12
 -1      4052 5.91503E-10
 -1      4053 2.04430E-10
 -1      4054 1.01339E-07
 -1      4055 7.41391E-08
 -1      4056 5.46650E-08
 -1      4057 8.15812E-08
 -1      4058 5.43816E-08
 -1      4059 7.51497E-08
 -1      4060 1.02965E-07
 -1      4061 5.52810E-08
 -1      4062 8.21972E-08
 -1      4063 2.55086E-02
 -1      4064 6.72955E-12
 -1      4065 6.55476E-12
 -1      4066 6.54836E-12
 -1      4067 7.73142E-12
 -1      4068 2.38636E-11
 -1      4069 2.16851E-11
 -1      4070 3.48084E-10
 -1      4071 1.15918E-11
 -1      4072 1.80847E-11
 -1      4073 1.53861E-11
 -1      4074 9.61791E-12
 -1      4075 1.61108E-11
 -1      4076 8.55636E-12
 -1      4077 8.55636E-12
 -1      4078 9.72022E-12
 -1      4079 1.40624E-11
 -1      4080 1.08969E-11
 -1      4081 9.12763E-12
 -1      4082 1.91463E-11
 -1      4083 8.88100E-11
 -1      4084 1.87008E-11
 -1      4085 8.83645E-11
 -1      4086 1.03427E-11
 -1      4087 9.91633E-12
 -1      4088 7.06635E-12
 -1      4089 7.06635E-12
 -1      4090 1.35141E-10
 -1      4091 5.02212E-12
 -1      4092 6.06235E-12
 -1      4093 8.25705E-10
 -1      4094 2.05148E-11
 -1      4095 2.33648E-11
 -1      4096 1.44759E-11
 -1      4097 9.50633E-03
 -1      4098 6.17007E-08
 -1      4099 6.20612E-08
 -1      4100 6.91535E-08
 -1      4101 2.04796E-04
 -1      4102 1.90659E-04
 -1      4103 8.12978E-08
 -1      4104 8.12978E-08
 -1      4105 1.18059E-02
 -1      4106 2.30271E-01
 -1      4107 2.72193E-03
 -1      4108 2.72193E-03
 -1      4109 3.18977E-11
 -1      4110 2.48249E-11
 -1      4111 6.94911E-12
 -1      4112 5.83853E-12
 -1      4113 5.69571E-12
 -1      4114 6.29043E-12
 -1      4115 6.30109E-12
 -1      4116 6.62510E-12
 -1      4117 2.00160E-11
 -1      4118 2.22009E-11
 -1      4119 1.98881E-11
 -1      4120 1.75049E-11
 -1      4121 1.95023E-11
 -1      4122 1.08660E-05
 -1      4123 1.09435E-05
 -1      4124 1.11632E-05
 -1      4125 1.15046E-05
 -1      4126 8.34319E-12
 -1      4127 1.09523E-11
 -1      4128 1.98623E-04
 -1      4129 1.85503E-04
 -1      4130 2.04149E-04
 -1      4131 1.10030E-05
 -1      4132 7.63976E-12
 -1      4133 8.10445E-12
 -1      4134 6.92140E-12
 -1      4135 5.77385E-09
 -1      4136 1.20525E-08
 -1      4137 5.55977E-09
 -1      4138 1.13799E-08
 -1      4139 9.03040E-01
 -1      4140 5.69236E-09
 -1      4141 5.54374E-09
 -1      4142 3.72699E-01
 -1      4143 9.17201E-01
 -1      4144 2.69132E-03
 -1      4145 1.37333E-06
 -1      4146 5.95151E-12
 -1      4147 5.00933E-12
 -1      4148 7.17080E-12
 -1      4149 7.14095E-12
 -1      4150 9.11058E-12
 -1      4151 1.05217E-11
 -1      4152 9.75007E-12
 -1      4153 8.65654E-12
 -1      4154 3.48606E-11
 -1      4155 2.59973E-11
 -1      4156 1.52725E-03
 -1      4157 4.25656E-09
 -1      4158 2.96624E-04
 -1      4159 4.19319E-06
 -1      4160 5.47843E-08
 -1      4161 7.42584E-08
 -1      4162 1.70472E-09
 -1      4163 4.24695E-09
 -1      4164 8.12978E-08
 -1      4165 1.10707E-05
 -1      4166 1.41337E-06
 -1      4167 5.20821E-08
 -1      4168 5.54511E-08
 -1      4169 7.53198E-08
 -1      4170 2.08768E-01
 -1      4171 1.98270E-04
 -1      4172 5.12185E-08
 -1      4173 4.13970E-06
 -1      4174 1.49982E-03
 -1      4175 1.71297E-08
 -1      4176 2.93163E-04
 -1      4177 1.70648E-08
 -1      4178 5.95151E-12
 -1      4179 5.95151E-12
 -1      4180 5.33547E-12
 -1      4181 1.26960E-11
 -1      4182 5.00933E-12
 -1      4183 1.36595E-11
 -1      4184 7.17080E-12
 -1      4185 7.26033E-12
 -1      4186 2.48100E-11
 -1      4187 2.55838E-11
 -1      4188 5.02964E-09
 -1      4189 4.92437E-09
 -1      4190 2.17793E-04
 -1      4191 2.18064E-04
 -1      4192 6.68172E-06
 -1      4193 5.97605E-06
 -1      4194 4.91262E-09
 -1      4195 2.06543E-03
 -1      4196 5.95606E-06
 -1      4197 4.96739E-09
 -1      4198 3.12815E-08
 -1      4199 9.91633E-12
 -1      4200 6.56968E-12
 -1      4201 1.54031E-11
 -1      4202 3.27421E-08
 -1      4203 2.14723E-04
 -1      4204 6.67767E-06
 -1      4205 2.11808E-04
 -1      4206 1.91669E-03
 -1      4207 3.14463E-08
 -1      4208 3.35403E-08
 -1      4209 2.43564E-04
 -1      4210 1.81468E-04
 -1      4211 2.31941E-03
 -1      4212 7.53744E-12
 -1      4213 7.23048E-12
 -1      4214 7.42233E-12
 -1      4215 2.82377E-11
 -1      4216 2.16851E-11
 -1      4217 1.53264E-11
 -1      4218 1.94426E-11
 -1      4219 3.67962E-11
 -1      4220 7.64828E-12
 -1      4221 8.53504E-12
 -1      4222 5.62150E-03
 -1      4223 1.86682E-04
 -1      4224 5.10372E-09
 -1      4225 6.95753E-09
 -1      4226 6.95290E-09
 -1      4227 5.91740E-12
 -1      4228 1.32246E-11
 -1      4229 4.74287E-12
 -1      4230 6.13483E-12
 -1      4231 2.02824E-11
 -1      4232 8.29634E-10
 -1      4233 7.60139E-05
 -1      4234 5.56952E-09
 -1      4235 7.73874E-06
 -1      4236 5.02132E-06
 -1      4237 9.22032E-06
 -1      4238 4.15708E-08
 -1      4239 5.34599E-08
 -1      4240 5.36300E-08
 -1      4241 9.18744E-06
 -1      4242 5.50477E-09
 -1      4243 7.78044E-06
 -1      4244 1.80108E-03
 -1      4245 5.35792E-08
 -1      4246 1.24460E-06
 -1      4247 3.70162E-08
 -1      4248 3.64844E-08
 -1      4249 7.71164E-05
 -1      4250 7.20490E-12
 -1      4251 6.95337E-12
 -1      4252 6.95337E-12
 -1      4253 1.19350E-11
 -1      4254 1.19350E-11
 -1      4255 1.19350E-11
 -1      4256 3.45647E-07
 -1      4257 1.23254E-07
 -1      4258 2.99403E-07
 -1      4259 5.67009E-10
 -1      4260 8.13903E-10
 -1      4261 1.09434E-10
 -1      4262 5.83621E-08
 -1      4263 2.03685E-08
 -1      4264 8.24604E-08
 -1      4265 1.03077E-07
 -1      4266 1.45845E-07
 -1      4267 1.36511E-07
 -1      4268 7.28475E+00
 -1      4269 1.09583E+01
 -1      4270 7.28475E+00
 -1      4271 7.28475E+00
 -1      4272 2.45402E-01
 -1      4273 7.76339E-12
 -1      4274 3.48862E-11
 -1      4275 8.38216E-02
 -1      4276 1.68283E-08
 -1      4277 2.91303E-08
 -1      4278 3.27268E-08
 -1      4279 2.95828E-08
 -1      4280 1.74001E-10
 -1      4281 8.34093E-10
 -1      4282 7.02909E-10
 -1      4283 9.17952E-08
 -1      4284 9.75785E-08
 -1      4285 2.05041E-10
 -1      4286 1.18267E+00
 -1      4287 7.43793E-08
 -1      4288 3.09794E-08
 -1      4289 6.08462E-08
 -1      4290 7.89615E-08
 -1      4291 1.09158E+01
 -1      4292 6.92576E+00
 -1      4293 7.30889E+00
 -1      4294 7.30889E+00
 -1      4295 1.12412E-07
 -1      4296 1.09335E+01
 -1      4297 7.24941E+00
 -1      4298 7.32321E+00
 -1      4299 7.32321E+00
 -1      4300 7.12614E-08
 -1      4301 1.29102E-07
 -1      4302 8.84703E-08
 -1      4303 9.41716E-08
 -1      4304 3.06300E-08
 -1      4305 7.70514E+00
 -1      4306 6.14584E+00
 -1      4307 5.69699E-08
 -1      4308 5.12719E-08
 -1      4309 1.09243E+01
 -1      4310 6.93273E+00
 -1      4311 7.22699E+00
 -1      4312 7.22699E+00
 -1      4313 7.14095E-12
 -1      4314 7.91260E-12
 -1      4315 9.75277E+00
 -1      4316 7.51635E+00
 -1      4317 6.05662E+00
 -1      4318 5.08194E-08
 -1      4319 8.46342E-08
 -1      4320 4.76754E-08
 -1      4321 9.10915E+00
 -1      4322 7.65369E+00
 -1      4323 9.75277E+00
 -1      4324 7.00444E-08
 -1      4325 9.45840E+00
 -1      4326 5.78482E+00
 -1      4327 9.75393E+00
 -1      4328 7.72707E+00
 -1      4329 9.75393E+00
 -1      4330 5.50813E-12
 -1      4331 6.26699E-12
 -1      4332 6.26699E-12
 -1      4333 5.57208E-12
 -1      4334 5.24594E-12
 -1      4335 5.42499E-12
 -1      4336 1.76733E-11
 -1      4337 1.68995E-11
 -1      4338 1.42904E-11
 -1      4339 2.82164E-11
 -1      4340 2.43901E-11
 -1      4341 2.53536E-11
 -1      4342 4.88799E-05
 -1      4343 3.21791E-05
 -1      4344 4.86085E-05
 -1      4345 1.51097E-08
 -1      4346 1.26976E-08
 -1      4347 1.25924E-08
 -1      4348 1.30281E-05
 -1      4349 1.20005E-05
 -1      4350 1.27062E-05
 -1      4351 1.19721E-08
 -1      4352 1.44371E-08
 -1      4353 1.19173E-08
 -1      4354 4.78965E-05
 -1      4355 3.22456E-05
 -1      4356 5.08117E-05
 -1      4357 5.62640E-08
 -1      4358 6.08462E-08
 -1      4359 1.33289E-05
 -1      4360 1.33424E-05
 -1      4361 1.26073E-05
 -1      4362 7.87958E-08
 -1      4363 8.10546E-08
 -1      4364 7.72274E-08
 -1      4365 3.64061E-11
 -1      4366 2.60632E-03
 -1      4367 2.45758E-03
 -1      4368 2.81473E-03
 -1      4369 1.38385E-10
 -1      4370 4.39968E-12
 -1      4371 1.02305E-09
 -1      4372 1.14921E-02
 -1      4373 7.56184E+00
 -1      4374 9.76572E+00
 -1      4375 6.15544E+00
 -1      4376 1.29203E-07
 -1      4377 1.29102E-07
 -1      4378 9.41716E-08
 -1      4379 9.25959E+00
 -1      4380 7.60308E-08
 -1      4381 7.80008E-08
 -1      4382 7.92965E-08
 -1      4383 9.25339E+00
 -1      4384 9.45840E+00
 -1      4385 2.03623E-01
 -1      4386 1.10416E-07
 -1      4387 9.76572E+00
 -1      4388 7.06848E-12
 -1      4389 6.97895E-12
 -1      4390 5.96003E-12
 -1      4391 7.43793E-08
 -1      4392 6.97460E-10
 -1      4393 1.38528E-07
 -1      4394 1.34803E-07
 -1      4395 7.93763E-10
 -1      4396 6.44585E-09
 -1      4397 4.59686E-09
 -1      4398 3.60145E-10
 -1      4399 1.02024E-09
 -1      4400 9.79782E-11
 -1      4401 2.13076E-09
 -1      4402 3.80336E-10
 -1      4403 8.47450E-11
 -3
    1PSTEP                         4           1           1          
  100CL  102 2.152731093        4403                     4    2           1
 -4  DISP        4    1
 -5  D1          1    2    1    0
 -5  D2          1    2    2    0
 -5  D3          1    2    3    0
 -5  ALL         1    2    0    0    1ALL
 -1         1 0.00000E+00 0.00000E+00 0.00000E+00
 -1         2 0.00000E+00 0.00000E+00 0.00000E+00
 -1         3 0.00000E+00 0.00000E+00 0.00000E+00
 -1         4 0.00000E+00 0.00000E+00 0.00000E+00
 -1         5 3.59730E-03 2.71412E-03-4.32093E-02
 -1         6-3.17219E-03 2.71312E-03-4.32093E-02
 -1         7 3.17217E-03 2.71323E-03-4.32094E-02
 -1         8-3.59732E-03 2.71392E-03-4.32095E-02
 -1         9 0.00000E+00 0.00000E+00 0.00000E+00
 -1        10 0.00000E+00 0.00000E+00 0.00000E+00
 -1        11 0.00000E+00 0.00000E+00 0.00000E+00
 -1        12 0.00000E+00 0.00000E+00 0.00000E+00
 -1        13 0.00000E+00 0.00000E+00 0.00000E+00
 -1        14 0.00000E+00 0.00000E+00 0.00000E+00
 -1        15 0.00000E+00 0.00000E+00 0.00000E+00
 -1        16 0.00000E+00 0.00000E+00 0.00000E+00
 -1        17 0.00000E+00 0.00000E+00 0.00000E+00
 -1        18 0.00000E+00 0.00000E+00 0.00000E+00
 -1        19 0.00000E+00 0.00000E+00 0.00000E+00
 -1        20 0.00000E+00 0.00000E+00 0.00000E+00
 -1        21 0.00000E+00 0.00000E+00 0.00000E+00
 -1        22 0.00000E+00 0.00000E+00 0.00000E+00
 -1        23 0.00000E+00 0.00000E+00 0.00000E+00
 -1        24 0.00000E+00 0.00000E+00 0.00000E+00
 -1        25 0.00000E+00 0.00000E+00 0.00000E+00
 -1        26 0.00000E+00 0.00000E+00 0.00000E+00
 -1        27 0.00000E+00 0.00000E+00 0.00000E+00
 -1        28 0.00000E+00 0.00000E+00 0.00000E+00
 -1        29 0.00000E+00 0.00000E+00 0.00000E+00
 -1        30 0.00000E+00 0.00000E+00 0.00000E+00
 -1        31 0.00000E+00 0.00000E+00 0.00000E+00
 -1        32 0.00000E+00 0.00000E+00 0.00000E+00
 -1        33 0.00000E+00 0.00000E+00 0.00000E+00
 -1        34 0.00000E+00 0.00000E+00 0.00000E+00
 -1        35 0.00000E+00 0.00000E+00 0.00000E+00
 -1        36 0.00000E+00 0.00000E+00 0.00000E+00
 -1        37-1.47458E-03 2.71454E-03-4.32056E-02
 -1        38 2.12657E-04 2.71369E-03-4.32035E-02
 -1        39 1.89985E-03 2.71270E-03-4.32056E-02
 -1        40-2.32129E-03 2.71418E-03-4.32077E-02
 -1        41-6.30382E-04 2.71427E-03-4.32041E-02
 -1        42 1.05573E-03 2.71305E-03-4.32041E-02
 -1        43 2.74651E-03 2.71309E-03-4.32077E-02
 -1        44 3.49244E-03 2.71393E-03-4.32104E-02
 -1        45 3.38666E-03 2.71325E-03-4.32107E-02
 -1        46 3.28047E-03 2.71288E-03-4.32105E-02
 -1        47 3.54515E-03 2.71413E-03-4.32101E-02
 -1        48 3.43961E-03 2.71364E-03-4.32107E-02
 -1        49 3.33370E-03 2.71302E-03-4.32107E-02
 -1        50 3.22694E-03 2.71304E-03-4.32102E-02
 -1        51-1.89993E-03 2.71272E-03-4.32058E-02
 -1        52-2.12716E-04 2.71367E-03-4.32037E-02
 -1        53 1.47451E-03 2.71469E-03-4.32056E-02
 -1        54-2.74659E-03 2.71300E-03-4.32079E-02
 -1        55-1.05576E-03 2.71305E-03-4.32043E-02
 -1        56 6.30361E-04 2.71434E-03-4.32042E-02
 -1        57 2.32123E-03 2.71430E-03-4.32078E-02
 -1        58-3.28054E-03 2.71271E-03-4.32105E-02
 -1        59-3.38674E-03 2.71323E-03-4.32108E-02
 -1        60-3.49247E-03 2.71385E-03-4.32105E-02
 -1        61-3.22697E-03 2.71290E-03-4.32101E-02
 -1        62-3.33370E-03 2.71289E-03-4.32108E-02
 -1        63-3.43968E-03 2.71352E-03-4.32107E-02
 -1        64-3.54524E-03 2.71393E-03-4.32102E-02
 -1        65-1.42680E-04-6.15329E-05-4.53300E-05
 -1        66-2.82478E-04-6.61431E-05-1.70291E-04
 -1        67-4.26617E-04-5.40319E-05-3.91797E-04
 -1        68-5.71199E-04-3.39774E-05-7.06317E-04
 -1        69-7.14924E-04-7.70814E-06-1.11231E-03
 -1        70-8.57137E-04 2.44024E-05-1.60861E-03
 -1        71-9.97586E-04 6.22213E-05-2.19412E-03
 -1        72-1.13586E-03 1.05797E-04-2.86766E-03
 -1        73-1.27166E-03 1.54868E-04-3.62770E-03
 -1        74-1.40480E-03 2.09514E-04-4.47270E-03
 -1        75-1.53494E-03 2.69534E-04-5.40077E-03
 -1        76-1.66172E-03 3.34790E-04-6.40997E-03
 -1        77-1.78489E-03 4.05043E-04-7.49803E-03
 -1        78-1.90440E-03 4.80390E-04-8.66283E-03
 -1        79-2.01970E-03 5.60494E-04-9.90165E-03
 -1        80-2.13064E-03 6.45246E-04-1.12120E-02
 -1        81-2.23714E-03 7.34282E-04-1.25908E-02
 -1        82-2.33874E-03 8.27730E-04-1.40354E-02
 -1        83-2.43524E-03 9.25039E-04-1.55426E-02
 -1        84-2.52678E-03 1.02639E-03-1.71092E-02
 -1        85-2.61261E-03 1.13133E-03-1.87317E-02
 -1        86-2.69308E-03 1.23949E-03-2.04067E-02
 -1        87-2.76762E-03 1.35090E-03-2.21306E-02
 -1        88-2.83625E-03 1.46537E-03-2.38998E-02
 -1        89-2.89885E-03 1.58233E-03-2.57104E-02
 -1        90-2.95510E-03 1.70185E-03-2.75585E-02
 -1        91-3.00511E-03 1.82350E-03-2.94402E-02
 -1        92-3.04866E-03 1.94700E-03-3.13514E-02
 -1        93-3.08577E-03 2.07219E-03-3.32880E-02
 -1        94-3.11601E-03 2.19885E-03-3.52460E-02
 -1        95-3.13985E-03 2.32633E-03-3.72209E-02
 -1        96-3.15683E-03 2.45477E-03-3.92087E-02
 -1        97-3.16727E-03 2.58352E-03-4.12050E-02
 -1        98-7.58337E-05-4.58391E-05-2.04691E-05
 -1        99-2.11917E-04-6.69697E-05-9.58308E-05
 -1       100-3.54389E-04-6.12926E-05-2.69290E-04
 -1       101-4.98972E-04-4.48161E-05-5.37587E-04
 -1       102-6.43207E-04-2.15792E-05-8.97964E-04
 -1       103-7.86243E-04 7.61171E-06-1.34924E-03
 -1       104-9.27610E-04 4.25928E-05-1.89030E-03
 -1       105-1.06699E-03 8.32994E-05-2.52000E-03
 -1       106-1.20407E-03 1.29645E-04-3.23698E-03
 -1       107-1.33859E-03 1.81529E-04-4.03970E-03
 -1       108-1.47024E-03 2.38866E-04-4.92649E-03
 -1       109-1.59873E-03 3.01501E-04-5.89539E-03
 -1       110-1.72376E-03 3.69292E-04-6.94430E-03
 -1       111-1.84513E-03 4.42142E-04-8.07099E-03
 -1       112-1.96255E-03 5.19846E-04-9.27313E-03
 -1       113-2.07573E-03 6.02282E-04-1.05481E-02
 -1       114-2.18448E-03 6.89212E-04-1.18930E-02
 -1       115-2.28852E-03 7.80480E-04-1.33051E-02
 -1       116-2.38763E-03 8.75899E-04-1.47814E-02
 -1       117-2.48165E-03 9.75278E-04-1.63187E-02
 -1       118-2.57037E-03 1.07840E-03-1.79137E-02
 -1       119-2.65354E-03 1.18500E-03-1.95628E-02
 -1       120-2.73106E-03 1.29483E-03-2.12628E-02
 -1       121-2.80266E-03 1.40778E-03-2.30098E-02
 -1       122-2.86831E-03 1.52353E-03-2.48002E-02
 -1       123-2.92771E-03 1.64179E-03-2.66300E-02
 -1       124-2.98090E-03 1.76241E-03-2.84954E-02
 -1       125-3.02769E-03 1.88504E-03-3.03924E-02
 -1       126-3.06803E-03 2.00943E-03-3.23168E-02
 -1       127-3.10169E-03 2.13534E-03-3.42647E-02
 -1       128-3.12878E-03 2.26245E-03-3.62316E-02
 -1       129-3.14913E-03 2.39048E-03-3.82135E-02
 -1       130-3.16281E-03 2.51911E-03-4.02060E-02
 -1       131-3.17044E-03 2.64801E-03-4.22054E-02
 -1       132 1.61819E-04 6.77299E-05-5.34244E-05
 -1       133 3.20356E-04 8.81432E-05-1.79990E-04
 -1       134 4.83870E-04 1.03858E-04-4.01720E-04
 -1       135 6.47746E-04 1.23300E-04-7.16209E-04
 -1       136 8.10719E-04 1.48044E-04-1.12206E-03
 -1       137 9.72002E-04 1.78271E-04-1.61825E-03
 -1       138 1.13128E-03 2.13957E-04-2.20365E-03
 -1       139 1.28801E-03 2.54967E-04-2.87705E-03
 -1       140 1.44212E-03 3.01325E-04-3.63692E-03
 -1       141 1.59309E-03 3.52831E-04-4.48167E-03
 -1       142 1.74059E-03 4.09366E-04-5.40957E-03
 -1       143 1.88434E-03 4.70838E-04-6.41854E-03
 -1       144 2.02417E-03 5.37210E-04-7.50639E-03
 -1       145 2.15956E-03 6.08219E-04-8.67080E-03
 -1       146 2.29033E-03 6.83653E-04-9.90937E-03
 -1       147 2.41625E-03 7.63547E-04-1.12194E-02
 -1       148 2.53689E-03 8.47562E-04-1.25980E-02
 -1       149 2.65212E-03 9.35610E-04-1.40422E-02
 -1       150 2.76168E-03 1.02749E-03-1.55491E-02
 -1       151 2.86538E-03 1.12295E-03-1.71152E-02
 -1       152 2.96276E-03 1.22185E-03-1.87373E-02
 -1       153 3.05392E-03 1.32395E-03-2.04120E-02
 -1       154 3.13851E-03 1.42903E-03-2.21355E-02
 -1       155 3.21644E-03 1.53682E-03-2.39043E-02
 -1       156 3.28720E-03 1.64709E-03-2.57145E-02
 -1       157 3.35123E-03 1.75984E-03-2.75622E-02
 -1       158 3.40795E-03 1.87450E-03-2.94433E-02
 -1       159 3.45722E-03 1.99094E-03-3.13542E-02
 -1       160 3.49929E-03 2.10904E-03-3.32903E-02
 -1       161 3.53363E-03 2.22831E-03-3.52478E-02
 -1       162 3.56064E-03 2.34871E-03-3.72224E-02
 -1       163 3.57990E-03 2.46997E-03-3.92097E-02
 -1       164 3.59174E-03 2.59198E-03-4.12055E-02
 -1       165 8.60178E-05 4.87948E-05-2.63660E-05
 -1       166 2.40320E-04 7.95946E-05-1.05047E-04
 -1       167 4.01918E-04 9.57407E-05-2.79169E-04
 -1       168 5.65854E-04 1.12961E-04-5.47486E-04
 -1       169 7.29406E-04 1.34982E-04-9.07799E-04
 -1       170 8.91587E-04 1.62476E-04-1.35894E-03
 -1       171 1.05192E-03 1.95430E-04-1.89989E-03
 -1       172 1.20996E-03 2.33809E-04-2.52945E-03
 -1       173 1.36543E-03 2.77490E-04-3.24627E-03
 -1       174 1.51800E-03 3.26435E-04-4.04879E-03
 -1       175 1.66726E-03 3.80477E-04-4.93537E-03
 -1       176 1.81296E-03 4.39508E-04-5.90406E-03
 -1       177 1.95477E-03 5.03428E-04-6.95273E-03
 -1       178 2.09241E-03 5.72129E-04-8.07916E-03
 -1       179 2.22553E-03 6.45378E-04-9.28100E-03
 -1       180 2.35391E-03 7.23065E-04-1.05556E-02
 -1       181 2.47720E-03 8.05050E-04-1.19003E-02
 -1       182 2.59519E-03 8.91101E-04-1.33121E-02
 -1       183 2.70762E-03 9.81094E-04-1.47880E-02
 -1       184 2.81425E-03 1.07475E-03-1.63249E-02
 -1       185 2.91482E-03 1.17201E-03-1.79195E-02
 -1       186 3.00915E-03 1.27250E-03-1.95683E-02
 -1       187 3.09704E-03 1.37612E-03-2.12679E-02
 -1       188 3.17828E-03 1.48258E-03-2.30145E-02
 -1       189 3.25268E-03 1.59171E-03-2.48045E-02
 -1       190 3.32008E-03 1.70319E-03-2.66339E-02
 -1       191 3.38044E-03 1.81693E-03-2.84988E-02
 -1       192 3.43348E-03 1.93253E-03-3.03954E-02
 -1       193 3.47919E-03 2.04979E-03-3.23194E-02
 -1       194 3.51736E-03 2.16855E-03-3.42667E-02
 -1       195 3.54807E-03 2.28837E-03-3.62333E-02
 -1       196 3.57116E-03 2.40924E-03-3.82147E-02
 -1       197 3.58669E-03 2.53091E-03-4.02067E-02
 -1       198 3.59533E-03 2.65313E-03-4.22057E-02
 -1       199-1.61722E-04 6.77432E-05-5.35313E-05
 -1       200-3.20505E-04 8.79827E-05-1.80107E-04
 -1       201-4.83893E-04 1.03823E-04-4.01747E-04
 -1       202-6.47752E-04 1.23253E-04-7.16265E-04
 -1       203-8.10725E-04 1.47988E-04-1.12214E-03
 -1       204-9.72042E-04 1.78216E-04-1.61832E-03
 -1       205-1.13126E-03 2.13900E-04-2.20371E-03
 -1       206-1.28804E-03 2.54921E-04-2.87710E-03
 -1       207-1.44213E-03 3.01290E-04-3.63693E-03
 -1       208-1.59309E-03 3.52783E-04-4.48173E-03
 -1       209-1.74059E-03 4.09317E-04-5.40961E-03
 -1       210-1.88435E-03 4.70791E-04-6.41858E-03
 -1       211-2.02417E-03 5.37166E-04-7.50643E-03
 -1       212-2.15961E-03 6.08102E-04-8.67090E-03
 -1       213-2.29041E-03 6.83636E-04-9.90945E-03
 -1       214-2.41627E-03 7.63514E-04-1.12194E-02
 -1       215-2.53689E-03 8.47513E-04-1.25980E-02
 -1       216-2.65212E-03 9.35548E-04-1.40423E-02
 -1       217-2.76175E-03 1.02745E-03-1.55491E-02
 -1       218-2.86537E-03 1.12290E-03-1.71152E-02
 -1       219-2.96284E-03 1.22174E-03-1.87375E-02
 -1       220-3.05393E-03 1.32382E-03-2.04121E-02
 -1       221-3.13851E-03 1.42890E-03-2.21356E-02
 -1       222-3.21638E-03 1.53670E-03-2.39044E-02
 -1       223-3.28725E-03 1.64698E-03-2.57146E-02
 -1       224-3.35124E-03 1.75976E-03-2.75622E-02
 -1       225-3.40793E-03 1.87439E-03-2.94435E-02
 -1       226-3.45730E-03 1.99092E-03-3.13542E-02
 -1       227-3.49932E-03 2.10889E-03-3.32906E-02
 -1       228-3.53378E-03 2.22821E-03-3.52479E-02
 -1       229-3.56064E-03 2.34865E-03-3.72225E-02
 -1       230-3.57991E-03 2.46985E-03-3.92097E-02
 -1       231-3.59178E-03 2.59185E-03-4.12056E-02
 -1       232-8.60412E-05 4.87297E-05-2.65061E-05
 -1       233-2.40348E-04 7.95071E-05-1.05139E-04
 -1       234-4.02010E-04 9.56943E-05-2.79224E-04
 -1       235-5.65861E-04 1.12912E-04-5.47536E-04
 -1       236-7.29408E-04 1.34931E-04-9.07846E-04
 -1       237-8.91601E-04 1.62419E-04-1.35900E-03
 -1       238-1.05193E-03 1.95389E-04-1.89994E-03
 -1       239-1.20998E-03 2.33756E-04-2.52951E-03
 -1       240-1.36545E-03 2.77458E-04-3.24631E-03
 -1       241-1.51800E-03 3.26391E-04-4.04884E-03
 -1       242-1.66727E-03 3.80429E-04-4.93542E-03
 -1       243-1.81297E-03 4.39460E-04-5.90411E-03
 -1       244-1.95477E-03 5.03385E-04-6.95277E-03
 -1       245-2.09241E-03 5.72063E-04-8.07922E-03
 -1       246-2.22559E-03 6.45310E-04-9.28106E-03
 -1       247-2.35395E-03 7.23034E-04-1.05556E-02
 -1       248-2.47720E-03 8.05009E-04-1.19003E-02
 -1       249-2.59520E-03 8.91052E-04-1.33121E-02
 -1       250-2.70765E-03 9.81031E-04-1.47881E-02
 -1       251-2.81426E-03 1.07473E-03-1.63250E-02
 -1       252-2.91483E-03 1.17192E-03-1.79196E-02
 -1       253-3.00918E-03 1.27241E-03-1.95685E-02
 -1       254-3.09704E-03 1.37601E-03-2.12680E-02
 -1       255-3.17828E-03 1.48248E-03-2.30146E-02
 -1       256-3.25269E-03 1.59157E-03-2.48046E-02
 -1       257-3.32014E-03 1.70311E-03-2.66340E-02
 -1       258-3.38043E-03 1.81683E-03-2.84989E-02
 -1       259-3.43350E-03 1.93246E-03-3.03954E-02
 -1       260-3.47919E-03 2.04970E-03-3.23194E-02
 -1       261-3.51743E-03 2.16841E-03-3.42668E-02
 -1       262-3.54813E-03 2.28832E-03-3.62334E-02
 -1       263-3.57117E-03 2.40915E-03-3.82148E-02
 -1       264-3.58670E-03 2.53079E-03-4.02069E-02
 -1       265-3.59534E-03 2.65297E-03-4.22058E-02
 -1       266 1.42703E-04-6.15383E-05-4.54286E-05
 -1       267 2.82625E-04-6.59677E-05-1.70472E-04
 -1       268 4.26637E-04-5.39834E-05-3.91828E-04
 -1       269 5.71194E-04-3.39260E-05-7.06368E-04
 -1       270 7.14911E-04-7.66403E-06-1.11237E-03
 -1       271 8.57125E-04 2.44535E-05-1.60866E-03
 -1       272 9.97576E-04 6.22730E-05-2.19417E-03
 -1       273 1.13585E-03 1.05846E-04-2.86771E-03
 -1       274 1.27165E-03 1.54915E-04-3.62774E-03
 -1       275 1.40479E-03 2.09561E-04-4.47274E-03
 -1       276 1.53491E-03 2.69583E-04-5.40081E-03
 -1       277 1.66170E-03 3.34851E-04-6.41007E-03
 -1       278 1.78489E-03 4.05096E-04-7.49808E-03
 -1       279 1.90439E-03 4.80439E-04-8.66287E-03
 -1       280 2.01969E-03 5.60539E-04-9.90170E-03
 -1       281 2.13062E-03 6.45288E-04-1.12120E-02
 -1       282 2.23713E-03 7.34337E-04-1.25909E-02
 -1       283 2.33876E-03 8.27751E-04-1.40355E-02
 -1       284 2.43533E-03 9.25118E-04-1.55426E-02
 -1       285 2.52674E-03 1.02647E-03-1.71093E-02
 -1       286 2.61264E-03 1.13137E-03-1.87318E-02
 -1       287 2.69307E-03 1.23962E-03-2.04068E-02
 -1       288 2.76759E-03 1.35103E-03-2.21307E-02
 -1       289 2.83624E-03 1.46548E-03-2.38999E-02
 -1       290 2.89884E-03 1.58244E-03-2.57105E-02
 -1       291 2.95510E-03 1.70196E-03-2.75586E-02
 -1       292 3.00510E-03 1.82361E-03-2.94403E-02
 -1       293 3.04865E-03 1.94711E-03-3.13515E-02
 -1       294 3.08575E-03 2.07230E-03-3.32882E-02
 -1       295 3.11602E-03 2.19890E-03-3.52461E-02
 -1       296 3.13980E-03 2.32652E-03-3.72211E-02
 -1       297 3.15679E-03 2.45493E-03-3.92089E-02
 -1       298 3.16725E-03 2.58364E-03-4.12051E-02
 -1       299 7.59696E-05-4.57363E-05-2.04964E-05
 -1       300 2.11970E-04-6.68590E-05-9.59916E-05
 -1       301 3.54475E-04-6.12427E-05-2.69393E-04
 -1       302 4.98970E-04-4.47722E-05-5.37628E-04
 -1       303 6.43201E-04-2.15288E-05-8.98015E-04
 -1       304 7.86221E-04 7.66179E-06-1.34929E-03
 -1       305 9.27599E-04 4.26446E-05-1.89035E-03
 -1       306 1.06698E-03 8.33498E-05-2.52005E-03
 -1       307 1.20406E-03 1.29693E-04-3.23703E-03
 -1       308 1.33858E-03 1.81576E-04-4.03975E-03
 -1       309 1.47023E-03 2.38912E-04-4.92653E-03
 -1       310 1.59871E-03 3.01562E-04-5.89545E-03
 -1       311 1.72376E-03 3.69359E-04-6.94436E-03
 -1       312 1.84512E-03 4.42193E-04-8.07104E-03
 -1       313 1.96254E-03 5.19891E-04-9.27317E-03
 -1       314 2.07571E-03 6.02323E-04-1.05481E-02
 -1       315 2.18444E-03 6.89273E-04-1.18931E-02
 -1       316 2.28852E-03 7.80528E-04-1.33052E-02
 -1       317 2.38766E-03 8.75917E-04-1.47814E-02
 -1       318 2.48164E-03 9.75337E-04-1.63187E-02
 -1       319 2.57038E-03 1.07846E-03-1.79137E-02
 -1       320 2.65356E-03 1.18509E-03-1.95630E-02
 -1       321 2.73103E-03 1.29496E-03-2.12629E-02
 -1       322 2.80264E-03 1.40791E-03-2.30099E-02
 -1       323 2.86830E-03 1.52363E-03-2.48003E-02
 -1       324 2.92770E-03 1.64190E-03-2.66301E-02
 -1       325 2.98089E-03 1.76251E-03-2.84955E-02
 -1       326 3.02768E-03 1.88514E-03-3.03925E-02
 -1       327 3.06802E-03 2.00954E-03-3.23169E-02
 -1       328 3.10166E-03 2.13544E-03-3.42648E-02
 -1       329 3.12875E-03 2.26258E-03-3.62317E-02
 -1       330 3.14912E-03 2.39066E-03-3.82137E-02
 -1       331 3.16278E-03 2.51927E-03-4.02062E-02
 -1       332 3.17041E-03 2.64813E-03-4.22055E-02
 -1       333 0.00000E+00 0.00000E+00 0.00000E+00
 -1       334 0.00000E+00 0.00000E+00 0.00000E+00
 -1       335 0.00000E+00 0.00000E+00 0.00000E+00
 -1       336 0.00000E+00 0.00000E+00 0.00000E+00
 -1       337 0.00000E+00 0.00000E+00 0.00000E+00
 -1       338 0.00000E+00 0.00000E+00 0.00000E+00
 -1       339 0.00000E+00 0.00000E+00 0.00000E+00
 -1       340 0.00000E+00 0.00000E+00 0.00000E+00
 -1       341 0.00000E+00 0.00000E+00 0.00000E+00
 -1       342 0.00000E+00 0.00000E+00 0.00000E+00
 -1       343 0.00000E+00 0.00000E+00 0.00000E+00
 -1       344 0.00000E+00 0.00000E+00 0.00000E+00
 -1       345 0.00000E+00 0.00000E+00 0.00000E+00
 -1       346 0.00000E+00 0.00000E+00 0.00000E+00
 -1       347 0.00000E+00 0.00000E+00 0.00000E+00
 -1       348 0.00000E+00 0.00000E+00 0.00000E+00
 -1       349 0.00000E+00 0.00000E+00 0.00000E+00
 -1       350 0.00000E+00 0.00000E+00 0.00000E+00
 -1       351 0.00000E+00 0.00000E+00 0.00000E+00
 -1       352 0.00000E+00 0.00000E+00 0.00000E+00
 -1       353 0.00000E+00 0.00000E+00 0.00000E+00
 -1       354 0.00000E+00 0.00000E+00 0.00000E+00
 -1       355 0.00000E+00 0.00000E+00 0.00000E+00
 -1       356 0.00000E+00 0.00000E+00 0.00000E+00
 -1       357 0.00000E+00 0.00000E+00 0.00000E+00
 -1       358 0.00000E+00 0.00000E+00 0.00000E+00
 -1       359 0.00000E+00 0.00000E+00 0.00000E+00
 -1       360 0.00000E+00 0.00000E+00 0.00000E+00
 -1       361 0.00000E+00 0.00000E+00 0.00000E+00
 -1       362 0.00000E+00 0.00000E+00 0.00000E+00
 -1       363 0.00000E+00 0.00000E+00 0.00000E+00
 -1       364 0.00000E+00 0.00000E+00 0.00000E+00
 -1       365 0.00000E+00 0.00000E+00 0.00000E+00
 -1       366 0.00000E+00 0.00000E+00 0.00000E+00
 -1       367 0.00000E+00 0.00000E+00 0.00000E+00
 -1       368 0.00000E+00 0.00000E+00 0.00000E+00
 -1       369 0.00000E+00 0.00000E+00 0.00000E+00
 -1       370 0.00000E+00 0.00000E+00 0.00000E+00
 -1       371 0.00000E+00 0.00000E+00 0.00000E+00
 -1       372 0.00000E+00 0.00000E+00 0.00000E+00
 -1       373 0.00000E+00 0.00000E+00 0.00000E+00
 -1       374 0.00000E+00 0.00000E+00 0.00000E+00
 -1       375 0.00000E+00 0.00000E+00 0.00000E+00
 -1       376 0.00000E+00 0.00000E+00 0.00000E+00
 -1       377 0.00000E+00 0.00000E+00 0.00000E+00
 -1       378 0.00000E+00 0.00000E+00 0.00000E+00
 -1       379 0.00000E+00 0.00000E+00 0.00000E+00
 -1       380 0.00000E+00 0.00000E+00 0.00000E+00
 -1       381 0.00000E+00 0.00000E+00 0.00000E+00
 -1       382 0.00000E+00 0.00000E+00 0.00000E+00
 -1       383 0.00000E+00 0.00000E+00 0.00000E+00
 -1       384 0.00000E+00 0.00000E+00 0.00000E+00
 -1       385 0.00000E+00 0.00000E+00 0.00000E+00
 -1       386 0.00000E+00 0.00000E+00 0.00000E+00
 -1       387 0.00000E+00 0.00000E+00 0.00000E+00
 -1       388 0.00000E+00 0.00000E+00 0.00000E+00
 -1       389 0.00000E+00 0.00000E+00 0.00000E+00
 -1       390 0.00000E+00 0.00000E+00 0.00000E+00
 -1       391 0.00000E+00 0.00000E+00 0.00000E+00
 -1       392 0.00000E+00 0.00000E+00 0.00000E+00
 -1       393 0.00000E+00 0.00000E+00 0.00000E+00
 -1       394 0.00000E+00 0.00000E+00 0.00000E+00
 -1       395 0.00000E+00 0.00000E+00 0.00000E+00
 -1       396 0.00000E+00 0.00000E+00 0.00000E+00
 -1       397 0.00000E+00 0.00000E+00 0.00000E+00
 -1       398 0.00000E+00 0.00000E+00 0.00000E+00
 -1       399 0.00000E+00 0.00000E+00 0.00000E+00
 -1       400 0.00000E+00 0.00000E+00 0.00000E+00
 -1       401 0.00000E+00 0.00000E+00 0.00000E+00
 -1       402 0.00000E+00 0.00000E+00 0.00000E+00
 -1       403 0.00000E+00 0.00000E+00 0.00000E+00
 -1       404 0.00000E+00 0.00000E+00 0.00000E+00
 -1       405 0.00000E+00 0.00000E+00 0.00000E+00
 -1       406 1.80370E-03 2.71333E-03-4.32076E-02
 -1       407-2.00232E-03 2.71332E-03-4.32079E-02
 -1       408 1.07890E-03 2.71327E-03-4.32051E-02
 -1       409-1.89786E-03 2.71325E-03-4.32077E-02
 -1       410-6.41806E-04 2.71336E-03-4.32058E-02
 -1       411-8.28287E-04 2.71336E-03-4.32049E-02
 -1       412 2.12344E-03 2.71343E-03-4.32081E-02
 -1       413-6.04747E-04 2.71359E-03-4.32048E-02
 -1       414 7.50491E-04 2.71382E-03-4.32050E-02
 -1       415 4.07587E-04 2.71344E-03-4.32055E-02
 -1       416 2.27651E-03 2.71342E-03-4.32075E-02
 -1       417-2.27639E-03 2.71328E-03-4.32077E-02
 -1       418-2.00736E-03 2.71361E-03-4.32076E-02
 -1       419 2.01690E-03 2.71362E-03-4.32078E-02
 -1       420 7.15215E-04 2.71330E-03-4.32056E-02
 -1       421 2.08823E-03 2.71313E-03-4.32065E-02
 -1       422 2.93583E-03 2.71351E-03-4.32089E-02
 -1       423 2.88352E-03 2.71372E-03-4.32093E-02
 -1       424-2.58892E-03 2.71365E-03-4.32089E-02
 -1       425-1.74106E-03 2.71404E-03-4.32065E-02
 -1       426-2.64302E-03 2.71311E-03-4.32093E-02
 -1       427 2.64782E-03 2.71320E-03-4.32094E-02
 -1       428 2.59367E-03 2.71373E-03-4.32090E-02
 -1       429 1.74592E-03 2.71412E-03-4.32066E-02
 -1       430-2.08814E-03 2.71306E-03-4.32067E-02
 -1       431-2.93588E-03 2.71337E-03-4.32090E-02
 -1       432-2.88354E-03 2.71361E-03-4.32093E-02
 -1       433-1.03987E-03 2.71404E-03-4.32050E-02
 -1       434-1.95917E-04 2.71373E-03-4.32039E-02
 -1       435-1.30555E-03 2.71370E-03-4.32061E-02
 -1       436 6.45465E-04 2.71340E-03-4.32039E-02
 -1       437 1.48942E-03 2.71305E-03-4.32051E-02
 -1       438 2.36920E-04 2.71345E-03-4.32045E-02
 -1       439 1.67722E-03 2.71324E-03-4.32062E-02
 -1       440 2.80682E-03 2.71361E-03-4.32095E-02
 -1       441 2.75412E-03 2.71342E-03-4.32097E-02
 -1       442 2.20001E-03 2.71343E-03-4.32079E-02
 -1       443 2.59391E-03 2.71321E-03-4.32094E-02
 -1       444 2.54076E-03 2.71320E-03-4.32093E-02
 -1       445 1.96365E-03 2.71335E-03-4.32080E-02
 -1       446 1.91038E-03 2.71345E-03-4.32077E-02
 -1       447-5.20216E-04 2.71346E-03-4.32040E-02
 -1       448-1.36416E-03 2.71311E-03-4.32052E-02
 -1       449-1.55184E-03 2.71323E-03-4.32062E-02
 -1       450 1.11264E-03 2.71423E-03-4.32051E-02
 -1       451 2.68718E-04 2.71386E-03-4.32040E-02
 -1       452-3.90191E-05 2.71356E-03-4.32046E-02
 -1       453 1.38318E-03 2.71385E-03-4.32063E-02
 -1       454-2.64110E-03 2.71312E-03-4.32096E-02
 -1       455-2.58788E-03 2.71308E-03-4.32094E-02
 -1       456-1.95269E-03 2.71340E-03-4.32078E-02
 -1       457-2.74624E-03 2.71346E-03-4.32094E-02
 -1       458-2.69336E-03 2.71331E-03-4.32095E-02
 -1       459-1.95017E-03 2.71324E-03-4.32080E-02
 -1       460-2.13939E-03 2.71333E-03-4.32079E-02
 -1       461 1.41892E-03 2.71335E-03-4.32066E-02
 -1       462 1.25919E-03 2.71335E-03-4.32066E-02
 -1       463 1.10529E-03 2.71341E-03-4.32062E-02
 -1       464 5.79135E-04 2.71357E-03-4.32052E-02
 -1       465 1.27699E-03 2.71355E-03-4.32063E-02
 -1       466 5.61443E-04 2.71335E-03-4.32057E-02
 -1       467-1.32168E-03 2.71329E-03-4.32067E-02
 -1       468-1.26946E-03 2.71331E-03-4.32066E-02
 -1       469-1.41499E-03 2.71333E-03-4.32063E-02
 -1       470-7.35124E-04 2.71333E-03-4.32055E-02
 -1       471 1.60086E-03 2.71333E-03-4.32065E-02
 -1       472 8.97122E-04 2.71332E-03-4.32054E-02
 -1       473 5.51092E-05 2.71345E-03-4.32050E-02
 -1       474-6.23427E-04 2.71341E-03-4.32054E-02
 -1       475-1.25095E-03 2.71343E-03-4.32062E-02
 -1       476-2.10399E-04 2.71341E-03-4.32050E-02
 -1       477-1.17055E-04 2.71338E-03-4.32055E-02
 -1       478 3.67541E-05 2.71335E-03-4.32055E-02
 -1       479-1.27617E-03 1.42773E-03-2.29969E-02
 -1       480-1.37868E-03 1.89768E-03-3.03842E-02
 -1       481 1.88901E-03 2.40351E-03-3.81905E-02
 -1       482-1.13005E-03 1.00178E-03-1.63014E-02
 -1       483 1.56408E-03 1.25125E-03-1.95504E-02
 -1       484 1.72576E-03 1.68830E-03-2.66214E-02
 -1       485 1.82827E-03 2.16046E-03-3.42599E-02
 -1       486 1.34892E-03 8.64240E-04-1.32893E-02
 -1       487-3.60364E-04 4.86552E-05-1.32188E-03
 -1       488-4.85878E-04 1.23431E-04-2.49389E-03
 -1       489 2.94181E-04 7.46675E-05-5.15135E-04
 -1       490-7.28010E-04 3.38306E-04-5.87144E-03
 -1       491-8.96621E-04 5.52901E-04-9.24575E-03
 -1       492-6.09532E-04 2.20167E-04-4.01458E-03
 -1       493 1.20290E-04 4.36201E-05-6.68148E-05
 -1       494-1.61985E-04-1.95395E-05-2.41995E-04
 -1       495-1.42067E-03 2.52835E-03-4.02975E-02
 -1       496-9.94746E-04 7.20087E-04-1.18730E-02
 -1       497-1.42479E-03 2.26935E-03-3.62272E-02
 -1       498 5.46745E-04 1.58322E-04-1.86850E-03
 -1       499 1.01608E-03 4.70865E-04-6.92522E-03
 -1       500 1.24074E-03 6.93935E-04-1.05268E-02
 -1       501 7.09743E-04 2.41595E-04-3.21592E-03
 -1       502 8.66606E-04 3.46071E-04-4.90626E-03
 -1       503-1.92201E-05-1.06717E-05 5.25459E-06
 -1       504 1.00704E-03 2.62521E-03-4.17924E-02
 -1       505 1.65195E-03 1.46446E-03-2.29992E-02
 -1       506 1.78464E-03 1.92097E-03-3.03856E-02
 -1       507 1.46275E-03 1.05063E-03-1.63046E-02
 -1       508-1.20843E-03 1.20832E-03-1.95477E-02
 -1       509-1.33320E-03 1.65821E-03-2.66193E-02
 -1       510 2.09959E-04 5.78650E-05-2.46071E-04
 -1       511-2.27905E-04-2.99001E-06-5.08880E-04
 -1       512-2.95574E-04 1.97462E-05-8.69875E-04
 -1       513 4.91516E-05 7.26635E-05-1.07736E-03
 -1       514-1.44340E-03 2.39598E-03-3.82186E-02
 -1       515-1.30608E-03 1.54167E-03-2.47884E-02
 -1       516 1.69066E-03 1.57512E-03-2.47905E-02
 -1       517 1.29658E-03 7.77067E-04-1.18762E-02
 -1       518-1.04213E-03 8.09965E-04-1.32859E-02
 -1       519 1.51511E-03 1.14926E-03-1.79002E-02
 -1       520-1.17042E-03 1.10339E-03-1.78974E-02
 -1       521-5.48331E-04 1.69082E-04-3.21131E-03
 -1       522-7.84995E-04 4.05080E-04-6.92100E-03
 -1       523-8.46848E-04 4.76493E-04-8.04770E-03
 -1       524 1.38664E-04 5.45901E-04-8.62298E-03
 -1       525 9.42320E-04 4.05986E-04-5.87569E-03
 -1       526 1.75704E-03 1.80367E-03-2.84876E-02
 -1       527-1.35737E-03 1.77694E-03-2.84860E-02
 -1       528-9.55844E-04 6.33752E-04-1.05203E-02
 -1       529 1.84423E-03 2.28212E-03-3.62280E-02
 -1       530-1.41240E-03 2.14423E-03-3.42589E-02
 -1       531 7.88999E-04 2.91243E-04-4.01903E-03
 -1       532 6.28910E-04 1.97243E-04-2.49852E-03
 -1       533-1.39700E-03 2.02015E-03-3.23098E-02
 -1       534-4.24150E-04 8.32093E-05-1.86384E-03
 -1       535 1.80840E-03 2.04000E-03-3.23112E-02
 -1       536-1.08733E-03 9.03958E-04-1.47631E-02
 -1       537-6.69468E-04 2.76606E-04-4.90194E-03
 -1       538 1.40735E-03 9.55540E-04-1.47664E-02
 -1       539-1.24361E-03 1.31654E-03-2.12487E-02
 -1       540 1.60975E-03 1.35639E-03-2.12512E-02
 -1       541 1.79431E-05 1.36197E-05-1.45222E-04
 -1       542 2.85491E-05 2.73705E-05-3.57459E-04
 -1       543 4.72490E-04 1.26104E-04-1.33681E-03
 -1       544 3.57015E-05 1.90447E-05 2.71791E-06
 -1       545 1.10779E-03 5.41066E-04-8.05090E-03
 -1       546 1.44592E-04 6.23965E-04-9.86995E-03
 -1       547 2.30511E-04 2.45604E-03-3.91000E-02
 -1       548 3.83569E-04 9.71450E-05-8.67899E-04
 -1       549 2.12081E-04 2.33767E-03-3.72116E-02
 -1       550 5.74520E-05 1.03743E-04-1.57512E-03
 -1       551 2.01398E-04 1.84980E-03-2.94292E-02
 -1       552 1.98042E-04 1.73169E-03-2.75459E-02
 -1       553 1.80586E-04 1.28306E-03-2.03883E-02
 -1       554 2.04403E-04 1.96972E-03-3.13418E-02
 -1       555 1.63243E-04 9.77892E-04-1.55202E-02
 -1       556 1.85519E-04 1.39120E-03-2.21136E-02
 -1       557 1.75135E-04 1.17798E-03-1.87120E-02
 -1       558 1.69355E-04 1.07617E-03-1.70882E-02
 -1       559 2.08882E-04 2.21401E-03-3.52397E-02
 -1       560 2.06810E-04 2.09120E-03-3.32800E-02
 -1       561 1.94360E-04 1.61580E-03-2.56963E-02
 -1       562 1.56822E-04 8.83337E-04-1.40119E-02
 -1       563 1.46989E-04 7.06136E-04-1.11833E-02
 -1       564 6.68922E-05 1.40475E-04-2.16108E-03
 -1       565 7.61783E-05 1.82715E-04-2.83519E-03
 -1       566 9.41783E-05 2.83427E-04-4.44147E-03
 -1       567 1.02887E-04 3.41655E-04-5.37034E-03
 -1       568 8.52107E-05 2.30397E-04-3.59579E-03
 -1       569 1.11445E-04 4.04941E-04-6.38036E-03
 -1       570 1.90112E-04 1.50220E-03-2.38843E-02
 -1       571 1.50017E-04 7.92755E-04-1.25662E-02
 -1       572 1.19603E-04 4.73201E-04-7.46924E-03
 -1       573 1.17944E-03 6.15322E-04-9.25174E-03
 -1       574 3.79763E-05 4.69344E-05-6.69570E-04
 -1       575-6.30176E-04 2.62047E-03-4.17319E-02
 -1       576-9.33223E-05-2.81784E-05-6.28717E-05
 -1       577 1.84522E-03 2.53306E-03-4.02883E-02
 -1       578 1.19614E-05 6.99284E-06-3.58288E-05
 -1       579 7.08908E-05 3.87467E-05-7.94789E-06
 -1       580-5.86399E-05-3.30582E-05-3.98135E-06
 -1       581-1.97124E-03 2.63191E-03-4.19287E-02
 -1       582 2.38658E-03 2.63531E-03-4.19391E-02
 -1       583 2.06475E-04 2.55258E-03-4.06412E-02
 -1       584 3.16051E-05 2.36295E-05 5.02729E-06
 -1       585 4.39853E-05 3.04804E-05-4.68887E-06
 -1       586 1.12867E-04 5.30775E-05-2.87107E-05
 -1       587-3.80722E-05-2.75781E-05-1.82242E-06
 -1       588-2.58749E-05-2.02025E-05 6.68356E-06
 -1       589-9.71708E-05-4.70380E-05-2.25529E-05
 -1       590 2.99072E-03 2.67473E-03-4.25733E-02
 -1       591 2.14312E-03 2.67390E-03-4.25727E-02
 -1       592 2.98898E-03 2.61361E-03-4.15720E-02
 -1       593-1.72276E-03 2.67322E-03-4.25675E-02
 -1       594-2.57043E-03 2.67237E-03-4.25680E-02
 -1       595-2.56903E-03 2.60775E-03-4.15666E-02
 -1       596-1.55314E-05-1.22000E-05 9.76844E-06
 -1       597-3.96569E-06-3.46353E-06 1.20066E-05
 -1       598-3.97617E-05-2.27727E-05 2.02029E-06
 -1       599 1.07836E-05 6.84752E-06 1.28848E-05
 -1       600 2.30790E-05 1.65894E-05 8.80046E-06
 -1       601 7.53292E-06 4.11822E-06 6.01538E-06
 -1       602 5.43070E-05 2.99218E-05-1.30560E-06
 -1       603-2.08733E-04 2.66732E-03-4.24684E-02
 -1       604-1.05200E-03 2.66728E-03-4.24687E-02
 -1       605-1.29997E-03 2.62624E-03-4.18303E-02
 -1       606 1.45314E-03 2.66920E-03-4.24989E-02
 -1       607 6.09896E-04 2.66919E-03-4.24986E-02
 -1       608 1.88571E-04 2.62289E-03-4.17621E-02
 -1       609 1.69614E-03 2.63023E-03-4.18657E-02
 -1       610-1.77663E-04-4.67289E-05-1.10539E-04
 -1       611-1.27789E-04-4.66148E-05-4.93642E-05
 -1       612-8.09187E-05-3.33031E-05-2.48421E-05
 -1       613-2.84349E-04-3.67859E-05-3.11416E-04
 -1       614-2.32321E-04-4.32245E-05-2.00666E-04
 -1       615-1.27263E-04-2.51507E-05-1.39465E-04
 -1       616-3.89473E-04-1.85427E-05-6.02149E-04
 -1       617-3.36922E-04-2.85786E-05-4.44941E-04
 -1       618-1.94839E-04-1.21051E-05-3.63908E-04
 -1       619-4.95241E-04 5.94700E-06-9.85750E-04
 -1       620-4.42854E-04-7.08893E-06-7.82738E-04
 -1       621-2.61675E-04 7.63663E-06-6.77876E-04
 -1       622-5.98863E-04 3.64424E-05-1.46000E-03
 -1       623-5.47016E-04 2.04976E-05-1.21175E-03
 -1       624-3.28103E-04 3.34752E-05-1.08453E-03
 -1       625-7.01009E-04 7.26302E-05-2.02380E-03
 -1       626-6.49915E-04 5.38556E-05-1.73092E-03
 -1       627-3.92400E-04 6.52329E-05-1.58167E-03
 -1       628-8.01064E-04 1.14520E-04-2.67568E-03
 -1       629-7.50782E-04 9.28988E-05-2.33875E-03
 -1       630-4.55213E-04 1.02630E-04-2.16786E-03
 -1       631-9.00379E-04 1.61874E-04-3.41451E-03
 -1       632-8.50927E-04 1.37508E-04-3.03433E-03
 -1       633-5.17256E-04 1.45592E-04-2.84181E-03
 -1       634-9.97676E-04 2.14733E-04-4.23874E-03
 -1       635-9.49259E-04 1.87607E-04-3.81606E-03
 -1       636-5.79074E-04 1.93936E-04-3.60232E-03
 -1       637-1.09283E-03 2.72962E-04-5.14658E-03
 -1       638-1.04554E-03 2.43163E-04-4.68235E-03
 -1       639-6.39678E-04 2.47736E-04-4.44786E-03
 -1       640-1.18566E-03 3.36422E-04-6.13608E-03
 -1       641-1.13954E-03 3.04028E-04-5.63125E-03
 -1       642-6.98950E-04 3.06836E-04-5.37655E-03
 -1       643-1.27603E-03 4.04925E-04-7.20503E-03
 -1       644-1.23115E-03 3.70043E-04-6.66077E-03
 -1       645-7.56727E-04 3.71097E-04-6.38639E-03
 -1       646-1.36687E-03 4.78294E-04-8.35092E-03
 -1       647-1.32338E-03 4.40907E-04-7.76829E-03
 -1       648-8.16008E-04 4.40160E-04-7.47477E-03
 -1       649-1.44964E-03 5.56517E-04-9.56949E-03
 -1       650-1.40762E-03 5.16744E-04-8.94989E-03
 -1       651-8.72057E-04 5.14091E-04-8.63752E-03
 -1       652-1.53506E-03 6.39313E-04-1.08621E-02
 -1       653-1.49455E-03 5.97248E-04-1.02068E-02
 -1       654-9.26381E-04 5.92745E-04-9.87409E-03
 -1       655-1.60795E-03 7.27024E-04-1.22280E-02
 -1       656-1.56932E-03 6.82808E-04-1.15383E-02
 -1       657-9.75689E-04 6.76396E-04-1.11879E-02
 -1       658-1.68272E-03 8.18680E-04-1.36571E-02
 -1       659-1.64576E-03 7.72303E-04-1.29344E-02
 -1       660-1.01874E-03 7.64523E-04-1.25712E-02
 -1       661-1.75400E-03 9.14316E-04-1.51494E-02
 -1       662-1.71877E-03 8.66004E-04-1.43955E-02
 -1       663-1.06505E-03 8.56508E-04-1.40168E-02
 -1       664-1.82129E-03 1.01389E-03-1.67020E-02
 -1       665-1.78811E-03 9.63605E-04-1.59184E-02
 -1       666-1.10895E-03 9.52367E-04-1.55249E-02
 -1       667-1.88489E-03 1.11714E-03-1.83115E-02
 -1       668-1.85359E-03 1.06503E-03-1.74999E-02
 -1       669-1.15057E-03 1.05214E-03-1.70924E-02
 -1       670-1.94432E-03 1.22369E-03-1.99744E-02
 -1       671-1.91521E-03 1.17000E-03-1.91365E-02
 -1       672-1.18971E-03 1.15546E-03-1.87160E-02
 -1       673-1.99969E-03 1.33352E-03-2.16870E-02
 -1       674-1.97252E-03 1.27817E-03-2.08247E-02
 -1       675-1.22639E-03 1.26199E-03-2.03920E-02
 -1       676-2.05064E-03 1.44632E-03-2.34460E-02
 -1       677-2.02567E-03 1.38952E-03-2.25610E-02
 -1       678-1.26024E-03 1.37175E-03-2.21171E-02
 -1       679-2.09724E-03 1.56181E-03-2.52473E-02
 -1       680-2.07455E-03 1.50372E-03-2.43416E-02
 -1       681-1.29149E-03 1.48439E-03-2.38874E-02
 -1       682-2.13937E-03 1.67978E-03-2.70870E-02
 -1       683-2.11883E-03 1.62048E-03-2.61626E-02
 -1       684-1.32004E-03 1.59967E-03-2.56992E-02
 -1       685-2.17691E-03 1.79999E-03-2.89614E-02
 -1       686-2.15873E-03 1.73960E-03-2.80202E-02
 -1       687-1.34564E-03 1.71729E-03-2.75485E-02
 -1       688-2.20979E-03 1.92212E-03-3.08664E-02
 -1       689-2.19396E-03 1.86081E-03-2.99104E-02
 -1       690-1.36838E-03 1.83709E-03-2.94314E-02
 -1       691-2.23784E-03 2.04597E-03-3.27978E-02
 -1       692-2.22442E-03 1.98382E-03-3.18290E-02
 -1       693-1.38822E-03 1.95873E-03-3.13438E-02
 -1       694-2.26118E-03 2.17128E-03-3.47516E-02
 -1       695-2.25006E-03 2.10843E-03-3.37721E-02
 -1       696-1.40512E-03 2.08204E-03-3.32817E-02
 -1       697-2.27965E-03 2.29764E-03-3.67234E-02
 -1       698-2.27113E-03 2.23432E-03-3.57355E-02
 -1       699-1.41894E-03 2.20671E-03-3.52409E-02
 -1       700-2.29790E-03 2.42520E-03-3.87133E-02
 -1       701-2.29171E-03 2.36142E-03-3.77189E-02
 -1       702-1.43450E-03 2.33259E-03-3.72213E-02
 -1       703-2.29206E-03 2.55580E-03-4.07511E-02
 -1       704-2.28848E-03 2.49180E-03-3.97524E-02
 -1       705-1.43255E-03 2.46213E-03-3.92570E-02
 -1       706-1.69588E-03 2.57997E-03-4.11128E-02
 -1       707 1.50479E-04 5.74004E-05-5.55607E-05
 -1       708 2.10071E-04 6.54112E-05-1.17357E-04
 -1       709 1.00454E-04 4.29874E-05-2.92896E-05
 -1       710 2.75058E-04 7.33033E-05-2.07665E-04
 -1       711 3.36956E-04 8.08338E-05-3.18410E-04
 -1       712 1.64684E-04 5.04423E-05-1.43627E-04
 -1       713 3.98764E-04 8.92973E-05-4.52966E-04
 -1       714 4.60953E-04 9.90031E-05-6.10268E-04
 -1       715 2.52130E-04 6.56471E-05-3.68895E-04
 -1       716 5.24713E-04 1.10175E-04-7.86935E-04
 -1       717 5.86927E-04 1.22602E-04-9.89501E-04
 -1       718 3.38591E-04 8.52362E-05-6.80529E-04
 -1       719 6.51243E-04 1.36983E-04-1.22393E-03
 -1       720 7.12850E-04 1.52231E-04-1.47256E-03
 -1       721 4.28162E-04 1.10868E-04-1.09017E-03
 -1       722 7.68675E-04 1.68211E-04-1.73805E-03
 -1       723 8.29138E-04 1.86181E-04-2.03090E-03
 -1       724 5.10072E-04 1.41542E-04-1.59191E-03
 -1       725 8.89162E-04 2.05513E-04-2.34584E-03
 -1       726 9.48736E-04 2.26172E-04-2.68270E-03
 -1       727 5.87998E-04 1.77099E-04-2.17252E-03
 -1       728 1.00780E-03 2.48184E-04-3.04130E-03
 -1       729 1.06626E-03 2.71526E-04-3.42141E-03
 -1       730 6.69492E-04 2.18740E-04-2.84639E-03
 -1       731 1.12421E-03 2.96195E-04-3.82288E-03
 -1       732 1.18154E-03 3.22102E-04-4.24548E-03
 -1       733 7.49584E-04 2.65780E-04-3.60683E-03
 -1       734 1.23823E-03 3.49335E-04-4.68899E-03
 -1       735 1.29429E-03 3.77811E-04-5.15316E-03
 -1       736 8.28044E-04 3.18012E-04-4.45228E-03
 -1       737 1.34963E-03 4.07562E-04-5.63776E-03
 -1       738 1.40424E-03 4.38514E-04-6.14250E-03
 -1       739 9.04699E-04 3.75405E-04-5.38084E-03
 -1       740 1.45813E-03 4.70722E-04-6.66711E-03
 -1       741 1.51114E-03 5.04141E-04-7.21130E-03
 -1       742 9.79443E-04 4.37799E-04-6.39057E-03
 -1       743 1.57337E-03 5.39026E-04-7.77412E-03
 -1       744 1.62517E-03 5.74736E-04-8.35660E-03
 -1       745 1.06190E-03 5.05412E-04-7.47848E-03
 -1       746 1.67657E-03 6.11618E-04-8.95692E-03
 -1       747 1.72658E-03 6.49600E-04-9.57645E-03
 -1       748 1.14390E-03 5.77642E-04-8.64208E-03
 -1       749 1.77234E-03 6.88649E-04-1.02139E-02
 -1       750 1.82032E-03 7.28865E-04-1.08691E-02
 -1       751 1.21049E-03 6.54065E-04-9.88034E-03
 -1       752 1.86292E-03 7.70184E-04-1.15437E-02
 -1       753 1.90889E-03 8.12466E-04-1.22333E-02
 -1       754 1.26914E-03 7.34995E-04-1.11929E-02
 -1       755 1.94915E-03 8.55742E-04-1.29397E-02
 -1       756 1.99293E-03 9.00070E-04-1.36622E-02
 -1       757 1.32321E-03 8.20157E-04-1.25746E-02
 -1       758 2.03564E-03 9.45409E-04-1.44005E-02
 -1       759 2.07723E-03 9.91665E-04-1.51543E-02
 -1       760 1.37849E-03 9.09403E-04-1.40201E-02
 -1       761 2.11772E-03 1.03886E-03-1.59232E-02
 -1       762 2.15704E-03 1.08691E-03-1.67066E-02
 -1       763 1.43543E-03 1.00263E-03-1.55280E-02
 -1       764 2.19524E-03 1.13592E-03-1.75043E-02
 -1       765 2.23233E-03 1.18573E-03-1.83158E-02
 -1       766 1.48937E-03 1.09947E-03-1.70954E-02
 -1       767 2.26815E-03 1.23636E-03-1.91406E-02
 -1       768 2.30277E-03 1.28776E-03-1.99784E-02
 -1       769 1.53998E-03 1.19984E-03-1.87188E-02
 -1       770 2.33612E-03 1.33997E-03-2.08286E-02
 -1       771 2.36825E-03 1.39287E-03-2.16908E-02
 -1       772 1.58733E-03 1.30345E-03-2.03947E-02
 -1       773 2.39907E-03 1.44653E-03-2.25646E-02
 -1       774 2.42860E-03 1.50078E-03-2.34494E-02
 -1       775 1.63129E-03 1.41007E-03-2.21195E-02
 -1       776 2.45684E-03 1.55577E-03-2.43448E-02
 -1       777 2.48384E-03 1.61132E-03-2.52504E-02
 -1       778 1.67178E-03 1.51943E-03-2.38896E-02
 -1       779 2.50952E-03 1.66750E-03-2.61656E-02
 -1       780 2.53367E-03 1.72426E-03-2.70898E-02
 -1       781 1.70864E-03 1.63140E-03-2.57012E-02
 -1       782 2.55659E-03 1.78159E-03-2.80228E-02
 -1       783 2.57812E-03 1.83925E-03-2.89638E-02
 -1       784 1.74190E-03 1.74577E-03-2.75502E-02
 -1       785 2.59825E-03 1.89752E-03-2.99126E-02
 -1       786 2.61709E-03 1.95617E-03-3.08685E-02
 -1       787 1.77134E-03 1.86207E-03-2.94329E-02
 -1       788 2.63447E-03 2.01525E-03-3.18310E-02
 -1       789 2.65035E-03 2.07470E-03-3.27996E-02
 -1       790 1.79699E-03 1.98030E-03-3.13452E-02
 -1       791 2.66482E-03 2.13454E-03-3.37737E-02
 -1       792 2.67796E-03 2.19461E-03-3.47530E-02
 -1       793 1.81886E-03 2.10008E-03-3.32829E-02
 -1       794 2.68964E-03 2.25500E-03-3.57368E-02
 -1       795 2.69978E-03 2.31562E-03-3.67245E-02
 -1       796 1.83671E-03 2.22115E-03-3.52418E-02
 -1       797 2.72495E-03 2.37594E-03-3.77056E-02
 -1       798 2.73230E-03 2.43695E-03-3.86997E-02
 -1       799 1.86709E-03 2.34275E-03-3.72076E-02
 -1       800 2.71241E-03 2.50134E-03-3.97483E-02
 -1       801 2.71665E-03 2.56265E-03-4.07467E-02
 -1       802 1.86778E-03 2.46823E-03-3.92382E-02
 -1       803 2.11592E-03 2.58428E-03-4.11134E-02
 -1       804-5.53476E-04 1.52175E-03-2.43341E-02
 -1       805-5.47137E-04 1.46514E-03-2.34381E-02
 -1       806-5.40476E-04 1.40927E-03-2.25528E-02
 -1       807-5.33509E-04 1.35401E-03-2.16785E-02
 -1       808 1.87860E-04 1.44637E-03-2.29935E-02
 -1       809-5.85326E-04 1.87351E-03-2.99051E-02
 -1       810-5.80813E-04 1.81356E-03-2.89558E-02
 -1       811-5.93477E-04 1.99472E-03-3.18245E-02
 -1       812-5.89579E-04 1.93387E-03-3.08614E-02
 -1       813 2.02941E-04 1.90950E-03-3.03820E-02
 -1       814 1.02927E-03 2.30970E-03-3.67189E-02
 -1       815 1.04898E-03 2.37078E-03-3.77004E-02
 -1       816 1.06037E-03 2.42961E-03-3.86446E-02
 -1       817 2.21325E-04 2.39677E-03-3.81545E-02
 -1       818 1.03669E-03 2.49474E-03-3.96938E-02
 -1       819-4.94525E-04 1.08960E-03-1.74897E-02
 -1       820-4.85980E-04 1.03912E-03-1.66915E-02
 -1       821-4.77073E-04 9.89640E-04-1.59075E-02
 -1       822-4.67970E-04 9.41058E-04-1.51383E-02
 -1       823 1.66342E-04 1.02658E-03-1.62970E-02
 -1       824 8.50374E-04 1.16342E-03-1.83030E-02
 -1       825 8.63992E-04 1.21476E-03-1.91283E-02
 -1       826 8.77233E-04 1.26697E-03-1.99664E-02
 -1       827 8.89936E-04 1.31989E-03-2.08171E-02
 -1       828 1.77895E-04 1.23012E-03-1.95437E-02
 -1       829 9.46184E-04 1.59524E-03-2.52411E-02
 -1       830 9.55950E-04 1.65222E-03-2.61568E-02
 -1       831 9.65269E-04 1.70987E-03-2.70815E-02
 -1       832 9.73955E-04 1.76788E-03-2.80150E-02
 -1       833 1.96262E-04 1.67351E-03-2.66166E-02
 -1       834 1.02014E-03 2.18702E-03-3.47487E-02
 -1       835 1.02456E-03 2.24826E-03-3.57330E-02
 -1       836 1.00964E-03 2.06543E-03-3.27942E-02
 -1       837 1.01522E-03 2.12601E-03-3.37689E-02
 -1       838 2.07906E-04 2.15245E-03-3.42575E-02
 -1       839 7.30011E-04 7.84748E-04-1.22173E-02
 -1       840 7.42512E-04 8.28585E-04-1.29241E-02
 -1       841 7.59200E-04 8.73618E-04-1.36470E-02
 -1       842 7.75471E-04 9.19571E-04-1.43857E-02
 -1       843 1.53443E-04 8.37522E-04-1.32810E-02
 -1       844-1.46097E-04 6.05808E-05-1.19443E-03
 -1       845-1.32623E-04 4.62261E-05-9.68377E-04
 -1       846-1.60706E-04 7.62294E-05-1.44333E-03
 -1       847 5.33824E-05 8.74976E-05-1.31495E-03
 -1       848-1.74006E-04 9.33928E-05-1.71438E-03
 -1       849-2.27071E-04 1.75817E-04-3.01837E-03
 -1       850-2.13750E-04 1.53126E-04-2.65957E-03
 -1       851-2.00338E-04 1.31856E-04-2.32250E-03
 -1       852-1.87733E-04 1.11859E-04-2.00736E-03
 -1       853 7.15429E-05 1.60909E-04-2.48721E-03
 -1       854 1.28707E-04 4.26489E-05-2.96371E-04
 -1       855 1.51877E-04 5.10145E-05-4.31070E-04
 -1       856 3.32842E-05 3.64451E-05-5.02215E-04
 -1       857 1.75317E-04 6.07485E-05-5.87209E-04
 -1       858 2.01378E-04 7.20725E-05-7.63601E-04
 -1       859-3.28534E-04 4.04911E-04-6.64626E-03
 -1       860-3.16369E-04 3.71719E-04-6.12134E-03
 -1       861-3.04042E-04 3.39863E-04-5.61630E-03
 -1       862-2.91597E-04 3.09203E-04-5.13146E-03
 -1       863 1.07189E-04 3.72666E-04-5.86533E-03
 -1       864-3.71004E-04 5.49236E-04-8.93009E-03
 -1       865-3.61600E-04 5.11290E-04-8.33107E-03
 -1       866-3.83373E-04 5.88546E-04-9.55365E-03
 -1       867 1.41697E-04 5.84364E-04-9.23725E-03
 -1       868-3.97955E-04 6.28713E-04-1.01910E-02
 -1       869-2.53265E-04 2.25162E-04-3.80038E-03
 -1       870-2.40226E-04 1.99800E-04-3.39867E-03
 -1       871-2.78955E-04 2.79895E-04-4.66701E-03
 -1       872-2.66176E-04 2.51851E-04-4.22324E-03
 -1       873 8.97150E-05 2.56248E-04-4.00812E-03
 -1       874 8.01489E-05 2.90884E-05-9.94170E-05
 -1       875 1.05457E-04 3.57393E-05-1.90840E-04
 -1       876 6.29292E-05 2.51397E-05-4.84609E-05
 -1       877 1.51526E-05 9.90231E-06-8.34992E-05
 -1       878 7.14095E-05 3.07786E-05-2.49066E-05
 -1       879 2.86998E-05 1.36096E-05-1.23436E-05
 -1       880-9.02580E-05 1.21354E-05-4.27986E-04
 -1       881-7.60667E-05 3.80295E-06-2.94409E-04
 -1       882-6.36266E-05-2.93538E-06-1.88880E-04
 -1       883 2.31087E-05 1.98491E-05-2.40737E-04
 -1       884-4.85179E-05-8.01619E-06-9.74649E-05
 -1       885-5.93824E-04 2.49196E-03-3.96983E-02
 -1       886-6.06988E-04 2.42621E-03-3.86588E-02
 -1       887-6.06811E-04 2.54059E-03-4.04692E-02
 -1       888 2.18532E-04 2.50428E-03-3.98701E-02
 -1       889-1.02572E-03 2.57455E-03-4.10144E-02
 -1       890-2.11624E-04 2.58636E-03-4.11864E-02
 -1       891-4.39143E-04 8.01180E-04-1.29224E-02
 -1       892-4.29067E-04 7.56496E-04-1.22157E-02
 -1       893-4.16535E-04 7.12948E-04-1.15243E-02
 -1       894-4.11500E-04 6.70084E-04-1.08477E-02
 -1       895 1.48575E-04 7.48880E-04-1.18663E-02
 -1       896-6.14141E-04 2.36661E-03-3.77145E-02
 -1       897-6.07573E-04 2.30365E-03-3.67185E-02
 -1       898-6.05929E-04 2.24150E-03-3.57325E-02
 -1       899-6.03289E-04 2.17934E-03-3.47482E-02
 -1       900 2.10509E-04 2.27572E-03-3.62237E-02
 -1       901 3.15856E-04 1.49308E-04-2.00973E-03
 -1       902 3.38743E-04 1.68893E-04-2.32482E-03
 -1       903 2.73962E-04 1.14855E-04-1.45095E-03
 -1       904 2.92801E-04 1.31057E-04-1.71674E-03
 -1       905 6.21814E-05 1.21412E-04-1.85699E-03
 -1       906 5.34930E-04 4.05324E-04-6.12345E-03
 -1       907 5.55450E-04 4.37994E-04-6.64834E-03
 -1       908 5.75707E-04 4.71940E-04-7.19276E-03
 -1       909 6.05547E-04 5.07252E-04-7.75571E-03
 -1       910 1.15546E-04 4.38485E-04-6.91507E-03
 -1       911 7.00914E-04 6.99893E-04-1.08510E-02
 -1       912 7.14533E-04 7.41725E-04-1.15259E-02
 -1       913 6.85048E-04 6.59050E-04-1.01944E-02
 -1       914 1.45891E-04 6.64520E-04-1.05178E-02
 -1       915 6.69383E-04 6.19497E-04-9.55663E-03
 -1       916 4.06224E-04 2.35920E-04-3.40094E-03
 -1       917 4.28270E-04 2.60884E-04-3.80262E-03
 -1       918 3.61416E-04 1.89879E-04-2.66187E-03
 -1       919 3.83908E-04 2.12208E-04-3.02065E-03
 -1       920 8.07107E-05 2.05900E-04-3.20476E-03
 -1       921 4.93051E-04 3.43734E-04-5.13361E-03
 -1       922 5.14111E-04 3.73883E-04-5.61845E-03
 -1       923 4.50093E-04 2.87225E-04-4.22546E-03
 -1       924 4.71721E-04 3.14805E-04-4.66919E-03
 -1       925 9.85566E-05 3.11878E-04-4.89563E-03
 -1       926-8.85630E-06-2.77513E-06-1.05000E-05
 -1       927-4.93522E-05-1.94722E-05-2.09514E-05
 -1       928-3.73073E-05-1.01894E-05-4.65005E-05
 -1       929 6.06579E-04 2.58902E-03-4.12167E-02
 -1       930 1.42651E-03 2.57894E-03-4.10400E-02
 -1       931 1.02554E-03 2.54272E-03-4.04646E-02
 -1       932 9.25190E-04 1.48312E-03-2.34393E-02
 -1       933 9.35901E-04 1.53881E-03-2.43351E-02
 -1       934 9.02147E-04 1.37363E-03-2.16797E-02
 -1       935 9.13903E-04 1.42799E-03-2.25539E-02
 -1       936 9.82153E-04 1.82652E-03-2.89566E-02
 -1       937 9.89789E-04 1.88555E-03-2.99058E-02
 -1       938 9.96920E-04 1.94512E-03-3.08621E-02
 -1       939 1.00354E-03 2.00505E-03-3.18252E-02
 -1       940 8.21759E-04 1.06322E-03-1.66930E-02
 -1       941 8.36304E-04 1.11283E-03-1.74911E-02
 -1       942 7.91273E-04 9.66539E-04-1.51399E-02
 -1       943 8.06715E-04 1.01441E-03-1.59091E-02
 -1       944-5.10975E-04 1.19297E-03-1.91269E-02
 -1       945-5.02879E-04 1.14085E-03-1.83016E-02
 -1       946-5.26314E-04 1.29958E-03-2.08158E-02
 -1       947-5.18881E-04 1.24579E-03-1.99651E-02
 -1       948-5.65373E-04 1.63681E-03-2.61558E-02
 -1       949-5.59521E-04 1.57890E-03-2.52401E-02
 -1       950-5.75955E-04 1.75415E-03-2.80141E-02
 -1       951-5.70818E-04 1.69514E-03-2.70806E-02
 -1       952-1.19170E-04 3.32637E-05-7.64437E-04
 -1       953-1.04302E-04 2.19664E-05-5.84016E-04
 -1       954 4.34991E-05 5.90809E-05-8.61982E-04
 -1       955 2.50913E-04 9.93960E-05-1.20165E-03
 -1       956 2.26142E-04 8.48264E-05-9.67161E-04
 -1       957 1.92287E-04 1.55866E-03-2.47854E-02
 -1       958-4.58688E-04 8.93517E-04-1.43841E-02
 -1       959-4.49007E-04 8.46798E-04-1.36453E-02
 -1       960 1.72301E-04 1.12665E-03-1.78933E-02
 -1       961-3.55488E-04 4.74698E-04-7.75413E-03
 -1       962-3.40452E-04 4.39240E-04-7.19070E-03
 -1       963 1.28992E-04 5.08964E-04-8.03688E-03
 -1       964 6.30710E-04 5.43358E-04-8.33268E-03
 -1       965 6.51076E-04 5.80712E-04-8.93310E-03
 -1       966 1.99781E-04 1.79052E-03-2.84836E-02
 -1       967-6.00394E-04 2.11751E-03-3.37684E-02
 -1       968-5.97051E-04 2.05586E-03-3.27936E-02
 -1       969 2.05661E-04 2.03026E-03-3.23080E-02
 -1       970 1.60070E-04 9.30138E-04-1.47586E-02
 -1       971 1.83098E-04 1.33677E-03-2.12451E-02
 -1       972-1.65197E-03 1.46436E-03-2.29993E-02
 -1       973-1.78467E-03 1.92096E-03-3.03857E-02
 -1       974 1.46677E-03 2.39419E-03-3.81900E-02
 -1       975-1.46282E-03 1.05058E-03-1.63046E-02
 -1       976-1.56406E-03 1.25118E-03-1.95505E-02
 -1       977-1.72572E-03 1.68826E-03-2.66215E-02
 -1       978 1.41240E-03 2.14427E-03-3.42590E-02
 -1       979 1.04208E-03 8.10013E-04-1.32860E-02
 -1       980-4.65778E-04 1.25014E-04-1.32673E-03
 -1       981-6.28914E-04 1.97225E-04-2.49858E-03
 -1       982 2.27328E-04-2.77201E-06-5.10321E-04
 -1       983-9.42329E-04 4.05961E-04-5.87574E-03
 -1       984-1.15974E-03 6.14599E-04-9.24971E-03
 -1       985-7.89023E-04 2.91235E-04-4.01908E-03
 -1       986 9.34843E-05-2.83256E-05-6.26492E-05
 -1       987-2.09244E-04 5.77419E-05-2.46878E-04
 -1       988-1.84479E-03 2.53361E-03-4.02980E-02
 -1       989 1.30608E-03 1.54173E-03-2.47885E-02
 -1       990-1.28761E-03 7.76876E-04-1.18765E-02
 -1       991-1.84421E-03 2.28209E-03-3.62281E-02
 -1       992 1.17038E-03 1.10341E-03-1.78975E-02
 -1       993 1.35736E-03 1.77699E-03-2.84861E-02
 -1       994 1.24364E-03 1.31658E-03-2.12488E-02
 -1       995 4.22394E-04 8.33743E-05-1.86387E-03
 -1       996 7.84954E-04 4.05120E-04-6.92107E-03
 -1       997 9.62438E-04 6.33759E-04-1.05231E-02
 -1       998 5.48322E-04 1.69105E-04-3.21136E-03
 -1       999 6.69463E-04 2.76630E-04-4.90200E-03
 -1      1000-3.14096E-05 1.71392E-05 3.79084E-06
 -1      1001 5.82105E-04 2.62441E-03-4.17925E-02
 -1      1002 1.62678E-04-1.98414E-05-2.41275E-04
 -1      1003-2.94664E-04 7.46941E-05-5.13802E-04
 -1      1004-3.81750E-04 9.71848E-05-8.74790E-04
 -1      1005-4.66507E-05 7.24073E-05-1.07738E-03
 -1      1006-1.86560E-03 2.40521E-03-3.82194E-02
 -1      1007-1.69064E-03 1.57507E-03-2.47906E-02
 -1      1008 1.37867E-03 1.89773E-03-3.03843E-02
 -1      1009 1.13009E-03 1.00182E-03-1.63015E-02
 -1      1010 1.00379E-03 7.19868E-04-1.18728E-02
 -1      1011-1.34892E-03 8.64216E-04-1.32894E-02
 -1      1012-1.51508E-03 1.14922E-03-1.79004E-02
 -1      1013 1.08729E-03 9.03964E-04-1.47632E-02
 -1      1014-7.09731E-04 2.41576E-04-3.21596E-03
 -1      1015-1.01609E-03 4.70840E-04-6.92526E-03
 -1      1016-1.09424E-03 5.40670E-04-8.05176E-03
 -1      1017-1.16516E-04 5.45209E-04-8.62305E-03
 -1      1018 7.28022E-04 3.38346E-04-5.87149E-03
 -1      1019 1.20828E-03 1.20834E-03-1.95478E-02
 -1      1020-1.75709E-03 1.80365E-03-2.84877E-02
 -1      1021-1.23407E-03 6.93573E-04-1.05241E-02
 -1      1022 1.42469E-03 2.26946E-03-3.62272E-02
 -1      1023-1.82822E-03 2.16040E-03-3.42600E-02
 -1      1024 6.09521E-04 2.20190E-04-4.01463E-03
 -1      1025 4.85869E-04 1.23456E-04-2.49394E-03
 -1      1026-1.80844E-03 2.03995E-03-3.23112E-02
 -1      1027 1.27617E-03 1.42779E-03-2.29970E-02
 -1      1028-5.48486E-04 1.58410E-04-1.86859E-03
 -1      1029-1.40734E-03 9.55540E-04-1.47665E-02
 -1      1030-8.66618E-04 3.46047E-04-4.90631E-03
 -1      1031 1.39699E-03 2.02021E-03-3.23100E-02
 -1      1032-1.60976E-03 1.35633E-03-2.12513E-02
 -1      1033 1.33319E-03 1.65826E-03-2.66195E-02
 -1      1034-2.04995E-05 1.42403E-05-1.45201E-04
 -1      1035-2.85551E-05 2.73927E-05-3.57522E-04
 -1      1036 3.66699E-04 4.88338E-05-1.33203E-03
 -1      1037 2.24031E-05-1.19747E-05 4.12975E-06
 -1      1038 8.60436E-04 4.75994E-04-8.04690E-03
 -1      1039-1.26161E-04 6.23431E-04-9.86989E-03
 -1      1040-1.92638E-04 2.45601E-03-3.91002E-02
 -1      1041 2.97717E-04 1.89334E-05-8.63018E-04
 -1      1042-2.08893E-04 2.33759E-03-3.72116E-02
 -1      1043-5.74570E-05 1.03740E-04-1.57514E-03
 -1      1044-2.01413E-04 1.84976E-03-2.94293E-02
 -1      1045-2.04402E-04 1.96973E-03-3.13419E-02
 -1      1046-1.94365E-04 1.61581E-03-2.56964E-02
 -1      1047-2.08918E-04 2.21400E-03-3.52398E-02
 -1      1048-1.75127E-04 1.17798E-03-1.87121E-02
 -1      1049-1.56870E-04 8.83324E-04-1.40120E-02
 -1      1050-1.80555E-04 1.28310E-03-2.03884E-02
 -1      1051-1.85531E-04 1.39123E-03-2.21138E-02
 -1      1052-2.06850E-04 2.09116E-03-3.32801E-02
 -1      1053-1.98049E-04 1.73169E-03-2.75460E-02
 -1      1054-1.38606E-04 7.05916E-04-1.11834E-02
 -1      1055-6.68944E-05 1.40489E-04-2.16113E-03
 -1      1056-7.61851E-05 1.82714E-04-2.83524E-03
 -1      1057-1.63233E-04 9.77879E-04-1.55203E-02
 -1      1058-9.41887E-05 2.83430E-04-4.44152E-03
 -1      1059-1.02895E-04 3.41658E-04-5.37039E-03
 -1      1060-8.52214E-05 2.30396E-04-3.59584E-03
 -1      1061-1.69408E-04 1.07615E-03-1.70882E-02
 -1      1062-1.90123E-04 1.50220E-03-2.38844E-02
 -1      1063-1.11457E-04 4.04937E-04-6.38041E-03
 -1      1064-1.50023E-04 7.92756E-04-1.25662E-02
 -1      1065-1.19623E-04 4.73200E-04-7.46930E-03
 -1      1066 9.16357E-04 5.52429E-04-9.24780E-03
 -1      1067-3.84327E-05 4.69712E-05-6.69622E-04
 -1      1068-1.05515E-03 2.62151E-03-4.17322E-02
 -1      1069-1.20297E-04 4.34745E-05-6.71337E-05
 -1      1070 1.42113E-03 2.52780E-03-4.02882E-02
 -1      1071-1.13781E-05 6.59583E-06-3.57969E-05
 -1      1072 5.94246E-05-3.34222E-05-4.23118E-06
 -1      1073-6.98408E-05 3.86922E-05-7.39882E-06
 -1      1074-2.39620E-03 2.63461E-03-4.19291E-02
 -1      1075 1.96162E-03 2.63262E-03-4.19390E-02
 -1      1076-2.17931E-04 2.55266E-03-4.06412E-02
 -1      1077 3.84356E-05-2.77746E-05-1.83782E-06
 -1      1078 2.62083E-05-2.03935E-05 6.85752E-06
 -1      1079 9.76851E-05-4.71717E-05-2.28398E-05
 -1      1080-3.05559E-05 2.29317E-05 4.41161E-06
 -1      1081-4.34879E-05 3.01468E-05-4.54519E-06
 -1      1082-1.12222E-04 5.29940E-05-2.84984E-05
 -1      1083 1.71794E-03 2.67368E-03-4.25727E-02
 -1      1084 2.56561E-03 2.67280E-03-4.25732E-02
 -1      1085 2.56422E-03 2.60818E-03-4.15718E-02
 -1      1086-2.99555E-03 2.67431E-03-4.25683E-02
 -1      1087-2.14797E-03 2.67357E-03-4.25678E-02
 -1      1088-2.99378E-03 2.61317E-03-4.15670E-02
 -1      1089-9.69846E-06 7.03807E-06 1.17303E-05
 -1      1090-2.27486E-05 1.70752E-05 9.44950E-06
 -1      1091-5.18821E-05 2.86974E-05-1.52804E-07
 -1      1092 1.67927E-05-1.27991E-05 1.00545E-05
 -1      1093 4.40198E-06-2.89009E-06 1.32460E-05
 -1      1094-5.31422E-06 2.88152E-06 5.93941E-06
 -1      1095 4.19465E-05-2.36317E-05 1.24641E-06
 -1      1096-1.47720E-03 2.66722E-03-4.24689E-02
 -1      1097-6.33949E-04 2.66725E-03-4.24686E-02
 -1      1098-1.72495E-03 2.62802E-03-4.18306E-02
 -1      1099 1.84696E-04 2.66920E-03-4.24987E-02
 -1      1100 1.02794E-03 2.66919E-03-4.24990E-02
 -1      1101-2.36404E-04 2.62293E-03-4.17623E-02
 -1      1102 1.27118E-03 2.62856E-03-4.18657E-02
 -1      1103-1.50491E-04 5.73134E-05-5.57303E-05
 -1      1104-2.10082E-04 6.55185E-05-1.17617E-04
 -1      1105-9.99271E-05 4.27584E-05-2.91170E-05
 -1      1106-2.74900E-04 7.31125E-05-2.08048E-04
 -1      1107-3.36653E-04 8.07428E-05-3.18837E-04
 -1      1108-1.64349E-04 5.02552E-05-1.44115E-04
 -1      1109-3.98883E-04 8.92836E-05-4.52383E-04
 -1      1110-4.61112E-04 9.89940E-05-6.09581E-04
 -1      1111-2.51845E-04 6.55842E-05-3.68813E-04
 -1      1112-5.24230E-04 1.10180E-04-7.90161E-04
 -1      1113-5.86253E-04 1.22619E-04-9.93134E-04
 -1      1114-3.38175E-04 8.52391E-05-6.82801E-04
 -1      1115-6.47625E-04 1.36447E-04-1.21908E-03
 -1      1116-7.08985E-04 1.51653E-04-1.46727E-03
 -1      1117-4.23923E-04 1.10408E-04-1.08942E-03
 -1      1118-7.69524E-04 1.68246E-04-1.73813E-03
 -1      1119-8.30071E-04 1.86204E-04-2.03098E-03
 -1      1120-5.07313E-04 1.41024E-04-1.58646E-03
 -1      1121-8.89200E-04 2.05477E-04-2.34589E-03
 -1      1122-9.48754E-04 2.26136E-04-2.68275E-03
 -1      1123-5.88924E-04 1.77141E-04-2.17258E-03
 -1      1124-1.00782E-03 2.48152E-04-3.04134E-03
 -1      1125-1.06629E-03 2.71492E-04-3.42145E-03
 -1      1126-6.69495E-04 2.18718E-04-2.84644E-03
 -1      1127-1.12421E-03 2.96138E-04-3.82291E-03
 -1      1128-1.18154E-03 3.22075E-04-4.24554E-03
 -1      1129-7.49592E-04 2.65745E-04-3.60690E-03
 -1      1130-1.23823E-03 3.49300E-04-4.68904E-03
 -1      1131-1.29429E-03 3.77775E-04-5.15321E-03
 -1      1132-8.28059E-04 3.17990E-04-4.45232E-03
 -1      1133-1.34964E-03 4.07525E-04-5.63781E-03
 -1      1134-1.40425E-03 4.38479E-04-6.14255E-03
 -1      1135-9.04709E-04 3.75381E-04-5.38089E-03
 -1      1136-1.45814E-03 4.70687E-04-6.66716E-03
 -1      1137-1.51115E-03 5.04107E-04-7.21134E-03
 -1      1138-9.79453E-04 4.37774E-04-6.39062E-03
 -1      1139-1.56669E-03 5.38802E-04-7.77450E-03
 -1      1140-1.61822E-03 5.74510E-04-8.35702E-03
 -1      1141-1.05535E-03 5.05196E-04-7.47891E-03
 -1      1142-1.66681E-03 6.11229E-04-8.95587E-03
 -1      1143-1.71651E-03 6.49251E-04-9.57538E-03
 -1      1144-1.12735E-03 5.77079E-04-8.64151E-03
 -1      1145-1.76901E-03 6.88484E-04-1.02125E-02
 -1      1146-1.81696E-03 7.28649E-04-1.08677E-02
 -1      1147-1.19714E-03 6.53565E-04-9.87795E-03
 -1      1148-1.85846E-03 7.70035E-04-1.15438E-02
 -1      1149-1.90433E-03 8.12346E-04-1.22334E-02
 -1      1150-1.26135E-03 7.34681E-04-1.11916E-02
 -1      1151-1.94916E-03 8.55707E-04-1.29397E-02
 -1      1152-1.99293E-03 9.00029E-04-1.36622E-02
 -1      1153-1.31861E-03 8.20044E-04-1.25747E-02
 -1      1154-2.03565E-03 9.45367E-04-1.44006E-02
 -1      1155-2.07721E-03 9.91622E-04-1.51544E-02
 -1      1156-1.37849E-03 9.09374E-04-1.40201E-02
 -1      1157-2.11768E-03 1.03883E-03-1.59232E-02
 -1      1158-2.15704E-03 1.08687E-03-1.67067E-02
 -1      1159-1.43549E-03 1.00259E-03-1.55281E-02
 -1      1160-2.19521E-03 1.13586E-03-1.75044E-02
 -1      1161-2.23223E-03 1.18566E-03-1.83159E-02
 -1      1162-1.48936E-03 1.09948E-03-1.70955E-02
 -1      1163-2.26810E-03 1.23630E-03-1.91407E-02
 -1      1164-2.30274E-03 1.28768E-03-1.99785E-02
 -1      1165-1.54000E-03 1.19980E-03-1.87188E-02
 -1      1166-2.33613E-03 1.33989E-03-2.08287E-02
 -1      1167-2.36825E-03 1.39279E-03-2.16909E-02
 -1      1168-1.58734E-03 1.30338E-03-2.03948E-02
 -1      1169-2.39912E-03 1.44644E-03-2.25647E-02
 -1      1170-2.42866E-03 1.50072E-03-2.34495E-02
 -1      1171-1.63128E-03 1.40999E-03-2.21196E-02
 -1      1172-2.45693E-03 1.55570E-03-2.43450E-02
 -1      1173-2.48387E-03 1.61123E-03-2.52505E-02
 -1      1174-1.67175E-03 1.51939E-03-2.38898E-02
 -1      1175-2.50954E-03 1.66743E-03-2.61657E-02
 -1      1176-2.53372E-03 1.72418E-03-2.70899E-02
 -1      1177-1.70862E-03 1.63135E-03-2.57013E-02
 -1      1178-2.55658E-03 1.78147E-03-2.80229E-02
 -1      1179-2.57812E-03 1.83917E-03-2.89640E-02
 -1      1180-1.74189E-03 1.74568E-03-2.75504E-02
 -1      1181-2.59826E-03 1.89744E-03-2.99127E-02
 -1      1182-2.61704E-03 1.95611E-03-3.08686E-02
 -1      1183-1.77137E-03 1.86202E-03-2.94331E-02
 -1      1184-2.63437E-03 2.01519E-03-3.18310E-02
 -1      1185-2.65029E-03 2.07464E-03-3.27997E-02
 -1      1186-1.79707E-03 1.98026E-03-3.13453E-02
 -1      1187-2.66484E-03 2.13448E-03-3.37739E-02
 -1      1188-2.67794E-03 2.19447E-03-3.47531E-02
 -1      1189-1.81884E-03 2.10005E-03-3.32829E-02
 -1      1190-2.68958E-03 2.25490E-03-3.57369E-02
 -1      1191-2.69982E-03 2.31555E-03-3.67246E-02
 -1      1192-1.83674E-03 2.22106E-03-3.52419E-02
 -1      1193-2.71327E-03 2.37669E-03-3.77200E-02
 -1      1194-2.72061E-03 2.43768E-03-3.87142E-02
 -1      1195-1.85541E-03 2.34351E-03-3.72221E-02
 -1      1196-2.71215E-03 2.50151E-03-3.97532E-02
 -1      1197-2.71642E-03 2.56282E-03-4.07516E-02
 -1      1198-1.85580E-03 2.46928E-03-3.92576E-02
 -1      1199-2.12050E-03 2.58420E-03-4.11132E-02
 -1      1200 1.77710E-04-4.69658E-05-1.10522E-04
 -1      1201 1.27764E-04-4.66295E-05-4.93775E-05
 -1      1202 8.13890E-05-3.35717E-05-2.50604E-05
 -1      1203 2.84668E-04-3.69395E-05-3.11057E-04
 -1      1204 2.32584E-04-4.32181E-05-2.00485E-04
 -1      1205 1.27600E-04-2.53007E-05-1.38998E-04
 -1      1206 3.89239E-04-1.83984E-05-6.02936E-04
 -1      1207 3.36743E-04-2.84089E-05-4.45623E-04
 -1      1208 1.95092E-04-1.21183E-05-3.64110E-04
 -1      1209 4.96072E-04 5.54320E-06-9.82200E-04
 -1      1210 4.43497E-04-7.46379E-06-7.79578E-04
 -1      1211 2.62219E-04 7.38376E-06-6.75681E-04
 -1      1212 6.02516E-04 3.65687E-05-1.46537E-03
 -1      1213 5.50444E-04 2.05867E-05-1.21669E-03
 -1      1214 3.32313E-04 3.31007E-05-1.08533E-03
 -1      1215 7.00092E-04 7.27388E-05-2.02382E-03
 -1      1216 6.49064E-04 5.39636E-05-1.73094E-03
 -1      1217 3.94973E-04 6.54304E-05-1.58719E-03
 -1      1218 8.01055E-04 1.14557E-04-2.67573E-03
 -1      1219 7.50772E-04 9.29364E-05-2.33880E-03
 -1      1220 4.54266E-04 1.02726E-04-2.16790E-03
 -1      1221 9.00369E-04 1.61909E-04-3.41456E-03
 -1      1222 8.50918E-04 1.37544E-04-3.03438E-03
 -1      1223 5.17247E-04 1.45616E-04-2.84186E-03
 -1      1224 9.97665E-04 2.14769E-04-4.23879E-03
 -1      1225 9.49249E-04 1.87642E-04-3.81611E-03
 -1      1226 5.79064E-04 1.93959E-04-3.60237E-03
 -1      1227 1.09281E-03 2.72999E-04-5.14663E-03
 -1      1228 1.04553E-03 2.43199E-04-4.68239E-03
 -1      1229 6.39669E-04 2.47760E-04-4.44791E-03
 -1      1230 1.18564E-03 3.36444E-04-6.13615E-03
 -1      1231 1.13952E-03 3.04072E-04-5.63130E-03
 -1      1232 6.98954E-04 3.06865E-04-5.37660E-03
 -1      1233 1.27603E-03 4.04972E-04-7.20509E-03
 -1      1234 1.23116E-03 3.70075E-04-6.66083E-03
 -1      1235 7.56710E-04 3.71102E-04-6.38641E-03
 -1      1236 1.37377E-03 4.78064E-04-8.35059E-03
 -1      1237 1.33006E-03 4.40677E-04-7.76798E-03
 -1      1238 8.22567E-04 4.39921E-04-7.47442E-03
 -1      1239 1.45969E-03 5.56302E-04-9.57063E-03
 -1      1240 1.41738E-03 5.16524E-04-8.95100E-03
 -1      1241 8.88644E-04 5.13605E-04-8.63810E-03
 -1      1242 1.53843E-03 6.39341E-04-1.08636E-02
 -1      1243 1.49784E-03 5.97270E-04-1.02082E-02
 -1      1244 9.39745E-04 5.92510E-04-9.87651E-03
 -1      1245 1.61248E-03 7.26928E-04-1.22280E-02
 -1      1246 1.57377E-03 6.82718E-04-1.15383E-02
 -1      1247 9.83472E-04 6.76288E-04-1.11893E-02
 -1      1248 1.68271E-03 8.18724E-04-1.36571E-02
 -1      1249 1.64576E-03 7.72302E-04-1.29345E-02
 -1      1250 1.02335E-03 7.64389E-04-1.25711E-02
 -1      1251 1.75389E-03 9.14361E-04-1.51495E-02
 -1      1252 1.71876E-03 8.66028E-04-1.43955E-02
 -1      1253 1.06501E-03 8.56526E-04-1.40168E-02
 -1      1254 1.82127E-03 1.01394E-03-1.67021E-02
 -1      1255 1.78805E-03 9.63669E-04-1.59185E-02
 -1      1256 1.10901E-03 9.52423E-04-1.55249E-02
 -1      1257 1.88487E-03 1.11717E-03-1.83116E-02
 -1      1258 1.85357E-03 1.06509E-03-1.75000E-02
 -1      1259 1.15057E-03 1.05216E-03-1.70925E-02
 -1      1260 1.94431E-03 1.22379E-03-1.99745E-02
 -1      1261 1.91515E-03 1.17005E-03-1.91366E-02
 -1      1262 1.18966E-03 1.15547E-03-1.87161E-02
 -1      1263 1.99966E-03 1.33360E-03-2.16872E-02
 -1      1264 1.97248E-03 1.27830E-03-2.08248E-02
 -1      1265 1.22633E-03 1.26209E-03-2.03922E-02
 -1      1266 2.05063E-03 1.44641E-03-2.34461E-02
 -1      1267 2.02566E-03 1.38961E-03-2.25611E-02
 -1      1268 1.26024E-03 1.37182E-03-2.21172E-02
 -1      1269 2.09724E-03 1.56189E-03-2.52474E-02
 -1      1270 2.07454E-03 1.50380E-03-2.43417E-02
 -1      1271 1.29148E-03 1.48445E-03-2.38875E-02
 -1      1272 2.13936E-03 1.67986E-03-2.70871E-02
 -1      1273 2.11882E-03 1.62056E-03-2.61627E-02
 -1      1274 1.32003E-03 1.59973E-03-2.56993E-02
 -1      1275 2.17690E-03 1.80007E-03-2.89615E-02
 -1      1276 2.15872E-03 1.73967E-03-2.80203E-02
 -1      1277 1.34563E-03 1.71734E-03-2.75486E-02
 -1      1278 2.20978E-03 1.92220E-03-3.08665E-02
 -1      1279 2.19395E-03 1.86088E-03-2.99105E-02
 -1      1280 1.36837E-03 1.83714E-03-2.94315E-02
 -1      1281 2.23782E-03 2.04605E-03-3.27979E-02
 -1      1282 2.22441E-03 1.98390E-03-3.18291E-02
 -1      1283 1.38821E-03 1.95878E-03-3.13439E-02
 -1      1284 2.26116E-03 2.17134E-03-3.47516E-02
 -1      1285 2.25004E-03 2.10851E-03-3.37723E-02
 -1      1286 1.40511E-03 2.08208E-03-3.32819E-02
 -1      1287 2.27966E-03 2.29776E-03-3.67235E-02
 -1      1288 2.27104E-03 2.23440E-03-3.57356E-02
 -1      1289 1.41891E-03 2.20673E-03-3.52410E-02
 -1      1290 2.30967E-03 2.42435E-03-3.86990E-02
 -1      1291 2.30344E-03 2.36058E-03-3.77047E-02
 -1      1292 1.44606E-03 2.33171E-03-3.72070E-02
 -1      1293 2.29230E-03 2.55561E-03-4.07464E-02
 -1      1294 2.28878E-03 2.49158E-03-3.97478E-02
 -1      1295 1.44449E-03 2.46093E-03-3.92379E-02
 -1      1296 1.69134E-03 2.58006E-03-4.11132E-02
 -1      1297-9.25168E-04 1.48307E-03-2.34393E-02
 -1      1298-9.35914E-04 1.53879E-03-2.43352E-02
 -1      1299-9.02159E-04 1.37358E-03-2.16798E-02
 -1      1300-9.13897E-04 1.42794E-03-2.25540E-02
 -1      1301-1.87871E-04 1.44635E-03-2.29937E-02
 -1      1302-9.82160E-04 1.82650E-03-2.89567E-02
 -1      1303-9.89827E-04 1.88550E-03-2.99059E-02
 -1      1304-9.96997E-04 1.94516E-03-3.08622E-02
 -1      1305-1.00360E-03 2.00502E-03-3.18252E-02
 -1      1306-2.02907E-04 1.90950E-03-3.03821E-02
 -1      1307 6.27308E-04 2.36568E-03-3.77002E-02
 -1      1308 6.08962E-04 2.30376E-03-3.67186E-02
 -1      1309-2.00812E-04 2.39669E-03-3.81546E-02
 -1      1310 6.37621E-04 2.42526E-03-3.86445E-02
 -1      1311 6.13005E-04 2.49161E-03-3.96937E-02
 -1      1312-8.21728E-04 1.06321E-03-1.66931E-02
 -1      1313-8.36316E-04 1.11285E-03-1.74912E-02
 -1      1314-7.91302E-04 9.66556E-04-1.51399E-02
 -1      1315-8.06758E-04 1.01438E-03-1.59092E-02
 -1      1316-1.66363E-04 1.02658E-03-1.62970E-02
 -1      1317-8.50399E-04 1.16341E-03-1.83031E-02
 -1      1318-8.64000E-04 1.21471E-03-1.91284E-02
 -1      1319-8.77213E-04 1.26695E-03-1.99665E-02
 -1      1320-8.89917E-04 1.31983E-03-2.08172E-02
 -1      1321-1.77872E-04 1.23009E-03-1.95439E-02
 -1      1322-9.46189E-04 1.59522E-03-2.52413E-02
 -1      1323-9.55951E-04 1.65220E-03-2.61569E-02
 -1      1324-9.65260E-04 1.70984E-03-2.70816E-02
 -1      1325-9.73973E-04 1.76786E-03-2.80151E-02
 -1      1326-1.96268E-04 1.67351E-03-2.66167E-02
 -1      1327 6.05897E-04 2.24154E-03-3.57326E-02
 -1      1328 6.03311E-04 2.17934E-03-3.47483E-02
 -1      1329 6.00389E-04 2.11752E-03-3.37685E-02
 -1      1330 5.97030E-04 2.05587E-03-3.27938E-02
 -1      1331-2.07914E-04 2.15245E-03-3.42576E-02
 -1      1332 4.39127E-04 8.01196E-04-1.29224E-02
 -1      1333 4.33635E-04 7.56383E-04-1.22156E-02
 -1      1334 4.58642E-04 8.93517E-04-1.43842E-02
 -1      1335 4.48987E-04 8.46812E-04-1.36454E-02
 -1      1336-1.53466E-04 8.37522E-04-1.32811E-02
 -1      1337-2.23613E-04 8.47316E-05-9.70837E-04
 -1      1338-2.46724E-04 9.87406E-05-1.19687E-03
 -1      1339-5.20059E-05 8.73714E-05-1.31498E-03
 -1      1340-2.70884E-04 1.14297E-04-1.44576E-03
 -1      1341-2.93650E-04 1.31098E-04-1.71678E-03
 -1      1342-3.61422E-04 1.89866E-04-2.66192E-03
 -1      1343-3.83912E-04 2.12197E-04-3.02070E-03
 -1      1344-3.16766E-04 1.49357E-04-2.00978E-03
 -1      1345-3.38726E-04 1.68879E-04-2.32487E-03
 -1      1346-7.15492E-05 1.60907E-04-2.48726E-03
 -1      1347 8.99043E-05 1.22452E-05-4.28700E-04
 -1      1348 7.65500E-05 3.66708E-06-2.93991E-04
 -1      1349 1.03680E-04 2.21228E-05-5.84828E-04
 -1      1350-3.34848E-05 3.64832E-05-5.02257E-04
 -1      1351 1.20232E-04 3.29037E-05-7.61183E-04
 -1      1352-5.34939E-04 4.05311E-04-6.12350E-03
 -1      1353-5.55459E-04 4.37979E-04-6.64838E-03
 -1      1354-4.93061E-04 3.43723E-04-5.13365E-03
 -1      1355-5.14120E-04 3.73871E-04-5.61849E-03
 -1      1356-1.07197E-04 3.72668E-04-5.86538E-03
 -1      1357-6.12942E-04 5.42802E-04-8.33310E-03
 -1      1358-6.30153E-04 5.79988E-04-8.93211E-03
 -1      1359-1.21308E-04 5.83744E-04-9.23725E-03
 -1      1360-6.50327E-04 6.18901E-04-9.55559E-03
 -1      1361-6.72497E-04 6.58629E-04-1.01929E-02
 -1      1362-4.06225E-04 2.35908E-04-3.40098E-03
 -1      1363-4.28285E-04 2.60874E-04-3.80267E-03
 -1      1364-4.50104E-04 2.87219E-04-4.22551E-03
 -1      1365-4.71732E-04 3.14794E-04-4.66924E-03
 -1      1366-8.97275E-05 2.56251E-04-4.00817E-03
 -1      1367 6.26120E-05-2.76898E-06-1.88476E-04
 -1      1368 4.75519E-05-7.84437E-06-9.72564E-05
 -1      1369-1.57261E-05 9.98590E-06-8.34749E-05
 -1      1370 3.78421E-05-1.05269E-05-4.64575E-05
 -1      1371 1.04157E-05-3.64336E-06-1.14671E-05
 -1      1372 5.14466E-05-2.01417E-05-2.21332E-05
 -1      1373-1.28246E-04 4.25753E-05-2.96860E-04
 -1      1374-1.52177E-04 5.10447E-05-4.30450E-04
 -1      1375-2.46772E-05 2.01697E-05-2.40777E-04
 -1      1376-1.06500E-04 3.59817E-05-1.91309E-04
 -1      1377-8.11274E-05 2.93074E-05-9.96942E-05
 -1      1378-1.02972E-03 2.43041E-03-3.86592E-02
 -1      1379-1.01752E-03 2.49501E-03-3.96987E-02
 -1      1380-2.05279E-04 2.50426E-03-3.98702E-02
 -1      1381-1.03108E-03 2.54303E-03-4.04695E-02
 -1      1382-1.45032E-03 2.57740E-03-4.10147E-02
 -1      1383-6.36333E-04 2.58722E-03-4.11866E-02
 -1      1384 5.53466E-04 1.52179E-03-2.43342E-02
 -1      1385 5.47137E-04 1.46516E-03-2.34382E-02
 -1      1386 5.65369E-04 1.63684E-03-2.61559E-02
 -1      1387 5.59518E-04 1.57893E-03-2.52402E-02
 -1      1388-1.92296E-04 1.55867E-03-2.47855E-02
 -1      1389-7.25463E-04 7.84648E-04-1.22175E-02
 -1      1390-7.42517E-04 8.28577E-04-1.29241E-02
 -1      1391-6.93447E-04 6.99606E-04-1.08496E-02
 -1      1392-7.05852E-04 7.41507E-04-1.15261E-02
 -1      1393-1.44281E-04 7.48776E-04-1.18663E-02
 -1      1394-1.02773E-03 2.30965E-03-3.67190E-02
 -1      1395-1.03575E-03 2.37161E-03-3.77149E-02
 -1      1396-1.02016E-03 2.18698E-03-3.47488E-02
 -1      1397-1.02456E-03 2.24823E-03-3.57331E-02
 -1      1398-2.08970E-04 2.27572E-03-3.62238E-02
 -1      1399 4.94499E-04 1.08961E-03-1.74897E-02
 -1      1400 4.85963E-04 1.03913E-03-1.66916E-02
 -1      1401 5.10925E-04 1.19296E-03-1.91270E-02
 -1      1402 5.02863E-04 1.14085E-03-1.83017E-02
 -1      1403-1.72314E-04 1.12666E-03-1.78933E-02
 -1      1404 5.85313E-04 1.87353E-03-2.99052E-02
 -1      1405 5.80807E-04 1.81358E-03-2.89559E-02
 -1      1406 5.75947E-04 1.75417E-03-2.80142E-02
 -1      1407 5.70812E-04 1.69516E-03-2.70807E-02
 -1      1408-1.99792E-04 1.79052E-03-2.84837E-02
 -1      1409 5.26315E-04 1.29962E-03-2.08159E-02
 -1      1410 5.18756E-04 1.24585E-03-1.99652E-02
 -1      1411 5.40472E-04 1.40930E-03-2.25529E-02
 -1      1412 5.33508E-04 1.35404E-03-2.16786E-02
 -1      1413-1.83079E-04 1.33675E-03-2.12452E-02
 -1      1414 2.00329E-04 1.31871E-04-2.32254E-03
 -1      1415 1.86814E-04 1.11945E-04-2.00743E-03
 -1      1416 1.73159E-04 9.34704E-05-1.71444E-03
 -1      1417 1.63604E-04 7.63332E-05-1.44859E-03
 -1      1418-6.21845E-05 1.21403E-04-1.85704E-03
 -1      1419 3.28513E-04 4.04925E-04-6.64632E-03
 -1      1420 3.16364E-04 3.71731E-04-6.12139E-03
 -1      1421 3.62166E-04 4.74453E-04-7.75371E-03
 -1      1422 3.40432E-04 4.39257E-04-7.19076E-03
 -1      1423-1.15562E-04 4.38483E-04-6.91513E-03
 -1      1424 4.25233E-04 7.12727E-04-1.15242E-02
 -1      1425 4.18944E-04 6.69978E-04-1.08492E-02
 -1      1426-1.32344E-04 6.64149E-04-1.05179E-02
 -1      1427 4.10520E-04 6.28447E-04-1.01925E-02
 -1      1428 4.02434E-04 5.88041E-04-9.55467E-03
 -1      1429 2.53254E-04 2.25173E-04-3.80042E-03
 -1      1430 2.40216E-04 1.99810E-04-3.39872E-03
 -1      1431 2.27062E-04 1.75827E-04-3.01842E-03
 -1      1432 2.13743E-04 1.53138E-04-2.65961E-03
 -1      1433-8.07187E-05 2.05899E-04-3.20481E-03
 -1      1434 3.04036E-04 3.39880E-04-5.61635E-03
 -1      1435 2.91591E-04 3.09216E-04-5.13151E-03
 -1      1436 2.78946E-04 2.79908E-04-4.66706E-03
 -1      1437 2.66165E-04 2.51863E-04-4.22328E-03
 -1      1438-9.85660E-05 3.11880E-04-4.89568E-03
 -1      1439-2.66064E-05 1.25394E-05-1.12666E-05
 -1      1440-6.23269E-05 2.48731E-05-4.85220E-05
 -1      1441-6.88497E-05 3.00437E-05-2.36816E-05
 -1      1442 1.81895E-04 2.58837E-03-4.12167E-02
 -1      1443 1.00197E-03 2.57626E-03-4.10399E-02
 -1      1444 6.01320E-04 2.54033E-03-4.04646E-02
 -1      1445-1.75905E-04 6.07850E-05-5.86500E-04
 -1      1446-2.00486E-04 7.21095E-05-7.66932E-04
 -1      1447-4.26329E-05 5.89827E-05-8.62028E-04
 -1      1448 1.35293E-04 4.56771E-05-9.64747E-04
 -1      1449 1.50102E-04 6.05233E-05-1.19926E-03
 -1      1450 5.93463E-04 1.99475E-03-3.18246E-02
 -1      1451 5.89573E-04 1.93390E-03-3.08615E-02
 -1      1452 4.77077E-04 9.89658E-04-1.59076E-02
 -1      1453 4.67959E-04 9.41079E-04-1.51383E-02
 -1      1454-7.59199E-04 8.73603E-04-1.36470E-02
 -1      1455-7.75438E-04 9.19577E-04-1.43858E-02
 -1      1456-1.60076E-04 9.30159E-04-1.47585E-02
 -1      1457-5.75722E-04 4.71923E-04-7.19281E-03
 -1      1458-5.98880E-04 5.07041E-04-7.75621E-03
 -1      1459-1.18278E-04 5.08607E-04-8.03692E-03
 -1      1460 3.79414E-04 5.10691E-04-8.33071E-03
 -1      1461 3.91931E-04 5.48653E-04-8.93113E-03
 -1      1462-1.00963E-03 2.06538E-03-3.27943E-02
 -1      1463-1.01518E-03 2.12598E-03-3.37690E-02
 -1      1464-2.05680E-04 2.03026E-03-3.23081E-02
 -1      1465-2.82559E-03 1.31456E-03-2.12794E-02
 -1      1466-3.08427E-03 1.77561E-03-2.85067E-02
 -1      1467-3.37567E-03 2.03895E-03-3.23263E-02
 -1      1468-3.25592E-03 2.39363E-03-3.81969E-02
 -1      1469-2.56724E-03 9.99283E-04-1.63390E-02
 -1      1470-3.15594E-03 1.57342E-03-2.48164E-02
 -1      1471-2.36775E-03 8.07341E-04-1.33279E-02
 -1      1472-8.65051E-04 1.21160E-04-1.38589E-03
 -1      1473-1.10370E-03 1.19609E-04-2.55086E-03
 -1      1474-5.15056E-04-7.05919E-06-5.68405E-04
 -1      1475-1.75945E-03 4.03028E-04-5.92459E-03
 -1      1476-2.03087E-03 5.50588E-04-9.30454E-03
 -1      1477-1.38473E-03 2.16495E-04-4.06938E-03
 -1      1478-2.20080E-04 3.79255E-05-1.23753E-04
 -1      1479-2.91959E-03 1.24909E-03-1.95836E-02
 -1      1480-3.20926E-03 2.14339E-03-3.42715E-02
 -1      1481-3.47928E-03 2.53340E-03-4.03022E-02
 -1      1482-2.40350E-03 7.74110E-04-1.19204E-02
 -1      1483-3.44228E-03 2.28139E-03-3.62379E-02
 -1      1484-2.62700E-03 9.52999E-04-1.48063E-02
 -1      1485-1.78334E-03 4.01894E-04-6.97194E-03
 -1      1486-1.32544E-03 2.38759E-04-3.27166E-03
 -1      1487-2.03151E-03 5.38193E-04-8.10533E-03
 -1      1488-9.90098E-05-1.04504E-05-5.28257E-05
 -1      1489-3.33368E-03 2.62379E-03-4.17952E-02
 -1      1490-3.27975E-03 1.80230E-03-2.85084E-02
 -1      1491-2.96763E-03 1.54006E-03-2.48142E-02
 -1      1492-8.13488E-04 4.52050E-05-1.38113E-03
 -1      1493-5.47932E-04 7.13387E-05-5.72614E-04
 -1      1494-3.86311E-04 5.39548E-05-3.02962E-04
 -1      1495-3.04632E-04 8.50669E-06-2.20364E-04
 -1      1496-3.46548E-03 2.40470E-03-3.82263E-02
 -1      1497-2.74527E-03 1.20619E-03-1.95808E-02
 -1      1498-2.65882E-03 1.10093E-03-1.79329E-02
 -1      1499-2.69754E-03 1.07324E-03-1.71363E-02
 -1      1500-3.13261E-03 1.89654E-03-3.04021E-02
 -1      1501-3.08371E-03 1.46255E-03-2.30276E-02
 -1      1502-2.25992E-03 7.17337E-04-1.19168E-02
 -1      1503-2.14733E-03 6.31474E-04-1.05738E-02
 -1      1504-2.15788E-03 6.21246E-04-9.94898E-03
 -1      1505-3.41260E-03 2.15960E-03-3.42726E-02
 -1      1506-1.65299E-03 3.34406E-04-5.91910E-03
 -1      1507-3.33105E-03 1.91978E-03-3.04037E-02
 -1      1508-1.89750E-03 4.68282E-04-6.97576E-03
 -1      1509-1.24538E-03 1.65296E-04-3.26727E-03
 -1      1510-1.52018E-03 2.72737E-04-4.95062E-03
 -1      1511-1.49869E-03 2.78742E-04-4.50423E-03
 -1      1512-3.23684E-03 2.26870E-03-3.62369E-02
 -1      1513-2.51801E-03 8.61568E-04-1.33314E-02
 -1      1514-9.59429E-04 7.94324E-05-1.92157E-03
 -1      1515-1.06501E-03 1.35868E-04-2.23685E-03
 -1      1516-7.07732E-04 9.35167E-05-9.34643E-04
 -1      1517-6.65257E-04 1.61176E-05-9.29854E-04
 -1      1518-1.90916E-03 4.73772E-04-8.10368E-03
 -1      1519-3.02921E-03 1.65671E-03-2.66427E-02
 -1      1520-2.89984E-03 1.42592E-03-2.30252E-02
 -1      1521-2.46988E-03 9.01390E-04-1.48031E-02
 -1      1522-3.17433E-03 2.01924E-03-3.23251E-02
 -1      1523-3.22098E-03 1.68677E-03-2.66446E-02
 -1      1524-3.00489E-03 1.35437E-03-2.12821E-02
 -1      1525-4.53465E-04 2.22231E-05-4.34290E-04
 -1      1526-3.65251E-04-2.39524E-05-3.01287E-04
 -1      1527-1.07445E-04 1.11973E-05-5.75381E-05
 -1      1528-2.72923E-03 1.04601E-03-1.62995E-02
 -1      1529-2.83228E-03 1.15019E-03-1.79799E-02
 -1      1530-1.17400E-03 1.94198E-04-2.55229E-03
 -1      1531-1.01984E-03 1.55008E-04-1.92134E-03
 -1      1532-1.47360E-03 2.88548E-04-4.07221E-03
 -1      1533-2.03387E-03 5.42856E-04-8.70341E-03
 -1      1534-2.28542E-03 6.91596E-04-1.05785E-02
 -1      1535-1.63838E-03 3.37300E-04-5.43643E-03
 -1      1536-3.36782E-03 2.45545E-03-3.91075E-02
 -1      1537-3.35164E-03 2.33693E-03-3.72228E-02
 -1      1538-3.15453E-03 1.72977E-03-2.75749E-02
 -1      1539-3.09436E-03 1.61370E-03-2.57287E-02
 -1      1540-3.02763E-03 1.49990E-03-2.39199E-02
 -1      1541-3.32629E-03 2.21301E-03-3.52544E-02
 -1      1542-3.25441E-03 1.96835E-03-3.13638E-02
 -1      1543-2.49656E-03 8.79901E-04-1.40658E-02
 -1      1544-2.87473E-03 1.28044E-03-2.04305E-02
 -1      1545-7.63099E-04 6.76923E-05-1.15604E-03
 -1      1546-6.09061E-04 4.21034E-05-7.49476E-04
 -1      1547-3.20781E-03 1.84810E-03-2.94546E-02
 -1      1548-2.95435E-03 1.38872E-03-2.21526E-02
 -1      1549-1.90599E-03 4.69336E-04-7.53760E-03
 -1      1550-3.29392E-03 2.08997E-03-3.32985E-02
 -1      1551-1.77402E-03 4.00733E-04-6.44660E-03
 -1      1552-2.38805E-03 7.89217E-04-1.26228E-02
 -1      1553-2.59959E-03 9.74616E-04-1.55714E-02
 -1      1554-2.78894E-03 1.17509E-03-1.87572E-02
 -1      1555-2.16103E-03 6.12835E-04-9.30638E-03
 -1      1556-2.27441E-03 7.02494E-04-1.12453E-02
 -1      1557-9.14981E-04 9.89024E-05-1.65191E-03
 -1      1558-1.61831E-03 3.43295E-04-4.95678E-03
 -1      1559-1.35749E-03 2.25811E-04-3.66854E-03
 -1      1560-1.21258E-03 1.78096E-04-2.90923E-03
 -1      1561-3.43635E-03 2.62156E-03-4.17350E-02
 -1      1562-2.07138E-04-2.98801E-05-1.19700E-04
 -1      1563-3.27416E-03 2.52733E-03-4.02923E-02
 -1      1564-1.86118E-04 2.23899E-06-1.07987E-04
 -1      1565-9.51606E-05 2.97678E-05-4.51683E-05
 -1      1566-8.62262E-05-2.88667E-05-3.95521E-05
 -1      1567-3.52056E-03 2.63500E-03-4.19310E-02
 -1      1568-3.24689E-03 2.63192E-03-4.19409E-02
 -1      1569-3.37904E-03 2.55225E-03-4.06460E-02
 -1      1570-4.08941E-05-1.42300E-05-2.49128E-05
 -1      1571-4.08588E-05-2.17631E-05-1.93134E-05
 -1      1572-1.13439E-04-4.58144E-05-4.40830E-05
 -1      1573-4.64474E-05 2.22463E-05-2.30172E-05
 -1      1574-4.41087E-05 1.37466E-05-2.60592E-05
 -1      1575-1.26996E-04 4.92516E-05-5.06669E-05
 -1      1576-3.21028E-03 2.67207E-03-4.25742E-02
 -1      1577-3.26408E-03 2.67251E-03-4.25749E-02
 -1      1578-3.20731E-03 2.60781E-03-4.15729E-02
 -1      1579-3.50687E-03 2.67426E-03-4.25700E-02
 -1      1580-3.55952E-03 2.67478E-03-4.25693E-02
 -1      1581-3.55637E-03 2.61330E-03-4.15683E-02
 -1      1582-4.81583E-05-3.80710E-06-3.09637E-05
 -1      1583-4.59279E-05-9.81484E-06-2.79413E-05
 -1      1584-9.23109E-05-1.95744E-05-4.71773E-05
 -1      1585-5.19823E-05 9.14833E-06-3.20181E-05
 -1      1586-5.02026E-05 2.56568E-06-3.08570E-05
 -1      1587-1.03464E-04-1.68948E-07-5.64789E-05
 -1      1588-1.01405E-04 2.01546E-05-5.23101E-05
 -1      1589-3.30745E-03 2.66814E-03-4.25020E-02
 -1      1590-3.36049E-03 2.66867E-03-4.25022E-02
 -1      1591-3.29042E-03 2.62782E-03-4.18681E-02
 -1      1592-3.41191E-03 2.66726E-03-4.24720E-02
 -1      1593-3.46472E-03 2.66778E-03-4.24717E-02
 -1      1594-3.38503E-03 2.62266E-03-4.17652E-02
 -1      1595-3.47850E-03 2.62832E-03-4.18331E-02
 -1      1596-1.71874E-04-4.68161E-05-8.15627E-05
 -1      1597-2.45579E-04-4.85277E-05-1.44688E-04
 -1      1598-1.45716E-04-3.25215E-05-7.24351E-05
 -1      1599-3.22781E-04-4.55992E-05-2.35248E-04
 -1      1600-3.96766E-04-3.93955E-05-3.46220E-04
 -1      1601-2.86246E-04-2.84880E-05-1.97781E-04
 -1      1602-4.70243E-04-3.09057E-05-4.79816E-04
 -1      1603-5.43911E-04-2.09215E-05-6.36949E-04
 -1      1604-4.40247E-04-1.63371E-05-4.23501E-04
 -1      1605-6.17694E-04-9.24228E-06-8.17789E-04
 -1      1606-6.90835E-04 3.82576E-06-1.02071E-03
 -1      1607-5.90324E-04 3.77875E-06-7.37657E-04
 -1      1608-7.63722E-04 1.84629E-05-1.24647E-03
 -1      1609-8.36070E-04 3.44075E-05-1.49454E-03
 -1      1610-7.39522E-04 2.99610E-05-1.14419E-03
 -1      1611-9.07829E-04 5.16506E-05-1.76482E-03
 -1      1612-9.79303E-04 7.04249E-05-2.05749E-03
 -1      1613-8.86711E-04 6.16133E-05-1.64022E-03
 -1      1614-1.05023E-03 9.06497E-05-2.37224E-03
 -1      1615-1.12056E-03 1.12308E-04-2.70888E-03
 -1      1616-1.03180E-03 9.87939E-05-2.22523E-03
 -1      1617-1.19026E-03 1.35300E-04-3.06723E-03
 -1      1618-1.25931E-03 1.59668E-04-3.44711E-03
 -1      1619-1.17483E-03 1.41763E-04-2.89823E-03
 -1      1620-1.32783E-03 1.85456E-04-3.84830E-03
 -1      1621-1.39556E-03 2.12598E-04-4.27067E-03
 -1      1622-1.31541E-03 1.90201E-04-3.65772E-03
 -1      1623-1.46218E-03 2.40914E-04-4.71150E-03
 -1      1624-1.52837E-03 2.70732E-04-5.17526E-03
 -1      1625-1.45282E-03 2.43956E-04-4.49976E-03
 -1      1626-1.59370E-03 3.01767E-04-5.65977E-03
 -1      1627-1.65817E-03 3.34191E-04-6.16407E-03
 -1      1628-1.58696E-03 3.02925E-04-5.42464E-03
 -1      1629-1.72231E-03 3.68154E-04-6.69081E-03
 -1      1630-1.78494E-03 4.03041E-04-7.23464E-03
 -1      1631-1.71857E-03 3.67517E-04-6.43551E-03
 -1      1632-1.84680E-03 4.39248E-04-7.80062E-03
 -1      1633-1.90760E-03 4.76694E-04-8.38291E-03
 -1      1634-1.84676E-03 4.37188E-04-7.52814E-03
 -1      1635-1.96746E-03 5.15336E-04-8.98352E-03
 -1      1636-2.02611E-03 5.55144E-04-9.60278E-03
 -1      1637-1.97046E-03 5.11591E-04-8.69495E-03
 -1      1638-2.08336E-03 5.95860E-04-1.02376E-02
 -1      1639-2.13980E-03 6.37954E-04-1.08926E-02
 -1      1640-2.08962E-03 5.90473E-04-9.93028E-03
 -1      1641-2.19519E-03 6.81199E-04-1.15643E-02
 -1      1642-2.24944E-03 7.25391E-04-1.22535E-02
 -1      1643-2.20422E-03 6.73872E-04-1.12368E-02
 -1      1644-2.30240E-03 7.70703E-04-1.29593E-02
 -1      1645-2.35408E-03 8.17146E-04-1.36813E-02
 -1      1646-2.31438E-03 7.61757E-04-1.26142E-02
 -1      1647-2.40434E-03 8.64477E-04-1.44192E-02
 -1      1648-2.45339E-03 9.12799E-04-1.51725E-02
 -1      1649-2.41940E-03 8.53866E-04-1.40576E-02
 -1      1650-2.50123E-03 9.62105E-04-1.59407E-02
 -1      1651-2.54782E-03 1.01247E-03-1.67237E-02
 -1      1652-2.51923E-03 9.49823E-04-1.55636E-02
 -1      1653-2.59285E-03 1.06362E-03-1.75210E-02
 -1      1654-2.63652E-03 1.11576E-03-1.83320E-02
 -1      1655-2.61361E-03 1.04966E-03-1.71290E-02
 -1      1656-2.67902E-03 1.16877E-03-1.91562E-02
 -1      1657-2.72002E-03 1.22248E-03-1.99934E-02
 -1      1658-2.70278E-03 1.15317E-03-1.87503E-02
 -1      1659-2.75946E-03 1.27702E-03-2.08431E-02
 -1      1660-2.79740E-03 1.33236E-03-2.17047E-02
 -1      1661-2.78610E-03 1.25997E-03-2.04241E-02
 -1      1662-2.83388E-03 1.38842E-03-2.25779E-02
 -1      1663-2.86880E-03 1.44530E-03-2.34622E-02
 -1      1664-2.86343E-03 1.36986E-03-2.21467E-02
 -1      1665-2.90215E-03 1.50276E-03-2.43570E-02
 -1      1666-2.93403E-03 1.56084E-03-2.52620E-02
 -1      1667-2.93446E-03 1.48267E-03-2.39145E-02
 -1      1668-2.96427E-03 1.61955E-03-2.61766E-02
 -1      1669-2.99287E-03 1.67896E-03-2.71003E-02
 -1      1670-2.99908E-03 1.59803E-03-2.57238E-02
 -1      1671-3.01996E-03 1.73882E-03-2.80326E-02
 -1      1672-3.04538E-03 1.79924E-03-2.89732E-02
 -1      1673-3.05750E-03 1.71588E-03-2.75704E-02
 -1      1674-3.06914E-03 1.86013E-03-2.99213E-02
 -1      1675-3.09131E-03 1.92147E-03-3.08765E-02
 -1      1676-3.10921E-03 1.83585E-03-2.94507E-02
 -1      1677-3.11183E-03 1.98323E-03-3.18383E-02
 -1      1678-3.13075E-03 2.04541E-03-3.28063E-02
 -1      1679-3.15425E-03 1.95767E-03-3.13605E-02
 -1      1680-3.14789E-03 2.10789E-03-3.37799E-02
 -1      1681-3.16326E-03 2.17084E-03-3.47586E-02
 -1      1682-3.19248E-03 2.08109E-03-3.32957E-02
 -1      1683-3.17688E-03 2.23396E-03-3.57416E-02
 -1      1684-3.18908E-03 2.29723E-03-3.67287E-02
 -1      1685-3.22393E-03 2.20593E-03-3.52521E-02
 -1      1686-3.19834E-03 2.36011E-03-3.77090E-02
 -1      1687-3.20698E-03 2.42396E-03-3.87025E-02
 -1      1688-3.24713E-03 2.33100E-03-3.72153E-02
 -1      1689-3.21596E-03 2.49121E-03-3.97506E-02
 -1      1690-3.22124E-03 2.55523E-03-4.07485E-02
 -1      1691-3.26584E-03 2.46043E-03-3.92433E-02
 -1      1692-3.26102E-03 2.57947E-03-4.11160E-02
 -1      1693-2.69676E-04 6.26715E-05-1.51577E-04
 -1      1694-1.89028E-04 5.33438E-05-8.79868E-05
 -1      1695-1.57328E-04 3.59559E-05-7.74892E-05
 -1      1696-4.34682E-04 7.86134E-05-3.51914E-04
 -1      1697-3.53472E-04 7.08630E-05-2.41074E-04
 -1      1698-3.03179E-04 4.58411E-05-2.00997E-04
 -1      1699-5.97357E-04 9.70038E-05-6.43994E-04
 -1      1700-5.16439E-04 8.72950E-05-4.86886E-04
 -1      1701-4.67248E-04 6.20396E-05-4.26119E-04
 -1      1702-7.58730E-04 1.20467E-04-1.02802E-03
 -1      1703-6.78412E-04 1.08017E-04-8.25174E-04
 -1      1704-6.27990E-04 8.17214E-05-7.42130E-04
 -1      1705-9.18057E-04 1.49409E-04-1.50176E-03
 -1      1706-8.38585E-04 1.34187E-04-1.25377E-03
 -1      1707-7.86589E-04 1.06634E-04-1.14900E-03
 -1      1708-1.07509E-03 1.84201E-04-2.06202E-03
 -1      1709-9.96631E-04 1.66228E-04-1.76960E-03
 -1      1710-9.42637E-04 1.37390E-04-1.64265E-03
 -1      1711-1.23058E-03 2.24326E-04-2.71423E-03
 -1      1712-1.15332E-03 2.03659E-04-2.37772E-03
 -1      1713-1.09719E-03 1.73919E-04-2.22572E-03
 -1      1714-1.38342E-03 2.69812E-04-3.45390E-03
 -1      1715-1.30746E-03 2.46432E-04-3.07407E-03
 -1      1716-1.25006E-03 2.15792E-04-2.90109E-03
 -1      1717-1.53299E-03 3.20469E-04-4.27653E-03
 -1      1718-1.45858E-03 2.94529E-04-3.85429E-03
 -1      1719-1.39984E-03 2.63025E-04-3.66138E-03
 -1      1720-1.67909E-03 3.76117E-04-5.18273E-03
 -1      1721-1.60641E-03 3.47650E-04-4.71900E-03
 -1      1722-1.54630E-03 3.15303E-04-4.50417E-03
 -1      1723-1.82158E-03 4.36745E-04-6.17117E-03
 -1      1724-1.75074E-03 4.05763E-04-5.66687E-03
 -1      1725-1.68931E-03 3.72534E-04-5.43052E-03
 -1      1726-1.96057E-03 5.02562E-04-7.24068E-03
 -1      1727-1.89165E-03 4.69112E-04-6.69693E-03
 -1      1728-1.82896E-03 4.35017E-04-6.44028E-03
 -1      1729-2.09531E-03 5.72996E-04-8.38772E-03
 -1      1730-2.02856E-03 5.37271E-04-7.80565E-03
 -1      1731-1.96498E-03 5.02640E-04-7.53096E-03
 -1      1732-2.22553E-03 6.48110E-04-9.60751E-03
 -1      1733-2.16109E-03 6.10038E-04-8.98839E-03
 -1      1734-2.09676E-03 5.74893E-04-8.69660E-03
 -1      1735-2.35069E-03 7.27470E-04-1.08986E-02
 -1      1736-2.28863E-03 6.87215E-04-1.02438E-02
 -1      1737-2.22377E-03 6.51676E-04-9.93361E-03
 -1      1738-2.47002E-03 8.10729E-04-1.22589E-02
 -1      1739-2.41061E-03 7.68421E-04-1.15698E-02
 -1      1740-2.34500E-03 7.32358E-04-1.12410E-02
 -1      1741-2.58492E-03 8.98494E-04-1.36865E-02
 -1      1742-2.52816E-03 8.54127E-04-1.29646E-02
 -1      1743-2.46137E-03 8.17339E-04-1.26176E-02
 -1      1744-2.69429E-03 9.90186E-04-1.51774E-02
 -1      1745-2.64027E-03 9.43863E-04-1.44242E-02
 -1      1746-2.57316E-03 9.06783E-04-1.40610E-02
 -1      1747-2.79725E-03 1.08443E-03-1.67068E-02
 -1      1748-2.74616E-03 1.03638E-03-1.59244E-02
 -1      1749-2.67868E-03 9.99114E-04-1.55459E-02
 -1      1750-2.89753E-03 1.18594E-03-1.83585E-02
 -1      1751-2.84955E-03 1.13615E-03-1.75473E-02
 -1      1752-2.78147E-03 1.09760E-03-1.71318E-02
 -1      1753-2.98676E-03 1.28647E-03-1.99976E-02
 -1      1754-2.94191E-03 1.23502E-03-1.91605E-02
 -1      1755-2.87655E-03 1.19921E-03-1.87755E-02
 -1      1756-3.07171E-03 1.39166E-03-2.17086E-02
 -1      1757-3.03006E-03 1.33871E-03-2.08471E-02
 -1      1758-2.96298E-03 1.30135E-03-2.04267E-02
 -1      1759-3.15010E-03 1.49968E-03-2.34657E-02
 -1      1760-3.11174E-03 1.44535E-03-2.25816E-02
 -1      1761-3.04504E-03 1.40810E-03-2.21492E-02
 -1      1762-3.22169E-03 1.61028E-03-2.52653E-02
 -1      1763-3.18678E-03 1.55470E-03-2.43604E-02
 -1      1764-3.12059E-03 1.51766E-03-2.39168E-02
 -1      1765-3.28634E-03 1.72338E-03-2.71032E-02
 -1      1766-3.25475E-03 1.66650E-03-2.61796E-02
 -1      1767-3.18932E-03 1.62979E-03-2.57259E-02
 -1      1768-3.34400E-03 1.83844E-03-2.89757E-02
 -1      1769-3.31610E-03 1.78071E-03-2.80354E-02
 -1      1770-3.25113E-03 1.74434E-03-2.75723E-02
 -1      1771-3.39447E-03 1.95550E-03-3.08787E-02
 -1      1772-3.37012E-03 1.89676E-03-2.99236E-02
 -1      1773-3.30620E-03 1.86080E-03-2.94523E-02
 -1      1774-3.43775E-03 2.07405E-03-3.28082E-02
 -1      1775-3.41703E-03 2.01464E-03-3.18404E-02
 -1      1776-3.35416E-03 1.97922E-03-3.13618E-02
 -1      1777-3.47348E-03 2.19406E-03-3.47600E-02
 -1      1778-3.45652E-03 2.13394E-03-3.37817E-02
 -1      1779-3.39493E-03 2.09913E-03-3.32969E-02
 -1      1780-3.50183E-03 2.31523E-03-3.67300E-02
 -1      1781-3.48859E-03 2.25453E-03-3.57430E-02
 -1      1782-3.42827E-03 2.22035E-03-3.52530E-02
 -1      1783-3.52301E-03 2.43747E-03-3.87179E-02
 -1      1784-3.51355E-03 2.37643E-03-3.77245E-02
 -1      1785-3.45468E-03 2.34301E-03-3.72305E-02
 -1      1786-3.53585E-03 2.56281E-03-4.07538E-02
 -1      1787-3.53006E-03 2.50138E-03-3.97561E-02
 -1      1788-3.47323E-03 2.46897E-03-3.92630E-02
 -1      1789-3.50041E-03 2.58431E-03-4.11160E-02
 -1      1790-2.80987E-03 1.24325E-03-2.00054E-02
 -1      1791-2.85072E-03 1.29713E-03-2.08547E-02
 -1      1792-2.88994E-03 1.35163E-03-2.17158E-02
 -1      1793-2.92762E-03 1.40698E-03-2.25886E-02
 -1      1794-2.91520E-03 1.33416E-03-2.12857E-02
 -1      1795-3.14613E-03 1.81195E-03-2.89805E-02
 -1      1796-3.17067E-03 1.87202E-03-2.99281E-02
 -1      1797-3.09192E-03 1.69332E-03-2.71086E-02
 -1      1798-3.11988E-03 1.75241E-03-2.80405E-02
 -1      1799-3.18192E-03 1.78874E-03-2.85108E-02
 -1      1800-3.35340E-03 2.12492E-03-3.37854E-02
 -1      1801-3.33517E-03 2.06421E-03-3.28123E-02
 -1      1802-3.31509E-03 2.00374E-03-3.18449E-02
 -1      1803-3.29314E-03 1.94377E-03-3.08836E-02
 -1      1804-3.27492E-03 2.02896E-03-3.23282E-02
 -1      1805-3.29438E-03 2.30290E-03-3.67298E-02
 -1      1806-3.30411E-03 2.36503E-03-3.77097E-02
 -1      1807-3.31209E-03 2.42468E-03-3.86523E-02
 -1      1808-3.36040E-03 2.39608E-03-3.81639E-02
 -1      1809-3.32140E-03 2.49115E-03-3.96996E-02
 -1      1810-2.63223E-03 1.03619E-03-1.67374E-02
 -1      1811-2.67877E-03 1.08673E-03-1.75343E-02
 -1      1812-2.58403E-03 9.86582E-04-1.59549E-02
 -1      1813-2.64919E-03 1.02347E-03-1.63467E-02
 -1      1814-2.53462E-03 9.37969E-04-1.51870E-02
 -1      1815-3.09174E-03 1.53669E-03-2.43679E-02
 -1      1816-3.05615E-03 1.48088E-03-2.34736E-02
 -1      1817-3.15773E-03 1.65033E-03-2.61864E-02
 -1      1818-3.12564E-03 1.59322E-03-2.52724E-02
 -1      1819-3.06170E-03 1.55647E-03-2.48194E-02
 -1      1820-2.32372E-03 7.53129E-04-1.22695E-02
 -1      1821-2.37854E-03 7.97874E-04-1.29749E-02
 -1      1822-2.43194E-03 8.43542E-04-1.36966E-02
 -1      1823-2.48381E-03 8.90318E-04-1.44341E-02
 -1      1824-2.44286E-03 8.34036E-04-1.33363E-02
 -1      1825-8.13545E-04 9.41510E-05-1.27050E-03
 -1      1826-7.36046E-04 8.02342E-05-1.04490E-03
 -1      1827-9.66904E-04 1.26688E-04-1.78631E-03
 -1      1828-8.90663E-04 1.09650E-04-1.51844E-03
 -1      1829-8.39240E-04 8.25968E-05-1.39277E-03
 -1      1830-1.15766E-03 1.48613E-04-2.72966E-03
 -1      1831-1.22964E-03 1.71333E-04-3.08781E-03
 -1      1832-1.01171E-03 1.07371E-04-2.07881E-03
 -1      1833-1.08503E-03 1.27342E-04-2.39342E-03
 -1      1834-1.13905E-03 1.56294E-04-2.56217E-03
 -1      1835-5.61486E-04 1.72298E-05-6.58496E-04
 -1      1836-6.37816E-04 2.87404E-05-8.39181E-04
 -1      1837-4.84886E-04 7.23296E-06-5.00872E-04
 -1      1838-4.08618E-04-1.26465E-06-3.67383E-04
 -1      1839-5.31406E-04 3.14564E-05-5.80404E-04
 -1      1840-1.83538E-03 4.34349E-04-6.71080E-03
 -1      1841-1.76737E-03 4.01490E-04-6.18524E-03
 -1      1842-1.69851E-03 3.69969E-04-5.68008E-03
 -1      1843-1.70659E-03 3.68388E-04-5.93151E-03
 -1      1844-1.62899E-03 3.39899E-04-5.19626E-03
 -1      1845-2.09410E-03 5.85795E-04-9.62644E-03
 -1      1846-2.15325E-03 6.25995E-04-1.02611E-02
 -1      1847-2.03304E-03 5.46328E-04-9.00361E-03
 -1      1848-2.09635E-03 5.81479E-04-9.31702E-03
 -1      1849-1.97119E-03 5.08143E-04-8.40327E-03
 -1      1850-1.30101E-03 1.95337E-04-3.46753E-03
 -1      1851-1.37178E-03 2.20763E-04-3.86851E-03
 -1      1852-1.44129E-03 2.47400E-04-4.28657E-03
 -1      1853-1.51013E-03 2.75336E-04-4.72699E-03
 -1      1854-1.42841E-03 2.51622E-04-4.07607E-03
 -1      1855-3.44849E-04 3.07239E-05-2.61845E-04
 -1      1856-2.62685E-04 2.33181E-05-1.69916E-04
 -1      1857-2.45254E-04 4.98041E-06-1.57700E-04
 -1      1858-2.02540E-04 1.90587E-05-1.17397E-04
 -1      1859-1.62378E-04 2.38081E-05-8.63472E-05
 -1      1860-1.46706E-04 7.67975E-06-8.00551E-05
 -1      1861-2.93970E-03 1.31738E-03-2.08560E-02
 -1      1862-2.89771E-03 1.26438E-03-2.00068E-02
 -1      1863-2.85414E-03 1.21206E-03-1.91701E-02
 -1      1864-2.81110E-03 1.16229E-03-1.83685E-02
 -1      1865-2.83247E-03 1.22729E-03-1.95875E-02
 -1      1866-3.26797E-03 2.17834E-03-3.47629E-02
 -1      1867-3.28205E-03 2.24058E-03-3.57455E-02
 -1      1868-3.23426E-03 2.05471E-03-3.28117E-02
 -1      1869-3.25198E-03 2.11641E-03-3.37848E-02
 -1      1870-3.31089E-03 2.15136E-03-3.42741E-02
 -1      1871-3.42380E-03 2.49461E-03-3.97046E-02
 -1      1872-3.41691E-03 2.42988E-03-3.86670E-02
 -1      1873-3.42919E-03 2.54276E-03-4.04742E-02
 -1      1874-3.37386E-03 2.50382E-03-3.98762E-02
 -1      1875-3.45816E-03 2.57735E-03-4.10183E-02
 -1      1876-3.40790E-03 2.58700E-03-4.11903E-02
 -1      1877-2.45278E-03 8.25289E-04-1.29767E-02
 -1      1878-2.39638E-03 7.81267E-04-1.22713E-02
 -1      1879-2.33868E-03 7.38196E-04-1.15825E-02
 -1      1880-2.28055E-03 6.96673E-04-1.09116E-02
 -1      1881-2.33176E-03 7.45268E-04-1.19256E-02
 -1      1882-3.40871E-03 2.37097E-03-3.77244E-02
 -1      1883-3.39728E-03 2.30892E-03-3.67303E-02
 -1      1884-3.38443E-03 2.24733E-03-3.57460E-02
 -1      1885-3.36985E-03 2.18605E-03-3.47634E-02
 -1      1886-3.33967E-03 2.27480E-03-3.62367E-02
 -1      1887-2.56153E-03 9.16401E-04-1.44357E-02
 -1      1888-2.50784E-03 8.70365E-04-1.36983E-02
 -1      1889-2.66425E-03 1.01029E-03-1.59354E-02
 -1      1890-2.61387E-03 9.63467E-04-1.51886E-02
 -1      1891-2.54859E-03 9.26852E-04-1.48110E-02
 -1      1892-1.71310E-03 3.67386E-04-6.18249E-03
 -1      1893-1.77932E-03 4.00956E-04-6.70883E-03
 -1      1894-1.84434E-03 4.35468E-04-7.25439E-03
 -1      1895-1.90823E-03 4.71162E-04-7.82024E-03
 -1      1896-1.84038E-03 4.34476E-04-6.98232E-03
 -1      1897-1.26854E-03 2.08207E-04-3.09006E-03
 -1      1898-1.19394E-03 1.85760E-04-2.73036E-03
 -1      1899-1.41509E-03 2.56963E-04-3.87004E-03
 -1      1900-1.34211E-03 2.31917E-04-3.46975E-03
 -1      1901-1.28530E-03 2.01318E-04-3.27818E-03
 -1      1902-1.96839E-03 5.03604E-04-7.82108E-03
 -1      1903-1.90236E-03 4.68445E-04-7.25633E-03
 -1      1904-2.03335E-03 5.40111E-04-8.40401E-03
 -1      1905-1.97039E-03 5.05492E-04-8.11103E-03
 -1      1906-2.09713E-03 5.77692E-04-9.00456E-03
 -1      1907-1.41828E-04-5.58745E-06-7.75947E-05
 -1      1908-1.52512E-04-2.03291E-05-8.18095E-05
 -1      1909-1.96559E-04-1.31291E-05-1.15392E-04
 -1      1910-3.35662E-03 2.58790E-03-4.12203E-02
 -1      1911-3.30425E-03 2.57566E-03-4.10434E-02
 -1      1912-3.32667E-03 2.53985E-03-4.04693E-02
 -1      1913-3.26950E-03 1.88402E-03-2.99290E-02
 -1      1914-3.24425E-03 1.82491E-03-2.89814E-02
 -1      1915-3.21717E-03 1.76614E-03-2.80414E-02
 -1      1916-3.18818E-03 1.70801E-03-2.71096E-02
 -1      1917-3.03100E-03 1.57690E-03-2.52713E-02
 -1      1918-3.06228E-03 1.63489E-03-2.61854E-02
 -1      1919-2.96370E-03 1.46293E-03-2.34724E-02
 -1      1920-2.99816E-03 1.51965E-03-2.43668E-02
 -1      1921-8.63731E-04 7.17915E-05-1.51607E-03
 -1      1922-9.37893E-04 8.87782E-05-1.78630E-03
 -1      1923-7.13627E-04 4.16264E-05-1.04251E-03
 -1      1924-7.88944E-04 5.60823E-05-1.26808E-03
 -1      1925-5.00097E-04 4.64467E-05-5.03064E-04
 -1      1926-4.20382E-04 3.77996E-05-3.68000E-04
 -1      1927-6.57843E-04 6.75248E-05-8.41599E-04
 -1      1928-5.79076E-04 5.63700E-05-6.60566E-04
 -1      1929-3.79153E-04 1.46987E-05-3.16938E-04
 -1      1930-3.35363E-04-7.81207E-06-2.60801E-04
 -1      1931-2.54883E-04-1.16270E-05-1.67754E-04
 -1      1932-2.72381E-03 1.13800E-03-1.83448E-02
 -1      1933-2.76773E-03 1.19027E-03-1.91687E-02
 -1      1934-2.74389E-03 1.12373E-03-1.79400E-02
 -1      1935-2.71399E-03 1.05923E-03-1.67175E-02
 -1      1936-2.76471E-03 1.11164E-03-1.75576E-02
 -1      1937-3.19359E-03 1.93251E-03-3.08829E-02
 -1      1938-3.21481E-03 1.99349E-03-3.18443E-02
 -1      1939-3.23180E-03 1.90794E-03-3.04057E-02
 -1      1940-3.01894E-03 1.42564E-03-2.25898E-02
 -1      1941-2.98011E-03 1.37119E-03-2.17171E-02
 -1      1942-2.99168E-03 1.44395E-03-2.30309E-02
 -1      1943-2.21062E-03 6.66880E-04-1.09093E-02
 -1      1944-2.26787E-03 7.09510E-04-1.15806E-02
 -1      1945-2.21666E-03 6.61356E-04-1.05886E-02
 -1      1946-2.16009E-03 6.16657E-04-9.62730E-03
 -1      1947-2.22136E-03 6.56311E-04-1.02635E-02
 -1      1948-1.57887E-03 3.04809E-04-5.19316E-03
 -1      1949-1.64637E-03 3.35461E-04-5.67739E-03
 -1      1950-1.56890E-03 3.07351E-04-4.95995E-03
 -1      1951-1.48679E-03 2.83264E-04-4.28793E-03
 -1      1952-1.55806E-03 3.10807E-04-4.73004E-03
 -1      1953-9.90211E-04 1.16662E-04-1.93330E-03
 -1      1954-1.11901E-03 1.64777E-04-2.39420E-03
 -1      1955-1.04310E-03 1.45034E-04-2.07861E-03
 -1      1956-6.86256E-04 5.41854E-05-9.41356E-04
 -1      1957-3.12515E-03 1.67153E-03-2.66473E-02
 -1      1958 3.00488E-03 1.35448E-03-2.12820E-02
 -1      1959 3.27967E-03 1.80242E-03-2.85083E-02
 -1      1960 3.17432E-03 2.01935E-03-3.23251E-02
 -1      1961 3.46664E-03 2.40316E-03-3.81974E-02
 -1      1962 2.73093E-03 1.04841E-03-1.63422E-02
 -1      1963 2.96761E-03 1.54017E-03-2.48143E-02
 -1      1964 2.51798E-03 8.61621E-04-1.33313E-02
 -1      1965 8.13469E-04 4.52557E-05-1.38114E-03
 -1      1966 1.17398E-03 1.93682E-04-2.55563E-03
 -1      1967 5.48210E-04 7.13229E-05-5.73329E-04
 -1      1968 1.65411E-03 3.35055E-04-5.92386E-03
 -1      1969 2.02977E-03 5.49918E-04-9.29332E-03
 -1      1970 1.38500E-03 2.16763E-04-4.06953E-03
 -1      1971 2.06659E-04-2.97842E-05-1.19238E-04
 -1      1972 2.74545E-03 1.20632E-03-1.95809E-02
 -1      1973 3.41271E-03 2.15970E-03-3.42725E-02
 -1      1974 3.27418E-03 2.52804E-03-4.03019E-02
 -1      1975 2.25996E-03 7.17357E-04-1.19168E-02
 -1      1976 3.23720E-03 2.26886E-03-3.62371E-02
 -1      1977 2.47012E-03 9.01517E-04-1.48031E-02
 -1      1978 1.89645E-03 4.67713E-04-6.97599E-03
 -1      1979 2.28453E-03 6.91113E-04-1.05721E-02
 -1      1980 1.61765E-03 3.42712E-04-4.95999E-03
 -1      1981 1.02300E-04 9.86528E-06-5.46013E-05
 -1      1982 3.43337E-03 2.62545E-03-4.17953E-02
 -1      1983 3.08426E-03 1.77572E-03-2.85067E-02
 -1      1984 3.15594E-03 1.57353E-03-2.48164E-02
 -1      1985 1.10392E-03 1.19889E-04-2.55102E-03
 -1      1986 8.65047E-04 1.21196E-04-1.38587E-03
 -1      1987 5.14725E-04-7.13844E-06-5.67709E-04
 -1      1988 3.62904E-04-2.35850E-05-2.98099E-04
 -1      1989 3.04891E-04 9.47260E-06-2.20425E-04
 -1      1990 3.25774E-03 2.39566E-03-3.82258E-02
 -1      1991 2.91962E-03 1.24920E-03-1.95835E-02
 -1      1992 2.82865E-03 1.14720E-03-1.79357E-02
 -1      1993 2.69693E-03 1.07308E-03-1.71363E-02
 -1      1994 3.33131E-03 1.91984E-03-3.04036E-02
 -1      1995 2.40398E-03 7.74374E-04-1.19199E-02
 -1      1996 2.89983E-03 1.42605E-03-2.30253E-02
 -1      1997 3.20919E-03 2.14350E-03-3.42716E-02
 -1      1998 3.13261E-03 1.89664E-03-3.04022E-02
 -1      1999 1.75906E-03 4.02719E-04-5.92807E-03
 -1      2000 1.78329E-03 4.01933E-04-6.97195E-03
 -1      2001 1.90859E-03 4.73468E-04-8.09671E-03
 -1      2002 2.03228E-03 5.41915E-04-8.68681E-03
 -1      2003 1.32471E-03 2.38105E-04-3.27192E-03
 -1      2004 1.47275E-03 2.87793E-04-4.07395E-03
 -1      2005 3.44249E-03 2.28156E-03-3.62377E-02
 -1      2006 2.14641E-03 6.30918E-04-1.05659E-02
 -1      2007 1.24568E-03 1.65613E-04-3.26745E-03
 -1      2008 2.36768E-03 8.07380E-04-1.33279E-02
 -1      2009 1.02061E-03 1.54684E-04-1.92643E-03
 -1      2010 6.65219E-04 1.61596E-05-9.29787E-04
 -1      2011 7.07736E-04 9.35534E-05-9.34703E-04
 -1      2012 9.59648E-04 7.97477E-05-1.92175E-03
 -1      2013 3.22102E-03 1.68691E-03-2.66445E-02
 -1      2014 1.52117E-03 2.73291E-04-4.95566E-03
 -1      2015 3.08365E-03 1.46266E-03-2.30275E-02
 -1      2016 2.62733E-03 9.53121E-04-1.48063E-02
 -1      2017 3.37550E-03 2.03906E-03-3.23263E-02
 -1      2018 3.02921E-03 1.65682E-03-2.66427E-02
 -1      2019 2.82565E-03 1.31469E-03-2.12795E-02
 -1      2020 4.53543E-04 2.25109E-05-4.34306E-04
 -1      2021 3.89099E-04 5.47603E-05-3.06261E-04
 -1      2022 1.03971E-04-1.15725E-05-5.55733E-05
 -1      2023 2.56358E-03 9.96322E-04-1.62963E-02
 -1      2024 2.66027E-03 1.10356E-03-1.79770E-02
 -1      2025 2.15608E-03 6.20130E-04-9.93142E-03
 -1      2026 2.03112E-03 5.38031E-04-8.09950E-03
 -1      2027 3.37025E-03 2.45569E-03-3.91075E-02
 -1      2028 3.35145E-03 2.33698E-03-3.72227E-02
 -1      2029 3.15452E-03 1.72988E-03-2.75749E-02
 -1      2030 3.09435E-03 1.61381E-03-2.57287E-02
 -1      2031 3.02761E-03 1.50002E-03-2.39200E-02
 -1      2032 3.32631E-03 2.21314E-03-3.52543E-02
 -1      2033 3.25429E-03 1.96841E-03-3.13638E-02
 -1      2034 2.49663E-03 8.79962E-04-1.40658E-02
 -1      2035 2.87471E-03 1.28048E-03-2.04305E-02
 -1      2036 2.27442E-03 7.02461E-04-1.12424E-02
 -1      2037 1.06489E-03 1.35754E-04-2.23685E-03
 -1      2038 9.14947E-04 9.89466E-05-1.65191E-03
 -1      2039 7.63082E-04 6.77436E-05-1.15605E-03
 -1      2040 6.09029E-04 4.21765E-05-7.49463E-04
 -1      2041 3.20778E-03 1.84827E-03-2.94546E-02
 -1      2042 1.21253E-03 1.78041E-04-2.90965E-03
 -1      2043 2.95434E-03 1.38879E-03-2.21526E-02
 -1      2044 1.63848E-03 3.37298E-04-5.44013E-03
 -1      2045 1.49958E-03 2.78965E-04-4.51302E-03
 -1      2046 1.35749E-03 2.25823E-04-3.66894E-03
 -1      2047 3.29391E-03 2.09007E-03-3.32985E-02
 -1      2048 1.77386E-03 4.00675E-04-6.44826E-03
 -1      2049 2.38804E-03 7.89269E-04-1.26228E-02
 -1      2050 2.59949E-03 9.74704E-04-1.55714E-02
 -1      2051 2.78875E-03 1.17518E-03-1.87572E-02
 -1      2052 2.16037E-03 6.12388E-04-9.29867E-03
 -1      2053 1.90538E-03 4.69067E-04-7.53526E-03
 -1      2054 3.33046E-03 2.62006E-03-4.17349E-02
 -1      2055 2.20649E-04 3.80237E-05-1.24202E-04
 -1      2056 3.47920E-03 2.53301E-03-4.02926E-02
 -1      2057 1.86182E-04 2.21592E-06-1.07971E-04
 -1      2058 8.71256E-05-2.90212E-05-4.06590E-05
 -1      2059 9.43205E-05 2.96219E-05-4.40123E-05
 -1      2060 3.24624E-03 2.63137E-03-4.19308E-02
 -1      2061 3.52005E-03 2.63573E-03-4.19409E-02
 -1      2062 3.37832E-03 2.55234E-03-4.06459E-02
 -1      2063 4.59987E-05 2.21865E-05-2.29066E-05
 -1      2064 4.44827E-05 1.35100E-05-2.76366E-05
 -1      2065 1.26631E-04 4.90519E-05-5.02748E-05
 -1      2066 4.06216E-05-1.43798E-05-2.32132E-05
 -1      2067 4.13854E-05-2.18615E-05-1.93013E-05
 -1      2068 1.13869E-04-4.59753E-05-4.43789E-05
 -1      2069 3.50651E-03 2.67471E-03-4.25749E-02
 -1      2070 3.55924E-03 2.67525E-03-4.25743E-02
 -1      2071 3.55606E-03 2.61373E-03-4.15732E-02
 -1      2072 3.20994E-03 2.67186E-03-4.25692E-02
 -1      2073 3.26373E-03 2.67232E-03-4.25699E-02
 -1      2074 3.20696E-03 2.60760E-03-4.15680E-02
 -1      2075 4.82244E-05 8.66166E-06-2.96307E-05
 -1      2076 4.89490E-05 2.19091E-06-3.15369E-05
 -1      2077 9.80822E-05 1.95006E-05-5.04057E-05
 -1      2078 4.93734E-05-4.17463E-06-3.02357E-05
 -1      2079 4.95561E-05-1.04724E-05-2.99299E-05
 -1      2080 1.03448E-04-5.63321E-07-5.64267E-05
 -1      2081 9.54513E-05-2.01730E-05-4.90109E-05
 -1      2082 3.41032E-03 2.66926E-03-4.25022E-02
 -1      2083 3.46328E-03 2.66980E-03-4.25020E-02
 -1      2084 3.47677E-03 2.63063E-03-4.18682E-02
 -1      2085 3.30582E-03 2.66638E-03-4.24717E-02
 -1      2086 3.35891E-03 2.66687E-03-4.24720E-02
 -1      2087 3.38197E-03 2.62276E-03-4.17653E-02
 -1      2088 3.28847E-03 2.62566E-03-4.18329E-02
 -1      2089 2.69979E-04 6.28523E-05-1.51767E-04
 -1      2090 1.89371E-04 5.34330E-05-8.81000E-05
 -1      2091 1.57100E-04 3.59583E-05-7.72654E-05
 -1      2092 4.36072E-04 7.90461E-05-3.53670E-04
 -1      2093 3.54898E-04 7.13226E-05-2.42616E-04
 -1      2094 3.04820E-04 4.63196E-05-2.02593E-04
 -1      2095 5.97499E-04 9.70361E-05-6.44366E-04
 -1      2096 5.16581E-04 8.73009E-05-4.87209E-04
 -1      2097 4.68792E-04 6.24699E-05-4.28450E-04
 -1      2098 7.58733E-04 1.20520E-04-1.02804E-03
 -1      2099 6.78405E-04 1.08062E-04-8.25160E-04
 -1      2100 6.28154E-04 8.17414E-05-7.42560E-04
 -1      2101 9.18030E-04 1.49464E-04-1.50174E-03
 -1      2102 8.38582E-04 1.34238E-04-1.25372E-03
 -1      2103 7.86570E-04 1.06685E-04-1.14901E-03
 -1      2104 1.07547E-03 1.84067E-04-2.06473E-03
 -1      2105 9.97012E-04 1.66080E-04-1.77210E-03
 -1      2106 9.43072E-04 1.37247E-04-1.64501E-03
 -1      2107 1.23055E-03 2.24089E-04-2.71602E-03
 -1      2108 1.15334E-03 2.03427E-04-2.37942E-03
 -1      2109 1.09753E-03 1.73519E-04-2.23005E-03
 -1      2110 1.38302E-03 2.69483E-04-3.45409E-03
 -1      2111 1.30709E-03 2.46117E-04-3.07427E-03
 -1      2112 1.24968E-03 2.15208E-04-2.90299E-03
 -1      2113 1.53256E-03 3.20115E-04-4.27750E-03
 -1      2114 1.45817E-03 2.94153E-04-3.85525E-03
 -1      2115 1.39907E-03 2.62299E-04-3.66238E-03
 -1      2116 1.67876E-03 3.75848E-04-5.18444E-03
 -1      2117 1.60611E-03 3.47372E-04-4.72065E-03
 -1      2118 1.54555E-03 3.14634E-04-4.50662E-03
 -1      2119 1.82137E-03 4.36613E-04-6.17299E-03
 -1      2120 1.75055E-03 4.05624E-04-5.66862E-03
 -1      2121 1.68878E-03 3.72089E-04-5.43386E-03
 -1      2122 1.96004E-03 5.02295E-04-7.24085E-03
 -1      2123 1.89113E-03 4.68842E-04-6.69710E-03
 -1      2124 1.82824E-03 4.34582E-04-6.44220E-03
 -1      2125 2.09509E-03 5.72999E-04-8.38473E-03
 -1      2126 2.02836E-03 5.37217E-04-7.80274E-03
 -1      2127 1.96424E-03 5.02291E-04-7.52827E-03
 -1      2128 2.22511E-03 6.47899E-04-9.60358E-03
 -1      2129 2.16067E-03 6.09900E-04-8.98454E-03
 -1      2130 2.09627E-03 5.74646E-04-8.68990E-03
 -1      2131 2.35020E-03 7.27222E-04-1.08953E-02
 -1      2132 2.28814E-03 6.86973E-04-1.02406E-02
 -1      2133 2.22299E-03 6.51184E-04-9.92647E-03
 -1      2134 2.47027E-03 8.10885E-04-1.22586E-02
 -1      2135 2.41082E-03 7.68561E-04-1.15695E-02
 -1      2136 2.34481E-03 7.32208E-04-1.12375E-02
 -1      2137 2.58489E-03 8.98546E-04-1.36865E-02
 -1      2138 2.52815E-03 8.54179E-04-1.29645E-02
 -1      2139 2.46161E-03 8.17488E-04-1.26174E-02
 -1      2140 2.69441E-03 9.90278E-04-1.51774E-02
 -1      2141 2.64041E-03 9.43968E-04-1.44241E-02
 -1      2142 2.57328E-03 9.06882E-04-1.40610E-02
 -1      2143 2.79808E-03 1.08564E-03-1.67284E-02
 -1      2144 2.74701E-03 1.03755E-03-1.59455E-02
 -1      2145 2.67984E-03 1.00033E-03-1.55668E-02
 -1      2146 2.89566E-03 1.18453E-03-1.83362E-02
 -1      2147 2.84771E-03 1.13470E-03-1.75254E-02
 -1      2148 2.78037E-03 1.09739E-03-1.71319E-02
 -1      2149 2.98675E-03 1.28659E-03-1.99975E-02
 -1      2150 2.94186E-03 1.23512E-03-1.91604E-02
 -1      2151 2.87488E-03 1.19779E-03-1.87531E-02
 -1      2152 3.07173E-03 1.39179E-03-2.17085E-02
 -1      2153 3.03004E-03 1.33884E-03-2.08469E-02
 -1      2154 2.96297E-03 1.30147E-03-2.04267E-02
 -1      2155 3.15010E-03 1.49978E-03-2.34656E-02
 -1      2156 3.11173E-03 1.44548E-03-2.25815E-02
 -1      2157 3.04504E-03 1.40823E-03-2.21492E-02
 -1      2158 3.22167E-03 1.61040E-03-2.52652E-02
 -1      2159 3.18681E-03 1.55483E-03-2.43604E-02
 -1      2160 3.12052E-03 1.51777E-03-2.39167E-02
 -1      2161 3.28632E-03 1.72345E-03-2.71031E-02
 -1      2162 3.25473E-03 1.66662E-03-2.61795E-02
 -1      2163 3.18933E-03 1.62991E-03-2.57258E-02
 -1      2164 3.34401E-03 1.83857E-03-2.89756E-02
 -1      2165 3.31605E-03 1.78079E-03-2.80353E-02
 -1      2166 3.25114E-03 1.74441E-03-2.75723E-02
 -1      2167 3.39447E-03 1.95554E-03-3.08787E-02
 -1      2168 3.37021E-03 1.89686E-03-2.99236E-02
 -1      2169 3.30626E-03 1.86090E-03-2.94522E-02
 -1      2170 3.43767E-03 2.07421E-03-3.28081E-02
 -1      2171 3.41692E-03 2.01467E-03-3.18403E-02
 -1      2172 3.35429E-03 1.97928E-03-3.13618E-02
 -1      2173 3.47343E-03 2.19417E-03-3.47600E-02
 -1      2174 3.45651E-03 2.13410E-03-3.37815E-02
 -1      2175 3.39485E-03 2.09928E-03-3.32968E-02
 -1      2176 3.50186E-03 2.31529E-03-3.67298E-02
 -1      2177 3.48856E-03 2.25462E-03-3.57429E-02
 -1      2178 3.42848E-03 2.22047E-03-3.52530E-02
 -1      2179 3.52361E-03 2.43673E-03-3.87033E-02
 -1      2180 3.51409E-03 2.37567E-03-3.77100E-02
 -1      2181 3.45535E-03 2.34226E-03-3.72161E-02
 -1      2182 3.53579E-03 2.56267E-03-4.07489E-02
 -1      2183 3.53000E-03 2.50121E-03-3.97512E-02
 -1      2184 3.47377E-03 2.46795E-03-3.92438E-02
 -1      2185 3.50013E-03 2.58448E-03-4.11162E-02
 -1      2186 1.71621E-04-4.67751E-05-8.14584E-05
 -1      2187 2.45325E-04-4.83615E-05-1.44571E-04
 -1      2188 1.45930E-04-3.25094E-05-7.26883E-05
 -1      2189 3.21593E-04-4.53436E-05-2.33770E-04
 -1      2190 3.95645E-04-3.92189E-05-3.44556E-04
 -1      2191 2.84824E-04-2.82196E-05-1.96248E-04
 -1      2192 4.70063E-04-3.09342E-05-4.79457E-04
 -1      2193 5.43733E-04-2.09318E-05-6.36592E-04
 -1      2194 4.38926E-04-1.62652E-05-4.21191E-04
 -1      2195 6.17670E-04-9.19798E-06-8.17790E-04
 -1      2196 6.90812E-04 3.86655E-06-1.02070E-03
 -1      2197 5.90126E-04 3.75913E-06-7.37236E-04
 -1      2198 7.63697E-04 1.85038E-05-1.24652E-03
 -1      2199 8.36054E-04 3.44610E-05-1.49458E-03
 -1      2200 7.39500E-04 2.99901E-05-1.14420E-03
 -1      2201 9.07932E-04 5.18344E-05-1.76497E-03
 -1      2202 9.79412E-04 7.06083E-05-2.05764E-03
 -1      2203 8.86807E-04 6.18007E-05-1.64032E-03
 -1      2204 1.05033E-03 9.08141E-05-2.37237E-03
 -1      2205 1.12067E-03 1.12470E-04-2.70901E-03
 -1      2206 1.03202E-03 9.90932E-05-2.22539E-03
 -1      2207 1.19040E-03 1.35481E-04-3.06737E-03
 -1      2208 1.25946E-03 1.59847E-04-3.44726E-03
 -1      2209 1.17508E-03 1.42061E-04-2.89840E-03
 -1      2210 1.32796E-03 1.85612E-04-3.84843E-03
 -1      2211 1.39569E-03 2.12753E-04-4.27080E-03
 -1      2212 1.31569E-03 1.90493E-04-3.65788E-03
 -1      2213 1.46266E-03 2.41211E-04-4.71402E-03
 -1      2214 1.52885E-03 2.71035E-04-5.17788E-03
 -1      2215 1.45345E-03 2.44360E-04-4.50225E-03
 -1      2216 1.59424E-03 3.02116E-04-5.66217E-03
 -1      2217 1.65872E-03 3.34560E-04-6.16659E-03
 -1      2218 1.58800E-03 3.03529E-04-5.42957E-03
 -1      2219 1.72231E-03 3.68228E-04-6.69084E-03
 -1      2220 1.78493E-03 4.03087E-04-7.23467E-03
 -1      2221 1.71909E-03 3.67898E-04-6.43804E-03
 -1      2222 1.84652E-03 4.39123E-04-7.79723E-03
 -1      2223 1.90732E-03 4.76561E-04-8.37940E-03
 -1      2224 1.84645E-03 4.37070E-04-7.52479E-03
 -1      2225 1.96691E-03 5.15028E-04-8.97801E-03
 -1      2226 2.02557E-03 5.54821E-04-9.59710E-03
 -1      2227 1.96963E-03 5.11107E-04-8.68591E-03
 -1      2228 2.08290E-03 5.95605E-04-1.02337E-02
 -1      2229 2.13934E-03 6.37690E-04-1.08885E-02
 -1      2230 2.08861E-03 5.89855E-04-9.92064E-03
 -1      2231 2.19518E-03 6.81233E-04-1.15643E-02
 -1      2232 2.24942E-03 7.25460E-04-1.22535E-02
 -1      2233 2.20377E-03 6.73606E-04-1.12327E-02
 -1      2234 2.30237E-03 7.70766E-04-1.29594E-02
 -1      2235 2.35407E-03 8.17180E-04-1.36813E-02
 -1      2236 2.31438E-03 7.61837E-04-1.26142E-02
 -1      2237 2.40450E-03 8.64542E-04-1.44192E-02
 -1      2238 2.45366E-03 9.12886E-04-1.51725E-02
 -1      2239 2.41949E-03 8.53954E-04-1.40577E-02
 -1      2240 2.49948E-03 9.60651E-04-1.59196E-02
 -1      2241 2.54600E-03 1.01102E-03-1.67022E-02
 -1      2242 2.51745E-03 9.48414E-04-1.55426E-02
 -1      2243 2.59358E-03 1.06498E-03-1.75428E-02
 -1      2244 2.63720E-03 1.11712E-03-1.83542E-02
 -1      2245 2.61255E-03 1.04949E-03-1.71288E-02
 -1      2246 2.67913E-03 1.16884E-03-1.91563E-02
 -1      2247 2.72008E-03 1.22259E-03-1.99935E-02
 -1      2248 2.70350E-03 1.15457E-03-1.87727E-02
 -1      2249 2.75950E-03 1.27714E-03-2.08432E-02
 -1      2250 2.79739E-03 1.33250E-03-2.17049E-02
 -1      2251 2.78617E-03 1.26007E-03-2.04241E-02
 -1      2252 2.83386E-03 1.38856E-03-2.25780E-02
 -1      2253 2.86878E-03 1.44542E-03-2.34623E-02
 -1      2254 2.86344E-03 1.37000E-03-2.21468E-02
 -1      2255 2.90213E-03 1.50287E-03-2.43571E-02
 -1      2256 2.93401E-03 1.56095E-03-2.52621E-02
 -1      2257 2.93443E-03 1.48278E-03-2.39146E-02
 -1      2258 2.96426E-03 1.61966E-03-2.61767E-02
 -1      2259 2.99287E-03 1.67906E-03-2.71004E-02
 -1      2260 2.99906E-03 1.59814E-03-2.57239E-02
 -1      2261 3.01995E-03 1.73893E-03-2.80327E-02
 -1      2262 3.04537E-03 1.79935E-03-2.89733E-02
 -1      2263 3.05749E-03 1.71599E-03-2.75705E-02
 -1      2264 3.06913E-03 1.86023E-03-2.99213E-02
 -1      2265 3.09130E-03 1.92157E-03-3.08766E-02
 -1      2266 3.10921E-03 1.83596E-03-2.94508E-02
 -1      2267 3.11182E-03 1.98333E-03-3.18384E-02
 -1      2268 3.13073E-03 2.04552E-03-3.28064E-02
 -1      2269 3.15424E-03 1.95777E-03-3.13605E-02
 -1      2270 3.14785E-03 2.10800E-03-3.37800E-02
 -1      2271 3.16322E-03 2.17093E-03-3.47586E-02
 -1      2272 3.19243E-03 2.08119E-03-3.32958E-02
 -1      2273 3.17701E-03 2.23404E-03-3.57417E-02
 -1      2274 3.18909E-03 2.29742E-03-3.67289E-02
 -1      2275 3.22398E-03 2.20605E-03-3.52521E-02
 -1      2276 3.19920E-03 2.36126E-03-3.77235E-02
 -1      2277 3.20782E-03 2.42506E-03-3.87171E-02
 -1      2278 3.24829E-03 2.33215E-03-3.72298E-02
 -1      2279 3.21594E-03 2.49167E-03-3.97555E-02
 -1      2280 3.22125E-03 2.55565E-03-4.07534E-02
 -1      2281 3.26682E-03 2.46180E-03-3.92627E-02
 -1      2282 3.26070E-03 2.57955E-03-4.11158E-02
 -1      2283 2.93968E-03 1.31748E-03-2.08559E-02
 -1      2284 2.89768E-03 1.26450E-03-2.00068E-02
 -1      2285 3.01894E-03 1.42576E-03-2.25898E-02
 -1      2286 2.98012E-03 1.37130E-03-2.17171E-02
 -1      2287 2.91519E-03 1.33428E-03-2.12856E-02
 -1      2288 3.26959E-03 1.88411E-03-2.99289E-02
 -1      2289 3.24422E-03 1.82503E-03-2.89813E-02
 -1      2290 3.21713E-03 1.76625E-03-2.80414E-02
 -1      2291 3.18818E-03 1.70813E-03-2.71095E-02
 -1      2292 3.18190E-03 1.78887E-03-2.85108E-02
 -1      2293 3.23423E-03 2.05480E-03-3.28117E-02
 -1      2294 3.25193E-03 2.11651E-03-3.37849E-02
 -1      2295 3.19355E-03 1.93259E-03-3.08830E-02
 -1      2296 3.21476E-03 1.99356E-03-3.18443E-02
 -1      2297 3.27486E-03 2.02905E-03-3.23282E-02
 -1      2298 3.40929E-03 2.37026E-03-3.77100E-02
 -1      2299 3.39732E-03 2.30905E-03-3.67302E-02
 -1      2300 3.36158E-03 2.39629E-03-3.81640E-02
 -1      2301 3.41871E-03 2.42920E-03-3.86525E-02
 -1      2302 3.42496E-03 2.49451E-03-3.96999E-02
 -1      2303 2.76258E-03 1.11008E-03-1.75357E-02
 -1      2304 2.71445E-03 1.06042E-03-1.67390E-02
 -1      2305 2.64885E-03 1.02345E-03-1.63466E-02
 -1      2306 2.66510E-03 1.01153E-03-1.59565E-02
 -1      2307 2.61403E-03 9.63522E-04-1.51886E-02
 -1      2308 2.96368E-03 1.46306E-03-2.34724E-02
 -1      2309 2.99814E-03 1.51976E-03-2.43669E-02
 -1      2310 3.03099E-03 1.57701E-03-2.52713E-02
 -1      2311 3.06227E-03 1.63500E-03-2.61855E-02
 -1      2312 3.06169E-03 1.55658E-03-2.48194E-02
 -1      2313 2.45276E-03 8.25343E-04-1.29766E-02
 -1      2314 2.39663E-03 7.81415E-04-1.22710E-02
 -1      2315 2.56171E-03 9.16453E-04-1.44357E-02
 -1      2316 2.50784E-03 8.70424E-04-1.36983E-02
 -1      2317 2.44288E-03 8.34085E-04-1.33363E-02
 -1      2318 7.13603E-04 4.16647E-05-1.04248E-03
 -1      2319 7.88928E-04 5.61296E-05-1.26811E-03
 -1      2320 8.63718E-04 7.18399E-05-1.51608E-03
 -1      2321 9.37986E-04 8.89658E-05-1.78635E-03
 -1      2322 8.39221E-04 8.26413E-05-1.39277E-03
 -1      2323 1.26815E-03 2.07851E-04-3.09034E-03
 -1      2324 1.19390E-03 1.85484E-04-2.73221E-03
 -1      2325 1.11894E-03 1.64468E-04-2.39576E-03
 -1      2326 1.04338E-03 1.44848E-04-2.08118E-03
 -1      2327 1.13897E-03 1.56215E-04-2.56236E-03
 -1      2328 6.57853E-04 6.75806E-05-8.41621E-04
 -1      2329 5.79237E-04 5.63848E-05-6.60959E-04
 -1      2330 4.21782E-04 3.83633E-05-3.69894E-04
 -1      2331 5.00303E-04 4.66041E-05-5.03347E-04
 -1      2332 5.31448E-04 3.16215E-05-5.80422E-04
 -1      2333 1.71359E-03 3.67691E-04-6.18567E-03
 -1      2334 1.77921E-03 4.00953E-04-6.70965E-03
 -1      2335 1.57942E-03 3.05090E-04-5.19749E-03
 -1      2336 1.64696E-03 3.35794E-04-5.68154E-03
 -1      2337 1.70656E-03 3.68358E-04-5.93424E-03
 -1      2338 1.97011E-03 5.07528E-04-8.39156E-03
 -1      2339 2.03170E-03 5.45526E-04-8.98967E-03
 -1      2340 2.09467E-03 5.80451E-04-9.29993E-03
 -1      2341 2.09264E-03 5.84900E-04-9.61208E-03
 -1      2342 2.15189E-03 6.25148E-04-1.02483E-02
 -1      2343 1.30116E-03 1.95502E-04-3.46777E-03
 -1      2344 1.37191E-03 2.20907E-04-3.86876E-03
 -1      2345 1.44187E-03 2.47644E-04-4.29087E-03
 -1      2346 1.51105E-03 2.75736E-04-4.73389E-03
 -1      2347 1.42886E-03 2.51727E-04-4.08047E-03
 -1      2348 2.54714E-04-1.11179E-05-1.67603E-04
 -1      2349 3.34329E-04-7.14111E-06-2.59429E-04
 -1      2350 1.96264E-04-1.31239E-05-1.15164E-04
 -1      2351 2.45365E-04 5.36133E-06-1.57721E-04
 -1      2352 1.44351E-04-6.20466E-06-7.89769E-05
 -1      2353 1.54745E-04-2.08359E-05-8.31243E-05
 -1      2354 2.80997E-03 1.24335E-03-2.00055E-02
 -1      2355 2.85073E-03 1.29724E-03-2.08547E-02
 -1      2356 2.72446E-03 1.13937E-03-1.83671E-02
 -1      2357 2.76772E-03 1.19038E-03-1.91687E-02
 -1      2358 2.83231E-03 1.22741E-03-1.95875E-02
 -1      2359 3.38453E-03 2.24751E-03-3.57459E-02
 -1      2360 3.36988E-03 2.18615E-03-3.47634E-02
 -1      2361 3.35339E-03 2.12503E-03-3.37854E-02
 -1      2362 3.33504E-03 2.06433E-03-3.28123E-02
 -1      2363 3.31088E-03 2.15147E-03-3.42740E-02
 -1      2364 3.31414E-03 2.42581E-03-3.86668E-02
 -1      2365 3.32265E-03 2.49157E-03-3.97045E-02
 -1      2366 3.37471E-03 2.50395E-03-3.98762E-02
 -1      2367 3.32636E-03 2.54025E-03-4.04741E-02
 -1      2368 3.30262E-03 2.57414E-03-4.10181E-02
 -1      2369 3.35461E-03 2.58610E-03-4.11903E-02
 -1      2370 2.21016E-03 6.66587E-04-1.09039E-02
 -1      2371 2.26788E-03 7.09511E-04-1.15792E-02
 -1      2372 2.32373E-03 7.53169E-04-1.22695E-02
 -1      2373 2.37851E-03 7.97925E-04-1.29750E-02
 -1      2374 2.33176E-03 7.45274E-04-1.19241E-02
 -1      2375 3.29458E-03 2.30310E-03-3.67299E-02
 -1      2376 3.30501E-03 2.36609E-03-3.77241E-02
 -1      2377 3.26790E-03 2.17845E-03-3.47629E-02
 -1      2378 3.28214E-03 2.24077E-03-3.57455E-02
 -1      2379 3.33964E-03 2.27502E-03-3.62367E-02
 -1      2380 2.43194E-03 8.43587E-04-1.36966E-02
 -1      2381 2.48396E-03 8.90413E-04-1.44341E-02
 -1      2382 2.53474E-03 9.38057E-04-1.51870E-02
 -1      2383 2.58217E-03 9.85151E-04-1.59337E-02
 -1      2384 2.54858E-03 9.26865E-04-1.48110E-02
 -1      2385 1.83478E-03 4.34039E-04-6.71172E-03
 -1      2386 1.76708E-03 4.01310E-04-6.18779E-03
 -1      2387 1.96788E-03 5.03397E-04-7.81708E-03
 -1      2388 1.90152E-03 4.68031E-04-7.25525E-03
 -1      2389 1.83999E-03 4.34315E-04-6.98205E-03
 -1      2390 2.33893E-03 7.38307E-04-1.15808E-02
 -1      2391 2.28009E-03 6.96410E-04-1.09070E-02
 -1      2392 2.21577E-03 6.60763E-04-1.05782E-02
 -1      2393 2.21999E-03 6.55497E-04-1.02514E-02
 -1      2394 2.15884E-03 6.15869E-04-9.61475E-03
 -1      2395 1.69836E-03 3.69814E-04-5.68364E-03
 -1      2396 1.62871E-03 3.39611E-04-5.19965E-03
 -1      2397 1.55818E-03 3.10631E-04-4.73606E-03
 -1      2398 1.48682E-03 2.82996E-04-4.29305E-03
 -1      2399 1.56939E-03 3.07471E-04-4.96632E-03
 -1      2400 1.44142E-04 6.94190E-06-7.85861E-05
 -1      2401 2.02887E-04 1.90602E-05-1.17597E-04
 -1      2402 1.59985E-04 2.31250E-05-8.49193E-05
 -1      2403 3.40609E-03 2.58901E-03-4.12204E-02
 -1      2404 3.45671E-03 2.57905E-03-4.10436E-02
 -1      2405 3.42881E-03 2.54259E-03-4.04694E-02
 -1      2406 3.14610E-03 1.81208E-03-2.89806E-02
 -1      2407 3.17066E-03 1.87214E-03-2.99281E-02
 -1      2408 3.09191E-03 1.69343E-03-2.71087E-02
 -1      2409 3.11986E-03 1.75252E-03-2.80406E-02
 -1      2410 3.15773E-03 1.65045E-03-2.61864E-02
 -1      2411 3.12563E-03 1.59333E-03-2.52724E-02
 -1      2412 3.09171E-03 1.53679E-03-2.43679E-02
 -1      2413 3.05613E-03 1.48101E-03-2.34735E-02
 -1      2414 1.15774E-03 1.48727E-04-2.72990E-03
 -1      2415 1.22975E-03 1.71468E-04-3.08806E-03
 -1      2416 1.01176E-03 1.07474E-04-2.07884E-03
 -1      2417 1.08507E-03 1.27435E-04-2.39344E-03
 -1      2418 9.67277E-04 1.26558E-04-1.78869E-03
 -1      2419 8.90654E-04 1.09691E-04-1.51843E-03
 -1      2420 8.13532E-04 9.41982E-05-1.27048E-03
 -1      2421 7.36029E-04 8.02859E-05-1.04493E-03
 -1      2422 4.07495E-04-9.53246E-07-3.65558E-04
 -1      2423 4.84760E-04 7.33659E-06-5.00600E-04
 -1      2424 5.61297E-04 1.72198E-05-6.58136E-04
 -1      2425 6.37788E-04 2.87931E-05-8.39160E-04
 -1      2426 3.79336E-04 1.53453E-05-3.16978E-04
 -1      2427 3.46342E-04 3.16192E-05-2.63328E-04
 -1      2428 2.63096E-04 2.38780E-05-1.70144E-04
 -1      2429 2.85410E-03 1.21218E-03-1.91700E-02
 -1      2430 2.80932E-03 1.16081E-03-1.83462E-02
 -1      2431 2.74349E-03 1.12371E-03-1.79400E-02
 -1      2432 2.67921E-03 1.08796E-03-1.75561E-02
 -1      2433 2.63008E-03 1.03464E-03-1.67159E-02
 -1      2434 3.31503E-03 2.00385E-03-3.18449E-02
 -1      2435 3.29322E-03 1.94380E-03-3.08837E-02
 -1      2436 3.23170E-03 1.90804E-03-3.04057E-02
 -1      2437 2.88994E-03 1.35175E-03-2.17159E-02
 -1      2438 2.92761E-03 1.40710E-03-2.25887E-02
 -1      2439 2.99167E-03 1.44408E-03-2.30309E-02
 -1      2440 1.84402E-03 4.35358E-04-7.25323E-03
 -1      2441 1.90763E-03 4.70882E-04-7.81559E-03
 -1      2442 1.96927E-03 5.04909E-04-8.10178E-03
 -1      2443 2.09598E-03 5.77007E-04-8.99231E-03
 -1      2444 2.03234E-03 5.39581E-04-8.39289E-03
 -1      2445 1.41467E-03 2.56594E-04-3.87101E-03
 -1      2446 1.34172E-03 2.31599E-04-3.47000E-03
 -1      2447 1.28527E-03 2.01296E-04-3.27859E-03
 -1      2448 9.90119E-04 1.16648E-04-1.93330E-03
 -1      2449 6.86238E-04 5.42435E-05-9.41356E-04
 -1      2450 3.12515E-03 1.67164E-03-2.66473E-02
 -1      2451 8.11209E-06 6.79721E-06-1.10704E-04
 -1      2452 1.15335E-04 2.50894E-03-3.99502E-02
 -1      2453-1.28191E-07 2.27527E-03-3.62303E-02
 -1      2454-5.46095E-07 3.39431E-05-5.40812E-04
 -1      2455-6.81953E-08 2.03518E-04-3.24169E-03
 -1      2456-8.14085E-08 1.90882E-03-3.03939E-02
 -1      2457-2.12062E-09 1.67243E-03-2.66321E-02
 -1      2458-4.56527E-08 1.44516E-03-2.30122E-02
 -1      2459-8.70641E-08 1.22880E-03-1.95657E-02
 -1      2460-2.70655E-08 9.28430E-04-1.47847E-02
 -1      2461-1.70503E-09 4.36290E-04-6.94858E-03
 -1      2462-1.12703E-08 1.19038E-04-1.89519E-03
 -1      2463 4.04562E-07 7.47202E-04-1.18968E-02
 -1      2464 5.38130E-07 3.09673E-04-4.93100E-03
 -1      2465-1.77953E-07 5.82044E-04-9.26854E-03
 -1      2466 3.17428E-04 1.07526E-03-1.71123E-02
 -1      2467 3.87985E-04 2.09080E-03-3.32882E-02
 -1      2468 8.86043E-05 7.10371E-05-1.11626E-03
 -1      2469-1.20100E-03 2.57869E-03-4.10698E-02
 -1      2470-5.28855E-05-6.59503E-06-4.34465E-05
 -1      2471 1.40948E-03 2.58330E-03-4.11252E-02
 -1      2472-5.82442E-05 1.19625E-05-4.22169E-05
 -1      2473-4.58962E-04 2.60548E-04-4.04511E-03
 -1      2474-3.20556E-04 1.51771E-04-2.52436E-03
 -1      2475-1.01259E-03 1.79211E-03-2.84973E-02
 -1      2476 1.01262E-03 1.79211E-03-2.84974E-02
 -1      2477 8.18171E-04 1.33183E-03-2.12653E-02
 -1      2478 8.59382E-04 1.55459E-03-2.48022E-02
 -1      2479-8.59412E-04 1.55455E-03-2.48022E-02
 -1      2480-8.18193E-04 1.33182E-03-2.12652E-02
 -1      2481 3.19596E-04 1.51794E-04-2.52441E-03
 -1      2482-6.85417E-04 8.30805E-04-1.33081E-02
 -1      2483-7.07753E-04 6.67833E-04-1.05478E-02
 -1      2484 6.31191E-04 5.12835E-04-8.07151E-03
 -1      2485 6.85600E-04 8.30847E-04-1.33086E-02
 -1      2486 4.78931E-04 3.64320E-04-5.89936E-03
 -1      2487 4.54853E-04 2.60509E-04-4.04452E-03
 -1      2488 7.05670E-04 6.67839E-04-1.05477E-02
 -1      2489-4.81053E-04 3.64288E-04-5.89938E-03
 -1      2490-6.31449E-04 5.12794E-04-8.07154E-03
 -1      2491 6.04855E-05 1.20316E-05-4.38966E-05
 -1      2492-1.38957E-03 2.58382E-03-4.11352E-02
 -1      2493-1.12742E-03 2.16442E-03-3.44384E-02
 -1      2494-2.90272E-04 9.58601E-05-1.39996E-03
 -1      2495-1.10243E-04 1.00211E-05-2.78257E-04
 -1      2496-9.69582E-04 2.39550E-03-3.81585E-02
 -1      2497 5.29673E-05-7.27867E-06-3.96725E-05
 -1      2498-1.12217E-03 2.01951E-03-3.21234E-02
 -1      2499-2.30002E-04 6.23633E-05-8.63113E-04
 -1      2500 1.27737E-03 2.58559E-03-4.11802E-02
 -1      2501-9.01380E-04 1.02142E-03-1.61828E-02
 -1      2502-8.64804E-04 1.13916E-03-1.80659E-02
 -1      2503 1.18901E-04 1.03071E-05-2.94883E-04
 -1      2504-6.98608E-04 2.39134E-03-3.80666E-02
 -1      2505 1.32364E-03 2.39138E-03-3.80683E-02
 -1      2506-9.13366E-04 1.14247E-03-1.82842E-02
 -1      2507-8.67685E-04 9.96665E-04-1.59690E-02
 -1      2508-1.09422E-03 2.17762E-03-3.47073E-02
 -1      2509 1.09431E-03 2.17774E-03-3.47074E-02
 -1      2510 1.07728E-03 1.99950E-03-3.18799E-02
 -1      2511-1.07723E-03 1.99945E-03-3.18799E-02
 -1      2512-2.87675E-04 8.25937E-05-1.46787E-03
 -1      2513-2.15134E-04 4.12069E-05-8.11558E-04
 -1      2514 6.43507E-04 4.81638E-04-7.80002E-03
 -1      2515 1.09276E-03 1.31488E-03-2.08538E-02
 -1      2516 1.06294E-03 1.81467E-03-2.89489E-02
 -1      2517-1.06295E-03 1.81464E-03-2.89489E-02
 -1      2518 1.16120E-03 1.58921E-03-2.52377E-02
 -1      2519-1.16122E-03 1.58918E-03-2.52377E-02
 -1      2520-1.10722E-03 1.36654E-03-2.16804E-02
 -1      2521 4.43037E-04 1.78367E-04-2.68934E-03
 -1      2522-9.31519E-04 8.64605E-04-1.36572E-02
 -1      2523 4.64035E-04 2.32239E-04-3.84362E-03
 -1      2524 6.56087E-04 3.94557E-04-6.14445E-03
 -1      2525-4.42851E-04 1.78369E-04-2.68960E-03
 -1      2526 9.31534E-04 8.64583E-04-1.36573E-02
 -1      2527-6.42860E-04 4.81602E-04-7.79934E-03
 -1      2528-4.65932E-04 2.31958E-04-3.84034E-03
 -1      2529-6.55558E-04 3.94582E-04-6.14512E-03
 -1      2530-7.46085E-04 6.74896E-04-1.08677E-02
 -1      2531 7.45397E-04 6.74688E-04-1.08639E-02
 -1      2532 8.49118E-04 9.96917E-04-1.59711E-02
 -1      2533 2.88100E-04 8.26251E-05-1.46798E-03
 -1      2534 2.15338E-04 4.11823E-05-8.10844E-04
 -1      2535 1.54226E-04 3.00787E-05-3.24974E-04
 -1      2536-1.49845E-04 3.00421E-05-3.24703E-04
 -1      2537 1.15530E-03 1.17255E-03-1.85598E-02
 -1      2538 1.21040E-03 1.00390E-03-1.58269E-02
 -1      2539 1.37978E-03 2.20271E-03-3.50366E-02
 -1      2540 1.35346E-03 1.98513E-03-3.15569E-02
 -1      2541 9.40893E-04 1.14779E-03-1.83732E-02
 -1      2542 2.60371E-04 5.90767E-05-7.50315E-04
 -1      2543 3.72992E-04 1.09362E-04-1.55538E-03
 -1      2544 1.30417E-03 2.33401E-03-3.71946E-02
 -1      2545-7.08519E-04 3.35047E-04-5.14196E-03
 -1      2546 1.22170E-03 1.69353E-03-2.70478E-02
 -1      2547 1.31334E-03 1.42692E-03-2.26163E-02
 -1      2548-1.22171E-03 1.69349E-03-2.70477E-02
 -1      2549-1.25881E-03 1.25982E-03-1.99437E-02
 -1      2550-4.53566E-04 1.40578E-04-2.02954E-03
 -1      2551-5.98164E-04 2.84199E-04-4.72097E-03
 -1      2552 5.98729E-04 2.84391E-04-4.72378E-03
 -1      2553 7.06840E-04 3.35115E-04-5.14260E-03
 -1      2554 8.24951E-04 5.89141E-04-9.55184E-03
 -1      2555-8.24072E-04 5.89388E-04-9.55565E-03
 -1      2556 1.04105E-03 7.76575E-04-1.22083E-02
 -1      2557-1.04052E-03 7.76575E-04-1.22088E-02
 -1      2558 1.58878E-03 2.45956E-03-3.91854E-02
 -1      2559-1.35489E-03 1.47842E-03-2.34380E-02
 -1      2560-1.16565E-03 1.44299E-03-2.30798E-02
 -1      2561 1.16346E-03 1.43446E-03-2.29440E-02
 -1      2562 9.23953E-04 5.90471E-04-9.22895E-03
 -1      2563-1.07844E-03 5.89954E-04-9.28112E-03
 -1      2564-5.79785E-04 5.90249E-04-9.26459E-03
 -1      2565-1.65961E-03 6.17695E-04-9.27822E-03
 -1      2566-1.37329E-03 5.60404E-04-8.67609E-03
 -1      2567-8.88604E-04 5.61023E-04-8.65469E-03
 -1      2568-3.25839E-04 5.45353E-04-8.66077E-03
 -1      2569-9.41137E-04 6.38146E-04-9.89332E-03
 -1      2570-1.45509E-03 6.37567E-04-9.91446E-03
 -1      2571-3.44309E-04 6.23051E-04-9.89906E-03
 -1      2572-4.96828E-04 2.56533E-03-4.08556E-02
 -1      2573-4.84050E-04 2.51676E-03-4.00846E-02
 -1      2574 8.07368E-04 2.56821E-03-4.08833E-02
 -1      2575 8.18930E-04 2.52006E-03-4.01123E-02
 -1      2576 1.04178E-04 2.58099E-03-4.10972E-02
 -1      2577-2.28555E-03 2.51656E-03-4.00871E-02
 -1      2578-2.28893E-03 2.56515E-03-4.08574E-02
 -1      2579-2.38323E-03 2.56841E-03-4.08902E-02
 -1      2580-1.29551E-03 2.58126E-03-4.11028E-02
 -1      2581-2.37981E-03 2.52012E-03-4.01198E-02
 -1      2582-1.12864E-04-5.96062E-06-7.18515E-05
 -1      2583-3.10866E-05 2.36290E-06-7.25325E-05
 -1      2584-1.00959E-04 5.67571E-06-9.62596E-05
 -1      2585-1.15471E-04 1.10481E-05-7.17227E-05
 -1      2586-3.51080E-05 7.13266E-06-7.10039E-05
 -1      2587-5.51688E-05 2.41193E-06-4.56026E-05
 -1      2588 1.04091E-05 6.75926E-06-8.03686E-05
 -1      2589-2.52609E-05-4.63490E-06-4.11615E-05
 -1      2590 4.03884E-05 1.39997E-05-4.19360E-05
 -1      2591 3.86873E-06 3.05656E-06-3.77798E-05
 -1      2592 4.27589E-05 7.07431E-06-7.28743E-05
 -1      2593-2.55682E-03 1.92190E-03-3.03948E-02
 -1      2594-1.39625E-03 1.85570E-03-2.94390E-02
 -1      2595-2.16207E-03 1.85530E-03-2.94457E-02
 -1      2596-2.23242E-03 1.96864E-03-3.12593E-02
 -1      2597-1.06802E-03 1.90504E-03-3.02978E-02
 -1      2598-1.45590E-03 1.96904E-03-3.12533E-02
 -1      2599-5.10397E-04 1.84951E-03-2.94420E-02
 -1      2600-8.92319E-04 1.91181E-03-3.03919E-02
 -1      2601-5.57763E-04 1.96355E-03-3.12559E-02
 -1      2602-1.66281E-03 1.91151E-03-3.03963E-02
 -1      2603 1.26425E-05 1.02590E-05-1.36608E-04
 -1      2604 5.43928E-05 1.75385E-05-8.67516E-05
 -1      2605-1.30169E-04 9.07410E-06-1.52840E-04
 -1      2606-1.57883E-04 1.46070E-05-1.17664E-04
 -1      2607-1.48488E-03 2.22297E-03-3.53320E-02
 -1      2608-2.27936E-03 2.22275E-03-3.53359E-02
 -1      2609-2.64219E-03 2.28256E-03-3.62330E-02
 -1      2610-1.27353E-03 2.33567E-03-3.71465E-02
 -1      2611-2.07307E-03 2.33577E-03-3.71495E-02
 -1      2612-9.15406E-04 2.27744E-03-3.62461E-02
 -1      2613-5.65965E-04 2.21924E-03-3.53327E-02
 -1      2614-1.71828E-03 2.27683E-03-3.62327E-02
 -1      2615-3.48423E-04 2.33310E-03-3.71470E-02
 -1      2616 2.46283E-04 1.63213E-04-2.42234E-03
 -1      2617 2.04210E-04 1.45287E-04-2.27522E-03
 -1      2618 3.21982E-05 1.28980E-04-2.03481E-03
 -1      2619 2.34567E-04 1.28461E-04-1.84682E-03
 -1      2620 1.96006E-04 1.10986E-04-1.72095E-03
 -1      2621 4.11042E-04 1.41441E-04-2.08463E-03
 -1      2622 7.70653E-04 1.61199E-04-2.45453E-03
 -1      2623 5.12884E-04 1.27794E-04-2.05379E-03
 -1      2624 6.94436E-04 1.26289E-04-1.88078E-03
 -1      2625 5.03220E-04 1.65250E-04-2.26581E-03
 -1      2626 4.56810E-04 1.32261E-04-1.71115E-03
 -1      2627 7.61710E-04 1.63941E-04-2.28701E-03
 -1      2628 6.82340E-04 1.30838E-04-1.73330E-03
 -1      2629-3.50422E-05-2.63256E-06-8.62671E-05
 -1      2630-1.53893E-04-4.20441E-06-1.18043E-04
 -1      2631-1.01706E-04 1.93900E-03-3.08698E-02
 -1      2632-1.01000E-04 1.87902E-03-2.99140E-02
 -1      2633-1.61889E-03 1.93863E-03-3.08754E-02
 -1      2634-1.60732E-03 1.87862E-03-2.99201E-02
 -1      2635-1.66994E-03 2.30610E-03-3.67248E-02
 -1      2636-2.02478E-03 2.36501E-03-3.76435E-02
 -1      2637-1.66378E-03 2.24428E-03-3.57399E-02
 -1      2638-6.61697E-04 2.12367E-04-3.24921E-03
 -1      2639-6.59627E-04 2.15104E-04-3.44332E-03
 -1      2640-9.17314E-04 2.46537E-04-3.64337E-03
 -1      2641-9.19756E-04 2.47038E-04-3.85068E-03
 -1      2642-2.18019E-04 2.29780E-04-3.63261E-03
 -1      2643-8.71498E-04 2.05378E-04-3.15987E-03
 -1      2644-8.65686E-04 2.06749E-04-2.97077E-03
 -1      2645-2.31874E-04 1.88162E-04-2.95933E-03
 -1      2646-5.12967E-04 1.27803E-04-2.05379E-03
 -1      2647-4.78904E-04 1.09117E-04-1.90177E-03
 -1      2648-7.05649E-04 1.39874E-04-2.37377E-03
 -1      2649-6.65260E-04 1.17861E-04-2.20774E-03
 -1      2650-1.49836E-04 1.36375E-04-2.19886E-03
 -1      2651-6.21670E-04 1.93998E-04-3.24804E-03
 -1      2652-6.23445E-04 1.91250E-04-3.06343E-03
 -1      2653-7.57465E-04 1.60497E-04-2.88107E-03
 -1      2654-7.52859E-04 1.61071E-04-2.71017E-03
 -1      2655-1.70654E-04 1.78712E-04-2.87235E-03
 -1      2656-1.06144E-03 6.01907E-04-9.59879E-03
 -1      2657-1.03042E-03 5.62763E-04-8.97569E-03
 -1      2658-4.54872E-04 2.17284E-04-3.33424E-03
 -1      2659-3.05437E-04 4.72540E-04-7.50039E-03
 -1      2660-1.28687E-03 4.87662E-04-7.51009E-03
 -1      2661-9.47219E-04 4.44338E-04-6.95540E-03
 -1      2662-3.37237E-04 4.12881E-04-6.54113E-03
 -1      2663-1.25953E-03 4.29821E-04-6.55155E-03
 -1      2664-6.47338E-04 4.51702E-04-7.07849E-03
 -1      2665-8.69319E-04 1.99866E-04-3.35473E-03
 -1      2666-8.72556E-04 2.00174E-04-3.54405E-03
 -1      2667-2.23855E-04 2.19645E-04-3.53501E-03
 -1      2668-9.34985E-04 4.53205E-04-7.23241E-03
 -1      2669-1.25457E-03 4.34908E-04-6.82398E-03
 -1      2670-1.23285E-03 9.21698E-04-1.47893E-02
 -1      2671-1.25916E-03 9.04548E-04-1.44166E-02
 -1      2672-1.55871E-03 8.67295E-04-1.40451E-02
 -1      2673-1.58030E-03 8.52559E-04-1.36822E-02
 -1      2674-3.50223E-04 8.80466E-04-1.40388E-02
 -1      2675-2.12161E-04 1.10069E-04-1.88733E-03
 -1      2676-3.78034E-04 1.19167E-04-2.18764E-03
 -1      2677-1.20461E-04 1.41707E-04-2.34359E-03
 -1      2678-1.27869E-03 4.94559E-04-7.79906E-03
 -1      2679-3.90234E-04 1.89786E-04-3.14917E-03
 -1      2680-3.91591E-05 1.92401E-04-3.04512E-03
 -1      2681 2.74225E-04 1.94956E-04-3.23412E-03
 -1      2682 1.28028E-04 1.62941E-04-2.68050E-03
 -1      2683 4.28858E-04 1.61871E-04-2.86135E-03
 -1      2684 1.70077E-04 1.78723E-04-2.87239E-03
 -1      2685 6.21747E-04 1.94091E-04-3.24809E-03
 -1      2686 6.23324E-04 1.91255E-04-3.06364E-03
 -1      2687 7.57092E-04 1.60622E-04-2.88116E-03
 -1      2688 7.52324E-04 1.61072E-04-2.71039E-03
 -1      2689-4.14871E-05 2.16257E-04-3.42522E-03
 -1      2690-3.54879E-04 2.13072E-04-3.23528E-03
 -1      2691-5.92853E-04 2.47576E-04-3.62403E-03
 -1      2692-2.67392E-04 2.48966E-04-3.82183E-03
 -1      2693-1.60798E-03 1.67606E-03-2.66352E-02
 -1      2694-1.56733E-03 1.70137E-03-2.70988E-02
 -1      2695-2.08696E-03 1.76254E-03-2.80336E-02
 -1      2696-5.01859E-04 1.73148E-03-2.75604E-02
 -1      2697-2.12610E-03 1.73800E-03-2.75647E-02
 -1      2698 1.60797E-03 1.67612E-03-2.66352E-02
 -1      2699 1.56732E-03 1.70142E-03-2.70988E-02
 -1      2700 2.12607E-03 1.73805E-03-2.75647E-02
 -1      2701 2.08695E-03 1.76259E-03-2.80336E-02
 -1      2702 5.01867E-04 1.73149E-03-2.75604E-02
 -1      2703-6.08495E-04 1.82214E-03-2.89635E-02
 -1      2704-9.85411E-05 1.70184E-03-2.70914E-02
 -1      2705-8.62822E-04 1.67644E-03-2.66294E-02
 -1      2706-6.03436E-04 1.76327E-03-2.80224E-02
 -1      2707-1.37301E-03 1.73849E-03-2.75570E-02
 -1      2708-2.10450E-03 1.82147E-03-2.89740E-02
 -1      2709 9.85287E-05 1.70184E-03-2.70914E-02
 -1      2710 8.62812E-04 1.67646E-03-2.66293E-02
 -1      2711 1.37303E-03 1.73855E-03-2.75569E-02
 -1      2712 6.03422E-04 1.76328E-03-2.80223E-02
 -1      2713-6.04432E-04 1.22364E-03-1.95612E-02
 -1      2714 8.93927E-05 1.25547E-03-1.99806E-02
 -1      2715-3.15279E-04 1.30498E-03-2.08274E-02
 -1      2716-4.03387E-04 1.28075E-03-2.04093E-02
 -1      2717-1.01686E-03 1.27118E-03-2.04030E-02
 -1      2718-1.42444E-03 1.25476E-03-1.99913E-02
 -1      2719-1.37031E-03 1.22311E-03-1.95695E-02
 -1      2720-1.85251E-03 1.30393E-03-2.08439E-02
 -1      2721-1.79507E-03 1.27051E-03-2.04143E-02
 -1      2722 4.79004E-04 1.09214E-04-1.90182E-03
 -1      2723 6.64929E-04 1.17989E-04-2.20782E-03
 -1      2724 1.49377E-04 1.36385E-04-2.19887E-03
 -1      2725 7.05102E-04 1.39858E-04-2.37376E-03
 -1      2726 2.11289E-04 1.10117E-04-1.88736E-03
 -1      2727-3.21767E-05 1.28974E-04-2.03483E-03
 -1      2728 3.76648E-04 1.19253E-04-2.18767E-03
 -1      2729 1.19999E-04 1.41736E-04-2.34364E-03
 -1      2730 3.90898E-05 1.92400E-04-3.04510E-03
 -1      2731-2.74297E-04 1.94943E-04-3.23409E-03
 -1      2732-1.28530E-04 1.62915E-04-2.68045E-03
 -1      2733-4.29374E-04 1.61835E-04-2.86131E-03
 -1      2734-1.44176E-03 6.47775E-04-1.02433E-02
 -1      2735 7.90181E-05 9.05378E-04-1.44033E-02
 -1      2736-5.43869E-04 9.22340E-04-1.47794E-02
 -1      2737-2.68910E-04 8.53957E-04-1.36604E-02
 -1      2738-8.83015E-04 8.68256E-04-1.40308E-02
 -1      2739-7.90349E-05 9.05397E-04-1.44033E-02
 -1      2740 5.43859E-04 9.22361E-04-1.47794E-02
 -1      2741 2.68986E-04 8.53979E-04-1.36607E-02
 -1      2742 8.83088E-04 8.68282E-04-1.40310E-02
 -1      2743 3.50296E-04 8.80489E-04-1.40390E-02
 -1      2744 1.23299E-03 9.21732E-04-1.47893E-02
 -1      2745 1.25913E-03 9.04563E-04-1.44166E-02
 -1      2746 1.58040E-03 8.52604E-04-1.36825E-02
 -1      2747 1.55893E-03 8.67368E-04-1.40453E-02
 -1      2748 6.61243E-04 2.12211E-04-3.24927E-03
 -1      2749 6.59533E-04 2.15123E-04-3.44351E-03
 -1      2750 9.14930E-04 2.46310E-04-3.64315E-03
 -1      2751 9.17709E-04 2.47070E-04-3.85058E-03
 -1      2752 2.16003E-04 2.29768E-04-3.63234E-03
 -1      2753-5.66092E-05 4.19981E-04-6.67058E-03
 -1      2754 3.92635E-04 4.28553E-04-6.94171E-03
 -1      2755 1.89513E-04 3.80695E-04-6.14046E-03
 -1      2756 6.27414E-04 3.85934E-04-6.40420E-03
 -1      2757 2.48885E-04 4.01310E-04-6.41427E-03
 -1      2758 8.90148E-04 4.27771E-04-6.95437E-03
 -1      2759 9.01904E-04 4.18947E-04-6.68745E-03
 -1      2760 1.10761E-03 3.84808E-04-6.42228E-03
 -1      2761 1.11352E-03 3.78983E-04-6.16780E-03
 -1      2762 4.14127E-05 2.16258E-04-3.42519E-03
 -1      2763 3.54804E-04 2.13085E-04-3.23525E-03
 -1      2764 2.65385E-04 2.48903E-04-3.82151E-03
 -1      2765 5.90892E-04 2.47553E-04-3.62368E-03
 -1      2766 5.66041E-05 4.19984E-04-6.67056E-03
 -1      2767-3.92640E-04 4.28542E-04-6.94168E-03
 -1      2768-1.90592E-04 3.80668E-04-6.14044E-03
 -1      2769-6.28525E-04 3.85908E-04-6.40420E-03
 -1      2770-2.49987E-04 4.01299E-04-6.41427E-03
 -1      2771-1.17779E-03 7.68428E-04-1.22506E-02
 -1      2772-1.12787E-03 7.39679E-04-1.19018E-02
 -1      2773-1.49113E-03 7.75885E-04-1.26009E-02
 -1      2774-3.34764E-04 7.89655E-04-1.25942E-02
 -1      2775-1.54563E-03 8.07061E-04-1.29602E-02
 -1      2776-1.32097E-03 5.31116E-04-8.38218E-03
 -1      2777 5.87395E-05 4.54139E-04-7.21471E-03
 -1      2778 5.07994E-04 4.45001E-04-6.94274E-03
 -1      2779 8.31396E-04 4.88656E-04-7.49256E-03
 -1      2780 3.05304E-04 4.72552E-04-7.50038E-03
 -1      2781 3.71165E-04 4.96151E-04-7.77165E-03
 -1      2782 9.46696E-04 4.44211E-04-6.95546E-03
 -1      2783 9.34753E-04 4.53115E-04-7.23127E-03
 -1      2784 1.27826E-03 4.94490E-04-7.79787E-03
 -1      2785 1.28617E-03 4.87525E-04-7.51016E-03
 -1      2786-6.04654E-04 8.25293E-05-1.68444E-03
 -1      2787-6.44156E-04 1.03903E-04-1.83145E-03
 -1      2788-1.53424E-04 1.02823E-04-1.67505E-03
 -1      2789-5.87469E-05 4.54135E-04-7.21474E-03
 -1      2790-5.07997E-04 4.44983E-04-6.94276E-03
 -1      2791-3.71322E-04 4.96130E-04-7.77172E-03
 -1      2792-8.31554E-04 4.88612E-04-7.49262E-03
 -1      2793 5.02282E-04 7.40314E-04-1.18906E-02
 -1      2794-7.36989E-05 7.69342E-04-1.22364E-02
 -1      2795 8.49341E-04 7.76772E-04-1.25859E-02
 -1      2796 2.63093E-04 8.08490E-04-1.29382E-02
 -1      2797 3.35263E-04 7.89672E-04-1.25945E-02
 -1      2798-5.90939E-05 5.63090E-04-8.95151E-03
 -1      2799-6.21263E-05 6.02190E-04-9.57458E-03
 -1      2800-1.14173E-04 2.46562E-05-5.32999E-04
 -1      2801 1.51756E-05 2.98418E-05-4.56144E-04
 -1      2802-7.40435E-05 2.83963E-05-5.68599E-04
 -1      2803-9.79700E-05 3.95708E-05-6.69545E-04
 -1      2804-2.24462E-04 2.01919E-05-6.57360E-04
 -1      2805-5.09814E-04 2.01538E-04-3.52355E-03
 -1      2806-1.76856E-04 2.01799E-04-3.32342E-03
 -1      2807 8.65421E-04 2.06528E-04-2.97075E-03
 -1      2808 2.31913E-04 1.88161E-04-2.95918E-03
 -1      2809 8.71589E-04 2.05384E-04-3.15991E-03
 -1      2810-1.61570E-03 2.27369E-03-3.62325E-02
 -1      2811-2.16115E-03 2.22327E-03-3.54705E-02
 -1      2812-2.21687E-03 2.25645E-03-3.59620E-02
 -1      2813-5.48893E-04 2.22696E-03-3.54677E-02
 -1      2814 1.75916E-04 2.01945E-04-3.32500E-03
 -1      2815 2.22830E-04 2.19768E-04-3.53659E-03
 -1      2816 5.08915E-04 2.01706E-04-3.52515E-03
 -1      2817 8.71890E-04 2.00437E-04-3.54568E-03
 -1      2818 8.68484E-04 1.99994E-04-3.35646E-03
 -1      2819-2.78426E-04 2.07349E-04-3.12843E-03
 -1      2820-5.71559E-04 2.07812E-04-2.95007E-03
 -1      2821-2.14553E-03 1.66074E-03-2.63987E-02
 -1      2822-2.18252E-03 1.63737E-03-2.59372E-02
 -1      2823-5.84977E-04 1.62953E-03-2.59322E-02
 -1      2824 2.14552E-03 1.66081E-03-2.63987E-02
 -1      2825 2.18253E-03 1.63746E-03-2.59372E-02
 -1      2826 5.84961E-04 1.62954E-03-2.59322E-02
 -1      2827-1.44169E-03 1.63795E-03-2.59283E-02
 -1      2828-6.85665E-04 1.66161E-03-2.63855E-02
 -1      2829 6.85658E-04 1.66163E-03-2.63854E-02
 -1      2830 1.44169E-03 1.63798E-03-2.59282E-02
 -1      2831 5.71658E-04 2.07821E-04-2.94991E-03
 -1      2832 2.78540E-04 2.07352E-04-3.12825E-03
 -1      2833 4.00931E-04 4.36560E-04-6.79378E-03
 -1      2834 3.37515E-04 4.12871E-04-6.54078E-03
 -1      2835 8.31831E-04 4.30783E-04-6.53233E-03
 -1      2836 1.25458E-03 4.34782E-04-6.82254E-03
 -1      2837 1.25928E-03 4.29616E-04-6.55131E-03
 -1      2838-8.31565E-04 4.30782E-04-6.53269E-03
 -1      2839-4.00653E-04 4.36564E-04-6.79415E-03
 -1      2840-1.70365E-03 9.34595E-04-1.50025E-02
 -1      2841-1.68057E-03 9.50223E-04-1.53788E-02
 -1      2842-4.27341E-04 9.63761E-04-1.53724E-02
 -1      2843 2.49734E-04 4.38255E-04-7.07717E-03
 -1      2844 3.13462E-04 4.60646E-04-7.36877E-03
 -1      2845 7.16829E-04 4.44352E-04-7.35842E-03
 -1      2846-7.16522E-04 4.44316E-04-7.35806E-03
 -1      2847-2.49432E-04 4.38237E-04-7.07683E-03
 -1      2848-3.13150E-04 4.60625E-04-7.36843E-03
 -1      2849 1.23604E-03 4.36464E-04-7.10566E-03
 -1      2850 1.22868E-03 4.43184E-04-7.37696E-03
 -1      2851-6.61861E-04 1.99571E-03-3.17333E-02
 -1      2852-2.18963E-03 1.99512E-03-3.17420E-02
 -1      2853-1.29170E-04 1.05931E-04-1.79886E-03
 -1      2854-3.53153E-04 8.39364E-05-1.66306E-03
 -1      2855-1.48842E-03 6.97126E-04-1.13848E-02
 -1      2856-1.54277E-03 7.28065E-04-1.17300E-02
 -1      2857-3.80057E-04 7.12688E-04-1.13775E-02
 -1      2858-1.81767E-03 1.17507E-03-1.89268E-02
 -1      2859-1.87528E-03 1.20848E-03-1.93457E-02
 -1      2860-4.62261E-04 1.18690E-03-1.89212E-02
 -1      2861-3.42682E-04 9.35963E-04-1.49803E-02
 -1      2862-9.79732E-04 9.51128E-04-1.53644E-02
 -1      2863-3.77299E-04 1.20967E-03-1.93269E-02
 -1      2864-1.05962E-03 1.17589E-03-1.89142E-02
 -1      2865 1.05585E-04 2.30634E-03-3.67217E-02
 -1      2866-7.12680E-04 2.27386E-03-3.62300E-02
 -1      2867-4.44442E-04 2.25685E-03-3.59562E-02
 -1      2868-1.25942E-03 2.22354E-03-3.54665E-02
 -1      2869-4.97383E-04 7.40380E-04-1.18908E-02
 -1      2870 7.40988E-05 7.69351E-04-1.22364E-02
 -1      2871-8.44631E-04 7.76848E-04-1.25858E-02
 -1      2872-2.63018E-04 8.08475E-04-1.29379E-02
 -1      2873-8.90155E-04 4.27744E-04-6.95436E-03
 -1      2874-9.02036E-04 4.18917E-04-6.68659E-03
 -1      2875-1.10871E-03 3.84755E-04-6.42228E-03
 -1      2876-1.11471E-03 3.78967E-04-6.16701E-03
 -1      2877-2.45915E-04 2.85413E-05-4.74749E-04
 -1      2878-2.57255E-04 2.36650E-05-5.47823E-04
 -1      2879-3.67321E-04 2.61993E-05-6.00994E-04
 -1      2880-3.84019E-04 1.87103E-05-6.79247E-04
 -1      2881 3.88840E-04 1.89931E-04-3.15069E-03
 -1      2882-1.08946E-03 1.68966E-03-2.68540E-02
 -1      2883 1.08945E-03 1.68969E-03-2.68540E-02
 -1      2884-3.77959E-04 5.32083E-04-8.34826E-03
 -1      2885 3.11969E-04 7.29538E-04-1.17031E-02
 -1      2886 8.72727E-04 6.97993E-04-1.13662E-02
 -1      2887 3.80130E-04 7.12576E-04-1.13755E-02
 -1      2888-4.12888E-04 6.48599E-04-1.02100E-02
 -1      2889 4.53103E-04 2.17264E-04-3.33380E-03
 -1      2890 1.17818E-03 7.68451E-04-1.22506E-02
 -1      2891 1.12826E-03 7.39695E-04-1.19018E-02
 -1      2892 1.54570E-03 8.07115E-04-1.29605E-02
 -1      2893 1.49120E-03 7.75946E-04-1.26011E-02
 -1      2894 6.47474E-04 4.51713E-04-7.07811E-03
 -1      2895-2.22338E-03 2.18955E-03-3.48455E-02
 -1      2896-5.42243E-04 2.54390E-03-4.05098E-02
 -1      2897 1.72857E-04 2.48246E-03-3.95261E-02
 -1      2898 7.61925E-04 2.54601E-03-4.05375E-02
 -1      2899 5.58746E-04 4.21053E-04-6.81935E-03
 -1      2900-1.62477E-03 2.48229E-03-3.95276E-02
 -1      2901-6.36427E-04 2.54632E-03-4.05424E-02
 -1      2902-3.07596E-04 1.15073E-04-1.96134E-03
 -1      2903-5.59560E-04 4.21019E-04-6.81903E-03
 -1      2904 7.18732E-04 7.51256E-04-1.20603E-02
 -1      2905-7.19005E-04 7.51350E-04-1.20621E-02
 -1      2906-1.23583E-03 4.36438E-04-7.10447E-03
 -1      2907-1.22836E-03 4.43150E-04-7.37662E-03
 -1      2908-3.12284E-04 7.29649E-04-1.17051E-02
 -1      2909-8.68653E-04 6.98171E-04-1.13683E-02
 -1      2910-7.75031E-04 9.12158E-04-1.46144E-02
 -1      2911 9.70578E-04 9.51337E-04-1.53654E-02
 -1      2912 3.33598E-04 9.36165E-04-1.49813E-02
 -1      2913 4.18162E-04 9.63857E-04-1.53735E-02
 -1      2914-8.68456E-04 1.23603E-03-1.97550E-02
 -1      2915 1.69460E-03 9.34664E-04-1.50035E-02
 -1      2916 1.67156E-03 9.50367E-04-1.53798E-02
 -1      2917 6.04980E-04 8.26697E-05-1.68457E-03
 -1      2918 6.44321E-04 1.03903E-04-1.83149E-03
 -1      2919 1.53645E-04 1.02841E-04-1.67510E-03
 -1      2920 1.48802E-03 6.97030E-04-1.13828E-02
 -1      2921 1.54235E-03 7.27974E-04-1.17280E-02
 -1      2922 1.29400E-04 1.05930E-04-1.79895E-03
 -1      2923 3.52556E-04 8.40050E-05-1.66314E-03
 -1      2924-1.64088E-04 4.95221E-06-3.87589E-04
 -1      2925-6.63105E-05 2.31601E-05-3.98790E-04
 -1      2926-4.76296E-05 1.39850E-05-3.18973E-04
 -1      2927 1.43179E-05 9.40418E-07-2.14313E-05
 -1      2928-8.90317E-06 1.61610E-06-2.08217E-05
 -1      2929 5.52110E-06-8.95984E-07-3.51325E-06
 -1      2930 3.84927E-05 1.04117E-06-7.01548E-05
 -1      2931 1.92967E-05-2.83575E-06-6.24255E-06
 -1      2932 7.83341E-04 1.61447E-04-1.89777E-03
 -1      2933-2.16085E-03 2.36562E-03-3.76895E-02
 -1      2934-2.10586E-03 2.33276E-03-3.71952E-02
 -1      2935-4.83364E-04 2.33541E-03-3.71928E-02
 -1      2936 2.11027E-06 1.40064E-06-2.08789E-05
 -1      2937-2.86935E-04 3.60014E-06-4.08494E-04
 -1      2938-2.68529E-04 1.20492E-05-3.49653E-04
 -1      2939 7.66146E-04 9.12296E-04-1.46156E-02
 -1      2940-1.19855E-03 2.33297E-03-3.71922E-02
 -1      2941-3.77890E-04 2.36591E-03-3.76854E-02
 -1      2942 2.61426E-04 2.61108E-03-4.15774E-02
 -1      2943 4.15068E-04 2.61113E-03-4.15774E-02
 -1      2944-2.62747E-04 2.61110E-03-4.15774E-02
 -1      2945 3.07413E-04 1.15107E-04-1.96140E-03
 -1      2946 9.96524E-04 2.64974E-03-4.21932E-02
 -1      2947 6.95969E-04 2.54729E-03-4.05651E-02
 -1      2948 8.42674E-04 2.64964E-03-4.21930E-02
 -1      2949-1.60201E-04 2.33885E-05-5.10140E-04
 -1      2950-1.03332E-03 2.28631E-03-3.64274E-02
 -1      2951 2.59090E-03 2.04077E-03-3.23188E-02
 -1      2952 2.38498E-03 2.11999E-03-3.36752E-02
 -1      2953 1.59674E-03 2.12028E-03-3.36700E-02
 -1      2954 1.58054E-03 2.01229E-03-3.19343E-02
 -1      2955 1.36797E-03 2.09336E-03-3.32883E-02
 -1      2956 2.36087E-03 2.01190E-03-3.19404E-02
 -1      2957 2.09601E-03 1.05269E-03-1.63235E-02
 -1      2958 2.13400E-03 1.10153E-03-1.71138E-02
 -1      2959 1.33601E-03 1.02680E-03-1.60667E-02
 -1      2960 2.00160E-03 1.07490E-03-1.68675E-02
 -1      2961 1.96539E-03 1.02598E-03-1.60819E-02
 -1      2962 2.60579E-03 2.10086E-03-3.32899E-02
 -1      2963 2.39684E-03 2.18082E-03-3.46532E-02
 -1      2964 2.61931E-03 2.16120E-03-3.42662E-02
 -1      2965 1.60466E-03 2.18114E-03-3.46487E-02
 -1      2966-2.92612E-04 2.44984E-03-3.90075E-02
 -1      2967-2.02955E-03 2.42402E-03-3.85865E-02
 -1      2968-1.04391E-03 2.48763E-03-3.95986E-02
 -1      2969-2.43660E-04 2.37923E-05-2.64297E-04
 -1      2970-5.35532E-05 1.52163E-05-2.04153E-04
 -1      2971-1.07371E-04 1.99726E-05-1.51478E-04
 -1      2972 2.10498E-05 1.99646E-06-8.16145E-06
 -1      2973 1.37608E-05 2.85438E-06-5.00720E-06
 -1      2974-4.91455E-04 2.64843E-03-4.21703E-02
 -1      2975-1.01597E-03 2.64840E-03-4.21706E-02
 -1      2976 6.64223E-05 1.51847E-05-2.05167E-04
 -1      2977 7.80005E-05 2.59741E-05-2.32540E-04
 -1      2978 1.10592E-04 2.01860E-05-1.52864E-04
 -1      2979-1.03356E-04 4.55461E-05-6.92579E-04
 -1      2980-4.29433E-04 5.66449E-05-8.01181E-04
 -1      2981-2.84912E-04 3.84841E-05-6.32525E-04
 -1      2982-8.61115E-05 2.91478E-05-4.25755E-04
 -1      2983-3.47874E-04 3.97645E-05-5.15777E-04
 -1      2984-1.91568E-04 4.42079E-05-5.61702E-04
 -1      2985 1.85247E-03 1.30400E-03-2.08439E-02
 -1      2986 4.03319E-04 1.28078E-03-2.04093E-02
 -1      2987 1.42446E-03 1.25482E-03-1.99913E-02
 -1      2988 1.89000E-03 1.21112E-03-1.93912E-02
 -1      2989 4.75761E-04 1.18967E-03-1.89662E-02
 -1      2990 8.82477E-04 1.23880E-03-1.98007E-02
 -1      2991 7.77451E-04 2.42429E-03-3.85841E-02
 -1      2992 7.20896E-04 2.44986E-03-3.90081E-02
 -1      2993 1.36753E-03 2.48736E-03-3.95943E-02
 -1      2994-8.93798E-05 1.25547E-03-1.99806E-02
 -1      2995 3.15299E-04 1.30500E-03-2.08275E-02
 -1      2996 3.90780E-04 1.21235E-03-1.93723E-02
 -1      2997 5.60652E-05 1.97583E-06-4.46389E-05
 -1      2998-5.29271E-04 1.00224E-03-1.58529E-02
 -1      2999-4.42955E-04 9.73315E-04-1.54775E-02
 -1      3000-8.07283E-05 9.52684E-04-1.51570E-02
 -1      3001-5.57637E-04 9.23322E-04-1.45783E-02
 -1      3002-4.73267E-04 8.94479E-04-1.42165E-02
 -1      3003-9.18751E-04 9.41605E-04-1.48988E-02
 -1      3004 5.11430E-05 1.41039E-05-3.27675E-04
 -1      3005 6.98369E-05 2.36063E-05-4.08657E-04
 -1      3006-1.56977E-05 2.98788E-05-4.56165E-04
 -1      3007 7.41407E-05 2.83830E-05-5.68329E-04
 -1      3008 9.74717E-05 3.95789E-05-6.69199E-04
 -1      3009 1.65570E-04 2.36648E-05-5.20967E-04
 -1      3010-1.75608E-03 1.00088E-03-1.58736E-02
 -1      3011-1.28498E-03 9.51868E-04-1.51699E-02
 -1      3012-1.74482E-03 9.21916E-04-1.46009E-02
 -1      3013 1.79498E-03 1.27056E-03-2.04143E-02
 -1      3014 1.83221E-03 1.17767E-03-1.89718E-02
 -1      3015 1.01686E-03 1.27129E-03-2.04031E-02
 -1      3016 1.07363E-03 1.17845E-03-1.89592E-02
 -1      3017 2.75135E-04 1.21554E-05-3.59001E-04
 -1      3018 2.45464E-04 2.86331E-05-4.74706E-04
 -1      3019 3.67399E-04 2.63107E-05-6.00728E-04
 -1      3020 1.04456E-04 2.24452E-03-3.57363E-02
 -1      3021-4.43329E-04 2.19502E-03-3.49737E-02
 -1      3022-1.97603E-03 1.20446E-03-1.95641E-02
 -1      3023-1.77787E-03 8.99229E-04-1.47829E-02
 -1      3024-2.20763E-03 2.19459E-03-3.49802E-02
 -1      3025-4.12769E-04 6.41835E-05-7.04079E-04
 -1      3026-3.28732E-04 4.87803E-05-4.37707E-04
 -1      3027 8.81077E-05 1.20289E-03-1.91429E-02
 -1      3028-3.71403E-04 1.15757E-03-1.84990E-02
 -1      3029-6.91531E-04 7.64298E-05-1.89237E-03
 -1      3030 8.06870E-05 9.52680E-04-1.51570E-02
 -1      3031-3.49430E-04 9.84138E-04-1.57459E-02
 -1      3032-7.53205E-04 1.42830E-04-2.13106E-03
 -1      3033-2.23008E-04 1.26477E-04-1.96158E-03
 -1      3034-3.66482E-04 1.09679E-04-1.74321E-03
 -1      3035-5.61759E-05 2.58478E-03-4.11575E-02
 -1      3036-2.06257E-03 1.27270E-03-2.01859E-02
 -1      3037-6.27178E-04 1.24245E-03-1.97542E-02
 -1      3038-1.08407E-03 1.20032E-03-1.91108E-02
 -1      3039-1.73725E-03 9.82766E-04-1.57675E-02
 -1      3040 1.28501E-03 9.51880E-04-1.51699E-02
 -1      3041 1.72801E-03 9.82878E-04-1.57684E-02
 -1      3042 1.74616E-05 3.96465E-05-6.12294E-04
 -1      3043-8.43859E-05 3.93336E-05-7.42311E-04
 -1      3044-5.94031E-04 8.64950E-05-1.55597E-03
 -1      3045-6.99167E-04 1.24143E-04-1.83350E-03
 -1      3046 2.98549E-05 1.10599E-04-1.74198E-03
 -1      3047-1.19134E-04 8.85820E-05-1.52318E-03
 -1      3048-1.29819E-04 5.86423E-05-7.68259E-04
 -1      3049-1.82766E-05 3.97143E-05-6.12330E-04
 -1      3050-1.09178E-04 4.15658E-05-4.81940E-04
 -1      3051-1.84597E-03 1.15635E-03-1.85185E-02
 -1      3052-2.03190E-03 1.22011E-03-1.93460E-02
 -1      3053 1.77801E-03 8.99304E-04-1.47829E-02
 -1      3054-1.15956E-03 9.86164E-04-1.54713E-02
 -1      3055-1.16621E-03 9.08650E-04-1.42098E-02
 -1      3056-4.18901E-04 3.72793E-05-7.76430E-04
 -1      3057 5.45089E-04 1.00293E-04-9.01656E-04
 -1      3058 6.05925E-04 1.13394E-04-1.11567E-03
 -1      3059 3.86352E-04 1.00244E-04-1.19273E-03
 -1      3060 6.27781E-04 1.14152E-04-1.46530E-03
 -1      3061 5.72945E-04 9.89800E-05-1.21958E-03
 -1      3062 3.43959E-04 5.62928E-04-9.08380E-03
 -1      3063 3.52958E-04 6.02478E-04-9.71120E-03
 -1      3064 4.09652E-04 5.88251E-04-9.40989E-03
 -1      3065-1.77907E-03 9.85299E-04-1.54852E-02
 -1      3066-1.76532E-03 9.07685E-04-1.42248E-02
 -1      3067 6.90763E-04 7.66191E-05-1.89249E-03
 -1      3068 1.27935E-03 4.71632E-04-7.66424E-03
 -1      3069 1.69063E-04 5.01672E-06-3.97872E-04
 -1      3070 2.24208E-04 2.02910E-05-6.57885E-04
 -1      3071 4.75506E-04 1.09412E-04-1.76112E-03
 -1      3072 5.94255E-04 8.65420E-05-1.55602E-03
 -1      3073 8.42621E-05 3.93250E-05-7.41997E-04
 -1      3074-2.64027E-04 1.45010E-04-2.09636E-03
 -1      3075-5.36979E-05 1.10439E-04-1.73202E-03
 -1      3076 2.58492E-04 4.73428E-04-7.63620E-03
 -1      3077 8.21366E-04 1.82579E-04-2.79638E-03
 -1      3078 4.35191E-04 1.89057E-03-3.01402E-02
 -1      3079 5.34525E-04 1.86252E-03-2.96695E-02
 -1      3080 4.31870E-04 1.83075E-03-2.91896E-02
 -1      3081 1.00964E-04 1.87901E-03-2.99139E-02
 -1      3082 1.01635E-04 1.93901E-03-3.08697E-02
 -1      3083-4.31883E-04 1.83074E-03-2.91895E-02
 -1      3084-4.35203E-04 1.89056E-03-3.01401E-02
 -1      3085-5.34579E-04 1.86250E-03-2.96694E-02
 -1      3086 1.61893E-03 1.93868E-03-3.08754E-02
 -1      3087 1.60734E-03 1.87864E-03-2.99201E-02
 -1      3088 2.13195E-03 1.83010E-03-2.92006E-02
 -1      3089 2.14822E-03 1.88992E-03-3.01504E-02
 -1      3090-2.14822E-03 1.88987E-03-3.01504E-02
 -1      3091-2.13195E-03 1.83002E-03-2.92006E-02
 -1      3092-2.18465E-03 1.70991E-03-2.73103E-02
 -1      3093-1.19170E-03 1.64096E-03-2.61407E-02
 -1      3094-6.09402E-04 1.68422E-03-2.68397E-02
 -1      3095 2.18464E-03 1.70998E-03-2.73103E-02
 -1      3096 1.19168E-03 1.64100E-03-2.61407E-02
 -1      3097 6.09392E-04 1.68424E-03-2.68398E-02
 -1      3098 5.13422E-04 1.71080E-03-2.72970E-02
 -1      3099 1.85089E-05 1.64128E-03-2.61360E-02
 -1      3100-5.13430E-04 1.71078E-03-2.72969E-02
 -1      3101-1.85219E-05 1.64128E-03-2.61360E-02
 -1      3102 2.62487E-04 1.84581E-04-2.76445E-03
 -1      3103 9.16445E-04 2.24936E-04-3.75257E-03
 -1      3104 1.85638E-04 2.26888E-04-3.72143E-03
 -1      3105-5.46087E-04 8.76874E-04-1.38362E-02
 -1      3106-1.70872E-03 8.75389E-04-1.38593E-02
 -1      3107 3.86317E-04 4.03426E-04-6.26438E-03
 -1      3108 1.20884E-03 4.01596E-04-6.29355E-03
 -1      3109-5.35888E-04 1.95459E-03-3.11350E-02
 -1      3110-4.35162E-04 1.98323E-03-3.16115E-02
 -1      3111-1.07089E-03 1.90661E-03-3.04064E-02
 -1      3112 5.35838E-04 1.95461E-03-3.11350E-02
 -1      3113 4.35155E-04 1.98325E-03-3.16116E-02
 -1      3114 1.07089E-03 1.90664E-03-3.04064E-02
 -1      3115 2.16640E-03 1.98273E-03-3.16206E-02
 -1      3116-2.16639E-03 1.98267E-03-3.16206E-02
 -1      3117 3.19927E-04 7.65370E-05-8.10964E-04
 -1      3118 4.74480E-04 7.51895E-05-8.37188E-04
 -1      3119 3.17064E-04 8.19544E-05-1.11686E-03
 -1      3120-2.58185E-04 4.73406E-04-7.63584E-03
 -1      3121-2.62384E-04 1.84579E-04-2.76461E-03
 -1      3122-8.21307E-04 1.82594E-04-2.79630E-03
 -1      3123 2.84342E-04 3.85093E-05-6.32489E-04
 -1      3124 4.18939E-04 3.73161E-05-7.76084E-04
 -1      3125-3.86048E-04 4.03430E-04-6.26474E-03
 -1      3126-1.27928E-03 4.71722E-04-7.66509E-03
 -1      3127 1.19341E-04 8.85771E-05-1.52327E-03
 -1      3128-2.45084E-04 1.26394E-04-1.79851E-03
 -1      3129-9.17305E-04 2.24781E-04-3.75078E-03
 -1      3130-1.86633E-04 2.26737E-04-3.71977E-03
 -1      3131-1.48496E-03 6.01566E-04-9.75013E-03
 -1      3132-1.44208E-03 5.61962E-04-9.12304E-03
 -1      3133-4.09176E-04 5.88383E-04-9.41180E-03
 -1      3134 1.28365E-03 3.99143E-04-6.94622E-03
 -1      3135 3.40165E-04 9.84331E-04-1.57469E-02
 -1      3136-1.70918E-03 7.86347E-04-1.24142E-02
 -1      3137-5.17119E-04 7.59391E-04-1.20522E-02
 -1      3138-8.90520E-04 7.24500E-04-1.15344E-02
 -1      3139 2.47239E-03 1.68953E-03-2.66330E-02
 -1      3140-2.47244E-03 1.68946E-03-2.66331E-02
 -1      3141 8.96633E-04 1.62541E-04-3.23909E-03
 -1      3142-2.94574E-04 3.09228E-05-3.75863E-04
 -1      3143 1.70942E-03 7.86373E-04-1.24140E-02
 -1      3144 5.17788E-04 7.59390E-04-1.20519E-02
 -1      3145 8.90416E-04 7.24386E-04-1.15321E-02
 -1      3146 1.01680E-03 2.44620E-04-3.24422E-03
 -1      3147-1.20869E-03 4.01612E-04-6.29304E-03
 -1      3148-5.97937E-04 7.87987E-04-1.23882E-02
 -1      3149-1.25609E-04 7.24948E-04-1.15237E-02
 -1      3150 5.98196E-04 7.87985E-04-1.23879E-02
 -1      3151 1.25589E-04 7.25061E-04-1.15255E-02
 -1      3152 2.08114E-06 1.94009E-07 6.95108E-06
 -1      3153 1.34116E-05 7.07169E-06 4.78641E-06
 -1      3154 1.46197E-05 6.00546E-06-1.63642E-05
 -1      3155 4.56180E-05 1.63493E-05-2.16694E-05
 -1      3156 2.26554E-05 6.36809E-06-5.06585E-06
 -1      3157-1.01720E-03 2.44862E-04-3.24401E-03
 -1      3158-1.28364E-03 3.99102E-04-6.94618E-03
 -1      3159-2.69701E-04 6.54004E-05-6.83192E-04
 -1      3160-2.16757E-04 4.98842E-05-4.16266E-04
 -1      3161-8.96489E-04 1.62409E-04-3.23894E-03
 -1      3162 8.81738E-04 2.14643E-03-3.41604E-02
 -1      3163 1.88362E-03 2.06314E-03-3.28048E-02
 -1      3164 8.73390E-04 2.03726E-03-3.24203E-02
 -1      3165 1.10025E-03 2.06339E-03-3.28006E-02
 -1      3166 1.33655E-03 1.15991E-03-1.82311E-02
 -1      3167 7.30292E-04 1.12277E-03-1.78305E-02
 -1      3168 9.11203E-04 1.10809E-03-1.75080E-02
 -1      3169 1.36065E-03 1.07561E-03-1.68529E-02
 -1      3170 7.70747E-04 1.03777E-03-1.64648E-02
 -1      3171 1.18579E-03 1.08687E-03-1.71729E-02
 -1      3172 2.93547E-04 3.51513E-06-4.18140E-04
 -1      3173 3.83905E-04 1.86810E-05-6.78558E-04
 -1      3174 1.63122E-03 7.14924E-04-1.18946E-02
 -1      3175-1.62674E-03 7.14991E-04-1.18946E-02
 -1      3176 2.12392E-03 1.60334E-03-2.54820E-02
 -1      3177 2.16404E-03 1.65158E-03-2.63848E-02
 -1      3178-2.12393E-03 1.60327E-03-2.54820E-02
 -1      3179-2.16404E-03 1.65150E-03-2.63847E-02
 -1      3180 6.78766E-04 1.60423E-03-2.54679E-02
 -1      3181-5.08486E-04 1.65245E-03-2.63705E-02
 -1      3182-6.78771E-04 1.60422E-03-2.54680E-02
 -1      3183 5.08478E-04 1.65247E-03-2.63705E-02
 -1      3184 1.45567E-03 4.73604E-04-6.95087E-03
 -1      3185-1.50430E-03 6.85447E-04-1.10537E-02
 -1      3186-1.66847E-03 7.42964E-04-1.17213E-02
 -1      3187 1.50393E-03 6.85308E-04-1.10503E-02
 -1      3188 1.66874E-03 7.42929E-04-1.17197E-02
 -1      3189 7.66747E-04 2.36530E-03-3.76406E-02
 -1      3190 6.59795E-04 2.33314E-03-3.71477E-02
 -1      3191 7.98296E-04 2.27066E-03-3.61217E-02
 -1      3192 6.91451E-04 2.23836E-03-3.56327E-02
 -1      3193 1.35286E-03 2.29661E-03-3.65484E-02
 -1      3194-1.45619E-03 4.73806E-04-6.95070E-03
 -1      3195 3.06261E-04 6.86802E-04-1.10249E-02
 -1      3196-5.81450E-04 7.44506E-04-1.16933E-02
 -1      3197-9.26356E-05 3.28529E-05-3.43511E-04
 -1      3198-3.02400E-04 6.86985E-04-1.10268E-02
 -1      3199 5.85975E-04 7.44583E-04-1.16930E-02
 -1      3200 6.68821E-04 1.28589E-04-1.36172E-03
 -1      3201 4.24844E-04 1.16113E-04-1.44801E-03
 -1      3202-2.43373E-03 2.55845E-03-4.07181E-02
 -1      3203-2.08389E-03 2.46256E-03-3.91829E-02
 -1      3204-5.40112E-05 1.74501E-05-8.59149E-05
 -1      3205-4.36325E-06 9.04577E-06-1.35374E-04
 -1      3206-7.75439E-05 2.59821E-05-2.32464E-04
 -1      3207-2.66766E-03 2.66889E-03-4.25017E-02
 -1      3208-2.61517E-03 2.66859E-03-4.25016E-02
 -1      3209-1.60166E-03 2.64618E-03-4.21384E-02
 -1      3210-1.54929E-03 2.64599E-03-4.21381E-02
 -1      3211-2.26513E-03 2.60115E-03-4.14323E-02
 -1      3212 1.84784E-04 6.29063E-05-9.24141E-04
 -1      3213 4.15058E-04 7.57816E-05-1.01595E-03
 -1      3214 2.20667E-04 8.81456E-05-1.32675E-03
 -1      3215-2.72981E-06 5.36308E-06-7.92116E-05
 -1      3216 2.64039E-05-5.35879E-06-3.90462E-05
 -1      3217 3.53966E-05-3.14944E-06-8.32314E-05
 -1      3218-2.71898E-03 2.66738E-03-4.24713E-02
 -1      3219-1.69588E-03 2.64855E-03-4.21709E-02
 -1      3220-2.35957E-03 2.60409E-03-4.14653E-02
 -1      3221-2.41078E-03 2.60277E-03-4.14349E-02
 -1      3222-3.90184E-05 1.36196E-05-4.10626E-05
 -1      3223-5.09801E-05 2.53066E-03-4.02962E-02
 -1      3224-3.86056E-05 2.48229E-03-3.95260E-02
 -1      3225-8.03181E-04 2.56854E-03-4.08884E-02
 -1      3226-7.90001E-04 2.52031E-03-4.01174E-02
 -1      3227-4.28256E-04 2.45249E-03-3.90535E-02
 -1      3228-3.70177E-04 2.42535E-03-3.86291E-02
 -1      3229-1.08577E-03 2.48683E-03-3.96120E-02
 -1      3230 1.40313E-03 1.20221E-03-1.91541E-02
 -1      3231 1.86061E-03 1.15895E-03-1.85633E-02
 -1      3232 3.80464E-04 1.64121E-04-2.61022E-03
 -1      3233 5.53688E-05 1.64596E-04-2.60218E-03
 -1      3234 1.59745E-04 1.50242E-05-1.18786E-04
 -1      3235 1.39667E-04 7.86775E-06-1.54322E-04
 -1      3236 2.45672E-04 2.39600E-05-2.64478E-04
 -1      3237 1.08255E-04 4.27556E-06-9.77721E-05
 -1      3238 1.53591E-04-4.54793E-06-1.15637E-04
 -1      3239 1.12018E-04-6.36114E-06-7.00923E-05
 -1      3240 7.94250E-04 2.20915E-03-3.51385E-02
 -1      3241 6.65749E-04 1.17783E-03-1.86372E-02
 -1      3242 5.83115E-04 1.19870E-03-1.90603E-02
 -1      3243 6.76248E-04 1.22975E-03-1.94672E-02
 -1      3244 6.71403E-04 9.46176E-04-1.49102E-02
 -1      3245 5.97165E-04 9.63539E-04-1.53023E-02
 -1      3246 6.84679E-04 9.93942E-04-1.56743E-02
 -1      3247 2.28762E-03 1.91800E-03-3.05005E-02
 -1      3248 2.30341E-03 1.97812E-03-3.14598E-02
 -1      3249 6.73837E-04 1.94613E-03-3.09741E-02
 -1      3250 7.78173E-04 1.97873E-03-3.14501E-02
 -1      3251 7.72866E-04 1.91866E-03-3.04900E-02
 -1      3252 1.86958E-03 9.44852E-04-1.49348E-02
 -1      3253 1.90662E-03 9.92645E-04-1.56983E-02
 -1      3254 1.96970E-03 1.17661E-03-1.86574E-02
 -1      3255 2.00066E-03 1.22855E-03-1.94867E-02
 -1      3256-2.16589E-03 2.42504E-03-3.86326E-02
 -1      3257-2.32994E-03 2.26825E-03-3.62320E-02
 -1      3258-7.21560E-04 1.27394E-03-2.01665E-02
 -1      3259-1.42843E-04 1.20350E-03-1.91494E-02
 -1      3260-1.04523E-04 2.24451E-03-3.57364E-02
 -1      3261-1.04195E-04 2.30638E-03-3.67218E-02
 -1      3262 5.47338E-04 2.33510E-03-3.72033E-02
 -1      3263 6.50728E-04 2.30509E-03-3.67120E-02
 -1      3264 5.44648E-04 2.27292E-03-3.62160E-02
 -1      3265 1.16969E-04 1.11466E-05-7.26716E-05
 -1      3266 2.10447E-03 1.82155E-03-2.89740E-02
 -1      3267 5.10419E-04 1.84955E-03-2.94419E-02
 -1      3268 1.18212E-03 1.88812E-03-3.00180E-02
 -1      3269 6.08482E-04 1.82214E-03-2.89634E-02
 -1      3270 2.44905E-04 7.66787E-05-9.94918E-04
 -1      3271 1.58530E-03 2.33598E-03-3.71479E-02
 -1      3272 1.61171E-03 2.24231E-03-3.56320E-02
 -1      3273-3.71401E-04-1.01267E-05-5.38263E-04
 -1      3274 3.82004E-04 4.47030E-05-5.76243E-04
 -1      3275 4.36891E-04 5.53968E-05-7.47861E-04
 -1      3276 1.20063E-04 4.32632E-05-6.41149E-04
 -1      3277 6.41215E-04 1.08813E-04-1.60168E-03
 -1      3278 1.29410E-04 4.69665E-05-5.42355E-04
 -1      3279 1.47625E-04 5.75867E-05-7.12287E-04
 -1      3280 2.16582E-04 1.10996E-04-1.56750E-03
 -1      3281-8.65256E-05 2.59574E-05-5.71663E-05
 -1      3282-1.28804E-04 2.37526E-05-7.77360E-05
 -1      3283-1.70161E-04 4.58043E-05-9.53990E-05
 -1      3284-1.42658E-04 3.46570E-05-1.80073E-04
 -1      3285-2.17300E-04 3.31372E-05-2.01042E-04
 -1      3286 5.29259E-04 2.56879E-03-4.09109E-02
 -1      3287 8.52422E-04 2.48456E-03-3.95676E-02
 -1      3288 6.86245E-04 2.50568E-03-3.99127E-02
 -1      3289 1.43375E-03 2.52253E-03-4.01819E-02
 -1      3290-1.61748E-03 2.55850E-03-4.07168E-02
 -1      3291-2.66082E-03 2.53392E-03-4.03001E-02
 -1      3292-1.27089E-03 2.46250E-03-3.91810E-02
 -1      3293 1.62767E-03 2.55795E-03-4.07069E-02
 -1      3294 1.58460E-03 2.46245E-03-3.91772E-02
 -1      3295-8.57660E-06-5.28647E-06 5.35341E-06
 -1      3296-1.91885E-05-5.37447E-06-4.88966E-06
 -1      3297-3.31622E-05-9.92688E-06-1.89408E-05
 -1      3298-3.31510E-06-7.17201E-07-2.24638E-06
 -1      3299-2.43436E-04 2.64625E-03-4.21376E-02
 -1      3300 1.06257E-03 2.64819E-03-4.21655E-02
 -1      3301 1.97607E-03 1.20453E-03-1.95642E-02
 -1      3302-1.94994E-05 3.31535E-06-6.27081E-06
 -1      3303-2.19870E-06 2.51175E-06-3.51135E-05
 -1      3304-3.99004E-05 7.17443E-06-2.12169E-04
 -1      3305-3.94491E-05 1.02588E-05-1.85785E-04
 -1      3306-8.60627E-05-6.77248E-07-1.36352E-04
 -1      3307-9.21650E-04 2.64620E-03-4.21379E-02
 -1      3308-1.22932E-03 1.94913E-03-3.11315E-02
 -1      3309-1.22043E-03 1.85629E-03-2.96655E-02
 -1      3310 1.22932E-03 1.94917E-03-3.11316E-02
 -1      3311 1.22042E-03 1.85633E-03-2.96655E-02
 -1      3312 2.10909E-03 1.94878E-03-3.11378E-02
 -1      3313 2.09062E-03 1.85591E-03-2.96725E-02
 -1      3314-2.10908E-03 1.94871E-03-3.11377E-02
 -1      3315-2.09063E-03 1.85584E-03-2.96725E-02
 -1      3316-2.20339E-04 5.25844E-06-2.42229E-04
 -1      3317 2.56656E-03 2.66681E-03-4.24713E-02
 -1      3318 2.61817E-03 2.66903E-03-4.25016E-02
 -1      3319 2.35345E-03 2.60522E-03-4.14879E-02
 -1      3320 1.54053E-03 2.64954E-03-4.21934E-02
 -1      3321 2.30180E-03 2.60274E-03-4.14574E-02
 -1      3322 8.78368E-05 2.62770E-05-5.78902E-05
 -1      3323 1.30604E-04 2.38894E-05-7.89083E-05
 -1      3324 1.70336E-04 4.58778E-05-9.54730E-05
 -1      3325 1.44379E-04 3.47733E-05-1.80074E-04
 -1      3326 2.19105E-04 3.31301E-05-2.01725E-04
 -1      3327 2.36107E-03 2.27032E-03-3.61276E-02
 -1      3328 1.67023E-03 2.30621E-03-3.67248E-02
 -1      3329 2.32677E-03 2.33477E-03-3.72084E-02
 -1      3330 1.34276E-03 2.26784E-03-3.61144E-02
 -1      3331 2.35137E-03 2.20876E-03-3.51452E-02
 -1      3332 2.31848E-03 2.27256E-03-3.62219E-02
 -1      3333 2.32685E-03 2.56864E-03-4.09128E-02
 -1      3334 1.34362E-03 2.58441E-03-4.11531E-02
 -1      3335 6.34671E-04 1.30128E-03-2.06224E-02
 -1      3336 5.40369E-04 1.27035E-03-2.02061E-02
 -1      3337 1.12575E-03 1.24290E-03-1.96951E-02
 -1      3338 4.73290E-04 8.94464E-04-1.42164E-02
 -1      3339 5.46089E-04 8.76883E-04-1.38361E-02
 -1      3340 1.06841E-03 9.33264E-04-1.47262E-02
 -1      3341 1.98582E-03 1.30016E-03-2.06403E-02
 -1      3342 1.70866E-03 8.75454E-04-1.38593E-02
 -1      3343 3.84685E-04 1.16019E-03-1.85436E-02
 -1      3344-7.10768E-04 1.22139E-03-1.93259E-02
 -1      3345 8.89067E-06-4.99611E-06 5.06625E-06
 -1      3346-2.18214E-06 1.56790E-06 6.60133E-06
 -1      3347 3.48629E-05-1.10552E-05-1.88033E-05
 -1      3348 4.64897E-06-5.91930E-07-1.46975E-05
 -1      3349 1.85995E-05-4.84496E-06-4.02070E-06
 -1      3350 2.44363E-03 2.55797E-03-4.07083E-02
 -1      3351 2.66106E-03 2.53345E-03-4.02904E-02
 -1      3352 2.39810E-03 2.46212E-03-3.91792E-02
 -1      3353 3.42265E-05 3.99189E-06-1.45890E-05
 -1      3354 3.55914E-05-6.77979E-07-1.61284E-05
 -1      3355 8.17520E-05-1.09910E-05-4.33255E-05
 -1      3356 2.92938E-05-1.17194E-06-1.06935E-05
 -1      3357 8.18793E-05-2.05549E-06-4.44967E-05
 -1      3358 4.15172E-05 7.39061E-06-2.19253E-04
 -1      3359 5.31803E-05 9.55749E-06-1.92674E-04
 -1      3360 9.08897E-05-1.43904E-06-1.38856E-04
 -1      3361 2.01616E-04 2.66916E-03-4.24987E-02
 -1      3362-6.17586E-04 2.66720E-03-4.24687E-02
 -1      3363-9.68235E-05 2.60187E-03-4.14309E-02
 -1      3364-9.15904E-04 2.59944E-03-4.14008E-02
 -1      3365-9.03052E-04 2.64613E-03-4.21375E-02
 -1      3366 2.26548E-04 5.48516E-06-2.50081E-04
 -1      3367-8.34034E-04 2.39358E-03-3.81131E-02
 -1      3368-5.41171E-04 8.60159E-05-1.27079E-03
 -1      3369-5.43617E-04 7.05067E-05-1.30281E-03
 -1      3370-2.89050E-04 8.93442E-05-1.43812E-03
 -1      3371-2.52347E-04 6.75137E-05-1.09050E-03
 -1      3372-2.51642E-04 6.03964E-05-1.11583E-03
 -1      3373-4.70162E-04 4.98128E-05-9.74674E-04
 -1      3374 2.33775E-03 2.36451E-03-3.76446E-02
 -1      3375-6.65508E-04 2.12870E-03-3.38595E-02
 -1      3376-1.72960E-05 2.17118E-03-3.45720E-02
 -1      3377 4.41268E-04 2.13327E-03-3.39934E-02
 -1      3378 4.37856E-04 2.04420E-03-3.25789E-02
 -1      3379 1.08642E-03 2.08829E-03-3.32881E-02
 -1      3380-1.71009E-05 2.08212E-03-3.31535E-02
 -1      3381-2.21262E-03 2.12822E-03-3.38666E-02
 -1      3382-2.19703E-03 2.13273E-03-3.40005E-02
 -1      3383-1.11089E-03 2.17103E-03-3.45738E-02
 -1      3384-1.10284E-03 2.08196E-03-3.31555E-02
 -1      3385-1.08646E-03 2.08824E-03-3.32880E-02
 -1      3386-2.17978E-03 2.04363E-03-3.25872E-02
 -1      3387-2.60349E-04 7.81021E-05-1.11549E-03
 -1      3388-4.81112E-04 6.92400E-05-1.00234E-03
 -1      3389-2.22501E-04 5.18995E-05-8.41594E-04
 -1      3390-3.91789E-04 1.43826E-04-2.27492E-03
 -1      3391-2.31694E-04 1.29475E-03-2.05981E-02
 -1      3392 1.12021E-04 1.74353E-03-2.77683E-02
 -1      3393-1.11817E-03 1.74328E-03-2.77718E-02
 -1      3394 1.11817E-03 1.74331E-03-2.77718E-02
 -1      3395-1.12027E-04 1.74352E-03-2.77683E-02
 -1      3396-1.04124E-03 1.29442E-03-2.06033E-02
 -1      3397-3.61175E-05-1.48955E-07-1.66133E-05
 -1      3398-3.33296E-05-4.72952E-06-1.42514E-05
 -1      3399-8.27989E-05 3.67775E-06-4.51049E-05
 -1      3400-3.03704E-05 1.27295E-06-1.13077E-05
 -1      3401-8.64403E-05 1.31557E-05-4.53658E-05
 -1      3402-6.65942E-04 2.05624E-03-3.27013E-02
 -1      3403-1.12527E-03 2.09171E-03-3.32770E-02
 -1      3404-2.16700E-05 2.00971E-03-3.20004E-02
 -1      3405-2.20290E-03 2.05569E-03-3.27093E-02
 -1      3406-1.09974E-03 2.00953E-03-3.20027E-02
 -1      3407-8.66586E-04 8.01858E-04-1.27569E-02
 -1      3408-1.29201E-04 1.92771E-05-3.04982E-04
 -1      3409 1.77042E-04 2.39366E-03-3.81128E-02
 -1      3410-8.77654E-05 1.44442E-04-2.26552E-03
 -1      3411 2.16194E-03 1.85535E-03-2.94456E-02
 -1      3412 2.34541E-03 1.95198E-03-3.09778E-02
 -1      3413 1.39626E-03 1.85576E-03-2.94389E-02
 -1      3414 1.57025E-03 1.95238E-03-3.09712E-02
 -1      3415 8.81706E-05 2.91454E-05-4.25704E-04
 -1      3416 9.49603E-05 3.30862E-05-3.43653E-04
 -1      3417 2.05279E-04 4.32371E-05-5.15705E-04
 -1      3418 1.93138E-04 8.02292E-04-1.27497E-02
 -1      3419-9.41784E-04 2.66726E-03-4.24689E-02
 -1      3420-1.22587E-04 2.66914E-03-4.24988E-02
 -1      3421-1.22238E-03 2.60278E-03-4.14336E-02
 -1      3422-4.03300E-04 2.60420E-03-4.14637E-02
 -1      3423-1.10909E-03 2.64852E-03-4.21703E-02
 -1      3424-1.44747E-04 7.11909E-05-9.69859E-04
 -1      3425-1.62102E-04 8.79284E-05-1.23850E-03
 -1      3426 9.52971E-05 5.18052E-05-9.40651E-04
 -1      3427-3.56965E-06 6.80265E-05-1.08127E-03
 -1      3428-3.95935E-06 5.24260E-05-8.32348E-04
 -1      3429-1.92790E-04 8.02314E-04-1.27502E-02
 -1      3430 8.66934E-04 8.01877E-04-1.27569E-02
 -1      3431-7.67633E-04 6.29390E-04-1.00503E-02
 -1      3432 7.50160E-05 6.29794E-04-1.00407E-02
 -1      3433 1.68889E-05 1.97129E-05-2.96743E-04
 -1      3434 2.96880E-04 3.08644E-05-3.76041E-04
 -1      3435-1.81582E-03 1.10499E-03-1.77045E-02
 -1      3436-9.08264E-04 1.08107E-03-1.72241E-02
 -1      3437-1.78902E-03 1.04988E-03-1.66552E-02
 -1      3438-1.76995E-03 1.03203E-03-1.65472E-02
 -1      3439-8.84556E-04 1.00914E-03-1.60785E-02
 -1      3440-8.91136E-04 1.06865E-03-1.71118E-02
 -1      3441-4.51772E-06 8.99016E-05-1.42944E-03
 -1      3442 1.09885E-04 7.25348E-05-1.26941E-03
 -1      3443 2.51926E-04 6.04012E-05-1.11545E-03
 -1      3444 1.60674E-03 2.64810E-03-4.21660E-02
 -1      3445 2.41933E-03 2.60446E-03-4.14600E-02
 -1      3446 3.71723E-05-6.07640E-06-1.66938E-05
 -1      3447 3.09112E-05-5.93430E-06-1.05532E-05
 -1      3448 6.71544E-04 1.54746E-03-2.45600E-02
 -1      3449 1.48257E-04 1.57169E-03-2.50179E-02
 -1      3450-3.31640E-04 1.52627E-03-2.43438E-02
 -1      3451 7.56397E-04 1.46648E-03-2.32481E-02
 -1      3452 2.42686E-04 1.48937E-03-2.36991E-02
 -1      3453 1.23960E-03 1.50728E-03-2.39160E-02
 -1      3454 1.94821E-03 1.52544E-03-2.43578E-02
 -1      3455 1.00997E-03 1.57149E-03-2.50215E-02
 -1      3456 2.10112E-03 1.54656E-03-2.45747E-02
 -1      3457 2.16236E-03 1.46545E-03-2.32650E-02
 -1      3458 1.09037E-03 1.48909E-03-2.37036E-02
 -1      3459-4.53317E-04 2.36475E-03-3.76395E-02
 -1      3460 3.03749E-04 2.36283E-03-3.76298E-02
 -1      3461 1.56036E-03 1.10751E-03-1.75183E-02
 -1      3462 1.50504E-03 1.07568E-03-1.71197E-02
 -1      3463 1.53319E-03 1.05763E-03-1.67211E-02
 -1      3464 6.37456E-04 4.97565E-04-7.93874E-03
 -1      3465 1.32178E-03 5.07854E-04-8.23607E-03
 -1      3466 1.32023E-03 5.30711E-04-8.37400E-03
 -1      3467 7.25816E-04 5.50967E-04-8.80185E-03
 -1      3468 1.44191E-03 5.61351E-04-9.11269E-03
 -1      3469 7.32020E-04 5.34157E-04-8.65613E-03
 -1      3470-2.61307E-04 5.09582E-04-8.20804E-03
 -1      3471-1.06469E-05 4.97989E-04-7.93144E-03
 -1      3472 3.88726E-04 5.32314E-04-8.34827E-03
 -1      3473-3.32195E-04 5.63284E-04-9.08563E-03
 -1      3474-6.92352E-05 5.51603E-04-8.79573E-03
 -1      3475-7.31259E-04 5.34256E-04-8.65761E-03
 -1      3476-6.37271E-04 4.97514E-04-7.93839E-03
 -1      3477-1.32195E-03 5.08296E-04-8.24382E-03
 -1      3478-7.25506E-04 5.51064E-04-8.80372E-03
 -1      3479 2.39281E-03 2.56820E-03-4.08852E-02
 -1      3480 2.39090E-03 2.51993E-03-4.01148E-02
 -1      3481 2.47868E-03 2.45726E-03-3.91463E-02
 -1      3482 1.49987E-03 2.52180E-03-4.01548E-02
 -1      3483 2.48168E-03 2.50573E-03-3.99153E-02
 -1      3484 8.42414E-04 1.80231E-04-2.20157E-03
 -1      3485 9.01045E-04 2.00361E-04-2.52737E-03
 -1      3486 5.37584E-04 1.85866E-04-2.59697E-03
 -1      3487 8.13763E-04 1.84545E-04-2.61797E-03
 -1      3488 1.31405E-03 2.36278E-03-3.76317E-02
 -1      3489 1.41768E-04 2.19020E-03-3.48708E-02
 -1      3490 1.39368E-04 1.99219E-03-3.17169E-02
 -1      3491 1.21558E-03 1.99201E-03-3.17198E-02
 -1      3492-6.85065E-06 1.85453E-06-2.04857E-06
 -1      3493-4.28521E-05 1.54558E-05-1.95619E-05
 -1      3494 6.97573E-04 2.45715E-03-3.91429E-02
 -1      3495 1.73072E-04 9.99478E-04-1.58940E-02
 -1      3496 1.18137E-04 1.15744E-03-1.84187E-02
 -1      3497 2.72445E-04 5.09369E-04-8.20845E-03
 -1      3498 1.08134E-05 4.98011E-04-7.93179E-03
 -1      3499 6.95005E-05 5.51482E-04-8.79390E-03
 -1      3500-1.78927E-03 1.10904E-03-1.75964E-02
 -1      3501-8.84202E-04 1.07969E-03-1.71145E-02
 -1      3502-8.89100E-04 1.14110E-03-1.81777E-02
 -1      3503 4.43356E-04 2.19502E-03-3.49738E-02
 -1      3504 5.48978E-04 2.22698E-03-3.54676E-02
 -1      3505 1.19928E-03 2.25560E-03-3.59479E-02
 -1      3506 1.04800E-03 1.15975E-03-1.84697E-02
 -1      3507 8.64764E-05 1.27929E-05-4.49388E-05
 -1      3508 3.13899E-05 5.30423E-06-1.03896E-05
 -1      3509-2.01635E-03 9.57650E-04-1.47866E-02
 -1      3510 2.28471E-03 2.01853E-03-3.23175E-02
 -1      3511 1.24757E-03 2.09948E-03-3.35061E-02
 -1      3512 2.14042E-03 2.09914E-03-3.35112E-02
 -1      3513 2.12272E-03 2.00986E-03-3.21014E-02
 -1      3514 1.23726E-03 2.01018E-03-3.20957E-02
 -1      3515-2.28472E-03 2.01844E-03-3.23174E-02
 -1      3516-1.24757E-03 2.09944E-03-3.35060E-02
 -1      3517-2.14045E-03 2.09907E-03-3.35111E-02
 -1      3518-2.12272E-03 2.00978E-03-3.21014E-02
 -1      3519-1.23725E-03 2.01012E-03-3.20957E-02
 -1      3520 2.29783E-03 2.08044E-03-3.32887E-02
 -1      3521 2.15127E-03 2.16114E-03-3.44885E-02
 -1      3522-2.29786E-03 2.08036E-03-3.32886E-02
 -1      3523-2.15132E-03 2.16104E-03-3.44884E-02
 -1      3524-2.30978E-03 2.14268E-03-3.42651E-02
 -1      3525-1.25386E-03 2.16132E-03-3.44839E-02
 -1      3526 2.30975E-03 2.14276E-03-3.42652E-02
 -1      3527 1.25389E-03 2.16137E-03-3.44840E-02
 -1      3528 1.03018E-03 9.99208E-04-1.59029E-02
 -1      3529 2.38375E-04 4.91923E-05-7.85550E-04
 -1      3530-1.88131E-03 1.04779E-03-1.71105E-02
 -1      3531-1.91384E-03 1.09912E-03-1.79149E-02
 -1      3532-1.75805E-03 1.07185E-03-1.72986E-02
 -1      3533-1.78810E-03 1.12299E-03-1.81059E-02
 -1      3534-1.04269E-03 1.12389E-03-1.80930E-02
 -1      3535 1.19686E-04-1.73156E-05-7.43966E-05
 -1      3536 7.20855E-05-1.70661E-05-5.34741E-05
 -1      3537 1.49972E-04-3.41361E-05-9.02871E-05
 -1      3538 1.92058E-04-1.01457E-05-1.87185E-04
 -1      3539 1.10165E-04-9.17117E-06-1.66627E-04
 -1      3540 3.80207E-05 9.58070E-05-1.50601E-03
 -1      3541 4.02736E-04 2.64812E-03-4.21650E-02
 -1      3542 1.20816E-03 2.60431E-03-4.14587E-02
 -1      3543 2.08870E-03 1.46505E-03-2.34297E-02
 -1      3544 1.23874E-03 1.43042E-03-2.27832E-02
 -1      3545 1.01369E-03 1.49435E-03-2.38675E-02
 -1      3546-4.91287E-04 1.47036E-03-2.34813E-02
 -1      3547-1.01459E-03 1.49865E-03-2.39362E-02
 -1      3548 7.78362E-05 1.43506E-03-2.28445E-02
 -1      3549 3.30038E-04 9.51043E-05-1.51664E-03
 -1      3550-4.21201E-04 7.80772E-05-5.43462E-04
 -1      3551 9.29867E-04 2.60492E-03-4.14863E-02
 -1      3552 2.24858E-04 2.64976E-03-4.21926E-02
 -1      3553-4.80160E-04 1.29357E-05-8.99544E-04
 -1      3554-5.33322E-04 2.66911E-05-1.11412E-03
 -1      3555-4.34249E-04 3.06275E-05-8.66323E-04
 -1      3556-2.83327E-04 4.52619E-05-1.05358E-03
 -1      3557-2.54575E-04 3.19588E-05-8.44142E-04
 -1      3558 8.07556E-06 2.47291E-04-3.93988E-03
 -1      3559 2.73747E-05 4.99218E-05-7.75171E-04
 -1      3560-5.57432E-05 1.64612E-04-2.60236E-03
 -1      3561-3.80864E-04 1.64117E-04-2.61034E-03
 -1      3562 9.55942E-04 1.32280E-03-2.10613E-02
 -1      3563 1.03779E-03 1.80352E-03-2.87244E-02
 -1      3564 2.29304E-05 1.80368E-03-2.87215E-02
 -1      3565-1.03779E-03 1.80349E-03-2.87244E-02
 -1      3566-2.29185E-05 1.80368E-03-2.87215E-02
 -1      3567 1.40341E-04 1.32305E-03-2.10569E-02
 -1      3568-8.07862E-04 8.47007E-04-1.34852E-02
 -1      3569 1.18647E-04 8.47382E-04-1.34793E-02
 -1      3570-1.18561E-04 8.47402E-04-1.34795E-02
 -1      3571 8.07952E-04 8.47021E-04-1.34854E-02
 -1      3572 4.59579E-04 2.46765E-04-3.94733E-03
 -1      3573-1.11450E-05 2.47116E-04-3.93794E-03
 -1      3574 5.66735E-04 3.78561E-04-6.02501E-03
 -1      3575-8.29185E-05 3.79024E-04-6.01801E-03
 -1      3576 8.21269E-05 3.78994E-04-6.01767E-03
 -1      3577-4.62575E-04 2.46625E-04-3.94596E-03
 -1      3578 5.25617E-04 5.71819E-04-8.92568E-03
 -1      3579 7.74092E-04 5.50942E-04-8.64162E-03
 -1      3580 5.67047E-05 5.90171E-04-9.38624E-03
 -1      3581 1.48560E-03 5.70010E-04-8.95459E-03
 -1      3582 8.74979E-04 5.89352E-04-9.39518E-03
 -1      3583-5.67540E-04 3.78575E-04-6.02535E-03
 -1      3584-3.77829E-05 5.46987E-06-1.67141E-05
 -1      3585-3.24978E-05 6.33913E-06-1.09899E-05
 -1      3586-2.66443E-03 2.40554E-03-3.82229E-02
 -1      3587-2.67015E-03 2.46962E-03-3.92603E-02
 -1      3588-1.28205E-03 2.39786E-03-3.81432E-02
 -1      3589-2.07956E-03 2.39788E-03-3.81457E-02
 -1      3590 6.58403E-04 1.43437E-03-2.28139E-02
 -1      3591 4.24849E-04 1.50030E-03-2.39022E-02
 -1      3592 5.81970E-04 1.44145E-03-2.29782E-02
 -1      3593 2.55685E-03 1.92199E-03-3.03947E-02
 -1      3594 6.66308E-04 2.66916E-03-4.24990E-02
 -1      3595 1.01412E-03 2.64957E-03-4.21928E-02
 -1      3596-4.45815E-04 2.42383E-03-3.85832E-02
 -1      3597 2.77813E-03 2.66941E-03-4.25016E-02
 -1      3598 1.76632E-03 2.64835E-03-4.21658E-02
 -1      3599-9.05208E-05 7.96114E-05-1.25394E-03
 -1      3600-8.72177E-05 7.86999E-05-1.28478E-03
 -1      3601-7.57161E-05 5.80582E-05-9.56543E-04
 -1      3602 3.71073E-04-1.00367E-05-5.38615E-04
 -1      3603-6.68717E-04 2.18990E-03-3.48392E-02
 -1      3604-8.12316E-05 6.27692E-05-9.85388E-04
 -1      3605 3.46564E-04 1.03351E-03-1.65273E-02
 -1      3606 1.21184E-05 1.06779E-03-1.70038E-02
 -1      3607-5.13444E-04 1.10974E-03-1.75771E-02
 -1      3608 3.78429E-04 1.10881E-03-1.77283E-02
 -1      3609 3.52386E-05 1.14383E-03-1.82169E-02
 -1      3610 8.94993E-04 1.07130E-03-1.71564E-02
 -1      3611-3.67408E-04 2.12679E-03-3.38624E-02
 -1      3612-3.50492E-04 2.13456E-03-3.39962E-02
 -1      3613-3.47778E-04 2.04569E-03-3.25821E-02
 -1      3614 7.39903E-04 2.13454E-03-3.39968E-02
 -1      3615 7.34127E-04 2.04567E-03-3.25830E-02
 -1      3616 1.57972E-04 5.78599E-05-9.59159E-04
 -1      3617-4.24853E-04 1.50028E-03-2.39021E-02
 -1      3618-5.82497E-04 1.44570E-03-2.30461E-02
 -1      3619 1.84629E-03 9.95916E-04-1.62986E-02
 -1      3620 1.87987E-03 1.04637E-03-1.70887E-02
 -1      3621 1.70200E-03 9.97864E-04-1.61310E-02
 -1      3622 1.00746E-03 1.05010E-03-1.69258E-02
 -1      3623 9.89303E-04 1.00026E-03-1.61384E-02
 -1      3624 3.25608E-04 5.45364E-04-8.66070E-03
 -1      3625 4.62353E-04 5.83533E-04-9.24856E-03
 -1      3626-1.40312E-05 8.05251E-06 4.99670E-06
 -1      3627-2.35783E-05 6.89617E-06-5.09528E-06
 -1      3628 5.90241E-04 4.20851E-05-1.35634E-03
 -1      3629 5.36640E-04 2.68118E-05-1.11878E-03
 -1      3630 3.28328E-04 6.73149E-05-1.40353E-03
 -1      3631 5.06366E-04 5.04646E-05-1.17809E-03
 -1      3632 5.55865E-04 6.59033E-05-1.42019E-03
 -1      3633-3.69849E-04 2.05410E-03-3.27046E-02
 -1      3634 1.82441E-04 7.85155E-05-1.28779E-03
 -1      3635 5.72757E-04 1.51570E-03-2.41171E-02
 -1      3636 1.04294E-03 2.66918E-03-4.24989E-02
 -1      3637 1.24438E-03 2.64834E-03-4.21652E-02
 -1      3638-3.34387E-04 5.33033E-04-8.51995E-03
 -1      3639-2.39737E-05 1.00961E-03-1.60740E-02
 -1      3640 3.34716E-04 5.33064E-04-8.52028E-03
 -1      3641 4.80868E-04 1.25946E-05-8.96134E-04
 -1      3642 2.98131E-04 5.13762E-05-1.15208E-03
 -1      3643 4.34278E-04 3.06497E-05-8.65932E-04
 -1      3644 2.55760E-04 3.16093E-05-8.40433E-04
 -1      3645-2.90458E-04 1.10998E-03-1.76938E-02
 -1      3646-2.98530E-04 1.04585E-03-1.66449E-02
 -1      3647-2.83078E-04 1.03722E-03-1.65360E-02
 -1      3648-2.33281E-04 5.32760E-05-1.72063E-04
 -1      3649-2.73927E-04 4.06048E-05-3.08983E-04
 -1      3650-1.20115E-05-1.78538E-06-5.19826E-06
 -1      3651 2.64218E-03 2.28262E-03-3.62329E-02
 -1      3652 2.38539E-03 2.33553E-03-3.71509E-02
 -1      3653 2.40740E-03 2.24204E-03-3.56360E-02
 -1      3654 1.91419E-03 1.10046E-03-1.79370E-02
 -1      3655 1.73487E-03 1.05047E-03-1.69608E-02
 -1      3656 1.05649E-03 1.12643E-03-1.81372E-02
 -1      3657 1.80290E-03 1.12686E-03-1.81724E-02
 -1      3658 2.67671E-03 2.40391E-03-3.81940E-02
 -1      3659 2.65746E-03 2.46857E-03-3.92410E-02
 -1      3660 1.60645E-03 2.39721E-03-3.81301E-02
 -1      3661 2.39355E-03 2.39686E-03-3.81325E-02
 -1      3662-1.22287E-05 1.99667E-05-3.05138E-04
 -1      3663-2.93983E-05-4.82877E-06-1.00602E-05
 -1      3664-8.17123E-05-1.03542E-05-4.35308E-05
 -1      3665-5.39173E-04 1.05115E-03-1.66351E-02
 -1      3666 1.35963E-04 1.94929E-05-3.13809E-04
 -1      3667 2.34441E-03 2.42371E-03-3.85874E-02
 -1      3668 1.45622E-03 2.42542E-03-3.86268E-02
 -1      3669-2.98171E-04 6.09869E-05-2.75103E-04
 -1      3670-1.80947E-04 4.19046E-05-2.89003E-04
 -1      3671 2.35166E-04 5.32871E-05-1.73399E-04
 -1      3672 1.83429E-04 4.20499E-05-2.88844E-04
 -1      3673-2.67769E-04 1.10495E-03-1.75868E-02
 -1      3674 1.99647E-03 1.15914E-03-1.82445E-02
 -1      3675 1.93746E-03 1.12549E-03-1.78412E-02
 -1      3676 1.94245E-03 1.04128E-03-1.64766E-02
 -1      3677 2.99455E-04 6.14012E-05-2.76330E-04
 -1      3678 2.76967E-04 4.08528E-05-3.11033E-04
 -1      3679-2.59086E-03 2.04074E-03-3.23188E-02
 -1      3680-2.60575E-03 2.10078E-03-3.32900E-02
 -1      3681-1.47808E-03 2.16184E-03-3.43501E-02
 -1      3682-2.25726E-03 2.10066E-03-3.33779E-02
 -1      3683-1.47056E-03 2.10101E-03-3.33729E-02
 -1      3684-2.61941E-03 2.16107E-03-3.42664E-02
 -1      3685-2.26892E-03 2.16155E-03-3.43545E-02
 -1      3686-2.24658E-03 2.02874E-03-3.22237E-02
 -1      3687-1.46519E-03 2.02915E-03-3.22182E-02
 -1      3688 2.43229E-04 1.07662E-03-1.71050E-02
 -1      3689 6.54937E-04 1.12683E-03-1.78203E-02
 -1      3690 2.97213E-04 2.09131E-03-3.32859E-02
 -1      3691 7.83068E-04 2.03907E-03-3.24164E-02
 -1      3692 1.83839E-03 2.09101E-03-3.32916E-02
 -1      3693 2.31782E-03 2.03853E-03-3.24253E-02
 -1      3694 4.25177E-04 7.17664E-05-1.12867E-03
 -1      3695 4.91501E-04 6.75494E-05-9.42316E-04
 -1      3696 6.88418E-05 7.32378E-05-1.10454E-03
 -1      3697 1.66801E-04 6.98131E-05-9.07182E-04
 -1      3698-1.31124E-03 2.55367E-03-4.06839E-02
 -1      3699-2.23671E-03 2.55322E-03-4.06805E-02
 -1      3700-2.34632E-03 2.52742E-03-4.02948E-02
 -1      3701-1.19544E-03 2.46166E-03-3.92269E-02
 -1      3702-2.11798E-03 2.46121E-03-3.92241E-02
 -1      3703-5.44488E-04 1.00358E-04-9.05023E-04
 -1      3704-5.27512E-04 9.17467E-05-1.14944E-03
 -1      3705-3.45145E-04 9.30413E-05-1.12798E-03
 -1      3706-3.05101E-04 7.72523E-05-8.72902E-04
 -1      3707-4.65861E-04 7.59432E-05-8.94419E-04
 -1      3708-6.04809E-04 1.13573E-04-1.11957E-03
 -1      3709-3.78802E-04 1.07899E-04-1.36728E-03
 -1      3710-6.65115E-04 1.28078E-04-1.35663E-03
 -1      3711-5.79593E-04 1.06541E-04-1.38847E-03
 -1      3712 7.42864E-04 9.59930E-05-2.19631E-03
 -1      3713 7.11197E-04 1.38631E-04-2.53358E-03
 -1      3714 7.94559E-04 1.16794E-04-2.52216E-03
 -1      3715 4.02856E-04 1.39858E-04-2.51358E-03
 -1      3716 2.53773E-03 1.86314E-03-2.94427E-02
 -1      3717 1.38497E-03 1.79689E-03-2.84940E-02
 -1      3718 2.51739E-03 1.80481E-03-2.84981E-02
 -1      3719 2.14459E-03 1.79646E-03-2.85012E-02
 -1      3720-2.53771E-03 1.86305E-03-2.94428E-02
 -1      3721-1.38499E-03 1.79688E-03-2.84940E-02
 -1      3722 2.49547E-03 1.74697E-03-2.75613E-02
 -1      3723-2.51736E-03 1.80473E-03-2.84982E-02
 -1      3724-2.14463E-03 1.79635E-03-2.85013E-02
 -1      3725-2.49556E-03 1.74688E-03-2.75614E-02
 -1      3726 2.00544E-03 1.25834E-03-2.04080E-02
 -1      3727 1.82030E-03 1.32477E-03-2.12702E-02
 -1      3728 2.03371E-03 1.31299E-03-2.12640E-02
 -1      3729 1.03121E-03 1.32540E-03-2.12594E-02
 -1      3730-2.00537E-03 1.25824E-03-2.04079E-02
 -1      3731-1.03119E-03 1.32538E-03-2.12593E-02
 -1      3732-2.03379E-03 1.31290E-03-2.12639E-02
 -1      3733-1.82035E-03 1.32467E-03-2.12701E-02
 -1      3734 8.45801E-04 1.39002E-04-2.86981E-03
 -1      3735 1.19051E-03 3.32214E-04-5.89738E-03
 -1      3736 1.23743E-03 3.65083E-04-6.41195E-03
 -1      3737 1.06560E-03 3.52221E-04-5.90784E-03
 -1      3738 6.03645E-04 3.53390E-04-5.88950E-03
 -1      3739 1.74154E-03 8.51746E-04-1.40370E-02
 -1      3740 8.64100E-04 8.22073E-04-1.33005E-02
 -1      3741 1.70427E-03 8.05108E-04-1.33067E-02
 -1      3742 1.52547E-03 8.21153E-04-1.33152E-02
 -1      3743-1.74140E-03 8.51684E-04-1.40369E-02
 -1      3744-8.64046E-04 8.22022E-04-1.33003E-02
 -1      3745 1.07387E-03 2.68789E-04-3.63489E-03
 -1      3746 6.21972E-04 2.73205E-04-4.03574E-03
 -1      3747 1.13043E-03 2.94212E-04-4.04678E-03
 -1      3748 9.63052E-04 2.72003E-04-4.05496E-03
 -1      3749-1.70422E-03 8.05072E-04-1.33067E-02
 -1      3750-1.52538E-03 8.21140E-04-1.33150E-02
 -1      3751-8.45666E-04 1.38869E-04-2.86966E-03
 -1      3752-4.03339E-04 1.39822E-04-2.51354E-03
 -1      3753-7.94455E-04 1.16674E-04-2.52203E-03
 -1      3754-7.11569E-04 1.38521E-04-2.53351E-03
 -1      3755-7.43705E-04 9.58173E-05-2.19621E-03
 -1      3756-1.66593E-03 7.59473E-04-1.25924E-02
 -1      3757 1.66586E-03 7.59499E-04-1.25925E-02
 -1      3758-1.23739E-03 3.65048E-04-6.41190E-03
 -1      3759-6.04694E-04 3.53335E-04-5.88947E-03
 -1      3760-1.13085E-03 2.94474E-04-4.04582E-03
 -1      3761-1.07432E-03 2.69052E-04-3.63394E-03
 -1      3762-9.65586E-04 2.72217E-04-4.05446E-03
 -1      3763-6.24049E-04 2.73257E-04-4.03607E-03
 -1      3764 1.51706E-03 5.08037E-04-7.50388E-03
 -1      3765 1.56885E-03 5.43609E-04-8.07544E-03
 -1      3766 8.69539E-04 5.24468E-04-8.06471E-03
 -1      3767 1.33009E-03 5.23415E-04-8.08171E-03
 -1      3768-1.19009E-03 3.31915E-04-5.89494E-03
 -1      3769-1.06622E-03 3.51955E-04-5.90550E-03
 -1      3770-1.61020E-03 5.79903E-04-8.66818E-03
 -1      3771-1.33037E-03 5.23486E-04-8.08465E-03
 -1      3772-1.51103E-03 5.08107E-04-7.50404E-03
 -1      3773-8.62913E-04 5.24320E-04-8.06521E-03
 -1      3774 5.86902E-04 1.03721E-03-1.65390E-02
 -1      3775 6.25195E-04 1.11251E-03-1.77397E-02
 -1      3776-1.56215E-03 5.43559E-04-8.07875E-03
 -1      3777 2.15970E-03 1.58063E-03-2.50250E-02
 -1      3778 1.42676E-03 1.58122E-03-2.50155E-02
 -1      3779 2.42222E-03 1.57659E-03-2.48036E-02
 -1      3780 2.22148E-03 1.49974E-03-2.37073E-02
 -1      3781 1.50032E-03 1.50039E-03-2.36967E-02
 -1      3782-1.71151E-03 6.56574E-04-9.90621E-03
 -1      3783-9.70997E-04 6.78429E-04-1.05392E-02
 -1      3784-2.65184E-03 2.34399E-03-3.72263E-02
 -1      3785-1.75897E-03 6.96374E-04-1.05515E-02
 -1      3786-1.49532E-03 6.77813E-04-1.05596E-02
 -1      3787 2.05538E-04-3.19870E-05-1.66525E-04
 -1      3788 2.43562E-04-4.27450E-06-2.92231E-04
 -1      3789-1.20481E-04-1.66980E-05-7.66586E-05
 -1      3790-7.17971E-05-1.63633E-05-5.59016E-05
 -1      3791-1.50192E-04-3.41385E-05-9.05893E-05
 -1      3792-1.86515E-04-9.79164E-06-1.80919E-04
 -1      3793-1.05874E-04-8.78255E-06-1.60536E-04
 -1      3794 1.27027E-03 4.79097E-04-7.94471E-03
 -1      3795 7.51377E-04 4.80059E-04-7.92613E-03
 -1      3796 1.38391E-03 4.70661E-04-8.07159E-03
 -1      3797 1.38856E-03 5.31550E-04-8.80766E-03
 -1      3798 8.45041E-04 5.32525E-04-8.78846E-03
 -1      3799-1.27009E-03 4.79248E-04-7.94783E-03
 -1      3800-7.44308E-04 4.80220E-04-7.92621E-03
 -1      3801-1.37729E-03 4.71026E-04-8.07541E-03
 -1      3802-1.38836E-03 5.31849E-04-8.81313E-03
 -1      3803-8.37574E-04 5.32830E-04-8.79076E-03
 -1      3804 2.66777E-03 2.34320E-03-3.72119E-02
 -1      3805-1.91175E-03 1.54855E-03-2.48064E-02
 -1      3806-1.08303E-03 1.54912E-03-2.47973E-02
 -1      3807-2.13597E-03 1.53869E-03-2.48011E-02
 -1      3808-2.10541E-03 1.61707E-03-2.59223E-02
 -1      3809-1.26543E-03 1.61773E-03-2.59128E-02
 -1      3810-1.03887E-03 1.62359E-03-2.59180E-02
 -1      3811 1.91174E-03 1.54862E-03-2.48064E-02
 -1      3812 1.08302E-03 1.54917E-03-2.47974E-02
 -1      3813 2.13596E-03 1.53877E-03-2.48012E-02
 -1      3814 2.10540E-03 1.61715E-03-2.59224E-02
 -1      3815 1.26543E-03 1.61778E-03-2.59129E-02
 -1      3816 1.03885E-03 1.62363E-03-2.59180E-02
 -1      3817-1.71266E-03 9.99157E-04-1.61512E-02
 -1      3818-3.65360E-04 1.10622E-03-1.76844E-02
 -1      3819-3.56024E-04 1.03333E-03-1.65261E-02
 -1      3820-1.01697E-03 1.04991E-03-1.69247E-02
 -1      3821-9.98635E-04 1.00008E-03-1.61373E-02
 -1      3822 2.63125E-04-2.68519E-05-2.69263E-04
 -1      3823 1.41115E-04-2.95593E-06-2.72372E-04
 -1      3824 7.53041E-04 3.11070E-04-4.56838E-03
 -1      3825 1.11495E-03 3.09764E-04-4.58950E-03
 -1      3826 5.75788E-04 2.96639E-04-4.57797E-03
 -1      3827 6.62209E-04 3.10820E-04-5.28517E-03
 -1      3828 1.10178E-03 3.09509E-04-5.30584E-03
 -1      3829 5.43629E-04 3.23678E-04-5.29636E-03
 -1      3830-4.41258E-04 2.13322E-03-3.39933E-02
 -1      3831-4.37885E-04 2.04419E-03-3.25788E-02
 -1      3832 2.19703E-03 2.13284E-03-3.40006E-02
 -1      3833 2.17976E-03 2.04367E-03-3.25872E-02
 -1      3834-5.55658E-04 6.58540E-05-1.42014E-03
 -1      3835-4.84126E-04 4.40030E-05-1.07554E-03
 -1      3836-1.08352E-04 7.26152E-05-1.26931E-03
 -1      3837-3.24981E-04 6.71342E-05-1.39830E-03
 -1      3838-9.40001E-05 5.19126E-05-9.40988E-04
 -1      3839 2.39509E-03 1.52091E-03-2.39033E-02
 -1      3840 2.36682E-03 1.46595E-03-2.30135E-02
 -1      3841 2.19484E-03 1.44452E-03-2.28201E-02
 -1      3842 1.48233E-03 1.44523E-03-2.28089E-02
 -1      3843 2.18020E-03 1.65550E-03-2.66310E-02
 -1      3844 2.15866E-03 1.59682E-03-2.57114E-02
 -1      3845 1.27788E-03 1.67617E-03-2.68348E-02
 -1      3846 2.12612E-03 1.67565E-03-2.68436E-02
 -1      3847-2.15867E-03 1.59674E-03-2.57113E-02
 -1      3848-2.12612E-03 1.67557E-03-2.68436E-02
 -1      3849-2.18021E-03 1.65542E-03-2.66309E-02
 -1      3850-1.27789E-03 1.67612E-03-2.68347E-02
 -1      3851 1.09486E-03 2.70382E-04-4.92853E-03
 -1      3852 1.14296E-03 3.00670E-04-5.40279E-03
 -1      3853 6.33959E-04 2.81031E-04-4.81533E-03
 -1      3854 1.05478E-03 2.79729E-04-4.83632E-03
 -1      3855 1.18632E-03 3.20973E-04-4.47972E-03
 -1      3856 1.24157E-03 3.49006E-04-4.93340E-03
 -1      3857 7.87658E-04 3.39582E-04-5.02686E-03
 -1      3858 1.16621E-03 3.38263E-04-5.04769E-03
 -1      3859-7.53845E-04 3.11035E-04-4.56812E-03
 -1      3860-1.11622E-03 3.09963E-04-4.58830E-03
 -1      3861-5.78766E-04 2.96630E-04-4.57798E-03
 -1      3862-6.61908E-04 3.10710E-04-5.28367E-03
 -1      3863-1.10097E-03 3.09134E-04-5.30208E-03
 -1      3864-5.44356E-04 3.23557E-04-5.29490E-03
 -1      3865-1.18666E-03 3.21170E-04-4.47810E-03
 -1      3866-1.16743E-03 3.38392E-04-5.04577E-03
 -1      3867-1.14251E-03 3.00379E-04-5.40043E-03
 -1      3868-6.33675E-04 2.80926E-04-4.81389E-03
 -1      3869-1.14199E-03 7.33164E-04-1.13562E-02
 -1      3870-1.68361E-03 7.32513E-04-1.13781E-02
 -1      3871-8.70152E-04 7.21266E-04-1.13653E-02
 -1      3872-1.84472E-03 7.79281E-04-1.18987E-02
 -1      3873-1.80469E-03 7.37091E-04-1.12143E-02
 -1      3874-1.72483E-03 7.74790E-04-1.20616E-02
 -1      3875-1.16489E-03 7.75882E-04-1.20447E-02
 -1      3876-1.24195E-03 3.49193E-04-4.93172E-03
 -1      3877-7.88492E-04 3.39545E-04-5.02658E-03
 -1      3878 9.73227E-04 6.78582E-04-1.05405E-02
 -1      3879 1.49382E-03 6.77598E-04-1.05564E-02
 -1      3880 1.76188E-03 6.96304E-04-1.05497E-02
 -1      3881 1.14564E-03 7.33342E-04-1.13573E-02
 -1      3882 1.68345E-03 7.32259E-04-1.13745E-02
 -1      3883 8.69317E-04 7.21272E-04-1.13651E-02
 -1      3884 1.42883E-03 5.08320E-04-8.66248E-03
 -1      3885 8.71193E-04 5.71409E-04-9.40208E-03
 -1      3886 5.43830E-04 7.05632E-05-1.30287E-03
 -1      3887 1.76026E-03 1.03207E-03-1.65481E-02
 -1      3888 1.82993E-03 1.10751E-03-1.77486E-02
 -1      3889 1.47252E-03 5.47164E-04-9.27037E-03
 -1      3890 1.43050E-03 5.70396E-04-9.41943E-03
 -1      3891-1.41938E-03 5.08664E-04-8.66498E-03
 -1      3892-8.60831E-04 5.71687E-04-9.40296E-03
 -1      3893 1.84953E-03 7.79452E-04-1.18983E-02
 -1      3894 1.80406E-03 7.37371E-04-1.12153E-02
 -1      3895 1.16966E-03 7.75938E-04-1.20443E-02
 -1      3896 1.72533E-03 7.74907E-04-1.20611E-02
 -1      3897-1.09448E-03 2.70121E-04-4.92596E-03
 -1      3898-1.05405E-03 2.79385E-04-4.83241E-03
 -1      3899-1.48273E-04 1.57169E-03-2.50179E-02
 -1      3900 3.35287E-04 1.58331E-03-2.52495E-02
 -1      3901 1.96953E-03 1.58248E-03-2.52627E-02
 -1      3902-3.35292E-04 1.58329E-03-2.52494E-02
 -1      3903-1.00998E-03 1.57146E-03-2.50215E-02
 -1      3904-1.96954E-03 1.58241E-03-2.52627E-02
 -1      3905 4.70200E-04 4.98242E-05-9.74287E-04
 -1      3906-2.13552E-03 1.10296E-03-1.71355E-02
 -1      3907-2.09544E-03 1.05148E-03-1.63021E-02
 -1      3908-1.81293E-03 1.03237E-03-1.62383E-02
 -1      3909-1.18172E-03 1.03444E-03-1.62462E-02
 -1      3910-1.84775E-03 1.08423E-03-1.70702E-02
 -1      3911 1.33151E-03 1.28155E-03-2.02008E-02
 -1      3912 1.35812E-03 1.21112E-03-1.90545E-02
 -1      3913-5.91991E-04 1.01678E-04-1.52090E-03
 -1      3914-3.67653E-04 1.17186E-04-1.70042E-03
 -1      3915 1.16624E-03 9.08668E-04-1.42098E-02
 -1      3916 1.31068E-03 9.78847E-04-1.52953E-02
 -1      3917-7.26866E-04 6.71648E-04-1.07105E-02
 -1      3918-1.48000E-03 6.88305E-04-1.08917E-02
 -1      3919 2.01544E-03 1.28082E-03-2.02127E-02
 -1      3920 2.02830E-03 1.21031E-03-1.90674E-02
 -1      3921 7.25474E-04 6.71551E-04-1.07085E-02
 -1      3922 1.47893E-03 6.88292E-04-1.08902E-02
 -1      3923 1.76539E-03 9.07749E-04-1.42248E-02
 -1      3924 1.92796E-03 9.78035E-04-1.53108E-02
 -1      3925-1.46300E-03 5.47667E-04-9.27487E-03
 -1      3926-1.43051E-03 5.70860E-04-9.42698E-03
 -1      3927 1.41327E-05 6.71983E-04-1.07021E-02
 -1      3928-4.26851E-04 6.89714E-04-1.08664E-02
 -1      3929-1.78094E-04 1.03655E-04-1.48932E-03
 -1      3930-1.81917E-03 1.15988E-03-1.84086E-02
 -1      3931-1.05899E-03 1.19898E-03-1.89964E-02
 -1      3932-1.54956E-05 6.72089E-04-1.07040E-02
 -1      3933 4.29910E-04 6.89772E-04-1.08664E-02
 -1      3934-2.07310E-04-3.18172E-05-1.68287E-04
 -1      3935-1.36054E-04-2.69517E-06-2.64804E-04
 -1      3936-2.35626E-03 2.46111E-03-3.92550E-02
 -1      3937-1.20683E-03 2.39598E-03-3.81891E-02
 -1      3938-2.63573E-04-2.68389E-05-2.71148E-04
 -1      3939-2.38088E-04-4.16022E-06-2.85589E-04
 -1      3940 2.19060E-04 5.00321E-05-4.17146E-04
 -1      3941 2.80469E-04 6.51943E-05-6.32075E-04
 -1      3942-2.34868E-03 2.39423E-03-3.82077E-02
 -1      3943-2.11101E-03 2.39494E-03-3.81772E-02
 -1      3944-3.91625E-04 3.13183E-04-4.78825E-03
 -1      3945-2.81051E-04 2.75401E-04-4.24445E-03
 -1      3946 5.04630E-05 2.73791E-04-4.37375E-03
 -1      3947 2.47805E-04 2.79398E-04-4.58316E-03
 -1      3948-4.19380E-05 3.10057E-04-4.92468E-03
 -1      3949-2.25468E-03 1.89558E-03-3.03931E-02
 -1      3950 2.25467E-03 1.89566E-03-3.03931E-02
 -1      3951-4.09129E-04 3.42462E-04-5.25707E-03
 -1      3952-1.33961E-04 3.48039E-04-5.51016E-03
 -1      3953 1.82171E-04 3.48924E-04-5.63571E-03
 -1      3954 2.59155E-04 3.08374E-04-5.04277E-03
 -1      3955-2.58916E-04 3.08277E-04-5.04130E-03
 -1      3956-1.83210E-04 3.48890E-04-5.63570E-03
 -1      3957 1.32051E-04 3.48038E-04-5.51050E-03
 -1      3958 4.08265E-04 3.42476E-04-5.25736E-03
 -1      3959 4.12934E-05 3.09978E-04-4.92358E-03
 -1      3960 9.64499E-04 2.73548E-04-4.27288E-03
 -1      3961 5.24990E-04 2.73178E-04-4.38244E-03
 -1      3962 1.05452E-03 2.77364E-04-4.61579E-03
 -1      3963 1.11691E-03 3.11164E-04-4.82101E-03
 -1      3964 6.52094E-04 3.09310E-04-4.93724E-03
 -1      3965 1.10288E-03 3.06350E-04-5.07498E-03
 -1      3966 1.07019E-03 3.47188E-04-5.66341E-03
 -1      3967 1.16679E-03 3.40479E-04-5.28942E-03
 -1      3968 5.97306E-04 3.47517E-04-5.51916E-03
 -1      3969-2.47577E-04 2.79306E-04-4.58175E-03
 -1      3970-5.23818E-05 2.73650E-04-4.37212E-03
 -1      3971 2.78944E-04 2.75334E-04-4.24412E-03
 -1      3972 3.90798E-04 3.13195E-04-4.78854E-03
 -1      3973 3.31298E-04 4.87114E-05-4.38295E-04
 -1      3974 4.18544E-04 6.38696E-05-6.53937E-04
 -1      3975-1.07128E-03 3.47138E-04-5.66156E-03
 -1      3976-5.99203E-04 3.47473E-04-5.51882E-03
 -1      3977-1.16765E-03 3.40389E-04-5.28724E-03
 -1      3978-1.10255E-03 3.06211E-04-5.07177E-03
 -1      3979-6.52626E-04 3.09160E-04-4.93548E-03
 -1      3980 6.97620E-04 1.04253E-03-1.64533E-02
 -1      3981 7.90558E-04 2.14789E-03-3.41573E-02
 -1      3982 2.34037E-03 2.14743E-03-3.41648E-02
 -1      3983 1.23705E-03 2.19010E-03-3.48730E-02
 -1      3984-1.11747E-03 3.10935E-04-4.81611E-03
 -1      3985-9.66408E-04 2.73356E-04-4.26888E-03
 -1      3986-1.05395E-03 2.77092E-04-4.60998E-03
 -1      3987-5.26858E-04 2.73062E-04-4.38137E-03
 -1      3988-2.33704E-03 2.33062E-03-3.72110E-02
 -1      3989-3.17661E-04-1.94107E-05-3.93316E-04
 -1      3990-2.63143E-03 2.22166E-03-3.52475E-02
 -1      3991 1.99140E-04 9.49625E-05-1.30996E-03
 -1      3992-7.24647E-04 1.44068E-04-1.61621E-03
 -1      3993-4.12173E-04 1.24168E-04-1.62896E-03
 -1      3994-7.84000E-04 1.61591E-04-1.89519E-03
 -1      3995-6.31226E-04 1.22901E-04-1.64739E-03
 -1      3996-2.57457E-03 1.98116E-03-3.13536E-02
 -1      3997-5.22068E-04 1.16061E-03-1.83899E-02
 -1      3998 4.43024E-04 2.42528E-03-3.86252E-02
 -1      3999 5.87627E-04 9.27431E-05-1.34486E-03
 -1      4000-2.24090E-03 1.25301E-03-1.95672E-02
 -1      4001-1.20999E-03 1.19353E-03-1.88048E-02
 -1      4002-1.87663E-03 1.19298E-03-1.88169E-02
 -1      4003-2.09088E-03 1.25405E-03-1.97614E-02
 -1      4004-1.41209E-03 1.25485E-03-1.97486E-02
 -1      4005-4.83194E-04 8.85812E-05-7.12396E-04
 -1      4006-1.56823E-04 1.04866E-04-1.63823E-03
 -1      4007-1.82291E-05-8.97013E-07-7.81792E-06
 -1      4008-2.16136E-03 1.43588E-03-2.27915E-02
 -1      4009-1.23002E-03 1.42217E-03-2.25537E-02
 -1      4010-2.02635E-03 1.37991E-03-2.19149E-02
 -1      4011-2.06526E-03 1.41341E-03-2.26134E-02
 -1      4012-1.13655E-03 1.40462E-03-2.23794E-02
 -1      4013-1.26023E-03 1.46051E-03-2.32619E-02
 -1      4014 1.34967E-03 2.55685E-03-4.07344E-02
 -1      4015 1.50554E-03 2.49348E-03-3.97366E-02
 -1      4016 4.34230E-04 1.61403E-03-2.57125E-02
 -1      4017-4.34244E-04 1.61401E-03-2.57125E-02
 -1      4018-4.38783E-04 1.18247E-03-1.88105E-02
 -1      4019 3.62375E-04 7.05573E-04-1.12135E-02
 -1      4020-3.63077E-04 7.05562E-04-1.12135E-02
 -1      4021-2.20808E-03 1.20318E-03-1.87585E-02
 -1      4022-1.84805E-03 1.14347E-03-1.80200E-02
 -1      4023-5.02002E-04 1.48413E-04-1.95169E-03
 -1      4024-7.41425E-04 1.47020E-04-1.97158E-03
 -1      4025-6.47654E-04 1.38100E-03-2.18981E-02
 -1      4026-7.64637E-04 1.43700E-03-2.27741E-02
 -1      4027 4.84855E-04 1.41030E-03-2.25285E-02
 -1      4028-9.14503E-05 1.45665E-03-2.31873E-02
 -1      4029 1.76790E-05 1.40076E-03-2.23064E-02
 -1      4030-2.17234E-03 1.15268E-03-1.79402E-02
 -1      4031-1.19051E-03 1.14249E-03-1.79854E-02
 -1      4032 2.20752E-03 2.19464E-03-3.49802E-02
 -1      4033-2.05624E-03 1.00360E-03-1.55266E-02
 -1      4034 3.17570E-04-1.93501E-05-3.92507E-04
 -1      4035-7.73930E-04 1.49241E-03-2.36616E-02
 -1      4036-2.57394E-04 1.51551E-03-2.41149E-02
 -1      4037 3.31650E-04 1.52631E-03-2.43439E-02
 -1      4038 4.90824E-04 1.46606E-03-2.34130E-02
 -1      4039-3.50522E-04 3.19293E-04-5.03576E-03
 -1      4040-2.40569E-04 2.82799E-04-4.47751E-03
 -1      4041 3.02651E-04 3.00097E-04-4.82707E-03
 -1      4042-3.01875E-04 3.00000E-04-4.82564E-03
 -1      4043-2.30644E-04 3.37884E-04-5.40518E-03
 -1      4044 3.50223E-04 3.19335E-04-5.03609E-03
 -1      4045 2.30189E-04 3.37896E-04-5.40519E-03
 -1      4046 2.38933E-04 2.82792E-04-4.47722E-03
 -1      4047 2.36749E-04 1.37866E-03-2.19348E-02
 -1      4048 7.47103E-04 1.41138E-03-2.23656E-02
 -1      4049-3.19670E-04 1.35927E-03-2.16897E-02
 -1      4050-9.90042E-04 1.38708E-03-2.21664E-02
 -1      4051-4.85314E-04 1.41452E-03-2.25960E-02
 -1      4052-1.84778E-03 9.97360E-04-1.63200E-02
 -1      4053 2.17094E-03 1.15130E-03-1.79182E-02
 -1      4054 1.48464E-03 6.00894E-04-9.73948E-03
 -1      4055 7.67094E-04 6.29296E-04-1.00483E-02
 -1      4056 1.44000E-03 6.47243E-04-1.02343E-02
 -1      4057 1.53021E-03 6.08896E-04-9.57665E-03
 -1      4058 8.18914E-04 6.28299E-04-9.87871E-03
 -1      4059-7.56107E-05 6.29910E-04-1.00426E-02
 -1      4060-3.43338E-04 6.02818E-04-9.71307E-03
 -1      4061 4.21204E-04 6.48753E-04-1.02100E-02
 -1      4062 5.40181E-04 6.10659E-04-9.54824E-03
 -1      4063-5.86674E-04 4.19102E-05-1.35121E-03
 -1      4064-2.18766E-03 1.49135E-03-2.36782E-02
 -1      4065-2.09064E-03 1.46927E-03-2.34980E-02
 -1      4066-1.94820E-03 1.52538E-03-2.43578E-02
 -1      4067-1.10962E-03 1.51521E-03-2.41193E-02
 -1      4068-9.62292E-04 1.34868E-03-2.14746E-02
 -1      4069-1.87790E-03 1.35823E-03-2.17055E-02
 -1      4070-1.17036E-03 1.09230E-03-1.71795E-02
 -1      4071 2.13568E-03 1.41028E-03-2.23833E-02
 -1      4072 1.06361E-03 1.37837E-03-2.19397E-02
 -1      4073 1.87790E-03 1.35831E-03-2.17056E-02
 -1      4074 2.06324E-03 1.40923E-03-2.25460E-02
 -1      4075 9.89050E-04 1.38288E-03-2.20993E-02
 -1      4076 2.05435E-03 1.48714E-03-2.38724E-02
 -1      4077 1.23473E-03 1.48779E-03-2.38618E-02
 -1      4078 1.99380E-03 1.45259E-03-2.34206E-02
 -1      4079-1.20599E-03 1.37993E-03-2.21601E-02
 -1      4080-2.00653E-03 1.37921E-03-2.21716E-02
 -1      4081-1.97139E-03 1.40049E-03-2.26038E-02
 -1      4082 1.25953E-03 2.22355E-03-3.54665E-02
 -1      4083 1.36490E-03 2.30192E-03-3.67112E-02
 -1      4084 2.16094E-03 2.22332E-03-3.54705E-02
 -1      4085 2.27107E-03 2.30169E-03-3.67148E-02
 -1      4086 1.22011E-03 1.43142E-03-2.29720E-02
 -1      4087 2.02993E-03 1.43075E-03-2.29831E-02
 -1      4088-1.22126E-03 1.43568E-03-2.30399E-02
 -1      4089-2.03185E-03 1.43497E-03-2.30509E-02
 -1      4090-1.75838E-03 1.14147E-03-1.85078E-02
 -1      4091-2.06357E-03 1.97571E-03-3.16155E-02
 -1      4092 2.06356E-03 1.97578E-03-3.16156E-02
 -1      4093-1.65478E-03 9.66320E-04-1.57555E-02
 -1      4094-2.10280E-03 2.18960E-03-3.49766E-02
 -1      4095 2.32993E-03 2.26831E-03-3.62321E-02
 -1      4096 2.10276E-03 2.18968E-03-3.49767E-02
 -1      4097-5.65829E-04 6.14611E-05-1.53792E-03
 -1      4098 1.07905E-03 6.40923E-04-9.87059E-03
 -1      4099 1.58539E-03 6.39807E-04-9.88857E-03
 -1      4100 1.59633E-03 6.31891E-04-9.56621E-03
 -1      4101 1.95263E-04 2.53201E-04-4.13902E-03
 -1      4102 5.29493E-04 2.57679E-04-4.27293E-03
 -1      4103 1.05167E-03 6.01965E-04-9.24289E-03
 -1      4104 1.54061E-03 6.00826E-04-9.26113E-03
 -1      4105 5.66038E-04 6.15056E-05-1.53801E-03
 -1      4106-3.99282E-04 1.17937E-05-7.58632E-04
 -1      4107-2.46199E-04 1.63201E-04-2.42250E-03
 -1      4108-4.50812E-04 1.58680E-04-2.34825E-03
 -1      4109-1.99916E-03 1.32578E-03-2.10505E-02
 -1      4110-1.18463E-03 1.31274E-03-2.08058E-02
 -1      4111 4.28370E-04 1.77132E-03-2.82465E-02
 -1      4112 1.14340E-03 1.75390E-03-2.79941E-02
 -1      4113 2.11434E-03 1.77062E-03-2.82583E-02
 -1      4114-4.28381E-04 1.77130E-03-2.82464E-02
 -1      4115-1.14341E-03 1.75386E-03-2.79941E-02
 -1      4116-2.11435E-03 1.77055E-03-2.82583E-02
 -1      4117 6.43520E-04 1.35500E-03-2.14818E-02
 -1      4118 1.20209E-03 1.37052E-03-2.17291E-02
 -1      4119-6.38965E-04 1.32691E-03-2.10331E-02
 -1      4120-1.41271E-04 1.34897E-03-2.14703E-02
 -1      4121 2.01344E-03 1.35394E-03-2.14990E-02
 -1      4122 3.71491E-04 3.71581E-04-5.75485E-03
 -1      4123 6.83872E-04 3.64096E-04-5.63315E-03
 -1      4124-3.71233E-04 3.71587E-04-5.75519E-03
 -1      4125-6.84499E-04 3.64074E-04-5.63313E-03
 -1      4126-6.75464E-04 1.46019E-03-2.32247E-02
 -1      4127-5.59056E-04 1.40436E-03-2.23430E-02
 -1      4128-1.96312E-04 2.53043E-04-4.13728E-03
 -1      4129-5.30221E-04 2.57438E-04-4.26987E-03
 -1      4130 9.63834E-04 2.51280E-04-4.16984E-03
 -1      4131 1.16234E-03 3.69743E-04-5.78440E-03
 -1      4132-6.71540E-04 1.54744E-03-2.45600E-02
 -1      4133-1.25962E-03 1.53340E-03-2.43328E-02
 -1      4134-2.10113E-03 1.54649E-03-2.45747E-02
 -1      4135-1.67152E-03 8.29977E-04-1.31335E-02
 -1      4136-9.88065E-04 8.19981E-04-1.29246E-02
 -1      4137 1.67150E-03 8.30009E-04-1.31335E-02
 -1      4138 9.88336E-04 8.19978E-04-1.29244E-02
 -1      4139-3.09128E-04 5.86679E-05-3.61845E-04
 -1      4140-5.34243E-04 8.31487E-04-1.31098E-02
 -1      4141 5.34236E-04 8.31490E-04-1.31098E-02
 -1      4142 4.21167E-04 7.81059E-05-5.44484E-04
 -1      4143 3.11381E-04 5.87217E-05-3.62211E-04
 -1      4144-7.70606E-04 1.61230E-04-2.45466E-03
 -1      4145 1.21868E-03 4.50289E-04-7.64876E-03
 -1      4146-2.03091E-03 1.82154E-03-2.91945E-02
 -1      4147 2.03090E-03 1.82161E-03-2.91946E-02
 -1      4148-2.22020E-03 1.61487E-03-2.54757E-02
 -1      4149-2.36681E-03 1.46590E-03-2.30136E-02
 -1      4150-2.11819E-03 1.39380E-03-2.19074E-02
 -1      4151-1.37739E-03 1.41454E-03-2.23382E-02
 -1      4152-2.08487E-03 1.41384E-03-2.23490E-02
 -1      4153 2.22019E-03 1.61495E-03-2.54757E-02
 -1      4154 2.24088E-03 1.25304E-03-1.95671E-02
 -1      4155 2.07582E-03 1.31486E-03-2.06322E-02
 -1      4156 8.58566E-04 2.08940E-04-2.78199E-03
 -1      4157-1.78610E-03 8.94562E-04-1.38489E-02
 -1      4158 8.73010E-04 2.01205E-04-3.73541E-03
 -1      4159 1.26359E-03 4.25686E-04-6.28043E-03
 -1      4160 1.46471E-03 6.43691E-04-1.03902E-02
 -1      4161 7.87096E-04 6.31424E-04-1.01987E-02
 -1      4162 2.01646E-03 9.57751E-04-1.47865E-02
 -1      4163 1.78608E-03 8.94593E-04-1.38489E-02
 -1      4164 1.66922E-03 6.17753E-04-9.27544E-03
 -1      4165-1.16214E-03 3.69716E-04-5.78279E-03
 -1      4166-1.21835E-03 4.50253E-04-7.64840E-03
 -1      4167 3.00946E-04 6.45142E-04-1.03643E-02
 -1      4168-2.91848E-04 6.45437E-04-1.03662E-02
 -1      4169-7.86974E-04 6.31650E-04-1.02026E-02
 -1      4170 3.99313E-04 1.18131E-05-7.58328E-04
 -1      4171-9.64508E-04 2.50970E-04-4.16394E-03
 -1      4172-1.46574E-03 6.44360E-04-1.04011E-02
 -1      4173-1.26335E-03 4.25676E-04-6.28078E-03
 -1      4174-8.58477E-04 2.08919E-04-2.78216E-03
 -1      4175-1.43303E-03 6.66056E-04-1.10397E-02
 -1      4176-8.73866E-04 2.01014E-04-3.73378E-03
 -1      4177 1.43262E-03 6.65972E-04-1.10378E-02
 -1      4178-1.21080E-03 1.79635E-03-2.87187E-02
 -1      4179-2.07402E-03 1.79588E-03-2.87262E-02
 -1      4180 2.07401E-03 1.79595E-03-2.87262E-02
 -1      4181-1.35943E-03 1.36036E-03-2.14675E-02
 -1      4182 1.21079E-03 1.79639E-03-2.87188E-02
 -1      4183-2.05768E-03 1.35962E-03-2.14788E-02
 -1      4184-2.15969E-03 1.58056E-03-2.50250E-02
 -1      4185-1.42677E-03 1.58118E-03-2.50156E-02
 -1      4186 1.35054E-03 1.33467E-03-2.10541E-02
 -1      4187 2.04423E-03 1.33396E-03-2.10655E-02
 -1      4188-1.14146E-03 8.62952E-04-1.34756E-02
 -1      4189-1.72779E-03 8.61966E-04-1.34910E-02
 -1      4190 5.36130E-04 2.27485E-04-3.93216E-03
 -1      4191 9.18390E-04 2.26214E-04-3.95247E-03
 -1      4192 1.21204E-03 3.97272E-04-6.03214E-03
 -1      4193 8.00705E-04 3.98474E-04-6.01289E-03
 -1      4194 1.14147E-03 8.62963E-04-1.34756E-02
 -1      4195-5.37492E-04 1.85856E-04-2.59713E-03
 -1      4196-8.00451E-04 3.98471E-04-6.01324E-03
 -1      4197 1.72777E-03 8.61997E-04-1.34910E-02
 -1      4198-1.45011E-03 6.54752E-04-1.07174E-02
 -1      4199 2.08710E-03 1.42449E-03-2.30110E-02
 -1      4200-2.08711E-03 1.42440E-03-2.30109E-02
 -1      4201 3.19668E-04 1.35926E-03-2.16897E-02
 -1      4202 8.54883E-04 6.55452E-04-1.06961E-02
 -1      4203-5.37083E-04 2.27311E-04-3.93047E-03
 -1      4204-1.21206E-03 3.97352E-04-6.03072E-03
 -1      4205-9.19130E-04 2.25961E-04-3.95076E-03
 -1      4206-8.13778E-04 1.84693E-04-2.61645E-03
 -1      4207 1.44936E-03 6.54386E-04-1.07114E-02
 -1      4208-8.51920E-04 6.55522E-04-1.06966E-02
 -1      4209-2.04257E-06 2.53992E-04-4.04433E-03
 -1      4210-2.47446E-04 2.72127E-04-4.36965E-03
 -1      4211-4.83530E-07 1.58559E-04-2.52480E-03
 -1      4212 6.74267E-09 1.78966E-03-2.84972E-02
 -1      4213 5.25797E-04 1.74402E-03-2.77842E-02
 -1      4214-5.25801E-04 1.74400E-03-2.77842E-02
 -1      4215 1.68273E-08 1.33547E-03-2.12654E-02
 -1      4216-4.14566E-04 1.38908E-03-2.21331E-02
 -1      4217 4.14579E-04 1.38908E-03-2.21331E-02
 -1      4218 5.55587E-04 1.37812E-03-2.19241E-02
 -1      4219-5.44121E-04 1.29583E-03-2.06136E-02
 -1      4220 3.98732E-09 1.55763E-03-2.48024E-02
 -1      4221-5.72745E-04 1.51567E-03-2.41171E-02
 -1      4222-2.04115E-04 1.45261E-04-2.27537E-03
 -1      4223 2.46893E-04 2.72259E-04-4.37140E-03
 -1      4224 8.81838E-08 8.35792E-04-1.33086E-02
 -1      4225-4.52721E-04 8.03356E-04-1.27643E-02
 -1      4226 4.53135E-04 8.03364E-04-1.27643E-02
 -1      4227-2.21985E-03 1.77449E-03-2.84962E-02
 -1      4228-2.30632E-03 1.35800E-03-2.12669E-02
 -1      4229 2.21984E-03 1.77457E-03-2.84963E-02
 -1      4230-2.42224E-03 1.57648E-03-2.48036E-02
 -1      4231 2.30631E-03 1.35805E-03-2.12668E-02
 -1      4232 1.81182E-03 9.46365E-04-1.55230E-02
 -1      4233 9.96826E-04 2.13786E-04-4.04177E-03
 -1      4234-1.93262E-03 8.66495E-04-1.33106E-02
 -1      4235 1.35010E-03 4.08845E-04-5.90215E-03
 -1      4236-1.05619E-06 3.70521E-04-5.89979E-03
 -1      4237 3.12459E-04 3.48989E-04-5.52212E-03
 -1      4238-1.07424E-06 6.62391E-04-1.05474E-02
 -1      4239 3.43197E-04 6.23051E-04-9.89909E-03
 -1      4240-3.60686E-04 6.29515E-04-1.00545E-02
 -1      4241-3.11635E-04 3.48993E-04-5.52244E-03
 -1      4242 1.93260E-03 8.66532E-04-1.33106E-02
 -1      4243-1.35035E-03 4.08922E-04-5.90036E-03
 -1      4244-9.01144E-04 2.00517E-04-2.52563E-03
 -1      4245 3.60385E-04 6.29393E-04-1.00526E-02
 -1      4246-1.58702E-07 5.06891E-04-8.07113E-03
 -1      4247-1.55083E-03 6.28735E-04-1.05468E-02
 -1      4248 1.55380E-03 6.28495E-04-1.05443E-02
 -1      4249-9.96693E-04 2.13671E-04-4.04165E-03
 -1      4250-1.23583E-03 1.49209E-03-2.39305E-02
 -1      4251-1.99563E-03 1.45686E-03-2.34888E-02
 -1      4252-2.05618E-03 1.49142E-03-2.39410E-02
 -1      4253 2.00453E-03 1.37504E-03-2.21046E-02
 -1      4254 1.96947E-03 1.39628E-03-2.25364E-02
 -1      4255 1.20480E-03 1.37573E-03-2.20931E-02
 -1      4256 1.01984E-03 5.64107E-04-8.63415E-03
 -1      4257 1.55002E-03 5.93590E-04-8.94758E-03
 -1      4258 1.49491E-03 5.62931E-04-8.65273E-03
 -1      4259 5.57582E-04 2.39448E-03-3.81458E-02
 -1      4260 1.44648E-03 2.39667E-03-3.81887E-02
 -1      4261 1.77290E-03 1.14401E-03-1.85525E-02
 -1      4262-2.60851E-03 2.63177E-03-4.19348E-02
 -1      4263-2.62364E-03 2.57912E-03-4.11097E-02
 -1      4264-1.58622E-03 2.60519E-03-4.14992E-02
 -1      4265-2.22172E-03 2.60531E-03-4.15050E-02
 -1      4266-2.67053E-03 2.66838E-03-4.25014E-02
 -1      4267-1.60408E-03 2.64583E-03-4.21379E-02
 -1      4268-1.32726E-04 4.19827E-05-5.73758E-05
 -1      4269-8.07109E-05 3.58584E-05-2.61583E-05
 -1      4270-8.33809E-05 2.09798E-05-3.86333E-05
 -1      4271-6.48859E-05 2.34976E-05-2.42607E-05
 -1      4272 3.72626E-05 5.06549E-05-8.02972E-04
 -1      4273 1.92164E-04 1.99927E-03-3.18342E-02
 -1      4274 1.95368E-04 2.18267E-03-3.47541E-02
 -1      4275 5.09152E-05 9.32003E-05-1.48046E-03
 -1      4276-2.68074E-03 2.58447E-03-4.11143E-02
 -1      4277-2.95772E-03 2.63492E-03-4.19300E-02
 -1      4278-1.89275E-03 2.60931E-03-4.15321E-02
 -1      4279-2.45291E-03 2.60936E-03-4.15329E-02
 -1      4280 1.38574E-03 2.36403E-03-3.76922E-02
 -1      4281 1.52815E-03 2.42697E-03-3.86881E-02
 -1      4282 1.54368E-04 1.00071E-03-1.59320E-02
 -1      4283-1.98951E-03 2.67292E-03-4.25681E-02
 -1      4284-1.31795E-03 2.66706E-03-4.24692E-02
 -1      4285 1.62730E-04 1.15090E-03-1.83240E-02
 -1      4286 2.64506E-06 1.79893E-05-2.86529E-04
 -1      4287 2.95264E-03 2.63566E-03-4.19400E-02
 -1      4288 2.93366E-03 2.58463E-03-4.11150E-02
 -1      4289 1.89791E-03 2.60939E-03-4.15321E-02
 -1      4290 2.46257E-03 2.60949E-03-4.15328E-02
 -1      4291 8.10402E-05 3.57886E-05-2.59688E-05
 -1      4292 1.33589E-04 4.21877E-05-5.78043E-05
 -1      4293 6.61506E-05 2.36264E-05-2.55592E-05
 -1      4294 8.43798E-05 2.09823E-05-3.89370E-05
 -1      4295-2.62694E-03 2.67287E-03-4.25741E-02
 -1      4296 7.17801E-05-3.29238E-05-2.20290E-05
 -1      4297 1.18916E-04-3.62936E-05-5.27619E-05
 -1      4298 5.53893E-05-1.92503E-05-2.18576E-05
 -1      4299 7.61153E-05-1.85231E-05-3.55749E-05
 -1      4300 2.61887E-03 2.57986E-03-4.11196E-02
 -1      4301 2.60337E-03 2.63187E-03-4.19348E-02
 -1      4302 2.25970E-03 2.60852E-03-4.15553E-02
 -1      4303 1.61967E-03 2.60901E-03-4.15596E-02
 -1      4304 2.27500E-03 2.55703E-03-4.07405E-02
 -1      4305 2.36978E-05 1.34376E-05 2.23480E-06
 -1      4306 3.64258E-05 1.05422E-05-9.84221E-06
 -1      4307-2.85635E-03 2.66767E-03-4.24712E-02
 -1      4308-1.83289E-03 2.64877E-03-4.21707E-02
 -1      4309-7.09426E-05-3.26671E-05-2.14771E-05
 -1      4310-1.18551E-04-3.62181E-05-5.24761E-05
 -1      4311-5.56165E-05-1.86921E-05-2.30033E-05
 -1      4312-7.68984E-05-1.79824E-05-3.65182E-05
 -1      4313-2.22062E-03 1.47017E-03-2.32309E-02
 -1      4314-1.50401E-03 1.47087E-03-2.32199E-02
 -1      4315 2.88402E-05 1.61072E-05-2.56744E-06
 -1      4316-1.76256E-05-1.08210E-05 3.65958E-06
 -1      4317-3.22392E-05-9.45577E-06-8.85061E-06
 -1      4318-2.33648E-03 2.67376E-03-4.25683E-02
 -1      4319-1.66496E-03 2.66736E-03-4.24694E-02
 -1      4320-2.89832E-03 2.67401E-03-4.25692E-02
 -1      4321-3.33779E-05 8.99343E-06-1.41351E-05
 -1      4322 3.77665E-05 9.10931E-06-1.69411E-05
 -1      4323 3.43358E-05 1.38320E-05-1.28388E-05
 -1      4324 1.73254E-03 2.67386E-03-4.25727E-02
 -1      4325-3.42238E-05 1.38591E-05-1.21157E-05
 -1      4326-3.51896E-05 1.03749E-05-9.63142E-06
 -1      4327-2.43850E-05-1.44252E-05-8.16165E-07
 -1      4328-3.52603E-05-9.50189E-06-1.54647E-05
 -1      4329-3.10103E-05-1.36141E-05-1.09776E-05
 -1      4330-2.08533E-03 1.69992E-03-2.73029E-02
 -1      4331-2.14569E-03 1.73453E-03-2.77737E-02
 -1      4332-1.28965E-03 1.73507E-03-2.77653E-02
 -1      4333 2.14568E-03 1.73461E-03-2.77738E-02
 -1      4334 1.28965E-03 1.73511E-03-2.77654E-02
 -1      4335 2.08532E-03 1.70000E-03-2.73030E-02
 -1      4336 2.16703E-03 1.38998E-03-2.19438E-02
 -1      4337 1.46355E-03 1.39070E-03-2.19322E-02
 -1      4338 2.22815E-03 1.42446E-03-2.23753E-02
 -1      4339-2.15186E-03 1.28838E-03-2.01772E-02
 -1      4340-1.43288E-03 1.30752E-03-2.05953E-02
 -1      4341-2.12162E-03 1.30673E-03-2.06077E-02
 -1      4342 1.00723E-03 2.51257E-04-4.38733E-03
 -1      4343 1.00660E-03 2.53122E-04-4.59787E-03
 -1      4344 6.05382E-04 2.52580E-04-4.36614E-03
 -1      4345-1.78316E-03 8.07321E-04-1.24025E-02
 -1      4346-1.19265E-03 8.19518E-04-1.27463E-02
 -1      4347-1.76593E-03 8.18464E-04-1.27629E-02
 -1      4348 1.21731E-03 3.66325E-04-5.27493E-03
 -1      4349 8.21857E-04 3.69360E-04-5.50581E-03
 -1      4350 1.21684E-03 3.68074E-04-5.52639E-03
 -1      4351 1.76617E-03 8.18490E-04-1.27626E-02
 -1      4352 1.78340E-03 8.07349E-04-1.24022E-02
 -1      4353 1.19290E-03 8.19528E-04-1.27460E-02
 -1      4354-1.00675E-03 2.51064E-04-4.38591E-03
 -1      4355-1.00626E-03 2.53005E-04-4.59646E-03
 -1      4356-6.05107E-04 2.52478E-04-4.36476E-03
 -1      4357 2.33167E-03 2.67414E-03-4.25733E-02
 -1      4358 1.84285E-03 2.64850E-03-4.21656E-02
 -1      4359-1.21794E-03 3.68107E-04-5.52439E-03
 -1      4360-1.21815E-03 3.66265E-04-5.27465E-03
 -1      4361-8.22727E-04 3.69322E-04-5.50551E-03
 -1      4362-1.47141E-03 6.10786E-04-1.00569E-02
 -1      4363-8.89294E-04 6.11650E-04-1.00351E-02
 -1      4364-1.41664E-03 5.80034E-04-9.72826E-03
 -1      4365 2.45503E-03 2.21420E-03-3.51421E-02
 -1      4366-5.38231E-04 1.67573E-04-2.26050E-03
 -1      4367-7.96607E-04 1.66323E-04-2.28125E-03
 -1      4368-7.85707E-04 1.70796E-04-2.11541E-03
 -1      4369 2.05653E-03 1.19306E-03-1.86482E-02
 -1      4370 2.40495E-03 1.98594E-03-3.14554E-02
 -1      4371 1.98796E-03 1.01163E-03-1.56874E-02
 -1      4372 6.69490E-04 1.36663E-04-1.58626E-03
 -1      4373 1.89286E-05-1.13878E-05 3.53465E-06
 -1      4374 2.47321E-05-1.48225E-05-6.91677E-07
 -1      4375 3.12947E-05-9.45508E-06-7.96355E-06
 -1      4376 2.67376E-03 2.66654E-03-4.24712E-02
 -1      4377 2.63140E-03 2.67263E-03-4.25691E-02
 -1      4378 1.64705E-03 2.64939E-03-4.21932E-02
 -1      4379 3.17626E-05-9.30051E-06-1.34589E-05
 -1      4380 1.41702E-03 5.79919E-04-9.72635E-03
 -1      4381 1.47145E-03 6.10395E-04-1.00511E-02
 -1      4382 8.92962E-04 6.11541E-04-1.00345E-02
 -1      4383-2.12317E-05 1.23939E-05 2.03912E-06
 -1      4384-2.79109E-05 1.57427E-05-2.40892E-06
 -1      4385 4.56453E-04 8.38853E-05-7.32750E-04
 -1      4386 2.82138E-03 2.67424E-03-4.25746E-02
 -1      4387 3.09390E-05-1.37454E-05-1.00992E-05
 -1      4388-1.52179E-03 1.52636E-03-2.41125E-02
 -1      4389-2.24687E-03 1.52569E-03-2.41230E-02
 -1      4390-2.28181E-03 1.50475E-03-2.36707E-02
 -1      4391 2.89790E-03 2.67446E-03-4.25743E-02
 -1      4392 3.12247E-04 2.39059E-03-3.80674E-02
 -1      4393 1.35584E-03 2.67368E-03-4.25726E-02
 -1      4394 1.98946E-03 2.67336E-03-4.25733E-02
 -1      4395 2.47234E-03 2.39766E-03-3.82021E-02
 -1      4396 2.34657E-03 2.52756E-03-4.02950E-02
 -1      4397 2.42963E-03 2.49376E-03-3.97433E-02
 -1      4398 2.27816E-03 2.36477E-03-3.77096E-02
 -1      4399 2.42331E-03 2.42791E-03-3.87049E-02
 -1      4400 2.22088E-03 2.33119E-03-3.72079E-02
 -1      4401 2.37209E-03 2.45785E-03-3.91973E-02
 -1      4402 2.36123E-03 2.39434E-03-3.82079E-02
 -1      4403-6.70851E-04 2.25139E-03-3.58212E-02
 -3
    1PSTEP                         5           1           1          
  100CL  102 2.152731093        4403                     4    2           1
 -4  STRESS      6    1
 -5  SXX         1    4    1    1
 -5  SYY         1    4    2    2
 -5  SZZ         1    4    3    3
 -5  SXY         1    4    1    2
 -5  SYZ         1    4    2    3
 -5  SZX         1    4    3    1
 -1         1 1.41659E+01 4.59482E+00 4.41302E+00 2.81023E+00-5.33276E-01-1.26023E+00
 -1         2-1.24889E+01-4.07435E+00-3.87758E+00-2.67334E+00-4.71305E-01-9.21869E-01
 -1         3 1.25119E+01 4.06622E+00 3.87540E+00-2.66231E+00 4.55299E-01-8.85164E-01
 -1         4-1.41774E+01-4.59056E+00-4.43819E+00 2.78718E+00 5.07006E-01-1.24853E+00
 -1         5 1.06001E-01-2.50966E-03-1.52976E-01-9.42974E-03 2.03266E-02-1.07330E-01
 -1         6-1.05990E-01-2.08261E-02 1.43780E-01 2.02307E-02 2.14056E-02-1.14158E-01
 -1         7 1.02496E-01 1.71159E-02-1.45030E-01 2.08379E-02-1.92318E-02-1.12304E-01
 -1         8-1.19673E-01-1.37404E-03 1.43147E-01-6.73965E-03-2.27951E-02-1.12319E-01
 -1         9-6.16474E+00-2.49499E+00-2.60942E+00-1.69760E+00 1.42623E-01 1.39105E+00
 -1        10 6.22721E-01 1.47928E-01 3.20575E-01 2.14057E-02 7.62061E-02 1.75475E+00
 -1        11 7.68941E+00 3.12301E+00 3.24108E+00 1.99245E+00 1.64448E-01 1.28211E+00
 -1        12-1.05246E+01-4.51054E+00-4.51054E+00-2.71388E+00-7.98663E-08 5.95010E-01
 -1        13-2.69227E+00-1.15383E+00-1.15383E+00-8.03498E-01-7.72325E-07 1.48971E+00
 -1        14 4.18130E+00 1.79199E+00 1.79199E+00 1.03819E+00-8.37245E-07 1.51656E+00
 -1        15 1.20977E+01 5.18476E+00 5.18476E+00 2.99084E+00-1.07743E-08 3.71298E-01
 -1        16 1.24149E+01 5.22361E+00 5.19865E+00 9.79439E-01 1.06147E-01-2.64419E+00
 -1        17 1.23141E+01 5.15525E+00 5.14994E+00-1.69266E-01 9.09965E-02-2.55459E+00
 -1        18 1.16198E+01 4.88781E+00 4.88884E+00-1.26328E+00 5.36088E-02-2.25363E+00
 -1        19 1.31775E+01 5.64752E+00 5.64753E+00 1.81515E+00 7.00027E-07-2.48015E+00
 -1        20 1.25560E+01 5.38113E+00 5.38114E+00 4.61442E-01 3.13224E-07-2.63985E+00
 -1        21 1.22589E+01 5.25381E+00 5.25382E+00-6.61111E-01 5.72238E-07-2.41583E+00
 -1        22 1.15926E+01 4.96826E+00 4.96826E+00-1.87222E+00-6.95827E-08-1.91136E+00
 -1        23-7.99079E+00-3.49756E+00-3.29691E+00 2.18915E+00-4.41580E-02 1.15795E+00
 -1        24-8.86305E-01-4.86404E-01-3.29652E-01 2.86266E-01-7.37689E-02 1.75558E+00
 -1        25 6.16033E+00 2.47424E+00 2.60160E+00-1.67874E+00-1.55692E-01 1.42644E+00
 -1        26-1.18911E+01-5.09621E+00-5.09620E+00 2.92932E+00 4.09152E-07 3.09656E-01
 -1        27-4.55896E+00-1.95385E+00-1.95384E+00 1.20931E+00 1.06760E-06 1.50034E+00
 -1        28 2.60957E+00 1.11839E+00 1.11839E+00-7.23868E-01 8.79102E-07 1.58441E+00
 -1        29 1.05267E+01 4.51145E+00 4.51144E+00-2.70847E+00 9.40103E-08 6.14351E-01
 -1        30-1.15618E+01-4.86385E+00-4.85465E+00-1.14712E+00 8.53706E-02-2.41916E+00
 -1        31-1.23108E+01-5.15416E+00-5.15543E+00-5.56240E-02 8.33339E-02-2.55734E+00
 -1        32-1.24857E+01-5.23807E+00-5.28502E+00 1.10140E+00 4.21707E-02-2.53975E+00
 -1        33-1.17535E+01-5.03723E+00-5.03723E+00-1.87373E+00 7.01168E-07-2.12495E+00
 -1        34-1.21625E+01-5.21249E+00-5.21250E+00-6.54502E-01 4.15368E-07-2.53269E+00
 -1        35-1.26554E+01-5.42375E+00-5.42376E+00 4.56273E-01 7.70299E-07-2.54468E+00
 -1        36-1.29591E+01-5.55390E+00-5.55391E+00 1.81865E+00-2.94617E-08-2.28245E+00
 -1        37 1.93033E-02-5.34665E-03 3.21206E-01 8.56003E-03-2.22052E-02-3.41324E-01
 -1        38 8.00508E-03-1.12688E-02 9.22095E-04 8.11114E-03-3.87865E-02-3.54741E-01
 -1        39-4.84057E-03-1.34869E-02-3.31431E-01 8.31774E-03-1.49388E-02-3.39710E-01
 -1        40-1.41401E-02 1.97681E-03 3.05312E-01 2.59431E-02-8.17390E-03-2.46391E-01
 -1        41 1.03675E-02-4.54466E-03 1.76317E-01 7.61591E-03-3.61387E-02-3.51285E-01
 -1        42-1.52436E-05-1.18560E-02-1.75097E-01 4.27576E-04-3.37183E-02-3.46998E-01
 -1        43 2.16327E-02-2.07412E-02-3.14241E-01-4.79149E-04-7.83758E-03-2.36810E-01
 -1        44 1.32048E-01-5.11016E-02-1.63915E-01 6.99714E-03 6.81264E-03-1.21503E-01
 -1        45 1.29663E-01-6.54940E-02-1.67970E-01 2.05009E-02-5.88723E-04-1.30381E-01
 -1        46 1.36631E-01-8.49892E-03-1.63403E-01 3.72843E-02-7.60386E-03-1.33913E-01
 -1        47 1.18081E-01-2.65108E-02-1.53744E-01-2.68508E-04 1.82095E-02-1.26543E-01
 -1        48 1.26087E-01-6.83798E-02-1.62276E-01 1.29290E-02 2.56581E-03-1.23873E-01
 -1        49 1.24447E-01-4.56571E-02-1.73923E-01 2.60437E-02-7.91120E-03-1.31717E-01
 -1        50 1.18224E-01 1.97012E-02-1.50158E-01 3.39256E-02-1.60163E-02-1.27497E-01
 -1        51 1.74268E-03 1.52498E-02 3.24894E-01 8.77865E-03 2.20958E-02-3.39334E-01
 -1        52-8.30718E-03 7.71653E-03 1.09820E-02 8.64808E-03 3.85057E-02-3.54606E-01
 -1        53-1.91289E-02 9.10241E-03-3.22925E-01 5.59792E-03 1.40657E-02-3.41653E-01
 -1        54-2.91307E-02 2.07191E-02 3.05393E-01-1.06768E-02 6.66780E-03-2.44451E-01
 -1        55-6.40639E-03 1.65200E-02 1.83137E-01 9.12107E-03 3.57965E-02-3.50639E-01
 -1        56-1.50511E-02 7.01088E-03-1.65512E-01 1.65723E-02 3.25087E-02-3.48118E-01
 -1        57 3.01936E-03-2.57763E-03-3.14879E-01 1.20876E-02 9.36678E-03-2.40960E-01
 -1        58-1.29765E-01 8.78543E-03 1.70415E-01 3.96007E-02 3.10714E-03-1.26877E-01
 -1        59-1.20571E-01 6.85338E-02 1.74411E-01 1.93514E-02 6.16465E-03-1.23728E-01
 -1        60-1.39191E-01 4.50777E-02 1.59632E-01 7.20801E-03-3.79091E-03-1.32052E-01
 -1        61-1.20528E-01-2.49455E-02 1.50944E-01 3.14033E-02 1.65280E-02-1.26540E-01
 -1        62-1.15217E-01 6.25611E-02 1.78677E-01 2.79966E-02 7.22376E-03-1.32668E-01
 -1        63-1.28696E-01 6.35870E-02 1.67990E-01 1.88288E-02-2.97711E-03-1.27544E-01
 -1        64-1.21032E-01 1.55757E-02 1.51054E-01-1.41405E-03-1.52146E-02-1.24866E-01
 -1        65-9.41779E+00 2.70925E-01 2.76734E-01 5.10493E-02 1.15194E-02 3.62670E-01
 -1        66-1.01913E+01 3.27465E-02 1.37031E-02 8.24322E-03-6.65116E-04 3.20859E-02
 -1        67-1.03295E+01 5.11647E-03-3.94730E-04 5.19859E-03-3.17141E-03-5.43256E-03
 -1        68-1.02977E+01-2.15977E-03-1.63298E-03 5.94920E-03 7.62723E-04-8.27954E-03
 -1        69-1.02153E+01 9.98153E-04 3.29973E-04 5.69632E-03-3.38029E-04-8.38060E-03
 -1        70-1.00932E+01 1.94598E-04-2.00410E-03 7.31272E-03-2.94592E-04-1.56104E-02
 -1        71-9.95072E+00-9.91254E-04-4.83930E-04 7.53881E-03 1.93522E-04-1.09793E-02
 -1        72-9.78964E+00-2.27427E-05-1.43757E-03 9.66502E-03 8.58159E-04-1.29850E-02
 -1        73-9.60510E+00-1.44307E-03-1.34850E-03 1.06498E-02 1.64402E-03-2.19208E-02
 -1        74-9.39754E+00-1.18193E-03-1.10896E-03 1.03617E-02 2.86380E-04-2.20033E-02
 -1        75-9.17417E+00-8.99929E-05-7.46815E-04 1.12980E-02 1.20420E-03-1.73263E-02
 -1        76-8.92945E+00 3.77704E-05-1.60697E-03 1.44759E-02 1.76087E-03-1.86817E-02
 -1        77-8.66530E+00-2.45768E-03-1.35976E-03 1.48302E-02 2.20441E-03-3.06241E-02
 -1        78-8.38378E+00 1.10459E-04 1.89468E-04 1.41891E-02-1.43217E-03-2.15100E-02
 -1        79-8.08506E+00 1.12504E-03-1.15788E-03 1.55851E-02 4.14676E-04-3.16836E-02
 -1        80-7.76425E+00 1.78039E-03-7.51440E-04 1.81694E-02-2.19619E-03-3.75938E-02
 -1        81-7.42504E+00-2.59399E-03-5.86739E-04 1.75234E-02 6.72473E-04-2.51092E-02
 -1        82-7.07932E+00-2.02854E-04-2.51699E-03 2.00131E-02 1.91355E-03-2.67357E-02
 -1        83-6.71087E+00-3.04964E-03-9.11568E-04 1.89530E-02 2.57320E-03-4.30365E-02
 -1        84-6.33587E+00 1.38462E-03 1.18249E-03 1.87392E-02-1.89877E-03-2.87015E-02
 -1        85-5.93662E+00 1.61211E-03-1.27297E-03 2.12472E-02-2.10873E-03-4.71333E-02
 -1        86-5.53485E+00 9.97307E-04 3.06937E-03 2.36431E-02-2.97708E-03-3.12013E-02
 -1        87-5.10722E+00-2.89892E-03-2.59482E-03 2.15717E-02 8.15720E-04-4.29179E-02
 -1        88-4.69196E+00 1.21078E-03 2.07474E-04 2.20744E-02-5.81966E-04-4.33550E-02
 -1        89-4.23807E+00-2.81400E-03-2.71681E-03 2.26531E-02 6.89535E-04-3.25561E-02
 -1        90-3.80526E+00 1.60797E-03-2.04779E-04 2.15121E-02-1.88901E-04-4.67957E-02
 -1        91-3.34353E+00 1.79703E-03-9.00874E-04 2.45674E-02-6.07439E-04-5.06667E-02
 -1        92-2.87594E+00-2.12825E-03 1.38483E-03 2.40115E-02 1.40799E-04-5.04547E-02
 -1        93-2.40061E+00-2.83292E-03-3.30382E-03 2.29825E-02 5.55573E-04-3.49613E-02
 -1        94-1.93904E+00 4.21148E-03 1.13381E-03 2.44260E-02-2.53029E-03-5.51894E-02
 -1        95-1.44741E+00-3.06947E-03-3.16363E-04 2.49081E-02 1.01235E-03-3.58198E-02
 -1        96-9.72643E-01-8.76194E-04-1.78018E-03 2.19677E-02 1.75228E-03-3.10234E-02
 -1        97-5.46898E-01 3.93874E-03-1.77679E-02 9.43333E-03-3.68151E-03 3.62201E-03
 -1        98-1.03699E+01-3.28084E-01-2.80650E-01-8.05599E-01-1.48007E-01 1.18445E-01
 -1        99-9.96660E+00 1.95698E-02 3.02081E-02-5.19799E-02-7.94806E-04 9.26208E-02
 -1       100-1.02901E+01 2.73333E-03 1.57077E-03 9.72702E-04-1.10692E-02 4.45795E-03
 -1       101-1.03233E+01-5.47424E-04-1.43134E-04 5.54027E-03-2.21948E-03-7.67406E-03
 -1       102-1.02626E+01-1.36063E-03-1.16849E-03 6.63577E-03 1.22162E-03-9.03939E-03
 -1       103-1.01531E+01 1.88827E-03 7.61717E-04 7.23264E-03-6.82592E-04-1.27325E-02
 -1       104-1.00297E+01-2.08378E-03-3.51734E-03 8.36355E-03 4.34783E-04-1.36549E-02
 -1       105-9.87325E+00-1.14304E-03-1.84612E-03 1.02111E-02 1.39842E-03-1.35227E-02
 -1       106-9.69674E+00-8.36797E-04-9.38860E-04 1.08538E-02 4.12189E-04-1.86220E-02
 -1       107-9.50786E+00-2.15958E-03-2.09713E-03 1.24820E-02 1.23348E-03-2.27787E-02
 -1       108-9.29245E+00-1.23478E-03-2.50410E-03 1.37137E-02 2.14617E-03-2.03087E-02
 -1       109-9.05220E+00 4.76326E-04-3.78015E-04 1.46172E-02 2.27550E-03-1.92986E-02
 -1       110-8.79448E+00-6.31291E-04-6.28176E-04 1.54049E-02 1.13965E-04-2.65913E-02
 -1       111-8.53611E+00-5.29889E-03-4.61436E-03 1.63737E-02 1.95429E-03-2.74971E-02
 -1       112-8.23183E+00 8.96899E-04 1.61884E-05 1.82524E-02-2.52373E-03-2.78782E-02
 -1       113-7.92099E+00 2.11050E-03-5.69588E-06 1.99172E-02-6.77486E-04-3.56156E-02
 -1       114-7.60615E+00-3.36946E-03-5.08142E-03 1.94730E-02 5.95731E-04-3.29318E-02
 -1       115-7.25574E+00-1.65858E-03-2.17176E-03 2.18291E-02 2.78030E-03-2.95759E-02
 -1       116-6.88993E+00-2.69197E-04-3.17102E-05 2.08320E-02-5.97188E-04-3.72654E-02
 -1       117-6.53782E+00-4.42433E-03-2.88314E-03 2.18274E-02 2.83814E-03-3.77561E-02
 -1       118-6.12714E+00 3.03182E-03 1.92158E-03 2.37412E-02-4.51609E-03-3.91141E-02
 -1       119-5.74620E+00-1.61251E-03-1.94623E-03 2.44044E-02 1.70064E-03-4.11245E-02
 -1       120-5.32231E+00-1.17027E-03 3.12197E-04 2.57673E-02-2.73775E-03-4.05185E-02
 -1       121-4.90066E+00-5.20089E-04-1.18459E-03 2.72719E-02-2.91573E-04-4.39678E-02
 -1       122-4.47372E+00-5.83119E-03-8.08383E-03 2.39675E-02 6.44171E-05-4.13335E-02
 -1       123-4.01603E+00 1.41727E-03 8.23264E-04 2.66690E-02-1.54121E-03-4.26122E-02
 -1       124-3.56938E+00 2.30999E-03 4.01804E-04 2.73916E-02-3.08353E-04-5.03293E-02
 -1       125-3.10956E+00-3.73106E-06 4.38137E-05 2.94807E-02-2.72134E-04-5.38632E-02
 -1       126-2.65563E+00-1.00424E-02-9.59613E-03 2.75096E-02 9.70058E-04-4.52577E-02
 -1       127-2.15796E+00 3.15641E-03 1.52649E-03 2.87699E-02-3.66664E-03-4.72487E-02
 -1       128-1.70521E+00-3.35456E-03-6.59956E-03 2.63599E-02 1.35009E-03-4.79344E-02
 -1       129-1.21276E+00-7.54991E-04-1.64544E-03 2.57883E-02 3.55145E-03-3.93377E-02
 -1       130-7.45664E-01 2.15236E-03-1.97212E-03 1.83299E-02 1.16409E-03-2.61439E-02
 -1       131-3.42893E-01-8.78092E-03 3.46284E-02 3.00686E-03 1.05438E-02-3.05287E-02
 -1       132 1.06734E+01-3.02699E-01-3.05904E-01-9.88533E-02 1.92867E-02 3.66289E-01
 -1       133 1.15579E+01-3.44318E-02-1.69104E-02-1.13870E-02 3.56108E-04 3.26514E-02
 -1       134 1.17055E+01 1.59297E-03-1.69986E-03-1.15940E-02-3.82621E-03 5.22746E-03
 -1       135 1.16792E+01 1.60403E-03 9.14775E-04-5.62001E-03-4.59515E-05-7.70743E-03
 -1       136 1.15809E+01 5.31560E-04 8.17632E-04-4.16196E-03-3.56961E-04-6.70170E-03
 -1       137 1.14480E+01 1.78552E-04 1.58888E-03-4.94280E-03 4.10016E-04-1.35281E-02
 -1       138 1.12851E+01 7.84264E-04 9.95866E-04-5.90681E-03-1.32404E-05-9.92571E-03
 -1       139 1.11003E+01-4.64101E-04 9.25908E-04-6.38776E-03-8.23731E-04-1.98687E-02
 -1       140 1.08935E+01-2.54102E-04-5.20243E-04-9.38218E-03-1.41956E-03-1.29696E-02
 -1       141 1.06578E+01 1.83754E-03 2.19453E-03-8.23797E-03 2.88312E-04-1.44945E-02
 -1       142 1.04072E+01-8.50432E-04 1.09691E-03-8.14432E-03 2.72667E-04-2.33478E-02
 -1       143 1.01234E+01-6.09762E-04 1.07303E-03-1.01185E-02-1.83359E-03-2.81032E-02
 -1       144 9.82808E+00-5.45742E-04-1.29947E-03-1.33549E-02-1.99330E-03-1.89065E-02
 -1       145 9.50151E+00 1.74761E-03 2.39214E-03-1.05941E-02 1.00677E-03-2.77844E-02
 -1       146 9.16971E+00-6.92420E-04 3.93765E-04-1.19576E-02 1.79350E-04-2.84005E-02
 -1       147 8.80329E+00-4.55328E-04-3.83507E-04-1.42889E-02-1.62077E-03-2.18934E-02
 -1       148 8.42858E+00-4.81155E-04 1.17472E-03-1.26512E-02 2.61533E-06-3.38747E-02
 -1       149 8.03009E+00-1.76907E-03 1.76172E-03-1.35869E-02-1.81273E-04-3.61520E-02
 -1       150 7.60880E+00 2.02364E-03-2.23595E-04-1.43053E-02-3.24990E-04-3.79614E-02
 -1       151 7.18245E+00 6.47129E-04 1.71257E-03-1.60524E-02 1.77496E-03-2.59234E-02
 -1       152 6.73951E+00-1.40189E-03 1.29907E-03-1.56759E-02 7.71600E-04-4.27827E-02
 -1       153 6.27074E+00 2.51791E-03 9.13595E-05-1.58977E-02 5.95459E-04-4.11758E-02
 -1       154 5.79570E+00 2.12310E-03 1.27161E-03-1.64465E-02 3.23387E-04-4.05937E-02
 -1       155 5.31478E+00 1.43126E-05 9.63108E-04-1.70820E-02 2.34055E-03-2.97375E-02
 -1       156 4.81296E+00-2.11095E-03 6.05441E-04-1.84780E-02-3.19176E-03-4.79977E-02
 -1       157 4.30675E+00-1.26375E-03-2.86191E-03-1.99887E-02-2.65644E-03-3.05803E-02
 -1       158 3.79008E+00 2.13493E-03 3.19636E-03-1.92888E-02 2.53869E-03-3.14735E-02
 -1       159 3.26146E+00 1.25492E-03-1.79888E-03-1.80893E-02-4.85925E-04-5.00201E-02
 -1       160 2.72188E+00 3.25158E-03 2.37475E-03-1.90605E-02-1.44875E-04-3.10886E-02
 -1       161 2.19575E+00-1.76775E-03-2.76864E-04-1.68597E-02 3.79349E-04-4.93874E-02
 -1       162 1.64690E+00-1.23001E-03-2.10133E-03-2.00918E-02-2.19379E-03-3.18142E-02
 -1       163 1.10745E+00-2.20501E-03-1.57568E-03-1.73908E-02-1.48287E-03-2.84884E-02
 -1       164 6.15005E-01-1.48517E-03 1.69996E-02-1.17205E-02-5.17431E-03 2.88164E-03
 -1       165 1.17579E+01 3.68754E-01 3.11858E-01 7.98894E-01-1.51793E-01 1.73983E-02
 -1       166 1.13067E+01-1.63137E-02-2.62213E-02 4.05463E-02-8.79318E-03 8.32977E-02
 -1       167 1.16744E+01-2.44452E-03 9.99161E-04-4.97264E-03-9.83122E-03 7.26576E-03
 -1       168 1.17000E+01 3.36554E-04-2.47081E-03-7.98657E-03-1.44518E-03-3.01270E-03
 -1       169 1.16381E+01 2.96695E-03 3.28774E-03-5.58196E-03 3.65896E-07-7.75832E-03
 -1       170 1.15161E+01 5.30761E-04 1.53796E-03-5.70885E-03-9.23461E-05-1.09897E-02
 -1       171 1.13744E+01 3.35532E-03 4.25014E-03-6.40448E-03 6.08284E-04-1.22089E-02
 -1       172 1.11909E+01-4.18661E-04 6.95434E-04-7.86102E-03-9.63932E-04-1.57131E-02
 -1       173 1.10048E+01 1.90807E-03 2.34646E-03-8.52666E-03 1.29215E-03-1.73933E-02
 -1       174 1.07814E+01 3.56824E-03 4.66331E-03-9.41138E-03-2.21371E-03-1.51018E-02
 -1       175 1.05315E+01 2.02181E-05 7.43174E-04-1.05874E-02-4.52173E-04-2.01289E-02
 -1       176 1.02635E+01-1.18514E-03 4.08485E-04-1.13730E-02-4.63110E-04-2.63428E-02
 -1       177 9.98502E+00 1.79001E-03 2.22622E-03-1.28240E-02 1.15918E-03-2.48677E-02
 -1       178 9.66716E+00 1.24915E-03 8.77548E-04-1.37410E-02-1.95718E-03-2.54198E-02
 -1       179 9.33796E+00 5.57931E-04 1.61185E-03-1.49603E-02 6.13007E-04-2.81848E-02
 -1       180 8.99260E+00 2.93334E-03 3.73824E-03-1.38293E-02 5.65076E-04-2.76467E-02
 -1       181 8.61267E+00-1.22639E-03-7.64346E-04-1.68116E-02-3.40783E-03-2.90251E-02
 -1       182 8.22697E+00-1.69082E-03 5.88096E-04-1.69456E-02 1.73630E-04-3.60254E-02
 -1       183 7.82298E+00 6.86347E-04 1.09097E-03-1.67397E-02-2.17910E-04-3.83767E-02
 -1       184 7.40626E+00 3.46115E-03 3.48889E-03-1.98364E-02 3.72392E-03-3.29185E-02
 -1       185 6.95130E+00-4.49053E-03-2.53571E-03-1.89385E-02-1.09366E-03-3.57846E-02
 -1       186 6.50953E+00 1.43182E-03 1.38362E-03-1.94646E-02 1.62091E-03-4.39661E-02
 -1       187 6.04147E+00 3.53197E-03 2.15085E-03-2.02361E-02 8.66707E-04-4.24073E-02
 -1       188 5.56519E+00 2.64233E-03 3.00540E-03-2.14376E-02 4.15457E-03-3.61511E-02
 -1       189 5.04844E+00-7.65705E-03-5.83299E-03-2.02689E-02-2.02161E-03-4.07177E-02
 -1       190 4.57207E+00 1.03787E-03 1.12756E-03-2.10215E-02 1.68168E-03-4.22048E-02
 -1       191 4.05086E+00 8.56838E-04 1.16488E-03-2.26592E-02-3.37733E-04-3.33277E-02
 -1       192 3.51618E+00-2.50057E-03-3.24554E-03-2.12908E-02-2.34625E-03-4.31122E-02
 -1       193 3.00947E+00 1.00853E-02 9.18685E-03-2.16190E-02 6.90845E-04-4.23526E-02
 -1       194 2.45172E+00-1.58629E-03 4.53475E-04-2.27437E-02-3.18259E-03-4.34306E-02
 -1       195 1.93108E+00 4.17156E-03 4.59535E-03-2.09956E-02 2.59467E-03-4.33776E-02
 -1       196 1.37438E+00-1.47995E-03-8.24429E-04-2.04012E-02-3.01851E-03-3.39177E-02
 -1       197 8.43051E-01-4.94124E-03-2.62768E-03-1.54415E-02 1.12866E-03-2.41696E-02
 -1       198 3.90759E-01 7.58861E-03-2.90791E-02-5.21913E-04 8.31353E-03-2.94129E-02
 -1       199-1.06817E+01 2.87293E-01 3.01796E-01-1.05579E-01-2.59399E-02 3.68028E-01
 -1       200-1.15626E+01 3.53897E-02 1.60544E-02-1.28163E-02-3.30355E-04 3.15211E-02
 -1       201-1.17009E+01-2.05140E-03 2.64792E-03-1.24107E-02 3.40077E-03 4.41831E-03
 -1       202-1.16815E+01 9.50718E-04 3.54670E-04-4.94311E-03 1.65424E-03-6.20249E-03
 -1       203-1.15815E+01 4.43632E-05-6.33316E-04-4.68635E-03 9.06843E-04-7.82544E-03
 -1       204-1.14498E+01 6.32377E-04-6.95184E-05-5.81700E-03 2.82129E-04-9.64779E-03
 -1       205-1.12866E+01-5.49825E-04-2.09697E-03-5.57982E-03-5.60346E-04-1.52566E-02
 -1       206-1.11002E+01 5.85709E-04-1.07707E-03-6.82560E-03 1.12889E-03-1.94318E-02
 -1       207-1.08912E+01-1.60402E-03-1.13993E-03-8.50370E-03-1.56007E-04-1.23225E-02
 -1       208-1.06576E+01-1.16841E-03-1.44567E-03-8.35747E-03 1.44759E-04-1.42254E-02
 -1       209-1.04076E+01 9.24427E-04-1.06786E-03-7.93082E-03-2.67545E-04-2.33831E-02
 -1       210-1.01234E+01 6.05641E-04-1.05048E-03-9.85288E-03 1.73913E-03-2.81119E-02
 -1       211-9.82648E+00 1.67473E-04 1.13728E-03-1.25415E-02 1.58443E-03-1.87953E-02
 -1       212-9.51117E+00 2.17151E-03 2.35322E-04-1.25797E-02 1.12583E-03-2.01078E-02
 -1       213-9.16501E+00 2.35834E-04 5.71002E-04-1.43175E-02 2.00948E-03-1.99488E-02
 -1       214-8.80042E+00-2.90736E-03-2.86189E-03-1.23924E-02-3.92237E-04-2.17783E-02
 -1       215-8.43097E+00 8.33821E-04-7.42088E-04-1.19174E-02-7.32650E-05-3.38288E-02
 -1       216-8.03019E+00 1.72512E-03-9.17222E-04-1.37236E-02 9.90011E-04-3.72229E-02
 -1       217-7.60896E+00-1.22771E-03-1.02392E-03-1.55323E-02-3.02265E-04-2.54868E-02
 -1       218-7.18096E+00-1.77964E-03-2.00656E-03-1.43222E-02-2.63785E-03-2.48414E-02
 -1       219-6.74116E+00 2.42306E-03 1.86749E-03-1.70843E-02 2.36896E-04-2.70282E-02
 -1       220-6.27721E+00-5.54345E-04-2.16719E-03-1.55765E-02-2.92189E-04-4.02505E-02
 -1       221-5.80402E+00 1.98140E-03-7.12124E-04-1.66372E-02-1.88683E-05-4.22013E-02
 -1       222-5.31712E+00 8.27182E-04-1.04296E-03-1.65313E-02 1.80462E-04-4.19495E-02
 -1       223-4.81526E+00 2.35432E-03-1.21664E-04-1.86065E-02 3.56433E-03-4.84211E-02
 -1       224-4.30029E+00-3.19670E-03-5.09675E-04-1.92629E-02-6.52462E-04-3.04365E-02
 -1       225-3.79064E+00 3.02996E-04-1.92503E-03-1.99552E-02-2.64977E-03-3.02189E-02
 -1       226-3.25998E+00-4.49214E-03-2.73125E-03-2.06248E-02-8.48619E-04-2.94000E-02
 -1       227-2.73011E+00 1.85696E-03 1.63205E-03-1.77320E-02 3.12917E-03-3.11515E-02
 -1       228-2.19333E+00-1.70165E-03-2.63445E-03-2.02877E-02-3.17878E-03-3.22375E-02
 -1       229-1.64250E+00-3.02558E-03-6.10707E-04-2.02971E-02-1.26503E-03-3.20303E-02
 -1       230-1.10536E+00-1.23831E-04-1.47847E-03-1.75721E-02-1.81921E-03-2.84292E-02
 -1       231-6.17561E-01 2.78996E-04-1.65116E-02-8.23951E-03 3.24779E-03 5.19963E-03
 -1       232-1.17447E+01-3.53130E-01-3.06563E-01 7.87037E-01 1.12704E-01 1.68199E-02
 -1       233-1.13247E+01 1.81487E-02 2.29314E-02 3.02828E-02 2.37444E-02 8.90645E-02
 -1       234-1.16632E+01 3.88774E-03 4.91938E-03-1.07777E-02-7.00443E-03 1.30814E-02
 -1       235-1.16987E+01-4.66757E-04 2.66636E-03-8.16380E-03 9.59643E-04-2.50126E-03
 -1       236-1.16374E+01-1.75378E-03-2.10844E-03-4.94177E-03 1.29925E-03-7.99327E-03
 -1       237-1.15186E+01-8.54430E-04-1.44009E-03-5.52909E-03 5.95807E-04-9.51181E-03
 -1       238-1.13676E+01 1.42904E-03 7.39295E-04-6.62991E-03 3.40013E-04-1.32072E-02
 -1       239-1.11939E+01 4.79058E-04-9.32583E-04-7.93138E-03 9.59205E-05-1.75250E-02
 -1       240-1.10045E+01-2.61174E-03-4.46125E-03-8.36256E-03-2.38435E-04-1.66355E-02
 -1       241-1.07807E+01-3.87558E-03-4.74124E-03-8.82579E-03 1.89826E-05-1.54865E-02
 -1       242-1.05318E+01 3.20117E-04-4.75609E-04-1.05388E-02 5.78002E-04-2.00348E-02
 -1       243-1.02637E+01 1.24802E-03-3.47542E-04-1.11209E-02 4.92355E-04-2.63374E-02
 -1       244-9.98428E+00-1.82102E-03-2.25660E-03-1.23339E-02-1.32698E-03-2.49165E-02
 -1       245-9.67038E+00 2.20021E-04-8.53379E-04-1.40789E-02 1.60642E-03-2.23561E-02
 -1       246-9.33821E+00 1.78697E-03 1.49534E-03-1.21128E-02 9.04450E-04-2.21731E-02
 -1       247-8.98962E+00-5.56572E-03-5.97834E-03-1.40315E-02 3.13171E-03-2.30204E-02
 -1       248-8.61197E+00 4.56503E-04 6.27250E-05-1.56981E-02 1.19576E-03-2.96404E-02
 -1       249-8.22745E+00 1.64522E-03-3.21671E-04-1.62243E-02 2.24838E-04-3.62147E-02
 -1       250-7.83066E+00-4.84612E-03-6.82339E-03-1.71078E-02-1.41004E-03-3.35253E-02
 -1       251-7.39887E+00-8.00940E-04-1.26694E-03-1.63517E-02-1.65198E-03-2.75509E-02
 -1       252-6.95977E+00 4.48883E-04-9.04201E-05-1.63258E-02-1.96608E-03-2.98993E-02
 -1       253-6.49997E+00 6.10236E-03 6.39582E-03-1.90903E-02 5.80363E-04-3.58040E-02
 -1       254-6.03800E+00 2.06996E-03 2.26109E-04-2.04933E-02-3.93104E-04-4.23435E-02
 -1       255-5.55937E+00 1.35463E-03-1.27093E-04-2.11569E-02-5.76607E-04-4.40112E-02
 -1       256-5.05865E+00 3.38075E-03 1.32307E-03-2.16388E-02 1.78746E-03-4.62321E-02
 -1       257-4.57216E+00-3.99525E-03-5.83714E-03-2.05681E-02-1.07773E-03-4.14378E-02
 -1       258-4.04812E+00-1.18597E-03-2.16656E-03-2.28210E-02-3.15208E-03-3.48066E-02
 -1       259-3.52766E+00-2.43701E-03-4.61259E-03-1.75552E-02-9.82278E-04-3.38108E-02
 -1       260-3.00260E+00-4.34353E-03-3.68604E-03-2.07174E-02 7.75834E-04-3.55333E-02
 -1       261-2.46104E+00-6.76544E-04-1.31258E-03-2.21477E-02 2.15944E-04-3.36076E-02
 -1       262-1.91980E+00-3.42357E-03-3.81365E-03-1.88026E-02-1.70603E-03-3.57635E-02
 -1       263-1.37619E+00-1.04215E-03-2.50327E-04-2.14714E-02-2.91332E-03-3.51010E-02
 -1       264-8.45968E-01 3.15768E-03 1.18217E-03-1.28381E-02-3.10470E-03-2.32005E-02
 -1       265-3.86082E-01-4.67518E-03 3.58607E-02 1.14355E-03-1.07039E-02-3.09391E-02
 -1       266 9.42026E+00-2.47582E-01-2.56933E-01 5.54020E-02-2.16420E-02 3.57234E-01
 -1       267 1.01925E+01-3.28440E-02-1.15131E-02 7.68936E-03 6.29167E-04 3.19192E-02
 -1       268 1.03245E+01-5.62035E-03-5.29664E-04 6.51066E-03 1.85191E-03-1.12180E-03
 -1       269 1.02984E+01 1.76144E-03 5.04843E-04 6.46084E-03-1.80818E-04-7.70679E-03
 -1       270 1.02134E+01-2.86104E-04 4.02091E-04 5.75539E-03 6.89488E-04-8.23369E-03
 -1       271 1.00941E+01-4.29853E-04 1.77901E-03 7.15093E-03 5.03328E-04-1.56878E-02
 -1       272 9.95081E+00 9.21044E-04 4.44813E-04 7.56414E-03-1.64307E-04-1.08992E-02
 -1       273 9.78968E+00 4.82927E-05 1.43399E-03 9.70931E-03-8.63050E-04-1.29556E-02
 -1       274 9.60490E+00 1.45191E-03 1.30286E-03 1.06593E-02-1.63552E-03-2.19143E-02
 -1       275 9.39700E+00 1.19360E-03 1.19024E-03 1.02949E-02-3.47578E-04-2.20702E-02
 -1       276 9.17403E+00 7.25231E-04 1.34244E-03 1.12208E-02-1.53293E-03-1.66994E-02
 -1       277 8.93296E+00-2.81478E-03-9.60863E-04 1.40771E-02 4.64339E-04-1.81669E-02
 -1       278 8.66324E+00 2.97433E-03 1.86215E-03 1.48988E-02-2.52713E-03-3.06963E-02
 -1       279 8.38407E+00-3.21833E-04-4.95826E-04 1.41515E-02 1.58338E-03-2.08244E-02
 -1       280 8.08488E+00-9.86380E-04 5.32644E-04 1.56931E-02-5.29656E-04-3.12227E-02
 -1       281 7.76161E+00-9.01808E-04 1.40224E-03 1.80082E-02 1.98298E-03-3.74107E-02
 -1       282 7.43045E+00-1.17415E-03-2.75164E-03 1.80096E-02 2.30201E-03-2.51395E-02
 -1       283 7.08011E+00 3.20930E-04 3.35517E-03 1.73511E-02-2.59729E-03-2.55092E-02
 -1       284 6.70868E+00 4.11304E-03 1.91091E-03 1.86192E-02-1.87751E-03-2.68596E-02
 -1       285 6.34015E+00-2.96465E-03-2.56022E-03 1.82270E-02 5.96986E-04-2.78174E-02
 -1       286 5.94098E+00-1.33167E-03 2.92683E-03 2.08762E-02 4.90673E-04-4.41145E-02
 -1       287 5.52943E+00 2.73852E-03 2.23652E-03 2.21027E-02-9.06931E-04-3.03116E-02
 -1       288 5.11004E+00 1.18629E-03 7.17027E-04 2.12008E-02-3.23594E-04-4.18810E-02
 -1       289 4.69317E+00-1.73530E-03-6.16151E-04 2.25846E-02 1.33972E-04-4.26638E-02
 -1       290 4.23826E+00 2.82448E-03 2.83381E-03 2.28286E-02-7.38508E-04-3.27324E-02
 -1       291 3.80517E+00-1.65418E-03 1.79917E-04 2.15320E-02 1.80054E-04-4.68561E-02
 -1       292 3.34344E+00-1.93262E-03 9.12158E-04 2.43436E-02 6.09417E-04-5.04546E-02
 -1       293 2.87571E+00 2.45414E-03-1.36445E-03 2.49691E-02 3.77291E-05-5.00034E-02
 -1       294 2.39862E+00 2.98190E-03 2.99041E-03 2.33924E-02 3.83974E-05-3.53894E-02
 -1       295 1.94101E+00-3.61274E-03 1.04502E-03 2.30837E-02-3.48565E-04-5.11104E-02
 -1       296 1.45358E+00 3.55533E-04 1.00399E-03 2.49739E-02-3.70440E-04-4.88849E-02
 -1       297 9.72592E-01-1.36093E-03 1.28812E-03 2.29397E-02 1.14321E-04-4.02986E-02
 -1       298 5.44402E-01-2.05850E-03 1.86844E-02 8.53482E-03 3.30059E-03 2.64324E-03
 -1       299 1.03596E+01 3.20663E-01 2.48192E-01-7.96275E-01 1.14181E-01 1.32051E-01
 -1       300 9.98064E+00-1.13041E-02-2.10411E-02-4.14176E-02 1.90222E-02 9.66681E-02
 -1       301 1.02797E+01-4.28936E-03-4.71074E-03 8.46350E-03-4.30063E-03 1.60444E-02
 -1       302 1.03222E+01 2.17173E-03 9.61362E-04 6.85357E-03-2.03751E-03-5.73953E-03
 -1       303 1.02626E+01 2.40569E-03 2.08504E-03 6.61530E-03-7.15790E-04-8.93344E-03
 -1       304 1.01542E+01-2.47125E-04 9.88077E-04 7.67150E-03 1.63726E-03-1.24142E-02
 -1       305 1.00297E+01 1.92008E-03 3.40823E-03 8.27391E-03-3.94988E-04-1.36753E-02
 -1       306 9.87337E+00 1.13719E-03 1.82275E-03 1.02349E-02-1.40459E-03-1.34423E-02
 -1       307 9.69665E+00 8.60134E-04 9.30318E-04 1.08833E-02-4.00907E-04-1.86079E-02
 -1       308 9.50761E+00 2.18506E-03 2.11094E-03 1.24988E-02-1.22575E-03-2.28146E-02
 -1       309 9.29207E+00 1.59888E-03 2.89251E-03 1.37089E-02-2.25602E-03-1.99622E-02
 -1       310 9.05174E+00-1.65966E-03-6.02189E-04 1.35892E-02-8.99892E-04-2.02129E-02
 -1       311 8.79458E+00-9.19930E-04-1.90664E-03 1.47218E-02 1.55842E-04-2.65613E-02
 -1       312 8.53521E+00 5.06082E-03 4.28149E-03 1.65692E-02-1.92730E-03-2.69267E-02
 -1       313 8.23204E+00-8.70115E-04-6.62741E-05 1.84123E-02 2.53987E-03-2.73802E-02
 -1       314 7.91957E+00-1.99976E-03-4.16239E-05 1.95786E-02 6.63564E-04-3.55021E-02
 -1       315 7.60523E+00 6.14390E-04 1.12293E-03 1.97194E-02-1.45162E-03-3.34134E-02
 -1       316 7.25723E+00 9.93818E-05 1.56046E-03 2.17955E-02 3.88794E-04-2.76873E-02
 -1       317 6.89727E+00 3.42264E-03 4.54790E-03 1.60668E-02-1.67607E-03-2.79156E-02
 -1       318 6.52671E+00 3.53936E-04-1.08370E-04 2.04415E-02-4.93567E-04-3.20677E-02
 -1       319 6.12849E+00-7.31727E-03-7.33745E-03 2.22663E-02 4.62711E-04-3.82072E-02
 -1       320 5.74673E+00 5.52898E-03 7.17287E-03 2.42033E-02-1.39007E-03-3.99093E-02
 -1       321 5.32113E+00 1.80327E-03 5.02007E-04 2.36260E-02 4.28042E-04-4.03036E-02
 -1       322 4.90205E+00 3.26078E-04 7.36248E-04 2.69701E-02-5.16814E-04-4.36008E-02
 -1       323 4.47356E+00 5.43696E-03 7.84433E-03 2.40209E-02 1.84235E-04-4.13604E-02
 -1       324 4.01610E+00-1.40845E-03-8.40685E-04 2.67689E-02 1.54939E-03-4.26894E-02
 -1       325 3.56919E+00-2.35988E-03-4.18583E-04 2.73294E-02 3.39928E-04-5.02729E-02
 -1       326 3.11010E+00 2.34948E-04 3.08719E-04 2.95238E-02-5.26435E-06-5.36027E-02
 -1       327 2.65456E+00 1.06016E-02 1.00672E-02 2.79670E-02-1.55900E-04-4.55481E-02
 -1       328 2.16070E+00-2.41943E-03-5.62675E-04 2.82734E-02 2.28786E-03-4.58293E-02
 -1       329 1.69802E+00-8.92227E-05 1.49217E-03 2.88960E-02-7.46738E-04-5.33044E-02
 -1       330 1.21448E+00 3.46086E-04 2.76586E-03 2.85996E-02-1.54928E-03-4.79844E-02
 -1       331 7.48013E-01 2.57060E-04 3.36444E-03 1.90938E-02-1.54988E-03-3.08898E-02
 -1       332 3.42951E-01 7.92440E-03-3.54295E-02 2.47012E-03-1.17059E-02-3.14014E-02
 -1       333 2.16894E+00 8.39303E-01 7.24543E-01-3.09574E-01-1.30280E-02 6.37926E-01
 -1       334 2.84144E+00 1.07190E+00 9.80609E-01 3.47638E-01 2.76677E-02 6.25121E-01
 -1       335-6.15415E+00-2.64859E+00-2.44966E+00 3.42743E-01-2.44445E-02-2.81681E-01
 -1       336-2.11827E+00-8.97635E-01-9.04568E-01-4.03264E-01-1.37030E-03 6.25680E-01
 -1       337 3.39277E-02 1.69000E-02 3.59307E-02-2.12582E-02-4.52337E-02 4.88660E-01
 -1       338 5.47012E+00 2.26832E+00 2.17697E+00 2.19990E-01-2.45499E-02-1.45716E-01
 -1       339-3.13050E+00-1.25185E+00-1.33365E+00 4.89906E-01 3.69601E-02 5.57404E-01
 -1       340-5.35599E+00-2.23153E+00-2.11776E+00-3.06868E-01-2.71569E-02-1.40175E-01
 -1       341 6.22218E+00 2.66477E+00 2.44629E+00-4.22904E-01-2.35258E-02-3.24574E-01
 -1       342 2.45281E+00 1.01685E+00 9.91202E-01-9.57070E-02 2.67979E-03 3.19879E-01
 -1       343 6.85251E+00 2.61876E+00 2.46188E+00 1.04373E+00-2.88197E-02-1.82772E-01
 -1       344-6.67735E+00-2.73993E+00-2.72837E+00 1.03307E+00-7.10300E-02-1.03880E-01
 -1       345-6.04932E+00-2.33406E+00-2.16163E+00-1.03099E+00-2.60581E-02-6.18591E-02
 -1       346 6.04154E+00 2.33414E+00 2.27996E+00-1.05558E+00-2.69240E-03 2.91048E-02
 -1       347-2.14899E+00-8.50008E-01-7.79512E-01 5.21001E-02 5.00785E-02 3.79985E-01
 -1       348 1.03074E+01 4.02929E+00 3.88474E+00 2.03494E+00-2.47954E-01-7.95983E-01
 -1       349 7.41419E+00 3.04761E+00 2.98828E+00 1.64944E+00 9.80130E-02 6.30628E-01
 -1       350 9.51099E+00 3.98347E+00 4.01645E+00 1.03685E+00 4.40549E-02-1.55355E+00
 -1       351-6.27403E+00-2.57806E+00-2.52184E+00-1.48338E+00 8.26284E-02 7.50507E-01
 -1       352-9.08285E+00-3.56962E+00-3.40745E+00-1.95026E+00-2.17610E-01-5.51028E-01
 -1       353-8.65896E+00-3.64083E+00-3.66645E+00-1.12405E+00 3.27026E-02-1.36170E+00
 -1       354 9.06998E+00 3.56583E+00 3.44731E+00-1.95190E+00 2.04928E-01-4.79848E-01
 -1       355 8.44251E+00 3.61823E+00 3.61824E+00-1.17296E+00-2.87913E-07-1.11854E+00
 -1       356 6.27829E+00 2.56012E+00 2.52023E+00-1.48333E+00-1.00033E-01 7.81167E-01
 -1       357-1.01954E+01-4.01021E+00-3.89721E+00 2.01039E+00 2.23871E-01-7.38643E-01
 -1       358-7.15665E+00-3.06715E+00-3.06715E+00 1.67846E+00-2.92880E-07 4.95170E-01
 -1       359-9.27309E+00-3.97419E+00-3.97420E+00 1.09604E+00-3.70219E-07-1.34322E+00
 -1       360-7.98455E-01-3.42198E-01-3.42198E-01-2.65621E-01-1.89106E-07 1.14622E+00
 -1       361-3.94783E+00-1.69193E+00-1.69193E+00-9.45324E-01-2.87081E-07 9.72084E-01
 -1       362-4.45020E+00-1.73894E+00-1.84918E+00-7.02562E-01-2.83115E-02 4.50121E-01
 -1       363 4.86758E+00 2.08611E+00 2.08611E+00 1.05491E+00-3.32585E-07 9.12334E-01
 -1       364 1.81756E+00 6.89538E-01 7.11676E-01 2.64498E-01 5.72087E-02 1.20670E+00
 -1       365 7.09543E-01 1.85546E-01 2.68533E-01-8.74792E-02 1.81634E-03 7.57302E-01
 -1       366 5.09959E+00 2.00594E+00 2.12696E+00 6.98323E-01-2.17058E-02 3.95492E-01
 -1       367 8.64638E+00 3.67327E+00 3.66775E+00 7.32120E-02 2.73100E-02-1.42206E+00
 -1       368 8.53940E+00 3.65975E+00 3.65976E+00 6.01824E-01 8.66394E-08-1.31880E+00
 -1       369 6.28453E+00 2.62568E+00 2.41252E+00 5.46952E-01 5.84105E-03-1.64146E-01
 -1       370 8.87717E+00 3.81776E+00 3.80999E+00-8.33605E-01-3.79638E-03-1.38226E+00
 -1       371 9.02497E+00 3.86786E+00 3.86786E+00-3.33121E-01 1.19263E-08-1.42827E+00
 -1       372 5.84281E+00 2.41967E+00 2.27670E+00-1.21283E-01 4.61922E-02-2.83284E-01
 -1       373 6.22315E+00 2.59343E+00 2.42161E+00-6.79735E-01-2.39250E-02-1.49760E-01
 -1       374-5.38852E+00-2.33468E+00-2.23646E+00 1.31007E+00-1.50522E-02 8.68082E-01
 -1       375-2.18517E+00-9.36506E-01-9.36504E-01 5.07338E-01 3.73019E-07 1.15391E+00
 -1       376-4.95834E+00-2.01245E+00-2.09340E+00 7.55278E-01-9.90310E-03 3.24051E-01
 -1       377 7.32621E-01 2.35027E-01 2.39944E-01-9.05894E-02-5.21138E-02 1.20439E+00
 -1       378 3.78174E+00 1.62075E+00 1.62075E+00-8.80999E-01 3.24709E-07 9.74109E-01
 -1       379-2.22720E-01-1.42128E-01-1.08639E-01 1.26841E-01 6.40923E-04 7.49786E-01
 -1       380 4.32544E+00 1.71077E+00 1.80215E+00-6.67108E-01 2.60426E-02 4.53111E-01
 -1       381-8.11693E+00-3.47869E+00-3.47870E+00-7.26403E-01 9.79401E-08-1.23000E+00
 -1       382-8.59548E+00-3.65824E+00-3.65075E+00-2.30113E-01 2.32841E-02-1.42207E+00
 -1       383-5.78644E+00-2.41384E+00-2.20775E+00-6.09671E-01 1.23275E-02-1.02460E-01
 -1       384-8.94737E+00-3.83460E+00-3.83461E+00 1.81819E-01 1.47417E-07-1.40283E+00
 -1       385-9.20841E+00-3.94717E+00-3.96040E+00 7.13742E-01-8.80058E-03-1.48283E+00
 -1       386-5.74293E+00-2.39226E+00-2.25620E+00 3.27172E-02 3.49857E-02-2.57742E-01
 -1       387-6.57829E+00-2.75362E+00-2.58004E+00 6.14086E-01-2.12366E-02-2.01460E-01
 -1       388-2.60362E+00-1.11584E+00-1.11584E+00 2.25492E-01 4.13795E-07 5.19312E-01
 -1       389 4.62338E-02 8.03194E-02 2.86705E-02 6.84635E-03-1.40740E-02 6.02925E-01
 -1       390 4.37580E+00 1.87535E+00 1.87535E+00-3.87655E-01 3.15912E-07 2.85716E-01
 -1       391 2.16871E+00 9.29451E-01 9.29452E-01-2.19423E-01 1.02623E-07 5.19761E-01
 -1       392 4.50828E+00 1.93213E+00 1.93213E+00-2.78568E-01 3.04148E-07 1.65082E-01
 -1       393-2.05457E-03 4.16401E-02 3.34152E-02-9.11717E-02 5.78628E-02 4.73822E-01
 -1       394 1.52574E+00 6.85580E-01 5.82354E-01 7.03335E-02 1.44269E-02 6.12683E-01
 -1       395-8.67919E-01-3.71969E-01-3.71970E-01-2.01334E-01-3.74781E-07 6.06523E-01
 -1       396 4.38857E+00 1.88082E+00 1.88082E+00 2.97978E-01-2.62012E-07 3.42036E-01
 -1       397 2.74863E+00 1.17799E+00 1.17799E+00 1.12881E-01-4.52877E-08 3.45125E-01
 -1       398-5.02867E+00-2.15515E+00-2.15515E+00 3.86673E-01 3.77575E-07 2.67765E-01
 -1       399-4.26768E+00-1.82901E+00-1.82901E+00 1.95799E-01 3.14316E-07 2.05103E-01
 -1       400-3.84166E+00-1.60389E+00-1.62414E+00-1.01543E-01-1.88508E-02 1.94953E-01
 -1       401-2.73067E+00-1.17029E+00-1.17029E+00-1.72887E-01-1.46463E-07 3.36997E-01
 -1       402-4.04008E+00-1.73147E+00-1.73147E+00-3.59977E-01-2.73803E-07 3.53084E-01
 -1       403 4.10162E+00 1.68991E+00 1.72097E+00 3.38236E-02-3.12456E-02 1.77908E-01
 -1       404 1.24730E+00 5.58929E-01 5.60839E-01-1.83249E-03-1.38516E-02 3.91775E-01
 -1       405-1.05938E+00-4.73618E-01-4.53867E-01-2.35870E-02-1.52133E-02 3.96962E-01
 -1       406-8.97913E-02-1.19820E-01-3.52999E-01 2.15570E-02 6.20406E-03-3.49162E-01
 -1       407 8.73478E-02 1.41296E-01 3.50931E-01 2.12259E-02 1.16607E-02-3.38016E-01
 -1       408-2.61743E-02-5.88306E-02-2.44041E-01 1.77914E-02-5.45837E-02-3.45326E-01
 -1       409 7.13645E-02 1.19118E-01 3.94979E-01 2.01374E-02-7.15305E-03-3.45253E-01
 -1       410 1.36415E-02 3.82142E-02 1.48081E-01 2.56724E-02-1.56640E-04-3.73122E-01
 -1       411 7.82321E-03 4.39919E-02 1.50250E-01 2.33914E-02 5.13491E-02-3.39721E-01
 -1       412-1.00078E-01-1.48244E-01-3.85218E-01 2.42596E-02-1.12403E-02-3.44335E-01
 -1       413-3.85321E-03-1.29380E-03 1.34982E-01 2.02590E-02-4.93462E-02-3.42332E-01
 -1       414-1.42520E-02-6.58121E-03-2.16418E-01 2.53185E-02 5.69387E-02-3.48341E-01
 -1       415 1.16509E-03-9.57734E-03-7.21589E-02 2.55490E-02 1.91217E-02-3.69278E-01
 -1       416-7.77598E-02-1.06287E-01-4.03811E-01 1.79667E-02-9.30888E-03-3.25935E-01
 -1       417 8.73872E-02 9.79494E-02 3.52108E-01 1.38883E-02 1.28352E-02-3.16190E-01
 -1       418 7.63679E-02 5.75399E-02 3.44712E-01 2.54901E-02-1.14992E-02-3.16208E-01
 -1       419-9.19099E-02-5.81450E-02-3.63450E-01 2.26087E-02 7.45230E-03-3.28667E-01
 -1       420-5.45014E-03-4.26095E-02-1.33212E-01 2.07108E-02-1.69722E-02-3.71817E-01
 -1       421-4.63041E-02-7.31946E-02-4.34664E-01 1.71826E-02-1.91883E-02-3.34926E-01
 -1       422-1.72637E-02-6.22887E-02-3.28932E-01 4.57212E-03 8.32382E-03-2.35629E-01
 -1       423-1.75129E-02-1.10598E-01-3.50155E-01 1.58176E-02 4.65098E-03-2.60152E-01
 -1       424 2.66032E-02 2.83737E-02 3.04367E-01 2.58993E-02 1.03237E-02-2.35776E-01
 -1       425 2.29388E-02 1.64470E-02 3.50689E-01 2.73088E-02-3.01726E-02-3.13791E-01
 -1       426 3.64722E-02 5.97610E-02 3.29619E-01 2.61965E-02 1.12056E-03-2.54783E-01
 -1       427-2.88569E-02-5.81160E-02-3.21573E-01 2.45844E-02-1.50226E-03-2.56024E-01
 -1       428-1.71203E-02-1.72332E-02-2.98925E-01 2.40905E-02-7.15464E-03-2.37650E-01
 -1       429-4.49144E-02-2.96038E-02-4.26643E-01 1.90240E-02 2.50190E-02-3.39322E-01
 -1       430 2.70795E-02 5.74998E-02 3.61693E-01 4.92023E-03 3.09151E-02-3.13481E-01
 -1       431 2.90315E-02 6.61257E-02 3.09267E-01 4.08755E-03-1.13086E-02-2.34044E-01
 -1       432 3.44397E-02 1.01364E-01 3.28946E-01 1.47761E-02 1.99490E-03-2.54819E-01
 -1       433 8.74435E-03 7.10604E-03 2.82290E-01 2.20042E-02-4.64528E-02-3.10770E-01
 -1       434 8.63798E-03-2.02826E-02 6.84751E-02 1.23410E-02-6.14302E-02-3.22652E-01
 -1       435 1.83869E-02 4.03981E-02 3.15653E-01 2.29683E-02-2.99925E-02-3.25854E-01
 -1       436-1.56649E-02-3.55281E-02-1.25915E-01 1.61212E-02-5.96662E-02-3.23784E-01
 -1       437-3.07117E-05-3.79001E-02-2.80733E-01 5.82964E-03-4.61330E-02-3.22578E-01
 -1       438-2.74611E-02-2.37295E-02-4.58748E-02 2.01332E-02-5.49918E-02-3.38896E-01
 -1       439-3.85938E-02-8.42883E-02-3.41870E-01 1.60979E-02-3.61132E-02-3.33118E-01
 -1       440-4.66310E-02-1.33217E-01-3.33810E-01 1.99137E-02-4.57729E-03-2.56472E-01
 -1       441-1.74198E-02-1.39127E-01-3.16694E-01 2.61397E-02-2.32754E-03-2.62374E-01
 -1       442-9.50443E-02-1.41658E-01-3.91262E-01 1.74460E-02-1.71113E-02-3.28712E-01
 -1       443-4.50494E-02-1.29993E-01-3.35283E-01 1.88521E-02-1.33686E-03-2.68130E-01
 -1       444-3.08910E-02-1.04411E-01-3.35591E-01 1.98578E-02-3.60762E-03-2.76970E-01
 -1       445-8.91866E-02-1.42348E-01-3.57065E-01 2.33491E-02 8.12109E-04-3.43637E-01
 -1       446-9.57344E-02-9.79833E-02-3.65785E-01 1.96817E-02 9.87139E-05-3.37201E-01
 -1       447 1.43313E-02 2.19325E-02 8.50569E-02 2.12360E-02 6.10917E-02-3.22665E-01
 -1       448 1.23829E-02 5.10333E-02 2.98520E-01 1.25094E-02 4.66154E-02-3.10090E-01
 -1       449 3.15393E-02 8.62873E-02 3.30396E-01 1.86756E-02 3.08261E-02-3.26133E-01
 -1       450 7.87073E-03 7.34619E-03-2.56024E-01 2.65475E-02 4.77923E-02-3.25151E-01
 -1       451-1.50366E-02 4.36386E-03-1.03893E-01 1.73338E-02 6.03201E-02-3.25632E-01
 -1       452-1.50277E-02 2.20490E-02-2.39472E-02 2.30802E-02 5.57596E-02-3.37271E-01
 -1       453-3.96388E-02-4.20200E-02-3.37996E-01 2.75155E-02 3.73067E-02-3.44509E-01
 -1       454 1.90957E-02 1.31476E-01 3.42104E-01 1.57040E-02 3.96003E-03-2.63512E-01
 -1       455 2.64715E-02 1.05181E-01 3.52167E-01 2.17976E-02-1.13020E-03-2.67867E-01
 -1       456 7.74201E-02 8.90336E-02 3.72470E-01 1.65876E-02-4.36716E-03-3.33279E-01
 -1       457 3.00117E-02 1.39212E-01 3.35696E-01 1.80819E-02 2.63299E-03-2.68411E-01
 -1       458 4.53148E-02 1.39655E-01 3.32582E-01 1.99543E-02 6.39842E-03-2.57645E-01
 -1       459 6.92115E-02 1.33792E-01 3.58010E-01 2.52517E-02-1.03146E-03-3.36417E-01
 -1       460 9.52988E-02 1.32474E-01 3.70721E-01 1.86231E-02 9.94220E-03-3.32589E-01
 -1       461-3.96687E-02-1.05865E-01-3.09935E-01 1.85914E-02-2.12737E-02-3.54122E-01
 -1       462-4.44762E-02-8.95936E-02-2.79242E-01 2.11766E-02-7.76950E-04-3.60315E-01
 -1       463-3.59190E-02-6.77778E-02-2.46565E-01 2.83167E-02 2.16935E-02-3.57928E-01
 -1       464-1.33836E-02-1.11313E-02-1.42075E-01 2.79397E-02 4.20936E-02-3.63466E-01
 -1       465-4.05625E-02-5.77486E-02-3.21593E-01 1.92532E-02 2.48073E-02-3.56621E-01
 -1       466-1.34796E-02-2.95550E-02-1.34032E-01 2.26168E-02 3.17834E-03-3.82025E-01
 -1       467 4.31359E-02 9.72746E-02 2.80686E-01 2.25947E-02 1.06047E-02-3.57430E-01
 -1       468 3.15372E-02 8.24251E-02 2.77860E-01 2.71637E-02-1.19430E-02-3.48168E-01
 -1       469 3.74727E-02 1.03377E-01 3.12365E-01 2.69417E-02 3.20063E-02-3.46531E-01
 -1       470 2.74119E-02 6.13176E-02 1.74159E-01 2.66039E-02 3.21611E-02-3.68741E-01
 -1       471-4.13327E-02-1.02971E-01-3.51630E-01 2.39581E-02-2.94357E-02-3.49745E-01
 -1       472-2.53915E-02-6.61480E-02-1.96903E-01 1.49298E-02-4.08581E-02-3.64779E-01
 -1       473-6.29408E-03-2.23341E-02-7.94790E-03 2.25651E-02-4.09573E-02-3.55858E-01
 -1       474 1.83641E-02 3.39158E-02 1.53640E-01 1.94808E-02-2.87793E-02-3.68280E-01
 -1       475 3.21054E-02 6.07351E-02 3.04605E-01 1.49728E-02-2.56904E-02-3.43645E-01
 -1       476-8.74338E-04 1.56689E-02 1.86955E-02 2.21664E-02 4.16557E-02-3.53877E-01
 -1       477 4.52770E-03 1.41771E-02 3.62244E-02 2.17477E-02 9.81080E-03-3.70215E-01
 -1       478 5.76506E-03-1.70049E-03 1.15542E-02 2.96721E-02-7.84215E-03-3.71339E-01
 -1       479-2.23226E+00 2.94495E-04-2.54313E-03-4.11157E-03 3.20665E-04-3.63271E-01
 -1       480-1.41882E+00 2.27997E-03-1.66185E-03 1.48493E-03-8.26411E-04-3.80414E-01
 -1       481 7.19575E-01 4.88176E-04-1.34272E-04 4.96209E-03-8.64574E-04-3.96765E-01
 -1       482-2.97295E+00 5.20418E-03-3.62998E-03 3.34665E-04-2.20470E-03-3.22392E-01
 -1       483 3.38350E+00-9.05640E-04 2.79211E-03 6.82511E-04 6.80887E-04-3.31428E-01
 -1       484 2.37415E+00-4.97013E-03 2.02011E-03 1.96488E-03-1.86388E-03-3.63456E-01
 -1       485 1.27315E+00 4.33061E-03-5.40140E-04 2.48110E-03 3.22683E-03-3.97920E-01
 -1       486 4.27755E+00 6.58967E-04 3.88304E-04 1.25268E-03 3.30680E-04-2.89071E-01
 -1       487-4.65313E+00-5.59325E-04-4.15340E-03 1.25835E-04 5.81444E-04-9.80240E-02
 -1       488-4.50105E+00 4.78757E-04-5.74605E-03-8.90247E-04 5.36418E-04-1.40084E-01
 -1       489 6.07423E+00-2.20215E-03 2.31638E-03-4.27202E-03 2.95085E-03-4.56788E-02
 -1       490-4.13084E+00-7.53611E-04-5.14236E-03-9.68573E-04 2.34432E-04-2.06098E-01
 -1       491-3.75451E+00-2.38835E-03-1.34212E-03-3.38211E-03 7.22093E-04-2.51850E-01
 -1       492-4.32977E+00 1.20549E-03-5.11861E-03 4.29802E-04-9.71097E-05-1.70985E-01
 -1       493 5.82731E+00-7.09100E-02-1.20486E-01-9.52131E-02 6.65270E-02 2.25971E-01
 -1       494-4.61051E+00 8.31805E-03 2.88291E-02 3.59782E-02 1.32780E-02 3.54296E-02
 -1       495-2.90643E-01-5.35034E-03-2.18970E-02-2.86796E-04-7.44130E-04-3.99868E-01
 -1       496-3.46939E+00 3.73490E-03-2.62663E-03 3.00254E-04-1.53337E-03-2.72033E-01
 -1       497-7.83794E-01 6.27382E-03 2.12236E-03 2.78119E-03-3.41282E-03-3.90611E-01
 -1       498 5.91376E+00-8.96236E-04 5.71233E-03 8.04657E-04-1.79916E-04-1.17138E-01
 -1       499 5.18938E+00-3.04613E-03 3.61125E-03 9.70581E-04-2.13449E-03-2.14558E-01
 -1       500 4.73942E+00-1.78389E-03 3.93464E-03 7.67264E-04 3.72462E-04-2.59417E-01
 -1       501 5.71921E+00-2.28033E-03 4.13900E-03 4.50307E-04-1.34302E-03-1.49959E-01
 -1       502 5.47337E+00 1.63093E-03 4.02848E-03 1.91376E-03 1.20376E-03-1.88991E-01
 -1       503-1.95302E+00 1.59225E-01 1.42169E-01-7.03527E-03 8.92211E-02 5.14707E-01
 -1       504 7.33109E-02 4.98690E-03 4.33215E-04-3.03733E-03-3.28734E-04-5.09971E-01
 -1       505 2.89922E+00-3.41856E-03 6.59041E-03 5.25200E-03-3.95788E-04-3.58014E-01
 -1       506 1.83345E+00 2.70185E-03 1.45888E-03 1.57639E-03 9.73824E-04-3.80429E-01
 -1       507 3.85801E+00-3.82947E-03 6.32066E-03 4.80456E-03-1.50813E-03-3.16381E-01
 -1       508-2.61716E+00 7.25113E-03 1.27816E-03 3.51840E-03-2.97691E-03-3.32363E-01
 -1       509-1.82659E+00-4.05322E-03-1.70077E-03-3.40843E-03 1.75221E-03-3.80834E-01
 -1       510 6.03807E+00-5.82271E-03-2.43019E-02-2.95397E-02 1.36281E-02 3.80404E-02
 -1       511-4.69726E+00 2.74727E-03 1.31386E-03 8.51742E-03 4.94900E-03-4.30326E-02
 -1       512-4.71512E+00 1.63302E-03-4.71440E-03 4.01980E-04-6.50888E-05-8.14939E-02
 -1       513 7.02329E-01-4.58703E-04 9.29518E-04 6.84511E-04 8.38781E-04-1.12149E-01
 -1       514-5.61667E-01 2.83969E-04-8.40941E-03-2.27165E-03-1.00248E-03-4.06643E-01
 -1       515-2.04412E+00 6.55204E-04-2.39851E-03-3.20225E-04-1.12254E-03-3.63290E-01
 -1       516 2.63368E+00 5.24254E-03 3.10123E-04 1.80001E-03 7.44379E-04-3.63704E-01
 -1       517 4.50157E+00 1.81004E-03 2.27997E-03 4.48804E-03 1.00233E-03-2.76783E-01
 -1       518-3.31543E+00 4.26105E-04-5.03459E-03-2.13101E-03 6.38477E-04-2.99465E-01
 -1       519 3.61927E+00 4.13962E-03 6.61236E-03-1.57627E-03 1.41437E-03-3.22223E-01
 -1       520-2.78744E+00-2.44716E-03 2.27536E-04-1.03929E-03 2.34664E-03-3.25904E-01
 -1       521-4.41659E+00-2.23474E-03-5.19462E-03 1.72480E-03 2.36867E-03-1.50618E-01
 -1       522-4.00612E+00-3.37954E-03-4.89441E-03 2.31383E-03 3.16767E-03-2.15362E-01
 -1       523-3.91604E+00 4.75872E-03-4.70906E-03 6.03341E-05-4.55206E-04-2.36151E-01
 -1       524 6.11767E-01-5.74437E-04-5.05053E-04 1.23014E-03-7.10676E-05-3.06914E-01
 -1       525 5.33711E+00 7.41630E-04 3.50102E-03 4.57318E-04 8.15495E-04-2.01563E-01
 -1       526 2.10077E+00-1.07722E-03 3.56422E-03 6.66910E-03 2.48274E-04-3.79762E-01
 -1       527-1.62273E+00-1.75758E-03 1.41399E-03 5.67443E-05-8.47754E-05-3.80318E-01
 -1       528-3.65070E+00-1.11433E-03-1.89323E-03 7.41361E-04 7.64227E-04-2.62810E-01
 -1       529 1.00195E+00-2.91654E-03-1.48380E-03 1.93795E-03 7.63358E-04-3.92930E-01
 -1       530-9.84415E-01-6.47724E-03 3.43971E-04-1.14818E-04 2.99523E-03-4.01404E-01
 -1       531 5.60216E+00-1.84105E-04 4.42387E-03 2.04808E-03-2.19290E-04-1.69368E-01
 -1       532 5.81882E+00 1.38747E-03 4.02631E-03 9.21860E-04 1.39794E-03-1.36682E-01
 -1       533-1.21550E+00 3.19258E-03-3.55982E-03-1.48961E-03-2.08390E-03-3.90867E-01
 -1       534-4.58920E+00 2.28400E-03-3.49621E-03 2.31562E-04-5.45551E-04-1.15998E-01
 -1       535 1.56412E+00-2.37847E-03-1.99523E-03-2.17077E-04-2.50463E-03-3.82008E-01
 -1       536-3.13790E+00-5.53080E-03-6.37761E-03 3.32987E-03 3.33329E-03-2.99850E-01
 -1       537-4.23739E+00 2.58830E-03-6.21069E-03-2.96640E-03-7.15763E-05-1.90381E-01
 -1       538 4.06486E+00 8.00782E-04 4.32570E-03 5.67856E-04-2.01529E-04-2.98712E-01
 -1       539-2.41296E+00-1.34361E-04-2.48113E-03-9.16670E-04 2.42322E-04-3.48781E-01
 -1       540 3.13898E+00-1.23130E-03 4.04190E-03 1.60887E-03-4.09692E-04-3.44948E-01
 -1       541 6.66755E-01-6.95854E-04 5.60804E-03-6.69170E-04 8.23867E-02 9.91725E-02
 -1       542 6.98990E-01-1.45102E-04 1.14842E-03-4.77498E-04 1.52574E-02-3.44152E-02
 -1       543 6.08000E+00 9.08987E-04 4.89871E-03 3.59617E-04 1.10817E-03-9.95938E-02
 -1       544 3.47036E+00-5.03956E-01-1.69245E-01-8.43887E-02 8.74893E-02 4.65992E-01
 -1       545 5.11371E+00 2.74931E-04 3.57052E-03 1.85430E-03 7.18371E-04-2.29729E-01
 -1       546 5.74627E-01 5.59566E-04 3.08494E-04 1.57029E-03 1.02379E-03-3.27230E-01
 -1       547 6.91975E-02 1.21675E-03-1.03915E-03 2.63910E-03 1.06412E-04-5.06383E-01
 -1       548 6.14861E+00-8.26152E-04 3.69596E-03-1.21086E-03 5.00211E-04-7.78674E-02
 -1       549 1.07874E-01 1.85965E-03 1.19565E-03 3.01402E-03 1.55556E-04-5.00604E-01
 -1       550 6.76609E-01-2.52538E-04 1.20414E-03 5.56696E-04 1.30952E-03-1.38607E-01
 -1       551 2.27984E-01-5.42766E-04-5.18940E-05 4.62414E-03 2.46090E-03-4.81285E-01
 -1       552 2.43606E-01-7.69629E-04 2.21777E-03 2.65763E-03-6.17483E-04-4.69964E-01
 -1       553 3.76104E-01 2.34893E-03 4.31391E-04 2.50148E-03 1.26641E-03-4.30195E-01
 -1       554 2.01681E-01-1.52363E-04-6.61042E-04 2.55911E-03-2.50464E-03-4.90791E-01
 -1       555 4.48053E-01 1.49842E-03-2.04806E-03 1.94214E-03-1.27107E-03-3.91768E-01
 -1       556 3.37598E-01 6.91409E-04-1.36430E-03 4.39361E-04-5.85360E-04-4.46575E-01
 -1       557 3.99543E-01-1.86121E-03 3.62062E-03 2.40892E-03 2.32240E-03-4.20573E-01
 -1       558 4.28560E-01 2.16915E-03-1.36536E-03 1.88341E-03 2.45654E-04-4.03153E-01
 -1       559 1.29938E-01-3.69281E-05 2.35520E-03 3.90807E-03 2.49128E-03-5.00280E-01
 -1       560 1.58438E-01-2.27552E-03 1.96423E-03 2.86296E-03-2.32494E-04-4.91253E-01
 -1       561 2.80998E-01 1.68218E-03-6.11089E-03 2.54006E-03-1.87909E-03-4.70368E-01
 -1       562 4.70623E-01-1.38350E-03-7.34392E-04 1.87082E-03 5.56469E-04-3.74457E-01
 -1       563 5.37593E-01-9.91756E-04 5.09002E-03 7.54690E-04-8.25546E-04-3.45070E-01
 -1       564 6.70395E-01 9.76611E-04 3.24163E-04 9.71573E-04 3.30560E-04-1.58304E-01
 -1       565 6.51343E-01-2.22184E-04-7.88407E-04 4.66110E-04 1.39769E-03-1.82205E-01
 -1       566 6.33421E-01-4.14214E-04 7.43936E-04 1.07860E-03 4.17579E-05-2.26680E-01
 -1       567 6.18129E-01-9.35653E-04 9.18750E-04 4.40460E-04 4.73027E-04-2.47765E-01
 -1       568 6.39276E-01-1.02797E-04-7.37726E-04 1.34972E-03 3.68014E-04-2.03612E-01
 -1       569 5.91083E-01-3.00800E-04-1.24427E-03 9.51199E-04 1.26989E-03-2.66746E-01
 -1       570 3.15266E-01-4.69704E-05-1.60440E-03 1.04406E-03 1.28821E-03-4.57911E-01
 -1       571 5.07790E-01 1.50908E-03-5.03314E-04 1.05135E-03-3.37526E-04-3.55939E-01
 -1       572 5.75215E-01 1.57382E-05-1.54665E-03 1.65324E-03-1.61128E-05-2.85990E-01
 -1       573 4.94996E+00-1.56402E-04 4.32819E-03 3.21063E-03 2.39562E-04-2.48095E-01
 -1       574 6.88373E-01 6.44196E-04-9.29912E-04 7.45916E-04 2.65250E-03-8.13389E-02
 -1       575-1.93967E-02-2.26143E-04-2.87267E-02-2.51733E-04-4.07956E-04-5.03727E-01
 -1       576-4.41603E+00 6.34614E-02 1.47135E-01 8.73050E-02 6.90395E-02 2.45577E-01
 -1       577 3.82768E-01 2.79362E-03 2.02253E-02 3.62059E-03 3.27213E-04-3.90688E-01
 -1       578 7.44421E-01-7.21552E-03 3.35773E-02-7.20624E-03 1.18838E-01 2.44777E-01
 -1       579 7.76131E+00-5.68360E-01-3.07803E-01-2.51293E-02 8.04388E-02 3.93607E-01
 -1       580-6.35205E+00 4.88298E-01 3.43670E-01 1.20753E-02 8.66361E-02 4.93441E-01
 -1       581-1.12075E-01-3.32604E-03-2.78451E-02 1.12321E-03 5.22409E-03-2.86208E-01
 -1       582 1.54418E-01 1.02357E-02 3.23113E-02-6.29796E-03 4.95753E-03-2.93692E-01
 -1       583 4.82145E-02 3.59069E-03 1.01587E-03 1.88344E-04-8.83373E-04-5.38503E-01
 -1       584 7.34127E+00 1.98522E-01 8.75766E-01 8.72445E-01 9.25172E-02 7.66089E-01
 -1       585 1.08532E+01 1.29116E+00 1.41065E+00 1.32794E+00-2.12411E-01-2.88473E-01
 -1       586 9.16860E+00-2.52237E-01-3.05999E-01-1.27191E-01 8.95032E-02 4.45443E-01
 -1       587-9.35578E+00-1.16882E+00-1.20063E+00-1.25571E+00-1.74809E-01-7.99364E-02
 -1       588-5.94943E+00-9.63030E-02-6.34527E-01-7.55190E-01 8.51634E-02 8.87771E-01
 -1       589-7.84927E+00 2.19696E-01 2.96610E-01 1.00304E-01 8.18237E-02 4.91603E-01
 -1       590 1.29542E-01 1.54836E-02-2.46186E-02-6.19478E-03 1.10073E-02-1.90976E-01
 -1       591 5.69658E-02 1.65911E-02-1.30029E-01 9.02731E-03 1.09290E-02-3.39859E-01
 -1       592 3.85057E-01-4.17705E-03 2.61143E-02-1.02872E-02-4.33755E-03-1.29387E-01
 -1       593-2.07873E-02-1.56860E-02 1.08962E-01-7.73587E-03 8.50898E-03-3.46358E-01
 -1       594-9.60484E-02-1.95025E-02 2.69054E-02 5.55782E-03 9.67964E-03-1.97233E-01
 -1       595-3.30591E-01 4.61438E-03-2.39926E-02 6.10752E-03-4.08048E-03-1.30248E-01
 -1       596-3.81230E+00-6.54071E-01-9.27322E-01-6.71970E-01 1.37159E-01 9.45899E-01
 -1       597-7.16685E-01-1.32403E-02 1.56758E-01-7.37852E-02 8.67957E-02 1.08875E+00
 -1       598-4.30903E+00 4.92446E-01 1.18858E-01 3.92901E-02 3.30763E-02 6.06080E-01
 -1       599 2.07776E+00-2.30582E-01 1.04484E-01 4.33588E-02 1.28440E-01 1.09874E+00
 -1       600 5.39863E+00 8.15972E-01 1.22513E+00 8.10552E-01 1.48752E-01 8.41107E-01
 -1       601 7.81423E-01-2.09181E-01 7.07302E-02-9.77255E-02 7.32963E-02 5.69060E-01
 -1       602 5.76068E+00-6.11367E-01-7.15027E-02-6.86763E-02-4.52256E-04 4.77168E-01
 -1       603 2.61404E-03-9.64212E-03-8.49202E-03 1.57789E-03-6.35180E-03-4.43134E-01
 -1       604-1.45054E-02-1.04503E-02 1.08025E-01 2.02119E-03-4.02721E-03-4.18966E-01
 -1       605-5.97270E-02 1.21945E-02-1.91467E-03 1.38705E-03 6.96282E-03-4.09673E-01
 -1       606 5.70953E-02 9.86356E-03-1.02743E-01-3.57653E-03 9.62478E-04-4.17567E-01
 -1       607 2.69870E-02 9.00782E-03 5.57291E-04 3.36088E-03-2.44370E-03-4.42973E-01
 -1       608 3.59722E-02 9.30244E-03 4.86915E-03-6.74625E-03 5.27405E-03-5.22448E-01
 -1       609 1.05996E-01 3.21514E-04 2.85512E-03-6.97327E-03-2.63207E-04-4.16332E-01
 -1       610-7.20016E+00 8.29484E-02 1.04755E-01 8.67450E-02 3.81406E-02 1.52083E-01
 -1       611-6.96834E+00 2.63011E-02 9.30536E-02 1.31469E-02-8.77957E-03 2.76400E-01
 -1       612-5.21533E+00 8.00544E-03 2.03768E-01 6.81891E-02 6.91321E-02 4.52142E-01
 -1       613-7.45702E+00 1.33744E-02 1.64007E-02 1.97820E-02 8.35537E-03 4.50050E-03
 -1       614-7.39543E+00 1.15663E-02 1.55923E-02 2.27680E-02-2.80677E-03 4.05839E-02
 -1       615-4.53115E+00 1.19506E-02 4.64651E-02 4.38842E-02 2.27526E-02 1.18895E-01
 -1       616-7.49559E+00-1.07204E-03-1.03768E-03 5.98200E-03 4.47960E-03-2.87895E-02
 -1       617-7.50530E+00 1.59317E-03 1.48237E-03 4.17875E-03-1.31590E-03-2.46578E-02
 -1       618-4.67689E+00-4.67947E-03 3.76521E-03 1.60509E-02 6.58713E-03-1.47845E-02
 -1       619-7.46171E+00 2.77313E-03-1.30551E-03 1.41285E-03-6.39025E-04-4.67937E-02
 -1       620-7.50159E+00 9.51513E-04-2.37584E-03 3.14516E-03 7.66589E-04-4.42169E-02
 -1       621-4.71322E+00 4.47471E-04-3.48925E-03 3.49699E-03 4.28127E-03-6.51505E-02
 -1       622-7.37455E+00-1.21949E-03-2.37237E-03 3.30077E-03-1.38157E-04-5.76922E-02
 -1       623-7.43170E+00-3.80563E-04-1.44526E-03 9.19152E-05 9.23466E-05-5.37733E-02
 -1       624-4.68730E+00-5.48002E-04-6.81658E-03-8.62893E-04-7.46994E-04-8.95581E-02
 -1       625-7.26739E+00 2.76548E-03-3.70983E-03-1.13819E-03-5.04634E-04-6.65931E-02
 -1       626-7.33675E+00 3.53310E-03-3.90736E-03 2.72530E-03-4.97046E-04-6.48637E-02
 -1       627-4.62537E+00 7.57080E-04-5.29402E-03 1.79972E-03-1.31388E-03-1.09739E-01
 -1       628-7.14658E+00 1.42040E-03-4.58745E-03 5.99801E-04 1.97626E-04-7.95498E-02
 -1       629-7.21853E+00 4.63297E-04-2.53787E-03 4.61415E-05 4.63946E-04-7.66071E-02
 -1       630-4.54087E+00 1.63399E-03-1.62819E-03-1.20323E-03 9.64972E-04-1.28116E-01
 -1       631-7.00911E+00-3.00407E-03-7.23380E-04 4.85061E-03 1.89253E-03-8.77103E-02
 -1       632-7.10488E+00-3.00107E-03-4.26860E-03 9.10241E-04 1.55407E-03-8.45526E-02
 -1       633-4.46157E+00 3.36646E-04-8.50014E-03-5.05369E-05-4.96982E-05-1.46113E-01
 -1       634-6.86251E+00 9.42470E-05-2.16783E-03 3.97699E-03-3.08240E-04-9.68417E-02
 -1       635-6.96307E+00 1.03673E-03-3.68770E-03 4.78605E-03 1.87179E-03-9.58805E-02
 -1       636-4.37110E+00-7.98416E-04-3.95626E-03 2.82550E-03 3.02689E-03-1.63633E-01
 -1       637-6.70521E+00 3.27166E-03-4.24763E-03 5.35431E-04-4.30259E-04-1.05382E-01
 -1       638-6.80989E+00 9.49058E-04-2.41961E-03 2.98744E-03 8.72504E-04-1.05240E-01
 -1       639-4.28082E+00 3.01217E-04-4.90888E-03-1.32200E-04 1.71579E-03-1.83064E-01
 -1       640-6.53317E+00 3.69514E-04-4.42261E-03 1.09668E-03 7.92392E-04-1.17562E-01
 -1       641-6.64266E+00-4.64642E-04-1.10972E-03-1.69298E-03 5.03557E-04-1.15235E-01
 -1       642-4.18122E+00 2.23603E-03-6.77409E-03-3.12918E-03-1.78807E-03-1.97213E-01
 -1       643-6.33434E+00-4.74194E-03 6.63288E-04 6.67557E-03 2.56784E-03-1.24809E-01
 -1       644-6.47155E+00-4.86184E-03-4.58366E-03 1.12200E-03 2.21938E-03-1.21637E-01
 -1       645-4.07115E+00 1.02891E-03-9.30909E-03-3.17659E-04-4.18754E-04-2.13331E-01
 -1       646-6.14621E+00 6.54172E-03-1.34365E-03 5.57126E-04-2.28604E-03-1.33863E-01
 -1       647-6.28248E+00 3.35965E-03-4.12988E-03 6.75318E-03 2.20948E-03-1.33929E-01
 -1       648-3.95923E+00-1.88363E-03-4.15606E-03 4.60539E-03 4.19906E-03-2.29735E-01
 -1       649-5.92483E+00-3.30260E-04-1.57953E-03 5.58853E-03-1.47552E-04-1.42278E-01
 -1       650-6.06755E+00-2.68596E-03-7.79367E-05 1.91345E-03 4.02131E-04-1.36757E-01
 -1       651-3.83833E+00-1.16281E-03-1.53978E-03-3.57836E-03 1.37483E-03-2.43549E-01
 -1       652-5.70937E+00-9.13541E-04 3.90780E-04 8.38161E-03-2.65668E-03-1.50082E-01
 -1       653-5.86550E+00 8.42979E-04-2.38836E-03 6.18528E-03 1.42703E-03-1.45791E-01
 -1       654-3.71035E+00-6.11126E-04-3.82194E-03 4.72735E-05-1.85543E-03-2.61488E-01
 -1       655-5.44470E+00 4.54756E-03-4.92380E-03-1.92739E-03-4.08985E-04-1.54406E-01
 -1       656-5.61073E+00 7.54589E-03-4.94189E-03 6.96191E-03-2.33331E-03-1.54663E-01
 -1       657-3.56034E+00 2.55572E-03-4.58206E-03 4.42565E-03-3.96900E-03-2.73192E-01
 -1       658-5.20228E+00 1.29128E-03-5.72378E-03 1.79842E-03 6.58427E-04-1.68507E-01
 -1       659-5.35910E+00-5.20638E-04-2.30232E-03 8.26169E-04 5.95141E-04-1.66154E-01
 -1       660-3.38122E+00 3.69271E-03 3.98311E-03-3.40807E-03 2.09838E-03-2.85747E-01
 -1       661-4.92463E+00-6.63199E-03 2.41165E-03 8.50598E-03 2.90382E-03-1.73298E-01
 -1       662-5.11643E+00-7.55765E-03-5.48880E-03 1.79133E-03 3.07748E-03-1.69719E-01
 -1       663-3.22975E+00 1.09781E-03-1.03627E-02-8.84977E-04-6.23266E-04-3.01284E-01
 -1       664-4.65018E+00 9.05280E-03 2.33436E-03 3.26703E-03-3.73504E-03-1.79391E-01
 -1       665-4.83043E+00 3.62662E-03-2.85469E-03 8.71549E-03 2.29545E-03-1.82270E-01
 -1       666-3.05159E+00-2.49140E-03-3.35832E-03 5.93724E-03 4.73156E-03-3.14853E-01
 -1       667-4.37000E+00-1.18147E-03-7.53401E-04 8.79647E-03-1.76349E-03-1.87827E-01
 -1       668-4.55966E+00-4.54023E-03 4.14735E-04 5.28130E-04 6.65209E-04-1.80873E-01
 -1       669-2.88343E+00-6.30023E-04-1.40314E-03-2.94046E-03-1.27862E-03-3.23973E-01
 -1       670-4.06440E+00 9.49827E-03 2.69489E-03 1.56490E-03-3.43412E-03-1.90166E-01
 -1       671-4.27278E+00 9.01431E-03-5.84867E-03 9.93042E-03-2.49166E-03-1.91084E-01
 -1       672-2.71319E+00 4.81845E-03-3.17795E-03 6.59694E-03-5.85498E-03-3.35840E-01
 -1       673-3.76837E+00-3.09150E-03-2.89640E-03 6.66489E-03 1.92713E-03-1.96605E-01
 -1       674-3.97091E+00-1.99533E-03 9.59983E-04 4.38285E-03-1.16545E-03-1.94420E-01
 -1       675-2.51069E+00-1.22068E-03 5.65160E-03-1.41762E-03 1.56943E-03-3.44786E-01
 -1       676-3.46276E+00 2.27097E-03-1.63364E-04 7.79992E-03-2.42642E-03-2.01954E-01
 -1       677-3.66738E+00-2.46094E-03-3.00484E-03 7.87096E-03 2.62517E-03-2.00847E-01
 -1       678-2.32515E+00 1.28828E-03-1.98726E-03-1.44365E-03 2.67544E-03-3.59839E-01
 -1       679-3.14430E+00 3.23365E-03-3.86835E-03 8.34199E-04-7.30038E-04-2.05343E-01
 -1       680-3.35634E+00 6.12243E-03-6.00270E-04 7.43199E-03-1.53824E-03-2.04138E-01
 -1       681-2.13735E+00-1.40827E-03-4.91273E-03-1.50697E-03-3.56233E-03-3.68431E-01
 -1       682-2.82317E+00-3.03154E-03-5.17484E-04 9.14615E-03-1.22025E-03-2.14576E-01
 -1       683-3.03530E+00-7.46307E-03-4.19211E-03 4.86378E-03 3.77255E-03-2.09534E-01
 -1       684-1.93625E+00-1.17674E-03 9.29552E-04-4.57139E-03 1.94769E-03-3.71534E-01
 -1       685-2.48518E+00 6.78687E-05 2.10260E-03 1.12089E-02-2.80855E-03-2.15580E-01
 -1       686-2.71150E+00 7.72654E-04-1.98134E-03 8.42504E-03 7.03273E-04-2.11990E-01
 -1       687-1.72612E+00-6.45285E-04-6.49477E-04 1.24697E-03-1.57287E-03-3.83739E-01
 -1       688-2.14589E+00-4.12873E-04 2.33538E-03 1.05966E-02 3.44411E-04-2.14087E-01
 -1       689-2.37952E+00 2.74525E-03-5.52860E-03 1.09725E-02-5.68297E-04-2.14847E-01
 -1       690-1.52223E+00 1.95772E-04-1.93685E-03 3.24159E-03-4.66875E-03-3.88144E-01
 -1       691-1.81106E+00 5.08789E-03-4.23559E-03-5.09938E-04-1.57510E-03-2.18865E-01
 -1       692-2.03369E+00 3.79659E-03-3.89518E-04 9.43222E-03 3.57716E-04-2.20595E-01
 -1       693-1.30700E+00 2.17086E-03 9.25573E-04 2.63617E-03 2.96623E-03-3.93707E-01
 -1       694-1.47357E+00-4.56036E-03 1.15701E-03 1.13838E-02-2.67650E-03-2.27861E-01
 -1       695-1.69698E+00-9.98440E-03-4.06749E-03 4.50248E-03 4.60874E-03-2.21424E-01
 -1       696-1.09839E+00 1.48122E-04 2.71997E-03-3.91761E-03 2.50861E-03-3.94744E-01
 -1       697-1.11338E+00 5.43116E-03-2.99631E-03-1.13756E-03-1.33252E-03-2.21074E-01
 -1       698-1.35519E+00 1.04183E-02-3.35338E-03 9.23650E-03-3.35520E-03-2.22288E-01
 -1       699-8.84323E-01 2.85207E-03-1.73926E-03 6.85438E-03-5.36362E-03-4.00803E-01
 -1       700-7.74557E-01 2.66639E-04-7.75297E-03 2.70411E-03-4.32467E-04-2.23075E-01
 -1       701-9.96075E-01-2.98428E-03-4.61820E-03 3.51247E-03 7.15806E-05-2.27272E-01
 -1       702-6.57056E-01 5.82422E-03 8.44725E-03-3.46542E-03 1.39100E-03-4.01454E-01
 -1       703-4.17855E-01-3.24208E-03-9.31719E-03-1.46566E-03-7.13594E-04-2.13253E-01
 -1       704-6.26096E-01-3.93396E-03-7.88669E-03 1.33877E-03 3.34800E-04-2.21987E-01
 -1       705-4.26392E-01 2.85622E-03-1.70636E-02-1.97839E-03-3.91141E-03-4.01745E-01
 -1       706-2.22353E-01-8.42935E-03-2.04614E-02 5.61820E-03 1.75431E-03-3.36116E-01
 -1       707 8.34582E+00-1.37018E-02-6.50708E-02-2.18450E-02-2.06213E-02 2.50905E-01
 -1       708 8.60055E+00-8.16518E-02-9.60724E-02-8.81779E-02 3.87310E-02 1.43984E-01
 -1       709 6.60496E+00-2.43704E-02-1.70292E-01-7.90020E-02 6.04280E-02 3.98044E-01
 -1       710 8.79636E+00-8.78420E-03-1.19701E-02-1.95823E-02-2.41199E-03 4.15841E-02
 -1       711 8.86780E+00-2.48280E-03-1.29132E-02-2.07188E-02 8.42185E-03 1.13167E-02
 -1       712 5.95374E+00-1.28109E-02-2.71219E-02-3.95577E-02 1.92660E-02 1.12243E-01
 -1       713 8.88397E+00-2.40460E-04-2.34592E-03-9.27979E-03-7.03197E-04-1.81524E-02
 -1       714 8.87491E+00-2.58219E-04-8.93263E-05-5.16307E-03 2.47320E-03-2.91859E-02
 -1       715 6.07533E+00 1.25689E-03-7.74918E-03-1.35444E-02 7.29312E-03-1.37244E-02
 -1       716 8.91056E+00-1.91068E-04 3.18107E-03-3.16383E-03 8.84784E-04-4.22804E-02
 -1       717 8.86325E+00-2.06210E-03 3.96290E-03 3.29837E-04-4.78566E-04-4.45852E-02
 -1       718 6.11788E+00 4.95471E-04 5.11009E-03-2.85193E-03 2.92714E-03-6.50983E-02
 -1       719 8.82949E+00 1.48203E-03 3.33748E-03-1.00872E-03 1.37504E-03-5.29052E-02
 -1       720 8.76435E+00 6.04955E-04 2.57124E-03-2.07331E-03 1.40895E-05-5.68952E-02
 -1       721 6.11664E+00 2.23346E-04 4.99055E-03 1.92600E-04 8.80891E-04-8.87180E-02
 -1       722 8.67491E+00-2.21479E-03 3.41187E-03-1.42474E-03 5.96269E-04-6.46561E-02
 -1       723 8.59852E+00-2.09292E-03 3.84855E-03 5.97671E-04-6.61026E-04-6.58543E-02
 -1       724 5.99795E+00 7.33069E-04 6.01069E-03-1.41302E-04 6.56037E-05-1.09653E-01
 -1       725 8.55145E+00 2.35200E-03 3.21988E-03-8.59568E-04 1.96286E-03-7.36818E-02
 -1       726 8.46187E+00 1.02372E-03 1.63157E-03-2.35927E-03-7.98966E-04-7.86093E-02
 -1       727 5.86795E+00 3.33098E-04 4.49158E-03 1.45795E-03 1.25626E-03-1.26855E-01
 -1       728 8.40532E+00-4.24989E-03 4.52647E-03-2.22858E-03-4.97503E-04-8.46939E-02
 -1       729 8.30015E+00-4.59390E-03 1.15728E-03 3.43805E-04-1.46510E-03-8.53162E-02
 -1       730 5.77299E+00-8.09725E-04 6.05484E-03-1.05576E-03-1.97897E-03-1.45200E-01
 -1       731 8.24102E+00-1.90865E-03 4.74525E-04-6.39914E-04-9.62860E-04-9.22837E-02
 -1       732 8.13297E+00-1.49012E-03 4.47500E-03 1.73948E-03-4.30272E-05-9.57747E-02
 -1       733 5.65987E+00 1.40821E-03 1.96380E-03 2.89350E-03 7.22073E-04-1.60666E-01
 -1       734 8.06504E+00 3.11445E-03 3.88875E-03-1.40949E-03 2.02938E-03-1.02284E-01
 -1       735 7.94260E+00 8.08091E-04 2.10007E-03-3.13874E-03-5.29811E-04-1.06636E-01
 -1       736 5.54262E+00 7.99881E-04 4.41594E-03 2.73906E-03 8.33443E-04-1.78879E-01
 -1       737 7.86893E+00-7.95888E-04 3.05021E-03-2.58204E-03 1.40953E-03-1.11323E-01
 -1       738 7.73096E+00 3.94296E-04 4.99980E-04-4.14129E-03-2.02240E-03-1.15180E-01
 -1       739 5.40738E+00 2.90688E-04 4.60613E-03 3.20507E-04-5.14950E-04-1.97591E-01
 -1       740 7.65164E+00-5.58390E-03 5.14316E-03-3.65799E-03-1.26569E-03-1.21346E-01
 -1       741 7.50193E+00-5.76080E-03 6.56032E-04 5.98223E-04-2.04755E-03-1.21625E-01
 -1       742 5.26753E+00-1.30590E-03 5.97761E-03-1.58255E-03-3.08740E-03-2.11772E-01
 -1       743 7.46888E+00 3.44512E-04 8.11815E-04-2.22979E-03-3.95048E-04-1.25623E-01
 -1       744 7.31184E+00 2.25275E-03 2.97918E-03-2.57433E-03 1.34526E-03-1.29253E-01
 -1       745 5.15378E+00 2.27946E-03 3.86158E-04 3.15433E-03 8.88021E-04-2.23813E-01
 -1       746 7.22280E+00 1.25232E-03 3.31067E-03-2.90994E-03 2.35841E-03-1.35970E-01
 -1       747 7.05944E+00-2.39701E-03 1.39000E-03-3.88045E-03-1.38015E-03-1.37147E-01
 -1       748 5.03622E+00 6.43290E-04 4.51165E-03 1.68588E-03 2.04974E-03-2.42017E-01
 -1       749 6.94884E+00-4.15675E-03 3.37559E-03-4.27327E-03 3.50388E-04-1.44620E-01
 -1       750 6.76770E+00-4.30421E-03 3.45541E-05-7.36490E-04-1.63355E-03-1.46382E-01
 -1       751 4.85118E+00 8.92903E-04 6.88487E-03 1.18781E-03-2.43429E-03-2.56775E-01
 -1       752 6.65099E+00 2.38686E-03 1.53053E-05-1.53452E-03 9.82471E-04-1.49277E-01
 -1       753 6.47129E+00 3.51237E-04 2.44326E-03-3.44781E-03-6.98709E-04-1.55593E-01
 -1       754 4.62353E+00 3.60674E-03 1.73836E-03 4.33208E-03 2.23900E-03-2.68399E-01
 -1       755 6.34937E+00-1.14792E-03 2.20810E-03-4.60358E-03 1.01471E-03-1.59985E-01
 -1       756 6.15344E+00-1.03234E-03-7.08550E-04-5.86522E-03-2.04544E-03-1.62976E-01
 -1       757 4.39619E+00-9.55520E-04 3.25390E-03 1.67294E-03-2.29185E-03-2.86301E-01
 -1       758 6.04444E+00-1.02315E-03 4.38634E-03-5.07042E-03 3.28362E-04-1.65643E-01
 -1       759 5.83831E+00 2.15294E-03-1.33400E-03-5.11848E-03-1.19732E-03-1.68581E-01
 -1       760 4.17433E+00 2.03403E-03 5.49662E-03-4.65885E-04-3.03891E-03-2.99324E-01
 -1       761 5.72363E+00-1.09926E-03 2.77875E-03-4.03619E-03 7.01709E-04-1.76043E-01
 -1       762 5.51892E+00-4.63624E-03 5.22805E-03-7.21668E-05-1.24327E-03-1.72405E-01
 -1       763 3.95687E+00 2.44896E-04 3.60926E-03 3.93447E-04 2.34307E-03-3.12789E-01
 -1       764 5.40206E+00 8.23967E-03 2.24320E-03 5.33493E-04 2.83762E-03-1.80063E-01
 -1       765 5.17913E+00 2.11717E-03-3.19710E-03-8.06189E-03-1.19306E-03-1.85373E-01
 -1       766 3.74118E+00-8.57823E-04 9.10536E-03 4.33302E-03-1.98028E-03-3.19204E-01
 -1       767 5.05788E+00-1.84738E-03 5.97170E-03-5.83406E-03 2.02684E-03-1.86521E-01
 -1       768 4.82694E+00 6.69245E-04-7.83208E-04-6.01202E-03 6.63676E-05-1.85325E-01
 -1       769 3.49601E+00-1.26388E-03 1.04435E-03-3.54912E-03-8.53899E-05-3.34407E-01
 -1       770 4.70243E+00 6.64602E-04 3.77001E-03-6.74134E-03 2.41030E-03-1.92308E-01
 -1       771 4.46887E+00 1.17426E-03 8.11932E-04-5.58608E-03-1.07698E-03-1.92206E-01
 -1       772 3.26108E+00-1.09509E-03 1.56698E-03-7.10213E-04 3.15666E-03-3.44193E-01
 -1       773 4.33729E+00-3.08975E-04 2.77154E-03-4.63969E-03 1.51295E-03-1.98588E-01
 -1       774 4.10740E+00-4.17770E-03 5.00132E-03-1.40203E-03-6.12885E-04-1.94810E-01
 -1       775 3.01417E+00 5.46616E-04 2.79765E-03 2.04621E-03 2.80271E-03-3.56016E-01
 -1       776 3.97405E+00 7.61350E-03 1.41101E-03 1.16743E-03 3.77485E-03-2.02733E-01
 -1       777 3.73033E+00 3.88711E-03-2.69115E-03-7.42069E-03-3.95972E-03-2.07430E-01
 -1       778 2.76484E+00-2.05810E-03 6.92486E-03 5.43958E-03-2.05505E-03-3.60217E-01
 -1       779 3.58909E+00-8.55118E-03 7.83521E-03-6.67360E-03-2.28513E-03-2.07054E-01
 -1       780 3.33162E+00-8.60237E-03 1.15322E-04 1.32486E-03-3.25919E-03-2.04484E-01
 -1       781 2.50581E+00-4.71219E-03 2.15320E-03-3.40381E-03-5.45602E-03-3.70865E-01
 -1       782 3.19440E+00-3.06972E-04-2.13210E-03 8.77875E-04-1.09377E-03-2.08158E-01
 -1       783 2.95353E+00-1.20936E-03 5.89290E-03 1.50237E-03 1.61655E-03-2.09305E-01
 -1       784 2.23228E+00 2.34208E-03-5.35531E-03 6.88372E-03 3.30992E-03-3.73317E-01
 -1       785 2.81418E+00 7.34235E-03 2.95869E-03-7.39862E-04 3.16308E-03-2.12232E-01
 -1       786 2.55529E+00 5.42186E-03-4.45202E-03-6.21286E-03-1.16184E-03-2.16761E-01
 -1       787 1.97308E+00-1.63051E-03 1.00371E-02 6.07012E-03-3.81109E-03-3.81619E-01
 -1       788 2.40803E+00-3.74933E-03 4.19390E-03-8.00834E-03 8.68064E-04-2.18009E-01
 -1       789 2.14502E+00-5.56857E-03 5.34733E-03 3.24653E-03-2.17116E-03-2.13188E-01
 -1       790 1.69624E+00-1.07264E-03 7.87328E-05-3.64921E-03 2.08252E-03-3.90344E-01
 -1       791 2.00145E+00 8.30581E-03 3.55736E-03-3.93158E-03 4.48466E-03-2.17461E-01
 -1       792 1.74443E+00 2.65562E-03-1.76050E-03-6.71858E-03-9.52555E-04-2.23625E-01
 -1       793 1.41822E+00 1.55067E-03-3.72159E-03 4.50382E-03 1.75368E-03-3.88753E-01
 -1       794 1.59039E+00-5.18799E-03 4.96330E-03-5.83381E-03 1.79600E-03-2.23614E-01
 -1       795 1.32107E+00-7.71773E-03-1.24586E-03-1.11925E-03-2.67237E-03-2.19421E-01
 -1       796 1.14000E+00 1.20711E-03 1.10324E-03-1.03445E-03-7.41978E-04-4.01134E-01
 -1       797 1.17685E+00-4.00041E-04-2.89456E-03-1.81339E-03-5.32499E-04-2.18539E-01
 -1       798 9.23390E-01-7.66621E-04 1.32317E-03-4.60138E-04-2.04491E-03-2.16100E-01
 -1       799 8.66141E-01 3.14457E-03-4.67067E-03 5.36140E-03 3.82561E-03-3.94960E-01
 -1       800 7.34067E-01-1.04041E-03 1.03973E-03 2.97705E-03-6.65657E-04-2.15322E-01
 -1       801 4.98401E-01 3.67146E-03 1.07651E-02 2.94280E-03 4.68657E-04-2.07749E-01
 -1       802 5.61566E-01 4.57244E-03 1.59101E-02 6.31870E-03-4.73222E-03-3.92576E-01
 -1       803 2.98399E-01 1.22374E-02 2.44182E-02-1.54880E-03 2.24368E-03-3.34587E-01
 -1       804-8.51771E-01 2.50651E-03 2.57240E-03-3.42544E-03 2.00583E-03-4.18669E-01
 -1       805-9.58357E-01-1.68633E-03-2.96749E-03-6.11881E-03-1.12567E-03-4.21069E-01
 -1       806-9.44266E-01 2.95523E-03 4.50457E-04-5.53943E-03 2.32751E-03-4.14403E-01
 -1       807-1.04294E+00 3.26046E-04-4.09608E-03-2.75751E-03-2.66250E-03-4.04246E-01
 -1       808 3.27837E-01 2.70044E-03-3.06716E-03 2.54984E-03-1.88690E-04-4.57518E-01
 -1       809-5.97960E-01 1.32250E-03-2.31735E-03-2.41178E-03-3.55835E-03-4.46102E-01
 -1       810-7.00943E-01-1.50464E-03-5.68368E-03-1.98158E-03 8.79685E-04-4.47586E-01
 -1       811-5.01003E-01 1.92697E-03 3.21566E-03-3.46774E-03 2.40766E-04-4.53726E-01
 -1       812-6.04616E-01-1.49306E-03 2.72805E-03-4.09156E-03-1.53475E-03-4.45785E-01
 -1       813 2.14880E-01-3.41975E-03 4.54301E-03 4.42346E-03 3.76676E-04-4.81310E-01
 -1       814 5.48806E-01 3.78877E-03-2.07603E-03 7.13700E-03 6.44343E-04-4.57680E-01
 -1       815 4.11386E-01-8.85142E-04-5.94471E-04 2.52259E-03-1.65200E-03-4.61619E-01
 -1       816 4.00164E-01 3.72688E-03 3.88836E-03 5.11241E-03-4.53974E-03-4.62155E-01
 -1       817 7.93189E-02 8.94898E-05-2.44310E-03 1.19893E-03-2.93323E-04-5.11354E-01
 -1       818 2.36316E-01-8.58664E-04 9.82243E-03 6.22066E-03-1.34325E-04-4.62384E-01
 -1       819-1.18244E+00 1.35640E-03-2.27086E-03-1.88310E-03 3.85804E-04-3.77437E-01
 -1       820-1.27451E+00-2.32832E-03-2.20437E-03-2.53575E-03-2.02761E-03-3.71659E-01
 -1       821-1.26222E+00 6.71785E-04 5.06932E-03-1.06820E-03 4.75622E-04-3.65648E-01
 -1       822-1.33536E+00-1.76659E-03-2.07462E-03-1.22426E-03 4.53550E-03-3.51496E-01
 -1       823 4.35164E-01 1.67150E-05-4.06196E-03 2.00428E-03 2.97939E-04-4.04974E-01
 -1       824 2.00320E+00-2.61641E-03 1.18270E-02 2.86733E-03 2.86709E-03-3.81369E-01
 -1       825 1.89269E+00-3.45907E-03 3.81454E-03 5.49354E-03-9.97801E-04-3.83181E-01
 -1       826 1.87321E+00 3.62696E-03 1.01952E-03 6.86548E-03 4.12486E-05-3.93824E-01
 -1       827 1.75193E+00-1.77465E-03-4.83798E-05 3.75437E-03-5.88027E-04-4.00417E-01
 -1       828 3.90437E-01 8.07092E-04 3.26785E-03 2.20692E-03 3.43285E-03-4.18177E-01
 -1       829 1.45956E+00 3.03195E-03 1.40814E-03 4.91946E-03-1.28974E-03-4.26441E-01
 -1       830 1.33356E+00-3.13306E-03-7.03913E-03 5.34954E-03-9.15854E-03-4.27893E-01
 -1       831 1.30609E+00 2.20068E-04 1.19911E-03 1.77372E-03 1.75825E-03-4.19629E-01
 -1       832 1.17540E+00-3.70472E-04 3.14747E-03 2.66074E-03 4.40025E-03-4.36093E-01
 -1       833 2.62837E-01 4.62605E-03-4.68300E-03 1.82712E-03-2.82400E-03-4.71388E-01
 -1       834 6.96789E-01-4.06267E-03 9.51149E-03 6.17092E-03 2.51383E-03-4.58892E-01
 -1       835 5.65505E-01-4.08511E-03-7.88114E-04 6.76480E-03-1.39241E-03-4.53955E-01
 -1       836 8.54334E-01-1.34792E-03-2.96794E-03 8.29943E-04 8.66634E-04-4.44967E-01
 -1       837 7.16113E-01-4.67551E-03 1.50736E-03 7.76596E-03 4.11068E-03-4.51092E-01
 -1       838 1.49497E-01-7.11504E-05 5.04739E-03 2.93114E-03 6.39587E-04-5.05447E-01
 -1       839 2.50422E+00 7.62009E-04 1.11939E-03 7.84305E-03-4.24335E-03-3.27283E-01
 -1       840 2.38486E+00-1.76221E-03-4.01802E-03 4.27701E-03-9.01417E-04-3.30856E-01
 -1       841 2.37825E+00 1.41545E-03 1.83464E-03 3.71825E-03 1.58048E-03-3.42332E-01
 -1       842 2.27476E+00-3.23561E-03 3.10963E-03 6.97656E-03 4.57568E-04-3.48807E-01
 -1       843 4.86494E-01-8.28361E-04 2.91817E-03-5.33320E-04 7.58413E-04-3.70159E-01
 -1       844-1.97477E+00 5.94032E-04-1.34562E-03-6.12554E-04-1.30060E-04-1.10043E-01
 -1       845-2.00580E+00-9.72838E-04-1.58458E-03-6.41073E-04-3.99484E-04-9.91141E-02
 -1       846-1.99098E+00-4.80077E-04-4.99152E-03-3.46598E-04 3.15455E-04-1.22672E-01
 -1       847 6.90537E-01-1.09869E-05 1.62406E-03 2.89837E-04 8.53756E-04-1.28231E-01
 -1       848-1.95722E+00 1.34079E-03-2.40174E-03-3.19410E-04-1.14772E-03-1.30562E-01
 -1       849-1.88610E+00-8.72996E-04-3.80219E-03 2.04716E-03 1.51785E-03-1.67658E-01
 -1       850-1.92128E+00-1.19709E-03-2.69000E-03 1.17972E-03 3.96430E-04-1.62711E-01
 -1       851-1.91211E+00 1.13354E-03-1.76960E-03 4.85158E-04 2.53533E-03-1.51635E-01
 -1       852-1.95511E+00 1.99427E-03-1.00510E-03 2.07023E-03 2.13250E-04-1.39481E-01
 -1       853 6.63410E-01-4.82754E-05 1.32911E-03-5.22946E-04 9.11472E-04-1.73376E-01
 -1       854 3.38970E+00 6.71598E-03-5.14372E-03-8.86405E-03 1.49060E-02-1.81269E-03
 -1       855 3.38355E+00-1.01748E-03 3.30372E-03 3.17438E-04 6.87983E-03-4.33724E-02
 -1       856 6.92878E-01 8.91899E-04 1.28364E-03 2.69009E-04 7.96229E-03-6.00147E-02
 -1       857 3.38439E+00-2.23035E-04 2.70486E-03 3.96117E-04 3.72480E-03-6.49336E-02
 -1       858 3.41751E+00 1.46432E-04 4.61459E-04 1.04679E-03 1.51808E-03-8.37592E-02
 -1       859-1.71262E+00-1.32056E-03-4.29993E-03 2.93539E-03 1.63433E-03-2.42563E-01
 -1       860-1.76874E+00-3.27812E-03-4.91525E-03 1.74893E-03-6.12514E-04-2.40050E-01
 -1       861-1.75187E+00-3.26621E-04-7.04316E-04-4.65122E-04 1.60421E-03-2.29010E-01
 -1       862-1.80931E+00-1.93638E-03-2.34666E-03-1.38623E-03-2.45862E-04-2.23310E-01
 -1       863 6.11147E-01-9.15826E-04 9.90743E-04-3.39954E-04 3.61645E-04-2.60235E-01
 -1       864-1.57485E+00 1.99654E-03-1.62578E-03-2.43958E-03 1.58080E-03-2.85826E-01
 -1       865-1.65340E+00-2.27075E-04-1.70575E-03-2.09177E-03 6.62703E-04-2.74407E-01
 -1       866-1.59028E+00-1.00299E-04-3.01678E-03-3.89259E-03-1.81882E-03-2.96637E-01
 -1       867 5.95133E-01 2.03252E-03-9.10660E-04 2.98332E-04 7.75739E-04-3.20382E-01
 -1       868-1.53730E+00 2.37118E-03-1.47497E-03-2.55125E-03 9.91430E-04-3.01786E-01
 -1       869-1.84032E+00 2.04407E-03 6.57951E-04-5.89790E-04 7.08788E-05-1.94767E-01
 -1       870-1.88202E+00 2.82570E-05-1.42920E-03-6.39943E-04 3.07458E-03-1.82498E-01
 -1       871-1.80069E+00 9.13133E-04-9.87024E-04-3.07020E-03 1.97688E-03-2.14154E-01
 -1       872-1.84844E+00-7.09840E-04-2.11443E-03-1.69665E-03-1.53433E-04-2.02627E-01
 -1       873 6.40106E-01-9.22869E-04 3.20411E-04 1.87582E-03 5.82242E-04-2.17868E-01
 -1       874 3.28844E+00-1.23264E-02-2.53255E-02-2.66456E-02 6.30393E-02 1.56514E-01
 -1       875 3.35177E+00 8.55116E-03-2.19845E-03-1.95729E-02 4.06321E-02 6.98052E-02
 -1       876 3.28999E+00-3.68036E-02-1.49842E-02-6.07155E-02 9.32930E-02 2.42559E-01
 -1       877 7.08513E-01-6.01808E-04 1.92184E-02-3.16768E-03 9.82142E-02 1.67837E-01
 -1       878 4.39443E+00-1.81379E-01-1.98425E-01-9.23193E-02 1.34142E-01 3.55008E-01
 -1       879 1.90201E+00-1.05185E-01 3.45359E-02-9.40948E-02 1.31050E-01 4.10959E-01
 -1       880-1.99823E+00 3.37301E-03 2.40276E-03 3.89661E-03 9.17026E-03-4.24292E-02
 -1       881-1.97489E+00-6.17143E-03 9.74490E-03 9.10903E-03 1.44502E-02-5.39395E-04
 -1       882-1.97175E+00-5.92144E-03 1.21488E-02 2.29779E-02 4.25954E-02 6.80122E-02
 -1       883 6.82477E-01-1.38101E-03 2.76149E-03-9.30184E-04 4.46933E-02 2.46509E-02
 -1       884-1.91667E+00 9.15353E-03 5.05327E-02 1.99560E-02 6.59350E-02 1.65048E-01
 -1       885-1.19657E-01 5.95886E-04-1.10299E-02-3.61162E-03 3.16090E-04-4.65719E-01
 -1       886-2.41175E-01-5.20623E-04-4.31437E-03 1.66110E-03-4.13602E-04-4.69950E-01
 -1       887-1.23334E-01-2.01478E-03-1.79028E-02-3.69062E-03 2.91608E-03-4.80432E-01
 -1       888 5.89594E-02 1.26010E-03 6.58076E-04 1.62954E-03 1.27297E-04-5.24728E-01
 -1       889-1.29832E-01-8.90084E-04-2.49890E-02 3.34143E-03-7.55751E-03-4.52980E-01
 -1       890-5.89527E-03-6.68760E-03-7.35438E-03-4.71047E-03-6.31872E-03-5.17980E-01
 -1       891-1.40109E+00 1.21905E-03-1.73788E-03-4.95205E-04 5.78812E-03-3.32293E-01
 -1       892-1.47370E+00 1.44883E-03-1.05695E-03 3.74705E-03 1.19276E-03-3.19413E-01
 -1       893-1.46758E+00 1.77907E-03 3.28033E-03-1.30645E-03-6.18150E-03-3.18898E-01
 -1       894-1.55749E+00-1.72429E-03-8.57492E-04-1.53430E-03-1.07362E-03-3.12471E-01
 -1       895 5.22363E-01-3.32453E-03 4.29356E-03 9.13667E-04-1.31926E-03-3.51642E-01
 -1       896-2.18863E-01 3.42176E-03-2.00828E-03 4.02702E-04 5.47102E-03-4.59947E-01
 -1       897-3.20619E-01 6.02964E-03 1.86053E-03 8.09765E-03-5.52333E-04-4.55833E-01
 -1       898-3.34040E-01 2.52215E-03-2.98880E-03-1.15877E-03-5.05431E-03-4.55180E-01
 -1       899-4.27627E-01-1.55212E-03-9.71102E-03-1.11060E-03-5.05542E-04-4.61929E-01
 -1       900 1.20627E-01 1.84395E-03 1.09582E-03 3.64613E-03 3.89126E-03-4.92761E-01
 -1       901 3.29048E+00 1.37134E-03 2.36071E-03 2.11969E-03 2.33702E-04-1.41686E-01
 -1       902 3.24155E+00-9.88798E-04 1.86119E-03 1.54205E-03 1.29569E-03-1.51820E-01
 -1       903 3.37715E+00-9.91702E-04 5.43695E-03 1.16373E-03 1.00954E-03-1.21827E-01
 -1       904 3.29320E+00-1.01235E-03 3.95702E-03 1.70387E-03 1.60187E-04-1.30329E-01
 -1       905 6.74090E-01 6.35203E-04 6.46248E-04 8.20182E-04 1.49921E-03-1.46263E-01
 -1       906 2.96962E+00 1.77218E-03 5.46060E-03 2.38531E-03 1.43402E-03-2.42545E-01
 -1       907 2.89555E+00-1.68825E-03 1.25418E-03 2.89912E-03-3.47000E-03-2.48588E-01
 -1       908 2.87864E+00-3.59960E-04 1.00566E-05 6.85719E-04-1.40938E-04-2.50449E-01
 -1       909 2.84494E+00-2.17400E-03-5.16508E-04 2.85773E-04 1.08843E-03-2.64745E-01
 -1       910 5.81820E-01 1.44378E-03-4.94577E-03 1.45490E-03 3.36793E-04-2.72056E-01
 -1       911 2.64245E+00 2.26705E-03 7.18591E-03 1.72080E-03 1.14121E-03-3.03443E-01
 -1       912 2.52139E+00-4.33355E-03 2.28357E-03 2.84887E-03 1.46257E-03-3.15077E-01
 -1       913 2.65481E+00-2.25704E-03-8.58350E-04 3.36560E-03 1.08994E-03-2.97408E-01
 -1       914 5.55719E-01 2.98567E-03 2.24009E-03 2.28058E-03-1.91431E-04-3.37898E-01
 -1       915 2.76404E+00 1.42664E-03 3.61619E-03 4.82293E-03-7.28348E-04-2.93644E-01
 -1       916 3.17648E+00-4.62035E-04 8.63429E-04 3.58801E-04 2.84362E-04-1.76872E-01
 -1       917 3.11789E+00-2.23320E-03 2.69660E-04 6.66120E-04 1.43887E-03-1.90719E-01
 -1       918 3.23741E+00 2.01985E-04 4.37247E-03 1.70144E-03 1.10550E-03-1.64366E-01
 -1       919 3.18866E+00-1.35170E-03 1.60412E-03 1.81172E-03-2.14597E-03-1.71650E-01
 -1       920 6.44380E-01 1.14584E-03-2.89897E-03 1.18813E-03 5.43623E-04-1.90011E-01
 -1       921 3.04286E+00 1.19175E-04 3.37325E-03 3.85737E-03 1.90405E-05-2.22401E-01
 -1       922 2.97679E+00-1.33663E-03 2.15281E-03 3.31505E-03 3.19695E-04-2.29518E-01
 -1       923 3.11920E+00 4.39447E-04 3.87696E-03 1.75422E-03-3.90898E-04-2.01261E-01
 -1       924 3.05194E+00-1.10073E-03 2.04460E-03 2.49272E-03 1.53230E-03-2.10539E-01
 -1       925 6.21346E-01-2.87221E-03 1.48603E-03 7.29003E-04 3.17769E-04-2.39515E-01
 -1       926-5.20413E-01-5.09951E-04 4.28684E-02-9.47970E-03 1.48247E-01 3.89759E-01
 -1       927-3.03804E+00 1.47776E-01 2.23405E-01 4.49986E-02 1.73013E-01 4.17634E-01
 -1       928-1.85026E+00 2.62432E-02 7.59260E-02 4.36312E-02 9.85529E-02 2.48169E-01
 -1       929 9.06865E-02 6.49091E-03 8.70088E-03-3.56368E-03-8.11352E-03-5.25868E-01
 -1       930 2.10801E-01-1.77009E-03 2.59759E-02-6.81783E-03-6.60834E-03-4.50228E-01
 -1       931 2.24523E-01 7.49032E-03 2.08778E-02 7.39820E-03 3.03573E-03-4.78699E-01
 -1       932 1.60273E+00 2.49314E-03 1.01520E-03 4.92822E-03-1.51557E-03-4.15143E-01
 -1       933 1.47179E+00-1.27003E-03 1.33806E-03 4.97617E-03-7.92580E-04-4.15087E-01
 -1       934 1.73743E+00 1.09779E-03 1.10230E-03 5.64408E-03-6.81730E-04-4.02113E-01
 -1       935 1.61697E+00 1.93551E-04-1.21676E-03 6.77659E-03 2.87071E-03-4.11772E-01
 -1       936 1.16319E+00 1.19288E-04 4.90914E-03 1.49731E-03-1.83549E-03-4.41063E-01
 -1       937 1.03099E+00-3.56901E-03 4.22598E-03 6.19960E-03-3.02987E-04-4.35220E-01
 -1       938 1.01352E+00 3.22224E-03 6.01963E-04 7.17579E-03 2.29680E-03-4.47588E-01
 -1       939 8.77589E-01 2.05889E-03-6.95638E-03 4.20011E-03-3.84463E-03-4.51461E-01
 -1       940 2.14107E+00 2.97863E-03-8.88690E-04 6.25979E-03-1.66492E-03-3.67540E-01
 -1       941 2.02752E+00 2.07876E-03 5.28342E-03 8.77354E-04-3.47823E-04-3.66725E-01
 -1       942 2.25662E+00 3.36716E-03 4.65864E-04 5.11828E-03 2.25878E-03-3.50609E-01
 -1       943 2.15167E+00 2.97328E-03-5.60830E-03 5.08844E-03 1.55628E-03-3.64241E-01
 -1       944-1.11893E+00 2.65045E-03-6.39135E-04-9.77486E-04-4.84594E-03-3.83725E-01
 -1       945-1.20180E+00-1.17714E-03-8.06621E-03-1.07765E-03-7.66050E-04-3.84702E-01
 -1       946-1.01355E+00 5.77913E-03-8.00260E-04 3.44693E-03 2.29749E-03-3.98350E-01
 -1       947-1.10801E+00 4.73632E-03 1.42181E-03 5.06453E-03-1.91042E-04-3.85557E-01
 -1       948-7.72869E-01 5.44509E-03-1.27014E-03-3.13950E-03 2.92518E-03-4.26844E-01
 -1       949-8.86198E-01-4.22346E-03-8.55347E-03 9.91795E-04 3.47427E-04-4.22037E-01
 -1       950-6.81000E-01 2.76626E-03 7.53374E-03-3.93219E-03-9.94305E-04-4.37917E-01
 -1       951-7.85647E-01-2.31104E-03 1.11812E-03-7.88277E-03-3.54724E-03-4.36944E-01
 -1       952-2.01300E+00 7.31156E-04-8.39033E-04-4.69707E-04 2.14640E-03-8.47280E-02
 -1       953-2.00642E+00 1.97202E-03 5.74942E-04 1.41553E-03 5.37464E-03-6.38629E-02
 -1       954 6.94717E-01-5.96241E-04-1.91281E-03 1.18034E-03 1.69391E-03-9.99708E-02
 -1       955 3.39106E+00-6.72052E-04 3.47190E-03 1.90247E-03 1.58329E-03-1.08204E-01
 -1       956 3.42311E+00-2.84893E-04 2.00823E-03-3.65515E-04 1.20084E-03-9.63265E-02
 -1       957 3.02137E-01-3.41847E-03-4.45206E-04 1.41176E-03 5.42515E-05-4.66872E-01
 -1       958-1.34399E+00-2.93124E-03-3.23594E-03 3.91729E-03 1.63337E-03-3.41576E-01
 -1       959-1.42003E+00-2.35779E-03 6.72203E-04 3.21129E-03-3.80338E-04-3.40951E-01
 -1       960 4.13286E-01-6.63843E-04 2.76495E-03 2.13307E-03 5.57272E-04-4.19673E-01
 -1       961-1.66329E+00 3.31928E-03 3.06273E-03-7.50848E-04 9.60863E-05-2.70606E-01
 -1       962-1.70655E+00-4.17560E-04-1.26060E-03-1.06810E-03 4.07821E-03-2.58148E-01
 -1       963 6.01405E-01-9.57401E-04 1.42134E-03 1.79020E-03 3.94792E-04-3.00574E-01
 -1       964 2.86640E+00-6.61799E-04 3.89843E-03 3.52274E-03-8.50211E-04-2.73441E-01
 -1       965 2.78106E+00-9.47339E-04 1.46658E-03 4.96767E-03 1.12657E-03-2.84924E-01
 -1       966 2.40968E-01 3.75882E-03 6.57078E-04 4.80131E-03 4.13680E-04-4.85492E-01
 -1       967-4.09762E-01 3.01080E-03 7.31974E-04-3.32915E-03 3.22701E-03-4.58362E-01
 -1       968-5.25383E-01-3.09273E-04-4.69494E-04-2.29112E-03-1.42886E-04-4.54819E-01
 -1       969 1.71188E-01-1.46841E-04-1.99692E-03 1.45854E-03-1.56248E-03-4.98909E-01
 -1       970 4.57250E-01-7.68716E-04-3.29645E-03 1.92424E-03-2.31924E-03-3.76806E-01
 -1       971 3.51955E-01 1.63274E-03-2.60868E-03 9.60487E-04 5.36577E-05-4.42186E-01
 -1       972-2.89015E+00-9.24591E-05-1.11041E-03 1.54857E-03 9.18930E-05-3.52842E-01
 -1       973-1.84265E+00-1.21838E-04-1.86403E-03 3.33103E-03 1.95197E-04-3.79933E-01
 -1       974 5.69539E-01-5.25103E-04 3.50397E-03-8.52914E-04-4.03277E-04-3.94773E-01
 -1       975-3.84836E+00-6.27246E-04-4.41288E-03 3.25815E-03 5.20675E-04-3.14624E-01
 -1       976-3.37748E+00-4.83817E-04-1.95032E-03 3.48358E-03-1.27701E-03-3.34331E-01
 -1       977-2.37990E+00 3.32423E-03-2.55805E-03 3.48844E-03 1.97625E-03-3.61636E-01
 -1       978 9.85244E-01 5.53469E-03-9.31094E-04-1.53085E-03-2.85720E-03-4.02705E-01
 -1       979 3.30487E+00-2.41001E-04 3.89345E-03-3.69276E-03-3.34832E-04-2.95223E-01
 -1       980-6.01501E+00 1.17598E-05-4.70078E-03 1.36595E-03-5.19008E-04-9.90393E-02
 -1       981-5.82030E+00-3.51658E-04-3.64306E-03 4.06494E-04-4.96828E-04-1.34136E-01
 -1       982 4.68377E+00-1.07606E-03 2.99963E-03 5.86489E-03-2.81818E-03-4.60596E-02
 -1       983-5.33705E+00-7.75277E-04-3.75474E-03 4.12649E-04-8.40977E-04-2.01513E-01
 -1       984-4.86431E+00 1.05473E-03-3.61978E-03 1.30674E-03-7.30806E-04-2.44497E-01
 -1       985-5.60657E+00 1.08858E-04-4.87189E-03 1.30406E-03 2.96456E-04-1.71458E-01
 -1       986 4.44044E+00-6.20591E-02-1.40313E-01 7.99703E-02-6.06638E-02 2.29246E-01
 -1       987-6.01636E+00 1.77813E-03 2.34231E-02-2.32208E-02-1.37259E-02 3.44232E-02
 -1       988-3.94450E-01-2.72000E-03-2.26226E-02-4.09940E-04 5.01745E-04-3.96097E-01
 -1       989 2.04449E+00-5.47406E-04 2.59382E-03-2.91692E-04 6.33509E-04-3.63466E-01
 -1       990-4.47629E+00-2.15341E-03-3.55546E-03 3.14460E-03-1.26388E-03-2.80765E-01
 -1       991-1.00968E+00-2.02742E-05-2.17418E-03 4.90442E-03 1.68809E-03-3.90588E-01
 -1       992 2.78490E+00 2.21784E-03 1.10264E-03-6.94714E-04-1.38801E-03-3.26148E-01
 -1       993 1.62276E+00 1.76063E-03-1.61299E-03 1.54535E-05 1.23278E-04-3.80480E-01
 -1       994 2.42354E+00 5.63165E-04 3.09393E-03 2.45061E-04-1.16394E-03-3.51367E-01
 -1       995 4.57051E+00-2.29813E-03 4.36505E-03 7.21987E-06 2.59777E-04-1.16208E-01
 -1       996 4.00199E+00 2.39270E-03 4.84028E-03 1.14956E-03-3.06769E-03-2.14269E-01
 -1       997 3.67514E+00 8.03571E-04 1.33499E-03 1.21671E-03-5.94885E-04-2.62343E-01
 -1       998 4.41647E+00 2.13777E-03 5.16862E-03 1.68329E-03-2.29303E-03-1.50627E-01
 -1       999 4.23708E+00-2.44319E-03 6.52302E-03-2.42664E-03-1.47612E-04-1.91102E-01
 -1      1000-3.24330E+00 1.69493E-01-1.08165E-01 2.32240E-02-1.20271E-01 4.97114E-01
 -1      1001 1.12670E-02-5.95351E-03-3.06700E-03 1.01881E-03 6.54117E-05-5.10607E-01
 -1      1002 4.65865E+00-2.12203E-03-2.48671E-02 2.37722E-02-1.34198E-02 2.62096E-02
 -1      1003-6.09466E+00 3.20217E-03-2.96947E-03-3.96247E-03-2.88137E-03-4.74157E-02
 -1      1004-6.08826E+00-1.30647E-04-3.74459E-03 3.45749E-05-1.35521E-03-7.77548E-02
 -1      1005-6.66564E-01 1.82327E-05-1.12576E-03 2.73658E-05-7.77140E-04-1.13122E-01
 -1      1006-7.23418E-01-2.10240E-04-8.01246E-03 6.16626E-03 1.03916E-03-4.01053E-01
 -1      1007-2.63263E+00-2.09984E-03-3.90097E-04 1.74585E-03-2.92726E-04-3.61343E-01
 -1      1008 1.41803E+00-2.03236E-03 7.30951E-04 1.47509E-03 7.35969E-04-3.80012E-01
 -1      1009 2.97016E+00-3.61156E-04 3.97519E-03-2.66826E-05 1.56711E-03-3.24117E-01
 -1      1010 3.49604E+00-5.03217E-03 2.46996E-03 2.17737E-03 1.60732E-03-2.71948E-01
 -1      1011-4.27631E+00-1.00806E-03-1.38798E-03 1.27897E-03-1.06095E-04-2.88557E-01
 -1      1012-3.61775E+00-2.36672E-04-4.12920E-03 1.20338E-03-5.46141E-04-3.32844E-01
 -1      1013 3.14708E+00 3.44263E-03 4.48023E-03 6.24118E-04-2.36690E-03-3.01674E-01
 -1      1014-5.72157E+00 1.75387E-03-4.39011E-03 1.34853E-03 1.28558E-03-1.49623E-01
 -1      1015-5.18998E+00 3.24603E-03-3.76179E-03 7.16933E-04 1.96128E-03-2.14370E-01
 -1      1016-5.04961E+00 3.26421E-04-2.94439E-03 3.02750E-03-2.86182E-04-2.35852E-01
 -1      1017-5.10530E-01-7.96541E-04 3.03858E-03 1.37130E-03-2.13399E-03-3.04875E-01
 -1      1018 4.12635E+00 1.29897E-03 4.18355E-03 2.86123E-04-7.58601E-07-2.07724E-01
 -1      1019 2.62582E+00-2.46880E-03 2.82333E-03-1.65640E-03 1.12539E-03-3.34305E-01
 -1      1020-2.11487E+00 3.42134E-04-4.62707E-03 5.86296E-03 3.88059E-04-3.83815E-01
 -1      1021-4.71372E+00-2.75480E-04-4.29257E-03 3.35699E-03-4.29968E-05-2.59671E-01
 -1      1022 7.70679E-01 9.63288E-04 6.07138E-04 3.24731E-04-7.24936E-04-3.94867E-01
 -1      1023-1.28253E+00-8.14054E-04 1.68184E-04 6.30857E-03-9.14649E-05-3.92522E-01
 -1      1024 4.32981E+00-1.23768E-03 4.99328E-03 4.70547E-04 1.15834E-04-1.70972E-01
 -1      1025 4.50124E+00-4.40940E-04 5.67342E-03-9.86954E-04-6.04090E-04-1.40103E-01
 -1      1026-1.55019E+00 7.79567E-04-1.15330E-03 1.87409E-03-9.99748E-04-3.91961E-01
 -1      1027 2.23069E+00-1.30518E-04 2.42767E-03-4.29908E-03 3.43744E-05-3.63898E-01
 -1      1028-5.92696E+00-9.99111E-06-4.88908E-03 1.40413E-03-9.03237E-04-1.15141E-01
 -1      1029-4.07531E+00 1.51162E-03-2.99832E-03 2.47544E-03 1.34255E-03-2.97231E-01
 -1      1030-5.47335E+00-1.68034E-03-4.18986E-03 1.92915E-03-1.27878E-03-1.89263E-01
 -1      1031 1.21601E+00-2.52940E-03 2.78427E-03-2.05053E-03 1.77741E-03-3.91614E-01
 -1      1032-3.13769E+00-1.45270E-03 7.16482E-04 2.12310E-03 7.50033E-04-3.44217E-01
 -1      1033 1.82632E+00 4.07675E-03 1.59216E-03-3.38273E-03-1.66749E-03-3.81013E-01
 -1      1034-7.52384E-01-2.45022E-03-1.77543E-02 2.37206E-03-7.49042E-02 9.96160E-02
 -1      1035-7.02123E-01 1.23223E-03-4.96198E-03 4.19353E-04-1.54308E-02-3.26605E-02
 -1      1036 4.71615E+00 1.17068E-03 3.82799E-03-4.65639E-04-9.40816E-04-9.89241E-02
 -1      1037 2.09257E+00-3.65979E-01-2.84136E-01 6.83711E-02-9.00106E-02 5.00998E-01
 -1      1038 3.97924E+00-4.02824E-03 5.84351E-03 6.18979E-04-6.94160E-04-2.33694E-01
 -1      1039-5.05368E-01 5.61630E-04-1.69814E-03 1.42022E-03 9.67900E-04-3.25787E-01
 -1      1040-7.35906E-02 2.45541E-03 6.70111E-04 1.89745E-03-1.32025E-03-5.11948E-01
 -1      1041 4.77028E+00-1.89073E-03 4.76531E-03 5.20820E-04-5.93281E-04-8.01010E-02
 -1      1042-8.96559E-02-1.87745E-03-4.28308E-03 3.07125E-03 3.22907E-03-5.03971E-01
 -1      1043-6.76463E-01-7.89242E-06-1.38051E-03 4.28836E-04-1.98356E-04-1.38903E-01
 -1      1044-2.19483E-01-2.48069E-03-1.12450E-03 2.24060E-03-2.84681E-03-4.82866E-01
 -1      1045-2.06148E-01 3.55229E-03-1.32857E-03 1.52075E-03 1.93053E-03-4.89467E-01
 -1      1046-2.81095E-01-1.12132E-03 6.39517E-03 1.94617E-03 1.86854E-03-4.69620E-01
 -1      1047-1.23487E-01 2.02788E-04 5.24026E-03 1.75677E-03-2.16520E-03-5.00364E-01
 -1      1048-3.98191E-01-3.71164E-04-1.72683E-03 9.62928E-04 2.51770E-05-4.25118E-01
 -1      1049-4.63816E-01 4.03515E-04 1.27251E-03 6.96763E-04-1.83035E-03-3.75204E-01
 -1      1050-3.78580E-01-4.14950E-04 5.83910E-04 8.31726E-04 1.06161E-03-4.28868E-01
 -1      1051-3.45863E-01 3.67764E-04 7.32863E-04 2.42918E-03-3.37145E-04-4.47359E-01
 -1      1052-1.57164E-01-1.15918E-03-2.83913E-03 1.97080E-03-2.90392E-04-4.95943E-01
 -1      1053-2.44321E-01 1.60277E-03-1.45322E-03 3.52529E-03 7.42893E-04-4.69670E-01
 -1      1054-5.06701E-01 8.52800E-04-4.70113E-03 6.33124E-04 8.66684E-04-3.44848E-01
 -1      1055-6.71815E-01-5.69269E-04 2.98857E-04 5.32891E-04 1.06631E-04-1.58989E-01
 -1      1056-6.51442E-01-2.86192E-05 7.72803E-04 6.05274E-04-1.41667E-03-1.82320E-01
 -1      1057-4.46142E-01 8.74883E-05 1.16073E-03 2.86985E-03 1.99205E-03-3.90445E-01
 -1      1058-6.33134E-01 4.92928E-04-6.81006E-04 1.02302E-03-2.22241E-04-2.26737E-01
 -1      1059-6.17918E-01 1.01138E-03-9.62161E-04 4.58376E-04-2.44015E-04-2.47878E-01
 -1      1060-6.39928E-01 2.86936E-04 1.04601E-03 1.42253E-03-7.50349E-05-2.03497E-01
 -1      1061-4.24915E-01 1.00534E-04-1.74369E-03 1.90531E-04-1.08314E-03-4.06679E-01
 -1      1062-3.18835E-01 1.22113E-04-7.32219E-04 1.22086E-03-1.05386E-03-4.58826E-01
 -1      1063-5.91286E-01 4.74159E-04 1.11628E-03 6.84883E-04-1.35671E-03-2.66883E-01
 -1      1064-5.08529E-01-5.64502E-04 1.23838E-03 1.26465E-03 2.47677E-06-3.56220E-01
 -1      1065-5.75512E-01 5.73646E-05 8.59110E-04 1.34645E-03 7.09401E-04-2.85889E-01
 -1      1066 3.83722E+00 2.37109E-03 8.14668E-04-3.85034E-03-7.90501E-04-2.48758E-01
 -1      1067-6.92652E-01-1.72664E-03 2.86391E-03 1.41265E-03-2.85299E-03-7.84763E-02
 -1      1068-7.76334E-02-1.45753E-02-3.37805E-02-4.30049E-03-1.04199E-03-5.02436E-01
 -1      1069-5.83039E+00 6.53757E-02 1.13975E-01-7.98612E-02-6.07872E-02 2.16957E-01
 -1      1070 2.92223E-01-1.45041E-04 2.18099E-02-1.50420E-03 1.71089E-03-3.96745E-01
 -1      1071-6.68296E-01-3.46761E-03-5.60169E-02 2.75097E-03-1.15267E-01 2.35176E-01
 -1      1072 6.38203E+00-4.74814E-01-3.77370E-01 2.87285E-02-7.31546E-02 4.78767E-01
 -1      1073-7.87917E+00 5.03412E-01 2.33497E-01 4.62637E-02-5.75192E-02 3.12176E-01
 -1      1074-1.66604E-01-1.28871E-02-3.60725E-02-2.65342E-03-4.27129E-03-2.88130E-01
 -1      1075 1.01271E-01 4.75249E-04 2.85411E-02 2.58384E-03-5.66725E-03-2.96260E-01
 -1      1076-5.06220E-02 4.09444E-03-1.62700E-03 1.20482E-03 5.57955E-03-5.27622E-01
 -1      1077 9.37172E+00 1.16492E+00 1.17100E+00-1.24323E+00 1.69782E-01-7.67537E-02
 -1      1078 5.94885E+00 9.26550E-02 5.99579E-01-7.37500E-01-9.81633E-02 8.94471E-01
 -1      1079 7.86552E+00-2.05721E-01-2.99494E-01 1.03472E-01-7.78915E-02 4.81569E-01
 -1      1080-7.78249E+00-8.93002E-01-1.25271E+00 1.07871E+00 1.66606E-02 6.21387E-01
 -1      1081-1.09177E+01-1.34630E+00-1.48911E+00 1.33330E+00 1.82830E-01-2.50907E-01
 -1      1082-9.16736E+00 2.35216E-01 3.23802E-01-1.39075E-01-8.19631E-02 4.43910E-01
 -1      1083 1.45277E-02 1.22660E-02-1.31512E-01-7.07410E-03-1.37081E-02-3.43031E-01
 -1      1084 9.23144E-02 1.27160E-02-2.89789E-02 8.47737E-03-1.10661E-02-1.95560E-01
 -1      1085 3.23891E-01-5.16736E-03 2.57511E-02 6.18383E-03 4.85613E-03-1.29908E-01
 -1      1086-1.37212E-01-1.68098E-02 2.23685E-02-2.38240E-03-9.94244E-03-1.95442E-01
 -1      1087-6.36763E-02-1.66400E-02 1.06126E-01 1.16354E-02-8.53865E-03-3.41898E-01
 -1      1088-3.95093E-01-2.10303E-03-3.96480E-02-8.44843E-03 1.15627E-02-1.23274E-01
 -1      1089-2.05919E+00-1.30737E-01-2.02781E-01 1.88156E-01-1.00279E-01 1.07162E+00
 -1      1090-5.33122E+00-9.96645E-01-1.35478E+00 8.43541E-01-1.57266E-01 8.90165E-01
 -1      1091-5.46952E+00 4.58432E-01-9.03336E-03 3.00468E-02-9.54138E-02 5.05574E-01
 -1      1092 3.95800E+00 6.59247E-01 8.81127E-01-6.79156E-01-1.39905E-01 9.23436E-01
 -1      1093 6.54564E-01-3.70335E-01-2.31232E-01 7.50332E-02-1.36981E-01 1.11564E+00
 -1      1094-5.95572E-01-1.03259E-01-6.20906E-02 1.00130E-01-6.90399E-02 5.52892E-01
 -1      1095 4.38510E+00-4.84161E-01-1.74935E-01 6.38502E-02-3.77657E-03 5.46209E-01
 -1      1096-5.67064E-02-1.73301E-02 1.03085E-01 1.63570E-03 3.85658E-03-4.17608E-01
 -1      1097-3.78508E-02-1.35950E-02-1.07512E-02 1.20213E-03 6.83315E-03-4.42098E-01
 -1      1098-1.14680E-01 1.13509E-03-3.68384E-03-3.82970E-03-9.40309E-03-4.08024E-01
 -1      1099-1.58293E-02 3.44710E-03 1.21343E-03 1.15239E-03 2.13134E-03-4.42338E-01
 -1      1100 1.29419E-02 5.46600E-03-1.05506E-01 6.03831E-03-2.70323E-03-4.19723E-01
 -1      1101-2.35152E-02-2.80705E-03 9.68478E-04 4.22246E-03-5.82535E-03-5.20729E-01
 -1      1102 4.54390E-02-9.98286E-03-4.41521E-04 4.02744E-03-6.23856E-04-4.20083E-01
 -1      1103-8.34372E+00 2.08932E-02 6.90100E-02-1.45618E-02 1.32152E-02 2.49629E-01
 -1      1104-8.66189E+00 5.27891E-02 6.04652E-02-5.87145E-02-2.39042E-02 1.25050E-01
 -1      1105-6.58926E+00 1.15480E-02 1.88950E-01-7.69418E-02-7.33483E-02 3.77624E-01
 -1      1106-8.76273E+00 1.27823E-02 2.66581E-02-1.18888E-02-7.68289E-03 4.27815E-02
 -1      1107-8.84880E+00 2.55066E-03 1.28474E-02-1.78232E-02-6.64866E-03 1.37327E-02
 -1      1108-5.92333E+00 1.66480E-03 4.08991E-02-2.84605E-02-1.90290E-02 1.13535E-01
 -1      1109-8.89124E+00 7.04139E-04 1.25825E-03-9.07248E-03 3.05986E-04-2.04926E-02
 -1      1110-8.88326E+00 3.55789E-03-5.90627E-04-3.30221E-03-1.47522E-03-2.98393E-02
 -1      1111-6.07467E+00-3.78918E-03 6.64472E-03-1.37797E-02-6.89278E-03-1.47863E-02
 -1      1112-8.87953E+00 1.39137E-03-1.11675E-03-8.24679E-04 5.38043E-04-4.24106E-02
 -1      1113-8.83477E+00 1.21089E-03-2.49723E-03 6.72174E-05-7.01691E-04-4.58951E-02
 -1      1114-6.09784E+00-2.54429E-03-4.11587E-03-7.85619E-04-3.47207E-03-6.33224E-02
 -1      1115-8.79402E+00 1.23137E-03-1.79938E-03-5.69060E-04 2.50609E-04-5.33919E-02
 -1      1116-8.73237E+00 1.15497E-03-2.25873E-03-4.79780E-04-3.42968E-04-5.65336E-02
 -1      1117-6.05905E+00-3.17242E-03-5.09511E-03 1.67563E-03-1.86395E-03-8.85969E-02
 -1      1118-8.68500E+00 4.08272E-05-2.01731E-03 4.87044E-04-2.59268E-04-6.30018E-02
 -1      1119-8.60647E+00-9.98989E-04-3.03773E-03-1.95637E-03-3.62364E-04-6.61229E-02
 -1      1120-5.97635E+00-1.68316E-03-7.76265E-03 2.43395E-03 1.23605E-04-1.07163E-01
 -1      1121-8.55086E+00 2.19619E-04-3.09937E-03-1.91604E-03-9.45365E-04-7.34709E-02
 -1      1122-8.45990E+00-1.67615E-04-1.21577E-03-2.78750E-03 1.45617E-03-7.73070E-02
 -1      1123-5.87755E+00-3.18317E-04-4.93084E-03 3.94333E-04 2.15385E-04-1.27062E-01
 -1      1124-8.40567E+00 4.04879E-03-3.88623E-03-1.75587E-03 6.63115E-04-8.33490E-02
 -1      1125-8.30413E+00 2.55337E-03-4.37798E-03 1.89359E-03 8.88890E-04-8.41727E-02
 -1      1126-5.77177E+00 8.84577E-04-5.78518E-03-7.41882E-04 2.03039E-03-1.44301E-01
 -1      1127-8.24211E+00 1.72926E-03-2.60188E-03-8.36966E-04-7.21596E-04-9.38231E-02
 -1      1128-8.13452E+00 1.19394E-03-4.42826E-03 1.20973E-03 9.60044E-04-9.67164E-02
 -1      1129-5.66142E+00 1.87962E-03-2.12692E-03 2.48013E-03-6.80495E-05-1.61376E-01
 -1      1130-8.06527E+00-3.16990E-03-3.77918E-03-1.56753E-03-1.95409E-03-1.02405E-01
 -1      1131-7.94292E+00-8.41621E-04-2.16943E-03-3.10398E-03 4.78611E-04-1.06863E-01
 -1      1132-5.54145E+00-2.99681E-04-3.78474E-03 2.37527E-03-1.00844E-03-1.79425E-01
 -1      1133-7.86916E+00 7.79531E-04-3.12383E-03-2.50822E-03-1.40245E-03-1.11345E-01
 -1      1134-7.73094E+00-3.53201E-04-5.67027E-04-4.06042E-03 2.00332E-03-1.15141E-01
 -1      1135-5.40725E+00-2.79364E-04-4.75403E-03 3.28625E-04 4.73145E-04-1.97646E-01
 -1      1136-7.65165E+00 5.47011E-03-5.14844E-03-3.72903E-03 1.19637E-03-1.21513E-01
 -1      1137-7.50066E+00 6.11740E-03-3.03505E-04 5.10914E-04 1.91995E-03-1.21572E-01
 -1      1138-5.26788E+00 1.07823E-03-6.36960E-03-1.68154E-03 3.02457E-03-2.11646E-01
 -1      1139-7.43188E+00 1.15150E-03 3.65918E-04-1.02695E-03 4.87912E-04-1.29425E-01
 -1      1140-7.28332E+00 2.22887E-03-9.36107E-04-6.87937E-04-1.94920E-04-1.31906E-01
 -1      1141-5.12322E+00-2.48856E-03-8.56061E-04 3.58086E-03-9.55929E-04-2.25632E-01
 -1      1142-7.18002E+00 2.70728E-03-1.78517E-04 2.68931E-03 4.37982E-04-1.37918E-01
 -1      1143-7.01704E+00-3.56256E-06-2.44563E-03 2.45506E-03 8.03875E-04-1.39455E-01
 -1      1144-4.96885E+00-3.86173E-03-1.08458E-02 4.04856E-03 1.33015E-03-2.40988E-01
 -1      1145-6.93082E+00 2.18535E-03 7.74741E-04-4.49111E-04 6.01244E-04-1.42265E-01
 -1      1146-6.76266E+00 1.59368E-03-5.45675E-03 2.78807E-03-2.17728E-04-1.45568E-01
 -1      1147-4.79076E+00-4.83169E-03-1.56959E-03 4.88838E-03-2.91289E-03-2.53989E-01
 -1      1148-6.63922E+00-4.95198E-03-4.34483E-03-2.09935E-03-2.94342E-03-1.52629E-01
 -1      1149-6.45845E+00-1.63878E-03-1.79709E-03-4.40569E-03 1.10748E-03-1.57798E-01
 -1      1150-4.60076E+00-1.60199E-03-3.46342E-03 4.34844E-03-1.15922E-03-2.69494E-01
 -1      1151-6.35015E+00 9.15597E-04-2.69412E-03-3.89772E-03-1.18206E-03-1.59713E-01
 -1      1152-6.15362E+00 5.27629E-04 3.42379E-04-5.79256E-03 2.61691E-03-1.63092E-01
 -1      1153-4.37799E+00 2.86126E-04-3.05201E-03 6.72303E-04 1.02737E-03-2.86987E-01
 -1      1154-6.04242E+00 5.74604E-03-3.07671E-03-3.93192E-03 1.09917E-03-1.66641E-01
 -1      1155-5.84294E+00 2.73019E-03-4.25018E-03 1.28969E-03 8.17796E-04-1.66523E-01
 -1      1156-4.17277E+00-5.98177E-05-4.50600E-03-1.31746E-04 3.90278E-03-2.97917E-01
 -1      1157-5.72177E+00-2.23399E-04-2.47359E-03-3.43966E-04-8.81959E-04-1.75684E-01
 -1      1158-5.52239E+00 4.55873E-04-5.82311E-03 2.52694E-03-1.12955E-03-1.76116E-01
 -1      1159-3.96033E+00 5.49738E-04 1.20875E-03 3.69895E-03-1.90002E-03-3.08377E-01
 -1      1160-5.39256E+00-1.80995E-03-4.92445E-03-2.46796E-03-2.40771E-03-1.82673E-01
 -1      1161-5.18337E+00 5.48275E-04-6.64804E-04-3.81936E-03 1.44666E-03-1.84719E-01
 -1      1162-3.73307E+00 1.40562E-03-5.35475E-03 2.35478E-03-9.90204E-04-3.23118E-01
 -1      1163-5.05478E+00-1.78763E-03 1.15974E-03 1.67452E-03-1.23220E-03-1.85019E-01
 -1      1164-4.83189E+00-2.84500E-03-1.77513E-03-5.15563E-03 7.15964E-04-1.88065E-01
 -1      1165-3.49886E+00-7.78506E-04-5.57691E-03 2.75880E-03 1.90232E-04-3.33310E-01
 -1      1166-4.70448E+00 1.63298E-04-2.40682E-03-5.19408E-03-5.83230E-04-1.90444E-01
 -1      1167-4.47067E+00 6.77668E-04 1.63075E-03-7.04858E-03 2.70750E-03-1.93246E-01
 -1      1168-3.26277E+00 1.05815E-04-4.17842E-04 8.55099E-04 1.59245E-03-3.44356E-01
 -1      1169-4.34245E+00 1.52134E-03-2.95328E-03-5.90329E-03-7.54865E-04-1.95452E-01
 -1      1170-4.10179E+00 9.96474E-04 1.57232E-03-7.05268E-03 1.99993E-03-1.97793E-01
 -1      1171-3.01490E+00-1.18826E-03-2.70469E-03-5.02656E-04 2.78567E-03-3.53767E-01
 -1      1172-3.97208E+00-7.90879E-05-2.42977E-03-5.10179E-03-1.48588E-03-2.00469E-01
 -1      1173-3.72777E+00-1.41772E-03 1.59187E-03-7.32979E-03 4.51335E-03-2.04882E-01
 -1      1174-2.76228E+00-5.23064E-04-2.10388E-03 7.55150E-04 1.38294E-03-3.63703E-01
 -1      1175-3.59082E+00 9.12324E-03-5.35338E-03-5.27163E-03 2.66491E-03-2.04406E-01
 -1      1176-3.33885E+00 4.30292E-03-5.61466E-03 3.77445E-03 4.21905E-04-2.01151E-01
 -1      1177-2.50445E+00 3.89454E-03-3.08643E-03-1.55538E-03 5.29087E-03-3.68773E-01
 -1      1178-3.19717E+00-1.32434E-03-2.33880E-03 3.90230E-04-6.37708E-04-2.11843E-01
 -1      1179-2.96004E+00-2.00627E-05-6.29521E-03 5.59438E-05 2.20114E-04-2.12024E-01
 -1      1180-2.23662E+00 3.50279E-03 5.22932E-03 7.65116E-03-2.31116E-03-3.72859E-01
 -1      1181-2.80575E+00 1.85377E-03-5.43462E-04 3.36024E-03-1.66990E-03-2.12890E-01
 -1      1182-2.55959E+00-1.24505E-03-4.74347E-03 3.23412E-03 4.23589E-05-2.14551E-01
 -1      1183-1.96908E+00 7.81606E-03-7.43398E-03 6.89264E-03 4.42236E-03-3.80999E-01
 -1      1184-2.40196E+00 2.94337E-04-5.66090E-03-3.04985E-03-2.42775E-03-2.19269E-01
 -1      1185-2.14910E+00 2.52052E-03-2.13267E-03 1.82275E-03 2.49887E-03-2.21540E-01
 -1      1186-1.69574E+00 2.88041E-03 2.70458E-03 3.36032E-03-2.48822E-03-3.89233E-01
 -1      1187-1.99676E+00-7.53330E-04 4.96603E-03 1.49408E-03 1.70650E-03-2.14492E-01
 -1      1188-1.74759E+00 1.34667E-04-3.81740E-03 1.86654E-03-9.58770E-04-2.16946E-01
 -1      1189-1.41081E+00-2.08696E-03 6.63153E-03 4.55528E-03-4.79632E-03-3.92912E-01
 -1      1190-1.58924E+00 2.08883E-03 6.64203E-05 3.89074E-03-1.22723E-03-2.20013E-01
 -1      1191-1.33568E+00-2.64529E-03-4.42315E-03 3.96546E-03 1.94956E-04-2.19580E-01
 -1      1192-1.14226E+00 7.18172E-03-8.01555E-03 9.42087E-03 5.81829E-03-3.92521E-01
 -1      1193-1.17746E+00-2.66964E-03-4.89378E-03-9.90965E-04-2.61939E-04-2.20575E-01
 -1      1194-9.20659E-01-1.02569E-03-7.73476E-03-3.68960E-04 1.49880E-04-2.16681E-01
 -1      1195-8.55562E-01 3.73357E-03 7.15884E-03 7.57803E-03-1.87261E-03-3.97740E-01
 -1      1196-7.42738E-01-3.17698E-03-1.00310E-02 4.95767E-04 1.85349E-05-2.17410E-01
 -1      1197-5.03361E-01 2.19884E-03-7.00596E-03 1.59755E-03-1.91935E-03-2.08042E-01
 -1      1198-5.56558E-01 5.26164E-03-1.52814E-02 3.95408E-03 1.93226E-03-3.98183E-01
 -1      1199-3.02393E-01-7.13735E-03-2.79283E-02-5.58411E-03-5.33916E-04-3.36203E-01
 -1      1200 7.27796E+00-5.55990E-02-6.95614E-02 5.79972E-02-2.02701E-02 1.35558E-01
 -1      1201 6.96670E+00-3.28535E-02-1.02779E-01 1.24442E-02 5.64439E-03 2.72558E-01
 -1      1202 5.23424E+00-1.96193E-02-2.28498E-01 8.47679E-02-6.07692E-02 4.45703E-01
 -1      1203 7.48299E+00-1.06524E-02-9.25560E-03 1.14380E-02-3.89530E-03 5.90306E-03
 -1      1204 7.38482E+00-1.54721E-02-3.28069E-02 9.21355E-03-9.70038E-03 4.41472E-02
 -1      1205 4.54699E+00 4.81330E-04-5.63786E-02 3.28163E-02-1.96699E-02 1.22213E-01
 -1      1206 7.48846E+00-9.83468E-04-9.81746E-04 5.65650E-03-2.46826E-03-2.95119E-02
 -1      1207 7.49514E+00-2.09370E-03-2.95749E-03 3.93297E-03-1.55376E-03-2.27504E-02
 -1      1208 4.68418E+00 3.16678E-03-7.31559E-03 1.53122E-02-5.44326E-03-1.58732E-02
 -1      1209 7.48867E+00-2.87473E-03 1.61435E-03 7.19153E-04 4.58879E-04-4.69294E-02
 -1      1210 7.52973E+00-7.96385E-04 2.11457E-03 3.31817E-03-8.74154E-04-4.35186E-02
 -1      1211 4.73294E+00-5.53534E-04 4.51573E-03 3.53698E-03-4.18441E-03-6.59576E-02
 -1      1212 7.40685E+00 5.56999E-04 2.55482E-03 3.05484E-03 3.12399E-04-5.78298E-02
 -1      1213 7.46328E+00 8.95291E-04 1.86799E-03 1.12458E-03-3.74262E-04-5.28844E-02
 -1      1214 4.74629E+00 9.80582E-04 4.24069E-03-9.84312E-04-9.48053E-04-8.96789E-02
 -1      1215 7.25834E+00-2.85483E-03 4.07077E-03-1.12796E-03 3.54483E-04-6.65649E-02
 -1      1216 7.32718E+00-3.77935E-03 4.05005E-03 2.66284E-03 4.64517E-04-6.51363E-02
 -1      1217 4.64705E+00-7.21380E-04 6.01025E-03 1.54762E-03 1.86136E-03-1.10143E-01
 -1      1218 7.14663E+00-1.37410E-03 4.57644E-03 6.16928E-04-2.33694E-04-7.95258E-02
 -1      1219 7.21875E+00-4.49756E-04 2.55951E-03 3.16997E-05-5.17790E-04-7.65445E-02
 -1      1220 4.53220E+00-1.61233E-03 2.06522E-03-1.43461E-03-1.17111E-03-1.27981E-01
 -1      1221 7.00898E+00 2.99099E-03 6.68775E-04 4.82648E-03-1.86548E-03-8.76799E-02
 -1      1222 7.10484E+00 2.99858E-03 4.25508E-03 9.46837E-04-1.54469E-03-8.45396E-02
 -1      1223 4.46149E+00-4.29567E-04 8.43948E-03-9.83708E-05 2.32126E-05-1.46177E-01
 -1      1224 6.86232E+00-1.22987E-04 2.10193E-03 3.95885E-03 3.14889E-04-9.68808E-02
 -1      1225 6.96296E+00-1.03502E-03 3.60082E-03 4.82233E-03-1.87813E-03-9.58682E-02
 -1      1226 4.37101E+00 7.69942E-04 3.81141E-03 2.82052E-03-3.02923E-03-1.63587E-01
 -1      1227 6.70430E+00-3.18164E-03 4.70562E-03 8.25284E-04 1.52113E-04-1.05657E-01
 -1      1228 6.80952E+00-7.31658E-04 2.85831E-03 3.07134E-03-1.08644E-03-1.05591E-01
 -1      1229 4.28128E+00-8.96296E-05 5.02963E-03 3.94555E-05-1.77313E-03-1.83252E-01
 -1      1230 6.52946E+00-7.88644E-04-2.87425E-04 2.74025E-03 8.74728E-04-1.18886E-01
 -1      1231 6.64258E+00 2.99921E-04 1.34988E-03 3.03150E-04-1.53996E-03-1.16530E-01
 -1      1232 4.18323E+00-6.66450E-04 7.94231E-03-1.25658E-03 1.65990E-03-1.99157E-01
 -1      1233 6.33297E+00 5.04049E-03 7.12062E-04 5.70169E-03-2.96676E-03-1.23210E-01
 -1      1234 6.46733E+00 2.10440E-03 1.11830E-03-4.07021E-04-7.02249E-04-1.20245E-01
 -1      1235 4.06824E+00 2.26668E-03 8.86123E-03-4.65566E-04 5.38160E-05-2.13226E-01
 -1      1236 6.17776E+00-6.39045E-03 1.91337E-03 6.41549E-04 2.00686E-03-1.31898E-01
 -1      1237 6.31325E+00-3.16356E-03 4.52519E-03 7.03418E-03-2.84553E-03-1.32708E-01
 -1      1238 3.99407E+00 2.28762E-03 4.93117E-03 4.34928E-03-4.48770E-03-2.28285E-01
 -1      1239 5.96577E+00 3.70368E-04 1.03828E-03 5.46708E-03 5.10327E-05-1.40241E-01
 -1      1240 6.10921E+00 2.67482E-03-2.27667E-04 1.81326E-03-3.71550E-04-1.34725E-01
 -1      1241 3.91159E+00 1.90425E-03 2.21140E-03-3.48171E-03-2.08345E-03-2.40426E-01
 -1      1242 5.72004E+00 7.77597E-04-6.85068E-04 8.31875E-03 2.70823E-03-1.49761E-01
 -1      1243 5.87773E+00-7.95010E-04 1.93854E-03 6.49238E-03-1.43732E-03-1.45279E-01
 -1      1244 3.76266E+00-2.85863E-04 2.53723E-03 1.35924E-04 1.77327E-03-2.59813E-01
 -1      1245 5.45305E+00-8.10105E-03-5.27963E-05 7.83709E-04 2.38711E-03-1.55600E-01
 -1      1246 5.62492E+00-6.84025E-03 7.08778E-03 8.46273E-03 1.96902E-03-1.56046E-01
 -1      1247 3.59181E+00-2.27037E-03 5.44621E-03 5.32308E-03 4.43181E-03-2.73032E-01
 -1      1248 5.20019E+00-1.13172E-03 6.71447E-03-1.59192E-03-1.35814E-03-1.65299E-01
 -1      1249 5.35748E+00 8.76052E-05-1.85826E-03-3.82281E-04 1.50239E-03-1.63234E-01
 -1      1250 3.39201E+00 5.21915E-04-3.42420E-03-2.70946E-03-2.91325E-03-2.85115E-01
 -1      1251 4.93389E+00 1.80307E-03 3.49285E-03-2.33987E-03-1.21754E-03-1.74331E-01
 -1      1252 5.10315E+00-5.68601E-04 1.17445E-04-2.88795E-03-1.71577E-03-1.70507E-01
 -1      1253 3.23116E+00-9.35310E-04 1.31491E-02-3.28106E-03 3.27444E-03-2.99621E-01
 -1      1254 4.65809E+00-2.51147E-03 1.04672E-03 3.96160E-03 2.83806E-03-1.81918E-01
 -1      1255 4.83334E+00 1.12032E-03 5.25391E-03 5.06221E-03-5.83808E-04-1.81466E-01
 -1      1256 3.05485E+00-1.51861E-03-1.67249E-03-7.02940E-04-2.58996E-03-3.14708E-01
 -1      1257 4.37136E+00 3.51121E-03 2.01860E-03 8.54649E-03 5.46340E-04-1.85857E-01
 -1      1258 4.55872E+00 3.03109E-03-1.96835E-03-1.12036E-03-1.13178E-03-1.81846E-01
 -1      1259 2.87937E+00 2.20077E-03 6.17966E-03-1.13436E-03 1.47531E-03-3.24106E-01
 -1      1260 4.07853E+00-3.64982E-03 5.06933E-03-1.18327E-04 6.07794E-04-1.88726E-01
 -1      1261 4.27170E+00-6.68354E-03 3.69556E-03 7.42093E-03 1.83521E-03-1.88585E-01
 -1      1262 2.70734E+00 2.84433E-05 3.53527E-03 2.14519E-03 3.47421E-03-3.37016E-01
 -1      1263 3.77192E+00 2.84660E-03 8.35175E-04 8.71732E-03-8.35445E-04-1.98046E-01
 -1      1264 3.97838E+00 3.73099E-03 5.52513E-03 5.90080E-03-2.55305E-03-1.95537E-01
 -1      1265 2.52238E+00-3.01218E-03-3.20659E-03-2.59235E-03-2.89084E-03-3.44921E-01
 -1      1266 3.46205E+00-2.87983E-03-1.28535E-04 8.46466E-03 2.18183E-03-2.01638E-01
 -1      1267 3.66801E+00 1.91928E-03 2.50214E-03 7.30195E-03-2.80541E-03-2.01206E-01
 -1      1268 2.32285E+00-1.33633E-03 9.56508E-04-8.96534E-04-3.37783E-03-3.60590E-01
 -1      1269 3.14428E+00-3.13050E-03 3.88794E-03 1.03045E-03 5.14445E-04-2.05476E-01
 -1      1270 3.35708E+00-6.25476E-03 3.59925E-04 7.76145E-03 1.30544E-03-2.03754E-01
 -1      1271 2.13724E+00 1.51283E-03 5.04345E-03-1.61818E-03 3.30852E-03-3.68119E-01
 -1      1272 2.82308E+00 3.05122E-03 4.71818E-04 9.18153E-03 1.25881E-03-2.14692E-01
 -1      1273 3.03527E+00 7.53019E-03 4.17206E-03 4.94091E-03-3.74648E-03-2.09671E-01
 -1      1274 1.93616E+00 1.23410E-03-9.13836E-04-4.62247E-03-2.05337E-03-3.71744E-01
 -1      1275 2.48512E+00-5.92542E-05-2.00413E-03 1.10891E-02 2.91577E-03-2.15527E-01
 -1      1276 2.71144E+00-7.38840E-04 1.92246E-03 8.40268E-03-6.92198E-04-2.12010E-01
 -1      1277 1.72590E+00 5.63334E-04 3.61694E-04 1.25887E-03 1.61371E-03-3.83802E-01
 -1      1278 2.14491E+00 7.37257E-04-2.70526E-03 1.10335E-02-2.81758E-04-2.13748E-01
 -1      1279 2.37929E+00-2.93640E-03 5.27943E-03 1.08564E-02 4.62767E-04-2.14389E-01
 -1      1280 1.52165E+00-7.08301E-04 1.13610E-03 3.20980E-03 4.27666E-03-3.87816E-01
 -1      1281 1.81069E+00-5.12675E-03 4.27082E-03-1.06995E-03 1.88339E-03-2.19790E-01
 -1      1282 2.03405E+00-4.36519E-03-5.43584E-05 1.02453E-02-5.95101E-04-2.21036E-01
 -1      1283 1.30659E+00-2.55065E-03-1.35270E-03 3.32747E-03-3.07510E-03-3.94149E-01
 -1      1284 1.47117E+00 2.29916E-03-3.95827E-04 1.06256E-02 9.49480E-04-2.26256E-01
 -1      1285 1.69600E+00 9.32475E-03 3.95471E-03 5.22863E-03-3.83970E-03-2.21650E-01
 -1      1286 1.09969E+00 1.75044E-03-3.05467E-03-4.45346E-03-2.45549E-03-3.95076E-01
 -1      1287 1.11214E+00 8.39557E-04-3.13875E-03 1.11150E-02 6.29418E-04-2.22768E-01
 -1      1288 1.35278E+00-2.18108E-03 3.50766E-03 9.48317E-03-4.81471E-04-2.21381E-01
 -1      1289 8.78794E-01 6.80113E-04 2.30731E-03 2.96155E-03 2.43282E-03-4.03364E-01
 -1      1290 7.72021E-01-4.23608E-04 8.68425E-04 1.05354E-02 2.68476E-04-2.17050E-01
 -1      1291 1.00833E+00-3.02463E-04 4.96051E-03 1.04277E-02-1.89592E-03-2.21991E-01
 -1      1292 6.72139E-01-2.51956E-04 1.79439E-03 1.47115E-03-1.26911E-03-4.03417E-01
 -1      1293 4.10728E-01-2.55327E-03 1.13064E-02-1.81459E-04 9.40521E-04-2.09614E-01
 -1      1294 6.25893E-01-3.75412E-03 1.08582E-02 9.12452E-03 9.49012E-04-2.19872E-01
 -1      1295 4.31886E-01-1.22472E-03 9.09349E-03 1.85245E-04 2.26915E-03-4.03168E-01
 -1      1296 2.22000E-01 7.43993E-03 2.15029E-02 1.52516E-03-1.03591E-03-3.38172E-01
 -1      1297-1.60222E+00-1.03776E-03-4.03900E-03 6.64409E-03-5.44261E-04-4.15665E-01
 -1      1298-1.47460E+00 1.63300E-03-7.34108E-04 6.35446E-03-2.16671E-04-4.17586E-01
 -1      1299-1.74041E+00-1.89158E-03-4.82896E-04 6.46760E-03 9.27159E-04-4.05127E-01
 -1      1300-1.62118E+00 1.12235E-03 1.73515E-03 6.14246E-03 8.13606E-04-4.08093E-01
 -1      1301-3.26967E-01 3.02618E-03-2.02060E-04 2.76739E-03-8.18106E-04-4.57307E-01
 -1      1302-1.16649E+00-3.76520E-03-7.39254E-03 6.31097E-04-9.87100E-04-4.40322E-01
 -1      1303-1.02117E+00 3.69246E-03 3.89373E-03 1.95418E-03 8.95821E-06-4.29250E-01
 -1      1304-1.02349E+00-1.89665E-03-9.87013E-03 1.97274E-04-1.53182E-03-4.39815E-01
 -1      1305-8.65454E-01 4.81348E-03 7.17092E-03 3.93606E-04-4.51401E-04-4.47459E-01
 -1      1306-2.14006E-01 2.13545E-03-4.18458E-03 7.87548E-04-1.38636E-03-4.82318E-01
 -1      1307 2.34723E-01-3.20402E-04-5.84587E-03-4.30982E-03 4.66689E-03-4.65814E-01
 -1      1308 3.37100E-01 1.28411E-03-2.72008E-03-3.79538E-03-3.31630E-04-4.65242E-01
 -1      1309-8.20880E-02 4.58933E-03 2.99656E-04 1.36377E-03 1.26704E-03-5.17166E-01
 -1      1310 2.46526E-01 3.48030E-03 6.22097E-03-5.61009E-03-6.45444E-05-4.66936E-01
 -1      1311 1.21814E-01 8.48743E-04 1.38161E-02-6.43469E-03 3.11684E-03-4.68092E-01
 -1      1312-2.13247E+00-3.21851E-03-3.41176E-03 8.97566E-04-2.99122E-03-3.67541E-01
 -1      1313-2.02080E+00 2.12465E-03-5.23579E-04 2.19299E-03-4.46765E-03-3.73586E-01
 -1      1314-2.25690E+00-1.10846E-03 1.87606E-03 3.49014E-03 5.63924E-05-3.50069E-01
 -1      1315-2.14499E+00 9.70301E-04 3.91783E-03 2.24787E-03-8.52762E-04-3.59765E-01
 -1      1316-4.40585E-01 1.18857E-03-1.78150E-05 2.61543E-03 1.77129E-05-4.05362E-01
 -1      1317-2.00684E+00-3.54334E-03-5.93302E-03 1.43650E-03 9.01362E-04-3.79777E-01
 -1      1318-1.89361E+00 9.07113E-04 1.01202E-04 2.09676E-03 3.38505E-06-3.83998E-01
 -1      1319-1.87943E+00-2.42585E-03 4.43086E-04 9.00395E-03 2.45151E-03-3.94169E-01
 -1      1320-1.75077E+00 2.36140E-03 6.50276E-03 5.32647E-03 1.44520E-03-3.95513E-01
 -1      1321-3.87221E-01 4.81125E-03-3.87160E-03 1.38683E-03 1.84632E-03-4.29459E-01
 -1      1322-1.45899E+00-2.37357E-03 9.93246E-05 5.11275E-03 1.26710E-03-4.26093E-01
 -1      1323-1.33199E+00 2.88879E-03 5.91288E-03 5.48996E-03 8.85403E-03-4.28586E-01
 -1      1324-1.30631E+00 4.47972E-04-9.33589E-04 1.30987E-03-1.53598E-03-4.22503E-01
 -1      1325-1.17614E+00 1.17327E-03-9.18869E-04 5.58644E-03-5.99575E-03-4.33751E-01
 -1      1326-2.62709E-01-4.21172E-03 5.13640E-03 1.63506E-03 2.70845E-03-4.71436E-01
 -1      1327 3.28181E-01-2.00615E-03 5.93624E-03-4.40303E-03-1.68708E-03-4.56077E-01
 -1      1328 4.24296E-01 1.59184E-03 7.40987E-03-2.17433E-03-2.27130E-04-4.62533E-01
 -1      1329 4.15239E-01-2.79100E-03-1.02151E-03-2.76860E-03-3.43343E-03-4.57485E-01
 -1      1330 5.26138E-01-1.54682E-04 5.63734E-04-2.10752E-03 7.57948E-04-4.53404E-01
 -1      1331-1.48074E-01-2.42512E-03 9.79108E-04 7.85011E-04-4.94188E-04-5.06207E-01
 -1      1332 1.39926E+00-9.13260E-04 3.21986E-03 1.71955E-03-4.26291E-03-3.34343E-01
 -1      1333 1.48925E+00-1.07309E-03 8.92837E-04 3.17155E-03-1.38225E-03-3.16731E-01
 -1      1334 1.34445E+00 1.82469E-03 4.87668E-03 3.96509E-03-2.15549E-03-3.39493E-01
 -1      1335 1.41925E+00 1.82607E-03 2.91875E-03 2.72720E-03 2.48703E-03-3.41741E-01
 -1      1336-4.89014E-01 1.12152E-03-1.64545E-03-1.30090E-03-7.51066E-04-3.72025E-01
 -1      1337-3.37919E+00-5.39668E-04-2.72415E-03 4.19189E-04-7.95648E-04-9.69858E-02
 -1      1338-3.34216E+00 2.76365E-04-2.70934E-03 6.69625E-04-1.26192E-03-1.09674E-01
 -1      1339-6.71795E-01-1.46118E-03-1.12909E-03 7.55715E-04-8.08032E-04-1.27647E-01
 -1      1340-3.34702E+00-1.45837E-03-4.42084E-03 9.56532E-04 3.48613E-04-1.20395E-01
 -1      1341-3.30404E+00 2.95682E-04-2.49049E-03 9.90977E-04-2.81225E-04-1.29628E-01
 -1      1342-3.23964E+00-1.24246E-03-4.67770E-03 1.88145E-03-1.21785E-03-1.63994E-01
 -1      1343-3.18809E+00 9.81180E-04-2.31065E-03 2.11465E-03 2.07498E-03-1.72026E-01
 -1      1344-3.29917E+00-8.49153E-04-2.00807E-03 3.42103E-03 7.02230E-04-1.42450E-01
 -1      1345-3.24232E+00 1.44885E-03 1.27148E-04 2.07792E-03 4.69967E-04-1.51134E-01
 -1      1346-6.63537E-01 3.07908E-04-9.18833E-04-5.19567E-04-5.09636E-04-1.73627E-01
 -1      1347 1.98878E+00-3.60878E-04 1.12002E-03 1.22383E-03-8.45920E-03-4.18436E-02
 -1      1348 1.99309E+00 9.06007E-03-9.59837E-03 1.02318E-02-1.64251E-02-2.74301E-03
 -1      1349 1.99523E+00-1.47583E-03 1.41744E-03 9.33763E-04-3.94164E-03-6.61247E-02
 -1      1350-6.95178E-01-4.49783E-04 2.71822E-03 1.72164E-03-7.80373E-03-5.54797E-02
 -1      1351 2.03468E+00-7.52923E-04 1.03499E-03-3.88481E-05-1.54501E-03-8.50628E-02
 -1      1352-2.96982E+00-1.78300E-03-5.84583E-03 2.19511E-03-1.50187E-03-2.42454E-01
 -1      1353-2.89586E+00 1.57550E-03-1.60579E-03 2.71947E-03 3.32210E-03-2.48647E-01
 -1      1354-3.04260E+00-3.10670E-05-3.44759E-03 3.94455E-03 4.78516E-05-2.22332E-01
 -1      1355-2.97650E+00 1.46414E-03-2.34060E-03 3.34119E-03-2.38685E-04-2.29480E-01
 -1      1356-6.11161E-01 1.37150E-03-8.43193E-04-6.84500E-04-3.11724E-04-2.60230E-01
 -1      1357-2.78616E+00-6.30362E-04-4.79378E-03 2.03067E-03 2.63252E-03-2.75363E-01
 -1      1358-2.68622E+00 2.47798E-03 2.76313E-03-2.45883E-03 1.17100E-03-2.78594E-01
 -1      1359-5.09769E-01-1.53563E-03 3.59258E-03 2.92395E-05-8.07033E-04-3.17423E-01
 -1      1360-2.69203E+00-2.59435E-03-5.51918E-03-1.37637E-03-1.76930E-03-2.86619E-01
 -1      1361-2.60182E+00 4.77529E-03 1.78362E-03 1.80704E-03-1.75682E-03-3.01388E-01
 -1      1362-3.17735E+00 4.52313E-04-1.19016E-03 6.51703E-05-6.37101E-05-1.77775E-01
 -1      1363-3.11832E+00 2.04589E-03 8.01003E-04 1.66897E-03-2.22094E-03-1.89802E-01
 -1      1364-3.11855E+00-5.74727E-04-3.28434E-03 1.66944E-03-4.65638E-04-2.01145E-01
 -1      1365-3.05208E+00 9.51489E-04-2.08910E-03 2.49741E-03-1.53464E-03-2.10506E-01
 -1      1366-6.39837E-01 1.34276E-03 6.35125E-05 2.07785E-03-5.68305E-04-2.17826E-01
 -1      1367 1.94407E+00 5.00872E-03-2.19441E-02 2.13525E-02-4.11835E-02 6.57677E-02
 -1      1368 1.87865E+00-8.13817E-03-5.99720E-02 2.42105E-02-5.50231E-02 1.69941E-01
 -1      1369-7.08761E-01 2.00996E-03-4.34194E-02-8.48090E-04-9.18114E-02 1.65082E-01
 -1      1370 1.89450E+00-3.45903E-02-7.98562E-02 5.31420E-02-8.64432E-02 2.50393E-01
 -1      1371 5.35538E-01-1.05454E-01-7.86383E-02 8.55711E-02-1.31650E-01 4.21802E-01
 -1      1372 3.02589E+00-1.81708E-01-2.85557E-01 8.24767E-02-1.32580E-01 3.89598E-01
 -1      1373-3.37505E+00-7.06388E-03 3.46424E-03-9.17769E-03-1.42951E-02-3.26089E-03
 -1      1374-3.39632E+00 1.70636E-03-5.91848E-03 1.89111E-03-4.66078E-03-4.51417E-02
 -1      1375-7.23158E-01 2.07076E-03-3.84208E-03 1.23752E-04-4.23700E-02 2.11115E-02
 -1      1376-3.37946E+00-7.53183E-03 7.08770E-03-1.68730E-02-3.82951E-02 6.34242E-02
 -1      1377-3.32821E+00 8.27600E-03 2.77444E-02-2.05017E-02-5.35883E-02 1.59576E-01
 -1      1378-3.90746E-01 8.15772E-04-3.36499E-03 1.78220E-04 3.07728E-03-4.67995E-01
 -1      1379-2.36479E-01 5.80473E-03-7.63922E-03 1.59544E-03 8.92341E-04-4.62325E-01
 -1      1380-5.71461E-02 6.88987E-03-5.22368E-03 4.18837E-04 9.67489E-04-5.16035E-01
 -1      1381-2.19109E-01-1.43155E-03-9.91170E-03 6.98634E-03-1.67840E-03-4.80449E-01
 -1      1382-2.11082E-01 6.29410E-04-2.24318E-02-4.73989E-03 5.81837E-03-4.51017E-01
 -1      1383-8.05266E-02-1.04869E-02-5.68034E-03 3.82870E-03 6.69122E-03-5.19336E-01
 -1      1384 8.52430E-01-3.29161E-03-2.82269E-03-3.24838E-03-2.22536E-03-4.18639E-01
 -1      1385 9.58316E-01 3.66389E-03 3.26909E-03-4.97561E-03 2.07092E-03-4.19967E-01
 -1      1386 7.72578E-01-5.33591E-03 1.28278E-03-3.22153E-03-2.98482E-03-4.26750E-01
 -1      1387 8.86514E-01 4.73347E-03 9.40978E-03 5.55826E-04-3.55264E-04-4.21819E-01
 -1      1388-3.01392E-01 3.30099E-03 1.82227E-03 3.54599E-04 3.44207E-04-4.66461E-01
 -1      1389-2.48719E+00-8.82789E-04-6.89356E-04 7.46348E-03 2.30713E-03-3.26867E-01
 -1      1390-2.38415E+00 2.46093E-03 4.19032E-03 4.68268E-03 1.01245E-03-3.31321E-01
 -1      1391-2.61411E+00-2.56546E-03-7.40347E-03 1.40629E-03-4.89922E-06-3.06204E-01
 -1      1392-2.49105E+00 3.78877E-03-1.97779E-03 3.34962E-03-2.57906E-03-3.13758E-01
 -1      1393-5.07172E-01 3.60136E-03-3.63802E-03 9.41486E-04 1.44653E-03-3.51550E-01
 -1      1394-5.43341E-01-2.31681E-03-7.10626E-04 1.67513E-03-8.65530E-05-4.54100E-01
 -1      1395-4.05005E-01-9.39473E-04 3.32503E-03 1.45517E-03-1.73362E-03-4.59148E-01
 -1      1396-7.06864E-01 8.07882E-04-6.52757E-03 5.07268E-05 5.78836E-04-4.61414E-01
 -1      1397-5.61456E-01 5.90618E-03-1.78851E-03 3.70037E-03 5.08240E-03-4.53607E-01
 -1      1398-1.06529E-01-3.73603E-03 6.52096E-03 3.57237E-03 1.09071E-03-4.96970E-01
 -1      1399 1.18194E+00-2.94181E-03-1.83816E-03-1.55472E-03 1.08450E-03-3.76054E-01
 -1      1400 1.27266E+00 3.42074E-03 1.14084E-03-1.27772E-03 3.37245E-03-3.68656E-01
 -1      1401 1.10913E+00-6.90765E-04-9.20966E-05-3.05816E-03 4.32306E-03-3.90433E-01
 -1      1402 1.20028E+00 5.26966E-04 2.74989E-03-1.83943E-03 2.90566E-04-3.87049E-01
 -1      1403-4.09010E-01-2.90655E-03 6.60344E-04 1.44011E-03-4.87581E-04-4.18925E-01
 -1      1404 6.01288E-01-1.02429E-03 3.12838E-03-2.33701E-03 3.78810E-03-4.44822E-01
 -1      1405 7.00515E-01 1.01585E-03 6.15874E-03-2.44105E-03 1.64936E-04-4.47898E-01
 -1      1406 6.80958E-01-2.60105E-03-7.70748E-03-3.62050E-03 8.12089E-04-4.37704E-01
 -1      1407 7.85361E-01 2.29131E-03-1.08861E-03-7.81532E-03 3.52517E-03-4.37108E-01
 -1      1408-2.41000E-01-3.50338E-03 8.55438E-04 4.78779E-03-1.59418E-04-4.85647E-01
 -1      1409 1.02260E+00-3.48380E-03-2.22538E-03-2.20700E-03-3.66294E-03-3.98853E-01
 -1      1410 1.12085E+00 2.20537E-03 1.33254E-03-1.53250E-03-1.00777E-03-3.91944E-01
 -1      1411 9.45730E-01-1.49582E-03 1.05353E-03-7.30389E-03-3.30086E-03-4.14682E-01
 -1      1412 1.04170E+00 1.93360E-03 4.32821E-03-1.44204E-03-1.13956E-03-4.03467E-01
 -1      1413-3.55335E-01 2.32993E-03-2.30227E-03 1.08382E-03-7.75533E-04-4.43154E-01
 -1      1414 1.91283E+00-6.63218E-04 2.00159E-03-1.84437E-04-2.97167E-03-1.51802E-01
 -1      1415 1.94683E+00-1.04544E-03 1.98357E-03 1.58873E-03-8.01727E-04-1.39421E-01
 -1      1416 1.94634E+00-1.03117E-03 8.79386E-04-3.37392E-04 2.04477E-03-1.31818E-01
 -1      1417 2.02153E+00 5.07861E-04 3.10715E-03-4.03240E-04 8.80343E-04-1.23043E-01
 -1      1418-6.74372E-01 1.07115E-03-1.85677E-03 5.52807E-04 3.66636E-04-1.49300E-01
 -1      1419 1.71263E+00 1.58335E-03 3.92934E-03 3.42071E-03-1.45687E-03-2.44410E-01
 -1      1420 1.76764E+00 3.14463E-03 5.82450E-03 3.51967E-04 1.52610E-03-2.38693E-01
 -1      1421 1.69508E+00-3.24379E-03-2.99139E-03-5.22915E-04-2.87883E-04-2.70420E-01
 -1      1422 1.70757E+00-1.16501E-04 4.09227E-04-1.51029E-03-3.56960E-03-2.58708E-01
 -1      1423-5.81730E-01-1.54397E-03 4.52134E-03 1.24672E-03-4.68526E-05-2.72219E-01
 -1      1424 1.50026E+00-1.81136E-03-3.86634E-03-8.77349E-04 6.63368E-03-3.17771E-01
 -1      1425 1.58476E+00 1.61886E-03 9.92660E-04-1.60520E-03 1.27024E-03-3.12255E-01
 -1      1426-5.05099E-01-2.66841E-03-2.05588E-03 2.03854E-03 5.47692E-04-3.39053E-01
 -1      1427 1.58481E+00-2.32588E-03-2.94862E-03-1.37058E-03 1.25066E-04-3.02631E-01
 -1      1428 1.66588E+00 6.11199E-04-1.23489E-03-3.59844E-03 3.43349E-03-2.95628E-01
 -1      1429 1.84009E+00-2.09116E-03-9.67245E-04-4.85788E-04-4.78711E-05-1.94669E-01
 -1      1430 1.88171E+00-5.61110E-05 1.26305E-03-6.71757E-04-2.97568E-03-1.82410E-01
 -1      1431 1.88595E+00 7.65116E-04 3.75429E-03 2.03166E-03-1.46430E-03-1.67780E-01
 -1      1432 1.92146E+00 1.21194E-03 2.74367E-03 1.35206E-03-3.25813E-04-1.62748E-01
 -1      1433-6.44521E-01-1.03454E-03 3.24719E-03 1.12539E-03-4.99995E-04-1.90102E-01
 -1      1434 1.75261E+00 3.90600E-04 1.24098E-03-3.03020E-04-5.67537E-04-2.28774E-01
 -1      1435 1.80934E+00 1.68250E-03 2.02708E-03-1.22074E-03 1.98574E-04-2.23176E-01
 -1      1436 1.80098E+00-7.86091E-04 8.14938E-04-3.03751E-03-2.10545E-03-2.14147E-01
 -1      1437 1.84877E+00 7.97731E-04 2.11965E-03-1.72485E-03 1.00739E-04-2.02596E-01
 -1      1438-6.21143E-01 2.87606E-03-1.37578E-03 7.21356E-04-3.12059E-04-2.39436E-01
 -1      1439-1.93789E+00-3.15755E-02-9.46591E-02 2.78080E-02-1.47427E-01 3.70735E-01
 -1      1440-3.25636E+00 4.79917E-02 2.16393E-02-5.68798E-02-9.20377E-02 2.36090E-01
 -1      1441-4.44678E+00 1.17577E-01 9.89647E-02-3.04405E-02-1.61807E-01 4.11972E-01
 -1      1442 1.42292E-02 4.24967E-03 5.34872E-03 2.51908E-03 9.30425E-03-5.25699E-01
 -1      1443 1.26480E-01-6.53879E-03 1.81485E-02 7.00642E-03 5.83481E-03-4.52609E-01
 -1      1444 1.21644E-01 6.84379E-03 7.39572E-03-9.06386E-03 2.33858E-03-4.74911E-01
 -1      1445-3.39428E+00-1.82027E-03-2.20076E-03 1.00961E-03-2.53625E-03-6.28202E-02
 -1      1446-3.39271E+00-9.32208E-04-1.10377E-03 5.14555E-04-2.70019E-03-8.33158E-02
 -1      1447-6.83518E-01-1.27632E-03-1.77663E-03 1.22187E-03-2.30446E-03-1.00443E-01
 -1      1448 2.05150E+00-9.73526E-04 1.41863E-03-7.85173E-04-3.37645E-04-9.75969E-02
 -1      1449 2.02521E+00-1.19690E-03 1.65887E-03-5.37906E-04-7.61470E-04-1.10598E-01
 -1      1450 5.00356E-01-2.08180E-03-2.40371E-03-2.65486E-03-8.50639E-04-4.55203E-01
 -1      1451 6.01462E-01 1.61155E-03-4.44170E-03-3.25602E-03 1.43239E-03-4.47520E-01
 -1      1452 1.25769E+00-5.68660E-04-5.06605E-03 5.61256E-04 4.86537E-04-3.63957E-01
 -1      1453 1.34164E+00 1.63540E-03 6.03796E-04 9.56504E-04-5.84826E-03-3.55307E-01
 -1      1454-2.37663E+00-1.18219E-03-5.01365E-03 3.44864E-03-1.61824E-03-3.44551E-01
 -1      1455-2.26814E+00 1.78283E-03-1.50238E-03 4.00444E-03 3.27562E-03-3.48612E-01
 -1      1456-4.53370E-01-2.34482E-03 5.49696E-03 1.25467E-03 4.94868E-04-3.77513E-01
 -1      1457-2.87930E+00 6.60774E-04-6.95951E-04 3.60430E-04 3.04402E-04-2.50110E-01
 -1      1458-2.81664E+00 1.43816E-03-8.13978E-04 1.99747E-04-9.16916E-04-2.65492E-01
 -1      1459-5.49570E-01 6.69858E-04-1.61977E-03 1.80115E-03-4.85905E-04-3.01781E-01
 -1      1460 1.73564E+00 1.39958E-03 7.52547E-03-5.24934E-04-2.89399E-03-2.74093E-01
 -1      1461 1.66734E+00-1.72315E-03 6.29738E-03-1.50039E-03-3.55797E-03-2.84518E-01
 -1      1462-8.55442E-01-3.05485E-03-9.58004E-04 3.48942E-03-2.85229E-03-4.47997E-01
 -1      1463-7.18026E-01-2.49419E-04-1.75735E-03 2.07820E-03-4.52881E-03-4.56467E-01
 -1      1464-1.75881E-01 1.58593E-03-5.20540E-03 7.60277E-04 4.06731E-04-4.99169E-01
 -1      1465-5.50263E+00 8.46789E-04-1.68222E-03 4.98368E-02 6.58062E-04-2.05932E-02
 -1      1466-3.70530E+00-2.85261E-03 7.79113E-04 5.64490E-02-3.27818E-04-1.44121E-02
 -1      1467-2.89678E+00-2.28008E-03-3.85621E-03-8.55428E-03 3.09368E-04-1.44668E-02
 -1      1468-1.27781E+00 3.63236E-03 3.19959E-03 6.04284E-02 8.57726E-04-1.94453E-02
 -1      1469-6.72330E+00-3.76463E-03-1.02344E-02 4.74083E-02 2.36240E-04-9.85277E-03
 -1      1470-4.92781E+00-7.41936E-04 2.27972E-03-8.51117E-03 3.46134E-04-1.66215E-02
 -1      1471-7.51902E+00-2.75398E-03 1.05812E-03 4.56522E-02 1.01887E-03-1.80961E-02
 -1      1472-1.11730E+01-2.14092E-03-1.03445E-03-4.18295E-03-5.55393E-04-1.74704E-03
 -1      1473-1.02186E+01-2.80956E-03-1.49770E-04 2.13235E-02 7.47193E-04-8.80956E-03
 -1      1474-1.07198E+01 5.23733E-05-3.76666E-03 1.73499E-02 1.17248E-03-7.19139E-03
 -1      1475-9.97433E+00-2.67594E-03 3.38269E-04-4.64524E-03-3.41011E-06-9.96155E-03
 -1      1476-8.52667E+00-9.39940E-04 4.05144E-03 3.93272E-02-8.38912E-04-4.58477E-03
 -1      1477-9.82703E+00-1.68661E-03-2.60147E-03 2.51382E-02 4.87002E-04-6.98314E-03
 -1      1478-1.15071E+01-2.14823E-01 1.58458E-02 1.33124E-01-2.38761E-03 1.81815E-02
 -1      1479-6.32962E+00-2.30008E-03 1.82176E-03-7.05955E-03 1.70107E-03-1.39106E-02
 -1      1480-2.27064E+00 8.45651E-04 1.04001E-02 6.16232E-02 4.21874E-06-1.09931E-02
 -1      1481-8.22394E-01 3.44771E-03-3.45712E-04-2.11392E-03-1.01111E-03-7.16838E-03
 -1      1482-8.37857E+00-1.31421E-03 4.47477E-03-9.42181E-03-7.37899E-04-3.76148E-03
 -1      1483-1.87444E+00 2.41924E-03 9.92878E-04 9.93910E-04-1.71318E-03-3.14886E-02
 -1      1484-7.58119E+00-3.93414E-03-4.13254E-03-6.70453E-03-1.14923E-03-1.37621E-02
 -1      1485-9.11506E+00 4.29702E-03 4.68153E-03 2.56606E-02-1.87115E-03-1.94058E-02
 -1      1486-1.06708E+01-6.40151E-03-7.82003E-03 1.46310E-03-1.84124E-03-1.47481E-02
 -1      1487-9.37973E+00-1.66158E-03-1.68451E-03-6.52628E-03-2.60255E-04-1.07376E-02
 -1      1488-1.08947E+01-1.15383E+00 7.45929E-01-3.41875E-01 9.20335E-03 6.07475E-03
 -1      1489-4.46794E-01-3.97828E-02-1.10174E-01 4.67771E-02-1.79169E-03 1.58212E-02
 -1      1490-3.94306E+00-7.53387E-04 1.76938E-03-1.09094E-02-1.23924E-03-2.39477E-02
 -1      1491-4.61372E+00-3.68246E-03-5.37841E-03 5.13302E-02 4.34926E-04-1.75781E-02
 -1      1492-1.05164E+01-1.09654E-03 1.08844E-03 1.53949E-02 1.42369E-05-6.49272E-03
 -1      1493-1.13975E+01-2.68089E-03-5.25159E-03-1.32722E-02-2.43890E-03-2.75219E-03
 -1      1494-1.14890E+01-3.69772E-02-7.51877E-03-3.05294E-03-1.41491E-04-1.87104E-02
 -1      1495-1.12363E+01-1.86850E-01 2.34159E-02-7.21350E-03-3.11049E-03 2.02247E-03
 -1      1496-1.34737E+00 1.44518E-03 1.06519E-03-7.28099E-03-9.78559E-05-2.37758E-02
 -1      1497-5.91562E+00-8.46871E-03-1.20546E-02 3.88915E-02 3.90783E-03-2.75529E-02
 -1      1498-6.36018E+00 5.76883E-04 9.09030E-03 5.00106E-02-4.06217E-04-1.41675E-02
 -1      1499-6.75975E+00-4.45793E-03-2.86061E-03 2.62011E-02 2.24521E-03-2.16289E-02
 -1      1500-3.21577E+00-3.14013E-03-1.41301E-03 5.67369E-02 1.90192E-03-1.54944E-02
 -1      1501-5.40454E+00-2.07731E-03-1.59587E-03-9.20627E-03 7.89919E-04-1.06332E-02
 -1      1502-7.85090E+00-7.44789E-03-1.05155E-02 3.04814E-02 4.28975E-03-2.86936E-02
 -1      1503-8.20765E+00-1.25342E-03 1.43559E-03 3.87923E-02 9.20939E-05-1.26107E-02
 -1      1504-8.61922E+00-3.34408E-03-4.28501E-03 2.07585E-02-1.40968E-03-2.36020E-02
 -1      1505-2.38373E+00 1.66292E-05-2.14438E-04-9.89668E-03-4.15381E-04-2.32552E-02
 -1      1506-9.37797E+00-1.76410E-03 1.68326E-03 2.97489E-02 7.50262E-04-1.15540E-02
 -1      1507-3.43328E+00 2.14240E-03 1.24769E-03 4.13868E-03-1.40261E-03-2.70245E-02
 -1      1508-9.67449E+00-8.43257E-03-8.76005E-03 1.33083E-03-2.28536E-03-1.71370E-02
 -1      1509-1.00393E+01 1.93104E-03 2.06541E-03 1.78193E-02-1.25521E-03-1.41217E-02
 -1      1510-9.60604E+00-2.82764E-03-4.02942E-03 2.94293E-02 3.15632E-05-4.56415E-03
 -1      1511-1.00400E+01-3.05558E-03-2.39545E-03 1.47824E-02-2.64276E-04-1.22167E-02
 -1      1512-1.73858E+00-7.00422E-03-1.38535E-02 4.31712E-02 6.62368E-03-3.93012E-02
 -1      1513-7.99202E+00-3.31067E-03 1.33521E-04-7.35189E-03 1.61663E-04-1.17897E-02
 -1      1514-1.03649E+01-3.97321E-03-6.61309E-03 1.28595E-02 1.94582E-03-1.15294E-02
 -1      1515-1.06320E+01-3.87847E-03-2.41309E-03 1.13038E-02-1.91782E-04-1.33191E-02
 -1      1516-1.12932E+01-1.28606E-03-3.10484E-03-5.74702E-03-5.54756E-04-1.39369E-03
 -1      1517-1.06171E+01-9.14536E-04-3.37116E-03 1.67081E-02 6.85322E-04-1.41875E-03
 -1      1518-8.79799E+00-3.72613E-03-6.92837E-03 3.57248E-02-1.97925E-04-5.98210E-03
 -1      1519-4.18707E+00 2.32357E-04 6.80516E-03 5.93014E-02 4.39500E-04-3.31681E-03
 -1      1520-5.07079E+00-4.03924E-04 1.54606E-03 5.66179E-02 1.05048E-04-5.88958E-03
 -1      1521-7.15113E+00 6.88389E-03 7.52298E-03 3.47233E-02-3.48912E-03-2.61684E-02
 -1      1522-2.71232E+00 2.73225E-04-1.14303E-02 5.68698E-02 1.88037E-03-1.58604E-02
 -1      1523-4.41286E+00-8.66913E-03-1.17999E-02 4.62131E-03-5.45889E-03-3.90054E-02
 -1      1524-5.86801E+00-2.50764E-03-6.27971E-04-8.93190E-03 5.15010E-04-1.29878E-02
 -1      1525-1.11300E+01-2.21954E-02-4.71997E-03 1.44221E-03-1.83841E-03-8.50856E-03
 -1      1526-1.07974E+01-2.96419E-02-5.88916E-03 1.25203E-02 2.46496E-03-5.25633E-03
 -1      1527-1.11845E+01-1.01383E+00 1.05632E+00 2.96883E-01-2.54333E-02 7.25914E-02
 -1      1528-7.20437E+00-1.26955E-03 4.27089E-04-1.05412E-02-4.24588E-04-1.14860E-02
 -1      1529-6.75675E+00-5.85395E-05 4.09550E-04-7.51843E-03-3.92763E-04-1.12495E-02
 -1      1530-1.08754E+01-2.65946E-03-4.48705E-05-3.50543E-03-2.73466E-04-7.27691E-03
 -1      1531-1.10451E+01-2.55243E-03-5.81656E-04-2.62718E-03 4.06438E-04-5.66568E-03
 -1      1532-1.04647E+01-2.27371E-03-3.19547E-03-4.49807E-03-1.51194E-03-8.41094E-03
 -1      1533-8.95205E+00-6.35172E-03-2.09637E-03 1.58450E-02-1.45084E-04-2.37227E-02
 -1      1534-8.71359E+00-2.45017E-03-4.95415E-03-5.38315E-03-1.44210E-03-1.49326E-02
 -1      1535-9.79755E+00-4.27408E-03-1.44003E-03 1.51106E-02-2.65816E-04-1.23105E-02
 -1      1536-1.04744E+00 2.59373E-03-1.08318E-02 3.17687E-02-3.89310E-04-3.69844E-02
 -1      1537-1.57663E+00 9.21692E-04 2.01908E-03 2.98847E-02-1.24628E-03-4.01764E-02
 -1      1538-4.07320E+00-2.12810E-03 2.94852E-04 2.47227E-02 1.92770E-03-3.88828E-02
 -1      1539-4.52949E+00 8.37364E-05-5.76583E-04 3.16002E-02-2.11038E-03-2.50236E-02
 -1      1540-4.99629E+00-2.61767E-03-8.74793E-04 2.77518E-02 7.19660E-04-2.20009E-02
 -1      1541-2.05887E+00-1.88561E-04-1.65812E-03 2.86290E-02 5.66336E-03-4.12420E-02
 -1      1542-3.08795E+00-1.92483E-03 2.36195E-03 2.57769E-02-1.39962E-03-3.75716E-02
 -1      1543-7.53195E+00-9.25105E-05-4.15818E-03 2.79094E-02-4.09510E-04-2.89708E-02
 -1      1544-5.92116E+00-2.82395E-03-1.33812E-03 3.09979E-02-5.25786E-04-3.34792E-02
 -1      1545-1.09068E+01-2.66888E-03-2.52930E-03 7.74082E-03-6.61985E-04-6.32818E-03
 -1      1546-1.10268E+01-1.25195E-03-1.16087E-03 5.76229E-03 1.02763E-03-8.61329E-03
 -1      1547-3.56231E+00-2.39872E-04-2.84795E-03 2.49435E-02 1.45734E-03-4.12363E-02
 -1      1548-5.45196E+00-1.73400E-03-3.46102E-03 2.87953E-02 1.01584E-03-2.32406E-02
 -1      1549-9.26865E+00-4.97595E-03-5.96398E-04 1.49918E-02-5.73571E-04-2.25148E-02
 -1      1550-2.57279E+00-1.14772E-04 2.18373E-03 2.97779E-02-1.49061E-03-2.75710E-02
 -1      1551-9.51738E+00-1.57989E-03-2.52551E-03 1.78856E-02-7.73068E-04-1.80506E-02
 -1      1552-7.94706E+00-3.08249E-03-1.14383E-03 2.58566E-02-1.32383E-03-2.94955E-02
 -1      1553-7.18382E+00-2.21901E-03 2.90365E-03 2.65044E-02-1.73508E-03-3.18580E-02
 -1      1554-6.33358E+00-1.61704E-03-3.16122E-03 2.46710E-02 3.39157E-03-2.35607E-02
 -1      1555-9.05648E+00-4.23874E-03-3.23350E-03-1.45827E-03 1.65528E-04-2.14658E-02
 -1      1556-8.28626E+00-2.74002E-03-1.79431E-03 1.95022E-02 1.78592E-03-2.01587E-02
 -1      1557-1.07746E+01-3.60189E-03-1.83332E-03 7.70327E-03 1.20962E-03-7.73224E-03
 -1      1558-1.02413E+01-1.80601E-03 2.70601E-03-6.52857E-03-6.50842E-04-2.84925E-03
 -1      1559-1.02652E+01-4.48731E-03-1.54842E-03 1.15276E-02-3.94948E-04-1.61393E-02
 -1      1560-1.04386E+01-2.42891E-03-2.91450E-03 1.26795E-02-4.33620E-04-1.23280E-02
 -1      1561-4.92636E-01-4.50843E-02-1.15293E-01 1.21151E-02 6.65494E-04 3.56117E-02
 -1      1562-1.08622E+01-2.12321E-01 1.36876E-02-1.53494E-01-1.61106E-03 2.94154E-03
 -1      1563-7.74415E-01 6.84155E-03-4.59631E-04 5.06854E-02 8.12583E-04-1.06805E-03
 -1      1564-1.11556E+01-6.62099E-01 6.73350E-02-1.55633E-02-8.59415E-03 5.04597E-02
 -1      1565-1.15430E+01-5.32306E-01 8.29415E-01 8.24608E-01-4.42223E-02 8.49780E-03
 -1      1566-1.04929E+01-4.73217E-01 7.12496E-01-8.35616E-01 6.75420E-02 1.17974E-01
 -1      1567-4.62392E-01-2.26341E-02-4.77387E-02-1.01367E-02-3.52534E-04 2.12945E-02
 -1      1568-4.53853E-01-2.50811E-02-6.10075E-02 4.71420E-02-3.11547E-03 2.05801E-02
 -1      1569-7.34290E-01-7.11946E-03 3.76908E-03 3.40484E-02 1.18707E-03 1.05376E-03
 -1      1570-1.06780E+01-2.23455E+00-9.11043E-01-1.06121E+00-1.80125E-02-9.39559E-01
 -1      1571-1.11915E+01-1.80767E+00-9.64632E-01-1.68270E+00-2.65756E-01-5.03431E-01
 -1      1572-9.76616E+00 1.50287E-01 3.87929E-01-3.25134E-01 1.50058E-01 2.34859E-01
 -1      1573-1.25359E+01-1.99120E+00-1.16198E+00 1.66842E+00 2.39529E-01-7.26271E-01
 -1      1574-1.18245E+01-2.62812E+00-1.38286E+00 1.04492E+00 1.05985E-01-1.14064E+00
 -1      1575-1.07884E+01 2.34200E-01 4.40974E-01 2.59078E-01-1.52539E-01 2.84563E-01
 -1      1576-3.10179E-01-2.37428E-02 7.85977E-03 3.44172E-02 1.05749E-02-3.20317E-02
 -1      1577-3.46121E-01-4.48557E-02-1.63998E-02 5.04421E-02 6.65629E-04-2.57200E-02
 -1      1578-5.17518E-01-7.42412E-03-2.84955E-02 2.47343E-02-2.86370E-03 2.40897E-02
 -1      1579-3.47125E-01-2.53606E-02-1.51734E-02-9.40114E-03-1.39112E-03-2.88475E-02
 -1      1580-3.24749E-01-2.04818E-02 7.82624E-03-1.01255E-02-1.26547E-02-2.98282E-02
 -1      1581-5.44017E-01-7.75488E-03-1.46488E-02-9.26190E-03-2.44760E-05 1.98131E-02
 -1      1582-1.13259E+01-2.74134E+00-1.20190E+00-2.58341E-01 2.25895E-02-1.07860E+00
 -1      1583-1.11427E+01-2.74826E+00-1.30962E+00-7.13761E-01 6.69102E-02-1.05042E+00
 -1      1584-1.07327E+01-9.44423E-01 7.67950E-01-6.21492E-01 2.16638E-02 9.25305E-02
 -1      1585-1.15530E+01-2.62794E+00-9.83357E-01 6.37265E-01-4.64384E-02-9.96061E-01
 -1      1586-1.16489E+01-2.83627E+00-1.39516E+00 1.50549E-01 4.77139E-02-1.13777E+00
 -1      1587-1.09946E+01-1.20610E+00 7.76899E-01-2.38556E-02 9.20428E-03 5.45194E-02
 -1      1588-1.12648E+01-8.58163E-01 9.87232E-01 5.50405E-01-1.28850E-02 1.09302E-01
 -1      1589-3.33511E-01-4.95697E-02-5.83939E-02 4.57904E-02-2.04215E-03-2.91873E-02
 -1      1590-3.26508E-01-2.45852E-02-4.63140E-02 3.09424E-02 3.75780E-04-3.41525E-02
 -1      1591-4.53260E-01-4.01438E-02-8.63046E-02 4.74236E-02 7.10346E-03 1.59728E-02
 -1      1592-3.38585E-01-2.48850E-02-3.02138E-02 1.85629E-02 3.92453E-03-2.05531E-02
 -1      1593-3.50841E-01-3.48504E-02-5.82636E-02 1.21355E-02 6.36507E-04-2.72936E-02
 -1      1594-4.66276E-01-3.05013E-02-8.54169E-02 2.88897E-02-6.21165E-03 2.07627E-02
 -1      1595-4.73368E-01-3.52146E-02-8.58248E-02 4.06991E-03-3.96587E-03 2.17386E-02
 -1      1596-1.04215E+01-2.36430E-01-1.12344E-01-2.10433E-01-7.63322E-02 3.82762E-02
 -1      1597-1.05783E+01-7.58593E-02-3.14693E-02-7.01748E-02 4.11021E-03-7.25765E-03
 -1      1598-1.05094E+01-3.94564E-01 7.92008E-02-4.63746E-01 1.73956E-02 5.89755E-02
 -1      1599-1.05568E+01-3.09750E-02-1.55531E-02-8.37450E-03-1.05242E-02 8.72342E-03
 -1      1600-1.05627E+01-7.15015E-03-7.76329E-03 1.09776E-02 1.12753E-03-4.40321E-03
 -1      1601-1.08274E+01-9.47739E-02 3.37860E-03-4.63719E-02 1.43024E-02 5.23994E-03
 -1      1602-1.05305E+01 3.20721E-04-8.11872E-04 1.24869E-02-2.39373E-03-2.84997E-03
 -1      1603-1.05115E+01-1.26281E-03-3.36653E-03 1.35355E-02-5.74720E-04-6.79353E-03
 -1      1604-1.07580E+01-1.68360E-02-5.33843E-03 1.69145E-02 1.69589E-03-5.00616E-03
 -1      1605-1.04633E+01-3.08077E-03-4.10371E-03 1.11210E-02 7.87383E-04-4.60553E-03
 -1      1606-1.04157E+01-3.78122E-04-3.26855E-03 1.29962E-02 1.56493E-04-1.80169E-03
 -1      1607-1.06801E+01-2.28935E-03-4.05461E-03 1.61808E-02-9.40437E-04-5.56601E-03
 -1      1608-1.03653E+01-1.36906E-04 1.18486E-03 1.12777E-02 9.39493E-05-4.35594E-03
 -1      1609-1.03033E+01-8.57109E-04-6.29947E-04 1.24216E-02-1.49610E-03-1.00138E-02
 -1      1610-1.05677E+01-1.70375E-03-7.12442E-05 1.51664E-02 1.20171E-03-3.40124E-03
 -1      1611-1.02293E+01-3.19188E-04-3.26952E-03 1.28881E-02 2.63743E-03-1.18584E-02
 -1      1612-1.01685E+01-4.72032E-03-5.38275E-03 1.52822E-02 3.79627E-04-6.49144E-03
 -1      1613-1.04357E+01-9.91504E-04-7.86235E-04 1.68865E-02 9.61408E-04-1.11006E-02
 -1      1614-1.00865E+01-2.41463E-03 1.70448E-03 1.83409E-02 1.47334E-03-5.30094E-03
 -1      1615-1.00017E+01-1.73599E-03-2.50299E-03 1.87551E-02-9.16387E-04-4.84802E-03
 -1      1616-1.03014E+01-5.00289E-03-4.80765E-03 1.95800E-02 5.11090E-04-9.84859E-03
 -1      1617-9.91228E+00 7.90808E-04 2.66855E-03 2.03117E-02 8.36424E-04-5.60137E-03
 -1      1618-9.82855E+00-1.94241E-03-1.49184E-03 1.70332E-02-2.16827E-03-1.47205E-02
 -1      1619-1.01173E+01 3.40177E-03 2.92542E-03 2.03046E-02 6.54887E-04-1.02348E-02
 -1      1620-9.72062E+00-1.66548E-03-3.34661E-03 1.83699E-02 2.27587E-03-1.30843E-02
 -1      1621-9.61787E+00-2.02089E-03-3.09573E-03 1.80426E-02-1.30036E-03-1.25006E-02
 -1      1622-9.94897E+00-5.52749E-03-5.56539E-03 2.41781E-02-1.69482E-03-1.25918E-02
 -1      1623-9.50241E+00-1.51765E-03-4.13310E-03 2.10792E-02 1.14720E-03-1.29822E-02
 -1      1624-9.39634E+00-3.34067E-03-4.75332E-03 2.31014E-02-4.89074E-04-7.11881E-03
 -1      1625-9.72347E+00-3.45779E-03-6.08932E-03 2.82762E-02-2.43896E-04-8.51258E-03
 -1      1626-9.27695E+00-2.32237E-03 7.85885E-04 2.56203E-02 1.55524E-03-7.74135E-03
 -1      1627-9.14497E+00-6.15682E-04-2.38663E-03 2.70932E-02-2.48415E-03-6.58524E-03
 -1      1628-9.48731E+00 1.08270E-03 3.12297E-03 2.93777E-02 6.96642E-04-5.92546E-03
 -1      1629-9.01888E+00 1.68201E-03 3.78217E-03 2.93446E-02 9.45230E-04-7.76260E-03
 -1      1630-8.89693E+00-1.11828E-03-9.19635E-05 2.38552E-02-3.35996E-03-2.08924E-02
 -1      1631-9.22348E+00 7.94305E-03 6.67389E-03 3.03946E-02 8.62416E-05-1.15621E-02
 -1      1632-8.74622E+00-5.58566E-03-7.63833E-03 2.61453E-02 3.74423E-03-1.64784E-02
 -1      1633-8.59255E+00-5.90317E-04-4.35490E-03 2.81058E-02-7.28226E-04-7.31096E-03
 -1      1634-8.98312E+00-6.51925E-03-8.18177E-03 3.41716E-02-2.49796E-03-1.74350E-02
 -1      1635-8.45109E+00 9.08757E-04 3.34811E-03 2.92576E-02 1.50057E-04-7.91804E-03
 -1      1636-8.30853E+00-1.17070E-03 2.52316E-03 2.90934E-02-1.82379E-03-1.78080E-02
 -1      1637-8.66738E+00-4.58183E-03-2.36290E-03 3.69179E-02-6.82562E-04-1.65172E-03
 -1      1638-8.14235E+00 6.41006E-04 1.08000E-03 2.69070E-02 2.55981E-03-1.91193E-02
 -1      1639-7.98285E+00-1.04293E-03 9.51150E-04 2.92420E-02-3.59649E-03-2.29003E-02
 -1      1640-8.36325E+00-3.85427E-04 5.88813E-03 4.10585E-02 4.21043E-04-1.26240E-02
 -1      1641-7.80150E+00 2.03218E-03-1.92688E-03 3.15036E-02 5.18226E-03-2.82353E-02
 -1      1642-7.65701E+00-8.86585E-03-1.00768E-02 3.55404E-02 5.58273E-04-1.43976E-02
 -1      1643-8.00840E+00 2.15694E-03 3.85556E-03 4.08145E-02 3.30550E-03-2.46519E-02
 -1      1644-7.47641E+00-3.73336E-03 5.02075E-03 4.04831E-02 2.76884E-03-1.08703E-02
 -1      1645-7.28983E+00-2.34730E-04-3.02869E-03 3.87834E-02-2.01958E-03-9.57983E-03
 -1      1646-7.70354E+00-7.70730E-03-7.86625E-03 4.28719E-02 2.04186E-04-2.28009E-02
 -1      1647-7.10977E+00 3.35654E-03 6.32233E-03 4.07817E-02 9.01854E-04-1.02011E-02
 -1      1648-6.93899E+00-1.35872E-04 1.95912E-03 3.17588E-02-5.10687E-03-2.91688E-02
 -1      1649-7.30587E+00 1.17282E-02 8.43776E-03 4.14116E-02 2.88573E-04-1.91266E-02
 -1      1650-6.73485E+00-5.33913E-03-1.06550E-02 3.34224E-02 4.94624E-03-2.29019E-02
 -1      1651-6.53443E+00 1.68992E-05-6.77252E-03 3.71494E-02-5.15853E-04-1.04598E-02
 -1      1652-6.97284E+00-6.86718E-03-1.03570E-02 4.55303E-02-3.76913E-03-2.40741E-02
 -1      1653-6.34149E+00 1.47978E-03 6.86306E-03 3.78519E-02 2.90968E-04-1.21289E-02
 -1      1654-6.14513E+00 9.26723E-04 7.67077E-03 3.70676E-02-3.54451E-03-3.08185E-02
 -1      1655-6.54859E+00-6.96247E-03-4.78480E-03 4.85263E-02-6.62827E-04-7.35386E-03
 -1      1656-5.92306E+00-1.28158E-03-5.56608E-03 3.55694E-02 6.36868E-03-3.16393E-02
 -1      1657-5.73329E+00-4.51369E-03-7.67816E-03 4.61046E-02-7.27126E-04-1.15815E-02
 -1      1658-6.12313E+00 2.29151E-03 7.07317E-03 4.84979E-02 3.77724E-03-3.14686E-02
 -1      1659-5.52521E+00 2.62861E-03 5.94864E-03 4.38753E-02 3.46234E-03-1.31320E-02
 -1      1660-5.31340E+00-9.39980E-04-4.83430E-03 4.01077E-02-2.56882E-03-2.63473E-02
 -1      1661-5.74460E+00-1.76566E-02-1.31390E-02 4.95708E-02-2.35707E-04-1.74491E-02
 -1      1662-5.08551E+00 7.19907E-04-1.03963E-03 4.00262E-02 1.36600E-03-2.19718E-02
 -1      1663-4.88594E+00-2.05840E-03 1.32314E-03 3.99052E-02-1.44003E-03-2.33146E-02
 -1      1664-5.30604E+00-5.66641E-03-1.06161E-02 5.63270E-02 3.80539E-05-1.24650E-02
 -1      1665-4.65731E+00-1.39121E-03 1.21495E-03 4.09061E-02 5.79147E-03-2.45773E-02
 -1      1666-4.43023E+00-2.90256E-03-6.77520E-03 4.23418E-02-1.78689E-03-1.52326E-02
 -1      1667-4.83704E+00 1.34207E-03 8.63485E-03 5.81316E-02-2.47831E-04-1.31939E-02
 -1      1668-4.21020E+00 5.73750E-05 7.14405E-03 4.65949E-02 1.31437E-03-8.53563E-03
 -1      1669-3.99191E+00 1.83469E-03 5.48867E-03 4.02546E-02-2.47804E-03-2.36730E-02
 -1      1670-4.39855E+00 6.38722E-04-5.19074E-03 5.80440E-02-1.48887E-03-5.48591E-03
 -1      1671-3.74809E+00-3.20957E-04 1.14623E-03 3.89182E-02 3.51044E-03-2.72526E-02
 -1      1672-3.52280E+00-1.38644E-03 1.14331E-03 4.09573E-02-3.92703E-03-2.89105E-02
 -1      1673-3.92760E+00 7.57641E-04 9.73586E-03 5.86700E-02 2.58059E-03-1.69500E-02
 -1      1674-3.27642E+00 1.08795E-03-1.28319E-03 4.00111E-02 5.74355E-03-3.01025E-02
 -1      1675-3.05081E+00-2.71006E-03-3.69748E-04 4.00990E-02-4.25777E-03-3.03993E-02
 -1      1676-3.45202E+00-1.71516E-03 1.24184E-03 6.05692E-02 3.09840E-03-2.01561E-02
 -1      1677-2.80552E+00-1.37788E-03-5.36251E-03 4.41126E-02 5.36980E-03-2.90267E-02
 -1      1678-2.56780E+00-1.60455E-03-7.90495E-03 4.39846E-02-1.27462E-05-1.74495E-02
 -1      1679-2.98223E+00-4.23312E-03-7.11346E-03 6.19938E-02-2.17809E-03-2.01846E-02
 -1      1680-2.33306E+00 1.95451E-04 9.40284E-03 4.85072E-02 9.75117E-04-1.08897E-02
 -1      1681-2.09246E+00 4.87858E-03 1.05251E-02 4.31370E-02-3.96700E-03-3.20251E-02
 -1      1682-2.49626E+00-1.69017E-04-7.83241E-03 5.91148E-02-1.68597E-03-1.06068E-02
 -1      1683-1.82699E+00 2.47706E-03-1.78092E-03 4.32294E-02 7.51828E-03-4.03446E-02
 -1      1684-1.61449E+00-1.10086E-02-1.29961E-02 5.07744E-02 4.84702E-04-1.98795E-02
 -1      1685-1.96431E+00 5.61062E-03 1.12350E-02 5.75349E-02 6.42274E-03-3.56902E-02
 -1      1686-1.36708E+00-1.10594E-03 7.62177E-03 5.39603E-02 3.70071E-03-1.33487E-02
 -1      1687-1.11124E+00 5.72690E-03-1.24837E-03 4.65858E-02-1.55650E-03-9.78944E-03
 -1      1688-1.52999E+00-5.45447E-03-9.34656E-03 5.96037E-02 1.51857E-04-2.89962E-02
 -1      1689-8.80359E-01 4.74391E-04 2.96361E-03 4.29338E-02 2.97648E-03-5.84291E-03
 -1      1690-6.37857E-01 9.98773E-03 3.45908E-03 3.49234E-02-8.18403E-04 4.50706E-03
 -1      1691-1.00741E+00 1.61626E-02 7.18642E-03 5.07356E-02 1.95222E-03-1.24434E-02
 -1      1692-5.97483E-01-1.08852E-02-7.74306E-03 4.10328E-02 1.33659E-04 4.75356E-03
 -1      1693-1.16253E+01-9.16033E-02-3.79618E-02 5.75477E-02 4.35222E-03-1.16758E-02
 -1      1694-1.14069E+01-2.44837E-01-1.33984E-01 1.76956E-01 7.54493E-02 4.36512E-02
 -1      1695-1.12261E+01-3.39180E-01 1.20041E-01 4.36233E-01-1.06169E-02 1.16420E-01
 -1      1696-1.15990E+01-1.69687E-02-7.87491E-03-1.23151E-02 4.29686E-03-6.66155E-03
 -1      1697-1.15480E+01-2.12224E-02-1.13480E-02 1.00985E-02 2.27600E-03-9.03561E-03
 -1      1698-1.14779E+01-9.03361E-02 1.60941E-02 3.96247E-02-1.39836E-02 6.18879E-03
 -1      1699-1.15372E+01 2.18473E-04-2.86695E-03-1.02940E-02-6.11219E-04-2.03657E-03
 -1      1700-1.15636E+01-5.47783E-03-5.76618E-03-1.13619E-02 1.02074E-03 9.28900E-04
 -1      1701-1.14526E+01-1.52026E-02-5.76740E-03-1.31309E-02 9.40739E-04-4.17605E-03
 -1      1702-1.14359E+01 4.89857E-05-1.45762E-03-7.12218E-03 2.85126E-04-2.04749E-03
 -1      1703-1.14954E+01-2.69945E-03-1.84550E-03-6.13047E-03-7.95703E-04-1.23735E-03
 -1      1704-1.13562E+01-6.30990E-03-5.63830E-03-8.55442E-03-1.92070E-03 1.78704E-04
 -1      1705-1.13096E+01-8.97323E-04-2.20819E-03-7.89541E-03 3.13867E-04-2.26946E-03
 -1      1706-1.13823E+01-3.22310E-03-1.18157E-03-5.17289E-03-6.89909E-04-1.81595E-03
 -1      1707-1.12422E+01-5.21760E-03-4.41715E-03-3.39167E-03-6.22198E-04-6.01783E-04
 -1      1708-1.11674E+01-2.51819E-03-2.15982E-03-5.31703E-03 1.34810E-03-9.16476E-03
 -1      1709-1.12469E+01-6.76950E-04 1.07774E-03-5.46172E-03-3.52168E-04-4.71652E-03
 -1      1710-1.11112E+01-3.73425E-03-5.93435E-04-2.41820E-03-1.18356E-03-4.72861E-03
 -1      1711-1.09876E+01-1.51190E-03-5.10233E-04-5.27383E-03 1.97548E-03-1.22933E-02
 -1      1712-1.10801E+01-1.18264E-03-7.54432E-04-4.27044E-03-1.55320E-03-9.89333E-03
 -1      1713-1.09609E+01-3.33903E-03-5.78701E-04-4.12070E-03 4.32341E-05-7.09863E-03
 -1      1714-1.07919E+01-5.54792E-03-5.76197E-03-9.31577E-03-3.04328E-04-8.21570E-03
 -1      1715-1.08841E+01-5.27350E-04-2.34217E-03-6.14884E-03-2.88865E-03-1.49100E-02
 -1      1716-1.07658E+01-1.22502E-03 2.48177E-04-4.15348E-03-7.40206E-04-1.34436E-02
 -1      1717-1.05629E+01-8.72123E-04-2.39721E-03-8.79098E-03 1.72371E-04-6.33521E-03
 -1      1718-1.06839E+01-2.46764E-03 2.47614E-03-1.13674E-02-3.03633E-03-5.19279E-03
 -1      1719-1.05856E+01-7.44877E-03-8.69499E-03-6.17451E-03 2.87342E-04-9.94027E-03
 -1      1720-1.03244E+01-4.54357E-04 1.51413E-03-7.21570E-03 9.93168E-04-1.24455E-02
 -1      1721-1.04476E+01-7.49713E-04 2.99074E-03-9.89956E-03-8.31768E-04-4.45348E-03
 -1      1722-1.03544E+01-2.36006E-03-4.31461E-03-6.28213E-03-2.59547E-04-2.99678E-03
 -1      1723-1.00476E+01-1.10174E-03 3.63054E-04-7.47081E-03 3.02846E-03-1.75406E-02
 -1      1724-1.01882E+01-8.39117E-04-4.01872E-05-5.95596E-03-2.08747E-03-1.47264E-02
 -1      1725-1.01023E+01-2.53912E-03 3.78452E-03-5.86679E-03-1.27637E-03-1.02334E-02
 -1      1726-9.75476E+00-3.84706E-03-5.15584E-03-1.47927E-02-6.75580E-05-6.88935E-03
 -1      1727-9.89823E+00-2.66046E-03-4.11224E-03-7.55085E-03-3.94060E-03-1.94923E-02
 -1      1728-9.81581E+00-4.12318E-04 1.35129E-03-5.05882E-03-1.15507E-03-1.81597E-02
 -1      1729-9.44121E+00 8.84067E-04-3.70072E-03-1.67586E-02 1.65287E-03-6.52553E-03
 -1      1730-9.61347E+00-4.13659E-03-2.87050E-04-1.29089E-02-1.67887E-03-6.01917E-03
 -1      1731-9.55257E+00-1.23550E-02-8.74323E-03-2.92931E-03-7.04909E-04-1.16869E-02
 -1      1732-9.10646E+00-9.90647E-04-3.02897E-03-1.81550E-02 2.41092E-03-6.98434E-03
 -1      1733-9.29205E+00-3.92187E-03-4.30904E-04-1.35768E-02-2.30518E-03-8.29213E-03
 -1      1734-9.22169E+00-3.93664E-03 2.86491E-03-2.80257E-03-2.83122E-03-1.56118E-02
 -1      1735-8.76491E+00-2.23488E-03-3.32672E-03-1.34762E-02-9.84927E-05-1.28245E-02
 -1      1736-8.94975E+00-4.99922E-04 2.66445E-03-1.55861E-02-4.23893E-03-9.02053E-03
 -1      1737-8.90801E+00-1.46370E-02-1.30507E-02-5.98197E-03-3.32982E-05-1.16152E-02
 -1      1738-8.40354E+00-1.54015E-04 3.02669E-03-1.04975E-02 1.62539E-03-1.77630E-02
 -1      1739-8.58661E+00-9.00092E-04 4.69415E-03-1.53013E-02-1.39751E-03-6.30107E-03
 -1      1740-8.55324E+00-2.49807E-03-6.68189E-03-1.03106E-02 2.50385E-04-6.92281E-03
 -1      1741-8.01104E+00-1.23291E-03-8.49986E-05-1.07252E-02 3.53154E-03-2.18706E-02
 -1      1742-8.20671E+00-9.97571E-04 3.66635E-04-9.43448E-03-2.90129E-03-2.03905E-02
 -1      1743-8.17448E+00-1.56672E-03 6.76344E-03-8.24693E-03-1.86686E-03-1.36997E-02
 -1      1744-7.60346E+00-4.62026E-03-7.71161E-03-1.44676E-02 1.48380E-03-1.29752E-02
 -1      1745-7.80806E+00-6.87802E-04-2.66657E-03-1.12777E-02-4.62865E-03-2.36619E-02
 -1      1746-7.78194E+00-1.99076E-03 6.96407E-04-1.01316E-02-1.31978E-03-1.75889E-02
 -1      1747-7.18701E+00 2.31939E-03-1.86117E-03-1.70463E-02 1.37577E-03-7.17558E-03
 -1      1748-7.40970E+00-1.22960E-03 4.22460E-03-2.04450E-02-2.05270E-03-9.49971E-03
 -1      1749-7.39440E+00-7.74763E-04-3.17025E-03-7.61053E-03 2.36827E-03-1.42062E-02
 -1      1750-6.73352E+00 1.62250E-03-3.76340E-03-1.98330E-02 2.96209E-03-4.40809E-03
 -1      1751-6.97341E+00-5.57716E-03 1.87238E-03-1.63521E-02-2.09985E-03-7.82899E-03
 -1      1752-6.97277E+00 9.29385E-03 7.59041E-03-5.81196E-03-9.67076E-04-1.20228E-02
 -1      1753-6.30195E+00-3.01816E-03-1.27139E-03-1.40924E-02 4.37347E-03-2.35268E-02
 -1      1754-6.52958E+00 4.96490E-04 5.06928E-03-1.54602E-02-1.08148E-03-1.34273E-02
 -1      1755-6.52549E+00-1.69985E-03 6.05856E-03-7.81333E-03-3.00787E-03-1.06851E-02
 -1      1756-5.83656E+00-1.40529E-03-2.16215E-04-1.33714E-02 3.59580E-03-2.41465E-02
 -1      1757-6.06707E+00-4.90877E-04-1.95755E-04-1.26386E-02-3.25222E-03-2.41329E-02
 -1      1758-6.08940E+00-7.42951E-04 2.05188E-03-1.09254E-02 2.74861E-04-1.60103E-02
 -1      1759-5.36353E+00-2.89229E-03-1.88421E-03-1.39425E-02 4.08922E-03-2.28965E-02
 -1      1760-5.60043E+00 5.10109E-04-1.46112E-03-1.29582E-02-3.46287E-03-2.45819E-02
 -1      1761-5.62716E+00 5.12974E-04 2.51657E-03-1.17322E-02-4.48320E-04-1.58208E-02
 -1      1762-4.86672E+00-4.71327E-04 2.34408E-03-1.46189E-02 5.36662E-03-2.97814E-02
 -1      1763-5.11549E+00 1.01163E-03 2.07012E-03-1.29694E-02-3.06344E-03-2.54579E-02
 -1      1764-5.15615E+00 6.08574E-04 3.68925E-03-1.21923E-02 6.31430E-04-1.49163E-02
 -1      1765-4.37823E+00-1.05345E-02-1.13448E-02-2.15134E-02-2.37741E-04-1.89962E-02
 -1      1766-4.60294E+00 2.85745E-03 1.94540E-04-1.64545E-02-6.27544E-03-3.70229E-02
 -1      1767-4.63994E+00 4.39619E-03 7.26815E-03-8.83700E-03-3.95649E-03-3.24160E-02
 -1      1768-3.85439E+00 2.04992E-03-3.11073E-03-2.19411E-02 2.69246E-03-1.21548E-02
 -1      1769-4.12676E+00-3.28656E-03 7.14501E-03-2.62409E-02-3.28278E-03-1.39226E-02
 -1      1770-4.20089E+00-6.89547E-03-9.76387E-03-9.12637E-03-2.36838E-04-3.10457E-02
 -1      1771-3.34263E+00 8.10089E-04-1.96826E-03-2.28109E-02 2.37486E-03-1.12573E-02
 -1      1772-3.61687E+00-1.43274E-03 4.03197E-03-2.68906E-02-4.15205E-03-9.60295E-03
 -1      1773-3.65491E+00 1.55120E-02 1.25127E-02-3.66638E-03 1.57711E-04-2.31865E-02
 -1      1774-2.80515E+00 3.74034E-03-1.79216E-03-2.03953E-02 2.69718E-03-9.32500E-03
 -1      1775-3.09907E+00-6.45720E-03 4.27407E-03-2.40456E-02-5.17257E-03-7.13858E-03
 -1      1776-3.19006E+00-3.38753E-03-1.06239E-02-7.70755E-03 9.06513E-04-1.95442E-02
 -1      1777-2.28891E+00-1.87660E-03-5.17818E-03-2.34852E-02 2.18329E-03-1.66287E-02
 -1      1778-2.55615E+00 5.14291E-04 3.54886E-03-2.20435E-02-1.55265E-03-1.56276E-02
 -1      1779-2.64197E+00-8.65499E-03-8.53544E-03-6.88412E-03 2.89535E-04-1.98271E-02
 -1      1780-1.74918E+00 3.00247E-03-2.01529E-03-2.28185E-02 2.87088E-03-1.24622E-02
 -1      1781-2.03801E+00-1.05650E-03 3.79056E-03-2.79732E-02-4.20844E-03-1.18760E-02
 -1      1782-2.11174E+00 1.25720E-02 1.01789E-02-7.08091E-03 5.44945E-04-2.68393E-02
 -1      1783-1.21309E+00 5.35901E-03-1.70562E-03-1.83553E-02 1.81105E-03-1.02542E-02
 -1      1784-1.49997E+00-1.84518E-03 5.94932E-03-2.56561E-02-3.35047E-03-1.24089E-02
 -1      1785-1.60940E+00 3.60156E-03-5.94700E-03-3.38202E-03 1.57873E-03-2.89912E-02
 -1      1786-7.00431E-01 7.98570E-03 4.63274E-04-8.33718E-03 1.00783E-04 1.64266E-03
 -1      1787-9.66481E-01 8.62763E-04 3.24099E-03-1.66205E-02-2.99103E-03-6.62926E-03
 -1      1788-1.06227E+00 1.23946E-02 7.86266E-03 2.46467E-04-4.80418E-04-1.79970E-02
 -1      1789-6.31254E-01-6.50573E-03-8.05818E-03-8.11747E-04-8.68484E-05 1.77839E-03
 -1      1790-5.94666E+00-5.12686E-03-1.16478E-02 4.17384E-02 3.53897E-03-4.47391E-02
 -1      1791-5.72038E+00-2.27322E-03-1.15677E-02 3.95003E-02-6.67922E-03-2.63298E-02
 -1      1792-5.47704E+00-1.28406E-03-4.18506E-03 4.19855E-02 4.71606E-03-2.44126E-02
 -1      1793-5.26756E+00-2.37030E-03-7.39191E-03 4.80654E-02-1.29195E-03-1.15593E-02
 -1      1794-5.68902E+00-7.41452E-03-7.57045E-03 2.95034E-02-1.68276E-03-2.56262E-02
 -1      1795-3.62780E+00-2.40242E-04 1.81455E-03 5.23132E-02 5.33762E-03-2.27842E-02
 -1      1796-3.38301E+00-3.20214E-03 1.96354E-03 5.28396E-02-2.20824E-03-2.10307E-02
 -1      1797-4.11494E+00-5.14163E-03 8.55892E-03 4.78212E-02 3.80512E-03-1.65610E-02
 -1      1798-3.87245E+00-3.34291E-03-5.35937E-04 5.46816E-02-4.91012E-03-1.74876E-02
 -1      1799-3.80579E+00-3.62687E-03-2.16280E-03 2.86814E-02 3.96733E-03-3.78034E-02
 -1      1800-2.47671E+00 6.17445E-04-3.53077E-03 9.35242E-03 2.05816E-03-3.00869E-02
 -1      1801-2.72577E+00 3.76995E-03 1.32506E-03 8.01747E-03-6.28552E-03-2.92851E-02
 -1      1802-3.00444E+00-1.28013E-02-9.88859E-03 4.28769E-03 4.24115E-03-2.88315E-02
 -1      1803-3.24457E+00-4.64553E-03-3.12299E-03 1.86005E-02-7.96633E-03-4.49739E-02
 -1      1804-2.81906E+00 2.41766E-03 3.88086E-03 2.83461E-02-1.93051E-03-3.18972E-02
 -1      1805-1.69020E+00-5.88142E-03-1.37195E-02 4.31551E-02 4.39221E-03-4.76934E-02
 -1      1806-1.41197E+00 9.74703E-03-1.97097E-03 4.54090E-02-4.70412E-03-3.32581E-02
 -1      1807-1.16301E+00 6.54500E-03 4.00148E-03 5.12509E-02 5.17228E-03-3.07220E-02
 -1      1808-1.29598E+00 1.00886E-02 2.19817E-03 3.04145E-02-5.51958E-04-3.57853E-02
 -1      1809-9.10332E-01 9.10718E-03-2.45002E-03 5.39059E-02-3.33666E-03-1.74209E-02
 -1      1810-6.74328E+00-1.70118E-03-6.72361E-03 4.21936E-02 3.94582E-03-1.61319E-02
 -1      1811-6.55962E+00-7.04099E-04-2.35263E-03 4.21291E-02-5.68624E-04-1.57955E-02
 -1      1812-6.96853E+00-1.23779E-02-9.42572E-03 4.50197E-02-7.49605E-03-2.00096E-02
 -1      1813-6.97143E+00 6.67407E-04-1.52941E-03 2.79295E-02-2.30547E-03-2.80218E-02
 -1      1814-7.18008E+00-1.19888E-02-5.60936E-03 3.44961E-02 1.03573E-03-2.64182E-02
 -1      1815-4.96156E+00-6.37682E-04-2.61307E-03 1.86287E-03 3.76737E-03-1.79713E-02
 -1      1816-5.20303E+00-3.05578E-03 2.70209E-03 4.12933E-03-2.76678E-03-1.25150E-02
 -1      1817-4.45051E+00 4.47814E-03 7.15204E-03 1.27675E-02-5.56826E-05-2.97639E-02
 -1      1818-4.72087E+00 2.26357E-03 4.00240E-03 4.44145E-03-7.11543E-03-2.19817E-02
 -1      1819-4.76789E+00-8.02975E-03-5.47620E-03 2.72828E-02-4.12129E-03-2.78158E-02
 -1      1820-7.92066E+00-6.53194E-03-1.09853E-02 3.17587E-02 2.22959E-03-3.78139E-02
 -1      1821-7.73032E+00 1.65144E-04-6.27181E-03 3.38891E-02-2.93692E-03-2.97917E-02
 -1      1822-7.52793E+00-5.11882E-03 4.79621E-03 3.50320E-02 4.85159E-03-2.54203E-02
 -1      1823-7.31546E+00 5.82630E-03 6.37408E-03 3.88142E-02-3.01654E-03-3.71157E-02
 -1      1824-7.75149E+00-7.91795E-03-5.94569E-03 2.29574E-02-2.65610E-03-2.55966E-02
 -1      1825-1.10444E+01-2.22129E-03-2.81043E-03 1.75556E-03 1.68309E-04-5.03254E-03
 -1      1826-1.11009E+01-1.00807E-03-2.83576E-03 1.11530E-03-1.82794E-03-5.15153E-03
 -1      1827-1.09074E+01-3.06760E-03-9.48004E-04 4.91755E-04 1.54511E-03-6.20193E-03
 -1      1828-1.09784E+01-3.59979E-03-4.00292E-04 1.06481E-03-5.84557E-04-6.12092E-03
 -1      1829-1.08462E+01-6.84972E-03-4.57836E-03 8.73032E-03 3.38269E-04-7.52897E-03
 -1      1830-1.03329E+01-5.85421E-03 1.03860E-03 1.55152E-02 2.63724E-03-1.15497E-02
 -1      1831-1.02241E+01 8.60990E-04 2.19283E-03 1.92448E-02-1.04766E-03-1.73805E-02
 -1      1832-1.05061E+01-4.30985E-03-6.78144E-03 1.32661E-02 1.27062E-03-1.62455E-02
 -1      1833-1.04266E+01-2.61484E-03-3.98027E-03 1.54755E-02-8.51861E-04-1.33128E-02
 -1      1834-1.05478E+01-8.30442E-03-5.65053E-03 1.00592E-02-9.76951E-04-1.12804E-02
 -1      1835-1.08822E+01-6.88613E-03-3.77035E-03 9.46334E-03 2.80835E-04-5.45407E-03
 -1      1836-1.08269E+01-4.00772E-03-3.00174E-03 1.27923E-02-1.55114E-03-5.21673E-03
 -1      1837-1.09244E+01-1.09868E-02-5.52524E-03 9.42877E-03-4.25192E-04-8.98952E-03
 -1      1838-1.09762E+01-3.46459E-02-6.44611E-03-3.11608E-04-2.29066E-03-5.42069E-03
 -1      1839-1.10744E+01-7.11514E-03-1.15120E-03 3.84712E-03 1.27148E-03-7.76833E-03
 -1      1840-9.59267E+00 4.81565E-03 4.33357E-03 9.13062E-03 1.43701E-03-1.78563E-02
 -1      1841-9.75147E+00 1.30474E-04 1.15883E-03 3.15170E-03-4.55958E-03-1.28265E-02
 -1      1842-9.88412E+00-3.42686E-03-1.88407E-03 7.53308E-04 2.04674E-03-1.02272E-02
 -1      1843-9.67421E+00-9.47001E-03-5.53685E-03 1.44468E-02-1.78435E-03-1.53459E-02
 -1      1844-1.00190E+01-5.04260E-03 2.47786E-03 2.71435E-03-2.28242E-03-7.81443E-03
 -1      1845-8.57937E+00-4.59701E-03 4.41226E-03 3.45280E-02 1.98596E-03-1.02791E-02
 -1      1846-8.41428E+00-3.41104E-03-3.08319E-03 3.87149E-02-1.72846E-03-1.34855E-02
 -1      1847-8.73440E+00 3.77388E-04-1.92526E-03 3.26683E-02-7.25415E-04-7.71815E-03
 -1      1848-8.79332E+00-7.33240E-03-5.23372E-03 1.62551E-02 1.51160E-03-2.49264E-02
 -1      1849-8.87428E+00-4.09394E-04-2.42388E-03 3.21384E-02 2.51366E-03-1.13702E-02
 -1      1850-1.01608E+01-9.33070E-03-5.92768E-03 1.65207E-02 5.45810E-04-1.20116E-02
 -1      1851-1.00484E+01-7.24597E-03-4.24833E-03 2.22822E-02-3.02655E-03-9.41024E-03
 -1      1852-9.93481E+00-2.88580E-03-8.79495E-04 2.35207E-02 2.29752E-03-8.96447E-03
 -1      1853-9.82562E+00-3.81306E-03-5.87883E-03 2.37228E-02-8.60598E-04-7.46197E-03
 -1      1854-1.01499E+01-1.79218E-03-1.69173E-03 1.50749E-02-1.78500E-03-1.47115E-02
 -1      1855-1.13654E+01-1.03805E-01-2.75370E-03 5.76438E-03 1.64444E-03-8.26082E-03
 -1      1856-1.13907E+01-2.41359E-01-1.97257E-03 6.04156E-02-8.35147E-03 1.49273E-02
 -1      1857-1.12076E+01-4.70899E-01 5.01054E-02-7.57742E-03-4.37146E-03 3.68389E-02
 -1      1858-1.12593E+01-4.22834E-01 6.91861E-02 6.97046E-02-1.85860E-02 5.97039E-02
 -1      1859-1.10950E+01-5.91740E-01 1.04795E-01 2.41166E-01-3.26285E-02 1.26845E-01
 -1      1860-1.08882E+01-8.25485E-01 9.45291E-02 1.21645E-01-9.63580E-03 9.88512E-02
 -1      1861-5.87791E+00-2.31195E-03-5.03310E-04-1.08100E-04 4.71983E-03-1.50240E-02
 -1      1862-6.11800E+00-6.52552E-03 8.98038E-04 7.21186E-03-1.44033E-03-1.63889E-02
 -1      1863-6.32865E+00 3.11442E-04-4.21469E-04 3.04220E-03 4.63319E-03-1.75623E-02
 -1      1864-6.53878E+00 1.83147E-03 3.66376E-03 2.61481E-03-3.97095E-03-1.91706E-02
 -1      1865-6.12518E+00 7.17970E-06 1.64255E-03 2.55538E-02-1.67459E-03-2.41871E-02
 -1      1866-2.14970E+00 2.63099E-03 9.25277E-03 5.31103E-02 8.58162E-03-2.72671E-02
 -1      1867-1.87512E+00 7.48106E-03 6.30541E-03 4.42047E-02 1.77419E-03-3.25826E-02
 -1      1868-2.64056E+00-1.71835E-03-7.91651E-03 4.64054E-02 4.02547E-03-1.98455E-02
 -1      1869-2.41478E+00-1.22141E-03-6.45866E-04 5.33315E-02-1.97430E-03-1.79598E-02
 -1      1870-2.31153E+00-2.71230E-03 2.09195E-03 3.07087E-02 4.01304E-03-3.59944E-02
 -1      1871-9.32166E-01 3.80155E-03-3.56200E-03 4.35278E-03 3.98124E-03-2.18555E-02
 -1      1872-1.19747E+00 1.74748E-03 4.17370E-03 9.65265E-03-3.85480E-03-3.50156E-02
 -1      1873-7.74423E-01-5.26525E-03-2.89242E-03 1.31680E-02-1.59683E-03-4.91314E-03
 -1      1874-9.02498E-01-1.80361E-02-1.01313E-02 3.30451E-02 9.05649E-04-9.29975E-03
 -1      1875-6.68468E-01-1.42075E-02-1.89746E-02 7.83821E-03-2.95631E-03 8.06722E-03
 -1      1876-6.37707E-01-1.72224E-02-1.33468E-02 2.21075E-02 8.30643E-05 1.50368E-02
 -1      1877-7.95588E+00-3.75647E-03-4.74680E-04-3.20514E-04 3.70005E-03-1.40943E-02
 -1      1878-8.15293E+00-5.73216E-03 5.38359E-03 5.37161E-03-2.45459E-03-1.36369E-02
 -1      1879-8.33088E+00-2.10808E-03-2.17953E-03 7.59624E-04 1.53908E-04-9.32151E-03
 -1      1880-8.49521E+00-3.27071E-03-4.89996E-03 7.71783E-03-2.52861E-03-1.84872E-02
 -1      1881-8.11329E+00 1.32698E-04 2.68822E-03 2.06708E-02-2.09342E-03-2.05904E-02
 -1      1882-1.44542E+00-3.48192E-03-4.90305E-03 1.00033E-02 4.18598E-03-3.84778E-02
 -1      1883-1.71016E+00-2.43128E-03-1.36922E-03 2.05835E-02-8.50414E-03-4.49142E-02
 -1      1884-1.97381E+00-1.22636E-03 1.26796E-03 1.29216E-02 8.49871E-03-4.72579E-02
 -1      1885-2.21471E+00 4.56670E-03 7.40662E-03 7.72331E-03-8.31203E-04-3.40534E-02
 -1      1886-1.81743E+00 6.12870E-03 3.74253E-03 2.24167E-02-9.67374E-04-4.07775E-02
 -1      1887-7.55886E+00 1.98730E-03 2.80286E-03 7.41074E-03 2.36563E-03-1.87111E-02
 -1      1888-7.77103E+00 2.70725E-04-5.85996E-05 4.18998E-03-5.42451E-03-1.73802E-02
 -1      1889-7.18673E+00-3.84812E-04-4.18685E-03 4.01704E-03 5.67970E-04-2.17177E-02
 -1      1890-7.39069E+00-4.78697E-03-5.54088E-04 7.20176E-05-3.43784E-03-1.62092E-02
 -1      1891-7.35654E+00-3.97513E-04-1.17068E-03 2.53378E-02 3.48818E-03-3.06091E-02
 -1      1892-9.44728E+00-4.71552E-03 3.72751E-03 2.29962E-02 3.47490E-03-1.30124E-02
 -1      1893-9.29609E+00 3.09192E-03 5.01346E-03 2.71553E-02-1.75353E-03-2.51578E-02
 -1      1894-9.20133E+00-1.15537E-02-6.28670E-03 2.26528E-02 8.93354E-04-1.78699E-02
 -1      1895-9.04022E+00-9.19014E-03-6.01563E-03 3.06857E-02-5.32394E-03-1.29948E-02
 -1      1896-9.39423E+00-3.08022E-03-2.34729E-03 1.56534E-02 2.39136E-03-1.95185E-02
 -1      1897-1.05513E+01 1.98573E-03 2.36453E-03 6.68636E-03 7.89490E-04-1.30022E-02
 -1      1898-1.06625E+01-9.21329E-04 1.00381E-04 2.27028E-03-3.37051E-03-9.42290E-03
 -1      1899-1.03690E+01-4.38470E-03-6.55402E-03 3.36408E-03 1.47627E-03-1.09345E-02
 -1      1900-1.04777E+01-7.84344E-03-8.63206E-03 4.45113E-03-1.21900E-03-1.92088E-02
 -1      1901-1.03534E+01-3.35404E-03-3.36838E-03 1.10637E-02 1.72454E-03-1.37582E-02
 -1      1902-9.32650E+00-4.56417E-04-5.56453E-03 5.45362E-03 2.44090E-03-1.78808E-02
 -1      1903-9.48913E+00-8.93558E-03-1.00010E-02 3.66862E-03-1.85282E-03-2.69727E-02
 -1      1904-9.16599E+00-3.07267E-03 2.40510E-03 4.61866E-03-2.74830E-03-2.50260E-02
 -1      1905-9.09953E+00-7.65582E-04 1.64011E-03 1.85236E-02-3.09097E-03-2.27766E-02
 -1      1906-9.01264E+00-8.42173E-03 6.21216E-04 9.64913E-03 4.65693E-03-2.99869E-02
 -1      1907-1.08261E+01-9.23048E-01 3.39827E-02-1.78020E-01-1.29831E-02 3.92256E-02
 -1      1908-1.06885E+01-6.43734E-01 1.59951E-02-3.02243E-01 1.79825E-03 4.02988E-02
 -1      1909-1.09578E+01-4.50048E-01 6.43106E-02-1.11836E-01 5.47343E-03 6.04509E-02
 -1      1910-6.17972E-01-1.49404E-02-1.04854E-02 4.07259E-02 2.47549E-04 1.08772E-02
 -1      1911-6.30055E-01-8.26499E-03-1.14185E-02 4.99426E-02 5.62331E-03 6.43425E-03
 -1      1912-7.46839E-01 1.81327E-04-1.37069E-04 4.70695E-02 3.27018E-03-4.38969E-03
 -1      1913-3.50216E+00 4.45630E-04 5.04609E-04 1.18288E-02 6.69697E-03-4.66531E-02
 -1      1914-3.73627E+00 4.49335E-03 8.50350E-03 4.81859E-03-3.65481E-03-3.70775E-02
 -1      1915-4.00405E+00 2.21670E-03-7.98295E-03 1.01783E-02 3.51018E-03-3.91044E-02
 -1      1916-4.27272E+00-6.85806E-03-1.25833E-02 9.72218E-03-3.10624E-03-5.03910E-02
 -1      1917-4.56041E+00 1.49832E-03-3.08458E-03 4.40164E-02 4.60805E-03-1.96500E-02
 -1      1918-4.35422E+00 4.24785E-04-3.47322E-03 5.22558E-02-6.36970E-04-1.16724E-02
 -1      1919-5.03614E+00 3.61087E-04 6.92947E-03 4.89191E-02 2.82361E-03-1.10288E-02
 -1      1920-4.81814E+00-4.51437E-03-2.52950E-03 4.39731E-02-6.32970E-03-1.98898E-02
 -1      1921-1.06457E+01-1.88277E-03-4.54348E-04 1.41545E-02 2.53830E-03-7.56966E-03
 -1      1922-1.05673E+01-1.99093E-03-3.73207E-04 1.25833E-02 3.96068E-04-1.00406E-02
 -1      1923-1.07669E+01-2.75824E-03-1.25417E-03 1.32716E-02 7.01302E-04-5.56568E-03
 -1      1924-1.07116E+01-3.23330E-03-9.39578E-04 1.31685E-02-7.36901E-04-5.90664E-03
 -1      1925-1.12731E+01-1.65116E-02-4.10064E-03-5.09518E-03-3.11168E-04-8.11670E-03
 -1      1926-1.13239E+01-3.97111E-02-1.21155E-02 1.80962E-03-1.12430E-03-6.61668E-03
 -1      1927-1.11679E+01-3.36941E-03-4.25703E-03-1.37359E-03 9.84924E-04-4.92782E-03
 -1      1928-1.12165E+01-4.83960E-03-2.63919E-03-5.28693E-03-4.62488E-04-5.28614E-03
 -1      1929-1.11749E+01-6.96276E-02 8.71338E-03-3.34066E-03-2.96347E-03-2.08636E-03
 -1      1930-1.10262E+01-1.00609E-01 2.16545E-03-9.53727E-03-7.31303E-03-7.44740E-03
 -1      1931-1.10537E+01-2.39201E-01 2.63321E-03-8.78306E-02 2.69989E-03 1.33942E-02
 -1      1932-6.34525E+00 4.67523E-04 5.69857E-03 4.35358E-02 6.43159E-03-2.19933E-02
 -1      1933-6.11270E+00 3.54948E-03 3.92611E-03 3.77035E-02 6.42995E-04-2.64215E-02
 -1      1934-6.55444E+00-1.14574E-02-6.04010E-03 2.98159E-02 4.00032E-03-2.52860E-02
 -1      1935-6.97986E+00-5.69627E-03 9.74341E-04 7.25855E-03-3.61512E-03-2.17060E-02
 -1      1936-6.76570E+00-5.48509E-03-1.25972E-03 6.86521E-03 4.15849E-03-2.25239E-02
 -1      1937-3.16643E+00-4.36460E-03 2.31115E-03 5.70271E-02 4.85513E-03-1.78563E-02
 -1      1938-2.90231E+00 2.58778E-03-4.37318E-03 5.02474E-02-5.10592E-03-1.77703E-02
 -1      1939-3.32532E+00 4.86902E-03 1.71140E-03 2.03043E-02-4.28760E-03-4.15296E-02
 -1      1940-5.42149E+00 1.00262E-04-1.27119E-03 1.67251E-03 3.41745E-03-1.52512E-02
 -1      1941-5.66436E+00-3.32207E-03-1.32298E-04 4.76874E-03-4.62436E-03-1.66118E-02
 -1      1942-5.23604E+00-6.87881E-03-4.36423E-03 2.99622E-02 4.00051E-04-2.19362E-02
 -1      1943-8.24216E+00 6.77628E-04 2.58648E-03 3.62497E-02 5.86464E-03-1.66559E-02
 -1      1944-8.05488E+00 9.26135E-04 3.88216E-03 3.05878E-02 1.11477E-03-2.25054E-02
 -1      1945-8.46457E+00-1.09304E-02-9.57066E-03 2.18998E-02 2.20887E-03-2.38302E-02
 -1      1946-8.83554E+00 8.01164E-04-6.79564E-03 9.03118E-03-5.66859E-03-2.89763E-02
 -1      1947-8.68316E+00-7.59772E-03-1.00521E-02 6.04519E-03 2.61694E-03-1.99502E-02
 -1      1948-9.70606E+00-3.23682E-03 3.07443E-04 2.42183E-02 4.24918E-04-6.91890E-03
 -1      1949-9.59094E+00-3.72735E-03-1.73128E-04 2.28211E-02-2.57460E-03-1.53071E-02
 -1      1950-9.92380E+00-4.95786E-03-2.27032E-03 1.52013E-02-1.39908E-03-1.14066E-02
 -1      1951-1.02447E+01-2.71465E-03-4.24157E-03 6.56953E-03-3.42755E-03-1.16472E-02
 -1      1952-1.01399E+01-4.72055E-03-1.74198E-03 1.45539E-03-3.75250E-04-5.41300E-03
 -1      1953-1.07045E+01-3.43606E-03-1.25386E-03 9.17581E-03-6.37282E-04-9.13051E-03
 -1      1954-1.07493E+01-4.32526E-03-1.61177E-03-8.58589E-04 1.44353E-03-6.97830E-03
 -1      1955-1.08389E+01-6.16276E-03-1.75936E-03 2.39502E-03-3.73516E-04-6.28669E-03
 -1      1956-1.09688E+01-2.02350E-03-1.60662E-03 7.23644E-03-6.02364E-04-7.76077E-03
 -1      1957-4.29369E+00 4.67263E-03 5.43000E-03 3.15711E-02 2.81878E-03-2.61704E-02
 -1      1958 5.85061E+00 6.95772E-05 1.65718E-03-8.00625E-03 8.09439E-04-1.19379E-02
 -1      1959 3.93408E+00 1.70784E-03-1.51926E-03-9.05109E-03 4.12082E-05-2.48412E-02
 -1      1960 2.70955E+00 1.33377E-03 1.03114E-02 5.72870E-02-2.04990E-03-1.65408E-02
 -1      1961 1.32664E+00-8.57859E-04 2.15027E-03-1.06448E-02 1.20990E-03-1.27414E-02
 -1      1962 7.16139E+00 7.76798E-03 1.05624E-02-4.38895E-03 1.91951E-03-2.25371E-02
 -1      1963 4.61562E+00 3.78451E-03 4.07127E-03 5.11726E-02-5.96043E-04-1.74506E-02
 -1      1964 7.99067E+00 3.89271E-03 8.13806E-05-7.23762E-03 2.51153E-05-1.11021E-02
 -1      1965 1.05152E+01 8.63882E-04-2.59587E-03 1.62715E-02 3.22687E-05-4.22027E-03
 -1      1966 1.08728E+01 1.85055E-03-2.99566E-03-4.32350E-03 6.62136E-04-5.30267E-03
 -1      1967 1.14047E+01 1.54168E-03 3.67687E-03-1.28109E-02 1.59275E-03-5.07359E-03
 -1      1968 9.37111E+00 1.58523E-03-6.35139E-04 3.03226E-02-3.83196E-04-8.25271E-03
 -1      1969 8.52915E+00 4.12941E-04-3.73440E-03 3.95125E-02 7.88023E-04-4.64064E-03
 -1      1970 9.82891E+00 1.55827E-03 2.56207E-03 2.51197E-02-4.87867E-04-6.92618E-03
 -1      1971 1.08571E+01 2.33849E-01-6.01015E-03-1.67922E-01 4.53871E-03 2.63651E-03
 -1      1972 5.92453E+00 5.50381E-03 5.88037E-03 4.93676E-02-2.44402E-03-1.56144E-02
 -1      1973 2.41509E+00-1.54502E-03-1.18503E-02-1.43949E-02 9.51042E-04-8.45667E-03
 -1      1974 7.55412E-01-1.77826E-03 3.66415E-03 5.15392E-02-2.80242E-03 2.83585E-03
 -1      1975 7.84532E+00 8.71467E-03 9.40286E-03 3.25343E-02-3.47981E-03-2.33315E-02
 -1      1976 1.75863E+00-1.60517E-03-7.72513E-04 5.63254E-02 3.14940E-03-1.41583E-02
 -1      1977 7.14930E+00-6.95303E-03-5.62024E-03 3.58448E-02 3.63879E-03-2.62135E-02
 -1      1978 9.66809E+00 8.78770E-03 9.09335E-03 9.80803E-04 2.08332E-03-1.72449E-02
 -1      1979 8.71454E+00 4.57466E-03 3.92719E-03-5.51289E-03-9.43072E-04-8.97601E-03
 -1      1980 1.02335E+01 1.82747E-03-2.54486E-03-6.72759E-03 6.82558E-04-2.96877E-03
 -1      1981 1.12407E+01 1.14159E+00-7.61077E-01 2.82841E-01 2.42271E-02 7.77528E-04
 -1      1982 4.63492E-01 3.36313E-02 8.88067E-02 1.64034E-02-3.76401E-03 1.82535E-02
 -1      1983 3.70493E+00 2.00061E-03-9.49899E-04 5.68002E-02 8.37920E-04-1.44992E-02
 -1      1984 4.94497E+00-2.85281E-03-7.47458E-03-9.29514E-03 1.35956E-03-1.23410E-02
 -1      1985 1.02209E+01 2.82079E-03 1.25139E-04 2.12594E-02-7.05735E-04-8.93623E-03
 -1      1986 1.11837E+01 1.84145E-03-2.13953E-03-4.60319E-03 6.42012E-04-2.64485E-03
 -1      1987 1.07229E+01 2.57299E-03 5.35475E-03 1.94829E-02-9.42637E-04-8.77790E-03
 -1      1988 1.08188E+01 4.09609E-02 7.81696E-03 4.48148E-04 5.49277E-04-2.35059E-02
 -1      1989 1.12425E+01 1.81172E-01-2.24714E-02-3.61488E-03 4.46147E-03 4.20595E-03
 -1      1990 1.25184E+00-2.65527E-03-7.19869E-04 5.92014E-02 7.01026E-04-1.00727E-02
 -1      1991 6.30678E+00 4.66401E-03 3.74016E-03-6.81508E-03 1.24926E-03-1.28282E-02
 -1      1992 6.78438E+00-2.64991E-03-7.01170E-03 1.02207E-03-1.09218E-03-1.95591E-02
 -1      1993 6.75493E+00 2.60647E-03 2.99327E-03 2.39119E-02 1.74580E-04-2.56712E-02
 -1      1994 3.44585E+00-5.23477E-03-5.41693E-03-9.90829E-03 2.35129E-04-1.47073E-02
 -1      1995 8.37374E+00 1.44461E-03-4.99931E-03-7.77136E-03 1.96282E-04-6.44315E-03
 -1      1996 5.07140E+00 1.06338E-03 1.07966E-03 5.59075E-02-5.88260E-06-6.59284E-03
 -1      1997 2.26872E+00-5.70770E-04-8.54076E-03 6.39466E-02-1.17982E-04-6.71312E-03
 -1      1998 3.21510E+00 3.40581E-03 1.53153E-03 5.58358E-02-1.26289E-03-1.54247E-02
 -1      1999 9.96862E+00 2.63200E-03-3.36296E-04-4.52632E-03-5.20350E-05-9.88794E-03
 -1      2000 9.11090E+00-3.59781E-03-5.23825E-03 2.47991E-02 2.49233E-03-2.27717E-02
 -1      2001 8.80050E+00 3.62968E-03 6.59373E-03 3.57825E-02 1.19410E-04-5.66841E-03
 -1      2002 8.95268E+00 3.68765E-03 2.27014E-03 1.97976E-02-1.32015E-03-1.59269E-02
 -1      2003 1.06615E+01 7.12507E-03 7.38630E-03 8.42521E-04 1.43300E-03-1.13245E-02
 -1      2004 1.04519E+01 1.91374E-03 4.23626E-03-3.22514E-03 1.17431E-03-9.41702E-03
 -1      2005 1.83679E+00 5.22893E-03 6.01446E-03-8.63990E-03 2.62185E-04-1.07229E-02
 -1      2006 8.20918E+00 1.02492E-03-1.72069E-03 3.87306E-02-4.22167E-05-1.23607E-02
 -1      2007 1.00416E+01-1.94535E-03-2.02216E-03 1.77333E-02 1.30298E-03-1.40631E-02
 -1      2008 7.50789E+00 2.62494E-03 2.80678E-04 4.42019E-02-2.26163E-04-2.24596E-02
 -1      2009 1.10263E+01 3.96841E-03 5.26111E-03-2.92425E-03 1.22317E-03-3.21857E-03
 -1      2010 1.06139E+01 1.25390E-03 4.83473E-03 1.59564E-02-5.35711E-04-1.02806E-03
 -1      2011 1.12910E+01 1.77583E-03 6.06159E-03-3.63795E-03 1.98682E-03-4.68111E-03
 -1      2012 1.03677E+01 4.76985E-03 6.92826E-03 1.27914E-02-2.26957E-03-1.14573E-02
 -1      2013 4.40495E+00 1.08389E-02 1.08911E-02 2.43072E-03 4.11078E-03-3.27456E-02
 -1      2014 9.60698E+00 2.54077E-03 3.97321E-03 2.90902E-02 5.82470E-05-4.54583E-03
 -1      2015 5.38490E+00 2.82133E-03 5.96256E-03-1.09197E-02 2.43084E-04-7.92205E-03
 -1      2016 7.59590E+00-2.76390E-03-5.95895E-04-6.90644E-03-1.73947E-03-1.01915E-02
 -1      2017 2.87178E+00 4.66092E-03 1.56642E-02 2.73622E-04 5.19698E-03-2.80292E-02
 -1      2018 4.18718E+00-6.00368E-04-6.81880E-03 5.91549E-02-3.74038E-04-3.42913E-03
 -1      2019 5.51202E+00-5.17504E-04-1.00563E-03 5.13168E-02-5.96560E-04-1.27818E-02
 -1      2020 1.11329E+01 2.03735E-02 4.11754E-03 1.22408E-03 9.48644E-04-8.62945E-03
 -1      2021 1.14903E+01 3.11895E-02 6.79023E-03-9.49936E-03 1.65462E-04-5.05732E-03
 -1      2022 1.08214E+01 9.90596E-01-1.07146E+00-3.55478E-01-7.44743E-03 9.31448E-02
 -1      2023 6.75632E+00 2.30261E-03 4.76086E-03 4.79713E-02-1.40711E-03-8.93149E-03
 -1      2024 6.35725E+00-1.33313E-05-6.42799E-03 4.86680E-02 1.85988E-03-1.49298E-02
 -1      2025 8.62735E+00 4.07800E-03 1.77945E-03 2.19611E-02 5.98827E-04-1.50707E-02
 -1      2026 9.38432E+00-4.76236E-04 1.32563E-03-4.64543E-03 6.90703E-04-1.34836E-02
 -1      2027 1.06840E+00-3.00062E-03 6.28477E-03 2.87547E-02 2.60627E-03-1.69024E-02
 -1      2028 1.56548E+00-1.22985E-03 2.11077E-03 3.15925E-02 1.65141E-03-4.52912E-02
 -1      2029 4.07146E+00 1.82125E-03-2.62559E-04 2.47554E-02-1.06103E-03-3.91038E-02
 -1      2030 4.52978E+00 2.74669E-04 1.75847E-03 3.21579E-02 1.78625E-03-2.59355E-02
 -1      2031 5.00195E+00 2.82809E-03 1.51808E-03 2.70140E-02-1.44882E-03-2.12399E-02
 -1      2032 2.04462E+00 1.59136E-04 3.36038E-03 3.53883E-02 1.73401E-03-2.84876E-02
 -1      2033 3.09333E+00 1.17188E-03-5.52769E-03 2.89072E-02 6.37465E-04-4.29957E-02
 -1      2034 7.52921E+00 4.05378E-03 4.39347E-03 2.65259E-02-1.27282E-03-2.61452E-02
 -1      2035 5.92794E+00-2.15500E-03-1.02194E-03 2.65459E-02 9.42213E-04-3.52988E-02
 -1      2036 8.28800E+00 2.91864E-03 9.31944E-04 2.02929E-02-1.05855E-03-1.84991E-02
 -1      2037 1.06345E+01 3.43138E-03 2.17336E-03 1.11877E-02 6.63189E-04-1.24540E-02
 -1      2038 1.07742E+01 4.06814E-03 3.05018E-03 8.97457E-03-4.02671E-04-1.18068E-02
 -1      2039 1.09082E+01 2.38131E-03 2.74991E-03 7.39832E-03 5.42394E-05-7.64142E-03
 -1      2040 1.10243E+01 2.81986E-03 1.08018E-03 4.75088E-03 3.33187E-04-8.75399E-03
 -1      2041 3.54892E+00 2.54108E-03 6.82330E-03 2.78644E-02-2.20477E-03-4.10552E-02
 -1      2042 1.04367E+01 2.61819E-03 3.32551E-03 1.21275E-02 4.52186E-04-1.23332E-02
 -1      2043 5.46513E+00 2.84998E-03 2.15469E-03 2.76729E-02 5.01623E-04-2.38720E-02
 -1      2044 9.79424E+00 4.24482E-03 1.58609E-03 1.51981E-02 5.56167E-04-1.23965E-02
 -1      2045 1.00349E+01 3.12708E-03 2.45052E-03 1.49370E-02 2.65152E-06-1.23796E-02
 -1      2046 1.02638E+01 4.56328E-03 1.51335E-03 1.13549E-02 7.13721E-04-1.61141E-02
 -1      2047 2.57681E+00 6.88595E-04 3.95631E-03 2.88134E-02-3.85098E-04-3.00393E-02
 -1      2048 9.51419E+00 1.77911E-03 2.67794E-03 1.79681E-02 3.98792E-04-1.83883E-02
 -1      2049 7.94643E+00 3.16900E-03 1.48841E-03 2.66889E-02 6.53539E-04-2.84767E-02
 -1      2050 7.17495E+00 1.79853E-03-2.27205E-03 2.61173E-02 8.18336E-04-3.37876E-02
 -1      2051 6.33255E+00 2.94150E-03 4.99870E-03 2.63798E-02 1.76073E-04-3.83458E-02
 -1      2052 9.06842E+00 2.57793E-03 3.88124E-04-7.91651E-03-2.94030E-05-5.16521E-03
 -1      2053 9.26645E+00 5.00070E-03 1.26964E-03 1.60521E-02 8.28038E-04-2.20818E-02
 -1      2054 4.83357E-01 4.04399E-02 1.11712E-01 5.10806E-02 1.61366E-03 3.79453E-02
 -1      2055 1.15110E+01 1.90141E-01-2.30862E-02 1.21122E-01 6.80630E-03 1.56260E-02
 -1      2056 8.16380E-01-3.88674E-03-1.46006E-04-2.28866E-03 2.88435E-04-3.84819E-03
 -1      2057 1.11409E+01 6.60216E-01-6.84093E-02-1.53001E-02 3.01775E-03 5.94240E-02
 -1      2058 1.06366E+01 5.54934E-01-8.04672E-01-8.64211E-01-3.05830E-02 6.88744E-03
 -1      2059 1.13713E+01 4.30139E-01-8.01749E-01 7.76265E-01 8.07088E-02 1.22059E-01
 -1      2060 4.56599E-01 2.42231E-02 5.67862E-02 4.79071E-02 3.63365E-03 2.29423E-02
 -1      2061 4.53066E-01 3.95240E-02 9.35328E-02-8.27227E-03-8.37203E-04 2.19724E-02
 -1      2062 7.19482E-01 2.78940E-03 3.17725E-03 3.90665E-02-1.08603E-03 1.02694E-03
 -1      2063 1.24660E+01 1.97470E+00 1.11642E+00 1.70521E+00-2.88342E-01-6.62762E-01
 -1      2064 1.15081E+01 2.32752E+00 9.20534E-01 9.56303E-01-5.41387E-03-1.04007E+00
 -1      2065 1.07930E+01-2.15199E-01-4.42788E-01 2.53094E-01 1.82676E-01 2.59893E-01
 -1      2066 1.09336E+01 2.47950E+00 1.23103E+00-1.13477E+00 1.03442E-01-9.97536E-01
 -1      2067 1.12604E+01 1.80908E+00 9.65495E-01-1.64939E+00 2.26687E-01-5.54867E-01
 -1      2068 9.74716E+00-1.64912E-01-3.81884E-01-3.29060E-01-1.21082E-01 2.45115E-01
 -1      2069 3.39493E-01 3.10367E-02 4.58797E-02-2.88175E-03 4.13096E-03-2.95222E-02
 -1      2070 3.06881E-01 1.83945E-02 4.52818E-04-1.07461E-02 1.09119E-02-2.96253E-02
 -1      2071 5.65852E-01 1.29734E-02 2.82554E-02-6.04503E-03-1.23729E-05 2.72461E-02
 -1      2072 3.10441E-01 2.19858E-02-9.42890E-03 3.45385E-02-9.03579E-03-3.13049E-02
 -1      2073 3.39092E-01 3.66139E-02 1.17979E-02 5.40421E-02-9.65187E-04-2.85635E-02
 -1      2074 5.17560E-01 8.34978E-03 2.82263E-02 2.43112E-02 2.57514E-03 2.47888E-02
 -1      2075 1.17309E+01 2.89038E+00 1.43372E+00 6.02592E-01 8.47760E-02-1.14954E+00
 -1      2076 1.15141E+01 2.74365E+00 1.21632E+00 1.21482E-01 4.04439E-02-1.09690E+00
 -1      2077 1.13645E+01 9.36124E-01-8.31186E-01 5.54794E-01 2.53142E-02 9.39132E-02
 -1      2078 1.14501E+01 2.80789E+00 1.35501E+00-2.79897E-01 6.94703E-02-1.11598E+00
 -1      2079 1.09245E+01 2.45421E+00 7.75287E-01-7.52032E-01-2.23448E-02-8.55280E-01
 -1      2080 1.10042E+01 1.21372E+00-7.69215E-01-4.24511E-02 2.53803E-02 5.65709E-02
 -1      2081 1.06273E+01 8.43911E-01-9.96311E-01-6.10730E-01-2.29290E-03 1.25691E-01
 -1      2082 3.36981E-01 2.14352E-02 3.77522E-02 1.85914E-02-4.50071E-04-3.64690E-02
 -1      2083 3.43351E-01 3.20805E-02 3.09567E-02 7.26309E-03-1.69129E-03-2.00121E-02
 -1      2084 4.56729E-01 4.02269E-02 8.82261E-02-2.41493E-03-3.35695E-03 1.74982E-02
 -1      2085 3.40855E-01 4.55971E-02 5.17946E-02 4.13899E-02-7.27170E-05-2.83088E-02
 -1      2086 3.30407E-01 1.92410E-02 2.47645E-02 3.66446E-02 1.32698E-03-2.34441E-02
 -1      2087 4.66249E-01 2.75759E-02 8.61511E-02 3.78873E-02-2.84135E-03 2.44496E-02
 -1      2088 4.62978E-01 3.65185E-02 8.32865E-02 4.79682E-02-2.94528E-03 2.38536E-02
 -1      2089 1.15806E+01 6.59480E-02 2.58092E-02 5.41298E-02 8.08639E-03-1.32219E-03
 -1      2090 1.14061E+01 2.39960E-01 1.25999E-01 1.73969E-01-8.10494E-02 4.61926E-02
 -1      2091 1.12468E+01 3.67446E-01-9.86593E-02 4.10997E-01 2.61348E-02 7.50055E-02
 -1      2092 1.15980E+01 1.19493E-02 3.00184E-03-1.08876E-02-2.79058E-03-2.96741E-04
 -1      2093 1.15733E+01 2.46330E-02 1.15782E-02 3.08006E-03-1.10776E-02 9.28721E-03
 -1      2094 1.14862E+01 8.31067E-02-1.59393E-03 3.20718E-02 1.70784E-02 5.72167E-03
 -1      2095 1.15430E+01 8.84776E-04 3.00452E-03-9.14594E-03-4.20201E-04-6.03435E-03
 -1      2096 1.15633E+01 2.48681E-03 3.17841E-03-1.15282E-02-1.89793E-03 1.14162E-03
 -1      2097 1.14494E+01 1.51316E-02 3.64022E-03-1.23525E-02-6.23495E-04-4.19781E-03
 -1      2098 1.14426E+01 2.18314E-03 3.38912E-03-5.69615E-03 4.97657E-04-4.40601E-03
 -1      2099 1.14902E+01 1.84842E-03 3.60292E-03-5.98095E-03 1.94034E-03-5.36710E-03
 -1      2100 1.13551E+01 2.04621E-03 3.63102E-03-8.13266E-03 1.06643E-04-5.42860E-03
 -1      2101 1.13165E+01 1.17542E-03-4.26406E-04-4.64292E-03-6.07865E-04-7.91689E-03
 -1      2102 1.13803E+01 9.07844E-04-2.07620E-03-5.66699E-03 5.40089E-04-2.62194E-03
 -1      2103 1.12425E+01 2.66872E-03 3.42847E-03-6.42208E-03 1.17240E-03-1.26416E-03
 -1      2104 1.11607E+01 2.80060E-03 3.43174E-03-5.11987E-03-1.45755E-04-5.06860E-03
 -1      2105 1.12408E+01 2.17311E-03 3.59981E-03-4.09122E-03 2.56087E-03-8.14675E-03
 -1      2106 1.11084E+01 3.71759E-03 8.36197E-04-3.87506E-03 7.69737E-04-6.97000E-03
 -1      2107 1.09849E+01 1.52106E-04-2.08674E-03-5.26027E-03-1.32500E-03-1.23381E-02
 -1      2108 1.10775E+01 1.02799E-03-2.66820E-03-6.62737E-03 7.86704E-04-4.29661E-03
 -1      2109 1.09528E+01 3.31416E-03 3.36310E-03-4.23681E-03 4.00804E-04-2.67987E-03
 -1      2110 1.07809E+01 3.44300E-03 3.71045E-03-1.05755E-02 2.77815E-05-4.73405E-03
 -1      2111 1.08816E+01 2.84699E-03 3.76634E-03-4.86563E-03 2.85178E-03-1.36621E-02
 -1      2112 1.07614E+01 1.47552E-03-1.86323E-03-3.10046E-03 1.16704E-03-1.37186E-02
 -1      2113 1.05613E+01 2.06880E-03 2.87668E-03-8.80462E-03 5.72157E-05-8.41118E-03
 -1      2114 1.06810E+01 1.02806E-03-6.80695E-04-9.86385E-03 2.71990E-03-5.52784E-03
 -1      2115 1.05765E+01 1.13699E-02 8.70701E-03-3.74116E-03 3.12884E-04-6.98446E-03
 -1      2116 1.03205E+01 7.19398E-04-1.27792E-03-7.43389E-03-9.38648E-04-1.24000E-02
 -1      2117 1.04433E+01 9.53032E-04-2.77987E-03-1.00805E-02 1.03084E-03-4.62343E-03
 -1      2118 1.03480E+01 2.14442E-03 5.06555E-03-7.14515E-03 1.32499E-04-4.20054E-03
 -1      2119 1.00448E+01 1.17704E-03-2.71518E-04-7.58611E-03-3.05022E-03-1.74974E-02
 -1      2120 1.01851E+01 7.93826E-04-1.98776E-05-6.03213E-03 2.03977E-03-1.46314E-02
 -1      2121 1.00958E+01 2.58421E-03-3.67243E-03-5.71675E-03 1.18152E-03-1.01746E-02
 -1      2122 9.75267E+00 4.23519E-03 4.97468E-03-1.52934E-02-2.34571E-04-7.39858E-03
 -1      2123 9.89493E+00 2.66227E-03 3.88624E-03-7.96116E-03 3.78618E-03-1.94896E-02
 -1      2124 9.80927E+00 3.87431E-04-1.51450E-03-4.95395E-03 1.08019E-03-1.80563E-02
 -1      2125 9.45019E+00 1.01604E-03 4.08731E-03-1.05630E-02-1.55174E-03-1.72869E-02
 -1      2126 9.61152E+00-8.07573E-04-3.00385E-03-1.33025E-02 2.22835E-03-8.05101E-03
 -1      2127 9.55013E+00 1.26551E-02 9.50413E-03-5.25644E-03 1.14396E-04-1.07564E-02
 -1      2128 9.12232E+00 2.17010E-03-5.84145E-04-1.02559E-02-1.00839E-03-1.57413E-02
 -1      2129 9.28286E+00 6.38712E-04 1.86221E-03-9.91089E-03 1.33919E-03-1.49472E-02
 -1      2130 9.24034E+00 5.27270E-03 8.33646E-03-8.05156E-03 5.34557E-04-9.60719E-03
 -1      2131 8.75586E+00 3.59996E-04 4.05383E-03-1.48134E-02-2.44437E-03-7.11303E-03
 -1      2132 8.95080E+00 4.56038E-03 1.02880E-03-9.99991E-03 4.19078E-03-1.50569E-02
 -1      2133 8.89463E+00 1.69155E-03-5.26824E-03-8.32505E-03-4.64290E-04-8.89722E-03
 -1      2134 8.40392E+00 1.61346E-03-3.20814E-03-1.18150E-02-2.02490E-03-2.00475E-02
 -1      2135 8.58438E+00-9.30713E-04-3.97135E-03-1.38935E-02 9.16305E-04-8.82393E-03
 -1      2136 8.54661E+00 5.52192E-03 3.11452E-03-7.54149E-03-2.13381E-04-2.40465E-03
 -1      2137 8.01105E+00 1.69926E-03 5.83953E-04-1.08418E-02-3.13411E-03-2.09780E-02
 -1      2138 8.20476E+00 8.42503E-04-1.41103E-04-1.00202E-02 3.06844E-03-2.00605E-02
 -1      2139 8.17717E+00 1.65062E-03-6.88290E-03-8.70448E-03 1.01286E-03-1.44559E-02
 -1      2140 7.60764E+00 1.20388E-03 3.39626E-04-1.00872E-02-5.01182E-03-2.21113E-02
 -1      2141 7.81091E+00-1.95154E-03 1.62639E-03-1.04805E-02 2.89743E-03-2.11939E-02
 -1      2142 7.78680E+00-4.55851E-04-7.19175E-04-1.05592E-02 3.95058E-04-1.43565E-02
 -1      2143 7.17981E+00 3.80680E-03 6.05314E-03-1.74459E-02-1.07616E-03-1.31749E-02
 -1      2144 7.38074E+00-7.41425E-04 3.56071E-03-1.33864E-02 3.73154E-03-2.74711E-02
 -1      2145 7.38216E+00-9.29408E-04 3.62341E-03-8.36683E-03-6.83802E-04-2.34818E-02
 -1      2146 6.75887E+00-6.47797E-04-1.56533E-03-1.24300E-02-4.91967E-03-2.73699E-02
 -1      2147 6.98007E+00-4.82165E-04-4.21002E-03-1.80787E-02 2.34115E-03-1.11772E-02
 -1      2148 6.97374E+00 6.78277E-03 1.90262E-03 2.93572E-03 5.03835E-04-2.01239E-02
 -1      2149 6.29381E+00 3.54086E-03 1.71735E-03-1.16438E-02-3.23490E-03-2.42404E-02
 -1      2150 6.52306E+00 1.09185E-03 3.72870E-03-1.09182E-02 5.33614E-03-2.60626E-02
 -1      2151 6.54255E+00 4.52737E-03 2.34891E-03-8.20521E-03 3.97168E-05-2.44844E-02
 -1      2152 5.83143E+00 2.13897E-03 3.23774E-03-1.27821E-02-3.14338E-03-2.34871E-02
 -1      2153 6.06291E+00 7.41736E-04 2.16493E-03-1.30573E-02 3.97559E-03-2.34901E-02
 -1      2154 6.09122E+00 5.76162E-03 5.06377E-03-1.09745E-02-6.83058E-04-1.54098E-02
 -1      2155 5.35830E+00 3.71261E-03 5.80324E-03-1.79853E-02-9.33230E-04-1.18552E-02
 -1      2156 5.58853E+00 1.44048E-03 5.75714E-03-1.57744E-02 2.66321E-03-2.35891E-02
 -1      2157 5.62779E+00 3.76259E-03 9.12645E-03-1.10583E-02-4.56647E-04-1.62195E-02
 -1      2158 4.86231E+00-4.67188E-03-6.77221E-03-1.52696E-02-5.83224E-03-2.71696E-02
 -1      2159 5.12668E+00 1.07834E-04-4.90091E-03-1.72174E-02 2.10740E-03-1.25658E-02
 -1      2160 5.15947E+00-2.75220E-03-2.92566E-03-9.61384E-03 1.08265E-03-6.27230E-03
 -1      2161 4.36416E+00 5.49877E-03 7.16603E-03-2.48516E-02-5.99985E-04-1.27658E-02
 -1      2162 4.60390E+00 2.28532E-03 3.48548E-03-1.41755E-02 6.30858E-03-3.42493E-02
 -1      2163 4.64317E+00-4.29486E-03-8.73192E-03-7.80408E-03 4.21602E-03-3.05673E-02
 -1      2164 3.86269E+00 1.91485E-03 3.58575E-03-2.26937E-02-1.73050E-03-1.61782E-02
 -1      2165 4.12218E+00-3.65882E-04-3.75389E-03-2.29011E-02 2.34070E-03-1.55227E-02
 -1      2166 4.19462E+00 1.57225E-02 8.03703E-03-7.09741E-03 7.98206E-04-2.62791E-02
 -1      2167 3.34416E+00-3.01212E-03-5.60875E-03-1.34870E-02-6.13896E-03-2.93664E-02
 -1      2168 3.61740E+00-9.30197E-04-5.07233E-03-2.12056E-02 2.66113E-03-1.15401E-02
 -1      2169 3.68309E+00-7.65587E-03-5.48083E-03-8.59582E-03 5.47786E-04-2.15479E-02
 -1      2170 2.81745E+00 5.55111E-03 8.42633E-03-1.80146E-02 9.67732E-04-1.84328E-02
 -1      2171 3.07009E+00 1.01787E-04 3.27802E-03-1.59225E-02 7.65950E-03-3.44449E-02
 -1      2172 3.15500E+00-1.79172E-03 9.13530E-04-1.07300E-02 7.85929E-05-3.03834E-02
 -1      2173 2.30058E+00-4.40143E-03-9.95751E-03-1.49981E-02-2.76907E-03-2.83855E-02
 -1      2174 2.56536E+00-5.28974E-05-9.31712E-03-2.26065E-02 1.54346E-03-9.36399E-03
 -1      2175 2.66010E+00 3.79524E-03 8.40660E-03-1.40097E-02 1.00036E-03-9.43774E-03
 -1      2176 1.74134E+00 1.42935E-03 5.25066E-03-2.01695E-02-2.35511E-03-1.05421E-02
 -1      2177 2.02462E+00 4.52910E-03 5.98127E-03-1.20052E-02 6.94574E-03-2.75817E-02
 -1      2178 2.12525E+00 1.57189E-03-5.84423E-03-1.10684E-02 3.41643E-03-2.47409E-02
 -1      2179 1.21330E+00-2.70680E-03 5.18316E-03-2.24370E-02-1.79093E-03-9.64941E-03
 -1      2180 1.49602E+00 2.54570E-03-1.46071E-03-1.99706E-02 3.42084E-03-1.04097E-02
 -1      2181 1.60009E+00 1.17555E-02 7.17192E-03-5.91225E-03-2.78346E-04-1.15319E-02
 -1      2182 6.96403E-01-6.02644E-03-3.85803E-03-1.11052E-02-1.11653E-03 4.03056E-05
 -1      2183 9.59170E-01-1.36151E-03-4.06724E-03-1.32230E-02 2.20823E-03-1.16384E-02
 -1      2184 1.07164E+00-2.10376E-03-1.56476E-03-5.06903E-03 4.57611E-03-1.24840E-02
 -1      2185 6.50107E-01 2.02739E-02 1.62326E-02-3.90876E-05 2.24360E-03 1.13547E-02
 -1      2186 1.04207E+01 2.41010E-01 1.28409E-01-2.10684E-01 6.91222E-02 3.64178E-02
 -1      2187 1.06274E+01 1.02971E-01 4.98378E-02-7.67691E-02 7.28785E-03-1.99045E-02
 -1      2188 1.04711E+01 3.59705E-01-1.26025E-01-4.80583E-01 4.22331E-03 9.90709E-02
 -1      2189 1.05277E+01 2.12566E-02 1.26504E-02-1.59881E-02 2.32158E-03-1.25645E-02
 -1      2190 1.05928E+01 2.08874E-02 1.96734E-02 7.90323E-03 4.28397E-03-1.85128E-02
 -1      2191 1.08187E+01 1.02448E-01-1.62135E-02-5.44995E-02-1.17723E-02 2.94068E-03
 -1      2192 1.05258E+01 1.24250E-03 4.78664E-04 1.25808E-02-8.01800E-04-5.17802E-03
 -1      2193 1.05103E+01 1.41239E-03 3.54689E-03 1.30932E-02 9.31664E-04-6.14741E-03
 -1      2194 1.07657E+01 1.60193E-02 1.40270E-03 1.90949E-02-1.16675E-03-9.47290E-03
 -1      2195 1.04647E+01 3.34629E-03 4.38155E-03 1.13940E-02-1.09237E-03-3.67404E-03
 -1      2196 1.04134E+01 2.83872E-05 2.56011E-03 1.23697E-02 1.23650E-05-2.14473E-03
 -1      2197 1.06773E+01 2.32088E-03 4.16794E-03 1.65514E-02 1.01424E-03-3.09982E-03
 -1      2198 1.03636E+01 1.08856E-04-1.42407E-03 1.18228E-02 1.86014E-05-3.44233E-03
 -1      2199 1.03048E+01 6.12843E-04-1.09594E-03 1.23021E-02 1.20855E-03-1.01559E-02
 -1      2200 1.05680E+01 2.82660E-03 2.57292E-03 1.57317E-02-1.71759E-04-3.43564E-04
 -1      2201 1.02308E+01 7.16487E-04 3.22654E-03 1.27049E-02-2.70600E-03-1.17155E-02
 -1      2202 1.01696E+01 5.19237E-03 5.28484E-03 1.54032E-02-4.61994E-04-6.44698E-03
 -1      2203 1.04368E+01 5.67248E-04-1.18189E-03 1.64960E-02-1.17430E-03-1.12247E-02
 -1      2204 1.00876E+01 2.42701E-03-1.78348E-03 1.83055E-02-1.44381E-03-5.34731E-03
 -1      2205 1.00029E+01 1.76046E-03 2.50026E-03 1.87244E-02 9.33246E-04-4.85528E-03
 -1      2206 1.03039E+01 5.49756E-03 4.95703E-03 1.97137E-02-6.84407E-04-9.91348E-03
 -1      2207 9.91352E+00-8.31295E-04-2.67101E-03 2.03047E-02-8.02920E-04-5.55266E-03
 -1      2208 9.82957E+00 1.87615E-03 1.46576E-03 1.70007E-02 2.20791E-03-1.46670E-02
 -1      2209 1.01196E+01-3.44187E-03-2.90902E-03 2.02234E-02-6.03511E-04-1.02277E-02
 -1      2210 9.72144E+00 1.65016E-03 3.32148E-03 1.83930E-02-2.26474E-03-1.30479E-02
 -1      2211 9.61861E+00 1.98192E-03 3.09231E-03 1.80287E-02 1.26511E-03-1.25032E-02
 -1      2212 9.95103E+00 5.39105E-03 5.57066E-03 2.41286E-02 1.72768E-03-1.25020E-02
 -1      2213 9.50241E+00 1.40217E-03 4.06235E-03 2.07802E-02-1.11581E-03-1.28961E-02
 -1      2214 9.39673E+00 3.41214E-03 4.70682E-03 2.28249E-02 4.69572E-04-6.70278E-03
 -1      2215 9.72498E+00 3.37269E-03 6.12393E-03 2.81289E-02 2.09726E-04-8.48783E-03
 -1      2216 9.27792E+00 3.71775E-03-2.42728E-04 2.46537E-02-1.84079E-03-5.18563E-03
 -1      2217 9.14127E+00-1.82422E-03 3.87695E-03 2.86783E-02 2.53196E-03-4.01124E-03
 -1      2218 9.49100E+00-3.53569E-04-2.42547E-03 2.86677E-02-4.52980E-04-5.02943E-03
 -1      2219 9.01324E+00-4.20156E-03-5.69129E-03 2.79876E-02 1.71939E-04-1.04061E-02
 -1      2220 8.89676E+00 3.51407E-03 1.75815E-03 2.52031E-02 3.18453E-03-2.26348E-02
 -1      2221 9.22087E+00-2.77492E-03-5.84027E-03 3.22758E-02-9.89623E-04-1.32099E-02
 -1      2222 8.74643E+00 5.31251E-03 7.46604E-03 2.63713E-02-3.95397E-03-1.62768E-02
 -1      2223 8.59394E+00 5.25423E-04 4.01049E-03 2.82322E-02 7.29971E-04-6.81495E-03
 -1      2224 8.98730E+00 7.10421E-03 8.64859E-03 3.45816E-02 2.63270E-03-1.78840E-02
 -1      2225 8.45266E+00-9.86878E-04-3.21841E-03 2.92860E-02-1.57257E-05-7.71337E-03
 -1      2226 8.30942E+00 8.51758E-04-2.91347E-03 2.92936E-02 1.87356E-03-1.75932E-02
 -1      2227 8.66984E+00 4.29190E-03 2.08186E-03 3.71137E-02 7.17503E-04-1.56937E-03
 -1      2228 8.14291E+00-6.22517E-04-1.54039E-03 2.69779E-02-2.61615E-03-1.88794E-02
 -1      2229 7.98220E+00 7.79196E-04-1.09626E-03 2.89863E-02 3.40906E-03-2.28601E-02
 -1      2230 8.36516E+00-5.22462E-05-6.09323E-03 4.10079E-02-3.45567E-04-1.26438E-02
 -1      2231 7.80199E+00 1.72603E-03 4.39732E-03 2.99555E-02-5.12614E-03-2.55647E-02
 -1      2232 7.64468E+00 3.88571E-03 6.00026E-03 3.80332E-02 1.18003E-04-8.68172E-03
 -1      2233 8.01307E+00-1.61829E-03-3.27392E-03 4.01505E-02-3.11376E-03-2.36908E-02
 -1      2234 7.47282E+00 6.69869E-04-2.21031E-03 3.87280E-02-1.31870E-03-1.35295E-02
 -1      2235 7.29471E+00 2.75902E-03 4.81631E-03 3.93376E-02 1.36749E-03-1.40253E-02
 -1      2236 7.69803E+00 1.35734E-02 7.98156E-03 4.11749E-02-9.83906E-04-2.09492E-02
 -1      2237 7.11624E+00-1.91114E-03-2.29915E-03 4.34228E-02-1.69449E-03-8.68324E-03
 -1      2238 6.92886E+00-1.53305E-03 2.08352E-03 4.05249E-02 2.99011E-03-8.43691E-03
 -1      2239 7.30834E+00-1.16547E-02-7.70066E-03 4.37137E-02 5.77587E-04-2.41169E-02
 -1      2240 6.74327E+00 5.20378E-03-1.90347E-03 4.03359E-02-3.75773E-03-7.04277E-03
 -1      2241 6.53847E+00-2.79768E-03 5.08408E-03 4.06108E-02 1.24351E-03-4.57358E-03
 -1      2242 6.97447E+00 3.84672E-03 8.35073E-03 4.12296E-02 4.51563E-03-1.87372E-02
 -1      2243 6.34114E+00-6.91279E-04-6.17409E-03 3.65363E-02-9.02344E-05-1.46370E-02
 -1      2244 6.14162E+00 2.94630E-04-5.98489E-04 3.73637E-02 4.96006E-03-2.59432E-02
 -1      2245 6.54564E+00 1.19426E-03-5.59478E-03 4.70938E-02-2.73885E-03-1.18670E-02
 -1      2246 5.93733E+00 5.40308E-04 4.13028E-03 3.63258E-02-6.07478E-03-2.77090E-02
 -1      2247 5.73571E+00 4.95579E-03 8.56282E-03 3.97041E-02 7.53851E-04-1.46917E-02
 -1      2248 6.13267E+00 5.55441E-04-1.71095E-03 5.29819E-02-2.65163E-03-2.01574E-02
 -1      2249 5.52738E+00 1.72538E-03-7.49988E-03 4.48443E-02-3.12143E-03-9.27550E-03
 -1      2250 5.31172E+00-1.53443E-03 1.21046E-03 3.79036E-02 3.47401E-03-2.13724E-02
 -1      2251 5.72922E+00 4.31684E-03 6.19710E-03 5.18484E-02 3.39871E-03-1.29688E-02
 -1      2252 5.08735E+00-8.01394E-04 1.78835E-03 3.88762E-02-1.45946E-03-2.22599E-02
 -1      2253 4.88635E+00 1.85361E-03-5.06250E-04 3.98776E-02 1.37089E-03-2.26282E-02
 -1      2254 5.30026E+00 4.61563E-03 9.21524E-03 5.59123E-02-9.79182E-04-1.22961E-02
 -1      2255 4.65918E+00 1.52814E-03-2.40084E-03 4.09759E-02-5.91260E-03-2.40848E-02
 -1      2256 4.43083E+00 3.02736E-03 6.73976E-03 4.24401E-02 1.94540E-03-1.51802E-02
 -1      2257 4.83682E+00-1.29818E-03-9.11841E-03 5.74834E-02 4.45352E-04-1.17022E-02
 -1      2258 4.21041E+00-2.13581E-04-7.11093E-03 4.66266E-02-1.29953E-03-8.64679E-03
 -1      2259 3.99188E+00-2.03235E-03-5.54484E-03 4.01915E-02 2.49926E-03-2.37488E-02
 -1      2260 4.39905E+00-9.38301E-04 5.06938E-03 5.79966E-02 1.49758E-03-5.40618E-03
 -1      2261 3.74787E+00 1.40860E-05-1.21325E-03 3.89694E-02-3.37063E-03-2.73119E-02
 -1      2262 3.52272E+00 9.28815E-04-1.15705E-03 4.08806E-02 4.13655E-03-2.87888E-02
 -1      2263 3.92721E+00-1.37687E-03-9.94653E-03 5.87077E-02-2.40699E-03-1.70688E-02
 -1      2264 3.27626E+00-1.13165E-03 1.46142E-03 3.93822E-02-5.57369E-03-2.99925E-02
 -1      2265 3.05040E+00 3.27559E-03 6.15568E-04 4.01948E-02 4.48630E-03-3.00878E-02
 -1      2266 3.45199E+00 1.05234E-03-9.99574E-04 6.03187E-02-2.13625E-03-2.02116E-02
 -1      2267 2.80537E+00 1.75423E-03 4.87586E-03 4.50165E-02-5.74090E-03-2.88611E-02
 -1      2268 2.56561E+00 1.52880E-03 7.94849E-03 4.40179E-02-2.03721E-04-1.82862E-02
 -1      2269 2.98209E+00 6.16030E-03 6.97383E-03 6.23327E-02 2.07440E-03-1.97764E-02
 -1      2270 2.33030E+00-2.17247E-04-8.92120E-03 4.99586E-02-7.08570E-04-9.98053E-03
 -1      2271 2.09705E+00-4.65968E-03-7.41204E-03 4.30299E-02 2.40863E-03-2.74711E-02
 -1      2272 2.49210E+00 9.23837E-04 7.25456E-03 6.07431E-02 2.11623E-03-9.44520E-03
 -1      2273 1.84585E+00-1.47723E-03 9.16029E-04 3.96017E-02-4.20721E-03-3.03902E-02
 -1      2274 1.60958E+00 2.77027E-03 1.18468E-03 4.08887E-02 6.12107E-03-2.82423E-02
 -1      2275 1.99664E+00-2.99076E-03-8.68036E-03 6.11670E-02-2.83858E-03-2.11821E-02
 -1      2276 1.34801E+00-2.01392E-03 3.97495E-04 4.22485E-02-3.65579E-03-2.63351E-02
 -1      2277 1.11454E+00-1.28078E-04-1.01564E-03 4.03072E-02 3.15054E-03-2.28260E-02
 -1      2278 1.50021E+00-4.94266E-03-1.34326E-03 6.14684E-02 2.35436E-03-1.72954E-02
 -1      2279 8.63350E-01-1.70517E-03 3.08493E-03 3.82257E-02-4.81273E-03-1.76571E-02
 -1      2280 6.40623E-01-3.85942E-03-1.13954E-03 3.37819E-02-2.13201E-03 1.91682E-03
 -1      2281 1.00025E+00-3.10112E-03-1.32665E-04 5.83294E-02 4.84944E-05-1.21996E-02
 -1      2282 5.99758E-01 1.13710E-02 6.74897E-03 4.31241E-02-2.22375E-03 8.02235E-03
 -1      2283 5.88518E+00 3.91881E-03 5.11580E-03 3.02655E-03-2.26504E-03-1.62863E-02
 -1      2284 6.12556E+00 9.17967E-03 2.20347E-03 8.56746E-04 4.41898E-03-1.82800E-02
 -1      2285 5.42503E+00 2.24466E-03 9.03225E-03 5.15659E-03-2.11993E-03-1.44232E-02
 -1      2286 5.66221E+00 3.08217E-03 1.39306E-03 3.11068E-03 4.32840E-03-1.63941E-02
 -1      2287 5.68683E+00 1.78536E-03 1.49280E-03 2.85228E-02-4.96720E-04-2.85817E-02
 -1      2288 3.48477E+00-1.15169E-03 1.45271E-03-5.15549E-03-5.17649E-03-2.28271E-02
 -1      2289 3.74683E+00 4.51960E-03-4.69291E-03 4.67337E-03 2.13979E-04-3.32674E-02
 -1      2290 3.99805E+00-3.33117E-03 4.76053E-03 1.23470E-02-4.91180E-03-3.60453E-02
 -1      2291 4.27001E+00 6.10079E-03 1.14134E-02 6.85704E-03 3.38091E-03-5.05498E-02
 -1      2292 3.80484E+00 4.16803E-03 3.35351E-03 3.12340E-02-3.32933E-03-3.66559E-02
 -1      2293 2.63840E+00 1.78487E-03 7.46913E-03 4.61944E-02-4.57102E-03-2.00946E-02
 -1      2294 2.41230E+00 9.31868E-04 2.71049E-03 5.25645E-02-3.66822E-04-1.55880E-02
 -1      2295 3.16579E+00 6.15403E-03-2.69267E-03 6.01392E-02-4.54576E-03-2.00810E-02
 -1      2296 2.90600E+00 1.76897E-03 6.88544E-03 5.43730E-02 4.54107E-03-2.02217E-02
 -1      2297 2.82644E+00-8.47621E-03-9.20642E-05 3.01271E-02 2.26451E-05-3.38319E-02
 -1      2298 1.45698E+00 6.90487E-04 6.70422E-03 4.18123E-03-1.38124E-03-3.18432E-02
 -1      2299 1.71170E+00 3.10877E-04 7.83802E-04-4.82516E-03 6.30510E-03-2.41181E-02
 -1      2300 1.33979E+00 1.17779E-02 1.60987E-02 2.83162E-02 1.52893E-03-2.75240E-02
 -1      2301 1.20544E+00 3.66201E-03 2.09341E-03 9.04985E-03 4.83566E-03-2.25396E-02
 -1      2302 9.38064E-01-4.66206E-03 4.91909E-04 9.71244E-03 5.20638E-04-1.14533E-02
 -1      2303 6.73539E+00-9.75347E-03-1.16901E-02 3.96074E-03-4.88989E-03-3.08097E-02
 -1      2304 6.98979E+00 1.48928E-02 1.91655E-02 7.24067E-03 5.15143E-03-2.86607E-02
 -1      2305 6.98050E+00-1.95651E-03 4.59402E-03 2.85868E-02 1.88316E-03-2.98988E-02
 -1      2306 7.17128E+00 4.35845E-03 6.00072E-03 3.01527E-03-3.75167E-04-2.35408E-02
 -1      2307 7.38779E+00 1.91399E-03-2.20298E-03 1.12120E-04 3.08618E-03-1.39087E-02
 -1      2308 5.03542E+00-8.72290E-04-4.35906E-03 4.80035E-02-2.95272E-03-1.06818E-02
 -1      2309 4.82215E+00 5.43080E-03 2.07627E-03 4.25966E-02 6.76255E-03-1.93663E-02
 -1      2310 4.56101E+00-1.26524E-03 3.24240E-03 4.41036E-02-5.09946E-03-1.98914E-02
 -1      2311 4.35438E+00-6.26315E-04 3.51852E-03 5.24100E-02 5.57611E-04-1.18376E-02
 -1      2312 4.76869E+00 7.97694E-03 4.56781E-03 2.76470E-02 4.25386E-03-2.84072E-02
 -1      2313 7.95434E+00 3.82795E-03 1.27117E-04 4.00471E-04-3.83741E-03-1.29853E-02
 -1      2314 8.15512E+00 5.53386E-03-5.34253E-03 6.45200E-03 1.09416E-03-1.38547E-02
 -1      2315 7.55524E+00-5.50731E-03 1.62173E-03 2.95464E-03-3.72209E-03-1.22627E-02
 -1      2316 7.77610E+00 3.29315E-03-7.23316E-05 5.70309E-03 3.52680E-03-1.31725E-02
 -1      2317 7.75741E+00 7.56987E-03 6.75596E-03 2.47506E-02 7.25017E-04-2.20091E-02
 -1      2318 1.07615E+01 2.03992E-03 3.44946E-03 1.24052E-02-1.39013E-03-4.17593E-03
 -1      2319 1.07126E+01 2.86333E-03 1.49588E-03 1.32349E-02 5.96640E-05-3.74435E-03
 -1      2320 1.06449E+01 1.95114E-03-1.57970E-03 1.48430E-02-1.68205E-03-8.11145E-03
 -1      2321 1.05669E+01 9.17665E-04-4.05103E-04 1.38367E-02-9.34916E-05-1.07814E-02
 -1      2322 1.08440E+01 6.48073E-03 2.07236E-03 9.04127E-03-4.46289E-04-8.14109E-03
 -1      2323 1.05480E+01-2.12920E-03-1.61058E-03 6.52228E-03-1.11619E-03-1.27425E-02
 -1      2324 1.06590E+01 1.17027E-03-1.64330E-03 2.61925E-03 3.67978E-03-9.97317E-03
 -1      2325 1.07500E+01 4.77699E-03 1.73832E-03 1.64531E-03 1.70846E-04-6.26341E-03
 -1      2326 1.08303E+01 6.40403E-03 4.36000E-03 2.97544E-03 1.40914E-03-4.49809E-03
 -1      2327 1.05446E+01 7.62830E-03 3.87391E-03 9.58845E-03 1.27694E-03-1.11816E-02
 -1      2328 1.11640E+01 4.11230E-03 2.69026E-03-2.23322E-03-2.65871E-05-6.39667E-03
 -1      2329 1.12196E+01 6.23206E-03 2.15501E-03-4.35338E-03 1.27859E-03-4.91081E-03
 -1      2330 1.13262E+01 3.81151E-02 9.49650E-03 1.40142E-03-1.20847E-03-5.33899E-03
 -1      2331 1.12712E+01 1.39654E-02 4.46671E-03-6.10013E-03 5.46015E-04-6.16305E-03
 -1      2332 1.10758E+01 1.01193E-02 3.90149E-03 2.80140E-03 5.14546E-04-8.81098E-03
 -1      2333 9.44385E+00 4.79707E-03-3.36131E-03 2.44626E-02-3.03829E-03-1.38052E-02
 -1      2334 9.29410E+00-3.30818E-03-5.38471E-03 2.55153E-02 1.59304E-03-2.52091E-02
 -1      2335 9.70453E+00 3.02572E-03-4.86420E-04 2.44175E-02-4.21651E-04-6.87809E-03
 -1      2336 9.59105E+00 4.27126E-03 1.10818E-03 2.34735E-02 3.75259E-03-1.47068E-02
 -1      2337 9.67092E+00 9.81718E-03 5.97686E-03 1.47196E-02 1.67231E-03-1.58325E-02
 -1      2338 8.87803E+00 1.91302E-03 2.85224E-03 3.12265E-02-3.58439E-03-1.06823E-02
 -1      2339 8.73978E+00 1.41542E-03 2.27544E-03 3.22638E-02-2.53974E-04-6.93667E-03
 -1      2340 8.79846E+00 6.68112E-03 1.94888E-03 1.97837E-02-1.76745E-03-1.50391E-02
 -1      2341 8.58215E+00 2.99731E-03-4.81452E-03 3.31711E-02-1.66011E-03-8.82971E-03
 -1      2342 8.41727E+00 2.04763E-03 2.04573E-03 3.67627E-02 2.63034E-03-1.21044E-02
 -1      2343 1.01614E+01 9.18057E-03 5.87304E-03 1.63420E-02-3.93747E-04-1.20054E-02
 -1      2344 1.00486E+01 6.88755E-03 4.19560E-03 2.22813E-02 3.22053E-03-9.35007E-03
 -1      2345 9.93330E+00 2.89246E-03 9.48248E-04 2.35993E-02-2.40712E-03-9.00475E-03
 -1      2346 9.82350E+00 3.75620E-03 5.98285E-03 2.38881E-02 7.92057E-04-7.60047E-03
 -1      2347 1.01466E+01 1.95210E-03 1.94204E-03 1.51676E-02 1.85437E-03-1.45081E-02
 -1      2348 1.10646E+01 2.52730E-01 6.03650E-03-8.41176E-02 6.94750E-04 1.21830E-02
 -1      2349 1.10321E+01 1.07432E-01 4.32736E-04-1.11804E-02 5.51459E-03-8.32278E-03
 -1      2350 1.09260E+01 4.31384E-01-6.37318E-02-1.03820E-01-9.12087E-03 5.35724E-02
 -1      2351 1.11993E+01 4.61922E-01-5.40854E-02-1.37867E-02 4.59085E-03 4.22738E-02
 -1      2352 1.07225E+01 8.24303E-01-8.73829E-02-1.75269E-01 9.10623E-03 1.02608E-01
 -1      2353 1.06128E+01 6.15721E-01-9.37853E-02-2.93992E-01-1.54892E-02 1.24543E-01
 -1      2354 5.93514E+00 7.45130E-03 3.86717E-03 4.62236E-02-3.73424E-03-1.98702E-02
 -1      2355 5.71700E+00 3.17585E-03 8.16507E-03 4.60887E-02 2.63892E-03-2.24844E-02
 -1      2356 6.33478E+00-1.27282E-03-2.12489E-03 4.92274E-02-3.31754E-03-2.14208E-02
 -1      2357 6.12697E+00 1.82377E-03-2.04413E-03 4.93216E-02 2.75073E-03-2.30323E-02
 -1      2358 6.13244E+00-1.29738E-02-2.40703E-03 2.51988E-02 9.57321E-04-4.10462E-02
 -1      2359 1.95005E+00-4.18117E-04 1.95969E-03 5.63607E-03-2.49082E-03-2.27115E-02
 -1      2360 2.22872E+00-1.20622E-03-7.94772E-03 3.44919E-03 8.73231E-03-2.45256E-02
 -1      2361 2.48870E+00-1.80436E-03-9.66617E-04 6.37923E-03 5.48237E-04-1.40005E-02
 -1      2362 2.73573E+00 5.30004E-03 1.75721E-02 1.22498E-02 5.24692E-03-3.48075E-02
 -1      2363 2.31688E+00 9.48009E-03 2.23624E-03 3.02937E-02 1.62805E-03-2.74093E-02
 -1      2364 1.16764E+00-8.62547E-03-8.13075E-05 5.12810E-02-4.59103E-03-1.33466E-02
 -1      2365 9.14345E-01-6.84564E-03-4.43515E-04 4.52237E-02 2.12489E-03-1.02648E-02
 -1      2366 8.93042E-01 1.30143E-03 7.76021E-03 3.56642E-02 4.85585E-03-9.53872E-03
 -1      2367 7.35880E-01-1.24517E-03-2.44166E-04 4.93915E-02-3.29021E-03 1.08406E-03
 -1      2368 6.39669E-01 6.81199E-03 1.49547E-02 4.81369E-02-4.58998E-03 1.59209E-02
 -1      2369 6.24463E-01 1.45860E-02 1.61275E-02 4.44787E-02-3.48410E-03 2.13200E-02
 -1      2370 8.24326E+00-2.03629E-04-2.80546E-03 3.61160E-02-5.44620E-03-1.61698E-02
 -1      2371 8.05732E+00-1.39688E-03-4.10555E-03 3.13959E-02-2.60091E-04-2.14964E-02
 -1      2372 7.91949E+00 5.59932E-03 1.01080E-02 3.46950E-02-2.64138E-03-3.76207E-02
 -1      2373 7.72676E+00-1.30956E-05 6.34248E-03 3.14645E-02 3.38846E-03-2.89111E-02
 -1      2374 8.11408E+00 1.88184E-04-2.85797E-03 2.13253E-02 2.46897E-03-1.96959E-02
 -1      2375 1.65223E+00-3.85677E-03 3.73586E-04 5.71371E-02-3.45426E-04-2.35668E-02
 -1      2376 1.39063E+00-7.10550E-03 5.87352E-03 6.46873E-02 5.23564E-03-1.78563E-02
 -1      2377 2.15696E+00 2.59640E-03-6.78792E-03 5.37610E-02-5.98943E-03-1.86167E-02
 -1      2378 1.89445E+00-5.48463E-03 1.65436E-03 5.75745E-02 5.07014E-03-1.78151E-02
 -1      2379 1.78872E+00-8.24878E-03-4.29774E-03 3.50151E-02-3.53956E-03-3.11223E-02
 -1      2380 7.53325E+00 5.92046E-03-2.56450E-03 3.18741E-02-3.39700E-03-2.62811E-02
 -1      2381 7.31523E+00-6.04889E-03-8.81283E-03 3.33277E-02 3.61554E-03-3.84263E-02
 -1      2382 7.17387E+00 8.95060E-03 8.39544E-03 3.62159E-02 3.23295E-04-2.77791E-02
 -1      2383 6.97612E+00 8.65618E-03 9.33284E-03 4.59432E-02 4.05090E-03-2.79234E-02
 -1      2384 7.35029E+00 1.32889E-02 5.54557E-03 2.32722E-02-8.24794E-04-3.11653E-02
 -1      2385 9.58747E+00-4.99170E-03-4.52850E-03 9.29410E-03-1.63944E-03-1.79009E-02
 -1      2386 9.74659E+00-4.54781E-04-1.36189E-03 3.39868E-03 4.44324E-03-1.29853E-02
 -1      2387 9.32756E+00 2.96125E-03 6.90446E-03 5.70302E-03-2.64732E-03-1.48829E-02
 -1      2388 9.48414E+00 9.23194E-03 1.06178E-02 4.31832E-03 2.03124E-03-2.68855E-02
 -1      2389 9.39212E+00 3.04298E-03 2.85519E-03 1.59563E-02-2.48298E-03-1.97039E-02
 -1      2390 8.32928E+00 7.56486E-04 1.46954E-03 2.47405E-03-3.79150E-04-8.19946E-03
 -1      2391 8.49570E+00 1.21955E-03 1.87308E-03 4.39058E-03 4.16760E-03-1.38904E-02
 -1      2392 8.46336E+00 8.88072E-03 6.23097E-03 2.29934E-02-2.58351E-03-1.99902E-02
 -1      2393 8.68478E+00 4.10799E-03 2.48577E-03 5.45601E-03-4.43814E-03-1.36776E-02
 -1      2394 8.85052E+00 1.98489E-03-3.34781E-03 2.67655E-03 1.90254E-03-8.46068E-03
 -1      2395 9.87975E+00 3.44301E-03 2.05303E-03 9.44026E-04-2.02021E-03-1.02549E-02
 -1      2396 1.00136E+01 4.94434E-03-2.43206E-03 3.04988E-03 2.31455E-03-7.77470E-03
 -1      2397 1.01334E+01 4.62858E-03 1.58800E-03 1.90615E-03 3.14860E-04-5.58725E-03
 -1      2398 1.02389E+01 3.72868E-03 4.85340E-03 7.22564E-03 2.48998E-03-1.21408E-02
 -1      2399 9.91940E+00 5.03671E-03 2.24879E-03 1.55458E-02 1.42675E-03-1.14553E-02
 -1      2400 1.09777E+01 9.25498E-01-3.27559E-02 1.30030E-01 3.47382E-03 4.85571E-02
 -1      2401 1.12768E+01 4.40448E-01-7.35909E-02 7.97252E-02 1.43594E-02 7.03172E-02
 -1      2402 1.11543E+01 6.11941E-01-3.98122E-02 2.51775E-01 2.07072E-02 4.90308E-02
 -1      2403 6.09460E-01 1.05729E-02 1.32681E-02 2.72092E-02-2.36411E-03 9.85287E-03
 -1      2404 6.49525E-01 5.23667E-03 7.73350E-03 4.57513E-03 8.45170E-04 4.91437E-03
 -1      2405 7.70150E-01-3.83480E-03 3.94669E-03 1.58140E-02 3.44184E-03-3.86631E-03
 -1      2406 3.62652E+00-4.26214E-03-2.73815E-03 5.39100E-02-5.68793E-03-2.38197E-02
 -1      2407 3.37903E+00-9.65036E-04-2.02992E-03 5.21202E-02 2.89555E-03-2.32487E-02
 -1      2408 4.11430E+00 4.48968E-03-8.69150E-03 4.77347E-02-3.52610E-03-1.69058E-02
 -1      2409 3.87116E+00 2.44346E-03 1.38743E-04 5.50885E-02 5.51647E-03-1.78384E-02
 -1      2410 4.45333E+00-4.33899E-03-5.49025E-03 1.22069E-02-9.06437E-04-3.00257E-02
 -1      2411 4.72164E+00-2.84259E-03-5.05227E-03 4.44527E-03 8.13621E-03-2.17150E-02
 -1      2412 4.97216E+00 3.51429E-03-5.60902E-04 3.47885E-03-4.09178E-03-1.67232E-02
 -1      2413 5.19796E+00 4.54182E-03-2.21369E-03 5.22817E-03 3.22220E-06-1.26236E-02
 -1      2414 1.03333E+01 5.65751E-03-8.98619E-04 1.50116E-02-2.73080E-03-1.16802E-02
 -1      2415 1.02245E+01-7.86448E-04-1.93827E-03 1.88964E-02 1.12444E-03-1.72142E-02
 -1      2416 1.05088E+01 5.90756E-03 7.91490E-03 1.25550E-02-1.34412E-03-1.55063E-02
 -1      2417 1.04263E+01 2.74806E-03 2.81976E-03 1.51318E-02 7.25454E-04-1.21004E-02
 -1      2418 1.09033E+01 4.14432E-03 1.53279E-03-2.56985E-04-1.36102E-03-6.52651E-03
 -1      2419 1.09801E+01 3.47662E-03-4.78091E-04 2.86106E-04 1.78066E-03-6.59010E-03
 -1      2420 1.10469E+01 2.54994E-03 5.61312E-04 1.26972E-03 2.05731E-04-2.43183E-03
 -1      2421 1.11006E+01 2.84996E-03 6.27055E-03 1.99602E-03 1.59759E-03-7.08456E-03
 -1      2422 1.09809E+01 3.57656E-02 6.53449E-03-3.08771E-03 1.32174E-03-4.75666E-03
 -1      2423 1.09301E+01 1.28017E-02 6.23089E-03 1.09462E-02 2.55764E-05-7.49836E-03
 -1      2424 1.08785E+01 5.76210E-03 3.37481E-03 1.20320E-02-6.02893E-04-4.39838E-03
 -1      2425 1.08284E+01 4.33806E-03 3.19346E-03 1.34631E-02 9.62787E-04-4.81486E-03
 -1      2426 1.11776E+01 6.73285E-02-8.40877E-03-2.13540E-04 3.23391E-03-1.67725E-03
 -1      2427 1.13705E+01 9.92338E-02 1.96131E-03 4.69257E-03-2.93217E-03-5.87198E-03
 -1      2428 1.13864E+01 2.32556E-01-4.36905E-03 6.45751E-02 8.65255E-03 1.48537E-02
 -1      2429 6.32135E+00 2.33568E-03 2.57428E-03-2.19659E-03-3.85475E-03-2.03340E-02
 -1      2430 6.55306E+00 3.40927E-03 2.14535E-05 1.58455E-03 1.56324E-03-2.62792E-02
 -1      2431 6.53591E+00 1.00583E-02 1.45723E-03 2.87945E-02-1.50884E-03-3.02134E-02
 -1      2432 6.55403E+00 8.18185E-04-4.19370E-03 4.03691E-02 3.84744E-03-1.71863E-02
 -1      2433 6.75545E+00 3.01784E-03-3.73918E-03 4.15496E-02-2.64950E-03-1.99648E-02
 -1      2434 2.97983E+00 4.95735E-03 2.80007E-03 4.51300E-03-3.54157E-03-3.11415E-02
 -1      2435 3.26048E+00 4.61188E-03-2.50660E-03 3.68183E-03 6.16417E-03-2.72780E-02
 -1      2436 3.32198E+00 4.27134E-03 1.16627E-03 2.68877E-02 5.47312E-03-4.46194E-02
 -1      2437 5.47574E+00 2.84652E-03 1.08424E-03 4.23078E-02-5.90905E-03-2.18597E-02
 -1      2438 5.26836E+00 5.65665E-03 7.17344E-03 4.87953E-02 1.98753E-03-1.16354E-02
 -1      2439 5.23256E+00 1.45523E-03 2.56481E-03 2.89895E-02-2.00783E-03-2.27832E-02
 -1      2440 9.20241E+00 1.12917E-02 6.75913E-03 2.25390E-02-6.28316E-04-1.81866E-02
 -1      2441 9.04118E+00 9.16659E-03 6.19024E-03 3.08232E-02 4.95162E-03-1.24952E-02
 -1      2442 9.10456E+00 1.70674E-03 1.94158E-03 2.02212E-02 2.60695E-03-1.97310E-02
 -1      2443 9.01406E+00 5.18963E-03 3.88802E-03 2.53672E-03-1.41915E-03-8.17896E-03
 -1      2444 9.16495E+00 2.68512E-03 2.30010E-03 7.56512E-03 3.27869E-03-1.71427E-02
 -1      2445 1.03620E+01 4.53306E-03 6.68511E-03 4.08587E-03-2.02117E-03-1.01817E-02
 -1      2446 1.04736E+01 7.42340E-03 8.06877E-03 3.33108E-03 1.58367E-03-1.91322E-02
 -1      2447 1.03519E+01 3.31239E-03 3.29649E-03 1.06687E-02-1.69726E-03-1.37147E-02
 -1      2448 1.07071E+01 4.31240E-04 2.97127E-03 9.10368E-03 3.08428E-04-1.33565E-02
 -1      2449 1.09700E+01 5.89132E-04 1.15743E-03 6.77945E-03 4.50638E-04-9.30279E-03
 -1      2450 4.29342E+00-5.25030E-03-5.34763E-03 3.16741E-02-2.76805E-03-2.67518E-02
 -1      2451 4.05030E-01 1.28648E-02-6.26136E-03 2.66767E-02-1.66346E-02-3.53217E-01
 -1      2452 3.68468E-02 2.57025E-04 1.01308E-03 2.88930E-02 3.75067E-04-4.41271E-01
 -1      2453-5.19359E-03-3.38102E-03 9.08784E-04 2.88416E-02 1.80532E-03-4.31467E-01
 -1      2454-1.29578E-02-4.15308E-05-4.07411E-04 6.89296E-03 1.54642E-03-9.00791E-02
 -1      2455-3.91176E-04-5.86754E-05-6.16582E-05 1.05200E-02-9.10716E-05-1.66860E-01
 -1      2456 6.80816E-04-5.59344E-04 2.11060E-05 2.76579E-02-2.09616E-04-4.15456E-01
 -1      2457 5.42453E-04-2.30688E-04-8.45312E-05 2.80858E-02-2.29042E-04-4.04214E-01
 -1      2458-7.90960E-03-1.63256E-03-2.36268E-03 2.58465E-02-8.06260E-04-3.63973E-01
 -1      2459-8.89885E-03 2.61100E-03 1.67808E-03 2.10289E-02-8.45501E-04-3.64545E-01
 -1      2460-5.96247E-04-1.05440E-03-5.11726E-04 1.81906E-02-3.32250E-04-3.29247E-01
 -1      2461 5.20045E-04-1.30092E-04-1.89942E-04 1.52857E-02 1.52635E-05-2.38869E-01
 -1      2462-2.74384E-03-1.21460E-04-8.69380E-04 7.41502E-03 1.60770E-04-1.28683E-01
 -1      2463 1.55443E-03-2.19645E-04-7.65749E-05 1.72448E-02 2.66146E-04-3.01874E-01
 -1      2464 3.41620E-03 6.91283E-05 1.34204E-05 1.23279E-02-2.98433E-06-1.91827E-01
 -1      2465 1.25939E-03 8.75546E-04 1.41525E-03 1.54987E-02-5.14625E-04-2.70764E-01
 -1      2466 7.96941E-01-1.86698E-03 6.83530E-04 2.00501E-02 1.05112E-04-3.41317E-01
 -1      2467 3.01914E-01 2.33843E-03-3.60813E-03 2.68756E-02-4.57173E-04-4.11119E-01
 -1      2468 1.26665E+00 4.09733E-04 1.53162E-03 5.32352E-03 1.14325E-03-9.58320E-02
 -1      2469-1.52256E-01 5.89251E-03-2.37881E-02 3.22981E-02-5.42555E-03-3.89163E-01
 -1      2470-4.33771E+00-3.12793E-01-1.86407E-02-5.65716E-02 1.41547E-01-2.88734E-01
 -1      2471 1.72950E-01 1.95276E-07 2.81438E-02 1.70148E-02-5.38907E-03-3.82783E-01
 -1      2472-4.92753E+00-2.51552E-01-1.84899E-02 1.15688E-01-1.47750E-01-2.95360E-01
 -1      2473-3.25722E+00-5.84142E-04-3.33704E-03 7.65779E-03-1.59000E-03-1.68143E-01
 -1      2474-2.96614E+00 5.08002E-04-3.60877E-03 1.19768E-02 2.16351E-04-1.33915E-01
 -1      2475-1.21488E+00-1.15865E-03 5.08834E-04 1.46109E-02 1.21467E-04-3.75854E-01
 -1      2476 1.21731E+00 8.76034E-04 1.80470E-03 1.61580E-02-3.16377E-04-3.75490E-01
 -1      2477 1.59805E+00-1.93262E-04 8.18887E-04 2.65204E-02-4.95005E-06-3.46535E-01
 -1      2478 1.33941E+00-5.50336E-04 1.38527E-03 2.66209E-02-4.78794E-04-3.62522E-01
 -1      2479-1.34521E+00 1.47053E-03 1.21768E-04 2.63366E-02-3.91995E-04-3.61992E-01
 -1      2480-1.58730E+00-8.47762E-04-1.57932E-03 2.68371E-02 1.58285E-03-3.44314E-01
 -1      2481 2.95910E+00-3.38859E-04 4.00756E-03 1.23939E-02-4.68995E-04-1.36179E-01
 -1      2482-2.17507E+00-5.09951E-04-1.79260E-03 2.55080E-02 3.54803E-04-2.89147E-01
 -1      2483-2.70312E+00 2.76147E-04-1.32045E-03 1.31521E-02-7.24950E-04-2.61220E-01
 -1      2484 2.91239E+00 3.87010E-04 4.77959E-03 9.94237E-03 1.81632E-03-2.31381E-01
 -1      2485 2.17582E+00-2.81136E-05 1.61577E-03 2.59097E-02-2.69940E-04-2.89194E-01
 -1      2486 2.71575E+00-9.38437E-04 3.30919E-03 1.65859E-02 5.65038E-04-2.03030E-01
 -1      2487 3.22846E+00 1.00552E-04 2.95802E-03 7.32155E-03 1.48313E-03-1.68454E-01
 -1      2488 2.69743E+00-6.82580E-04 1.69563E-03 1.30585E-02 1.57945E-04-2.62746E-01
 -1      2489-2.72707E+00 3.86509E-04-3.74144E-03 1.69476E-02-3.24031E-04-2.02537E-01
 -1      2490-2.91601E+00 1.35361E-04-5.94492E-03 1.13667E-02-1.11804E-03-2.30369E-01
 -1      2491 4.99974E+00 2.87922E-01 3.95576E-02 9.75849E-02 1.43667E-01-2.84810E-01
 -1      2492-1.66672E-01 5.74186E-03-1.67789E-02 1.46506E-02 6.57465E-03-3.89222E-01
 -1      2493-7.65107E-01 6.30677E-04 2.00002E-03 1.67458E-02 8.64859E-04-3.81694E-01
 -1      2494-3.68682E+00 5.02164E-04-4.26300E-03 4.27935E-03-9.45249E-04-9.91247E-02
 -1      2495-3.27198E+00 3.40390E-03-3.03076E-03 2.94053E-02 3.24809E-02-9.06023E-02
 -1      2496-3.78692E-01-1.28838E-03-3.43472E-03 3.31259E-02 2.34614E-04-3.94157E-01
 -1      2497 4.54509E+00 2.68345E-01 7.00517E-03-9.69110E-02-1.19329E-01-2.70258E-01
 -1      2498-9.81832E-01-3.47570E-04-4.59958E-03 1.61997E-02-8.05291E-04-3.80675E-01
 -1      2499-3.76119E+00 2.03040E-03-5.07477E-03 6.70638E-04-4.05130E-03-7.98574E-02
 -1      2500 1.41329E-01-6.82384E-03 2.14322E-02 3.31082E-02 5.81105E-03-3.86109E-01
 -1      2501-2.39239E+00 7.12258E-05-2.24581E-03 1.47330E-02-1.98889E-03-3.08048E-01
 -1      2502-2.05721E+00-1.71482E-04-1.91603E-03 1.63196E-02-2.36656E-04-3.27146E-01
 -1      2503 3.41807E+00-6.89103E-03 4.40934E-03 3.20965E-02-3.17189E-02-8.44765E-02
 -1      2504-2.80321E-01 1.14648E-04-3.15534E-04 1.60085E-02-3.30640E-04-4.39027E-01
 -1      2505 5.30018E-01-1.82058E-03 8.20596E-04 2.36612E-02-5.47677E-04-3.60922E-01
 -1      2506-2.13241E+00-1.02421E-03-5.47107E-04 2.64870E-02 2.16131E-04-3.11615E-01
 -1      2507-2.32864E+00 1.68634E-03-4.45198E-03 2.56437E-02 1.48286E-03-2.97248E-01
 -1      2508-7.20979E-01-2.38390E-04 2.03957E-03 3.17095E-02-2.17912E-03-3.76769E-01
 -1      2509 7.19329E-01-1.60404E-03 1.21103E-03 3.00846E-02 3.78457E-04-3.79366E-01
 -1      2510 9.54466E-01-5.45644E-04 9.38506E-06 2.93285E-02-4.84222E-05-3.75215E-01
 -1      2511-9.66541E-01-1.04371E-03 1.74545E-04 3.07909E-02 1.64522E-03-3.75152E-01
 -1      2512-3.56344E+00 3.46942E-04-3.37413E-03 8.97660E-03 1.14230E-03-9.92549E-02
 -1      2513-3.63148E+00 2.93614E-03-5.82423E-03 9.80703E-03 3.68659E-03-7.59507E-02
 -1      2514 3.04075E+00 1.63041E-04 5.32142E-03 1.88309E-02-1.52868E-03-2.18529E-01
 -1      2515 2.18067E+00 1.33469E-03 2.77089E-03 1.50751E-02 1.08771E-04-3.29771E-01
 -1      2516 1.23881E+00-2.22169E-03 9.58577E-04 2.77642E-02 3.98954E-04-3.60933E-01
 -1      2517-1.23821E+00 2.87566E-03-5.26859E-04 2.81863E-02-6.10109E-04-3.61505E-01
 -1      2518 1.75988E+00-1.10644E-03-4.43160E-04 1.45833E-02 1.19093E-03-3.49000E-01
 -1      2519-1.76155E+00 9.30154E-04 1.08611E-03 1.44001E-02-1.30809E-03-3.47881E-01
 -1      2520-2.11430E+00 1.17642E-03-2.12044E-03 1.62827E-02-2.58347E-03-3.34996E-01
 -1      2521 3.95949E+00-1.84503E-04 2.79085E-03 4.74594E-03 1.44269E-04-1.31625E-01
 -1      2522-2.89555E+00 1.31849E-03-2.07253E-03 1.28267E-02 4.86101E-04-2.79171E-01
 -1      2523 3.39061E+00-3.50516E-04 5.02301E-03 1.33606E-02-1.17935E-03-1.56562E-01
 -1      2524 3.62608E+00-2.99077E-04 1.20759E-03 7.28946E-03-9.16004E-05-1.95260E-01
 -1      2525-3.96129E+00 5.14196E-04-2.12757E-03 4.68306E-03-3.82315E-04-1.31711E-01
 -1      2526 2.89502E+00-1.40844E-03 3.08041E-03 1.20888E-02 6.64439E-04-2.81927E-01
 -1      2527-3.03773E+00-6.52544E-05-5.82183E-03 1.92431E-02 1.65747E-03-2.18416E-01
 -1      2528-3.40602E+00 4.58938E-04-5.01035E-03 1.32922E-02 1.20835E-03-1.56261E-01
 -1      2529-3.62291E+00 2.98205E-04-1.41861E-03 7.18838E-03-6.42789E-05-1.95217E-01
 -1      2530-2.78969E+00 1.18061E-03-8.49989E-04 2.19663E-02 1.33604E-03-2.53963E-01
 -1      2531 2.78662E+00-1.09190E-03 1.27124E-03 2.16825E-02-1.57158E-03-2.54019E-01
 -1      2532 2.28017E+00-1.36872E-03 5.71309E-03 2.54205E-02-1.05721E-03-2.97150E-01
 -1      2533 3.56471E+00-1.13310E-03 3.35473E-03 9.26362E-03-9.53293E-04-9.93480E-02
 -1      2534 3.63155E+00-3.13993E-03 4.61187E-03 9.73453E-03-4.10342E-03-7.61255E-02
 -1      2535 4.21342E+00-9.72371E-03 1.52165E-03-2.55176E-02 3.32372E-02-7.16085E-02
 -1      2536-4.08955E+00 9.94017E-03-3.19090E-03-2.39081E-02-3.24040E-02-6.83867E-02
 -1      2537 2.65539E+00 1.25537E-03 3.40997E-03 1.26719E-02-1.95894E-04-3.03599E-01
 -1      2538 3.28636E+00-6.60457E-04-1.72451E-03 8.54922E-03 1.39705E-03-2.75250E-01
 -1      2539 8.69900E-01 1.92734E-03 3.81602E-03 1.56627E-02-1.48766E-03-3.62708E-01
 -1      2540 1.25362E+00-1.98385E-03-4.09432E-04 1.46717E-02 4.34701E-04-3.57178E-01
 -1      2541 2.18560E+00-1.00486E-03 1.45305E-03 2.45700E-02-1.16656E-03-3.14804E-01
 -1      2542 4.57917E+00-2.72165E-03 3.92474E-03-2.26957E-03 5.72010E-03-7.02951E-02
 -1      2543 4.47785E+00-2.55377E-04 5.26767E-03 4.05998E-03 3.61154E-04-9.88755E-02
 -1      2544 6.07122E-01-5.40714E-06-1.50310E-03 2.77892E-02-1.18263E-03-3.53488E-01
 -1      2545-4.36105E+00-4.32030E-05-6.12444E-03 7.63266E-03-1.10172E-04-1.73921E-01
 -1      2546 1.62448E+00-9.54401E-04 4.02583E-03 2.90702E-02-7.48970E-05-3.35696E-01
 -1      2547 2.35381E+00-2.83375E-04 1.00440E-03 1.41451E-02 9.01000E-04-3.26123E-01
 -1      2548-1.62450E+00 1.23073E-03-3.92904E-03 2.91804E-02 2.54174E-04-3.35878E-01
 -1      2549-2.66665E+00-6.92536E-05-2.49108E-03 1.22264E-02-1.76200E-03-3.05513E-01
 -1      2550-4.72865E+00-1.33247E-04-5.12405E-03 3.89892E-03-1.41848E-03-1.08552E-01
 -1      2551-3.88228E+00 2.85502E-04-2.76067E-03 1.40967E-02 1.06116E-03-1.67611E-01
 -1      2552 3.88477E+00-3.66422E-04 2.67620E-03 1.41663E-02-1.17193E-03-1.67625E-01
 -1      2553 4.35059E+00-5.59244E-05 5.98282E-03 7.68994E-03 2.21121E-04-1.74215E-01
 -1      2554 3.38968E+00-1.23913E-04 4.58634E-03 1.84258E-02-2.24075E-04-2.29025E-01
 -1      2555-3.38800E+00 1.17330E-04-4.39964E-03 2.04002E-02 6.20669E-04-2.30755E-01
 -1      2556 3.54384E+00 2.71007E-04 5.65958E-03 8.89342E-03 1.08392E-03-2.50723E-01
 -1      2557-3.54126E+00 5.67364E-04-5.20766E-03 9.38923E-03-6.53727E-04-2.50630E-01
 -1      2558 4.80492E-01-2.30173E-03 5.74025E-03 3.20787E-02-1.13809E-03-3.24013E-01
 -1      2559-2.30400E+00-1.02174E-03-4.00455E-03 1.44937E-02-6.90828E-04-3.27003E-01
 -1      2560-2.02965E+00 8.78072E-04-2.65472E-03 2.74354E-02 3.18188E-04-3.24690E-01
 -1      2561 2.04751E+00-5.82804E-04 2.16697E-03 2.66980E-02 1.85956E-04-3.30516E-01
 -1      2562 3.89309E+00 2.34983E-04 4.14217E-03 9.28433E-03 1.12033E-03-2.27557E-01
 -1      2563-4.52814E+00-2.44125E-04-1.85703E-03 9.72656E-03-8.47654E-04-1.77326E-01
 -1      2564-2.43727E+00 1.32536E-04-1.27087E-03 6.57585E-03-8.59635E-04-2.59543E-01
 -1      2565-6.95360E+00 1.78656E-03-1.02611E-03 9.00572E-05-1.34274E-03-1.29836E-01
 -1      2566-6.03227E+00-6.74770E-03-1.04984E-02 1.12409E-02 3.50582E-03-1.31728E-01
 -1      2567-3.90743E+00-3.74676E-03-6.75230E-03 2.19508E-03 2.83896E-04-2.28558E-01
 -1      2568-1.44030E+00 7.21011E-03 4.21882E-03 1.84437E-02-2.45906E-03-2.51629E-01
 -1      2569-3.78056E+00 6.99847E-04-7.64724E-03 5.82791E-03-8.98533E-04-2.41962E-01
 -1      2570-5.83981E+00 4.45752E-03 1.72565E-03 8.98717E-03-9.37652E-04-1.45401E-01
 -1      2571-1.37325E+00-5.62384E-03-7.05950E-03 1.61267E-02 4.95264E-04-2.68891E-01
 -1      2572-8.01063E-02 3.21479E-04-3.23089E-03 1.67288E-02-6.50233E-03-4.60751E-01
 -1      2573-8.17243E-02-3.06695E-03-1.32225E-02 1.60292E-02-5.67158E-03-4.45332E-01
 -1      2574 1.33872E-01 6.37690E-03 1.79837E-03 9.01709E-03-6.42258E-03-4.62278E-01
 -1      2575 1.57121E-01 4.72724E-03 1.31112E-02 1.19634E-02-5.52093E-03-4.44133E-01
 -1      2576 1.03496E-02-3.07056E-04-1.32623E-03 2.38719E-02-1.04665E-02-4.31233E-01
 -1      2577-5.62058E-01 3.79247E-03-8.14347E-03 2.38971E-02-3.52453E-03-2.10593E-01
 -1      2578-4.03585E-01 8.39631E-03-5.65767E-04 3.21104E-02 3.30818E-03-1.94058E-01
 -1      2579-4.03075E-01 1.21601E-02 4.63383E-03 2.44463E-02-1.27268E-03-1.95617E-01
 -1      2580-1.31711E-01 9.98916E-03-2.47194E-02 2.64537E-02 1.18188E-03-3.77658E-01
 -1      2581-5.70709E-01 3.28185E-03-6.80025E-03 3.15809E-02 4.26715E-03-2.10597E-01
 -1      2582-7.84364E+00-5.37437E-01 9.27992E-03-4.67904E-02 5.24247E-02-8.29658E-02
 -1      2583-1.91713E+00-8.95666E-02-3.43300E-04 3.03883E-03 9.02810E-02-3.17597E-01
 -1      2584-5.54245E+00-3.03208E-01-9.00806E-04 1.26157E-02-1.47956E-02-1.42677E-01
 -1      2585-8.14226E+00-5.26565E-01-1.00613E-02 7.65893E-02-6.20149E-02-1.09679E-01
 -1      2586-2.22000E+00-9.60398E-02-3.33999E-02 3.39398E-02-1.17991E-01-2.88676E-01
 -1      2587-4.65627E+00-3.77154E-01 2.83820E-02 5.92740E-02 1.55414E-02-3.10961E-01
 -1      2588 5.69653E-01-5.10994E-03-1.76060E-03 1.10489E-02 1.08505E-01-9.06169E-02
 -1      2589-1.75037E+00-1.28992E-01-4.67562E-02-2.96722E-02 1.10495E-01-8.41646E-04
 -1      2590 2.83757E+00 1.26013E-01 1.11756E-01 5.16327E-02 1.19373E-01 1.62407E-02
 -1      2591 3.73934E-01-2.81664E-02 2.33426E-02-5.04415E-03 1.34438E-01-2.85174E-01
 -1      2592 2.66212E+00 1.15611E-01 1.44262E-02 3.03460E-02 9.89979E-02-3.08284E-01
 -1      2593-2.64894E+00-5.61427E-03-5.01855E-03-3.29672E-03-2.17670E-05-1.97075E-01
 -1      2594-1.53246E+00 4.69508E-03 1.62893E-02 4.60190E-03 5.67617E-03-3.64850E-01
 -1      2595-2.36647E+00-5.61670E-03-1.12066E-02 1.88875E-02 7.03002E-04-2.08098E-01
 -1      2596-2.15852E+00 1.03961E-02 8.73717E-03 2.26940E-02-8.95883E-04-2.12510E-01
 -1      2597-1.11098E+00-6.91912E-03-6.81847E-03 9.41547E-03-9.06065E-04-3.77315E-01
 -1      2598-1.39946E+00-1.07104E-03-1.10326E-02 5.66859E-03-2.25631E-03-3.73180E-01
 -1      2599-5.83003E-01 6.42272E-03 1.11719E-02 1.43099E-02-4.81622E-04-4.00290E-01
 -1      2600-9.12476E-01-5.40952E-04-3.04473E-03 1.82184E-02-1.02651E-04-3.77774E-01
 -1      2601-5.20695E-01-1.04386E-02-1.64054E-02 1.35319E-02-6.57640E-04-4.06306E-01
 -1      2602-1.70621E+00 2.20618E-03 2.34702E-03 1.69438E-02 1.55229E-03-2.60421E-01
 -1      2603 5.33469E-01-3.06018E-03-2.94718E-03 1.00708E-02 9.48633E-02-1.01086E-01
 -1      2604 2.71430E+00 5.60829E-02-1.78864E-02 1.93086E-02 1.01320E-01-3.03297E-02
 -1      2605-5.49077E+00-7.65621E-02 1.03690E-02 7.12877E-03-1.12735E-02-1.43598E-01
 -1      2606-8.03290E+00-2.63170E-01 2.26613E-02 2.78641E-02-4.11277E-02-7.93215E-02
 -1      2607-8.82218E-01 2.86027E-03-8.03121E-04 5.60692E-03 2.61365E-03-3.71514E-01
 -1      2608-1.35621E+00-5.79750E-03-9.00036E-03 1.69853E-02-1.28605E-03-2.15329E-01
 -1      2609-1.45007E+00-3.93018E-03-4.93944E-03-2.39654E-03 1.27218E-03-2.04044E-01
 -1      2610-6.11023E-01 5.56183E-03 6.99035E-03 3.27230E-03-3.61691E-03-4.05283E-01
 -1      2611-1.01644E+00 7.74461E-03 1.15401E-02 1.55971E-02-2.94935E-03-2.48978E-01
 -1      2612-4.96799E-01-2.07641E-03-1.27148E-03 1.36859E-02-4.23214E-04-4.02765E-01
 -1      2613-3.54045E-01 6.32051E-03 1.34059E-02 1.77965E-02-2.42197E-04-4.10513E-01
 -1      2614-9.19625E-01 5.69090E-03 1.96987E-03 1.58441E-02-1.64048E-03-2.69976E-01
 -1      2615-1.49028E-01-5.65818E-04-1.07971E-02 1.46602E-02 4.38806E-03-4.40226E-01
 -1      2616 2.31509E+00 4.78900E-04 5.38761E-03 2.39079E-03 1.07776E-03-1.43510E-01
 -1      2617 1.99444E+00 2.24204E-03 8.25134E-03 4.15081E-03 9.01527E-04-1.29847E-01
 -1      2618 3.37196E-01 2.13984E-03 1.14935E-03 4.70370E-03-9.11168E-04-1.34297E-01
 -1      2619 2.56919E+00-8.42325E-04-1.95766E-03 2.74170E-03 2.55913E-04-1.26626E-01
 -1      2620 2.23470E+00 9.90643E-04-4.81278E-04 3.49273E-03 4.50178E-05-1.14616E-01
 -1      2621 4.22148E+00-1.58033E-04 4.16737E-03 5.00276E-03 1.28438E-03-1.13884E-01
 -1      2622 7.28141E+00 2.64198E-04-2.55104E-03 8.62205E-03-1.00763E-03-6.98029E-02
 -1      2623 5.31761E+00 7.86129E-04 2.06658E-03 7.52667E-03-1.60031E-04-7.99687E-02
 -1      2624 7.56603E+00 2.17542E-04 5.67792E-03 1.05097E-02 1.72051E-03-5.77233E-02
 -1      2625 4.92981E+00-4.29322E-04 2.49675E-03 2.10835E-03 2.13161E-03-1.22066E-01
 -1      2626 5.19815E+00 6.87193E-07 5.96773E-03 6.52361E-04-5.67233E-04-1.06269E-01
 -1      2627 7.47412E+00 2.76751E-04-4.28590E-04 2.86161E-03 2.09419E-03-6.76353E-02
 -1      2628 7.75630E+00 1.16907E-03 6.50559E-03 2.10710E-03-1.56598E-04-5.41825E-02
 -1      2629-1.72243E+00-5.80356E-02 5.79539E-02-5.66077E-03 9.64691E-02-3.74634E-02
 -1      2630-7.78262E+00-2.76713E-01 1.65744E-02-2.78659E-02 3.57226E-02-7.69047E-02
 -1      2631-1.01885E-01-1.53230E-03 2.01327E-03 1.88079E-02 8.16491E-04-4.22908E-01
 -1      2632-9.88033E-02 1.12453E-03 3.43017E-03 1.89330E-02-7.54481E-04-4.19516E-01
 -1      2633-1.56896E+00 1.40042E-03 1.09170E-03 2.95897E-02 5.08932E-03-2.60108E-01
 -1      2634-1.74187E+00 2.15009E-03-3.54775E-04 2.99258E-02 4.31540E-03-2.57693E-01
 -1      2635-8.08799E-01-1.78729E-04 2.31636E-03 2.92126E-02 2.64080E-03-2.65576E-01
 -1      2636-8.93456E-01-2.29344E-03 6.11103E-03 1.95558E-02-1.10267E-03-2.44313E-01
 -1      2637-9.86873E-01 5.90133E-04-2.78794E-03 2.75000E-02 4.53975E-03-2.66221E-01
 -1      2638-5.33253E+00-1.61545E-03-4.84193E-03 5.14682E-03-2.71103E-03-1.03649E-01
 -1      2639-5.13961E+00-1.29407E-03-6.65237E-04 1.02031E-02-4.12422E-03-1.02700E-01
 -1      2640-6.94304E+00-2.77751E-04-1.59756E-03 8.79547E-03-1.66107E-03-9.24869E-02
 -1      2641-6.74062E+00 3.80846E-03 3.26803E-03 9.20728E-03-6.27494E-04-9.29589E-02
 -1      2642-1.64618E+00-3.95314E-03-6.64735E-03 5.75204E-03-2.85540E-03-1.68975E-01
 -1      2643-7.13893E+00-4.42001E-03-8.15574E-03 6.77738E-03-3.61641E-05-7.73243E-02
 -1      2644-7.32510E+00-3.52491E-03-5.56069E-03 5.93077E-03 1.26470E-05-7.60700E-02
 -1      2645-1.97296E+00 3.37186E-03 2.31163E-03 3.76676E-03-7.91509E-04-1.48536E-01
 -1      2646-5.32254E+00-1.22251E-03-3.39135E-03 7.65682E-03 5.34881E-04-8.07302E-02
 -1      2647-5.17943E+00-2.72946E-03-6.23284E-03 9.92266E-03 1.80543E-03-8.03408E-02
 -1      2648-6.78182E+00 1.82928E-03 1.07552E-03 1.20549E-02-4.61978E-04-7.26072E-02
 -1      2649-6.64800E+00 1.16113E-03-1.26306E-03 8.00509E-03 1.05804E-03-7.19800E-02
 -1      2650-1.49407E+00-4.71418E-03-8.02659E-03 9.90309E-03 8.59646E-04-1.31243E-01
 -1      2651-5.01380E+00 1.28780E-03 3.58022E-05 1.39182E-02-2.73501E-03-1.03648E-01
 -1      2652-5.20456E+00-5.55133E-05-3.20729E-03 1.13899E-02-4.22691E-03-9.85169E-02
 -1      2653-6.51587E+00 2.50179E-04-4.96435E-03 1.06398E-02-2.57479E-04-7.82140E-02
 -1      2654-6.71344E+00-4.65830E-03-7.72267E-03 1.15433E-02 6.60742E-04-7.40733E-02
 -1      2655-1.47440E+00 1.57283E-03 2.45185E-04 1.40792E-02-8.67383E-04-1.52441E-01
 -1      2656-4.33268E+00-4.98907E-03-5.32388E-03 1.92582E-02-1.53412E-03-1.74403E-01
 -1      2657-4.44602E+00 1.25511E-04 2.31776E-03 1.98268E-02-7.05120E-04-1.71954E-01
 -1      2658-3.60943E+00-1.65022E-03-3.36679E-03 4.28502E-03-3.86090E-04-1.47854E-01
 -1      2659-1.47834E+00-3.63163E-03-7.43856E-03 8.87918E-03-2.85700E-03-2.37513E-01
 -1      2660-6.27112E+00-1.32914E-03-4.74588E-04 1.11283E-02-1.13138E-03-1.25587E-01
 -1      2661-4.83681E+00-2.99544E-03-6.67223E-03 6.98782E-03-4.40023E-03-1.48152E-01
 -1      2662-1.79878E+00 4.97638E-03 4.26137E-03 5.95064E-03-5.15549E-04-2.16408E-01
 -1      2663-6.66678E+00-5.99326E-03-7.79137E-03 9.33972E-03-7.37151E-04-1.11125E-01
 -1      2664-3.26369E+00 1.72901E-03-5.42037E-05 5.98720E-03 1.18626E-03-2.10595E-01
 -1      2665-6.89338E+00 1.24180E-03 8.25196E-04 1.43901E-02 6.15258E-04-8.29935E-02
 -1      2666-6.70714E+00 3.71912E-03 8.63803E-04 1.12128E-02-6.64585E-05-8.67483E-02
 -1      2667-1.71221E+00-3.11268E-03-6.98315E-03 1.55925E-02 9.25884E-04-1.61134E-01
 -1      2668-4.64694E+00-2.26010E-03-5.89341E-04 1.41734E-02-5.98067E-03-1.46076E-01
 -1      2669-6.48356E+00-5.05464E-03-9.48031E-03 9.16410E-03 1.68994E-05-1.12180E-01
 -1      2670-3.57039E+00 3.98351E-03 3.91185E-03 2.58991E-02-4.47554E-03-2.05510E-01
 -1      2671-3.74665E+00 2.11570E-03-2.99017E-03 1.94801E-02-6.49230E-03-1.99449E-01
 -1      2672-4.69270E+00-7.39439E-04-6.55240E-03 2.15664E-02-1.16279E-03-1.63392E-01
 -1      2673-4.88080E+00-8.72036E-03-1.21079E-02 2.45534E-02 5.61308E-04-1.58385E-01
 -1      2674-1.06833E+00 6.34393E-03 7.59393E-03 2.76267E-02-2.19205E-04-3.11766E-01
 -1      2675-2.29570E+00 2.19285E-03 2.15979E-03 4.79921E-03-4.77069E-04-1.17786E-01
 -1      2676-3.77360E+00 1.35091E-03-5.42623E-03 7.14882E-03 1.19235E-03-1.20774E-01
 -1      2677-1.15341E+00-6.38289E-04-6.09318E-03 5.79816E-03-3.80801E-04-1.43452E-01
 -1      2678-6.07025E+00 5.36986E-03 5.18086E-03 1.31611E-02-1.34131E-04-1.25059E-01
 -1      2679-3.19688E+00-1.58232E-03-7.15732E-03 1.39346E-02 1.68794E-03-1.44160E-01
 -1      2680-3.29869E-01 1.53550E-03 9.33293E-04 5.62066E-03-1.48077E-03-1.63782E-01
 -1      2681 2.20530E+00 2.31496E-03 6.26786E-03 6.41285E-03-1.05311E-03-1.51901E-01
 -1      2682 1.14806E+00-1.31623E-03-1.16191E-03 5.98216E-03 2.19797E-04-1.55571E-01
 -1      2683 3.69239E+00 4.54923E-04-1.31990E-04 8.29918E-03 3.03269E-04-1.38109E-01
 -1      2684 1.46948E+00-1.88554E-03-1.93564E-04 1.44498E-02 7.50016E-04-1.52664E-01
 -1      2685 5.01449E+00-1.12091E-03-8.95095E-05 1.39695E-02 2.77568E-03-1.03754E-01
 -1      2686 5.20318E+00 1.83114E-04 3.19077E-03 1.12127E-02 4.23694E-03-9.84942E-02
 -1      2687 6.51252E+00-2.50865E-04 4.96701E-03 1.07577E-02 3.56192E-04-7.83756E-02
 -1      2688 6.70909E+00 4.40361E-03 8.10484E-03 1.14767E-02-7.26141E-04-7.45246E-02
 -1      2689-3.24607E-01 2.05116E-03 1.10409E-03 6.92195E-03-4.58394E-04-1.73608E-01
 -1      2690-2.86318E+00 2.89748E-03 1.80765E-03 6.63715E-03-8.95076E-05-1.51394E-01
 -1      2691-4.48295E+00 1.46549E-03-4.96779E-03 3.49579E-03-1.01644E-03-1.55247E-01
 -1      2692-1.95531E+00-6.76124E-04-4.09393E-03 5.12997E-03-1.10947E-03-1.82405E-01
 -1      2693-2.20901E+00-6.16930E-03-1.06228E-02 1.69134E-02-5.09651E-03-2.52616E-01
 -1      2694-2.06735E+00-5.43135E-04-1.65317E-03 2.97345E-02-1.09931E-03-2.47966E-01
 -1      2695-2.60367E+00 5.08589E-03 1.21838E-02 1.93666E-02 4.03774E-03-2.06164E-01
 -1      2696-6.39008E-01-1.05282E-02-1.63827E-02 1.83100E-02 5.11419E-04-3.89381E-01
 -1      2697-2.76518E+00 1.53394E-03 6.46009E-03 1.99678E-02-2.51120E-03-2.08339E-01
 -1      2698 2.20673E+00 6.07524E-03 1.09165E-02 1.66333E-02 5.35330E-03-2.52343E-01
 -1      2699 2.06694E+00 6.66638E-04 1.82699E-03 2.96124E-02 1.59723E-03-2.48667E-01
 -1      2700 2.76710E+00 1.57484E-04-1.90443E-03 1.80327E-02-7.23679E-05-2.08302E-01
 -1      2701 2.60518E+00-4.20640E-03-8.20906E-03 2.05417E-02-2.64611E-03-2.07048E-01
 -1      2702 6.41283E-01 9.52640E-03 1.45150E-02 1.77798E-02-1.11323E-03-3.90854E-01
 -1      2703-7.11901E-01-2.02038E-03 1.75568E-03 8.44436E-03-4.83564E-05-4.23385E-01
 -1      2704-1.23346E-01 5.58164E-03 4.11942E-03 1.59141E-02 2.63195E-03-4.20835E-01
 -1      2705-1.19101E+00 7.35833E-03 1.07470E-02 1.41495E-02 2.83615E-03-3.73662E-01
 -1      2706-7.37292E-01 1.09009E-04-8.00208E-03 1.23311E-02-1.30317E-03-4.15836E-01
 -1      2707-1.77450E+00 3.09751E-03-4.32394E-03 5.66018E-03-2.85049E-03-3.56480E-01
 -1      2708-2.41062E+00-4.77930E-03-8.25123E-03 1.93138E-02 2.04690E-03-2.09311E-01
 -1      2709 1.23031E-01-5.35042E-03-3.11992E-03 1.58840E-02-2.58613E-03-4.21199E-01
 -1      2710 1.19392E+00-4.87259E-03-9.00254E-03 1.48846E-02-2.13113E-03-3.72133E-01
 -1      2711 1.78126E+00-2.09110E-03 1.29220E-02 5.62466E-03 2.30312E-03-3.56081E-01
 -1      2712 7.35712E-01-1.45467E-03 4.67491E-03 1.18942E-02 5.03268E-04-4.16696E-01
 -1      2713-1.31779E+00 2.24334E-03 7.61114E-03 1.30310E-02-1.77699E-03-3.36907E-01
 -1      2714 1.89405E-01 4.55823E-03 5.57152E-03 1.22059E-02-2.56989E-03-3.74647E-01
 -1      2715-6.22636E-01-1.90586E-03-1.03201E-02 1.41213E-02 2.25754E-03-3.80330E-01
 -1      2716-8.29865E-01-1.03265E-02-1.26169E-02 2.69774E-02 8.13709E-04-3.56763E-01
 -1      2717-2.10430E+00 7.81943E-04-1.31963E-02 1.79117E-02 2.12978E-03-3.26056E-01
 -1      2718-2.98731E+00-7.15020E-04-1.23054E-03 1.99821E-02 1.52542E-03-2.27123E-01
 -1      2719-2.96115E+00-7.00126E-03-1.07931E-02 2.70294E-02 4.85952E-03-2.29395E-01
 -1      2720-3.72028E+00 6.07372E-03 7.46656E-03 2.83273E-02-1.39219E-03-1.91795E-01
 -1      2721-3.71927E+00 1.79787E-03 8.60633E-04 2.40257E-02-6.84369E-05-1.93252E-01
 -1      2722 5.17989E+00 2.43041E-03 5.00831E-03 1.06322E-02-1.13088E-03-8.01704E-02
 -1      2723 6.64508E+00-7.36163E-04 1.56473E-03 8.33190E-03-1.56063E-03-7.23246E-02
 -1      2724 1.48733E+00 1.76724E-03 6.73839E-03 1.23932E-02 5.93041E-05-1.32474E-01
 -1      2725 6.77840E+00-3.75167E-05-9.84819E-04 1.14484E-02-1.36484E-04-7.21467E-02
 -1      2726 2.28549E+00-2.97966E-03-1.70741E-03 5.33768E-03 7.46710E-04-1.18210E-01
 -1      2727-3.38286E-01-2.02278E-03-1.78895E-03 5.09560E-03 4.57833E-04-1.37830E-01
 -1      2728 3.75954E+00-1.47930E-03 4.88115E-03 6.84989E-03-1.23299E-03-1.21144E-01
 -1      2729 1.14816E+00 7.99896E-05 4.26880E-03 4.81086E-03-5.13000E-04-1.45097E-01
 -1      2730 3.29621E-01-1.48962E-03-6.65791E-04 5.62396E-03 1.38436E-03-1.63671E-01
 -1      2731-2.20567E+00-2.31923E-03-6.19387E-03 6.39729E-03 1.06065E-03-1.51766E-01
 -1      2732-1.15295E+00 1.47732E-03 1.48961E-03 5.85829E-03-1.71162E-04-1.55230E-01
 -1      2733-3.69693E+00-2.85143E-04 1.04382E-04 8.26457E-03-2.18560E-04-1.38009E-01
 -1      2734-5.64418E+00-8.29967E-04-9.12226E-04 1.48851E-02-1.43381E-03-1.44395E-01
 -1      2735 2.33048E-01-4.61276E-03-6.47552E-03 1.10709E-02 3.32441E-03-3.30731E-01
 -1      2736-1.56431E+00-3.01520E-03-1.01400E-02 1.21945E-02 1.97722E-03-3.02348E-01
 -1      2737-8.44099E-01 2.43669E-03 6.86121E-03 1.32857E-02-1.25998E-03-3.25911E-01
 -1      2738-2.66497E+00-1.53640E-03 4.77654E-03 1.71798E-02-1.57358E-03-2.83867E-01
 -1      2739-2.36586E-01 1.07960E-03-4.49814E-04 1.13799E-02-3.40521E-03-3.30551E-01
 -1      2740 1.56427E+00 2.98354E-03 8.89245E-03 1.28807E-02-2.44482E-03-3.01249E-01
 -1      2741 8.43180E-01-3.07963E-03-6.21601E-03 1.23078E-02 6.61529E-04-3.26227E-01
 -1      2742 2.66459E+00-4.09375E-04-6.46028E-03 1.59053E-02 1.61813E-03-2.83455E-01
 -1      2743 1.06514E+00-5.20957E-03-6.71018E-03 2.80035E-02-8.92808E-04-3.12203E-01
 -1      2744 3.57064E+00-3.45738E-03-3.00852E-03 2.64879E-02 3.22826E-03-2.06830E-01
 -1      2745 3.75017E+00 3.62279E-04 3.85800E-03 1.79277E-02 2.65833E-03-1.99287E-01
 -1      2746 4.88204E+00 4.87851E-03 1.10872E-02 2.59199E-02-1.38403E-03-1.56741E-01
 -1      2747 4.69298E+00 7.81121E-04 6.98619E-03 2.18461E-02 6.25096E-05-1.64943E-01
 -1      2748 5.32853E+00 2.03629E-03 5.10365E-03 5.06483E-03 2.88649E-03-1.03146E-01
 -1      2749 5.13863E+00 1.57242E-03 6.65657E-04 1.02549E-02 4.15909E-03-1.02848E-01
 -1      2750 6.92697E+00 7.02432E-04 1.86065E-03 7.74176E-03 5.73391E-04-9.21485E-02
 -1      2751 6.72654E+00-3.51677E-03-3.05687E-03 9.81273E-03 9.02056E-04-9.30865E-02
 -1      2752 1.63153E+00 3.16651E-03 6.14372E-03 5.79131E-03 2.24560E-03-1.69356E-01
 -1      2753-3.01133E-01 2.41592E-03 1.08410E-03 8.27141E-03-1.58722E-03-2.36904E-01
 -1      2754 1.99942E+00 4.52267E-03 7.50320E-03 9.36026E-03-1.54788E-03-2.17856E-01
 -1      2755 1.05140E+00-1.79475E-03-3.04902E-03 7.57782E-03-2.68417E-05-2.29444E-01
 -1      2756 3.36750E+00 1.56525E-03 1.97130E-03 1.08742E-02 2.14324E-04-2.03355E-01
 -1      2757 1.34040E+00-3.49803E-03-1.71259E-03 2.06454E-02 2.33084E-03-2.22875E-01
 -1      2758 4.55111E+00-1.34713E-03-3.25267E-04 1.94687E-02 3.44702E-03-1.48567E-01
 -1      2759 4.73849E+00 1.99416E-04 3.76235E-03 1.64188E-02 5.80557E-03-1.42169E-01
 -1      2760 5.93504E+00 8.59149E-04 4.12325E-03 1.48827E-02 1.24616E-03-1.18295E-01
 -1      2761 6.13477E+00 6.53109E-03 8.58579E-03 1.73615E-02-8.01205E-04-1.13253E-01
 -1      2762 3.23842E-01-1.95941E-03-6.86017E-04 7.01293E-03 5.88740E-04-1.73847E-01
 -1      2763 2.86356E+00-2.08302E-03-1.55841E-03 6.84645E-03 4.29686E-04-1.51031E-01
 -1      2764 1.94039E+00 9.11554E-04 3.96666E-03 4.86001E-03 1.48972E-03-1.83046E-01
 -1      2765 4.47264E+00-2.95928E-04 8.49854E-03 3.00336E-03 8.44540E-04-1.54214E-01
 -1      2766 3.01487E-01-2.38004E-03-1.01780E-03 8.24278E-03 1.53960E-03-2.36954E-01
 -1      2767-1.99838E+00-3.26501E-03-7.27731E-03 9.07527E-03 1.14828E-03-2.17017E-01
 -1      2768-1.05767E+00 1.76488E-03 2.42796E-03 7.99788E-03-3.56430E-04-2.29768E-01
 -1      2769-3.37005E+00-5.27342E-04 2.62561E-03 1.10617E-02 1.97570E-04-2.02127E-01
 -1      2770-1.34550E+00 2.27060E-03 6.84461E-04 2.06790E-02-1.68165E-03-2.22822E-01
 -1      2771-3.99409E+00-1.15518E-03-3.48371E-03 1.76713E-02 1.16444E-03-1.85883E-01
 -1      2772-3.92429E+00-5.76123E-03-9.89028E-03 2.26077E-02 3.92909E-03-1.88559E-01
 -1      2773-4.97599E+00 1.72981E-03 2.35348E-03 1.86092E-02 2.01379E-03-1.59360E-01
 -1      2774-1.10803E+00-6.77619E-03-1.24242E-02 2.39588E-02 5.01847E-05-2.95875E-01
 -1      2775-5.02692E+00 4.24376E-03 7.04146E-03 2.57734E-02-2.39204E-03-1.57712E-01
 -1      2776-5.94514E+00 3.48014E-04-3.55476E-03 1.16803E-02-1.63984E-03-1.28212E-01
 -1      2777 2.94138E-01-2.86776E-03-1.50908E-03 9.96821E-03 4.17014E-04-2.46025E-01
 -1      2778 2.60021E+00-3.17977E-03-3.45144E-03 9.97557E-03 2.16529E-04-2.16248E-01
 -1      2779 4.04961E+00-1.29436E-04 1.01163E-02 4.25081E-03 1.11364E-03-2.16141E-01
 -1      2780 1.48248E+00 4.91465E-03 8.89032E-03 8.20042E-03 2.84532E-03-2.37561E-01
 -1      2781 1.75378E+00 2.09093E-03 5.89635E-03 6.69082E-03 1.99276E-03-2.54845E-01
 -1      2782 4.83346E+00 3.01340E-03 6.26803E-03 7.13716E-03 4.26195E-03-1.48231E-01
 -1      2783 4.64513E+00 1.89350E-03 2.52053E-04 1.43879E-02 6.16867E-03-1.46158E-01
 -1      2784 6.06533E+00-5.47221E-03-5.21229E-03 1.36140E-02 4.12168E-04-1.27989E-01
 -1      2785 6.26744E+00 9.81981E-04 1.45951E-03 1.08317E-02 7.76665E-04-1.27949E-01
 -1      2786-6.97120E+00-1.76301E-03-4.82123E-03 8.73504E-03 7.82716E-04-5.75796E-02
 -1      2787-7.12330E+00-4.84739E-03-8.28071E-03 1.22438E-02 1.41572E-03-5.99811E-02
 -1      2788-1.77378E+00 3.23491E-03 1.45850E-03 8.45698E-03 4.97638E-04-1.13894E-01
 -1      2789-2.93636E-01 2.87959E-03 1.22224E-03 9.84447E-03-7.79981E-05-2.46234E-01
 -1      2790-2.59993E+00 3.12420E-03 3.47577E-03 9.88745E-03-2.90868E-04-2.16080E-01
 -1      2791-1.75170E+00-1.09905E-03-4.32233E-03 5.58386E-03-1.80847E-03-2.54530E-01
 -1      2792-4.04872E+00 3.25829E-04-1.00558E-02 2.99008E-03-1.62276E-03-2.15300E-01
 -1      2793 1.75350E+00-4.83901E-03-6.70905E-03 1.25009E-02 1.77251E-03-2.78050E-01
 -1      2794-2.55968E-01-4.34595E-03-2.66644E-03 1.11881E-02 1.72724E-03-3.16667E-01
 -1      2795 2.83000E+00-1.40243E-03 1.16680E-02 1.59744E-02-2.22370E-03-2.68806E-01
 -1      2796 8.42893E-01 2.88950E-04 6.31827E-03 1.09806E-02-1.47757E-03-3.18472E-01
 -1      2797 1.11005E+00 5.74434E-03 1.20413E-02 2.37390E-02 7.68923E-04-2.96353E-01
 -1      2798-2.53767E-01 1.79942E-03 2.32290E-04 1.28107E-02-2.28913E-03-2.73623E-01
 -1      2799-2.59371E-01-5.90842E-04-6.73020E-04 1.34791E-02 1.12077E-03-2.83644E-01
 -1      2800-2.36487E+00-8.48238E-04-1.75942E-04 8.31623E-03 1.11724E-02-6.27806E-02
 -1      2801 3.46207E-01 2.64836E-04 1.92727E-03 3.14662E-03 1.63667E-02-5.90394E-02
 -1      2802-1.46963E+00 9.61909E-04-4.02327E-03 5.04156E-03 9.02671E-03-6.22972E-02
 -1      2803-1.82509E+00 1.53064E-03-4.53683E-03 1.00045E-02 5.87553E-03-8.23592E-02
 -1      2804-4.17079E+00 1.03186E-03-2.21504E-03 8.48371E-03 5.15055E-03-5.94748E-02
 -1      2805-3.91238E+00 7.00825E-04-6.31064E-03 8.30943E-03 1.61119E-03-1.50826E-01
 -1      2806-1.39413E+00 4.98197E-04-1.38052E-03 7.26174E-03 4.11347E-04-1.66539E-01
 -1      2807 7.32352E+00 4.53516E-03 8.05291E-03 6.51093E-03 2.39127E-05-7.46116E-02
 -1      2808 1.97371E+00-3.60671E-03-3.09582E-03 4.04592E-03 8.68134E-04-1.48521E-01
 -1      2809 7.13975E+00 4.19833E-03 8.55020E-03 6.99638E-03 1.85772E-04-7.66192E-02
 -1      2810-8.68070E-01-5.69187E-03-5.70125E-03 3.44791E-02 1.76828E-03-2.71619E-01
 -1      2811-1.26658E+00-6.40784E-03-1.04317E-02 2.83259E-02 3.38240E-05-2.11232E-01
 -1      2812-1.23388E+00-4.34239E-03-1.32389E-02 3.30682E-02-7.77642E-04-2.09041E-01
 -1      2813-3.47956E-01 2.05970E-03 1.35886E-02 3.42837E-02-3.03094E-03-4.09563E-01
 -1      2814 1.38626E+00-5.64421E-04 1.40999E-03 7.23547E-03-4.25594E-04-1.66738E-01
 -1      2815 1.70419E+00 3.20934E-03 7.10540E-03 1.56010E-02-1.00599E-03-1.61382E-01
 -1      2816 3.90455E+00-7.00853E-04 6.37861E-03 8.28337E-03-1.54061E-03-1.50967E-01
 -1      2817 6.70050E+00-3.53359E-03-8.55721E-04 1.12150E-02 1.20133E-04-8.69199E-02
 -1      2818 6.88481E+00-1.20390E-03-7.09810E-04 1.43403E-02-5.27583E-04-8.30263E-02
 -1      2819-2.28982E+00-9.54589E-04-2.59341E-03 3.19082E-03-1.22888E-03-1.62648E-01
 -1      2820-4.84301E+00-4.49407E-04-1.95939E-03 2.27670E-03 9.35287E-04-1.37871E-01
 -1      2821-2.99411E+00-1.23324E-02-1.42969E-02 1.22205E-02-2.40232E-03-1.98100E-01
 -1      2822-3.11676E+00-6.49526E-03-6.91502E-03 1.57108E-02-1.56721E-03-1.97819E-01
 -1      2823-8.45013E-01 1.36047E-02 1.39312E-02 1.89948E-02-1.24438E-03-3.75588E-01
 -1      2824 2.99310E+00 1.15771E-02 1.41762E-02 1.22282E-02 2.54791E-03-1.98028E-01
 -1      2825 3.11618E+00 6.95299E-03 8.07089E-03 1.68312E-02 2.13708E-03-1.95792E-01
 -1      2826 8.44805E-01-1.38548E-02-1.37944E-02 1.95054E-02 8.29634E-04-3.75988E-01
 -1      2827-2.07210E+00 1.08442E-03 5.52061E-03 6.90857E-03 2.15692E-03-3.47404E-01
 -1      2828-9.64926E-01 3.43551E-03-1.45660E-03 8.08619E-03-1.71677E-03-4.08214E-01
 -1      2829 9.64287E-01-2.97406E-03 1.70970E-03 7.88209E-03 1.74204E-03-4.08276E-01
 -1      2830 2.07399E+00 8.89422E-04-4.09665E-03 5.91963E-03-1.25769E-03-3.47994E-01
 -1      2831 4.84529E+00 1.37735E-03 2.63466E-03 1.43587E-03-1.18457E-03-1.38043E-01
 -1      2832 2.29111E+00 1.06925E-03 2.17589E-03 2.99843E-03 1.09248E-03-1.62560E-01
 -1      2833 2.08529E+00 1.71959E-03 2.76582E-03 4.72400E-03 1.24056E-03-2.34025E-01
 -1      2834 1.80046E+00-5.23225E-03-4.77909E-03 6.00609E-03 4.62085E-04-2.16301E-01
 -1      2835 4.41228E+00 1.50305E-03 9.53494E-04 3.00941E-03-1.25445E-03-2.01509E-01
 -1      2836 6.48435E+00 5.30330E-03 9.98529E-03 9.48442E-03-1.04323E-04-1.12402E-01
 -1      2837 6.66456E+00 5.92111E-03 7.53595E-03 9.41609E-03 5.15810E-04-1.11113E-01
 -1      2838-4.41113E+00-1.48281E-03-1.04179E-03 2.93633E-03 1.05595E-03-2.01312E-01
 -1      2839-2.08358E+00-1.57190E-03-3.15310E-03 4.51534E-03-1.25058E-03-2.34050E-01
 -1      2840-4.86777E+00 5.15133E-03 5.20206E-03 2.80094E-02 8.66501E-04-1.62193E-01
 -1      2841-4.70800E+00 7.79286E-03 5.69085E-03 2.09761E-02-7.88553E-04-1.64141E-01
 -1      2842-1.18049E+00-5.14926E-03-1.32948E-02 2.77745E-02 1.57877E-03-3.16281E-01
 -1      2843 1.24808E+00-2.11353E-05 1.41431E-03 1.01319E-02-1.96740E-06-2.38019E-01
 -1      2844 1.53193E+00 4.26872E-03 8.86644E-03 2.20713E-02-1.13792E-03-2.27749E-01
 -1      2845 3.52479E+00 7.54817E-04 7.53205E-03 1.10431E-02-2.17447E-03-2.12185E-01
 -1      2846-3.52248E+00 8.87998E-04-6.77885E-03 1.17576E-02 1.99791E-03-2.12665E-01
 -1      2847-1.24667E+00 6.03394E-04-1.47801E-03 1.01895E-02 1.55744E-04-2.37723E-01
 -1      2848-1.53120E+00-4.88422E-03-9.67111E-03 2.22411E-02 1.16663E-03-2.27646E-01
 -1      2849 6.23570E+00-2.85654E-03-3.15798E-03 2.01054E-02-8.34332E-04-1.17816E-01
 -1      2850 6.05759E+00-4.24939E-03-1.26097E-03 1.66080E-02-1.83339E-04-1.22553E-01
 -1      2851-5.98090E-01 2.84078E-03-4.62483E-03 9.67567E-03 2.99748E-03-4.30834E-01
 -1      2852-2.00124E+00-1.54312E-03 5.51919E-04 1.91565E-02-2.85835E-03-2.11879E-01
 -1      2853-1.43408E+00 1.36657E-03 3.05783E-04 5.20692E-03 1.65073E-03-1.25748E-01
 -1      2854-4.07731E+00 3.55240E-04-6.28798E-04 5.65770E-03-1.25274E-04-1.04711E-01
 -1      2855-5.33993E+00-5.13635E-03-6.20802E-03 2.06960E-02 1.19212E-03-1.45292E-01
 -1      2856-5.42798E+00-9.73350E-03-1.28672E-02 2.92691E-02 1.81412E-03-1.46332E-01
 -1      2857-1.37066E+00 9.17309E-03 8.39019E-03 2.14782E-02 1.20603E-03-2.77785E-01
 -1      2858-4.05734E+00-7.62943E-03-1.20852E-02 2.38874E-02 1.51614E-03-1.75003E-01
 -1      2859-4.10663E+00-1.09950E-02-1.57364E-02 3.50404E-02 2.52348E-03-1.78229E-01
 -1      2860-1.04843E+00 9.53074E-03 1.21244E-02 2.37706E-02 6.93864E-05-3.39327E-01
 -1      2861-9.60484E-01-5.05696E-04-6.12995E-03 1.33967E-02-9.24673E-04-3.31245E-01
 -1      2862-2.72970E+00 1.51743E-03-1.06693E-02 1.70285E-02 2.29542E-03-2.92218E-01
 -1      2863-8.43074E-01 2.06558E-03 6.10998E-03 1.52512E-02 2.22696E-03-3.64126E-01
 -1      2864-2.38159E+00-1.89420E-03 6.43544E-03 1.81176E-02-2.03694E-03-3.14549E-01
 -1      2865 6.07608E-02 9.52151E-04 6.12656E-03 1.32037E-02-2.46871E-03-4.39738E-01
 -1      2866-3.92169E-01 2.93246E-03 9.51640E-03 1.53139E-02-4.25652E-03-3.97089E-01
 -1      2867-2.70159E-01 9.08027E-04 5.72516E-03 1.73847E-02 2.19676E-03-4.31123E-01
 -1      2868-7.57145E-01 9.13804E-05 8.50816E-03 2.06447E-02-3.48051E-03-3.74276E-01
 -1      2869-1.73501E+00 6.37676E-03 7.51608E-03 1.32410E-02-2.32457E-03-2.79360E-01
 -1      2870 2.57122E-01 4.77374E-03 3.40697E-03 1.16837E-02-2.01413E-03-3.16324E-01
 -1      2871-2.80941E+00 2.34717E-03-5.10088E-03 1.58396E-02 2.17124E-03-2.70506E-01
 -1      2872-8.43289E-01 4.22438E-05-6.57406E-03 1.06634E-02 9.13161E-04-3.17816E-01
 -1      2873-4.55145E+00 1.91727E-03 9.96963E-04 1.99518E-02-3.70765E-03-1.48199E-01
 -1      2874-4.73963E+00 7.66196E-05-3.87650E-03 1.63622E-02-5.90188E-03-1.42060E-01
 -1      2875-5.93961E+00 2.12488E-05-3.61932E-03 1.56588E-02 2.00716E-04-1.17078E-01
 -1      2876-6.14103E+00-6.19323E-03-8.58806E-03 1.66965E-02 4.24455E-04-1.12616E-01
 -1      2877-5.56823E+00-3.03296E-03 8.65207E-04 4.37506E-03-9.42594E-04-5.34799E-02
 -1      2878-5.36316E+00 4.54677E-03 1.49054E-03 1.38800E-02 4.02152E-03-5.40540E-02
 -1      2879-7.36135E+00-8.91058E-04-2.60499E-03 8.01090E-03 1.54046E-03-4.06784E-02
 -1      2880-7.16562E+00 4.98921E-03-2.81450E-03 1.28758E-02 2.95887E-03-4.05052E-02
 -1      2881 3.18455E+00 1.61161E-03 7.03059E-03 1.40613E-02-1.68925E-03-1.44455E-01
 -1      2882-1.47024E+00 1.18325E-03 3.40981E-03 9.84957E-03 1.34288E-03-3.51382E-01
 -1      2883 1.46959E+00-5.96714E-03-6.80443E-03 8.63046E-03-3.62426E-03-3.54262E-01
 -1      2884-1.71244E+00-4.00615E-03-3.95763E-03 8.05960E-03-1.70458E-03-2.61134E-01
 -1      2885 1.10388E+00-4.03682E-03 4.72775E-04 1.26041E-02-1.41658E-03-3.05200E-01
 -1      2886 3.14432E+00-3.51715E-05-2.12480E-03 1.41847E-02 9.64017E-04-2.56904E-01
 -1      2887 1.37152E+00-8.98856E-03-8.21314E-03 2.08535E-02-8.24345E-04-2.78347E-01
 -1      2888-1.60835E+00 2.28238E-03-1.31557E-03 1.03740E-02-2.91226E-04-2.87883E-01
 -1      2889 3.59557E+00-1.08360E-03 1.58152E-03 4.10660E-03-9.19675E-04-1.48269E-01
 -1      2890 3.99527E+00 1.54091E-03 3.66920E-03 1.75995E-02-1.34894E-03-1.86277E-01
 -1      2891 3.92512E+00 6.55217E-03 1.07000E-02 2.30371E-02-4.45034E-03-1.88397E-01
 -1      2892 5.02792E+00-4.36674E-03-6.77535E-03 2.55407E-02 1.93909E-03-1.57031E-01
 -1      2893 4.97903E+00-4.57112E-04-1.52174E-03 2.05867E-02-7.58068E-05-1.58070E-01
 -1      2894 3.26752E+00-1.79105E-03 1.12465E-04 6.12564E-03-1.36071E-03-2.11544E-01
 -1      2895-1.43099E+00-1.74935E-03-5.77858E-03 2.04394E-02 4.63769E-03-2.15413E-01
 -1      2896-7.63015E-02 7.38523E-03-1.65297E-02 3.21385E-02-2.65698E-03-4.32872E-01
 -1      2897 5.06678E-02 2.14548E-03-5.25696E-04 1.41202E-02 5.37901E-03-4.44014E-01
 -1      2898 1.16720E-01-3.82468E-03 1.29509E-02 2.05551E-02-3.66226E-03-4.14575E-01
 -1      2899 2.88581E+00-1.02932E-03 5.31109E-03 1.97257E-02-1.14097E-03-2.08201E-01
 -1      2900-4.93194E-01 2.66769E-03-9.07987E-03 2.98019E-02 5.47417E-05-2.76413E-01
 -1      2901-9.57538E-02-2.27146E-03-1.72822E-02 2.30031E-02 4.34884E-03-4.30513E-01
 -1      2902-3.26436E+00-9.58448E-04-3.87795E-03 1.10350E-02 4.89907E-04-1.14085E-01
 -1      2903-2.89173E+00-2.32239E-03-7.83255E-03 2.00474E-02 2.61656E-03-2.08540E-01
 -1      2904 2.46929E+00-4.62664E-03-3.42321E-03 2.68378E-02 2.06944E-03-2.65989E-01
 -1      2905-2.47162E+00-3.48171E-05-2.10922E-04 2.64474E-02-2.73873E-04-2.64569E-01
 -1      2906-6.23644E+00 2.11728E-03 2.95961E-03 2.01502E-02 1.04952E-03-1.17461E-01
 -1      2907-6.05603E+00 4.86805E-03 2.37657E-03 1.60240E-02 1.14505E-05-1.21409E-01
 -1      2908-1.10515E+00 3.95802E-03-7.18510E-04 1.24893E-02 1.40077E-03-3.05028E-01
 -1      2909-3.12790E+00 1.18030E-03 2.93837E-03 1.30684E-02-1.53550E-03-2.56624E-01
 -1      2910-2.26465E+00-2.78458E-03-9.82538E-03 2.75293E-02 3.30682E-03-2.89284E-01
 -1      2911 2.71121E+00-6.39318E-05 7.59841E-03 1.76703E-02-3.82664E-03-2.90346E-01
 -1      2912 9.35609E-01 5.66177E-04 3.72982E-03 1.33962E-02 1.54932E-03-3.28681E-01
 -1      2913 1.15812E+00 7.90169E-03 1.47355E-02 2.67453E-02-8.66741E-05-3.13469E-01
 -1      2914-1.85939E+00 2.99417E-03 4.16677E-03 3.09612E-02-3.27860E-03-3.24276E-01
 -1      2915 4.84385E+00-3.81323E-03-8.71916E-03 2.69835E-02-5.73442E-04-1.62576E-01
 -1      2916 4.68203E+00-8.63972E-03-9.50649E-03 1.83771E-02 8.10493E-04-1.66311E-01
 -1      2917 6.97432E+00 1.90939E-03 5.44407E-03 8.61209E-03-7.77106E-04-5.78131E-02
 -1      2918 7.12327E+00 2.60022E-03 7.98524E-03 1.00594E-02-7.92491E-05-5.95567E-02
 -1      2919 1.77629E+00-2.22670E-03-1.89110E-03 1.07293E-02-6.11479E-04-1.15308E-01
 -1      2920 5.34029E+00 6.07274E-03 7.64627E-03 2.01281E-02-1.93939E-03-1.43946E-01
 -1      2921 5.42744E+00 9.58234E-03 1.32082E-02 2.95309E-02-2.07249E-03-1.46386E-01
 -1      2922 1.43565E+00-1.59151E-03 2.20502E-03 4.99756E-03-1.00243E-03-1.28372E-01
 -1      2923 4.07060E+00-5.52068E-04 2.23973E-03 5.60396E-03 6.07246E-05-1.04834E-01
 -1      2924-3.98077E+00 2.67959E-03-2.49815E-03 1.60646E-02 1.81085E-02-5.21387E-02
 -1      2925-1.63163E+00-2.92478E-03-1.22086E-03 1.51844E-02 1.69103E-02-8.78523E-02
 -1      2926-1.26571E+00 6.23917E-03 1.21801E-02 7.98986E-03 2.45017E-02-5.51689E-02
 -1      2927 1.54782E+00 4.80121E-01 3.45284E-01-6.89218E-03-3.82657E-02-1.65405E-01
 -1      2928-9.04812E-01-3.06335E-01-2.58973E-01 3.68542E-02 1.18894E-02-1.38862E-01
 -1      2929 1.05085E+00-1.10504E-01-1.27859E-01 3.99219E-03 2.17673E-02 3.06733E-02
 -1      2930 2.42328E+00 1.26916E-01 3.56217E-02 8.11340E-03-1.02118E-01-3.02805E-01
 -1      2931 3.40844E+00 6.08429E-01 4.31178E-01-1.05479E-01-3.87196E-02-5.79738E-02
 -1      2932 8.46812E+00 5.42006E-04 5.40266E-03-1.14092E-03 3.44570E-04-5.89217E-02
 -1      2933-9.40259E-01 4.12435E-03 8.84333E-03 3.19103E-02-2.09754E-03-2.17128E-01
 -1      2934-1.01143E+00 4.57787E-03 3.85460E-03 2.67654E-02 3.35848E-03-2.23078E-01
 -1      2935-2.10813E-01-9.85628E-03-1.36388E-02 4.14304E-02 1.26173E-03-4.19290E-01
 -1      2936 2.27724E-01 2.41905E-02 2.83492E-03 9.27446E-03-5.24152E-02-1.09480E-01
 -1      2937-6.99004E+00 6.13882E-04-1.79464E-03 1.86257E-02 1.32413E-02-3.98707E-02
 -1      2938-7.20951E+00-1.82934E-02-5.74493E-03 1.32629E-02 1.28982E-02-4.70399E-02
 -1      2939 2.24059E+00 7.31369E-03 1.03078E-02 2.77771E-02-3.61390E-03-2.89217E-01
 -1      2940-5.64154E-01 4.87076E-03-2.41565E-03 2.17534E-02 1.76688E-03-3.81341E-01
 -1      2941-1.47090E-01-1.93905E-03-1.18845E-02 1.72225E-02-4.08458E-04-4.37270E-01
 -1      2942 2.16995E-02-4.81439E-03-2.67406E-02 3.12066E-02 3.71570E-03-4.18842E-01
 -1      2943 3.68377E-02-7.15165E-03-2.71219E-02 2.26123E-02-3.28328E-03-4.17179E-01
 -1      2944-8.82592E-03-8.79400E-04 2.82554E-02 2.67845E-02 3.23168E-04-4.15276E-01
 -1      2945 3.26159E+00-1.65364E-04 2.97836E-03 1.12266E-02-5.31270E-04-1.14618E-01
 -1      2946 6.43499E-02-1.88286E-02-6.03413E-02 2.72528E-02 2.64103E-03-3.71909E-01
 -1      2947 1.13742E-01-2.67701E-04 2.70975E-02 3.32947E-02 5.83109E-03-4.20672E-01
 -1      2948 5.58498E-02-9.76027E-03-3.22305E-02 3.24108E-02 1.27441E-02-3.85364E-01
 -1      2949-3.44178E+00 1.22872E-03-6.35970E-03 1.34255E-02 1.39751E-02-7.09276E-02
 -1      2950-5.45107E-01-2.31074E-03 4.12568E-03 3.49315E-02-2.24012E-03-3.79975E-01
 -1      2951 2.22300E+00 1.28659E-03 1.00130E-02-4.11709E-03-5.47406E-05-1.97237E-01
 -1      2952 1.81188E+00-5.42948E-03-5.92509E-03 1.91341E-02-5.37191E-04-1.99196E-01
 -1      2953 1.19993E+00 2.85702E-04 7.15435E-03 6.48875E-03 2.36644E-03-3.66346E-01
 -1      2954 1.40951E+00-4.33282E-03-8.27327E-03 3.82228E-03-5.26962E-03-3.64150E-01
 -1      2955 1.07050E+00 2.79701E-03 6.03230E-03 1.12334E-02 7.66760E-04-3.54956E-01
 -1      2956 2.07438E+00 3.50174E-03 9.03399E-03 1.16933E-02 2.46108E-03-1.95793E-01
 -1      2957 5.50199E+00-4.18039E-03 4.11138E-03-7.35442E-04-1.07206E-03-1.61505E-01
 -1      2958 5.33562E+00-3.39904E-03 1.57597E-03-2.25185E-03 2.76802E-03-1.60633E-01
 -1      2959 3.58163E+00-5.70309E-04 4.32014E-03 2.52942E-03-2.82854E-03-2.92793E-01
 -1      2960 5.06822E+00 5.17762E-03 6.27300E-03 1.43978E-02 5.01068E-04-1.47127E-01
 -1      2961 5.23541E+00 5.25708E-03 3.93784E-03 3.79257E-03 1.92031E-03-1.52145E-01
 -1      2962 2.01338E+00 4.84022E-03-5.35371E-04-4.86609E-03-7.51670E-04-1.88493E-01
 -1      2963 1.61464E+00-6.47068E-03-6.05286E-03 8.39122E-03-2.66538E-03-1.99823E-01
 -1      2964 1.85156E+00 4.72571E-03-4.31049E-03-4.67497E-03 2.33900E-03-1.97863E-01
 -1      2965 1.06588E+00 2.11436E-03 3.46648E-03 3.72521E-03 2.47866E-03-3.77711E-01
 -1      2966-1.07942E-01 3.95895E-03 1.20641E-02 1.85386E-02-4.38629E-03-4.33008E-01
 -1      2967-6.99116E-01 2.97771E-03-1.32099E-02 2.35844E-02-8.06320E-04-2.45016E-01
 -1      2968-2.78873E-01-7.42512E-03-1.33767E-02 2.06735E-02 1.35465E-03-4.06426E-01
 -1      2969-7.66443E+00-3.61765E-02 1.14346E-02-1.54517E-02-1.74562E-02-3.89947E-02
 -1      2970-1.87424E+00 1.79334E-03-1.97861E-02-1.00322E-02-4.04282E-02-1.54445E-01
 -1      2971-4.41470E+00-7.53503E-02 1.13672E-02 7.03941E-03-7.49833E-02-1.16737E-01
 -1      2972 3.66750E+00 6.99895E-01 4.47124E-01 3.08126E-02 8.06667E-02-1.05448E-01
 -1      2973 2.35831E+00 1.81948E-01 6.94654E-02 5.96073E-02 8.69771E-03 1.97092E-02
 -1      2974-4.27881E-02 1.21508E-02 6.59449E-03 1.06174E-02 7.05573E-03-3.98138E-01
 -1      2975-6.90666E-02 1.42744E-02 6.26407E-02 2.19251E-02 5.68220E-03-3.79742E-01
 -1      2976 2.33439E+00 4.03518E-03 2.00490E-02-1.01975E-02 3.03266E-02-1.57032E-01
 -1      2977 2.41623E+00-1.04009E-02-1.97528E-02-1.60423E-02 5.78073E-02-9.85179E-03
 -1      2978 4.53281E+00 7.69866E-02-1.01670E-02 1.17086E-02 7.04602E-02-1.14103E-01
 -1      2979-1.89549E+00 1.06707E-03-4.84132E-03 2.23903E-03-5.41753E-03-8.39993E-02
 -1      2980-7.38952E+00 2.47872E-03-3.23958E-03 3.30738E-03-1.78649E-03-4.49524E-02
 -1      2981-5.52587E+00 4.89805E-03 6.83634E-04 5.59135E-03-7.90702E-04-5.54230E-02
 -1      2982-2.04945E+00-4.34527E-03-4.03620E-03-4.03603E-03-1.83248E-02-8.10808E-02
 -1      2983-7.56103E+00-2.04568E-03-3.52380E-03-1.93786E-03-8.27617E-03-3.82998E-02
 -1      2984-3.91763E+00 2.04544E-03-2.75054E-03-4.37757E-03-1.36733E-02-6.83284E-02
 -1      2985 3.73502E+00-2.37080E-03-2.62568E-03 2.68951E-02-2.30412E-04-1.93045E-01
 -1      2986 8.26621E-01 4.03933E-03 8.31872E-03 3.02907E-02 4.37261E-04-3.52723E-01
 -1      2987 2.97483E+00-3.07167E-03-9.36163E-05 2.02273E-02-1.32387E-03-2.27376E-01
 -1      2988 4.09538E+00-8.72951E-05 5.75019E-03 1.44599E-02-2.76496E-03-1.78013E-01
 -1      2989 1.07450E+00 1.21177E-03-6.76918E-03 3.28490E-02-1.60916E-03-3.41848E-01
 -1      2990 1.88246E+00-1.32836E-03-1.10390E-03 2.42994E-02-8.28642E-04-3.26185E-01
 -1      2991 3.01491E-01 2.15532E-03-7.54081E-03 1.32490E-02 2.13694E-03-4.26107E-01
 -1      2992 2.48162E-01-1.36696E-02-1.71689E-02 2.42979E-02 1.39509E-03-3.85930E-01
 -1      2993 3.72164E-01-2.00358E-04 1.41334E-02 2.25539E-02-4.09168E-03-3.70497E-01
 -1      2994-1.89574E-01-5.06333E-04 2.92183E-03 1.60830E-02 2.24171E-03-3.76393E-01
 -1      2995 6.11881E-01-2.41540E-03 1.16586E-03 1.06437E-02-2.91987E-04-3.80162E-01
 -1      2996 8.75844E-01-3.66139E-03-1.60192E-03 1.25717E-02-3.05350E-04-3.68124E-01
 -1      2997 4.80726E+00 4.19484E-01-2.44061E-02-2.55613E-02 4.51153E-02-3.09935E-01
 -1      2998-1.41872E+00 1.85592E-03-6.05834E-03 9.92589E-03-1.42459E-04-3.42954E-01
 -1      2999-1.21750E+00-2.05569E-03-7.71292E-03 1.12337E-02-4.36483E-03-3.18322E-01
 -1      3000-2.36734E-01-6.71579E-04-4.64068E-03 1.22939E-02-1.06762E-03-3.32380E-01
 -1      3001-1.65491E+00-1.77701E-03-9.79826E-04 8.13218E-03 1.24379E-03-3.23067E-01
 -1      3002-1.43810E+00 4.21580E-06 4.21324E-03 6.28686E-03-5.35564E-04-2.99777E-01
 -1      3003-2.63577E+00-4.37924E-04-2.17991E-03 1.50879E-02 1.75886E-04-2.90541E-01
 -1      3004 1.34198E+00-6.66827E-03-9.12141E-03 8.59971E-03-2.35537E-02-5.39501E-02
 -1      3005 1.69052E+00 2.53912E-03-1.47477E-03 1.28441E-02-1.62500E-02-8.76876E-02
 -1      3006-3.60686E-01-4.62554E-04-4.65321E-03 3.86691E-03-1.66587E-02-5.70058E-02
 -1      3007 1.46337E+00-3.57288E-03-4.89602E-03 5.12814E-03-1.04254E-02-5.74973E-02
 -1      3008 1.81673E+00-8.83411E-04 5.21423E-03 9.72211E-03-4.91360E-03-8.18982E-02
 -1      3009 3.52004E+00-1.16868E-03 5.72108E-03 1.47680E-02-1.42008E-02-7.11465E-02
 -1      3010-4.77451E+00 1.06429E-03 2.12980E-03 1.95919E-02-1.86888E-03-1.71244E-01
 -1      3011-3.61517E+00 1.38350E-03 8.00448E-04 1.84877E-02-8.17865E-03-2.05694E-01
 -1      3012-5.07297E+00-2.91250E-03-6.64762E-03 2.50934E-02-1.27315E-03-1.59288E-01
 -1      3013 3.72185E+00 1.04781E-03-1.07842E-03 3.25696E-02-3.31371E-03-1.91882E-01
 -1      3014 4.07556E+00 5.87239E-04 3.15687E-03 3.03846E-02-3.36805E-04-1.71425E-01
 -1      3015 2.09277E+00-3.46814E-03-3.84518E-03 1.74751E-02-2.28587E-03-3.34914E-01
 -1      3016 2.40472E+00-2.05462E-03 5.10591E-03 1.64510E-02 6.38935E-04-3.17423E-01
 -1      3017 7.27975E+00 1.55298E-02 3.77438E-03 1.24443E-02-1.38977E-02-4.35994E-02
 -1      3018 5.55859E+00 3.18602E-03-1.29396E-03 3.50596E-03 1.50265E-03-5.43639E-02
 -1      3019 7.37248E+00 1.48729E-03 2.26965E-03 5.24845E-03-1.30618E-03-4.11933E-02
 -1      3020 5.99172E-02 1.51718E-03 6.69111E-03 1.33059E-02-2.03482E-03-4.40094E-01
 -1      3021-2.71513E-01 2.35277E-03 7.83766E-03 1.98138E-02 3.06075E-03-4.36960E-01
 -1      3022-4.25386E+00 3.56864E-03-5.31193E-03 2.18431E-02 8.55976E-04-1.72818E-01
 -1      3023-5.15478E+00-3.14061E-03-3.48449E-04 1.95280E-02-3.66528E-04-1.56341E-01
 -1      3024-1.42177E+00-3.51987E-03-8.38747E-03 3.60705E-02-4.14517E-03-2.10127E-01
 -1      3025-7.57056E+00 5.35695E-04-4.22691E-03-5.87790E-03-3.53463E-03-4.16941E-02
 -1      3026-7.73889E+00 1.90325E-03-1.43750E-03-1.56336E-02-1.53553E-02-3.33411E-02
 -1      3027 1.87571E-01-1.11398E-04 1.89635E-03 1.39061E-02-4.15645E-03-3.69633E-01
 -1      3028-8.42755E-01 1.06521E-03 8.52260E-03 1.62870E-02 2.87807E-03-3.65191E-01
 -1      3029-7.47828E+00-1.12130E-03-6.37008E-03 7.73691E-03 8.61376E-04-6.06373E-02
 -1      3030 2.31860E-01-2.24552E-03-3.42246E-03 1.30373E-02 4.52673E-03-3.37978E-01
 -1      3031-9.62654E-01-1.04874E-03-6.68863E-03 1.54812E-02-2.29375E-03-3.44501E-01
 -1      3032-7.67481E+00-1.98291E-04-1.14030E-03 8.18560E-03-1.60503E-03-5.88962E-02
 -1      3033-2.36557E+00-1.77704E-03-3.99243E-03 4.24005E-03 8.84901E-04-1.18687E-01
 -1      3034-4.15258E+00-1.23788E-03-6.92389E-03 6.81741E-03 1.48606E-03-1.00479E-01
 -1      3035-1.24363E-02-3.16712E-03 1.72999E-03 2.14791E-02 9.90410E-03-4.31093E-01
 -1      3036-4.28209E+00 1.80647E-03 4.58562E-03 2.27607E-02-3.66826E-03-1.64239E-01
 -1      3037-1.33406E+00-2.77668E-03-2.47358E-03 1.41616E-02 4.10736E-03-3.36324E-01
 -1      3038-2.42255E+00-3.72010E-03-1.01400E-02 2.15795E-02 4.05500E-03-2.97704E-01
 -1      3039-4.72430E+00 4.93372E-04 4.07017E-03 2.71277E-02 4.20322E-03-1.66265E-01
 -1      3040 3.62211E+00-4.56883E-03 8.25360E-04 1.58277E-02 4.13973E-03-2.06163E-01
 -1      3041 4.70171E+00-4.75068E-03-3.98540E-03 3.18203E-02-3.61228E-03-1.67940E-01
 -1      3042 3.40906E-01 5.17316E-04 9.23040E-04 3.70225E-03 8.26293E-03-7.64342E-02
 -1      3043-1.47455E+00 2.21127E-04-6.13234E-03 5.31798E-03 3.27414E-03-7.94546E-02
 -1      3044-7.17555E+00-1.14951E-03-2.36559E-03 1.04124E-02 4.35384E-04-5.53156E-02
 -1      3045-7.74438E+00-1.00793E-03-4.43835E-03 5.69651E-03 8.08283E-04-5.63478E-02
 -1      3046 3.35295E-01 2.95883E-04-2.21263E-04 4.88502E-03-7.92871E-04-1.25311E-01
 -1      3047-1.43461E+00 6.90408E-04 2.28817E-04 5.35730E-03 1.91371E-03-1.18416E-01
 -1      3048-2.22594E+00 3.80163E-04-1.95951E-03 1.03873E-03-4.24125E-03-7.87828E-02
 -1      3049-3.54344E-01 6.84585E-05 1.30980E-03 3.47409E-03-9.40105E-03-7.43254E-02
 -1      3050-2.36982E+00 1.83732E-03 1.75062E-03-3.72734E-03-1.43348E-02-6.05929E-02
 -1      3051-4.25807E+00-2.58395E-03-3.36056E-03 3.15879E-02-1.06407E-03-1.71891E-01
 -1      3052-4.48453E+00-7.48844E-04-6.52568E-03 1.73001E-02 2.95045E-03-1.61615E-01
 -1      3053 5.15808E+00 4.08706E-03 2.50555E-03 2.19302E-02 1.45877E-03-1.57675E-01
 -1      3054-3.21759E+00 2.75388E-03 1.73302E-03 4.94868E-03-2.14170E-03-2.96635E-01
 -1      3055-3.48428E+00 2.88379E-04-4.85329E-03 4.49544E-03 1.66450E-03-2.83649E-01
 -1      3056-7.32022E+00 1.91486E-03-2.48783E-03 7.77878E-03 2.14544E-03-4.21461E-02
 -1      3057 8.71967E+00 4.76149E-04 5.73682E-03-3.45113E-03 1.43669E-03-4.02615E-02
 -1      3058 8.67045E+00 1.47137E-03 2.35230E-03-2.56512E-03 5.55407E-04-4.06048E-02
 -1      3059 5.31213E+00 1.34123E-04 6.01003E-03 1.29688E-03 1.53388E-03-8.62222E-02
 -1      3060 7.82286E+00-7.48587E-04 9.36237E-04 1.86578E-03 1.57591E-04-5.29916E-02
 -1      3061 7.86997E+00-1.60316E-03 1.72368E-03 3.28646E-03 6.61919E-04-4.97023E-02
 -1      3062 1.45100E+00-9.31730E-04 4.67489E-03 1.00293E-02-2.07684E-03-2.65845E-01
 -1      3063 1.44835E+00 4.15082E-03 1.20576E-03 9.53283E-03 2.37346E-03-2.72824E-01
 -1      3064 1.70444E+00 3.81375E-03 4.89033E-03 1.62477E-02-2.22037E-04-2.44373E-01
 -1      3065-4.95760E+00-5.29920E-04 1.08715E-03 7.06325E-03-3.24797E-03-1.67600E-01
 -1      3066-5.25754E+00-1.93100E-03-5.59147E-03 8.45597E-03 1.62175E-03-1.55081E-01
 -1      3067 7.47019E+00 1.34407E-03 6.70695E-03 7.74897E-03-1.19948E-03-6.07526E-02
 -1      3068 6.13116E+00 1.61222E-03-1.15914E-03 1.94656E-02-3.62863E-03-1.21179E-01
 -1      3069 4.04883E+00-4.88327E-03 4.83821E-03 1.47808E-02-1.67365E-02-5.22429E-02
 -1      3070 4.16374E+00-9.49323E-04 3.50809E-03 8.25126E-03-4.31814E-03-6.14569E-02
 -1      3071 5.36617E+00 1.45535E-03 1.88987E-03 5.88009E-03-1.32914E-03-7.80927E-02
 -1      3072 7.17603E+00 2.15770E-03 4.49304E-03 1.09585E-02 6.64736E-04-5.70822E-02
 -1      3073 1.47114E+00-1.50214E-03 5.01259E-03 5.19505E-03-2.72841E-03-7.90822E-02
 -1      3074-2.70135E+00-1.16869E-03-3.28507E-03 2.00243E-03-3.17553E-05-1.32875E-01
 -1      3075-5.93140E-01-9.47784E-04 2.02988E-03 6.11007E-03-1.12229E-03-1.12380E-01
 -1      3076 1.24362E+00-8.49311E-05 5.30247E-03 1.11916E-02 2.66956E-03-2.51537E-01
 -1      3077 7.20873E+00 4.98979E-04 6.31549E-03 6.87428E-03-1.21796E-03-7.30946E-02
 -1      3078 4.85009E-01-1.61718E-03-3.98462E-03 1.64696E-02 1.36373E-03-4.11863E-01
 -1      3079 5.99952E-01-1.98021E-04-4.59745E-03 3.79030E-02-3.79837E-04-3.82434E-01
 -1      3080 4.87677E-01-2.90212E-03-4.49802E-03 1.73740E-02-4.74953E-03-4.14865E-01
 -1      3081 9.65582E-02-3.62660E-03-7.74047E-03 1.54796E-02 2.31322E-03-4.16354E-01
 -1      3082 9.22503E-02-2.67575E-03-9.23560E-03 1.63280E-02-8.88388E-04-4.22226E-01
 -1      3083-4.84639E-01 3.42610E-03 7.67720E-03 1.74109E-02 4.87703E-03-4.15984E-01
 -1      3084-4.89983E-01 1.15224E-04 5.44683E-04 1.53947E-02-1.78377E-03-4.10901E-01
 -1      3085-6.06527E-01-5.40815E-04 6.49761E-03 3.72475E-02-1.01471E-03-3.85925E-01
 -1      3086 1.57707E+00 1.94405E-03 2.31435E-03 2.42436E-02-6.92197E-03-2.61617E-01
 -1      3087 1.74340E+00-1.22942E-03 1.23966E-03 2.50889E-02-8.80956E-03-2.58147E-01
 -1      3088 2.41838E+00-1.37795E-03 9.00602E-03 2.72038E-02 3.97213E-03-2.05479E-01
 -1      3089 2.21504E+00 2.92854E-03 6.70899E-03 1.99645E-02-1.59655E-03-2.06550E-01
 -1      3090-2.21540E+00-2.55517E-03-9.32461E-03 2.04401E-02 9.92614E-04-2.03679E-01
 -1      3091-2.41683E+00 3.74870E-04-7.24919E-03 2.80309E-02-4.11562E-03-2.04339E-01
 -1      3092-2.84256E+00 1.91271E-03 2.12099E-03 2.52082E-02 3.03648E-03-1.80998E-01
 -1      3093-1.71308E+00-4.47471E-03-1.00671E-02 2.03071E-02-4.89043E-03-3.29971E-01
 -1      3094-8.15809E-01-3.02287E-03-3.35013E-03 3.27613E-02-4.32476E-03-3.71849E-01
 -1      3095 2.84196E+00-1.79204E-03-2.26493E-03 2.51165E-02-2.60343E-03-1.80970E-01
 -1      3096 1.71297E+00 4.55050E-03 9.92671E-03 2.04993E-02 4.76421E-03-3.29571E-01
 -1      3097 8.16339E-01 3.09077E-03 3.39575E-03 3.24326E-02 4.13902E-03-3.71771E-01
 -1      3098 6.99948E-01 4.28983E-03 3.57205E-03 1.67625E-02 1.56590E-03-4.00065E-01
 -1      3099-2.36345E-02 7.63325E-04-6.47824E-03 1.84780E-02-2.79469E-03-3.69290E-01
 -1      3100-7.00501E-01-3.92860E-03-3.39773E-03 1.65241E-02-1.37975E-03-4.00206E-01
 -1      3101 2.37460E-02-3.02608E-04 6.84147E-03 1.83259E-02 2.82560E-03-3.69513E-01
 -1      3102 2.30189E+00 1.81117E-05-1.80586E-03 1.49188E-03 1.94188E-03-1.56390E-01
 -1      3103 6.81114E+00 1.41498E-03 1.15781E-04 1.37573E-02-2.63634E-03-8.66859E-02
 -1      3104 1.38392E+00-1.89991E-04 4.38481E-03 8.17098E-03 1.49286E-03-1.79900E-01
 -1      3105-1.66814E+00 9.19453E-04 5.50257E-03 5.54875E-03-3.43978E-03-3.23751E-01
 -1      3106-5.23264E+00 1.81134E-03-8.45462E-03 1.97519E-02 3.18162E-03-1.56376E-01
 -1      3107 2.10010E+00 4.48840E-04-1.90042E-03 3.38705E-03 2.92197E-03-2.30164E-01
 -1      3108 6.58590E+00-4.73776E-04 5.09836E-03 1.05686E-02-2.36818E-03-1.08739E-01
 -1      3109-5.01982E-01 1.78089E-03-1.04033E-02 3.53261E-02 2.64410E-03-3.97129E-01
 -1      3110-3.86653E-01-6.37890E-04-8.49639E-03 1.52685E-02 6.30299E-04-4.26048E-01
 -1      3111-1.09560E+00 8.55304E-04-9.58793E-04 2.51643E-02-1.00147E-03-3.63379E-01
 -1      3112 5.16969E-01 6.01424E-03 1.36325E-02 3.33519E-02-2.53154E-04-3.91791E-01
 -1      3113 3.83091E-01 1.54694E-03 8.76663E-03 1.58289E-02 4.94807E-04-4.22908E-01
 -1      3114 1.09858E+00-5.20710E-04 3.81791E-04 2.41922E-02 1.42843E-03-3.61540E-01
 -1      3115 2.02092E+00-1.12859E-03-3.09771E-03 2.86577E-02 9.80636E-04-2.09938E-01
 -1      3116-2.02242E+00-8.32159E-04 2.29426E-03 2.68366E-02 3.82797E-05-2.05334E-01
 -1      3117 5.36467E+00-1.05338E-03 2.05774E-03-2.21346E-03 2.08653E-03-7.17747E-02
 -1      3118 7.93626E+00-8.96007E-04 5.06919E-03-2.49921E-03 3.06958E-03-3.89211E-02
 -1      3119 4.53539E+00 1.38981E-03 7.45753E-03 1.24954E-03 2.85841E-03-8.19616E-02
 -1      3120-1.24338E+00 1.41079E-04-6.12053E-03 1.11791E-02-2.36006E-03-2.51831E-01
 -1      3121-2.30061E+00-3.54862E-04 8.66974E-04 2.11094E-03-2.44600E-03-1.55937E-01
 -1      3122-7.20949E+00 3.62489E-04-4.59640E-03 7.05723E-03 1.16831E-03-7.37231E-02
 -1      3123 5.51555E+00-1.37728E-03 9.18426E-04 4.27576E-03 1.06869E-03-5.54148E-02
 -1      3124 7.32159E+00-3.20271E-03 2.19389E-03 8.11379E-03-2.62448E-03-4.29361E-02
 -1      3125-2.09857E+00-3.93925E-04 1.73648E-03 3.16056E-03-3.13163E-03-2.30141E-01
 -1      3126-6.13113E+00-2.08070E-03 1.43897E-03 1.88291E-02 3.90531E-03-1.21191E-01
 -1      3127 1.44069E+00 4.85445E-04 1.38622E-03 4.47401E-03-1.50306E-03-1.18719E-01
 -1      3128-2.70541E+00 8.59021E-04-2.02103E-03 1.87681E-03-1.46294E-03-1.23288E-01
 -1      3129-6.81940E+00-1.28531E-03-1.35419E-04 1.36552E-02 2.88201E-03-8.65685E-02
 -1      3130-1.39190E+00 2.52832E-04-4.39993E-03 8.08723E-03-1.35262E-03-1.79955E-01
 -1      3131-5.99228E+00 4.90850E-03 6.95357E-05 1.89539E-02 9.64803E-04-1.22200E-01
 -1      3132-6.16575E+00-7.18087E-03-6.14962E-03 1.55193E-02-1.09153E-03-1.21778E-01
 -1      3133-1.69742E+00-1.51514E-03-3.44944E-03 1.85324E-02-1.70598E-04-2.58633E-01
 -1      3134 6.55212E+00-1.47384E-03-1.80897E-03 1.54936E-02-4.61531E-04-1.12420E-01
 -1      3135 9.31749E-01 1.33397E-03 1.06363E-02 1.53093E-02 3.81691E-03-3.44268E-01
 -1      3136-5.73881E+00 7.80836E-04-2.52173E-04 1.87888E-02-2.37128E-03-1.35170E-01
 -1      3137-1.77398E+00-2.96014E-03-4.48468E-03 1.02848E-02 3.30667E-03-2.77451E-01
 -1      3138-3.18546E+00-2.55558E-03-9.84288E-03 1.94974E-02 3.43474E-03-2.43372E-01
 -1      3139 3.37734E+00-1.30117E-03 6.20566E-03 1.78695E-04 1.31995E-03-1.89665E-01
 -1      3140-3.40107E+00-3.89877E-03-1.05551E-02-6.85779E-04-1.11428E-03-1.89611E-01
 -1      3141 7.23312E+00 1.73101E-03 2.36318E-03 9.97921E-03-2.02876E-04-7.89029E-02
 -1      3142-7.61393E+00-1.28060E-02-2.33730E-03-8.92606E-03-1.66875E-02-4.10046E-02
 -1      3143 5.73904E+00-1.13519E-03 3.58996E-04 1.89211E-02 2.24907E-03-1.35372E-01
 -1      3144 1.77607E+00 2.94315E-03 4.37708E-03 1.01782E-02-3.15473E-03-2.77351E-01
 -1      3145 3.18455E+00 2.85481E-03 9.50327E-03 1.87903E-02-3.79544E-03-2.44280E-01
 -1      3146 8.18349E+00-4.59607E-04 5.23888E-03-3.18455E-04 7.16517E-04-7.73363E-02
 -1      3147-6.58572E+00 7.63639E-04-5.04037E-03 1.03805E-02 2.16289E-03-1.08509E-01
 -1      3148-2.03165E+00-2.74879E-03-3.28154E-03 4.17572E-03 3.65117E-04-3.01811E-01
 -1      3149-4.11235E-01-9.44990E-04 4.93274E-03 1.69781E-02-2.00659E-03-2.73487E-01
 -1      3150 2.03185E+00 3.55486E-03 3.01716E-03 4.51423E-03-6.38984E-04-3.01327E-01
 -1      3151 4.12081E-01 1.34881E-03-4.13433E-03 1.67555E-02 2.27893E-03-2.73281E-01
 -1      3152 4.29270E-01 3.04158E-01 3.28141E-01 1.51614E-01 2.68787E-02 5.40719E-01
 -1      3153 3.00925E+00 2.19646E-01 2.75897E-01 1.99707E-01 3.25827E-02 4.50033E-01
 -1      3154 1.54586E+00 1.32288E-01 1.12489E-01 5.56316E-02 1.32315E-01 8.48391E-02
 -1      3155 4.29672E+00 9.77182E-02 5.35958E-02 6.87809E-02 1.68435E-01 6.45344E-02
 -1      3156 3.74741E+00 5.80445E-01 3.32663E-01 2.45702E-01 1.12178E-01 3.61760E-02
 -1      3157-8.19696E+00-1.87033E-03-6.80995E-03-8.07144E-04-9.78797E-04-7.82970E-02
 -1      3158-6.56725E+00-2.41056E-03-1.35582E-03 1.44444E-02 1.32399E-04-1.12477E-01
 -1      3159-4.93179E+00 3.08850E-04-6.64192E-03-2.25338E-03-4.64415E-03-6.20541E-02
 -1      3160-5.08276E+00 8.17807E-03 4.50032E-04-1.06231E-02-1.65780E-02-4.69903E-02
 -1      3161-7.23201E+00-1.84323E-03-2.40275E-03 9.99826E-03 2.37141E-04-7.89550E-02
 -1      3162 5.96914E-01 9.12925E-03 1.98882E-02 1.57860E-02-7.62522E-04-3.91253E-01
 -1      3163 1.56342E+00 7.19117E-03 8.90709E-03 1.72456E-02 4.58882E-03-2.53472E-01
 -1      3164 7.65039E-01-5.92992E-03-1.95423E-02 1.65654E-02 1.71249E-03-3.90771E-01
 -1      3165 9.20032E-01-2.96809E-03-1.53581E-02 1.58996E-02-1.13168E-03-3.85321E-01
 -1      3166 3.13192E+00 1.95792E-03 8.97131E-03 2.56700E-03 3.80162E-03-3.08140E-01
 -1      3167 1.73972E+00 4.12004E-03 1.61569E-02 1.40203E-02-7.54616E-04-3.27194E-01
 -1      3168 2.21605E+00 1.77411E-03 1.29720E-02 1.37178E-02-6.68754E-05-3.18198E-01
 -1      3169 3.45744E+00 1.76699E-03-3.90275E-03 1.72793E-03-9.52530E-04-2.91893E-01
 -1      3170 2.02955E+00-5.91449E-03-1.21845E-02 1.07399E-02 1.48378E-03-3.16843E-01
 -1      3171 2.96372E+00 2.31870E-03 5.16365E-04 1.02010E-02 2.70504E-03-2.87282E-01
 -1      3172 7.06447E+00-4.63905E-03 2.08130E-03 2.25747E-02-1.55444E-02-3.84435E-02
 -1      3173 7.16819E+00-2.84628E-03 2.44439E-03 1.35090E-02-3.08490E-03-4.05364E-02
 -1      3174 5.66072E+00-1.71213E-03 5.93747E-03 1.79848E-02-1.21073E-03-1.41679E-01
 -1      3175-5.66450E+00-2.60159E-03-9.51416E-03 1.81841E-02 1.09895E-03-1.42693E-01
 -1      3176 3.17115E+00 2.02427E-03-4.11379E-04 1.66670E-02-1.23389E-03-1.91715E-01
 -1      3177 3.05476E+00 8.23856E-04 3.44246E-03 3.46236E-02 4.67388E-03-1.77583E-01
 -1      3178-3.17140E+00-1.99858E-03 1.11298E-03 1.60868E-02 1.02255E-03-1.91268E-01
 -1      3179-3.05483E+00-8.87575E-04-3.02559E-03 3.45348E-02-4.62809E-03-1.77410E-01
 -1      3180 1.01064E+00 3.00398E-03-3.99550E-04 1.01354E-02 1.58051E-03-4.06464E-01
 -1      3181-6.85599E-01 3.32933E-03-3.67867E-03 1.51984E-02 1.26274E-03-3.98888E-01
 -1      3182-1.01126E+00-2.91513E-03 3.46214E-04 9.85627E-03-1.74747E-03-4.05295E-01
 -1      3183 6.85271E-01-3.13410E-03 3.47969E-03 1.50489E-02-1.12047E-03-3.98610E-01
 -1      3184 7.41986E+00-8.43987E-04 5.67517E-03-3.88029E-04 9.92712E-04-1.11101E-01
 -1      3185-5.55640E+00-1.28557E-03-4.84652E-04 2.53740E-02-6.75798E-04-1.40223E-01
 -1      3186-5.89601E+00-1.43880E-03-3.34464E-03 1.10595E-02 2.94342E-03-1.32172E-01
 -1      3187 5.55652E+00 2.20531E-03 2.48498E-04 2.55909E-02 7.46165E-04-1.39883E-01
 -1      3188 5.90037E+00 2.47565E-03 4.30258E-03 1.22774E-02-2.63624E-03-1.32019E-01
 -1      3189 3.09603E-01-4.05280E-03 6.73366E-03 1.06815E-02-1.16635E-03-4.24404E-01
 -1      3190 3.11778E-01 1.65783E-02 1.22134E-02 1.97918E-02 8.56363E-04-3.91861E-01
 -1      3191 4.71810E-01-6.98931E-05-8.12148E-03 7.72982E-03-7.60169E-04-4.23381E-01
 -1      3192 4.09040E-01-9.66260E-03-1.44910E-02 2.10939E-02 2.94162E-03-3.93356E-01
 -1      3193 6.96657E-01-2.61498E-04-4.83927E-03 2.29823E-02-2.80451E-03-3.55506E-01
 -1      3194-7.42271E+00 1.28529E-03-5.35912E-03-1.38699E-04-1.23368E-03-1.11256E-01
 -1      3195 1.13156E+00 2.60948E-03 1.07586E-03 1.06541E-02-1.84290E-03-2.97372E-01
 -1      3196-2.03242E+00 2.09993E-03-3.64933E-03 4.89082E-03-1.18961E-03-2.95066E-01
 -1      3197-2.37465E+00 9.80793E-03 4.53346E-03-5.29459E-03-2.39391E-02-5.02350E-02
 -1      3198-1.11607E+00-2.41101E-03-1.29799E-04 1.01750E-02 2.04321E-03-2.97828E-01
 -1      3199 2.04944E+00-1.24322E-03 3.95469E-03 4.99293E-03 1.56971E-03-2.95661E-01
 -1      3200 8.63107E+00 1.71678E-03 1.39831E-03-1.72778E-03 1.06608E-03-4.94627E-02
 -1      3201 5.27914E+00 6.93637E-04 5.45907E-03 8.75731E-04 1.65232E-03-9.82943E-02
 -1      3202-4.64720E-01 9.18277E-03-8.44248E-04 8.82311E-03-8.09340E-04-1.98847E-01
 -1      3203-6.03983E-01-1.54758E-03-9.88203E-03 1.13814E-02 2.24861E-03-2.42926E-01
 -1      3204-2.70623E+00-6.54402E-02 1.65839E-02 1.54040E-02-1.01795E-01-3.59264E-02
 -1      3205-1.81805E-01 7.89482E-04-7.43402E-03 1.03424E-02-1.02200E-01-9.63143E-02
 -1      3206-2.39941E+00 1.10530E-02 1.68568E-02-1.60021E-02-5.46732E-02-7.36236E-03
 -1      3207-1.51457E-01 4.86678E-02 9.92002E-02 2.77968E-02 4.40056E-03-1.65940E-01
 -1      3208-1.65930E-01 3.06854E-02 1.10861E-01 3.37573E-02-4.65377E-03-1.69880E-01
 -1      3209-8.18069E-02 4.24445E-02 9.56469E-02 2.44952E-02 8.56791E-04-3.38024E-01
 -1      3210-9.12710E-02 2.87073E-02 1.03217E-01 2.66543E-02-4.62996E-03-3.38728E-01
 -1      3211-2.70243E-01 1.03561E-02-1.99083E-02 3.64390E-02 1.17605E-03-1.96627E-01
 -1      3212 2.92331E+00-6.82014E-04 1.07662E-03 1.11622E-03 3.34408E-03-8.41856E-02
 -1      3213 6.27036E+00 9.10587E-04 4.64421E-03 1.24316E-03 2.40351E-03-5.74206E-02
 -1      3214 2.87679E+00 1.48776E-03 8.22549E-03 3.41730E-03 1.08928E-03-9.79705E-02
 -1      3215-1.50639E-01 2.01758E-03-2.97401E-02 7.03643E-03-1.16391E-01-8.80227E-02
 -1      3216 1.88477E+00 1.29848E-01 5.67605E-02-4.28598E-02-1.14358E-01 2.69620E-02
 -1      3217 1.76950E+00 5.93918E-02-5.20293E-02-9.79272E-03-9.54152E-02-2.24632E-02
 -1      3218-1.73897E-01 4.56127E-02 1.06169E-01 1.60433E-02 7.60779E-03-1.56435E-01
 -1      3219-9.11979E-02 3.66723E-02 9.38828E-02 2.13007E-02 7.78953E-03-3.38481E-01
 -1      3220-2.77724E-01 9.28228E-03-1.49309E-02 3.11236E-02-1.64661E-03-1.99240E-01
 -1      3221-2.92509E-01 1.15854E-02-9.80306E-03 1.30086E-02 9.98959E-04-1.89687E-01
 -1      3222-2.73790E+00-1.32580E-01-1.23177E-01 3.80236E-02-1.22250E-01-4.72251E-03
 -1      3223 6.07032E-03 6.08463E-03 9.29096E-03 2.01314E-02 1.43863E-03-4.58400E-01
 -1      3224 1.64775E-03 8.17104E-03 1.31595E-02 1.79964E-02-4.74168E-03-4.49442E-01
 -1      3225-1.46677E-01-4.48994E-03-1.33077E-02 7.51105E-03 9.73127E-03-4.60261E-01
 -1      3226-1.52912E-01 1.19351E-04-1.48498E-02 8.82308E-03 4.32702E-03-4.46290E-01
 -1      3227-1.51539E-01 5.29899E-03 1.59500E-02 3.54442E-02 2.84623E-03-4.18519E-01
 -1      3228-1.56976E-01-7.92702E-04 6.14145E-03 1.63234E-02 1.58261E-03-4.40291E-01
 -1      3229-2.93729E-01-2.06998E-03-1.35436E-02 2.67193E-02-1.82720E-03-3.85878E-01
 -1      3230 3.12472E+00 3.33142E-03 8.88424E-04 2.03898E-02-1.84459E-03-2.28640E-01
 -1      3231 4.27860E+00 5.39675E-03 5.14780E-03 2.71182E-02 3.20779E-03-1.77285E-01
 -1      3232 3.45591E+00-2.56219E-03 3.87967E-03 8.10977E-03-2.55954E-03-1.35576E-01
 -1      3233 4.97459E-01 9.50098E-04 2.51699E-03 8.64737E-03-1.29686E-04-1.43142E-01
 -1      3234 8.09804E+00 2.74992E-01-9.85895E-03 2.94038E-02 4.65009E-02-7.49824E-02
 -1      3235 5.88891E+00 7.91294E-02-1.27811E-02 8.31487E-03 3.01110E-03-1.36795E-01
 -1      3236 7.72859E+00 3.41320E-02-1.00156E-02-1.55133E-02 1.53297E-02-3.85656E-02
 -1      3237 5.93623E+00 3.25932E-01 3.31706E-04-1.54262E-03 4.26961E-03-1.32500E-01
 -1      3238 7.87039E+00 2.83005E-01-2.83614E-02-2.86081E-02-3.35275E-02-7.20218E-02
 -1      3239 7.95712E+00 5.39167E-01-3.41290E-03-8.18961E-02-5.20144E-02-9.76030E-02
 -1      3240 4.84369E-01-2.61614E-03-8.35474E-03 7.20653E-03 9.90912E-04-4.28029E-01
 -1      3241 1.51314E+00-4.48068E-03-4.24502E-03 6.21701E-03 1.83765E-03-3.61142E-01
 -1      3242 1.30562E+00 1.87021E-03-8.07203E-03 1.22332E-02-1.74755E-03-3.36449E-01
 -1      3243 1.49569E+00-2.52152E-03-5.02532E-03 7.43855E-03 9.86757E-04-3.61431E-01
 -1      3244 1.89979E+00 2.26553E-03 6.42366E-03 5.05011E-03 4.25896E-04-3.24361E-01
 -1      3245 1.66126E+00-2.60162E-03 1.00091E-02 1.02083E-02 3.62707E-03-3.05826E-01
 -1      3246 1.88093E+00 3.32396E-03 7.65804E-03 3.82822E-03-7.82992E-04-3.35767E-01
 -1      3247 2.36313E+00-1.76610E-03-3.44135E-03 3.30005E-02-4.64705E-03-1.98795E-01
 -1      3248 2.15302E+00-1.55089E-03-9.75622E-03 2.22756E-02 3.20966E-03-1.98272E-01
 -1      3249 6.42589E-01 7.47856E-04 1.66462E-02 1.30578E-02-1.02479E-03-3.89759E-01
 -1      3250 7.40301E-01 5.59998E-03 1.21752E-02 7.95648E-03-2.02311E-03-4.26842E-01
 -1      3251 7.56765E-01 2.16541E-04 4.38591E-03 1.05535E-02 1.30510E-03-4.12017E-01
 -1      3252 5.37759E+00 2.09909E-03-4.88178E-04 2.50792E-02-4.47825E-03-1.47874E-01
 -1      3253 5.21471E+00-2.96827E-03-9.40999E-03 1.49783E-02 3.42006E-03-1.50917E-01
 -1      3254 4.50371E+00 4.69516E-03 9.72614E-03 1.73004E-02-2.11850E-03-1.69652E-01
 -1      3255 4.32615E+00-1.02153E-04 7.00506E-03 3.04782E-02 4.31870E-03-1.72352E-01
 -1      3256-7.39835E-01 1.05246E-03-1.47558E-02 2.92151E-02-7.44757E-04-2.16521E-01
 -1      3257-1.26771E+00-3.05868E-03-9.85877E-03 2.74189E-02 4.85595E-04-2.04143E-01
 -1      3258-1.52665E+00-2.73039E-03-3.10452E-03 7.55871E-03 1.35516E-03-3.64642E-01
 -1      3259-2.74060E-01-3.61224E-04 6.91131E-03 1.74055E-02-2.53058E-03-3.32502E-01
 -1      3260-7.67621E-02-2.46436E-03-3.58352E-03 1.99704E-02 3.98454E-04-4.33748E-01
 -1      3261-6.02677E-02-7.30610E-03-1.68162E-02 1.94318E-02 4.68368E-03-4.35366E-01
 -1      3262 2.60761E-01-2.14469E-03 1.53036E-03 1.78501E-02 3.37889E-03-4.29109E-01
 -1      3263 2.91348E-01-9.42229E-03-7.04278E-03 3.62434E-02 1.17960E-03-3.82790E-01
 -1      3264 2.60221E-01-3.74352E-03-5.05512E-04 1.77521E-02-2.40310E-03-4.17804E-01
 -1      3265 8.15452E+00 5.53692E-01 6.69787E-03 4.27907E-02 6.85434E-02-8.22875E-02
 -1      3266 2.39989E+00 3.20488E-03 9.82683E-03 2.27932E-02-1.38699E-03-2.08035E-01
 -1      3267 5.71091E-01-8.75342E-03-9.60283E-03 1.75787E-02-1.23880E-03-3.92207E-01
 -1      3268 1.25310E+00 3.33089E-03 3.58430E-03 2.05022E-02 1.06034E-03-3.61857E-01
 -1      3269 7.22474E-01 1.61925E-03-6.87180E-03 1.13583E-02-1.63168E-04-4.19366E-01
 -1      3270 3.70526E+00-1.41306E-03-1.95802E-03 2.40649E-03 1.79881E-03-8.35390E-02
 -1      3271 7.52861E-01-4.24251E-03-1.05750E-03 8.51762E-03 2.47190E-03-3.65873E-01
 -1      3272 9.47065E-01 2.22789E-03 4.07285E-03 2.70839E-03-3.10138E-03-3.71088E-01
 -1      3273-7.70126E+00 2.39137E-03-2.10033E-03 1.54438E-02 3.71711E-03-2.40449E-02
 -1      3274 7.84669E+00 1.97807E-03 1.51283E-03 8.70511E-04 2.86600E-03-3.84255E-02
 -1      3275 7.79821E+00-2.31434E-03 1.30366E-03 7.41683E-04 3.35862E-03-3.95018E-02
 -1      3276 2.29054E+00-2.01961E-03 4.65243E-03 1.03364E-03 7.17677E-03-8.04018E-02
 -1      3277 7.62813E+00 2.58764E-03 6.04010E-03 5.53063E-03-9.31646E-04-5.55367E-02
 -1      3278 2.63205E+00-3.28308E-03-3.06449E-03-1.49337E-03 1.08726E-02-5.55940E-02
 -1      3279 2.63405E+00 4.79624E-04 3.78969E-03-3.20716E-04 4.64308E-03-7.56554E-02
 -1      3280 2.57307E+00-1.11838E-03 7.86274E-04 1.59775E-03 1.38805E-03-1.17727E-01
 -1      3281-5.39589E+00-9.96113E-02 4.11862E-02-1.99946E-03-1.14470E-01-3.75384E-03
 -1      3282-8.32159E+00-2.94084E-01-2.51217E-02 8.57174E-02-6.33658E-02-7.13956E-02
 -1      3283-8.71533E+00-7.03682E-02 2.23859E-02 1.42060E-02-3.10419E-02 8.86102E-02
 -1      3284-5.04807E+00-1.39956E-02-6.87301E-03-3.18058E-02-4.22003E-02 3.18020E-02
 -1      3285-7.81634E+00-7.10202E-02-2.95344E-03 1.16407E-02-2.58989E-02-1.66258E-02
 -1      3286 6.78657E-02 1.69356E-03 7.41263E-03 1.57352E-02 7.51186E-03-4.54217E-01
 -1      3287 2.55941E-01-3.08145E-03-4.90660E-03 2.77256E-02 6.32707E-04-3.76320E-01
 -1      3288 1.97946E-01 1.86430E-03 6.72461E-03 1.76908E-02 3.01842E-03-4.22324E-01
 -1      3289 3.17574E-01-2.65791E-03 1.58109E-02 3.02805E-02 9.90955E-04-3.53048E-01
 -1      3290-2.87991E-01 2.46587E-03-1.50189E-02 3.81110E-04 4.08314E-03-3.81559E-01
 -1      3291-6.10301E-01-1.27147E-03-7.86391E-03 6.26543E-04 2.11081E-04-1.95091E-01
 -1      3292-3.77387E-01-6.89477E-03-8.68270E-03 5.97372E-03 3.27247E-03-4.07738E-01
 -1      3293 2.84267E-01 2.59513E-03 1.64459E-02 3.72843E-03-6.69511E-04-3.75465E-01
 -1      3294 4.77645E-01 2.49840E-03 1.32137E-02 8.12519E-03-2.31951E-03-3.67779E-01
 -1      3295-2.01493E+00-2.71587E-01-2.85078E-01-2.05754E-01 6.55026E-04 4.95006E-01
 -1      3296-3.22315E+00-5.85761E-01-4.36229E-01-2.18638E-01 1.24670E-01 5.00893E-02
 -1      3297-3.15598E+00-1.40729E-01 7.77527E-03-7.07463E-02 1.54486E-01 6.42153E-02
 -1      3298-6.65191E-01 6.75110E-02 2.06047E-01 4.09137E-02 1.61362E-01 1.31121E-01
 -1      3299-3.08189E-02 2.43271E-03-6.68367E-03 3.47142E-02-9.79302E-03-3.99765E-01
 -1      3300 7.46595E-02-1.74264E-02-4.19458E-02 1.70359E-02-1.34926E-02-3.77402E-01
 -1      3301 4.27642E+00 1.53548E-03 6.26457E-03 2.27966E-02-4.49568E-05-1.69505E-01
 -1      3302-3.38388E+00-5.50678E-01-3.45338E-01 1.19159E-01-6.38978E-02-4.26607E-02
 -1      3303-1.87141E-01-1.07746E-03-2.72404E-02-2.70432E-03-1.26134E-01-2.58933E-01
 -1      3304-1.27882E+00 7.72197E-03 2.00887E-02 1.98247E-02 5.85634E-02-1.83530E-02
 -1      3305-1.46360E+00-7.57750E-03-2.47936E-02 2.75079E-02 2.44951E-02-1.73768E-01
 -1      3306-3.74941E+00-8.75798E-02 2.42578E-02 4.12222E-03 6.53846E-02-1.31066E-01
 -1      3307-6.81007E-02 1.32585E-02 4.57159E-02 2.80181E-02-6.69471E-03-3.78426E-01
 -1      3308-1.17947E+00 3.40253E-03 1.57191E-04 1.82573E-02 2.14446E-03-3.73059E-01
 -1      3309-1.32900E+00-1.26684E-04-4.45264E-03 1.93295E-02-1.31090E-03-3.65288E-01
 -1      3310 1.18064E+00-2.81573E-03-1.18336E-03 1.75293E-02-2.08460E-03-3.72992E-01
 -1      3311 1.32861E+00 3.90291E-04 3.91149E-03 1.93170E-02 1.16913E-03-3.64421E-01
 -1      3312 2.06908E+00 2.15016E-03-1.14141E-03 3.94111E-02-1.09101E-03-2.01599E-01
 -1      3313 2.24901E+00 1.17146E-04 4.55737E-03 3.36043E-02 1.68636E-03-1.98405E-01
 -1      3314-2.06799E+00-2.08417E-03 7.30500E-04 4.07977E-02 1.33633E-03-2.01072E-01
 -1      3315-2.24894E+00 2.92595E-04-4.73912E-03 3.49942E-02-1.18095E-03-1.98883E-01
 -1      3316-7.25830E+00-4.58540E-02 1.10988E-02 1.43418E-02 1.04966E-02-5.18419E-02
 -1      3317 1.68445E-01-3.69177E-02-1.09999E-01 3.46897E-02 3.79023E-03-1.63350E-01
 -1      3318 1.59570E-01-4.37608E-02-1.04026E-01 2.21677E-02-2.58086E-04-1.68405E-01
 -1      3319 2.75185E-01-1.49411E-02 7.97339E-03 2.82333E-02 2.24841E-04-1.96737E-01
 -1      3320 7.48177E-02-3.38982E-02-1.06041E-01 2.84524E-02 8.87847E-03-3.45309E-01
 -1      3321 2.84807E-01-1.29172E-02 7.19958E-03 4.06763E-02 3.54253E-03-1.88280E-01
 -1      3322 5.48041E+00 9.78320E-02-2.37454E-02 8.45387E-03 1.17953E-01 4.83808E-03
 -1      3323 8.35285E+00 2.88765E-01 2.26182E-02 9.84818E-02 6.73161E-02-5.90139E-02
 -1      3324 8.72210E+00 7.42090E-02-1.78674E-02 1.70491E-03 2.71466E-02 9.22114E-02
 -1      3325 5.12557E+00 1.63445E-02 9.21766E-03-3.35465E-02 4.24973E-02 3.21733E-02
 -1      3326 7.88112E+00 6.55188E-02-7.15874E-03 6.66911E-03 3.13286E-02-2.03256E-02
 -1      3327 1.28989E+00 1.36166E-02 1.68461E-02 2.28799E-02 4.73742E-03-2.07887E-01
 -1      3328 8.11222E-01-3.54429E-03 7.65210E-04 2.95209E-02 1.80961E-03-2.68794E-01
 -1      3329 1.07411E+00-4.96618E-03-5.93327E-03 2.95212E-02-4.83612E-03-2.01399E-01
 -1      3330 7.60270E-01 3.29333E-03 2.74327E-03 2.35765E-02 3.26250E-03-3.44727E-01
 -1      3331 1.47474E+00 5.37183E-03 9.11984E-03 2.06211E-02-1.52306E-03-1.98796E-01
 -1      3332 1.29905E+00-5.73060E-05 1.05511E-03 3.04192E-02 3.41879E-03-1.93772E-01
 -1      3333 4.10651E-01-5.74508E-03 2.06064E-03 3.49273E-02-7.97521E-05-1.91666E-01
 -1      3334 1.57238E-01-4.87985E-03 3.07378E-02 2.74308E-02 2.26103E-03-3.72340E-01
 -1      3335 1.27164E+00-3.33496E-03 4.13744E-03 8.73904E-03-7.55103E-04-3.72427E-01
 -1      3336 1.12391E+00 8.11592E-03 1.00510E-02 1.17456E-02 9.03736E-06-3.39719E-01
 -1      3337 2.42122E+00-1.96016E-03 1.68075E-04 1.81370E-02-4.40727E-04-3.12869E-01
 -1      3338 1.42141E+00-5.22021E-03-5.10172E-03 8.84093E-03 4.73583E-04-2.99127E-01
 -1      3339 1.68891E+00 3.12448E-03-2.34459E-03 6.78439E-03 1.67246E-03-3.20434E-01
 -1      3340 3.09420E+00 2.92938E-03 5.18944E-03 1.47670E-02 1.35426E-03-2.75145E-01
 -1      3341 4.04320E+00 4.00977E-03-6.66513E-04 2.24227E-02 1.88782E-03-1.83286E-01
 -1      3342 5.22061E+00-3.02817E-03 6.29256E-03 2.03537E-02-9.31938E-04-1.54291E-01
 -1      3343 8.82931E-01-4.39674E-04 6.38321E-04 1.22981E-02-2.23042E-03-3.67550E-01
 -1      3344-1.54088E+00 3.32063E-03 4.80097E-04 6.24752E-03-3.01854E-03-3.62414E-01
 -1      3345 1.99407E+00 1.98458E-01 8.70381E-02-1.87749E-01-3.65706E-02 4.68078E-01
 -1      3346-5.82241E-01 2.27420E-01 1.19067E-01-1.17076E-01-2.88927E-02 5.17753E-01
 -1      3347 3.34578E+00 9.90536E-02-1.89015E-02-5.93163E-02-1.63960E-01 9.90198E-02
 -1      3348 5.88507E-01 1.11621E-01 1.47259E-02-2.96242E-02-1.27742E-01 9.52468E-02
 -1      3349 3.19829E+00 5.34424E-01 2.61038E-01-2.16571E-01-7.40047E-02 6.41311E-02
 -1      3350 4.77325E-01-7.88796E-03 5.61953E-03 9.22592E-03-1.83457E-03-1.96271E-01
 -1      3351 5.94632E-01-3.63349E-03 4.66309E-03 2.79693E-04 1.14439E-03-1.94577E-01
 -1      3352 7.09499E-01-3.49357E-03 5.14994E-03 1.20334E-02-3.48936E-03-1.94777E-01
 -1      3353 8.23024E+00 1.61926E+00 4.04790E-01 2.55319E-01-2.56341E-02-9.59007E-02
 -1      3354 8.27127E+00 1.75369E+00 5.54835E-01-8.72237E-02 5.20219E-02-1.96994E-01
 -1      3355 7.96368E+00 7.95453E-01 2.23971E-02-2.49416E-01-7.82550E-02-1.53276E-01
 -1      3356 5.07141E+00 1.12048E+00 8.70724E-01-2.03886E-02-5.29803E-02-2.48603E-01
 -1      3357 8.06148E+00 9.14832E-01 2.26700E-02-1.21597E-02-4.63576E-02-2.19219E-01
 -1      3358 1.30760E+00-1.27099E-02-2.54246E-02 2.39889E-02-5.67686E-02-1.22562E-02
 -1      3359 1.93655E+00 4.92457E-03 2.20141E-02 2.85175E-02-3.20598E-02-1.66077E-01
 -1      3360 3.90057E+00 8.24656E-02-2.87769E-02 2.09086E-03-6.88913E-02-1.20585E-01
 -1      3361 1.23641E-02-8.19707E-03 1.98240E-02 8.20350E-03-2.46338E-02-4.22564E-01
 -1      3362-5.46590E-03-6.96785E-03 5.80255E-02 1.30148E-02-2.77228E-02-4.14402E-01
 -1      3363-1.58263E-02 9.26442E-03 2.46516E-03 1.47689E-02-1.28083E-02-4.64391E-01
 -1      3364-9.26151E-02 2.80393E-03-2.10310E-02 2.18733E-02-1.32160E-02-4.32829E-01
 -1      3365-5.83177E-02-2.08812E-04 4.11873E-02 2.23263E-02-1.82578E-02-3.85662E-01
 -1      3366 7.33365E+00 4.11676E-02-8.87347E-03 1.80820E-02-1.03343E-02-4.65845E-02
 -1      3367-3.30844E-01-1.04491E-03 1.31556E-03 2.91026E-02-1.33044E-04-4.23086E-01
 -1      3368-7.28974E+00-1.30270E-03-2.79696E-03 5.07182E-03-1.24403E-03-5.36211E-02
 -1      3369-7.22634E+00-3.75139E-04-7.33805E-04 7.65914E-03-1.31410E-03-5.15695E-02
 -1      3370-3.62125E+00 2.28297E-03-5.35728E-03 6.61625E-03-1.98576E-03-9.63218E-02
 -1      3371-3.66511E+00-5.93534E-04-5.30940E-03 6.23446E-03 1.15018E-03-8.71909E-02
 -1      3372-3.59819E+00 1.38621E-03-4.78671E-03 7.40967E-03 2.23599E-03-8.69187E-02
 -1      3373-7.27338E+00 8.19172E-04-5.37228E-03 8.33397E-03 2.19325E-03-4.23981E-02
 -1      3374 1.02208E+00-5.33791E-03-7.11465E-03 2.73551E-02 7.09986E-04-2.06058E-01
 -1      3375-4.69147E-01 1.35075E-03-4.40882E-03 1.05922E-02-2.47302E-03-4.29597E-01
 -1      3376-4.05921E-02-7.35650E-03-1.09082E-02 2.05853E-02 3.28110E-03-4.04444E-01
 -1      3377 2.87235E-01-1.88433E-03 1.46616E-03 1.35256E-02 1.97914E-03-4.28643E-01
 -1      3378 3.88772E-01 6.38974E-04-4.61896E-03 1.58490E-02 3.16852E-03-4.25597E-01
 -1      3379 8.51175E-01 6.99806E-03 8.22069E-03 3.18118E-02-8.83000E-04-3.76087E-01
 -1      3380 4.21128E-02 1.69232E-04-1.12244E-02 2.41436E-02-4.87188E-05-3.89728E-01
 -1      3381-1.65928E+00-5.75101E-03 4.37869E-03 2.05984E-02 3.27840E-04-2.07772E-01
 -1      3382-1.61913E+00-1.44735E-03 9.91695E-03 3.35757E-02-6.65787E-03-2.00893E-01
 -1      3383-7.26153E-01 1.25206E-02-1.58887E-03 2.53604E-02-4.86275E-03-3.76322E-01
 -1      3384-8.77114E-01-2.15273E-03 1.37401E-03 2.84258E-02 4.86574E-03-3.74801E-01
 -1      3385-8.46512E-01-3.10104E-03-2.23802E-03 2.91025E-02 1.67633E-03-3.73124E-01
 -1      3386-1.79166E+00-9.06043E-04-7.29592E-04 2.88369E-02 1.53358E-03-2.02088E-01
 -1      3387-3.72686E+00 8.53470E-05-3.52119E-03 2.61229E-03-2.25880E-03-8.86448E-02
 -1      3388-7.33269E+00 3.94529E-03-2.28752E-03 4.08776E-03-1.64729E-03-4.43940E-02
 -1      3389-3.70081E+00-3.72231E-05-6.25840E-03 5.12020E-03 8.73284E-05-7.68086E-02
 -1      3390-3.84210E+00 1.70426E-04-2.40133E-03 8.25338E-03-1.45763E-03-1.15907E-01
 -1      3391-5.08558E-01-4.50974E-03-1.05170E-02 1.85952E-02-2.72800E-03-3.42028E-01
 -1      3392 1.79568E-01 1.29441E-03 2.04072E-03 2.13447E-02-2.61576E-03-3.77987E-01
 -1      3393-1.41133E+00 3.53790E-03 7.08375E-03 2.61097E-02 4.20528E-03-3.39443E-01
 -1      3394 1.41276E+00-1.97863E-03-6.51115E-03 2.52008E-02-3.27553E-03-3.40050E-01
 -1      3395-1.78616E-01-2.16334E-03-5.14551E-03 2.21164E-02 1.79072E-03-3.78032E-01
 -1      3396-2.12355E+00-1.84383E-03 4.79107E-03 1.99382E-02-2.66303E-03-3.14130E-01
 -1      3397-8.39578E+00-1.76832E+00-5.56406E-01 2.05080E-02 4.59366E-02-2.11273E-01
 -1      3398-8.00865E+00-1.61713E+00-3.80827E-01-3.20914E-01-3.20400E-02-8.84579E-02
 -1      3399-8.07704E+00-8.93895E-01-3.64920E-02 2.11217E-03-6.11269E-02-2.22296E-01
 -1      3400-5.18850E+00-1.10374E+00-8.76611E-01 1.23982E-02-7.67039E-02-2.62312E-01
 -1      3401-8.31644E+00-7.92110E-01-3.42267E-02 2.38832E-01-8.89402E-02-1.73986E-01
 -1      3402-5.72668E-01-8.77525E-06 2.01366E-03 1.24266E-02 2.28591E-04-4.27357E-01
 -1      3403-8.81572E-01 3.78366E-04 4.15510E-03 1.86904E-02 2.64775E-03-3.74935E-01
 -1      3404-4.73831E-02-1.21409E-02-1.18697E-03 2.12359E-02-4.71658E-03-3.98360E-01
 -1      3405-1.78814E+00 9.41278E-03-2.40883E-03 2.28291E-02-2.13250E-03-2.02636E-01
 -1      3406-9.92584E-01-1.37627E-03 2.11309E-03 2.64524E-02-2.19514E-03-3.69982E-01
 -1      3407-2.84847E+00 1.92485E-03 2.50998E-03 1.70115E-02-3.19402E-03-2.57362E-01
 -1      3408-3.69569E+00-2.62683E-02-1.60076E-02 3.18078E-03-3.56092E-03-8.21908E-02
 -1      3409 7.76101E-02 1.72872E-03 5.12752E-03 2.66704E-02 1.16877E-03-4.03868E-01
 -1      3410-8.73250E-01-2.62944E-04-1.62852E-03 7.44220E-03-1.58132E-03-1.29855E-01
 -1      3411 2.36634E+00 1.34366E-04 8.58237E-03 8.48535E-03-9.70884E-04-2.05000E-01
 -1      3412 2.33084E+00 4.10244E-05-6.73708E-03 9.65590E-03 7.73926E-04-1.89077E-01
 -1      3413 1.54742E+00 6.41754E-03 3.46260E-03 6.10725E-03-3.13467E-03-3.67605E-01
 -1      3414 1.53561E+00-8.10923E-04-3.65282E-03 3.42270E-03 2.85460E-03-3.62872E-01
 -1      3415 2.09462E+00 2.48326E-03 2.01105E-03-3.97695E-03 1.94809E-02-8.20245E-02
 -1      3416 2.44040E+00-6.82768E-03-5.84643E-03-4.15538E-03 2.32959E-02-5.16096E-02
 -1      3417 4.38795E+00-5.71256E-04 5.50541E-03-7.42430E-03 1.64260E-02-6.53285E-02
 -1      3418 6.63606E-01 1.29397E-03 2.75954E-03 1.63523E-02 2.34464E-03-2.87175E-01
 -1      3419-2.46147E-02 7.94722E-03 6.31195E-02 6.96062E-03 2.81595E-02-4.13089E-01
 -1      3420-7.86667E-03 6.03187E-03 2.59846E-02 1.27494E-02 2.50998E-02-4.21014E-01
 -1      3421-1.26071E-01 3.00831E-03-2.12513E-02 1.10935E-03 1.34586E-02-4.30314E-01
 -1      3422-4.61482E-02 1.14239E-02 4.86575E-03 7.93017E-03 1.33477E-02-4.62109E-01
 -1      3423-6.64028E-02 1.59290E-02 4.71919E-02 2.08538E-02 2.06678E-02-3.83074E-01
 -1      3424-2.21156E+00 1.58145E-03-9.07050E-05 1.29872E-03-2.71038E-03-9.28512E-02
 -1      3425-2.17773E+00 1.26322E-03-1.89851E-03 2.72433E-03-1.47793E-03-1.03881E-01
 -1      3426 1.47973E+00-1.10196E-03-4.68068E-04 4.27432E-03-1.06203E-03-9.13999E-02
 -1      3427-3.80865E-02 4.91707E-05-1.34873E-03 6.14656E-03-1.98152E-03-8.92007E-02
 -1      3428-7.07162E-02-2.93504E-03-2.25556E-03 4.76773E-03-3.96996E-03-8.13120E-02
 -1      3429-6.62288E-01-1.10790E-03-2.39624E-03 1.59194E-02-2.44515E-03-2.87212E-01
 -1      3430 2.84993E+00-1.09740E-03-2.80623E-03 1.63702E-02 3.72877E-03-2.58148E-01
 -1      3431-3.04328E+00 1.58310E-03-8.97587E-04 1.72670E-02 2.05006E-03-2.33125E-01
 -1      3432 3.22662E-01 9.60792E-04 2.16588E-03 1.45468E-02-1.28389E-03-2.55456E-01
 -1      3433 4.75284E-01 4.31345E-04 1.66622E-03-7.03859E-04 2.52332E-02-8.10121E-02
 -1      3434 7.67190E+00 1.16489E-02 1.47353E-03-7.70090E-03 1.58495E-02-4.02531E-02
 -1      3435-4.42316E+00 7.36278E-04 6.74395E-03 2.57633E-02-2.91063E-03-1.65799E-01
 -1      3436-2.25915E+00 2.27326E-03-8.50311E-04 1.94657E-02-1.80471E-03-3.04932E-01
 -1      3437-4.58458E+00 2.08155E-03-3.48603E-03 1.85247E-02 1.48309E-04-1.65643E-01
 -1      3438-4.56004E+00 2.52579E-03-8.47883E-03 2.40195E-02 5.56816E-03-1.60989E-01
 -1      3439-2.37584E+00-6.87030E-03-8.26977E-04 2.06491E-02 3.83573E-03-2.98870E-01
 -1      3440-2.23547E+00-1.42666E-03-4.10410E-03 2.21578E-02-1.00268E-03-3.02937E-01
 -1      3441-6.82513E-02-2.64650E-03 5.11085E-04 6.60661E-03-1.06047E-03-1.05380E-01
 -1      3442 1.45041E+00 2.47597E-04 2.55953E-03 3.71197E-03-1.83788E-03-1.05444E-01
 -1      3443 3.60368E+00 5.19201E-04 6.58426E-03 8.38071E-03-2.36467E-03-8.60350E-02
 -1      3444 8.46364E-02-3.53839E-02-8.94265E-02 2.35817E-02-2.83893E-03-3.37757E-01
 -1      3445 2.84869E-01-9.16231E-03 1.03124E-02 1.69335E-02-4.62718E-03-1.90529E-01
 -1      3446 8.43635E+00 1.73992E+00 3.09424E-01-3.78595E-01-4.68170E-02-1.49554E-01
 -1      3447 5.41117E+00 1.23173E+00 9.17040E-01-2.33324E-01-5.83927E-02-2.67966E-01
 -1      3448 1.03731E+00 4.06847E-05 2.34876E-03 1.20139E-02 5.15402E-03-3.95585E-01
 -1      3449 1.82248E-01-6.66472E-03 2.00480E-03 1.94614E-02-1.36320E-03-3.69071E-01
 -1      3450-5.22178E-01 2.41716E-03-1.84274E-03 1.19224E-02 1.56499E-03-3.98694E-01
 -1      3451 1.31781E+00 4.87011E-04-1.96379E-03 8.54221E-03-1.76556E-03-3.88774E-01
 -1      3452 4.49577E-01 1.46531E-03-3.52029E-03 2.04936E-02-4.40594E-03-3.57156E-01
 -1      3453 2.04467E+00-2.30536E-03 3.69434E-03 1.51999E-02 2.52399E-03-3.36293E-01
 -1      3454 3.15495E+00 4.07198E-03 3.16189E-03 2.57789E-02-1.54972E-03-2.00108E-01
 -1      3455 1.53797E+00-5.40663E-03 1.80440E-03 2.32306E-02-7.76612E-03-3.46831E-01
 -1      3456 3.36111E+00 1.83238E-03-5.73396E-03 2.18905E-02-4.49774E-03-1.86349E-01
 -1      3457 3.69206E+00-1.67016E-03 2.45635E-03 1.86848E-02 6.31413E-04-1.70607E-01
 -1      3458 1.82737E+00-1.07395E-03 2.48369E-03 2.31429E-02 5.29490E-05-3.34932E-01
 -1      3459-1.76045E-01 1.59340E-03-9.87563E-03 1.24003E-02-3.42955E-04-4.56138E-01
 -1      3460 1.70011E-01 5.99159E-03 7.71135E-03 2.16812E-02-1.21477E-05-4.04594E-01
 -1      3461 3.79501E+00-8.73941E-03-3.88537E-03 1.37024E-02-1.88611E-03-2.08719E-01
 -1      3462 3.77235E+00-4.61947E-04 2.70960E-03 2.13696E-02-5.74793E-04-2.02142E-01
 -1      3463 3.95422E+00-2.36341E-03 4.30147E-03 1.00534E-02 1.85966E-03-2.05709E-01
 -1      3464 2.98906E+00 4.34381E-03 4.84185E-03 1.55171E-02-4.54177E-03-2.23321E-01
 -1      3465 6.00635E+00-6.05626E-04 6.15956E-03 1.76584E-02-3.76389E-03-1.19674E-01
 -1      3466 5.93918E+00-2.41760E-03 2.12234E-03 1.41997E-02-2.38234E-05-1.27464E-01
 -1      3467 3.16702E+00 1.59209E-03 2.71502E-03 1.53229E-02 1.56846E-03-2.25013E-01
 -1      3468 6.15840E+00 3.05362E-03 3.15894E-03 2.10241E-02-5.73529E-04-1.20806E-01
 -1      3469 3.22716E+00 2.45263E-03 2.99240E-04 1.81833E-02 8.61311E-04-2.24216E-01
 -1      3470-1.21160E+00 1.36174E-03 1.75949E-04 8.24363E-03-2.49272E-03-2.57211E-01
 -1      3471-7.24920E-02-2.83466E-03-8.51792E-04 1.63335E-02 2.96524E-03-2.38004E-01
 -1      3472 1.76070E+00 9.22586E-04-1.06289E-03 7.02828E-03-6.72681E-04-2.62674E-01
 -1      3473-1.40142E+00 1.68602E-04-2.73925E-03 9.49963E-03 2.12824E-03-2.68371E-01
 -1      3474-2.72422E-01 1.57094E-03-3.98632E-03 1.78212E-02 4.42077E-03-2.43441E-01
 -1      3475-3.22169E+00-1.22406E-03-1.49403E-03 2.14111E-02-6.59164E-04-2.22989E-01
 -1      3476-2.98565E+00-4.23183E-03-6.74831E-03 1.68600E-02 5.49145E-03-2.22145E-01
 -1      3477-6.00287E+00-3.30757E-04-4.85803E-03 1.64551E-02 3.35164E-03-1.21344E-01
 -1      3478-3.16677E+00-4.76022E-03-9.05236E-03 1.63351E-02-2.54629E-03-2.21397E-01
 -1      3479 4.20991E-01-7.28278E-03 5.84582E-03 2.51641E-02-2.86709E-04-1.91615E-01
 -1      3480 5.91437E-01-5.37643E-03 7.61198E-03 2.52013E-02-2.20113E-03-1.99102E-01
 -1      3481 7.69257E-01-6.72329E-03 2.45252E-03 3.24457E-02-1.92887E-04-1.69318E-01
 -1      3482 3.31471E-01-8.92650E-04 1.54871E-02 2.58861E-02-6.52553E-03-3.49307E-01
 -1      3483 6.06250E-01-1.10229E-03 3.67159E-03 3.46077E-02-3.36272E-03-1.60922E-01
 -1      3484 8.40056E+00 1.86193E-03 2.58199E-03-1.18896E-03 4.17478E-04-6.05077E-02
 -1      3485 8.34734E+00 2.51735E-03 9.14074E-04-8.54738E-04 1.38122E-03-6.89618E-02
 -1      3486 4.88627E+00 1.11863E-03 3.10772E-03 1.69341E-03 2.01560E-03-1.32524E-01
 -1      3487 7.41114E+00 2.22062E-05-1.92306E-04 3.42769E-03 3.02775E-05-7.24649E-02
 -1      3488 5.80327E-01 4.80447E-03 4.89050E-04 2.93282E-02-7.78670E-03-3.50222E-01
 -1      3489 8.26691E-02 3.40383E-03-7.26074E-03 2.13507E-02 2.67268E-03-4.01266E-01
 -1      3490 1.44092E-01-1.97575E-03 2.63419E-03 2.00660E-02 1.49110E-03-3.92304E-01
 -1      3491 1.11625E+00 1.72441E-03 2.97045E-03 2.45587E-02 4.04712E-03-3.53810E-01
 -1      3492-1.25921E+00 7.15870E-02 9.49433E-02-3.08671E-03-1.36805E-01 1.35688E-01
 -1      3493-4.13395E+00-2.11687E-01-2.25098E-01 1.21463E-01-1.65450E-01 4.98816E-02
 -1      3494 1.92832E-01-8.84202E-03-5.35211E-03 1.90436E-02-2.52316E-03-4.21111E-01
 -1      3495 4.65586E-01-3.44339E-03 5.10184E-03 1.62433E-02-4.10105E-04-3.15512E-01
 -1      3496 2.69272E-01 2.66221E-03-4.27302E-03 1.98660E-02 1.83021E-03-3.35545E-01
 -1      3497 1.26223E+00-1.31942E-03 5.32514E-04 9.17803E-03 9.14056E-04-2.57551E-01
 -1      3498 7.36621E-02 2.17715E-03-2.89001E-04 1.50334E-02-1.99733E-03-2.39659E-01
 -1      3499 2.73258E-01 2.08707E-04 3.24579E-03 1.16937E-02-1.34531E-03-2.44525E-01
 -1      3500-4.38956E+00-9.51746E-03-2.49432E-03 1.95495E-02-7.09527E-04-1.83303E-01
 -1      3501-2.21860E+00 2.53576E-03 5.36426E-03 1.55252E-02-3.47520E-03-3.16019E-01
 -1      3502-2.08388E+00 5.16428E-03-5.76049E-03 2.10312E-02-4.39849E-03-3.12654E-01
 -1      3503 3.03214E-01 4.26839E-03 1.74509E-03 1.57465E-02-1.44132E-03-4.29995E-01
 -1      3504 3.39385E-01-2.58236E-03-4.32838E-05 3.04313E-02 1.16179E-03-3.92646E-01
 -1      3505 6.76538E-01-1.24981E-04-1.90002E-03 2.78520E-02 3.49340E-04-3.64572E-01
 -1      3506 2.41720E+00-3.11515E-03-1.73053E-03 2.09479E-02 1.16995E-03-2.96647E-01
 -1      3507 8.29830E+00 7.91994E-01 4.19146E-02 1.99577E-01 8.20002E-02-2.04197E-01
 -1      3508 5.35756E+00 1.19475E+00 9.95714E-01 1.69571E-01 2.83204E-02-2.33931E-01
 -1      3509-5.82822E+00-1.69291E-03-5.17303E-03-1.71906E-03 4.38855E-04-1.50795E-01
 -1      3510 1.96357E+00-9.79088E-04 6.95580E-03 2.77282E-02 1.18805E-03-1.99574E-01
 -1      3511 9.56662E-01 1.96843E-04 4.65877E-04 1.98541E-02-1.05233E-03-3.74862E-01
 -1      3512 1.66728E+00-1.15484E-03 5.51475E-04 3.87271E-02-2.83036E-03-2.05484E-01
 -1      3513 1.83086E+00-2.52166E-03-8.90921E-04 3.70251E-02 1.86260E-04-2.06363E-01
 -1      3514 1.08344E+00-3.71739E-03 2.83053E-03 1.89077E-02 3.32729E-03-3.79372E-01
 -1      3515-1.96445E+00 1.57425E-03-7.95891E-03 2.79781E-02-1.84852E-03-1.98495E-01
 -1      3516-9.49504E-01 5.82977E-04 3.60622E-03 1.91630E-02 1.90707E-03-3.73487E-01
 -1      3517-1.66257E+00 1.58776E-03 6.01561E-03 3.73195E-02 3.72548E-03-2.03399E-01
 -1      3518-1.83840E+00 2.19865E-03-1.77813E-03 3.81333E-02-3.10289E-04-2.04765E-01
 -1      3519-1.08806E+00 2.18793E-03-4.54850E-03 2.01831E-02-3.50315E-03-3.78069E-01
 -1      3520 1.77069E+00 4.88131E-03 2.20568E-04 2.91089E-02 9.30031E-04-1.93282E-01
 -1      3521 1.47732E+00-4.35529E-03-3.22284E-03 3.93188E-02 8.72975E-04-2.07314E-01
 -1      3522-1.77292E+00-4.37378E-03-1.41673E-03 2.79266E-02-8.64071E-04-1.94116E-01
 -1      3523-1.49077E+00 7.68137E-04 8.41033E-03 3.83524E-02-1.83679E-03-2.06474E-01
 -1      3524-1.63667E+00-6.56149E-03 3.54079E-03 2.83891E-02 1.84767E-03-2.00694E-01
 -1      3525-8.42059E-01-3.88134E-03 4.06907E-03 2.15144E-02 4.42229E-03-3.81398E-01
 -1      3526 1.63478E+00 5.73181E-03-2.78412E-03 2.97267E-02-1.64040E-03-1.99343E-01
 -1      3527 8.49593E-01-2.82821E-04-3.48191E-04 1.90372E-02-2.19045E-03-3.84046E-01
 -1      3528 2.78369E+00 5.66942E-03 3.48090E-03 1.99772E-02-4.41968E-05-2.77009E-01
 -1      3529 4.11113E+00-2.38512E-04 8.25721E-03 4.64021E-03 5.84206E-04-7.23481E-02
 -1      3530-4.73674E+00-1.67181E-03 9.41015E-05 2.01095E-02 2.36311E-04-1.62975E-01
 -1      3531-4.57189E+00-1.23763E-03 3.58429E-03 2.27005E-02 1.62419E-03-1.65838E-01
 -1      3532-4.38396E+00-2.99319E-03 7.67516E-03 3.20979E-02 8.97163E-04-1.68652E-01
 -1      3533-4.24515E+00 1.88858E-04 5.61332E-03 3.26190E-02-1.69831E-03-1.72413E-01
 -1      3534-2.44838E+00-3.14227E-03 3.79654E-03 1.69946E-02 5.85792E-03-3.14386E-01
 -1      3535 7.80589E+00 3.05232E-01 1.56790E-02-1.04148E-01-5.79908E-02-7.00078E-02
 -1      3536 4.53674E+00 9.67056E-02-6.02741E-02-7.28015E-03-1.12146E-01 1.54235E-02
 -1      3537 7.68967E+00 7.33015E-02-3.41532E-02-2.79423E-02-2.63248E-02 8.85418E-02
 -1      3538 7.14283E+00 8.20239E-02-4.72027E-05-1.84062E-02-2.30646E-02-2.63069E-02
 -1      3539 4.01843E+00 1.86597E-02-3.18071E-03 3.67250E-02-4.04934E-02 3.02366E-02
 -1      3540 4.63680E-01 1.06192E-03-1.29182E-03 6.05520E-03 1.25875E-03-1.07493E-01
 -1      3541 3.24736E-02-7.69785E-03 1.17787E-02 2.38148E-02-1.71841E-02-3.95232E-01
 -1      3542 1.04957E-01-9.16985E-03-1.51814E-02 9.95914E-03-1.17853E-02-4.43001E-01
 -1      3543 3.54019E+00-5.41509E-03 4.64625E-03 2.97786E-02-1.41142E-03-1.71982E-01
 -1      3544 2.20353E+00 1.10070E-03 2.05615E-03 2.20923E-02 4.75723E-04-3.20061E-01
 -1      3545 1.67895E+00-5.99055E-03-2.34184E-03 2.65790E-02 8.90807E-04-3.44661E-01
 -1      3546-8.55733E-01-1.45095E-03-9.12966E-04 1.23246E-02 3.43745E-03-3.89002E-01
 -1      3547-1.67589E+00 8.12346E-03 4.58067E-03 2.66930E-02-7.94902E-04-3.42910E-01
 -1      3548 1.41500E-01-2.48987E-03-2.89143E-03 1.92067E-02 2.07099E-03-3.60559E-01
 -1      3549 4.01924E+00-3.52832E-03 3.42034E-03 6.66260E-03 3.12609E-04-9.50489E-02
 -1      3550-8.74052E+00 1.48889E-03-5.07035E-03-9.60183E-03-4.03322E-03-2.51583E-02
 -1      3551 6.19208E-02-1.08572E-02-1.31280E-02 1.46933E-02 1.02612E-02-4.44428E-01
 -1      3552 1.85153E-02 3.94457E-03 1.61390E-02 1.79816E-02 1.73635E-02-3.95453E-01
 -1      3553-7.66157E+00 1.60815E-03-3.66094E-03 8.42161E-03 5.01785E-04-4.07474E-02
 -1      3554-7.62612E+00 1.43810E-03-2.44111E-03 7.75684E-03 6.28927E-04-4.63528E-02
 -1      3555-7.12332E+00 1.86740E-03-4.94927E-03 1.21539E-02 2.32503E-03-4.16698E-02
 -1      3556-4.14785E+00 3.17207E-04-7.14048E-03 6.42021E-03 1.19558E-03-8.44162E-02
 -1      3557-4.17661E+00 1.28468E-03-5.55581E-03 6.92294E-03 1.82128E-03-7.66411E-02
 -1      3558 7.32083E-02 2.39476E-03 2.11165E-03 1.08735E-02-1.92159E-03-1.70611E-01
 -1      3559 4.74896E-01 6.12279E-04 1.78931E-03 3.96328E-03 3.87490E-03-7.84763E-02
 -1      3560-4.97292E-01 1.17052E-03-2.25784E-03 8.40295E-03-2.98223E-04-1.42612E-01
 -1      3561-3.45868E+00 2.63930E-03-1.55918E-03 8.24954E-03 2.53998E-03-1.31954E-01
 -1      3562 1.89793E+00 3.20250E-04 2.06732E-03 1.91139E-02 1.88251E-03-3.31791E-01
 -1      3563 1.22337E+00-3.84019E-03-5.08073E-03 2.69025E-02 5.84728E-03-3.62222E-01
 -1      3564 6.22632E-03-4.46123E-03 1.03847E-03 2.10633E-02-1.12674E-03-3.92485E-01
 -1      3565-1.22043E+00 5.69654E-03 5.69821E-03 2.72220E-02-5.20317E-03-3.63654E-01
 -1      3566-4.80284E-03 4.63825E-03-3.26532E-03 2.23066E-02 4.08171E-04-3.89017E-01
 -1      3567 3.03483E-01 6.10029E-03 8.07084E-03 1.94018E-02 3.43527E-03-3.49883E-01
 -1      3568-2.52852E+00 3.57886E-03 2.27174E-03 1.72408E-02 4.44763E-03-2.80023E-01
 -1      3569 3.56165E-01-4.17349E-03-1.13202E-03 1.81642E-02-9.06388E-04-3.01534E-01
 -1      3570-3.54198E-01 3.60706E-03-1.02241E-03 1.86628E-02 1.77591E-04-3.01902E-01
 -1      3571 2.52972E+00-2.80442E-04-5.70909E-04 1.65103E-02-2.42269E-03-2.81263E-01
 -1      3572 3.31727E+00 3.18042E-03 4.22543E-03 1.10930E-02-2.54973E-03-1.61164E-01
 -1      3573-9.52698E-02-2.34072E-03-2.01108E-03 1.08344E-02 1.91282E-03-1.70495E-01
 -1      3574 3.15878E+00-4.24510E-03 2.25953E-03 1.23289E-02-3.07825E-03-1.96813E-01
 -1      3575-4.44385E-01 3.12909E-03 2.25590E-03 1.10174E-02 1.61737E-03-2.08995E-01
 -1      3576 4.40433E-01-3.09035E-03-2.05070E-03 1.11121E-02-1.64545E-03-2.08754E-01
 -1      3577-3.33920E+00-3.09024E-03-4.37010E-03 1.11386E-02 2.51460E-03-1.60801E-01
 -1      3578 2.25142E+00-2.12325E-03 1.91236E-03 6.31769E-03-1.32332E-03-2.65071E-01
 -1      3579 3.41903E+00 7.36003E-03 1.21324E-02 9.39043E-03 2.76755E-03-2.25706E-01
 -1      3580 2.38486E-01-1.79732E-03-1.80421E-03 1.87394E-02-2.62347E-04-2.54164E-01
 -1      3581 6.40900E+00 4.85705E-03 1.03921E-03 1.26322E-02 5.29788E-05-1.18483E-01
 -1      3582 3.63769E+00-7.76477E-04 1.81190E-03 1.66925E-02 7.30822E-04-2.24841E-01
 -1      3583-3.16275E+00 4.40574E-03-2.53498E-03 1.23847E-02 3.20055E-03-1.96660E-01
 -1      3584-8.59651E+00-1.75483E+00-3.26702E-01 3.18923E-01-5.85637E-02-1.33160E-01
 -1      3585-5.59161E+00-1.19026E+00-9.54466E-01 2.26833E-01-7.48230E-02-2.72479E-01
 -1      3586-1.03735E+00-2.73946E-03-5.27822E-03 1.54418E-04 6.08423E-04-2.05876E-01
 -1      3587-7.90710E-01 3.15741E-03-4.46547E-03 2.40273E-03-3.59798E-03-1.99870E-01
 -1      3588-5.12696E-01-1.79380E-03-8.45067E-03 5.30933E-03 2.30646E-03-4.10323E-01
 -1      3589-8.03977E-01 3.87110E-03-9.63052E-04 1.14145E-02 3.27526E-04-2.52970E-01
 -1      3590 1.16856E+00-2.63024E-03-2.86910E-03 2.22025E-02 3.39024E-03-3.55064E-01
 -1      3591 6.87739E-01 3.58989E-03 4.99480E-03 2.59936E-02-3.91055E-04-3.52555E-01
 -1      3592 1.02655E+00 4.10039E-03-6.04355E-04 2.81028E-02-7.36778E-04-3.61535E-01
 -1      3593 2.64623E+00 1.62017E-03-1.40701E-03-2.09758E-03 8.46132E-04-1.92371E-01
 -1      3594 3.68655E-03-3.62380E-03-9.39167E-02 1.22532E-02 2.73796E-02-4.17770E-01
 -1      3595 6.16618E-02 9.29763E-04-7.30149E-02 2.16069E-02 1.83368E-02-3.77219E-01
 -1      3596-1.84563E-01-2.43135E-03 6.43526E-03 1.50408E-02-6.01495E-04-4.58363E-01
 -1      3597 1.74205E-01-4.24349E-02-1.08309E-01 1.91494E-02-3.80952E-03-1.61325E-01
 -1      3598 9.43229E-02-3.69344E-02-1.02864E-01 1.98746E-02-6.79136E-03-3.36711E-01
 -1      3599-1.21220E+00 1.23197E-03-1.14999E-03 5.54874E-03 3.59379E-04-9.67458E-02
 -1      3600-1.15059E+00 8.22835E-04-5.43638E-03 7.67963E-03 1.40176E-03-9.79154E-02
 -1      3601-1.18128E+00 4.69657E-04-2.23586E-04 7.07638E-03 1.97216E-03-8.42624E-02
 -1      3602 7.69986E+00 9.82852E-04 5.96564E-03 1.27186E-02-1.35512E-03-2.75420E-02
 -1      3603-4.31897E-01 3.46747E-03 1.07562E-02 9.78903E-03-9.75720E-04-4.38818E-01
 -1      3604-1.24696E+00-8.99748E-04-2.19975E-03 2.95021E-03-2.08518E-03-8.62790E-02
 -1      3605 9.20502E-01-3.43758E-03-4.91464E-03 1.17157E-02 3.42685E-03-3.45883E-01
 -1      3606 7.80726E-02 8.04267E-05-6.40265E-03 1.99577E-02 1.90648E-04-3.17155E-01
 -1      3607-1.23824E+00 4.65775E-03 1.17078E-03 1.01527E-02-1.85689E-03-3.53823E-01
 -1      3608 8.86159E-01 6.37788E-04 2.00841E-03 1.05270E-02-2.36466E-03-3.55904E-01
 -1      3609 4.41816E-02-7.22081E-03-1.54390E-03 2.15482E-02-8.28599E-04-3.34919E-01
 -1      3610 2.24026E+00 1.50487E-04 6.11113E-03 2.41184E-02-9.32354E-04-3.04592E-01
 -1      3611-2.40701E-01 2.86567E-03-7.53473E-03 2.31323E-02 6.11032E-03-3.93776E-01
 -1      3612-2.24456E-01 4.28791E-03-1.37793E-02 3.11448E-02 1.07181E-05-3.94209E-01
 -1      3613-3.19432E-01-4.48420E-04 5.74949E-03 3.09451E-02 1.85234E-03-3.86797E-01
 -1      3614 5.17320E-01-2.96196E-03 1.63803E-02 3.31826E-02 2.35838E-04-4.01525E-01
 -1      3615 6.28277E-01 2.60108E-03-1.36819E-02 3.06016E-02-4.92484E-03-3.93482E-01
 -1      3616 2.45173E+00 9.71500E-04 2.12672E-03 7.15627E-03-2.63891E-03-8.58495E-02
 -1      3617-6.88397E-01 9.01732E-04-3.98251E-03 2.21520E-02-2.61032E-03-3.55649E-01
 -1      3618-1.01456E+00 1.85576E-03 1.84972E-03 2.71554E-02-1.26089E-03-3.57667E-01
 -1      3619 4.86100E+00-6.61454E-04 4.17290E-03 2.38541E-02 1.17343E-04-1.64095E-01
 -1      3620 4.73736E+00-6.09149E-03-1.82359E-04 2.06512E-02-8.88330E-04-1.61384E-01
 -1      3621 4.51897E+00-2.45032E-03 8.29484E-03 2.75022E-02-1.11864E-03-1.66702E-01
 -1      3622 2.54900E+00 2.06785E-04 9.75414E-03 1.63358E-02 3.31432E-03-3.05105E-01
 -1      3623 2.63324E+00-3.47037E-03 6.78670E-03 1.78161E-02 1.61897E-03-3.01675E-01
 -1      3624 1.44070E+00-2.78043E-03-1.55840E-03 9.80198E-03 2.49064E-03-2.36938E-01
 -1      3625 1.94974E+00-1.05458E-03 2.41506E-03 6.19193E-03 2.00302E-03-2.51969E-01
 -1      3626-3.22194E+00-3.38144E-01-6.93722E-01 2.15929E-01-1.69254E-02 4.89954E-01
 -1      3627-4.04689E+00-7.12995E-01-5.84412E-01 2.90964E-01-9.35554E-02 1.01533E-02
 -1      3628 7.61439E+00 6.35405E-04 9.17380E-04 7.77368E-03-9.86490E-04-4.95535E-02
 -1      3629 7.65869E+00 8.63496E-04 3.66976E-03 7.54204E-03 1.75118E-04-4.67426E-02
 -1      3630 4.13828E+00 7.10840E-04 2.67680E-03 5.53764E-03-2.66823E-03-9.72256E-02
 -1      3631 7.07798E+00-7.36069E-04 1.78105E-03 1.12740E-02-1.28498E-03-4.92873E-02
 -1      3632 7.03761E+00-9.45662E-04-3.52118E-04 1.07507E-02-1.09676E-04-5.40628E-02
 -1      3633-3.33921E-01-4.18820E-04 9.60044E-03 1.81822E-02-7.07408E-03-3.93829E-01
 -1      3634 2.41604E+00-2.32907E-03 6.93983E-03 8.30890E-03 6.99848E-04-9.94476E-02
 -1      3635 9.12436E-01 2.98675E-03 9.40101E-03 1.79377E-02 1.70031E-05-3.54449E-01
 -1      3636 2.87437E-02-1.91479E-02-1.03874E-01 8.30486E-03-2.65053E-02-4.14852E-01
 -1      3637 7.88472E-02-1.28541E-02-7.48950E-02 2.03550E-02-1.65067E-02-3.73714E-01
 -1      3638-1.50452E+00 2.54209E-04 6.88377E-03 1.58432E-02-1.25578E-03-2.40638E-01
 -1      3639-7.70938E-02-9.83138E-03-1.11585E-02 1.91614E-02-2.43744E-03-3.23313E-01
 -1      3640 1.50207E+00-5.14419E-04-7.43345E-04 2.08473E-02-1.53773E-03-2.34601E-01
 -1      3641 7.68786E+00-1.62690E-03 4.53283E-03 8.10244E-03-5.38970E-04-4.07716E-02
 -1      3642 4.17055E+00 2.29355E-04 5.11642E-03 5.81425E-03-1.75312E-03-8.51896E-02
 -1      3643 7.12120E+00-2.27356E-03 4.68756E-03 1.17271E-02-2.59192E-03-4.17480E-02
 -1      3644 4.20371E+00-1.71772E-03 5.20317E-03 6.64459E-03-1.67414E-03-7.65079E-02
 -1      3645-6.74831E-01-1.50240E-03-1.41755E-02 2.43765E-02 1.55759E-03-3.20878E-01
 -1      3646-7.93579E-01 2.42987E-04 3.44052E-03 1.48832E-02-1.99889E-03-3.18384E-01
 -1      3647-7.56110E-01-5.15847E-04 1.24996E-02 2.47441E-02 3.24700E-04-3.16228E-01
 -1      3648-8.68463E+00-1.53768E-02 1.54711E-02-2.13456E-02-2.08742E-02 5.83395E-02
 -1      3649-7.80042E+00-1.49334E-02-1.31409E-03-2.68311E-02-1.68226E-02-3.82381E-02
 -1      3650-2.05767E+00-2.73261E-01-8.96700E-02-4.73717E-02 6.22334E-02 1.07821E-02
 -1      3651 1.40946E+00-2.68631E-03 1.24755E-03-1.43822E-03 3.85893E-04-1.97500E-01
 -1      3652 1.15298E+00 4.00384E-04-2.23052E-03 1.24032E-02 8.56897E-04-1.93589E-01
 -1      3653 1.38290E+00 9.93045E-04 1.21458E-02 1.22344E-02-3.55848E-03-1.93596E-01
 -1      3654 4.57007E+00 6.69322E-04-3.19809E-03 2.38333E-02-1.24413E-03-1.66428E-01
 -1      3655 4.35689E+00 6.42918E-04 1.06065E-02 3.20712E-02 4.08809E-03-1.65138E-01
 -1      3656 2.49136E+00 4.36868E-03-2.19651E-04 1.66066E-02-5.50204E-03-3.14775E-01
 -1      3657 4.27625E+00 8.73050E-04-3.29150E-03 3.10255E-02 3.53019E-04-1.68587E-01
 -1      3658 1.01988E+00-4.12008E-03 1.40631E-05-4.22079E-03 7.57739E-04-2.00575E-01
 -1      3659 8.27670E-01-9.34737E-03 5.14876E-03-4.04024E-03-5.50346E-04-1.97674E-01
 -1      3660 6.19529E-01-2.35539E-03 1.12591E-03 8.04978E-03 3.06533E-04-3.67020E-01
 -1      3661 9.29507E-01-2.57270E-03 3.27638E-04 1.54500E-02-7.16417E-04-1.99711E-01
 -1      3662-3.41592E-01-8.19163E-04-3.53691E-03-1.54734E-03-2.49922E-02-7.71943E-02
 -1      3663-4.95485E+00-1.14167E+00-9.25543E-01-1.84918E-01 2.32127E-02-2.15405E-01
 -1      3664-7.80074E+00-7.81006E-01-2.07811E-02-2.05529E-01 5.98008E-02-1.86306E-01
 -1      3665-1.40760E+00-2.58939E-04 2.60117E-04 1.02839E-02-3.12150E-03-3.50664E-01
 -1      3666 3.83109E+00 2.89017E-02 1.57352E-02 3.15891E-03 2.65246E-03-7.85616E-02
 -1      3667 8.05112E-01-6.33364E-03 4.19379E-03 2.52424E-02 3.39558E-03-1.93638E-01
 -1      3668 5.06155E-01-4.80424E-03 5.85502E-03 3.18896E-02 3.28061E-03-3.36691E-01
 -1      3669-8.74648E+00-1.46565E-02 2.83036E-03-1.22833E-02-7.01661E-03 2.22122E-03
 -1      3670-5.07916E+00-1.93898E-03 9.73487E-03-2.68128E-02-2.93545E-02-2.45005E-02
 -1      3671 8.75201E+00 3.28440E-02-2.58287E-02 1.42563E-02 2.07150E-02 3.07077E-02
 -1      3672 5.15319E+00 4.49480E-03-1.44060E-02-2.96668E-02 2.94627E-02-2.33696E-02
 -1      3673-6.35751E-01 3.78472E-03-5.11539E-03 1.83671E-02 4.29656E-03-3.23137E-01
 -1      3674 4.70457E+00-2.31249E-03-2.36457E-03 9.96990E-03-2.49356E-03-1.65623E-01
 -1      3675 4.66945E+00 4.13672E-03-4.13976E-03 1.84721E-02-5.11201E-03-1.63399E-01
 -1      3676 5.04982E+00-8.30997E-04 6.77724E-03 1.74697E-02 6.23496E-03-1.49519E-01
 -1      3677 8.75081E+00 9.61119E-03-9.84210E-03-2.12090E-02 8.30721E-03 1.39570E-02
 -1      3678 7.85527E+00 4.80083E-03 2.87385E-03-2.82013E-02 1.64712E-02-3.39155E-02
 -1      3679-2.22011E+00 3.74501E-04-2.04348E-03-2.35164E-03 2.29509E-04-2.01018E-01
 -1      3680-2.05869E+00-2.40185E-03 1.53333E-03-9.91986E-04 4.16193E-03-1.96713E-01
 -1      3681-1.02563E+00-1.06136E-03 1.59557E-03 5.40917E-03-1.65290E-03-3.76938E-01
 -1      3682-1.78352E+00 1.12957E-03 8.38913E-03 1.07074E-02-2.07929E-03-2.10445E-01
 -1      3683-1.15024E+00 2.09996E-03-1.39487E-03 5.19776E-03-2.52120E-03-3.73827E-01
 -1      3684-1.83583E+00-1.41846E-03 3.96597E-04-3.92619E-03 6.76017E-04-2.02397E-01
 -1      3685-1.57995E+00-3.63851E-03 1.27953E-03 1.08318E-02-1.63183E-03-2.16292E-01
 -1      3686-1.91931E+00 1.17271E-02-4.31321E-03 1.26388E-02 3.35893E-03-2.07943E-01
 -1      3687-1.26447E+00 1.23832E-03-7.72600E-03 3.57727E-03 4.71135E-03-3.72879E-01
 -1      3688 6.18099E-01 3.20631E-03 2.63055E-03 1.68837E-02 8.65165E-04-3.53637E-01
 -1      3689 1.56458E+00 9.51350E-03 7.32042E-03 7.80738E-03-1.43588E-03-3.55085E-01
 -1      3690 2.25472E-01-1.95935E-03-3.05693E-03 1.99454E-02-1.30948E-03-4.30415E-01
 -1      3691 6.79659E-01-9.47552E-03-4.19611E-03 8.96775E-03 1.16199E-03-4.24730E-01
 -1      3692 1.43698E+00 2.36337E-03-6.90371E-04 2.61585E-02-4.12731E-04-2.47296E-01
 -1      3693 1.95622E+00-1.83362E-03 1.22433E-02 2.06183E-02 3.97211E-03-1.94568E-01
 -1      3694 6.08493E+00 6.28997E-04 2.85718E-03 5.92482E-03 4.91362E-04-5.81989E-02
 -1      3695 7.75286E+00-1.43912E-03 6.13888E-03 2.57906E-03 3.02189E-03-4.15286E-02
 -1      3696 9.81708E-01-7.16987E-04-2.72775E-04 4.29626E-03 1.92859E-03-9.91155E-02
 -1      3697 2.63414E+00-2.07552E-03 5.55875E-04 5.02452E-04 3.58907E-03-8.94562E-02
 -1      3698-2.30212E-01 8.58258E-04-1.63457E-02 2.41579E-02-2.67754E-03-3.81031E-01
 -1      3699-4.42299E-01 9.06678E-03-5.38557E-03 3.77196E-02-4.37952E-04-1.97785E-01
 -1      3700-5.37003E-01 4.83937E-04-6.39101E-03 2.30529E-02-3.77063E-04-1.97580E-01
 -1      3701-3.54665E-01-4.35115E-03-8.83125E-03 2.05407E-02-2.58343E-03-3.86095E-01
 -1      3702-6.13569E-01 2.33531E-03-8.67059E-03 3.55666E-02-2.11799E-03-2.11403E-01
 -1      3703-8.68647E+00 1.15252E-03-2.76472E-03-3.34517E-03-1.42985E-03-3.94534E-02
 -1      3704-7.47741E+00 7.09773E-04-2.08506E-03 1.87530E-05-1.38585E-03-5.26317E-02
 -1      3705-4.89097E+00-9.29116E-04-6.08243E-03 1.07740E-03-1.79998E-03-8.56795E-02
 -1      3706-4.92350E+00 1.09215E-03-3.92904E-03-1.77008E-03-2.47677E-03-7.66594E-02
 -1      3707-7.52242E+00 3.64850E-03-3.26123E-03-1.32139E-03-1.55882E-03-4.36990E-02
 -1      3708-8.64705E+00-1.18808E-04-2.92638E-03-2.90706E-03 5.41146E-04-4.76374E-02
 -1      3709-4.84931E+00 4.20148E-04-4.64438E-03 1.67814E-03-9.32647E-04-9.65259E-02
 -1      3710-8.59072E+00 5.24514E-04-2.08731E-03-1.88034E-03-8.48054E-04-4.97022E-02
 -1      3711-7.42510E+00-9.98378E-05-3.24192E-03 1.93773E-03-2.63849E-04-5.51880E-02
 -1      3712 7.40571E+00 3.41669E-03 3.50671E-03 9.48997E-03-1.19587E-03-6.31579E-02
 -1      3713 6.58547E+00 2.01699E-04 3.05119E-03 1.28269E-02-3.45948E-04-7.66755E-02
 -1      3714 7.35999E+00 1.75756E-03 3.27344E-03 9.77847E-03-4.49078E-04-7.23873E-02
 -1      3715 3.73349E+00 7.98083E-04 4.81316E-03 8.77771E-03 7.31613E-05-1.32836E-01
 -1      3716 2.79935E+00-2.18528E-03 5.82558E-03-9.29687E-04 2.42851E-03-1.92049E-01
 -1      3717 1.65301E+00-1.91796E-03 2.25060E-03 3.35262E-03-6.81654E-04-3.67477E-01
 -1      3718 3.01594E+00-2.40297E-04 1.39297E-03-2.94756E-03 7.96843E-04-1.96413E-01
 -1      3719 2.56006E+00-1.75396E-03-1.78502E-04 1.16204E-02-1.59538E-03-2.11873E-01
 -1      3720-2.79686E+00 3.75190E-04-3.70707E-03-2.39883E-03-2.80814E-03-1.98653E-01
 -1      3721-1.67205E+00-2.46849E-03-2.71086E-03 2.53312E-03 1.48601E-03-3.67146E-01
 -1      3722 3.23534E+00 4.21627E-03 6.10743E-05-9.24143E-04-5.04650E-04-1.95449E-01
 -1      3723-3.03005E+00-3.21793E-03-2.51997E-03-2.62948E-03 2.44374E-04-1.98878E-01
 -1      3724-2.57205E+00-1.51844E-04 1.53534E-03 1.13185E-02 1.18036E-04-2.11977E-01
 -1      3725-3.19194E+00-9.37111E-03-4.65230E-03-2.00054E-03-1.97356E-03-1.89642E-01
 -1      3726 4.10177E+00 7.49395E-03 3.48069E-03 2.43212E-02-9.37813E-04-1.69629E-01
 -1      3727 3.53592E+00-5.74030E-03 4.37699E-04 3.11246E-02 1.36222E-03-1.93345E-01
 -1      3728 3.96811E+00 3.53557E-04-1.52710E-04 2.43745E-02-8.19782E-04-1.79277E-01
 -1      3729 2.00909E+00 3.00368E-04 5.85876E-03 1.87179E-02 2.80924E-03-3.38688E-01
 -1      3730-4.14729E+00-3.22732E-03-6.64022E-04 2.36730E-02-1.05083E-03-1.79941E-01
 -1      3731-1.99489E+00 3.29131E-03-4.46412E-03 1.99520E-02 1.24796E-04-3.38736E-01
 -1      3732-3.95505E+00 2.69400E-03-4.34523E-04 2.45717E-02 1.32062E-03-1.79676E-01
 -1      3733-3.51874E+00 9.94058E-03 4.44524E-03 3.17313E-02-1.66787E-03-1.96288E-01
 -1      3734 7.27969E+00-5.35425E-04 3.99888E-03 1.04219E-02-9.31225E-04-7.49776E-02
 -1      3735 6.75000E+00 1.68365E-03 2.31937E-03 1.46319E-02-3.60962E-04-1.07414E-01
 -1      3736 6.66150E+00-5.17736E-03 1.79279E-04 1.49038E-02 1.51502E-04-1.06837E-01
 -1      3737 6.05006E+00 5.69351E-03 3.40646E-03 1.82911E-02-1.20987E-03-1.14708E-01
 -1      3738 3.41978E+00-2.39112E-04 8.97483E-04 1.21278E-02-1.66778E-03-1.99274E-01
 -1      3739 5.24705E+00-2.23560E-03 5.59868E-03 2.11535E-02-1.03287E-03-1.54947E-01
 -1      3740 2.73931E+00-8.45599E-04 1.96975E-03 1.84650E-02-4.23262E-04-2.82266E-01
 -1      3741 5.40549E+00 5.59737E-04 1.91162E-03 2.13534E-02-4.66982E-04-1.54007E-01
 -1      3742 4.83717E+00 8.21776E-04 1.34722E-03 2.83179E-02-2.39399E-04-1.64926E-01
 -1      3743-5.24963E+00 1.85598E-03-4.02425E-03 2.07762E-02 1.12393E-03-1.56791E-01
 -1      3744-2.75133E+00-1.38047E-03-3.99764E-03 1.88786E-02-8.08587E-04-2.83836E-01
 -1      3745 8.12357E+00 1.97753E-03 2.95263E-03-9.90197E-04-5.38294E-04-8.49701E-02
 -1      3746 4.40888E+00-2.05719E-03 3.92511E-03 2.23248E-03 7.59722E-05-1.65343E-01
 -1      3747 8.02672E+00 2.58278E-04 3.95544E-03-2.13578E-03 4.69194E-04-8.77489E-02
 -1      3748 6.82687E+00-3.69193E-03 1.11005E-03 5.52583E-03-8.00328E-04-9.59499E-02
 -1      3749-5.41724E+00-3.08703E-03-3.16692E-03 2.11825E-02 2.67299E-04-1.54697E-01
 -1      3750-4.84058E+00-3.20870E-04-1.28516E-03 2.70651E-02 2.25754E-04-1.63856E-01
 -1      3751-7.27854E+00 4.30195E-04-4.09857E-03 1.04640E-02 9.11452E-04-7.49874E-02
 -1      3752-3.73823E+00-5.48666E-04-5.07116E-03 8.87782E-03 1.89063E-05-1.32619E-01
 -1      3753-7.35885E+00-1.69466E-03-3.32104E-03 9.86288E-03 4.26060E-04-7.23392E-02
 -1      3754-6.58833E+00-7.46207E-05-2.79900E-03 1.26680E-02 3.46219E-04-7.62944E-02
 -1      3755-7.41367E+00-3.45021E-03-3.30093E-03 9.62433E-03 1.01751E-03-6.29683E-02
 -1      3756-5.51833E+00-7.54071E-03-3.78581E-03 2.06361E-02 1.92385E-03-1.44051E-01
 -1      3757 5.55742E+00 3.04708E-03-4.23608E-04 1.82863E-02 1.37959E-04-1.49806E-01
 -1      3758-6.63366E+00 1.16085E-03-3.31776E-03 1.54605E-02 1.29450E-03-1.09718E-01
 -1      3759-3.43413E+00-1.75657E-03-2.72982E-03 1.23690E-02 1.05295E-03-1.99010E-01
 -1      3760-8.03465E+00-1.25789E-03-4.06148E-03-2.10051E-03-3.39459E-04-8.89329E-02
 -1      3761-8.10916E+00-5.48970E-03-5.46421E-03-1.79840E-03-7.31378E-04-7.83388E-02
 -1      3762-6.84936E+00 3.21863E-03-1.93658E-03 5.66739E-03 6.75286E-04-9.53105E-02
 -1      3763-4.43096E+00 3.64718E-04-5.85544E-03 2.31851E-03 4.92843E-04-1.66011E-01
 -1      3764 7.38222E+00 2.86461E-03 2.64488E-03-1.95086E-03-1.56278E-04-1.16912E-01
 -1      3765 7.24607E+00-1.93727E-03 1.05258E-03-1.62822E-03 1.33407E-03-1.18089E-01
 -1      3766 4.00788E+00-1.29824E-03 3.94163E-03 2.68891E-03 4.54052E-04-2.26413E-01
 -1      3767 6.13195E+00-7.05940E-03-1.63144E-03 6.55066E-03-1.09880E-03-1.31828E-01
 -1      3768-6.75587E+00-2.92153E-03-2.69557E-03 1.40842E-02 1.72029E-04-1.06850E-01
 -1      3769-6.05986E+00-5.89526E-03-4.37634E-03 1.86325E-02 1.38968E-03-1.15341E-01
 -1      3770-7.10089E+00 6.11044E-03-1.10788E-03-2.81059E-03 5.63715E-04-1.24891E-01
 -1      3771-6.15166E+00 3.22929E-04-3.67956E-03 7.51769E-03 5.42983E-04-1.28408E-01
 -1      3772-7.35167E+00-2.15512E-03-2.26790E-03-1.48737E-03 2.80144E-04-1.19744E-01
 -1      3773-3.97931E+00 2.10162E-04-3.72880E-03 2.07367E-03-1.53785E-03-2.25286E-01
 -1      3774 1.53664E+00 6.01300E-03-1.03979E-02 2.08634E-02-5.94174E-03-3.21944E-01
 -1      3775 1.49240E+00-3.78726E-03 1.33389E-02 2.73329E-02 3.21153E-03-3.27502E-01
 -1      3776-7.21120E+00 1.77676E-03-1.01676E-03-2.05364E-03-8.63125E-04-1.20411E-01
 -1      3777 3.36326E+00 2.23615E-03-5.65221E-03 8.45282E-03 4.66977E-04-1.89040E-01
 -1      3778 2.19266E+00 4.12224E-03-4.12326E-03 5.05558E-03 6.81879E-03-3.50960E-01
 -1      3779 3.79884E+00 4.59119E-03-2.46304E-03-1.71615E-03 1.85831E-03-1.85052E-01
 -1      3780 3.68517E+00-4.83726E-05 5.71180E-03 4.04183E-03-4.61323E-04-1.72781E-01
 -1      3781 2.49882E+00 2.79065E-03 3.14892E-03 2.87156E-03-2.28582E-03-3.31753E-01
 -1      3782-6.86612E+00-5.76589E-04-2.55551E-03-2.68974E-03 2.43565E-03-1.32184E-01
 -1      3783-3.69607E+00 4.01653E-03-1.87761E-03 4.33034E-03 3.47547E-04-2.54695E-01
 -1      3784-1.21116E+00-9.20435E-03-2.95191E-03-8.60740E-04-1.74093E-03-2.04759E-01
 -1      3785-6.71420E+00-5.26422E-04-4.39173E-03-3.36415E-03-7.41770E-04-1.34570E-01
 -1      3786-5.68650E+00 4.48728E-03 1.77938E-03 8.72494E-03 1.03051E-03-1.47316E-01
 -1      3787 7.65810E+00 1.82357E-02-2.36067E-02 1.93788E-02-1.78977E-02 6.28027E-02
 -1      3788 7.12790E+00 1.96567E-02 2.78174E-03 3.00178E-02-1.54934E-02-4.68456E-02
 -1      3789-7.69838E+00-3.01107E-01-1.15901E-02-9.50060E-02 4.97772E-02-5.86338E-02
 -1      3790-4.42670E+00-1.05225E-01 7.62454E-02 1.29247E-03 1.08134E-01 3.03136E-03
 -1      3791-7.68505E+00-8.32985E-02 2.76850E-02-1.93592E-02 2.33148E-02 9.33873E-02
 -1      3792-7.08043E+00-7.57384E-02 8.03748E-03-1.66991E-02 2.94274E-02-3.13722E-02
 -1      3793-3.94483E+00-1.91425E-02 3.98455E-03 3.23937E-02 4.60098E-02 2.82941E-02
 -1      3794 5.91239E+00-1.90391E-03 6.58375E-03 2.23947E-02-7.97822E-04-1.19499E-01
 -1      3795 3.51571E+00-2.73778E-03 8.20739E-03 1.26374E-02 2.93624E-03-2.23164E-01
 -1      3796 6.38127E+00-3.17839E-03 5.19230E-03 1.64671E-02 4.72454E-05-1.18008E-01
 -1      3797 6.07175E+00 6.46971E-04 7.65316E-04 2.53273E-02-3.87010E-04-1.20734E-01
 -1      3798 3.68773E+00-1.49646E-03 1.31165E-03 1.28863E-02-1.66955E-03-2.22865E-01
 -1      3799-5.90980E+00 1.70231E-03-6.57458E-03 2.22753E-02 1.03443E-03-1.19747E-01
 -1      3800-3.48289E+00 3.45503E-03-8.01277E-03 1.23230E-02-3.49638E-03-2.24630E-01
 -1      3801-6.34882E+00 3.23829E-03-5.26929E-03 1.61414E-02-7.20912E-04-1.19724E-01
 -1      3802-6.06745E+00-1.36949E-04 4.33668E-05 2.50749E-02 5.80573E-04-1.19855E-01
 -1      3803-3.65452E+00 1.29768E-03-3.52111E-03 1.32081E-02 1.49034E-03-2.24453E-01
 -1      3804 1.25480E+00 1.72849E-03-2.25078E-03-2.78920E-03-2.36312E-03-1.98962E-01
 -1      3805-2.97518E+00-3.35177E-03-5.20818E-03 3.15859E-02-2.59795E-04-2.09518E-01
 -1      3806-1.68646E+00 3.59292E-03-1.46812E-03 1.83432E-02-1.50359E-03-3.59235E-01
 -1      3807-3.33139E+00-2.46740E-03-5.67329E-03 2.63177E-02-1.06545E-03-1.86936E-01
 -1      3808-3.06327E+00 5.95594E-03 5.11082E-03 3.47597E-02 3.19875E-03-1.80901E-01
 -1      3809-1.82869E+00-5.78197E-04-1.71476E-03 1.93762E-02 2.02603E-03-3.42167E-01
 -1      3810-1.49411E+00-6.69548E-03-2.97568E-03 3.03730E-02-2.53169E-03-3.51105E-01
 -1      3811 2.97489E+00 3.46458E-03 2.73471E-03 3.15877E-02-5.45775E-04-2.08948E-01
 -1      3812 1.68499E+00-3.98700E-03 1.86473E-04 1.88844E-02 1.94892E-04-3.59523E-01
 -1      3813 3.33229E+00 2.50193E-03 5.18801E-03 2.64031E-02 7.69148E-04-1.87199E-01
 -1      3814 3.06349E+00-6.25426E-03-5.25307E-03 3.46328E-02-3.29143E-03-1.80902E-01
 -1      3815 1.82874E+00 6.81294E-04 2.04586E-03 1.91847E-02-2.04340E-03-3.42274E-01
 -1      3816 1.49563E+00 7.50712E-03 3.56369E-03 3.03395E-02 2.52242E-03-3.51758E-01
 -1      3817-4.51803E+00 2.90033E-03-9.02130E-03 3.13177E-02-1.01483E-04-1.61502E-01
 -1      3818-8.62131E-01-4.39209E-03-1.15231E-02 1.22543E-02 2.33027E-03-3.53246E-01
 -1      3819-9.46915E-01 4.38549E-03 7.55039E-03 1.17843E-02 1.09345E-04-3.45041E-01
 -1      3820-2.57586E+00-9.60891E-04-5.65894E-03 1.73505E-02 9.47858E-04-3.03980E-01
 -1      3821-2.66313E+00 2.56830E-03-8.87024E-03 1.78799E-02-3.95457E-03-3.03202E-01
 -1      3822 7.73618E+00 1.52479E-02-2.87703E-03 1.33339E-02-6.74428E-03-3.60040E-03
 -1      3823 4.05574E+00-1.53098E-03-1.56836E-02 3.04432E-02-2.92088E-02-3.14864E-02
 -1      3824 4.97509E+00 9.66222E-04 5.78567E-03 3.00315E-03 5.06617E-04-1.66100E-01
 -1      3825 7.37392E+00-3.31045E-03 1.58914E-04 4.21874E-03 1.74661E-03-9.15960E-02
 -1      3826 3.80537E+00 5.75831E-03 7.89136E-03 7.10906E-03 1.18873E-03-1.69963E-01
 -1      3827 4.00449E+00 1.54711E-04 2.05394E-03 1.07975E-02-3.85936E-04-1.78895E-01
 -1      3828 6.65423E+00 3.55689E-03 5.63875E-03 1.87370E-02-3.46213E-04-9.24639E-02
 -1      3829 3.28697E+00-4.90363E-03 5.90159E-04 1.53786E-02-1.17818E-03-1.83908E-01
 -1      3830-2.88551E-01-4.17712E-03-1.01394E-02 1.44361E-02 3.03176E-05-4.27323E-01
 -1      3831-3.93703E-01-5.55612E-04 8.02572E-03 1.58265E-02 1.49049E-03-4.24362E-01
 -1      3832 1.61590E+00 2.22789E-03-4.03727E-03 3.06540E-02-4.41509E-04-2.03057E-01
 -1      3833 1.78881E+00-4.33331E-03 2.03247E-03 2.64621E-02-1.05509E-04-2.04732E-01
 -1      3834-7.04039E+00-6.13862E-04-7.72788E-04 1.09442E-02 2.19406E-04-5.44679E-02
 -1      3835-7.08379E+00 1.64813E-03-5.02455E-03 1.07914E-02 4.61807E-04-4.46027E-02
 -1      3836-1.43115E+00-1.09890E-03-4.55754E-03 4.21231E-03 1.55283E-03-1.04584E-01
 -1      3837-4.10761E+00-1.79559E-03-2.47499E-03 5.85401E-03 2.59653E-03-9.75144E-02
 -1      3838-1.46124E+00 1.28397E-03 5.54562E-04 4.28422E-03 2.23467E-03-9.12101E-02
 -1      3839 3.93760E+00-4.86330E-03 8.41505E-04-2.27726E-03 3.45022E-03-1.79778E-01
 -1      3840 4.13892E+00-8.23501E-04 4.88748E-03-3.15613E-03-9.13729E-04-1.77979E-01
 -1      3841 3.88284E+00 2.98375E-03 2.16253E-04 5.62601E-03 1.03784E-03-1.72909E-01
 -1      3842 2.63676E+00-5.45880E-05 4.84569E-03 5.65482E-03-1.26504E-03-3.35473E-01
 -1      3843 3.01402E+00 4.83375E-03-3.71974E-04 2.71636E-02-1.66818E-03-1.88075E-01
 -1      3844 3.14155E+00 4.79925E-03 3.11528E-04 2.85503E-02-3.62327E-04-1.80672E-01
 -1      3845 1.72672E+00-2.09327E-03 4.31327E-03 1.75470E-02-2.09065E-03-3.55022E-01
 -1      3846 2.88995E+00-4.08974E-03 2.01699E-04 3.57231E-02-9.43704E-05-1.79945E-01
 -1      3847-3.14133E+00-4.77225E-03-2.68197E-04 2.85568E-02 2.49174E-04-1.80530E-01
 -1      3848-2.88999E+00 3.99069E-03-1.33877E-04 3.59694E-02 2.51486E-04-1.79778E-01
 -1      3849-3.01400E+00-4.92948E-03 3.60481E-04 2.71844E-02 1.72579E-03-1.87953E-01
 -1      3850-1.72689E+00 2.17532E-03-4.37971E-03 1.75776E-02 2.26300E-03-3.54910E-01
 -1      3851 6.91903E+00-5.26164E-04 4.37386E-03 1.32097E-02 2.47498E-04-9.50016E-02
 -1      3852 6.81805E+00-1.65967E-03 2.45508E-03 1.36085E-02-2.66071E-03-9.76962E-02
 -1      3853 4.06477E+00 2.63506E-04 5.67660E-03 8.68720E-03 3.83176E-04-1.75342E-01
 -1      3854 6.75051E+00 2.32042E-03 2.80914E-03 1.90782E-02-5.81582E-04-8.95918E-02
 -1      3855 7.92941E+00 2.95065E-03 2.48815E-03-2.15372E-03 2.97324E-04-8.57474E-02
 -1      3856 7.85470E+00 2.55071E-03 1.35088E-03-2.05331E-03 1.30212E-03-9.36334E-02
 -1      3857 4.91299E+00-7.14830E-05 4.83893E-03 2.61904E-03 1.44234E-03-1.78567E-01
 -1      3858 7.28282E+00-1.38829E-03 2.25763E-03 3.69702E-03 2.50308E-04-9.15326E-02
 -1      3859-4.98027E+00-6.03776E-04-5.13517E-03 2.16685E-03-5.27029E-04-1.66746E-01
 -1      3860-7.38276E+00 3.33624E-03 4.05692E-05 4.99238E-03-2.08331E-03-9.07980E-02
 -1      3861-3.82551E+00-5.88660E-03-8.30919E-03 6.97334E-03-6.86893E-04-1.69596E-01
 -1      3862-4.00214E+00 2.39271E-04-1.23243E-03 9.98098E-03 5.69621E-04-1.77358E-01
 -1      3863-6.65213E+00-3.22518E-03-5.20593E-03 1.95470E-02 6.09668E-04-9.39271E-02
 -1      3864-3.29245E+00 4.64064E-03-1.29218E-03 1.51776E-02 6.17119E-04-1.83885E-01
 -1      3865-7.93467E+00-2.34692E-03-2.22891E-03-2.73614E-03-2.27988E-04-8.64555E-02
 -1      3866-7.29173E+00 1.37425E-03-2.17533E-03 3.76851E-03-1.64194E-04-9.13615E-02
 -1      3867-6.81909E+00 1.57436E-03-2.15012E-03 1.44501E-02 2.59683E-03-9.89060E-02
 -1      3868-4.06329E+00-1.63340E-04-5.59601E-03 8.50205E-03-5.16009E-04-1.75005E-01
 -1      3869-4.12238E+00-6.52255E-04-4.70144E-03 3.42664E-03-1.37487E-03-2.49126E-01
 -1      3870-6.08663E+00 4.52676E-03 2.27718E-03 6.14811E-03-2.66830E-03-1.36181E-01
 -1      3871-3.13860E+00-7.36212E-03-6.76239E-03 8.53602E-03 1.69251E-03-2.56281E-01
 -1      3872-6.43115E+00-3.71179E-03-9.15850E-04-2.96728E-03-1.72373E-03-1.38992E-01
 -1      3873-6.56404E+00-4.65355E-03-2.18543E-03-3.04193E-03-4.11251E-04-1.29527E-01
 -1      3874-5.94581E+00 2.68324E-03-1.39382E-03 6.35377E-03-5.82135E-04-1.34120E-01
 -1      3875-4.00872E+00 1.30579E-03-5.35839E-03 3.56087E-03-1.92639E-03-2.64153E-01
 -1      3876-7.85920E+00-2.61982E-03-1.50540E-03-1.93821E-03-1.33605E-03-9.38289E-02
 -1      3877-4.91810E+00 6.99667E-05-4.92922E-03 2.61820E-03-1.35738E-03-1.78540E-01
 -1      3878 3.71669E+00-7.73622E-04 2.29592E-03 5.04582E-03 2.93940E-04-2.58668E-01
 -1      3879 5.70521E+00 2.13294E-03 3.62173E-03 9.43382E-03 1.77359E-04-1.50317E-01
 -1      3880 6.72209E+00 3.37536E-05 3.95143E-03-1.30137E-03-2.37941E-04-1.33304E-01
 -1      3881 4.14068E+00-8.46438E-04 5.20137E-03 1.41594E-03 2.41704E-03-2.46798E-01
 -1      3882 6.09356E+00-2.38751E-03-1.19094E-03 3.54167E-03 1.37299E-03-1.32124E-01
 -1      3883 3.13191E+00 5.36032E-03 4.66797E-03 9.88933E-03-2.45815E-03-2.58821E-01
 -1      3884 6.30672E+00 3.70928E-03 2.41707E-03 1.60108E-02 1.68100E-03-1.21673E-01
 -1      3885 3.60942E+00-3.95221E-04 2.01532E-03 9.86730E-03-8.67827E-04-2.36405E-01
 -1      3886 7.22826E+00 2.54538E-04 5.21367E-04 7.61531E-03 7.83090E-04-5.09297E-02
 -1      3887 4.53956E+00 7.66625E-04 1.20982E-02 2.57792E-02-2.91746E-03-1.60958E-01
 -1      3888 4.45112E+00 2.86410E-03-3.22463E-03 2.22196E-02 1.91750E-03-1.65328E-01
 -1      3889 6.18246E+00 9.70395E-04-9.41787E-04 1.78785E-02-8.67141E-04-1.23014E-01
 -1      3890 5.94719E+00-2.01456E-03 5.06374E-03 2.58475E-02 9.22640E-04-1.23426E-01
 -1      3891-6.26376E+00-3.62804E-03-2.99580E-03 1.60710E-02-1.90967E-03-1.23479E-01
 -1      3892-3.56569E+00-1.81298E-05-2.48580E-03 1.09440E-02 1.65395E-03-2.37355E-01
 -1      3893 6.43758E+00 1.36238E-03-1.02348E-04-2.40811E-03 1.87288E-03-1.37594E-01
 -1      3894 6.59167E+00 3.32289E-03 3.20585E-03-2.44963E-03-2.52359E-03-1.35990E-01
 -1      3895 4.01777E+00-1.05446E-03 3.55674E-03 4.25710E-03 2.81716E-03-2.62129E-01
 -1      3896 5.94537E+00-2.29838E-03 2.18434E-03 5.25836E-03 7.37395E-04-1.35225E-01
 -1      3897-6.91988E+00 1.32334E-04-4.42461E-03 1.32243E-02-2.87462E-04-9.47649E-02
 -1      3898-6.74863E+00-2.38562E-03-2.72971E-03 1.92119E-02 5.11041E-04-8.95569E-02
 -1      3899-1.88862E-01 6.54942E-03-1.30062E-04 2.00484E-02 8.70823E-05-3.68117E-01
 -1      3900 5.31079E-01 3.96214E-03 1.41008E-03 1.11688E-02 2.31553E-03-4.07015E-01
 -1      3901 2.94467E+00 2.62642E-03 1.35629E-03 2.65781E-02 9.05878E-05-2.03536E-01
 -1      3902-5.31547E-01-2.93584E-03-3.97274E-04 1.13485E-02-3.03614E-03-4.06340E-01
 -1      3903-1.54130E+00 5.88291E-03 5.20443E-05 2.36769E-02 7.74803E-03-3.45617E-01
 -1      3904-2.94561E+00-2.23947E-03-2.30883E-03 2.66238E-02-5.35490E-05-2.03122E-01
 -1      3905 7.27438E+00-1.38414E-03 5.05411E-03 7.46897E-03-1.84097E-03-4.38506E-02
 -1      3906-5.32596E+00-3.10145E-04-4.97351E-03 1.01607E-03-9.40065E-04-1.61751E-01
 -1      3907-5.53213E+00-4.29495E-03-4.33428E-03-3.89157E-03-4.65753E-04-1.61354E-01
 -1      3908-4.79533E+00 2.29998E-04-3.63924E-03 9.17746E-03 3.47255E-04-1.71278E-01
 -1      3909-3.11926E+00-9.50809E-05-3.62598E-03 4.81074E-03 2.61371E-03-3.02083E-01
 -1      3910-4.61578E+00 5.05575E-03-6.87507E-03 8.71667E-03 1.20156E-03-1.71110E-01
 -1      3911 2.77227E+00-2.57383E-03 8.51472E-04 7.41512E-03 1.79779E-03-3.28043E-01
 -1      3912 3.02631E+00 5.21745E-04 5.46694E-03 2.84747E-03-1.41570E-03-3.12102E-01
 -1      3913-7.22952E+00-3.12772E-04-3.51428E-03 5.53165E-03-3.12712E-04-5.54893E-02
 -1      3914-4.21130E+00-8.56713E-04-4.56179E-03 4.07898E-03 1.75190E-05-1.04817E-01
 -1      3915 3.49085E+00 3.53089E-03 6.53557E-03 5.60034E-03-1.85348E-03-2.88735E-01
 -1      3916 3.67025E+00-1.09582E-03-1.03688E-03 1.04535E-03 2.27943E-03-2.82195E-01
 -1      3917-2.74549E+00 4.97362E-03-1.70660E-03 1.76535E-02-4.95819E-03-2.50300E-01
 -1      3918-5.49842E+00-6.28053E-04-2.74336E-03 1.63639E-02 1.12875E-03-1.44273E-01
 -1      3919 4.22336E+00 1.33363E-03 1.11822E-03 6.99954E-03 1.49710E-03-1.78292E-01
 -1      3920 4.48876E+00-1.42420E-03 5.15056E-03 7.69998E-03-4.09475E-04-1.60748E-01
 -1      3921 2.73608E+00-4.91374E-03 2.56465E-03 1.63025E-02 4.53209E-03-2.51390E-01
 -1      3922 5.49875E+00 1.68724E-03 1.78884E-03 1.77844E-02-1.92976E-04-1.48133E-01
 -1      3923 5.25850E+00-9.51456E-04 3.59909E-03 5.19275E-03-1.30860E-03-1.54142E-01
 -1      3924 5.42827E+00 9.10879E-04-4.81406E-03 4.10999E-03 5.58672E-04-1.41414E-01
 -1      3925-6.13999E+00-1.17851E-03 6.26985E-04 1.78964E-02 9.03368E-04-1.24651E-01
 -1      3926-5.94418E+00 1.73595E-03-3.46432E-03 2.50339E-02-8.90816E-04-1.22469E-01
 -1      3927 2.70590E-02-4.78781E-03 2.91417E-03 1.61202E-02-2.06066E-03-2.69668E-01
 -1      3928-1.61120E+00-5.04678E-03-2.67418E-03 9.22006E-03 1.10908E-03-2.96636E-01
 -1      3929-2.18257E+00-1.15814E-03-2.08053E-03 3.58266E-03-5.79835E-04-1.15344E-01
 -1      3930-4.20283E+00-4.60951E-04-4.84220E-03 1.85183E-02-8.81418E-05-1.83761E-01
 -1      3931-2.36608E+00-1.40529E-03 3.54709E-04 1.34280E-02 2.10602E-03-3.18505E-01
 -1      3932-3.32830E-02 5.43308E-03-1.38252E-03 1.74053E-02 1.16864E-03-2.67798E-01
 -1      3933 1.61897E+00 3.50860E-03 1.67374E-03 1.08440E-02-1.31933E-03-2.97375E-01
 -1      3934-7.71134E+00-3.99815E-02 3.20100E-02-1.89657E-02 1.75707E-02 2.77810E-02
 -1      3935-3.96511E+00-3.64952E-03 1.77001E-02 3.53079E-02 3.11580E-02-3.14217E-02
 -1      3936-6.95357E-01 4.13234E-03-6.91472E-03 2.43905E-02 3.18794E-03-2.00472E-01
 -1      3937-4.78676E-01-1.56535E-03-9.39492E-03 2.34998E-02-2.29046E-03-3.89656E-01
 -1      3938-7.69753E+00-8.67056E-03 9.91505E-03 2.58026E-02 8.88386E-03 9.74800E-03
 -1      3939-7.03812E+00-8.72220E-03-2.07651E-03 2.93102E-02 1.67341E-02-4.21527E-02
 -1      3940 5.13848E+00-4.73135E-03 3.53785E-03-9.61148E-03 1.58873E-02-4.87884E-02
 -1      3941 5.32841E+00-6.10357E-04 2.87667E-03-3.56303E-03 5.62834E-03-5.75077E-02
 -1      3942-9.20944E-01-1.45403E-03-4.02460E-03 2.85189E-02-4.35829E-04-2.07754E-01
 -1      3943-8.16676E-01 4.95632E-03-1.54753E-03 3.49361E-02-1.65177E-03-2.23060E-01
 -1      3944-2.50109E+00 1.35832E-03-1.89461E-03 4.82190E-03-2.40879E-05-1.99535E-01
 -1      3945-1.94633E+00-1.08347E-03 4.33218E-04 6.02457E-03-1.76279E-04-1.92692E-01
 -1      3946 3.22300E-01-2.75096E-03 1.86604E-03 1.02381E-02-3.30139E-03-1.75937E-01
 -1      3947 1.62345E+00-2.55112E-03 1.07825E-03 6.44939E-03-8.45244E-04-1.96204E-01
 -1      3948-2.41299E-01 2.04511E-03 3.44066E-03 1.03188E-02-4.68604E-04-1.88695E-01
 -1      3949-2.31540E+00 8.43702E-04-2.27180E-03 2.47922E-02 1.03565E-03-1.89920E-01
 -1      3950 2.31447E+00-6.11870E-04 1.96376E-03 2.44455E-02-7.54055E-04-1.89653E-01
 -1      3951-2.49236E+00-2.23689E-03-3.45485E-03 4.63805E-03-8.96726E-05-2.09438E-01
 -1      3952-8.12967E-01-3.23708E-03 8.85403E-04 1.14845E-02 2.02523E-03-1.96564E-01
 -1      3953 1.04798E+00-1.43450E-03 3.54030E-03 6.75998E-03-9.29547E-04-2.19888E-01
 -1      3954 1.62784E+00 8.67474E-04 1.61440E-03 6.35835E-03-6.37465E-04-2.06337E-01
 -1      3955-1.62650E+00-9.51787E-04-1.40608E-03 6.28103E-03 5.60642E-04-2.06209E-01
 -1      3956-1.05405E+00 1.36185E-03-4.65235E-03 6.57371E-03 9.48081E-04-2.19805E-01
 -1      3957 8.01666E-01 3.33222E-03-7.90883E-04 1.14923E-02-2.08781E-03-1.96466E-01
 -1      3958 2.48725E+00 2.25186E-03 3.24020E-03 4.73701E-03 2.29953E-04-2.09535E-01
 -1      3959 2.37487E-01-1.89883E-03-3.27238E-03 1.03036E-02 4.66113E-04-1.88694E-01
 -1      3960 6.63578E+00-1.33638E-03 3.45612E-03 1.08436E-02 6.60136E-04-9.36568E-02
 -1      3961 3.56756E+00 1.96604E-03 5.20937E-03 1.08087E-02 8.82404E-04-1.61425E-01
 -1      3962 6.95708E+00 2.27422E-03 1.84777E-03 1.47692E-02-1.11615E-03-8.73662E-02
 -1      3963 7.17795E+00 1.99680E-03 1.98812E-03 8.54710E-03-1.04946E-03-8.97977E-02
 -1      3964 4.11807E+00 1.08560E-05 4.21658E-03 1.16686E-02-2.39138E-03-1.67098E-01
 -1      3965 6.85105E+00-4.41740E-04 3.03734E-03 1.65984E-02-1.64031E-03-8.87149E-02
 -1      3966 6.24267E+00 1.90304E-03 1.29631E-03 1.54654E-02 2.28623E-04-1.08935E-01
 -1      3967 7.07092E+00-1.97473E-04 3.93597E-03 1.05666E-02 6.80338E-05-9.11089E-02
 -1      3968 3.52239E+00-8.96114E-04 4.10458E-03 1.27105E-02 7.41016E-04-1.80286E-01
 -1      3969-1.62203E+00 2.56091E-03-1.12055E-03 6.42047E-03 7.42040E-04-1.96120E-01
 -1      3970-3.35619E-01 2.83644E-03-1.83080E-03 1.02530E-02 3.35870E-03-1.75808E-01
 -1      3971 1.93185E+00 1.16856E-03-1.33518E-03 6.21600E-03 9.35739E-05-1.92833E-01
 -1      3972 2.49591E+00-1.44421E-03 1.99391E-03 4.93567E-03 1.05941E-04-1.99658E-01
 -1      3973 7.79632E+00-2.33002E-03 4.24299E-04-1.73280E-02 1.68156E-02-3.33179E-02
 -1      3974 7.98719E+00-1.85891E-03 2.19847E-03-7.27753E-03 3.83434E-03-3.63898E-02
 -1      3975-6.25058E+00-3.05100E-03-1.92783E-03 1.57112E-02-2.09097E-04-1.08680E-01
 -1      3976-3.53387E+00 9.10312E-04-4.25065E-03 1.29036E-02-7.91585E-04-1.80126E-01
 -1      3977-7.07782E+00 2.26872E-05-3.91528E-03 1.05447E-02 7.39526E-05-9.08511E-02
 -1      3978-6.85146E+00 7.04233E-04-3.02435E-03 1.65102E-02 1.58254E-03-8.87628E-02
 -1      3979-4.12200E+00 2.25653E-04-4.06760E-03 1.16833E-02 2.39705E-03-1.66961E-01
 -1      3980 1.83596E+00-6.92451E-03-1.03414E-02 5.54189E-03 1.47645E-03-3.42300E-01
 -1      3981 5.39018E-01 6.76080E-03 1.35495E-02 9.34624E-03-1.37844E-03-4.26186E-01
 -1      3982 1.67055E+00-2.84842E-03-1.08899E-02 1.99429E-02-5.86148E-03-1.97560E-01
 -1      3983 7.96952E-01-5.88664E-03-1.89475E-03 2.45024E-02-3.86284E-03-3.57600E-01
 -1      3984-7.18581E+00-1.81567E-03-2.01814E-03 8.49859E-03 1.07787E-03-8.95327E-02
 -1      3985-6.65279E+00 3.36381E-04-3.79311E-03 1.08846E-02-6.60736E-04-9.32793E-02
 -1      3986-6.95838E+00-2.36762E-03-1.78353E-03 1.47122E-02 9.74298E-04-8.73823E-02
 -1      3987-3.58096E+00-1.92692E-03-5.29958E-03 1.09871E-02-8.09042E-04-1.61195E-01
 -1      3988-1.06153E+00-7.17447E-03-2.33754E-03 2.85814E-02 1.20249E-03-2.02532E-01
 -1      3989-7.72375E+00-2.88965E-03 2.10096E-03 1.75217E-02 2.96538E-03-2.03454E-02
 -1      3990-1.60539E+00-5.38450E-04-2.44839E-03-1.92970E-03-2.50802E-03-2.03804E-01
 -1      3991 2.59659E+00 1.94633E-03 5.96275E-03 2.29609E-03 8.91163E-04-1.05769E-01
 -1      3992-8.53987E+00 1.73277E-03-1.63245E-03-1.36474E-03-6.28508E-04-5.59282E-02
 -1      3993-4.81105E+00-5.36756E-04-6.44595E-03 1.33988E-03-3.14616E-04-1.04838E-01
 -1      3994-8.48318E+00-1.28204E-04-1.89225E-03-7.52138E-04-1.15610E-03-5.84488E-02
 -1      3995-7.37001E+00 2.12667E-04-3.15023E-03 1.91276E-03 4.89236E-04-5.72592E-02
 -1      3996-2.41469E+00-1.07475E-02-3.23498E-03-3.30020E-03-3.04661E-03-1.93385E-01
 -1      3997-1.23003E+00-3.91971E-03-2.96416E-03 1.23866E-02 9.24930E-04-3.64670E-01
 -1      3998 1.20193E-01-5.84956E-04 1.93545E-04 2.47564E-02 3.61728E-03-3.97391E-01
 -1      3999 7.67963E+00 1.49022E-04 7.31734E-04 5.15745E-03-1.25575E-03-5.13351E-02
 -1      4000-4.85182E+00-6.44433E-04 4.90038E-04-1.62890E-03-1.28570E-03-1.69729E-01
 -1      4001-2.72597E+00-2.18759E-04-5.02099E-03 5.87429E-03 1.78350E-03-3.25003E-01
 -1      4002-4.21346E+00 3.16821E-04-6.97438E-04 7.36156E-03 3.05493E-03-1.83423E-01
 -1      4003-4.49856E+00-2.17114E-03-4.52096E-03 6.64866E-03-1.43057E-03-1.63263E-01
 -1      4004-3.02995E+00-1.14756E-03-3.30934E-03 3.83379E-03-3.83661E-03-3.18244E-01
 -1      4005-8.73154E+00 8.43174E-04-1.50573E-03-6.63553E-03-1.36381E-03-3.66271E-02
 -1      4006-1.83749E+00 2.62931E-03 1.24182E-03 4.38399E-03-5.46315E-04-1.10555E-01
 -1      4007-3.16420E+00-6.47161E-01-3.74626E-01-1.82132E-02 9.61298E-02-9.13306E-02
 -1      4008-3.85976E+00-5.01763E-03-4.19185E-03 1.94534E-02 1.52101E-03-1.70813E-01
 -1      4009-2.21264E+00-2.62223E-03-5.20105E-03 1.59659E-02-1.47543E-03-3.32105E-01
 -1      4010-3.77873E+00 5.73362E-03 4.30346E-05 2.18620E-02-1.21542E-03-1.83250E-01
 -1      4011-3.72346E+00-1.21962E-03-1.04706E-03 2.96223E-02-2.51165E-04-1.69938E-01
 -1      4012-2.07860E+00-3.90418E-04-7.23427E-03 2.13299E-02-1.58124E-03-3.18409E-01
 -1      4013-2.16054E+00 7.22729E-04-2.26589E-03 2.08328E-02 2.47393E-03-3.15260E-01
 -1      4014 2.13216E-01-4.75860E-03 1.43096E-02 1.95838E-02 7.78671E-04-3.76470E-01
 -1      4015 3.89726E-01-2.24526E-03 1.69592E-02 2.15480E-02 3.11485E-03-3.55802E-01
 -1      4016 6.42186E-01-7.61245E-03-6.33950E-03 3.21651E-02 1.78084E-03-3.77258E-01
 -1      4017-6.41430E-01 8.20386E-03 7.85102E-03 3.29599E-02-1.76957E-03-3.75779E-01
 -1      4018-1.01086E+00 5.85722E-03 1.20036E-02 1.45059E-02 4.10181E-04-3.36569E-01
 -1      4019 1.32636E+00-6.75232E-03-5.33947E-03 1.03149E-02-1.28934E-03-2.76525E-01
 -1      4020-1.33075E+00 5.73459E-03 4.40232E-03 1.05520E-02 1.14881E-03-2.77777E-01
 -1      4021-5.03116E+00 5.59946E-03 2.32043E-03-7.74436E-04-1.74711E-04-1.65017E-01
 -1      4022-4.41152E+00-6.49916E-03-6.74566E-03 8.25900E-03-1.78182E-03-1.86654E-01
 -1      4023-5.33154E+00-9.09948E-04-5.55953E-03 1.46903E-03-2.09960E-03-1.12179E-01
 -1      4024-7.88485E+00-9.91833E-04-4.04813E-03 2.24819E-03-8.64952E-04-5.81141E-02
 -1      4025-1.23444E+00-3.81009E-03-1.57621E-03 1.26870E-02-3.18481E-04-3.80916E-01
 -1      4026-1.33437E+00 1.05580E-03 6.75836E-04 1.02650E-02 4.88932E-04-3.85477E-01
 -1      4027 8.52961E-01-3.93242E-03-2.81126E-04 1.10798E-02-9.92413E-04-3.86089E-01
 -1      4028-1.22746E-01 3.89851E-03 5.90021E-03 1.87354E-02 1.39375E-03-3.58968E-01
 -1      4029-1.30422E-02-5.50161E-03-6.15291E-04 1.87606E-02-5.06078E-03-3.51418E-01
 -1      4030-5.18214E+00-2.27650E-03-8.41626E-04-4.15535E-03 1.10334E-03-1.67289E-01
 -1      4031-2.83195E+00 1.77601E-03-2.57168E-03 6.70168E-03 2.86009E-04-3.20841E-01
 -1      4032 1.38739E+00-1.81533E-03 1.23731E-03 3.15429E-02 3.66952E-04-2.07753E-01
 -1      4033-5.66236E+00-5.73458E-03-3.41180E-03-3.41224E-03-8.78143E-04-1.53995E-01
 -1      4034 7.70844E+00 5.20492E-03 5.05928E-04 2.05287E-02-6.11311E-03-4.76249E-03
 -1      4035-1.31081E+00-2.99884E-03-2.33834E-03 1.03392E-02 4.09014E-04-3.90315E-01
 -1      4036-4.57847E-01-7.98635E-03-3.76067E-03 2.20501E-02 4.87920E-03-3.57938E-01
 -1      4037 5.13157E-01-4.72814E-03 1.74168E-03 1.03042E-02-1.11888E-03-4.00582E-01
 -1      4038 8.60266E-01 2.90641E-03 1.15138E-03 1.24222E-02-9.56469E-04-3.89165E-01
 -1      4039-2.18489E+00-1.56820E-03-6.24935E-03 1.10924E-02-4.93326E-04-1.89412E-01
 -1      4040-1.62027E+00 1.86406E-03 4.00623E-03 9.32913E-03-2.18082E-03-1.76742E-01
 -1      4041 1.94135E+00-3.30623E-05-1.65927E-03 1.29166E-02-5.40792E-04-1.85957E-01
 -1      4042-1.93664E+00 1.70015E-04 1.73330E-03 1.28863E-02 5.86662E-04-1.85878E-01
 -1      4043-1.36860E+00-1.18608E-03-7.42853E-03 1.45703E-02-1.56275E-03-1.93885E-01
 -1      4044 2.18309E+00 1.65849E-03 6.25592E-03 1.11079E-02 4.22929E-04-1.89543E-01
 -1      4045 1.36582E+00 1.30874E-03 7.48032E-03 1.44092E-02 1.70864E-03-1.94059E-01
 -1      4046 1.60906E+00-1.82703E-03-4.05122E-03 9.21543E-03 2.12172E-03-1.76764E-01
 -1      4047 4.10241E-01-4.00693E-04 7.58670E-03 1.91230E-02 4.05322E-03-3.49553E-01
 -1      4048 1.34681E+00-4.17118E-03 2.81527E-03 9.18157E-03 1.24584E-03-3.81846E-01
 -1      4049-6.26404E-01-1.66196E-03 3.07019E-03 1.08619E-02-8.12261E-04-3.86695E-01
 -1      4050-1.83106E+00-9.93951E-03-1.19497E-02 2.80493E-02-3.57945E-04-3.33349E-01
 -1      4051-8.49418E-01 2.57103E-03-3.28121E-03 1.26593E-02-7.51304E-04-3.84321E-01
 -1      4052-4.84235E+00 6.70273E-03-5.76803E-03 2.20851E-02 1.26938E-04-1.61044E-01
 -1      4053 5.20726E+00 3.35471E-03-1.53208E-03-1.29750E-03 8.69049E-04-1.65625E-01
 -1      4054 6.00291E+00-1.34085E-03 3.99962E-03 2.21506E-02-2.77199E-04-1.20587E-01
 -1      4055 3.03447E+00-1.48779E-03 1.00135E-03 1.60167E-02-1.03866E-03-2.36453E-01
 -1      4056 5.64947E+00 2.79422E-03 2.71921E-03 1.71683E-02 1.21923E-03-1.44938E-01
 -1      4057 6.27333E+00-5.02045E-04 4.76844E-03 1.28460E-02 2.18565E-03-1.20290E-01
 -1      4058 3.28532E+00-5.06375E-03-2.08570E-03 1.13749E-02 2.53289E-04-2.46374E-01
 -1      4059-3.26071E-01-1.28385E-04 1.45702E-03 1.93145E-02-3.15232E-03-2.55625E-01
 -1      4060-1.40431E+00-2.28308E-03 4.62309E-04 8.06847E-03 3.15504E-05-2.76720E-01
 -1      4061 1.63610E+00-2.35160E-03 2.16232E-03 1.13402E-02 1.08515E-03-2.87693E-01
 -1      4062 2.23375E+00 2.02914E-03 7.62436E-05 6.61746E-03 1.75875E-03-2.74758E-01
 -1      4063-7.58275E+00-1.18155E-04-7.46917E-04 7.56400E-03 1.03814E-03-5.02137E-02
 -1      4064-3.64698E+00 2.26073E-03 7.31622E-04 1.93897E-02-5.60784E-04-1.69893E-01
 -1      4065-3.52735E+00 3.49547E-03-1.37571E-03 3.02707E-02 1.77427E-03-1.70795E-01
 -1      4066-3.15185E+00-3.53746E-03-4.23681E-03 2.64584E-02 1.54728E-03-2.01931E-01
 -1      4067-1.80640E+00 1.48736E-04 2.59883E-04 2.38038E-02 2.01108E-03-3.32152E-01
 -1      4068-1.85710E+00-9.45774E-04 1.87400E-03 1.98660E-02 2.78845E-03-3.30995E-01
 -1      4069-3.53074E+00 2.40569E-03-2.18246E-03 2.83307E-02 4.68822E-04-1.88205E-01
 -1      4070-2.93476E+00 1.55886E-03-2.19727E-03 3.71372E-03 1.23767E-03-3.14016E-01
 -1      4071 3.91251E+00 4.44539E-03 6.65138E-06 1.90941E-02 1.01908E-03-1.69819E-01
 -1      4072 1.99702E+00 2.53386E-03 3.83387E-03 2.09364E-02-6.61604E-04-3.18889E-01
 -1      4073 3.53984E+00-2.93073E-03 2.13658E-03 2.64571E-02-2.68062E-04-1.87819E-01
 -1      4074 3.73325E+00 2.02559E-03-1.81496E-03 3.00421E-02 6.36028E-04-1.72785E-01
 -1      4075 1.83780E+00 5.56634E-03 4.39684E-03 2.77286E-02 5.58305E-04-3.35659E-01
 -1      4076 3.37912E+00 7.20901E-03 8.35909E-03 3.88769E-02 2.27598E-03-1.73453E-01
 -1      4077 2.04532E+00-6.80493E-04 8.85484E-05 1.59164E-02-8.42618E-05-3.36623E-01
 -1      4078 3.39214E+00 2.71291E-03 7.04638E-03 2.26572E-02 9.84211E-04-1.87350E-01
 -1      4079-2.22378E+00-7.97676E-04-7.66074E-03 1.59505E-02-1.20518E-03-3.27386E-01
 -1      4080-3.72181E+00 4.57315E-03 4.04207E-03 3.66333E-02 1.12552E-03-1.74896E-01
 -1      4081-3.54239E+00 2.83207E-03 3.08440E-03 2.23804E-02 6.54219E-04-1.85362E-01
 -1      4082 7.62346E-01 3.83020E-03 3.73307E-03 1.87572E-02 1.49759E-03-3.81973E-01
 -1      4083 6.89927E-01-4.52146E-04-2.64309E-03 1.87286E-02-2.78813E-03-3.73746E-01
 -1      4084 1.26402E+00-2.06591E-03 1.95666E-03 4.03124E-02 2.54213E-03-2.05588E-01
 -1      4085 1.17608E+00 2.97788E-03-8.67878E-04 3.47770E-02 8.76877E-04-1.92981E-01
 -1      4086 2.13770E+00-1.23768E-04 2.49412E-03 1.53676E-02 6.75102E-04-3.39730E-01
 -1      4087 3.55866E+00 2.18376E-04 2.85879E-03 3.71551E-02 4.39553E-04-1.72981E-01
 -1      4088-2.13105E+00 1.84668E-04-2.88943E-03 1.58005E-02 5.52978E-04-3.38945E-01
 -1      4089-3.54483E+00 8.56309E-04-1.77636E-04 3.73476E-02-2.53085E-05-1.71713E-01
 -1      4090-4.05630E+00-7.76213E-03-5.74981E-03 1.94947E-02 8.26902E-04-1.81868E-01
 -1      4091-1.90569E+00 3.33871E-05 3.00376E-03 2.61471E-02-8.71755E-04-2.17146E-01
 -1      4092 1.90561E+00 5.12609E-04-3.31610E-03 2.60912E-02 5.97469E-04-2.17568E-01
 -1      4093-4.50020E+00 4.27407E-03-2.64725E-03 1.85490E-02 4.14084E-04-1.71451E-01
 -1      4094-1.35506E+00-4.12289E-03-2.16205E-03 2.34895E-02-1.77768E-03-2.18641E-01
 -1      4095 1.26497E+00 1.47599E-03-2.08680E-04 2.44279E-02 1.15407E-03-1.97186E-01
 -1      4096 1.34446E+00-2.35114E-03 5.18605E-03 2.55016E-02 4.58953E-04-2.22451E-01
 -1      4097-6.83231E+00-1.39939E-03-2.22307E-03 6.87032E-03 4.97559E-04-5.81366E-02
 -1      4098 4.32668E+00 1.22900E-03 3.27236E-03 2.49998E-03 5.27742E-04-2.38137E-01
 -1      4099 6.34236E+00 5.71466E-03 8.10962E-03 2.81408E-03-9.67788E-04-1.20951E-01
 -1      4100 6.54842E+00 2.25696E-03 6.32425E-03 2.12551E-04-1.55263E-05-1.30547E-01
 -1      4101 1.37610E+00-1.97727E-03-4.93439E-04 6.40137E-03 1.03330E-03-1.86947E-01
 -1      4102 3.64256E+00 1.43940E-03 2.99953E-03 1.36340E-02 5.14382E-05-1.61359E-01
 -1      4103 4.42220E+00 4.16499E-04 4.55171E-03 3.87668E-03 3.31556E-04-2.34003E-01
 -1      4104 6.47945E+00 1.29139E-03 3.26605E-03 3.22720E-03 4.12856E-04-1.20207E-01
 -1      4105 6.83497E+00 1.37360E-03 3.65085E-03 6.69950E-03-7.30795E-04-5.84872E-02
 -1      4106-6.95781E+00 1.44535E-03-1.39938E-03 8.23476E-03 2.18997E-03-4.21043E-02
 -1      4107-2.31360E+00-6.14908E-04-2.01507E-03 2.70816E-03-1.17296E-03-1.43538E-01
 -1      4108-4.34143E+00 6.85475E-04-4.51569E-03 4.85026E-03-2.53808E-03-1.19192E-01
 -1      4109-3.97961E+00-9.79785E-04-4.53884E-04 2.09956E-02 1.78159E-03-1.82838E-01
 -1      4110-2.38391E+00 3.16498E-03-2.35245E-03 1.27325E-02-5.07059E-03-3.19952E-01
 -1      4111 4.92785E-01 3.54536E-04 4.73415E-05 1.67308E-02-1.83737E-03-4.08523E-01
 -1      4112 1.42712E+00-4.70902E-03 2.72810E-03 3.03068E-02-4.19114E-03-3.46697E-01
 -1      4113 2.61858E+00 1.25044E-03-2.12018E-03 2.71855E-02 5.27710E-03-1.97114E-01
 -1      4114-4.92558E-01 7.61669E-04 6.70903E-04 1.62479E-02 1.74280E-03-4.08697E-01
 -1      4115-1.42720E+00 5.27561E-03-2.48331E-03 3.02927E-02 4.01202E-03-3.46713E-01
 -1      4116-2.61721E+00 5.54526E-05 2.81904E-03 2.69921E-02-4.86048E-03-1.97527E-01
 -1      4117 1.25505E+00-3.75439E-04-2.44489E-04 9.55471E-03-7.38281E-04-3.77420E-01
 -1      4118 2.27828E+00 4.33522E-03 1.96122E-04 1.23653E-02-1.45284E-03-3.24729E-01
 -1      4119-1.24345E+00 2.45136E-03 2.36739E-03 9.20289E-03-8.07738E-04-3.74773E-01
 -1      4120-2.45715E-01 7.24500E-03 1.85035E-03 2.06614E-02-2.91357E-03-3.51418E-01
 -1      4121 3.84362E+00-1.76604E-03 8.90209E-04 2.09286E-02 2.12483E-03-1.79848E-01
 -1      4122 2.12299E+00 1.82118E-03 3.46182E-03 5.05680E-03 2.16670E-03-2.16960E-01
 -1      4123 3.98592E+00-2.39390E-04 6.11611E-03 7.95799E-03 1.87647E-03-1.83331E-01
 -1      4124-2.12111E+00-1.78723E-03-3.85056E-03 5.02496E-03-2.10253E-03-2.16902E-01
 -1      4125-3.98949E+00 1.86207E-04-6.29344E-03 7.88867E-03-1.95972E-03-1.83154E-01
 -1      4126-1.15780E+00-2.52024E-03-9.83748E-03 1.99705E-02-1.37140E-03-3.56243E-01
 -1      4127-1.04732E+00-6.24233E-04 3.70559E-03 1.77905E-02-3.29378E-03-3.43812E-01
 -1      4128-1.38355E+00 2.02446E-03 2.61347E-04 6.38545E-03-1.14246E-03-1.86895E-01
 -1      4129-3.64911E+00-1.50256E-03-3.10633E-03 1.35516E-02-4.57931E-05-1.61219E-01
 -1      4130 6.72131E+00 1.21020E-04 4.97995E-03 1.33379E-02-2.54697E-03-8.65307E-02
 -1      4131 6.69483E+00 1.47520E-03-1.58475E-04 1.18677E-02-2.68216E-03-1.03206E-01
 -1      4132-1.04266E+00-2.05313E-03-2.20711E-03 1.10178E-02-4.58369E-03-3.94329E-01
 -1      4133-2.02082E+00 1.70139E-03-2.15704E-03 1.58969E-02-2.76747E-03-3.34905E-01
 -1      4134-3.35477E+00 3.70894E-04 5.44374E-03 2.05329E-02 4.86185E-03-1.86280E-01
 -1      4135-5.39039E+00-7.33273E-04 1.25665E-03 1.84972E-02 3.63015E-03-1.51077E-01
 -1      4136-3.21529E+00 3.07017E-03-4.01653E-03 9.82694E-03-4.02835E-03-2.63118E-01
 -1      4137 5.38795E+00 2.21300E-03 1.81866E-03 1.81084E-02-2.10750E-03-1.51833E-01
 -1      4138 3.21697E+00-2.79590E-03 4.93954E-03 8.78678E-03 3.93759E-03-2.64784E-01
 -1      4139-7.89229E+00 8.66958E-05 2.24698E-03-1.74455E-02-1.45375E-02-2.12041E-02
 -1      4140-1.69510E+00 3.81141E-04-9.46593E-04 6.33436E-03-1.24658E-03-3.12573E-01
 -1      4141 1.69550E+00-1.42274E-03-1.11765E-05 6.01237E-03-2.55709E-04-3.12297E-01
 -1      4142 8.73593E+00-6.81633E-04 4.27521E-03-9.44685E-03 3.28427E-03-2.46610E-02
 -1      4143 7.95548E+00 1.14677E-03 6.27542E-04-1.62858E-02 1.44434E-02-2.26253E-02
 -1      4144-7.28135E+00-8.76652E-04-2.51188E-04 8.00401E-03 1.88189E-03-6.97862E-02
 -1      4145 5.83513E+00-3.25468E-03 1.90149E-03 1.35966E-02-4.54681E-04-1.26455E-01
 -1      4146-2.30172E+00-1.22493E-03-1.77427E-03 2.54018E-02-3.26689E-05-2.12715E-01
 -1      4147 2.30174E+00 1.26080E-03 1.55016E-03 2.53833E-02 2.21423E-04-2.12349E-01
 -1      4148-3.31531E+00-5.47326E-03-1.08174E-03 2.96525E-03 1.90080E-04-2.01616E-01
 -1      4149-4.14832E+00-2.18469E-03-2.33418E-03-1.26889E-03 9.22544E-05-1.75453E-01
 -1      4150-3.96583E+00 9.57662E-04-3.82484E-03 8.60165E-04-2.64863E-04-1.95722E-01
 -1      4151-2.50980E+00-1.75935E-03-3.85767E-03 7.61864E-03 1.05792E-03-3.40367E-01
 -1      4152-3.77241E+00 1.87845E-03-1.28040E-03 6.37064E-03 1.23122E-03-1.82831E-01
 -1      4153 3.31434E+00 5.44463E-03 1.48093E-03 3.46667E-03 8.33933E-04-2.01206E-01
 -1      4154 4.84105E+00-6.29585E-04 2.42351E-03-6.01112E-04 8.92976E-04-1.65544E-01
 -1      4155 4.21244E+00 3.00303E-04-6.86164E-04 1.13273E-03-3.88435E-04-1.92056E-01
 -1      4156 7.53786E+00 2.07682E-03 4.00574E-03 1.59678E-03-1.20435E-04-7.75524E-02
 -1      4157-5.47259E+00-1.17875E-03-2.60706E-03 1.23234E-03 2.64985E-04-1.63169E-01
 -1      4158 6.48576E+00-2.80465E-03 2.21501E-03 9.85866E-03-1.26653E-04-9.08106E-02
 -1      4159 6.88767E+00 3.63639E-03 2.34425E-03 1.85632E-03 3.77423E-04-1.14339E-01
 -1      4160 5.68771E+00-2.87016E-05-2.88646E-03 2.12669E-02 3.82168E-03-1.34553E-01
 -1      4161 3.07698E+00-5.22546E-03 9.50962E-04 1.92668E-02-2.72564E-03-2.38199E-01
 -1      4162 5.82983E+00 6.46894E-05 1.92684E-03-9.41992E-04-8.14064E-04-1.48723E-01
 -1      4163 5.46948E+00-4.35551E-04 4.28382E-03 3.78889E-04 2.82084E-04-1.65218E-01
 -1      4164 7.00724E+00 7.07469E-04 2.21832E-03-1.10068E-03 3.29639E-04-1.22229E-01
 -1      4165-6.69470E+00-1.78463E-03 1.28956E-04 1.17169E-02 2.77027E-03-1.03072E-01
 -1      4166-5.83513E+00 3.70457E-03-1.64696E-03 1.34512E-02 9.01281E-05-1.26549E-01
 -1      4167 1.14599E+00 1.71887E-03 1.74446E-03 9.90622E-03-3.16584E-03-2.84952E-01
 -1      4168-1.11110E+00-1.91460E-03-1.98793E-03 8.80124E-03 4.36838E-03-2.84529E-01
 -1      4169-3.07922E+00 3.44842E-03-2.48663E-03 2.17945E-02 2.96825E-03-2.38002E-01
 -1      4170 6.96072E+00-7.09503E-04 1.58460E-03 8.52507E-03-1.99546E-03-4.20832E-02
 -1      4171-6.73146E+00-3.85256E-04-5.03856E-03 1.32343E-02 2.41231E-03-8.63422E-02
 -1      4172-5.68623E+00 6.50564E-05 1.44293E-03 2.10441E-02-4.08871E-03-1.36654E-01
 -1      4173-6.88586E+00-3.59530E-03-2.34419E-03 1.97273E-03-4.91862E-04-1.14260E-01
 -1      4174-7.53832E+00-2.30096E-03-2.59884E-03 1.19655E-03 2.93582E-05-7.74601E-02
 -1      4175-5.29307E+00-4.01045E-03-1.47235E-03 1.62621E-02-2.82069E-04-1.48190E-01
 -1      4176-6.49364E+00 2.87121E-03-2.25608E-03 9.81383E-03 1.67767E-04-9.06166E-02
 -1      4177 5.29061E+00 4.07011E-03 1.63493E-03 1.64264E-02-6.32782E-04-1.48105E-01
 -1      4178-1.42656E+00-4.18412E-03 6.39856E-04 1.83244E-02 4.04422E-03-3.66392E-01
 -1      4179-2.47563E+00-2.55030E-03-8.33291E-04 3.50224E-02-1.15964E-03-1.98138E-01
 -1      4180 2.47625E+00 2.65958E-03 9.53189E-04 3.49717E-02 1.54333E-03-1.97906E-01
 -1      4181-2.62618E+00-2.79911E-03-2.68820E-03 7.25633E-03-2.39946E-03-3.36718E-01
 -1      4182 1.42673E+00 4.54349E-03-3.80017E-04 1.84246E-02-4.05036E-03-3.66415E-01
 -1      4183-3.99024E+00-2.77994E-03-5.63958E-03 8.25961E-03-4.57107E-04-1.83909E-01
 -1      4184-3.35943E+00-4.42038E-03 2.55829E-03 7.79892E-03 9.42297E-05-1.88963E-01
 -1      4185-2.19291E+00-4.39005E-03 3.14004E-03 5.69246E-03-6.01033E-03-3.49049E-01
 -1      4186 2.66164E+00-1.48289E-03 4.41015E-03 6.16212E-03-2.96541E-03-3.33620E-01
 -1      4187 4.01110E+00-3.86354E-03-1.25261E-03 8.70429E-03-6.08797E-04-1.79721E-01
 -1      4188-3.58342E+00-3.36368E-03-1.59043E-03 4.89758E-03-3.42164E-03-2.80892E-01
 -1      4189-5.44565E+00-2.78243E-03-1.84910E-03 7.79606E-03 3.18147E-04-1.52371E-01
 -1      4190 3.86472E+00-2.06563E-03 7.09544E-03 8.53292E-03 2.08189E-03-1.61617E-01
 -1      4191 6.60038E+00-2.38483E-03 3.75289E-03 1.60111E-02-5.94621E-04-8.59991E-02
 -1      4192 6.80305E+00 3.46352E-03 5.54295E-04 5.05896E-03 4.17558E-04-1.06264E-01
 -1      4193 4.47862E+00 2.56336E-03 6.10762E-04 2.69363E-03 3.98621E-03-1.96105E-01
 -1      4194 3.58574E+00 1.72672E-03 1.84598E-03 4.96817E-03 2.72610E-03-2.82594E-01
 -1      4195-4.88905E+00-2.01605E-03-2.39337E-03 1.91690E-03-2.78289E-03-1.31612E-01
 -1      4196-4.47689E+00-2.58183E-03-8.16655E-04 2.62878E-03-4.10142E-03-1.96020E-01
 -1      4197 5.44142E+00 3.72655E-03 4.62004E-03 7.01560E-03 1.02943E-03-1.53939E-01
 -1      4198-5.50846E+00-3.73368E-03 8.35779E-04 2.58478E-02-6.13378E-04-1.38442E-01
 -1      4199 3.64980E+00-4.08169E-04 1.19090E-03 2.35630E-02 7.05026E-05-1.78894E-01
 -1      4200-3.65125E+00-1.03463E-04-8.09528E-04 2.39333E-02 4.94259E-04-1.78532E-01
 -1      4201 6.32721E-01 6.10677E-03 1.85559E-03 1.30164E-02 1.05600E-03-3.86145E-01
 -1      4202 3.22730E+00 3.42327E-03-2.37370E-04 1.37260E-02-4.82232E-03-2.53756E-01
 -1      4203-3.87243E+00 2.10749E-03-7.15867E-03 8.46124E-03-2.04528E-03-1.61506E-01
 -1      4204-6.80408E+00-3.41611E-03-5.53822E-04 4.92794E-03-5.03197E-04-1.06217E-01
 -1      4205-6.60715E+00 2.38211E-03-3.77875E-03 1.59859E-02 6.73241E-04-8.58477E-02
 -1      4206-7.42071E+00-2.52285E-03-1.51635E-03 3.18199E-03-4.10914E-04-7.21302E-02
 -1      4207 5.50779E+00 3.27147E-03-1.14653E-03 2.60738E-02 1.82693E-04-1.38121E-01
 -1      4208-3.21600E+00-4.06333E-03 4.45357E-04 1.30814E-02 4.76954E-03-2.54333E-01
 -1      4209-1.46580E-02-6.26543E-05-3.85234E-05 6.98678E-03-5.26407E-05-1.76615E-01
 -1      4210-1.68770E+00 1.09558E-03 4.32985E-03 1.25941E-02 3.40661E-04-1.74027E-01
 -1      4211-4.29406E-03-3.23931E-04 7.23160E-04 1.36306E-02-2.09729E-04-1.46866E-01
 -1      4212 4.08027E-03 1.43863E-03-4.87584E-04 1.60172E-02 2.19360E-04-4.03653E-01
 -1      4213 6.54280E-01 1.65258E-03 9.40166E-03 3.03868E-02-2.28616E-03-3.74015E-01
 -1      4214-6.53583E-01-1.38028E-03-9.32279E-03 3.04910E-02 1.96912E-03-3.73258E-01
 -1      4215 2.03532E-03-2.68278E-03-4.74158E-03 2.74141E-02 1.13021E-03-3.58591E-01
 -1      4216-7.87251E-01-3.28679E-03 9.94070E-03 2.71583E-02 2.71313E-03-3.50844E-01
 -1      4217 7.76729E-01-6.08311E-03-6.03867E-03 2.66396E-02 1.86765E-04-3.49915E-01
 -1      4218 1.05316E+00-5.19703E-03-4.97321E-03 1.83063E-02 1.72617E-03-3.45017E-01
 -1      4219-1.09139E+00 4.83485E-04-5.02410E-03 1.73536E-02-3.58925E-03-3.39093E-01
 -1      4220-2.11034E-03-1.05203E-04 7.61882E-04 2.68680E-02 5.05002E-04-3.67322E-01
 -1      4221-9.13737E-01-2.87250E-03-1.24578E-02 1.92819E-02-2.90115E-03-3.56168E-01
 -1      4222-1.99327E+00-7.18411E-04-4.12120E-03 5.74406E-03-7.72102E-04-1.28030E-01
 -1      4223 1.68357E+00-9.40386E-04-4.28536E-03 1.26494E-02-3.67124E-04-1.74166E-01
 -1      4224 1.97854E-04 3.95112E-04 3.43985E-04 2.80162E-02 8.83424E-05-3.13194E-01
 -1      4225-1.47741E+00-2.44802E-03-8.33999E-03 1.19896E-02-1.61908E-03-2.83745E-01
 -1      4226 1.47810E+00 1.63544E-03 7.38745E-03 1.10152E-02 1.66637E-03-2.84284E-01
 -1      4227-2.66752E+00-3.83774E-03-7.79422E-04 2.44530E-02-4.83253E-04-1.90961E-01
 -1      4228-4.50569E+00-3.69020E-03-1.92162E-03-8.18330E-04 7.01173E-04-1.72961E-01
 -1      4229 2.66753E+00 3.73084E-03 8.15706E-04 2.44140E-02 7.13920E-04-1.91034E-01
 -1      4230-3.78540E+00-3.96370E-03-8.06037E-04-6.90093E-04-2.69739E-04-1.83056E-01
 -1      4231 4.48938E+00-2.99355E-03 1.32982E-03-8.85375E-04 1.51530E-04-1.73129E-01
 -1      4232 4.98165E+00 8.33161E-03 3.32835E-03 2.09637E-02-2.53323E-03-1.57418E-01
 -1      4233 7.07487E+00-1.70535E-03 2.77002E-03 1.11398E-02-2.30519E-04-8.63643E-02
 -1      4234-6.13665E+00-3.10465E-03-2.05014E-03-4.33701E-04 1.09673E-04-1.45547E-01
 -1      4235 7.65441E+00 2.50536E-03 2.24125E-03-5.59646E-05 6.20844E-04-1.02257E-01
 -1      4236-5.88940E-03-8.98245E-06 3.51895E-05 1.83866E-02 1.76193E-04-2.12847E-01
 -1      4237 1.83267E+00 2.07672E-03 8.46266E-03 1.01485E-02 1.28754E-04-1.94340E-01
 -1      4238-5.09222E-03-4.01091E-04 1.83439E-04 1.30696E-02-6.79346E-04-2.68502E-01
 -1      4239 1.36878E+00 1.53998E-03 6.28736E-03 8.36467E-03 5.15833E-05-2.52885E-01
 -1      4240-1.41984E+00-3.74573E-03-1.13548E-02 1.43346E-02 2.67065E-03-2.58908E-01
 -1      4241-1.82746E+00-1.86308E-03-8.41503E-03 1.01198E-02-1.19506E-04-1.94286E-01
 -1      4242 6.13657E+00 3.45458E-03 1.92478E-03-5.98998E-04 1.42541E-04-1.45403E-01
 -1      4243-7.65718E+00-2.51092E-03-2.30438E-03-9.99978E-05-6.43068E-04-1.02300E-01
 -1      4244-8.34821E+00-1.94173E-03-2.49921E-03-8.26963E-05-5.31942E-04-6.82658E-02
 -1      4245 1.42371E+00 4.86049E-03 8.02084E-03 1.93897E-02-3.35077E-04-2.52927E-01
 -1      4246-5.15818E-04 4.64796E-04 3.18076E-04 1.00642E-02 5.78920E-04-2.47095E-01
 -1      4247-5.93222E+00-2.73225E-03-1.34859E-03 1.68534E-02 5.18729E-04-1.32807E-01
 -1      4248 5.94552E+00 2.93551E-03 1.42980E-03 1.70631E-02-5.53171E-04-1.32466E-01
 -1      4249-7.07395E+00 1.65645E-03-2.83953E-03 1.11100E-02 2.19604E-04-8.63860E-02
 -1      4250-2.03708E+00 1.35606E-03 1.23956E-03 1.61335E-02 6.10775E-04-3.36936E-01
 -1      4251-3.38063E+00-2.11427E-03-6.38939E-03 2.30898E-02-1.84159E-04-1.87087E-01
 -1      4252-3.36714E+00-6.85202E-03-7.63577E-03 3.87643E-02-1.39200E-03-1.73174E-01
 -1      4253 3.73284E+00-5.58588E-03-4.97406E-03 3.53492E-02-2.34874E-03-1.72032E-01
 -1      4254 3.55558E+00-2.43243E-03-2.73329E-03 2.25566E-02 3.70959E-04-1.85519E-01
 -1      4255 2.22913E+00-1.08432E-03 3.44956E-03 1.75132E-02 3.10051E-04-3.31158E-01
 -1      4256 4.50061E+00 2.52551E-04 7.61076E-03 4.05017E-03-5.30032E-04-2.21904E-01
 -1      4257 6.67790E+00-2.16097E-03-4.40218E-04 8.74457E-04 5.28593E-04-1.27632E-01
 -1      4258 6.60810E+00-2.82364E-03 1.14976E-04 3.05687E-03 1.48851E-03-1.20159E-01
 -1      4259 2.41799E-01-5.16506E-03 9.24900E-04 1.61594E-02 7.45888E-04-4.30064E-01
 -1      4260 5.58528E-01 8.86596E-03 5.55561E-03 2.43705E-02-1.82314E-03-3.39571E-01
 -1      4261 4.07479E+00 6.90976E-05 8.27157E-04 2.15257E-02-1.29589E-03-1.81057E-01
 -1      4262-2.70722E-01-4.17764E-03-2.11696E-02 2.33448E-02-4.98608E-03-1.28386E-01
 -1      4263-4.38342E-01 3.43597E-03-6.56429E-03 2.71155E-02 9.09735E-04-1.30030E-01
 -1      4264-1.42046E-01 6.99089E-03-2.35302E-04 2.57687E-02-1.85111E-03-3.27060E-01
 -1      4265-2.59596E-01 1.08984E-02-2.14006E-03 3.66116E-02-2.72091E-03-2.00983E-01
 -1      4266-1.52537E-01 1.55974E-02 9.11039E-02 4.14339E-02-8.37936E-03-1.54465E-01
 -1      4267-7.93382E-02 1.48783E-02 9.00511E-02 2.85486E-02-7.53231E-03-3.31711E-01
 -1      4268-9.60866E+00-1.82805E-01 8.02364E-02 1.06304E-01-6.69524E-03 1.80155E-01
 -1      4269-9.84407E+00-6.84277E-02 2.39545E-01 4.03658E-01-1.90703E-01 1.58803E-01
 -1      4270-8.44075E+00-5.45327E-01 1.64606E-02 3.90375E-01-6.19014E-02-1.38732E-01
 -1      4271-6.58643E+00-2.23689E-01-5.83042E-02 1.41415E-01-1.00875E-01-1.88104E-02
 -1      4272 6.33446E-01 7.84577E-04-1.43628E-03 4.94235E-03 1.47255E-03-8.77671E-02
 -1      4273 1.81514E-01 7.99331E-03-1.00279E-02 2.62023E-02 2.27152E-03-4.02437E-01
 -1      4274 1.14896E-01-1.50349E-02 1.29044E-02 3.05304E-02-5.51111E-04-4.14043E-01
 -1      4275 6.26164E-01-1.60948E-03 1.45839E-05 6.31047E-03-5.65917E-06-1.11226E-01
 -1      4276-4.20349E-01-5.24147E-03-1.00100E-02-3.37568E-03-1.67886E-03-1.90967E-01
 -1      4277-3.02362E-01-6.89635E-03-2.16113E-02-8.38204E-03 4.11588E-03-1.24389E-01
 -1      4278-1.89969E-01 5.74777E-03 6.03041E-03 4.81841E-04 4.57869E-03-3.24819E-01
 -1      4279-2.84719E-01 1.12651E-02 1.89458E-03 3.89015E-03 2.34438E-03-1.93292E-01
 -1      4280 5.89662E-01-3.60869E-03 3.97858E-03 1.75771E-02 2.12771E-03-3.70906E-01
 -1      4281 5.28274E-01-1.27061E-03 2.92442E-03 1.95930E-02-2.81946E-03-3.55320E-01
 -1      4282 4.21251E-01 6.23973E-03-2.99236E-03 1.80972E-02 6.84132E-04-3.27943E-01
 -1      4283-2.30743E-02 1.39882E-02 1.24408E-01 1.28359E-02-1.21544E-03-2.99851E-01
 -1      4284-1.92951E-02 1.44507E-02 1.22953E-01 1.50782E-02-1.21908E-02-3.91075E-01
 -1      4285 3.70336E-01-7.72254E-03 1.87328E-03 1.79114E-02-5.88647E-04-3.45185E-01
 -1      4286 7.33738E-02-6.44934E-04-1.89782E-03 1.53543E-02-3.05922E-04-9.11178E-02
 -1      4287 2.94979E-01 6.05913E-03 3.02308E-02-7.00997E-03-3.43933E-03-1.25480E-01
 -1      4288 4.81026E-01-2.37173E-03 8.30473E-03-5.07370E-03 1.28097E-03-1.32073E-01
 -1      4289 1.72198E-01-5.56262E-04 2.32618E-02-1.42724E-04-1.55638E-03-3.28628E-01
 -1      4290 2.67591E-01-8.27662E-03 1.28368E-02 3.06573E-03-1.22304E-03-1.97315E-01
 -1      4291 9.83484E+00 1.16543E-01-1.47231E-01 3.94936E-01 2.15891E-01 1.66701E-01
 -1      4292 9.62243E+00 1.81161E-01-5.70285E-02 1.04311E-01 5.26007E-03 1.92809E-01
 -1      4293 6.72316E+00 2.98406E-01 2.05814E-01 1.46735E-01 1.03309E-01 7.08259E-02
 -1      4294 8.45688E+00 6.32150E-01 1.03816E-01 3.77587E-01 9.72746E-02-1.26169E-01
 -1      4295-1.60145E-01 1.51871E-02 1.16098E-01 3.67985E-02-3.62800E-03-1.54776E-01
 -1      4296 8.66475E+00 1.06707E-01-2.54300E-01-4.16182E-01-1.70412E-01 1.97296E-01
 -1      4297 8.60480E+00 1.92819E-01-8.16777E-02-1.27643E-01-1.00020E-03 2.18724E-01
 -1      4298 5.76680E+00 2.95660E-01 1.20787E-01-1.37535E-01-1.00256E-01 1.16136E-01
 -1      4299 7.76119E+00 5.45883E-01-5.93786E-02-4.00297E-01-5.77965E-02-1.21860E-01
 -1      4300 4.34034E-01-8.10481E-04 8.98978E-03 2.69144E-02-1.98565E-03-1.31015E-01
 -1      4301 2.69491E-01 1.92571E-03 2.05337E-02 2.38111E-02 5.04188E-03-1.26734E-01
 -1      4302 2.59062E-01-1.29206E-02-5.59154E-03 4.22118E-02 3.37584E-03-1.98215E-01
 -1      4303 1.40675E-01-8.13124E-04 2.34221E-02 2.43860E-02 5.23043E-04-3.29861E-01
 -1      4304 4.36335E-01-9.37734E-03 4.65983E-03 4.14853E-02 1.19865E-03-1.92879E-01
 -1      4305 5.33145E+00 7.80273E-01 9.99389E-01 5.13044E-01-3.01793E-02 2.11719E-01
 -1      4306 5.89449E+00 1.15176E+00 9.26775E-01 4.84872E-01 1.09412E-01-2.30080E-01
 -1      4307-1.72951E-01 2.88697E-02 9.25867E-02 1.11459E-02 7.21619E-03-1.45338E-01
 -1      4308-8.59050E-02 2.71046E-02 9.42800E-02 1.11898E-02 1.00974E-02-3.30002E-01
 -1      4309-8.65470E+00-1.34043E-01 1.62161E-01-4.27800E-01 1.98674E-01 2.14168E-01
 -1      4310-8.58648E+00-1.90874E-01 8.11843E-02-1.29015E-01 8.42938E-03 2.16795E-01
 -1      4311-5.63341E+00-2.85068E-01-9.73079E-02-1.25500E-01 9.83347E-02 1.13125E-01
 -1      4312-7.64335E+00-6.01792E-01-6.24215E-02-3.80777E-01 7.89200E-02-9.73889E-02
 -1      4313-3.85949E+00-3.62327E-03-5.79680E-03 4.74573E-03-1.47189E-03-1.68863E-01
 -1      4314-2.59990E+00 6.80431E-04-3.92772E-04 3.53654E-03-3.04497E-03-3.33779E-01
 -1      4315 7.16078E+00 5.59556E-01 7.62713E-01 5.36826E-01 3.45506E-02 5.83371E-02
 -1      4316-4.12029E+00-7.35431E-01-8.02258E-01-4.98849E-01-2.68088E-02 3.19269E-01
 -1      4317-5.16311E+00-1.04193E+00-7.82019E-01-4.49971E-01 9.20852E-02-1.66353E-01
 -1      4318-4.24221E-02 2.82433E-02 1.28230E-01 6.47789E-03 1.25840E-03-2.99502E-01
 -1      4319-3.86927E-02 2.48898E-02 1.26187E-01 2.86963E-03 1.22524E-02-3.90751E-01
 -1      4320-1.67799E-01 2.79988E-02 1.16826E-01 2.79323E-03 2.48877E-03-1.53649E-01
 -1      4321-8.87079E+00-1.72236E+00-5.32884E-01 6.33791E-01 2.48761E-02-2.17359E-01
 -1      4322 9.17310E+00 1.91436E+00 6.42320E-01 6.01355E-01 3.25583E-02-2.16833E-01
 -1      4323 9.01018E+00 1.41961E+00 4.61889E-01 9.31453E-01 2.21001E-02-4.80035E-02
 -1      4324 5.28011E-02-2.62568E-02-1.24416E-01 3.25412E-03-2.24893E-02-3.40281E-01
 -1      4325-9.12511E+00-1.60093E+00-6.40247E-01 9.44517E-01-8.81874E-02-1.17410E-01
 -1      4326-5.95013E+00-1.31633E+00-1.13362E+00 4.95723E-01-1.52900E-01-1.94938E-01
 -1      4327-6.07154E+00-5.14171E-01-6.20784E-01-5.30844E-01 3.18123E-02 1.74215E-01
 -1      4328-8.57849E+00-1.80016E+00-5.35031E-01-6.32348E-01 4.00472E-02-1.53236E-01
 -1      4329-8.18028E+00-1.33168E+00-4.00680E-01-9.48231E-01 1.91544E-02 1.54610E-02
 -1      4330-2.72536E+00 3.72864E-03-6.21422E-03 2.33806E-02 4.62914E-04-1.94018E-01
 -1      4331-2.68438E+00 7.09035E-04-3.43469E-03 3.93950E-02-1.35408E-04-1.77538E-01
 -1      4332-1.63318E+00 4.22575E-04-3.13264E-03 1.79415E-02-2.22918E-04-3.53071E-01
 -1      4333 2.68416E+00-7.47491E-04 3.37754E-03 3.93667E-02 4.54881E-04-1.77544E-01
 -1      4334 1.63309E+00-2.83929E-04 2.96441E-03 1.78554E-02 3.37840E-04-3.53044E-01
 -1      4335 2.72530E+00-3.64724E-03 6.23862E-03 2.32935E-02-3.42229E-04-1.94058E-01
 -1      4336 4.08403E+00 3.35154E-04-2.39484E-03 3.92098E-03 1.57023E-03-1.68340E-01
 -1      4337 2.74120E+00-1.92503E-03 2.88821E-03 5.53758E-03 5.08494E-04-3.26606E-01
 -1      4338 4.06272E+00-1.85858E-03-5.95903E-03 5.06390E-04-6.55824E-04-1.82560E-01
 -1      4339-4.47912E+00 1.73315E-03-3.52408E-03-1.01391E-04-2.28963E-03-1.74713E-01
 -1      4340-2.90804E+00 1.37548E-03-1.63201E-03 5.71872E-03-7.80961E-05-3.20799E-01
 -1      4341-4.27892E+00 1.98540E-03 4.01090E-04 3.89367E-03-1.39250E-03-1.61549E-01
 -1      4342 6.84336E+00 3.29585E-05 3.62460E-04 1.86424E-02-1.23862E-03-8.63229E-02
 -1      4343 6.63220E+00-8.47432E-04-1.27988E-03 1.11747E-02 3.25702E-04-9.41044E-02
 -1      4344 4.10480E+00-8.07982E-04 4.51014E-03 8.36715E-03-2.50558E-04-1.65251E-01
 -1      4345-5.99367E+00 1.86916E-03-6.22304E-03 5.96578E-04-8.30174E-04-1.44838E-01
 -1      4346-3.91860E+00-3.52782E-04-4.79265E-03 3.02181E-03-2.03386E-04-2.66519E-01
 -1      4347-5.78128E+00-2.95768E-04-3.89470E-03 3.54975E-03-2.52197E-04-1.33270E-01
 -1      4348 7.38439E+00-8.03606E-04 5.50603E-03 5.46466E-04 5.16937E-04-9.91278E-02
 -1      4349 4.85174E+00 1.05236E-03 5.01691E-03 2.06792E-03 4.05243E-04-1.84126E-01
 -1      4350 7.17031E+00 5.51422E-04 4.12018E-03 2.12579E-03-1.17916E-04-9.23325E-02
 -1      4351 5.78129E+00 6.65760E-04 4.17387E-03 3.36028E-03 8.29958E-04-1.33819E-01
 -1      4352 5.99445E+00 7.97956E-04 8.49028E-03 2.82942E-04 2.11262E-03-1.44947E-01
 -1      4353 3.91956E+00 9.27005E-04 4.31026E-03 3.56692E-03 5.99881E-04-2.66491E-01
 -1      4354-6.84128E+00-1.55596E-04-4.48954E-04 1.86665E-02 1.16017E-03-8.64409E-02
 -1      4355-6.63135E+00 7.58503E-04 1.24555E-03 1.12295E-02-3.99301E-04-9.41147E-02
 -1      4356-4.10367E+00 6.84955E-04-4.58681E-03 8.32337E-03 2.32584E-04-1.65261E-01
 -1      4357 5.19791E-02-2.89035E-02-1.56750E-01 7.58385E-03 8.63818E-04-3.05649E-01
 -1      4358 1.02194E-01-1.93059E-02-8.75893E-02 1.23013E-02-4.75223E-03-3.28407E-01
 -1      4359-7.17841E+00-6.39205E-04-4.23099E-03 2.08563E-03 1.37862E-04-9.21591E-02
 -1      4360-7.38991E+00 7.59728E-04-5.59789E-03 6.30242E-04-4.41870E-04-9.89684E-02
 -1      4361-4.85691E+00-1.12260E-03-5.16643E-03 1.98647E-03-3.85942E-04-1.83993E-01
 -1      4362-5.80664E+00 3.52669E-04-4.43972E-03 2.67592E-02-2.85724E-04-1.22755E-01
 -1      4363-3.52186E+00-1.16072E-03-3.75199E-03 1.14086E-02 2.17498E-04-2.41558E-01
 -1      4364-5.74058E+00-5.94856E-04-8.15834E-03 1.62579E-02 1.17386E-03-1.32078E-01
 -1      4365 1.53978E+00-1.73703E-03 5.24902E-03 1.90135E-03-2.01828E-03-2.08976E-01
 -1      4366-5.27768E+00 1.44144E-04-4.96980E-03 1.52625E-03-8.90353E-04-1.20127E-01
 -1      4367-7.80509E+00 1.63996E-04-1.65321E-03 1.30470E-03-1.29662E-03-5.89856E-02
 -1      4368-8.00819E+00 5.51695E-04-3.73834E-03-2.78387E-04-1.50473E-03-6.28825E-02
 -1      4369 4.69591E+00-1.89877E-03 2.73548E-03 4.66081E-04 1.02758E-04-1.72490E-01
 -1      4370 2.25613E+00 1.75898E-03-1.82867E-03 1.32195E-03-1.22924E-03-2.01645E-01
 -1      4371 5.44305E+00 5.27787E-04-3.25944E-03-4.33269E-04-6.22550E-04-1.54343E-01
 -1      4372 7.96249E+00-5.23390E-04 3.52009E-03 2.53410E-04 1.49613E-04-5.66720E-02
 -1      4373 4.22401E+00 7.23883E-01 7.77131E-01-5.01062E-01 3.28233E-02 2.86513E-01
 -1      4374 6.09488E+00 5.33692E-01 6.66233E-01-5.26664E-01-4.39685E-02 1.78007E-01
 -1      4375 5.27234E+00 1.04255E+00 9.25199E-01-4.76950E-01-9.11080E-02-1.67731E-01
 -1      4376 1.71844E-01-1.50882E-02-9.01315E-02 3.62599E-02 4.92010E-03-1.44877E-01
 -1      4377 1.67001E-01-8.13831E-03-1.13919E-01 3.29573E-02 3.45441E-03-1.54220E-01
 -1      4378 7.69091E-02-7.96084E-03-8.19947E-02 2.98281E-02 5.89120E-03-3.31492E-01
 -1      4379 8.45595E+00 1.72053E+00 5.33261E-01-6.81729E-01 1.26571E-02-2.34523E-01
 -1      4380 5.74241E+00 5.61578E-04 8.67325E-03 1.59329E-02-6.75780E-04-1.32319E-01
 -1      4381 5.80944E+00-6.53552E-04 5.52329E-03 2.74878E-02 5.09019E-04-1.23022E-01
 -1      4382 3.53617E+00 7.05179E-04 4.82169E-03 1.13017E-02 7.98807E-04-2.41166E-01
 -1      4383-5.47462E+00-1.85125E-01-6.07544E-01 3.34695E-01 1.05440E-01 2.85823E-01
 -1      4384-7.29421E+00-7.39344E-01-1.10782E+00 5.66544E-01-6.72189E-02 5.36552E-02
 -1      4385 8.12550E+00-3.17376E-04 8.65611E-04-4.11005E-03 2.25568E-03-3.75139E-02
 -1      4386 1.50245E-01-3.94077E-02-1.10192E-01 9.80630E-03-4.06204E-03-1.65192E-01
 -1      4387 8.29908E+00 1.44526E+00 5.28049E-01-9.58722E-01-7.70840E-02-5.03942E-02
 -1      4388-2.47568E+00 1.57087E-04-8.46094E-04 5.69361E-03-2.84969E-04-3.36450E-01
 -1      4389-3.63411E+00 1.31483E-03-4.91041E-04 3.25834E-03-3.06188E-04-1.70512E-01
 -1      4390-3.82229E+00 9.47342E-04-3.49029E-03-7.67336E-04-1.69041E-03-1.83294E-01
 -1      4391 1.65372E-01-2.88466E-02-1.23657E-01 6.02406E-03-2.90104E-03-1.58027E-01
 -1      4392 1.30401E-01 2.62836E-04-7.04261E-04 2.04141E-02-2.09248E-03-4.11988E-01
 -1      4393 3.17946E-02-1.12150E-02-1.13942E-01 1.72098E-02 2.28529E-02-3.44294E-01
 -1      4394 2.18240E-02-1.58265E-02-1.48945E-01 1.34884E-02-5.41691E-04-3.09483E-01
 -1      4395 9.76321E-01-6.60994E-03-9.61192E-05 3.52957E-02 3.25813E-03-1.76689E-01
 -1      4396 5.22004E-01-2.56797E-03 9.60326E-03 2.39032E-02-6.97979E-04-1.93447E-01
 -1      4397 6.24317E-01-3.47157E-03 4.68584E-03 4.04984E-02-1.76938E-03-1.63713E-01
 -1      4398 9.35530E-01 1.22455E-03-1.14949E-03 3.77985E-02 4.64208E-04-1.90587E-01
 -1      4399 8.61817E-01 4.97555E-04 2.09414E-03 4.07566E-02-3.44459E-04-1.68477E-01
 -1      4400 1.02860E+00-1.31724E-03-6.60638E-04 2.62803E-02-3.71231E-04-2.07653E-01
 -1      4401 7.29248E-01-1.87611E-03 3.56652E-03 2.80582E-02-1.46974E-04-1.80169E-01
 -1      4402 9.08823E-01-6.14859E-04 4.48572E-04 2.55697E-02-4.81770E-04-1.95121E-01
 -1      4403-4.02950E-01 3.02291E-03 1.28568E-02 1.23605E-02 2.57683E-03-4.30886E-01
 -3
    1PSTEP                         6           1           1          
  100CL  102 2.152731093        4403                     4    2           1
 -4  ERROR       1    1
 -5  STR(%)      1    1    0    0
 -1         1 1.12640E+01
 -1         2 1.22147E+01
 -1         3 1.21771E+01
 -1         4 1.08314E+01
 -1         5 3.12492E+01
 -1         6 2.97758E+01
 -1         7 2.96234E+01
 -1         8 2.98200E+01
 -1         9 1.64307E+01
 -1        10 2.67271E+01
 -1        11 1.35778E+01
 -1        12 1.43227E+01
 -1        13 2.15789E+01
 -1        14 2.01524E+01
 -1        15 1.24209E+01
 -1        16 1.03794E+01
 -1        17 1.00492E+01
 -1        18 8.34633E+00
 -1        19 1.08217E+01
 -1        20 1.02143E+01
 -1        21 9.19775E+00
 -1        22 1.02617E+01
 -1        23 1.42575E+01
 -1        24 2.65437E+01
 -1        25 1.65685E+01
 -1        26 1.25444E+01
 -1        27 2.04006E+01
 -1        28 2.15561E+01
 -1        29 1.43728E+01
 -1        30 1.02206E+01
 -1        31 1.02206E+01
 -1        32 9.05601E+00
 -1        33 1.12177E+01
 -1        34 1.02206E+01
 -1        35 9.63833E+00
 -1        36 9.94369E+00
 -1        37 1.44262E+01
 -1        38 7.00810E+00
 -1        39 1.55936E+01
 -1        40 2.21010E+01
 -1        41 1.07172E+01
 -1        42 1.13009E+01
 -1        43 2.34214E+01
 -1        44 3.14351E+01
 -1        45 3.14351E+01
 -1        46 3.04019E+01
 -1        47 3.13422E+01
 -1        48 3.14351E+01
 -1        49 3.09185E+01
 -1        50 3.00126E+01
 -1        51 1.56772E+01
 -1        52 9.28967E+00
 -1        53 1.43034E+01
 -1        54 2.27486E+01
 -1        55 1.24835E+01
 -1        56 1.17965E+01
 -1        57 2.19634E+01
 -1        58 3.17321E+01
 -1        59 3.17321E+01
 -1        60 3.11462E+01
 -1        61 3.07539E+01
 -1        62 3.17321E+01
 -1        63 3.14391E+01
 -1        64 3.04831E+01
 -1        65 9.67764E+00
 -1        66 9.67764E+00
 -1        67 9.06010E+00
 -1        68 1.13799E+01
 -1        69 8.94437E+00
 -1        70 1.14017E+01
 -1        71 8.92449E+00
 -1        72 8.92391E+00
 -1        73 1.13354E+01
 -1        74 1.02332E+01
 -1        75 8.93639E+00
 -1        76 8.92231E+00
 -1        77 1.13761E+01
 -1        78 9.10506E+00
 -1        79 1.00489E+01
 -1        80 1.12506E+01
 -1        81 8.90139E+00
 -1        82 8.89373E+00
 -1        83 1.13435E+01
 -1        84 9.28076E+00
 -1        85 1.11499E+01
 -1        86 9.34077E+00
 -1        87 1.03367E+01
 -1        88 9.61239E+00
 -1        89 8.74340E+00
 -1        90 9.90940E+00
 -1        91 1.07303E+01
 -1        92 1.13898E+01
 -1        93 8.62830E+00
 -1        94 1.06696E+01
 -1        95 8.91982E+00
 -1        96 7.92928E+00
 -1        97 1.31555E+01
 -1        98 1.09462E+01
 -1        99 9.67764E+00
 -1       100 9.36887E+00
 -1       101 1.02200E+01
 -1       102 1.01621E+01
 -1       103 1.01730E+01
 -1       104 1.01631E+01
 -1       105 8.92420E+00
 -1       106 1.01297E+01
 -1       107 1.07843E+01
 -1       108 9.58480E+00
 -1       109 8.92935E+00
 -1       110 1.01492E+01
 -1       111 1.02406E+01
 -1       112 9.57696E+00
 -1       113 1.06497E+01
 -1       114 1.00760E+01
 -1       115 8.89756E+00
 -1       116 1.01186E+01
 -1       117 1.03121E+01
 -1       118 1.02153E+01
 -1       119 1.02453E+01
 -1       120 9.83872E+00
 -1       121 9.97453E+00
 -1       122 9.17790E+00
 -1       123 9.32640E+00
 -1       124 1.03199E+01
 -1       125 1.10601E+01
 -1       126 1.00090E+01
 -1       127 9.64897E+00
 -1       128 9.79472E+00
 -1       129 8.42455E+00
 -1       130 1.05424E+01
 -1       131 2.14656E+01
 -1       132 7.81524E+00
 -1       133 7.81524E+00
 -1       134 1.09978E+01
 -1       135 1.03923E+01
 -1       136 7.35822E+00
 -1       137 1.03934E+01
 -1       138 7.52235E+00
 -1       139 1.10674E+01
 -1       140 7.53173E+00
 -1       141 7.55396E+00
 -1       142 9.87479E+00
 -1       143 1.10337E+01
 -1       144 7.40690E+00
 -1       145 1.00117E+01
 -1       146 9.70893E+00
 -1       147 7.53157E+00
 -1       148 9.77928E+00
 -1       149 1.09095E+01
 -1       150 9.62946E+00
 -1       151 7.67524E+00
 -1       152 1.02219E+01
 -1       153 1.11235E+01
 -1       154 1.00206E+01
 -1       155 7.75187E+00
 -1       156 1.06349E+01
 -1       157 7.83103E+00
 -1       158 7.80313E+00
 -1       159 1.01338E+01
 -1       160 7.81767E+00
 -1       161 9.97069E+00
 -1       162 8.75927E+00
 -1       163 9.90932E+00
 -1       164 1.34594E+01
 -1       165 9.53963E+00
 -1       166 7.81524E+00
 -1       167 9.40652E+00
 -1       168 1.06951E+01
 -1       169 8.87527E+00
 -1       170 8.87579E+00
 -1       171 8.95786E+00
 -1       172 9.29487E+00
 -1       173 9.29956E+00
 -1       174 7.54285E+00
 -1       175 8.71437E+00
 -1       176 1.04542E+01
 -1       177 9.22029E+00
 -1       178 8.70932E+00
 -1       179 9.86034E+00
 -1       180 8.62025E+00
 -1       181 8.65542E+00
 -1       182 1.03444E+01
 -1       183 1.02695E+01
 -1       184 8.65235E+00
 -1       185 8.94855E+00
 -1       186 1.06727E+01
 -1       187 1.05721E+01
 -1       188 8.88622E+00
 -1       189 9.19340E+00
 -1       190 9.23298E+00
 -1       191 7.81708E+00
 -1       192 8.96846E+00
 -1       193 8.97572E+00
 -1       194 8.89418E+00
 -1       195 9.36498E+00
 -1       196 9.33430E+00
 -1       197 1.16844E+01
 -1       198 2.23543E+01
 -1       199 7.85904E+00
 -1       200 7.85904E+00
 -1       201 1.12090E+01
 -1       202 7.41272E+00
 -1       203 7.44084E+00
 -1       204 7.47601E+00
 -1       205 9.87964E+00
 -1       206 1.10719E+01
 -1       207 7.54460E+00
 -1       208 7.55386E+00
 -1       209 9.85710E+00
 -1       210 1.10409E+01
 -1       211 7.50332E+00
 -1       212 7.53136E+00
 -1       213 7.50500E+00
 -1       214 7.61236E+00
 -1       215 9.79837E+00
 -1       216 1.09330E+01
 -1       217 7.64562E+00
 -1       218 7.66633E+00
 -1       219 7.66955E+00
 -1       220 9.63459E+00
 -1       221 1.07286E+01
 -1       222 9.39209E+00
 -1       223 1.06489E+01
 -1       224 7.77336E+00
 -1       225 7.82097E+00
 -1       226 7.78608E+00
 -1       227 8.07925E+00
 -1       228 7.71393E+00
 -1       229 7.59435E+00
 -1       230 7.78306E+00
 -1       231 1.33633E+01
 -1       232 9.34520E+00
 -1       233 7.85904E+00
 -1       234 9.53402E+00
 -1       235 9.31086E+00
 -1       236 7.42678E+00
 -1       237 7.45842E+00
 -1       238 8.67783E+00
 -1       239 1.04758E+01
 -1       240 9.30823E+00
 -1       241 7.54923E+00
 -1       242 8.70548E+00
 -1       243 1.04490E+01
 -1       244 9.27209E+00
 -1       245 7.51734E+00
 -1       246 7.51818E+00
 -1       247 7.55868E+00
 -1       248 8.70537E+00
 -1       249 1.03657E+01
 -1       250 9.28930E+00
 -1       251 7.65597E+00
 -1       252 7.66794E+00
 -1       253 8.65207E+00
 -1       254 1.01816E+01
 -1       255 1.00604E+01
 -1       256 1.00205E+01
 -1       257 9.21113E+00
 -1       258 7.79716E+00
 -1       259 7.80352E+00
 -1       260 7.93267E+00
 -1       261 7.89659E+00
 -1       262 7.65414E+00
 -1       263 7.68870E+00
 -1       264 1.05732E+01
 -1       265 2.15917E+01
 -1       266 9.68582E+00
 -1       267 9.68582E+00
 -1       268 9.02114E+00
 -1       269 1.13757E+01
 -1       270 8.82666E+00
 -1       271 1.13809E+01
 -1       272 8.92800E+00
 -1       273 8.92655E+00
 -1       274 1.13675E+01
 -1       275 1.02282E+01
 -1       276 8.92154E+00
 -1       277 9.11884E+00
 -1       278 1.13524E+01
 -1       279 8.93161E+00
 -1       280 1.00206E+01
 -1       281 1.12351E+01
 -1       282 9.21004E+00
 -1       283 8.89969E+00
 -1       284 8.85918E+00
 -1       285 9.32708E+00
 -1       286 1.09404E+01
 -1       287 8.81217E+00
 -1       288 1.02927E+01
 -1       289 9.56842E+00
 -1       290 8.74396E+00
 -1       291 9.91025E+00
 -1       292 1.07341E+01
 -1       293 1.13640E+01
 -1       294 8.62286E+00
 -1       295 1.05602E+01
 -1       296 9.82174E+00
 -1       297 8.37506E+00
 -1       298 1.29665E+01
 -1       299 1.09315E+01
 -1       300 9.68582E+00
 -1       301 9.35348E+00
 -1       302 1.01984E+01
 -1       303 1.01012E+01
 -1       304 1.01038E+01
 -1       305 1.01544E+01
 -1       306 8.92727E+00
 -1       307 1.01470E+01
 -1       308 1.07979E+01
 -1       309 9.57487E+00
 -1       310 9.02019E+00
 -1       311 1.02356E+01
 -1       312 1.01420E+01
 -1       313 9.47613E+00
 -1       314 1.06279E+01
 -1       315 1.02226E+01
 -1       316 9.05486E+00
 -1       317 8.87943E+00
 -1       318 9.09313E+00
 -1       319 1.01338E+01
 -1       320 9.87630E+00
 -1       321 9.55244E+00
 -1       322 9.93057E+00
 -1       323 9.15619E+00
 -1       324 9.32710E+00
 -1       325 1.03222E+01
 -1       326 1.10491E+01
 -1       327 9.99344E+00
 -1       328 9.59151E+00
 -1       329 1.01910E+01
 -1       330 9.09840E+00
 -1       331 1.06708E+01
 -1       332 2.12949E+01
 -1       333 3.19989E+01
 -1       334 3.32640E+01
 -1       335 1.21800E+01
 -1       336 3.32640E+01
 -1       337 3.73064E+01
 -1       338 1.89369E+01
 -1       339 2.72108E+01
 -1       340 1.93610E+01
 -1       341 1.18217E+01
 -1       342 3.73064E+01
 -1       343 1.13882E+01
 -1       344 1.13679E+01
 -1       345 1.46369E+01
 -1       346 1.38918E+01
 -1       347 3.73064E+01
 -1       348 1.13261E+01
 -1       349 1.24830E+01
 -1       350 1.08838E+01
 -1       351 1.55338E+01
 -1       352 1.34258E+01
 -1       353 1.24288E+01
 -1       354 1.30345E+01
 -1       355 1.11191E+01
 -1       356 1.52302E+01
 -1       357 1.10996E+01
 -1       358 1.28127E+01
 -1       359 1.02120E+01
 -1       360 2.99956E+01
 -1       361 2.48474E+01
 -1       362 2.39505E+01
 -1       363 2.34209E+01
 -1       364 2.99956E+01
 -1       365 3.32640E+01
 -1       366 2.23261E+01
 -1       367 1.44931E+01
 -1       368 1.46582E+01
 -1       369 1.51626E+01
 -1       370 1.00840E+01
 -1       371 1.09354E+01
 -1       372 1.53793E+01
 -1       373 1.28567E+01
 -1       374 2.07341E+01
 -1       375 2.68773E+01
 -1       376 1.92894E+01
 -1       377 2.92713E+01
 -1       378 2.42837E+01
 -1       379 2.96049E+01
 -1       380 2.29454E+01
 -1       381 1.47908E+01
 -1       382 1.47908E+01
 -1       383 1.69990E+01
 -1       384 1.12003E+01
 -1       385 1.06180E+01
 -1       386 1.57705E+01
 -1       387 1.17739E+01
 -1       388 3.22586E+01
 -1       389 3.46527E+01
 -1       390 2.19103E+01
 -1       391 3.46527E+01
 -1       392 2.45641E+01
 -1       393 3.73064E+01
 -1       394 3.52852E+01
 -1       395 3.52852E+01
 -1       396 2.61005E+01
 -1       397 2.81217E+01
 -1       398 1.96954E+01
 -1       399 2.47432E+01
 -1       400 2.83337E+01
 -1       401 2.83337E+01
 -1       402 2.63125E+01
 -1       403 2.81217E+01
 -1       404 3.73064E+01
 -1       405 3.73064E+01
 -1       406 3.04019E+01
 -1       407 3.11462E+01
 -1       408 1.37442E+01
 -1       409 3.17321E+01
 -1       410 1.10165E+01
 -1       411 1.23895E+01
 -1       412 3.14351E+01
 -1       413 1.17992E+01
 -1       414 1.37187E+01
 -1       415 9.95365E+00
 -1       416 3.12492E+01
 -1       417 2.98200E+01
 -1       418 2.97758E+01
 -1       419 2.96234E+01
 -1       420 1.23767E+01
 -1       421 2.34214E+01
 -1       422 3.12492E+01
 -1       423 3.13422E+01
 -1       424 2.97758E+01
 -1       425 2.21010E+01
 -1       426 3.07539E+01
 -1       427 3.00126E+01
 -1       428 2.96234E+01
 -1       429 2.19634E+01
 -1       430 2.27486E+01
 -1       431 2.98200E+01
 -1       432 3.04831E+01
 -1       433 1.31127E+01
 -1       434 9.40363E+00
 -1       435 2.07875E+01
 -1       436 1.03762E+01
 -1       437 1.46689E+01
 -1       438 1.27717E+01
 -1       439 2.24967E+01
 -1       440 3.14351E+01
 -1       441 3.14351E+01
 -1       442 3.13422E+01
 -1       443 3.09185E+01
 -1       444 3.04019E+01
 -1       445 3.09185E+01
 -1       446 3.00126E+01
 -1       447 1.08396E+01
 -1       448 1.40333E+01
 -1       449 2.11047E+01
 -1       450 1.40110E+01
 -1       451 1.15042E+01
 -1       452 1.30541E+01
 -1       453 2.16710E+01
 -1       454 3.17321E+01
 -1       455 3.17321E+01
 -1       456 3.07539E+01
 -1       457 3.11462E+01
 -1       458 3.14391E+01
 -1       459 3.14391E+01
 -1       460 3.04831E+01
 -1       461 2.19059E+01
 -1       462 2.13893E+01
 -1       463 2.01778E+01
 -1       464 1.18362E+01
 -1       465 2.20603E+01
 -1       466 1.11652E+01
 -1       467 2.10813E+01
 -1       468 2.13743E+01
 -1       469 2.17679E+01
 -1       470 1.17030E+01
 -1       471 2.25897E+01
 -1       472 1.30605E+01
 -1       473 1.20879E+01
 -1       474 1.14078E+01
 -1       475 2.17656E+01
 -1       476 1.11716E+01
 -1       477 1.04851E+01
 -1       478 1.16966E+01
 -1       479 1.80811E+01
 -1       480 1.43476E+01
 -1       481 1.13685E+01
 -1       482 2.04737E+01
 -1       483 1.51491E+01
 -1       484 1.67707E+01
 -1       485 1.11560E+01
 -1       486 1.60541E+01
 -1       487 2.35545E+01
 -1       488 2.37970E+01
 -1       489 1.64759E+01
 -1       490 2.31992E+01
 -1       491 2.19456E+01
 -1       492 2.29842E+01
 -1       493 1.62162E+01
 -1       494 2.40640E+01
 -1       495 8.26439E+00
 -1       496 2.16579E+01
 -1       497 1.27532E+01
 -1       498 1.64175E+01
 -1       499 1.93835E+01
 -1       500 1.65443E+01
 -1       501 1.95822E+01
 -1       502 1.61958E+01
 -1       503 3.03403E+01
 -1       504 9.46768E+00
 -1       505 1.45757E+01
 -1       506 1.26555E+01
 -1       507 1.53989E+01
 -1       508 1.98202E+01
 -1       509 1.65484E+01
 -1       510 1.67408E+01
 -1       511 2.35887E+01
 -1       512 2.35359E+01
 -1       513 2.99725E+01
 -1       514 8.91467E+00
 -1       515 1.76530E+01
 -1       516 1.44183E+01
 -1       517 1.58147E+01
 -1       518 2.16140E+01
 -1       519 1.54317E+01
 -1       520 2.00393E+01
 -1       521 2.31229E+01
 -1       522 2.25675E+01
 -1       523 2.24517E+01
 -1       524 2.93627E+01
 -1       525 1.64791E+01
 -1       526 1.35186E+01
 -1       527 1.55355E+01
 -1       528 2.20513E+01
 -1       529 1.05003E+01
 -1       530 1.22232E+01
 -1       531 1.68940E+01
 -1       532 1.66245E+01
 -1       533 1.34477E+01
 -1       534 2.33696E+01
 -1       535 1.21549E+01
 -1       536 2.11568E+01
 -1       537 2.23091E+01
 -1       538 1.55729E+01
 -1       539 1.91676E+01
 -1       540 1.51088E+01
 -1       541 2.95624E+01
 -1       542 2.95449E+01
 -1       543 1.65359E+01
 -1       544 2.59890E+01
 -1       545 1.67010E+01
 -1       546 2.91842E+01
 -1       547 1.06008E+01
 -1       548 1.65349E+01
 -1       549 1.31711E+01
 -1       550 2.99725E+01
 -1       551 2.20856E+01
 -1       552 2.45298E+01
 -1       553 2.61028E+01
 -1       554 2.21905E+01
 -1       555 2.84413E+01
 -1       556 2.71648E+01
 -1       557 2.75534E+01
 -1       558 2.77962E+01
 -1       559 1.78439E+01
 -1       560 1.97825E+01
 -1       561 2.47776E+01
 -1       562 2.79533E+01
 -1       563 2.88211E+01
 -1       564 2.97959E+01
 -1       565 2.97541E+01
 -1       566 2.97084E+01
 -1       567 2.96979E+01
 -1       568 2.96887E+01
 -1       569 2.93663E+01
 -1       570 2.64478E+01
 -1       571 2.88211E+01
 -1       572 2.92127E+01
 -1       573 1.59072E+01
 -1       574 2.99709E+01
 -1       575 1.05598E+01
 -1       576 2.29823E+01
 -1       577 9.90932E+00
 -1       578 3.03403E+01
 -1       579 1.12640E+01
 -1       580 1.22147E+01
 -1       581 2.79771E+01
 -1       582 2.86444E+01
 -1       583 9.29278E+00
 -1       584 1.24209E+01
 -1       585 1.12640E+01
 -1       586 9.53963E+00
 -1       587 1.22147E+01
 -1       588 1.43227E+01
 -1       589 1.09462E+01
 -1       590 2.99468E+01
 -1       591 2.21190E+01
 -1       592 2.10519E+01
 -1       593 2.12017E+01
 -1       594 2.88764E+01
 -1       595 2.05663E+01
 -1       596 2.33855E+01
 -1       597 2.85337E+01
 -1       598 2.12775E+01
 -1       599 2.63580E+01
 -1       600 1.97834E+01
 -1       601 2.81647E+01
 -1       602 1.86265E+01
 -1       603 8.78394E+00
 -1       604 1.24930E+01
 -1       605 1.92684E+01
 -1       606 1.25307E+01
 -1       607 8.23789E+00
 -1       608 1.00137E+01
 -1       609 1.90560E+01
 -1       610 1.63300E+01
 -1       611 1.63300E+01
 -1       612 1.75985E+01
 -1       613 1.65621E+01
 -1       614 1.68708E+01
 -1       615 2.35232E+01
 -1       616 1.74843E+01
 -1       617 1.63244E+01
 -1       618 2.38263E+01
 -1       619 1.62401E+01
 -1       620 1.74579E+01
 -1       621 2.35623E+01
 -1       622 1.74781E+01
 -1       623 1.62494E+01
 -1       624 2.35452E+01
 -1       625 1.61470E+01
 -1       626 1.73856E+01
 -1       627 2.34620E+01
 -1       628 1.63605E+01
 -1       629 1.63608E+01
 -1       630 2.35833E+01
 -1       631 1.72291E+01
 -1       632 1.60234E+01
 -1       633 2.34599E+01
 -1       634 1.66087E+01
 -1       635 1.71598E+01
 -1       636 2.30535E+01
 -1       637 1.56228E+01
 -1       638 1.62712E+01
 -1       639 2.26467E+01
 -1       640 1.60608E+01
 -1       641 1.60678E+01
 -1       642 2.27542E+01
 -1       643 1.69718E+01
 -1       644 1.57449E+01
 -1       645 2.28834E+01
 -1       646 1.57784E+01
 -1       647 1.69139E+01
 -1       648 2.25096E+01
 -1       649 1.59972E+01
 -1       650 1.55253E+01
 -1       651 2.21987E+01
 -1       652 1.66509E+01
 -1       653 1.60501E+01
 -1       654 2.19985E+01
 -1       655 1.52796E+01
 -1       656 1.64542E+01
 -1       657 2.18546E+01
 -1       658 1.52539E+01
 -1       659 1.52577E+01
 -1       660 2.16360E+01
 -1       661 1.62501E+01
 -1       662 1.50253E+01
 -1       663 2.13854E+01
 -1       664 1.48772E+01
 -1       665 1.59086E+01
 -1       666 2.08152E+01
 -1       667 1.55946E+01
 -1       668 1.46600E+01
 -1       669 2.02565E+01
 -1       670 1.45805E+01
 -1       671 1.54850E+01
 -1       672 1.99297E+01
 -1       673 1.47521E+01
 -1       674 1.42542E+01
 -1       675 1.94939E+01
 -1       676 1.38468E+01
 -1       677 1.42089E+01
 -1       678 1.86244E+01
 -1       679 1.31982E+01
 -1       680 1.36327E+01
 -1       681 1.78671E+01
 -1       682 1.32289E+01
 -1       683 1.26459E+01
 -1       684 1.71007E+01
 -1       685 1.31329E+01
 -1       686 1.27225E+01
 -1       687 1.60419E+01
 -1       688 1.28687E+01
 -1       689 1.25390E+01
 -1       690 1.49416E+01
 -1       691 1.10380E+01
 -1       692 1.24187E+01
 -1       693 1.38976E+01
 -1       694 1.14464E+01
 -1       695 1.04257E+01
 -1       696 1.28354E+01
 -1       697 1.08365E+01
 -1       698 1.17114E+01
 -1       699 1.24882E+01
 -1       700 8.42198E+00
 -1       701 8.91724E+00
 -1       702 1.08339E+01
 -1       703 1.07100E+01
 -1       704 8.09684E+00
 -1       705 8.58953E+00
 -1       706 1.81207E+01
 -1       707 1.20157E+01
 -1       708 1.20157E+01
 -1       709 1.37401E+01
 -1       710 1.22780E+01
 -1       711 1.38693E+01
 -1       712 1.64785E+01
 -1       713 1.37368E+01
 -1       714 1.34341E+01
 -1       715 1.66083E+01
 -1       716 1.34636E+01
 -1       717 1.19465E+01
 -1       718 1.65054E+01
 -1       719 1.19471E+01
 -1       720 1.34646E+01
 -1       721 1.65354E+01
 -1       722 1.34055E+01
 -1       723 1.19699E+01
 -1       724 1.64767E+01
 -1       725 1.20734E+01
 -1       726 1.38459E+01
 -1       727 1.65210E+01
 -1       728 1.53248E+01
 -1       729 1.35570E+01
 -1       730 1.81034E+01
 -1       731 1.22128E+01
 -1       732 1.22240E+01
 -1       733 1.82381E+01
 -1       734 1.18749E+01
 -1       735 1.30353E+01
 -1       736 1.65449E+01
 -1       737 1.31769E+01
 -1       738 1.37564E+01
 -1       739 1.63374E+01
 -1       740 1.52086E+01
 -1       741 1.33952E+01
 -1       742 1.79313E+01
 -1       743 1.20540E+01
 -1       744 1.33564E+01
 -1       745 1.80422E+01
 -1       746 1.29595E+01
 -1       747 1.28081E+01
 -1       748 1.63041E+01
 -1       749 1.31266E+01
 -1       750 1.20379E+01
 -1       751 1.62258E+01
 -1       752 1.16731E+01
 -1       753 1.27970E+01
 -1       754 1.61795E+01
 -1       755 1.29167E+01
 -1       756 1.34818E+01
 -1       757 1.59344E+01
 -1       758 1.32412E+01
 -1       759 1.26012E+01
 -1       760 1.58135E+01
 -1       761 1.25142E+01
 -1       762 1.15371E+01
 -1       763 1.54859E+01
 -1       764 1.15535E+01
 -1       765 1.28268E+01
 -1       766 1.54153E+01
 -1       767 1.26855E+01
 -1       768 1.31363E+01
 -1       769 1.52904E+01
 -1       770 1.31162E+01
 -1       771 1.25647E+01
 -1       772 1.51290E+01
 -1       773 1.22981E+01
 -1       774 1.11638E+01
 -1       775 1.48422E+01
 -1       776 1.10851E+01
 -1       777 1.25266E+01
 -1       778 1.44970E+01
 -1       779 1.37028E+01
 -1       780 1.23008E+01
 -1       781 1.55945E+01
 -1       782 1.06748E+01
 -1       783 1.06608E+01
 -1       784 1.51446E+01
 -1       785 1.02293E+01
 -1       786 1.13946E+01
 -1       787 1.30870E+01
 -1       788 1.11444E+01
 -1       789 9.98630E+00
 -1       790 1.24052E+01
 -1       791 9.48685E+00
 -1       792 1.05634E+01
 -1       793 1.16555E+01
 -1       794 1.02355E+01
 -1       795 9.62981E+00
 -1       796 1.08282E+01
 -1       797 1.00639E+01
 -1       798 1.06389E+01
 -1       799 1.09344E+01
 -1       800 9.90932E+00
 -1       801 1.16844E+01
 -1       802 1.06389E+01
 -1       803 1.92768E+01
 -1       804 2.20504E+01
 -1       805 2.22645E+01
 -1       806 2.26230E+01
 -1       807 2.31662E+01
 -1       808 2.68063E+01
 -1       809 1.82166E+01
 -1       810 1.88105E+01
 -1       811 1.78191E+01
 -1       812 1.82690E+01
 -1       813 2.21380E+01
 -1       814 1.18357E+01
 -1       815 1.22698E+01
 -1       816 1.09846E+01
 -1       817 1.18860E+01
 -1       818 1.02551E+01
 -1       819 2.39177E+01
 -1       820 2.41349E+01
 -1       821 2.44575E+01
 -1       822 2.47991E+01
 -1       823 2.81187E+01
 -1       824 2.14925E+01
 -1       825 2.13512E+01
 -1       826 2.06259E+01
 -1       827 2.06058E+01
 -1       828 2.68281E+01
 -1       829 1.95980E+01
 -1       830 2.07741E+01
 -1       831 2.06502E+01
 -1       832 1.90242E+01
 -1       833 2.46537E+01
 -1       834 1.45000E+01
 -1       835 1.41721E+01
 -1       836 1.59687E+01
 -1       837 1.54692E+01
 -1       838 1.88132E+01
 -1       839 2.23179E+01
 -1       840 2.24376E+01
 -1       841 2.20037E+01
 -1       842 2.17631E+01
 -1       843 2.83872E+01
 -1       844 2.67635E+01
 -1       845 2.67542E+01
 -1       846 2.67635E+01
 -1       847 2.99725E+01
 -1       848 2.66710E+01
 -1       849 2.64385E+01
 -1       850 2.67756E+01
 -1       851 2.67964E+01
 -1       852 2.65827E+01
 -1       853 2.97750E+01
 -1       854 2.31429E+01
 -1       855 2.30104E+01
 -1       856 2.97579E+01
 -1       857 2.32234E+01
 -1       858 2.32529E+01
 -1       859 2.59669E+01
 -1       860 2.62827E+01
 -1       861 2.64485E+01
 -1       862 2.60035E+01
 -1       863 2.95321E+01
 -1       864 2.56542E+01
 -1       865 2.59072E+01
 -1       866 2.55649E+01
 -1       867 2.92735E+01
 -1       868 2.56178E+01
 -1       869 2.63365E+01
 -1       870 2.64058E+01
 -1       871 2.60088E+01
 -1       872 2.63463E+01
 -1       873 2.96985E+01
 -1       874 2.28893E+01
 -1       875 2.31516E+01
 -1       876 2.32783E+01
 -1       877 2.99514E+01
 -1       878 2.11026E+01
 -1       879 2.81647E+01
 -1       880 2.65668E+01
 -1       881 2.68045E+01
 -1       882 2.68132E+01
 -1       883 2.95537E+01
 -1       884 2.62724E+01
 -1       885 9.43260E+00
 -1       886 9.75774E+00
 -1       887 8.77858E+00
 -1       888 9.94680E+00
 -1       889 9.41208E+00
 -1       890 9.92628E+00
 -1       891 2.52175E+01
 -1       892 2.52395E+01
 -1       893 2.52395E+01
 -1       894 2.54362E+01
 -1       895 2.88211E+01
 -1       896 1.10429E+01
 -1       897 1.29622E+01
 -1       898 1.52985E+01
 -1       899 1.50335E+01
 -1       900 1.55075E+01
 -1       901 2.31067E+01
 -1       902 2.32102E+01
 -1       903 2.32542E+01
 -1       904 2.31950E+01
 -1       905 2.98842E+01
 -1       906 2.29227E+01
 -1       907 2.43749E+01
 -1       908 2.42981E+01
 -1       909 2.29569E+01
 -1       910 2.92895E+01
 -1       911 2.26827E+01
 -1       912 2.23179E+01
 -1       913 2.28642E+01
 -1       914 2.90026E+01
 -1       915 2.25457E+01
 -1       916 2.46355E+01
 -1       917 2.32913E+01
 -1       918 2.31893E+01
 -1       919 2.46682E+01
 -1       920 2.97214E+01
 -1       921 2.29468E+01
 -1       922 2.30885E+01
 -1       923 2.33012E+01
 -1       924 2.29521E+01
 -1       925 2.97031E+01
 -1       926 3.03403E+01
 -1       927 2.66613E+01
 -1       928 2.66613E+01
 -1       929 9.38023E+00
 -1       930 9.68850E+00
 -1       931 9.60105E+00
 -1       932 2.05117E+01
 -1       933 2.04331E+01
 -1       934 2.11368E+01
 -1       935 2.08703E+01
 -1       936 1.78021E+01
 -1       937 1.73705E+01
 -1       938 1.74230E+01
 -1       939 1.71727E+01
 -1       940 2.15975E+01
 -1       941 2.16139E+01
 -1       942 2.20071E+01
 -1       943 2.19201E+01
 -1       944 2.36868E+01
 -1       945 2.37963E+01
 -1       946 2.26352E+01
 -1       947 2.29615E+01
 -1       948 2.06630E+01
 -1       949 2.12153E+01
 -1       950 2.00327E+01
 -1       951 2.05391E+01
 -1       952 2.67534E+01
 -1       953 2.67798E+01
 -1       954 2.99717E+01
 -1       955 2.32542E+01
 -1       956 2.32537E+01
 -1       957 2.56127E+01
 -1       958 2.45550E+01
 -1       959 2.47837E+01
 -1       960 2.76748E+01
 -1       961 2.58322E+01
 -1       962 2.58901E+01
 -1       963 2.92877E+01
 -1       964 2.30319E+01
 -1       965 2.26350E+01
 -1       966 2.33077E+01
 -1       967 1.60028E+01
 -1       968 1.66151E+01
 -1       969 2.09865E+01
 -1       970 2.81973E+01
 -1       971 2.66338E+01
 -1       972 1.45586E+01
 -1       973 1.61165E+01
 -1       974 8.57081E+00
 -1       975 1.58983E+01
 -1       976 1.50998E+01
 -1       977 1.68094E+01
 -1       978 1.22769E+01
 -1       979 2.16196E+01
 -1       980 1.69744E+01
 -1       981 1.66283E+01
 -1       982 2.35925E+01
 -1       983 1.64761E+01
 -1       984 2.11074E+01
 -1       985 1.68807E+01
 -1       986 2.29347E+01
 -1       987 1.66642E+01
 -1       988 8.24123E+00
 -1       989 1.76507E+01
 -1       990 1.58651E+01
 -1       991 1.33217E+01
 -1       992 1.99772E+01
 -1       993 1.55657E+01
 -1       994 1.91582E+01
 -1       995 2.33611E+01
 -1       996 2.25816E+01
 -1       997 2.16486E+01
 -1       998 2.31389E+01
 -1       999 2.23049E+01
 -1      1000 2.99296E+01
 -1      1001 9.28967E+00
 -1      1002 2.41550E+01
 -1      1003 1.67585E+01
 -1      1004 1.69871E+01
 -1      1005 2.99396E+01
 -1      1006 1.01628E+01
 -1      1007 1.44202E+01
 -1      1008 1.43166E+01
 -1      1009 2.05587E+01
 -1      1010 2.15144E+01
 -1      1011 1.60091E+01
 -1      1012 1.58909E+01
 -1      1013 2.11544E+01
 -1      1014 1.95670E+01
 -1      1015 1.94019E+01
 -1      1016 1.69484E+01
 -1      1017 2.96925E+01
 -1      1018 2.32054E+01
 -1      1019 1.94831E+01
 -1      1020 1.34866E+01
 -1      1021 1.67214E+01
 -1      1022 1.05336E+01
 -1      1023 1.22252E+01
 -1      1024 2.30035E+01
 -1      1025 2.38101E+01
 -1      1026 1.21407E+01
 -1      1027 1.80687E+01
 -1      1028 1.62929E+01
 -1      1029 1.59077E+01
 -1      1030 1.61912E+01
 -1      1031 1.34353E+01
 -1      1032 1.51516E+01
 -1      1033 1.65488E+01
 -1      1034 2.95682E+01
 -1      1035 2.95690E+01
 -1      1036 2.33504E+01
 -1      1037 2.92360E+01
 -1      1038 2.22886E+01
 -1      1039 2.88156E+01
 -1      1040 9.61434E+00
 -1      1041 2.35066E+01
 -1      1042 1.04194E+01
 -1      1043 2.99396E+01
 -1      1044 2.20825E+01
 -1      1045 2.13221E+01
 -1      1046 2.47412E+01
 -1      1047 1.67718E+01
 -1      1048 2.71417E+01
 -1      1049 2.79803E+01
 -1      1050 2.72846E+01
 -1      1051 2.65476E+01
 -1      1052 1.90472E+01
 -1      1053 2.45301E+01
 -1      1054 2.88166E+01
 -1      1055 2.99198E+01
 -1      1056 2.97630E+01
 -1      1057 2.79478E+01
 -1      1058 2.97088E+01
 -1      1059 2.96988E+01
 -1      1060 2.96888E+01
 -1      1061 2.72678E+01
 -1      1062 2.65476E+01
 -1      1063 2.93667E+01
 -1      1064 2.88166E+01
 -1      1065 2.91789E+01
 -1      1066 2.13506E+01
 -1      1067 2.99509E+01
 -1      1068 1.14128E+01
 -1      1069 1.62588E+01
 -1      1070 8.61640E+00
 -1      1071 2.97570E+01
 -1      1072 1.21771E+01
 -1      1073 1.17521E+01
 -1      1074 2.89512E+01
 -1      1075 2.78924E+01
 -1      1076 1.09224E+01
 -1      1077 1.21771E+01
 -1      1078 1.43728E+01
 -1      1079 1.09315E+01
 -1      1080 1.30048E+01
 -1      1081 1.12917E+01
 -1      1082 9.80558E+00
 -1      1083 2.10979E+01
 -1      1084 2.87579E+01
 -1      1085 2.04295E+01
 -1      1086 2.93856E+01
 -1      1087 2.23142E+01
 -1      1088 2.11573E+01
 -1      1089 2.82367E+01
 -1      1090 2.20935E+01
 -1      1091 2.08409E+01
 -1      1092 2.29023E+01
 -1      1093 2.78899E+01
 -1      1094 2.95828E+01
 -1      1095 2.07066E+01
 -1      1096 1.35450E+01
 -1      1097 1.03512E+01
 -1      1098 2.01820E+01
 -1      1099 9.28967E+00
 -1      1100 1.17965E+01
 -1      1101 1.03512E+01
 -1      1102 1.85910E+01
 -1      1103 1.20589E+01
 -1      1104 1.20589E+01
 -1      1105 1.40055E+01
 -1      1106 1.22616E+01
 -1      1107 1.39366E+01
 -1      1108 1.64615E+01
 -1      1109 1.39838E+01
 -1      1110 1.20856E+01
 -1      1111 1.67114E+01
 -1      1112 1.21999E+01
 -1      1113 1.22140E+01
 -1      1114 1.68728E+01
 -1      1115 1.22076E+01
 -1      1116 1.22252E+01
 -1      1117 1.69808E+01
 -1      1118 1.18844E+01
 -1      1119 1.30862E+01
 -1      1120 1.66336E+01
 -1      1121 1.32540E+01
 -1      1122 1.38501E+01
 -1      1123 1.64606E+01
 -1      1124 1.53194E+01
 -1      1125 1.35558E+01
 -1      1126 1.80977E+01
 -1      1127 1.22127E+01
 -1      1128 1.22173E+01
 -1      1129 1.82239E+01
 -1      1130 1.18725E+01
 -1      1131 1.30241E+01
 -1      1132 1.65360E+01
 -1      1133 1.31666E+01
 -1      1134 1.37585E+01
 -1      1135 1.63336E+01
 -1      1136 1.52214E+01
 -1      1137 1.34526E+01
 -1      1138 1.79390E+01
 -1      1139 1.22259E+01
 -1      1140 1.22399E+01
 -1      1141 1.81752E+01
 -1      1142 1.43194E+01
 -1      1143 1.43062E+01
 -1      1144 1.90279E+01
 -1      1145 1.21132E+01
 -1      1146 1.21669E+01
 -1      1147 1.89144E+01
 -1      1148 1.17387E+01
 -1      1149 1.28317E+01
 -1      1150 1.62933E+01
 -1      1151 1.29037E+01
 -1      1152 1.34710E+01
 -1      1153 1.59371E+01
 -1      1154 1.34204E+01
 -1      1155 1.17767E+01
 -1      1156 1.59584E+01
 -1      1157 1.17720E+01
 -1      1158 1.17823E+01
 -1      1159 1.59030E+01
 -1      1160 1.17786E+01
 -1      1161 1.17802E+01
 -1      1162 1.58946E+01
 -1      1163 1.13847E+01
 -1      1164 1.23672E+01
 -1      1165 1.54953E+01
 -1      1166 1.23931E+01
 -1      1167 1.29401E+01
 -1      1168 1.51257E+01
 -1      1169 1.26436E+01
 -1      1170 1.19754E+01
 -1      1171 1.48551E+01
 -1      1172 1.19062E+01
 -1      1173 1.25346E+01
 -1      1174 1.44894E+01
 -1      1175 1.37292E+01
 -1      1176 1.22914E+01
 -1      1177 1.56148E+01
 -1      1178 1.06300E+01
 -1      1179 1.06538E+01
 -1      1180 1.51480E+01
 -1      1181 1.19687E+01
 -1      1182 1.19513E+01
 -1      1183 1.48016E+01
 -1      1184 9.96337E+00
 -1      1185 1.01100E+01
 -1      1186 1.41286E+01
 -1      1187 1.01522E+01
 -1      1188 9.96956E+00
 -1      1189 1.21829E+01
 -1      1190 1.05178E+01
 -1      1191 1.04580E+01
 -1      1192 1.27734E+01
 -1      1193 8.87858E+00
 -1      1194 8.97294E+00
 -1      1195 1.17423E+01
 -1      1196 8.01214E+00
 -1      1197 1.08023E+01
 -1      1198 9.20202E+00
 -1      1199 1.85962E+01
 -1      1200 1.63103E+01
 -1      1201 1.63103E+01
 -1      1202 1.75559E+01
 -1      1203 1.65881E+01
 -1      1204 1.69204E+01
 -1      1205 2.35448E+01
 -1      1206 1.74841E+01
 -1      1207 1.63068E+01
 -1      1208 2.38737E+01
 -1      1209 1.61666E+01
 -1      1210 1.74412E+01
 -1      1211 2.35496E+01
 -1      1212 1.73656E+01
 -1      1213 1.60885E+01
 -1      1214 2.34285E+01
 -1      1215 1.61446E+01
 -1      1216 1.73710E+01
 -1      1217 2.33558E+01
 -1      1218 1.63683E+01
 -1      1219 1.63690E+01
 -1      1220 2.35856E+01
 -1      1221 1.72532E+01
 -1      1222 1.60327E+01
 -1      1223 2.34745E+01
 -1      1224 1.66159E+01
 -1      1225 1.71855E+01
 -1      1226 2.30712E+01
 -1      1227 1.56132E+01
 -1      1228 1.62665E+01
 -1      1229 2.26542E+01
 -1      1230 1.61621E+01
 -1      1231 1.60635E+01
 -1      1232 2.27551E+01
 -1      1233 1.69670E+01
 -1      1234 1.58502E+01
 -1      1235 2.28935E+01
 -1      1236 1.56101E+01
 -1      1237 1.68205E+01
 -1      1238 2.24351E+01
 -1      1239 1.56856E+01
 -1      1240 1.51411E+01
 -1      1241 2.18196E+01
 -1      1242 1.64419E+01
 -1      1243 1.58346E+01
 -1      1244 2.14996E+01
 -1      1245 1.53622E+01
 -1      1246 1.63748E+01
 -1      1247 2.15815E+01
 -1      1248 1.52596E+01
 -1      1249 1.54148E+01
 -1      1250 2.15670E+01
 -1      1251 1.50068E+01
 -1      1252 1.50271E+01
 -1      1253 2.13870E+01
 -1      1254 1.49429E+01
 -1      1255 1.47090E+01
 -1      1256 2.08566E+01
 -1      1257 1.54588E+01
 -1      1258 1.46522E+01
 -1      1259 2.02680E+01
 -1      1260 1.41476E+01
 -1      1261 1.52117E+01
 -1      1262 1.97301E+01
 -1      1263 1.47254E+01
 -1      1264 1.39852E+01
 -1      1265 1.93206E+01
 -1      1266 1.38185E+01
 -1      1267 1.41807E+01
 -1      1268 1.86134E+01
 -1      1269 1.31973E+01
 -1      1270 1.36095E+01
 -1      1271 1.78597E+01
 -1      1272 1.32295E+01
 -1      1273 1.26464E+01
 -1      1274 1.70997E+01
 -1      1275 1.31499E+01
 -1      1276 1.27380E+01
 -1      1277 1.60572E+01
 -1      1278 1.28403E+01
 -1      1279 1.25254E+01
 -1      1280 1.49412E+01
 -1      1281 1.10291E+01
 -1      1282 1.23997E+01
 -1      1283 1.38760E+01
 -1      1284 1.14185E+01
 -1      1285 1.04499E+01
 -1      1286 1.28561E+01
 -1      1287 1.01777E+01
 -1      1288 1.05469E+01
 -1      1289 1.14053E+01
 -1      1290 8.47293E+00
 -1      1291 9.19628E+00
 -1      1292 9.55223E+00
 -1      1293 1.07915E+01
 -1      1294 8.49573E+00
 -1      1295 8.59360E+00
 -1      1296 1.82544E+01
 -1      1297 2.05531E+01
 -1      1298 2.04839E+01
 -1      1299 2.08496E+01
 -1      1300 2.05531E+01
 -1      1301 2.65476E+01
 -1      1302 1.77846E+01
 -1      1303 1.90995E+01
 -1      1304 1.87193E+01
 -1      1305 1.67314E+01
 -1      1306 2.17023E+01
 -1      1307 9.49512E+00
 -1      1308 1.04765E+01
 -1      1309 1.00169E+01
 -1      1310 9.09257E+00
 -1      1311 9.11537E+00
 -1      1312 2.15831E+01
 -1      1313 2.15793E+01
 -1      1314 2.19278E+01
 -1      1315 2.19231E+01
 -1      1316 2.76078E+01
 -1      1317 2.15163E+01
 -1      1318 2.11207E+01
 -1      1319 2.11922E+01
 -1      1320 2.12181E+01
 -1      1321 2.72131E+01
 -1      1322 1.95807E+01
 -1      1323 2.07753E+01
 -1      1324 2.06698E+01
 -1      1325 1.90083E+01
 -1      1326 2.46356E+01
 -1      1327 1.36527E+01
 -1      1328 1.45244E+01
 -1      1329 1.56620E+01
 -1      1330 1.62412E+01
 -1      1331 1.79095E+01
 -1      1332 2.52181E+01
 -1      1333 2.51655E+01
 -1      1334 2.45674E+01
 -1      1335 2.47999E+01
 -1      1336 2.83984E+01
 -1      1337 2.34634E+01
 -1      1338 2.34570E+01
 -1      1339 2.99396E+01
 -1      1340 2.34570E+01
 -1      1341 2.31162E+01
 -1      1342 2.31956E+01
 -1      1343 2.46650E+01
 -1      1344 2.31063E+01
 -1      1345 2.32741E+01
 -1      1346 2.98414E+01
 -1      1347 2.65808E+01
 -1      1348 2.68620E+01
 -1      1349 2.67717E+01
 -1      1350 2.97599E+01
 -1      1351 2.67287E+01
 -1      1352 2.29214E+01
 -1      1353 2.43843E+01
 -1      1354 2.29450E+01
 -1      1355 2.30875E+01
 -1      1356 2.95327E+01
 -1      1357 2.33205E+01
 -1      1358 2.53999E+01
 -1      1359 2.92540E+01
 -1      1360 2.49615E+01
 -1      1361 2.27685E+01
 -1      1362 2.46279E+01
 -1      1363 2.32848E+01
 -1      1364 2.32948E+01
 -1      1365 2.29500E+01
 -1      1366 2.96988E+01
 -1      1367 2.68616E+01
 -1      1368 2.62514E+01
 -1      1369 2.96626E+01
 -1      1370 2.63458E+01
 -1      1371 2.94965E+01
 -1      1372 2.60854E+01
 -1      1373 2.31166E+01
 -1      1374 2.31638E+01
 -1      1375 2.95686E+01
 -1      1376 2.31162E+01
 -1      1377 2.29135E+01
 -1      1378 9.88858E+00
 -1      1379 8.92778E+00
 -1      1380 1.02684E+01
 -1      1381 9.58180E+00
 -1      1382 9.82699E+00
 -1      1383 1.11676E+01
 -1      1384 2.20991E+01
 -1      1385 2.23081E+01
 -1      1386 2.06450E+01
 -1      1387 2.11959E+01
 -1      1388 2.56444E+01
 -1      1389 2.23408E+01
 -1      1390 2.24128E+01
 -1      1391 2.27690E+01
 -1      1392 2.23408E+01
 -1      1393 2.88166E+01
 -1      1394 1.18706E+01
 -1      1395 1.02911E+01
 -1      1396 1.44985E+01
 -1      1397 1.50468E+01
 -1      1398 1.35956E+01
 -1      1399 2.36225E+01
 -1      1400 2.39132E+01
 -1      1401 2.33124E+01
 -1      1402 2.35594E+01
 -1      1403 2.72047E+01
 -1      1404 1.81996E+01
 -1      1405 1.88241E+01
 -1      1406 2.00479E+01
 -1      1407 2.05394E+01
 -1      1408 2.33063E+01
 -1      1409 2.32214E+01
 -1      1410 2.33838E+01
 -1      1411 2.23081E+01
 -1      1412 2.28529E+01
 -1      1413 2.69161E+01
 -1      1414 2.68650E+01
 -1      1415 2.66405E+01
 -1      1416 2.66504E+01
 -1      1417 2.66450E+01
 -1      1418 2.99297E+01
 -1      1419 2.59741E+01
 -1      1420 2.62860E+01
 -1      1421 2.57338E+01
 -1      1422 2.58803E+01
 -1      1423 2.92728E+01
 -1      1424 2.51655E+01
 -1      1425 2.52326E+01
 -1      1426 2.88161E+01
 -1      1427 2.52321E+01
 -1      1428 2.50831E+01
 -1      1429 2.63462E+01
 -1      1430 2.64139E+01
 -1      1431 2.64509E+01
 -1      1432 2.67865E+01
 -1      1433 2.97259E+01
 -1      1434 2.64521E+01
 -1      1435 2.60019E+01
 -1      1436 2.60069E+01
 -1      1437 2.63562E+01
 -1      1438 2.97038E+01
 -1      1439 2.98433E+01
 -1      1440 2.30079E+01
 -1      1441 2.30942E+01
 -1      1442 1.01060E+01
 -1      1443 8.95304E+00
 -1      1444 9.76939E+00
 -1      1445 2.33547E+01
 -1      1446 2.34690E+01
 -1      1447 2.99452E+01
 -1      1448 2.67231E+01
 -1      1449 2.66450E+01
 -1      1450 1.73787E+01
 -1      1451 1.78194E+01
 -1      1452 2.42533E+01
 -1      1453 2.45511E+01
 -1      1454 2.19947E+01
 -1      1455 2.19440E+01
 -1      1456 2.79641E+01
 -1      1457 2.42904E+01
 -1      1458 2.30637E+01
 -1      1459 2.94357E+01
 -1      1460 2.59906E+01
 -1      1461 2.55216E+01
 -1      1462 1.55939E+01
 -1      1463 1.56362E+01
 -1      1464 2.01846E+01
 -1      1465 1.24451E+01
 -1      1466 1.14037E+01
 -1      1467 1.22252E+01
 -1      1468 1.27532E+01
 -1      1469 1.23139E+01
 -1      1470 1.10140E+01
 -1      1471 1.27347E+01
 -1      1472 1.14975E+01
 -1      1473 1.27353E+01
 -1      1474 1.98532E+01
 -1      1475 1.11053E+01
 -1      1476 1.00655E+01
 -1      1477 1.16418E+01
 -1      1478 1.13402E+01
 -1      1479 1.17359E+01
 -1      1480 1.22886E+01
 -1      1481 1.21928E+01
 -1      1482 9.73257E+00
 -1      1483 1.57769E+01
 -1      1484 1.20853E+01
 -1      1485 1.98275E+01
 -1      1486 1.96955E+01
 -1      1487 1.17977E+01
 -1      1488 1.09611E+01
 -1      1489 3.17321E+01
 -1      1490 1.21429E+01
 -1      1491 1.25870E+01
 -1      1492 1.19770E+01
 -1      1493 1.19039E+01
 -1      1494 1.09196E+01
 -1      1495 2.05182E+01
 -1      1496 1.34196E+01
 -1      1497 1.92124E+01
 -1      1498 1.13968E+01
 -1      1499 1.28310E+01
 -1      1500 1.18449E+01
 -1      1501 1.04302E+01
 -1      1502 1.96501E+01
 -1      1503 1.17872E+01
 -1      1504 1.91467E+01
 -1      1505 1.22252E+01
 -1      1506 1.28544E+01
 -1      1507 1.76921E+01
 -1      1508 1.96410E+01
 -1      1509 1.98810E+01
 -1      1510 9.51930E+00
 -1      1511 1.23482E+01
 -1      1512 1.60768E+01
 -1      1513 1.10760E+01
 -1      1514 1.99026E+01
 -1      1515 1.95014E+01
 -1      1516 1.19996E+01
 -1      1517 1.16600E+01
 -1      1518 1.16268E+01
 -1      1519 1.07914E+01
 -1      1520 9.75368E+00
 -1      1521 1.95811E+01
 -1      1522 1.22886E+01
 -1      1523 1.84397E+01
 -1      1524 1.09768E+01
 -1      1525 1.98302E+01
 -1      1526 1.24736E+01
 -1      1527 1.01207E+01
 -1      1528 1.14910E+01
 -1      1529 1.23220E+01
 -1      1530 1.10865E+01
 -1      1531 1.16692E+01
 -1      1532 1.20485E+01
 -1      1533 1.99144E+01
 -1      1534 1.19935E+01
 -1      1535 1.31631E+01
 -1      1536 1.22642E+01
 -1      1537 1.60768E+01
 -1      1538 1.92517E+01
 -1      1539 1.24874E+01
 -1      1540 1.30764E+01
 -1      1541 1.64108E+01
 -1      1542 1.76193E+01
 -1      1543 1.98985E+01
 -1      1544 1.95217E+01
 -1      1545 1.24903E+01
 -1      1546 1.96658E+01
 -1      1547 1.87973E+01
 -1      1548 1.26086E+01
 -1      1549 1.95414E+01
 -1      1550 1.23008E+01
 -1      1551 1.99306E+01
 -1      1552 1.95977E+01
 -1      1553 1.92276E+01
 -1      1554 1.20798E+01
 -1      1555 1.90905E+01
 -1      1556 1.21515E+01
 -1      1557 1.21319E+01
 -1      1558 9.70468E+00
 -1      1559 1.96572E+01
 -1      1560 1.99075E+01
 -1      1561 3.11462E+01
 -1      1562 1.26761E+01
 -1      1563 1.22642E+01
 -1      1564 2.02639E+01
 -1      1565 1.00939E+01
 -1      1566 9.98045E+00
 -1      1567 2.98200E+01
 -1      1568 2.97758E+01
 -1      1569 1.22642E+01
 -1      1570 1.01005E+01
 -1      1571 1.10976E+01
 -1      1572 9.82905E+00
 -1      1573 1.04626E+01
 -1      1574 9.57493E+00
 -1      1575 8.97644E+00
 -1      1576 2.97758E+01
 -1      1577 3.07539E+01
 -1      1578 2.14656E+01
 -1      1579 3.04831E+01
 -1      1580 2.98200E+01
 -1      1581 2.15917E+01
 -1      1582 1.05909E+01
 -1      1583 1.05909E+01
 -1      1584 1.04708E+01
 -1      1585 9.58834E+00
 -1      1586 1.01707E+01
 -1      1587 1.05409E+01
 -1      1588 1.01073E+01
 -1      1589 3.17321E+01
 -1      1590 3.17321E+01
 -1      1591 3.07539E+01
 -1      1592 3.14391E+01
 -1      1593 3.11462E+01
 -1      1594 3.14391E+01
 -1      1595 3.04831E+01
 -1      1596 1.11769E+01
 -1      1597 1.11769E+01
 -1      1598 1.13283E+01
 -1      1599 1.10756E+01
 -1      1600 1.07668E+01
 -1      1601 1.25749E+01
 -1      1602 1.44566E+01
 -1      1603 1.56166E+01
 -1      1604 1.61634E+01
 -1      1605 1.15200E+01
 -1      1606 1.03022E+01
 -1      1607 1.57566E+01
 -1      1608 1.04607E+01
 -1      1609 1.16893E+01
 -1      1610 1.18185E+01
 -1      1611 1.56522E+01
 -1      1612 1.44136E+01
 -1      1613 1.59398E+01
 -1      1614 1.08299E+01
 -1      1615 1.08296E+01
 -1      1616 1.63190E+01
 -1      1617 1.44025E+01
 -1      1618 1.56082E+01
 -1      1619 1.63081E+01
 -1      1620 1.14886E+01
 -1      1621 1.09375E+01
 -1      1622 1.57614E+01
 -1      1623 9.87626E+00
 -1      1624 9.22785E+00
 -1      1625 1.05805E+01
 -1      1626 1.08954E+01
 -1      1627 1.08884E+01
 -1      1628 1.11869E+01
 -1      1629 1.43749E+01
 -1      1630 1.56018E+01
 -1      1631 1.63410E+01
 -1      1632 1.15014E+01
 -1      1633 1.03659E+01
 -1      1634 1.57272E+01
 -1      1635 9.58526E+00
 -1      1636 1.00572E+01
 -1      1637 1.08461E+01
 -1      1638 1.09180E+01
 -1      1639 1.15189E+01
 -1      1640 1.09263E+01
 -1      1641 1.54504E+01
 -1      1642 1.42758E+01
 -1      1643 1.57187E+01
 -1      1644 1.08181E+01
 -1      1645 1.08142E+01
 -1      1646 1.61924E+01
 -1      1647 1.42374E+01
 -1      1648 1.54623E+01
 -1      1649 1.61579E+01
 -1      1650 1.18287E+01
 -1      1651 1.07973E+01
 -1      1652 1.59475E+01
 -1      1653 1.03388E+01
 -1      1654 1.12733E+01
 -1      1655 1.18554E+01
 -1      1656 1.51811E+01
 -1      1657 1.42766E+01
 -1      1658 1.53046E+01
 -1      1659 1.08929E+01
 -1      1660 1.13909E+01
 -1      1661 1.58288E+01
 -1      1662 1.00452E+01
 -1      1663 9.68304E+00
 -1      1664 1.10994E+01
 -1      1665 1.10997E+01
 -1      1666 1.06652E+01
 -1      1667 1.11704E+01
 -1      1668 9.76740E+00
 -1      1669 1.03504E+01
 -1      1670 1.16892E+01
 -1      1671 1.06565E+01
 -1      1672 1.10670E+01
 -1      1673 1.10975E+01
 -1      1674 1.12876E+01
 -1      1675 1.16174E+01
 -1      1676 1.16243E+01
 -1      1677 1.18392E+01
 -1      1678 1.04585E+01
 -1      1679 1.20668E+01
 -1      1680 1.04585E+01
 -1      1681 1.14791E+01
 -1      1682 1.22886E+01
 -1      1683 1.33732E+01
 -1      1684 1.24983E+01
 -1      1685 1.41827E+01
 -1      1686 1.08365E+01
 -1      1687 1.03412E+01
 -1      1688 1.44150E+01
 -1      1689 1.00967E+01
 -1      1690 1.27098E+01
 -1      1691 1.25087E+01
 -1      1692 2.10200E+01
 -1      1693 9.59959E+00
 -1      1694 9.59959E+00
 -1      1695 1.07170E+01
 -1      1696 1.10643E+01
 -1      1697 9.38933E+00
 -1      1698 1.11299E+01
 -1      1699 9.65831E+00
 -1      1700 1.15564E+01
 -1      1701 1.14118E+01
 -1      1702 9.72023E+00
 -1      1703 9.70617E+00
 -1      1704 1.19517E+01
 -1      1705 9.48676E+00
 -1      1706 9.46917E+00
 -1      1707 1.17486E+01
 -1      1708 1.07744E+01
 -1      1709 9.57260E+00
 -1      1710 1.15833E+01
 -1      1711 1.10792E+01
 -1      1712 1.04830E+01
 -1      1713 1.13778E+01
 -1      1714 1.36200E+01
 -1      1715 1.53837E+01
 -1      1716 1.53910E+01
 -1      1717 9.80119E+00
 -1      1718 9.79656E+00
 -1      1719 1.58720E+01
 -1      1720 9.78089E+00
 -1      1721 8.62927E+00
 -1      1722 1.08766E+01
 -1      1723 1.10731E+01
 -1      1724 1.04812E+01
 -1      1725 1.04050E+01
 -1      1726 1.35721E+01
 -1      1727 1.53409E+01
 -1      1728 1.53731E+01
 -1      1729 9.66454E+00
 -1      1730 9.65052E+00
 -1      1731 1.57193E+01
 -1      1732 1.32977E+01
 -1      1733 1.33109E+01
 -1      1734 1.54441E+01
 -1      1735 9.80295E+00
 -1      1736 9.74926E+00
 -1      1737 1.55420E+01
 -1      1738 9.76547E+00
 -1      1739 8.67247E+00
 -1      1740 1.08631E+01
 -1      1741 1.10045E+01
 -1      1742 1.04372E+01
 -1      1743 1.04043E+01
 -1      1744 9.86548E+00
 -1      1745 1.15092E+01
 -1      1746 1.15807E+01
 -1      1747 9.57866E+00
 -1      1748 9.56830E+00
 -1      1749 1.17882E+01
 -1      1750 9.99576E+00
 -1      1751 9.99415E+00
 -1      1752 1.19065E+01
 -1      1753 1.06852E+01
 -1      1754 9.70270E+00
 -1      1755 1.20289E+01
 -1      1756 1.08527E+01
 -1      1757 1.03057E+01
 -1      1758 1.13563E+01
 -1      1759 9.91114E+00
 -1      1760 1.05794E+01
 -1      1761 1.07035E+01
 -1      1762 1.08315E+01
 -1      1763 1.02031E+01
 -1      1764 1.07221E+01
 -1      1765 1.31065E+01
 -1      1766 1.45443E+01
 -1      1767 1.47269E+01
 -1      1768 9.98194E+00
 -1      1769 9.95814E+00
 -1      1770 1.52913E+01
 -1      1771 1.27391E+01
 -1      1772 1.27565E+01
 -1      1773 1.49175E+01
 -1      1774 1.01522E+01
 -1      1775 1.00056E+01
 -1      1776 1.49586E+01
 -1      1777 9.96956E+00
 -1      1778 1.01522E+01
 -1      1779 1.22252E+01
 -1      1780 1.16856E+01
 -1      1781 1.17454E+01
 -1      1782 1.40011E+01
 -1      1783 1.06013E+01
 -1      1784 1.05070E+01
 -1      1785 1.45983E+01
 -1      1786 1.27781E+01
 -1      1787 9.98795E+00
 -1      1788 1.28062E+01
 -1      1789 2.10064E+01
 -1      1790 1.93671E+01
 -1      1791 1.59834E+01
 -1      1792 1.25268E+01
 -1      1793 1.11811E+01
 -1      1794 1.60651E+01
 -1      1795 1.51005E+01
 -1      1796 1.53211E+01
 -1      1797 1.50215E+01
 -1      1798 1.53277E+01
 -1      1799 1.90245E+01
 -1      1800 1.22630E+01
 -1      1801 1.22630E+01
 -1      1802 1.49222E+01
 -1      1803 1.76557E+01
 -1      1804 1.49600E+01
 -1      1805 1.60768E+01
 -1      1806 1.44150E+01
 -1      1807 1.25087E+01
 -1      1808 1.41705E+01
 -1      1809 1.22642E+01
 -1      1810 1.25725E+01
 -1      1811 1.21139E+01
 -1      1812 1.57708E+01
 -1      1813 1.60293E+01
 -1      1814 1.94043E+01
 -1      1815 1.20452E+01
 -1      1816 1.17533E+01
 -1      1817 1.54635E+01
 -1      1818 1.17507E+01
 -1      1819 1.27819E+01
 -1      1820 1.96239E+01
 -1      1821 1.61662E+01
 -1      1822 1.63166E+01
 -1      1823 1.97398E+01
 -1      1824 1.97481E+01
 -1      1825 1.19939E+01
 -1      1826 1.22450E+01
 -1      1827 1.19006E+01
 -1      1828 1.18147E+01
 -1      1829 1.23111E+01
 -1      1830 1.63214E+01
 -1      1831 1.98943E+01
 -1      1832 1.97020E+01
 -1      1833 1.61183E+01
 -1      1834 1.97045E+01
 -1      1835 1.97595E+01
 -1      1836 1.56629E+01
 -1      1837 1.98417E+01
 -1      1838 1.61519E+01
 -1      1839 1.97480E+01
 -1      1840 1.97858E+01
 -1      1841 1.55179E+01
 -1      1842 1.21342E+01
 -1      1843 1.65468E+01
 -1      1844 1.14339E+01
 -1      1845 1.46061E+01
 -1      1846 1.54669E+01
 -1      1847 1.49899E+01
 -1      1848 1.95305E+01
 -1      1849 1.57706E+01
 -1      1850 1.97691E+01
 -1      1851 1.56495E+01
 -1      1852 1.19950E+01
 -1      1853 1.09338E+01
 -1      1854 1.60027E+01
 -1      1855 1.57189E+01
 -1      1856 1.59292E+01
 -1      1857 2.03910E+01
 -1      1858 1.58020E+01
 -1      1859 1.07304E+01
 -1      1860 1.51923E+01
 -1      1861 1.52493E+01
 -1      1862 1.56288E+01
 -1      1863 1.19078E+01
 -1      1864 1.22009E+01
 -1      1865 1.58008E+01
 -1      1866 1.43497E+01
 -1      1867 1.62438E+01
 -1      1868 1.22947E+01
 -1      1869 1.22947E+01
 -1      1870 1.43558E+01
 -1      1871 1.22285E+01
 -1      1872 1.28419E+01
 -1      1873 1.22285E+01
 -1      1874 1.22642E+01
 -1      1875 2.16695E+01
 -1      1876 2.17052E+01
 -1      1877 1.53368E+01
 -1      1878 1.46652E+01
 -1      1879 1.09420E+01
 -1      1880 1.20725E+01
 -1      1881 1.58746E+01
 -1      1882 1.47482E+01
 -1      1883 1.59269E+01
 -1      1884 1.60938E+01
 -1      1885 1.43180E+01
 -1      1886 1.62438E+01
 -1      1887 1.59919E+01
 -1      1888 1.54872E+01
 -1      1889 1.53593E+01
 -1      1890 1.56565E+01
 -1      1891 1.95631E+01
 -1      1892 1.63925E+01
 -1      1893 1.98791E+01
 -1      1894 1.96845E+01
 -1      1895 1.55841E+01
 -1      1896 1.97360E+01
 -1      1897 1.98015E+01
 -1      1898 1.54970E+01
 -1      1899 1.58529E+01
 -1      1900 1.96763E+01
 -1      1901 1.97824E+01
 -1      1902 1.56696E+01
 -1      1903 1.95912E+01
 -1      1904 1.58560E+01
 -1      1905 1.97279E+01
 -1      1906 1.95024E+01
 -1      1907 1.56125E+01
 -1      1908 1.18186E+01
 -1      1909 1.64700E+01
 -1      1910 2.19981E+01
 -1      1911 2.19981E+01
 -1      1912 1.22642E+01
 -1      1913 1.82447E+01
 -1      1914 1.54701E+01
 -1      1915 1.56973E+01
 -1      1916 1.88457E+01
 -1      1917 1.25372E+01
 -1      1918 1.16394E+01
 -1      1919 1.14150E+01
 -1      1920 1.28317E+01
 -1      1921 1.20545E+01
 -1      1922 1.60173E+01
 -1      1923 1.20752E+01
 -1      1924 1.22337E+01
 -1      1925 1.58670E+01
 -1      1926 1.53749E+01
 -1      1927 1.58327E+01
 -1      1928 1.57848E+01
 -1      1929 2.01742E+01
 -1      1930 1.64959E+01
 -1      1931 1.65972E+01
 -1      1932 1.17383E+01
 -1      1933 1.56461E+01
 -1      1934 1.24554E+01
 -1      1935 1.21610E+01
 -1      1936 1.25765E+01
 -1      1937 1.47321E+01
 -1      1938 1.49539E+01
 -1      1939 1.82083E+01
 -1      1940 1.15194E+01
 -1      1941 1.17927E+01
 -1      1942 1.28425E+01
 -1      1943 1.19694E+01
 -1      1944 1.59008E+01
 -1      1945 1.56491E+01
 -1      1946 1.91186E+01
 -1      1947 1.55701E+01
 -1      1948 1.13412E+01
 -1      1949 1.30087E+01
 -1      1950 1.27556E+01
 -1      1951 1.21984E+01
 -1      1952 1.10265E+01
 -1      1953 1.58167E+01
 -1      1954 1.52939E+01
 -1      1955 1.55853E+01
 -1      1956 1.60781E+01
 -1      1957 1.58695E+01
 -1      1958 1.06857E+01
 -1      1959 1.22986E+01
 -1      1960 1.22613E+01
 -1      1961 1.13685E+01
 -1      1962 1.51648E+01
 -1      1963 1.26217E+01
 -1      1964 1.10657E+01
 -1      1965 1.07910E+01
 -1      1966 1.08851E+01
 -1      1967 1.10722E+01
 -1      1968 1.28765E+01
 -1      1969 1.00412E+01
 -1      1970 1.16741E+01
 -1      1971 1.23461E+01
 -1      1972 1.31547E+01
 -1      1973 1.17677E+01
 -1      1974 1.10320E+01
 -1      1975 1.96444E+01
 -1      1976 1.05527E+01
 -1      1977 1.96242E+01
 -1      1978 1.96307E+01
 -1      1979 1.21691E+01
 -1      1980 9.71228E+00
 -1      1981 1.05898E+01
 -1      1982 3.14351E+01
 -1      1983 1.14044E+01
 -1      1984 1.10558E+01
 -1      1985 1.27606E+01
 -1      1986 1.01541E+01
 -1      1987 1.24188E+01
 -1      1988 1.21017E+01
 -1      1989 1.87484E+01
 -1      1990 1.09911E+01
 -1      1991 1.12791E+01
 -1      1992 1.60954E+01
 -1      1993 1.67566E+01
 -1      1994 1.06825E+01
 -1      1995 9.56572E+00
 -1      1996 9.64644E+00
 -1      1997 1.22613E+01
 -1      1998 1.17991E+01
 -1      1999 1.10955E+01
 -1      2000 1.98365E+01
 -1      2001 1.16012E+01
 -1      2002 1.22892E+01
 -1      2003 1.97094E+01
 -1      2004 1.20939E+01
 -1      2005 1.13685E+01
 -1      2006 1.17950E+01
 -1      2007 1.98942E+01
 -1      2008 1.21150E+01
 -1      2009 1.12193E+01
 -1      2010 1.19903E+01
 -1      2011 1.67118E+01
 -1      2012 1.99095E+01
 -1      2013 1.84303E+01
 -1      2014 9.51465E+00
 -1      2015 9.30540E+00
 -1      2016 1.06571E+01
 -1      2017 1.50006E+01
 -1      2018 1.07952E+01
 -1      2019 1.25912E+01
 -1      2020 1.99592E+01
 -1      2021 1.01104E+01
 -1      2022 1.01304E+01
 -1      2023 1.16570E+01
 -1      2024 1.17330E+01
 -1      2025 1.26119E+01
 -1      2026 1.19851E+01
 -1      2027 1.17089E+01
 -1      2028 1.78703E+01
 -1      2029 1.92285E+01
 -1      2030 1.24731E+01
 -1      2031 1.31526E+01
 -1      2032 1.17874E+01
 -1      2033 1.76879E+01
 -1      2034 1.99571E+01
 -1      2035 1.93240E+01
 -1      2036 1.21974E+01
 -1      2037 1.97153E+01
 -1      2038 1.95630E+01
 -1      2039 1.71038E+01
 -1      2040 1.94156E+01
 -1      2041 1.90572E+01
 -1      2042 1.99092E+01
 -1      2043 1.25346E+01
 -1      2044 1.31873E+01
 -1      2045 1.24061E+01
 -1      2046 1.96754E+01
 -1      2047 1.51868E+01
 -1      2048 1.99306E+01
 -1      2049 1.95877E+01
 -1      2050 1.86481E+01
 -1      2051 1.96387E+01
 -1      2052 9.33975E+00
 -1      2053 1.95255E+01
 -1      2054 3.04019E+01
 -1      2055 1.10933E+01
 -1      2056 1.17089E+01
 -1      2057 1.84747E+01
 -1      2058 1.00948E+01
 -1      2059 9.43594E+00
 -1      2060 2.96234E+01
 -1      2061 3.12492E+01
 -1      2062 1.17089E+01
 -1      2063 1.03500E+01
 -1      2064 9.90767E+00
 -1      2065 8.62559E+00
 -1      2066 9.22058E+00
 -1      2067 1.11360E+01
 -1      2068 9.89033E+00
 -1      2069 3.13422E+01
 -1      2070 3.12492E+01
 -1      2071 2.23543E+01
 -1      2072 2.96234E+01
 -1      2073 3.00126E+01
 -1      2074 2.12949E+01
 -1      2075 1.04846E+01
 -1      2076 1.03195E+01
 -1      2077 1.00129E+01
 -1      2078 1.00898E+01
 -1      2079 9.23834E+00
 -1      2080 1.03601E+01
 -1      2081 1.01126E+01
 -1      2082 3.14351E+01
 -1      2083 3.14351E+01
 -1      2084 3.13422E+01
 -1      2085 3.04019E+01
 -1      2086 3.09185E+01
 -1      2087 3.09185E+01
 -1      2088 3.00126E+01
 -1      2089 9.45426E+00
 -1      2090 9.45426E+00
 -1      2091 1.02646E+01
 -1      2092 1.05541E+01
 -1      2093 8.96283E+00
 -1      2094 1.06019E+01
 -1      2095 1.07323E+01
 -1      2096 1.10350E+01
 -1      2097 1.05913E+01
 -1      2098 1.20350E+01
 -1      2099 1.35520E+01
 -1      2100 1.38920E+01
 -1      2101 1.02737E+01
 -1      2102 8.75614E+00
 -1      2103 1.34329E+01
 -1      2104 9.37085E+00
 -1      2105 1.08064E+01
 -1      2106 1.06867E+01
 -1      2107 1.09763E+01
 -1      2108 9.20374E+00
 -1      2109 1.10522E+01
 -1      2110 1.36206E+01
 -1      2111 1.53884E+01
 -1      2112 1.52973E+01
 -1      2113 9.82391E+00
 -1      2114 9.81280E+00
 -1      2115 1.59016E+01
 -1      2116 9.79353E+00
 -1      2117 8.63312E+00
 -1      2118 1.09031E+01
 -1      2119 1.10646E+01
 -1      2120 1.04852E+01
 -1      2121 1.04039E+01
 -1      2122 1.35188E+01
 -1      2123 1.53322E+01
 -1      2124 1.53631E+01
 -1      2125 1.09984E+01
 -1      2126 9.69600E+00
 -1      2127 1.58079E+01
 -1      2128 9.52434E+00
 -1      2129 9.67575E+00
 -1      2130 1.06624E+01
 -1      2131 9.85036E+00
 -1      2132 1.09390E+01
 -1      2133 1.07544E+01
 -1      2134 9.67250E+00
 -1      2135 8.54865E+00
 -1      2136 1.08674E+01
 -1      2137 1.09876E+01
 -1      2138 1.04225E+01
 -1      2139 1.03157E+01
 -1      2140 1.01433E+01
 -1      2141 1.07833E+01
 -1      2142 1.08614E+01
 -1      2143 1.14200E+01
 -1      2144 1.23971E+01
 -1      2145 1.29109E+01
 -1      2146 1.31587E+01
 -1      2147 1.18853E+01
 -1      2148 1.56301E+01
 -1      2149 1.12013E+01
 -1      2150 1.07505E+01
 -1      2151 1.36873E+01
 -1      2152 1.03531E+01
 -1      2153 1.09046E+01
 -1      2154 1.09824E+01
 -1      2155 8.52863E+00
 -1      2156 9.66299E+00
 -1      2157 9.99554E+00
 -1      2158 1.08454E+01
 -1      2159 9.40385E+00
 -1      2160 1.01806E+01
 -1      2161 1.31307E+01
 -1      2162 1.45326E+01
 -1      2163 1.47431E+01
 -1      2164 1.00508E+01
 -1      2165 1.00648E+01
 -1      2166 1.53644E+01
 -1      2167 1.04081E+01
 -1      2168 9.24282E+00
 -1      2169 1.14905E+01
 -1      2170 1.14091E+01
 -1      2171 1.25672E+01
 -1      2172 1.28416E+01
 -1      2173 1.08692E+01
 -1      2174 9.79266E+00
 -1      2175 1.33841E+01
 -1      2176 1.00639E+01
 -1      2177 1.06696E+01
 -1      2178 1.15681E+01
 -1      2179 1.06389E+01
 -1      2180 1.00639E+01
 -1      2181 1.13685E+01
 -1      2182 1.25841E+01
 -1      2183 1.08091E+01
 -1      2184 1.15387E+01
 -1      2185 2.14790E+01
 -1      2186 1.10159E+01
 -1      2187 1.10159E+01
 -1      2188 1.12205E+01
 -1      2189 1.08938E+01
 -1      2190 1.05614E+01
 -1      2191 1.22239E+01
 -1      2192 1.07199E+01
 -1      2193 1.18972E+01
 -1      2194 1.22602E+01
 -1      2195 1.16830E+01
 -1      2196 1.04085E+01
 -1      2197 1.22045E+01
 -1      2198 9.80881E+00
 -1      2199 1.10859E+01
 -1      2200 1.13906E+01
 -1      2201 1.56452E+01
 -1      2202 1.44188E+01
 -1      2203 1.53502E+01
 -1      2204 1.08443E+01
 -1      2205 1.08436E+01
 -1      2206 1.63350E+01
 -1      2207 1.44104E+01
 -1      2208 1.56308E+01
 -1      2209 1.63274E+01
 -1      2210 1.15208E+01
 -1      2211 1.09511E+01
 -1      2212 1.57841E+01
 -1      2213 9.87143E+00
 -1      2214 9.21809E+00
 -1      2215 1.05944E+01
 -1      2216 1.08990E+01
 -1      2217 1.09977E+01
 -1      2218 1.11956E+01
 -1      2219 1.44777E+01
 -1      2220 1.55944E+01
 -1      2221 1.63565E+01
 -1      2222 1.14768E+01
 -1      2223 1.02664E+01
 -1      2224 1.57188E+01
 -1      2225 9.48643E+00
 -1      2226 1.00309E+01
 -1      2227 1.08212E+01
 -1      2228 1.09078E+01
 -1      2229 1.15151E+01
 -1      2230 1.09181E+01
 -1      2231 1.54398E+01
 -1      2232 1.44272E+01
 -1      2233 1.57197E+01
 -1      2234 1.06625E+01
 -1      2235 1.05073E+01
 -1      2236 1.58797E+01
 -1      2237 1.42620E+01
 -1      2238 1.42417E+01
 -1      2239 1.58696E+01
 -1      2240 1.02581E+01
 -1      2241 1.04920E+01
 -1      2242 1.56406E+01
 -1      2243 1.05300E+01
 -1      2244 1.13367E+01
 -1      2245 1.16950E+01
 -1      2246 1.20476E+01
 -1      2247 1.09835E+01
 -1      2248 1.24439E+01
 -1      2249 1.07017E+01
 -1      2250 1.14420E+01
 -1      2251 1.28730E+01
 -1      2252 9.96958E+00
 -1      2253 9.60743E+00
 -1      2254 1.11188E+01
 -1      2255 1.10951E+01
 -1      2256 1.06828E+01
 -1      2257 1.11341E+01
 -1      2258 9.76960E+00
 -1      2259 1.03527E+01
 -1      2260 1.17085E+01
 -1      2261 1.06573E+01
 -1      2262 1.10693E+01
 -1      2263 1.10998E+01
 -1      2264 1.12666E+01
 -1      2265 1.15816E+01
 -1      2266 1.16018E+01
 -1      2267 1.18127E+01
 -1      2268 1.04421E+01
 -1      2269 1.20302E+01
 -1      2270 1.04421E+01
 -1      2271 1.14107E+01
 -1      2272 1.22613E+01
 -1      2273 1.05564E+01
 -1      2274 1.01872E+01
 -1      2275 1.14070E+01
 -1      2276 1.04064E+01
 -1      2277 9.68307E+00
 -1      2278 1.07719E+01
 -1      2279 9.70353E+00
 -1      2280 1.19992E+01
 -1      2281 1.10115E+01
 -1      2282 2.03277E+01
 -1      2283 1.50048E+01
 -1      2284 1.53015E+01
 -1      2285 1.09200E+01
 -1      2286 1.16101E+01
 -1      2287 1.59293E+01
 -1      2288 1.48699E+01
 -1      2289 1.56779E+01
 -1      2290 1.57635E+01
 -1      2291 1.88294E+01
 -1      2292 1.91429E+01
 -1      2293 1.37241E+01
 -1      2294 1.37241E+01
 -1      2295 1.47435E+01
 -1      2296 1.49746E+01
 -1      2297 1.64374E+01
 -1      2298 1.46194E+01
 -1      2299 1.46194E+01
 -1      2300 1.47896E+01
 -1      2301 1.15387E+01
 -1      2302 1.17089E+01
 -1      2303 1.64260E+01
 -1      2304 1.59607E+01
 -1      2305 1.77023E+01
 -1      2306 1.69064E+01
 -1      2307 1.46526E+01
 -1      2308 1.13995E+01
 -1      2309 1.28871E+01
 -1      2310 1.25474E+01
 -1      2311 1.16342E+01
 -1      2312 1.28129E+01
 -1      2313 1.53267E+01
 -1      2314 1.45767E+01
 -1      2315 1.53071E+01
 -1      2316 1.55114E+01
 -1      2317 1.97724E+01
 -1      2318 1.45470E+01
 -1      2319 1.39474E+01
 -1      2320 1.51770E+01
 -1      2321 1.97363E+01
 -1      2322 1.83334E+01
 -1      2323 1.98093E+01
 -1      2324 1.53971E+01
 -1      2325 1.53002E+01
 -1      2326 1.54673E+01
 -1      2327 1.98123E+01
 -1      2328 1.80637E+01
 -1      2329 1.52439E+01
 -1      2330 1.50348E+01
 -1      2331 1.55157E+01
 -1      2332 1.96874E+01
 -1      2333 1.64035E+01
 -1      2334 1.98836E+01
 -1      2335 1.13510E+01
 -1      2336 1.30319E+01
 -1      2337 1.65590E+01
 -1      2338 1.19452E+01
 -1      2339 1.11652E+01
 -1      2340 1.24505E+01
 -1      2341 1.13266E+01
 -1      2342 1.22034E+01
 -1      2343 1.97848E+01
 -1      2344 1.56747E+01
 -1      2345 1.20401E+01
 -1      2346 1.09604E+01
 -1      2347 1.60408E+01
 -1      2348 1.55472E+01
 -1      2349 1.54251E+01
 -1      2350 1.54104E+01
 -1      2351 1.86116E+01
 -1      2352 1.43026E+01
 -1      2353 1.12382E+01
 -1      2354 1.62394E+01
 -1      2355 1.59576E+01
 -1      2356 1.56858E+01
 -1      2357 1.63967E+01
 -1      2358 1.94813E+01
 -1      2359 1.15779E+01
 -1      2360 1.17775E+01
 -1      2361 1.34772E+01
 -1      2362 1.50937E+01
 -1      2363 1.34871E+01
 -1      2364 1.13500E+01
 -1      2365 1.13704E+01
 -1      2366 1.17089E+01
 -1      2367 1.13704E+01
 -1      2368 2.07169E+01
 -1      2369 2.10554E+01
 -1      2370 1.19962E+01
 -1      2371 1.59209E+01
 -1      2372 1.96161E+01
 -1      2373 1.58513E+01
 -1      2374 1.58925E+01
 -1      2375 1.42115E+01
 -1      2376 1.44307E+01
 -1      2377 1.20244E+01
 -1      2378 1.11700E+01
 -1      2379 1.48288E+01
 -1      2380 1.60360E+01
 -1      2381 1.97907E+01
 -1      2382 1.91361E+01
 -1      2383 1.51525E+01
 -1      2384 1.93026E+01
 -1      2385 1.97807E+01
 -1      2386 1.55131E+01
 -1      2387 1.57553E+01
 -1      2388 1.95781E+01
 -1      2389 1.97281E+01
 -1      2390 1.08815E+01
 -1      2391 1.21833E+01
 -1      2392 1.24046E+01
 -1      2393 1.23905E+01
 -1      2394 1.09758E+01
 -1      2395 1.21414E+01
 -1      2396 1.14498E+01
 -1      2397 1.10592E+01
 -1      2398 1.22500E+01
 -1      2399 1.27967E+01
 -1      2400 1.45323E+01
 -1      2401 1.47840E+01
 -1      2402 1.08415E+01
 -1      2403 2.15720E+01
 -1      2404 2.15720E+01
 -1      2405 1.17089E+01
 -1      2406 1.52308E+01
 -1      2407 1.54282E+01
 -1      2408 1.50119E+01
 -1      2409 1.53165E+01
 -1      2410 1.54517E+01
 -1      2411 1.17645E+01
 -1      2412 1.21042E+01
 -1      2413 1.12290E+01
 -1      2414 1.63349E+01
 -1      2415 1.99017E+01
 -1      2416 1.98124E+01
 -1      2417 1.62379E+01
 -1      2418 1.53912E+01
 -1      2419 1.48585E+01
 -1      2420 1.36289E+01
 -1      2421 1.69078E+01
 -1      2422 1.60305E+01
 -1      2423 1.61890E+01
 -1      2424 1.59172E+01
 -1      2425 1.57029E+01
 -1      2426 1.93538E+01
 -1      2427 1.44294E+01
 -1      2428 1.49208E+01
 -1      2429 1.54589E+01
 -1      2430 1.78671E+01
 -1      2431 1.81976E+01
 -1      2432 1.42448E+01
 -1      2433 1.42068E+01
 -1      2434 1.63443E+01
 -1      2435 1.41852E+01
 -1      2436 1.83726E+01
 -1      2437 1.25629E+01
 -1      2438 1.10905E+01
 -1      2439 1.28436E+01
 -1      2440 1.96810E+01
 -1      2441 1.55634E+01
 -1      2442 1.59074E+01
 -1      2443 1.08145E+01
 -1      2444 1.21372E+01
 -1      2445 1.58846E+01
 -1      2446 1.96924E+01
 -1      2447 1.97923E+01
 -1      2448 1.96392E+01
 -1      2449 1.82597E+01
 -1      2450 1.58508E+01
 -1      2451 3.73064E+01
 -1      2452 1.19582E+01
 -1      2453 1.78703E+01
 -1      2454 2.99709E+01
 -1      2455 2.96888E+01
 -1      2456 2.21905E+01
 -1      2457 2.48548E+01
 -1      2458 2.73279E+01
 -1      2459 2.73288E+01
 -1      2460 2.84413E+01
 -1      2461 2.92127E+01
 -1      2462 2.99046E+01
 -1      2463 2.87520E+01
 -1      2464 2.97385E+01
 -1      2465 2.96925E+01
 -1      2466 2.80257E+01
 -1      2467 2.03859E+01
 -1      2468 2.99636E+01
 -1      2469 1.22642E+01
 -1      2470 3.32640E+01
 -1      2471 1.37442E+01
 -1      2472 3.19989E+01
 -1      2473 2.97385E+01
 -1      2474 2.97959E+01
 -1      2475 2.30407E+01
 -1      2476 2.29891E+01
 -1      2477 2.65245E+01
 -1      2478 2.64998E+01
 -1      2479 2.58892E+01
 -1      2480 2.73279E+01
 -1      2481 2.97705E+01
 -1      2482 2.82348E+01
 -1      2483 2.88156E+01
 -1      2484 2.94134E+01
 -1      2485 2.82374E+01
 -1      2486 2.96124E+01
 -1      2487 2.97364E+01
 -1      2488 2.90183E+01
 -1      2489 2.96137E+01
 -1      2490 2.96925E+01
 -1      2491 3.08389E+01
 -1      2492 1.23895E+01
 -1      2493 1.90222E+01
 -1      2494 2.99396E+01
 -1      2495 2.99069E+01
 -1      2496 1.32770E+01
 -1      2497 3.19989E+01
 -1      2498 2.13221E+01
 -1      2499 2.99509E+01
 -1      2500 1.37187E+01
 -1      2501 2.79478E+01
 -1      2502 2.72149E+01
 -1      2503 2.99069E+01
 -1      2504 1.48424E+01
 -1      2505 1.31711E+01
 -1      2506 2.77962E+01
 -1      2507 2.84413E+01
 -1      2508 1.88473E+01
 -1      2509 1.90222E+01
 -1      2510 2.13221E+01
 -1      2511 2.21905E+01
 -1      2512 2.99725E+01
 -1      2513 2.99709E+01
 -1      2514 2.91789E+01
 -1      2515 2.61028E+01
 -1      2516 2.29365E+01
 -1      2517 2.28619E+01
 -1      2518 2.49612E+01
 -1      2519 2.48111E+01
 -1      2520 2.66334E+01
 -1      2521 2.97959E+01
 -1      2522 2.79803E+01
 -1      2523 2.96888E+01
 -1      2524 2.93738E+01
 -1      2525 2.97630E+01
 -1      2526 2.79596E+01
 -1      2527 2.92127E+01
 -1      2528 2.96887E+01
 -1      2529 2.93672E+01
 -1      2530 2.88211E+01
 -1      2531 2.88166E+01
 -1      2532 2.79478E+01
 -1      2533 2.99396E+01
 -1      2534 2.99509E+01
 -1      2535 2.99069E+01
 -1      2536 2.98351E+01
 -1      2537 2.77962E+01
 -1      2538 2.84413E+01
 -1      2539 1.88473E+01
 -1      2540 2.21905E+01
 -1      2541 2.72846E+01
 -1      2542 2.99709E+01
 -1      2543 2.99725E+01
 -1      2544 1.78703E+01
 -1      2545 2.97385E+01
 -1      2546 2.48111E+01
 -1      2547 2.73279E+01
 -1      2548 2.48548E+01
 -1      2549 2.72846E+01
 -1      2550 2.99198E+01
 -1      2551 2.97364E+01
 -1      2552 2.97385E+01
 -1      2553 2.97364E+01
 -1      2554 2.96925E+01
 -1      2555 2.94134E+01
 -1      2556 2.88211E+01
 -1      2557 2.88166E+01
 -1      2558 1.13946E+01
 -1      2559 2.66334E+01
 -1      2560 2.73279E+01
 -1      2561 2.66334E+01
 -1      2562 2.94134E+01
 -1      2563 2.43915E+01
 -1      2564 2.53999E+01
 -1      2565 2.00989E+01
 -1      2566 2.43915E+01
 -1      2567 2.53999E+01
 -1      2568 2.96925E+01
 -1      2569 2.49615E+01
 -1      2570 2.39530E+01
 -1      2571 2.92540E+01
 -1      2572 1.07785E+01
 -1      2573 1.14325E+01
 -1      2574 1.15185E+01
 -1      2575 1.21725E+01
 -1      2576 1.30042E+01
 -1      2577 1.22642E+01
 -1      2578 1.22642E+01
 -1      2579 1.23268E+01
 -1      2580 1.23268E+01
 -1      2581 1.23268E+01
 -1      2582 2.67640E+01
 -1      2583 3.52852E+01
 -1      2584 2.87852E+01
 -1      2585 2.61314E+01
 -1      2586 3.46527E+01
 -1      2587 3.26315E+01
 -1      2588 3.38234E+01
 -1      2589 3.18022E+01
 -1      2590 3.05896E+01
 -1      2591 3.20515E+01
 -1      2592 3.40727E+01
 -1      2593 1.69043E+01
 -1      2594 1.95786E+01
 -1      2595 2.03664E+01
 -1      2596 1.95071E+01
 -1      2597 2.21814E+01
 -1      2598 1.87193E+01
 -1      2599 2.26156E+01
 -1      2600 1.91535E+01
 -1      2601 2.17563E+01
 -1      2602 1.99413E+01
 -1      2603 3.34344E+01
 -1      2604 3.02006E+01
 -1      2605 2.89123E+01
 -1      2606 2.62586E+01
 -1      2607 1.61719E+01
 -1      2608 1.73995E+01
 -1      2609 1.45493E+01
 -1      2610 1.40820E+01
 -1      2611 1.53096E+01
 -1      2612 1.69323E+01
 -1      2613 1.84462E+01
 -1      2614 1.68236E+01
 -1      2615 1.63563E+01
 -1      2616 2.97959E+01
 -1      2617 2.98502E+01
 -1      2618 2.98502E+01
 -1      2619 2.98842E+01
 -1      2620 2.99386E+01
 -1      2621 2.98842E+01
 -1      2622 2.47556E+01
 -1      2623 2.48100E+01
 -1      2624 2.48439E+01
 -1      2625 2.31067E+01
 -1      2626 2.31950E+01
 -1      2627 2.05076E+01
 -1      2628 2.05959E+01
 -1      2629 3.14132E+01
 -1      2630 2.68911E+01
 -1      2631 2.17563E+01
 -1      2632 2.21365E+01
 -1      2633 1.99049E+01
 -1      2634 2.04939E+01
 -1      2635 1.69735E+01
 -1      2636 1.54596E+01
 -1      2637 1.71405E+01
 -1      2638 2.46922E+01
 -1      2639 2.46730E+01
 -1      2640 2.47170E+01
 -1      2641 2.46978E+01
 -1      2642 2.97137E+01
 -1      2643 2.47101E+01
 -1      2644 2.47292E+01
 -1      2645 2.97259E+01
 -1      2646 2.47030E+01
 -1      2647 2.49036E+01
 -1      2648 2.46486E+01
 -1      2649 2.48493E+01
 -1      2650 2.98502E+01
 -1      2651 2.47849E+01
 -1      2652 2.47982E+01
 -1      2653 2.48384E+01
 -1      2654 2.48517E+01
 -1      2655 2.97424E+01
 -1      2656 2.44196E+01
 -1      2657 2.48034E+01
 -1      2658 2.97507E+01
 -1      2659 2.94526E+01
 -1      2660 2.46667E+01
 -1      2661 2.44268E+01
 -1      2662 2.92900E+01
 -1      2663 2.45041E+01
 -1      2664 2.95299E+01
 -1      2665 2.47981E+01
 -1      2666 2.47849E+01
 -1      2667 2.96888E+01
 -1      2668 2.43771E+01
 -1      2669 2.44543E+01
 -1      2670 2.40112E+01
 -1      2671 2.41699E+01
 -1      2672 2.39080E+01
 -1      2673 2.40667E+01
 -1      2674 2.83381E+01
 -1      2675 2.66371E+01
 -1      2676 2.65827E+01
 -1      2677 2.97959E+01
 -1      2678 2.46170E+01
 -1      2679 2.97423E+01
 -1      2680 2.97259E+01
 -1      2681 2.64139E+01
 -1      2682 2.97667E+01
 -1      2683 2.64547E+01
 -1      2684 2.97297E+01
 -1      2685 2.47915E+01
 -1      2686 2.47990E+01
 -1      2687 2.48323E+01
 -1      2688 2.48398E+01
 -1      2689 2.96888E+01
 -1      2690 2.46279E+01
 -1      2691 2.46527E+01
 -1      2692 2.97137E+01
 -1      2693 2.16472E+01
 -1      2694 2.20532E+01
 -1      2695 2.11462E+01
 -1      2696 2.39477E+01
 -1      2697 2.07402E+01
 -1      2698 2.16425E+01
 -1      2699 2.20416E+01
 -1      2700 2.07097E+01
 -1      2701 2.11088E+01
 -1      2702 2.39219E+01
 -1      2703 2.25616E+01
 -1      2704 2.46924E+01
 -1      2705 2.08321E+01
 -1      2706 2.37854E+01
 -1      2707 1.99250E+01
 -1      2708 2.09190E+01
 -1      2709 2.46923E+01
 -1      2710 2.08127E+01
 -1      2711 1.98799E+01
 -1      2712 2.37595E+01
 -1      2713 2.35745E+01
 -1      2714 2.67158E+01
 -1      2715 2.67154E+01
 -1      2716 2.73283E+01
 -1      2717 2.35740E+01
 -1      2718 2.34252E+01
 -1      2719 2.32706E+01
 -1      2720 2.34248E+01
 -1      2721 2.32702E+01
 -1      2722 2.49071E+01
 -1      2723 2.48400E+01
 -1      2724 2.98375E+01
 -1      2725 2.47429E+01
 -1      2726 2.66329E+01
 -1      2727 2.99122E+01
 -1      2728 2.65658E+01
 -1      2729 2.98451E+01
 -1      2730 2.97215E+01
 -1      2731 2.64059E+01
 -1      2732 2.97750E+01
 -1      2733 2.64594E+01
 -1      2734 2.39811E+01
 -1      2735 2.81973E+01
 -1      2736 2.47991E+01
 -1      2737 2.80940E+01
 -1      2738 2.46958E+01
 -1      2739 2.82108E+01
 -1      2740 2.47979E+01
 -1      2741 2.81089E+01
 -1      2742 2.46959E+01
 -1      2743 2.83394E+01
 -1      2744 2.40328E+01
 -1      2745 2.41992E+01
 -1      2746 2.40973E+01
 -1      2747 2.39308E+01
 -1      2748 2.46991E+01
 -1      2749 2.46821E+01
 -1      2750 2.47229E+01
 -1      2751 2.47059E+01
 -1      2752 2.97126E+01
 -1      2753 2.92897E+01
 -1      2754 2.58972E+01
 -1      2755 2.94895E+01
 -1      2756 2.60970E+01
 -1      2757 2.94126E+01
 -1      2758 2.45246E+01
 -1      2759 2.45717E+01
 -1      2760 2.47245E+01
 -1      2761 2.47715E+01
 -1      2762 2.96888E+01
 -1      2763 2.46355E+01
 -1      2764 2.97125E+01
 -1      2765 2.46593E+01
 -1      2766 2.92895E+01
 -1      2767 2.58901E+01
 -1      2768 2.94900E+01
 -1      2769 2.60906E+01
 -1      2770 2.94132E+01
 -1      2771 2.41749E+01
 -1      2772 2.42011E+01
 -1      2773 2.39425E+01
 -1      2774 2.84934E+01
 -1      2775 2.39163E+01
 -1      2776 2.48034E+01
 -1      2777 2.92127E+01
 -1      2778 2.42981E+01
 -1      2779 2.43985E+01
 -1      2780 2.93131E+01
 -1      2781 2.93131E+01
 -1      2782 2.44217E+01
 -1      2783 2.43691E+01
 -1      2784 2.44695E+01
 -1      2785 2.45221E+01
 -1      2786 2.49376E+01
 -1      2787 2.47369E+01
 -1      2788 2.99386E+01
 -1      2789 2.91958E+01
 -1      2790 2.43073E+01
 -1      2791 2.94357E+01
 -1      2792 2.45472E+01
 -1      2793 2.51332E+01
 -1      2794 2.87843E+01
 -1      2795 2.48759E+01
 -1      2796 2.85270E+01
 -1      2797 2.84947E+01
 -1      2798 2.96925E+01
 -1      2799 2.92540E+01
 -1      2800 2.67798E+01
 -1      2801 2.97579E+01
 -1      2802 2.97579E+01
 -1      2803 2.99709E+01
 -1      2804 2.67798E+01
 -1      2805 2.64058E+01
 -1      2806 2.97214E+01
 -1      2807 2.47526E+01
 -1      2808 2.97424E+01
 -1      2809 2.47356E+01
 -1      2810 1.69735E+01
 -1      2811 1.74621E+01
 -1      2812 1.74621E+01
 -1      2813 1.83588E+01
 -1      2814 2.97259E+01
 -1      2815 2.96888E+01
 -1      2816 2.64139E+01
 -1      2817 2.47915E+01
 -1      2818 2.47990E+01
 -1      2819 2.97259E+01
 -1      2820 2.46650E+01
 -1      2821 2.20314E+01
 -1      2822 2.16254E+01
 -1      2823 2.48329E+01
 -1      2824 2.20948E+01
 -1      2825 2.16957E+01
 -1      2826 2.49080E+01
 -1      2827 2.08103E+01
 -1      2828 2.46706E+01
 -1      2829 2.47455E+01
 -1      2830 2.08659E+01
 -1      2831 2.46890E+01
 -1      2832 2.97423E+01
 -1      2833 2.92933E+01
 -1      2834 2.92933E+01
 -1      2835 2.43786E+01
 -1      2836 2.44497E+01
 -1      2837 2.45023E+01
 -1      2838 2.43846E+01
 -1      2839 2.92731E+01
 -1      2840 2.41699E+01
 -1      2841 2.40112E+01
 -1      2842 2.84413E+01
 -1      2843 2.92728E+01
 -1      2844 2.91958E+01
 -1      2845 2.58803E+01
 -1      2846 2.58901E+01
 -1      2847 2.92895E+01
 -1      2848 2.92127E+01
 -1      2849 2.45548E+01
 -1      2850 2.45077E+01
 -1      2851 2.13221E+01
 -1      2852 1.94707E+01
 -1      2853 2.98842E+01
 -1      2854 2.66710E+01
 -1      2855 2.42356E+01
 -1      2856 2.42094E+01
 -1      2857 2.87865E+01
 -1      2858 2.35043E+01
 -1      2859 2.36589E+01
 -1      2860 2.75625E+01
 -1      2861 2.81973E+01
 -1      2862 2.47991E+01
 -1      2863 2.69495E+01
 -1      2864 2.38082E+01
 -1      2865 1.55207E+01
 -1      2866 1.53117E+01
 -1      2867 1.60092E+01
 -1      2868 1.58002E+01
 -1      2869 2.52050E+01
 -1      2870 2.87865E+01
 -1      2871 2.49464E+01
 -1      2872 2.85279E+01
 -1      2873 2.45201E+01
 -1      2874 2.45716E+01
 -1      2875 2.47206E+01
 -1      2876 2.47721E+01
 -1      2877 2.49005E+01
 -1      2878 2.49120E+01
 -1      2879 2.49005E+01
 -1      2880 2.49120E+01
 -1      2881 2.97297E+01
 -1      2882 2.39259E+01
 -1      2883 2.39751E+01
 -1      2884 2.96925E+01
 -1      2885 2.88166E+01
 -1      2886 2.51655E+01
 -1      2887 2.87843E+01
 -1      2888 2.88156E+01
 -1      2889 2.97661E+01
 -1      2890 2.41699E+01
 -1      2891 2.41982E+01
 -1      2892 2.39126E+01
 -1      2893 2.39409E+01
 -1      2894 2.93936E+01
 -1      2895 1.77165E+01
 -1      2896 1.21112E+01
 -1      2897 1.12795E+01
 -1      2898 1.28512E+01
 -1      2899 2.93957E+01
 -1      2900 1.21112E+01
 -1      2901 1.21739E+01
 -1      2902 2.98842E+01
 -1      2903 2.94132E+01
 -1      2904 2.85270E+01
 -1      2905 2.85279E+01
 -1      2906 2.45716E+01
 -1      2907 2.45201E+01
 -1      2908 2.88211E+01
 -1      2909 2.52395E+01
 -1      2910 2.83381E+01
 -1      2911 2.45511E+01
 -1      2912 2.79641E+01
 -1      2913 2.81946E+01
 -1      2914 2.75621E+01
 -1      2915 2.39524E+01
 -1      2916 2.37860E+01
 -1      2917 2.49246E+01
 -1      2918 2.48275E+01
 -1      2919 2.99221E+01
 -1      2920 2.42305E+01
 -1      2921 2.42021E+01
 -1      2922 2.99297E+01
 -1      2923 2.66504E+01
 -1      2924 2.67478E+01
 -1      2925 2.99389E+01
 -1      2926 2.97259E+01
 -1      2927 3.73064E+01
 -1      2928 3.73064E+01
 -1      2929 3.46527E+01
 -1      2930 3.46527E+01
 -1      2931 3.46527E+01
 -1      2932 1.38184E+01
 -1      2933 1.46769E+01
 -1      2934 1.46769E+01
 -1      2935 1.55736E+01
 -1      2936 3.73064E+01
 -1      2937 2.48800E+01
 -1      2938 2.48685E+01
 -1      2939 2.80926E+01
 -1      2940 1.30151E+01
 -1      2941 1.32241E+01
 -1      2942 1.09559E+01
 -1      2943 1.21675E+01
 -1      2944 1.14873E+01
 -1      2945 2.98550E+01
 -1      2946 1.30477E+01
 -1      2947 1.28385E+01
 -1      2948 1.18362E+01
 -1      2949 2.99389E+01
 -1      2950 1.60621E+01
 -1      2951 1.35778E+01
 -1      2952 1.69239E+01
 -1      2953 1.55011E+01
 -1      2954 1.71727E+01
 -1      2955 2.05189E+01
 -1      2956 1.85955E+01
 -1      2957 1.52818E+01
 -1      2958 1.57472E+01
 -1      2959 2.19201E+01
 -1      2960 2.22684E+01
 -1      2961 2.18031E+01
 -1      2962 1.19613E+01
 -1      2963 1.53075E+01
 -1      2964 1.14618E+01
 -1      2965 1.50017E+01
 -1      2966 1.34003E+01
 -1      2967 1.35533E+01
 -1      2968 1.36159E+01
 -1      2969 2.51766E+01
 -1      2970 3.35708E+01
 -1      2971 3.09170E+01
 -1      2972 3.40727E+01
 -1      2973 3.40727E+01
 -1      2974 1.11716E+01
 -1      2975 1.17030E+01
 -1      2976 3.36066E+01
 -1      2977 2.97346E+01
 -1      2978 3.03729E+01
 -1      2979 2.99609E+01
 -1      2980 2.48083E+01
 -1      2981 2.48183E+01
 -1      2982 2.99030E+01
 -1      2983 2.47504E+01
 -1      2984 2.98930E+01
 -1      2985 2.29242E+01
 -1      2986 2.69266E+01
 -1      2987 2.33264E+01
 -1      2988 2.33043E+01
 -1      2989 2.73067E+01
 -1      2990 2.69045E+01
 -1      2991 1.18860E+01
 -1      2992 1.25647E+01
 -1      2993 1.34577E+01
 -1      2994 2.73067E+01
 -1      2995 2.69045E+01
 -1      2996 2.72846E+01
 -1      2997 3.14189E+01
 -1      2998 2.79478E+01
 -1      2999 2.81946E+01
 -1      3000 2.81946E+01
 -1      3001 2.79641E+01
 -1      3002 2.82108E+01
 -1      3003 2.79641E+01
 -1      3004 2.97379E+01
 -1      3005 2.99389E+01
 -1      3006 2.97699E+01
 -1      3007 2.97599E+01
 -1      3008 2.99609E+01
 -1      3009 2.99289E+01
 -1      3010 2.35877E+01
 -1      3011 2.38345E+01
 -1      3012 2.36040E+01
 -1      3013 1.98396E+01
 -1      3014 2.02197E+01
 -1      3015 2.30038E+01
 -1      3016 2.33838E+01
 -1      3017 2.49331E+01
 -1      3018 2.49651E+01
 -1      3019 2.49551E+01
 -1      3020 1.78571E+01
 -1      3021 1.83456E+01
 -1      3022 1.95163E+01
 -1      3023 2.03689E+01
 -1      3024 1.76290E+01
 -1      3025 2.09274E+01
 -1      3026 2.08695E+01
 -1      3027 2.74411E+01
 -1      3028 2.76748E+01
 -1      3029 2.16361E+01
 -1      3030 2.84413E+01
 -1      3031 2.84413E+01
 -1      3032 2.47106E+01
 -1      3033 2.99122E+01
 -1      3034 2.99462E+01
 -1      3035 1.30541E+01
 -1      3036 2.34031E+01
 -1      3037 2.73067E+01
 -1      3038 2.75404E+01
 -1      3039 2.38345E+01
 -1      3040 2.35447E+01
 -1      3041 2.32979E+01
 -1      3042 2.99709E+01
 -1      3043 2.99709E+01
 -1      3044 2.10522E+01
 -1      3045 2.10259E+01
 -1      3046 2.99386E+01
 -1      3047 2.99725E+01
 -1      3048 2.99509E+01
 -1      3049 2.99609E+01
 -1      3050 2.98930E+01
 -1      3051 1.99380E+01
 -1      3052 1.96822E+01
 -1      3053 2.03893E+01
 -1      3054 2.19278E+01
 -1      3055 2.19440E+01
 -1      3056 2.48183E+01
 -1      3057 1.66233E+01
 -1      3058 1.33445E+01
 -1      3059 2.32537E+01
 -1      3060 2.00633E+01
 -1      3061 2.33421E+01
 -1      3062 2.96925E+01
 -1      3063 2.92540E+01
 -1      3064 2.96925E+01
 -1      3065 2.00166E+01
 -1      3066 2.00328E+01
 -1      3067 2.16353E+01
 -1      3068 2.43522E+01
 -1      3069 2.67497E+01
 -1      3070 2.67717E+01
 -1      3071 2.47338E+01
 -1      3072 2.47513E+01
 -1      3073 2.99509E+01
 -1      3074 2.99198E+01
 -1      3075 2.99297E+01
 -1      3076 2.91789E+01
 -1      3077 2.48525E+01
 -1      3078 2.21293E+01
 -1      3079 2.25635E+01
 -1      3080 2.25095E+01
 -1      3081 2.21380E+01
 -1      3082 2.21905E+01
 -1      3083 2.24737E+01
 -1      3084 2.25262E+01
 -1      3085 2.25262E+01
 -1      3086 1.99392E+01
 -1      3087 2.06238E+01
 -1      3088 2.09969E+01
 -1      3089 2.03122E+01
 -1      3090 2.02406E+01
 -1      3091 2.08296E+01
 -1      3092 2.20532E+01
 -1      3093 2.48329E+01
 -1      3094 2.48548E+01
 -1      3095 2.20198E+01
 -1      3096 2.48861E+01
 -1      3097 2.48329E+01
 -1      3098 2.46706E+01
 -1      3099 2.48111E+01
 -1      3100 2.46923E+01
 -1      3101 2.49080E+01
 -1      3102 2.97750E+01
 -1      3103 2.46821E+01
 -1      3104 2.96888E+01
 -1      3105 2.79803E+01
 -1      3106 2.39394E+01
 -1      3107 2.93700E+01
 -1      3108 2.46522E+01
 -1      3109 2.21905E+01
 -1      3110 2.21905E+01
 -1      3111 2.25262E+01
 -1      3112 2.17563E+01
 -1      3113 2.13221E+01
 -1      3114 2.21293E+01
 -1      3115 1.95050E+01
 -1      3116 1.99049E+01
 -1      3117 2.32529E+01
 -1      3118 2.33413E+01
 -1      3119 2.99717E+01
 -1      3120 2.92127E+01
 -1      3121 2.97630E+01
 -1      3122 2.48353E+01
 -1      3123 2.46933E+01
 -1      3124 2.46832E+01
 -1      3125 2.93670E+01
 -1      3126 2.43771E+01
 -1      3127 2.99396E+01
 -1      3128 2.99297E+01
 -1      3129 2.46730E+01
 -1      3130 2.96887E+01
 -1      3131 2.42801E+01
 -1      3132 2.46639E+01
 -1      3133 2.95530E+01
 -1      3134 2.12090E+01
 -1      3135 2.79478E+01
 -1      3136 2.42071E+01
 -1      3137 2.87843E+01
 -1      3138 2.88188E+01
 -1      3139 1.76005E+01
 -1      3140 1.76245E+01
 -1      3141 2.15165E+01
 -1      3142 2.48326E+01
 -1      3143 2.42044E+01
 -1      3144 2.87865E+01
 -1      3145 2.88188E+01
 -1      3146 1.96458E+01
 -1      3147 2.46489E+01
 -1      3148 2.88166E+01
 -1      3149 2.88166E+01
 -1      3150 2.88211E+01
 -1      3151 2.88211E+01
 -1      3152 3.18022E+01
 -1      3153 2.96265E+01
 -1      3154 3.05896E+01
 -1      3155 2.84139E+01
 -1      3156 3.20515E+01
 -1      3157 1.96312E+01
 -1      3158 2.11975E+01
 -1      3159 2.33547E+01
 -1      3160 2.32968E+01
 -1      3161 2.15019E+01
 -1      3162 1.96166E+01
 -1      3163 1.76932E+01
 -1      3164 2.12882E+01
 -1      3165 1.62704E+01
 -1      3166 2.16139E+01
 -1      3167 2.79110E+01
 -1      3168 2.17287E+01
 -1      3169 2.19365E+01
 -1      3170 2.82335E+01
 -1      3171 2.81187E+01
 -1      3172 2.11628E+01
 -1      3173 2.11848E+01
 -1      3174 2.05794E+01
 -1      3175 2.06540E+01
 -1      3176 1.87172E+01
 -1      3177 1.86421E+01
 -1      3178 1.86493E+01
 -1      3179 1.86711E+01
 -1      3180 2.48694E+01
 -1      3181 2.48162E+01
 -1      3182 2.47762E+01
 -1      3183 2.47762E+01
 -1      3184 1.95071E+01
 -1      3185 2.04863E+01
 -1      3186 2.04840E+01
 -1      3187 2.05070E+01
 -1      3188 2.05092E+01
 -1      3189 1.31711E+01
 -1      3190 1.55207E+01
 -1      3191 1.60092E+01
 -1      3192 1.83588E+01
 -1      3193 1.60092E+01
 -1      3194 1.95215E+01
 -1      3195 2.88166E+01
 -1      3196 2.88166E+01
 -1      3197 2.97020E+01
 -1      3198 2.88211E+01
 -1      3199 2.88211E+01
 -1      3200 1.33450E+01
 -1      3201 2.32542E+01
 -1      3202 1.22912E+01
 -1      3203 1.35176E+01
 -1      3204 3.07836E+01
 -1      3205 3.34373E+01
 -1      3206 2.97016E+01
 -1      3207 3.14391E+01
 -1      3208 3.17321E+01
 -1      3209 2.17052E+01
 -1      3210 2.19981E+01
 -1      3211 2.19981E+01
 -1      3212 2.99672E+01
 -1      3213 2.33377E+01
 -1      3214 2.99680E+01
 -1      3215 3.35317E+01
 -1      3216 3.08779E+01
 -1      3217 3.07836E+01
 -1      3218 3.11462E+01
 -1      3219 2.17679E+01
 -1      3220 2.20608E+01
 -1      3221 2.17679E+01
 -1      3222 3.08779E+01
 -1      3223 1.14403E+01
 -1      3224 1.07863E+01
 -1      3225 1.16559E+01
 -1      3226 1.10019E+01
 -1      3227 1.26176E+01
 -1      3228 1.19389E+01
 -1      3229 1.27706E+01
 -1      3230 2.34837E+01
 -1      3231 2.34616E+01
 -1      3232 2.97832E+01
 -1      3233 2.97959E+01
 -1      3234 2.47936E+01
 -1      3235 2.80274E+01
 -1      3236 2.43276E+01
 -1      3237 2.78906E+01
 -1      3238 2.53737E+01
 -1      3239 2.52368E+01
 -1      3240 1.83456E+01
 -1      3241 2.76748E+01
 -1      3242 2.75625E+01
 -1      3243 2.69495E+01
 -1      3244 2.81973E+01
 -1      3245 2.84413E+01
 -1      3246 2.84413E+01
 -1      3247 2.06238E+01
 -1      3248 1.99392E+01
 -1      3249 2.21905E+01
 -1      3250 2.21905E+01
 -1      3251 2.21380E+01
 -1      3252 2.41992E+01
 -1      3253 2.35447E+01
 -1      3254 2.37174E+01
 -1      3255 2.35601E+01
 -1      3256 1.27706E+01
 -1      3257 1.44150E+01
 -1      3258 2.72846E+01
 -1      3259 2.72846E+01
 -1      3260 1.73211E+01
 -1      3261 1.41449E+01
 -1      3262 1.41449E+01
 -1      3263 1.78703E+01
 -1      3264 1.73211E+01
 -1      3265 2.46568E+01
 -1      3266 2.10232E+01
 -1      3267 2.25898E+01
 -1      3268 2.25898E+01
 -1      3269 2.25373E+01
 -1      3270 2.32492E+01
 -1      3271 1.18357E+01
 -1      3272 1.46738E+01
 -1      3273 2.17209E+01
 -1      3274 2.49651E+01
 -1      3275 2.46933E+01
 -1      3276 2.99709E+01
 -1      3277 2.47678E+01
 -1      3278 2.97579E+01
 -1      3279 2.99709E+01
 -1      3280 2.99725E+01
 -1      3281 2.41289E+01
 -1      3282 2.16695E+01
 -1      3283 1.37995E+01
 -1      3284 2.30470E+01
 -1      3285 2.05876E+01
 -1      3286 1.23205E+01
 -1      3287 1.16764E+01
 -1      3288 1.11585E+01
 -1      3289 1.25567E+01
 -1      3290 1.03153E+01
 -1      3291 1.02170E+01
 -1      3292 1.15418E+01
 -1      3293 1.18268E+01
 -1      3294 1.15402E+01
 -1      3295 3.18022E+01
 -1      3296 3.32640E+01
 -1      3297 3.18022E+01
 -1      3298 3.32640E+01
 -1      3299 1.23205E+01
 -1      3300 1.30605E+01
 -1      3301 1.63189E+01
 -1      3302 3.46527E+01
 -1      3303 3.19989E+01
 -1      3304 2.97346E+01
 -1      3305 3.36066E+01
 -1      3306 3.15855E+01
 -1      3307 1.16403E+01
 -1      3308 1.82690E+01
 -1      3309 1.86047E+01
 -1      3310 1.78194E+01
 -1      3311 1.86266E+01
 -1      3312 1.65606E+01
 -1      3313 1.73678E+01
 -1      3314 1.70177E+01
 -1      3315 1.73534E+01
 -1      3316 2.52125E+01
 -1      3317 3.04019E+01
 -1      3318 3.09185E+01
 -1      3319 2.25769E+01
 -1      3320 2.20603E+01
 -1      3321 2.20603E+01
 -1      3322 2.35275E+01
 -1      3323 2.09661E+01
 -1      3324 1.36547E+01
 -1      3325 2.30615E+01
 -1      3326 2.05001E+01
 -1      3327 1.83588E+01
 -1      3328 1.78703E+01
 -1      3329 1.78703E+01
 -1      3330 1.83588E+01
 -1      3331 1.53173E+01
 -1      3332 1.48288E+01
 -1      3333 1.27138E+01
 -1      3334 1.37314E+01
 -1      3335 2.61028E+01
 -1      3336 2.67158E+01
 -1      3337 2.69495E+01
 -1      3338 2.82005E+01
 -1      3339 2.79565E+01
 -1      3340 2.82005E+01
 -1      3341 2.27134E+01
 -1      3342 2.39584E+01
 -1      3343 2.72131E+01
 -1      3344 2.72131E+01
 -1      3345 3.06175E+01
 -1      3346 3.09643E+01
 -1      3347 3.06175E+01
 -1      3348 3.09643E+01
 -1      3349 3.19989E+01
 -1      3350 1.27265E+01
 -1      3351 1.08091E+01
 -1      3352 1.24400E+01
 -1      3353 1.47634E+01
 -1      3354 1.45336E+01
 -1      3355 2.10646E+01
 -1      3356 2.54679E+01
 -1      3357 2.12944E+01
 -1      3358 2.97375E+01
 -1      3359 3.36066E+01
 -1      3360 3.09529E+01
 -1      3361 1.06334E+01
 -1      3362 1.11795E+01
 -1      3363 1.08659E+01
 -1      3364 1.14120E+01
 -1      3365 1.20317E+01
 -1      3366 2.43276E+01
 -1      3367 1.40597E+01
 -1      3368 2.12150E+01
 -1      3369 2.12314E+01
 -1      3370 2.99560E+01
 -1      3371 2.99552E+01
 -1      3372 2.99717E+01
 -1      3373 2.12306E+01
 -1      3374 1.55207E+01
 -1      3375 1.90347E+01
 -1      3376 1.90222E+01
 -1      3377 1.90347E+01
 -1      3378 2.01846E+01
 -1      3379 2.01721E+01
 -1      3380 2.01721E+01
 -1      3381 1.56615E+01
 -1      3382 1.55740E+01
 -1      3383 1.89347E+01
 -1      3384 2.06063E+01
 -1      3385 2.05189E+01
 -1      3386 1.72456E+01
 -1      3387 2.99452E+01
 -1      3388 2.12206E+01
 -1      3389 2.99609E+01
 -1      3390 2.98578E+01
 -1      3391 2.69045E+01
 -1      3392 2.39259E+01
 -1      3393 2.39477E+01
 -1      3394 2.39001E+01
 -1      3395 2.39219E+01
 -1      3396 2.73062E+01
 -1      3397 1.47408E+01
 -1      3398 1.51610E+01
 -1      3399 2.14800E+01
 -1      3400 2.56800E+01
 -1      3401 2.10598E+01
 -1      3402 2.01846E+01
 -1      3403 2.01721E+01
 -1      3404 2.13221E+01
 -1      3405 1.68114E+01
 -1      3406 2.17563E+01
 -1      3407 2.85257E+01
 -1      3408 2.98710E+01
 -1      3409 1.32241E+01
 -1      3410 2.98451E+01
 -1      3411 1.68358E+01
 -1      3412 1.64365E+01
 -1      3413 1.78223E+01
 -1      3414 1.74230E+01
 -1      3415 2.99389E+01
 -1      3416 2.97259E+01
 -1      3417 2.99389E+01
 -1      3418 2.85279E+01
 -1      3419 1.19011E+01
 -1      3420 1.08396E+01
 -1      3421 1.19011E+01
 -1      3422 1.08396E+01
 -1      3423 1.23895E+01
 -1      3424 2.99452E+01
 -1      3425 2.99396E+01
 -1      3426 2.99452E+01
 -1      3427 2.99452E+01
 -1      3428 2.99509E+01
 -1      3429 2.85270E+01
 -1      3430 2.85292E+01
 -1      3431 2.91145E+01
 -1      3432 2.92540E+01
 -1      3433 2.99069E+01
 -1      3434 2.49331E+01
 -1      3435 2.03136E+01
 -1      3436 2.78720E+01
 -1      3437 2.03894E+01
 -1      3438 2.06362E+01
 -1      3439 2.81946E+01
 -1      3440 2.81187E+01
 -1      3441 2.99396E+01
 -1      3442 2.99396E+01
 -1      3443 2.99452E+01
 -1      3444 2.20730E+01
 -1      3445 2.25897E+01
 -1      3446 1.09760E+01
 -1      3447 2.19103E+01
 -1      3448 2.57045E+01
 -1      3449 2.54252E+01
 -1      3450 2.61685E+01
 -1      3451 2.68879E+01
 -1      3452 2.66086E+01
 -1      3453 2.61445E+01
 -1      3454 1.98262E+01
 -1      3455 2.57305E+01
 -1      3456 1.90569E+01
 -1      3457 2.02403E+01
 -1      3458 2.69138E+01
 -1      3459 1.26309E+01
 -1      3460 1.63563E+01
 -1      3461 2.20606E+01
 -1      3462 2.23912E+01
 -1      3463 2.15953E+01
 -1      3464 2.92962E+01
 -1      3465 2.07341E+01
 -1      3466 2.08513E+01
 -1      3467 2.95530E+01
 -1      3468 2.09909E+01
 -1      3469 2.94357E+01
 -1      3470 2.92877E+01
 -1      3471 2.93131E+01
 -1      3472 2.93881E+01
 -1      3473 2.93881E+01
 -1      3474 2.94134E+01
 -1      3475 2.93131E+01
 -1      3476 2.94526E+01
 -1      3477 2.45635E+01
 -1      3478 2.95530E+01
 -1      3479 1.27265E+01
 -1      3480 1.27265E+01
 -1      3481 1.15517E+01
 -1      3482 1.25694E+01
 -1      3483 1.15517E+01
 -1      3484 1.36513E+01
 -1      3485 1.37548E+01
 -1      3486 2.32102E+01
 -1      3487 2.03405E+01
 -1      3488 1.55207E+01
 -1      3489 1.88473E+01
 -1      3490 2.21905E+01
 -1      3491 2.17563E+01
 -1      3492 3.19989E+01
 -1      3493 3.09643E+01
 -1      3494 1.05045E+01
 -1      3495 2.84413E+01
 -1      3496 2.77962E+01
 -1      3497 2.94357E+01
 -1      3498 2.94357E+01
 -1      3499 2.96925E+01
 -1      3500 2.00230E+01
 -1      3501 2.75814E+01
 -1      3502 2.75055E+01
 -1      3503 1.78970E+01
 -1      3504 1.84462E+01
 -1      3505 1.84462E+01
 -1      3506 2.75404E+01
 -1      3507 2.07143E+01
 -1      3508 2.48879E+01
 -1      3509 1.39965E+01
 -1      3510 1.28483E+01
 -1      3511 1.62287E+01
 -1      3512 1.56417E+01
 -1      3513 1.67917E+01
 -1      3514 1.73787E+01
 -1      3515 1.28682E+01
 -1      3516 1.61475E+01
 -1      3517 1.55680E+01
 -1      3518 1.72396E+01
 -1      3519 1.78191E+01
 -1      3520 1.28483E+01
 -1      3521 1.56417E+01
 -1      3522 1.28682E+01
 -1      3523 1.55680E+01
 -1      3524 1.22559E+01
 -1      3525 1.55352E+01
 -1      3526 1.22691E+01
 -1      3527 1.56495E+01
 -1      3528 2.81946E+01
 -1      3529 2.99609E+01
 -1      3530 1.61766E+01
 -1      3531 1.57180E+01
 -1      3532 2.00551E+01
 -1      3533 1.95965E+01
 -1      3534 2.39177E+01
 -1      3535 2.21725E+01
 -1      3536 2.74668E+01
 -1      3537 1.76404E+01
 -1      3538 2.11265E+01
 -1      3539 2.64208E+01
 -1      3540 2.99725E+01
 -1      3541 1.27717E+01
 -1      3542 1.16059E+01
 -1      3543 1.98930E+01
 -1      3544 2.69807E+01
 -1      3545 2.65666E+01
 -1      3546 2.68879E+01
 -1      3547 2.66086E+01
 -1      3548 2.73279E+01
 -1      3549 2.99560E+01
 -1      3550 1.43312E+01
 -1      3551 1.15042E+01
 -1      3552 1.30541E+01
 -1      3553 1.75979E+01
 -1      3554 1.76072E+01
 -1      3555 2.08155E+01
 -1      3556 2.67627E+01
 -1      3557 2.67534E+01
 -1      3558 2.97137E+01
 -1      3559 2.99709E+01
 -1      3560 2.97667E+01
 -1      3561 2.97794E+01
 -1      3562 2.63136E+01
 -1      3563 2.29628E+01
 -1      3564 2.29886E+01
 -1      3565 2.29513E+01
 -1      3566 2.29255E+01
 -1      3567 2.67154E+01
 -1      3568 2.81076E+01
 -1      3569 2.80972E+01
 -1      3570 2.81089E+01
 -1      3571 2.80985E+01
 -1      3572 2.97126E+01
 -1      3573 2.97125E+01
 -1      3574 2.94931E+01
 -1      3575 2.94898E+01
 -1      3576 2.94938E+01
 -1      3577 2.97136E+01
 -1      3578 2.93881E+01
 -1      3579 2.94134E+01
 -1      3580 2.94134E+01
 -1      3581 2.08513E+01
 -1      3582 2.95530E+01
 -1      3583 2.94905E+01
 -1      3584 1.11503E+01
 -1      3585 2.20894E+01
 -1      3586 1.17912E+01
 -1      3587 1.11778E+01
 -1      3588 1.25026E+01
 -1      3589 1.41310E+01
 -1      3590 2.73279E+01
 -1      3591 2.69138E+01
 -1      3592 2.69807E+01
 -1      3593 1.16690E+01
 -1      3594 1.15042E+01
 -1      3595 1.37187E+01
 -1      3596 1.22284E+01
 -1      3597 3.14351E+01
 -1      3598 2.25897E+01
 -1      3599 2.99516E+01
 -1      3600 2.99680E+01
 -1      3601 2.99672E+01
 -1      3602 1.80056E+01
 -1      3603 1.78970E+01
 -1      3604 2.99572E+01
 -1      3605 2.76078E+01
 -1      3606 2.75814E+01
 -1      3607 2.72413E+01
 -1      3608 2.72762E+01
 -1      3609 2.72497E+01
 -1      3610 2.76162E+01
 -1      3611 1.97040E+01
 -1      3612 1.96166E+01
 -1      3613 2.12882E+01
 -1      3614 1.97040E+01
 -1      3615 2.08540E+01
 -1      3616 2.99572E+01
 -1      3617 2.66086E+01
 -1      3618 2.73279E+01
 -1      3619 1.61078E+01
 -1      3620 1.58171E+01
 -1      3621 1.98024E+01
 -1      3622 2.39625E+01
 -1      3623 2.42533E+01
 -1      3624 2.95530E+01
 -1      3625 2.95530E+01
 -1      3626 2.85702E+01
 -1      3627 2.96049E+01
 -1      3628 1.70707E+01
 -1      3629 1.76703E+01
 -1      3630 2.66450E+01
 -1      3631 2.09649E+01
 -1      3632 2.03653E+01
 -1      3633 2.08540E+01
 -1      3634 2.99516E+01
 -1      3635 2.61445E+01
 -1      3636 1.16059E+01
 -1      3637 1.37442E+01
 -1      3638 2.94526E+01
 -1      3639 2.79478E+01
 -1      3640 2.94357E+01
 -1      3641 1.77484E+01
 -1      3642 2.67231E+01
 -1      3643 2.09706E+01
 -1      3644 2.67287E+01
 -1      3645 2.79110E+01
 -1      3646 2.79868E+01
 -1      3647 2.82335E+01
 -1      3648 1.35892E+01
 -1      3649 2.03773E+01
 -1      3650 3.52852E+01
 -1      3651 1.09344E+01
 -1      3652 1.22698E+01
 -1      3653 1.51079E+01
 -1      3654 1.58551E+01
 -1      3655 1.98404E+01
 -1      3656 2.36309E+01
 -1      3657 1.95088E+01
 -1      3658 1.13685E+01
 -1      3659 1.06389E+01
 -1      3660 1.22698E+01
 -1      3661 1.22698E+01
 -1      3662 2.98710E+01
 -1      3663 2.63125E+01
 -1      3664 2.21125E+01
 -1      3665 2.76078E+01
 -1      3666 2.99069E+01
 -1      3667 1.24400E+01
 -1      3668 1.22829E+01
 -1      3669 1.37919E+01
 -1      3670 2.32497E+01
 -1      3671 1.39170E+01
 -1      3672 2.33238E+01
 -1      3673 2.76203E+01
 -1      3674 2.19458E+01
 -1      3675 2.22764E+01
 -1      3676 2.25990E+01
 -1      3677 1.34256E+01
 -1      3678 2.00086E+01
 -1      3679 1.21829E+01
 -1      3680 1.22252E+01
 -1      3681 1.56237E+01
 -1      3682 1.56237E+01
 -1      3683 1.55814E+01
 -1      3684 1.22252E+01
 -1      3685 1.56237E+01
 -1      3686 1.67737E+01
 -1      3687 1.67314E+01
 -1      3688 2.79110E+01
 -1      3689 2.77962E+01
 -1      3690 2.00842E+01
 -1      3691 2.09865E+01
 -1      3692 1.77864E+01
 -1      3693 1.86887E+01
 -1      3694 2.35337E+01
 -1      3695 2.35374E+01
 -1      3696 2.99680E+01
 -1      3697 2.99717E+01
 -1      3698 1.02643E+01
 -1      3699 1.22642E+01
 -1      3700 1.02643E+01
 -1      3701 1.07707E+01
 -1      3702 1.27706E+01
 -1      3703 1.44934E+01
 -1      3704 2.09696E+01
 -1      3705 2.34634E+01
 -1      3706 2.34690E+01
 -1      3707 2.09752E+01
 -1      3708 1.44870E+01
 -1      3709 2.34570E+01
 -1      3710 1.42360E+01
 -1      3711 2.07185E+01
 -1      3712 1.80608E+01
 -1      3713 2.12655E+01
 -1      3714 1.82853E+01
 -1      3715 2.67903E+01
 -1      3716 1.21005E+01
 -1      3717 1.82538E+01
 -1      3718 1.29086E+01
 -1      3719 1.76438E+01
 -1      3720 1.55893E+01
 -1      3721 1.82636E+01
 -1      3722 1.59744E+01
 -1      3723 1.28147E+01
 -1      3724 1.75918E+01
 -1      3725 1.44762E+01
 -1      3726 1.60371E+01
 -1      3727 1.95579E+01
 -1      3728 1.58747E+01
 -1      3729 2.28413E+01
 -1      3730 1.91900E+01
 -1      3731 2.32478E+01
 -1      3732 1.58064E+01
 -1      3733 1.98865E+01
 -1      3734 2.18521E+01
 -1      3735 1.80409E+01
 -1      3736 1.77290E+01
 -1      3737 2.12444E+01
 -1      3738 2.64089E+01
 -1      3739 2.06219E+01
 -1      3740 2.49285E+01
 -1      3741 1.68673E+01
 -1      3742 2.01762E+01
 -1      3743 2.05976E+01
 -1      3744 2.49244E+01
 -1      3745 1.83017E+01
 -1      3746 2.33152E+01
 -1      3747 1.44939E+01
 -1      3748 2.09151E+01
 -1      3749 1.71744E+01
 -1      3750 2.04848E+01
 -1      3751 2.18390E+01
 -1      3752 2.67964E+01
 -1      3753 1.82661E+01
 -1      3754 2.12656E+01
 -1      3755 1.80524E+01
 -1      3756 1.71963E+01
 -1      3757 2.06320E+01
 -1      3758 2.15134E+01
 -1      3759 2.64065E+01
 -1      3760 1.44646E+01
 -1      3761 1.58078E+01
 -1      3762 2.08935E+01
 -1      3763 2.33096E+01
 -1      3764 1.81659E+01
 -1      3765 1.43430E+01
 -1      3766 2.30572E+01
 -1      3767 2.06993E+01
 -1      3768 1.80268E+01
 -1      3769 2.12341E+01
 -1      3770 1.64526E+01
 -1      3771 2.07451E+01
 -1      3772 1.82947E+01
 -1      3773 2.33205E+01
 -1      3774 2.79868E+01
 -1      3775 2.76552E+01
 -1      3776 1.43731E+01
 -1      3777 1.80085E+01
 -1      3778 1.96897E+01
 -1      3779 1.27371E+01
 -1      3780 1.91919E+01
 -1      3781 2.08731E+01
 -1      3782 1.79059E+01
 -1      3783 2.27685E+01
 -1      3784 1.33707E+01
 -1      3785 1.43575E+01
 -1      3786 2.04046E+01
 -1      3787 1.75182E+01
 -1      3788 2.10043E+01
 -1      3789 2.29701E+01
 -1      3790 2.81232E+01
 -1      3791 1.78292E+01
 -1      3792 2.12915E+01
 -1      3793 2.64446E+01
 -1      3794 2.03901E+01
 -1      3795 2.57338E+01
 -1      3796 1.69449E+01
 -1      3797 2.06468E+01
 -1      3798 2.59906E+01
 -1      3799 2.04197E+01
 -1      3800 2.58322E+01
 -1      3801 1.70392E+01
 -1      3802 2.05201E+01
 -1      3803 2.59326E+01
 -1      3804 1.13685E+01
 -1      3805 1.92381E+01
 -1      3806 2.17711E+01
 -1      3807 1.51200E+01
 -1      3808 1.87209E+01
 -1      3809 2.12539E+01
 -1      3810 2.53720E+01
 -1      3811 1.95607E+01
 -1      3812 2.20752E+01
 -1      3813 1.51362E+01
 -1      3814 1.87164E+01
 -1      3815 2.12309E+01
 -1      3816 2.56554E+01
 -1      3817 2.03776E+01
 -1      3818 2.77962E+01
 -1      3819 2.81187E+01
 -1      3820 2.42403E+01
 -1      3821 2.44575E+01
 -1      3822 1.81283E+01
 -1      3823 2.70309E+01
 -1      3824 2.33152E+01
 -1      3825 2.09151E+01
 -1      3826 2.97364E+01
 -1      3827 2.64719E+01
 -1      3828 2.13075E+01
 -1      3829 2.96754E+01
 -1      3830 1.93149E+01
 -1      3831 2.09865E+01
 -1      3832 1.71045E+01
 -1      3833 1.82545E+01
 -1      3834 2.09747E+01
 -1      3835 2.09739E+01
 -1      3836 2.99725E+01
 -1      3837 2.67635E+01
 -1      3838 2.99717E+01
 -1      3839 1.28158E+01
 -1      3840 1.19405E+01
 -1      3841 1.83167E+01
 -1      3842 2.09518E+01
 -1      3843 1.36720E+01
 -1      3844 1.42229E+01
 -1      3845 2.06800E+01
 -1      3846 1.78032E+01
 -1      3847 1.42222E+01
 -1      3848 1.78231E+01
 -1      3849 1.36699E+01
 -1      3850 2.07016E+01
 -1      3851 1.59098E+01
 -1      3852 1.75907E+01
 -1      3853 2.60217E+01
 -1      3854 1.96266E+01
 -1      3855 1.33031E+01
 -1      3856 1.29540E+01
 -1      3857 2.29661E+01
 -1      3858 1.97243E+01
 -1      3859 2.33096E+01
 -1      3860 2.08935E+01
 -1      3861 2.97385E+01
 -1      3862 2.64678E+01
 -1      3863 2.12954E+01
 -1      3864 2.96751E+01
 -1      3865 1.32927E+01
 -1      3866 1.97216E+01
 -1      3867 1.75818E+01
 -1      3868 2.60228E+01
 -1      3869 2.27690E+01
 -1      3870 2.04050E+01
 -1      3871 2.88161E+01
 -1      3872 1.27988E+01
 -1      3873 1.32270E+01
 -1      3874 1.92746E+01
 -1      3875 2.23408E+01
 -1      3876 1.29479E+01
 -1      3877 2.29648E+01
 -1      3878 2.27813E+01
 -1      3879 2.05937E+01
 -1      3880 1.43567E+01
 -1      3881 2.26827E+01
 -1      3882 2.04951E+01
 -1      3883 2.89197E+01
 -1      3884 1.64759E+01
 -1      3885 2.55216E+01
 -1      3886 2.35217E+01
 -1      3887 2.23522E+01
 -1      3888 2.20206E+01
 -1      3889 1.56959E+01
 -1      3890 1.98669E+01
 -1      3891 1.67862E+01
 -1      3892 2.56795E+01
 -1      3893 1.26902E+01
 -1      3894 1.39919E+01
 -1      3895 2.23179E+01
 -1      3896 1.91934E+01
 -1      3897 1.59142E+01
 -1      3898 1.96278E+01
 -1      3899 2.56554E+01
 -1      3900 2.56205E+01
 -1      3901 1.94865E+01
 -1      3902 2.53334E+01
 -1      3903 2.53502E+01
 -1      3904 1.91883E+01
 -1      3905 2.35273E+01
 -1      3906 1.41102E+01
 -1      3907 1.36947E+01
 -1      3908 1.97194E+01
 -1      3909 2.19231E+01
 -1      3910 2.01349E+01
 -1      3911 2.06259E+01
 -1      3912 2.14726E+01
 -1      3913 2.10358E+01
 -1      3914 2.99297E+01
 -1      3915 2.17663E+01
 -1      3916 2.20071E+01
 -1      3917 2.88183E+01
 -1      3918 2.04836E+01
 -1      3919 1.86909E+01
 -1      3920 1.95376E+01
 -1      3921 2.89174E+01
 -1      3922 2.06078E+01
 -1      3923 1.93084E+01
 -1      3924 1.95492E+01
 -1      3925 1.60055E+01
 -1      3926 1.97395E+01
 -1      3927 2.88161E+01
 -1      3928 2.88161E+01
 -1      3929 2.99396E+01
 -1      3930 1.96474E+01
 -1      3931 2.72497E+01
 -1      3932 2.89197E+01
 -1      3933 2.89197E+01
 -1      3934 1.83701E+01
 -1      3935 2.69854E+01
 -1      3936 1.05894E+01
 -1      3937 1.10958E+01
 -1      3938 1.82688E+01
 -1      3939 2.11902E+01
 -1      3940 2.31914E+01
 -1      3941 2.32234E+01
 -1      3942 1.08339E+01
 -1      3943 1.30151E+01
 -1      3944 2.97237E+01
 -1      3945 2.97237E+01
 -1      3946 2.97385E+01
 -1      3947 2.97237E+01
 -1      3948 2.97385E+01
 -1      3949 1.30963E+01
 -1      3950 1.30579E+01
 -1      3951 2.97187E+01
 -1      3952 2.96754E+01
 -1      3953 2.96556E+01
 -1      3954 2.97187E+01
 -1      3955 2.97171E+01
 -1      3956 2.96558E+01
 -1      3957 2.96751E+01
 -1      3958 2.97171E+01
 -1      3959 2.97364E+01
 -1      3960 2.10712E+01
 -1      3961 2.97374E+01
 -1      3962 2.10723E+01
 -1      3963 2.10712E+01
 -1      3964 2.97374E+01
 -1      3965 2.14629E+01
 -1      3966 2.13999E+01
 -1      3967 2.14618E+01
 -1      3968 2.96744E+01
 -1      3969 2.97224E+01
 -1      3970 2.97364E+01
 -1      3971 2.97224E+01
 -1      3972 2.97224E+01
 -1      3973 2.04896E+01
 -1      3974 2.05216E+01
 -1      3975 2.13884E+01
 -1      3976 2.96761E+01
 -1      3977 2.14508E+01
 -1      3978 2.14497E+01
 -1      3979 2.97374E+01
 -1      3980 2.81187E+01
 -1      3981 1.93149E+01
 -1      3982 1.70171E+01
 -1      3983 1.89347E+01
 -1      3984 2.10434E+01
 -1      3985 2.10434E+01
 -1      3986 2.10423E+01
 -1      3987 2.97374E+01
 -1      3988 1.27532E+01
 -1      3989 1.80311E+01
 -1      3990 1.40011E+01
 -1      3991 2.99725E+01
 -1      3992 1.38952E+01
 -1      3993 2.31162E+01
 -1      3994 1.39810E+01
 -1      3995 2.08044E+01
 -1      3996 1.41709E+01
 -1      3997 2.71783E+01
 -1      3998 1.31185E+01
 -1      3999 2.35382E+01
 -1      4000 1.34178E+01
 -1      4001 2.11573E+01
 -1      4002 1.94754E+01
 -1      4003 1.95102E+01
 -1      4004 2.11922E+01
 -1      4005 1.44455E+01
 -1      4006 2.99221E+01
 -1      4007 3.52852E+01
 -1      4008 1.96210E+01
 -1      4009 2.66334E+01
 -1      4010 1.96210E+01
 -1      4011 1.99682E+01
 -1      4012 2.69807E+01
 -1      4013 2.69807E+01
 -1      4014 1.11675E+01
 -1      4015 1.00055E+01
 -1      4016 2.56773E+01
 -1      4017 2.53720E+01
 -1      4018 2.72718E+01
 -1      4019 2.88852E+01
 -1      4020 2.87838E+01
 -1      4021 1.37109E+01
 -1      4022 1.97684E+01
 -1      4023 2.31063E+01
 -1      4024 2.07945E+01
 -1      4025 2.65905E+01
 -1      4026 2.65905E+01
 -1      4027 2.65905E+01
 -1      4028 2.66334E+01
 -1      4029 2.66334E+01
 -1      4030 1.41064E+01
 -1      4031 2.15529E+01
 -1      4032 1.54048E+01
 -1      4033 1.36994E+01
 -1      4034 1.82869E+01
 -1      4035 2.65905E+01
 -1      4036 2.65666E+01
 -1      4037 2.65237E+01
 -1      4038 2.65905E+01
 -1      4039 2.97385E+01
 -1      4040 2.97385E+01
 -1      4041 2.97385E+01
 -1      4042 2.97374E+01
 -1      4043 2.96761E+01
 -1      4044 2.97374E+01
 -1      4045 2.96754E+01
 -1      4046 2.97374E+01
 -1      4047 2.73279E+01
 -1      4048 2.72464E+01
 -1      4049 2.72464E+01
 -1      4050 2.73279E+01
 -1      4051 2.72464E+01
 -1      4052 1.63938E+01
 -1      4053 1.57636E+01
 -1      4054 2.11522E+01
 -1      4055 2.93554E+01
 -1      4056 2.08151E+01
 -1      4057 2.10126E+01
 -1      4058 2.92159E+01
 -1      4059 2.92159E+01
 -1      4060 2.92988E+01
 -1      4061 2.91013E+01
 -1      4062 2.92988E+01
 -1      4063 1.77657E+01
 -1      4064 1.98549E+01
 -1      4065 2.02022E+01
 -1      4066 1.94828E+01
 -1      4067 2.62613E+01
 -1      4068 2.69807E+01
 -1      4069 1.99682E+01
 -1      4070 2.15566E+01
 -1      4071 1.99312E+01
 -1      4072 2.69262E+01
 -1      4073 1.95295E+01
 -1      4074 1.95840E+01
 -1      4075 2.65789E+01
 -1      4076 1.96276E+01
 -1      4077 2.21420E+01
 -1      4078 1.81009E+01
 -1      4079 2.32478E+01
 -1      4080 1.98865E+01
 -1      4081 1.88323E+01
 -1      4082 1.47779E+01
 -1      4083 1.42020E+01
 -1      4084 1.47874E+01
 -1      4085 1.42115E+01
 -1      4086 2.23510E+01
 -1      4087 1.81399E+01
 -1      4088 2.27045E+01
 -1      4089 1.85408E+01
 -1      4090 1.94730E+01
 -1      4091 1.67901E+01
 -1      4092 1.63431E+01
 -1      4093 1.98924E+01
 -1      4094 1.47585E+01
 -1      4095 1.05432E+01
 -1      4096 1.47912E+01
 -1      4097 2.06871E+01
 -1      4098 2.29789E+01
 -1      4099 2.07913E+01
 -1      4100 1.95612E+01
 -1      4101 2.96988E+01
 -1      4102 2.97137E+01
 -1      4103 2.26603E+01
 -1      4104 1.93766E+01
 -1      4105 2.06602E+01
 -1      4106 2.06754E+01
 -1      4107 2.98414E+01
 -1      4108 2.98414E+01
 -1      4109 2.30775E+01
 -1      4110 2.69590E+01
 -1      4111 2.37333E+01
 -1      4112 2.38738E+01
 -1      4113 2.10825E+01
 -1      4114 2.36959E+01
 -1      4115 2.38583E+01
 -1      4116 2.10568E+01
 -1      4117 2.66338E+01
 -1      4118 2.67154E+01
 -1      4119 2.69590E+01
 -1      4120 2.65789E+01
 -1      4121 1.93187E+01
 -1      4122 2.95358E+01
 -1      4123 2.95551E+01
 -1      4124 2.95330E+01
 -1      4125 2.95529E+01
 -1      4126 2.69807E+01
 -1      4127 2.69807E+01
 -1      4128 2.96985E+01
 -1      4129 2.97125E+01
 -1      4130 2.10475E+01
 -1      4131 2.12806E+01
 -1      4132 2.56794E+01
 -1      4133 2.57223E+01
 -1      4134 1.89438E+01
 -1      4135 2.37890E+01
 -1      4136 2.83984E+01
 -1      4137 2.37737E+01
 -1      4138 2.83903E+01
 -1      4139 2.05220E+01
 -1      4140 2.83984E+01
 -1      4141 2.83903E+01
 -1      4142 1.37740E+01
 -1      4143 2.04523E+01
 -1      4144 2.46322E+01
 -1      4145 2.02657E+01
 -1      4146 1.67961E+01
 -1      4147 1.68353E+01
 -1      4148 1.77300E+01
 -1      4149 1.24944E+01
 -1      4150 1.86810E+01
 -1      4151 2.05960E+01
 -1      4152 1.85318E+01
 -1      4153 1.77980E+01
 -1      4154 1.32141E+01
 -1      4155 1.86132E+01
 -1      4156 2.04316E+01
 -1      4157 1.94567E+01
 -1      4158 2.05282E+01
 -1      4159 2.02037E+01
 -1      4160 2.07142E+01
 -1      4161 2.92545E+01
 -1      4162 1.31150E+01
 -1      4163 1.94346E+01
 -1      4164 1.26235E+01
 -1      4165 2.12652E+01
 -1      4166 2.02944E+01
 -1      4167 2.88161E+01
 -1      4168 2.90026E+01
 -1      4169 2.91172E+01
 -1      4170 2.06633E+01
 -1      4171 2.10185E+01
 -1      4172 2.39839E+01
 -1      4173 2.02041E+01
 -1      4174 2.04174E+01
 -1      4175 2.00358E+01
 -1      4176 2.05121E+01
 -1      4177 2.00258E+01
 -1      4178 1.91987E+01
 -1      4179 1.71328E+01
 -1      4180 1.71705E+01
 -1      4181 2.08925E+01
 -1      4182 1.92511E+01
 -1      4183 1.88051E+01
 -1      4184 1.79126E+01
 -1      4185 1.96157E+01
 -1      4186 2.06058E+01
 -1      4187 1.83942E+01
 -1      4188 2.19947E+01
 -1      4189 1.95281E+01
 -1      4190 2.63462E+01
 -1      4191 2.06815E+01
 -1      4192 2.02347E+01
 -1      4193 2.29265E+01
 -1      4194 2.20069E+01
 -1      4195 2.31956E+01
 -1      4196 2.29217E+01
 -1      4197 1.95127E+01
 -1      4198 2.03041E+01
 -1      4199 1.38576E+01
 -1      4200 1.39174E+01
 -1      4201 2.65361E+01
 -1      4202 2.52326E+01
 -1      4203 2.63365E+01
 -1      4204 2.02363E+01
 -1      4205 2.06653E+01
 -1      4206 2.04247E+01
 -1      4207 2.03058E+01
 -1      4208 2.54362E+01
 -1      4209 2.97374E+01
 -1      4210 2.97136E+01
 -1      4211 2.97832E+01
 -1      4212 2.30149E+01
 -1      4213 2.38956E+01
 -1      4214 2.38583E+01
 -1      4215 2.69262E+01
 -1      4216 2.73279E+01
 -1      4217 2.69262E+01
 -1      4218 2.67154E+01
 -1      4219 2.69811E+01
 -1      4220 2.61945E+01
 -1      4221 2.60695E+01
 -1      4222 2.98338E+01
 -1      4223 2.97137E+01
 -1      4224 2.82361E+01
 -1      4225 2.83662E+01
 -1      4226 2.83558E+01
 -1      4227 1.34696E+01
 -1      4228 1.30642E+01
 -1      4229 1.34851E+01
 -1      4230 1.27171E+01
 -1      4231 1.28973E+01
 -1      4232 1.64057E+01
 -1      4233 1.73388E+01
 -1      4234 1.35425E+01
 -1      4235 1.37873E+01
 -1      4236 2.96131E+01
 -1      4237 2.95561E+01
 -1      4238 2.89170E+01
 -1      4239 2.93554E+01
 -1      4240 2.92568E+01
 -1      4241 2.95529E+01
 -1      4242 1.35599E+01
 -1      4243 1.37907E+01
 -1      4244 1.38574E+01
 -1      4245 2.92545E+01
 -1      4246 2.95530E+01
 -1      4247 1.69193E+01
 -1      4248 1.67218E+01
 -1      4249 1.73130E+01
 -1      4250 2.24904E+01
 -1      4251 1.84702E+01
 -1      4252 1.99575E+01
 -1      4253 1.96123E+01
 -1      4254 1.84630E+01
 -1      4255 2.28958E+01
 -1      4256 2.30572E+01
 -1      4257 1.97126E+01
 -1      4258 2.06993E+01
 -1      4259 1.37423E+01
 -1      4260 1.46325E+01
 -1      4261 1.91125E+01
 -1      4262 2.88764E+01
 -1      4263 2.01206E+01
 -1      4264 2.01206E+01
 -1      4265 2.10200E+01
 -1      4266 3.07539E+01
 -1      4267 2.10200E+01
 -1      4268 1.15461E+01
 -1      4269 1.09230E+01
 -1      4270 2.10464E+01
 -1      4271 2.18755E+01
 -1      4272 2.99672E+01
 -1      4273 2.12882E+01
 -1      4274 1.91281E+01
 -1      4275 2.99341E+01
 -1      4276 1.90306E+01
 -1      4277 2.93856E+01
 -1      4278 2.06703E+01
 -1      4279 2.11047E+01
 -1      4280 1.32205E+01
 -1      4281 9.98273E+00
 -1      4282 2.82335E+01
 -1      4283 2.88764E+01
 -1      4284 2.01678E+01
 -1      4285 2.76773E+01
 -1      4286 2.99069E+01
 -1      4287 2.99468E+01
 -1      4288 2.01766E+01
 -1      4289 2.11943E+01
 -1      4290 2.24967E+01
 -1      4291 1.03500E+01
 -1      4292 1.11786E+01
 -1      4293 2.10514E+01
 -1      4294 2.01374E+01
 -1      4295 2.97758E+01
 -1      4296 1.11360E+01
 -1      4297 1.22616E+01
 -1      4298 2.20880E+01
 -1      4299 2.10469E+01
 -1      4300 1.94622E+01
 -1      4301 2.87579E+01
 -1      4302 2.16710E+01
 -1      4303 2.08055E+01
 -1      4304 1.23753E+01
 -1      4305 1.86886E+01
 -1      4306 2.11135E+01
 -1      4307 3.04831E+01
 -1      4308 2.11047E+01
 -1      4309 1.10976E+01
 -1      4310 1.24454E+01
 -1      4311 2.27394E+01
 -1      4312 2.16222E+01
 -1      4313 1.85318E+01
 -1      4314 2.05960E+01
 -1      4315 1.13261E+01
 -1      4316 2.24886E+01
 -1      4317 2.39505E+01
 -1      4318 2.93856E+01
 -1      4319 2.06164E+01
 -1      4320 2.98200E+01
 -1      4321 1.11369E+01
 -1      4322 1.09890E+01
 -1      4323 1.04121E+01
 -1      4324 2.11943E+01
 -1      4325 1.07309E+01
 -1      4326 2.16834E+01
 -1      4327 1.34258E+01
 -1      4328 1.27990E+01
 -1      4329 1.23087E+01
 -1      4330 1.73821E+01
 -1      4331 1.81292E+01
 -1      4332 2.01951E+01
 -1      4333 1.81078E+01
 -1      4334 2.01884E+01
 -1      4335 1.73607E+01
 -1      4336 1.90068E+01
 -1      4337 2.12184E+01
 -1      4338 1.86743E+01
 -1      4339 1.84596E+01
 -1      4340 2.12181E+01
 -1      4341 1.91307E+01
 -1      4342 2.07063E+01
 -1      4343 1.99833E+01
 -1      4344 2.63710E+01
 -1      4345 1.93075E+01
 -1      4346 2.24128E+01
 -1      4347 1.99463E+01
 -1      4348 1.98056E+01
 -1      4349 2.31077E+01
 -1      4350 2.04159E+01
 -1      4351 1.99434E+01
 -1      4352 1.93002E+01
 -1      4353 2.24376E+01
 -1      4354 2.06891E+01
 -1      4355 1.99848E+01
 -1      4356 2.63603E+01
 -1      4357 2.99468E+01
 -1      4358 2.24967E+01
 -1      4359 2.04219E+01
 -1      4360 1.97978E+01
 -1      4361 2.31073E+01
 -1      4362 2.06003E+01
 -1      4363 2.57324E+01
 -1      4364 1.97312E+01
 -1      4365 1.44090E+01
 -1      4366 2.32741E+01
 -1      4367 2.05031E+01
 -1      4368 1.98997E+01
 -1      4369 1.90090E+01
 -1      4370 1.61621E+01
 -1      4371 1.90354E+01
 -1      4372 2.01829E+01
 -1      4373 2.15639E+01
 -1      4374 1.30345E+01
 -1      4375 2.29454E+01
 -1      4376 3.00126E+01
 -1      4377 2.96234E+01
 -1      4378 2.16710E+01
 -1      4379 1.09583E+01
 -1      4380 1.98566E+01
 -1      4381 2.07437E+01
 -1      4382 2.56705E+01
 -1      4383 1.94815E+01
 -1      4384 1.15600E+01
 -1      4385 2.01816E+01
 -1      4386 3.13422E+01
 -1      4387 1.19933E+01
 -1      4388 2.05268E+01
 -1      4389 1.88237E+01
 -1      4390 1.80127E+01
 -1      4391 3.12492E+01
 -1      4392 1.40068E+01
 -1      4393 2.08055E+01
 -1      4394 2.87579E+01
 -1      4395 1.46325E+01
 -1      4396 9.82420E+00
 -1      4397 1.12133E+01
 -1      4398 1.44307E+01
 -1      4399 1.11929E+01
 -1      4400 1.38460E+01
 -1      4401 9.88485E+00
 -1      4402 9.78094E+00
 -1      4403 1.47208E+01
 -3
 9999
