    1C
    1USimple_beam.                                                      
    1UUSER                                                              
    1UDATE              16.february.2025                                
    1UTIME              21:37:02                                        
    1UHOST                                                              
    1UPGM               CalculiX                                        
    1UVERSION           Version 2.22                             
    1UCOMPILETIME       Sun Aug  4 19:39:24     2024                    
    1UDIR                                                               
    1UDBN                                                               
    1UMAT    1STEEL                                                     
    1PSTEP                         1           1           1          
  100CL  101 1.000000000        4403                     0    1           1
 -4  DISP        4    1
 -5  D1          1    2    1    0
 -5  D2          1    2    2    0
 -5  D3          1    2    3    0
 -5  ALL         1    2    0    0    1ALL
 -1         1 0.00000E+00 0.00000E+00 0.00000E+00
 -1         2 0.00000E+00 0.00000E+00 0.00000E+00
 -1         3 0.00000E+00 0.00000E+00 0.00000E+00
 -1         4 0.00000E+00 0.00000E+00 0.00000E+00
 -1         5 9.49257E-02 1.42346E-03-1.42390E-03
 -1         6 9.49262E-02 1.42274E-03 1.43324E-03
 -1         7 9.49263E-02-1.43368E-03-1.42463E-03
 -1         8 9.49268E-02-1.43440E-03 1.43252E-03
 -1         9 0.00000E+00 0.00000E+00 0.00000E+00
 -1        10 0.00000E+00 0.00000E+00 0.00000E+00
 -1        11 0.00000E+00 0.00000E+00 0.00000E+00
 -1        12 0.00000E+00 0.00000E+00 0.00000E+00
 -1        13 0.00000E+00 0.00000E+00 0.00000E+00
 -1        14 0.00000E+00 0.00000E+00 0.00000E+00
 -1        15 0.00000E+00 0.00000E+00 0.00000E+00
 -1        16 0.00000E+00 0.00000E+00 0.00000E+00
 -1        17 0.00000E+00 0.00000E+00 0.00000E+00
 -1        18 0.00000E+00 0.00000E+00 0.00000E+00
 -1        19 0.00000E+00 0.00000E+00 0.00000E+00
 -1        20 0.00000E+00 0.00000E+00 0.00000E+00
 -1        21 0.00000E+00 0.00000E+00 0.00000E+00
 -1        22 0.00000E+00 0.00000E+00 0.00000E+00
 -1        23 0.00000E+00 0.00000E+00 0.00000E+00
 -1        24 0.00000E+00 0.00000E+00 0.00000E+00
 -1        25 0.00000E+00 0.00000E+00 0.00000E+00
 -1        26 0.00000E+00 0.00000E+00 0.00000E+00
 -1        27 0.00000E+00 0.00000E+00 0.00000E+00
 -1        28 0.00000E+00 0.00000E+00 0.00000E+00
 -1        29 0.00000E+00 0.00000E+00 0.00000E+00
 -1        30 0.00000E+00 0.00000E+00 0.00000E+00
 -1        31 0.00000E+00 0.00000E+00 0.00000E+00
 -1        32 0.00000E+00 0.00000E+00 0.00000E+00
 -1        33 0.00000E+00 0.00000E+00 0.00000E+00
 -1        34 0.00000E+00 0.00000E+00 0.00000E+00
 -1        35 0.00000E+00 0.00000E+00 0.00000E+00
 -1        36 0.00000E+00 0.00000E+00 0.00000E+00
 -1        37 9.49260E-02 1.42292E-03 7.18953E-04
 -1        38 9.49259E-02 1.42310E-03 4.66732E-06
 -1        39 9.49258E-02 1.42328E-03-7.09618E-04
 -1        40 9.49261E-02 1.42283E-03 1.07610E-03
 -1        41 9.49260E-02 1.42301E-03 3.61810E-04
 -1        42 9.49259E-02 1.42319E-03-3.52476E-04
 -1        43 9.49257E-02 1.42337E-03-1.06676E-03
 -1        44 9.49258E-02 7.09176E-04-1.42408E-03
 -1        45 9.49260E-02-5.10932E-06-1.42427E-03
 -1        46 9.49261E-02-7.19395E-04-1.42445E-03
 -1        47 9.49258E-02 1.06632E-03-1.42399E-03
 -1        48 9.49259E-02 3.52034E-04-1.42418E-03
 -1        49 9.49261E-02-3.62252E-04-1.42436E-03
 -1        50 9.49262E-02-1.07654E-03-1.42454E-03
 -1        51 9.49266E-02-1.43422E-03 7.18229E-04
 -1        52 9.49265E-02-1.43404E-03 3.94364E-06
 -1        53 9.49264E-02-1.43386E-03-7.10342E-04
 -1        54 9.49267E-02-1.43431E-03 1.07537E-03
 -1        55 9.49266E-02-1.43413E-03 3.61086E-04
 -1        56 9.49265E-02-1.43395E-03-3.53199E-04
 -1        57 9.49263E-02-1.43377E-03-1.06748E-03
 -1        58 9.49263E-02 7.08453E-04 1.43306E-03
 -1        59 9.49265E-02-5.83301E-06 1.43288E-03
 -1        60 9.49266E-02-7.20119E-04 1.43270E-03
 -1        61 9.49262E-02 1.06560E-03 1.43315E-03
 -1        62 9.49264E-02 3.51310E-04 1.43297E-03
 -1        63 9.49265E-02-3.62976E-04 1.43279E-03
 -1        64 9.49267E-02-1.07726E-03 1.43261E-03
 -1        65 2.95201E-03 1.20998E-03 1.21221E-03
 -1        66 5.43632E-03 1.41754E-03 1.41156E-03
 -1        67 8.11863E-03 1.43775E-03 1.43676E-03
 -1        68 1.08948E-02 1.43229E-03 1.43318E-03
 -1        69 1.36922E-02 1.42923E-03 1.43037E-03
 -1        70 1.64941E-02 1.42796E-03 1.42948E-03
 -1        71 1.92957E-02 1.42758E-03 1.42942E-03
 -1        72 2.20970E-02 1.42739E-03 1.42955E-03
 -1        73 2.48981E-02 1.42722E-03 1.42971E-03
 -1        74 2.76993E-02 1.42704E-03 1.42985E-03
 -1        75 3.05004E-02 1.42687E-03 1.43000E-03
 -1        76 3.33015E-02 1.42669E-03 1.43014E-03
 -1        77 3.61026E-02 1.42651E-03 1.43028E-03
 -1        78 3.89038E-02 1.42633E-03 1.43042E-03
 -1        79 4.17049E-02 1.42615E-03 1.43056E-03
 -1        80 4.45060E-02 1.42597E-03 1.43070E-03
 -1        81 4.73071E-02 1.42579E-03 1.43084E-03
 -1        82 5.01082E-02 1.42561E-03 1.43098E-03
 -1        83 5.29094E-02 1.42543E-03 1.43112E-03
 -1        84 5.57105E-02 1.42525E-03 1.43127E-03
 -1        85 5.85116E-02 1.42507E-03 1.43141E-03
 -1        86 6.13127E-02 1.42489E-03 1.43155E-03
 -1        87 6.41138E-02 1.42471E-03 1.43169E-03
 -1        88 6.69150E-02 1.42453E-03 1.43183E-03
 -1        89 6.97161E-02 1.42435E-03 1.43197E-03
 -1        90 7.25172E-02 1.42417E-03 1.43211E-03
 -1        91 7.53183E-02 1.42399E-03 1.43225E-03
 -1        92 7.81194E-02 1.42382E-03 1.43239E-03
 -1        93 8.09206E-02 1.42364E-03 1.43253E-03
 -1        94 8.37217E-02 1.42346E-03 1.43267E-03
 -1        95 8.65228E-02 1.42328E-03 1.43282E-03
 -1        96 8.93239E-02 1.42310E-03 1.43296E-03
 -1        97 9.21250E-02 1.42292E-03 1.43310E-03
 -1        98 1.71886E-03 9.18039E-04 9.21400E-04
 -1        99 4.17006E-03 1.35956E-03 1.35551E-03
 -1       100 6.76169E-03 1.43491E-03 1.43438E-03
 -1       101 9.50169E-03 1.43567E-03 1.43583E-03
 -1       102 1.22924E-02 1.43060E-03 1.43173E-03
 -1       103 1.50931E-02 1.42842E-03 1.42975E-03
 -1       104 1.78950E-02 1.42772E-03 1.42941E-03
 -1       105 2.06964E-02 1.42747E-03 1.42948E-03
 -1       106 2.34976E-02 1.42730E-03 1.42963E-03
 -1       107 2.62987E-02 1.42713E-03 1.42978E-03
 -1       108 2.90998E-02 1.42695E-03 1.42993E-03
 -1       109 3.19009E-02 1.42678E-03 1.43007E-03
 -1       110 3.47021E-02 1.42660E-03 1.43021E-03
 -1       111 3.75032E-02 1.42642E-03 1.43035E-03
 -1       112 4.03043E-02 1.42624E-03 1.43049E-03
 -1       113 4.31054E-02 1.42606E-03 1.43063E-03
 -1       114 4.59066E-02 1.42588E-03 1.43077E-03
 -1       115 4.87077E-02 1.42570E-03 1.43091E-03
 -1       116 5.15088E-02 1.42552E-03 1.43105E-03
 -1       117 5.43099E-02 1.42534E-03 1.43120E-03
 -1       118 5.71110E-02 1.42516E-03 1.43134E-03
 -1       119 5.99122E-02 1.42498E-03 1.43148E-03
 -1       120 6.27133E-02 1.42480E-03 1.43162E-03
 -1       121 6.55144E-02 1.42462E-03 1.43176E-03
 -1       122 6.83155E-02 1.42444E-03 1.43190E-03
 -1       123 7.11166E-02 1.42426E-03 1.43204E-03
 -1       124 7.39178E-02 1.42408E-03 1.43218E-03
 -1       125 7.67189E-02 1.42390E-03 1.43232E-03
 -1       126 7.95200E-02 1.42373E-03 1.43246E-03
 -1       127 8.23211E-02 1.42355E-03 1.43260E-03
 -1       128 8.51222E-02 1.42337E-03 1.43275E-03
 -1       129 8.79234E-02 1.42319E-03 1.43289E-03
 -1       130 9.07245E-02 1.42301E-03 1.43303E-03
 -1       131 9.35256E-02 1.42283E-03 1.43317E-03
 -1       132 2.95163E-03 1.21023E-03-1.21189E-03
 -1       133 5.43639E-03 1.41774E-03-1.41147E-03
 -1       134 8.11973E-03 1.43772E-03-1.43754E-03
 -1       135 1.08935E-02 1.43315E-03-1.43249E-03
 -1       136 1.36918E-02 1.42982E-03-1.42916E-03
 -1       137 1.64937E-02 1.42866E-03-1.42802E-03
 -1       138 1.92953E-02 1.42831E-03-1.42770E-03
 -1       139 2.20965E-02 1.42811E-03-1.42755E-03
 -1       140 2.48977E-02 1.42794E-03-1.42742E-03
 -1       141 2.76988E-02 1.42777E-03-1.42729E-03
 -1       142 3.04999E-02 1.42759E-03-1.42715E-03
 -1       143 3.33010E-02 1.42741E-03-1.42700E-03
 -1       144 3.61021E-02 1.42723E-03-1.42686E-03
 -1       145 3.89033E-02 1.42705E-03-1.42672E-03
 -1       146 4.17044E-02 1.42687E-03-1.42658E-03
 -1       147 4.45055E-02 1.42669E-03-1.42644E-03
 -1       148 4.73066E-02 1.42651E-03-1.42630E-03
 -1       149 5.01078E-02 1.42633E-03-1.42616E-03
 -1       150 5.29089E-02 1.42615E-03-1.42602E-03
 -1       151 5.57100E-02 1.42597E-03-1.42588E-03
 -1       152 5.85111E-02 1.42579E-03-1.42574E-03
 -1       153 6.13122E-02 1.42562E-03-1.42560E-03
 -1       154 6.41134E-02 1.42544E-03-1.42545E-03
 -1       155 6.69145E-02 1.42526E-03-1.42531E-03
 -1       156 6.97156E-02 1.42508E-03-1.42517E-03
 -1       157 7.25167E-02 1.42490E-03-1.42503E-03
 -1       158 7.53178E-02 1.42472E-03-1.42489E-03
 -1       159 7.81190E-02 1.42454E-03-1.42475E-03
 -1       160 8.09201E-02 1.42436E-03-1.42461E-03
 -1       161 8.37212E-02 1.42418E-03-1.42447E-03
 -1       162 8.65223E-02 1.42400E-03-1.42433E-03
 -1       163 8.93234E-02 1.42382E-03-1.42419E-03
 -1       164 9.21246E-02 1.42364E-03-1.42405E-03
 -1       165 1.71880E-03 9.17953E-04-9.21078E-04
 -1       166 4.16976E-03 1.35960E-03-1.35579E-03
 -1       167 6.76216E-03 1.43576E-03-1.43494E-03
 -1       168 9.50128E-03 1.43618E-03-1.43564E-03
 -1       169 1.22917E-02 1.43134E-03-1.43062E-03
 -1       170 1.50928E-02 1.42905E-03-1.42842E-03
 -1       171 1.78945E-02 1.42845E-03-1.42782E-03
 -1       172 2.06959E-02 1.42820E-03-1.42762E-03
 -1       173 2.34971E-02 1.42803E-03-1.42749E-03
 -1       174 2.62982E-02 1.42786E-03-1.42735E-03
 -1       175 2.90994E-02 1.42768E-03-1.42722E-03
 -1       176 3.19005E-02 1.42750E-03-1.42708E-03
 -1       177 3.47016E-02 1.42732E-03-1.42693E-03
 -1       178 3.75027E-02 1.42714E-03-1.42679E-03
 -1       179 4.03038E-02 1.42696E-03-1.42665E-03
 -1       180 4.31050E-02 1.42678E-03-1.42651E-03
 -1       181 4.59061E-02 1.42660E-03-1.42637E-03
 -1       182 4.87072E-02 1.42642E-03-1.42623E-03
 -1       183 5.15083E-02 1.42624E-03-1.42609E-03
 -1       184 5.43094E-02 1.42606E-03-1.42595E-03
 -1       185 5.71106E-02 1.42588E-03-1.42581E-03
 -1       186 5.99117E-02 1.42571E-03-1.42567E-03
 -1       187 6.27128E-02 1.42553E-03-1.42552E-03
 -1       188 6.55139E-02 1.42535E-03-1.42538E-03
 -1       189 6.83150E-02 1.42517E-03-1.42524E-03
 -1       190 7.11162E-02 1.42499E-03-1.42510E-03
 -1       191 7.39173E-02 1.42481E-03-1.42496E-03
 -1       192 7.67184E-02 1.42463E-03-1.42482E-03
 -1       193 7.95195E-02 1.42445E-03-1.42468E-03
 -1       194 8.23206E-02 1.42427E-03-1.42454E-03
 -1       195 8.51218E-02 1.42409E-03-1.42440E-03
 -1       196 8.79229E-02 1.42391E-03-1.42426E-03
 -1       197 9.07240E-02 1.42373E-03-1.42412E-03
 -1       198 9.35251E-02 1.42355E-03-1.42397E-03
 -1       199 2.94991E-03-1.21157E-03 1.21485E-03
 -1       200 5.43755E-03-1.41334E-03 1.41568E-03
 -1       201 8.12095E-03-1.43798E-03 1.43700E-03
 -1       202 1.08942E-02-1.43342E-03 1.43248E-03
 -1       203 1.36930E-02-1.43035E-03 1.42955E-03
 -1       204 1.64948E-02-1.42955E-03 1.42874E-03
 -1       205 1.92964E-02-1.42955E-03 1.42870E-03
 -1       206 2.20976E-02-1.42972E-03 1.42884E-03
 -1       207 2.48988E-02-1.42991E-03 1.42899E-03
 -1       208 2.76999E-02-1.43010E-03 1.42913E-03
 -1       209 3.05010E-02-1.43028E-03 1.42927E-03
 -1       210 3.33021E-02-1.43046E-03 1.42941E-03
 -1       211 3.61032E-02-1.43064E-03 1.42956E-03
 -1       212 3.89044E-02-1.43082E-03 1.42970E-03
 -1       213 4.17055E-02-1.43100E-03 1.42984E-03
 -1       214 4.45066E-02-1.43117E-03 1.42998E-03
 -1       215 4.73077E-02-1.43135E-03 1.43012E-03
 -1       216 5.01088E-02-1.43153E-03 1.43026E-03
 -1       217 5.29100E-02-1.43171E-03 1.43040E-03
 -1       218 5.57111E-02-1.43189E-03 1.43054E-03
 -1       219 5.85122E-02-1.43207E-03 1.43068E-03
 -1       220 6.13133E-02-1.43225E-03 1.43082E-03
 -1       221 6.41144E-02-1.43243E-03 1.43096E-03
 -1       222 6.69156E-02-1.43261E-03 1.43111E-03
 -1       223 6.97167E-02-1.43279E-03 1.43125E-03
 -1       224 7.25178E-02-1.43297E-03 1.43139E-03
 -1       225 7.53189E-02-1.43315E-03 1.43153E-03
 -1       226 7.81200E-02-1.43333E-03 1.43167E-03
 -1       227 8.09212E-02-1.43351E-03 1.43181E-03
 -1       228 8.37223E-02-1.43369E-03 1.43195E-03
 -1       229 8.65234E-02-1.43387E-03 1.43209E-03
 -1       230 8.93245E-02-1.43405E-03 1.43223E-03
 -1       231 9.21256E-02-1.43423E-03 1.43237E-03
 -1       232 1.72168E-03-9.19433E-04 9.21109E-04
 -1       233 4.17055E-03-1.35684E-03 1.35804E-03
 -1       234 6.76321E-03-1.43561E-03 1.43460E-03
 -1       235 9.50218E-03-1.43620E-03 1.43570E-03
 -1       236 1.22928E-02-1.43163E-03 1.43083E-03
 -1       237 1.50939E-02-1.42980E-03 1.42900E-03
 -1       238 1.78956E-02-1.42952E-03 1.42868E-03
 -1       239 2.06970E-02-1.42963E-03 1.42876E-03
 -1       240 2.34982E-02-1.42982E-03 1.42891E-03
 -1       241 2.62993E-02-1.43001E-03 1.42906E-03
 -1       242 2.91004E-02-1.43019E-03 1.42920E-03
 -1       243 3.19016E-02-1.43037E-03 1.42934E-03
 -1       244 3.47027E-02-1.43055E-03 1.42948E-03
 -1       245 3.75038E-02-1.43073E-03 1.42963E-03
 -1       246 4.03049E-02-1.43091E-03 1.42977E-03
 -1       247 4.31060E-02-1.43108E-03 1.42991E-03
 -1       248 4.59072E-02-1.43126E-03 1.43005E-03
 -1       249 4.87083E-02-1.43144E-03 1.43019E-03
 -1       250 5.15094E-02-1.43162E-03 1.43033E-03
 -1       251 5.43105E-02-1.43180E-03 1.43047E-03
 -1       252 5.71116E-02-1.43198E-03 1.43061E-03
 -1       253 5.99128E-02-1.43216E-03 1.43075E-03
 -1       254 6.27139E-02-1.43234E-03 1.43089E-03
 -1       255 6.55150E-02-1.43252E-03 1.43104E-03
 -1       256 6.83161E-02-1.43270E-03 1.43118E-03
 -1       257 7.11172E-02-1.43288E-03 1.43132E-03
 -1       258 7.39184E-02-1.43306E-03 1.43146E-03
 -1       259 7.67195E-02-1.43324E-03 1.43160E-03
 -1       260 7.95206E-02-1.43342E-03 1.43174E-03
 -1       261 8.23217E-02-1.43360E-03 1.43188E-03
 -1       262 8.51228E-02-1.43378E-03 1.43202E-03
 -1       263 8.79240E-02-1.43396E-03 1.43216E-03
 -1       264 9.07251E-02-1.43414E-03 1.43230E-03
 -1       265 9.35262E-02-1.43431E-03 1.43244E-03
 -1       266 2.95130E-03-1.20876E-03-1.21612E-03
 -1       267 5.43662E-03-1.41258E-03-1.41808E-03
 -1       268 8.11823E-03-1.43626E-03-1.43869E-03
 -1       269 1.08943E-02-1.43257E-03-1.43319E-03
 -1       270 1.36923E-02-1.42968E-03-1.42993E-03
 -1       271 1.64943E-02-1.42884E-03-1.42876E-03
 -1       272 1.92959E-02-1.42883E-03-1.42842E-03
 -1       273 2.20971E-02-1.42900E-03-1.42827E-03
 -1       274 2.48983E-02-1.42919E-03-1.42815E-03
 -1       275 2.76994E-02-1.42937E-03-1.42801E-03
 -1       276 3.05005E-02-1.42955E-03-1.42787E-03
 -1       277 3.33016E-02-1.42973E-03-1.42773E-03
 -1       278 3.61028E-02-1.42991E-03-1.42759E-03
 -1       279 3.89039E-02-1.43009E-03-1.42745E-03
 -1       280 4.17050E-02-1.43027E-03-1.42731E-03
 -1       281 4.45061E-02-1.43045E-03-1.42716E-03
 -1       282 4.73072E-02-1.43063E-03-1.42702E-03
 -1       283 5.01084E-02-1.43081E-03-1.42688E-03
 -1       284 5.29095E-02-1.43099E-03-1.42674E-03
 -1       285 5.57106E-02-1.43117E-03-1.42660E-03
 -1       286 5.85117E-02-1.43135E-03-1.42646E-03
 -1       287 6.13128E-02-1.43153E-03-1.42632E-03
 -1       288 6.41140E-02-1.43171E-03-1.42618E-03
 -1       289 6.69151E-02-1.43189E-03-1.42604E-03
 -1       290 6.97162E-02-1.43207E-03-1.42590E-03
 -1       291 7.25173E-02-1.43225E-03-1.42576E-03
 -1       292 7.53184E-02-1.43242E-03-1.42561E-03
 -1       293 7.81196E-02-1.43260E-03-1.42547E-03
 -1       294 8.09207E-02-1.43278E-03-1.42533E-03
 -1       295 8.37218E-02-1.43296E-03-1.42519E-03
 -1       296 8.65229E-02-1.43314E-03-1.42505E-03
 -1       297 8.93240E-02-1.43332E-03-1.42491E-03
 -1       298 9.21252E-02-1.43350E-03-1.42477E-03
 -1       299 1.72107E-03-9.16907E-04-9.23107E-04
 -1       300 4.17038E-03-1.35525E-03-1.36084E-03
 -1       301 6.76150E-03-1.43442E-03-1.43607E-03
 -1       302 9.50142E-03-1.43521E-03-1.43642E-03
 -1       303 1.22923E-02-1.43094E-03-1.43146E-03
 -1       304 1.50933E-02-1.42911E-03-1.42916E-03
 -1       305 1.78951E-02-1.42879E-03-1.42855E-03
 -1       306 2.06965E-02-1.42890E-03-1.42834E-03
 -1       307 2.34977E-02-1.42909E-03-1.42821E-03
 -1       308 2.62988E-02-1.42928E-03-1.42808E-03
 -1       309 2.91000E-02-1.42946E-03-1.42794E-03
 -1       310 3.19011E-02-1.42964E-03-1.42780E-03
 -1       311 3.47022E-02-1.42982E-03-1.42766E-03
 -1       312 3.75033E-02-1.43000E-03-1.42752E-03
 -1       313 4.03044E-02-1.43018E-03-1.42738E-03
 -1       314 4.31056E-02-1.43036E-03-1.42724E-03
 -1       315 4.59067E-02-1.43054E-03-1.42709E-03
 -1       316 4.87078E-02-1.43072E-03-1.42695E-03
 -1       317 5.15089E-02-1.43090E-03-1.42681E-03
 -1       318 5.43100E-02-1.43108E-03-1.42667E-03
 -1       319 5.71112E-02-1.43126E-03-1.42653E-03
 -1       320 5.99123E-02-1.43144E-03-1.42639E-03
 -1       321 6.27134E-02-1.43162E-03-1.42625E-03
 -1       322 6.55145E-02-1.43180E-03-1.42611E-03
 -1       323 6.83156E-02-1.43198E-03-1.42597E-03
 -1       324 7.11168E-02-1.43216E-03-1.42583E-03
 -1       325 7.39179E-02-1.43234E-03-1.42568E-03
 -1       326 7.67190E-02-1.43251E-03-1.42554E-03
 -1       327 7.95201E-02-1.43269E-03-1.42540E-03
 -1       328 8.23212E-02-1.43287E-03-1.42526E-03
 -1       329 8.51224E-02-1.43305E-03-1.42512E-03
 -1       330 8.79235E-02-1.43323E-03-1.42498E-03
 -1       331 9.07246E-02-1.43341E-03-1.42484E-03
 -1       332 9.35257E-02-1.43359E-03-1.42470E-03
 -1       333 0.00000E+00 0.00000E+00 0.00000E+00
 -1       334 0.00000E+00 0.00000E+00 0.00000E+00
 -1       335 0.00000E+00 0.00000E+00 0.00000E+00
 -1       336 0.00000E+00 0.00000E+00 0.00000E+00
 -1       337 0.00000E+00 0.00000E+00 0.00000E+00
 -1       338 0.00000E+00 0.00000E+00 0.00000E+00
 -1       339 0.00000E+00 0.00000E+00 0.00000E+00
 -1       340 0.00000E+00 0.00000E+00 0.00000E+00
 -1       341 0.00000E+00 0.00000E+00 0.00000E+00
 -1       342 0.00000E+00 0.00000E+00 0.00000E+00
 -1       343 0.00000E+00 0.00000E+00 0.00000E+00
 -1       344 0.00000E+00 0.00000E+00 0.00000E+00
 -1       345 0.00000E+00 0.00000E+00 0.00000E+00
 -1       346 0.00000E+00 0.00000E+00 0.00000E+00
 -1       347 0.00000E+00 0.00000E+00 0.00000E+00
 -1       348 0.00000E+00 0.00000E+00 0.00000E+00
 -1       349 0.00000E+00 0.00000E+00 0.00000E+00
 -1       350 0.00000E+00 0.00000E+00 0.00000E+00
 -1       351 0.00000E+00 0.00000E+00 0.00000E+00
 -1       352 0.00000E+00 0.00000E+00 0.00000E+00
 -1       353 0.00000E+00 0.00000E+00 0.00000E+00
 -1       354 0.00000E+00 0.00000E+00 0.00000E+00
 -1       355 0.00000E+00 0.00000E+00 0.00000E+00
 -1       356 0.00000E+00 0.00000E+00 0.00000E+00
 -1       357 0.00000E+00 0.00000E+00 0.00000E+00
 -1       358 0.00000E+00 0.00000E+00 0.00000E+00
 -1       359 0.00000E+00 0.00000E+00 0.00000E+00
 -1       360 0.00000E+00 0.00000E+00 0.00000E+00
 -1       361 0.00000E+00 0.00000E+00 0.00000E+00
 -1       362 0.00000E+00 0.00000E+00 0.00000E+00
 -1       363 0.00000E+00 0.00000E+00 0.00000E+00
 -1       364 0.00000E+00 0.00000E+00 0.00000E+00
 -1       365 0.00000E+00 0.00000E+00 0.00000E+00
 -1       366 0.00000E+00 0.00000E+00 0.00000E+00
 -1       367 0.00000E+00 0.00000E+00 0.00000E+00
 -1       368 0.00000E+00 0.00000E+00 0.00000E+00
 -1       369 0.00000E+00 0.00000E+00 0.00000E+00
 -1       370 0.00000E+00 0.00000E+00 0.00000E+00
 -1       371 0.00000E+00 0.00000E+00 0.00000E+00
 -1       372 0.00000E+00 0.00000E+00 0.00000E+00
 -1       373 0.00000E+00 0.00000E+00 0.00000E+00
 -1       374 0.00000E+00 0.00000E+00 0.00000E+00
 -1       375 0.00000E+00 0.00000E+00 0.00000E+00
 -1       376 0.00000E+00 0.00000E+00 0.00000E+00
 -1       377 0.00000E+00 0.00000E+00 0.00000E+00
 -1       378 0.00000E+00 0.00000E+00 0.00000E+00
 -1       379 0.00000E+00 0.00000E+00 0.00000E+00
 -1       380 0.00000E+00 0.00000E+00 0.00000E+00
 -1       381 0.00000E+00 0.00000E+00 0.00000E+00
 -1       382 0.00000E+00 0.00000E+00 0.00000E+00
 -1       383 0.00000E+00 0.00000E+00 0.00000E+00
 -1       384 0.00000E+00 0.00000E+00 0.00000E+00
 -1       385 0.00000E+00 0.00000E+00 0.00000E+00
 -1       386 0.00000E+00 0.00000E+00 0.00000E+00
 -1       387 0.00000E+00 0.00000E+00 0.00000E+00
 -1       388 0.00000E+00 0.00000E+00 0.00000E+00
 -1       389 0.00000E+00 0.00000E+00 0.00000E+00
 -1       390 0.00000E+00 0.00000E+00 0.00000E+00
 -1       391 0.00000E+00 0.00000E+00 0.00000E+00
 -1       392 0.00000E+00 0.00000E+00 0.00000E+00
 -1       393 0.00000E+00 0.00000E+00 0.00000E+00
 -1       394 0.00000E+00 0.00000E+00 0.00000E+00
 -1       395 0.00000E+00 0.00000E+00 0.00000E+00
 -1       396 0.00000E+00 0.00000E+00 0.00000E+00
 -1       397 0.00000E+00 0.00000E+00 0.00000E+00
 -1       398 0.00000E+00 0.00000E+00 0.00000E+00
 -1       399 0.00000E+00 0.00000E+00 0.00000E+00
 -1       400 0.00000E+00 0.00000E+00 0.00000E+00
 -1       401 0.00000E+00 0.00000E+00 0.00000E+00
 -1       402 0.00000E+00 0.00000E+00 0.00000E+00
 -1       403 0.00000E+00 0.00000E+00 0.00000E+00
 -1       404 0.00000E+00 0.00000E+00 0.00000E+00
 -1       405 0.00000E+00 0.00000E+00 0.00000E+00
 -1       406 9.49262E-02-3.39820E-04-7.79480E-04
 -1       407 9.49264E-02-3.35198E-04 8.30153E-04
 -1       408 9.49260E-02 8.58412E-04-3.97790E-04
 -1       409 9.49263E-02 3.50114E-04 8.29099E-04
 -1       410 9.49263E-02 3.22637E-06 2.76425E-04
 -1       411 9.49264E-02-7.75663E-04 3.06291E-04
 -1       412 9.49260E-02 3.97540E-04-8.68037E-04
 -1       413 9.49261E-02 7.84370E-04 3.10137E-04
 -1       414 9.49264E-02-9.15363E-04-3.70800E-04
 -1       415 9.49263E-02-3.55797E-04-1.90258E-04
 -1       416 9.49259E-02 9.00436E-04-9.01143E-04
 -1       417 9.49266E-02-9.11379E-04 9.09754E-04
 -1       418 9.49262E-02 8.99977E-04 9.10213E-04
 -1       419 9.49263E-02-9.15218E-04-9.05902E-04
 -1       420 9.49261E-02 2.62147E-04-2.81457E-04
 -1       421 9.49258E-02 1.16186E-03-8.05381E-04
 -1       422 9.49258E-02 1.16195E-03-1.16252E-03
 -1       423 9.49259E-02 8.04806E-04-1.16261E-03
 -1       424 9.49262E-02 1.16136E-03 1.17173E-03
 -1       425 9.49261E-02 1.16145E-03 8.14583E-04
 -1       426 9.49262E-02 8.04215E-04 1.17164E-03
 -1       427 9.49262E-02-8.17307E-04-1.16517E-03
 -1       428 9.49263E-02-1.17445E-03-1.16527E-03
 -1       429 9.49263E-02-1.17454E-03-8.08122E-04
 -1       430 9.49266E-02-1.17280E-03 8.13992E-04
 -1       431 9.49267E-02-1.17289E-03 1.17113E-03
 -1       432 9.49266E-02-8.15749E-04 1.17122E-03
 -1       433 9.49261E-02 1.10364E-03 5.14545E-04
 -1       434 9.49260E-02 1.10374E-03 1.57402E-04
 -1       435 9.49261E-02 8.42174E-04 6.10175E-04
 -1       436 9.49259E-02 1.14076E-03-1.96561E-04
 -1       437 9.49259E-02 1.14085E-03-5.53704E-04
 -1       438 9.49260E-02 8.21391E-04-4.38265E-05
 -1       439 9.49259E-02 8.79424E-04-6.49466E-04
 -1       440 9.49259E-02 5.53358E-04-1.14606E-03
 -1       441 9.49260E-02 1.96216E-04-1.14615E-03
 -1       442 9.49259E-02 6.48988E-04-8.84590E-04
 -1       443 9.49261E-02-1.72465E-04-1.10187E-03
 -1       444 9.49261E-02-5.29608E-04-1.10196E-03
 -1       445 9.49261E-02 2.88600E-05-8.23758E-04
 -1       446 9.49262E-02-6.27519E-04-8.42691E-04
 -1       447 9.49265E-02-1.10485E-03 1.55117E-04
 -1       448 9.49265E-02-1.10494E-03 5.12260E-04
 -1       449 9.49265E-02-8.43521E-04 6.08022E-04
 -1       450 9.49264E-02-1.17461E-03-5.40571E-04
 -1       451 9.49264E-02-1.17470E-03-1.83428E-04
 -1       452 9.49264E-02-8.45513E-04-3.22547E-05
 -1       453 9.49263E-02-9.15291E-04-6.38351E-04
 -1       454 9.49264E-02 1.72140E-04 1.13099E-03
 -1       455 9.49263E-02 5.29283E-04 1.13108E-03
 -1       456 9.49262E-02 6.25046E-04 8.69656E-04
 -1       457 9.49265E-02-5.27658E-04 1.13142E-03
 -1       458 9.49264E-02-1.70516E-04 1.13152E-03
 -1       459 9.49264E-02 7.45794E-06 8.29626E-04
 -1       460 9.49265E-02-6.23288E-04 8.69954E-04
 -1       461 9.49261E-02 3.29844E-04-5.74747E-04
 -1       462 9.49261E-02-3.88365E-05-5.30468E-04
 -1       463 9.49262E-02-3.47809E-04-4.84869E-04
 -1       464 9.49263E-02-6.35580E-04-2.80529E-04
 -1       465 9.49263E-02-6.27592E-04-5.75140E-04
 -1       466 9.49262E-02-4.68246E-05-2.35857E-04
 -1       467 9.49263E-02-1.65986E-04 5.53289E-04
 -1       468 9.49263E-02 1.76670E-04 5.52762E-04
 -1       469 9.49264E-02-5.55430E-04 5.68222E-04
 -1       470 9.49264E-02-3.86218E-04 2.91358E-04
 -1       471 9.49260E-02 6.27976E-04-6.32913E-04
 -1       472 9.49260E-02 5.60280E-04-3.39623E-04
 -1       473 9.49261E-02 5.23259E-04 1.43400E-05
 -1       474 9.49262E-02 3.93798E-04 2.93281E-04
 -1       475 9.49262E-02 5.67242E-04 5.69618E-04
 -1       476 9.49263E-02-5.65730E-04 5.80165E-05
 -1       477 9.49263E-02-1.76285E-04 4.30838E-05
 -1       478 9.49262E-02 1.32687E-04-2.51567E-06
 -1       479 6.55143E-02 1.42481E-03 7.04006E-04
 -1       480 7.67188E-02 1.42409E-03 7.04570E-04
 -1       481 8.78941E-02 1.42373E-03-7.10493E-04
 -1       482 5.43098E-02 1.42552E-03 7.03443E-04
 -1       483 5.99118E-02 1.42552E-03-6.97913E-04
 -1       484 7.11163E-02 1.42480E-03-6.97350E-04
 -1       485 8.23208E-02 1.42409E-03-6.96786E-04
 -1       486 4.87073E-02 1.42624E-03-6.98477E-04
 -1       487 1.50901E-02 1.42830E-03 7.06077E-04
 -1       488 2.06963E-02 1.42764E-03 7.01709E-04
 -1       489 9.49275E-03 1.43685E-03-7.10093E-04
 -1       490 3.19008E-02 1.42696E-03 7.02315E-04
 -1       491 4.02915E-02 1.42642E-03 7.04939E-04
 -1       492 2.62986E-02 1.42732E-03 7.02030E-04
 -1       493 3.87825E-03 1.38716E-03-6.59995E-04
 -1       494 6.71587E-03 1.44473E-03 7.19095E-04
 -1       495 9.08552E-02 1.42319E-03 6.96989E-04
 -1       496 4.59064E-02 1.42606E-03 7.03020E-04
 -1       497 8.51221E-02 1.42355E-03 7.04993E-04
 -1       498 1.78949E-02 1.42820E-03-7.00017E-04
 -1       499 3.47017E-02 1.42714E-03-6.99182E-04
 -1       500 4.30960E-02 1.42660E-03-7.10013E-04
 -1       501 2.34972E-02 1.42784E-03-6.99734E-04
 -1       502 2.90995E-02 1.42749E-03-6.99464E-04
 -1       503 1.91809E-03 1.15782E-03 1.98863E-04
 -1       504 9.29484E-02 1.42331E-03-3.32200E-04
 -1       505 6.55140E-02 1.42516E-03-6.97632E-04
 -1       506 7.67185E-02 1.42444E-03-6.97068E-04
 -1       507 5.43096E-02 1.42588E-03-6.98195E-04
 -1       508 5.99120E-02 1.42517E-03 7.03725E-04
 -1       509 7.11165E-02 1.42445E-03 7.04288E-04
 -1       510 6.70443E-03 1.44610E-03-7.23990E-04
 -1       511 9.48106E-03 1.43640E-03 7.13105E-04
 -1       512 1.22844E-02 1.43078E-03 7.10039E-04
 -1       513 1.36858E-02 1.42924E-03-1.96808E-06
 -1       514 8.79349E-02 1.42337E-03 7.09109E-04
 -1       515 6.83154E-02 1.42463E-03 7.04147E-04
 -1       516 6.83152E-02 1.42498E-03-6.97491E-04
 -1       517 4.59054E-02 1.42642E-03-7.04156E-04
 -1       518 4.87075E-02 1.42588E-03 7.03161E-04
 -1       519 5.71107E-02 1.42570E-03-6.98054E-04
 -1       520 5.71109E-02 1.42535E-03 7.03584E-04
 -1       521 2.34975E-02 1.42749E-03 7.01877E-04
 -1       522 3.47019E-02 1.42678E-03 7.02456E-04
 -1       523 3.75009E-02 1.42660E-03 7.07454E-04
 -1       524 3.88756E-02 1.42669E-03-5.95428E-06
 -1       525 3.19006E-02 1.42732E-03-6.99323E-04
 -1       526 7.39174E-02 1.42462E-03-6.97209E-04
 -1       527 7.39176E-02 1.42427E-03 7.04429E-04
 -1       528 4.30905E-02 1.42624E-03 7.09936E-04
 -1       529 8.51219E-02 1.42391E-03-6.96645E-04
 -1       530 8.23210E-02 1.42373E-03 7.04852E-04
 -1       531 2.62984E-02 1.42767E-03-6.99602E-04
 -1       532 2.06961E-02 1.42800E-03-6.99850E-04
 -1       533 7.95199E-02 1.42391E-03 7.04711E-04
 -1       534 1.78949E-02 1.42783E-03 7.04117E-04
 -1       535 7.95196E-02 1.42426E-03-6.96927E-04
 -1       536 5.15087E-02 1.42570E-03 7.03302E-04
 -1       537 2.90997E-02 1.42714E-03 7.02174E-04
 -1       538 5.15084E-02 1.42606E-03-6.98336E-04
 -1       539 6.27132E-02 1.42499E-03 7.03865E-04
 -1       540 6.27129E-02 1.42534E-03-6.97773E-04
 -1       541 5.45587E-03 1.45759E-03 5.77987E-06
 -1       542 8.08423E-03 1.44703E-03 1.83917E-07
 -1       543 1.51458E-02 1.42871E-03-7.13283E-04
 -1       544 2.01460E-03 1.16504E-03-2.22277E-04
 -1       545 3.74982E-02 1.42696E-03-7.13808E-04
 -1       546 4.16939E-02 1.42651E-03-4.13319E-06
 -1       547 8.91752E-02 1.42347E-03-3.68195E-06
 -1       548 1.22357E-02 1.43109E-03-7.15863E-04
 -1       549 8.65161E-02 1.42364E-03 3.58974E-06
 -1       550 1.64944E-02 1.42812E-03 7.34185E-07
 -1       551 7.53181E-02 1.42436E-03 3.68072E-06
 -1       552 7.25170E-02 1.42454E-03 3.53978E-06
 -1       553 6.13125E-02 1.42525E-03 2.97601E-06
 -1       554 7.81192E-02 1.42418E-03 3.82166E-06
 -1       555 5.29091E-02 1.42579E-03 2.55318E-06
 -1       556 6.41136E-02 1.42507E-03 3.11695E-06
 -1       557 5.85114E-02 1.42543E-03 2.83506E-06
 -1       558 5.57102E-02 1.42561E-03 2.69412E-06
 -1       559 8.37214E-02 1.42382E-03 4.10355E-06
 -1       560 8.09203E-02 1.42400E-03 3.96261E-06
 -1       561 6.97158E-02 1.42472E-03 3.39883E-06
 -1       562 5.01080E-02 1.42597E-03 2.41223E-06
 -1       563 4.44998E-02 1.42633E-03-5.12350E-07
 -1       564 1.92957E-02 1.42789E-03 8.62817E-07
 -1       565 2.20968E-02 1.42774E-03 1.00024E-06
 -1       566 2.76990E-02 1.42741E-03 1.28432E-06
 -1       567 3.05001E-02 1.42723E-03 1.42551E-06
 -1       568 2.48979E-02 1.42758E-03 1.14311E-06
 -1       569 3.33013E-02 1.42705E-03 1.56734E-06
 -1       570 6.69147E-02 1.42489E-03 3.25789E-06
 -1       571 4.73069E-02 1.42615E-03 2.27129E-06
 -1       572 3.61024E-02 1.42687E-03 1.71225E-06
 -1       573 4.02952E-02 1.42678E-03-7.14536E-04
 -1       574 1.08687E-02 1.43335E-03 9.88231E-07
 -1       575 9.28640E-02 1.42314E-03 3.61706E-04
 -1       576 3.88686E-03 1.38713E-03 6.58289E-04
 -1       577 9.08416E-02 1.42354E-03-6.88280E-04
 -1       578 3.36556E-03 1.38092E-03-1.34335E-06
 -1       579 1.80754E-03 1.06105E-03-5.79500E-04
 -1       580 1.79348E-03 1.05894E-03 5.73859E-04
 -1       581 9.31393E-02 1.42298E-03 9.28797E-04
 -1       582 9.31532E-02 1.42345E-03-9.15609E-04
 -1       583 9.13369E-02 1.42333E-03 6.90682E-06
 -1       584 9.07575E-04 7.21333E-04-2.67609E-04
 -1       585 9.57040E-04 6.91837E-04-4.24004E-04
 -1       586 2.38754E-03 1.14572E-03-9.19755E-04
 -1       587 9.49299E-04 6.88633E-04 4.19298E-04
 -1       588 9.01195E-04 7.18831E-04 2.63002E-04
 -1       589 2.38020E-03 1.14492E-03 9.17047E-04
 -1       590 9.40394E-02 1.42345E-03-1.16976E-03
 -1       591 9.40395E-02 1.42336E-03-8.12614E-04
 -1       592 9.26389E-02 1.42354E-03-1.16983E-03
 -1       593 9.40327E-02 1.42295E-03 8.23875E-04
 -1       594 9.40327E-02 1.42286E-03 1.18102E-03
 -1       595 9.26322E-02 1.42295E-03 1.18095E-03
 -1       596 9.50727E-04 7.44879E-04 1.76292E-04
 -1       597 9.40392E-04 7.35145E-04 5.71205E-05
 -1       598 1.84720E-03 1.11470E-03 3.85629E-04
 -1       599 1.01856E-03 7.88580E-04-5.98823E-05
 -1       600 9.90154E-04 7.65943E-04-1.93448E-04
 -1       601 1.95732E-03 1.16882E-03-6.12764E-06
 -1       602 1.89894E-03 1.12138E-03-4.01262E-04
 -1       603 9.38950E-02 1.42312E-03 1.83187E-04
 -1       604 9.38950E-02 1.42303E-03 5.40330E-04
 -1       605 9.30017E-02 1.42306E-03 6.45252E-04
 -1       606 9.39371E-02 1.42330E-03-5.20909E-04
 -1       607 9.39372E-02 1.42321E-03-1.63766E-04
 -1       608 9.29062E-02 1.42323E-03 1.47533E-05
 -1       609 9.30508E-02 1.42338E-03-6.23905E-04
 -1       610 4.67730E-03 1.39886E-03 1.04505E-03
 -1       611 3.38157E-03 1.31426E-03 9.62501E-04
 -1       612 2.83423E-03 1.27931E-03 6.69117E-04
 -1       613 7.42642E-03 1.43917E-03 1.08106E-03
 -1       614 6.06415E-03 1.42994E-03 1.07751E-03
 -1       615 5.29352E-03 1.43513E-03 7.06017E-04
 -1       616 1.01901E-02 1.43384E-03 1.07336E-03
 -1       617 8.79906E-03 1.43672E-03 1.07772E-03
 -1       618 8.09545E-03 1.44186E-03 7.17661E-04
 -1       619 1.29888E-02 1.42995E-03 1.07017E-03
 -1       620 1.15894E-02 1.43154E-03 1.07209E-03
 -1       621 1.08819E-02 1.43298E-03 7.10591E-04
 -1       622 1.57922E-02 1.42817E-03 1.06774E-03
 -1       623 1.43914E-02 1.42876E-03 1.06816E-03
 -1       624 1.36872E-02 1.42923E-03 7.07553E-04
 -1       625 1.85953E-02 1.42772E-03 1.06675E-03
 -1       626 1.71946E-02 1.42788E-03 1.06676E-03
 -1       627 1.64926E-02 1.42803E-03 7.04953E-04
 -1       628 2.13966E-02 1.42752E-03 1.06563E-03
 -1       629 1.99960E-02 1.42761E-03 1.06555E-03
 -1       630 1.92956E-02 1.42773E-03 7.02896E-04
 -1       631 2.41978E-02 1.42735E-03 1.06579E-03
 -1       632 2.27972E-02 1.42744E-03 1.06571E-03
 -1       633 2.20969E-02 1.42756E-03 7.01795E-04
 -1       634 2.69989E-02 1.42718E-03 1.06594E-03
 -1       635 2.55984E-02 1.42727E-03 1.06587E-03
 -1       636 2.48980E-02 1.42740E-03 7.01955E-04
 -1       637 2.98000E-02 1.42700E-03 1.06609E-03
 -1       638 2.83995E-02 1.42709E-03 1.06601E-03
 -1       639 2.76991E-02 1.42723E-03 7.02102E-04
 -1       640 3.26012E-02 1.42682E-03 1.06623E-03
 -1       641 3.12006E-02 1.42691E-03 1.06616E-03
 -1       642 3.05003E-02 1.42705E-03 7.02245E-04
 -1       643 3.54023E-02 1.42664E-03 1.06637E-03
 -1       644 3.40017E-02 1.42673E-03 1.06630E-03
 -1       645 3.33014E-02 1.42687E-03 7.02386E-04
 -1       646 3.82023E-02 1.42646E-03 1.06894E-03
 -1       647 3.68018E-02 1.42655E-03 1.06887E-03
 -1       648 3.61014E-02 1.42669E-03 7.04955E-04
 -1       649 4.09982E-02 1.42628E-03 1.06775E-03
 -1       650 3.95976E-02 1.42637E-03 1.06768E-03
 -1       651 3.88962E-02 1.42651E-03 7.06197E-04
 -1       652 4.37982E-02 1.42610E-03 1.07032E-03
 -1       653 4.23977E-02 1.42619E-03 1.07025E-03
 -1       654 4.16910E-02 1.42633E-03 7.07438E-04
 -1       655 4.66068E-02 1.42593E-03 1.06693E-03
 -1       656 4.52062E-02 1.42602E-03 1.06686E-03
 -1       657 4.44985E-02 1.42615E-03 7.06478E-04
 -1       658 4.94079E-02 1.42575E-03 1.06707E-03
 -1       659 4.80073E-02 1.42584E-03 1.06700E-03
 -1       660 4.73070E-02 1.42597E-03 7.03090E-04
 -1       661 5.22090E-02 1.42557E-03 1.06721E-03
 -1       662 5.08085E-02 1.42566E-03 1.06714E-03
 -1       663 5.01081E-02 1.42579E-03 7.03231E-04
 -1       664 5.50101E-02 1.42539E-03 1.06735E-03
 -1       665 5.36096E-02 1.42548E-03 1.06728E-03
 -1       666 5.29092E-02 1.42561E-03 7.03372E-04
 -1       667 5.78113E-02 1.42521E-03 1.06749E-03
 -1       668 5.64107E-02 1.42530E-03 1.06742E-03
 -1       669 5.57103E-02 1.42543E-03 7.03513E-04
 -1       670 6.06124E-02 1.42503E-03 1.06764E-03
 -1       671 5.92118E-02 1.42512E-03 1.06757E-03
 -1       672 5.85115E-02 1.42526E-03 7.03654E-04
 -1       673 6.34135E-02 1.42485E-03 1.06778E-03
 -1       674 6.20129E-02 1.42494E-03 1.06771E-03
 -1       675 6.13126E-02 1.42508E-03 7.03795E-04
 -1       676 6.62146E-02 1.42467E-03 1.06792E-03
 -1       677 6.48141E-02 1.42476E-03 1.06785E-03
 -1       678 6.41137E-02 1.42490E-03 7.03936E-04
 -1       679 6.90157E-02 1.42449E-03 1.06806E-03
 -1       680 6.76152E-02 1.42458E-03 1.06799E-03
 -1       681 6.69148E-02 1.42472E-03 7.04077E-04
 -1       682 7.18169E-02 1.42431E-03 1.06820E-03
 -1       683 7.04163E-02 1.42440E-03 1.06813E-03
 -1       684 6.97160E-02 1.42454E-03 7.04218E-04
 -1       685 7.46180E-02 1.42413E-03 1.06834E-03
 -1       686 7.32174E-02 1.42422E-03 1.06827E-03
 -1       687 7.25171E-02 1.42436E-03 7.04359E-04
 -1       688 7.74191E-02 1.42395E-03 1.06848E-03
 -1       689 7.60185E-02 1.42404E-03 1.06841E-03
 -1       690 7.53182E-02 1.42418E-03 7.04500E-04
 -1       691 8.02202E-02 1.42377E-03 1.06862E-03
 -1       692 7.88197E-02 1.42386E-03 1.06855E-03
 -1       693 7.81193E-02 1.42400E-03 7.04641E-04
 -1       694 8.30213E-02 1.42359E-03 1.06876E-03
 -1       695 8.16208E-02 1.42368E-03 1.06869E-03
 -1       696 8.09204E-02 1.42382E-03 7.04782E-04
 -1       697 8.58225E-02 1.42341E-03 1.06890E-03
 -1       698 8.44219E-02 1.42350E-03 1.06883E-03
 -1       699 8.37216E-02 1.42364E-03 7.04923E-04
 -1       700 8.86294E-02 1.42323E-03 1.07103E-03
 -1       701 8.72289E-02 1.42332E-03 1.07096E-03
 -1       702 8.65285E-02 1.42346E-03 7.07051E-04
 -1       703 9.14901E-02 1.42305E-03 1.06504E-03
 -1       704 9.00896E-02 1.42314E-03 1.06497E-03
 -1       705 8.93951E-02 1.42328E-03 7.03049E-04
 -1       706 9.19973E-02 1.42308E-03 8.12893E-04
 -1       707 3.37778E-03 1.31337E-03-9.63084E-04
 -1       708 4.67351E-03 1.39855E-03-1.04600E-03
 -1       709 2.83699E-03 1.27875E-03-6.71694E-04
 -1       710 6.05911E-03 1.43045E-03-1.07941E-03
 -1       711 7.42074E-03 1.43898E-03-1.08402E-03
 -1       712 5.28445E-03 1.43455E-03-7.08917E-04
 -1       713 8.80447E-03 1.43760E-03-1.07653E-03
 -1       714 1.01957E-02 1.43428E-03-1.07171E-03
 -1       715 8.09504E-03 1.44268E-03-7.18010E-04
 -1       716 1.15647E-02 1.43198E-03-1.07460E-03
 -1       717 1.29640E-02 1.43037E-03-1.07240E-03
 -1       718 1.08637E-02 1.43339E-03-7.12043E-04
 -1       719 1.44190E-02 1.42919E-03-1.07115E-03
 -1       720 1.58198E-02 1.42868E-03-1.07062E-03
 -1       721 1.36906E-02 1.42947E-03-7.14159E-04
 -1       722 1.71943E-02 1.42842E-03-1.06399E-03
 -1       723 1.85950E-02 1.42826E-03-1.06384E-03
 -1       724 1.65204E-02 1.42839E-03-7.06544E-04
 -1       725 1.99957E-02 1.42815E-03-1.06376E-03
 -1       726 2.13963E-02 1.42806E-03-1.06370E-03
 -1       727 1.92955E-02 1.42809E-03-6.99919E-04
 -1       728 2.27969E-02 1.42798E-03-1.06364E-03
 -1       729 2.41974E-02 1.42789E-03-1.06358E-03
 -1       730 2.20967E-02 1.42792E-03-6.99795E-04
 -1       731 2.55980E-02 1.42781E-03-1.06351E-03
 -1       732 2.69986E-02 1.42772E-03-1.06344E-03
 -1       733 2.48978E-02 1.42776E-03-6.99670E-04
 -1       734 2.83991E-02 1.42763E-03-1.06337E-03
 -1       735 2.97997E-02 1.42754E-03-1.06330E-03
 -1       736 2.76989E-02 1.42758E-03-6.99533E-04
 -1       737 3.12003E-02 1.42745E-03-1.06323E-03
 -1       738 3.26008E-02 1.42736E-03-1.06316E-03
 -1       739 3.05000E-02 1.42740E-03-6.99394E-04
 -1       740 3.40014E-02 1.42727E-03-1.06309E-03
 -1       741 3.54019E-02 1.42718E-03-1.06302E-03
 -1       742 3.33012E-02 1.42723E-03-6.99253E-04
 -1       743 3.68002E-02 1.42710E-03-1.07034E-03
 -1       744 3.82007E-02 1.42701E-03-1.07027E-03
 -1       745 3.60999E-02 1.42705E-03-7.06495E-04
 -1       746 3.95992E-02 1.42692E-03-1.07063E-03
 -1       747 4.09998E-02 1.42683E-03-1.07056E-03
 -1       748 3.88967E-02 1.42687E-03-7.14172E-04
 -1       749 4.24002E-02 1.42674E-03-1.06830E-03
 -1       750 4.38008E-02 1.42665E-03-1.06823E-03
 -1       751 4.16956E-02 1.42669E-03-7.12274E-04
 -1       752 4.52055E-02 1.42656E-03-1.06530E-03
 -1       753 4.66060E-02 1.42647E-03-1.06523E-03
 -1       754 4.45007E-02 1.42651E-03-7.07084E-04
 -1       755 4.80070E-02 1.42638E-03-1.06239E-03
 -1       756 4.94075E-02 1.42629E-03-1.06232E-03
 -1       757 4.73064E-02 1.42633E-03-7.01316E-04
 -1       758 5.08081E-02 1.42620E-03-1.06225E-03
 -1       759 5.22087E-02 1.42611E-03-1.06218E-03
 -1       760 5.01079E-02 1.42615E-03-6.98407E-04
 -1       761 5.36092E-02 1.42602E-03-1.06211E-03
 -1       762 5.50098E-02 1.42593E-03-1.06204E-03
 -1       763 5.29090E-02 1.42597E-03-6.98266E-04
 -1       764 5.64103E-02 1.42584E-03-1.06197E-03
 -1       765 5.78109E-02 1.42575E-03-1.06190E-03
 -1       766 5.57101E-02 1.42579E-03-6.98125E-04
 -1       767 5.92115E-02 1.42566E-03-1.06182E-03
 -1       768 6.06120E-02 1.42557E-03-1.06175E-03
 -1       769 5.85112E-02 1.42561E-03-6.97984E-04
 -1       770 6.20126E-02 1.42548E-03-1.06168E-03
 -1       771 6.34131E-02 1.42539E-03-1.06161E-03
 -1       772 6.13124E-02 1.42543E-03-6.97843E-04
 -1       773 6.48137E-02 1.42530E-03-1.06154E-03
 -1       774 6.62143E-02 1.42521E-03-1.06147E-03
 -1       775 6.41135E-02 1.42525E-03-6.97702E-04
 -1       776 6.76148E-02 1.42512E-03-1.06140E-03
 -1       777 6.90154E-02 1.42503E-03-1.06133E-03
 -1       778 6.69146E-02 1.42507E-03-6.97561E-04
 -1       779 7.04159E-02 1.42494E-03-1.06126E-03
 -1       780 7.18165E-02 1.42485E-03-1.06119E-03
 -1       781 6.97157E-02 1.42489E-03-6.97420E-04
 -1       782 7.32171E-02 1.42476E-03-1.06112E-03
 -1       783 7.46176E-02 1.42467E-03-1.06105E-03
 -1       784 7.25168E-02 1.42471E-03-6.97279E-04
 -1       785 7.60182E-02 1.42458E-03-1.06098E-03
 -1       786 7.74187E-02 1.42449E-03-1.06091E-03
 -1       787 7.53180E-02 1.42453E-03-6.97138E-04
 -1       788 7.88193E-02 1.42440E-03-1.06084E-03
 -1       789 8.02199E-02 1.42431E-03-1.06077E-03
 -1       790 7.81191E-02 1.42435E-03-6.96997E-04
 -1       791 8.16204E-02 1.42422E-03-1.06070E-03
 -1       792 8.30210E-02 1.42413E-03-1.06063E-03
 -1       793 8.09202E-02 1.42417E-03-6.96856E-04
 -1       794 8.44215E-02 1.42404E-03-1.06056E-03
 -1       795 8.58221E-02 1.42395E-03-1.06049E-03
 -1       796 8.37213E-02 1.42400E-03-6.96715E-04
 -1       797 8.72082E-02 1.42387E-03-1.06741E-03
 -1       798 8.86088E-02 1.42378E-03-1.06734E-03
 -1       799 8.65080E-02 1.42382E-03-7.03569E-04
 -1       800 9.00825E-02 1.42368E-03-1.05623E-03
 -1       801 9.14831E-02 1.42359E-03-1.05616E-03
 -1       802 8.93678E-02 1.42363E-03-6.99386E-04
 -1       803 9.19974E-02 1.42349E-03-8.01945E-04
 -1       804 6.76151E-02 1.42476E-03 3.53703E-04
 -1       805 6.62145E-02 1.42485E-03 3.53632E-04
 -1       806 6.48139E-02 1.42494E-03 3.53562E-04
 -1       807 6.34134E-02 1.42503E-03 3.53491E-04
 -1       808 6.55142E-02 1.42498E-03 3.18742E-06
 -1       809 7.60184E-02 1.42422E-03 3.54125E-04
 -1       810 7.46179E-02 1.42431E-03 3.54055E-04
 -1       811 7.88195E-02 1.42404E-03 3.54266E-04
 -1       812 7.74190E-02 1.42413E-03 3.54196E-04
 -1       813 7.67186E-02 1.42427E-03 3.75119E-06
 -1       814 8.58190E-02 1.42377E-03-3.46528E-04
 -1       815 8.72051E-02 1.42369E-03-3.53452E-04
 -1       816 8.85346E-02 1.42360E-03-3.57087E-04
 -1       817 8.78457E-02 1.42355E-03-4.61046E-08
 -1       818 9.00084E-02 1.42350E-03-3.45981E-04
 -1       819 5.64106E-02 1.42548E-03 3.53139E-04
 -1       820 5.50100E-02 1.42557E-03 3.53068E-04
 -1       821 5.36095E-02 1.42566E-03 3.52998E-04
 -1       822 5.22089E-02 1.42575E-03 3.52927E-04
 -1       823 5.43097E-02 1.42570E-03 2.62365E-06
 -1       824 5.78110E-02 1.42557E-03-3.47610E-04
 -1       825 5.92116E-02 1.42548E-03-3.47539E-04
 -1       826 6.06121E-02 1.42539E-03-3.47469E-04
 -1       827 6.20127E-02 1.42530E-03-3.47398E-04
 -1       828 5.99119E-02 1.42534E-03 2.90553E-06
 -1       829 6.90155E-02 1.42485E-03-3.47046E-04
 -1       830 7.04161E-02 1.42476E-03-3.46975E-04
 -1       831 7.18166E-02 1.42467E-03-3.46905E-04
 -1       832 7.32172E-02 1.42458E-03-3.46834E-04
 -1       833 7.11164E-02 1.42463E-03 3.46931E-06
 -1       834 8.30211E-02 1.42395E-03-3.46341E-04
 -1       835 8.44217E-02 1.42386E-03-3.46271E-04
 -1       836 8.02200E-02 1.42413E-03-3.46482E-04
 -1       837 8.16205E-02 1.42404E-03-3.46412E-04
 -1       838 8.23209E-02 1.42391E-03 4.03308E-06
 -1       839 4.66061E-02 1.42628E-03-3.50942E-04
 -1       840 4.80071E-02 1.42619E-03-3.48103E-04
 -1       841 4.94077E-02 1.42610E-03-3.48032E-04
 -1       842 5.08082E-02 1.42602E-03-3.47962E-04
 -1       843 4.87074E-02 1.42606E-03 2.34176E-06
 -1       844 1.43881E-02 1.42864E-03 3.52315E-04
 -1       845 1.29846E-02 1.43004E-03 3.53808E-04
 -1       846 1.57923E-02 1.42822E-03 3.53312E-04
 -1       847 1.50902E-02 1.42850E-03-5.58086E-07
 -1       848 1.71947E-02 1.42796E-03 3.52436E-04
 -1       849 2.27971E-02 1.42761E-03 3.51435E-04
 -1       850 2.13966E-02 1.42769E-03 3.51356E-04
 -1       851 1.99960E-02 1.42776E-03 3.51276E-04
 -1       852 1.85953E-02 1.42784E-03 3.52469E-04
 -1       853 2.06962E-02 1.42781E-03 9.30942E-07
 -1       854 7.38445E-03 1.44901E-03-3.62424E-04
 -1       855 8.78741E-03 1.44149E-03-3.57609E-04
 -1       856 9.47723E-03 1.43918E-03 6.73255E-07
 -1       857 1.01786E-02 1.43544E-03-3.54096E-04
 -1       858 1.15522E-02 1.43230E-03-3.58455E-04
 -1       859 3.40016E-02 1.42691E-03 3.52012E-04
 -1       860 3.26010E-02 1.42700E-03 3.51941E-04
 -1       861 3.12005E-02 1.42709E-03 3.51870E-04
 -1       862 2.97999E-02 1.42718E-03 3.51800E-04
 -1       863 3.19007E-02 1.42714E-03 1.49644E-06
 -1       864 3.95835E-02 1.42656E-03 3.49493E-04
 -1       865 3.81883E-02 1.42665E-03 3.50750E-04
 -1       866 4.09927E-02 1.42647E-03 3.50403E-04
 -1       867 4.02847E-02 1.42660E-03-5.04375E-06
 -1       868 4.23922E-02 1.42638E-03 3.52901E-04
 -1       869 2.55983E-02 1.42745E-03 3.51585E-04
 -1       870 2.41977E-02 1.42753E-03 3.51511E-04
 -1       871 2.83994E-02 1.42727E-03 3.51729E-04
 -1       872 2.69988E-02 1.42736E-03 3.51657E-04
 -1       873 2.62985E-02 1.42749E-03 1.21372E-06
 -1       874 4.64301E-03 1.43565E-03-3.42528E-04
 -1       875 6.06979E-03 1.45026E-03-3.62063E-04
 -1       876 3.60431E-03 1.38250E-03-3.19011E-04
 -1       877 4.40017E-03 1.43881E-03 1.50274E-06
 -1       878 2.92179E-03 1.31165E-03-4.36857E-04
 -1       879 2.67644E-03 1.29308E-03-1.42315E-04
 -1       880 8.78171E-03 1.44138E-03 3.59013E-04
 -1       881 7.39056E-03 1.44885E-03 3.60462E-04
 -1       882 6.07582E-03 1.44968E-03 3.65031E-04
 -1       883 6.76611E-03 1.45408E-03 2.87240E-06
 -1       884 4.64695E-03 1.43501E-03 3.48431E-04
 -1       885 9.00152E-02 1.42333E-03 3.46654E-04
 -1       886 8.85551E-02 1.42342E-03 3.52713E-04
 -1       887 9.10961E-02 1.42326E-03 3.51948E-04
 -1       888 9.02561E-02 1.42340E-03 1.61244E-06
 -1       889 9.18596E-02 1.42316E-03 5.29348E-04
 -1       890 9.21005E-02 1.42324E-03 1.84307E-04
 -1       891 4.80072E-02 1.42602E-03 3.52716E-04
 -1       892 4.66067E-02 1.42611E-03 3.52646E-04
 -1       893 4.52031E-02 1.42620E-03 3.51254E-04
 -1       894 4.37952E-02 1.42629E-03 3.54712E-04
 -1       895 4.59034E-02 1.42624E-03 8.79470E-07
 -1       896 8.72255E-02 1.42350E-03 3.56349E-04
 -1       897 8.58191E-02 1.42359E-03 3.54291E-04
 -1       898 8.44218E-02 1.42368E-03 3.54548E-04
 -1       899 8.30212E-02 1.42377E-03 3.54478E-04
 -1       900 8.51188E-02 1.42373E-03 3.84666E-06
 -1       901 1.85953E-02 1.42802E-03-3.49561E-04
 -1       902 1.99959E-02 1.42795E-03-3.49487E-04
 -1       903 1.58201E-02 1.42839E-03-3.56212E-04
 -1       904 1.71947E-02 1.42815E-03-3.49663E-04
 -1       905 1.78951E-02 1.42797E-03 7.87529E-07
 -1       906 3.26009E-02 1.42718E-03-3.48878E-04
 -1       907 3.40015E-02 1.42709E-03-3.48807E-04
 -1       908 3.54021E-02 1.42700E-03-3.48735E-04
 -1       909 3.68003E-02 1.42691E-03-3.56048E-04
 -1       910 3.47018E-02 1.42696E-03 1.63981E-06
 -1       911 4.37979E-02 1.42647E-03-3.55262E-04
 -1       912 4.52026E-02 1.42638E-03-3.52334E-04
 -1       913 4.23949E-02 1.42656E-03-3.57073E-04
 -1       914 4.30969E-02 1.42642E-03-2.32277E-06
 -1       915 4.09945E-02 1.42665E-03-3.59334E-04
 -1       916 2.41976E-02 1.42771E-03-3.49296E-04
 -1       917 2.55981E-02 1.42763E-03-3.49228E-04
 -1       918 2.13965E-02 1.42787E-03-3.49426E-04
 -1       919 2.27970E-02 1.42779E-03-3.49362E-04
 -1       920 2.34974E-02 1.42766E-03 1.07133E-06
 -1       921 2.97998E-02 1.42736E-03-3.49019E-04
 -1       922 3.12004E-02 1.42727E-03-3.48949E-04
 -1       923 2.69987E-02 1.42754E-03-3.49159E-04
 -1       924 2.83993E-02 1.42745E-03-3.49090E-04
 -1       925 2.90996E-02 1.42732E-03 1.35495E-06
 -1       926 2.63181E-03 1.30035E-03 1.25335E-04
 -1       927 2.87830E-03 1.30836E-03 4.25374E-04
 -1       928 3.60859E-03 1.38317E-03 3.15394E-04
 -1       929 9.21427E-02 1.42332E-03-1.62647E-04
 -1       930 9.18950E-02 1.42342E-03-5.10240E-04
 -1       931 9.10892E-02 1.42343E-03-3.40686E-04
 -1       932 6.62144E-02 1.42503E-03-3.47187E-04
 -1       933 6.76149E-02 1.42494E-03-3.47116E-04
 -1       934 6.34133E-02 1.42521E-03-3.47328E-04
 -1       935 6.48138E-02 1.42512E-03-3.47257E-04
 -1       936 7.46177E-02 1.42449E-03-3.46764E-04
 -1       937 7.60183E-02 1.42440E-03-3.46694E-04
 -1       938 7.74189E-02 1.42431E-03-3.46623E-04
 -1       939 7.88194E-02 1.42422E-03-3.46553E-04
 -1       940 5.50099E-02 1.42575E-03-3.47751E-04
 -1       941 5.64105E-02 1.42566E-03-3.47680E-04
 -1       942 5.22088E-02 1.42593E-03-3.47892E-04
 -1       943 5.36093E-02 1.42584E-03-3.47821E-04
 -1       944 5.92117E-02 1.42530E-03 3.53280E-04
 -1       945 5.78111E-02 1.42539E-03 3.53209E-04
 -1       946 6.20128E-02 1.42512E-03 3.53421E-04
 -1       947 6.06123E-02 1.42521E-03 3.53350E-04
 -1       948 7.04162E-02 1.42458E-03 3.53844E-04
 -1       949 6.90156E-02 1.42467E-03 3.53773E-04
 -1       950 7.32173E-02 1.42440E-03 3.53985E-04
 -1       951 7.18167E-02 1.42449E-03 3.53914E-04
 -1       952 1.15765E-02 1.43206E-03 3.56521E-04
 -1       953 1.01723E-02 1.43525E-03 3.56833E-04
 -1       954 1.22775E-02 1.43077E-03-4.10492E-07
 -1       955 1.44159E-02 1.42889E-03-3.57779E-04
 -1       956 1.29604E-02 1.42998E-03-3.58691E-04
 -1       957 6.83153E-02 1.42480E-03 3.32836E-06
 -1       958 5.08083E-02 1.42584E-03 3.52857E-04
 -1       959 4.94078E-02 1.42593E-03 3.52786E-04
 -1       960 5.71108E-02 1.42552E-03 2.76459E-06
 -1       961 3.68017E-02 1.42673E-03 3.54583E-04
 -1       962 3.54022E-02 1.42682E-03 3.52084E-04
 -1       963 3.74890E-02 1.42678E-03-2.12100E-06
 -1       964 3.81869E-02 1.42683E-03-3.59881E-04
 -1       965 3.95854E-02 1.42674E-03-3.60245E-04
 -1       966 7.39175E-02 1.42445E-03 3.61025E-06
 -1       967 8.16207E-02 1.42386E-03 3.54407E-04
 -1       968 8.02201E-02 1.42395E-03 3.54337E-04
 -1       969 7.95198E-02 1.42409E-03 3.89214E-06
 -1       970 5.15086E-02 1.42588E-03 2.48270E-06
 -1       971 6.27130E-02 1.42516E-03 3.04648E-06
 -1       972 6.55149E-02-1.43234E-03 7.03283E-04
 -1       973 7.67194E-02-1.43305E-03 7.03847E-04
 -1       974 8.78947E-02-1.43341E-03-7.11217E-04
 -1       975 5.43104E-02-1.43162E-03 7.02719E-04
 -1       976 5.99126E-02-1.43198E-03 7.03001E-04
 -1       977 7.11171E-02-1.43269E-03 7.03565E-04
 -1       978 8.23214E-02-1.43306E-03-6.97510E-04
 -1       979 4.87079E-02-1.43090E-03-6.99201E-04
 -1       980 1.50908E-02-1.42945E-03 7.05404E-04
 -1       981 2.06969E-02-1.42944E-03 7.00997E-04
 -1       982 9.49341E-03-1.43666E-03-7.10941E-04
 -1       983 3.19014E-02-1.43018E-03 7.01592E-04
 -1       984 4.02921E-02-1.43072E-03 7.04216E-04
 -1       985 2.62992E-02-1.42982E-03 7.01307E-04
 -1       986 3.87792E-03-1.38751E-03-6.61865E-04
 -1       987 6.71540E-03-1.44563E-03 7.20547E-04
 -1       988 9.08558E-02-1.43396E-03 6.96266E-04
 -1       989 6.83158E-02-1.43216E-03-6.98214E-04
 -1       990 4.59070E-02-1.43108E-03 7.02296E-04
 -1       991 8.51227E-02-1.43359E-03 7.04269E-04
 -1       992 5.71113E-02-1.43144E-03-6.98778E-04
 -1       993 7.39180E-02-1.43252E-03-6.97932E-04
 -1       994 6.27135E-02-1.43180E-03-6.98496E-04
 -1       995 1.78954E-02-1.42891E-03-7.00747E-04
 -1       996 3.47023E-02-1.43001E-03-6.99906E-04
 -1       997 4.30966E-02-1.43054E-03-7.10736E-04
 -1       998 2.34978E-02-1.42928E-03-7.00455E-04
 -1       999 2.91001E-02-1.42965E-03-7.00187E-04
 -1      1000 1.90603E-03-1.14494E-03 2.00789E-04
 -1      1001 9.29490E-02-1.43383E-03-3.32924E-04
 -1      1002 6.70490E-03-1.44467E-03-7.25359E-04
 -1      1003 9.48155E-03-1.43713E-03 7.12247E-04
 -1      1004 1.22849E-02-1.43126E-03 7.09324E-04
 -1      1005 1.36864E-02-1.42977E-03-2.53840E-06
 -1      1006 8.79355E-02-1.43377E-03 7.08385E-04
 -1      1007 6.83160E-02-1.43252E-03 7.03424E-04
 -1      1008 7.67191E-02-1.43270E-03-6.97792E-04
 -1      1009 5.43102E-02-1.43126E-03-6.98919E-04
 -1      1010 4.59060E-02-1.43072E-03-7.04879E-04
 -1      1011 4.87082E-02-1.43126E-03 7.02437E-04
 -1      1012 5.71115E-02-1.43180E-03 7.02860E-04
 -1      1013 5.15090E-02-1.43108E-03-6.99060E-04
 -1      1014 2.34981E-02-1.42963E-03 7.01158E-04
 -1      1015 3.47026E-02-1.43036E-03 7.01732E-04
 -1      1016 3.75016E-02-1.43054E-03 7.06730E-04
 -1      1017 3.88762E-02-1.43045E-03-6.67797E-06
 -1      1018 3.19012E-02-1.42983E-03-7.00047E-04
 -1      1019 5.99124E-02-1.43162E-03-6.98637E-04
 -1      1020 7.39182E-02-1.43287E-03 7.03706E-04
 -1      1021 4.30911E-02-1.43090E-03 7.09213E-04
 -1      1022 8.51225E-02-1.43324E-03-6.97369E-04
 -1      1023 8.23216E-02-1.43341E-03 7.04128E-04
 -1      1024 2.62990E-02-1.42947E-03-7.00325E-04
 -1      1025 2.06967E-02-1.42908E-03-7.00570E-04
 -1      1026 7.95205E-02-1.43323E-03 7.03987E-04
 -1      1027 6.55146E-02-1.43198E-03-6.98355E-04
 -1      1028 1.78955E-02-1.42925E-03 7.03408E-04
 -1      1029 5.15093E-02-1.43144E-03 7.02578E-04
 -1      1030 2.91003E-02-1.43000E-03 7.01450E-04
 -1      1031 7.95202E-02-1.43288E-03-6.97651E-04
 -1      1032 6.27138E-02-1.43216E-03 7.03142E-04
 -1      1033 7.11169E-02-1.43234E-03-6.98073E-04
 -1      1034 5.45524E-03-1.45578E-03 5.20884E-06
 -1      1035 8.08591E-03-1.44714E-03-4.43940E-07
 -1      1036 1.51463E-02-1.42908E-03-7.14070E-04
 -1      1037 2.01473E-03-1.16475E-03-2.20386E-04
 -1      1038 3.74988E-02-1.43018E-03-7.14532E-04
 -1      1039 4.16945E-02-1.43063E-03-4.85688E-06
 -1      1040 8.91758E-02-1.43367E-03-4.40563E-06
 -1      1041 1.22361E-02-1.43113E-03-7.16644E-04
 -1      1042 8.65167E-02-1.43350E-03 2.86605E-06
 -1      1043 1.64950E-02-1.42903E-03 7.94232E-09
 -1      1044 7.53187E-02-1.43279E-03 2.95703E-06
 -1      1045 7.81198E-02-1.43297E-03 3.09798E-06
 -1      1046 6.97164E-02-1.43243E-03 2.67515E-06
 -1      1047 8.37220E-02-1.43332E-03 3.37986E-06
 -1      1048 5.85120E-02-1.43171E-03 2.11138E-06
 -1      1049 5.01086E-02-1.43117E-03 1.68855E-06
 -1      1050 6.13131E-02-1.43189E-03 2.25232E-06
 -1      1051 6.41142E-02-1.43207E-03 2.39326E-06
 -1      1052 8.09209E-02-1.43315E-03 3.23892E-06
 -1      1053 7.25176E-02-1.43261E-03 2.81609E-06
 -1      1054 4.45005E-02-1.43081E-03-1.23604E-06
 -1      1055 1.92963E-02-1.42914E-03 1.43775E-07
 -1      1056 2.20974E-02-1.42935E-03 2.82065E-07
 -1      1057 5.29097E-02-1.43135E-03 1.82949E-06
 -1      1058 2.76996E-02-1.42974E-03 5.61419E-07
 -1      1059 3.05008E-02-1.42992E-03 7.02081E-07
 -1      1060 2.48985E-02-1.42955E-03 4.20253E-07
 -1      1061 5.57108E-02-1.43153E-03 1.97043E-06
 -1      1062 6.69153E-02-1.43225E-03 2.53420E-06
 -1      1063 3.33019E-02-1.43010E-03 8.43724E-07
 -1      1064 4.73075E-02-1.43099E-03 1.54760E-06
 -1      1065 3.61030E-02-1.43027E-03 9.88581E-07
 -1      1066 4.02958E-02-1.43036E-03-7.15259E-04
 -1      1067 1.08692E-02-1.43320E-03 1.56067E-07
 -1      1068 9.28646E-02-1.43400E-03 3.60983E-04
 -1      1069 3.88725E-03-1.38764E-03 6.58444E-04
 -1      1070 9.08422E-02-1.43361E-03-6.89004E-04
 -1      1071 3.36455E-03-1.38003E-03-2.18663E-06
 -1      1072 1.80450E-03-1.06294E-03-5.79090E-04
 -1      1073 1.79402E-03-1.07503E-03 5.69297E-04
 -1      1074 9.31399E-02-1.43416E-03 9.28073E-04
 -1      1075 9.31538E-02-1.43370E-03-9.16333E-04
 -1      1076 9.13375E-02-1.43381E-03 6.18313E-06
 -1      1077 9.55189E-04-6.92471E-04-4.22603E-04
 -1      1078 9.07695E-04-7.24162E-04-2.66317E-04
 -1      1079 2.38667E-03-1.14534E-03-9.22746E-04
 -1      1080 8.73676E-04-6.89227E-04 2.62421E-04
 -1      1081 9.51148E-04-6.87108E-04 4.15460E-04
 -1      1082 2.37912E-03-1.15050E-03 9.18116E-04
 -1      1083 9.40401E-02-1.43378E-03-8.13338E-04
 -1      1084 9.40401E-02-1.43369E-03-1.17048E-03
 -1      1085 9.26395E-02-1.43360E-03-1.17055E-03
 -1      1086 9.40333E-02-1.43428E-03 1.18029E-03
 -1      1087 9.40333E-02-1.43419E-03 8.23151E-04
 -1      1088 9.26328E-02-1.43419E-03 1.18022E-03
 -1      1089 9.33002E-04-7.35910E-04 5.69690E-05
 -1      1090 9.85356E-04-7.69526E-04 1.74983E-04
 -1      1091 1.85285E-03-1.12324E-03 3.78598E-04
 -1      1092 9.87376E-04-7.65293E-04-1.92808E-04
 -1      1093 1.01246E-03-7.87957E-04-5.88844E-05
 -1      1094 1.95436E-03-1.16367E-03-3.63213E-06
 -1      1095 1.89692E-03-1.12208E-03-4.00594E-04
 -1      1096 9.38956E-02-1.43411E-03 5.39606E-04
 -1      1097 9.38956E-02-1.43402E-03 1.82463E-04
 -1      1098 9.30023E-02-1.43408E-03 6.44528E-04
 -1      1099 9.39378E-02-1.43394E-03-1.64490E-04
 -1      1100 9.39377E-02-1.43385E-03-5.21633E-04
 -1      1101 9.29068E-02-1.43392E-03 1.40296E-05
 -1      1102 9.30514E-02-1.43376E-03-6.24628E-04
 -1      1103 3.38219E-03-1.31317E-03 9.62953E-04
 -1      1104 4.68000E-03-1.39988E-03 1.04746E-03
 -1      1105 2.83506E-03-1.28171E-03 6.67698E-04
 -1      1106 6.06841E-03-1.43167E-03 1.07839E-03
 -1      1107 7.42637E-03-1.43901E-03 1.08141E-03
 -1      1108 5.29269E-03-1.43199E-03 7.05156E-04
 -1      1109 8.79896E-03-1.43758E-03 1.07753E-03
 -1      1110 1.01905E-02-1.43496E-03 1.07275E-03
 -1      1111 8.09470E-03-1.44239E-03 7.16723E-04
 -1      1112 1.15902E-02-1.43218E-03 1.07115E-03
 -1      1113 1.29895E-02-1.43086E-03 1.06933E-03
 -1      1114 1.08824E-02-1.43327E-03 7.09975E-04
 -1      1115 1.43922E-02-1.42988E-03 1.06741E-03
 -1      1116 1.57929E-02-1.42954E-03 1.06700E-03
 -1      1117 1.36878E-02-1.42995E-03 7.06905E-04
 -1      1118 1.71952E-02-1.42941E-03 1.06603E-03
 -1      1119 1.85959E-02-1.42942E-03 1.06604E-03
 -1      1120 1.64932E-02-1.42926E-03 7.04264E-04
 -1      1121 1.99967E-02-1.42949E-03 1.06484E-03
 -1      1122 2.13973E-02-1.42958E-03 1.06491E-03
 -1      1123 1.92963E-02-1.42934E-03 7.02180E-04
 -1      1124 2.27978E-02-1.42968E-03 1.06499E-03
 -1      1125 2.41984E-02-1.42977E-03 1.06507E-03
 -1      1126 2.20975E-02-1.42954E-03 7.01079E-04
 -1      1127 2.55990E-02-1.42987E-03 1.06515E-03
 -1      1128 2.69995E-02-1.42996E-03 1.06522E-03
 -1      1129 2.48986E-02-1.42973E-03 7.01234E-04
 -1      1130 2.84001E-02-1.43005E-03 1.06529E-03
 -1      1131 2.98007E-02-1.43014E-03 1.06536E-03
 -1      1132 2.76998E-02-1.42991E-03 7.01379E-04
 -1      1133 3.12012E-02-1.43023E-03 1.06543E-03
 -1      1134 3.26018E-02-1.43032E-03 1.06550E-03
 -1      1135 3.05009E-02-1.43009E-03 7.01521E-04
 -1      1136 3.40023E-02-1.43041E-03 1.06557E-03
 -1      1137 3.54029E-02-1.43050E-03 1.06564E-03
 -1      1138 3.33020E-02-1.43027E-03 7.01662E-04
 -1      1139 3.68024E-02-1.43059E-03 1.06814E-03
 -1      1140 3.82030E-02-1.43068E-03 1.06821E-03
 -1      1141 3.61021E-02-1.43045E-03 7.04231E-04
 -1      1142 3.95982E-02-1.43077E-03 1.06696E-03
 -1      1143 4.09988E-02-1.43086E-03 1.06703E-03
 -1      1144 3.88968E-02-1.43063E-03 7.05473E-04
 -1      1145 4.23983E-02-1.43095E-03 1.06952E-03
 -1      1146 4.37988E-02-1.43104E-03 1.06960E-03
 -1      1147 4.16916E-02-1.43081E-03 7.06714E-04
 -1      1148 4.52068E-02-1.43113E-03 1.06614E-03
 -1      1149 4.66074E-02-1.43122E-03 1.06621E-03
 -1      1150 4.44991E-02-1.43099E-03 7.05754E-04
 -1      1151 4.80079E-02-1.43131E-03 1.06628E-03
 -1      1152 4.94085E-02-1.43140E-03 1.06635E-03
 -1      1153 4.73076E-02-1.43117E-03 7.02367E-04
 -1      1154 5.08091E-02-1.43149E-03 1.06642E-03
 -1      1155 5.22096E-02-1.43158E-03 1.06649E-03
 -1      1156 5.01087E-02-1.43135E-03 7.02508E-04
 -1      1157 5.36102E-02-1.43167E-03 1.06656E-03
 -1      1158 5.50107E-02-1.43176E-03 1.06663E-03
 -1      1159 5.29098E-02-1.43153E-03 7.02648E-04
 -1      1160 5.64113E-02-1.43185E-03 1.06670E-03
 -1      1161 5.78119E-02-1.43193E-03 1.06677E-03
 -1      1162 5.57110E-02-1.43171E-03 7.02789E-04
 -1      1163 5.92124E-02-1.43202E-03 1.06684E-03
 -1      1164 6.06130E-02-1.43211E-03 1.06691E-03
 -1      1165 5.85121E-02-1.43189E-03 7.02930E-04
 -1      1166 6.20135E-02-1.43220E-03 1.06698E-03
 -1      1167 6.34141E-02-1.43229E-03 1.06705E-03
 -1      1168 6.13132E-02-1.43207E-03 7.03071E-04
 -1      1169 6.48147E-02-1.43238E-03 1.06712E-03
 -1      1170 6.62152E-02-1.43247E-03 1.06719E-03
 -1      1171 6.41143E-02-1.43225E-03 7.03212E-04
 -1      1172 6.76158E-02-1.43256E-03 1.06726E-03
 -1      1173 6.90163E-02-1.43265E-03 1.06734E-03
 -1      1174 6.69154E-02-1.43243E-03 7.03353E-04
 -1      1175 7.04169E-02-1.43274E-03 1.06741E-03
 -1      1176 7.18175E-02-1.43283E-03 1.06748E-03
 -1      1177 6.97166E-02-1.43261E-03 7.03494E-04
 -1      1178 7.32180E-02-1.43292E-03 1.06755E-03
 -1      1179 7.46186E-02-1.43301E-03 1.06762E-03
 -1      1180 7.25177E-02-1.43278E-03 7.03635E-04
 -1      1181 7.60191E-02-1.43310E-03 1.06769E-03
 -1      1182 7.74197E-02-1.43319E-03 1.06776E-03
 -1      1183 7.53188E-02-1.43296E-03 7.03776E-04
 -1      1184 7.88203E-02-1.43328E-03 1.06783E-03
 -1      1185 8.02208E-02-1.43337E-03 1.06790E-03
 -1      1186 7.81199E-02-1.43314E-03 7.03917E-04
 -1      1187 8.16214E-02-1.43346E-03 1.06797E-03
 -1      1188 8.30219E-02-1.43355E-03 1.06804E-03
 -1      1189 8.09210E-02-1.43332E-03 7.04058E-04
 -1      1190 8.44225E-02-1.43364E-03 1.06811E-03
 -1      1191 8.58231E-02-1.43373E-03 1.06818E-03
 -1      1192 8.37222E-02-1.43350E-03 7.04199E-04
 -1      1193 8.72295E-02-1.43382E-03 1.07024E-03
 -1      1194 8.86300E-02-1.43391E-03 1.07031E-03
 -1      1195 8.65291E-02-1.43368E-03 7.06327E-04
 -1      1196 9.00902E-02-1.43400E-03 1.06425E-03
 -1      1197 9.14907E-02-1.43409E-03 1.06432E-03
 -1      1198 8.93957E-02-1.43387E-03 7.02325E-04
 -1      1199 9.19979E-02-1.43406E-03 8.12170E-04
 -1      1200 4.67570E-03-1.39926E-03-1.05091E-03
 -1      1201 3.37795E-03-1.31112E-03-9.66289E-04
 -1      1202 2.83519E-03-1.27851E-03-6.73459E-04
 -1      1203 7.41978E-03-1.43911E-03-1.08412E-03
 -1      1204 6.06231E-03-1.43104E-03-1.08229E-03
 -1      1205 5.28260E-03-1.43170E-03-7.09382E-04
 -1      1206 1.01965E-02-1.43391E-03-1.07241E-03
 -1      1207 8.80565E-03-1.43647E-03-1.07752E-03
 -1      1208 8.09623E-03-1.44178E-03-7.18945E-04
 -1      1209 1.29646E-02-1.43038E-03-1.07324E-03
 -1      1210 1.15652E-02-1.43174E-03-1.07538E-03
 -1      1211 1.08642E-02-1.43322E-03-7.12861E-04
 -1      1212 1.58203E-02-1.42897E-03-1.07137E-03
 -1      1213 1.44196E-02-1.42937E-03-1.07191E-03
 -1      1214 1.36910E-02-1.42965E-03-7.14917E-04
 -1      1215 1.85956E-02-1.42888E-03-1.06457E-03
 -1      1216 1.71949E-02-1.42886E-03-1.06472E-03
 -1      1217 1.65209E-02-1.42894E-03-7.07264E-04
 -1      1218 2.13969E-02-1.42904E-03-1.06442E-03
 -1      1219 1.99963E-02-1.42895E-03-1.06448E-03
 -1      1220 1.92961E-02-1.42899E-03-7.00641E-04
 -1      1221 2.41981E-02-1.42923E-03-1.06430E-03
 -1      1222 2.27975E-02-1.42914E-03-1.06436E-03
 -1      1223 2.20973E-02-1.42918E-03-7.00514E-04
 -1      1224 2.69992E-02-1.42942E-03-1.06417E-03
 -1      1225 2.55986E-02-1.42933E-03-1.06423E-03
 -1      1226 2.48984E-02-1.42937E-03-7.00392E-04
 -1      1227 2.98003E-02-1.42960E-03-1.06403E-03
 -1      1228 2.83997E-02-1.42951E-03-1.06410E-03
 -1      1229 2.76995E-02-1.42956E-03-7.00257E-04
 -1      1230 3.26014E-02-1.42978E-03-1.06389E-03
 -1      1231 3.12009E-02-1.42969E-03-1.06396E-03
 -1      1232 3.05006E-02-1.42974E-03-7.00117E-04
 -1      1233 3.54025E-02-1.42996E-03-1.06375E-03
 -1      1234 3.40020E-02-1.42987E-03-1.06382E-03
 -1      1235 3.33018E-02-1.42992E-03-6.99976E-04
 -1      1236 3.82013E-02-1.43014E-03-1.07099E-03
 -1      1237 3.68008E-02-1.43005E-03-1.07106E-03
 -1      1238 3.61006E-02-1.43010E-03-7.07219E-04
 -1      1239 4.10004E-02-1.43032E-03-1.07128E-03
 -1      1240 3.95999E-02-1.43023E-03-1.07135E-03
 -1      1241 3.88973E-02-1.43027E-03-7.14896E-04
 -1      1242 4.38014E-02-1.43050E-03-1.06895E-03
 -1      1243 4.24008E-02-1.43041E-03-1.06902E-03
 -1      1244 4.16962E-02-1.43045E-03-7.12998E-04
 -1      1245 4.66066E-02-1.43068E-03-1.06595E-03
 -1      1246 4.52061E-02-1.43059E-03-1.06602E-03
 -1      1247 4.45013E-02-1.43063E-03-7.07808E-04
 -1      1248 4.94081E-02-1.43086E-03-1.06304E-03
 -1      1249 4.80076E-02-1.43077E-03-1.06311E-03
 -1      1250 4.73070E-02-1.43081E-03-7.02040E-04
 -1      1251 5.22093E-02-1.43104E-03-1.06290E-03
 -1      1252 5.08087E-02-1.43095E-03-1.06297E-03
 -1      1253 5.01085E-02-1.43099E-03-6.99130E-04
 -1      1254 5.50104E-02-1.43122E-03-1.06276E-03
 -1      1255 5.36098E-02-1.43113E-03-1.06283E-03
 -1      1256 5.29096E-02-1.43117E-03-6.98989E-04
 -1      1257 5.78115E-02-1.43140E-03-1.06262E-03
 -1      1258 5.64109E-02-1.43131E-03-1.06269E-03
 -1      1259 5.57107E-02-1.43135E-03-6.98849E-04
 -1      1260 6.06126E-02-1.43157E-03-1.06248E-03
 -1      1261 5.92121E-02-1.43149E-03-1.06255E-03
 -1      1262 5.85118E-02-1.43153E-03-6.98708E-04
 -1      1263 6.34137E-02-1.43175E-03-1.06234E-03
 -1      1264 6.20132E-02-1.43166E-03-1.06241E-03
 -1      1265 6.13130E-02-1.43171E-03-6.98567E-04
 -1      1266 6.62149E-02-1.43193E-03-1.06220E-03
 -1      1267 6.48143E-02-1.43184E-03-1.06227E-03
 -1      1268 6.41141E-02-1.43189E-03-6.98426E-04
 -1      1269 6.90160E-02-1.43211E-03-1.06206E-03
 -1      1270 6.76154E-02-1.43202E-03-1.06213E-03
 -1      1271 6.69152E-02-1.43207E-03-6.98285E-04
 -1      1272 7.18171E-02-1.43229E-03-1.06191E-03
 -1      1273 7.04165E-02-1.43220E-03-1.06198E-03
 -1      1274 6.97163E-02-1.43225E-03-6.98144E-04
 -1      1275 7.46182E-02-1.43247E-03-1.06177E-03
 -1      1276 7.32177E-02-1.43238E-03-1.06184E-03
 -1      1277 7.25174E-02-1.43243E-03-6.98003E-04
 -1      1278 7.74193E-02-1.43265E-03-1.06163E-03
 -1      1279 7.60188E-02-1.43256E-03-1.06170E-03
 -1      1280 7.53186E-02-1.43261E-03-6.97862E-04
 -1      1281 8.02205E-02-1.43283E-03-1.06149E-03
 -1      1282 7.88199E-02-1.43274E-03-1.06156E-03
 -1      1283 7.81197E-02-1.43279E-03-6.97721E-04
 -1      1284 8.30216E-02-1.43301E-03-1.06135E-03
 -1      1285 8.16210E-02-1.43292E-03-1.06142E-03
 -1      1286 8.09208E-02-1.43297E-03-6.97580E-04
 -1      1287 8.58227E-02-1.43319E-03-1.06121E-03
 -1      1288 8.44221E-02-1.43310E-03-1.06128E-03
 -1      1289 8.37219E-02-1.43315E-03-6.97439E-04
 -1      1290 8.86094E-02-1.43337E-03-1.06806E-03
 -1      1291 8.72088E-02-1.43328E-03-1.06813E-03
 -1      1292 8.65086E-02-1.43332E-03-7.04293E-04
 -1      1293 9.14837E-02-1.43355E-03-1.05689E-03
 -1      1294 9.00831E-02-1.43346E-03-1.05696E-03
 -1      1295 8.93684E-02-1.43351E-03-7.00110E-04
 -1      1296 9.19980E-02-1.43365E-03-8.02668E-04
 -1      1297 6.62151E-02-1.43229E-03 3.52908E-04
 -1      1298 6.76157E-02-1.43238E-03 3.52979E-04
 -1      1299 6.34140E-02-1.43211E-03 3.52767E-04
 -1      1300 6.48145E-02-1.43220E-03 3.52838E-04
 -1      1301 6.55148E-02-1.43216E-03 2.46373E-06
 -1      1302 7.46185E-02-1.43283E-03 3.53331E-04
 -1      1303 7.60190E-02-1.43292E-03 3.53402E-04
 -1      1304 7.74196E-02-1.43301E-03 3.53472E-04
 -1      1305 7.88201E-02-1.43310E-03 3.53543E-04
 -1      1306 7.67192E-02-1.43288E-03 3.02751E-06
 -1      1307 8.72057E-02-1.43346E-03-3.54175E-04
 -1      1308 8.58196E-02-1.43337E-03-3.47251E-04
 -1      1309 8.78463E-02-1.43359E-03-7.69791E-07
 -1      1310 8.85353E-02-1.43354E-03-3.57811E-04
 -1      1311 9.00090E-02-1.43364E-03-3.46705E-04
 -1      1312 5.50106E-02-1.43157E-03 3.52345E-04
 -1      1313 5.64112E-02-1.43166E-03 3.52415E-04
 -1      1314 5.22095E-02-1.43140E-03 3.52204E-04
 -1      1315 5.36101E-02-1.43148E-03 3.52274E-04
 -1      1316 5.43103E-02-1.43144E-03 1.89996E-06
 -1      1317 5.78117E-02-1.43175E-03 3.52486E-04
 -1      1318 5.92123E-02-1.43184E-03 3.52556E-04
 -1      1319 6.06129E-02-1.43193E-03 3.52627E-04
 -1      1320 6.20134E-02-1.43202E-03 3.52697E-04
 -1      1321 5.99125E-02-1.43180E-03 2.18185E-06
 -1      1322 6.90162E-02-1.43247E-03 3.53049E-04
 -1      1323 7.04168E-02-1.43256E-03 3.53120E-04
 -1      1324 7.18173E-02-1.43265E-03 3.53190E-04
 -1      1325 7.32179E-02-1.43274E-03 3.53261E-04
 -1      1326 7.11170E-02-1.43252E-03 2.74562E-06
 -1      1327 8.44223E-02-1.43328E-03-3.46994E-04
 -1      1328 8.30217E-02-1.43319E-03-3.47065E-04
 -1      1329 8.16211E-02-1.43310E-03-3.47135E-04
 -1      1330 8.02206E-02-1.43301E-03-3.47206E-04
 -1      1331 8.23215E-02-1.43324E-03 3.30939E-06
 -1      1332 4.80077E-02-1.43095E-03-3.48827E-04
 -1      1333 4.66068E-02-1.43086E-03-3.51666E-04
 -1      1334 5.08088E-02-1.43113E-03-3.48686E-04
 -1      1335 4.94083E-02-1.43104E-03-3.48756E-04
 -1      1336 4.87080E-02-1.43108E-03 1.61807E-06
 -1      1337 1.29853E-02-1.43038E-03 3.53166E-04
 -1      1338 1.43887E-02-1.42958E-03 3.51609E-04
 -1      1339 1.50908E-02-1.42920E-03-1.26492E-06
 -1      1340 1.57929E-02-1.42922E-03 3.52609E-04
 -1      1341 1.71953E-02-1.42913E-03 3.51722E-04
 -1      1342 2.13972E-02-1.42939E-03 3.50640E-04
 -1      1343 2.27977E-02-1.42949E-03 3.50716E-04
 -1      1344 1.85960E-02-1.42919E-03 3.51756E-04
 -1      1345 1.99966E-02-1.42929E-03 3.50563E-04
 -1      1346 2.06968E-02-1.42925E-03 2.12153E-07
 -1      1347 8.78862E-03-1.44143E-03-3.58312E-04
 -1      1348 7.38535E-03-1.44817E-03-3.63411E-04
 -1      1349 1.01794E-02-1.43530E-03-3.54970E-04
 -1      1350 9.47843E-03-1.43922E-03-4.70003E-07
 -1      1351 1.15527E-02-1.43237E-03-3.59241E-04
 -1      1352 3.26017E-02-1.43014E-03 3.51218E-04
 -1      1353 3.40022E-02-1.43023E-03 3.51288E-04
 -1      1354 2.98005E-02-1.42996E-03 3.51076E-04
 -1      1355 3.12011E-02-1.43005E-03 3.51147E-04
 -1      1356 3.19013E-02-1.43001E-03 7.72887E-07
 -1      1357 3.81889E-02-1.43050E-03 3.50026E-04
 -1      1358 3.95842E-02-1.43059E-03 3.48769E-04
 -1      1359 4.02854E-02-1.43054E-03-5.76744E-06
 -1      1360 4.09933E-02-1.43068E-03 3.49679E-04
 -1      1361 4.23928E-02-1.43077E-03 3.52178E-04
 -1      1362 2.41983E-02-1.42959E-03 3.50790E-04
 -1      1363 2.55989E-02-1.42969E-03 3.50863E-04
 -1      1364 2.69994E-02-1.42978E-03 3.50935E-04
 -1      1365 2.84000E-02-1.42987E-03 3.51006E-04
 -1      1366 2.62991E-02-1.42964E-03 4.91034E-07
 -1      1367 6.06959E-03-1.44923E-03-3.62478E-04
 -1      1368 4.64232E-03-1.43549E-03-3.44460E-04
 -1      1369 4.39924E-03-1.43823E-03 1.74322E-07
 -1      1370 3.60362E-03-1.38200E-03-3.20047E-04
 -1      1371 2.67596E-03-1.29153E-03-1.42294E-04
 -1      1372 2.92033E-03-1.31105E-03-4.36853E-04
 -1      1373 7.39079E-03-1.44843E-03 3.60143E-04
 -1      1374 8.78192E-03-1.44262E-03 3.58619E-04
 -1      1375 6.76650E-03-1.45337E-03 2.34782E-06
 -1      1376 6.07543E-03-1.44978E-03 3.65530E-04
 -1      1377 4.64697E-03-1.43460E-03 3.47619E-04
 -1      1378 8.85557E-02-1.43372E-03 3.51990E-04
 -1      1379 9.00158E-02-1.43381E-03 3.45930E-04
 -1      1380 9.02567E-02-1.43374E-03 8.88749E-07
 -1      1381 9.10967E-02-1.43389E-03 3.51224E-04
 -1      1382 9.18602E-02-1.43398E-03 5.28624E-04
 -1      1383 9.21011E-02-1.43391E-03 1.83583E-04
 -1      1384 6.76155E-02-1.43220E-03-3.47840E-04
 -1      1385 6.62150E-02-1.43211E-03-3.47911E-04
 -1      1386 7.04167E-02-1.43238E-03-3.47699E-04
 -1      1387 6.90161E-02-1.43229E-03-3.47770E-04
 -1      1388 6.83159E-02-1.43234E-03 2.60468E-06
 -1      1389 4.66073E-02-1.43104E-03 3.51922E-04
 -1      1390 4.80078E-02-1.43113E-03 3.51992E-04
 -1      1391 4.37958E-02-1.43086E-03 3.53988E-04
 -1      1392 4.52037E-02-1.43095E-03 3.50530E-04
 -1      1393 4.59040E-02-1.43090E-03 1.55783E-07
 -1      1394 8.58197E-02-1.43355E-03 3.53568E-04
 -1      1395 8.72261E-02-1.43364E-03 3.55626E-04
 -1      1396 8.30218E-02-1.43337E-03 3.53754E-04
 -1      1397 8.44224E-02-1.43346E-03 3.53825E-04
 -1      1398 8.51194E-02-1.43341E-03 3.12297E-06
 -1      1399 5.64111E-02-1.43149E-03-3.48404E-04
 -1      1400 5.50105E-02-1.43140E-03-3.48474E-04
 -1      1401 5.92122E-02-1.43167E-03-3.48263E-04
 -1      1402 5.78116E-02-1.43158E-03-3.48333E-04
 -1      1403 5.71114E-02-1.43162E-03 2.04090E-06
 -1      1404 7.60189E-02-1.43274E-03-3.47417E-04
 -1      1405 7.46183E-02-1.43265E-03-3.47488E-04
 -1      1406 7.32178E-02-1.43256E-03-3.47558E-04
 -1      1407 7.18172E-02-1.43247E-03-3.47629E-04
 -1      1408 7.39181E-02-1.43270E-03 2.88656E-06
 -1      1409 6.20133E-02-1.43185E-03-3.48122E-04
 -1      1410 6.06127E-02-1.43176E-03-3.48192E-04
 -1      1411 6.48144E-02-1.43202E-03-3.47981E-04
 -1      1412 6.34139E-02-1.43194E-03-3.48051E-04
 -1      1413 6.27136E-02-1.43198E-03 2.32279E-06
 -1      1414 1.99965E-02-1.42911E-03-3.50205E-04
 -1      1415 1.85959E-02-1.42901E-03-3.50283E-04
 -1      1416 1.71953E-02-1.42896E-03-3.50384E-04
 -1      1417 1.58207E-02-1.42902E-03-3.56938E-04
 -1      1418 1.78957E-02-1.42904E-03 7.64962E-08
 -1      1419 3.40021E-02-1.43005E-03-3.49531E-04
 -1      1420 3.26015E-02-1.42996E-03-3.49601E-04
 -1      1421 3.68009E-02-1.43023E-03-3.56772E-04
 -1      1422 3.54027E-02-1.43014E-03-3.49459E-04
 -1      1423 3.47024E-02-1.43018E-03 9.16144E-07
 -1      1424 4.52032E-02-1.43077E-03-3.53058E-04
 -1      1425 4.37985E-02-1.43068E-03-3.55986E-04
 -1      1426 4.30975E-02-1.43072E-03-3.04646E-06
 -1      1427 4.23955E-02-1.43059E-03-3.57797E-04
 -1      1428 4.09952E-02-1.43050E-03-3.60058E-04
 -1      1429 2.55987E-02-1.42951E-03-3.49951E-04
 -1      1430 2.41982E-02-1.42941E-03-3.50018E-04
 -1      1431 2.27976E-02-1.42932E-03-3.50083E-04
 -1      1432 2.13971E-02-1.42921E-03-3.50144E-04
 -1      1433 2.34980E-02-1.42945E-03 3.51976E-07
 -1      1434 3.12010E-02-1.42987E-03-3.49672E-04
 -1      1435 2.98004E-02-1.42978E-03-3.49743E-04
 -1      1436 2.83999E-02-1.42969E-03-3.49813E-04
 -1      1437 2.69993E-02-1.42960E-03-3.49882E-04
 -1      1438 2.91002E-02-1.42983E-03 6.31704E-07
 -1      1439 2.62636E-03-1.29640E-03 1.25345E-04
 -1      1440 3.60726E-03-1.38232E-03 3.14933E-04
 -1      1441 2.87555E-03-1.30696E-03 4.26635E-04
 -1      1442 9.21433E-02-1.43382E-03-1.63370E-04
 -1      1443 9.18956E-02-1.43372E-03-5.10963E-04
 -1      1444 9.10898E-02-1.43371E-03-3.41410E-04
 -1      1445 1.01724E-02-1.43545E-03 3.56245E-04
 -1      1446 1.15771E-02-1.43250E-03 3.55639E-04
 -1      1447 1.22782E-02-1.43113E-03-1.13252E-06
 -1      1448 1.29608E-02-1.43031E-03-3.59415E-04
 -1      1449 1.44164E-02-1.42938E-03-3.58473E-04
 -1      1450 7.88200E-02-1.43292E-03-3.47276E-04
 -1      1451 7.74195E-02-1.43283E-03-3.47347E-04
 -1      1452 5.36099E-02-1.43131E-03-3.48545E-04
 -1      1453 5.22094E-02-1.43122E-03-3.48615E-04
 -1      1454 4.94084E-02-1.43122E-03 3.52063E-04
 -1      1455 5.08089E-02-1.43131E-03 3.52133E-04
 -1      1456 5.15092E-02-1.43126E-03 1.75902E-06
 -1      1457 3.54028E-02-1.43032E-03 3.51360E-04
 -1      1458 3.68023E-02-1.43041E-03 3.53859E-04
 -1      1459 3.74896E-02-1.43036E-03-2.84468E-06
 -1      1460 3.81875E-02-1.43032E-03-3.60605E-04
 -1      1461 3.95860E-02-1.43041E-03-3.60969E-04
 -1      1462 8.02207E-02-1.43319E-03 3.53613E-04
 -1      1463 8.16213E-02-1.43328E-03 3.53684E-04
 -1      1464 7.95204E-02-1.43306E-03 3.16845E-06
 -1      1465 6.27134E-02 6.97049E-04 1.43143E-03
 -1      1466 7.39179E-02 6.96332E-04 1.43200E-03
 -1      1467 7.95204E-02-7.05665E-04 1.43192E-03
 -1      1468 8.78946E-02 7.09424E-04 1.43270E-03
 -1      1469 5.43101E-02 7.02077E-04 1.43101E-03
 -1      1470 6.83160E-02-7.04947E-04 1.43136E-03
 -1      1471 4.87078E-02 6.97947E-04 1.43073E-03
 -1      1472 1.50942E-02-7.01992E-04 1.42904E-03
 -1      1473 2.06966E-02 7.04190E-04 1.42929E-03
 -1      1474 9.48344E-03 7.18672E-04 1.43690E-03
 -1      1475 3.18923E-02-7.13867E-04 1.42952E-03
 -1      1476 4.03172E-02 7.00686E-04 1.43031E-03
 -1      1477 2.62989E-02 7.03868E-04 1.42960E-03
 -1      1478 3.87626E-03-6.57742E-04 1.38844E-03
 -1      1479 5.99126E-02-7.04409E-04 1.43094E-03
 -1      1480 8.23213E-02 6.95793E-04 1.43242E-03
 -1      1481 9.08558E-02-6.98099E-04 1.43250E-03
 -1      1482 4.59070E-02-7.03512E-04 1.43023E-03
 -1      1483 8.51227E-02-7.06024E-04 1.43221E-03
 -1      1484 5.15092E-02-7.03871E-04 1.43051E-03
 -1      1485 3.47022E-02 6.98844E-04 1.43002E-03
 -1      1486 2.34980E-02-7.15446E-04 1.42909E-03
 -1      1487 3.75127E-02-7.14227E-04 1.42981E-03
 -1      1488 1.90422E-03 1.98420E-04 1.13633E-03
 -1      1489 9.29490E-02 3.31061E-04 1.43286E-03
 -1      1490 7.39182E-02-7.05306E-04 1.43164E-03
 -1      1491 6.83157E-02 6.96691E-04 1.43172E-03
 -1      1492 1.50937E-02 7.00507E-04 1.42930E-03
 -1      1493 9.47739E-03-7.20792E-04 1.43678E-03
 -1      1494 6.67884E-03-7.27642E-04 1.44543E-03
 -1      1495 5.43086E-03 9.16507E-06 1.45643E-03
 -1      1496 8.79355E-02-7.10178E-04 1.43235E-03
 -1      1497 5.99123E-02 6.97229E-04 1.43129E-03
 -1      1498 5.71112E-02 7.02646E-04 1.43115E-03
 -1      1499 5.57108E-02-6.10242E-06 1.43090E-03
 -1      1500 7.67190E-02 6.96152E-04 1.43214E-03
 -1      1501 6.55148E-02-7.04768E-04 1.43122E-03
 -1      1502 4.59067E-02 6.98126E-04 1.43059E-03
 -1      1503 4.31077E-02 7.03162E-04 1.43045E-03
 -1      1504 4.17331E-02-1.02270E-05 1.43020E-03
 -1      1505 8.23216E-02-7.05845E-04 1.43207E-03
 -1      1506 3.18884E-02 7.05715E-04 1.42988E-03
 -1      1507 7.67193E-02-7.05486E-04 1.43178E-03
 -1      1508 3.47025E-02-7.15523E-04 1.42967E-03
 -1      1509 2.34977E-02 7.04891E-04 1.42945E-03
 -1      1510 2.90851E-02 7.03269E-04 1.42974E-03
 -1      1511 2.76717E-02-9.07721E-06 1.42949E-03
 -1      1512 8.51224E-02 6.95614E-04 1.43256E-03
 -1      1513 4.87081E-02-7.03691E-04 1.43037E-03
 -1      1514 1.78953E-02 7.05155E-04 1.42916E-03
 -1      1515 1.92962E-02-3.77609E-06 1.42901E-03
 -1      1516 1.22912E-02-7.09491E-04 1.43095E-03
 -1      1517 1.22914E-02 7.08424E-04 1.43142E-03
 -1      1518 3.75182E-02 7.05721E-04 1.43017E-03
 -1      1519 7.11168E-02 6.96511E-04 1.43186E-03
 -1      1520 6.55145E-02 6.96870E-04 1.43157E-03
 -1      1521 5.15089E-02 7.00299E-04 1.43087E-03
 -1      1522 7.95202E-02 6.95973E-04 1.43228E-03
 -1      1523 7.11171E-02-7.05127E-04 1.43150E-03
 -1      1524 6.27137E-02-7.04589E-04 1.43108E-03
 -1      1525 8.06911E-03 2.15160E-06 1.44708E-03
 -1      1526 6.72338E-03 7.37465E-04 1.44401E-03
 -1      1527 2.00816E-03-2.26650E-04 1.16978E-03
 -1      1528 5.42341E-02-7.17258E-04 1.43065E-03
 -1      1529 5.71878E-02-7.17447E-04 1.43080E-03
 -1      1530 2.06842E-02-7.15737E-04 1.42893E-03
 -1      1531 1.78724E-02-7.13881E-04 1.42880E-03
 -1      1532 2.62945E-02-7.19209E-04 1.42924E-03
 -1      1533 3.89148E-02-8.36716E-06 1.43006E-03
 -1      1534 4.31105E-02-7.18100E-04 1.43009E-03
 -1      1535 3.04899E-02-7.53665E-06 1.42963E-03
 -1      1536 8.91758E-02 2.59528E-06 1.43259E-03
 -1      1537 8.65166E-02-4.63987E-06 1.43245E-03
 -1      1538 7.25175E-02-4.39757E-06 1.43175E-03
 -1      1539 6.97164E-02-4.21814E-06 1.43161E-03
 -1      1540 6.69153E-02-4.03871E-06 1.43147E-03
 -1      1541 8.37220E-02-5.11529E-06 1.43231E-03
 -1      1542 7.81197E-02-4.75643E-06 1.43203E-03
 -1      1543 5.01085E-02-2.96213E-06 1.43062E-03
 -1      1544 6.13130E-02-3.67905E-06 1.43119E-03
 -1      1545 1.36924E-02-7.01244E-07 1.42974E-03
 -1      1546 1.08807E-02-3.16812E-07 1.43322E-03
 -1      1547 7.53186E-02-4.57700E-06 1.43189E-03
 -1      1548 6.41141E-02-3.85914E-06 1.43133E-03
 -1      1549 3.61087E-02-5.90633E-06 1.42992E-03
 -1      1550 8.09209E-02-4.93586E-06 1.43217E-03
 -1      1551 3.32974E-02-6.37913E-06 1.42977E-03
 -1      1552 4.73074E-02-2.78190E-06 1.43048E-03
 -1      1553 5.29097E-02-3.13682E-06 1.43076E-03
 -1      1554 5.85119E-02-3.49568E-06 1.43104E-03
 -1      1555 4.03135E-02-7.18789E-04 1.42995E-03
 -1      1556 4.45063E-02-2.59853E-06 1.43034E-03
 -1      1557 1.64949E-02-8.06278E-07 1.42894E-03
 -1      1558 2.90916E-02-7.18344E-04 1.42938E-03
 -1      1559 2.48970E-02-2.56061E-06 1.42935E-03
 -1      1560 2.20957E-02-3.71848E-06 1.42919E-03
 -1      1561 9.28646E-02-3.62844E-04 1.43268E-03
 -1      1562 3.88525E-03 6.58350E-04 1.38840E-03
 -1      1563 9.08421E-02 6.87170E-04 1.43285E-03
 -1      1564 3.35673E-03-1.00061E-08 1.37904E-03
 -1      1565 1.81001E-03-5.79348E-04 1.07123E-03
 -1      1566 1.79338E-03 5.75265E-04 1.05099E-03
 -1      1567 9.31399E-02-9.29938E-04 1.43255E-03
 -1      1568 9.31537E-02 9.14468E-04 1.43302E-03
 -1      1569 9.13374E-02-8.02319E-06 1.43270E-03
 -1      1570 8.99557E-04 2.63272E-04 7.17254E-04
 -1      1571 9.50156E-04 4.18581E-04 6.88905E-04
 -1      1572 2.37238E-03 9.19814E-04 1.14637E-03
 -1      1573 9.60218E-04-4.20750E-04 6.91013E-04
 -1      1574 8.79948E-04-2.67117E-04 6.88416E-04
 -1      1575 2.38001E-03-9.25284E-04 1.15259E-03
 -1      1576 9.40399E-02 1.16860E-03 1.43313E-03
 -1      1577 9.40400E-02 8.11460E-04 1.43304E-03
 -1      1578 9.26394E-02 1.16869E-03 1.43306E-03
 -1      1579 9.40332E-02-8.25028E-04 1.43262E-03
 -1      1580 9.40333E-02-1.18217E-03 1.43253E-03
 -1      1581 9.26328E-02-1.18208E-03 1.43246E-03
 -1      1582 9.67139E-04 5.71384E-05 7.70425E-04
 -1      1583 9.36505E-04 1.80919E-04 7.41544E-04
 -1      1584 1.83995E-03 3.86219E-04 1.10608E-03
 -1      1585 1.02788E-03-1.88437E-04 7.87820E-04
 -1      1586 9.77898E-04-6.07679E-05 7.57580E-04
 -1      1587 1.95291E-03-1.69480E-06 1.16197E-03
 -1      1588 1.90632E-03-3.98915E-04 1.13364E-03
 -1      1589 9.39376E-02 5.19757E-04 1.43296E-03
 -1      1590 9.39377E-02 1.62614E-04 1.43287E-03
 -1      1591 9.30513E-02 6.22765E-04 1.43294E-03
 -1      1592 9.38955E-02-1.84338E-04 1.43278E-03
 -1      1593 9.38956E-02-5.41481E-04 1.43269E-03
 -1      1594 9.29068E-02-1.58912E-05 1.43277E-03
 -1      1595 9.30022E-02-6.46391E-04 1.43262E-03
 -1      1596 3.37158E-03 9.62407E-04 1.30563E-03
 -1      1597 4.67835E-03 1.05022E-03 1.39786E-03
 -1      1598 2.83386E-03 6.77918E-04 1.28317E-03
 -1      1599 6.07162E-03 1.08756E-03 1.43044E-03
 -1      1600 7.42886E-03 1.08950E-03 1.43918E-03
 -1      1601 5.29549E-03 7.14793E-04 1.43120E-03
 -1      1602 8.80051E-03 1.08095E-03 1.43701E-03
 -1      1603 1.01913E-02 1.07569E-03 1.43438E-03
 -1      1604 8.10029E-03 7.28901E-04 1.44186E-03
 -1      1605 1.15930E-02 1.07080E-03 1.43235E-03
 -1      1606 1.29921E-02 1.06874E-03 1.43086E-03
 -1      1607 1.08865E-02 7.12517E-04 1.43355E-03
 -1      1608 1.43932E-02 1.06480E-03 1.42986E-03
 -1      1609 1.57940E-02 1.06421E-03 1.42942E-03
 -1      1610 1.36925E-02 7.04011E-04 1.43011E-03
 -1      1611 1.71948E-02 1.06652E-03 1.42930E-03
 -1      1612 1.85955E-02 1.06634E-03 1.42931E-03
 -1      1613 1.64946E-02 7.02708E-04 1.42920E-03
 -1      1614 1.99962E-02 1.06587E-03 1.42935E-03
 -1      1615 2.13968E-02 1.06579E-03 1.42942E-03
 -1      1616 1.92960E-02 7.04653E-04 1.42921E-03
 -1      1617 2.27974E-02 1.06614E-03 1.42950E-03
 -1      1618 2.41979E-02 1.06605E-03 1.42958E-03
 -1      1619 2.20972E-02 7.04542E-04 1.42937E-03
 -1      1620 2.55985E-02 1.06554E-03 1.42965E-03
 -1      1621 2.69991E-02 1.06546E-03 1.42973E-03
 -1      1622 2.48983E-02 7.04382E-04 1.42953E-03
 -1      1623 2.83922E-02 1.06516E-03 1.42980E-03
 -1      1624 2.97928E-02 1.06507E-03 1.42987E-03
 -1      1625 2.76920E-02 7.03569E-04 1.42967E-03
 -1      1626 3.11944E-02 1.06629E-03 1.42994E-03
 -1      1627 3.25949E-02 1.06620E-03 1.43001E-03
 -1      1628 3.04868E-02 7.04492E-04 1.42981E-03
 -1      1629 3.40019E-02 1.06276E-03 1.43008E-03
 -1      1630 3.54024E-02 1.06268E-03 1.43015E-03
 -1      1631 3.32953E-02 7.02279E-04 1.42995E-03
 -1      1632 3.68104E-02 1.06611E-03 1.43022E-03
 -1      1633 3.82110E-02 1.06602E-03 1.43029E-03
 -1      1634 3.61102E-02 7.02283E-04 1.43010E-03
 -1      1635 3.96105E-02 1.06351E-03 1.43036E-03
 -1      1636 4.10110E-02 1.06342E-03 1.43043E-03
 -1      1637 3.89177E-02 7.03204E-04 1.43024E-03
 -1      1638 4.24063E-02 1.06465E-03 1.43050E-03
 -1      1639 4.38068E-02 1.06457E-03 1.43058E-03
 -1      1640 4.17124E-02 7.01924E-04 1.43038E-03
 -1      1641 4.52063E-02 1.06205E-03 1.43064E-03
 -1      1642 4.66069E-02 1.06196E-03 1.43072E-03
 -1      1643 4.45072E-02 7.00644E-04 1.43052E-03
 -1      1644 4.80075E-02 1.06187E-03 1.43079E-03
 -1      1645 4.94080E-02 1.06178E-03 1.43086E-03
 -1      1646 4.73073E-02 6.98036E-04 1.43066E-03
 -1      1647 5.08086E-02 1.06295E-03 1.43093E-03
 -1      1648 5.22092E-02 1.06286E-03 1.43100E-03
 -1      1649 5.01084E-02 6.99123E-04 1.43080E-03
 -1      1650 5.36097E-02 1.06375E-03 1.43107E-03
 -1      1651 5.50103E-02 1.06366E-03 1.43114E-03
 -1      1652 5.29095E-02 7.01188E-04 1.43094E-03
 -1      1653 5.64108E-02 1.06395E-03 1.43121E-03
 -1      1654 5.78114E-02 1.06386E-03 1.43128E-03
 -1      1655 5.57106E-02 7.02362E-04 1.43108E-03
 -1      1656 5.92120E-02 1.06115E-03 1.43135E-03
 -1      1657 6.06125E-02 1.06106E-03 1.43142E-03
 -1      1658 5.85117E-02 6.99938E-04 1.43122E-03
 -1      1659 6.20131E-02 1.06097E-03 1.43149E-03
 -1      1660 6.34136E-02 1.06088E-03 1.43156E-03
 -1      1661 6.13129E-02 6.97139E-04 1.43136E-03
 -1      1662 6.48142E-02 1.06079E-03 1.43163E-03
 -1      1663 6.62148E-02 1.06070E-03 1.43170E-03
 -1      1664 6.41140E-02 6.96960E-04 1.43150E-03
 -1      1665 6.76153E-02 1.06061E-03 1.43177E-03
 -1      1666 6.90159E-02 1.06052E-03 1.43184E-03
 -1      1667 6.69151E-02 6.96780E-04 1.43165E-03
 -1      1668 7.04164E-02 1.06043E-03 1.43191E-03
 -1      1669 7.18170E-02 1.06034E-03 1.43198E-03
 -1      1670 6.97162E-02 6.96601E-04 1.43179E-03
 -1      1671 7.32176E-02 1.06025E-03 1.43205E-03
 -1      1672 7.46181E-02 1.06016E-03 1.43212E-03
 -1      1673 7.25174E-02 6.96421E-04 1.43193E-03
 -1      1674 7.60187E-02 1.06007E-03 1.43220E-03
 -1      1675 7.74192E-02 1.05998E-03 1.43227E-03
 -1      1676 7.53185E-02 6.96242E-04 1.43207E-03
 -1      1677 7.88198E-02 1.05989E-03 1.43234E-03
 -1      1678 8.02204E-02 1.05980E-03 1.43241E-03
 -1      1679 7.81196E-02 6.96063E-04 1.43221E-03
 -1      1680 8.16209E-02 1.05971E-03 1.43248E-03
 -1      1681 8.30215E-02 1.05962E-03 1.43255E-03
 -1      1682 8.09207E-02 6.95883E-04 1.43235E-03
 -1      1683 8.44220E-02 1.05954E-03 1.43262E-03
 -1      1684 8.58226E-02 1.05945E-03 1.43269E-03
 -1      1685 8.37218E-02 6.95704E-04 1.43249E-03
 -1      1686 8.72087E-02 1.06635E-03 1.43276E-03
 -1      1687 8.86093E-02 1.06626E-03 1.43283E-03
 -1      1688 8.65085E-02 7.02519E-04 1.43263E-03
 -1      1689 9.00830E-02 1.05513E-03 1.43290E-03
 -1      1690 9.14836E-02 1.05504E-03 1.43297E-03
 -1      1691 8.93683E-02 6.98297E-04 1.43278E-03
 -1      1692 9.19979E-02 8.00819E-04 1.43293E-03
 -1      1693 4.67253E-03-1.04770E-03 1.39544E-03
 -1      1694 3.36730E-03-9.61270E-04 1.30713E-03
 -1      1695 2.84011E-03-6.77145E-04 1.28787E-03
 -1      1696 7.40831E-03-1.08595E-03 1.43812E-03
 -1      1697 6.04748E-03-1.08168E-03 1.42866E-03
 -1      1698 5.27094E-03-7.10437E-04 1.43391E-03
 -1      1699 1.01877E-02-1.07716E-03 1.43426E-03
 -1      1700 8.79716E-03-1.08212E-03 1.43715E-03
 -1      1701 8.07400E-03-7.25058E-04 1.44211E-03
 -1      1702 1.29925E-02-1.06981E-03 1.43016E-03
 -1      1703 1.15932E-02-1.07178E-03 1.43154E-03
 -1      1704 1.08835E-02-7.14297E-04 1.43307E-03
 -1      1705 1.57945E-02-1.06572E-03 1.42889E-03
 -1      1706 1.43938E-02-1.06612E-03 1.42924E-03
 -1      1707 1.36927E-02-7.05337E-04 1.42964E-03
 -1      1708 1.85843E-02-1.07171E-03 1.42876E-03
 -1      1709 1.71836E-02-1.07168E-03 1.42877E-03
 -1      1710 1.64833E-02-7.07816E-04 1.42885E-03
 -1      1711 2.13909E-02-1.07273E-03 1.42889E-03
 -1      1712 1.99903E-02-1.07263E-03 1.42882E-03
 -1      1713 1.92783E-02-7.14791E-04 1.42886E-03
 -1      1714 2.41984E-02-1.07268E-03 1.42904E-03
 -1      1715 2.27978E-02-1.07258E-03 1.42896E-03
 -1      1716 2.20911E-02-7.15593E-04 1.42901E-03
 -1      1717 2.69972E-02-1.07465E-03 1.42919E-03
 -1      1718 2.55966E-02-1.07456E-03 1.42911E-03
 -1      1719 2.48963E-02-7.17329E-04 1.42917E-03
 -1      1720 2.97963E-02-1.07431E-03 1.42933E-03
 -1      1721 2.83957E-02-1.07422E-03 1.42926E-03
 -1      1722 2.76930E-02-7.18777E-04 1.42931E-03
 -1      1723 3.25972E-02-1.07216E-03 1.42947E-03
 -1      1724 3.11967E-02-1.07207E-03 1.42940E-03
 -1      1725 3.04919E-02-7.16106E-04 1.42945E-03
 -1      1726 3.54029E-02-1.07308E-03 1.42961E-03
 -1      1727 3.40023E-02-1.07299E-03 1.42954E-03
 -1      1728 3.32974E-02-7.14695E-04 1.42960E-03
 -1      1729 3.82085E-02-1.07252E-03 1.42975E-03
 -1      1730 3.68080E-02-1.07243E-03 1.42968E-03
 -1      1731 3.61076E-02-7.14875E-04 1.42974E-03
 -1      1732 4.10095E-02-1.07489E-03 1.42989E-03
 -1      1733 3.96089E-02-1.07480E-03 1.42982E-03
 -1      1734 3.89131E-02-7.16508E-04 1.42988E-03
 -1      1735 4.38086E-02-1.07464E-03 1.43003E-03
 -1      1736 4.24080E-02-1.07455E-03 1.42996E-03
 -1      1737 4.17120E-02-7.18444E-04 1.43002E-03
 -1      1738 4.66074E-02-1.06743E-03 1.43018E-03
 -1      1739 4.52068E-02-1.06734E-03 1.43011E-03
 -1      1740 4.45088E-02-7.10806E-04 1.43016E-03
 -1      1741 4.94085E-02-1.06761E-03 1.43032E-03
 -1      1742 4.80079E-02-1.06752E-03 1.43025E-03
 -1      1743 4.73076E-02-7.03602E-04 1.43030E-03
 -1      1744 5.22096E-02-1.06779E-03 1.43046E-03
 -1      1745 5.08090E-02-1.06770E-03 1.43039E-03
 -1      1746 5.01087E-02-7.03781E-04 1.43044E-03
 -1      1747 5.49726E-02-1.07458E-03 1.43060E-03
 -1      1748 5.35720E-02-1.07449E-03 1.43052E-03
 -1      1749 5.28717E-02-7.10564E-04 1.43058E-03
 -1      1750 5.78500E-02-1.07476E-03 1.43074E-03
 -1      1751 5.64494E-02-1.07467E-03 1.43067E-03
 -1      1752 5.57109E-02-7.17353E-04 1.43072E-03
 -1      1753 6.06130E-02-1.06833E-03 1.43088E-03
 -1      1754 5.92124E-02-1.06824E-03 1.43081E-03
 -1      1755 5.85502E-02-7.10928E-04 1.43087E-03
 -1      1756 6.34141E-02-1.06851E-03 1.43102E-03
 -1      1757 6.20135E-02-1.06842E-03 1.43095E-03
 -1      1758 6.13132E-02-7.04499E-04 1.43101E-03
 -1      1759 6.62152E-02-1.06869E-03 1.43116E-03
 -1      1760 6.48146E-02-1.06860E-03 1.43109E-03
 -1      1761 6.41143E-02-7.04678E-04 1.43115E-03
 -1      1762 6.90163E-02-1.06887E-03 1.43130E-03
 -1      1763 6.76158E-02-1.06878E-03 1.43123E-03
 -1      1764 6.69154E-02-7.04858E-04 1.43129E-03
 -1      1765 7.18175E-02-1.06905E-03 1.43144E-03
 -1      1766 7.04169E-02-1.06896E-03 1.43137E-03
 -1      1767 6.97165E-02-7.05037E-04 1.43143E-03
 -1      1768 7.46186E-02-1.06923E-03 1.43159E-03
 -1      1769 7.32180E-02-1.06914E-03 1.43151E-03
 -1      1770 7.25176E-02-7.05217E-04 1.43157E-03
 -1      1771 7.74197E-02-1.06941E-03 1.43173E-03
 -1      1772 7.60191E-02-1.06932E-03 1.43166E-03
 -1      1773 7.53188E-02-7.05396E-04 1.43171E-03
 -1      1774 8.02208E-02-1.06959E-03 1.43187E-03
 -1      1775 7.88203E-02-1.06950E-03 1.43180E-03
 -1      1776 7.81199E-02-7.05575E-04 1.43185E-03
 -1      1777 8.30219E-02-1.06977E-03 1.43201E-03
 -1      1778 8.16214E-02-1.06968E-03 1.43194E-03
 -1      1779 8.09210E-02-7.05755E-04 1.43199E-03
 -1      1780 8.58231E-02-1.06995E-03 1.43215E-03
 -1      1781 8.44225E-02-1.06986E-03 1.43208E-03
 -1      1782 8.37221E-02-7.05934E-04 1.43214E-03
 -1      1783 8.86300E-02-1.07211E-03 1.43229E-03
 -1      1784 8.72295E-02-1.07202E-03 1.43222E-03
 -1      1785 8.65291E-02-7.08101E-04 1.43228E-03
 -1      1786 9.14907E-02-1.06616E-03 1.43244E-03
 -1      1787 9.00902E-02-1.06607E-03 1.43236E-03
 -1      1788 8.93956E-02-7.04139E-04 1.43242E-03
 -1      1789 9.19978E-02-8.14019E-04 1.43252E-03
 -1      1790 6.06127E-02 3.46775E-04 1.43124E-03
 -1      1791 6.20132E-02 3.46685E-04 1.43131E-03
 -1      1792 6.34138E-02 3.46595E-04 1.43138E-03
 -1      1793 6.48143E-02 3.46505E-04 1.43145E-03
 -1      1794 6.27136E-02-3.76911E-06 1.43126E-03
 -1      1795 7.46183E-02 3.45877E-04 1.43194E-03
 -1      1796 7.60188E-02 3.45788E-04 1.43201E-03
 -1      1797 7.18171E-02 3.46057E-04 1.43180E-03
 -1      1798 7.32177E-02 3.45967E-04 1.43187E-03
 -1      1799 7.39181E-02-4.48728E-06 1.43182E-03
 -1      1800 8.16212E-02-3.55390E-04 1.43212E-03
 -1      1801 8.02207E-02-3.55300E-04 1.43205E-03
 -1      1802 7.88201E-02-3.55211E-04 1.43198E-03
 -1      1803 7.74195E-02-3.55121E-04 1.43191E-03
 -1      1804 7.95203E-02-4.84614E-06 1.43210E-03
 -1      1805 8.58195E-02 3.45487E-04 1.43251E-03
 -1      1806 8.72056E-02 3.52392E-04 1.43258E-03
 -1      1807 8.85352E-02 3.56010E-04 1.43265E-03
 -1      1808 8.78462E-02-1.02230E-06 1.43252E-03
 -1      1809 9.00089E-02 3.44883E-04 1.43272E-03
 -1      1810 5.50104E-02 3.47987E-04 1.43096E-03
 -1      1811 5.64110E-02 3.48272E-04 1.43103E-03
 -1      1812 5.36099E-02 3.49470E-04 1.43089E-03
 -1      1813 5.43102E-02-4.61962E-06 1.43083E-03
 -1      1814 5.22093E-02 3.48581E-04 1.43082E-03
 -1      1815 6.76156E-02-3.54493E-04 1.43141E-03
 -1      1816 6.62151E-02-3.54403E-04 1.43134E-03
 -1      1817 7.04167E-02-3.54672E-04 1.43155E-03
 -1      1818 6.90162E-02-3.54583E-04 1.43148E-03
 -1      1819 6.83158E-02-4.12842E-06 1.43154E-03
 -1      1820 4.66071E-02 3.47672E-04 1.43053E-03
 -1      1821 4.80076E-02 3.47582E-04 1.43060E-03
 -1      1822 4.94082E-02 3.47492E-04 1.43068E-03
 -1      1823 5.08087E-02 3.48668E-04 1.43075E-03
 -1      1824 4.87080E-02-2.87202E-06 1.43055E-03
 -1      1825 1.43934E-02-3.51527E-04 1.42935E-03
 -1      1826 1.29914E-02-3.54872E-04 1.43019E-03
 -1      1827 1.71837E-02-3.57363E-04 1.42886E-03
 -1      1828 1.57946E-02-3.51318E-04 1.42897E-03
 -1      1829 1.50938E-02-7.30715E-07 1.42914E-03
 -1      1830 2.13961E-02 3.50236E-04 1.42923E-03
 -1      1831 2.27967E-02 3.50583E-04 1.42932E-03
 -1      1832 1.85958E-02 3.50671E-04 1.42907E-03
 -1      1833 1.99964E-02 3.50198E-04 1.42915E-03
 -1      1834 2.06959E-02-3.74625E-06 1.42910E-03
 -1      1835 1.01796E-02 3.58993E-04 1.43560E-03
 -1      1836 1.15861E-02 3.55065E-04 1.43250E-03
 -1      1837 8.77543E-03 3.62867E-04 1.44163E-03
 -1      1838 7.38609E-03 3.70546E-04 1.44847E-03
 -1      1839 9.47576E-03 1.30229E-06 1.43931E-03
 -1      1840 3.39999E-02-3.60951E-04 1.42972E-03
 -1      1841 3.25948E-02-3.60123E-04 1.42965E-03
 -1      1842 3.11911E-02-3.60702E-04 1.42958E-03
 -1      1843 3.18936E-02-6.95788E-06 1.42970E-03
 -1      1844 2.97907E-02-3.62941E-04 1.42951E-03
 -1      1845 4.10251E-02 3.45230E-04 1.43025E-03
 -1      1846 4.24204E-02 3.46468E-04 1.43032E-03
 -1      1847 3.96160E-02 3.46160E-04 1.43018E-03
 -1      1848 4.03239E-02-9.29708E-06 1.43013E-03
 -1      1849 3.82165E-02 3.48677E-04 1.43011E-03
 -1      1850 2.41974E-02 3.51166E-04 1.42940E-03
 -1      1851 2.55980E-02 3.50652E-04 1.42947E-03
 -1      1852 2.69853E-02 3.47396E-04 1.42954E-03
 -1      1853 2.83784E-02 3.47096E-04 1.42962E-03
 -1      1854 2.62844E-02-5.81908E-06 1.42942E-03
 -1      1855 6.04418E-03-3.62364E-04 1.44972E-03
 -1      1856 4.62870E-03-3.40338E-04 1.43573E-03
 -1      1857 4.38341E-03 3.68766E-06 1.43723E-03
 -1      1858 3.59835E-03-3.18066E-04 1.38291E-03
 -1      1859 2.91917E-03-4.41006E-04 1.31307E-03
 -1      1860 2.67141E-03-1.41816E-04 1.29347E-03
 -1      1861 6.20134E-02-3.54134E-04 1.43113E-03
 -1      1862 6.06128E-02-3.54044E-04 1.43106E-03
 -1      1863 5.92123E-02-3.53952E-04 1.43099E-03
 -1      1864 5.78498E-02-3.60472E-04 1.43092E-03
 -1      1865 5.99125E-02-3.58736E-06 1.43112E-03
 -1      1866 8.30216E-02 3.45339E-04 1.43237E-03
 -1      1867 8.44222E-02 3.45249E-04 1.43244E-03
 -1      1868 8.02205E-02 3.45518E-04 1.43223E-03
 -1      1869 8.16211E-02 3.45429E-04 1.43230E-03
 -1      1870 8.23214E-02-5.02557E-06 1.43224E-03
 -1      1871 9.00158E-02-3.47752E-04 1.43254E-03
 -1      1872 8.85556E-02-3.53792E-04 1.43247E-03
 -1      1873 9.10966E-02-3.53061E-04 1.43260E-03
 -1      1874 9.02566E-02-2.71396E-06 1.43264E-03
 -1      1875 9.18602E-02-5.30471E-04 1.43259E-03
 -1      1876 9.21010E-02-1.85433E-04 1.43269E-03
 -1      1877 4.80078E-02-3.53237E-04 1.43043E-03
 -1      1878 4.66072E-02-3.53147E-04 1.43036E-03
 -1      1879 4.52067E-02-3.53055E-04 1.43029E-03
 -1      1880 4.38084E-02-3.60349E-04 1.43021E-03
 -1      1881 4.59069E-02-2.69022E-06 1.43041E-03
 -1      1882 8.72261E-02-3.57409E-04 1.43240E-03
 -1      1883 8.58197E-02-3.55332E-04 1.43233E-03
 -1      1884 8.44223E-02-3.55570E-04 1.43226E-03
 -1      1885 8.30218E-02-3.55480E-04 1.43219E-03
 -1      1886 8.51193E-02-4.87760E-06 1.43238E-03
 -1      1887 5.08089E-02-3.53416E-04 1.43057E-03
 -1      1888 4.94083E-02-3.53327E-04 1.43050E-03
 -1      1889 5.35719E-02-3.60198E-04 1.43071E-03
 -1      1890 5.22095E-02-3.53504E-04 1.43064E-03
 -1      1891 5.15091E-02-3.04948E-06 1.43069E-03
 -1      1892 3.25929E-02 3.49668E-04 1.42983E-03
 -1      1893 3.39998E-02 3.46232E-04 1.42990E-03
 -1      1894 3.54055E-02 3.46469E-04 1.42997E-03
 -1      1895 3.68134E-02 3.49908E-04 1.43004E-03
 -1      1896 3.47030E-02-6.14272E-06 1.42985E-03
 -1      1897 2.27969E-02-3.59578E-04 1.42914E-03
 -1      1898 2.13899E-02-3.59728E-04 1.42906E-03
 -1      1899 2.55958E-02-3.60884E-04 1.42929E-03
 -1      1900 2.41975E-02-3.59004E-04 1.42922E-03
 -1      1901 2.34964E-02-3.14029E-06 1.42927E-03
 -1      1902 3.68107E-02-3.60067E-04 1.42986E-03
 -1      1903 3.54056E-02-3.60715E-04 1.42979E-03
 -1      1904 3.82138E-02-3.61297E-04 1.42993E-03
 -1      1905 3.75118E-02-7.13674E-06 1.42999E-03
 -1      1906 3.96142E-02-3.63578E-04 1.43000E-03
 -1      1907 2.62123E-03 1.26550E-04 1.29265E-03
 -1      1908 2.87336E-03 4.29613E-04 1.30400E-03
 -1      1909 3.60342E-03 3.17637E-04 1.38087E-03
 -1      1910 9.21432E-02 1.61519E-04 1.43278E-03
 -1      1911 9.18955E-02 5.09116E-04 1.43285E-03
 -1      1912 9.10898E-02 3.39574E-04 1.43277E-03
 -1      1913 7.60190E-02-3.55031E-04 1.43184E-03
 -1      1914 7.46184E-02-3.54942E-04 1.43177E-03
 -1      1915 7.32179E-02-3.54852E-04 1.43170E-03
 -1      1916 7.18173E-02-3.54762E-04 1.43163E-03
 -1      1917 6.90160E-02 3.46236E-04 1.43166E-03
 -1      1918 7.04166E-02 3.46146E-04 1.43173E-03
 -1      1919 6.62149E-02 3.46416E-04 1.43152E-03
 -1      1920 6.76155E-02 3.46326E-04 1.43159E-03
 -1      1921 1.57944E-02 3.49768E-04 1.42913E-03
 -1      1922 1.71952E-02 3.52190E-04 1.42904E-03
 -1      1923 1.29914E-02 3.53600E-04 1.43065E-03
 -1      1924 1.43932E-02 3.50153E-04 1.42940E-03
 -1      1925 8.77149E-03-3.62173E-04 1.44262E-03
 -1      1926 7.36324E-03-3.63275E-04 1.44854E-03
 -1      1927 1.15860E-02-3.55839E-04 1.43225E-03
 -1      1928 1.01760E-02-3.60584E-04 1.43530E-03
 -1      1929 6.74608E-03 5.64504E-06 1.45365E-03
 -1      1930 6.06674E-03 3.75856E-04 1.44902E-03
 -1      1931 4.63372E-03 3.49913E-04 1.43435E-03
 -1      1932 5.78115E-02 3.49575E-04 1.43110E-03
 -1      1933 5.92121E-02 3.46867E-04 1.43117E-03
 -1      1934 5.71113E-02-4.79905E-06 1.43097E-03
 -1      1935 5.49724E-02-3.61680E-04 1.43078E-03
 -1      1936 5.64493E-02-3.61775E-04 1.43085E-03
 -1      1937 7.74194E-02 3.45698E-04 1.43208E-03
 -1      1938 7.88199E-02 3.45608E-04 1.43216E-03
 -1      1939 7.67192E-02-4.66671E-06 1.43196E-03
 -1      1940 6.48145E-02-3.54314E-04 1.43127E-03
 -1      1941 6.34139E-02-3.54224E-04 1.43120E-03
 -1      1942 6.55147E-02-3.94894E-06 1.43140E-03
 -1      1943 4.38070E-02 3.50282E-04 1.43039E-03
 -1      1944 4.52065E-02 3.47764E-04 1.43046E-03
 -1      1945 4.31197E-02-6.41274E-06 1.43027E-03
 -1      1946 4.10233E-02-3.64508E-04 1.43007E-03
 -1      1947 4.24218E-02-3.64163E-04 1.43014E-03
 -1      1948 2.97875E-02 3.47866E-04 1.42969E-03
 -1      1949 3.11892E-02 3.49089E-04 1.42976E-03
 -1      1950 2.90808E-02-8.30689E-06 1.42956E-03
 -1      1951 2.69831E-02-3.64143E-04 1.42937E-03
 -1      1952 2.83816E-02-3.63711E-04 1.42944E-03
 -1      1953 1.78956E-02-2.29195E-06 1.42894E-03
 -1      1954 1.99902E-02-3.59750E-04 1.42897E-03
 -1      1955 1.85843E-02-3.58813E-04 1.42890E-03
 -1      1956 1.22869E-02-5.07383E-07 1.43110E-03
 -1      1957 7.11169E-02-4.30785E-06 1.43168E-03
 -1      1958 6.27130E-02 6.97773E-04-1.42571E-03
 -1      1959 7.39174E-02 6.97055E-04-1.42515E-03
 -1      1960 7.95200E-02-7.04941E-04-1.42522E-03
 -1      1961 8.78941E-02 7.10147E-04-1.42444E-03
 -1      1962 5.43096E-02 7.02801E-04-1.42613E-03
 -1      1963 6.83155E-02-7.04224E-04-1.42578E-03
 -1      1964 4.87073E-02 6.98670E-04-1.42641E-03
 -1      1965 1.50936E-02-7.01232E-04-1.42886E-03
 -1      1966 2.06961E-02 7.00431E-04-1.42779E-03
 -1      1967 9.48143E-03 7.19198E-04-1.43652E-03
 -1      1968 3.19009E-02-7.01891E-04-1.42761E-03
 -1      1969 4.02916E-02-7.04631E-04-1.42719E-03
 -1      1970 2.62987E-02-7.01529E-04-1.42789E-03
 -1      1971 3.87637E-03-6.56452E-04-1.38963E-03
 -1      1972 5.99121E-02-7.03685E-04-1.42621E-03
 -1      1973 8.23208E-02 6.96517E-04-1.42472E-03
 -1      1974 9.08553E-02-6.97375E-04-1.42465E-03
 -1      1975 4.59065E-02-7.02788E-04-1.42691E-03
 -1      1976 8.51222E-02-7.05300E-04-1.42494E-03
 -1      1977 5.15088E-02-7.03147E-04-1.42663E-03
 -1      1978 3.47017E-02 6.99567E-04-1.42712E-03
 -1      1979 4.30960E-02 7.10283E-04-1.42669E-03
 -1      1980 2.90995E-02 6.99926E-04-1.42740E-03
 -1      1981 1.90635E-03 1.98290E-04-1.13650E-03
 -1      1982 9.29485E-02 3.31785E-04-1.42428E-03
 -1      1983 7.39177E-02-7.04583E-04-1.42550E-03
 -1      1984 6.83152E-02 6.97414E-04-1.42543E-03
 -1      1985 2.06964E-02-7.01134E-04-1.42814E-03
 -1      1986 1.50934E-02 7.01247E-04-1.42841E-03
 -1      1987 9.47559E-03-7.20131E-04-1.43691E-03
 -1      1988 6.67859E-03-7.26133E-04-1.44567E-03
 -1      1989 5.42969E-03 1.01645E-05-1.45632E-03
 -1      1990 8.79350E-02-7.09455E-04-1.42480E-03
 -1      1991 5.99118E-02 6.97953E-04-1.42585E-03
 -1      1992 5.71107E-02 7.03370E-04-1.42599E-03
 -1      1993 5.57103E-02-5.37873E-06-1.42624E-03
 -1      1994 7.67186E-02 6.96876E-04-1.42500E-03
 -1      1995 4.59055E-02 7.04387E-04-1.42655E-03
 -1      1996 6.55144E-02-7.04044E-04-1.42592E-03
 -1      1997 8.23211E-02-7.05121E-04-1.42508E-03
 -1      1998 7.67189E-02-7.04762E-04-1.42536E-03
 -1      1999 3.19006E-02 6.99747E-04-1.42726E-03
 -1      2000 3.47020E-02-7.02071E-04-1.42747E-03
 -1      2001 3.75010E-02-7.07107E-04-1.42733E-03
 -1      2002 3.88757E-02 6.28240E-06-1.42708E-03
 -1      2003 2.34973E-02 7.00274E-04-1.42767E-03
 -1      2004 2.62984E-02 7.00104E-04-1.42754E-03
 -1      2005 8.51219E-02 6.96338E-04-1.42458E-03
 -1      2006 4.30906E-02-7.09666E-04-1.42705E-03
 -1      2007 2.34976E-02-7.01338E-04-1.42803E-03
 -1      2008 4.87076E-02-7.02968E-04-1.42677E-03
 -1      2009 1.78949E-02 7.00637E-04-1.42796E-03
 -1      2010 1.22907E-02-7.08715E-04-1.43110E-03
 -1      2011 1.22912E-02 7.08843E-04-1.43077E-03
 -1      2012 1.78952E-02-7.00987E-04-1.42831E-03
 -1      2013 7.11163E-02 6.97235E-04-1.42529E-03
 -1      2014 2.90998E-02-7.01711E-04-1.42776E-03
 -1      2015 6.55141E-02 6.97594E-04-1.42557E-03
 -1      2016 5.15085E-02 7.01023E-04-1.42627E-03
 -1      2017 7.95197E-02 6.96697E-04-1.42486E-03
 -1      2018 7.11166E-02-7.04403E-04-1.42564E-03
 -1      2019 6.27133E-02-7.03865E-04-1.42606E-03
 -1      2020 8.06836E-03 3.09706E-06-1.44752E-03
 -1      2021 6.72235E-03 7.38735E-04-1.44506E-03
 -1      2022 2.00772E-03-2.26012E-04-1.16822E-03
 -1      2023 5.42336E-02-7.16535E-04-1.42649E-03
 -1      2024 5.71873E-02-7.16724E-04-1.42635E-03
 -1      2025 4.16939E-02 4.42259E-06-1.42694E-03
 -1      2026 3.74982E-02 7.14155E-04-1.42697E-03
 -1      2027 8.91753E-02 3.31896E-06-1.42455E-03
 -1      2028 8.65162E-02-3.91619E-06-1.42469E-03
 -1      2029 7.25170E-02-3.67388E-06-1.42539E-03
 -1      2030 6.97159E-02-3.49445E-06-1.42553E-03
 -1      2031 6.69148E-02-3.31502E-06-1.42568E-03
 -1      2032 8.37215E-02-4.39160E-06-1.42483E-03
 -1      2033 7.81193E-02-4.03274E-06-1.42511E-03
 -1      2034 5.01081E-02-2.23845E-06-1.42652E-03
 -1      2035 6.13125E-02-2.95536E-06-1.42596E-03
 -1      2036 4.44999E-02 7.63191E-07-1.42680E-03
 -1      2037 1.92957E-02-2.67114E-07-1.42802E-03
 -1      2038 1.64944E-02-8.72138E-08-1.42822E-03
 -1      2039 1.36918E-02 1.55945E-07-1.42929E-03
 -1      2040 1.08808E-02 3.66365E-07-1.43339E-03
 -1      2041 7.53181E-02-3.85331E-06-1.42525E-03
 -1      2042 2.20969E-02-4.41459E-07-1.42790E-03
 -1      2043 6.41137E-02-3.13545E-06-1.42582E-03
 -1      2044 3.05002E-02-9.82302E-07-1.42751E-03
 -1      2045 2.76991E-02-8.02601E-07-1.42765E-03
 -1      2046 2.48980E-02-6.22878E-07-1.42778E-03
 -1      2047 8.09204E-02-4.21217E-06-1.42497E-03
 -1      2048 3.33013E-02-1.16263E-06-1.42737E-03
 -1      2049 4.73069E-02-2.05902E-06-1.42666E-03
 -1      2050 5.29092E-02-2.41313E-06-1.42638E-03
 -1      2051 5.85114E-02-2.77199E-06-1.42610E-03
 -1      2052 4.02953E-02 7.14844E-04-1.42683E-03
 -1      2053 3.61025E-02-1.34603E-06-1.42723E-03
 -1      2054 9.28641E-02-3.62120E-04-1.42446E-03
 -1      2055 3.88511E-03 6.58277E-04-1.38873E-03
 -1      2056 9.08416E-02 6.87894E-04-1.42430E-03
 -1      2057 3.35799E-03 2.40601E-07-1.38033E-03
 -1      2058 1.81449E-03-5.79153E-04-1.07269E-03
 -1      2059 1.79374E-03 5.75507E-04-1.05103E-03
 -1      2060 9.31394E-02-9.29215E-04-1.42459E-03
 -1      2061 9.31532E-02 9.15192E-04-1.42412E-03
 -1      2062 9.13370E-02-7.29950E-06-1.42445E-03
 -1      2063 9.50206E-04 4.18953E-04-6.88564E-04
 -1      2064 8.99677E-04 2.63685E-04-7.17311E-04
 -1      2065 2.37237E-03 9.19985E-04-1.14668E-03
 -1      2066 8.82473E-04-2.67141E-04-6.84840E-04
 -1      2067 9.64230E-04-4.21619E-04-6.91466E-04
 -1      2068 2.38168E-03-9.22486E-04-1.15383E-03
 -1      2069 9.40395E-02 8.12184E-04-1.42410E-03
 -1      2070 9.40395E-02 1.16933E-03-1.42401E-03
 -1      2071 9.26389E-02 1.16942E-03-1.42408E-03
 -1      2072 9.40328E-02-1.18145E-03-1.42461E-03
 -1      2073 9.40328E-02-8.24305E-04-1.42452E-03
 -1      2074 9.26323E-02-1.18136E-03-1.42468E-03
 -1      2075 9.35780E-04 1.81548E-04-7.40720E-04
 -1      2076 9.65249E-04 5.70548E-05-7.70296E-04
 -1      2077 1.84101E-03 3.86578E-04-1.10549E-03
 -1      2078 9.80791E-04-6.26344E-05-7.59447E-04
 -1      2079 1.03510E-03-1.89570E-04-7.86824E-04
 -1      2080 1.95442E-03-1.53467E-06-1.16096E-03
 -1      2081 1.90861E-03-3.98573E-04-1.13527E-03
 -1      2082 9.39372E-02 1.63338E-04-1.42427E-03
 -1      2083 9.39372E-02 5.20481E-04-1.42418E-03
 -1      2084 9.30509E-02 6.23488E-04-1.42420E-03
 -1      2085 9.38951E-02-5.40758E-04-1.42445E-03
 -1      2086 9.38950E-02-1.83615E-04-1.42436E-03
 -1      2087 9.29063E-02-1.51675E-05-1.42437E-03
 -1      2088 9.30017E-02-6.45667E-04-1.42453E-03
 -1      2089 4.67808E-03 1.05016E-03-1.39804E-03
 -1      2090 3.37147E-03 9.62460E-04-1.30622E-03
 -1      2091 2.83418E-03 6.77623E-04-1.28371E-03
 -1      2092 7.42902E-03 1.09069E-03-1.43866E-03
 -1      2093 6.07170E-03 1.08800E-03-1.43069E-03
 -1      2094 5.29529E-03 7.15500E-04-1.43156E-03
 -1      2095 1.01899E-02 1.07656E-03-1.43385E-03
 -1      2096 8.79875E-03 1.08117E-03-1.43725E-03
 -1      2097 8.09814E-03 7.29197E-04-1.44228E-03
 -1      2098 1.29919E-02 1.06929E-03-1.42993E-03
 -1      2099 1.15924E-02 1.07144E-03-1.43147E-03
 -1      2100 1.08857E-02 7.13071E-04-1.43307E-03
 -1      2101 1.57936E-02 1.06491E-03-1.42823E-03
 -1      2102 1.43929E-02 1.06545E-03-1.42879E-03
 -1      2103 1.36921E-02 7.04646E-04-1.42916E-03
 -1      2104 1.85951E-02 1.06446E-03-1.42784E-03
 -1      2105 1.71943E-02 1.06462E-03-1.42798E-03
 -1      2106 1.64942E-02 7.00816E-04-1.42814E-03
 -1      2107 2.13963E-02 1.06427E-03-1.42768E-03
 -1      2108 1.99957E-02 1.06436E-03-1.42775E-03
 -1      2109 1.92955E-02 7.00519E-04-1.42786E-03
 -1      2110 2.41975E-02 1.06411E-03-1.42755E-03
 -1      2111 2.27969E-02 1.06419E-03-1.42761E-03
 -1      2112 2.20967E-02 7.00355E-04-1.42773E-03
 -1      2113 2.69986E-02 1.06394E-03-1.42741E-03
 -1      2114 2.55980E-02 1.06402E-03-1.42748E-03
 -1      2115 2.48978E-02 7.00190E-04-1.42761E-03
 -1      2116 2.97997E-02 1.06376E-03-1.42727E-03
 -1      2117 2.83991E-02 1.06385E-03-1.42734E-03
 -1      2118 2.76989E-02 7.00015E-04-1.42747E-03
 -1      2119 3.26008E-02 1.06358E-03-1.42713E-03
 -1      2120 3.12003E-02 1.06367E-03-1.42720E-03
 -1      2121 3.05001E-02 6.99837E-04-1.42733E-03
 -1      2122 3.54019E-02 1.06340E-03-1.42699E-03
 -1      2123 3.40014E-02 1.06349E-03-1.42706E-03
 -1      2124 3.33012E-02 6.99657E-04-1.42719E-03
 -1      2125 3.82007E-02 1.07060E-03-1.42685E-03
 -1      2126 3.68002E-02 1.07069E-03-1.42692E-03
 -1      2127 3.61000E-02 7.06861E-04-1.42705E-03
 -1      2128 4.09998E-02 1.07086E-03-1.42671E-03
 -1      2129 3.95993E-02 1.07095E-03-1.42678E-03
 -1      2130 3.88967E-02 7.14500E-04-1.42690E-03
 -1      2131 4.38008E-02 1.06849E-03-1.42657E-03
 -1      2132 4.24002E-02 1.06858E-03-1.42664E-03
 -1      2133 4.16956E-02 7.12563E-04-1.42676E-03
 -1      2134 4.66060E-02 1.06545E-03-1.42643E-03
 -1      2135 4.52055E-02 1.06554E-03-1.42650E-03
 -1      2136 4.45007E-02 7.07335E-04-1.42662E-03
 -1      2137 4.94075E-02 1.06250E-03-1.42629E-03
 -1      2138 4.80070E-02 1.06259E-03-1.42636E-03
 -1      2139 4.73064E-02 7.01529E-04-1.42648E-03
 -1      2140 5.22087E-02 1.06359E-03-1.42615E-03
 -1      2141 5.08081E-02 1.06368E-03-1.42622E-03
 -1      2142 5.01079E-02 6.99847E-04-1.42634E-03
 -1      2143 5.50098E-02 1.06439E-03-1.42600E-03
 -1      2144 5.36092E-02 1.06448E-03-1.42607E-03
 -1      2145 5.29090E-02 7.01912E-04-1.42620E-03
 -1      2146 5.78109E-02 1.06458E-03-1.42586E-03
 -1      2147 5.64103E-02 1.06467E-03-1.42593E-03
 -1      2148 5.57101E-02 7.03086E-04-1.42606E-03
 -1      2149 6.06120E-02 1.06178E-03-1.42572E-03
 -1      2150 5.92115E-02 1.06187E-03-1.42579E-03
 -1      2151 5.85113E-02 7.00661E-04-1.42592E-03
 -1      2152 6.34132E-02 1.06160E-03-1.42558E-03
 -1      2153 6.20126E-02 1.06169E-03-1.42565E-03
 -1      2154 6.13124E-02 6.97863E-04-1.42578E-03
 -1      2155 6.62143E-02 1.06143E-03-1.42544E-03
 -1      2156 6.48137E-02 1.06151E-03-1.42551E-03
 -1      2157 6.41135E-02 6.97683E-04-1.42564E-03
 -1      2158 6.90154E-02 1.06125E-03-1.42530E-03
 -1      2159 6.76148E-02 1.06134E-03-1.42537E-03
 -1      2160 6.69146E-02 6.97504E-04-1.42550E-03
 -1      2161 7.18165E-02 1.06107E-03-1.42516E-03
 -1      2162 7.04160E-02 1.06116E-03-1.42523E-03
 -1      2163 6.97158E-02 6.97325E-04-1.42536E-03
 -1      2164 7.46176E-02 1.06089E-03-1.42502E-03
 -1      2165 7.32171E-02 1.06098E-03-1.42509E-03
 -1      2166 7.25169E-02 6.97145E-04-1.42522E-03
 -1      2167 7.74188E-02 1.06071E-03-1.42488E-03
 -1      2168 7.60182E-02 1.06080E-03-1.42495E-03
 -1      2169 7.53180E-02 6.96966E-04-1.42507E-03
 -1      2170 8.02199E-02 1.06053E-03-1.42474E-03
 -1      2171 7.88193E-02 1.06062E-03-1.42481E-03
 -1      2172 7.81191E-02 6.96786E-04-1.42493E-03
 -1      2173 8.30210E-02 1.06035E-03-1.42460E-03
 -1      2174 8.16204E-02 1.06044E-03-1.42467E-03
 -1      2175 8.09202E-02 6.96607E-04-1.42479E-03
 -1      2176 8.58221E-02 1.06017E-03-1.42445E-03
 -1      2177 8.44216E-02 1.06026E-03-1.42452E-03
 -1      2178 8.37214E-02 6.96427E-04-1.42465E-03
 -1      2179 8.86088E-02 1.06698E-03-1.42431E-03
 -1      2180 8.72082E-02 1.06707E-03-1.42438E-03
 -1      2181 8.65080E-02 7.03243E-04-1.42451E-03
 -1      2182 9.14831E-02 1.05577E-03-1.42417E-03
 -1      2183 9.00825E-02 1.05586E-03-1.42424E-03
 -1      2184 8.93679E-02 6.99021E-04-1.42437E-03
 -1      2185 9.19974E-02 8.01543E-04-1.42421E-03
 -1      2186 3.36755E-03-9.59613E-04-1.30928E-03
 -1      2187 4.67175E-03-1.04664E-03-1.39787E-03
 -1      2188 2.84143E-03-6.75939E-04-1.28893E-03
 -1      2189 6.04622E-03-1.08097E-03-1.43020E-03
 -1      2190 7.40729E-03-1.08420E-03-1.44011E-03
 -1      2191 5.27025E-03-7.09561E-04-1.43573E-03
 -1      2192 8.79646E-03-1.08085E-03-1.43745E-03
 -1      2193 1.01874E-02-1.07663E-03-1.43452E-03
 -1      2194 8.07383E-03-7.24461E-04-1.44250E-03
 -1      2195 1.15925E-02-1.07108E-03-1.43208E-03
 -1      2196 1.29918E-02-1.06910E-03-1.43046E-03
 -1      2197 1.08826E-02-7.13363E-04-1.43343E-03
 -1      2198 1.43932E-02-1.06539E-03-1.42931E-03
 -1      2199 1.57940E-02-1.06501E-03-1.42879E-03
 -1      2200 1.36921E-02-7.04589E-04-1.42961E-03
 -1      2201 1.71948E-02-1.06488E-03-1.42852E-03
 -1      2202 1.85955E-02-1.06489E-03-1.42838E-03
 -1      2203 1.64944E-02-7.00990E-04-1.42850E-03
 -1      2204 1.99961E-02-1.06497E-03-1.42828E-03
 -1      2205 2.13968E-02-1.06506E-03-1.42821E-03
 -1      2206 1.92958E-02-7.01042E-04-1.42821E-03
 -1      2207 2.27973E-02-1.06517E-03-1.42815E-03
 -1      2208 2.41979E-02-1.06526E-03-1.42809E-03
 -1      2209 2.20970E-02-7.01237E-04-1.42809E-03
 -1      2210 2.55985E-02-1.06536E-03-1.42802E-03
 -1      2211 2.69990E-02-1.06545E-03-1.42795E-03
 -1      2212 2.48981E-02-7.01435E-04-1.42796E-03
 -1      2213 2.83996E-02-1.06554E-03-1.42788E-03
 -1      2214 2.98002E-02-1.06563E-03-1.42781E-03
 -1      2215 2.76992E-02-7.01621E-04-1.42782E-03
 -1      2216 3.12007E-02-1.06572E-03-1.42774E-03
 -1      2217 3.26013E-02-1.06581E-03-1.42767E-03
 -1      2218 3.05004E-02-7.01801E-04-1.42769E-03
 -1      2219 3.40018E-02-1.06590E-03-1.42760E-03
 -1      2220 3.54024E-02-1.06599E-03-1.42753E-03
 -1      2221 3.33015E-02-7.01981E-04-1.42754E-03
 -1      2222 3.68019E-02-1.06851E-03-1.42746E-03
 -1      2223 3.82025E-02-1.06860E-03-1.42739E-03
 -1      2224 3.61015E-02-7.04589E-04-1.42740E-03
 -1      2225 3.95977E-02-1.06736E-03-1.42732E-03
 -1      2226 4.09983E-02-1.06745E-03-1.42725E-03
 -1      2227 3.88963E-02-7.05869E-04-1.42726E-03
 -1      2228 4.23978E-02-1.06997E-03-1.42718E-03
 -1      2229 4.37983E-02-1.07006E-03-1.42711E-03
 -1      2230 4.16911E-02-7.07148E-04-1.42712E-03
 -1      2231 4.52063E-02-1.06662E-03-1.42704E-03
 -1      2232 4.66069E-02-1.06671E-03-1.42697E-03
 -1      2233 4.44986E-02-7.06227E-04-1.42698E-03
 -1      2234 4.80074E-02-1.06680E-03-1.42690E-03
 -1      2235 4.94080E-02-1.06689E-03-1.42683E-03
 -1      2236 4.73071E-02-7.02878E-04-1.42684E-03
 -1      2237 5.08086E-02-1.06698E-03-1.42676E-03
 -1      2238 5.22091E-02-1.06707E-03-1.42669E-03
 -1      2239 5.01082E-02-7.03057E-04-1.42670E-03
 -1      2240 5.35715E-02-1.07376E-03-1.42662E-03
 -1      2241 5.49721E-02-1.07385E-03-1.42655E-03
 -1      2242 5.28712E-02-7.09841E-04-1.42656E-03
 -1      2243 5.64490E-02-1.07395E-03-1.42647E-03
 -1      2244 5.78495E-02-1.07404E-03-1.42640E-03
 -1      2245 5.57104E-02-7.16629E-04-1.42642E-03
 -1      2246 5.92119E-02-1.06752E-03-1.42633E-03
 -1      2247 6.06125E-02-1.06761E-03-1.42626E-03
 -1      2248 5.85497E-02-7.10205E-04-1.42628E-03
 -1      2249 6.20130E-02-1.06770E-03-1.42619E-03
 -1      2250 6.34136E-02-1.06779E-03-1.42612E-03
 -1      2251 6.13127E-02-7.03775E-04-1.42613E-03
 -1      2252 6.48142E-02-1.06788E-03-1.42605E-03
 -1      2253 6.62147E-02-1.06797E-03-1.42598E-03
 -1      2254 6.41138E-02-7.03955E-04-1.42599E-03
 -1      2255 6.76153E-02-1.06806E-03-1.42591E-03
 -1      2256 6.90158E-02-1.06814E-03-1.42584E-03
 -1      2257 6.69149E-02-7.04134E-04-1.42585E-03
 -1      2258 7.04164E-02-1.06823E-03-1.42577E-03
 -1      2259 7.18170E-02-1.06832E-03-1.42570E-03
 -1      2260 6.97161E-02-7.04313E-04-1.42571E-03
 -1      2261 7.32175E-02-1.06841E-03-1.42563E-03
 -1      2262 7.46181E-02-1.06850E-03-1.42556E-03
 -1      2263 7.25172E-02-7.04493E-04-1.42557E-03
 -1      2264 7.60186E-02-1.06859E-03-1.42549E-03
 -1      2265 7.74192E-02-1.06868E-03-1.42542E-03
 -1      2266 7.53183E-02-7.04672E-04-1.42543E-03
 -1      2267 7.88198E-02-1.06877E-03-1.42535E-03
 -1      2268 8.02203E-02-1.06886E-03-1.42528E-03
 -1      2269 7.81194E-02-7.04852E-04-1.42529E-03
 -1      2270 8.16209E-02-1.06895E-03-1.42521E-03
 -1      2271 8.30214E-02-1.06904E-03-1.42513E-03
 -1      2272 8.09205E-02-7.05031E-04-1.42515E-03
 -1      2273 8.44220E-02-1.06913E-03-1.42506E-03
 -1      2274 8.58226E-02-1.06922E-03-1.42499E-03
 -1      2275 8.37217E-02-7.05211E-04-1.42501E-03
 -1      2276 8.72290E-02-1.07130E-03-1.42492E-03
 -1      2277 8.86295E-02-1.07139E-03-1.42485E-03
 -1      2278 8.65286E-02-7.07378E-04-1.42487E-03
 -1      2279 9.00897E-02-1.06535E-03-1.42478E-03
 -1      2280 9.14902E-02-1.06544E-03-1.42471E-03
 -1      2281 8.93952E-02-7.03415E-04-1.42472E-03
 -1      2282 9.19974E-02-8.13295E-04-1.42462E-03
 -1      2283 6.20127E-02 3.47409E-04-1.42583E-03
 -1      2284 6.06122E-02 3.47499E-04-1.42590E-03
 -1      2285 6.48139E-02 3.47229E-04-1.42569E-03
 -1      2286 6.34133E-02 3.47319E-04-1.42576E-03
 -1      2287 6.27131E-02-3.04542E-06-1.42589E-03
 -1      2288 7.60183E-02 3.46511E-04-1.42513E-03
 -1      2289 7.46178E-02 3.46601E-04-1.42520E-03
 -1      2290 7.32172E-02 3.46691E-04-1.42527E-03
 -1      2291 7.18167E-02 3.46780E-04-1.42534E-03
 -1      2292 7.39176E-02-3.76360E-06-1.42532E-03
 -1      2293 8.02202E-02-3.54577E-04-1.42509E-03
 -1      2294 8.16207E-02-3.54667E-04-1.42502E-03
 -1      2295 7.74191E-02-3.54397E-04-1.42524E-03
 -1      2296 7.88196E-02-3.54487E-04-1.42517E-03
 -1      2297 7.95198E-02-4.12246E-06-1.42504E-03
 -1      2298 8.72051E-02 3.53116E-04-1.42456E-03
 -1      2299 8.58190E-02 3.46211E-04-1.42464E-03
 -1      2300 8.78457E-02-2.98612E-07-1.42462E-03
 -1      2301 8.85347E-02 3.56733E-04-1.42450E-03
 -1      2302 9.00085E-02 3.45606E-04-1.42442E-03
 -1      2303 5.64105E-02 3.48996E-04-1.42611E-03
 -1      2304 5.50099E-02 3.48711E-04-1.42619E-03
 -1      2305 5.43097E-02-3.89593E-06-1.42631E-03
 -1      2306 5.36094E-02 3.50194E-04-1.42626E-03
 -1      2307 5.22088E-02 3.49305E-04-1.42633E-03
 -1      2308 6.62146E-02-3.53680E-04-1.42580E-03
 -1      2309 6.76151E-02-3.53769E-04-1.42573E-03
 -1      2310 6.90157E-02-3.53859E-04-1.42566E-03
 -1      2311 7.04163E-02-3.53949E-04-1.42559E-03
 -1      2312 6.83153E-02-3.40474E-06-1.42560E-03
 -1      2313 4.80071E-02 3.48306E-04-1.42654E-03
 -1      2314 4.66062E-02 3.51164E-04-1.42661E-03
 -1      2315 5.08083E-02 3.49392E-04-1.42640E-03
 -1      2316 4.94077E-02 3.48216E-04-1.42647E-03
 -1      2317 4.87075E-02-2.14873E-06-1.42659E-03
 -1      2318 1.29909E-02-3.54123E-04-1.43008E-03
 -1      2319 1.43929E-02-3.50743E-04-1.42902E-03
 -1      2320 1.57941E-02-3.50581E-04-1.42849E-03
 -1      2321 1.71948E-02-3.50550E-04-1.42825E-03
 -1      2322 1.50933E-02 5.61212E-09-1.42858E-03
 -1      2323 2.27971E-02 3.49912E-04-1.42779E-03
 -1      2324 2.13965E-02 3.49996E-04-1.42785E-03
 -1      2325 1.99959E-02 3.50075E-04-1.42791E-03
 -1      2326 1.85953E-02 3.50169E-04-1.42797E-03
 -1      2327 2.06963E-02-3.53297E-07-1.42796E-03
 -1      2328 1.15860E-02 3.55604E-04-1.43216E-03
 -1      2329 1.01789E-02 3.59352E-04-1.43531E-03
 -1      2330 7.38531E-03 3.71237E-04-1.44871E-03
 -1      2331 8.77379E-03 3.63860E-04-1.44146E-03
 -1      2332 9.47539E-03 1.65643E-06-1.43926E-03
 -1      2333 3.26011E-02-3.51527E-04-1.42749E-03
 -1      2334 3.40017E-02-3.51617E-04-1.42742E-03
 -1      2335 2.98000E-02-3.51347E-04-1.42763E-03
 -1      2336 3.12006E-02-3.51437E-04-1.42756E-03
 -1      2337 3.19008E-02-1.07248E-06-1.42744E-03
 -1      2338 3.81884E-02-3.50412E-04-1.42721E-03
 -1      2339 3.95836E-02-3.49174E-04-1.42714E-03
 -1      2340 4.02848E-02 5.35251E-06-1.42701E-03
 -1      2341 4.09928E-02-3.50104E-04-1.42707E-03
 -1      2342 4.23923E-02-3.52622E-04-1.42700E-03
 -1      2343 2.41978E-02-3.50981E-04-1.42790E-03
 -1      2344 2.55983E-02-3.51075E-04-1.42784E-03
 -1      2345 2.69989E-02-3.51166E-04-1.42777E-03
 -1      2346 2.83995E-02-3.51257E-04-1.42770E-03
 -1      2347 2.62985E-02-7.12728E-07-1.42772E-03
 -1      2348 4.62749E-03-3.40178E-04-1.43670E-03
 -1      2349 6.04338E-03-3.60848E-04-1.45009E-03
 -1      2350 3.59863E-03-3.17707E-04-1.38420E-03
 -1      2351 4.38342E-03 3.59430E-06-1.43825E-03
 -1      2352 2.67222E-03-1.41117E-04-1.29350E-03
 -1      2353 2.92016E-03-4.40765E-04-1.31319E-03
 -1      2354 6.06123E-02-3.53320E-04-1.42608E-03
 -1      2355 6.20129E-02-3.53410E-04-1.42601E-03
 -1      2356 5.78494E-02-3.59748E-04-1.42622E-03
 -1      2357 5.92118E-02-3.53229E-04-1.42615E-03
 -1      2358 5.99120E-02-2.86368E-06-1.42603E-03
 -1      2359 8.44217E-02 3.45973E-04-1.42471E-03
 -1      2360 8.30211E-02 3.46063E-04-1.42478E-03
 -1      2361 8.16206E-02 3.46152E-04-1.42485E-03
 -1      2362 8.02200E-02 3.46242E-04-1.42492E-03
 -1      2363 8.23209E-02-4.30189E-06-1.42490E-03
 -1      2364 8.85552E-02-3.53068E-04-1.42467E-03
 -1      2365 9.00153E-02-3.47028E-04-1.42460E-03
 -1      2366 9.02561E-02-1.99027E-06-1.42450E-03
 -1      2367 9.10961E-02-3.52337E-04-1.42455E-03
 -1      2368 9.18597E-02-5.29748E-04-1.42455E-03
 -1      2369 9.21005E-02-1.84710E-04-1.42445E-03
 -1      2370 4.37952E-02-3.54451E-04-1.42693E-03
 -1      2371 4.52032E-02-3.51013E-04-1.42686E-03
 -1      2372 4.66067E-02-3.52424E-04-1.42679E-03
 -1      2373 4.80073E-02-3.52513E-04-1.42672E-03
 -1      2374 4.59034E-02-6.47913E-07-1.42673E-03
 -1      2375 8.58192E-02-3.54608E-04-1.42481E-03
 -1      2376 8.72256E-02-3.56685E-04-1.42474E-03
 -1      2377 8.30213E-02-3.54756E-04-1.42495E-03
 -1      2378 8.44219E-02-3.54846E-04-1.42488E-03
 -1      2379 8.51188E-02-4.15391E-06-1.42476E-03
 -1      2380 4.94079E-02-3.52603E-04-1.42664E-03
 -1      2381 5.08084E-02-3.52693E-04-1.42657E-03
 -1      2382 5.22090E-02-3.52780E-04-1.42650E-03
 -1      2383 5.35714E-02-3.59474E-04-1.42644E-03
 -1      2384 5.15086E-02-2.32579E-06-1.42645E-03
 -1      2385 3.40015E-02 3.49202E-04-1.42724E-03
 -1      2386 3.26010E-02 3.49292E-04-1.42731E-03
 -1      2387 3.68003E-02 3.56405E-04-1.42710E-03
 -1      2388 3.54021E-02 3.49111E-04-1.42717E-03
 -1      2389 3.47019E-02-1.25434E-06-1.42730E-03
 -1      2390 4.52027E-02 3.52575E-04-1.42668E-03
 -1      2391 4.37980E-02 3.55523E-04-1.42675E-03
 -1      2392 4.30969E-02 2.59289E-06-1.42687E-03
 -1      2393 4.23950E-02 3.57353E-04-1.42682E-03
 -1      2394 4.09946E-02 3.59633E-04-1.42689E-03
 -1      2395 3.12004E-02 3.49382E-04-1.42738E-03
 -1      2396 2.97999E-02 3.49472E-04-1.42745E-03
 -1      2397 2.83993E-02 3.49562E-04-1.42752E-03
 -1      2398 2.69987E-02 3.49651E-04-1.42759E-03
 -1      2399 2.90997E-02-8.92497E-07-1.42758E-03
 -1      2400 2.62276E-03 1.26846E-04-1.29313E-03
 -1      2401 3.60418E-03 3.17444E-04-1.38148E-03
 -1      2402 2.87427E-03 4.29267E-04-1.30414E-03
 -1      2403 9.21427E-02 1.62243E-04-1.42436E-03
 -1      2404 9.18951E-02 5.09840E-04-1.42429E-03
 -1      2405 9.10893E-02 3.40297E-04-1.42437E-03
 -1      2406 7.46179E-02-3.54218E-04-1.42538E-03
 -1      2407 7.60185E-02-3.54308E-04-1.42531E-03
 -1      2408 7.18168E-02-3.54039E-04-1.42552E-03
 -1      2409 7.32174E-02-3.54128E-04-1.42545E-03
 -1      2410 7.04161E-02 3.46870E-04-1.42541E-03
 -1      2411 6.90155E-02 3.46960E-04-1.42548E-03
 -1      2412 6.76150E-02 3.47050E-04-1.42555E-03
 -1      2413 6.62144E-02 3.47139E-04-1.42562E-03
 -1      2414 2.13967E-02-3.50789E-04-1.42802E-03
 -1      2415 2.27972E-02-3.50886E-04-1.42797E-03
 -1      2416 1.85955E-02-3.50605E-04-1.42814E-03
 -1      2417 1.99961E-02-3.50691E-04-1.42808E-03
 -1      2418 1.71947E-02 3.50294E-04-1.42808E-03
 -1      2419 1.57939E-02 3.50503E-04-1.42831E-03
 -1      2420 1.43927E-02 3.50854E-04-1.42881E-03
 -1      2421 1.29912E-02 3.54297E-04-1.42987E-03
 -1      2422 7.36303E-03-3.62255E-04-1.44918E-03
 -1      2423 8.77088E-03-3.61206E-04-1.44180E-03
 -1      2424 1.01760E-02-3.59408E-04-1.43543E-03
 -1      2425 1.15857E-02-3.55127E-04-1.43232E-03
 -1      2426 6.74506E-03 6.68217E-06-1.45395E-03
 -1      2427 6.06617E-03 3.77203E-04-1.44984E-03
 -1      2428 4.63387E-03 3.49737E-04-1.43492E-03
 -1      2429 5.92116E-02 3.47590E-04-1.42597E-03
 -1      2430 5.78111E-02 3.50299E-04-1.42604E-03
 -1      2431 5.71109E-02-4.07536E-06-1.42617E-03
 -1      2432 5.64488E-02-3.61051E-04-1.42629E-03
 -1      2433 5.49720E-02-3.60957E-04-1.42637E-03
 -1      2434 7.88195E-02 3.46332E-04-1.42499E-03
 -1      2435 7.74189E-02 3.46422E-04-1.42506E-03
 -1      2436 7.67187E-02-3.94303E-06-1.42518E-03
 -1      2437 6.34135E-02-3.53500E-04-1.42594E-03
 -1      2438 6.48140E-02-3.53590E-04-1.42587E-03
 -1      2439 6.55142E-02-3.22525E-06-1.42575E-03
 -1      2440 3.54022E-02-3.51708E-04-1.42735E-03
 -1      2441 3.68018E-02-3.54226E-04-1.42728E-03
 -1      2442 3.74891E-02 2.46817E-06-1.42715E-03
 -1      2443 3.95855E-02 3.60563E-04-1.42696E-03
 -1      2444 3.81869E-02 3.60219E-04-1.42703E-03
 -1      2445 2.55982E-02 3.49739E-04-1.42766E-03
 -1      2446 2.41976E-02 3.49826E-04-1.42773E-03
 -1      2447 2.34974E-02-5.31704E-07-1.42785E-03
 -1      2448 1.78951E-02-1.68577E-07-1.42808E-03
 -1      2449 1.22866E-02 2.23034E-07-1.43084E-03
 -1      2450 7.11165E-02-3.58417E-06-1.42546E-03
 -1      2451 4.08892E-03-5.23983E-05-5.30129E-05
 -1      2452 9.03645E-02-5.76182E-05-4.82124E-05
 -1      2453 8.51191E-02-4.84295E-06 3.81202E-06
 -1      2454 9.45809E-03-4.13959E-08 1.24042E-06
 -1      2455 2.34977E-02-8.20121E-07 7.86442E-07
 -1      2456 7.67189E-02-4.30487E-06 3.38935E-06
 -1      2457 7.11167E-02-3.94601E-06 3.10746E-06
 -1      2458 6.55145E-02-3.58715E-06 2.82558E-06
 -1      2459 5.99122E-02-3.22829E-06 2.54369E-06
 -1      2460 5.15089E-02-2.69000E-06 2.12086E-06
 -1      2461 3.47021E-02-1.61343E-06 1.27520E-06
 -1      2462 1.78958E-02-5.25468E-07 4.17475E-07
 -1      2463 4.59066E-02-2.59319E-06 1.57679E-06
 -1      2464 2.90999E-02-7.88732E-07 5.27692E-07
 -1      2465 4.02850E-02-1.97104E-06 1.55611E-06
 -1      2466 5.57105E-02 1.55262E-04-1.56119E-04
 -1      2467 8.09189E-02 1.54075E-04-1.54968E-04
 -1      2468 1.36870E-02 1.56182E-04-1.56400E-04
 -1      2469 9.19344E-02 5.26298E-04 5.46421E-04
 -1      2470 2.52532E-03 4.61643E-04 4.62156E-04
 -1      2471 9.20117E-02 5.56580E-04-5.57421E-04
 -1      2472 2.45957E-03-4.55070E-04 4.50989E-04
 -1      2473 2.62997E-02-4.27634E-04 4.33785E-04
 -1      2474 2.06964E-02 4.27325E-04 4.30528E-04
 -1      2475 7.39180E-02-4.32948E-04 4.31854E-04
 -1      2476 7.39177E-02 4.24697E-04-4.25357E-04
 -1      2477 6.27134E-02-4.32013E-04-4.26138E-04
 -1      2478 6.83156E-02-4.32372E-04-4.25856E-04
 -1      2479 6.83156E-02 4.24839E-04 4.31789E-04
 -1      2480 6.27133E-02 4.25198E-04 4.31507E-04
 -1      2481 2.06967E-02-4.29289E-04-4.28217E-04
 -1      2482 4.87073E-02 4.26042E-04 4.30750E-04
 -1      2483 4.30960E-02-4.29729E-04 4.32110E-04
 -1      2484 3.74934E-02 4.30093E-04-4.30251E-04
 -1      2485 4.87082E-02-4.31169E-04-4.26895E-04
 -1      2486 3.19010E-02-4.30039E-04-4.27688E-04
 -1      2487 2.62978E-02 4.27840E-04-4.27845E-04
 -1      2488 4.30956E-02 4.26989E-04-4.27225E-04
 -1      2489 3.19010E-02 4.26331E-04 4.31667E-04
 -1      2490 3.74937E-02-4.31561E-04 4.33455E-04
 -1      2491 2.49657E-03 4.60912E-04-4.69363E-04
 -1      2492 9.20262E-02-5.59229E-04 5.57823E-04
 -1      2493 8.25681E-02-4.63069E-04 4.61841E-04
 -1      2494 1.53484E-02-4.60472E-04 4.58670E-04
 -1      2495 6.71736E-03 4.48106E-04 4.54735E-04
 -1      2496 8.78449E-02 4.31914E-04 4.44524E-04
 -1      2497 2.41549E-03-4.69253E-04-4.71175E-04
 -1      2498 7.92379E-02-4.66722E-04 4.65538E-04
 -1      2499 1.20106E-02-4.64054E-04 4.63939E-04
 -1      2500 9.20893E-02-5.93269E-04-5.73916E-04
 -1      2501 5.40603E-02-4.60426E-04 4.62130E-04
 -1      2502 5.73691E-02-4.81783E-04 4.22050E-04
 -1      2503 6.92728E-03-4.73237E-04-4.75904E-04
 -1      2504 8.77161E-02-5.52382E-04 2.67155E-04
 -1      2505 8.77167E-02 2.64037E-04-5.42967E-04
 -1      2506 5.77440E-02 4.99960E-04 5.07180E-04
 -1      2507 5.36769E-02 5.00299E-04 5.06846E-04
 -1      2508 8.29525E-02 4.98919E-04 5.07582E-04
 -1      2509 8.29525E-02-5.08328E-04-5.00176E-04
 -1      2510 7.88855E-02-5.08154E-04-5.00467E-04
 -1      2511 7.88855E-02 4.99266E-04 5.07463E-04
 -1      2512 1.57273E-02 5.04189E-04 5.03777E-04
 -1      2513 1.16494E-02 5.06636E-04 5.07554E-04
 -1      2514 3.68376E-02-5.11264E-04-5.05807E-04
 -1      2515 6.20416E-02 5.04978E-04-5.05434E-04
 -1      2516 7.45893E-02-5.12254E-04-5.05061E-04
 -1      2517 7.45893E-02 5.03917E-04 5.11625E-04
 -1      2518 6.89869E-02 5.04533E-04-5.05085E-04
 -1      2519 6.89873E-02-5.12152E-04 5.11086E-04
 -1      2520 6.33850E-02-5.11794E-04 5.10804E-04
 -1      2521 2.13680E-02 5.07577E-04-5.07474E-04
 -1      2522 4.93795E-02-5.10905E-04 5.10108E-04
 -1      2523 2.56271E-02-5.09099E-04-5.07505E-04
 -1      2524 3.25723E-02 5.06866E-04-5.06917E-04
 -1      2525 2.13695E-02-5.09443E-04 5.08365E-04
 -1      2526 4.93791E-02 5.05798E-04-5.06080E-04
 -1      2527 3.68359E-02 5.07001E-04 5.08055E-04
 -1      2528 2.56159E-02 5.08031E-04 5.11335E-04
 -1      2529 3.25745E-02-5.10389E-04 5.08750E-04
 -1      2530 4.37778E-02 5.07475E-04 5.09816E-04
 -1      2531 4.37696E-02-5.11412E-04-5.05970E-04
 -1      2532 5.36810E-02-5.10100E-04-4.92503E-04
 -1      2533 1.57276E-02-5.03842E-04-5.03743E-04
 -1      2534 1.16436E-02-5.05893E-04-5.08068E-04
 -1      2535 7.27501E-03 5.07956E-04-5.18126E-04
 -1      2536 7.27880E-03-5.20962E-04 5.01338E-04
 -1      2537 5.82133E-02 5.55914E-04-5.57332E-04
 -1      2538 5.34191E-02 6.42878E-04-6.18943E-04
 -1      2539 8.34216E-02 5.54657E-04-5.55381E-04
 -1      2540 7.84159E-02 5.55145E-04-5.55800E-04
 -1      2541 5.78966E-02-5.25892E-04-5.16914E-04
 -1      2542 1.11835E-02 5.58936E-04-5.64602E-04
 -1      2543 1.61870E-02 5.55000E-04-5.59133E-04
 -1      2544 8.64846E-02-5.99121E-04-5.90611E-04
 -1      2545 2.97281E-02-5.94657E-04 5.97295E-04
 -1      2546 7.17459E-02-5.98364E-04-5.91539E-04
 -1      2547 6.48850E-02 5.91132E-04-5.91583E-04
 -1      2548 7.17459E-02 5.90391E-04 5.97818E-04
 -1      2549 6.05416E-02-5.97947E-04 5.96953E-04
 -1      2550 1.85236E-02-5.94238E-04 5.97185E-04
 -1      2551 2.84620E-02 5.93345E-04 5.95268E-04
 -1      2552 2.84706E-02-5.95591E-04-5.93716E-04
 -1      2553 2.97298E-02 5.93644E-04-5.93612E-04
 -1      2554 4.09230E-02-5.97551E-04-5.92418E-04
 -1      2555 4.09316E-02 5.92948E-04 5.94871E-04
 -1      2556 4.65347E-02 5.92610E-04-5.92810E-04
 -1      2557 4.65361E-02-5.97050E-04 5.96248E-04
 -1      2558 8.92897E-02-5.02951E-04-7.02158E-04
 -1      2559 6.61862E-02-6.10192E-04 6.09114E-04
 -1      2560 6.56220E-02 5.90783E-04 5.97509E-04
 -1      2561 6.54069E-02-5.97957E-04-5.91858E-04
 -1      2562 4.01936E-02 5.93588E-04-5.93700E-04
 -1      2563 4.02993E-02-3.60380E-04 7.15752E-04
 -1      2564 4.02885E-02-7.16346E-04 3.52886E-04
 -1      2565 4.03028E-02-1.07475E-03 1.06708E-03
 -1      2566 3.89036E-02-5.75175E-04 9.31701E-04
 -1      2567 3.88929E-02-9.31141E-04 5.68835E-04
 -1      2568 3.88894E-02-2.16766E-04 2.17506E-04
 -1      2569 4.16940E-02-9.30225E-04 5.68163E-04
 -1      2570 4.17047E-02-5.74259E-04 9.31029E-04
 -1      2571 4.16905E-02-2.15850E-04 2.16833E-04
 -1      2572 9.16356E-02 9.74814E-04 2.76664E-04
 -1      2573 9.05548E-02 9.74884E-04 2.71370E-04
 -1      2574 9.16743E-02 9.89955E-04-2.75257E-04
 -1      2575 9.05935E-02 9.90025E-04-2.80552E-04
 -1      2576 9.19730E-02 5.41439E-04-5.49989E-06
 -1      2577 9.05551E-02 2.64446E-04 9.89505E-04
 -1      2578 9.16359E-02 2.59137E-04 9.89559E-04
 -1      2579 9.16818E-02-2.83626E-04 9.95259E-04
 -1      2580 9.19803E-02-1.64658E-05 5.52122E-04
 -1      2581 9.06010E-02-2.78317E-04 9.95206E-04
 -1      2582 2.91272E-03 2.33512E-04 9.13875E-04
 -1      2583 3.27403E-03 2.35721E-04 2.35780E-04
 -1      2584 3.64637E-03-2.54286E-05 6.70896E-04
 -1      2585 2.87982E-03-2.31256E-04 9.12495E-04
 -1      2586 3.24091E-03-2.82549E-04 2.29478E-04
 -1      2587 2.46010E-03-4.56824E-06 4.55393E-04
 -1      2588 3.65066E-03 6.71828E-04-2.60609E-05
 -1      2589 2.91720E-03 9.16389E-04 2.32851E-04
 -1      2590 2.90171E-03 9.16682E-04-2.36777E-04
 -1      2591 2.47680E-03 4.60071E-04-5.06021E-06
 -1      2592 3.26232E-03 2.34377E-04-2.89538E-04
 -1      2593 7.67194E-02-1.06927E-03 1.06781E-03
 -1      2594 7.53187E-02-9.33001E-04 5.67850E-04
 -1      2595 7.53187E-02-5.69217E-04 9.31819E-04
 -1      2596 7.79786E-02-5.86104E-04 9.48660E-04
 -1      2597 7.65779E-02-4.49835E-04 4.48696E-04
 -1      2598 7.79786E-02-9.49888E-04 5.84692E-04
 -1      2599 7.53185E-02-2.18626E-04 2.17622E-04
 -1      2600 7.67191E-02-7.18679E-04 3.53618E-04
 -1      2601 7.79784E-02-2.35513E-04 2.34463E-04
 -1      2602 7.67191E-02-3.54895E-04 7.17586E-04
 -1      2603 4.75111E-03 6.99255E-04-2.40999E-05
 -1      2604 3.97661E-03 9.83002E-04-2.63661E-04
 -1      2605 4.73778E-03-2.23432E-05 6.98596E-04
 -1      2606 3.94586E-03-2.57680E-04 9.79553E-04
 -1      2607 8.38454E-02-9.48330E-04 5.83055E-04
 -1      2608 8.38454E-02-5.84546E-04 9.47023E-04
 -1      2609 8.51227E-02-1.06981E-03 1.06824E-03
 -1      2610 8.64194E-02-9.92987E-04 4.85712E-04
 -1      2611 8.64194E-02-6.29203E-04 8.49680E-04
 -1      2612 8.51421E-02-5.07725E-04 3.64498E-04
 -1      2613 8.38436E-02-2.33956E-04 2.32826E-04
 -1      2614 8.51209E-02-3.55433E-04 7.18009E-04
 -1      2615 8.64176E-02-2.78613E-04 1.35483E-04
 -1      2616 2.03318E-02 9.67723E-04-2.53305E-04
 -1      2617 1.96318E-02 2.53504E-04-2.53508E-04
 -1      2618 1.85957E-02 7.13642E-04 6.41165E-07
 -1      2619 1.77413E-02 9.91357E-04-2.79085E-04
 -1      2620 1.70414E-02 2.77195E-04-2.79315E-04
 -1      2621 1.87774E-02 5.31201E-04-5.33214E-04
 -1      2622 2.03319E-02 2.53655E-04-9.67735E-04
 -1      2623 1.85957E-02-3.96887E-07-7.13762E-04
 -1      2624 1.77413E-02 2.77319E-04-9.93488E-04
 -1      2625 1.96315E-02 9.67850E-04-6.03721E-04
 -1      2626 1.70408E-02 9.91563E-04-6.29568E-04
 -1      2627 1.96315E-02 6.04083E-04-9.67675E-04
 -1      2628 1.70409E-02 6.27811E-04-9.93505E-04
 -1      2629 3.99253E-03 9.83427E-04 2.65871E-04
 -1      2630 3.97924E-03 2.67386E-04 9.81560E-04
 -1      2631 7.74194E-02-7.18635E-04 3.24366E-06
 -1      2632 7.60188E-02-7.18546E-04 3.17319E-06
 -1      2633 7.74193E-02-4.53065E-06 7.17710E-04
 -1      2634 7.60188E-02-4.44093E-06 7.17640E-04
 -1      2635 8.58179E-02-4.74143E-06 7.18133E-04
 -1      2636 8.71164E-02-2.78511E-04 8.49804E-04
 -1      2637 8.44205E-02-4.97912E-06 7.18063E-04
 -1      2638 2.34979E-02-3.58133E-04 7.14933E-04
 -1      2639 2.41974E-02-1.69208E-06 7.15060E-04
 -1      2640 2.48989E-02-5.71542E-04 9.31439E-04
 -1      2641 2.55984E-02-2.15098E-04 9.31566E-04
 -1      2642 2.48987E-02-2.14226E-04 2.17285E-04
 -1      2643 2.31333E-02-2.56008E-04 9.68854E-04
 -1      2644 2.24337E-02-6.12446E-04 9.68725E-04
 -1      2645 2.24336E-02-2.55134E-04 2.54578E-04
 -1      2646 1.85959E-02-2.15875E-06 7.14689E-04
 -1      2647 1.78956E-02 3.52293E-04 7.14760E-04
 -1      2648 1.99963E-02 2.11770E-04 9.29755E-04
 -1      2649 1.92960E-02 5.66206E-04 9.29804E-04
 -1      2650 1.92961E-02 2.13383E-04 2.15460E-04
 -1      2651 2.34977E-02 3.52034E-04 7.15110E-04
 -1      2652 2.27967E-02-2.26927E-06 7.14982E-04
 -1      2653 2.20971E-02 5.66106E-04 9.29979E-04
 -1      2654 2.13960E-02 2.11802E-04 9.29846E-04
 -1      2655 2.20971E-02 2.13255E-04 2.15659E-04
 -1      2656 4.10090E-02-6.09899E-06 7.15877E-04
 -1      2657 3.95999E-02-5.16910E-06 7.15807E-04
 -1      2658 2.38346E-02-4.68543E-04 4.71080E-04
 -1      2659 3.60979E-02-2.16587E-04 2.17365E-04
 -1      2660 3.60981E-02-5.73542E-04 9.31560E-04
 -1      2661 3.47023E-02-3.58568E-04 7.15471E-04
 -1      2662 3.36383E-02-2.56001E-04 2.55012E-04
 -1      2663 3.36385E-02-6.12956E-04 9.69208E-04
 -1      2664 3.50341E-02-4.70975E-04 4.71102E-04
 -1      2665 2.38558E-02 2.52153E-04 9.70263E-04
 -1      2666 2.45568E-02 6.06462E-04 9.70392E-04
 -1      2667 2.45568E-02 2.53603E-04 2.56058E-04
 -1      2668 3.54054E-02-3.75989E-06 7.15596E-04
 -1      2669 3.43416E-02-2.58148E-04 9.69333E-04
 -1      2670 5.15089E-02 3.48805E-04 7.16496E-04
 -1      2671 5.08087E-02-2.82607E-06 7.16371E-04
 -1      2672 5.01081E-02 5.63171E-04 9.30810E-04
 -1      2673 4.94079E-02 2.11540E-04 9.30686E-04
 -1      2674 5.01081E-02 2.11676E-04 2.16435E-04
 -1      2675 1.78954E-02 7.13609E-04 3.52262E-04
 -1      2676 1.92958E-02 9.27539E-04 5.67291E-04
 -1      2677 1.99961E-02 9.27588E-04 2.15686E-04
 -1      2678 3.68012E-02-2.18734E-04 9.31686E-04
 -1      2679 2.31562E-02 4.67678E-04 4.70930E-04
 -1      2680 2.27975E-02-7.15081E-04 5.34194E-07
 -1      2681 2.34978E-02-7.15041E-04-3.49832E-04
 -1      2682 2.13971E-02-9.29309E-04-2.13966E-04
 -1      2683 2.20973E-02-9.29273E-04-5.64333E-04
 -1      2684 2.20972E-02-2.15056E-04-2.13718E-04
 -1      2685 2.34976E-02-3.51077E-04-7.13611E-04
 -1      2686 2.27973E-02-6.30925E-07-7.13555E-04
 -1      2687 2.20971E-02-5.65311E-04-9.28112E-04
 -1      2688 2.13968E-02-2.14863E-04-9.28049E-04
 -1      2689 2.41981E-02-7.15179E-04 6.05066E-07
 -1      2690 2.34979E-02-7.15221E-04 3.50972E-04
 -1      2691 2.48989E-02-9.28634E-04 5.67473E-04
 -1      2692 2.55991E-02-9.28593E-04 2.17103E-04
 -1      2693 7.11169E-02-3.54536E-04 7.17304E-04
 -1      2694 7.18171E-02-4.17179E-06 7.17428E-04
 -1      2695 7.32177E-02-2.18673E-04 9.31802E-04
 -1      2696 7.25173E-02-2.18447E-04 2.17481E-04
 -1      2697 7.25175E-02-5.69037E-04 9.31678E-04
 -1      2698 7.11165E-02 3.46644E-04-7.11090E-04
 -1      2699 7.18169E-02-3.80995E-06-7.11143E-04
 -1      2700 7.25170E-02 5.60966E-04-9.25322E-04
 -1      2701 7.32173E-02 2.10512E-04-9.25375E-04
 -1      2702 7.25172E-02 2.10376E-04-2.11125E-04
 -1      2703 7.46183E-02-9.32867E-04 2.17405E-04
 -1      2704 7.18171E-02-7.18277E-04 2.96178E-06
 -1      2705 7.11169E-02-7.18320E-04 3.53336E-04
 -1      2706 7.32178E-02-9.32778E-04 2.17335E-04
 -1      2707 7.25176E-02-9.32821E-04 5.67709E-04
 -1      2708 7.46183E-02-2.18762E-04 9.31872E-04
 -1      2709 7.18168E-02 7.10295E-04 3.32362E-06
 -1      2710 7.11165E-02 7.10428E-04-3.47121E-04
 -1      2711 7.25170E-02 9.24750E-04-5.61353E-04
 -1      2712 7.32173E-02 9.24616E-04-2.10909E-04
 -1      2713 5.99121E-02 7.10969E-04 3.53134E-04
 -1      2714 6.06123E-02 7.11013E-04 2.75985E-06
 -1      2715 6.20129E-02 9.25226E-04 2.17242E-04
 -1      2716 6.13128E-02 2.10985E-04 2.17025E-04
 -1      2717 6.13127E-02 9.25182E-04 5.67616E-04
 -1      2718 6.06126E-02-3.45367E-06 7.16865E-04
 -1      2719 5.99123E-02 3.47000E-04 7.16918E-04
 -1      2720 6.20132E-02 2.10759E-04 9.31346E-04
 -1      2721 6.13128E-02 5.61213E-04 9.31400E-04
 -1      2722 1.78955E-02-3.50749E-04-7.13900E-04
 -1      2723 1.92960E-02-5.65107E-04-9.28220E-04
 -1      2724 1.92962E-02-2.14894E-04-2.13883E-04
 -1      2725 1.99963E-02-2.14769E-04-9.28098E-04
 -1      2726 1.78956E-02-7.14690E-04-3.50145E-04
 -1      2727 1.85960E-02-7.14806E-04 2.88411E-07
 -1      2728 1.92962E-02-9.29061E-04-5.64451E-04
 -1      2729 1.99965E-02-9.29199E-04-2.14033E-04
 -1      2730 2.27972E-02 7.13455E-04 8.93289E-07
 -1      2731 2.34976E-02 7.13325E-04 3.51330E-04
 -1      2732 2.13966E-02 9.27521E-04 2.15761E-04
 -1      2733 2.20969E-02 9.27396E-04 5.66199E-04
 -1      2734 4.24145E-02-2.19978E-04 9.31154E-04
 -1      2735 5.08084E-02 7.11641E-04 2.26655E-06
 -1      2736 5.15088E-02 7.11507E-04 3.52711E-04
 -1      2737 4.94076E-02 9.26007E-04 2.16581E-04
 -1      2738 5.01080E-02 9.25873E-04 5.67026E-04
 -1      2739 5.08087E-02-7.16931E-04 1.90470E-06
 -1      2740 5.15090E-02-7.16887E-04-3.48470E-04
 -1      2741 4.94084E-02-9.31170E-04-2.12603E-04
 -1      2742 5.01086E-02-9.31126E-04-5.62978E-04
 -1      2743 5.01085E-02-2.16929E-04-2.12387E-04
 -1      2744 5.15088E-02-3.52919E-04-7.12254E-04
 -1      2745 5.08085E-02-2.46423E-06-7.12200E-04
 -1      2746 4.94081E-02-2.16704E-04-9.26708E-04
 -1      2747 5.01085E-02-5.67158E-04-9.26762E-04
 -1      2748 2.34975E-02 3.49726E-04-7.13436E-04
 -1      2749 2.41978E-02-7.20578E-07-7.13491E-04
 -1      2750 2.48975E-02 5.64059E-04-9.27759E-04
 -1      2751 2.55979E-02 2.13608E-04-9.27815E-04
 -1      2752 2.48977E-02 2.13508E-04-2.13528E-04
 -1      2753 3.40020E-02-7.15854E-04 1.05947E-06
 -1      2754 3.47022E-02-7.15810E-04-3.49315E-04
 -1      2755 3.26015E-02-9.30067E-04-2.13422E-04
 -1      2756 3.33017E-02-9.30023E-04-5.63797E-04
 -1      2757 3.33016E-02-2.15826E-04-2.13207E-04
 -1      2758 3.47021E-02-3.51842E-04-7.13099E-04
 -1      2759 3.40017E-02-1.38802E-06-7.13046E-04
 -1      2760 3.33015E-02-5.66055E-04-9.27581E-04
 -1      2761 3.26012E-02-2.15601E-04-9.27528E-04
 -1      2762 2.41978E-02 7.13373E-04 9.63838E-07
 -1      2763 2.34974E-02 7.13505E-04-3.49473E-04
 -1      2764 2.55979E-02 9.27710E-04-2.13351E-04
 -1      2765 2.48975E-02 9.27842E-04-5.63792E-04
 -1      2766 3.40017E-02 7.12717E-04 1.42126E-06
 -1      2767 3.47020E-02 7.12584E-04 3.51866E-04
 -1      2768 3.26011E-02 9.26690E-04 2.16617E-04
 -1      2769 3.33015E-02 9.26556E-04 5.67062E-04
 -1      2770 3.33016E-02 2.12359E-04 2.16471E-04
 -1      2771 4.66070E-02-2.68755E-06 7.16029E-04
 -1      2772 4.59067E-02 3.47766E-04 7.16082E-04
 -1      2773 4.73070E-02 5.62084E-04 9.30669E-04
 -1      2774 4.73069E-02 2.11724E-04 2.16163E-04
 -1      2775 4.80073E-02 2.11630E-04 9.30615E-04
 -1      2776 3.82043E-02-2.19964E-04 9.31756E-04
 -1      2777 3.54023E-02 7.12627E-04 1.49372E-06
 -1      2778 3.47019E-02 7.12761E-04-3.48953E-04
 -1      2779 3.60976E-02 9.28615E-04-5.64717E-04
 -1      2780 3.60978E-02 2.14240E-04-2.14488E-04
 -1      2781 3.67979E-02 9.28481E-04-2.14270E-04
 -1      2782 3.47019E-02 3.48977E-04-7.12922E-04
 -1      2783 3.54023E-02-1.47972E-06-7.12975E-04
 -1      2784 3.67979E-02 2.14374E-04-9.28739E-04
 -1      2785 3.60976E-02 5.64830E-04-9.28685E-04
 -1      2786 1.68113E-02 6.04655E-04 9.66429E-04
 -1      2787 1.75117E-02 2.50137E-04 9.66300E-04
 -1      2788 1.68116E-02 2.51775E-04 2.52040E-04
 -1      2789 3.54026E-02-7.15944E-04 1.13190E-06
 -1      2790 3.47023E-02-7.15988E-04 3.51504E-04
 -1      2791 3.67984E-02-9.30918E-04 2.17222E-04
 -1      2792 3.60981E-02-9.30962E-04 5.67594E-04
 -1      2793 4.59063E-02-7.16658E-04-3.51651E-04
 -1      2794 4.66071E-02-7.16793E-04 1.56220E-06
 -1      2795 4.73071E-02-9.30946E-04-5.65887E-04
 -1      2796 4.80078E-02-9.31080E-04-2.12674E-04
 -1      2797 4.73074E-02-2.16881E-04-2.12659E-04
 -1      2798 3.95806E-02-7.16211E-04-2.56091E-06
 -1      2799 4.09897E-02-7.16301E-04-1.65038E-06
 -1      2800 9.47223E-03 7.24391E-04 3.58294E-04
 -1      2801 8.77085E-03 7.27312E-04 9.31582E-07
 -1      2802 9.86614E-03 9.75904E-04 2.56339E-04
 -1      2803 1.05580E-02 2.54984E-04 2.56055E-04
 -1      2804 1.05638E-02 9.72273E-04 6.09844E-04
 -1      2805 2.45567E-02 9.67759E-04 6.06607E-04
 -1      2806 2.38564E-02 9.67888E-04 2.56164E-04
 -1      2807 2.24326E-02 6.03925E-04-9.67568E-04
 -1      2808 2.24328E-02 2.53379E-04-2.53345E-04
 -1      2809 2.31330E-02 2.53480E-04-9.67624E-04
 -1      2810 8.51207E-02 3.45386E-04 7.18187E-04
 -1      2811 8.40374E-02 5.97267E-04 9.70071E-04
 -1      2812 8.47346E-02 2.47140E-04 9.70018E-04
 -1      2813 8.40358E-02 2.47038E-04 2.55697E-04
 -1      2814 2.38623E-02-9.69227E-04-2.53608E-04
 -1      2815 2.45624E-02-2.54957E-04-2.53356E-04
 -1      2816 2.45625E-02-9.69188E-04-6.03981E-04
 -1      2817 2.45623E-02-6.05219E-04-9.67766E-04
 -1      2818 2.38620E-02-2.54767E-04-9.67707E-04
 -1      2819 2.31340E-02-9.69495E-04 2.54399E-04
 -1      2820 2.24338E-02-9.69535E-04 6.04763E-04
 -1      2821 7.07524E-02-2.58275E-04 9.71418E-04
 -1      2822 7.00522E-02-6.08640E-04 9.71293E-04
 -1      2823 7.00520E-02-2.58049E-04 2.57097E-04
 -1      2824 7.07520E-02 2.50430E-04-9.65239E-04
 -1      2825 7.00516E-02 6.00884E-04-9.65186E-04
 -1      2826 7.00518E-02 2.50294E-04-2.50989E-04
 -1      2827 7.00522E-02-9.72424E-04 6.07325E-04
 -1      2828 7.07524E-02-9.72380E-04 2.56951E-04
 -1      2829 7.07519E-02 9.64534E-04-2.50773E-04
 -1      2830 7.00516E-02 9.64668E-04-6.01217E-04
 -1      2831 2.24326E-02 9.67705E-04-6.03604E-04
 -1      2832 2.31329E-02 9.67574E-04-2.53169E-04
 -1      2833 3.43374E-02 9.66867E-04-2.52603E-04
 -1      2834 3.36372E-02 2.52626E-04-2.52821E-04
 -1      2835 3.36370E-02 9.67001E-04-6.03050E-04
 -1      2836 3.43374E-02 2.52760E-04-9.67072E-04
 -1      2837 3.36370E-02 6.03217E-04-9.67018E-04
 -1      2838 3.36385E-02-9.70376E-04 6.05241E-04
 -1      2839 3.43388E-02-9.70332E-04 2.54869E-04
 -1      2840 5.18927E-02 2.48669E-04 9.68734E-04
 -1      2841 5.25929E-02 6.00299E-04 9.68858E-04
 -1      2842 5.25929E-02 2.48805E-04 2.54484E-04
 -1      2843 3.50697E-02-9.70680E-04-2.52482E-04
 -1      2844 3.57699E-02-2.56439E-04-2.52266E-04
 -1      2845 3.57699E-02-9.70636E-04-6.02856E-04
 -1      2846 3.57689E-02 9.66891E-04 6.05255E-04
 -1      2847 3.50686E-02 9.67024E-04 2.54811E-04
 -1      2848 3.57690E-02 2.52694E-04 2.54665E-04
 -1      2849 3.50695E-02-2.56214E-04-9.66587E-04
 -1      2850 3.57698E-02-6.06667E-04-9.66640E-04
 -1      2851 7.86789E-02-9.49844E-04 2.34318E-04
 -1      2852 7.86788E-02-2.35739E-04 9.48784E-04
 -1      2853 1.75114E-02 9.65937E-04 2.52235E-04
 -1      2854 1.68111E-02 9.65970E-04 6.03932E-04
 -1      2855 4.48422E-02 6.02801E-04 9.70202E-04
 -1      2856 4.55426E-02 2.52347E-04 9.70148E-04
 -1      2857 4.48422E-02 2.52441E-04 2.55696E-04
 -1      2858 5.88282E-02 5.98594E-04 9.69237E-04
 -1      2859 5.95285E-02 2.48140E-04 9.69183E-04
 -1      2860 5.88281E-02 2.48366E-04 2.54862E-04
 -1      2861 5.18924E-02 9.63135E-04 2.54629E-04
 -1      2862 5.25928E-02 9.63002E-04 6.05074E-04
 -1      2863 5.95283E-02 9.62607E-04 2.55078E-04
 -1      2864 5.88280E-02 9.62563E-04 6.05452E-04
 -1      2865 8.58176E-02 7.09398E-04 3.70089E-06
 -1      2866 8.51206E-02 7.09354E-04 3.54402E-04
 -1      2867 8.47343E-02 9.61279E-04 2.55586E-04
 -1      2868 8.40373E-02 9.61235E-04 6.06287E-04
 -1      2869 4.59065E-02 7.11735E-04 3.52298E-04
 -1      2870 4.66067E-02 7.11779E-04 1.92404E-06
 -1      2871 4.73069E-02 9.26052E-04 5.66885E-04
 -1      2872 4.80071E-02 9.26096E-04 2.16510E-04
 -1      2873 3.47022E-02 3.48615E-04 7.15650E-04
 -1      2874 3.39997E-02-3.99629E-06 7.15525E-04
 -1      2875 3.33016E-02 5.62588E-04 9.30846E-04
 -1      2876 3.25992E-02 2.09976E-04 9.30721E-04
 -1      2877 8.76255E-03 8.76766E-07 7.28148E-04
 -1      2878 9.47313E-03 3.60227E-04 7.25393E-04
 -1      2879 9.85823E-03 2.56871E-04 9.76533E-04
 -1      2880 1.05649E-02 6.12052E-04 9.73035E-04
 -1      2881 2.31619E-02-4.69193E-04-4.67861E-04
 -1      2882 7.14526E-02-4.72550E-04 4.71470E-04
 -1      2883 7.14523E-02 4.64615E-04-4.65221E-04
 -1      2884 3.81850E-02-9.31006E-04 2.13388E-04
 -1      2885 4.55385E-02-9.71202E-04-2.52211E-04
 -1      2886 4.48378E-02-9.71068E-04-6.05424E-04
 -1      2887 4.48381E-02-2.57003E-04-2.52196E-04
 -1      2888 4.23952E-02-9.30180E-04 2.13626E-04
 -1      2889 2.38329E-02 4.67710E-04-4.67662E-04
 -1      2890 4.66068E-02-2.32611E-06-7.12543E-04
 -1      2891 4.59066E-02-3.52691E-04-7.12667E-04
 -1      2892 4.80076E-02-2.16614E-04-9.26779E-04
 -1      2893 4.73074E-02-5.66979E-04-9.26903E-04
 -1      2894 3.50329E-02 4.68480E-04-4.68584E-04
 -1      2895 8.31450E-02-2.34092E-04 9.47077E-04
 -1      2896 9.11494E-02 2.34340E-04 2.49104E-04
 -1      2897 8.97698E-02 6.82926E-04-2.59472E-05
 -1      2898 9.11881E-02 2.49481E-04-3.02817E-04
 -1      2899 3.43693E-02-4.70652E-04-4.66748E-04
 -1      2900 8.97701E-02-2.75115E-05 6.92189E-04
 -1      2901 9.11953E-02-3.08424E-04 2.54805E-04
 -1      2902 1.82119E-02 4.65653E-04 4.67039E-04
 -1      2903 3.43684E-02 4.66666E-04 4.69861E-04
 -1      2904 4.62389E-02-4.71290E-04-4.66432E-04
 -1      2905 4.62425E-02 4.66759E-04 4.70283E-04
 -1      2906 3.50666E-02 2.50311E-04 9.68915E-04
 -1      2907 3.57691E-02 6.02922E-04 9.69040E-04
 -1      2908 4.55423E-02 9.66813E-04 2.56044E-04
 -1      2909 4.48421E-02 9.66769E-04 6.06418E-04
 -1      2910 5.11921E-02 4.63171E-04 4.68798E-04
 -1      2911 5.25950E-02-9.70592E-04-5.95781E-04
 -1      2912 5.18948E-02-9.70636E-04-2.45407E-04
 -1      2913 5.25949E-02-2.56395E-04-2.45191E-04
 -1      2914 6.02287E-02 4.62579E-04 4.69344E-04
 -1      2915 5.18945E-02-2.56169E-04-9.59512E-04
 -1      2916 5.25949E-02-6.06624E-04-9.59565E-04
 -1      2917 1.68113E-02-6.02398E-04-9.65985E-04
 -1      2918 1.75116E-02-2.51969E-04-9.65781E-04
 -1      2919 1.68117E-02-2.52127E-04-2.51606E-04
 -1      2920 4.48380E-02-6.07100E-04-9.66440E-04
 -1      2921 4.55382E-02-2.56736E-04-9.66316E-04
 -1      2922 1.75119E-02-9.66396E-04-2.51727E-04
 -1      2923 1.68115E-02-9.66339E-04-6.02227E-04
 -1      2924 8.11567E-03 9.48765E-04 5.84536E-04
 -1      2925 8.08542E-03 2.23621E-04 2.27599E-04
 -1      2926 7.40743E-03 9.55239E-04 2.27257E-04
 -1      2927 1.81961E-03-8.04446E-05-1.31432E-04
 -1      2928 1.82341E-03-1.08476E-04 6.64879E-05
 -1      2929 1.06925E-03-2.02601E-04-7.50583E-05
 -1      2930 3.22250E-03-2.92435E-04-2.93199E-04
 -1      2931 1.07560E-03-1.78371E-04-2.16561E-04
 -1      2932 1.78949E-02 1.06443E-03-1.06400E-03
 -1      2933 8.71808E-02 2.13637E-04 9.38489E-04
 -1      2934 8.64836E-02 5.63764E-04 9.38542E-04
 -1      2935 8.64820E-02 2.13536E-04 2.24168E-04
 -1      2936 1.81728E-03 6.99670E-05-1.56620E-05
 -1      2937 8.11606E-03 5.84341E-04 9.52256E-04
 -1      2938 7.39947E-03 2.25465E-04 9.58387E-04
 -1      2939 5.11946E-02-4.70635E-04-4.59699E-04
 -1      2940 8.64835E-02 9.27733E-04 5.74758E-04
 -1      2941 8.71805E-02 9.27777E-04 2.24057E-04
 -1      2942 9.26454E-02-2.06707E-04-1.19235E-04
 -1      2943 9.26453E-02 1.02265E-04-1.64835E-04
 -1      2944 9.26454E-02-2.71959E-05 1.14106E-04
 -1      2945 1.82122E-02-4.66453E-04-4.65875E-04
 -1      2946 9.35077E-02-1.65561E-04-4.27686E-04
 -1      2947 9.12269E-02-3.25444E-04-3.11064E-04
 -1      2948 9.35078E-02-4.74533E-04-3.82087E-04
 -1      2949 9.19405E-03 4.78340E-04 4.81919E-04
 -1      2950 8.53987E-02 4.65417E-04 4.76053E-04
 -1      2951 7.95197E-02 1.06048E-03-1.06090E-03
 -1      2952 8.14706E-02 6.25677E-04-9.90122E-04
 -1      2953 8.14706E-02 9.89461E-04-6.26154E-04
 -1      2954 7.89678E-02 9.89705E-04-6.26364E-04
 -1      2955 8.09187E-02 5.54901E-04-5.55591E-04
 -1      2956 7.89678E-02 6.25921E-04-9.90332E-04
 -1      2957 5.43096E-02 1.06434E-03-1.06216E-03
 -1      2958 5.57101E-02 1.06462E-03-1.06209E-03
 -1      2959 5.38643E-02 1.03438E-03-6.58569E-04
 -1      2960 5.52649E-02 6.73124E-04-1.02247E-03
 -1      2961 5.38643E-02 6.72840E-04-1.02254E-03
 -1      2962 8.09202E-02 1.06039E-03-1.06082E-03
 -1      2963 8.28712E-02 6.25587E-04-9.90052E-04
 -1      2964 8.23208E-02 1.06030E-03-1.06075E-03
 -1      2965 8.28712E-02 9.89371E-04-6.26084E-04
 -1      2966 8.90403E-02-3.05000E-04 1.09471E-04
 -1      2967 8.84459E-02-2.74893E-04 8.49872E-04
 -1      2968 8.98711E-02-5.55806E-04 4.12489E-04
 -1      2969 6.33226E-03-2.56190E-04 9.88409E-04
 -1      2970 5.69076E-03-2.92274E-04 2.27846E-04
 -1      2971 4.86188E-03-5.41716E-04 5.28688E-04
 -1      2972 1.10694E-03 8.72781E-05-2.22065E-04
 -1      2973 1.10540E-03 1.98841E-04-1.34350E-04
 -1      2974 9.34762E-02-4.57513E-04 1.83783E-04
 -1      2975 9.34762E-02-2.78002E-04 4.17124E-04
 -1      2976 5.68949E-03 2.31369E-04-2.91054E-04
 -1      2977 6.34344E-03 9.92023E-04-2.56213E-04
 -1      2978 4.87832E-03 5.34649E-04-5.44664E-04
 -1      2979 1.07380E-02-2.33426E-04 2.34104E-04
 -1      2980 1.14467E-02-2.32574E-04 9.49260E-04
 -1      2981 1.01764E-02-1.53351E-07 7.23229E-04
 -1      2982 8.36406E-03-2.60298E-04 2.51128E-04
 -1      2983 9.08867E-03-2.59344E-04 9.72657E-04
 -1      2984 9.64952E-03-4.92516E-04 4.82852E-04
 -1      2985 6.20129E-02-2.17484E-04-9.26048E-04
 -1      2986 6.13128E-02-2.17621E-04-2.11797E-04
 -1      2987 6.06124E-02-3.09183E-06-7.11707E-04
 -1      2988 5.96046E-02-2.64424E-04-9.71436E-04
 -1      2989 5.89044E-02-2.64560E-04-2.57185E-04
 -1      2990 6.03050E-02-4.78953E-04-4.71526E-04
 -1      2991 8.84460E-02 8.43754E-04-2.73324E-04
 -1      2992 8.90406E-02 1.03210E-04-2.95590E-04
 -1      2993 8.98642E-02 4.10309E-04-5.50194E-04
 -1      2994 6.06127E-02-7.17559E-04 2.39800E-06
 -1      2995 6.20132E-02-9.31951E-04-2.11943E-04
 -1      2996 5.96048E-02-9.78891E-04-2.57331E-04
 -1      2997 2.42027E-03-1.35185E-05-4.68368E-04
 -1      2998 5.34850E-02-9.45888E-04 2.31980E-04
 -1      2999 5.27846E-02-2.31558E-04 2.32126E-04
 -1      3000 5.22093E-02-7.17021E-04 1.97518E-06
 -1      3001 5.11446E-02-9.71128E-04 2.55969E-04
 -1      3002 5.04442E-02-2.56797E-04 2.56114E-04
 -1      3003 5.17199E-02-4.85665E-04 4.86119E-04
 -1      3004 7.51120E-03-9.66831E-04-2.38691E-04
 -1      3005 8.18963E-03-2.36549E-04-2.37168E-04
 -1      3006 8.77025E-03-7.27379E-04 5.84826E-07
 -1      3007 9.86412E-03-9.75255E-04-2.56550E-04
 -1      3008 1.05542E-02-2.54424E-04-2.54854E-04
 -1      3009 9.29327E-03-4.90035E-04-4.92410E-04
 -1      3010 5.34850E-02-2.31781E-04 9.46447E-04
 -1      3011 5.22093E-02-2.91341E-06 7.16442E-04
 -1      3012 5.11446E-02-2.57021E-04 9.70435E-04
 -1      3013 6.13127E-02-5.67849E-04-9.26172E-04
 -1      3014 5.89044E-02-6.14789E-04-9.71560E-04
 -1      3015 6.13129E-02-9.31818E-04-5.62388E-04
 -1      3016 5.89045E-02-9.78757E-04-6.07776E-04
 -1      3017 7.50284E-03-2.35407E-04-9.68516E-04
 -1      3018 8.76211E-03 1.32394E-06-7.26836E-04
 -1      3019 9.85563E-03-2.53773E-04-9.76398E-04
 -1      3020 8.44203E-02 7.09488E-04 3.95778E-06
 -1      3021 8.33369E-02 9.61369E-04 2.55843E-04
 -1      3022 5.99122E-02 1.06120E-03 1.06751E-03
 -1      3023 5.15088E-02 1.06300E-03 1.06709E-03
 -1      3024 8.33372E-02 2.46902E-04 9.69947E-04
 -1      3025 1.07431E-02-5.91304E-04 9.51053E-04
 -1      3026 8.38981E-03-6.21499E-04 9.73427E-04
 -1      3027 5.92118E-02 7.11102E-04 2.68938E-06
 -1      3028 5.81277E-02 9.62696E-04 2.55008E-04
 -1      3029 1.78951E-02 1.06650E-03 1.06665E-03
 -1      3030 5.22090E-02 7.11551E-04 2.33702E-06
 -1      3031 5.32930E-02 9.63046E-04 2.54700E-04
 -1      3032 1.89099E-02-2.99011E-04 1.01308E-03
 -1      3033 1.82097E-02-2.97379E-04 2.98799E-04
 -1      3034 1.71255E-02-4.51142E-05 5.50405E-04
 -1      3035 9.20577E-02-5.76249E-04-8.04651E-06
 -1      3036 6.09273E-02-3.00813E-04 1.01407E-03
 -1      3037 6.02269E-02-3.00588E-04 2.99748E-04
 -1      3038 5.91428E-02-4.89936E-05 5.52066E-04
 -1      3039 5.32933E-02 2.48581E-04 9.68804E-04
 -1      3040 5.22090E-02-2.55157E-06-7.12130E-04
 -1      3041 5.32951E-02-2.56257E-04-9.59441E-04
 -1      3042 1.01701E-02 7.21954E-04 1.25949E-06
 -1      3043 1.12593E-02 9.70938E-04 2.54764E-04
 -1      3044 1.61112E-02 2.51690E-04 9.66331E-04
 -1      3045 1.75094E-02-2.97552E-04 1.01304E-03
 -1      3046 1.71952E-02 7.13760E-04 5.69996E-07
 -1      3047 1.61109E-02 9.66114E-04 2.52250E-04
 -1      3048 1.14408E-02-9.49371E-04 2.32459E-04
 -1      3049 1.01702E-02-7.22392E-04 9.13537E-07
 -1      3050 9.08265E-03-9.82178E-04 2.49606E-04
 -1      3051 5.81280E-02 2.48232E-04 9.69113E-04
 -1      3052 5.95268E-02-3.00721E-04 1.01400E-03
 -1      3053 5.15089E-02-1.06712E-03-1.06284E-03
 -1      3054 5.27848E-02-9.45932E-04 5.82354E-04
 -1      3055 5.04444E-02-9.71172E-04 6.06343E-04
 -1      3056 1.12654E-02 2.53660E-04 9.71512E-04
 -1      3057 1.22645E-02 1.07023E-03-1.07351E-03
 -1      3058 1.36650E-02 1.06585E-03-1.07184E-03
 -1      3059 1.42114E-02 9.92369E-04-6.36760E-04
 -1      3060 1.56403E-02 6.28106E-04-9.93746E-04
 -1      3061 1.42392E-02 6.31242E-04-9.94286E-04
 -1      3062 3.98996E-02-1.01400E-03-2.99548E-04
 -1      3063 4.13088E-02-1.01409E-03-2.98637E-04
 -1      3064 4.06040E-02-2.99761E-04-2.95431E-04
 -1      3065 5.27848E-02-5.82148E-04 9.46323E-04
 -1      3066 5.04444E-02-6.07388E-04 9.70311E-04
 -1      3067 1.78953E-02-1.06496E-03-1.06453E-03
 -1      3068 3.64700E-02-2.56305E-04-9.66516E-04
 -1      3069 8.22549E-03-9.60816E-04-5.94446E-04
 -1      3070 1.05683E-02-9.71978E-04-6.08844E-04
 -1      3071 1.71952E-02-3.03608E-07-7.13865E-04
 -1      3072 1.61111E-02-2.51955E-04-9.65947E-04
 -1      3073 1.12569E-02-9.70558E-04-2.54438E-04
 -1      3074 1.89100E-02-1.01167E-03 2.98668E-04
 -1      3075 1.71257E-02-5.48963E-04 4.68132E-05
 -1      3076 3.64703E-02-9.70769E-04-2.52409E-04
 -1      3077 2.17324E-02 2.53567E-04-9.67682E-04
 -1      3078 7.63546E-02-9.72610E-04-2.50981E-04
 -1      3079 7.56541E-02-2.58279E-04-2.50836E-04
 -1      3080 7.49540E-02-9.72520E-04-2.51052E-04
 -1      3081 7.60185E-02 7.10026E-04 3.53503E-06
 -1      3082 7.74191E-02 7.09936E-04 3.60551E-06
 -1      3083 7.49537E-02 9.64137E-04 2.57653E-04
 -1      3084 7.63543E-02 9.64047E-04 2.57723E-04
 -1      3085 7.56541E-02 2.49806E-04 2.57507E-04
 -1      3086 7.74191E-02-4.16881E-06-7.10861E-04
 -1      3087 7.60185E-02-4.07909E-06-7.10932E-04
 -1      3088 7.49537E-02-2.58054E-04-9.65157E-04
 -1      3089 7.63543E-02-2.58143E-04-9.65086E-04
 -1      3090 7.63545E-02 2.49580E-04 9.71828E-04
 -1      3091 7.49540E-02 2.49670E-04 9.71758E-04
 -1      3092 7.21317E-02 2.92997E-04 1.01478E-03
 -1      3093 7.03666E-02 3.91192E-05 5.54452E-04
 -1      3094 7.14313E-02 2.93222E-04 3.00462E-04
 -1      3095 7.21315E-02-3.01019E-04-1.00847E-03
 -1      3096 7.03664E-02-4.69152E-05-5.48312E-04
 -1      3097 7.14313E-02-3.01155E-04-2.94216E-04
 -1      3098 7.21317E-02-1.01549E-03-2.94362E-04
 -1      3099 7.03666E-02-5.55258E-04-4.02268E-05
 -1      3100 7.21314E-02 1.00746E-03 3.00679E-04
 -1      3101 7.03664E-02 5.47462E-04 4.63662E-05
 -1      3102 2.17324E-02 9.67650E-04-2.53236E-04
 -1      3103 2.52625E-02-2.54860E-04-9.67644E-04
 -1      3104 2.52628E-02-9.69324E-04-2.53541E-04
 -1      3105 4.97441E-02-9.71038E-04 2.55898E-04
 -1      3106 4.97440E-02-2.56934E-04 9.70365E-04
 -1      3107 3.29368E-02 9.66957E-04-2.52675E-04
 -1      3108 3.29368E-02 2.52852E-04-9.67142E-04
 -1      3109 7.78022E-02 2.47481E-04 2.55426E-04
 -1      3110 7.85023E-02 9.61722E-04 2.55643E-04
 -1      3111 7.67374E-02 5.01592E-04 5.09544E-04
 -1      3112 7.78022E-02-2.56229E-04-2.48539E-04
 -1      3113 7.85027E-02-9.70560E-04-2.48684E-04
 -1      3114 7.67374E-02-5.10204E-04-5.02764E-04
 -1      3115 7.85024E-02-2.56093E-04-9.62789E-04
 -1      3116 7.85026E-02 2.47255E-04 9.69747E-04
 -1      3117 1.17106E-02 9.95304E-04-6.40192E-04
 -1      3118 1.17384E-02 6.33843E-04-9.97984E-04
 -1      3119 1.36860E-02 5.55771E-04-5.60669E-04
 -1      3120 3.64691E-02 9.66934E-04 2.54884E-04
 -1      3121 2.17334E-02-9.69391E-04 2.54324E-04
 -1      3122 2.17326E-02-2.56582E-04 9.68770E-04
 -1      3123 1.01758E-02 1.80381E-07-7.21191E-04
 -1      3124 1.12626E-02-2.53243E-04-9.71604E-04
 -1      3125 3.29382E-02-9.70242E-04 2.54797E-04
 -1      3126 3.64723E-02 2.50547E-04 9.68986E-04
 -1      3127 1.61114E-02-9.66406E-04-2.51865E-04
 -1      3128 1.75094E-02-1.01160E-03 2.98625E-04
 -1      3129 2.52565E-02 2.52734E-04 9.70340E-04
 -1      3130 2.52569E-02 9.67805E-04 2.56238E-04
 -1      3131 4.13323E-02 2.91360E-04 1.01253E-03
 -1      3132 3.99232E-02 2.92290E-04 1.01246E-03
 -1      3133 4.06083E-02 2.95488E-04 2.98214E-04
 -1      3134 3.47022E-02-1.06604E-03-1.06369E-03
 -1      3135 5.32953E-02-9.70726E-04-2.45337E-04
 -1      3136 4.69218E-02-2.99916E-04 1.01336E-03
 -1      3137 4.62214E-02-2.99821E-04 2.98912E-04
 -1      3138 4.51569E-02-4.47873E-05 5.53032E-04
 -1      3139 7.11163E-02 1.06102E-03-1.06132E-03
 -1      3140 7.11171E-02-1.06891E-03 1.06753E-03
 -1      3141 2.34977E-02-1.06531E-03-1.06424E-03
 -1      3142 7.67610E-03-2.60022E-04 9.80279E-04
 -1      3143 4.69208E-02 2.95276E-04-1.00974E-03
 -1      3144 4.62206E-02 2.95009E-04-2.95617E-04
 -1      3145 4.51521E-02 4.05991E-05-5.49390E-04
 -1      3146 2.34972E-02 1.06406E-03-1.06370E-03
 -1      3147 3.29359E-02-2.58384E-04 9.69262E-04
 -1      3148 4.69218E-02-1.01402E-03 2.98898E-04
 -1      3149 4.51528E-02-5.54231E-04 4.51391E-05
 -1      3150 4.69208E-02 1.00938E-03-2.95269E-04
 -1      3151 4.51562E-02 5.50043E-04-4.14970E-05
 -1      3152 8.08345E-04 4.95560E-04-1.18931E-06
 -1      3153 8.25183E-04 4.94906E-04-1.19660E-04
 -1      3154 2.10159E-03 8.02004E-04-7.83083E-05
 -1      3155 2.15853E-03 8.05280E-04-3.35070E-04
 -1      3156 1.13343E-03 3.47227E-04-2.10406E-04
 -1      3157 2.34981E-02-1.07254E-03 1.06512E-03
 -1      3158 3.47021E-02 1.06281E-03 1.06624E-03
 -1      3159 1.07452E-02-9.51334E-04 5.87061E-04
 -1      3160 8.39174E-03-9.83165E-04 6.07578E-04
 -1      3161 2.34976E-02 1.06619E-03 1.06566E-03
 -1      3162 8.21703E-02 3.54366E-04-3.55175E-04
 -1      3163 8.02193E-02 4.25386E-04-7.89916E-04
 -1      3164 7.96674E-02 3.54610E-04-3.55384E-04
 -1      3165 8.02193E-02 7.89170E-04-4.25947E-04
 -1      3166 5.76620E-02 9.90807E-04-6.27693E-04
 -1      3167 5.69619E-02 3.55588E-04-3.56726E-04
 -1      3168 5.64106E-02 7.90481E-04-4.27087E-04
 -1      3169 5.52649E-02 1.03429E-03-6.58499E-04
 -1      3170 5.45648E-02 3.99070E-04-3.87531E-04
 -1      3171 5.58162E-02 5.99396E-04-5.88138E-04
 -1      3172 8.21749E-03-5.97431E-04-9.62382E-04
 -1      3173 1.05593E-02-6.12278E-04-9.73254E-04
 -1      3174 4.59063E-02-1.06676E-03-1.06589E-03
 -1      3175 4.59066E-02 1.06209E-03 1.06680E-03
 -1      3176 6.93514E-02 2.50519E-04-9.65310E-04
 -1      3177 7.07309E-02-3.00929E-04-1.00854E-03
 -1      3178 6.93518E-02-2.58185E-04 9.71347E-04
 -1      3179 7.07311E-02 2.93086E-04 1.01471E-03
 -1      3180 6.93514E-02 9.64624E-04-2.50843E-04
 -1      3181 7.07309E-02 1.00755E-03 3.00608E-04
 -1      3182 6.93519E-02-9.72290E-04 2.56880E-04
 -1      3183 7.07312E-02-1.01540E-03-2.94432E-04
 -1      3184 3.47017E-02 1.06335E-03-1.06315E-03
 -1      3185 4.41420E-02 2.52438E-04 9.70078E-04
 -1      3186 4.55212E-02-2.99824E-04 1.01329E-03
 -1      3187 4.41347E-02-2.55324E-04-9.66386E-04
 -1      3188 4.55173E-02 2.96687E-04-1.00981E-03
 -1      3189 8.71164E-02 8.43838E-04-2.69689E-04
 -1      3190 8.64179E-02 1.29597E-04-2.69578E-04
 -1      3191 8.49688E-02 9.89148E-04-2.75896E-04
 -1      3192 8.42703E-02 2.74907E-04-2.75785E-04
 -1      3193 8.55692E-02 4.09347E-04-5.49174E-04
 -1      3194 3.47025E-02-1.07294E-03 1.06570E-03
 -1      3195 4.41350E-02-9.71112E-04-2.53603E-04
 -1      3196 4.55183E-02-1.01393E-03 2.97506E-04
 -1      3197 7.68453E-03-9.89673E-04 2.51031E-04
 -1      3198 4.41388E-02 9.66903E-04 2.54652E-04
 -1      3199 4.55173E-02 1.00947E-03-2.96661E-04
 -1      3200 1.51198E-02 1.06498E-03-1.07092E-03
 -1      3201 1.56665E-02 9.91813E-04-6.36196E-04
 -1      3202 9.14410E-02-6.28664E-04 9.95160E-04
 -1      3203 8.92859E-02-6.25241E-04 8.49826E-04
 -1      3204 3.95994E-03-9.82220E-04 2.62536E-04
 -1      3205 4.75779E-03-7.52523E-04-2.44941E-05
 -1      3206 6.34602E-03-9.97726E-04 2.53172E-04
 -1      3207 9.39377E-02-2.06838E-06 1.13151E-03
 -1      3208 9.39376E-02 3.40588E-04 1.13098E-03
 -1      3209 9.34304E-02 9.55498E-05 6.88287E-04
 -1      3210 9.34303E-02 4.38206E-04 6.87760E-04
 -1      3211 9.24417E-02 4.28680E-04 9.89642E-04
 -1      3212 1.24352E-02 3.56986E-04-3.59905E-04
 -1      3213 1.29895E-02 4.32344E-04-7.93874E-04
 -1      3214 1.49373E-02 3.55597E-04-3.57783E-04
 -1      3215 3.65966E-03-7.22400E-04-2.72620E-05
 -1      3216 2.86298E-03-9.21753E-04-2.41227E-04
 -1      3217 3.93686E-03-9.92683E-04-2.71390E-04
 -1      3218 9.38955E-02-3.49021E-04 1.13142E-03
 -1      3219 9.34763E-02-4.47214E-04 6.93988E-04
 -1      3220 9.24876E-02-1.14084E-04 9.95343E-04
 -1      3221 9.24454E-02-4.61037E-04 9.95253E-04
 -1      3222 2.88347E-03-9.11640E-04 2.28724E-04
 -1      3223 9.08510E-02-7.45716E-04-2.10146E-05
 -1      3224 8.97701E-02-7.45645E-04-2.63090E-05
 -1      3225 9.16818E-02-9.96521E-04 2.82003E-04
 -1      3226 9.06010E-02-9.96451E-04 2.76709E-04
 -1      3227 8.91047E-02 1.87148E-04 1.98156E-04
 -1      3228 8.85101E-02 9.27693E-04 2.20421E-04
 -1      3229 8.98896E-02 4.79106E-04 4.95473E-04
 -1      3230 5.92118E-02-3.00014E-06-7.11777E-04
 -1      3231 5.82040E-02-2.64332E-04-9.71506E-04
 -1      3232 2.10324E-02 3.91414E-05-4.67841E-04
 -1      3233 2.10322E-02 4.67446E-04-3.84710E-05
 -1      3234 3.96543E-03 2.66324E-04-9.86872E-04
 -1      3235 4.74471E-03-2.20790E-05-7.52938E-04
 -1      3236 6.33128E-03 2.59381E-04-9.96705E-04
 -1      3237 3.65559E-03-2.59512E-05-7.23331E-04
 -1      3238 3.92391E-03-2.68498E-04-9.93800E-04
 -1      3239 2.85916E-03-2.39496E-04-9.24179E-04
 -1      3240 8.35715E-02 9.89237E-04-2.75639E-04
 -1      3241 5.83623E-02 9.90673E-04-2.77249E-04
 -1      3242 5.90628E-02 2.76343E-04-2.77394E-04
 -1      3243 5.97629E-02 9.90584E-04-2.77178E-04
 -1      3244 5.17635E-02 1.03442E-03-3.08265E-04
 -1      3245 5.24640E-02 3.20094E-04-3.08411E-04
 -1      3246 5.31641E-02 1.03434E-03-3.08195E-04
 -1      3247 7.68670E-02 2.75646E-04-9.90526E-04
 -1      3248 7.82676E-02 2.75556E-04-9.90456E-04
 -1      3249 7.75674E-02 2.75420E-04-2.76206E-04
 -1      3250 7.82675E-02 9.89661E-04-2.75989E-04
 -1      3251 7.68670E-02 9.89751E-04-2.76060E-04
 -1      3252 5.17636E-02 3.20320E-04-1.02273E-03
 -1      3253 5.31641E-02 3.20233E-04-1.02266E-03
 -1      3254 5.83624E-02 2.76571E-04-9.91715E-04
 -1      3255 5.97629E-02 2.76479E-04-9.91645E-04
 -1      3256 8.85103E-02 2.17255E-04 9.38557E-04
 -1      3257 8.51223E-02 1.05958E-03 1.06878E-03
 -1      3258 6.09274E-02-1.01492E-03 2.99602E-04
 -1      3259 5.92191E-02-5.61919E-04 4.00193E-05
 -1      3260 8.44206E-02-7.19084E-04 3.59594E-06
 -1      3261 8.58179E-02-7.19173E-04 3.33905E-06
 -1      3262 8.65007E-02-1.01631E-03-2.93873E-04
 -1      3263 8.58018E-02-3.01982E-04-2.93400E-04
 -1      3264 8.51033E-02-1.01622E-03-2.93616E-04
 -1      3265 2.89937E-03 2.33313E-04-9.17974E-04
 -1      3266 7.46179E-02 2.10422E-04-9.25305E-04
 -1      3267 7.53183E-02 2.10196E-04-2.10984E-04
 -1      3268 7.61668E-02 4.89921E-04-4.90579E-04
 -1      3269 7.46179E-02 9.24527E-04-2.10838E-04
 -1      3270 1.29617E-02 7.93922E-04-4.35922E-04
 -1      3271 8.64193E-02 8.43972E-04-6.19806E-04
 -1      3272 8.42717E-02 9.89281E-04-6.26013E-04
 -1      3273 9.48701E-03 1.07803E-03 1.07530E-03
 -1      3274 9.62553E-03 2.83202E-04-1.00503E-03
 -1      3275 1.10326E-02 2.80039E-04-9.99981E-04
 -1      3276 1.03231E-02 2.80893E-04-2.83062E-04
 -1      3277 1.63407E-02 2.77457E-04-9.93641E-04
 -1      3278 9.63372E-03 1.00208E-03-2.84477E-04
 -1      3279 1.10268E-02 9.97087E-04-2.82204E-04
 -1      3280 1.63407E-02 9.91525E-04-2.79198E-04
 -1      3281 3.17348E-03-9.26898E-04 5.53630E-04
 -1      3282 3.16233E-03-5.57440E-04 9.23263E-04
 -1      3283 3.86818E-03-1.01446E-03 1.01074E-03
 -1      3284 5.52912E-03-9.91967E-04 6.04786E-04
 -1      3285 5.52184E-03-6.16120E-04 9.82295E-04
 -1      3286 9.17134E-02-1.01354E-03-2.83866E-04
 -1      3287 8.98271E-02-2.80285E-04-3.75185E-04
 -1      3288 9.03136E-02-9.68382E-04-3.47987E-04
 -1      3289 9.06895E-02-5.48110E-04-6.38037E-04
 -1      3290 9.14410E-02-9.96593E-04 6.27044E-04
 -1      3291 9.08558E-02-1.06603E-03 1.06438E-03
 -1      3292 8.92860E-02-9.93170E-04 4.81710E-04
 -1      3293 9.14266E-02 9.90059E-04-6.22850E-04
 -1      3294 8.92792E-02 8.43787E-04-6.15623E-04
 -1      3295 7.77581E-04 4.58466E-04 1.19678E-04
 -1      3296 1.13123E-03 3.53012E-04 2.20018E-04
 -1      3297 2.14220E-03 8.09783E-04 3.17330E-04
 -1      3298 1.12775E-03 3.47200E-04 4.90998E-05
 -1      3299 9.34302E-02 3.94223E-04 1.32482E-04
 -1      3300 9.34689E-02 4.09364E-04-4.19439E-04
 -1      3301 5.99123E-02-1.06765E-03-1.06242E-03
 -1      3302 1.09566E-03-1.97253E-04 1.91102E-04
 -1      3303 2.40440E-03-4.60580E-04-1.20198E-05
 -1      3304 6.06590E-03 9.61407E-04 2.28851E-04
 -1      3305 5.40468E-03 1.98806E-04 2.01740E-04
 -1      3306 4.60973E-03 5.00319E-04 5.02978E-04
 -1      3307 9.34303E-02 2.64762E-04 4.11423E-04
 -1      3308 7.78021E-02 9.61678E-04 6.06017E-04
 -1      3309 7.56540E-02 9.64003E-04 6.08098E-04
 -1      3310 7.78023E-02-9.70426E-04-5.99129E-04
 -1      3311 7.56542E-02-9.72476E-04-6.01426E-04
 -1      3312 7.78022E-02-6.06458E-04-9.62913E-04
 -1      3313 7.56541E-02-6.08508E-04-9.65210E-04
 -1      3314 7.78023E-02 5.97709E-04 9.69801E-04
 -1      3315 7.56542E-02 6.00035E-04 9.71882E-04
 -1      3316 6.05319E-03 2.27678E-04 9.64058E-04
 -1      3317 9.38951E-02-3.50970E-04-1.10197E-03
 -1      3318 9.39373E-02-4.01771E-06-1.10188E-03
 -1      3319 9.25189E-02-1.30742E-04-9.99098E-04
 -1      3320 9.35077E-02-4.66545E-04-6.76698E-04
 -1      3321 9.24767E-02-4.77695E-04-9.99188E-04
 -1      3322 3.18337E-03 9.27699E-04-5.63007E-04
 -1      3323 3.18556E-03 5.58248E-04-9.32098E-04
 -1      3324 3.86696E-03 1.01572E-03-1.01168E-03
 -1      3325 5.52183E-03 9.85245E-04-6.13464E-04
 -1      3326 5.52588E-03 6.10091E-04-9.90764E-04
 -1      3327 8.49689E-02 2.75370E-04-9.90035E-04
 -1      3328 8.58176E-02-4.37958E-06-7.10438E-04
 -1      3329 8.65004E-02-3.01519E-04-1.00765E-03
 -1      3330 8.49531E-02-2.22321E-05-5.72996E-04
 -1      3331 8.35715E-02 2.75133E-04-9.90106E-04
 -1      3332 8.51031E-02-3.01756E-04-1.00772E-03
 -1      3333 9.17131E-02-3.00284E-04-9.99182E-04
 -1      3334 9.20505E-02-1.83446E-05-5.65669E-04
 -1      3335 6.16771E-02 9.65116E-04-2.51229E-04
 -1      3336 6.09769E-02 2.50875E-04-2.51445E-04
 -1      3337 6.01275E-02 5.30446E-04-5.31383E-04
 -1      3338 5.04440E-02 2.51554E-04-2.51980E-04
 -1      3339 4.97436E-02 9.65884E-04-2.51834E-04
 -1      3340 5.13991E-02 5.74338E-04-5.62512E-04
 -1      3341 6.16771E-02 2.51011E-04-9.65696E-04
 -1      3342 4.97436E-02 2.51780E-04-9.66301E-04
 -1      3343 5.82043E-02-9.78801E-04-2.57401E-04
 -1      3344 5.95268E-02-1.01483E-03 2.99532E-04
 -1      3345 8.17196E-04-4.79675E-04-1.20516E-04
 -1      3346 8.00509E-04-4.79735E-04-1.22939E-06
 -1      3347 2.12103E-03-8.09052E-04-3.35974E-04
 -1      3348 2.06390E-03-8.02995E-04-8.26054E-05
 -1      3349 1.09277E-03-3.32011E-04-2.08745E-04
 -1      3350 9.14267E-02 6.22237E-04-9.90859E-04
 -1      3351 9.08416E-02 1.05572E-03-1.05629E-03
 -1      3352 8.92792E-02 4.75966E-04-9.83631E-04
 -1      3353 7.85181E-04 1.02204E-04-4.61653E-04
 -1      3354 8.27436E-04-4.13390E-06-4.90205E-04
 -1      3355 2.11822E-03-3.36659E-04-8.13924E-04
 -1      3356 1.08979E-03-6.20725E-05-3.30136E-04
 -1      3357 2.06258E-03-8.39350E-05-8.05790E-04
 -1      3358 6.17043E-03-9.73216E-04-2.34382E-04
 -1      3359 5.51423E-03-2.66975E-04-2.68632E-04
 -1      3360 4.65898E-03-5.25748E-04-5.27636E-04
 -1      3361 9.39373E-02 1.10384E-03-1.10316E-05
 -1      3362 9.38951E-02 1.10376E-03 3.35922E-04
 -1      3363 9.24414E-02 9.74805E-04 1.07111E-04
 -1      3364 9.23992E-02 9.74720E-04 4.54064E-04
 -1      3365 9.34302E-02 6.55334E-04 4.28279E-04
 -1      3366 6.15761E-03-2.30879E-04-9.75216E-04
 -1      3367 8.77805E-02-6.02338E-05 3.55839E-04
 -1      3368 1.45208E-02-2.30728E-04 9.44144E-04
 -1      3369 1.47103E-02 2.51959E-04 9.66628E-04
 -1      3370 1.55379E-02 2.19224E-05 4.81230E-04
 -1      3371 1.34992E-02 2.20053E-05 4.82477E-04
 -1      3372 1.36888E-02 5.04828E-04 5.05042E-04
 -1      3373 1.26714E-02 2.52648E-04 9.68898E-04
 -1      3374 8.71164E-02 1.30061E-04-9.83828E-04
 -1      3375 8.17445E-02-9.48107E-04 2.32540E-04
 -1      3376 8.27603E-02-4.85698E-04-1.91675E-05
 -1      3377 8.19367E-02-9.70736E-04-2.48468E-04
 -1      3378 7.99032E-02-9.70649E-04-2.48614E-04
 -1      3379 8.09190E-02-5.08241E-04-5.00321E-04
 -1      3380 8.07268E-02-4.85611E-04-1.93130E-05
 -1      3381 8.17445E-02-2.34002E-04 9.47006E-04
 -1      3382 8.19367E-02 2.46992E-04 9.69877E-04
 -1      3383 8.27603E-02 1.79253E-05 4.84711E-04
 -1      3384 8.07268E-02 1.80988E-05 4.84652E-04
 -1      3385 8.09190E-02 4.99093E-04 5.07523E-04
 -1      3386 7.99032E-02 2.47165E-04 9.69818E-04
 -1      3387 1.36801E-02-4.61804E-04 4.60828E-04
 -1      3388 1.28522E-02-2.32019E-04 9.47115E-04
 -1      3389 1.18293E-02 2.11422E-05 4.85963E-04
 -1      3390 1.96101E-02-8.34623E-05 5.13841E-04
 -1      3391 6.16275E-02-5.14980E-04 8.54073E-05
 -1      3392 7.28320E-02-5.15656E-04-7.98427E-05
 -1      3393 7.28319E-02 7.87214E-05 5.14836E-04
 -1      3394 7.28318E-02-8.68332E-05-5.08448E-04
 -1      3395 7.28318E-02 5.07544E-04 8.62303E-05
 -1      3396 6.16275E-02-8.63747E-05 5.14230E-04
 -1      3397 8.31042E-04-3.91381E-06 4.96891E-04
 -1      3398 7.88270E-04 1.02905E-04 4.68319E-04
 -1      3399 2.08240E-03-7.66739E-05 7.97264E-04
 -1      3400 1.11111E-03-5.72056E-05 3.32543E-04
 -1      3401 2.13728E-03-3.29859E-04 8.05513E-04
 -1      3402 8.00794E-02-9.49934E-04 2.34388E-04
 -1      3403 8.09030E-02-4.64895E-04 4.63689E-04
 -1      3404 7.90617E-02-4.87438E-04-1.74645E-05
 -1      3405 8.00794E-02-2.35829E-04 9.48855E-04
 -1      3406 7.90617E-02 1.62722E-05 4.86501E-04
 -1      3407 4.76217E-02-8.55039E-05 5.13499E-04
 -1      3408 6.98463E-03-3.71066E-05 4.79381E-04
 -1      3409 8.77808E-02 3.47976E-04-4.92217E-05
 -1      3410 1.96102E-02-5.11748E-04 8.44892E-05
 -1      3411 7.53181E-02 5.60787E-04-9.25181E-04
 -1      3412 7.75672E-02 6.26010E-04-9.90402E-04
 -1      3413 7.53181E-02 9.24571E-04-5.61212E-04
 -1      3414 7.75672E-02 9.89794E-04-6.26434E-04
 -1      3415 8.36184E-03 2.54154E-04-2.58575E-04
 -1      3416 7.68260E-03 9.83936E-04-2.59758E-04
 -1      3417 9.23445E-03 5.34108E-04-5.41877E-04
 -1      3418 4.76210E-02 5.09326E-04-8.10301E-05
 -1      3419 9.38955E-02-1.10483E-03 3.33637E-04
 -1      3420 9.39377E-02-1.10475E-03-1.33164E-05
 -1      3421 9.24454E-02-9.96615E-04 4.59403E-04
 -1      3422 9.24876E-02-9.96530E-04 1.12450E-04
 -1      3423 9.34763E-02-6.67446E-04 4.32057E-04
 -1      3424 1.28492E-02-9.47260E-04 2.30343E-04
 -1      3425 1.45178E-02-9.45057E-04 2.28225E-04
 -1      3426 1.26657E-02-9.68068E-04-2.54879E-04
 -1      3427 1.34964E-02-4.82455E-04-2.35077E-05
 -1      3428 1.18263E-02-4.85178E-04-2.17890E-05
 -1      3429 4.76221E-02-5.14109E-04 8.46762E-05
 -1      3430 4.76214E-02 8.07208E-05-5.09853E-04
 -1      3431 4.20138E-02 8.16094E-05 5.13491E-04
 -1      3432 4.20095E-02-5.13640E-04-8.01541E-05
 -1      3433 6.98289E-03 4.79527E-04-3.24588E-05
 -1      3434 7.67460E-03 2.56399E-04-9.88981E-04
 -1      3435 5.67274E-02 2.46929E-04 9.69042E-04
 -1      3436 5.59022E-02 1.97671E-05 4.84655E-04
 -1      3437 5.48855E-02-2.33264E-04 9.46517E-04
 -1      3438 5.46938E-02 2.47098E-04 9.68875E-04
 -1      3439 5.38686E-02 1.99369E-05 4.84488E-04
 -1      3440 5.57105E-02 5.00130E-04 5.07013E-04
 -1      3441 1.55380E-02-4.82158E-04-2.25960E-05
 -1      3442 1.47075E-02-9.66641E-04-2.53289E-04
 -1      3443 1.36861E-02-5.04186E-04-5.05262E-04
 -1      3444 9.34689E-02 1.08380E-04-6.68451E-04
 -1      3445 9.24801E-02 4.44183E-04-9.90851E-04
 -1      3446 8.37887E-04-1.28922E-04-5.19381E-04
 -1      3447 1.09192E-03-2.22053E-04-3.73870E-04
 -1      3448 6.79508E-02 9.64714E-04-2.50914E-04
 -1      3449 6.86512E-02 4.64686E-04-3.66480E-05
 -1      3450 6.76151E-02 9.24867E-04 2.17523E-04
 -1      3451 6.58999E-02 1.00801E-03-2.94163E-04
 -1      3452 6.66003E-02 5.07985E-04-7.98971E-05
 -1      3453 6.69360E-02 5.47832E-04-5.48334E-04
 -1      3454 6.76152E-02-2.17843E-04-9.25766E-04
 -1      3455 6.86512E-02 3.60806E-05-4.65471E-04
 -1      3456 6.79508E-02 2.50609E-04-9.65380E-04
 -1      3457 6.58999E-02 2.93908E-04-1.00863E-03
 -1      3458 6.66003E-02 7.93798E-05-5.08720E-04
 -1      3459 8.71164E-02-9.92943E-04 1.35010E-04
 -1      3460 8.71003E-02-5.75752E-04-1.61728E-04
 -1      3461 5.64106E-02 4.29316E-04-7.91055E-04
 -1      3462 5.57104E-02 7.49416E-05-7.91180E-04
 -1      3463 5.50100E-02 4.29031E-04-7.91125E-04
 -1      3464 3.71655E-02-4.05854E-05-4.68029E-04
 -1      3465 3.78566E-02-2.52491E-04-9.66446E-04
 -1      3466 3.81845E-02 2.18188E-04-9.28668E-04
 -1      3467 3.92082E-02-8.37289E-05-5.11335E-04
 -1      3468 3.98994E-02-2.95634E-04-1.00975E-03
 -1      3469 3.88803E-02-5.54408E-04-5.49112E-04
 -1      3470 3.78557E-02 9.66847E-04 2.51050E-04
 -1      3471 3.71646E-02 4.68547E-04 3.89018E-05
 -1      3472 3.81845E-02 9.28393E-04-2.18103E-04
 -1      3473 3.99036E-02 1.00982E-03 2.94459E-04
 -1      3474 3.92125E-02 5.11521E-04 8.23100E-05
 -1      3475 3.88837E-02 5.49974E-04 5.51463E-04
 -1      3476 3.71648E-02 3.77199E-05 4.70755E-04
 -1      3477 3.78754E-02 2.49317E-04 9.69056E-04
 -1      3478 3.92127E-02 8.06934E-05 5.14163E-04
 -1      3479 9.16743E-02 2.74640E-04-9.90934E-04
 -1      3480 9.05935E-02 2.79950E-04-9.90987E-04
 -1      3481 8.92325E-02-2.49816E-04-1.06336E-03
 -1      3482 9.06507E-02 2.68145E-05-6.29790E-04
 -1      3483 9.03133E-02-2.55125E-04-1.06330E-03
 -1      3484 1.92955E-02 1.06431E-03-1.06389E-03
 -1      3485 2.06961E-02 1.06422E-03-1.06382E-03
 -1      3486 2.10320E-02 9.67778E-04-6.03665E-04
 -1      3487 2.10320E-02 6.04006E-04-9.67622E-04
 -1      3488 8.71007E-02-1.67542E-04-5.66789E-04
 -1      3489 8.31870E-02 5.26788E-04-2.38999E-05
 -1      3490 7.86507E-02 5.27206E-04-2.41684E-05
 -1      3491 7.86507E-02 2.34957E-05-5.28134E-04
 -1      3492 1.10156E-03-3.31194E-04 4.77611E-05
 -1      3493 2.10564E-03-8.00754E-04 3.12226E-04
 -1      3494 8.92328E-02-9.68312E-04-3.53282E-04
 -1      3495 5.35480E-02 5.71589E-04-5.60485E-05
 -1      3496 5.79787E-02 5.27937E-04-2.50758E-05
 -1      3497 3.78569E-02-9.70857E-04-2.56242E-04
 -1      3498 3.71656E-02-4.71413E-04-3.61760E-05
 -1      3499 3.92084E-02-5.14556E-04-7.94815E-05
 -1      3500 5.65399E-02-2.43943E-04 9.26476E-04
 -1      3501 5.57147E-02-4.71105E-04 4.42090E-04
 -1      3502 5.75566E-02 9.08819E-06 4.64615E-04
 -1      3503 8.33373E-02-9.70826E-04-2.48398E-04
 -1      3504 8.40358E-02-2.56585E-04-2.48182E-04
 -1      3505 8.47186E-02-5.53724E-04-5.45393E-04
 -1      3506 5.80550E-02 1.50109E-05-5.37123E-04
 -1      3507 2.12495E-03 3.20839E-04-8.04929E-04
 -1      3508 1.12263E-03 2.02949E-04-3.33691E-04
 -1      3509 5.15093E-02-1.06765E-03 1.06655E-03
 -1      3510 7.95201E-02-1.06891E-03-1.06143E-03
 -1      3511 8.12364E-02-9.70603E-04-5.98913E-04
 -1      3512 8.12362E-02-6.06635E-04-9.62697E-04
 -1      3513 7.92028E-02-6.06547E-04-9.62843E-04
 -1      3514 7.92029E-02-9.70516E-04-5.99059E-04
 -1      3515 7.95200E-02 1.05994E-03 1.06850E-03
 -1      3516 8.12362E-02 9.61414E-04 6.06146E-04
 -1      3517 8.12363E-02 5.97446E-04 9.69930E-04
 -1      3518 7.92028E-02 5.97620E-04 9.69871E-04
 -1      3519 7.92027E-02 9.61588E-04 6.06087E-04
 -1      3520 8.09207E-02-1.06900E-03-1.06136E-03
 -1      3521 8.26368E-02-6.06724E-04-9.62627E-04
 -1      3522 8.09206E-02 1.05985E-03 1.06857E-03
 -1      3523 8.26369E-02 5.97356E-04 9.70001E-04
 -1      3524 8.23211E-02 1.05976E-03 1.06864E-03
 -1      3525 8.26367E-02 9.61325E-04 6.06217E-04
 -1      3526 8.23212E-02-1.06909E-03-1.06129E-03
 -1      3527 8.26369E-02-9.70693E-04-5.98843E-04
 -1      3528 5.35500E-02 6.63890E-05-5.55723E-04
 -1      3529 1.14120E-02 2.61560E-05-5.36665E-04
 -1      3530 5.57105E-02 1.06371E-03 1.06730E-03
 -1      3531 5.71111E-02 1.06400E-03 1.06737E-03
 -1      3532 5.60271E-02 6.01019E-04 9.69096E-04
 -1      3533 5.74276E-02 6.01303E-04 9.69167E-04
 -1      3534 5.74275E-02 9.62652E-04 6.05382E-04
 -1      3535 3.14333E-03-5.64732E-04-9.35927E-04
 -1      3536 3.14484E-03-9.33559E-04-5.66776E-04
 -1      3537 3.86307E-03-1.01293E-03-1.01396E-03
 -1      3538 5.34547E-03-5.89966E-04-9.68592E-04
 -1      3539 5.34895E-03-9.66146E-04-5.92088E-04
 -1      3540 1.59572E-02 5.29572E-04-2.77269E-05
 -1      3541 9.34689E-02 6.70475E-04-1.23642E-04
 -1      3542 9.24801E-02 9.89946E-04-4.44810E-04
 -1      3543 6.61609E-02-3.00636E-04-1.00877E-03
 -1      3544 6.51460E-02-3.41297E-06-5.91721E-04
 -1      3545 6.68613E-02-5.15165E-04-5.08857E-04
 -1      3546 6.62683E-02 1.00784E-03 3.00384E-04
 -1      3547 6.69688E-02 5.07811E-04 5.14649E-04
 -1      3548 6.52535E-02 5.90957E-04 2.96304E-06
 -1      3549 1.59574E-02 2.56260E-05-5.31419E-04
 -1      3550 9.48423E-03-1.07926E-03 1.07517E-03
 -1      3551 9.25192E-02-1.01355E-03-4.53420E-04
 -1      3552 9.35079E-02-6.84466E-04-1.33813E-04
 -1      3553 1.22892E-02 1.06968E-03 1.07094E-03
 -1      3554 1.36914E-02 1.06809E-03 1.06852E-03
 -1      3555 1.19712E-02 6.07592E-04 9.69854E-04
 -1      3556 1.33706E-02 9.67433E-04 6.06467E-04
 -1      3557 1.19677E-02 9.69067E-04 6.08881E-04
 -1      3558 2.59634E-02-4.68366E-04-3.68603E-05
 -1      3559 1.14151E-02 5.33175E-04-2.80363E-05
 -1      3560 2.10331E-02-4.69362E-04 4.00707E-05
 -1      3561 2.10330E-02-4.10559E-05 4.69443E-04
 -1      3562 6.23775E-02 3.64825E-05-4.65786E-04
 -1      3563 7.42535E-02-4.37783E-05-4.65209E-04
 -1      3564 7.42537E-02-4.72601E-04-3.66034E-05
 -1      3565 7.42536E-02 3.54845E-05 4.71739E-04
 -1      3566 7.42535E-02 4.64307E-04 4.31340E-05
 -1      3567 6.23775E-02 4.65088E-04-3.69637E-05
 -1      3568 4.90434E-02-4.24315E-05 4.70429E-04
 -1      3569 4.90432E-02 4.65920E-04-3.76653E-05
 -1      3570 4.90439E-02-4.71037E-04 4.16061E-05
 -1      3571 4.90437E-02 3.73145E-05-4.66488E-04
 -1      3572 2.59625E-02-4.06298E-05-4.67675E-04
 -1      3573 2.59569E-02 4.67935E-04 4.17452E-05
 -1      3574 3.22367E-02 3.84133E-05-4.67303E-04
 -1      3575 3.22378E-02-4.70214E-04 4.05306E-05
 -1      3576 3.22367E-02 4.66599E-04-3.76251E-05
 -1      3577 2.59578E-02 4.01988E-05 4.72560E-04
 -1      3578 3.95346E-02 1.01014E-03-2.99827E-04
 -1      3579 3.88435E-02 5.11841E-04-5.11976E-04
 -1      3580 4.05626E-02 5.93268E-04 5.85517E-07
 -1      3581 3.95346E-02 2.99935E-04-1.01039E-03
 -1      3582 4.05583E-02-1.98152E-06-5.93059E-04
 -1      3583 3.22378E-02-4.20290E-05 4.70208E-04
 -1      3584 8.29292E-04-1.32822E-04 5.02204E-04
 -1      3585 1.11071E-03-2.28353E-04 3.57207E-04
 -1      3586 8.79355E-02-1.07198E-03 1.07037E-03
 -1      3587 8.93957E-02-1.06594E-03 1.07044E-03
 -1      3588 8.78258E-02-9.93078E-04 4.87770E-04
 -1      3589 8.78258E-02-6.31280E-04 8.49751E-04
 -1      3590 6.51997E-02 2.93772E-04-2.94379E-04
 -1      3591 6.69150E-02-2.17980E-04-2.11515E-04
 -1      3592 6.54607E-02-3.00772E-04-2.94516E-04
 -1      3593 7.67185E-02 1.06066E-03-1.06104E-03
 -1      3594 9.39377E-02-1.17460E-03-3.51862E-04
 -1      3595 9.35078E-02-7.54316E-04-4.72358E-04
 -1      3596 8.84460E-02-9.93027E-04 1.31374E-04
 -1      3597 9.39372E-02 3.64663E-04-1.14616E-03
 -1      3598 9.34689E-02 4.77060E-04-7.12729E-04
 -1      3599 1.45178E-02-1.52314E-04 1.51317E-04
 -1      3600 1.47074E-02 3.30264E-04 1.73861E-04
 -1      3601 1.26680E-02 3.30962E-04 1.75009E-04
 -1      3602 9.49023E-03-1.07851E-03-1.07439E-03
 -1      3603 8.31451E-02-9.48197E-04 2.32610E-04
 -1      3604 1.28487E-02-1.53326E-04 1.53166E-04
 -1      3605 5.46959E-02-9.70815E-04-2.45266E-04
 -1      3606 5.55250E-02-4.95942E-04-3.52264E-05
 -1      3607 5.65400E-02-9.56657E-04 2.12010E-04
 -1      3608 5.68037E-02-9.78711E-04-2.57472E-04
 -1      3609 5.76329E-02-5.03838E-04-4.74320E-05
 -1      3610 5.57888E-02-5.17996E-04-5.04708E-04
 -1      3611 8.17435E-02-1.54497E-04 1.53436E-04
 -1      3612 8.19357E-02 3.26497E-04 1.76307E-04
 -1      3613 7.99022E-02 3.26671E-04 1.76248E-04
 -1      3614 8.19357E-02-1.77126E-04-3.27572E-04
 -1      3615 7.99022E-02-1.77039E-04-3.27717E-04
 -1      3616 1.26651E-02-1.74222E-04-3.31719E-04
 -1      3617 6.69150E-02 2.10626E-04 2.17307E-04
 -1      3618 6.55682E-02 2.93598E-04 3.00167E-04
 -1      3619 5.42719E-02-1.07390E-03-1.06271E-03
 -1      3620 5.56724E-02-1.07399E-03-1.06264E-03
 -1      3621 5.39573E-02-6.13317E-04-9.59499E-04
 -1      3622 5.53961E-02-9.70772E-04-5.95640E-04
 -1      3623 5.39956E-02-9.70682E-04-5.95711E-04
 -1      3624 3.88892E-02 2.14061E-04-2.14348E-04
 -1      3625 4.02393E-02 2.95809E-04-2.96072E-04
 -1      3626 7.91110E-04-4.89806E-04 1.26072E-04
 -1      3627 1.11176E-03-3.59355E-04 2.26939E-04
 -1      3628 1.51202E-02-1.06522E-03-1.07145E-03
 -1      3629 1.37190E-02-1.06859E-03-1.07227E-03
 -1      3630 1.54371E-02-9.66450E-04-6.08906E-04
 -1      3631 1.40095E-02-6.05648E-04-9.66949E-04
 -1      3632 1.54107E-02-6.02545E-04-9.66276E-04
 -1      3633 8.00784E-02-1.56323E-04 1.55285E-04
 -1      3634 1.47075E-02-1.74003E-04-3.30157E-04
 -1      3635 6.72507E-02 2.50473E-04-2.51130E-04
 -1      3636 9.39372E-02 1.14086E-03-3.64995E-04
 -1      3637 9.34689E-02 7.07496E-04-4.77605E-04
 -1      3638 3.85604E-02 2.52515E-04 2.54805E-04
 -1      3639 5.38706E-02-4.85263E-04-1.51862E-05
 -1      3640 3.85613E-02-2.56618E-04-2.52125E-04
 -1      3641 1.22646E-02-1.07011E-03-1.07412E-03
 -1      3642 1.39821E-02-9.66971E-04-6.09546E-04
 -1      3643 1.19682E-02-6.07340E-04-9.70002E-04
 -1      3644 1.19409E-02-9.68927E-04-6.12410E-04
 -1      3645 5.67273E-02 3.27611E-04 1.75531E-04
 -1      3646 5.48854E-02-1.52582E-04 1.53006E-04
 -1      3647 5.46937E-02 3.27781E-04 1.75363E-04
 -1      3648 5.27828E-03-1.07311E-03 1.06199E-03
 -1      3649 6.97542E-03-6.23120E-04 9.82925E-04
 -1      3650 1.11539E-03 1.97520E-04 1.34057E-04
 -1      3651 8.51219E-02 1.06012E-03-1.06061E-03
 -1      3652 8.64193E-02 4.80188E-04-9.83774E-04
 -1      3653 8.42718E-02 6.25497E-04-9.89982E-04
 -1      3654 5.71493E-02-1.07408E-03-1.06256E-03
 -1      3655 5.54341E-02-6.13412E-04-9.59424E-04
 -1      3656 5.75039E-02-9.78667E-04-6.07846E-04
 -1      3657 5.75419E-02-6.21308E-04-9.71630E-04
 -1      3658 8.78941E-02 1.06694E-03-1.06747E-03
 -1      3659 8.93678E-02 1.06684E-03-1.05636E-03
 -1      3660 8.78054E-02 8.43885E-04-6.26730E-04
 -1      3661 8.78054E-02 4.87092E-04-9.83703E-04
 -1      3662 7.08947E-03-4.98894E-04 1.31317E-05
 -1      3663 1.13524E-03 2.04938E-04 3.38378E-04
 -1      3664 2.13741E-03 3.21523E-04 8.02741E-04
 -1      3665 5.48856E-02-9.45978E-04 2.32050E-04
 -1      3666 7.08780E-03 1.78890E-05-4.98848E-04
 -1      3667 8.84460E-02 1.33678E-04-9.83760E-04
 -1      3668 8.85032E-02-1.19457E-04-6.22563E-04
 -1      3669 6.70569E-03-1.08621E-03 1.08126E-03
 -1      3670 6.99496E-03-9.92440E-04 6.09640E-04
 -1      3671 5.28960E-03 1.06493E-03-1.07098E-03
 -1      3672 6.98711E-03 9.86227E-04-6.19685E-04
 -1      3673 5.65398E-02-1.63261E-04 1.32965E-04
 -1      3674 5.76620E-02 6.29642E-04-9.91661E-04
 -1      3675 5.69618E-02 2.75268E-04-9.91786E-04
 -1      3676 5.45647E-02 3.18750E-04-1.02259E-03
 -1      3677 6.72216E-03 1.09045E-03-1.08419E-03
 -1      3678 6.99665E-03 6.22268E-04-9.90941E-04
 -1      3679 7.95205E-02-1.06945E-03 1.06796E-03
 -1      3680 8.09210E-02-1.06954E-03 1.06803E-03
 -1      3681 8.24448E-02-9.48241E-04 5.82985E-04
 -1      3682 8.10443E-02-5.84367E-04 9.46882E-04
 -1      3683 8.10443E-02-9.48151E-04 5.82914E-04
 -1      3684 8.23216E-02-1.06963E-03 1.06810E-03
 -1      3685 8.24448E-02-5.84457E-04 9.46953E-04
 -1      3686 7.93792E-02-5.86194E-04 9.48731E-04
 -1      3687 7.93792E-02-9.49978E-04 5.84763E-04
 -1      3688 5.57104E-02 7.90437E-04-7.67126E-05
 -1      3689 5.69618E-02 9.90763E-04-2.77319E-04
 -1      3690 8.09196E-02 7.89036E-04-7.55026E-05
 -1      3691 7.96681E-02 9.89571E-04-2.75919E-04
 -1      3692 8.09197E-02 7.49314E-05-7.89969E-04
 -1      3693 7.96681E-02 2.75466E-04-9.90386E-04
 -1      3694 1.36901E-02 7.81615E-05-7.93388E-04
 -1      3695 1.24385E-02 2.78706E-04-9.96968E-04
 -1      3696 1.36871E-02 7.93220E-04-7.91337E-05
 -1      3697 1.24354E-02 9.94055E-04-2.82433E-04
 -1      3698 9.13948E-02 9.74742E-04 6.21705E-04
 -1      3699 9.13882E-02 6.06734E-04 9.89634E-04
 -1      3700 9.08487E-02 1.05518E-03 1.06492E-03
 -1      3701 8.93501E-02 9.27550E-04 5.70757E-04
 -1      3702 8.93435E-02 5.59542E-04 9.38685E-04
 -1      3703 1.22895E-02-1.07061E-03 1.07025E-03
 -1      3704 1.38201E-02-5.84402E-04 9.44425E-04
 -1      3705 1.38170E-02-9.45492E-04 5.83325E-04
 -1      3706 1.21489E-02-9.48292E-04 5.86538E-04
 -1      3707 1.21517E-02-5.86723E-04 9.47916E-04
 -1      3708 1.36917E-02-1.06913E-03 1.06783E-03
 -1      3709 1.52198E-02-9.44970E-04 5.82010E-04
 -1      3710 1.50928E-02-1.06577E-03 1.06721E-03
 -1      3711 1.52214E-02-5.81229E-04 9.43850E-04
 -1      3712 1.92959E-02-1.06501E-03-1.06443E-03
 -1      3713 2.06966E-02-5.65211E-04-9.28166E-04
 -1      3714 2.06965E-02-1.06511E-03-1.06436E-03
 -1      3715 2.06967E-02-9.29169E-04-5.64394E-04
 -1      3716 7.53180E-02 1.06075E-03-1.06111E-03
 -1      3717 7.39175E-02 9.24660E-04-5.61283E-04
 -1      3718 7.39174E-02 1.06084E-03-1.06118E-03
 -1      3719 7.39175E-02 5.60876E-04-9.25251E-04
 -1      3720 7.53188E-02-1.06918E-03 1.06774E-03
 -1      3721 7.39181E-02-9.32911E-04 5.67780E-04
 -1      3722 7.25169E-02 1.06093E-03-1.06125E-03
 -1      3723 7.39182E-02-1.06909E-03 1.06767E-03
 -1      3724 7.39181E-02-5.69127E-04 9.31748E-04
 -1      3725 7.25177E-02-1.06900E-03 1.06760E-03
 -1      3726 6.13128E-02-1.06774E-03-1.06235E-03
 -1      3727 6.27133E-02-5.67939E-04-9.26101E-04
 -1      3728 6.27134E-02-1.06783E-03-1.06228E-03
 -1      3729 6.27134E-02-9.31907E-04-5.62317E-04
 -1      3730 6.13127E-02 1.06111E-03 1.06758E-03
 -1      3731 6.27132E-02 9.25092E-04 5.67686E-04
 -1      3732 6.27133E-02 1.06102E-03 1.06765E-03
 -1      3733 6.27134E-02 5.61124E-04 9.31470E-04
 -1      3734 2.20971E-02-1.06521E-03-1.06430E-03
 -1      3735 3.19011E-02-1.06586E-03-1.06383E-03
 -1      3736 3.33016E-02-1.06595E-03-1.06376E-03
 -1      3737 3.19010E-02-5.65965E-04-9.27652E-04
 -1      3738 3.19011E-02-9.29934E-04-5.63867E-04
 -1      3739 5.01083E-02-1.06703E-03-1.06291E-03
 -1      3740 4.87081E-02-9.31037E-04-5.63048E-04
 -1      3741 4.87078E-02-1.06694E-03-1.06298E-03
 -1      3742 4.87079E-02-5.67068E-04-9.26832E-04
 -1      3743 5.01082E-02 1.06309E-03 1.06702E-03
 -1      3744 4.87074E-02 9.25963E-04 5.66955E-04
 -1      3745 2.48978E-02 1.06397E-03-1.06364E-03
 -1      3746 2.62981E-02 9.27755E-04-5.63724E-04
 -1      3747 2.62984E-02 1.06389E-03-1.06357E-03
 -1      3748 2.62981E-02 5.63972E-04-9.27692E-04
 -1      3749 4.87077E-02 1.06191E-03 1.06694E-03
 -1      3750 4.87075E-02 5.61994E-04 9.30739E-04
 -1      3751 2.20970E-02 1.06627E-03 1.06558E-03
 -1      3752 2.06964E-02 9.27469E-04 5.66118E-04
 -1      3753 2.06964E-02 1.06592E-03 1.06550E-03
 -1      3754 2.06965E-02 5.65757E-04 9.29893E-04
 -1      3755 1.92958E-02 1.06600E-03 1.06669E-03
 -1      3756 4.73071E-02 1.06200E-03 1.06687E-03
 -1      3757 4.73072E-02-1.06685E-03-1.06306E-03
 -1      3758 3.33015E-02 1.06290E-03 1.06617E-03
 -1      3759 3.19009E-02 9.26646E-04 5.66991E-04
 -1      3760 2.62969E-02-1.07452E-03 1.06527E-03
 -1      3761 2.48963E-02-1.07442E-03 1.06520E-03
 -1      3762 2.62971E-02-5.73421E-04 9.31512E-04
 -1      3763 2.62995E-02-9.28728E-04 5.67546E-04
 -1      3764 3.61000E-02 1.06326E-03-1.07046E-03
 -1      3765 3.74982E-02 1.07056E-03-1.07039E-03
 -1      3766 3.74958E-02 9.28527E-04-5.72030E-04
 -1      3767 3.74958E-02 5.72124E-04-9.28613E-04
 -1      3768 3.18946E-02 1.06634E-03 1.06610E-03
 -1      3769 3.18947E-02 5.66023E-04 9.30776E-04
 -1      3770 3.89024E-02-1.07247E-03 1.06701E-03
 -1      3771 3.75032E-02-5.72894E-04 9.31631E-04
 -1      3772 3.61020E-02-1.07303E-03 1.06820E-03
 -1      3773 3.74976E-02-9.31052E-04 5.70092E-04
 -1      3774 5.46957E-02-1.77419E-04-3.24311E-04
 -1      3775 5.68035E-02-1.85315E-04-3.36517E-04
 -1      3776 3.75071E-02-1.07239E-03 1.06827E-03
 -1      3777 6.86510E-02 6.00974E-04-9.65256E-04
 -1      3778 6.86510E-02 9.64758E-04-6.01288E-04
 -1      3779 6.83152E-02 1.06120E-03-1.06146E-03
 -1      3780 6.66001E-02 6.44273E-04-1.00851E-03
 -1      3781 6.66001E-02 1.00806E-03-6.44537E-04
 -1      3782 4.17023E-02-1.07485E-03 1.06958E-03
 -1      3783 4.30935E-02-9.30315E-04 5.70661E-04
 -1      3784 8.65291E-02-1.07189E-03 1.06831E-03
 -1      3785 4.31008E-02-1.07450E-03 1.06965E-03
 -1      3786 4.31033E-02-5.73914E-04 9.31099E-04
 -1      3787 5.27336E-03-1.07280E-03-1.06522E-03
 -1      3788 6.80109E-03-5.98462E-04-9.70067E-04
 -1      3789 3.19953E-03 5.58894E-04 9.27728E-04
 -1      3790 3.20501E-03 9.29745E-04 5.56968E-04
 -1      3791 3.87150E-03 1.01631E-03 1.01004E-03
 -1      3792 5.24665E-03 5.76548E-04 9.54743E-04
 -1      3793 5.24680E-03 9.51549E-04 5.76983E-04
 -1      3794 3.71693E-02-6.09185E-04-9.66571E-04
 -1      3795 3.71682E-02-9.70724E-04-6.10169E-04
 -1      3796 3.74999E-02-1.06864E-03-1.07093E-03
 -1      3797 3.92120E-02-6.52329E-04-1.00988E-03
 -1      3798 3.92109E-02-1.01387E-03-6.53475E-04
 -1      3799 3.71770E-02 6.06361E-04 9.69111E-04
 -1      3800 3.71684E-02 9.66800E-04 6.07754E-04
 -1      3801 3.75096E-02 1.06616E-03 1.06881E-03
 -1      3802 3.92249E-02 6.49335E-04 1.01252E-03
 -1      3803 3.92163E-02 1.00977E-03 6.51162E-04
 -1      3804 8.65080E-02 1.06003E-03-1.06754E-03
 -1      3805 6.83156E-02 5.60765E-04 9.31752E-04
 -1      3806 6.83155E-02 9.24733E-04 5.67968E-04
 -1      3807 6.83155E-02 1.06066E-03 1.06793E-03
 -1      3808 7.00308E-02 6.43541E-04 1.01477E-03
 -1      3809 7.00306E-02 1.00751E-03 6.50982E-04
 -1      3810 7.00307E-02 5.07615E-04 5.14803E-04
 -1      3811 6.83155E-02-5.68298E-04-9.25819E-04
 -1      3812 6.83157E-02-9.32266E-04-5.62035E-04
 -1      3813 6.83156E-02-1.06819E-03-1.06200E-03
 -1      3814 7.00307E-02-6.51294E-04-1.00866E-03
 -1      3815 7.00308E-02-1.01526E-03-6.44877E-04
 -1      3816 7.00308E-02-5.15368E-04-5.08698E-04
 -1      3817 5.39935E-02 6.01188E-04 9.68929E-04
 -1      3818 5.67271E-02 9.62786E-04 2.54937E-04
 -1      3819 5.46936E-02 9.62956E-04 2.54770E-04
 -1      3820 5.53939E-02 9.62822E-04 6.05215E-04
 -1      3821 5.39933E-02 9.62912E-04 6.05144E-04
 -1      3822 6.70045E-03-1.08549E-03-1.08421E-03
 -1      3823 6.81611E-03-9.67787E-04-5.99360E-04
 -1      3824 2.80141E-02 1.01066E-03-6.46608E-04
 -1      3825 2.80141E-02 6.46874E-04-1.01058E-03
 -1      3826 2.80138E-02 5.10742E-04-5.10729E-04
 -1      3827 3.01859E-02-1.01271E-03-6.46881E-04
 -1      3828 3.01857E-02-6.48741E-04-1.01067E-03
 -1      3829 3.01858E-02-5.12815E-04-5.10702E-04
 -1      3830 8.19364E-02 9.61458E-04 2.55772E-04
 -1      3831 7.99029E-02 9.61632E-04 2.55713E-04
 -1      3832 8.19364E-02-2.56270E-04-9.62573E-04
 -1      3833 7.99030E-02-2.56183E-04-9.62719E-04
 -1      3834 1.54107E-02 6.02384E-04 9.66554E-04
 -1      3835 1.33723E-02 6.03267E-04 9.68401E-04
 -1      3836 1.47070E-02 9.66608E-04 2.51191E-04
 -1      3837 1.54089E-02 9.66270E-04 6.04953E-04
 -1      3838 1.26682E-02 9.68214E-04 2.52485E-04
 -1      3839 6.69146E-02 1.06129E-03-1.06153E-03
 -1      3840 6.55141E-02 1.06138E-03-1.06160E-03
 -1      3841 6.51996E-02 6.44363E-04-1.00858E-03
 -1      3842 6.51995E-02 1.00815E-03-6.44607E-04
 -1      3843 7.11168E-02-1.06837E-03-1.06186E-03
 -1      3844 6.97162E-02-1.06828E-03-1.06193E-03
 -1      3845 7.14314E-02-1.01535E-03-6.44806E-04
 -1      3846 7.14313E-02-6.51383E-04-1.00859E-03
 -1      3847 6.97161E-02 1.06057E-03 1.06800E-03
 -1      3848 7.14313E-02 6.43451E-04 1.01484E-03
 -1      3849 7.11166E-02 1.06048E-03 1.06807E-03
 -1      3850 7.14312E-02 1.00742E-03 6.51053E-04
 -1      3851 2.90999E-02-1.06568E-03-1.06397E-03
 -1      3852 3.05005E-02-1.06577E-03-1.06390E-03
 -1      3853 2.87853E-02-1.01262E-03-6.46951E-04
 -1      3854 2.87852E-02-6.48651E-04-1.01074E-03
 -1      3855 2.76989E-02 1.06380E-03-1.06350E-03
 -1      3856 2.90995E-02 1.06371E-03-1.06343E-03
 -1      3857 2.94146E-02 1.01057E-03-6.46538E-04
 -1      3858 2.94146E-02 6.46785E-04-1.01051E-03
 -1      3859 2.80136E-02-1.01224E-03 6.49302E-04
 -1      3860 2.80113E-02-6.56934E-04 1.01327E-03
 -1      3861 2.80139E-02-5.11146E-04 5.15541E-04
 -1      3862 3.01814E-02 1.01015E-03 6.48792E-04
 -1      3863 3.01752E-02 6.49530E-04 1.01258E-03
 -1      3864 3.01815E-02 5.09838E-04 5.13468E-04
 -1      3865 2.76954E-02-1.07408E-03 1.06535E-03
 -1      3866 2.94098E-02-6.56501E-04 1.01334E-03
 -1      3867 3.04940E-02 1.06643E-03 1.06603E-03
 -1      3868 2.87808E-02 1.01024E-03 6.48721E-04
 -1      3869 4.48136E-02-1.01398E-03 6.52730E-04
 -1      3870 4.48233E-02-6.57575E-04 1.01317E-03
 -1      3871 4.48160E-02-5.13389E-04 5.14179E-04
 -1      3872 4.59070E-02-1.06730E-03 1.06626E-03
 -1      3873 4.44990E-02-1.06721E-03 1.06972E-03
 -1      3874 4.62216E-02-6.50281E-04 1.01324E-03
 -1      3875 4.62216E-02-1.01406E-03 6.49272E-04
 -1      3876 2.90959E-02-1.07417E-03 1.06542E-03
 -1      3877 2.94142E-02-1.01233E-03 6.49373E-04
 -1      3878 4.30958E-02 9.26795E-04-5.68619E-04
 -1      3879 4.30958E-02 5.68636E-04-9.26959E-04
 -1      3880 4.30960E-02 1.06844E-03-1.06835E-03
 -1      3881 4.48153E-02 1.00961E-03-6.51411E-04
 -1      3882 4.48153E-02 6.51447E-04-1.00975E-03
 -1      3883 4.48152E-02 5.09800E-04-5.10017E-04
 -1      3884 3.88984E-02-1.06873E-03-1.07130E-03
 -1      3885 4.06094E-02-1.01396E-03-6.53839E-04
 -1      3886 1.47102E-02-2.52061E-04-9.66396E-04
 -1      3887 5.46956E-02-2.57740E-04-9.59371E-04
 -1      3888 5.68034E-02-2.65635E-04-9.71577E-04
 -1      3889 4.02937E-02-1.06750E-03-1.07123E-03
 -1      3890 4.06073E-02-6.51091E-04-1.00981E-03
 -1      3891 3.89048E-02 1.06607E-03 1.06755E-03
 -1      3892 4.06115E-02 1.00968E-03 6.49905E-04
 -1      3893 4.59054E-02 1.06540E-03-1.06535E-03
 -1      3894 4.45007E-02 1.06835E-03-1.06542E-03
 -1      3895 4.62200E-02 1.00951E-03-6.48483E-04
 -1      3896 4.62201E-02 6.48499E-04-1.00968E-03
 -1      3897 2.90924E-02 1.06520E-03 1.06596E-03
 -1      3898 2.87736E-02 6.48307E-04 1.01251E-03
 -1      3899 6.86514E-02-4.72262E-04 4.26148E-05
 -1      3900 6.90160E-02-9.32400E-04-2.11590E-04
 -1      3901 6.90157E-02-2.17933E-04-9.25695E-04
 -1      3902 6.90157E-02 9.24777E-04 2.17594E-04
 -1      3903 6.86514E-02-4.36568E-05 4.71437E-04
 -1      3904 6.90160E-02 2.10310E-04 9.31699E-04
 -1      3905 1.26685E-02-2.52473E-04-9.68960E-04
 -1      3906 5.57491E-02-1.07453E-03 1.06676E-03
 -1      3907 5.42722E-02-1.07444E-03 1.06668E-03
 -1      3908 5.41472E-02-5.88842E-04 9.46389E-04
 -1      3909 5.41854E-02-9.46022E-04 5.82425E-04
 -1      3910 5.56240E-02-5.88936E-04 9.46464E-04
 -1      3911 6.09767E-02 9.65249E-04-6.01674E-04
 -1      3912 5.90626E-02 9.90717E-04-6.27623E-04
 -1      3913 1.59217E-02-2.30593E-04 9.43775E-04
 -1      3914 1.69360E-02-5.27275E-04 5.27846E-04
 -1      3915 5.04438E-02 9.65928E-04-6.02208E-04
 -1      3916 5.24638E-02 1.03447E-03-6.58640E-04
 -1      3917 4.34369E-02 3.88732E-05 4.70963E-04
 -1      3918 4.38011E-02-2.16164E-04 9.31225E-04
 -1      3919 6.09767E-02 6.01465E-04-9.65642E-04
 -1      3920 5.90626E-02 6.26933E-04-9.91591E-04
 -1      3921 4.34326E-02-4.22117E-05-4.66597E-04
 -1      3922 4.37978E-02 2.13876E-04-9.27014E-04
 -1      3923 5.04438E-02 6.03410E-04-9.66176E-04
 -1      3924 5.24638E-02 6.71951E-04-1.02261E-03
 -1      3925 4.03043E-02 1.06355E-03 1.06762E-03
 -1      3926 4.06244E-02 6.46817E-04 1.01259E-03
 -1      3927 4.34328E-02-4.70571E-04-3.69299E-05
 -1      3928 4.37982E-02-9.30270E-04 2.15437E-04
 -1      3929 1.59217E-02-9.44711E-04 2.29294E-04
 -1      3930 5.79405E-02-2.42640E-04 9.26547E-04
 -1      3931 5.89554E-02-5.39865E-04 5.09501E-04
 -1      3932 4.34367E-02 4.67232E-04 4.12954E-05
 -1      3933 4.37977E-02 9.26660E-04-2.13869E-04
 -1      3934 5.29472E-03 1.06521E-03 1.06938E-03
 -1      3935 6.71660E-03 9.55295E-04 5.85157E-04
 -1      3936 8.93885E-02 1.05527E-03 1.07098E-03
 -1      3937 8.78899E-02 9.27642E-04 5.76816E-04
 -1      3938 6.72818E-03 1.08940E-03 1.08167E-03
 -1      3939 6.72129E-03 5.91367E-04 9.58184E-04
 -1      3940 8.39639E-03 9.77365E-04-6.15118E-04
 -1      3941 1.03386E-02 9.98810E-04-6.36787E-04
 -1      3942 8.79148E-02 1.06640E-03 1.07091E-03
 -1      3943 8.78697E-02 5.70669E-04 9.38614E-04
 -1      3944 2.87139E-02-1.01220E-03 2.98928E-04
 -1      3945 2.69997E-02-9.28685E-04 2.17174E-04
 -1      3946 2.73852E-02-5.11613E-04-7.99646E-05
 -1      3947 2.80851E-02-1.01266E-03-2.96577E-04
 -1      3948 2.90993E-02-5.95124E-04 1.78939E-06
 -1      3949 7.67189E-02 1.06012E-03 1.06835E-03
 -1      3950 7.67190E-02-1.06873E-03-1.06158E-03
 -1      3951 3.01144E-02-1.01229E-03 2.98999E-04
 -1      3952 3.08146E-02-5.12348E-04 8.48035E-05
 -1      3953 3.12009E-02-9.29978E-04-2.13493E-04
 -1      3954 2.94857E-02-1.01275E-03-2.96507E-04
 -1      3955 2.94811E-02 1.01029E-03 2.98347E-04
 -1      3956 3.12006E-02 9.26779E-04 2.16546E-04
 -1      3957 3.08154E-02 5.09988E-04-8.09726E-05
 -1      3958 3.01150E-02 1.01044E-03-2.96093E-04
 -1      3959 2.90959E-02 5.93494E-04 8.28257E-07
 -1      3960 2.69985E-02 2.13519E-04-9.27746E-04
 -1      3961 2.73842E-02-8.38747E-05-5.10781E-04
 -1      3962 2.80848E-02-2.98196E-04-1.01068E-03
 -1      3963 2.87144E-02 2.96420E-04-1.01063E-03
 -1      3964 2.91002E-02-9.73727E-07-5.93664E-04
 -1      3965 2.94854E-02-2.98287E-04-1.01061E-03
 -1      3966 3.12006E-02-2.15511E-04-9.27598E-04
 -1      3967 3.01150E-02 2.96331E-04-1.01056E-03
 -1      3968 3.08154E-02 8.18023E-05-5.10650E-04
 -1      3969 2.80805E-02 1.01038E-03 2.98276E-04
 -1      3970 2.73799E-02 5.10592E-04 8.37107E-05
 -1      3971 2.69984E-02 9.27623E-04-2.13281E-04
 -1      3972 2.87144E-02 1.01053E-03-2.96164E-04
 -1      3973 8.39087E-03 6.14816E-04-9.82101E-04
 -1      3974 1.03329E-02 6.38473E-04-1.00150E-03
 -1      3975 3.11955E-02 2.09397E-04 9.30650E-04
 -1      3976 3.08145E-02-8.41631E-05 5.14481E-04
 -1      3977 3.01090E-02-3.01097E-04 1.01346E-03
 -1      3978 2.94760E-02 2.92904E-04 1.01245E-03
 -1      3979 2.90950E-02-6.56052E-07 5.96282E-04
 -1      3980 5.45647E-02 1.03425E-03-3.08124E-04
 -1      3981 8.21710E-02 9.89327E-04-2.75709E-04
 -1      3982 8.21710E-02 2.75222E-04-9.90176E-04
 -1      3983 8.31871E-02 2.31647E-05-5.27778E-04
 -1      3984 2.86999E-02-3.01867E-04 1.01339E-03
 -1      3985 2.69857E-02-2.18356E-04 9.31637E-04
 -1      3986 2.80668E-02 2.92133E-04 1.01238E-03
 -1      3987 2.73809E-02 8.28545E-05 5.14527E-04
 -1      3988 8.65083E-02 1.06649E-03 1.06885E-03
 -1      3989 8.10539E-03 1.08745E-03 1.07968E-03
 -1      3990 8.37222E-02-1.06972E-03 1.06817E-03
 -1      3991 1.49368E-02 9.91912E-04-2.80611E-04
 -1      3992 1.64950E-02-1.06554E-03 1.06616E-03
 -1      3993 1.66219E-02-9.44809E-04 5.80984E-04
 -1      3994 1.78840E-02-1.07160E-03 1.06611E-03
 -1      3995 1.66103E-02-5.87131E-04 9.43679E-04
 -1      3996 7.81199E-02-1.06936E-03 1.06789E-03
 -1      3997 5.79405E-02-9.56747E-04 2.12081E-04
 -1      3998 8.85029E-02-5.27667E-04-2.17502E-04
 -1      3999 1.49398E-02 2.77689E-04-9.94015E-04
 -1      4000 5.99126E-02-1.06819E-03 1.06697E-03
 -1      4001 5.86409E-02-9.56880E-04 5.62525E-04
 -1      4002 5.86409E-02-5.93096E-04 9.26494E-04
 -1      4003 6.02271E-02-6.51178E-04 1.01395E-03
 -1      4004 6.02271E-02-1.01496E-03 6.49977E-04
 -1      4005 1.08831E-02-1.07526E-03 1.07252E-03
 -1      4006 1.66221E-02-2.30411E-04 2.29453E-04
 -1      4007 1.11641E-03 6.57449E-05 2.00126E-04
 -1      4008 6.51502E-02-3.07025E-04 1.02022E-03
 -1      4009 6.47856E-02-5.60993E-04 5.59959E-04
 -1      4010 6.37496E-02-2.57826E-04 9.71065E-04
 -1      4011 6.48681E-02 2.93462E-04 1.01442E-03
 -1      4012 6.45035E-02 3.94948E-05 5.54157E-04
 -1      4013 6.59041E-02-9.70425E-06 6.03312E-04
 -1      4014 9.14657E-02-1.01344E-03-6.31460E-04
 -1      4015 9.00659E-02-9.68278E-04-6.95581E-04
 -1      4016 6.97161E-02-2.18159E-04-2.11374E-04
 -1      4017 6.97161E-02 2.10446E-04 2.17448E-04
 -1      4018 5.86407E-02-2.42506E-04 2.12297E-04
 -1      4019 4.45011E-02 2.12198E-04-2.12824E-04
 -1      4020 4.45013E-02-2.16161E-04 2.16843E-04
 -1      4021 5.85502E-02-1.07471E-03 1.06690E-03
 -1      4022 5.72784E-02-5.99615E-04 9.26424E-04
 -1      4023 1.82096E-02-1.01173E-03 6.50303E-04
 -1      4024 1.81980E-02-6.54069E-04 1.01298E-03
 -1      4025 6.37496E-02-9.71931E-04 2.56599E-04
 -1      4026 6.51502E-02-1.02113E-03 3.05753E-04
 -1      4027 6.47606E-02-1.01501E-03-2.94732E-04
 -1      4028 6.57966E-02-6.04075E-04 8.62773E-06
 -1      4029 6.43960E-02-5.54875E-04-4.05272E-05
 -1      4030 5.71496E-02-1.07462E-03 1.06683E-03
 -1      4031 5.72403E-02-9.56791E-04 5.62455E-04
 -1      4032 8.33370E-02-2.56360E-04-9.62503E-04
 -1      4033 5.28717E-02-1.07435E-03 1.06661E-03
 -1      4034 8.09468E-03-1.08312E-03-1.08199E-03
 -1      4035 6.65508E-02-1.02122E-03 3.05824E-04
 -1      4036 6.72509E-02-5.21282E-04 9.16288E-05
 -1      4037 6.76155E-02-9.32310E-04-2.11661E-04
 -1      4038 6.61611E-02-1.01510E-03-2.94662E-04
 -1      4039 2.94140E-02-2.97723E-04 2.98911E-04
 -1      4040 2.76998E-02-2.14212E-04 2.17157E-04
 -1      4041 2.87852E-02-2.98190E-04-2.96594E-04
 -1      4042 2.87809E-02 2.96278E-04 2.97898E-04
 -1      4043 3.05004E-02 2.12771E-04 2.16097E-04
 -1      4044 2.94148E-02 2.96428E-04-2.96542E-04
 -1      4045 3.05005E-02-2.15414E-04-2.13580E-04
 -1      4046 2.76989E-02 2.13526E-04-2.13659E-04
 -1      4047 6.37992E-02 5.08165E-04-8.00381E-05
 -1      4048 6.44993E-02 1.00810E-03-2.94233E-04
 -1      4049 6.34135E-02 9.25136E-04 2.17312E-04
 -1      4050 6.41676E-02 5.07990E-04 5.14508E-04
 -1      4051 6.48678E-02 1.00793E-03 3.00313E-04
 -1      4052 5.43099E-02 1.06380E-03 1.06723E-03
 -1      4053 5.71107E-02 1.06453E-03-1.06202E-03
 -1      4054 4.13085E-02-2.96564E-04-1.00968E-03
 -1      4055 4.20093E-02-8.52812E-05-5.09821E-04
 -1      4056 4.23948E-02 2.15706E-04-9.27084E-04
 -1      4057 4.09438E-02 2.99005E-04-1.01032E-03
 -1      4058 4.16446E-02 5.10288E-04-5.10463E-04
 -1      4059 4.20136E-02 5.09968E-04 8.38232E-05
 -1      4060 4.13127E-02 1.00973E-03 2.95369E-04
 -1      4061 4.23948E-02 9.26750E-04-2.15679E-04
 -1      4062 4.09437E-02 1.01005E-03-2.98917E-04
 -1      4063 1.50923E-02 1.06454E-03 1.06777E-03
 -1      4064 6.65507E-02-3.07115E-04 1.02029E-03
 -1      4065 6.62686E-02 2.93372E-04 1.01449E-03
 -1      4066 6.76154E-02 2.10400E-04 9.31628E-04
 -1      4067 6.72509E-02-9.26764E-05 5.20451E-04
 -1      4068 6.30492E-02-4.32979E-05 4.71155E-04
 -1      4069 6.34137E-02 2.10669E-04 9.31417E-04
 -1      4070 5.58398E-02-9.56701E-04 5.62384E-04
 -1      4071 6.44993E-02 2.93998E-04-1.00870E-03
 -1      4072 6.37992E-02 7.95592E-05-5.08861E-04
 -1      4073 6.34135E-02-2.17574E-04-9.25977E-04
 -1      4074 6.47603E-02-3.00546E-04-1.00884E-03
 -1      4075 6.40602E-02-5.14985E-04-5.08998E-04
 -1      4076 6.68612E-02-6.51091E-04-1.00882E-03
 -1      4077 6.68614E-02-1.01506E-03-6.45036E-04
 -1      4078 6.61610E-02-1.01492E-03-1.00895E-03
 -1      4079 6.41676E-02 1.00788E-03 6.50687E-04
 -1      4080 6.41677E-02 6.43916E-04 1.01447E-03
 -1      4081 6.48679E-02 1.00775E-03 1.01460E-03
 -1      4082 8.40375E-02-9.70782E-04-5.98772E-04
 -1      4083 8.58036E-02-1.01618E-03-6.43990E-04
 -1      4084 8.40374E-02-6.06814E-04-9.62556E-04
 -1      4085 8.58034E-02-6.52211E-04-1.00777E-03
 -1      4086 6.54608E-02-1.01497E-03-6.45107E-04
 -1      4087 6.54607E-02-6.51001E-04-1.00889E-03
 -1      4088 6.55681E-02 1.00779E-03 6.50758E-04
 -1      4089 6.55683E-02 6.43827E-04 1.01454E-03
 -1      4090 5.81278E-02 9.62515E-04 9.69293E-04
 -1      4091 7.85025E-02 9.61541E-04 9.69928E-04
 -1      4092 7.85026E-02-9.70379E-04-9.62970E-04
 -1      4093 5.32931E-02 9.62865E-04 9.68985E-04
 -1      4094 8.33371E-02 9.61188E-04 9.70128E-04
 -1      4095 8.51224E-02-1.06927E-03-1.06115E-03
 -1      4096 8.33372E-02-9.70645E-04-9.62684E-04
 -1      4097 1.61107E-02 9.66072E-04 9.66621E-04
 -1      4098 4.16448E-02 1.01009E-03-6.51856E-04
 -1      4099 4.16448E-02 6.51936E-04-1.01020E-03
 -1      4100 4.09490E-02 1.01023E-03-1.01014E-03
 -1      4101 2.66634E-02-9.69417E-04-2.53472E-04
 -1      4102 2.70488E-02-5.52345E-04-5.50611E-04
 -1      4103 4.02444E-02 1.01018E-03-6.54118E-04
 -1      4104 4.02444E-02 6.54216E-04-1.01027E-03
 -1      4105 1.61110E-02-9.66340E-04-9.66247E-04
 -1      4106 1.12728E-02 9.70659E-04 9.71583E-04
 -1      4107 2.03329E-02-9.69282E-04 2.54251E-04
 -1      4108 1.99465E-02-5.51837E-04 5.52772E-04
 -1      4109 6.23490E-02-2.57736E-04 9.70995E-04
 -1      4110 6.19633E-02-5.54870E-04 5.53878E-04
 -1      4111 7.35535E-02-9.72430E-04-2.51122E-04
 -1      4112 7.31676E-02-5.55309E-04-5.48300E-04
 -1      4113 7.35532E-02-2.57964E-04-9.65227E-04
 -1      4114 7.35531E-02 9.64226E-04 2.57582E-04
 -1      4115 7.31676E-02 5.47154E-04 5.54721E-04
 -1      4116 7.35534E-02 2.49760E-04 9.71687E-04
 -1      4117 6.30776E-02 9.65026E-04-2.51159E-04
 -1      4118 6.34633E-02 5.48055E-04-5.48509E-04
 -1      4119 6.23491E-02-9.71841E-04 2.56528E-04
 -1      4120 6.30492E-02-4.71903E-04 4.23329E-05
 -1      4121 6.30777E-02 2.50921E-04-9.65625E-04
 -1      4122 3.15362E-02 9.67047E-04-2.52746E-04
 -1      4123 3.11511E-02 5.50255E-04-5.50265E-04
 -1      4124 3.15376E-02-9.70153E-04 2.54726E-04
 -1      4125 3.11513E-02-5.52523E-04 5.53022E-04
 -1      4126 6.58503E-02-3.06889E-04 3.05970E-04
 -1      4127 6.44497E-02-2.57690E-04 2.56815E-04
 -1      4128 2.66575E-02 9.67719E-04 2.56310E-04
 -1      4129 2.70390E-02 5.50688E-04 5.53302E-04
 -1      4130 2.66631E-02-2.54951E-04-9.67577E-04
 -1      4131 3.15363E-02 2.52942E-04-9.67213E-04
 -1      4132 6.79513E-02-9.72200E-04 2.56810E-04
 -1      4133 6.75867E-02-5.61172E-04 5.60100E-04
 -1      4134 6.79513E-02-2.58096E-04 9.71277E-04
 -1      4135 4.83435E-02-2.56843E-04 9.70294E-04
 -1      4136 4.79578E-02-5.53977E-04 5.53178E-04
 -1      4137 4.83430E-02 2.51869E-04-9.66371E-04
 -1      4138 4.79569E-02 5.49204E-04-5.49445E-04
 -1      4139 7.71278E-03-9.84773E-04 9.74699E-04
 -1      4140 4.83435E-02-9.70949E-04 2.55828E-04
 -1      4141 4.83430E-02 9.65974E-04-2.51904E-04
 -1      4142 9.49310E-03 1.07836E-03-1.07373E-03
 -1      4143 7.71075E-03 9.78667E-04-9.83308E-04
 -1      4144 2.03329E-02-2.56607E-04 9.68681E-04
 -1      4145 3.64702E-02-9.70589E-04-9.66697E-04
 -1      4146 7.49538E-02 9.63956E-04 9.71939E-04
 -1      4147 7.49539E-02-9.72339E-04-9.65338E-04
 -1      4148 6.93520E-02-9.72471E-04 9.71166E-04
 -1      4149 6.55149E-02-1.06855E-03 1.06725E-03
 -1      4150 6.37497E-02-9.72112E-04 9.70884E-04
 -1      4151 6.44500E-02-9.72065E-04 6.07043E-04
 -1      4152 6.44499E-02-6.08281E-04 9.71012E-04
 -1      4153 6.93512E-02 9.64805E-04-9.65129E-04
 -1      4154 5.99118E-02 1.06174E-03-1.06188E-03
 -1      4155 6.16769E-02 9.65297E-04-9.65515E-04
 -1      4156 2.17322E-02 9.67838E-04-9.67507E-04
 -1      4157 4.97442E-02-9.71219E-04 9.70184E-04
 -1      4158 2.52627E-02-9.69142E-04-9.67824E-04
 -1      4159 3.29367E-02 9.67138E-04-9.66961E-04
 -1      4160 4.27317E-02-2.53495E-04-9.66456E-04
 -1      4161 4.23463E-02-5.54482E-04-5.49194E-04
 -1      4162 5.15085E-02 1.06354E-03-1.06230E-03
 -1      4163 4.97434E-02 9.66065E-04-9.66120E-04
 -1      4164 4.02952E-02 1.07081E-03-1.07068E-03
 -1      4165 3.15322E-02-2.58963E-04 9.69191E-04
 -1      4166 3.64693E-02 9.66754E-04 9.69167E-04
 -1      4167 4.27320E-02-9.71022E-04-2.55413E-04
 -1      4168 4.27358E-02 9.66993E-04 2.52841E-04
 -1      4169 4.23547E-02 5.50211E-04 5.52344E-04
 -1      4170 1.12702E-02-9.70173E-04-9.71590E-04
 -1      4171 2.66438E-02 2.49477E-04 9.70413E-04
 -1      4172 4.27554E-02 2.48624E-04 9.70007E-04
 -1      4173 3.29383E-02-9.70423E-04 9.69082E-04
 -1      4174 2.17335E-02-9.69579E-04 9.68597E-04
 -1      4175 4.41419E-02 9.66722E-04 9.70259E-04
 -1      4176 2.52570E-02 9.67623E-04 9.70520E-04
 -1      4177 4.41378E-02-9.70932E-04-9.66567E-04
 -1      4178 7.42535E-02 9.64093E-04 6.08027E-04
 -1      4179 7.42536E-02 6.00124E-04 9.71811E-04
 -1      4180 7.42535E-02-6.08418E-04-9.65281E-04
 -1      4181 6.30494E-02-9.71975E-04 6.06973E-04
 -1      4182 7.42537E-02-9.72387E-04-6.01496E-04
 -1      4183 6.30494E-02-6.08191E-04 9.70941E-04
 -1      4184 6.86516E-02-6.08550E-04 9.71223E-04
 -1      4185 6.86516E-02-9.72334E-04 6.07255E-04
 -1      4186 6.23773E-02 9.65160E-04-6.01603E-04
 -1      4187 6.23773E-02 6.01376E-04-9.65572E-04
 -1      4188 4.90438E-02-9.71082E-04 6.06272E-04
 -1      4189 4.90438E-02-6.07298E-04 9.70241E-04
 -1      4190 2.59630E-02-9.69282E-04-6.03915E-04
 -1      4191 2.59629E-02-6.05313E-04-9.67699E-04
 -1      4192 3.22365E-02 6.03306E-04-9.67089E-04
 -1      4193 3.22365E-02 9.67091E-04-6.03120E-04
 -1      4194 4.90432E-02 9.66018E-04-6.02279E-04
 -1      4195 2.10332E-02-9.69432E-04 6.04683E-04
 -1      4196 3.22380E-02-9.70286E-04 6.05171E-04
 -1      4197 4.90432E-02 6.02234E-04-9.66247E-04
 -1      4198 4.34427E-02 6.05319E-04 9.70132E-04
 -1      4199 6.55145E-02-1.06801E-03-1.06214E-03
 -1      4200 6.55144E-02 1.06084E-03 1.06779E-03
 -1      4201 6.34138E-02-9.32041E-04-2.11872E-04
 -1      4202 4.34331E-02-9.70977E-04-6.08353E-04
 -1      4203 2.59573E-02 9.67673E-04 6.06682E-04
 -1      4204 3.22334E-02-6.12128E-04 9.69137E-04
 -1      4205 2.59574E-02 6.05949E-04 9.70467E-04
 -1      4206 2.10268E-02-6.12592E-04 9.68642E-04
 -1      4207 4.34301E-02-6.10539E-04-9.66511E-04
 -1      4208 4.34341E-02 9.66858E-04 6.09876E-04
 -1      4209 2.62988E-02 1.02836E-07 2.96990E-06
 -1      4210 2.73579E-02 2.53622E-04 2.55933E-04
 -1      4211 2.06966E-02-9.80804E-07 1.15436E-06
 -1      4212 7.39178E-02-4.12544E-06 3.24841E-06
 -1      4213 7.28530E-02-2.58100E-04-2.50977E-04
 -1      4214 7.28530E-02 2.49985E-04 2.57366E-04
 -1      4215 6.27133E-02-3.40772E-06 2.68463E-06
 -1      4216 6.41139E-02 2.10805E-04 2.17166E-04
 -1      4217 6.41139E-02-2.17800E-04-2.11656E-04
 -1      4218 6.37781E-02 2.50695E-04-2.51304E-04
 -1      4219 6.16486E-02-2.57511E-04 2.56674E-04
 -1      4220 6.83156E-02-3.76658E-06 2.96652E-06
 -1      4221 6.72509E-02-2.57870E-04 2.56956E-04
 -1      4222 1.96326E-02-2.54979E-04 2.54386E-04
 -1      4223 2.73635E-02-2.54945E-04-2.53490E-04
 -1      4224 4.87077E-02-2.56333E-06 1.92713E-06
 -1      4225 4.76431E-02-2.56749E-04 2.55842E-04
 -1      4226 4.76429E-02 2.51602E-04-2.52252E-04
 -1      4227 7.39178E-02 1.06030E-03 1.06821E-03
 -1      4228 6.27137E-02-1.06837E-03 1.06711E-03
 -1      4229 7.39179E-02-1.06855E-03-1.06172E-03
 -1      4230 6.83160E-02-1.06873E-03 1.06739E-03
 -1      4231 6.27129E-02 1.06156E-03-1.06174E-03
 -1      4232 5.28713E-02-1.07381E-03-1.06278E-03
 -1      4233 2.62988E-02-1.06550E-03-1.06411E-03
 -1      4234 4.87081E-02-1.06748E-03 1.06641E-03
 -1      4235 3.19006E-02 1.06353E-03-1.06329E-03
 -1      4236 3.19010E-02-1.85402E-06 1.98947E-06
 -1      4237 3.08361E-02 2.53039E-04-2.53195E-04
 -1      4238 4.30958E-02-1.37005E-06 2.44243E-06
 -1      4239 4.16903E-02 2.12509E-04-2.12834E-04
 -1      4240 4.20314E-02 2.52752E-04 2.55686E-04
 -1      4241 3.08372E-02-2.55589E-04 2.54639E-04
 -1      4242 4.87073E-02 1.06245E-03-1.06245E-03
 -1      4243 3.18969E-02-1.07203E-03 1.06556E-03
 -1      4244 2.06905E-02-1.07259E-03 1.06497E-03
 -1      4245 4.20273E-02-2.56692E-04-2.52207E-04
 -1      4246 3.74936E-02-7.33740E-07 1.60184E-06
 -1      4247 4.30991E-02 1.06470E-03 1.07019E-03
 -1      4248 4.30936E-02-1.07010E-03-1.06889E-03
 -1      4249 2.62987E-02 1.06559E-03 1.06581E-03
 -1      4250 6.69687E-02 1.00771E-03 6.50828E-04
 -1      4251 6.62685E-02 1.00766E-03 1.01467E-03
 -1      4252 6.69688E-02 6.43737E-04 1.01461E-03
 -1      4253 6.40601E-02-6.50911E-04-1.00896E-03
 -1      4254 6.47605E-02-1.01483E-03-1.00902E-03
 -1      4255 6.40602E-02-1.01488E-03-6.45177E-04
 -1      4256 3.88459E-02 1.01027E-03-6.53754E-04
 -1      4257 3.95484E-02 1.01032E-03-1.01021E-03
 -1      4258 3.88459E-02 6.53872E-04-1.01034E-03
 -1      4259 8.78302E-02-1.01640E-03-2.97508E-04
 -1      4260 8.78871E-02-5.51036E-04-6.46385E-04
 -1      4261 5.82042E-02-9.78620E-04-9.71687E-04
 -1      4262 9.31465E-02 1.16872E-03 1.18091E-03
 -1      4263 9.19907E-02 1.05508E-03 1.18082E-03
 -1      4264 9.25368E-02 9.74639E-04 7.37609E-04
 -1      4265 9.25440E-02 7.20383E-04 9.89721E-04
 -1      4266 9.39376E-02 6.15519E-04 1.17154E-03
 -1      4267 9.34303E-02 7.13138E-04 7.28317E-04
 -1      4268 2.79017E-03-9.10101E-04 1.01813E-03
 -1      4269 1.73431E-03-8.02554E-04 8.05296E-04
 -1      4270 2.04275E-03-5.33621E-04 7.70078E-04
 -1      4271 2.03724E-03-7.74823E-04 5.27852E-04
 -1      4272 1.15790E-02 7.87500E-05-7.80147E-05
 -1      4273 7.88189E-02 7.48851E-05-7.57893E-05
 -1      4274 8.30190E-02 7.46160E-05-7.55779E-05
 -1      4275 1.57917E-02 7.77178E-05-7.78899E-05
 -1      4276 9.19979E-02-1.18195E-03 1.06441E-03
 -1      4277 9.31399E-02-1.18205E-03 1.18031E-03
 -1      4278 9.25830E-02-9.96696E-04 7.42948E-04
 -1      4279 9.25830E-02-7.44584E-04 9.95188E-04
 -1      4280 8.71897E-02-1.01627E-03-6.50914E-04
 -1      4281 8.85922E-02-9.68181E-04-7.06687E-04
 -1      4282 5.36097E-02 7.62860E-05-7.69992E-05
 -1      4283 9.40327E-02 1.16148E-03 9.19505E-04
 -1      4284 9.38951E-02 1.16156E-03 6.35960E-04
 -1      4285 5.78113E-02 7.60168E-05-7.67878E-05
 -1      4286 6.79871E-03-1.32039E-05-1.12171E-05
 -1      4287 9.31532E-02 1.16932E-03-1.16987E-03
 -1      4288 9.19974E-02 1.05567E-03-1.16995E-03
 -1      4289 9.25825E-02 9.90013E-04-7.36515E-04
 -1      4290 9.25825E-02 7.35886E-04-9.90772E-04
 -1      4291 1.73767E-03 7.94584E-04-8.01631E-04
 -1      4292 2.80134E-03 9.11237E-04-1.02052E-03
 -1      4293 2.05914E-03 7.71967E-04-5.41888E-04
 -1      4294 2.05305E-03 5.33225E-04-7.72779E-04
 -1      4295 9.40399E-02 9.07223E-04 1.17162E-03
 -1      4296 1.74506E-03-7.99313E-04-8.09949E-04
 -1      4297 2.79811E-03-9.08384E-04-1.02365E-03
 -1      4298 2.01885E-03-7.75172E-04-5.39738E-04
 -1      4299 2.02752E-03-5.39675E-04-7.76801E-04
 -1      4300 9.20046E-02-1.06554E-03-1.17049E-03
 -1      4301 9.31466E-02-1.18146E-03-1.17046E-03
 -1      4302 9.26143E-02-7.61242E-04-9.99253E-04
 -1      4303 9.26215E-02-1.01348E-03-7.45125E-04
 -1      4304 9.14723E-02-6.45322E-04-9.99281E-04
 -1      4305 8.63003E-04 5.34605E-04-2.25946E-04
 -1      4306 1.16731E-03 3.66965E-04-3.68560E-04
 -1      4307 9.38956E-02-6.37111E-04 1.17122E-03
 -1      4308 9.34764E-02-7.35304E-04 7.33789E-04
 -1      4309 1.72930E-03 7.92739E-04 7.97702E-04
 -1      4310 2.79327E-03 9.10581E-04 1.01662E-03
 -1      4311 2.06706E-03 7.75303E-04 5.34900E-04
 -1      4312 2.06545E-03 5.35921E-04 7.71348E-04
 -1      4313 6.58505E-02-6.57480E-04 1.02017E-03
 -1      4314 6.58505E-02-1.02126E-03 6.56198E-04
 -1      4315 7.55477E-04 4.59671E-04-3.16217E-04
 -1      4316 8.22347E-04 5.19987E-04 2.13989E-04
 -1      4317 1.17681E-03 3.67903E-04 3.74117E-04
 -1      4318 9.40332E-02-1.17277E-03 9.18914E-04
 -1      4319 9.38956E-02-1.17269E-03 6.35368E-04
 -1      4320 9.40332E-02-9.20658E-04 1.17115E-03
 -1      4321 7.39261E-04-2.12251E-04 4.60841E-04
 -1      4322 8.21482E-04 2.10527E-04-5.17134E-04
 -1      4323 7.49378E-04 3.12801E-04-4.54211E-04
 -1      4324 9.40396E-02 1.14093E-03-6.56699E-04
 -1      4325 7.41738E-04-3.12975E-04 4.42599E-04
 -1      4326 1.13904E-03-3.65552E-04 3.63992E-04
 -1      4327 7.48964E-04 4.57228E-04 3.12762E-04
 -1      4328 8.21439E-04 2.10151E-04 5.17322E-04
 -1      4329 7.49919E-04 3.12879E-04 4.54347E-04
 -1      4330 7.21315E-02 1.00728E-03 1.01496E-03
 -1      4331 7.28319E-02 6.43361E-04 1.01491E-03
 -1      4332 7.28317E-02 1.00733E-03 6.51123E-04
 -1      4333 7.28318E-02-6.51473E-04-1.00852E-03
 -1      4334 7.28320E-02-1.01544E-03-6.44736E-04
 -1      4335 7.21316E-02-1.01530E-03-1.00865E-03
 -1      4336 6.37990E-02 6.44452E-04-1.00865E-03
 -1      4337 6.37990E-02 1.00824E-03-6.44678E-04
 -1      4338 6.44992E-02 1.00828E-03-1.00852E-03
 -1      4339 6.09275E-02-1.01510E-03 1.01389E-03
 -1      4340 6.16277E-02-1.01505E-03 6.50047E-04
 -1      4341 6.16277E-02-6.51268E-04 1.01402E-03
 -1      4342 2.73846E-02-6.48560E-04-1.01081E-03
 -1      4343 2.80850E-02-1.01248E-03-1.01086E-03
 -1      4344 2.73848E-02-1.01253E-03-6.47021E-04
 -1      4345 4.69219E-02-1.01420E-03 1.01318E-03
 -1      4346 4.76221E-02-1.01415E-03 6.49342E-04
 -1      4347 4.76221E-02-6.50371E-04 1.01331E-03
 -1      4348 3.01149E-02 1.01062E-03-1.01038E-03
 -1      4349 3.08152E-02 1.01048E-03-6.46468E-04
 -1      4350 3.08152E-02 6.46695E-04-1.01044E-03
 -1      4351 4.76210E-02 6.45640E-04-1.00961E-03
 -1      4352 4.69206E-02 1.00956E-03-1.00955E-03
 -1      4353 4.76210E-02 1.00942E-03-6.45644E-04
 -1      4354 2.73804E-02 6.48607E-04 1.01243E-03
 -1      4355 2.80806E-02 1.01019E-03 1.01256E-03
 -1      4356 2.73803E-02 1.01033E-03 6.48649E-04
 -1      4357 9.40395E-02 1.16194E-03-9.08376E-04
 -1      4358 9.34688E-02 7.28508E-04-7.29282E-04
 -1      4359 3.08102E-02-6.54262E-04 1.01341E-03
 -1      4360 3.01145E-02-1.01247E-03 1.01328E-03
 -1      4361 3.08148E-02-1.01242E-03 6.49443E-04
 -1      4362 4.20196E-02 6.48055E-04 1.01266E-03
 -1      4363 4.20110E-02 1.00959E-03 6.52404E-04
 -1      4364 4.13182E-02 1.00955E-03 1.01272E-03
 -1      4365 8.35714E-02 9.89418E-04-9.89925E-04
 -1      4366 1.96102E-02-1.01182E-03 6.49095E-04
 -1      4367 1.96039E-02-6.54992E-04 1.01305E-03
 -1      4368 1.89100E-02-1.01189E-03 1.01294E-03
 -1      4369 5.83622E-02 9.90854E-04-9.91534E-04
 -1      4370 7.82674E-02 9.89842E-04-9.90275E-04
 -1      4371 5.31640E-02 1.03452E-03-1.02248E-03
 -1      4372 1.63404E-02 9.91811E-04-9.93565E-04
 -1      4373 8.63114E-04-5.37104E-04-2.25972E-04
 -1      4374 7.55305E-04-4.65559E-04-3.14400E-04
 -1      4375 1.12476E-03-3.65760E-04-3.64404E-04
 -1      4376 9.38952E-02-6.38669E-04-1.16518E-03
 -1      4377 9.40328E-02-9.22216E-04-1.16525E-03
 -1      4378 9.35078E-02-7.54244E-04-7.39909E-04
 -1      4379 7.47540E-04-2.07905E-04-4.75436E-04
 -1      4380 4.13140E-02-1.01391E-03-1.00986E-03
 -1      4381 4.20068E-02-6.53609E-04-1.00974E-03
 -1      4382 4.20098E-02-1.01405E-03-6.51577E-04
 -1      4383 7.35062E-04-4.62610E-04 2.10700E-04
 -1      4384 7.33146E-04-4.42795E-04 3.09798E-04
 -1      4385 1.10405E-02 9.96801E-04-9.99324E-04
 -1      4386 9.40396E-02 6.56366E-04-1.14608E-03
 -1      4387 7.41000E-04-3.17027E-04-4.39458E-04
 -1      4388 6.72511E-02-1.02135E-03 6.56269E-04
 -1      4389 6.72511E-02-6.57570E-04 1.02024E-03
 -1      4390 6.65509E-02-1.02140E-03 1.02011E-03
 -1      4391 9.40396E-02 9.07814E-04-1.16263E-03
 -1      4392 8.77164E-02-1.44172E-04-1.37906E-04
 -1      4393 9.40401E-02-1.17453E-03-6.43567E-04
 -1      4394 9.40400E-02-1.17446E-03-9.11118E-04
 -1      4395 8.79029E-02-2.53434E-04-1.06342E-03
 -1      4396 9.08488E-02-1.06549E-03-1.05682E-03
 -1      4397 9.00725E-02-6.00163E-04-1.06340E-03
 -1      4398 8.72098E-02-6.54288E-04-1.00770E-03
 -1      4399 8.86123E-02-6.06203E-04-1.06348E-03
 -1      4400 8.65038E-02-1.01613E-03-1.00783E-03
 -1      4401 8.93069E-02-9.68136E-04-1.06353E-03
 -1      4402 8.79149E-02-1.07143E-03-1.06801E-03
 -1      4403 8.45424E-02-9.48286E-04 2.32353E-04
 -3
    1PSTEP                         2           1           1          
  100CL  101 1.000000000        4403                     0    1           1
 -4  STRESS      6    1
 -5  SXX         1    4    1    1
 -5  SYY         1    4    2    2
 -5  SZZ         1    4    3    3
 -5  SXY         1    4    1    2
 -5  SYZ         1    4    2    3
 -5  SZX         1    4    3    1
 -1         1 2.97067E+02 9.54428E+01 9.51659E+01 5.70676E+01-9.95221E+00-5.71810E+01
 -1         2 2.97128E+02 9.54545E+01 9.52997E+01 5.70875E+01 9.97202E+00 5.72796E+01
 -1         3 2.97839E+02 9.53696E+01 9.53688E+01-5.71656E+01 9.65250E+00-5.65015E+01
 -1         4 2.97985E+02 9.55072E+01 9.54872E+01-5.65267E+01-9.30706E+00 5.66583E+01
 -1         5 1.99998E+02 1.87605E-09-2.71340E-08-1.46448E-08 1.52745E-08 3.51084E-08
 -1         6 1.99998E+02-1.02850E-08-1.11560E-08-5.75849E-08-2.54192E-08-3.96567E-08
 -1         7 1.99998E+02 3.35896E-10-4.58537E-09 2.03412E-07-1.16265E-07 1.57905E-07
 -1         8 1.99998E+02-2.34386E-08 8.38397E-09 3.51655E-08 8.67502E-09-8.12037E-09
 -1         9 2.62715E+02 1.10324E+02 1.11235E+02 7.36337E+01-2.05110E+00 1.88259E+01
 -1        10 2.56239E+02 1.07823E+02 1.08199E+02 7.05564E+01 1.27574E+00 1.59926E+00
 -1        11 2.60982E+02 1.09648E+02 1.10813E+02 7.33518E+01 2.04021E+00-1.92828E+01
 -1        12 2.89882E+02 1.24236E+02 1.24235E+02 7.62448E+01-1.44274E-05 3.43338E+01
 -1        13 2.53806E+02 1.08774E+02 1.08774E+02 7.01075E+01 2.38698E-06 1.04238E+01
 -1        14 2.61506E+02 1.12074E+02 1.12074E+02 7.25223E+01 7.20683E-06-1.06091E+01
 -1        15 2.89551E+02 1.24094E+02 1.24094E+02 7.59962E+01 1.36174E-05-3.46006E+01
 -1        16 2.59121E+02 1.10278E+02 1.09001E+02 1.90040E+01 1.93357E+00-7.37413E+01
 -1        17 2.54722E+02 1.07354E+02 1.07052E+02-1.16156E+00 1.52484E+00-7.15449E+01
 -1        18 2.64606E+02 1.12205E+02 1.12151E+02-2.21129E+01 7.31471E-01-7.15545E+01
 -1        19 2.89890E+02 1.24239E+02 1.24239E+02 3.43191E+01 1.37429E-05-7.65116E+01
 -1        20 2.58590E+02 1.10824E+02 1.10824E+02 1.08704E+01 7.54265E-06-7.34862E+01
 -1        21 2.64279E+02 1.13262E+02 1.13263E+02-1.03857E+01 9.80577E-06-7.17876E+01
 -1        22 2.83288E+02 1.21409E+02 1.21409E+02-3.43918E+01-1.25778E-06-7.23672E+01
 -1        23 2.63908E+02 1.11952E+02 1.11842E+02-7.30458E+01-7.28587E-01 2.16655E+01
 -1        24 2.53772E+02 1.07111E+02 1.07346E+02-7.09716E+01-1.09145E+00 1.51582E+00
 -1        25 2.60275E+02 1.09184E+02 1.10583E+02-7.33890E+01-2.15124E+00-1.90387E+01
 -1        26 2.81999E+02 1.20857E+02 1.20857E+02-7.28432E+01 3.82427E-06 3.41483E+01
 -1        27 2.62865E+02 1.12657E+02 1.12657E+02-7.25854E+01-1.06856E-05 1.02352E+01
 -1        28 2.59171E+02 1.11074E+02 1.11074E+02-7.24382E+01-7.55714E-06-1.05574E+01
 -1        29 2.89488E+02 1.24067E+02 1.24067E+02-7.62130E+01-1.36382E-05-3.43864E+01
 -1        30 2.59525E+02 1.10433E+02 1.09202E+02 1.89669E+01-1.90233E+00 7.38362E+01
 -1        31 2.54240E+02 1.07276E+02 1.06718E+02-1.14963E+00-1.58221E+00 7.12384E+01
 -1        32 2.62849E+02 1.11437E+02 1.11751E+02-2.18175E+01-5.73021E-01 7.22974E+01
 -1        33 2.89892E+02 1.24240E+02 1.24240E+02 3.42614E+01-1.38358E-05 7.65378E+01
 -1        34 2.59593E+02 1.11254E+02 1.11254E+02 1.08228E+01-7.33863E-06 7.35670E+01
 -1        35 2.61581E+02 1.12106E+02 1.12107E+02-1.01381E+01-1.06526E-05 7.16644E+01
 -1        36 2.81992E+02 1.20854E+02 1.20854E+02-3.43064E+01 1.34411E-06 7.26993E+01
 -1        37 1.99998E+02 3.00604E-08 1.03124E-08 8.72788E-09 2.58050E-08 5.30496E-08
 -1        38 1.99998E+02 1.04695E-07-1.98175E-08 1.22756E-07-4.29756E-08-8.85061E-08
 -1        39 1.99998E+02-9.78963E-08 1.08518E-08-1.35524E-07-4.40419E-08-1.10995E-07
 -1        40 1.99998E+02 4.35831E-08-7.22837E-08 1.01231E-07-9.20202E-09-1.68576E-10
 -1        41 1.99998E+02 1.58020E-07 5.80676E-08 1.26225E-07-2.29989E-08-5.21390E-08
 -1        42 1.99998E+02-1.57891E-08 2.20813E-08-2.07966E-08 3.88298E-08 6.45361E-08
 -1        43 1.99998E+02-9.18437E-08-6.38251E-08-9.57369E-08-7.98005E-09-5.38254E-08
 -1        44 1.99998E+02 1.19725E-08 9.07691E-08-1.23244E-07-4.91365E-09-2.96036E-08
 -1        45 1.99998E+02 3.40319E-08 3.86528E-09 1.75460E-08-2.32450E-08 8.77667E-08
 -1        46 1.99998E+02-4.89660E-08 1.44041E-07-6.90773E-08 5.70253E-08 5.46745E-10
 -1        47 1.99998E+02 2.42443E-08-1.34475E-08 5.65721E-08 5.23438E-09 7.38626E-08
 -1        48 1.99998E+02-1.75604E-07 6.26042E-08 1.03435E-07-4.80937E-08-3.07746E-07
 -1        49 1.99998E+02-1.32335E-07 4.78405E-08-4.90576E-08 2.66672E-08-2.61947E-07
 -1        50 1.99998E+02-3.31915E-07 9.07530E-08-2.04158E-09-2.26973E-08-3.09559E-07
 -1        51 1.99998E+02 1.06121E-07-7.36208E-09-1.56482E-08 2.38671E-08-1.04674E-07
 -1        52 1.99998E+02 3.03472E-08 2.46957E-08 1.83453E-08-6.73720E-08 2.02526E-07
 -1        53 1.99998E+02 4.12483E-08-4.40988E-08-6.04693E-08 8.00182E-08-2.72537E-07
 -1        54 1.99998E+02-2.89652E-08-4.09614E-08-6.42971E-09-1.62787E-08 7.79013E-09
 -1        55 1.99998E+02 2.16142E-07-1.23766E-07-3.76062E-07 4.28772E-08-2.10984E-08
 -1        56 1.99998E+02-2.18585E-07 2.07059E-07 5.00753E-07-4.77046E-08-4.45782E-08
 -1        57 1.99998E+02 2.06028E-07-3.06602E-07-4.94892E-07-6.98760E-08 1.17261E-07
 -1        58 1.99998E+02-1.32714E-08-4.92702E-09-2.22477E-08 2.91672E-08-1.24402E-07
 -1        59 1.99998E+02-1.58151E-08 3.13807E-08 1.78272E-07 6.33878E-08-1.43936E-08
 -1        60 1.99998E+02-2.84327E-09 1.01947E-08-1.92563E-08-2.04667E-08 5.57309E-09
 -1        61 1.99998E+02-1.30565E-07-1.10612E-07 4.29803E-08 4.83453E-08-2.44387E-08
 -1        62 1.99998E+02-2.04955E-07-8.20709E-09-4.89503E-09-2.86069E-08 2.48218E-07
 -1        63 1.99998E+02 7.85107E-09-7.06781E-09-2.32523E-08-3.17979E-08 1.77986E-08
 -1        64 1.99998E+02-6.35181E-08 3.53574E-08-1.06907E-08-2.92417E-09 7.43274E-08
 -1        65 1.61144E+02-7.06842E+00-7.24333E+00-5.98727E+00-9.03091E-01-5.11182E+00
 -1        66 1.85611E+02-4.58539E-01-4.75065E-01-7.70893E-01-3.47614E-01-9.02138E-01
 -1        67 1.96105E+02 9.63274E-02 8.50611E-02-1.32076E-01-1.07265E-01-1.50888E-01
 -1        68 1.99289E+02 5.97342E-02 6.33519E-02-6.86274E-02-1.65404E-02-6.90377E-02
 -1        69 2.00015E+02 9.12912E-03 9.12581E-03-1.08076E-03-2.27763E-03 8.04545E-03
 -1        70 2.00042E+02 5.35769E-03 5.98734E-03 4.31904E-03-2.31550E-03 3.96620E-03
 -1        71 2.00018E+02-9.32801E-04-9.11112E-04 6.65985E-04 8.60942E-04 4.95860E-04
 -1        72 2.00003E+02-1.21856E-04-1.63508E-04 9.33785E-05 9.83010E-05 1.47616E-04
 -1        73 1.99999E+02-8.94310E-05-8.13765E-05 6.57923E-05 2.55387E-05 6.27787E-05
 -1        74 1.99998E+02-1.94028E-05-2.03100E-05-1.18678E-06 9.77212E-06-2.11882E-06
 -1        75 1.99998E+02 1.38168E-06 1.31449E-06-5.16669E-06-2.69895E-06-2.96038E-06
 -1        76 1.99998E+02 9.68810E-07 1.29333E-06-8.09856E-07-1.18306E-06-6.11900E-07
 -1        77 1.99998E+02 3.52329E-07 3.20066E-07-5.06921E-07-1.99158E-07-5.00690E-07
 -1        78 1.99998E+02 4.49584E-08 5.55133E-08-2.85122E-08-3.60914E-08 1.41268E-08
 -1        79 1.99998E+02 3.40650E-08 3.40376E-08 3.47061E-09-6.54303E-09-3.21177E-09
 -1        80 1.99998E+02-1.51706E-09-9.73079E-10-4.47604E-10 4.96286E-09-9.69046E-11
 -1        81 1.99998E+02-2.63537E-09-2.52215E-09 1.17645E-10 2.85864E-09-1.88219E-10
 -1        82 1.99998E+02-7.44937E-10-8.88002E-10 1.31732E-10 1.08162E-09-1.16778E-10
 -1        83 1.99998E+02-1.70650E-10-2.33780E-10-3.02532E-10 5.97572E-10-3.12623E-10
 -1        84 1.99998E+02-9.14324E-11-5.80591E-11-2.87987E-11 1.17517E-10-7.63834E-12
 -1        85 1.99998E+02-8.88797E-12 6.96208E-12-7.19736E-12 9.13899E-11-6.62599E-12
 -1        86 1.99998E+02-3.65863E-12-4.33609E-12 2.52058E-12 1.16658E-11 9.84623E-12
 -1        87 1.99998E+02-1.48215E-12-1.88293E-12 3.22241E-12 5.68414E-12-4.43324E-12
 -1        88 1.99998E+02 1.78612E-12-2.04401E-12 3.76340E-12 5.86079E-13-2.19412E-12
 -1        89 1.99998E+02 1.38817E-12 5.20936E-12 1.37732E-12 4.81411E-13-7.24029E-13
 -1        90 1.99998E+02-1.53519E-12-3.25804E-13-2.38117E-12-1.62728E-12 2.09979E-12
 -1        91 1.99998E+02 4.80343E-12 1.24105E-11 1.05120E-12 3.49370E-12-5.32991E-12
 -1        92 1.99998E+02 6.75013E-13-4.73468E-12-2.44699E-12-1.00354E-12-1.54027E-12
 -1        93 1.99998E+02 6.11788E-12 7.34319E-12-5.33405E-12 3.93807E-12 1.91663E-13
 -1        94 1.99998E+02-2.31105E-12-2.66075E-12-8.72356E-12-1.07551E-12-1.09084E-11
 -1        95 1.99998E+02 2.78457E-11 8.81531E-13 4.45895E-12-1.91560E-11-4.81895E-12
 -1        96 1.99998E+02-1.37225E-10 4.16985E-10 2.88126E-10 1.98546E-11-5.86798E-10
 -1        97 1.99998E+02 7.01737E-09 5.15068E-09-2.95487E-10-2.39382E-09 1.51911E-09
 -1        98 2.14979E+02 7.49544E+00 6.53137E+00 1.27154E+01 7.94996E-01 1.33696E+01
 -1        99 1.77030E+02-6.41928E-01-5.18578E-01-8.38360E-01 6.23704E-01-6.21568E-01
 -1       100 1.91612E+02 9.97856E-02 2.24373E-01-3.81907E-01-5.27421E-02-4.36215E-01
 -1       101 1.98336E+02 1.96081E-01 2.12073E-01-1.00548E-01-7.73277E-02-9.04271E-02
 -1       102 1.99751E+02 2.86735E-02 2.37239E-02-3.27805E-02-8.15089E-04-2.91110E-02
 -1       103 2.00060E+02 9.71736E-03 1.31115E-02 2.37105E-03-1.76694E-03 5.86451E-03
 -1       104 2.00035E+02 4.72973E-04 9.34749E-04 1.41931E-03-2.02243E-03 9.87396E-04
 -1       105 2.00009E+02-5.60046E-04-3.72521E-04 4.90945E-04 1.13964E-04 5.29745E-04
 -1       106 2.00000E+02-2.88843E-04-2.65815E-04 6.18846E-05 9.75161E-05 1.09747E-04
 -1       107 1.99998E+02-3.17939E-05-3.51761E-05 3.17973E-05 2.81964E-05 2.65766E-05
 -1       108 1.99998E+02-2.79058E-06-4.41231E-06-2.78063E-06 3.52847E-06-1.65326E-06
 -1       109 1.99998E+02 2.93906E-06 3.20703E-06-3.19640E-06-8.13714E-07-2.14104E-06
 -1       110 1.99998E+02 1.34789E-06 1.10464E-06-6.25762E-07-5.46626E-07-8.70156E-07
 -1       111 1.99998E+02 1.38919E-07 1.33281E-07-2.52363E-07-3.93691E-08-2.07261E-07
 -1       112 1.99998E+02 7.13428E-08 8.22950E-08 2.66377E-09-3.79400E-08 1.27656E-08
 -1       113 1.99998E+02 8.04584E-10 2.33031E-10-2.32179E-09-5.42963E-09-5.57343E-09
 -1       114 1.99998E+02-4.43663E-09-3.86614E-09 1.87396E-10 1.87791E-09 2.02041E-10
 -1       115 1.99998E+02-9.25460E-10-8.18435E-10 1.92738E-10 1.33375E-09 6.77939E-11
 -1       116 1.99998E+02-2.23232E-10-3.56395E-10-7.83152E-11 5.49557E-10-1.18126E-10
 -1       117 1.99998E+02-1.58654E-10-1.67745E-10-1.61243E-10 2.76886E-10-1.17549E-10
 -1       118 1.99998E+02-1.32223E-11 3.16804E-11 2.22023E-11 7.80567E-11 4.02261E-12
 -1       119 1.99998E+02-4.56638E-12-6.50239E-12-1.66064E-11 1.58895E-11-1.11169E-11
 -1       120 1.99998E+02 3.40631E-12 3.07640E-12 6.52373E-12 1.45357E-12 3.00806E-12
 -1       121 1.99998E+02-4.95487E-12-6.45213E-12 6.36906E-12 1.05926E-12-2.23917E-12
 -1       122 1.99998E+02-2.24932E-12-8.12696E-13 2.67969E-12-1.01060E-13-1.73310E-12
 -1       123 1.99998E+02 7.09866E-13 1.75721E-12-2.44358E-12-1.87271E-13 1.80272E-12
 -1       124 1.99998E+02 7.15900E-12 6.38517E-12-3.02683E-12 9.03643E-13-5.15321E-12
 -1       125 1.99998E+02 4.94392E-12 1.22399E-11-8.56771E-13 6.93454E-13-5.90998E-12
 -1       126 1.99998E+02 5.68414E-12 4.90760E-12-4.04028E-12 4.35161E-12-1.40969E-12
 -1       127 1.99998E+02-3.06524E-12-7.07256E-12-3.09878E-12-9.89832E-13-1.94608E-12
 -1       128 1.99998E+02 3.44012E-12-5.67621E-12 1.29794E-12-6.87397E-12-3.56918E-12
 -1       129 1.99998E+02-1.02404E-10-3.15574E-11 5.12579E-11-5.00378E-11-1.77147E-10
 -1       130 1.99998E+02 3.66420E-10-9.53371E-10 1.76199E-09 1.40101E-10 1.10993E-09
 -1       131 1.99998E+02-2.38033E-09-2.83056E-09-4.25115E-08 2.95615E-08-3.13651E-08
 -1       132 1.61141E+02-7.05622E+00-7.15915E+00-5.96309E+00 8.71807E-01 5.04530E+00
 -1       133 1.85660E+02-4.98215E-01-5.06330E-01-7.35938E-01 3.76982E-01 8.86822E-01
 -1       134 1.95776E+02 2.55704E-01 2.40472E-01-3.47089E-01 1.16168E-01 3.62538E-01
 -1       135 1.99344E+02 8.55163E-02 8.97922E-02-4.62696E-02 6.37780E-02 4.57473E-02
 -1       136 2.00031E+02 8.79240E-03 7.18773E-03 7.54549E-03 3.12441E-03-9.79032E-04
 -1       137 2.00038E+02 4.82585E-03 4.48528E-03 2.99613E-03 1.47483E-03-3.76731E-03
 -1       138 2.00015E+02-5.66228E-04-4.93509E-04 4.80377E-04-6.15443E-04-5.41965E-04
 -1       139 2.00002E+02-5.29268E-04-5.37073E-04 4.11224E-04-3.17898E-04-4.01347E-04
 -1       140 1.99998E+02-5.07825E-05-5.46759E-05-1.53883E-06-4.00005E-05 2.01974E-05
 -1       141 1.99998E+02-1.37458E-05-1.48154E-05-1.54074E-05 2.89209E-07 5.39938E-06
 -1       142 1.99998E+02-3.96535E-06-3.09612E-06-3.71575E-06-1.54665E-06 4.02567E-06
 -1       143 1.99998E+02 1.04028E-06 9.67333E-07-1.40777E-06 4.84120E-07 1.56010E-06
 -1       144 1.99998E+02 1.96202E-07 2.28845E-07 2.15672E-08 1.58569E-07-8.29067E-08
 -1       145 1.99998E+02 1.02015E-07 1.01245E-07-3.15834E-09 3.50221E-08 2.32864E-08
 -1       146 1.99998E+02 2.94820E-08 3.19737E-08 3.73855E-08-3.86293E-09-3.51048E-08
 -1       147 1.99998E+02-1.61829E-09-2.16899E-09 5.13087E-09-2.48235E-09-4.86172E-09
 -1       148 1.99998E+02-2.07772E-09-1.95463E-09 4.28164E-09 9.40437E-10-5.09652E-09
 -1       149 1.99998E+02-5.78696E-10-5.45108E-10 8.19399E-10 1.18015E-09-9.49156E-10
 -1       150 1.99998E+02 3.05076E-11-2.03820E-11 6.48009E-11 3.54387E-10-1.46606E-10
 -1       151 1.99998E+02 1.10940E-10 9.55352E-11-4.27984E-11 1.73440E-10 1.59646E-12
 -1       152 1.99998E+02 1.47632E-11 2.78377E-11-2.28425E-11 8.99422E-11 1.45100E-11
 -1       153 1.99998E+02 1.06337E-11 4.51703E-12-1.01360E-11 2.40297E-11 2.48794E-12
 -1       154 1.99998E+02 2.19339E-12 9.23222E-12-6.84939E-12 6.45310E-12-9.72734E-13
 -1       155 1.99998E+02-1.87027E-12-1.94206E-12-3.36589E-12 5.41258E-13-2.08688E-12
 -1       156 1.99998E+02-9.03135E-13 7.04930E-13-3.28323E-12-1.91863E-12-9.88503E-13
 -1       157 1.99998E+02-3.22024E-12 2.89129E-12-3.66661E-12 2.37198E-12 6.66489E-13
 -1       158 1.99998E+02-4.26115E-12-1.59484E-12-2.08915E-12-2.07937E-12 2.38040E-13
 -1       159 1.99998E+02 9.15290E-13 1.46539E-12-1.49114E-12-7.18637E-13 1.35152E-12
 -1       160 1.99998E+02 1.99363E-12 4.99203E-12 6.51561E-12-1.69027E-12-2.30264E-12
 -1       161 1.99998E+02-2.66509E-12 4.58208E-12 7.55963E-12-6.84297E-12 1.04197E-11
 -1       162 1.99998E+02 1.21684E-11-3.14258E-12 1.71114E-11 1.23524E-11 2.98584E-11
 -1       163 1.99998E+02 1.16574E-10 2.94676E-10 1.03992E-10 8.96449E-11 3.99817E-10
 -1       164 1.99998E+02 2.28061E-09 6.52794E-09 5.73094E-09 2.88531E-09 3.44884E-09
 -1       165 2.14928E+02 7.54316E+00 6.40504E+00 1.27257E+01-8.02524E-01-1.32022E+01
 -1       166 1.77050E+02-6.62674E-01-5.37547E-01-8.35321E-01-5.85571E-01 5.77053E-01
 -1       167 1.91710E+02 1.52208E-01 2.51306E-01-3.89086E-01 2.31048E-01 4.45887E-01
 -1       168 1.98116E+02 1.21169E-01 1.18573E-01-1.83002E-01 4.82849E-02 1.88395E-01
 -1       169 1.99816E+02 3.11801E-02 3.36570E-02-2.02892E-02 2.03711E-02 2.58615E-02
 -1       170 2.00064E+02 1.23524E-02 1.14615E-02 5.69353E-03 4.44282E-03-4.12514E-03
 -1       171 2.00029E+02 3.10536E-04 5.25975E-04 8.24841E-04 8.55104E-04-1.24832E-03
 -1       172 2.00007E+02-6.73343E-04-4.88233E-04 4.19286E-04-5.01480E-04-5.06978E-04
 -1       173 2.00000E+02-1.19858E-04-1.19479E-04 2.28462E-04-8.30415E-05-2.06492E-04
 -1       174 1.99998E+02-4.84193E-05-5.01867E-05-1.44200E-05-2.20107E-05 1.56331E-05
 -1       175 1.99998E+02-1.13094E-05-1.02855E-05-7.65582E-06-4.69355E-06 3.06451E-06
 -1       176 1.99998E+02 1.76153E-06 1.89215E-06-1.76193E-06-1.02500E-06 2.20640E-06
 -1       177 1.99998E+02 7.08495E-07 7.19020E-07-8.78746E-07 6.93360E-08 8.73367E-07
 -1       178 1.99998E+02 2.57490E-07 2.65938E-07 4.40631E-08 1.53461E-07-4.25351E-08
 -1       179 1.99998E+02 4.23339E-08 3.96603E-08 1.35020E-08 1.62110E-08-1.90897E-09
 -1       180 1.99998E+02 4.03267E-09 2.66348E-09 1.55954E-08 1.33578E-08-1.44040E-08
 -1       181 1.99998E+02-3.15182E-09-4.80330E-09 4.13568E-09-1.82000E-09-4.30412E-09
 -1       182 1.99998E+02-1.13804E-09-1.02940E-09 2.35034E-09 7.03274E-10-2.81038E-09
 -1       183 1.99998E+02 4.79502E-11 5.00391E-11 5.59972E-10 1.57733E-10-6.72351E-10
 -1       184 1.99998E+02 4.97229E-11 4.44028E-12 3.14453E-11 1.19030E-10-9.37123E-11
 -1       185 1.99998E+02-3.56507E-11-2.11038E-11-4.73024E-11 9.21734E-11 3.28366E-11
 -1       186 1.99998E+02 1.54264E-11 1.70501E-11-7.68404E-12 2.17630E-11 2.46269E-12
 -1       187 1.99998E+02 1.02420E-11 1.22715E-11-5.29385E-12 4.18853E-12-6.34823E-13
 -1       188 1.99998E+02-6.38436E-13 3.42590E-12-4.67780E-12 1.23579E-12-2.95186E-12
 -1       189 1.99998E+02-6.69658E-13-1.99045E-12-4.41322E-12-1.97471E-13-2.21342E-12
 -1       190 1.99998E+02-3.32829E-13 2.08817E-12 3.61418E-13-1.37361E-13-3.87594E-12
 -1       191 1.99998E+02-4.89231E-12-1.30448E-12-3.43324E-12-1.65311E-12-1.67312E-12
 -1       192 1.99998E+02-4.84214E-14-1.54380E-12-3.62677E-12-6.61057E-13 1.35548E-12
 -1       193 1.99998E+02 6.22012E-12 1.26898E-11 2.45733E-12-3.45988E-12 1.91606E-12
 -1       194 1.99998E+02 3.52593E-12 5.26149E-12 6.95495E-12-5.04952E-12-5.48797E-13
 -1       195 1.99998E+02 1.04089E-13 1.48445E-11 5.15878E-12-1.52382E-11 2.45200E-11
 -1       196 1.99998E+02-2.58743E-11-3.58912E-11 5.45709E-11 5.35949E-11 1.08855E-10
 -1       197 1.99998E+02 3.29229E-10 1.07943E-09 2.04733E-09-4.00692E-11 3.16700E-10
 -1       198 1.99998E+02 1.22360E-08-4.90291E-10-1.31277E-08-1.19613E-08 3.36181E-08
 -1       199 1.61238E+02-6.75004E+00-7.06101E+00 6.15951E+00 1.03341E+00-5.02194E+00
 -1       200 1.85679E+02-4.07812E-01-4.02450E-01 9.37418E-01 4.40546E-01-6.59494E-01
 -1       201 1.95782E+02 2.56411E-01 2.52467E-01 3.60560E-01 1.40320E-01-3.64794E-01
 -1       202 1.99454E+02 4.70357E-02 4.69507E-02 1.58436E-02 3.20886E-02 1.52615E-02
 -1       203 2.00011E+02 8.80432E-03 1.12146E-02 1.31000E-03 4.84990E-04 1.28244E-02
 -1       204 2.00041E+02 5.54550E-04 8.43051E-04-1.63392E-03-1.94571E-03 4.85615E-03
 -1       205 2.00014E+02-2.00293E-04 2.55098E-04-9.46087E-04-1.14344E-04 8.30042E-04
 -1       206 2.00002E+02-4.02352E-04-4.29688E-04-3.05258E-04-3.05397E-04 2.75773E-04
 -1       207 1.99998E+02-4.58253E-05-4.45846E-05 2.73864E-05-3.79876E-05 3.04376E-06
 -1       208 1.99998E+02-1.22316E-05-9.46861E-06 1.56652E-05 2.51147E-06-2.78858E-06
 -1       209 1.99998E+02-3.83964E-06-3.76778E-06 2.53118E-06-1.89706E-06-4.47102E-06
 -1       210 1.99998E+02 1.05422E-06 9.49329E-07 1.39599E-06 4.85101E-07-1.57523E-06
 -1       211 1.99998E+02 2.20283E-07 2.56771E-07 7.03794E-09 1.69616E-07 9.12408E-08
 -1       212 1.99998E+02 6.57432E-08 5.75526E-08-1.65722E-08-1.84497E-08 8.28607E-08
 -1       213 1.99998E+02 3.72251E-09 8.96222E-09-1.38818E-08-1.98295E-08 3.58361E-08
 -1       214 1.99998E+02 2.93168E-09 3.35492E-09-7.27598E-09-1.49744E-09 8.49107E-09
 -1       215 1.99998E+02-2.09566E-09-2.07331E-09-4.86345E-09 9.66151E-10 4.50053E-09
 -1       216 1.99998E+02-7.02332E-10-7.72024E-10-8.88439E-10 9.77076E-10 9.59900E-10
 -1       217 1.99998E+02 2.01915E-10 2.24298E-10 2.24591E-10 3.69183E-10 3.67670E-11
 -1       218 1.99998E+02 2.93027E-11 7.00760E-11 9.66612E-11 1.60190E-10-1.19631E-11
 -1       219 1.99998E+02 2.06158E-11 3.18392E-11 2.66291E-11 5.78489E-11-2.47558E-11
 -1       220 1.99998E+02 1.13046E-11 3.99973E-12 1.33195E-11 3.28646E-11-1.24628E-11
 -1       221 1.99998E+02 1.82607E-12-3.10550E-12 3.14048E-12 1.03522E-11-8.96321E-12
 -1       222 1.99998E+02 1.27381E-12 1.26406E-12 3.76605E-12 4.61262E-12-5.02783E-12
 -1       223 1.99998E+02 1.49358E-12 4.40333E-12 1.02596E-13-2.29384E-12-1.01171E-12
 -1       224 1.99998E+02 9.80407E-13-6.19083E-12-1.98068E-12-1.86263E-12 1.77924E-12
 -1       225 1.99998E+02 7.42627E-12 1.74684E-12 1.65802E-12-1.84253E-12 7.90058E-13
 -1       226 1.99998E+02 1.70821E-12-1.20239E-12 2.45686E-13 1.45032E-12 1.54834E-12
 -1       227 1.99998E+02-7.54849E-12 3.72452E-12 4.87571E-12 2.05529E-13-6.88767E-13
 -1       228 1.99998E+02 2.30416E-12-3.35284E-12 5.27483E-12 2.86262E-12 1.56392E-12
 -1       229 1.99998E+02 6.90672E-12 8.09096E-12 1.70449E-11 2.07533E-12 4.15892E-11
 -1       230 1.99998E+02 6.39562E-11 3.41949E-11 1.75842E-10-1.44365E-11 7.22103E-11
 -1       231 1.99998E+02 5.02425E-09 3.15592E-09 1.02745E-09 2.62592E-09 1.38619E-09
 -1       232 2.14431E+02 6.78671E+00 5.91063E+00-1.25200E+01 2.55163E-01 1.32916E+01
 -1       233 1.77261E+02-5.38070E-01-6.47214E-01 1.05664E+00-5.06639E-01-3.98053E-01
 -1       234 1.91706E+02 2.23010E-01 1.56034E-01 4.50095E-01 2.65016E-01-4.13776E-01
 -1       235 1.98047E+02 6.59464E-02 6.29595E-02 1.91412E-01 1.07897E-02-1.72260E-01
 -1       236 1.99857E+02 4.31359E-02 3.83723E-02 9.85755E-03 1.74687E-02 1.43526E-02
 -1       237 2.00054E+02 1.04420E-02 8.61899E-03-1.35915E-03 2.42850E-03 6.68096E-03
 -1       238 2.00028E+02-4.88579E-04 2.25344E-04-1.51783E-03-1.48107E-04 2.25017E-03
 -1       239 2.00007E+02-6.78579E-04-6.56864E-04-5.89768E-04-1.89835E-05 4.40727E-04
 -1       240 2.00000E+02-1.60154E-04-1.77764E-04-1.68284E-04-8.79021E-05 1.81351E-04
 -1       241 1.99998E+02-3.57692E-05-4.69506E-05 2.63985E-05-1.75014E-05-2.76071E-06
 -1       242 1.99998E+02-1.22528E-05-1.08385E-05 6.31417E-06-4.28709E-06-4.86055E-06
 -1       243 1.99998E+02 2.05320E-06 1.79671E-06 1.31738E-06-9.75869E-07-2.40382E-06
 -1       244 1.99998E+02 7.29732E-07 7.08205E-07 8.90884E-07 5.95205E-08-8.65784E-07
 -1       245 1.99998E+02 2.67036E-07 2.28826E-07-1.86612E-08 7.34197E-08 8.41730E-08
 -1       246 1.99998E+02 5.68048E-08 5.62437E-08-1.26166E-08-1.17681E-08 5.16373E-08
 -1       247 1.99998E+02 1.18628E-08 9.92535E-09-1.50998E-08-1.96848E-09 1.61571E-08
 -1       248 1.99998E+02-4.00303E-09-2.53665E-09-4.12967E-09-1.47041E-09 4.53134E-09
 -1       249 1.99998E+02-1.10743E-09-1.17539E-09-2.63538E-09 6.47928E-10 2.51122E-09
 -1       250 1.99998E+02 9.16296E-11-4.21163E-11-5.16122E-10 2.26889E-10 7.56239E-10
 -1       251 1.99998E+02-7.68475E-11-1.21372E-10 1.69442E-10 1.47978E-10-4.47238E-11
 -1       252 1.99998E+02-4.77312E-11 1.18438E-12 2.60069E-11 7.58086E-11-3.06469E-11
 -1       253 1.99998E+02 3.47949E-12 5.42838E-12 2.30078E-11 3.59859E-11-1.25552E-11
 -1       254 1.99998E+02 6.55260E-12 9.40975E-12 4.75025E-12 8.07125E-12-7.65874E-12
 -1       255 1.99998E+02 2.65456E-12 2.36323E-12 1.64925E-12 4.67859E-13-6.11556E-12
 -1       256 1.99998E+02 3.48205E-12 4.89310E-12 1.60224E-15 2.69990E-12-3.36159E-12
 -1       257 1.99998E+02 1.83404E-13-1.36442E-12 5.64732E-13-2.87856E-12 4.98107E-12
 -1       258 1.99998E+02-5.46963E-13 3.15944E-12-4.44804E-12-3.07837E-12 3.24373E-13
 -1       259 1.99998E+02 3.97750E-12 3.57222E-12 1.31891E-12-1.82760E-12 1.44678E-12
 -1       260 1.99998E+02 6.42132E-14 3.72646E-12 7.69141E-13 2.71217E-12-1.03079E-12
 -1       261 1.99998E+02-3.68210E-12-5.08891E-13 9.81313E-12-1.32430E-12 7.46856E-13
 -1       262 1.99998E+02 9.39923E-12 8.13840E-12 6.91124E-12-8.53028E-14 1.65484E-11
 -1       263 1.99998E+02-9.83047E-12 7.19108E-12 2.73059E-11-1.74249E-11 7.25579E-11
 -1       264 1.99998E+02-2.48002E-10-5.40558E-10-3.75886E-10 8.27343E-11 2.80708E-10
 -1       265 1.99998E+02-5.87846E-09 3.62356E-09 2.23474E-08-1.41565E-08-1.35142E-08
 -1       266 1.61213E+02-6.72709E+00-6.95574E+00 6.08573E+00-1.01979E+00 4.94966E+00
 -1       267 1.85563E+02-3.91558E-01-3.83581E-01 9.45522E-01-4.15948E-01 6.90757E-01
 -1       268 1.96120E+02 7.85572E-02 8.63880E-02 1.53602E-01-1.14652E-01 1.51895E-01
 -1       269 1.99321E+02 7.41246E-02 7.04086E-02 6.14819E-02-4.23275E-02 5.27427E-02
 -1       270 2.00030E+02 7.71278E-03 9.48165E-03-2.23893E-04-3.26428E-03-8.23054E-03
 -1       271 2.00041E+02 6.25003E-03 6.20101E-03-4.79958E-03-1.72235E-03-3.69780E-03
 -1       272 2.00018E+02-8.16044E-04-7.68098E-04-6.48337E-04 6.95561E-04-4.11565E-04
 -1       273 2.00003E+02-1.29336E-04-1.63527E-04-1.11765E-04 1.08635E-04-1.38450E-04
 -1       274 1.99999E+02-9.29690E-05-7.60488E-05-6.63323E-05 2.55986E-05-6.21745E-05
 -1       275 1.99998E+02-1.90172E-05-1.97871E-05-3.73915E-07 9.42984E-06 2.01305E-06
 -1       276 1.99998E+02 1.42782E-06 1.46188E-06 4.94736E-06-2.82128E-06 2.94292E-06
 -1       277 1.99998E+02 9.45770E-07 1.00268E-06 7.84553E-07-1.04531E-06 6.30886E-07
 -1       278 1.99998E+02 3.48596E-07 3.39623E-07 4.72891E-07-2.13110E-07 5.02221E-07
 -1       279 1.99998E+02 4.49227E-08 5.47082E-08 2.63223E-08-3.72197E-08-1.56364E-08
 -1       280 1.99998E+02 3.29687E-08 3.52419E-08-6.48253E-09-7.07966E-09 6.18717E-09
 -1       281 1.99998E+02-9.88641E-10-1.64764E-09-2.57647E-10 4.96249E-09 1.03651E-09
 -1       282 1.99998E+02-2.60091E-09-2.52738E-09 3.90904E-10 2.83942E-09-2.54008E-10
 -1       283 1.99998E+02-7.70598E-10-6.87170E-10 8.02646E-12 1.05872E-09 6.79885E-11
 -1       284 1.99998E+02-2.18450E-10-3.05056E-10-2.54026E-11 3.23146E-10 1.92418E-11
 -1       285 1.99998E+02-6.26935E-11-4.75640E-11 2.51866E-11 1.36950E-10-2.18552E-11
 -1       286 1.99998E+02-7.30426E-12-7.97870E-12-3.97753E-12 9.51544E-11 4.47177E-12
 -1       287 1.99998E+02-6.88277E-12-1.05983E-11-1.10099E-11 1.13109E-11-2.46364E-12
 -1       288 1.99998E+02-2.45509E-12 8.63865E-13-1.72038E-13 3.51069E-12 7.03520E-13
 -1       289 1.99998E+02 3.09664E-12 2.87492E-12-8.90096E-12 1.50808E-12-2.13208E-12
 -1       290 1.99998E+02 4.05032E-12-8.49231E-12-5.55935E-12 1.69662E-13-4.59074E-12
 -1       291 1.99998E+02 2.84343E-12 2.02126E-12-2.96230E-12-2.15561E-12-3.69915E-12
 -1       292 1.99998E+02-7.06015E-12-1.88663E-11-2.15844E-12-2.30794E-12-6.60322E-12
 -1       293 1.99998E+02 6.35867E-12 3.13082E-12 3.01886E-12-2.43070E-13-4.58459E-12
 -1       294 1.99998E+02 5.86555E-13-1.74492E-12 1.71944E-12 2.25035E-12 1.34576E-12
 -1       295 1.99998E+02-6.57754E-13 1.31382E-11-2.10302E-12-5.85645E-12 1.47115E-11
 -1       296 1.99998E+02-1.98995E-11 6.84481E-11-1.37978E-11-4.71534E-12 8.43380E-11
 -1       297 1.99998E+02-3.12522E-10 6.58748E-10-1.12579E-10 1.74552E-10 2.99151E-10
 -1       298 1.99998E+02 2.72911E-08 2.58677E-08 8.35876E-10-1.33444E-08-3.67953E-09
 -1       299 2.14633E+02 7.20427E+00 5.83797E+00-1.27731E+01 1.93918E-01-1.30113E+01
 -1       300 1.77152E+02-4.60294E-01-5.32963E-01 1.03702E+00 5.43270E-01 3.90762E-01
 -1       301 1.91535E+02 1.63070E-01 6.98559E-02 4.46784E-01-9.03290E-02 4.06158E-01
 -1       302 1.98350E+02 2.33986E-01 2.26763E-01 8.65211E-02-8.07784E-02 9.65019E-02
 -1       303 1.99790E+02 2.91028E-02 2.82058E-02 3.27257E-02-1.37033E-02 2.11147E-02
 -1       304 2.00064E+02 1.15003E-02 1.17552E-02-4.30130E-03-5.46592E-03-5.55487E-03
 -1       305 2.00033E+02 4.27855E-04 5.87831E-04-1.48620E-03-1.40817E-03-8.69071E-04
 -1       306 2.00009E+02-5.51975E-04-3.85148E-04-4.94694E-04 1.10936E-04-4.74180E-04
 -1       307 2.00000E+02-2.83522E-04-2.66176E-04-7.20504E-05 9.33334E-05-1.04659E-04
 -1       308 1.99998E+02-3.34119E-05-3.31546E-05-3.12222E-05 2.70885E-05-2.77035E-05
 -1       309 1.99998E+02-2.37506E-06-4.25357E-06 2.00818E-06 3.33816E-06 1.81734E-06
 -1       310 1.99998E+02 2.62284E-06 3.09747E-06 2.81078E-06-8.15472E-07 2.36478E-06
 -1       311 1.99998E+02 1.13341E-06 1.34469E-06 7.93483E-07-4.52794E-07 6.04837E-07
 -1       312 1.99998E+02 1.48613E-07 1.32009E-07 2.34858E-07-4.28327E-08 2.10101E-07
 -1       313 1.99998E+02 7.07996E-08 7.93232E-08-5.53909E-09-3.82379E-08-1.09461E-08
 -1       314 1.99998E+02 1.04721E-09-7.01712E-10 8.04471E-10-5.10409E-09 6.77584E-09
 -1       315 1.99998E+02-3.77260E-09-4.70476E-09-2.21574E-10 1.95294E-09-1.13574E-10
 -1       316 1.99998E+02-8.55002E-10-8.43339E-10-3.84401E-11 1.29737E-09-1.50541E-10
 -1       317 1.99998E+02-1.18866E-10-2.19451E-10 8.31333E-11 5.84737E-10 1.78091E-10
 -1       318 1.99998E+02 3.21529E-11 3.92744E-11 1.74261E-11 1.86915E-10-5.52461E-11
 -1       319 1.99998E+02 3.62501E-11 5.52360E-11-4.91285E-12 9.76006E-11-1.03584E-11
 -1       320 1.99998E+02-4.76997E-12-4.47653E-12 3.53712E-12 1.54920E-11 1.86635E-11
 -1       321 1.99998E+02 2.95014E-12 4.81460E-12-7.51439E-12 2.40851E-12-6.73387E-12
 -1       322 1.99998E+02-2.22049E-12 7.79999E-14-1.85365E-12 1.61000E-12 1.49774E-12
 -1       323 1.99998E+02-2.52019E-12-1.34340E-11-8.18266E-12-1.43252E-12-3.63715E-12
 -1       324 1.99998E+02 7.90492E-12 6.01106E-12-3.93017E-12 1.83487E-12-3.69931E-12
 -1       325 1.99998E+02-2.92295E-12-1.42722E-11-3.17502E-12 3.21661E-13-5.81919E-12
 -1       326 1.99998E+02 1.77397E-12 4.80892E-12 3.01444E-13-2.19350E-12-4.48259E-12
 -1       327 1.99998E+02 3.14258E-12 1.13387E-13-3.40310E-14-4.28031E-13-1.80627E-12
 -1       328 1.99998E+02 1.90266E-12-3.93403E-13-1.49930E-12-2.11293E-13 1.02316E-11
 -1       329 1.99998E+02 7.25303E-12 1.61101E-11-1.91239E-11-2.18020E-11 4.24337E-11
 -1       330 1.99998E+02-2.02925E-11-5.74775E-12-5.58834E-11-4.62772E-11 9.06779E-11
 -1       331 1.99998E+02 4.21991E-10-3.54454E-09-3.56413E-09-8.40712E-10-5.22263E-09
 -1       332 1.99998E+02-2.25879E-08-3.24440E-08 1.28326E-07 9.91500E-08 1.25020E-07
 -1       333 1.76179E+02 7.14077E+01 7.27369E+01-2.65963E+01 2.62952E-01-9.32826E+00
 -1       334 1.77002E+02 7.05740E+01 7.26678E+01 2.81915E+01-1.61842E-01-9.08432E+00
 -1       335 1.76513E+02 7.43720E+01 7.19876E+01-1.16378E+01 5.96700E-02 2.98536E+01
 -1       336 1.73248E+02 7.34363E+01 7.40054E+01 2.65049E+01 2.15516E-02 1.08131E+01
 -1       337 1.77634E+02 7.26455E+01 7.25616E+01 8.59223E+00-1.67699E-01 2.45852E-01
 -1       338 1.75764E+02 7.29204E+01 7.12756E+01 8.12123E+00-3.56278E-01-2.58363E+01
 -1       339 1.77102E+02 7.21550E+01 7.47238E+01-3.00767E+01 1.67756E-01 1.17724E+01
 -1       340 1.76397E+02 7.30365E+01 7.11936E+01 8.17721E+00 3.76976E-01 2.63747E+01
 -1       341 1.78594E+02 7.52090E+01 7.23462E+01-1.09298E+01-6.30474E-02-3.18001E+01
 -1       342 1.78956E+02 7.26086E+01 7.27598E+01-5.28113E+00-5.38936E-01-1.07787E+01
 -1       343 1.83652E+02 7.06691E+01 7.08122E+01 3.04551E+01-1.24485E+00-3.03706E+01
 -1       344 1.79312E+02 7.47245E+01 7.47697E+01-2.95927E+01 3.94506E-01 2.94605E+01
 -1       345 1.83394E+02 7.07396E+01 7.11077E+01 3.02850E+01 1.16120E+00 3.04523E+01
 -1       346 1.81723E+02 7.15662E+01 7.32009E+01-3.13399E+01 4.84449E-01-2.92071E+01
 -1       347 1.77928E+02 7.13914E+01 7.15678E+01-8.31078E+00 4.50422E-01 7.49485E+00
 -1       348 2.36106E+02 9.14833E+01 9.14901E+01 4.60707E+01-5.22423E+00-4.61723E+01
 -1       349 2.23443E+02 9.42019E+01 9.32178E+01 5.45824E+01 1.12942E+00-2.34548E+01
 -1       350 2.22933E+02 9.31969E+01 9.40987E+01 2.31770E+01 1.04760E+00-5.47237E+01
 -1       351 2.23928E+02 9.43365E+01 9.34005E+01 5.46222E+01-1.19910E+00 2.32727E+01
 -1       352 2.36160E+02 9.15270E+01 9.14994E+01 4.60868E+01 5.22242E+00 4.61349E+01
 -1       353 2.23232E+02 9.32727E+01 9.42351E+01 2.31559E+01-1.03025E+00 5.47774E+01
 -1       354 2.34670E+02 9.09250E+01 9.18309E+01-4.61703E+01 4.95123E+00-4.50245E+01
 -1       355 2.15974E+02 9.25605E+01 9.25606E+01-2.53806E+01-1.16056E-05-5.06552E+01
 -1       356 2.23371E+02 9.40321E+01 9.33911E+01-5.49562E+01-1.28179E+00-2.32197E+01
 -1       357 2.32838E+02 9.11794E+01 9.11538E+01-4.48832E+01-4.64246E+00 4.48588E+01
 -1       358 2.15739E+02 9.24599E+01 9.24598E+01-5.16269E+01 1.27817E-05 2.49726E+01
 -1       359 2.16111E+02 9.26190E+01 9.26192E+01-2.50210E+01 1.16211E-05 5.12970E+01
 -1       360 2.06658E+02 8.85679E+01 8.85677E+01 4.78242E+01-5.57381E-06 6.01920E+00
 -1       361 2.09472E+02 8.97740E+01 8.97738E+01 4.85815E+01 5.62166E-06 1.52908E+01
 -1       362 1.81906E+02 7.40624E+01 7.67250E+01 2.89864E+01 3.71638E-01 1.84662E+01
 -1       363 2.11008E+02 9.04324E+01 9.04322E+01 5.06109E+01 2.02918E-06-1.50692E+01
 -1       364 2.15595E+02 9.12464E+01 9.07512E+01 5.13486E+01 7.36463E-01-3.95959E+00
 -1       365 1.75451E+02 7.17970E+01 7.41751E+01 2.71997E+01 1.23961E-01 1.77917E+00
 -1       366 1.84178E+02 7.32157E+01 7.71596E+01 2.99734E+01-4.38962E-01-1.77029E+01
 -1       367 2.12831E+02 8.99508E+01 9.01151E+01 3.45059E+00 7.67829E-01-5.04133E+01
 -1       368 2.09464E+02 8.97705E+01 8.97706E+01 1.43896E+01 3.23507E-06-4.94283E+01
 -1       369 1.83745E+02 7.70524E+01 7.36687E+01 1.71721E+01-6.89180E-01-2.85513E+01
 -1       370 2.21791E+02 9.43940E+01 9.47852E+01-1.65615E+01 1.87371E-01-5.32321E+01
 -1       371 2.12779E+02 9.11912E+01 9.11913E+01-5.86068E+00-3.84154E-07-5.18334E+01
 -1       372 1.77001E+02 7.42694E+01 7.11173E+01-1.96508E+00 6.48401E-01-2.91729E+01
 -1       373 1.82714E+02 7.71863E+01 7.45725E+01-1.96483E+01-2.70503E-01-3.07288E+01
 -1       374 2.19558E+02 9.38387E+01 9.33793E+01-5.29771E+01-1.67403E-01 1.67560E+01
 -1       375 2.09971E+02 8.99880E+01 8.99879E+01-5.08229E+01-9.14286E-07 6.42991E+00
 -1       376 1.81325E+02 7.39141E+01 7.66142E+01-3.00091E+01 1.57694E-01 1.98275E+01
 -1       377 2.12643E+02 9.02421E+01 8.95870E+01-5.04872E+01-5.71996E-01-4.13354E+00
 -1       378 2.08180E+02 8.92204E+01 8.92203E+01-4.94368E+01-2.75053E-06-1.51558E+01
 -1       379 1.77012E+02 7.14175E+01 7.44729E+01-2.80326E+01-3.66272E-01 2.23092E+00
 -1       380 1.82507E+02 7.30142E+01 7.65574E+01-2.92673E+01 5.70869E-01-1.77900E+01
 -1       381 2.10794E+02 9.03405E+01 9.03406E+01 1.43901E+01-2.66384E-06 5.00186E+01
 -1       382 2.13708E+02 9.03909E+01 9.03946E+01 3.44223E+00-8.25913E-01 5.07599E+01
 -1       383 1.83750E+02 7.70638E+01 7.35946E+01 1.71933E+01 6.23602E-01 2.89761E+01
 -1       384 2.09722E+02 8.98809E+01 8.98811E+01-5.98861E+00-7.65638E-07 5.03542E+01
 -1       385 2.18479E+02 9.28617E+01 9.35301E+01-1.66830E+01-6.86639E-02 5.23458E+01
 -1       386 1.76754E+02 7.42965E+01 7.12129E+01-2.40831E+00-5.09605E-01 2.84025E+01
 -1       387 1.81284E+02 7.66234E+01 7.39901E+01-1.97577E+01 8.06735E-02 2.98401E+01
 -1       388 1.82391E+02 7.81679E+01 7.81679E+01-1.75411E+01-6.40266E-07 1.02635E+01
 -1       389 1.79747E+02 7.65154E+01 7.46304E+01-1.62440E+01 9.81515E-01-9.44158E-01
 -1       390 1.85648E+02 7.95636E+01 7.95636E+01-1.73436E+01-4.08228E-06-1.88415E+01
 -1       391 1.82545E+02 7.82339E+01 7.82339E+01-1.49719E+01-2.91103E-06-1.03006E+01
 -1       392 1.82385E+02 7.81653E+01 7.81653E+01-9.00186E+00-4.73351E-07-1.92659E+01
 -1       393 1.82195E+02 7.42403E+01 7.65749E+01-8.08464E+00-1.11886E+00-2.24079E+00
 -1       394 1.79695E+02 7.63906E+01 7.45733E+01 1.66782E+01-4.60121E-01-4.02058E+00
 -1       395 1.79519E+02 7.69369E+01 7.69369E+01 1.66657E+01-4.95470E-07 6.41145E+00
 -1       396 1.85807E+02 7.96320E+01 7.96319E+01 1.68424E+01 4.11290E-06-1.62996E+01
 -1       397 1.80639E+02 7.74169E+01 7.74169E+01 9.02560E+00 2.23987E-06-1.22930E+01
 -1       398 1.85199E+02 7.93712E+01 7.93712E+01-1.91988E+01 2.58810E-06 1.91177E+01
 -1       399 1.82195E+02 7.80839E+01 7.80839E+01-1.05581E+01-7.14565E-07 1.72074E+01
 -1       400 1.80000E+02 7.45320E+01 7.64627E+01 5.06058E-01 1.01331E+00 1.58045E+01
 -1       401 1.80251E+02 7.72506E+01 7.72506E+01 8.94690E+00-9.18535E-07 1.25813E+01
 -1       402 1.83142E+02 7.84896E+01 7.84896E+01 1.70523E+01-2.07275E-06 1.70622E+01
 -1       403 1.80137E+02 7.47385E+01 7.64801E+01 1.58070E+00-1.01703E+00-1.68141E+01
 -1       404 1.82063E+02 7.56907E+01 7.53716E+01 2.15318E+00 1.34830E+00-5.88244E+00
 -1       405 1.81832E+02 7.60567E+01 7.47588E+01 9.59987E-01-1.22867E+00 4.88126E+00
 -1       406 1.99998E+02-2.80932E-08-3.46782E-09-4.59030E-08 9.44823E-09 1.95208E-08
 -1       407 1.99998E+02-2.12433E-08-1.79779E-08 3.03849E-09 2.94964E-08 5.87086E-08
 -1       408 1.99998E+02 2.47854E-08 1.45879E-08 3.85935E-09 1.90590E-08 7.20284E-08
 -1       409 1.99998E+02 4.72313E-08 5.18120E-08-1.35694E-07-2.96114E-08-1.00560E-07
 -1       410 1.99998E+02 2.16458E-08-1.84715E-08-5.87755E-08-1.49278E-08 3.33120E-08
 -1       411 1.99998E+02 1.89637E-08 5.66728E-09 9.94362E-08-2.55628E-08-3.34993E-08
 -1       412 1.99998E+02-1.18471E-09-2.33144E-08-2.44076E-08 8.72762E-09 2.08687E-09
 -1       413 1.99998E+02-1.99092E-08-3.54246E-08 5.69335E-08-3.08101E-09 3.81658E-09
 -1       414 1.99998E+02-5.40660E-08-4.09491E-09-1.51009E-07 1.93493E-08 8.31424E-08
 -1       415 1.99998E+02 9.98854E-10 1.21800E-08 1.78901E-08 1.18382E-08 1.21207E-08
 -1       416 1.99998E+02-5.08654E-09-2.03863E-08 2.38465E-08-1.52769E-08-1.24441E-08
 -1       417 1.99998E+02-1.26098E-09 1.46090E-08-6.90861E-09 6.89429E-09 1.75301E-08
 -1       418 1.99998E+02 8.86307E-09 6.51562E-09 1.37242E-08-1.42821E-08 3.65109E-08
 -1       419 1.99998E+02 5.45403E-08 3.36828E-08 8.79756E-08-6.97143E-09 6.55468E-09
 -1       420 1.99998E+02-6.47028E-11 3.56400E-08 1.64721E-08-4.75199E-09-3.05934E-08
 -1       421 1.99998E+02-1.29763E-07-9.96081E-08-1.39505E-08-4.27421E-08-7.37394E-08
 -1       422 1.99998E+02-5.56921E-09-4.72751E-08 2.06680E-08 9.86391E-09 1.92534E-08
 -1       423 1.99998E+02 3.52220E-08-2.30754E-08 8.59124E-08-2.66740E-08 1.82424E-08
 -1       424 1.99998E+02 2.11984E-08 2.94748E-08-5.82499E-08-4.03443E-08 5.34592E-09
 -1       425 1.99998E+02 3.20293E-08 2.56615E-08-6.73252E-09 1.80496E-08 4.62053E-08
 -1       426 1.99998E+02-3.92169E-08-2.88426E-08 1.29648E-07 3.81803E-08-5.33756E-08
 -1       427 1.99998E+02 4.44805E-09 4.79263E-08-2.03125E-07 5.75042E-08 1.00644E-07
 -1       428 1.99998E+02 1.14815E-07 1.07205E-07 2.01736E-07-1.28778E-07 8.67546E-08
 -1       429 1.99998E+02 1.76671E-07 6.66689E-08-2.87876E-09 6.27472E-08-1.24579E-07
 -1       430 1.99998E+02 4.85423E-08 2.66258E-08 5.03747E-08-1.26776E-08 7.73437E-08
 -1       431 1.99998E+02-6.24769E-09 2.46007E-08 2.38218E-08 1.72553E-08-1.58509E-08
 -1       432 1.99998E+02 1.03944E-08 2.73972E-08-3.96796E-08-1.69564E-08-1.64084E-08
 -1       433 1.99998E+02-6.34569E-08-3.03866E-08-8.46107E-08 1.04358E-08-1.20353E-08
 -1       434 1.99998E+02 6.47070E-08 3.98424E-08-5.17970E-08-2.22812E-08-1.17964E-08
 -1       435 1.99998E+02-3.12830E-08-3.30732E-08 1.93279E-08-1.05058E-08-1.19722E-07
 -1       436 1.99998E+02-4.00231E-08-8.96975E-08 4.52063E-08-1.58430E-08-1.99426E-08
 -1       437 1.99998E+02-2.44234E-09 2.15603E-08-3.72449E-08-8.60710E-09-1.07441E-08
 -1       438 1.99998E+02 5.66495E-10-1.08849E-08-3.70430E-08 5.71345E-09 8.48020E-08
 -1       439 1.99998E+02 5.13794E-08 4.00051E-08 9.11762E-08 2.03695E-09 2.66407E-08
 -1       440 1.99998E+02 3.03717E-08 7.10678E-08-1.94605E-07 3.46500E-08 7.27588E-08
 -1       441 1.99998E+02 2.94248E-08-4.18372E-08 2.98969E-07-9.45185E-08 7.28297E-08
 -1       442 1.99998E+02-1.50315E-08 3.29433E-09-1.30331E-07 1.47800E-08-3.92926E-08
 -1       443 1.99998E+02 4.07319E-08 1.94076E-08-1.95737E-07 4.40689E-08 1.13593E-07
 -1       444 1.99998E+02 1.11154E-07 1.65755E-07 2.16116E-07-2.83072E-08 3.59621E-08
 -1       445 1.99998E+02 1.22378E-08 2.83453E-08 2.52925E-08-5.54823E-09-4.94777E-08
 -1       446 1.99998E+02-1.91435E-08-5.56920E-08 2.51540E-08 1.30780E-08-7.42405E-09
 -1       447 1.99998E+02 1.27724E-07 8.72193E-08 4.72654E-08-2.01231E-08 2.67222E-08
 -1       448 1.99998E+02 1.37701E-07 5.14660E-08 4.77154E-08 3.39860E-08-1.45186E-07
 -1       449 1.99998E+02-9.21505E-10-3.26002E-09 3.27774E-08 1.33243E-08-4.11403E-08
 -1       450 1.99998E+02-4.12840E-08-5.54899E-08-6.02532E-08 2.49427E-08-3.76324E-09
 -1       451 1.99998E+02-2.21697E-07-1.09239E-07 6.14558E-09-6.24814E-08 1.16991E-07
 -1       452 1.99998E+02-3.84336E-08 7.31832E-09-6.65546E-09-2.83012E-08 5.58599E-08
 -1       453 1.99998E+02 3.45032E-08 5.02755E-08-2.40883E-09 3.56062E-08-3.73992E-08
 -1       454 1.99998E+02 4.71079E-08 5.71095E-08 1.45272E-07 7.20406E-08 8.68559E-09
 -1       455 1.99998E+02 1.51440E-07 1.82971E-07-1.68676E-07-4.29129E-08-1.33593E-08
 -1       456 1.99998E+02 4.51716E-08 4.20662E-08 1.44994E-08-9.83357E-09 3.16854E-08
 -1       457 1.99998E+02-2.34054E-08-4.64776E-08 5.29641E-08 1.26456E-09-1.82774E-08
 -1       458 1.99998E+02 1.60933E-08-1.75143E-09-4.37712E-08 3.50103E-09-7.93901E-08
 -1       459 1.99998E+02 8.41243E-11 5.50519E-09-6.62332E-08 1.30383E-09-6.23400E-08
 -1       460 1.99998E+02-2.74569E-09-4.61567E-09 5.04180E-08 5.76140E-09 2.21837E-08
 -1       461 1.99998E+02 2.85726E-08 8.07215E-09 9.14055E-08-2.20744E-08-4.73548E-08
 -1       462 1.99998E+02-3.70742E-10 1.27689E-08-9.96495E-08 5.41159E-09 5.27844E-08
 -1       463 1.99998E+02-8.15654E-08-8.14224E-08 9.12952E-08 4.78681E-09-9.83496E-08
 -1       464 1.99998E+02 1.33466E-10 1.23087E-07-5.30229E-08 7.93216E-09 3.60782E-08
 -1       465 1.99998E+02 4.22245E-08 1.06815E-07 4.46383E-08-7.56494E-09-1.38087E-08
 -1       466 1.99998E+02 2.81216E-08 4.21938E-08 5.06374E-08 8.45237E-09-4.18363E-08
 -1       467 1.99998E+02 3.00232E-08-3.58640E-09 9.53188E-08 8.67893E-09 8.80824E-08
 -1       468 1.99998E+02-1.50026E-07-1.51757E-07-1.39619E-07-2.51543E-08 1.28364E-08
 -1       469 1.99998E+02-7.76890E-09-2.59349E-08-1.34382E-08 1.54769E-08 2.79825E-08
 -1       470 1.99998E+02 4.47849E-08 5.01487E-09-1.54327E-08-2.99014E-08-1.52269E-07
 -1       471 1.99998E+02 1.13861E-08 3.59594E-08-8.91422E-08 3.43555E-08-2.20205E-08
 -1       472 1.99998E+02-5.62882E-08-3.48205E-08-4.77532E-09 3.50144E-09 7.00336E-08
 -1       473 1.99998E+02 3.15785E-08 1.41234E-08 1.98194E-07-6.67420E-09-6.51395E-08
 -1       474 1.99998E+02 1.18372E-07 9.59391E-08 5.14214E-08 2.63900E-08 1.86881E-07
 -1       475 1.99998E+02-2.36842E-09 5.93897E-08 5.36109E-08-2.36710E-08-9.91485E-08
 -1       476 1.99998E+02-2.62113E-08-4.46751E-08-4.44957E-08-7.89504E-09 8.79115E-08
 -1       477 1.99998E+02-2.35194E-08-4.60364E-08 1.81985E-08 1.06229E-09 8.91834E-08
 -1       478 1.99998E+02 5.88049E-08 5.45787E-08-1.40294E-07 2.56971E-09-4.05416E-08
 -1       479 1.99998E+02 6.09424E-13-6.19946E-12 4.35117E-12 2.84213E-13-5.55463E-12
 -1       480 1.99998E+02 3.09119E-12 5.09689E-12-2.01359E-12 2.42473E-12-1.46186E-11
 -1       481 1.99998E+02 7.89887E-12 3.01337E-10-1.20016E-10-1.46116E-11 4.98320E-10
 -1       482 1.99998E+02 2.21785E-11-5.66975E-10-1.52591E-10 8.87223E-13-1.40671E-09
 -1       483 1.99998E+02-7.44679E-12 4.45202E-11 7.87636E-12-7.07282E-12-9.24782E-11
 -1       484 1.99998E+02-1.30292E-12 6.67067E-13-1.31300E-12-3.93615E-14-7.42720E-12
 -1       485 1.99998E+02 3.42261E-12 5.71965E-12-5.61017E-12-6.30067E-13-5.83354E-12
 -1       486 1.99998E+02-1.29716E-09 6.80217E-09 9.73666E-11-2.52911E-10-1.88674E-08
 -1       487 2.00014E+02 3.20313E-02 2.49901E-03 2.85692E-02-4.61897E-03-2.13101E-02
 -1       488 2.00003E+02 6.77408E-05 2.42674E-03 1.26219E-03-1.92511E-04 3.69891E-03
 -1       489 1.99176E+02 8.97127E-02-5.25347E-01-5.47963E-02-4.02112E-02 8.14364E-01
 -1       490 1.99998E+02-2.66870E-06-1.04167E-05-5.57749E-06 7.42857E-07-1.06066E-05
 -1       491 1.99998E+02 2.95539E-08 1.01578E-08 1.34855E-07-8.03266E-08-3.14135E-07
 -1       492 1.99998E+02-1.79761E-05 9.17070E-05-1.47572E-05 1.26855E-05 2.02851E-04
 -1       493 1.89943E+02-1.89593E+00-2.14799E+00-2.80072E+00-5.73067E-01 8.95734E-01
 -1       494 1.96533E+02 1.31093E-01-1.62691E+00-1.06784E+00 3.67894E-01-2.08497E+00
 -1       495 1.99998E+02 5.81871E-10 6.93985E-10-8.85948E-10-9.89300E-10-2.43167E-09
 -1       496 1.99998E+02 2.05616E-09 1.05378E-08 2.24686E-09-5.00591E-09-1.23309E-08
 -1       497 1.99998E+02 1.31245E-11 1.08025E-10-6.02350E-12 8.67225E-12-1.37468E-10
 -1       498 2.00011E+02 1.30446E-03 4.14547E-03 2.42187E-03 1.49812E-03-4.06722E-03
 -1       499 1.99998E+02-3.65667E-10-3.75036E-06-1.38023E-06-4.06897E-07 4.84323E-06
 -1       500 1.99998E+02 1.86274E-08 3.61682E-08 3.20952E-08 2.07282E-09-9.50165E-08
 -1       501 1.99999E+02-4.65783E-05 6.63194E-04 1.07809E-04 5.91160E-05-9.35448E-04
 -1       502 1.99998E+02 3.48553E-06-7.87563E-06-1.52179E-05-5.64212E-06-3.82825E-06
 -1       503 1.95659E+02-1.86581E+01 1.41921E+01 3.17331E+00 2.07421E-01 5.00374E+00
 -1       504 1.99998E+02-7.58582E-09 4.88370E-09 1.14566E-08 1.22456E-08 3.50863E-09
 -1       505 1.99998E+02-1.68107E-12 5.25771E-13-9.86747E-13 8.16166E-13-1.83580E-12
 -1       506 1.99998E+02-1.06313E-12 2.51357E-12 1.13405E-12 4.00599E-12-1.10931E-11
 -1       507 1.99998E+02-1.29362E-10 2.88872E-10 6.32605E-11-1.33611E-10-1.36834E-09
 -1       508 1.99998E+02 1.44732E-11-5.68437E-11-3.11749E-11 8.13598E-13-1.59079E-10
 -1       509 1.99998E+02 7.43312E-13 4.85632E-13-3.03135E-12-1.81442E-12-5.15006E-12
 -1       510 1.96299E+02 2.76454E-01-1.58423E+00-9.48642E-01-3.96368E-01 2.04951E+00
 -1       511 1.98977E+02 1.46272E-01-5.36734E-01-1.64355E-01 2.97693E-02-8.51634E-01
 -1       512 1.99954E+02-4.75351E-04-1.00455E-01 6.49722E-03-3.05726E-03-1.87786E-01
 -1       513 2.00049E+02 2.88013E-02-1.04581E-01 1.27007E-02 1.99008E-03-3.60086E-04
 -1       514 1.99998E+02 7.19557E-11 4.41159E-10 7.55043E-11 5.99880E-11-7.79590E-10
 -1       515 1.99998E+02-5.12772E-13-1.90504E-13-1.23196E-12 1.26583E-12-5.06384E-12
 -1       516 1.99998E+02 3.65300E-12 4.74162E-12-4.09520E-13-5.36269E-13-7.43380E-12
 -1       517 1.99998E+02-5.03821E-09 1.50819E-08 2.64953E-09-1.05744E-09-5.15011E-08
 -1       518 1.99998E+02 5.35397E-10 1.79611E-09-6.60335E-10-1.08403E-09-5.61882E-09
 -1       519 1.99998E+02-9.37048E-11 5.32478E-11-5.08365E-11 1.41641E-10-4.08776E-10
 -1       520 1.99998E+02 5.87206E-11-1.96051E-10 1.96987E-11 8.61457E-11-5.56851E-10
 -1       521 1.99999E+02-2.69115E-04 7.21263E-04 1.73453E-04-3.28464E-05 1.20602E-03
 -1       522 1.99998E+02 2.96140E-07-2.90805E-06-1.33970E-06-6.95091E-08-4.67805E-06
 -1       523 1.99998E+02 4.87829E-08-5.91147E-07-6.02678E-08-4.82964E-08-1.26036E-06
 -1       524 1.99998E+02 1.61160E-07-6.76766E-07 7.28848E-08-5.10552E-08-1.88446E-07
 -1       525 1.99998E+02-3.26760E-07-9.92882E-06-3.92598E-06-1.98500E-06 1.23114E-05
 -1       526 1.99998E+02-2.61308E-12-4.30032E-12 2.33291E-12 4.79285E-13-1.19553E-11
 -1       527 1.99998E+02-2.52654E-12 2.14107E-12-5.45129E-13-2.69338E-12-1.42246E-11
 -1       528 1.99998E+02 1.16504E-08 2.37804E-08 2.20614E-08-1.31212E-08-3.76558E-08
 -1       529 1.99998E+02 5.90610E-11 1.09801E-10-5.82566E-11-4.06563E-12 7.87638E-11
 -1       530 1.99998E+02 2.53851E-12 1.41719E-11-4.86495E-12 3.11628E-13-2.53771E-11
 -1       531 1.99998E+02-3.50723E-05 6.28830E-05-4.24796E-05-2.97685E-05-1.68277E-04
 -1       532 2.00002E+02-2.37071E-04 2.36390E-03 9.64897E-04 2.52783E-04-3.52324E-03
 -1       533 1.99998E+02-5.76384E-12-1.30759E-12-2.10897E-12-3.35024E-12-1.16234E-11
 -1       534 2.00013E+02 1.87879E-03 4.33808E-03 4.52454E-03-1.73584E-03 5.47286E-03
 -1       535 1.99998E+02 4.67515E-12 4.79853E-12-2.25255E-12 2.81695E-12-1.76199E-11
 -1       536 1.99998E+02-1.94904E-10-5.18280E-10-9.19911E-10 1.61896E-10-4.01756E-09
 -1       537 1.99998E+02-2.30928E-06-9.75702E-06-1.07511E-05 6.03649E-06 1.05355E-05
 -1       538 1.99998E+02-7.37014E-10 1.45974E-09-4.44381E-10-8.32335E-11-5.80338E-09
 -1       539 1.99998E+02 5.75790E-12-1.98684E-11-2.62513E-12 4.36417E-12-2.52274E-11
 -1       540 1.99998E+02-1.88956E-12 6.02775E-12 3.17804E-12 3.76266E-12-1.18230E-11
 -1       541 1.96553E+02-2.22194E+00-4.14208E+00-3.17097E+00-5.89324E-03-3.57444E-02
 -1       542 1.99626E+02-1.04996E-01-1.82120E+00-7.95261E-01 1.28597E-02 2.61510E-02
 -1       543 2.00029E+02-8.07163E-04-1.32993E-04 1.11690E-02 3.53691E-03 2.21952E-02
 -1       544 1.89956E+02-2.45055E+01 8.85074E+00-3.30705E+00-4.66322E-01-5.17337E+00
 -1       545 1.99998E+02 2.59131E-07-6.78284E-07 4.38638E-08 2.91686E-08 1.08468E-06
 -1       546 1.99998E+02 3.55503E-08-1.36884E-08 7.08426E-08-8.36295E-09-1.23919E-07
 -1       547 1.99998E+02 6.52092E-10 5.67034E-10 6.61737E-10 2.05411E-10-1.92492E-10
 -1       548 1.99899E+02-5.71917E-04-1.07660E-01-2.00332E-02 1.74744E-03 1.61932E-01
 -1       549 1.99998E+02 1.09702E-12 1.88509E-10 7.08672E-11 5.55541E-12-7.11020E-11
 -1       550 2.00024E+02 1.13614E-03-1.61353E-03 9.95727E-03 2.77463E-04-1.24032E-03
 -1       551 1.99998E+02-7.71601E-13 3.66159E-12-1.16135E-12-1.27089E-12-1.34161E-11
 -1       552 1.99998E+02-1.33122E-12-5.00856E-13-2.91646E-12 4.06065E-13-1.58937E-11
 -1       553 1.99998E+02-1.61370E-12-3.63252E-11-3.67293E-12 3.65060E-11-7.32678E-11
 -1       554 1.99998E+02 1.16388E-12 3.40116E-12-1.54469E-12-3.79899E-12-1.60577E-11
 -1       555 1.99998E+02-2.67708E-10 8.58508E-10-7.12669E-11-1.98779E-10-3.71001E-09
 -1       556 1.99998E+02-1.06849E-12-3.64903E-12-3.92919E-13 5.94740E-12-1.04863E-11
 -1       557 1.99998E+02 9.07296E-12-7.20339E-11-3.06796E-11-7.79452E-11-3.07946E-10
 -1       558 1.99998E+02-3.23002E-11-2.36260E-11-7.89429E-11-1.32483E-10-1.25173E-09
 -1       559 1.99998E+02 3.08889E-12 6.66383E-11 1.46140E-11-4.83598E-12-3.55968E-11
 -1       560 1.99998E+02-1.69100E-12 2.13134E-11-2.81573E-12 1.34691E-12-1.96492E-11
 -1       561 1.99998E+02-2.88789E-12 2.59119E-12 2.45468E-13 2.96464E-14-1.10091E-11
 -1       562 1.99998E+02-3.21197E-10 3.96971E-09 7.95913E-10-1.90038E-09-1.04198E-08
 -1       563 1.99998E+02 1.64480E-09 3.74217E-08 1.84790E-08-5.15016E-09-6.13843E-08
 -1       564 2.00004E+02 1.78573E-03 9.36346E-03 5.09085E-03 6.38177E-06 4.93211E-04
 -1       565 1.99998E+02 1.41136E-05 2.69010E-03 8.31207E-04 2.45648E-05 2.58595E-04
 -1       566 1.99998E+02-3.46816E-05 8.48674E-05-4.15040E-05 1.78268E-06 1.97530E-05
 -1       567 1.99998E+02-6.46857E-06-1.52091E-05-1.73503E-05 1.55490E-06 5.66197E-06
 -1       568 1.99998E+02-2.89534E-04 7.29501E-04 1.94418E-05-2.83264E-05 1.06771E-04
 -1       569 1.99998E+02-2.86142E-07-1.03667E-05-4.20154E-06 2.19865E-07 7.99177E-07
 -1       570 1.99998E+02 4.54759E-12 5.34473E-12 3.62538E-12-1.33307E-12-5.66785E-12
 -1       571 1.99998E+02-1.33001E-09 1.71405E-08 5.99442E-09-2.82779E-09-2.84852E-08
 -1       572 1.99998E+02 7.36774E-07-3.92605E-06-4.08524E-07-2.04031E-08-3.62878E-07
 -1       573 1.99998E+02-2.86377E-09-4.98001E-08 4.69735E-08 2.03401E-08 4.70821E-08
 -1       574 2.00018E+02 1.15235E-01-5.75340E-01-1.13919E-01-1.23707E-03 1.30124E-02
 -1       575 1.99998E+02-3.24249E-08 3.51774E-09-7.95514E-09-6.24555E-09-5.71504E-10
 -1       576 1.90033E+02-1.56277E+00-1.96376E+00-2.67213E+00 4.61831E-01-9.08401E-01
 -1       577 1.99998E+02-2.45867E-10-5.68831E-10 5.55836E-10 3.57316E-10 8.90325E-10
 -1       578 1.88846E+02-2.05309E+00 3.63189E+00-3.53612E+00 2.97670E-02-7.24996E-02
 -1       579 1.96061E+02-1.44793E+01 3.54798E+00 1.61421E-02-9.16609E-01-1.11885E+01
 -1       580 1.96162E+02-1.44403E+01 3.92805E+00 1.46117E-01 9.43428E-01 1.15110E+01
 -1       581 1.99998E+02-1.27962E-08-1.35934E-10 1.40671E-08-2.56973E-09 4.53797E-09
 -1       582 1.99998E+02 2.68834E-08 1.87041E-08 1.35946E-09 1.53497E-08-1.87229E-08
 -1       583 1.99998E+02 2.82925E-09 1.50083E-09-9.83184E-10 1.96127E-09-2.56360E-10
 -1       584 2.17390E+02 1.87798E+01 4.58613E+01 3.06395E+01-6.18355E-01-1.69394E+01
 -1       585 2.41057E+02 2.43734E+01 3.86037E+01 2.74280E+01-6.25996E+00-3.16817E+01
 -1       586 1.77413E+02-4.84704E+00-3.80701E+00-3.57501E+00 8.81638E-01-1.95275E+00
 -1       587 2.41245E+02 2.44799E+01 3.89859E+01 2.75675E+01 6.36757E+00 3.19874E+01
 -1       588 2.18026E+02 1.90624E+01 4.60557E+01 3.10419E+01 7.29669E-01 1.72306E+01
 -1       589 1.77507E+02-4.82161E+00-3.62187E+00-3.54937E+00-9.16290E-01 2.06340E+00
 -1       590 1.99998E+02 2.62701E-08 2.36914E-08 1.73488E-08 1.10955E-08 3.32724E-08
 -1       591 1.99998E+02-1.40436E-08 2.49281E-08-1.07088E-07-8.36095E-09-1.27394E-07
 -1       592 1.99998E+02-2.08313E-09 1.20280E-08 1.00675E-08 3.63786E-09 3.18445E-09
 -1       593 1.99998E+02-2.34073E-08-1.69842E-08 2.36435E-08 1.12618E-08 8.84897E-08
 -1       594 1.99998E+02-1.25150E-08 1.19390E-09 2.86067E-08-3.15481E-09-5.54625E-08
 -1       595 1.99998E+02 2.80681E-09 2.84054E-09 9.23546E-09-1.00633E-09-4.01297E-10
 -1       596 2.22191E+02 2.81665E+01 5.44340E+01 3.38464E+01-1.73627E+00 1.07323E+01
 -1       597 2.21168E+02 3.01576E+01 5.51370E+01 3.41023E+01 1.35670E+00 4.38455E+00
 -1       598 1.93909E+02-1.90984E+01 1.04496E+01-1.48879E-02 1.82322E+00 9.26474E+00
 -1       599 2.15506E+02 2.09302E+01 4.92864E+01 2.82892E+01-4.74023E-03-2.84420E+00
 -1       600 2.20604E+02 2.64329E+01 5.23990E+01 3.12684E+01 9.90987E-01-1.20808E+01
 -1       601 1.90313E+02-1.89959E+01 1.49914E+01-6.54567E-01-9.30382E-01 4.07592E-01
 -1       602 1.93536E+02-2.00404E+01 9.64741E+00-1.30124E+00-1.39746E+00-9.58359E+00
 -1       603 1.99998E+02 4.67420E-08 7.65249E-09 1.41757E-07-3.24600E-08-2.10114E-08
 -1       604 1.99998E+02-1.91522E-09 2.62504E-08-5.60082E-09-1.25097E-09-1.12402E-08
 -1       605 1.99998E+02-1.36160E-08-7.74308E-09-8.94264E-09-1.74859E-09-8.42816E-10
 -1       606 1.99998E+02 2.19960E-08 3.74102E-08 8.57402E-09-7.54263E-09 5.70399E-08
 -1       607 1.99998E+02 2.09279E-08-2.36149E-08 6.04790E-08-2.39273E-09-6.11578E-08
 -1       608 1.99998E+02-4.60195E-08-1.28824E-08 8.09504E-09 3.88441E-09-8.93848E-09
 -1       609 1.99998E+02 9.76986E-09-1.12664E-08 7.37327E-10-8.13153E-10 6.59501E-09
 -1       610 1.87910E+02-6.22150E-01-1.42492E+00-1.93519E+00-4.00925E-01-1.31697E+00
 -1       611 1.81676E+02 1.24654E+00 9.06484E-01-1.39658E+00 1.76147E+00-3.24748E-01
 -1       612 1.86434E+02-1.66066E+00-4.83707E-02-7.95598E-01 8.93363E-01 3.45415E+00
 -1       613 1.96497E+02 9.97761E-02-5.83893E-01-2.84246E-01 4.08518E-02-1.07829E+00
 -1       614 1.91679E+02 5.81112E-01-5.03857E-01-6.53031E-01 3.24356E-01-1.25772E+00
 -1       615 1.92930E+02-4.56687E-01-1.28914E+00-1.76279E+00 5.81879E-01-1.58128E+00
 -1       616 1.99183E+02 3.69270E-02-1.41463E-01-9.57455E-02-1.94052E-02-4.06872E-01
 -1       617 1.97518E+02 1.46311E-01-2.07627E-01-9.03214E-02-7.85268E-03-4.79360E-01
 -1       618 1.98113E+02 1.76801E-01-9.98763E-01-5.11308E-01 1.56180E-01-1.43663E+00
 -1       619 1.99972E+02 7.28812E-03-2.64960E-02 8.38549E-03-6.66184E-03-8.67149E-02
 -1       620 1.99614E+02 9.46717E-03-4.70171E-02-4.13881E-02 8.75711E-03-1.34846E-01
 -1       621 1.99652E+02-6.47541E-02-2.92931E-01-1.06588E-01 4.11730E-02-4.32452E-01
 -1       622 2.00034E+02 1.56771E-02 8.23928E-03 1.39331E-02-6.19185E-03-1.11157E-02
 -1       623 1.99991E+02-1.54937E-03-7.78152E-03 1.07778E-02-4.41781E-03-1.21284E-02
 -1       624 2.00015E+02 3.45411E-02-3.53182E-02 2.81078E-02 5.60069E-04-9.65691E-02
 -1       625 2.00016E+02-2.36762E-04 2.51165E-03 2.53720E-03-4.03362E-04 2.35595E-03
 -1       626 2.00027E+02 1.78140E-03 2.52067E-03 4.15768E-03-1.86049E-03 4.21683E-03
 -1       627 2.00041E+02 1.70035E-02 9.51067E-03 1.58166E-02-2.65795E-05-3.52838E-03
 -1       628 2.00003E+02 1.57116E-04 8.15571E-04 5.12190E-04-3.84661E-05 1.80300E-03
 -1       629 2.00011E+02-8.27368E-05 1.30826E-03 7.15593E-04-1.86660E-04 2.50278E-03
 -1       630 2.00009E+02 3.22281E-04 3.60238E-03 2.64842E-03-1.35402E-03 4.44860E-03
 -1       631 1.99999E+02-1.82447E-05 2.23146E-04 6.21222E-05 3.59000E-05 6.01048E-04
 -1       632 2.00001E+02-6.72836E-05 3.61263E-04 1.11918E-04-3.30824E-05 7.79960E-04
 -1       633 2.00000E+02-5.28866E-04 1.31251E-03 7.05779E-04-2.12930E-04 2.23202E-03
 -1       634 1.99998E+02-2.34601E-05 2.09116E-05-7.13564E-06 1.86389E-05 9.67604E-05
 -1       635 1.99998E+02-3.44544E-05 4.55034E-05 2.64332E-05 3.10264E-06 1.48911E-04
 -1       636 1.99998E+02 5.70730E-05 3.09417E-04 6.48370E-05-3.95629E-05 5.63720E-04
 -1       637 1.99998E+02-1.45318E-06-4.21954E-06-7.06106E-06 1.55053E-06 3.29764E-06
 -1       638 1.99998E+02-7.02146E-06-6.92778E-06-6.08260E-06 6.46713E-06 7.69375E-06
 -1       639 1.99998E+02 1.77147E-06 2.94357E-05-1.74166E-06 1.36477E-05 9.16476E-05
 -1       640 1.99998E+02-9.92468E-07-1.97602E-06-2.28966E-06-3.83650E-07-4.38335E-06
 -1       641 1.99998E+02 1.27228E-06-1.28002E-06-4.28332E-06 1.05981E-06-7.56109E-06
 -1       642 1.99998E+02-2.33143E-06-1.35966E-05-8.25049E-06 1.77617E-06-4.53945E-06
 -1       643 1.99998E+02-1.73352E-07-7.53297E-07-6.81521E-07-1.86028E-07-2.45232E-06
 -1       644 1.99998E+02 3.15750E-07-1.16878E-06-8.39547E-07-5.79855E-09-3.22157E-06
 -1       645 1.99998E+02 2.44416E-08-5.89245E-06-3.28677E-06 7.09668E-07-7.28369E-06
 -1       646 1.99998E+02 4.17350E-08-1.78942E-07-2.91965E-09-4.85620E-08-6.28517E-07
 -1       647 1.99998E+02 1.13924E-07-3.14337E-07-2.66007E-07 1.82114E-09-9.21571E-07
 -1       648 1.99998E+02-3.23191E-07-1.48663E-06-6.36371E-07 2.94282E-07-2.73022E-06
 -1       649 1.99998E+02 5.69654E-08 6.35968E-08 5.20804E-08-4.80470E-08-1.45390E-07
 -1       650 1.99998E+02-6.07687E-10 7.81169E-09 7.93269E-08-6.14274E-08-1.57624E-07
 -1       651 1.99998E+02 5.44437E-09-2.11818E-07 3.99132E-08-6.04850E-08-7.95732E-07
 -1       652 1.99998E+02 3.07158E-09 4.42905E-09 9.51552E-09-5.79773E-09-2.00201E-08
 -1       653 1.99998E+02 1.44111E-08 1.84904E-09 8.42074E-09-4.92558E-09-2.41162E-08
 -1       654 1.99998E+02 5.91961E-08 3.64580E-08 5.98305E-08-2.06152E-08-1.40794E-07
 -1       655 1.99998E+02 3.18130E-10 3.25465E-09 1.31377E-09-1.08712E-09-4.84879E-09
 -1       656 1.99998E+02 2.13369E-09 6.21035E-09 3.15691E-10-1.75295E-10-5.11259E-09
 -1       657 1.99998E+02 5.86786E-09 1.87792E-08 1.05863E-08-7.19346E-09-1.99406E-08
 -1       658 1.99998E+02 5.56633E-10-3.25904E-10-2.64483E-11-6.94146E-11-2.68132E-09
 -1       659 1.99998E+02 1.49771E-10 1.36633E-10-1.62722E-10 5.48230E-11-2.62953E-09
 -1       660 1.99998E+02 1.37092E-09 5.84948E-09 7.07875E-10-3.39790E-09-8.68659E-09
 -1       661 1.99998E+02-4.13629E-11-9.19568E-10-6.47942E-10 1.94027E-10-1.63308E-09
 -1       662 1.99998E+02 9.75394E-12-8.60214E-10-4.01650E-10 3.48300E-10-1.72729E-09
 -1       663 1.99998E+02 6.55277E-10 1.78229E-09-7.16906E-10-3.03608E-10-4.48944E-09
 -1       664 1.99998E+02 1.42981E-10-3.29318E-10-8.16758E-11 2.77871E-11-6.52105E-10
 -1       665 1.99998E+02 4.30633E-11-3.21842E-10-2.84312E-10 2.98452E-10-9.50412E-10
 -1       666 1.99998E+02-1.49181E-10-7.73067E-10-5.50762E-10-1.70272E-10-2.22708E-09
 -1       667 1.99998E+02 6.78597E-11-1.17136E-10-1.94166E-11 4.95248E-11-2.28689E-10
 -1       668 1.99998E+02-3.18202E-11-2.31640E-10-1.66667E-11 5.75131E-11-3.59764E-10
 -1       669 1.99998E+02 1.66366E-10-1.99436E-10 1.36426E-11 9.58299E-11-9.31248E-10
 -1       670 1.99998E+02 1.71096E-11-2.56165E-11-3.14450E-12 3.47425E-13-4.45139E-11
 -1       671 1.99998E+02 2.62877E-11-2.56611E-11-2.58617E-11 4.04495E-11-8.17320E-11
 -1       672 1.99998E+02 1.18573E-10-7.23378E-11 5.16406E-12 6.61110E-11-2.45312E-10
 -1       673 1.99998E+02 3.50329E-12-1.10643E-11-4.97516E-12 4.26501E-12-1.32077E-11
 -1       674 1.99998E+02-3.56789E-12-1.95128E-11-3.26700E-12 5.30589E-12-1.38451E-11
 -1       675 1.99998E+02 1.34356E-11-5.00075E-11-1.34532E-11-1.26128E-11-7.70369E-11
 -1       676 1.99998E+02 1.68257E-12-3.82840E-12 4.01123E-12 1.89086E-12-4.12006E-12
 -1       677 1.99998E+02-1.01281E-12-5.97504E-12 3.94476E-12 2.86845E-12-6.88045E-12
 -1       678 1.99998E+02-1.41986E-14-1.51869E-11-5.48046E-13-1.75951E-12-1.38969E-11
 -1       679 1.99998E+02 1.41832E-12 2.68990E-12 8.61882E-14 2.01154E-12-4.38553E-12
 -1       680 1.99998E+02 2.72529E-12 1.23192E-12 3.57843E-13-3.69001E-13-2.89687E-12
 -1       681 1.99998E+02 6.35373E-13-3.09500E-13 2.50436E-12-7.35522E-13-2.84775E-12
 -1       682 1.99998E+02-3.55326E-12-2.85222E-12-1.83295E-12-1.92417E-12 2.43024E-14
 -1       683 1.99998E+02 2.18761E-12 2.54569E-12-2.06697E-12-1.36625E-12-9.29503E-13
 -1       684 1.99998E+02-1.71275E-12-1.01880E-13-1.96361E-12-3.00974E-13-6.31222E-12
 -1       685 1.99998E+02 4.03673E-13 1.04524E-11 5.16577E-13-1.36158E-12-1.33285E-11
 -1       686 1.99998E+02-1.07336E-12 4.25386E-12-2.40016E-12-1.71111E-12-4.53712E-12
 -1       687 1.99998E+02-2.16863E-13 3.70394E-12-3.40414E-12-1.62246E-12-7.50093E-12
 -1       688 1.99998E+02 4.58790E-13-3.09812E-12-1.44978E-12-8.48656E-13-7.26311E-12
 -1       689 1.99998E+02 4.78003E-12 6.65026E-12 8.08322E-13 1.33784E-12-7.99273E-12
 -1       690 1.99998E+02 4.10385E-13-2.80705E-12-1.49074E-12-4.21822E-13-1.62522E-11
 -1       691 1.99998E+02-8.41259E-13 5.19469E-12-3.85990E-12 1.48921E-12-7.14766E-12
 -1       692 1.99998E+02-1.83836E-12-7.38642E-13-3.57412E-12-9.90179E-13-4.68738E-12
 -1       693 1.99998E+02-1.74002E-12 8.96196E-12-4.08764E-12 2.05751E-14-1.16903E-11
 -1       694 1.99998E+02 3.43541E-12 1.22173E-11-5.78431E-12 3.36258E-13-2.11697E-11
 -1       695 1.99998E+02 5.01620E-12 1.00277E-11-7.21683E-12 2.52515E-12-1.10853E-11
 -1       696 1.99998E+02-3.09095E-12 1.69822E-15-1.46669E-12-2.69123E-12-1.63410E-11
 -1       697 1.99998E+02 2.79985E-11 6.20284E-11-4.02952E-12-1.66354E-11-8.94844E-11
 -1       698 1.99998E+02-7.02293E-12 3.14931E-11-1.19539E-11 5.91184E-12-6.25776E-11
 -1       699 1.99998E+02 3.67726E-12 3.84794E-11 2.27842E-12 7.66165E-12-5.89726E-11
 -1       700 1.99998E+02 1.17542E-10 2.28808E-10 1.31651E-10-2.95725E-12-6.17967E-10
 -1       701 1.99998E+02 5.99071E-11 1.64799E-10-3.26981E-11 6.10519E-11-3.35997E-10
 -1       702 1.99998E+02-2.62720E-11 2.14284E-10 2.46307E-12 3.82712E-11-3.68257E-10
 -1       703 1.99998E+02-1.90073E-09-2.33470E-09 4.20815E-10-1.31285E-09 7.11492E-10
 -1       704 1.99998E+02-1.05945E-13 6.00925E-10 3.41101E-10-4.60250E-10-1.56063E-09
 -1       705 1.99998E+02 4.44751E-10 9.92077E-10-2.48892E-11-1.73953E-10-1.61833E-09
 -1       706 1.99998E+02 3.76322E-09-1.97790E-09-1.16286E-09-1.69465E-09 3.94655E-10
 -1       707 1.81659E+02 1.21826E+00 8.84491E-01-1.39077E+00-1.83400E+00 3.01781E-01
 -1       708 1.87962E+02-6.57918E-01-1.43280E+00-1.97083E+00 3.48836E-01 1.34300E+00
 -1       709 1.86290E+02-2.00431E+00-3.11472E-01-9.32597E-01-1.08954E+00-3.48547E+00
 -1       710 1.91591E+02 5.63004E-01-4.89662E-01-6.20562E-01-3.30070E-01 1.23277E+00
 -1       711 1.96104E+02 3.68734E-01-5.25767E-01-5.10341E-01-5.29013E-02 1.19396E+00
 -1       712 1.92879E+02-4.64862E-01-1.34823E+00-1.55785E+00-6.21645E-01 1.45505E+00
 -1       713 1.97569E+02 1.80195E-01-2.11026E-01-1.77773E-01-5.13609E-02 6.28342E-01
 -1       714 1.99295E+02 7.48915E-02-1.28957E-01-3.27564E-02 4.62908E-02 4.12789E-01
 -1       715 1.98068E+02 3.04055E-01-1.11046E+00-5.11712E-01-1.43995E-01 1.41960E+00
 -1       716 1.99635E+02 3.47530E-02-3.74403E-02-2.23557E-02 9.99996E-03 1.20431E-01
 -1       717 1.99936E+02 5.50479E-04-3.24526E-02-2.82189E-03 1.05809E-03 7.57324E-02
 -1       718 1.99800E+02 3.71884E-02-2.58235E-01-4.99808E-02-4.32695E-02 4.32220E-01
 -1       719 2.00025E+02-1.88569E-03-3.71471E-04 8.55378E-03 3.60580E-03 1.28003E-02
 -1       720 2.00025E+02 1.88172E-03 1.61735E-03 8.04292E-03 1.71187E-03 8.48264E-03
 -1       721 1.99989E+02-1.08172E-02-3.52730E-02-1.46154E-02 5.51298E-03 7.76996E-02
 -1       722 2.00022E+02 1.27792E-03 1.64397E-03 2.26461E-03 1.52598E-03-3.36012E-03
 -1       723 2.00012E+02-1.55596E-04 1.53239E-03 1.50573E-03 2.20595E-04-2.20413E-03
 -1       724 2.00026E+02 3.25272E-03 4.00039E-03 6.04406E-03 1.41746E-03 5.08580E-03
 -1       725 2.00009E+02-9.93001E-05 1.15461E-03 6.32765E-04 2.48933E-04-2.29357E-03
 -1       726 2.00002E+02-5.24935E-04 5.59723E-04 6.18385E-04-1.21459E-04-1.91901E-03
 -1       727 2.00007E+02 7.60693E-05 2.94809E-03 1.46537E-03 1.19853E-03-3.99543E-03
 -1       728 2.00000E+02-3.28619E-04 1.95666E-04 2.03722E-04 1.51831E-06-6.82503E-04
 -1       729 1.99998E+02-3.83692E-05 1.91303E-04-1.19929E-05-1.59533E-05-4.00740E-04
 -1       730 1.99999E+02-6.33960E-04 1.23592E-03 5.12538E-04 1.73416E-04-2.07130E-03
 -1       731 1.99998E+02-2.69853E-05 2.18756E-05-4.05860E-05-3.69701E-05-9.28019E-05
 -1       732 1.99998E+02-3.37463E-06-6.70135E-06-1.27141E-05-1.18437E-05-8.26246E-05
 -1       733 1.99998E+02-2.31251E-05 2.62843E-04 1.93726E-05-7.08011E-06-5.40304E-04
 -1       734 1.99998E+02 4.33410E-06-1.06105E-06-1.19820E-05-5.42849E-06-4.37946E-06
 -1       735 1.99998E+02 2.77136E-06-2.37308E-06-1.07435E-05-2.05950E-06-1.57208E-06
 -1       736 1.99998E+02 4.26885E-06 1.00514E-05-4.45482E-06-1.06152E-05-7.12770E-05
 -1       737 1.99998E+02-1.23176E-07-3.87593E-06-2.76802E-06-2.20322E-06 8.32802E-06
 -1       738 1.99998E+02 1.24557E-06-2.64664E-06-2.17993E-06-3.16804E-07 6.26474E-06
 -1       739 1.99998E+02 3.08794E-07-1.06647E-05-8.52221E-06-2.85505E-06 8.55895E-06
 -1       740 1.99998E+02 8.10205E-07-1.72822E-06-1.19974E-06-3.13226E-07 3.30291E-06
 -1       741 1.99998E+02 2.19595E-07-1.44975E-06-3.66971E-07 2.24937E-08 2.03859E-06
 -1       742 1.99998E+02 1.62265E-06-5.61474E-06-2.17479E-06-1.59795E-06 8.20423E-06
 -1       743 1.99998E+02 1.83006E-07-3.43166E-07 1.03907E-07 7.11116E-08 5.68984E-07
 -1       744 1.99998E+02 1.41681E-07-1.16220E-07-1.58239E-08 5.22352E-08 5.34870E-07
 -1       745 1.99998E+02 5.83038E-09-1.96946E-06-5.64007E-07-6.80386E-08 2.69016E-06
 -1       746 1.99998E+02 3.98312E-09-3.21137E-08 8.70505E-09 1.99715E-08 6.11547E-08
 -1       747 1.99998E+02 1.22877E-08-1.69104E-09 4.15875E-08 5.47626E-09 3.62910E-09
 -1       748 1.99998E+02-4.32065E-08-3.35579E-07-4.81086E-08 1.57714E-08 4.71125E-07
 -1       749 1.99998E+02 1.34753E-08 1.85595E-08 2.88994E-08 3.83354E-09-6.35486E-08
 -1       750 1.99998E+02-2.40843E-10 1.66066E-08 1.86714E-08-3.53315E-09-4.84746E-08
 -1       751 1.99998E+02 2.66802E-08 9.04410E-09 4.31057E-08-4.82893E-09-4.72517E-08
 -1       752 1.99998E+02-5.69581E-09 5.97781E-09 1.18739E-09 4.85376E-11-2.78831E-08
 -1       753 1.99998E+02-6.24848E-09 3.63853E-09 3.38102E-09-9.71481E-10-2.71496E-08
 -1       754 1.99998E+02 4.36845E-09 1.96557E-08 1.42511E-08 2.36990E-09-6.97575E-08
 -1       755 1.99998E+02-2.11495E-09 3.96954E-09 2.17563E-09 1.15313E-09-1.30653E-08
 -1       756 1.99998E+02-1.47132E-09 2.54217E-09 3.09155E-10-1.48515E-10-9.12633E-09
 -1       757 1.99998E+02-6.15322E-09 1.06446E-08 2.43582E-09 6.02125E-10-3.36435E-08
 -1       758 1.99998E+02-8.74172E-10 1.09671E-09 2.87774E-10 6.26874E-10-3.84017E-09
 -1       759 1.99998E+02-3.77373E-10 8.09871E-10-7.86176E-11-9.13754E-11-2.73076E-09
 -1       760 1.99998E+02-2.01507E-09 2.82666E-09-4.06652E-10 4.51511E-10-1.10198E-08
 -1       761 1.99998E+02-1.73611E-10 1.80827E-10 8.04202E-11 7.46092E-11-8.84202E-10
 -1       762 1.99998E+02-9.99632E-11 1.97772E-10 4.16794E-11-1.97371E-12-6.75827E-10
 -1       763 1.99998E+02-1.33218E-10 8.28397E-10 4.46467E-11-1.13433E-10-3.02479E-09
 -1       764 1.99998E+02-3.68212E-12 2.32976E-10 4.86880E-12 3.23083E-11-2.22943E-10
 -1       765 1.99998E+02-3.64005E-11 1.88343E-10-1.11301E-11 6.75250E-11-1.46835E-10
 -1       766 1.99998E+02-1.45466E-10-3.52081E-11-6.82487E-11 2.35330E-11-7.71706E-10
 -1       767 1.99998E+02-9.26807E-12 3.59844E-11 7.91145E-12 2.67814E-11-5.51439E-11
 -1       768 1.99998E+02-2.65619E-12 2.87370E-11 4.42735E-12 5.32778E-12-3.79311E-11
 -1       769 1.99998E+02-7.28637E-11 7.09968E-11-1.11219E-11 3.14768E-11-1.53732E-10
 -1       770 1.99998E+02-6.60025E-12-5.87164E-13-1.43963E-12 9.63485E-12-3.18680E-12
 -1       771 1.99998E+02-4.48233E-12 6.37075E-12-1.33267E-12 5.16939E-12-3.03827E-12
 -1       772 1.99998E+02 2.43593E-12 2.99804E-11 6.30632E-12-9.13147E-12-3.45691E-11
 -1       773 1.99998E+02-8.78665E-13 4.70047E-12-3.53091E-12 2.00310E-12-2.58143E-12
 -1       774 1.99998E+02-2.89011E-12-1.01500E-12-7.42303E-13 1.06939E-12-3.74397E-12
 -1       775 1.99998E+02-4.72256E-13 4.59327E-12 1.08176E-12-6.64870E-13-5.05894E-12
 -1       776 1.99998E+02 1.10949E-12 2.64513E-12-2.21951E-12 4.42512E-13-5.84410E-12
 -1       777 1.99998E+02 1.67669E-12 4.52836E-12-3.28670E-12-4.29743E-13-3.80148E-12
 -1       778 1.99998E+02 9.01466E-13 1.77458E-12-1.91759E-12 1.94494E-12-5.56093E-12
 -1       779 1.99998E+02-1.27188E-12-7.41821E-14-1.02466E-12-2.59380E-12-7.24722E-12
 -1       780 1.99998E+02-2.86604E-12-1.18633E-12-1.85092E-12 7.25730E-13-6.29159E-12
 -1       781 1.99998E+02 1.29109E-12 2.68218E-12 1.49227E-13-1.83189E-12-7.54954E-12
 -1       782 1.99998E+02-2.66804E-12-2.99344E-13-2.41476E-12 4.44199E-13-4.10660E-12
 -1       783 1.99998E+02-9.88954E-13-7.59848E-14-2.70927E-12-2.93351E-13-1.78966E-12
 -1       784 1.99998E+02-5.07104E-12-7.42217E-12 1.59027E-12-8.25975E-14-1.15591E-11
 -1       785 1.99998E+02 4.40976E-14 6.68489E-12-8.92071E-13 1.34839E-12-5.39898E-12
 -1       786 1.99998E+02 1.31459E-13 7.18826E-12-4.15518E-13 3.79369E-13-3.88879E-12
 -1       787 1.99998E+02 1.20874E-12 8.46039E-13 2.35677E-12 2.49739E-12-1.38699E-11
 -1       788 1.99998E+02 1.39099E-12 3.49774E-12 9.21843E-13-1.17335E-12-8.36615E-12
 -1       789 1.99998E+02 4.45927E-12 8.45058E-12 2.80353E-12-3.85315E-13-7.96840E-12
 -1       790 1.99998E+02-1.88620E-12 3.59397E-12-1.02706E-12 2.17025E-12-1.55347E-11
 -1       791 1.99998E+02 1.13155E-12 3.08549E-12-3.11723E-12-5.50559E-13-9.71176E-12
 -1       792 1.99998E+02-1.37784E-12 5.88413E-12 1.72150E-12-5.77398E-12 2.80552E-13
 -1       793 1.99998E+02 4.48732E-12 2.69357E-12-8.29682E-12 1.83622E-12-1.19604E-11
 -1       794 1.99998E+02 2.48348E-11 5.49665E-11-1.17591E-11 5.72385E-12 3.27600E-11
 -1       795 1.99998E+02 2.51213E-11 8.30289E-11-7.00091E-12 1.00581E-11 5.51455E-11
 -1       796 1.99998E+02 1.86127E-11 6.41099E-11-1.51159E-11-4.64525E-12 3.20769E-11
 -1       797 1.99998E+02 3.50174E-11 1.08334E-10-2.14297E-11 4.38446E-12 2.38005E-10
 -1       798 1.99998E+02 2.83173E-11 1.37740E-10-4.28349E-12 5.15973E-12 3.88692E-10
 -1       799 1.99998E+02 4.87298E-11 2.18935E-10-1.08417E-10-1.74772E-11 2.51449E-10
 -1       800 1.99998E+02-2.04011E-10 3.48292E-10 1.79021E-10 1.31391E-10 6.14132E-10
 -1       801 1.99998E+02 5.33626E-10 2.13750E-10 2.63020E-09-1.88502E-10 3.97872E-10
 -1       802 1.99998E+02-1.53577E-10 2.96262E-10 5.97602E-11-5.85823E-11 8.14399E-10
 -1       803 1.99998E+02-9.70500E-10-2.70260E-09-4.93104E-10 5.26131E-10-5.09605E-09
 -1       804 1.99998E+02 5.24756E-12 4.81536E-12-1.19539E-12 9.09185E-13-6.49087E-12
 -1       805 1.99998E+02 4.62310E-12 2.64315E-13 1.34281E-12-8.45173E-13-5.80194E-12
 -1       806 1.99998E+02 2.28078E-12-6.21443E-12 5.54772E-12 1.17262E-12-6.76263E-12
 -1       807 1.99998E+02 4.58787E-13-1.43264E-11-3.34388E-12 4.05906E-12-1.87498E-11
 -1       808 1.99998E+02 7.93788E-13 2.37751E-12 4.39841E-12 1.10989E-12-4.95258E-12
 -1       809 1.99998E+02 7.25250E-12 1.38659E-11-2.16180E-12 1.78623E-12-1.77717E-11
 -1       810 1.99998E+02-2.39225E-12-2.87381E-12-2.52316E-12 5.87909E-13-1.75043E-11
 -1       811 1.99998E+02 2.15762E-12 8.78450E-12-3.77959E-12-2.74780E-12-1.33858E-11
 -1       812 1.99998E+02 3.16442E-12 1.26734E-11-2.25295E-12 1.07554E-14-1.69648E-11
 -1       813 1.99998E+02-3.24455E-12-5.61769E-13-9.94304E-13-1.86819E-12-1.55773E-11
 -1       814 1.99998E+02 5.20009E-11 1.73995E-10-1.95963E-11-1.23912E-11 2.32525E-11
 -1       815 1.99998E+02-7.17170E-11 2.21714E-10-7.59851E-11-2.88705E-12 1.96051E-10
 -1       816 1.99998E+02-1.94720E-11 4.93530E-10 1.73151E-10 8.74359E-11 1.49007E-10
 -1       817 1.99998E+02 5.00772E-11 2.89808E-10 1.63106E-10 4.84482E-11-1.10480E-10
 -1       818 1.99998E+02-5.75720E-10-3.68184E-10 6.61779E-10 6.30715E-11 7.06101E-10
 -1       819 1.99998E+02-5.31069E-11-1.56559E-10 5.17885E-11 2.23393E-11-8.27511E-10
 -1       820 1.99998E+02-2.16382E-10-3.60790E-10-1.23294E-10 3.87224E-11-1.12003E-09
 -1       821 1.99998E+02-4.66161E-10-5.71646E-10 3.60868E-11-1.31096E-10-2.14119E-09
 -1       822 1.99998E+02-3.02381E-10-1.36518E-10-2.68894E-10-4.49202E-10-3.49237E-09
 -1       823 1.99998E+02-1.05538E-10 4.27660E-10-1.85482E-10-4.54849E-11-2.08633E-09
 -1       824 1.99998E+02-6.33579E-11-9.17502E-11-2.53690E-11-1.05505E-11-2.45912E-10
 -1       825 1.99998E+02 2.57315E-11-3.77444E-11-3.94063E-11-1.43960E-11-1.64259E-10
 -1       826 1.99998E+02 4.64577E-11 4.91560E-11-8.14338E-12 8.38092E-12-7.84253E-11
 -1       827 1.99998E+02-2.09435E-12 2.07865E-11-6.57771E-12 9.12308E-12-2.19639E-11
 -1       828 1.99998E+02-1.91785E-12-7.54645E-11-1.39040E-11 3.72523E-12-2.06798E-10
 -1       829 1.99998E+02-1.08624E-12 2.90102E-12 9.67233E-13-1.56944E-12-6.99612E-12
 -1       830 1.99998E+02-5.35580E-13 6.17455E-12-3.98016E-13 8.41419E-13-8.62913E-12
 -1       831 1.99998E+02-9.81761E-13 1.47649E-12-4.03036E-12 2.05423E-12-1.11580E-11
 -1       832 1.99998E+02-3.85118E-12-7.18642E-12 1.19279E-13-7.05684E-13-1.78808E-11
 -1       833 1.99998E+02-3.81909E-12 2.76054E-12-1.07296E-12 1.95017E-12-1.22145E-11
 -1       834 1.99998E+02-7.23539E-12 2.57017E-11 5.28976E-12 1.27740E-12-1.09465E-11
 -1       835 1.99998E+02 1.02746E-11 9.19079E-11-1.36543E-11-1.73663E-11 3.34448E-11
 -1       836 1.99998E+02 4.16251E-13 9.68887E-12-2.60950E-12 1.77883E-12-1.98579E-11
 -1       837 1.99998E+02 2.54403E-12 2.12482E-11-4.72965E-12-1.26847E-12-7.40462E-12
 -1       838 1.99998E+02 1.65351E-12 4.84230E-11 5.15088E-12-2.47593E-12-2.45518E-11
 -1       839 1.99998E+02-4.61645E-09 1.98353E-08 3.99871E-09-1.96386E-09-3.69432E-08
 -1       840 1.99998E+02-1.06263E-09 1.26100E-08 1.33357E-09-1.50068E-09-2.24379E-08
 -1       841 1.99998E+02-1.64144E-09 4.30987E-09 3.28548E-11-5.30438E-10-1.30249E-08
 -1       842 1.99998E+02-8.55997E-10 1.90004E-09-2.63213E-10-6.65310E-10-8.01098E-09
 -1       843 1.99998E+02-3.52066E-10 9.10788E-09 2.28548E-09-2.27463E-09-1.69969E-08
 -1       844 2.00063E+02 4.09590E-02-3.84357E-02 1.92339E-02-2.21269E-03-1.39485E-02
 -1       845 2.00050E+02 2.09864E-02-1.21506E-01 2.08096E-02-8.98979E-03-1.00011E-01
 -1       846 2.00045E+02 1.23910E-02 5.42466E-03 1.77986E-02-6.66045E-05-9.44615E-03
 -1       847 2.00063E+02 5.31575E-03-3.57907E-02 6.97844E-03 4.16689E-03 4.31486E-03
 -1       848 2.00021E+02 2.95042E-03 8.17234E-03 6.91300E-03-3.67706E-04 3.88796E-03
 -1       849 1.99998E+02-2.64821E-04 1.57898E-03 5.51353E-04 1.50979E-05 7.74690E-04
 -1       850 2.00000E+02-3.20355E-04 2.95025E-03 1.00288E-03-8.87492E-05 1.71003E-03
 -1       851 2.00002E+02 2.95589E-04 6.03686E-03 2.63782E-03 1.67676E-05 2.16731E-03
 -1       852 2.00008E+02 1.95562E-03 6.20743E-03 5.33336E-03-1.41835E-03 2.76020E-03
 -1       853 2.00000E+02 4.39673E-04 5.21938E-03 1.95650E-03 6.52321E-05 1.09284E-04
 -1       854 1.98265E+02 2.18801E-01-1.91100E+00-7.94726E-01-8.29067E-02 8.83605E-01
 -1       855 1.99694E+02 1.51628E-01-1.15191E+00-3.81194E-01-1.50070E-02 4.46356E-01
 -1       856 1.99838E+02-7.32624E-02-1.17009E+00-3.94324E-01 5.23356E-04 1.09363E-02
 -1       857 1.99871E+02 5.39138E-02-5.88666E-01-1.14200E-01-3.26204E-02 3.37714E-01
 -1       858 2.00182E+02 1.06738E-01-2.37807E-01-3.98916E-02 1.04599E-02 1.19227E-01
 -1       859 1.99998E+02 7.38077E-07-6.37469E-06-3.02851E-06-4.44846E-08-2.24205E-06
 -1       860 1.99998E+02-4.51667E-07-1.16672E-05-4.30645E-06 7.45310E-07-4.09847E-06
 -1       861 1.99998E+02-4.04855E-06-1.75723E-05-1.12534E-05 4.14602E-07-3.41088E-06
 -1       862 1.99998E+02-2.49867E-06-1.00441E-05-1.57152E-05 3.38788E-06 1.21467E-05
 -1       863 1.99998E+02-3.09222E-06-1.36313E-05-9.05970E-06 8.12259E-07 3.34003E-06
 -1       864 1.99998E+02 4.45827E-08-2.32570E-07 3.08617E-08 1.06263E-09-2.85908E-07
 -1       865 1.99998E+02 1.10180E-07-7.20539E-07-2.00847E-08-3.40314E-08-7.21185E-07
 -1       866 1.99998E+02 6.71062E-08-6.62035E-09 8.36666E-08-2.57732E-08-2.04456E-07
 -1       867 1.99998E+02 3.88556E-08-2.58307E-07 7.16968E-08-9.52500E-09-1.65046E-07
 -1       868 1.99998E+02 2.60464E-08 3.35931E-08 4.30916E-08-9.89119E-09-8.25828E-08
 -1       869 1.99998E+02-1.20788E-04 2.91379E-04-2.67127E-06 3.39363E-05 1.88298E-04
 -1       870 1.99998E+02 6.42021E-05 8.06367E-04 1.52081E-04-1.88104E-05 5.51359E-04
 -1       871 1.99998E+02-2.04503E-05 9.74357E-06-2.53890E-05 5.78007E-07 2.33766E-05
 -1       872 1.99998E+02-1.38087E-05 1.11701E-04-2.51441E-05 7.59064E-06 1.10915E-04
 -1       873 1.99998E+02-1.16472E-04 2.83080E-04-6.24476E-05-4.24475E-06 3.85943E-05
 -1       874 1.94534E+02-1.34849E+00-2.45163E+00-2.51813E+00-5.86727E-01 3.15879E-01
 -1       875 1.95793E+02-2.06764E-01-3.18506E+00-1.66851E+00-1.16587E-01 9.11988E-01
 -1       876 1.87523E+02-2.78281E+00-8.72675E-01-3.53634E+00-2.97104E-01-2.44205E-02
 -1       877 1.92649E+02-2.78161E+00-5.16284E-01-3.56697E+00 1.67169E-02-1.26378E-01
 -1       878 1.80539E+02-5.54954E+00 1.54179E+00-3.69210E+00-3.11875E-01-3.23726E+00
 -1       879 1.79230E+02-4.34910E+00 5.17126E+00-3.74429E+00-3.96503E-01-2.00875E+00
 -1       880 1.99585E+02 8.92285E-02-1.16647E+00-5.33042E-01 2.00648E-02-4.75515E-01
 -1       881 1.98322E+02 1.53607E-01-1.89216E+00-8.60009E-01 9.08441E-02-8.60202E-01
 -1       882 1.95826E+02-4.75823E-01-3.26796E+00-1.94806E+00 1.53025E-01-9.56250E-01
 -1       883 1.96728E+02-6.13320E-01-3.08933E+00-1.69806E+00-2.93753E-03 5.02864E-02
 -1       884 1.94314E+02-1.31620E+00-2.58839E+00-2.49585E+00 6.00932E-01-2.84439E-01
 -1       885 1.99998E+02 1.79340E-10 4.87650E-10-2.71436E-10-7.91673E-11-1.02651E-09
 -1       886 1.99998E+02-2.71478E-10 2.42933E-10 2.75064E-10 4.16237E-11-2.84513E-10
 -1       887 1.99998E+02 4.06861E-09 3.44219E-09-1.89068E-09 6.01606E-10-1.71679E-09
 -1       888 1.99998E+02 2.36325E-09 2.09152E-09-1.47215E-10 1.21049E-09 1.54132E-10
 -1       889 1.99998E+02 1.10704E-09 7.14093E-09-7.54531E-09-1.85891E-09-4.41381E-09
 -1       890 1.99998E+02-4.47797E-10 7.58862E-10-6.48322E-09 4.96762E-10-4.84783E-09
 -1       891 1.99998E+02-1.08269E-09 6.86020E-09 2.81422E-09-1.59425E-09-1.40307E-08
 -1       892 1.99998E+02-8.15787E-10 1.50124E-08 4.92933E-09-4.47949E-09-2.21509E-08
 -1       893 1.99998E+02-2.57627E-09 2.53801E-08 1.21904E-08-2.26361E-09-3.13029E-08
 -1       894 1.99998E+02 6.60383E-09 3.77329E-08 2.26076E-08-8.96323E-09-5.26916E-08
 -1       895 1.99998E+02-4.30709E-09 2.35066E-08 1.18227E-08-2.91594E-09-4.32626E-08
 -1       896 1.99998E+02-1.34190E-10 2.02780E-10 3.08134E-11 1.98983E-11-3.24536E-10
 -1       897 1.99998E+02 1.69177E-11 1.47022E-10 4.74790E-11 4.99508E-12-1.06766E-10
 -1       898 1.99998E+02 4.79763E-12 7.45407E-11 8.66174E-12 6.71929E-12-7.15236E-11
 -1       899 1.99998E+02 2.83717E-12 4.18305E-11 6.68521E-12-3.49313E-12-2.98573E-11
 -1       900 1.99998E+02-6.04714E-12 1.07653E-10 4.59160E-11-2.03963E-12-4.69530E-11
 -1       901 2.00007E+02 2.09655E-04 5.91991E-03 3.08596E-03 1.46861E-03-1.08408E-03
 -1       902 2.00002E+02 2.33258E-04 5.11311E-03 2.25999E-03-2.00787E-04-1.65169E-03
 -1       903 2.00036E+02 2.58484E-03-1.85305E-03 8.70079E-03 2.37782E-03 1.09493E-02
 -1       904 2.00020E+02 2.95410E-03 6.40780E-03 5.78105E-03 9.63773E-04-2.30000E-03
 -1       905 2.00012E+02 2.57212E-03 5.49476E-03 7.50307E-03 2.57529E-04-2.81140E-05
 -1       906 1.99998E+02 5.09989E-07-1.06834E-05-3.90414E-06-1.36303E-06 5.04607E-06
 -1       907 1.99998E+02 1.65868E-06-5.76424E-06-1.97671E-06-7.58161E-08 3.38120E-06
 -1       908 1.99998E+02 9.05594E-08-4.38581E-06-1.16732E-06-2.97677E-07 1.81935E-06
 -1       909 1.99998E+02 3.40660E-07-1.69073E-06-1.78654E-07 9.99740E-08 6.63685E-07
 -1       910 1.99998E+02 2.44832E-07-7.19544E-06-2.09925E-06 4.29554E-07 2.62112E-07
 -1       911 1.99998E+02 6.68112E-09 3.42064E-08 2.19300E-08 2.61325E-09-7.19444E-08
 -1       912 1.99998E+02-1.22649E-09 3.06293E-08 9.48332E-09-3.91556E-09-5.42702E-08
 -1       913 1.99998E+02 3.97270E-08 3.79323E-08 4.33208E-08-4.29849E-09-1.04762E-07
 -1       914 1.99998E+02 2.04808E-08 2.13908E-08 3.67051E-08-5.47464E-09-8.88826E-08
 -1       915 1.99998E+02 2.91261E-08-3.08433E-08 6.00331E-08 5.95307E-09-3.61542E-08
 -1       916 1.99998E+02-1.42961E-04 7.96081E-04 1.47480E-04 3.40618E-05-3.60572E-04
 -1       917 1.99998E+02-1.08073E-04 2.54725E-04-2.39896E-05-4.47164E-05-1.13045E-04
 -1       918 1.99999E+02-5.29028E-04 2.72905E-03 8.67609E-04 8.72227E-05-1.35687E-03
 -1       919 1.99997E+02-6.07238E-04 1.19601E-03 2.74286E-04 5.42713E-05-4.86260E-04
 -1       920 1.99998E+02-1.76542E-04 1.61927E-03 3.69523E-04-9.07045E-05 1.58393E-04
 -1       921 1.99998E+02-5.91550E-06-1.69608E-05-1.44656E-05-3.07495E-06 7.66096E-07
 -1       922 1.99998E+02-3.18298E-06-1.58045E-05-9.14831E-06-1.31721E-07 8.42331E-06
 -1       923 1.99998E+02-4.15252E-05 1.07930E-04-1.71095E-05-1.58457E-06-6.78491E-05
 -1       924 1.99998E+02-8.56073E-06 1.14497E-05-1.46504E-05-1.92085E-06 1.22455E-06
 -1       925 1.99998E+02-1.54955E-05 1.30380E-05-2.73935E-05 9.30549E-07 1.34391E-05
 -1       926 1.81932E+02-4.42720E+00 7.87850E+00-2.51964E+00 5.04831E-01 2.14330E+00
 -1       927 1.82791E+02-3.51241E+00 2.52135E+00-2.19950E+00 5.17931E-01 2.85285E+00
 -1       928 1.87974E+02-2.92950E+00-4.03556E-01-3.70048E+00 3.33417E-01 1.75885E-01
 -1       929 1.99998E+02-6.09815E-09-5.17623E-09 4.86262E-09 3.45063E-09-1.66894E-10
 -1       930 1.99998E+02 3.93505E-09 8.89997E-10 2.85544E-09-1.64239E-09 6.40086E-09
 -1       931 1.99998E+02 3.05794E-09 1.94455E-09-2.87525E-10 7.10477E-10 1.60685E-09
 -1       932 1.99998E+02 4.65806E-12 8.80924E-12 3.48955E-12-7.68968E-13-6.41022E-13
 -1       933 1.99998E+02 2.00772E-12 4.23181E-12 3.11588E-12-2.18426E-12-5.25171E-12
 -1       934 1.99998E+02 1.02101E-11 1.16898E-11 1.48624E-12 2.22473E-12-1.38675E-11
 -1       935 1.99998E+02-1.92187E-12 2.15972E-12-4.00968E-13 8.35462E-13 1.89358E-12
 -1       936 1.99998E+02-2.10427E-12-5.54045E-12 1.30967E-12-1.85709E-12-1.63206E-11
 -1       937 1.99998E+02-3.29804E-12-7.20125E-12 1.07655E-12 1.34118E-12-1.16846E-11
 -1       938 1.99998E+02-1.73817E-12-5.18209E-13-8.87678E-13-4.17377E-13-1.02497E-11
 -1       939 1.99998E+02 6.43247E-13 1.09039E-13-3.28027E-12-7.45840E-13-1.69378E-11
 -1       940 1.99998E+02 2.41160E-10 4.38676E-10-1.27667E-10-3.12160E-11-1.23954E-09
 -1       941 1.99998E+02-5.81729E-12 1.40154E-11-8.82754E-11 4.06446E-11-8.35312E-10
 -1       942 1.99998E+02 1.65710E-10 1.45418E-09-1.44256E-10-1.88531E-10-4.49016E-09
 -1       943 1.99998E+02 9.04320E-11 7.83480E-10-2.69527E-10-8.26727E-11-2.22826E-09
 -1       944 1.99998E+02 2.90250E-11 1.46374E-12 8.57811E-12 8.64753E-12-1.98650E-10
 -1       945 1.99998E+02 6.89632E-11-4.02477E-11-1.79711E-11 1.58942E-11-2.98013E-10
 -1       946 1.99998E+02-8.07556E-12-4.86306E-11 4.81255E-12 2.17241E-12-3.03532E-11
 -1       947 1.99998E+02-2.07296E-11-7.04042E-11-2.03682E-11 8.04870E-12-1.22785E-10
 -1       948 1.99998E+02-1.56329E-12 3.43931E-12-1.82104E-12-1.33522E-12-1.18281E-11
 -1       949 1.99998E+02-1.52754E-12 1.81691E-12-1.38082E-12 6.80299E-13-1.14733E-11
 -1       950 1.99998E+02-2.69167E-12-5.79720E-12-2.17575E-12-2.18637E-12-1.49593E-11
 -1       951 1.99998E+02 3.70141E-13 2.19507E-12-4.63397E-12-7.00225E-14-1.25453E-11
 -1       952 2.00132E+02 6.15762E-02-2.84223E-01-5.62948E-02-1.52357E-02-1.15447E-01
 -1       953 1.99724E+02-3.96810E-02-6.68593E-01-2.00136E-01 3.81941E-02-3.48713E-01
 -1       954 2.00116E+02 8.43182E-02-2.98758E-01-1.77296E-02-1.14023E-03 1.51058E-02
 -1       955 2.00073E+02 6.98202E-03-2.45784E-02 1.00859E-03 1.38094E-03 2.44240E-02
 -1       956 1.99958E+02-4.77844E-03-1.39480E-01-1.44974E-02 3.46551E-03 7.71794E-02
 -1       957 1.99998E+02 2.44598E-12 5.09454E-12-1.91750E-13-1.47308E-12-8.61727E-12
 -1       958 1.99998E+02-8.91930E-10 1.55686E-09 9.55298E-11-6.53728E-10-6.85364E-09
 -1       959 1.99998E+02-7.05141E-10 3.29021E-09 8.85317E-11-7.27911E-10-7.58667E-09
 -1       960 1.99998E+02 4.07030E-11-6.75854E-11-1.54281E-11-2.01314E-10-6.87819E-10
 -1       961 1.99998E+02 5.43010E-07-1.66825E-06-2.94927E-07-1.39550E-07-1.04472E-06
 -1       962 1.99998E+02-3.87721E-07-3.95878E-06-1.08181E-06 3.03254E-07-2.42986E-06
 -1       963 1.99998E+02 4.35636E-07-1.68141E-06-7.28256E-08-2.67342E-08-1.78522E-07
 -1       964 1.99998E+02 1.99028E-07-8.42564E-07-5.22302E-08-4.63197E-08 3.92380E-07
 -1       965 1.99998E+02 5.39664E-08-2.69259E-07 4.16637E-08-5.09984E-09-3.99150E-08
 -1       966 1.99998E+02 9.31008E-14 1.55415E-12-3.20565E-12-1.74246E-12-1.67256E-11
 -1       967 1.99998E+02-7.08855E-12 1.13162E-11-4.26959E-13-1.12417E-12-1.93492E-11
 -1       968 1.99998E+02-2.98143E-12 8.53946E-12-1.54583E-12-6.24582E-13-1.87660E-11
 -1       969 1.99998E+02 1.25437E-12 7.86974E-12-1.80704E-12-2.27604E-12-1.61811E-11
 -1       970 1.99998E+02-3.34004E-10 1.88569E-09 3.49053E-10-1.29246E-09-6.63796E-09
 -1       971 1.99998E+02-4.51985E-12-4.75586E-13-1.11944E-12 9.17513E-13-1.85268E-11
 -1       972 1.99998E+02 4.42837E-13 2.84642E-12-3.29491E-12 5.03398E-12-1.45257E-11
 -1       973 1.99998E+02-2.47741E-12-7.64474E-12 2.56909E-12-1.99468E-12-2.13794E-12
 -1       974 1.99998E+02 1.23163E-10-1.09339E-10 1.01386E-10 3.77298E-11-2.18575E-10
 -1       975 1.99998E+02-1.26428E-10 3.50290E-10-1.47487E-10-1.09349E-10 1.48538E-09
 -1       976 1.99998E+02-2.76024E-11 4.49275E-11 1.89039E-11 1.74259E-11 7.91913E-11
 -1       977 1.99998E+02 2.29500E-12-2.65978E-12-1.44629E-13-1.23414E-12-1.16443E-11
 -1       978 1.99998E+02-1.16700E-12 3.10650E-12-7.10700E-13 6.46616E-12 1.15768E-11
 -1       979 1.99998E+02 7.48794E-11 1.86494E-09 2.30175E-10-1.12511E-09 6.27650E-09
 -1       980 2.00017E+02 6.10244E-03-5.43290E-04-2.57189E-02 1.21978E-02-2.79954E-02
 -1       981 2.00003E+02-1.10201E-04 2.26601E-03-7.74411E-04 1.29839E-04 3.06531E-03
 -1       982 1.99141E+02 1.03583E-01-5.35086E-01 1.06549E-01 5.70594E-02 8.06439E-01
 -1       983 1.99998E+02-5.36294E-07-1.02903E-05 4.04365E-06-1.92579E-06-1.24072E-05
 -1       984 1.99998E+02 1.52245E-07-5.94081E-08-1.29108E-07 3.76241E-08-5.30802E-08
 -1       985 1.99998E+02-9.67844E-06 6.72590E-05 6.37183E-06-7.99476E-06 1.51352E-04
 -1       986 1.90823E+02-1.58363E+00-2.11577E+00 2.40828E+00 6.64219E-01 1.00980E+00
 -1       987 1.96187E+02 2.26705E-01-1.66152E+00 8.64391E-01-2.15089E-01-2.17623E+00
 -1       988 1.99998E+02-1.99754E-10 2.07951E-09 7.79353E-10-9.50323E-11-1.28017E-09
 -1       989 1.99998E+02-1.32837E-12 3.71757E-12-3.43099E-12 1.81354E-12-8.71851E-12
 -1       990 1.99998E+02-2.72975E-09 1.74671E-08-6.00684E-09 1.89671E-10 5.26259E-08
 -1       991 1.99998E+02-1.02315E-11-7.71166E-11-1.81440E-11-6.25558E-12 6.20574E-11
 -1       992 1.99998E+02 5.91577E-11-2.47945E-10-1.88546E-11 6.29523E-11 5.19339E-10
 -1       993 1.99998E+02-7.64119E-14 8.22374E-12 5.28700E-14 4.09816E-12-6.97685E-12
 -1       994 1.99998E+02 3.05154E-12-1.66861E-11 4.08179E-12 9.41698E-12 6.64046E-12
 -1       995 2.00012E+02 2.06852E-03 3.87370E-03-3.93193E-03-1.70736E-03-5.34718E-03
 -1       996 1.99998E+02 5.49640E-07-2.62880E-06 1.02339E-06 8.76139E-08 4.37420E-06
 -1       997 1.99998E+02 1.05090E-08 2.59424E-08-2.17213E-08-1.52041E-08 3.82638E-08
 -1       998 1.99999E+02-2.88426E-04 6.65335E-04-1.45149E-04-1.24031E-05-1.17535E-03
 -1       999 1.99998E+02-2.59367E-06-1.14477E-05 1.08822E-05 6.53399E-06-1.08235E-05
 -1      1000 1.91608E+02-1.88113E+01 1.42832E+01-1.59032E+00 1.78773E-01 4.92849E+00
 -1      1001 1.99998E+02 6.38448E-08-2.58583E-10 3.00625E-08 7.31674E-10-2.07645E-09
 -1      1002 1.96379E+02 3.30857E-02-1.59625E+00 8.88203E-01 1.97231E-01 2.12094E+00
 -1      1003 1.99253E+02 6.28844E-02-5.21403E-01 5.31827E-02-6.17729E-02-7.58318E-01
 -1      1004 1.99894E+02 3.50599E-02-9.45140E-02-2.86577E-02 1.27777E-02-1.95887E-01
 -1      1005 2.00060E+02 2.54719E-02-1.05829E-01-1.44614E-02 1.54309E-04 6.32683E-04
 -1      1006 1.99998E+02-3.62028E-12-5.53276E-11-1.44022E-10-6.75756E-11 2.54816E-10
 -1      1007 1.99998E+02 2.31790E-12 5.45889E-12 1.60291E-12-1.02503E-12-1.14763E-11
 -1      1008 1.99998E+02-8.05590E-13-6.33149E-13 4.49906E-12 4.43284E-13-5.78985E-12
 -1      1009 1.99998E+02 4.96430E-11-5.69689E-10 2.11801E-10 5.82729E-11 1.43768E-09
 -1      1010 1.99998E+02 2.06223E-09 1.10780E-08-2.66438E-09-5.07636E-09 1.29118E-08
 -1      1011 1.99998E+02-1.40422E-09 6.52675E-09-2.50351E-10-2.91762E-10 1.89777E-08
 -1      1012 1.99998E+02-1.47648E-11 1.48472E-10-4.28610E-12-2.29073E-11 3.49687E-10
 -1      1013 1.99998E+02-8.46317E-11-4.86957E-10 9.22640E-10 1.40872E-10 3.88201E-09
 -1      1014 1.99999E+02-1.99757E-05 6.32929E-04-1.89627E-04 4.64180E-05 8.10397E-04
 -1      1015 1.99998E+02-3.69790E-08-3.78465E-06 1.44810E-06-4.04921E-07-4.86583E-06
 -1      1016 1.99998E+02 2.77479E-07-6.82892E-07-8.04530E-08 3.16591E-08-1.12208E-06
 -1      1017 1.99998E+02 1.19814E-07-6.56590E-07-2.97295E-08-2.69769E-08 1.98624E-07
 -1      1018 1.99998E+02-2.78304E-06-1.16795E-05 6.28351E-06 3.84601E-07 1.11432E-05
 -1      1019 1.99998E+02 1.87732E-11-5.16172E-11 1.82611E-11 4.83293E-12 1.17230E-10
 -1      1020 1.99998E+02 6.37820E-13-3.52519E-12 1.60329E-12 2.25907E-12-1.44121E-11
 -1      1021 1.99998E+02 3.35186E-09 2.55919E-08-3.83627E-08 1.03625E-08 8.02735E-08
 -1      1022 1.99998E+02 1.88667E-11-2.02657E-11-6.43466E-12 1.35208E-11-8.42522E-12
 -1      1023 1.99998E+02-1.11059E-12-1.18508E-11-4.47362E-12 7.58090E-13 1.06358E-11
 -1      1024 1.99998E+02-1.62981E-05 8.63918E-05 1.15393E-05 1.70847E-05-1.95836E-04
 -1      1025 2.00003E+02 3.45356E-05 2.24085E-03-1.17985E-03-1.34377E-04-3.56985E-03
 -1      1026 1.99998E+02 4.41564E-12 5.68638E-12 6.40643E-12-9.19684E-13-7.42183E-12
 -1      1027 1.99998E+02-1.99644E-12-9.40976E-12-3.41467E-12-1.02813E-12-1.48861E-11
 -1      1028 2.00013E+02 4.62578E-03 6.17238E-03-8.13864E-03 2.56367E-03 3.14339E-03
 -1      1029 1.99998E+02-6.99448E-10 1.18148E-09-1.68476E-10-3.11871E-10 5.45669E-09
 -1      1030 1.99998E+02 3.10641E-06-8.97589E-06 1.48230E-05-4.69765E-06 4.68115E-06
 -1      1031 1.99998E+02 1.98717E-12 5.63741E-12 4.79469E-12 6.04363E-13 2.62205E-12
 -1      1032 1.99998E+02-7.35296E-12 1.46967E-11-3.06123E-12 8.79113E-12-9.32328E-12
 -1      1033 1.99998E+02 1.18627E-12-3.89589E-12 2.25140E-13 1.62962E-14-7.07539E-12
 -1      1034 1.96492E+02-2.16761E+00-4.36135E+00 3.12682E+00-5.92095E-02 5.13089E-02
 -1      1035 1.99551E+02-1.21480E-01-1.86991E+00 8.05192E-01 2.20556E-02 6.92562E-02
 -1      1036 2.00018E+02 6.08159E-03-8.44816E-05-2.09916E-02-1.08314E-02 2.42029E-02
 -1      1037 1.90700E+02-2.35593E+01 9.25822E+00 2.94347E+00 4.24443E-01-5.30467E+00
 -1      1038 1.99998E+02 3.71933E-08-5.83699E-07 6.04416E-08-4.67266E-08 1.24324E-06
 -1      1039 1.99998E+02 4.76872E-08-1.06874E-08-7.87704E-08-1.79698E-08 1.32883E-07
 -1      1040 1.99998E+02 3.03847E-10-1.06717E-09 8.37569E-10 1.71809E-10 4.26808E-10
 -1      1041 1.99929E+02 6.41244E-03-1.03554E-01 4.07534E-03 9.96372E-04 1.76283E-01
 -1      1042 1.99998E+02 5.09087E-12-2.02404E-10 4.58893E-12 1.39660E-11 1.50303E-11
 -1      1043 2.00023E+02 4.74102E-03 6.83794E-04-1.23843E-02 1.27088E-03 5.65843E-04
 -1      1044 1.99998E+02-2.46601E-12-1.98599E-12 1.38953E-12 3.66972E-12-6.67985E-12
 -1      1045 1.99998E+02 1.70858E-12-5.48961E-12-4.30820E-13 7.79586E-13-7.43609E-12
 -1      1046 1.99998E+02-2.45355E-12-3.37032E-12-1.82408E-12 8.24521E-13-7.39390E-12
 -1      1047 1.99998E+02 1.00166E-11-3.75492E-11-3.98582E-12 7.30529E-12 2.52919E-12
 -1      1048 1.99998E+02 1.26929E-11-4.47974E-11 2.55028E-11-1.56422E-11 2.77831E-10
 -1      1049 1.99998E+02-1.56318E-10 4.08227E-09-8.15811E-10-1.68506E-09 1.05718E-08
 -1      1050 1.99998E+02-1.34115E-12-2.47486E-11-8.43179E-12 7.48120E-12 6.37804E-11
 -1      1051 1.99998E+02-1.85081E-12-1.66614E-12-6.60524E-13 1.54950E-12-1.25178E-11
 -1      1052 1.99998E+02-4.80280E-12-1.07347E-11-5.61929E-13 1.09572E-13-1.09814E-12
 -1      1053 1.99998E+02-2.66854E-13-8.13503E-12-2.24620E-12 1.71980E-12-9.20882E-12
 -1      1054 1.99998E+02 2.33683E-09 4.14688E-08-2.34971E-08-6.02349E-09 6.26717E-08
 -1      1055 2.00003E+02 1.54463E-03 7.22877E-03-4.35118E-03-3.14936E-04-5.12414E-04
 -1      1056 1.99998E+02-2.48260E-05 2.54571E-03-7.58862E-04 1.59319E-05-1.68802E-04
 -1      1057 1.99998E+02-3.74671E-10 1.03140E-09 4.28811E-10-1.69348E-10 3.91850E-09
 -1      1058 1.99998E+02-3.36654E-05 7.53571E-05 4.21295E-05 1.37362E-06-2.67082E-05
 -1      1059 1.99998E+02-6.44264E-06-1.57570E-05 1.74662E-05 1.52907E-06-6.72392E-06
 -1      1060 1.99998E+02-2.49498E-04 6.81126E-04 4.77759E-06-3.75388E-05-1.33754E-04
 -1      1061 1.99998E+02-3.36491E-11-7.00380E-11 1.05702E-10-9.61345E-11 1.15176E-09
 -1      1062 1.99998E+02-1.44430E-12-1.22416E-13 1.77969E-12-1.56135E-12-1.90031E-11
 -1      1063 1.99998E+02-3.46767E-07-1.05499E-05 4.27765E-06 2.17525E-07-1.01527E-06
 -1      1064 1.99998E+02-1.40400E-09 1.74678E-08-6.55168E-09-2.92068E-09 2.90080E-08
 -1      1065 1.99998E+02 7.44198E-07-3.95135E-06 4.12238E-07-2.99665E-09 3.01684E-07
 -1      1066 1.99998E+02 2.90693E-08 1.56259E-08-1.32181E-07-7.73621E-08 3.06146E-07
 -1      1067 1.99943E+02 1.83225E-01-6.29453E-01 1.28279E-01 2.15466E-02 2.95026E-03
 -1      1068 1.99998E+02-1.08682E-07-8.02274E-09-6.32536E-08-7.63650E-09-3.27616E-10
 -1      1069 1.90734E+02-1.45302E+00-1.91886E+00 2.30809E+00-5.67372E-01-1.08623E+00
 -1      1070 1.99998E+02-2.07573E-09-1.85576E-09-1.49062E-09-2.53594E-09-3.84297E-09
 -1      1071 1.88860E+02-2.31060E+00 3.49852E+00 3.49517E+00-4.10342E-02 1.18395E-02
 -1      1072 1.96195E+02-1.41731E+01 3.17128E+00 4.02527E-01 9.91658E-01-1.14117E+01
 -1      1073 2.00730E+02-1.51393E+01 4.71123E+00-2.20206E+00-1.77811E+00 1.33462E+01
 -1      1074 1.99998E+02 2.68682E-09 1.34365E-10-2.41028E-09 3.87863E-10 1.49411E-09
 -1      1075 1.99998E+02-7.89280E-08 1.84745E-08-4.79137E-08-3.24743E-09-9.16643E-09
 -1      1076 1.99998E+02 6.48296E-11-3.37393E-09 2.69245E-09 1.88289E-09 5.68258E-09
 -1      1077 2.41043E+02 2.44596E+01 3.84068E+01-2.73636E+01 6.20291E+00-3.15960E+01
 -1      1078 2.16998E+02 1.88010E+01 4.58760E+01-3.04844E+01 4.44027E-01-1.68802E+01
 -1      1079 1.77800E+02-4.43570E+00-3.79125E+00 3.76475E+00-8.65602E-01-2.09787E+00
 -1      1080 2.25612E+02 2.90434E+01 5.15280E+01-3.46673E+01-2.73085E+00 1.99378E+01
 -1      1081 2.43983E+02 2.55907E+01 3.99263E+01-2.84684E+01-5.62541E+00 3.10399E+01
 -1      1082 1.77623E+02-4.41354E+00-4.01830E+00 3.97660E+00 3.96232E-01 2.39685E+00
 -1      1083 1.99998E+02-6.23207E-08-4.53356E-08-1.35261E-07-1.46821E-09-8.67389E-08
 -1      1084 1.99998E+02-4.85340E-08 7.17133E-09-1.02639E-07 9.69447E-10 2.03821E-07
 -1      1085 1.99998E+02 1.14106E-08 2.75738E-08-2.91240E-08 7.31416E-11 9.35694E-09
 -1      1086 1.99998E+02-3.41509E-09 1.77843E-09-1.14469E-08-3.42911E-09-2.32237E-08
 -1      1087 1.99998E+02 1.90727E-08-5.33104E-09 6.16128E-08-2.90297E-08 2.76729E-08
 -1      1088 1.99998E+02 5.81518E-09 1.18615E-09-2.74840E-09 8.41044E-10 1.64389E-09
 -1      1089 2.18007E+02 2.89799E+01 5.41482E+01-3.31434E+01-5.82412E-01 3.65278E+00
 -1      1090 2.16646E+02 2.11583E+01 5.13363E+01-2.96253E+01 5.18993E-01 1.14256E+01
 -1      1091 1.92278E+02-2.04920E+01 1.01407E+01-5.82643E-01-3.47821E-01 9.06366E+00
 -1      1092 2.21041E+02 2.71428E+01 5.28080E+01-3.15957E+01-9.96957E-01-1.19366E+01
 -1      1093 2.16151E+02 2.25778E+01 4.99903E+01-2.91613E+01 1.70526E-01-2.72839E+00
 -1      1094 1.90760E+02-1.84861E+01 1.52776E+01 3.32756E-01 5.80972E-01 7.85510E-01
 -1      1095 1.93435E+02-1.97439E+01 9.50006E+00 1.51332E+00 1.26297E+00-9.85127E+00
 -1      1096 1.99998E+02-1.96932E-08-8.10516E-09-8.15838E-08 1.13161E-08-1.17432E-07
 -1      1097 1.99998E+02-2.18719E-08-2.09255E-08-2.37807E-07 1.74928E-08 2.11548E-07
 -1      1098 1.99998E+02-3.52677E-08-2.34175E-08-2.64315E-08-1.49275E-08-1.74742E-08
 -1      1099 1.99998E+02 6.45173E-08 3.36375E-08 1.00800E-07-2.06068E-08 3.01294E-08
 -1      1100 1.99998E+02 1.13774E-07 7.99464E-08 1.62112E-07-9.05905E-11-2.01069E-07
 -1      1101 1.99998E+02-6.04151E-08-2.20421E-08-2.19071E-08 1.58683E-08 3.22928E-08
 -1      1102 1.99998E+02 1.48065E-08 6.18648E-10 1.14770E-08-1.29658E-08-3.14383E-08
 -1      1103 1.81832E+02 9.49678E-01 6.75765E-01 1.32061E+00-1.79060E+00-3.19874E-01
 -1      1104 1.89065E+02-1.48817E-01-8.87562E-01 1.47032E+00 1.13797E-01-9.09833E-01
 -1      1105 1.85687E+02-2.55417E+00-1.00089E+00 1.34662E+00-1.27911E+00 3.87992E+00
 -1      1106 1.91161E+02 1.30137E-01-7.92182E-01 6.66888E-01-2.32503E-01-1.39391E+00
 -1      1107 1.96005E+02 3.82835E-01-4.32930E-01 5.92672E-01 3.72199E-02-1.22888E+00
 -1      1108 1.92855E+02-6.25219E-02-1.69327E+00 1.00274E+00-6.18500E-01-1.97088E+00
 -1      1109 1.97649E+02 1.71447E-01-2.22248E-01 1.91939E-01-5.15975E-02-5.85702E-01
 -1      1110 1.99388E+02 3.85735E-02-1.53786E-01 9.90854E-03 2.14778E-02-3.66772E-01
 -1      1111 1.98221E+02 3.43057E-01-1.03629E+00 4.86200E-01-1.68708E-01-1.42363E+00
 -1      1112 1.99590E+02 2.48506E-02-4.07807E-02-2.27780E-02 1.90340E-02-1.01796E-01
 -1      1113 1.99957E+02 1.97188E-02-2.66440E-03-1.25073E-02 7.64900E-03-9.26031E-02
 -1      1114 1.99708E+02 5.29790E-02-2.22484E-01 1.22662E-02-8.44452E-03-4.90391E-01
 -1      1115 1.99987E+02-4.57760E-03-2.82540E-03-1.39364E-02 9.24879E-03-1.11834E-02
 -1      1116 2.00029E+02 3.23579E-03 9.00690E-03-9.35540E-03 4.79886E-03-1.28881E-02
 -1      1117 2.00033E+02 2.36656E-02-1.80896E-02-2.27424E-02 1.89611E-02-1.10747E-01
 -1      1118 2.00021E+02-2.16880E-03 7.79099E-04-4.54839E-03 1.45926E-03 2.30308E-03
 -1      1119 2.00014E+02 1.92680E-03 3.51990E-03-3.06916E-03 1.55091E-03 9.87074E-04
 -1      1120 2.00035E+02 1.48114E-02 1.12787E-02-1.68149E-02 5.71164E-03-1.09102E-02
 -1      1121 2.00008E+02-3.51053E-04 8.63814E-04-7.35212E-04 1.17462E-04 1.99905E-03
 -1      1122 2.00002E+02-2.99104E-04 5.14715E-04-4.42921E-04-1.46827E-04 1.56104E-03
 -1      1123 2.00011E+02 1.71163E-03 4.65252E-03-3.65721E-03 6.14290E-04 3.63247E-03
 -1      1124 2.00000E+02-2.59088E-04 2.24448E-04-1.79240E-04-1.81766E-05 5.87141E-04
 -1      1125 1.99999E+02 4.87381E-06 2.18929E-04-5.04955E-05 1.10953E-08 3.54857E-04
 -1      1126 1.99999E+02-4.02675E-04 1.12782E-03-3.70247E-04 2.48686E-04 1.82138E-03
 -1      1127 1.99998E+02-1.57582E-05 1.75069E-05 2.78608E-05-1.05630E-05 9.33212E-05
 -1      1128 1.99998E+02 2.45952E-06 1.76896E-05 1.61181E-05 4.96080E-06 7.33514E-05
 -1      1129 1.99998E+02 4.51098E-05 2.62163E-04-1.23404E-04 3.02993E-06 4.17907E-04
 -1      1130 1.99998E+02 3.46078E-06-3.89943E-06 1.19685E-05-4.12201E-06 3.71204E-06
 -1      1131 1.99998E+02 2.53391E-06-3.44123E-06 9.94975E-06-1.98972E-06 1.36228E-06
 -1      1132 1.99998E+02 4.36523E-06 1.46571E-05-9.38130E-07-5.79138E-06 6.22377E-05
 -1      1133 1.99998E+02-1.67098E-07-4.33957E-06 2.44881E-06-2.11565E-06-8.60372E-06
 -1      1134 1.99998E+02 1.13470E-06-2.79902E-06 2.22530E-06-3.16226E-07-6.30004E-06
 -1      1135 1.99998E+02-5.51523E-07-1.15556E-05 8.39899E-06-2.52943E-06-8.31993E-06
 -1      1136 1.99998E+02 8.09016E-07-1.76345E-06 1.23076E-06-3.05624E-07-3.33179E-06
 -1      1137 1.99998E+02 1.75226E-07-1.47296E-06 4.07332E-07 3.65372E-08-2.03023E-06
 -1      1138 1.99998E+02 1.59312E-06-5.74991E-06 2.25417E-06-1.57143E-06-8.28429E-06
 -1      1139 1.99998E+02 1.66736E-07-3.30980E-07-7.14612E-08 7.11576E-08-5.49465E-07
 -1      1140 1.99998E+02 8.61638E-08-1.22559E-07-5.04087E-08 1.67906E-08-5.06286E-07
 -1      1141 1.99998E+02 8.34270E-09-1.97433E-06 6.22762E-07-5.60564E-08-2.69252E-06
 -1      1142 1.99998E+02-2.02602E-08-7.82191E-08-5.54654E-08 3.21106E-08-3.31916E-08
 -1      1143 1.99998E+02 3.23326E-08 1.75365E-08-5.25258E-08 2.08829E-08-2.52480E-08
 -1      1144 1.99998E+02 4.41637E-07-1.48400E-07-1.56623E-07-5.06089E-10-5.36233E-07
 -1      1145 1.99998E+02-2.81633E-08 1.66216E-09-2.06028E-08 7.23166E-09 4.61973E-08
 -1      1146 1.99998E+02-2.53030E-09 1.74337E-08-1.40562E-08 4.59936E-09 4.13584E-08
 -1      1147 1.99998E+02 7.31771E-08 1.90520E-08-8.41835E-08 4.06061E-08 1.08365E-08
 -1      1148 1.99998E+02-9.08173E-10 9.59311E-09-4.73167E-09 2.38785E-09 3.18406E-08
 -1      1149 1.99998E+02-3.54526E-09 6.35198E-09-5.00879E-09-2.52617E-12 2.73188E-08
 -1      1150 1.99998E+02 3.85380E-09 2.51634E-08-1.67764E-08 3.47758E-09 6.80490E-08
 -1      1151 1.99998E+02-2.10913E-09 3.60034E-09-2.45512E-09 1.08703E-09 1.28972E-08
 -1      1152 1.99998E+02-1.48000E-09 2.37372E-09-4.53492E-10-2.31608E-10 9.07170E-09
 -1      1153 1.99998E+02-5.70667E-09 1.09238E-08-3.32863E-09 9.09779E-10 3.39248E-08
 -1      1154 1.99998E+02-1.11001E-09 6.65864E-10-5.36367E-10 4.76631E-10 3.64831E-09
 -1      1155 1.99998E+02-1.87939E-10 7.58621E-10-3.53875E-11-1.22587E-10 2.59353E-09
 -1      1156 1.99998E+02-2.22775E-09 2.53224E-09 1.18901E-10 5.27586E-10 1.07214E-08
 -1      1157 1.99998E+02-1.05237E-10 2.56696E-10 8.52685E-11 1.73036E-11 7.85708E-10
 -1      1158 1.99998E+02-1.32665E-10 2.39286E-10 4.25283E-11 4.18265E-11 7.23624E-10
 -1      1159 1.99998E+02-1.93988E-10 4.95105E-10-4.04535E-10-4.32371E-10 3.17751E-09
 -1      1160 1.99998E+02 4.27935E-11 1.84393E-10 2.22369E-11 2.76607E-11 1.86837E-10
 -1      1161 1.99998E+02-3.68155E-11 1.16077E-10 4.02298E-11 4.07381E-11 1.47709E-10
 -1      1162 1.99998E+02-4.93322E-11 1.75047E-10-1.16079E-10-1.30534E-10 8.22520E-10
 -1      1163 1.99998E+02-2.51352E-12 8.33616E-11 1.13049E-11 1.80780E-11 5.57059E-11
 -1      1164 1.99998E+02-2.63636E-11 2.79202E-11-7.09509E-13 1.57511E-11 2.06622E-11
 -1      1165 1.99998E+02-6.74419E-11 6.70679E-11 3.96351E-11 2.52440E-11 2.02987E-10
 -1      1166 1.99998E+02-1.76655E-12 8.86714E-12 1.58582E-12 1.22111E-11-6.51339E-12
 -1      1167 1.99998E+02-5.67987E-12 6.64085E-12 8.12558E-13 8.12795E-12-1.16177E-11
 -1      1168 1.99998E+02-2.61652E-11 1.32704E-11 9.01495E-12 2.02179E-11 3.24998E-12
 -1      1169 1.99998E+02 2.83265E-12 3.34858E-12-1.31363E-12 5.64290E-12-1.04619E-11
 -1      1170 1.99998E+02-1.26916E-13 3.90851E-12-1.22066E-12 4.94794E-12-1.23769E-11
 -1      1171 1.99998E+02-5.71308E-12 3.27080E-12 8.22982E-13 7.20350E-12-1.69253E-11
 -1      1172 1.99998E+02 5.56125E-13 1.04860E-12 2.63584E-12 1.72086E-12-1.03232E-11
 -1      1173 1.99998E+02 1.32655E-12 4.32448E-12-2.30530E-13 2.73159E-13-5.72895E-12
 -1      1174 1.99998E+02-1.91563E-13 2.06740E-12-2.02778E-12 1.25974E-12-1.69713E-11
 -1      1175 1.99998E+02 1.64201E-12 2.55095E-12 3.96101E-13-2.05204E-12-5.85236E-12
 -1      1176 1.99998E+02 1.97147E-12-3.63548E-12-3.01545E-13-3.31047E-13-2.73229E-12
 -1      1177 1.99998E+02 3.11059E-13 1.76270E-12 9.90765E-14-6.68530E-13-8.43617E-12
 -1      1178 1.99998E+02-3.37409E-12-4.81593E-12 5.83890E-13 9.23282E-13-9.02728E-12
 -1      1179 1.99998E+02 2.87728E-12-3.56983E-12 1.73625E-12 1.08479E-12-4.95512E-12
 -1      1180 1.99998E+02 4.85318E-12 1.61275E-12 1.11239E-12 8.13446E-13-1.37453E-11
 -1      1181 1.99998E+02 2.61506E-12-7.13370E-12 3.07621E-12-1.19775E-12-1.86551E-12
 -1      1182 1.99998E+02 3.65503E-13-4.52420E-12 3.00677E-12-3.14066E-13-8.92222E-13
 -1      1183 1.99998E+02-3.21878E-12-1.12032E-11 2.91960E-12-1.07816E-13-8.14293E-12
 -1      1184 1.99998E+02 1.06380E-12 6.12401E-13 4.16186E-12 1.86828E-12-3.72816E-12
 -1      1185 1.99998E+02-3.49633E-13 1.60187E-12 5.10193E-12 2.30951E-12-3.81003E-12
 -1      1186 1.99998E+02 1.09090E-12 2.20595E-12 3.97477E-12-1.85948E-12-5.32631E-12
 -1      1187 1.99998E+02-9.11158E-12-7.14368E-12-8.56639E-13 2.97647E-13 6.61702E-12
 -1      1188 1.99998E+02-5.74586E-13-1.26064E-11-5.19808E-12 1.10020E-12 1.33271E-11
 -1      1189 1.99998E+02 1.66673E-12-2.64861E-12 2.22429E-12-5.13330E-13-7.35402E-13
 -1      1190 1.99998E+02-1.44958E-11-4.06736E-11-9.51559E-12-2.14865E-12 2.79794E-11
 -1      1191 1.99998E+02 1.98895E-12-3.17216E-11-1.40299E-11-5.70996E-12 5.87944E-11
 -1      1192 1.99998E+02-5.84091E-12-3.64051E-11-7.17154E-12-6.22230E-12 2.97991E-11
 -1      1193 1.99998E+02-7.01396E-13-7.82590E-11-3.57155E-11-8.56468E-12 1.11580E-10
 -1      1194 1.99998E+02 9.06883E-11 5.74275E-11 1.98511E-12-5.83078E-11 1.84566E-10
 -1      1195 1.99998E+02-1.47062E-11-1.33844E-10-4.60998E-11-6.45986E-12 1.14509E-10
 -1      1196 1.99998E+02-3.92782E-10 6.92306E-10 8.51025E-11-1.16247E-10-5.06588E-10
 -1      1197 1.99998E+02-2.07127E-09-5.73011E-10 1.83503E-10 1.33218E-09-6.49072E-10
 -1      1198 1.99998E+02-4.55104E-10 6.13988E-10-2.00836E-10-1.54232E-10 6.55709E-11
 -1      1199 1.99998E+02-3.35945E-10-2.89143E-09-5.78859E-10-2.07611E-09-1.28026E-09
 -1      1200 1.88975E+02-2.03581E-01-1.03290E+00 1.47742E+00-4.08899E-02 9.65383E-01
 -1      1201 1.81841E+02 1.00538E+00 6.57837E-01 1.33750E+00 1.87379E+00 3.45752E-01
 -1      1202 1.86461E+02-2.28853E+00-7.93679E-01 1.06392E+00 1.14277E+00-3.43590E+00
 -1      1203 1.96170E+02-4.45915E-02-5.71900E-01 4.40303E-01 2.02297E-02 1.05907E+00
 -1      1204 1.91100E+02 1.37162E-01-8.19233E-01 6.26106E-01 2.13323E-01 1.41995E+00
 -1      1205 1.92904E+02-6.74823E-02-1.77685E+00 1.13108E+00 6.68966E-01 2.02295E+00
 -1      1206 1.99233E+02 3.13354E-02-1.53169E-01 6.11266E-02-2.39594E-02 4.30803E-01
 -1      1207 1.97663E+02 5.90801E-02-2.66714E-01 1.17092E-01 3.62281E-02 5.76864E-01
 -1      1208 1.98081E+02 2.14002E-01-1.02150E+00 5.08912E-01 1.71809E-01 1.41194E+00
 -1      1209 1.99971E+02 8.46357E-03-2.93289E-02-6.09029E-03-3.38262E-03 7.95206E-02
 -1      1210 1.99611E+02 1.55821E-02-5.28898E-02 2.96090E-02-4.45522E-03 1.26357E-01
 -1      1211 1.99760E+02-9.88763E-03-2.74345E-01 6.54265E-02 4.68805E-02 4.30813E-01
 -1      1212 2.00030E+02 9.14555E-03 8.85474E-03-1.00769E-02-6.12200E-03 8.98196E-03
 -1      1213 2.00001E+02-9.33132E-04-5.06500E-04-1.21174E-02-8.86975E-03 1.07132E-02
 -1      1214 2.00003E+02 6.21511E-03-3.82452E-02-8.35266E-03-1.01164E-02 9.89438E-02
 -1      1215 2.00015E+02-1.42718E-04 2.43971E-03-2.28639E-03-4.86133E-04-2.17549E-03
 -1      1216 2.00026E+02 2.72265E-03 2.40979E-03-3.85740E-03-1.26781E-03-4.18464E-03
 -1      1217 2.00033E+02 9.76789E-03 5.95029E-03-1.07717E-02-2.15337E-03 3.69937E-03
 -1      1218 2.00003E+02 1.24725E-04 7.47828E-04-5.02914E-04-9.40367E-06-1.72461E-03
 -1      1219 2.00010E+02-1.10043E-04 1.18798E-03-6.97771E-04-1.68164E-04-2.34466E-03
 -1      1220 2.00009E+02 1.75806E-04 3.26149E-03-2.43254E-03-1.25853E-03-4.21164E-03
 -1      1221 1.99999E+02-3.59272E-05 2.05866E-04-5.57373E-05 4.13039E-05-5.86079E-04
 -1      1222 2.00001E+02-7.22839E-05 3.37932E-04-1.11679E-04-2.54780E-05-7.56987E-04
 -1      1223 2.00000E+02-5.05842E-04 1.24419E-03-6.50937E-04-1.75189E-04-2.16034E-03
 -1      1224 1.99998E+02-2.11109E-05 2.00582E-05 5.47248E-06 1.91846E-05-9.47040E-05
 -1      1225 1.99998E+02-3.37682E-05 4.91936E-05-2.88009E-05 5.57629E-06-1.46109E-04
 -1      1226 1.99998E+02 3.23572E-05 2.82842E-04-6.27101E-05-3.23292E-05-5.51905E-04
 -1      1227 1.99998E+02-1.47820E-06-4.60933E-06 7.02885E-06 1.68799E-06-3.35147E-06
 -1      1228 1.99998E+02-7.22245E-06-8.02142E-06 5.41972E-06 6.44402E-06-7.78589E-06
 -1      1229 1.99998E+02 2.40094E-06 2.45349E-05 1.84431E-06 1.41465E-05-8.99006E-05
 -1      1230 1.99998E+02-9.08953E-07-2.14425E-06 2.66881E-06-1.07886E-06 5.43727E-06
 -1      1231 1.99998E+02 1.82018E-06-5.64723E-07 4.58267E-06 1.08265E-06 7.47022E-06
 -1      1232 1.99998E+02-2.13716E-06-1.43519E-05 8.35644E-06 1.85063E-06 4.04806E-06
 -1      1233 1.99998E+02 3.85880E-08-6.02766E-07 4.58699E-07-7.45512E-08 2.33632E-06
 -1      1234 1.99998E+02 1.14552E-06-5.22959E-07 6.43955E-07-5.95799E-08 2.48877E-06
 -1      1235 1.99998E+02-2.66098E-07-3.96970E-06 3.22054E-06 3.76077E-07 7.21025E-06
 -1      1236 1.99998E+02 3.58157E-08-1.76212E-07 2.31935E-09-5.00975E-08 6.15300E-07
 -1      1237 1.99998E+02 1.10003E-07-3.04076E-07 2.51524E-07-7.07752E-10 9.16622E-07
 -1      1238 1.99998E+02-2.77576E-07-1.46908E-06 5.72947E-07 3.31361E-07 2.64845E-06
 -1      1239 1.99998E+02 5.68523E-08 6.65966E-08-5.16270E-08-4.57175E-08 1.43713E-07
 -1      1240 1.99998E+02-1.43527E-09 1.26706E-08-7.83859E-08-6.04260E-08 1.52020E-07
 -1      1241 1.99998E+02 8.21324E-10-2.02724E-07-4.33043E-08-5.71101E-08 7.80089E-07
 -1      1242 1.99998E+02 3.34589E-09 5.20310E-09-9.66397E-09-6.87466E-09 2.04226E-08
 -1      1243 1.99998E+02 1.12907E-08 1.83556E-09-9.58418E-09-5.55001E-09 2.48169E-08
 -1      1244 1.99998E+02 5.69285E-08 3.73390E-08-5.55617E-08-1.88602E-08 1.38651E-07
 -1      1245 1.99998E+02 5.55762E-10 3.57912E-09-1.62624E-09-7.23904E-10 4.21569E-09
 -1      1246 1.99998E+02 2.17716E-09 5.87266E-09-6.56210E-10-2.11445E-10 5.64738E-09
 -1      1247 1.99998E+02 5.92703E-09 1.91343E-08-1.10365E-08-8.41755E-09 2.09744E-08
 -1      1248 1.99998E+02 5.33335E-10-1.74632E-10 2.60846E-10-2.44974E-10 2.75827E-09
 -1      1249 1.99998E+02-1.47142E-09-4.04895E-10-5.79846E-11 4.17631E-10 3.38936E-09
 -1      1250 1.99998E+02 1.85910E-09 5.53719E-09-1.63007E-09-3.50542E-09 9.56192E-09
 -1      1251 1.99998E+02 1.17862E-10-8.35210E-10 3.07502E-10 1.05113E-10 1.43111E-09
 -1      1252 1.99998E+02 4.00034E-11-8.14216E-10 3.77582E-10 3.33044E-10 1.67396E-09
 -1      1253 1.99998E+02 6.51824E-10 1.91393E-09 6.66240E-10-3.03935E-10 4.50903E-09
 -1      1254 1.99998E+02 1.00407E-10-3.64860E-10 3.06748E-11 9.14229E-11 6.59722E-10
 -1      1255 1.99998E+02 3.71914E-11-3.96487E-10 6.95038E-11 1.59614E-10 7.50452E-10
 -1      1256 1.99998E+02 9.76318E-11-4.92789E-10 5.43269E-10-1.30205E-10 2.24617E-09
 -1      1257 1.99998E+02 7.34591E-11-1.45396E-10 2.12175E-11 4.98261E-11 2.05486E-10
 -1      1258 1.99998E+02 3.28339E-11-2.52181E-10 2.41632E-11 5.70007E-11 3.33289E-10
 -1      1259 1.99998E+02 1.27535E-10-2.75420E-10 2.47966E-11 1.00044E-10 9.45541E-10
 -1      1260 1.99998E+02 1.28034E-11-2.78163E-11 5.79564E-12 5.54676E-13 5.31780E-11
 -1      1261 1.99998E+02 2.92719E-11-3.28120E-11 1.52473E-11 4.12880E-11 7.80749E-11
 -1      1262 1.99998E+02 8.13058E-11-1.12134E-10-5.18537E-12 6.41950E-11 2.11221E-10
 -1      1263 1.99998E+02 2.17015E-12-1.14042E-11 2.25206E-12 7.62801E-12 4.02183E-12
 -1      1264 1.99998E+02 1.55251E-12-1.75518E-11-3.81033E-12 5.72187E-12 3.62687E-12
 -1      1265 1.99998E+02 4.28832E-12-2.68960E-11 1.64980E-11-6.48184E-12 5.43497E-11
 -1      1266 1.99998E+02 2.25263E-12 2.05756E-12-6.05370E-12 1.25966E-12-6.52452E-12
 -1      1267 1.99998E+02-5.16957E-12-7.98132E-12-7.90802E-13 3.37688E-13-4.16847E-12
 -1      1268 1.99998E+02-4.83798E-12-1.22472E-11 4.30552E-12 1.83145E-13-7.45342E-12
 -1      1269 1.99998E+02-1.24368E-12-1.47944E-12-5.68166E-12 2.33266E-12-7.27051E-12
 -1      1270 1.99998E+02-3.06885E-12-1.68944E-12-6.04271E-12 1.40280E-12-5.66855E-12
 -1      1271 1.99998E+02 1.84760E-12-4.16924E-13-2.63018E-12 6.88103E-13-1.56113E-11
 -1      1272 1.99998E+02 7.98332E-13 1.13508E-12-2.76546E-12-1.81723E-12-5.25773E-12
 -1      1273 1.99998E+02 8.92325E-13-1.87260E-12-3.71920E-12 1.52559E-13-5.74937E-12
 -1      1274 1.99998E+02 1.39944E-12 6.87977E-14-1.54566E-12 1.62516E-12-5.60890E-12
 -1      1275 1.99998E+02-4.24003E-12-9.99855E-12 3.61120E-13 3.56569E-12-7.42227E-12
 -1      1276 1.99998E+02-2.37066E-12-2.14501E-12-1.25340E-12 7.91996E-13-3.00531E-12
 -1      1277 1.99998E+02-1.65549E-12-1.74248E-12-2.24363E-13-8.80299E-13-8.15966E-12
 -1      1278 1.99998E+02 1.87761E-12 1.09516E-12 4.99014E-12 1.00043E-12-5.36277E-12
 -1      1279 1.99998E+02-2.33358E-12-7.98649E-12 1.40403E-12-1.27012E-12-6.84789E-12
 -1      1280 1.99998E+02 3.67484E-12 6.76758E-12 1.30269E-12 3.03140E-12-6.24036E-12
 -1      1281 1.99998E+02-8.21329E-13 2.04144E-12 1.90146E-12 5.40195E-13 1.37927E-12
 -1      1282 1.99998E+02 5.72700E-12 5.16023E-12 2.50412E-12 1.63700E-12-4.99072E-13
 -1      1283 1.99998E+02-1.94589E-12-2.30471E-12 4.72778E-12 2.44587E-12-1.85056E-12
 -1      1284 1.99998E+02-4.30937E-12 3.84840E-12-5.21539E-13 7.31627E-13 1.31817E-11
 -1      1285 1.99998E+02-3.73593E-12 4.36874E-12 2.96615E-12 5.96644E-12 7.09462E-12
 -1      1286 1.99998E+02 2.46732E-12 7.02575E-12 1.65533E-12 1.80701E-12 6.25525E-12
 -1      1287 1.99998E+02 4.25768E-12 4.44859E-12-4.53039E-12 9.63932E-12 2.29785E-11
 -1      1288 1.99998E+02 1.03208E-11-1.35689E-12-4.89230E-12 8.95104E-13 4.66824E-12
 -1      1289 1.99998E+02 3.85224E-12-1.45222E-11-7.27697E-12 9.07248E-13 6.78649E-12
 -1      1290 1.99998E+02-6.37613E-12-7.86014E-11-2.61059E-11 7.07774E-11-1.03446E-10
 -1      1291 1.99998E+02 6.87527E-11-1.26539E-11 2.10276E-11 1.89010E-11-6.13080E-12
 -1      1292 1.99998E+02 4.07991E-11-3.80776E-11 3.47035E-11 4.55441E-12-7.13197E-11
 -1      1293 1.99998E+02-5.69054E-09-6.64348E-09-1.68718E-09-4.60645E-09-9.57794E-09
 -1      1294 1.99998E+02-1.23070E-09-2.38799E-10-6.98317E-10-6.88964E-10-6.95663E-10
 -1      1295 1.99998E+02-7.68697E-10-1.01073E-09-5.22449E-11-4.27205E-10-1.15275E-09
 -1      1296 1.99998E+02 7.78035E-09 3.18209E-09-2.31209E-09-6.95833E-09-9.21275E-09
 -1      1297 1.99998E+02-2.29689E-12-2.34431E-12-6.50327E-13 3.77868E-13-1.92086E-11
 -1      1298 1.99998E+02 1.84029E-12 9.46261E-13 2.24022E-12-1.22048E-12-1.61336E-11
 -1      1299 1.99998E+02-7.83679E-13 4.82086E-12-3.68815E-12 5.66727E-12-1.80865E-11
 -1      1300 1.99998E+02 3.32116E-12 3.60932E-12 1.25475E-12 1.66508E-12-1.15922E-11
 -1      1301 1.99998E+02-6.50495E-13-2.01263E-12 2.20549E-12-8.03160E-13-1.89390E-11
 -1      1302 1.99998E+02 3.19423E-12 2.67650E-12 2.60867E-12 1.21807E-12-1.05439E-11
 -1      1303 1.99998E+02 2.89401E-12 4.24704E-12 9.13261E-13 6.18664E-13-7.59182E-12
 -1      1304 1.99998E+02-2.99878E-12-1.30835E-11-1.23008E-12-1.23744E-12-7.00426E-12
 -1      1305 1.99998E+02 5.64335E-12-2.22894E-12 1.13675E-12-2.04340E-12-8.27199E-12
 -1      1306 1.99998E+02-4.79161E-12-1.01399E-11 1.09583E-13 1.96642E-12-1.28497E-11
 -1      1307 1.99998E+02-9.41704E-12-1.78770E-10 6.79701E-11-1.30917E-11-1.27637E-10
 -1      1308 1.99998E+02-1.00528E-11-1.16465E-10 1.02287E-11 6.55579E-12-1.06527E-11
 -1      1309 1.99998E+02 3.40901E-10-2.12318E-10 3.23867E-10 1.05213E-10 1.02529E-10
 -1      1310 1.99998E+02 2.17894E-10-1.74903E-10 5.00528E-10-1.52170E-11-2.86499E-10
 -1      1311 1.99998E+02 8.55991E-11-4.15986E-10 2.51347E-10-5.84761E-10-1.50147E-09
 -1      1312 1.99998E+02 8.41403E-11 2.62360E-10-7.30668E-12-1.06388E-10 1.25435E-09
 -1      1313 1.99998E+02-5.65248E-11-8.20167E-12 5.43851E-11-1.12681E-10 6.43298E-10
 -1      1314 1.99998E+02 9.62770E-11 1.70382E-09 4.63244E-10-1.66528E-10 4.55212E-09
 -1      1315 1.99998E+02-2.32783E-10 6.72633E-10 2.46386E-10-2.11585E-10 2.22661E-09
 -1      1316 1.99998E+02-2.39765E-10 1.28816E-10 1.80362E-10-2.49985E-10 2.05855E-09
 -1      1317 1.99998E+02 1.39739E-11 4.84162E-11-2.50581E-12-1.80179E-11 2.70835E-10
 -1      1318 1.99998E+02 2.50444E-11 1.79563E-11 4.98102E-11 2.25264E-11 1.55393E-10
 -1      1319 1.99998E+02-9.68718E-12 6.66155E-12 2.25657E-12 1.87658E-11 2.36988E-11
 -1      1320 1.99998E+02 1.20236E-11 2.15265E-11 6.40876E-12 7.28256E-12 1.85209E-11
 -1      1321 1.99998E+02-3.17820E-11-1.10736E-10-3.10019E-12 6.78911E-12 1.56649E-10
 -1      1322 1.99998E+02 2.38222E-13 3.85433E-12-7.93211E-13 1.13776E-12-8.38425E-12
 -1      1323 1.99998E+02-2.38746E-12 9.50570E-14 1.07915E-12-1.03353E-13-8.98112E-12
 -1      1324 1.99998E+02-1.79479E-12-7.24800E-12-1.58381E-12-2.25599E-13-1.05653E-11
 -1      1325 1.99998E+02 2.01188E-12-9.24104E-12-4.76731E-13 1.28927E-12-1.31176E-11
 -1      1326 1.99998E+02-3.15957E-12-3.34024E-12-9.12617E-13 1.23977E-12-9.76024E-12
 -1      1327 1.99998E+02 3.58816E-12-3.94180E-11-1.52609E-12 6.63172E-12-1.44914E-12
 -1      1328 1.99998E+02 8.85936E-12-9.67650E-12-2.22998E-12 4.46243E-12 5.94397E-12
 -1      1329 1.99998E+02 2.48632E-12-2.49177E-12-2.12540E-12 3.26356E-12 3.67021E-12
 -1      1330 1.99998E+02-7.52592E-13-1.59558E-12 2.44459E-12 1.08492E-13-3.30621E-12
 -1      1331 1.99998E+02 8.03444E-12-1.80687E-11-3.23906E-12 1.24441E-12 4.36456E-12
 -1      1332 1.99998E+02-9.61858E-10 7.01724E-09-3.13587E-09-1.56359E-09 1.41584E-08
 -1      1333 1.99998E+02-7.79260E-10 1.52033E-08-5.34224E-09-4.69627E-09 2.25844E-08
 -1      1334 1.99998E+02-8.87509E-10 1.50097E-09-1.60347E-10-6.70686E-10 6.91798E-09
 -1      1335 1.99998E+02-7.07805E-10 3.20258E-09-1.20215E-10-7.43893E-10 7.69545E-09
 -1      1336 1.99998E+02 9.93699E-12 9.47733E-09-2.36153E-09-2.26813E-09 1.71887E-08
 -1      1337 2.00011E+02 2.90665E-02-1.36521E-01 1.37900E-04-1.81990E-03-7.59941E-02
 -1      1338 2.00087E+02 1.23151E-02-3.81352E-02-1.29778E-02-4.27725E-04-1.40815E-02
 -1      1339 2.00064E+02 4.70761E-03-3.36174E-02-1.35765E-02 1.17090E-03 1.27212E-03
 -1      1340 2.00037E+02 7.12774E-03-5.62573E-03-1.43728E-02 4.17869E-03-1.01778E-02
 -1      1341 2.00018E+02 5.78416E-03 6.94893E-03-8.60564E-03 8.91806E-04 3.13629E-03
 -1      1342 1.99999E+02-1.68798E-04 2.60521E-03-7.27829E-04 2.29004E-04 1.18993E-03
 -1      1343 1.99997E+02-5.57695E-04 1.19172E-03-3.11689E-04 2.82895E-06 4.92388E-04
 -1      1344 2.00010E+02 1.34659E-03 6.72309E-03-4.89652E-03 3.50154E-04 1.72554E-03
 -1      1345 2.00001E+02-2.24304E-04 4.55782E-03-1.87493E-03-1.16766E-04 1.41933E-03
 -1      1346 2.00000E+02 5.05097E-04 4.88984E-03-1.96501E-03 1.55899E-05-4.53390E-05
 -1      1347 1.99661E+02 1.65706E-01-1.15256E+00 4.06047E-01 2.35777E-02 4.05999E-01
 -1      1348 1.98403E+02 1.86322E-01-1.95212E+00 7.92060E-01 1.13147E-01 8.74796E-01
 -1      1349 1.99797E+02 1.89078E-02-6.08601E-01 1.62583E-01 3.42385E-02 3.36530E-01
 -1      1350 1.99774E+02 4.01027E-02-1.23303E+00 4.44156E-01 9.70332E-02 2.93221E-02
 -1      1351 2.00137E+02 8.20715E-02-2.60023E-01 4.88608E-02-1.80140E-02 1.23252E-01
 -1      1352 1.99998E+02 4.06461E-07-1.10362E-05 3.94137E-06-1.32149E-06-5.27979E-06
 -1      1353 1.99998E+02 1.60129E-06-5.90484E-06 2.03137E-06-6.95147E-08-3.51514E-06
 -1      1354 1.99998E+02-6.69892E-06-1.74392E-05 1.41466E-05-2.77948E-06-1.02586E-06
 -1      1355 1.99998E+02-3.47834E-06-1.63564E-05 9.25229E-06-7.24494E-08-8.96867E-06
 -1      1356 1.99998E+02-3.00839E-06-1.40130E-05 9.13983E-06 7.89172E-07-3.89057E-06
 -1      1357 1.99998E+02 2.97903E-07-8.02719E-07 1.79343E-08-2.13381E-08-4.16899E-07
 -1      1358 1.99998E+02 2.07554E-07-2.86294E-07-7.83929E-08 9.88404E-09 3.53443E-08
 -1      1359 1.99998E+02 4.94269E-08-2.76489E-07-6.39239E-08-2.71906E-10 1.80334E-07
 -1      1360 1.99998E+02 8.67523E-08-5.46454E-08-7.86618E-08-3.67615E-09 6.92885E-08
 -1      1361 1.99998E+02 2.84160E-08 3.93935E-08-5.48128E-08-2.57296E-09 1.12503E-07
 -1      1362 1.99998E+02-9.88489E-05 7.96114E-04-1.42499E-04 1.64016E-05 2.76134E-04
 -1      1363 1.99998E+02-9.75794E-05 1.85860E-04 1.07310E-06-4.77002E-05 1.30158E-04
 -1      1364 1.99998E+02-2.37614E-05 1.00310E-04 5.92679E-06-7.62578E-06 6.61786E-05
 -1      1365 1.99998E+02-7.38629E-06 1.14049E-05 1.28530E-05-2.15386E-06-1.72952E-06
 -1      1366 1.99998E+02-1.19222E-04 2.61150E-04 5.38718E-05-5.71131E-06-2.90262E-05
 -1      1367 1.95945E+02-4.13905E-01-3.26256E+00 1.70873E+00 1.18076E-01 8.95255E-01
 -1      1368 1.94547E+02-1.15218E+00-2.39644E+00 2.50768E+00 6.52840E-01 3.64431E-01
 -1      1369 1.92524E+02-2.95593E+00-8.84320E-01 3.52705E+00-6.54362E-02-4.65885E-02
 -1      1370 1.87543E+02-2.96382E+00-9.61677E-01 3.41408E+00 2.88928E-01-9.85228E-02
 -1      1371 1.79129E+02-4.42069E+00 5.13267E+00 3.95286E+00 3.63505E-01-2.10220E+00
 -1      1372 1.80380E+02-5.88056E+00 1.16054E+00 3.79975E+00 3.08344E-01-3.40032E+00
 -1      1373 1.98333E+02 2.40274E-01-1.94446E+00 7.72289E-01-8.55659E-02-8.51363E-01
 -1      1374 1.99882E+02 2.62409E-01-1.02861E+00 2.95187E-01-4.01076E-02-4.04787E-01
 -1      1375 1.96936E+02-5.59099E-01-3.03860E+00 1.61345E+00 7.94093E-03-3.72284E-02
 -1      1376 1.95985E+02-1.93300E-01-3.22946E+00 1.54863E+00-1.23777E-01-8.91480E-01
 -1      1377 1.94441E+02-1.15570E+00-2.50077E+00 2.37952E+00-6.76259E-01-3.68113E-01
 -1      1378 1.99998E+02 1.68499E-10-5.52027E-10 7.46280E-11 1.86795E-10 6.26084E-10
 -1      1379 1.99998E+02 3.47217E-10 4.25355E-10-2.57504E-11 3.44001E-10 1.27276E-09
 -1      1380 1.99998E+02 8.23649E-10-1.61248E-09 1.45964E-09 5.86142E-12 1.94261E-09
 -1      1381 1.99998E+02 5.75647E-09 3.48566E-09 1.38720E-09 1.24519E-09 6.14818E-09
 -1      1382 1.99998E+02-1.76517E-08 1.71610E-10-8.24460E-09-3.50088E-09-6.94812E-09
 -1      1383 1.99998E+02-1.45628E-08 7.41277E-09-1.36026E-08-1.09649E-09 1.59707E-08
 -1      1384 1.99998E+02-1.81569E-12 2.37092E-12-9.60190E-13-8.29506E-13-1.57455E-11
 -1      1385 1.99998E+02 3.75552E-13-3.22334E-12 3.22463E-13 1.09240E-12-2.09140E-11
 -1      1386 1.99998E+02-1.25451E-12-1.02076E-11 5.73747E-13-1.57512E-13-8.73180E-12
 -1      1387 1.99998E+02-1.16563E-12-3.58608E-12-3.11369E-12-1.26156E-12-8.37048E-12
 -1      1388 1.99998E+02-1.03186E-12-3.55220E-12-8.63402E-13-7.44657E-13-1.22194E-11
 -1      1389 1.99998E+02-4.54364E-09 1.96594E-08-4.81840E-09-1.83309E-09 3.75236E-08
 -1      1390 1.99998E+02-1.25676E-09 1.27449E-08-1.50991E-09-1.52929E-09 2.26314E-08
 -1      1391 1.99998E+02 4.95209E-09 3.76569E-08-2.75593E-08 7.64755E-10 7.60188E-08
 -1      1392 1.99998E+02-3.15329E-10 3.18900E-08-1.14013E-08-3.77388E-09 5.51268E-08
 -1      1393 1.99998E+02-3.86866E-09 2.49833E-08-1.40605E-08-2.83564E-09 4.41984E-08
 -1      1394 1.99998E+02-2.30624E-12-1.22911E-10 5.31782E-12 1.23548E-11 4.87463E-11
 -1      1395 1.99998E+02 6.68840E-13-1.21390E-10-5.49550E-11 1.83081E-11 1.39083E-10
 -1      1396 1.99998E+02 7.25630E-12-2.28894E-11-3.75516E-12 2.12056E-12 5.36421E-12
 -1      1397 1.99998E+02-1.31132E-12-6.08048E-11-6.35099E-12-1.11362E-12 3.22049E-11
 -1      1398 1.99998E+02 6.22029E-12-1.18245E-10-4.58343E-12 1.08058E-11-7.83622E-12
 -1      1399 1.99998E+02-9.30108E-11-2.44794E-10-3.89231E-11 3.76733E-11 7.59321E-10
 -1      1400 1.99998E+02-1.33974E-10-4.22388E-10 1.83110E-10 3.86115E-11 1.08607E-09
 -1      1401 1.99998E+02-6.73940E-12-5.41526E-11-1.37856E-11 2.85283E-11 1.68669E-10
 -1      1402 1.99998E+02 6.15938E-11-8.71239E-11 1.22159E-11 3.60698E-11 2.78737E-10
 -1      1403 1.99998E+02-2.37786E-11-1.04175E-11 4.79013E-11-1.28725E-10 6.31894E-10
 -1      1404 1.99998E+02-3.07139E-12-1.72846E-12 1.66280E-12 2.00368E-12-7.76830E-12
 -1      1405 1.99998E+02-2.63707E-12 2.55772E-12 1.78648E-12 4.23253E-12-5.59190E-12
 -1      1406 1.99998E+02 1.08662E-12 4.88728E-12-8.23941E-14 6.28614E-13-6.94563E-12
 -1      1407 1.99998E+02-4.89959E-13-8.13447E-12 3.13890E-12 2.81548E-12-8.16978E-12
 -1      1408 1.99998E+02 1.81280E-12-1.50837E-12 4.79160E-13 2.07354E-12-5.40613E-12
 -1      1409 1.99998E+02 9.39939E-12-1.70893E-11-1.49152E-12-2.96944E-12 1.13757E-11
 -1      1410 1.99998E+02-2.28307E-11-5.98294E-11-2.67892E-12 1.02488E-11 7.76460E-11
 -1      1411 1.99998E+02-2.64079E-13-8.11902E-12-1.25957E-12-1.81454E-12-2.01433E-11
 -1      1412 1.99998E+02-3.15465E-12-5.24487E-12 2.86725E-12 2.69690E-12-9.78457E-12
 -1      1413 1.99998E+02-1.98799E-12-1.73426E-11 2.02874E-12-9.84028E-12 7.24248E-12
 -1      1414 2.00002E+02 3.64447E-04 5.23181E-03-2.60888E-03-8.95501E-07-2.07421E-03
 -1      1415 2.00008E+02 2.60739E-03 5.71552E-03-4.62277E-03-1.75121E-03-2.30293E-03
 -1      1416 2.00020E+02 5.70650E-03 7.96915E-03-8.24860E-03 5.80977E-05-3.66175E-03
 -1      1417 2.00042E+02 1.04895E-02 1.35836E-04-1.31811E-02-1.85120E-03 1.06376E-02
 -1      1418 2.00013E+02 3.42547E-03 5.44209E-03-7.22705E-03-2.48451E-06 6.12223E-04
 -1      1419 1.99998E+02 6.04640E-07-6.45314E-06 3.03152E-06-2.65965E-08 2.07868E-06
 -1      1420 1.99998E+02-5.24968E-07-1.23714E-05 4.39759E-06 6.01648E-07 3.91003E-06
 -1      1421 1.99998E+02 5.29917E-07-1.68547E-06 3.07433E-07-1.43291E-07 1.02968E-06
 -1      1422 1.99998E+02-2.99127E-07-3.87388E-06 1.04190E-06 3.83196E-07 2.31724E-06
 -1      1423 1.99998E+02 2.10884E-07-7.29153E-06 2.11608E-06 4.48523E-07-4.07044E-07
 -1      1424 1.99998E+02-3.34410E-09 2.55135E-08-1.42382E-08-2.69841E-09 3.22560E-08
 -1      1425 1.99998E+02 6.35617E-09 3.90213E-08-2.51688E-08-1.11793E-08 5.57455E-08
 -1      1426 1.99998E+02 2.14785E-08 3.43034E-08-4.67533E-08-7.76747E-09 9.46524E-08
 -1      1427 1.99998E+02 3.30372E-08 4.59535E-08-4.54610E-08-1.85768E-08 9.44366E-08
 -1      1428 1.99998E+02 7.40886E-08-3.62775E-09-8.22220E-08-3.11949E-08 2.11422E-07
 -1      1429 1.99998E+02-1.08277E-04 3.15153E-04-8.22396E-06 2.85740E-05-1.89011E-04
 -1      1430 1.99998E+02 7.11509E-05 8.07818E-04-1.37884E-04-3.56235E-05-5.78882E-04
 -1      1431 1.99998E+02-3.16534E-04 1.47755E-03-5.05758E-04 3.16247E-05-7.33956E-04
 -1      1432 1.99999E+02-4.20353E-04 2.70796E-03-8.63269E-04-2.81438E-05-1.65460E-03
 -1      1433 1.99998E+02-1.82903E-04 1.47228E-03-3.32710E-04-8.24082E-05-1.25835E-04
 -1      1434 1.99998E+02-3.75931E-06-1.82299E-05 1.14919E-05 4.04147E-07 2.66465E-06
 -1      1435 1.99998E+02-2.53561E-06-1.16148E-05 1.58104E-05 3.56091E-06-1.28638E-05
 -1      1436 1.99998E+02-1.97782E-05 5.51323E-06 2.61974E-05 5.99539E-07-2.68675E-05
 -1      1437 1.99998E+02-1.66909E-05 1.02232E-04 2.60232E-05 1.07169E-05-1.11549E-04
 -1      1438 1.99998E+02-1.44768E-05 1.13661E-05 2.75233E-05 6.66873E-07-1.64123E-05
 -1      1439 1.83122E+02-3.96048E+00 8.32670E+00 2.05299E+00-5.34982E-01 2.27376E+00
 -1      1440 1.87924E+02-3.42700E+00-6.95155E-01 3.73871E+00-3.23179E-01 7.02405E-02
 -1      1441 1.83350E+02-3.26062E+00 3.43380E+00 1.99997E+00-2.12620E-02 2.26406E+00
 -1      1442 1.99998E+02-4.62245E-09-1.24473E-08 2.95079E-09 6.75638E-09 8.52603E-09
 -1      1443 1.99998E+02 1.39213E-10-1.81826E-08 1.09844E-09 4.16797E-09-5.13423E-09
 -1      1444 1.99998E+02-2.50427E-09-4.02373E-09 9.11323E-10-1.30536E-09-1.26905E-09
 -1      1445 1.99618E+02 1.73933E-01-6.42398E-01 7.27943E-02-5.02139E-02-2.99638E-01
 -1      1446 2.00176E+02 6.90376E-02-2.89287E-01 1.91012E-02 1.64910E-02-1.08963E-01
 -1      1447 2.00115E+02 7.14778E-02-2.95979E-01 8.41197E-03-1.66554E-03 5.58279E-04
 -1      1448 2.00001E+02 9.58291E-03-1.29437E-01 2.56006E-03 7.19459E-04 8.49027E-02
 -1      1449 2.00086E+02 5.52285E-03-3.56643E-02-9.53463E-03-1.48515E-04 1.52923E-02
 -1      1450 1.99998E+02 1.53362E-12 8.11724E-13 1.66771E-12 3.62672E-12-1.54247E-12
 -1      1451 1.99998E+02 3.08698E-12 4.09034E-12 4.70589E-12 4.15361E-13-3.59814E-12
 -1      1452 1.99998E+02-4.11053E-10-5.44304E-10 5.46933E-11-1.53789E-10 2.14351E-09
 -1      1453 1.99998E+02-1.38867E-10-6.85291E-12 4.12674E-10-4.25895E-10 3.47585E-09
 -1      1454 1.99998E+02-1.45299E-09 4.31662E-09-2.02042E-11-4.72375E-10 1.31946E-08
 -1      1455 1.99998E+02-1.30130E-09 9.78415E-10 6.32165E-10-2.59427E-10 7.53078E-09
 -1      1456 1.99998E+02 2.58118E-10 3.44424E-09-1.01833E-10-1.00252E-09 7.33197E-09
 -1      1457 1.99998E+02 7.09116E-08-4.41947E-06 1.19853E-06-2.86426E-07-1.87106E-06
 -1      1458 1.99998E+02 3.15741E-07-1.74576E-06 2.14089E-07 1.14470E-07-7.00169E-07
 -1      1459 1.99998E+02 4.51458E-07-1.62799E-06 8.77614E-08 2.38289E-10 1.87492E-07
 -1      1460 1.99998E+02 1.03893E-07-7.18247E-07 1.98302E-08-2.38062E-08 7.11178E-07
 -1      1461 1.99998E+02 2.29321E-08-2.49607E-07-3.17751E-08 1.64006E-08 2.79313E-07
 -1      1462 1.99998E+02-3.74327E-12-6.20132E-12 1.89155E-12-9.55352E-13-6.32878E-12
 -1      1463 1.99998E+02-9.87254E-13-1.13111E-11 1.25749E-12-8.47509E-13 3.82549E-12
 -1      1464 1.99998E+02-3.63643E-12-9.18435E-12-2.09359E-12 1.16679E-12-6.27263E-12
 -1      1465 1.99998E+02-1.62043E-11 8.49838E-12-1.14285E-11 2.07880E-12-6.85793E-12
 -1      1466 1.99998E+02 6.74394E-13-8.68051E-12-1.17605E-12 5.32043E-13 2.99649E-12
 -1      1467 1.99998E+02 3.54388E-12-1.46847E-12 2.75989E-12-2.91179E-13-3.19655E-12
 -1      1468 1.99998E+02-5.80209E-11-3.71943E-11-2.78914E-10 5.82317E-11-1.30937E-10
 -1      1469 1.99998E+02-4.39673E-10 8.71997E-11-1.44392E-09-1.04256E-10-2.86418E-10
 -1      1470 1.99998E+02 1.95087E-12-1.51800E-12 3.31725E-12 2.61915E-13-1.82624E-12
 -1      1471 1.99998E+02 1.55342E-09-3.13545E-10-6.54783E-09-7.47431E-10 1.72571E-10
 -1      1472 2.00020E+02-2.86174E-03 5.76086E-04 2.33630E-02 3.90070E-03 9.45824E-03
 -1      1473 2.00003E+02 2.42365E-03-3.75575E-04 3.65847E-03-2.55666E-04 1.30054E-03
 -1      1474 1.99019E+02-5.73860E-01 1.11570E-01-8.58820E-01 3.52139E-02-2.37218E-01
 -1      1475 1.99998E+02-9.73987E-06-4.33148E-07 1.34268E-05-1.58162E-06-4.37831E-06
 -1      1476 1.99998E+02 1.92108E-09-5.49886E-09-2.95210E-07-2.38313E-08 6.32670E-08
 -1      1477 1.99998E+02 9.05234E-05-1.62628E-05 1.85522E-04 1.53109E-05-1.02331E-05
 -1      1478 1.90611E+02-1.83764E+00-2.03153E+00 7.29437E-01-1.13521E+00-3.50064E+00
 -1      1479 1.99998E+02 4.06316E-11-2.66875E-11-6.01517E-11 5.10959E-11-3.85865E-11
 -1      1480 1.99998E+02 3.40670E-12 2.93844E-12-3.86648E-12-3.25558E-14 2.68809E-12
 -1      1481 1.99998E+02 1.08500E-09 3.17586E-10 6.49667E-10 2.17764E-10-1.37063E-09
 -1      1482 1.99998E+02 1.51131E-08-5.61240E-09-5.07571E-08-1.11313E-09 3.52442E-09
 -1      1483 1.99998E+02 4.60748E-12 6.38972E-12 8.91972E-12-1.19637E-11 1.97325E-11
 -1      1484 1.99998E+02 1.27928E-09-7.91640E-10-5.57002E-09-1.96492E-10-1.02830E-10
 -1      1485 1.99998E+02-2.78333E-06 4.27610E-07-4.54998E-06 1.02865E-07-1.09287E-06
 -1      1486 1.99999E+02 6.97059E-04-4.36040E-05-8.80556E-04 5.24563E-05 1.74734E-04
 -1      1487 1.99998E+02-6.16853E-07 7.22607E-08 1.01193E-06-9.70028E-09-1.25579E-07
 -1      1488 1.91981E+02 1.36076E+01-1.81308E+01 5.27922E+00 3.58499E-01 1.47110E+00
 -1      1489 1.99998E+02-1.54042E-08-3.81335E-08-4.13390E-09-1.39394E-08 2.88100E-08
 -1      1490 1.99998E+02-3.30448E-12 9.41878E-13 4.25258E-12-1.53747E-12-1.76731E-12
 -1      1491 1.99998E+02-1.73413E-12 2.60389E-12 7.58348E-12-1.19707E-12-8.26480E-13
 -1      1492 2.00024E+02 5.79591E-03 2.91013E-02-1.94353E-02-4.64154E-03 2.17637E-02
 -1      1493 1.99134E+02-4.82869E-01 2.76980E-02 7.39587E-01-3.35815E-02-9.08658E-02
 -1      1494 1.96090E+02-1.62882E+00 2.34255E-01 2.09080E+00-4.68480E-01-9.89508E-01
 -1      1495 1.96606E+02-4.17795E+00-2.19886E+00-3.28423E-03 4.32752E-02-3.19295E+00
 -1      1496 1.99998E+02-2.87167E-11-2.26822E-11 9.35061E-11-3.85017E-12 8.93512E-11
 -1      1497 1.99998E+02-6.07076E-11 5.30175E-12-1.42267E-10-2.61220E-12-3.63954E-11
 -1      1498 1.99998E+02-2.22225E-10 3.50532E-11-4.60398E-10-4.88780E-12-7.27682E-11
 -1      1499 1.99998E+02-4.88553E-11-5.51232E-11-1.19162E-09-1.21949E-10-5.73361E-11
 -1      1500 1.99998E+02 3.10181E-12-8.05204E-12-2.60332E-12-1.58461E-13 1.56929E-12
 -1      1501 1.99998E+02 8.67699E-12-4.96186E-12 9.19228E-12 4.32791E-12-8.39052E-14
 -1      1502 1.99998E+02 1.14196E-08 2.31214E-09-1.29736E-08-4.94280E-09 2.97397E-09
 -1      1503 1.99998E+02 2.75673E-08 1.16638E-08-4.30986E-08-1.66776E-08 2.04900E-08
 -1      1504 1.99998E+02-8.66398E-09 4.98549E-08-1.30448E-07-1.68946E-08 7.76170E-08
 -1      1505 1.99998E+02 2.79201E-12 6.24859E-12 6.98225E-13-2.37394E-12 8.45702E-13
 -1      1506 1.99998E+02-9.70746E-06-2.17834E-06-9.95448E-06 1.34632E-06-6.94198E-06
 -1      1507 1.99998E+02 3.89612E-12-2.76469E-13 3.48244E-12 4.19255E-13 7.56050E-13
 -1      1508 1.99998E+02-3.40817E-06-6.77786E-08 4.62430E-06-3.79146E-07-1.47855E-06
 -1      1509 1.99999E+02 5.84801E-04-3.84889E-04 1.18037E-03 2.52171E-05-3.29798E-06
 -1      1510 1.99998E+02-1.11012E-05-2.09807E-06 1.00063E-05 3.55264E-06-1.54408E-05
 -1      1511 1.99998E+02 7.83555E-05-3.47673E-05 2.06529E-05 1.40356E-06-4.26310E-05
 -1      1512 1.99998E+02 2.78244E-11-1.29516E-13-2.91353E-11 1.25548E-11-1.33456E-11
 -1      1513 1.99998E+02 6.59870E-09-1.38751E-09-1.85669E-08-2.59494E-10 2.20888E-10
 -1      1514 2.00013E+02 4.56253E-03 2.50155E-03 5.24160E-03-1.86955E-03 4.51078E-03
 -1      1515 2.00003E+02 7.10883E-03 1.46215E-03 5.60881E-04-1.92089E-04 4.31031E-03
 -1      1516 1.99923E+02-9.39201E-02 5.63699E-03 1.78372E-01 3.00473E-03-1.22919E-02
 -1      1517 1.99917E+02-9.39791E-02-4.00409E-03-1.75059E-01-8.41230E-03-7.52630E-03
 -1      1518 1.99998E+02-5.34412E-07 6.59323E-09-1.15638E-06-7.99928E-08-8.60092E-08
 -1      1519 1.99998E+02-5.35505E-12-2.78090E-12 5.91327E-12 1.91510E-12-2.50792E-12
 -1      1520 1.99998E+02-7.70488E-12-1.17299E-12 5.68788E-12-2.03279E-13-3.19409E-12
 -1      1521 1.99998E+02-4.54564E-10-2.08582E-10-4.20415E-09 9.68629E-11-7.55221E-10
 -1      1522 1.99998E+02 7.79170E-12 4.39135E-12-1.60269E-12-4.79792E-12 5.98128E-13
 -1      1523 1.99998E+02-2.62116E-15-8.63788E-13 8.12579E-12-1.00221E-12 1.91269E-13
 -1      1524 1.99998E+02 2.12088E-11-3.91989E-12-1.70728E-12 7.11220E-12-2.29248E-12
 -1      1525 1.99544E+02-1.88773E+00-1.14297E-01-4.78772E-02 4.33267E-02-8.07279E-01
 -1      1526 1.96285E+02-1.55019E+00-1.84601E-02-2.11727E+00 1.92042E-01-9.05329E-01
 -1      1527 1.90611E+02 9.26357E+00-2.36784E+01-5.49381E+00 3.75464E-01-2.02732E+00
 -1      1528 1.99998E+02 3.87851E-10-1.80392E-10-1.70802E-09-1.02353E-10-2.37672E-10
 -1      1529 1.99998E+02 6.83823E-11-1.11206E-10-3.97276E-10 3.42057E-11-7.98404E-11
 -1      1530 2.00002E+02 2.43920E-03-1.51412E-05-2.96976E-03 2.25688E-04 6.92544E-04
 -1      1531 2.00014E+02 5.66961E-03 2.43417E-03-3.85640E-03 1.47957E-03 4.81953E-03
 -1      1532 1.99998E+02 6.53943E-05-4.69118E-05-1.67272E-04-2.57462E-05-4.14604E-05
 -1      1533 1.99998E+02-6.39023E-07 1.25974E-07-1.95244E-07-2.76913E-08 2.99101E-08
 -1      1534 1.99998E+02 2.84572E-08 3.89268E-09-9.00558E-08 6.17184E-09 3.33123E-08
 -1      1535 1.99998E+02-1.67117E-05-6.68941E-06 5.68046E-06 1.45568E-06-1.74522E-05
 -1      1536 1.99998E+02 3.05217E-11 2.06586E-10 1.10810E-11 1.41162E-11 3.48242E-10
 -1      1537 1.99998E+02-4.97461E-11-3.82668E-11-3.45767E-11 4.05327E-12 1.03087E-10
 -1      1538 1.99998E+02-9.79589E-13-1.09814E-13-6.91088E-13 2.92307E-12 7.69186E-13
 -1      1539 1.99998E+02 4.14964E-13 5.25263E-12 4.96524E-12 4.71107E-13 4.26219E-12
 -1      1540 1.99998E+02-9.52454E-13-1.28598E-12 9.77162E-12 4.10480E-14 7.97251E-13
 -1      1541 1.99998E+02-7.19996E-13 1.17522E-11 7.13580E-12-4.63016E-12 1.55355E-11
 -1      1542 1.99998E+02-2.32227E-13 3.81520E-12 1.49798E-12-6.66526E-13 8.32343E-13
 -1      1543 1.99998E+02 3.94323E-09-1.04133E-10-1.05201E-08-1.63960E-09 9.05524E-10
 -1      1544 1.99998E+02-2.18397E-11-1.00746E-11-6.45073E-11 1.06546E-11 1.26144E-11
 -1      1545 2.00069E+02-1.02209E-01 2.56532E-02-6.13084E-04-1.23948E-03 1.29412E-02
 -1      1546 1.99945E+02-6.39781E-01 1.90619E-01 6.38349E-03 1.55807E-02-1.18619E-01
 -1      1547 1.99998E+02 4.88218E-12 1.40506E-13 1.85044E-12-2.33677E-12 1.58231E-12
 -1      1548 1.99998E+02 1.54353E-12 2.97045E-12 8.24157E-12 9.45748E-13 2.20519E-12
 -1      1549 1.99998E+02-3.94916E-06 7.60620E-07-3.57323E-07-2.37454E-08-4.25418E-07
 -1      1550 1.99998E+02 2.39945E-12 8.25467E-13 4.71359E-13-1.15009E-12 2.20357E-12
 -1      1551 1.99998E+02-1.06267E-05-3.21115E-07 9.72305E-07 2.06030E-07-4.26980E-06
 -1      1552 1.99998E+02 1.72196E-08-1.14627E-09-2.86047E-08-2.76035E-09 6.72950E-09
 -1      1553 1.99998E+02 9.15863E-10-3.79683E-10-3.93665E-09-1.70421E-10-4.11221E-10
 -1      1554 1.99998E+02-6.47830E-11 7.06513E-12-2.94269E-10-9.23899E-12-2.98116E-11
 -1      1555 1.99998E+02-5.63190E-08 8.91396E-08 2.94358E-08 2.22858E-08 6.18693E-08
 -1      1556 1.99998E+02 4.08728E-08 2.33491E-09-6.18088E-08-5.44010E-09 2.33919E-08
 -1      1557 2.00022E+02-1.36801E-04 3.80121E-03-2.12016E-04 1.34172E-03 1.15573E-02
 -1      1558 1.99998E+02-1.07917E-05-2.69201E-06-8.66783E-06-1.58585E-05-2.77560E-05
 -1      1559 1.99998E+02 6.88361E-04-2.42112E-04 1.25218E-04-3.93267E-05-4.54482E-06
 -1      1560 1.99998E+02 2.60454E-03-8.25563E-06 1.73613E-04 3.97021E-05 7.52389E-04
 -1      1561 1.99998E+02 8.78178E-09 4.76188E-09-2.37942E-09 1.30543E-08-5.38693E-09
 -1      1562 1.91502E+02-1.82426E+00-1.61973E+00-9.48012E-01 1.10241E+00-3.06086E+00
 -1      1563 1.99998E+02-2.48133E-09-1.47431E-09-1.90748E-09 5.81065E-10 5.21485E-10
 -1      1564 1.88971E+02 3.55767E+00-2.03304E+00-5.26438E-02 1.65915E-01-3.47202E+00
 -1      1565 1.98754E+02 4.23376E+00-1.85126E+01-1.41603E+01-6.52438E-01 1.91820E+00
 -1      1566 1.92992E+02 3.48433E+00-1.86974E+01 1.23723E+01-2.55427E-01-6.45906E-01
 -1      1567 1.99998E+02 1.31904E-08-1.15263E-08-8.67645E-09 5.58983E-09 7.61003E-09
 -1      1568 1.99998E+02 2.56041E-08 2.56322E-08 7.34237E-09-1.07970E-08 9.30446E-09
 -1      1569 1.99998E+02 8.06050E-10 1.26268E-09 1.86739E-09-1.77640E-09-1.41795E-09
 -1      1570 2.17702E+02 4.64605E+01 1.89266E+01 1.68447E+01 9.38983E-01 3.08247E+01
 -1      1571 2.41362E+02 3.96938E+01 2.51603E+01 3.20581E+01 5.53653E+00 2.77597E+01
 -1      1572 1.68894E+02-8.59357E+00-1.09567E+01 2.85507E-01-3.86319E+00-5.75513E+00
 -1      1573 2.44055E+02 4.03095E+01 2.64059E+01-3.10281E+01-4.59355E+00 2.85963E+01
 -1      1574 2.25499E+02 5.12525E+01 2.92242E+01-1.98201E+01-2.49767E+00 3.42860E+01
 -1      1575 1.68595E+02-9.06088E+00-1.06345E+01-3.34908E-01 3.18571E+00-6.23917E+00
 -1      1576 1.99998E+02 1.01569E-08 1.47045E-08-6.02586E-08-6.49015E-09 3.48589E-08
 -1      1577 1.99998E+02 1.14629E-08-8.77657E-09 1.03560E-07 5.91983E-08-1.65896E-07
 -1      1578 1.99998E+02 1.25299E-08 4.73360E-09-7.02089E-10-2.10576E-09 1.50451E-08
 -1      1579 1.99998E+02-1.31318E-09-1.20265E-08-7.00211E-08-3.52947E-09 1.68929E-08
 -1      1580 1.99998E+02 4.95079E-09-5.30482E-09 3.17982E-08 4.97830E-09 2.78616E-08
 -1      1581 1.99998E+02 7.59169E-09-2.03875E-10 1.32111E-09 2.20190E-09 6.01730E-09
 -1      1582 2.15330E+02 5.19304E+01 2.33888E+01 3.26206E+00-3.36258E-01 3.12769E+01
 -1      1583 2.19026E+02 5.33362E+01 2.80136E+01 1.18068E+01-1.08626E+00 3.33482E+01
 -1      1584 1.94617E+02 1.04859E+01-1.88253E+01 9.09890E+00 1.07691E+00 4.85044E-01
 -1      1585 2.17354E+02 5.02590E+01 2.04988E+01-1.22428E+01 6.88756E-01 2.82680E+01
 -1      1586 2.18498E+02 5.18838E+01 2.71427E+01-3.61954E+00-9.38860E-01 3.17942E+01
 -1      1587 1.90290E+02 1.49658E+01-1.82880E+01 3.08744E-02 6.01195E-01 5.95764E-02
 -1      1588 1.92425E+02 9.14482E+00-2.11809E+01-9.98756E+00-4.46904E-01-6.25276E-01
 -1      1589 1.99998E+02 1.17974E-08-3.25996E-09-1.10043E-07-4.77461E-09-1.22405E-08
 -1      1590 1.99998E+02-5.38337E-09-6.51346E-09 1.75234E-07 1.77901E-08 1.06362E-08
 -1      1591 1.99998E+02-6.14457E-09 9.63387E-09-9.29630E-09 4.71712E-09 1.91898E-08
 -1      1592 1.99998E+02 2.84426E-08 3.26467E-08-3.76068E-08 8.13151E-09-1.71048E-08
 -1      1593 1.99998E+02 1.90768E-08 1.06735E-08 2.30580E-08 9.33802E-09-3.90756E-09
 -1      1594 1.99998E+02-3.72072E-09-1.10736E-08 1.14960E-08-7.05730E-09 7.46434E-09
 -1      1595 1.99998E+02 1.71400E-09-5.31265E-09-6.97783E-09 5.04289E-09-3.16247E-09
 -1      1596 1.84624E+02 2.22749E+00 2.78422E+00-7.16689E-01 2.38241E+00-2.11734E+00
 -1      1597 1.89402E+02-1.27883E+00-1.16864E-01-8.12712E-01 3.01497E-01-1.21813E+00
 -1      1598 1.83749E+02-6.12870E-01-4.72327E+00 5.04384E+00 6.69734E-01-2.91232E+00
 -1      1599 1.91152E+02-7.45705E-01 1.37191E-01-1.41264E+00 2.28182E-01-6.17718E-01
 -1      1600 1.96121E+02-5.31394E-01-6.05236E-02-1.02284E+00 1.01524E-02-4.44200E-01
 -1      1601 1.92724E+02-1.86325E+00-1.11679E-01-1.95557E+00 6.88684E-01-1.25787E+00
 -1      1602 1.97667E+02-2.44651E-01 7.69136E-02-5.41264E-01 3.76636E-02-1.50852E-01
 -1      1603 1.99139E+02-1.80567E-01 1.97700E-03-4.19853E-01-1.28392E-02-1.10231E-01
 -1      1604 1.98094E+02-9.94135E-01 2.30825E-01-1.39818E+00 1.65741E-01-5.74991E-01
 -1      1605 1.99603E+02-3.68611E-02 1.82712E-02-1.33935E-01-2.18720E-04-4.18530E-02
 -1      1606 1.99937E+02-2.50276E-02-1.69186E-03-8.20362E-02-6.76790E-03-7.46499E-04
 -1      1607 1.99632E+02-2.92238E-01-6.55641E-02-4.36316E-01 4.29657E-02-1.17988E-01
 -1      1608 2.00013E+02-1.00115E-02-1.86735E-03-1.72131E-02-4.55036E-03 6.71253E-03
 -1      1609 2.00035E+02 2.43220E-03 1.09787E-02-1.10331E-02-4.01962E-03 1.43062E-02
 -1      1610 2.00012E+02-3.32615E-02 3.17934E-02-7.99750E-02-1.25120E-03 8.02363E-03
 -1      1611 2.00026E+02 2.89463E-03 1.97768E-03 4.30332E-03-2.11760E-03 3.77813E-03
 -1      1612 2.00016E+02 2.85751E-03-9.54819E-05 2.74282E-03-5.09865E-05 2.97372E-03
 -1      1613 2.00041E+02 8.93715E-03 1.60520E-02-3.05502E-03 3.18843E-04 1.59017E-02
 -1      1614 2.00011E+02 8.52260E-04-1.10021E-03 2.00898E-03-3.05547E-05 6.81330E-04
 -1      1615 2.00002E+02 7.22012E-04-2.54541E-04 1.84707E-03 2.77292E-05 2.55930E-04
 -1      1616 2.00009E+02 3.78561E-03 9.88845E-04 3.90281E-03-1.48915E-03 3.09466E-03
 -1      1617 2.00001E+02 2.81771E-04-1.71741E-04 6.30696E-04 5.84944E-05 4.88527E-06
 -1      1618 1.99999E+02 1.03279E-04-1.26900E-04 5.76215E-04 7.76237E-05 4.00074E-05
 -1      1619 2.00000E+02 1.09890E-03-6.56092E-04 2.37911E-03-1.12867E-04 4.17315E-04
 -1      1620 1.99998E+02 5.21109E-05-2.91983E-05 1.44309E-04-1.29311E-07 2.99553E-05
 -1      1621 1.99998E+02 2.10661E-05-2.26319E-05 9.33602E-05 1.84547E-05-8.04357E-06
 -1      1622 1.99998E+02 2.80913E-04 2.40431E-05 5.46205E-04-2.43640E-05 5.58073E-05
 -1      1623 1.99998E+02-4.47625E-06-4.02994E-06 7.07467E-06 4.44738E-06-7.42166E-06
 -1      1624 1.99998E+02-3.32998E-06-1.95534E-06 6.13036E-07-3.55438E-07-1.00365E-05
 -1      1625 1.99998E+02 2.67839E-05 2.98347E-06 8.56410E-05 1.24989E-05-3.70470E-06
 -1      1626 1.99998E+02-4.50419E-07 3.42020E-06-6.52982E-06 3.03319E-07-4.26031E-06
 -1      1627 1.99998E+02-2.55050E-06-1.16915E-06-4.96070E-06-1.05610E-07-1.83570E-06
 -1      1628 1.99998E+02-1.11631E-05-2.15642E-06-2.13784E-06 7.70244E-07-1.23884E-05
 -1      1629 1.99998E+02-5.42630E-07 1.12068E-06-2.59103E-06-6.38172E-08-6.27831E-07
 -1      1630 1.99998E+02-6.21206E-07 3.01423E-08-2.35878E-06-4.88951E-08-5.10036E-07
 -1      1631 1.99998E+02-5.07032E-06-1.32087E-06-7.20461E-06 1.22638E-06-3.25879E-06
 -1      1632 1.99998E+02-2.58810E-07 1.36108E-07-9.14037E-07-2.51068E-08-2.58074E-07
 -1      1633 1.99998E+02-1.82191E-07-1.57852E-08-5.97388E-07-5.28272E-08-4.98556E-08
 -1      1634 1.99998E+02-1.50519E-06-2.80216E-07-2.70049E-06 3.02237E-07-6.33326E-07
 -1      1635 1.99998E+02 1.64999E-09-1.61806E-08-1.78648E-07-1.80080E-08 4.21202E-08
 -1      1636 1.99998E+02 9.00725E-09 4.54771E-09-1.40546E-07-1.30771E-08 3.86472E-08
 -1      1637 1.99998E+02-1.86133E-07-6.96006E-08-6.64396E-07-4.02972E-08-7.51655E-08
 -1      1638 1.99998E+02 7.63350E-09 1.23435E-08-2.35546E-08-8.33972E-09 4.55360E-09
 -1      1639 1.99998E+02 5.35598E-09 2.14910E-09-2.07356E-08-6.72123E-09 8.42351E-09
 -1      1640 1.99998E+02 2.42201E-08 2.95800E-08-1.38826E-07-1.16299E-08 3.18049E-08
 -1      1641 1.99998E+02 6.24248E-09 2.28583E-09-5.31511E-09-1.12972E-10 7.37622E-10
 -1      1642 1.99998E+02 3.66705E-09 7.68399E-10-4.40252E-09-6.90704E-10 1.85120E-09
 -1      1643 1.99998E+02 2.03624E-08 5.57860E-09-2.14920E-08-8.42191E-09 1.07207E-08
 -1      1644 1.99998E+02-8.32885E-10-1.73871E-09-3.53650E-09 6.14860E-10 1.43725E-10
 -1      1645 1.99998E+02-5.91290E-10 2.91867E-10-2.71667E-09-1.83652E-11-1.51850E-10
 -1      1646 1.99998E+02 5.67131E-09 1.88310E-09-9.73702E-09-3.33625E-09 1.87954E-09
 -1      1647 1.99998E+02-8.59326E-10-1.10228E-10-1.94826E-09 4.39485E-10-2.96462E-10
 -1      1648 1.99998E+02-7.88067E-10 8.35277E-11-1.65994E-09 8.76600E-11-6.78644E-10
 -1      1649 1.99998E+02 1.30305E-09 4.09204E-10-4.89018E-09-1.45713E-10-2.73161E-10
 -1      1650 1.99998E+02-2.17148E-10 1.22926E-10-9.85567E-10 2.65254E-10-3.09912E-10
 -1      1651 1.99998E+02-2.87872E-10 1.60128E-10-7.10122E-10-2.51214E-11-1.38683E-10
 -1      1652 1.99998E+02-7.52901E-10-1.05068E-10-2.25293E-09-1.81902E-10-5.71733E-10
 -1      1653 1.99998E+02-1.87817E-10 1.36193E-12-2.74973E-10 3.41107E-11-3.85196E-11
 -1      1654 1.99998E+02-1.13649E-10 4.53315E-11-2.24927E-10 5.98840E-11-3.52830E-11
 -1      1655 1.99998E+02-2.70892E-10 4.89966E-11-8.86451E-10-1.28648E-10-1.84150E-10
 -1      1656 1.99998E+02-2.70769E-11 3.44650E-11-7.75384E-11 3.93631E-11-2.91368E-11
 -1      1657 1.99998E+02-2.40944E-11 5.20458E-12-4.96208E-11 3.35389E-13-1.02118E-11
 -1      1658 1.99998E+02-1.11096E-10 6.86729E-11-2.53232E-10 4.51369E-11-2.45819E-11
 -1      1659 1.99998E+02-1.45761E-11-1.24772E-12-6.89928E-12-5.29734E-14-1.47548E-12
 -1      1660 1.99998E+02-7.31642E-12 8.15667E-12-5.90415E-12 3.75770E-12-6.08515E-12
 -1      1661 1.99998E+02-3.73512E-11-6.77793E-12-6.01393E-11-1.34280E-11-2.45525E-11
 -1      1662 1.99998E+02-4.01021E-12-2.16660E-13-2.24626E-13 1.74301E-12-4.36484E-12
 -1      1663 1.99998E+02-4.63450E-12-3.95884E-12 1.51118E-12 1.34359E-12-2.97628E-12
 -1      1664 1.99998E+02-1.14619E-11 4.25947E-12 2.41691E-12-2.34382E-12-5.31641E-12
 -1      1665 1.99998E+02-1.00729E-12 1.38746E-12 4.37592E-12-1.38821E-12-2.03376E-12
 -1      1666 1.99998E+02-4.12234E-13 5.09259E-12 4.85646E-12-3.69393E-14 5.84800E-13
 -1      1667 1.99998E+02-6.05534E-12 6.63946E-14 8.15442E-12-1.25391E-13-3.46811E-12
 -1      1668 1.99998E+02-1.31313E-12 7.55498E-13 4.67545E-12 1.45043E-12-6.79306E-13
 -1      1669 1.99998E+02-5.36532E-12-2.29980E-12 3.69661E-12 5.95394E-13-1.62900E-13
 -1      1670 1.99998E+02-2.62960E-12 1.97859E-12 7.56359E-12 8.81321E-13-2.86455E-13
 -1      1671 1.99998E+02 1.29318E-12-3.71511E-12-3.07522E-12 7.62487E-13 2.65457E-12
 -1      1672 1.99998E+02 3.09501E-12-2.58455E-12-1.21927E-12 4.57708E-12-2.63200E-12
 -1      1673 1.99998E+02-3.48039E-12-2.32238E-12 1.67077E-12 6.18638E-13-2.38562E-12
 -1      1674 1.99998E+02 2.06407E-12-1.37132E-12-1.40808E-12 1.82586E-12-5.85461E-13
 -1      1675 1.99998E+02-2.63294E-14-7.36434E-12-3.73631E-13-2.04834E-13 4.54603E-13
 -1      1676 1.99998E+02-7.00979E-13-9.32717E-12-3.26694E-12-1.58805E-12 1.47829E-12
 -1      1677 1.99998E+02 1.40495E-12-3.05590E-12-2.35591E-12-3.84743E-12-1.81420E-12
 -1      1678 1.99998E+02 6.25037E-12 5.22275E-12-2.59944E-12-3.00995E-12-1.38041E-13
 -1      1679 1.99998E+02 7.56438E-12-3.33625E-12-4.04778E-13 2.18779E-13 9.01786E-13
 -1      1680 1.99998E+02 3.57735E-12 3.31973E-12-3.51506E-12 1.36539E-12 2.20964E-12
 -1      1681 1.99998E+02-3.21302E-12 1.55019E-12-2.70788E-12-5.88963E-13-4.37429E-12
 -1      1682 1.99998E+02 4.31371E-12 3.87360E-12-1.74575E-12-4.23087E-12 3.97246E-12
 -1      1683 1.99998E+02 6.87212E-12-1.51609E-11-2.06394E-11-4.13766E-12-9.44465E-12
 -1      1684 1.99998E+02 1.38810E-11-2.35218E-11 1.17421E-12-1.81729E-11-2.80185E-12
 -1      1685 1.99998E+02 9.94541E-12 9.42242E-12-7.59749E-12 4.27141E-12-4.33148E-12
 -1      1686 1.99998E+02-1.61960E-11-1.92661E-11-8.36108E-11 2.69285E-11-7.16734E-12
 -1      1687 1.99998E+02-1.29022E-10-8.63732E-11-3.38902E-11-3.89602E-11-1.62329E-10
 -1      1688 1.99998E+02-1.55563E-12-1.17540E-11-1.15119E-10 2.24672E-11-9.12022E-11
 -1      1689 1.99998E+02-9.40845E-10-6.91840E-12-3.09249E-10 3.26732E-10-4.04065E-10
 -1      1690 1.99998E+02-2.85274E-09-2.26565E-09-6.16405E-10-1.40298E-09 1.08042E-09
 -1      1691 1.99998E+02-5.02048E-10-1.61037E-10-7.87964E-10 2.41994E-10 1.81155E-10
 -1      1692 1.99998E+02 6.31656E-10 4.15870E-09 2.02999E-09-4.39695E-10 3.94241E-09
 -1      1693 1.88631E+02-1.38536E+00-5.07944E-01 1.02623E+00-1.00377E-01-1.56629E+00
 -1      1694 1.84605E+02 2.32818E+00 3.08982E+00 6.57543E-01-2.19455E+00-2.16182E+00
 -1      1695 1.82681E+02-1.76923E+00-5.70307E+00-5.63797E+00-9.55644E-01-3.84634E+00
 -1      1696 1.96005E+02-5.28082E-01 3.79169E-01 1.18777E+00-7.17902E-02-5.57261E-01
 -1      1697 1.91473E+02-4.99525E-01 5.31879E-01 1.27642E+00-3.44976E-01-5.97039E-01
 -1      1698 1.92432E+02-1.90277E+00-9.19778E-01 1.39796E+00-9.55645E-01-1.63447E+00
 -1      1699 1.99237E+02-1.59678E-01-1.47419E-03 3.60970E-01 1.58122E-02-4.81024E-02
 -1      1700 1.97569E+02-1.88394E-01 1.76315E-01 5.93975E-01-2.71291E-02-2.03781E-01
 -1      1701 1.98018E+02-1.10520E+00 2.82074E-01 1.44792E+00-1.82582E-01-5.72991E-01
 -1      1702 1.99919E+02-3.11108E-02-5.25862E-03 9.09436E-02-3.48539E-03 4.21535E-03
 -1      1703 1.99681E+02-3.24950E-02 1.97456E-02 1.19697E-01 6.12312E-03 1.01675E-02
 -1      1704 1.99695E+02-2.15803E-01 6.98777E-03 4.30276E-01-1.25534E-02-9.10914E-02
 -1      1705 2.00019E+02 4.97819E-04-2.75839E-03 1.09061E-02-7.76464E-04 8.40830E-03
 -1      1706 2.00015E+02 2.07877E-03 6.38525E-04 1.42073E-02 4.91728E-03 1.01550E-02
 -1      1707 2.00014E+02-2.94279E-02-2.81842E-03 8.43335E-02 6.20380E-03-1.17120E-02
 -1      1708 2.00013E+02 1.38291E-03 3.46711E-04-1.32911E-03 3.81468E-04 2.72123E-03
 -1      1709 2.00025E+02 9.93293E-04-1.00851E-03-2.49649E-03 1.06092E-03 3.53792E-03
 -1      1710 2.00024E+02 3.31765E-03 4.80322E-03 5.47458E-03 2.20544E-03 5.77512E-03
 -1      1711 2.00002E+02 5.76000E-04-3.48517E-04-1.59413E-03-1.21022E-04 3.51752E-04
 -1      1712 2.00008E+02 1.02198E-03-1.08622E-04-2.04571E-03 2.39805E-04 6.11636E-04
 -1      1713 2.00009E+02 4.11181E-03 8.34883E-04-3.50877E-03 4.41885E-04 2.67441E-03
 -1      1714 1.99998E+02 2.23537E-04-2.84122E-05-3.73505E-04-6.67598E-06 1.90541E-05
 -1      1715 2.00000E+02 2.69991E-04-2.51770E-04-6.13141E-04-1.26568E-05 1.78199E-04
 -1      1716 1.99999E+02 1.19914E-03-4.00716E-04-1.85503E-03 2.60864E-04 3.33874E-04
 -1      1717 1.99998E+02-1.07598E-05-1.71990E-05-7.45658E-05-8.15836E-06-2.07417E-05
 -1      1718 1.99998E+02 3.22920E-05-2.73839E-05-7.68630E-05-2.89636E-05-3.29732E-05
 -1      1719 1.99998E+02 2.89422E-04-1.14446E-05-4.92578E-04-6.25600E-06 4.71602E-05
 -1      1720 1.99998E+02-1.34551E-05-6.55161E-06-2.66785E-06-8.71711E-06-1.19801E-05
 -1      1721 1.99998E+02-1.78284E-06 7.13779E-06-1.89454E-06-1.11789E-05-1.65607E-05
 -1      1722 1.99998E+02 2.88492E-07-2.37874E-05-9.13264E-05-2.17306E-05-3.01355E-05
 -1      1723 1.99998E+02-2.67550E-06 7.89486E-07 6.36879E-06-3.13220E-07-2.61018E-06
 -1      1724 1.99998E+02-3.16659E-06-3.23410E-07 8.29149E-06-1.55296E-06-3.52632E-06
 -1      1725 1.99998E+02-1.43069E-05-5.73765E-06 9.11935E-06-4.22096E-06-1.31604E-05
 -1      1726 1.99998E+02-1.34863E-06 4.18176E-08 1.92603E-06-4.41700E-08-5.47928E-07
 -1      1727 1.99998E+02-1.52577E-06 7.81331E-07 3.18678E-06-3.14008E-07-1.29999E-06
 -1      1728 1.99998E+02-5.47636E-06 1.39700E-06 8.42514E-06-1.53112E-06-2.44779E-06
 -1      1729 1.99998E+02-1.66655E-07 6.61178E-09 4.55276E-07-4.63429E-08 1.94618E-08
 -1      1730 1.99998E+02-2.53051E-07 9.35481E-08 5.78585E-07 2.08210E-08 4.10577E-08
 -1      1731 1.99998E+02-1.68223E-06-2.62688E-07 2.41038E-06-6.74903E-08-9.02913E-07
 -1      1732 1.99998E+02-1.35000E-08-3.02948E-09 3.09037E-08-2.42511E-09 4.08880E-08
 -1      1733 1.99998E+02-4.22307E-08 1.41562E-08 4.51163E-08 2.20173E-08 3.06436E-08
 -1      1734 1.99998E+02-2.47562E-07 2.03542E-07 4.05766E-07-2.02751E-08-5.43629E-08
 -1      1735 1.99998E+02 1.88572E-08 3.17020E-10-4.87526E-08-2.32971E-09 2.17645E-08
 -1      1736 1.99998E+02 2.02933E-08-3.87979E-09-5.41385E-08 6.79473E-09 2.27095E-08
 -1      1737 1.99998E+02 1.61748E-08 1.12218E-08-4.65845E-08 2.02038E-08 3.86234E-08
 -1      1738 1.99998E+02 4.21070E-09-5.99418E-09-2.68268E-08-6.52734E-10 3.88355E-09
 -1      1739 1.99998E+02 6.39803E-09-5.77024E-09-2.81483E-08 6.13118E-10 3.19062E-09
 -1      1740 1.99998E+02 1.84405E-08 4.10152E-09-6.80667E-08 1.80334E-09 1.64549E-08
 -1      1741 1.99998E+02 2.39404E-09-1.52600E-09-8.93118E-09-2.29947E-10 4.42455E-10
 -1      1742 1.99998E+02 3.81442E-09-2.12423E-09-1.28272E-08 1.15674E-09 2.30731E-09
 -1      1743 1.99998E+02 1.08675E-08-6.21123E-09-3.32760E-08 7.08572E-10 2.73786E-09
 -1      1744 1.99998E+02 7.24217E-10-4.06070E-10-2.39837E-09-7.26402E-11-2.53143E-10
 -1      1745 1.99998E+02 8.93637E-10-9.52756E-10-3.56273E-09 5.48869E-10 5.41570E-10
 -1      1746 1.99998E+02 2.53367E-09-2.26035E-09-1.05667E-08 5.57158E-10-1.43589E-10
 -1      1747 1.99998E+02 1.87270E-10-1.86608E-10-7.31890E-10-2.80685E-11-5.17569E-11
 -1      1748 1.99998E+02 4.65497E-10 1.51879E-10-8.57265E-10 5.27480E-11-1.29901E-10
 -1      1749 1.99998E+02 8.39764E-10-5.79882E-10-3.62310E-09-4.76065E-10-1.42150E-10
 -1      1750 1.99998E+02 9.27567E-11-5.15354E-11-1.83240E-10-6.68852E-12 4.05288E-12
 -1      1751 1.99998E+02 1.90108E-10 6.50961E-11-2.48316E-10 4.48881E-11-2.93701E-11
 -1      1752 1.99998E+02-6.38043E-11-4.33425E-10-9.26894E-10 4.13397E-11-2.28577E-10
 -1      1753 1.99998E+02 5.28474E-11-1.64117E-11-2.12616E-11 3.56269E-11-1.80352E-11
 -1      1754 1.99998E+02 8.68890E-11 4.86262E-12-4.15946E-11 2.11912E-11-7.62326E-12
 -1      1755 1.99998E+02-7.20401E-11-1.38742E-10-1.47409E-10 5.06824E-11-5.28514E-11
 -1      1756 1.99998E+02 9.80693E-12-6.09064E-12 3.35041E-12 8.71320E-12-3.28639E-12
 -1      1757 1.99998E+02 1.42887E-11-8.55531E-12-5.35340E-12 1.42881E-11-4.97128E-12
 -1      1758 1.99998E+02 1.47847E-11-3.19908E-11-4.93819E-12 2.68898E-11-2.63795E-11
 -1      1759 1.99998E+02 4.59717E-12-1.35388E-12 5.67490E-12 2.72963E-12-1.53774E-12
 -1      1760 1.99998E+02 6.81108E-12-5.04013E-12 2.69527E-12 3.11090E-12-3.33255E-12
 -1      1761 1.99998E+02 1.00792E-11-3.01514E-12 1.24324E-11 6.05217E-12-1.13291E-12
 -1      1762 1.99998E+02 2.15544E-12 2.12477E-12 1.15721E-12 2.60436E-14-2.36259E-12
 -1      1763 1.99998E+02 2.47329E-12 8.66236E-14 2.67222E-12 2.04950E-12-2.85820E-12
 -1      1764 1.99998E+02 4.72385E-12-2.73778E-12 5.73812E-12 1.62073E-12-3.77482E-13
 -1      1765 1.99998E+02 2.34792E-12 2.11567E-13 4.08766E-12-1.75599E-14 7.37857E-13
 -1      1766 1.99998E+02 7.33793E-13 1.46872E-12 3.34423E-12-1.48679E-12-1.48990E-12
 -1      1767 1.99998E+02-5.50405E-13-3.63525E-12 5.43788E-12 7.63302E-13-4.56945E-14
 -1      1768 1.99998E+02 4.89711E-12 3.74778E-12 4.88592E-12-1.55720E-12-1.52108E-12
 -1      1769 1.99998E+02-1.57386E-13-2.87957E-12 4.01488E-13-2.32845E-12-1.90921E-12
 -1      1770 1.99998E+02-7.14255E-13 1.97748E-12 6.05174E-12-1.50002E-12 2.18956E-12
 -1      1771 1.99998E+02 1.21660E-12-2.54054E-12-1.47366E-14 1.28923E-12 5.71052E-13
 -1      1772 1.99998E+02 3.75520E-12-5.97965E-12 2.33439E-12-6.93838E-13-1.00577E-12
 -1      1773 1.99998E+02 1.52179E-13-1.00161E-12 4.23471E-12-1.26062E-13-2.20723E-13
 -1      1774 1.99998E+02-1.76702E-12-4.09342E-13 5.60115E-12 3.44242E-13-2.63046E-12
 -1      1775 1.99998E+02 2.47175E-12 3.40778E-12 2.16155E-12 2.99266E-13-1.95278E-12
 -1      1776 1.99998E+02 7.46254E-12 6.15696E-12 4.17046E-13-9.43193E-13-5.41107E-13
 -1      1777 1.99998E+02 5.20987E-12 4.85271E-12 7.99789E-12-8.11773E-13-5.95761E-14
 -1      1778 1.99998E+02-1.78255E-12 7.60282E-12 4.70743E-12-2.58074E-12-1.04848E-12
 -1      1779 1.99998E+02 1.33858E-12 1.02807E-12 2.06054E-13-2.69768E-13-2.40190E-13
 -1      1780 1.99998E+02 1.12021E-11 2.36986E-11 1.95034E-11-8.84306E-12 1.51862E-11
 -1      1781 1.99998E+02 1.70979E-12 1.77908E-12 1.64695E-11-9.66688E-13 1.07995E-12
 -1      1782 1.99998E+02-5.19133E-13-4.71194E-12 8.83558E-12-8.53984E-12 1.18641E-11
 -1      1783 1.99998E+02-6.12043E-11 2.38628E-11 6.32850E-11-1.01980E-11 9.45165E-11
 -1      1784 1.99998E+02-1.98325E-11-7.67539E-12 5.43749E-11 2.68173E-12 5.81174E-11
 -1      1785 1.99998E+02 8.29138E-13-5.36451E-13 5.03464E-11-1.11742E-11 3.03053E-11
 -1      1786 1.99998E+02 3.33922E-10-1.24535E-09-7.29238E-11 9.38759E-10-6.87210E-10
 -1      1787 1.99998E+02 4.59097E-10 7.09900E-11 5.83914E-10 1.94107E-10-4.15617E-10
 -1      1788 1.99998E+02 3.69343E-10 3.65133E-10 3.78996E-10-8.55237E-11-3.89726E-10
 -1      1789 1.99998E+02 3.10081E-09 6.71896E-10-1.65728E-09 1.24495E-09-2.41463E-09
 -1      1790 1.99998E+02-6.27776E-11-2.78952E-11-1.04715E-10-2.03336E-12-1.79484E-11
 -1      1791 1.99998E+02-3.46397E-11-6.92555E-12-2.06816E-11-5.38053E-12-4.44433E-12
 -1      1792 1.99998E+02-6.13501E-12 6.24767E-12 1.71788E-12 1.89279E-13-5.41719E-12
 -1      1793 1.99998E+02-4.37009E-12 3.32888E-12 1.42042E-11-2.29270E-12-5.14367E-12
 -1      1794 1.99998E+02-1.38939E-11-8.35577E-12-8.16249E-12-1.05588E-11-1.83948E-12
 -1      1795 1.99998E+02 4.28337E-12-3.92093E-12 1.82781E-12-1.32127E-12 1.38984E-12
 -1      1796 1.99998E+02 3.24287E-12-6.40535E-12 2.82926E-13 8.33093E-13-5.03305E-13
 -1      1797 1.99998E+02-2.47264E-12 4.50486E-12-1.36935E-12 8.83209E-13-2.19625E-12
 -1      1798 1.99998E+02-3.64650E-12-4.76250E-12 2.64454E-13-1.16870E-12 8.60282E-13
 -1      1799 1.99998E+02 6.75237E-12 6.72792E-14 1.69148E-12 1.09199E-12 2.30595E-12
 -1      1800 1.99998E+02 1.11500E-12 6.92995E-12 1.23875E-12-3.19268E-12 9.75906E-13
 -1      1801 1.99998E+02-2.22189E-13-1.26896E-12 2.02475E-12-7.42087E-13-8.26878E-14
 -1      1802 1.99998E+02 2.41858E-12-3.23621E-12 2.04323E-12 3.51864E-13-2.21015E-12
 -1      1803 1.99998E+02 7.76211E-12 6.74604E-12 4.18441E-12-1.22520E-12 9.79426E-13
 -1      1804 1.99998E+02-3.46696E-12-2.93890E-13 1.77768E-12-4.65461E-13 1.74551E-12
 -1      1805 1.99998E+02-1.21244E-11-6.62322E-12-2.90869E-11 1.60845E-11 3.87479E-11
 -1      1806 1.99998E+02-1.36336E-10-1.59074E-10-1.28662E-10 2.17588E-11-5.27525E-11
 -1      1807 1.99998E+02-5.46195E-11 2.13977E-11-3.23809E-10 1.14178E-11 1.44476E-10
 -1      1808 1.99998E+02-4.29263E-11 1.25861E-11-1.39854E-10 1.61957E-11 2.22234E-10
 -1      1809 1.99998E+02-1.88520E-10-3.08207E-10-8.54701E-10 7.87449E-11 8.29331E-10
 -1      1810 1.99998E+02-3.29026E-10-1.54001E-10-1.21762E-09-9.10997E-11-1.10196E-10
 -1      1811 1.99998E+02-1.16592E-10 6.97228E-11-6.93345E-10-1.15502E-10-1.65034E-11
 -1      1812 1.99998E+02-5.91404E-10-3.73514E-10-2.13910E-09-1.47263E-10-1.16975E-11
 -1      1813 1.99998E+02-1.95821E-11-3.90274E-10-2.07960E-09-2.57833E-10-1.41088E-10
 -1      1814 1.99998E+02-1.64627E-10-1.60444E-10-3.53122E-09-4.40967E-10-3.18108E-10
 -1      1815 1.99998E+02 2.18154E-12 3.02085E-15 8.52788E-12 3.25596E-13 2.66107E-13
 -1      1816 1.99998E+02 1.67335E-12-1.62023E-12 1.37816E-11 1.70396E-12 9.16348E-13
 -1      1817 1.99998E+02-1.97104E-12-2.17601E-12 5.90085E-12 6.86415E-14 2.19463E-12
 -1      1818 1.99998E+02 2.39964E-12 2.24592E-12 5.53504E-12 8.14339E-13 2.09544E-12
 -1      1819 1.99998E+02 1.94719E-13 2.96732E-12 7.17244E-12-3.45829E-13 1.85750E-12
 -1      1820 1.99998E+02 1.51864E-08-5.94266E-10-2.23932E-08-4.56255E-09 5.51333E-09
 -1      1821 1.99998E+02 7.08802E-09-8.42789E-10-1.41199E-08-1.41397E-09 3.36475E-09
 -1      1822 1.99998E+02 3.33389E-09-5.84340E-10-7.67146E-09-6.47895E-10 2.91362E-10
 -1      1823 1.99998E+02 1.36026E-09-8.99755E-10-6.87623E-09-6.41976E-10 3.02389E-10
 -1      1824 1.99998E+02 9.36338E-09 9.07346E-11-1.69878E-08-2.16358E-09 2.48131E-09
 -1      1825 2.00081E+02-3.26587E-02 1.22197E-02 2.00285E-02 4.00730E-04 5.90147E-03
 -1      1826 2.00022E+02-1.25806E-01 1.95749E-02 8.09092E-02 2.48357E-03-7.70678E-03
 -1      1827 2.00017E+02 6.36805E-03 4.59591E-03-1.91093E-03 1.49456E-03 6.90321E-03
 -1      1828 2.00034E+02-3.92928E-03 5.56421E-03 1.23766E-02 4.15425E-03 1.03439E-02
 -1      1829 2.00061E+02-3.95051E-02 7.26260E-03 1.82143E-03 3.20444E-03 1.10573E-02
 -1      1830 2.00000E+02 2.72756E-03-4.56532E-04 1.67821E-03-4.12523E-05 9.54613E-04
 -1      1831 1.99998E+02 1.54026E-03-3.01619E-04 7.37686E-04 3.91059E-05 4.56712E-04
 -1      1832 2.00008E+02 5.82386E-03 2.66616E-03 2.22296E-03-1.69778E-03 4.75067E-03
 -1      1833 2.00002E+02 5.26736E-03 2.41027E-04 2.27150E-03 1.03527E-04 2.75033E-03
 -1      1834 2.00000E+02 4.89479E-03 4.42602E-04 1.19318E-04 7.98133E-05 1.90188E-03
 -1      1835 1.99666E+02-6.74561E-01-3.90092E-02-3.68354E-01 2.62637E-02-2.06518E-01
 -1      1836 2.00128E+02-2.91162E-01 6.91866E-02-1.27258E-01-2.50935E-02-5.61277E-02
 -1      1837 1.99617E+02-1.15837E+00 1.14097E-01-4.61031E-01 1.85761E-02-5.67560E-01
 -1      1838 1.98345E+02-1.94899E+00 1.74398E-01-9.19708E-01 1.12670E-01-8.05005E-01
 -1      1839 1.99785E+02-1.23821E+00 6.62155E-02-2.23626E-02 9.90654E-02-4.23674E-01
 -1      1840 1.99998E+02-5.76741E-06 1.70111E-06 3.47528E-06-9.57300E-08-2.03143E-06
 -1      1841 1.99998E+02-1.09521E-05 3.15870E-07 5.63785E-06-1.26824E-06-4.10297E-06
 -1      1842 1.99998E+02-1.70888E-05-3.14863E-06 9.39927E-06 1.20038E-07-9.10724E-06
 -1      1843 1.99998E+02-1.46044E-05-3.28124E-06 3.50767E-06 7.62589E-07-9.21039E-06
 -1      1844 1.99998E+02-1.65793E-05-9.70480E-06 1.55476E-06-3.16031E-06-1.73332E-05
 -1      1845 1.99998E+02 9.38981E-09 5.76186E-08-2.07042E-07-2.97342E-08 6.48399E-08
 -1      1846 1.99998E+02 4.30371E-08 3.37276E-08-9.65534E-08-1.87545E-08 4.61989E-08
 -1      1847 1.99998E+02-2.20268E-07 2.12534E-08-2.86754E-07 1.47631E-08 1.59962E-08
 -1      1848 1.99998E+02-2.63573E-07 5.42261E-08-1.78365E-07 1.13137E-09 6.27778E-08
 -1      1849 1.99998E+02-7.30140E-07 9.61265E-08-6.98479E-07-3.26658E-08-2.31715E-08
 -1      1850 1.99998E+02 8.29597E-04 6.94932E-05 5.80602E-04-4.06213E-05 1.30812E-04
 -1      1851 1.99998E+02 3.15419E-04-1.07915E-04 1.73707E-04 2.64614E-05 1.00432E-05
 -1      1852 1.99998E+02 1.06000E-04-1.83841E-05 1.03426E-04 1.01136E-05-2.56699E-05
 -1      1853 1.99998E+02 6.39585E-06-1.92863E-05 2.34529E-05-3.53919E-07-2.72715E-05
 -1      1854 1.99998E+02 2.66520E-04-1.17778E-04 2.26129E-05-8.76742E-06-5.27958E-05
 -1      1855 1.95748E+02-3.22315E+00-1.76440E-01 9.73385E-01-1.13192E-01-1.71404E+00
 -1      1856 1.94694E+02-2.16314E+00-1.28223E+00 4.11210E-01-6.56568E-01-2.63377E+00
 -1      1857 1.92722E+02-6.12843E-01-2.77334E+00-1.17125E-01 1.39865E-01-3.54005E+00
 -1      1858 1.87399E+02-8.03828E-01-2.99323E+00 2.74577E-01-2.88742E-01-3.62362E+00
 -1      1859 1.80612E+02 1.59072E+00-5.41917E+00-2.33581E+00 3.66373E-01-4.26321E+00
 -1      1860 1.79393E+02 4.19645E+00-4.41553E+00-2.14946E+00 6.02179E-02-3.83526E+00
 -1      1861 1.99998E+02 3.58835E-11 1.32737E-11-2.04465E-11 6.03470E-12-6.28577E-12
 -1      1862 1.99998E+02-4.13643E-12-1.24107E-11-1.30531E-11 3.16618E-11-1.03097E-11
 -1      1863 1.99998E+02 1.63470E-12 1.71059E-11-1.62051E-10 3.49923E-11-6.46544E-11
 -1      1864 1.99998E+02-2.26194E-11-5.56419E-11-2.32996E-10 2.85250E-11-4.19936E-11
 -1      1865 1.99998E+02-1.18826E-10-3.63609E-11-1.62993E-10 1.32623E-11 1.74486E-12
 -1      1866 1.99998E+02 4.31503E-12 2.80449E-12 9.16094E-13-7.14411E-12 1.13701E-11
 -1      1867 1.99998E+02 3.36394E-12 6.31030E-12-1.19533E-12 5.73963E-12 7.61123E-12
 -1      1868 1.99998E+02 7.95118E-12 2.95147E-12-3.82780E-12 1.78296E-12 2.89448E-12
 -1      1869 1.99998E+02 7.16149E-12-1.78519E-12-2.21162E-12-4.26989E-13 2.92554E-12
 -1      1870 1.99998E+02 4.64760E-12 1.04430E-11 4.52753E-12-4.42423E-12 4.46529E-12
 -1      1871 1.99998E+02 9.49383E-10 4.32725E-10 4.89750E-11-1.43391E-10-5.15814E-10
 -1      1872 1.99998E+02-5.73418E-11-8.70014E-11-2.11877E-11 2.48676E-11 1.27109E-10
 -1      1873 1.99998E+02 1.56750E-09 1.18948E-09 1.22453E-09-4.54930E-10-2.05129E-09
 -1      1874 1.99998E+02 7.53905E-10 6.03314E-10 4.03516E-10-1.07847E-09-1.19993E-10
 -1      1875 1.99998E+02 2.35079E-09-3.18229E-10 3.58557E-10 1.26887E-09-4.48124E-09
 -1      1876 1.99998E+02 4.14323E-09 2.45609E-09 2.99160E-10-1.65695E-10-4.56886E-09
 -1      1877 1.99998E+02 1.25808E-08-1.14350E-09-2.21247E-08-1.43333E-09 1.61078E-09
 -1      1878 1.99998E+02 2.00299E-08-4.60752E-09-3.67021E-08-1.81517E-09 4.31930E-09
 -1      1879 1.99998E+02 3.20705E-08-1.35438E-09-5.35113E-08-4.09221E-09 1.07757E-08
 -1      1880 1.99998E+02 3.81382E-08 4.92907E-09-7.33345E-08 1.66856E-09 2.56299E-08
 -1      1881 1.99998E+02 2.44449E-08-3.86013E-09-4.35351E-08-2.51995E-09 1.41239E-08
 -1      1882 1.99998E+02-3.33556E-11-3.49808E-11 4.42154E-11-1.00787E-11 7.35955E-11
 -1      1883 1.99998E+02-2.21651E-11-1.18841E-11-3.30560E-12-7.92620E-12 5.84112E-11
 -1      1884 1.99998E+02-1.91952E-13 3.34187E-12 1.44724E-11-1.16039E-11 2.66892E-11
 -1      1885 1.99998E+02-6.98547E-13 8.59109E-12 5.13767E-12-1.86299E-12 7.04497E-12
 -1      1886 1.99998E+02-2.81421E-11-1.61371E-11 4.59116E-13-1.34570E-12 4.56331E-11
 -1      1887 1.99998E+02 8.75356E-10-1.29007E-09-7.48325E-09-2.67281E-10-5.99073E-10
 -1      1888 1.99998E+02 4.23352E-09-1.46053E-09-1.29857E-08-4.30815E-10 5.05832E-11
 -1      1889 1.99998E+02 5.90460E-10-2.24984E-10-2.21050E-09-1.53234E-10-3.87442E-10
 -1      1890 1.99998E+02 1.57082E-09 6.97069E-11-4.51058E-09-1.59377E-10-4.31935E-10
 -1      1891 1.99998E+02 3.29151E-09 2.51886E-10-7.32720E-09-9.97967E-10 1.55883E-10
 -1      1892 1.99998E+02-1.15226E-05-8.01818E-08-3.94765E-06 9.74112E-07-4.45197E-06
 -1      1893 1.99998E+02-6.60350E-06 5.67345E-07-2.24472E-06-9.68107E-08-3.06167E-06
 -1      1894 1.99998E+02-3.93978E-06-3.28391E-07-2.44081E-06 3.32625E-07-1.07191E-06
 -1      1895 1.99998E+02-1.68808E-06 5.32425E-07-1.02260E-06-1.53305E-07-3.14390E-07
 -1      1896 1.99998E+02-7.29706E-06 2.37978E-07 3.33138E-07 4.30453E-07-2.12638E-06
 -1      1897 1.99998E+02 1.26615E-03-5.32084E-04-5.23832E-04-2.89974E-06 3.14890E-04
 -1      1898 1.99999E+02 2.69539E-03-1.58961E-04-1.18608E-03 2.57848E-04 6.98665E-04
 -1      1899 1.99998E+02 1.90343E-04-1.09651E-04-1.25149E-04-4.19254E-05-2.24601E-05
 -1      1900 1.99998E+02 8.04636E-04-1.04132E-04-3.00831E-04 1.28488E-05 1.39065E-04
 -1      1901 1.99998E+02 1.50861E-03-1.75938E-04 1.24969E-04-7.26380E-05 3.27303E-04
 -1      1902 1.99998E+02-1.73255E-06 2.41544E-07 7.15867E-07 1.42708E-07-3.07079E-07
 -1      1903 1.99998E+02-4.37795E-06 9.01054E-08 1.83790E-06-2.92385E-07-1.17888E-06
 -1      1904 1.99998E+02-7.77386E-07 2.03963E-07 4.32257E-07 1.19779E-08-6.58811E-08
 -1      1905 1.99998E+02-1.63979E-06 4.53581E-07-1.83629E-07-1.82907E-08-9.21393E-08
 -1      1906 1.99998E+02-2.91775E-07 1.70784E-07-2.03578E-08 2.19157E-08 4.70021E-08
 -1      1907 1.83152E+02 8.52052E+00-3.26714E+00 2.45706E+00 7.60250E-01-1.72830E+00
 -1      1908 1.83497E+02 2.22162E+00-3.46485E+00 2.47189E+00 8.05304E-04-1.89801E+00
 -1      1909 1.88122E+02-3.15347E-01-3.24202E+00-1.11923E-01 2.58881E-01-3.91095E+00
 -1      1910 1.99998E+02-6.62976E-09-9.88495E-09 3.24266E-09-4.60139E-09 4.18348E-09
 -1      1911 1.99998E+02-5.47818E-09-5.88616E-09-5.77430E-09-1.99081E-09 7.20493E-09
 -1      1912 1.99998E+02 1.10167E-09 2.13920E-09-1.21586E-09-9.45636E-10-2.05548E-10
 -1      1913 1.99998E+02 4.86571E-12 1.75463E-12 3.79929E-12-3.20722E-12 6.42663E-13
 -1      1914 1.99998E+02-8.65284E-13 2.42650E-13 4.44134E-12-2.40630E-12 2.47217E-12
 -1      1915 1.99998E+02 1.31304E-13-2.10594E-12 4.31658E-12 3.64113E-13 3.55934E-13
 -1      1916 1.99998E+02 1.21210E-12-1.83600E-12 5.14309E-12 5.23993E-15 1.88640E-12
 -1      1917 1.99998E+02-1.59921E-12 2.11330E-12 5.00982E-12-2.21092E-13-2.52967E-13
 -1      1918 1.99998E+02-3.20755E-12 6.37385E-14 2.15807E-12-1.03683E-12 1.68110E-12
 -1      1919 1.99998E+02-5.94718E-12-1.85955E-12 1.34061E-11 1.11361E-12-5.24972E-12
 -1      1920 1.99998E+02-1.46377E-12-1.29360E-12 6.90704E-12-2.71191E-13-1.26449E-12
 -1      1921 2.00046E+02 7.60320E-03 1.42257E-02-8.78124E-03 6.03969E-04 1.90974E-02
 -1      1922 2.00021E+02 7.40030E-03 4.53886E-03 3.67788E-03-4.50526E-04 7.36166E-03
 -1      1923 2.00052E+02-1.21582E-01 1.63289E-02-9.74431E-02-7.29056E-03 1.64860E-02
 -1      1924 2.00064E+02-3.07644E-02 3.79623E-02-1.69629E-02-5.36199E-03 1.52772E-02
 -1      1925 1.99859E+02-1.07092E+00 2.66096E-01 4.38682E-01-1.77598E-02-3.01509E-01
 -1      1926 1.98194E+02-1.95400E+00 2.16637E-01 8.98019E-01-7.63316E-02-8.26615E-01
 -1      1927 2.00187E+02-2.78384E-01 6.25456E-02 1.25761E-01 2.27726E-02-2.99660E-02
 -1      1928 1.99608E+02-6.51088E-01 1.61637E-01 3.17092E-01-4.59737E-02-6.88286E-02
 -1      1929 1.96773E+02-3.16997E+00-6.28119E-01 3.45383E-02 1.10227E-02-1.71745E+00
 -1      1930 1.95855E+02-3.27893E+00-5.05239E-01-9.21730E-01 2.04671E-01-1.79962E+00
 -1      1931 1.94623E+02-2.17363E+00-1.22442E+00-3.81461E-01 6.60889E-01-2.61369E+00
 -1      1932 1.99998E+02-1.67697E-10-3.10206E-13-3.20501E-10 1.84970E-12-3.01649E-11
 -1      1933 1.99998E+02-5.98106E-11 1.03505E-11-1.79838E-10 3.14710E-11 7.53809E-12
 -1      1934 1.99998E+02-9.55740E-11 8.52468E-12-6.49014E-10-1.46296E-10-4.14219E-11
 -1      1935 1.99998E+02 3.30643E-10 4.43682E-12-1.21122E-09 2.29705E-11-7.02794E-11
 -1      1936 1.99998E+02 1.22841E-10 5.28316E-12-7.17526E-10-1.60194E-12-1.35415E-10
 -1      1937 1.99998E+02 1.42297E-12-1.90990E-12 7.20143E-13 2.89527E-14 5.20917E-12
 -1      1938 1.99998E+02 2.65269E-12 1.29637E-12 8.40737E-13-5.25303E-13 6.67520E-13
 -1      1939 1.99998E+02 2.97018E-12 5.07575E-12 8.81381E-13-1.75095E-14-6.33489E-13
 -1      1940 1.99998E+02 8.15964E-12-1.27198E-12 1.02060E-11 4.03648E-12 2.49109E-12
 -1      1941 1.99998E+02 1.23907E-11 6.77843E-12 1.35350E-11 3.33406E-12 2.47234E-12
 -1      1942 1.99998E+02-3.49478E-12 1.58836E-13 1.04241E-11-1.59405E-12 1.30028E-14
 -1      1943 1.99998E+02 3.96439E-08 6.34172E-09-5.64132E-08-1.11731E-08 2.48156E-08
 -1      1944 1.99998E+02 2.60548E-08-2.52439E-09-3.19937E-08-2.36693E-09 1.47277E-08
 -1      1945 1.99998E+02 3.31034E-08 2.17218E-08-9.25418E-08-7.25480E-09 4.60890E-08
 -1      1946 1.99998E+02-4.87235E-08 7.82524E-08-6.20756E-08 1.76387E-09 7.06730E-08
 -1      1947 1.99998E+02 3.70066E-08 2.50950E-08-1.04960E-07 9.12919E-10 4.72728E-08
 -1      1948 1.99998E+02-1.29282E-05-1.62897E-06 1.10245E-05 2.75473E-06-1.62505E-05
 -1      1949 1.99998E+02-1.84479E-05-4.80409E-06-3.87981E-06 1.96755E-07-1.23472E-05
 -1      1950 1.99998E+02 1.03068E-05-1.51805E-05 1.36158E-05-2.43010E-07-2.78391E-05
 -1      1951 1.99998E+02 1.00506E-04-4.14080E-05-6.76311E-05-2.76428E-06-1.65592E-05
 -1      1952 1.99998E+02 1.34977E-05-8.76525E-06 4.06208E-06-2.39300E-06-1.80533E-05
 -1      1953 2.00012E+02 4.84631E-03 3.08155E-03-4.56701E-04 2.29776E-04 6.82133E-03
 -1      1954 2.00001E+02 4.56345E-03-4.83824E-05-1.32259E-03-5.71792E-05 1.87751E-03
 -1      1955 2.00009E+02 6.93139E-03 1.02607E-03-1.22620E-03 4.30731E-04 4.14726E-03
 -1      1956 2.00137E+02-2.84592E-01 7.60609E-02 1.11804E-02-8.02925E-03-4.98919E-03
 -1      1957 1.99998E+02-2.20466E-12 4.09252E-12 1.18950E-12 1.05261E-12 4.95858E-12
 -1      1958 1.99998E+02 1.07254E-11-4.00846E-12-1.54304E-11 3.70287E-12-4.92155E-12
 -1      1959 1.99998E+02-2.13426E-12-4.52740E-12-7.05202E-12 8.77679E-13 1.17066E-12
 -1      1960 1.99998E+02 2.34147E-12-1.76164E-13 4.48980E-12-8.69187E-13-3.58581E-12
 -1      1961 1.99998E+02-1.05423E-10-8.78014E-11 3.10980E-10-3.65382E-12 2.87580E-11
 -1      1962 1.99998E+02 4.84002E-10-9.04462E-11 1.47616E-09-1.76777E-10-2.19330E-10
 -1      1963 1.99998E+02-1.51538E-12 1.44259E-12-1.76586E-11-3.11439E-13-1.03563E-12
 -1      1964 1.99998E+02 6.53240E-09-1.34780E-09 1.87193E-08-3.04980E-10-1.96541E-10
 -1      1965 2.00033E+02-2.88053E-03-4.48975E-04 2.28805E-02-2.80406E-03-1.00355E-02
 -1      1966 2.00002E+02 2.10185E-03-4.86801E-04 3.17344E-03 2.98804E-04-8.95539E-04
 -1      1967 1.99162E+02-5.05450E-01 9.19833E-02-7.96565E-01-4.48026E-02 4.63173E-02
 -1      1968 1.99998E+02-9.02624E-06-2.01545E-06 8.58223E-06 1.65169E-06 6.00125E-06
 -1      1969 1.99998E+02 1.00744E-08-7.32410E-09 2.89578E-07-2.80947E-08-6.35889E-08
 -1      1970 1.99998E+02 8.76787E-05-1.68139E-05-1.90924E-04 1.31202E-05 1.28165E-05
 -1      1971 1.90339E+02-1.80851E+00-1.95425E+00 7.10562E-01 1.09752E+00 3.43444E+00
 -1      1972 1.99998E+02-6.49232E-11 1.54038E-11 1.13357E-10 1.46943E-12 3.10589E-12
 -1      1973 1.99998E+02-1.16669E-11 6.74531E-13 3.22918E-11 2.82587E-12-1.84567E-12
 -1      1974 1.99998E+02-2.71544E-09-4.09450E-09 3.59821E-09 1.69244E-10 4.15440E-10
 -1      1975 1.99998E+02 1.12088E-08 2.21716E-09 1.26553E-08-5.07665E-09-2.43598E-09
 -1      1976 1.99998E+02-7.00553E-11 5.87255E-12-2.21725E-11 1.72433E-11 7.44397E-12
 -1      1977 1.99998E+02-5.93460E-10-2.48004E-10 4.30053E-09 3.29004E-11 7.39400E-10
 -1      1978 1.99998E+02-3.45475E-06-7.95890E-08-4.61000E-06-3.65339E-07 1.50193E-06
 -1      1979 1.99998E+02 3.80867E-08 1.79663E-08 9.40796E-08 3.54210E-10-3.01880E-08
 -1      1980 1.99998E+02-1.17866E-05 5.68394E-07 6.96666E-06-1.24038E-05 2.95514E-05
 -1      1981 1.92397E+02 1.38109E+01-1.77753E+01 5.28898E+00-3.84289E-01-1.51460E+00
 -1      1982 1.99998E+02 1.63427E-08-1.95337E-08 3.79588E-08 1.88901E-08-1.23773E-08
 -1      1983 1.99998E+02-5.52135E-13-3.46789E-12-9.34948E-12-7.39247E-13-7.50868E-12
 -1      1984 1.99998E+02 2.41753E-12 2.24037E-12-1.76770E-11 3.80340E-12 6.85340E-14
 -1      1985 2.00003E+02 2.47027E-03-2.89962E-04-3.59224E-03-3.32113E-04-1.36837E-03
 -1      1986 2.00016E+02-4.85164E-04 4.86259E-03-2.54192E-02 9.23165E-03-1.93678E-02
 -1      1987 1.99031E+02-4.91986E-01 1.55918E-01 7.99561E-01 3.39406E-02 4.92252E-02
 -1      1988 1.96281E+02-1.66174E+00 1.43971E-01 2.11815E+00 4.30754E-01 1.05640E+00
 -1      1989 1.96462E+02-4.22327E+00-2.15952E+00 6.03640E-02-7.70807E-02 3.11667E+00
 -1      1990 1.99998E+02-1.23538E-10 1.13087E-10-1.27144E-10-1.87269E-11 1.63932E-11
 -1      1991 1.99998E+02 3.51026E-11-1.09806E-11 6.25105E-11-3.57773E-12-1.94864E-12
 -1      1992 1.99998E+02 1.24789E-10-3.23467E-11 4.65401E-10 1.14213E-10 7.60055E-11
 -1      1993 1.99998E+02-7.95604E-11-8.83909E-12 1.21163E-09-1.33809E-10 1.26625E-10
 -1      1994 1.99998E+02-1.20974E-12 1.61073E-12-2.76917E-14 4.68644E-13-6.66544E-13
 -1      1995 1.99998E+02 1.77884E-08-2.12751E-09 5.26421E-08 2.07823E-10-6.11272E-09
 -1      1996 1.99998E+02-8.89093E-12-3.07850E-12-1.64503E-11-1.59946E-13 9.79604E-13
 -1      1997 1.99998E+02-1.09053E-11 3.33350E-12 2.55870E-12 8.49699E-13 8.28300E-13
 -1      1998 1.99998E+02 2.18880E-12-2.20775E-12-4.48065E-12 1.92380E-12-1.00247E-12
 -1      1999 1.99998E+02-1.04013E-05-5.62059E-07-1.36573E-05-1.53994E-06 4.51614E-06
 -1      2000 1.99998E+02-2.96130E-06 3.14537E-07 4.51805E-06-2.08907E-08 1.27980E-06
 -1      2001 1.99998E+02-5.12125E-07 6.91309E-09 1.12643E-06-7.86260E-08 8.38222E-08
 -1      2002 1.99998E+02-6.46943E-07 1.56945E-07 1.86541E-07-4.15908E-08-6.10232E-08
 -1      2003 1.99999E+02 5.93750E-04-1.28804E-05 8.44334E-04 4.48525E-05-1.34554E-04
 -1      2004 1.99998E+02 7.14073E-05-1.34197E-05 1.65747E-04-2.76405E-06 1.05344E-05
 -1      2005 1.99998E+02-5.20868E-11-3.29618E-11 1.10072E-10-2.25752E-12-2.88627E-11
 -1      2006 1.99998E+02 2.86528E-08 1.24863E-08 4.09477E-08-1.52206E-08-2.05119E-08
 -1      2007 1.99999E+02 5.96613E-04-3.46424E-04-1.15718E-03 5.69476E-06-3.05772E-05
 -1      2008 1.99998E+02 1.44344E-09 1.05183E-10 5.98352E-09-6.99574E-10 3.48835E-10
 -1      2009 2.00012E+02 4.20427E-03 1.56574E-03 4.43712E-03 1.51327E-03-2.92782E-03
 -1      2010 1.99917E+02-9.30071E-02 4.57931E-03 1.58802E-01-3.17261E-03 6.67588E-03
 -1      2011 1.99924E+02-1.17217E-01 2.99857E-03-1.67183E-01-1.53546E-03 1.51612E-02
 -1      2012 2.00012E+02 4.19394E-03 2.38342E-03-4.81530E-03-1.92238E-03-4.37577E-03
 -1      2013 1.99998E+02-1.02047E-12-5.81997E-13-1.17397E-11-2.18850E-12 2.36057E-12
 -1      2014 1.99998E+02-1.06449E-05-1.73492E-06-1.19140E-05 3.77900E-06 1.49860E-05
 -1      2015 1.99998E+02 2.88490E-12 3.34017E-13-2.29170E-11 2.43107E-12-1.21117E-12
 -1      2016 1.99998E+02 1.33595E-09-7.67120E-10 5.63176E-09-8.72377E-11 4.07601E-10
 -1      2017 1.99998E+02-8.42572E-12-6.66765E-12 7.24639E-12 1.07844E-12-1.04108E-12
 -1      2018 1.99998E+02 1.50394E-12 2.34417E-12-1.33010E-11-2.27693E-12-1.86836E-13
 -1      2019 1.99998E+02-2.10334E-11 5.98602E-12 1.41597E-12-3.92174E-15-2.04342E-12
 -1      2020 1.99608E+02-1.84601E+00-1.10636E-01-8.55156E-03 3.50237E-04 8.12580E-01
 -1      2021 1.96048E+02-1.62159E+00 2.01024E-01-2.19224E+00-2.32565E-01 8.30225E-01
 -1      2022 1.89737E+02 8.68448E+00-2.45332E+01-5.41834E+00-4.49906E-01 2.72735E+00
 -1      2023 1.99998E+02-4.50705E-10 1.87207E-10 1.52551E-09-7.73871E-11 2.34612E-10
 -1      2024 1.99998E+02-2.26446E-10 3.13338E-11 4.55279E-10 1.34134E-10-1.39497E-11
 -1      2025 1.99998E+02-3.77436E-09 3.63224E-08 1.22618E-07-8.78928E-09-7.06876E-08
 -1      2026 1.99998E+02-6.65257E-07 1.03148E-07-1.03042E-06-3.80992E-08 1.22818E-07
 -1      2027 1.99998E+02-1.12029E-09 1.41561E-10-8.27669E-10-2.23784E-10-2.33881E-10
 -1      2028 1.99998E+02-2.66762E-10 1.20246E-10 7.02755E-11-1.15335E-11-4.07077E-11
 -1      2029 1.99998E+02-1.38310E-12-9.59791E-13-1.47535E-11 2.30953E-12 4.09063E-12
 -1      2030 1.99998E+02 2.10918E-12 1.66043E-13-2.29217E-11 1.49897E-12 2.50453E-12
 -1      2031 1.99998E+02-1.76910E-12-1.14540E-12-2.37802E-11 5.56847E-13-2.27278E-12
 -1      2032 1.99998E+02-7.67492E-11 6.16385E-12 4.76929E-11 4.21324E-12-2.99123E-12
 -1      2033 1.99998E+02-4.44766E-12-3.03626E-12 1.19203E-12-7.36457E-14 3.64537E-12
 -1      2034 1.99998E+02 3.77583E-09-2.74270E-10 1.04317E-08-1.90145E-09-8.76700E-10
 -1      2035 1.99998E+02-3.21358E-11-3.14429E-13 4.84335E-11 3.65697E-11 1.09761E-11
 -1      2036 1.99998E+02 4.05238E-08 2.06559E-09 6.21963E-08-5.29077E-09-1.91760E-08
 -1      2037 2.00004E+02 9.27239E-03 1.91533E-03-2.67032E-04-1.37933E-04-5.12410E-03
 -1      2038 2.00026E+02-9.27517E-04 2.20686E-03 1.21159E-03 2.20402E-04-1.04178E-02
 -1      2039 2.00040E+02-1.05505E-01 2.95682E-02 2.15939E-03 1.95184E-03-1.13729E-02
 -1      2040 2.00007E+02-5.64558E-01 1.08258E-01-1.24657E-03 3.41140E-03 1.21661E-01
 -1      2041 1.99998E+02 3.21109E-12-3.21672E-12-6.55773E-13-4.95080E-13 6.06197E-12
 -1      2042 1.99998E+02 2.57522E-03 3.85435E-05-2.33183E-04 3.17926E-05-8.45912E-04
 -1      2043 1.99998E+02-3.64711E-12 4.78449E-12-1.78067E-11 4.06503E-12 2.32204E-12
 -1      2044 1.99998E+02-1.66308E-05-6.70046E-06-6.01911E-06 1.51281E-06 1.72327E-05
 -1      2045 1.99998E+02 7.27130E-05-3.30571E-05-2.25956E-05 1.55377E-06 4.13863E-05
 -1      2046 1.99998E+02 6.99280E-04-2.97819E-04-1.14734E-04-2.46348E-05-1.73917E-05
 -1      2047 1.99998E+02-1.53334E-11-5.87060E-13 1.48673E-11 5.86674E-12 2.32369E-12
 -1      2048 1.99998E+02-1.05275E-05-2.68018E-07-1.10442E-06 3.30425E-07 4.24120E-06
 -1      2049 1.99998E+02 1.73297E-08-1.16886E-09 2.87234E-08-2.85872E-09-6.22913E-09
 -1      2050 1.99998E+02 7.58767E-10-2.92652E-10 3.71149E-09-2.00949E-10 6.47548E-11
 -1      2051 1.99998E+02-8.30523E-11 2.36059E-12 2.71420E-10-7.66029E-11 4.33561E-11
 -1      2052 1.99998E+02-3.51749E-08-7.55074E-10-3.53696E-08 2.14043E-08-4.87852E-08
 -1      2053 1.99998E+02-3.92441E-06 7.47615E-07 2.78585E-07-5.17786E-10 4.20539E-07
 -1      2054 1.99998E+02-2.26505E-09-5.99693E-08 9.08923E-09-7.30656E-09-4.08165E-08
 -1      2055 1.91378E+02-1.92986E+00-1.66912E+00-9.07667E-01-1.01668E+00 3.07587E+00
 -1      2056 1.99998E+02-3.80218E-09-1.77225E-09 1.19277E-09 1.41184E-10 2.36201E-10
 -1      2057 1.88706E+02 3.44627E+00-2.23590E+00-1.26052E-01-1.79625E-01 3.52988E+00
 -1      2058 1.98626E+02 3.98369E+00-1.95926E+01-1.37808E+01 7.76454E-01-1.91440E+00
 -1      2059 1.93092E+02 3.46602E+00-1.87243E+01 1.23622E+01 3.57201E-01 6.42343E-01
 -1      2060 1.99998E+02 4.95890E-08-4.00634E-08-2.46545E-08-8.99146E-09-5.22526E-08
 -1      2061 1.99998E+02-2.28578E-08-1.88200E-09 2.75798E-08 6.76702E-09-4.59260E-09
 -1      2062 1.99998E+02-3.23868E-09 3.80085E-09-4.69099E-09-7.56673E-10 5.56851E-10
 -1      2063 2.41370E+02 3.96883E+01 2.51039E+01 3.20707E+01-5.51556E+00-2.76553E+01
 -1      2064 2.17685E+02 4.64828E+01 1.88396E+01 1.68258E+01-8.56073E-01-3.07357E+01
 -1      2065 1.68940E+02-8.55123E+00-1.07861E+01 3.01512E-01 3.85109E+00 5.66773E+00
 -1      2066 2.25694E+02 5.09898E+01 2.83987E+01-1.98199E+01 2.64422E+00-3.37443E+01
 -1      2067 2.44121E+02 4.02760E+01 2.58469E+01-3.10839E+01 4.78522E+00-2.83720E+01
 -1      2068 1.68206E+02-9.06072E+00-1.09279E+01-3.38779E-01-3.18511E+00 6.08918E+00
 -1      2069 1.99998E+02 3.41910E-08 5.06454E-08 1.09720E-07-2.47477E-08 4.37416E-08
 -1      2070 1.99998E+02 5.75640E-09-2.86183E-09-2.04263E-08 6.00877E-09-3.10207E-09
 -1      2071 1.99998E+02-5.38047E-09 1.19414E-09 8.35190E-09-7.62878E-10-7.27402E-09
 -1      2072 1.99998E+02 9.15908E-09-2.46584E-08 2.06489E-07-1.13174E-08-1.20459E-07
 -1      2073 1.99998E+02-1.17165E-08-3.11901E-08-3.03532E-07 6.58837E-08 3.96921E-08
 -1      2074 1.99998E+02 3.92186E-08 1.93416E-08 7.04603E-09-5.42466E-09-4.86362E-08
 -1      2075 2.19493E+02 5.35670E+01 2.85144E+01 1.17965E+01 1.05351E+00-3.34454E+01
 -1      2076 2.16120E+02 5.22300E+01 2.43245E+01 3.34689E+00 2.91893E-01-3.16982E+01
 -1      2077 1.94895E+02 1.05734E+01-1.87286E+01 9.10971E+00-1.03164E+00-4.76556E-01
 -1      2078 2.18019E+02 5.14162E+01 2.64542E+01-3.50995E+00 9.91585E-01-3.14637E+01
 -1      2079 2.16554E+02 4.97026E+01 1.88235E+01-1.22360E+01-6.22745E-01-2.68607E+01
 -1      2080 1.90275E+02 1.50633E+01-1.81482E+01 9.97932E-03-5.55913E-01 6.19865E-02
 -1      2081 1.91497E+02 8.47401E+00-2.23950E+01-9.75818E+00 4.07509E-01 1.18385E+00
 -1      2082 1.99998E+02 1.10557E-07 2.82659E-08 2.62301E-07-3.41375E-08 7.19092E-08
 -1      2083 1.99998E+02 4.87509E-09 2.12281E-08-2.67182E-07 1.22190E-08-1.81238E-07
 -1      2084 1.99998E+02-3.32135E-08-5.84543E-08-2.07917E-08-8.60819E-09-3.12361E-08
 -1      2085 1.99998E+02 2.24693E-08 5.04326E-08 1.57803E-07-1.95231E-08-4.87383E-08
 -1      2086 1.99998E+02 8.48135E-10-3.64306E-08-3.13217E-07 2.59682E-08-7.41799E-09
 -1      2087 1.99998E+02-2.82655E-08-3.53503E-08-9.14042E-09-3.12047E-09-2.04907E-08
 -1      2088 1.99998E+02-3.69835E-08-5.14076E-08-4.18791E-09 5.50904E-09-2.29260E-08
 -1      2089 1.89486E+02-1.23620E+00-9.39616E-02-7.83495E-01-2.42140E-01 1.24594E+00
 -1      2090 1.84546E+02 2.21605E+00 2.87362E+00-6.97586E-01-2.36293E+00 2.10467E+00
 -1      2091 1.83655E+02-7.36667E-01-4.79028E+00 5.03498E+00-5.57243E-01 2.87922E+00
 -1      2092 1.95920E+02-4.08118E-01 3.72092E-01-1.21135E+00 2.54776E-02 5.76132E-01
 -1      2093 1.91155E+02-7.30981E-01 1.51247E-01-1.39462E+00-2.60865E-01 6.37306E-01
 -1      2094 1.92680E+02-1.86208E+00-7.66358E-02-1.83533E+00-6.72469E-01 1.04744E+00
 -1      2095 1.99296E+02-1.21292E-01 8.36345E-02-4.07466E-01 5.02757E-02 2.98235E-02
 -1      2096 1.97572E+02-2.06267E-01 1.67463E-01-6.07341E-01-6.36193E-02 1.75067E-01
 -1      2097 1.98061E+02-1.01011E+00 3.70614E-01-1.43184E+00-1.50878E-01 4.52879E-01
 -1      2098 1.99970E+02-3.14296E-02 1.05220E-02-7.34337E-02 1.77235E-04-8.00920E-03
 -1      2099 1.99650E+02-4.25950E-02 3.59676E-02-1.18551E-01 7.12858E-03 2.13762E-02
 -1      2100 1.99801E+02-2.53367E-01 3.86955E-02-4.25609E-01-4.23191E-02 4.59855E-02
 -1      2101 2.00027E+02 7.51795E-03 6.94573E-03-9.39416E-03 5.55379E-03-9.13355E-03
 -1      2102 2.00002E+02-1.85149E-03-8.91522E-04-1.22059E-02 8.01095E-03-1.13350E-02
 -1      2103 1.99991E+02-4.33385E-02 2.77029E-03-9.30795E-02 7.18013E-03-3.05107E-03
 -1      2104 2.00014E+02 1.59131E-03 2.84589E-04 2.43670E-03 3.14150E-05-2.15193E-03
 -1      2105 2.00024E+02 1.21146E-03 9.90875E-04 3.23828E-03 1.26271E-03-2.79106E-03
 -1      2106 2.00032E+02 6.56770E-03 7.14785E-03-5.06138E-03 1.35839E-03-9.64050E-03
 -1      2107 2.00002E+02 4.23755E-04-7.45637E-04 1.77215E-03-1.25423E-04-5.15800E-04
 -1      2108 2.00009E+02 6.26698E-04-8.13932E-04 1.72242E-03 1.25211E-04-5.18664E-04
 -1      2109 2.00007E+02 2.50045E-03 7.19690E-04 3.49503E-03 1.24641E-03-1.89944E-03
 -1      2110 1.99999E+02 1.89048E-04 4.34648E-06 3.59672E-04-1.06471E-05-3.46908E-05
 -1      2111 2.00000E+02 1.54307E-04-3.54605E-04 6.60438E-04-5.86295E-06-2.04902E-04
 -1      2112 1.99999E+02 1.18630E-03-6.51115E-04 1.95308E-03 1.49770E-04-5.26235E-04
 -1      2113 1.99998E+02 6.91475E-06-7.93356E-06 6.72170E-05 8.54486E-06 3.09281E-05
 -1      2114 1.99998E+02 1.95937E-05-1.07995E-05 9.57475E-05-8.31582E-06 2.50537E-05
 -1      2115 1.99998E+02 2.42957E-04 4.65806E-05 4.39187E-04 8.33471E-06-1.05553E-04
 -1      2116 1.99998E+02-1.49018E-05-6.38565E-06-1.63893E-07-7.37243E-06 1.19667E-05
 -1      2117 1.99998E+02-2.99351E-06 9.64811E-06 5.67628E-07-9.81220E-06 1.88073E-05
 -1      2118 1.99998E+02 2.21123E-05-3.62894E-06 8.52531E-05-6.31181E-06 2.57493E-05
 -1      2119 1.99998E+02-2.94898E-06 7.00608E-07-6.46057E-06-2.98724E-07 2.63982E-06
 -1      2120 1.99998E+02-3.68551E-06-5.26170E-08-8.96578E-06-1.50761E-06 3.45560E-06
 -1      2121 1.99998E+02-1.62848E-05-6.06374E-06-9.94320E-06-3.23497E-06 1.35429E-05
 -1      2122 1.99998E+02-1.35559E-06 3.47260E-08-1.91602E-06-4.48211E-08 5.53000E-07
 -1      2123 1.99998E+02-1.56580E-06 7.99069E-07-3.21930E-06-2.91539E-07 1.29610E-06
 -1      2124 1.99998E+02-5.68292E-06 1.35684E-06-8.46728E-06-1.47863E-06 2.46728E-06
 -1      2125 1.99998E+02-1.62387E-07 1.01681E-07-4.84609E-07-1.15846E-08 2.87799E-08
 -1      2126 1.99998E+02-3.27599E-07 6.59809E-08-5.90833E-07-3.22230E-08-4.73975E-08
 -1      2127 1.99998E+02-1.75671E-06-2.89562E-07-2.41807E-06-9.28270E-08 8.65797E-07
 -1      2128 1.99998E+02 2.70405E-09 1.45348E-08 5.27565E-09 5.45198E-09-3.99640E-08
 -1      2129 1.99998E+02-2.22163E-08 5.72069E-10-4.31883E-08 2.42239E-08-3.71338E-09
 -1      2130 1.99998E+02-3.28061E-07-4.64839E-08-4.34961E-07-1.48690E-09 7.69029E-08
 -1      2131 1.99998E+02 1.75682E-08 6.18938E-10 4.56531E-08-1.52650E-09-1.61688E-08
 -1      2132 1.99998E+02 2.06219E-08 1.77653E-08 6.60754E-08 2.43983E-09-2.77731E-08
 -1      2133 1.99998E+02 1.89736E-08 3.08395E-08 5.50320E-08-4.28596E-09-4.40448E-08
 -1      2134 1.99998E+02 6.62832E-09-2.77993E-09 2.74406E-08 7.25840E-12-4.95692E-09
 -1      2135 1.99998E+02 1.01173E-08-3.57294E-10 3.17425E-08 2.26481E-09-4.38600E-09
 -1      2136 1.99998E+02 2.31695E-08 1.63565E-09 6.99368E-08 2.34397E-09-1.47464E-08
 -1      2137 1.99998E+02 2.43190E-09-1.44472E-09 8.92233E-09-1.58194E-10-4.41240E-10
 -1      2138 1.99998E+02 3.60139E-09-2.00848E-09 1.26434E-08 1.07295E-09-2.53138E-09
 -1      2139 1.99998E+02 1.07734E-08-5.38024E-09 3.36339E-08 8.86357E-10-3.29449E-09
 -1      2140 1.99998E+02 7.81378E-10-4.42373E-10 2.61238E-09-1.09667E-10 2.71814E-11
 -1      2141 1.99998E+02 1.00628E-09-8.71193E-10 3.67639E-09 6.36235E-10-3.55130E-10
 -1      2142 1.99998E+02 2.62171E-09-2.02035E-09 1.07765E-08 4.42670E-10 3.28249E-10
 -1      2143 1.99998E+02 2.13798E-10-1.04315E-10 5.96755E-10 1.94548E-11 2.00899E-11
 -1      2144 1.99998E+02 1.73155E-10-2.26174E-10 7.95082E-10 9.48605E-11-1.92234E-10
 -1      2145 1.99998E+02 7.04882E-10-3.06754E-10 2.90998E-09-1.30865E-10-1.54540E-10
 -1      2146 1.99998E+02 1.41035E-10-4.01229E-11 1.22577E-10 5.10313E-11-9.27567E-12
 -1      2147 1.99998E+02 2.52473E-10 2.01375E-11 2.56285E-10 6.78874E-11 1.01581E-11
 -1      2148 1.99998E+02 3.80347E-10-5.25262E-11 1.08841E-09 1.76200E-11-1.30974E-11
 -1      2149 1.99998E+02 2.94829E-11-9.38640E-12 2.32457E-11 7.15060E-12-5.58003E-12
 -1      2150 1.99998E+02 2.89020E-11-1.17844E-11 3.85858E-11 3.17315E-11-5.13894E-12
 -1      2151 1.99998E+02 5.45172E-11-5.23298E-11 1.12964E-10 3.67413E-11 1.92498E-11
 -1      2152 1.99998E+02 7.20381E-12-1.91192E-13-9.59693E-12 3.86818E-12-3.87780E-12
 -1      2153 1.99998E+02 9.79363E-12-5.25527E-12-9.31682E-12 8.31411E-12-4.36971E-12
 -1      2154 1.99998E+02 2.53620E-11-2.58262E-12 7.14123E-12-1.14955E-11-6.58461E-12
 -1      2155 1.99998E+02 2.53006E-12 1.42282E-12-1.47557E-11 1.88892E-12-5.96186E-13
 -1      2156 1.99998E+02 2.67271E-12 2.38069E-12-1.28390E-11 2.45819E-12-2.16434E-12
 -1      2157 1.99998E+02 4.77932E-12-4.96633E-12-2.04101E-11 1.06164E-12-2.03218E-12
 -1      2158 1.99998E+02-8.42215E-14 2.18280E-13-9.91141E-12 1.24638E-12 9.48684E-13
 -1      2159 1.99998E+02 3.67163E-13-2.16903E-12-9.98602E-12 1.27984E-12-1.33676E-12
 -1      2160 1.99998E+02 3.19975E-12 2.00742E-12-2.22252E-11 3.90805E-12-2.43653E-12
 -1      2161 1.99998E+02-2.10680E-12 4.92541E-12-6.78848E-12 1.24031E-14 1.74579E-12
 -1      2162 1.99998E+02-2.59322E-12 6.15234E-13-8.10042E-12-1.31547E-12 1.38500E-12
 -1      2163 1.99998E+02-9.19189E-13 2.88629E-12-1.61957E-11 2.45175E-12 2.32954E-12
 -1      2164 1.99998E+02-4.84060E-12-8.04741E-12-3.61086E-12-1.13009E-12 2.21735E-12
 -1      2165 1.99998E+02-1.37393E-12 2.56135E-13-7.52733E-12-6.94746E-13 5.36783E-12
 -1      2166 1.99998E+02-2.25086E-12-4.57029E-12-8.70473E-12-2.07915E-12 8.70614E-13
 -1      2167 1.99998E+02 1.05393E-12 1.96986E-12-1.11014E-12-4.49033E-13-3.51185E-13
 -1      2168 1.99998E+02-5.56544E-12-1.73929E-12-1.36556E-12 7.16021E-14-5.31284E-13
 -1      2169 1.99998E+02-1.63572E-12 6.70995E-13-1.96970E-12 2.12826E-12-1.21331E-12
 -1      2170 1.99998E+02-5.45383E-12-1.66518E-12 5.87163E-12 2.51012E-13 2.57590E-12
 -1      2171 1.99998E+02-5.00042E-12-1.19635E-12 1.65198E-12 1.36119E-12 5.42743E-13
 -1      2172 1.99998E+02-2.91300E-12 9.71903E-13 3.88227E-12 1.09685E-12-3.18872E-15
 -1      2173 1.99998E+02-8.21277E-12 3.77420E-12 2.32438E-11 1.89075E-12 3.86859E-12
 -1      2174 1.99998E+02-3.93275E-12 3.34164E-13 1.81649E-11 1.70013E-12-2.15788E-12
 -1      2175 1.99998E+02-8.26815E-12-3.05058E-12 1.70119E-11-1.09713E-13 7.34281E-13
 -1      2176 1.99998E+02-2.18356E-11-3.12108E-11 7.09738E-11-4.83974E-12-2.81558E-11
 -1      2177 1.99998E+02-2.47553E-11-2.38782E-11 4.89694E-11-7.92154E-12-4.76895E-13
 -1      2178 1.99998E+02-3.31297E-11-1.52593E-12 7.80465E-11 2.05655E-12-3.96165E-12
 -1      2179 1.99998E+02-2.84830E-11-2.99524E-11 2.24925E-10 5.94144E-12 8.34661E-11
 -1      2180 1.99998E+02-7.83349E-11-3.69782E-11 1.05088E-10-2.33523E-11 2.35746E-11
 -1      2181 1.99998E+02-1.76643E-10-1.21653E-10 1.74844E-10-1.58953E-11 1.04247E-12
 -1      2182 1.99998E+02-1.52122E-09-2.21426E-09 2.81595E-09 1.97114E-09 1.45577E-10
 -1      2183 1.99998E+02-7.01491E-10-4.31329E-10 5.19264E-10 4.47386E-10-1.45657E-10
 -1      2184 1.99998E+02-4.37654E-10-4.14776E-10 6.59389E-10 1.04924E-10-1.41825E-10
 -1      2185 1.99998E+02-3.13610E-08-2.01540E-08 2.11133E-10-7.03352E-09-5.72667E-09
 -1      2186 1.84364E+02 2.39260E+00 3.17254E+00 6.32019E-01 2.23321E+00 2.06619E+00
 -1      2187 1.88508E+02-1.40441E+00-4.94175E-01 9.87886E-01 4.25676E-02 1.58869E+00
 -1      2188 1.82092E+02-1.96882E+00-6.19528E+00-5.58303E+00 1.00606E+00 3.76723E+00
 -1      2189 1.91496E+02-5.08815E-01 5.79692E-01 1.27796E+00 3.36105E-01 5.97828E-01
 -1      2190 1.96356E+02-5.99052E-01 1.09010E-01 1.07656E+00 6.79161E-02 3.04257E-01
 -1      2191 1.92435E+02-1.83509E+00-8.88310E-01 1.45159E+00 9.14923E-01 1.78602E+00
 -1      2192 1.97494E+02-2.03621E-01 1.49314E-01 5.01899E-01-1.10162E-02 7.81267E-02
 -1      2193 1.99266E+02-1.06151E-01 7.13417E-02 4.20699E-01-3.74447E-02 4.59123E-02
 -1      2194 1.97899E+02-1.02754E+00 1.74545E-01 1.46361E+00 1.62090E-01 4.95665E-01
 -1      2195 1.99624E+02-4.28098E-02 2.32697E-02 1.27094E-01-5.70580E-03 2.56387E-02
 -1      2196 1.99947E+02-2.91985E-02 6.89758E-04 7.81475E-02-3.66778E-03 1.14959E-03
 -1      2197 1.99769E+02-2.67953E-01-2.90571E-03 4.26635E-01 3.78482E-02 5.84805E-02
 -1      2198 2.00027E+02-1.38439E-03-1.77515E-03 1.38491E-02-2.99472E-03-7.85578E-03
 -1      2199 2.00028E+02 9.18176E-04 1.96735E-03 9.17151E-03-1.38612E-03-8.29503E-03
 -1      2200 2.00004E+02-3.55376E-02-1.00699E-02 7.95157E-02-4.91178E-03 1.06762E-02
 -1      2201 2.00024E+02 2.88873E-03 2.32504E-03-4.01674E-03-1.81115E-03-3.51968E-03
 -1      2202 2.00016E+02 2.36918E-03-2.66100E-04-2.52491E-03-1.18475E-04-2.54157E-03
 -1      2203 2.00029E+02 3.20764E-03 5.21079E-03 4.75448E-03-1.30582E-03-6.89362E-03
 -1      2204 2.00010E+02 8.94670E-04-9.59652E-04-2.01024E-03-1.07195E-04-6.84393E-04
 -1      2205 2.00002E+02 7.48491E-04-1.88859E-04-1.82703E-03 8.16948E-06-2.85822E-04
 -1      2206 2.00009E+02 3.42210E-03 9.21087E-04-3.84513E-03-1.46926E-03-2.93478E-03
 -1      2207 2.00001E+02 2.80902E-04-1.57293E-04-6.33049E-04 4.97255E-05-1.32360E-05
 -1      2208 1.99999E+02 1.04256E-04-9.57374E-05-5.68733E-04 7.10608E-05-4.68236E-05
 -1      2209 2.00000E+02 1.15080E-03-5.96918E-04-2.32000E-03-1.59519E-04-4.71878E-04
 -1      2210 1.99998E+02 4.50449E-05-2.82065E-05-1.46412E-04-8.56712E-07-2.73572E-05
 -1      2211 1.99998E+02 2.00688E-05-2.29744E-05-9.56900E-05 1.83396E-05 8.58664E-06
 -1      2212 1.99998E+02 2.85990E-04 4.93988E-05-5.42689E-04-3.25795E-05-5.89748E-05
 -1      2213 1.99998E+02-4.16107E-06-3.86679E-06-8.80943E-06 4.55067E-06 7.15334E-06
 -1      2214 1.99998E+02-3.06935E-06-1.79275E-06-1.60274E-06-1.82343E-07 9.79945E-06
 -1      2215 1.99998E+02 2.71694E-05 2.57870E-06-8.87800E-05 1.30229E-05 3.64823E-06
 -1      2216 1.99998E+02-8.05547E-07 3.14467E-06 5.82721E-06 2.18909E-07 3.96363E-06
 -1      2217 1.99998E+02-2.67074E-06-1.16135E-06 3.82603E-06 4.89415E-07 1.58673E-06
 -1      2218 1.99998E+02-1.10249E-05-2.07675E-06 8.09191E-07 9.66178E-07 1.20742E-05
 -1      2219 1.99998E+02-1.15623E-06 3.13235E-07 3.13672E-06 8.41680E-08 7.77065E-07
 -1      2220 1.99998E+02-7.57257E-07-1.78725E-07 2.37525E-06-1.69690E-07 6.55696E-07
 -1      2221 1.99998E+02-5.91904E-06 1.99039E-07 6.71729E-06 1.03023E-06 3.14246E-06
 -1      2222 1.99998E+02-2.49278E-07 1.34759E-07 8.75114E-07-3.07756E-08 2.55127E-07
 -1      2223 1.99998E+02-1.72105E-07-1.61773E-08 5.82547E-07-5.21791E-08 4.52680E-08
 -1      2224 1.99998E+02-1.45393E-06-2.88241E-07 2.62561E-06 3.13230E-07 6.27715E-07
 -1      2225 1.99998E+02 5.48758E-09-1.68775E-08 1.73362E-07-1.91566E-08-4.20148E-08
 -1      2226 1.99998E+02 1.02419E-08 3.82293E-09 1.35415E-07-1.63393E-08-3.77221E-08
 -1      2227 1.99998E+02-1.71627E-07-6.90013E-08 6.49872E-07-4.03662E-08 7.46022E-08
 -1      2228 1.99998E+02 9.43383E-09 1.49601E-08 2.16613E-08-8.18947E-09-3.55312E-09
 -1      2229 1.99998E+02 5.73965E-09 1.36466E-09 1.97016E-08-5.80863E-09-8.05435E-09
 -1      2230 1.99998E+02 2.77314E-08 2.97477E-08 1.35454E-07-1.50295E-08-3.37483E-08
 -1      2231 1.99998E+02 6.79578E-09 2.11485E-09 5.03307E-09-1.54522E-10-2.06513E-10
 -1      2232 1.99998E+02 3.43983E-09 4.04310E-10 5.18176E-09-1.11764E-09-1.38297E-09
 -1      2233 1.99998E+02 2.10781E-08 4.97966E-09 2.02536E-08-7.60039E-09-1.00773E-08
 -1      2234 1.99998E+02-3.86598E-10-2.56154E-10 2.97465E-09 2.61580E-10 4.44735E-11
 -1      2235 1.99998E+02-7.11009E-10 3.11695E-10 2.65820E-09 1.92208E-10-1.13556E-10
 -1      2236 1.99998E+02 5.87319E-09 1.11150E-09 9.18517E-09-3.15387E-09-9.07906E-10
 -1      2237 1.99998E+02-9.37369E-10-1.30372E-10 1.96935E-09 4.08049E-10 2.45277E-10
 -1      2238 1.99998E+02-8.08357E-10 3.27473E-10 1.49497E-09-5.81226E-11 2.75858E-10
 -1      2239 1.99998E+02 9.38711E-10 1.45705E-10 4.93031E-09-4.37203E-11 3.43004E-10
 -1      2240 1.99998E+02-4.02446E-10 4.43052E-11 8.56747E-10 8.49573E-11 7.38393E-11
 -1      2241 1.99998E+02-2.87398E-10 1.24891E-10 7.19897E-10-1.93374E-12 1.30072E-10
 -1      2242 1.99998E+02-7.99456E-10 4.41307E-10 2.47924E-09-2.94415E-10 4.22528E-10
 -1      2243 1.99998E+02-2.90626E-10 3.05576E-12 3.19836E-10 6.21171E-11 3.30519E-11
 -1      2244 1.99998E+02-1.93913E-10 3.27322E-11 1.97280E-10 8.99124E-11 5.53303E-12
 -1      2245 1.99998E+02-1.00178E-10 1.91855E-10 8.82355E-10 8.92843E-11 9.15775E-11
 -1      2246 1.99998E+02-3.95979E-11 1.90316E-11 7.16725E-11 3.64344E-11 1.60028E-11
 -1      2247 1.99998E+02-3.33512E-11 1.67875E-11 3.85824E-11 2.18798E-13-4.49885E-12
 -1      2248 1.99998E+02-9.25106E-11 9.58368E-11 1.97164E-10 7.52831E-11-1.82406E-11
 -1      2249 1.99998E+02-2.14363E-11-7.03032E-12 3.72814E-12 2.00472E-12-1.51440E-12
 -1      2250 1.99998E+02-1.17786E-11 7.75480E-12-8.46457E-13 1.08120E-12 2.81883E-12
 -1      2251 1.99998E+02-5.26001E-11 1.65442E-11 5.07987E-11-1.44725E-11 5.62928E-13
 -1      2252 1.99998E+02-8.72212E-12-9.71534E-13-5.95209E-12 6.15478E-13 1.57846E-12
 -1      2253 1.99998E+02-1.46242E-12 3.50430E-12-1.15243E-11 1.20791E-12-2.58294E-14
 -1      2254 1.99998E+02-1.44176E-11 1.29543E-13-1.43685E-11-2.18553E-12 8.29945E-13
 -1      2255 1.99998E+02 5.33256E-14-1.57202E-12-1.41694E-11-1.31966E-12-2.26626E-12
 -1      2256 1.99998E+02-8.39078E-13-5.60291E-12-1.22205E-11-1.89322E-12-3.30641E-12
 -1      2257 1.99998E+02-5.85378E-12-4.20976E-12-1.93524E-11 1.80541E-12-1.73072E-12
 -1      2258 1.99998E+02 5.82739E-12-2.02564E-12-1.12963E-11-6.02405E-13-4.81663E-12
 -1      2259 1.99998E+02 2.55491E-12 2.51205E-12-8.05060E-12-1.90772E-12-2.90027E-12
 -1      2260 1.99998E+02-4.61446E-13 3.24111E-12-1.64108E-11-6.87042E-13-2.53286E-12
 -1      2261 1.99998E+02-3.12211E-13-2.15031E-12-5.74772E-12-1.03537E-12-6.98398E-12
 -1      2262 1.99998E+02-7.00435E-12-1.47741E-11-6.83663E-12-8.83255E-13-5.53317E-12
 -1      2263 1.99998E+02 2.52185E-13-3.15777E-12-9.26158E-12-1.48620E-12-3.40356E-12
 -1      2264 1.99998E+02 8.17812E-13-4.72784E-12-5.75813E-12-1.79041E-12 3.02673E-15
 -1      2265 1.99998E+02 1.86373E-12 4.60577E-13-3.10453E-12 1.40751E-12-2.20437E-12
 -1      2266 1.99998E+02 2.83576E-12-1.83547E-12-6.13730E-12-6.48586E-13-1.00882E-12
 -1      2267 1.99998E+02 4.09781E-12-3.46742E-13 3.14328E-12-1.36240E-12-2.88516E-12
 -1      2268 1.99998E+02-9.61660E-13-2.23414E-12 5.42567E-12-1.15951E-12-6.01360E-13
 -1      2269 1.99998E+02-6.22083E-13-4.38169E-12-1.88984E-12 3.72940E-13-2.69826E-12
 -1      2270 1.99998E+02-1.60536E-12-5.44667E-12 4.32252E-13 1.01199E-12-1.74630E-13
 -1      2271 1.99998E+02-5.45052E-12 8.74209E-12-1.62189E-12-2.69068E-12 5.88694E-12
 -1      2272 1.99998E+02-2.48529E-12 2.82772E-12 5.24155E-12 4.46149E-13 6.47646E-14
 -1      2273 1.99998E+02-2.53613E-11 1.00351E-11-1.57607E-11 3.67497E-12 6.50060E-12
 -1      2274 1.99998E+02-3.72824E-11 3.24327E-11-2.21543E-11-4.73322E-12 3.89378E-11
 -1      2275 1.99998E+02-4.00417E-11 1.48873E-13-4.76012E-12 7.94375E-12-7.14443E-13
 -1      2276 1.99998E+02-9.10540E-11 5.58769E-11-8.79114E-11-6.99143E-13-1.35944E-12
 -1      2277 1.99998E+02-9.36417E-11 1.70899E-10-9.05999E-11-7.63105E-11 2.90711E-11
 -1      2278 1.99998E+02-6.13689E-11 2.75916E-11-6.51860E-11 7.01422E-12-8.45185E-12
 -1      2279 1.99998E+02-7.25098E-10 6.16393E-10 6.96174E-10 6.82529E-10 5.09053E-11
 -1      2280 1.99998E+02-5.21433E-09-3.58908E-09 1.51960E-09-9.52526E-09-2.35619E-09
 -1      2281 1.99998E+02-5.53067E-10-1.83865E-10 5.05876E-11-9.17579E-11-1.37023E-09
 -1      2282 1.99998E+02 1.18326E-09 7.50961E-09-2.82226E-09 1.85722E-09-8.63424E-09
 -1      2283 1.99998E+02 1.72073E-11-6.39763E-12-6.49207E-12 9.31789E-12 6.05352E-12
 -1      2284 1.99998E+02 4.03424E-11 4.66918E-11 5.12543E-11 7.98856E-12 1.32448E-11
 -1      2285 1.99998E+02 2.69915E-12 5.54201E-12-2.30998E-11 8.83353E-13 1.95355E-12
 -1      2286 1.99998E+02 6.25042E-12 1.31212E-11-1.75854E-11 1.85830E-12-1.34548E-12
 -1      2287 1.99998E+02-2.78343E-12 3.61781E-12-9.20812E-12-9.15805E-13 1.44306E-12
 -1      2288 1.99998E+02-1.29000E-12-1.53843E-13 1.16883E-12-6.94545E-14 2.05882E-12
 -1      2289 1.99998E+02-1.60671E-12-1.48917E-12-4.23044E-12 4.44927E-13 3.69653E-14
 -1      2290 1.99998E+02-7.36240E-12-3.08559E-12-8.52839E-12 1.77049E-12-2.52621E-13
 -1      2291 1.99998E+02-6.39878E-12-3.68808E-12-1.14140E-11 4.52210E-14 3.02342E-12
 -1      2292 1.99998E+02 6.35812E-13-3.02764E-12-6.63846E-12 1.00411E-12 3.62928E-12
 -1      2293 1.99998E+02-4.26160E-12-3.16418E-13 5.36351E-12 1.69500E-12-8.02411E-13
 -1      2294 1.99998E+02-1.95990E-11 2.70780E-13 6.34873E-12 5.02910E-13 3.01597E-12
 -1      2295 1.99998E+02-7.37302E-13-2.76959E-12 8.67259E-13 1.45015E-12-9.47834E-13
 -1      2296 1.99998E+02-1.04851E-12-9.38078E-13 1.25596E-12 1.45991E-12-8.88789E-13
 -1      2297 1.99998E+02-1.08615E-11-3.21529E-12 7.58127E-12 3.13285E-12 5.26397E-12
 -1      2298 1.99998E+02-1.68989E-10-1.74205E-12 2.72651E-10 5.19521E-11 1.05239E-10
 -1      2299 1.99998E+02-1.57209E-10 2.59932E-11 1.13680E-10 1.94305E-11-2.17994E-11
 -1      2300 1.99998E+02-6.67294E-10 5.52974E-11-1.93758E-10-7.92585E-11-1.52090E-10
 -1      2301 1.99998E+02-6.64368E-10-4.85585E-11 5.03472E-11-2.00308E-10-7.17775E-11
 -1      2302 1.99998E+02-2.04202E-09-9.13403E-11 4.64540E-10-3.24306E-12-1.06830E-11
 -1      2303 1.99998E+02-5.18703E-11-7.09307E-11 7.73963E-10-3.18688E-12 4.31960E-11
 -1      2304 1.99998E+02 3.80534E-10 2.65221E-10 1.30385E-09-2.06744E-10-6.73400E-11
 -1      2305 1.99998E+02 3.65847E-10-1.15551E-10 2.08338E-09-5.88512E-11 2.15379E-10
 -1      2306 1.99998E+02 6.63595E-10-4.65604E-11 2.20092E-09-9.78248E-11 1.77836E-10
 -1      2307 1.99998E+02 1.29281E-09 1.12725E-10 4.40817E-09-1.70797E-10 1.40990E-10
 -1      2308 1.99998E+02-2.78732E-12-3.17770E-12-2.28303E-11 2.22032E-12 5.60333E-13
 -1      2309 1.99998E+02-1.57453E-12-8.37372E-13-2.10956E-11 2.84297E-12 6.88032E-13
 -1      2310 1.99998E+02-2.93487E-12 7.41554E-13-1.99375E-11 8.06663E-15 1.18197E-12
 -1      2311 1.99998E+02-2.91340E-12-1.21875E-12-1.82886E-11-1.42701E-12 4.76171E-12
 -1      2312 1.99998E+02 1.79109E-12 5.33882E-12-2.26782E-11 1.04360E-12-8.43251E-13
 -1      2313 1.99998E+02 1.26332E-08-1.08394E-09 2.24032E-08-1.52189E-09-1.40235E-09
 -1      2314 1.99998E+02 1.98100E-08-4.03986E-09 3.71050E-08-1.90264E-09-4.72655E-09
 -1      2315 1.99998E+02 1.72646E-09-8.52565E-10 7.91167E-09-6.68496E-10 2.16382E-10
 -1      2316 1.99998E+02 4.09299E-09-1.63818E-09 1.29298E-08-5.31980E-10-9.40577E-11
 -1      2317 1.99998E+02 9.12972E-09-2.45337E-10 1.70663E-08-2.26115E-09-2.43157E-09
 -1      2318 1.99999E+02-1.35666E-01 1.13884E-02 8.25622E-02-1.15536E-04-1.45432E-03
 -1      2319 2.00081E+02-4.14119E-02 4.84789E-03 1.66744E-02 8.79823E-04-4.96611E-03
 -1      2320 2.00041E+02 8.31136E-04 5.65255E-03 1.06483E-02-2.45293E-03-8.89448E-03
 -1      2321 2.00021E+02 6.88175E-03 4.15464E-03-2.78824E-03-4.00808E-04-8.03421E-03
 -1      2322 2.00065E+02-3.22051E-02 2.55620E-03-9.14459E-04 1.82974E-03-8.55364E-03
 -1      2323 1.99997E+02 1.14483E-03-5.85276E-04 4.63365E-04 5.75381E-05-2.90743E-04
 -1      2324 1.99999E+02 2.61140E-03-5.27679E-04 1.28183E-03 8.67321E-05-8.76813E-04
 -1      2325 2.00002E+02 4.92235E-03 1.62225E-04 1.62077E-03-2.66793E-04-2.35268E-03
 -1      2326 2.00007E+02 5.58136E-03 3.14979E-04 1.11286E-03 1.36663E-03-3.23322E-03
 -1      2327 2.00001E+02 5.09629E-03 4.75263E-04-3.42577E-05 5.04093E-05-2.01654E-03
 -1      2328 2.00173E+02-2.34782E-01 1.06963E-01-1.06041E-01 9.52650E-03 4.71253E-02
 -1      2329 1.99851E+02-5.82623E-01 5.10311E-02-3.26649E-01-3.26514E-02 1.17041E-01
 -1      2330 1.98260E+02-1.93057E+00 2.65503E-01-9.13409E-01-1.11221E-01 7.64752E-01
 -1      2331 1.99683E+02-1.12218E+00 1.61721E-01-4.31887E-01-2.96966E-02 3.91761E-01
 -1      2332 1.99815E+02-1.18184E+00-9.17616E-02 1.30996E-03 5.87135E-03 4.25689E-01
 -1      2333 1.99998E+02-1.12402E-05-2.96224E-07 3.57485E-06 1.15207E-06 4.35180E-06
 -1      2334 1.99998E+02-6.47863E-06 7.66219E-07 2.01511E-06 4.08593E-08 3.03451E-06
 -1      2335 1.99998E+02-1.26977E-05-1.47014E-06-1.18758E-05 2.76781E-06 1.59412E-05
 -1      2336 1.99998E+02-1.83269E-05-4.98352E-06 3.22662E-06 2.36857E-07 1.20733E-05
 -1      2337 1.99998E+02-1.44992E-05-3.11779E-06-3.73046E-06 8.67808E-07 9.09797E-06
 -1      2338 1.99998E+02-7.09773E-07 9.59010E-08 6.95787E-07-3.47767E-08 2.79806E-08
 -1      2339 1.99998E+02-1.95841E-07 3.86540E-08 2.93356E-07 1.56748E-09-9.36852E-09
 -1      2340 1.99998E+02-2.38401E-07 4.23089E-08 1.63587E-07-5.15033E-09-6.52602E-08
 -1      2341 1.99998E+02 1.46972E-08 4.78352E-08 1.98879E-07-2.69900E-08-6.53916E-08
 -1      2342 1.99998E+02 3.69486E-08 2.64621E-08 8.53079E-08-1.14586E-08-4.37615E-08
 -1      2343 1.99998E+02 7.82400E-04 6.25814E-05-5.49517E-04-2.02038E-05-1.45289E-04
 -1      2344 1.99998E+02 2.67373E-04-1.19486E-04-1.81504E-04 4.08712E-05 2.60048E-07
 -1      2345 1.99998E+02 1.01583E-04-1.48431E-05-1.06227E-04 8.67107E-06 2.54510E-05
 -1      2346 1.99998E+02 3.68022E-06-1.96475E-05-2.49014E-05 6.39573E-07 2.64908E-05
 -1      2347 1.99998E+02 2.56879E-04-1.23314E-04-3.95193E-05-9.55757E-07 6.51654E-05
 -1      2348 1.94577E+02-2.05975E+00-1.12780E+00 4.37298E-01 6.71923E-01 2.60957E+00
 -1      2349 1.95799E+02-3.26370E+00-3.35536E-01 1.01865E+00 1.03013E-01 1.86121E+00
 -1      2350 1.87114E+02-7.75159E-01-2.96332E+00 2.34078E-01 2.61155E-01 3.59848E+00
 -1      2351 1.92401E+02-7.65856E-01-2.92971E+00-1.10498E-01-1.54638E-01 3.55064E+00
 -1      2352 1.79508E+02 4.22074E+00-4.39088E+00-2.23493E+00-3.94147E-02 3.89263E+00
 -1      2353 1.80615E+02 1.66066E+00-5.45272E+00-2.28436E+00-4.78728E-01 4.34918E+00
 -1      2354 1.99998E+02-8.73520E-11-4.13688E-11 6.81368E-11 1.17756E-11 3.80712E-12
 -1      2355 1.99998E+02-4.43668E-11 1.77082E-12-8.95244E-12 1.15476E-12-5.28260E-12
 -1      2356 1.99998E+02-1.91351E-11 7.73175E-11 2.34202E-10 2.64398E-11 1.15757E-11
 -1      2357 1.99998E+02-2.33036E-11 1.41999E-11 1.54966E-10 1.45763E-12-1.57519E-11
 -1      2358 1.99998E+02-7.43987E-11-3.43403E-12 1.74866E-10 2.88667E-13 2.67571E-11
 -1      2359 1.99998E+02-7.00267E-11 4.80362E-12 1.09479E-10 6.47986E-12-8.59546E-14
 -1      2360 1.99998E+02-3.98502E-11 2.73089E-12 4.67351E-11 3.64213E-12-2.47135E-12
 -1      2361 1.99998E+02-2.00221E-11 1.06553E-12 2.69204E-11 3.81576E-12 5.06691E-12
 -1      2362 1.99998E+02-9.31036E-12-2.79790E-12 1.34229E-11 4.19499E-12-2.25675E-13
 -1      2363 1.99998E+02-4.23598E-11-1.11638E-12 2.87800E-11 6.03464E-12 1.12453E-13
 -1      2364 1.99998E+02-3.07164E-10 2.57962E-10-3.86882E-10 1.79692E-10 2.02200E-10
 -1      2365 1.99998E+02-6.43859E-10-3.57362E-10-5.96629E-10-4.64172E-10-6.74169E-10
 -1      2366 1.99998E+02-1.12971E-09 1.07706E-09-2.22806E-09-6.62043E-12-1.88009E-10
 -1      2367 1.99998E+02 3.32437E-09 5.31057E-09-3.19630E-09-8.97597E-10 3.33324E-10
 -1      2368 1.99998E+02-5.47249E-09-1.71717E-08 6.60694E-09 1.08907E-09-1.63597E-09
 -1      2369 1.99998E+02 5.07764E-09-1.12057E-08-1.52573E-08-1.27882E-10-6.93938E-09
 -1      2370 1.99998E+02 4.13843E-08 6.29037E-09 5.38707E-08-9.53665E-09-2.23060E-08
 -1      2371 1.99998E+02 2.72550E-08-2.11556E-09 3.19090E-08-2.40754E-09-1.27179E-08
 -1      2372 1.99998E+02 1.55345E-08-5.71612E-10 2.24658E-08-4.54259E-09-5.17837E-09
 -1      2373 1.99998E+02 7.08526E-09-9.25288E-10 1.44080E-08-1.51342E-09-3.03110E-09
 -1      2374 1.99998E+02 2.49701E-08-4.07040E-09 4.37761E-08-2.99018E-09-1.22376E-08
 -1      2375 1.99998E+02-1.48139E-10 5.89121E-11 2.71227E-12 7.74311E-12 4.00701E-12
 -1      2376 1.99998E+02-2.85732E-10 9.78503E-11 4.18489E-11-7.01986E-12-4.00575E-11
 -1      2377 1.99998E+02-4.16633E-11 6.21817E-12 2.00305E-11 4.43256E-12-4.75328E-12
 -1      2378 1.99998E+02-9.51034E-11-7.75858E-12 1.83114E-11 7.83486E-12-2.66760E-12
 -1      2379 1.99998E+02-1.68322E-10 2.37701E-11 4.69334E-11-9.65985E-12-1.44613E-11
 -1      2380 1.99998E+02 3.45075E-09-5.19298E-10 7.69546E-09-6.39959E-10-2.28101E-10
 -1      2381 1.99998E+02 1.34366E-09-9.91958E-10 6.96323E-09-6.88047E-10-1.71368E-10
 -1      2382 1.99998E+02-2.69636E-10-3.27123E-10 3.64320E-09-4.42139E-10 3.34882E-10
 -1      2383 1.99998E+02-6.16283E-10-4.18812E-10 2.12099E-09-1.25500E-10-3.46833E-11
 -1      2384 1.99998E+02 1.74205E-09-3.14114E-10 6.62973E-09-1.31341E-09-3.77284E-10
 -1      2385 1.99998E+02-5.75659E-06 1.71449E-06-3.48808E-06-5.09853E-08 2.01727E-06
 -1      2386 1.99998E+02-1.10726E-05 3.26914E-07-5.72108E-06-1.14371E-06 4.07579E-06
 -1      2387 1.99998E+02-1.67285E-06 2.69142E-07-7.29588E-07 1.59614E-07 2.94850E-07
 -1      2388 1.99998E+02-4.38890E-06 6.10212E-08-1.86771E-06-2.71477E-07 1.19631E-06
 -1      2389 1.99998E+02-7.24727E-06 2.60032E-07-4.44522E-07 4.98338E-07 2.11602E-06
 -1      2390 1.99998E+02 3.12110E-08-4.50705E-10 5.49336E-08-3.55341E-09-9.81842E-09
 -1      2391 1.99998E+02 3.85985E-08 6.51883E-09 7.40336E-08 2.48252E-09-2.21741E-08
 -1      2392 1.99998E+02 2.77249E-08 2.03092E-08 8.92088E-08-5.77437E-09-3.69237E-08
 -1      2393 1.99998E+02 4.53537E-08 4.12092E-08 1.06449E-07-4.54444E-09-4.37773E-08
 -1      2394 1.99998E+02-1.72107E-08 3.09419E-08 4.09324E-08 6.26380E-09-5.96066E-08
 -1      2395 1.99998E+02-1.77146E-05-3.53128E-06-9.63431E-06 2.20326E-07 9.10772E-06
 -1      2396 1.99998E+02-1.80814E-05-1.04780E-05-1.80122E-06-1.95440E-06 1.76995E-05
 -1      2397 1.99998E+02 9.39258E-06-8.37052E-06-5.56875E-06-1.48638E-07 1.72941E-05
 -1      2398 1.99998E+02 8.78880E-05-3.06855E-05 6.53236E-05-4.87294E-06 5.86100E-06
 -1      2399 1.99998E+02 9.17645E-06-1.41766E-05-1.47907E-05 1.15404E-06 2.67844E-05
 -1      2400 1.83032E+02 8.53044E+00-3.42311E+00 2.43280E+00-7.65889E-01 1.86571E+00
 -1      2401 1.88006E+02-3.49559E-01-3.27410E+00-1.05465E-01-2.91787E-01 3.94339E+00
 -1      2402 1.83284E+02 2.11418E+00-3.61406E+00 2.52793E+00-4.68028E-02 1.97585E+00
 -1      2403 1.99998E+02-2.23026E-08-7.07204E-09 6.53435E-09-3.55687E-10 3.75212E-09
 -1      2404 1.99998E+02 2.91534E-08 1.58779E-08 2.56980E-09 5.16130E-09 8.94010E-10
 -1      2405 1.99998E+02 1.86472E-09 2.98816E-09-2.00699E-09 2.21801E-11 1.63109E-09
 -1      2406 1.99998E+02 6.36339E-12 1.77289E-12-1.10552E-11-1.48291E-12 7.83723E-13
 -1      2407 1.99998E+02 2.58868E-12-6.12447E-12-2.18347E-12 1.90050E-13 1.47762E-12
 -1      2408 1.99998E+02 4.67054E-12 3.24944E-12-1.45478E-11-6.96028E-13 3.88669E-12
 -1      2409 1.99998E+02 4.16645E-12-4.61773E-12-1.21204E-11-2.00005E-13-1.83711E-12
 -1      2410 1.99998E+02-9.13894E-13-1.40319E-13-1.73463E-11 7.74559E-13 2.27241E-12
 -1      2411 1.99998E+02 4.63442E-12 3.69935E-12-2.07121E-11 3.02136E-12 2.37553E-13
 -1      2412 1.99998E+02 9.61132E-13 4.76460E-12-2.04592E-11 3.82992E-13-1.95103E-12
 -1      2413 1.99998E+02 9.82962E-13-6.76146E-13-2.38384E-11 1.23802E-12-3.21287E-12
 -1      2414 2.00000E+02 2.80631E-03-3.40826E-04-1.61127E-03-1.05931E-04-1.07974E-03
 -1      2415 1.99998E+02 1.53943E-03-2.39553E-04-7.23981E-04 2.06094E-05-5.14098E-04
 -1      2416 2.00008E+02 6.13966E-03 2.04745E-03-2.34028E-03-1.53074E-03-5.11389E-03
 -1      2417 2.00003E+02 6.04303E-03 2.74775E-04-2.05006E-03 1.52362E-05-2.79960E-03
 -1      2418 2.00021E+02 7.52079E-03 2.91187E-03 2.78535E-03 7.98995E-04-5.50013E-03
 -1      2419 2.00039E+02-1.42992E-03 5.43431E-03-1.03586E-02 1.09114E-03-1.10557E-02
 -1      2420 2.00074E+02-3.01096E-02 7.02753E-03-2.02028E-02-2.40125E-04-2.95474E-03
 -1      2421 1.99958E+02-1.40052E-01-3.06895E-03-7.41130E-02 1.60607E-03 1.52501E-02
 -1      2422 1.98265E+02-1.94532E+00 1.77056E-01 9.01717E-01 1.15282E-01 8.74568E-01
 -1      2423 1.99608E+02-1.18621E+00 1.50741E-01 4.33335E-01 1.35761E-02 3.85019E-01
 -1      2424 1.99824E+02-6.09054E-01 1.49768E-02 3.26501E-01 4.18444E-02 1.52377E-01
 -1      2425 2.00134E+02-2.53940E-01 7.43307E-02 1.02131E-01-8.85738E-03 5.20153E-02
 -1      2426 1.96842E+02-3.10941E+00-5.72577E-01-6.26717E-02-7.90871E-05 1.59639E+00
 -1      2427 1.95875E+02-3.17969E+00-2.15392E-01-9.26287E-01-1.52470E-01 1.53358E+00
 -1      2428 1.94511E+02-2.19409E+00-1.19920E+00-3.37772E-01-6.35227E-01 2.53645E+00
 -1      2429 1.99998E+02-5.40051E-11 1.53264E-11 1.30797E-10-9.14401E-12 4.91320E-11
 -1      2430 1.99998E+02-1.13250E-10-5.88151E-11 2.11753E-10-1.30194E-11 3.68384E-11
 -1      2431 1.99998E+02-9.89385E-11 3.28204E-11 6.37032E-10-1.81950E-10 3.10573E-11
 -1      2432 1.99998E+02-1.76740E-10-8.03908E-11 7.74811E-10 4.35136E-11-4.28955E-11
 -1      2433 1.99998E+02-4.64358E-10-1.63022E-10 1.13146E-09 2.79004E-11 1.74142E-10
 -1      2434 1.99998E+02-4.06289E-12-1.73153E-12 5.00919E-12 4.13351E-13 2.44667E-12
 -1      2435 1.99998E+02-8.06783E-13-1.92135E-12 2.14563E-12-1.04971E-12 1.92855E-12
 -1      2436 1.99998E+02-5.39488E-13-4.23491E-12-7.22950E-13-1.85530E-13 5.93752E-12
 -1      2437 1.99998E+02-1.43285E-11-2.50312E-12-1.49076E-11 3.01152E-12 1.98152E-12
 -1      2438 1.99998E+02-8.12285E-12-4.73678E-12-2.23531E-11-5.34281E-13-1.43856E-12
 -1      2439 1.99998E+02-1.01845E-12 1.86006E-12-2.52883E-11 2.33621E-12-8.91549E-13
 -1      2440 1.99998E+02-3.96456E-06-3.75597E-07 2.32204E-06 3.29304E-07 1.06734E-06
 -1      2441 1.99998E+02-1.64658E-06 5.42314E-07 9.87286E-07-1.41985E-07 3.13160E-07
 -1      2442 1.99998E+02-1.64663E-06 4.61862E-07 1.43519E-07-1.88866E-08 7.76353E-08
 -1      2443 1.99998E+02-2.55252E-07 4.63176E-08 4.08649E-08-1.65602E-10-3.14817E-08
 -1      2444 1.99998E+02-8.15471E-07 1.22495E-07-3.95114E-07-1.51215E-08 1.12679E-07
 -1      2445 1.99998E+02 2.26851E-04-9.59107E-05 1.17729E-04-4.94853E-05 4.01541E-06
 -1      2446 1.99998E+02 7.71167E-04-1.37579E-04 3.28174E-04 3.87404E-05-1.50623E-04
 -1      2447 1.99998E+02 1.55806E-03-1.79479E-04-1.55517E-04-9.08849E-05-3.70091E-04
 -1      2448 2.00013E+02 5.74046E-03 2.86210E-03 2.21619E-04-1.27530E-04-7.57036E-03
 -1      2449 2.00089E+02-2.99815E-01 8.44853E-02-5.19677E-03 2.64341E-03 2.37842E-02
 -1      2450 1.99998E+02 2.33069E-12-1.60151E-12-2.12950E-11 8.14300E-13 4.17788E-12
 -1      2451 2.14886E+02 2.92213E+00 2.80506E+00 8.00467E-02 8.60092E-02 4.79263E-02
 -1      2452 1.99998E+02 1.33215E-09-7.61621E-10-3.81119E-09 2.07495E-09 6.38755E-10
 -1      2453 1.99998E+02-4.41323E-11-3.88537E-11-2.05254E-11 2.23907E-11 4.34455E-12
 -1      2454 2.01941E+02-9.36581E-01-9.42640E-01-7.48001E-02-2.20924E-02-3.44615E-02
 -1      2455 1.99996E+02 1.34877E-03 1.35218E-03-1.65303E-05 1.64370E-04 2.47831E-05
 -1      2456 1.99998E+02 6.59871E-12 4.42785E-12-2.68178E-12 5.57072E-12-1.44108E-11
 -1      2457 1.99998E+02 1.04617E-12 5.29338E-13-4.77630E-12 1.97885E-12-6.16957E-12
 -1      2458 1.99998E+02 2.98571E-12-1.73752E-12-8.64300E-12-9.10277E-12-1.06638E-11
 -1      2459 1.99998E+02-1.93988E-11-1.42244E-11-1.37654E-11-3.48532E-10-2.96355E-11
 -1      2460 1.99998E+02 2.15928E-09 2.25835E-09 3.83381E-11-8.24456E-09-9.26031E-11
 -1      2461 1.99998E+02-5.43249E-06-5.48209E-06 6.16584E-08 1.65932E-06 5.40637E-08
 -1      2462 1.99970E+02-1.53732E-03-1.69194E-03-5.68857E-04 4.02982E-04 5.73228E-04
 -1      2463 1.99998E+02 1.89078E-08 1.85202E-08 5.03777E-10-3.41176E-08-6.90254E-10
 -1      2464 1.99998E+02 7.11506E-06 7.83195E-06-9.64154E-07 2.09910E-05 2.16737E-06
 -1      2465 1.99998E+02-3.04914E-07-3.10654E-07 2.22846E-08-5.30755E-09-1.88423E-08
 -1      2466 1.99998E+02-4.86938E-11-2.00214E-13 3.61661E-10-1.69687E-09-3.88953E-10
 -1      2467 1.99998E+02-3.66124E-12-5.11701E-12-1.13288E-12 8.34240E-12-1.58129E-11
 -1      2468 2.00001E+02-1.31913E-01-1.36151E-01-3.20160E-02 3.09193E-04 2.63238E-02
 -1      2469 1.99998E+02-6.94897E-09 2.40547E-09 5.36786E-09 7.47052E-09-2.23137E-09
 -1      2470 2.12197E+02 1.14528E+01 1.15239E+01 3.76758E+00 7.81143E-01 3.90247E+00
 -1      2471 1.99998E+02-1.01445E-10-5.16276E-09 1.97623E-10-7.01246E-09-1.81031E-09
 -1      2472 2.12626E+02 1.23902E+01 1.21320E+01-4.11723E+00-1.06173E+00 4.31706E+00
 -1      2473 1.99998E+02 2.95802E-04 2.94626E-04-7.30963E-05 5.79506E-05 7.87765E-05
 -1      2474 1.99993E+02 3.24125E-03 2.90036E-03 2.92326E-03 1.58655E-04 2.86256E-03
 -1      2475 1.99998E+02-1.79043E-12-1.88585E-12-4.30361E-12 6.05390E-13-1.08591E-11
 -1      2476 1.99998E+02-2.12096E-12-3.48809E-12-4.37174E-12 2.39310E-12-8.97026E-12
 -1      2477 1.99998E+02 2.89261E-12-6.13688E-12 2.61547E-11-7.25409E-11 1.93760E-11
 -1      2478 1.99998E+02-2.43507E-12-1.04078E-12-1.02031E-11 1.35821E-13-1.02717E-11
 -1      2479 1.99998E+02-7.38490E-13-2.24701E-13-1.72601E-12 6.54474E-13-6.51886E-12
 -1      2480 1.99998E+02 4.58980E-12 4.18769E-12-2.86833E-11-7.27191E-11-3.89682E-11
 -1      2481 1.99993E+02 2.89744E-03 3.18806E-03-2.82050E-03 7.95654E-05-2.89606E-03
 -1      2482 1.99998E+02 7.93774E-09 8.01155E-09-3.07642E-09-1.41737E-08-3.05083E-09
 -1      2483 1.99998E+02-1.16602E-08-1.42995E-08-4.85010E-08-3.05475E-08 4.89837E-08
 -1      2484 1.99998E+02-1.46778E-06-1.50772E-06-7.17391E-07 1.60242E-07 7.54930E-07
 -1      2485 1.99998E+02 7.92120E-09 8.06279E-09 3.15638E-09-1.42824E-08 2.94748E-09
 -1      2486 1.99998E+02-7.81548E-06-7.74576E-06 7.53346E-06 6.57667E-06 7.62881E-06
 -1      2487 1.99998E+02 2.88433E-04 2.93897E-04 9.42037E-05 5.94813E-05-9.55400E-05
 -1      2488 1.99998E+02 2.49633E-09-6.22843E-11 5.22772E-08-3.21807E-08-5.06631E-08
 -1      2489 1.99998E+02-7.74614E-06-7.79278E-06-7.46959E-06 6.08450E-06-7.45983E-06
 -1      2490 1.99998E+02-1.44304E-06-1.44745E-06 7.31526E-07 1.30247E-07-7.32196E-07
 -1      2491 2.12581E+02 1.28003E+01 1.26137E+01 4.19870E+00-7.67358E-01-3.97572E+00
 -1      2492 1.99998E+02 2.11856E-09 4.33600E-09-4.72030E-10-1.66416E-09-4.49495E-09
 -1      2493 1.99998E+02-8.20035E-12-8.64434E-12-1.37468E-11 6.94758E-12 2.19125E-12
 -1      2494 1.99961E+02-2.29554E-02-2.21045E-02 8.73741E-03 3.00388E-03-8.28749E-03
 -1      2495 2.04482E+02-1.14566E+00-1.14125E+00-1.58575E+00 1.54335E-01-1.56388E+00
 -1      2496 1.99998E+02-5.02155E-11 1.27339E-10 1.40207E-10 1.78416E-10 7.95614E-11
 -1      2497 2.12722E+02 1.33155E+01 1.29410E+01-4.94377E+00 9.03206E-01-4.75726E+00
 -1      2498 1.99998E+02-1.09719E-12-7.29428E-12-9.30324E-13 6.28390E-12-7.54585E-12
 -1      2499 2.00080E+02-2.81397E-01-2.74378E-01 1.79282E-01-2.40943E-02-1.90861E-01
 -1      2500 1.99998E+02 7.77452E-09-6.77425E-09 2.56348E-09-6.53356E-10-1.02253E-08
 -1      2501 1.99998E+02 6.20311E-11 8.99577E-11-1.43466E-09-2.52324E-09 1.36336E-09
 -1      2502 1.99998E+02-6.23634E-11-8.24860E-11-3.43523E-10-7.51046E-10 3.34653E-10
 -1      2503 2.04049E+02-1.22713E+00-1.23684E+00 1.67617E+00 1.53833E-01 1.67575E+00
 -1      2504 1.99998E+02 4.28642E-11-1.43243E-10-2.66691E-10-2.69691E-13 2.60091E-10
 -1      2505 1.99998E+02-2.05347E-10 1.04715E-10 4.27506E-10-1.76528E-10-9.04895E-11
 -1      2506 1.99998E+02 3.13644E-12-2.54612E-11-3.62355E-10-5.44051E-10-4.02846E-10
 -1      2507 1.99998E+02 6.16274E-10 6.07965E-10-1.54819E-09-2.60874E-09-1.55858E-09
 -1      2508 1.99998E+02-8.64782E-12-2.81866E-12-1.51046E-11 1.61238E-11-1.70127E-11
 -1      2509 1.99998E+02-1.80719E-11-1.61949E-11-1.01948E-11 2.03784E-11-1.38373E-11
 -1      2510 1.99998E+02-7.85166E-13-1.48795E-12 8.97193E-13 5.88985E-12-6.14769E-12
 -1      2511 1.99998E+02-1.07784E-12-2.08870E-12-3.11245E-12 2.81458E-12-1.05940E-11
 -1      2512 1.99961E+02-1.95938E-02-1.83208E-02-4.65468E-03-5.39333E-03-4.04757E-03
 -1      2513 2.00049E+02-2.78125E-01-2.83602E-01-1.91557E-01 1.46909E-02-2.00273E-01
 -1      2514 1.99998E+02-1.80809E-06-1.85924E-06 1.15673E-06 4.84439E-07 1.17750E-06
 -1      2515 1.99998E+02-2.53670E-11-2.72575E-11 2.78483E-11-8.97901E-11-4.65352E-11
 -1      2516 1.99998E+02 3.02207E-12 3.60218E-12-2.01431E-12 3.63302E-13-7.61337E-12
 -1      2517 1.99998E+02-1.64591E-12 1.89673E-12-1.47146E-12 2.87565E-12-1.06994E-11
 -1      2518 1.99998E+02 1.11315E-12-2.78775E-12-7.82972E-12 2.15194E-12-5.31774E-12
 -1      2519 1.99998E+02-9.76158E-13 2.65418E-13-3.65960E-12 6.97570E-13-6.61673E-12
 -1      2520 1.99998E+02-1.70493E-11-1.50610E-11-2.07475E-11-4.31842E-11 3.40327E-12
 -1      2521 1.99995E+02 2.32561E-03 2.37661E-03 2.32365E-03 3.61314E-04-2.37467E-03
 -1      2522 1.99998E+02 3.50210E-09 3.51948E-09-1.09618E-08-9.77438E-09 1.09772E-08
 -1      2523 1.99998E+02 3.18315E-04 3.03956E-04-2.49162E-04 1.79606E-05-2.51032E-04
 -1      2524 1.99998E+02-6.16855E-06-6.14900E-06-9.90073E-06 8.80667E-07 1.01368E-05
 -1      2525 1.99996E+02 2.09238E-03 2.00593E-03-1.97112E-03 4.41437E-04 1.94561E-03
 -1      2526 1.99998E+02 3.48200E-09 3.59763E-09 1.12680E-08-9.95434E-09-1.14609E-08
 -1      2527 1.99998E+02-1.82867E-06-1.85689E-06-1.15986E-06 4.55508E-07-1.19524E-06
 -1      2528 1.99998E+02 3.06381E-04 3.22811E-04 2.51795E-04 1.77512E-05 2.62820E-04
 -1      2529 1.99998E+02-6.19253E-06-6.25616E-06 1.01249E-05 8.36951E-07-9.89821E-06
 -1      2530 1.99998E+02 1.18067E-08 1.18348E-08-1.19258E-09-4.58080E-08-4.65061E-09
 -1      2531 1.99998E+02 1.38086E-08 1.10343E-08 3.69346E-09-4.59790E-08 1.15349E-09
 -1      2532 1.99998E+02 5.27459E-10 6.14242E-10 1.41842E-09-2.59358E-09 1.46069E-09
 -1      2533 1.99964E+02-1.65187E-02-1.86085E-02 4.24843E-04-4.32253E-03 7.51646E-04
 -1      2534 2.00085E+02-2.82963E-01-2.87962E-01 2.33590E-01 1.31683E-02 2.27291E-01
 -1      2535 2.03357E+02-1.40490E+00-1.37682E+00-1.66216E+00-1.61259E-01 1.70316E+00
 -1      2536 2.03110E+02-1.33211E+00-1.38048E+00 1.69270E+00-1.61495E-01-1.63306E+00
 -1      2537 1.99998E+02-7.62639E-11-8.18836E-11 2.03758E-10-4.52373E-10-2.20619E-10
 -1      2538 1.99998E+02 9.41778E-12 9.49286E-11 2.01598E-09-2.35976E-09-2.15709E-09
 -1      2539 1.99998E+02-1.31963E-11 5.69228E-12 2.20770E-11 6.04379E-12-1.81297E-11
 -1      2540 1.99998E+02 3.00223E-12 4.48518E-12-2.05856E-12 5.02560E-12-1.44547E-11
 -1      2541 1.99998E+02-6.29967E-12 2.04495E-12 3.41748E-10-5.20481E-10 3.50020E-10
 -1      2542 2.00072E+02-3.20107E-01-3.26052E-01-3.06815E-01-2.49584E-02 3.00490E-01
 -1      2543 1.99966E+02-8.64880E-03-9.53269E-03 8.03839E-03 3.22993E-03-7.88940E-03
 -1      2544 1.99998E+02-5.89288E-12-1.45365E-10-1.50325E-10 2.17594E-11-1.04934E-10
 -1      2545 1.99998E+02 8.78696E-06 8.67801E-06 2.30967E-05-2.98992E-06-1.99291E-05
 -1      2546 1.99998E+02-1.53994E-12 1.33490E-12-7.63757E-12 2.41159E-12-8.50638E-12
 -1      2547 1.99998E+02-2.04928E-12-3.09701E-12-4.36975E-12-1.43596E-11-1.33499E-11
 -1      2548 1.99998E+02 1.48353E-12-9.35580E-13 3.52548E-13 2.13423E-12-8.96332E-12
 -1      2549 1.99998E+02-2.33931E-11-2.31731E-11-9.05464E-11-1.60196E-10 7.44406E-11
 -1      2550 1.99987E+02 2.63538E-03 2.33818E-03-4.45818E-03 2.86873E-03 4.45388E-03
 -1      2551 1.99998E+02 4.10126E-05 4.15033E-05 1.79442E-05 3.25917E-05 1.91629E-05
 -1      2552 1.99998E+02 4.00651E-05 4.02785E-05-1.73714E-05 3.42942E-05-1.82514E-05
 -1      2553 1.99998E+02 6.99559E-06 8.01365E-06-2.07763E-05-2.34172E-06 2.17542E-05
 -1      2554 1.99998E+02-7.20909E-08-6.52037E-08 6.45742E-08-8.44974E-08 5.82649E-08
 -1      2555 1.99998E+02-5.95906E-08-7.92536E-08-6.14734E-08-8.74586E-08-6.85945E-08
 -1      2556 1.99998E+02 1.18057E-08 1.18423E-08 3.19876E-08-1.74168E-08-3.22110E-08
 -1      2557 1.99998E+02 1.23760E-08 1.20212E-08-3.23767E-08-1.74871E-08 3.23033E-08
 -1      2558 1.99998E+02 6.78318E-10-1.12841E-09-1.00301E-09-1.98798E-10 2.92938E-12
 -1      2559 1.99998E+02 1.73115E-12-1.88790E-12-4.83722E-12-5.11253E-12-9.18139E-12
 -1      2560 1.99998E+02-1.85205E-12-1.22171E-12-7.07901E-12-1.05300E-11-9.15961E-12
 -1      2561 1.99998E+02-3.38181E-13 1.09456E-13-5.02105E-12-9.76275E-12-2.07616E-12
 -1      2562 1.99998E+02-2.28632E-07-2.42893E-07-4.27624E-08 6.48577E-08 4.72469E-08
 -1      2563 1.99998E+02-2.87514E-07-1.98282E-07 2.20730E-08 2.77462E-08-7.39689E-09
 -1      2564 1.99998E+02-1.91543E-07-2.90774E-07 5.44367E-09 3.59107E-08-2.22376E-08
 -1      2565 1.99998E+02-3.05480E-08-2.85835E-08-1.83674E-08 4.68679E-08-1.20654E-08
 -1      2566 1.99998E+02-5.61870E-07-4.27222E-07 3.02173E-07 8.74399E-08-2.82836E-07
 -1      2567 1.99998E+02-4.91944E-07-6.61944E-07 3.00343E-07 9.64221E-08-3.43267E-07
 -1      2568 1.99998E+02-7.43031E-07-7.50240E-07 3.29543E-07 1.05050E-07-3.25578E-07
 -1      2569 1.99998E+02 3.23495E-08-5.72007E-08-7.27201E-08 9.66183E-10 1.51646E-08
 -1      2570 1.99998E+02-6.99974E-08-2.09178E-09-2.31501E-08-9.41899E-09 6.91704E-08
 -1      2571 1.99998E+02-1.45032E-07-1.48435E-07-5.78164E-09-1.93006E-08 7.89588E-09
 -1      2572 1.99998E+02 2.83115E-09 3.51328E-09 9.24882E-10 3.16229E-09 2.69469E-09
 -1      2573 1.99998E+02 1.38508E-09 3.72560E-09 2.41466E-09 1.25217E-09 2.12911E-09
 -1      2574 1.99998E+02-2.47263E-09-2.37998E-09 3.38302E-09-2.70223E-10-1.76446E-09
 -1      2575 1.99998E+02-2.47354E-09-1.81197E-09 2.02462E-09-1.04739E-09-2.12503E-09
 -1      2576 1.99998E+02 8.75644E-10 8.93557E-09 1.43875E-08-9.16142E-10-1.57776E-09
 -1      2577 1.99998E+02-2.33843E-09-8.93694E-10 4.05344E-10 5.97517E-10 6.95322E-11
 -1      2578 1.99998E+02 7.21253E-10 1.62349E-09-1.32581E-09 2.04757E-10-8.83217E-10
 -1      2579 1.99998E+02 1.14195E-09 2.46080E-09 3.26414E-11-8.28125E-10-2.74836E-09
 -1      2580 1.99998E+02-3.50751E-09-3.42900E-09-2.22170E-09-1.31510E-09 3.28432E-09
 -1      2581 1.99998E+02 1.80008E-09 2.83509E-09-6.77255E-10-7.41865E-10-1.87814E-10
 -1      2582 2.03110E+02 1.12745E+01 6.08618E+00 1.14032E+00 6.42677E-01 4.76197E-01
 -1      2583 2.13601E+02 8.82379E+00 9.13190E+00 1.13168E+00 3.56556E-01 7.93900E-01
 -1      2584 2.05719E+02 6.24901E+00 3.98689E+00-2.59811E-01 5.25033E-02-1.04830E+00
 -1      2585 2.04439E+02 1.20613E+01 6.94092E+00-1.59945E+00-6.86270E-01 1.14352E+00
 -1      2586 2.13912E+02 1.04305E+01 1.03777E+01-7.55324E-01-3.43139E-01 7.77414E-01
 -1      2587 2.11546E+02 1.74129E+01 1.14877E+01-1.65386E-01-7.83061E-01 4.78179E+00
 -1      2588 2.05475E+02 3.84512E+00 6.08930E+00-1.12545E+00-5.97033E-03-1.29392E-01
 -1      2589 2.03192E+02 5.95295E+00 1.16328E+01 3.38050E-01 6.86023E-01 1.08183E+00
 -1      2590 2.04528E+02 7.08669E+00 1.16272E+01 1.23384E+00-7.50897E-01-1.55171E+00
 -1      2591 2.12489E+02 1.18080E+01 1.73884E+01 4.78636E+00 2.06120E-01 3.85956E-01
 -1      2592 2.13410E+02 8.79379E+00 8.85118E+00 9.62650E-01-3.88613E-01-7.35902E-01
 -1      2593 1.99998E+02 3.74143E-13-3.71026E-12 1.90268E-12-1.00204E-12-9.16609E-14
 -1      2594 1.99998E+02-3.83394E-12-7.26345E-12-1.01211E-12-5.23101E-13-7.52110E-12
 -1      2595 1.99998E+02-4.47107E-13 1.76696E-13 3.56098E-13 1.74363E-12-4.19916E-12
 -1      2596 1.99998E+02 2.53511E-12-2.08165E-12 2.30760E-12 4.02651E-12-4.23468E-12
 -1      2597 1.99998E+02-7.16463E-12-1.28117E-11-1.26211E-12 5.69979E-12-9.65748E-12
 -1      2598 1.99998E+02-3.28290E-12-9.82503E-12 7.23905E-13 2.79419E-12-3.16785E-12
 -1      2599 1.99998E+02 2.65788E-15-1.28136E-12-2.74361E-12 2.70031E-12-1.28979E-11
 -1      2600 1.99998E+02 3.76602E-13 6.43642E-14-4.16901E-13 1.68816E-12-7.47826E-12
 -1      2601 1.99998E+02 2.32955E-12-1.11782E-12-2.84640E-12 5.16513E-12-7.89315E-12
 -1      2602 1.99998E+02 2.99984E-12-5.67986E-12 1.54048E-12 5.86957E-13-5.03353E-12
 -1      2603 2.05554E+02 5.75671E-01-8.82590E-01-1.76765E+00 3.76460E-03-4.12595E-02
 -1      2604 2.03810E+02 3.23144E+00 4.64385E+00-1.20541E+00-1.09059E+00-2.65327E-01
 -1      2605 2.05600E+02-9.29140E-01 6.24208E-01-9.47954E-02 3.99786E-02-1.75222E+00
 -1      2606 2.03877E+02 4.75779E+00 3.23041E+00-2.84163E-01-1.05393E+00-1.18285E+00
 -1      2607 1.99998E+02-9.46607E-12-2.89726E-11-1.12767E-11-2.38069E-12 2.88507E-11
 -1      2608 1.99998E+02 4.51596E-12-6.50652E-12-1.19622E-11-2.88382E-12 1.29051E-11
 -1      2609 1.99998E+02-1.99922E-12-2.22571E-11-2.14263E-12-8.73731E-12 3.46199E-11
 -1      2610 1.99998E+02 2.25710E-11-1.08132E-10-4.94499E-11-9.15055E-12 7.82273E-11
 -1      2611 1.99998E+02 5.22232E-12-4.91042E-11-4.44383E-11-1.31399E-11 8.00534E-11
 -1      2612 1.99998E+02 1.61506E-12-5.88575E-11-5.39055E-11 4.12914E-12 3.40596E-11
 -1      2613 1.99998E+02-2.26606E-11-2.39296E-11-2.40058E-11 1.29119E-11 4.39637E-12
 -1      2614 1.99998E+02-1.79451E-12-1.91536E-11-2.29900E-11 6.10766E-12 2.53275E-11
 -1      2615 1.99998E+02-2.13914E-11-8.75287E-11-7.75058E-11 6.34332E-13 5.18998E-11
 -1      2616 1.99997E+02 1.06088E-03 5.04257E-03 3.46330E-03-1.95944E-04-1.76843E-03
 -1      2617 1.99986E+02 4.32112E-03 4.28874E-03 1.81240E-03-1.31779E-04-1.84232E-03
 -1      2618 1.99987E+02 1.38178E-03 4.10233E-03 4.83011E-03 9.40257E-05 1.11717E-03
 -1      2619 1.99991E+02-7.41123E-04-2.59569E-03 5.49949E-03 2.47631E-03-7.73283E-04
 -1      2620 1.99963E+02-1.34324E-02-1.35770E-02 2.19495E-03 3.45331E-03-2.25744E-03
 -1      2621 1.99987E+02-3.35667E-04-3.60889E-04 3.33001E-03 2.59537E-03-3.42008E-03
 -1      2622 1.99998E+02 4.82144E-03 1.10105E-03 1.74321E-03-2.06755E-04-3.52506E-03
 -1      2623 1.99987E+02 4.14527E-03 1.30656E-03-9.94241E-04-2.14461E-05-4.82112E-03
 -1      2624 1.99992E+02-2.37880E-03-5.51305E-04 6.48743E-04 2.39975E-03-5.57881E-03
 -1      2625 2.00000E+02 5.65930E-04 1.86722E-03 2.83964E-03 1.64803E-03-3.46933E-03
 -1      2626 1.99993E+02 8.04914E-05-1.89309E-03 3.45061E-03 2.59232E-03-2.72552E-03
 -1      2627 2.00000E+02 1.75572E-03 4.48336E-04 3.25051E-03 1.87943E-03-3.00491E-03
 -1      2628 1.99992E+02-2.29813E-03-8.55163E-04 2.89967E-03 2.57769E-03-3.05298E-03
 -1      2629 2.03783E+02 3.21354E+00 4.72854E+00-1.12712E+00 9.44549E-01 1.90902E-01
 -1      2630 2.03844E+02 4.74847E+00 3.44005E+00 3.42863E-01 9.69033E-01-1.02700E+00
 -1      2631 1.99998E+02 4.68891E-13 1.26215E-12-2.06656E-12 2.84023E-12-1.18638E-11
 -1      2632 1.99998E+02 7.87681E-13-6.14826E-13-3.25975E-12 3.11303E-12-1.10303E-11
 -1      2633 1.99998E+02 3.10051E-12-2.31954E-12-2.49682E-12 2.12754E-12-5.95088E-12
 -1      2634 1.99998E+02 7.90490E-13-4.49758E-12-1.09625E-12 1.05382E-12-4.57606E-12
 -1      2635 1.99998E+02-9.43684E-12-1.27845E-11-2.97376E-11 2.09546E-11 4.95613E-11
 -1      2636 1.99998E+02-1.13590E-11-5.31182E-11-6.77651E-11 1.61537E-12 1.25191E-10
 -1      2637 1.99998E+02-3.41752E-12-1.85473E-12-1.84483E-11 1.65042E-11 1.38993E-11
 -1      2638 1.99998E+02 1.14051E-03 7.33205E-04-4.44152E-04 1.16378E-04 6.18031E-04
 -1      2639 1.99997E+02 9.75268E-04 4.49617E-04 1.17147E-04 9.79613E-05 4.54639E-04
 -1      2640 1.99998E+02 5.18629E-04 2.19385E-04-4.54680E-04 7.71299E-05 1.74102E-04
 -1      2641 1.99998E+02 4.48918E-04 4.09780E-05-6.54340E-06 3.08642E-06 9.50291E-05
 -1      2642 1.99997E+02 7.26305E-04 7.24189E-04-1.84270E-04 1.74202E-04 1.94946E-04
 -1      2643 1.99998E+02 1.52097E-03 7.74800E-04-5.29030E-04 2.23535E-04 8.68174E-04
 -1      2644 1.99998E+02 1.34870E-03 8.85861E-04-1.27515E-03 1.88172E-04 1.01583E-03
 -1      2645 1.99996E+02 1.43143E-03 1.39325E-03-1.03613E-03 2.43452E-04 1.03847E-03
 -1      2646 1.99988E+02 1.29042E-03 1.04887E-04 5.09661E-04 3.59380E-04 5.38505E-03
 -1      2647 1.99990E+02-2.67220E-04-8.75735E-04 1.90057E-03-1.32019E-03 4.85416E-03
 -1      2648 1.99996E+02 4.48851E-03 1.51541E-03 1.71280E-03 8.99102E-05 3.51701E-03
 -1      2649 2.00000E+02 2.84975E-03 1.03932E-03 4.32775E-03-9.23736E-04 3.89299E-03
 -1      2650 1.99984E+02 3.56418E-03 2.77444E-03 2.13482E-03 6.14371E-04 2.94434E-03
 -1      2651 1.99998E+02 1.22849E-03 7.13586E-04 7.80997E-04 1.03312E-04 5.46296E-04
 -1      2652 1.99997E+02 1.93929E-03 9.17093E-04 2.26605E-04 1.14146E-04 9.34052E-04
 -1      2653 1.99998E+02 1.98109E-03 1.44062E-03 1.51416E-03 1.06262E-04 1.12636E-03
 -1      2654 1.99996E+02 2.57085E-03 1.54098E-03 1.06248E-03 7.28496E-05 1.67336E-03
 -1      2655 1.99995E+02 1.95396E-03 1.79329E-03 1.02009E-03-5.14167E-05 9.98328E-04
 -1      2656 1.99998E+02-2.48153E-07-1.79989E-07-3.70178E-08 3.50902E-10-1.31605E-08
 -1      2657 1.99998E+02-5.64630E-07-2.90089E-07-6.23625E-08 9.37015E-09-8.19116E-08
 -1      2658 1.99997E+02 7.94304E-04 7.70274E-04-7.32933E-04 1.00691E-04 7.22639E-04
 -1      2659 1.99998E+02-3.07529E-06-3.10321E-06 1.16714E-06 5.38445E-07-1.14841E-06
 -1      2660 1.99998E+02-2.08291E-06-9.50909E-07 2.67340E-06-1.60857E-07-1.25611E-06
 -1      2661 1.99998E+02-4.69545E-06-3.11134E-06 2.85133E-06 4.99301E-07-3.32204E-06
 -1      2662 1.99998E+02-5.43751E-06-5.46322E-06 5.50730E-06 1.49671E-06-5.36202E-06
 -1      2663 1.99998E+02-4.90229E-06-3.00812E-06 7.00612E-06-1.05890E-08-5.47210E-06
 -1      2664 1.99998E+02-3.15364E-06-3.15109E-06 4.11392E-06 6.94070E-07-4.09315E-06
 -1      2665 1.99998E+02 1.13134E-03 1.55023E-04 3.00044E-04-2.65735E-05 4.90521E-04
 -1      2666 1.99999E+02 4.18826E-04 6.15564E-05 7.45660E-04 2.87996E-05 2.02337E-04
 -1      2667 1.99997E+02 8.20189E-04 8.33790E-04 3.80540E-04 7.49658E-05 4.23304E-04
 -1      2668 1.99998E+02-4.26157E-06-1.94716E-06 1.24859E-07 5.44783E-07-2.33755E-06
 -1      2669 1.99998E+02-5.84028E-06-2.71485E-06 3.41251E-06 8.93564E-08-4.62944E-06
 -1      2670 1.99998E+02 1.78079E-09 1.47619E-09-3.27322E-09-4.25563E-09-7.80638E-10
 -1      2671 1.99998E+02 2.96581E-09 1.53576E-09-6.03662E-09-5.61474E-09 9.50147E-10
 -1      2672 1.99998E+02 2.85801E-09 2.29084E-09-4.98133E-09-5.59627E-09-2.10339E-09
 -1      2673 1.99998E+02 5.70341E-09 2.56605E-09-8.51087E-09-7.31788E-09-1.86921E-10
 -1      2674 1.99998E+02 6.09451E-09 6.12273E-09-1.46543E-09-1.09784E-08-1.42296E-09
 -1      2675 1.99990E+02 3.88154E-04-3.60644E-04 4.58927E-03-1.51930E-03 2.56586E-03
 -1      2676 1.99999E+02 1.26636E-03 2.81970E-03 4.01264E-03-1.07664E-03 4.51756E-03
 -1      2677 1.99995E+02 1.18695E-03 4.31869E-03 3.71569E-03 2.56639E-04 1.63909E-03
 -1      2678 1.99998E+02-2.28726E-06-2.91384E-07 4.29618E-07 1.18736E-07-8.40205E-07
 -1      2679 1.99997E+02 1.28311E-03 1.17160E-03 8.72149E-04 6.48228E-05 9.37551E-04
 -1      2680 1.99997E+02 9.29916E-04 1.92618E-03-9.39099E-04 9.91353E-05-2.10059E-04
 -1      2681 1.99998E+02 6.74789E-04 1.20781E-03-5.78061E-04 9.42687E-05-7.36480E-04
 -1      2682 1.99996E+02 1.51606E-03 2.55061E-03-1.64949E-03 3.96598E-05-1.00602E-03
 -1      2683 1.99998E+02 1.35791E-03 1.67003E-03-1.14894E-03 9.24711E-05-1.38784E-03
 -1      2684 1.99995E+02 1.82866E-03 1.93404E-03-9.66370E-04-7.56729E-05-1.02908E-03
 -1      2685 1.99998E+02 1.26872E-03 7.73398E-04-7.76957E-04 8.16934E-05-5.45336E-04
 -1      2686 1.99997E+02 1.96700E-03 9.98885E-04-2.68611E-04 9.07334E-05-9.43192E-04
 -1      2687 1.99998E+02 1.82559E-03 1.41937E-03-1.45308E-03 9.57029E-05-1.15864E-03
 -1      2688 1.99996E+02 2.33245E-03 1.58582E-03-1.04762E-03 6.05756E-05-1.80384E-03
 -1      2689 1.99997E+02 4.50718E-04 9.69182E-04-4.49187E-04 9.31051E-05-1.10656E-04
 -1      2690 1.99997E+02 7.36877E-04 1.12066E-03-6.15861E-04 1.16440E-04 4.38203E-04
 -1      2691 1.99998E+02 2.13567E-04 4.60889E-04-1.66005E-04 6.56747E-05 4.24816E-04
 -1      2692 1.99998E+02 3.46408E-05 4.43246E-04-9.06698E-05 7.14937E-06 6.58638E-06
 -1      2693 1.99998E+02-4.57413E-14-1.65421E-12-1.48496E-12-2.62701E-12-2.99146E-12
 -1      2694 1.99998E+02-5.43515E-13-1.88320E-12-3.52192E-12 1.08678E-12-3.91216E-12
 -1      2695 1.99998E+02 2.72514E-12 3.06741E-12-5.89674E-13 1.97840E-12-2.93570E-12
 -1      2696 1.99998E+02 1.01101E-12-5.51005E-13-3.82648E-12-2.38409E-13-8.59281E-12
 -1      2697 1.99998E+02-1.39528E-12-1.21050E-12 3.85409E-12-1.88628E-12-1.59905E-12
 -1      2698 1.99998E+02 1.37431E-12 6.19357E-13-9.50667E-12 2.06864E-12-5.15668E-12
 -1      2699 1.99998E+02-1.30444E-13 3.09703E-12-8.57410E-12 5.23078E-12-4.29622E-12
 -1      2700 1.99998E+02 1.34608E-12 3.85457E-13-7.92932E-12-5.39890E-13-2.26823E-12
 -1      2701 1.99998E+02-4.17219E-12-2.05743E-12-1.15718E-11 4.06404E-12-1.85440E-12
 -1      2702 1.99998E+02-1.35976E-12-2.31559E-12-2.37213E-12 3.18591E-12-1.03706E-11
 -1      2703 1.99998E+02-1.09310E-13-1.62799E-12-2.91709E-12 2.14450E-12-7.73830E-12
 -1      2704 1.99998E+02-1.11536E-12-4.91291E-12-5.74986E-12 1.38292E-12-4.88621E-12
 -1      2705 1.99998E+02-6.55478E-13-4.22453E-12-3.65107E-12-8.90067E-13-5.61409E-12
 -1      2706 1.99998E+02 1.76541E-12-8.01835E-12-5.85093E-12 1.32435E-12-1.07139E-11
 -1      2707 1.99998E+02 3.27888E-12-2.74479E-12-5.42538E-12-2.13622E-13-1.09519E-11
 -1      2708 1.99998E+02-1.40401E-13 3.70516E-13 1.60566E-12-2.23282E-12-1.01701E-12
 -1      2709 1.99998E+02-3.63188E-12-3.00591E-12-2.99353E-12 9.38835E-13-1.05860E-11
 -1      2710 1.99998E+02-2.80461E-12-4.37916E-13-2.78672E-12 2.16705E-12-2.45382E-12
 -1      2711 1.99998E+02-1.46580E-12 8.81563E-13-2.04124E-12 1.47755E-12-5.98478E-12
 -1      2712 1.99998E+02-1.17449E-12-2.41957E-13-6.96092E-13-9.43480E-13-1.27691E-11
 -1      2713 1.99998E+02-1.81901E-11-1.69222E-11-6.64109E-11-1.87843E-10-1.47481E-10
 -1      2714 1.99998E+02-1.02665E-11-3.61107E-11-1.37413E-11-1.52798E-10-9.39368E-11
 -1      2715 1.99998E+02 2.20218E-12 1.49117E-12-1.48056E-11-3.78396E-11-6.69314E-11
 -1      2716 1.99998E+02 1.73992E-11 2.07406E-11-3.46343E-11-1.95130E-10-3.99709E-11
 -1      2717 1.99998E+02-7.85109E-13-2.36796E-12-3.43186E-11-4.56504E-11-1.13815E-10
 -1      2718 1.99998E+02-2.06902E-11-1.47607E-11-9.54204E-11-1.71862E-10-1.35521E-11
 -1      2719 1.99998E+02-2.62893E-11-1.74931E-11-1.41178E-10-1.97509E-10-6.79616E-11
 -1      2720 1.99998E+02 4.75396E-13-4.68260E-12-5.63612E-11-4.11121E-11-1.71923E-11
 -1      2721 1.99998E+02-9.25362E-12-1.84064E-12-9.69675E-11-4.55085E-11-4.27554E-11
 -1      2722 1.99990E+02-4.93955E-04 1.98956E-04-2.54289E-03-1.58496E-03-4.39387E-03
 -1      2723 2.00000E+02 2.89767E-03 1.25595E-03-4.37442E-03-1.20389E-03-3.71801E-03
 -1      2724 1.99984E+02 2.74178E-03 3.40079E-03-2.92291E-03 5.52711E-04-2.15064E-03
 -1      2725 1.99995E+02 4.29515E-03 1.24231E-03-1.49377E-03 1.61607E-04-3.72100E-03
 -1      2726 1.99990E+02-8.16539E-04-4.83315E-04-4.64281E-03-1.33679E-03-2.12873E-03
 -1      2727 1.99988E+02 1.00409E-04 1.12533E-03-5.33906E-03 2.24779E-04-5.00763E-04
 -1      2728 1.99999E+02 9.70970E-04 2.55336E-03-3.83186E-03-9.36238E-04-4.37040E-03
 -1      2729 1.99996E+02 1.51635E-03 4.44169E-03-3.54203E-03-4.52811E-06-1.64845E-03
 -1      2730 1.99997E+02 9.96852E-04 2.04607E-03 9.40163E-04 9.14457E-05 2.90202E-04
 -1      2731 1.99998E+02 7.38958E-04 1.29072E-03 5.83909E-04 7.78676E-05 7.73689E-04
 -1      2732 1.99996E+02 1.59490E-03 2.44556E-03 1.79889E-03 1.00716E-04 1.08065E-03
 -1      2733 1.99998E+02 1.36692E-03 1.58058E-03 1.22230E-03 1.44757E-04 1.40808E-03
 -1      2734 1.99998E+02-2.63481E-08 2.93704E-10-7.75616E-08-2.31255E-08 5.90569E-08
 -1      2735 1.99998E+02 1.24820E-09 2.77575E-09 8.04695E-10-5.56266E-09-5.95990E-09
 -1      2736 1.99998E+02 1.56260E-09 1.83436E-09-8.80521E-10-4.35241E-09-3.26055E-09
 -1      2737 1.99998E+02 2.27813E-09 5.89489E-09-1.36565E-10-7.30110E-09-8.44898E-09
 -1      2738 1.99998E+02 2.22863E-09 2.52643E-09-1.90008E-09-5.30162E-09-4.99905E-09
 -1      2739 1.99998E+02 1.46301E-09 3.05210E-09-9.21879E-10-5.64504E-09 6.04169E-09
 -1      2740 1.99998E+02 1.43347E-09 1.81477E-09 8.69148E-10-4.31217E-09 3.25666E-09
 -1      2741 1.99998E+02 2.46471E-09 5.86568E-09 2.16237E-10-7.36145E-09 8.43391E-09
 -1      2742 1.99998E+02 2.24729E-09 2.64143E-09 1.97661E-09-5.36502E-09 4.98699E-09
 -1      2743 1.99998E+02 5.99926E-09 6.25924E-09 1.43062E-09-1.10388E-08 1.36884E-09
 -1      2744 1.99998E+02 1.67386E-09 1.46873E-09 3.25974E-09-4.34279E-09 7.97885E-10
 -1      2745 1.99998E+02 2.61687E-09 1.31364E-09 5.91905E-09-5.58046E-09-8.91233E-10
 -1      2746 1.99998E+02 5.66912E-09 2.34577E-09 8.56227E-09-7.37268E-09 7.54341E-11
 -1      2747 1.99998E+02 2.72107E-09 2.14857E-09 5.06507E-09-5.63123E-09 2.08624E-09
 -1      2748 1.99998E+02 1.12439E-03 7.86648E-04 4.54957E-04 9.50498E-05-5.61988E-04
 -1      2749 1.99997E+02 1.02417E-03 4.79208E-04-1.07469E-04 7.25313E-05-4.49152E-04
 -1      2750 1.99998E+02 4.70476E-04 1.94045E-04 4.60549E-04 6.47557E-05-1.67324E-04
 -1      2751 1.99998E+02 4.55990E-04 2.10788E-05 1.03388E-05 1.18699E-05-1.03920E-04
 -1      2752 1.99997E+02 7.41971E-04 7.54618E-04 1.86822E-04 1.53416E-04-1.88050E-04
 -1      2753 1.99998E+02-3.55641E-06-7.38232E-06 4.62289E-06 1.22153E-06-5.36074E-07
 -1      2754 1.99998E+02-2.92163E-06-4.40020E-06 2.66921E-06 1.07096E-06 2.44826E-06
 -1      2755 1.99998E+02-2.88134E-06-6.99587E-06 6.95984E-06 3.17902E-06 1.64492E-06
 -1      2756 1.99998E+02-3.77397E-06-5.42266E-06 4.74570E-06 2.86419E-06 4.85662E-06
 -1      2757 1.99998E+02-6.73411E-06-6.75554E-06 4.20665E-06 3.91723E-06 4.26993E-06
 -1      2758 1.99998E+02-4.50205E-06-2.91835E-06 2.39664E-06 1.04982E-06 2.76662E-06
 -1      2759 1.99998E+02-7.35363E-06-3.54347E-06-5.79902E-07 1.26540E-06 4.63461E-06
 -1      2760 1.99998E+02-4.84542E-06-3.57933E-06 4.55059E-06 2.46769E-06 5.03780E-06
 -1      2761 1.99998E+02-7.36353E-06-2.90605E-06 1.55727E-06 3.14628E-06 7.02957E-06
 -1      2762 1.99997E+02 4.81280E-04 1.05324E-03 4.52003E-04 7.43939E-05 1.10552E-04
 -1      2763 1.99998E+02 7.79460E-04 1.15154E-03 5.57182E-04 9.30735E-05-4.70346E-04
 -1      2764 1.99998E+02 2.80397E-05 4.70611E-04 1.04597E-04 8.50567E-06-1.47956E-05
 -1      2765 1.99998E+02 1.91979E-04 5.43085E-04 1.74971E-04 8.11394E-05-5.07898E-04
 -1      2766 1.99998E+02-3.56397E-06-7.36088E-06-4.51638E-06 1.15767E-06 4.98664E-07
 -1      2767 1.99998E+02-2.94833E-06-4.54396E-06-2.71195E-06 9.63188E-07-2.46284E-06
 -1      2768 1.99998E+02-2.83772E-06-7.15370E-06-6.87659E-06 2.89478E-06-1.72747E-06
 -1      2769 1.99998E+02-3.55736E-06-4.66009E-06-5.03268E-06 2.29196E-06-4.66427E-06
 -1      2770 1.99998E+02-6.77441E-06-6.75956E-06-4.11525E-06 3.68658E-06-4.14463E-06
 -1      2771 1.99998E+02 1.63119E-08 9.27378E-09-1.88841E-08-1.86654E-08 1.05422E-08
 -1      2772 1.99998E+02 1.53995E-08 1.07959E-08-1.34962E-08-2.14469E-08 6.41930E-09
 -1      2773 1.99998E+02 9.69238E-09 5.48202E-09-9.08134E-09-1.06259E-08-9.15961E-10
 -1      2774 1.99998E+02 1.60008E-08 1.60439E-08-1.94541E-10-2.46119E-08-6.84672E-10
 -1      2775 1.99998E+02 1.15730E-08 2.53734E-09-1.46586E-08-9.13427E-09 2.49426E-09
 -1      2776 1.99998E+02-1.07835E-06-5.19662E-07 2.09128E-07 4.71084E-08-3.71801E-07
 -1      2777 1.99998E+02-1.91740E-06-4.26071E-06-2.30686E-06 5.41615E-07 1.17309E-07
 -1      2778 1.99998E+02-3.09255E-06-4.72587E-06-3.29401E-06 5.18604E-07 2.81494E-06
 -1      2779 1.99998E+02-1.02921E-06-2.33443E-06-1.26142E-06-1.79630E-07 2.79223E-06
 -1      2780 1.99998E+02-3.06739E-06-3.12930E-06-1.11167E-06 5.48498E-07 1.20067E-06
 -1      2781 1.99998E+02-3.34843E-07-2.29164E-06-8.39467E-07 1.40917E-07 4.53614E-07
 -1      2782 1.99998E+02-4.70811E-06-3.09498E-06-2.77644E-06 5.37657E-07 3.39017E-06
 -1      2783 1.99998E+02-4.25670E-06-1.94071E-06-1.20528E-07 5.94530E-07 2.39164E-06
 -1      2784 1.99998E+02-2.24282E-06-3.15767E-07-4.54800E-07 1.39413E-07 8.69065E-07
 -1      2785 1.99998E+02-2.11549E-06-9.89376E-07-2.66868E-06-1.44098E-07 1.30242E-06
 -1      2786 1.99988E+02-7.34839E-03-5.03373E-03 1.15923E-03-3.88850E-03 1.10779E-03
 -1      2787 1.99991E+02-3.64363E-03-2.59988E-03-8.43667E-04-1.75362E-03 3.12131E-03
 -1      2788 1.99971E+02-8.60283E-03-1.13725E-02-2.65033E-04-1.14465E-03 6.84765E-04
 -1      2789 1.99998E+02-1.89975E-06-4.25390E-06 2.36897E-06 5.89126E-07-1.12552E-07
 -1      2790 1.99998E+02-3.09797E-06-4.73582E-06 3.38613E-06 5.23807E-07-2.77922E-06
 -1      2791 1.99998E+02-3.26341E-07-2.29513E-06 8.34225E-07 1.48935E-07-4.62632E-07
 -1      2792 1.99998E+02-1.04925E-06-2.32952E-06 1.27425E-06-1.93929E-07-2.78076E-06
 -1      2793 1.99998E+02 1.11476E-08 1.53029E-08-6.45020E-09-2.16073E-08 1.34579E-08
 -1      2794 1.99998E+02 9.41100E-09 1.62410E-08-1.05947E-08-1.87946E-08 1.90537E-08
 -1      2795 1.99998E+02 5.52024E-09 9.80094E-09 1.09615E-09-1.07093E-08 9.00469E-09
 -1      2796 1.99998E+02 2.43867E-09 1.18427E-08-2.38222E-09-9.21375E-09 1.47183E-08
 -1      2797 1.99998E+02 1.62182E-08 1.59731E-08 6.69300E-10-2.47306E-08 2.49208E-11
 -1      2798 1.99998E+02-2.84284E-07-5.76460E-07 8.24274E-08 1.28626E-08 5.60152E-08
 -1      2799 1.99998E+02-1.80185E-07-2.56867E-07 1.42145E-08 2.61521E-09 3.38927E-08
 -1      2800 2.00329E+02-5.05162E-01-8.21579E-01-4.51183E-01 1.94666E-03-5.30842E-01
 -1      2801 2.00955E+02-5.94855E-01-1.27939E+00-7.72587E-01-4.97794E-04-3.09643E-02
 -1      2802 2.00195E+02-1.86069E-01-8.79038E-01-4.54796E-01 6.30551E-02-1.99182E-01
 -1      2803 2.00856E+02-6.53480E-01-6.72551E-01-2.74147E-01 1.71783E-02-2.63296E-01
 -1      2804 1.99617E+02-1.09160E-01-3.90934E-01-2.11133E-01 2.73310E-02-5.62781E-01
 -1      2805 1.99999E+02 1.01107E-04 5.06945E-04 2.21939E-04-1.07181E-05 7.59785E-04
 -1      2806 1.99998E+02 1.77273E-04 1.15062E-03 4.98214E-04-2.78002E-05 3.32398E-04
 -1      2807 1.99998E+02 1.42164E-03 1.27013E-03 1.20186E-03 8.79191E-05-9.20527E-04
 -1      2808 1.99996E+02 1.34799E-03 1.36880E-03 9.27868E-04 3.11969E-04-9.41207E-04
 -1      2809 1.99997E+02 1.46729E-03 8.92857E-04 5.26463E-04 2.41892E-04-7.93592E-04
 -1      2810 1.99998E+02 2.79243E-12-3.82123E-12-1.92288E-11 2.97395E-11-5.76659E-13
 -1      2811 1.99998E+02 1.62489E-11 7.19708E-12-2.11723E-11 1.78481E-11-2.07464E-11
 -1      2812 1.99998E+02-2.77626E-11-1.46953E-11-1.01573E-11 1.52589E-11 1.94287E-11
 -1      2813 1.99998E+02-2.72242E-11-1.63888E-11-1.15077E-11 2.48706E-11-6.57186E-12
 -1      2814 1.99998E+02 1.56226E-04 1.09812E-03-4.91814E-04-3.20774E-05-3.06103E-04
 -1      2815 1.99997E+02 8.26190E-04 8.21701E-04-4.03785E-04 7.15127E-05-3.81581E-04
 -1      2816 1.99999E+02 8.17039E-05 4.46172E-04-2.17349E-04 3.01227E-06-7.35222E-04
 -1      2817 1.99999E+02 4.53251E-04 7.69731E-05-7.36246E-04 1.54481E-05-1.98177E-04
 -1      2818 1.99998E+02 1.12062E-03 1.77395E-04-3.01635E-04-2.58651E-05-4.97027E-04
 -1      2819 1.99998E+02 7.92880E-04 1.48009E-03-8.82957E-04 2.23338E-04 5.23380E-04
 -1      2820 1.99998E+02 9.05145E-04 1.29454E-03-1.04139E-03 1.86432E-04 1.24877E-03
 -1      2821 1.99998E+02 3.82999E-13-1.97413E-12-2.71976E-12 2.65521E-13-4.33296E-12
 -1      2822 1.99998E+02 2.39278E-12 1.20583E-12 1.64096E-12-9.97705E-13-5.51186E-12
 -1      2823 1.99998E+02 1.52390E-12 3.18797E-12-6.01003E-12 1.65169E-13-4.35975E-12
 -1      2824 1.99998E+02 8.57179E-13 2.68848E-12-1.27165E-11 1.97916E-12-2.64475E-13
 -1      2825 1.99998E+02 6.21102E-13 4.18091E-13-9.89076E-12-9.63903E-13-1.20652E-12
 -1      2826 1.99998E+02 3.37105E-14-2.09458E-12-5.42700E-12 3.28869E-12-6.91409E-12
 -1      2827 1.99998E+02 3.52024E-12 3.08440E-12 2.21690E-13-4.36827E-13-9.29575E-12
 -1      2828 1.99998E+02-1.63693E-13-1.72449E-12-3.21372E-12 1.28665E-12-8.10820E-12
 -1      2829 1.99998E+02-1.05755E-12-2.70024E-12-5.22956E-12 3.25287E-12-8.46133E-12
 -1      2830 1.99998E+02 8.38420E-13 6.75576E-13-5.01312E-12 1.08886E-12-4.36417E-12
 -1      2831 1.99998E+02 1.24928E-03 1.48326E-03 8.90982E-04 8.92422E-05-1.24654E-03
 -1      2832 1.99997E+02 8.75627E-04 1.50613E-03 7.80160E-04 2.37717E-04-5.41802E-04
 -1      2833 1.99998E+02-2.68689E-06-5.84065E-06-4.57348E-06 1.07960E-07 3.39155E-06
 -1      2834 1.99998E+02-5.39810E-06-5.43246E-06-5.29632E-06 1.50765E-06 5.51599E-06
 -1      2835 1.99998E+02-3.06518E-06-5.03058E-06-5.42276E-06 2.10392E-08 7.01063E-06
 -1      2836 1.99998E+02-5.78933E-06-2.68507E-06-3.36637E-06 1.64712E-07 4.70637E-06
 -1      2837 1.99998E+02-4.93335E-06-2.98015E-06-6.89847E-06 4.39034E-08 5.57628E-06
 -1      2838 1.99998E+02-3.03888E-06-5.04059E-06 5.57129E-06 1.16967E-08-6.93907E-06
 -1      2839 1.99998E+02-2.67493E-06-5.83063E-06 4.68895E-06 1.44467E-07-3.36939E-06
 -1      2840 1.99998E+02 1.95169E-09 1.77077E-10-4.81542E-09-2.69140E-09-1.52957E-10
 -1      2841 1.99998E+02 1.28735E-10 3.66417E-10-2.79038E-09-1.30365E-09-1.29513E-09
 -1      2842 1.99998E+02 1.60019E-09 1.67163E-09-1.10602E-09-5.38798E-09-1.08768E-09
 -1      2843 1.99998E+02-8.16825E-07-5.08054E-06 2.69788E-06 7.86231E-07 6.94626E-07
 -1      2844 1.99998E+02-3.61089E-06-3.66406E-06 1.60701E-06 1.13716E-06 1.61039E-06
 -1      2845 1.99998E+02-7.78825E-07-1.99567E-06 1.14597E-06 3.81156E-07 2.95100E-06
 -1      2846 1.99998E+02-8.08343E-07-2.02175E-06-1.23616E-06 3.19631E-07-3.03560E-06
 -1      2847 1.99998E+02-7.77037E-07-4.96675E-06-2.66492E-06 7.52024E-07-7.66122E-07
 -1      2848 1.99998E+02-3.61971E-06-3.67472E-06-1.53609E-06 1.07636E-06-1.57897E-06
 -1      2849 1.99998E+02-4.95494E-06-7.72907E-07 6.67524E-07 8.30075E-07 2.70453E-06
 -1      2850 1.99998E+02-1.99520E-06-8.12126E-07 2.94032E-06 3.59485E-07 1.22487E-06
 -1      2851 1.99998E+02-1.50625E-12-8.57068E-12-1.57723E-12 4.05947E-12-7.91690E-12
 -1      2852 1.99998E+02 1.94039E-12-9.79664E-13-4.51264E-13 8.92651E-13-5.63404E-12
 -1      2853 1.99992E+02-1.38069E-03-3.31284E-03 4.86785E-03-2.61003E-03-5.16140E-05
 -1      2854 1.99989E+02-5.17658E-03-7.60775E-03 1.47001E-03-4.02991E-03 1.16717E-03
 -1      2855 1.99998E+02 1.06884E-08 6.73015E-09-1.20279E-08-2.38802E-08 2.26919E-09
 -1      2856 1.99998E+02 2.15118E-08 1.18182E-08-2.40743E-08-2.33956E-08 9.64874E-09
 -1      2857 1.99998E+02 1.75559E-08 1.75238E-08 2.64419E-09-3.79811E-08 8.57256E-10
 -1      2858 1.99998E+02-6.32810E-11-4.24945E-11-2.80981E-10-2.16259E-10-1.73197E-10
 -1      2859 1.99998E+02-7.56567E-12-1.21811E-11-2.30385E-10-2.34174E-10-1.01533E-10
 -1      2860 1.99998E+02 2.23697E-11 4.27294E-11-1.65259E-10-4.37335E-10-1.73437E-10
 -1      2861 1.99998E+02 2.47678E-10 2.13833E-09-3.67663E-10-2.85951E-09-4.76050E-09
 -1      2862 1.99998E+02 3.89542E-10 6.34772E-11-1.35913E-09-1.29574E-09-2.73734E-09
 -1      2863 1.99998E+02 5.43193E-12-1.64798E-11-1.10027E-10-2.02566E-10-2.26359E-10
 -1      2864 1.99998E+02-2.64357E-11-7.76695E-11-1.73510E-10-2.16814E-10-2.90030E-10
 -1      2865 1.99998E+02-4.63259E-11 8.17061E-11 5.04705E-11 1.77209E-11-4.94507E-11
 -1      2866 1.99998E+02-2.28284E-11 6.57595E-11 3.93173E-12 3.20993E-11-5.40980E-11
 -1      2867 1.99998E+02-2.76504E-12 6.17854E-11 3.35549E-11 1.86829E-11-3.82983E-11
 -1      2868 1.99998E+02-1.24482E-11 3.30181E-11-1.14832E-11 1.95045E-11-5.73278E-11
 -1      2869 1.99998E+02 1.03102E-08 1.50585E-08 6.87378E-09-2.12225E-08-1.40049E-08
 -1      2870 1.99998E+02 8.83963E-09 1.60136E-08 1.06745E-08-1.85158E-08-1.93974E-08
 -1      2871 1.99998E+02 5.46368E-09 9.32205E-09-1.17203E-09-1.03993E-08-8.62715E-09
 -1      2872 1.99998E+02 2.48113E-09 1.18240E-08 2.19246E-09-9.06263E-09-1.45903E-08
 -1      2873 1.99998E+02-4.47565E-06-3.00315E-06-2.51374E-06 9.69618E-07-2.66209E-06
 -1      2874 1.99998E+02-7.43230E-06-3.60895E-06 5.65832E-07 1.15646E-06-4.58476E-06
 -1      2875 1.99998E+02-5.55839E-06-3.78939E-06-4.97408E-06 2.68567E-06-4.82973E-06
 -1      2876 1.99998E+02-7.28367E-06-2.93259E-06-1.67862E-06 2.94460E-06-6.94844E-06
 -1      2877 2.00903E+02-1.33316E+00-6.57183E-01-1.06272E-01 1.15957E-02-7.63113E-01
 -1      2878 2.00363E+02-8.52210E-01-5.14806E-01-5.23647E-01 8.47609E-03-4.66357E-01
 -1      2879 2.00199E+02-8.52242E-01-1.88849E-01-1.93792E-01 5.54085E-02-4.74070E-01
 -1      2880 1.99620E+02-3.95903E-01-1.19578E-01-5.63830E-01 3.51123E-02-2.22845E-01
 -1      2881 1.99997E+02 1.21322E-03 1.22177E-03-8.35908E-04 4.77117E-05-9.39012E-04
 -1      2882 1.99998E+02 5.28197E-13 5.27914E-12-3.91071E-12 1.64312E-14-8.16601E-12
 -1      2883 1.99998E+02-6.82240E-13 1.03171E-12-5.26956E-12 2.14126E-12-5.36644E-12
 -1      2884 1.99998E+02-5.56301E-07-1.12281E-06 3.91275E-07 6.94033E-08-2.36181E-07
 -1      2885 1.99998E+02 1.23628E-08 2.14657E-08-9.94068E-09-2.36294E-08 2.43630E-08
 -1      2886 1.99998E+02 7.46428E-09 1.02874E-08-2.50011E-09-2.40756E-08 1.19265E-08
 -1      2887 1.99998E+02 1.84740E-08 1.70709E-08-1.27826E-09-3.81927E-08-2.72532E-09
 -1      2888 1.99998E+02 1.00572E-09-2.80939E-08-6.03413E-08-2.30144E-08 7.79973E-08
 -1      2889 1.99997E+02 7.81184E-04 8.00697E-04 6.44084E-04 5.50464E-05-6.61085E-04
 -1      2890 1.99998E+02 1.63308E-08 8.77097E-09 1.94390E-08-1.86073E-08-1.08924E-08
 -1      2891 1.99998E+02 1.58031E-08 1.02609E-08 1.40018E-08-2.13814E-08-7.05616E-09
 -1      2892 1.99998E+02 1.16303E-08 2.52972E-09 1.47777E-08-9.20845E-09-2.37054E-09
 -1      2893 1.99998E+02 9.46312E-09 5.56044E-09 8.77445E-09-1.04878E-08 1.04966E-09
 -1      2894 1.99998E+02-3.10616E-06-3.16611E-06-4.01558E-06 7.10970E-07 4.18319E-06
 -1      2895 1.99998E+02-1.55253E-12-1.30363E-12-5.26643E-12 2.58941E-12 6.92137E-12
 -1      2896 1.99998E+02-1.00695E-09 1.80329E-09-1.22783E-09 2.07101E-09 8.13225E-09
 -1      2897 1.99998E+02-9.86540E-10-1.26388E-09-2.13911E-10 3.03209E-10 2.28694E-10
 -1      2898 1.99998E+02-4.43402E-09-2.05036E-09 2.28722E-09 4.31039E-10-2.23204E-10
 -1      2899 1.99998E+02-4.66127E-06-4.73714E-06 3.74367E-06 2.47492E-06 3.66800E-06
 -1      2900 1.99998E+02 7.09274E-10-7.03976E-11-9.43527E-10-1.76097E-10 9.26509E-10
 -1      2901 1.99998E+02 2.62339E-09 5.35011E-09-5.72952E-09 1.23882E-09-3.69946E-09
 -1      2902 1.99985E+02-1.05230E-03-1.63302E-03 2.83242E-03-2.62804E-03 2.70530E-03
 -1      2903 1.99998E+02-4.71934E-06-4.65836E-06-3.59344E-06 2.31029E-06-3.79113E-06
 -1      2904 1.99998E+02 1.38576E-08 1.31418E-08 1.34911E-09-2.72023E-08 7.13783E-10
 -1      2905 1.99998E+02 1.33107E-08 1.33984E-08-8.99569E-10-2.69599E-08-1.41335E-09
 -1      2906 1.99998E+02-5.08451E-06-8.26264E-07-7.09188E-07 7.36564E-07-2.71278E-06
 -1      2907 1.99998E+02-2.04672E-06-8.52730E-07-3.02466E-06 3.41158E-07-1.22397E-06
 -1      2908 1.99998E+02 1.08662E-08 2.08332E-08 9.93831E-09-2.24790E-08-2.50559E-08
 -1      2909 1.99998E+02 6.38069E-09 1.00701E-08 3.12786E-09-2.34541E-08-1.31032E-08
 -1      2910 1.99998E+02 2.20640E-09 2.41991E-09-2.40713E-09-6.41919E-09-2.35659E-09
 -1      2911 1.99998E+02 3.05164E-10 1.10611E-10 1.34409E-09-1.24933E-09 2.72240E-09
 -1      2912 1.99998E+02 1.58399E-10 2.03817E-09 1.78138E-10-2.68580E-09 4.78602E-09
 -1      2913 1.99998E+02 1.62641E-09 1.69674E-09 1.06095E-09-5.42054E-09 1.04462E-09
 -1      2914 1.99998E+02-2.31690E-11-2.69923E-11-1.35703E-10-2.40749E-10-1.41865E-10
 -1      2915 1.99998E+02 1.99828E-09 2.96774E-10 4.73406E-09-2.89112E-09 2.97110E-10
 -1      2916 1.99998E+02 6.00216E-11 3.20511E-10 2.80786E-09-1.41356E-09 1.29398E-09
 -1      2917 1.99992E+02-6.77166E-03-3.54192E-03-1.26927E-03-3.64045E-03-2.24382E-03
 -1      2918 1.99991E+02-4.17276E-03-2.33449E-03-3.99402E-04-2.44338E-03-4.53690E-03
 -1      2919 1.99971E+02-1.13426E-02-9.13474E-03-7.61249E-04-1.07515E-03 2.80515E-04
 -1      2920 1.99998E+02 1.14841E-08 6.28721E-09 1.29026E-08-2.36624E-08-3.33012E-09
 -1      2921 1.99998E+02 2.18718E-08 1.06995E-08 2.50050E-08-2.27135E-08-1.01251E-08
 -1      2922 1.99991E+02-2.61699E-03-3.85124E-03-2.92757E-03-1.91196E-03 6.53496E-04
 -1      2923 1.99990E+02-4.23819E-03-6.90041E-03-1.13600E-03-3.43729E-03-2.14370E-03
 -1      2924 2.00425E+02-7.83098E-01-1.09857E+00-8.50513E-01 1.28781E-01-1.01509E+00
 -1      2925 2.02717E+02-1.03701E+00-1.05609E+00-6.76706E-01 1.00367E-01-6.77475E-01
 -1      2926 2.01648E+02-6.94802E-01-1.26208E+00-1.21497E+00 1.10994E-01-5.36575E-01
 -1      2927 1.98322E+02 3.25811E+01 3.11919E+01-2.05339E+00-2.22284E-01-4.29377E+00
 -1      2928 1.98438E+02 3.23742E+01 3.21825E+01-3.36654E+00 7.98651E-01 2.77744E+00
 -1      2929 1.91107E+02 3.67794E+01 4.05111E+01-7.96875E+00-2.08736E-01-1.20269E+00
 -1      2930 2.13404E+02 9.80218E+00 9.22675E+00-6.93225E-01 3.87704E-01-1.21318E+00
 -1      2931 1.91086E+02 3.86295E+01 3.70237E+01-6.33723E+00-6.68904E-01-8.22462E+00
 -1      2932 2.00010E+02 1.91526E-03 1.93942E-03 2.89952E-03 1.63997E-03-3.21272E-03
 -1      2933 1.99998E+02 2.63197E-11 4.09800E-11 3.08740E-11 9.83168E-11 1.01802E-10
 -1      2934 1.99998E+02-5.43249E-12 2.28369E-11 1.25140E-11 9.57926E-11 1.11213E-11
 -1      2935 1.99998E+02-7.46722E-11-2.31151E-11 3.87760E-11 4.95635E-11 1.63458E-11
 -1      2936 1.97939E+02 3.13881E+01 3.22497E+01 3.14449E+00-8.01210E-02-1.78595E-01
 -1      2937 2.00466E+02-9.32977E-01-7.43042E-01-9.69749E-01 8.29689E-02-8.95099E-01
 -1      2938 2.01594E+02-1.31458E+00-6.99808E-01-5.67893E-01 8.50673E-02-1.23553E+00
 -1      2939 1.99998E+02 2.23658E-09 2.58716E-09 2.41033E-09-6.50037E-09 2.27927E-09
 -1      2940 1.99998E+02 7.29299E-12 9.49169E-11 3.34306E-11 8.73925E-11-6.15443E-11
 -1      2941 1.99998E+02 3.90771E-11 2.06190E-10 9.40371E-11 5.99387E-11-6.41638E-12
 -1      2942 1.99998E+02 1.46265E-08 7.34823E-09 3.62265E-08 7.87866E-09 3.22411E-08
 -1      2943 1.99998E+02-1.16253E-08 4.27685E-09-1.01694E-08 6.35909E-09-2.89864E-08
 -1      2944 1.99998E+02-5.54974E-09-2.48323E-08-4.98685E-08-5.63719E-09 1.01349E-08
 -1      2945 1.99985E+02-1.83068E-03-1.49096E-03-2.64189E-03-2.50628E-03-2.83593E-03
 -1      2946 1.99998E+02 1.05223E-08 1.78357E-08-1.02021E-09-4.25034E-09 2.04300E-08
 -1      2947 1.99998E+02 4.93040E-09-7.33777E-09-3.35542E-09-9.08348E-10 2.22858E-09
 -1      2948 1.99998E+02 2.18699E-08 6.46568E-09-1.03657E-08 1.13708E-08-5.93391E-08
 -1      2949 2.01108E+02-8.02675E-01-8.23980E-01-6.84940E-01 9.77172E-02-6.42171E-01
 -1      2950 1.99998E+02-3.07983E-11 6.10553E-12 1.51065E-11 5.97013E-11 2.14117E-12
 -1      2951 1.99998E+02-3.98312E-13-6.59382E-13 2.39734E-12 2.29249E-12-7.64207E-12
 -1      2952 1.99998E+02-1.22115E-11-3.85832E-12 1.37863E-11 2.19306E-12-1.17212E-11
 -1      2953 1.99998E+02 2.24453E-12 7.28594E-12 4.86398E-12 3.12945E-12-1.80606E-11
 -1      2954 1.99998E+02-1.36622E-13 2.17991E-12-2.52875E-13 3.13321E-12-1.70257E-11
 -1      2955 1.99998E+02-4.67571E-12-3.50118E-13 4.01770E-12 5.71962E-12-1.77853E-11
 -1      2956 1.99998E+02-2.15755E-12 1.92442E-12 2.63333E-12 2.10632E-12-7.03707E-12
 -1      2957 1.99998E+02-5.21245E-11-7.06839E-11 7.89692E-10-2.42652E-10-8.16552E-10
 -1      2958 1.99998E+02 6.63648E-11 4.90675E-11 3.55726E-10-9.76746E-11-5.78849E-10
 -1      2959 1.99998E+02-6.45216E-11 2.03255E-10 1.04277E-09-1.04391E-09-1.91105E-09
 -1      2960 1.99998E+02 1.48665E-10 4.23031E-11 1.19225E-09-8.18293E-10-7.74162E-10
 -1      2961 1.99998E+02 2.77700E-10-8.40740E-12 1.93286E-09-1.14950E-09-1.12952E-09
 -1      2962 1.99998E+02 1.89672E-12 4.04176E-12 1.06912E-11 2.76813E-12-7.12913E-12
 -1      2963 1.99998E+02-1.10731E-11 7.12122E-12 2.61414E-11 1.25024E-12-1.43938E-11
 -1      2964 1.99998E+02-4.17405E-12-1.11969E-12 1.04208E-11 3.15132E-12-8.20675E-12
 -1      2965 1.99998E+02 1.16223E-12 8.87236E-12 6.98015E-12-1.70195E-12-1.33632E-11
 -1      2966 1.99998E+02 3.25118E-10-4.32509E-10-1.07218E-09 3.10642E-10 3.79078E-10
 -1      2967 1.99998E+02-1.32281E-10 1.20038E-10-3.23918E-10 1.92238E-11 3.93902E-10
 -1      2968 1.99998E+02 3.09086E-10 1.84549E-09 1.99171E-10-3.97332E-10 2.85340E-10
 -1      2969 2.01116E+02-2.46739E+00-1.24027E+00 1.04412E+00 9.17993E-02-2.34218E+00
 -1      2970 2.06790E+02-5.61209E-01-6.62510E-01 9.98047E-01 3.77622E-01-8.73153E-01
 -1      2971 2.05773E+02 2.60056E+00 2.71429E+00 6.62063E-01-1.13350E+00-6.07036E-01
 -1      2972 1.91652E+02 3.94414E+01 3.67853E+01 1.60615E+00 8.34097E-01-8.53056E+00
 -1      2973 1.90957E+02 3.68684E+01 3.83971E+01 7.24387E+00 4.62184E-01-3.60791E+00
 -1      2974 1.99998E+02-6.99761E-09 1.70753E-08-1.46005E-08 2.97838E-09 4.44103E-08
 -1      2975 1.99998E+02 1.41934E-08 1.24754E-08-5.62388E-09-2.23047E-08-9.45852E-08
 -1      2976 2.06652E+02-6.84692E-01-5.96322E-01-9.14952E-01 3.61032E-01 1.01074E+00
 -1      2977 2.01116E+02-1.23850E+00-2.32079E+00-2.30779E+00 5.52118E-02 9.63611E-01
 -1      2978 2.05675E+02 2.65924E+00 2.65631E+00-5.79330E-01-1.20469E+00 5.99786E-01
 -1      2979 2.00970E+02-5.54897E-01-5.57017E-01 1.70107E-01-1.75880E-02-1.94512E-01
 -1      2980 2.00018E+02-4.28281E-01-4.94699E-02 9.31210E-02-5.45089E-03-1.91760E-01
 -1      2981 2.00774E+02-7.84978E-01-3.84119E-01-3.17686E-02 6.14638E-03-3.90637E-01
 -1      2982 2.02184E+02-8.89797E-01-9.22789E-01 6.53542E-01-1.74639E-01-6.45204E-01
 -1      2983 2.00490E+02-9.60542E-01-5.49551E-01 5.00174E-01-1.06658E-01-7.15325E-01
 -1      2984 2.00794E+02-6.44780E-01-6.55196E-01 6.53391E-01-5.37042E-02-6.57420E-01
 -1      2985 1.99998E+02 8.98355E-12 2.38006E-12 4.46135E-11-3.02486E-11 5.89063E-12
 -1      2986 1.99998E+02 3.34503E-11 2.20690E-11 1.65173E-11-1.80573E-10 1.39709E-11
 -1      2987 1.99998E+02-3.08573E-11-8.05297E-12 6.50604E-11-1.40115E-10 1.06263E-11
 -1      2988 1.99998E+02-5.01247E-11-1.03292E-11 2.00291E-10-1.89198E-10 1.11678E-10
 -1      2989 1.99998E+02 1.30329E-11 1.23361E-12 1.41428E-10-4.36078E-10 1.35076E-10
 -1      2990 1.99998E+02-1.64324E-11-2.78216E-11 1.42238E-10-2.29347E-10 1.43327E-10
 -1      2991 1.99998E+02 2.53921E-10 1.98634E-10 7.43730E-10-3.85100E-11-4.55804E-10
 -1      2992 1.99998E+02-6.15500E-10 3.53063E-10-6.22266E-10 6.23778E-11 2.98362E-10
 -1      2993 1.99998E+02-1.70135E-09-9.84146E-11 1.37131E-09-3.58062E-10-3.27392E-10
 -1      2994 1.99998E+02 1.01954E-12-7.60605E-13 9.67518E-12-1.59580E-10 6.46269E-11
 -1      2995 1.99998E+02 2.84850E-12 8.03349E-13 6.87120E-12-4.07554E-11 4.83719E-11
 -1      2996 1.99998E+02-9.19784E-13-3.77401E-11 9.82683E-11-2.21352E-10 2.19230E-10
 -1      2997 2.11232E+02 1.75112E+01 1.13905E+01-3.78080E-01 7.85396E-01-4.96299E+00
 -1      2998 1.99998E+02-1.93892E-10 1.99912E-10-4.67059E-10-1.45830E-09 2.72981E-09
 -1      2999 1.99998E+02 2.68252E-10 2.94293E-10-8.47288E-10-4.90605E-09 8.31852E-10
 -1      3000 1.99998E+02 3.38666E-10 5.90847E-10-1.76779E-10-3.81652E-09 2.92326E-09
 -1      3001 1.99998E+02 9.91519E-10 2.63393E-09-3.34164E-09-4.31636E-09 7.29322E-09
 -1      3002 1.99998E+02 1.28727E-09 1.33724E-09-4.03218E-09-9.10689E-09 4.03369E-09
 -1      3003 1.99998E+02 1.32662E-09 1.34815E-09-4.89917E-09-5.64991E-09 4.91553E-09
 -1      3004 2.01382E+02-7.13280E-01-1.32933E+00 1.19071E+00 8.76421E-02 5.68182E-01
 -1      3005 2.02581E+02-1.01301E+00-1.01423E+00 6.49101E-01 1.11709E-01 6.61996E-01
 -1      3006 2.00878E+02-6.42990E-01-1.31728E+00 7.77565E-01-7.88064E-03 1.02303E-01
 -1      3007 2.00051E+02-1.90006E-01-9.40723E-01 5.38536E-01-8.57298E-03 2.92955E-01
 -1      3008 2.00967E+02-5.96208E-01-5.83943E-01 2.40684E-01 1.09278E-02 2.52240E-01
 -1      3009 2.00970E+02-7.62938E-01-7.68597E-01 7.16620E-01 1.37458E-01 7.38699E-01
 -1      3010 1.99998E+02 1.84338E-10-1.40385E-10-2.75114E-09-1.45899E-09 4.68678E-10
 -1      3011 1.99998E+02 5.26415E-10 3.96084E-10-2.94065E-09-3.79509E-09 1.93411E-10
 -1      3012 1.99998E+02 2.59304E-09 1.01029E-09-7.27623E-09-4.31532E-09 3.36507E-09
 -1      3013 1.99998E+02-2.43017E-11-9.82233E-12 7.69368E-11-5.46086E-11 2.13884E-11
 -1      3014 1.99998E+02-4.42655E-11-6.26792E-12 2.65451E-10-1.95547E-10 1.57843E-10
 -1      3015 1.99998E+02 2.55620E-12-2.64936E-11 2.52591E-11-5.11224E-11 7.65166E-11
 -1      3016 1.99998E+02-5.84678E-13-1.70437E-11 1.60421E-10-1.97381E-10 2.67552E-10
 -1      3017 2.01414E+02-1.29841E+00-7.19752E-01 5.41612E-01 9.23201E-02 1.18852E+00
 -1      3018 2.00926E+02-1.26620E+00-5.87290E-01 1.70450E-02-7.41422E-03 8.04009E-01
 -1      3019 2.00055E+02-9.29300E-01-1.79986E-01 2.88752E-01-7.01785E-03 5.29756E-01
 -1      3020 1.99998E+02-1.80139E-11 3.60945E-11 1.61468E-11 6.67885E-12-2.69155E-11
 -1      3021 1.99998E+02 2.36380E-12 3.53879E-11 1.21699E-12 8.38785E-12-2.89340E-11
 -1      3022 1.99998E+02-1.03718E-12-2.13375E-12-8.52708E-11-1.64309E-11-9.26586E-11
 -1      3023 1.99998E+02 1.29000E-10 1.63852E-10-2.54473E-09-1.93475E-10-2.28920E-09
 -1      3024 1.99998E+02-4.81616E-12 5.48380E-12-7.31600E-12 4.07939E-12-1.75740E-12
 -1      3025 1.99570E+02-4.01514E-01-1.73240E-01 4.22885E-01-4.47708E-02-1.91854E-01
 -1      3026 2.00136E+02-9.61729E-01-8.50391E-01 1.04378E+00-7.96568E-02-7.73510E-01
 -1      3027 1.99998E+02-2.21149E-11-3.87488E-11-3.18312E-11-2.72683E-10-2.50173E-10
 -1      3028 1.99998E+02-3.00222E-11-5.89909E-11-1.61497E-10-3.21210E-10-3.93516E-10
 -1      3029 2.00011E+02 3.47086E-03 3.12555E-03 4.34185E-03-2.24557E-03 4.39289E-03
 -1      3030 1.99998E+02 7.35215E-10 1.26961E-09 3.24685E-10-3.78263E-09-3.22981E-09
 -1      3031 1.99998E+02 1.93727E-10 9.05760E-10-6.83647E-10-1.62053E-09-2.65119E-09
 -1      3032 1.99994E+02 3.71785E-03 5.20345E-04-8.67423E-04 1.06278E-03 4.44386E-03
 -1      3033 1.99981E+02 1.81891E-03 1.67560E-03-3.69875E-03 2.64661E-03 3.72530E-03
 -1      3034 1.99983E+02-4.41653E-03-2.68529E-03-3.50017E-03 1.02533E-03 1.26485E-03
 -1      3035 1.99998E+02 4.83277E-09-1.42388E-09 8.51660E-09 3.34489E-10 5.36524E-10
 -1      3036 1.99998E+02-7.88280E-12-5.93244E-12-9.07505E-11-7.00994E-11 4.43442E-11
 -1      3037 1.99998E+02-1.37567E-11-1.63473E-11-4.32718E-11-2.35108E-10 2.01947E-11
 -1      3038 1.99998E+02 4.82624E-11 1.55396E-11-2.22703E-10-3.64217E-10-6.46428E-11
 -1      3039 1.99998E+02 7.58236E-10 1.42230E-10-2.67200E-09-1.70289E-09-7.47035E-10
 -1      3040 1.99998E+02 1.20118E-09 7.91902E-10 3.19905E-09-3.79364E-09-3.77211E-10
 -1      3041 1.99998E+02 8.53913E-10 2.19902E-10 2.64147E-09-1.65677E-09 6.33684E-10
 -1      3042 2.00802E+02-3.44415E-01-6.81416E-01-3.92014E-01-2.55273E-02-3.16144E-02
 -1      3043 2.00066E+02-8.32698E-02-4.47453E-01-1.72127E-01 2.11263E-02-1.03927E-01
 -1      3044 1.99987E+02-1.61126E-02-7.04036E-03-5.23440E-03-2.34959E-03 3.64779E-03
 -1      3045 1.99995E+02-5.80478E-04-7.52431E-04-1.91679E-03 1.85318E-03 6.55074E-03
 -1      3046 1.99987E+02-2.74556E-03-8.27421E-03 5.97070E-03 5.67963E-04 1.65612E-05
 -1      3047 1.99986E+02-1.00911E-02-1.95477E-02 3.24322E-03-3.77215E-03-5.64606E-03
 -1      3048 2.00033E+02-5.96416E-02-4.26024E-01 1.95156E-01-5.45763E-03-9.89336E-02
 -1      3049 2.00799E+02-3.62059E-01-7.79765E-01 3.94235E-01 1.28044E-02 4.76784E-03
 -1      3050 2.00479E+02-5.29057E-01-9.60700E-01 7.23936E-01-1.00386E-01-4.88726E-01
 -1      3051 1.99998E+02-3.46623E-11-4.65224E-11-3.90146E-10-2.97759E-10-1.68239E-10
 -1      3052 1.99998E+02-2.45983E-11-3.69942E-13-2.27189E-10-1.04649E-10 1.54470E-11
 -1      3053 1.99998E+02 6.70666E-11 1.09699E-10 2.46729E-09-2.24455E-10 2.16870E-09
 -1      3054 1.99998E+02 1.60952E-11 6.66113E-10-1.08952E-09-1.66990E-09 3.55402E-09
 -1      3055 1.99998E+02 1.40977E-09 2.47909E-09-4.89166E-09-4.33586E-09 8.76617E-09
 -1      3056 2.00099E+02-4.14836E-01-4.80321E-02-9.93655E-02 1.64655E-02-1.70745E-01
 -1      3057 1.99872E+02-4.61633E-02-4.61041E-02-8.44669E-02 2.90605E-03 8.40016E-02
 -1      3058 1.99933E+02-1.21794E-02-3.05392E-02-2.99224E-02 9.36165E-03 5.13401E-02
 -1      3059 1.99928E+02-2.20056E-02-6.00061E-02-1.46121E-03 6.14473E-03 6.51370E-02
 -1      3060 1.99998E+02-6.06810E-03-3.80056E-03-7.70408E-03 8.23869E-03-1.24505E-02
 -1      3061 1.99935E+02-6.41900E-02-2.34532E-02-7.05422E-02 3.98648E-03 3.92497E-03
 -1      3062 1.99998E+02-5.51864E-08-3.47156E-07 2.73320E-08-5.25635E-08 1.61031E-07
 -1      3063 1.99998E+02-3.97493E-08-9.73645E-08-1.65157E-08-4.89367E-08 1.17504E-07
 -1      3064 1.99998E+02-1.60539E-07-1.68258E-07 5.22750E-08-6.68034E-08 5.07083E-08
 -1      3065 1.99998E+02 7.80594E-10 1.08233E-10-3.68007E-09-1.72311E-09 1.10037E-09
 -1      3066 1.99998E+02 2.55825E-09 1.52987E-09-8.71258E-09-4.29288E-09 4.89674E-09
 -1      3067 2.00011E+02 3.08429E-03 2.57468E-03-3.82329E-03-2.15027E-03-4.07850E-03
 -1      3068 1.99998E+02-2.75327E-06-5.16741E-07 5.90539E-07 3.87499E-07 9.25459E-07
 -1      3069 2.00293E+02-8.16692E-01-9.66293E-01 8.25027E-01 5.88797E-02 1.02929E+00
 -1      3070 1.99665E+02-1.36224E-01-3.85461E-01 1.98997E-01 4.61211E-02 5.21136E-01
 -1      3071 1.99987E+02-8.09610E-03-2.99532E-03 4.95554E-05 2.98243E-04-5.91821E-03
 -1      3072 1.99987E+02-1.91286E-02-8.76733E-03 3.33406E-03-2.85667E-03-4.61381E-03
 -1      3073 2.00078E+02-5.88505E-02-4.29236E-01 1.84687E-01 1.44360E-02 1.26416E-01
 -1      3074 1.99994E+02 7.07075E-04 3.68867E-03-4.49370E-03 9.58950E-04 8.57146E-04
 -1      3075 1.99982E+02-2.79340E-03-5.12977E-03-1.08209E-03 8.37324E-04 3.25980E-03
 -1      3076 1.99998E+02-5.24173E-07-2.82947E-06 9.08593E-07 3.89902E-07 5.98784E-07
 -1      3077 1.99997E+02 2.08265E-03 1.15601E-03 6.83688E-04 1.96184E-04-1.41464E-03
 -1      3078 1.99998E+02 2.82542E-12 3.75562E-12-3.02279E-12 2.36021E-12-7.40366E-12
 -1      3079 1.99998E+02 2.03185E-12-4.10792E-14-1.59106E-12 2.53875E-12-1.14421E-11
 -1      3080 1.99998E+02-5.12846E-12-7.79480E-12-2.15088E-12 2.50898E-12-5.69165E-12
 -1      3081 1.99998E+02 4.85561E-12 7.84225E-12-1.70460E-13 2.71126E-12-1.30882E-11
 -1      3082 1.99998E+02 3.85090E-12 1.43437E-12-1.15710E-13 3.09954E-12-1.73472E-11
 -1      3083 1.99998E+02-1.44172E-12 6.58367E-12-1.05016E-12 9.18450E-13-1.35891E-11
 -1      3084 1.99998E+02-9.87561E-13 6.56360E-12-9.64054E-13-1.35783E-12-1.62837E-11
 -1      3085 1.99998E+02 4.38602E-12 3.44053E-12-1.39321E-12 5.27149E-12-1.12663E-11
 -1      3086 1.99998E+02-9.35756E-13-1.02598E-12-2.03127E-12 2.60621E-12-9.44203E-12
 -1      3087 1.99998E+02 5.59633E-12-3.33020E-13-7.96864E-13 1.78853E-12-7.83338E-12
 -1      3088 1.99998E+02 6.25222E-12 1.38076E-13-9.34801E-14-7.62723E-13-2.05905E-12
 -1      3089 1.99998E+02-1.20580E-12-9.79372E-14 2.90650E-13 2.05025E-12-3.06152E-12
 -1      3090 1.99998E+02 8.27383E-14 3.77732E-12-2.99848E-12 1.77587E-12-2.88371E-12
 -1      3091 1.99998E+02 2.49351E-12-1.64730E-12-1.34866E-12 1.91537E-12-2.92052E-12
 -1      3092 1.99998E+02-4.33590E-12-2.90128E-12-1.69463E-12 3.08068E-12-3.17330E-12
 -1      3093 1.99998E+02-3.60639E-12-7.38974E-12-4.04885E-12 1.43196E-12-8.88536E-12
 -1      3094 1.99998E+02-1.42886E-13-5.14394E-13-1.07564E-12-4.04949E-13-9.57120E-12
 -1      3095 1.99998E+02 1.81845E-12 7.79560E-13-8.96346E-12 1.85572E-12-3.08872E-12
 -1      3096 1.99998E+02 1.39870E-12 1.83009E-12-6.05447E-12 3.05157E-12-7.59809E-12
 -1      3097 1.99998E+02 2.20361E-12 4.29207E-12-4.18040E-12 3.52372E-12-7.03199E-12
 -1      3098 1.99998E+02-2.13941E-12-2.07380E-12-6.47687E-12 1.09520E-12-8.05644E-12
 -1      3099 1.99998E+02-2.72188E-12 4.66515E-12-7.55182E-12 3.67919E-12-3.28443E-12
 -1      3100 1.99998E+02 2.36412E-12 3.78253E-12-2.51350E-14 1.05933E-12-1.36780E-11
 -1      3101 1.99998E+02 3.24643E-12-1.47851E-12-4.59546E-12 2.19960E-12-9.83539E-12
 -1      3102 1.99997E+02 1.12513E-03 2.19845E-03 1.37689E-03 1.84436E-04-7.04611E-04
 -1      3103 1.99998E+02 4.69901E-04 2.29137E-05-1.64062E-04-8.50932E-06-1.37224E-04
 -1      3104 1.99998E+02 7.08124E-05 5.12759E-04-1.40175E-04-3.38543E-05-1.80818E-04
 -1      3105 1.99998E+02 2.30640E-09 4.78140E-09-4.96811E-09-5.90815E-09 1.18918E-08
 -1      3106 1.99998E+02 4.71399E-09 2.32370E-09-1.18475E-08-5.89193E-09 5.00782E-09
 -1      3107 1.99998E+02-2.86472E-06-8.19115E-06-7.24961E-06 7.03256E-07 5.07162E-06
 -1      3108 1.99998E+02-8.22852E-06-2.79634E-06-5.10980E-06 7.75833E-07 7.38744E-06
 -1      3109 1.99998E+02 4.16766E-12-1.30445E-12-4.33659E-12 6.03104E-12-1.18954E-11
 -1      3110 1.99998E+02 3.95101E-14 1.95034E-12-6.20005E-14-1.82712E-13-1.34131E-11
 -1      3111 1.99998E+02 3.65995E-13 1.43478E-12-1.68378E-12 1.48246E-12-9.71795E-12
 -1      3112 1.99998E+02-9.63819E-14 2.11039E-12 3.17173E-14 6.75309E-12-1.07261E-11
 -1      3113 1.99998E+02 1.65438E-12-1.56964E-12-3.02969E-12 3.02193E-12-3.54477E-12
 -1      3114 1.99998E+02-1.43749E-13-1.08877E-12-1.30477E-12 3.90009E-12-5.03167E-12
 -1      3115 1.99998E+02-2.12096E-12-3.56712E-12 4.91981E-12 4.33285E-12-2.01500E-12
 -1      3116 1.99998E+02-3.52523E-12-1.37172E-12-3.83213E-12 1.83383E-12-3.99216E-12
 -1      3117 1.99929E+02-1.27434E-01-2.23373E-01-1.47087E-01-3.10639E-04 2.14788E-01
 -1      3118 1.99934E+02-2.23316E-01-1.33476E-01-2.13988E-01-3.61963E-03 1.43702E-01
 -1      3119 2.00010E+02-9.22143E-02-9.65662E-02-7.86771E-02 1.26154E-02 7.90603E-02
 -1      3120 1.99998E+02-5.10232E-07-2.78771E-06-9.07452E-07 3.72618E-07-6.21340E-07
 -1      3121 1.99997E+02 9.28998E-04 2.22844E-03-1.49559E-03 2.09888E-04 7.95291E-04
 -1      3122 1.99997E+02 2.30120E-03 9.00179E-04-7.88813E-04 2.25005E-04 1.46709E-03
 -1      3123 2.00805E+02-6.74065E-01-3.35790E-01 7.38705E-03-1.57707E-02 4.00889E-01
 -1      3124 2.00050E+02-4.43519E-01-9.25420E-02 1.25464E-01 1.95249E-02 1.87638E-01
 -1      3125 1.99998E+02-2.82798E-06-8.26143E-06 7.41299E-06 7.06280E-07-5.08166E-06
 -1      3126 1.99998E+02-2.80856E-06-5.32403E-07-6.11351E-07 3.60573E-07-9.34564E-07
 -1      3127 1.99987E+02-6.35784E-03-1.63331E-02-4.79398E-03-2.01917E-03 3.55414E-03
 -1      3128 1.99996E+02-1.59029E-04-1.52093E-04-6.95957E-03 1.53539E-03 2.07956E-03
 -1      3129 1.99998E+02 5.20085E-04 7.81182E-05 1.76345E-04-3.46046E-05 1.47233E-04
 -1      3130 1.99998E+02 2.56476E-05 4.81317E-04 1.40344E-04-9.98615E-06 1.68942E-04
 -1      3131 1.99998E+02-9.47360E-08-3.84635E-08-1.14277E-07-4.89920E-08 1.65113E-08
 -1      3132 1.99998E+02-3.37448E-07-5.67880E-08-1.55851E-07-5.36204E-08-2.89707E-08
 -1      3133 1.99998E+02-1.60673E-07-1.67065E-07-4.95545E-08-7.05700E-08-5.30592E-08
 -1      3134 1.99998E+02-1.17782E-06-1.31496E-06 2.42441E-06 2.47039E-07 2.37463E-06
 -1      3135 1.99998E+02 9.72768E-11 7.77274E-10 7.14526E-10-1.69244E-09 2.62454E-09
 -1      3136 1.99998E+02 1.36055E-08 5.34276E-09-3.13034E-08-1.00821E-08 1.72465E-08
 -1      3137 1.99998E+02 1.41610E-08 1.37809E-08-1.97131E-08-2.50010E-08 1.96214E-08
 -1      3138 1.99998E+02 2.13305E-08 1.66199E-08-2.39002E-08-3.13601E-08 2.17434E-08
 -1      3139 1.99998E+02-1.78341E-12-2.35696E-12-6.13390E-12-1.65223E-12-3.24162E-12
 -1      3140 1.99998E+02 7.74024E-13-3.26536E-13 3.30945E-12-3.34729E-13-6.33985E-12
 -1      3141 1.99999E+02 1.48949E-04 1.70472E-04-5.72875E-04-2.84756E-05-5.82258E-04
 -1      3142 2.01109E+02-1.31857E+00-7.67108E-01 5.71596E-01-5.48906E-02-1.17496E+00
 -1      3143 1.99998E+02 1.36896E-08 5.19686E-09 3.11477E-08-1.01436E-08-1.70891E-08
 -1      3144 1.99998E+02 1.29908E-08 1.27329E-08 1.97749E-08-2.46476E-08-2.00224E-08
 -1      3145 1.99998E+02 1.99303E-08 1.43918E-08 2.42498E-08-3.05660E-08-2.29219E-08
 -1      3146 1.99999E+02 2.91133E-04 3.02892E-04 4.38468E-04 1.67189E-05-4.67734E-04
 -1      3147 1.99998E+02-8.26047E-06-2.83728E-06 5.16645E-06 6.68291E-07-7.31579E-06
 -1      3148 1.99998E+02 5.31919E-09 1.36285E-08-1.71796E-08-1.02297E-08 3.14743E-08
 -1      3149 1.99998E+02 1.74445E-08 2.08868E-08-2.21983E-08-3.15226E-08 2.39917E-08
 -1      3150 1.99998E+02 5.25137E-09 1.35050E-08 1.69164E-08-1.01356E-08-3.11088E-08
 -1      3151 1.99998E+02 1.49951E-08 1.91850E-08 2.27899E-08-3.03330E-08-2.46784E-08
 -1      3152 1.89957E+02 2.40076E+01 4.38871E+01 1.85866E+01 7.76005E-01-9.86156E-01
 -1      3153 1.82518E+02 1.59476E+01 3.79465E+01 1.32139E+01-5.76050E-01-7.84481E+00
 -1      3154 2.06852E+02 7.46784E+00 2.14877E+01 5.87629E+00-3.62605E-01-5.17284E-01
 -1      3155 2.07494E+02 7.82344E+00 1.73517E+01 4.38900E+00-3.44103E-01-4.56473E+00
 -1      3156 1.93159E+02 3.75657E+01 3.92315E+01 1.56289E+01-2.83806E-01-7.56548E+00
 -1      3157 1.99999E+02 3.32457E-04 3.26688E-04-4.64575E-04 3.60993E-05 4.58765E-04
 -1      3158 1.99998E+02-1.30203E-06-1.08265E-06-2.44479E-06 2.63130E-07-2.47157E-06
 -1      3159 1.99604E+02-1.72108E-01-4.44246E-01 2.02181E-01-6.53687E-02-4.41325E-01
 -1      3160 2.00113E+02-8.49561E-01-1.00506E+00 7.67574E-01-8.87682E-02-1.02421E+00
 -1      3161 2.00000E+02 1.52096E-04 1.65349E-04 5.91628E-04-2.95677E-05 5.87622E-04
 -1      3162 1.99998E+02-1.15692E-11-3.86030E-12 6.26532E-12 8.84829E-12-2.14979E-11
 -1      3163 1.99998E+02-5.42532E-12-3.70386E-12 2.34536E-12 3.95764E-12-9.96340E-12
 -1      3164 1.99998E+02-2.08581E-12-4.74205E-12-2.95897E-12 7.75756E-12-1.45655E-11
 -1      3165 1.99998E+02-7.90444E-13 6.76985E-14-1.75707E-12 5.46898E-12-1.70139E-11
 -1      3166 1.99998E+02-1.01468E-10-8.92657E-11 1.02672E-10-1.67323E-10-3.25287E-10
 -1      3167 1.99998E+02-1.88319E-10-2.16676E-10 2.35746E-10-1.08246E-09-2.62276E-10
 -1      3168 1.99998E+02-6.63085E-11-2.16818E-10 2.31351E-10-7.62413E-10-5.59284E-10
 -1      3169 1.99998E+02-4.80417E-11 2.55830E-10 7.12743E-10-7.70487E-10-1.25630E-09
 -1      3170 1.99998E+02-8.82390E-11-6.24248E-11 1.07432E-09-2.05544E-09-1.19519E-09
 -1      3171 1.99998E+02 5.82537E-11 6.32889E-11 8.03330E-10-1.12862E-09-8.55318E-10
 -1      3172 2.00267E+02-1.15517E+00-8.53630E-01 1.07111E+00 9.13473E-02 7.84971E-01
 -1      3173 1.99641E+02-3.75111E-01-1.26799E-01 5.16533E-01 3.43266E-02 1.88373E-01
 -1      3174 1.99998E+02 8.46252E-09 8.60325E-09 4.58629E-09-6.16231E-09 4.89010E-09
 -1      3175 1.99998E+02 8.68121E-09 8.25514E-09-4.99004E-09-6.07776E-09-4.31330E-09
 -1      3176 1.99998E+02 1.05477E-12-7.45890E-15-1.33649E-11 1.09886E-12-1.26454E-12
 -1      3177 1.99998E+02 1.24677E-12-7.78207E-13-1.21185E-11 2.35529E-12-1.90963E-12
 -1      3178 1.99998E+02 1.73266E-12 3.32285E-12-7.75401E-13 3.56844E-13-3.21011E-12
 -1      3179 1.99998E+02-4.65450E-13-6.01793E-13 2.64507E-12 5.99909E-13-4.14523E-13
 -1      3180 1.99998E+02-4.69259E-13-3.44152E-12-4.26065E-12 2.57589E-12-6.50337E-12
 -1      3181 1.99998E+02 2.85800E-13 3.27836E-12 4.82624E-13 1.04920E-12-1.11408E-11
 -1      3182 1.99998E+02-3.02861E-13 1.45033E-12-2.50639E-12 1.39109E-12-4.14815E-12
 -1      3183 1.99998E+02-2.50363E-12-1.86055E-12-7.51789E-12 1.93014E-12-8.28141E-12
 -1      3184 1.99998E+02-1.70006E-06-1.77127E-06-2.78347E-06-2.62593E-07 2.86194E-06
 -1      3185 1.99998E+02 1.85397E-08 1.65622E-09-3.84077E-08-2.73552E-08 1.61925E-08
 -1      3186 1.99998E+02 2.50965E-08 4.83333E-09-4.74178E-08-1.29977E-08 2.68426E-08
 -1      3187 1.99998E+02 1.95774E-08 1.02946E-09 3.97571E-08-2.61300E-08-1.55281E-08
 -1      3188 1.99998E+02 2.52751E-08 5.47292E-09 4.68774E-08-1.36551E-08-2.53117E-08
 -1      3189 1.99998E+02-5.19826E-11 1.42110E-10 2.27010E-10-3.09986E-12-1.02280E-10
 -1      3190 1.99998E+02-1.79586E-10-7.69953E-11 5.56377E-11 4.28960E-12-1.98939E-11
 -1      3191 1.99998E+02-1.36404E-11 9.41122E-11 4.31813E-11 3.58793E-12-4.68499E-11
 -1      3192 1.99998E+02-3.68023E-11-1.00725E-11 1.18392E-11 1.45784E-11-1.15372E-11
 -1      3193 1.99998E+02-9.82017E-11 2.07592E-11 1.15274E-10-2.66586E-11-3.73147E-11
 -1      3194 1.99998E+02-1.71145E-06-1.78002E-06 2.81529E-06-2.65723E-07-2.85666E-06
 -1      3195 1.99998E+02 2.58115E-09 1.83695E-08-1.66973E-08-2.76682E-08 3.86129E-08
 -1      3196 1.99998E+02 5.79884E-09 2.63377E-08-2.73709E-08-1.38019E-08 4.79758E-08
 -1      3197 2.01013E+02-7.84685E-01-1.35502E+00 1.18787E+00-6.59588E-02-5.55018E-01
 -1      3198 1.99998E+02 1.27610E-09 1.69368E-08 1.51739E-08-2.59060E-08-3.99171E-08
 -1      3199 1.99998E+02 5.48000E-09 2.38485E-08 2.48309E-08-1.33210E-08-4.66910E-08
 -1      3200 1.99990E+02-8.41676E-03-9.63351E-03-5.05470E-03 8.90436E-03 5.34759E-03
 -1      3201 2.00001E+02-4.24767E-03-5.16132E-03 9.32668E-03 5.86367E-03 6.39310E-03
 -1      3202 1.99998E+02-4.50558E-10 1.20478E-09 1.46031E-09 1.98156E-10-1.77412E-09
 -1      3203 1.99998E+02 6.67024E-10 3.77508E-10 1.21771E-10-4.54623E-11-1.67665E-10
 -1      3204 2.03910E+02 3.22432E+00 4.71656E+00 1.08628E+00-8.95410E-01 9.79661E-02
 -1      3205 2.05203E+02 4.91053E-01-1.18903E+00 1.84131E+00-1.24905E-01 1.85053E-01
 -1      3206 2.01028E+02-1.11044E+00-2.45540E+00 2.30427E+00 6.39860E-02-9.85489E-01
 -1      3207 1.99998E+02-3.81261E-08-4.05636E-08 3.09602E-09-1.18834E-08-2.07993E-08
 -1      3208 1.99998E+02 5.01224E-08 1.07832E-08-4.10530E-08-1.35720E-08 1.13493E-08
 -1      3209 1.99998E+02 2.60665E-08 5.20726E-08-2.53059E-08 3.08224E-08 6.82891E-08
 -1      3210 1.99998E+02-2.09621E-08 1.27309E-08-8.16809E-08-1.10974E-08-8.33040E-08
 -1      3211 1.99998E+02-5.03425E-09-5.91649E-09-8.52251E-09-2.44124E-09 4.39387E-09
 -1      3212 2.00081E+02-2.19745E-01-2.27500E-01-1.27277E-01-1.52110E-02 1.21307E-01
 -1      3213 1.99946E+02-1.73800E-01-1.15941E-01-8.86365E-02 4.72049E-03 5.32900E-02
 -1      3214 1.99995E+02-6.17550E-02-6.37860E-02-1.07903E-02-8.46130E-03 1.00317E-02
 -1      3215 2.05337E+02 3.76153E+00 6.27249E+00 1.09072E+00-9.72925E-02 8.36362E-02
 -1      3216 2.04133E+02 6.88878E+00 1.18588E+01-1.40939E+00 7.33189E-01-1.71961E+00
 -1      3217 2.03677E+02 3.31616E+00 4.80544E+00 1.00805E+00 1.06943E+00-3.71713E-01
 -1      3218 1.99998E+02-1.58554E-08-2.60806E-08 1.23108E-08 1.40906E-08-2.75622E-08
 -1      3219 1.99998E+02-1.70140E-08-2.77962E-08 1.34139E-08 8.15816E-09 6.41220E-08
 -1      3220 1.99998E+02 1.15944E-08 8.03741E-09-3.01322E-10-3.83913E-09 2.44111E-09
 -1      3221 1.99998E+02 3.91410E-09 3.09692E-09 8.32766E-10 2.93656E-09-3.34277E-09
 -1      3222 2.03152E+02 5.92080E+00 1.17981E+01-5.08927E-01-5.64455E-01 1.10029E+00
 -1      3223 1.99998E+02 1.30684E-09 5.67062E-10 1.13094E-09 1.23016E-09 2.51666E-09
 -1      3224 1.99998E+02 6.20752E-10-2.12410E-09-2.71900E-10 6.60459E-10 4.07950E-10
 -1      3225 1.99998E+02 3.67710E-09 7.01840E-09 3.37056E-09-3.76258E-10 5.39454E-09
 -1      3226 1.99998E+02-1.74897E-10 2.06176E-09 5.99194E-10-2.68100E-10 1.11685E-09
 -1      3227 1.99998E+02-2.27970E-10-4.10082E-10-8.29193E-10-2.13945E-11 1.49401E-10
 -1      3228 1.99998E+02 2.74297E-10 3.15386E-10 4.32339E-10 1.94872E-10 2.31138E-10
 -1      3229 1.99998E+02-9.54640E-10 2.89572E-10 5.69817E-10 5.35696E-10-1.92953E-10
 -1      3230 1.99998E+02-4.39882E-11-1.69958E-11 2.21741E-10-2.65810E-10 2.50136E-11
 -1      3231 1.99998E+02-7.94130E-11-3.07878E-11 3.66262E-10-3.03321E-10 1.63128E-10
 -1      3232 1.99994E+02 1.68959E-03 2.38646E-03-1.44531E-05 1.94446E-04-2.51095E-03
 -1      3233 1.99994E+02 2.35628E-03 1.69832E-03 2.48604E-03 2.28677E-04 8.75213E-06
 -1      3234 2.03733E+02 4.73919E+00 3.28466E+00 2.98679E-01-9.82171E-01 1.04942E+00
 -1      3235 2.05167E+02-1.15350E+00 4.62897E-01 1.16622E-01-1.46486E-01 1.84254E+00
 -1      3236 2.01008E+02-2.41338E+00-1.16804E+00-9.64639E-01 7.09919E-02 2.27805E+00
 -1      3237 2.05002E+02 5.98837E+00 3.57670E+00-1.23398E-01-1.31931E-01 1.14109E+00
 -1      3238 2.03651E+02 4.90442E+00 3.22360E+00-3.80522E-01 1.03873E+00 1.04833E+00
 -1      3239 2.04205E+02 1.21475E+01 6.83377E+00-1.68930E+00 6.92304E-01-1.25789E+00
 -1      3240 1.99998E+02-5.39227E-12 3.13515E-11 1.56051E-11-1.99150E-12-2.76365E-11
 -1      3241 1.99998E+02-7.80178E-12 3.38694E-12 5.59702E-11-2.79948E-10-3.20667E-10
 -1      3242 1.99998E+02-4.48666E-11-3.36779E-11 8.89483E-11-4.53428E-10-1.15844E-10
 -1      3243 1.99998E+02-3.08747E-11-5.04961E-12 5.72781E-11-1.64047E-10-1.86828E-10
 -1      3244 1.99998E+02 6.07801E-10 2.46460E-09 1.45036E-09-2.39038E-09-6.37906E-09
 -1      3245 1.99998E+02 2.26042E-10 2.94429E-10 1.42131E-09-5.04517E-09-1.55289E-09
 -1      3246 1.99998E+02 2.54502E-11 6.76594E-10 9.09405E-10-1.38630E-09-3.22239E-09
 -1      3247 1.99998E+02-4.63000E-13 9.44575E-13-2.68379E-13 2.91139E-12-2.76884E-12
 -1      3248 1.99998E+02 4.16660E-13 3.54711E-12 7.41425E-13 1.42993E-12-4.20874E-12
 -1      3249 1.99998E+02 4.45416E-12 2.47617E-12-2.38883E-12 7.45199E-12-1.64822E-11
 -1      3250 1.99998E+02 4.54158E-12 6.14235E-12-2.38780E-12 1.94209E-12-1.53544E-11
 -1      3251 1.99998E+02 5.36450E-12 7.41858E-12-9.44465E-13 1.50433E-12-1.57934E-11
 -1      3252 1.99998E+02 2.33789E-09 6.38945E-10 6.28159E-09-2.44234E-09-1.58334E-09
 -1      3253 1.99998E+02 6.09729E-10 7.45036E-11 3.14471E-09-1.41302E-09-9.69974E-10
 -1      3254 1.99998E+02-3.15199E-12-1.64983E-11 3.02043E-10-2.81879E-10-5.62466E-11
 -1      3255 1.99998E+02-1.27478E-11-3.62609E-11 1.64464E-10-1.67443E-10-6.23812E-11
 -1      3256 1.99998E+02 3.10315E-10 1.78940E-10 1.88104E-10 2.75562E-10 2.40243E-10
 -1      3257 1.99998E+02 1.29160E-11 3.79710E-11-3.02430E-11 8.01448E-12-7.91187E-11
 -1      3258 1.99998E+02-4.21158E-12-1.32945E-11-4.71244E-11-7.56054E-11 7.77435E-11
 -1      3259 1.99998E+02 2.71748E-11 3.71126E-11 5.84068E-11-3.54397E-10 2.03985E-10
 -1      3260 1.99998E+02-1.15476E-11-3.77877E-11-3.20020E-11 1.89038E-11 6.29943E-12
 -1      3261 1.99998E+02-2.18209E-11-1.27395E-10-2.96163E-11 1.59668E-11-1.42574E-12
 -1      3262 1.99998E+02-1.45562E-11-2.22763E-10-7.67632E-11-4.24511E-12-4.48021E-11
 -1      3263 1.99998E+02-2.53534E-12-7.15690E-11-8.97513E-11 8.04922E-12-3.45298E-11
 -1      3264 1.99998E+02 1.09754E-11-8.06430E-11-5.29804E-11-4.65821E-12-2.44467E-11
 -1      3265 2.02940E+02 1.12522E+01 5.96098E+00 1.02692E+00-6.17021E-01-4.90594E-01
 -1      3266 1.99998E+02 1.06468E-12-1.86290E-12-4.95769E-12 2.10847E-12-2.24136E-12
 -1      3267 1.99998E+02 4.07493E-12 1.31650E-12-2.94993E-12 4.14079E-12-1.41753E-11
 -1      3268 1.99998E+02 1.08660E-12-2.07407E-12-2.64385E-12 1.69814E-12-1.25002E-11
 -1      3269 1.99998E+02-2.96790E-12-4.66666E-12-7.17291E-13-2.14592E-12-9.11237E-12
 -1      3270 1.99943E+02-1.11784E-01-1.76081E-01-5.53521E-02 6.95249E-03 8.89078E-02
 -1      3271 1.99998E+02-5.97023E-11 6.27065E-11 1.76550E-10-4.20028E-11-1.72103E-11
 -1      3272 1.99998E+02-1.44288E-12 2.82224E-11-1.20117E-11-4.17354E-12 2.56438E-11
 -1      3273 1.98852E+02-1.87920E-01-1.92920E-01-4.66364E-01 5.68954E-02-4.68048E-01
 -1      3274 2.00068E+02-9.82728E-01-2.01720E-01-3.36177E-01 7.85997E-03 5.83713E-01
 -1      3275 2.00060E+02-4.66017E-01-1.01349E-01-1.59626E-01-2.01186E-02 2.13931E-01
 -1      3276 2.01037E+02-5.84663E-01-5.81739E-01-2.94646E-01-2.50562E-02 2.78321E-01
 -1      3277 1.99993E+02-1.34314E-02-4.47995E-03-1.94206E-03 2.67905E-03-6.54955E-03
 -1      3278 2.00092E+02-1.90970E-01-9.76009E-01-5.60005E-01 1.18160E-02 3.21773E-01
 -1      3279 2.00060E+02-9.53333E-02-4.70909E-01-2.11259E-01-1.90577E-02 1.62661E-01
 -1      3280 1.99992E+02-4.20649E-03-1.43467E-02 7.12217E-03 2.63958E-03 7.93684E-04
 -1      3281 2.03101E+02 4.21295E+00 5.34067E+00-2.75218E-01-7.75145E-01 6.73490E-01
 -1      3282 2.04582E+02 6.20009E+00 4.78585E+00-9.07834E-01-9.37303E-01 2.93790E-01
 -1      3283 1.93573E+02-2.83032E-01 1.40119E-03 1.54835E+00-9.75725E-01-1.67815E+00
 -1      3284 2.00125E+02-4.73509E-02-1.54534E-01 2.14306E+00-6.88487E-01-1.79475E+00
 -1      3285 1.99973E+02-2.26218E-01-3.77998E-01 1.70437E+00-9.52505E-01-2.17812E+00
 -1      3286 1.99998E+02-5.16528E-09-1.26646E-08 2.18572E-09-4.55609E-11 4.31726E-10
 -1      3287 1.99998E+02 2.02388E-09 9.81635E-10-1.64334E-09 9.86516E-10 1.14260E-09
 -1      3288 1.99998E+02 3.19948E-11-2.34329E-09 1.47108E-09-4.28736E-10 1.22534E-09
 -1      3289 1.99998E+02 3.86383E-09-2.95617E-09-1.64845E-09-2.30934E-09-8.96120E-10
 -1      3290 1.99998E+02 1.72110E-09 4.29806E-09 2.59613E-09 4.82587E-10-9.69942E-10
 -1      3291 1.99998E+02 3.23371E-10 1.10079E-09 6.06914E-10 1.33449E-10-1.03023E-09
 -1      3292 1.99998E+02 1.65703E-10 1.00683E-09-3.60249E-10-2.07214E-10 4.20188E-10
 -1      3293 1.99998E+02-2.65762E-09-1.21239E-09 3.84546E-10-1.09153E-09 2.58068E-09
 -1      3294 1.99998E+02-1.57982E-10 3.29833E-10 5.92597E-10-2.17506E-11 5.26887E-10
 -1      3295 1.84467E+02 1.92587E+01 4.03865E+01 1.58051E+01-2.15969E-02 7.88457E+00
 -1      3296 1.93418E+02 3.82635E+01 3.78389E+01 1.50575E+01 1.41099E-02 7.53096E+00
 -1      3297 2.08567E+02 6.31627E+00 1.74117E+01 5.52875E+00 3.95624E-01 4.78927E+00
 -1      3298 1.94060E+02 3.68095E+01 4.03287E+01 1.46653E+01 1.24214E-01 4.08602E-01
 -1      3299 1.99998E+02-3.72032E-08 5.55212E-09-1.21727E-08 1.90016E-08-2.37366E-08
 -1      3300 1.99998E+02-4.73447E-09-6.25340E-09 1.77983E-08-1.91913E-08-5.86789E-09
 -1      3301 1.99998E+02-7.16421E-12-8.39393E-12 7.42884E-11-1.56866E-11 7.27598E-11
 -1      3302 1.90740E+02 3.71416E+01 3.69398E+01-7.21159E+00 7.69668E-01 6.68490E+00
 -1      3303 2.11165E+02 1.17689E+01 1.79402E+01-5.17307E+00-5.16597E-01 2.24775E-02
 -1      3304 2.01705E+02-1.07909E+00-2.08728E+00-2.30173E+00-1.83820E-02-9.06437E-01
 -1      3305 2.07533E+02-3.09068E-01-2.91868E-01-8.52532E-01-1.88924E-01-8.28287E-01
 -1      3306 2.06501E+02 3.03600E+00 3.22463E+00-5.27196E-01 1.22189E+00-5.12766E-01
 -1      3307 1.99998E+02-1.09171E-08-1.28828E-08-4.18937E-08 8.49838E-09 6.70984E-08
 -1      3308 1.99998E+02 2.26276E-12 2.95469E-12-4.66791E-13 1.89592E-12-1.04739E-11
 -1      3309 1.99998E+02 1.17843E-12 6.00928E-12-1.08194E-12 2.61248E-12-1.36661E-11
 -1      3310 1.99998E+02-5.17280E-13-4.57336E-13 4.37404E-13 2.02500E-12-4.47925E-12
 -1      3311 1.99998E+02-4.70783E-13 4.11404E-12-2.62029E-12 8.58703E-13-5.25623E-12
 -1      3312 1.99998E+02 7.31950E-13-2.36068E-12-8.59649E-13 3.81438E-12-1.85080E-12
 -1      3313 1.99998E+02 2.14818E-12 1.22609E-12-2.91188E-12 2.72343E-12-3.50365E-12
 -1      3314 1.99998E+02 5.65089E-12-2.10263E-12-8.49228E-13 1.13028E-12-3.08979E-12
 -1      3315 1.99998E+02 1.60596E-12-3.22126E-12-3.67091E-12 1.05683E-12-4.85615E-12
 -1      3316 2.01712E+02-2.17967E+00-1.06928E+00-9.52230E-01-3.64604E-02-2.30024E+00
 -1      3317 1.99998E+02 9.99613E-09-3.41067E-08 1.12400E-09-2.75655E-09 3.80403E-08
 -1      3318 1.99998E+02-4.09814E-08 1.37807E-08-2.41724E-08 2.80985E-08 1.34396E-08
 -1      3319 1.99998E+02 3.53300E-09 1.28261E-08-2.26926E-09-1.94874E-09-4.41994E-09
 -1      3320 1.99998E+02-3.02520E-08-4.18558E-08 1.18128E-08-6.98994E-09-3.03961E-08
 -1      3321 1.99998E+02 1.71626E-08 4.43524E-09 5.52754E-09-3.36586E-09-5.76851E-09
 -1      3322 2.04032E+02 4.95300E+00 5.66413E+00 4.27038E-01-9.01321E-01-6.34606E-01
 -1      3323 2.03782E+02 6.04604E+00 4.62465E+00 1.05418E+00-9.26908E-01-1.00917E-01
 -1      3324 1.93686E+02-2.81048E-01-6.05450E-02-1.74757E+00-9.38211E-01 1.62605E+00
 -1      3325 2.00038E+02-1.85639E-01 2.44065E-03-2.09126E+00-7.15624E-01 1.60290E+00
 -1      3326 2.00096E+02-4.58827E-01-4.24766E-01-1.78395E+00-8.06580E-01 2.21024E+00
 -1      3327 1.99998E+02-1.15340E-10 1.90495E-11 4.35093E-11-7.47525E-13-2.53493E-11
 -1      3328 1.99998E+02-1.28034E-10-3.01005E-11-1.83906E-12-7.04044E-13-5.25210E-11
 -1      3329 1.99998E+02-1.43420E-10-5.21347E-11-5.36955E-11 1.41258E-11-1.13876E-10
 -1      3330 1.99998E+02-5.67391E-11-4.29625E-11-2.54276E-11 2.35051E-11-6.01383E-11
 -1      3331 1.99998E+02-4.03820E-11 1.13917E-11 4.00532E-11 7.16434E-12-1.10297E-11
 -1      3332 1.99998E+02-8.08095E-11-4.99668E-11-2.70578E-11 2.21057E-11-5.37657E-11
 -1      3333 1.99998E+02 6.53233E-09 7.70742E-09-9.66106E-09-2.01839E-09-2.64475E-10
 -1      3334 1.99998E+02 4.05815E-09-1.25832E-09-4.84864E-10-3.53340E-09 4.11199E-09
 -1      3335 1.99998E+02-1.70090E-11-3.54121E-11-3.72454E-12-3.99609E-11-7.18375E-11
 -1      3336 1.99998E+02-4.12097E-11-4.23086E-11 1.10772E-11-2.05684E-10-3.31744E-11
 -1      3337 1.99998E+02-1.03452E-11-1.11952E-11 1.11472E-10-2.16888E-10-1.32891E-10
 -1      3338 1.99998E+02 7.72935E-10 8.64023E-10 4.18259E-09-9.14335E-09-4.32513E-09
 -1      3339 1.99998E+02 2.33002E-09 5.07805E-09 5.17894E-09-5.95931E-09-1.18423E-08
 -1      3340 1.99998E+02 6.24720E-10 7.04915E-10 5.40871E-09-5.87606E-09-5.61402E-09
 -1      3341 1.99998E+02-3.06107E-11-1.01592E-11 4.90690E-11-3.99149E-11-2.83287E-12
 -1      3342 1.99998E+02 4.89865E-09 2.37267E-09 1.17657E-08-5.97019E-09-5.31577E-09
 -1      3343 1.99998E+02-1.76121E-11-4.54680E-11 1.48472E-10-2.87802E-10 3.70253E-10
 -1      3344 1.99998E+02-5.99588E-13-3.17153E-11-2.57652E-11-1.12799E-10 2.07593E-10
 -1      3345 1.82132E+02 1.69047E+01 3.80770E+01-1.27753E+01 6.09561E-01-7.95095E+00
 -1      3346 1.89080E+02 2.53341E+01 4.41895E+01-1.77236E+01-4.40510E-01-9.92061E-01
 -1      3347 2.07475E+02 7.71069E+00 1.78172E+01-4.61215E+00 2.19100E-01-5.05134E+00
 -1      3348 2.06849E+02 7.77380E+00 2.21658E+01-6.43954E+00 2.32250E-01-6.01414E-01
 -1      3349 1.93101E+02 3.84425E+01 3.97041E+01-1.54429E+01 2.79815E-01-8.14767E+00
 -1      3350 1.99998E+02-3.34189E-09-2.03024E-09 8.11925E-10-6.50202E-10 7.86671E-10
 -1      3351 1.99998E+02-8.65273E-10-6.36078E-10 1.13274E-09 4.24772E-10 3.99898E-10
 -1      3352 1.99998E+02-6.25857E-10 5.00093E-11 7.59715E-10 7.25157E-11-4.24182E-12
 -1      3353 1.83205E+02 4.11460E+01 2.00305E+01 7.07592E+00-6.10131E-01-1.43256E+01
 -1      3354 1.88099E+02 4.19809E+01 2.29273E+01-1.28422E-01 6.92314E-01-1.55719E+01
 -1      3355 2.08942E+02 1.89416E+01 8.51437E+00-6.05448E+00 5.85330E-02-4.77955E+00
 -1      3356 1.92029E+02 4.15467E+01 3.73976E+01-9.71526E-01-1.10187E-01-1.50744E+01
 -1      3357 2.07625E+02 2.31164E+01 8.21451E+00-1.34020E+00-8.12806E-02-6.56793E+00
 -1      3358 2.01371E+02-1.09085E+00-2.32563E+00 2.35490E+00-8.21011E-02 1.00895E+00
 -1      3359 2.07017E+02-5.67444E-01-5.88710E-01 9.32830E-01-2.27122E-01 9.46716E-01
 -1      3360 2.06048E+02 3.03355E+00 2.95561E+00 4.50487E-01 1.24168E+00 4.68157E-01
 -1      3361 1.99998E+02-2.69773E-08-1.39331E-08-7.47692E-08 1.75017E-08 2.20700E-08
 -1      3362 1.99998E+02-7.78681E-08-3.00926E-08-9.08003E-08-6.69874E-09-6.77575E-09
 -1      3363 1.99998E+02 1.19308E-08 1.99445E-08 8.66108E-09 4.72192E-09 8.10760E-10
 -1      3364 1.99998E+02 8.60578E-09 1.10830E-08-9.78891E-10-8.16748E-10-8.33365E-09
 -1      3365 1.99998E+02-2.43079E-08-2.70774E-08 1.27094E-07 5.35251E-09-2.99505E-08
 -1      3366 2.01361E+02-2.37789E+00-1.14621E+00 9.68062E-01-8.72199E-02 2.33928E+00
 -1      3367 1.99998E+02-1.64304E-10-1.75321E-10 4.29798E-11 4.05689E-11 8.48423E-11
 -1      3368 1.99995E+02-6.32070E-02-1.46466E-02 5.79573E-03 1.48277E-03-2.60224E-03
 -1      3369 1.99995E+02-6.65139E-02-1.07379E-02-8.93825E-03-2.66758E-03-3.79167E-03
 -1      3370 1.99970E+02-3.54796E-02-1.78518E-02 7.74051E-03-4.17768E-04-5.68922E-03
 -1      3371 2.00028E+02-1.37309E-01-1.18947E-01-3.83562E-02 7.99189E-04-7.35055E-02
 -1      3372 1.99992E+02-1.12091E-01-1.12172E-01-5.37006E-02-9.73447E-03-5.81128E-02
 -1      3373 2.00044E+02-2.05589E-01-1.05931E-01-7.03932E-02 2.76013E-03-7.52529E-02
 -1      3374 1.99998E+02-2.80319E-10 8.40790E-11 9.42387E-11-8.79530E-11-1.12300E-10
 -1      3375 1.99998E+02-8.00288E-12-9.53726E-12-6.99143E-12 4.89571E-12 3.83606E-12
 -1      3376 1.99998E+02-2.00605E-11-2.42086E-11-1.28454E-11 1.25765E-11-2.92807E-12
 -1      3377 1.99998E+02-9.50742E-12-1.71379E-11-5.93312E-12 8.90825E-12-3.93984E-12
 -1      3378 1.99998E+02-4.25281E-12-5.59544E-12-2.83287E-12 4.01735E-12-5.40788E-12
 -1      3379 1.99998E+02-7.60007E-12-5.50573E-12-1.74661E-12 1.20114E-11-8.46328E-12
 -1      3380 1.99998E+02-2.02014E-12 1.22644E-12-4.69690E-12 8.66579E-12-3.29070E-12
 -1      3381 1.99998E+02 3.05979E-13-5.65522E-12-5.96085E-12 2.18412E-12-4.10906E-13
 -1      3382 1.99998E+02-7.42724E-13 2.20668E-12-6.87871E-12 4.72200E-12-6.74955E-12
 -1      3383 1.99998E+02-8.09999E-12-9.24742E-12-8.77209E-12 1.05706E-11-5.67331E-12
 -1      3384 1.99998E+02 4.60268E-13-4.13935E-12-7.16152E-12 4.82808E-12-7.45154E-12
 -1      3385 1.99998E+02-6.23971E-12-1.64288E-12-5.32494E-12 4.97146E-12-1.04060E-11
 -1      3386 1.99998E+02-7.45800E-13-2.96369E-12-6.30110E-12 2.49634E-12-3.70641E-12
 -1      3387 2.00004E+02-1.40325E-01-1.31198E-01 7.30087E-02 2.95113E-03-7.64900E-02
 -1      3388 2.00020E+02-2.14711E-01-9.33939E-02 6.80059E-02 6.00701E-06-7.99485E-02
 -1      3389 2.00027E+02-3.78814E-01-2.95336E-01-1.23017E-02 5.89989E-03-1.77199E-01
 -1      3390 1.99991E+02 2.85436E-03 2.43049E-03-1.05592E-04 4.25273E-04 3.81999E-03
 -1      3391 1.99998E+02-4.45598E-11-3.99112E-11-1.98096E-11-1.23936E-10 3.95635E-11
 -1      3392 1.99998E+02-3.30699E-12-2.02863E-12-4.48697E-12-2.87609E-13-9.27772E-12
 -1      3393 1.99998E+02 2.08590E-12 8.51888E-13-2.18619E-12 7.73550E-13-8.80039E-12
 -1      3394 1.99998E+02-4.55622E-12-7.71312E-12-3.77028E-12 5.36906E-12-1.01364E-11
 -1      3395 1.99998E+02-8.80198E-13-1.55625E-12 2.04632E-12-5.42886E-13-1.38516E-11
 -1      3396 1.99998E+02-3.49002E-11-4.62050E-11-5.44607E-11-1.25139E-10 6.99030E-12
 -1      3397 1.88788E+02 4.23135E+01 2.30512E+01-6.03073E-02-6.70987E-01 1.60734E+01
 -1      3398 1.83196E+02 4.09696E+01 1.95228E+01 7.13714E+00 5.86994E-01 1.45765E+01
 -1      3399 2.08153E+02 2.32013E+01 8.53414E+00-1.27138E+00 1.09060E-01 6.40928E+00
 -1      3400 1.92183E+02 4.11226E+01 3.71682E+01-7.64596E-01 8.83571E-02 1.50928E+01
 -1      3401 2.08981E+02 1.87800E+01 8.42859E+00-5.94744E+00-1.51123E-01 4.71857E+00
 -1      3402 1.99998E+02-4.50838E-12-5.13848E-12-6.00092E-13 4.67737E-12-7.68786E-12
 -1      3403 1.99998E+02-5.53547E-13-6.96695E-12-5.77360E-12 6.24370E-12-3.13790E-12
 -1      3404 1.99998E+02 2.85048E-13 3.33734E-12-4.04206E-13 8.25740E-12-8.06841E-12
 -1      3405 1.99998E+02-4.97531E-14-3.23895E-12 2.71941E-13-4.80147E-13-2.32453E-12
 -1      3406 1.99998E+02-2.91158E-12-8.46202E-12-5.58437E-12 3.38757E-12-9.62305E-12
 -1      3407 1.99998E+02 8.77112E-09 8.08910E-09-1.49489E-08-1.73107E-08 1.15368E-08
 -1      3408 2.04075E+02-6.02274E-01-1.00849E+00 1.16980E-01-5.59631E-02-1.36775E+00
 -1      3409 1.99998E+02-1.68571E-10-1.12014E-10 3.22740E-10 3.77805E-11 2.85268E-11
 -1      3410 1.99991E+02 2.51561E-03 2.70381E-03-3.84510E-03 3.52491E-04 1.08516E-04
 -1      3411 1.99998E+02-1.76779E-12-7.22284E-13-3.07511E-12 1.67388E-12-5.02160E-12
 -1      3412 1.99998E+02 2.39634E-12 4.85927E-12-7.78657E-13 1.11538E-12-6.99852E-12
 -1      3413 1.99998E+02-1.69508E-12-5.26564E-12-4.94909E-13 1.51387E-12-1.00174E-11
 -1      3414 1.99998E+02 2.42212E-12 3.59458E-12-1.79781E-13 3.10862E-12-1.37849E-11
 -1      3415 2.02460E+02-9.23298E-01-9.19641E-01-6.48624E-01-1.54106E-01 6.61784E-01
 -1      3416 2.01207E+02-6.95588E-01-1.23855E+00-1.13990E+00-8.01642E-02 5.73528E-01
 -1      3417 2.00734E+02-7.71728E-01-7.66205E-01-7.39859E-01-1.42290E-01 7.52781E-01
 -1      3418 1.99998E+02 7.99347E-09 8.68910E-09 1.14111E-08-1.73032E-08-1.48118E-08
 -1      3419 1.99998E+02-5.69126E-08 2.43000E-08 5.79319E-08-9.56633E-09-1.95289E-08
 -1      3420 1.99998E+02 5.67963E-08 3.72296E-08 8.61325E-08-1.73047E-08 5.49204E-09
 -1      3421 1.99998E+02-1.62676E-09 2.02708E-08-7.07045E-09-5.19461E-09 5.32219E-11
 -1      3422 1.99998E+02 1.89880E-09 8.51336E-09 5.91415E-09 4.23363E-09-9.50180E-10
 -1      3423 1.99998E+02-7.56758E-09-2.82644E-08 4.48730E-09-3.55299E-09-4.20926E-08
 -1      3424 2.00029E+02-9.71053E-02-2.10624E-01 8.31305E-02-1.36289E-03-8.08639E-02
 -1      3425 1.99998E+02-1.22842E-02-5.71721E-02 1.91471E-03 4.30786E-04-4.65785E-03
 -1      3426 2.00052E+02-9.83636E-02-2.22126E-01 8.66509E-02 5.29852E-03 7.85735E-02
 -1      3427 2.00042E+02-1.23282E-01-1.48570E-01 7.95664E-02-1.57982E-03 3.98929E-02
 -1      3428 2.00077E+02-2.91569E-01-3.82986E-01 1.82946E-01-4.36845E-03 5.03962E-03
 -1      3429 1.99998E+02 8.21954E-09 8.73560E-09-1.15453E-08-1.74133E-08 1.48543E-08
 -1      3430 1.99998E+02 8.79825E-09 8.09322E-09 1.47905E-08-1.73566E-08-1.16051E-08
 -1      3431 1.99998E+02-5.54862E-08-3.20688E-08-5.16062E-08-3.55191E-08-8.97596E-09
 -1      3432 1.99998E+02-2.63768E-08-5.75495E-08 7.38986E-09-3.47746E-08 5.15950E-08
 -1      3433 2.04012E+02-1.04490E+00-6.28002E-01-1.35420E+00-5.68823E-02 7.82422E-02
 -1      3434 2.01135E+02-1.28654E+00-7.17734E-01-5.74682E-01-6.54403E-02 1.16860E+00
 -1      3435 1.99998E+02 3.73788E-12 1.41624E-11-8.14582E-10-4.19136E-10-2.29507E-10
 -1      3436 1.99998E+02 1.10871E-10 8.78105E-11-7.32832E-10-1.48701E-09 1.91602E-10
 -1      3437 1.99998E+02 1.42741E-10 1.29215E-10-1.52841E-09-1.16679E-09 5.24568E-10
 -1      3438 1.99998E+02 1.26328E-10 3.88125E-11-1.65754E-09-1.25674E-09-6.20765E-10
 -1      3439 1.99998E+02 4.90787E-10 5.13372E-10-1.57153E-09-2.84274E-09-6.97627E-11
 -1      3440 1.99998E+02 1.84721E-10 2.34229E-10-8.86857E-10-1.43982E-09-9.09965E-10
 -1      3441 1.99968E+02-1.75098E-02-3.64903E-02 4.92268E-03-5.35326E-05-9.28929E-03
 -1      3442 2.00008E+02-6.53651E-03-5.50907E-02-2.37204E-03-3.96316E-03-1.12834E-03
 -1      3443 1.99996E+02-1.26022E-01-1.27853E-01 7.69756E-02-1.21359E-02 7.37243E-02
 -1      3444 1.99998E+02-1.07423E-08 1.64155E-08-6.34263E-08 1.09310E-08-2.52454E-12
 -1      3445 1.99998E+02 1.52360E-08 6.77175E-09 1.25708E-08 1.11233E-08-5.69276E-09
 -1      3446 1.83997E+02 3.92393E+01 1.58188E+01-7.68588E+00-4.57379E-01-1.45623E+01
 -1      3447 1.92343E+02 3.88362E+01 3.63345E+01-8.21230E+00 5.60612E-01-1.74624E+01
 -1      3448 1.99998E+02 5.18331E-13-4.67088E-12-4.09394E-12 7.65310E-13-5.65204E-12
 -1      3449 1.99998E+02 9.75359E-13-2.10625E-12-4.94323E-12 2.71050E-12-1.04310E-11
 -1      3450 1.99998E+02 3.89927E-14 2.98918E-13 2.30944E-13-6.57600E-13-8.83579E-12
 -1      3451 1.99998E+02 4.22164E-13-6.75226E-14-5.20335E-13-5.27180E-12-7.55799E-12
 -1      3452 1.99998E+02-1.77031E-14-4.38217E-13-6.03892E-12-6.25496E-12-9.50029E-12
 -1      3453 1.99998E+02 1.02223E-12 1.03468E-13-8.78303E-12-2.96044E-12-7.86802E-12
 -1      3454 1.99998E+02-1.20236E-12-2.98640E-12-1.56755E-11-3.56721E-13-5.05665E-12
 -1      3455 1.99998E+02-1.86109E-12-3.05785E-12-8.54421E-12 8.09657E-13-6.54678E-12
 -1      3456 1.99998E+02-6.03928E-13 6.70555E-13-1.25970E-11-1.97260E-12-3.72034E-12
 -1      3457 1.99998E+02-4.65921E-12-2.39551E-12-1.57990E-11-6.33540E-12-7.17610E-12
 -1      3458 1.99998E+02 1.10229E-12 6.22656E-12-9.85509E-12-8.90139E-12-6.30646E-12
 -1      3459 1.99998E+02-1.33980E-11-2.23757E-10-8.62712E-11 5.13440E-12 2.79802E-11
 -1      3460 1.99998E+02 2.99550E-11-1.77225E-10-2.40045E-10-2.44409E-11 8.87381E-12
 -1      3461 1.99998E+02-2.99065E-10 4.61944E-12 5.52115E-10-7.35504E-10-2.64020E-10
 -1      3462 1.99998E+02-2.48402E-11 8.47688E-11 9.73542E-10-1.03980E-09-1.04114E-10
 -1      3463 1.99998E+02 2.01572E-10 1.55430E-10 1.21099E-09-1.15746E-09-5.29217E-10
 -1      3464 1.99998E+02-2.26312E-06-1.96300E-06 8.73571E-08 4.24175E-07 9.68927E-07
 -1      3465 1.99998E+02-1.37629E-06-6.91139E-07 5.20120E-07 1.18383E-07 5.19778E-07
 -1      3466 1.99998E+02-1.13706E-06-5.30126E-07-1.98613E-07 6.46534E-08 3.76780E-07
 -1      3467 1.99998E+02-6.19253E-07-4.91175E-07-1.35940E-07 5.46651E-08 3.16841E-07
 -1      3468 1.99998E+02-3.40399E-07-3.22735E-08 1.27139E-07-4.84885E-08 1.16886E-08
 -1      3469 1.99998E+02-7.63713E-07-7.81323E-07 4.30854E-07 7.45083E-08 4.53021E-07
 -1      3470 1.99998E+02-6.92857E-07-1.43549E-06-5.07066E-07 1.02867E-07-5.38152E-07
 -1      3471 1.99998E+02-1.92668E-06-2.30642E-06-9.42557E-07 4.09517E-07-8.59674E-08
 -1      3472 1.99998E+02-5.49962E-07-1.20690E-06-3.65699E-07 8.04204E-08 2.40372E-07
 -1      3473 1.99998E+02-3.24177E-08-3.58443E-07-1.04223E-08-5.46167E-08-1.36625E-07
 -1      3474 1.99998E+02-4.80679E-07-6.37284E-07-3.02995E-07 5.53130E-08 1.45201E-07
 -1      3475 1.99998E+02-7.67234E-07-7.79934E-07-4.46230E-07 5.87266E-08-4.56186E-07
 -1      3476 1.99998E+02-2.29288E-06-1.92227E-06-6.78863E-08 4.00178E-07-9.58372E-07
 -1      3477 1.99998E+02-1.40180E-06-6.98097E-07-5.41425E-07 1.00421E-07-5.29489E-07
 -1      3478 1.99998E+02-6.07143E-07-4.07191E-07 1.69483E-07 2.37122E-08-3.31435E-07
 -1      3479 1.99998E+02-6.17940E-09-2.20257E-09 2.06248E-09 2.10477E-09 2.92353E-10
 -1      3480 1.99998E+02-1.53009E-09-2.15812E-10 1.17553E-09-3.12517E-10 6.18457E-10
 -1      3481 1.99998E+02-2.78436E-10-1.87551E-10-1.19134E-09-5.90132E-11-5.31099E-10
 -1      3482 1.99998E+02-3.51228E-09-2.29650E-10 1.04243E-09 1.70216E-09 3.32537E-10
 -1      3483 1.99998E+02-2.06180E-09-9.03375E-11-3.00149E-09-1.73198E-10-1.05024E-09
 -1      3484 2.00006E+02 1.12632E-03 1.18961E-03 2.59367E-03 9.26064E-04-2.30917E-03
 -1      3485 2.00003E+02 9.35806E-04 7.56454E-04 1.98074E-03 3.90459E-04-2.11711E-03
 -1      3486 1.99998E+02 1.11600E-03 2.43527E-03 1.91389E-03 2.51686E-04-3.01863E-03
 -1      3487 1.99998E+02 2.20088E-03 1.02751E-03 2.99775E-03 3.39631E-04-2.04149E-03
 -1      3488 1.99998E+02-1.36574E-10-6.60143E-11-3.42236E-11-2.03137E-11-9.94436E-11
 -1      3489 1.99998E+02-1.31105E-11-1.43949E-12 8.61788E-14 1.17318E-11-2.15822E-11
 -1      3490 1.99998E+02-2.00750E-13-1.21060E-12-3.24849E-12 6.22821E-12-1.32338E-11
 -1      3491 1.99998E+02-2.59770E-12-3.24626E-12 1.58298E-12 6.68073E-12-1.23190E-11
 -1      3492 1.92514E+02 3.70038E+01 4.05706E+01-1.43885E+01-1.26859E-01 1.40665E-01
 -1      3493 2.08936E+02 8.65823E+00 2.01503E+01-5.61578E+00-8.47349E-02 5.40096E+00
 -1      3494 1.99998E+02 5.62892E-10-8.83019E-10 4.84429E-10-2.52312E-10 2.71181E-10
 -1      3495 1.99998E+02 1.03980E-10 3.82143E-10 2.85180E-10-2.83668E-09-2.11284E-09
 -1      3496 1.99998E+02 5.27940E-11 8.51500E-11-8.50106E-11-5.67440E-10-3.38313E-10
 -1      3497 1.99998E+02-6.98023E-07-1.42545E-06 5.07953E-07 1.19638E-07 5.44052E-07
 -1      3498 1.99998E+02-1.91089E-06-2.31508E-06 9.39676E-07 4.15676E-07 7.05778E-08
 -1      3499 1.99998E+02-3.96734E-07-6.19337E-07 3.32830E-07 3.16350E-08-1.70699E-07
 -1      3500 1.99998E+02-3.22089E-12 4.09527E-11-8.29096E-10-5.54006E-10 9.58656E-11
 -1      3501 1.99998E+02-4.48215E-11-1.40708E-11-7.66261E-10-1.52488E-09 7.53879E-10
 -1      3502 1.99998E+02-5.82109E-11-1.04197E-10-3.30362E-10-6.93517E-10-8.75830E-11
 -1      3503 1.99998E+02-6.87997E-12-2.87405E-11-8.45155E-12 1.36615E-11-2.15220E-12
 -1      3504 1.99998E+02-2.44454E-11-3.27618E-11-2.12221E-11 2.00064E-11-3.86245E-12
 -1      3505 1.99998E+02-2.86157E-11-5.14982E-11-5.89427E-11 1.86870E-11-4.64969E-11
 -1      3506 1.99998E+02 3.35679E-11 1.90833E-11 3.01676E-10-5.68609E-10 6.80801E-11
 -1      3507 2.07279E+02 1.80642E+01 7.90322E+00 4.56585E+00-2.96181E-01-5.58792E+00
 -1      3508 1.93113E+02 3.88744E+01 3.82038E+01 6.84861E+00-2.54281E-01-1.45236E+01
 -1      3509 1.99998E+02 2.42582E-10 3.20152E-10-3.00042E-09-6.85071E-10 2.90940E-09
 -1      3510 1.99998E+02 5.99605E-13 3.03285E-12 6.47074E-12-5.62034E-14 1.49239E-12
 -1      3511 1.99998E+02-4.97881E-13 2.19077E-13-4.75248E-13 9.51837E-12-2.49741E-12
 -1      3512 1.99998E+02-5.81985E-12-3.05830E-12 6.04293E-13 8.96077E-12-8.05417E-12
 -1      3513 1.99998E+02 2.76771E-12-2.49138E-15 2.91986E-12 3.19801E-12-3.41339E-12
 -1      3514 1.99998E+02-3.49032E-12-1.19247E-12-1.30840E-12 2.57031E-12-1.96286E-12
 -1      3515 1.99998E+02-1.19308E-12-1.85660E-13-1.69050E-12-6.30325E-12-4.51377E-12
 -1      3516 1.99998E+02-5.69805E-12-4.85807E-13-8.29704E-12 4.62663E-12-1.59879E-11
 -1      3517 1.99998E+02-5.13045E-13 5.75223E-12-7.15745E-12 2.18536E-12-7.80423E-12
 -1      3518 1.99998E+02 6.58251E-12 3.51291E-12-3.55726E-12-6.32610E-13-5.26501E-12
 -1      3519 1.99998E+02-2.21323E-13 1.60386E-12-1.07266E-12-6.02560E-13-9.62871E-12
 -1      3520 1.99998E+02-3.43788E-12 1.51507E-13 4.46881E-12-6.43214E-13 3.25978E-12
 -1      3521 1.99998E+02-1.41692E-11-1.91447E-12-2.01892E-12 1.09527E-11-7.40439E-12
 -1      3522 1.99998E+02-3.21608E-12-2.73746E-12-2.28350E-12-2.62252E-12-4.93807E-12
 -1      3523 1.99998E+02-1.13557E-12 6.03665E-12-1.26645E-11 7.61934E-12-9.22615E-12
 -1      3524 1.99998E+02 5.66386E-13 5.44390E-12-5.62630E-12 1.04808E-12-1.20711E-11
 -1      3525 1.99998E+02-1.34588E-12 8.82989E-12-1.06399E-11 1.02362E-11-2.13152E-11
 -1      3526 1.99998E+02-6.96897E-12 2.38674E-12-5.14699E-13 2.75982E-12 4.79691E-12
 -1      3527 1.99998E+02-8.80030E-12-8.38570E-12-8.14384E-12 1.38813E-11-5.72417E-13
 -1      3528 1.99998E+02 3.32488E-10 1.29366E-10 2.03987E-09-2.86189E-09-3.91316E-10
 -1      3529 2.00138E+02-4.28517E-01-3.00263E-01-2.21630E-02-3.71489E-03 2.42408E-01
 -1      3530 1.99998E+02-1.10096E-10 7.52447E-12-6.81735E-10-4.56976E-11-5.18166E-10
 -1      3531 1.99998E+02-8.24757E-11-9.39124E-11-2.74026E-10-3.56515E-11-3.52967E-10
 -1      3532 1.99998E+02-8.78474E-11 5.71873E-12-9.07171E-10-4.22818E-10-3.81421E-10
 -1      3533 1.99998E+02-5.92230E-11-1.00931E-11-4.83648E-10-2.77570E-10-2.76468E-10
 -1      3534 1.99998E+02 4.86952E-12-1.16649E-10-2.35202E-10-2.76523E-10-5.15647E-10
 -1      3535 2.04237E+02 6.36702E+00 4.82626E+00-1.12770E+00 9.06094E-01-4.91065E-01
 -1      3536 2.04020E+02 4.72735E+00 5.62468E+00-7.54045E-01 8.25615E-01-9.32350E-01
 -1      3537 1.93540E+02-2.76694E-01-2.05008E-02 1.55541E+00 1.00988E+00 1.70704E+00
 -1      3538 2.00264E+02 3.88654E-02-1.81406E-01 1.62335E+00 9.49450E-01 2.18015E+00
 -1      3539 2.00682E+02 9.02482E-02 4.04084E-02 2.16636E+00 7.45041E-01 1.77806E+00
 -1      3540 1.99949E+02-1.99493E-02-3.55140E-02-6.75731E-04 8.49526E-04-2.99783E-03
 -1      3541 1.99998E+02 2.35733E-08-2.52597E-08 4.95512E-08-1.85712E-08 4.05094E-08
 -1      3542 1.99998E+02 1.97472E-09 1.27018E-08 4.33155E-09-6.70219E-11 1.51024E-09
 -1      3543 1.99998E+02 1.14871E-12 5.42247E-13-1.42098E-11-2.61849E-12-2.80395E-12
 -1      3544 1.99998E+02-3.24658E-12 1.25944E-12-7.60545E-12-1.67935E-11-5.72707E-12
 -1      3545 1.99998E+02-1.10526E-12 8.19891E-14-7.41678E-12-3.19714E-12-8.30371E-12
 -1      3546 1.99998E+02 1.61705E-12 2.61500E-13-2.32354E-12-4.27088E-12-1.07008E-11
 -1      3547 1.99998E+02-6.79877E-13 1.85838E-12-1.25521E-12-3.80294E-12-7.34701E-12
 -1      3548 1.99998E+02-2.58821E-12-5.21827E-12-5.28791E-12-1.57290E-11-1.25620E-11
 -1      3549 1.99949E+02-3.57274E-02-2.01364E-02 1.74436E-03 1.83903E-03 9.80081E-04
 -1      3550 1.99014E+02-2.40073E-01-2.52503E-01 3.96830E-01-1.34102E-02-4.12008E-01
 -1      3551 1.99998E+02-1.64997E-09-1.78156E-08 4.70345E-09 5.58930E-09-7.16279E-09
 -1      3552 1.99998E+02-1.65391E-08-5.84653E-08 2.92422E-08-9.24177E-10 1.68417E-08
 -1      3553 1.99883E+02-4.67364E-02-5.17670E-02-8.88684E-02-1.81068E-02-9.84710E-02
 -1      3554 1.99943E+02-2.15686E-02-1.50109E-02-5.59629E-02-4.77345E-03-2.27655E-02
 -1      3555 1.99958E+02-2.00821E-01-1.30795E-01-1.93941E-01-1.49698E-02-1.08181E-01
 -1      3556 1.99965E+02-7.95338E-02-1.15487E-01-5.82840E-02-1.17289E-02-8.04801E-02
 -1      3557 1.99980E+02-1.31199E-01-2.07293E-01-1.04030E-01-1.26372E-02-2.03677E-01
 -1      3558 1.99998E+02 3.57580E-04 4.53217E-04-1.64384E-04 2.43388E-05-7.18692E-05
 -1      3559 2.00075E+02-3.08060E-01-4.38879E-01-2.28665E-01 4.02623E-03 1.52271E-02
 -1      3560 1.99994E+02 2.32701E-03 2.01411E-03-2.17216E-03-1.56922E-04-6.65315E-05
 -1      3561 1.99994E+02 2.11572E-03 2.30247E-03 8.74355E-05-1.32128E-04 2.17571E-03
 -1      3562 1.99998E+02-2.29710E-11-2.27368E-11 2.81706E-11-9.09774E-11-9.52360E-12
 -1      3563 1.99998E+02 6.11069E-12 2.50208E-12-1.95868E-12 3.14128E-12-9.81912E-12
 -1      3564 1.99998E+02-4.82184E-13-4.85481E-12-1.41020E-12 1.27423E-12-1.15390E-11
 -1      3565 1.99998E+02-9.92485E-14 1.47904E-12-6.22541E-13 1.71081E-12-9.81083E-12
 -1      3566 1.99998E+02-4.01755E-12-2.67852E-12 6.35421E-13 9.82752E-13-1.07555E-11
 -1      3567 1.99998E+02-1.54819E-11-2.57570E-11-3.68478E-12-9.37257E-11-4.71655E-11
 -1      3568 1.99998E+02 5.62008E-09 3.97853E-09-7.28598E-09-1.27138E-08 3.87473E-09
 -1      3569 1.99998E+02 4.21207E-09 5.85809E-09 3.77312E-09-1.27715E-08-7.25481E-09
 -1      3570 1.99998E+02 3.90480E-09 5.63336E-09-3.86336E-09-1.27455E-08 7.24816E-09
 -1      3571 1.99998E+02 5.85350E-09 4.41682E-09 7.19475E-09-1.28332E-08-3.94588E-09
 -1      3572 1.99998E+02 4.25081E-04 3.44055E-04-5.72183E-05 3.27988E-05-1.80596E-04
 -1      3573 1.99998E+02 3.43348E-04 4.30143E-04 1.78905E-04 3.41224E-05 6.18760E-05
 -1      3574 1.99998E+02-5.59216E-06-6.90870E-06-2.28635E-06 4.38275E-06 9.63681E-06
 -1      3575 1.99998E+02-7.10645E-06-5.64520E-06 9.53535E-06 4.44650E-06-2.16274E-06
 -1      3576 1.99998E+02-6.74086E-06-5.52441E-06-9.30263E-06 4.18137E-06 2.49333E-06
 -1      3577 1.99998E+02 4.56054E-04 3.56860E-04 7.49493E-05 2.41288E-05 1.71966E-04
 -1      3578 1.99998E+02-4.22361E-08-4.14133E-07-1.47075E-08 1.27386E-08-3.20785E-08
 -1      3579 1.99998E+02-7.56471E-07-7.57567E-07-3.38895E-07 1.43387E-07 3.45912E-07
 -1      3580 1.99998E+02-1.95671E-07-3.09689E-07-3.78701E-08 8.72083E-09-6.31584E-08
 -1      3581 1.99998E+02-4.15005E-07-6.81569E-08 3.10855E-08 2.07062E-08 2.66411E-08
 -1      3582 1.99998E+02-2.98251E-07-2.05386E-07 6.17378E-08 1.04066E-08 3.87344E-08
 -1      3583 1.99998E+02-5.67307E-06-7.03196E-06 2.34473E-06 4.23115E-06-9.26829E-06
 -1      3584 1.83374E+02 3.91813E+01 1.63876E+01-8.08510E+00 4.60742E-01 1.40782E+01
 -1      3585 1.92371E+02 3.81586E+01 3.68098E+01-8.43614E+00-4.75655E-01 1.64086E+01
 -1      3586 1.99998E+02 1.30774E-11-1.67975E-11-1.05002E-11-3.91600E-11 1.77883E-10
 -1      3587 1.99998E+02 4.08461E-10 3.11299E-10 3.00961E-10-4.60395E-11-2.88614E-10
 -1      3588 1.99998E+02-2.47240E-11-1.77097E-10-1.71666E-10-4.00323E-11 2.56728E-10
 -1      3589 1.99998E+02-6.87769E-11-9.73660E-11-5.40160E-11-6.24430E-12 2.15596E-10
 -1      3590 1.99998E+02 6.03601E-14-2.12495E-12-7.49735E-12-1.40967E-11-8.42955E-12
 -1      3591 1.99998E+02 3.04822E-14-3.59769E-12-7.20956E-12-4.04100E-12-1.15294E-11
 -1      3592 1.99998E+02-2.36142E-12-4.86962E-12-8.26667E-12-1.19764E-11-1.06210E-11
 -1      3593 1.99998E+02-6.32234E-13 3.92553E-12 5.81834E-13 2.16865E-12-6.19700E-12
 -1      3594 1.99998E+02 1.41475E-08-4.46848E-08-6.70377E-08-1.76924E-09 4.32072E-08
 -1      3595 1.99998E+02 1.35625E-08 4.55840E-08-3.67520E-08 8.42590E-09 1.80711E-08
 -1      3596 1.99998E+02 4.32881E-11-8.21569E-10 1.31840E-10 1.51861E-10 3.74513E-10
 -1      3597 1.99998E+02 2.28516E-08-5.96268E-08 3.70005E-08 7.85895E-09 2.59748E-08
 -1      3598 1.99998E+02-1.05278E-08-3.21734E-08-4.25932E-09-1.00731E-08-5.39680E-08
 -1      3599 2.00040E+02-2.81868E-02-2.99527E-02-6.66036E-04 7.03285E-03-1.88942E-03
 -1      3600 2.00014E+02-6.13755E-02-4.89471E-02-2.02663E-02 2.38392E-03 3.53763E-03
 -1      3601 1.99999E+02-2.06887E-01-2.27687E-01-7.43013E-02 1.77555E-02-6.48709E-02
 -1      3602 1.98859E+02-1.94877E-01-1.97000E-01 4.19804E-01 5.47824E-02 4.36518E-01
 -1      3603 1.99998E+02-2.24836E-12-2.67382E-11-1.31866E-11 4.60972E-12 6.21941E-12
 -1      3604 1.99950E+02-2.72758E-01-2.67633E-01 3.31358E-02-2.02805E-02-5.03347E-02
 -1      3605 1.99998E+02 1.46429E-10 1.88306E-10 5.68427E-10-1.18696E-09 1.55078E-09
 -1      3606 1.99998E+02 1.50997E-10 1.87239E-10 2.94541E-10-1.66414E-09 8.62595E-10
 -1      3607 1.99998E+02-3.41622E-11-7.35947E-11-8.01157E-11-4.90559E-10 8.17306E-10
 -1      3608 1.99998E+02-1.00745E-10-5.75679E-11 1.82639E-10-4.28699E-10 7.89567E-10
 -1      3609 1.99998E+02-2.56024E-11-1.70028E-13-4.09152E-11-6.80026E-10 3.32866E-10
 -1      3610 1.99998E+02 2.20634E-10 2.16343E-10 8.32150E-10-1.36179E-09 8.32611E-10
 -1      3611 1.99998E+02-5.02519E-12-7.88654E-12-5.86176E-12 6.26313E-12-4.40688E-12
 -1      3612 1.99998E+02-9.93957E-12-1.38622E-11-5.39690E-12 9.18771E-12-1.20797E-11
 -1      3613 1.99998E+02-2.52671E-12-8.28262E-13-2.85355E-12 5.14543E-12-1.44473E-11
 -1      3614 1.99998E+02-1.16355E-11-9.04795E-12-5.34391E-12 1.47849E-11-1.38079E-11
 -1      3615 1.99998E+02 3.12445E-13 1.20687E-12 2.51555E-12 7.39286E-12-1.29990E-11
 -1      3616 2.00035E+02-2.36168E-01-2.22485E-01 6.42896E-02 8.63768E-03 8.05883E-02
 -1      3617 1.99998E+02-8.11515E-13 3.11001E-13-2.49257E-12-2.86261E-12-9.93706E-12
 -1      3618 1.99998E+02-5.13896E-12-3.90984E-12-3.64620E-12-1.46149E-11-8.87478E-12
 -1      3619 1.99998E+02-6.10480E-11-1.18896E-10 9.05290E-10-7.02291E-11 9.23979E-10
 -1      3620 1.99998E+02 2.04322E-11 3.77100E-11 6.58170E-10-2.25326E-11 4.95494E-10
 -1      3621 1.99998E+02 1.16147E-10 3.74393E-10 1.65978E-09-1.14903E-09 9.50536E-10
 -1      3622 1.99998E+02 9.75048E-12-1.57278E-12 6.90124E-10-8.88390E-10 1.14116E-09
 -1      3623 1.99998E+02 2.83649E-10 1.68430E-10 8.97570E-10-1.11839E-09 1.67064E-09
 -1      3624 1.99998E+02-7.66541E-07-7.83876E-07-3.12958E-07 1.15734E-07 3.31097E-07
 -1      3625 1.99998E+02-3.59850E-07-3.69161E-07-1.57973E-08 1.04206E-08 1.97099E-08
 -1      3626 1.83196E+02 1.72160E+01 4.04884E+01-1.54557E+01 4.86867E-01 7.67825E+00
 -1      3627 1.92742E+02 3.67898E+01 3.81500E+01-1.62006E+01-4.02278E-01 8.41501E+00
 -1      3628 1.99992E+02-1.09124E-02-8.77269E-03 5.63823E-03-8.63907E-03 4.87464E-03
 -1      3629 1.99942E+02-3.18956E-02-1.24345E-02 5.14619E-02-1.22584E-02 2.64158E-02
 -1      3630 1.99991E+02-7.37757E-03-1.34967E-02-8.52440E-03-8.68903E-03 9.77249E-03
 -1      3631 1.99926E+02-6.43477E-02-2.55390E-02 6.37343E-02-6.12868E-03 6.33974E-03
 -1      3632 1.99997E+02-8.75093E-03-7.92053E-03 9.17851E-03-6.19493E-03-3.80712E-03
 -1      3633 1.99998E+02-1.00351E-12-3.88746E-12-2.82513E-12 4.99195E-12-1.04506E-11
 -1      3634 2.00016E+02-4.70338E-02-6.30029E-02-5.92531E-03 3.08473E-03 1.95899E-02
 -1      3635 1.99998E+02 1.18613E-12-3.78694E-12-3.72090E-12-3.60850E-13-1.09030E-11
 -1      3636 1.99998E+02 3.20806E-09-3.15274E-10 2.64925E-08 8.93995E-09 2.31797E-08
 -1      3637 1.99998E+02 1.27986E-08 2.88612E-09-1.82390E-08-1.70791E-09 4.09361E-08
 -1      3638 1.99998E+02-1.19981E-06-1.20287E-06-3.10788E-07 2.85397E-07-3.19388E-07
 -1      3639 1.99998E+02 4.97327E-10 5.19029E-10-9.67307E-11-2.84295E-09 1.58109E-09
 -1      3640 1.99998E+02-1.18903E-06-1.22266E-06 3.06097E-07 3.01110E-07 3.26705E-07
 -1      3641 1.99872E+02-4.94115E-02-4.85924E-02 8.38167E-02-9.46555E-03 8.57021E-02
 -1      3642 1.99934E+02-2.41360E-02-7.57468E-02 1.11126E-02-4.92412E-03 7.40651E-02
 -1      3643 1.99977E+02-1.90144E-01-1.11597E-01 1.97594E-01-2.68945E-03 1.15423E-01
 -1      3644 1.99969E+02-1.17866E-01-1.97478E-01 1.16748E-01 5.81543E-05 2.04296E-01
 -1      3645 1.99998E+02 3.32682E-11-5.16466E-11-4.80047E-11-1.00715E-09-3.66095E-10
 -1      3646 1.99998E+02 2.13520E-10 2.94661E-10-4.23227E-10-2.18584E-09 3.64129E-10
 -1      3647 1.99998E+02 4.50687E-10 4.69533E-10-4.25520E-10-2.29459E-09-8.69353E-10
 -1      3648 1.94452E+02-5.76335E-01-2.68326E-01 1.75177E+00-6.09172E-01-1.12077E+00
 -1      3649 2.00431E+02-1.28104E+00-5.32099E-01 2.11283E+00-3.73197E-01-1.63442E+00
 -1      3650 1.91379E+02 3.66205E+01 3.80214E+01 7.22744E+00-4.86102E-01 3.78778E+00
 -1      3651 1.99998E+02 1.40613E-11 3.67261E-11 1.93885E-11-1.02252E-12 2.80003E-11
 -1      3652 1.99998E+02-1.25216E-10 6.78531E-11 2.00642E-10-7.71879E-11-4.47778E-11
 -1      3653 1.99998E+02-1.86354E-11-4.51795E-12 7.05509E-11 4.31165E-12-3.66121E-12
 -1      3654 1.99998E+02-7.64457E-11-8.88953E-11 2.85444E-10 1.18160E-11 3.05997E-10
 -1      3655 1.99998E+02-1.06166E-11 7.75310E-11 1.09822E-09-8.50160E-10 6.81841E-10
 -1      3656 1.99998E+02-1.24990E-12-9.77865E-11 2.18883E-10-2.57635E-10 4.53263E-10
 -1      3657 1.99998E+02-1.47791E-10-2.75795E-11 4.60492E-10-2.14885E-10 2.07971E-10
 -1      3658 1.99998E+02-3.86321E-11 1.12813E-10 7.19467E-11-1.76184E-11 2.65458E-10
 -1      3659 1.99998E+02-2.31614E-10 3.24867E-10 2.68372E-10 4.66734E-11 5.00687E-10
 -1      3660 1.99998E+02-1.68083E-10 1.86256E-10 1.82466E-10-8.33920E-11 1.29410E-10
 -1      3661 1.99998E+02-2.43690E-10-1.48622E-11 3.49304E-10-9.58981E-11 8.45399E-11
 -1      3662 2.03840E+02-9.49758E-01-5.76500E-01 1.45571E+00-9.96811E-03-1.32525E-02
 -1      3663 1.93577E+02 3.85127E+01 3.76857E+01 7.12651E+00 1.06793E-01 1.42749E+01
 -1      3664 2.07584E+02 1.79908E+01 7.94882E+00 4.57026E+00 1.57329E-01 5.39578E+00
 -1      3665 1.99998E+02 2.30395E-10 2.51477E-10-5.44886E-10-1.20797E-09 1.54067E-09
 -1      3666 2.03816E+02-5.47213E-01-9.89725E-01 6.19881E-03-1.14150E-02 1.44847E+00
 -1      3667 1.99998E+02-6.85960E-10 7.92935E-11-5.22042E-11-4.39261E-10-2.36279E-10
 -1      3668 1.99998E+02-3.79978E-10-3.47365E-10-5.45051E-10-7.01379E-11-9.36788E-11
 -1      3669 1.96226E+02-5.27879E-01-3.90610E-01 1.44629E+00-4.39953E-01-1.42806E+00
 -1      3670 2.00252E+02-5.75264E-01-1.41796E+00 1.52466E+00-2.43416E-01-2.00956E+00
 -1      3671 1.94404E+02-6.46151E-01-8.22271E-01-1.09476E+00-7.65853E-01 1.74748E+00
 -1      3672 2.00532E+02-5.31212E-01-1.27588E+00-1.60987E+00-3.35442E-01 2.04841E+00
 -1      3673 1.99998E+02-3.95785E-11-4.86999E-11-1.36483E-10-1.07101E-09 2.10951E-11
 -1      3674 1.99998E+02-1.13779E-10-8.90742E-11 2.96988E-10-1.82928E-10-1.04218E-10
 -1      3675 1.99998E+02 4.01708E-11 6.29680E-11 7.23061E-10-4.01299E-10-8.73705E-11
 -1      3676 1.99998E+02 5.25641E-11-3.31102E-11 1.87456E-09-1.22041E-09-7.07930E-10
 -1      3677 1.96246E+02-3.55743E-01-5.48811E-01-1.42534E+00-4.12531E-01 1.42104E+00
 -1      3678 2.00213E+02-1.39089E+00-6.11050E-01-2.02920E+00-2.43534E-01 1.50832E+00
 -1      3679 1.99998E+02 3.54137E-12 1.16628E-12 5.82362E-12-8.45640E-13-6.11091E-12
 -1      3680 1.99998E+02 1.10162E-12-6.55589E-12-1.48818E-14 6.45200E-13 2.54671E-12
 -1      3681 1.99998E+02-3.96666E-12-1.05530E-11-8.30014E-12 5.37325E-12 3.09871E-12
 -1      3682 1.99998E+02-3.47851E-12-1.19933E-11-6.53942E-12 4.83263E-12-1.08207E-12
 -1      3683 1.99998E+02-3.28699E-12-1.70052E-12-3.17750E-12 3.97091E-12-1.95548E-12
 -1      3684 1.99998E+02-6.18860E-13-3.75476E-12-3.03486E-12-3.50492E-13 6.88016E-12
 -1      3685 1.99998E+02 5.89908E-13-4.77171E-12-9.95284E-12 2.28860E-12 1.45863E-12
 -1      3686 1.99998E+02 3.05093E-12-5.46118E-12 5.11467E-13 3.01853E-12-6.68290E-12
 -1      3687 1.99998E+02 1.17118E-12 5.75171E-13 2.00347E-12 3.54680E-12-8.20193E-12
 -1      3688 1.99998E+02 5.10927E-11-6.18731E-11 1.21708E-10-1.01234E-09-9.55113E-10
 -1      3689 1.99998E+02 6.21567E-11 6.68951E-11 1.00961E-10-4.21599E-10-7.55016E-10
 -1      3690 1.99998E+02-2.26468E-12 9.16303E-12-3.38488E-12 5.52442E-12-1.58917E-11
 -1      3691 1.99998E+02 3.58563E-13 5.79424E-12-1.61055E-12 5.69489E-12-1.45287E-11
 -1      3692 1.99998E+02-6.37155E-12-9.46274E-13 9.58868E-12 8.98919E-12-9.30459E-12
 -1      3693 1.99998E+02-3.21920E-12 3.01635E-12 6.62762E-12 5.42167E-12-5.91390E-12
 -1      3694 2.00024E+02-1.23131E-01-6.47378E-02-8.75250E-03 4.31378E-03 2.59723E-02
 -1      3695 2.00039E+02-2.67119E-01-1.15940E-01-1.15994E-01-1.29643E-02 1.18976E-01
 -1      3696 2.00024E+02-6.52564E-02-1.27311E-01-2.56625E-02 6.41131E-03 9.81365E-03
 -1      3697 2.00031E+02-1.17333E-01-2.76844E-01-1.18708E-01-9.18820E-03 1.13334E-01
 -1      3698 1.99998E+02 2.33372E-10-1.39036E-09 7.92219E-11 3.01876E-10-4.75711E-09
 -1      3699 1.99998E+02-3.74320E-10-6.91473E-11-2.11173E-09 1.20046E-09-1.38385E-09
 -1      3700 1.99998E+02-6.15658E-10-4.88636E-10-4.33036E-10-2.10050E-10-1.40995E-09
 -1      3701 1.99998E+02-3.06721E-10 5.84614E-10-2.64811E-10-1.90918E-10-1.16294E-09
 -1      3702 1.99998E+02-5.52133E-10-2.67217E-10-3.02300E-10 4.81757E-10 4.38354E-10
 -1      3703 1.99826E+02-5.37352E-02-5.07706E-02 8.76826E-02 1.38281E-02-9.26674E-02
 -1      3704 1.99913E+02-8.57567E-02-4.15494E-02 7.37450E-02 4.34263E-03-8.00745E-03
 -1      3705 1.99928E+02-2.03617E-02-8.17037E-02 8.65536E-03 6.52605E-03-7.78578E-02
 -1      3706 2.00003E+02-9.82976E-02-1.85859E-01 9.25567E-02-6.18862E-03-1.83811E-01
 -1      3707 2.00035E+02-1.61800E-01-7.80116E-02 1.63542E-01 1.53090E-03-1.08397E-01
 -1      3708 1.99928E+02-3.70567E-02-2.29268E-02 5.89818E-02 1.13508E-02-2.44416E-02
 -1      3709 1.99986E+02-1.11188E-02-2.00838E-02-6.40279E-03 6.06307E-03-1.39314E-02
 -1      3710 1.99989E+02-9.09421E-03-6.81420E-03 3.39546E-03 1.01134E-02-6.79284E-03
 -1      3711 1.99989E+02-1.63186E-02-9.95866E-03 1.30025E-02 4.44583E-03 7.09051E-04
 -1      3712 2.00007E+02 1.30399E-03 1.43434E-03-3.51748E-03-1.30393E-03-2.78171E-03
 -1      3713 1.99997E+02 2.36047E-03 1.43239E-03-3.39639E-03-4.96917E-05-2.59881E-03
 -1      3714 2.00003E+02 1.02391E-03 7.36969E-04-2.31976E-03-2.33708E-04-2.36147E-03
 -1      3715 1.99998E+02 1.72238E-03 2.78321E-03-2.23341E-03 7.80368E-05-3.21783E-03
 -1      3716 1.99998E+02-1.95503E-12 1.29035E-12-6.28524E-14 1.43010E-12-3.88395E-12
 -1      3717 1.99998E+02-3.50224E-12-4.78273E-12 6.88159E-13 6.83670E-13-1.05964E-11
 -1      3718 1.99998E+02-9.64329E-13-2.41507E-12-2.61034E-12 5.21272E-13-3.16101E-12
 -1      3719 1.99998E+02-2.81310E-12-9.27772E-13-8.79529E-12 2.07085E-12-5.55177E-12
 -1      3720 1.99998E+02-6.37881E-13-6.93929E-12 1.34749E-12 1.11087E-12-6.23397E-12
 -1      3721 1.99998E+02 2.16467E-12-3.62148E-12-5.17278E-12 1.06575E-12-1.13847E-11
 -1      3722 1.99998E+02-2.05620E-12-2.48588E-12-2.47703E-12-1.62545E-12-5.65558E-12
 -1      3723 1.99998E+02-1.11232E-12 3.68241E-13 3.28151E-12 8.63628E-13-9.40639E-12
 -1      3724 1.99998E+02-3.17761E-12 1.06880E-12-1.04999E-12-7.67612E-14-3.27062E-12
 -1      3725 1.99998E+02-7.41532E-14-1.24652E-12 2.74845E-13-8.47031E-13-5.92036E-12
 -1      3726 1.99998E+02-4.43743E-12-2.02891E-11 2.64957E-11-8.92667E-12 5.11509E-11
 -1      3727 1.99998E+02-1.35386E-14 4.91405E-12 1.56089E-11-2.90336E-11 1.06444E-11
 -1      3728 1.99998E+02-4.79288E-12-8.82059E-12 6.42051E-12 3.08284E-12 8.46998E-12
 -1      3729 1.99998E+02 3.10016E-12-7.32320E-12 1.12724E-11-2.56169E-11 1.70868E-11
 -1      3730 1.99998E+02-2.26776E-11-1.09326E-11-5.36410E-11-7.10862E-12-3.98792E-11
 -1      3731 1.99998E+02 8.69830E-12 1.02969E-12-1.64503E-11-2.79896E-11-3.61646E-11
 -1      3732 1.99998E+02-5.97507E-12-2.15698E-12-1.31129E-11 2.64841E-12-1.76560E-11
 -1      3733 1.99998E+02-1.02546E-12 8.21621E-12-2.57334E-11-2.78625E-11-2.10220E-11
 -1      3734 2.00001E+02 2.43465E-04 4.30318E-04-1.17300E-03-1.13331E-04-1.50968E-03
 -1      3735 1.99998E+02-3.19089E-06-3.55922E-06 6.02365E-06 2.48029E-06 7.27761E-06
 -1      3736 1.99998E+02-1.77096E-06-1.89556E-06 3.89961E-06 1.64094E-06 3.96415E-06
 -1      3737 1.99998E+02-7.25045E-06-4.23049E-06 8.05130E-06 5.33649E-06 7.91148E-06
 -1      3738 1.99998E+02-3.85937E-06-6.98684E-06 8.35967E-06 5.00735E-06 8.30335E-06
 -1      3739 1.99998E+02 6.85640E-10 1.16193E-09 2.59154E-09-6.44645E-10 3.09667E-09
 -1      3740 1.99998E+02 3.05241E-09 4.62126E-09 2.20107E-09-7.15441E-09 5.43899E-09
 -1      3741 1.99998E+02 9.05324E-10 1.32666E-09 3.17900E-09-1.23733E-09 3.35510E-09
 -1      3742 1.99998E+02 4.76101E-09 3.05105E-09 5.76281E-09-7.22114E-09 1.94000E-09
 -1      3743 1.99998E+02 6.28564E-10 9.19711E-10-2.49868E-09-5.21591E-10-3.09955E-09
 -1      3744 1.99998E+02 2.91224E-09 4.56160E-09-2.28647E-09-7.01742E-09-5.36482E-09
 -1      3745 1.99998E+02 1.92320E-04 1.21596E-04 2.80911E-04-2.64321E-05-2.05366E-04
 -1      3746 1.99998E+02 8.56713E-05 1.85025E-04 3.55869E-05 4.84845E-06-1.17093E-04
 -1      3747 1.99998E+02 4.38724E-05 4.68319E-05 6.75887E-05-2.33118E-05-6.70777E-05
 -1      3748 1.99998E+02 1.72368E-04 9.27280E-05 1.01780E-04 9.79389E-06-5.34883E-05
 -1      3749 1.99998E+02 1.29782E-09 9.62569E-10-3.58341E-09-1.22892E-09-2.86153E-09
 -1      3750 1.99998E+02 4.79040E-09 3.16681E-09-5.70981E-09-7.19822E-09-1.84669E-09
 -1      3751 2.00001E+02 2.38306E-04 4.51989E-04 1.21096E-03-1.25224E-04 1.56101E-03
 -1      3752 1.99998E+02 1.74650E-03 2.71160E-03 2.33869E-03 7.95130E-05 3.30369E-03
 -1      3753 2.00003E+02 1.04927E-03 7.77097E-04 2.36677E-03-2.23545E-04 2.42060E-03
 -1      3754 1.99997E+02 2.51502E-03 1.43906E-03 3.46623E-03 3.04206E-05 2.56039E-03
 -1      3755 2.00008E+02 1.36802E-03 1.58138E-03 3.70120E-03-1.27173E-03 2.94978E-03
 -1      3756 1.99998E+02 2.22816E-09 2.99711E-09-3.09646E-09-3.26512E-09-4.79630E-09
 -1      3757 1.99998E+02 3.25266E-09 2.29964E-09 5.04572E-09-3.50883E-09 3.01456E-09
 -1      3758 1.99998E+02-1.49694E-06-8.50337E-07-4.39766E-06 1.07425E-06-4.16965E-06
 -1      3759 1.99998E+02-3.95382E-06-6.87472E-06-7.83856E-06 4.54006E-06-8.43847E-06
 -1      3760 1.99998E+02 4.10961E-05 4.59455E-05-6.49905E-05-2.07202E-05 6.85069E-05
 -1      3761 1.99998E+02 1.29882E-04 2.05881E-04-2.06847E-04-1.43166E-05 2.79030E-04
 -1      3762 1.99998E+02 1.74287E-04 7.84516E-05-1.06491E-04 1.02128E-05 3.81297E-05
 -1      3763 1.99998E+02 7.38684E-05 1.65945E-04-5.08532E-05 1.07587E-05 1.00183E-04
 -1      3764 1.99998E+02-1.12944E-06-6.82304E-07-1.68261E-06-3.59045E-08 1.43941E-06
 -1      3765 1.99998E+02-2.89342E-07-2.98028E-07-5.64731E-07 1.33010E-08 5.76915E-07
 -1      3766 1.99998E+02-3.81550E-07-9.78449E-07-4.54851E-07 9.28144E-08 9.31805E-07
 -1      3767 1.99998E+02-9.40966E-07-4.23187E-07-8.48178E-07 8.46817E-08 5.41529E-07
 -1      3768 1.99998E+02-3.41961E-06-3.29759E-06-6.34988E-06 2.43360E-06-7.62843E-06
 -1      3769 1.99998E+02-7.40541E-06-4.07636E-06-8.49891E-06 5.30922E-06-8.56407E-06
 -1      3770 1.99998E+02-1.72307E-07-8.68929E-08 3.57788E-07 3.91869E-09-1.41951E-07
 -1      3771 1.99998E+02-9.95944E-07-5.02290E-07 8.66667E-07 8.12156E-08-5.18817E-07
 -1      3772 1.99998E+02-1.15113E-06-7.12433E-07 1.73092E-06-4.76377E-08-1.42661E-06
 -1      3773 1.99998E+02-4.39860E-07-1.02041E-06 4.79453E-07 7.82447E-08-9.31735E-07
 -1      3774 1.99998E+02 2.91388E-10 3.97827E-10 8.27989E-10-2.26258E-09 4.50528E-10
 -1      3775 1.99998E+02 7.25503E-11 7.06319E-11 2.73735E-10-1.04159E-09 6.15767E-11
 -1      3776 1.99998E+02-3.18909E-07-3.22492E-07 5.50416E-07 4.44522E-08-5.85897E-07
 -1      3777 1.99998E+02 1.87769E-12 3.18551E-12-1.09952E-11 1.48739E-12-2.73547E-12
 -1      3778 1.99998E+02 3.05616E-12 1.04217E-12-5.76487E-12 7.05881E-13-5.94339E-12
 -1      3779 1.99998E+02 2.20392E-12 4.07591E-12-8.31975E-12 1.99786E-12-4.41934E-12
 -1      3780 1.99998E+02-4.99047E-13 1.41241E-12-1.28781E-11 7.01178E-13-7.57120E-12
 -1      3781 1.99998E+02 8.64003E-13 3.92398E-12-3.57676E-12-1.19472E-12-1.07190E-11
 -1      3782 1.99998E+02-2.57677E-08 5.70774E-09-4.15522E-09 2.22024E-08 5.85660E-08
 -1      3783 1.99998E+02-4.16188E-09-6.05204E-09-6.09526E-08-1.13208E-08 7.95036E-08
 -1      3784 1.99998E+02-5.20592E-12-5.00376E-11 2.81180E-11-2.51933E-12 7.13924E-11
 -1      3785 1.99998E+02 1.79204E-09 6.16532E-09-5.76009E-08 1.00522E-08 5.39761E-08
 -1      3786 1.99998E+02 5.91565E-09-6.50905E-10-8.12197E-08-1.32570E-08 5.48848E-08
 -1      3787 1.94555E+02-5.81725E-01-2.57143E-01 1.79568E+00 6.79469E-01 1.22244E+00
 -1      3788 2.00910E+02-1.29489E+00-5.08436E-01 2.09432E+00 3.25843E-01 1.70718E+00
 -1      3789 2.03949E+02 5.85546E+00 4.58335E+00 9.80099E-01 9.43123E-01 8.38483E-02
 -1      3790 2.03179E+02 4.41432E+00 5.45861E+00 1.44114E-01 8.59863E-01 7.77801E-01
 -1      3791 1.93686E+02-1.49066E-01 1.39362E-02-1.71627E+00 9.69623E-01-1.53620E+00
 -1      3792 2.00798E+02-1.16465E-01-1.79007E-01-1.73008E+00 8.40126E-01-2.11866E+00
 -1      3793 2.00505E+02 8.12775E-02 3.43601E-01-2.01537E+00 6.84393E-01-1.46322E+00
 -1      3794 1.99998E+02-1.15421E-06-7.03395E-07 1.19336E-06 4.70147E-08 6.79529E-07
 -1      3795 1.99998E+02-7.29465E-07-1.22115E-06 6.49027E-07 6.15250E-08 1.23719E-06
 -1      3796 1.99998E+02-3.09672E-07-3.22913E-07 5.95622E-07-9.13393E-08 6.21493E-07
 -1      3797 1.99998E+02-3.64077E-07-1.45990E-07 4.67909E-07-7.31693E-08 5.39880E-08
 -1      3798 1.99998E+02-1.19370E-07-4.07858E-07 7.81200E-08-5.26543E-08 5.33873E-07
 -1      3799 1.99998E+02-1.18553E-06-7.08249E-07-1.22916E-06 3.08472E-08-6.93497E-07
 -1      3800 1.99998E+02-7.19278E-07-1.22119E-06-6.57454E-07 4.49196E-08-1.25036E-06
 -1      3801 1.99998E+02-3.16227E-07-3.26354E-07-6.09929E-07-9.32137E-08-6.36886E-07
 -1      3802 1.99998E+02-3.62101E-07-1.42612E-07-4.82135E-07-7.70572E-08-5.32437E-08
 -1      3803 1.99998E+02-1.22026E-07-4.26869E-07-8.60493E-08-5.29598E-08-5.43988E-07
 -1      3804 1.99998E+02-3.96172E-11 6.73789E-11 6.88294E-12-1.20674E-11 1.79572E-10
 -1      3805 1.99998E+02-1.70011E-12-5.99237E-13 4.57495E-12-2.17274E-12-1.48748E-12
 -1      3806 1.99998E+02-3.18882E-12-4.67637E-12 2.85600E-13-6.99165E-13-4.69643E-12
 -1      3807 1.99998E+02 9.20587E-14 2.30301E-12 2.05506E-12-2.28843E-13-1.85901E-12
 -1      3808 1.99998E+02 1.16419E-13-7.01083E-13 4.48271E-12 1.12903E-12-3.69816E-12
 -1      3809 1.99998E+02 9.93061E-13-1.84293E-13-2.90075E-14 2.24339E-12-7.26903E-12
 -1      3810 1.99998E+02 4.87611E-13-1.39918E-12-4.50322E-13 1.36870E-13-7.06796E-12
 -1      3811 1.99998E+02-1.13922E-12 3.54435E-13-1.26538E-11-3.84888E-13-4.71834E-12
 -1      3812 1.99998E+02-2.34908E-12 1.56847E-12-7.16536E-12 1.72735E-13-9.48455E-12
 -1      3813 1.99998E+02-5.25657E-13 3.36561E-12-9.82558E-12 7.99679E-13-4.59804E-12
 -1      3814 1.99998E+02-1.74576E-12 6.98641E-13-1.07283E-11 2.43857E-12-4.39283E-12
 -1      3815 1.99998E+02-2.32670E-12-3.55090E-12-7.38163E-12 2.88411E-12-6.39123E-12
 -1      3816 1.99998E+02-1.57989E-12 7.53585E-13-9.28894E-12 2.68945E-12-8.22073E-12
 -1      3817 1.99998E+02 8.37431E-11 2.79178E-10-1.72330E-09-1.13212E-09-9.66113E-10
 -1      3818 1.99998E+02-3.71532E-11-3.58831E-11-1.89682E-10-4.41700E-10-8.83209E-10
 -1      3819 1.99998E+02 3.70105E-11 1.05069E-10-6.33155E-10-1.26701E-09-1.60682E-09
 -1      3820 1.99998E+02 1.62981E-10 9.56201E-11-6.82948E-10-9.13238E-10-1.19470E-09
 -1      3821 1.99998E+02 2.40767E-10 3.67518E-11-9.18901E-10-1.15107E-09-1.76246E-09
 -1      3822 1.96517E+02-5.85587E-01-4.30111E-01 1.46270E+00 3.40382E-01 1.44825E+00
 -1      3823 2.00399E+02-6.70397E-01-1.46679E+00 1.50736E+00 1.76929E-01 1.97372E+00
 -1      3824 1.99998E+02-4.67476E-06 4.73458E-05-2.46331E-05-1.43487E-05-4.51336E-05
 -1      3825 1.99998E+02 6.49588E-05 1.25325E-05 5.76689E-05-5.58674E-06 7.97011E-06
 -1      3826 1.99998E+02 1.15722E-04 1.12950E-04 2.10187E-05 8.60488E-06-1.87352E-05
 -1      3827 1.99998E+02 1.33559E-07 4.43930E-06 4.22372E-06 1.28717E-05 1.49919E-07
 -1      3828 1.99998E+02 1.70984E-06 1.00238E-06-1.52629E-07 1.49755E-05 2.84726E-06
 -1      3829 1.99998E+02 1.20895E-05 1.23234E-05 2.04509E-06 1.73601E-05 2.01805E-06
 -1      3830 1.99998E+02-6.00238E-12 1.23654E-11-8.22806E-12 9.01561E-12-1.81887E-11
 -1      3831 1.99998E+02-2.57582E-12 6.32463E-12-1.39534E-12 3.81388E-12-1.61736E-11
 -1      3832 1.99998E+02-1.68742E-11-3.55051E-12 3.43438E-12 1.00211E-11-8.23215E-12
 -1      3833 1.99998E+02-3.16962E-12 4.00246E-13 8.10394E-12 6.84225E-12-2.46867E-12
 -1      3834 1.99978E+02-1.55219E-02-4.73452E-03-1.43408E-02-7.79131E-03 7.29624E-03
 -1      3835 1.99976E+02-1.09538E-01-7.99438E-02-7.40073E-02-1.12590E-02-5.87125E-02
 -1      3836 1.99999E+02-5.03996E-04-5.77474E-02-5.11574E-03 1.42954E-03-5.93907E-03
 -1      3837 1.99977E+02-3.54824E-03-1.16421E-02 6.61949E-03-9.81652E-03-1.44529E-02
 -1      3838 2.00043E+02-1.06065E-01-2.09693E-01-7.65464E-02 1.36361E-03-8.44697E-02
 -1      3839 1.99998E+02 1.99979E-13 7.18168E-13-9.57968E-12 2.30481E-12-2.88278E-12
 -1      3840 1.99998E+02-1.18270E-12-4.54979E-13-1.03070E-11 1.34469E-12-3.36008E-12
 -1      3841 1.99998E+02-1.45347E-12-1.68129E-12-1.11620E-11-3.95667E-12-8.07594E-12
 -1      3842 1.99998E+02-1.66906E-12-1.63520E-12-2.25581E-12-3.43962E-12-9.33748E-12
 -1      3843 1.99998E+02 3.75816E-13-1.44482E-13-6.83883E-12-1.56897E-12-3.54683E-12
 -1      3844 1.99998E+02 1.63380E-12 3.27605E-12-8.46930E-12 1.48632E-12-4.10585E-12
 -1      3845 1.99998E+02 1.99657E-12-2.07586E-12-7.10836E-12 1.17097E-12-8.78700E-12
 -1      3846 1.99998E+02 3.93245E-13 1.52730E-12-9.90544E-12 8.88583E-13-3.85754E-12
 -1      3847 1.99998E+02-3.08049E-12-2.54216E-12 3.32004E-12 2.67764E-12-4.01319E-12
 -1      3848 1.99998E+02-1.09744E-12-2.06306E-12 2.61869E-12 2.85752E-12-5.15509E-12
 -1      3849 1.99998E+02-1.97667E-12-2.90224E-12 1.81034E-12 9.57874E-13-2.00974E-12
 -1      3850 1.99998E+02 3.01054E-12 1.68965E-12-1.39559E-13 8.12817E-13-6.34506E-12
 -1      3851 1.99998E+02-2.93952E-06-3.33904E-06-1.51998E-06 8.96179E-06 2.41281E-07
 -1      3852 1.99998E+02-2.48546E-07-2.69326E-06 6.87543E-06 4.84930E-06-3.76017E-07
 -1      3853 1.99998E+02 1.39105E-05 1.67514E-05-1.37447E-06 2.10571E-05-1.48130E-05
 -1      3854 1.99998E+02 1.95818E-05 1.68090E-05-1.67630E-05 2.05095E-05-1.28738E-06
 -1      3855 1.99998E+02-2.28308E-06 1.21800E-05 1.72041E-06-2.32739E-05-4.60809E-05
 -1      3856 1.99998E+02 6.25057E-06 1.34888E-05-6.20334E-06-1.21468E-05 8.40090E-06
 -1      3857 1.99998E+02 2.02078E-06-2.26059E-07-2.07889E-05-6.99020E-06 1.25889E-05
 -1      3858 1.99998E+02 1.70791E-06 4.72361E-06-9.37771E-06-9.04434E-06 2.58201E-05
 -1      3859 1.99998E+02 1.97006E-05 5.91274E-05 1.67685E-05-8.50139E-06 4.71876E-05
 -1      3860 1.99998E+02 4.92214E-05-9.56647E-06-5.43057E-05-1.14028E-05-1.27001E-05
 -1      3861 1.99998E+02 1.10211E-04 1.15036E-04-1.80556E-05 9.68895E-06 2.30942E-05
 -1      3862 1.99998E+02 3.48666E-07 5.01513E-06-4.19359E-06 1.22468E-05-1.96397E-07
 -1      3863 1.99998E+02 1.94463E-06 1.03938E-06-6.52040E-07 1.42797E-05-2.50892E-06
 -1      3864 1.99998E+02 1.27342E-05 1.25276E-05-2.23273E-06 1.63177E-05-1.41663E-06
 -1      3865 1.99998E+02 1.16187E-05 2.58824E-05-5.50080E-06-1.28473E-05 4.19545E-05
 -1      3866 1.99998E+02 2.77324E-06 2.73015E-06 1.07214E-05-1.05612E-05-2.41168E-05
 -1      3867 1.99998E+02-3.35878E-07-2.20181E-06-7.40493E-06 4.51539E-06 1.57631E-07
 -1      3868 1.99998E+02 1.50673E-05 1.81176E-05 1.77823E-06 1.97773E-05 1.50817E-05
 -1      3869 1.99998E+02 7.11391E-09 1.35842E-08-3.62718E-08-5.01913E-09 5.80020E-08
 -1      3870 1.99998E+02 8.93623E-09 1.03766E-09-5.70534E-08-5.10537E-09 3.48363E-08
 -1      3871 1.99998E+02 1.58295E-08 1.43952E-08-3.91032E-08-2.56148E-08 3.88956E-08
 -1      3872 1.99998E+02 6.85067E-09 5.60474E-09-2.72456E-08-4.17252E-10 2.80230E-08
 -1      3873 1.99998E+02 1.39158E-08 1.37003E-08-4.02112E-08 1.45129E-09 3.77207E-08
 -1      3874 1.99998E+02 1.00810E-08 1.99118E-09-4.34036E-08-8.28929E-09 2.13132E-08
 -1      3875 1.99998E+02 3.93573E-09 1.20912E-08-2.17057E-08-7.82397E-09 4.34934E-08
 -1      3876 1.99998E+02 8.03470E-06 1.08084E-05 4.94449E-06-1.26672E-05-6.29856E-06
 -1      3877 1.99998E+02 3.09185E-06 2.36525E-08 2.04017E-05-6.73432E-06-9.95356E-06
 -1      3878 1.99998E+02-9.89344E-10 3.51060E-09 5.28952E-08-7.40849E-09-7.70183E-08
 -1      3879 1.99998E+02 5.34607E-09-3.45428E-09 7.89569E-08-7.89245E-09-5.18407E-08
 -1      3880 1.99998E+02 1.60849E-08 1.63889E-08 5.92254E-08 4.27649E-09-5.78030E-08
 -1      3881 1.99998E+02 5.18334E-09 1.06530E-08 3.17166E-08-5.14652E-09-5.71742E-08
 -1      3882 1.99998E+02 1.22708E-08 6.06472E-09 5.78509E-08-6.71291E-09-3.12556E-08
 -1      3883 1.99998E+02 1.11491E-08 1.02705E-08 4.19256E-08-2.39549E-08-4.14043E-08
 -1      3884 1.99998E+02-1.90853E-07-8.79443E-08 3.78123E-07-1.02007E-07 2.42686E-07
 -1      3885 1.99998E+02-3.48155E-08-4.69121E-08-2.66103E-08-8.21010E-08 1.73778E-07
 -1      3886 2.00007E+02-5.03640E-02 2.58884E-03-7.50326E-04 3.90819E-05 9.79179E-04
 -1      3887 1.99998E+02 8.66847E-11 7.08743E-11 1.57616E-09-1.28258E-09 6.36906E-10
 -1      3888 1.99998E+02-7.17206E-11-4.01547E-11 8.39555E-10-4.09239E-10 1.90000E-10
 -1      3889 1.99998E+02-6.07291E-08-5.51356E-08 9.84043E-08-6.60903E-08 9.80747E-08
 -1      3890 1.99998E+02-3.51433E-08-4.33336E-08 1.58745E-07-6.63137E-08-2.83612E-09
 -1      3891 1.99998E+02-1.98456E-07-9.20062E-08-3.87408E-07-1.03185E-07-2.50226E-07
 -1      3892 1.99998E+02-3.95934E-08-5.52150E-08 2.55109E-08-8.40590E-08-1.78464E-07
 -1      3893 1.99998E+02 6.24241E-09 7.01154E-09 2.76064E-08-5.53367E-10-2.75414E-08
 -1      3894 1.99998E+02 1.18496E-08 1.02502E-08 3.95522E-08-5.85401E-10-3.84576E-08
 -1      3895 1.99998E+02 2.33088E-09 1.01815E-08 2.12086E-08-8.03114E-09-4.38076E-08
 -1      3896 1.99998E+02 1.20637E-08 3.68201E-09 4.30096E-08-7.83026E-09-2.17809E-08
 -1      3897 1.99998E+02-2.85899E-06-2.82756E-06 6.57109E-07 8.58861E-06-5.08186E-07
 -1      3898 1.99998E+02 1.98113E-05 1.65095E-05 1.57473E-05 1.99764E-05 1.53995E-06
 -1      3899 1.99998E+02-4.40606E-12-1.28860E-12-6.74638E-12 1.35849E-12-5.21303E-12
 -1      3900 1.99998E+02-2.86992E-12-3.62914E-12-7.33386E-12 9.99289E-13-9.42176E-12
 -1      3901 1.99998E+02 6.36075E-13 2.34149E-13-1.69775E-11 3.66432E-13-4.57659E-12
 -1      3902 1.99998E+02-2.27195E-12-1.11615E-12-2.38719E-13-5.35948E-13-9.60898E-12
 -1      3903 1.99998E+02-1.25397E-12-1.11608E-12-7.25091E-12 1.55348E-12-6.17577E-12
 -1      3904 1.99998E+02 3.45482E-13 2.22286E-12 8.74045E-13-2.21434E-13-2.07077E-13
 -1      3905 2.00047E+02-2.20530E-01-1.01265E-01 9.42506E-02 3.80090E-04 9.04859E-02
 -1      3906 1.99998E+02 1.04312E-13 1.26838E-10-3.72139E-10-5.65860E-11 6.72121E-10
 -1      3907 1.99998E+02 5.69802E-11 1.75273E-10-8.94557E-10-1.94073E-10 7.69813E-10
 -1      3908 1.99998E+02 1.38017E-10-2.84421E-11-1.75012E-09-1.16834E-09 7.32232E-10
 -1      3909 1.99998E+02-8.85093E-11 7.55634E-11-8.64360E-10-1.12690E-09 1.57575E-09
 -1      3910 1.99998E+02-5.57611E-14-5.32826E-11-1.04929E-09-9.58982E-10 5.59177E-10
 -1      3911 1.99998E+02-1.52847E-11-6.56059E-13 1.92349E-11-6.14971E-11-7.80286E-11
 -1      3912 1.99998E+02-5.06708E-11-1.27176E-11 9.88339E-11-1.69487E-10-2.02787E-10
 -1      3913 1.99985E+02-2.61767E-02-1.12511E-02 5.97533E-03 3.23452E-03 1.84509E-03
 -1      3914 1.99980E+02-1.11324E-02-1.13510E-02 5.40142E-04 1.95597E-03-5.79367E-04
 -1      3915 1.99998E+02 1.56486E-09 2.50104E-09 4.98748E-09-4.41559E-09-9.14705E-09
 -1      3916 1.99998E+02 2.90574E-11 8.49931E-10 1.05172E-09-1.39941E-09-3.94711E-09
 -1      3917 1.99998E+02-8.67252E-09 9.66912E-09-1.82558E-08-3.49651E-08 2.13988E-08
 -1      3918 1.99998E+02 6.06454E-09 4.61958E-09-5.39443E-08-1.86656E-08 3.85579E-08
 -1      3919 1.99998E+02-1.75305E-12-1.19807E-11 5.64004E-11-6.09050E-11-2.58040E-11
 -1      3920 1.99998E+02-1.87872E-11-5.91562E-11 1.77877E-10-1.71694E-10-1.06765E-10
 -1      3921 1.99998E+02-7.70055E-11 9.71267E-09 2.08759E-08-3.70346E-08-2.42935E-08
 -1      3922 1.99998E+02 9.74191E-09-1.90194E-09 5.59382E-08-1.60010E-08-3.69661E-08
 -1      3923 1.99998E+02 2.38637E-09 1.61053E-09 8.96901E-09-4.41962E-09-5.11998E-09
 -1      3924 1.99998E+02 8.05511E-10 1.14518E-10 3.79713E-09-1.42083E-09-1.13232E-09
 -1      3925 1.99998E+02-6.37979E-08-5.89437E-08-1.00896E-07-6.65610E-08-1.02563E-07
 -1      3926 1.99998E+02-3.35665E-08-3.73546E-08-1.63740E-07-6.64983E-08 5.70407E-10
 -1      3927 1.99998E+02 1.18373E-08-1.04072E-08-2.20436E-08-3.50347E-08 1.83787E-08
 -1      3928 1.99998E+02 4.75735E-09 3.77216E-09-3.89983E-08-1.84299E-08 5.33648E-08
 -1      3929 1.99984E+02-1.17971E-02-2.54301E-02-1.07961E-03 3.25589E-03-7.39554E-03
 -1      3930 1.99998E+02-1.91000E-12 3.37448E-11-3.85552E-10-3.73320E-10 1.18680E-10
 -1      3931 1.99998E+02-1.09124E-10-1.04968E-10-1.73944E-10-4.20171E-10 1.71223E-10
 -1      3932 1.99998E+02 1.14375E-08-2.56902E-09 2.51761E-08-3.70735E-08-2.05703E-08
 -1      3933 1.99998E+02-5.80831E-10 7.19255E-09 3.73347E-08-1.62026E-08-5.51426E-08
 -1      3934 1.94474E+02-6.08792E-01-8.15671E-01-1.24807E+00 8.32214E-01-1.81759E+00
 -1      3935 2.01136E+02-5.00729E-01-1.23528E+00-1.66524E+00 3.22839E-01-1.98392E+00
 -1      3936 1.99998E+02-4.20415E-10-2.33681E-10-3.08582E-10 4.54989E-10-3.70383E-10
 -1      3937 1.99998E+02-1.96531E-11 3.87658E-10 1.35639E-10 1.13664E-10-3.32160E-10
 -1      3938 1.96569E+02-4.15492E-01-6.15592E-01-1.44951E+00 3.00006E-01-1.46915E+00
 -1      3939 2.00446E+02-1.41902E+00-6.83872E-01-1.97430E+00 2.17767E-01-1.47453E+00
 -1      3940 2.00064E+02-8.64097E-01-9.84604E-01-7.39829E-01-8.28020E-02 1.06810E+00
 -1      3941 1.99612E+02-1.60788E-01-4.20436E-01-2.22296E-01-4.90833E-02 5.70237E-01
 -1      3942 1.99998E+02 7.60743E-12 1.35113E-10-1.23762E-10 9.79143E-11-4.25473E-10
 -1      3943 1.99998E+02-5.78148E-11-1.10787E-11-3.34921E-11 1.96991E-10-1.19248E-10
 -1      3944 1.99998E+02-6.95886E-07 4.00003E-05 2.66249E-05-2.66941E-06-2.19353E-05
 -1      3945 1.99998E+02 9.34796E-05 2.12661E-04-2.62051E-05 1.66536E-05 6.69820E-06
 -1      3946 1.99998E+02 9.65931E-05 1.47025E-04-4.22153E-05 3.20303E-05 9.44588E-06
 -1      3947 1.99998E+02 1.31204E-05 6.08119E-05 8.14436E-06 1.69620E-05-2.68396E-05
 -1      3948 1.99998E+02 2.70205E-05 3.41943E-05 5.64083E-06 1.53466E-05-2.01131E-05
 -1      3949 1.99998E+02 3.04814E-12-5.26762E-12-8.36533E-13 5.07151E-13-7.23307E-12
 -1      3950 1.99998E+02-5.81251E-13-2.02387E-12-1.96707E-12 1.81689E-12-3.24847E-12
 -1      3951 1.99998E+02 7.45861E-07 3.50306E-06 1.98267E-05 8.66869E-08-7.45588E-06
 -1      3952 1.99998E+02-5.00754E-06-2.14487E-06 1.64017E-05 3.98152E-06-1.22867E-06
 -1      3953 1.99998E+02-2.38096E-06-7.43643E-06 1.30403E-05 4.60084E-06-1.04176E-06
 -1      3954 1.99998E+02 1.05531E-05 2.24375E-05 7.18875E-06 1.71530E-05-1.40242E-05
 -1      3955 1.99998E+02 1.10699E-05 2.34755E-05-6.84495E-06 1.63072E-05 1.38521E-05
 -1      3956 1.99998E+02-2.34854E-06-7.45055E-06-1.28674E-05 4.21913E-06 6.03811E-07
 -1      3957 1.99998E+02-5.62945E-06-2.05485E-06-1.53988E-05 3.85429E-06 1.29158E-06
 -1      3958 1.99998E+02 2.76512E-07 4.08366E-06-1.93279E-05 6.55630E-07 7.35057E-06
 -1      3959 1.99998E+02 2.65593E-05 3.56779E-05-3.22236E-06 1.45380E-05 2.04866E-05
 -1      3960 1.99998E+02 2.06942E-04 9.94529E-05 1.10769E-05 1.62275E-05-2.90787E-05
 -1      3961 1.99998E+02 1.39278E-04 1.00468E-04 1.05383E-05 3.27911E-05-4.33475E-05
 -1      3962 1.99998E+02 6.17205E-05 1.31861E-05-2.53606E-05 1.71497E-05 7.48572E-06
 -1      3963 1.99998E+02 3.67489E-05-4.86756E-07-1.92201E-05-1.54626E-06 2.55156E-05
 -1      3964 1.99998E+02 3.39710E-05 2.66784E-05-1.91334E-05 1.51669E-05 4.75006E-06
 -1      3965 1.99998E+02 2.27395E-05 1.06135E-05-1.37411E-05 1.70096E-05 6.72212E-06
 -1      3966 1.99998E+02-7.93497E-06-2.44019E-06-7.40767E-07 4.50241E-06 1.30658E-05
 -1      3967 1.99998E+02 2.76107E-06 1.21271E-06-6.41955E-06 2.52479E-09 1.87467E-05
 -1      3968 1.99998E+02-2.50706E-06-5.23591E-06-1.17571E-06 3.98547E-06 1.59006E-05
 -1      3969 1.99998E+02 1.32238E-05 6.64177E-05-7.03845E-06 1.59264E-05 2.44215E-05
 -1      3970 1.99998E+02 1.02100E-04 1.44302E-04 4.36311E-05 3.09322E-05-1.05642E-05
 -1      3971 1.99998E+02 1.04578E-04 2.20351E-04 3.16491E-05 1.27010E-05-1.85895E-05
 -1      3972 1.99998E+02-6.56446E-06 3.61844E-05-2.58521E-05-2.03782E-07 2.12084E-05
 -1      3973 2.00018E+02-9.96310E-01-8.70438E-01-1.05332E+00-7.57541E-02 7.58972E-01
 -1      3974 1.99598E+02-4.14653E-01-1.63856E-01-5.69847E-01-4.79951E-02 2.15880E-01
 -1      3975 1.99998E+02-7.84090E-06-2.49926E-06 6.04267E-07 4.18748E-06-1.30663E-05
 -1      3976 1.99998E+02-2.22632E-06-5.06458E-06 1.70903E-06 3.55896E-06-1.56482E-05
 -1      3977 1.99998E+02 2.97900E-06 1.61755E-06 7.34882E-06 3.47281E-07-1.85651E-05
 -1      3978 1.99998E+02 2.28938E-05 1.03104E-05 1.33372E-05 1.66648E-05-6.26847E-06
 -1      3979 1.99998E+02 3.36983E-05 2.70204E-05 2.07877E-05 1.46364E-05-3.18462E-06
 -1      3980 1.99998E+02-4.46521E-11 2.05426E-10 6.90438E-10-1.18194E-09-1.87256E-09
 -1      3981 1.99998E+02-1.08422E-12 2.16141E-11 4.21434E-12 1.36239E-12-2.02856E-11
 -1      3982 1.99998E+02-2.47560E-11-1.05433E-12 2.11878E-11 7.49375E-12-1.17609E-11
 -1      3983 1.99998E+02-2.11544E-11 5.68331E-12 8.14047E-12 1.60819E-11-1.77076E-11
 -1      3984 1.99998E+02 3.62558E-05-2.46727E-06 2.10243E-05-2.45954E-06-2.53219E-05
 -1      3985 1.99998E+02 2.23143E-04 1.02136E-04-1.38963E-05 1.27617E-05 3.16241E-05
 -1      3986 1.99998E+02 6.35573E-05 1.28280E-05 2.38680E-05 1.61701E-05-6.92643E-06
 -1      3987 1.99998E+02 1.49896E-04 1.00106E-04-9.29775E-06 3.02911E-05 4.53723E-05
 -1      3988 1.99998E+02-2.67192E-11 6.55003E-11-1.25692E-10 3.10278E-11-1.57579E-10
 -1      3989 1.97907E+02-3.14864E-01-1.92751E-01-9.73931E-01 1.34424E-01-8.76537E-01
 -1      3990 1.99998E+02 3.79959E-12-7.37939E-12 2.57234E-12-3.99433E-12 1.88933E-11
 -1      3991 2.00017E+02 8.14697E-03-3.66748E-02 4.50173E-03 2.99294E-03 3.05406E-03
 -1      3992 2.00004E+02-2.38499E-03-2.52245E-03 5.18826E-03 2.94927E-03 4.61327E-03
 -1      3993 1.99990E+02-4.71734E-03-8.39863E-03-3.92527E-04 3.48183E-03-1.15458E-03
 -1      3994 2.00006E+02 7.82000E-04 7.95203E-04-4.48296E-03 3.01997E-03 2.97571E-03
 -1      3995 1.99994E+02-7.95006E-03-4.30235E-03 5.46825E-04 2.91744E-03 7.25063E-04
 -1      3996 1.99998E+02 1.64678E-12 8.53976E-13 2.57918E-12-2.20484E-12-2.74242E-12
 -1      3997 1.99998E+02 2.59281E-11-2.07314E-11-1.16625E-10-3.60375E-10 3.82652E-10
 -1      3998 1.99998E+02 4.82370E-10-2.46636E-10-8.07562E-10-5.99264E-11 1.62037E-10
 -1      3999 2.00019E+02-3.52628E-02 8.52379E-03-2.35848E-03 2.85125E-03-3.86035E-03
 -1      4000 1.99998E+02 1.35039E-11 1.28380E-12-5.16389E-11 3.36320E-12 4.67529E-11
 -1      4001 1.99998E+02 8.73893E-14 7.66976E-12-1.40945E-10-3.09733E-10 2.51453E-10
 -1      4002 1.99998E+02 3.84886E-12-6.57933E-12-2.45715E-10-2.83294E-10 1.27275E-10
 -1      4003 1.99998E+02 2.04348E-11-4.69652E-12-9.08910E-11-6.78264E-11 3.17134E-11
 -1      4004 1.99998E+02-1.40475E-11 6.03440E-12-4.96550E-11-8.41024E-11 8.37109E-11
 -1      4005 1.99446E+02-1.59845E-01-9.58282E-02 2.80537E-01 1.15605E-02-1.90369E-01
 -1      4006 1.99971E+02-1.93739E-02-1.94235E-02 3.56133E-03-6.04287E-03-4.02534E-03
 -1      4007 1.91927E+02 3.96264E+01 3.66514E+01 6.98367E-01-4.94307E-01 7.24165E+00
 -1      4008 1.99998E+02 1.43483E-12 1.89699E-12-1.05406E-12-4.44309E-12-2.57277E-12
 -1      4009 1.99998E+02-8.01684E-12-9.10512E-12-9.05007E-12-2.24042E-11-4.87645E-12
 -1      4010 1.99998E+02-6.02409E-12-1.43300E-12-1.00837E-11-2.01444E-11 3.37557E-12
 -1      4011 1.99998E+02-6.79175E-13 8.48473E-13-1.15430E-12-6.41915E-12-2.87185E-12
 -1      4012 1.99998E+02-9.19104E-12-5.18943E-12-1.01253E-11-2.74670E-11-5.52847E-12
 -1      4013 1.99998E+02-2.56737E-12-3.69822E-13-6.22337E-12-9.59261E-12-8.60744E-12
 -1      4014 1.99998E+02-2.59917E-09-2.11380E-09 5.56466E-10-1.61551E-09-4.15892E-09
 -1      4015 1.99998E+02 7.48981E-10-6.18969E-10-2.11659E-10-1.00322E-09-5.39011E-10
 -1      4016 1.99998E+02 1.41664E-12 1.28737E-12-6.71562E-12 2.77895E-12-7.35732E-12
 -1      4017 1.99998E+02-9.85984E-13 5.51959E-13-3.82563E-12 2.00060E-12-7.01135E-12
 -1      4018 1.99998E+02-2.62091E-10-2.32426E-10-1.39645E-10-5.27142E-10 1.17289E-10
 -1      4019 1.99998E+02 8.81965E-09 7.23795E-09 2.34123E-08-3.61098E-08-2.29616E-08
 -1      4020 1.99998E+02 1.14881E-09-9.99959E-12-2.00452E-08-3.38734E-08 1.98896E-08
 -1      4021 1.99998E+02-4.29126E-11-6.52959E-11-1.47731E-10-9.45366E-12 6.50192E-11
 -1      4022 1.99998E+02 5.19379E-11-1.63344E-11-4.01089E-10-3.96499E-10 1.79005E-10
 -1      4023 1.99999E+02 2.13757E-03 3.13296E-03-5.76597E-03 2.99748E-03 4.24415E-03
 -1      4024 1.99999E+02 2.47013E-03 6.66185E-04-3.86627E-03 2.48529E-03 4.93538E-03
 -1      4025 1.99998E+02-8.00746E-13-3.93510E-12-1.06256E-11-1.94624E-11-1.08400E-12
 -1      4026 1.99998E+02 2.66003E-12-8.57396E-13-1.04794E-12-4.29610E-12-6.03138E-12
 -1      4027 1.99998E+02-2.64434E-12-1.49056E-13-2.77039E-12-5.84974E-12-5.75996E-12
 -1      4028 1.99998E+02-5.21193E-13-2.03540E-12-4.64900E-12-8.79796E-12-6.55995E-12
 -1      4029 1.99998E+02-9.60783E-12-7.18519E-12-8.22004E-12-2.64804E-11-1.30614E-12
 -1      4030 1.99998E+02 4.55196E-11 4.73482E-11-2.39983E-10-5.65243E-11 1.88699E-10
 -1      4031 1.99998E+02-1.71372E-11 1.19656E-11-1.80792E-10-3.93267E-10 4.33996E-10
 -1      4032 1.99998E+02-3.80775E-11-3.33175E-12 1.16701E-11 1.12427E-11-1.40660E-11
 -1      4033 1.99998E+02 1.89192E-10 5.78426E-10-1.39593E-09-4.65672E-10 2.25154E-09
 -1      4034 1.97890E+02-1.75840E-01-3.62994E-01 8.70510E-01 1.44830E-01 9.59800E-01
 -1      4035 1.99998E+02 3.74855E-13-1.69023E-12-2.53065E-12-2.39328E-12-1.37155E-11
 -1      4036 1.99998E+02-2.33024E-12-2.57134E-13-8.37706E-12-4.09992E-13-1.00540E-11
 -1      4037 1.99998E+02-2.11158E-12-2.97357E-13-4.62529E-12-1.39495E-12-1.42763E-11
 -1      4038 1.99998E+02-5.37871E-13 5.75856E-13-9.50085E-13-4.77548E-12-1.10666E-11
 -1      4039 1.99998E+02 2.46982E-05 2.49289E-05 1.00109E-05 6.32055E-06-8.35854E-06
 -1      4040 1.99998E+02 1.25364E-04 1.24961E-04-3.93170E-05 2.70657E-05 4.11994E-05
 -1      4041 1.99998E+02 3.43697E-05 3.40441E-05-3.92514E-06 3.69118E-05-2.31550E-06
 -1      4042 1.99998E+02 3.42637E-05 3.60257E-05 2.59025E-06 3.57200E-05 5.63928E-06
 -1      4043 1.99998E+02 3.07218E-06 3.64174E-06-1.05900E-06 8.82248E-06-1.18688E-06
 -1      4044 1.99998E+02 2.21505E-05 2.31891E-05-8.69356E-06 7.23819E-06 9.83535E-06
 -1      4045 1.99998E+02 3.44624E-06 3.23231E-06 1.98794E-06 9.10917E-06 1.81204E-06
 -1      4046 1.99998E+02 1.16694E-04 1.19445E-04 3.74795E-05 2.91174E-05-3.71535E-05
 -1      4047 1.99998E+02 1.15155E-12-5.86403E-12-1.13099E-11-4.40981E-11-2.57185E-11
 -1      4048 1.99998E+02-4.20673E-12-8.99781E-12-1.22816E-12-5.39021E-12-1.54986E-11
 -1      4049 1.99998E+02-5.89556E-12-1.03126E-11-1.66127E-11-2.97288E-11-3.53763E-11
 -1      4050 1.99998E+02-3.82994E-12-5.48187E-12-2.07901E-11-3.85862E-11-2.43434E-11
 -1      4051 1.99998E+02-5.07481E-13-4.22016E-13-3.04071E-12-3.69753E-12-1.63147E-11
 -1      4052 1.99998E+02-2.33198E-11-3.20637E-11-8.61886E-10-1.18280E-10-8.63237E-10
 -1      4053 1.99998E+02 1.03902E-10 1.11793E-10 2.16614E-10-2.19720E-11-1.90654E-10
 -1      4054 1.99998E+02-1.10759E-07-4.41137E-08 1.09468E-07-4.28700E-08-2.33401E-08
 -1      4055 1.99998E+02-5.32434E-08-1.48327E-08 4.99178E-08-4.21409E-08-3.30224E-09
 -1      4056 1.99998E+02-2.13575E-08-7.17404E-09 7.65140E-08-1.91152E-08-5.66028E-08
 -1      4057 1.99998E+02-1.57480E-07-6.95644E-08 3.21692E-08 2.59254E-08-2.46893E-08
 -1      4058 1.99998E+02-9.05688E-08-9.71385E-08 3.82023E-08-5.71712E-09-3.38523E-08
 -1      4059 1.99998E+02-1.04214E-08-5.81920E-08 4.33406E-09-4.39786E-08-5.09790E-08
 -1      4060 1.99998E+02-4.59903E-08-1.20138E-07 2.03377E-08-4.48712E-08-1.16689E-07
 -1      4061 1.99998E+02-4.91403E-09-2.72422E-08 5.78490E-08-1.91402E-08-7.64657E-08
 -1      4062 1.99998E+02-6.44523E-08-1.69774E-07 2.93440E-08 2.55528E-08-2.91492E-08
 -1      4063 1.99985E+02 3.99621E-04-3.64310E-04-4.10061E-04-7.19796E-03-4.53050E-03
 -1      4064 1.99998E+02 1.40823E-12 2.06434E-13 4.12345E-12-2.97924E-12-3.85966E-12
 -1      4065 1.99998E+02-1.17995E-12-1.43351E-14 2.51734E-12-4.54375E-12-4.42264E-12
 -1      4066 1.99998E+02-7.98843E-13-1.22179E-12 2.11271E-12-1.13415E-12-1.31977E-12
 -1      4067 1.99998E+02 1.52942E-12-1.45288E-12-3.96450E-12-1.57563E-12-4.70643E-12
 -1      4068 1.99998E+02-2.14202E-11-1.75887E-11-2.88444E-11-6.34890E-11-1.91020E-11
 -1      4069 1.99998E+02-3.78564E-12-3.22679E-12-1.90696E-11-3.03171E-11-1.75415E-11
 -1      4070 1.99998E+02-1.20129E-11 8.68849E-11-2.87347E-10-5.27069E-10 9.16773E-10
 -1      4071 1.99998E+02-5.58567E-12 1.27487E-12-6.77024E-12-9.16978E-12-5.47092E-12
 -1      4072 1.99998E+02-3.32583E-12-6.34320E-12 8.60523E-12-4.16131E-11-1.18566E-12
 -1      4073 1.99998E+02-7.06353E-12-4.39067E-12 1.34160E-11-2.53844E-11 1.27612E-11
 -1      4074 1.99998E+02 6.28542E-14 3.06266E-13-7.96245E-12-4.12638E-12-1.56895E-13
 -1      4075 1.99998E+02-3.73910E-12-6.29489E-12 9.27074E-12-3.77088E-11 9.53703E-12
 -1      4076 1.99998E+02 1.24231E-12 2.90437E-13-1.23785E-11-2.42374E-12-2.36861E-12
 -1      4077 1.99998E+02 7.35776E-13 1.04441E-12-4.69967E-12-1.77705E-12-8.42559E-12
 -1      4078 1.99998E+02 7.41924E-13-1.25897E-13-8.18120E-12-2.17287E-12-3.05334E-12
 -1      4079 1.99998E+02 3.95373E-12-6.02103E-12-9.30904E-12-5.31125E-12-1.75106E-11
 -1      4080 1.99998E+02-5.91064E-12 3.83026E-12-1.26800E-11-6.08184E-12-7.02438E-12
 -1      4081 1.99998E+02-3.27000E-12-5.38055E-12-4.66383E-12-2.04539E-12-5.93560E-12
 -1      4082 1.99998E+02-1.40512E-11-3.10126E-11-1.05786E-11 1.37628E-11-1.20547E-11
 -1      4083 1.99998E+02 2.38825E-11-6.28178E-11-6.36140E-11 1.53935E-11-4.50214E-11
 -1      4084 1.99998E+02-5.02936E-11-1.65065E-11-1.26433E-11 1.88314E-11-1.10728E-11
 -1      4085 1.99998E+02-5.25818E-11-5.58229E-11-7.17949E-11 3.47703E-11-5.79623E-11
 -1      4086 1.99998E+02-1.63759E-12-5.31775E-12-4.64410E-12-4.93410E-12-7.50983E-12
 -1      4087 1.99998E+02-3.61339E-12-1.78854E-12-1.01184E-11-4.18561E-12-2.48641E-14
 -1      4088 1.99998E+02-2.15464E-12-5.62997E-12-2.20828E-12-4.96079E-12-8.14619E-12
 -1      4089 1.99998E+02-4.42074E-12-1.45383E-12-1.00370E-12-4.91287E-12-4.07005E-12
 -1      4090 1.99998E+02-4.50543E-11-5.02288E-11-2.46375E-10-1.89296E-10-2.56081E-10
 -1      4091 1.99998E+02 4.73860E-12-4.77651E-13-8.18598E-13-1.86144E-12-5.09005E-12
 -1      4092 1.99998E+02 1.69936E-12 1.64868E-13 2.95774E-13 1.56257E-12-1.94033E-12
 -1      4093 1.99998E+02 2.81833E-10 2.42133E-10-1.24311E-09-7.02248E-10-1.20443E-09
 -1      4094 1.99998E+02 2.63794E-15 1.16525E-11-1.42761E-11 9.57331E-12-1.52152E-11
 -1      4095 1.99998E+02-2.40139E-11-1.30745E-11-1.52251E-11 1.47787E-11-6.46326E-12
 -1      4096 1.99998E+02-1.25265E-11-2.07237E-12-4.84240E-12 9.93191E-12-2.27083E-12
 -1      4097 1.99990E+02-9.98717E-03-8.70228E-03-2.12415E-03-5.96673E-03-2.17821E-03
 -1      4098 1.99998E+02-4.01131E-08-6.58472E-08 2.42214E-08 2.26394E-08-4.42903E-08
 -1      4099 1.99998E+02-5.90883E-08-4.74310E-08 4.96112E-08 2.24028E-08-1.92944E-08
 -1      4100 1.99998E+02-4.43882E-08-5.08592E-08 1.12726E-08 3.68905E-08-3.00282E-09
 -1      4101 1.99998E+02 1.29066E-04 2.46422E-04-7.86251E-05 2.69734E-05-1.23033E-04
 -1      4102 1.99998E+02 1.64452E-04 1.60875E-04-9.31532E-05 4.57831E-05-1.01912E-04
 -1      4103 1.99998E+02-9.33005E-08-1.50002E-07 2.78295E-10 5.59952E-08 5.42667E-08
 -1      4104 1.99998E+02-1.35781E-07-9.91058E-08-4.85770E-08 5.65795E-08 6.16743E-09
 -1      4105 1.99997E+02-5.55409E-03-5.55965E-03 8.36861E-04-4.58200E-03 2.22625E-05
 -1      4106 1.99671E+02-1.09944E-01-1.07726E-01-1.68726E-01-2.05938E-02-1.71947E-01
 -1      4107 1.99997E+02 1.07651E-03 3.52614E-03-2.87873E-03 2.47935E-04 1.11433E-03
 -1      4108 1.99993E+02 2.86511E-03 2.66992E-03-3.20981E-03 1.24983E-03 3.17208E-03
 -1      4109 1.99998E+02 1.68387E-12 1.96188E-12-4.70371E-11-3.14422E-11-2.58725E-12
 -1      4110 1.99998E+02-5.77848E-11-5.55097E-11-4.47214E-11-9.67734E-11 2.44019E-11
 -1      4111 1.99998E+02 2.56151E-12-2.84116E-12-2.58143E-12-8.03274E-13-8.95139E-12
 -1      4112 1.99998E+02 3.75550E-13 3.53407E-12-1.77608E-12-1.10841E-12-1.04305E-11
 -1      4113 1.99998E+02 4.61249E-12 1.97271E-12-4.25043E-12-6.79003E-13-3.45275E-12
 -1      4114 1.99998E+02-2.46401E-12-9.94304E-14-6.58936E-14 1.86114E-12-1.48268E-11
 -1      4115 1.99998E+02-4.87269E-13 5.71153E-13-7.06436E-13 2.72240E-12-1.12341E-11
 -1      4116 1.99998E+02 6.53371E-13-2.27398E-13-2.14934E-12 2.00003E-12-5.32016E-12
 -1      4117 1.99998E+02-5.63425E-12-1.58240E-11 1.03762E-11-3.46587E-11-3.75491E-11
 -1      4118 1.99998E+02-8.08281E-12-1.21758E-11 1.01176E-11-4.92955E-11-2.65831E-11
 -1      4119 1.99998E+02 9.74907E-12 1.39902E-12-6.07991E-12-3.42269E-11 3.67202E-11
 -1      4120 1.99998E+02-1.71049E-11-1.72308E-11 5.87625E-12-6.29571E-11 1.35332E-11
 -1      4121 1.99998E+02-1.35621E-11-2.85351E-13 1.22128E-11-3.65439E-11-1.80972E-11
 -1      4122 1.99998E+02-3.52966E-06-8.27791E-06-1.24536E-05 1.20345E-06 8.27790E-06
 -1      4123 1.99998E+02-8.48096E-07-1.80230E-07-1.38937E-05 1.50127E-06 1.40727E-05
 -1      4124 1.99998E+02-3.50820E-06-8.51536E-06 1.25670E-05 1.16011E-06-8.49442E-06
 -1      4125 1.99998E+02-4.11821E-07-4.93523E-07 1.45645E-05 1.29310E-06-1.39776E-05
 -1      4126 1.99998E+02 4.03122E-12-2.58087E-12-6.64742E-12-1.08680E-11-9.76290E-12
 -1      4127 1.99998E+02-5.52880E-12-5.33687E-12-1.34426E-11-2.75430E-11-4.13473E-12
 -1      4128 1.99998E+02 1.19115E-04 2.55173E-04 8.56431E-05 3.43421E-05 1.16672E-04
 -1      4129 1.99998E+02 1.62347E-04 1.67611E-04 1.02944E-04 4.42220E-05 9.73677E-05
 -1      4130 1.99998E+02 2.43722E-04 1.17087E-04-1.12355E-04 3.37521E-05-8.31593E-05
 -1      4131 1.99998E+02-8.87870E-06-3.56436E-06-8.27410E-06 1.28149E-06 1.24896E-05
 -1      4132 1.99998E+02-2.48004E-13 1.84513E-12-9.48128E-13-4.11169E-13-9.46304E-12
 -1      4133 1.99998E+02-3.40457E-12-4.42569E-12-2.48770E-12-2.10893E-13-8.78299E-12
 -1      4134 1.99998E+02-5.34644E-13-2.39246E-12 9.53166E-13-3.55571E-13-5.38188E-12
 -1      4135 1.99998E+02 1.13708E-08 3.24122E-09-1.99899E-08-7.36451E-09 7.97574E-09
 -1      4136 1.99998E+02 5.41190E-09 5.33205E-09-1.93243E-08-1.35267E-08 1.92698E-08
 -1      4137 1.99998E+02 1.12996E-08 3.27585E-09 1.99570E-08-7.36963E-09-7.87213E-09
 -1      4138 1.99998E+02 5.18240E-09 5.22705E-09 1.90375E-08-1.35493E-08-1.92345E-08
 -1      4139 1.98388E+02-9.22617E-01-9.43521E-01 1.03005E+00-1.13985E-01-1.02396E+00
 -1      4140 1.99998E+02 3.23310E-09 1.15124E-08-7.92281E-09-7.43819E-09 2.01826E-08
 -1      4141 1.99998E+02 3.18847E-09 1.13046E-08 7.66808E-09-7.34884E-09-2.00107E-08
 -1      4142 1.98921E+02-2.28195E-01-2.32193E-01-4.16810E-01-2.85580E-02 4.18914E-01
 -1      4143 1.98427E+02-9.32807E-01-9.42186E-01-9.93276E-01-1.18837E-01 1.01557E+00
 -1      4144 1.99997E+02 3.56297E-03 9.64567E-04-1.05970E-03 2.93263E-04 2.77506E-03
 -1      4145 1.99998E+02-6.21377E-07-6.33358E-07 9.85561E-07-3.40127E-08 1.02449E-06
 -1      4146 1.99998E+02-1.13520E-12 2.05129E-12-8.88572E-15 3.38362E-12-7.27287E-12
 -1      4147 1.99998E+02-2.89111E-12-5.61653E-12-4.75031E-12-1.18256E-12-3.66179E-12
 -1      4148 1.99998E+02 4.10257E-14 2.33863E-12 3.75177E-13-6.06297E-13-5.30778E-12
 -1      4149 1.99998E+02 3.49879E-12-1.10842E-12-1.26637E-13 3.07095E-12-6.77781E-12
 -1      4150 1.99998E+02-1.41764E-12-6.07225E-12-1.02747E-11-1.41065E-11-4.93141E-13
 -1      4151 1.99998E+02-5.97986E-13-4.37363E-12-7.45791E-12-1.38115E-11-4.55655E-12
 -1      4152 1.99998E+02-7.60749E-13-3.45851E-12-5.50378E-12-1.46632E-11 6.01560E-13
 -1      4153 1.99998E+02 1.59692E-12 3.26129E-12-6.20657E-12-8.29293E-13-2.96317E-12
 -1      4154 1.99998E+02-9.33006E-13 1.18046E-13 5.10588E-11-1.83614E-11-5.83728E-11
 -1      4155 1.99998E+02-7.10554E-12-9.79781E-12 1.67097E-11-2.60654E-11-2.71468E-11
 -1      4156 2.00000E+02 1.45794E-03 1.48929E-03 1.27977E-03 3.88279E-05-1.32543E-03
 -1      4157 1.99998E+02 2.20636E-09 2.20180E-09-7.10764E-09-3.81106E-09 7.15355E-09
 -1      4158 1.99998E+02 1.51820E-04 1.48218E-04-1.90846E-04 5.87193E-05-1.86387E-04
 -1      4159 1.99998E+02-3.30865E-06-3.24004E-06-6.26130E-06-1.89809E-07 6.41424E-06
 -1      4160 1.99998E+02-1.51299E-08-2.04571E-09 6.44424E-08-2.96939E-08-2.80744E-08
 -1      4161 1.99998E+02-2.96262E-08-2.75057E-08 3.26663E-08-4.94144E-08 2.49375E-08
 -1      4162 1.99998E+02 1.98628E-10 2.34932E-10 2.79016E-09-5.50937E-10-2.88756E-09
 -1      4163 1.99998E+02 1.96467E-09 2.03015E-09 7.08183E-09-3.72060E-09-7.24257E-09
 -1      4164 1.99998E+02-4.34171E-08-4.85783E-08-1.22547E-08 3.73867E-08 2.07018E-08
 -1      4165 1.99998E+02-8.70808E-06-3.58690E-06 8.28478E-06 1.19383E-06-1.24875E-05
 -1      4166 1.99998E+02-6.30358E-07-6.55545E-07-1.01713E-06-4.00383E-08-1.03695E-06
 -1      4167 1.99998E+02 2.53213E-09-1.54617E-08-3.10700E-08-3.69267E-08 6.69787E-08
 -1      4168 1.99998E+02-8.26452E-10-2.09906E-08 2.82589E-08-2.92366E-08-6.61235E-08
 -1      4169 1.99998E+02-2.52321E-08-3.38998E-08-2.54595E-08-5.05523E-08-3.52142E-08
 -1      4170 1.99586E+02-1.42046E-01-1.44539E-01 1.68116E-01-1.75627E-02 1.67273E-01
 -1      4171 1.99998E+02 2.52841E-04 1.32460E-04 1.20667E-04 2.63265E-05 8.28820E-05
 -1      4172 1.99998E+02-1.49506E-08 6.27801E-10-6.58367E-08-3.67163E-08 3.00360E-08
 -1      4173 1.99998E+02-3.21694E-06-3.31375E-06 6.34085E-06-2.49170E-07-6.32995E-06
 -1      4174 2.00000E+02 1.03342E-03 9.83808E-04-1.25781E-03 1.46175E-04 1.21118E-03
 -1      4175 1.99998E+02 4.26770E-09 4.41736E-09-3.69951E-09-2.06256E-08-5.10179E-09
 -1      4176 1.99998E+02 1.45180E-04 1.65436E-04 1.93474E-04 5.84268E-05 1.92808E-04
 -1      4177 1.99998E+02 5.62529E-09 3.98590E-09 4.29326E-09-2.07550E-08 3.92407E-09
 -1      4178 1.99998E+02-2.51329E-12 5.83975E-13 4.52707E-14 1.47366E-12-1.50525E-11
 -1      4179 1.99998E+02 1.47855E-12-5.44688E-12-2.25913E-12 1.32964E-12-3.76888E-12
 -1      4180 1.99998E+02 2.60795E-12 2.08297E-12-6.33755E-12-1.93232E-12-6.53225E-12
 -1      4181 1.99998E+02-2.45199E-12 4.04803E-12-1.53977E-11-2.11173E-11 7.74573E-13
 -1      4182 1.99998E+02 1.07621E-12 9.03279E-12-3.54259E-12 8.09852E-13-7.30101E-12
 -1      4183 1.99998E+02 4.69750E-12-3.03758E-12-1.53200E-11-2.17154E-11 5.23426E-12
 -1      4184 1.99998E+02-1.30585E-12-4.50567E-12-1.63063E-13 1.86158E-13-7.30156E-12
 -1      4185 1.99998E+02-1.02315E-12 9.34350E-13 1.13563E-12-8.45007E-14-8.46372E-12
 -1      4186 1.99998E+02-8.39714E-12-1.00036E-11 1.47694E-11-3.20339E-11-3.76364E-11
 -1      4187 1.99998E+02-7.17967E-12-8.55885E-12 1.48678E-11-3.20077E-11-2.18918E-11
 -1      4188 1.99998E+02 2.52380E-09 5.38979E-09-6.76263E-09-5.41314E-09 1.59418E-08
 -1      4189 1.99998E+02 5.41983E-09 2.51343E-09-1.57796E-08-5.40253E-09 6.76536E-09
 -1      4190 1.99998E+02 1.39012E-04 2.11845E-04-1.15153E-04 4.43257E-05-2.29902E-04
 -1      4191 1.99998E+02 2.16166E-04 1.22032E-04-2.20917E-04 4.64947E-05-1.15934E-04
 -1      4192 1.99998E+02-7.31616E-06-2.98879E-06-1.13430E-05-1.44668E-06 8.08834E-06
 -1      4193 1.99998E+02-2.96787E-06-7.26980E-06-7.79022E-06-1.55561E-06 1.10944E-05
 -1      4194 1.99998E+02 2.40729E-09 5.43117E-09 6.68032E-09-5.34778E-09-1.59446E-08
 -1      4195 1.99999E+02 1.17059E-03 2.09254E-03-1.62033E-03 5.28418E-04 2.47473E-03
 -1      4196 1.99998E+02-2.91114E-06-7.40148E-06 7.88436E-06-1.59659E-06-1.09613E-05
 -1      4197 1.99998E+02 5.27149E-09 2.46013E-09 1.57601E-08-5.37786E-09-6.84158E-09
 -1      4198 1.99998E+02 1.23775E-08 2.57695E-09-2.52256E-08-3.72819E-08 7.44540E-09
 -1      4199 1.99998E+02-7.36727E-12-5.56406E-12-8.96628E-12-1.17407E-12-4.03921E-12
 -1      4200 1.99998E+02-9.94906E-13-2.48606E-12-8.63013E-13 4.73524E-13-5.55314E-12
 -1      4201 1.99998E+02-9.57532E-12-1.39752E-11 1.15625E-11-3.15498E-11 8.33951E-12
 -1      4202 1.99998E+02 4.21420E-09 1.09126E-08-8.85138E-09-3.72118E-08 2.41757E-08
 -1      4203 1.99998E+02 1.23033E-04 2.22449E-04 1.16261E-04 4.64350E-05 2.34410E-04
 -1      4204 1.99998E+02-6.99853E-06-3.00499E-06 1.13445E-05-1.54652E-06-7.93624E-06
 -1      4205 1.99998E+02 2.15202E-04 1.43638E-04 2.25666E-04 4.36237E-05 1.21496E-04
 -1      4206 1.99999E+02 2.22027E-03 1.11330E-03-2.48373E-03 5.54845E-04 1.53364E-03
 -1      4207 1.99998E+02 1.37847E-08 2.53505E-09 2.59205E-08-3.59254E-08-8.85783E-09
 -1      4208 1.99998E+02 3.40005E-09 1.01996E-08 9.72812E-09-3.55070E-08-2.63642E-08
 -1      4209 1.99998E+02 4.73539E-04 4.74836E-04 1.08432E-05 6.13871E-05-1.10799E-05
 -1      4210 1.99998E+02 1.91381E-04 1.92173E-04 5.97262E-05 1.56129E-05 5.65727E-05
 -1      4211 1.99993E+02 2.64772E-03 2.59064E-03 3.97995E-05-4.53742E-04-2.59622E-05
 -1      4212 1.99998E+02-2.43553E-12-3.37900E-12-3.73244E-12 2.84188E-12-1.47325E-11
 -1      4213 1.99998E+02 7.55059E-12 3.03404E-12-1.52966E-12 2.39775E-12-8.21598E-12
 -1      4214 1.99998E+02-9.90715E-13-8.79372E-13-1.37198E-12 9.75204E-13-8.12487E-12
 -1      4215 1.99998E+02-1.46868E-11-1.97199E-11-2.82689E-12-8.78337E-11-1.21620E-11
 -1      4216 1.99998E+02 2.11972E-12-2.65470E-12-1.91809E-11-4.11893E-11-1.99135E-11
 -1      4217 1.99998E+02 6.74102E-13-6.35245E-12 2.64849E-12-3.80633E-11 1.18879E-12
 -1      4218 1.99998E+02-1.34814E-11-1.71142E-11 4.24812E-13-5.28643E-11-2.00863E-11
 -1      4219 1.99998E+02 2.73777E-11 2.05443E-11-2.49079E-11-1.47496E-10 5.64190E-12
 -1      4220 1.99998E+02-7.07986E-13-8.73972E-13-6.98819E-12 1.81163E-12-9.41426E-12
 -1      4221 1.99998E+02 1.95972E-12 1.92601E-12-4.05492E-12-3.58440E-12-6.62098E-12
 -1      4222 1.99985E+02 1.83830E-03 1.72148E-03-1.88323E-03 1.34598E-03 1.87050E-03
 -1      4223 1.99998E+02 1.90622E-04 1.92640E-04-5.33778E-05 1.56657E-05-5.91235E-05
 -1      4224 1.99998E+02 1.01761E-08 1.01885E-08-2.09430E-11-1.59957E-08-3.15542E-11
 -1      4225 1.99998E+02 8.82519E-09 8.75467E-09-8.87268E-09-1.97746E-08 8.76583E-09
 -1      4226 1.99998E+02 8.90075E-09 8.85361E-09 9.09542E-09-1.97666E-08-9.26225E-09
 -1      4227 1.99998E+02 9.86116E-13-8.67960E-14-1.60130E-12 1.01557E-12-5.66985E-12
 -1      4228 1.99998E+02 1.75596E-13-2.01633E-12-9.49460E-12-1.03859E-13 7.11846E-13
 -1      4229 1.99998E+02-1.27641E-12 4.58832E-13-4.75932E-12 2.81677E-12-7.60519E-12
 -1      4230 1.99998E+02 4.34389E-12 3.74155E-12 1.41712E-12-3.05382E-13-6.72242E-12
 -1      4231 1.99998E+02-3.22203E-12-7.99118E-12-1.63984E-12 2.77074E-13-9.84878E-12
 -1      4232 1.99998E+02-5.68343E-11-3.74735E-10 1.39793E-09-1.53185E-10 1.59500E-09
 -1      4233 1.99998E+02 4.23117E-05 4.27051E-05-1.00806E-04 2.66989E-05-9.84933E-05
 -1      4234 1.99998E+02 2.86004E-09 2.78425E-09-1.00795E-08-1.57491E-09 1.01699E-08
 -1      4235 1.99998E+02-4.24258E-06-4.39725E-06-7.99183E-06-2.11193E-06 8.03179E-06
 -1      4236 1.99998E+02-5.15771E-06-5.11413E-06 2.53168E-08 5.50765E-06 2.37787E-07
 -1      4237 1.99998E+02 5.37636E-06 5.72902E-06-2.63818E-06 5.68427E-06 3.36252E-06
 -1      4238 1.99998E+02-3.50735E-08-3.77284E-08-1.44764E-10-3.17600E-08 8.80186E-10
 -1      4239 1.99998E+02-1.04389E-07-1.08839E-07 1.28405E-08-3.69007E-08-1.06563E-08
 -1      4240 1.99998E+02-8.09470E-08-8.89392E-08-1.21003E-08-4.54430E-08-5.74781E-09
 -1      4241 1.99998E+02 5.56016E-06 5.61389E-06 3.74527E-06 5.68836E-06-3.01139E-06
 -1      4242 1.99998E+02 2.76921E-09 2.88999E-09 9.99388E-09-1.59604E-09-1.01798E-08
 -1      4243 1.99998E+02-4.11269E-06-4.53994E-06 7.88607E-06-2.12985E-06-7.98684E-06
 -1      4244 2.00003E+02 1.35538E-03 1.25231E-03-1.82289E-03 2.65214E-04 1.72907E-03
 -1      4245 1.99998E+02-8.39434E-08-8.35665E-08 6.13599E-09-4.46547E-08 1.32463E-08
 -1      4246 1.99998E+02-2.46467E-06-2.49526E-06 4.19882E-09 2.17600E-07 2.47044E-09
 -1      4247 1.99998E+02 9.18965E-09 6.67211E-09-1.37951E-08-2.13145E-08-1.49406E-08
 -1      4248 1.99998E+02 9.55163E-09 7.47000E-09 1.35594E-08-2.14082E-08 1.42287E-08
 -1      4249 1.99998E+02 4.35447E-05 4.36422E-05 9.70326E-05 2.57681E-05 1.02878E-04
 -1      4250 1.99998E+02-5.43701E-13-5.25130E-13-4.39261E-12-2.91732E-12-4.67085E-12
 -1      4251 1.99998E+02 1.19930E-12-2.24368E-14-3.78476E-12-3.33610E-12-4.66928E-12
 -1      4252 1.99998E+02-1.33488E-12 2.17540E-12 1.07105E-12-3.90747E-12-3.91243E-12
 -1      4253 1.99998E+02-2.83015E-12 6.46688E-12-3.18625E-12-7.68185E-12 3.55522E-12
 -1      4254 1.99998E+02 9.11213E-14 2.10634E-12-2.78399E-12-3.29980E-12 4.19945E-12
 -1      4255 1.99998E+02 4.13522E-13-6.44318E-12 1.35035E-13-2.92151E-12 5.99329E-12
 -1      4256 1.99998E+02-3.23081E-08-4.32775E-07-1.11185E-07 4.32949E-08 5.17707E-07
 -1      4257 1.99998E+02-1.36711E-07-1.50163E-07-5.88457E-08 6.01150E-08 6.66120E-08
 -1      4258 1.99998E+02-4.76604E-07-1.25271E-07-5.07559E-07 2.58591E-08 1.49713E-07
 -1      4259 1.99998E+02 7.19438E-11-3.76158E-10 3.08320E-10 3.62781E-11-9.07372E-11
 -1      4260 1.99998E+02 1.69668E-10-3.97679E-10-5.45442E-10-7.16398E-11-8.10705E-11
 -1      4261 1.99998E+02-2.76682E-11-2.06541E-11 2.37731E-10-1.73521E-10 2.41838E-10
 -1      4262 1.99998E+02-7.91505E-09-8.72232E-09 7.28084E-09-8.61154E-10 9.89727E-09
 -1      4263 1.99998E+02 2.10300E-09-3.66509E-09-3.37728E-10 2.78098E-10-3.89391E-10
 -1      4264 1.99998E+02 6.19902E-09-5.83080E-09 3.45052E-09-8.90788E-10-8.80673E-09
 -1      4265 1.99998E+02-5.03953E-09-5.87817E-09 1.29113E-09-1.09361E-10-3.59071E-09
 -1      4266 1.99998E+02-6.29406E-08-5.95754E-08 2.68196E-09-6.78205E-09 7.48766E-08
 -1      4267 1.99998E+02 1.43449E-08-7.18485E-09 2.68856E-08 7.30501E-09-1.50622E-08
 -1      4268 1.94444E+02 7.02760E-01 1.35431E+00-5.60218E-01-1.78214E+00 2.22946E+00
 -1      4269 2.04285E+02 1.84974E-01 6.00629E-01-7.11021E+00 1.48068E+00 6.91529E+00
 -1      4270 2.10758E+02 1.40249E+01 6.94770E+00-8.79037E+00-1.69061E+00 6.00711E+00
 -1      4271 2.11912E+02 6.94393E+00 1.32181E+01-5.14306E+00-2.10781E+00 8.85978E+00
 -1      4272 2.00707E+02-4.91603E-01-4.93354E-01-6.20389E-02-1.16391E-02 2.11288E-02
 -1      4273 1.99998E+02 8.87300E-12 1.04679E-11-2.06572E-12 6.65713E-12-1.36155E-11
 -1      4274 1.99998E+02-2.03576E-11-2.35738E-11-5.35419E-12 1.59191E-11-8.09572E-12
 -1      4275 1.99998E+02-4.56963E-02-4.71668E-02-6.01385E-03-2.70351E-03 5.20147E-03
 -1      4276 1.99998E+02 1.47024E-09 1.66510E-09 1.09965E-09 1.17978E-09-1.66386E-09
 -1      4277 1.99998E+02 2.59781E-09-8.88689E-09-2.96894E-09 8.35172E-10 5.17671E-09
 -1      4278 1.99998E+02-2.55940E-09-3.65166E-09 2.67451E-09 4.39832E-10-8.75569E-10
 -1      4279 1.99998E+02 1.21812E-09 2.55429E-09 3.57101E-10 2.64606E-09-1.69970E-09
 -1      4280 1.99998E+02 3.23295E-11-1.48960E-10-3.23267E-11 9.07705E-12-1.59705E-10
 -1      4281 1.99998E+02 5.92274E-10-5.47008E-10-8.05114E-11-1.35128E-10-7.95167E-11
 -1      4282 1.99998E+02 6.41111E-10 7.34077E-10 3.05797E-10-4.10130E-09-3.28310E-10
 -1      4283 1.99998E+02 6.99646E-10 1.66770E-08 4.49546E-09-3.22378E-09 8.91000E-09
 -1      4284 1.99998E+02 1.06072E-08 1.20652E-08-1.45318E-08-6.71245E-09 1.17730E-10
 -1      4285 1.99998E+02-9.65073E-11-1.38020E-10 5.28176E-11-8.70787E-10-8.85980E-11
 -1      4286 2.03910E+02-7.79879E-01-7.90457E-01 8.73447E-02 1.23932E-01 9.55993E-02
 -1      4287 1.99998E+02-1.29642E-08-8.92683E-09 1.15573E-08-8.97808E-10-8.22709E-10
 -1      4288 1.99998E+02 4.46773E-09 6.39704E-09 1.86013E-09 2.62654E-09 7.23276E-10
 -1      4289 1.99998E+02-4.39245E-09-1.12436E-08-5.41692E-09 1.69081E-09-2.27828E-09
 -1      4290 1.99998E+02-9.96054E-09-3.57170E-09 1.94520E-09-5.96683E-09-6.62075E-10
 -1      4291 2.03149E+02 1.85484E+00 1.94872E+00 6.82773E+00 2.22414E+00-6.65071E+00
 -1      4292 1.94191E+02 7.94819E-01 1.63124E+00 8.74160E-01-1.59219E+00-1.91462E+00
 -1      4293 2.11942E+02 1.00742E+01 1.57482E+01 5.32048E+00-1.53024E+00-7.18096E+00
 -1      4294 2.09865E+02 1.74275E+01 9.56307E+00 8.06051E+00-1.09658E+00-5.84046E+00
 -1      4295 1.99998E+02 1.96251E-08 2.87644E-08 5.29997E-09-2.15973E-08 3.98928E-08
 -1      4296 2.03730E+02 1.48196E+00 3.97531E-01-6.45414E+00-1.78318E+00-6.75638E+00
 -1      4297 1.94402E+02 9.96831E-01 1.56430E+00-7.88170E-01 1.54557E+00-1.92593E+00
 -1      4298 2.12376E+02 1.02612E+01 1.58745E+01-5.33178E+00 1.45053E+00-7.47965E+00
 -1      4299 2.10251E+02 1.40999E+01 6.34283E+00-8.93150E+00 1.86271E+00-6.24168E+00
 -1      4300 1.99998E+02 8.01798E-09 1.26529E-11-1.65778E-09 2.09902E-09 2.00881E-09
 -1      4301 1.99998E+02-2.36763E-08-1.37703E-08-2.51060E-08 6.12609E-09-2.47635E-08
 -1      4302 1.99998E+02 8.86952E-09 1.26028E-08 9.82340E-10-2.97262E-09-4.28222E-09
 -1      4303 1.99998E+02 3.43290E-09 7.64193E-09-4.35040E-10-6.05929E-09-2.28251E-09
 -1      4304 1.99998E+02 2.47696E-09 3.45732E-09 3.81302E-09-1.05737E-09 1.30318E-10
 -1      4305 1.92660E+02 2.08845E+01 4.02765E+01 1.66810E+01-2.65283E-01-1.54333E+01
 -1      4306 1.93933E+02 3.63340E+01 3.60854E+01 1.65096E+01-1.17969E+00-1.62867E+01
 -1      4307 1.99998E+02-1.51033E-09 1.24219E-08-1.44266E-08 2.28379E-09-9.94665E-09
 -1      4308 1.99998E+02-4.59919E-09 4.72309E-10-2.27796E-09-2.75849E-09 1.70870E-08
 -1      4309 2.03193E+02 1.89681E+00 2.13977E+00 6.88523E+00-2.19503E+00 6.80319E+00
 -1      4310 1.94307E+02 8.57047E-01 1.68467E+00 9.02967E-01 1.59268E+00 2.06106E+00
 -1      4311 2.11645E+02 9.19612E+00 1.53470E+01 4.93855E+00 1.75458E+00 7.48823E+00
 -1      4312 2.10201E+02 1.71024E+01 9.58967E+00 7.96506E+00 1.19180E+00 5.47167E+00
 -1      4313 1.99998E+02 5.23657E-12-2.00425E-12 2.08670E-12-1.30036E-12-5.66829E-12
 -1      4314 1.99998E+02 2.38299E-12 1.14753E-12-5.75891E-12-1.45123E-12-1.15434E-11
 -1      4315 1.87494E+02 1.68497E+01 3.29226E+01 1.56045E+01-9.25770E-01-2.13584E+01
 -1      4316 1.92507E+02 2.07478E+01 4.12083E+01 1.83858E+01-2.17664E-01 1.48785E+01
 -1      4317 1.94736E+02 3.63233E+01 3.63812E+01 1.60754E+01 1.25388E+00 1.58135E+01
 -1      4318 1.99998E+02 3.07960E-09 1.07763E-08 5.55751E-09 8.82238E-09 8.59618E-09
 -1      4319 1.99998E+02-6.12444E-08-2.61155E-08-2.90517E-08 5.87938E-11 1.72085E-08
 -1      4320 1.99998E+02 7.16992E-09-8.31423E-09-6.35785E-09 3.22545E-09-4.95735E-09
 -1      4321 1.89925E+02 3.94198E+01 2.12321E+01-1.52662E+01-1.93935E+00 1.81069E+01
 -1      4322 1.92681E+02 4.10084E+01 2.24623E+01 1.55138E+01-2.76003E-01-1.83676E+01
 -1      4323 1.88073E+02 3.39753E+01 1.76096E+01 2.14427E+01-6.66455E-01-1.54823E+01
 -1      4324 1.99998E+02 5.64879E-08 1.72743E-08-1.66106E-09 2.30041E-08-3.07174E-08
 -1      4325 1.91338E+02 3.85964E+01 2.17075E+01-2.18575E+01 1.62838E-01 1.68766E+01
 -1      4326 1.95484E+02 3.99191E+01 4.00815E+01-1.62128E+01-8.48783E-01 1.61858E+01
 -1      4327 1.87432E+02 1.68301E+01 3.34225E+01 1.56120E+01 9.29067E-01 2.15378E+01
 -1      4328 1.92296E+02 4.09126E+01 2.24108E+01 1.54404E+01 1.64823E-01 1.83734E+01
 -1      4329 1.87966E+02 3.39624E+01 1.77607E+01 2.14060E+01 7.05129E-01 1.55113E+01
 -1      4330 1.99998E+02-2.02609E-13-8.95756E-13-1.18393E-12 2.38185E-13-3.45657E-12
 -1      4331 1.99998E+02-5.40590E-13-4.21645E-12-8.91962E-13 1.90202E-12-2.86473E-12
 -1      4332 1.99998E+02 2.43635E-12 6.26544E-12-3.38925E-13-2.21622E-13-1.06259E-11
 -1      4333 1.99998E+02-2.54522E-12-2.96864E-12-6.37961E-12-1.41161E-13-9.58743E-12
 -1      4334 1.99998E+02-1.75579E-12 5.47174E-12-6.93944E-12 1.12057E-13-7.14178E-12
 -1      4335 1.99998E+02 2.53110E-12 3.76256E-12-8.78753E-12-1.42189E-12-5.43193E-12
 -1      4336 1.99998E+02 3.18647E-13-5.76834E-12-2.95429E-12-8.23609E-12-1.27100E-11
 -1      4337 1.99998E+02-1.46297E-12-2.67837E-12 4.25253E-12-7.89717E-12-2.04680E-11
 -1      4338 1.99998E+02 6.11149E-13 3.11192E-12-2.65552E-12-2.08774E-12-9.86149E-12
 -1      4339 1.99998E+02 8.04813E-13-3.71172E-12-4.82568E-11-5.34081E-11 4.27996E-11
 -1      4340 1.99998E+02-1.22492E-11-1.10541E-11-3.94844E-11-6.02574E-11 3.56193E-11
 -1      4341 1.99998E+02-1.10859E-11-1.05129E-11-5.25761E-11-6.20293E-11 2.75349E-11
 -1      4342 1.99998E+02 8.19857E-05 3.57471E-05-1.03223E-04 2.82620E-05-1.26567E-05
 -1      4343 1.99998E+02 2.66328E-05 2.68385E-05-1.33823E-05 2.14910E-05-1.35557E-05
 -1      4344 1.99998E+02 3.59839E-05 8.12113E-05-1.29280E-05 2.90377E-05-1.03956E-04
 -1      4345 1.99998E+02 7.85513E-09 7.85868E-09-1.99309E-08-5.14082E-09 1.98520E-08
 -1      4346 1.99998E+02 6.61186E-09 8.43608E-09-1.45604E-08-7.47749E-09 2.53380E-08
 -1      4347 1.99998E+02 8.61690E-09 6.66603E-09-2.50992E-08-7.46124E-09 1.45815E-08
 -1      4348 1.99998E+02-2.76259E-06-6.86711E-07-1.12446E-05-4.97507E-06 9.63822E-06
 -1      4349 1.99998E+02-1.53378E-06-1.20286E-06-1.22687E-05-2.40988E-06 1.41584E-05
 -1      4350 1.99998E+02-1.41901E-06 6.14257E-07-1.50535E-05-2.37079E-06 1.11878E-05
 -1      4351 1.99998E+02 8.36474E-09 6.24030E-09 2.51513E-08-7.51782E-09-1.45620E-08
 -1      4352 1.99998E+02 7.56322E-09 7.42156E-09 1.97050E-08-5.17521E-09-1.99503E-08
 -1      4353 1.99998E+02 6.49469E-09 8.48744E-09 1.45205E-08-7.48991E-09-2.52212E-08
 -1      4354 1.99998E+02 8.45769E-05 3.62754E-05 1.01156E-04 2.74280E-05 1.37498E-05
 -1      4355 1.99998E+02 2.78763E-05 2.73504E-05 1.29828E-05 2.07634E-05 1.39608E-05
 -1      4356 1.99998E+02 3.73137E-05 8.43506E-05 1.29501E-05 2.71802E-05 1.07632E-04
 -1      4357 1.99998E+02 2.44888E-08 8.54763E-09 6.86696E-08 4.09860E-09 1.40661E-08
 -1      4358 1.99998E+02 6.81526E-09 7.87667E-09-1.95654E-08-1.64104E-08-6.48410E-09
 -1      4359 1.99998E+02-6.95518E-07 5.58142E-07 1.55859E-05-2.33071E-06-1.13014E-05
 -1      4360 1.99998E+02-1.39359E-06-1.10090E-06 1.09005E-05-5.16445E-06-9.89761E-06
 -1      4361 1.99998E+02-7.68807E-07-1.28093E-06 1.23806E-05-2.73352E-06-1.39748E-05
 -1      4362 1.99998E+02-3.62152E-08-2.76317E-08-5.49671E-08-4.66881E-08-2.01245E-08
 -1      4363 1.99998E+02-3.28955E-08-3.84930E-08-1.85163E-08-4.56198E-08-5.71889E-08
 -1      4364 1.99998E+02-3.01421E-08-2.79617E-08-5.00433E-08-4.74733E-08-4.75923E-08
 -1      4365 1.99998E+02-7.33207E-12 8.17411E-12 1.27511E-11-4.42480E-12-6.63097E-12
 -1      4366 1.99997E+02 8.73044E-04 1.69162E-03-2.88191E-03 1.22900E-03 3.74529E-03
 -1      4367 1.99997E+02 2.00456E-03 7.96637E-04-3.66931E-03 1.31966E-03 2.75344E-03
 -1      4368 2.00003E+02 9.08878E-04 8.58530E-04-2.87969E-03 1.76226E-03 2.72612E-03
 -1      4369 1.99998E+02-4.61234E-11-4.37334E-11 1.48390E-10-1.28024E-10-1.58811E-10
 -1      4370 1.99998E+02 9.81908E-13 2.73620E-12 7.22155E-14 2.93077E-13-7.82271E-12
 -1      4371 1.99998E+02 1.42292E-10 1.79013E-10 1.35800E-09-7.88093E-10-1.40027E-09
 -1      4372 1.99998E+02-1.99335E-03-2.83853E-03 1.87459E-03 3.52632E-03-1.25413E-03
 -1      4373 1.92664E+02 2.11367E+01 4.05512E+01-1.69333E+01 2.45025E-01-1.55780E+01
 -1      4374 1.86911E+02 1.70166E+01 3.40793E+01-1.54411E+01 6.93223E-01-2.15928E+01
 -1      4375 1.94227E+02 3.66526E+01 3.89559E+01-1.67945E+01 1.00112E+00-1.68232E+01
 -1      4376 1.99998E+02-4.78862E-08-8.20579E-08 1.31436E-08-2.90910E-09 4.09606E-09
 -1      4377 1.99998E+02 6.28779E-08-2.18880E-08-1.34053E-08-2.89843E-08 2.40120E-10
 -1      4378 1.99998E+02-1.22949E-08-2.62053E-08 2.54221E-08 4.80693E-09-1.23770E-09
 -1      4379 1.91271E+02 3.95910E+01 2.07525E+01-1.47578E+01 2.04605E+00-1.90645E+01
 -1      4380 1.99998E+02-2.85421E-08-2.77898E-08 4.72728E-08-4.65885E-08 4.59985E-08
 -1      4381 1.99998E+02-2.98392E-08-2.59057E-08 5.85063E-08-4.64011E-08 1.38552E-08
 -1      4382 1.99998E+02-3.34752E-08-4.13647E-08 2.20764E-08-4.43815E-08 4.89648E-08
 -1      4383 1.90250E+02 2.09988E+01 3.99264E+01-1.83303E+01-1.84522E+00 1.54850E+01
 -1      4384 1.90535E+02 2.06276E+01 3.78361E+01-1.70890E+01-3.63855E-01 2.19731E+01
 -1      4385 1.99499E+02-1.65094E-01-1.65872E-01-1.91266E-01 1.45447E-02 1.91071E-01
 -1      4386 1.99998E+02-6.64012E-09 7.61924E-09-2.68249E-08 2.62845E-08 8.20725E-08
 -1      4387 1.91696E+02 3.71178E+01 2.10585E+01-2.17441E+01-6.86489E-03-1.70571E+01
 -1      4388 1.99998E+02 3.54440E-12 3.39398E-12-7.09180E-13-1.32085E-12-1.27778E-11
 -1      4389 1.99998E+02 2.23013E-12 5.28517E-15 6.19103E-13-1.40089E-12-6.90709E-12
 -1      4390 1.99998E+02 3.22850E-12 3.12858E-12-8.10590E-13 8.85874E-14-7.79138E-12
 -1      4391 1.99998E+02 4.20783E-09 1.23788E-08 1.46766E-10 8.12350E-09-3.81974E-08
 -1      4392 1.99998E+02-3.17220E-10-2.17045E-10 9.57546E-11-2.09380E-11 1.57072E-10
 -1      4393 1.99998E+02-8.79135E-08-4.10959E-08-6.48917E-08 7.17465E-09-1.74275E-09
 -1      4394 1.99998E+02-2.93288E-08 8.10947E-08 5.37278E-08 4.68396E-09-2.69105E-08
 -1      4395 1.99998E+02-3.34040E-10-3.32794E-10-4.11305E-10 2.14638E-11-2.53492E-10
 -1      4396 1.99998E+02-4.63017E-10-1.97065E-10 2.63875E-10-1.02574E-09-9.26656E-11
 -1      4397 1.99998E+02-1.28355E-10-2.96995E-09-1.36566E-10-4.52150E-10-1.04588E-09
 -1      4398 1.99998E+02-9.46372E-11-1.03703E-10-1.16457E-10 3.63254E-11-1.25396E-10
 -1      4399 1.99998E+02 1.82471E-10-4.43911E-10-4.76413E-10-6.11594E-11-2.29792E-10
 -1      4400 1.99998E+02-3.70954E-11-7.88835E-11-6.06938E-11 2.14961E-11-3.12821E-11
 -1      4401 1.99998E+02 5.09139E-10-6.48624E-10-3.36504E-10-1.21707E-10-2.47780E-10
 -1      4402 1.99998E+02-6.76282E-11-1.17682E-10-3.02427E-11 1.49790E-11-1.41466E-10
 -1      4403 1.99998E+02 7.73731E-13-6.51843E-11-1.01756E-11-3.15307E-12 2.31406E-11
 -3
    1PSTEP                         3           1           1          
  100CL  101 1.000000000        4403                     0    1           1
 -4  ERROR       1    1
 -5  STR(%)      1    1    0    0
 -1         1 1.09158E+01
 -1         2 1.09243E+01
 -1         3 1.09335E+01
 -1         4 1.09583E+01
 -1         5 4.35896E-08
 -1         6 3.77475E-08
 -1         7 1.34802E-07
 -1         8 2.59855E-08
 -1         9 8.57166E+00
 -1        10 6.82056E+00
 -1        11 8.58973E+00
 -1        12 9.74798E+00
 -1        13 7.69611E+00
 -1        14 7.70514E+00
 -1        15 9.75277E+00
 -1        16 8.58031E+00
 -1        17 7.58570E+00
 -1        18 8.04453E+00
 -1        19 9.74806E+00
 -1        20 8.08300E+00
 -1        21 7.81511E+00
 -1        22 9.48901E+00
 -1        23 7.94378E+00
 -1        24 7.54844E+00
 -1        25 8.59796E+00
 -1        26 9.45106E+00
 -1        27 7.74611E+00
 -1        28 8.07320E+00
 -1        29 9.76572E+00
 -1        30 8.58356E+00
 -1        31 7.25997E+00
 -1        32 7.95847E+00
 -1        33 9.75393E+00
 -1        34 7.92177E+00
 -1        35 7.60922E+00
 -1        36 9.45840E+00
 -1        37 4.68748E-08
 -1        38 8.38265E-08
 -1        39 5.62632E-08
 -1        40 4.23112E-08
 -1        41 6.53507E-08
 -1        42 7.00449E-08
 -1        43 4.99264E-08
 -1        44 9.24946E-08
 -1        45 1.28337E-07
 -1        46 1.23603E-07
 -1        47 6.80421E-08
 -1        48 1.10416E-07
 -1        49 1.25970E-07
 -1        50 1.29203E-07
 -1        51 9.99023E-08
 -1        52 1.42250E-07
 -1        53 1.37901E-07
 -1        54 6.29439E-08
 -1        55 1.21076E-07
 -1        56 1.40076E-07
 -1        57 1.36352E-07
 -1        58 1.45851E-07
 -1        59 8.25964E-08
 -1        60 3.79674E-08
 -1        61 9.17993E-08
 -1        62 1.14224E-07
 -1        63 6.02819E-08
 -1        64 3.19764E-08
 -1        65 1.09243E+01
 -1        66 1.72943E+00
 -1        67 6.95653E-01
 -1        68 1.93085E-01
 -1        69 4.32848E-02
 -1        70 7.88991E-03
 -1        71 2.61145E-03
 -1        72 9.13220E-04
 -1        73 2.36912E-04
 -1        74 4.28994E-05
 -1        75 6.97525E-06
 -1        76 3.96511E-06
 -1        77 1.12865E-06
 -1        78 3.12321E-07
 -1        79 3.16101E-08
 -1        80 6.44397E-09
 -1        81 1.64291E-09
 -1        82 9.15031E-10
 -1        83 8.16328E-10
 -1        84 3.20226E-10
 -1        85 9.23677E-11
 -1        86 2.81503E-11
 -1        87 6.50573E-12
 -1        88 5.02638E-12
 -1        89 2.90754E-12
 -1        90 4.51905E-12
 -1        91 4.30589E-12
 -1        92 3.90514E-12
 -1        93 4.11831E-12
 -1        94 1.84770E-11
 -1        95 1.08308E-10
 -1        96 7.27900E-10
 -1        97 2.39779E-08
 -1        98 1.09243E+01
 -1        99 6.32687E+00
 -1       100 1.21254E+00
 -1       101 4.44369E-01
 -1       102 1.18185E-01
 -1       103 2.55874E-02
 -1       104 5.25068E-03
 -1       105 1.76233E-03
 -1       106 5.75066E-04
 -1       107 1.39906E-04
 -1       108 2.49373E-05
 -1       109 5.47018E-06
 -1       110 2.54688E-06
 -1       111 7.20487E-07
 -1       112 1.71966E-07
 -1       113 1.90270E-08
 -1       114 4.04344E-09
 -1       115 1.27897E-09
 -1       116 8.65680E-10
 -1       117 5.68277E-10
 -1       118 2.06297E-10
 -1       119 6.02590E-11
 -1       120 1.73280E-11
 -1       121 5.76605E-12
 -1       122 3.96696E-12
 -1       123 3.71330E-12
 -1       124 4.41247E-12
 -1       125 4.10552E-12
 -1       126 4.01172E-12
 -1       127 1.12976E-11
 -1       128 6.33925E-11
 -1       129 4.18104E-10
 -1       130 1.23529E-08
 -1       131 3.08627E-08
 -1       132 1.09158E+01
 -1       133 1.72877E+00
 -1       134 6.90161E-01
 -1       135 2.16682E-01
 -1       136 3.64209E-02
 -1       137 6.08001E-03
 -1       138 2.11256E-03
 -1       139 8.31664E-04
 -1       140 2.28223E-04
 -1       141 2.85794E-05
 -1       142 9.08834E-06
 -1       143 3.46734E-06
 -1       144 1.23185E-06
 -1       145 1.65207E-07
 -1       146 5.70305E-08
 -1       147 2.90707E-08
 -1       148 1.04914E-08
 -1       149 4.12098E-09
 -1       150 1.11220E-09
 -1       151 2.55284E-10
 -1       152 7.66875E-11
 -1       153 1.65585E-11
 -1       154 6.59952E-12
 -1       155 6.59952E-12
 -1       156 3.61524E-12
 -1       157 5.19265E-12
 -1       158 2.41300E-12
 -1       159 3.39355E-12
 -1       160 6.53984E-12
 -1       161 2.26464E-11
 -1       162 5.75625E-11
 -1       163 6.66846E-10
 -1       164 1.59751E-08
 -1       165 1.09158E+01
 -1       166 6.32230E+00
 -1       167 1.20947E+00
 -1       168 4.53421E-01
 -1       169 1.26551E-01
 -1       170 2.12505E-02
 -1       171 4.09628E-03
 -1       172 1.47211E-03
 -1       173 5.29944E-04
 -1       174 1.28401E-04
 -1       175 1.88338E-05
 -1       176 6.27784E-06
 -1       177 2.34960E-06
 -1       178 6.98528E-07
 -1       179 1.11119E-07
 -1       180 4.30506E-08
 -1       181 1.97811E-08
 -1       182 7.30621E-09
 -1       183 2.61659E-09
 -1       184 6.83741E-10
 -1       185 1.65986E-10
 -1       186 4.66230E-11
 -1       187 1.15790E-11
 -1       188 6.59952E-12
 -1       189 5.10738E-12
 -1       190 4.40394E-12
 -1       191 3.80282E-12
 -1       192 2.90328E-12
 -1       193 4.96669E-12
 -1       194 1.45931E-11
 -1       195 4.01045E-11
 -1       196 3.62204E-10
 -1       197 8.32095E-09
 -1       198 2.97823E-08
 -1       199 1.09583E+01
 -1       200 1.68277E+00
 -1       201 6.79965E-01
 -1       202 2.12080E-01
 -1       203 2.97592E-02
 -1       204 5.21038E-03
 -1       205 2.36665E-03
 -1       206 8.18596E-04
 -1       207 2.15892E-04
 -1       208 2.42336E-05
 -1       209 8.52906E-06
 -1       210 3.42613E-06
 -1       211 1.24633E-06
 -1       212 1.56119E-07
 -1       213 4.15762E-08
 -1       214 2.77727E-08
 -1       215 1.04966E-08
 -1       216 4.12676E-09
 -1       217 1.10769E-09
 -1       218 2.19873E-10
 -1       219 6.97639E-11
 -1       220 2.70461E-11
 -1       221 1.60128E-11
 -1       222 7.13243E-12
 -1       223 5.28644E-12
 -1       224 3.64935E-12
 -1       225 2.93312E-12
 -1       226 2.62190E-12
 -1       227 5.98988E-12
 -1       228 8.33040E-12
 -1       229 4.02622E-11
 -1       230 2.17145E-10
 -1       231 1.35891E-08
 -1       232 1.09583E+01
 -1       233 6.32055E+00
 -1       234 1.18137E+00
 -1       235 4.46023E-01
 -1       236 1.20920E-01
 -1       237 1.74848E-02
 -1       238 3.78851E-03
 -1       239 1.59262E-03
 -1       240 5.17244E-04
 -1       241 1.20063E-04
 -1       242 1.63813E-05
 -1       243 5.97759E-06
 -1       244 2.33623E-06
 -1       245 7.01224E-07
 -1       246 9.88476E-08
 -1       247 3.46745E-08
 -1       248 1.91346E-08
 -1       249 7.31166E-09
 -1       250 2.61723E-09
 -1       251 6.63783E-10
 -1       252 1.44819E-10
 -1       253 4.84050E-11
 -1       254 2.15294E-11
 -1       255 1.15726E-11
 -1       256 6.20943E-12
 -1       257 4.46789E-12
 -1       258 3.29123E-12
 -1       259 2.77751E-12
 -1       260 4.30589E-12
 -1       261 7.16014E-12
 -1       262 2.42963E-11
 -1       263 1.28703E-10
 -1       264 6.90310E-09
 -1       265 1.97873E-08
 -1       266 1.09335E+01
 -1       267 1.68283E+00
 -1       268 6.87634E-01
 -1       269 1.90323E-01
 -1       270 3.98061E-02
 -1       271 6.50390E-03
 -1       272 2.42129E-03
 -1       273 8.83451E-04
 -1       274 2.33406E-04
 -1       275 4.28837E-05
 -1       276 6.53043E-06
 -1       277 3.76120E-06
 -1       278 1.09168E-06
 -1       279 3.05577E-07
 -1       280 3.12594E-08
 -1       281 6.43675E-09
 -1       282 1.53115E-09
 -1       283 9.27847E-10
 -1       284 6.51102E-10
 -1       285 2.63158E-10
 -1       286 9.81146E-11
 -1       287 2.29193E-11
 -1       288 1.14937E-11
 -1       289 1.06880E-11
 -1       290 4.97096E-12
 -1       291 4.94538E-12
 -1       292 3.65787E-12
 -1       293 4.29736E-12
 -1       294 4.79190E-12
 -1       295 1.28878E-11
 -1       296 4.33147E-11
 -1       297 2.78669E-09
 -1       298 8.28840E-08
 -1       299 1.09335E+01
 -1       300 6.30816E+00
 -1       301 1.18523E+00
 -1       302 4.38979E-01
 -1       303 1.15065E-01
 -1       304 2.31550E-02
 -1       305 4.46259E-03
 -1       306 1.65237E-03
 -1       307 5.58428E-04
 -1       308 1.38145E-04
 -1       309 2.47071E-05
 -1       310 5.14581E-06
 -1       311 2.42644E-06
 -1       312 6.98626E-07
 -1       313 1.68418E-07
 -1       314 1.88481E-08
 -1       315 3.98395E-09
 -1       316 1.22950E-09
 -1       317 7.89474E-10
 -1       318 4.57130E-10
 -1       319 1.80636E-10
 -1       320 6.05169E-11
 -1       321 1.72065E-11
 -1       322 1.10909E-11
 -1       323 7.82947E-12
 -1       324 4.95817E-12
 -1       325 4.30163E-12
 -1       326 3.97762E-12
 -1       327 4.54463E-12
 -1       328 8.83986E-12
 -1       329 2.81013E-11
 -1       330 1.41500E-09
 -1       331 4.28353E-08
 -1       332 1.08843E-07
 -1       333 6.52573E+00
 -1       334 6.82056E+00
 -1       335 7.25997E+00
 -1       336 6.33149E+00
 -1       337 3.52968E+00
 -1       338 6.71764E+00
 -1       339 7.54844E+00
 -1       340 6.87059E+00
 -1       341 7.58570E+00
 -1       342 3.52560E+00
 -1       343 8.58973E+00
 -1       344 7.95847E+00
 -1       345 8.58356E+00
 -1       346 8.59796E+00
 -1       347 3.32326E+00
 -1       348 9.75277E+00
 -1       349 8.58973E+00
 -1       350 8.58502E+00
 -1       351 8.57761E+00
 -1       352 9.75393E+00
 -1       353 8.58356E+00
 -1       354 9.76572E+00
 -1       355 8.32124E+00
 -1       356 8.59796E+00
 -1       357 9.45840E+00
 -1       358 7.95113E+00
 -1       359 7.95847E+00
 -1       360 6.57602E+00
 -1       361 7.45158E+00
 -1       362 7.45752E+00
 -1       363 7.70514E+00
 -1       364 6.82056E+00
 -1       365 6.57602E+00
 -1       366 7.70514E+00
 -1       367 7.15167E+00
 -1       368 7.64898E+00
 -1       369 7.65369E+00
 -1       370 7.81511E+00
 -1       371 7.58570E+00
 -1       372 7.15167E+00
 -1       373 8.09183E+00
 -1       374 7.74611E+00
 -1       375 7.54844E+00
 -1       376 7.75346E+00
 -1       377 7.03708E+00
 -1       378 7.56184E+00
 -1       379 7.03708E+00
 -1       380 7.56184E+00
 -1       381 7.72707E+00
 -1       382 7.06528E+00
 -1       383 7.72707E+00
 -1       384 7.25997E+00
 -1       385 7.60922E+00
 -1       386 7.06528E+00
 -1       387 7.60922E+00
 -1       388 5.43585E+00
 -1       389 4.92449E+00
 -1       390 7.05571E+00
 -1       391 5.02566E+00
 -1       392 5.55565E+00
 -1       393 3.42443E+00
 -1       394 5.17512E+00
 -1       395 4.93058E+00
 -1       396 6.76910E+00
 -1       397 5.12366E+00
 -1       398 7.40421E+00
 -1       399 5.29162E+00
 -1       400 5.09692E+00
 -1       401 5.20013E+00
 -1       402 6.60104E+00
 -1       403 5.12162E+00
 -1       404 3.52764E+00
 -1       405 3.42647E+00
 -1       406 1.28337E-07
 -1       407 1.27175E-07
 -1       408 8.38265E-08
 -1       409 1.45851E-07
 -1       410 1.27175E-07
 -1       411 1.42250E-07
 -1       412 1.28337E-07
 -1       413 8.38265E-08
 -1       414 1.42250E-07
 -1       415 5.35370E-08
 -1       416 5.62632E-08
 -1       417 6.93656E-08
 -1       418 1.45851E-07
 -1       419 1.34802E-07
 -1       420 6.99980E-08
 -1       421 5.62632E-08
 -1       422 4.99264E-08
 -1       423 7.43789E-08
 -1       424 9.17993E-08
 -1       425 9.63629E-08
 -1       426 1.45851E-07
 -1       427 1.29203E-07
 -1       428 1.34802E-07
 -1       429 1.36352E-07
 -1       430 8.46340E-08
 -1       431 4.76755E-08
 -1       432 5.36665E-08
 -1       433 6.53507E-08
 -1       434 8.38265E-08
 -1       435 1.14839E-07
 -1       436 8.38265E-08
 -1       437 7.00449E-08
 -1       438 8.38265E-08
 -1       439 7.00449E-08
 -1       440 1.10416E-07
 -1       441 1.28337E-07
 -1       442 9.23000E-08
 -1       443 1.28337E-07
 -1       444 1.25970E-07
 -1       445 1.28337E-07
 -1       446 1.31570E-07
 -1       447 1.42250E-07
 -1       448 1.21076E-07
 -1       449 1.05808E-07
 -1       450 1.40076E-07
 -1       451 1.42250E-07
 -1       452 1.42250E-07
 -1       453 1.38526E-07
 -1       454 1.14224E-07
 -1       455 1.45851E-07
 -1       456 1.45851E-07
 -1       457 8.25711E-08
 -1       458 1.04886E-07
 -1       459 1.36513E-07
 -1       460 9.82702E-08
 -1       461 9.91674E-08
 -1       462 9.91674E-08
 -1       463 9.09369E-08
 -1       464 9.78934E-08
 -1       465 1.35293E-07
 -1       466 6.17675E-08
 -1       467 1.27175E-07
 -1       468 1.36513E-07
 -1       469 1.34712E-07
 -1       470 1.34712E-07
 -1       471 1.06082E-07
 -1       472 7.69123E-08
 -1       473 7.69123E-08
 -1       474 1.05501E-07
 -1       475 1.14839E-07
 -1       476 9.78934E-08
 -1       477 9.03559E-08
 -1       478 9.85864E-08
 -1       479 5.02638E-12
 -1       480 4.30589E-12
 -1       481 1.91847E-10
 -1       482 5.97986E-10
 -1       483 3.19062E-11
 -1       484 4.10978E-12
 -1       485 8.91873E-12
 -1       486 5.46082E-09
 -1       487 2.53018E-02
 -1       488 1.89637E-03
 -1       489 3.80633E-01
 -1       490 6.44034E-06
 -1       491 1.25019E-07
 -1       492 8.00317E-05
 -1       493 3.70196E+00
 -1       494 1.20540E+00
 -1       495 4.42195E-09
 -1       496 6.45200E-09
 -1       497 4.14943E-11
 -1       498 4.82730E-03
 -1       499 1.97398E-06
 -1       500 4.21142E-08
 -1       501 3.45314E-04
 -1       502 1.58462E-05
 -1       503 6.44915E+00
 -1       504 8.38265E-08
 -1       505 6.59952E-12
 -1       506 3.39355E-12
 -1       507 4.40369E-10
 -1       508 5.52944E-11
 -1       509 4.51905E-12
 -1       510 1.14424E+00
 -1       511 3.50883E-01
 -1       512 7.82928E-02
 -1       513 3.23910E-02
 -1       514 2.19400E-10
 -1       515 4.28884E-12
 -1       516 4.41247E-12
 -1       517 1.83191E-08
 -1       518 1.54320E-09
 -1       519 2.01541E-10
 -1       520 1.85405E-10
 -1       521 3.96682E-04
 -1       522 2.02938E-06
 -1       523 5.86807E-07
 -1       524 1.23753E-07
 -1       525 7.03305E-06
 -1       526 5.19265E-12
 -1       527 2.81375E-12
 -1       528 3.92922E-08
 -1       529 4.95135E-11
 -1       530 5.04770E-12
 -1       531 9.83223E-05
 -1       532 1.41096E-03
 -1       533 3.71330E-12
 -1       534 8.04520E-03
 -1       535 5.70424E-12
 -1       536 1.05175E-09
 -1       537 2.15917E-05
 -1       538 1.71057E-09
 -1       539 2.35460E-11
 -1       540 1.08074E-11
 -1       541 1.66133E+00
 -1       542 7.26757E-01
 -1       543 1.42054E-02
 -1       544 6.82056E+00
 -1       545 6.09974E-07
 -1       546 8.31148E-08
 -1       547 2.04961E-09
 -1       548 6.47908E-02
 -1       549 1.26171E-10
 -1       550 1.11227E-02
 -1       551 2.81375E-12
 -1       552 4.48495E-12
 -1       553 5.52944E-11
 -1       554 3.50440E-12
 -1       555 6.11577E-10
 -1       556 7.18785E-12
 -1       557 8.18673E-11
 -1       558 4.08023E-10
 -1       559 2.36867E-11
 -1       560 3.97762E-12
 -1       561 2.76259E-12
 -1       562 2.38770E-09
 -1       563 2.41353E-08
 -1       564 3.66017E-03
 -1       565 6.81847E-04
 -1       566 4.78305E-05
 -1       567 1.68129E-05
 -1       568 3.45314E-04
 -1       569 4.00351E-06
 -1       570 4.16094E-12
 -1       571 6.72690E-09
 -1       572 1.97398E-06
 -1       573 8.13215E-08
 -1       574 1.59677E-01
 -1       575 4.93104E-08
 -1       576 2.94222E+00
 -1       577 3.23612E-09
 -1       578 3.70196E+00
 -1       579 1.09158E+01
 -1       580 1.09243E+01
 -1       581 3.77475E-08
 -1       582 5.62632E-08
 -1       583 4.42195E-09
 -1       584 9.75277E+00
 -1       585 1.09158E+01
 -1       586 1.09158E+01
 -1       587 1.09243E+01
 -1       588 9.74798E+00
 -1       589 1.09243E+01
 -1       590 4.99264E-08
 -1       591 5.62632E-08
 -1       592 3.61191E-08
 -1       593 4.23112E-08
 -1       594 3.77475E-08
 -1       595 3.08627E-08
 -1       596 7.51040E+00
 -1       597 6.63485E+00
 -1       598 8.68672E+00
 -1       599 6.82056E+00
 -1       600 7.70514E+00
 -1       601 6.63485E+00
 -1       602 8.86819E+00
 -1       603 6.65684E-08
 -1       604 4.80926E-08
 -1       605 4.35290E-08
 -1       606 7.00449E-08
 -1       607 8.38265E-08
 -1       608 6.65684E-08
 -1       609 7.00449E-08
 -1       610 2.33583E+00
 -1       611 6.93326E+00
 -1       612 6.93326E+00
 -1       613 9.50528E-01
 -1       614 1.46742E+00
 -1       615 2.07381E+00
 -1       616 2.71984E-01
 -1       617 5.23268E-01
 -1       618 7.78143E-01
 -1       619 6.07888E-02
 -1       620 1.35689E-01
 -1       621 2.14588E-01
 -1       622 1.65958E-02
 -1       623 3.42933E-02
 -1       624 5.17973E-02
 -1       625 5.32832E-03
 -1       626 7.96756E-03
 -1       627 1.66735E-02
 -1       628 1.40480E-03
 -1       629 2.25391E-03
 -1       630 4.97079E-03
 -1       631 3.16797E-04
 -1       632 6.54951E-04
 -1       633 1.14653E-03
 -1       634 6.14656E-05
 -1       635 1.58472E-04
 -1       636 2.38357E-04
 -1       637 1.42835E-05
 -1       638 3.22456E-05
 -1       639 5.08117E-05
 -1       640 5.20272E-06
 -1       641 6.70779E-06
 -1       642 1.40160E-05
 -1       643 1.57902E-06
 -1       644 2.99724E-06
 -1       645 4.23486E-06
 -1       646 4.49564E-07
 -1       647 8.57730E-07
 -1       648 1.30809E-06
 -1       649 7.83147E-08
 -1       650 2.18670E-07
 -1       651 3.55913E-07
 -1       652 2.28681E-08
 -1       653 3.54512E-08
 -1       654 8.21558E-08
 -1       655 4.04745E-09
 -1       656 6.44798E-09
 -1       657 2.28721E-08
 -1       658 1.22911E-09
 -1       659 1.59305E-09
 -1       660 3.99760E-09
 -1       661 9.34037E-10
 -1       662 9.83388E-10
 -1       663 1.29747E-09
 -1       664 4.59106E-10
 -1       665 7.07157E-10
 -1       666 8.24866E-10
 -1       667 1.38886E-10
 -1       668 2.52815E-10
 -1       669 3.91695E-10
 -1       670 4.17224E-11
 -1       671 7.38311E-11
 -1       672 1.20350E-10
 -1       673 1.50258E-11
 -1       674 2.58481E-11
 -1       675 3.94202E-11
 -1       676 5.02638E-12
 -1       677 5.76605E-12
 -1       678 1.42862E-11
 -1       679 3.59819E-12
 -1       680 4.65761E-12
 -1       681 4.65761E-12
 -1       682 4.51905E-12
 -1       683 3.71330E-12
 -1       684 4.40394E-12
 -1       685 3.55982E-12
 -1       686 3.66640E-12
 -1       687 3.66640E-12
 -1       688 4.10552E-12
 -1       689 4.30589E-12
 -1       690 3.55982E-12
 -1       691 3.91580E-12
 -1       692 3.80922E-12
 -1       693 4.00959E-12
 -1       694 1.17623E-11
 -1       695 4.58300E-12
 -1       696 4.38050E-12
 -1       697 7.49012E-11
 -1       698 2.99856E-11
 -1       699 2.32710E-11
 -1       700 4.73650E-10
 -1       701 1.63854E-10
 -1       702 1.30447E-10
 -1       703 1.41999E-08
 -1       704 2.57492E-09
 -1       705 2.32067E-09
 -1       706 2.10847E-08
 -1       707 7.30889E+00
 -1       708 2.71537E+00
 -1       709 7.30889E+00
 -1       710 1.43651E+00
 -1       711 9.17201E-01
 -1       712 2.42310E+00
 -1       713 5.35397E-01
 -1       714 2.98657E-01
 -1       715 7.62437E-01
 -1       716 1.40736E-01
 -1       717 5.06059E-02
 -1       718 2.22712E-01
 -1       719 2.53131E-02
 -1       720 1.01427E-02
 -1       721 3.94981E-02
 -1       722 5.45366E-03
 -1       723 3.46993E-03
 -1       724 9.51633E-03
 -1       725 1.76176E-03
 -1       726 1.12131E-03
 -1       727 3.11913E-03
 -1       728 5.88489E-04
 -1       729 2.86768E-04
 -1       730 8.78137E-04
 -1       731 1.63273E-04
 -1       732 6.34508E-05
 -1       733 2.21818E-04
 -1       734 2.22128E-05
 -1       735 1.24672E-05
 -1       736 5.70842E-05
 -1       737 8.06070E-06
 -1       738 5.25020E-06
 -1       739 1.14396E-05
 -1       740 2.72066E-06
 -1       741 1.60291E-06
 -1       742 4.50352E-06
 -1       743 9.20912E-07
 -1       744 3.87591E-07
 -1       745 1.29198E-06
 -1       746 1.23264E-07
 -1       747 6.91760E-08
 -1       748 3.45648E-07
 -1       749 4.95724E-08
 -1       750 3.55925E-08
 -1       751 6.17179E-08
 -1       752 2.36949E-08
 -1       753 1.44053E-08
 -1       754 3.02167E-08
 -1       755 7.97613E-09
 -1       756 4.79090E-09
 -1       757 1.18900E-08
 -1       758 2.91577E-09
 -1       759 1.41138E-09
 -1       760 3.58569E-09
 -1       761 7.76284E-10
 -1       762 3.47826E-10
 -1       763 1.07547E-09
 -1       764 2.28412E-10
 -1       765 1.39114E-10
 -1       766 3.20955E-10
 -1       767 5.42968E-11
 -1       768 2.42323E-11
 -1       769 1.16724E-10
 -1       770 1.36829E-11
 -1       771 8.70344E-12
 -1       772 2.13568E-11
 -1       773 6.59952E-12
 -1       774 6.59952E-12
 -1       775 8.70344E-12
 -1       776 5.50600E-12
 -1       777 4.01386E-12
 -1       778 5.50600E-12
 -1       779 3.86251E-12
 -1       780 4.65121E-12
 -1       781 4.26112E-12
 -1       782 5.19265E-12
 -1       783 3.80282E-12
 -1       784 4.65121E-12
 -1       785 2.90328E-12
 -1       786 3.39355E-12
 -1       787 4.29310E-12
 -1       788 4.54889E-12
 -1       789 6.12204E-12
 -1       790 4.54889E-12
 -1       791 7.72928E-12
 -1       792 1.57826E-11
 -1       793 7.31148E-12
 -1       794 3.60799E-11
 -1       795 5.35380E-11
 -1       796 2.92161E-11
 -1       797 1.24705E-10
 -1       798 4.29346E-10
 -1       799 1.20680E-10
 -1       800 1.95148E-09
 -1       801 9.60559E-09
 -1       802 1.71398E-09
 -1       803 2.97497E-08
 -1       804 4.22489E-12
 -1       805 4.59366E-12
 -1       806 6.10711E-12
 -1       807 1.53669E-11
 -1       808 5.67439E-12
 -1       809 3.55982E-12
 -1       810 2.81375E-12
 -1       811 3.60885E-12
 -1       812 3.90514E-12
 -1       813 3.15907E-12
 -1       814 8.78423E-11
 -1       815 1.59009E-10
 -1       816 1.12073E-09
 -1       817 1.08789E-09
 -1       818 2.64286E-09
 -1       819 2.96714E-10
 -1       820 5.03005E-10
 -1       821 6.04781E-10
 -1       822 8.31661E-10
 -1       823 5.09800E-10
 -1       824 1.41704E-10
 -1       825 5.68868E-11
 -1       826 4.36003E-11
 -1       827 3.30509E-11
 -1       828 6.85809E-11
 -1       829 3.58753E-12
 -1       830 3.43618E-12
 -1       831 4.29736E-12
 -1       832 4.83880E-12
 -1       833 3.62377E-12
 -1       834 1.63027E-11
 -1       835 3.66001E-11
 -1       836 4.84093E-12
 -1       837 6.44818E-12
 -1       838 1.38321E-11
 -1       839 1.25230E-08
 -1       840 6.09386E-09
 -1       841 3.92426E-09
 -1       842 2.04913E-09
 -1       843 4.55730E-09
 -1       844 2.88464E-02
 -1       845 5.53419E-02
 -1       846 1.82122E-02
 -1       847 2.17568E-02
 -1       848 9.58397E-03
 -1       849 5.39265E-04
 -1       850 1.28911E-03
 -1       851 2.77827E-03
 -1       852 5.85269E-03
 -1       853 2.17101E-03
 -1       854 9.35499E-01
 -1       855 5.53695E-01
 -1       856 4.43217E-01
 -1       857 2.70155E-01
 -1       858 1.12234E-01
 -1       859 3.01645E-06
 -1       860 5.22193E-06
 -1       861 1.16266E-05
 -1       862 1.92023E-05
 -1       863 1.04082E-05
 -1       864 1.24386E-07
 -1       865 3.55280E-07
 -1       866 1.04067E-07
 -1       867 1.03434E-07
 -1       868 6.12035E-08
 -1       869 2.12673E-04
 -1       870 3.70998E-04
 -1       871 3.47111E-05
 -1       872 6.39311E-05
 -1       873 1.96572E-04
 -1       874 2.68164E+00
 -1       875 1.40278E+00
 -1       876 3.70196E+00
 -1       877 2.68164E+00
 -1       878 5.26126E+00
 -1       879 5.26126E+00
 -1       880 5.38820E-01
 -1       881 9.66080E-01
 -1       882 1.43336E+00
 -1       883 1.19404E+00
 -1       884 2.30177E+00
 -1       885 3.23578E-09
 -1       886 1.13450E-09
 -1       887 4.42195E-09
 -1       888 3.23578E-09
 -1       889 2.68662E-08
 -1       890 2.68662E-08
 -1       891 4.13505E-09
 -1       892 6.58945E-09
 -1       893 1.52936E-08
 -1       894 3.17138E-08
 -1       895 1.54311E-08
 -1       896 1.72786E-10
 -1       897 8.38327E-11
 -1       898 3.25905E-11
 -1       899 1.43672E-11
 -1       900 7.49289E-11
 -1       901 4.24374E-03
 -1       902 2.53557E-03
 -1       903 1.26640E-02
 -1       904 7.97502E-03
 -1       905 7.39145E-03
 -1       906 5.51828E-06
 -1       907 2.98874E-06
 -1       908 1.97398E-06
 -1       909 1.29198E-06
 -1       910 2.98874E-06
 -1       911 3.31248E-08
 -1       912 2.12272E-08
 -1       913 6.26145E-08
 -1       914 5.36250E-08
 -1       915 8.22182E-08
 -1       916 3.45314E-04
 -1       917 2.21818E-04
 -1       918 1.04640E-03
 -1       919 5.13581E-04
 -1       920 5.13581E-04
 -1       921 1.63295E-05
 -1       922 1.19230E-05
 -1       923 7.30764E-05
 -1       924 3.18383E-05
 -1       925 3.23217E-05
 -1       926 5.07555E+00
 -1       927 4.69568E+00
 -1       928 3.32209E+00
 -1       929 4.41242E-08
 -1       930 4.35313E-08
 -1       931 3.82903E-09
 -1       932 5.38023E-12
 -1       933 4.28670E-12
 -1       934 8.99760E-12
 -1       935 6.89369E-12
 -1       936 4.00320E-12
 -1       937 3.10365E-12
 -1       938 3.44897E-12
 -1       939 4.60432E-12
 -1       940 4.24196E-10
 -1       941 3.04782E-10
 -1       942 1.16107E-09
 -1       943 5.25973E-10
 -1       944 6.85809E-11
 -1       945 1.33636E-10
 -1       946 3.94202E-11
 -1       947 5.52944E-11
 -1       948 3.64082E-12
 -1       949 3.52571E-12
 -1       950 3.64935E-12
 -1       951 4.50200E-12
 -1       952 1.18985E-01
 -1       953 2.55280E-01
 -1       954 9.60340E-02
 -1       955 2.32982E-02
 -1       956 4.85909E-02
 -1       957 3.46176E-12
 -1       958 1.71972E-09
 -1       959 1.96545E-09
 -1       960 2.44945E-10
 -1       961 1.28039E-06
 -1       962 2.00168E-06
 -1       963 1.04886E-06
 -1       964 3.66864E-07
 -1       965 1.02537E-07
 -1       966 3.64935E-12
 -1       967 4.51266E-12
 -1       968 3.84546E-12
 -1       969 3.74101E-12
 -1       970 1.49964E-09
 -1       971 3.12411E-11
 -1       972 1.01039E-11
 -1       973 3.69198E-12
 -1       974 1.95313E-10
 -1       975 5.26998E-10
 -1       976 6.44690E-11
 -1       977 5.28644E-12
 -1       978 4.79190E-12
 -1       979 2.02807E-09
 -1       980 2.27559E-02
 -1       981 1.94982E-03
 -1       982 3.11261E-01
 -1       983 7.05885E-06
 -1       984 1.34649E-07
 -1       985 9.53740E-05
 -1       986 3.71293E+00
 -1       987 1.12612E+00
 -1       988 7.67132E-09
 -1       989 7.20490E-12
 -1       990 1.97097E-08
 -1       991 2.29448E-11
 -1       992 1.88551E-10
 -1       993 3.65787E-12
 -1       994 1.19286E-11
 -1       995 6.50390E-03
 -1       996 2.23752E-06
 -1       997 3.77646E-08
 -1       998 3.90009E-04
 -1       999 2.14744E-05
 -1      1000 7.54844E+00
 -1      1001 1.42250E-07
 -1      1002 1.15993E+00
 -1      1003 3.54353E-01
 -1      1004 8.71091E-02
 -1      1005 1.69882E-02
 -1      1006 1.94788E-10
 -1      1007 5.42286E-12
 -1      1008 3.39782E-12
 -1      1009 5.67934E-10
 -1      1010 6.98350E-09
 -1      1011 5.66584E-09
 -1      1012 1.20403E-10
 -1      1013 1.04336E-09
 -1      1014 3.46389E-04
 -1      1015 1.99513E-06
 -1      1016 6.04178E-07
 -1      1017 1.38058E-07
 -1      1018 6.32248E-06
 -1      1019 3.25201E-11
 -1      1020 3.97336E-12
 -1      1021 5.56595E-08
 -1      1022 2.25441E-11
 -1      1023 6.27551E-12
 -1      1024 7.57425E-05
 -1      1025 1.78907E-03
 -1      1026 3.12070E-12
 -1      1027 1.06880E-11
 -1      1028 6.59228E-03
 -1      1029 1.74631E-09
 -1      1030 1.59602E-05
 -1      1031 4.29736E-12
 -1      1032 1.60128E-11
 -1      1033 4.94538E-12
 -1      1034 1.62804E+00
 -1      1035 6.71975E-01
 -1      1036 1.82392E-02
 -1      1037 6.52573E+00
 -1      1038 5.66019E-07
 -1      1039 7.64346E-08
 -1      1040 9.79389E-10
 -1      1041 6.32022E-02
 -1      1042 1.54846E-10
 -1      1043 1.17460E-02
 -1      1044 3.69198E-12
 -1      1045 3.24434E-12
 -1      1046 5.49107E-12
 -1      1047 1.24061E-11
 -1      1048 8.22340E-11
 -1      1049 2.39423E-09
 -1      1050 2.02590E-11
 -1      1051 8.15561E-12
 -1      1052 3.12070E-12
 -1      1053 4.28884E-12
 -1      1054 2.76879E-08
 -1      1055 3.26282E-03
 -1      1056 6.95503E-04
 -1      1057 7.26638E-10
 -1      1058 4.97481E-05
 -1      1059 1.74731E-05
 -1      1060 3.46389E-04
 -1      1061 3.51395E-10
 -1      1062 8.15561E-12
 -1      1063 4.11048E-06
 -1      1064 6.98350E-09
 -1      1065 1.99513E-06
 -1      1066 1.19941E-07
 -1      1067 1.80184E-01
 -1      1068 9.99023E-08
 -1      1069 2.93429E+00
 -1      1070 5.17302E-09
 -1      1071 3.71293E+00
 -1      1072 1.09335E+01
 -1      1073 1.09583E+01
 -1      1074 3.22770E-08
 -1      1075 1.34802E-07
 -1      1076 7.67132E-09
 -1      1077 1.09335E+01
 -1      1078 9.76572E+00
 -1      1079 1.09335E+01
 -1      1080 9.45106E+00
 -1      1081 1.09583E+01
 -1      1082 1.09583E+01
 -1      1083 1.36352E-07
 -1      1084 1.34802E-07
 -1      1085 1.08843E-07
 -1      1086 2.91312E-08
 -1      1087 6.60897E-08
 -1      1088 2.29330E-08
 -1      1089 7.54844E+00
 -1      1090 7.74611E+00
 -1      1091 9.25339E+00
 -1      1092 7.56184E+00
 -1      1093 7.03708E+00
 -1      1094 7.03708E+00
 -1      1095 8.72960E+00
 -1      1096 9.99023E-08
 -1      1097 1.21076E-07
 -1      1098 6.60897E-08
 -1      1099 1.42250E-07
 -1      1100 1.40076E-07
 -1      1101 1.21076E-07
 -1      1102 1.38526E-07
 -1      1103 6.94631E+00
 -1      1104 2.30853E+00
 -1      1105 6.94631E+00
 -1      1106 1.40444E+00
 -1      1107 9.03040E-01
 -1      1108 2.03020E+00
 -1      1109 5.17159E-01
 -1      1110 2.83217E-01
 -1      1111 7.40234E-01
 -1      1112 1.49595E-01
 -1      1113 5.84341E-02
 -1      1114 2.20731E-01
 -1      1115 2.62576E-02
 -1      1116 1.39831E-02
 -1      1117 5.49325E-02
 -1      1118 5.90133E-03
 -1      1119 4.47946E-03
 -1      1120 1.46741E-02
 -1      1121 2.15823E-03
 -1      1122 1.38421E-03
 -1      1123 4.27105E-03
 -1      1124 5.82493E-04
 -1      1125 2.81141E-04
 -1      1126 1.14810E-03
 -1      1127 1.55633E-04
 -1      1128 5.98038E-05
 -1      1129 2.20881E-04
 -1      1130 2.00969E-05
 -1      1131 1.22446E-05
 -1      1132 5.56671E-05
 -1      1133 7.79395E-06
 -1      1134 5.24249E-06
 -1      1135 1.15095E-05
 -1      1136 2.71063E-06
 -1      1137 1.62073E-06
 -1      1138 4.52699E-06
 -1      1139 9.25254E-07
 -1      1140 3.80148E-07
 -1      1141 1.29965E-06
 -1      1142 1.45384E-07
 -1      1143 8.81124E-08
 -1      1144 3.69413E-07
 -1      1145 4.86179E-08
 -1      1146 4.17161E-08
 -1      1147 9.51540E-08
 -1      1148 2.37412E-08
 -1      1149 1.51031E-08
 -1      1150 3.76846E-08
 -1      1151 8.08120E-09
 -1      1152 4.89630E-09
 -1      1153 1.26878E-08
 -1      1154 2.93654E-09
 -1      1155 1.42700E-09
 -1      1156 3.70608E-09
 -1      1157 8.17345E-10
 -1      1158 3.73436E-10
 -1      1159 1.13665E-09
 -1      1160 1.70138E-10
 -1      1161 9.50834E-11
 -1      1162 3.23701E-10
 -1      1163 6.71164E-11
 -1      1164 4.57575E-11
 -1      1165 9.24359E-11
 -1      1166 2.15294E-11
 -1      1167 1.60128E-11
 -1      1168 4.02409E-11
 -1      1169 1.30584E-11
 -1      1170 8.61817E-12
 -1      1171 1.30584E-11
 -1      1172 6.27765E-12
 -1      1173 5.35465E-12
 -1      1174 7.76339E-12
 -1      1175 5.28644E-12
 -1      1176 4.46789E-12
 -1      1177 5.35465E-12
 -1      1178 3.81135E-12
 -1      1179 3.45324E-12
 -1      1180 4.62990E-12
 -1      1181 3.31255E-12
 -1      1182 3.15694E-12
 -1      1183 3.83267E-12
 -1      1184 2.87130E-12
 -1      1185 4.55529E-12
 -1      1186 3.40634E-12
 -1      1187 6.13269E-12
 -1      1188 7.30296E-12
 -1      1189 4.69811E-12
 -1      1190 1.56376E-11
 -1      1191 3.16035E-11
 -1      1192 1.46102E-11
 -1      1193 1.17525E-10
 -1      1194 2.05966E-10
 -1      1195 1.08867E-10
 -1      1196 3.94423E-09
 -1      1197 1.06302E-08
 -1      1198 3.93305E-09
 -1      1199 1.99742E-08
 -1      1200 2.69788E+00
 -1      1201 7.32321E+00
 -1      1202 7.32321E+00
 -1      1203 9.23783E-01
 -1      1204 1.42138E+00
 -1      1205 2.43643E+00
 -1      1206 2.50792E-01
 -1      1207 4.99447E-01
 -1      1208 7.35596E-01
 -1      1209 5.15041E-02
 -1      1210 1.26763E-01
 -1      1211 1.87232E-01
 -1      1212 1.23715E-02
 -1      1213 2.90226E-02
 -1      1214 4.07207E-02
 -1      1215 4.46259E-03
 -1      1216 6.50390E-03
 -1      1217 1.23715E-02
 -1      1218 1.33626E-03
 -1      1219 2.10518E-03
 -1      1220 4.14648E-03
 -1      1221 3.11707E-04
 -1      1222 6.36730E-04
 -1      1223 1.08954E-03
 -1      1224 5.93131E-05
 -1      1225 1.54574E-04
 -1      1226 2.32876E-04
 -1      1227 1.40024E-05
 -1      1228 3.21791E-05
 -1      1229 4.86085E-05
 -1      1230 5.04184E-06
 -1      1231 6.42645E-06
 -1      1232 1.38984E-05
 -1      1233 1.66460E-06
 -1      1234 2.99936E-06
 -1      1235 4.28000E-06
 -1      1236 4.35798E-07
 -1      1237 8.28847E-07
 -1      1238 1.40177E-06
 -1      1239 7.56004E-08
 -1      1240 2.12759E-07
 -1      1241 3.42980E-07
 -1      1242 2.21007E-08
 -1      1243 3.45120E-08
 -1      1244 7.88530E-08
 -1      1245 4.25733E-09
 -1      1246 6.71013E-09
 -1      1247 2.23741E-08
 -1      1248 1.47796E-09
 -1      1249 1.77961E-09
 -1      1250 4.50578E-09
 -1      1251 8.47233E-10
 -1      1252 9.85605E-10
 -1      1253 1.53571E-09
 -1      1254 4.15546E-10
 -1      1255 6.09518E-10
 -1      1256 8.05649E-10
 -1      1257 1.43333E-10
 -1      1258 2.25855E-10
 -1      1259 3.78242E-10
 -1      1260 2.77197E-11
 -1      1261 6.53173E-11
 -1      1262 1.10536E-10
 -1      1263 1.17112E-11
 -1      1264 1.74239E-11
 -1      1265 2.22244E-11
 -1      1266 1.06880E-11
 -1      1267 1.10909E-11
 -1      1268 1.13083E-11
 -1      1269 6.08793E-12
 -1      1270 8.94644E-12
 -1      1271 8.94644E-12
 -1      1272 4.94538E-12
 -1      1273 4.95817E-12
 -1      1274 6.07514E-12
 -1      1275 3.65787E-12
 -1      1276 4.30163E-12
 -1      1277 4.30163E-12
 -1      1278 3.84759E-12
 -1      1279 3.52784E-12
 -1      1280 3.52784E-12
 -1      1281 4.54463E-12
 -1      1282 4.29736E-12
 -1      1283 3.84759E-12
 -1      1284 8.83986E-12
 -1      1285 4.79190E-12
 -1      1286 4.54463E-12
 -1      1287 3.29294E-11
 -1      1288 1.77160E-11
 -1      1289 1.36680E-11
 -1      1290 1.49100E-09
 -1      1291 1.19314E-10
 -1      1292 1.08928E-10
 -1      1293 4.40285E-08
 -1      1294 3.97986E-09
 -1      1295 2.68417E-09
 -1      1296 6.99876E-08
 -1      1297 9.12976E-12
 -1      1298 6.78924E-12
 -1      1299 1.20842E-11
 -1      1300 9.12976E-12
 -1      1301 8.15561E-12
 -1      1302 3.83267E-12
 -1      1303 3.69198E-12
 -1      1304 3.46816E-12
 -1      1305 3.18252E-12
 -1      1306 3.46816E-12
 -1      1307 1.75079E-10
 -1      1308 8.86949E-11
 -1      1309 5.67118E-10
 -1      1310 5.87351E-10
 -1      1311 3.07621E-09
 -1      1312 4.39196E-10
 -1      1313 2.35899E-10
 -1      1314 1.23647E-09
 -1      1315 6.26818E-10
 -1      1316 5.39016E-10
 -1      1317 1.01318E-10
 -1      1318 7.33515E-11
 -1      1319 4.23640E-11
 -1      1320 1.81359E-11
 -1      1321 5.12465E-11
 -1      1322 5.45697E-12
 -1      1323 5.38876E-12
 -1      1324 4.78764E-12
 -1      1325 4.13110E-12
 -1      1326 4.88996E-12
 -1      1327 1.74751E-11
 -1      1328 8.59899E-12
 -1      1329 3.95630E-12
 -1      1330 3.70903E-12
 -1      1331 7.76339E-12
 -1      1332 4.50578E-09
 -1      1333 6.98350E-09
 -1      1334 1.71880E-09
 -1      1335 2.21115E-09
 -1      1336 4.68887E-09
 -1      1337 5.20486E-02
 -1      1338 1.98720E-02
 -1      1339 1.43671E-02
 -1      1340 1.72510E-02
 -1      1341 9.16915E-03
 -1      1342 1.32266E-03
 -1      1343 5.20946E-04
 -1      1344 4.92755E-03
 -1      1345 2.60632E-03
 -1      1346 1.97916E-03
 -1      1347 4.91618E-01
 -1      1348 9.15953E-01
 -1      1349 2.45722E-01
 -1      1350 4.26079E-01
 -1      1351 1.21693E-01
 -1      1352 5.58466E-06
 -1      1353 3.05280E-06
 -1      1354 1.67166E-05
 -1      1355 1.22660E-05
 -1      1356 1.07918E-05
 -1      1357 3.71118E-07
 -1      1358 1.36353E-07
 -1      1359 1.07246E-07
 -1      1360 1.05542E-07
 -1      1361 6.60471E-08
 -1      1362 3.46389E-04
 -1      1363 2.20881E-04
 -1      1364 7.25610E-05
 -1      1365 3.28541E-05
 -1      1366 1.98069E-04
 -1      1367 1.39399E+00
 -1      1368 2.67049E+00
 -1      1369 2.67049E+00
 -1      1370 3.71293E+00
 -1      1371 5.11933E+00
 -1      1372 5.11933E+00
 -1      1373 8.99045E-01
 -1      1374 5.13164E-01
 -1      1375 1.15001E+00
 -1      1376 1.37708E+00
 -1      1377 2.28117E+00
 -1      1378 5.87089E-10
 -1      1379 4.32535E-09
 -1      1380 4.32535E-09
 -1      1381 7.67132E-09
 -1      1382 5.37868E-08
 -1      1383 5.37868E-08
 -1      1384 7.68026E-12
 -1      1385 9.42180E-12
 -1      1386 5.21823E-12
 -1      1387 6.34799E-12
 -1      1388 6.82334E-12
 -1      1389 1.33466E-08
 -1      1390 6.32467E-09
 -1      1391 4.16737E-08
 -1      1392 2.36988E-08
 -1      1393 1.73357E-08
 -1      1394 8.88953E-11
 -1      1395 1.74817E-10
 -1      1396 9.34079E-12
 -1      1397 1.76755E-11
 -1      1398 8.36259E-11
 -1      1399 2.69973E-10
 -1      1400 4.59664E-10
 -1      1401 5.73770E-11
 -1      1402 1.35393E-10
 -1      1403 2.16814E-10
 -1      1404 3.54490E-12
 -1      1405 3.67493E-12
 -1      1406 3.97336E-12
 -1      1407 4.61711E-12
 -1      1408 3.99041E-12
 -1      1409 1.60938E-11
 -1      1410 2.63896E-11
 -1      1411 9.42180E-12
 -1      1412 1.00421E-11
 -1      1413 1.42073E-11
 -1      1414 2.52594E-03
 -1      1415 4.88336E-03
 -1      1416 9.12496E-03
 -1      1417 1.49926E-02
 -1      1418 7.50442E-03
 -1      1419 3.17400E-06
 -1      1420 5.21648E-06
 -1      1421 1.28057E-06
 -1      1422 2.11633E-06
 -1      1423 3.05280E-06
 -1      1424 1.73357E-08
 -1      1425 3.27263E-08
 -1      1426 5.20613E-08
 -1      1427 5.70996E-08
 -1      1428 9.81880E-08
 -1      1429 2.11066E-04
 -1      1430 3.68199E-04
 -1      1431 5.42756E-04
 -1      1432 1.24229E-03
 -1      1433 5.20946E-04
 -1      1434 1.18978E-05
 -1      1435 1.94737E-05
 -1      1436 3.56112E-05
 -1      1437 6.27453E-05
 -1      1438 3.36106E-05
 -1      1439 5.63068E+00
 -1      1440 3.32361E+00
 -1      1441 5.24136E+00
 -1      1442 7.49606E-08
 -1      1443 7.37115E-08
 -1      1444 6.42217E-09
 -1      1445 2.67268E-01
 -1      1446 1.33646E-01
 -1      1447 9.85860E-02
 -1      1448 4.00952E-02
 -1      1449 1.76137E-02
 -1      1450 3.77085E-12
 -1      1451 3.32108E-12
 -1      1452 6.47286E-10
 -1      1453 8.85001E-10
 -1      1454 4.03003E-09
 -1      1455 2.07027E-09
 -1      1456 1.56043E-09
 -1      1457 1.99513E-06
 -1      1458 1.29965E-06
 -1      1459 1.06659E-06
 -1      1460 3.52039E-07
 -1      1461 1.29000E-07
 -1      1462 3.12070E-12
 -1      1463 4.69811E-12
 -1      1464 3.18252E-12
 -1      1465 1.83405E-11
 -1      1466 5.24381E-12
 -1      1467 2.95444E-12
 -1      1468 2.24537E-10
 -1      1469 5.91024E-10
 -1      1470 5.63603E-12
 -1      1471 2.06593E-09
 -1      1472 1.35452E-02
 -1      1473 1.85703E-03
 -1      1474 3.16764E-01
 -1      1475 8.50207E-06
 -1      1476 1.22826E-07
 -1      1477 7.42011E-05
 -1      1478 3.61116E+00
 -1      1479 6.44690E-11
 -1      1480 5.04770E-12
 -1      1481 2.51521E-09
 -1      1482 1.94136E-08
 -1      1483 2.78646E-11
 -1      1484 1.73148E-09
 -1      1485 2.21124E-06
 -1      1486 3.40708E-04
 -1      1487 5.07218E-07
 -1      1488 6.87059E+00
 -1      1489 1.45851E-07
 -1      1490 4.62137E-12
 -1      1491 4.75779E-12
 -1      1492 2.57154E-02
 -1      1493 3.77525E-01
 -1      1494 1.12612E+00
 -1      1495 1.64521E+00
 -1      1496 1.11510E-10
 -1      1497 6.02100E-11
 -1      1498 1.88300E-10
 -1      1499 3.55897E-10
 -1      1500 4.30589E-12
 -1      1501 9.94191E-12
 -1      1502 7.20713E-09
 -1      1503 3.47397E-08
 -1      1504 7.46000E-08
 -1      1505 5.98988E-12
 -1      1506 7.27391E-06
 -1      1507 4.14815E-12
 -1      1508 1.99591E-06
 -1      1509 4.30154E-04
 -1      1510 2.15665E-05
 -1      1511 4.71260E-05
 -1      1512 3.79430E-11
 -1      1513 5.45651E-09
 -1      1514 8.23828E-03
 -1      1515 3.20160E-03
 -1      1516 8.12472E-02
 -1      1517 7.97941E-02
 -1      1518 5.81574E-07
 -1      1519 4.75779E-12
 -1      1520 5.93445E-12
 -1      1521 1.04616E-09
 -1      1522 3.71330E-12
 -1      1523 5.82361E-12
 -1      1524 1.98881E-11
 -1      1525 7.22006E-01
 -1      1526 1.20540E+00
 -1      1527 7.25997E+00
 -1      1528 7.09576E-10
 -1      1529 2.39616E-10
 -1      1530 1.65235E-03
 -1      1531 5.14303E-03
 -1      1532 9.58101E-05
 -1      1533 1.38286E-07
 -1      1534 5.21281E-08
 -1      1535 1.72881E-05
 -1      1536 7.20328E-10
 -1      1537 1.30409E-10
 -1      1538 8.50946E-12
 -1      1539 5.02212E-12
 -1      1540 5.93445E-12
 -1      1541 1.78503E-11
 -1      1542 3.06528E-12
 -1      1543 2.37288E-09
 -1      1544 6.02100E-11
 -1      1545 2.57154E-02
 -1      1546 1.80964E-01
 -1      1547 4.14815E-12
 -1      1548 8.21103E-12
 -1      1549 1.99591E-06
 -1      1550 3.15481E-12
 -1      1551 4.08229E-06
 -1      1552 7.14619E-09
 -1      1553 7.15809E-10
 -1      1554 9.57272E-11
 -1      1555 1.07565E-07
 -1      1556 2.77868E-08
 -1      1557 1.10589E-02
 -1      1558 1.96651E-05
 -1      1559 3.40708E-04
 -1      1560 6.78638E-04
 -1      1561 4.45754E-08
 -1      1562 2.94116E+00
 -1      1563 2.99027E-09
 -1      1564 3.61116E+00
 -1      1565 1.09583E+01
 -1      1566 1.09243E+01
 -1      1567 2.59855E-08
 -1      1568 7.89821E-08
 -1      1569 4.54012E-09
 -1      1570 9.75393E+00
 -1      1571 1.09243E+01
 -1      1572 1.09243E+01
 -1      1573 1.09583E+01
 -1      1574 9.45840E+00
 -1      1575 1.09583E+01
 -1      1576 5.83648E-08
 -1      1577 1.12417E-07
 -1      1578 5.14800E-08
 -1      1579 3.19764E-08
 -1      1580 2.59855E-08
 -1      1581 1.97873E-08
 -1      1582 7.06528E+00
 -1      1583 7.72707E+00
 -1      1584 8.89744E+00
 -1      1585 7.60922E+00
 -1      1586 7.25997E+00
 -1      1587 7.06528E+00
 -1      1588 9.10915E+00
 -1      1589 1.45851E-07
 -1      1590 1.14224E-07
 -1      1591 1.12417E-07
 -1      1592 6.35859E-08
 -1      1593 4.12714E-08
 -1      1594 9.52132E-08
 -1      1595 3.52804E-08
 -1      1596 6.93273E+00
 -1      1597 2.33530E+00
 -1      1598 6.93273E+00
 -1      1599 1.46742E+00
 -1      1600 9.50528E-01
 -1      1601 2.07328E+00
 -1      1602 5.06208E-01
 -1      1603 2.54924E-01
 -1      1604 7.61083E-01
 -1      1605 1.36440E-01
 -1      1606 6.15395E-02
 -1      1607 1.98279E-01
 -1      1608 3.45001E-02
 -1      1609 1.68027E-02
 -1      1610 5.27548E-02
 -1      1611 8.06410E-03
 -1      1612 5.42486E-03
 -1      1613 1.69769E-02
 -1      1614 2.23424E-03
 -1      1615 1.38513E-03
 -1      1616 5.04766E-03
 -1      1617 6.71687E-04
 -1      1618 3.33533E-04
 -1      1619 1.14359E-03
 -1      1620 1.55556E-04
 -1      1621 5.85503E-05
 -1      1622 2.52177E-04
 -1      1623 3.22330E-05
 -1      1624 1.42709E-05
 -1      1625 4.78838E-05
 -1      1626 7.12458E-06
 -1      1627 5.61951E-06
 -1      1628 1.44202E-05
 -1      1629 3.08817E-06
 -1      1630 1.66995E-06
 -1      1631 4.74257E-06
 -1      1632 8.55113E-07
 -1      1633 4.46947E-07
 -1      1634 1.39641E-06
 -1      1635 2.17574E-07
 -1      1636 7.72182E-08
 -1      1637 3.52200E-07
 -1      1638 3.31749E-08
 -1      1639 2.05918E-08
 -1      1640 7.87830E-08
 -1      1641 6.82555E-09
 -1      1642 4.42502E-09
 -1      1643 2.09734E-08
 -1      1644 1.85442E-09
 -1      1645 1.49048E-09
 -1      1646 4.63653E-09
 -1      1647 9.80596E-10
 -1      1648 9.31244E-10
 -1      1649 1.55605E-09
 -1      1650 7.03676E-10
 -1      1651 4.55625E-10
 -1      1652 8.18592E-10
 -1      1653 2.54263E-10
 -1      1654 1.40334E-10
 -1      1655 3.89662E-10
 -1      1656 7.62888E-11
 -1      1657 4.41801E-11
 -1      1658 1.24255E-10
 -1      1659 2.32454E-11
 -1      1660 1.24231E-11
 -1      1661 3.92752E-11
 -1      1662 6.22009E-12
 -1      1663 5.48042E-12
 -1      1664 1.21375E-11
 -1      1665 4.89209E-12
 -1      1666 3.83267E-12
 -1      1667 5.34612E-12
 -1      1668 3.83267E-12
 -1      1669 4.63842E-12
 -1      1670 4.75779E-12
 -1      1671 4.88143E-12
 -1      1672 4.77485E-12
 -1      1673 5.00080E-12
 -1      1674 4.30589E-12
 -1      1675 4.10552E-12
 -1      1676 4.77485E-12
 -1      1677 3.80922E-12
 -1      1678 3.91580E-12
 -1      1679 4.00959E-12
 -1      1680 4.58300E-12
 -1      1681 1.17623E-11
 -1      1682 4.38050E-12
 -1      1683 2.82100E-11
 -1      1684 7.31255E-11
 -1      1685 2.14953E-11
 -1      1686 1.66423E-10
 -1      1687 4.76219E-10
 -1      1688 1.31240E-10
 -1      1689 1.85908E-09
 -1      1690 1.34841E-08
 -1      1691 1.60740E-09
 -1      1692 4.09862E-08
 -1      1693 2.64697E+00
 -1      1694 7.28475E+00
 -1      1695 7.28475E+00
 -1      1696 9.03040E-01
 -1      1697 1.40444E+00
 -1      1698 2.36864E+00
 -1      1699 2.94803E-01
 -1      1700 5.28745E-01
 -1      1701 7.51820E-01
 -1      1702 5.55032E-02
 -1      1703 1.46664E-01
 -1      1704 2.29386E-01
 -1      1705 9.37779E-03
 -1      1706 2.16522E-02
 -1      1707 4.73962E-02
 -1      1708 3.75484E-03
 -1      1709 5.17670E-03
 -1      1710 9.34412E-03
 -1      1711 1.23547E-03
 -1      1712 2.00950E-03
 -1      1713 3.39769E-03
 -1      1714 2.78300E-04
 -1      1715 5.79652E-04
 -1      1716 9.96529E-04
 -1      1717 6.00218E-05
 -1      1718 1.55851E-04
 -1      1719 2.18259E-04
 -1      1720 1.40971E-05
 -1      1721 2.19493E-05
 -1      1722 5.77376E-05
 -1      1723 5.96410E-06
 -1      1724 8.51556E-06
 -1      1725 1.40836E-05
 -1      1726 1.62112E-06
 -1      1727 2.71102E-06
 -1      1728 5.24899E-06
 -1      1729 3.31669E-07
 -1      1730 8.76774E-07
 -1      1731 1.25157E-06
 -1      1732 7.45704E-08
 -1      1733 1.31842E-07
 -1      1734 3.07391E-07
 -1      1735 3.99504E-08
 -1      1736 4.68522E-08
 -1      1737 7.98463E-08
 -1      1738 1.49551E-08
 -1      1739 2.35931E-08
 -1      1740 3.57708E-08
 -1      1741 4.79164E-09
 -1      1742 7.97653E-09
 -1      1743 1.24350E-08
 -1      1744 1.41959E-09
 -1      1745 2.92912E-09
 -1      1746 3.59399E-09
 -1      1747 4.64725E-10
 -1      1748 9.08634E-10
 -1      1749 1.22053E-09
 -1      1750 1.54690E-10
 -1      1751 2.29745E-10
 -1      1752 4.74596E-10
 -1      1753 4.57575E-11
 -1      1754 6.71164E-11
 -1      1755 1.52043E-10
 -1      1756 1.79504E-11
 -1      1757 2.34671E-11
 -1      1758 4.21785E-11
 -1      1759 8.53717E-12
 -1      1760 1.29774E-11
 -1      1761 1.49150E-11
 -1      1762 5.46123E-12
 -1      1763 6.38423E-12
 -1      1764 7.78897E-12
 -1      1765 4.73648E-12
 -1      1766 5.55502E-12
 -1      1767 5.72982E-12
 -1      1768 3.77725E-12
 -1      1769 4.13536E-12
 -1      1770 5.22249E-12
 -1      1771 3.38503E-12
 -1      1772 3.54063E-12
 -1      1773 4.38476E-12
 -1      1774 4.47216E-12
 -1      1775 2.78817E-12
 -1      1776 3.55129E-12
 -1      1777 7.16014E-12
 -1      1778 5.98988E-12
 -1      1779 4.47216E-12
 -1      1780 3.40634E-11
 -1      1781 1.80975E-11
 -1      1782 1.69273E-11
 -1      1783 1.64327E-10
 -1      1784 7.58860E-11
 -1      1785 6.96872E-11
 -1      1786 8.05213E-09
 -1      1787 1.36618E-09
 -1      1788 1.31336E-09
 -1      1789 1.42503E-08
 -1      1790 6.02100E-11
 -1      1791 3.92752E-11
 -1      1792 1.32758E-11
 -1      1793 7.07274E-12
 -1      1794 3.42105E-11
 -1      1795 4.69598E-12
 -1      1796 4.22702E-12
 -1      1797 6.63363E-12
 -1      1798 6.87663E-12
 -1      1799 6.32880E-12
 -1      1800 4.57234E-12
 -1      1801 3.05462E-12
 -1      1802 3.00986E-12
 -1      1803 3.60671E-12
 -1      1804 3.11005E-12
 -1      1805 8.41759E-11
 -1      1806 1.77473E-10
 -1      1807 4.72433E-10
 -1      1808 4.25369E-10
 -1      1809 1.85530E-09
 -1      1810 4.73460E-10
 -1      1811 2.72098E-10
 -1      1812 6.53417E-10
 -1      1813 5.35853E-10
 -1      1814 8.80985E-10
 -1      1815 5.78524E-12
 -1      1816 7.93818E-12
 -1      1817 5.42286E-12
 -1      1818 5.32907E-12
 -1      1819 5.47828E-12
 -1      1820 7.17666E-09
 -1      1821 4.60606E-09
 -1      1822 2.21940E-09
 -1      1823 1.70952E-09
 -1      1824 4.75953E-09
 -1      1825 1.96303E-02
 -1      1826 5.34813E-02
 -1      1827 8.10096E-03
 -1      1828 1.23020E-02
 -1      1829 1.83872E-02
 -1      1830 1.26784E-03
 -1      1831 5.54396E-04
 -1      1832 5.71994E-03
 -1      1833 2.52932E-03
 -1      1834 1.94012E-03
 -1      1835 2.48864E-01
 -1      1836 1.30379E-01
 -1      1837 5.19385E-01
 -1      1838 9.63704E-01
 -1      1839 4.51485E-01
 -1      1840 3.03910E-06
 -1      1841 6.29218E-06
 -1      1842 1.28951E-05
 -1      1843 1.06852E-05
 -1      1844 1.84766E-05
 -1      1845 9.87132E-08
 -1      1846 5.46698E-08
 -1      1847 1.30556E-07
 -1      1848 1.06443E-07
 -1      1849 3.59930E-07
 -1      1850 3.85431E-04
 -1      1851 2.07455E-04
 -1      1852 6.06636E-05
 -1      1853 3.43463E-05
 -1      1854 1.93917E-04
 -1      1855 1.38566E+00
 -1      1856 2.62819E+00
 -1      1857 2.62819E+00
 -1      1858 3.61116E+00
 -1      1859 5.43557E+00
 -1      1860 5.43557E+00
 -1      1861 4.00490E-11
 -1      1862 6.23395E-11
 -1      1863 8.00981E-11
 -1      1864 1.67672E-10
 -1      1865 7.79686E-11
 -1      1866 1.14490E-11
 -1      1867 2.78966E-11
 -1      1868 3.43405E-12
 -1      1869 4.10125E-12
 -1      1870 1.05025E-11
 -1      1871 1.61777E-09
 -1      1872 4.15919E-10
 -1      1873 3.52766E-09
 -1      1874 2.63022E-09
 -1      1875 2.35453E-08
 -1      1876 2.45577E-08
 -1      1877 6.30135E-09
 -1      1878 1.32799E-08
 -1      1879 2.36002E-08
 -1      1880 3.99575E-08
 -1      1881 1.74665E-08
 -1      1882 1.20959E-10
 -1      1883 7.91367E-11
 -1      1884 2.28574E-11
 -1      1885 1.19201E-11
 -1      1886 7.41295E-11
 -1      1887 2.05218E-09
 -1      1888 3.91469E-09
 -1      1889 7.12693E-10
 -1      1890 1.22364E-09
 -1      1891 1.54434E-09
 -1      1892 5.67810E-06
 -1      1893 3.14676E-06
 -1      1894 2.10358E-06
 -1      1895 1.28874E-06
 -1      1896 3.03910E-06
 -1      1897 5.09673E-04
 -1      1898 1.16549E-03
 -1      1899 2.18259E-04
 -1      1900 3.40708E-04
 -1      1901 5.09673E-04
 -1      1902 1.25157E-06
 -1      1903 1.99591E-06
 -1      1904 3.22752E-07
 -1      1905 1.06710E-06
 -1      1906 1.22925E-07
 -1      1907 5.24087E+00
 -1      1908 4.90587E+00
 -1      1909 3.27616E+00
 -1      1910 7.51956E-08
 -1      1911 7.44206E-08
 -1      1912 3.76519E-09
 -1      1913 4.14815E-12
 -1      1914 4.38476E-12
 -1      1915 6.56541E-12
 -1      1916 7.16653E-12
 -1      1917 4.88996E-12
 -1      1918 4.88996E-12
 -1      1919 5.93445E-12
 -1      1920 5.34612E-12
 -1      1921 1.83872E-02
 -1      1922 9.64859E-03
 -1      1923 5.27548E-02
 -1      1924 2.57154E-02
 -1      1925 5.49766E-01
 -1      1926 9.24060E-01
 -1      1927 1.31106E-01
 -1      1928 2.79245E-01
 -1      1929 1.18361E+00
 -1      1930 1.42531E+00
 -1      1931 2.29319E+00
 -1      1932 1.42013E-10
 -1      1933 7.79686E-11
 -1      1934 2.25812E-10
 -1      1935 5.32737E-10
 -1      1936 2.97756E-10
 -1      1937 3.68559E-12
 -1      1938 3.38929E-12
 -1      1939 3.60671E-12
 -1      1940 9.07647E-12
 -1      1941 1.40496E-11
 -1      1942 7.07274E-12
 -1      1943 3.12632E-08
 -1      1944 1.74970E-08
 -1      1945 5.11934E-08
 -1      1946 9.10823E-08
 -1      1947 6.33641E-08
 -1      1948 1.94273E-05
 -1      1949 1.22810E-05
 -1      1950 3.22071E-05
 -1      1951 7.14680E-05
 -1      1952 3.33955E-05
 -1      1953 7.13025E-03
 -1      1954 2.42698E-03
 -1      1955 4.17232E-03
 -1      1956 1.03340E-01
 -1      1957 6.76579E-12
 -1      1958 1.08074E-11
 -1      1959 5.19265E-12
 -1      1960 4.79190E-12
 -1      1961 2.25880E-10
 -1      1962 4.28798E-10
 -1      1963 5.37170E-12
 -1      1964 5.56789E-09
 -1      1965 1.41060E-02
 -1      1966 1.46663E-03
 -1      1967 3.64766E-01
 -1      1968 7.15717E-06
 -1      1969 1.20819E-07
 -1      1970 7.62853E-05
 -1      1971 3.56534E+00
 -1      1972 4.11575E-11
 -1      1973 1.50152E-11
 -1      1974 7.72139E-09
 -1      1975 6.74688E-09
 -1      1976 2.24674E-11
 -1      1977 1.00124E-09
 -1      1978 2.00947E-06
 -1      1979 4.28436E-08
 -1      1980 1.70518E-05
 -1      1981 6.71764E+00
 -1      1982 1.28337E-07
 -1      1983 3.65787E-12
 -1      1984 6.38636E-12
 -1      1985 1.79918E-03
 -1      1986 1.88840E-02
 -1      1987 3.82592E-01
 -1      1988 1.15993E+00
 -1      1989 1.63225E+00
 -1      1990 5.66416E-10
 -1      1991 2.92715E-11
 -1      1992 2.24094E-10
 -1      1993 4.03082E-10
 -1      1994 4.00746E-12
 -1      1995 1.84011E-08
 -1      1996 1.14937E-11
 -1      1997 7.27312E-12
 -1      1998 3.36797E-12
 -1      1999 8.44439E-06
 -1      2000 1.97658E-06
 -1      2001 5.74041E-07
 -1      2002 1.23081E-07
 -1      2003 3.55070E-04
 -1      2004 9.86918E-05
 -1      2005 4.95135E-11
 -1      2006 3.52078E-08
 -1      2007 4.32427E-04
 -1      2008 1.45228E-09
 -1      2009 6.08001E-03
 -1      2010 6.17962E-02
 -1      2011 6.44085E-02
 -1      2012 5.23075E-03
 -1      2013 5.26512E-12
 -1      2014 2.12822E-05
 -1      2015 6.59952E-12
 -1      2016 1.71501E-09
 -1      2017 4.89422E-12
 -1      2018 4.94538E-12
 -1      2019 2.02206E-11
 -1      2020 6.78478E-01
 -1      2021 1.14424E+00
 -1      2022 7.58570E+00
 -1      2023 6.16024E-10
 -1      2024 1.69754E-10
 -1      2025 8.18847E-08
 -1      2026 5.17485E-07
 -1      2027 1.03398E-09
 -1      2028 1.13808E-10
 -1      2029 6.22435E-12
 -1      2030 6.94911E-12
 -1      2031 6.94911E-12
 -1      2032 1.50152E-11
 -1      2033 3.10365E-12
 -1      2034 2.37879E-09
 -1      2035 2.18918E-11
 -1      2036 2.41640E-08
 -1      2037 3.70995E-03
 -1      2038 1.20589E-02
 -1      2039 3.08632E-02
 -1      2040 1.34492E-01
 -1      2041 4.11404E-12
 -1      2042 7.39002E-04
 -1      2043 8.45404E-12
 -1      2044 1.70869E-05
 -1      2045 4.84559E-05
 -1      2046 3.55070E-04
 -1      2047 4.79190E-12
 -1      2048 4.05247E-06
 -1      2049 6.75383E-09
 -1      2050 6.09901E-10
 -1      2051 7.80091E-11
 -1      2052 8.13215E-08
 -1      2053 2.00947E-06
 -1      2054 1.23603E-07
 -1      2055 2.93569E+00
 -1      2056 5.69259E-09
 -1      2057 3.56534E+00
 -1      2058 1.09335E+01
 -1      2059 1.09158E+01
 -1      2060 1.23398E-07
 -1      2061 9.24946E-08
 -1      2062 7.72139E-09
 -1      2063 1.09158E+01
 -1      2064 9.74806E+00
 -1      2065 1.09158E+01
 -1      2066 9.48901E+00
 -1      2067 1.09335E+01
 -1      2068 1.09335E+01
 -1      2069 9.24946E-08
 -1      2070 6.80421E-08
 -1      2071 5.42348E-08
 -1      2072 1.29100E-07
 -1      2073 1.23501E-07
 -1      2074 1.03141E-07
 -1      2075 7.64898E+00
 -1      2076 7.15167E+00
 -1      2077 8.81673E+00
 -1      2078 7.58570E+00
 -1      2079 7.81511E+00
 -1      2080 7.15167E+00
 -1      2081 9.25959E+00
 -1      2082 1.28337E-07
 -1      2083 1.10416E-07
 -1      2084 1.10416E-07
 -1      2085 1.23603E-07
 -1      2086 1.25970E-07
 -1      2087 1.25970E-07
 -1      2088 1.23501E-07
 -1      2089 2.33223E+00
 -1      2090 6.92576E+00
 -1      2091 6.92576E+00
 -1      2092 9.17201E-01
 -1      2093 1.43651E+00
 -1      2094 2.03997E+00
 -1      2095 2.90724E-01
 -1      2096 5.27463E-01
 -1      2097 7.54504E-01
 -1      2098 5.04147E-02
 -1      2099 1.40545E-01
 -1      2100 2.14587E-01
 -1      2101 1.24820E-02
 -1      2102 2.76525E-02
 -1      2103 4.16463E-02
 -1      2104 4.09628E-03
 -1      2105 6.08001E-03
 -1      2106 1.24820E-02
 -1      2107 1.14915E-03
 -1      2108 1.78959E-03
 -1      2109 3.77332E-03
 -1      2110 2.91646E-04
 -1      2111 5.93367E-04
 -1      2112 9.10848E-04
 -1      2113 6.36356E-05
 -1      2114 1.63457E-04
 -1      2115 2.26881E-04
 -1      2116 1.30701E-05
 -1      2117 2.28156E-05
 -1      2118 5.78718E-05
 -1      2119 5.95587E-06
 -1      2120 8.76637E-06
 -1      2121 1.27481E-05
 -1      2122 1.62066E-06
 -1      2123 2.73841E-06
 -1      2124 5.22693E-06
 -1      2125 3.41346E-07
 -1      2126 8.74668E-07
 -1      2127 1.26348E-06
 -1      2128 6.91760E-08
 -1      2129 1.23264E-07
 -1      2130 2.99403E-07
 -1      2131 3.59572E-08
 -1      2132 4.99371E-08
 -1      2133 6.20826E-08
 -1      2134 1.44463E-08
 -1      2135 2.37359E-08
 -1      2136 3.06224E-08
 -1      2137 4.84443E-09
 -1      2138 8.02966E-09
 -1      2139 1.19845E-08
 -1      2140 1.41360E-09
 -1      2141 2.91799E-09
 -1      2142 3.64145E-09
 -1      2143 3.42041E-10
 -1      2144 7.70498E-10
 -1      2145 1.07190E-09
 -1      2146 1.50391E-10
 -1      2147 2.39689E-10
 -1      2148 3.26446E-10
 -1      2149 2.29150E-11
 -1      2150 5.29795E-11
 -1      2151 1.26683E-10
 -1      2152 8.70344E-12
 -1      2153 1.36829E-11
 -1      2154 2.00394E-11
 -1      2155 6.59952E-12
 -1      2156 6.59952E-12
 -1      2157 8.70344E-12
 -1      2158 5.00080E-12
 -1      2159 6.49294E-12
 -1      2160 6.49294E-12
 -1      2161 5.22888E-12
 -1      2162 4.44018E-12
 -1      2163 5.82574E-12
 -1      2164 3.80282E-12
 -1      2165 5.19265E-12
 -1      2166 5.22888E-12
 -1      2167 3.70051E-12
 -1      2168 3.21023E-12
 -1      2169 4.60005E-12
 -1      2170 5.71703E-12
 -1      2171 4.14389E-12
 -1      2172 4.45084E-12
 -1      2173 1.88308E-11
 -1      2174 1.07775E-11
 -1      2175 9.95470E-12
 -1      2176 5.35380E-11
 -1      2177 3.60799E-11
 -1      2178 3.22643E-11
 -1      2179 4.46363E-10
 -1      2180 1.41721E-10
 -1      2181 1.37697E-10
 -1      2182 1.08338E-08
 -1      2183 3.17972E-09
 -1      2184 2.95923E-09
 -1      2185 4.90936E-08
 -1      2186 7.24941E+00
 -1      2187 2.62409E+00
 -1      2188 7.24941E+00
 -1      2189 1.42138E+00
 -1      2190 9.23783E-01
 -1      2191 2.36264E+00
 -1      2192 5.35113E-01
 -1      2193 2.86458E-01
 -1      2194 7.71262E-01
 -1      2195 1.26060E-01
 -1      2196 5.08011E-02
 -1      2197 2.22194E-01
 -1      2198 2.69560E-02
 -1      2199 1.03049E-02
 -1      2200 3.79511E-02
 -1      2201 5.86732E-03
 -1      2202 3.82602E-03
 -1      2203 9.66837E-03
 -1      2204 2.11024E-03
 -1      2205 1.34132E-03
 -1      2206 3.51497E-03
 -1      2207 6.57939E-04
 -1      2208 3.32917E-04
 -1      2209 1.11580E-03
 -1      2210 1.54846E-04
 -1      2211 5.95845E-05
 -1      2212 2.54356E-04
 -1      2213 3.20830E-05
 -1      2214 1.39063E-05
 -1      2215 4.87837E-05
 -1      2216 6.84380E-06
 -1      2217 5.45918E-06
 -1      2218 1.42197E-05
 -1      2219 2.86889E-06
 -1      2220 1.53413E-06
 -1      2221 4.56687E-06
 -1      2222 8.32858E-07
 -1      2223 4.39809E-07
 -1      2224 1.27531E-06
 -1      2225 2.13198E-07
 -1      2226 7.60393E-08
 -1      2227 3.47430E-07
 -1      2228 3.32336E-08
 -1      2229 2.08223E-08
 -1      2230 7.80135E-08
 -1      2231 6.59181E-09
 -1      2232 4.13901E-09
 -1      2233 2.09773E-08
 -1      2234 1.49171E-09
 -1      2235 1.19006E-09
 -1      2236 4.09958E-09
 -1      2237 9.64543E-10
 -1      2238 8.26170E-10
 -1      2239 1.22676E-09
 -1      2240 6.33563E-10
 -1      2241 4.39591E-10
 -1      2242 8.08631E-10
 -1      2243 2.16456E-10
 -1      2244 1.33934E-10
 -1      2245 3.92889E-10
 -1      2246 6.96360E-11
 -1      2247 3.20384E-11
 -1      2248 1.05456E-10
 -1      2249 2.15699E-11
 -1      2250 1.58572E-11
 -1      2251 3.06891E-11
 -1      2252 1.14937E-11
 -1      2253 1.10909E-11
 -1      2254 1.58572E-11
 -1      2255 8.02984E-12
 -1      2256 5.17133E-12
 -1      2257 8.43272E-12
 -1      2258 4.95817E-12
 -1      2259 4.94538E-12
 -1      2260 5.15854E-12
 -1      2261 4.30163E-12
 -1      2262 3.65787E-12
 -1      2263 4.30163E-12
 -1      2264 3.51292E-12
 -1      2265 3.83267E-12
 -1      2266 3.51292E-12
 -1      2267 4.54463E-12
 -1      2268 4.79190E-12
 -1      2269 4.07994E-12
 -1      2270 6.03251E-12
 -1      2271 1.00805E-11
 -1      2272 6.03251E-12
 -1      2273 1.76776E-11
 -1      2274 3.28910E-11
 -1      2275 1.48702E-11
 -1      2276 3.04865E-10
 -1      2277 1.67655E-09
 -1      2278 2.94442E-10
 -1      2279 5.25404E-09
 -1      2280 4.53027E-08
 -1      2281 4.14390E-09
 -1      2282 6.55599E-08
 -1      2283 1.63496E-11
 -1      2284 2.55817E-11
 -1      2285 7.52678E-12
 -1      2286 9.63070E-12
 -1      2287 1.51729E-11
 -1      2288 4.06075E-12
 -1      2289 4.65334E-12
 -1      2290 5.70850E-12
 -1      2291 5.74474E-12
 -1      2292 5.16920E-12
 -1      2293 4.79190E-12
 -1      2294 6.03251E-12
 -1      2295 3.23581E-12
 -1      2296 3.94778E-12
 -1      2297 3.94778E-12
 -1      2298 1.69844E-10
 -1      2299 8.16605E-11
 -1      2300 5.73896E-10
 -1      2301 6.29932E-10
 -1      2302 3.36329E-09
 -1      2303 3.13588E-10
 -1      2304 4.15940E-10
 -1      2305 5.06492E-10
 -1      2306 5.19350E-10
 -1      2307 1.16245E-09
 -1      2308 9.22142E-12
 -1      2309 6.16041E-12
 -1      2310 6.16041E-12
 -1      2311 5.94724E-12
 -1      2312 6.94911E-12
 -1      2313 6.16086E-09
 -1      2314 1.25775E-08
 -1      2315 2.04690E-09
 -1      2316 3.97334E-09
 -1      2317 4.56631E-09
 -1      2318 4.63297E-02
 -1      2319 2.24846E-02
 -1      2320 1.30824E-02
 -1      2321 8.64480E-03
 -1      2322 2.14610E-02
 -1      2323 5.47036E-04
 -1      2324 1.10281E-03
 -1      2325 2.58829E-03
 -1      2326 4.89498E-03
 -1      2327 2.22447E-03
 -1      2328 9.94502E-02
 -1      2329 2.49629E-01
 -1      2330 9.11360E-01
 -1      2331 5.21622E-01
 -1      2332 4.06485E-01
 -1      2333 5.60482E-06
 -1      2334 3.01452E-06
 -1      2335 1.91845E-05
 -1      2336 1.21220E-05
 -1      2337 1.05697E-05
 -1      2338 3.48561E-07
 -1      2339 1.21950E-07
 -1      2340 1.02483E-07
 -1      2341 1.01352E-07
 -1      2342 5.85462E-08
 -1      2343 3.93749E-04
 -1      2344 2.15678E-04
 -1      2345 6.23706E-05
 -1      2346 3.48690E-05
 -1      2347 2.01763E-04
 -1      2348 2.59880E+00
 -1      2349 1.39609E+00
 -1      2350 3.56534E+00
 -1      2351 2.59880E+00
 -1      2352 5.57552E+00
 -1      2353 5.57552E+00
 -1      2354 3.15247E-11
 -1      2355 2.10562E-11
 -1      2356 1.23882E-10
 -1      2357 5.95833E-11
 -1      2358 4.99504E-11
 -1      2359 3.22643E-11
 -1      2360 1.50152E-11
 -1      2361 9.90354E-12
 -1      2362 4.84306E-12
 -1      2363 9.90354E-12
 -1      2364 8.00200E-10
 -1      2365 4.37769E-09
 -1      2366 4.37769E-09
 -1      2367 7.72139E-09
 -1      2368 6.56623E-08
 -1      2369 6.56623E-08
 -1      2370 2.96859E-08
 -1      2371 1.54554E-08
 -1      2372 6.75035E-09
 -1      2373 4.10306E-09
 -1      2374 1.54589E-08
 -1      2375 6.81375E-11
 -1      2376 3.40112E-10
 -1      2377 1.11442E-11
 -1      2378 1.87413E-11
 -1      2379 6.44114E-11
 -1      2380 1.91554E-09
 -1      2381 1.69002E-09
 -1      2382 8.05570E-10
 -1      2383 6.12962E-10
 -1      2384 1.49435E-09
 -1      2385 3.03097E-06
 -1      2386 6.24843E-06
 -1      2387 1.26348E-06
 -1      2388 2.00947E-06
 -1      2389 3.03097E-06
 -1      2390 2.12825E-08
 -1      2391 3.35038E-08
 -1      2392 5.30243E-08
 -1      2393 6.23641E-08
 -1      2394 8.16031E-08
 -1      2395 1.27657E-05
 -1      2396 1.70694E-05
 -1      2397 3.27539E-05
 -1      2398 7.35738E-05
 -1      2399 3.27714E-05
 -1      2400 5.14149E+00
 -1      2401 3.25052E+00
 -1      2402 4.82667E+00
 -1      2403 6.80291E-08
 -1      2404 6.70147E-08
 -1      2405 6.70699E-09
 -1      2406 3.88596E-12
 -1      2407 3.74101E-12
 -1      2408 5.58487E-12
 -1      2409 4.94111E-12
 -1      2410 6.10711E-12
 -1      2411 6.66773E-12
 -1      2412 6.66773E-12
 -1      2413 6.77431E-12
 -1      2414 1.26909E-03
 -1      2415 5.85715E-04
 -1      2416 4.47035E-03
 -1      2417 2.75456E-03
 -1      2418 9.06943E-03
 -1      2419 1.54714E-02
 -1      2420 2.48736E-02
 -1      2421 4.76359E-02
 -1      2422 9.19205E-01
 -1      2423 5.30535E-01
 -1      2424 2.58542E-01
 -1      2425 9.81440E-02
 -1      2426 1.15536E+00
 -1      2427 1.38825E+00
 -1      2428 2.28397E+00
 -1      2429 5.36403E-11
 -1      2430 1.51051E-10
 -1      2431 2.40546E-10
 -1      2432 2.86418E-10
 -1      2433 5.09553E-10
 -1      2434 3.99893E-12
 -1      2435 3.55556E-12
 -1      2436 3.60885E-12
 -1      2437 1.43373E-11
 -1      2438 9.97389E-12
 -1      2439 7.70157E-12
 -1      2440 1.99302E-06
 -1      2441 1.29175E-06
 -1      2442 1.06627E-06
 -1      2443 1.02201E-07
 -1      2444 3.20283E-07
 -1      2445 2.26881E-04
 -1      2446 3.55070E-04
 -1      2447 5.47036E-04
 -1      2448 7.88440E-03
 -1      2449 8.26775E-02
 -1      2450 6.58673E-12
 -1      2451 3.52968E+00
 -1      2452 2.13447E-08
 -1      2453 6.56200E-11
 -1      2454 3.32222E-01
 -1      2455 4.32427E-04
 -1      2456 4.14815E-12
 -1      2457 8.50946E-12
 -1      2458 6.73595E-12
 -1      2459 6.02100E-11
 -1      2460 1.05175E-09
 -1      2461 2.24037E-06
 -1      2462 9.06196E-03
 -1      2463 9.51559E-09
 -1      2464 1.35216E-05
 -1      2465 7.94390E-08
 -1      2466 3.69462E-10
 -1      2467 8.88463E-12
 -1      2468 1.58581E-01
 -1      2469 1.27175E-07
 -1      2470 3.52968E+00
 -1      2471 6.54271E-08
 -1      2472 3.61116E+00
 -1      2473 2.43564E-04
 -1      2474 2.31021E-03
 -1      2475 5.30349E-12
 -1      2476 5.26512E-12
 -1      2477 2.05489E-11
 -1      2478 6.94911E-12
 -1      2479 4.84306E-12
 -1      2480 3.80538E-11
 -1      2481 2.32861E-03
 -1      2482 5.10792E-09
 -1      2483 5.56595E-08
 -1      2484 1.24459E-06
 -1      2485 5.10013E-09
 -1      2486 4.96490E-06
 -1      2487 2.43564E-04
 -1      2488 2.74787E-08
 -1      2489 5.07774E-06
 -1      2490 1.24459E-06
 -1      2491 3.70196E+00
 -1      2492 3.31774E-08
 -1      2493 1.76456E-11
 -1      2494 2.27559E-02
 -1      2495 1.20540E+00
 -1      2496 7.20328E-10
 -1      2497 3.71293E+00
 -1      2498 3.12070E-12
 -1      2499 1.81323E-01
 -1      2500 5.35370E-08
 -1      2501 7.26638E-10
 -1      2502 1.54159E-10
 -1      2503 1.15993E+00
 -1      2504 5.69976E-10
 -1      2505 8.23670E-10
 -1      2506 1.88300E-10
 -1      2507 8.26876E-10
 -1      2508 2.36867E-11
 -1      2509 1.42009E-11
 -1      2510 4.29736E-12
 -1      2511 3.97762E-12
 -1      2512 1.11227E-02
 -1      2513 2.67456E-01
 -1      2514 1.65499E-06
 -1      2515 3.01753E-11
 -1      2516 3.91367E-12
 -1      2517 5.24381E-12
 -1      2518 6.94911E-12
 -1      2519 8.50946E-12
 -1      2520 1.60128E-11
 -1      2521 2.22284E-03
 -1      2522 4.37245E-09
 -1      2523 3.59843E-04
 -1      2524 4.91903E-06
 -1      2525 2.18104E-03
 -1      2526 4.38530E-09
 -1      2527 1.69810E-06
 -1      2528 3.49415E-04
 -1      2529 4.85329E-06
 -1      2530 2.77868E-08
 -1      2531 2.76879E-08
 -1      2532 8.23260E-10
 -1      2533 1.71079E-02
 -1      2534 2.27212E-01
 -1      2535 1.14424E+00
 -1      2536 1.12612E+00
 -1      2537 1.95786E-10
 -1      2538 9.52450E-10
 -1      2539 4.95135E-11
 -1      2540 3.89662E-12
 -1      2541 1.16779E-10
 -1      2542 1.90564E-01
 -1      2543 1.69042E-02
 -1      2544 1.54846E-10
 -1      2545 1.81558E-05
 -1      2546 6.22435E-12
 -1      2547 7.18785E-12
 -1      2548 8.50946E-12
 -1      2549 2.89560E-11
 -1      2550 3.26282E-03
 -1      2551 2.15917E-05
 -1      2552 2.14744E-05
 -1      2553 1.69679E-05
 -1      2554 1.20819E-07
 -1      2555 1.22826E-07
 -1      2556 1.84011E-08
 -1      2557 1.97097E-08
 -1      2558 1.47455E-09
 -1      2559 8.15561E-12
 -1      2560 5.93445E-12
 -1      2561 1.14937E-11
 -1      2562 8.13215E-08
 -1      2563 9.35018E-08
 -1      2564 1.07044E-07
 -1      2565 1.21107E-07
 -1      2566 6.76077E-07
 -1      2567 6.89620E-07
 -1      2568 6.62015E-07
 -1      2569 9.51540E-08
 -1      2570 8.16120E-08
 -1      2571 6.75493E-08
 -1      2572 6.57984E-08
 -1      2573 6.46122E-08
 -1      2574 3.49245E-08
 -1      2575 3.37383E-08
 -1      2576 9.63009E-08
 -1      2577 6.39476E-08
 -1      2578 6.58574E-08
 -1      2579 1.88588E-08
 -1      2580 8.01761E-08
 -1      2581 1.69489E-08
 -1      2582 3.57042E+00
 -1      2583 3.52968E+00
 -1      2584 3.57042E+00
 -1      2585 3.61116E+00
 -1      2586 3.57042E+00
 -1      2587 3.57042E+00
 -1      2588 3.61582E+00
 -1      2589 3.61582E+00
 -1      2590 3.70196E+00
 -1      2591 3.61582E+00
 -1      2592 3.61582E+00
 -1      2593 3.92006E-12
 -1      2594 4.49774E-12
 -1      2595 4.72582E-12
 -1      2596 3.63443E-12
 -1      2597 4.21210E-12
 -1      2598 3.40634E-12
 -1      2599 4.72582E-12
 -1      2600 3.92006E-12
 -1      2601 3.63443E-12
 -1      2602 4.14815E-12
 -1      2603 2.59550E+00
 -1      2604 2.68164E+00
 -1      2605 2.58745E+00
 -1      2606 2.62819E+00
 -1      2607 2.02952E-11
 -1      2608 2.27551E-11
 -1      2609 2.54047E-11
 -1      2610 2.96460E-10
 -1      2611 2.98920E-10
 -1      2612 2.93811E-10
 -1      2613 4.16328E-11
 -1      2614 4.67423E-11
 -1      2615 3.17798E-10
 -1      2616 2.94150E-03
 -1      2617 5.64240E-03
 -1      2618 6.36106E-03
 -1      2619 1.02822E-02
 -1      2620 1.29831E-02
 -1      2621 9.56351E-03
 -1      2622 2.96639E-03
 -1      2623 6.38595E-03
 -1      2624 1.03071E-02
 -1      2625 3.52507E-03
 -1      2626 1.08657E-02
 -1      2627 4.15142E-03
 -1      2628 1.14921E-02
 -1      2629 2.59550E+00
 -1      2630 2.58745E+00
 -1      2631 3.69624E-12
 -1      2632 3.92006E-12
 -1      2633 3.60671E-12
 -1      2634 4.14815E-12
 -1      2635 9.80144E-11
 -1      2636 3.50192E-10
 -1      2637 4.17352E-11
 -1      2638 3.86568E-04
 -1      2639 3.86568E-04
 -1      2640 2.92136E-04
 -1      2641 2.92136E-04
 -1      2642 3.37995E-04
 -1      2643 1.26087E-03
 -1      2644 1.26087E-03
 -1      2645 1.30673E-03
 -1      2646 6.13178E-03
 -1      2647 8.65012E-03
 -1      2648 2.75591E-03
 -1      2649 5.27425E-03
 -1      2650 5.68608E-03
 -1      2651 4.31291E-04
 -1      2652 5.55532E-04
 -1      2653 1.37018E-03
 -1      2654 1.49442E-03
 -1      2655 1.37132E-03
 -1      2656 7.70195E-08
 -1      2657 1.08862E-07
 -1      2658 1.21230E-03
 -1      2659 1.74248E-06
 -1      2660 1.62025E-06
 -1      2661 2.11814E-06
 -1      2662 3.54683E-06
 -1      2663 3.42460E-06
 -1      2664 3.04894E-06
 -1      2665 5.14026E-04
 -1      2666 3.89784E-04
 -1      2667 3.90921E-04
 -1      2668 2.11814E-06
 -1      2669 3.42460E-06
 -1      2670 1.04895E-09
 -1      2671 1.71231E-09
 -1      2672 3.07704E-09
 -1      2673 3.74040E-09
 -1      2674 3.07983E-09
 -1      2675 8.55358E-03
 -1      2676 5.17771E-03
 -1      2677 2.98519E-03
 -1      2678 1.62025E-06
 -1      2679 1.32981E-03
 -1      2680 5.63965E-04
 -1      2681 4.11218E-04
 -1      2682 1.51206E-03
 -1      2683 1.35931E-03
 -1      2684 1.38052E-03
 -1      2685 4.32427E-04
 -1      2686 5.85715E-04
 -1      2687 1.38052E-03
 -1      2688 1.53381E-03
 -1      2689 3.89408E-04
 -1      2690 3.89408E-04
 -1      2691 2.94976E-04
 -1      2692 2.94976E-04
 -1      2693 7.16653E-12
 -1      2694 8.50946E-12
 -1      2695 6.90648E-12
 -1      2696 6.90648E-12
 -1      2697 5.56355E-12
 -1      2698 6.88729E-12
 -1      2699 7.36691E-12
 -1      2700 5.26512E-12
 -1      2701 5.74474E-12
 -1      2702 6.88729E-12
 -1      2703 4.49774E-12
 -1      2704 6.39915E-12
 -1      2705 6.89795E-12
 -1      2706 4.79616E-12
 -1      2707 5.29496E-12
 -1      2708 4.72582E-12
 -1      2709 6.49720E-12
 -1      2710 6.30962E-12
 -1      2711 4.68745E-12
 -1      2712 4.87503E-12
 -1      2713 5.77522E-11
 -1      2714 5.77522E-11
 -1      2715 4.66741E-11
 -1      2716 4.91319E-11
 -1      2717 4.66741E-11
 -1      2718 6.02100E-11
 -1      2719 6.02100E-11
 -1      2720 4.91319E-11
 -1      2721 4.91319E-11
 -1      2722 7.14635E-03
 -1      2723 3.77968E-03
 -1      2724 5.69528E-03
 -1      2725 3.01928E-03
 -1      2726 7.78293E-03
 -1      2727 6.16239E-03
 -1      2728 4.41625E-03
 -1      2729 2.79571E-03
 -1      2730 5.57137E-04
 -1      2731 4.14555E-04
 -1      2732 1.49603E-03
 -1      2733 1.35345E-03
 -1      2734 6.51298E-08
 -1      2735 1.71972E-09
 -1      2736 1.05175E-09
 -1      2737 3.74781E-09
 -1      2738 3.07983E-09
 -1      2739 1.72299E-09
 -1      2740 1.04755E-09
 -1      2741 3.74718E-09
 -1      2742 3.07174E-09
 -1      2743 3.07594E-09
 -1      2744 1.02649E-09
 -1      2745 1.71527E-09
 -1      2746 3.73946E-09
 -1      2747 3.05068E-09
 -1      2748 3.93749E-04
 -1      2749 3.93749E-04
 -1      2750 2.99317E-04
 -1      2751 2.99317E-04
 -1      2752 3.37995E-04
 -1      2753 3.17543E-06
 -1      2754 2.23895E-06
 -1      2755 4.53769E-06
 -1      2756 3.60121E-06
 -1      2757 3.60264E-06
 -1      2758 2.10848E-06
 -1      2759 3.14642E-06
 -1      2760 3.47074E-06
 -1      2761 4.50868E-06
 -1      2762 3.88871E-04
 -1      2763 3.88871E-04
 -1      2764 2.94439E-04
 -1      2765 2.94439E-04
 -1      2766 3.12194E-06
 -1      2767 2.13488E-06
 -1      2768 4.54063E-06
 -1      2769 3.55356E-06
 -1      2770 3.65906E-06
 -1      2771 8.33089E-09
 -1      2772 8.36136E-09
 -1      2773 6.15752E-09
 -1      2774 7.31175E-09
 -1      2775 6.12705E-09
 -1      2776 6.91438E-07
 -1      2777 2.10718E-06
 -1      2778 2.10718E-06
 -1      2779 1.60928E-06
 -1      2780 1.74248E-06
 -1      2781 1.60928E-06
 -1      2782 2.12492E-06
 -1      2783 2.12492E-06
 -1      2784 1.62703E-06
 -1      2785 1.62703E-06
 -1      2786 9.68051E-03
 -1      2787 7.16217E-03
 -1      2788 1.00923E-02
 -1      2789 2.11775E-06
 -1      2790 2.11775E-06
 -1      2791 1.61986E-06
 -1      2792 1.61986E-06
 -1      2793 8.24955E-09
 -1      2794 8.24955E-09
 -1      2795 6.04181E-09
 -1      2796 6.04181E-09
 -1      2797 7.30786E-09
 -1      2798 1.08749E-07
 -1      2799 7.79368E-08
 -1      2800 3.41553E-01
 -1      2801 5.29490E-01
 -1      2802 4.97107E-01
 -1      2803 2.99839E-01
 -1      2804 3.09170E-01
 -1      2805 3.73048E-04
 -1      2806 5.15631E-04
 -1      2807 1.28895E-03
 -1      2808 1.32763E-03
 -1      2809 1.28895E-03
 -1      2810 5.17815E-11
 -1      2811 3.08148E-11
 -1      2812 7.70477E-11
 -1      2813 4.46533E-11
 -1      2814 5.27673E-04
 -1      2815 3.96135E-04
 -1      2816 3.74926E-04
 -1      2817 3.96135E-04
 -1      2818 5.49423E-04
 -1      2819 1.26371E-03
 -1      2820 1.26371E-03
 -1      2821 8.50946E-12
 -1      2822 7.16653E-12
 -1      2823 8.50946E-12
 -1      2824 6.58673E-12
 -1      2825 6.10711E-12
 -1      2826 7.72928E-12
 -1      2827 6.89795E-12
 -1      2828 6.39915E-12
 -1      2829 5.71703E-12
 -1      2830 5.52944E-12
 -1      2831 1.28408E-03
 -1      2832 1.28408E-03
 -1      2833 3.44650E-06
 -1      2834 3.57970E-06
 -1      2835 3.44650E-06
 -1      2836 3.46425E-06
 -1      2837 3.46425E-06
 -1      2838 3.42421E-06
 -1      2839 3.42421E-06
 -1      2840 1.59988E-09
 -1      2841 9.36518E-10
 -1      2842 9.39311E-10
 -1      2843 2.88273E-06
 -1      2844 1.94768E-06
 -1      2845 1.94626E-06
 -1      2846 1.86374E-06
 -1      2847 2.85080E-06
 -1      2848 1.96924E-06
 -1      2849 2.85373E-06
 -1      2850 1.81578E-06
 -1      2851 3.18252E-12
 -1      2852 3.09299E-12
 -1      2853 7.39145E-03
 -1      2854 9.58397E-03
 -1      2855 1.74970E-08
 -1      2856 1.74665E-08
 -1      2857 1.86512E-08
 -1      2858 1.24255E-10
 -1      2859 1.24255E-10
 -1      2860 1.24255E-10
 -1      2861 1.60729E-09
 -1      2862 9.39311E-10
 -1      2863 1.21797E-10
 -1      2864 1.21797E-10
 -1      2865 9.58956E-11
 -1      2866 5.35572E-11
 -1      2867 7.49289E-11
 -1      2868 3.25905E-11
 -1      2869 7.98379E-09
 -1      2870 8.12124E-09
 -1      2871 5.77996E-09
 -1      2872 5.91741E-09
 -1      2873 2.22581E-06
 -1      2874 3.16133E-06
 -1      2875 3.64449E-06
 -1      2876 4.58002E-06
 -1      2877 5.27114E-01
 -1      2878 3.24493E-01
 -1      2879 4.94731E-01
 -1      2880 2.92110E-01
 -1      2881 1.34423E-03
 -1      2882 6.90648E-12
 -1      2883 6.10711E-12
 -1      2884 6.91324E-07
 -1      2885 1.73357E-08
 -1      2886 1.73357E-08
 -1      2887 1.86017E-08
 -1      2888 6.60471E-08
 -1      2889 1.23320E-03
 -1      2890 8.13471E-09
 -1      2891 8.13123E-09
 -1      2892 5.92698E-09
 -1      2893 5.92350E-09
 -1      2894 3.08181E-06
 -1      2895 1.77479E-11
 -1      2896 7.42598E-08
 -1      2897 1.16972E-08
 -1      2898 4.33859E-08
 -1      2899 3.30994E-06
 -1      2900 1.10325E-08
 -1      2901 2.72611E-08
 -1      2902 6.71647E-03
 -1      2903 3.38792E-06
 -1      2904 1.63940E-08
 -1      2905 1.64474E-08
 -1      2906 2.89019E-06
 -1      2907 1.95467E-06
 -1      2908 1.72568E-08
 -1      2909 1.71194E-08
 -1      2910 2.96740E-09
 -1      2911 9.33312E-10
 -1      2912 1.60874E-09
 -1      2913 9.37503E-10
 -1      2914 1.13177E-10
 -1      2915 1.60103E-09
 -1      2916 9.12249E-10
 -1      2917 1.11693E-02
 -1      2918 1.04089E-02
 -1      2919 1.30849E-02
 -1      2920 1.72174E-08
 -1      2921 1.72209E-08
 -1      2922 1.01853E-02
 -1      2923 1.18059E-02
 -1      2924 7.78143E-01
 -1      2925 7.68813E-01
 -1      2926 9.66080E-01
 -1      2927 3.52764E+00
 -1      2928 3.42647E+00
 -1      2929 3.51809E+00
 -1      2930 3.62130E+00
 -1      2931 3.61927E+00
 -1      2932 5.45366E-03
 -1      2933 4.25369E-10
 -1      2934 3.79136E-10
 -1      2935 3.92974E-10
 -1      2936 3.52968E+00
 -1      2937 7.61083E-01
 -1      2938 9.63704E-01
 -1      2939 2.96169E-09
 -1      2940 3.80911E-10
 -1      2941 4.23250E-10
 -1      2942 3.74409E-08
 -1      2943 4.56714E-08
 -1      2944 7.42598E-08
 -1      2945 9.71824E-03
 -1      2946 6.17675E-08
 -1      2947 3.74409E-08
 -1      2948 5.35370E-08
 -1      2949 7.36430E-01
 -1      2950 3.72007E-10
 -1      2951 5.29923E-12
 -1      2952 2.72038E-11
 -1      2953 2.76088E-11
 -1      2954 4.80043E-12
 -1      2955 2.67050E-11
 -1      2956 4.39542E-12
 -1      2957 4.34584E-10
 -1      2958 3.32231E-10
 -1      2959 6.96409E-10
 -1      2960 5.88272E-10
 -1      2961 6.90624E-10
 -1      2962 1.03597E-11
 -1      2963 3.22643E-11
 -1      2964 1.19670E-11
 -1      2965 2.92161E-11
 -1      2966 1.09574E-08
 -1      2967 6.45152E-10
 -1      2968 1.68737E-08
 -1      2969 1.38566E+00
 -1      2970 2.32790E+00
 -1      2971 2.36864E+00
 -1      2972 3.61378E+00
 -1      2973 3.61582E+00
 -1      2974 4.33572E-08
 -1      2975 8.01761E-08
 -1      2976 2.33696E+00
 -1      2977 1.40278E+00
 -1      2978 2.42310E+00
 -1      2979 2.56773E-01
 -1      2980 1.81144E-01
 -1      2981 2.56593E-01
 -1      2982 7.29169E-01
 -1      2983 6.53540E-01
 -1      2984 6.53719E-01
 -1      2985 2.12204E-11
 -1      2986 4.03794E-11
 -1      2987 4.10509E-11
 -1      2988 6.93355E-11
 -1      2989 8.84945E-11
 -1      2990 6.86640E-11
 -1      2991 1.43664E-09
 -1      2992 1.10842E-08
 -1      2993 3.31254E-08
 -1      2994 4.02345E-11
 -1      2995 2.04039E-11
 -1      2996 6.85191E-11
 -1      2997 3.70744E+00
 -1      2998 7.26638E-10
 -1      2999 8.89192E-10
 -1      3000 8.89192E-10
 -1      3001 2.54954E-09
 -1      3002 2.71210E-09
 -1      3003 2.54954E-09
 -1      3004 9.15953E-01
 -1      3005 7.46077E-01
 -1      3006 5.02099E-01
 -1      3007 4.49593E-01
 -1      3008 2.79717E-01
 -1      3009 6.93572E-01
 -1      3010 7.21224E-10
 -1      3011 8.83777E-10
 -1      3012 2.54413E-09
 -1      3013 3.08532E-11
 -1      3014 7.89683E-11
 -1      3015 2.65345E-11
 -1      3016 7.46496E-11
 -1      3017 9.19205E-01
 -1      3018 5.05350E-01
 -1      3019 4.52845E-01
 -1      3020 4.46533E-11
 -1      3021 2.36867E-11
 -1      3022 5.77522E-11
 -1      3023 1.04895E-09
 -1      3024 2.07685E-11
 -1      3025 2.79424E-01
 -1      3026 7.51820E-01
 -1      3027 7.10386E-11
 -1      3028 1.35083E-10
 -1      3029 8.14174E-03
 -1      3030 8.31661E-10
 -1      3031 7.19226E-10
 -1      3032 3.23221E-03
 -1      3033 6.16239E-03
 -1      3034 7.19278E-03
 -1      3035 4.33572E-08
 -1      3036 4.45830E-11
 -1      3037 4.45830E-11
 -1      3038 1.08628E-10
 -1      3039 7.71342E-10
 -1      3040 8.30823E-10
 -1      3041 7.16581E-10
 -1      3042 2.45950E-01
 -1      3043 2.13567E-01
 -1      3044 1.10908E-02
 -1      3045 7.16085E-03
 -1      3046 1.00923E-02
 -1      3047 1.11227E-02
 -1      3048 1.80753E-01
 -1      3049 2.56203E-01
 -1      3050 6.53150E-01
 -1      3051 1.42013E-10
 -1      3052 6.23416E-11
 -1      3053 1.02230E-09
 -1      3054 1.23647E-09
 -1      3055 3.05938E-09
 -1      3056 2.24210E-01
 -1      3057 6.45997E-02
 -1      3058 4.18374E-02
 -1      3059 4.08475E-02
 -1      3060 1.78941E-02
 -1      3061 4.06564E-02
 -1      3062 1.29439E-07
 -1      3063 9.86269E-08
 -1      3064 1.00129E-07
 -1      3065 1.22906E-09
 -1      3066 3.05196E-09
 -1      3067 5.86732E-03
 -1      3068 1.83223E-06
 -1      3069 7.35596E-01
 -1      3070 2.69237E-01
 -1      3071 1.05604E-02
 -1      3072 1.45834E-02
 -1      3073 2.03698E-01
 -1      3074 3.26282E-03
 -1      3075 1.01853E-02
 -1      3076 1.82506E-06
 -1      3077 1.48092E-03
 -1      3078 3.57900E-12
 -1      3079 4.03091E-12
 -1      3080 3.80282E-12
 -1      3081 3.48095E-12
 -1      3082 3.82627E-12
 -1      3083 4.02878E-12
 -1      3084 4.37410E-12
 -1      3085 4.69598E-12
 -1      3086 3.62590E-12
 -1      3087 4.13110E-12
 -1      3088 4.01386E-12
 -1      3089 3.50866E-12
 -1      3090 4.15454E-12
 -1      3091 4.69598E-12
 -1      3092 8.50946E-12
 -1      3093 8.50946E-12
 -1      3094 8.50946E-12
 -1      3095 6.22435E-12
 -1      3096 6.58673E-12
 -1      3097 7.36691E-12
 -1      3098 5.25660E-12
 -1      3099 7.36691E-12
 -1      3100 6.49720E-12
 -1      3101 7.72928E-12
 -1      3102 1.45234E-03
 -1      3103 3.57456E-04
 -1      3104 3.53116E-04
 -1      3105 3.38334E-09
 -1      3106 3.37266E-09
 -1      3107 4.46127E-06
 -1      3108 4.48575E-06
 -1      3109 4.06288E-12
 -1      3110 3.74101E-12
 -1      3111 4.61071E-12
 -1      3112 4.22276E-12
 -1      3113 3.77085E-12
 -1      3114 4.10552E-12
 -1      3115 3.70051E-12
 -1      3116 3.52145E-12
 -1      3117 1.27677E-01
 -1      3118 1.27486E-01
 -1      3119 1.03734E-01
 -1      3120 1.83604E-06
 -1      3121 1.43827E-03
 -1      3122 1.42984E-03
 -1      3123 2.33357E-01
 -1      3124 1.80852E-01
 -1      3125 4.48188E-06
 -1      3126 1.84700E-06
 -1      3127 1.44270E-02
 -1      3128 7.50442E-03
 -1      3129 3.45062E-04
 -1      3130 3.47364E-04
 -1      3131 9.87132E-08
 -1      3132 1.30556E-07
 -1      3133 1.01133E-07
 -1      3134 2.10705E-06
 -1      3135 7.74949E-10
 -1      3136 1.34279E-08
 -1      3137 1.46126E-08
 -1      3138 2.37482E-08
 -1      3139 4.68745E-12
 -1      3140 5.55502E-12
 -1      3141 4.11218E-04
 -1      3142 9.24060E-01
 -1      3143 1.25775E-08
 -1      3144 1.39584E-08
 -1      3145 2.30445E-08
 -1      3146 3.50192E-04
 -1      3147 4.46779E-06
 -1      3148 1.33466E-08
 -1      3149 2.36988E-08
 -1      3150 1.25640E-08
 -1      3151 2.30940E-08
 -1      3152 6.63485E+00
 -1      3153 6.82056E+00
 -1      3154 5.07555E+00
 -1      3155 5.26126E+00
 -1      3156 5.26126E+00
 -1      3157 3.43549E-04
 -1      3158 2.12031E-06
 -1      3159 2.67838E-01
 -1      3160 7.40234E-01
 -1      3161 4.13418E-04
 -1      3162 2.91990E-11
 -1      3163 6.88942E-12
 -1      3164 6.39062E-12
 -1      3165 7.29443E-12
 -1      3166 1.98663E-10
 -1      3167 2.82624E-10
 -1      3168 2.85502E-10
 -1      3169 5.76996E-10
 -1      3170 6.60956E-10
 -1      3171 5.74118E-10
 -1      3172 7.71262E-01
 -1      3173 3.04902E-01
 -1      3174 6.86519E-09
 -1      3175 6.82956E-09
 -1      3176 6.94911E-12
 -1      3177 6.58673E-12
 -1      3178 6.76579E-12
 -1      3179 6.76579E-12
 -1      3180 4.85585E-12
 -1      3181 5.63603E-12
 -1      3182 7.00027E-12
 -1      3183 5.85771E-12
 -1      3184 1.99172E-06
 -1      3185 2.77868E-08
 -1      3186 2.37482E-08
 -1      3187 2.59259E-08
 -1      3188 2.12825E-08
 -1      3189 4.74920E-10
 -1      3190 4.44645E-10
 -1      3191 8.78423E-11
 -1      3192 5.75667E-11
 -1      3193 4.36592E-10
 -1      3194 1.99552E-06
 -1      3195 2.76879E-08
 -1      3196 2.36988E-08
 -1      3197 8.99045E-01
 -1      3198 2.59610E-08
 -1      3199 2.12682E-08
 -1      3200 1.65447E-02
 -1      3201 1.55548E-02
 -1      3202 1.78463E-08
 -1      3203 1.54259E-09
 -1      3204 2.61960E+00
 -1      3205 2.57886E+00
 -1      3206 1.37708E+00
 -1      3207 1.36513E-07
 -1      3208 1.45851E-07
 -1      3209 1.27175E-07
 -1      3210 1.36513E-07
 -1      3211 1.36513E-07
 -1      3212 1.74572E-01
 -1      3213 1.11495E-01
 -1      3214 8.77427E-02
 -1      3215 3.62130E+00
 -1      3216 3.71293E+00
 -1      3217 2.67049E+00
 -1      3218 8.58751E-08
 -1      3219 8.01761E-08
 -1      3220 8.95142E-08
 -1      3221 3.88764E-08
 -1      3222 3.66205E+00
 -1      3223 1.45080E-08
 -1      3224 1.11621E-08
 -1      3225 2.04244E-08
 -1      3226 1.70784E-08
 -1      3227 1.10325E-08
 -1      3228 1.38497E-09
 -1      3229 6.39476E-08
 -1      3230 6.91095E-11
 -1      3231 9.73941E-11
 -1      3232 2.27572E-03
 -1      3233 2.26652E-03
 -1      3234 2.66710E+00
 -1      3235 2.58096E+00
 -1      3236 1.38825E+00
 -1      3237 3.54751E+00
 -1      3238 2.67259E+00
 -1      3239 3.63914E+00
 -1      3240 3.66001E-11
 -1      3241 1.38827E-10
 -1      3242 1.27998E-10
 -1      3243 1.25540E-10
 -1      3244 1.67007E-09
 -1      3245 1.00210E-09
 -1      3246 7.82013E-10
 -1      3247 4.00533E-12
 -1      3248 3.50013E-12
 -1      3249 4.02238E-12
 -1      3250 3.70051E-12
 -1      3251 3.35518E-12
 -1      3252 1.66562E-09
 -1      3253 7.81176E-10
 -1      3254 1.36897E-10
 -1      3255 1.08839E-10
 -1      3256 7.20328E-10
 -1      3257 3.97186E-11
 -1      3258 2.46075E-11
 -1      3259 7.28676E-11
 -1      3260 3.90131E-11
 -1      3261 1.10233E-10
 -1      3262 1.54846E-10
 -1      3263 1.10233E-10
 -1      3264 8.36259E-11
 -1      3265 3.63365E+00
 -1      3266 4.68958E-12
 -1      3267 4.70664E-12
 -1      3268 4.58087E-12
 -1      3269 4.03944E-12
 -1      3270 1.11686E-01
 -1      3271 4.36592E-10
 -1      3272 4.95135E-11
 -1      3273 3.33823E-01
 -1      3274 4.34521E-01
 -1      3275 1.62528E-01
 -1      3276 2.61393E-01
 -1      3277 1.44815E-02
 -1      3278 4.58660E-01
 -1      3279 1.75120E-01
 -1      3280 1.40135E-02
 -1      3281 3.27273E+00
 -1      3282 3.61116E+00
 -1      3283 3.27273E+00
 -1      3284 2.03020E+00
 -1      3285 2.36864E+00
 -1      3286 3.06041E-08
 -1      3287 1.14097E-08
 -1      3288 4.57293E-09
 -1      3289 2.75058E-08
 -1      3290 2.04244E-08
 -1      3291 5.09326E-09
 -1      3292 4.12065E-09
 -1      3293 3.43316E-08
 -1      3294 2.02989E-09
 -1      3295 6.39032E+00
 -1      3296 4.93058E+00
 -1      3297 4.98941E+00
 -1      3298 5.17512E+00
 -1      3299 9.85864E-08
 -1      3300 6.77126E-08
 -1      3301 3.68388E-11
 -1      3302 3.46721E+00
 -1      3303 3.66205E+00
 -1      3304 1.43336E+00
 -1      3305 2.36754E+00
 -1      3306 2.36754E+00
 -1      3307 1.27175E-07
 -1      3308 4.14175E-12
 -1      3309 4.77485E-12
 -1      3310 3.84759E-12
 -1      3311 3.65574E-12
 -1      3312 3.83267E-12
 -1      3313 3.64082E-12
 -1      3314 4.14175E-12
 -1      3315 4.77485E-12
 -1      3316 1.42531E+00
 -1      3317 1.25970E-07
 -1      3318 1.28337E-07
 -1      3319 9.09369E-08
 -1      3320 9.09369E-08
 -1      3321 8.85700E-08
 -1      3322 3.70196E+00
 -1      3323 3.31883E+00
 -1      3324 3.31883E+00
 -1      3325 2.42310E+00
 -1      3326 2.03997E+00
 -1      3327 8.16605E-11
 -1      3328 8.97138E-11
 -1      3329 1.34327E-10
 -1      3330 1.02180E-10
 -1      3331 3.22643E-11
 -1      3332 8.49305E-11
 -1      3333 3.06292E-08
 -1      3334 5.94820E-08
 -1      3335 4.27349E-11
 -1      3336 4.51926E-11
 -1      3337 1.12981E-10
 -1      3338 2.71852E-09
 -1      3339 3.38650E-09
 -1      3340 2.66887E-09
 -1      3341 2.60336E-11
 -1      3342 3.38205E-09
 -1      3343 9.95065E-11
 -1      3344 5.55950E-11
 -1      3345 6.52573E+00
 -1      3346 7.03708E+00
 -1      3347 5.11933E+00
 -1      3348 5.63068E+00
 -1      3349 5.11933E+00
 -1      3350 3.55598E-08
 -1      3351 4.46435E-09
 -1      3352 3.25813E-09
 -1      3353 6.71764E+00
 -1      3354 7.15167E+00
 -1      3355 5.64932E+00
 -1      3356 5.21529E+00
 -1      3357 5.21529E+00
 -1      3358 1.39399E+00
 -1      3359 2.34480E+00
 -1      3360 2.43643E+00
 -1      3361 8.38265E-08
 -1      3362 6.65684E-08
 -1      3363 1.05501E-07
 -1      3364 8.82426E-08
 -1      3365 1.05501E-07
 -1      3366 1.39609E+00
 -1      3367 6.45152E-10
 -1      3368 2.42357E-02
 -1      3369 1.84191E-02
 -1      3370 1.69393E-02
 -1      3371 1.45106E-01
 -1      3372 1.39290E-01
 -1      3373 1.46586E-01
 -1      3374 4.68739E-10
 -1      3375 1.03832E-11
 -1      3376 1.59233E-11
 -1      3377 8.66081E-12
 -1      3378 3.70903E-12
 -1      3379 9.24913E-12
 -1      3380 1.09715E-11
 -1      3381 1.04002E-11
 -1      3382 1.34207E-11
 -1      3383 2.06661E-11
 -1      3384 1.08116E-11
 -1      3385 1.38321E-11
 -1      3386 3.56621E-12
 -1      3387 1.02040E-01
 -1      3388 1.03519E-01
 -1      3389 2.24390E-01
 -1      3390 2.78651E-03
 -1      3391 2.47525E-11
 -1      3392 5.76392E-12
 -1      3393 6.90648E-12
 -1      3394 5.74474E-12
 -1      3395 6.88729E-12
 -1      3396 3.35049E-11
 -1      3397 7.06528E+00
 -1      3398 6.87059E+00
 -1      3399 5.24087E+00
 -1      3400 5.24087E+00
 -1      3401 5.43557E+00
 -1      3402 3.12070E-12
 -1      3403 1.03832E-11
 -1      3404 3.70903E-12
 -1      3405 3.13776E-12
 -1      3406 3.54916E-12
 -1      3407 1.24088E-08
 -1      3408 1.16576E+00
 -1      3409 7.71999E-10
 -1      3410 2.79571E-03
 -1      3411 4.63629E-12
 -1      3412 3.95204E-12
 -1      3413 4.32934E-12
 -1      3414 3.64508E-12
 -1      3415 7.38232E-01
 -1      3416 9.35499E-01
 -1      3417 6.67403E-01
 -1      3418 1.17545E-08
 -1      3419 1.21076E-07
 -1      3420 1.42250E-07
 -1      3421 6.65399E-08
 -1      3422 8.77137E-08
 -1      3423 8.77137E-08
 -1      3424 9.91557E-02
 -1      3425 1.98720E-02
 -1      3426 1.22100E-01
 -1      3427 1.24984E-01
 -1      3428 2.04268E-01
 -1      3429 1.24049E-08
 -1      3430 1.17506E-08
 -1      3431 8.92429E-08
 -1      3432 8.82394E-08
 -1      3433 1.17482E+00
 -1      3434 9.11360E-01
 -1      3435 2.72098E-10
 -1      3436 4.57469E-10
 -1      3437 5.41267E-10
 -1      3438 5.91386E-10
 -1      3439 7.76757E-10
 -1      3440 5.07588E-10
 -1      3441 1.99319E-02
 -1      3442 1.70480E-02
 -1      3443 1.22160E-01
 -1      3444 9.68819E-08
 -1      3445 9.68819E-08
 -1      3446 7.58570E+00
 -1      3447 5.64932E+00
 -1      3448 5.55502E-12
 -1      3449 5.89608E-12
 -1      3450 4.50200E-12
 -1      3451 5.67439E-12
 -1      3452 6.01545E-12
 -1      3453 7.06848E-12
 -1      3454 6.94911E-12
 -1      3455 6.94911E-12
 -1      3456 6.94911E-12
 -1      3457 7.06848E-12
 -1      3458 7.06848E-12
 -1      3459 3.62411E-10
 -1      3460 3.62411E-10
 -1      3461 2.96778E-10
 -1      3462 3.86272E-10
 -1      3463 3.99130E-10
 -1      3464 1.44979E-06
 -1      3465 8.89034E-07
 -1      3466 6.83836E-07
 -1      3467 6.82705E-07
 -1      3468 1.21950E-07
 -1      3469 8.87903E-07
 -1      3470 9.10924E-07
 -1      3471 1.47134E-06
 -1      3472 6.84172E-07
 -1      3473 1.23290E-07
 -1      3474 6.83708E-07
 -1      3475 9.10461E-07
 -1      3476 1.47134E-06
 -1      3477 9.18191E-07
 -1      3478 6.83708E-07
 -1      3479 3.65742E-08
 -1      3480 3.32305E-08
 -1      3481 1.25427E-09
 -1      3482 3.34508E-08
 -1      3483 4.59797E-09
 -1      3484 3.14696E-03
 -1      3485 1.43879E-03
 -1      3486 1.81690E-03
 -1      3487 1.84473E-03
 -1      3488 4.89258E-10
 -1      3489 3.66001E-11
 -1      3490 3.93712E-12
 -1      3491 4.09699E-12
 -1      3492 5.06844E+00
 -1      3493 5.57980E+00
 -1      3494 1.22697E-09
 -1      3495 8.89663E-10
 -1      3496 1.92043E-10
 -1      3497 8.96522E-07
 -1      3498 1.44979E-06
 -1      3499 6.82705E-07
 -1      3500 2.55028E-10
 -1      3501 4.40399E-10
 -1      3502 1.71229E-10
 -1      3503 1.33035E-11
 -1      3504 3.99105E-11
 -1      3505 8.45233E-11
 -1      3506 1.56282E-10
 -1      3507 5.20980E+00
 -1      3508 5.20980E+00
 -1      3509 1.73889E-09
 -1      3510 4.54463E-12
 -1      3511 9.24913E-12
 -1      3512 9.49640E-12
 -1      3513 4.54463E-12
 -1      3514 4.29736E-12
 -1      3515 3.71330E-12
 -1      3516 1.37000E-11
 -1      3517 1.37000E-11
 -1      3518 3.84546E-12
 -1      3519 3.84546E-12
 -1      3520 5.78524E-12
 -1      3521 1.07370E-11
 -1      3522 4.38050E-12
 -1      3523 1.43672E-11
 -1      3524 5.04770E-12
 -1      3525 1.43672E-11
 -1      3526 6.03251E-12
 -1      3527 9.49640E-12
 -1      3528 8.87855E-10
 -1      3529 2.08888E-01
 -1      3530 3.88214E-10
 -1      3531 1.86852E-10
 -1      3532 3.89662E-10
 -1      3533 1.88300E-10
 -1      3534 1.86852E-10
 -1      3535 3.63914E+00
 -1      3536 3.71293E+00
 -1      3537 3.63914E+00
 -1      3538 2.36264E+00
 -1      3539 2.43643E+00
 -1      3540 1.40135E-02
 -1      3541 7.46268E-08
 -1      3542 7.46268E-08
 -1      3543 9.22142E-12
 -1      3544 9.34079E-12
 -1      3545 9.22142E-12
 -1      3546 5.04770E-12
 -1      3547 5.38876E-12
 -1      3548 6.56115E-12
 -1      3549 1.70060E-02
 -1      3550 3.65939E-01
 -1      3551 9.78934E-08
 -1      3552 9.78934E-08
 -1      3553 7.90435E-02
 -1      3554 5.25479E-02
 -1      3555 1.73625E-01
 -1      3556 1.46379E-01
 -1      3557 1.72875E-01
 -1      3558 3.01703E-04
 -1      3559 2.29010E-01
 -1      3560 2.25483E-03
 -1      3561 2.24562E-03
 -1      3562 2.53621E-11
 -1      3563 4.58940E-12
 -1      3564 4.60858E-12
 -1      3565 5.27365E-12
 -1      3566 5.25446E-12
 -1      3567 3.41146E-11
 -1      3568 4.74018E-09
 -1      3569 4.74661E-09
 -1      3570 4.73629E-09
 -1      3571 4.74271E-09
 -1      3572 3.01703E-04
 -1      3573 2.96489E-04
 -1      3574 4.94196E-06
 -1      3575 4.90909E-06
 -1      3576 4.99839E-06
 -1      3577 2.96489E-04
 -1      3578 1.02537E-07
 -1      3579 6.62956E-07
 -1      3580 1.02074E-07
 -1      3581 1.02201E-07
 -1      3582 1.01070E-07
 -1      3583 4.96552E-06
 -1      3584 7.25997E+00
 -1      3585 5.43557E+00
 -1      3586 1.53149E-10
 -1      3587 1.35500E-09
 -1      3588 3.82382E-10
 -1      3589 3.40743E-10
 -1      3590 6.96190E-12
 -1      3591 6.84253E-12
 -1      3592 9.11484E-12
 -1      3593 3.70051E-12
 -1      3594 1.42250E-07
 -1      3595 9.78934E-08
 -1      3596 7.74683E-10
 -1      3597 1.28337E-07
 -1      3598 9.68819E-08
 -1      3599 9.06686E-02
 -1      3600 8.48520E-02
 -1      3601 2.13019E-01
 -1      3602 3.46927E-01
 -1      3603 1.50258E-11
 -1      3604 1.69952E-01
 -1      3605 5.87328E-10
 -1      3606 4.88710E-10
 -1      3607 2.52777E-10
 -1      3608 2.34087E-10
 -1      3609 1.35469E-10
 -1      3610 4.70020E-10
 -1      3611 1.32651E-11
 -1      3612 1.62856E-11
 -1      3613 6.43112E-12
 -1      3614 1.15428E-11
 -1      3615 6.59099E-12
 -1      3616 1.92897E-01
 -1      3617 5.78950E-12
 -1      3618 6.33520E-12
 -1      3619 5.91979E-10
 -1      3620 4.02287E-10
 -1      3621 7.19642E-10
 -1      3622 5.05906E-10
 -1      3623 6.95597E-10
 -1      3624 6.62015E-07
 -1      3625 8.03803E-08
 -1      3626 7.54844E+00
 -1      3627 5.57980E+00
 -1      3628 1.61726E-02
 -1      3629 4.00177E-02
 -1      3630 1.76735E-02
 -1      3631 3.94520E-02
 -1      3632 1.56069E-02
 -1      3633 6.00266E-12
 -1      3634 8.78446E-02
 -1      3635 6.84253E-12
 -1      3636 8.38265E-08
 -1      3637 7.46268E-08
 -1      3638 8.88767E-07
 -1      3639 7.74949E-10
 -1      3640 8.67213E-07
 -1      3641 6.24992E-02
 -1      3642 4.01550E-02
 -1      3643 1.44504E-01
 -1      3644 1.45207E-01
 -1      3645 2.78881E-10
 -1      3646 5.48050E-10
 -1      3647 5.98169E-10
 -1      3648 2.03020E+00
 -1      3649 1.12612E+00
 -1      3650 3.52968E+00
 -1      3651 4.95135E-11
 -1      3652 4.36592E-10
 -1      3653 4.95135E-11
 -1      3654 1.79153E-10
 -1      3655 4.96507E-10
 -1      3656 1.52665E-10
 -1      3657 1.43267E-10
 -1      3658 2.08863E-10
 -1      3659 1.73100E-09
 -1      3660 5.07758E-10
 -1      3661 5.24775E-10
 -1      3662 1.14302E+00
 -1      3663 5.20013E+00
 -1      3664 5.20013E+00
 -1      3665 5.39016E-10
 -1      3666 1.15209E+00
 -1      3667 9.28827E-10
 -1      3668 1.14911E-09
 -1      3669 1.12612E+00
 -1      3670 1.12612E+00
 -1      3671 2.03997E+00
 -1      3672 1.14424E+00
 -1      3673 2.61811E-10
 -1      3674 2.09940E-10
 -1      3675 2.99434E-10
 -1      3676 6.77766E-10
 -1      3677 1.14424E+00
 -1      3678 1.14424E+00
 -1      3679 3.03757E-12
 -1      3680 4.61498E-12
 -1      3681 1.19606E-11
 -1      3682 1.03000E-11
 -1      3683 1.03832E-11
 -1      3684 6.13269E-12
 -1      3685 1.18177E-11
 -1      3686 3.03757E-12
 -1      3687 3.12070E-12
 -1      3688 3.88743E-10
 -1      3689 3.01905E-10
 -1      3690 6.43112E-12
 -1      3691 3.93712E-12
 -1      3692 6.83826E-12
 -1      3693 4.34426E-12
 -1      3694 9.47222E-02
 -1      3695 1.10713E-01
 -1      3696 9.54861E-02
 -1      3697 1.11477E-01
 -1      3698 6.57984E-08
 -1      3699 6.50825E-08
 -1      3700 3.70611E-09
 -1      3701 2.57114E-09
 -1      3702 1.85530E-09
 -1      3703 8.41781E-02
 -1      3704 5.20016E-02
 -1      3705 5.49325E-02
 -1      3706 1.34216E-01
 -1      3707 1.31285E-01
 -1      3708 5.20016E-02
 -1      3709 2.27559E-02
 -1      3710 1.81506E-02
 -1      3711 1.81506E-02
 -1      3712 4.15154E-03
 -1      3713 2.06390E-03
 -1      3714 1.79412E-03
 -1      3715 2.05884E-03
 -1      3716 4.60005E-12
 -1      3717 5.22888E-12
 -1      3718 5.19265E-12
 -1      3719 5.22888E-12
 -1      3720 4.06075E-12
 -1      3721 4.63842E-12
 -1      3722 5.22888E-12
 -1      3723 4.29736E-12
 -1      3724 4.96243E-12
 -1      3725 4.95390E-12
 -1      3726 2.63704E-11
 -1      3727 2.03848E-11
 -1      3728 1.60746E-11
 -1      3729 1.62387E-11
 -1      3730 4.18780E-11
 -1      3731 3.07999E-11
 -1      3732 2.09432E-11
 -1      3733 2.81972E-11
 -1      3734 1.11075E-03
 -1      3735 6.73982E-06
 -1      3736 4.69735E-06
 -1      3737 6.06103E-06
 -1      3738 5.64369E-06
 -1      3739 1.51465E-09
 -1      3740 3.56410E-09
 -1      3741 1.74017E-09
 -1      3742 3.27620E-09
 -1      3743 1.29468E-09
 -1      3744 3.32556E-09
 -1      3745 2.26696E-04
 -1      3746 1.70943E-04
 -1      3747 9.85070E-05
 -1      3748 1.71128E-04
 -1      3749 1.80456E-09
 -1      3750 3.58692E-09
 -1      3751 1.16326E-03
 -1      3752 2.10329E-03
 -1      3753 1.87670E-03
 -1      3754 2.08362E-03
 -1      3755 4.95112E-03
 -1      3756 4.25896E-09
 -1      3757 4.38747E-09
 -1      3758 4.32579E-06
 -1      3759 5.75904E-06
 -1      3760 9.55920E-05
 -1      3761 2.21100E-04
 -1      3762 1.69687E-04
 -1      3763 1.69469E-04
 -1      3764 1.30972E-06
 -1      3765 5.63730E-07
 -1      3766 9.27282E-07
 -1      3767 8.81038E-07
 -1      3768 6.85712E-06
 -1      3769 6.17583E-06
 -1      3770 3.20933E-07
 -1      3771 8.75904E-07
 -1      3772 1.30005E-06
 -1      3773 9.24384E-07
 -1      3774 5.96361E-10
 -1      3775 2.43121E-10
 -1      3776 5.55698E-07
 -1      3777 6.66773E-12
 -1      3778 5.68079E-12
 -1      3779 5.39941E-12
 -1      3780 6.78710E-12
 -1      3781 5.80016E-12
 -1      3782 8.16120E-08
 -1      3783 5.56595E-08
 -1      3784 6.72273E-11
 -1      3785 5.38938E-08
 -1      3786 5.38938E-08
 -1      3787 2.43643E+00
 -1      3788 1.15993E+00
 -1      3789 3.23542E+00
 -1      3790 3.23595E+00
 -1      3791 2.94169E+00
 -1      3792 2.07328E+00
 -1      3793 2.07381E+00
 -1      3794 1.11451E-06
 -1      3795 1.11050E-06
 -1      3796 5.70030E-07
 -1      3797 3.47430E-07
 -1      3798 3.43419E-07
 -1      3799 1.13983E-06
 -1      3800 1.14245E-06
 -1      3801 5.84190E-07
 -1      3802 3.52200E-07
 -1      3803 3.54817E-07
 -1      3804 1.20680E-10
 -1      3805 4.80043E-12
 -1      3806 4.56595E-12
 -1      3807 4.52331E-12
 -1      3808 6.63363E-12
 -1      3809 6.39915E-12
 -1      3810 6.67626E-12
 -1      3811 6.16041E-12
 -1      3812 7.07701E-12
 -1      3813 6.28830E-12
 -1      3814 5.79803E-12
 -1      3815 6.71463E-12
 -1      3816 6.58673E-12
 -1      3817 7.08950E-10
 -1      3818 2.98161E-10
 -1      3819 6.17450E-10
 -1      3820 5.06140E-10
 -1      3821 7.12431E-10
 -1      3822 1.15993E+00
 -1      3823 1.15993E+00
 -1      3824 5.76451E-05
 -1      3825 5.78298E-05
 -1      3826 1.30266E-04
 -1      3827 1.38984E-05
 -1      3828 1.43158E-05
 -1      3829 1.32197E-05
 -1      3830 1.38321E-11
 -1      3831 3.97762E-12
 -1      3832 9.49640E-12
 -1      3833 4.54463E-12
 -1      3834 1.84191E-02
 -1      3835 1.46586E-01
 -1      3836 2.17568E-02
 -1      3837 1.82122E-02
 -1      3838 1.49924E-01
 -1      3839 6.49294E-12
 -1      3840 6.59952E-12
 -1      3841 6.89369E-12
 -1      3842 6.89369E-12
 -1      3843 4.94538E-12
 -1      3844 6.07514E-12
 -1      3845 5.58487E-12
 -1      3846 5.58487E-12
 -1      3847 4.52331E-12
 -1      3848 6.63363E-12
 -1      3849 4.63842E-12
 -1      3850 6.51426E-12
 -1      3851 2.13783E-05
 -1      3852 1.43158E-05
 -1      3853 2.14744E-05
 -1      3854 2.13783E-05
 -1      3855 5.76871E-05
 -1      3856 1.64490E-05
 -1      3857 1.64070E-05
 -1      3858 1.70098E-05
 -1      3859 5.67649E-05
 -1      3860 5.69829E-05
 -1      3861 1.30860E-04
 -1      3862 1.40160E-05
 -1      3863 1.44328E-05
 -1      3864 1.33347E-05
 -1      3865 5.75195E-05
 -1      3866 1.89105E-05
 -1      3867 1.44328E-05
 -1      3868 2.15917E-05
 -1      3869 3.76846E-08
 -1      3870 3.59189E-08
 -1      3871 3.76846E-08
 -1      3872 1.95616E-08
 -1      3873 3.75366E-08
 -1      3874 1.95616E-08
 -1      3875 1.97097E-08
 -1      3876 1.78126E-05
 -1      3877 1.70580E-05
 -1      3878 3.47965E-08
 -1      3879 3.51612E-08
 -1      3880 4.24789E-08
 -1      3881 3.02577E-08
 -1      3882 3.06224E-08
 -1      3883 2.29399E-08
 -1      3884 3.46991E-07
 -1      3885 1.20380E-07
 -1      3886 2.39856E-02
 -1      3887 6.13171E-10
 -1      3888 2.59931E-10
 -1      3889 1.20380E-07
 -1      3890 1.20819E-07
 -1      3891 3.53297E-07
 -1      3892 1.23923E-07
 -1      3893 1.83601E-08
 -1      3894 3.05814E-08
 -1      3895 1.83601E-08
 -1      3896 1.84011E-08
 -1      3897 2.15791E-05
 -1      3898 2.15791E-05
 -1      3899 7.72928E-12
 -1      3900 6.22009E-12
 -1      3901 6.94911E-12
 -1      3902 3.80282E-12
 -1      3903 6.67626E-12
 -1      3904 4.93259E-12
 -1      3905 1.29038E-01
 -1      3906 3.83307E-10
 -1      3907 6.18287E-10
 -1      3908 7.18107E-10
 -1      3909 6.26818E-10
 -1      3910 4.83127E-10
 -1      3911 3.10408E-11
 -1      3912 1.13846E-10
 -1      3913 1.69074E-02
 -1      3914 1.30094E-02
 -1      3915 3.04793E-09
 -1      3916 1.33151E-09
 -1      3917 4.17232E-08
 -1      3918 4.17232E-08
 -1      3919 2.97234E-11
 -1      3920 1.12529E-10
 -1      3921 2.75833E-08
 -1      3922 2.58213E-08
 -1      3923 3.05015E-09
 -1      3924 1.33373E-09
 -1      3925 1.23923E-07
 -1      3926 1.22826E-07
 -1      3927 4.16737E-08
 -1      3928 4.16737E-08
 -1      3929 1.72510E-02
 -1      3930 1.24943E-10
 -1      3931 9.15577E-11
 -1      3932 2.76328E-08
 -1      3933 2.58070E-08
 -1      3934 2.07328E+00
 -1      3935 1.20540E+00
 -1      3936 1.60483E-09
 -1      3937 4.69864E-10
 -1      3938 1.20540E+00
 -1      3939 1.20540E+00
 -1      3940 7.62437E-01
 -1      3941 2.85598E-01
 -1      3942 2.21969E-10
 -1      3943 4.72433E-10
 -1      3944 3.39519E-05
 -1      3945 1.46656E-04
 -1      3946 1.32519E-04
 -1      3947 3.56112E-05
 -1      3948 1.98151E-05
 -1      3949 4.30589E-12
 -1      3950 3.38289E-12
 -1      3951 1.78144E-05
 -1      3952 1.15604E-05
 -1      3953 1.12190E-05
 -1      3954 1.94737E-05
 -1      3955 1.92023E-05
 -1      3956 1.09453E-05
 -1      3957 1.10228E-05
 -1      3958 1.68904E-05
 -1      3959 1.92798E-05
 -1      3960 1.46010E-04
 -1      3961 1.32519E-04
 -1      3962 3.49652E-05
 -1      3963 3.27119E-05
 -1      3964 1.92212E-05
 -1      3965 1.92807E-05
 -1      3966 1.10259E-05
 -1      3967 1.70274E-05
 -1      3968 1.09664E-05
 -1      3969 3.47111E-05
 -1      3970 1.32578E-04
 -1      3971 1.45697E-04
 -1      3972 3.23992E-05
 -1      3973 7.54504E-01
 -1      3974 2.77665E-01
 -1      3975 1.11829E-05
 -1      3976 1.16168E-05
 -1      3977 1.77220E-05
 -1      3978 1.94399E-05
 -1      3979 1.98738E-05
 -1      3980 6.80237E-10
 -1      3981 2.67455E-11
 -1      3982 2.71527E-11
 -1      3983 3.18572E-11
 -1      3984 3.26409E-05
 -1      3985 1.45345E-04
 -1      3986 3.43589E-05
 -1      3987 1.32578E-04
 -1      3988 1.33016E-10
 -1      3989 7.78143E-01
 -1      3990 1.70701E-11
 -1      3991 2.46476E-02
 -1      3992 1.00687E-02
 -1      3993 1.46741E-02
 -1      3994 5.86765E-03
 -1      3995 1.39495E-02
 -1      3996 3.32321E-12
 -1      3997 1.18197E-10
 -1      3998 1.02226E-09
 -1      3999 2.38837E-02
 -1      4000 6.44690E-11
 -1      4001 1.09314E-10
 -1      4002 1.09314E-10
 -1      4003 4.67125E-11
 -1      4004 4.67125E-11
 -1      4005 2.32317E-01
 -1      4006 1.59089E-02
 -1      4007 3.42647E+00
 -1      4008 8.18332E-12
 -1      4009 1.20842E-11
 -1      4010 1.21119E-11
 -1      4011 7.07274E-12
 -1      4012 1.09736E-11
 -1      4013 7.04503E-12
 -1      4014 2.93550E-08
 -1      4015 3.32379E-09
 -1      4016 7.72928E-12
 -1      4017 6.67626E-12
 -1      4018 1.07185E-10
 -1      4019 1.84972E-08
 -1      4020 3.25876E-08
 -1      4021 1.52043E-10
 -1      4022 1.96888E-10
 -1      4023 4.92755E-03
 -1      4024 4.20292E-03
 -1      4025 1.20842E-11
 -1      4026 8.15561E-12
 -1      4027 9.82467E-12
 -1      4028 9.82467E-12
 -1      4029 1.37533E-11
 -1      4030 1.80010E-10
 -1      4031 1.37281E-10
 -1      4032 1.46080E-11
 -1      4033 1.22794E-09
 -1      4034 7.71262E-01
 -1      4035 8.15561E-12
 -1      4036 7.55236E-12
 -1      4037 7.55236E-12
 -1      4038 9.82467E-12
 -1      4039 1.58387E-05
 -1      4040 1.28543E-04
 -1      4041 1.74980E-05
 -1      4042 1.75567E-05
 -1      4043 9.29968E-06
 -1      4044 1.52448E-05
 -1      4045 9.24326E-06
 -1      4046 1.28543E-04
 -1      4047 2.26208E-11
 -1      4048 7.18785E-12
 -1      4049 2.26208E-11
 -1      4050 2.19941E-11
 -1      4051 6.56115E-12
 -1      4052 5.94505E-10
 -1      4053 2.12817E-10
 -1      4054 1.01352E-07
 -1      4055 7.41490E-08
 -1      4056 5.46817E-08
 -1      4057 8.16031E-08
 -1      4058 5.44001E-08
 -1      4059 7.51525E-08
 -1      4060 1.02971E-07
 -1      4061 5.52968E-08
 -1      4062 8.22182E-08
 -1      4063 2.55086E-02
 -1      4064 7.04503E-12
 -1      4065 5.93445E-12
 -1      4066 5.38876E-12
 -1      4067 6.49933E-12
 -1      4068 2.70333E-11
 -1      4069 2.31324E-11
 -1      4070 3.40579E-10
 -1      4071 7.82094E-12
 -1      4072 1.38684E-11
 -1      4073 1.45015E-11
 -1      4074 9.97389E-12
 -1      4075 1.60213E-11
 -1      4076 8.43272E-12
 -1      4077 9.34932E-12
 -1      4078 1.10909E-11
 -1      4079 1.47402E-11
 -1      4080 1.21375E-11
 -1      4081 6.22009E-12
 -1      4082 1.83725E-11
 -1      4083 8.86949E-11
 -1      4084 1.83341E-11
 -1      4085 8.86565E-11
 -1      4086 1.10909E-11
 -1      4087 1.14937E-11
 -1      4088 5.48042E-12
 -1      4089 5.93445E-12
 -1      4090 1.40334E-10
 -1      4091 3.94138E-12
 -1      4092 4.29736E-12
 -1      4093 8.21602E-10
 -1      4094 2.10818E-11
 -1      4095 2.25057E-11
 -1      4096 1.35444E-11
 -1      4097 9.50633E-03
 -1      4098 6.17179E-08
 -1      4099 6.20826E-08
 -1      4100 6.91760E-08
 -1      4101 2.04796E-04
 -1      4102 1.90659E-04
 -1      4103 8.13215E-08
 -1      4104 8.13215E-08
 -1      4105 1.18059E-02
 -1      4106 2.30271E-01
 -1      4107 2.72193E-03
 -1      4108 2.72193E-03
 -1      4109 3.81114E-11
 -1      4110 2.24844E-11
 -1      4111 4.10125E-12
 -1      4112 5.06901E-12
 -1      4113 5.06901E-12
 -1      4114 4.86438E-12
 -1      4115 6.87663E-12
 -1      4116 6.87663E-12
 -1      4117 1.86816E-11
 -1      4118 1.86816E-11
 -1      4119 1.81359E-11
 -1      4120 1.82808E-11
 -1      4121 1.93147E-11
 -1      4122 1.08660E-05
 -1      4123 1.09435E-05
 -1      4124 1.11632E-05
 -1      4125 1.15046E-05
 -1      4126 7.44578E-12
 -1      4127 1.13744E-11
 -1      4128 1.98623E-04
 -1      4129 1.85503E-04
 -1      4130 2.04149E-04
 -1      4131 1.10030E-05
 -1      4132 8.33253E-12
 -1      4133 8.33253E-12
 -1      4134 7.22196E-12
 -1      4135 5.75932E-09
 -1      4136 1.20411E-08
 -1      4137 5.56957E-09
 -1      4138 1.13932E-08
 -1      4139 9.03040E-01
 -1      4140 5.67798E-09
 -1      4141 5.55610E-09
 -1      4142 3.72699E-01
 -1      4143 9.17201E-01
 -1      4144 2.69132E-03
 -1      4145 1.37333E-06
 -1      4146 4.77485E-12
 -1      4147 3.78577E-12
 -1      4148 6.89795E-12
 -1      4149 1.00229E-11
 -1      4150 1.60128E-11
 -1      4151 1.30584E-11
 -1      4152 1.29774E-11
 -1      4153 5.28217E-12
 -1      4154 3.05889E-11
 -1      4155 2.33669E-11
 -1      4156 1.52725E-03
 -1      4157 4.24961E-09
 -1      4158 2.96624E-04
 -1      4159 4.19318E-06
 -1      4160 5.47863E-08
 -1      4161 7.42535E-08
 -1      4162 1.71279E-09
 -1      4163 4.25314E-09
 -1      4164 8.13215E-08
 -1      4165 1.10707E-05
 -1      4166 1.41337E-06
 -1      4167 5.20613E-08
 -1      4168 5.54508E-08
 -1      4169 7.53066E-08
 -1      4170 2.08768E-01
 -1      4171 1.98270E-04
 -1      4172 5.11934E-08
 -1      4173 4.13971E-06
 -1      4174 1.49982E-03
 -1      4175 1.71154E-08
 -1      4176 2.93163E-04
 -1      4177 1.70623E-08
 -1      4178 4.02878E-12
 -1      4179 5.24381E-12
 -1      4180 3.78577E-12
 -1      4181 1.60128E-11
 -1      4182 3.78577E-12
 -1      4183 1.79504E-11
 -1      4184 7.07274E-12
 -1      4185 6.96616E-12
 -1      4186 2.04913E-11
 -1      4187 2.04913E-11
 -1      4188 5.01914E-09
 -1      4189 4.91448E-09
 -1      4190 2.17793E-04
 -1      4191 2.18064E-04
 -1      4192 6.68171E-06
 -1      4193 5.97604E-06
 -1      4194 4.92306E-09
 -1      4195 2.06543E-03
 -1      4196 5.95607E-06
 -1      4197 4.97659E-09
 -1      4198 3.12632E-08
 -1      4199 1.10909E-11
 -1      4200 5.48042E-12
 -1      4201 1.43523E-11
 -1      4202 3.27263E-08
 -1      4203 2.14723E-04
 -1      4204 6.67768E-06
 -1      4205 2.11808E-04
 -1      4206 1.91669E-03
 -1      4207 3.14478E-08
 -1      4208 3.35395E-08
 -1      4209 2.43564E-04
 -1      4210 1.81468E-04
 -1      4211 2.31941E-03
 -1      4212 5.28431E-12
 -1      4213 6.21156E-12
 -1      4214 6.87663E-12
 -1      4215 2.93014E-11
 -1      4216 2.23949E-11
 -1      4217 1.36424E-11
 -1      4218 1.84556E-11
 -1      4219 3.81114E-11
 -1      4220 5.89608E-12
 -1      4221 7.62270E-12
 -1      4222 5.62150E-03
 -1      4223 1.86682E-04
 -1      4224 5.10402E-09
 -1      4225 6.94402E-09
 -1      4226 6.95044E-09
 -1      4227 4.02878E-12
 -1      4228 1.79504E-11
 -1      4229 3.65787E-12
 -1      4230 5.52944E-12
 -1      4231 1.08074E-11
 -1      4232 8.29694E-10
 -1      4233 7.60139E-05
 -1      4234 5.56118E-09
 -1      4235 7.73872E-06
 -1      4236 5.02132E-06
 -1      4237 9.22033E-06
 -1      4238 4.15691E-08
 -1      4239 5.34589E-08
 -1      4240 5.36129E-08
 -1      4241 9.18746E-06
 -1      4242 5.51435E-09
 -1      4243 7.78046E-06
 -1      4244 1.80108E-03
 -1      4245 5.35635E-08
 -1      4246 1.24459E-06
 -1      4247 3.70160E-08
 -1      4248 3.64862E-08
 -1      4249 7.71164E-05
 -1      4250 5.11164E-12
 -1      4251 5.48042E-12
 -1      4252 5.34612E-12
 -1      4253 1.58572E-11
 -1      4254 1.14937E-11
 -1      4255 1.17112E-11
 -1      4256 3.45648E-07
 -1      4257 1.23264E-07
 -1      4258 2.99403E-07
 -1      4259 5.67118E-10
 -1      4260 8.14700E-10
 -1      4261 1.07447E-10
 -1      4262 5.83648E-08
 -1      4263 2.03689E-08
 -1      4264 8.24612E-08
 -1      4265 1.03078E-07
 -1      4266 1.45851E-07
 -1      4267 1.36513E-07
 -1      4268 7.28475E+00
 -1      4269 1.09583E+01
 -1      4270 7.28475E+00
 -1      4271 7.28475E+00
 -1      4272 2.45402E-01
 -1      4273 6.51639E-12
 -1      4274 3.72523E-11
 -1      4275 8.38216E-02
 -1      4276 1.68284E-08
 -1      4277 2.91312E-08
 -1      4278 3.27272E-08
 -1      4279 2.95815E-08
 -1      4280 1.75079E-10
 -1      4281 8.34933E-10
 -1      4282 7.10604E-10
 -1      4283 9.17993E-08
 -1      4284 9.75807E-08
 -1      4285 2.14836E-10
 -1      4286 1.18267E+00
 -1      4287 7.43789E-08
 -1      4288 3.09779E-08
 -1      4289 6.08452E-08
 -1      4290 7.89609E-08
 -1      4291 1.09158E+01
 -1      4292 6.92576E+00
 -1      4293 7.30889E+00
 -1      4294 7.30889E+00
 -1      4295 1.12417E-07
 -1      4296 1.09335E+01
 -1      4297 7.24941E+00
 -1      4298 7.32321E+00
 -1      4299 7.32321E+00
 -1      4300 7.12618E-08
 -1      4301 1.29100E-07
 -1      4302 8.84677E-08
 -1      4303 9.41696E-08
 -1      4304 3.06292E-08
 -1      4305 7.70514E+00
 -1      4306 6.14584E+00
 -1      4307 5.69705E-08
 -1      4308 5.12715E-08
 -1      4309 1.09243E+01
 -1      4310 6.93273E+00
 -1      4311 7.22699E+00
 -1      4312 7.22699E+00
 -1      4313 9.04876E-12
 -1      4314 9.12976E-12
 -1      4315 9.75277E+00
 -1      4316 7.51635E+00
 -1      4317 6.05662E+00
 -1      4318 5.08213E-08
 -1      4319 8.46340E-08
 -1      4320 4.76755E-08
 -1      4321 9.10915E+00
 -1      4322 7.65369E+00
 -1      4323 9.75277E+00
 -1      4324 7.00449E-08
 -1      4325 9.45840E+00
 -1      4326 5.78482E+00
 -1      4327 9.75393E+00
 -1      4328 7.72707E+00
 -1      4329 9.75393E+00
 -1      4330 6.51426E-12
 -1      4331 6.87663E-12
 -1      4332 5.66160E-12
 -1      4333 4.94111E-12
 -1      4334 4.94111E-12
 -1      4335 5.58487E-12
 -1      4336 8.99760E-12
 -1      4337 8.99760E-12
 -1      4338 6.89369E-12
 -1      4339 2.80011E-11
 -1      4340 2.24844E-11
 -1      4341 2.44221E-11
 -1      4342 4.88799E-05
 -1      4343 3.21791E-05
 -1      4344 4.86085E-05
 -1      4345 1.51031E-08
 -1      4346 1.26878E-08
 -1      4347 1.25831E-08
 -1      4348 1.30281E-05
 -1      4349 1.20005E-05
 -1      4350 1.27061E-05
 -1      4351 1.19845E-08
 -1      4352 1.44463E-08
 -1      4353 1.19310E-08
 -1      4354 4.78964E-05
 -1      4355 3.22456E-05
 -1      4356 5.08117E-05
 -1      4357 5.62632E-08
 -1      4358 6.08452E-08
 -1      4359 1.33290E-05
 -1      4360 1.33424E-05
 -1      4361 1.26073E-05
 -1      4362 7.87830E-08
 -1      4363 8.10593E-08
 -1      4364 7.72182E-08
 -1      4365 3.60799E-11
 -1      4366 2.60632E-03
 -1      4367 2.45758E-03
 -1      4368 2.81473E-03
 -1      4369 1.36237E-10
 -1      4370 3.64508E-12
 -1      4371 1.03232E-09
 -1      4372 1.14921E-02
 -1      4373 7.56184E+00
 -1      4374 9.76572E+00
 -1      4375 6.15544E+00
 -1      4376 1.29203E-07
 -1      4377 1.29100E-07
 -1      4378 9.41696E-08
 -1      4379 9.25959E+00
 -1      4380 7.60393E-08
 -1      4381 7.80135E-08
 -1      4382 7.92919E-08
 -1      4383 9.25339E+00
 -1      4384 9.45840E+00
 -1      4385 2.03623E-01
 -1      4386 1.10416E-07
 -1      4387 9.76572E+00
 -1      4388 6.78924E-12
 -1      4389 6.89582E-12
 -1      4390 7.64402E-12
 -1      4391 7.43789E-08
 -1      4392 6.96823E-10
 -1      4393 1.38526E-07
 -1      4394 1.34802E-07
 -1      4395 7.94181E-10
 -1      4396 6.44721E-09
 -1      4397 4.59797E-09
 -1      4398 3.60631E-10
 -1      4399 1.02049E-09
 -1      4400 9.90802E-11
 -1      4401 2.13062E-09
 -1      4402 3.80864E-10
 -1      4403 8.62457E-11
 -3
    1PSTEP                         4           1           2          
    1PGM                1.000000E+00                                  
    1PGK                3.906955E+07                                  
    1PHID                         -1                                  
    1PSUBC                         0                                  
    1PMODE                         1                                  
  100CL  102 994.8081810        4403                     2    2MODAL      1
 -4  DISP        4    1
 -5  D1          1    2    1    0
 -5  D2          1    2    2    0
 -5  D3          1    2    3    0
 -5  ALL         1    2    0    0    1ALL
 -1         1 0.00000E+00 0.00000E+00 0.00000E+00
 -1         2 0.00000E+00 0.00000E+00 0.00000E+00
 -1         3 0.00000E+00 0.00000E+00 0.00000E+00
 -1         4 0.00000E+00 0.00000E+00 0.00000E+00
 -1         5-7.64146E+00 8.57019E+01 2.04053E+02
 -1         6 1.87082E+01 8.57008E+01 2.04052E+02
 -1         7-1.87082E+01 8.56997E+01 2.04053E+02
 -1         8 7.64152E+00 8.57029E+01 2.04054E+02
 -1         9 0.00000E+00 0.00000E+00 0.00000E+00
 -1        10 0.00000E+00 0.00000E+00 0.00000E+00
 -1        11 0.00000E+00 0.00000E+00 0.00000E+00
 -1        12 0.00000E+00 0.00000E+00 0.00000E+00
 -1        13 0.00000E+00 0.00000E+00 0.00000E+00
 -1        14 0.00000E+00 0.00000E+00 0.00000E+00
 -1        15 0.00000E+00 0.00000E+00 0.00000E+00
 -1        16 0.00000E+00 0.00000E+00 0.00000E+00
 -1        17 0.00000E+00 0.00000E+00 0.00000E+00
 -1        18 0.00000E+00 0.00000E+00 0.00000E+00
 -1        19 0.00000E+00 0.00000E+00 0.00000E+00
 -1        20 0.00000E+00 0.00000E+00 0.00000E+00
 -1        21 0.00000E+00 0.00000E+00 0.00000E+00
 -1        22 0.00000E+00 0.00000E+00 0.00000E+00
 -1        23 0.00000E+00 0.00000E+00 0.00000E+00
 -1        24 0.00000E+00 0.00000E+00 0.00000E+00
 -1        25 0.00000E+00 0.00000E+00 0.00000E+00
 -1        26 0.00000E+00 0.00000E+00 0.00000E+00
 -1        27 0.00000E+00 0.00000E+00 0.00000E+00
 -1        28 0.00000E+00 0.00000E+00 0.00000E+00
 -1        29 0.00000E+00 0.00000E+00 0.00000E+00
 -1        30 0.00000E+00 0.00000E+00 0.00000E+00
 -1        31 0.00000E+00 0.00000E+00 0.00000E+00
 -1        32 0.00000E+00 0.00000E+00 0.00000E+00
 -1        33 0.00000E+00 0.00000E+00 0.00000E+00
 -1        34 0.00000E+00 0.00000E+00 0.00000E+00
 -1        35 0.00000E+00 0.00000E+00 0.00000E+00
 -1        36 0.00000E+00 0.00000E+00 0.00000E+00
 -1        37 1.21277E+01 8.57020E+01 2.04058E+02
 -1        38 5.53242E+00 8.57006E+01 2.04061E+02
 -1        39-1.06285E+00 8.56991E+01 2.04059E+02
 -1        40 1.54211E+01 8.57018E+01 2.04055E+02
 -1        41 8.83083E+00 8.57014E+01 2.04060E+02
 -1        42 2.23403E+00 8.56996E+01 2.04061E+02
 -1        43-4.35586E+00 8.56997E+01 2.04056E+02
 -1        44-1.04027E+01 8.57041E+01 2.04051E+02
 -1        45-1.31727E+01 8.57042E+01 2.04052E+02
 -1        46-1.59428E+01 8.57020E+01 2.04053E+02
 -1        47-9.02001E+00 8.57030E+01 2.04051E+02
 -1        48-1.17873E+01 8.57045E+01 2.04051E+02
 -1        49-1.45580E+01 8.57034E+01 2.04052E+02
 -1        50-1.73262E+01 8.57007E+01 2.04053E+02
 -1        51 1.06272E+00 8.56998E+01 2.04060E+02
 -1        52-5.53250E+00 8.57005E+01 2.04062E+02
 -1        53-1.21278E+01 8.57016E+01 2.04059E+02
 -1        54 4.35587E+00 8.57007E+01 2.04057E+02
 -1        55-2.23404E+00 8.56999E+01 2.04062E+02
 -1        56-8.83084E+00 8.57012E+01 2.04061E+02
 -1        57-1.54212E+01 8.57009E+01 2.04056E+02
 -1        58 1.59427E+01 8.57031E+01 2.04052E+02
 -1        59 1.31727E+01 8.57055E+01 2.04051E+02
 -1        60 1.04028E+01 8.57052E+01 2.04052E+02
 -1        61 1.73261E+01 8.57018E+01 2.04052E+02
 -1        62 1.45581E+01 8.57045E+01 2.04052E+02
 -1        63 1.17873E+01 8.57056E+01 2.04051E+02
 -1        64 9.01997E+00 8.57040E+01 2.04052E+02
 -1        65 1.60792E+00 6.52687E-01 6.53811E-01
 -1        66 3.08046E+00 1.14071E+00 1.68878E+00
 -1        67 4.52226E+00 1.82139E+00 3.33895E+00
 -1        68 5.89546E+00 2.74009E+00 5.57741E+00
 -1        69 7.19423E+00 3.88864E+00 8.37184E+00
 -1        70 8.40984E+00 5.25693E+00 1.16860E+01
 -1        71 9.54959E+00 6.83142E+00 1.54866E+01
 -1        72 1.06107E+01 8.59575E+00 1.97429E+01
 -1        73 1.15952E+01 1.05391E+01 2.44220E+01
 -1        74 1.25075E+01 1.26468E+01 2.94930E+01
 -1        75 1.33471E+01 1.49070E+01 3.49247E+01
 -1        76 1.41152E+01 1.73070E+01 4.06884E+01
 -1        77 1.48139E+01 1.98350E+01 4.67543E+01
 -1        78 1.54488E+01 2.24780E+01 5.30953E+01
 -1        79 1.60170E+01 2.52260E+01 5.96825E+01
 -1        80 1.65231E+01 2.80671E+01 6.64909E+01
 -1        81 1.69710E+01 3.09919E+01 7.34938E+01
 -1        82 1.73610E+01 3.39883E+01 8.06682E+01
 -1        83 1.76958E+01 3.70483E+01 8.79903E+01
 -1        84 1.79818E+01 4.01611E+01 9.54384E+01
 -1        85 1.82171E+01 4.33193E+01 1.02991E+02
 -1        86 1.84096E+01 4.65149E+01 1.10629E+02
 -1        87 1.85597E+01 4.97396E+01 1.18334E+02
 -1        88 1.86727E+01 5.29863E+01 1.26090E+02
 -1        89 1.87522E+01 5.62499E+01 1.33882E+02
 -1        90 1.88017E+01 5.95237E+01 1.41697E+02
 -1        91 1.88266E+01 6.28037E+01 1.49523E+02
 -1        92 1.88310E+01 6.60857E+01 1.57350E+02
 -1        93 1.88198E+01 6.93667E+01 1.65170E+02
 -1        94 1.87978E+01 7.26438E+01 1.72979E+02
 -1        95 1.87705E+01 7.59163E+01 1.80773E+02
 -1        96 1.87432E+01 7.91832E+01 1.88549E+02
 -1        97 1.87212E+01 8.24449E+01 1.96310E+02
 -1        98 8.71263E-01 4.37563E-01 3.64298E-01
 -1        99 2.34621E+00 8.80186E-01 1.09675E+00
 -1       100 3.80834E+00 1.45192E+00 2.43799E+00
 -1       101 5.21833E+00 2.25112E+00 4.38678E+00
 -1       102 6.55442E+00 3.28598E+00 6.90722E+00
 -1       103 7.81189E+00 4.54679E+00 9.96606E+00
 -1       104 8.98947E+00 6.01945E+00 1.35275E+01
 -1       105 1.00891E+01 7.69038E+00 1.75602E+01
 -1       106 1.11122E+01 9.54596E+00 2.20317E+01
 -1       107 1.20606E+01 1.15729E+01 2.69103E+01
 -1       108 1.29358E+01 1.37586E+01 3.21657E+01
 -1       109 1.37394E+01 1.60904E+01 3.77673E+01
 -1       110 1.44729E+01 1.85558E+01 4.36854E+01
 -1       111 1.51394E+01 2.11424E+01 4.98918E+01
 -1       112 1.57403E+01 2.38397E+01 5.63596E+01
 -1       113 1.62777E+01 2.66357E+01 6.30608E+01
 -1       114 1.67543E+01 2.95198E+01 6.99695E+01
 -1       115 1.71725E+01 3.24816E+01 7.70613E+01
 -1       116 1.75349E+01 3.55110E+01 8.43123E+01
 -1       117 1.78448E+01 3.85984E+01 9.16998E+01
 -1       118 1.81051E+01 4.17353E+01 9.92026E+01
 -1       119 1.83187E+01 4.49130E+01 1.06800E+02
 -1       120 1.84894E+01 4.81239E+01 1.14474E+02
 -1       121 1.86205E+01 5.13605E+01 1.22207E+02
 -1       122 1.87163E+01 5.46164E+01 1.29982E+02
 -1       123 1.87801E+01 5.78858E+01 1.37787E+02
 -1       124 1.88170E+01 6.11632E+01 1.45609E+02
 -1       125 1.88310E+01 6.44447E+01 1.53436E+02
 -1       126 1.88271E+01 6.77264E+01 1.61261E+02
 -1       127 1.88097E+01 7.10058E+01 1.69077E+02
 -1       128 1.87845E+01 7.42807E+01 1.76878E+02
 -1       129 1.87565E+01 7.75504E+01 1.84663E+02
 -1       130 1.87313E+01 8.08147E+01 1.92431E+02
 -1       131 1.87131E+01 8.40739E+01 2.00185E+02
 -1       132-6.57586E-01-2.67438E-01 2.67154E-01
 -1       133-1.25804E+00 9.40205E-02 1.25028E+00
 -1       134-1.84726E+00 8.03094E-01 2.91073E+00
 -1       135-2.40841E+00 1.77620E+00 5.17337E+00
 -1       136-2.93824E+00 2.98337E+00 7.99088E+00
 -1       137-3.43503E+00 4.40948E+00 1.13299E+01
 -1       138-3.90062E+00 6.03899E+00 1.51546E+01
 -1       139-4.33321E+00 7.85984E+00 1.94349E+01
 -1       140-4.73673E+00 9.85518E+00 2.41355E+01
 -1       141-5.10897E+00 1.20163E+01 2.92281E+01
 -1       142-5.45132E+00 1.43284E+01 3.46825E+01
 -1       143-5.76494E+00 1.67791E+01 4.04675E+01
 -1       144-6.05137E+00 1.93540E+01 4.65532E+01
 -1       145-6.30982E+00 2.20447E+01 5.29131E+01
 -1       146-6.54210E+00 2.48390E+01 5.95202E+01
 -1       147-6.74939E+00 2.77235E+01 6.63468E+01
 -1       148-6.93176E+00 3.06901E+01 7.33678E+01
 -1       149-7.09100E+00 3.37267E+01 8.05589E+01
 -1       150-7.22816E+00 3.68241E+01 8.78968E+01
 -1       151-7.34466E+00 3.99732E+01 9.53593E+01
 -1       152-7.44094E+00 4.31647E+01 1.02926E+02
 -1       153-7.51934E+00 4.63907E+01 1.10577E+02
 -1       154-7.58088E+00 4.96436E+01 1.18294E+02
 -1       155-7.62707E+00 5.29163E+01 1.26061E+02
 -1       156-7.65917E+00 5.62026E+01 1.33863E+02
 -1       157-7.67987E+00 5.94955E+01 1.41685E+02
 -1       158-7.68995E+00 6.27922E+01 1.49518E+02
 -1       159-7.69162E+00 6.60874E+01 1.57351E+02
 -1       160-7.68702E+00 6.93774E+01 1.65175E+02
 -1       161-7.67804E+00 7.26607E+01 1.72987E+02
 -1       162-7.66699E+00 7.59348E+01 1.80781E+02
 -1       163-7.65584E+00 7.91998E+01 1.88557E+02
 -1       164-7.64684E+00 8.24560E+01 1.96315E+02
 -1       165-3.56194E-01-2.54414E-01 7.28849E-02
 -1       166-9.58638E-01-1.37970E-01 6.69452E-01
 -1       167-1.55543E+00 4.12686E-01 2.00144E+00
 -1       168-2.13156E+00 1.25878E+00 3.96992E+00
 -1       169-2.67748E+00 2.35169E+00 6.51523E+00
 -1       170-3.19046E+00 3.66973E+00 9.59739E+00
 -1       171-3.67190E+00 5.19970E+00 1.31836E+01
 -1       172-4.12069E+00 6.92609E+00 1.72399E+01
 -1       173-4.53866E+00 8.83622E+00 2.17340E+01
 -1       174-4.92655E+00 1.09161E+01 2.66347E+01
 -1       175-5.28356E+00 1.31541E+01 3.19121E+01
 -1       176-5.61176E+00 1.55370E+01 3.75353E+01
 -1       177-5.91145E+00 1.80515E+01 4.34740E+01
 -1       178-6.18386E+00 2.06860E+01 4.97005E+01
 -1       179-6.42910E+00 2.34297E+01 5.61875E+01
 -1       180-6.64870E+00 2.62705E+01 6.29073E+01
 -1       181-6.84340E+00 2.91973E+01 6.98343E+01
 -1       182-7.01417E+00 3.22001E+01 7.69435E+01
 -1       183-7.16226E+00 3.52682E+01 8.42107E+01
 -1       184-7.28890E+00 3.83929E+01 9.16139E+01
 -1       185-7.39502E+00 4.15639E+01 9.91308E+01
 -1       186-7.48235E+00 4.47739E+01 1.06742E+02
 -1       187-7.55209E+00 4.80142E+01 1.14428E+02
 -1       188-7.60571E+00 5.12779E+01 1.22172E+02
 -1       189-7.64466E+00 5.45579E+01 1.29958E+02
 -1       190-7.67086E+00 5.78484E+01 1.37772E+02
 -1       191-7.68602E+00 6.11438E+01 1.45601E+02
 -1       192-7.69165E+00 6.44400E+01 1.53435E+02
 -1       193-7.69003E+00 6.77331E+01 1.61264E+02
 -1       194-7.68290E+00 7.10200E+01 1.69083E+02
 -1       195-7.67266E+00 7.42988E+01 1.76886E+02
 -1       196-7.66127E+00 7.75684E+01 1.84671E+02
 -1       197-7.65093E+00 8.08289E+01 1.92438E+02
 -1       198-7.64347E+00 8.40809E+01 2.00188E+02
 -1       199 6.57446E-01-2.67551E-01 2.67347E-01
 -1       200 1.25901E+00 9.48691E-02 1.24999E+00
 -1       201 1.84678E+00 8.03509E-01 2.91113E+00
 -1       202 2.40855E+00 1.77616E+00 5.17370E+00
 -1       203 2.93837E+00 2.98412E+00 7.99236E+00
 -1       204 3.43567E+00 4.41000E+00 1.13308E+01
 -1       205 3.90050E+00 6.04005E+00 1.51559E+01
 -1       206 4.33369E+00 7.86054E+00 1.94356E+01
 -1       207 4.73665E+00 9.85607E+00 2.41356E+01
 -1       208 5.10874E+00 1.20170E+01 2.92289E+01
 -1       209 5.45127E+00 1.43292E+01 3.46832E+01
 -1       210 5.76494E+00 1.67798E+01 4.04682E+01
 -1       211 6.05124E+00 1.93547E+01 4.65538E+01
 -1       212 6.31008E+00 2.20460E+01 5.29144E+01
 -1       213 6.54266E+00 2.48392E+01 5.95209E+01
 -1       214 6.74935E+00 2.77245E+01 6.63471E+01
 -1       215 6.93162E+00 3.06908E+01 7.33685E+01
 -1       216 7.09104E+00 3.37276E+01 8.05597E+01
 -1       217 7.22841E+00 3.68248E+01 8.78973E+01
 -1       218 7.34447E+00 3.99740E+01 9.53599E+01
 -1       219 7.44110E+00 4.31656E+01 1.02927E+02
 -1       220 7.51936E+00 4.63920E+01 1.10578E+02
 -1       221 7.58082E+00 4.96447E+01 1.18295E+02
 -1       222 7.62699E+00 5.29175E+01 1.26062E+02
 -1       223 7.65933E+00 5.62037E+01 1.33864E+02
 -1       224 7.67980E+00 5.94967E+01 1.41686E+02
 -1       225 7.68988E+00 6.27933E+01 1.49519E+02
 -1       226 7.69162E+00 6.60882E+01 1.57352E+02
 -1       227 7.68716E+00 6.93785E+01 1.65177E+02
 -1       228 7.67807E+00 7.26617E+01 1.72988E+02
 -1       229 7.66686E+00 7.59359E+01 1.80782E+02
 -1       230 7.65574E+00 7.92009E+01 1.88558E+02
 -1       231 7.64674E+00 8.24571E+01 1.96316E+02
 -1       232 3.56367E-01-2.53633E-01 7.39818E-02
 -1       233 9.59162E-01-1.37848E-01 6.69885E-01
 -1       234 1.55580E+00 4.12800E-01 2.00185E+00
 -1       235 2.13128E+00 1.25930E+00 3.97035E+00
 -1       236 2.67725E+00 2.35222E+00 6.51562E+00
 -1       237 3.19073E+00 3.67076E+00 9.59835E+00
 -1       238 3.67203E+00 5.20028E+00 1.31844E+01
 -1       239 4.12095E+00 6.92705E+00 1.72408E+01
 -1       240 4.53907E+00 8.83675E+00 2.17347E+01
 -1       241 4.92635E+00 1.09168E+01 2.66354E+01
 -1       242 5.28342E+00 1.31548E+01 3.19128E+01
 -1       243 5.61174E+00 1.55377E+01 3.75361E+01
 -1       244 5.91140E+00 1.80522E+01 4.34748E+01
 -1       245 6.18377E+00 2.06869E+01 4.97013E+01
 -1       246 6.42947E+00 2.34306E+01 5.61883E+01
 -1       247 6.64906E+00 2.62710E+01 6.29080E+01
 -1       248 6.84326E+00 2.91980E+01 6.98350E+01
 -1       249 7.01416E+00 3.22009E+01 7.69442E+01
 -1       250 7.16245E+00 3.52691E+01 8.42116E+01
 -1       251 7.28879E+00 3.83934E+01 9.16145E+01
 -1       252 7.39496E+00 4.15649E+01 9.91317E+01
 -1       253 7.48243E+00 4.47750E+01 1.06743E+02
 -1       254 7.55206E+00 4.80154E+01 1.14429E+02
 -1       255 7.60568E+00 5.12789E+01 1.22173E+02
 -1       256 7.64475E+00 5.45591E+01 1.29960E+02
 -1       257 7.67099E+00 5.78494E+01 1.37773E+02
 -1       258 7.68593E+00 6.11449E+01 1.45602E+02
 -1       259 7.69165E+00 6.44410E+01 1.53436E+02
 -1       260 7.69000E+00 6.77341E+01 1.61265E+02
 -1       261 7.68300E+00 7.10211E+01 1.69084E+02
 -1       262 7.67260E+00 7.42999E+01 1.76887E+02
 -1       263 7.66117E+00 7.75696E+01 1.84672E+02
 -1       264 7.65089E+00 8.08300E+01 1.92439E+02
 -1       265 7.64348E+00 8.40820E+01 2.00189E+02
 -1       266-1.60781E+00 6.52542E-01 6.55007E-01
 -1       267-3.08091E+00 1.13969E+00 1.68968E+00
 -1       268-4.52224E+00 1.82178E+00 3.33824E+00
 -1       269-5.89586E+00 2.73931E+00 5.57797E+00
 -1       270-7.19408E+00 3.88834E+00 8.37290E+00
 -1       271-8.40960E+00 5.25616E+00 1.16866E+01
 -1       272-9.54957E+00 6.83055E+00 1.54874E+01
 -1       273-1.06107E+01 8.59497E+00 1.97436E+01
 -1       274-1.15952E+01 1.05384E+01 2.44228E+01
 -1       275-1.25074E+01 1.26461E+01 2.94937E+01
 -1       276-1.33470E+01 1.49063E+01 3.49253E+01
 -1       277-1.41152E+01 1.73058E+01 4.06899E+01
 -1       278-1.48139E+01 1.98342E+01 4.67551E+01
 -1       279-1.54487E+01 2.24773E+01 5.30960E+01
 -1       280-1.60170E+01 2.52253E+01 5.96832E+01
 -1       281-1.65230E+01 2.80664E+01 6.64916E+01
 -1       282-1.69710E+01 3.09909E+01 7.34951E+01
 -1       283-1.73611E+01 3.39878E+01 8.06687E+01
 -1       284-1.76967E+01 3.70476E+01 8.79908E+01
 -1       285-1.79815E+01 4.01602E+01 9.54392E+01
 -1       286-1.82173E+01 4.33185E+01 1.02992E+02
 -1       287-1.84096E+01 4.65139E+01 1.10629E+02
 -1       288-1.85596E+01 4.97384E+01 1.18335E+02
 -1       289-1.86726E+01 5.29852E+01 1.26091E+02
 -1       290-1.87521E+01 5.62489E+01 1.33883E+02
 -1       291-1.88017E+01 5.95226E+01 1.41698E+02
 -1       292-1.88266E+01 6.28026E+01 1.49524E+02
 -1       293-1.88309E+01 6.60847E+01 1.57351E+02
 -1       294-1.88198E+01 6.93656E+01 1.65172E+02
 -1       295-1.87977E+01 7.26428E+01 1.72981E+02
 -1       296-1.87705E+01 7.59151E+01 1.80774E+02
 -1       297-1.87433E+01 7.91820E+01 1.88550E+02
 -1       298-1.87213E+01 8.24437E+01 1.96311E+02
 -1       299-8.72127E-01 4.37106E-01 3.64641E-01
 -1       300-2.34648E+00 8.79174E-01 1.09823E+00
 -1       301-3.80857E+00 1.45190E+00 2.43832E+00
 -1       302-5.21826E+00 2.25095E+00 4.38686E+00
 -1       303-6.55475E+00 3.28538E+00 6.90775E+00
 -1       304-7.81136E+00 4.54600E+00 9.96675E+00
 -1       305-8.98938E+00 6.01860E+00 1.35282E+01
 -1       306-1.00891E+01 7.68956E+00 1.75610E+01
 -1       307-1.11122E+01 9.54520E+00 2.20325E+01
 -1       308-1.20605E+01 1.15722E+01 2.69110E+01
 -1       309-1.29357E+01 1.37579E+01 3.21664E+01
 -1       310-1.37393E+01 1.60895E+01 3.77682E+01
 -1       311-1.44730E+01 1.85547E+01 4.36864E+01
 -1       312-1.51394E+01 2.11417E+01 4.98925E+01
 -1       313-1.57403E+01 2.38391E+01 5.63602E+01
 -1       314-1.62776E+01 2.66351E+01 6.30615E+01
 -1       315-1.67542E+01 2.95190E+01 6.99702E+01
 -1       316-1.71725E+01 3.24808E+01 7.70620E+01
 -1       317-1.75352E+01 3.55105E+01 8.43128E+01
 -1       318-1.78449E+01 3.85977E+01 9.17006E+01
 -1       319-1.81051E+01 4.17344E+01 9.92036E+01
 -1       320-1.83188E+01 4.49120E+01 1.06801E+02
 -1       321-1.84893E+01 4.81228E+01 1.14475E+02
 -1       322-1.86204E+01 5.13594E+01 1.22208E+02
 -1       323-1.87163E+01 5.46153E+01 1.29984E+02
 -1       324-1.87801E+01 5.78847E+01 1.37788E+02
 -1       325-1.88170E+01 6.11621E+01 1.45610E+02
 -1       326-1.88310E+01 6.44436E+01 1.53437E+02
 -1       327-1.88270E+01 6.77254E+01 1.61262E+02
 -1       328-1.88097E+01 7.10047E+01 1.69078E+02
 -1       329-1.87844E+01 7.42796E+01 1.76879E+02
 -1       330-1.87565E+01 7.75493E+01 1.84664E+02
 -1       331-1.87313E+01 8.08135E+01 1.92432E+02
 -1       332-1.87131E+01 8.40728E+01 2.00186E+02
 -1       333 0.00000E+00 0.00000E+00 0.00000E+00
 -1       334 0.00000E+00 0.00000E+00 0.00000E+00
 -1       335 0.00000E+00 0.00000E+00 0.00000E+00
 -1       336 0.00000E+00 0.00000E+00 0.00000E+00
 -1       337 0.00000E+00 0.00000E+00 0.00000E+00
 -1       338 0.00000E+00 0.00000E+00 0.00000E+00
 -1       339 0.00000E+00 0.00000E+00 0.00000E+00
 -1       340 0.00000E+00 0.00000E+00 0.00000E+00
 -1       341 0.00000E+00 0.00000E+00 0.00000E+00
 -1       342 0.00000E+00 0.00000E+00 0.00000E+00
 -1       343 0.00000E+00 0.00000E+00 0.00000E+00
 -1       344 0.00000E+00 0.00000E+00 0.00000E+00
 -1       345 0.00000E+00 0.00000E+00 0.00000E+00
 -1       346 0.00000E+00 0.00000E+00 0.00000E+00
 -1       347 0.00000E+00 0.00000E+00 0.00000E+00
 -1       348 0.00000E+00 0.00000E+00 0.00000E+00
 -1       349 0.00000E+00 0.00000E+00 0.00000E+00
 -1       350 0.00000E+00 0.00000E+00 0.00000E+00
 -1       351 0.00000E+00 0.00000E+00 0.00000E+00
 -1       352 0.00000E+00 0.00000E+00 0.00000E+00
 -1       353 0.00000E+00 0.00000E+00 0.00000E+00
 -1       354 0.00000E+00 0.00000E+00 0.00000E+00
 -1       355 0.00000E+00 0.00000E+00 0.00000E+00
 -1       356 0.00000E+00 0.00000E+00 0.00000E+00
 -1       357 0.00000E+00 0.00000E+00 0.00000E+00
 -1       358 0.00000E+00 0.00000E+00 0.00000E+00
 -1       359 0.00000E+00 0.00000E+00 0.00000E+00
 -1       360 0.00000E+00 0.00000E+00 0.00000E+00
 -1       361 0.00000E+00 0.00000E+00 0.00000E+00
 -1       362 0.00000E+00 0.00000E+00 0.00000E+00
 -1       363 0.00000E+00 0.00000E+00 0.00000E+00
 -1       364 0.00000E+00 0.00000E+00 0.00000E+00
 -1       365 0.00000E+00 0.00000E+00 0.00000E+00
 -1       366 0.00000E+00 0.00000E+00 0.00000E+00
 -1       367 0.00000E+00 0.00000E+00 0.00000E+00
 -1       368 0.00000E+00 0.00000E+00 0.00000E+00
 -1       369 0.00000E+00 0.00000E+00 0.00000E+00
 -1       370 0.00000E+00 0.00000E+00 0.00000E+00
 -1       371 0.00000E+00 0.00000E+00 0.00000E+00
 -1       372 0.00000E+00 0.00000E+00 0.00000E+00
 -1       373 0.00000E+00 0.00000E+00 0.00000E+00
 -1       374 0.00000E+00 0.00000E+00 0.00000E+00
 -1       375 0.00000E+00 0.00000E+00 0.00000E+00
 -1       376 0.00000E+00 0.00000E+00 0.00000E+00
 -1       377 0.00000E+00 0.00000E+00 0.00000E+00
 -1       378 0.00000E+00 0.00000E+00 0.00000E+00
 -1       379 0.00000E+00 0.00000E+00 0.00000E+00
 -1       380 0.00000E+00 0.00000E+00 0.00000E+00
 -1       381 0.00000E+00 0.00000E+00 0.00000E+00
 -1       382 0.00000E+00 0.00000E+00 0.00000E+00
 -1       383 0.00000E+00 0.00000E+00 0.00000E+00
 -1       384 0.00000E+00 0.00000E+00 0.00000E+00
 -1       385 0.00000E+00 0.00000E+00 0.00000E+00
 -1       386 0.00000E+00 0.00000E+00 0.00000E+00
 -1       387 0.00000E+00 0.00000E+00 0.00000E+00
 -1       388 0.00000E+00 0.00000E+00 0.00000E+00
 -1       389 0.00000E+00 0.00000E+00 0.00000E+00
 -1       390 0.00000E+00 0.00000E+00 0.00000E+00
 -1       391 0.00000E+00 0.00000E+00 0.00000E+00
 -1       392 0.00000E+00 0.00000E+00 0.00000E+00
 -1       393 0.00000E+00 0.00000E+00 0.00000E+00
 -1       394 0.00000E+00 0.00000E+00 0.00000E+00
 -1       395 0.00000E+00 0.00000E+00 0.00000E+00
 -1       396 0.00000E+00 0.00000E+00 0.00000E+00
 -1       397 0.00000E+00 0.00000E+00 0.00000E+00
 -1       398 0.00000E+00 0.00000E+00 0.00000E+00
 -1       399 0.00000E+00 0.00000E+00 0.00000E+00
 -1       400 0.00000E+00 0.00000E+00 0.00000E+00
 -1       401 0.00000E+00 0.00000E+00 0.00000E+00
 -1       402 0.00000E+00 0.00000E+00 0.00000E+00
 -1       403 0.00000E+00 0.00000E+00 0.00000E+00
 -1       404 0.00000E+00 0.00000E+00 0.00000E+00
 -1       405 0.00000E+00 0.00000E+00 0.00000E+00
 -1       406-8.53076E+00 8.57037E+01 2.04056E+02
 -1       407 6.34511E+00 8.57046E+01 2.04056E+02
 -1       408-3.66225E-01 8.57018E+01 2.04059E+02
 -1       409 8.99102E+00 8.57042E+01 2.04056E+02
 -1       410 2.54622E+00 8.57040E+01 2.04059E+02
 -1       411-1.95298E-01 8.57026E+01 2.04060E+02
 -1       412-6.48997E+00 8.57038E+01 2.04055E+02
 -1       413 5.88403E+00 8.57027E+01 2.04060E+02
 -1       414-6.98827E+00 8.57022E+01 2.04060E+02
 -1       415-3.15396E+00 8.57035E+01 2.04059E+02
 -1       416-4.84814E+00 8.57022E+01 2.04056E+02
 -1       417 4.84830E+00 8.57027E+01 2.04056E+02
 -1       418 1.18698E+01 8.57028E+01 2.04056E+02
 -1       419-1.19260E+01 8.57020E+01 2.04056E+02
 -1       420-1.60143E+00 8.57035E+01 2.04059E+02
 -1       421-2.95464E+00 8.57005E+01 2.04057E+02
 -1       422-6.24582E+00 8.57013E+01 2.04054E+02
 -1       423-7.62714E+00 8.57033E+01 2.04053E+02
 -1       424 1.52913E+01 8.57019E+01 2.04054E+02
 -1       425 1.19993E+01 8.57022E+01 2.04057E+02
 -1       426 1.39078E+01 8.57029E+01 2.04053E+02
 -1       427-1.39358E+01 8.57020E+01 2.04054E+02
 -1       428-1.53194E+01 8.57010E+01 2.04054E+02
 -1       429-1.20273E+01 8.57015E+01 2.04058E+02
 -1       430 2.95482E+00 8.57012E+01 2.04058E+02
 -1       431 6.24582E+00 8.57021E+01 2.04055E+02
 -1       432 7.62709E+00 8.57042E+01 2.04054E+02
 -1       433 9.00660E+00 8.57021E+01 2.04059E+02
 -1       434 5.70936E+00 8.57016E+01 2.04061E+02
 -1       435 8.87759E+00 8.57028E+01 2.04058E+02
 -1       436 2.58344E+00 8.57009E+01 2.04061E+02
 -1       437-7.13533E-01 8.57004E+01 2.04059E+02
 -1       438 2.75861E+00 8.57022E+01 2.04060E+02
 -1       439-2.60793E+00 8.57018E+01 2.04058E+02
 -1       440-8.44835E+00 8.57040E+01 2.04053E+02
 -1       441-9.83275E+00 8.57044E+01 2.04053E+02
 -1       442-5.66867E+00 8.57031E+01 2.04055E+02
 -1       443-1.08540E+01 8.57040E+01 2.04054E+02
 -1       444-1.22389E+01 8.57031E+01 2.04054E+02
 -1       445-7.51017E+00 8.57040E+01 2.04056E+02
 -1       446-1.02286E+01 8.57029E+01 2.04056E+02
 -1       447-2.86460E+00 8.57014E+01 2.04062E+02
 -1       448 4.32573E-01 8.57011E+01 2.04060E+02
 -1       449 2.32722E+00 8.57025E+01 2.04059E+02
 -1       450-9.55866E+00 8.57017E+01 2.04060E+02
 -1       451-6.26125E+00 8.57013E+01 2.04062E+02
 -1       452-3.59195E+00 8.57023E+01 2.04061E+02
 -1       453-9.45782E+00 8.57023E+01 2.04058E+02
 -1       454 1.10840E+01 8.57049E+01 2.04053E+02
 -1       455 1.24690E+01 8.57039E+01 2.04053E+02
 -1       456 1.04306E+01 8.57035E+01 2.04056E+02
 -1       457 8.37600E+00 8.57048E+01 2.04053E+02
 -1       458 9.76075E+00 8.57053E+01 2.04053E+02
 -1       459 7.66809E+00 8.57046E+01 2.04056E+02
 -1       460 5.59634E+00 8.57038E+01 2.04056E+02
 -1       461-4.04633E+00 8.57036E+01 2.04057E+02
 -1       462-5.06643E+00 8.57038E+01 2.04058E+02
 -1       463-5.84281E+00 8.57036E+01 2.04058E+02
 -1       464-5.07129E+00 8.57029E+01 2.04060E+02
 -1       465-7.75998E+00 8.57030E+01 2.04058E+02
 -1       466-2.37770E+00 8.57036E+01 2.04059E+02
 -1       467 4.44622E+00 8.57042E+01 2.04058E+02
 -1       468 5.76918E+00 8.57042E+01 2.04058E+02
 -1       469 3.07524E+00 8.57036E+01 2.04058E+02
 -1       470 1.17501E+00 8.57036E+01 2.04059E+02
 -1       471-3.42835E+00 8.57029E+01 2.04057E+02
 -1       472-9.83461E-01 8.57029E+01 2.04059E+02
 -1       473 2.14135E+00 8.57031E+01 2.04060E+02
 -1       474 4.21530E+00 8.57036E+01 2.04059E+02
 -1       475 7.43815E+00 8.57035E+01 2.04058E+02
 -1       476-1.67480E+00 8.57030E+01 2.04060E+02
 -1       477-3.03834E-01 8.57038E+01 2.04059E+02
 -1       478 4.72465E-01 8.57038E+01 2.04059E+02
 -1       479 1.19309E+01 5.13461E+01 1.22182E+02
 -1       480 1.20706E+01 6.44440E+01 1.53435E+02
 -1       481-1.06278E+00 7.75285E+01 1.84592E+02
 -1       482 1.14298E+01 3.85625E+01 9.16388E+01
 -1       483-8.94084E-01 4.48202E+01 1.06730E+02
 -1       484-9.23797E-01 5.78607E+01 1.37769E+02
 -1       485-9.31991E-01 7.10150E+01 1.69084E+02
 -1       486-8.32273E-01 3.22942E+01 7.69197E+01
 -1       487 5.00302E+00 4.39274E+00 9.70278E+00
 -1       488 6.44939E+00 7.55666E+00 1.73336E+01
 -1       489-2.29413E-01 1.59021E+00 3.88782E+00
 -1       490 8.79185E+00 1.59937E+01 3.76030E+01
 -1       491 1.00919E+01 2.37556E+01 5.62077E+01
 -1       492 7.71452E+00 1.14580E+01 2.67156E+01
 -1       493-9.70876E-02 1.79015E-01 5.29391E-01
 -1       494 2.41865E+00 1.27018E+00 2.12847E+00
 -1       495 1.19371E+01 8.09696E+01 1.92798E+02
 -1       496 1.07276E+01 2.94634E+01 6.98742E+01
 -1       497 1.20448E+01 7.42840E+01 1.76883E+02
 -1       498-4.16593E-01 5.47319E+00 1.31157E+01
 -1       499-6.95124E-01 1.82198E+01 4.34325E+01
 -1       500-8.76336E-01 2.63815E+01 6.28550E+01
 -1       501-5.25383E-01 9.07313E+00 2.16755E+01
 -1       502-6.15891E-01 1.33563E+01 3.18616E+01
 -1       503 5.03159E-01 2.97109E-01 7.47585E-02
 -1       504 2.42428E+00 8.34068E+01 1.98592E+02
 -1       505-9.11845E-01 5.13051E+01 1.22165E+02
 -1       506-9.29152E-01 6.44415E+01 1.53434E+02
 -1       507-8.67848E-01 3.84612E+01 9.15967E+01
 -1       508 1.17353E+01 4.48887E+01 1.06759E+02
 -1       509 1.20357E+01 5.78791E+01 1.37776E+02
 -1       510-1.72187E-01 7.54313E-01 1.90812E+00
 -1       511 3.32533E+00 2.07383E+00 4.08244E+00
 -1       512 4.19834E+00 3.12114E+00 6.62453E+00
 -1       513 2.12363E+00 3.52769E+00 7.94770E+00
 -1       514 1.20652E+01 7.75672E+01 1.84700E+02
 -1       515 1.19933E+01 5.46063E+01 1.29965E+02
 -1       516-9.18297E-01 5.45776E+01 1.29953E+02
 -1       517-8.55982E-01 2.93039E+01 6.98053E+01
 -1       518 1.09972E+01 3.24324E+01 7.69777E+01
 -1       519-8.82858E-01 4.16213E+01 9.91159E+01
 -1       520 1.15978E+01 4.17055E+01 9.91516E+01
 -1       521 7.10543E+00 9.42171E+00 2.18205E+01
 -1       522 9.26250E+00 1.84675E+01 4.35352E+01
 -1       523 9.72670E+00 2.10612E+01 4.97527E+01
 -1       524 4.51194E+00 2.22787E+01 5.28301E+01
 -1       525-6.55923E-01 1.57222E+01 3.74891E+01
 -1       526-9.26639E-01 6.11501E+01 1.45599E+02
 -1       527 1.20604E+01 6.11599E+01 1.45603E+02
 -1       528 1.04768E+01 2.65576E+01 6.29169E+01
 -1       529-9.32812E-01 7.42926E+01 1.76887E+02
 -1       530 1.20597E+01 7.10082E+01 1.69081E+02
 -1       531-5.71389E-01 1.11354E+01 2.65803E+01
 -1       532-4.72251E-01 7.18194E+00 1.71761E+01
 -1       533 1.20693E+01 6.77277E+01 1.61263E+02
 -1       534 5.75423E+00 5.87632E+00 1.32854E+01
 -1       535-9.30945E-01 6.77306E+01 1.61265E+02
 -1       536 1.12302E+01 3.54686E+01 8.42398E+01
 -1       537 8.27590E+00 1.36532E+01 3.19867E+01
 -1       538-8.51418E-01 3.53494E+01 8.41903E+01
 -1       539 1.18459E+01 4.81046E+01 1.14441E+02
 -1       540-9.03888E-01 4.80507E+01 1.14419E+02
 -1       541 9.36708E-01 7.55767E-01 1.27481E+00
 -1       542 1.33916E+00 1.41807E+00 2.87013E+00
 -1       543-4.08315E-01 3.98471E+00 9.58732E+00
 -1       544 1.31511E-01 9.14402E-02 2.19063E-02
 -1       545-8.37583E-01 2.08314E+01 4.96522E+01
 -1       546 4.69219E+00 2.50614E+01 5.94781E+01
 -1       547 5.46923E+00 7.90168E+01 1.88144E+02
 -1       548-3.35442E-01 2.63455E+00 6.38174E+00
 -1       549 5.54579E+00 7.59160E+01 1.80762E+02
 -1       550 2.49178E+00 4.92242E+00 1.12967E+01
 -1       551 5.56957E+00 6.27991E+01 1.49517E+02
 -1       552 5.56279E+00 5.95128E+01 1.41683E+02
 -1       553 5.44744E+00 4.64658E+01 1.10571E+02
 -1       554 5.57059E+00 6.60862E+01 1.57350E+02
 -1       555 5.23688E+00 3.69595E+01 8.78865E+01
 -1       556 5.49181E+00 4.97016E+01 1.18289E+02
 -1       557 5.39056E+00 4.32584E+01 1.02920E+02
 -1       558 5.32142E+00 4.00868E+01 9.53513E+01
 -1       559 5.56007E+00 7.26504E+01 1.72986E+02
 -1       560 5.56711E+00 6.93708E+01 1.65175E+02
 -1       561 5.54790E+00 5.62309E+01 1.33860E+02
 -1       562 5.13805E+00 3.38848E+01 8.05479E+01
 -1       563 4.86913E+00 2.79254E+01 6.63176E+01
 -1       564 2.82895E+00 6.51814E+00 1.51225E+01
 -1       565 3.14239E+00 8.30480E+00 1.94052E+01
 -1       566 3.70372E+00 1.23976E+01 2.92026E+01
 -1       567 3.95193E+00 1.46781E+01 3.46589E+01
 -1       568 3.43513E+00 1.02692E+01 2.41075E+01
 -1       569 4.17843E+00 1.70982E+01 4.04461E+01
 -1       570 5.52490E+00 5.29586E+01 1.26058E+02
 -1       571 5.02252E+00 3.08722E+01 7.33546E+01
 -1       572 4.38654E+00 1.96452E+01 4.65331E+01
 -1       573-8.78878E-01 2.35553E+01 5.61329E+01
 -1       574 1.74649E+00 2.35129E+00 5.11586E+00
 -1       575 8.83370E+00 8.33075E+01 1.98358E+02
 -1       576 1.41903E+00 6.81177E-01 7.29435E-01
 -1       577-8.60150E-01 8.09603E+01 1.92763E+02
 -1       578 5.77626E-01 3.80721E-01 4.03366E-01
 -1       579-1.79507E-01-1.05149E-01 1.85554E-02
 -1       580 7.51982E-01 4.13073E-01 1.94614E-01
 -1       581 1.40675E+01 8.36264E+01 1.99118E+02
 -1       582-2.96089E+00 8.36464E+01 1.99160E+02
 -1       583 5.56052E+00 8.15328E+01 1.94133E+02
 -1       584-6.80453E-02-6.62810E-02-5.53424E-02
 -1       585-1.61193E-01-1.36004E-01-1.72692E-02
 -1       586-3.88443E-01-1.82786E-01 1.26756E-01
 -1       587 4.41184E-01 2.89318E-01 1.17150E-01
 -1       588 3.44927E-01 2.52233E-01 3.01930E-02
 -1       589 1.14722E+00 5.35102E-01 4.11037E-01
 -1       590-5.30389E+00 8.46749E+01 2.01609E+02
 -1       591-2.01229E+00 8.46733E+01 2.01609E+02
 -1       592-5.30385E+00 8.30512E+01 1.97738E+02
 -1       593 1.30975E+01 8.46649E+01 2.01588E+02
 -1       594 1.63896E+01 8.46642E+01 2.01587E+02
 -1       595 1.63942E+01 8.30357E+01 1.97715E+02
 -1       596 2.86276E-01 2.03563E-01-2.41421E-03
 -1       597 2.03604E-01 1.41304E-01-3.73392E-02
 -1       598 6.31693E-01 3.63921E-01 1.24071E-01
 -1       599 1.11748E-01 7.85626E-02-6.38153E-02
 -1       600 1.71566E-02-2.39027E-04-5.98999E-02
 -1       601 3.23081E-01 1.99414E-01 3.52639E-02
 -1       602-3.06512E-02-1.11818E-02 1.12950E-02
 -1       603 7.18286E+00 8.45051E+01 2.01209E+02
 -1       604 1.04810E+01 8.45054E+01 2.01208E+02
 -1       605 1.14515E+01 8.34670E+01 1.98738E+02
 -1       606 6.79934E-01 8.45541E+01 2.01326E+02
 -1       607 3.97812E+00 8.45541E+01 2.01326E+02
 -1       608 5.62914E+00 8.33571E+01 1.98475E+02
 -1       609-2.69279E-01 8.35265E+01 1.98876E+02
 -1       610 2.17182E+00 9.08962E-01 1.16991E+00
 -1       611 1.56600E+00 6.78386E-01 6.59437E-01
 -1       612 1.12211E+00 5.41611E-01 4.08926E-01
 -1       613 3.39918E+00 1.54647E+00 2.70036E+00
 -1       614 2.80754E+00 1.20549E+00 1.87115E+00
 -1       615 1.92239E+00 9.44184E-01 1.34373E+00
 -1       616 4.54312E+00 2.40729E+00 4.79860E+00
 -1       617 3.97833E+00 1.94643E+00 3.67492E+00
 -1       618 2.87742E+00 1.64198E+00 3.03212E+00
 -1       619 5.63134E+00 3.50517E+00 7.46858E+00
 -1       620 5.09839E+00 2.92839E+00 6.06688E+00
 -1       621 3.76740E+00 2.56845E+00 5.28381E+00
 -1       622 6.64655E+00 4.82554E+00 1.06673E+01
 -1       623 6.14631E+00 4.13913E+00 9.00510E+00
 -1       624 4.60717E+00 3.72924E+00 8.09803E+00
 -1       625 7.59503E+00 6.35414E+00 1.43606E+01
 -1       626 7.12771E+00 5.56485E+00 1.24551E+01
 -1       627 5.38504E+00 5.10858E+00 1.14330E+01
 -1       628 8.47616E+00 8.07643E+00 1.85147E+01
 -1       629 8.04032E+00 7.19215E+00 1.63817E+01
 -1       630 6.10826E+00 6.69271E+00 1.52527E+01
 -1       631 9.30107E+00 9.98099E+00 2.30997E+01
 -1       632 8.89591E+00 9.00697E+00 2.07553E+01
 -1       633 6.78331E+00 8.46654E+00 1.95246E+01
 -1       634 1.00648E+01 1.20530E+01 2.80842E+01
 -1       635 9.69039E+00 1.09968E+01 2.55440E+01
 -1       636 7.41570E+00 1.04194E+01 2.42193E+01
 -1       637 1.07681E+01 1.42803E+01 3.34373E+01
 -1       638 1.04238E+01 1.31483E+01 3.07170E+01
 -1       639 8.00084E+00 1.25366E+01 2.93060E+01
 -1       640 1.14134E+01 1.66506E+01 3.91292E+01
 -1       641 1.10978E+01 1.54487E+01 3.62428E+01
 -1       642 8.53939E+00 1.48055E+01 3.47533E+01
 -1       643 1.20023E+01 1.91519E+01 4.51301E+01
 -1       644 1.17145E+01 1.78858E+01 4.20927E+01
 -1       645 9.03254E+00 1.72142E+01 4.05317E+01
 -1       646 1.25540E+01 2.17703E+01 5.14104E+01
 -1       647 1.22937E+01 2.04466E+01 4.82358E+01
 -1       648 9.49934E+00 1.97501E+01 4.66098E+01
 -1       649 1.30241E+01 2.44915E+01 5.79332E+01
 -1       650 1.27901E+01 2.31159E+01 5.46360E+01
 -1       651 9.91446E+00 2.23959E+01 5.29497E+01
 -1       652 1.34731E+01 2.73130E+01 6.46935E+01
 -1       653 1.32646E+01 2.58907E+01 6.12858E+01
 -1       654 1.02888E+01 2.51448E+01 5.95349E+01
 -1       655 1.38249E+01 3.02281E+01 7.16750E+01
 -1       656 1.36414E+01 2.87642E+01 6.81696E+01
 -1       657 1.06073E+01 2.79999E+01 6.63708E+01
 -1       658 1.41572E+01 3.32107E+01 7.88153E+01
 -1       659 1.39966E+01 3.17110E+01 7.52245E+01
 -1       660 1.08669E+01 3.09389E+01 7.34047E+01
 -1       661 1.44445E+01 3.62591E+01 8.61088E+01
 -1       662 1.43060E+01 3.47274E+01 8.24444E+01
 -1       663 1.11179E+01 3.39424E+01 8.05906E+01
 -1       664 1.46889E+01 3.93624E+01 9.35331E+01
 -1       665 1.45719E+01 3.78043E+01 8.98060E+01
 -1       666 1.13339E+01 3.70090E+01 8.79238E+01
 -1       667 1.48937E+01 4.25131E+01 1.01067E+02
 -1       668 1.47962E+01 4.09327E+01 9.72879E+01
 -1       669 1.15175E+01 4.01282E+01 9.53819E+01
 -1       670 1.50605E+01 4.57024E+01 1.08690E+02
 -1       671 1.49818E+01 4.41033E+01 1.04869E+02
 -1       672 1.16700E+01 4.32923E+01 1.02945E+02
 -1       673 1.51934E+01 4.89226E+01 1.16385E+02
 -1       674 1.51310E+01 4.73093E+01 1.12530E+02
 -1       675 1.17938E+01 4.64933E+01 1.10591E+02
 -1       676 1.52942E+01 5.21667E+01 1.24135E+02
 -1       677 1.52474E+01 5.05422E+01 1.20254E+02
 -1       678 1.18913E+01 4.97228E+01 1.18305E+02
 -1       679 1.53670E+01 5.54284E+01 1.31923E+02
 -1       680 1.53340E+01 5.37958E+01 1.28025E+02
 -1       681 1.19647E+01 5.29741E+01 1.26069E+02
 -1       682 1.54146E+01 5.87019E+01 1.39736E+02
 -1       683 1.53935E+01 5.70641E+01 1.35827E+02
 -1       684 1.20167E+01 5.62415E+01 1.33868E+02
 -1       685 1.54409E+01 6.19822E+01 1.47563E+02
 -1       686 1.54303E+01 6.03415E+01 1.43649E+02
 -1       687 1.20500E+01 5.95188E+01 1.41688E+02
 -1       688 1.54496E+01 6.52652E+01 1.55393E+02
 -1       689 1.54473E+01 6.36236E+01 1.51478E+02
 -1       690 1.20671E+01 6.28017E+01 1.49519E+02
 -1       691 1.54445E+01 6.85473E+01 1.63218E+02
 -1       692 1.54485E+01 6.69065E+01 1.59306E+02
 -1       693 1.20712E+01 6.60860E+01 1.57350E+02
 -1       694 1.54294E+01 7.18263E+01 1.71031E+02
 -1       695 1.54378E+01 7.01874E+01 1.67126E+02
 -1       696 1.20653E+01 6.93686E+01 1.65174E+02
 -1       697 1.54091E+01 7.51002E+01 1.78829E+02
 -1       698 1.54197E+01 7.34639E+01 1.74932E+02
 -1       699 1.20527E+01 7.26468E+01 1.72984E+02
 -1       700 1.54061E+01 7.83752E+01 1.86626E+02
 -1       701 1.54165E+01 7.67418E+01 1.82738E+02
 -1       702 1.20549E+01 7.59264E+01 1.80794E+02
 -1       703 1.53313E+01 8.17072E+01 1.94554E+02
 -1       704 1.53394E+01 8.00766E+01 1.90675E+02
 -1       705 1.20005E+01 7.92692E+01 1.88751E+02
 -1       706 1.30022E+01 8.22984E+01 1.95959E+02
 -1       707-4.39841E-01-5.47111E-02 3.62257E-01
 -1       708-5.95330E-01 1.36863E-01 8.48284E-01
 -1       709-1.74777E-01 9.31919E-05 2.07991E-01
 -1       710-7.73072E-01 4.21916E-01 1.54200E+00
 -1       711-9.35181E-01 7.75680E-01 2.37418E+00
 -1       712-1.32679E-01 4.27194E-01 1.12926E+00
 -1       713-1.09149E+00 1.19731E+00 3.36413E+00
 -1       714-1.24798E+00 1.68012E+00 4.49755E+00
 -1       715-2.01286E-01 1.14005E+00 2.82272E+00
 -1       716-1.41818E+00 2.20718E+00 5.74633E+00
 -1       717-1.56812E+00 2.80531E+00 7.15479E+00
 -1       718-2.80571E-01 2.08449E+00 5.06790E+00
 -1       719-1.71933E+00 3.48508E+00 8.75759E+00
 -1       720-1.86129E+00 4.19445E+00 1.04314E+01
 -1       721-3.73197E-01 3.28059E+00 7.91459E+00
 -1       722-1.96826E+00 4.94301E+00 1.21937E+01
 -1       723-2.09841E+00 5.75344E+00 1.41084E+01
 -1       724-4.14714E-01 4.70462E+00 1.12932E+01
 -1       725-2.22433E+00 6.61207E+00 1.61384E+01
 -1       726-2.34674E+00 7.51795E+00 1.82806E+01
 -1       727-4.45648E-01 6.30409E+00 1.50893E+01
 -1       728-2.46531E+00 8.46799E+00 2.05299E+01
 -1       729-2.57721E+00 9.46166E+00 2.28820E+01
 -1       730-4.98880E-01 8.10568E+00 1.93732E+01
 -1       731-2.68596E+00 1.04969E+01 2.53343E+01
 -1       732-2.79061E+00 1.15735E+01 2.78831E+01
 -1       733-5.49503E-01 1.00835E+01 2.40784E+01
 -1       734-2.89098E+00 1.26880E+01 3.05235E+01
 -1       735-2.98780E+00 1.38397E+01 3.32525E+01
 -1       736-5.94724E-01 1.22274E+01 2.91762E+01
 -1       737-3.08021E+00 1.50266E+01 3.60661E+01
 -1       738-3.16855E+00 1.62482E+01 3.89605E+01
 -1       739-6.36440E-01 1.45216E+01 3.46342E+01
 -1       740-3.25395E+00 1.75009E+01 4.19319E+01
 -1       741-3.33323E+00 1.87847E+01 4.49763E+01
 -1       742-6.75716E-01 1.69554E+01 4.04232E+01
 -1       743-3.46445E+00 2.00940E+01 4.80865E+01
 -1       744-3.53900E+00 2.14359E+01 5.12683E+01
 -1       745-7.66125E-01 1.95109E+01 4.65077E+01
 -1       746-3.61204E+00 2.28015E+01 5.45087E+01
 -1       747-3.67862E+00 2.41949E+01 5.78138E+01
 -1       748-8.58798E-01 2.21804E+01 5.28619E+01
 -1       749-3.72458E+00 2.56115E+01 6.11747E+01
 -1       750-3.78304E+00 2.70504E+01 6.45893E+01
 -1       751-8.78498E-01 2.49568E+01 5.94664E+01
 -1       752-3.81538E+00 2.85150E+01 6.80644E+01
 -1       753-3.86769E+00 2.99949E+01 7.15765E+01
 -1       754-8.67499E-01 2.78323E+01 6.63055E+01
 -1       755-3.89304E+00 3.14934E+01 7.51336E+01
 -1       756-3.93821E+00 3.30087E+01 7.87307E+01
 -1       757-8.44943E-01 3.07898E+01 7.33413E+01
 -1       758-3.98032E+00 3.45393E+01 8.23659E+01
 -1       759-4.01909E+00 3.60851E+01 8.60361E+01
 -1       760-8.42311E-01 3.38140E+01 8.05369E+01
 -1       761-4.05507E+00 3.76441E+01 8.97392E+01
 -1       762-4.08788E+00 3.92159E+01 9.34719E+01
 -1       763-8.60007E-01 3.68988E+01 8.78779E+01
 -1       764-4.11814E+00 4.07984E+01 9.72315E+01
 -1       765-4.14634E+00 4.23915E+01 1.01016E+02
 -1       766-8.76208E-01 4.00360E+01 9.53436E+01
 -1       767-4.17118E+00 4.39936E+01 1.04823E+02
 -1       768-4.19375E+00 4.56043E+01 1.08649E+02
 -1       769-8.88631E-01 4.32163E+01 1.02913E+02
 -1       770-4.21379E+00 4.72218E+01 1.12494E+02
 -1       771-4.23154E+00 4.88461E+01 1.16353E+02
 -1       772-8.99346E-01 4.64320E+01 1.10566E+02
 -1       773-4.24716E+00 5.04754E+01 1.20227E+02
 -1       774-4.26050E+00 5.21099E+01 1.24111E+02
 -1       775-9.08193E-01 4.96755E+01 1.18286E+02
 -1       776-4.27190E+00 5.37478E+01 1.28005E+02
 -1       777-4.28197E+00 5.53891E+01 1.31907E+02
 -1       778-9.15657E-01 5.29396E+01 1.26055E+02
 -1       779-4.29048E+00 5.70324E+01 1.35814E+02
 -1       780-4.29644E+00 5.86774E+01 1.39726E+02
 -1       781-9.21092E-01 5.62180E+01 1.33858E+02
 -1       782-4.30122E+00 6.03235E+01 1.43642E+02
 -1       783-4.30485E+00 6.19706E+01 1.47559E+02
 -1       784-9.25572E-01 5.95048E+01 1.41682E+02
 -1       785-4.30706E+00 6.36174E+01 1.51476E+02
 -1       786-4.30858E+00 6.52639E+01 1.55393E+02
 -1       787-9.28218E-01 6.27959E+01 1.49517E+02
 -1       788-4.30904E+00 6.69094E+01 1.59308E+02
 -1       789-4.30844E+00 6.85538E+01 1.63221E+02
 -1       790-9.30124E-01 6.60865E+01 1.57350E+02
 -1       791-4.30709E+00 7.01965E+01 1.67130E+02
 -1       792-4.30548E+00 7.18376E+01 1.71036E+02
 -1       793-9.31574E-01 6.93736E+01 1.65176E+02
 -1       794-4.30353E+00 7.34767E+01 1.74938E+02
 -1       795-4.30130E+00 7.51137E+01 1.78835E+02
 -1       796-9.32400E-01 7.26547E+01 1.72988E+02
 -1       797-4.36356E+00 7.67317E+01 1.82687E+02
 -1       798-4.36141E+00 7.83643E+01 1.86575E+02
 -1       799-9.97833E-01 7.59115E+01 1.80742E+02
 -1       800-4.25736E+00 8.00800E+01 1.90661E+02
 -1       801-4.25618E+00 8.17082E+01 1.94540E+02
 -1       802-9.61278E-01 7.92454E+01 1.88680E+02
 -1       803-1.91094E+00 8.23041E+01 1.95963E+02
 -1       804 8.75443E+00 5.37830E+01 1.28010E+02
 -1       805 8.73192E+00 5.21517E+01 1.24117E+02
 -1       806 8.70530E+00 5.05244E+01 1.20233E+02
 -1       807 8.67420E+00 4.89024E+01 1.16361E+02
 -1       808 5.50950E+00 5.13278E+01 1.22168E+02
 -1       809 8.81907E+00 6.36219E+01 1.51476E+02
 -1       810 8.81558E+00 6.19791E+01 1.47559E+02
 -1       811 8.81986E+00 6.69073E+01 1.59307E+02
 -1       812 8.82046E+00 6.52649E+01 1.55392E+02
 -1       813 5.57061E+00 6.44428E+01 1.53434E+02
 -1       814 2.30751E+00 7.51045E+01 1.78826E+02
 -1       815 2.24037E+00 7.67223E+01 1.82678E+02
 -1       816 2.20390E+00 7.82725E+01 1.86369E+02
 -1       817 5.50742E+00 7.74671E+01 1.84455E+02
 -1       818 2.30331E+00 7.99889E+01 1.90455E+02
 -1       819 8.44755E+00 4.08967E+01 9.72461E+01
 -1       820 8.38661E+00 3.93236E+01 9.34879E+01
 -1       821 8.31954E+00 3.77618E+01 8.97564E+01
 -1       822 8.24654E+00 3.62129E+01 8.60551E+01
 -1       823 5.28081E+00 3.85170E+01 9.16046E+01
 -1       824 2.24630E+00 4.24407E+01 1.01013E+02
 -1       825 2.25918E+00 4.40381E+01 1.04820E+02
 -1       826 2.27040E+00 4.56439E+01 1.08646E+02
 -1       827 2.28042E+00 4.72571E+01 1.12491E+02
 -1       828 5.42024E+00 4.48580E+01 1.06735E+02
 -1       829 2.31298E+00 5.54049E+01 1.31905E+02
 -1       830 2.31610E+00 5.70451E+01 1.35813E+02
 -1       831 2.31833E+00 5.86872E+01 1.39725E+02
 -1       832 2.32034E+00 6.03309E+01 1.43640E+02
 -1       833 5.55614E+00 5.78708E+01 1.37770E+02
 -1       834 2.31523E+00 7.18329E+01 1.71036E+02
 -1       835 2.31289E+00 7.34714E+01 1.74937E+02
 -1       836 2.31896E+00 6.85510E+01 1.63220E+02
 -1       837 2.31719E+00 7.01928E+01 1.67130E+02
 -1       838 5.56384E+00 7.10114E+01 1.69083E+02
 -1       839 2.06680E+00 3.00889E+01 7.15700E+01
 -1       840 2.11515E+00 3.15818E+01 7.51274E+01
 -1       841 2.13871E+00 3.30904E+01 7.87250E+01
 -1       842 2.16054E+00 3.46156E+01 8.23609E+01
 -1       843 5.08209E+00 3.23704E+01 7.69316E+01
 -1       844 3.50722E+00 3.96055E+00 8.79647E+00
 -1       845 3.21526E+00 3.32184E+00 7.25427E+00
 -1       846 3.79810E+00 4.65496E+00 1.04698E+01
 -1       847 2.30982E+00 4.19862E+00 9.55889E+00
 -1       848 4.07120E+00 5.39969E+00 1.22643E+01
 -1       849 5.07945E+00 8.86318E+00 2.05902E+01
 -1       850 4.83982E+00 7.92832E+00 1.83436E+01
 -1       851 4.59131E+00 7.03783E+00 1.62034E+01
 -1       852 4.33922E+00 6.19531E+00 1.41759E+01
 -1       853 2.98825E+00 7.38851E+00 1.72091E+01
 -1       854 5.24341E-01 1.08556E+00 2.35397E+00
 -1       855 6.18348E-01 1.50107E+00 3.34572E+00
 -1       856 1.54519E+00 1.85537E+00 3.92329E+00
 -1       857 7.04516E-01 1.97157E+00 4.47062E+00
 -1       858 7.65982E-01 2.49051E+00 5.71753E+00
 -1       859 6.68849E+00 1.77830E+01 4.19748E+01
 -1       860 6.51659E+00 1.65438E+01 3.90057E+01
 -1       861 6.33623E+00 1.53364E+01 3.61131E+01
 -1       862 6.14823E+00 1.41636E+01 3.33023E+01
 -1       863 4.06739E+00 1.58718E+01 3.75129E+01
 -1       864 7.27486E+00 2.30180E+01 5.45056E+01
 -1       865 7.14443E+00 2.16687E+01 5.12760E+01
 -1       866 7.41511E+00 2.44069E+01 5.78288E+01
 -1       867 4.60398E+00 2.36576E+01 5.61246E+01
 -1       868 7.56010E+00 2.58101E+01 6.11857E+01
 -1       869 5.53272E+00 1.08641E+01 2.53905E+01
 -1       870 5.31014E+00 9.84308E+00 2.29401E+01
 -1       871 5.95141E+00 1.30260E+01 3.05753E+01
 -1       872 5.74621E+00 1.19259E+01 2.79370E+01
 -1       873 3.57172E+00 1.13135E+01 2.66082E+01
 -1       874 3.46178E-01 4.58211E-01 8.55284E-01
 -1       875 4.41607E-01 7.53896E-01 1.55968E+00
 -1       876 2.64606E-01 2.85550E-01 4.48871E-01
 -1       877 7.56596E-01 5.49074E-01 7.89925E-01
 -1       878 6.19157E-02 1.23236E-01 2.25405E-01
 -1       879 3.20006E-01 2.22930E-01 1.78139E-01
 -1       880 2.27135E+00 1.74597E+00 3.44473E+00
 -1       881 1.93831E+00 1.34170E+00 2.46389E+00
 -1       882 1.61970E+00 1.01396E+00 1.67013E+00
 -1       883 1.14144E+00 1.05849E+00 2.00284E+00
 -1       884 1.24974E+00 7.14823E-01 9.57844E-01
 -1       885 8.70424E+00 7.99933E+01 1.90472E+02
 -1       886 8.76651E+00 7.82921E+01 1.86423E+02
 -1       887 8.74905E+00 8.12513E+01 1.93465E+02
 -1       888 5.51475E+00 8.02752E+01 1.91140E+02
 -1       889 1.03849E+01 8.21391E+01 1.95579E+02
 -1       890 7.19723E+00 8.24201E+01 1.96246E+02
 -1       891 7.99150E+00 3.16530E+01 7.51574E+01
 -1       892 7.89307E+00 3.01668E+01 7.16032E+01
 -1       893 7.77692E+00 2.86950E+01 6.80859E+01
 -1       894 7.69333E+00 2.72399E+01 6.46046E+01
 -1       895 4.94762E+00 2.93893E+01 6.98134E+01
 -1       896 8.80650E+00 7.67416E+01 1.82732E+02
 -1       897 8.79433E+00 7.51001E+01 1.78824E+02
 -1       898 8.80337E+00 7.34673E+01 1.74936E+02
 -1       899 8.80895E+00 7.18293E+01 1.71034E+02
 -1       900 5.55302E+00 7.42840E+01 1.76877E+02
 -1       901 1.16099E+00 5.99648E+00 1.40926E+01
 -1       902 1.22798E+00 6.84742E+00 1.61235E+01
 -1       903 9.94923E-01 4.45500E+00 1.04144E+01
 -1       904 1.09131E+00 5.19500E+00 1.21781E+01
 -1       905 2.66266E+00 5.69546E+00 1.31502E+01
 -1       906 1.73185E+00 1.64112E+01 3.89500E+01
 -1       907 1.77618E+00 1.76568E+01 4.19218E+01
 -1       908 1.81826E+00 1.89329E+01 4.49663E+01
 -1       909 1.80547E+00 2.02362E+01 4.80768E+01
 -1       910 4.28436E+00 1.83563E+01 4.34534E+01
 -1       911 1.97754E+00 2.71542E+01 6.45747E+01
 -1       912 2.02891E+00 2.86129E+01 6.80502E+01
 -1       913 1.93365E+00 2.57198E+01 6.11538E+01
 -1       914 4.78242E+00 2.64823E+01 6.28719E+01
 -1       915 1.88491E+00 2.43093E+01 5.77924E+01
 -1       916 1.41537E+00 9.67143E+00 2.28681E+01
 -1       917 1.47448E+00 1.06998E+01 2.53216E+01
 -1       918 1.29361E+00 7.74422E+00 1.82662E+01
 -1       919 1.35577E+00 8.68636E+00 2.05160E+01
 -1       920 3.29080E+00 9.26530E+00 2.17052E+01
 -1       921 1.63551E+00 1.40181E+01 3.32410E+01
 -1       922 1.68498E+00 1.51980E+01 3.60552E+01
 -1       923 1.53073E+00 1.17672E+01 2.78705E+01
 -1       924 1.58377E+00 1.28748E+01 3.05117E+01
 -1       925 3.83007E+00 1.35200E+01 3.18876E+01
 -1       926 5.76757E-01 3.35165E-01 2.08253E-01
 -1       927 9.10047E-01 4.74705E-01 3.44463E-01
 -1       928 9.71187E-01 5.33766E-01 5.43244E-01
 -1       929 3.99208E+00 8.24702E+01 1.96363E+02
 -1       930 7.82229E-01 8.21837E+01 1.95679E+02
 -1       931 2.34983E+00 8.12462E+01 1.93448E+02
 -1       932 2.30314E+00 5.21326E+01 1.24109E+02
 -1       933 2.30864E+00 5.37674E+01 1.28003E+02
 -1       934 2.28936E+00 4.88768E+01 1.16351E+02
 -1       935 2.29681E+00 5.05025E+01 1.20224E+02
 -1       936 2.32129E+00 6.19751E+01 1.47558E+02
 -1       937 2.32156E+00 6.36200E+01 1.51475E+02
 -1       938 2.32133E+00 6.52643E+01 1.55392E+02
 -1       939 2.32033E+00 6.69081E+01 1.59307E+02
 -1       940 2.21649E+00 3.92750E+01 9.34677E+01
 -1       941 2.23189E+00 4.08531E+01 9.72278E+01
 -1       942 2.18106E+00 3.61554E+01 8.60312E+01
 -1       943 2.19967E+00 3.77089E+01 8.97345E+01
 -1       944 8.55321E+00 4.40741E+01 1.04835E+02
 -1       945 8.50312E+00 4.24808E+01 1.01030E+02
 -1       946 8.63893E+00 4.72859E+01 1.12503E+02
 -1       947 8.59881E+00 4.56766E+01 1.08660E+02
 -1       948 8.78874E+00 5.70555E+01 1.35817E+02
 -1       949 8.77319E+00 5.54181E+01 1.31910E+02
 -1       950 8.80957E+00 6.03367E+01 1.43643E+02
 -1       951 8.80067E+00 5.86954E+01 1.39728E+02
 -1       952 2.91304E+00 2.73662E+00 5.83947E+00
 -1       953 2.59255E+00 2.21009E+00 4.56605E+00
 -1       954 1.93821E+00 2.91084E+00 6.46387E+00
 -1       955 9.17030E-01 3.75289E+00 8.73615E+00
 -1       956 8.39132E-01 3.08119E+00 7.13260E+00
 -1       957 5.53739E+00 5.45933E+01 1.29955E+02
 -1       958 8.16829E+00 3.46771E+01 8.23866E+01
 -1       959 8.08310E+00 3.31573E+01 7.87532E+01
 -1       960 5.35745E+00 4.16677E+01 9.91237E+01
 -1       961 7.02656E+00 2.03540E+01 4.81283E+01
 -1       962 6.85233E+00 1.90544E+01 4.50171E+01
 -1       963 4.45185E+00 2.09484E+01 4.96499E+01
 -1       964 1.81358E+00 2.15560E+01 5.12269E+01
 -1       965 1.84514E+00 2.29150E+01 5.44672E+01
 -1       966 5.56688E+00 6.11556E+01 1.45600E+02
 -1       967 8.81388E+00 7.01898E+01 1.67128E+02
 -1       968 8.81750E+00 6.85492E+01 1.63219E+02
 -1       969 5.56927E+00 6.77290E+01 1.61264E+02
 -1       970 5.18890E+00 3.54151E+01 8.42008E+01
 -1       971 5.47082E+00 4.80804E+01 1.14423E+02
 -1       972 9.11865E-01 5.13059E+01 1.22166E+02
 -1       973 9.29434E-01 6.44419E+01 1.53435E+02
 -1       974-1.21580E+01 7.75192E+01 1.84589E+02
 -1       975 8.68340E-01 3.84615E+01 9.15972E+01
 -1       976 8.93892E-01 4.48210E+01 1.06731E+02
 -1       977 9.23585E-01 5.78611E+01 1.37770E+02
 -1       978-1.20597E+01 7.10077E+01 1.69082E+02
 -1       979-1.09970E+01 3.24319E+01 7.69784E+01
 -1       980 3.74003E-01 3.96057E+00 9.52183E+00
 -1       981 4.71874E-01 7.18232E+00 1.71770E+01
 -1       982-3.32386E+00 2.07736E+00 4.09236E+00
 -1       983 6.55932E-01 1.57225E+01 3.74898E+01
 -1       984 7.75987E-01 2.35543E+01 5.61243E+01
 -1       985 5.71855E-01 1.11354E+01 2.65810E+01
 -1       986-1.41824E+00 6.80849E-01 7.27622E-01
 -1       987 1.65305E-01 7.58161E-01 1.91499E+00
 -1       988 8.58210E-01 8.09764E+01 1.92802E+02
 -1       989-1.19933E+01 5.46057E+01 1.29966E+02
 -1       990 8.10772E-01 2.93055E+01 6.98078E+01
 -1       991 9.32824E-01 7.42931E+01 1.76888E+02
 -1       992-1.15974E+01 4.17049E+01 9.91524E+01
 -1       993-1.20604E+01 6.11594E+01 1.45604E+02
 -1       994-1.18459E+01 4.81041E+01 1.14442E+02
 -1       995-5.74293E+00 5.87544E+00 1.32858E+01
 -1       996-9.26229E+00 1.84671E+01 4.35362E+01
 -1       997-1.05111E+01 2.65635E+01 6.29320E+01
 -1       998-7.10541E+00 9.42135E+00 2.18213E+01
 -1       999-8.27591E+00 1.36528E+01 3.19875E+01
 -1      1000-1.43139E-01 9.58003E-02 1.44045E-02
 -1      1001-8.64555E+00 8.34056E+01 1.98593E+02
 -1      1002-2.42186E+00 1.26889E+00 2.12353E+00
 -1      1003 2.35612E-01 1.58452E+00 3.87828E+00
 -1      1004 3.14183E-01 2.65862E+00 6.43107E+00
 -1      1005-2.13956E+00 3.52929E+00 7.94864E+00
 -1      1006 9.70327E-01 7.75764E+01 1.84706E+02
 -1      1007 9.18177E-01 5.45780E+01 1.29954E+02
 -1      1008-1.20706E+01 6.44434E+01 1.53436E+02
 -1      1009-1.14299E+01 3.85621E+01 9.16395E+01
 -1      1010-1.07734E+01 2.94627E+01 6.98736E+01
 -1      1011 8.32168E-01 3.22945E+01 7.69204E+01
 -1      1012 8.82668E-01 4.16216E+01 9.91172E+01
 -1      1013-1.12299E+01 3.54683E+01 8.42405E+01
 -1      1014 5.24825E-01 9.07329E+00 2.16760E+01
 -1      1015 6.95129E-01 1.82202E+01 4.34332E+01
 -1      1016 7.64089E-01 2.08363E+01 4.96587E+01
 -1      1017-4.63031E+00 2.22811E+01 5.28324E+01
 -1      1018-8.79191E+00 1.59932E+01 3.76037E+01
 -1      1019-1.17353E+01 4.48883E+01 1.06760E+02
 -1      1020 9.26842E-01 6.11506E+01 1.45600E+02
 -1      1021 8.42102E-01 2.63763E+01 6.28415E+01
 -1      1022-1.20449E+01 7.42834E+01 1.76884E+02
 -1      1023 9.31917E-01 7.10155E+01 1.69085E+02
 -1      1024-7.71448E+00 1.14576E+01 2.67164E+01
 -1      1025-6.44937E+00 7.55624E+00 1.73344E+01
 -1      1026 9.30975E-01 6.77311E+01 1.61266E+02
 -1      1027-1.19309E+01 5.13455E+01 1.22183E+02
 -1      1028 4.27522E-01 5.47355E+00 1.31162E+01
 -1      1029 8.51365E-01 3.53495E+01 8.41912E+01
 -1      1030 6.15961E-01 1.33567E+01 3.18623E+01
 -1      1031-1.20693E+01 6.77271E+01 1.61264E+02
 -1      1032 9.03968E-01 4.80513E+01 1.14420E+02
 -1      1033-1.20357E+01 5.78785E+01 1.37777E+02
 -1      1034-9.19032E-01 7.51646E-01 1.27283E+00
 -1      1035-1.33832E+00 1.41813E+00 2.87103E+00
 -1      1036-5.05137E+00 4.42158E+00 9.77211E+00
 -1      1037-5.43563E-01 3.13721E-01 8.92514E-02
 -1      1038-9.80017E+00 2.10596E+01 4.97492E+01
 -1      1039-4.78857E+00 2.50629E+01 5.94789E+01
 -1      1040-5.61818E+00 7.90167E+01 1.88145E+02
 -1      1041-4.20581E+00 3.10206E+00 6.57821E+00
 -1      1042-5.55794E+00 7.59159E+01 1.80764E+02
 -1      1043-2.49263E+00 4.92228E+00 1.12968E+01
 -1      1044-5.56957E+00 6.27992E+01 1.49518E+02
 -1      1045-5.57068E+00 6.60862E+01 1.57351E+02
 -1      1046-5.54790E+00 5.62309E+01 1.33861E+02
 -1      1047-5.56006E+00 7.26504E+01 1.72987E+02
 -1      1048-5.39093E+00 4.32582E+01 1.02920E+02
 -1      1049-5.13752E+00 3.38850E+01 8.05489E+01
 -1      1050-5.44697E+00 4.64656E+01 1.10572E+02
 -1      1051-5.49168E+00 4.97013E+01 1.18290E+02
 -1      1052-5.56701E+00 6.93709E+01 1.65176E+02
 -1      1053-5.56280E+00 5.95128E+01 1.41685E+02
 -1      1054-4.91205E+00 2.79260E+01 6.63186E+01
 -1      1055-2.82870E+00 6.51785E+00 1.51231E+01
 -1      1056-3.14236E+00 8.30484E+00 1.94060E+01
 -1      1057-5.23732E+00 3.69597E+01 8.78875E+01
 -1      1058-3.70367E+00 1.23976E+01 2.92033E+01
 -1      1059-3.95191E+00 1.46781E+01 3.46596E+01
 -1      1060-3.43510E+00 1.02692E+01 2.41083E+01
 -1      1061-5.32111E+00 4.00871E+01 9.53521E+01
 -1      1062-5.52488E+00 5.29586E+01 1.26059E+02
 -1      1063-4.17842E+00 1.70983E+01 4.04469E+01
 -1      1064-5.02253E+00 3.08722E+01 7.33553E+01
 -1      1065-4.38654E+00 1.96453E+01 4.65340E+01
 -1      1066-1.01965E+01 2.37606E+01 5.62195E+01
 -1      1067-1.74379E+00 2.35140E+00 5.11646E+00
 -1      1068-2.23612E+00 8.33090E+01 1.98360E+02
 -1      1069 9.49113E-02 1.81399E-01 5.31759E-01
 -1      1070-1.19390E+01 8.09535E+01 1.92761E+02
 -1      1071-5.81877E-01 3.83311E-01 4.03979E-01
 -1      1072-7.60018E-01 4.17139E-01 1.97829E-01
 -1      1073 1.74912E-01-1.02864E-01 1.54211E-02
 -1      1074 2.99791E+00 8.36306E+01 1.99122E+02
 -1      1075-1.40302E+01 8.36423E+01 1.99159E+02
 -1      1076-5.51598E+00 8.15330E+01 1.94134E+02
 -1      1077-4.45000E-01 2.91472E-01 1.18262E-01
 -1      1078-3.48575E-01 2.54578E-01 2.98653E-02
 -1      1079-1.15224E+00 5.36566E-01 4.14235E-01
 -1      1080 6.50398E-02-6.72698E-02-5.04284E-02
 -1      1081 1.58835E-01-1.34043E-01-1.72645E-02
 -1      1082 3.85617E-01-1.81763E-01 1.25120E-01
 -1      1083-1.30790E+01 8.46726E+01 2.01609E+02
 -1      1084-1.63710E+01 8.46715E+01 2.01608E+02
 -1      1085-1.63756E+01 8.30430E+01 1.97736E+02
 -1      1086 5.32244E+00 8.46676E+01 2.01590E+02
 -1      1087 2.03083E+00 8.46657E+01 2.01590E+02
 -1      1088 5.32241E+00 8.30438E+01 1.97720E+02
 -1      1089-1.06029E-01 6.59760E-02-5.71597E-02
 -1      1090-1.67397E-02-3.11716E-03-6.38286E-02
 -1      1091 2.22121E-02-4.84137E-03 4.58708E-03
 -1      1092-3.02562E-01 2.11958E-01-2.82811E-04
 -1      1093-2.18868E-01 1.48717E-01-4.46877E-02
 -1      1094-3.37892E-01 2.07362E-01 3.78246E-02
 -1      1095-6.56698E-01 3.74257E-01 1.33841E-01
 -1      1096-5.85927E-01 8.45055E+01 2.01211E+02
 -1      1097-3.88400E+00 8.45051E+01 2.01211E+02
 -1      1098 3.81938E-01 8.34697E+01 1.98741E+02
 -1      1099-7.08880E+00 8.45540E+01 2.01327E+02
 -1      1100-1.03869E+01 8.45539E+01 2.01326E+02
 -1      1101-5.44066E+00 8.33572E+01 1.98476E+02
 -1      1102-1.13387E+01 8.35240E+01 1.98876E+02
 -1      1103 4.39122E-01-5.34499E-02 3.63509E-01
 -1      1104 5.94899E-01 1.36651E-01 8.50183E-01
 -1      1105 1.71291E-01 2.12620E-03 2.07093E-01
 -1      1106 7.70245E-01 4.25502E-01 1.54508E+00
 -1      1107 9.31498E-01 7.78188E-01 2.37792E+00
 -1      1108 1.28194E-01 4.31422E-01 1.13398E+00
 -1      1109 1.09360E+00 1.19499E+00 3.35982E+00
 -1      1110 1.24952E+00 1.67707E+00 4.49255E+00
 -1      1111 1.99503E-01 1.14021E+00 2.82250E+00
 -1      1112 1.40887E+00 2.21877E+00 5.76956E+00
 -1      1113 1.55817E+00 2.81803E+00 7.18084E+00
 -1      1114 2.75386E-01 2.09205E+00 5.08424E+00
 -1      1115 1.70046E+00 3.47367E+00 8.72618E+00
 -1      1116 1.84068E+00 4.18203E+00 1.03975E+01
 -1      1117 3.45538E-01 3.28193E+00 7.91088E+00
 -1      1118 1.97318E+00 4.94320E+00 1.21943E+01
 -1      1119 2.10457E+00 5.75372E+00 1.41093E+01
 -1      1120 4.02150E-01 4.69091E+00 1.12578E+01
 -1      1121 2.22509E+00 6.61260E+00 1.61395E+01
 -1      1122 2.34693E+00 7.51861E+00 1.82813E+01
 -1      1123 4.50866E-01 6.30369E+00 1.50899E+01
 -1      1124 2.46550E+00 8.46846E+00 2.05305E+01
 -1      1125 2.57758E+00 9.46222E+00 2.28827E+01
 -1      1126 4.98700E-01 8.10606E+00 1.93739E+01
 -1      1127 2.68600E+00 1.04979E+01 2.53349E+01
 -1      1128 2.79060E+00 1.15738E+01 2.78839E+01
 -1      1129 5.49314E-01 1.00842E+01 2.40796E+01
 -1      1130 2.89089E+00 1.26885E+01 3.05242E+01
 -1      1131 2.98774E+00 1.38403E+01 3.32532E+01
 -1      1132 5.94913E-01 1.22277E+01 2.91769E+01
 -1      1133 3.08020E+00 1.50272E+01 3.60668E+01
 -1      1134 3.16854E+00 1.62487E+01 3.89612E+01
 -1      1135 6.36470E-01 1.45220E+01 3.46349E+01
 -1      1136 3.25393E+00 1.75015E+01 4.19326E+01
 -1      1137 3.33320E+00 1.87852E+01 4.49770E+01
 -1      1138 6.75713E-01 1.69558E+01 4.04239E+01
 -1      1139 3.42768E+00 2.00970E+01 4.80898E+01
 -1      1140 3.50093E+00 2.14387E+01 5.12720E+01
 -1      1141 7.30138E-01 1.95135E+01 4.65111E+01
 -1      1142 3.56021E+00 2.28017E+01 5.45046E+01
 -1      1143 3.62575E+00 2.41944E+01 5.78094E+01
 -1      1144 7.70959E-01 2.21821E+01 5.28607E+01
 -1      1145 3.70721E+00 2.56091E+01 6.11681E+01
 -1      1146 3.76611E+00 2.70484E+01 6.45829E+01
 -1      1147 8.09658E-01 2.49536E+01 5.94551E+01
 -1      1148 3.79261E+00 2.85165E+01 6.80659E+01
 -1      1149 3.84459E+00 2.99961E+01 7.15781E+01
 -1      1150 8.27729E-01 2.78310E+01 6.63004E+01
 -1      1151 3.89301E+00 3.14939E+01 7.51343E+01
 -1      1152 3.93816E+00 3.30093E+01 7.87314E+01
 -1      1153 8.21896E-01 3.07909E+01 7.33431E+01
 -1      1154 3.98046E+00 3.45399E+01 8.23666E+01
 -1      1155 4.01891E+00 3.60856E+01 8.60370E+01
 -1      1156 8.42189E-01 3.38144E+01 8.05376E+01
 -1      1157 4.05466E+00 3.76446E+01 8.97398E+01
 -1      1158 4.08778E+00 3.92164E+01 9.34725E+01
 -1      1159 8.60587E-01 3.68993E+01 8.78787E+01
 -1      1160 4.11790E+00 4.07991E+01 9.72323E+01
 -1      1161 4.14558E+00 4.23921E+01 1.01017E+02
 -1      1162 8.76093E-01 4.00364E+01 9.53445E+01
 -1      1163 4.17062E+00 4.39945E+01 1.04824E+02
 -1      1164 4.19349E+00 4.56051E+01 1.08651E+02
 -1      1165 8.88921E-01 4.32167E+01 1.02914E+02
 -1      1166 4.21373E+00 4.72227E+01 1.12495E+02
 -1      1167 4.23154E+00 4.88469E+01 1.16355E+02
 -1      1168 8.99348E-01 4.64326E+01 1.10567E+02
 -1      1169 4.24725E+00 5.04763E+01 1.20228E+02
 -1      1170 4.26064E+00 5.21106E+01 1.24112E+02
 -1      1171 9.08225E-01 4.96760E+01 1.18287E+02
 -1      1172 4.27230E+00 5.37486E+01 1.28006E+02
 -1      1173 4.28205E+00 5.53899E+01 1.31908E+02
 -1      1174 9.15346E-01 5.29401E+01 1.26056E+02
 -1      1175 4.29054E+00 5.70331E+01 1.35816E+02
 -1      1176 4.29659E+00 5.86783E+01 1.39727E+02
 -1      1177 9.21012E-01 5.62186E+01 1.33859E+02
 -1      1178 4.30125E+00 6.03244E+01 1.43643E+02
 -1      1179 4.30490E+00 6.19714E+01 1.47560E+02
 -1      1180 9.25486E-01 5.95055E+01 1.41684E+02
 -1      1181 4.30714E+00 6.36182E+01 1.51477E+02
 -1      1182 4.30858E+00 6.52646E+01 1.55394E+02
 -1      1183 9.28416E-01 6.27964E+01 1.49518E+02
 -1      1184 4.30873E+00 6.69101E+01 1.59309E+02
 -1      1185 4.30830E+00 6.85545E+01 1.63222E+02
 -1      1186 9.30389E-01 6.60870E+01 1.57351E+02
 -1      1187 4.30708E+00 7.01974E+01 1.67132E+02
 -1      1188 4.30556E+00 7.18385E+01 1.71037E+02
 -1      1189 9.31587E-01 6.93741E+01 1.65177E+02
 -1      1190 4.30344E+00 7.34775E+01 1.74939E+02
 -1      1191 4.30131E+00 7.51146E+01 1.78836E+02
 -1      1192 9.32448E-01 7.26553E+01 1.72989E+02
 -1      1193 4.31727E+00 7.67561E+01 1.82745E+02
 -1      1194 4.31516E+00 7.83888E+01 1.86633E+02
 -1      1195 9.51553E-01 7.59357E+01 1.80799E+02
 -1      1196 4.25642E+00 8.00885E+01 1.90681E+02
 -1      1197 4.25520E+00 8.17169E+01 1.94560E+02
 -1      1198 9.14082E-01 7.92774E+01 1.88756E+02
 -1      1199 1.92852E+00 8.23043E+01 1.95963E+02
 -1      1200-2.17205E+00 9.09191E-01 1.17004E+00
 -1      1201-1.56526E+00 6.77502E-01 6.59655E-01
 -1      1202-1.12577E+00 5.43607E-01 4.11180E-01
 -1      1203-3.40088E+00 1.54542E+00 2.69748E+00
 -1      1204-2.80869E+00 1.20426E+00 1.86962E+00
 -1      1205-1.92303E+00 9.42537E-01 1.34079E+00
 -1      1206-4.54246E+00 2.40895E+00 4.80402E+00
 -1      1207-3.97784E+00 1.94786E+00 3.67927E+00
 -1      1208-2.87950E+00 1.64232E+00 3.03376E+00
 -1      1209-5.63398E+00 3.49511E+00 7.44525E+00
 -1      1210-5.09975E+00 2.91912E+00 6.04546E+00
 -1      1211-3.76860E+00 2.56205E+00 5.26875E+00
 -1      1212-6.67339E+00 4.83997E+00 1.07037E+01
 -1      1213-6.17198E+00 4.15286E+00 9.03956E+00
 -1      1214-4.63520E+00 3.73293E+00 8.10525E+00
 -1      1215-7.58917E+00 6.35331E+00 1.43611E+01
 -1      1216-7.12213E+00 5.56402E+00 1.24554E+01
 -1      1217-5.40500E+00 5.12370E+00 1.14702E+01
 -1      1218-8.47615E+00 8.07583E+00 1.85155E+01
 -1      1219-8.04028E+00 7.19153E+00 1.63825E+01
 -1      1220-6.10228E+00 6.69205E+00 1.52533E+01
 -1      1221-9.30105E+00 9.98044E+00 2.31005E+01
 -1      1222-8.89589E+00 9.00640E+00 2.07561E+01
 -1      1223-6.78329E+00 8.46616E+00 1.95253E+01
 -1      1224-1.00647E+01 1.20524E+01 2.80849E+01
 -1      1225-9.69036E+00 1.09962E+01 2.55448E+01
 -1      1226-7.41566E+00 1.04190E+01 2.42201E+01
 -1      1227-1.07680E+01 1.42797E+01 3.34380E+01
 -1      1228-1.04238E+01 1.31478E+01 3.07177E+01
 -1      1229-8.00082E+00 1.25363E+01 2.93067E+01
 -1      1230-1.14131E+01 1.66502E+01 3.91303E+01
 -1      1231-1.10976E+01 1.54481E+01 3.62435E+01
 -1      1232-8.53944E+00 1.48050E+01 3.47541E+01
 -1      1233-1.20024E+01 1.91512E+01 4.51309E+01
 -1      1234-1.17146E+01 1.78852E+01 4.20938E+01
 -1      1235-9.03260E+00 1.72139E+01 4.05322E+01
 -1      1236-1.25912E+01 2.17690E+01 5.14092E+01
 -1      1237-1.23302E+01 2.04453E+01 4.82348E+01
 -1      1238-9.53522E+00 1.97492E+01 4.66086E+01
 -1      1239-1.30771E+01 2.44936E+01 5.79397E+01
 -1      1240-1.28422E+01 2.31180E+01 5.46424E+01
 -1      1241-1.00032E+01 2.23976E+01 5.29537E+01
 -1      1242-1.34905E+01 2.73157E+01 6.47015E+01
 -1      1243-1.32817E+01 2.58932E+01 6.12937E+01
 -1      1244-1.03589E+01 2.51503E+01 5.95483E+01
 -1      1245-1.38477E+01 3.02275E+01 7.16752E+01
 -1      1246-1.36641E+01 2.87635E+01 6.81697E+01
 -1      1247-1.06472E+01 2.80026E+01 6.63782E+01
 -1      1248-1.41572E+01 3.32102E+01 7.88159E+01
 -1      1249-1.39967E+01 3.17106E+01 7.52254E+01
 -1      1250-1.08900E+01 3.09385E+01 7.34045E+01
 -1      1251-1.44443E+01 3.62584E+01 8.61094E+01
 -1      1252-1.43060E+01 3.47269E+01 8.24449E+01
 -1      1253-1.11178E+01 3.39421E+01 8.05912E+01
 -1      1254-1.46887E+01 3.93618E+01 9.35340E+01
 -1      1255-1.45716E+01 3.78039E+01 8.98067E+01
 -1      1256-1.13340E+01 3.70086E+01 8.79246E+01
 -1      1257-1.48936E+01 4.25124E+01 1.01068E+02
 -1      1258-1.47961E+01 4.09319E+01 9.72886E+01
 -1      1259-1.15174E+01 4.01278E+01 9.53827E+01
 -1      1260-1.50607E+01 4.57015E+01 1.08692E+02
 -1      1261-1.49817E+01 4.41026E+01 1.04870E+02
 -1      1262-1.16698E+01 4.32920E+01 1.02946E+02
 -1      1263-1.51933E+01 4.89218E+01 1.16386E+02
 -1      1264-1.51309E+01 4.73083E+01 1.12531E+02
 -1      1265-1.17938E+01 4.64927E+01 1.10593E+02
 -1      1266-1.52941E+01 5.21658E+01 1.24136E+02
 -1      1267-1.52474E+01 5.05414E+01 1.20255E+02
 -1      1268-1.18913E+01 4.97222E+01 1.18306E+02
 -1      1269-1.53670E+01 5.54276E+01 1.31924E+02
 -1      1270-1.53340E+01 5.37950E+01 1.28026E+02
 -1      1271-1.19647E+01 5.29735E+01 1.26070E+02
 -1      1272-1.54145E+01 5.87011E+01 1.39737E+02
 -1      1273-1.53935E+01 5.70633E+01 1.35828E+02
 -1      1274-1.20167E+01 5.62410E+01 1.33869E+02
 -1      1275-1.54409E+01 6.19814E+01 1.47564E+02
 -1      1276-1.54303E+01 6.03407E+01 1.43650E+02
 -1      1277-1.20500E+01 5.95183E+01 1.41689E+02
 -1      1278-1.54496E+01 6.52644E+01 1.55394E+02
 -1      1279-1.54473E+01 6.36228E+01 1.51479E+02
 -1      1280-1.20671E+01 6.28012E+01 1.49520E+02
 -1      1281-1.54444E+01 6.85465E+01 1.63219E+02
 -1      1282-1.54485E+01 6.69057E+01 1.59307E+02
 -1      1283-1.20711E+01 6.60855E+01 1.57351E+02
 -1      1284-1.54293E+01 7.18255E+01 1.71032E+02
 -1      1285-1.54377E+01 7.01866E+01 1.67127E+02
 -1      1286-1.20652E+01 6.93680E+01 1.65175E+02
 -1      1287-1.54090E+01 7.50994E+01 1.78830E+02
 -1      1288-1.54196E+01 7.34631E+01 1.74933E+02
 -1      1289-1.20527E+01 7.26462E+01 1.72985E+02
 -1      1290-1.54524E+01 7.83507E+01 1.86570E+02
 -1      1291-1.54630E+01 7.67173E+01 1.82682E+02
 -1      1292-1.21014E+01 7.59020E+01 1.80739E+02
 -1      1293-1.53324E+01 8.16986E+01 1.94537E+02
 -1      1294-1.53404E+01 8.00680E+01 1.90657E+02
 -1      1295-1.20479E+01 7.92371E+01 1.88678E+02
 -1      1296-1.29846E+01 8.22982E+01 1.95961E+02
 -1      1297-2.30326E+00 5.21330E+01 1.24110E+02
 -1      1298-2.30865E+00 5.37676E+01 1.28004E+02
 -1      1299-2.28920E+00 4.88771E+01 1.16352E+02
 -1      1300-2.29681E+00 5.05028E+01 1.20225E+02
 -1      1301-5.50942E+00 5.13279E+01 1.22169E+02
 -1      1302-2.32127E+00 6.19754E+01 1.47559E+02
 -1      1303-2.32138E+00 6.36203E+01 1.51476E+02
 -1      1304-2.32114E+00 6.52644E+01 1.55393E+02
 -1      1305-2.32028E+00 6.69084E+01 1.59308E+02
 -1      1306-5.57075E+00 6.44428E+01 1.53435E+02
 -1      1307-8.85895E+00 7.67177E+01 1.82677E+02
 -1      1308-8.80038E+00 7.50997E+01 1.78825E+02
 -1      1309-5.58801E+00 7.74671E+01 1.84457E+02
 -1      1310-8.88735E+00 7.82681E+01 1.86368E+02
 -1      1311-8.77969E+00 7.99850E+01 1.90454E+02
 -1      1312-2.21670E+00 3.92751E+01 9.34684E+01
 -1      1313-2.23194E+00 4.08531E+01 9.72287E+01
 -1      1314-2.18092E+00 3.61555E+01 8.60317E+01
 -1      1315-2.19938E+00 3.77092E+01 8.97353E+01
 -1      1316-5.28080E+00 3.85171E+01 9.16055E+01
 -1      1317-2.24618E+00 4.24407E+01 1.01014E+02
 -1      1318-2.25922E+00 4.40386E+01 1.04821E+02
 -1      1319-2.27042E+00 4.56441E+01 1.08647E+02
 -1      1320-2.28036E+00 4.72576E+01 1.12492E+02
 -1      1321-5.42038E+00 4.48581E+01 1.06737E+02
 -1      1322-2.31300E+00 5.54052E+01 1.31906E+02
 -1      1323-2.31613E+00 5.70453E+01 1.35814E+02
 -1      1324-2.31841E+00 5.86874E+01 1.39726E+02
 -1      1325-2.32030E+00 6.03311E+01 1.43642E+02
 -1      1326-5.55614E+00 5.78708E+01 1.37771E+02
 -1      1327-8.80339E+00 7.34671E+01 1.74937E+02
 -1      1328-8.80895E+00 7.18290E+01 1.71035E+02
 -1      1329-8.81383E+00 7.01895E+01 1.67129E+02
 -1      1330-8.81745E+00 6.85489E+01 1.63220E+02
 -1      1331-5.56381E+00 7.10113E+01 1.69084E+02
 -1      1332-7.99148E+00 3.16528E+01 7.51581E+01
 -1      1333-7.91604E+00 3.01665E+01 7.16032E+01
 -1      1334-8.16790E+00 3.46770E+01 8.23874E+01
 -1      1335-8.08298E+00 3.31571E+01 7.87540E+01
 -1      1336-5.08191E+00 3.23704E+01 7.69324E+01
 -1      1337-8.60328E-01 3.09439E+00 7.15924E+00
 -1      1338-9.40117E-01 3.74191E+00 8.70519E+00
 -1      1339-2.31903E+00 4.19911E+00 9.55966E+00
 -1      1340-1.01026E+00 4.44197E+00 1.03808E+01
 -1      1341-1.08610E+00 5.19527E+00 1.21786E+01
 -1      1342-1.29359E+00 7.74450E+00 1.82670E+01
 -1      1343-1.35584E+00 8.68651E+00 2.05167E+01
 -1      1344-1.15537E+00 5.99635E+00 1.40934E+01
 -1      1345-1.22857E+00 6.84761E+00 1.61243E+01
 -1      1346-2.98810E+00 7.38862E+00 1.72099E+01
 -1      1347-2.26943E+00 1.74782E+00 3.44962E+00
 -1      1348-1.94044E+00 1.34096E+00 2.46111E+00
 -1      1349-2.58932E+00 2.21172E+00 4.57153E+00
 -1      1350-1.54358E+00 1.85489E+00 3.92286E+00
 -1      1351-2.91621E+00 2.72766E+00 5.81748E+00
 -1      1352-1.73186E+00 1.64114E+01 3.89507E+01
 -1      1353-1.77621E+00 1.76570E+01 4.19226E+01
 -1      1354-1.63547E+00 1.40183E+01 3.32418E+01
 -1      1355-1.68497E+00 1.51981E+01 3.60559E+01
 -1      1356-4.06740E+00 1.58717E+01 3.75137E+01
 -1      1357-1.90905E+00 2.15597E+01 5.12311E+01
 -1      1358-1.95584E+00 2.29160E+01 5.44639E+01
 -1      1359-4.71181E+00 2.36596E+01 5.61261E+01
 -1      1360-1.98454E+00 2.43092E+01 5.77884E+01
 -1      1361-1.99865E+00 2.57180E+01 6.11475E+01
 -1      1362-1.41558E+00 9.67160E+00 2.28688E+01
 -1      1363-1.47432E+00 1.07000E+01 2.53224E+01
 -1      1364-1.53062E+00 1.17673E+01 2.78713E+01
 -1      1365-1.58369E+00 1.28750E+01 3.05124E+01
 -1      1366-3.57163E+00 1.13135E+01 2.66089E+01
 -1      1367-1.61169E+00 1.01168E+00 1.66646E+00
 -1      1368-1.24215E+00 7.12980E-01 9.55270E-01
 -1      1369-7.52834E-01 5.48494E-01 7.89425E-01
 -1      1370-9.74408E-01 5.34983E-01 5.43405E-01
 -1      1371-5.96543E-01 3.45170E-01 2.19464E-01
 -1      1372-9.32784E-01 4.83657E-01 3.56245E-01
 -1      1373-5.28571E-01 1.08785E+00 2.35819E+00
 -1      1374-6.15124E-01 1.49815E+00 3.34104E+00
 -1      1375-1.13040E+00 1.05651E+00 2.00222E+00
 -1      1376-4.35356E-01 7.53588E-01 1.56272E+00
 -1      1377-3.40200E-01 4.57378E-01 8.56406E-01
 -1      1378-2.32461E+00 7.82964E+01 1.86426E+02
 -1      1379-2.37872E+00 7.99969E+01 1.90474E+02
 -1      1380-5.56692E+00 8.02752E+01 1.91141E+02
 -1      1381-2.32852E+00 8.12544E+01 1.93468E+02
 -1      1382-6.89157E-01 8.21429E+01 1.95582E+02
 -1      1383-3.87571E+00 8.24213E+01 1.96247E+02
 -1      1384-8.75442E+00 5.37827E+01 1.28011E+02
 -1      1385-8.73192E+00 5.21514E+01 1.24118E+02
 -1      1386-8.78874E+00 5.70552E+01 1.35818E+02
 -1      1387-8.77319E+00 5.54178E+01 1.31912E+02
 -1      1388-5.53738E+00 5.45933E+01 1.29956E+02
 -1      1389-2.08974E+00 3.00897E+01 7.15717E+01
 -1      1390-2.11521E+00 3.15819E+01 7.51282E+01
 -1      1391-2.01586E+00 2.71519E+01 6.45683E+01
 -1      1392-2.07309E+00 2.86142E+01 6.80520E+01
 -1      1393-4.96937E+00 2.93896E+01 6.98142E+01
 -1      1394-2.31361E+00 7.51047E+01 1.78827E+02
 -1      1395-2.29273E+00 7.67462E+01 1.82735E+02
 -1      1396-2.31519E+00 7.18332E+01 1.71037E+02
 -1      1397-2.31289E+00 7.34717E+01 1.74938E+02
 -1      1398-5.55906E+00 7.42840E+01 1.76878E+02
 -1      1399-8.44734E+00 4.08965E+01 9.72470E+01
 -1      1400-8.38651E+00 3.93234E+01 9.34887E+01
 -1      1401-8.55314E+00 4.40740E+01 1.04836E+02
 -1      1402-8.50300E+00 4.24806E+01 1.01030E+02
 -1      1403-5.35748E+00 4.16676E+01 9.91244E+01
 -1      1404-8.81905E+00 6.36217E+01 1.51477E+02
 -1      1405-8.81558E+00 6.19789E+01 1.47560E+02
 -1      1406-8.80956E+00 6.03365E+01 1.43644E+02
 -1      1407-8.80067E+00 5.86952E+01 1.39730E+02
 -1      1408-5.56688E+00 6.11556E+01 1.45601E+02
 -1      1409-8.63877E+00 4.72856E+01 1.12504E+02
 -1      1410-8.59831E+00 4.56763E+01 1.08661E+02
 -1      1411-8.70527E+00 5.05241E+01 1.20234E+02
 -1      1412-8.67414E+00 4.89021E+01 1.16363E+02
 -1      1413-5.47063E+00 4.80805E+01 1.14424E+02
 -1      1414-4.59121E+00 7.03757E+00 1.62042E+01
 -1      1415-4.33315E+00 6.19474E+00 1.41766E+01
 -1      1416-4.06602E+00 5.39928E+00 1.22649E+01
 -1      1417-3.82084E+00 4.67012E+00 1.05057E+01
 -1      1418-2.66322E+00 5.69567E+00 1.31512E+01
 -1      1419-6.68844E+00 1.77828E+01 4.19756E+01
 -1      1420-6.51662E+00 1.65436E+01 3.90065E+01
 -1      1421-7.06282E+00 2.03533E+01 4.81268E+01
 -1      1422-6.85228E+00 1.90542E+01 4.50179E+01
 -1      1423-4.28435E+00 1.83563E+01 4.34542E+01
 -1      1424-7.82116E+00 2.86950E+01 6.80860E+01
 -1      1425-7.73177E+00 2.72432E+01 6.46127E+01
 -1      1426-4.85248E+00 2.64834E+01 6.28729E+01
 -1      1427-7.62562E+00 2.58138E+01 6.11939E+01
 -1      1428-7.51544E+00 2.44103E+01 5.78352E+01
 -1      1429-5.53268E+00 1.08639E+01 2.53912E+01
 -1      1430-5.31011E+00 9.84292E+00 2.29408E+01
 -1      1431-5.07942E+00 8.86303E+00 2.05910E+01
 -1      1432-4.83984E+00 7.92812E+00 1.83444E+01
 -1      1433-3.29079E+00 9.26532E+00 2.17059E+01
 -1      1434-6.33621E+00 1.53361E+01 3.61139E+01
 -1      1435-6.14823E+00 1.41634E+01 3.33031E+01
 -1      1436-5.95139E+00 1.30258E+01 3.05761E+01
 -1      1437-5.74618E+00 1.19258E+01 2.79377E+01
 -1      1438-3.83004E+00 1.35199E+01 3.18884E+01
 -1      1439-3.25624E-01 2.25710E-01 1.71515E-01
 -1      1440-2.69606E-01 2.88338E-01 4.50059E-01
 -1      1441-7.20606E-02 1.23742E-01 2.16715E-01
 -1      1442-7.08080E+00 8.24693E+01 1.96364E+02
 -1      1443-1.02917E+01 8.21801E+01 1.95678E+02
 -1      1444-8.72769E+00 8.12432E+01 1.93448E+02
 -1      1445-6.98774E-01 1.96839E+00 4.46503E+00
 -1      1446-7.75937E-01 2.50159E+00 5.74156E+00
 -1      1447-1.94382E+00 2.91152E+00 6.46493E+00
 -1      1448-3.22868E+00 3.31281E+00 7.23046E+00
 -1      1449-3.53758E+00 3.97548E+00 8.83043E+00
 -1      1450-8.81986E+00 6.69070E+01 1.59308E+02
 -1      1451-8.82047E+00 6.52646E+01 1.55393E+02
 -1      1452-8.31956E+00 3.77616E+01 8.97572E+01
 -1      1453-8.24657E+00 3.62127E+01 8.60556E+01
 -1      1454-2.13877E+00 3.30907E+01 7.87259E+01
 -1      1455-2.16072E+00 3.46156E+01 8.23616E+01
 -1      1456-5.18892E+00 3.54149E+01 8.42010E+01
 -1      1457-1.81828E+00 1.89332E+01 4.49670E+01
 -1      1458-1.84191E+00 2.02386E+01 4.80806E+01
 -1      1459-4.50977E+00 2.09498E+01 4.96514E+01
 -1      1460-7.24015E+00 2.16690E+01 5.12755E+01
 -1      1461-7.38623E+00 2.30216E+01 5.45125E+01
 -1      1462-2.31900E+00 6.85513E+01 1.63221E+02
 -1      1463-2.31721E+00 7.01930E+01 1.67131E+02
 -1      1464-5.56925E+00 6.77290E+01 1.61265E+02
 -1      1465 1.57034E+01 4.80875E+01 1.14483E+02
 -1      1466 1.59820E+01 6.11570E+01 1.45611E+02
 -1      1467 1.05305E+01 6.77325E+01 1.61263E+02
 -1      1468 1.59851E+01 7.75227E+01 1.84581E+02
 -1      1469 1.51734E+01 3.85302E+01 9.17164E+01
 -1      1470 1.04736E+01 5.45688E+01 1.29977E+02
 -1      1471 1.45849E+01 3.23875E+01 7.70849E+01
 -1      1472 4.38895E+00 3.82357E+00 9.85789E+00
 -1      1473 8.57803E+00 7.43632E+00 1.76238E+01
 -1      1474 4.43196E+00 1.91906E+00 4.45935E+00
 -1      1475 7.66837E+00 1.56245E+01 3.76796E+01
 -1      1476 1.33781E+01 2.37156E+01 5.64234E+01
 -1      1477 1.02554E+01 1.13548E+01 2.69645E+01
 -1      1478 1.25268E+00 2.74635E-02 9.17525E-01
 -1      1479 1.02543E+01 4.47987E+01 1.06784E+02
 -1      1480 1.59758E+01 7.10106E+01 1.69076E+02
 -1      1481 1.05024E+01 8.09789E+01 1.92796E+02
 -1      1482 9.38406E+00 2.92542E+01 6.99305E+01
 -1      1483 1.05036E+01 7.42962E+01 1.76881E+02
 -1      1484 9.81835E+00 3.53113E+01 8.42831E+01
 -1      1485 1.22908E+01 1.83867E+01 4.37280E+01
 -1      1486 6.20015E+00 8.95822E+00 2.19417E+01
 -1      1487 8.44830E+00 2.07737E+01 4.98550E+01
 -1      1488 8.40091E-01 9.03371E-02 5.01538E-01
 -1      1489 1.44848E+01 8.34072E+01 1.98589E+02
 -1      1490 1.05273E+01 6.11479E+01 1.45607E+02
 -1      1491 1.58961E+01 5.45971E+01 1.29988E+02
 -1      1492 6.63525E+00 4.25376E+00 1.00392E+01
 -1      1493 2.92238E+00 1.42362E+00 4.24606E+00
 -1      1494 2.12293E+00 5.82899E-01 2.28264E+00
 -1      1495 2.20514E+00 5.33254E-01 1.78337E+00
 -1      1496 1.04711E+01 7.75795E+01 1.84699E+02
 -1      1497 1.55574E+01 4.48671E+01 1.06812E+02
 -1      1498 1.53969E+01 4.16786E+01 9.92170E+01
 -1      1499 1.26594E+01 4.00473E+01 9.54459E+01
 -1      1500 1.59937E+01 6.44434E+01 1.53437E+02
 -1      1501 1.04212E+01 5.12929E+01 1.22197E+02
 -1      1502 1.42281E+01 2.94124E+01 6.99962E+01
 -1      1503 1.38423E+01 2.65166E+01 6.30966E+01
 -1      1504 1.12664E+01 2.50189E+01 5.97643E+01
 -1      1505 1.05192E+01 7.10181E+01 1.69079E+02
 -1      1506 1.16849E+01 1.58960E+01 3.77878E+01
 -1      1507 1.05335E+01 6.44414E+01 1.53437E+02
 -1      1508 8.07081E+00 1.81381E+01 4.36215E+01
 -1      1509 9.44856E+00 9.30973E+00 2.20911E+01
 -1      1510 1.09938E+01 1.35458E+01 3.21873E+01
 -1      1511 8.79313E+00 1.22416E+01 2.94655E+01
 -1      1512 1.59540E+01 7.42870E+01 1.76877E+02
 -1      1513 9.61721E+00 3.22497E+01 7.70275E+01
 -1      1514 7.64234E+00 5.74771E+00 1.35953E+01
 -1      1515 6.73038E+00 6.35056E+00 1.55191E+01
 -1      1516 3.67871E+00 2.51323E+00 6.78842E+00
 -1      1517 5.57403E+00 2.97579E+00 6.98328E+00
 -1      1518 1.28838E+01 2.10057E+01 4.99629E+01
 -1      1519 1.59507E+01 5.78733E+01 1.37791E+02
 -1      1520 1.58152E+01 5.13331E+01 1.22214E+02
 -1      1521 1.49010E+01 3.54298E+01 8.43330E+01
 -1      1522 1.59903E+01 6.77289E+01 1.61261E+02
 -1      1523 1.05069E+01 5.78555E+01 1.37784E+02
 -1      1524 1.03488E+01 4.80340E+01 1.14461E+02
 -1      1525 3.18487E+00 1.20188E+00 3.36519E+00
 -1      1526 3.24030E+00 1.11263E+00 2.52537E+00
 -1      1527 7.19229E-01-5.73973E-02 4.38824E-01
 -1      1528 9.93780E+00 3.83430E+01 9.14715E+01
 -1      1529 1.00901E+01 4.16806E+01 9.93877E+01
 -1      1530 5.63115E+00 7.04918E+00 1.74448E+01
 -1      1531 5.01968E+00 5.32708E+00 1.33926E+01
 -1      1532 6.71991E+00 1.10253E+01 2.68177E+01
 -1      1533 1.08701E+01 2.22257E+01 5.31373E+01
 -1      1534 9.06795E+00 2.63382E+01 6.30251E+01
 -1      1535 9.39116E+00 1.45468E+01 3.49265E+01
 -1      1536 1.32309E+01 7.90203E+01 1.88138E+02
 -1      1537 1.32213E+01 7.59200E+01 1.80755E+02
 -1      1538 1.32446E+01 5.95073E+01 1.41699E+02
 -1      1539 1.32097E+01 5.62212E+01 1.33885E+02
 -1      1540 1.31546E+01 5.29443E+01 1.26093E+02
 -1      1541 1.32385E+01 7.26542E+01 1.72979E+02
 -1      1542 1.32638E+01 6.60865E+01 1.57350E+02
 -1      1543 1.22335E+01 3.38306E+01 8.06791E+01
 -1      1544 1.29702E+01 4.64396E+01 1.10634E+02
 -1      1545 5.07690E+00 3.34152E+00 8.40748E+00
 -1      1546 4.15980E+00 2.15404E+00 5.60891E+00
 -1      1547 1.32609E+01 6.27972E+01 1.49524E+02
 -1      1548 1.30757E+01 4.96817E+01 1.18338E+02
 -1      1549 1.04326E+01 1.95495E+01 4.67870E+01
 -1      1550 1.32550E+01 6.93733E+01 1.65171E+02
 -1      1551 9.93620E+00 1.69833E+01 4.07002E+01
 -1      1552 1.19594E+01 3.08086E+01 7.35067E+01
 -1      1553 1.24696E+01 3.69129E+01 8.80000E+01
 -1      1554 1.28357E+01 4.32263E+01 1.02997E+02
 -1      1555 8.76694E+00 2.35085E+01 5.63278E+01
 -1      1556 1.16448E+01 2.78597E+01 6.65049E+01
 -1      1557 5.93415E+00 4.74477E+00 1.17200E+01
 -1      1558 7.20883E+00 1.32507E+01 3.20721E+01
 -1      1559 8.17433E+00 1.01247E+01 2.44475E+01
 -1      1560 7.47720E+00 8.14940E+00 1.97700E+01
 -1      1561 1.17931E+01 8.33113E+01 1.98356E+02
 -1      1562 1.89434E+00 5.00192E-01 1.13132E+00
 -1      1563 1.58772E+01 8.09562E+01 1.92756E+02
 -1      1564 1.37564E+00 1.68393E-01 9.07363E-01
 -1      1565 4.96862E-01-1.66263E-01 2.64544E-01
 -1      1566 8.82472E-01 2.55539E-01 4.74361E-01
 -1      1567 9.59461E+00 8.36327E+01 1.99118E+02
 -1      1568 1.67463E+01 8.36435E+01 1.99155E+02
 -1      1569 1.31769E+01 8.15356E+01 1.94128E+02
 -1      1570 4.17786E-01 9.52408E-02 2.88471E-01
 -1      1571 4.61832E-01 1.81058E-01 2.72958E-01
 -1      1572 1.22646E+00 4.53305E-01 5.73936E-01
 -1      1573 2.11346E-01-1.39542E-01 9.46970E-02
 -1      1574 2.42326E-01-1.04858E-01 1.43997E-01
 -1      1575 5.84055E-01-2.28350E-01 2.76835E-01
 -1      1576 1.77270E+01 8.46724E+01 2.01605E+02
 -1      1577 1.63439E+01 8.46735E+01 2.01605E+02
 -1      1578 1.77335E+01 8.30446E+01 1.97733E+02
 -1      1579 9.99791E+00 8.46686E+01 2.01586E+02
 -1      1580 8.61596E+00 8.46693E+01 2.01588E+02
 -1      1581 8.62044E+00 8.30451E+01 1.97717E+02
 -1      1582 3.95466E-01-1.11065E-03 2.75766E-01
 -1      1583 4.18006E-01 5.32799E-02 2.84439E-01
 -1      1584 8.61572E-01 1.67491E-01 4.98931E-01
 -1      1585 3.29118E-01-8.46133E-02 2.13148E-01
 -1      1586 3.60923E-01-4.39596E-02 2.38967E-01
 -1      1587 7.83186E-01 1.46517E-02 4.81136E-01
 -1      1588 6.04387E-01-1.14254E-01 3.56320E-01
 -1      1589 1.52134E+01 8.45554E+01 2.01322E+02
 -1      1590 1.38283E+01 8.45564E+01 2.01322E+02
 -1      1591 1.56158E+01 8.35254E+01 1.98872E+02
 -1      1592 1.24822E+01 8.45080E+01 2.01205E+02
 -1      1593 1.10972E+01 8.45086E+01 2.01206E+02
 -1      1594 1.31389E+01 8.33593E+01 1.98472E+02
 -1      1595 1.06933E+01 8.34721E+01 1.98737E+02
 -1      1596 1.76013E+00 5.67077E-01 8.92999E-01
 -1      1597 2.45916E+00 8.06820E-01 1.40677E+00
 -1      1598 1.40313E+00 3.72521E-01 7.61314E-01
 -1      1599 3.18466E+00 1.11113E+00 2.10513E+00
 -1      1600 3.85647E+00 1.45493E+00 2.92941E+00
 -1      1601 2.57306E+00 7.75397E-01 1.74476E+00
 -1      1602 4.50304E+00 1.85417E+00 3.89767E+00
 -1      1603 5.13936E+00 2.31833E+00 5.01561E+00
 -1      1604 3.84442E+00 1.48547E+00 3.41984E+00
 -1      1605 5.75944E+00 2.84212E+00 6.27876E+00
 -1      1606 6.36012E+00 3.42117E+00 7.67479E+00
 -1      1607 5.01198E+00 2.41832E+00 5.65143E+00
 -1      1608 6.93779E+00 4.05619E+00 9.20428E+00
 -1      1609 7.50021E+00 4.74542E+00 1.08607E+01
 -1      1610 6.11223E+00 3.58691E+00 8.44558E+00
 -1      1611 8.04829E+00 5.48788E+00 1.26395E+01
 -1      1612 8.57559E+00 6.28038E+00 1.45390E+01
 -1      1613 7.14688E+00 4.97496E+00 1.17563E+01
 -1      1614 9.08399E+00 7.12072E+00 1.65546E+01
 -1      1615 9.57457E+00 8.00746E+00 1.86812E+01
 -1      1616 8.11773E+00 6.56845E+00 1.55528E+01
 -1      1617 1.00488E+01 8.94039E+00 2.09163E+01
 -1      1618 1.05042E+01 9.91694E+00 2.32546E+01
 -1      1619 9.02071E+00 8.35080E+00 1.98040E+01
 -1      1620 1.09429E+01 1.09352E+01 2.56922E+01
 -1      1621 1.13647E+01 1.19937E+01 2.82271E+01
 -1      1622 9.85976E+00 1.03120E+01 2.44786E+01
 -1      1623 1.17665E+01 1.30856E+01 3.08396E+01
 -1      1624 1.21546E+01 1.42198E+01 3.35540E+01
 -1      1625 1.06318E+01 1.24315E+01 2.95317E+01
 -1      1626 1.25306E+01 1.53916E+01 3.63560E+01
 -1      1627 1.28856E+01 1.65957E+01 3.92360E+01
 -1      1628 1.13461E+01 1.47033E+01 3.49451E+01
 -1      1629 1.32168E+01 1.78376E+01 4.22079E+01
 -1      1630 1.35398E+01 1.91061E+01 4.52398E+01
 -1      1631 1.19950E+01 1.71252E+01 4.07189E+01
 -1      1632 1.38613E+01 2.04116E+01 4.83578E+01
 -1      1633 1.41548E+01 2.17374E+01 5.15277E+01
 -1      1634 1.25941E+01 1.96819E+01 4.68106E+01
 -1      1635 1.44242E+01 2.30891E+01 5.47591E+01
 -1      1636 1.46872E+01 2.44669E+01 5.80520E+01
 -1      1637 1.31372E+01 2.23478E+01 5.31631E+01
 -1      1638 1.49395E+01 2.58642E+01 6.13892E+01
 -1      1639 1.51737E+01 2.72886E+01 6.47928E+01
 -1      1640 1.36163E+01 2.51046E+01 5.97322E+01
 -1      1641 1.53847E+01 2.87331E+01 6.82434E+01
 -1      1642 1.55918E+01 3.01995E+01 7.17442E+01
 -1      1643 1.40416E+01 2.79541E+01 6.65220E+01
 -1      1644 1.57855E+01 3.16841E+01 7.52895E+01
 -1      1645 1.59656E+01 3.31856E+01 7.88756E+01
 -1      1646 1.44121E+01 3.08912E+01 7.35192E+01
 -1      1647 1.61378E+01 3.47041E+01 8.25007E+01
 -1      1648 1.62927E+01 3.62375E+01 8.61609E+01
 -1      1649 1.47483E+01 3.39008E+01 8.06901E+01
 -1      1650 1.64402E+01 3.77848E+01 8.98533E+01
 -1      1651 1.65724E+01 3.93442E+01 9.35767E+01
 -1      1652 1.50425E+01 3.69736E+01 8.80090E+01
 -1      1653 1.66937E+01 4.09161E+01 9.73278E+01
 -1      1654 1.68029E+01 4.24981E+01 1.01103E+02
 -1      1655 1.52895E+01 4.00990E+01 9.54542E+01
 -1      1656 1.68913E+01 4.40897E+01 1.04901E+02
 -1      1657 1.69804E+01 4.56904E+01 1.08720E+02
 -1      1658 1.54820E+01 4.32682E+01 1.03004E+02
 -1      1659 1.70593E+01 4.72985E+01 1.12556E+02
 -1      1660 1.71290E+01 4.89133E+01 1.16408E+02
 -1      1661 1.56345E+01 4.64737E+01 1.10639E+02
 -1      1662 1.71897E+01 5.05342E+01 1.20274E+02
 -1      1663 1.72419E+01 5.21597E+01 1.24152E+02
 -1      1664 1.57630E+01 4.97077E+01 1.18342E+02
 -1      1665 1.72861E+01 5.37899E+01 1.28039E+02
 -1      1666 1.73228E+01 5.54238E+01 1.31935E+02
 -1      1667 1.58590E+01 5.29632E+01 1.26096E+02
 -1      1668 1.73524E+01 5.70604E+01 1.35837E+02
 -1      1669 1.73754E+01 5.86989E+01 1.39744E+02
 -1      1670 1.59261E+01 5.62342E+01 1.33887E+02
 -1      1671 1.73925E+01 6.03394E+01 1.43654E+02
 -1      1672 1.74039E+01 6.19809E+01 1.47567E+02
 -1      1673 1.59689E+01 5.95146E+01 1.41699E+02
 -1      1674 1.74104E+01 6.36230E+01 1.51480E+02
 -1      1675 1.74124E+01 6.52651E+01 1.55393E+02
 -1      1676 1.59899E+01 6.28001E+01 1.49524E+02
 -1      1677 1.74105E+01 6.69070E+01 1.59305E+02
 -1      1678 1.74053E+01 6.85484E+01 1.63216E+02
 -1      1679 1.59936E+01 6.60864E+01 1.57350E+02
 -1      1680 1.73973E+01 7.01888E+01 1.67123E+02
 -1      1681 1.73872E+01 7.18278E+01 1.71028E+02
 -1      1682 1.59840E+01 6.93705E+01 1.65170E+02
 -1      1683 1.73755E+01 7.34656E+01 1.74928E+02
 -1      1684 1.73628E+01 7.51021E+01 1.78825E+02
 -1      1685 1.59654E+01 7.26496E+01 1.72978E+02
 -1      1686 1.73772E+01 7.67199E+01 1.82677E+02
 -1      1687 1.73646E+01 7.83532E+01 1.86566E+02
 -1      1688 1.59696E+01 7.59056E+01 1.80731E+02
 -1      1689 1.73096E+01 8.00703E+01 1.90653E+02
 -1      1690 1.72997E+01 8.17007E+01 1.94533E+02
 -1      1691 1.59305E+01 7.92404E+01 1.88671E+02
 -1      1692 1.63112E+01 8.23002E+01 1.95957E+02
 -1      1693 1.29422E+00 4.15868E-02 1.08115E+00
 -1      1694 9.16903E-01-1.38644E-01 5.84179E-01
 -1      1695 8.59717E-01-1.12304E-01 5.33314E-01
 -1      1696 2.02059E+00 6.76311E-01 2.59227E+00
 -1      1697 1.66671E+00 3.23421E-01 1.76390E+00
 -1      1698 1.69383E+00 2.63475E-01 1.51501E+00
 -1      1699 2.69883E+00 1.58476E+00 4.70518E+00
 -1      1700 2.36497E+00 1.10021E+00 3.57832E+00
 -1      1701 2.52888E+00 9.70782E-01 3.18905E+00
 -1      1702 3.34008E+00 2.73464E+00 7.38643E+00
 -1      1703 3.02656E+00 2.13235E+00 5.98170E+00
 -1      1704 3.30497E+00 1.93902E+00 5.44810E+00
 -1      1705 3.94245E+00 4.10354E+00 1.05907E+01
 -1      1706 3.64803E+00 3.39223E+00 8.92581E+00
 -1      1707 4.03815E+00 3.14131E+00 8.25921E+00
 -1      1708 4.48806E+00 5.67087E+00 1.42698E+01
 -1      1709 4.21399E+00 4.85824E+00 1.23622E+01
 -1      1710 4.70923E+00 4.55072E+00 1.15653E+01
 -1      1711 5.00823E+00 7.44309E+00 1.84363E+01
 -1      1712 4.75258E+00 6.53495E+00 1.63004E+01
 -1      1713 5.33044E+00 6.16424E+00 1.53608E+01
 -1      1714 5.49391E+00 9.39598E+00 2.30354E+01
 -1      1715 5.25500E+00 8.40046E+00 2.06887E+01
 -1      1716 5.92112E+00 7.98161E+00 1.96402E+01
 -1      1717 5.93783E+00 1.15109E+01 2.80199E+01
 -1      1718 5.71804E+00 1.04321E+01 2.54771E+01
 -1      1719 6.46442E+00 9.97058E+00 2.43308E+01
 -1      1720 6.35125E+00 1.37806E+01 3.33742E+01
 -1      1721 6.14956E+00 1.26261E+01 3.06510E+01
 -1      1722 6.96818E+00 1.21187E+01 2.94001E+01
 -1      1723 6.73651E+00 1.61934E+01 3.90709E+01
 -1      1724 6.55147E+00 1.49701E+01 3.61817E+01
 -1      1725 7.44281E+00 1.44203E+01 3.48338E+01
 -1      1726 7.08001E+00 1.87386E+01 4.50849E+01
 -1      1727 6.91039E+00 1.74529E+01 4.20454E+01
 -1      1728 7.87445E+00 1.68657E+01 4.06128E+01
 -1      1729 7.39658E+00 2.14030E+01 5.13821E+01
 -1      1730 7.24376E+00 2.00586E+01 4.82052E+01
 -1      1731 8.26350E+00 1.94415E+01 4.67044E+01
 -1      1732 7.67085E+00 2.41677E+01 5.79218E+01
 -1      1733 7.53417E+00 2.27726E+01 5.46217E+01
 -1      1734 8.61143E+00 2.21289E+01 5.30607E+01
 -1      1735 7.92363E+00 2.70254E+01 6.46840E+01
 -1      1736 7.80149E+00 2.55842E+01 6.12739E+01
 -1      1737 8.92112E+00 2.49119E+01 5.96497E+01
 -1      1738 8.17096E+00 2.99673E+01 7.16475E+01
 -1      1739 8.06360E+00 2.84853E+01 6.81398E+01
 -1      1740 9.22883E+00 2.77857E+01 6.64539E+01
 -1      1741 8.36587E+00 3.29840E+01 7.87918E+01
 -1      1742 8.27189E+00 3.14671E+01 7.51988E+01
 -1      1743 9.50423E+00 3.07430E+01 7.34572E+01
 -1      1744 8.53440E+00 3.60639E+01 8.60885E+01
 -1      1745 8.45291E+00 3.45167E+01 8.24224E+01
 -1      1746 9.72137E+00 3.37730E+01 8.06368E+01
 -1      1747 8.65100E+00 3.91549E+01 9.34135E+01
 -1      1748 8.58264E+00 3.75816E+01 8.96857E+01
 -1      1749 9.88095E+00 3.68206E+01 8.78623E+01
 -1      1750 8.77342E+00 4.24205E+01 1.01156E+02
 -1      1751 8.71694E+00 4.08253E+01 9.73743E+01
 -1      1752 1.00169E+01 4.00058E+01 9.54144E+01
 -1      1753 8.89390E+00 4.55930E+01 1.08680E+02
 -1      1754 8.84826E+00 4.39809E+01 1.04856E+02
 -1      1755 1.01742E+01 4.32358E+01 1.03076E+02
 -1      1756 8.97065E+00 4.88375E+01 1.16377E+02
 -1      1757 8.93471E+00 4.72121E+01 1.12521E+02
 -1      1758 1.03042E+01 4.64131E+01 1.10614E+02
 -1      1759 9.02899E+00 5.21037E+01 1.24129E+02
 -1      1760 9.00198E+00 5.04682E+01 1.20247E+02
 -1      1761 1.03873E+01 4.96610E+01 1.18323E+02
 -1      1762 9.07032E+00 5.53852E+01 1.31920E+02
 -1      1763 9.05164E+00 5.37429E+01 1.28020E+02
 -1      1764 1.04495E+01 5.29292E+01 1.26082E+02
 -1      1765 9.09677E+00 5.86753E+01 1.39734E+02
 -1      1766 9.08472E+00 5.70296E+01 1.35825E+02
 -1      1767 1.04924E+01 5.62112E+01 1.33877E+02
 -1      1768 9.11079E+00 6.19702E+01 1.47563E+02
 -1      1769 9.10538E+00 6.03224E+01 1.43648E+02
 -1      1770 1.05185E+01 5.95010E+01 1.41694E+02
 -1      1771 9.11412E+00 6.52646E+01 1.55394E+02
 -1      1772 9.11365E+00 6.36176E+01 1.51479E+02
 -1      1773 1.05316E+01 6.27948E+01 1.49522E+02
 -1      1774 9.10942E+00 6.85557E+01 1.63220E+02
 -1      1775 9.11270E+00 6.69107E+01 1.59308E+02
 -1      1776 1.05329E+01 6.60874E+01 1.57351E+02
 -1      1777 9.09860E+00 7.18402E+01 1.71034E+02
 -1      1778 9.10466E+00 7.01988E+01 1.67128E+02
 -1      1779 1.05254E+01 6.93761E+01 1.65173E+02
 -1      1780 9.08461E+00 7.51165E+01 1.78832E+02
 -1      1781 9.09194E+00 7.34794E+01 1.74935E+02
 -1      1782 1.05117E+01 7.26582E+01 1.72982E+02
 -1      1783 9.06227E+00 7.83907E+01 1.86628E+02
 -1      1784 9.06956E+00 7.67582E+01 1.82741E+02
 -1      1785 1.04873E+01 7.59390E+01 1.80792E+02
 -1      1786 9.07296E+00 8.17185E+01 1.94556E+02
 -1      1787 9.07911E+00 8.00903E+01 1.90677E+02
 -1      1788 1.04864E+01 7.92803E+01 1.88750E+02
 -1      1789 1.00478E+01 8.23066E+01 1.95959E+02
 -1      1790 1.42677E+01 4.56508E+01 1.08723E+02
 -1      1791 1.43344E+01 4.72630E+01 1.12558E+02
 -1      1792 1.43927E+01 4.88824E+01 1.16410E+02
 -1      1793 1.44436E+01 5.05071E+01 1.20276E+02
 -1      1794 1.30259E+01 4.80579E+01 1.14479E+02
 -1      1795 1.46222E+01 6.19764E+01 1.47567E+02
 -1      1796 1.46273E+01 6.36206E+01 1.51480E+02
 -1      1797 1.45988E+01 5.86893E+01 1.39745E+02
 -1      1798 1.46129E+01 6.03323E+01 1.43655E+02
 -1      1799 1.32545E+01 6.11518E+01 1.45610E+02
 -1      1800 1.18872E+01 7.01957E+01 1.67125E+02
 -1      1801 1.18933E+01 6.85533E+01 1.63217E+02
 -1      1802 1.18975E+01 6.69094E+01 1.59306E+02
 -1      1803 1.18993E+01 6.52643E+01 1.55394E+02
 -1      1804 1.32604E+01 6.77306E+01 1.61262E+02
 -1      1805 1.45873E+01 7.51037E+01 1.78816E+02
 -1      1806 1.46036E+01 7.67216E+01 1.82668E+02
 -1      1807 1.46076E+01 7.82719E+01 1.86359E+02
 -1      1808 1.32259E+01 7.74710E+01 1.84448E+02
 -1      1809 1.45543E+01 7.99884E+01 1.90447E+02
 -1      1810 1.39219E+01 3.92851E+01 9.35808E+01
 -1      1811 1.40241E+01 4.08615E+01 9.73313E+01
 -1      1812 1.38166E+01 3.77197E+01 8.98579E+01
 -1      1813 1.25684E+01 3.84741E+01 9.17083E+01
 -1      1814 1.36921E+01 3.61668E+01 8.61655E+01
 -1      1815 1.18170E+01 5.37552E+01 1.28034E+02
 -1      1816 1.17872E+01 5.21182E+01 1.24146E+02
 -1      1817 1.18608E+01 5.70372E+01 1.35834E+02
 -1      1818 1.18415E+01 5.53949E+01 1.31931E+02
 -1      1819 1.31845E+01 5.45814E+01 1.29986E+02
 -1      1820 1.31024E+01 3.01052E+01 7.17505E+01
 -1      1821 1.32656E+01 3.15955E+01 7.52951E+01
 -1      1822 1.34169E+01 3.31041E+01 7.88811E+01
 -1      1823 1.35615E+01 3.46277E+01 8.25055E+01
 -1      1824 1.21007E+01 3.23115E+01 7.70732E+01
 -1      1825 4.75834E+00 3.56887E+00 9.12933E+00
 -1      1826 4.35755E+00 2.91583E+00 7.59656E+00
 -1      1827 5.50113E+00 5.02318E+00 1.25537E+01
 -1      1828 5.14297E+00 4.27370E+00 1.07875E+01
 -1      1829 5.51163E+00 4.01650E+00 1.00009E+01
 -1      1830 8.04778E+00 7.78065E+00 1.86947E+01
 -1      1831 8.44524E+00 8.72079E+00 2.09287E+01
 -1      1832 7.20787E+00 6.03640E+00 1.45551E+01
 -1      1833 7.63559E+00 6.88457E+00 1.65696E+01
 -1      1834 7.10958E+00 7.22725E+00 1.75901E+01
 -1      1835 4.32202E+00 2.02070E+00 5.03084E+00
 -1      1836 4.84381E+00 2.55333E+00 6.29346E+00
 -1      1837 3.78381E+00 1.54787E+00 3.90961E+00
 -1      1838 3.23825E+00 1.14138E+00 2.94272E+00
 -1      1839 3.67830E+00 1.64695E+00 4.41518E+00
 -1      1840 9.01982E+00 1.75520E+01 4.21587E+01
 -1      1841 8.79119E+00 1.62975E+01 3.91896E+01
 -1      1842 8.54696E+00 1.50766E+01 3.63005E+01
 -1      1843 9.66887E+00 1.57484E+01 3.77740E+01
 -1      1844 8.28757E+00 1.38917E+01 3.34987E+01
 -1      1845 1.23335E+01 2.43601E+01 5.80927E+01
 -1      1846 1.25456E+01 2.57638E+01 6.14299E+01
 -1      1847 1.21143E+01 2.29662E+01 5.47796E+01
 -1      1848 1.10732E+01 2.36098E+01 5.64213E+01
 -1      1849 1.18891E+01 2.16082E+01 5.15490E+01
 -1      1850 8.83007E+00 9.70569E+00 2.32670E+01
 -1      1851 9.19845E+00 1.07320E+01 2.57043E+01
 -1      1852 9.54124E+00 1.17879E+01 2.82139E+01
 -1      1853 9.87855E+00 1.28867E+01 3.08251E+01
 -1      1854 8.48942E+00 1.11639E+01 2.69099E+01
 -1      1855 2.18994E+00 5.44694E-01 2.03332E+00
 -1      1856 1.69792E+00 2.58939E-01 1.33480E+00
 -1      1857 1.79193E+00 3.30274E-01 1.30057E+00
 -1      1858 1.32392E+00 9.49643E-02 9.23090E-01
 -1      1859 1.00159E+00-3.50989E-02 6.46777E-01
 -1      1860 1.03250E+00 3.40028E-02 6.51034E-01
 -1      1861 1.16640E+01 4.72347E+01 1.12547E+02
 -1      1862 1.16106E+01 4.56183E+01 1.08709E+02
 -1      1863 1.15505E+01 4.40098E+01 1.04890E+02
 -1      1864 1.14604E+01 4.24520E+01 1.01193E+02
 -1      1865 1.29061E+01 4.48293E+01 1.06806E+02
 -1      1866 1.46069E+01 7.18326E+01 1.71028E+02
 -1      1867 1.45968E+01 7.34710E+01 1.74928E+02
 -1      1868 1.46226E+01 6.85510E+01 1.63216E+02
 -1      1869 1.46157E+01 7.01924E+01 1.67123E+02
 -1      1870 1.32474E+01 7.10145E+01 1.69077E+02
 -1      1871 1.18660E+01 8.00001E+01 1.90468E+02
 -1      1872 1.18512E+01 7.83001E+01 1.86418E+02
 -1      1873 1.18395E+01 8.12572E+01 1.93462E+02
 -1      1874 1.32035E+01 8.02785E+01 1.91134E+02
 -1      1875 1.11475E+01 8.21454E+01 1.95577E+02
 -1      1876 1.24847E+01 8.24238E+01 1.96242E+02
 -1      1877 1.07978E+01 3.15243E+01 7.52655E+01
 -1      1878 1.06661E+01 3.00283E+01 7.17183E+01
 -1      1879 1.05250E+01 2.85513E+01 6.82160E+01
 -1      1880 1.03499E+01 2.70949E+01 6.47650E+01
 -1      1881 1.18064E+01 2.93250E+01 6.99828E+01
 -1      1882 1.18457E+01 7.67501E+01 1.82727E+02
 -1      1883 1.18630E+01 7.51084E+01 1.78818E+02
 -1      1884 1.18707E+01 7.34754E+01 1.74931E+02
 -1      1885 1.18795E+01 7.18365E+01 1.71030E+02
 -1      1886 1.32302E+01 7.42880E+01 1.76869E+02
 -1      1887 1.10344E+01 3.45664E+01 8.24795E+01
 -1      1888 1.09205E+01 3.30373E+01 7.88534E+01
 -1      1889 1.12109E+01 3.76241E+01 8.97349E+01
 -1      1890 1.11400E+01 3.61095E+01 8.61418E+01
 -1      1891 1.23550E+01 3.53641E+01 8.43223E+01
 -1      1892 1.08254E+01 1.64304E+01 3.92420E+01
 -1      1893 1.11011E+01 1.76790E+01 4.22126E+01
 -1      1894 1.13750E+01 1.89596E+01 4.52555E+01
 -1      1895 1.16466E+01 2.02724E+01 4.83738E+01
 -1      1896 1.01889E+01 1.82505E+01 4.37071E+01
 -1      1897 6.86078E+00 8.54192E+00 2.08531E+01
 -1      1898 6.53776E+00 7.58996E+00 1.86067E+01
 -1      1899 7.46695E+00 1.05641E+01 2.56302E+01
 -1      1900 7.17176E+00 9.53237E+00 2.31938E+01
 -1      1901 7.83062E+00 9.11498E+00 2.20577E+01
 -1      1902 9.45472E+00 2.01539E+01 4.83189E+01
 -1      1903 9.24118E+00 1.88375E+01 4.52038E+01
 -1      1904 9.65071E+00 2.14949E+01 5.14957E+01
 -1      1905 1.06564E+01 2.08739E+01 4.99291E+01
 -1      1906 9.83183E+00 2.28603E+01 5.47309E+01
 -1      1907 1.12257E+00 1.23072E-01 6.87655E-01
 -1      1908 1.34318E+00 2.70736E-01 7.85104E-01
 -1      1909 1.62253E+00 3.20068E-01 1.02875E+00
 -1      1910 1.38306E+01 8.24715E+01 1.96359E+02
 -1      1911 1.51804E+01 8.21823E+01 1.95673E+02
 -1      1912 1.45271E+01 8.12460E+01 1.93442E+02
 -1      1913 1.18982E+01 6.36189E+01 1.51480E+02
 -1      1914 1.18946E+01 6.19727E+01 1.47566E+02
 -1      1915 1.18874E+01 6.03268E+01 1.43653E+02
 -1      1916 1.18757E+01 5.86812E+01 1.39742E+02
 -1      1917 1.45546E+01 5.54079E+01 1.31936E+02
 -1      1918 1.45795E+01 5.70474E+01 1.35838E+02
 -1      1919 1.44873E+01 5.21370E+01 1.24153E+02
 -1      1920 1.45240E+01 5.37706E+01 1.28041E+02
 -1      1921 6.30744E+00 4.48547E+00 1.08768E+01
 -1      1922 6.76849E+00 5.23660E+00 1.26558E+01
 -1      1923 5.34974E+00 3.14398E+00 7.69240E+00
 -1      1924 5.83437E+00 3.78682E+00 9.22079E+00
 -1      1925 3.08226E+00 1.29712E+00 3.80203E+00
 -1      1926 2.62969E+00 8.78176E-01 2.82065E+00
 -1      1927 3.94643E+00 2.31883E+00 6.19497E+00
 -1      1928 3.51846E+00 1.77601E+00 4.92594E+00
 -1      1929 2.70170E+00 8.38057E-01 2.50621E+00
 -1      1930 2.69809E+00 8.09009E-01 2.15441E+00
 -1      1931 2.07911E+00 5.00594E-01 1.44387E+00
 -1      1932 1.41211E+01 4.24492E+01 1.01107E+02
 -1      1933 1.41936E+01 4.40458E+01 1.04904E+02
 -1      1934 1.27511E+01 4.16319E+01 9.92099E+01
 -1      1935 1.12952E+01 3.91932E+01 9.34584E+01
 -1      1936 1.13814E+01 4.08606E+01 9.74154E+01
 -1      1937 1.46290E+01 6.52647E+01 1.55394E+02
 -1      1938 1.46272E+01 6.69082E+01 1.59306E+02
 -1      1939 1.32637E+01 6.44421E+01 1.53437E+02
 -1      1940 1.17520E+01 5.04856E+01 1.20267E+02
 -1      1941 1.17110E+01 4.88572E+01 1.16400E+02
 -1      1942 1.31178E+01 5.13109E+01 1.22211E+02
 -1      1943 1.27533E+01 2.71819E+01 6.47997E+01
 -1      1944 1.29291E+01 2.86330E+01 6.82498E+01
 -1      1945 1.14599E+01 2.64285E+01 6.31092E+01
 -1      1946 1.00088E+01 2.42591E+01 5.80456E+01
 -1      1947 1.01791E+01 2.56723E+01 6.13936E+01
 -1      1948 1.02086E+01 1.40365E+01 3.35550E+01
 -1      1949 1.05243E+01 1.52149E+01 3.63561E+01
 -1      1950 9.09755E+00 1.33761E+01 3.21523E+01
 -1      1951 7.74333E+00 1.16258E+01 2.81412E+01
 -1      1952 8.01955E+00 1.27361E+01 3.07660E+01
 -1      1953 6.33822E+00 5.52351E+00 1.35607E+01
 -1      1954 6.20357E+00 6.68790E+00 1.64790E+01
 -1      1955 5.85746E+00 5.82911E+00 1.44542E+01
 -1      1956 4.62471E+00 2.71921E+00 6.94022E+00
 -1      1957 1.32291E+01 5.78632E+01 1.37789E+02
 -1      1958-1.03489E+01 4.80330E+01 1.14461E+02
 -1      1959-1.05270E+01 6.11467E+01 1.45607E+02
 -1      1960-1.59903E+01 6.77279E+01 1.61261E+02
 -1      1961-1.04323E+01 7.75311E+01 1.84585E+02
 -1      1962-9.97375E+00 3.84284E+01 9.16747E+01
 -1      1963-1.58960E+01 5.45960E+01 1.29988E+02
 -1      1964-9.61702E+00 3.22489E+01 7.70271E+01
 -1      1965-6.63486E+00 4.25293E+00 1.00390E+01
 -1      1966-5.66288E+00 7.05960E+00 1.74671E+01
 -1      1967-2.92573E+00 1.42599E+00 4.25201E+00
 -1      1968-1.16691E+01 1.59046E+01 3.78142E+01
 -1      1969-1.33736E+01 2.36898E+01 5.63640E+01
 -1      1970-1.02442E+01 1.13528E+01 2.69649E+01
 -1      1971-1.88925E+00 4.97525E-01 1.12773E+00
 -1      1972-1.55584E+01 4.48659E+01 1.06812E+02
 -1      1973-1.05194E+01 7.10170E+01 1.69079E+02
 -1      1974-1.58760E+01 8.09707E+01 1.92794E+02
 -1      1975-1.42283E+01 2.94118E+01 6.99965E+01
 -1      1976-1.59542E+01 7.42859E+01 1.76877E+02
 -1      1977-1.48917E+01 3.54290E+01 8.43335E+01
 -1      1978-8.10877E+00 1.81391E+01 4.36232E+01
 -1      1979-9.07911E+00 2.63235E+01 6.29922E+01
 -1      1980-7.25277E+00 1.32598E+01 3.20917E+01
 -1      1981-6.87233E-01-5.34093E-02 4.17187E-01
 -1      1982-1.18720E+01 8.34083E+01 1.98589E+02
 -1      1983-1.59820E+01 6.11559E+01 1.45611E+02
 -1      1984-1.04737E+01 5.45677E+01 1.29976E+02
 -1      1985-8.56868E+00 7.43405E+00 1.76243E+01
 -1      1986-4.38976E+00 3.82298E+00 9.85796E+00
 -1      1987-4.43318E+00 1.91737E+00 4.45444E+00
 -1      1988-3.21252E+00 1.09646E+00 2.49979E+00
 -1      1989-2.19362E+00 5.26383E-01 1.78031E+00
 -1      1990-1.59458E+01 7.75691E+01 1.84695E+02
 -1      1991-1.02544E+01 4.47978E+01 1.06783E+02
 -1      1992-1.01160E+01 4.15933E+01 9.91816E+01
 -1      1993-1.26805E+01 4.00471E+01 9.54460E+01
 -1      1994-1.05342E+01 6.44404E+01 1.53436E+02
 -1      1995-9.36419E+00 2.92520E+01 6.99275E+01
 -1      1996-1.58151E+01 5.13320E+01 1.22214E+02
 -1      1997-1.59757E+01 7.10096E+01 1.69076E+02
 -1      1998-1.59937E+01 6.44424E+01 1.53438E+02
 -1      1999-7.70174E+00 1.56334E+01 3.76999E+01
 -1      2000-1.22905E+01 1.83860E+01 4.37282E+01
 -1      2001-1.28736E+01 2.09884E+01 4.99249E+01
 -1      2002-1.08591E+01 2.21871E+01 5.30476E+01
 -1      2003-6.23164E+00 8.95983E+00 2.19441E+01
 -1      2004-6.76254E+00 1.10311E+01 2.68289E+01
 -1      2005-1.05035E+01 7.42950E+01 1.76881E+02
 -1      2006-1.38471E+01 2.64990E+01 6.30557E+01
 -1      2007-9.43631E+00 9.30735E+00 2.20916E+01
 -1      2008-1.45845E+01 3.23869E+01 7.70851E+01
 -1      2009-5.04755E+00 5.34306E+00 1.34264E+01
 -1      2010-5.57408E+00 2.97501E+00 6.98280E+00
 -1      2011-3.67788E+00 2.51349E+00 6.78912E+00
 -1      2012-7.63283E+00 5.74512E+00 1.35957E+01
 -1      2013-1.05071E+01 5.78543E+01 1.37783E+02
 -1      2014-1.09868E+01 1.35561E+01 3.22165E+01
 -1      2015-1.04209E+01 5.12919E+01 1.22197E+02
 -1      2016-9.80971E+00 3.53104E+01 8.42828E+01
 -1      2017-1.05300E+01 6.77314E+01 1.61262E+02
 -1      2018-1.59507E+01 5.78722E+01 1.37791E+02
 -1      2019-1.57036E+01 4.80863E+01 1.14484E+02
 -1      2020-3.18055E+00 1.19981E+00 3.36444E+00
 -1      2021-2.12795E+00 5.91279E-01 2.30505E+00
 -1      2022-8.83920E-01 1.05078E-01 5.27193E-01
 -1      2023-1.51986E+01 3.84451E+01 9.15145E+01
 -1      2024-1.54324E+01 4.17646E+01 9.94234E+01
 -1      2025-1.12667E+01 2.49796E+01 5.96722E+01
 -1      2026-8.43525E+00 2.07595E+01 4.98228E+01
 -1      2027-1.31682E+01 7.90194E+01 1.88137E+02
 -1      2028-1.32163E+01 7.59190E+01 1.80755E+02
 -1      2029-1.32445E+01 5.95062E+01 1.41699E+02
 -1      2030-1.32097E+01 5.62201E+01 1.33885E+02
 -1      2031-1.31545E+01 5.29432E+01 1.26094E+02
 -1      2032-1.32387E+01 7.26530E+01 1.72979E+02
 -1      2033-1.32636E+01 6.60855E+01 1.57350E+02
 -1      2034-1.22341E+01 3.38296E+01 8.06790E+01
 -1      2035-1.29703E+01 4.64388E+01 1.10634E+02
 -1      2036-1.16350E+01 2.78527E+01 6.64903E+01
 -1      2037-6.73654E+00 6.35101E+00 1.55195E+01
 -1      2038-5.93292E+00 4.74434E+00 1.17202E+01
 -1      2039-5.07720E+00 3.34064E+00 8.40780E+00
 -1      2040-4.15775E+00 2.15290E+00 5.60833E+00
 -1      2041-1.32608E+01 6.27960E+01 1.49523E+02
 -1      2042-7.48340E+00 8.15035E+00 1.97729E+01
 -1      2043-1.30757E+01 4.96807E+01 1.18338E+02
 -1      2044-9.40931E+00 1.45563E+01 3.49485E+01
 -1      2045-8.81862E+00 1.22647E+01 2.95185E+01
 -1      2046-8.17762E+00 1.01253E+01 2.44502E+01
 -1      2047-1.32550E+01 6.93722E+01 1.65171E+02
 -1      2048-9.94997E+00 1.69873E+01 4.07100E+01
 -1      2049-1.19593E+01 3.08078E+01 7.35067E+01
 -1      2050-1.24689E+01 3.69118E+01 8.79997E+01
 -1      2051-1.28345E+01 4.32254E+01 1.02997E+02
 -1      2052-8.76665E+00 2.34907E+01 5.62865E+01
 -1      2053-1.04432E+01 1.95439E+01 4.67743E+01
 -1      2054-1.45640E+01 8.33079E+01 1.98355E+02
 -1      2055-1.25589E+00 2.84071E-02 9.20663E-01
 -1      2056-1.05015E+01 8.09622E+01 1.92759E+02
 -1      2057-1.37738E+00 1.68763E-01 9.06622E-01
 -1      2058-8.91099E-01 2.57098E-01 4.85321E-01
 -1      2059-4.93168E-01-1.65776E-01 2.57946E-01
 -1      2060-1.67619E+01 8.36258E+01 1.99117E+02
 -1      2061-9.60985E+00 8.36479E+01 1.99157E+02
 -1      2062-1.31956E+01 8.15344E+01 1.94128E+02
 -1      2063-2.09208E-01-1.39654E-01 9.41494E-02
 -1      2064-2.45105E-01-1.06125E-01 1.55238E-01
 -1      2065-5.83102E-01-2.27924E-01 2.74686E-01
 -1      2066-4.13392E-01 9.91473E-02 2.73463E-01
 -1      2067-4.67407E-01 1.82699E-01 2.73791E-01
 -1      2068-1.23129E+00 4.55235E-01 5.77567E-01
 -1      2069-1.00057E+01 8.46757E+01 2.01605E+02
 -1      2070-8.62361E+00 8.46764E+01 2.01607E+02
 -1      2071-8.62817E+00 8.30522E+01 1.97736E+02
 -1      2072-1.77349E+01 8.46630E+01 2.01587E+02
 -1      2073-1.63517E+01 8.46641E+01 2.01586E+02
 -1      2074-1.77413E+01 8.30352E+01 1.97714E+02
 -1      2075-3.07178E-01-7.98204E-02 1.99845E-01
 -1      2076-3.54715E-01-4.42457E-02 2.46984E-01
 -1      2077-5.86984E-01-1.12554E-01 3.42615E-01
 -1      2078-4.05783E-01 4.82384E-03 2.73386E-01
 -1      2079-4.56757E-01 5.68808E-02 3.08735E-01
 -1      2080-7.86598E-01 1.71694E-02 4.80650E-01
 -1      2081-8.92778E-01 1.74419E-01 5.16344E-01
 -1      2082-1.25218E+01 8.45559E+01 2.01322E+02
 -1      2083-1.11365E+01 8.45566E+01 2.01322E+02
 -1      2084-1.07404E+01 8.35282E+01 1.98873E+02
 -1      2085-1.52530E+01 8.45051E+01 2.01206E+02
 -1      2086-1.38678E+01 8.45061E+01 2.01205E+02
 -1      2087-1.32180E+01 8.33581E+01 1.98472E+02
 -1      2088-1.56633E+01 8.34668E+01 1.98736E+02
 -1      2089-1.29550E+00 4.19916E-02 1.08211E+00
 -1      2090-9.18587E-01-1.38290E-01 5.85199E-01
 -1      2091-8.59296E-01-1.12632E-01 5.32223E-01
 -1      2092-2.02184E+00 6.81156E-01 2.60420E+00
 -1      2093-1.66895E+00 3.27128E-01 1.77528E+00
 -1      2094-1.69911E+00 2.67500E-01 1.52694E+00
 -1      2095-2.69997E+00 1.58557E+00 4.70844E+00
 -1      2096-2.36679E+00 1.10106E+00 3.58078E+00
 -1      2097-2.53203E+00 9.77015E-01 3.20517E+00
 -1      2098-3.34006E+00 2.73382E+00 7.38651E+00
 -1      2099-3.02563E+00 2.13245E+00 5.98143E+00
 -1      2100-3.30745E+00 1.94010E+00 5.45115E+00
 -1      2101-3.94182E+00 4.10273E+00 1.05904E+01
 -1      2102-3.64808E+00 3.39137E+00 8.92498E+00
 -1      2103-4.03764E+00 3.14033E+00 8.25879E+00
 -1      2104-4.50260E+00 5.67814E+00 1.42873E+01
 -1      2105-4.22662E+00 4.86561E+00 1.23786E+01
 -1      2106-4.72399E+00 4.55755E+00 1.15812E+01
 -1      2107-5.02421E+00 7.44783E+00 1.84478E+01
 -1      2108-4.76846E+00 6.53909E+00 1.63115E+01
 -1      2109-5.35915E+00 6.17697E+00 1.53901E+01
 -1      2110-5.50963E+00 9.39660E+00 2.30367E+01
 -1      2111-5.27019E+00 8.40085E+00 2.06900E+01
 -1      2112-5.95264E+00 7.98790E+00 1.96530E+01
 -1      2113-5.96004E+00 1.15133E+01 2.80258E+01
 -1      2114-5.73922E+00 1.04346E+01 2.54834E+01
 -1      2115-6.50156E+00 9.97490E+00 2.43384E+01
 -1      2116-6.37371E+00 1.37846E+01 3.33842E+01
 -1      2117-6.17151E+00 1.26301E+01 3.06608E+01
 -1      2118-7.01156E+00 1.21261E+01 2.94156E+01
 -1      2119-6.75344E+00 1.61974E+01 3.90811E+01
 -1      2120-6.56799E+00 1.49740E+01 3.61917E+01
 -1      2121-7.48169E+00 1.44292E+01 3.48538E+01
 -1      2122-7.09945E+00 1.87387E+01 4.50856E+01
 -1      2123-6.92933E+00 1.74529E+01 4.20461E+01
 -1      2124-7.91007E+00 1.68708E+01 4.06241E+01
 -1      2125-7.38968E+00 2.13948E+01 5.13654E+01
 -1      2126-7.23741E+00 2.00512E+01 4.81889E+01
 -1      2127-8.27646E+00 1.94350E+01 4.66894E+01
 -1      2128-7.66998E+00 2.41584E+01 5.79007E+01
 -1      2129-7.53311E+00 2.27628E+01 5.46005E+01
 -1      2130-8.60515E+00 2.21122E+01 5.30243E+01
 -1      2131-7.92883E+00 2.70178E+01 6.46670E+01
 -1      2132-7.80630E+00 2.55769E+01 6.12570E+01
 -1      2133-8.92652E+00 2.48957E+01 5.96117E+01
 -1      2134-8.16118E+00 2.99659E+01 7.16455E+01
 -1      2135-8.05371E+00 2.84840E+01 6.81381E+01
 -1      2136-9.22487E+00 2.77777E+01 6.64360E+01
 -1      2137-8.36572E+00 3.29833E+01 7.87912E+01
 -1      2138-8.27183E+00 3.14663E+01 7.51982E+01
 -1      2139-9.49423E+00 3.07417E+01 7.34556E+01
 -1      2140-8.52952E+00 3.60631E+01 8.60882E+01
 -1      2141-8.44847E+00 3.45158E+01 8.24216E+01
 -1      2142-9.71679E+00 3.37721E+01 8.06362E+01
 -1      2143-8.66885E+00 3.91973E+01 9.35153E+01
 -1      2144-8.60014E+00 3.76240E+01 8.97866E+01
 -1      2145-9.89539E+00 3.68627E+01 8.79631E+01
 -1      2146-8.78644E+00 4.23761E+01 1.01052E+02
 -1      2147-8.73015E+00 4.07814E+01 9.72714E+01
 -1      2148-1.00473E+01 4.00053E+01 9.54147E+01
 -1      2149-8.89375E+00 4.55918E+01 1.08679E+02
 -1      2150-8.84782E+00 4.39800E+01 1.04855E+02
 -1      2151-1.01881E+01 4.31913E+01 1.02972E+02
 -1      2152-8.97077E+00 4.88363E+01 1.16376E+02
 -1      2153-8.93466E+00 4.72109E+01 1.12520E+02
 -1      2154-1.03042E+01 4.64119E+01 1.10614E+02
 -1      2155-9.02903E+00 5.21026E+01 1.24128E+02
 -1      2156-9.00201E+00 5.04671E+01 1.20246E+02
 -1      2157-1.03873E+01 4.96599E+01 1.18323E+02
 -1      2158-9.07029E+00 5.53841E+01 1.31919E+02
 -1      2159-9.05188E+00 5.37416E+01 1.28019E+02
 -1      2160-1.04492E+01 5.29280E+01 1.26082E+02
 -1      2161-9.09672E+00 5.86743E+01 1.39734E+02
 -1      2162-9.08468E+00 5.70285E+01 1.35824E+02
 -1      2163-1.04924E+01 5.62101E+01 1.33877E+02
 -1      2164-9.11083E+00 6.19691E+01 1.47562E+02
 -1      2165-9.10534E+00 6.03213E+01 1.43647E+02
 -1      2166-1.05186E+01 5.95001E+01 1.41694E+02
 -1      2167-9.11415E+00 6.52638E+01 1.55393E+02
 -1      2168-9.11386E+00 6.36166E+01 1.51478E+02
 -1      2169-1.05317E+01 6.27937E+01 1.49521E+02
 -1      2170-9.10925E+00 6.85545E+01 1.63219E+02
 -1      2171-9.11241E+00 6.69099E+01 1.59307E+02
 -1      2172-1.05331E+01 6.60864E+01 1.57350E+02
 -1      2173-9.09863E+00 7.18391E+01 1.71033E+02
 -1      2174-9.10459E+00 7.01976E+01 1.67128E+02
 -1      2175-1.05252E+01 6.93749E+01 1.65172E+02
 -1      2176-9.08462E+00 7.51153E+01 1.78831E+02
 -1      2177-9.09183E+00 7.34784E+01 1.74934E+02
 -1      2178-1.05118E+01 7.26571E+01 1.72982E+02
 -1      2179-9.04294E+00 7.83659E+01 1.86571E+02
 -1      2180-9.05022E+00 7.67334E+01 1.82683E+02
 -1      2181-1.04679E+01 7.59141E+01 1.80735E+02
 -1      2182-9.07260E+00 8.17096E+01 1.94537E+02
 -1      2183-9.07872E+00 8.00814E+01 1.90658E+02
 -1      2184-1.04666E+01 7.92477E+01 1.88674E+02
 -1      2185-1.00550E+01 8.23059E+01 1.95959E+02
 -1      2186-1.75745E+00 5.65644E-01 8.92519E-01
 -1      2187-2.45609E+00 8.04673E-01 1.40508E+00
 -1      2188-1.40550E+00 3.72206E-01 7.63966E-01
 -1      2189-3.16965E+00 1.10323E+00 2.09320E+00
 -1      2190-3.84129E+00 1.44669E+00 2.91577E+00
 -1      2191-2.55717E+00 7.66978E-01 1.73201E+00
 -1      2192-4.50288E+00 1.85382E+00 3.89537E+00
 -1      2193-5.13962E+00 2.31686E+00 5.01318E+00
 -1      2194-3.83044E+00 1.47623E+00 3.40192E+00
 -1      2195-5.75955E+00 2.84141E+00 6.27904E+00
 -1      2196-6.36025E+00 3.42081E+00 7.67516E+00
 -1      2197-5.01210E+00 2.41688E+00 5.64876E+00
 -1      2198-6.93727E+00 4.05583E+00 9.20512E+00
 -1      2199-7.49985E+00 4.74452E+00 1.08611E+01
 -1      2200-6.11225E+00 3.58676E+00 8.44677E+00
 -1      2201-8.04358E+00 5.48607E+00 1.26402E+01
 -1      2202-8.57057E+00 6.27854E+00 1.45398E+01
 -1      2203-7.14232E+00 4.97312E+00 1.17565E+01
 -1      2204-9.07940E+00 7.11907E+00 1.65554E+01
 -1      2205-9.56973E+00 8.00589E+00 1.86820E+01
 -1      2206-8.10821E+00 6.56599E+00 1.55533E+01
 -1      2207-1.00427E+01 8.93874E+00 2.09171E+01
 -1      2208-1.04979E+01 9.91533E+00 2.32554E+01
 -1      2209-9.00995E+00 8.34848E+00 1.98045E+01
 -1      2210-1.09373E+01 1.09338E+01 2.56930E+01
 -1      2211-1.13590E+01 1.19924E+01 2.82279E+01
 -1      2212-9.84797E+00 1.03098E+01 2.44791E+01
 -1      2213-1.17632E+01 1.30902E+01 3.08545E+01
 -1      2214-1.21511E+01 1.42247E+01 3.35692E+01
 -1      2215-1.06227E+01 1.24355E+01 2.95460E+01
 -1      2216-1.25229E+01 1.53954E+01 3.63695E+01
 -1      2217-1.28779E+01 1.65994E+01 3.92502E+01
 -1      2218-1.13347E+01 1.47128E+01 3.49731E+01
 -1      2219-1.32168E+01 1.78365E+01 4.22083E+01
 -1      2220-1.35397E+01 1.91053E+01 4.52404E+01
 -1      2221-1.19863E+01 1.71292E+01 4.07331E+01
 -1      2222-1.38560E+01 2.04027E+01 4.83394E+01
 -1      2223-1.41496E+01 2.17283E+01 5.15089E+01
 -1      2224-1.25889E+01 1.96730E+01 4.67923E+01
 -1      2225-1.44217E+01 2.30760E+01 5.47300E+01
 -1      2226-1.46848E+01 2.44536E+01 5.80224E+01
 -1      2227-1.31298E+01 2.23263E+01 5.31146E+01
 -1      2228-1.49416E+01 2.58552E+01 6.13692E+01
 -1      2229-1.51760E+01 2.72795E+01 6.47725E+01
 -1      2230-1.36164E+01 2.50828E+01 5.96818E+01
 -1      2231-1.53847E+01 2.87325E+01 6.82439E+01
 -1      2232-1.55919E+01 3.01985E+01 7.17447E+01
 -1      2233-1.40442E+01 2.79448E+01 6.65015E+01
 -1      2234-1.57853E+01 3.16832E+01 7.52901E+01
 -1      2235-1.59656E+01 3.31850E+01 7.88760E+01
 -1      2236-1.44121E+01 3.08904E+01 7.35198E+01
 -1      2237-1.61333E+01 3.47034E+01 8.25012E+01
 -1      2238-1.62886E+01 3.62368E+01 8.61612E+01
 -1      2239-1.47435E+01 3.39001E+01 8.06904E+01
 -1      2240-1.64527E+01 3.77423E+01 8.97532E+01
 -1      2241-1.65848E+01 3.93011E+01 9.34755E+01
 -1      2242-1.50498E+01 3.69310E+01 8.79088E+01
 -1      2243-1.67118E+01 4.09584E+01 9.74307E+01
 -1      2244-1.68209E+01 4.25407E+01 1.01207E+02
 -1      2245-1.53203E+01 4.00985E+01 9.54540E+01
 -1      2246-1.68918E+01 4.40888E+01 1.04902E+02
 -1      2247-1.69806E+01 4.56893E+01 1.08720E+02
 -1      2248-1.54998E+01 4.33108E+01 1.03107E+02
 -1      2249-1.70595E+01 4.72974E+01 1.12557E+02
 -1      2250-1.71290E+01 4.89121E+01 1.16409E+02
 -1      2251-1.56348E+01 4.64726E+01 1.10640E+02
 -1      2252-1.71896E+01 5.05330E+01 1.20275E+02
 -1      2253-1.72419E+01 5.21586E+01 1.24152E+02
 -1      2254-1.57631E+01 4.97065E+01 1.18343E+02
 -1      2255-1.72860E+01 5.37888E+01 1.28040E+02
 -1      2256-1.73227E+01 5.54227E+01 1.31935E+02
 -1      2257-1.58589E+01 5.29621E+01 1.26096E+02
 -1      2258-1.73523E+01 5.70593E+01 1.35838E+02
 -1      2259-1.73754E+01 5.86978E+01 1.39744E+02
 -1      2260-1.59261E+01 5.62331E+01 1.33887E+02
 -1      2261-1.73925E+01 6.03383E+01 1.43655E+02
 -1      2262-1.74039E+01 6.19798E+01 1.47567E+02
 -1      2263-1.59688E+01 5.95135E+01 1.41700E+02
 -1      2264-1.74104E+01 6.36219E+01 1.51481E+02
 -1      2265-1.74124E+01 6.52641E+01 1.55394E+02
 -1      2266-1.59899E+01 6.27990E+01 1.49524E+02
 -1      2267-1.74105E+01 6.69060E+01 1.59306E+02
 -1      2268-1.74053E+01 6.85473E+01 1.63216E+02
 -1      2269-1.59936E+01 6.60854E+01 1.57350E+02
 -1      2270-1.73973E+01 7.01877E+01 1.67124E+02
 -1      2271-1.73872E+01 7.18267E+01 1.71028E+02
 -1      2272-1.59840E+01 6.93694E+01 1.65170E+02
 -1      2273-1.73755E+01 7.34646E+01 1.74929E+02
 -1      2274-1.73629E+01 7.51009E+01 1.78826E+02
 -1      2275-1.59655E+01 7.26485E+01 1.72979E+02
 -1      2276-1.73576E+01 7.67426E+01 1.82734E+02
 -1      2277-1.73451E+01 7.83758E+01 1.86623E+02
 -1      2278-1.59500E+01 7.59284E+01 1.80788E+02
 -1      2279-1.73092E+01 8.00770E+01 1.90672E+02
 -1      2280-1.72993E+01 8.17073E+01 1.94552E+02
 -1      2281-1.59103E+01 7.92708E+01 1.88746E+02
 -1      2282-1.63185E+01 8.22985E+01 1.95956E+02
 -1      2283-1.16640E+01 4.72337E+01 1.12546E+02
 -1      2284-1.16105E+01 4.56171E+01 1.08709E+02
 -1      2285-1.17520E+01 5.04844E+01 1.20267E+02
 -1      2286-1.17112E+01 4.88561E+01 1.16400E+02
 -1      2287-1.30259E+01 4.80567E+01 1.14479E+02
 -1      2288-1.18985E+01 6.36178E+01 1.51480E+02
 -1      2289-1.18945E+01 6.19716E+01 1.47565E+02
 -1      2290-1.18873E+01 6.03257E+01 1.43652E+02
 -1      2291-1.18758E+01 5.86801E+01 1.39741E+02
 -1      2292-1.32544E+01 6.11507E+01 1.45610E+02
 -1      2293-1.46226E+01 6.85500E+01 1.63216E+02
 -1      2294-1.46157E+01 7.01914E+01 1.67124E+02
 -1      2295-1.46289E+01 6.52637E+01 1.55394E+02
 -1      2296-1.46272E+01 6.69072E+01 1.59306E+02
 -1      2297-1.32603E+01 6.77295E+01 1.61262E+02
 -1      2298-1.18238E+01 7.67254E+01 1.82670E+02
 -1      2299-1.18604E+01 7.51073E+01 1.78818E+02
 -1      2300-1.31921E+01 7.74700E+01 1.84448E+02
 -1      2301-1.18005E+01 7.82754E+01 1.86361E+02
 -1      2302-1.18341E+01 7.99912E+01 1.90449E+02
 -1      2303-1.14043E+01 4.08171E+01 9.73128E+01
 -1      2304-1.13236E+01 3.92355E+01 9.35605E+01
 -1      2305-1.25786E+01 3.84734E+01 9.17084E+01
 -1      2306-1.12293E+01 3.76661E+01 8.98359E+01
 -1      2307-1.11357E+01 3.61090E+01 8.61416E+01
 -1      2308-1.44872E+01 5.21358E+01 1.24154E+02
 -1      2309-1.45240E+01 5.37695E+01 1.28041E+02
 -1      2310-1.45546E+01 5.54068E+01 1.31936E+02
 -1      2311-1.45795E+01 5.70463E+01 1.35838E+02
 -1      2312-1.31845E+01 5.45803E+01 1.29986E+02
 -1      2313-1.07977E+01 3.15235E+01 7.52652E+01
 -1      2314-1.06562E+01 3.00269E+01 7.17169E+01
 -1      2315-1.10300E+01 3.45658E+01 8.24794E+01
 -1      2316-1.09205E+01 3.30365E+01 7.88531E+01
 -1      2317-1.21008E+01 3.23107E+01 7.70731E+01
 -1      2318-5.34968E+00 3.14338E+00 7.69262E+00
 -1      2319-5.83459E+00 3.78617E+00 9.22117E+00
 -1      2320-6.30728E+00 4.48473E+00 1.08768E+01
 -1      2321-6.76368E+00 5.23493E+00 1.26556E+01
 -1      2322-5.51133E+00 4.01603E+00 1.00012E+01
 -1      2323-6.87904E+00 8.54350E+00 2.08555E+01
 -1      2324-6.55718E+00 7.59586E+00 1.86190E+01
 -1      2325-6.22179E+00 6.69324E+00 1.64899E+01
 -1      2326-5.87441E+00 5.83699E+00 1.44718E+01
 -1      2327-7.11577E+00 7.22771E+00 1.75915E+01
 -1      2328-3.94624E+00 2.31820E+00 6.19504E+00
 -1      2329-3.52035E+00 1.77735E+00 4.92884E+00
 -1      2330-2.63057E+00 8.81772E-01 2.83303E+00
 -1      2331-3.08175E+00 1.29760E+00 3.80409E+00
 -1      2332-3.67492E+00 1.64633E+00 4.41532E+00
 -1      2333-1.08240E+01 1.64369E+01 3.92601E+01
 -1      2334-1.11079E+01 1.76807E+01 4.22177E+01
 -1      2335-1.02139E+01 1.40465E+01 3.35804E+01
 -1      2336-1.05257E+01 1.52240E+01 3.63800E+01
 -1      2337-9.68488E+00 1.57552E+01 3.77901E+01
 -1      2338-1.18782E+01 2.15804E+01 5.14855E+01
 -1      2339-1.21064E+01 2.29339E+01 5.47051E+01
 -1      2340-1.10677E+01 2.35709E+01 5.63304E+01
 -1      2341-1.23313E+01 2.43277E+01 5.80169E+01
 -1      2342-1.25479E+01 2.57353E+01 6.13632E+01
 -1      2343-8.82544E+00 9.70489E+00 2.32683E+01
 -1      2344-9.19461E+00 1.07314E+01 2.57057E+01
 -1      2345-9.54851E+00 1.17983E+01 2.82399E+01
 -1      2346-9.88815E+00 1.29035E+01 3.08660E+01
 -1      2347-8.50356E+00 1.11753E+01 2.69369E+01
 -1      2348-2.07157E+00 4.95468E-01 1.44073E+00
 -1      2349-2.67892E+00 7.97896E-01 2.14132E+00
 -1      2350-1.62070E+00 3.19168E-01 1.02712E+00
 -1      2351-1.78828E+00 3.27558E-01 1.29905E+00
 -1      2352-1.14585E+00 1.31672E-01 7.00179E-01
 -1      2353-1.36527E+00 2.79272E-01 7.97867E-01
 -1      2354-1.42681E+01 4.56498E+01 1.08723E+02
 -1      2355-1.43344E+01 4.72619E+01 1.12559E+02
 -1      2356-1.41382E+01 4.24918E+01 1.01210E+02
 -1      2357-1.41935E+01 4.40446E+01 1.04904E+02
 -1      2358-1.29053E+01 4.48281E+01 1.06806E+02
 -1      2359-1.18708E+01 7.34742E+01 1.74930E+02
 -1      2360-1.18796E+01 7.18354E+01 1.71029E+02
 -1      2361-1.18872E+01 7.01946E+01 1.67125E+02
 -1      2362-1.18931E+01 6.85522E+01 1.63217E+02
 -1      2363-1.32474E+01 7.10135E+01 1.69077E+02
 -1      2364-1.45567E+01 7.82946E+01 1.86416E+02
 -1      2365-1.45224E+01 7.99951E+01 1.90466E+02
 -1      2366-1.31816E+01 8.02774E+01 1.91134E+02
 -1      2367-1.45358E+01 8.12526E+01 1.93461E+02
 -1      2368-1.52195E+01 8.21397E+01 1.95575E+02
 -1      2369-1.38797E+01 8.24212E+01 1.96242E+02
 -1      2370-1.27510E+01 2.71694E+01 6.47718E+01
 -1      2371-1.29242E+01 2.86291E+01 6.82426E+01
 -1      2372-1.31024E+01 3.01045E+01 7.17507E+01
 -1      2373-1.32655E+01 3.15947E+01 7.52953E+01
 -1      2374-1.18014E+01 2.93211E+01 6.99754E+01
 -1      2375-1.45848E+01 7.51028E+01 1.78816E+02
 -1      2376-1.45814E+01 7.67443E+01 1.82725E+02
 -1      2377-1.46069E+01 7.18314E+01 1.71028E+02
 -1      2378-1.45969E+01 7.34698E+01 1.74929E+02
 -1      2379-1.32277E+01 7.42869E+01 1.76869E+02
 -1      2380-1.34170E+01 3.31034E+01 7.88811E+01
 -1      2381-1.35572E+01 3.46269E+01 8.25056E+01
 -1      2382-1.36874E+01 3.61661E+01 8.61657E+01
 -1      2383-1.38294E+01 3.76768E+01 8.97571E+01
 -1      2384-1.23550E+01 3.53638E+01 8.43225E+01
 -1      2385-9.04542E+00 1.75547E+01 4.21643E+01
 -1      2386-8.81488E+00 1.63041E+01 3.92045E+01
 -1      2387-9.45352E+00 2.01439E+01 4.82967E+01
 -1      2388-9.26554E+00 1.88354E+01 4.51982E+01
 -1      2389-1.02010E+01 1.82498E+01 4.37060E+01
 -1      2390-1.05103E+01 2.85467E+01 6.82073E+01
 -1      2391-1.03504E+01 2.70841E+01 6.47411E+01
 -1      2392-1.14554E+01 2.64050E+01 6.30552E+01
 -1      2393-1.01849E+01 2.56452E+01 6.13306E+01
 -1      2394-1.00088E+01 2.42306E+01 5.79793E+01
 -1      2395-8.57253E+00 1.50859E+01 3.63215E+01
 -1      2396-8.31875E+00 1.39011E+01 3.35192E+01
 -1      2397-8.05373E+00 1.27524E+01 3.08024E+01
 -1      2398-7.77746E+00 1.16402E+01 2.81727E+01
 -1      2399-9.11938E+00 1.33925E+01 3.21903E+01
 -1      2400-1.01667E+00 3.53484E-02 6.40121E-01
 -1      2401-1.32636E+00 9.58755E-02 9.24637E-01
 -1      2402-9.89921E-01-3.53002E-02 6.37002E-01
 -1      2403-1.25335E+01 8.24717E+01 1.96359E+02
 -1      2404-1.11865E+01 8.21856E+01 1.95675E+02
 -1      2405-1.18484E+01 8.12482E+01 1.93443E+02
 -1      2406-1.46222E+01 6.19753E+01 1.47567E+02
 -1      2407-1.46273E+01 6.36196E+01 1.51481E+02
 -1      2408-1.45988E+01 5.86883E+01 1.39745E+02
 -1      2409-1.46128E+01 6.03312E+01 1.43655E+02
 -1      2410-1.18608E+01 5.70361E+01 1.35833E+02
 -1      2411-1.18415E+01 5.53938E+01 1.31931E+02
 -1      2412-1.18169E+01 5.37541E+01 1.28034E+02
 -1      2413-1.17870E+01 5.21171E+01 1.24145E+02
 -1      2414-8.04597E+00 7.78010E+00 1.86961E+01
 -1      2415-8.44243E+00 8.72018E+00 2.09301E+01
 -1      2416-7.20603E+00 6.03539E+00 1.45551E+01
 -1      2417-7.63406E+00 6.88357E+00 1.65698E+01
 -1      2418-5.51488E+00 5.03045E+00 1.25696E+01
 -1      2419-5.14316E+00 4.27310E+00 1.07876E+01
 -1      2420-4.75845E+00 3.56797E+00 9.12914E+00
 -1      2421-4.35683E+00 2.91521E+00 7.59679E+00
 -1      2422-3.22296E+00 1.13200E+00 2.92783E+00
 -1      2423-3.78193E+00 1.54604E+00 3.90712E+00
 -1      2424-4.32151E+00 2.01953E+00 5.02852E+00
 -1      2425-4.84318E+00 2.55266E+00 6.29332E+00
 -1      2426-2.69263E+00 8.33566E-01 2.50423E+00
 -1      2427-2.18727E+00 5.45135E-01 2.04188E+00
 -1      2428-1.69478E+00 2.56480E-01 1.33459E+00
 -1      2429-1.15503E+01 4.40087E+01 1.04889E+02
 -1      2430-1.14733E+01 4.24080E+01 1.01090E+02
 -1      2431-1.27611E+01 4.16313E+01 9.92101E+01
 -1      2432-1.40520E+01 4.09042E+01 9.74342E+01
 -1      2433-1.39455E+01 3.92421E+01 9.34792E+01
 -1      2434-1.18974E+01 6.69083E+01 1.59306E+02
 -1      2435-1.18994E+01 6.52633E+01 1.55394E+02
 -1      2436-1.32634E+01 6.44411E+01 1.53437E+02
 -1      2437-1.43928E+01 4.88813E+01 1.16411E+02
 -1      2438-1.44436E+01 5.05059E+01 1.20276E+02
 -1      2439-1.31179E+01 5.13097E+01 1.22210E+02
 -1      2440-1.13801E+01 1.89565E+01 4.52494E+01
 -1      2441-1.16470E+01 2.02610E+01 4.83486E+01
 -1      2442-1.06562E+01 2.08521E+01 4.98787E+01
 -1      2443-9.82619E+00 2.28318E+01 5.46649E+01
 -1      2444-9.63883E+00 2.14684E+01 5.14351E+01
 -1      2445-7.48956E+00 1.05676E+01 2.56368E+01
 -1      2446-7.18928E+00 9.53366E+00 2.31960E+01
 -1      2447-7.83541E+00 9.11574E+00 2.20605E+01
 -1      2448-6.34002E+00 5.52281E+00 1.35607E+01
 -1      2449-4.62398E+00 2.71844E+00 6.94013E+00
 -1      2450-1.32291E+01 5.78621E+01 1.37789E+02
 -1      2451-8.62995E-02 4.08379E-01 9.69919E-01
 -1      2452-6.86494E-01 8.04023E+01 1.91437E+02
 -1      2453 8.46882E-05 7.42857E+01 1.76873E+02
 -1      2454 4.60633E-03 1.74986E+00 4.16527E+00
 -1      2455 5.87206E-04 9.19198E+00 2.18835E+01
 -1      2456 9.11970E-05 6.44421E+01 1.53436E+02
 -1      2457 1.39226E-06 5.78672E+01 1.37780E+02
 -1      2458 9.46516E-05 5.13191E+01 1.22190E+02
 -1      2459 5.28136E-04 4.48432E+01 1.06771E+02
 -1      2460 1.16760E-04 3.53898E+01 8.42616E+01
 -1      2461-1.03899E-06 1.83044E+01 4.35804E+01
 -1      2462 2.88049E-05 5.60910E+00 1.33561E+01
 -1      2463-3.10294E-03 2.93581E+01 6.99023E+01
 -1      2464-1.71008E-03 1.34563E+01 3.20391E+01
 -1      2465 9.44535E-04 2.36157E+01 5.62279E+01
 -1      2466-8.14749E-01 4.00659E+01 9.53983E+01
 -1      2467-8.53192E-01 6.93699E+01 1.65168E+02
 -1      2468-3.19760E-01 3.42753E+00 8.17181E+00
 -1      2469 7.06888E+00 8.22277E+01 1.95783E+02
 -1      2470 5.73052E-01 2.46140E-01 4.55260E-01
 -1      2471-3.00871E+00 8.23189E+01 1.95999E+02
 -1      2472 2.25153E-01 1.05957E-01 3.80125E-01
 -1      2473 1.50237E+00 1.12154E+01 2.67629E+01
 -1      2474 3.01247E+00 7.34241E+00 1.74148E+01
 -1      2475 2.30419E+00 6.11526E+01 1.45605E+02
 -1      2476-2.30422E+00 6.11524E+01 1.45605E+02
 -1      2477-5.53924E+00 4.80738E+01 1.14454E+02
 -1      2478-5.60970E+00 5.45894E+01 1.29972E+02
 -1      2479 5.60977E+00 5.45897E+01 1.29972E+02
 -1      2480 5.53913E+00 4.80742E+01 1.14453E+02
 -1      2481-3.00781E+00 7.34255E+00 1.74151E+01
 -1      2482 5.13835E+00 3.23529E+01 7.70066E+01
 -1      2483 2.00783E+00 2.64267E+01 6.29540E+01
 -1      2484-1.86229E+00 2.08840E+01 4.97658E+01
 -1      2485-5.13969E+00 3.23537E+01 7.70090E+01
 -1      2486-4.10629E+00 1.58379E+01 3.76614E+01
 -1      2487-1.47151E+00 1.12144E+01 2.67594E+01
 -1      2488-1.99099E+00 2.64266E+01 6.29536E+01
 -1      2489 4.11556E+00 1.58381E+01 3.76614E+01
 -1      2490 1.87119E+00 2.08843E+01 4.97660E+01
 -1      2491-2.39245E-01 1.09473E-01 3.93128E-01
 -1      2492 2.96630E+00 8.23355E+01 1.96038E+02
 -1      2493 2.46371E+00 7.13025E+01 1.69768E+02
 -1      2494 1.02764E+00 4.19136E+00 1.00670E+01
 -1      2495 1.15757E+00 9.94907E-01 2.27305E+00
 -1      2496 5.77083E+00 7.74669E+01 1.84448E+02
 -1      2497-5.73395E-01 2.36479E-01 4.25934E-01
 -1      2498 2.48636E+00 6.73990E+01 1.60475E+02
 -1      2499 8.39383E-01 2.65211E+00 6.41152E+00
 -1      2500-7.61790E+00 8.24071E+01 1.96212E+02
 -1      2501 2.34772E+00 3.82056E+01 9.09881E+01
 -1      2502 1.95074E+00 4.19345E+01 9.98590E+01
 -1      2503-1.25162E+00 1.05251E+00 2.39991E+00
 -1      2504 3.09756E-01 7.73178E+01 1.84092E+02
 -1      2505-4.01404E+00 7.73189E+01 1.84093E+02
 -1      2506 6.39572E+00 4.23786E+01 1.00881E+02
 -1      2507 6.25985E+00 3.78024E+01 8.99808E+01
 -1      2508 6.62923E+00 7.17510E+01 1.70839E+02
 -1      2509-6.62922E+00 7.17506E+01 1.70840E+02
 -1      2510-6.63704E+00 6.69847E+01 1.59491E+02
 -1      2511 6.63702E+00 6.69851E+01 1.59490E+02
 -1      2512 2.82771E+00 4.48324E+00 1.05678E+01
 -1      2513 2.18544E+00 2.61302E+00 6.10633E+00
 -1      2514-5.30929E+00 2.03130E+01 4.83077E+01
 -1      2515-2.67693E+00 4.72856E+01 1.12601E+02
 -1      2516-6.69035E+00 6.19426E+01 1.47483E+02
 -1      2517 6.69037E+00 6.19430E+01 1.47482E+02
 -1      2518-2.71891E+00 5.53685E+01 1.31839E+02
 -1      2519 2.71895E+00 5.53689E+01 1.31839E+02
 -1      2520 2.68773E+00 4.88398E+01 1.16299E+02
 -1      2521-1.49378E+00 7.69493E+00 1.84157E+01
 -1      2522 2.50268E+00 3.30484E+01 7.87218E+01
 -1      2523-4.19160E+00 1.07794E+01 2.55837E+01
 -1      2524-2.01513E+00 1.63635E+01 3.90293E+01
 -1      2525 1.49188E+00 7.69574E+00 1.84172E+01
 -1      2526-2.50274E+00 3.30486E+01 7.87220E+01
 -1      2527 5.30302E+00 2.03116E+01 4.83037E+01
 -1      2528 4.20551E+00 1.07715E+01 2.55638E+01
 -1      2529 2.01011E+00 1.63654E+01 3.90332E+01
 -1      2530 5.82046E+00 2.71655E+01 6.46351E+01
 -1      2531-5.81527E+00 2.71567E+01 6.46151E+01
 -1      2532-6.18872E+00 3.78064E+01 8.99910E+01
 -1      2533-2.82825E+00 4.48327E+00 1.05686E+01
 -1      2534-2.18534E+00 2.61084E+00 6.10141E+00
 -1      2535-5.93709E-01 1.02379E+00 2.56527E+00
 -1      2536 5.50571E-01 1.02614E+00 2.56332E+00
 -1      2537-2.91124E+00 4.28901E+01 1.02144E+02
 -1      2538-3.05800E+00 3.74811E+01 8.92821E+01
 -1      2539-3.00552E+00 7.23021E+01 1.72148E+02
 -1      2540-3.01007E+00 6.64343E+01 1.58179E+02
 -1      2541-6.60505E+00 4.25520E+01 1.01295E+02
 -1      2542-9.64972E-01 2.29611E+00 5.61252E+00
 -1      2543-1.32228E+00 4.60394E+00 1.10911E+01
 -1      2544-7.80951E+00 7.58787E+01 1.80670E+02
 -1      2545 2.23748E+00 1.39214E+01 3.32473E+01
 -1      2546-7.81215E+00 5.86072E+01 1.39538E+02
 -1      2547-3.15644E+00 5.05793E+01 1.20444E+02
 -1      2548 7.81217E+00 5.86076E+01 1.39538E+02
 -1      2549 3.11587E+00 4.55545E+01 1.08486E+02
 -1      2550 1.57420E+00 5.90404E+00 1.41940E+01
 -1      2551 5.27961E+00 1.29929E+01 3.08304E+01
 -1      2552-5.28250E+00 1.29994E+01 3.08472E+01
 -1      2553-2.22277E+00 1.39230E+01 3.32510E+01
 -1      2554-6.58240E+00 2.42837E+01 5.77517E+01
 -1      2555 6.57548E+00 2.42926E+01 5.77715E+01
 -1      2556-2.85913E+00 2.99941E+01 7.14683E+01
 -1      2557 2.85756E+00 2.99955E+01 7.14711E+01
 -1      2558-8.45841E+00 7.91496E+01 1.88457E+02
 -1      2559 3.22877E+00 5.20946E+01 1.24049E+02
 -1      2560 7.74036E+00 5.14516E+01 1.22490E+02
 -1      2561-7.73667E+00 5.12008E+01 1.21895E+02
 -1      2562-2.66781E+00 2.34894E+01 5.59982E+01
 -1      2563 4.36499E+00 2.35958E+01 5.62696E+01
 -1      2564 3.95985E-01 2.36019E+01 5.62060E+01
 -1      2565 4.76723E+00 2.35186E+01 5.62205E+01
 -1      2566 5.24652E+00 2.21931E+01 5.30081E+01
 -1      2567 1.34070E+00 2.22068E+01 5.29266E+01
 -1      2568 9.54722E-01 2.22425E+01 5.29688E+01
 -1      2569 1.38816E+00 2.49820E+01 5.95279E+01
 -1      2570 5.43709E+00 2.49709E+01 5.96050E+01
 -1      2571 9.87810E-01 2.50133E+01 5.95647E+01
 -1      2572 6.31574E+00 8.18802E+01 1.94958E+02
 -1      2573 6.26935E+00 8.06228E+01 1.91965E+02
 -1      2574 1.27575E+00 8.19265E+01 1.95066E+02
 -1      2575 1.22811E+00 8.06696E+01 1.92073E+02
 -1      2576 2.02991E+00 8.22730E+01 1.95891E+02
 -1      2577 1.01482E+01 8.06240E+01 1.91963E+02
 -1      2578 1.01242E+01 8.18811E+01 1.94956E+02
 -1      2579 8.07239E+00 8.19360E+01 1.95084E+02
 -1      2580 5.01729E+00 8.22817E+01 1.95910E+02
 -1      2581 8.09580E+00 8.06792E+01 1.92091E+02
 -1      2582 9.31803E-01 2.39751E-01 6.69481E-01
 -1      2583 3.34266E-01 2.94788E-01 6.72089E-01
 -1      2584 7.07891E-01 3.03810E-01 8.42682E-01
 -1      2585 7.27502E-01 1.16112E-01 6.04747E-01
 -1      2586 1.12229E-01 2.58503E-01 6.43768E-01
 -1      2587 3.94013E-01 1.58617E-01 4.36205E-01
 -1      2588 2.73819E-01 3.50471E-01 7.33558E-01
 -1      2589 5.81815E-01 3.34957E-01 4.53028E-01
 -1      2590 1.13961E-01 2.01582E-01 3.99626E-01
 -1      2591 1.64704E-01 1.84419E-01 3.83842E-01
 -1      2592-1.90342E-01 2.58397E-01 6.57639E-01
 -1      2593 5.73044E+00 6.44416E+01 1.53436E+02
 -1      2594 1.61878E+00 6.27971E+01 1.49520E+02
 -1      2595 6.41531E+00 6.27964E+01 1.49521E+02
 -1      2596 6.50754E+00 6.59211E+01 1.56956E+02
 -1      2597 2.39646E+00 6.42764E+01 1.53041E+02
 -1      2598 1.70962E+00 6.59210E+01 1.56956E+02
 -1      2599 1.15276E+00 6.27979E+01 1.49521E+02
 -1      2600 4.67087E-01 6.44423E+01 1.53436E+02
 -1      2601 1.24322E+00 6.59204E+01 1.56956E+02
 -1      2602 5.26167E+00 6.44421E+01 1.53436E+02
 -1      2603 3.56734E-01 5.39671E-01 1.17781E+00
 -1      2604 1.59001E-01 3.55324E-01 7.61936E-01
 -1      2605 9.09493E-01 4.89254E-01 1.28761E+00
 -1      2606 9.89393E-01 2.62237E-01 9.72581E-01
 -1      2607 1.69791E+00 7.27985E+01 1.73329E+02
 -1      2608 6.48590E+00 7.27994E+01 1.73327E+02
 -1      2609 5.71810E+00 7.42953E+01 1.76885E+02
 -1      2610 6.21416E-01 7.58060E+01 1.80491E+02
 -1      2611 5.40290E+00 7.58073E+01 1.80489E+02
 -1      2612 1.38549E+00 7.43134E+01 1.76937E+02
 -1      2613 1.23122E+00 7.27947E+01 1.73322E+02
 -1      2614 5.25117E+00 7.42894E+01 1.76878E+02
 -1      2615 1.54986E-01 7.58024E+01 1.80484E+02
 -1      2616 7.52931E-01 7.06419E+00 1.67461E+01
 -1      2617-6.98567E-01 6.62693E+00 1.58035E+01
 -1      2618 1.36407E+00 6.03724E+00 1.42736E+01
 -1      2619 6.07367E-01 5.50409E+00 1.30320E+01
 -1      2620-6.89403E-01 5.11420E+00 1.22084E+01
 -1      2621-1.42165E+00 6.06798E+00 1.45570E+01
 -1      2622-4.21848E+00 6.99474E+00 1.69112E+01
 -1      2623-3.24748E+00 5.99483E+00 1.43744E+01
 -1      2624-3.85312E+00 5.42725E+00 1.32154E+01
 -1      2625-9.31958E-01 6.55049E+00 1.57065E+01
 -1      2626-8.95961E-01 5.02694E+00 1.21004E+01
 -1      2627-3.40283E+00 6.50362E+00 1.58169E+01
 -1      2628-3.10420E+00 4.97647E+00 1.22216E+01
 -1      2629 7.93057E-01 4.98302E-01 8.23361E-01
 -1      2630 1.26247E+00 3.98993E-01 1.04364E+00
 -1      2631-2.78334E+00 6.52644E+01 1.55393E+02
 -1      2632-2.78282E+00 6.36203E+01 1.51478E+02
 -1      2633 6.62724E+00 6.52645E+01 1.55393E+02
 -1      2634 6.62611E+00 6.36199E+01 1.51479E+02
 -1      2635 6.61291E+00 7.51027E+01 1.78816E+02
 -1      2636 6.76363E+00 7.66195E+01 1.82425E+02
 -1      2637 6.61597E+00 7.34697E+01 1.74928E+02
 -1      2638 3.08007E+00 9.13282E+00 2.18984E+01
 -1      2639 3.98072E+00 9.66985E+00 2.31105E+01
 -1      2640 3.94478E+00 1.00896E+01 2.42875E+01
 -1      2641 4.89516E+00 1.06551E+01 2.55673E+01
 -1      2642 7.22168E-01 1.01893E+01 2.42759E+01
 -1      2643 4.65444E+00 8.86034E+00 2.13349E+01
 -1      2644 3.75913E+00 8.32832E+00 2.01373E+01
 -1      2645 7.73663E-01 8.44395E+00 2.01264E+01
 -1      2646 3.24572E+00 5.99509E+00 1.43742E+01
 -1      2647 3.80087E+00 5.64396E+00 1.34161E+01
 -1      2648 4.91527E+00 6.87077E+00 1.64407E+01
 -1      2649 5.47388E+00 6.51517E+00 1.54161E+01
 -1      2650 1.42455E+00 6.44374E+00 1.53247E+01
 -1      2651 4.70442E+00 9.22070E+00 2.19346E+01
 -1      2652 3.80598E+00 8.68391E+00 2.07674E+01
 -1      2653 6.08466E+00 8.30224E+00 1.96779E+01
 -1      2654 5.18150E+00 7.76649E+00 1.85702E+01
 -1      2655 1.58473E+00 8.23573E+00 1.95931E+01
 -1      2656 5.56580E+00 2.43242E+01 5.79658E+01
 -1      2657 5.46771E+00 2.29294E+01 5.46474E+01
 -1      2658 1.50993E+00 9.39135E+00 2.24348E+01
 -1      2659 9.15370E-01 1.95841E+01 4.66402E+01
 -1      2660 5.03477E+00 1.95142E+01 4.66485E+01
 -1      2661 4.01680E+00 1.82623E+01 4.35910E+01
 -1      2662 1.02457E+00 1.73353E+01 4.12901E+01
 -1      2663 4.97667E+00 1.72524E+01 4.12977E+01
 -1      2664 1.95082E+00 1.85800E+01 4.42910E+01
 -1      2665 5.94398E+00 9.45444E+00 2.25788E+01
 -1      2666 6.91079E+00 1.00274E+01 2.37755E+01
 -1      2667 2.03706E+00 9.95923E+00 2.36899E+01
 -1      2668 5.13635E+00 1.89349E+01 4.51448E+01
 -1      2669 6.09337E+00 1.79218E+01 4.28417E+01
 -1      2670 7.43650E+00 3.53997E+01 8.42792E+01
 -1      2671 6.13269E+00 3.46149E+01 8.24494E+01
 -1      2672 9.96633E+00 3.38839E+01 8.06449E+01
 -1      2673 8.65938E+00 3.30988E+01 7.88356E+01
 -1      2674 2.59738E+00 3.38601E+01 8.06146E+01
 -1      2675 2.86903E+00 5.67625E+00 1.33379E+01
 -1      2676 4.47900E+00 6.55896E+00 1.53107E+01
 -1      2677 2.91477E+00 6.93643E+00 1.62849E+01
 -1      2678 6.18918E+00 2.02066E+01 4.82501E+01
 -1      2679 3.59492E+00 8.99073E+00 2.13304E+01
 -1      2680-1.59976E+00 8.72282E+00 2.06779E+01
 -1      2681-3.54456E+00 9.24835E+00 2.18677E+01
 -1      2682-3.07077E+00 7.83013E+00 1.84216E+01
 -1      2683-4.97104E+00 8.34238E+00 1.95804E+01
 -1      2684-1.58169E+00 8.23580E+00 1.95933E+01
 -1      2685-4.69767E+00 9.21994E+00 2.19348E+01
 -1      2686-3.80826E+00 8.68432E+00 2.07689E+01
 -1      2687-6.07632E+00 8.30132E+00 1.96783E+01
 -1      2688-5.18198E+00 7.76694E+00 1.85717E+01
 -1      2689-1.67167E+00 9.70682E+00 2.30252E+01
 -1      2690 2.72111E-01 9.16189E+00 2.18315E+01
 -1      2691 1.00320E+00 1.01284E+01 2.41977E+01
 -1      2692-1.01137E+00 1.07113E+01 2.54346E+01
 -1      2693 5.24633E+00 5.78641E+01 1.37781E+02
 -1      2694 6.61122E+00 5.86873E+01 1.39737E+02
 -1      2695 7.77331E+00 6.03295E+01 1.43650E+02
 -1      2696 1.15101E+00 5.95092E+01 1.41691E+02
 -1      2697 6.40651E+00 5.95055E+01 1.41692E+02
 -1      2698-5.24630E+00 5.78636E+01 1.37781E+02
 -1      2699-6.61119E+00 5.86868E+01 1.39737E+02
 -1      2700-6.40648E+00 5.95048E+01 1.41691E+02
 -1      2701-7.77328E+00 6.03289E+01 1.43650E+02
 -1      2702-1.15101E+00 5.95091E+01 1.41691E+02
 -1      2703-1.63069E+00 6.19758E+01 1.47561E+02
 -1      2704-2.77641E+00 5.86889E+01 1.39733E+02
 -1      2705 4.65131E-01 5.78656E+01 1.37777E+02
 -1      2706-1.62968E+00 6.03315E+01 1.43645E+02
 -1      2707 1.61592E+00 5.95070E+01 1.41688E+02
 -1      2708 7.77860E+00 6.19744E+01 1.47564E+02
 -1      2709 2.77645E+00 5.86889E+01 1.39733E+02
 -1      2710-4.65098E-01 5.78654E+01 1.37777E+02
 -1      2711-1.61597E+00 5.95066E+01 1.41687E+02
 -1      2712 1.62972E+00 6.03313E+01 1.43645E+02
 -1      2713 5.86324E+00 4.48548E+01 1.06768E+02
 -1      2714 2.71233E+00 4.56506E+01 1.08676E+02
 -1      2715 5.49001E+00 4.72708E+01 1.12515E+02
 -1      2716 2.75724E+00 4.64541E+01 1.10603E+02
 -1      2717 8.65249E+00 4.64724E+01 1.10601E+02
 -1      2718 6.45791E+00 4.56439E+01 1.08693E+02
 -1      2719 7.76756E+00 4.48493E+01 1.06782E+02
 -1      2720 9.25673E+00 4.72610E+01 1.12539E+02
 -1      2721 1.05686E+01 4.64653E+01 1.10618E+02
 -1      2722-3.79582E+00 5.64296E+00 1.34163E+01
 -1      2723-5.46641E+00 6.51412E+00 1.54166E+01
 -1      2724-1.42232E+00 6.44385E+00 1.53247E+01
 -1      2725-4.91537E+00 6.87082E+00 1.64408E+01
 -1      2726-2.86366E+00 5.67594E+00 1.33383E+01
 -1      2727-1.36504E+00 6.03724E+00 1.42739E+01
 -1      2728-4.47098E+00 6.55848E+00 1.53111E+01
 -1      2729-2.91283E+00 6.93640E+00 1.62853E+01
 -1      2730 1.60029E+00 8.72282E+00 2.06776E+01
 -1      2731 3.54516E+00 9.24852E+00 2.18673E+01
 -1      2732 3.07318E+00 7.83019E+00 1.84211E+01
 -1      2733 4.97350E+00 8.34259E+00 1.95798E+01
 -1      2734 6.66516E+00 2.57148E+01 6.13382E+01
 -1      2735 2.57595E+00 3.46283E+01 8.24171E+01
 -1      2736 5.60966E+00 3.54093E+01 8.42562E+01
 -1      2737 5.13485E+00 3.31214E+01 7.87806E+01
 -1      2738 8.15462E+00 3.38982E+01 8.06099E+01
 -1      2739-2.57597E+00 3.46282E+01 8.24175E+01
 -1      2740-5.60963E+00 3.54091E+01 8.42564E+01
 -1      2741-5.13546E+00 3.31218E+01 7.87823E+01
 -1      2742-8.15519E+00 3.38984E+01 8.06115E+01
 -1      2743-2.59797E+00 3.38604E+01 8.06159E+01
 -1      2744-7.43192E+00 3.53994E+01 8.42794E+01
 -1      2745-6.13255E+00 3.46146E+01 8.24493E+01
 -1      2746-8.66009E+00 3.30988E+01 7.88367E+01
 -1      2747-9.96248E+00 3.38838E+01 8.06463E+01
 -1      2748-3.09472E+00 9.13312E+00 2.18990E+01
 -1      2749-3.98155E+00 9.67011E+00 2.31117E+01
 -1      2750-3.94570E+00 1.00897E+01 2.42867E+01
 -1      2751-4.88128E+00 1.06547E+01 2.55668E+01
 -1      2752-7.06761E-01 1.01886E+01 2.42743E+01
 -1      2753-2.10830E+00 1.76828E+01 4.20375E+01
 -1      2754-4.62421E+00 1.83442E+01 4.35690E+01
 -1      2755-4.13788E+00 1.64729E+01 3.90620E+01
 -1      2756-6.62273E+00 1.71250E+01 4.05718E+01
 -1      2757-2.10923E+00 1.70486E+01 4.05810E+01
 -1      2758-6.12729E+00 1.83239E+01 4.36166E+01
 -1      2759-5.01891E+00 1.76551E+01 4.21025E+01
 -1      2760-8.09277E+00 1.70954E+01 4.06420E+01
 -1      2761-6.97981E+00 1.64273E+01 3.91702E+01
 -1      2762 1.67228E+00 9.70678E+00 2.30247E+01
 -1      2763-2.71457E-01 9.16170E+00 2.18311E+01
 -1      2764 1.02661E+00 1.07109E+01 2.54326E+01
 -1      2765-9.88304E-01 1.01276E+01 2.41954E+01
 -1      2766 2.10828E+00 1.76828E+01 4.20371E+01
 -1      2767 4.62420E+00 1.83443E+01 4.35686E+01
 -1      2768 4.14252E+00 1.64730E+01 3.90616E+01
 -1      2769 6.62758E+00 1.71252E+01 4.05714E+01
 -1      2770 2.11398E+00 1.70487E+01 4.05809E+01
 -1      2771 5.92450E+00 3.00893E+01 7.16804E+01
 -1      2772 7.09747E+00 2.93720E+01 6.99259E+01
 -1      2773 9.73717E+00 3.08709E+01 7.34664E+01
 -1      2774 2.53679E+00 3.08438E+01 7.34315E+01
 -1      2775 8.56148E+00 3.15904E+01 7.52464E+01
 -1      2776 6.31741E+00 2.15449E+01 5.14292E+01
 -1      2777 2.15920E+00 1.89579E+01 4.50771E+01
 -1      2778-3.55760E-01 1.82827E+01 4.35430E+01
 -1      2779-1.27291E+00 1.95409E+01 4.65845E+01
 -1      2780-9.10986E-01 1.95840E+01 4.66401E+01
 -1      2781 1.29256E+00 2.02429E+01 4.81493E+01
 -1      2782-4.03575E+00 1.82623E+01 4.35913E+01
 -1      2783-5.14186E+00 1.89320E+01 4.51386E+01
 -1      2784-6.18991E+00 2.02035E+01 4.82435E+01
 -1      2785-5.04951E+00 1.95142E+01 4.66489E+01
 -1      2786 5.11708E+00 5.10036E+00 1.20243E+01
 -1      2787 4.64778E+00 5.40420E+00 1.29465E+01
 -1      2788 1.49257E+00 5.01729E+00 1.19206E+01
 -1      2789-2.15923E+00 1.89579E+01 4.50775E+01
 -1      2790 3.55704E-01 1.82829E+01 4.35434E+01
 -1      2791-1.28813E+00 2.02431E+01 4.81499E+01
 -1      2792 1.27739E+00 1.95413E+01 4.65851E+01
 -1      2793-5.38235E+00 2.93844E+01 6.98944E+01
 -1      2794-2.49098E+00 3.01055E+01 7.16416E+01
 -1      2795-7.99397E+00 3.08877E+01 7.34267E+01
 -1      2796-5.07733E+00 3.16153E+01 7.51891E+01
 -1      2797-2.54057E+00 3.08441E+01 7.34327E+01
 -1      2798-2.32947E+00 2.29328E+01 5.45499E+01
 -1      2799-2.36582E+00 2.43264E+01 5.78698E+01
 -1      2800 1.65495E+00 1.83118E+00 4.14611E+00
 -1      2801 7.13114E-01 1.54927E+00 3.56398E+00
 -1      2802 1.73666E+00 1.98750E+00 4.40770E+00
 -1      2803 1.00188E+00 2.14972E+00 5.08778E+00
 -1      2804 2.83057E+00 2.30210E+00 5.07273E+00
 -1      2805 5.70684E+00 1.00676E+01 2.36786E+01
 -1      2806 3.65359E+00 9.51861E+00 2.24294E+01
 -1      2807-3.77521E+00 8.32822E+00 2.01373E+01
 -1      2808-7.74092E-01 8.44350E+00 2.01255E+01
 -1      2809-4.65707E+00 8.86005E+00 2.13351E+01
 -1      2810 7.97654E+00 7.42871E+01 1.76876E+02
 -1      2811 1.12941E+01 7.30195E+01 1.73860E+02
 -1      2812 9.92884E+00 7.38362E+01 1.75801E+02
 -1      2813 3.31305E+00 7.30191E+01 1.73857E+02
 -1      2814-3.64702E+00 9.52224E+00 2.24394E+01
 -1      2815-2.02944E+00 9.96309E+00 2.36997E+01
 -1      2816-5.70040E+00 1.00711E+01 2.36886E+01
 -1      2817-6.89816E+00 1.00302E+01 2.37853E+01
 -1      2818-5.94081E+00 9.45869E+00 2.25896E+01
 -1      2819-8.31757E-01 8.92549E+00 2.11826E+01
 -1      2820 1.03234E+00 8.37216E+00 2.00359E+01
 -1      2821 7.97142E+00 5.74357E+01 1.36766E+02
 -1      2822 6.60553E+00 5.66119E+01 1.34810E+02
 -1      2823 1.36101E+00 5.66185E+01 1.34809E+02
 -1      2824-7.97141E+00 5.74349E+01 1.36766E+02
 -1      2825-6.60557E+00 5.66111E+01 1.34809E+02
 -1      2826-1.36097E+00 5.66183E+01 1.34809E+02
 -1      2827 1.82429E+00 5.66145E+01 1.34804E+02
 -1      2828-1.41389E+00 5.74392E+01 1.36757E+02
 -1      2829 1.41390E+00 5.74390E+01 1.36757E+02
 -1      2830-1.82432E+00 5.66141E+01 1.34803E+02
 -1      2831-1.03353E+00 8.37160E+00 2.00347E+01
 -1      2832 8.30498E-01 8.92494E+00 2.11811E+01
 -1      2833 1.08572E+00 1.79644E+01 4.27238E+01
 -1      2834-1.02713E+00 1.73343E+01 4.12880E+01
 -1      2835-1.37321E+00 1.72828E+01 4.12229E+01
 -1      2836-6.10123E+00 1.79180E+01 4.28336E+01
 -1      2837-4.99786E+00 1.72516E+01 4.12964E+01
 -1      2838 1.37063E+00 1.72840E+01 4.12253E+01
 -1      2839-1.08838E+00 1.79655E+01 4.27262E+01
 -1      2840 9.28126E+00 3.58153E+01 8.52983E+01
 -1      2841 1.06071E+01 3.66113E+01 8.71380E+01
 -1      2842 3.10775E+00 3.65890E+01 8.71098E+01
 -1      2843-4.72954E+00 1.86912E+01 4.43386E+01
 -1      2844-2.60774E+00 1.92928E+01 4.59199E+01
 -1      2845-7.32263E+00 1.93689E+01 4.59121E+01
 -1      2846 7.31953E+00 1.93684E+01 4.59098E+01
 -1      2847 4.72644E+00 1.86906E+01 4.43363E+01
 -1      2848 2.60466E+00 1.92921E+01 4.59180E+01
 -1      2849-7.70236E+00 1.86462E+01 4.44451E+01
 -1      2850-8.85847E+00 1.93401E+01 4.59803E+01
 -1      2851-1.54122E+00 6.67427E+01 1.58913E+02
 -1      2852 7.87256E+00 6.67430E+01 1.58913E+02
 -1      2853 2.84810E+00 5.47827E+00 1.27697E+01
 -1      2854 4.22552E+00 5.14901E+00 1.19066E+01
 -1      2855 9.97620E+00 2.82836E+01 6.72947E+01
 -1      2856 8.83791E+00 2.89817E+01 6.90355E+01
 -1      2857 2.93943E+00 2.82502E+01 6.72528E+01
 -1      2858 1.09536E+01 4.36205E+01 1.03838E+02
 -1      2859 9.65966E+00 4.44062E+01 1.05744E+02
 -1      2860 3.21179E+00 4.36056E+01 1.03819E+02
 -1      2861 5.69206E+00 3.58367E+01 8.52475E+01
 -1      2862 8.76272E+00 3.66248E+01 8.71060E+01
 -1      2863 5.92488E+00 4.44189E+01 1.05712E+02
 -1      2864 9.05388E+00 4.36292E+01 1.03817E+02
 -1      2865 2.77383E+00 7.51016E+01 1.78817E+02
 -1      2866 6.02225E+00 7.42864E+01 1.76878E+02
 -1      2867 6.08753E+00 7.38346E+01 1.75804E+02
 -1      2868 9.33849E+00 7.30185E+01 1.73862E+02
 -1      2869 5.35648E+00 2.93848E+01 6.98949E+01
 -1      2870 2.48786E+00 3.01054E+01 7.16412E+01
 -1      2871 7.97005E+00 3.08877E+01 7.34259E+01
 -1      2872 5.07667E+00 3.16149E+01 7.51875E+01
 -1      2873 6.12731E+00 1.83244E+01 4.36164E+01
 -1      2874 5.01211E+00 1.76534E+01 4.20976E+01
 -1      2875 8.09742E+00 1.70960E+01 4.06418E+01
 -1      2876 6.97775E+00 1.64255E+01 3.91654E+01
 -1      2877 1.69437E+00 1.49441E+00 3.68264E+00
 -1      2878 2.19478E+00 1.79297E+00 4.23960E+00
 -1      2879 2.83610E+00 1.89708E+00 4.60948E+00
 -1      2880 3.43259E+00 2.24654E+00 5.20820E+00
 -1      2881-3.58596E+00 8.99436E+00 2.13399E+01
 -1      2882 2.51360E+00 5.82590E+01 1.38717E+02
 -1      2883-2.51353E+00 5.82586E+01 1.38716E+02
 -1      2884-1.34453E+00 2.15639E+01 5.12962E+01
 -1      2885-5.42683E+00 2.90066E+01 6.89552E+01
 -1      2886-8.26855E+00 2.82986E+01 6.72366E+01
 -1      2887-2.93999E+00 2.82458E+01 6.72428E+01
 -1      2888-1.41520E+00 2.57272E+01 6.12162E+01
 -1      2889-1.49654E+00 9.39030E+00 2.24320E+01
 -1      2890-5.92753E+00 3.00890E+01 7.16804E+01
 -1      2891-7.10046E+00 2.93716E+01 6.99261E+01
 -1      2892-8.56205E+00 3.15904E+01 7.52476E+01
 -1      2893-9.73767E+00 3.08708E+01 7.34678E+01
 -1      2894-1.94899E+00 1.85789E+01 4.42887E+01
 -1      2895 7.85195E+00 7.19787E+01 1.71375E+02
 -1      2896 3.19214E+00 8.13154E+01 1.93610E+02
 -1      2897 2.39142E+00 7.97102E+01 1.89790E+02
 -1      2898-1.84779E+00 8.13607E+01 1.93718E+02
 -1      2899-4.69974E+00 1.80283E+01 4.28713E+01
 -1      2900 6.27235E+00 7.97110E+01 1.89789E+02
 -1      2901 1.14036E+00 8.13690E+01 1.93738E+02
 -1      2902 2.95766E+00 5.83491E+00 1.38078E+01
 -1      2903 4.70148E+00 1.80278E+01 4.28693E+01
 -1      2904-5.49650E+00 2.97253E+01 7.07425E+01
 -1      2905 5.49849E+00 2.97294E+01 7.07515E+01
 -1      2906 7.69229E+00 1.86436E+01 4.44382E+01
 -1      2907 8.85544E+00 1.93398E+01 4.59782E+01
 -1      2908 5.42937E+00 2.90110E+01 6.89650E+01
 -1      2909 8.24864E+00 2.83035E+01 6.72470E+01
 -1      2910 5.69902E+00 3.50550E+01 8.34390E+01
 -1      2911-8.72743E+00 3.66265E+01 8.71112E+01
 -1      2912-5.65687E+00 3.58385E+01 8.52528E+01
 -1      2913-3.07231E+00 3.65910E+01 8.71150E+01
 -1      2914 5.97786E+00 4.52136E+01 1.07638E+02
 -1      2915-9.24610E+00 3.58174E+01 8.53036E+01
 -1      2916-1.05671E+01 3.66131E+01 8.71434E+01
 -1      2917-5.11268E+00 5.09907E+00 1.20248E+01
 -1      2918-4.65061E+00 5.40384E+00 1.29470E+01
 -1      2919-1.49290E+00 5.01715E+00 1.19211E+01
 -1      2920-9.97343E+00 2.82789E+01 6.72848E+01
 -1      2921-8.83511E+00 2.89769E+01 6.90253E+01
 -1      2922-2.84842E+00 5.47824E+00 1.27707E+01
 -1      2923-4.22056E+00 5.14869E+00 1.19073E+01
 -1      2924 2.12887E+00 1.48211E+00 3.13203E+00
 -1      2925 6.88132E-01 1.33054E+00 3.14500E+00
 -1      2926 1.24604E+00 1.21750E+00 2.59082E+00
 -1      2927-1.33745E-01 1.01349E-01 2.41166E-01
 -1      2928 1.97639E-02 9.80658E-02 2.34264E-01
 -1      2929-1.04642E-01 5.27194E-02 8.23031E-02
 -1      2930-4.14099E-01 2.95315E-01 6.56838E-01
 -1      2931-1.98311E-01 6.03276E-02 1.07083E-01
 -1      2932-2.72764E+00 5.38201E+00 1.32602E+01
 -1      2933 9.49475E+00 7.66930E+01 1.82602E+02
 -1      2934 1.08586E+01 7.58778E+01 1.80665E+02
 -1      2935 2.88730E+00 7.58774E+01 1.80663E+02
 -1      2936 1.25543E-02 9.88398E-02 2.35199E-01
 -1      2937 2.60273E+00 1.42623E+00 3.26739E+00
 -1      2938 2.09197E+00 1.12859E+00 2.79109E+00
 -1      2939-5.66468E+00 3.50575E+01 8.34453E+01
 -1      2940 8.90565E+00 7.58768E+01 1.80667E+02
 -1      2941 5.65827E+00 7.66914E+01 1.82605E+02
 -1      2942-1.92052E+00 8.30542E+01 1.97751E+02
 -1      2943-1.14402E+00 8.30542E+01 1.97751E+02
 -1      2944 9.30437E-01 8.30543E+01 1.97751E+02
 -1      2945-2.95585E+00 5.83468E+00 1.38083E+01
 -1      2946-4.60922E+00 8.40561E+01 2.00136E+02
 -1      2947-4.15300E+00 8.14050E+01 1.93825E+02
 -1      2948-5.38566E+00 8.40558E+01 2.00137E+02
 -1      2949 1.65747E+00 1.71343E+00 3.97226E+00
 -1      2950 6.19986E+00 7.46116E+01 1.77650E+02
 -1      2951-5.72983E+00 6.77315E+01 1.61264E+02
 -1      2952-6.76410E+00 7.00186E+01 1.66709E+02
 -1      2953-1.97034E+00 7.00182E+01 1.66710E+02
 -1      2954-1.97127E+00 6.70826E+01 1.59721E+02
 -1      2955-3.00857E+00 6.93705E+01 1.65169E+02
 -1      2956-6.76889E+00 6.70827E+01 1.59721E+02
 -1      2957-5.41847E+00 3.84386E+01 9.16331E+01
 -1      2958-5.45812E+00 4.00148E+01 9.53767E+01
 -1      2959-1.96927E+00 3.79697E+01 9.04412E+01
 -1      2960-6.55087E+00 3.95273E+01 9.42066E+01
 -1      2961-6.50152E+00 3.79559E+01 9.04739E+01
 -1      2962-5.72787E+00 6.93747E+01 1.65174E+02
 -1      2963-6.76032E+00 7.16596E+01 1.70614E+02
 -1      2964-5.72507E+00 7.10165E+01 1.69082E+02
 -1      2965-1.96973E+00 7.16589E+01 1.70616E+02
 -1      2966-1.88665E-01 7.88607E+01 1.87766E+02
 -1      2967 6.77370E+00 7.81698E+01 1.86116E+02
 -1      2968 1.63889E+00 7.98290E+01 1.90070E+02
 -1      2969 1.50917E+00 7.40471E-01 2.10056E+00
 -1      2970 1.60292E-01 6.97122E-01 1.68327E+00
 -1      2971 4.06541E-01 4.68347E-01 1.25173E+00
 -1      2972-1.23445E-01 2.28489E-02 1.05119E-01
 -1      2973-3.39731E-02 2.69592E-02 8.22954E-02
 -1      2974-9.41705E-02 8.40196E+01 2.00049E+02
 -1      2975 2.75616E+00 8.40198E+01 2.00049E+02
 -1      2976-2.95600E-01 6.93303E-01 1.68997E+00
 -1      2977 2.76404E-01 8.33702E-01 1.88992E+00
 -1      2978-4.33179E-01 4.68900E-01 1.26171E+00
 -1      2979 3.82262E-01 2.18886E+00 5.23661E+00
 -1      2980 2.56447E+00 2.38155E+00 5.96515E+00
 -1      2981 1.93877E+00 1.96936E+00 4.81005E+00
 -1      2982 3.14382E-01 1.38545E+00 3.32807E+00
 -1      2983 2.09754E+00 1.51878E+00 3.94274E+00
 -1      2984 7.02104E-01 1.75563E+00 4.28782E+00
 -1      2985-9.25651E+00 4.72604E+01 1.12540E+02
 -1      2986-2.75703E+00 4.64540E+01 1.10603E+02
 -1      2987-6.45775E+00 4.56433E+01 1.08693E+02
 -1      2988-9.76562E+00 4.44932E+01 1.05952E+02
 -1      2989-3.31580E+00 4.36924E+01 1.04027E+02
 -1      2990-6.08318E+00 4.53010E+01 1.07847E+02
 -1      2991 7.29564E-01 7.81690E+01 1.86119E+02
 -1      2992-2.34939E+00 7.88612E+01 1.87767E+02
 -1      2993-3.51039E+00 7.98212E+01 1.90051E+02
 -1      2994-2.71278E+00 4.56506E+01 1.08677E+02
 -1      2995-5.49013E+00 4.72706E+01 1.12516E+02
 -1      2996-6.02965E+00 4.45064E+01 1.05921E+02
 -1      2997-4.05701E-01 1.55849E-01 4.29188E-01
 -1      2998-1.45568E+00 3.75729E+01 8.94387E+01
 -1      2999 1.16475E+00 3.67944E+01 8.76125E+01
 -1      3000-2.60057E+00 3.61671E+01 8.60841E+01
 -1      3001-1.31858E+00 3.49856E+01 8.32764E+01
 -1      3002 1.26107E+00 3.42195E+01 8.14837E+01
 -1      3003 2.42986E+00 3.56080E+01 8.48086E+01
 -1      3004-1.29450E+00 1.24955E+00 2.65716E+00
 -1      3005-7.28587E-01 1.36213E+00 3.21730E+00
 -1      3006-7.09678E-01 1.54896E+00 3.56399E+00
 -1      3007-1.73610E+00 1.98642E+00 4.40543E+00
 -1      3008-9.97913E-01 2.14865E+00 5.08559E+00
 -1      3009-1.71367E+00 1.74877E+00 4.05115E+00
 -1      3010 7.41944E+00 3.75546E+01 8.94832E+01
 -1      3011 6.19225E+00 3.61549E+01 8.61130E+01
 -1      3012 7.42337E+00 3.49633E+01 8.33295E+01
 -1      3013-1.05683E+01 4.64647E+01 1.10618E+02
 -1      3014-1.10595E+01 4.37072E+01 1.04046E+02
 -1      3015-8.65230E+00 4.64717E+01 1.10601E+02
 -1      3016-9.15955E+00 4.37164E+01 1.04024E+02
 -1      3017-2.14945E+00 1.15862E+00 2.86091E+00
 -1      3018-1.68881E+00 1.49408E+00 3.68176E+00
 -1      3019-2.83271E+00 1.89513E+00 4.60752E+00
 -1      3020 2.77870E+00 7.34688E+01 1.74929E+02
 -1      3021 6.09430E+00 7.22005E+01 1.71912E+02
 -1      3022 1.36405E+01 4.48822E+01 1.06787E+02
 -1      3023 1.30582E+01 3.54574E+01 8.42898E+01
 -1      3024 9.93392E+00 7.22019E+01 1.71910E+02
 -1      3025 1.99810E+00 2.04219E+00 5.25045E+00
 -1      3026 1.60973E+00 1.22677E+00 3.34197E+00
 -1      3027 2.69807E+00 4.40457E+01 1.04853E+02
 -1      3028 5.89082E+00 4.28214E+01 1.01904E+02
 -1      3029 6.68805E+00 5.83794E+00 1.34512E+01
 -1      3030 2.60094E+00 3.61671E+01 8.60838E+01
 -1      3031 5.74353E+00 3.73852E+01 8.89400E+01
 -1      3032 4.10377E+00 6.10497E+00 1.48345E+01
 -1      3033 7.75415E-01 5.77260E+00 1.37791E+01
 -1      3034 2.25740E+00 5.15845E+00 1.23535E+01
 -1      3035-2.32576E+00 8.23712E+01 1.96125E+02
 -1      3036 8.03236E+00 4.59935E+01 1.09557E+02
 -1      3037 1.55594E+00 4.52013E+01 1.07629E+02
 -1      3038 4.76748E+00 4.39594E+01 1.04679E+02
 -1      3039 9.36515E+00 3.73657E+01 8.89871E+01
 -1      3040-6.19258E+00 3.61547E+01 8.61131E+01
 -1      3041-9.32959E+00 3.73675E+01 8.89922E+01
 -1      3042 8.16039E-01 2.01826E+00 4.68404E+00
 -1      3043 1.95492E+00 2.50004E+00 5.63630E+00
 -1      3044 4.34111E+00 4.64199E+00 1.11352E+01
 -1      3045 3.85923E+00 5.28988E+00 1.29041E+01
 -1      3046 1.28019E+00 5.23717E+00 1.23646E+01
 -1      3047 2.65865E+00 4.71852E+00 1.09522E+01
 -1      3048-5.06096E-01 2.46075E+00 5.76446E+00
 -1      3049-8.10119E-01 2.01786E+00 4.68405E+00
 -1      3050-4.02055E-01 1.60709E+00 3.72806E+00
 -1      3051 9.60415E+00 4.28071E+01 1.01938E+02
 -1      3052 7.99150E+00 4.43845E+01 1.05732E+02
 -1      3053-1.30536E+01 3.54567E+01 8.42903E+01
 -1      3054 1.59939E+00 3.67739E+01 8.75860E+01
 -1      3055 1.68832E+00 3.41942E+01 8.14519E+01
 -1      3056 3.19339E+00 2.41732E+00 5.84515E+00
 -1      3057-1.99942E+00 2.54481E+00 6.57377E+00
 -1      3058-2.19978E+00 3.16912E+00 8.04564E+00
 -1      3059-7.91659E-01 3.56637E+00 8.63618E+00
 -1      3060-2.89143E+00 4.22636E+00 1.04472E+01
 -1      3061-2.66720E+00 3.52641E+00 8.79634E+00
 -1      3062-5.58974E+00 2.32862E+01 5.52875E+01
 -1      3063-5.68491E+00 2.46825E+01 5.86214E+01
 -1      3064-3.27615E+00 2.39405E+01 5.69845E+01
 -1      3065 6.10596E+00 3.67608E+01 8.76169E+01
 -1      3066 6.12555E+00 3.41793E+01 8.14881E+01
 -1      3067-6.67751E+00 5.83639E+00 1.34518E+01
 -1      3068-7.88175E+00 1.99455E+01 4.75349E+01
 -1      3069-2.18838E+00 1.51878E+00 3.20909E+00
 -1      3070-2.82834E+00 2.30290E+00 5.07639E+00
 -1      3071-3.04804E+00 5.19292E+00 1.24696E+01
 -1      3072-4.34190E+00 4.64159E+00 1.11354E+01
 -1      3073-1.95288E+00 2.49895E+00 5.63422E+00
 -1      3074-5.90028E-01 6.18175E+00 1.46518E+01
 -1      3075-7.80993E-01 5.18390E+00 1.22925E+01
 -1      3076-4.83990E+00 1.99881E+01 4.74336E+01
 -1      3077-4.44224E+00 7.90571E+00 1.90700E+01
 -1      3078-6.13066E+00 6.40149E+01 1.52416E+02
 -1      3079-3.34602E+00 6.31920E+01 1.50459E+02
 -1      3080-6.12844E+00 6.23712E+01 1.48500E+02
 -1      3081 2.78292E+00 6.36203E+01 1.51477E+02
 -1      3082 2.78350E+00 6.52644E+01 1.55393E+02
 -1      3083 6.12848E+00 6.23714E+01 1.48500E+02
 -1      3084 6.13069E+00 6.40151E+01 1.52416E+02
 -1      3085 3.34609E+00 6.31922E+01 1.50459E+02
 -1      3086-6.62734E+00 6.52640E+01 1.55393E+02
 -1      3087-6.62620E+00 6.36194E+01 1.51479E+02
 -1      3088-9.97255E+00 6.23694E+01 1.48504E+02
 -1      3089-9.97588E+00 6.40139E+01 1.52418E+02
 -1      3090 9.97589E+00 6.40146E+01 1.52418E+02
 -1      3091 9.97255E+00 6.23702E+01 1.48503E+02
 -1      3092 1.05245E+01 5.90582E+01 1.40618E+02
 -1      3093 5.26282E+00 5.69874E+01 1.35688E+02
 -1      3094 3.90432E+00 5.82367E+01 1.38658E+02
 -1      3095-1.05245E+01 5.90574E+01 1.40619E+02
 -1      3096-5.26279E+00 5.69870E+01 1.35688E+02
 -1      3097-3.90430E+00 5.82365E+01 1.38659E+02
 -1      3098-6.68598E+00 5.90608E+01 1.40612E+02
 -1      3099-2.53879E+00 5.69886E+01 1.35685E+02
 -1      3100 6.68599E+00 5.90610E+01 1.40611E+02
 -1      3101 2.53882E+00 5.69886E+01 1.35685E+02
 -1      3102 7.92540E-01 7.97262E+00 1.89105E+01
 -1      3103-6.19527E+00 1.04764E+01 2.50086E+01
 -1      3104-3.80352E+00 1.05372E+01 2.48641E+01
 -1      3105-1.30545E+00 3.34573E+01 7.96352E+01
 -1      3106 7.34825E+00 3.34335E+01 7.96924E+01
 -1      3107 1.05848E+00 1.67115E+01 3.97377E+01
 -1      3108-5.94744E+00 1.66633E+01 3.98526E+01
 -1      3109 3.31859E+00 6.57139E+01 1.56463E+02
 -1      3110 6.10255E+00 6.65357E+01 1.58420E+02
 -1      3111 6.66572E+00 6.44643E+01 1.53487E+02
 -1      3112-3.31852E+00 6.57138E+01 1.56464E+02
 -1      3113-6.10252E+00 6.65355E+01 1.58421E+02
 -1      3114-6.66570E+00 6.44640E+01 1.53488E+02
 -1      3115-9.94782E+00 6.65352E+01 1.58421E+02
 -1      3116 9.94783E+00 6.65359E+01 1.58420E+02
 -1      3117-6.69320E-01 2.45987E+00 6.01081E+00
 -1      3118-2.25980E+00 2.41554E+00 6.17369E+00
 -1      3119-1.15004E+00 3.36341E+00 8.14471E+00
 -1      3120 4.83674E+00 1.99874E+01 4.74313E+01
 -1      3121-7.93612E-01 7.97309E+00 1.89118E+01
 -1      3122 4.43815E+00 7.90576E+00 1.90694E+01
 -1      3123-1.93544E+00 1.96936E+00 4.81000E+00
 -1      3124-3.19253E+00 2.41547E+00 5.84260E+00
 -1      3125-1.06107E+00 1.67125E+01 3.97401E+01
 -1      3126 7.87317E+00 1.99477E+01 4.75393E+01
 -1      3127-2.65874E+00 4.71869E+00 1.09530E+01
 -1      3128-5.55552E-01 5.36934E+00 1.27141E+01
 -1      3129 6.20029E+00 1.04722E+01 2.49975E+01
 -1      3130 3.81045E+00 1.05334E+01 2.48538E+01
 -1      3131 8.90197E+00 2.46679E+01 5.87673E+01
 -1      3132 8.74643E+00 2.32687E+01 5.54385E+01
 -1      3133 3.27254E+00 2.39447E+01 5.69947E+01
 -1      3134-1.07674E+01 1.84432E+01 4.36392E+01
 -1      3135-5.70804E+00 3.73871E+01 8.89456E+01
 -1      3136 7.38710E+00 3.03935E+01 7.24807E+01
 -1      3137 1.42242E+00 2.96829E+01 7.06881E+01
 -1      3138 4.36288E+00 2.85658E+01 6.80430E+01
 -1      3139-5.71381E+00 5.78565E+01 1.37776E+02
 -1      3140 5.71398E+00 5.78574E+01 1.37776E+02
 -1      3141-8.26042E+00 9.38779E+00 2.19662E+01
 -1      3142 1.80021E+00 1.09017E+00 2.92768E+00
 -1      3143-7.38775E+00 3.03924E+01 7.24793E+01
 -1      3144-1.42631E+00 2.96822E+01 7.06868E+01
 -1      3145-4.36107E+00 2.85606E+01 6.80315E+01
 -1      3146-3.37388E+00 8.99399E+00 2.18004E+01
 -1      3147 5.93827E+00 1.66624E+01 3.98497E+01
 -1      3148-1.06770E+00 3.04229E+01 7.24104E+01
 -1      3149-1.54031E+00 2.85717E+01 6.80080E+01
 -1      3150 1.06692E+00 3.04222E+01 7.24087E+01
 -1      3151 1.54197E+00 2.85755E+01 6.80168E+01
 -1      3152 1.11517E-01 6.95752E-02-1.20306E-02
 -1      3153 3.38039E-02 1.84333E-02-1.32463E-02
 -1      3154 1.88266E-01 1.52427E-01 2.03764E-01
 -1      3155-2.66412E-02 7.72257E-02 2.10179E-01
 -1      3156-5.27676E-02 1.25849E-02 7.19294E-02
 -1      3157 3.35870E+00 8.99381E+00 2.17992E+01
 -1      3158 1.07673E+01 1.84439E+01 4.36386E+01
 -1      3159 5.20903E-01 2.09864E+00 5.12212E+00
 -1      3160 4.24994E-01 1.28755E+00 3.20531E+00
 -1      3161 8.26660E+00 9.38906E+00 2.19653E+01
 -1      3162-1.92985E+00 7.08363E+01 1.68659E+02
 -1      3163-5.68765E+00 6.85506E+01 1.63216E+02
 -1      3164-1.93143E+00 6.79027E+01 1.61675E+02
 -1      3165-8.93615E-01 6.85505E+01 1.63217E+02
 -1      3166-1.89791E+00 4.22548E+01 1.00634E+02
 -1      3167-1.85698E+00 4.14748E+01 9.87618E+01
 -1      3168-8.53935E-01 4.08459E+01 9.72633E+01
 -1      3169-1.98535E+00 3.95402E+01 9.41776E+01
 -1      3170-1.94368E+00 3.87733E+01 9.23327E+01
 -1      3171-2.98927E+00 4.01701E+01 9.56756E+01
 -1      3172-2.66783E+00 1.45966E+00 3.33952E+00
 -1      3173-3.43102E+00 2.24426E+00 5.20376E+00
 -1      3174-1.24930E+01 2.94473E+01 6.99394E+01
 -1      3175 1.24703E+01 2.94480E+01 6.99395E+01
 -1      3176-7.95828E+00 5.57934E+01 1.32861E+02
 -1      3177-1.05108E+01 5.74152E+01 1.36710E+02
 -1      3178 7.95829E+00 5.57942E+01 1.32861E+02
 -1      3179 1.05109E+01 5.74160E+01 1.36710E+02
 -1      3180 1.41170E+00 5.57983E+01 1.32849E+02
 -1      3181 6.67696E+00 5.74198E+01 1.36699E+02
 -1      3182-1.41170E+00 5.57985E+01 1.32850E+02
 -1      3183-6.67695E+00 5.74195E+01 1.36700E+02
 -1      3184-4.39782E+00 1.81636E+01 4.35212E+01
 -1      3185 8.71311E+00 2.75237E+01 6.55673E+01
 -1      3186 7.29107E+00 2.89140E+01 6.89661E+01
 -1      3187-8.70555E+00 2.75158E+01 6.55500E+01
 -1      3188-7.28686E+00 2.89098E+01 6.89573E+01
 -1      3189 7.64469E-01 7.66187E+01 1.82428E+02
 -1      3190-2.00823E+00 7.58029E+01 1.80485E+02
 -1      3191 1.27340E+00 7.41110E+01 1.76458E+02
 -1      3192-1.50217E+00 7.32939E+01 1.74511E+02
 -1      3193-3.51043E+00 7.48128E+01 1.78126E+02
 -1      3194 4.37859E+00 1.81636E+01 4.35206E+01
 -1      3195-5.36063E+00 2.75480E+01 6.54749E+01
 -1      3196-1.06540E+00 2.89428E+01 6.88833E+01
 -1      3197-3.46382E-01 1.18417E+00 2.71836E+00
 -1      3198 5.34174E+00 2.75523E+01 6.54845E+01
 -1      3199 1.04294E+00 2.89418E+01 6.88815E+01
 -1      3200-2.39674E+00 3.87539E+00 9.71114E+00
 -1      3201-8.60301E-01 4.28983E+00 1.03548E+01
 -1      3202 6.73467E+00 8.16570E+01 1.94418E+02
 -1      3203 5.41163E+00 7.91493E+01 1.88447E+02
 -1      3204-1.59924E-01 3.52928E-01 7.55327E-01
 -1      3205-4.49813E-01 5.53003E-01 1.17357E+00
 -1      3206-2.85237E-01 8.34855E-01 1.88969E+00
 -1      3207 1.04150E+01 8.45564E+01 2.01323E+02
 -1      3208 1.17386E+01 8.45559E+01 2.01323E+02
 -1      3209 6.70699E+00 8.39667E+01 1.99922E+02
 -1      3210 8.03024E+00 8.39663E+01 1.99922E+02
 -1      3211 1.07800E+01 8.28174E+01 1.97187E+02
 -1      3212-6.76425E-01 2.85040E+00 6.84392E+00
 -1      3213-2.06028E+00 3.02095E+00 7.44405E+00
 -1      3214-7.89497E-01 4.00207E+00 9.58368E+00
 -1      3215-3.55568E-01 3.65294E-01 7.30202E-01
 -1      3216-5.87304E-01 3.32785E-01 4.36982E-01
 -1      3217-7.94903E-01 4.92490E-01 8.00366E-01
 -1      3218 9.06944E+00 8.45078E+01 2.01206E+02
 -1      3219 4.65603E+00 8.40203E+01 2.00049E+02
 -1      3220 8.72836E+00 8.28719E+01 1.97314E+02
 -1      3221 7.38296E+00 8.28236E+01 1.97197E+02
 -1      3222-1.21479E-01 2.01749E-01 3.93346E-01
 -1      3223-3.10283E+00 8.09679E+01 1.92785E+02
 -1      3224-3.15255E+00 7.97100E+01 1.89790E+02
 -1      3225-1.27463E+00 8.19349E+01 1.95086E+02
 -1      3226-1.32375E+00 8.06779E+01 1.92093E+02
 -1      3227 2.54051E+00 7.89356E+01 1.87944E+02
 -1      3228 5.62058E+00 7.82418E+01 1.86296E+02
 -1      3229 6.41947E+00 7.98490E+01 1.90120E+02
 -1      3230-6.42411E+00 4.40374E+01 1.04872E+02
 -1      3231-9.71013E+00 4.28937E+01 1.02145E+02
 -1      3232-2.26114E+00 7.51204E+00 1.79342E+01
 -1      3233 7.88687E-01 7.52934E+00 1.78932E+01
 -1      3234-9.97691E-01 2.62361E-01 9.79665E-01
 -1      3235-1.00620E+00 4.93661E-01 1.30158E+00
 -1      3236-1.52101E+00 7.38354E-01 2.10117E+00
 -1      3237-7.88715E-01 3.10021E-01 8.57926E-01
 -1      3238-1.26083E+00 3.89786E-01 1.02482E+00
 -1      3239-9.30150E-01 2.34124E-01 6.55639E-01
 -1      3240 1.27751E+00 7.24770E+01 1.72567E+02
 -1      3241 1.23619E+00 4.30691E+01 1.02532E+02
 -1      3242-1.46040E+00 4.38685E+01 1.04455E+02
 -1      3243 1.24282E+00 4.46696E+01 1.06344E+02
 -1      3244 1.08598E+00 3.56632E+01 8.48925E+01
 -1      3245-1.51947E+00 3.64370E+01 8.67665E+01
 -1      3246 1.09586E+00 3.72123E+01 8.85829E+01
 -1      3247-8.13496E+00 6.46155E+01 1.53851E+02
 -1      3248-8.13513E+00 6.62601E+01 1.57765E+02
 -1      3249-1.50488E+00 6.54381E+01 1.55807E+02
 -1      3250 1.27992E+00 6.62603E+01 1.57764E+02
 -1      3251 1.28005E+00 6.46163E+01 1.53849E+02
 -1      3252-7.69663E+00 3.56388E+01 8.49493E+01
 -1      3253-7.76676E+00 3.71898E+01 8.86354E+01
 -1      3254-7.86548E+00 4.30539E+01 1.02567E+02
 -1      3255-7.90971E+00 4.46559E+01 1.06376E+02
 -1      3256 9.50311E+00 7.82432E+01 1.86294E+02
 -1      3257 1.39992E+01 7.42849E+01 1.76880E+02
 -1      3258-1.15926E+00 4.60057E+01 1.09528E+02
 -1      3259-1.77157E+00 4.40512E+01 1.04876E+02
 -1      3260-2.77868E+00 7.34688E+01 1.74930E+02
 -1      3261-2.77984E+00 7.51016E+01 1.78818E+02
 -1      3262-6.68373E+00 7.58970E+01 1.80716E+02
 -1      3263-3.90600E+00 7.50828E+01 1.78772E+02
 -1      3264-6.68509E+00 7.42650E+01 1.76830E+02
 -1      3265-7.39558E-01 1.17163E-01 6.11214E-01
 -1      3266-7.77854E+00 6.19737E+01 1.47564E+02
 -1      3267-1.15279E+00 6.27976E+01 1.49520E+02
 -1      3268-2.65798E+00 6.37935E+01 1.51892E+02
 -1      3269 1.63068E+00 6.19756E+01 1.47560E+02
 -1      3270-3.39155E-01 3.04994E+00 7.31494E+00
 -1      3271-2.47472E+00 7.58068E+01 1.80491E+02
 -1      3272-1.96880E+00 7.32978E+01 1.74518E+02
 -1      3273 3.86834E+00 2.02906E+00 4.28419E+00
 -1      3274-2.27586E+00 1.68791E+00 4.37075E+00
 -1      3275-2.57250E+00 2.20154E+00 5.58396E+00
 -1      3276-4.46511E-01 2.02981E+00 4.87032E+00
 -1      3277-3.60202E+00 4.65368E+00 1.13833E+01
 -1      3278 3.59151E-01 1.78242E+00 4.15841E+00
 -1      3279 4.05856E-01 2.28824E+00 5.36515E+00
 -1      3280 5.68428E-01 4.73324E+00 1.11935E+01
 -1      3281 1.82223E-01 1.38194E-01 4.77157E-01
 -1      3282 6.60612E-01 8.30441E-02 6.17191E-01
 -1      3283 6.69390E-01 6.84209E-02 7.07057E-01
 -1      3284 2.80111E-01 5.45704E-01 1.44436E+00
 -1      3285 1.09576E+00 4.84023E-01 1.58416E+00
 -1      3286-6.56773E+00 8.19699E+01 1.95173E+02
 -1      3287-4.57186E+00 7.97763E+01 1.89947E+02
 -1      3288-6.98773E+00 8.03412E+01 1.91296E+02
 -1      3289-8.03735E+00 8.07791E+01 1.92337E+02
 -1      3290 1.91179E+00 8.16562E+01 1.94420E+02
 -1      3291 5.68086E+00 8.09782E+01 1.92799E+02
 -1      3292 5.83086E-01 7.91483E+01 1.88449E+02
 -1      3293-1.93404E+00 8.16398E+01 1.94381E+02
 -1      3294-2.43461E+00 7.91411E+01 1.88430E+02
 -1      3295 1.84799E-01 1.00023E-01 1.62304E-02
 -1      3296 2.45707E-01 9.76453E-02 1.08982E-01
 -1      3297 5.32353E-01 2.63735E-01 2.69730E-01
 -1      3298 1.33325E-01 6.81191E-02 7.56258E-02
 -1      3299 2.73304E+00 8.39662E+01 1.99922E+02
 -1      3300-2.30495E+00 8.40114E+01 2.00029E+02
 -1      3301-1.36407E+01 4.48814E+01 1.06788E+02
 -1      3302 7.46938E-02 1.99661E-02 8.75525E-02
 -1      3303-1.75747E-01 1.79061E-01 3.63210E-01
 -1      3304 1.03989E+00 8.84464E-01 1.79218E+00
 -1      3305 4.17588E-01 6.61317E-01 1.55560E+00
 -1      3306 9.20857E-01 5.56079E-01 1.20041E+00
 -1      3307 4.80719E+00 8.39664E+01 1.99922E+02
 -1      3308 9.35363E+00 6.57141E+01 1.56463E+02
 -1      3309 9.37973E+00 6.31940E+01 1.50459E+02
 -1      3310-9.35361E+00 6.57137E+01 1.56464E+02
 -1      3311-9.37971E+00 6.31935E+01 1.50459E+02
 -1      3312-1.13132E+01 6.57134E+01 1.56464E+02
 -1      3313-1.13392E+01 6.31927E+01 1.50461E+02
 -1      3314 1.13132E+01 6.57141E+01 1.56464E+02
 -1      3315 1.13392E+01 6.31934E+01 1.50460E+02
 -1      3316 1.73879E+00 7.93917E-01 1.99256E+00
 -1      3317-1.15479E+01 8.45059E+01 2.01206E+02
 -1      3318-1.02020E+01 8.45556E+01 2.01323E+02
 -1      3319-9.74798E+00 8.29074E+01 1.97401E+02
 -1      3320-8.07440E+00 8.40557E+01 2.00136E+02
 -1      3321-1.10939E+01 8.28574E+01 1.97284E+02
 -1      3322-1.90886E-01 1.37343E-01 4.82149E-01
 -1      3323-6.72198E-01 8.48201E-02 6.25774E-01
 -1      3324-6.70601E-01 6.80805E-02 7.07467E-01
 -1      3325-2.97856E-01 5.41973E-01 1.44321E+00
 -1      3326-1.11288E+00 4.83997E-01 1.58918E+00
 -1      3327-8.11512E+00 7.41121E+01 1.76455E+02
 -1      3328-6.61042E+00 7.51021E+01 1.78816E+02
 -1      3329-1.05129E+01 7.58981E+01 1.80712E+02
 -1      3330-5.40940E+00 7.40919E+01 1.76411E+02
 -1      3331-8.12191E+00 7.24780E+01 1.72564E+02
 -1      3332-1.05214E+01 7.42662E+01 1.76827E+02
 -1      3333-1.04080E+01 8.19703E+01 1.95171E+02
 -1      3334-5.31314E+00 8.23630E+01 1.96105E+02
 -1      3335 1.38864E+00 4.68708E+01 1.11587E+02
 -1      3336-1.33343E+00 4.60638E+01 1.09682E+02
 -1      3337-2.79672E+00 4.50810E+01 1.07356E+02
 -1      3338-1.26115E+00 3.42195E+01 8.14836E+01
 -1      3339 1.30523E+00 3.34571E+01 7.96345E+01
 -1      3340-2.77932E+00 3.52494E+01 8.39661E+01
 -1      3341-7.82429E+00 4.68597E+01 1.11613E+02
 -1      3342-7.34788E+00 3.34327E+01 7.96921E+01
 -1      3343-5.99515E+00 4.29085E+01 1.02111E+02
 -1      3344-1.15378E+00 4.43983E+01 1.05699E+02
 -1      3345-1.90247E-01 1.02687E-01 1.97473E-02
 -1      3346-1.07527E-01 5.69095E-02-9.43880E-03
 -1      3347-5.45715E-01 2.69101E-01 2.71340E-01
 -1      3348-3.23842E-01 1.95794E-01 2.09231E-01
 -1      3349-2.37592E-01 8.89956E-02 9.88081E-02
 -1      3350-6.75549E+00 8.16403E+01 1.94380E+02
 -1      3351-5.68135E+00 8.09619E+01 1.92762E+02
 -1      3352-7.26153E+00 7.91414E+01 1.88429E+02
 -1      3353-2.19467E-01-3.06731E-02 1.18269E-01
 -1      3354-2.68984E-01-4.03511E-04 1.52834E-01
 -1      3355-7.35365E-01 1.85594E-01 4.48328E-01
 -1      3356-2.33291E-01 3.66961E-02 1.32047E-01
 -1      3357-6.34631E-01 1.05451E-01 4.17746E-01
 -1      3358-1.07379E+00 9.11263E-01 1.84718E+00
 -1      3359-5.64639E-01 6.91249E-01 1.61204E+00
 -1      3360-9.74142E-01 5.70941E-01 1.22304E+00
 -1      3361 4.15483E+00 8.45545E+01 2.01326E+02
 -1      3362 7.35898E+00 8.45056E+01 2.01209E+02
 -1      3363 4.74825E+00 8.28172E+01 1.97188E+02
 -1      3364 7.95247E+00 8.27677E+01 1.97071E+02
 -1      3365 6.47641E+00 8.39660E+01 1.99922E+02
 -1      3366-1.78734E+00 8.18026E-01 2.05201E+00
 -1      3367 3.04042E+00 7.73927E+01 1.84270E+02
 -1      3368 3.14616E+00 3.74130E+00 9.18253E+00
 -1      3369 4.02095E+00 3.93224E+00 9.44644E+00
 -1      3370 1.91936E+00 4.32438E+00 1.03401E+01
 -1      3371 1.70465E+00 3.33881E+00 7.99620E+00
 -1      3372 2.51551E+00 3.49096E+00 8.19999E+00
 -1      3373 3.53988E+00 2.99410E+00 7.21778E+00
 -1      3374-8.61372E+00 7.66192E+01 1.82425E+02
 -1      3375-1.55008E+00 7.03373E+01 1.67473E+02
 -1      3376-2.08313E+00 7.15265E+01 1.70304E+02
 -1      3377-6.09749E+00 7.05608E+01 1.68009E+02
 -1      3378-6.10138E+00 6.81780E+01 1.62333E+02
 -1      3379-6.63419E+00 6.93690E+01 1.65168E+02
 -1      3380-2.08502E+00 6.91444E+01 1.64632E+02
 -1      3381 7.85630E+00 7.03385E+01 1.67470E+02
 -1      3382 9.93937E+00 7.05622E+01 1.68006E+02
 -1      3383 4.54664E+00 7.15270E+01 1.70303E+02
 -1      3384 4.55011E+00 6.91447E+01 1.64632E+02
 -1      3385 6.63423E+00 6.93694E+01 1.65168E+02
 -1      3386 9.94572E+00 6.81789E+01 1.62332E+02
 -1      3387 9.35884E-01 3.38263E+00 8.14589E+00
 -1      3388 2.83696E+00 2.96977E+00 7.35685E+00
 -1      3389 1.52183E+00 2.61811E+00 6.28293E+00
 -1      3390 2.26846E+00 6.60807E+00 1.57984E+01
 -1      3391-1.19729E+00 4.68155E+01 1.11462E+02
 -1      3392-2.75761E+00 5.98793E+01 1.42569E+02
 -1      3393 5.06065E+00 5.98787E+01 1.42571E+02
 -1      3394-5.06064E+00 5.98784E+01 1.42571E+02
 -1      3395 2.75764E+00 5.98793E+01 1.42569E+02
 -1      3396 4.32438E+00 4.68124E+01 1.11469E+02
 -1      3397 2.65535E-01-4.27022E-03 1.50649E-01
 -1      3398 2.83638E-01 3.09806E-02 1.53194E-01
 -1      3399 5.72351E-01 6.82351E-02 4.02986E-01
 -1      3400 2.00761E-01 2.01270E-02 1.27434E-01
 -1      3401 4.94699E-01 1.65757E-02 3.69972E-01
 -1      3402-1.54058E+00 6.83857E+01 1.62825E+02
 -1      3403 2.47530E+00 6.93517E+01 1.65124E+02
 -1      3404-2.07516E+00 6.71917E+01 1.59983E+02
 -1      3405 7.87047E+00 6.83865E+01 1.62824E+02
 -1      3406 4.56167E+00 6.71920E+01 1.59982E+02
 -1      3407 3.98942E+00 3.11690E+01 7.42369E+01
 -1      3408 8.64969E-01 9.99985E-01 2.44260E+00
 -1      3409 8.78517E-01 7.73929E+01 1.84271E+02
 -1      3410-6.19426E-01 6.62862E+00 1.57496E+01
 -1      3411-6.41505E+00 6.27957E+01 1.49521E+02
 -1      3412-6.76954E+00 6.54380E+01 1.55808E+02
 -1      3413-1.61892E+00 6.27966E+01 1.49519E+02
 -1      3414-1.97121E+00 6.54383E+01 1.55807E+02
 -1      3415-3.35183E-01 1.38476E+00 3.32739E+00
 -1      3416 3.23205E-01 1.18100E+00 2.71810E+00
 -1      3417-7.75756E-01 1.60147E+00 3.95094E+00
 -1      3418 1.10371E+00 3.11761E+01 7.42170E+01
 -1      3419-1.21605E+00 8.45057E+01 2.01210E+02
 -1      3420-4.42006E+00 8.45545E+01 2.01327E+02
 -1      3421 3.63542E-01 8.28227E+01 1.97199E+02
 -1      3422-2.84040E+00 8.28708E+01 1.97316E+02
 -1      3423 1.38531E+00 8.40197E+01 2.00050E+02
 -1      3424-5.63945E-01 3.04822E+00 7.16414E+00
 -1      3425-6.31085E-01 3.81663E+00 8.99675E+00
 -1      3426-2.17083E+00 3.07464E+00 7.01517E+00
 -1      3427-7.83528E-01 3.35913E+00 7.94169E+00
 -1      3428-6.93265E-01 2.63966E+00 6.22706E+00
 -1      3429-1.10511E+00 3.11771E+01 7.42196E+01
 -1      3430-3.99079E+00 3.11687E+01 7.42367E+01
 -1      3431 4.32228E+00 2.53428E+01 6.03561E+01
 -1      3432-2.34249E+00 2.53481E+01 6.03220E+01
 -1      3433 3.14535E-01 1.02249E+00 2.38862E+00
 -1      3434-1.81992E+00 1.08852E+00 2.92855E+00
 -1      3435 9.53735E+00 4.12177E+01 9.81551E+01
 -1      3436 4.35607E+00 4.02813E+01 9.59182E+01
 -1      3437 7.47445E+00 3.91208E+01 9.32071E+01
 -1      3438 9.43646E+00 3.89280E+01 9.27062E+01
 -1      3439 4.30626E+00 3.80006E+01 9.04895E+01
 -1      3440 6.33300E+00 4.00787E+01 9.54034E+01
 -1      3441-8.81033E-01 4.34492E+00 1.02913E+01
 -1      3442-2.46664E+00 4.00971E+00 9.25524E+00
 -1      3443-2.51533E+00 3.48881E+00 8.19729E+00
 -1      3444-5.76991E+00 8.40114E+01 2.00029E+02
 -1      3445-7.44334E+00 8.28638E+01 1.97295E+02
 -1      3446-3.20689E-01 4.09626E-02 1.79439E-01
 -1      3447-2.98199E-01 7.87655E-02 1.47698E-01
 -1      3448 1.40871E+00 5.41600E+01 1.28947E+02
 -1      3449 1.44779E+00 5.49799E+01 1.30903E+02
 -1      3450 5.56445E+00 5.37748E+01 1.28017E+02
 -1      3451 1.17479E+00 5.17661E+01 1.23247E+02
 -1      3452 1.21257E+00 5.25844E+01 1.25199E+02
 -1      3453-2.93987E+00 5.29705E+01 1.26132E+02
 -1      3454-9.38109E+00 5.37687E+01 1.28030E+02
 -1      3455-4.16531E+00 5.49784E+01 1.30907E+02
 -1      3456-7.94168E+00 5.41540E+01 1.28961E+02
 -1      3457-8.14265E+00 5.17580E+01 1.23265E+02
 -1      3458-4.38084E+00 5.25823E+01 1.25204E+02
 -1      3459-2.62316E+00 7.66176E+01 1.82428E+02
 -1      3460-3.74884E+00 7.65983E+01 1.82382E+02
 -1      3461-5.43738E+00 4.08375E+01 9.72830E+01
 -1      3462-6.73512E+00 4.00578E+01 9.54122E+01
 -1      3463-5.39953E+00 3.92587E+01 9.35285E+01
 -1      3464-3.59427E+00 2.05902E+01 4.90459E+01
 -1      3465-8.03718E+00 2.12581E+01 5.06599E+01
 -1      3466-6.30727E+00 2.15255E+01 5.13848E+01
 -1      3467-4.17247E+00 2.25565E+01 5.37250E+01
 -1      3468-8.74458E+00 2.32449E+01 5.53834E+01
 -1      3469-5.93883E+00 2.22707E+01 5.29632E+01
 -1      3470 4.91096E+00 2.12982E+01 5.05609E+01
 -1      3471 1.73758E+00 2.05999E+01 4.90193E+01
 -1      3472 1.28994E+00 2.15631E+01 5.12954E+01
 -1      3473 5.52639E+00 2.32899E+01 5.52968E+01
 -1      3474 2.25930E+00 2.25719E+01 5.37079E+01
 -1      3475 5.93225E+00 2.22743E+01 5.29710E+01
 -1      3476 3.59563E+00 2.05897E+01 4.90440E+01
 -1      3477 8.03887E+00 2.12764E+01 5.07020E+01
 -1      3478 4.17298E+00 2.25609E+01 5.37351E+01
 -1      3479-8.10290E+00 8.19271E+01 1.95064E+02
 -1      3480-8.08566E+00 8.06703E+01 1.92071E+02
 -1      3481-1.08139E+01 7.90840E+01 1.88297E+02
 -1      3482-5.73184E+00 8.07355E+01 1.92229E+02
 -1      3483-1.08293E+01 8.03422E+01 1.91294E+02
 -1      3484-2.89804E+00 6.21480E+00 1.52287E+01
 -1      3485-3.06229E+00 7.09557E+00 1.73111E+01
 -1      3486-9.83978E-01 7.43785E+00 1.78162E+01
 -1      3487-3.59194E+00 7.39351E+00 1.79225E+01
 -1      3488-5.91123E+00 7.65992E+01 1.82382E+02
 -1      3489 1.81146E+00 7.20263E+01 1.71494E+02
 -1      3490 1.81368E+00 6.67097E+01 1.58835E+02
 -1      3491-4.82370E+00 6.67096E+01 1.58835E+02
 -1      3492-5.48547E-02 4.67494E-02 6.52857E-02
 -1      3493 1.41481E-02 7.82665E-02 1.95336E-01
 -1      3494-7.03906E+00 7.90826E+01 1.88300E+02
 -1      3495 1.59821E+00 3.76474E+01 8.96238E+01
 -1      3496 1.74735E+00 4.26369E+01 1.01507E+02
 -1      3497-4.97241E+00 2.12996E+01 5.05638E+01
 -1      3498-1.73611E+00 2.06006E+01 4.90213E+01
 -1      3499-2.25732E+00 2.25678E+01 5.36981E+01
 -1      3500 7.31945E+00 4.09859E+01 9.76402E+01
 -1      3501 2.15218E+00 4.00625E+01 9.54051E+01
 -1      3502 4.17169E+00 4.21536E+01 1.00375E+02
 -1      3503-6.09424E+00 7.22003E+01 1.71913E+02
 -1      3504-3.31316E+00 7.30189E+01 1.73858E+02
 -1      3505-7.22016E+00 7.38161E+01 1.75758E+02
 -1      3506-4.75998E+00 4.27188E+01 1.01725E+02
 -1      3507-4.99649E-01 1.54282E-02 3.67503E-01
 -1      3508-1.58766E-01 1.28770E-03 1.07858E-01
 -1      3509 5.33205E+00 3.53228E+01 8.42341E+01
 -1      3510-1.40280E+01 6.77272E+01 1.61263E+02
 -1      3511-9.34816E+00 6.97396E+01 1.66054E+02
 -1      3512-1.13062E+01 6.97400E+01 1.66053E+02
 -1      3513-1.13120E+01 6.73563E+01 1.60377E+02
 -1      3514-9.35275E+00 6.73563E+01 1.60377E+02
 -1      3515 1.40280E+01 6.77280E+01 1.61262E+02
 -1      3516 9.34818E+00 6.97400E+01 1.66054E+02
 -1      3517 1.13062E+01 6.97407E+01 1.66052E+02
 -1      3518 1.13120E+01 6.73570E+01 1.60376E+02
 -1      3519 9.35277E+00 6.73567E+01 1.60376E+02
 -1      3520-1.40231E+01 6.93684E+01 1.65172E+02
 -1      3521-1.13006E+01 7.13801E+01 1.69959E+02
 -1      3522 1.40231E+01 6.93692E+01 1.65172E+02
 -1      3523 1.13007E+01 7.13808E+01 1.69958E+02
 -1      3524 1.40165E+01 7.10091E+01 1.69078E+02
 -1      3525 9.34385E+00 7.13800E+01 1.69960E+02
 -1      3526-1.40165E+01 7.10083E+01 1.69079E+02
 -1      3527-9.34383E+00 7.13795E+01 1.69960E+02
 -1      3528-4.62315E+00 3.76421E+01 8.96458E+01
 -1      3529-1.56541E+00 2.44301E+00 5.88883E+00
 -1      3530 1.33958E+01 4.01196E+01 9.54207E+01
 -1      3531 1.34905E+01 4.16977E+01 9.91866E+01
 -1      3532 1.08211E+01 4.04449E+01 9.62720E+01
 -1      3533 1.08962E+01 4.20279E+01 1.00043E+02
 -1      3534 8.99867E+00 4.20376E+01 1.00020E+02
 -1      3535-1.14390E+00 3.67110E-01 7.38573E-01
 -1      3536-9.50199E-01 4.37059E-01 5.89395E-01
 -1      3537-1.64001E+00 6.23648E-01 9.39728E-01
 -1      3538-1.78245E+00 7.37031E-01 1.62192E+00
 -1      3539-1.46031E+00 7.99074E-01 1.48167E+00
 -1      3540 7.78478E-01 4.55797E+00 1.07994E+01
 -1      3541 1.43803E+00 8.40111E+01 2.00030E+02
 -1      3542-2.90928E-01 8.28632E+01 1.97296E+02
 -1      3543-1.04378E+01 5.20733E+01 1.23994E+02
 -1      3544-5.44590E+00 5.08886E+01 1.21173E+02
 -1      3545-6.67774E+00 5.28927E+01 1.25928E+02
 -1      3546 6.63165E+00 5.22066E+01 1.24274E+02
 -1      3547 6.67910E+00 5.30185E+01 1.26227E+02
 -1      3548 2.28790E+00 5.10171E+01 1.21463E+02
 -1      3549-2.08558E+00 4.53327E+00 1.08593E+01
 -1      3550 1.57392E+00 1.47268E+00 4.04858E+00
 -1      3551-8.13281E+00 8.29065E+01 1.97403E+02
 -1      3552-3.90625E+00 8.40558E+01 2.00137E+02
 -1      3553 4.87400E+00 3.07798E+00 6.81647E+00
 -1      3554 5.34871E+00 3.68791E+00 8.28497E+00
 -1      3555 3.83106E+00 2.79265E+00 6.51462E+00
 -1      3556 3.48616E+00 3.44657E+00 7.82239E+00
 -1      3557 3.16753E+00 2.84626E+00 6.38040E+00
 -1      3558-1.37041E+00 1.10002E+01 2.61508E+01
 -1      3559 5.82648E-01 2.47131E+00 5.82597E+00
 -1      3560-7.87814E-01 7.52987E+00 1.78944E+01
 -1      3561 2.26295E+00 7.51259E+00 1.79350E+01
 -1      3562-4.10686E+00 4.76788E+01 1.13530E+02
 -1      3563-4.49685E+00 6.15472E+01 1.46544E+02
 -1      3564-2.19194E+00 6.15479E+01 1.46543E+02
 -1      3565 4.49686E+00 6.15475E+01 1.46544E+02
 -1      3566 2.19193E+00 6.15479E+01 1.46543E+02
 -1      3567 1.42741E+00 4.76816E+01 1.13524E+02
 -1      3568 3.82482E+00 3.26983E+01 7.78712E+01
 -1      3569 1.32938E+00 3.27045E+01 7.78562E+01
 -1      3570-1.33005E+00 3.27049E+01 7.78574E+01
 -1      3571-3.82548E+00 3.26987E+01 7.78724E+01
 -1      3572-2.84417E+00 1.09849E+01 2.61844E+01
 -1      3573 1.39310E+00 1.09957E+01 2.61391E+01
 -1      3574-3.06829E+00 1.60961E+01 3.83594E+01
 -1      3575-1.06936E+00 1.61095E+01 3.83318E+01
 -1      3576 1.07146E+00 1.61087E+01 3.83298E+01
 -1      3577 2.86677E+00 1.09815E+01 2.61761E+01
 -1      3578 9.52905E-01 2.28656E+01 5.44080E+01
 -1      3579-2.25934E+00 2.21751E+01 5.28536E+01
 -1      3580 1.93199E+00 2.38980E+01 5.68650E+01
 -1      3581-6.79398E+00 2.28248E+01 5.45049E+01
 -1      3582-4.61683E+00 2.38787E+01 5.68907E+01
 -1      3583 3.07048E+00 1.60971E+01 3.83613E+01
 -1      3584 2.37842E-01-4.07922E-02 1.27496E-01
 -1      3585 1.60358E-01-6.93373E-03 1.08009E-01
 -1      3586 5.72084E+00 7.75786E+01 1.84702E+02
 -1      3587 5.74073E+00 7.92795E+01 1.88753E+02
 -1      3588 6.39790E-01 7.74469E+01 1.84398E+02
 -1      3589 5.39145E+00 7.74480E+01 1.84396E+02
 -1      3590-1.57914E+00 5.09510E+01 1.21317E+02
 -1      3591-2.79782E+00 5.29519E+01 1.26076E+02
 -1      3592-3.86857E+00 5.12581E+01 1.22041E+02
 -1      3593-5.73044E+00 6.44408E+01 1.53435E+02
 -1      3594-7.81693E+00 8.45543E+01 2.01327E+02
 -1      3595-7.30309E+00 8.40555E+01 2.00137E+02
 -1      3596-2.65555E+00 7.81679E+01 1.86119E+02
 -1      3597-9.18116E+00 8.45561E+01 2.01323E+02
 -1      3598-4.74979E+00 8.40116E+01 2.00029E+02
 -1      3599 3.21641E-01 3.82028E+00 9.10555E+00
 -1      3600 1.16586E+00 3.93313E+00 9.32335E+00
 -1      3601 1.02638E+00 2.99584E+00 7.08880E+00
 -1      3602-3.86741E+00 2.02990E+00 4.28661E+00
 -1      3603-1.54909E+00 7.19774E+01 1.71378E+02
 -1      3604 2.94134E-01 3.05190E+00 7.27677E+00
 -1      3605-5.75501E+00 3.89480E+01 9.26684E+01
 -1      3606-2.16065E+00 3.98614E+01 9.48963E+01
 -1      3607-1.69800E+00 4.10021E+01 9.76044E+01
 -1      3608-5.95694E+00 4.13200E+01 9.83230E+01
 -1      3609-2.32215E+00 4.22447E+01 1.00572E+02
 -1      3610-6.40067E+00 4.01672E+01 9.56140E+01
 -1      3611 8.05647E-01 7.03361E+01 1.67469E+02
 -1      3612 2.88933E+00 7.05610E+01 1.68005E+02
 -1      3613 2.89130E+00 6.81778E+01 1.62330E+02
 -1      3614-3.74224E+00 7.05610E+01 1.68005E+02
 -1      3615-3.74461E+00 6.81776E+01 1.62330E+02
 -1      3616-1.32519E+00 2.98660E+00 7.10446E+00
 -1      3617 2.79782E+00 5.29521E+01 1.26076E+02
 -1      3618 3.86943E+00 5.13835E+01 1.22339E+02
 -1      3619-1.33069E+01 3.85102E+01 9.15796E+01
 -1      3620-1.34092E+01 4.00764E+01 9.53188E+01
 -1      3621-1.06796E+01 3.81256E+01 9.07465E+01
 -1      3622-8.87206E+00 3.97460E+01 9.45544E+01
 -1      3623-8.80291E+00 3.81801E+01 9.08183E+01
 -1      3624-9.49724E-01 2.22422E+01 5.29681E+01
 -1      3625-1.33434E+00 2.35614E+01 5.61167E+01
 -1      3626-2.67739E-02 9.64572E-03-1.81097E-02
 -1      3627 5.92309E-02 8.72197E-03 6.81498E-02
 -1      3628-5.83294E+00 4.36540E+00 9.91788E+00
 -1      3629-5.37296E+00 3.70116E+00 8.31775E+00
 -1      3630-3.95531E+00 4.43082E+00 1.01858E+01
 -1      3631-4.38863E+00 3.68527E+00 8.64817E+00
 -1      3632-4.75427E+00 4.36580E+00 1.02739E+01
 -1      3633 8.16425E-01 6.83844E+01 1.62822E+02
 -1      3634-1.50569E+00 3.92622E+00 9.34034E+00
 -1      3635-1.35566E+00 5.33419E+01 1.27008E+02
 -1      3636 1.02906E+00 8.45545E+01 2.01326E+02
 -1      3637-1.68714E+00 8.40114E+01 2.00030E+02
 -1      3638 2.72008E+00 2.19358E+01 5.22148E+01
 -1      3639-1.92508E+00 3.80077E+01 9.04828E+01
 -1      3640-2.72328E+00 2.19365E+01 5.22167E+01
 -1      3641-4.87688E+00 3.06762E+00 6.79321E+00
 -1      3642-3.63635E+00 3.72582E+00 8.49316E+00
 -1      3643-3.83005E+00 2.79083E+00 6.51164E+00
 -1      3644-3.17177E+00 2.83519E+00 6.35501E+00
 -1      3645 2.77289E+00 4.12180E+01 9.81311E+01
 -1      3646 7.73876E-01 3.91386E+01 9.31902E+01
 -1      3647 2.74345E+00 3.89287E+01 9.26784E+01
 -1      3648 9.01620E-01 3.10719E-01 1.30341E+00
 -1      3649 1.35879E+00 8.25806E-01 2.39565E+00
 -1      3650 1.51281E-01 5.97733E-02 9.97718E-02
 -1      3651-5.71802E+00 7.42945E+01 1.76884E+02
 -1      3652-7.25615E+00 7.58072E+01 1.80489E+02
 -1      3653-6.75598E+00 7.32986E+01 1.74516E+02
 -1      3654-1.35077E+01 4.17405E+01 9.92903E+01
 -1      3655-1.07677E+01 3.97778E+01 9.46832E+01
 -1      3656-9.10393E+00 4.21242E+01 1.00226E+02
 -1      3657-1.10191E+01 4.21577E+01 1.00353E+02
 -1      3658-5.74777E+00 7.75305E+01 1.84589E+02
 -1      3659-5.64203E+00 7.92472E+01 1.88678E+02
 -1      3660-2.53796E+00 7.74240E+01 1.84342E+02
 -1      3661-7.22386E+00 7.74243E+01 1.84340E+02
 -1      3662-3.71174E-01 1.05277E+00 2.45217E+00
 -1      3663 2.81682E-01 7.49341E-02 1.43472E-01
 -1      3664 7.29748E-01 1.81657E-01 4.47366E-01
 -1      3665-1.46706E+00 3.91380E+01 9.31662E+01
 -1      3666-9.29067E-01 1.02759E+00 2.50893E+00
 -1      3667-8.59372E+00 7.81694E+01 1.86117E+02
 -1      3668-6.23692E+00 7.82347E+01 1.86276E+02
 -1      3669 1.14225E+00 6.35973E-01 2.08325E+00
 -1      3670 3.57190E-01 8.91104E-01 2.26667E+00
 -1      3671-9.18173E-01 3.11663E-01 1.31315E+00
 -1      3672-3.81521E-01 8.87081E-01 2.26474E+00
 -1      3673 5.62552E-01 4.10020E+01 9.76262E+01
 -1      3674-6.51638E+00 4.22446E+01 1.00658E+02
 -1      3675-7.82122E+00 4.14605E+01 9.87792E+01
 -1      3676-7.83608E+00 3.87542E+01 9.23529E+01
 -1      3677-1.14475E+00 6.38697E-01 2.09144E+00
 -1      3678-1.37951E+00 8.29144E-01 2.40990E+00
 -1      3679 5.72973E+00 6.77321E+01 1.61264E+02
 -1      3680 5.72784E+00 6.93755E+01 1.65175E+02
 -1      3681 1.69857E+00 7.11591E+01 1.69426E+02
 -1      3682 6.49315E+00 6.95186E+01 1.65518E+02
 -1      3683 1.69911E+00 6.95180E+01 1.65519E+02
 -1      3684 5.72520E+00 7.10174E+01 1.69082E+02
 -1      3685 6.48986E+00 7.11599E+01 1.69424E+02
 -1      3686 6.50629E+00 6.75655E+01 1.60869E+02
 -1      3687 1.70977E+00 6.75650E+01 1.60870E+02
 -1      3688 2.24846E+00 4.00701E+01 9.53829E+01
 -1      3689 1.22850E+00 4.14770E+01 9.87399E+01
 -1      3690 2.35583E+00 6.93708E+01 1.65171E+02
 -1      3691 1.27941E+00 6.79038E+01 1.61677E+02
 -1      3692-7.05137E+00 6.93709E+01 1.65170E+02
 -1      3693-8.13339E+00 6.79039E+01 1.61677E+02
 -1      3694-2.67743E+00 3.39159E+00 8.24110E+00
 -1      3695-2.85806E+00 2.77374E+00 6.93610E+00
 -1      3696 8.93297E-01 3.44843E+00 8.09949E+00
 -1      3697 4.45506E-01 2.85881E+00 6.72549E+00
 -1      3698 9.50280E+00 8.15993E+01 1.94290E+02
 -1      3699 1.14733E+01 8.15921E+01 1.94271E+02
 -1      3700 1.39084E+01 8.09625E+01 1.92777E+02
 -1      3701 8.85603E+00 7.92193E+01 1.88625E+02
 -1      3702 1.08286E+01 7.92124E+01 1.88605E+02
 -1      3703 1.99133E+00 2.55611E+00 6.59735E+00
 -1      3704 2.48858E+00 3.34752E+00 8.33059E+00
 -1      3705 6.52612E-01 3.39721E+00 8.20479E+00
 -1      3706 5.86818E-01 2.65782E+00 6.45113E+00
 -1      3707 2.23051E+00 2.60607E+00 6.58007E+00
 -1      3708 2.18292E+00 3.18265E+00 8.07318E+00
 -1      3709 7.05970E-01 4.07871E+00 9.82322E+00
 -1      3710 2.37667E+00 3.86379E+00 9.67817E+00
 -1      3711 2.70577E+00 4.02982E+00 9.94329E+00
 -1      3712-7.09459E+00 6.65458E+00 1.54138E+01
 -1      3713-5.77671E+00 7.38456E+00 1.74927E+01
 -1      3714-7.49771E+00 7.51983E+00 1.74898E+01
 -1      3715-4.72541E+00 7.42764E+00 1.73908E+01
 -1      3716-5.72872E+00 6.27945E+01 1.49519E+02
 -1      3717-1.61757E+00 6.11514E+01 1.45602E+02
 -1      3718-5.72585E+00 6.11479E+01 1.45603E+02
 -1      3719-6.41174E+00 6.11501E+01 1.45605E+02
 -1      3720 5.72865E+00 6.27954E+01 1.49520E+02
 -1      3721 1.61761E+00 6.11518E+01 1.45603E+02
 -1      3722-5.72057E+00 5.95016E+01 1.41688E+02
 -1      3723 5.72567E+00 6.11487E+01 1.45604E+02
 -1      3724 6.41184E+00 6.11509E+01 1.45606E+02
 -1      3725 5.72081E+00 5.95024E+01 1.41689E+02
 -1      3726-1.37084E+01 4.64867E+01 1.10618E+02
 -1      3727-1.06147E+01 4.80796E+01 1.14465E+02
 -1      3728-1.37687E+01 4.80988E+01 1.14464E+02
 -1      3729-8.69056E+00 4.80859E+01 1.14450E+02
 -1      3730 1.37083E+01 4.64875E+01 1.10617E+02
 -1      3731 8.69048E+00 4.80863E+01 1.14450E+02
 -1      3732 1.37689E+01 4.80996E+01 1.14463E+02
 -1      3733 1.06149E+01 4.80803E+01 1.14464E+02
 -1      3734-7.88557E+00 8.43128E+00 1.96750E+01
 -1      3735-1.02198E+01 1.59670E+01 3.77166E+01
 -1      3736-1.05000E+01 1.71888E+01 4.06401E+01
 -1      3737-7.87613E+00 1.58687E+01 3.77184E+01
 -1      3738-6.44556E+00 1.58997E+01 3.76446E+01
 -1      3739-1.29229E+01 3.39296E+01 8.06445E+01
 -1      3740-8.06595E+00 3.23848E+01 7.69996E+01
 -1      3741-1.27831E+01 3.24185E+01 7.70356E+01
 -1      3742-9.85410E+00 3.23689E+01 7.70372E+01
 -1      3743 1.29275E+01 3.39302E+01 8.06440E+01
 -1      3744 8.06553E+00 3.23847E+01 7.69979E+01
 -1      3745-3.52078E+00 1.00069E+01 2.41991E+01
 -1      3746-1.02849E+00 1.11780E+01 2.66932E+01
 -1      3747-3.66350E+00 1.10622E+01 2.66959E+01
 -1      3748-4.10377E+00 1.11413E+01 2.67801E+01
 -1      3749 1.27829E+01 3.24190E+01 7.70353E+01
 -1      3750 9.85332E+00 3.23688E+01 7.70359E+01
 -1      3751 7.89147E+00 8.43258E+00 1.96741E+01
 -1      3752 4.72771E+00 7.42787E+00 1.73903E+01
 -1      3753 7.50242E+00 7.52107E+00 1.74890E+01
 -1      3754 5.78377E+00 7.38533E+00 1.74923E+01
 -1      3755 7.10504E+00 6.65599E+00 1.54132E+01
 -1      3756 1.26317E+01 3.09248E+01 7.34659E+01
 -1      3757-1.26315E+01 3.09242E+01 7.34666E+01
 -1      3758 1.04996E+01 1.71894E+01 4.06393E+01
 -1      3759 6.45002E+00 1.59002E+01 3.76441E+01
 -1      3760 3.64118E+00 1.10600E+01 2.66903E+01
 -1      3761 3.50095E+00 1.00051E+01 2.41932E+01
 -1      3762 4.09809E+00 1.11398E+01 2.67769E+01
 -1      3763 1.04423E+00 1.11783E+01 2.66950E+01
 -1      3764-4.55556E+00 1.94572E+01 4.65931E+01
 -1      3765-4.63315E+00 2.07812E+01 4.97316E+01
 -1      3766-1.35615E+00 2.08603E+01 4.97253E+01
 -1      3767-5.13677E+00 2.08349E+01 4.97848E+01
 -1      3768 1.02284E+01 1.59628E+01 3.77028E+01
 -1      3769 7.88930E+00 1.58641E+01 3.77051E+01
 -1      3770 4.68567E+00 2.21396E+01 5.29494E+01
 -1      3771 5.14807E+00 2.08420E+01 4.98011E+01
 -1      3772 4.49967E+00 1.94593E+01 4.65950E+01
 -1      3773 1.32374E+00 2.08626E+01 4.97288E+01
 -1      3774-3.51735E+00 3.89289E+01 9.26881E+01
 -1      3775-3.69509E+00 4.13031E+01 9.83400E+01
 -1      3776 4.60184E+00 2.07906E+01 4.97507E+01
 -1      3777-6.59280E+00 5.49697E+01 1.30906E+02
 -1      3778-1.82102E+00 5.49733E+01 1.30898E+02
 -1      3779-5.69389E+00 5.45706E+01 1.29964E+02
 -1      3780-6.80086E+00 5.25700E+01 1.25202E+02
 -1      3781-2.04409E+00 5.25748E+01 1.25192E+02
 -1      3782 4.86996E+00 2.49208E+01 5.95484E+01
 -1      3783 1.43079E+00 2.64035E+01 6.29108E+01
 -1      3784 5.70635E+00 7.59380E+01 1.80796E+02
 -1      3785 4.95176E+00 2.63460E+01 6.29286E+01
 -1      3786 5.52666E+00 2.63930E+01 6.29822E+01
 -1      3787-2.22515E+00 8.89799E-01 1.54514E+00
 -1      3788-2.23939E+00 1.07202E+00 2.41445E+00
 -1      3789 1.14844E+00 3.72315E-01 7.55058E-01
 -1      3790 9.50850E-01 4.40616E-01 6.07235E-01
 -1      3791 1.64253E+00 6.25680E-01 9.41922E-01
 -1      3792 1.72760E+00 7.12643E-01 1.57180E+00
 -1      3793 1.40937E+00 7.73185E-01 1.43225E+00
 -1      3794-9.06306E+00 2.06499E+01 4.91016E+01
 -1      3795-7.54096E+00 2.06762E+01 4.90349E+01
 -1      3796-1.13272E+01 2.10380E+01 4.98431E+01
 -1      3797-9.80564E+00 2.26170E+01 5.37795E+01
 -1      3798-8.23734E+00 2.26428E+01 5.37137E+01
 -1      3799 9.06451E+00 2.06578E+01 4.91185E+01
 -1      3800 7.50121E+00 2.06765E+01 4.90349E+01
 -1      3801 1.12953E+01 2.10476E+01 4.98637E+01
 -1      3802 9.80721E+00 2.26300E+01 5.38087E+01
 -1      3803 8.19648E+00 2.26482E+01 5.37256E+01
 -1      3804-5.77891E+00 7.59135E+01 1.80739E+02
 -1      3805 1.07473E+01 5.45932E+01 1.29978E+02
 -1      3806 8.79962E+00 5.45964E+01 1.29970E+02
 -1      3807 1.39401E+01 5.46034E+01 1.29977E+02
 -1      3808 1.18618E+01 5.66004E+01 1.34756E+02
 -1      3809 9.90886E+00 5.66031E+01 1.34749E+02
 -1      3810 6.71059E+00 5.65972E+01 1.34751E+02
 -1      3811-1.07472E+01 5.45925E+01 1.29978E+02
 -1      3812-8.79960E+00 5.45959E+01 1.29970E+02
 -1      3813-1.39401E+01 5.46026E+01 1.29978E+02
 -1      3814-1.18618E+01 5.65996E+01 1.34757E+02
 -1      3815-9.90885E+00 5.66026E+01 1.34750E+02
 -1      3816-6.71055E+00 5.65968E+01 1.34751E+02
 -1      3817 1.07014E+01 3.81660E+01 9.08424E+01
 -1      3818 5.85307E+00 4.12335E+01 9.81169E+01
 -1      3819 5.79086E+00 3.89459E+01 9.26628E+01
 -1      3820 8.90785E+00 3.97441E+01 9.45486E+01
 -1      3821 8.83832E+00 3.81784E+01 9.08128E+01
 -1      3822-2.80745E+00 1.21682E+00 2.32537E+00
 -1      3823-1.84306E+00 1.13447E+00 2.28356E+00
 -1      3824-1.37246E+00 1.25006E+01 2.98671E+01
 -1      3825-4.59094E+00 1.24613E+01 2.99597E+01
 -1      3826-1.83655E+00 1.25408E+01 2.99379E+01
 -1      3827-6.98601E+00 1.44651E+01 3.41720E+01
 -1      3828-8.36818E+00 1.44291E+01 3.42582E+01
 -1      3829-4.72809E+00 1.43908E+01 3.41912E+01
 -1      3830 6.09752E+00 7.05610E+01 1.68008E+02
 -1      3831 6.10142E+00 6.81782E+01 1.62333E+02
 -1      3832-9.93936E+00 7.05615E+01 1.68006E+02
 -1      3833-9.94570E+00 6.81782E+01 1.62332E+02
 -1      3834 4.75372E+00 4.36633E+00 1.02737E+01
 -1      3835 4.21477E+00 3.39326E+00 7.95100E+00
 -1      3836 2.45790E+00 4.00962E+00 9.25403E+00
 -1      3837 3.93214E+00 4.41669E+00 1.01503E+01
 -1      3838 2.16361E+00 3.07549E+00 7.01701E+00
 -1      3839-5.68017E+00 5.29317E+01 1.26067E+02
 -1      3840-5.66444E+00 5.12961E+01 1.22180E+02
 -1      3841-6.78107E+00 5.09363E+01 1.21319E+02
 -1      3842-2.03773E+00 5.09419E+01 1.21306E+02
 -1      3843-1.39890E+01 5.78768E+01 1.37785E+02
 -1      3844-1.39671E+01 5.62386E+01 1.33879E+02
 -1      3845-9.92369E+00 5.82421E+01 1.38658E+02
 -1      3846-1.18792E+01 5.82397E+01 1.38664E+02
 -1      3847 1.39672E+01 5.62394E+01 1.33878E+02
 -1      3848 1.18792E+01 5.82405E+01 1.38663E+02
 -1      3849 1.39890E+01 5.78776E+01 1.37784E+02
 -1      3850 9.92371E+00 5.82426E+01 1.38658E+02
 -1      3851-9.62078E+00 1.36238E+01 3.21101E+01
 -1      3852-9.92634E+00 1.47776E+01 3.48715E+01
 -1      3853-6.76626E+00 1.33174E+01 3.14259E+01
 -1      3854-8.10534E+00 1.32791E+01 3.15167E+01
 -1      3855-3.79932E+00 1.21563E+01 2.92872E+01
 -1      3856-3.92936E+00 1.32881E+01 3.19684E+01
 -1      3857-1.41936E+00 1.36367E+01 3.25689E+01
 -1      3858-4.74574E+00 1.36000E+01 3.26573E+01
 -1      3859 1.37976E+00 1.24999E+01 2.98657E+01
 -1      3860 4.57576E+00 1.24581E+01 2.99524E+01
 -1      3861 1.85979E+00 1.25405E+01 2.99380E+01
 -1      3862 6.98436E+00 1.44619E+01 3.41629E+01
 -1      3863 8.37437E+00 1.44213E+01 3.42365E+01
 -1      3864 4.73117E+00 1.43875E+01 3.41826E+01
 -1      3865 3.77793E+00 1.21525E+01 2.92777E+01
 -1      3866 4.73111E+00 1.35951E+01 3.26460E+01
 -1      3867 9.93433E+00 1.47735E+01 3.48580E+01
 -1      3868 6.76467E+00 1.33143E+01 3.14171E+01
 -1      3869 1.83915E+00 2.81709E+01 6.71311E+01
 -1      3870 6.01393E+00 2.81596E+01 6.72048E+01
 -1      3871 2.42762E+00 2.81958E+01 6.71760E+01
 -1      3872 5.09336E+00 2.92692E+01 6.98648E+01
 -1      3873 5.05183E+00 2.77923E+01 6.63609E+01
 -1      3874 6.12211E+00 2.96296E+01 7.06932E+01
 -1      3875 1.83583E+00 2.96489E+01 7.06464E+01
 -1      3876 3.90741E+00 1.32843E+01 3.19587E+01
 -1      3877 1.42675E+00 1.36360E+01 3.25674E+01
 -1      3878-1.43942E+00 2.64061E+01 6.29171E+01
 -1      3879-5.52303E+00 2.63856E+01 6.29654E+01
 -1      3880-4.97382E+00 2.63412E+01 6.29189E+01
 -1      3881-1.85711E+00 2.81727E+01 6.71363E+01
 -1      3882-6.02015E+00 2.81517E+01 6.71866E+01
 -1      3883-2.41972E+00 2.81950E+01 6.71744E+01
 -1      3884-1.15611E+01 2.23773E+01 5.30439E+01
 -1      3885-8.39468E+00 2.40147E+01 5.69919E+01
 -1      3886-4.02184E+00 3.93156E+00 9.44701E+00
 -1      3887-9.41120E+00 3.89300E+01 9.27113E+01
 -1      3888-9.65331E+00 4.13037E+01 9.83611E+01
 -1      3889-1.17760E+01 2.37383E+01 5.62977E+01
 -1      3890-9.98380E+00 2.39873E+01 5.70461E+01
 -1      3891 1.15144E+01 2.23838E+01 5.30572E+01
 -1      3892 8.33887E+00 2.40169E+01 5.69961E+01
 -1      3893-5.10702E+00 2.92675E+01 6.98620E+01
 -1      3894-5.02575E+00 2.77941E+01 6.63660E+01
 -1      3895-1.85936E+00 2.96476E+01 7.06439E+01
 -1      3896-6.11299E+00 2.96278E+01 7.06903E+01
 -1      3897 9.62462E+00 1.36187E+01 3.20950E+01
 -1      3898 8.10758E+00 1.32706E+01 3.14938E+01
 -1      3899-1.44775E+00 5.49800E+01 1.30904E+02
 -1      3900-5.57659E+00 5.54109E+01 1.31917E+02
 -1      3901-9.40130E+00 5.54060E+01 1.31928E+02
 -1      3902 5.57660E+00 5.54111E+01 1.31916E+02
 -1      3903 4.16534E+00 5.49787E+01 1.30907E+02
 -1      3904 9.40131E+00 5.54067E+01 1.31927E+02
 -1      3905-3.53910E+00 2.99274E+00 7.21512E+00
 -1      3906 5.44438E+00 4.00583E+01 9.54791E+01
 -1      3907 5.40092E+00 3.83959E+01 9.15315E+01
 -1      3908 6.13216E+00 3.82797E+01 9.12257E+01
 -1      3909 1.61310E+00 3.83340E+01 9.12990E+01
 -1      3910 6.18191E+00 3.99387E+01 9.51684E+01
 -1      3911-1.78665E+00 4.60516E+01 1.09666E+02
 -1      3912-1.90974E+00 4.38529E+01 1.04436E+02
 -1      3913 3.39928E+00 4.44779E+00 1.08555E+01
 -1      3914 1.28932E+00 5.01506E+00 1.20529E+01
 -1      3915-1.68882E+00 3.41940E+01 8.14515E+01
 -1      3916-1.95204E+00 3.64116E+01 8.67350E+01
 -1      3917 3.90705E+00 2.67900E+01 6.38023E+01
 -1      3918 6.78158E+00 2.71345E+01 6.47119E+01
 -1      3919-6.47302E+00 4.60438E+01 1.09684E+02
 -1      3920-6.56485E+00 4.38438E+01 1.04458E+02
 -1      3921-3.89622E+00 2.67855E+01 6.37921E+01
 -1      3922-6.76796E+00 2.71310E+01 6.47044E+01
 -1      3923-6.12038E+00 3.41787E+01 8.14877E+01
 -1      3924-6.44890E+00 3.63965E+01 8.67699E+01
 -1      3925 1.17254E+01 2.37490E+01 5.63214E+01
 -1      3926 9.98226E+00 2.40046E+01 5.70858E+01
 -1      3927-1.88871E+00 2.67937E+01 6.37728E+01
 -1      3928-1.42290E+00 2.71614E+01 6.46336E+01
 -1      3929-6.76623E-01 4.52177E+00 1.06792E+01
 -1      3930 7.37257E+00 4.25762E+01 1.01421E+02
 -1      3931 2.53056E+00 4.37386E+01 1.04159E+02
 -1      3932 1.89986E+00 2.67979E+01 6.37825E+01
 -1      3933 1.41006E+00 2.71611E+01 6.46329E+01
 -1      3934 2.23549E+00 8.91823E-01 1.55843E+00
 -1      3935 1.78535E+00 1.10467E+00 2.22481E+00
 -1      3936 1.39732E+01 7.92622E+01 1.88730E+02
 -1      3937 8.91829E+00 7.75177E+01 1.84574E+02
 -1      3938 2.81851E+00 1.22541E+00 2.34013E+00
 -1      3939 2.18919E+00 1.04958E+00 2.36379E+00
 -1      3940-4.47835E-01 1.28712E+00 3.21090E+00
 -1      3941-5.81203E-01 1.93098E+00 4.75205E+00
 -1      3942 1.40256E+01 7.75444E+01 1.84641E+02
 -1      3943 1.08785E+01 7.74949E+01 1.84516E+02
 -1      3944-8.04056E-01 1.31267E+01 3.12030E+01
 -1      3945-1.04970E+00 1.17790E+01 2.79790E+01
 -1      3946-1.79783E+00 1.20990E+01 2.87549E+01
 -1      3947-4.48018E+00 1.27135E+01 3.00376E+01
 -1      3948-1.57866E+00 1.34667E+01 3.20117E+01
 -1      3949 1.40296E+01 6.44438E+01 1.53436E+02
 -1      3950-1.40295E+01 6.44430E+01 1.53437E+02
 -1      3951-8.29679E-01 1.42787E+01 3.39480E+01
 -1      3952-8.62758E-01 1.48841E+01 3.54152E+01
 -1      3953-4.02353E+00 1.52625E+01 3.61726E+01
 -1      3954-4.63102E+00 1.38450E+01 3.27423E+01
 -1      3955 4.62963E+00 1.38417E+01 3.27333E+01
 -1      3956 4.02804E+00 1.52627E+01 3.61722E+01
 -1      3957 8.74850E-01 1.48851E+01 3.54171E+01
 -1      3958 8.37201E-01 1.42796E+01 3.39495E+01
 -1      3959 1.58491E+00 1.34642E+01 3.20052E+01
 -1      3960-5.06940E+00 1.17243E+01 2.81061E+01
 -1      3961-3.32868E+00 1.20816E+01 2.87935E+01
 -1      3962-7.05837E+00 1.26531E+01 3.01805E+01
 -1      3963-5.59746E+00 1.30685E+01 3.13449E+01
 -1      3964-3.77779E+00 1.34454E+01 3.20661E+01
 -1      3965-7.29590E+00 1.37875E+01 3.28788E+01
 -1      3966-6.78658E+00 1.52148E+01 3.62857E+01
 -1      3967-5.77895E+00 1.42231E+01 3.40839E+01
 -1      3968-3.14676E+00 1.48701E+01 3.54527E+01
 -1      3969 4.47881E+00 1.27102E+01 3.00289E+01
 -1      3970 1.81260E+00 1.20953E+01 2.87452E+01
 -1      3971 1.06547E+00 1.17787E+01 2.79771E+01
 -1      3972 8.11365E-01 1.31276E+01 3.12045E+01
 -1      3973-1.63455E+00 1.22638E+00 3.34596E+00
 -1      3974-2.01599E+00 1.86924E+00 4.88673E+00
 -1      3975 6.78229E+00 1.52101E+01 3.62747E+01
 -1      3976 3.15879E+00 1.48694E+01 3.54507E+01
 -1      3977 5.77771E+00 1.42178E+01 3.40711E+01
 -1      3978 7.28554E+00 1.37797E+01 3.28597E+01
 -1      3979 3.78372E+00 1.34414E+01 3.20558E+01
 -1      3980 1.10463E+00 3.87751E+01 9.23047E+01
 -1      3981 1.27851E+00 7.08374E+01 1.68663E+02
 -1      3982-8.12679E+00 7.08382E+01 1.68661E+02
 -1      3983-4.81726E+00 7.20264E+01 1.71493E+02
 -1      3984 5.59279E+00 1.30564E+01 3.13159E+01
 -1      3985 5.07397E+00 1.17141E+01 2.80820E+01
 -1      3986 7.04450E+00 1.26385E+01 3.01457E+01
 -1      3987 3.34341E+00 1.20792E+01 2.87871E+01
 -1      3988 1.40168E+01 7.59036E+01 1.80734E+02
 -1      3989 3.35404E+00 1.59808E+00 3.24016E+00
 -1      3990 5.72174E+00 7.26574E+01 1.72986E+02
 -1      3991 5.23168E-01 4.01092E+00 9.47299E+00
 -1      3992 2.55651E+00 4.59785E+00 1.14096E+01
 -1      3993 7.57231E-01 4.81212E+00 1.15655E+01
 -1      3994 2.72049E+00 5.37404E+00 1.32429E+01
 -1      3995 2.89916E+00 4.75729E+00 1.16641E+01
 -1      3996 5.73073E+00 6.60873E+01 1.57351E+02
 -1      3997-1.70885E+00 4.25906E+01 1.01389E+02
 -1      3998-4.07600E+00 7.82337E+01 1.86275E+02
 -1      3999-3.34196E+00 3.93071E+00 9.67242E+00
 -1      4000 5.57168E+00 4.48053E+01 1.06756E+02
 -1      4001 1.42938E+00 4.33739E+01 1.03289E+02
 -1      4002 6.07380E+00 4.33651E+01 1.03310E+02
 -1      4003 6.68294E+00 4.51787E+01 1.07632E+02
 -1      4004 2.00711E+00 4.51872E+01 1.07612E+02
 -1      4005 1.78574E+00 1.98318E+00 5.25044E+00
 -1      4006 5.49009E-01 4.89044E+00 1.16659E+01
 -1      4007 1.52209E-01 4.43409E-02 1.14478E-01
 -1      4008 8.16082E+00 5.08846E+01 1.21188E+02
 -1      4009 2.95810E+00 5.04646E+01 1.20168E+02
 -1      4010 7.87176E+00 4.92585E+01 1.17316E+02
 -1      4011 1.04085E+01 5.05697E+01 1.20412E+02
 -1      4012 5.20842E+00 5.01428E+01 1.19395E+02
 -1      4013 5.48668E+00 5.17712E+01 1.23273E+02
 -1      4014-9.77817E+00 8.16809E+01 1.94487E+02
 -1      4015-1.01996E+01 8.00518E+01 1.90609E+02
 -1      4016-2.81035E+00 5.62263E+01 1.33873E+02
 -1      4017 2.81038E+00 5.62264E+01 1.33873E+02
 -1      4018 9.80867E-01 4.33871E+01 1.03308E+02
 -1      4019-1.01209E+00 2.78864E+01 6.64051E+01
 -1      4020 1.01770E+00 2.78866E+01 6.64052E+01
 -1      4021 5.51644E+00 4.32432E+01 1.03044E+02
 -1      4022 6.01304E+00 4.18122E+01 9.96193E+01
 -1      4023 9.99582E-01 5.68489E+00 1.36719E+01
 -1      4024 3.31111E+00 5.62690E+00 1.37749E+01
 -1      4025-1.39672E+00 4.92672E+01 1.17295E+02
 -1      4026-1.14128E+00 5.08929E+01 1.21167E+02
 -1      4027-6.60970E+00 5.04530E+01 1.20094E+02
 -1      4028-2.25904E+00 5.16488E+01 1.22968E+02
 -1      4029-2.51201E+00 5.00207E+01 1.19090E+02
 -1      4030 5.48177E+00 4.16457E+01 9.92501E+01
 -1      4031 1.42036E+00 4.17792E+01 9.94936E+01
 -1      4032-9.93385E+00 7.22012E+01 1.71910E+02
 -1      4033 5.35564E+00 3.68315E+01 8.78167E+01
 -1      4034-3.34828E+00 1.59378E+00 3.23338E+00
 -1      4035-1.14450E+00 5.25243E+01 1.25053E+02
 -1      4036-1.18230E+00 5.33432E+01 1.27006E+02
 -1      4037-5.56449E+00 5.37745E+01 1.28017E+02
 -1      4038-6.63020E+00 5.20812E+01 1.23976E+02
 -1      4039 1.10968E+00 1.37005E+01 3.26463E+01
 -1      4040 7.78366E-01 1.23244E+01 2.93584E+01
 -1      4041-2.66135E+00 1.32133E+01 3.14352E+01
 -1      4042 2.65847E+00 1.32100E+01 3.14267E+01
 -1      4043 1.99770E+00 1.46241E+01 3.48069E+01
 -1      4044-1.10407E+00 1.37013E+01 3.26482E+01
 -1      4045-1.99498E+00 1.46240E+01 3.48070E+01
 -1      4046-7.63999E-01 1.23237E+01 2.93566E+01
 -1      4047 1.20466E+00 4.93267E+01 1.17441E+02
 -1      4048 1.17110E+00 5.01367E+01 1.19366E+02
 -1      4049 5.51284E+00 4.88889E+01 1.16372E+02
 -1      4050 6.63753E+00 4.97600E+01 1.18465E+02
 -1      4051 6.61134E+00 5.05782E+01 1.20391E+02
 -1      4052 1.32940E+01 3.85528E+01 9.16805E+01
 -1      4053-5.49627E+00 4.16015E+01 9.91464E+01
 -1      4054-8.90564E+00 2.46438E+01 5.87112E+01
 -1      4055-4.31830E+00 2.53381E+01 6.03459E+01
 -1      4056-6.65724E+00 2.56947E+01 6.12913E+01
 -1      4057-6.92213E+00 2.42207E+01 5.78196E+01
 -1      4058-2.33725E+00 2.49467E+01 5.94468E+01
 -1      4059 2.34811E+00 2.53526E+01 6.03322E+01
 -1      4060 5.63334E+00 2.46862E+01 5.86307E+01
 -1      4061 1.37451E+00 2.57266E+01 6.12155E+01
 -1      4062 9.76875E-01 2.42595E+01 5.77277E+01
 -1      4063 5.80743E+00 4.35198E+00 9.88321E+00
 -1      4064 8.18493E+00 5.25173E+01 1.25070E+02
 -1      4065 1.04402E+01 5.21995E+01 1.24292E+02
 -1      4066 9.38109E+00 5.37694E+01 1.28030E+02
 -1      4067 4.41779E+00 5.33415E+01 1.27011E+02
 -1      4068 4.11534E+00 4.84559E+01 1.15379E+02
 -1      4069 9.29453E+00 4.88804E+01 1.16394E+02
 -1      4070 1.41046E+00 4.01940E+01 9.57211E+01
 -1      4071-8.11681E+00 5.01275E+01 1.19388E+02
 -1      4072-4.35251E+00 4.93238E+01 1.17448E+02
 -1      4073-9.29451E+00 4.88797E+01 1.16394E+02
 -1      4074-1.04057E+01 5.04439E+01 1.20115E+02
 -1      4075-6.63572E+00 4.96349E+01 1.18168E+02
 -1      4076-1.18047E+01 5.28971E+01 1.25937E+02
 -1      4077-9.86072E+00 5.29017E+01 1.25926E+02
 -1      4078-1.31923E+01 5.20907E+01 1.23991E+02
 -1      4079 9.80215E+00 4.97723E+01 1.18462E+02
 -1      4080 1.17350E+01 4.97663E+01 1.18476E+02
 -1      4081 1.31549E+01 5.05895E+01 1.20408E+02
 -1      4082-9.33849E+00 7.30181E+01 1.73863E+02
 -1      4083-9.92638E+00 7.50816E+01 1.78777E+02
 -1      4084-1.12940E+01 7.30188E+01 1.73861E+02
 -1      4085-1.18800E+01 7.50824E+01 1.78775E+02
 -1      4086-9.83238E+00 5.12721E+01 1.22040E+02
 -1      4087-1.17708E+01 5.12667E+01 1.22053E+02
 -1      4088 9.83472E+00 5.13976E+01 1.22338E+02
 -1      4089 1.17736E+01 5.13925E+01 1.22350E+02
 -1      4090 1.22894E+01 4.28415E+01 1.01933E+02
 -1      4091 1.27311E+01 6.65353E+01 1.58420E+02
 -1      4092-1.27311E+01 6.65346E+01 1.58421E+02
 -1      4093 1.19832E+01 3.74121E+01 8.89788E+01
 -1      4094 1.27137E+01 7.21986E+01 1.71910E+02
 -1      4095-1.39991E+01 7.42840E+01 1.76881E+02
 -1      4096-1.27137E+01 7.21979E+01 1.71911E+02
 -1      4097 5.55326E+00 4.82567E+00 1.11049E+01
 -1      4098-1.79367E+00 2.49210E+01 5.94030E+01
 -1      4099-5.81400E+00 2.48969E+01 5.94599E+01
 -1      4100-4.58402E+00 2.41749E+01 5.77569E+01
 -1      4101-3.95343E+00 1.15920E+01 2.73846E+01
 -1      4102-4.72684E+00 1.18695E+01 2.81679E+01
 -1      4103-1.77936E+00 2.35213E+01 5.60750E+01
 -1      4104-5.70560E+00 2.34960E+01 5.61350E+01
 -1      4105-5.55349E+00 4.82498E+00 1.11056E+01
 -1      4106 4.08542E+00 2.62279E+00 5.81497E+00
 -1      4107-7.53367E-01 7.06489E+00 1.67474E+01
 -1      4108 1.54173E+00 6.77632E+00 1.62481E+01
 -1      4109 7.84042E+00 4.76361E+01 1.13458E+02
 -1      4110 2.90352E+00 4.71939E+01 1.12384E+02
 -1      4111-6.12442E+00 6.07278E+01 1.44585E+02
 -1      4112-7.25283E+00 6.02743E+01 1.43509E+02
 -1      4113-9.96603E+00 6.07253E+01 1.44590E+02
 -1      4114 6.12444E+00 6.07280E+01 1.44584E+02
 -1      4115 7.25285E+00 6.02747E+01 1.43509E+02
 -1      4116 9.96605E+00 6.07260E+01 1.44589E+02
 -1      4117 1.39424E+00 4.84890E+01 1.15441E+02
 -1      4118-2.91652E+00 4.89295E+01 1.16515E+02
 -1      4119-1.39130E+00 4.76461E+01 1.13433E+02
 -1      4120-1.43047E+00 4.84582E+01 1.15373E+02
 -1      4121-7.85721E+00 4.84791E+01 1.15464E+02
 -1      4122 1.02940E+00 1.54903E+01 3.68280E+01
 -1      4123-2.12527E+00 1.51264E+01 3.60988E+01
 -1      4124-1.03191E+00 1.54912E+01 3.68303E+01
 -1      4125 2.13043E+00 1.51265E+01 3.60988E+01
 -1      4126 1.61317E+00 5.17082E+01 1.23120E+02
 -1      4127 1.34748E+00 5.00797E+01 1.19242E+02
 -1      4128 3.96070E+00 1.15881E+01 2.73740E+01
 -1      4129 4.73267E+00 1.18623E+01 2.81495E+01
 -1      4130-6.43855E+00 1.15333E+01 2.75237E+01
 -1      4131-5.78504E+00 1.54397E+01 3.69482E+01
 -1      4132-1.40875E+00 5.41602E+01 1.28948E+02
 -1      4133 2.97507E+00 5.37303E+01 1.27940E+02
 -1      4134 7.94171E+00 5.41548E+01 1.28962E+02
 -1      4135 7.26600E+00 3.19186E+01 7.60927E+01
 -1      4136 2.68372E+00 3.15133E+01 7.50752E+01
 -1      4137-7.26590E+00 3.19181E+01 7.60926E+01
 -1      4138-2.68452E+00 3.15127E+01 7.50738E+01
 -1      4139 1.16562E+00 9.65155E-01 2.75365E+00
 -1      4140-1.29068E+00 3.19443E+01 7.60312E+01
 -1      4141 1.29064E+00 3.19442E+01 7.60307E+01
 -1      4142-1.57335E+00 1.47598E+00 4.05600E+00
 -1      4143-1.18835E+00 9.62654E-01 2.75558E+00
 -1      4144 4.21366E+00 6.99547E+00 1.69122E+01
 -1      4145-1.00786E+01 2.00464E+01 4.75175E+01
 -1      4146 1.27542E+01 6.23732E+01 1.48502E+02
 -1      4147-1.27542E+01 6.23725E+01 1.48503E+02
 -1      4148 5.18593E+00 5.57881E+01 1.32852E+02
 -1      4149 5.66435E+00 5.12968E+01 1.22181E+02
 -1      4150 5.12914E+00 4.92463E+01 1.17299E+02
 -1      4151 1.80559E+00 5.00710E+01 1.19230E+02
 -1      4152 6.53913E+00 5.00656E+01 1.19244E+02
 -1      4153-5.18590E+00 5.57874E+01 1.32852E+02
 -1      4154-5.57162E+00 4.48047E+01 1.06755E+02
 -1      4155-5.09799E+00 4.68450E+01 1.11591E+02
 -1      4156-2.89104E+00 7.81281E+00 1.89374E+01
 -1      4157 4.78669E+00 3.34002E+01 7.96450E+01
 -1      4158-7.92055E+00 1.06206E+01 2.49839E+01
 -1      4159-3.87273E+00 1.65966E+01 3.97573E+01
 -1      4160-8.56645E+00 2.60769E+01 6.21257E+01
 -1      4161-6.20967E+00 2.57081E+01 6.11556E+01
 -1      4162-5.32728E+00 3.53220E+01 8.42333E+01
 -1      4163-4.78662E+00 3.33997E+01 7.96445E+01
 -1      4164-4.81908E+00 2.35104E+01 5.62045E+01
 -1      4165 5.77383E+00 1.54360E+01 3.69388E+01
 -1      4166 1.00754E+01 2.00461E+01 4.75151E+01
 -1      4167-5.29245E+00 2.61111E+01 6.20464E+01
 -1      4168 5.24626E+00 2.61149E+01 6.20555E+01
 -1      4169 6.20868E+00 2.57170E+01 6.11755E+01
 -1      4170-4.08437E+00 2.62127E+00 5.81294E+00
 -1      4171 6.43367E+00 1.15182E+01 2.74880E+01
 -1      4172 8.56825E+00 2.61013E+01 6.21824E+01
 -1      4173 3.87024E+00 1.65979E+01 3.97597E+01
 -1      4174 2.88999E+00 7.81373E+00 1.89388E+01
 -1      4175 1.11416E+01 2.75991E+01 6.55548E+01
 -1      4176 7.92688E+00 1.06172E+01 2.49738E+01
 -1      4177-1.11387E+01 2.75944E+01 6.55451E+01
 -1      4178 9.37483E+00 6.15509E+01 1.46543E+02
 -1      4179 1.13334E+01 6.15498E+01 1.46546E+02
 -1      4180-1.13334E+01 6.15491E+01 1.46546E+02
 -1      4181 1.79867E+00 4.84456E+01 1.15363E+02
 -1      4182-9.37482E+00 6.15505E+01 1.46544E+02
 -1      4183 6.51498E+00 4.84395E+01 1.15378E+02
 -1      4184 6.59277E+00 5.49705E+01 1.30907E+02
 -1      4185 1.82105E+00 5.49737E+01 1.30899E+02
 -1      4186-1.79494E+00 4.76679E+01 1.13512E+02
 -1      4187-6.50223E+00 4.76610E+01 1.13528E+02
 -1      4188 1.67043E+00 3.26715E+01 7.78290E+01
 -1      4189 6.05987E+00 3.26553E+01 7.78678E+01
 -1      4190-5.93431E+00 1.11042E+01 2.61600E+01
 -1      4191-7.17984E+00 1.10650E+01 2.62529E+01
 -1      4192-4.86548E+00 1.60103E+01 3.83513E+01
 -1      4193-1.33765E+00 1.60427E+01 3.82743E+01
 -1      4194-1.67053E+00 3.26713E+01 7.78286E+01
 -1      4195 9.82960E-01 7.43866E+00 1.78176E+01
 -1      4196 1.33515E+00 1.60438E+01 3.82766E+01
 -1      4197-6.05971E+00 3.26549E+01 7.78676E+01
 -1      4198 9.83711E+00 2.68399E+01 6.38534E+01
 -1      4199-1.38677E+01 5.13414E+01 1.22200E+02
 -1      4200 1.38678E+01 5.13423E+01 1.22199E+02
 -1      4201-5.51285E+00 4.88888E+01 1.16373E+02
 -1      4202-8.16938E+00 2.68510E+01 6.37798E+01
 -1      4203 5.94111E+00 1.11005E+01 2.61496E+01
 -1      4204 4.84651E+00 1.60071E+01 3.83432E+01
 -1      4205 7.19202E+00 1.10619E+01 2.62427E+01
 -1      4206 3.57503E+00 7.38910E+00 1.79127E+01
 -1      4207-9.83708E+00 2.68266E+01 6.38228E+01
 -1      4208 8.15493E+00 2.68524E+01 6.37822E+01
 -1      4209 1.54304E-02 1.12444E+01 2.67727E+01
 -1      4210 2.20252E+00 1.20732E+01 2.87255E+01
 -1      4211 2.35364E-03 7.30804E+00 1.74002E+01
 -1      4212-5.73601E-06 6.11533E+01 1.45605E+02
 -1      4213-3.34140E+00 5.99038E+01 1.42629E+02
 -1      4214 3.34141E+00 5.99039E+01 1.42629E+02
 -1      4215-5.69749E-05 4.80690E+01 1.14451E+02
 -1      4216 2.78038E+00 4.96924E+01 1.18315E+02
 -1      4217-2.78045E+00 4.96925E+01 1.18314E+02
 -1      4218-1.34514E+00 4.93001E+01 1.17386E+02
 -1      4219 1.33654E+00 4.68378E+01 1.11523E+02
 -1      4220-9.02976E-06 5.45869E+01 1.29971E+02
 -1      4221 1.35563E+00 5.33421E+01 1.27008E+02
 -1      4222 6.97414E-01 6.62818E+00 1.58051E+01
 -1      4223-2.19652E+00 1.20773E+01 2.87360E+01
 -1      4224-6.53677E-04 3.23406E+01 7.70023E+01
 -1      4225 1.23148E+00 3.11942E+01 7.42815E+01
 -1      4226-1.23464E+00 3.11941E+01 7.42813E+01
 -1      4227 1.40178E+01 6.11591E+01 1.45607E+02
 -1      4228 5.62396E+00 4.80392E+01 1.14439E+02
 -1      4229-1.40178E+01 6.11583E+01 1.45608E+02
 -1      4230 5.69396E+00 5.45715E+01 1.29965E+02
 -1      4231-5.62397E+00 4.80385E+01 1.14438E+02
 -1      4232-1.31955E+01 3.69564E+01 8.78691E+01
 -1      4233-8.96819E+00 1.14263E+01 2.68496E+01
 -1      4234 5.22124E+00 3.22629E+01 7.69702E+01
 -1      4235-4.17450E+00 1.56597E+01 3.75869E+01
 -1      4236 4.59772E-03 1.58133E+01 3.76513E+01
 -1      4237-9.73465E-01 1.48922E+01 3.54755E+01
 -1      4238 8.57331E-03 2.64431E+01 6.29605E+01
 -1      4239-9.78978E-01 2.50135E+01 5.95650E+01
 -1      4240 2.85263E+00 2.53674E+01 6.03875E+01
 -1      4241 9.69272E-01 1.48931E+01 3.54775E+01
 -1      4242-5.22120E+00 3.22624E+01 7.69697E+01
 -1      4243 4.15799E+00 1.56558E+01 3.75769E+01
 -1      4244 3.04719E+00 7.09149E+00 1.73002E+01
 -1      4245-2.85021E+00 2.53632E+01 6.03778E+01
 -1      4246 4.61319E-03 2.09049E+01 4.97744E+01
 -1      4247 1.21504E+01 2.65489E+01 6.30118E+01
 -1      4248-1.21702E+01 2.65429E+01 6.29989E+01
 -1      4249 8.97383E+00 1.14274E+01 2.68488E+01
 -1      4250 9.86270E+00 5.30276E+01 1.26224E+02
 -1      4251 1.31952E+01 5.22166E+01 1.24288E+02
 -1      4252 1.18071E+01 5.30233E+01 1.26235E+02
 -1      4253-1.17317E+01 4.96409E+01 1.18180E+02
 -1      4254-1.31515E+01 5.04640E+01 1.20112E+02
 -1      4255-9.79943E+00 4.96472E+01 1.18165E+02
 -1      4256-1.74221E+00 2.21482E+01 5.28097E+01
 -1      4257-4.50145E+00 2.27848E+01 5.44579E+01
 -1      4258-5.60108E+00 2.21217E+01 5.28730E+01
 -1      4259-6.71381E+00 7.74482E+01 1.84409E+02
 -1      4260-8.13403E+00 7.75151E+01 1.84566E+02
 -1      4261-1.23962E+01 4.29281E+01 1.02140E+02
 -1      4262 1.54080E+01 8.36348E+01 1.99137E+02
 -1      4263 1.49719E+01 8.22911E+01 1.95939E+02
 -1      4264 1.05697E+01 8.29273E+01 1.97451E+02
 -1      4265 1.19109E+01 8.29358E+01 1.97470E+02
 -1      4266 1.31776E+01 8.45552E+01 2.01323E+02
 -1      4267 9.46981E+00 8.39659E+01 1.99922E+02
 -1      4268 5.70559E-01-9.15624E-02 3.85756E-01
 -1      4269 3.25036E-01-1.49191E-01 1.32122E-01
 -1      4270 3.98639E-01-3.19030E-02 2.89810E-01
 -1      4271 1.86222E-01-2.56462E-03 1.94999E-01
 -1      4272-1.35501E-01 2.52564E+00 6.01612E+00
 -1      4273-4.26647E-01 6.69071E+01 1.59304E+02
 -1      4274-4.26263E-01 7.18296E+01 1.71025E+02
 -1      4275-1.80145E-01 4.46160E+00 1.06252E+01
 -1      4276 5.23026E+00 8.23056E+01 1.95962E+02
 -1      4277 6.29671E+00 8.36319E+01 1.99120E+02
 -1      4278 2.98087E+00 8.29834E+01 1.97580E+02
 -1      4279 6.28351E+00 8.29840E+01 1.97579E+02
 -1      4280-9.98465E+00 7.66995E+01 1.82630E+02
 -1      4281-1.03077E+01 7.83350E+01 1.86523E+02
 -1      4282-4.02265E-01 3.77136E+01 8.97961E+01
 -1      4283 1.29684E+01 8.46651E+01 2.01587E+02
 -1      4284 1.03528E+01 8.45055E+01 2.01208E+02
 -1      4285-4.11334E-01 4.24444E+01 1.01060E+02
 -1      4286-3.00734E-02 9.70454E-01 2.31073E+00
 -1      4287-6.28587E+00 8.36475E+01 1.99159E+02
 -1      4288-6.72800E+00 8.23056E+01 1.95961E+02
 -1      4289-2.98349E+00 8.29830E+01 1.97579E+02
 -1      4290-6.31249E+00 8.29834E+01 1.97579E+02
 -1      4291-3.27295E-01-1.49989E-01 1.31067E-01
 -1      4292-5.75180E-01-9.15494E-02 3.89011E-01
 -1      4293-1.92975E-01-2.33025E-03 2.04156E-01
 -1      4294-4.06321E-01-3.09360E-02 2.93075E-01
 -1      4295 1.43080E+01 8.46735E+01 2.01606E+02
 -1      4296-8.04504E-01 3.47529E-01 3.43648E-01
 -1      4297-1.27548E+00 4.64056E-01 6.26542E-01
 -1      4298-6.79380E-01 3.00653E-01 3.11573E-01
 -1      4299-7.67761E-01 2.47341E-01 4.15262E-01
 -1      4300-1.49528E+01 8.23063E+01 1.95978E+02
 -1      4301-1.53973E+01 8.36339E+01 1.99138E+02
 -1      4302-1.21930E+01 8.30166E+01 1.97665E+02
 -1      4303-1.08253E+01 8.30249E+01 1.97686E+02
 -1      4304-1.17472E+01 8.16891E+01 1.94504E+02
 -1      4305-3.25059E-02-2.39395E-02-1.31495E-02
 -1      4306-1.44552E-01-2.21606E-02 8.82482E-02
 -1      4307 8.31990E+00 8.45080E+01 2.01207E+02
 -1      4308 3.90746E+00 8.40204E+01 2.00049E+02
 -1      4309 7.95802E-01 3.44090E-01 3.37376E-01
 -1      4310 1.27206E+00 4.63954E-01 6.23517E-01
 -1      4311 6.83971E-01 3.01434E-01 3.20095E-01
 -1      4312 7.72032E-01 2.48664E-01 4.21794E-01
 -1      4313 6.82235E+00 5.16950E+01 1.23121E+02
 -1      4314 2.07235E+00 5.17000E+01 1.23109E+02
 -1      4315-9.16532E-02-6.30623E-02 2.42899E-04
 -1      4316 2.58269E-01 1.48392E-01 4.18392E-02
 -1      4317 3.53651E-01 1.22309E-01 1.51438E-01
 -1      4318 3.92285E+00 8.46667E+01 2.01589E+02
 -1      4319 1.30738E+00 8.45061E+01 2.01210E+02
 -1      4320 7.22155E+00 8.46677E+01 2.01588E+02
 -1      4321 1.82130E-01-6.01512E-02 9.03970E-02
 -1      4322-2.13542E-01-6.20577E-02 1.13633E-01
 -1      4323-1.63227E-01-8.19847E-02 6.77722E-02
 -1      4324-1.66368E+00 8.46735E+01 2.01609E+02
 -1      4325 1.63148E-01-8.21895E-02 6.26332E-02
 -1      4326 1.38641E-01-2.15198E-02 8.62954E-02
 -1      4327 2.94707E-01 1.58641E-01 8.37644E-02
 -1      4328 3.33775E-01 7.19201E-02 1.85091E-01
 -1      4329 3.25053E-01 1.16907E-01 1.60338E-01
 -1      4330 1.33018E+01 5.90650E+01 1.40617E+02
 -1      4331 1.18926E+01 5.98824E+01 1.42574E+02
 -1      4332 9.93500E+00 5.98840E+01 1.42570E+02
 -1      4333-1.18925E+01 5.98816E+01 1.42574E+02
 -1      4334-9.93498E+00 5.98835E+01 1.42570E+02
 -1      4335-1.33018E+01 5.90643E+01 1.40618E+02
 -1      4336-6.75792E+00 4.93072E+01 1.17446E+02
 -1      4337-2.03054E+00 4.93136E+01 1.17431E+02
 -1      4338-5.36841E+00 5.01160E+01 1.19370E+02
 -1      4339 5.31229E+00 4.59773E+01 1.09533E+02
 -1      4340 2.01719E+00 4.68000E+01 1.11449E+02
 -1      4341 6.71523E+00 4.67925E+01 1.11467E+02
 -1      4342-7.83133E+00 1.21660E+01 2.88618E+01
 -1      4343-8.91917E+00 1.27933E+01 3.01554E+01
 -1      4344-6.53726E+00 1.22057E+01 2.87676E+01
 -1      4345 4.88432E+00 3.03540E+01 7.24229E+01
 -1      4346 1.85943E+00 3.11379E+01 7.41879E+01
 -1      4347 6.19975E+00 3.11195E+01 7.42319E+01
 -1      4348-3.81960E+00 1.41476E+01 3.39732E+01
 -1      4349-1.46417E+00 1.48093E+01 3.53560E+01
 -1      4350-4.89392E+00 1.47736E+01 3.54410E+01
 -1      4351-6.20039E+00 3.11184E+01 7.42303E+01
 -1      4352-4.88505E+00 3.03529E+01 7.24211E+01
 -1      4353-1.86017E+00 3.11371E+01 7.41861E+01
 -1      4354 7.83536E+00 1.21636E+01 2.88533E+01
 -1      4355 8.91736E+00 1.27904E+01 3.01467E+01
 -1      4356 6.53568E+00 1.22027E+01 2.87591E+01
 -1      4357-3.90418E+00 8.46741E+01 2.01608E+02
 -1      4358-3.92865E+00 8.40117E+01 2.00029E+02
 -1      4359 4.88533E+00 1.47687E+01 3.54294E+01
 -1      4360 3.82705E+00 1.41471E+01 3.39718E+01
 -1      4361 1.47175E+00 1.48086E+01 3.53545E+01
 -1      4362 1.01590E+01 2.53995E+01 6.04106E+01
 -1      4363 8.50274E+00 2.54146E+01 6.03338E+01
 -1      4364 1.12649E+01 2.47430E+01 5.87183E+01
 -1      4365-5.34163E+00 7.24804E+01 1.72567E+02
 -1      4366 1.05561E+00 6.52496E+00 1.56670E+01
 -1      4367 3.51248E+00 6.47135E+00 1.57724E+01
 -1      4368 2.71470E+00 6.00205E+00 1.46841E+01
 -1      4369-5.17190E+00 4.30341E+01 1.02538E+02
 -1      4370-5.34987E+00 6.62607E+01 1.57765E+02
 -1      4371-5.14342E+00 3.71617E+01 8.85927E+01
 -1      4372-2.36575E+00 4.54515E+00 1.12261E+01
 -1      4373-2.74309E-01 1.56168E-01 4.61946E-02
 -1      4374-2.98571E-01 1.62702E-01 8.37818E-02
 -1      4375-3.43783E-01 1.19577E-01 1.42153E-01
 -1      4376-1.32452E+01 8.45051E+01 2.01206E+02
 -1      4377-1.43439E+01 8.46643E+01 2.01587E+02
 -1      4378-9.77233E+00 8.40552E+01 2.00136E+02
 -1      4379-3.05628E-01 7.02721E-02 1.67332E-01
 -1      4380-1.12681E+01 2.47383E+01 5.87085E+01
 -1      4381-1.01649E+01 2.53863E+01 6.03803E+01
 -1      4382-8.52304E+00 2.54130E+01 6.03311E+01
 -1      4383 3.77218E-02-3.04686E-02-1.51350E-02
 -1      4384 8.75302E-02-6.35091E-02-6.73451E-04
 -1      4385-1.69022E+00 2.08084E+00 5.41165E+00
 -1      4386-8.05017E+00 8.46751E+01 2.01606E+02
 -1      4387-3.23767E-01 1.18881E-01 1.53743E-01
 -1      4388 2.07829E+00 5.33347E+01 1.27000E+02
 -1      4389 6.84087E+00 5.33305E+01 1.27010E+02
 -1      4390 5.42437E+00 5.25081E+01 1.25056E+02
 -1      4391-7.22950E+00 8.46751E+01 2.01607E+02
 -1      4392-1.85227E+00 7.73175E+01 1.84092E+02
 -1      4393-1.05097E+01 8.46730E+01 2.01609E+02
 -1      4394-1.29781E+01 8.46726E+01 2.01608E+02
 -1      4395-1.08351E+01 7.75346E+01 1.84608E+02
 -1      4396-1.39090E+01 8.09617E+01 1.92778E+02
 -1      4397-1.21695E+01 8.00604E+01 1.90626E+02
 -1      4398-1.18796E+01 7.67241E+01 1.82684E+02
 -1      4399-1.22010E+01 7.83596E+01 1.86577E+02
 -1      4400-1.32901E+01 7.58979E+01 1.80722E+02
 -1      4401-1.36017E+01 7.91667E+01 1.88504E+02
 -1      4402-1.40524E+01 7.75436E+01 1.84642E+02
 -1      4403-1.55092E+00 7.36119E+01 1.75270E+02
 -3
    1PSTEP                         5           1           2          
    1PGM                1.000000E+00                                  
    1PGK                3.906955E+07                                  
    1PHID                         -1                                  
    1PSUBC                         0                                  
    1PMODE                         1                                  
  100CL  102 994.8081810        4403                     2    2MODAL      1
 -4  STRESS      6    1
 -5  SXX         1    4    1    1
 -5  SYY         1    4    2    2
 -5  SZZ         1    4    3    3
 -5  SXY         1    4    1    2
 -5  SYZ         1    4    2    3
 -5  SZX         1    4    3    1
 -1         1-5.91844E+04-2.00246E+04-1.76356E+04-1.63592E+04 2.13431E+03 1.06815E+03
 -1         2 1.45067E+05 4.64735E+04 4.54914E+04 2.44962E+04 5.32344E+03 1.83173E+04
 -1         3-1.45283E+05-4.64585E+04-4.54851E+04 2.44970E+04-5.17027E+03 1.79773E+04
 -1         4 5.92325E+04 1.99401E+04 1.77883E+04-1.62374E+04-2.03975E+03 1.03958E+03
 -1         5 1.18484E+02 1.13742E+02-2.52107E+02-1.23353E+02 1.94614E+01-2.35553E+02
 -1         6-3.18076E+02 8.55057E+01 2.29106E+02-7.03833E+01 5.21034E+01-2.17864E+02
 -1         7 3.06289E+02-9.79902E+01-2.31692E+02-6.56190E+01-4.72259E+01-2.13047E+02
 -1         8-1.28299E+02-1.06445E+02 2.41440E+02-1.24582E+02-1.89445E+01-2.39415E+02
 -1         9 8.99851E+04 3.70748E+04 3.80686E+04 2.22433E+04-1.41371E+03-3.81303E+03
 -1        10 4.18447E+04 1.83503E+04 1.71376E+04 9.67729E+03-2.69337E+02-9.39891E+03
 -1        11-1.02554E+04-3.59420E+03-4.53967E+03-4.66318E+03-8.33911E+02-1.04097E+04
 -1        12 1.24871E+05 5.35125E+04 5.35143E+04 2.90899E+04-4.67903E-01 4.34468E+03
 -1        13 6.49868E+04 2.78495E+04 2.78507E+04 1.52722E+04-5.53331E-01-6.00124E+03
 -1        14 1.65170E+04 7.07780E+03 7.07825E+03 2.43230E+03-6.74223E-01-1.00481E+04
 -1        15-4.21047E+04-1.80442E+04-1.80443E+04-1.28891E+04-5.72289E-01-7.05123E+03
 -1        16-7.36387E+04-3.08765E+04-3.11475E+04-1.07011E+04-2.92660E+02 1.52433E+04
 -1        17-9.72001E+04-4.05546E+04-4.10327E+04-3.60232E+03-4.04031E+02 2.14512E+04
 -1        18-1.17410E+05-4.92275E+04-4.99040E+04 6.10694E+03-2.91374E+02 2.58823E+04
 -1        19-6.33032E+04-2.71289E+04-2.71273E+04-1.41571E+04 3.36877E-01 1.04639E+04
 -1        20-8.69654E+04-3.72698E+04-3.72680E+04-7.58935E+03 4.42667E-01 1.85684E+04
 -1        21-1.09998E+05-4.71403E+04-4.71377E+04 6.83531E+02 5.85887E-01 2.37635E+04
 -1        22-1.31471E+05-5.63427E+04-5.63403E+04 1.32071E+04 4.15788E-01 2.62402E+04
 -1        23 1.23104E+04 6.22822E+03 4.88492E+03-6.28250E+03 5.89337E+02-9.97580E+03
 -1        24-3.97206E+04-1.58454E+04-1.69785E+04 7.85021E+03 8.01085E+02-9.97597E+03
 -1        25-8.97209E+04-3.67927E+04-3.79555E+04 2.20607E+04 1.53641E+03-4.00351E+03
 -1        26 4.15324E+04 1.77989E+04 1.77989E+04-1.30146E+04 5.72912E-01-6.54846E+03
 -1        27-1.39615E+04-5.98289E+03-5.98360E+03 1.16377E+03 5.64146E-01-9.97368E+03
 -1        28-6.52917E+04-2.79802E+04-2.79815E+04 1.52057E+04 4.57484E-01-6.68511E+03
 -1        29-1.24848E+05-5.35026E+04-5.35044E+04 2.90545E+04 4.72805E-01 4.23680E+03
 -1        30 1.15408E+05 4.86330E+04 4.81090E+04 4.60130E+03-1.21442E+03 2.65444E+04
 -1        31 9.63255E+04 4.04592E+04 3.99061E+04-4.55809E+03-9.80258E+02 2.06506E+04
 -1        32 7.31222E+04 3.07802E+04 3.04197E+04-1.12568E+04-5.80827E+02 1.38486E+04
 -1        33 1.33586E+05 5.72491E+04 5.72466E+04 1.29085E+04-1.08172E-01 2.81773E+04
 -1        34 1.07500E+05 4.60700E+04 4.60679E+04 5.45688E+02 3.36182E-02 2.41178E+04
 -1        35 8.64175E+04 3.70350E+04 3.70327E+04-7.45173E+03-2.67718E-02 1.73608E+04
 -1        36 6.19962E+04 2.65690E+04 2.65674E+04-1.38943E+04-1.46259E-01 9.16803E+03
 -1        37-8.63367E+01 1.23421E+02 4.81457E+02-1.08614E+02-2.75349E+01-5.94829E+02
 -1        38-1.04080E+02 1.16822E+02 5.11772E+01-1.04671E+02-5.13816E+01-6.08965E+02
 -1        39-1.27539E+02 1.14252E+02-4.41225E+02-9.50274E+01-3.10563E+01-6.16996E+02
 -1        40-1.43007E+02 1.27944E+02 4.63086E+02-7.31451E+01-1.51481E+00-4.37534E+02
 -1        41-9.98897E+01 1.28606E+02 2.84362E+02-1.07769E+02-4.44839E+01-6.06032E+02
 -1        42-1.09183E+02 1.16128E+02-1.92881E+02-1.09516E+02-5.01740E+01-6.11297E+02
 -1        43-5.15882E+01 8.94082E+01-4.60756E+02-1.18518E+02-2.93145E+01-4.53332E+02
 -1        44 2.58323E+02 1.32522E+02-2.79681E+02-2.79689E+02 2.80661E+01-2.27865E+02
 -1        45 2.47626E+02-1.12521E+02-2.81950E+02-2.56433E+02 2.32684E+01-2.49365E+02
 -1        46 2.47680E+02-2.51019E+02-2.79625E+02-2.27671E+02 2.03201E-02-2.54725E+02
 -1        47 2.02779E+02 1.71496E+02-2.53953E+02-2.15196E+02 3.96939E+01-2.50407E+02
 -1        48 2.44657E+02-5.41019E-01-2.75144E+02-2.69622E+02 2.85515E+01-2.40066E+02
 -1        49 2.39683E+02-1.98612E+02-2.92552E+02-2.47947E+02 9.05437E+00-2.53781E+02
 -1        50 2.47579E+02-2.01775E+02-2.61926E+02-1.52966E+02-2.21893E+01-2.27526E+02
 -1        51 1.25448E+02-1.11715E+02 4.31310E+02-1.05880E+02 3.92140E+01-6.16409E+02
 -1        52 1.06295E+02-1.20535E+02-3.58602E+01-1.00437E+02 5.06824E+01-6.08870E+02
 -1        53 8.41590E+01-1.16515E+02-4.85744E+02-9.87275E+01 1.40669E+01-5.95895E+02
 -1        54 4.15311E+01-8.69497E+01 4.52937E+02-1.32028E+02 2.49981E+01-4.68857E+02
 -1        55 9.99344E+01-1.19222E+02 2.03958E+02-1.04887E+02 5.64215E+01-6.11249E+02
 -1        56 9.55681E+01-1.12454E+02-2.71142E+02-8.32924E+01 3.99642E+01-5.98260E+02
 -1        57 1.26095E+02-1.30028E+02-4.83650E+02-9.17253E+01 1.20860E+00-4.32949E+02
 -1        58-2.32970E+02 2.54735E+02 2.92862E+02-2.21893E+02-5.02008E+00-2.40719E+02
 -1        59-2.29005E+02 1.13669E+02 2.96835E+02-2.62837E+02-1.56493E+01-2.34200E+02
 -1        60-2.70806E+02-1.40379E+02 2.69224E+02-2.78832E+02-2.67841E+01-2.48741E+02
 -1        61-2.48132E+02 1.95593E+02 2.65990E+02-1.58961E+02 2.39532E+01-2.27446E+02
 -1        62-2.17489E+02 2.30904E+02 3.04126E+02-2.43035E+02-1.06384E+01-2.52213E+02
 -1        63-2.47252E+02-1.34542E+01 2.79680E+02-2.63447E+02-3.09145E+01-2.41888E+02
 -1        64-2.01959E+02-1.85271E+02 2.45686E+02-2.22722E+02-3.37973E+01-2.52446E+02
 -1        65 1.01502E+05-3.08995E+03-3.14920E+03-1.94167E+03-3.21759E+02-2.72455E+03
 -1        66 1.04667E+05-3.06519E+02-2.51188E+02-2.28731E+02 2.76828E+01-9.75432E+01
 -1        67 1.00878E+05-5.39957E+01-2.32841E+01-9.10640E+01 2.73243E+01 1.83546E+02
 -1        68 9.54661E+04 3.36076E+01 1.78734E+01-3.38491E+00-2.88097E+01 3.44795E+02
 -1        69 8.98936E+04-2.41286E+01-2.53703E+01-5.06098E+01-3.52479E+00 1.96221E+02
 -1        70 8.41691E+04-2.60871E+01-1.32177E+01-4.28337E+00 3.69730E+01 3.41629E+02
 -1        71 7.85282E+04 1.68328E+01-1.61077E+00-6.97686E+01 1.49146E+00 1.85496E+02
 -1        72 7.31506E+04-7.36405E-01 7.11444E+00-7.55218E+01-1.72112E+01 1.83695E+02
 -1        73 6.77971E+04 1.47059E+01 6.07317E+00-2.97685E-01-3.61581E+01 3.22266E+02
 -1        74 6.24805E+04 1.25960E+01-1.49769E+00 8.37182E-01 1.12107E+00 2.87479E+02
 -1        75 5.74253E+04-8.86171E+00-9.96178E+00-5.49580E+01-1.60763E+01 1.77962E+02
 -1        76 5.24500E+04-5.10948E+00 1.11639E+00-7.93699E+01-2.32795E+01 1.59660E+02
 -1        77 4.76342E+04 1.44742E+01 3.46572E+00-9.12318E-01-2.96348E+01 2.86266E+02
 -1        78 4.29077E+04 4.31840E+00-8.03577E-01-4.28000E+01 1.65357E+01 1.59177E+02
 -1        79 3.84680E+04-2.35026E+01-1.67003E+01-8.72360E+00-1.05084E-01 2.35108E+02
 -1        80 3.40597E+04-2.58272E+01-1.85272E+01-7.11869E+00 3.42166E+01 2.53773E+02
 -1        81 2.98385E+04 1.34342E+01-1.15050E+00-5.15661E+01 2.60381E-01 1.37317E+02
 -1        82 2.59221E+04 2.77638E-01 5.35412E+00-5.53673E+01-1.33553E+01 1.32418E+02
 -1        83 2.21332E+04 6.45827E+00-5.04697E+00 1.00579E+01-1.89432E+01 2.30488E+02
 -1        84 1.85854E+04-5.57158E+00-9.26404E+00-2.91801E+01 6.03208E+00 1.17672E+02
 -1        85 1.52748E+04-2.26570E+01-2.23748E+01 1.14944E+00 2.34524E+01 1.96551E+02
 -1        86 1.21777E+04-1.03251E+00-8.56109E+00-4.47198E+01 1.02216E+01 9.76142E+01
 -1        87 9.33737E+03 4.18874E+00-3.96269E-01-4.66838E+00-8.14164E-02 1.46589E+02
 -1        88 6.87081E+03-1.46812E+01-1.76909E+01-9.81134E+00 6.11040E+00 1.19961E+02
 -1        89 4.53080E+03 6.78136E+00 4.53519E+00-2.61226E+01 5.97589E-01 7.36446E+01
 -1        90 2.66135E+03-1.42727E+01-1.93591E+01 1.40062E+00 6.37837E+00 9.47955E+01
 -1        91 1.01394E+03-1.49598E+01-1.76473E+01-3.86573E+00 7.08245E+00 8.09855E+01
 -1        92-2.90512E+02-1.07567E+01-2.19221E+01-3.11384E-01 6.30864E+00 6.89940E+01
 -1        93-1.26866E+03 9.82963E-01-1.13242E+00-1.09152E+01 9.55248E-01 3.04067E+01
 -1        94-1.79296E+03-1.80961E+01-2.63625E+01-5.60381E-01 9.78796E+00 1.92955E+01
 -1        95-2.01815E+03-4.72658E-01-5.16992E+00-6.23294E+00-2.30538E+00 6.23291E+00
 -1        96-1.81495E+03-6.49611E+00-9.05369E+00 1.36295E+00-7.13639E-01-5.55129E+00
 -1        97-1.33354E+03-1.35504E+01-3.37973E+01 1.76593E+01-1.16292E+01 1.04711E+01
 -1        98 1.17013E+05 3.66220E+03 3.16550E+03 5.87633E+03 1.16825E+03 2.74277E+03
 -1        99 1.05120E+05-1.55344E+02-2.28180E+02-5.92140E-01 2.58819E+02-2.42443E+02
 -1       100 1.03009E+05-5.54275E+01-4.54457E+01-1.25021E+02 9.01536E+01 1.30967E+02
 -1       101 9.81061E+04-4.23490E+01-6.39956E+01-5.10797E+01 2.78793E+01 2.74618E+02
 -1       102 9.28348E+04 3.23699E+01 2.03732E+01-6.17108E+01-4.99731E+01 2.69844E+02
 -1       103 8.68073E+04-1.12420E+02-1.17382E+02-4.96883E+01 2.51003E+01 2.72660E+02
 -1       104 8.14736E+04 2.39870E+01 3.76629E+01-3.76398E+01-1.47277E+01 2.75276E+02
 -1       105 7.58361E+04 1.10506E+00-2.61246E+00-8.26972E+01-1.47918E+01 2.12387E+02
 -1       106 7.03400E+04-3.10966E+01-2.68645E+01-4.58783E+01 1.31205E+01 2.68691E+02
 -1       107 6.52124E+04 2.70693E+01 1.63147E+01-2.84357E+01-1.52845E+01 3.00153E+02
 -1       108 6.00112E+04 1.12783E+01 1.30390E+01-5.61055E+01-3.84412E+01 2.29364E+02
 -1       109 5.48688E+04-4.84199E+01-4.46147E+01-6.53794E+01-2.95010E+01 1.88466E+02
 -1       110 4.99113E+04-3.30625E+01-2.78340E+01-4.22744E+01 1.25076E+01 2.41804E+02
 -1       111 4.54166E+04 7.56111E+01 6.35732E+01-3.62311E+01-1.88940E+01 2.26769E+02
 -1       112 4.05912E+04-2.49733E+01-2.98316E+01-5.34712E+01 3.26389E+01 1.91813E+02
 -1       113 3.61539E+04-3.82365E+01-3.22316E+01-2.89676E+01 2.10763E+01 2.43885E+02
 -1       114 3.20186E+04 1.34091E+01 1.96201E+01-2.98826E+01-5.70750E+00 2.06482E+02
 -1       115 2.78668E+04-2.87091E+00-6.34230E+00-6.02152E+01-9.36307E+00 1.55235E+02
 -1       116 2.39123E+04-3.01526E+01-2.75366E+01-2.85763E+01 1.64709E+01 1.91511E+02
 -1       117 2.04461E+04 2.23773E+01 1.03601E+01-2.58526E+01-2.41939E+01 1.74230E+02
 -1       118 1.67988E+04-3.40330E+01-4.37762E+01-3.27368E+01 3.31850E+01 1.52513E+02
 -1       119 1.37555E+04 2.53460E+00-1.74391E+00-2.36726E+01-1.34188E+00 1.57041E+02
 -1       120 1.07181E+04-9.04871E+00-1.82168E+01-3.12174E+01 1.84368E+01 1.28790E+02
 -1       121 8.06614E+03-1.00628E+01-1.33409E+01-2.69300E+01 5.39643E+00 1.26799E+02
 -1       122 5.68979E+03 1.37088E+01 1.24956E+01-1.54818E+01 4.18652E+00 1.10327E+02
 -1       123 3.52884E+03-2.18443E+01-2.42692E+01-2.36815E+01 1.87783E+01 8.41536E+01
 -1       124 1.76422E+03-2.25447E+01-2.56477E+01-9.22725E+00 1.18519E+01 8.78059E+01
 -1       125 2.96954E+02-1.91552E+01-2.38674E+01-9.10771E+00 1.63944E+01 7.63202E+01
 -1       126-7.95821E+02 1.37253E+00-6.06019E+00-7.72471E+00 1.04782E+00 5.34048E+01
 -1       127-1.59119E+03-2.04783E+01-2.35026E+01-1.03448E+01 1.35409E+01 2.20370E+01
 -1       128-1.96324E+03-1.79184E+01-2.64875E+01 8.73241E-01 3.80049E+00 1.69327E+01
 -1       129-1.96139E+03-1.64459E+01-2.32994E+01-1.26133E+00 3.09776E+00-4.19671E-01
 -1       130-1.57871E+03-1.41557E+01-1.64183E+01 5.96292E+00 7.27760E+00-1.18689E+01
 -1       131-9.13299E+02 9.03020E+00 4.09243E+01-2.70429E+01 2.64464E+01-6.98521E+01
 -1       132-4.16213E+04 1.25453E+03 1.25771E+03-2.06874E+02 2.52224E+01-2.09098E+03
 -1       133-4.27574E+04 2.30016E+02 4.55790E+01 2.42376E+02 2.17937E+01 9.21945E+01
 -1       134-4.11868E+04 3.67811E+00 1.92532E+01 3.74068E+02 1.72610E+01 4.24561E+02
 -1       135-3.90121E+04-1.80602E+01 3.20926E+01 3.73674E+02 9.61239E+00 4.94060E+02
 -1       136-3.66331E+04-3.47593E+01-1.56364E+01 2.80521E+02-7.69153E+00 3.27318E+02
 -1       137-3.44382E+04 2.06383E+01 8.44073E+00 3.26300E+02 2.58684E+00 4.61355E+02
 -1       138-3.20508E+04-2.82861E+01-1.60882E+01 2.72479E+02-9.74562E+00 3.25003E+02
 -1       139-2.98819E+04 2.20614E+01 4.96985E+00 3.28393E+02 1.41869E+01 4.76319E+02
 -1       140-2.77198E+04 1.10227E+01 3.64952E+01 2.80149E+02 2.41981E+01 3.17580E+02
 -1       141-2.54985E+04-3.34827E+01-2.75378E+01 2.46671E+02-1.38978E+01 3.04112E+02
 -1       142-2.34971E+04 1.86356E+01 3.67949E+00 2.76019E+02 2.24039E+00 3.92196E+02
 -1       143-2.14046E+04 1.28403E+01-3.88795E+00 3.04369E+02 1.47480E+01 4.25728E+02
 -1       144-1.94692E+04 9.54000E+00 3.12335E+01 2.57975E+02 2.20240E+01 2.91855E+02
 -1       145-1.75057E+04-1.34981E+01-5.28511E+00 2.50914E+02-6.80408E+00 3.58410E+02
 -1       146-1.57077E+04 5.89135E+00 3.71445E+00 2.46126E+02-5.79997E-01 3.25707E+02
 -1       147-1.39145E+04 1.11924E+01 1.72968E+01 2.15589E+02 1.61571E+01 2.51822E+02
 -1       148-1.22154E+04 3.12637E+00 2.89866E+00 2.28369E+02 1.77414E+00 3.16073E+02
 -1       149-1.05978E+04 1.70535E+01-4.30684E+00 2.24087E+02 2.18435E+00 3.09448E+02
 -1       150-9.03489E+03-9.27125E+00 2.02673E+01 2.11769E+02 7.49732E+00 3.01826E+02
 -1       151-7.57327E+03-1.30057E+01-1.24725E+01 1.68460E+02-1.22799E+01 2.01498E+02
 -1       152-6.25546E+03 1.39046E+01 4.25969E+00 1.93367E+02 2.48443E+00 2.71813E+02
 -1       153-4.97287E+03-1.41222E+01 1.82990E+01 1.72869E+02-4.71365E-02 2.40053E+02
 -1       154-3.82609E+03-7.94106E+00 1.35324E+01 1.55343E+02 1.17723E+00 2.10652E+02
 -1       155-2.77692E+03-5.06648E+00-2.42861E+00 1.18298E+02-7.75234E+00 1.42388E+02
 -1       156-1.87317E+03 8.76806E+00 6.82278E+00 1.31129E+02 7.87184E+00 1.78170E+02
 -1       157-1.07716E+03 4.20544E+00 1.93858E+01 9.30966E+01 8.43707E+00 1.10279E+02
 -1       158-3.96617E+02-7.69910E+00-3.21378E+00 7.19818E+01-6.45833E+00 8.54335E+01
 -1       159 1.13793E+02-1.38864E+00 2.02456E+01 6.85766E+01 4.87062E+00 9.69516E+01
 -1       160 5.23551E+02-8.97535E+00 1.83753E+00 4.06912E+01-2.23610E+00 4.74955E+01
 -1       161 7.29775E+02-3.46083E-01 1.57765E+01 2.18624E+01 2.48943E+00 2.99622E+01
 -1       162 8.21691E+02-3.03661E+00 5.18431E+00 1.22813E+00-1.40106E+00 1.03607E+00
 -1       163 7.44366E+02-5.39007E+00 8.13509E+00-1.82637E+01-1.51919E+00-2.09910E+01
 -1       164 5.48045E+02-1.02400E+01 3.41702E+01-1.11312E+01-6.40335E+00 1.35869E+00
 -1       165-4.79652E+04-1.94883E+03-1.21267E+03-5.67822E+03 7.77686E+02-2.38706E+03
 -1       166-4.28105E+04 1.06920E+02 2.27222E+02-2.58908E+02-1.21854E+02-4.29678E+02
 -1       167-4.20995E+04 1.93498E+01 1.42853E+01 3.36103E+02 1.25180E+02 3.76045E+02
 -1       168-4.00945E+04-4.29380E+00 3.35377E+01 4.12193E+02 1.60795E+01 4.97710E+02
 -1       169-3.78976E+04-6.55579E+01-4.13391E+01 3.56042E+02 7.43906E-01 4.40144E+02
 -1       170-3.55024E+04 7.91282E+00-3.13147E+00 3.50537E+02 9.36869E+00 4.40870E+02
 -1       171-3.33012E+04-4.52829E+01-4.24587E+01 3.23687E+02-6.93310E+00 4.22797E+02
 -1       172-3.09098E+04 1.41785E+01 7.26493E+00 3.42550E+02 1.44941E+01 4.39157E+02
 -1       173-2.88335E+04 1.36578E+01 1.51267E+00 3.23013E+02-4.58907E+00 4.19169E+02
 -1       174-2.66216E+04-3.18827E+01-2.87361E+01 2.93882E+02 2.37247E+01 3.39252E+02
 -1       175-2.44642E+04 9.49938E-01 6.76268E+00 2.99994E+02 3.38030E+00 3.86375E+02
 -1       176-2.24051E+04 2.09498E+01 7.96350E+00 3.23949E+02 9.73768E+00 4.35176E+02
 -1       177-2.04648E+04 1.36298E+01 5.41412E+00 3.01486E+02-1.33981E+00 3.80501E+02
 -1       178-1.84642E+04-1.33865E+00 2.13296E+01 2.94578E+02 1.87939E+01 3.50609E+02
 -1       179-1.66006E+04-3.64280E-01 1.74579E+00 2.87428E+02-2.08978E+00 3.59810E+02
 -1       180-1.48134E+04 3.27880E+00-1.70954E+00 2.50581E+02 4.96987E+00 3.15430E+02
 -1       181-1.30246E+04 1.11714E+01 2.01786E+01 2.59867E+02 2.08665E+01 3.02914E+02
 -1       182-1.13742E+04 1.57208E+01 4.67674E+00 2.59414E+02 3.08682E+00 3.33891E+02
 -1       183-9.79833E+03 4.42249E+00 1.00814E+01 2.43698E+02 9.44818E+00 3.25623E+02
 -1       184-8.33185E+03-1.83840E+01-3.01095E+00 2.22694E+02-2.05086E+01 2.69635E+02
 -1       185-6.87483E+03 1.37194E+01 7.29896E+00 2.02440E+02 1.19071E+01 2.54752E+02
 -1       186-5.60017E+03-3.90224E-01 1.00582E+01 2.05821E+02 1.65987E+00 2.74295E+02
 -1       187-4.39803E+03-1.03614E+01 1.13225E+01 1.87113E+02 2.27850E+00 2.40530E+02
 -1       188-3.30033E+03-5.43100E+00 7.36155E+00 1.57519E+02-1.46666E+01 1.91651E+02
 -1       189-2.28561E+03 1.31128E+01 1.50436E+01 1.35156E+02 1.06979E+01 1.72927E+02
 -1       190-1.47250E+03 9.39071E+00 1.32603E+01 1.20613E+02 5.20687E+00 1.53267E+02
 -1       191-7.13555E+02 5.99309E+00 1.55658E+01 9.69031E+01-7.30217E+00 1.05803E+02
 -1       192-1.16013E+02 7.27080E-01 1.20767E+01 7.71411E+01 1.01233E+01 1.00587E+02
 -1       193 3.29177E+02-7.66247E+00 7.56122E+00 5.52310E+01-2.82013E+00 7.85409E+01
 -1       194 6.45110E+02 1.06066E+00 1.19586E+01 3.55597E+01 8.37380E+00 4.58049E+01
 -1       195 7.94276E+02 2.47025E+00 1.20226E+01 1.19886E+01 8.58410E+00 1.49135E+01
 -1       196 8.01118E+02-1.69089E-01 1.42927E+01-5.81703E+00-6.90664E-01-1.70969E+01
 -1       197 6.47185E+02-8.84079E-01 1.41939E+01-1.65321E+01-1.01090E+00-2.43527E+01
 -1       198 3.84086E+02 4.29700E+01-4.42491E+01-3.04520E+01 2.17616E+00-7.15597E+01
 -1       199 4.16949E+04-1.16290E+03-1.23809E+03-1.58663E+02 1.98657E+01-2.09563E+03
 -1       200 4.27134E+04-2.03431E+02 7.17753E-01 2.56388E+02 3.81710E+00 1.00250E+02
 -1       201 4.11680E+04-1.51278E-01-3.36189E+01 3.71370E+02-1.71292E+01 4.47227E+02
 -1       202 3.90216E+04-2.10592E+01-3.04529E+01 3.11011E+02-3.28331E+01 3.54265E+02
 -1       203 3.67011E+04-1.03226E+01-1.59263E+01 2.78993E+02-2.56951E+01 3.32961E+02
 -1       204 3.44229E+04-2.53597E+01-2.03076E+01 2.77781E+02-1.50017E+01 3.40423E+02
 -1       205 3.21023E+04 2.97708E-01 9.55961E+00 3.06655E+02 3.62878E+00 4.24590E+02
 -1       206 2.98855E+04-2.57282E+01-5.04448E+00 3.35176E+02-1.86226E+01 4.71022E+02
 -1       207 2.76544E+04 4.02752E+01 1.18117E+01 2.76280E+02 1.84148E+01 3.20836E+02
 -1       208 2.54973E+04 1.89775E+01 1.48473E+01 2.49886E+02 6.31953E+00 3.03999E+02
 -1       209 2.35063E+04-2.06617E+01-4.44520E+00 2.70110E+02-2.91393E+00 3.92668E+02
 -1       210 2.14024E+04-1.28497E+01 3.83173E+00 2.99256E+02-1.36753E+01 4.25599E+02
 -1       211 1.94597E+04-1.82722E+00-2.91670E+01 2.51689E+02-1.88430E+01 2.89279E+02
 -1       212 1.75702E+04-2.69755E+01-8.41007E+00 2.24445E+02-1.77083E+01 2.74218E+02
 -1       213 1.56965E+04-1.07998E+01-2.88865E+01 2.23242E+02-2.31907E+01 2.55219E+02
 -1       214 1.38624E+04 2.91843E+01 1.97425E+01 2.00760E+02 1.12176E+01 2.47360E+02
 -1       215 1.22448E+04-8.38472E+00-8.58365E+00 2.22985E+02-2.49087E+00 3.15651E+02
 -1       216 1.06059E+04-1.67190E+01-4.35978E+00 2.29053E+02-7.99388E+00 3.18333E+02
 -1       217 9.00872E+03 1.42740E+01 4.33687E+00 1.87904E+02 9.15707E+00 2.30022E+02
 -1       218 7.58222E+03 1.68571E+01 1.26605E+01 1.62632E+02 2.40004E+01 1.93447E+02
 -1       219 6.26278E+03-1.63392E+01-1.98438E+01 1.57777E+02-6.62957E+00 1.84931E+02
 -1       220 4.98573E+03 2.72559E+00-3.31287E+00 1.63746E+02-4.61480E-01 2.26146E+02
 -1       221 3.84072E+03-7.81941E+00-6.95395E+00 1.56057E+02-1.59685E+00 2.11889E+02
 -1       222 2.79943E+03-2.46016E+00-6.78513E+00 1.36194E+02-2.30720E+00 1.84175E+02
 -1       223 1.87920E+03-9.31210E+00-1.10099E+01 1.32920E+02-9.20391E+00 1.80607E+02
 -1       224 1.05130E+03 1.51537E+01-3.12531E+00 9.64325E+01 5.91572E+00 1.14354E+02
 -1       225 4.03642E+02 1.65542E+00 1.90894E-01 7.49859E+01 7.00956E+00 8.67482E+01
 -1       226-1.28577E+02 1.18514E+01 1.37616E+00 6.10618E+01 6.30887E+00 6.82280E+01
 -1       227-5.05363E+02-3.25926E+00-1.20946E+01 3.37970E+01-4.70638E+00 4.55799E+01
 -1       228-7.48235E+02 4.84265E-01-7.77696E+00 1.82807E+01 4.14727E-01 2.24372E+01
 -1       229-8.23248E+02 2.52752E+00-6.59070E+00 4.81359E+00 1.30480E+00 4.90271E+00
 -1       230-7.40087E+02 2.74979E+00-1.13419E+01-1.55730E+01-8.99051E-01-1.63782E+01
 -1       231-5.37405E+02 1.56031E+01-2.74765E+01-3.61247E+00 3.51022E+00 5.76336E+00
 -1       232 4.79096E+04 1.84078E+03 1.16828E+03-5.60428E+03-6.30965E+02-2.40760E+03
 -1       233 4.29364E+04-5.34573E+01-1.27080E+02-1.70290E+02-3.24361E+01-4.70623E+02
 -1       234 4.19744E+04-4.97312E+01-5.35387E+01 3.77521E+02 6.76919E+01 3.35285E+02
 -1       235 4.01398E+04 1.31425E+00-2.69791E+01 3.68252E+02-3.56832E-01 4.43367E+02
 -1       236 3.78568E+04-9.16808E+00-1.75020E+01 3.25456E+02-3.71245E+01 3.71452E+02
 -1       237 3.55341E+04-7.87717E+00-1.43162E+01 3.11155E+02-3.17486E+01 3.65700E+02
 -1       238 3.31901E+04-4.46771E+01-5.43603E+01 3.29371E+02-4.26703E+00 4.12871E+02
 -1       239 3.09500E+04-2.37252E+01-7.92431E+00 3.61739E+02-1.07681E+01 4.71896E+02
 -1       240 2.88161E+04 2.01743E+01 4.06650E+01 3.21723E+02 9.89301E-01 4.22141E+02
 -1       241 2.66210E+04 4.80072E+01 4.54706E+01 2.76642E+02 1.32003E+01 3.63827E+02
 -1       242 2.44724E+04-9.18510E+00-1.31525E+01 2.98189E+02-6.14997E+00 3.85684E+02
 -1       243 2.24081E+04-2.17351E+01-8.80172E+00 3.17722E+02-1.03964E+01 4.35397E+02
 -1       244 2.04563E+04-1.14282E+01-4.28133E+00 2.95387E+02 1.53107E+00 3.81135E+02
 -1       245 1.84906E+04-1.47903E+01-1.25891E+01 2.75189E+02-3.04755E+01 3.20362E+02
 -1       246 1.65984E+04-3.90574E+01-4.07832E+01 2.25370E+02-1.04943E+01 2.75840E+02
 -1       247 1.47877E+04 3.44630E+01 1.94582E+01 2.33568E+02-1.67820E+01 2.74760E+02
 -1       248 1.30231E+04 6.60106E-01-1.00392E+01 2.43559E+02-5.04005E+00 3.13573E+02
 -1       249 1.13868E+04-1.57920E+01-7.38418E+00 2.54061E+02-6.58984E+00 3.35427E+02
 -1       250 9.82941E+03 1.76296E+01 2.26813E+01 2.31154E+02 6.92587E+00 2.98655E+02
 -1       251 8.29450E+03 3.66440E+00-4.22920E+00 1.89956E+02 1.86997E+01 2.32746E+02
 -1       252 6.90113E+03-5.09084E+00-9.62474E+00 1.67389E+02 7.86198E-01 2.17416E+02
 -1       253 5.57373E+03-2.62525E+01-4.00599E+01 1.81922E+02 1.28422E+00 2.21963E+02
 -1       254 4.38602E+03-9.70378E+00-1.02318E+01 1.82395E+02-3.00224E+00 2.33558E+02
 -1       255 3.29473E+03-7.07667E+00-1.05631E+01 1.66998E+02-3.07629E+00 2.15296E+02
 -1       256 2.30347E+03-1.13215E+01-1.25338E+01 1.50628E+02-7.57475E+00 1.92995E+02
 -1       257 1.46496E+03 5.19755E+00 1.35362E-01 1.19472E+02 4.15906E+00 1.58418E+02
 -1       258 7.18902E+02 1.88891E+00-6.63212E+00 9.41802E+01 1.02459E+01 1.18466E+02
 -1       259 1.25601E+02 4.55444E+00-5.99739E-01 6.30084E+01 4.84318E+00 8.74073E+01
 -1       260-3.20139E+02 3.03938E+00-6.82301E+00 5.20407E+01-1.11548E+01 6.34866E+01
 -1       261-6.56661E+02-6.21946E+00-1.90161E+01 3.12935E+01 8.77382E+00 3.59230E+01
 -1       262-8.05851E+02-1.30839E+00-1.32363E+01 7.58789E+00 2.19088E+00 1.85408E+01
 -1       263-8.00323E+02-2.05517E+00-1.66481E+01-1.23978E+01-2.93927E+00-4.51292E+00
 -1       264-6.45800E+02 1.98020E+00-1.18885E+01-1.65488E+01-3.77111E+00-1.48547E+01
 -1       265-3.63946E+02-3.01937E+01 6.20245E+01-3.48658E+01-1.64718E+01-6.84325E+01
 -1       266-1.01544E+05 2.90522E+03 3.00003E+03-1.97600E+03 3.88716E+02-2.65998E+03
 -1       267-1.04643E+05 2.77961E+02 2.06586E+02-2.40173E+02-1.31825E+00-7.82562E+01
 -1       268-1.00839E+05 3.43776E+01 1.73022E+01-9.85481E+01-1.23759E+01 1.66704E+02
 -1       269-9.54921E+04-1.86138E+01 7.95891E+00-1.93878E+01 3.35705E+00 3.16535E+02
 -1       270-8.97902E+04-4.54146E+00-4.78677E+00-5.98574E+01-2.12105E+01 1.97789E+02
 -1       271-8.42123E+04 3.93166E+01 1.47016E+01 4.82969E+00-3.64903E+01 3.54909E+02
 -1       272-7.85311E+04-1.42754E+01 2.33881E+00-6.86433E+01-2.65756E+00 1.84001E+02
 -1       273-7.31503E+04 2.73740E-01-7.04321E+00-7.49407E+01 1.73734E+01 1.82840E+02
 -1       274-6.77939E+04-1.51386E+01-5.27132E+00 3.90453E-01 3.59861E+01 3.21609E+02
 -1       275-6.24759E+04-1.29870E+01 6.09398E-01 1.46377E+00-4.89294E-01 2.87722E+02
 -1       276-5.74252E+04 5.06709E+00 4.67751E+00-5.20805E+01 1.80922E+01 1.70290E+02
 -1       277-5.24732E+04 2.48476E+01 1.41970E+01-6.32484E+01 7.83928E+00 1.43364E+02
 -1       278-4.76202E+04-1.87979E+01-4.83992E+00-1.79391E+00 3.15203E+01 2.85745E+02
 -1       279-4.29101E+04-3.28876E+00 2.89101E+00-4.10804E+01-1.76952E+01 1.52404E+02
 -1       280-3.84677E+04 1.94644E+01 2.35640E+01-1.01037E+01 7.16937E-01 2.32313E+02
 -1       281-3.40477E+04 2.02990E+01 1.57902E+01-5.97700E+00-3.27399E+01 2.52040E+02
 -1       282-2.98616E+04 6.46526E+00 1.54848E+01-5.32187E+01-1.40328E+01 1.37702E+02
 -1       283-2.59275E+04 2.66215E+00-3.35703E+00-4.47953E+01 1.57789E+01 1.29786E+02
 -1       284-2.21065E+04-1.60014E+01-5.00122E+00-4.43232E+01 7.63782E+00 1.23279E+02
 -1       285-1.86153E+04 1.62529E+01 1.70324E+01-2.81332E+01 2.56911E+00 1.11493E+02
 -1       286-1.52876E+04 1.80287E+01 1.03662E+01-3.68432E+00-1.24788E+01 1.83600E+02
 -1       287-1.21626E+04-9.33488E+00-5.59288E+00-4.09749E+01 1.38014E+00 9.90180E+01
 -1       288-9.34688E+03 5.71580E-01 7.34003E+00-1.21220E+00-9.90688E-01 1.42646E+02
 -1       289-6.87779E+03 1.53231E+01 1.97714E+01-1.30289E+01-3.71867E+00 1.15416E+02
 -1       290-4.53154E+03-7.01229E+00-4.99591E+00-2.67258E+01-3.49543E-01 7.41372E+01
 -1       291-2.66146E+03 1.44263E+01 1.93656E+01 1.39234E+00-6.38149E+00 9.50521E+01
 -1       292-1.01381E+03 1.50407E+01 1.76033E+01-3.19379E+00-7.05349E+00 8.02515E+01
 -1       293 2.90522E+02 1.04341E+01 2.20426E+01-8.21821E-01-6.25400E+00 6.87771E+01
 -1       294 1.26933E+03-8.28560E-01 1.11681E+00-1.14010E+01-1.29460E+00 3.07485E+01
 -1       295 1.79473E+03 1.61257E+01 2.25643E+01 4.02797E-01-5.94374E+00 1.70034E+01
 -1       296 1.99655E+03 1.02630E+01 1.68048E+01 7.26800E-01-5.24547E+00-9.47026E-01
 -1       297 1.79644E+03 1.31393E+01 1.98234E+01 1.26056E+00-4.81188E+00-1.47926E+01
 -1       298 1.33687E+03 1.39669E+01 3.44275E+01 1.66075E+01 1.10687E+01 1.14409E+01
 -1       299-1.16926E+05-3.66620E+03-2.89497E+03 5.85650E+03-8.78080E+02 2.60522E+03
 -1       300-1.05205E+05 9.11912E+01 1.41507E+02-6.14200E+01-3.15419E+02-2.20725E+02
 -1       301-1.02977E+05 3.71704E+01 5.51060E+01-1.48615E+02-9.64570E-01 8.61762E+01
 -1       302-9.81451E+04 3.42705E+01 4.23011E+01-6.96982E+01-2.33795E+01 2.68198E+02
 -1       303-9.28304E+04-9.14804E+01-7.72711E+01-5.70243E+01 7.76870E+00 2.66447E+02
 -1       304-8.68446E+04 4.42896E+01 4.10846E+01-6.60136E+01-6.56317E+01 2.63709E+02
 -1       305-8.14905E+04-2.58440E+01-4.09826E+01-3.51383E+01 1.57542E+01 2.81817E+02
 -1       306-7.58369E+04-4.54951E-01 3.11093E+00-8.14806E+01 1.46416E+01 2.10271E+02
 -1       307-7.03382E+04 3.08254E+01 2.70349E+01-4.52084E+01-1.33754E+01 2.68036E+02
 -1       308-6.52106E+04-2.78446E+01-1.67649E+01-2.80576E+01 1.53287E+01 3.00228E+02
 -1       309-6.00095E+04-1.43719E+01-1.61564E+01-5.56183E+01 3.85892E+01 2.25734E+02
 -1       310-5.48714E+04 5.63816E+01 4.55720E+01-5.75957E+01 1.22567E+01 1.88869E+02
 -1       311-4.99080E+04 3.39758E+01 5.52276E+01-3.12039E+01-7.33193E+00 2.30395E+02
 -1       312-4.54104E+04-7.43507E+01-6.18061E+01-3.70489E+01 1.84662E+01 2.21574E+02
 -1       313-4.05933E+04 2.42677E+01 2.99591E+01-5.50063E+01-3.31523E+01 1.88102E+02
 -1       314-3.61466E+04 3.74358E+01 3.35110E+01-2.73592E+01-2.12208E+01 2.42151E+02
 -1       315-3.20173E+04-3.81081E+00-8.73933E-02-3.47821E+01 3.94217E+00 2.08093E+02
 -1       316-2.78679E+04 1.24459E+01 1.22213E+01-5.92356E+01 7.83219E-01 1.42759E+02
 -1       317-2.39920E+04-1.97163E+00-6.24348E+00-2.34811E+01 1.34148E+01 1.47971E+02
 -1       318-2.03415E+04 1.79804E+01 2.01757E+01-4.18488E+01-4.79559E+00 1.37222E+02
 -1       319-1.68087E+04 6.96719E+01 7.82551E+01-2.67821E+01-8.30871E+00 1.50413E+02
 -1       320-1.37523E+04-1.74294E+01-1.88963E+01-2.53287E+01 7.43915E+00 1.53105E+02
 -1       321-1.07115E+04 9.13491E+00 1.51886E+01-2.55775E+01-1.79538E+01 1.32006E+02
 -1       322-8.07185E+03 9.67583E+00 1.59376E+01-2.50625E+01-8.34557E-01 1.23986E+02
 -1       323-5.68810E+03-1.11711E+01-1.05048E+01-1.56125E+01-5.28123E+00 1.09699E+02
 -1       324-3.52930E+03 2.18436E+01 2.43543E+01-2.40702E+01-1.88356E+01 8.44427E+01
 -1       325-1.76419E+03 2.24037E+01 2.55108E+01-8.95980E+00-1.17851E+01 8.76165E+01
 -1       326-2.97292E+02 1.92067E+01 2.34538E+01-8.64431E+00-1.62562E+01 7.56727E+01
 -1       327 7.96323E+02-1.40517E+00 6.00199E+00-8.24695E+00-1.30999E+00 5.38048E+01
 -1       328 1.59050E+03 2.00068E+01 2.27777E+01-9.66274E+00-1.28473E+01 2.13996E+01
 -1       329 1.96131E+03 1.91371E+01 2.43195E+01 6.71131E-01-1.37695E+01 1.03652E+01
 -1       330 1.95816E+03 1.87328E+01 2.53340E+01 2.88778E+00-1.19531E+01-1.03252E+01
 -1       331 1.58532E+03 1.96907E+01 2.46277E+01 6.03147E+00-1.14892E+01-1.35857E+01
 -1       332 9.17958E+02-6.22328E+00-4.02378E+01-2.68050E+01-2.60942E+01-6.97302E+01
 -1       333-3.46926E+04-1.37577E+04-1.32371E+04 3.82255E+03 4.57995E+01-7.50549E+02
 -1       334-2.00236E+02 2.48066E+02 1.17276E+03-6.44154E+02-2.51035E+02-2.76912E+03
 -1       335 3.52385E+04 1.52373E+04 1.42483E+04-3.30625E+03 3.19133E+02 2.78215E+03
 -1       336 3.50570E+04 1.48957E+04 1.49896E+04 4.15016E+03-1.97408E+01-4.70105E+02
 -1       337 6.45556E+03 2.65052E+03 2.61981E+03 6.74704E+01 3.56697E+02-7.11201E+02
 -1       338-3.17609E+04-1.37454E+04-1.30083E+04-2.63549E+03 2.25015E+02 2.63024E+03
 -1       339 1.32424E+03 4.87779E+02 4.76751E+02-1.65060E+03-3.74581E+02-2.62699E+03
 -1       340 4.68837E+04 1.90722E+04 1.87183E+04 1.14632E+03 1.68998E+02 4.42853E+03
 -1       341-5.45589E+04-2.34927E+04-2.17749E+04 2.02932E+03 7.49854E+01 6.38943E+03
 -1       342-2.29659E+04-9.24902E+03-9.33400E+03 2.74371E+02-1.50157E+02 6.50661E+02
 -1       343-2.73447E+04-1.09609E+04-9.59728E+03-6.16176E+03 9.91057E+01 1.25034E+02
 -1       344 2.66338E+04 1.09156E+04 1.11021E+04-6.30300E+03 3.02266E+02-4.03453E+02
 -1       345 6.69335E+04 2.53434E+04 2.48890E+04 8.90753E+03 2.74208E+02 6.50973E+03
 -1       346-6.66298E+04-2.57118E+04-2.60717E+04 9.22765E+03 1.36151E+02 5.78707E+03
 -1       347 8.12525E+03 3.47991E+03 2.76562E+03-4.70114E+02-2.67206E+02-2.70054E+02
 -1       348-4.22971E+04-1.70766E+04-1.54684E+04-1.17904E+04 9.97634E+02 8.38249E+02
 -1       349-2.05113E+04-8.07520E+03-7.92785E+03-5.95980E+03-5.71650E+02-5.87237E+03
 -1       350-4.87805E+04-2.07493E+04-2.08565E+04-8.98503E+03-1.85900E+01 8.14375E+03
 -1       351 7.90973E+04 3.28812E+04 3.25031E+04 1.68494E+04-7.79676E+02 8.20856E+02
 -1       352 1.03707E+05 4.01709E+04 3.95179E+04 1.76659E+04 2.47499E+03 1.32325E+04
 -1       353 9.05179E+04 3.76363E+04 3.80263E+04 6.71347E+03-5.66823E+02 1.77328E+04
 -1       354-1.03517E+05-4.01352E+04-3.98479E+04 1.77563E+04-2.35160E+03 1.26740E+04
 -1       355-8.80421E+04-3.77306E+04-3.77284E+04 7.70943E+03 1.18000E-01 1.58999E+04
 -1       356-7.91800E+04-3.27660E+04-3.25349E+04 1.69046E+04 9.12000E+02 6.36864E+02
 -1       357 4.18518E+04 1.69009E+04 1.56222E+04-1.17972E+04-9.00653E+02 4.88696E+02
 -1       358 1.98131E+04 8.49083E+03 8.49092E+03-6.89013E+03 4.39987E-01-5.10692E+03
 -1       359 4.74161E+04 2.03203E+04 2.03189E+04-8.95290E+03-2.54205E-01 6.40674E+03
 -1       360 3.72969E+04 1.59826E+04 1.59838E+04 7.21811E+03-3.83682E-01-4.55010E+03
 -1       361 5.98399E+04 2.56436E+04 2.56448E+04 1.20614E+04-5.34255E-01-1.83304E+03
 -1       362 5.40616E+04 2.12616E+04 2.25868E+04 6.52774E+03 1.21932E+02 1.61795E+03
 -1       363-3.86845E+03-1.65859E+03-1.65813E+03-2.05329E+03-5.41496E-01-6.27447E+03
 -1       364 1.94153E+04 8.82997E+03 8.61139E+03 4.17807E+03-3.27588E+02-6.36375E+03
 -1       365 1.51817E+04 6.92905E+03 6.63343E+03 2.32380E+03 8.54278E+01-2.37987E+03
 -1       366-1.51846E+04-6.16738E+03-6.32586E+03-3.38838E+03 2.35401E+02-2.25713E+03
 -1       367-6.18365E+04-2.63515E+04-2.64257E+04-3.49883E+03-4.45657E+01 1.20922E+04
 -1       368-4.99923E+04-2.14243E+04-2.14226E+04-6.53093E+03 2.97865E-01 8.53723E+03
 -1       369-2.94886E+04-1.24391E+04-1.14350E+04-4.30810E+03-1.78921E+02 1.36882E+03
 -1       370-8.50124E+04-3.63538E+04-3.65887E+04 3.96158E+03 7.67494E+01 1.65916E+04
 -1       371-7.43825E+04-3.18768E+04-3.18746E+04-5.03637E+02 2.56908E-01 1.41188E+04
 -1       372-4.23488E+04-1.77009E+04-1.70010E+04-6.04683E+02-2.73391E+02 4.88766E+03
 -1       373-6.14312E+04-2.57828E+04-2.45136E+04 4.72349E+03 2.14277E+02 6.13123E+03
 -1       374 5.97276E+03 2.81874E+03 2.15246E+03-3.49622E+03 1.57764E+02-6.34745E+03
 -1       375-1.66949E+04-7.15421E+03-7.15478E+03 2.15687E+03 4.83757E-01-6.41612E+03
 -1       376 1.39675E+04 5.85171E+03 5.93943E+03-3.89658E+03-3.80902E+01-1.97931E+03
 -1       377-3.67903E+04-1.51011E+04-1.51501E+04 6.56300E+03 4.39092E+02-5.23382E+03
 -1       378-5.77872E+04-2.47639E+04-2.47652E+04 1.17723E+04 4.43118E-01-1.87710E+03
 -1       379-1.83598E+04-6.92036E+03-7.55943E+03 9.21000E+02 1.18407E+02-2.85555E+03
 -1       380-5.27215E+04-2.06715E+04-2.20273E+04 6.41432E+03-1.29859E+02 1.46127E+03
 -1       381 7.69166E+04 3.29631E+04 3.29611E+04 3.04709E+03-6.10876E-02 1.45656E+04
 -1       382 6.98993E+04 2.95940E+04 2.94140E+04-1.40762E+03-3.82566E+02 1.32558E+04
 -1       383 5.85178E+04 2.44794E+04 2.28276E+04 3.99694E+03 1.08425E+00 5.54029E+03
 -1       384 6.25233E+04 2.67946E+04 2.67927E+04-4.18213E+03-1.77525E-01 1.09719E+04
 -1       385 5.36576E+04 2.31129E+04 2.29055E+04-7.23480E+03-5.45584E+01 8.85620E+03
 -1       386 4.18053E+04 1.74158E+04 1.64568E+04-1.66519E+03-2.83250E+02 3.91289E+03
 -1       387 3.18712E+04 1.33723E+04 1.25683E+04-4.63157E+03 1.55563E+02 1.28727E+03
 -1       388 3.98468E+03 1.70764E+03 1.70750E+03-1.29440E+03 4.48950E-02-1.83066E+03
 -1       389-1.39830E+04-6.42230E+03-5.94960E+03 4.07087E+02 6.09673E+01-1.35052E+03
 -1       390-4.73698E+04-2.03007E+04-2.03006E+04 2.68905E+03 1.05648E-01 1.82177E+03
 -1       391-2.83717E+04-1.21588E+04-1.21588E+04 1.68800E+03 5.83881E-02-3.83251E+02
 -1       392-3.98984E+04-1.70989E+04-1.70987E+04 1.13259E+03 5.65807E-02 2.27108E+03
 -1       393-6.43275E+03-3.00402E+03-3.02624E+03 5.89792E+02-5.17778E+02-5.90128E+02
 -1       394 3.09623E+03 9.55668E+02 1.55154E+03-2.87876E+01-1.97248E+02-1.97101E+03
 -1       395 2.01657E+04 8.64201E+03 8.64200E+03 1.79083E+03-6.59967E-02-9.82977E+02
 -1       396-1.69580E+04-7.26758E+03-7.26736E+03-2.15228E+03-6.06109E-02-8.82921E+02
 -1       397-1.34899E+04-5.78129E+03-5.78112E+03-1.39507E+03-2.33846E-02-3.36828E+02
 -1       398 1.99795E+04 8.56249E+03 8.56226E+03-2.72828E+03 4.29378E-02-7.40304E+02
 -1       399 2.28658E+04 9.79941E+03 9.79924E+03-2.12891E+03 1.48189E-03 2.93977E+02
 -1       400 2.85292E+04 1.19227E+04 1.23305E+04-1.71500E+02 7.94221E+01 1.16053E+03
 -1       401 2.67340E+04 1.14570E+04 1.14569E+04 6.07044E+02-4.36193E-02 8.14837E+02
 -1       402 4.39757E+04 1.88461E+04 1.88460E+04 2.58115E+03-1.14611E-01 1.29494E+03
 -1       403-2.84202E+04-1.17112E+04-1.16122E+04-1.21912E+03 2.74475E+02 1.33552E+03
 -1       404-8.41506E+03-3.57124E+03-3.75558E+03-3.39194E+02 7.42938E+00-1.55074E+02
 -1       405 6.92803E+03 3.37979E+03 3.25672E+03-2.54588E+02 2.98429E+02 1.35444E+01
 -1       406-1.63202E+02-3.00944E+02-5.35716E+02-2.50049E+02 3.38343E+01-6.24078E+02
 -1       407 1.53175E+02 1.29990E+02 4.96770E+02-2.50187E+02-2.00340E+01-6.10168E+02
 -1       408 5.05112E+01 1.84832E+02-2.39097E+02-2.70007E+02-6.72257E+01-6.03727E+02
 -1       409 1.39432E+02 3.44171E+02 6.04854E+02-2.55519E+02-3.57922E+01-6.21358E+02
 -1       410 1.92549E+01 6.04080E+01 2.05967E+02-2.68970E+02-1.00340E+01-6.49565E+02
 -1       411-6.09294E+01-1.82157E+02 1.04244E+02-2.64260E+02 6.08132E+01-5.96625E+02
 -1       412-1.72460E+02-8.58787E+01-5.45885E+02-2.50901E+02 2.63260E+01-6.23153E+02
 -1       413 7.21876E+01 2.47580E+02 2.84713E+02-2.59938E+02-6.47195E+01-5.99798E+02
 -1       414-1.01655E+02-2.81224E+02-4.13777E+02-2.47452E+02 7.61900E+01-6.10451E+02
 -1       415-1.31331E+01-1.34779E+02-1.32387E+02-2.68329E+02 2.79854E+01-6.37021E+02
 -1       416-7.24291E+01 1.12146E+02-5.38335E+02-2.52178E+02-1.91974E+00-5.92218E+02
 -1       417 8.80857E+01-8.67223E+01 4.57943E+02-2.50775E+02 6.00273E+00-5.81772E+02
 -1       418 2.07528E+02 3.49931E+02 5.70509E+02-2.31924E+02-1.30715E+01-5.72128E+02
 -1       419-2.13557E+02-3.70516E+02-5.99539E+02-2.34296E+02 5.76106E+00-5.88922E+02
 -1       420-1.11136E+01 1.28903E+01-1.59865E+02-2.76297E+02-9.59328E+00-6.49432E+02
 -1       421-6.14416E+01 1.45627E+02-5.68283E+02-1.96403E+02-3.55970E+01-6.07173E+02
 -1       422-1.15017E+01 1.39605E+02-4.74259E+02-2.01964E+02 9.44691E+00-4.44915E+02
 -1       423 2.37936E+00 1.13970E+02-5.08518E+02-2.64121E+02 3.19629E+01-4.69556E+02
 -1       424 5.79941E+01 2.79925E+02 5.06947E+02-1.61595E+02 3.01719E+01-4.26898E+02
 -1       425 6.91212E+01 2.74286E+02 5.80909E+02-1.77001E+02-3.90067E+01-5.68183E+02
 -1       426 9.59256E+01 3.71542E+02 5.46324E+02-2.28917E+02-9.54311E+00-4.53066E+02
 -1       427-7.85458E+01-3.63985E+02-5.30895E+02-2.28816E+02 5.43514E+00-4.58843E+02
 -1       428-3.77284E+01-2.80874E+02-5.00946E+02-1.63598E+02-2.53466E+01-4.28286E+02
 -1       429-8.69933E+01-3.12229E+02-6.98986E+02-1.92696E+02 2.71100E+01-6.05289E+02
 -1       430 1.64630E+01-1.55231E+02 4.61431E+02-2.11828E+02 4.87578E+01-5.75742E+02
 -1       431 2.50436E+01-1.16963E+02 4.37864E+02-2.01319E+02-1.16599E+01-4.41724E+02
 -1       432 5.04356E+01-7.43123E+01 4.86289E+02-2.49215E+02-2.74597E+01-4.71208E+02
 -1       433 3.77063E+01 2.56514E+02 4.92850E+02-1.98889E+02-5.77932E+01-5.55809E+02
 -1       434 5.46626E+01 2.17778E+02 2.00016E+02-2.06762E+02-7.88909E+01-5.70663E+02
 -1       435 1.03543E+02 3.22943E+02 5.47760E+02-2.46694E+02-3.49572E+01-5.81191E+02
 -1       436-1.19298E+00 1.84680E+02-6.73966E+01-2.02541E+02-8.05385E+01-5.64643E+02
 -1       437 4.80917E+01 1.94595E+02-2.98550E+02-2.14053E+02-6.50869E+01-5.74283E+02
 -1       438 4.51557E+01 2.19425E+02 4.35412E+01-2.60647E+02-7.20879E+01-5.94014E+02
 -1       439 2.71805E+01 1.46984E+02-3.98814E+02-2.60103E+02-3.71332E+01-5.95788E+02
 -1       440-9.78319E+01-4.51199E+01-5.11085E+02-2.42739E+02 3.14608E+01-4.73345E+02
 -1       441-2.88359E+01-1.59374E+02-4.82090E+02-2.29430E+02 3.84376E+01-4.77073E+02
 -1       442-1.47070E+02 5.16923E-01-5.36218E+02-2.56516E+02 6.53754E+00-5.98632E+02
 -1       443-9.62778E+01-2.76647E+02-5.19872E+02-2.39842E+02 3.25135E+01-4.85705E+02
 -1       444-6.66387E+01-3.86104E+02-5.38278E+02-2.32267E+02 1.60294E+01-4.93393E+02
 -1       445-1.48060E+02-2.10609E+02-5.25885E+02-2.46385E+02 3.72050E+01-6.16652E+02
 -1       446-1.84148E+02-3.88464E+02-5.85006E+02-2.40109E+02 7.02595E+00-6.02166E+02
 -1       447-2.49619E+01-2.15852E+02 5.02026E+00-1.99086E+02 8.03154E+01-5.70074E+02
 -1       448-1.55987E+01-1.76167E+02 3.14747E+02-2.19666E+02 6.46971E+01-5.56297E+02
 -1       449-3.35534E+01-1.27442E+02 3.91569E+02-2.61553E+02 3.55757E+01-5.84904E+02
 -1       450-2.52385E+01-2.32953E+02-4.55442E+02-1.74480E+02 6.39708E+01-5.76251E+02
 -1       451-3.35885E+01-2.22860E+02-2.49033E+02-1.93526E+02 7.67910E+01-5.78316E+02
 -1       452-8.80000E+01-2.17198E+02-1.43407E+02-2.56942E+02 6.71259E+01-5.92915E+02
 -1       453-1.29576E+02-3.44956E+02-5.84606E+02-2.35477E+02 5.63775E+01-6.07058E+02
 -1       454 5.04478E+01 3.01238E+02 5.41674E+02-2.49623E+02-2.90644E+01-4.79076E+02
 -1       455 5.37099E+01 3.87862E+02 5.63916E+02-2.33756E+02-2.51771E+01-4.80789E+02
 -1       456 1.52896E+02 3.80574E+02 5.95535E+02-2.55464E+02-1.49444E+01-5.97736E+02
 -1       457 5.19237E+01 3.80709E+01 4.99006E+02-2.36465E+02-3.29672E+01-4.91234E+02
 -1       458 7.85403E+01 1.83864E+02 5.13857E+02-2.41369E+02-3.29497E+01-4.64808E+02
 -1       459 1.31406E+02 2.29816E+02 5.20575E+02-2.42525E+02-3.51469E+01-6.07058E+02
 -1       460 1.49749E+02-1.50179E+01 4.94451E+02-2.45657E+02-1.24760E+01-6.04207E+02
 -1       461-3.96071E+01-3.98646E+01-4.18646E+02-2.72689E+02-5.01920E-01-6.30183E+02
 -1       462-5.87815E+01-1.46539E+02-4.05716E+02-2.62017E+02 2.55701E+01-6.32455E+02
 -1       463-6.26592E+01-2.30356E+02-3.98696E+02-2.58568E+02 4.83806E+01-6.31634E+02
 -1       464-4.31608E+01-2.44762E+02-2.76574E+02-2.50409E+02 5.95405E+01-6.26189E+02
 -1       465-8.18702E+01-3.29212E+02-5.32723E+02-2.57614E+02 4.66825E+01-6.30629E+02
 -1       466-2.92559E+01-6.91747E+01-1.92896E+02-2.74309E+02 9.82883E+00-6.56788E+02
 -1       467 5.18668E+01 1.05402E+02 3.93790E+02-2.62099E+02-1.12042E+01-6.33678E+02
 -1       468 5.05347E+01 1.97819E+02 4.16935E+02-2.56788E+02-3.87557E+01-6.12303E+02
 -1       469 2.73013E+01-5.70373E+01 3.89535E+02-2.54505E+02 2.12701E+01-6.09091E+02
 -1       470 7.73408E+00-5.16237E+01 1.94318E+02-2.60720E+02 2.58902E+01-6.41258E+02
 -1       471-3.13762E+01 8.23978E+01-4.51412E+02-2.59634E+02-1.72254E+01-6.18110E+02
 -1       472-1.07622E+01 1.11628E+02-2.06866E+02-2.75658E+02-3.78888E+01-6.36441E+02
 -1       473 1.43104E+01 1.55966E+02 5.05933E+01-2.63798E+02-5.08255E+01-6.21267E+02
 -1       474 4.88757E+01 1.97023E+02 2.62348E+02-2.69705E+02-5.00836E+01-6.35511E+02
 -1       475 6.41036E+01 3.14059E+02 4.97073E+02-2.70143E+02-4.33613E+01-6.07239E+02
 -1       476-2.66319E+01-1.72584E+02-4.29605E+01-2.68557E+02 5.03174E+01-6.15685E+02
 -1       477-9.85111E+00-5.14834E+01 3.10835E+01-2.75258E+02 9.55121E+00-6.40343E+02
 -1       478 1.41341E+01 5.48712E+01 3.09114E+01-2.72375E+02-6.21543E+00-6.48114E+02
 -1       479 5.24048E+03-2.53123E-01-5.41574E+01 2.91312E+01 4.18705E+00 1.35215E+03
 -1       480 2.80314E+02-8.50814E+00-5.91609E+01 1.23978E+01 5.02300E+00 6.63443E+02
 -1       481-4.89373E+01-7.93793E+00 5.45445E+01-7.97943E+00 3.37908E+00-1.16177E+02
 -1       482 1.30752E+04-6.09403E+00-3.01539E+01 3.24955E+01 1.61374E+01 1.89284E+03
 -1       483-7.90852E+02 2.27900E+00 3.88947E+01 3.01094E+01 3.83909E+00 1.71772E+03
 -1       484-2.98972E+02 1.44950E+01 4.47908E+01 5.39813E+01 1.76888E+01 1.06161E+03
 -1       485-6.12488E+01-1.51625E+01 4.56667E+01 6.21591E+00 5.99880E-01 3.27344E+02
 -1       486-1.43169E+03-1.45276E+01 5.30282E+01 2.78683E+01-1.08432E-01 2.25745E+03
 -1       487 5.60170E+04-8.27464E+00-6.00033E+01 5.36061E+01-1.29451E+01 2.97832E+03
 -1       488 4.87071E+04 5.04222E+00 4.96635E+00 1.02892E+02 4.52639E+00 2.94626E+03
 -1       489-4.64940E+03 7.43026E-01 1.72529E+01 1.03271E+02-1.93807E+01 3.22766E+03
 -1       490 3.53372E+04 3.05222E+00-9.62706E+00 7.78102E+01 1.11392E+01 2.64259E+03
 -1       491 2.61471E+04 7.69953E+00-6.84297E+01 4.21184E+01 2.71008E+00 2.39596E+03
 -1       492 4.17730E+04-4.81952E+00-1.27660E+01 5.27030E+01 7.29417E+00 2.76139E+03
 -1       493-2.81877E+03 5.24241E+02 1.52853E+03 6.72228E+02-4.22085E+02 1.19217E+03
 -1       494 6.61465E+04-3.02528E+01-1.66843E+02-1.17795E+02-9.47547E+01 2.63227E+03
 -1       495-8.54695E+02-1.42503E+01-1.05175E+02-5.53863E+00 3.89532E+00-3.44253E+02
 -1       496 2.05424E+04-8.47558E-01-1.20211E+01 9.39921E+01 6.23947E+00 2.16857E+03
 -1       497-1.15710E+03-7.83419E+00-7.04723E+01 8.34387E+00 7.39548E+00 8.18479E+01
 -1       498-4.26791E+03 3.60033E+01 1.89988E+01 1.60650E+01 1.43168E+01 3.13962E+03
 -1       499-2.59434E+03 7.13650E+01 5.45181E+01 1.19503E+02 4.67169E+01 2.65612E+03
 -1       500-2.06994E+03 1.62509E+01 2.55870E+01 5.01265E+01 4.93201E-01 2.43254E+03
 -1       501-3.60366E+03 8.28111E+01 5.54222E+01 1.35912E+02 5.11683E+01 2.94434E+03
 -1       502-2.95557E+03-5.58722E+01 2.38131E+01 2.22797E+00-1.10787E+01 2.96308E+03
 -1       503 5.33846E+04-3.98880E+03 3.70769E+03 7.03648E+02-7.98581E+02 5.44432E+02
 -1       504-3.01111E+02-7.08838E+01-2.39180E+01 3.68443E+00 1.46764E+00-6.83895E+02
 -1       505-5.96030E+02 1.87144E+01 2.34509E+01-1.10542E+01 5.18330E+00 1.45143E+03
 -1       506-1.23167E+02-2.66223E+01 3.73499E+01 8.81347E+00-2.99915E-01 7.26336E+02
 -1       507-1.23836E+03 4.09572E+01 1.22375E+01-1.70287E+01 1.19958E+01 2.02777E+03
 -1       508 8.83104E+03-1.31118E+01-4.19411E+01 6.27139E+01 5.76037E+00 1.61542E+03
 -1       509 2.35983E+03 4.14711E+00-6.04141E+01 2.32373E+01-2.42453E+00 1.04311E+03
 -1       510-4.12668E+03 1.52398E+00 3.82898E+02 2.75111E+02-1.12415E+02 2.83622E+03
 -1       511 6.31289E+04-1.20305E+01-8.27502E+01 5.77746E+01-4.41041E+01 2.91484E+03
 -1       512 5.97235E+04-8.67664E+00-4.46292E+00 6.85560E+01 2.17610E+01 3.05822E+03
 -1       513 2.65117E+04 3.06994E+01-2.64040E+01 9.95165E+01 3.87012E+00 3.93752E+03
 -1       514-1.15036E+03 1.55559E+00-8.21402E+01 2.97889E+00 7.06131E+00-1.30712E+02
 -1       515 3.71064E+03 1.76121E+00-4.49800E+01 2.53521E+01 1.09268E+01 1.16793E+03
 -1       516-3.48616E+02-4.52799E+01 3.54692E+01 1.33668E+01-3.48505E+00 1.28358E+03
 -1       517-1.60857E+03-4.27989E+01 3.56081E+01-2.81405E+01-3.78736E+00 2.39259E+03
 -1       518 1.79641E+04 4.28906E+00-2.25244E+01 8.09373E+01 3.46119E+00 2.13457E+03
 -1       519-8.47771E+02-6.43882E+01-6.29273E+00 6.74984E+01-1.64563E+01 1.85054E+03
 -1       520 1.09220E+04-1.17204E+01-7.23539E+01 3.58159E+01-7.12682E+00 1.74498E+03
 -1       521 4.52065E+04 5.95132E+00-3.81069E+01 1.13718E+02-1.91382E+01 2.82353E+03
 -1       522 3.21238E+04-1.30025E+00-4.58574E+01 1.03293E+02-1.66107E+01 2.53971E+03
 -1       523 2.91033E+04-1.44804E+01-1.33411E+01 5.31643E+01 4.02918E+00 2.46925E+03
 -1       524 1.25141E+04 3.09965E+00 2.58174E-01 6.46700E+01 3.46675E+00 3.19909E+03
 -1       525-2.73290E+03-2.75811E+01 2.92362E+01 5.08550E+01-6.49153E+00 2.82066E+03
 -1       526-1.94064E+02-6.74615E+00 3.69206E+01 1.81494E+00 3.62712E+00 9.28711E+02
 -1       527 1.21744E+03 6.27856E-01-6.50152E+01 1.50454E+01 6.77201E+00 8.55357E+02
 -1       528 2.34312E+04 2.52385E+00-4.82654E+01 4.48813E+01-3.42902E-01 2.27958E+03
 -1       529-4.17579E+01-1.66996E+01 4.61745E+01 9.95926E+00 3.08232E+00 9.40585E+01
 -1       530-9.20878E+02 2.88659E+00-7.23479E+01 9.14685E+00 2.22100E+00 3.03693E+02
 -1       531-3.29447E+03 6.48460E+00 2.43163E+01 1.93261E+01 1.08496E+01 2.97347E+03
 -1       532-3.73740E+03-7.55738E+01 2.16695E+01 4.18928E+01-2.13836E+01 3.16585E+03
 -1       533-4.39016E+02-3.08432E-01-6.08223E+01 1.63243E+01 8.46786E+00 4.75902E+02
 -1       534 5.23192E+04 1.68988E-01-5.69856E+00 1.14486E+02 5.74373E+00 2.91654E+03
 -1       535-1.06197E+02-3.27079E+00 4.83829E+01 2.71043E+01 7.54957E+00 5.01178E+02
 -1       536 1.54400E+04 2.51087E+00-3.80065E+01 8.00389E+01-2.24618E-01 1.99477E+03
 -1       537 3.85136E+04-5.66174E+00 9.22101E-02 5.61271E+01 1.00558E+01 2.70659E+03
 -1       538-1.24422E+03-1.77942E+01 7.54682E+00 2.38727E+01-1.36448E+00 2.11680E+03
 -1       539 6.90852E+03-1.28480E+00-5.10603E+01 4.00269E+01 1.41910E+00 1.49028E+03
 -1       540-6.46344E+02-1.23334E+00 1.72590E+01 2.17802E+01 6.28137E+00 1.59038E+03
 -1       541 3.23823E+04-1.05206E+02 5.72001E+02 1.35298E+02-6.10254E+02 3.00665E+03
 -1       542 3.00803E+04 3.72314E+01 5.67998E+01 1.51043E+02-1.18899E+02 3.84188E+03
 -1       543-4.77974E+03-8.31180E+01 1.16251E+01 3.54111E+01-2.00739E+01 3.25970E+03
 -1       544 1.44648E+04-2.25282E+02 4.49997E+03 3.72115E+02-6.70084E+02-1.20477E+03
 -1       545-2.53416E+03-1.64633E+01 1.25457E+01 3.85387E+01 3.63109E+00 2.62681E+03
 -1       546 1.12588E+04-8.62492E+00-5.64059E+00 5.81176E+01-3.72773E+00 3.09037E+03
 -1       547-5.46417E+02-2.03828E+01-1.90826E+01-7.24571E-01 5.61094E+00-2.98357E+02
 -1       548-5.40657E+03 6.54289E+01 5.60739E+01 1.06889E+02 2.37674E+01 3.17686E+03
 -1       549-6.13936E+02-1.60962E+01-1.89457E+01-6.78130E+00 7.49843E+00-1.40091E+01
 -1       550 2.48576E+04 2.31825E+01-3.05823E+01 1.48989E+02-2.58462E+01 3.93250E+03
 -1       551 2.46246E+02-3.33026E+00-1.84450E+01 3.50820E+01-3.98984E-01 1.00021E+03
 -1       552 8.18419E+02-1.22444E+01-2.06880E+01 3.93658E+01 4.18396E+00 1.22671E+03
 -1       553 3.63407E+03-2.39614E+01-1.90431E+01 5.32564E+01 6.36660E+00 2.02214E+03
 -1       554-1.03571E+02-1.43510E+01-1.39202E+01 2.23172E+01 1.09118E+01 7.73864E+02
 -1       555 6.57276E+03-2.40736E+01-1.59119E+00 9.21506E+01 1.35741E+01 2.53258E+03
 -1       556 2.78084E+03-8.39212E+00-6.26108E+00 4.19452E+01 5.81914E+00 1.85751E+03
 -1       557 4.47408E+03 1.60825E+01-2.82920E+01 8.21561E+01-1.16872E+01 2.21223E+03
 -1       558 5.44035E+03-2.41999E+01 8.63749E-02 6.41811E+01 7.44285E+00 2.35570E+03
 -1       559-5.68463E+02-8.16418E+00-2.12412E+01 1.18146E+01 5.04439E+00 2.53797E+02
 -1       560-3.78593E+02-8.69941E+00-1.86859E+01 1.11430E+01 4.26716E+00 5.12463E+02
 -1       561 1.33951E+03-1.00132E+01 3.69779E+00 3.00408E+01 1.25833E+01 1.45582E+03
 -1       562 7.58344E+03 1.29746E+01 6.64084E-01 8.53636E+01-2.58364E+00 2.65235E+03
 -1       563 9.99151E+03 8.20019E+00-5.64815E+01 6.63472E+01 6.02816E+00 2.98073E+03
 -1       564 2.32807E+04-2.59541E+01-1.63035E+01 1.04433E+02 1.38026E+01 3.77979E+03
 -1       565 2.15961E+04 1.39437E+01 1.00737E+01 1.26596E+02-1.16413E+01 3.73139E+03
 -1       566 1.84343E+04 1.02283E+01-1.99070E+01 7.16121E+01 9.82934E+00 3.59972E+03
 -1       567 1.69305E+04 6.83209E+00-1.12777E+01 8.15083E+01 5.07138E-01 3.51253E+03
 -1       568 2.02273E+04-3.36401E+00 1.68940E+01 1.05746E+02 9.38506E+00 3.67587E+03
 -1       569 1.54981E+04 3.92585E+00 4.71449E+00 1.10971E+02-2.41841E+00 3.37995E+03
 -1       570 1.99445E+03-6.51289E+00-8.30529E+00 3.52176E+01-2.61265E+00 1.66368E+03
 -1       571 8.81255E+03-2.07668E+01-2.00735E+00 9.66492E+01 1.32957E+01 2.77606E+03
 -1       572 1.42387E+04-6.27774E+00 2.00690E+01 9.60348E+01 1.12339E+01 3.29997E+03
 -1       573-2.40860E+03 4.42413E-01 2.10085E+01-8.12942E+00 2.08488E+00 2.57578E+03
 -1       574 2.84078E+04-3.54307E+01 1.82958E+01 1.40347E+02 9.01337E+00 3.98473E+03
 -1       575-4.03026E+02-9.31001E+01-1.21217E+02 2.89394E+01-1.45313E+00-6.51502E+02
 -1       576 6.83872E+04-5.18769E+02-2.63677E+02-6.40700E+02-5.95975E+02 1.73076E+03
 -1       577-1.36845E+02-1.68660E+01 7.83722E+01-1.34043E+01 4.80981E+00-3.50628E+02
 -1       578 3.27886E+04-1.62790E+02 2.12932E+03 5.83678E+01-9.20601E+02 1.94942E+03
 -1       579-1.67177E+04 2.03517E+03 3.47831E+03 5.10610E+01-5.12996E+02-2.66701E+03
 -1       580 8.47818E+04-5.88197E+03-3.14853E+02-3.17399E+02-8.45250E+02 1.65802E+03
 -1       581-4.95682E+02-4.59081E+01-1.19255E+02 1.23881E+01 1.35109E+01-3.74546E+02
 -1       582-1.77215E+02-5.53218E+01 6.48138E+01-3.81478E+00 6.43283E+00-4.33357E+02
 -1       583-4.77843E+02-3.19463E-02-3.01356E+01 1.05377E+01-4.17187E-01-5.49165E+02
 -1       584-1.22279E+04 2.28172E+03 1.70642E+03-2.27054E+03-6.92302E+02-6.48309E+03
 -1       585-3.74660E+04-5.96547E+03-3.95476E+03-7.35683E+03 5.04163E+02-1.79054E+03
 -1       586-2.90356E+04 1.21862E+03 2.03298E+03 3.92474E+02-3.31244E+02-2.70453E+03
 -1       587 1.12839E+05 1.27619E+04 1.64719E+04 1.18135E+04 2.40226E+03 8.60314E+03
 -1       588 8.34593E+04 4.20245E+03 1.36055E+04 9.57647E+03-6.82364E+02-2.94415E+02
 -1       589 9.25523E+04-2.54599E+03-2.06702E+03-1.54146E+03-9.77572E+02-1.05339E+03
 -1       590-7.32724E+01 1.38496E+01-4.31379E+01-4.46647E+01 8.42646E+00-3.29207E+02
 -1       591-2.26027E+02-6.19464E+00-1.93075E+02-1.44678E+01 1.44702E+01-5.68580E+02
 -1       592 1.58693E+02-2.46409E+01 6.24079E+01-1.44042E+01-1.59798E+01-1.80145E+02
 -1       593-3.02233E+02-3.38527E+01 1.02456E+02-4.22428E+01 1.53882E+01-5.34352E+02
 -1       594-4.13126E+02-2.14626E+01 1.51709E+00-2.17649E+01 2.90121E+01-2.95510E+02
 -1       595-9.04525E+02-1.87011E+00-8.00819E+01 2.51651E+01-7.62416E+00-1.58772E+02
 -1       596 6.94128E+04 9.94220E+03 1.77072E+04 9.61507E+03-1.51859E+03-1.74143E+03
 -1       597 4.76157E+04 5.97567E+03 1.01537E+04 5.42946E+03-3.66460E+02-3.92443E+03
 -1       598 6.98628E+04-6.57765E+03 2.94173E+03-4.02446E+02-3.83181E+02 7.23027E+02
 -1       599 2.68805E+04 5.75089E+03 8.89442E+03 3.80835E+03-8.52144E+02-5.45554E+03
 -1       600 3.24829E+03-9.56083E+02 1.15954E+03-1.55628E+03-8.07315E+02-5.46213E+03
 -1       601 3.33865E+04-1.47953E+03 3.86309E+03 6.88199E+02-7.04492E+02-8.38045E+02
 -1       602-2.02313E+03 1.32619E+03 3.39048E+03 2.51830E+02-6.10683E+00-2.41366E+03
 -1       603-2.69993E+02-3.37450E+01-5.25459E+01-2.03232E+01-1.01190E+01-6.49016E+02
 -1       604-3.00863E+02-5.77266E+01 9.52912E+01-2.36301E+01-6.57596E+00-6.20180E+02
 -1       605-4.50386E+02-5.74441E+01-8.44360E+01 1.71331E+01 1.60049E+01-5.41770E+02
 -1       606-2.28277E+02-1.07623E+01-1.72589E+02-2.55397E+01 9.71072E-01-6.45891E+02
 -1       607-2.60797E+02-1.82113E+01-1.91268E+01-3.07474E+01-1.27844E+00-6.62650E+02
 -1       608-3.31540E+02-6.10421E+01-3.75277E+01 6.46613E+00 8.23690E+00-6.79755E+02
 -1       609-2.49050E+02-7.63777E+01-8.65075E-01-2.34302E+00 2.74318E+00-5.90405E+02
 -1       610 8.61576E+04-5.16615E+02-4.37422E+02-6.09876E+02-3.25496E+02 7.93176E+02
 -1       611 8.66858E+04 1.54358E+02 2.83638E+02-2.61510E+02 2.84625E+02 4.21521E+02
 -1       612 7.47879E+04-2.56029E+02 5.11705E+01-4.64090E+02-5.71652E+02 9.39064E+02
 -1       613 8.35403E+04-3.50767E+01-1.20926E+02-6.34270E+01-3.17211E+01 1.48797E+03
 -1       614 8.54345E+04-4.80420E+01-1.13017E+02-1.04238E+02 2.92167E+01 1.29630E+03
 -1       615 6.73586E+04-7.60991E+01-3.45388E+01-2.62266E+02-2.65698E+02 2.27631E+03
 -1       616 7.93692E+04 7.55168E+01-5.01839E+01 3.60482E+01-2.09169E+01 1.61726E+03
 -1       617 8.19595E+04 5.48150E+00-8.29454E+01 4.21284E+01-6.21021E-01 1.55234E+03
 -1       618 6.47358E+04 2.49103E+01-4.07531E+01 1.19540E+00-3.35981E+01 2.83180E+03
 -1       619 7.48056E+04-4.41435E+01-2.87543E+01 2.36343E+01 4.17933E+01 1.63653E+03
 -1       620 7.75176E+04-4.04602E-01 9.18335E+00 3.88330E+01-3.61777E+01 1.68878E+03
 -1       621 6.15340E+04 5.41108E+01-2.09296E+01 6.70709E+01-5.03633E+01 3.03139E+03
 -1       622 7.01370E+04 1.44330E+01-3.82576E+01 2.54974E+01 4.57047E+01 1.65191E+03
 -1       623 7.29263E+04 2.04368E+01-4.76809E+01 5.74013E+01-1.92792E+01 1.61443E+03
 -1       624 5.78454E+04-1.95256E+01-2.09150E+01 6.98557E+01 1.89046E+01 3.01467E+03
 -1       625 6.54388E+04-8.58124E+00 3.06089E+01 6.26076E+01 8.03435E+00 1.54059E+03
 -1       626 6.81902E+04-6.35182E+01 2.22817E+01 6.09952E+01 4.93392E+00 1.60466E+03
 -1       627 5.40715E+04-7.14311E+01-5.66718E+01 6.98137E+01 3.05728E+01 2.99025E+03
 -1       628 6.09795E+04 2.15303E+01 1.84156E+01 2.81835E+01 4.95617E+00 1.56544E+03
 -1       629 6.35911E+04 7.01273E+00 1.15041E+01 2.82126E+01-9.22696E+00 1.59377E+03
 -1       630 5.05069E+04-1.74873E+00-4.73476E+01 1.22675E+02-1.55343E+01 2.93861E+03
 -1       631 5.65759E+04 6.84303E+01-3.66311E+01 5.13537E+01-3.39394E+00 1.55458E+03
 -1       632 5.92000E+04 3.98774E+01-1.14508E+01 5.67818E+01-2.60742E+01 1.52097E+03
 -1       633 4.68757E+04-5.27336E+01 1.91831E+01 1.25242E+02 9.06931E+00 2.87211E+03
 -1       634 5.21759E+04 1.65124E+01-1.50576E+01 3.39059E+01 2.53943E+01 1.51521E+03
 -1       635 5.47705E+04-6.95686E-01 1.37524E+01 2.76773E+01-4.52547E+01 1.53860E+03
 -1       636 4.35335E+04 3.64486E+01-2.29577E+01 6.65048E+01-3.56741E+01 2.81959E+03
 -1       637 4.79951E+04-7.34999E+00 9.70821E+00 1.16782E+01 1.12124E+01 1.42870E+03
 -1       638 5.04348E+04 1.28818E+01-6.17845E+00 3.09056E+01-1.31224E+01 1.49883E+03
 -1       639 4.01220E+04 2.79442E+01-2.26614E+01 6.54449E+01-1.60662E+01 2.77680E+03
 -1       640 4.39192E+04 3.82735E+01 4.49337E+00 1.58603E+01 6.01891E+00 1.41257E+03
 -1       641 4.63144E+04 1.54859E+01-1.07789E+01 5.97888E+01-4.25185E+00 1.45857E+03
 -1       642 3.68553E+04-6.24255E+01 4.43385E-01 7.63706E+01 2.47960E+01 2.66590E+03
 -1       643 3.99397E+04 5.92927E+01-4.16981E+01 4.92539E+01-1.06392E+00 1.39661E+03
 -1       644 4.23053E+04 3.61959E+01-1.69106E+01 5.30689E+01-2.37141E+01 1.36990E+03
 -1       645 3.36129E+04-7.04736E+01-5.31607E+00 9.40607E+01 6.50633E+00 2.58574E+03
 -1       646 3.60328E+04-3.67164E+01-1.17409E+01 4.86352E+01 2.75611E+01 1.34791E+03
 -1       647 3.83540E+04-1.30132E+01 1.84976E+01 2.47863E+01-4.21960E+01 1.37819E+03
 -1       648 3.06784E+04 4.39187E+01-1.52112E+01 5.58684E+01-3.24314E+01 2.52604E+03
 -1       649 3.23652E+04-1.70941E+01-3.80985E+01 1.88520E+01 1.86409E+01 1.30855E+03
 -1       650 3.45242E+04 1.06323E+01-4.55390E+01 9.42537E+00-3.17790E+00 1.27121E+03
 -1       651 2.76328E+04 2.47555E+01-6.91577E+01 5.38859E+01-7.28854E+00 2.43005E+03
 -1       652 2.87654E+04-2.06439E+00-3.94595E+01 1.95406E+01 4.42006E+01 1.25633E+03
 -1       653 3.09241E+04-1.76391E+01-2.06673E+01 2.61451E+01-1.80341E+01 1.25330E+03
 -1       654 2.47653E+04-3.24586E+01-5.38920E+01 4.85482E+01 1.63185E+01 2.36781E+03
 -1       655 2.52124E+04-3.25974E+00 1.50588E+01 4.71094E+01 3.97859E+00 1.14363E+03
 -1       656 2.72570E+04-5.65058E+01 1.73293E+00 4.25349E+01 8.82879E+00 1.19939E+03
 -1       657 2.18817E+04-5.20612E+01-5.05360E+01 5.69642E+01 2.63995E+01 2.25665E+03
 -1       658 2.19859E+04 2.05178E+01-5.04582E-01 2.13310E+01 2.86985E+00 1.13233E+03
 -1       659 2.38886E+04 6.02862E+00-5.52911E+00 2.10207E+01-6.84930E+00 1.15867E+03
 -1       660 1.92473E+04-3.02265E+00-5.51222E+01 9.94887E+01-1.17651E+01 2.15412E+03
 -1       661 1.88443E+04 4.30978E+01-4.55979E+01 4.28569E+01 5.62593E+00 1.09429E+03
 -1       662 2.07046E+04 3.03115E+01-2.32520E+01 4.18387E+01-1.78558E+01 1.07586E+03
 -1       663 1.66333E+04-4.32200E+01-1.52050E+01 9.46683E+01 1.05505E+01 2.05462E+03
 -1       664 1.58464E+04-3.25447E+01-3.73265E+01 1.17407E+01 2.64428E+01 1.00857E+03
 -1       665 1.75606E+04-3.32700E+00-1.06436E+01 2.82993E+01-2.21316E+01 1.05850E+03
 -1       666 1.42689E+04 3.48685E+01-2.99502E+01 5.18945E+01-1.61344E+01 1.95704E+03
 -1       667 1.31156E+04-2.06548E+01-4.18832E+01 1.64877E+01 3.14170E+01 9.66851E+02
 -1       668 1.47462E+04 1.55270E+01-3.67034E+01 3.11112E+01-3.76349E+00 9.49071E+02
 -1       669 1.19743E+04-1.69580E+01-7.83530E+01 3.59136E+01 6.92787E+00 1.81890E+03
 -1       670 1.05065E+04-1.62924E+01-2.21922E+01 2.82917E+01 1.72772E+01 8.56296E+02
 -1       671 1.20255E+04-4.73065E+01-1.22159E+01 3.19754E+01 3.44597E+00 8.98397E+02
 -1       672 9.78911E+03-6.39879E+01-7.06237E+01 3.08842E+01 2.25308E+01 1.69557E+03
 -1       673 8.17738E+03 1.76386E+01-2.66055E+01 2.07534E+01 3.92777E+00 8.07532E+02
 -1       674 9.56703E+03-1.31335E+00-3.37961E+01 4.26327E+00-4.45941E+00 8.03875E+02
 -1       675 7.88594E+03 2.04081E+01-7.45209E+01 5.32262E+01-1.89234E+00 1.55669E+03
 -1       676 6.07916E+03-1.37841E+01-3.33695E+01 1.22254E+01 1.67922E+01 7.23583E+02
 -1       677 7.28492E+03 1.07681E+01-2.60636E+01 1.02200E+01-8.84751E+00 7.45463E+02
 -1       678 6.06457E+03 9.01144E+00-5.36745E+01 3.49838E+01-1.15200E+01 1.43029E+03
 -1       679 4.14553E+03 5.28179E+00-2.07866E+01 1.46160E+01 6.35640E+00 6.25774E+02
 -1       680 5.28431E+03-2.27456E+01-2.64632E+01 7.60020E+00 1.42360E+00 6.52878E+02
 -1       681 4.43537E+03-1.58065E+01-5.73282E+01 2.37629E+01 1.58055E+01 1.27787E+03
 -1       682 2.55218E+03 1.72141E-01-3.47512E+01 1.08186E+01 1.02209E+01 5.63438E+02
 -1       683 3.46078E+03 1.62193E+01-2.60622E+01 4.27618E+00-1.00629E+01 5.67813E+02
 -1       684 3.01120E+03 6.86839E+00-7.10254E+01 3.04523E+01-3.59948E+00 1.10034E+03
 -1       685 1.13328E+03-6.78279E+00-3.99827E+01 4.47000E+00 1.61161E+01 4.62181E+02
 -1       686 1.93803E+03-6.39769E+00-3.30062E+01 1.07225E+01 3.45503E-02 4.78457E+02
 -1       687 1.74053E+03-1.94465E+01-7.37227E+01 1.83918E+01 5.23262E+00 9.54058E+02
 -1       688 1.19944E+01-4.97586E+00-4.03630E+01 7.65245E+00 9.46234E+00 3.57192E+02
 -1       689 6.54954E+02-1.08822E+01-2.87780E+01 5.65720E+00 2.10938E+00 3.78421E+02
 -1       690 7.00933E+02-1.62435E+01-7.36546E+01 1.06062E+01 1.10846E+01 7.71726E+02
 -1       691-8.29672E+02 4.50094E+00-3.17402E+01 8.86571E+00 3.07131E+00 2.49142E+02
 -1       692-3.52783E+02-8.85793E+00-3.61469E+01 4.19480E+00 2.28567E+00 2.79461E+02
 -1       693-1.23308E+02-1.69583E+01-7.86460E+01 1.50723E+01 1.34087E-02 5.84893E+02
 -1       694-1.33093E+03-1.46920E+00-4.16928E+01 3.19036E+00 6.98209E+00 1.54938E+02
 -1       695-1.07827E+03 8.42422E+00-3.55707E+01 3.62067E+00-1.26039E+00 1.75415E+02
 -1       696-7.09662E+02-3.12340E-01-8.21401E+01 2.02618E+01 1.20152E+00 3.87348E+02
 -1       697-1.56714E+03 1.00219E+01-4.22819E+01-7.30761E-01 8.65669E-01 3.43693E+01
 -1       698-1.46210E+03-1.25628E+01-4.77084E+01 2.85593E+00 1.13444E+01 5.82650E+01
 -1       699-1.09490E+03-1.84822E+01-8.25111E+01 5.09098E+00 4.91587E+00 1.96157E+02
 -1       700-1.45741E+03 9.58931E+00-4.69907E+01-2.57060E+00-3.77260E-01-7.66128E+01
 -1       701-1.56105E+03 2.39968E+00-4.61624E+01-2.34635E+00 5.86234E+00-5.16739E+01
 -1       702-1.20311E+03-1.65736E+01-9.52390E+01 1.18427E+01 6.21000E+00-2.17362E+01
 -1       703-1.04917E+03 5.92692E+00-5.10986E+01-6.01549E+00 1.35547E+00-1.88447E+02
 -1       704-1.30702E+03 3.94404E+00-4.98167E+01-1.11363E+00 1.67911E+00-1.62270E+02
 -1       705-1.04414E+03-1.25343E+01-1.01902E+02 1.81395E-01 3.26993E+00-2.40074E+02
 -1       706-7.23738E+02-2.79487E+01-1.12645E+02 1.67747E+00 5.73145E+00-3.50653E+02
 -1       707-2.16463E+04 4.07069E+02 1.20053E+03 3.99498E+01-7.07791E+01-4.82406E+02
 -1       708-2.20615E+04 6.85530E+02 9.17825E+02 6.57402E+02-2.22648E+02 6.63976E+02
 -1       709-8.72513E+03 1.73023E+02 2.42578E+03 5.50559E+02-4.64365E+02-1.17684E+03
 -1       710-2.33857E+04 1.95488E+01 2.24079E+02 2.06500E+02-5.47750E-01 1.39949E+03
 -1       711-2.27675E+04 6.85157E+00 1.63714E+02 3.10116E+02-7.62940E+01 1.70334E+03
 -1       712-3.71013E+03 7.14086E+01 6.13219E+02 2.95657E+02-1.31809E+02 2.22113E+03
 -1       713-2.28764E+04 1.13809E+01 2.71134E+01 2.20288E+02 9.24469E+00 1.80526E+03
 -1       714-2.18675E+04-2.67887E+01 6.07684E+01 2.18209E+02-2.12396E+01 1.86671E+03
 -1       715-4.65675E+03-3.87964E+01 1.21902E+02 1.83745E+02-9.29663E+00 3.16815E+03
 -1       716-2.21729E+04 4.08618E+01-1.43446E+01 2.12385E+02 1.81724E+01 1.86793E+03
 -1       717-2.10115E+04 6.23309E+01-2.79039E+01 3.14578E+01 6.52767E+00 1.83875E+03
 -1       718-5.04151E+03-6.48510E+00-9.30541E+00 1.60740E+02-2.63338E+01 3.30995E+03
 -1       719-2.07834E+04-1.01107E+02-3.24339E+01 8.82067E+01-2.70920E+01 1.83564E+03
 -1       720-1.96912E+04-6.31807E+01 1.29349E+01 1.77832E+02 1.23431E+00 1.85994E+03
 -1       721-5.01335E+03 3.17343E+00 7.87561E+01 8.24351E-01-1.96073E+01 3.22296E+03
 -1       722-1.92349E+04 6.84984E+01 5.51767E+00 1.41417E+02 2.48551E+01 1.80879E+03
 -1       723-1.81819E+04 4.61975E+01-1.29529E+01 3.46497E+01 1.20479E+00 1.79044E+03
 -1       724-4.44202E+03-3.56813E+01 9.27120E+00 9.36245E+01 1.71027E+01 3.24657E+03
 -1       725-1.79671E+04-1.01517E+02-2.40194E+01 7.79973E+01-3.28140E+01 1.79037E+03
 -1       726-1.69231E+04-6.42032E+01 1.90704E+01 1.77649E+02 8.76644E+00 1.82525E+03
 -1       727-3.95232E+03 8.70828E+00 7.56601E+01-4.57838E+00-3.19605E+01 3.14439E+03
 -1       728-1.67690E+04 6.72390E+01-3.93316E+01 1.87429E+02 4.37484E+01 1.75138E+03
 -1       729-1.55337E+04 1.03762E+02 6.69056E+01 6.65192E+01 3.14700E+01 1.73796E+03
 -1       730-3.80846E+03-1.77203E+01-1.99904E+01 1.55193E+02 5.93783E+01 3.10905E+03
 -1       731-1.53652E+04-1.01083E+01 6.63315E+01 3.54639E+01 3.28415E+01 1.72971E+03
 -1       732-1.45199E+04 1.05965E+01-3.66156E+01 3.51444E+00-1.09371E+01 1.71009E+03
 -1       733-3.24137E+03 3.83706E+01 1.16569E+02 4.32372E+01-1.04089E+01 3.02283E+03
 -1       734-1.42940E+04-8.68612E+01-3.02173E+01 6.72403E+01-2.21237E+01 1.67505E+03
 -1       735-1.32923E+04-4.09044E+01 1.58936E+01 1.37640E+02 5.09846E+00 1.68497E+03
 -1       736-3.16002E+03 9.44269E+00 5.83013E+01-1.96881E+01-1.25188E+01 2.94967E+03
 -1       737-1.31364E+04-9.44529E+00-3.14699E+00 1.30068E+02-1.38725E-01 1.60460E+03
 -1       738-1.21340E+04-2.44819E+01 2.86153E+01 1.57848E+02 1.32600E+01 1.62356E+03
 -1       739-2.86582E+03-3.72820E+01 2.11695E+01 6.14075E+01 1.23543E+01 2.92869E+03
 -1       740-1.20284E+04 5.64268E+01-3.45156E+01 1.74231E+02 4.20250E+01 1.58016E+03
 -1       741-1.09297E+04 8.84848E+01 6.04017E+01 5.71089E+01 2.71546E+01 1.57047E+03
 -1       742-2.80907E+03-9.22538E+00-1.58184E+01 1.27805E+02 5.57417E+01 2.80799E+03
 -1       743-1.09800E+04-4.84083E+01 2.98261E+01 5.45398E+01 1.57711E+01 1.52097E+03
 -1       744-1.01057E+04-3.30492E+01-8.22758E+00 1.04952E+02-1.88740E+01 1.48744E+03
 -1       745-2.45756E+03 1.93073E+01 1.02943E+02 5.07424E+01-8.51491E+00 2.69634E+03
 -1       746-9.96293E+03-1.00652E+01-2.89307E+00 1.10121E+02-1.32477E+01 1.45628E+03
 -1       747-9.06517E+03 1.63649E+01 2.38758E+01 1.04400E+02 1.33092E+01 1.43485E+03
 -1       748-2.46412E+03 2.94243E+01 3.46508E+01 3.79951E+01-1.71399E+01 2.63479E+03
 -1       749-8.86611E+03 1.24609E+01 8.28036E-01 1.12661E+02 1.67452E+01 1.41093E+03
 -1       750-7.99950E+03 3.96520E+01 2.64364E+01 5.13544E+01 7.87216E+00 1.39581E+03
 -1       751-2.29857E+03-3.57564E+01-4.85530E+00 2.15273E+01 2.10564E+01 2.54814E+03
 -1       752-7.77051E+03-5.25341E+01 3.25692E+01 3.10819E+01-4.55120E+00 1.35041E+03
 -1       753-7.00687E+03-2.95786E+01 1.95580E+00 8.87935E+01 3.29378E+00 1.34457E+03
 -1       754-1.85306E+03-1.50620E+01 4.25614E+01-1.04585E+01-2.56691E+01 2.42040E+03
 -1       755-6.84531E+03-6.03526E+00 1.20595E+01 1.09242E+02 6.05120E+00 1.28586E+03
 -1       756-6.04444E+03-4.03532E+00 3.13648E+01 1.13536E+02 7.49540E+00 1.28152E+03
 -1       757-1.60935E+03-2.33644E+01 2.64228E+01 3.31988E+01 2.65395E+01 2.34779E+03
 -1       758-5.93743E+03-6.55444E-01-1.12735E+01 1.06199E+02 1.15422E+01 1.20936E+03
 -1       759-5.16632E+03-2.52292E+01 3.63291E+01 1.01227E+02-2.33535E+00 1.20175E+03
 -1       760-1.37453E+03-2.57343E+01 4.84234E+00 4.76396E+01 2.62257E+01 2.23710E+03
 -1       761-5.09550E+03 1.99563E+01 1.39441E+01 9.14993E+01 8.44010E+00 1.16568E+03
 -1       762-4.40307E+03 3.81515E+01-3.70185E+00 2.38055E+01 2.52690E+00 1.12557E+03
 -1       763-1.15964E+03 1.70877E+01 3.14476E+01 4.67975E+01-2.22317E+01 2.11228E+03
 -1       764-4.30014E+03-7.93596E+01-2.93543E+00 3.86698E+01-1.70820E+01 1.09158E+03
 -1       765-3.59197E+03-2.90247E+01 4.48189E+01 1.19829E+02-4.95039E+00 1.08898E+03
 -1       766-1.07771E+03-1.14646E+01-5.48722E+00-1.69089E+01 9.37736E+00 1.95777E+03
 -1       767-3.53740E+03 5.94565E+00-7.65442E+00 9.72739E+01 8.13347E+00 9.97836E+02
 -1       768-2.89974E+03-1.28503E+01 3.54965E+01 8.82478E+01-4.03197E+00 9.66961E+02
 -1       769-7.86178E+02 2.14035E+00 5.16076E+01 8.48830E+01 7.92717E+00 1.83872E+03
 -1       770-2.82542E+03-1.13147E+01 1.55745E+00 8.90436E+01 7.62921E-01 9.18848E+02
 -1       771-2.25629E+03-1.24419E+01 2.11187E+01 7.70459E+01 1.00918E+00 8.89379E+02
 -1       772-6.84215E+02 8.13511E+00 4.66046E+01 4.34918E+01-1.40044E+01 1.69302E+03
 -1       773-2.19099E+03 3.35164E+00 1.81930E+01 6.75221E+01 3.77033E+00 8.37750E+02
 -1       774-1.69653E+03 1.94897E+01 1.00430E+01 2.59068E+01 6.22584E-01 7.99991E+02
 -1       775-5.53716E+02 1.19213E+01 3.80040E+01 2.59739E+01-1.43457E+01 1.54601E+03
 -1       776-1.61536E+03-5.14869E+01 8.64367E+00 2.41725E+01-1.20205E+01 7.48841E+02
 -1       777-1.19107E+03-3.57930E+01 2.23536E+01 6.57956E+01 5.20392E+00 7.36988E+02
 -1       778-4.54803E+02-3.10893E+00 2.39556E+01-1.65985E+01 8.10904E+00 1.36788E+03
 -1       779-1.13508E+03 8.99295E+00-4.96736E+00 7.48355E+01 1.95830E+01 6.43103E+02
 -1       780-6.80896E+02 2.18309E+01 3.22339E+01 2.20414E+01 1.02051E+01 6.16557E+02
 -1       781-3.87850E+02-1.00689E+01 2.74063E+01 5.49368E+01 3.03818E+01 1.20297E+03
 -1       782-6.19920E+02-2.12626E+01 3.59860E+01 4.72580E+00 6.30308E+00 5.52821E+02
 -1       783-3.50400E+02-6.56959E+00 6.33188E+00 7.96784E+00-7.16927E+00 5.10432E+02
 -1       784-1.79738E+02 4.24307E+00 7.35979E+01 2.29404E+01-8.65817E+00 1.01152E+03
 -1       785-3.13441E+02-3.86197E+01 1.06416E+01 1.60953E+01-4.53280E+00 4.32977E+02
 -1       786-6.46394E+01-3.03496E+01 3.09545E+01 3.61669E+01-6.28686E-01 4.08850E+02
 -1       787-1.75097E+02-8.47611E+00 2.34672E+01-2.94221E-01 1.31088E+01 8.25084E+02
 -1       788-3.87762E+01-8.97580E+00 1.50875E+01 4.12925E+01 8.48001E+00 3.13807E+02
 -1       789 1.89647E+02-3.79749E+00 2.27879E+01 1.03548E+01-3.03270E+00 2.80113E+02
 -1       790-1.17256E+02-8.65926E+00 4.49107E+01 3.10795E+01 2.88872E+00 6.36898E+02
 -1       791 1.89639E+02-2.47550E+01 1.52217E+01 1.27676E+01 5.42937E-01 2.04258E+02
 -1       792 2.94352E+02-1.78426E+01 2.60468E+01 1.36222E+01 4.11883E+00 1.73724E+02
 -1       793-5.52094E+01-8.95689E-01 6.60280E+01 9.49646E+00-3.20093E+00 4.12924E+02
 -1       794 2.99727E+02-1.76347E+01 2.10957E+01 1.13207E+01 2.41249E+00 7.07835E+01
 -1       795 3.48484E+02-1.44675E+01 2.30630E+01 2.40159E+00 2.82982E-01 3.91048E+01
 -1       796-4.79005E+01-1.13951E+01 4.73683E+01 9.76380E+00 6.03358E+00 2.12277E+02
 -1       797 3.64757E+02-1.66341E+01 3.01601E+01-9.35644E+00-4.04325E+00-4.81301E+01
 -1       798 2.99428E+02-2.06021E+01 2.10965E+01-8.13603E+00 4.39680E+00-8.84947E+01
 -1       799-2.44628E+01-5.45895E+00 5.41108E+01 6.58092E+00 7.30695E-01-1.13808E+01
 -1       800 2.75161E+02-1.72447E+01 3.91393E+01-7.61399E+00-7.50617E+00-1.79992E+02
 -1       801 1.45126E+02-1.55456E+01 3.82120E+01-2.52239E+00-4.73222E-01-2.07895E+02
 -1       802-6.29047E+01-3.23322E+00 7.72148E+01-1.03029E+01-2.44968E+00-2.35865E+02
 -1       803-1.44317E+02-6.03586E+00 7.03841E+01-7.67487E+00 3.73192E+00-3.86025E+02
 -1       804 2.84136E+03-1.05830E+01-4.14447E+01 4.35789E+01 9.19471E+00 1.44138E+03
 -1       805 3.60384E+03-7.98408E+00-3.67791E+01 4.33453E+01 3.18027E+00 1.54074E+03
 -1       806 3.98984E+03-3.66565E+00-3.67597E+01 4.55870E+01-2.04866E+00 1.62707E+03
 -1       807 4.83766E+03-5.65088E+00-1.82762E+01 6.18352E+01 3.03305E+00 1.69831E+03
 -1       808 2.35574E+03-1.95349E+01-1.03489E+01 3.22171E+01 7.31462E-01 1.77748E+03
 -1       809 2.60384E+02-7.86425E+00-4.09300E+01 2.59534E+01 1.39537E+01 8.47020E+02
 -1       810 7.26566E+02-6.01467E+00-4.04515E+01 2.92398E+01-1.43998E+00 9.56397E+02
 -1       811-2.87277E+02-9.38196E+00-5.69853E+01 1.91937E+01 1.20835E+01 6.39656E+02
 -1       812 9.30595E+01-6.99030E+00-4.83274E+01 1.95271E+01 4.22158E+00 7.26003E+02
 -1       813 6.36295E+01-7.55894E+00-2.34035E+01 2.81196E+01 8.68375E+00 8.83925E+02
 -1       814-3.27385E+02-1.82309E+01 1.19289E+01 2.48619E+00 6.55649E+00 4.79192E+01
 -1       815-3.48553E+02-1.11886E+01 1.08042E+01-2.34412E+00 4.35597E+00-7.77913E+01
 -1       816-3.21403E+02-8.69655E+00 1.86626E+01-6.71076E+00 4.42934E-01-2.10516E+02
 -1       817-6.23145E+02-2.42469E+01-3.01301E+01-2.86258E+00 6.32783E+00-1.60614E+02
 -1       818-3.29144E+02-1.84162E+01 2.91220E+01-5.53900E+00 5.22534E+00-3.51211E+02
 -1       819 8.20621E+03-2.68521E+01-2.76640E+01 6.33171E+01 1.06509E+01 2.10197E+03
 -1       820 9.28946E+03 4.65104E+00-2.17552E+01 5.82418E+01 1.67116E+01 2.17014E+03
 -1       821 9.83421E+03 1.88768E+01-5.89861E+01 7.83386E+01 1.38478E+01 2.24497E+03
 -1       822 1.10008E+04 3.42480E+01 4.23829E+00 9.66834E+01-2.67679E+01 2.28156E+03
 -1       823 6.04212E+03 4.06239E+00-2.47808E+00 7.21736E+01 8.83425E+00 2.48768E+03
 -1       824 1.81961E+03 5.69570E-01-5.24650E+01 4.98002E+01-6.46367E+00 2.11607E+03
 -1       825 1.82676E+03 1.82732E+01-2.54505E+00 1.85262E+01-1.77020E+00 2.02551E+03
 -1       826 1.46585E+03-2.53622E+01 2.98221E+01 7.07220E-01 1.41038E+01 1.95711E+03
 -1       827 1.46948E+03 3.21966E+00 8.17752E+00 1.32991E+01 1.71265E+00 1.87345E+03
 -1       828 4.04090E+03-2.14383E+01-5.98994E+01 7.31402E+01-1.08619E+01 2.08922E+03
 -1       829 4.48960E+02-3.00787E+01-3.79686E+00 1.43754E+01 1.99320E+01 1.41064E+03
 -1       830 4.43846E+02-1.21584E+01 1.81463E+01 2.22714E+01 3.18108E+01 1.29452E+03
 -1       831 3.13860E+02-1.26203E+00 1.62367E+01 6.21956E+01 5.49514E+00 1.16759E+03
 -1       832 2.85350E+02 8.27634E-01-5.54004E+00 3.72096E+01-1.74815E+01 1.09921E+03
 -1       833 1.04904E+03-3.41611E+01-1.61628E+01 2.83679E+01 1.04501E+01 1.33892E+03
 -1       834-3.27211E+02-1.08971E+01 2.35525E+00 5.93988E+00 1.91347E+00 3.03398E+02
 -1       835-3.31257E+02-1.30452E+01 3.65967E+00 1.79930E+00 6.04498E+00 1.74940E+02
 -1       836-2.15503E+02-1.80271E+00 2.01451E+01 2.46962E+01 4.30159E+00 5.31508E+02
 -1       837-2.39113E+02 2.45177E+00 5.50523E+00 9.24357E+00-1.65316E+00 4.20542E+02
 -1       838-5.17076E+02-1.61873E+01-3.02500E+01 1.60400E+01 4.82591E+00 3.89222E+02
 -1       839 3.54426E+03-3.83440E+01 1.98502E+01-1.38938E+01 4.66105E+01 2.68271E+03
 -1       840 3.69499E+03 4.32666E+00 5.62010E+01 1.58652E+01-4.79606E+00 2.60778E+03
 -1       841 3.07375E+03-2.62763E+01-1.42540E+00 2.04091E+01 5.48209E+00 2.55478E+03
 -1       842 3.09340E+03 1.81192E+01-2.90798E+01-6.92079E+00-1.26349E+01 2.49105E+03
 -1       843 8.25493E+03 1.36678E+01-1.87288E+01 8.76585E+01 3.52365E+00 2.76366E+03
 -1       844 4.12278E+04-3.78312E+01-4.71592E+01 1.02463E+02 3.01794E+01 3.55487E+03
 -1       845 4.31201E+04 1.66936E+01-2.77112E+01 1.09034E+02 2.77145E+01 3.57907E+03
 -1       846 4.04459E+04-1.20990E+01 2.87106E+01 1.11499E+02-1.61902E+01 3.52483E+03
 -1       847 2.56029E+04-1.25596E+00-1.99636E+01 1.24763E+02-8.00944E+00 4.00218E+03
 -1       848 3.85782E+04-5.49888E+01-4.16610E+01 1.48878E+02 4.84848E+01 3.46308E+03
 -1       849 3.33628E+04-3.04161E+01-1.61099E+01 1.31240E+02-3.07256E+00 3.26572E+03
 -1       850 3.51297E+04 2.61831E+00 2.07042E+01 1.05669E+02-3.93683E+00 3.39800E+03
 -1       851 3.59205E+04-9.81885E+00-2.75427E+01 1.13218E+02-1.75185E+01 3.43379E+03
 -1       852 3.78091E+04 1.11392E+01-4.15736E+00 1.27191E+02-8.81582E+00 3.40604E+03
 -1       853 2.24055E+04 1.36415E+01 1.54831E+00 1.34718E+02 7.34532E+00 3.85018E+03
 -1       854 1.28284E+04-3.66433E+01 1.73214E+02 1.23093E+02-8.18681E+01 3.48308E+03
 -1       855 1.26802E+04 4.73266E+01 2.58774E-01 3.59136E+01-7.21893E+01 3.69819E+03
 -1       856 2.92441E+04 1.46019E+01 6.80722E+01 1.52825E+02-3.27907E+01 3.88657E+03
 -1       857 1.18560E+04-3.83021E+01 1.83761E+01 4.94295E+01-1.50602E+01 3.71982E+03
 -1       858 1.15246E+04-1.50967E+01 9.01712E+01 8.29751E+01 2.14400E-02 3.76111E+03
 -1       859 2.37799E+04-3.40421E+01-2.19857E+01 1.20138E+02 9.75078E-01 2.94918E+03
 -1       860 2.54105E+04 6.89095E+00 2.74477E+01 6.70909E+01 2.66312E+00 3.06707E+03
 -1       861 2.61405E+04-9.13337E+00-2.71482E+01 1.01824E+02 9.67667E+00 3.11363E+03
 -1       862 2.77351E+04 1.81362E+01-1.92505E+01 6.45224E+01 9.11981E+00 3.16228E+03
 -1       863 1.61980E+04 2.38353E+01 1.21620E+01 1.12624E+02 1.42827E+01 3.50113E+03
 -1       864 1.93455E+04-1.21407E+01-2.80276E+01 6.49476E+01-1.30400E+01 2.83728E+03
 -1       865 2.08273E+04 2.07921E+01-2.32741E+01 8.08120E+01-1.61532E+01 2.86341E+03
 -1       866 1.86853E+04-2.93713E+01-1.14673E+01 7.83410E+01 9.28017E+00 2.79991E+03
 -1       867 1.18774E+04-2.76502E+01 8.54954E+00 7.29318E+01-7.75658E+00 3.18389E+03
 -1       868 1.73378E+04-1.72828E+01-2.75121E+01 8.07329E+01 6.69425E+00 2.71578E+03
 -1       869 3.09054E+04-1.17703E+01-3.61013E+01 9.30416E+01 3.65916E+01 3.31592E+03
 -1       870 3.26828E+04 4.72693E+01 3.59072E+01 1.24181E+02-5.35526E+01 3.34997E+03
 -1       871 2.84832E+04 1.82704E+01-3.96754E+01 1.00831E+02-9.28306E+00 3.22765E+03
 -1       872 3.01243E+04 1.20386E+01-1.69732E+01 9.81477E+01-8.07687E+00 3.22322E+03
 -1       873 1.91806E+04-4.25009E+00-4.34700E+01 7.84213E+01 1.15131E+01 3.66694E+03
 -1       874 1.45897E+04 1.00402E+02 1.05243E+03 2.01369E+02-4.48239E+02 2.17370E+03
 -1       875 1.40830E+04-3.52117E+01 3.96963E+02 2.36293E+02-3.26432E+02 3.01278E+03
 -1       876 1.48022E+04 7.75577E+01 1.57584E+03 3.07744E+02-6.82948E+02 1.53274E+03
 -1       877 3.26318E+04-2.05163E+02 1.46905E+03 6.21770E+01-7.69373E+02 2.46891E+03
 -1       878 6.66091E+03 9.41512E+02 3.46318E+03 4.35209E+02-1.02738E+03-2.63646E+02
 -1       879 2.39910E+04 5.10047E+02 2.72756E+03 4.78171E+02-1.08425E+03 1.85257E+02
 -1       880 4.66105E+04-3.07554E+01-4.06917E+01 1.22389E+02-6.44340E+01 3.45132E+03
 -1       881 4.83470E+04 7.29011E+01 2.45223E+01 4.10293E+01-8.42929E+01 3.31297E+03
 -1       882 4.92061E+04 3.96949E+01 2.28280E+02-4.13924E+01-2.94986E+02 2.92239E+03
 -1       883 3.11702E+04-2.05673E+01 1.71908E+02 1.32773E+02-3.30328E+02 3.56714E+03
 -1       884 5.07165E+04-4.82263E+01 4.97730E+02-7.85829E+01-5.00884E+02 2.42723E+03
 -1       885-6.99344E+02-9.86881E+00-5.98826E+01-5.57901E+00 6.42129E+00-3.34028E+02
 -1       886-8.68112E+02-1.08899E+01-5.56378E+01-3.58758E+00 9.16131E+00-2.11476E+02
 -1       887-6.68290E+02-1.37543E+01-7.87499E+01-1.21911E+00 6.96632E+00-4.62284E+02
 -1       888-5.29904E+02-1.31943E+01-3.28349E+01 1.26938E+01 2.13220E+00-4.27989E+02
 -1       889-6.31006E+02-3.09198E+01-1.09239E+02 1.36721E+01-4.96363E+00-5.04714E+02
 -1       890-4.83139E+02-2.38094E+01-5.86085E+01 9.40014E+00-6.67521E+00-5.93651E+02
 -1       891 1.33830E+04 9.33304E+00-2.93110E+01 1.07065E+02-1.69216E+01 2.50417E+03
 -1       892 1.47170E+04 1.27538E+01-1.02884E+01 1.13521E+02-1.13125E+01 2.50301E+03
 -1       893 1.52364E+04-3.62339E+01-7.98681E+01 9.62121E+01 5.67168E+01 2.64012E+03
 -1       894 1.66941E+04 5.54061E-01-4.30433E+01 7.81321E+01-8.07870E+00 2.68302E+03
 -1       895 9.37405E+03 7.57356E+00-6.13549E+01 6.16689E+01 2.25396E+01 2.89923E+03
 -1       896-8.94299E+02-8.32088E+00-4.71593E+01 5.87312E-01 9.67816E+00-7.55296E+01
 -1       897-8.82751E+02-1.54503E+01-4.54619E+01-8.03518E-01 6.32609E+00 4.16727E+01
 -1       898-8.68725E+02-6.26684E+00-4.71766E+01 7.10342E+00 7.52256E+00 1.64872E+02
 -1       899-7.55265E+02-7.85947E+00-4.89967E+01 1.09522E+01 7.36710E+00 2.82271E+02
 -1       900-6.01644E+02-1.79528E+01-2.34337E+01 9.19811E-01 5.09861E+00 1.19692E+02
 -1       901 9.57529E+03-2.29935E+01 3.71675E+01 2.49171E+00 1.96551E+01 3.60634E+03
 -1       902 9.76500E+03 3.02220E+01 1.96174E+01 4.13102E+01-1.99391E+01 3.57402E+03
 -1       903 1.00545E+04-1.18209E+01-8.44503E+01 5.56940E+01-7.26146E+00 3.71792E+03
 -1       904 1.03517E+04 1.53719E+01-3.77111E+01 2.81453E+01-9.38098E+00 3.65077E+03
 -1       905 2.40727E+04-1.78550E+01-6.77662E+01 1.36565E+02-2.48503E+01 3.81004E+03
 -1       906 6.31202E+03-4.85540E+01-6.47936E+01 4.76787E+01 1.54598E+01 3.23994E+03
 -1       907 6.30305E+03-2.44168E+01-3.90430E+01 6.68822E+01 4.34984E+01 3.11868E+03
 -1       908 5.96371E+03 4.84313E+01 6.52209E+01 1.43764E+02 2.13407E+01 3.01024E+03
 -1       909 5.82541E+03 4.94769E+01 2.49586E+01 8.24196E+01-1.75249E+01 3.03470E+03
 -1       910 1.48817E+04-2.15828E+01 5.58154E+01 1.01200E+02-1.13734E+01 3.28723E+03
 -1       911 3.88413E+03-2.13903E+01-5.22291E+01 4.84666E+01 1.26034E+01 2.72985E+03
 -1       912 4.16231E+03 4.32296E+01-4.81721E+00 1.52346E+01-1.08790E+01 2.73178E+03
 -1       913 4.64541E+03 1.14791E+01 3.67306E+01 3.06789E+01-2.46389E+01 2.80883E+03
 -1       914 1.06328E+04-1.87760E+01-1.07429E+01 6.72644E+01-7.18029E+00 3.04241E+03
 -1       915 4.40802E+03-3.36170E+01-1.42431E+01-1.20025E+01 1.83693E+01 2.91838E+03
 -1       916 8.47082E+03 5.84116E+01 6.94829E+01 1.64078E+02 2.06311E+01 3.34816E+03
 -1       917 8.51893E+03 7.39333E+01 2.96892E+01 8.08635E+01-3.16569E+01 3.39454E+03
 -1       918 8.91696E+03-3.28527E+01-5.74965E+01 6.31476E+01 1.39147E+01 3.57442E+03
 -1       919 8.83414E+03-1.81545E+01-4.13489E+01 7.71974E+01 4.48179E+01 3.44719E+03
 -1       920 2.09312E+04-2.12726E+01 5.26837E+01 1.08975E+02-1.59236E+01 3.64767E+03
 -1       921 7.02143E+03-3.69048E+01-6.93145E+00-1.00048E+00 1.34067E+01 3.30944E+03
 -1       922 7.09491E+03 1.50914E+01 9.21146E+00 2.23908E+01-1.65926E+01 3.25214E+03
 -1       923 7.49352E+03-4.98359E+00-2.93597E+01 7.00887E+01 3.95739E+01 3.34910E+03
 -1       924 7.73741E+03 2.40558E+01 1.15550E+01 6.86124E+00-1.62707E+01 3.32933E+03
 -1       925 1.77445E+04 4.29960E+01-2.42521E+01 6.80132E+01 1.33816E+01 3.59065E+03
 -1       926 4.11746E+04-3.32345E+02 3.01520E+03 1.05717E+01-1.15544E+03 1.21274E+03
 -1       927 5.89473E+04-1.15877E+03 8.74086E+02-4.40768E+02-1.26987E+03 1.06421E+03
 -1       928 5.05329E+04-4.40668E+02 1.13660E+03-3.92089E+02-7.07104E+02 1.94368E+03
 -1       929-3.75878E+02-1.28568E+01-1.50386E+01 2.07585E+00-1.09524E+01-6.15251E+02
 -1       930-2.76860E+02-2.63728E+01 4.76037E+01-1.36372E+01-8.09705E-01-5.22253E+02
 -1       931-3.21816E+02-7.35523E+00 2.29794E+01 6.95290E+00 1.22750E+01-4.67656E+02
 -1       932 7.18348E+02-1.85092E+01 8.31592E+00 3.94795E-01 7.70830E+00 1.59963E+03
 -1       933 8.32917E+02-1.31458E+01 6.20061E+00 7.86502E+00-8.05363E-01 1.48515E+03
 -1       934 1.07793E+03-1.13013E+01 9.79662E+00 7.11952E+00 1.34519E+01 1.77254E+03
 -1       935 1.09704E+03 8.17823E+00 1.43273E+01-1.75977E+00-1.70434E+01 1.69985E+03
 -1       936 9.04121E+00-1.57255E+01-2.03509E+00 3.21722E+01 1.01604E+01 1.00119E+03
 -1       937 5.59832E+01-6.75892E+00-3.46585E+00 8.16430E+00 2.22243E+00 8.76022E+02
 -1       938-1.33916E+02-1.81472E+01 9.29111E+00 1.15926E+01 4.78461E+00 7.75257E+02
 -1       939-1.33875E+02-1.65206E+01 1.71849E+01 1.64667E+01 9.04412E+00 6.62935E+02
 -1       940 2.12655E+03-1.43590E+01 2.56551E+01-1.23312E+01 1.64167E+01 2.25297E+03
 -1       941 2.24569E+03-5.64885E+01-2.74429E+01 7.12993E+01-3.56640E+00 2.12747E+03
 -1       942 2.66281E+03-3.11338E+01 1.75307E+01 1.06181E+01-4.23519E+00 2.39767E+03
 -1       943 2.69450E+03-3.11019E+00 5.96030E+01 1.83952E+01-1.79947E+01 2.36999E+03
 -1       944 6.65766E+03-3.19958E+01-5.13449E+01 8.08012E+01 2.99660E+01 1.92337E+03
 -1       945 7.67995E+03-2.18493E+01-1.77311E+01 6.32599E+01-6.93257E+00 2.00965E+03
 -1       946 5.22576E+03-1.80094E+01-3.14843E+01 3.69179E+01 7.06298E+00 1.78811E+03
 -1       947 6.23720E+03 1.49864E+00-1.59826E+01 6.96531E+01-7.27453E-01 1.83560E+03
 -1       948 1.84335E+03-1.43956E+01-4.12687E+01 3.00106E+01-1.92249E+00 1.24210E+03
 -1       949 2.52764E+03 6.50545E+00-1.73727E+01 3.12644E+01-3.44189E+00 1.32828E+03
 -1       950 9.71151E+02-1.21742E+01-5.91096E+01 3.25731E+01 1.45954E+01 1.05375E+03
 -1       951 1.55248E+03-1.28280E+01-4.30346E+01 4.53808E+01 1.24930E+01 1.16191E+03
 -1       952 4.40915E+04 2.47625E+01-6.43167E+01 1.28462E+02 5.78115E+00 3.58065E+03
 -1       953 4.58167E+04 3.99256E+01 8.00441E+00 1.27291E+02-7.72936E+01 3.50318E+03
 -1       954 2.74793E+04 3.36152E+00-3.19400E+00 1.09359E+02 4.41019E+00 4.03331E+03
 -1       955 1.08279E+04 2.58239E+01-3.91409E+01-1.50953E+00-3.75983E+01 3.65519E+03
 -1       956 1.06930E+04 6.43505E+01 2.98750E+01 1.35156E+02 6.84081E+00 3.65764E+03
 -1       957 1.64188E+03 2.71540E+00-9.62647E+00 4.15928E+01 1.00956E+01 1.57240E+03
 -1       958 1.15139E+04-2.47927E+01-4.01790E+01 1.01451E+02 6.40506E+00 2.34084E+03
 -1       959 1.28011E+04 6.34584E-01-2.51817E+01 7.19837E+01 1.12502E+00 2.43731E+03
 -1       960 4.93853E+03-4.67005E+00-4.80821E+00 7.57029E+01-2.68683E+00 2.32029E+03
 -1       961 2.15973E+04-1.35919E+01-4.17187E+01 8.32094E+01 3.31422E+01 2.96867E+03
 -1       962 2.31472E+04 4.02591E+01 2.73757E+01 1.16556E+02-4.97537E+01 3.00661E+03
 -1       963 1.32158E+04-6.61709E+00-4.78125E+01 7.83568E+01 1.36735E+01 3.28264E+03
 -1       964 4.89888E+03-1.47887E+00-1.97773E+01 4.87289E+01 3.65519E+01 2.97262E+03
 -1       965 5.05680E+03 2.64196E+01 2.48453E+01-9.20201E+00-1.57881E+01 2.97780E+03
 -1       966 4.69809E+02-2.34519E+01-2.64416E+01 3.27262E+01-2.25397E+00 1.12986E+03
 -1       967-6.65796E+02-8.38405E+00-4.93506E+01 1.53133E+01 3.41846E+00 4.11132E+02
 -1       968-4.14613E+02-4.21735E+00-4.26139E+01 1.58750E+01 1.06365E+00 5.15286E+02
 -1       969-2.63488E+02-1.87680E+01-3.04406E+01 1.29610E+01 8.62381E+00 6.51303E+02
 -1       970 7.08023E+03 1.02089E+01 4.52488E+01 9.42306E+01 1.83527E+01 2.55624E+03
 -1       971 3.15817E+03-2.77833E+01-1.39847E+01 4.80995E+01 3.62048E+00 1.95521E+03
 -1       972 4.84535E+02 7.28620E+00-3.83246E+01 1.13204E+01-2.01158E+00 1.43633E+03
 -1       973 1.46840E+02 1.92838E+01-3.64133E+01 2.24567E+01-3.56447E+00 7.04614E+02
 -1       974 1.16500E+03 2.18143E+00 7.61420E+01-4.56475E-01-6.97422E+00-1.17125E+02
 -1       975 1.16267E+03 3.17550E+00-2.47097E+01 2.56944E+01-5.08334E+00 2.00897E+03
 -1       976 6.86565E+02 1.94218E+01-2.81346E+01-2.20518E+00 4.65891E+00 1.74867E+03
 -1       977 3.25249E+02-7.98134E+00-4.53187E+01 4.20340E+01-1.65081E+01 1.05292E+03
 -1       978 9.20382E+02-2.81508E+00 7.16389E+01 9.94769E+00-2.37995E+00 3.04038E+02
 -1       979-1.79250E+04 7.81439E-01 3.18482E+01 7.79129E+01-3.47214E+00 2.11204E+03
 -1       980 4.39816E+03 2.14331E+01-3.31318E+01 9.22621E-01 1.64289E+00 3.27464E+03
 -1       981 3.75879E+03 2.84020E+01-4.13693E+01 5.63376E+01 1.84889E+00 3.09998E+03
 -1       982-6.30462E+04-1.98289E+01 4.87238E+01 2.88839E+01 2.26729E+01 2.92737E+03
 -1       983 2.73147E+03 2.79842E+01-2.65758E+01 5.06741E+01 6.34436E+00 2.82142E+03
 -1       984 2.04088E+03 6.09189E-01-2.06043E+01 8.77882E+01-3.02782E+00 2.51217E+03
 -1       985 3.41398E+03-1.25019E+01-1.15869E+01 4.85288E+01-6.71043E+00 2.99399E+03
 -1       986-6.86378E+04 4.91701E+02 3.10204E+02-5.81452E+02 5.18172E+02 1.78469E+03
 -1       987 4.10509E+03 3.79921E+01-3.32384E+02 2.28193E+02 1.19427E+02 2.91040E+03
 -1       988 1.34556E+02 1.71378E+01-8.22874E+01-3.19080E+00-2.23239E+00-3.68786E+02
 -1       989-3.71334E+03-1.34584E+00 4.54763E+01 2.55639E+01-9.10612E+00 1.16912E+03
 -1       990 1.60618E+03 4.33473E+01-2.45903E+01-8.79712E-01 6.18790E+00 2.41032E+03
 -1       991 4.07795E+01 2.03305E+01-5.05271E+01 4.95443E+00-2.39751E+00 9.05134E+01
 -1       992-1.09022E+04 6.05351E+00 6.09873E+01 2.73180E+01 5.37707E+00 1.74695E+03
 -1       993-1.21766E+03-8.09216E-01 6.49541E+01 1.49903E+01-6.64077E+00 8.55636E+02
 -1       994-6.92430E+03-2.36073E+00 4.68095E+01 4.12804E+01 3.01725E+00 1.49711E+03
 -1       995-5.22197E+04 3.01505E+00-1.16319E+01 1.19006E+02-6.43052E+00 2.92033E+03
 -1       996-3.21019E+04 7.62099E+00 5.08315E+01 9.52783E+01 1.81945E+01 2.52798E+03
 -1       997-2.34978E+04-2.39367E-01 5.25224E+01 4.18548E+01-1.62517E+00 2.27536E+03
 -1       998-4.52038E+04-3.28650E+00 3.93045E+01 1.14899E+02 1.72568E+01 2.82261E+03
 -1       999-3.85108E+04 4.08864E+00-3.66241E+00 5.29336E+01-7.65793E+00 2.71195E+03
 -1      1000-1.60943E+04 1.60680E+03-3.25984E+03 1.84645E+02 8.08996E+02-1.18466E+03
 -1      1001 3.77516E+02 6.68546E+01 6.52403E+01 1.12786E+01 6.30711E-02-6.63495E+02
 -1      1002-6.65031E+04-8.58382E+00 1.23702E+02-8.80699E+01 1.13666E+02 2.64211E+03
 -1      1003 4.87727E+03-6.69997E+01-4.86347E+01 1.05183E+02-5.16163E+00 3.24080E+03
 -1      1004 4.76197E+03 1.38653E+00-3.20723E+01 4.35591E+01 1.12172E+01 3.28360E+03
 -1      1005-2.67231E+04 8.93156E+00 4.29507E+01 9.81285E+01 5.81487E-01 3.97433E+03
 -1      1006 5.26575E+01 8.77051E+00-5.65679E+01 7.36081E+00-2.03414E+00-1.37945E+02
 -1      1007 3.67385E+02 2.01300E+01-3.96330E+01 1.75841E+01-1.37644E+00 1.27184E+03
 -1      1008-2.79918E+02 8.36081E+00 6.08256E+01 1.25180E+01-4.40976E+00 6.61556E+02
 -1      1009-1.30862E+04-7.06945E+00 2.86489E+01 5.58313E+01-1.50328E+01 1.91500E+03
 -1      1010-2.06077E+04 1.03728E+01 1.78413E+01 9.71623E+01-4.28077E+00 2.18019E+03
 -1      1011 1.41650E+03 2.03330E+01-4.23533E+01 2.97399E+01-2.17095E+00 2.25279E+03
 -1      1012 9.28422E+02 9.05857E+00-1.85839E+01 3.09234E+01 1.78727E+00 1.93331E+03
 -1      1013-1.54687E+04 5.42085E-01 4.29685E+01 8.16634E+01-2.61889E+00 1.98751E+03
 -1      1014 3.67746E+03-6.61728E+01-5.50372E+01 9.53909E+01-4.80327E+01 2.93485E+03
 -1      1015 2.59524E+03-6.96974E+01-5.26240E+01 1.24594E+02-4.50303E+01 2.65433E+03
 -1      1016 2.27391E+03 7.10775E+00-3.19069E+01 3.05117E+01-6.76888E+00 2.70542E+03
 -1      1017-1.29164E+04 1.37660E+01-3.59176E+01 1.05661E+02 1.54577E+01 3.19253E+03
 -1      1018-3.53164E+04-7.28734E-01 1.69779E+01 7.78179E+01-1.04914E+01 2.68055E+03
 -1      1019-8.85777E+03 3.70998E+00 3.51177E+01 3.91254E+01-1.23405E+01 1.58489E+03
 -1      1020 2.51010E+02 4.66235E+00-3.19766E+01 1.73556E+01-3.66978E+00 9.29453E+02
 -1      1021 2.01870E+03 9.08690E-01-2.86442E+01 7.89267E+00-1.64378E+00 2.44023E+03
 -1      1022 1.16199E+03 4.65733E+00 6.92233E+01-2.39315E+00-5.23804E+00 9.27906E+01
 -1      1023 7.02930E+01 1.17456E+01-5.35430E+01 6.87680E-01-2.44527E+00 3.19711E+02
 -1      1024-4.17731E+04 5.40607E+00 1.54366E+01 5.24583E+01-7.77261E+00 2.76053E+03
 -1      1025-4.87116E+04-6.86474E+00-4.24327E+00 1.05452E+02-9.72889E-01 2.94666E+03
 -1      1026 7.96969E+01 1.02352E+01-4.20918E+01 2.11798E+01-1.79311E+00 5.30299E+02
 -1      1027-5.23649E+03-2.57978E+00 5.14707E+01 2.85447E+01-6.08384E+00 1.35440E+03
 -1      1028 4.01454E+03 2.77696E+01-1.17369E+01-4.86418E+00 1.56215E+01 3.14569E+03
 -1      1029 1.37727E+03-7.77331E+00-3.82471E+01 1.84142E+01-1.19802E+01 2.09561E+03
 -1      1030 2.95351E+03 5.75134E+01-1.91171E+01 2.37817E+00 1.33536E+01 2.97126E+03
 -1      1031 4.39457E+02 7.86892E-01 6.13013E+01 1.61968E+01-8.80330E+00 4.77571E+02
 -1      1032 6.05194E+02 1.49984E+01-4.93316E+01 1.54570E+01-5.94961E+00 1.59436E+03
 -1      1033-2.35911E+03-4.19016E+00 6.05044E+01 2.31068E+01 2.25596E+00 1.04379E+03
 -1      1034-3.17707E+04 1.39238E+02-4.94019E+02 1.08965E+02 5.47933E+02 3.00475E+03
 -1      1035-3.01129E+04-3.27809E+01-2.81217E+01 1.80428E+02 1.30532E+02 3.85379E+03
 -1      1036-5.62920E+04-6.24103E+00 7.25402E+01 6.49044E+01 1.48283E+01 2.97123E+03
 -1      1037-5.37666E+04 6.35444E+03-1.97753E+03-6.57379E+02 7.12694E+02 8.09328E+02
 -1      1038-2.93279E+04 6.10835E+00 1.54378E+00 4.91906E+01 7.00471E+00 2.44210E+03
 -1      1039-1.14355E+04-1.05272E+01 2.60320E+01 9.48082E+01-1.84891E+01 3.08215E+03
 -1      1040 5.60388E+02 1.61808E+01 2.10604E+01-3.69149E+00-6.28254E+00-2.95739E+02
 -1      1041-6.00327E+04 3.51379E+00 1.45032E+01 6.07108E+01 5.11589E+00 3.01986E+03
 -1      1042 6.17661E+02 1.22124E+01 2.47389E+01-8.31786E+00-4.75419E+00-1.61881E+01
 -1      1043-2.48598E+04-1.63023E+01 4.03808E+01 9.09139E+01 1.50090E+01 3.95656E+03
 -1      1044-2.72665E+02 1.07228E+01 2.11640E+01 3.72505E+01 1.76899E+00 1.00994E+03
 -1      1045 1.16121E+02 6.10892E+00 1.94522E+01 2.12691E+01-1.12152E+01 7.73826E+02
 -1      1046-1.33886E+03 1.00971E+01-4.52419E+00 3.12090E+01-1.30731E+01 1.45382E+03
 -1      1047 5.58283E+02 9.94466E+00 1.66706E+01 1.55436E+01-6.45816E+00 2.48375E+02
 -1      1048-4.47470E+03-6.99743E+00 2.31151E+01 5.31956E+01 5.02918E+00 2.24841E+03
 -1      1049-7.64162E+03-8.00542E+00 5.97826E+00 1.03710E+02 7.83400E+00 2.65608E+03
 -1      1050-3.57711E+03 1.52813E+01 9.68870E+00 7.82013E+01-1.15828E+01 2.01769E+03
 -1      1051-2.73254E+03-8.23889E-01 8.82046E+00 4.09839E+01 4.90428E-02 1.85676E+03
 -1      1052 3.85357E+02 1.67656E+01 2.25019E+01 1.02216E+01-4.06167E+00 5.17274E+02
 -1      1053-8.17659E+02 9.77067E+00 1.83469E+01 3.67222E+01-4.44439E+00 1.22684E+03
 -1      1054-1.00763E+04-9.96151E+00 5.16733E+01 7.30954E+01-8.23598E+00 2.98263E+03
 -1      1055-2.32084E+04 2.07339E+01-1.15947E+01 1.32333E+02-1.73712E+01 3.78742E+03
 -1      1056-2.16018E+04-5.28855E+00-7.16168E+00 1.24841E+02 1.18188E+01 3.72710E+03
 -1      1057-6.61512E+03 1.96127E+01 3.51541E+00 7.46286E+01-2.38563E+01 2.51854E+03
 -1      1058-1.84390E+04-1.21408E+01 1.87179E+01 7.30993E+01-5.13461E+00 3.60073E+03
 -1      1059-1.69335E+04-7.52139E+00 1.17709E+01 8.13818E+01-1.82975E+00 3.51364E+03
 -1      1060-2.02152E+04-2.80225E+00-2.40660E+01 1.03658E+02-1.71234E+01 3.67405E+03
 -1      1061-5.47170E+03 7.73403E-01 2.32944E+01 5.92843E+01-6.71812E+00 2.37832E+03
 -1      1062-1.97677E+03 7.26929E+00 1.65740E+01 3.72676E+01 8.61016E-01 1.66601E+03
 -1      1063-1.54991E+04-4.93791E+00-2.88679E+00 1.13199E+02 2.01520E+00 3.38099E+03
 -1      1064-8.81003E+03 1.40697E+01-3.88037E+00 9.75722E+01-1.23359E+01 2.78126E+03
 -1      1065-1.42393E+04 1.01142E+01-1.27423E+01 1.03029E+02-1.87161E+01 3.30397E+03
 -1      1066-2.64168E+04-5.76978E+00 7.08534E+01 4.70353E+01-8.30159E-01 2.36500E+03
 -1      1067-2.84660E+04 3.67111E+01-5.55890E+00 1.31841E+02 2.75975E+00 3.95559E+03
 -1      1068 3.16944E+02 7.28941E+01-2.71417E+01 2.05167E+01-3.73893E+00-6.78342E+02
 -1      1069 2.97923E+03-4.82608E+02-1.44155E+03 5.70442E+02 3.76667E+02 1.30291E+03
 -1      1070 8.43787E+02 3.81588E+00 1.05061E+02 3.99438E-01-3.31854E+00-3.44477E+02
 -1      1071-3.33654E+04 2.63977E+02-1.98883E+03-2.32760E+01 8.79899E+02 1.96053E+03
 -1      1072-8.50006E+04 5.80209E+03 6.88812E+02-4.87811E+02 7.05335E+02 1.72541E+03
 -1      1073 1.70197E+04-1.35935E+03-3.28610E+03-1.03944E+02 4.60206E+02-2.32059E+03
 -1      1074 1.84871E+02 3.57967E+01-7.86915E+01 7.20883E+00-1.05304E+01-4.30449E+02
 -1      1075 4.70415E+02 6.71152E+01 1.27215E+02 2.07603E+01-1.52656E+01-3.93199E+02
 -1      1076 4.41337E+02 2.55886E+01 2.20420E+01-9.73078E+00 1.00938E+00-5.32432E+02
 -1      1077-1.12911E+05-1.27496E+04-1.61628E+04 1.17390E+04-2.35470E+03 8.52194E+03
 -1      1078-8.32952E+04-4.06344E+03-1.32718E+04 9.40447E+03 8.06710E+02-3.95725E+02
 -1      1079-9.27239E+04 2.40153E+03 2.14506E+03-1.59368E+03 9.24207E+02-9.83410E+02
 -1      1080 1.43484E+04 1.27463E+03-1.61201E+02-3.34048E+03 3.61450E+02-5.78079E+03
 -1      1081 3.76505E+04 6.19894E+03 4.33347E+03-7.16308E+03-4.12401E+02-1.99357E+03
 -1      1082 2.90156E+04-1.11305E+03-2.14160E+03 4.38581E+02 3.59067E+02-2.75108E+03
 -1      1083 2.91383E+02 5.64652E+01-1.27488E+02-3.48835E+01-2.47839E+01-5.31692E+02
 -1      1084 3.91961E+02 1.79016E+01-5.09735E+00-1.39575E+01-3.13506E+01-2.93911E+02
 -1      1085 9.02256E+02-9.71617E-02 8.38373E+01 2.74868E+01 6.00693E+00-1.62492E+02
 -1      1086 7.93391E+01-1.87558E+01 3.62686E+01-3.77545E+01-7.15169E+00-3.33534E+02
 -1      1087 2.25495E+02-1.62307E+01 1.50618E+02-7.78265E+00-1.42300E+01-5.79820E+02
 -1      1088-1.36138E+02 2.92146E+01-7.60155E+01 4.41994E+00 1.50325E+01-1.74450E+02
 -1      1089-2.75716E+04-4.79979E+03-9.32015E+03 3.37172E+03 9.17443E+02-5.34346E+03
 -1      1090-2.92080E+03 3.44504E+03 2.95917E+02-2.03301E+03 1.03244E+03-5.78965E+03
 -1      1091 1.92579E+02-8.00428E+01-2.86537E+03-1.99970E+02 6.02930E+02-2.49635E+03
 -1      1092-7.03471E+04-9.87989E+03-1.71249E+04 9.29512E+03 1.33727E+03-1.42849E+03
 -1      1093-4.63398E+04-1.76817E+03-8.52623E+03 3.72581E+03 1.11213E+03-4.33492E+03
 -1      1094-3.46827E+04 3.61008E+03-4.01590E+03-6.15786E+02 4.78458E+02-5.90859E+02
 -1      1095-7.02900E+04 6.73463E+03-2.26568E+03-7.47270E+02 1.67674E+02 1.21558E+03
 -1      1096 2.21466E+02 1.39726E+01 1.63867E+02-2.74880E+01 5.21648E+00-6.40148E+02
 -1      1097 2.40405E+02 1.62557E+00 3.33604E-01-2.14505E+01 8.49220E+00-6.63034E+02
 -1      1098 2.50628E+02 7.47823E+01-3.94259E-02 4.98891E+00-1.44550E+01-5.70305E+02
 -1      1099 2.65863E+02 3.45240E+01 4.00818E+01-2.90470E+01 2.56692E+00-6.51506E+02
 -1      1100 3.04784E+02 3.10145E+01-9.26557E+01-8.73691E+00-3.41866E+00-6.18322E+02
 -1      1101 3.52942E+02 7.04348E+01 4.16229E+01 1.98735E+01-6.90473E+00-6.90385E+02
 -1      1102 4.23014E+02 6.45905E+01 8.47955E+01 1.89637E+01-3.72456E+00-5.49870E+02
 -1      1103 2.16302E+04-4.69171E+02-1.25894E+03-1.51779E+01 1.25183E+02-4.87493E+02
 -1      1104 2.26636E+04-4.35442E+02-5.97174E+02 4.22516E+02 1.22661E+02 7.95304E+02
 -1      1105 8.63550E+03-1.23425E+01-2.50755E+03 4.47572E+02 5.88646E+02-1.10778E+03
 -1      1106 2.31691E+04-1.96940E+01-2.66305E+02 1.39831E+02 1.21081E+02 1.44192E+03
 -1      1107 2.26787E+04 2.83749E+01-1.63663E+02 2.97618E+02 5.30542E+01 1.72306E+03
 -1      1108 3.54561E+03-3.14217E+01-7.10177E+02 2.13460E+02 1.17189E+02 2.23544E+03
 -1      1109 2.29166E+04-5.27465E+01-1.13262E+01 2.15843E+02-2.34465E+01 1.85536E+03
 -1      1110 2.18743E+04-1.13638E+02-5.88299E+01 1.10160E+02-3.64760E+00 1.87372E+03
 -1      1111 4.66078E+03 4.82905E+01-1.30676E+02 2.23333E+02 6.84827E+00 3.18043E+03
 -1      1112 2.17810E+04 2.21278E+01-4.68640E+01 5.20761E+01-2.11960E+01 1.92511E+03
 -1      1113 2.08679E+04-1.97299E+01 1.60225E+01 2.80539E+01 7.66280E+00 1.88514E+03
 -1      1114 4.85182E+03 3.04751E+01-5.73090E+01 4.96412E+01 5.29101E+01 3.30068E+03
 -1      1115 2.04760E+04 2.54142E+01-5.14335E+01 4.06533E+01-1.05832E+01 1.87144E+03
 -1      1116 1.95460E+04-1.11360E+01-3.54270E+00 3.70082E+01 5.63830E+00 1.85526E+03
 -1      1117 4.71444E+03 5.68461E+01-3.23213E+01 1.37983E+01 5.20073E+01 3.25392E+03
 -1      1118 1.91786E+04 4.21410E+01-3.27341E+01 1.58213E+01 3.37781E+00 1.80991E+03
 -1      1119 1.81718E+04 5.07007E+01 9.69251E+00 1.23675E+02 1.65184E+01 1.79257E+03
 -1      1120 4.34428E+03 6.46143E+01 6.73267E+01-1.44589E+01-1.31981E+01 3.18489E+03
 -1      1121 1.79569E+04 1.82349E+01-7.45446E-03 1.48025E+02-2.32897E+00 1.75509E+03
 -1      1122 1.68868E+04 2.51587E+01-3.16872E+01 1.74776E+02-2.02469E+01 1.78572E+03
 -1      1123 4.01572E+03 3.04327E+01-2.17226E+01 4.51399E+01-9.01981E+00 3.17979E+03
 -1      1124 1.67702E+04-7.96768E+01 8.34543E+00 1.69380E+02-5.07496E+01 1.72096E+03
 -1      1125 1.56384E+04-5.30745E+01-6.18067E-02 1.92185E+01-9.39567E+00 1.72892E+03
 -1      1126 3.78969E+03 5.39778E+00 1.27171E+01 1.31157E+02-6.15231E+01 3.08971E+03
 -1      1127 1.54128E+04-1.28378E+00-7.23685E+00 5.74162E+01-9.18754E+00 1.74293E+03
 -1      1128 1.45414E+04-7.55929E+00 3.19341E+01 3.00619E+01-7.20250E-01 1.73455E+03
 -1      1129 3.28709E+03-9.89703E+01-1.47535E+02 1.82523E+01-6.23462E+00 3.00281E+03
 -1      1130 1.42966E+04 8.81446E+01 2.79030E+01 7.08444E+01 2.09659E+01 1.68047E+03
 -1      1131 1.32999E+04 4.20717E+01-1.38981E+01 1.36982E+02-3.98672E+00 1.69164E+03
 -1      1132 3.12377E+03-2.24083E+01-7.19825E+01-8.95491E+00 1.82119E+01 2.96413E+03
 -1      1133 1.31412E+04 9.71921E+00 4.00436E+00 1.27322E+02-4.01886E-01 1.60570E+03
 -1      1134 1.21325E+04 2.35602E+01-2.77521E+01 1.55369E+02-1.34836E+01 1.62365E+03
 -1      1135 2.86189E+03 3.68663E+01-1.91469E+01 6.10007E+01-1.17757E+01 2.93195E+03
 -1      1136 1.20263E+04-5.42048E+01 3.38802E+01 1.74623E+02-4.04862E+01 1.58226E+03
 -1      1137 1.09158E+04-9.38434E+01-6.55196E+01 5.86492E+01-2.52934E+01 1.56871E+03
 -1      1138 2.81103E+03 1.24482E+01 1.99839E+01 1.29135E+02-5.52890E+01 2.80690E+03
 -1      1139 1.08070E+04 2.68597E+01-5.05239E+01 4.63365E+01-1.29398E+01 1.57062E+03
 -1      1140 1.00449E+04-1.56917E+01-8.47520E+00 3.42797E+01 4.13301E+00 1.53732E+03
 -1      1141 2.37405E+03-3.99281E+00-8.49380E+01 6.29262E+01 6.96737E+00 2.70930E+03
 -1      1142 9.73517E+03 3.57754E+00-3.64869E+01-2.81249E+00-1.24726E+01 1.50807E+03
 -1      1143 8.97368E+03 1.45224E+01 6.61829E+00 8.48454E+00-1.36776E+00 1.47300E+03
 -1      1144 2.35076E+03 8.12265E+01 8.43513E+01 2.34970E+01-2.13940E+01 2.60397E+03
 -1      1145 8.75018E+03 7.81056E+00-5.91661E+01 1.62921E+01-1.86915E+01 1.41793E+03
 -1      1146 8.04132E+03-4.29518E+00 2.76634E+01 1.01634E+00 1.16828E+01 1.39548E+03
 -1      1147 1.97448E+03 4.94268E+00-6.14015E+01 1.39515E+01 3.67200E+01 2.50596E+03
 -1      1148 7.79847E+03 7.24672E+01 1.96938E+01 5.44133E+01 1.75567E+01 1.36595E+03
 -1      1149 6.98668E+03 3.76795E+01-1.69161E+01 1.09751E+02-5.34413E+00 1.36822E+03
 -1      1150 1.83518E+03-1.24258E+00-5.80287E+01-1.66524E+01 1.11226E+01 2.41044E+03
 -1      1151 6.85449E+03 9.52349E+00-6.19934E+00 1.03688E+02-5.42389E+00 1.28287E+03
 -1      1152 6.05063E+03 1.06774E+01-2.57487E+01 1.16411E+02-1.25039E+01 1.28228E+03
 -1      1153 1.52841E+03 2.80495E+01-3.04765E+01 4.55143E+01-1.22861E+01 2.35325E+03
 -1      1154 5.93592E+03-3.97974E+01-1.24523E+01 1.02268E+02-2.81360E+01 1.21166E+03
 -1      1155 5.22109E+03-1.96488E+01-9.76935E-01 2.50790E+01 5.58143E+00 1.20438E+03
 -1      1156 1.36902E+03 9.94498E+00-1.96167E+01 5.48765E+01-3.89574E+01 2.22090E+03
 -1      1157 5.03986E+03 1.73651E+01-9.48746E+00 2.77617E+01-7.43087E+00 1.18454E+03
 -1      1158 4.43852E+03 3.60734E+00 1.67558E+01 2.10202E+01 1.57687E+01 1.15296E+03
 -1      1159 1.17741E+03-2.65075E+01-9.25784E+01 2.84649E+00 1.42711E+01 2.06940E+03
 -1      1160 4.25774E+03 3.36686E+01 1.06948E+01 4.50530E+01 1.10752E+01 1.11365E+03
 -1      1161 3.65399E+03 5.25332E+00-1.88115E+01 5.20893E+01-3.64338E+00 1.09382E+03
 -1      1162 1.00262E+03-2.63156E+01-4.50820E+01 2.75033E+01 8.15912E+00 1.96523E+03
 -1      1163 3.46885E+03 2.81690E+01-3.38346E+01 9.31721E+00 3.86211E+00 1.01291E+03
 -1      1164 2.92297E+03 3.28270E+01-6.39744E+00 6.46518E+01 3.64219E+00 9.85711E+02
 -1      1165 8.07001E+02 1.96330E+01-3.35727E+00 2.11522E+01-2.57987E+00 1.83769E+03
 -1      1166 2.82496E+03 1.30586E+01-1.36914E+01 7.50798E+01-7.17276E+00 9.11860E+02
 -1      1167 2.25370E+03 1.02013E+01-2.90898E+01 7.71426E+01-8.28371E+00 8.99330E+02
 -1      1168 7.14145E+02 1.74942E+01-3.73404E+01 2.13192E+01-7.81542E+00 1.69549E+03
 -1      1169 2.17843E+03 3.31478E+00-1.04542E+01 7.22675E+01-7.23245E+00 8.24698E+02
 -1      1170 1.66647E+03 6.35408E+00-2.89289E+01 6.50795E+01-3.42472E+00 8.08864E+02
 -1      1171 5.61462E+02 1.89895E+01-2.88637E+01 3.04523E+01-1.61346E+01 1.54309E+03
 -1      1172 1.61519E+03 1.59491E+01-1.25444E+01 6.06806E+01-3.42259E+00 7.34073E+02
 -1      1173 1.17501E+03 2.03095E+01-2.43266E+01 6.69530E+01-1.03200E+01 7.22478E+02
 -1      1174 4.46103E+02 1.58802E+01-3.25859E+01 1.86835E+01-5.78946E+00 1.38468E+03
 -1      1175 1.13792E+03-1.48841E+01-7.65457E+00 6.80316E+01-2.23181E+01 6.33316E+02
 -1      1176 6.97364E+02-8.18627E+00-1.78131E+01 1.38268E+01 3.98027E+00 6.10805E+02
 -1      1177 3.81081E+02 8.09810E+00-2.60228E+01 4.76339E+01-2.87311E+01 1.19349E+03
 -1      1178 6.55459E+02 2.35198E+01-1.19248E+01 2.13985E+01-6.30182E+00 5.55848E+02
 -1      1179 3.70096E+02 8.21869E+00-8.31768E+00 2.15936E+01 5.71240E+00 5.21996E+02
 -1      1180 2.00659E+02-2.15695E+01-8.55106E+01 1.54000E+01 4.47899E+00 9.98083E+02
 -1      1181 3.08212E+02 2.02057E+01-1.70571E+01 8.19646E+00-8.38875E-01 4.38330E+02
 -1      1182 6.06060E+01 1.60281E+01-1.72383E+01 1.10621E+01 1.02387E+01 4.12880E+02
 -1      1183 1.73651E+02-8.20987E+00-3.05712E+01 6.04773E+00-1.25359E+01 8.22339E+02
 -1      1184 1.58651E+01 2.54987E+01-7.17827E+00 1.80807E+01 2.77996E-01 3.29050E+02
 -1      1185-1.51826E+02 1.39075E+01-1.54823E+01 8.33538E+00-2.22775E+00 2.94492E+02
 -1      1186 9.01979E+01-1.89810E+00-6.45729E+01 1.72469E+01-2.28504E-02 6.27392E+02
 -1      1187-2.06598E+02 1.99727E+01-3.46855E+01-2.24813E+00-2.17383E+00 2.04881E+02
 -1      1188-3.02552E+02 1.30324E+01-2.51910E+01 5.37705E+00 2.33257E+00 1.60801E+02
 -1      1189 4.98827E+01 2.74203E+00-6.09009E+01 1.48921E+01 8.42823E+00 4.29409E+02
 -1      1190-2.98921E+02 2.39596E+01-2.01097E+01 2.98302E+00-1.39511E+00 7.59414E+01
 -1      1191-3.62313E+02 1.92929E+01-3.00473E+01 8.99197E+00 7.73661E+00 4.09381E+01
 -1      1192 5.19303E+01 5.15466E+00-4.82103E+01-6.32849E+00-6.96332E+00 2.04253E+02
 -1      1193-3.29417E+02 2.05402E+01-1.78857E+01 7.25088E+00-4.62864E+00-5.02281E+01
 -1      1194-3.26361E+02 1.84156E+01-3.49021E+01 8.95361E+00 3.76830E+00-9.10060E+01
 -1      1195 3.52564E+01 4.59692E+00-5.97191E+01 6.14943E+00 1.26207E+00-1.81945E+01
 -1      1196-2.51176E+02 1.70351E+01-3.93046E+01-8.20258E-01 1.84169E-01-1.79555E+02
 -1      1197-1.70921E+02 1.87086E+01-4.20675E+01 6.59776E+00 5.53517E+00-2.05533E+02
 -1      1198 6.45999E+01 5.05175E+00-7.11833E+01-8.69506E+00 2.43095E+00-2.48163E+02
 -1      1199 1.22377E+02 6.55184E+00-8.02294E+01-1.03470E+01-3.39402E+00-3.87003E+02
 -1      1200-8.66267E+04 3.18670E+02 2.19885E+02-4.12263E+02 2.21924E+02 8.76931E+02
 -1      1201-8.67566E+04-1.04522E+02-1.83515E+02-2.50878E+02-3.00680E+02 4.26561E+02
 -1      1202-7.49204E+04 4.22333E+02 2.23449E+02-5.85044E+02 4.52030E+02 9.55417E+02
 -1      1203-8.36763E+04 1.70936E+01 5.28374E+01-6.00664E+01 3.31805E+01 1.44751E+03
 -1      1204-8.54669E+04 5.00875E+01 1.56667E+02-8.87507E+01 4.52133E+01 1.26225E+03
 -1      1205-6.74871E+04 2.31883E+01 1.63626E+02-1.67446E+02 2.40882E+02 2.18772E+03
 -1      1206-7.93181E+04-3.33964E+01 7.75383E+01 1.07709E+01-2.98853E-01 1.64193E+03
 -1      1207-8.19348E+04-2.53547E+01 4.92811E+01 7.98900E+00 2.59167E+01 1.58759E+03
 -1      1208-6.48076E+04 3.33151E+00 2.72010E+01-1.20997E+01 3.03029E+01 2.83298E+03
 -1      1209-7.49400E+04 4.30672E+01 2.10043E+01 5.59932E+01-2.89448E+01 1.65026E+03
 -1      1210-7.77684E+04-4.09097E+00-1.35892E+01 9.30278E+00 4.05312E+01 1.65795E+03
 -1      1211-6.16272E+04-1.60691E+01 3.58039E+01 2.44956E+01 5.41051E+01 3.02638E+03
 -1      1212-7.03182E+04 2.22003E+01 4.45103E+01 4.62596E+01-4.01634E+01 1.64971E+03
 -1      1213-7.30386E+04-1.93016E+01 5.11966E+01 1.62370E+01 1.34099E+01 1.56976E+03
 -1      1214-5.81875E+04-5.25433E+01 7.04236E+01 7.24141E+01 1.37640E+01 2.99865E+03
 -1      1215-6.53999E+04 9.91555E+00-3.62020E+01 6.25147E+01-7.73359E+00 1.54230E+03
 -1      1216-6.81367E+04 7.52277E+01-2.49927E+01 6.44898E+01-5.14554E+00 1.61652E+03
 -1      1217-5.41629E+04 7.86043E+01 2.58597E+01 9.42666E+01-4.31382E+01 2.99428E+03
 -1      1218-6.09808E+04-2.33994E+01-1.86468E+01 2.86830E+01-3.53616E+00 1.56446E+03
 -1      1219-6.35954E+04-7.63176E+00-1.15204E+01 2.94384E+01 1.08011E+01 1.59247E+03
 -1      1220-5.04751E+04 3.27107E+00 3.91914E+01 1.28022E+02 1.87903E+01 2.93737E+03
 -1      1221-5.65739E+04-6.82506E+01 3.76689E+01 5.22841E+01 3.08498E+00 1.55360E+03
 -1      1222-5.91981E+04-3.92902E+01 1.20656E+01 5.70098E+01 2.59909E+01 1.52010E+03
 -1      1223-4.68742E+04 5.46850E+01-1.79568E+01 1.26883E+02-7.69386E+00 2.87308E+03
 -1      1224-5.21742E+04-1.63622E+01 1.59173E+01 3.41034E+01-2.55081E+01 1.51504E+03
 -1      1225-5.47691E+04 1.51297E-01-1.23561E+01 2.75218E+01 4.51279E+01 1.53759E+03
 -1      1226-4.35317E+04-3.55115E+01 2.63988E+01 6.70056E+01 3.55756E+01 2.81774E+03
 -1      1227-4.79877E+04 6.81889E+00-1.38478E+01 1.13300E+01-9.09691E+00 1.42968E+03
 -1      1228-5.04319E+04-1.45192E+01 2.43107E+00 3.05714E+01 1.50756E+01 1.50136E+03
 -1      1229-4.01260E+04-2.93928E+01 2.19617E+01 6.41732E+01 1.62810E+01 2.77806E+03
 -1      1230-4.38976E+04-2.42226E+01 3.07483E+01 1.37548E+01-3.15451E+01 1.44360E+03
 -1      1231-4.62915E+04-8.02277E+00 1.99554E+01 5.73697E+01 2.07640E+01 1.47265E+03
 -1      1232-3.68687E+04 4.42335E+01-1.61594E+01 6.42596E+01-1.99186E+01 2.68015E+03
 -1      1233-3.99248E+04-5.02677E+01 4.15037E+01 5.23227E+01 2.64174E+00 1.38308E+03
 -1      1234-4.22879E+04-1.47102E+01 5.07522E+01 5.59335E+01 1.42952E+01 1.34283E+03
 -1      1235-3.35966E+04 2.58433E+01 4.07978E+01 7.23671E+01-4.74868E+00 2.60961E+03
 -1      1236-3.61428E+04 3.44359E+01 5.96714E+00 4.88884E+01-2.48919E+01 1.32755E+03
 -1      1237-3.84601E+04 1.07754E+01-2.30998E+01 2.26577E+01 4.80205E+01 1.36524E+03
 -1      1238-3.08148E+04-4.68305E+01 8.73230E+00 5.60263E+01 3.52909E+01 2.51066E+03
 -1      1239-3.24956E+04 1.62679E+01 4.28369E+01 2.05746E+01-1.64228E+01 1.28975E+03
 -1      1240-3.46615E+04-1.10812E+01 4.77192E+01 1.08566E+01 4.04295E+00 1.25073E+03
 -1      1241-2.78840E+04-3.32781E+01 6.00257E+01 5.27602E+01 1.45002E+01 2.39809E+03
 -1      1242-2.87894E+04 3.09397E+00 4.12862E+01 1.99768E+01-4.58527E+01 1.25301E+03
 -1      1243-3.09582E+04 1.52476E+01 2.46625E+01 2.32909E+01 1.77513E+01 1.24922E+03
 -1      1244-2.49227E+04 4.11750E+01 6.38454E+01 4.87631E+01-1.48743E+01 2.35074E+03
 -1      1245-2.52407E+04 2.33032E+01 6.11209E+00 4.36344E+01-2.03263E+01 1.16159E+03
 -1      1246-2.72852E+04 5.82336E+01-6.11860E+00 4.08693E+01-4.42217E+00 1.20502E+03
 -1      1247-2.19726E+04 5.17035E+01 4.54518E+01 5.34388E+01-2.96712E+01 2.25236E+03
 -1      1248-2.19713E+04-1.57575E+01-3.52460E-02 3.24433E+01 2.91465E-01 1.11655E+03
 -1      1249-2.38752E+04 7.23668E+00 3.65342E+01 2.77442E+01-3.31704E+00 1.13439E+03
 -1      1250-1.92701E+04-2.96777E+01 7.08209E+01 9.85531E+01 1.37217E+01 2.14891E+03
 -1      1251-1.88434E+04-3.44127E+01 1.85784E+01 3.55413E+01-4.19157E+00 1.06292E+03
 -1      1252-2.06539E+04 2.25170E+00 3.72759E+01 5.01515E+01 7.99056E+00 1.07587E+03
 -1      1253-1.66271E+04 5.18091E+01 8.13617E-02 9.89195E+01-2.30912E+01 2.04421E+03
 -1      1254-1.58934E+04-2.29060E+00 2.22254E+01 1.21548E+01-2.20369E+01 1.02205E+03
 -1      1255-1.75836E+04-1.18354E+00 4.60410E+00 1.15430E+01 9.23005E+00 1.04397E+03
 -1      1256-1.42797E+04-8.75500E-01 4.82653E+01 7.89640E+01 1.11356E+01 1.96384E+03
 -1      1257-1.31277E+04-2.25225E+00 3.51973E+01 1.26273E+01-2.12482E+01 9.58469E+02
 -1      1258-1.47528E+04-1.31658E+01 4.39198E+01 3.33927E+01 1.20889E+01 9.52137E+02
 -1      1259-1.19556E+04 5.21629E+00 4.83081E+01 3.64789E+01-1.02129E+01 1.82841E+03
 -1      1260-1.05324E+04-2.09661E+00 6.87887E+00 2.24106E+01-7.76869E+00 8.52900E+02
 -1      1261-1.20542E+04 2.56125E+01 9.18711E+00 2.10905E+01-4.82557E+00 8.92160E+02
 -1      1262-9.82879E+03 2.16124E+01 5.22383E+01 3.37290E+01-1.79192E+01 1.69514E+03
 -1      1263-8.19521E+03-2.13720E+01 2.89797E+01 1.69802E+01-6.18776E+00 8.11510E+02
 -1      1264-9.58132E+03-1.04695E+01 9.88722E+00 4.12447E-01 1.73636E+01 8.15147E+02
 -1      1265-7.88541E+03 7.74640E+00 6.17051E+01 4.63292E+01 6.91821E+00 1.55186E+03
 -1      1266-6.07904E+03 1.32170E+01 3.32679E+01 8.39649E+00-1.49635E+01 7.21297E+02
 -1      1267-7.28757E+03-1.02585E+01 2.77039E+01 1.35273E+01 9.57086E+00 7.46222E+02
 -1      1268-6.06244E+03-1.05700E+01 5.52324E+01 3.54932E+01 1.31416E+01 1.43228E+03
 -1      1269-4.14577E+03-5.92297E+00 2.12069E+01 1.38418E+01-5.93329E+00 6.26358E+02
 -1      1270-5.29075E+03 2.26077E+01 2.74973E+01 5.74836E+00-6.08634E-02 6.51097E+02
 -1      1271-4.43745E+03 1.30919E+01 5.47742E+01 2.09870E+01-1.43570E+01 1.27666E+03
 -1      1272-2.55216E+03-1.87575E-01 3.47607E+01 1.07226E+01-1.03201E+01 5.63922E+02
 -1      1273-3.46085E+03-1.63955E+01 2.61436E+01 3.96409E+00 1.00275E+01 5.68247E+02
 -1      1274-3.01071E+03-7.15125E+00 7.13381E+01 3.04438E+01 4.01081E+00 1.10125E+03
 -1      1275-1.13324E+03 6.54158E+00 3.95005E+01 4.82203E+00-1.61817E+01 4.61793E+02
 -1      1276-1.93814E+03 6.25779E+00 3.28650E+01 1.07498E+01-3.95196E-02 4.78469E+02
 -1      1277-1.74015E+03 1.95412E+01 7.39559E+01 1.83493E+01-5.30158E+00 9.54285E+02
 -1      1278-1.10557E+01 4.86089E+00 4.12283E+01 7.36474E+00-9.29950E+00 3.56364E+02
 -1      1279-6.54869E+02 1.14240E+01 2.91264E+01 5.98436E+00-1.79654E+00 3.76866E+02
 -1      1280-6.99973E+02 1.75266E+01 7.48804E+01 1.06329E+01-9.62014E+00 7.70562E+02
 -1      1281 8.30222E+02-4.12831E+00 3.17593E+01 8.70961E+00-3.32866E+00 2.50191E+02
 -1      1282 3.53255E+02 9.06481E+00 3.68144E+01 3.67126E+00-2.24150E+00 2.80170E+02
 -1      1283 1.24517E+02 1.70309E+01 8.04052E+01 1.46287E+01-3.13476E-01 5.85077E+02
 -1      1284 1.33264E+03 3.15492E+00 4.11078E+01 3.76263E+00-5.94415E+00 1.54357E+02
 -1      1285 1.07850E+03-8.42853E+00 3.47329E+01 3.13868E+00 8.56582E-01 1.75567E+02
 -1      1286 7.09262E+02-7.77994E-02 8.09661E+01 2.04085E+01-1.22813E+00 3.88240E+02
 -1      1287 1.56309E+03 6.07827E+00 4.06759E+01-1.12212E+00-5.53954E+00 3.92999E+01
 -1      1288 1.46430E+03 6.57485E+00 4.02037E+01-5.37488E-01-5.91953E+00 6.20279E+01
 -1      1289 1.08769E+03 1.48450E+01 8.19815E+01 1.43401E+00-5.11774E+00 2.00100E+02
 -1      1290 1.46245E+03 4.64472E+00 4.28319E+01-7.91144E-01-5.81281E+00-7.30618E+01
 -1      1291 1.56700E+03 4.44018E+00 4.32521E+01-2.61145E-01-6.97414E+00-5.14776E+01
 -1      1292 1.21146E+03 1.45539E+01 8.78508E+01-2.95945E-02-2.75149E+00-1.27386E+01
 -1      1293 1.05035E+03-6.86809E+00 5.50371E+01-1.87829E+00-4.14249E+00-1.88444E+02
 -1      1294 1.29570E+03 1.65285E+00 5.71045E+01 1.08211E+00-6.09233E+00-1.69695E+02
 -1      1295 1.05560E+03 1.51839E+01 1.00342E+02-1.99310E+00-4.00535E-01-2.34729E+02
 -1      1296 7.25319E+02 2.82383E+01 1.16957E+02 7.36757E+00-5.39871E+00-3.57710E+02
 -1      1297-7.32646E+02 2.15358E+01 7.68243E+00-3.12889E+00-7.12213E+00 1.60196E+03
 -1      1298-8.03635E+02 6.73700E-02-7.40214E+00 9.67108E+00 5.71005E+00 1.50126E+03
 -1      1299-1.05638E+03 2.28664E+01-9.26799E+00 7.24591E+00-1.80648E+01 1.78192E+03
 -1      1300-1.09655E+03 1.29378E+00-1.77270E+01 6.64827E+00 1.38520E+00 1.68976E+03
 -1      1301-2.37174E+03-8.15238E+00 1.30738E+01 3.33528E+01-1.80582E+00 1.77794E+03
 -1      1302 1.89857E+00 2.02993E+01 1.20206E+01 3.99437E+01-2.21534E+00 9.95011E+02
 -1      1303-9.21932E+01 1.20961E+01-1.27034E+01 3.55308E+01-1.38385E+00 8.48771E+02
 -1      1304 1.42977E+02 2.02509E+01 8.81764E+00 4.06834E+01-1.12442E+01 7.51986E+02
 -1      1305 1.03863E+02-6.46972E-01-2.34287E+01 2.36176E+01-4.63682E+00 6.56971E+02
 -1      1306-6.41295E+01 1.66244E+01 3.31616E+01 3.08763E+01-3.86129E+00 8.94282E+02
 -1      1307 9.05392E+02 2.40757E+00 5.18041E+01-3.05187E+00-3.94260E+00-7.37723E+01
 -1      1308 8.94197E+02 1.29393E+00 4.71913E+01 4.80692E-01-1.90262E+00 4.58386E+01
 -1      1309 6.36833E+02 2.06193E+01 3.18034E+01-1.04015E+01 9.10641E-01-1.53632E+02
 -1      1310 8.64967E+02 4.46942E+00 5.48206E+01-7.16293E+00-5.67807E+00-2.08333E+02
 -1      1311 7.15070E+02 7.05908E+00 6.36121E+01-8.42979E+00-1.02181E-01-3.40450E+02
 -1      1312-2.17654E+03 1.90470E+01 1.47633E+01 6.33373E+01 3.03218E+00 2.24583E+03
 -1      1313-2.25648E+03-1.04457E+01 1.66463E+00 4.68425E+01 2.35793E+01 2.17386E+03
 -1      1314-2.68343E+03 2.19140E+01-3.56672E+01 2.43378E+01-1.55497E+01 2.39959E+03
 -1      1315-2.74022E+03-1.62004E+01-4.18839E+01 4.40150E+01 1.09438E+01 2.32755E+03
 -1      1316-5.98144E+03-1.17005E+00 2.47378E+01 6.30393E+01-1.56808E+01 2.48561E+03
 -1      1317-1.78635E+03 2.61470E+01 1.72717E+01 4.33741E+01-1.38722E+01 2.09870E+03
 -1      1318-1.85816E+03 1.37728E-01-1.21216E+01 3.05215E+01 1.06399E+01 2.02553E+03
 -1      1319-1.37412E+03 3.04600E+01-1.53826E+01-5.62595E+00-1.95287E+01 1.95851E+03
 -1      1320-1.49110E+03-5.86910E+00-4.78339E+01 1.40968E+01-2.67418E-01 1.86979E+03
 -1      1321-3.99454E+03-9.78051E+00 4.54342E+01 4.71179E+01-1.60578E+01 2.14877E+03
 -1      1322-4.48604E+02 2.51537E+01-4.73146E+00 1.55025E+01-1.82959E+01 1.41027E+03
 -1      1323-4.52366E+02 1.44838E+01-1.44240E+01 1.91194E+01-3.07624E+01 1.29784E+03
 -1      1324-3.15425E+02-5.50103E-01-1.71789E+01 6.28170E+01-4.48670E+00 1.17932E+03
 -1      1325-2.74763E+02-4.69602E+00 8.77858E-01 3.11311E+01 2.05295E+01 1.08831E+03
 -1      1326-1.05042E+03 3.32643E+01 1.41865E+01 2.85887E+01-9.94726E+00 1.33958E+03
 -1      1327 8.57111E+02 5.70334E+00 5.03191E+01 7.54582E+00-6.34402E+00 1.66701E+02
 -1      1328 7.56281E+02 1.06292E+01 5.27991E+01 1.17052E+01-8.66569E+00 2.81484E+02
 -1      1329 6.60888E+02 9.48155E+00 4.95956E+01 1.43506E+01-5.40868E+00 4.09594E+02
 -1      1330 4.17158E+02 7.41203E+00 4.44880E+01 1.59990E+01-4.04285E+00 5.14194E+02
 -1      1331 5.12687E+02 2.38008E+01 2.87487E+01 1.69281E+01-6.24518E+00 3.89169E+02
 -1      1332-1.33781E+04-1.05756E+01 1.78711E+01 9.39820E+01 8.58237E+00 2.51334E+03
 -1      1333-1.47647E+04-1.95106E+01 8.25655E+00 1.18403E+02 9.99461E+00 2.49161E+03
 -1      1334-1.15218E+04 2.27288E+01 3.19583E+01 1.05109E+02-3.18071E+00 2.31478E+03
 -1      1335-1.27751E+04 1.10228E+01 5.86379E+00 7.29981E+01-1.04479E+01 2.43545E+03
 -1      1336-8.22033E+03-1.47088E+01 7.77578E+00 1.05491E+02-1.02566E+01 2.78304E+03
 -1      1337-1.08897E+04 1.44752E+01 2.68722E+01 8.15353E+01-1.32255E+01 3.67563E+03
 -1      1338-1.10940E+04-2.20402E+01 2.59721E+00 8.27746E+01 3.14993E+01 3.72101E+03
 -1      1339-2.58004E+04 3.38332E+01 1.82038E+01 9.50764E+01 2.00485E+01 3.99154E+03
 -1      1340-1.01798E+04 5.62448E+01 4.48127E+01 5.86306E+01-4.05510E+01 3.66263E+03
 -1      1341-1.03430E+04-3.44387E+00-4.32365E+00 4.59797E+01 2.26450E+01 3.62506E+03
 -1      1342-8.84988E+03 5.28162E+01 7.25274E+01 5.17051E+01-1.74584E+01 3.57133E+03
 -1      1343-8.86515E+03 2.76367E+01 5.89646E+01 6.88670E+01-4.12674E+01 3.45674E+03
 -1      1344-9.50117E+03 4.52410E+01-2.84353E+01-2.79635E+01-3.30925E+01 3.61875E+03
 -1      1345-9.75274E+03-2.59723E+01-7.55927E+01 2.73476E+01 2.80188E+00 3.58070E+03
 -1      1346-2.24301E+04-3.09923E+01-1.55444E+01 1.36356E+02-1.30895E+01 3.84840E+03
 -1      1347-4.65533E+04-6.81519E+00-1.90067E+01 1.15939E+02 4.57214E+01 3.39364E+03
 -1      1348-4.83951E+04-5.85635E+01-2.97290E+01 4.20463E+01 1.27751E+02 3.31572E+03
 -1      1349-4.57520E+04-2.23907E+01 2.72543E+00 1.12809E+02 6.65875E+01 3.55450E+03
 -1      1350-2.92892E+04 3.57131E+01-6.67970E+01 1.59026E+02 8.28775E+01 3.85082E+03
 -1      1351-4.42092E+04-8.92600E+00 4.03753E+01 9.87047E+01-2.10459E+01 3.59972E+03
 -1      1352-6.31429E+03 4.76385E+01 6.69159E+01 4.88249E+01-1.52357E+01 3.23944E+03
 -1      1353-6.30350E+03 2.53571E+01 4.26546E+01 6.94797E+01-4.27797E+01 3.11847E+03
 -1      1354-7.02651E+03 3.57477E+01 9.43153E+00-2.38604E+00-1.39991E+01 3.30877E+03
 -1      1355-7.09881E+03-1.61787E+01-7.00610E+00 2.15416E+01 1.58153E+01 3.25219E+03
 -1      1356-1.62004E+04-2.72579E+01-1.27560E+01 1.15042E+02-1.53774E+01 3.50108E+03
 -1      1357-5.19103E+03 3.51912E+01 2.34772E+01 1.00949E+02-5.61234E+01 2.99638E+03
 -1      1358-5.46077E+03-6.20891E+00-8.43934E+01 1.71496E+02 1.72720E+00 2.88157E+03
 -1      1359-1.21644E+04 2.25704E+01-3.13287E+01 1.21292E+02 8.85293E+00 3.16772E+03
 -1      1360-4.57698E+03 1.31728E+01 4.57487E+01 1.49543E+02-1.69766E+01 2.81303E+03
 -1      1361-4.83775E+03-7.38086E+01-5.68669E+01 7.67911E+01 2.31511E+01 2.85521E+03
 -1      1362-8.45779E+03-5.74390E+01-6.27349E+01 1.68357E+02-2.35919E+01 3.37593E+03
 -1      1363-8.48867E+03-7.37033E+01-4.79781E+01 5.80584E+01 4.45797E+01 3.37110E+03
 -1      1364-7.51132E+03 1.87083E+00 1.71534E+01 7.44195E+01-1.93963E+01 3.34303E+03
 -1      1365-7.73471E+03-2.03293E+01-9.15861E+00 7.38301E+00 1.64235E+01 3.32822E+03
 -1      1366-1.91852E+04-6.22947E+00 3.45458E+01 7.45347E+01-1.26952E+01 3.66582E+03
 -1      1367-4.90042E+04-2.21827E+01-1.55286E+02-2.22790E+01 3.04552E+02 2.92216E+03
 -1      1368-5.04443E+04 3.81551E+01-4.46326E+02-1.12285E+02 4.32712E+02 2.42975E+03
 -1      1369-3.26228E+04 2.27917E+02-1.28316E+03 3.76688E+01 7.05232E+02 2.49267E+03
 -1      1370-5.07810E+04 4.73379E+02-1.08317E+03-4.41511E+02 6.32148E+02 1.92475E+03
 -1      1371-4.10586E+04 1.12692E+03-2.67873E+03-7.96178E+02 9.15541E+02 9.46068E+02
 -1      1372-5.85570E+04 1.74680E+03-2.24833E+02-8.64670E+02 9.53484E+02 1.38130E+03
 -1      1373-1.29338E+04 3.09046E+01-1.31600E+02 1.58756E+02 1.03769E+02 3.51822E+03
 -1      1374-1.25993E+04-2.08887E+01-1.39006E+01 6.58521E+01 1.14998E+01 3.69940E+03
 -1      1375-3.08354E+04 2.87151E+01-1.89546E+02 1.48254E+02 3.07585E+02 3.62238E+03
 -1      1376-1.38903E+04 3.51333E+01-4.27486E+02 2.01551E+02 3.25037E+02 3.03033E+03
 -1      1377-1.42854E+04-5.68822E+01-1.02665E+03 1.71047E+02 3.72464E+02 2.18137E+03
 -1      1378 3.37959E+02 1.12896E+01-1.14798E+01-5.47472E+00-7.44915E-01-2.15691E+02
 -1      1379 3.28792E+02 1.66503E+01-2.50330E+01-5.23643E+00-5.40513E+00-3.53793E+02
 -1      1380 5.11847E+02 3.36520E+01 2.13689E+01-5.86420E+00-3.39580E+00-4.13856E+02
 -1      1381 3.20653E+02 1.80723E+01-1.71609E+01 8.01263E+00-3.68685E+00-4.75266E+02
 -1      1382 2.90057E+02 3.25424E+01-4.37110E+01 6.07329E+00 2.22339E+00-5.17171E+02
 -1      1383 4.18832E+02 1.60549E+01 1.73810E+01 1.52082E+01 9.92992E+00-6.10461E+02
 -1      1384-2.84298E+03 1.58607E+01 4.45002E+01 4.38806E+01-7.92787E+00 1.44049E+03
 -1      1385-3.60746E+03 1.35354E+00 3.17641E+01 3.60825E+01-8.77453E+00 1.53434E+03
 -1      1386-1.84245E+03 1.40518E+01 4.09694E+01 2.99902E+01 2.17336E+00 1.24219E+03
 -1      1387-2.52818E+03-6.95446E+00 1.52791E+01 3.24933E+01 3.79808E+00 1.32795E+03
 -1      1388-1.64499E+03-4.12529E+00 4.28005E+00 4.56841E+01-1.04154E+01 1.57193E+03
 -1      1389-3.60450E+03 3.96009E+01-2.28475E+01-8.86487E+00-2.60976E+01 2.67611E+03
 -1      1390-3.70581E+03-9.40322E+00-5.89381E+01 1.55999E+01 3.96336E+00 2.61222E+03
 -1      1391-3.96290E+03 2.56367E+01 4.59953E+01 6.52960E+01-2.12345E+01 2.76159E+03
 -1      1392-4.22657E+03-3.79335E+01 1.77111E+00 1.23325E+01 1.83204E+01 2.71424E+03
 -1      1393-9.41733E+03-1.44281E+01 5.10508E+01 6.18699E+01-2.41761E+01 2.90200E+03
 -1      1394 3.19083E+02 1.45332E+01-1.25048E+01-3.21404E+00-4.94412E+00 4.76599E+01
 -1      1395 3.62492E+02 8.98870E+00-8.05186E+00-4.15110E+00-6.15086E+00-8.34169E+01
 -1      1396 3.34296E+02 1.03975E+01-1.09910E+01 9.89369E+00-4.40639E+00 3.00915E+02
 -1      1397 3.21403E+02 1.30377E+01-9.42625E+00-5.47606E+00-8.94252E+00 1.74686E+02
 -1      1398 5.97103E+02 1.78320E+01 2.07687E+01 4.48221E+00-4.74780E+00 1.09949E+02
 -1      1399-8.18329E+03 2.96676E+01 4.08460E+01 5.13380E+01-2.20485E+01 2.09363E+03
 -1      1400-9.28306E+03-1.16768E+01 2.11042E+01 7.25609E+01-2.70699E+01 2.16438E+03
 -1      1401-6.65242E+03 3.93937E+00 3.72589E+01 6.33604E+01-3.06080E+01 1.95294E+03
 -1      1402-7.69628E+03 2.54638E+00 2.79235E+01 5.54364E+01 1.12443E+01 2.03557E+03
 -1      1403-4.98690E+03 1.24422E+01-2.30565E+00 5.91289E+01 5.70155E+00 2.32258E+03
 -1      1404-2.69525E+02 7.59536E+00 3.70868E+01 2.35510E+01-1.41640E+01 8.43978E+02
 -1      1405-7.26583E+02 5.82739E+00 3.68456E+01 2.90993E+01-1.26930E+00 9.58287E+02
 -1      1406-9.71295E+02 1.16537E+01 5.92318E+01 3.13698E+01-1.41977E+01 1.05379E+03
 -1      1407-1.55220E+03 1.28941E+01 4.25866E+01 4.49962E+01-1.24486E+01 1.16304E+03
 -1      1408-4.71414E+02 2.04182E+01 2.12171E+01 3.30585E+01 1.39601E+00 1.13235E+03
 -1      1409-5.26744E+03 4.72712E+00 4.60893E+01 6.84234E+01-9.40425E-01 1.78161E+03
 -1      1410-6.22445E+03 8.10085E-01 3.67095E+01 5.52009E+01 8.63555E+00 1.82818E+03
 -1      1411-3.99745E+03-5.23460E+00 3.39166E+01 5.69845E+01 7.17149E+00 1.62892E+03
 -1      1412-4.84548E+03-1.14803E+01 1.50610E+01 5.61152E+01 1.06106E+01 1.68816E+03
 -1      1413-3.19535E+03-1.49424E+01 1.29046E+01 5.73763E+01-4.44568E+00 1.95948E+03
 -1      1414-3.59550E+04-1.38718E+01 2.02021E+01 1.44062E+02 2.67810E+01 3.43404E+03
 -1      1415-3.77653E+04-1.27044E+01-2.67835E+00 1.50466E+02 1.84573E+01 3.39299E+03
 -1      1416-3.84984E+04 3.16970E+01 6.67305E+01 1.31915E+02-6.00467E+01 3.51878E+03
 -1      1417-4.05852E+04 1.32158E+01 5.35343E+00 1.12215E+02 4.09047E+00 3.55236E+03
 -1      1418-2.40072E+04-2.35684E+01 5.30267E+01 7.96807E+01-2.01751E+01 3.89174E+03
 -1      1419-2.37805E+04 2.93863E+01 2.50063E+01 1.13933E+02-2.66683E+00 2.96236E+03
 -1      1420-2.54195E+04-3.25317E+00-4.00728E+01 7.98960E+01-1.36392E+01 3.05682E+03
 -1      1421-2.17096E+04 1.36703E+01 4.04361E+01 8.45032E+01-3.37193E+01 2.96520E+03
 -1      1422-2.31514E+04-3.28477E+01-2.03791E+01 1.20043E+02 4.53413E+01 3.01228E+03
 -1      1423-1.48831E+04 2.57036E+01-5.13750E+01 1.03761E+02 7.47814E+00 3.28990E+03
 -1      1424-1.53290E+04 3.66466E+01 8.49046E+01 9.60874E+01-5.82373E+01 2.63409E+03
 -1      1425-1.67700E+04 2.28725E-01 4.50994E+01 8.12503E+01 6.92779E+00 2.68135E+03
 -1      1426-1.07899E+04 2.25252E+00 2.55679E+00 8.47977E+01 6.84966E-01 3.05948E+03
 -1      1427-1.74696E+04 1.32194E+01 6.77284E+01 7.45510E+01-1.49382E+01 2.71766E+03
 -1      1428-1.89183E+04 2.19633E+01 4.57659E+01 8.16558E+01-2.31577E+01 2.78426E+03
 -1      1429-3.09001E+04 1.29840E+01 4.29753E+01 9.16679E+01-3.76233E+01 3.31351E+03
 -1      1430-3.26776E+04-4.71586E+01-3.24202E+01 1.24890E+02 5.15874E+01 3.34794E+03
 -1      1431-3.33601E+04 3.43612E+01 1.77980E+01 1.33492E+02 1.92848E+00 3.26521E+03
 -1      1432-3.51381E+04-2.12929E+00-2.61340E+01 1.02102E+02 2.83062E+00 3.39343E+03
 -1      1433-2.09342E+04 1.76521E+01-5.92217E+01 1.10422E+02 1.45245E+01 3.64803E+03
 -1      1434-2.61447E+04 1.40644E+01 2.31407E+01 1.02750E+02-1.75968E+01 3.11470E+03
 -1      1435-2.77348E+04-1.59426E+01 2.11536E+01 6.39623E+01-8.24861E+00 3.16169E+03
 -1      1436-2.84864E+04-1.98353E+01 4.00114E+01 1.01494E+02 1.12783E+01 3.22696E+03
 -1      1437-3.01296E+04-1.39967E+01 1.71639E+01 9.89615E+01 9.46391E+00 3.22238E+03
 -1      1438-1.77480E+04-4.34297E+01 2.22814E+01 6.93878E+01-1.22594E+01 3.58930E+03
 -1      1439-2.41197E+04 4.30073E+02-2.53936E+03-1.98652E+02 1.10193E+03 4.04584E+02
 -1      1440-1.51245E+04-9.76990E+01-1.61186E+03 2.49632E+02 6.79530E+02 1.56898E+03
 -1      1441-6.61015E+03-8.35261E+02-2.99304E+03 1.47390E+02 1.14801E+03-5.31162E+02
 -1      1442 4.89940E+02 3.94250E+01 6.22375E+01 1.89099E+00 4.94787E+00-6.06076E+02
 -1      1443 5.95476E+02 7.41998E+00 9.59641E+01 1.58606E+01 2.32926E+00-5.01331E+02
 -1      1444 6.39845E+02 1.86521E+01 6.79218E+01-1.18467E+01-4.04097E+00-4.47148E+02
 -1      1445-1.18462E+04 3.51030E+01-5.67063E+01 4.46052E+01-7.03042E-01 3.68867E+03
 -1      1446-1.17982E+04-2.80887E+01-5.85201E+01 9.60774E+01 1.85749E+01 3.76144E+03
 -1      1447-2.74642E+04 3.03794E+01 7.36796E+01 1.10061E+02 1.80389E+00 4.04868E+03
 -1      1448-4.33679E+04-2.74894E+00 3.89360E+01 1.07062E+02 9.89491E+00 3.54521E+03
 -1      1449-4.15037E+04 3.87111E+01 2.79794E+01 8.48557E+01 6.22042E+00 3.55382E+03
 -1      1450 2.93666E+02 1.17699E+01 5.81978E+01 1.70945E+01-1.13479E+01 6.44177E+02
 -1      1451-8.84416E+01 5.80989E+00 5.16509E+01 1.67727E+01-3.63788E+00 7.30927E+02
 -1      1452-9.80709E+03-5.77961E+00 4.76193E+01 7.83933E+01-2.81219E+01 2.25267E+03
 -1      1453-1.10322E+04-2.34232E+01 4.02792E+00 8.87778E+01 3.90718E+01 2.32045E+03
 -1      1454-3.07060E+03 2.34520E+01 3.31477E+01 3.46386E+01-1.16995E+01 2.57525E+03
 -1      1455-3.14360E+03 7.04006E+00 1.38593E+01 2.78974E+01-1.73727E+01 2.47967E+03
 -1      1456-7.13110E+03 2.52594E+01-2.18098E+01 9.57984E+01 6.76807E+00 2.55300E+03
 -1      1457-5.96551E+03-4.68529E+01-5.59400E+01 1.49519E+02-2.35633E+01 3.00895E+03
 -1      1458-5.88781E+03-3.48613E+01-3.93678E-01 1.03680E+02 9.56456E+00 3.03880E+03
 -1      1459-1.33899E+04 2.96807E+01 6.03035E+01 9.58189E+01-1.31437E+01 3.29957E+03
 -1      1460-2.11230E+04-3.01148E+01-2.61974E+01 6.94460E+01 3.38028E+01 2.85032E+03
 -1      1461-1.96686E+04 1.04000E+01-1.18380E+01 5.97747E+01 2.97805E+01 2.81751E+03
 -1      1462 2.36916E+02 1.73868E+01-8.30387E+00 1.91593E+01-3.06005E+00 5.34493E+02
 -1      1463 2.42542E+02 1.03727E+01-9.09118E+00 1.29323E+01 6.18785E+00 4.28918E+02
 -1      1464 2.80058E+02 2.00204E+01 3.96648E+01 1.43726E+01-8.74928E+00 6.53604E+02
 -1      1465 9.08175E+03-4.28229E+01-5.30979E+00 5.30564E+02-1.75375E+00 1.04947E+02
 -1      1466 1.51996E+03-4.36480E+01-1.33719E+01 2.94595E+02 6.11793E+00 3.00957E+01
 -1      1467-5.50571E+02-2.79781E-01-1.62509E+01 2.52902E+02-5.25123E+00 2.60221E+01
 -1      1468-1.67438E+03-5.73682E+01-5.53585E+00-3.77456E+01 6.49167E+00-1.52008E+01
 -1      1469 1.71401E+04-4.85782E+00 3.75043E+01 6.35111E+02 8.51874E+00 8.65521E+01
 -1      1470 3.12931E+03-7.93732E-01-2.54538E+01 6.23077E+02-3.34798E+00 4.80681E+01
 -1      1471 2.37198E+04-2.57551E+01-1.65117E+01 7.32487E+02-4.55615E+00 1.35835E+02
 -1      1472 4.84747E+04-1.98208E+01 6.11530E+00 1.63206E+03-5.58792E-01 8.29570E+01
 -1      1473 6.45531E+04-1.07528E+01-1.64513E+01 1.00308E+03-1.05085E+01 1.86619E+02
 -1      1474 8.39851E+04-1.14647E+02-7.27532E+01 1.02093E+03 6.55387E+00 2.86236E+02
 -1      1475 3.06343E+04 9.79762E+00-3.04596E+01 1.36272E+03-7.18305E+00 1.22880E+02
 -1      1476 3.45665E+04-4.32876E+01-3.03031E+01 8.26622E+02 1.18911E+00 6.34351E+01
 -1      1477 5.52954E+04-1.40558E+01 1.27446E+01 9.53904E+02 3.22621E-01 1.30166E+02
 -1      1478 6.33100E+04 2.07034E+03 1.67545E+02-2.00749E+02-1.44471E+02 4.60439E+02
 -1      1479 7.66705E+03 2.50815E+00-3.29685E+01 8.51100E+02-6.95522E+00 5.09540E+01
 -1      1480-1.33190E+03-5.62536E+01-1.25010E+01 1.02887E+02 7.33623E+00-2.01283E+00
 -1      1481-1.01716E+03 4.25537E+00-3.86565E+01-1.68711E+02-2.47260E+00-3.13609E+01
 -1      1482 1.79838E+04 4.49522E-01-5.47878E+01 1.19311E+03 8.94280E-01 4.32295E+00
 -1      1483-1.16278E+03-7.88201E+00-3.68589E+01 5.17155E+01-4.21497E+00 2.23117E+00
 -1      1484 1.32972E+04 1.39339E+01 1.18759E+01 1.03082E+03 1.04879E+01 9.74902E+01
 -1      1485 4.26003E+04-9.37447E+01-8.23639E+01 9.39823E+02 1.32813E+01 2.17380E+02
 -1      1486 3.90441E+04 7.15465E+01 1.05125E+02 1.34868E+03 4.71703E+01 3.03375E+02
 -1      1487 2.50505E+04-1.78562E+01 6.89063E+00 1.31771E+03-5.32702E-01 1.22830E+02
 -1      1488 8.94060E+04 8.54080E+03-6.54735E+03 2.07613E+03-5.18557E+02 6.86695E+02
 -1      1489-8.01135E+02-1.23806E+02-1.97735E+02-2.57307E+02-1.81438E+00 2.59513E+01
 -1      1490 9.49570E+02-2.66493E+00-1.37829E+01 4.66385E+02 1.54996E+00 4.20079E+01
 -1      1491 4.78453E+03-3.14893E+01-7.95161E+00 4.18817E+02 2.84247E+00 6.32267E+01
 -1      1492 7.40877E+04-4.23028E+01-7.94375E+01 1.04276E+03 1.11306E+01 1.50103E+02
 -1      1493 5.48308E+04 4.16725E+01 5.56241E+01 1.64377E+03 9.55531E+00 1.32635E+02
 -1      1494 5.92332E+04 3.66594E+02-2.77097E+01 1.43702E+03-5.05761E+01 2.97401E+02
 -1      1495 7.67098E+04 1.31172E+03-2.59520E+02 1.26333E+03-2.62900E+02 3.14924E+02
 -1      1496-1.21170E+03 3.59093E-01-1.05567E+01-5.91508E+01-3.25059E+00-1.98262E+01
 -1      1497 1.15717E+04-7.48834E-01 2.16487E+01 5.93764E+02-9.90364E+00 1.53510E+02
 -1      1498 1.43985E+04-4.68517E+01-3.81326E+01 6.06330E+02-9.18740E-01 8.08911E+01
 -1      1499 1.30339E+04-1.41351E+01-8.16477E+00 9.92925E+02-1.49155E+01 1.31570E+02
 -1      1500 2.52507E+02-4.40860E+01-2.14306E+01 2.26103E+02 1.03379E+00 3.12055E+01
 -1      1501 4.47944E+03 7.82443E-01-1.04088E+01 7.04057E+02-3.02373E+00 3.25533E+01
 -1      1502 2.70707E+04 2.02118E+01 3.51659E+01 8.27223E+02-2.46402E+01 2.43406E+02
 -1      1503 3.08623E+04-3.68201E+01-2.26925E+01 7.95474E+02 4.20270E+00 1.04133E+02
 -1      1504 2.68565E+04-2.56684E+01 1.41658E+01 1.29585E+03 1.94745E+01 2.23572E+02
 -1      1505-1.01378E+03-4.73574E+00-5.06501E+00 1.62023E+02 7.14544E-01 1.69567E+01
 -1      1506 4.68734E+04-2.30186E+01-4.78543E+01 9.15283E+02-8.21457E+00 1.30447E+02
 -1      1507 1.31990E+02-1.44044E+01-3.63363E+01 3.29503E+02-9.66796E-01 3.75797E+01
 -1      1508 2.76405E+04 6.90704E+01 7.70718E+01 1.21724E+03 3.69292E+01 2.26671E+02
 -1      1509 6.00290E+04-9.56555E+01-8.61518E+01 1.03734E+03 1.60933E+01 2.41143E+02
 -1      1510 5.09066E+04-4.98222E+00 3.94236E+01 9.32549E+02 8.05579E+00 7.57166E+01
 -1      1511 4.39328E+04-3.23572E+01 3.80722E+00 1.50794E+03 3.59809E+00 1.81314E+02
 -1      1512-1.65656E+03-5.32404E+01-3.02770E+01 3.09500E+01 5.32996E+00 1.64397E+01
 -1      1513 1.55965E+04 1.50011E+01-2.07088E+01 1.10550E+03-4.39186E+00 8.02118E+01
 -1      1514 6.91072E+04 3.74100E+01 6.11350E+01 1.10723E+03-3.40249E+01 3.18374E+02
 -1      1515 5.54276E+04 1.42062E+00-2.57305E+01 1.55946E+03 1.54112E+01 3.01719E+02
 -1      1516 5.15188E+04-7.63564E+00 3.01334E+01 1.61418E+03-6.81335E+00 1.24887E+02
 -1      1517 7.87120E+04 5.17346E+00 7.15459E+01 9.97474E+02 3.43147E+00 1.01854E+02
 -1      1518 3.83069E+04 5.89918E+00 4.76432E+01 8.34997E+02 1.33505E+01 9.64956E+01
 -1      1519 3.06879E+03-5.19997E+01-2.12114E+01 3.50867E+02 3.06602E+00 7.90364E+00
 -1      1520 6.82173E+03-4.29137E+01-6.57070E+00 4.59698E+02 3.11364E+00 3.22107E+01
 -1      1521 2.04891E+04-8.53753E+01-6.83337E+01 7.36448E+02 2.00845E+01 1.65535E+02
 -1      1522-7.33938E+02-5.10929E+01-9.40581E+00 1.73686E+02 3.45430E+00 3.61960E+01
 -1      1523 1.88728E+03 1.85981E+01 9.21323E+00 4.91518E+02 1.88909E+01 1.21905E+02
 -1      1524 5.98159E+03 8.08050E+00-1.61361E+01 7.80651E+02-2.52580E+00 4.99044E+01
 -1      1525 7.16659E+04 1.00232E+02 6.02917E+01 1.58928E+03-4.27273E+01 3.73102E+02
 -1      1526 8.87965E+04 9.85191E+01 4.37754E+01 7.60741E+02-5.34514E+01 1.13607E+02
 -1      1527 7.32994E+04 7.70838E+03-7.16581E+03-2.37576E+03-2.02602E+02 1.32098E+01
 -1      1528 1.13896E+04 8.03251E-01-1.25007E+01 1.01160E+03-4.54898E-01 5.44455E+01
 -1      1529 9.36656E+03-1.24940E+01-2.19041E+01 8.98655E+02-2.23787E+00 4.34498E+01
 -1      1530 4.22755E+04 1.40085E+01-3.66880E+01 1.50531E+03-4.63395E+00 1.42984E+02
 -1      1531 4.54493E+04-2.13971E+00-4.26672E+01 1.53635E+03-1.56256E+01 1.10426E+02
 -1      1532 3.62122E+04-3.62063E+00 2.71922E+01 1.44480E+03 1.55821E+01 1.35515E+02
 -1      1533 3.01901E+04 2.73103E+01-1.24350E+01 1.36800E+03-4.28048E+00 2.49386E+02
 -1      1534 1.99928E+04-3.29387E+00 3.12951E+01 1.19522E+03 7.15973E+00 1.47415E+02
 -1      1535 4.03394E+04-1.43564E+01-1.17133E+01 1.48486E+03 5.39455E+00 1.86831E+02
 -1      1536-1.31287E+03-4.60598E+01-4.93343E+01-1.24820E+02 1.72177E+00-2.56183E+00
 -1      1537-1.46127E+03-4.33113E+01-3.12082E+01-4.51120E+00 2.58890E+00-1.10838E+01
 -1      1538 1.88439E+03-3.70407E+01-3.27998E+01 5.27335E+02-3.81853E+00 9.32615E+01
 -1      1539 3.16377E+03-3.37784E+01-1.31920E+01 6.00157E+02 1.14666E+01 7.31522E+01
 -1      1540 4.73806E+03-3.45925E+01-1.76582E+01 7.03157E+02-2.92073E+00 8.87013E+01
 -1      1541-1.34399E+03-4.59851E+01-2.33403E+01 1.07976E+02-2.58735E+00 2.63685E+01
 -1      1542-2.35898E+02-4.05558E+01-2.56432E+01 3.36516E+02 5.16883E+00 4.71303E+01
 -1      1543 1.80704E+04-3.43107E+01 6.65317E+00 1.08661E+03-5.18767E-01 2.24470E+02
 -1      1544 8.60750E+03-2.32796E+01-3.14008E+01 8.27260E+02 7.44092E+00 1.50018E+02
 -1      1545 6.32814E+04-3.53451E+01-3.95368E+00 1.66276E+03 1.95413E+01 2.19168E+02
 -1      1546 6.76848E+04-2.12669E+01-6.74530E+01 1.62742E+03 1.02045E+01 3.05541E+02
 -1      1547 6.42266E+02-4.22747E+01-1.96562E+01 4.32567E+02-6.38895E+00 8.80001E+01
 -1      1548 6.51988E+03-3.04392E+01-4.65598E+00 7.73100E+02-4.34875E+00 9.98270E+01
 -1      1549 3.37059E+04 8.97279E+00-2.38548E+01 1.41318E+03 1.33410E+01 2.40325E+02
 -1      1550-9.26874E+02-5.01199E+01-3.44786E+01 2.18457E+02 3.51469E+00 2.64308E+01
 -1      1551 3.67030E+04-2.85876E+01 7.38542E-02 1.40655E+03 7.27192E+00 2.53727E+02
 -1      1552 2.11237E+04-1.37049E+01-2.82741E+01 1.14367E+03 1.65114E+01 2.25106E+02
 -1      1553 1.56948E+04-2.62237E+01-4.87906E+01 1.04649E+03 1.93247E+01 1.93502E+02
 -1      1554 1.06708E+04-4.39888E+01 3.90801E+00 9.49511E+02-1.55844E+01 1.18814E+02
 -1      1555 2.24592E+04 1.75487E+01-7.70538E+00 1.18187E+03-3.07445E+00 2.26220E+02
 -1      1556 2.39222E+04-4.61997E+01 6.57131E+00 1.27367E+03-1.36945E+01 1.68247E+02
 -1      1557 5.92001E+04-3.10044E+01 2.22859E+01 1.69242E+03-3.47574E+01 2.14869E+02
 -1      1558 3.35236E+04-3.83257E+00-6.81656E+01 1.43914E+03-2.92545E+00 3.02329E+00
 -1      1559 4.79583E+04 1.10533E+01-1.59746E+01 1.55769E+03 9.84408E+00 2.59044E+02
 -1      1560 5.12391E+04-2.57959E+01 7.08408E+00 1.53906E+03 3.04692E+00 2.85347E+02
 -1      1561-8.43273E+02-8.05321E+01-1.94688E+02-3.08298E+02 1.26821E+00 6.09528E+01
 -1      1562 9.33917E+04 1.13016E+03-3.54438E+02 1.27851E+03-1.88676E+02-2.98499E+02
 -1      1563-1.30947E+03-7.31943E+01-2.95008E+01-1.21979E+02 7.33895E+00-1.29471E+01
 -1      1564 7.87920E+04 4.87349E+03-4.50249E+02 8.60577E+02-3.54681E+02 6.43142E+01
 -1      1565 6.05957E+04 5.00495E+03-3.89996E+03-5.98799E+03 1.71931E+00 4.63142E+02
 -1      1566 1.01816E+05 2.64855E+03-7.83071E+03 5.37949E+03-9.83415E+02-5.59885E+02
 -1      1567-7.33544E+02-1.54682E+01-9.05710E+01-2.16572E+02-9.77744E-01 9.38424E+00
 -1      1568-8.92705E+02-1.07045E+02-1.21732E+02-1.22180E+02 1.33057E-01 2.68450E+01
 -1      1569-1.14485E+03-6.92764E+01-1.31116E+01-2.27220E+02 2.25762E+00 2.54427E+01
 -1      1570 1.05048E+05 2.05750E+04 8.03726E+03 5.76720E+03-2.38736E+02 1.10766E+04
 -1      1571 1.21409E+05 1.91639E+04 1.21772E+04 1.39061E+04 2.60055E+03 9.39186E+03
 -1      1572 9.89439E+04-2.94626E+03-4.71481E+03 6.18480E+02-2.05508E+03-2.37836E+03
 -1      1573 5.85039E+04 1.03815E+04 4.42685E+03-1.09175E+04-1.22228E+03 1.78176E+03
 -1      1574 6.59766E+04 1.68311E+04 8.61895E+03-8.89323E+03-8.35705E+02 6.31857E+03
 -1      1575 5.02194E+04 2.61473E+02-1.25804E+03-2.86721E+03 2.89050E+02-8.51982E+02
 -1      1576-6.55787E+02-3.27456E+01-3.55289E+00-8.93302E+01 2.66181E+01-6.90123E+01
 -1      1577-6.56989E+02-1.27669E+01-3.74236E+01-1.85740E+02 9.17903E+00-6.00555E+01
 -1      1578-1.15993E+03-7.30900E+01-5.88046E+01-3.86758E+01-1.65264E+01 4.51491E+01
 -1      1579-6.22151E+02-1.11484E+02-1.01389E+01-2.88241E+02 3.62839E+00-5.04089E+01
 -1      1580-5.21361E+02-5.77908E+01 1.24577E+01-1.78982E+02-1.53214E+01-7.69201E+01
 -1      1581-6.44070E+02 6.96484E+00-3.31124E+01-9.76616E+01-9.95450E+00 7.55785E+00
 -1      1582 9.07878E+04 2.13573E+04 8.77797E+03-6.97695E+02-7.31762E+02 9.47354E+03
 -1      1583 1.01023E+05 2.54865E+04 1.35284E+04 3.22059E+03-1.09131E+03 1.19224E+04
 -1      1584 9.66582E+04 7.18213E+03-7.57754E+03 3.72114E+03-3.97267E+02-1.65122E+02
 -1      1585 7.19360E+04 1.65826E+04 4.93097E+03-6.48813E+03-1.88997E+02 5.90338E+03
 -1      1586 8.40784E+04 2.21214E+04 1.13830E+04-3.47849E+03-7.70246E+02 9.39637E+03
 -1      1587 8.12255E+04 9.35999E+03-5.88841E+03-2.51923E+02-3.56948E+02 2.63070E+02
 -1      1588 6.63343E+04 6.99677E+03-5.81735E+03-4.40989E+03-1.77382E+02-3.86429E+02
 -1      1589-6.27585E+02-2.72582E+01-1.05468E+02-2.28160E+02-4.94716E+00-5.77428E+01
 -1      1590-5.95462E+02-6.86591E+01-7.99731E+01-2.72884E+02-1.69139E+00-6.42326E+01
 -1      1591-8.56644E+02-1.19002E+02-1.55928E+02-2.01077E+02 2.01838E+01 2.33904E+01
 -1      1592-6.08278E+02-5.61887E+01-4.13985E+01-2.91317E+02 4.06435E+00-4.06692E+01
 -1      1593-6.17774E+02-1.42069E+02-8.46357E+01-2.87149E+02-2.20419E+00-5.38760E+01
 -1      1594-8.17893E+02-9.92852E+01-1.56443E+02-2.93859E+02-5.09957E+00 3.66735E+01
 -1      1595-7.92609E+02-6.84909E+01-1.62534E+02-2.63679E+02-2.75237E+00 2.73973E+01
 -1      1596 1.00661E+05 1.94164E+03 1.00309E+03 9.44529E+02 6.86753E+02-4.37257E+02
 -1      1597 9.91966E+04 2.69496E+02 3.53106E+01 5.26429E+02-7.91882E+01-6.56895E+01
 -1      1598 9.54921E+04 2.29950E+03-1.09887E+03 2.91258E+03-3.88480E+02-6.35806E+02
 -1      1599 9.70849E+04 1.11161E+02 4.00881E+01 3.24606E+02 3.51640E+01-2.04502E+01
 -1      1600 9.48048E+04-5.90151E+00 7.23159E+01 2.78782E+02 3.04342E+00 8.18224E+01
 -1      1601 9.09897E+04 5.24823E+02 2.54930E+01 9.45643E+02-1.84205E+02 6.78717E+00
 -1      1602 9.23041E+04-1.07033E+02-6.48894E+01 3.73167E+02 5.64963E+00 1.46419E+02
 -1      1603 8.98099E+04-2.24571E+01 2.36764E+01 4.44301E+02 3.97920E+01 2.78227E+02
 -1      1604 8.62415E+04 1.60272E+01-4.63873E+01 8.49296E+02-1.94956E+01 1.93318E+02
 -1      1605 8.71395E+04 3.72922E+01 7.74543E+01 4.94356E+02-4.10875E+01 2.22464E+02
 -1      1606 8.43226E+04 5.06399E+00 6.02031E+01 4.29211E+02 1.33333E+01 7.89039E+01
 -1      1607 8.16073E+04-4.41089E+00 8.56458E+01 1.01141E+03-2.41424E-01 2.66839E+02
 -1      1608 8.19014E+04-3.14269E+01-3.54545E+01 4.96849E+02-1.33732E+01 1.44334E+02
 -1      1609 7.90364E+04-4.63994E+01-4.51393E+01 4.94701E+02 6.66015E+01 2.20108E+02
 -1      1610 7.63518E+04-8.78760E+00-6.65231E+01 1.02068E+03-3.71587E+00 1.02823E+02
 -1      1611 7.65217E+04-1.54557E+01-3.11930E+01 4.79167E+02-4.10245E+01 2.83794E+02
 -1      1612 7.39503E+04 6.68775E+01 6.06738E+01 4.19978E+02 1.05370E+01 1.51987E+02
 -1      1613 7.12727E+04-7.59240E+01-1.05659E+02 1.03462E+03-1.51899E+01 2.50825E+02
 -1      1614 7.15653E+04 4.11247E+00-5.61385E+01 3.90866E+02-2.59312E+01 9.98483E+01
 -1      1615 6.87691E+04-3.24729E+01 6.44324E+00 4.28697E+02 2.00201E+01 8.55898E+01
 -1      1616 6.70021E+04 1.46127E+01 7.22475E+01 1.01036E+03-6.49706E+00 2.57909E+02
 -1      1617 6.65422E+04-5.28710E+01-5.00450E+01 3.75842E+02-6.15511E+00 1.02072E+02
 -1      1618 6.39717E+04-2.64230E+01-2.62207E+00 4.69347E+02 3.89873E+01 2.42968E+02
 -1      1619 6.20187E+04-1.17554E+02-9.01617E+01 1.01644E+03 4.22160E+00 1.89776E+02
 -1      1620 6.15674E+04 4.82630E+00 1.67081E+01 4.70268E+02-5.31109E+01 2.08644E+02
 -1      1621 5.89517E+04 7.11140E-01 1.96196E+01 4.74910E+02 3.25001E+01 1.86133E+02
 -1      1622 5.78297E+04 1.83881E+01 5.13768E+01 9.69049E+02 2.56810E+00 2.28309E+02
 -1      1623 5.66497E+04-5.68087E+00 3.07076E+01 4.50200E+02-2.17254E+01 1.79885E+02
 -1      1624 5.42144E+04 4.94616E+00 2.46256E+01 4.16015E+02 1.84635E+01 8.47673E+01
 -1      1625 5.31540E+04-6.47596E+00 7.15785E+01 9.43030E+02 2.67284E+00 1.45340E+02
 -1      1626 5.21263E+04-5.87510E+00-2.30748E+01 3.86012E+02-1.96001E+01 9.82322E+01
 -1      1627 4.95308E+04-3.56193E+01 8.43217E+00 3.85373E+02 3.75592E+01 6.41356E+01
 -1      1628 4.88032E+04-4.93464E+01-4.83853E+01 9.15988E+02 3.92711E+00 6.54405E+01
 -1      1629 4.74837E+04-5.27992E+01-4.00293E+01 3.41323E+02-8.72999E+00 9.44850E+01
 -1      1630 4.51620E+04-3.36471E+01-1.06838E+01 4.27053E+02 3.71595E+01 2.21184E+02
 -1      1631 4.44210E+04-1.37804E+02-1.07873E+02 9.08121E+02 4.08509E+00 1.33511E+02
 -1      1632 4.30501E+04 2.82420E+01 3.23314E+01 4.10512E+02-4.77407E+01 1.73035E+02
 -1      1633 4.06382E+04 8.06524E-01 2.43791E+01 3.81758E+02 2.08361E+01 9.30674E+01
 -1      1634 4.06425E+04 1.14148E+01 5.47664E+01 8.68036E+02 3.82937E+00 2.05984E+02
 -1      1635 3.86862E+04-3.07700E+01-2.15068E+01 3.72435E+02-1.39841E+01 7.35054E+01
 -1      1636 3.65536E+04-2.36753E+01-3.28943E+01 3.92770E+02 2.09656E+01 1.42352E+02
 -1      1637 3.64644E+04-9.98691E+00 2.53690E+01 8.32781E+02 4.26017E+00 6.11782E+01
 -1      1638 3.46046E+04-2.91575E+01-3.33835E+01 3.89507E+02-2.39722E+01 1.50562E+02
 -1      1639 3.24267E+04-2.86303E+01-2.64398E+01 3.83421E+02 4.82323E+01 1.63331E+02
 -1      1640 3.26344E+04-5.99980E+01-7.36018E+01 8.05039E+02 1.78661E+00 1.10021E+02
 -1      1641 3.04676E+04-2.81360E+01-4.15719E+01 3.55985E+02-2.77219E+01 2.09512E+02
 -1      1642 2.85448E+04 3.99029E+01 4.10946E+01 3.15500E+02 7.81756E+00 1.11423E+02
 -1      1643 2.87343E+04-6.66283E+01-7.77455E+01 7.83220E+02-1.15367E+01 1.87933E+02
 -1      1644 2.67998E+04-5.64969E+00-4.34664E+01 2.86267E+02-1.75992E+01 7.23647E+01
 -1      1645 2.47548E+04-3.69973E+01 2.80212E-01 3.14874E+02 1.58753E+01 6.23080E+01
 -1      1646 2.55096E+04-5.88097E+00 4.69580E+01 7.49993E+02-1.18050E+00 1.92561E+02
 -1      1647 2.31698E+04-5.18141E+01-3.61075E+01 2.65291E+02-1.75767E+00 7.05470E+01
 -1      1648 2.13457E+04-4.06195E+01-2.01697E+01 3.39122E+02 3.35827E+01 1.74961E+02
 -1      1649 2.18884E+04-1.10298E+02-7.08544E+01 7.31061E+02 9.37036E+00 1.32618E+02
 -1      1650 1.96969E+04 3.27689E+00 3.52064E+01 3.24371E+02-3.51815E+01 1.38196E+02
 -1      1651 1.79035E+04-1.19045E+01 2.18403E+01 2.89951E+02 8.56847E+00 7.11270E+01
 -1      1652 1.89617E+04-1.30878E+01 3.91671E+01 6.73725E+02 3.71564E+00 1.60061E+02
 -1      1653 1.64525E+04-2.16300E+01-2.02778E+01 2.74879E+02-1.18996E+01 6.43333E+01
 -1      1654 1.48385E+04-3.28914E+01-4.46302E+01 2.92666E+02 2.68994E+01 1.39172E+02
 -1      1655 1.57797E+04 2.83094E-01 1.84863E+01 6.21282E+02 5.20081E+00 7.27919E+01
 -1      1656 1.33613E+04-1.86782E+01-2.43327E+01 2.69243E+02-1.75643E+01 1.48090E+02
 -1      1657 1.19102E+04 9.03710E+00 2.43398E+01 2.13377E+02 1.03692E+01 6.56356E+01
 -1      1658 1.28426E+04-6.25320E+01-7.00040E+01 5.92967E+02-8.68683E+00 1.50393E+02
 -1      1659 1.06534E+04-2.85819E+01-3.03038E+01 2.22497E+02-2.13155E+01 5.25970E+01
 -1      1660 9.24814E+03-2.18730E+01 1.03873E+01 2.46190E+02 1.35187E+01 1.07152E+02
 -1      1661 1.04473E+04 1.48863E+01 3.11009E+01 5.43803E+02-1.66719E-01 1.08060E+02
 -1      1662 8.05731E+03-2.80605E+01 3.04378E+00 2.23159E+02-8.33757E+00 8.27804E+01
 -1      1663 6.86165E+03-2.24371E+01-1.72016E+01 2.17330E+02 1.19866E+01 7.09910E+01
 -1      1664 7.99116E+03-2.78302E+01 3.62755E+01 4.87267E+02-4.12317E+00 7.24826E+01
 -1      1665 5.81516E+03-1.94342E+01-3.20056E+01 1.91161E+02-1.55649E+01 6.89589E+01
 -1      1666 4.64656E+03-2.23250E+01 1.14783E+00 1.87903E+02 1.13079E+01 4.44570E+01
 -1      1667 5.75273E+03-5.21378E+01-3.88609E+01 4.29977E+02 7.96389E+00 3.82475E+01
 -1      1668 3.80673E+03-2.95450E+01-1.81125E+01 1.46386E+02-1.66425E+00 1.56866E+01
 -1      1669 2.84988E+03-4.21433E+01-3.50664E+01 1.73994E+02 1.31323E+01 5.03315E+01
 -1      1670 3.89260E+03-6.07278E+01 9.44234E+00 3.86508E+02 7.52543E+00 3.10421E+01
 -1      1671 2.05647E+03-2.51251E+01-2.23434E+01 1.46239E+02-4.78011E+00 5.59995E+01
 -1      1672 1.25176E+03-3.08473E+01-2.33161E+01 1.41184E+02 1.56921E+01 4.82229E+01
 -1      1673 2.19959E+03-6.29831E+01-4.67254E+01 3.25236E+02 7.16416E-01 3.56992E+01
 -1      1674 6.10532E+02-2.94283E+01-2.54915E+01 1.13866E+02-6.07795E+00 5.02459E+01
 -1      1675-2.38470E+01-2.79405E+01-2.39014E+01 1.11501E+02 1.32021E+01 4.87931E+01
 -1      1676 8.11825E+02-6.26643E+01-3.32910E+01 2.60502E+02-4.07779E+00 3.35026E+01
 -1      1677-5.17552E+02-3.04365E+01-2.03467E+01 8.31672E+01-5.03017E+00 4.55720E+01
 -1      1678-1.00294E+03-2.72109E+01-3.81800E+00 7.72150E+01 4.99493E+00 2.07375E+01
 -1      1679-2.74714E+02-6.42345E+01-2.81136E+01 1.97933E+02 2.81596E+00 4.38659E+01
 -1      1680-1.28658E+03-3.08271E+01-9.06807E+00 3.99825E+01 3.61328E+00 2.00992E+00
 -1      1681-1.58347E+03-4.46302E+01-2.85780E+01 4.75572E+01 9.39388E+00 8.85502E+00
 -1      1682-1.06003E+03-6.36483E+01-7.99841E+00 1.46110E+02 9.34925E+00 1.97394E+01
 -1      1683-1.75875E+03-3.75282E+01-3.24050E+01 1.22263E+01 7.41684E+00 1.33678E+01
 -1      1684-1.86126E+03-3.16970E+01-7.77372E+00 5.91629E+00 4.96422E+00-1.71191E+00
 -1      1685-1.59071E+03-7.12361E+01-3.99700E+01 6.72294E+01-6.76854E-01 6.67592E+00
 -1      1686-1.83042E+03-3.10054E+01-1.40755E+00-2.05473E+01 2.93923E+00-5.46440E+00
 -1      1687-1.76171E+03-4.19830E+01-1.44005E+01-1.73343E+01 2.53224E+00-6.40246E+00
 -1      1688-1.70828E+03-6.96870E+01-2.84480E+01 3.73207E+00 9.37184E+00 8.89944E-01
 -1      1689-1.54882E+03-3.70682E+01-4.92753E+00-5.17253E+01 8.07334E+00-1.29645E+01
 -1      1690-1.28821E+03-3.18245E+01 4.39498E+00-5.78519E+01 9.58869E+00 3.39332E+00
 -1      1691-1.54191E+03-7.43458E+01-2.65856E+01-7.89437E+01 8.20040E+00-3.11698E+01
 -1      1692-1.15739E+03-1.07521E+02-5.17045E+01-1.35197E+02 3.42834E-01 8.63930E+00
 -1      1693 5.37606E+04 9.46571E+02 5.29480E+02 1.28077E+02-1.49537E+02 4.71635E+02
 -1      1694 5.41872E+04 1.73552E+03 5.76393E+02-1.09552E+03-3.12879E+02 1.30217E+01
 -1      1695 6.04725E+04 3.16089E+03-5.38151E+02-2.99857E+03-2.18596E+02-9.45944E+01
 -1      1696 5.00866E+04 1.13848E+02-3.51953E+01 9.61239E+02-8.05177E+01 3.55890E+02
 -1      1697 5.11462E+04 2.19094E+02 1.33914E+01 7.48035E+02-1.37493E+01 1.93345E+02
 -1      1698 6.09620E+04 8.45213E+02-4.17775E+01 8.93615E+02 7.17154E+00 1.73359E+02
 -1      1699 4.68972E+04-1.67336E+01 6.38943E+01 1.05305E+03-2.40173E+01 1.08871E+02
 -1      1700 4.81861E+04 6.49157E+01 7.67316E+01 9.84858E+02 4.15309E+01 2.59819E+02
 -1      1701 5.69139E+04 1.21327E+02-3.81940E+01 1.62825E+03 1.61042E+01 2.56117E+02
 -1      1702 4.40362E+04-4.50684E+01 1.44741E+01 1.04660E+03-2.56099E+01 8.98181E+01
 -1      1703 4.54495E+04 2.24847E+01-7.44305E+00 1.04404E+03 2.74820E+01 9.01493E+01
 -1      1704 5.34298E+04 1.25941E+02 9.29179E+01 1.62997E+03-3.54815E+00 7.99848E+01
 -1      1705 4.13872E+04-2.94263E+01 4.08321E+01 1.05157E+03-2.32317E+01 9.37581E+01
 -1      1706 4.26867E+04 1.60127E+01-2.49971E+01 1.01520E+03 1.74873E+01 8.20421E+01
 -1      1707 5.02198E+04 1.07511E+02 1.02888E+02 1.58138E+03-2.06606E+01 8.63353E+01
 -1      1708 3.87146E+04 1.67214E+01-1.91407E+01 9.59643E+02-3.18620E+01 2.34401E+02
 -1      1709 3.98493E+04-3.36918E+01-8.94543E+01 9.64614E+02-3.05850E+00 1.34653E+02
 -1      1710 4.69715E+04 8.93939E-01-2.58705E+01 1.56644E+03 2.59896E+01 1.15916E+02
 -1      1711 3.60111E+04 5.05995E+00-3.87935E+01 9.24565E+02-2.75571E+01 2.76620E+02
 -1      1712 3.71244E+04-1.12354E+01-3.14699E+01 9.02547E+02 2.31297E+01 2.43092E+02
 -1      1713 4.37614E+04-3.48194E+00-3.89409E+01 1.57144E+03 2.88853E+00 1.44979E+02
 -1      1714 3.35176E+04 8.24881E+01 1.13963E+02 9.51774E+02 1.38526E+01 1.49893E+02
 -1      1715 3.43716E+04-4.86168E+01 1.81858E+01 9.19264E+02 5.67601E+01 3.27576E+02
 -1      1716 4.03675E+04-6.19344E+01-6.12797E+01 1.51156E+03 4.78737E+01 2.74169E+02
 -1      1717 3.07704E+04-3.67944E+01 1.40439E+01 9.08220E+02-4.31295E+00 8.67599E+01
 -1      1718 3.20649E+04 3.26231E+01-5.24695E+01 9.79171E+02 4.99587E+01 8.91207E+01
 -1      1719 3.78722E+04 8.78903E+01 8.10686E+01 1.48283E+03-1.50122E+01 1.81488E+02
 -1      1720 2.84301E+04-3.46941E+01-6.19303E+01 8.48343E+02-1.60734E+01 1.85104E+02
 -1      1721 2.95025E+04 3.22225E+00-7.37684E+01 8.92547E+02 1.01680E+00 5.80383E+01
 -1      1722 3.48048E+04-8.35648E+00 2.62653E+01 1.42883E+03-2.38749E+01 3.41751E+01
 -1      1723 2.59519E+04 1.05738E+00-3.84998E+01 8.32626E+02-2.62517E+01 2.48749E+02
 -1      1724 2.70044E+04-1.01166E+01-2.63141E+01 8.14487E+02 1.86651E+01 2.21479E+02
 -1      1725 3.18973E+04-1.82614E+01-8.41648E+01 1.42502E+03 2.43392E+01 1.23939E+02
 -1      1726 2.35952E+04 2.26888E+01 6.51025E+01 8.62912E+02-5.47479E+00 8.54613E+01
 -1      1727 2.44698E+04-8.92889E+00 3.61511E+01 8.01087E+02 5.34074E+01 2.68979E+02
 -1      1728 2.89456E+04-4.80664E+01-5.07242E+01 1.35331E+03 3.99662E+01 2.32221E+02
 -1      1729 2.12455E+04-3.82949E+01 3.12752E+01 8.60097E+02-2.19944E+01 8.55667E+01
 -1      1730 2.23569E+04 6.98442E+00-2.89090E+01 8.50340E+02 1.85303E+01 8.08949E+01
 -1      1731 2.66337E+04 1.31088E+02 8.64983E+01 1.28001E+03-5.39006E+00 1.43244E+02
 -1      1732 1.89941E+04-1.28844E+01 9.91654E+00 8.34481E+02-3.26524E+01 6.89232E+01
 -1      1733 2.00583E+04 1.18571E+01-2.12794E+01 8.06160E+02 1.45518E+01 8.23154E+01
 -1      1734 2.37634E+04-1.22614E+01-3.39558E+01 1.25057E+03 3.26256E+01 1.51619E+02
 -1      1735 1.69313E+04-4.42365E+00 1.71413E+01 7.62009E+02 7.62703E+00 1.11559E+02
 -1      1736 1.79077E+04-3.04825E+01-4.42894E+01 7.94611E+02 3.13315E+01 1.01479E+02
 -1      1737 2.14063E+04 1.20939E+02 1.07761E+02 1.22385E+03-5.72565E+00 1.30087E+02
 -1      1738 1.50390E+04-2.05299E+01-5.16721E+01 7.02470E+02-1.07896E+01 1.48058E+02
 -1      1739 1.59076E+04 1.04298E+01-6.11743E+01 7.45064E+02 4.93375E+00 4.76828E+01
 -1      1740 1.90322E+04 1.42625E+01 3.93798E+01 1.20759E+03-1.84002E+01 5.94571E+01
 -1      1741 1.30644E+04 2.55693E+00-2.19503E+01 6.67927E+02-1.81090E+01 1.76754E+02
 -1      1742 1.38637E+04-4.11692E+00-2.29352E+01 6.64988E+02 1.65067E+01 1.72759E+02
 -1      1743 1.66373E+04-1.45113E+01-7.05333E+01 1.15859E+03 2.14574E+01 9.28927E+01
 -1      1744 1.11883E+04 2.77278E+01 5.47166E+01 6.46766E+02-4.84911E+00 9.14971E+01
 -1      1745 1.19527E+04-1.80721E+01 5.46800E+00 6.44943E+02 3.19452E+01 1.86786E+02
 -1      1746 1.43582E+04-1.98671E+01-3.59966E+01 1.10596E+03 2.89294E+01 1.25605E+02
 -1      1747 9.38129E+03-2.80548E+01-5.49578E-01 6.15058E+02-6.64289E+00 4.16524E+01
 -1      1748 1.02355E+04 1.14974E+01-3.87375E+01 6.61780E+02 1.07588E+01 6.22199E+01
 -1      1749 1.23262E+04-2.39112E+00-1.09383E+01 1.01232E+03-2.72558E+01 8.61003E+01
 -1      1750 7.70292E+03-2.60694E+01 8.75862E+00 5.72483E+02-2.50353E+01 2.85392E+01
 -1      1751 8.51595E+03 3.38175E+01-2.66039E+01 5.80983E+02 1.21487E+01 2.98227E+01
 -1      1752 1.02735E+04-7.96130E+01-7.25737E+01 9.34711E+02 3.51120E+00 3.50571E+01
 -1      1753 6.27064E+03 8.51451E+00-2.40930E+01 5.25158E+02-1.75477E+01 1.20648E+02
 -1      1754 6.90288E+03-1.31899E+01-5.56181E+01 5.39235E+02-5.11041E-01 7.07727E+01
 -1      1755 8.38205E+03-2.22030E+01-5.48691E+01 8.85062E+02 2.26757E+01 3.79826E+01
 -1      1756 4.88118E+03 1.36227E+00-2.16396E+01 4.69879E+02-9.95211E+00 1.14518E+02
 -1      1757 5.43382E+03-6.40084E+00-2.13029E+01 4.77087E+02 1.29228E+01 1.21267E+02
 -1      1758 6.74046E+03-1.05149E+01-3.08263E+01 8.42896E+02 3.66667E+00 6.38794E+01
 -1      1759 3.61492E+03 4.66091E+00-1.40584E+01 4.23439E+02-1.23411E+01 9.34593E+01
 -1      1760 4.12678E+03-1.06949E+01-1.35634E+01 4.31760E+02 1.29709E+01 1.09880E+02
 -1      1761 5.15864E+03-2.24163E+01-3.75162E+01 7.64125E+02 8.60811E+00 5.89818E+01
 -1      1762 2.45197E+03-3.12301E+00-3.13181E+01 3.80768E+02-1.07766E+01 1.02366E+02
 -1      1763 2.91528E+03-1.04008E+01-2.76333E+01 3.86206E+02 7.53690E+00 9.73607E+01
 -1      1764 3.72634E+03-2.07417E+01-3.56223E+01 6.88448E+02-3.09182E-01 4.34344E+01
 -1      1765 1.49549E+03 2.53297E+01 2.63927E+01 3.41003E+02 2.92231E+00 5.11113E+01
 -1      1766 1.80644E+03-2.60553E+01-1.95888E+01 3.47150E+02 1.88643E+01 1.24390E+02
 -1      1767 2.35469E+03-3.32535E+01-4.74510E+01 5.87373E+02 2.60674E+01 9.98069E+01
 -1      1768 5.91329E+02-2.21970E+01-1.25014E+01 2.80615E+02-4.41401E+00 2.07260E+01
 -1      1769 1.01982E+03 1.13298E+01-2.99353E+01 3.21921E+02 5.76363E+00 2.93176E+01
 -1      1770 1.46239E+03 1.61400E+01 1.79828E+00 4.92047E+02-6.19911E+00 8.09510E+01
 -1      1771-7.97253E+01-1.76091E+01-2.55682E+01 2.21940E+02-6.48531E+00 1.06936E+01
 -1      1772 2.68267E+02 6.37742E+00-2.08166E+01 2.51885E+02 6.73316E-02 6.74742E+00
 -1      1773 4.16504E+02-5.75933E+01-5.22751E+01 3.93408E+02 5.24592E-02 2.52835E+01
 -1      1774-5.63128E+02-1.37607E+01-1.45374E+01 1.48902E+02-1.06126E+01 1.67639E+01
 -1      1775-3.18555E+02 8.47962E+00-1.90790E+01 1.85668E+02 1.95678E+00 4.19005E+00
 -1      1776-2.31637E+02-1.26058E+01-2.52649E+01 2.95066E+02-7.59126E+00 3.13824E+01
 -1      1777-9.20799E+02-9.25488E+00-1.66882E+01 9.12155E+01 8.80575E-01 7.92483E+00
 -1      1778-7.98315E+02-1.11912E+01-2.33744E+01 1.14944E+02 9.74300E-01 1.95050E+01
 -1      1779-8.05004E+02 7.68094E+00 1.67212E+00 2.01398E+02-5.27025E+00 3.44232E+01
 -1      1780-1.06605E+03-1.58037E+01-2.60958E+01 2.38652E+01-4.43892E+00-4.52534E+00
 -1      1781-9.77271E+02-1.73573E-01-1.60265E+01 4.87007E+01-8.89871E+00-4.40312E+00
 -1      1782-1.12529E+03-1.42631E+01-2.00170E+01 1.07906E+02-1.01382E+00 7.37801E-01
 -1      1783-1.02230E+03-1.51188E+01-2.55179E+01-5.37461E+01 1.61206E+00-1.09418E+01
 -1      1784-1.02224E+03 2.80496E-01-1.24881E+01-2.22606E+01-5.02776E+00-1.20316E+01
 -1      1785-1.22396E+03-1.34105E+01-2.97308E+01-1.41690E+01-6.30247E+00 1.17185E+00
 -1      1786-8.19379E+02-2.22856E+00-2.19394E+01-1.08749E+02-8.68801E+00-8.13301E+00
 -1      1787-8.88138E+02 5.63213E+00-1.50312E+01-9.51511E+01-1.13482E+01-1.46068E+01
 -1      1788-1.12137E+03 4.65178E+00-2.24442E+01-1.16321E+02-7.91145E+00-3.38059E+01
 -1      1789-8.97955E+02-2.03261E+01-4.30228E+01-1.86485E+02-3.54301E+00-1.99164E+01
 -1      1790 1.02237E+04-1.50829E+01 1.39863E+01 6.91914E+02-1.48909E+01 2.08423E+02
 -1      1791 8.84546E+03-4.68037E+01 1.79258E+01 6.98479E+02 2.67884E+01 1.33383E+02
 -1      1792 7.80332E+03-3.17747E+01 4.74750E+00 6.44615E+02-1.96691E+01 1.17905E+02
 -1      1793 6.67666E+03-4.20729E+01 1.56795E+01 6.09944E+02 1.80601E+00 6.94346E+01
 -1      1794 7.52877E+03-2.82560E+01-3.46435E+00 8.16813E+02 8.54981E+00 1.18192E+02
 -1      1795 1.03101E+03-5.26854E+01-2.41116E+01 3.55298E+02-7.53247E+00 5.12280E+01
 -1      1796 4.10698E+02-4.78587E+01-2.19659E+01 3.12410E+02 8.87466E+00 3.85774E+01
 -1      1797 2.39203E+03-4.34883E+01-4.56826E+01 4.44212E+02 1.68941E+00 5.40321E+01
 -1      1798 1.63739E+03-5.05311E+01-2.07944E+01 3.95393E+02 1.98933E+01 5.18261E+01
 -1      1799 1.14117E+03-5.69765E+01-4.08107E+01 4.75694E+02-1.34044E+01 8.94236E+01
 -1      1800-1.00426E+03-3.71962E+01-1.63775E+01 1.92695E+02-5.88670E+00 3.19644E+01
 -1      1801-7.52452E+02-2.82522E+01-3.05856E+01 2.52652E+02 2.64789E+00 4.27003E+01
 -1      1802-4.25958E+02-1.26505E+01-1.16150E+01 3.07690E+02-6.33073E+00 4.85641E+01
 -1      1803-9.34827E+01-2.65494E+01-3.47886E+01 3.32448E+02 2.03065E+01 7.78040E+01
 -1      1804-6.66858E+02-7.85041E+01-5.27950E+01 2.82707E+02 7.88422E+00 3.29435E+01
 -1      1805-1.53412E+03-5.24136E+01-3.39686E+01 6.96927E+00 4.69289E+00 1.62002E+00
 -1      1806-1.60721E+03-6.01227E+01-1.76893E+01-2.65168E+01 7.55861E+00-5.30792E+00
 -1      1807-1.54509E+03-6.23532E+01-2.50276E+01-8.35836E+01 1.09680E+01-1.47259E+01
 -1      1808-1.48595E+03-7.51879E+01-5.53602E+01-6.57839E+01 1.96786E+00-8.24161E+00
 -1      1809-1.31068E+03-5.42925E+01-2.92590E+01-1.19629E+02 4.03601E+00-1.11108E+01
 -1      1810 1.50876E+04-2.93115E+01 2.44085E+01 8.09102E+02-2.46184E+01 1.11719E+02
 -1      1811 1.36950E+04-4.48782E+01-3.71345E+00 7.92599E+02-2.94968E+00 1.08569E+02
 -1      1812 1.64347E+04 1.31058E+01 2.97529E+01 8.33274E+02 5.24073E+01 1.43184E+02
 -1      1813 1.42635E+04-7.66467E+01-3.47428E+01 1.03408E+03 1.01580E+01 1.66285E+02
 -1      1814 1.81211E+04 2.87371E+01 2.39625E+01 9.09203E+02-2.19758E+01 1.91670E+02
 -1      1815 3.93023E+03-2.75475E+01-5.46513E+00 6.95964E+02-1.61757E+01 5.82524E+01
 -1      1816 4.57442E+03-3.90915E+01-3.73735E+01 7.43905E+02 1.12829E+01 3.52419E+01
 -1      1817 2.40789E+03-4.10515E+01-4.13535E+01 5.74793E+02 1.56927E+01 7.46312E+01
 -1      1818 3.09001E+03-3.84365E+01-3.47062E+01 6.50202E+02 2.48989E+01 5.81043E+01
 -1      1819 3.92679E+03-2.68317E+01-1.27427E+01 6.64237E+02 1.55964E+01 9.92680E+01
 -1      1820 2.42803E+04 1.10821E+01 4.59622E+01 9.61974E+02-1.74928E+01 2.98348E+02
 -1      1821 2.23827E+04-4.61261E+01 2.32072E+01 9.74996E+02 2.33615E+01 2.28746E+02
 -1      1822 2.08841E+04-4.59352E+00-4.64589E+01 9.28080E+02-1.57096E+01 1.88768E+02
 -1      1823 1.91443E+04-7.56536E+01-7.02812E+01 8.77113E+02 2.15025E+01 2.57530E+02
 -1      1824 1.95880E+04-1.12417E+01 7.53826E+00 1.17238E+03 2.66045E+01 2.06995E+02
 -1      1825 5.59395E+04-4.26978E+01 3.54027E+01 1.67761E+03-4.92100E+01 1.84413E+02
 -1      1826 5.74363E+04-7.17594E+01-1.56136E+00 1.69381E+03 3.32530E+01 2.19173E+02
 -1      1827 5.22964E+04-2.42961E+01-1.39386E+01 1.65587E+03-4.52363E+01 1.45094E+02
 -1      1828 5.39164E+04-3.54083E+01-5.45262E+01 1.70118E+03 6.34245E+00 1.85447E+02
 -1      1829 6.12701E+04 3.90548E+01 1.71524E+01 1.66340E+03-2.52149E+01 2.41505E+02
 -1      1830 5.79105E+04 3.95161E+01-5.09085E+01 1.30726E+03-2.68739E+01 2.50669E+02
 -1      1831 5.54172E+04-8.23056E+01-1.05887E+02 1.24121E+03 1.85195E+01 3.43347E+02
 -1      1832 6.24947E+04 2.38444E+01 6.64742E+01 1.30347E+03-2.88431E+01 3.96367E+02
 -1      1833 5.99564E+04-3.80777E+01 3.78616E+01 1.33589E+03 2.49772E+01 3.07230E+02
 -1      1834 5.33920E+04 3.20439E+01 3.80148E+01 1.63248E+03 3.49765E+01 2.74301E+02
 -1      1835 7.59733E+04 7.96698E+01 6.31978E+01 1.37685E+03-4.07948E+01 2.85406E+02
 -1      1836 7.31978E+04 1.64283E+01 7.11288E+01 1.33137E+03 6.60228E+01 2.28872E+02
 -1      1837 7.76593E+04-4.40538E+01-6.33065E+01 1.27257E+03-5.79491E+00 3.99735E+02
 -1      1838 8.04185E+04 1.88086E+02 3.22695E+01 1.25545E+03-5.16084E+01 2.49685E+02
 -1      1839 6.96286E+04 2.25180E+01-4.15193E+01 1.58719E+03-6.81528E+01 3.35228E+02
 -1      1840 3.20489E+04-1.15924E+02-7.50547E+01 1.37736E+03 5.56899E+00 2.01810E+02
 -1      1841 3.36508E+04-8.31374E+01-5.63052E+01 1.48984E+03 5.04000E+01 1.53881E+02
 -1      1842 3.54687E+04-9.03810E+00 8.39347E+00 1.50969E+03-3.32596E+01 1.29069E+02
 -1      1843 3.86110E+04 2.98011E+01 2.01787E+01 1.49308E+03 2.92125E+01 2.30478E+02
 -1      1844 3.68551E+04-8.69339E+00-7.37501E+01 1.53053E+03 4.02705E+01 8.83566E+01
 -1      1845 3.07223E+04-3.37925E+01-5.96092E+01 1.04808E+03-7.58352E+00 1.19799E+02
 -1      1846 2.88559E+04-4.64477E+01-3.36774E+00 1.00646E+03 2.47744E+01 1.36402E+02
 -1      1847 3.23195E+04-4.75492E+01 6.23931E+00 1.06101E+03-8.89050E+00 1.04066E+02
 -1      1848 2.85315E+04 9.13233E+00-1.47216E+01 1.35837E+03-1.13171E+01 2.58148E+02
 -1      1849 3.42283E+04-2.87097E+01 1.50226E+01 1.06500E+03-2.95796E+01 1.38848E+02
 -1      1850 5.40475E+04 9.14283E+01 7.87363E+01 1.32888E+03-3.56119E+01 2.46646E+02
 -1      1851 5.15588E+04 2.23316E+01 2.48375E+01 1.25101E+03 6.30363E+01 1.80808E+02
 -1      1852 4.96419E+04-1.93679E+01-6.81440E+00 1.19828E+03-3.08017E+01 1.59779E+02
 -1      1853 4.74307E+04-3.23859E+01 5.73208E+01 1.22539E+03 1.40570E+01 1.35582E+02
 -1      1854 4.57391E+04-9.00956E+01-4.13632E+01 1.52302E+03 2.34800E+01 2.21251E+02
 -1      1855 6.78476E+04 7.67245E+02-1.31249E+01 1.37319E+03-1.64215E+02 3.08765E+02
 -1      1856 6.99190E+04 1.90870E+03 4.48360E+01 6.48563E+02-9.23490E+01 1.48570E+02
 -1      1857 7.78801E+04 3.32435E+03-4.65974E+02 1.01495E+03-3.12159E+02 1.31773E+02
 -1      1858 7.03817E+04 3.23180E+03-3.55304E+02 3.64933E+02-2.10492E+02-2.19832E+01
 -1      1859 6.64547E+04 5.07778E+03-4.15225E+02-1.65907E+03-3.28867E+02-4.63926E+02
 -1      1860 7.34013E+04 5.86811E+03-7.45846E+02-5.95939E+02-5.12925E+02-3.38115E+02
 -1      1861 7.22696E+03-1.02352E+00-1.15955E+01 8.66436E+02-2.26305E+01 6.07367E+01
 -1      1862 8.05151E+03-1.74930E+01-4.24565E+01 8.90006E+02 1.53463E+01 5.13690E+01
 -1      1863 9.16607E+03-3.27669E+01-1.09081E+01 9.22185E+02-2.11907E+01 7.67929E+01
 -1      1864 9.92915E+03-6.52801E+01-6.43494E+01 9.81858E+02 2.56994E+01 9.43518E+01
 -1      1865 9.58820E+03-5.95690E+01-2.52380E+01 9.09692E+02 9.77578E+00 1.03533E+02
 -1      1866-1.38340E+03-5.59408E+01-2.23482E+01 1.02259E+02 2.32630E+00 1.48439E+01
 -1      1867-1.54324E+03-6.34662E+01-2.47348E+01 6.20884E+01 1.08459E+00 6.68849E+00
 -1      1868-8.22052E+02-5.50041E+01-1.67162E+01 1.92589E+02 1.05882E+00 3.30943E+01
 -1      1869-1.16929E+03-5.89087E+01-1.76261E+01 1.53590E+02 8.80157E+00 2.53549E+01
 -1      1870-1.21274E+03-7.02563E+01-4.47708E+01 1.64156E+02-2.35030E+00 3.39784E+01
 -1      1871-1.14881E+03-2.09666E+01-3.76528E+01-1.67565E+02 1.56139E+00-1.81091E+01
 -1      1872-1.31217E+03-3.04276E+01-2.71094E+01-9.10862E+01-1.02575E+01-1.88931E+01
 -1      1873-1.11815E+03-5.27222E+01-3.55745E+01-2.01340E+02 1.02734E+01 4.47947E+00
 -1      1874-1.26628E+03-7.27507E+01-3.13465E+01-1.75858E+02 3.67099E+00 2.74120E+01
 -1      1875-1.02662E+03-4.39156E+01-7.02092E+01-2.29981E+02 7.17381E-01 1.06344E+01
 -1      1876-1.03859E+03-7.79669E+01-4.19673E+01-2.63005E+02-5.13421E+00 3.90228E+01
 -1      1877 1.82710E+04 1.43106E+01-7.95678E+00 1.22229E+03-2.86374E+01 9.63482E+01
 -1      1878 1.94258E+04 4.89287E+00-7.35970E+01 1.22815E+03 3.47318E+01 7.78455E+01
 -1      1879 2.09128E+04-2.61526E+01 2.85498E+01 1.28011E+03-8.88420E+00 7.87772E+01
 -1      1880 2.19091E+04-3.32018E+01 1.32561E+01 1.23383E+03 1.71685E+01 1.70195E+02
 -1      1881 2.24524E+04-7.58214E+01-3.31192E+01 1.23482E+03 1.82465E+01 1.54078E+02
 -1      1882-1.37562E+03-2.44608E+01-2.18414E+01-3.35814E+01-3.87276E+00-6.88524E+00
 -1      1883-1.31997E+03-2.46721E+01-4.48219E+01 2.81964E+01 7.01557E+00 8.94948E+00
 -1      1884-1.25433E+03-3.35141E+01-4.27299E+01 6.99368E+01-5.64889E-01 1.82694E+01
 -1      1885-1.21249E+03-4.21988E+01-1.90782E+01 1.40720E+02 1.70614E-01 2.19286E+01
 -1      1886-1.44228E+03-5.26858E+01-4.91897E+01 6.25263E+01-3.88930E+00 2.71074E+00
 -1      1887 1.56524E+04-5.19674E+01-3.39618E+01 1.12252E+03-3.00970E+00 1.16035E+02
 -1      1888 1.68331E+04-5.75358E+01-2.86509E+01 1.18828E+03 3.43775E+01 1.14395E+02
 -1      1889 1.34393E+04-2.98891E+01 7.67258E+00 1.07743E+03-7.20423E+00 1.36200E+02
 -1      1890 1.45675E+04 5.27782E+00-2.65475E+01 1.12168E+03 2.47766E+01 9.30297E+01
 -1      1891 1.68598E+04-1.86807E+01-3.47776E+01 1.05124E+03-2.20903E+01 2.11972E+02
 -1      1892 4.17487E+04 4.70570E+00-6.81188E+01 1.18502E+03-2.66712E+01 1.70183E+02
 -1      1893 3.94653E+04-8.33349E+01-1.00280E+02 1.13044E+03 2.10051E+01 3.10383E+02
 -1      1894 3.81914E+04 7.64919E+01 5.66695E+01 1.20621E+03-3.18285E+01 2.31759E+02
 -1      1895 3.59671E+04 1.78799E+01 2.43969E+01 1.12514E+03 6.73503E+01 1.67736E+02
 -1      1896 3.52027E+04 9.07307E+00-2.68274E+01 1.38297E+03-2.73915E+01 2.38248E+02
 -1      1897 4.49536E+04-1.24950E+02-8.10006E+01 1.51206E+03 1.26328E+01 2.32503E+02
 -1      1898 4.67526E+04-9.75833E+01-5.91966E+01 1.64038E+03 5.91084E+01 1.78059E+02
 -1      1899 4.20620E+04-1.72035E+00 8.05847E+01 1.52917E+03-3.98801E+01 2.00389E+02
 -1      1900 4.37542E+04 8.33179E+01 1.02906E+02 1.50961E+03 2.66552E+01 3.52508E+02
 -1      1901 4.96003E+04 1.34726E+01-1.35251E+01 1.52367E+03-3.29850E+01 2.62350E+02
 -1      1902 2.93621E+04-4.02233E+01 4.84202E+01 1.36072E+03-5.10998E+01 2.00939E+02
 -1      1903 3.09426E+04 6.75489E+01 8.01547E+01 1.39558E+03 2.55938E+01 3.23026E+02
 -1      1904 2.75704E+04-1.81553E+01-5.86906E+01 1.37021E+03 2.76894E+01 2.72679E+02
 -1      1905 3.16756E+04-8.41435E+01-6.67668E+01 1.38778E+03 3.00013E+01 2.39293E+02
 -1      1906 2.64343E+04 7.29684E+01-4.16045E+01 1.25363E+03-3.79770E+01 3.12797E+02
 -1      1907 8.18131E+04 6.99739E+03-3.19313E+02 1.36032E+03-3.66581E+02 1.73177E+02
 -1      1908 8.93508E+04 4.19929E+03-6.00119E+02 1.86129E+03-6.43141E+02-1.52124E+02
 -1      1909 8.57797E+04 3.25332E+03-6.24542E+02 1.13124E+03-3.12749E+02-3.89058E+02
 -1      1910-1.04767E+03-9.17065E+01-5.07288E+01-2.47358E+02-2.27742E+00 2.77995E+01
 -1      1911-1.13723E+03-1.06489E+02-5.87620E+01-1.95050E+02 6.92181E-01 1.38766E+01
 -1      1912-1.25148E+03-8.66189E+01-3.38697E+01-1.85881E+02 2.09439E+00 3.61479E+00
 -1      1913 3.99830E+02-2.91385E+01-3.68705E+01 3.78697E+02-1.00607E+01 8.86622E+01
 -1      1914 7.12629E+02-5.00355E+01-3.98644E+01 4.62861E+02 1.00331E+01 7.92284E+01
 -1      1915 1.35118E+03-4.46276E+01-4.19417E-01 4.93770E+02-1.56391E+01 9.63016E+01
 -1      1916 1.99239E+03-5.04521E+00-2.16509E+00 5.34663E+02 7.56766E+00 1.38027E+02
 -1      1917 3.95054E+03-4.71367E+01-1.00728E+01 5.02544E+02-1.32053E+01 7.34574E+01
 -1      1918 3.08695E+03-5.13084E+01-5.11981E+00 4.60097E+02 3.11871E+00 4.71524E+01
 -1      1919 5.76612E+03-4.94085E+01-3.17374E+01 5.71823E+02-3.08275E+00 4.81998E+01
 -1      1920 4.79612E+03-4.19571E+01-2.28471E+01 5.57741E+02 2.15121E+01 7.58969E+01
 -1      1921 6.65517E+04-6.00781E+01-4.07278E+01 1.33661E+03-6.82529E+01 1.95569E+02
 -1      1922 6.40015E+04-8.82653E+01-5.18185E+01 1.38636E+03 1.94269E+01 2.61773E+02
 -1      1923 7.10356E+04-2.38586E+01-5.14180E+00 1.32938E+03 1.23660E+00 1.83004E+02
 -1      1924 6.86742E+04-2.30312E+01-7.03270E+01 1.34448E+03 4.48204E+01 1.78867E+02
 -1      1925 6.33534E+04 3.18886E+01 8.83754E+00 1.72975E+03-2.50015E+01 2.12943E+02
 -1      1926 6.54316E+04 2.45014E+02 1.39823E+01 1.61249E+03 1.93111E+01 2.60540E+02
 -1      1927 5.96723E+04-6.56020E+00 5.16010E+01 1.72020E+03-4.60697E+01 1.79607E+02
 -1      1928 6.14060E+04 2.08803E+01-4.81779E+01 1.79639E+03 2.64000E+01 1.62114E+02
 -1      1929 7.40766E+04 4.82208E+02-6.81293E+01 1.52908E+03-1.13598E+02 3.16814E+02
 -1      1930 8.27165E+04 6.50375E+02 1.44691E+01 1.10722E+03-7.30331E+01 2.43487E+02
 -1      1931 8.51957E+04 1.71424E+03-3.34675E+01 1.26845E+03-2.72625E+02 4.86667E+01
 -1      1932 1.25057E+04-4.90956E+01-3.97036E+01 7.70371E+02-2.78126E+01 1.17582E+02
 -1      1933 1.10261E+04-7.82654E+01-4.40796E+01 7.68548E+02 1.37624E+01 1.33953E+02
 -1      1934 1.18505E+04-1.61878E+00-9.75714E+00 9.59382E+02-2.12377E+01 1.40627E+02
 -1      1935 1.21527E+04-1.05268E+00-2.78856E+01 1.02547E+03 3.29411E+01 1.19871E+02
 -1      1936 1.12445E+04 1.88068E+01-4.59419E+00 9.79932E+02-2.44147E+01 1.20964E+02
 -1      1937 3.25434E+01-5.16405E+01-2.26117E+01 2.63285E+02-4.37129E+00 2.48994E+01
 -1      1938-5.30268E+02-8.02973E+01-2.76121E+01 2.53287E+02 1.25056E+01 3.07930E+01
 -1      1939 1.71109E+02-6.06358E+01-4.51719E+01 4.00684E+02 1.94528E+00 6.87434E+01
 -1      1940 5.46906E+03-2.26833E+01-7.61927E+00 7.82012E+02-1.41382E+01 5.36421E+01
 -1      1941 6.23354E+03-2.64286E+01-3.13874E+01 8.20395E+02 2.22880E+01 5.89638E+01
 -1      1942 5.62852E+03-3.14517E+01-7.74520E+00 7.43297E+02-3.28638E-01 9.04392E+01
 -1      1943 2.73260E+04-6.22932E+01-3.25219E+01 1.01110E+03-4.32061E+01 1.47948E+02
 -1      1944 2.53605E+04-8.48116E+01-6.10899E+01 1.03891E+03 1.77194E+01 1.88168E+02
 -1      1945 2.54427E+04 2.49553E+01 3.69863E+01 1.28226E+03-1.94882E+01 2.08457E+02
 -1      1946 2.46154E+04-7.10139E+01 8.60960E+00 1.26180E+03 4.96754E+01 3.11115E+02
 -1      1947 2.35558E+04 4.35415E+01 7.63173E+01 1.27634E+03-3.59778E+01 1.89783E+02
 -1      1948 4.56619E+04-2.16959E+01-4.38890E+00 1.19668E+03 6.76251E+00 9.92908E+01
 -1      1949 4.36571E+04-2.14921E+01-3.55572E+01 1.22070E+03 4.10620E+01 2.01950E+02
 -1      1950 4.21444E+04-3.93529E+01 4.64358E+00 1.51402E+03 2.04555E+01 1.72208E+02
 -1      1951 3.99171E+04-2.99791E+01 3.02210E+01 1.47695E+03 5.73597E+01 1.95643E+02
 -1      1952 3.86704E+04 8.27671E+00 2.66800E+01 1.55388E+03-5.10096E+00 8.40318E+01
 -1      1953 5.72469E+04-6.37120E+01-1.48623E+01 1.65648E+03 1.47339E+01 2.02357E+02
 -1      1954 4.87575E+04 3.99440E+01 5.25139E+00 1.67457E+03-3.84310E+01 1.42758E+02
 -1      1955 5.03376E+04 1.76518E+01-4.20570E+01 1.64675E+03 2.13087E+01 1.04154E+02
 -1      1956 6.53398E+04-8.75206E+01-4.31422E+01 1.66195E+03 2.51892E+01 2.60190E+02
 -1      1957 2.45987E+03-6.08930E+01-4.76645E+01 5.51107E+02 2.09892E+00 6.25215E+01
 -1      1958-5.89721E+03 1.50450E+01 4.88627E+00 7.77653E+02-2.87922E+00 5.70677E+01
 -1      1959-9.01943E+02 6.32597E+00 9.19237E+00 4.61482E+02-1.46292E+00 6.01649E+01
 -1      1960 7.34023E+02 4.93461E+01 9.63499E+00 1.72152E+02-2.45947E+00 3.71438E+01
 -1      1961 1.20104E+03 1.31451E+00 1.09329E+01-6.32429E+01 4.00707E+00 1.24645E+01
 -1      1962-1.11730E+04-4.64076E+01-5.14788E+01 9.68775E+02-1.62123E+01 1.59874E+02
 -1      1963-4.79145E+03 3.05784E+01 1.21735E+01 4.19296E+02-2.80849E+00 6.22274E+01
 -1      1964-1.55858E+04-2.07941E+01 1.94925E+01 1.10572E+03 2.69473E+00 7.50474E+01
 -1      1965-7.39796E+04 4.92997E+01 6.26167E+01 1.04105E+03 7.25658E+00 1.35798E+02
 -1      1966-4.26169E+04 1.77278E+00 9.90100E+01 1.55441E+03 4.55067E+00 7.49075E+01
 -1      1967-5.51525E+04 2.78022E+01 1.53816E+01 1.63022E+03 8.70083E+00 1.61849E+02
 -1      1968-4.67105E+04 2.20647E+01 3.41483E+01 9.04186E+02 4.14244E-01 1.10264E+02
 -1      1969-3.45989E+04 4.63341E+01 2.70996E+01 8.24758E+02-2.82023E+00 6.12921E+01
 -1      1970-5.52329E+04 1.68151E+01-1.21026E+01 9.58595E+02-6.45044E-01 1.29646E+02
 -1      1971-9.32815E+04-1.25298E+03 3.68109E+02 1.34241E+03 1.86546E+02-3.27661E+02
 -1      1972-1.15678E+04 1.65800E+01 2.08213E+00 5.58115E+02 7.82223E+00 8.56408E+01
 -1      1973 9.63500E+02 2.07723E+00 2.44740E+01 1.64655E+02 1.40974E+00-7.17229E-01
 -1      1974 1.30466E+03 7.68435E+01 2.02908E+01-1.29901E+02-9.23873E+00 1.62859E+01
 -1      1975-2.70480E+04-3.11799E+01-3.52369E+01 8.05221E+02 1.77766E+01 2.11689E+02
 -1      1976 1.66866E+03 5.16084E+01 1.80456E+01 3.24495E+01-3.56768E+00-5.43637E+00
 -1      1977-2.04599E+04 8.09436E+01 5.94857E+01 7.43104E+02-2.20743E+01 1.69732E+02
 -1      1978-2.77591E+04-7.46831E+01-8.23270E+01 1.23803E+03-3.62139E+01 2.25686E+02
 -1      1979-2.00174E+04-1.81599E+01-8.49837E+00 1.17651E+03 9.90720E+00 8.95811E+01
 -1      1980-3.37122E+04 9.74850E-01 6.43750E+01 1.46744E+03-4.76964E-01 8.87720E+00
 -1      1981-7.37485E+04-9.17722E+03 4.62672E+03-2.26025E+03 2.50065E+02 5.87813E+02
 -1      1982 7.91060E+02 9.32644E+01 1.65016E+02-3.07248E+02-6.49602E+00 2.08379E+01
 -1      1983-1.51917E+03 4.59505E+01 1.36501E+01 2.94043E+02-7.10781E+00 3.00123E+01
 -1      1984-3.21188E+03 1.32841E+01 4.87534E+01 6.30406E+02 1.79269E+00 1.80215E+01
 -1      1985-6.44787E+04 1.06558E+01 1.93377E+01 1.01092E+03 5.90376E+00 1.84534E+02
 -1      1986-4.89058E+04 3.97311E+00 1.13237E+02 1.63258E+03-1.45095E+00 4.61685E+01
 -1      1987-8.40378E+04 6.52359E+01 1.64294E+01 9.13856E+02 6.61044E+00 1.21997E+02
 -1      1988-8.88982E+04-1.31737E+02 1.85572E+01 8.28123E+02 2.58967E+01 1.44777E+02
 -1      1989-7.62638E+04-1.26039E+03 2.63979E+02 1.25083E+03 2.21817E+02 2.78604E+02
 -1      1990 1.66629E+03 5.65781E+01 1.33786E+01-4.22053E+01-4.09465E+00-6.58323E+00
 -1      1991-7.55208E+03-1.55252E+01-3.34997E-01 8.36879E+02-6.00173E+00 6.81713E+01
 -1      1992-9.57068E+03 3.21414E+01 5.76589E+01 8.53940E+02 1.06030E+01 8.56033E+01
 -1      1993-1.30522E+04 2.32682E+01 4.46278E+00 9.99234E+02 1.85251E+00 1.50665E+02
 -1      1994-1.38760E+02 1.39447E+01 3.58689E+01 3.58715E+02 2.82975E+00 7.23073E+00
 -1      1995-1.78527E+04 8.06597E+00 5.65255E+01 1.18301E+03 2.48828E+00 4.53869E+01
 -1      1996-6.82155E+03 4.13173E+01-4.06217E+00 4.60192E+02-4.77645E+00 3.34037E+01
 -1      1997 1.33122E+03 5.80496E+01 1.27284E+01 1.02518E+02-6.97330E+00-2.90597E+00
 -1      1998-2.51993E+02 4.21490E+01 2.15102E+01 2.27987E+02-1.67655E+00 3.08353E+01
 -1      1999-3.07537E+04-9.22175E+00 3.02368E+01 1.37488E+03 7.80978E+00 1.20726E+02
 -1      2000-4.25657E+04 8.34891E+01 8.74875E+01 9.54467E+02-1.88368E+01 2.61603E+02
 -1      2001-3.83101E+04-4.00943E+00-4.25493E+01 8.39524E+02-1.55212E+01 9.46795E+01
 -1      2002-3.01413E+04 1.30323E+01 3.71974E+00 1.34154E+03 9.30061E+00 1.59897E+02
 -1      2003-3.91602E+04-8.43476E+01-9.61242E+01 1.37060E+03-3.66354E+01 2.45254E+02
 -1      2004-3.63011E+04 1.48463E+01-4.93637E+01 1.45446E+03-1.24906E+01 1.80200E+02
 -1      2005 1.20144E+03 1.45180E+00 2.62068E+01 4.51250E+01 2.28678E+00 2.16127E+01
 -1      2006-3.09059E+04 3.47390E+01 2.37140E+01 7.91585E+02-2.94685E+00 1.04132E+02
 -1      2007-5.99483E+04 9.59163E+01 8.41167E+01 1.04589E+03-1.68830E+01 2.39377E+02
 -1      2008-2.36602E+04 2.01946E+01 4.17578E+00 7.52827E+02 1.77849E+00 1.72097E+02
 -1      2009-4.53041E+04-2.90768E+01-8.54167E+01 1.54034E+03-2.24626E+01 1.09117E+02
 -1      2010-7.86420E+04-2.21268E+00-7.61186E+01 1.01222E+03-1.06384E+01 1.12098E+02
 -1      2011-5.14822E+04-3.60179E+01-1.40676E+02 1.52172E+03-5.21337E+01 2.56790E+02
 -1      2012-6.90260E+04-4.46126E+01-7.02093E+01 1.12792E+03 4.29715E+01 3.07795E+02
 -1      2013-1.86092E+03-2.33690E+01-6.60425E+00 4.93371E+02-1.42627E+01 1.08411E+02
 -1      2014-5.08360E+04 8.56817E+00-3.88458E+01 9.39786E+02-9.01495E+00 7.54065E+01
 -1      2015-4.36761E+03 2.95937E+00-2.71108E+01 7.24853E+02-5.34116E+00 2.27532E+01
 -1      2016-1.33872E+04 3.76365E+01 2.98686E+01 1.03247E+03 1.13264E+01 6.56993E+01
 -1      2017 5.80119E+02-1.57099E+00 3.70707E+00 2.37435E+02-6.60197E+00 5.95541E+01
 -1      2018-3.06963E+03 5.29437E+01 2.11655E+01 3.51329E+02-3.14984E+00 8.31219E+00
 -1      2019-9.12318E+03 4.70642E+01 1.74204E+01 5.16898E+02-1.48383E+00 6.06620E+01
 -1      2020-7.15890E+04-1.37970E+02-4.01404E+01 1.63401E+03 6.22926E+01 3.79954E+02
 -1      2021-5.87559E+04-3.09972E+02 3.16221E+01 1.49330E+03 5.45783E+01 2.30261E+02
 -1      2022-8.88206E+04-7.72392E+03 8.62536E+03 2.08697E+03 4.85205E+02-2.15540E+02
 -1      2023-1.73909E+04 1.85014E+01-1.66389E+01 6.34615E+02-3.54084E-01 6.88722E+01
 -1      2024-1.44261E+04 4.38900E+01 4.76690E+01 5.96610E+02-1.49338E+01 6.73660E+01
 -1      2025-2.69643E+04 1.32561E+01 1.26761E+01 1.28536E+03-1.49299E+00 1.48940E+02
 -1      2026-2.51031E+04 3.55402E+01 1.14673E+01 1.28200E+03-3.33985E+00 1.62736E+02
 -1      2027 1.36246E+03 4.79369E+01 2.62169E+01-1.32016E+02 3.82800E+00 8.02514E+00
 -1      2028 1.46094E+03 4.74268E+01 3.73145E+01-8.14472E+00-5.47918E-01-7.52726E+00
 -1      2029-1.87899E+03 3.75742E+01 3.21194E+01 5.28229E+02 1.56230E+00 9.39483E+01
 -1      2030-3.16543E+03 3.27337E+01 9.35197E+00 6.00399E+02-1.04239E+01 7.58948E+01
 -1      2031-4.76244E+03 3.22178E+01 1.75838E+01 7.04641E+02 7.34993E+00 8.06281E+01
 -1      2032 1.35431E+03 4.97737E+01 1.66772E+01 1.03949E+02-3.03870E+00 1.91824E+01
 -1      2033 2.25141E+02 3.90574E+01 3.30074E+01 3.30416E+02-6.14851E+00 5.31532E+01
 -1      2034-1.80337E+04 1.27694E+01-9.10012E+00 1.09657E+03 7.99039E+00 2.06804E+02
 -1      2035-8.66191E+03 5.05458E+01 3.22454E+01 8.53388E+02-8.46476E+00 1.49683E+02
 -1      2036-2.39073E+04 4.50758E+01 2.30277E+00 1.26745E+03 3.31127E+00 1.54462E+02
 -1      2037-5.55620E+04 2.86067E+01 3.20610E+01 1.56277E+03-1.74251E+01 2.60748E+02
 -1      2038-5.91837E+04 1.37042E+01-2.71579E+01 1.64605E+03 1.83912E+01 3.52888E+02
 -1      2039-6.33853E+04 2.20079E+01-1.77421E+01 1.64768E+03 6.35525E+00 2.51231E+02
 -1      2040-6.75224E+04 1.87554E+01 5.86677E+01 1.68975E+03-1.14775E+01 3.71374E+02
 -1      2041-6.12764E+02 3.79650E+01 1.19210E+01 4.26658E+02 5.81084E+00 9.23782E+01
 -1      2042-5.12578E+04 2.33916E+01-1.72066E+01 1.55269E+03-3.98460E+00 2.85192E+02
 -1      2043-6.58510E+03 2.76832E+01 1.41838E+01 7.80094E+02-4.91820E+00 9.24948E+01
 -1      2044-4.03973E+04 1.35050E+01 1.07246E+01 1.48132E+03-7.76139E+00 1.87889E+02
 -1      2045-4.40035E+04 3.19848E+01-4.73604E+00 1.50549E+03 1.38894E+00 1.82991E+02
 -1      2046-4.79569E+04-1.29027E+01 1.65485E+01 1.56209E+03-1.53276E+01 2.57472E+02
 -1      2047 9.07149E+02 4.34619E+01 2.36329E+01 2.17270E+02-2.35765E-01 2.63550E+01
 -1      2048-3.67374E+04 2.67617E+01-1.47039E+00 1.40425E+03-2.96250E+00 2.56033E+02
 -1      2049-2.11227E+04 1.57093E+01 2.83853E+01 1.13654E+03-1.13219E+01 2.18308E+02
 -1      2050-1.56156E+04 2.84708E+01 3.91747E+01 1.05302E+03-1.23453E+01 2.13043E+02
 -1      2051-1.06668E+04 3.47265E+01-8.41473E+00 9.32768E+02 2.79393E+00 2.09154E+02
 -1      2052-2.25338E+04 1.37342E+00-1.35491E+00 1.27630E+03 1.59992E+00 3.59367E+01
 -1      2053-3.37412E+04-1.31540E+01 1.54392E+01 1.40236E+03-1.31898E+01 2.32049E+02
 -1      2054 8.68997E+02 1.41982E+02 1.98370E+02-2.49287E+02 2.73180E+00 6.92520E+01
 -1      2055-6.31479E+04-1.89662E+03-7.35002E+01-5.29956E+01 1.03790E+02 3.90448E+02
 -1      2056 1.02484E+03-9.00781E+00 2.87247E+01-1.73955E+02-9.20227E-02-3.56010E+00
 -1      2057-7.89132E+04-4.95176E+03 4.82565E+02 8.17822E+02 3.83168E+02 1.08165E+02
 -1      2058-1.03765E+05-3.50326E+03 8.07791E+03 5.85484E+03 5.19329E+02 7.07496E+02
 -1      2059-5.98233E+04-4.39748E+03 3.50574E+03-5.89940E+03-1.34292E+02-1.98236E+02
 -1      2060 8.95408E+02 1.07512E+02 1.12750E+02-1.25129E+02 3.73856E+00 3.51569E+01
 -1      2061 7.24769E+02 4.00737E+01 1.64657E+02-2.25874E+02-2.86322E+00 2.55407E+01
 -1      2062 1.10062E+03 6.27770E+01 3.16586E+01-2.20247E+02-1.49047E+00 1.18755E+01
 -1      2063-5.82046E+04-1.03829E+04-4.17594E+03-1.10553E+04 1.47149E+03 1.29320E+03
 -1      2064-6.49999E+04-1.56092E+04-7.25868E+03-8.61875E+03 3.12878E+02 6.09623E+03
 -1      2065-5.02910E+04-2.77637E+02 1.28322E+03-2.83957E+03-4.34603E+02-7.29215E+02
 -1      2066-1.08706E+05-2.36394E+04-1.30963E+04 6.91873E+03-8.47583E+02 1.23023E+04
 -1      2067-1.22252E+05-1.93384E+04-1.23577E+04 1.34626E+04-2.20203E+03 9.80619E+03
 -1      2068-9.88189E+04 3.19845E+03 4.67906E+03 6.03812E+02 1.77265E+03-2.48210E+03
 -1      2069 6.02742E+02 1.41130E+02 6.25577E+01-2.71185E+02 1.70374E-01-5.29439E+01
 -1      2070 4.84637E+02 4.74307E+01 6.96684E-01-1.73666E+02 1.35588E+01-7.42566E+01
 -1      2071 7.27125E+02-2.46732E+00 6.35524E+01-9.07729E+01 7.72702E+00 3.68431E+01
 -1      2072 6.56046E+02 3.19450E+01 9.70884E-01-8.93615E+01-2.14097E+01-6.43490E+01
 -1      2073 6.43301E+02 1.39124E+00 2.84713E+01-1.80519E+02-5.78100E+00-6.40487E+01
 -1      2074 1.16255E+03 7.52517E+01 5.69964E+01-4.26216E+01 1.67875E+01 4.93929E+01
 -1      2075-7.38721E+04-1.89165E+04-9.13827E+03-6.12779E+03-1.15547E+02 7.23739E+03
 -1      2076-8.36591E+04-2.19042E+04-1.10290E+04-3.38664E+03 2.52389E+02 9.35534E+03
 -1      2077-6.67191E+04-7.34502E+03 4.26131E+03-4.39366E+03-3.30847E+01-1.25324E+01
 -1      2078-9.23482E+04-2.22838E+04-1.12864E+04-4.09699E+02-1.20942E+02 9.97843E+03
 -1      2079-9.97394E+04-2.35636E+04-9.79760E+03 3.39498E+03 6.66881E+02 1.01431E+04
 -1      2080-8.06506E+04-9.36019E+03 5.57299E+03-1.55962E+02 1.16160E+02 1.30408E+02
 -1      2081-9.50184E+04-6.15710E+03 9.04924E+03 3.67395E+03 3.37427E+02-2.73535E+02
 -1      2082 6.17028E+02 5.85244E+01 5.91486E+01-2.88823E+02-1.40715E+00-7.20072E+01
 -1      2083 6.11887E+02 1.45726E+02 4.58429E+01-2.97203E+02-2.44739E+00-4.46163E+01
 -1      2084 7.64614E+02 8.87625E+01 1.67787E+02-2.88964E+02-6.39831E+00 1.56909E+01
 -1      2085 6.38515E+02 2.71028E+01 9.53808E+01-2.41526E+02 3.90325E+00-5.51071E+01
 -1      2086 6.08285E+02 7.05065E+01 4.81634E+01-2.59081E+02 7.21642E+00-4.84447E+01
 -1      2087 8.07932E+02 9.30823E+01 1.52917E+02-2.75691E+02-9.25603E+00 3.56973E+01
 -1      2088 8.66394E+02 1.11922E+02 1.46346E+02-2.02910E+02-1.14078E+01 3.94871E+01
 -1      2089-5.31824E+04-6.68840E+02-3.58775E+02 2.14761E+02 3.25603E+01 2.90963E+02
 -1      2090-5.41727E+04-1.75248E+03-5.64057E+02-1.09357E+03 3.31171E+02-4.49475E+01
 -1      2091-6.07023E+04-3.31163E+03 3.59554E+02-2.88905E+03 8.27816E+01 1.31400E+02
 -1      2092-4.99469E+04-1.13970E+02 5.34712E+01 9.68587E+02 5.95795E+01 3.25507E+02
 -1      2093-5.10857E+04-2.30336E+02-1.97955E+01 7.85182E+02 1.09962E+02 9.94081E+01
 -1      2094-6.08008E+04-8.78318E+02-3.20435E+01 9.37469E+02-3.81096E+01 1.50576E+02
 -1      2095-4.70560E+04-1.98686E+01 3.17518E+01 1.00225E+03 5.30720E+01 3.05288E+02
 -1      2096-4.81898E+04 9.93850E+00 6.93879E+00 9.89380E+02-1.53189E+01 2.54495E+02
 -1      2097-5.68192E+04-8.82450E+01 8.28496E+01 1.63349E+03 8.29811E+00 2.53499E+02
 -1      2098-4.42204E+04-3.62605E+01-1.00991E+02 1.00765E+03-2.24947E+01 1.45773E+02
 -1      2099-4.52569E+04 3.94155E+01-2.16165E+01 1.02501E+03-5.58817E+01 3.30248E+02
 -1      2100-5.32662E+04 4.38833E+01 1.25889E+01 1.66796E+03 7.52585E+00 2.81717E+02
 -1      2101-4.15675E+04 3.10416E+01 8.77411E+01 9.71606E+02 2.12930E+01 2.44651E+02
 -1      2102-4.27445E+04-1.23084E+01 1.02232E+02 1.01351E+03-5.82919E+00 7.57719E+01
 -1      2103-5.03272E+04-4.21995E+01-5.58812E+01 1.63430E+03 2.71978E+00 6.95701E+01
 -1      2104-3.87487E+04-3.51437E+01-7.99031E+01 9.47784E+02-1.30001E+00 1.25079E+02
 -1      2105-3.99197E+04 1.01409E+01-3.91342E+01 9.49010E+02-5.30026E+01 2.64058E+02
 -1      2106-4.69844E+04 1.55345E+01 7.07324E+01 1.61100E+03-4.27845E+01 2.03245E+02
 -1      2107-3.61027E+04 4.44087E+01 9.99596E+01 9.33881E+02 2.24498E+01 2.64310E+02
 -1      2108-3.73178E+04-1.00771E+01 9.50477E+01 9.65196E+02-2.78110E+00 8.73649E+01
 -1      2109-4.39908E+04-2.27439E+01-2.71837E+01 1.54549E+03 2.50236E+01 6.52852E+01
 -1      2110-3.35000E+04-3.07390E+01-7.27720E+01 9.70118E+02 6.60267E+00 9.49265E+01
 -1      2111-3.44706E+04 3.23892E+00-4.08491E+01 8.93670E+02-5.52644E+01 2.98810E+02
 -1      2112-4.06039E+04 5.83044E+01 8.90460E+01 1.50280E+03-5.51057E+01 2.68292E+02
 -1      2113-3.09168E+04 4.55904E+00-2.81651E+01 9.33109E+02-9.01840E+00 1.34328E+02
 -1      2114-3.21112E+04 3.57992E+01 4.03079E+01 9.72224E+02-3.80540E+01 1.20989E+02
 -1      2115-3.80225E+04-1.55959E+02-1.12828E+02 1.47480E+03 1.00046E+00 1.57040E+02
 -1      2116-2.85229E+04 2.66457E+01 5.64404E+01 8.67338E+02 1.32368E+01 1.85833E+02
 -1      2117-2.95852E+04-9.18891E+00 7.00207E+01 9.10386E+02-6.56847E+00 6.17489E+01
 -1      2118-3.50541E+04-5.93245E+00-5.57211E+01 1.47834E+03 1.99560E+01 6.89453E+01
 -1      2119-2.60127E+04-1.98140E+00 3.74336E+01 8.43032E+02 2.65081E+01 2.48006E+02
 -1      2120-2.70606E+04 1.14617E+01 2.71150E+01 8.24688E+02-1.79947E+01 2.19790E+02
 -1      2121-3.20569E+04 1.72541E+01 8.22144E+01 1.43985E+03-2.42332E+01 1.23099E+02
 -1      2122-2.36636E+04-2.64465E+01-6.50037E+01 8.79310E+02 6.47914E+00 8.96993E+01
 -1      2123-2.45318E+04 8.49142E+00-3.40037E+01 8.15905E+02-5.18657E+01 2.68139E+02
 -1      2124-2.90593E+04 4.83026E+01 5.30630E+01 1.36639E+03-3.92712E+01 2.29445E+02
 -1      2125-2.13261E+04 6.57444E+00-4.60560E+00 7.94349E+02 1.87996E+01 2.20068E+02
 -1      2126-2.22870E+04 5.27897E+01 7.31513E+01 8.41645E+02-1.81354E+01 1.19197E+02
 -1      2127-2.66745E+04-1.26724E+02-8.41394E+01 1.31157E+03 4.84747E+00 1.39046E+02
 -1      2128-1.91323E+04-8.77734E+00 4.80466E+00 7.56417E+02 1.14070E+00 1.64165E+02
 -1      2129-1.99878E+04 1.45621E+01-2.55250E+00 7.64960E+02-4.50864E+00 1.81842E+02
 -1      2130-2.39491E+04-2.68096E+01-7.92922E+01 1.30667E+03 9.06534E+00 1.16773E+02
 -1      2131-1.69163E+04 1.66015E+01-2.84530E+01 7.56220E+02 2.56365E+01 7.19799E+01
 -1      2132-1.79286E+04-2.31856E+01 4.11606E+00 7.35233E+02-3.78454E+01 1.52877E+02
 -1      2133-2.12719E+04 2.08193E+01 6.08489E+01 1.26152E+03-3.83564E+00 5.98974E+01
 -1      2134-1.50111E+04 1.25427E-01 5.11364E+01 7.18741E+02 1.12105E+01 1.77720E+02
 -1      2135-1.58145E+04 3.36390E+01 6.86072E+01 7.38427E+02 1.89292E+00 9.04706E+01
 -1      2136-1.89385E+04-3.74174E+01-2.03952E+01 1.18198E+03 1.23764E+01 2.97338E+01
 -1      2137-1.30633E+04-6.04446E+00 1.68906E+01 6.68186E+02 1.56329E+01 1.70474E+02
 -1      2138-1.38434E+04 6.29521E+00 2.15197E+01 6.70002E+02-1.90726E+01 1.70436E+02
 -1      2139-1.66531E+04 8.14126E+00 6.65403E+01 1.16211E+03-1.07238E+01 1.07366E+02
 -1      2140-1.12094E+04-6.17896E+00 2.84016E+01 6.15742E+02 3.40880E+01 1.68330E+02
 -1      2141-1.19604E+04 3.17088E+01 1.20856E+01 6.28980E+02-1.95338E+01 1.66808E+02
 -1      2142-1.43964E+04 3.91798E+01 4.18210E+01 1.11226E+03-1.37694E+01 9.59335E+01
 -1      2143-9.40166E+03-1.80259E+01-4.04284E+01 6.24861E+02-3.38327E+00 8.93956E+01
 -1      2144-1.00361E+04 3.22835E+01 3.94957E+00 6.29037E+02-1.55847E+01 2.12596E+02
 -1      2145-1.22189E+04 4.02511E+01 1.54375E+01 1.04018E+03 5.43077E+00 1.74907E+02
 -1      2146-7.83070E+03 1.54863E+01 4.61481E+01 5.53311E+02 2.75243E+01 1.60480E+02
 -1      2147-8.55162E+03-6.51598E+00 4.39350E+01 5.87199E+02-6.64391E+00 5.08011E+01
 -1      2148-1.03837E+04-4.22907E+01-6.44521E+00 8.63228E+02-1.09931E+01 1.04535E+02
 -1      2149-6.25974E+03-1.69408E+01 1.79274E+01 4.98974E+02 1.64350E+01 1.38393E+02
 -1      2150-6.87750E+03 1.38402E+01 4.13882E-01 5.14459E+02-2.17427E+01 1.55106E+02
 -1      2151-8.47286E+03-3.73526E+00 1.72082E+01 8.95105E+02-7.37578E+00 1.32814E+02
 -1      2152-4.86598E+03-4.32032E+00 9.63136E+00 4.61225E+02 1.33153E+01 1.18689E+02
 -1      2153-5.41948E+03 1.29577E+01 1.41267E+01 4.80352E+02-1.36367E+01 1.33675E+02
 -1      2154-6.75638E+03-1.02946E+01-1.22282E+00 8.39752E+02 9.85594E+00 8.64518E+01
 -1      2155-3.58409E+03-8.27191E+00-2.31410E+01 4.34881E+02-4.60431E+00 4.86850E+01
 -1      2156-4.08290E+03 5.32659E+00-1.30954E+01 4.50204E+02-9.34080E+00 1.16281E+02
 -1      2157-5.15260E+03 2.37030E+00-2.69853E+01 7.65497E+02 5.85923E+00 7.61679E+01
 -1      2158-2.42547E+03 2.98335E+01 5.94665E+01 3.83103E+02 1.56180E+01 8.79751E+01
 -1      2159-2.98367E+03-5.58975E+00 3.56880E+01 4.02722E+02 1.59493E+00 3.27104E+01
 -1      2160-3.76093E+03 2.31674E+01 1.29233E+01 6.74763E+02-3.27694E+00-6.44926E+00
 -1      2161-1.48222E+03-9.40966E+00-1.45337E+01 3.43205E+02 7.83855E+00 4.14555E+01
 -1      2162-1.80552E+03 1.19752E+01 1.02624E+01 3.35821E+02-2.00972E+01 1.15337E+02
 -1      2163-2.36168E+03 3.32499E+01 5.67066E+01 5.83715E+02-2.66315E+01 8.81668E+01
 -1      2164-6.07715E+02 6.78637E+00 8.98857E+00 2.86811E+02-6.22107E-01 3.75192E+01
 -1      2165-9.64618E+02 1.75969E+01 3.05964E+01 3.12980E+02-4.51889E+00 4.94711E+01
 -1      2166-1.43885E+03-4.01140E+01-1.17161E+01 4.90103E+02 1.95777E+00 8.15201E+01
 -1      2167 6.57251E+01 1.55653E+01 4.65883E+01 2.07025E+02 1.35500E+01 4.90959E+01
 -1      2168-2.64787E+02-2.75990E+00 2.50571E+01 2.38536E+02 1.98166E+00 1.11815E+01
 -1      2169-4.94390E+02 2.98014E+01 2.82236E+01 4.07308E+02-5.74154E-01 3.03994E+01
 -1      2170 5.68623E+02-1.20321E+00 4.81580E-01 1.51450E+02-1.30891E+00 2.14408E+01
 -1      2171 3.98859E+02 1.60397E+01 2.76336E+01 1.69929E+02-6.64839E+00 6.78500E+01
 -1      2172 3.17332E+02 2.16785E+01 3.82595E+01 3.13552E+02-5.42948E+00 5.68283E+01
 -1      2173 8.94792E+02 1.37653E+01 3.37684E+01 8.66844E+01 4.30807E-01 1.32265E+01
 -1      2174 7.43725E+02-3.53150E+00 2.20754E+01 1.17848E+02 1.71074E+00 1.50627E+00
 -1      2175 7.58830E+02-3.93931E+00 4.17409E+00 2.01481E+02 7.07792E+00 2.50698E+01
 -1      2176 1.01735E+03-4.20050E+00 1.13577E+01 1.97644E+01 7.57773E+00 1.29461E+01
 -1      2177 1.01412E+03 8.65968E+00 3.23324E+01 3.95753E+01-9.41643E-02 1.79566E+01
 -1      2178 1.14879E+03 1.57496E+01 3.60331E+01 1.03862E+02-7.84334E+00 1.45150E+01
 -1      2179 9.72743E+02-2.91383E+00 1.64484E+01-5.16385E+01 5.46008E+00 8.75012E+00
 -1      2180 1.06451E+03 1.83618E+01 2.40816E+01-1.89544E+01-7.77860E-02 6.95108E+00
 -1      2181 1.22806E+03 1.08574E+01 2.16456E+01-3.21120E+00 5.89712E+00 2.12488E+01
 -1      2182 7.84611E+02-1.19488E+01 5.31119E+00-1.05516E+02 8.16687E+00 4.59081E+00
 -1      2183 9.28286E+02 8.35076E-01 2.04271E+01-9.09022E+01 2.70166E+00-3.55918E+00
 -1      2184 1.11960E+03 1.87118E+00 1.98642E+01-1.09710E+02 8.60188E+00-9.54711E+00
 -1      2185 9.25422E+02 2.63811E+01 5.27609E+01-1.84298E+02 8.63303E-01 1.32632E+01
 -1      2186-1.00622E+05-1.97195E+03-1.14827E+03 9.41476E+02-6.19592E+02-3.97861E+02
 -1      2187-9.93271E+04-3.58564E+02-5.11656E+01 5.53183E+02 6.87186E+01-5.48821E+01
 -1      2188-9.51384E+04-1.85615E+03 1.52046E+03 3.12796E+03 2.29285E+02-9.14748E+02
 -1      2189-9.69508E+04-7.53691E+01 9.54505E+00 3.54042E+02-2.23966E+01 7.46430E+01
 -1      2190-9.48954E+04-1.83766E+01-9.00931E+01 3.56064E+02-3.35564E+01 1.28904E+02
 -1      2191-9.08604E+04-4.93124E+02 1.69919E+02 1.01694E+03 1.24693E+02-3.84686E+01
 -1      2192-9.24384E+04 4.39308E+01 4.41579E+01 3.77585E+02 1.13208E+01 9.24680E+01
 -1      2193-8.97068E+04 6.01477E+01 1.89823E+01 4.59864E+02-4.23755E+01 1.99679E+02
 -1      2194-8.63403E+04 4.02250E+01 5.19351E+01 8.82107E+02 1.77447E+01 1.11562E+02
 -1      2195-8.71781E+04-3.22368E+01-3.88253E+01 4.85736E+02 4.56977E+01 1.80673E+02
 -1      2196-8.42379E+04 8.07257E+00-3.58002E+01 4.50447E+02-2.59071E+01 1.08958E+02
 -1      2197-8.14515E+04 1.73753E+01-3.37106E+01 9.88592E+02-1.93330E+00 1.55145E+02
 -1      2198-8.18255E+04 3.50543E+01 3.65237E+01 4.63272E+02 2.10703E+01 1.06860E+02
 -1      2199-7.91090E+04 3.71875E+01 5.28738E+01 5.02814E+02-4.58581E+01 2.46668E+02
 -1      2200-7.63600E+04-4.55146E+00-5.86765E+01 1.03144E+03-6.04296E+00 9.99559E+01
 -1      2201-7.65015E+04 1.56701E+01 3.42623E+01 4.94040E+02 4.73767E+01 2.84419E+02
 -1      2202-7.38988E+04-6.91435E+01-5.85704E+01 4.27827E+02-9.31278E+00 1.50397E+02
 -1      2203-7.12697E+04 6.67703E+01 1.08017E+02 1.05706E+03 2.00430E+01 2.74167E+02
 -1      2204-7.15289E+04-2.96110E+00 5.82265E+01 3.96998E+02 2.36078E+01 9.88222E+01
 -1      2205-6.87338E+04 3.29355E+01-5.28441E+00 4.33828E+02-2.11760E+01 8.49213E+01
 -1      2206-6.69105E+04-1.81368E+01-7.48832E+01 1.02324E+03 7.44671E+00 2.52422E+02
 -1      2207-6.65028E+04 5.36900E+01 4.99753E+01 3.80731E+02 5.24570E+00 1.01240E+02
 -1      2208-6.39289E+04 2.79000E+01 3.19304E+00 4.74417E+02-3.98055E+01 2.41585E+02
 -1      2209-6.19452E+04 1.17421E+02 8.90426E+01 1.02368E+03-7.28610E+00 1.87737E+02
 -1      2210-6.15338E+04-4.26758E+00-1.60963E+01 4.73209E+02 5.26810E+01 2.07689E+02
 -1      2211-5.89196E+04 2.09602E-02-1.96951E+01 4.78012E+02-3.21616E+01 1.85826E+02
 -1      2212-5.77563E+04-1.44223E+01-5.06206E+01 9.75538E+02-3.18190E+00 2.26626E+02
 -1      2213-5.66098E+04 7.06996E+00-2.99819E+01 4.55300E+02 2.13984E+01 1.78813E+02
 -1      2214-5.41804E+04-4.94296E+00-2.46654E+01 4.21715E+02-1.92034E+01 8.06607E+01
 -1      2215-5.30890E+04 7.97515E+00-7.14922E+01 9.48839E+02-2.44043E+00 1.44907E+02
 -1      2216-5.20901E+04-3.97859E+00 1.67675E+01 3.93773E+02 1.63111E+01 7.36815E+01
 -1      2217-4.94895E+04 3.45692E+01-4.28442E+01 3.61949E+02-3.21374E+01 5.36715E+01
 -1      2218-4.87373E+04 4.71142E+01 4.23730E+01 9.25229E+02-6.50210E+00 5.79812E+01
 -1      2219-4.73968E+04 6.87694E+01 5.77687E+01 3.70196E+02 6.67592E+00 1.32347E+02
 -1      2220-4.51685E+04 5.83316E+00-1.22845E+01 4.19880E+02-3.62744E+01 2.37899E+02
 -1      2221-4.43504E+04 6.94235E+01 1.25287E+02 8.75935E+02 2.97003E+00 1.74687E+02
 -1      2222-4.30466E+04-2.53210E+01-3.04319E+01 4.09709E+02 4.80732E+01 1.70853E+02
 -1      2223-4.06413E+04 1.03445E+00-2.03785E+01 3.84086E+02-2.16659E+01 8.85939E+01
 -1      2224-4.06656E+04-1.63217E+01-5.89017E+01 8.66812E+02-5.21940E+00 2.09244E+02
 -1      2225-3.87060E+04 3.02521E+01 2.00963E+01 3.72740E+02 1.23855E+01 7.11859E+01
 -1      2226-3.65682E+04 2.34462E+01 3.66314E+01 3.90685E+02-2.28320E+01 1.40211E+02
 -1      2227-3.64809E+04 1.37996E+01-2.01345E+01 8.33824E+02-7.66319E+00 6.05925E+01
 -1      2228-3.46256E+04 2.69008E+01 3.81334E+01 3.86931E+02 2.47967E+01 1.50501E+02
 -1      2229-3.24427E+04 2.84865E+01 2.70419E+01 3.82620E+02-4.59650E+01 1.63227E+02
 -1      2230-3.26740E+04 5.74492E+01 7.23537E+01 8.03392E+02-3.71960E+00 1.09799E+02
 -1      2231-3.04770E+04 7.93974E+00 2.56880E+01 3.60431E+02 2.60090E+01 1.94248E+02
 -1      2232-2.85015E+04-2.40390E+01-3.07404E+01 2.90323E+02-8.42766E+00 8.61902E+01
 -1      2233-2.87745E+04 6.67163E+01 7.44590E+01 7.82852E+02 1.18454E+01 1.83294E+02
 -1      2234-2.67569E+04 1.73653E+01 2.55795E+01 3.10377E+02 1.95101E+01 9.42122E+01
 -1      2235-2.47909E+04 1.44364E+01-1.40076E+01 3.12761E+02-1.48606E+01 8.74962E+01
 -1      2236-2.54834E+04-4.50037E+01-4.12569E+01 7.59396E+02 9.44633E+00 1.87298E+02
 -1      2237-2.31810E+04 4.40461E+01 2.47000E+01 2.59972E+02 4.66596E+00 6.47334E+01
 -1      2238-2.12656E+04 4.59201E+01-6.61192E+00 2.87447E+02-3.03549E+01 5.80817E+01
 -1      2239-2.19027E+04 1.02096E+02 6.04848E+01 7.27240E+02-1.21965E+01 1.62538E+02
 -1      2240-1.97960E+04 6.73371E-01 1.62332E+01 2.63764E+02 1.69876E+01 4.26047E+01
 -1      2241-1.79768E+04 2.74751E+01-2.05919E+01 2.64741E+02-9.89561E+00 3.41386E+01
 -1      2242-1.89968E+04 4.32979E+01-3.77611E+01 7.03288E+02-1.94781E+01 1.34656E+02
 -1      2243-1.64621E+04 2.53225E+01 2.53730E+01 2.83589E+02 4.76743E+00 8.16667E+01
 -1      2244-1.48063E+04 3.51754E+01 2.44361E+01 2.82438E+02-3.77414E+01 1.09218E+02
 -1      2245-1.58211E+04 2.59900E+01 5.53964E+01 6.13775E+02-2.28749E+00 7.13507E+01
 -1      2246-1.34171E+04 1.27938E+01 1.55868E+01 2.74420E+02 2.42069E+01 1.24483E+02
 -1      2247-1.18801E+04 4.36616E+00-1.51926E+01 2.51151E+02-1.14066E+01 6.36910E+01
 -1      2248-1.28859E+04 5.64525E+01 4.93566E+01 5.72248E+02 1.05535E+01 8.74365E+01
 -1      2249-1.06778E+04 2.03611E+01 3.35817E+01 2.10049E+02 1.07601E+01 3.08528E+01
 -1      2250-9.23518E+03 3.76980E+01 8.56758E+00 2.52119E+02-1.76380E+01 8.67067E+01
 -1      2251-1.03637E+04 4.63649E+01-5.18850E+00 5.41456E+02-1.25752E+01 7.07250E+01
 -1      2252-8.05991E+03 2.70081E+01-3.92031E+00 2.27349E+02 8.65142E+00 8.37842E+01
 -1      2253-6.86196E+03 2.22918E+01 1.40990E+01 2.15959E+02-1.17868E+01 6.61437E+01
 -1      2254-7.96565E+03 3.69065E+01-2.80793E+01 4.88405E+02 5.80494E+00 6.87156E+01
 -1      2255-5.82333E+03 1.87395E+01 3.63347E+01 1.90348E+02 1.54549E+01 6.56731E+01
 -1      2256-4.64851E+03 2.17088E+01-1.35991E+00 1.87766E+02-1.18715E+01 4.37953E+01
 -1      2257-5.75436E+03 5.14728E+01 3.79421E+01 4.31688E+02-1.05862E+01 3.07160E+01
 -1      2258-3.80778E+03 2.99387E+01 1.78780E+01 1.46270E+02 1.74795E+00 1.60176E+01
 -1      2259-2.85016E+03 4.27242E+01 3.52358E+01 1.74176E+02-1.31837E+01 5.06898E+01
 -1      2260-3.89464E+03 6.16784E+01-9.09900E+00 3.86759E+02-7.50612E+00 3.05721E+01
 -1      2261-2.05599E+03 2.59246E+01 2.24598E+01 1.46219E+02 4.48413E+00 5.60862E+01
 -1      2262-1.25158E+03 3.18485E+01 2.33367E+01 1.41656E+02-1.59998E+01 4.77524E+01
 -1      2263-2.19855E+03 6.47268E+01 4.73025E+01 3.25222E+02-1.05793E+00 3.60499E+01
 -1      2264-6.10158E+02 2.91628E+01 2.51326E+01 1.15440E+02 5.77209E+00 4.97782E+01
 -1      2265 2.34280E+01 2.68351E+01 2.38339E+01 1.11902E+02-1.32591E+01 4.86569E+01
 -1      2266-8.12191E+02 6.24992E+01 3.20841E+01 2.62055E+02 2.01903E+00 3.31510E+01
 -1      2267 5.16832E+02 2.95780E+01 2.07465E+01 8.24191E+01 5.62057E+00 4.56604E+01
 -1      2268 1.00339E+03 2.68654E+01 3.41839E+00 7.63073E+01-4.59869E+00 2.13573E+01
 -1      2269 2.73421E+02 6.12504E+01 2.83728E+01 1.97767E+02-1.92624E+00 4.38693E+01
 -1      2270 1.28706E+03 3.14102E+01 9.03159E+00 3.96164E+01-3.64617E+00 1.47380E+00
 -1      2271 1.58310E+03 4.60141E+01 2.90444E+01 4.86296E+01-7.73829E+00 7.49414E+00
 -1      2272 1.06044E+03 6.39092E+01 7.70522E+00 1.44625E+02-8.95600E+00 1.96415E+01
 -1      2273 1.74608E+03 3.07280E+01 2.45810E+01 1.74949E+01-3.16820E+00 4.34725E+00
 -1      2274 1.84831E+03 3.30625E+01 2.29942E+01 1.40270E+01-5.68992E+00-2.80458E+00
 -1      2275 1.56839E+03 6.99220E+01 3.34468E+01 6.90330E+01-3.57478E+00-2.69524E+00
 -1      2276 1.84004E+03 3.19103E+01 2.00585E+01-1.92662E+01-4.59669E+00-3.68285E+00
 -1      2277 1.74796E+03 3.52876E+01 1.99061E+01-2.38334E+01-1.54398E+00-1.07814E+01
 -1      2278 1.72812E+03 7.19037E+01 2.94401E+01-6.15121E+00-9.40631E-01-5.73592E+00
 -1      2279 1.56416E+03 4.67161E+01 2.40353E+01-5.90741E+01-9.24198E+00-5.08686E+00
 -1      2280 1.28935E+03 3.36321E+01-7.73382E+00-6.49344E+01-9.35603E+00 6.23610E+00
 -1      2281 1.54959E+03 8.19135E+01 2.13037E+01-8.49858E+01 1.16464E+00-4.58391E+00
 -1      2282 1.14226E+03 1.01876E+02 4.15405E+01-1.36457E+02-3.86788E+00 2.49015E+01
 -1      2283-7.21444E+03 2.14104E+01-9.99634E-01 8.67748E+02 8.38038E+00 6.53498E+01
 -1      2284-8.16033E+03-2.26950E+01 1.68220E+01 9.19779E+02-2.46819E+01 6.63808E+01
 -1      2285-5.44020E+03 2.55093E+01-2.14290E+01 7.76911E+02 1.09405E+01 4.62805E+01
 -1      2286-6.26314E+03 1.72752E+01 1.23121E+01 8.27637E+02-1.92098E+01 5.60750E+01
 -1      2287-7.50730E+03 5.14394E+01 4.19009E+01 8.18345E+02-2.99705E+00 1.15177E+02
 -1      2288-3.53903E+02 3.59700E+01 1.86224E+01 4.22719E+02 1.09331E+01 3.99603E+01
 -1      2289-7.41297E+02 3.72504E+01 2.99897E+01 4.63553E+02 6.13434E-01 7.40832E+01
 -1      2290-1.33698E+03 4.71424E+01 3.57975E+00 4.81890E+02 1.97430E+01 8.94630E+01
 -1      2291-1.98498E+03 6.66520E+00 4.19410E+00 5.46216E+02-6.42213E+00 1.39945E+02
 -1      2292-1.13550E+03 5.70594E+01 4.00195E+01 4.72484E+02 1.30694E+01 8.66614E+01
 -1      2293 8.18162E+02 5.10131E+01 1.29161E+01 1.93019E+02 2.92186E+00 3.19826E+01
 -1      2294 1.16806E+03 5.62162E+01 1.34671E+01 1.55055E+02-4.53643E+00 2.47703E+01
 -1      2295-3.48903E+01 4.82268E+01 2.56683E+01 2.56446E+02 3.74126E+00 2.82847E+01
 -1      2296 5.21682E+02 7.64554E+01 2.42248E+01 2.47239E+02-1.22055E+01 3.44013E+01
 -1      2297 6.44896E+02 7.53652E+01 4.20233E+01 2.76345E+02-6.20135E+00 2.77590E+01
 -1      2298 1.38426E+03 3.85345E+01 2.67554E+01-4.24378E+01 2.12520E+00-1.88686E+00
 -1      2299 1.31738E+03 2.74136E+01 2.78749E+01 2.61260E+01 1.15962E+00 8.44527E-01
 -1      2300 1.49252E+03 7.01629E+01 4.45792E+01-7.63466E+01 9.11707E+00 5.44554E+00
 -1      2301 1.31695E+03 3.84482E+01 2.10135E+01-9.23179E+01 6.52335E+00-5.55893E+00
 -1      2302 1.15935E+03 2.41832E+01 2.73796E+01-1.67590E+02 7.23565E-01-4.26155E+00
 -1      2303-1.10720E+04 1.00459E+02 9.57736E+01 9.97365E+02 3.49881E+01 1.78089E+02
 -1      2304-1.23785E+04-7.83226E+01-1.00913E+02 1.01703E+03-2.62240E+01 1.74161E+02
 -1      2305-1.43702E+04 6.68002E+01 1.37451E+00 1.02406E+03-1.57500E+01 1.70271E+02
 -1      2306-1.33406E+04-8.30337E-01-1.22862E+00 1.07982E+03 9.60391E-01 1.50281E+02
 -1      2307-1.44914E+04 2.59726E+01 3.91727E+01 1.12457E+03-1.56850E+01 8.06498E+01
 -1      2308-5.76436E+03 5.17131E+01 2.07428E+01 5.78340E+02 3.75495E+00 4.67604E+01
 -1      2309-4.80961E+03 3.46002E+01 2.26044E+01 5.63315E+02-2.37321E+01 7.26714E+01
 -1      2310-3.95331E+03 4.69861E+01 1.03170E+01 5.03225E+02 1.48381E+01 7.35526E+01
 -1      2311-3.08826E+03 5.17459E+01 5.05933E+00 4.60506E+02-3.00141E+00 4.74936E+01
 -1      2312-3.92740E+03 3.02121E+01 1.85859E+01 6.64003E+02-1.56164E+01 9.87531E+01
 -1      2313-1.82586E+04-1.58498E+01 1.32564E+01 1.21485E+03 3.03705E+01 8.82924E+01
 -1      2314-1.94269E+04-1.74365E+00 7.07330E+01 1.21426E+03-1.72595E+01 8.41748E+01
 -1      2315-1.56349E+04 7.71133E+01-2.15653E+00 1.15437E+03 2.62345E+01 7.19118E+01
 -1      2316-1.68616E+04 2.70393E+01 3.47407E+01 1.17288E+03-2.14197E+01 8.80324E+01
 -1      2317-1.96373E+04 2.12421E+01-1.03142E+01 1.15505E+03-9.47737E+00 1.79587E+02
 -1      2318-7.10068E+04 1.65114E+01-4.76862E+01 1.32890E+03 4.36534E+01 1.87360E+02
 -1      2319-6.85946E+04 3.20035E+01-1.17886E+00 1.34174E+03 3.72510E+00 1.72056E+02
 -1      2320-6.65196E+04 2.79039E+01 8.31875E+01 1.30381E+03 3.47235E+01 2.47521E+02
 -1      2321-6.39531E+04 8.97552E+01 8.23978E+01 1.33017E+03-1.82005E+01 2.89595E+02
 -1      2322-6.11365E+04 1.30811E-01 4.22977E+01 1.66163E+03 1.59372E+01 2.91066E+02
 -1      2323-4.50821E+04 1.28038E+02 6.47302E+01 1.52510E+03-5.15443E+00 2.26271E+02
 -1      2324-4.68978E+04 7.84010E+01 7.09813E+01 1.64824E+03-7.26054E+01 1.91732E+02
 -1      2325-4.89372E+04-5.98689E+00-2.27618E+01 1.65556E+03 1.22269E+01 1.50171E+02
 -1      2326-5.04654E+04-6.27642E+01-3.59149E+01 1.62574E+03-3.62436E+01 9.72063E+01
 -1      2327-5.33773E+04-2.15376E+00-8.33863E-01 1.64106E+03-2.90351E+01 2.70262E+02
 -1      2328-5.95029E+04-2.33588E+01 8.77489E+00 1.76854E+03 4.60392E+00 2.54363E+02
 -1      2329-6.13413E+04-8.86188E+00 3.06246E+01 1.79343E+03-2.99447E+01 1.90821E+02
 -1      2330-6.52933E+04-2.61817E+02 3.45637E+01 1.61124E+03 5.18348E+01 2.36758E+02
 -1      2331-6.33115E+04 4.13849E+00-2.19685E+01 1.76885E+03 5.95171E+01 1.83199E+02
 -1      2332-6.95130E+04-1.62178E+02-3.10195E+01 1.65861E+03 2.11314E+01 4.11236E+02
 -1      2333-4.16864E+04-1.28128E+00 6.46714E+01 1.17977E+03 2.47650E+01 1.75793E+02
 -1      2334-3.94793E+04 8.55765E+01 1.06908E+02 1.14095E+03-1.68268E+01 3.14055E+02
 -1      2335-4.56533E+04 2.43980E+01 6.53539E+00 1.19437E+03-6.91382E+00 9.87638E+01
 -1      2336-4.36458E+04 1.25999E+01 2.35010E+01 1.21552E+03-5.10182E+01 1.96405E+02
 -1      2337-3.86564E+04-3.33403E+01-2.36558E+01 1.48878E+03-2.78559E+01 2.34225E+02
 -1      2338-3.42430E+04 3.07811E+01-1.82358E+01 1.07887E+03 3.42448E+01 1.34972E+02
 -1      2339-3.23467E+04 4.79381E+01-7.07774E+00 1.07109E+03 9.64647E+00 9.93732E+01
 -1      2340-2.85554E+04 5.30613E+00 2.79316E+01 1.33764E+03 1.64301E+01 1.58547E+02
 -1      2341-3.07675E+04 2.89903E+01 6.64291E+01 1.05420E+03 1.16057E+01 1.07425E+02
 -1      2342-2.89233E+04 3.30106E+01 9.92562E+00 1.01141E+03-2.55287E+01 1.31064E+02
 -1      2343-5.40081E+04-8.87572E+01-7.69609E+01 1.33666E+03 3.28236E+01 2.46024E+02
 -1      2344-5.15241E+04-1.64079E+01-2.33635E+01 1.25285E+03-6.66258E+01 1.79063E+02
 -1      2345-4.96472E+04 2.01681E+01 5.43075E+00 1.19697E+03 3.24763E+01 1.59988E+02
 -1      2346-4.74275E+04 3.31309E+01-5.84581E+01 1.22345E+03-1.36967E+01 1.36803E+02
 -1      2347-4.57746E+04 8.48765E+01 3.48071E+01 1.52009E+03-2.49049E+01 2.15241E+02
 -1      2348-8.50066E+04-1.78050E+03-6.99153E+00 1.27608E+03 2.19226E+02 4.45800E+01
 -1      2349-8.24615E+04-6.89519E+02-1.56383E+01 1.10884E+03 8.97544E+01 2.08292E+02
 -1      2350-8.54585E+04-3.08792E+03 7.51870E+02 1.09267E+03 3.36999E+02-3.11748E+02
 -1      2351-7.76804E+04-3.25259E+03 4.84301E+02 1.06592E+03 2.95397E+02 1.37975E+02
 -1      2352-8.17095E+04-6.45382E+03 7.13888E+02 1.23953E+03 4.13401E+02-3.79980E+02
 -1      2353-8.90000E+04-4.06925E+03 1.11619E+03 1.77364E+03 6.89975E+02-7.71489E+02
 -1      2354-1.01597E+04 1.52564E+01-5.76053E+00 6.85397E+02 1.68555E+01 1.03548E+02
 -1      2355-8.82815E+03 4.46218E+01-2.09869E+00 6.76355E+02-1.82084E+01 1.00911E+02
 -1      2356-1.24588E+04 4.50592E+01 3.69898E+01 7.23760E+02 1.48176E+01 1.15220E+02
 -1      2357-1.10914E+04 4.67671E+01 3.30703E+01 6.99064E+02-2.14601E+01 1.26578E+02
 -1      2358-9.65271E+03 1.22380E+02 4.92611E+01 8.87843E+02 5.99908E-01 1.98218E+02
 -1      2359 1.31891E+03 3.90949E+01 2.15009E+01 7.84595E+01-2.47805E+00 3.78825E+00
 -1      2360 1.19953E+03 3.46104E+01 2.62138E+01 1.42258E+02-4.82961E+00 1.44326E+01
 -1      2361 9.76646E+02 3.41379E+01 6.27773E+00 1.95096E+02 2.99807E+00 2.65086E+01
 -1      2362 7.08293E+02 1.56423E+01 6.05120E+00 2.40397E+02-5.18291E+00 5.19407E+01
 -1      2363 1.19956E+03 6.14140E+01 3.14276E+01 1.62491E+02-5.54135E+00 3.05071E+01
 -1      2364 1.54934E+03 6.29495E+01 1.52713E+01-8.49607E+01-3.64040E+00-3.56953E-01
 -1      2365 1.37142E+03 6.61476E+01 1.15919E+01-1.40871E+02-7.24562E-02-3.59249E+00
 -1      2366 1.26044E+03 6.24138E+01 4.26632E+01-1.72057E+02 4.19572E+00 1.14314E+01
 -1      2367 1.19219E+03 7.41467E+01 2.48258E+01-1.79123E+02-6.81703E+00 3.96536E+00
 -1      2368 1.14192E+03 9.99882E+01 5.70352E+01-1.93451E+02-5.50894E+00 3.82529E+01
 -1      2369 1.06632E+03 1.00941E+02 6.12991E+01-2.30817E+02-5.43865E+00 3.76062E+01
 -1      2370-2.73372E+04 5.97309E+01 3.53905E+01 1.01002E+03 3.98494E+01 1.44137E+02
 -1      2371-2.53605E+04 8.66479E+01 6.42874E+01 1.03337E+03-2.47976E+01 1.81525E+02
 -1      2372-2.42725E+04-4.70802E+00-3.88995E+01 9.45933E+02 1.93546E+01 2.95155E+02
 -1      2373-2.23622E+04 5.46417E+01-2.37985E+01 9.87261E+02-2.09246E+01 2.31513E+02
 -1      2374-2.24462E+04 7.16474E+01 3.61613E+01 1.23031E+03-2.30742E+01 1.45740E+02
 -1      2375 1.60514E+03 6.53943E+01 2.75120E+01 1.72882E+01-2.36214E+00 1.77981E+00
 -1      2376 1.57374E+03 5.69882E+01 1.63172E+01-2.10465E+01-5.99287E+00 2.63973E+00
 -1      2377 1.37711E+03 6.25878E+01 2.68701E+01 1.02298E+02-2.63736E+00 1.24156E+01
 -1      2378 1.50210E+03 5.82952E+01 1.63816E+01 6.92706E+01-3.64479E+00 1.06737E+01
 -1      2379 1.44227E+03 5.84872E+01 3.15232E+01 4.10409E+01-3.52730E+00 2.40699E+00
 -1      2380-2.09290E+04 8.30544E+00 2.57623E+01 9.49210E+02 1.22651E+01 1.95808E+02
 -1      2381-1.91341E+04 8.58608E+01 8.61910E+01 9.23441E+02-2.16172E+01 2.66751E+02
 -1      2382-1.80901E+04-2.14725E+01-5.08092E+01 8.75573E+02 1.20728E+01 2.00993E+02
 -1      2383-1.65249E+04 1.17916E+01-3.98798E+01 8.25936E+02-3.42880E+01 1.78036E+02
 -1      2384-1.68004E+04-5.46372E+01-5.80393E+00 1.07393E+03-3.10022E+00 2.23034E+02
 -1      2385-3.21232E+04 1.17700E+02 7.74274E+01 1.37995E+03-3.44909E+00 2.00808E+02
 -1      2386-3.37221E+04 8.64777E+01 5.89883E+01 1.49186E+03-4.95679E+01 1.53430E+02
 -1      2387-2.93995E+04 1.24846E+01-5.93069E+01 1.35400E+03 4.28992E+01 1.66165E+02
 -1      2388-3.10111E+04-7.30264E+01-8.74745E+01 1.39418E+03-2.68190E+01 3.18545E+02
 -1      2389-3.52426E+04-9.57409E+00 2.04648E+01 1.37907E+03 3.00310E+01 2.38457E+02
 -1      2390-2.08536E+04 3.85266E+01-2.32791E+01 1.25571E+03 1.20579E+01 7.01022E+01
 -1      2391-2.18960E+04 6.10941E+01 2.77307E+01 1.27027E+03-3.38360E+01 1.30204E+02
 -1      2392-2.54449E+04-5.36961E+00-7.81842E-01 1.26558E+03 2.18216E+01 1.79274E+02
 -1      2393-2.36329E+04-4.84862E+00 1.35208E+00 1.27756E+03 4.67911E+01 1.10771E+02
 -1      2394-2.47391E+04 3.62835E+01 5.07990E+01 1.35400E+03-1.96586E+01 5.44953E+01
 -1      2395-3.55586E+04 7.99145E+00-1.01665E+01 1.51187E+03 3.32966E+01 1.28605E+02
 -1      2396-3.69811E+04 1.20989E+01 7.43407E+01 1.53125E+03-4.16716E+01 8.76351E+01
 -1      2397-3.88001E+04-3.36584E+00-2.19449E+01 1.55231E+03 4.88116E+00 8.68111E+01
 -1      2398-4.00773E+04 1.48560E+01-4.13733E+01 1.46943E+03-3.64286E+01 2.06271E+02
 -1      2399-4.22046E+04 3.83163E+01-3.47541E+00 1.50786E+03-2.04462E+01 1.73125E+02
 -1      2400-7.48259E+04-6.93077E+03 3.06783E+02-7.40919E+02 4.64634E+02 1.78087E+02
 -1      2401-7.07159E+04-3.36606E+03 4.46554E+02 2.78847E+02 2.11480E+02-2.73591E+01
 -1      2402-6.73463E+04-5.22825E+03-1.94375E+02-1.64120E+03 4.53719E+02 1.85046E+02
 -1      2403 9.88636E+02 7.19482E+01 5.40126E+01-2.61573E+02 2.08684E+00 1.38665E+01
 -1      2404 9.87768E+02 3.47121E+01 5.85995E+01-2.40424E+02-1.57960E+00 2.90748E+00
 -1      2405 1.09922E+03 3.89346E+01 3.54754E+01-2.04619E+02-1.65761E+00 1.35365E+01
 -1      2406-1.02915E+03 6.19611E+01 2.61117E+01 3.52479E+02 9.42819E+00 5.33753E+01
 -1      2407-4.00841E+02 5.34653E+01 2.13151E+01 3.14669E+02-1.00871E+01 4.33870E+01
 -1      2408-2.39043E+03 4.47848E+01 4.57918E+01 4.45118E+02-2.48342E+00 5.49581E+01
 -1      2409-1.63354E+03 5.28573E+01 2.14077E+01 3.94748E+02-2.14434E+01 5.21651E+01
 -1      2410-2.42021E+03 4.00871E+01 3.38872E+01 5.78893E+02-1.20160E+01 7.50033E+01
 -1      2411-3.08567E+03 4.27698E+01 4.24904E+01 6.52264E+02-2.95862E+01 5.32234E+01
 -1      2412-3.98439E+03 1.70834E+01 1.69976E+01 6.90393E+02 1.68281E+01 4.61713E+01
 -1      2413-4.56738E+03 1.96746E+01 1.92813E+01 7.34414E+02-4.64909E+00 2.80878E+01
 -1      2414-5.78841E+04-2.89972E+01 5.13952E+01 1.32241E+03 2.85416E+01 2.51834E+02
 -1      2415-5.53947E+04 8.09523E+01 9.83063E+01 1.25206E+03-1.98377E+01 3.37489E+02
 -1      2416-6.24979E+04-5.54676E+01-9.62731E+01 1.33613E+03 3.30577E+01 3.63606E+02
 -1      2417-5.99030E+04 3.21241E+01-1.01769E+01 1.34348E+03-2.61618E+01 2.65625E+02
 -1      2418-5.22472E+04 3.46276E+01 1.57434E+00 1.71918E+03 2.96225E+01 1.64705E+02
 -1      2419-5.39500E+04 6.94428E+01 6.56712E+01 1.76206E+03-4.25862E+01 1.87285E+02
 -1      2420-5.60592E+04 3.79405E+01-1.12559E+01 1.69983E+03 1.50161E+01 1.04836E+02
 -1      2421-5.75605E+04-4.48186E+01-1.44038E+02 1.63267E+03-3.84396E+01 2.95610E+02
 -1      2422-8.03772E+04-2.07676E+02-1.70986E+01 1.26262E+03 6.68039E+01 2.03293E+02
 -1      2423-7.77486E+04-2.06166E+01-1.13495E+01 1.23031E+03-7.33441E+00 2.33992E+02
 -1      2424-7.58053E+04-8.36992E+00-4.36569E+01 1.24437E+03 4.89592E+01 2.23186E+02
 -1      2425-7.32254E+04 1.87547E+01-3.57911E+01 1.28669E+03-3.70678E+01 2.25134E+02
 -1      2426-7.38306E+04-4.60701E+02 8.66041E+01 1.50728E+03 1.24149E+02 2.85303E+02
 -1      2427-6.74592E+04-7.58101E+02 1.05801E+01 1.36358E+03 1.74010E+02 2.73108E+02
 -1      2428-6.96545E+04-1.85084E+03 4.71873E+01 6.45939E+02 6.39895E+01 1.48874E+02
 -1      2429-9.09192E+03 3.09412E+01-6.08984E+00 9.66895E+02 1.56817E+01 9.16862E+01
 -1      2430-1.00288E+04 5.75928E+01 2.42262E+01 1.00121E+03-2.89559E+00 1.34834E+02
 -1      2431-1.17371E+04 7.62207E+00 2.69197E+01 9.63941E+02 9.35943E+00 1.82657E+02
 -1      2432-1.37224E+04 3.95893E+01 4.88359E+01 8.03086E+02-2.52688E+01 1.02011E+02
 -1      2433-1.51892E+04 2.93966E+01 3.19784E+01 8.22700E+02 6.76043E-01 1.15961E+02
 -1      2434 4.73020E+02 3.04840E+01 2.94389E+01 3.00294E+02-7.39410E-01 4.85126E+01
 -1      2435 1.04960E+02 2.15108E+01 2.18907E+01 3.58432E+02-1.21258E+01 4.03436E+01
 -1      2436-1.74656E+02 3.88410E+01 3.06679E+01 3.85869E+02-1.11039E+01 7.69819E+01
 -1      2437-7.80112E+03 2.49660E+01 1.55954E+01 6.45988E+02 1.75062E+01 1.04724E+02
 -1      2438-6.67544E+03 3.32529E+01-1.63112E+01 6.08904E+02-9.23333E+00 6.21976E+01
 -1      2439-5.60663E+03 5.34601E+01 2.44549E+01 7.43868E+02 7.90113E+00 8.14886E+01
 -1      2440-3.82279E+04-7.62568E+01-6.31864E+01 1.20445E+03 3.11118E+01 2.32447E+02
 -1      2441-3.59950E+04-1.97451E+01-2.62965E+01 1.12403E+03-6.29042E+01 1.61203E+02
 -1      2442-3.17508E+04 7.08253E+01 2.89818E+01 1.36535E+03-2.69283E+01 1.98257E+02
 -1      2443-2.63401E+04-8.83201E+00-3.18762E+01 1.37811E+03 2.22199E+01 6.60646E+01
 -1      2444-2.75782E+04 1.86566E+01 5.57399E-01 1.33589E+03-3.44474E+01 1.78052E+02
 -1      2445-4.21311E+04-4.83821E+00-8.48347E+01 1.50787E+03 5.41775E+01 1.82318E+02
 -1      2446-4.38396E+04-7.69200E+01-9.44527E+01 1.54662E+03-2.97289E+01 3.54059E+02
 -1      2447-4.96124E+04-1.04546E+01 1.57761E+01 1.53263E+03 3.25107E+01 2.59725E+02
 -1      2448-5.73881E+04 1.16945E+02 3.18965E+01 1.60427E+03 8.38432E+00 3.26417E+02
 -1      2449-6.54801E+04 9.40973E+01 1.94136E+01 1.67940E+03-1.22134E+01 3.08106E+02
 -1      2450-2.45933E+03 6.21353E+01 4.75776E+01 5.51959E+02-2.46765E+00 6.39436E+01
 -1      2451-4.24440E+03-1.00299E+02 3.94260E+01 2.46986E+03 1.55633E+02 5.95516E+03
 -1      2452 4.99655E+01 4.86223E+00 1.65679E+00-1.67736E+02-5.61707E-01-3.81000E+02
 -1      2453 1.56699E+01 2.22837E+00-7.39586E+00 4.06184E+01 2.04084E-01 9.65985E+01
 -1      2454 1.03564E+02 2.81110E+01 1.49523E+01 1.54558E+03-1.45111E+01 3.66550E+03
 -1      2455 1.64017E+00 1.92776E+00 1.64818E+00 1.34763E+03 1.43018E+00 3.20574E+03
 -1      2456 2.20586E+00 3.34416E+00-3.00603E+00 3.10459E+02-1.39025E-01 7.51459E+02
 -1      2457-6.78130E-01 9.02671E-01 6.50685E-01 4.69907E+02 2.96991E-01 1.13848E+03
 -1      2458 1.91607E+01 4.33227E+00 5.42878E+00 5.83262E+02 1.79146E+00 1.41142E+03
 -1      2459 2.39570E+01-2.69144E+01-5.74131E+00 7.71701E+02 3.94847E+00 1.81802E+03
 -1      2460 4.32318E+00 5.57636E+00-7.85639E-01 9.58562E+02 2.65455E-01 2.24656E+03
 -1      2461-3.47932E+00 9.27900E-01 1.32288E+00 1.21036E+03-4.17673E-01 2.88724E+03
 -1      2462 2.51317E+01-1.71827E+01 2.75358E+01 1.42421E+03-2.18111E+00 3.34462E+03
 -1      2463-6.70371E+00 1.50029E+00-1.87050E-01 1.05567E+03-1.00299E+00 2.48021E+03
 -1      2464-7.86824E+00-1.07463E+00-1.70845E-01 1.20771E+03 3.50168E-01 2.87553E+03
 -1      2465 3.70022E+00 2.79733E+00-2.62126E+01 1.14719E+03 1.23079E+00 2.69952E+03
 -1      2466-8.58396E+02 1.20626E+01 2.27485E+01 8.31158E+02 4.64080E+00 2.00330E+03
 -1      2467 4.10916E+01-1.35622E+01 2.84094E+01 1.78714E+02 2.82844E+00 4.27815E+02
 -1      2468-4.01302E+03-3.95776E+01 3.71870E+01 1.40792E+03-3.90749E+00 3.32023E+03
 -1      2469-2.36487E+02-2.44837E+01-7.74313E+01-1.83307E+02-2.18435E+00-4.48685E+02
 -1      2470 4.67947E+04 2.44789E+03 1.31706E+03 2.61715E+03-1.53060E+03 5.37210E+03
 -1      2471 1.01063E+02-3.83940E+01 8.94858E+01-2.03592E+02 6.74622E-01-4.55335E+02
 -1      2472 1.90826E+04 1.73700E+03-4.55408E+02 1.53464E+03 6.07907E+02 4.90799E+03
 -1      2473 8.14442E+03 1.77311E+01-1.58259E+01 1.25646E+03 9.33052E+00 2.87513E+03
 -1      2474 2.28127E+04-2.44008E+00-1.37468E+01 1.18866E+03 9.63841E+00 2.91783E+03
 -1      2475 2.46328E+02 2.23325E+01-4.04830E+01 3.90146E+02-3.84751E+00 8.87449E+02
 -1      2476-2.50887E+02-1.85254E+01 3.72766E+01 3.88319E+02 4.98677E+00 8.85188E+02
 -1      2477-3.26907E+03 1.43734E+01 3.25677E+01 6.18760E+02-6.50893E+00 1.53420E+03
 -1      2478-1.77689E+03 1.82352E+01 3.62431E+01 4.98872E+02-9.57555E+00 1.21465E+03
 -1      2479 1.79049E+03-2.10026E+01-4.14422E+01 5.00210E+02 1.12566E+01 1.21226E+03
 -1      2480 3.24999E+03-4.43494E+00-2.76644E+01 6.22754E+02 3.02921E+00 1.51491E+03
 -1      2481-2.27998E+04 1.85293E+00 7.73497E+00 1.15363E+03-6.36695E+00 2.97707E+03
 -1      2482 8.41971E+03-5.26249E+00-2.78709E+01 8.53491E+02 6.66620E+00 2.13670E+03
 -1      2483 4.50474E+03 1.42536E+01-3.41368E+01 1.02782E+03-1.18080E+00 2.37638E+03
 -1      2484-5.56940E+03-1.64378E+00 3.02797E+00 1.12264E+03-5.04516E+00 2.56314E+03
 -1      2485-8.42342E+03 8.48592E+00 2.62778E+01 8.50955E+02-7.12794E+00 2.13788E+03
 -1      2486-1.65594E+04 1.06941E+01 1.49924E+01 1.08825E+03-2.37492E+01 2.68837E+03
 -1      2487-7.98300E+03-9.16207E+00 2.46560E+01 1.26172E+03-6.06778E+00 2.87858E+03
 -1      2488-4.46908E+03-5.08198E+00 2.77444E+01 1.02836E+03 4.50349E+00 2.38892E+03
 -1      2489 1.65923E+04-5.21646E+00-1.23913E+01 1.08595E+03 2.23255E+01 2.68428E+03
 -1      2490 5.61833E+03-6.18159E+00 1.12293E+01 1.09931E+03 2.30610E+00 2.54046E+03
 -1      2491-1.95819E+04-1.88552E+03 3.66251E+02 1.60487E+03-6.34318E+02 4.80734E+03
 -1      2492-9.26395E+01 4.34692E+01-7.55793E+01-2.06385E+02 1.29068E+00-4.67642E+02
 -1      2493-1.80626E+02 2.08028E+01-4.85922E+01 1.18596E+02-4.59173E+00 2.79707E+02
 -1      2494 1.13378E+04-4.03687E+00-1.12129E+01 1.32267E+03-5.44457E+00 3.06451E+03
 -1      2495 3.27431E+04-4.21164E+01-4.24137E+01 1.26918E+03-3.75683E+02 3.47862E+03
 -1      2496-5.08557E+02-1.66380E+01-4.70035E+01-5.23908E+01 9.89537E+00-1.20990E+02
 -1      2497-4.89516E+04-2.35621E+03-1.51617E+03 2.91810E+03 1.48179E+03 5.32765E+03
 -1      2498-6.22138E+01 1.61803E+01-3.77050E+01 2.31900E+02-3.31551E+00 5.27498E+02
 -1      2499 1.23192E+04-1.69872E+01 7.63209E+00 1.39597E+03 1.89537E+01 3.18017E+03
 -1      2500 2.39054E+02 2.50500E+01 7.63910E+01-1.74082E+02 5.11714E+00-4.59904E+02
 -1      2501 2.78701E+03 1.18463E+01-3.10725E+01 8.38671E+02 4.95173E+00 1.92826E+03
 -1      2502 1.87071E+03 1.51786E+01-3.29836E+01 7.47959E+02-4.45561E+00 1.80906E+03
 -1      2503-3.41526E+04 6.05547E+01 2.70141E+01 1.21774E+03 3.61906E+02 3.40519E+03
 -1      2504-1.15667E+01 2.49516E+01-3.59131E+01-4.15925E+01-5.40623E+00-1.25565E+02
 -1      2505 3.74258E+02-1.55703E+01 5.70990E+01-5.36103E+01 2.75735E+00-1.03017E+02
 -1      2506 5.77203E+03-1.02200E+01-3.72421E+01 6.80540E+02 1.07973E+01 1.67462E+03
 -1      2507 7.50685E+03-6.80261E+00-1.08488E+01 7.34669E+02-1.12099E+00 1.85514E+03
 -1      2508-5.02241E+02-1.66177E+01-4.59988E+01 9.85402E+01 1.38351E+01 2.43855E+02
 -1      2509 5.05565E+02 1.85663E+01 4.82683E+01 9.90542E+01-1.21402E+01 2.48310E+02
 -1      2510 1.35796E+02 1.67279E+01 4.24201E+01 2.15701E+02-1.03666E+01 5.30949E+02
 -1      2511-1.30014E+02-1.47732E+01-4.34387E+01 2.14193E+02 8.62736E+00 5.31295E+02
 -1      2512 3.03119E+04-6.69347E+00-2.86205E+01 1.18030E+03-2.75305E+00 2.92038E+03
 -1      2513 3.32999E+04-1.11973E+01 1.12165E+01 1.18218E+03-4.47687E+01 3.00044E+03
 -1      2514-1.64712E+04-1.45876E+01-1.02693E+01 9.62019E+02 1.14865E+01 2.41950E+03
 -1      2515-1.67650E+03-1.90461E+01 3.44774E+01 6.61813E+02 5.42719E+00 1.52094E+03
 -1      2516-6.19278E+02 2.23403E+01 4.31176E+01 3.21954E+02-1.41493E+01 7.88227E+02
 -1      2517 6.18494E+02-2.24347E+01-4.42676E+01 3.20825E+02 1.41557E+01 7.89445E+02
 -1      2518-7.84103E+02-1.66670E+01 4.10306E+01 4.97424E+02 2.76074E+00 1.14084E+03
 -1      2519 7.88523E+02 1.78591E+01-4.50278E+01 4.96092E+02-3.12257E+00 1.13633E+03
 -1      2520 1.52111E+03 7.44233E+00-3.15816E+01 6.26005E+02 7.22770E-01 1.44850E+03
 -1      2521-1.08199E+04-1.50639E+01 3.66337E+01 1.25468E+03 9.42686E+00 2.85063E+03
 -1      2522 3.96489E+03 2.80503E+00-2.66534E+01 8.90354E+02-7.41618E+00 2.05181E+03
 -1      2523-2.35922E+04-8.58050E+00-1.24385E+01 1.07675E+03 9.72306E+00 2.69723E+03
 -1      2524-7.84418E+03-1.67587E+01 4.22147E+01 1.13275E+03 7.30341E+00 2.57680E+03
 -1      2525 1.08635E+04 1.06663E+01-4.28479E+01 1.25063E+03-7.04302E+00 2.83973E+03
 -1      2526-3.95956E+03-1.77748E-01 2.03020E+01 9.06460E+02 2.40373E+00 2.07701E+03
 -1      2527 1.64547E+04 1.16447E+01 1.49632E+01 9.60110E+02-1.26184E+01 2.41932E+03
 -1      2528 2.36844E+04 6.91883E+00 1.20791E+01 1.07742E+03-1.08545E+01 2.69331E+03
 -1      2529 7.82427E+03 1.58241E+01-4.02130E+01 1.13281E+03-6.45899E+00 2.57679E+03
 -1      2530 1.26218E+04-2.33982E+01-4.52362E+01 8.83378E+02-4.65040E+00 2.21337E+03
 -1      2531-1.26085E+04 2.48974E+01 4.12340E+01 8.87709E+02 5.70090E+00 2.21216E+03
 -1      2532-7.44280E+03 6.83822E+00 7.98495E+00 7.30484E+02 1.97349E+00 1.84491E+03
 -1      2533-3.01752E+04 2.01392E+01 3.41404E+01 1.16164E+03-1.66917E+00 2.93088E+03
 -1      2534-3.31386E+04 2.90858E+01 1.51871E+01 1.22075E+03 3.98391E+01 3.03418E+03
 -1      2535-1.53096E+04 7.46447E+01-3.25709E+01 1.69669E+03-1.34319E+02 3.45692E+03
 -1      2536 1.42070E+04-6.87860E+01 1.82043E+01 1.64315E+03 1.20403E+02 3.44167E+03
 -1      2537-2.54167E+03-1.69860E+01 2.83525E+01 7.15880E+02 5.77397E+00 1.63609E+03
 -1      2538-3.74484E+03-1.87402E+01 5.66081E+01 7.81366E+02 2.32759E+00 1.76480E+03
 -1      2539 2.45058E+02-2.32396E+01 4.62521E+01 9.47677E+01 5.35703E+00 2.11111E+02
 -1      2540 2.55821E+01-1.77436E+01 4.45863E+01 2.38344E+02 4.61816E+00 5.44714E+02
 -1      2541-5.89698E+03 1.59731E+01 3.46798E+01 6.79438E+02-3.34294E+00 1.68282E+03
 -1      2542-1.53805E+04 1.78655E+01 1.51474E+01 1.35313E+03-1.82330E+01 3.00252E+03
 -1      2543-1.35904E+04 1.23871E+01-1.70421E+01 1.26804E+03 1.19085E+01 2.90022E+03
 -1      2544 7.22338E+02 2.40658E+01 5.25751E+01-6.65938E+00-1.45590E+01-6.16698E+00
 -1      2545 1.00405E+04-6.80260E+00 3.10726E+00 1.11862E+03-1.06165E+01 2.56960E+03
 -1      2546-1.36427E+03 1.57338E+01 3.80949E+01 3.62751E+02-1.11915E+01 9.09253E+02
 -1      2547-1.49466E+03-1.74293E+01 4.76530E+01 5.76593E+02 4.56330E+00 1.31854E+03
 -1      2548 1.36425E+03-1.61121E+01-3.82340E+01 3.62219E+02 1.05121E+01 9.09698E+02
 -1      2549 2.25100E+03 1.74112E+01-3.57278E+01 6.56769E+02-9.97419E-02 1.49704E+03
 -1      2550 1.37613E+04 6.64766E-03-1.62984E+00 1.21985E+03 4.42005E+00 2.75273E+03
 -1      2551 2.55562E+04-1.88313E+01-4.45473E+01 1.02853E+03-4.08797E+00 2.55307E+03
 -1      2552-2.55599E+04 1.94248E+01 4.57400E+01 1.02762E+03 4.88366E+00 2.55282E+03
 -1      2553-9.97563E+03 8.21202E+00-1.62776E+00 1.11617E+03 8.08101E+00 2.57344E+03
 -1      2554-1.65518E+04 6.74147E+00 2.07133E+01 9.02114E+02-1.12203E+01 2.20040E+03
 -1      2555 1.65407E+04-6.29068E+00-1.89597E+01 8.74820E+02 9.85094E+00 2.22661E+03
 -1      2556-5.28191E+03-6.69586E+00 8.30858E+00 9.07857E+02-3.75916E-01 2.04551E+03
 -1      2557 5.26998E+03-1.70875E+00-1.30244E+01 8.99328E+02-3.64592E+00 2.04776E+03
 -1      2558 6.73812E+02 2.55931E+01 6.74382E+01-9.58406E+01-1.41888E+01-1.90707E+02
 -1      2559 1.32495E+03 1.70300E+01-3.53505E+01 5.40271E+02-3.88637E+00 1.24108E+03
 -1      2560 3.40280E+03-1.95079E+01-4.08214E+01 5.11022E+02 1.41137E+01 1.24476E+03
 -1      2561-3.50258E+03 1.69571E+01 4.36460E+01 5.06628E+02-1.38571E+01 1.27983E+03
 -1      2562-6.97922E+03-1.09708E+01 2.41656E+01 1.00404E+03-7.36661E-02 2.28976E+03
 -1      2563 1.13048E+04 3.36886E+00-4.82729E+00 1.14520E+03 6.10861E+00 1.78437E+03
 -1      2564 1.06157E+03-4.75342E-01-2.87275E+01 7.86266E+02-3.51483E+00 2.60964E+03
 -1      2565 1.21729E+04-2.77232E+01-4.71898E+01 6.17562E+02 8.88474E+00 1.33243E+03
 -1      2566 1.45132E+04 7.51227E+01 4.85844E+01 1.01761E+03-3.45199E+01 1.42036E+03
 -1      2567 3.81391E+03 1.77293E+01-6.92400E+00 6.45141E+02-3.75270E-01 2.40686E+03
 -1      2568 2.70563E+03-4.30054E+01-4.51239E+01 1.07633E+03 8.65976E+00 2.60708E+03
 -1      2569 3.44163E+03 2.43550E+01 5.17759E+01 6.04578E+02-1.21665E+01 2.31554E+03
 -1      2570 1.31860E+04-3.61864E+01-4.88111E+01 1.03589E+03 2.60568E+00 1.37549E+03
 -1      2571 2.35873E+03 3.17878E+01 5.35935E+00 1.08023E+03-8.05369E+00 2.55663E+03
 -1      2572-3.44280E+02-5.73909E+00-2.12478E+01-8.74927E+01-1.16261E+00-4.95675E+02
 -1      2573-4.25672E+02-3.00627E+01-4.20172E+01-8.14971E+01-2.60422E+00-3.82431E+02
 -1      2574-1.24182E+02-8.62447E+00 2.40616E+01-9.08165E+01-6.26589E+00-5.11005E+02
 -1      2575-1.57970E+02-2.27071E+01 3.37728E+01-8.78812E+01 2.64006E+00-3.84597E+02
 -1      2576-4.84806E+01-3.97241E+01 7.47511E+00-1.87001E+02-9.48401E+00-5.07179E+02
 -1      2577-7.63060E+02-2.99475E+01-6.63618E+01-1.61756E+02-4.46490E+00-2.00770E+02
 -1      2578-6.22201E+02-1.44165E+01-3.58677E+01-2.04950E+02 7.21002E+00-2.08775E+02
 -1      2579-4.98777E+02 1.46281E+01-2.34702E+01-2.18196E+02-7.56842E+00-2.22484E+02
 -1      2580-1.22026E+02 1.36964E+01-8.84059E+01-2.16641E+02-5.45735E+00-4.44748E+02
 -1      2581-6.40359E+02 2.08515E+00-6.11771E+01-1.61199E+02 3.98168E+00-2.07930E+02
 -1      2582 6.35489E+04 4.30915E+03 5.09163E+02 1.67861E+03-7.69353E+02 2.49177E+03
 -1      2583 2.05193E+04 7.77736E+02 3.90802E+02 2.37494E+03-1.05395E+03 5.55199E+03
 -1      2584 3.83093E+04 2.34139E+03 6.35895E+01 1.62097E+03-2.60982E+02 3.29263E+03
 -1      2585 5.03997E+04 3.67889E+03-1.11530E+02 9.05643E+02-4.02123E+01 2.48114E+03
 -1      2586 7.08974E+03 5.64249E+02-1.68595E+02 2.23892E+03 5.40172E+02 5.33707E+03
 -1      2587 3.32532E+04 2.82260E+03 5.63311E+01 1.84816E+03-5.90896E+02 5.34297E+03
 -1      2588 1.48066E+04 7.49685E+01 1.12929E+03 1.37270E+03-7.63513E+02 3.97327E+03
 -1      2589 3.96559E+04 9.51203E+02 2.38860E+03 1.21782E+03-1.07812E+03 3.50658E+03
 -1      2590 7.57978E+03-7.49640E+02 9.85449E+02 8.20211E+02-7.36187E+02 2.96437E+03
 -1      2591 1.35087E+04 3.10293E+02 1.28892E+03 2.40354E+03-1.02091E+03 5.24390E+03
 -1      2592-1.18204E+04-8.12233E+02 1.79629E+02 2.28190E+03-3.37392E+02 5.44485E+03
 -1      2593 1.79743E+02 2.73097E+01-2.41632E+01 1.82813E+02-7.11990E+00 3.67525E+02
 -1      2594 1.16199E+02-1.15699E+01-8.41803E+01 2.09261E+02-1.37020E+01 7.51853E+02
 -1      2595 2.91321E+02 3.25173E+01-1.00596E+01 3.25472E+02-9.17331E-02 4.59638E+02
 -1      2596-1.57745E+01-2.35793E+01-5.77036E+01 2.56001E+02-6.94904E+00 3.21123E+02
 -1      2597 8.74921E+01 2.88318E+01-3.16499E+01 3.17517E+02-3.30739E-01 7.06237E+02
 -1      2598 3.09635E+01 2.42154E+01-1.55459E+01 1.50171E+02 2.03342E+00 5.96720E+02
 -1      2599 9.18596E+01 9.55268E+00-4.75255E+01 3.68295E+02-1.67048E+00 8.35927E+02
 -1      2600 3.15400E+01 1.36589E+01-1.29021E+01 1.95044E+02-4.66795E+00 6.92965E+02
 -1      2601-1.35073E+01 1.49846E+01-1.45676E+01 2.93776E+02-4.46370E+00 6.61126E+02
 -1      2602 1.02722E+02-6.20225E+00-3.75890E+01 3.03766E+02-2.50004E+00 4.71559E+02
 -1      2603 1.44100E+04-2.02568E+01 2.52101E+02 1.35213E+03-6.64483E+02 4.03227E+03
 -1      2604 7.43852E+03-4.32116E+02 1.07355E+03 8.84461E+02-6.25129E+02 3.39702E+03
 -1      2605 3.69681E+04 5.63473E+02-7.28818E+01 1.69554E+03-2.42366E+02 3.22485E+03
 -1      2606 4.84654E+04 2.08305E+03-3.04639E+02 1.24337E+03-3.79613E+01 2.28716E+03
 -1      2607-1.16397E+02 9.93893E+00-4.95019E+01 5.36294E+01-7.04743E+00 1.75467E+02
 -1      2608-6.25880E+02 1.89824E+01-3.71400E+01 7.74850E+01-1.61070E+00 1.27962E+02
 -1      2609-5.53863E+02 1.59833E+01-4.12096E+01 2.78011E+01-6.34766E+00 4.57355E+01
 -1      2610-1.40692E+00 2.09001E+01-5.17960E+01-4.91759E+00-3.28479E+00-8.48552E+00
 -1      2611-5.36550E+02 1.38107E+01-4.13906E+01 6.30740E+00-5.08906E+00-2.77184E+01
 -1      2612-1.19899E+02 1.81291E+01-4.19851E+01 3.40787E+01-4.04944E+00 8.52588E+01
 -1      2613-1.07218E+02 8.86469E+00-4.25119E+01 7.95138E+01-2.28584E+00 1.94251E+02
 -1      2614-5.20552E+02 1.52974E+00-3.20367E+01 4.35187E+01 3.52671E-01 6.37167E+01
 -1      2615-1.54888E+01 1.05760E+01-2.79062E+01-6.09134E+00-6.64885E+00-7.48142E+00
 -1      2616 6.09607E+03-6.32744E+01-9.08319E+01 6.80861E+02-1.71347E+01 3.25907E+03
 -1      2617-5.58206E+03 3.47205E+00-9.13902E+01 1.38634E+03-2.58516E+00 3.10574E+03
 -1      2618 1.16513E+04-6.06104E+01-3.34714E+01 8.55796E+02 3.78528E+01 3.35136E+03
 -1      2619 5.11642E+03 4.62972E+01 8.77561E+01 6.88060E+02 3.49602E+01 3.26387E+03
 -1      2620-6.74262E+03-6.60380E+01 1.19686E+02 1.41505E+03 9.55431E+00 3.18034E+03
 -1      2621-1.22013E+04 8.56068E+00 1.38491E+01 1.23239E+03-4.76143E+00 2.83259E+03
 -1      2622-3.28845E+04 6.22341E+01 1.36613E+02 1.38247E+03 3.45476E+01 1.54820E+03
 -1      2623-2.78869E+04 1.38905E+01 4.70331E+01 1.42682E+03-1.16278E+01 2.02132E+03
 -1      2624-3.49441E+04-1.07699E+01-5.17412E+01 1.31407E+03-5.13706E+01 1.56974E+03
 -1      2625-7.49679E+03-1.63910E+01 8.02070E+01 6.99662E+02-2.99044E+01 2.93519E+03
 -1      2626-8.85958E+03 4.92495E+01-1.61930E+01 7.16229E+02 3.17143E+01 2.95305E+03
 -1      2627-2.77365E+04-1.37226E+01 8.00581E+01 1.31741E+03-1.50633E+01 1.56626E+03
 -1      2628-2.96104E+04 5.18647E-01-8.57917E+01 1.34006E+03 6.92245E+00 1.56329E+03
 -1      2629 3.86938E+04 3.83214E+02 5.01980E+02 1.00069E+03-9.06196E+02 3.69890E+03
 -1      2630 6.16124E+04 1.85159E+03 1.50288E+02 1.77877E+03-6.49512E+02 2.32698E+03
 -1      2631 8.16113E+00 1.21860E+01-2.67264E+00 1.86023E+02-3.44718E+00 7.06229E+02
 -1      2632-1.49720E+02 5.17689E+00-1.81458E+00 1.98390E+02-7.64747E-01 8.19414E+02
 -1      2633-1.26881E+01-6.02412E+00-2.48385E+01 2.88759E+02-8.99277E+00 4.51417E+02
 -1      2634 3.23094E+02-4.93789E+00-1.59243E+01 3.37553E+02-8.57771E+00 4.84795E+02
 -1      2635-6.64537E+02-7.26469E+00-2.54017E+01 1.48177E+01 1.67580E+00 3.95909E+01
 -1      2636-6.73810E+02 7.31471E+00-2.57311E+01-2.67049E+01-1.19987E-01-5.45210E+01
 -1      2637-6.02598E+02-1.35651E+00-1.53208E+01 7.04196E+01-9.37044E-01 8.23724E+01
 -1      2638 1.95286E+04 5.08680E+01 4.44901E+01 1.29737E+03 4.92567E+01 1.99032E+03
 -1      2639 2.41680E+04 1.07577E+01-2.15404E+01 1.37303E+03 8.03168E+01 1.91831E+03
 -1      2640 2.32967E+04-3.79000E+01-2.86647E+01 1.18595E+03 1.79591E+01 1.65165E+03
 -1      2641 2.77020E+04-1.00845E+02-1.07650E+02 1.38651E+03-8.89831E+00 1.58910E+03
 -1      2642 4.23107E+03 3.52530E+01 3.18963E+01 1.37657E+03 2.54160E+01 3.09066E+03
 -1      2643 3.00439E+04 4.87166E+01 6.83487E+01 1.39851E+03-1.11367E+01 1.56482E+03
 -1      2644 2.51637E+04 8.01201E+01 3.59700E+01 1.21442E+03 4.71912E+00 1.61324E+03
 -1      2645 5.34514E+03-1.82245E+01-7.67248E+01 1.36822E+03-2.53475E+00 3.03640E+03
 -1      2646 2.79763E+04-1.34116E+01-2.18061E+01 1.46912E+03-3.04172E-01 2.02990E+03
 -1      2647 3.46166E+04 1.44501E-01 4.39786E+01 1.23116E+03-2.96559E+01 2.08180E+03
 -1      2648 3.88344E+04-3.97633E+01-9.68669E+01 1.34357E+03 2.45459E+01 1.63519E+03
 -1      2649 4.55552E+04-3.28452E+00-6.59603E+01 1.19131E+03-2.59516E+01 1.65168E+03
 -1      2650 1.17444E+04 1.47155E+02 1.33491E+02 1.29612E+03 5.48735E+00 3.09428E+03
 -1      2651 2.99818E+04-2.74765E+00-3.96975E+01 1.13610E+03 5.34449E+01 1.98655E+03
 -1      2652 2.53950E+04-8.86065E+00 2.78238E+01 1.35237E+03 7.60598E+01 1.94314E+03
 -1      2653 4.18077E+04-2.52953E+01 4.24010E+01 1.15144E+03 2.31727E+01 1.60954E+03
 -1      2654 3.72898E+04 5.10025E+01 9.93588E+01 1.35121E+03 3.01872E+00 1.60296E+03
 -1      2655 1.10988E+04-8.01292E+01-1.07271E+02 1.22424E+03 4.25526E+01 3.07952E+03
 -1      2656 1.37038E+04 4.55681E+01 2.89131E+01 1.13813E+03 2.09490E+01 1.69795E+03
 -1      2657 1.48707E+04-3.08821E+00-3.86043E+01 1.15080E+03-1.81126E+00 1.72080E+03
 -1      2658 9.46414E+03 4.11651E+01-2.33597E+01 1.27483E+03 1.22300E+00 2.83688E+03
 -1      2659 2.92630E+03 1.17975E+01 2.16494E+01 1.22334E+03 1.10753E+01 2.77006E+03
 -1      2660 1.64335E+04 3.59407E+00-3.30442E+01 1.06896E+03 3.20778E+00 1.44680E+03
 -1      2661 1.38686E+04 6.09747E+01 6.02654E+01 1.17757E+03 5.38504E+01 1.79223E+03
 -1      2662 3.82016E+03-2.18332E+01-6.68990E+01 1.23121E+03-4.65751E+00 2.75188E+03
 -1      2663 1.79831E+04 8.83304E+01 5.02273E+01 1.08796E+03 1.46077E+01 1.44828E+03
 -1      2664 6.64162E+03-1.11150E+01-6.77962E+01 1.13869E+03-1.91331E+01 2.55011E+03
 -1      2665 3.70481E+04-6.24541E+01-1.02667E+02 1.25223E+03-2.94233E-01 1.51357E+03
 -1      2666 4.16028E+04-6.38697E+01-8.16958E+01 1.11040E+03-2.59694E+00 1.51866E+03
 -1      2667 1.20783E+04 9.52435E+01 1.00440E+02 1.13794E+03-7.96814E-01 2.91110E+03
 -1      2668 1.70391E+04 1.98619E+01-1.13640E+01 1.23611E+03 7.68559E+01 1.72995E+03
 -1      2669 2.13467E+04 3.52517E+01 5.43041E+01 1.26877E+03-8.27231E+00 1.41458E+03
 -1      2670 1.02522E+04-1.70433E+01-4.41779E+01 8.11807E+02 2.75064E+01 1.39775E+03
 -1      2671 8.93764E+03-2.39782E+01 2.37895E-01 9.78861E+02 3.62552E+01 1.38339E+03
 -1      2672 1.47396E+04-1.52713E+01 2.22720E+01 8.24268E+02 2.05102E+01 1.16078E+03
 -1      2673 1.34446E+04 2.77125E+01 5.46536E+01 9.67965E+02 5.48461E+00 1.16483E+03
 -1      2674 3.98218E+03-9.08244E+01-1.14149E+02 8.75848E+02 1.10584E+01 2.19201E+03
 -1      2675 2.61889E+04-3.06442E+01-9.96422E+01 8.77267E+02 1.45515E+01 3.02316E+03
 -1      2676 3.72710E+04-4.94357E+01 1.48442E+01 6.37894E+02-2.33651E+01 2.86863E+03
 -1      2677 2.30132E+04-2.04822E+01 9.64719E+01 6.52152E+02 2.43047E+01 3.28586E+03
 -1      2678 1.94185E+04-9.52798E+01-1.01100E+02 1.23443E+03-9.42987E+00 1.38849E+03
 -1      2679 2.34355E+04 3.11016E+01 3.56162E+01 1.07836E+03-2.08162E+01 2.77171E+03
 -1      2680-1.06373E+04-4.19656E+01-1.54070E+01 8.24962E+02-2.18142E+01 3.25126E+03
 -1      2681-2.25323E+04-2.26882E+01-5.91190E+01 8.41331E+02-1.73224E+01 2.87278E+03
 -1      2682-2.22269E+04-2.67473E+01 2.43103E+01 6.47142E+02-1.46630E+01 3.28590E+03
 -1      2683-3.42233E+04-3.02388E+01 9.55125E+01 6.21697E+02-3.09683E+01 2.81865E+03
 -1      2684-1.10789E+04 8.86629E+01 1.03026E+02 1.21116E+03-4.08367E+01 3.09166E+03
 -1      2685-2.99384E+04-7.98144E-01 4.11940E+01 1.13469E+03-5.43854E+01 1.99039E+03
 -1      2686-2.54031E+04 9.66901E+00-2.58804E+01 1.35515E+03-7.74551E+01 1.94265E+03
 -1      2687-4.17478E+04 2.47410E+01-3.85713E+01 1.15026E+03-2.52089E+01 1.61425E+03
 -1      2688-3.73179E+04-4.17040E+01-1.04144E+02 1.34696E+03-7.65223E-01 1.61257E+03
 -1      2689-1.01108E+04-2.19177E+01-2.29888E+01 7.99089E+02-4.35355E+01 3.22577E+03
 -1      2690 1.85464E+03-7.32423E+01-9.43340E+01 8.33928E+02-3.44062E+01 2.94898E+03
 -1      2691 5.90949E+03-1.67960E+01 6.89599E+00 7.29509E+02 5.95059E+00 2.80545E+03
 -1      2692-5.77670E+03 5.79699E+01 7.99654E+01 6.78597E+02 5.32086E+00 3.19906E+03
 -1      2693 9.87208E+02 2.75262E+01 3.22650E+00 4.61178E+02 1.89762E+01 7.22370E+02
 -1      2694 1.06080E+03-8.19995E+00-2.39133E+01 4.69675E+02 9.32631E+00 6.80464E+02
 -1      2695 9.87676E+02-2.13381E+01-6.10211E+01 4.48742E+02-1.67264E+01 4.97159E+02
 -1      2696 1.66182E+02 1.57936E+01 6.99309E+00 4.42217E+02-3.34209E+00 1.01928E+03
 -1      2697 9.90338E+02-7.36185E+00-4.85438E+01 3.99018E+02 1.38756E+00 5.35780E+02
 -1      2698-9.83830E+02-2.65242E+01-6.93923E+00 4.63125E+02-2.00536E+01 7.22252E+02
 -1      2699-1.05951E+03 7.71354E+00 2.31463E+01 4.69546E+02-1.12850E+01 6.82751E+02
 -1      2700-9.92434E+02-5.67841E+00 3.85572E+01 4.04212E+02 6.21775E+00 5.34487E+02
 -1      2701-9.90413E+02 1.71985E+01 5.19694E+01 4.46352E+02 1.07184E+01 4.97011E+02
 -1      2702-1.68780E+02-1.29127E+01-3.66178E-01 4.44069E+02 5.66103E+00 1.02302E+03
 -1      2703-7.10589E+01 6.29685E+00-2.24420E+01 2.11904E+02-3.49995E+00 9.39198E+02
 -1      2704-4.46616E+02 1.98901E-01-2.89222E+00 2.84168E+02-1.63686E+01 1.13596E+03
 -1      2705 1.38894E+02-2.16143E+01-5.47137E+01 3.07464E+02-2.04672E+01 1.07345E+03
 -1      2706-2.32100E+02 2.87641E+01 1.55290E+01 2.07450E+02 3.71804E+00 1.03423E+03
 -1      2707 2.60376E+02 1.24875E+01-3.02228E+01 2.39040E+02 1.65889E+00 9.29286E+02
 -1      2708 5.47788E+02 1.64368E+01-7.48545E+00 4.02971E+02-8.68862E+00 4.80158E+02
 -1      2709 4.46934E+02-1.27873E+00-6.01910E-01 2.84084E+02 1.58074E+01 1.13774E+03
 -1      2710-1.46243E+02 1.28774E+01 5.00091E+01 3.06637E+02 1.83039E+01 1.06919E+03
 -1      2711-2.67050E+02-1.15849E+01 2.78319E+00 2.41299E+02 2.17741E+00 9.30402E+02
 -1      2712 2.34508E+02-2.04973E+01-6.71789E+00 2.10866E+02-1.54911E+00 1.03667E+03
 -1      2713 4.46593E+03-1.38380E+01-5.84075E+01 4.85311E+02 1.01543E+01 1.66213E+03
 -1      2714 1.85209E+03-3.75546E+01-3.27150E+01 4.71683E+02 1.68658E+01 1.82092E+03
 -1      2715 3.43041E+03-1.51050E+01 1.74926E+01 3.49174E+02 1.97332E+00 1.72590E+03
 -1      2716 1.82977E+03 5.45728E+01 4.19838E+01 6.90400E+02 5.55429E+00 1.65740E+03
 -1      2717 5.93437E+03-2.06349E+01 1.76499E+01 3.51748E+02-9.98397E+00 1.52885E+03
 -1      2718 4.46948E+03-1.70381E+01-3.51562E+01 7.95147E+02 1.56208E-01 1.10963E+03
 -1      2719 5.84342E+03-5.59491E+00 7.44816E+00 6.81072E+02-1.38946E+01 1.14202E+03
 -1      2720 5.82363E+03-3.65765E+01-6.53772E+01 7.11502E+02 1.60284E+01 8.63424E+02
 -1      2721 7.23100E+03-2.30705E+01-4.49160E+01 6.31602E+02 3.40859E+00 8.79488E+02
 -1      2722-3.45587E+04 1.73663E+01-1.81574E+01 1.20628E+03 1.18359E+01 2.08827E+03
 -1      2723-4.55042E+04-2.02025E+01 5.85373E+01 1.18852E+03 3.91176E+01 1.65558E+03
 -1      2724-1.16927E+04-9.29643E+01-1.36475E+02 1.22006E+03-2.01441E+01 3.15969E+03
 -1      2725-3.88866E+04-2.37658E+01 8.37571E+01 1.33493E+03-1.30226E+01 1.60441E+03
 -1      2726-2.61335E+04 3.00402E+01 7.54136E+01 8.62080E+02-1.32678E+01 3.04876E+03
 -1      2727-1.17074E+04 3.57495E+01 3.06462E+01 8.57596E+02-2.30650E+01 3.44208E+03
 -1      2728-3.71992E+04 5.73076E+01 4.52907E+00 6.42798E+02 1.82594E+01 2.88001E+03
 -1      2729-2.29551E+04 4.04004E+01-2.90565E+01 6.85689E+02-1.15945E+01 3.32027E+03
 -1      2730 1.06335E+04 3.99590E+01 8.91467E+00 8.23929E+02 2.45521E+01 3.25092E+03
 -1      2731 2.25328E+04 2.22071E+01 5.93520E+01 8.42944E+02 1.74251E+01 2.86862E+03
 -1      2732 2.22674E+04 2.56215E+01-3.31562E+01 6.53050E+02 1.34716E+01 3.27485E+03
 -1      2733 3.42424E+04 2.38111E+01-9.51441E+01 6.23712E+02 2.98828E+01 2.81439E+03
 -1      2734 1.55484E+04 5.40448E+00-8.23595E+00 1.15092E+03 8.82047E+00 1.30754E+03
 -1      2735 3.78589E+03 3.59463E+01 4.46352E+01 5.88739E+02-6.85929E+00 2.31240E+03
 -1      2736 7.68977E+03-3.75048E+00 2.88232E+01 5.96714E+02 5.35382E+00 2.02697E+03
 -1      2737 8.06548E+03 1.12509E+01-5.19937E+01 4.60978E+02 1.18158E+01 2.35565E+03
 -1      2738 1.20976E+04 1.99009E+01-7.61599E+01 4.48429E+02 2.81283E+01 2.01407E+03
 -1      2739-3.75242E+03-9.03654E+00 8.78783E+00 5.87831E+02-2.82851E+00 2.30891E+03
 -1      2740-7.69653E+03 7.48430E-01-2.61040E+01 5.92726E+02-2.80390E+00 2.02236E+03
 -1      2741-8.05672E+03-1.18344E+01 3.22761E+01 4.74133E+02-1.07004E+01 2.36217E+03
 -1      2742-1.21025E+04-1.58446E+01 7.76463E+01 4.57582E+02-2.63840E+01 2.01291E+03
 -1      2743-3.96880E+03 8.74112E+01 1.11343E+02 8.71917E+02-7.97677E+00 2.19436E+03
 -1      2744-1.02476E+04 1.22227E+01 4.16528E+01 8.07507E+02-2.09947E+01 1.40519E+03
 -1      2745-8.97107E+03-1.72364E+01-1.76236E+01 9.85115E+02-1.19057E+01 1.38255E+03
 -1      2746-1.34557E+04 5.36905E+00-4.64440E+01 9.58093E+02 6.52756E-01 1.15005E+03
 -1      2747-1.47313E+04 1.16925E+01-2.24010E+01 8.28051E+02-1.55416E+01 1.16695E+03
 -1      2748-1.96181E+04-5.86517E+01-5.63114E+01 1.30736E+03-5.46092E+01 1.98315E+03
 -1      2749-2.41713E+04-1.48521E+01 2.13194E+01 1.37153E+03-8.15009E+01 1.92201E+03
 -1      2750-2.33476E+04 4.28783E+00 2.11433E+01 1.21754E+03 4.51668E+00 1.64425E+03
 -1      2751-2.76363E+04 9.75446E+01 1.05769E+02 1.37494E+03 1.32807E+00 1.58886E+03
 -1      2752-4.15062E+03-1.76002E+01-1.64846E+01 1.37514E+03-1.24518E+01 3.09819E+03
 -1      2753-7.60787E+03-3.98846E+01-9.64375E+00 7.43386E+02-2.55354E+01 2.93538E+03
 -1      2754-1.60166E+04-3.28057E+01-4.63280E+01 7.52973E+02-1.21242E+01 2.59416E+03
 -1      2755-1.60251E+04-1.61175E+01 2.80279E+01 6.22062E+02-1.20715E+01 2.97603E+03
 -1      2756-2.45520E+04-2.38119E+01 3.81527E+01 5.94955E+02-1.24730E+01 2.57276E+03
 -1      2757-7.91582E+03 8.02910E+01 9.00425E+01 1.10328E+03-5.18714E+01 2.78848E+03
 -1      2758-2.12661E+04-1.14859E+00 3.07793E+01 1.02679E+03-4.35150E+01 1.79694E+03
 -1      2759-1.81734E+04 5.30576E+00-2.75534E+01 1.22118E+03-6.86133E+01 1.75534E+03
 -1      2760-2.98954E+04 3.36011E+01-1.01066E+01 1.05607E+03-2.52940E+01 1.50910E+03
 -1      2761-2.69024E+04-5.23936E+01-7.03851E+01 1.21970E+03-7.04479E+00 1.49892E+03
 -1      2762 1.01215E+04 1.95974E+01 1.31421E+01 7.97075E+02 3.83026E+01 3.23212E+03
 -1      2763-1.86426E+03 5.36378E+01 8.81933E+01 8.31454E+02 2.67867E+01 2.94092E+03
 -1      2764 5.86493E+03-6.15170E+01-7.93020E+01 6.82872E+02-1.46971E+01 3.21433E+03
 -1      2765-5.88450E+03-5.53277E+00-7.44923E+01 7.38858E+02 4.00867E+00 2.79039E+03
 -1      2766 7.60324E+03 3.93232E+01 9.41779E+00 7.44295E+02 2.54874E+01 2.93579E+03
 -1      2767 1.60007E+04 2.09303E+01 4.45720E+01 7.59275E+02 1.64208E+01 2.58610E+03
 -1      2768 1.60509E+04 1.56262E+01-1.95683E+01 6.18924E+02 1.51353E+01 2.97674E+03
 -1      2769 2.45186E+04 1.04037E+01-9.28555E+01 5.95959E+02 1.53378E+01 2.55584E+03
 -1      2770 7.92765E+03-6.96865E+01-8.46379E+01 1.10326E+03 4.67492E+01 2.78869E+03
 -1      2771 1.07786E+04-1.20134E+01-2.33962E+01 1.08547E+03 1.07155E+00 1.50251E+03
 -1      2772 1.35961E+04-2.99292E+00 2.58956E+01 9.22777E+02-2.14167E+01 1.54684E+03
 -1      2773 1.74465E+04 4.83721E+00-5.99660E+01 8.72575E+02-1.89730E+01 1.20878E+03
 -1      2774 4.45026E+03 8.36970E+01 9.15001E+01 9.34355E+02 1.12824E+01 2.30317E+03
 -1      2775 1.45704E+04-2.93344E+01-8.64569E+01 9.83019E+02 2.39727E+01 1.19011E+03
 -1      2776 1.80833E+04-2.46708E+01-1.31549E+01 1.22847E+03 1.02326E+01 1.38778E+03
 -1      2777 7.12633E+03 1.95581E+01 1.80207E+01 7.17730E+02 3.88029E+01 2.90358E+03
 -1      2778-1.34567E+03 5.18148E+01 8.39626E+01 7.48601E+02 2.73020E+01 2.65086E+03
 -1      2779-4.16795E+03-9.74580E+00-6.24461E+01 6.57808E+02 2.58823E+00 2.49987E+03
 -1      2780-2.94259E+03-1.76607E+01-2.99915E+01 1.23131E+03-1.08275E+01 2.77619E+03
 -1      2781 4.10421E+03-6.56000E+01-8.11700E+01 6.08084E+02-1.70665E+01 2.88040E+03
 -1      2782-1.39210E+04-6.08957E+01-5.62668E+01 1.18022E+03-5.35418E+01 1.79262E+03
 -1      2783-1.70438E+04-1.69649E+01 1.50376E+01 1.23238E+03-7.79852E+01 1.72976E+03
 -1      2784-1.93678E+04 9.73732E+01 1.02382E+02 1.23077E+03 8.71695E+00 1.41555E+03
 -1      2785-1.64720E+04 1.80696E+00 2.06967E+01 1.08886E+03 1.42644E+00 1.46789E+03
 -1      2786 4.99968E+04 1.88130E+01 4.27821E+01 1.17613E+03-6.36103E+00 1.63705E+03
 -1      2787 4.34069E+04 8.84398E+01 7.86920E+01 1.31663E+03-2.32986E+01 1.63600E+03
 -1      2788 1.48170E+04-1.44721E+02-1.37341E+02 1.31384E+03 5.61512E+00 3.09496E+03
 -1      2789-7.13873E+03-2.06511E+01-1.81944E+01 7.18799E+02-4.17525E+01 2.90737E+03
 -1      2790 1.33621E+03-5.24468E+01-8.66635E+01 7.49304E+02-2.72896E+01 2.65018E+03
 -1      2791-4.14172E+03 5.39847E+01 6.00227E+01 6.06808E+02 1.63443E+01 2.88041E+03
 -1      2792 4.15895E+03 1.39214E+01 5.93492E+01 6.62402E+02 3.21287E+00 2.49169E+03
 -1      2793-1.03624E+04 1.68039E+01 6.47467E+01 6.43536E+02-6.50311E+00 2.26910E+03
 -1      2794-4.50733E+03 3.35242E+01 1.96129E+01 6.35205E+02-1.74313E+01 2.54813E+03
 -1      2795-1.43147E+04 3.76960E+01-3.84898E+01 4.69286E+02 1.83146E+01 2.10544E+03
 -1      2796-8.57443E+03 3.91595E+01-8.01244E+00 4.94784E+02-7.07283E+00 2.42272E+03
 -1      2797-4.45796E+03-7.74874E+01-9.23544E+01 9.33988E+02-1.43544E+01 2.30611E+03
 -1      2798-6.34781E+03 4.83253E+00-2.28955E-01 7.08354E+02 1.36380E+01 2.77912E+03
 -1      2799-5.78305E+03-1.05584E+01-1.83520E+01 6.91455E+02-2.32512E+01 2.73853E+03
 -1      2800 3.16634E+04-2.76695E+00 8.32960E+00 9.33950E+02-9.80847E+01 3.15673E+03
 -1      2801 1.50559E+04 3.38606E+01 3.23759E+01 9.69941E+02-1.33900E+02 3.55262E+03
 -1      2802 3.16639E+04-4.32912E+01 4.37222E+01 6.79375E+02-5.63016E+01 3.40827E+03
 -1      2803 1.69055E+04 8.72952E+01 1.33297E+02 1.30633E+03-5.83628E+01 3.34383E+03
 -1      2804 4.80661E+04-5.61601E+01-9.40299E+00 6.15076E+02-6.27583E+01 2.93143E+03
 -1      2805 3.43203E+04-4.11985E+01-2.53704E+00 5.98936E+02-1.97395E+01 2.73414E+03
 -1      2806 2.26809E+04-5.11751E+01-4.49756E+01 6.06950E+02 8.59750E+00 3.12422E+03
 -1      2807-2.52808E+04-9.63868E+01-8.93843E+01 1.20415E+03-7.57269E+00 1.57927E+03
 -1      2808-5.34944E+03 1.87414E+01 9.46587E+01 1.36117E+03 1.80799E+00 3.03865E+03
 -1      2809-3.00566E+04-4.63894E+01-7.64516E+01 1.39168E+03 7.61147E+00 1.54843E+03
 -1      2810-7.74862E+02-1.80028E+01-3.66955E+01 4.26979E+01 4.81401E+00 6.18824E+01
 -1      2811-1.04109E+03-2.44904E+01-2.92865E+01 7.00923E+01 7.01866E+00 1.15998E+02
 -1      2812-9.60193E+02-2.94486E+01-4.04636E+01 5.16245E+01 7.86337E+00 8.55973E+01
 -1      2813-2.56901E+02-1.82640E+01-3.97852E+01 6.78526E+01 1.18422E+01 1.69196E+02
 -1      2814-2.26310E+04 5.37582E+01 4.43584E+01 6.09597E+02-7.71461E+00 3.12708E+03
 -1      2815-1.20311E+04-9.52805E+01-1.01722E+02 1.13747E+03 1.82467E+00 2.91594E+03
 -1      2816-3.42703E+04 4.21400E+01 2.23490E+00 6.00185E+02 1.79115E+01 2.73583E+03
 -1      2817-4.15159E+04 5.96904E+01 8.07509E+01 1.11323E+03 1.41646E+00 1.52082E+03
 -1      2818-3.70165E+04 6.31430E+01 9.95601E+01 1.25269E+03-2.45465E+00 1.51152E+03
 -1      2819-5.17166E+03-2.49278E+01-1.92495E+01 6.86621E+02 9.38678E+00 3.19647E+03
 -1      2820 7.13574E+03-2.67853E+01-8.98139E+01 7.07992E+02-2.98352E+01 2.80396E+03
 -1      2821 1.62832E+03 2.45205E+01 1.92657E+00 5.36763E+02 2.18224E+00 6.06066E+02
 -1      2822 1.44947E+03 4.17711E+01-1.04658E+01 4.63010E+02 6.80603E+00 6.35057E+02
 -1      2823 3.34428E+02-1.17192E+01-4.42365E+01 4.87608E+02-6.35197E-01 1.13754E+03
 -1      2824-1.62487E+03-2.20098E+01-1.62431E+00 5.36815E+02-2.31414E+00 6.05615E+02
 -1      2825-1.45112E+03-4.27090E+01 3.57445E+00 4.58509E+02-7.60969E+00 6.28162E+02
 -1      2826-3.32442E+02 1.29693E+01 4.40534E+01 4.85543E+02 1.21556E+00 1.13906E+03
 -1      2827 4.83211E+02-5.29794E+00-7.08012E+01 2.75424E+02-1.44833E+01 1.06444E+03
 -1      2828-2.50834E+02-1.18047E+01-2.56704E+01 2.64820E+02-4.02202E+00 1.20128E+03
 -1      2829 2.52768E+02 9.65650E+00 2.45595E+01 2.66178E+02 4.00507E+00 1.20156E+03
 -1      2830-4.92606E+02-4.44133E+00 6.48023E+01 2.81425E+02 1.10176E+01 1.06768E+03
 -1      2831-7.17542E+03 1.33859E+01 7.46992E+01 7.27294E+02 3.18839E+01 2.80818E+03
 -1      2832 5.15724E+03 2.47922E+01 3.18750E+01 6.86887E+02-5.14138E+00 3.19001E+03
 -1      2833 3.63730E+03 1.49800E+01 1.95931E+01 6.21841E+02-5.86037E+00 2.88562E+03
 -1      2834-3.82941E+03 2.31267E+01 7.16077E+01 1.23129E+03 4.84822E+00 2.75100E+03
 -1      2835-5.14954E+03 2.28722E+00 7.85162E+01 6.54860E+02 2.17276E+01 2.54922E+03
 -1      2836-2.13756E+04-3.87669E+01-5.95385E+01 1.26581E+03 9.53250E+00 1.41589E+03
 -1      2837-1.80484E+04-8.87797E+01-4.79842E+01 1.09557E+03-1.30632E+01 1.44767E+03
 -1      2838 5.13908E+03-2.37446E+00-7.88467E+01 6.56804E+02-2.04590E+01 2.54855E+03
 -1      2839-3.64874E+03-1.32663E+01-1.38635E+01 6.23637E+02 5.12943E+00 2.88705E+03
 -1      2840 1.24457E+04-5.92745E+01-7.88688E+01 8.77224E+02 5.39330E+00 1.05986E+03
 -1      2841 1.37906E+04-5.11327E+01-7.08938E+01 7.77745E+02 4.91546E+00 1.03581E+03
 -1      2842 3.91853E+03 6.06308E+01 8.17689E+01 8.09810E+02-1.55333E+00 2.05669E+03
 -1      2843-1.60147E+04 4.43490E+01 3.61875E+01 5.46984E+02-8.85542E+00 2.81849E+03
 -1      2844-8.43790E+03-8.91319E+01-9.44840E+01 1.02081E+03 1.50225E+00 2.61608E+03
 -1      2845-2.41947E+04 2.56172E+01 2.76265E+00 5.36213E+02 1.74722E+01 2.45290E+03
 -1      2846 2.41772E+04-3.67515E+01-7.70914E+00 5.34463E+02-1.68486E+01 2.45518E+03
 -1      2847 1.60020E+04-5.05524E+01-3.83356E+01 5.48118E+02 7.95379E+00 2.81586E+03
 -1      2848 8.43255E+03 9.23876E+01 9.95991E+01 1.02030E+03-2.27595E+00 2.61547E+03
 -1      2849-2.62210E+04 6.36054E+01 9.99116E+01 1.13150E+03 6.73545E-01 1.36627E+03
 -1      2850-2.93191E+04 4.48790E+01 6.37195E+01 9.94244E+02 6.89486E+00 1.37232E+03
 -1      2851 3.62268E+01 6.54200E+00-1.11846E+01 1.28829E+02-1.20363E+01 6.40823E+02
 -1      2852-1.63835E+02 1.75253E+00-2.28256E+01 2.82066E+02 3.94829E+00 2.96887E+02
 -1      2853 2.67177E+04 1.29822E+01-5.67236E+01 6.42872E+02-1.80883E+01 3.29277E+03
 -1      2854 4.14293E+04 1.35632E+01-8.36188E+01 6.39339E+02 9.05818E+00 2.89164E+03
 -1      2855 2.00401E+04 8.53446E+00 1.60660E+01 8.82102E+02 4.87750E-02 1.24333E+03
 -1      2856 1.72353E+04 5.37132E+01 4.17022E+01 9.75529E+02-9.38409E+00 1.22633E+03
 -1      2857 6.00532E+03-1.22017E+02-1.32994E+02 9.57063E+02-7.03257E+00 2.34017E+03
 -1      2858 8.85646E+03 5.00739E+00 2.70526E+01 6.63332E+02 4.78592E+00 9.19914E+02
 -1      2859 7.50193E+03 2.95804E+01 2.54097E+01 7.25438E+02-6.48833E+00 9.12962E+02
 -1      2860 2.73204E+03-9.32158E+01-1.00217E+02 7.36537E+02 3.49253E+00 1.73462E+03
 -1      2861 7.56166E+03-3.49342E+01 7.73594E+00 4.31873E+02 1.52535E+01 2.21160E+03
 -1      2862 1.13536E+04-3.79761E+01 9.19098E+00 4.05110E+02-4.65705E+00 1.90172E+03
 -1      2863 4.66501E+03 4.80306E+00-4.77760E+01 3.59034E+02-1.54866E+00 1.81954E+03
 -1      2864 7.38605E+03 1.62254E+01-6.38395E+01 3.56829E+02 1.35690E+01 1.62502E+03
 -1      2865-2.81614E+02-1.39719E+01-5.59048E+00 1.71255E+01 8.47775E+00 4.11293E+01
 -1      2866-5.62086E+02-1.79186E+01-3.63052E+01 2.57457E+01 8.26106E+00 9.48932E+01
 -1      2867-5.66254E+02-1.90764E+01-3.39079E+01 3.16785E+01 9.54866E+00 1.22481E+02
 -1      2868-8.30813E+02-1.44831E+01-5.49582E+01 4.58606E+01 9.37804E+00 1.65356E+02
 -1      2869 1.02988E+04-2.58423E+01-6.67426E+01 6.37114E+02 8.58809E+00 2.27752E+03
 -1      2870 4.50185E+03-3.63874E+01-2.37719E+01 6.33151E+02 1.94353E+01 2.54598E+03
 -1      2871 1.42528E+04-4.10079E+01-1.12888E+01 4.65659E+02-1.29265E+01 2.10786E+03
 -1      2872 8.58192E+03-3.92950E+01 1.07947E+01 4.95250E+02 1.00509E+01 2.41963E+03
 -1      2873 2.12761E+04-4.75419E+00-3.22203E+01 1.02534E+03 4.46312E+01 1.79065E+03
 -1      2874 1.81539E+04-7.95769E+00 2.87955E+01 1.22200E+03 6.93726E+01 1.75442E+03
 -1      2875 2.99148E+04-1.92005E+01 9.06558E+00 1.05332E+03 9.57215E+00 1.49567E+03
 -1      2876 2.68870E+04 4.65365E+01 6.93855E+01 1.22861E+03 9.61903E+00 1.49441E+03
 -1      2877 3.57167E+04-3.76631E+01-1.37784E+01 1.49644E+03-1.37495E+01 2.27123E+03
 -1      2878 4.20631E+04-6.14950E+01-7.66068E+01 1.20479E+03-4.20044E+01 2.27438E+03
 -1      2879 5.18946E+04-6.65032E+01-9.48315E+01 1.33768E+03-3.71016E+01 1.70810E+03
 -1      2880 5.83204E+04-9.69748E+01-9.40295E+01 1.14247E+03-4.49048E+01 1.66423E+03
 -1      2881-2.33681E+04-3.30563E+01-3.14022E+01 1.07480E+03 2.05265E+01 2.77924E+03
 -1      2882 4.71314E+02 1.83758E+01-4.97748E+01 4.46692E+02-6.60109E+00 9.96094E+02
 -1      2883-4.64275E+02-2.48751E+00 6.49894E+01 4.49858E+02 1.30833E+01 1.00188E+03
 -1      2884-3.74108E+03 3.97854E+01 2.54952E+01 5.84039E+02 5.56761E+00 2.80474E+03
 -1      2885-1.06333E+04 4.07763E+00-1.10249E+01 4.89986E+02 6.68641E+00 2.48909E+03
 -1      2886-1.67005E+04-8.26938E+00 5.14137E+01 4.87323E+02-1.20428E+01 2.17033E+03
 -1      2887-6.01092E+03 1.20938E+02 1.31909E+02 9.61378E+02 5.40328E+00 2.34200E+03
 -1      2888-3.36981E+03-1.26125E+01-6.29675E+00 5.41246E+02-5.13475E+00 2.68506E+03
 -1      2889-9.37031E+03 1.77883E+01 7.77054E+01 1.26976E+03 2.74529E+01 2.83922E+03
 -1      2890-1.07831E+04 1.34173E+01 2.41495E+01 1.08538E+03 8.81300E-02 1.50407E+03
 -1      2891-1.35917E+04-7.77218E-01-2.70679E+01 9.22877E+02 2.34172E+01 1.54225E+03
 -1      2892-1.45819E+04 2.89144E+01 8.56528E+01 9.81887E+02-2.15133E+01 1.18618E+03
 -1      2893-1.74498E+04 1.03433E+01 5.75983E+01 8.62159E+02 5.15934E+00 1.19926E+03
 -1      2894-6.65291E+03 1.44034E+01 7.09295E+01 1.14303E+03 2.21404E+01 2.56253E+03
 -1      2895-7.01124E+02 2.80968E+00-2.78948E+01 1.10626E+02-4.52271E+00 1.49869E+02
 -1      2896-1.32627E+02-1.67673E+01-4.01716E+01-1.77797E+02-2.62625E+00-4.28664E+02
 -1      2897-2.15931E+02-1.43944E+01 3.50322E-01-8.70845E+01 1.16379E+01-3.15443E+02
 -1      2898 8.41805E+01-2.40352E+01 3.93212E+01-1.89685E+02-8.59413E-01-4.31274E+02
 -1      2899-1.65824E+04 7.27205E+00-6.64282E+00 9.87050E+02 1.17788E+01 2.50845E+03
 -1      2900-5.69357E+02-4.99656E+00-4.12773E+01-1.32941E+02 4.86177E+00-2.03809E+02
 -1      2901-5.07593E+01 2.52273E+01-4.11343E+01-1.87451E+02 2.86066E+00-4.40133E+02
 -1      2902 2.63759E+04-3.32939E+01-6.59380E+01 1.13804E+03 2.94637E+01 2.85139E+03
 -1      2903 1.66010E+04 2.49329E+01 1.86888E+01 9.81402E+02-2.35263E+01 2.51517E+03
 -1      2904-1.03115E+04 6.54691E+01 8.31701E+01 8.17685E+02-3.16452E+01 2.12141E+03
 -1      2905 1.03197E+04-4.27200E+01-7.28685E+01 8.26709E+02 2.54392E+01 2.10833E+03
 -1      2906 2.62025E+04-5.50182E+01-9.56678E+01 1.13312E+03-1.74796E+00 1.36268E+03
 -1      2907 2.93126E+04-5.07479E+01-7.04288E+01 9.99165E+02-4.07756E+00 1.36165E+03
 -1      2908 1.06398E+04-1.45871E+00 1.20774E+01 4.91103E+02-8.21921E+00 2.48740E+03
 -1      2909 1.66506E+04 4.66372E+00-5.48953E+01 4.90664E+02 1.36646E+01 2.16942E+03
 -1      2910 8.03999E+03 1.63832E+01 1.88661E+01 7.64772E+02-1.54828E+01 1.95902E+03
 -1      2911-1.13505E+04 3.09653E+01 1.34829E+01 3.93145E+02 1.31528E+01 1.88826E+03
 -1      2912-7.50877E+03 3.52907E+01 2.41041E+01 4.27247E+02-1.58243E+01 2.18926E+03
 -1      2913-3.87503E+03-7.98271E+01-8.40437E+01 8.22343E+02-8.83715E+00 2.02990E+03
 -1      2914 4.42709E+03-4.65039E+01-6.95747E+01 6.17066E+02 3.09318E+01 1.56565E+03
 -1      2915-1.24028E+04 2.49360E+01 9.91177E+01 8.88891E+02-5.39324E+00 1.06403E+03
 -1      2916-1.37607E+04 3.22896E+01 9.24072E+01 7.79324E+02 1.67643E+00 1.04814E+03
 -1      2917-4.99221E+04-8.71722E+00-6.08700E+01 1.18717E+03 2.98187E+00 1.62821E+03
 -1      2918-4.33653E+04 3.10286E+00-7.87160E+01 1.33909E+03 2.74667E+00 1.60896E+03
 -1      2919-1.48308E+04 1.14564E+02 1.71478E+02 1.22327E+03-3.13761E+00 3.16826E+03
 -1      2920-2.00424E+04-1.22718E+01-2.48553E+01 8.83995E+02 3.28789E+00 1.23660E+03
 -1      2921-1.72374E+04-5.34418E+01-4.61224E+01 9.72949E+02 1.22744E+01 1.22819E+03
 -1      2922-2.67213E+04-1.57073E+01-4.20357E+01 6.53683E+02 1.46872E+01 3.34496E+03
 -1      2923-4.13961E+04-3.33697E+01 3.67435E+01 6.36939E+02-1.71408E+01 2.89238E+03
 -1      2924 4.81615E+04 9.63803E+00-5.55686E+01 6.35744E+02-1.71699E+02 3.05124E+03
 -1      2925 1.60162E+04-1.03804E+02-1.47099E+02 1.38879E+03-1.77003E+02 3.58231E+03
 -1      2926 3.13722E+04-1.59517E+01-1.11455E+02 7.45854E+02-2.41667E+02 3.54435E+03
 -1      2927-1.44048E+04-4.28273E+03-3.31317E+03 1.73519E+03 1.97490E+02 4.29277E+03
 -1      2928 2.02521E+03 1.43614E+03 7.79964E+02 1.56588E+03-4.05486E+01 3.99144E+03
 -1      2929-1.91482E+04-6.83641E+02-1.67892E+03 1.42742E+03 1.54598E+02 2.82283E+03
 -1      2930-2.59155E+04-9.61773E+02-7.18024E+02 2.24186E+03 1.20604E+03 5.44550E+03
 -1      2931-3.50160E+04-5.79651E+03-5.42006E+03 1.94607E+03 6.08584E+02 3.58682E+03
 -1      2932-2.48268E+04 7.91751E+00-5.80109E+01 7.65656E+02 8.91738E+00 1.57610E+03
 -1      2933-9.40268E+02-1.58461E+01-2.91667E+01-3.03660E+01 8.64436E+00-5.21679E+01
 -1      2934-1.06512E+03-2.65742E+01-4.35942E+01-8.51962E+00 7.18499E+00-2.47113E+01
 -1      2935-2.73520E+02-2.18959E+01-4.30599E+01-2.93037E+00 1.15455E+01-9.77305E+00
 -1      2936 1.53578E+03 9.16714E+02 1.48640E+03 1.75388E+03 3.64644E+02 3.87577E+03
 -1      2937 5.87002E+04-4.06681E+01 8.25159E+00 1.17164E+03-1.31807E+02 1.82929E+03
 -1      2938 5.25163E+04 1.22235E+02 8.05006E+01 1.39689E+03-1.90815E+02 1.92186E+03
 -1      2939-7.98907E+03-2.78768E+01-3.92096E+00 7.61675E+02 1.22946E+01 1.95612E+03
 -1      2940-8.37964E+02-1.80640E+01-5.62551E+01-1.24186E+01 7.35565E+00-1.50684E+01
 -1      2941-5.41393E+02-1.01045E+01-1.94975E+01-2.14018E+01 8.63067E+00-7.17077E+01
 -1      2942 3.64010E+01-3.05074E+01-3.64782E+01-2.18081E+02 3.79238E+00-5.37361E+02
 -1      2943 2.60898E+01 3.94283E+00-3.01119E+01-2.31502E+02-2.65952E+00-5.40816E+02
 -1      2944-1.12241E+01 1.32549E+00 3.78356E+01-2.26987E+02-4.00099E-01-5.32761E+02
 -1      2945-2.63528E+04 4.76824E+01 7.45304E+01 1.12315E+03-3.07621E+01 2.86712E+03
 -1      2946 9.18954E+01-1.89071E+01-6.35693E+01-2.38163E+02 4.43837E+00-5.40800E+02
 -1      2947 1.90064E+02 2.38226E+01 6.00279E+01-1.79904E+02 8.07517E+00-4.30078E+02
 -1      2948 1.04362E+02-4.47111E+01-3.50650E+01-2.16224E+02 1.91084E+01-5.58537E+02
 -1      2949 3.29616E+04 4.76263E+00 3.69208E+01 1.19280E+03-1.71170E+02 3.11070E+03
 -1      2950-5.64334E+02-3.26429E+01-6.08591E+01 2.63067E+01 1.48400E+01 6.31533E+01
 -1      2951 2.15209E+02-1.06482E+01 1.66510E+01 1.31490E+02 5.96504E+00 2.63025E+02
 -1      2952 4.47378E+02-1.23154E+00 4.18847E+01 1.51566E+02 1.43655E+00 1.65995E+02
 -1      2953 8.87903E+01-1.62734E+01 4.30552E+01 7.55501E+01 9.30105E-02 3.45849E+02
 -1      2954-6.86679E+00 1.31589E+00 5.95711E+01 1.33235E+02 1.45295E+01 5.14571E+02
 -1      2955 1.54837E+02-1.88439E+01 4.87088E+01 1.75582E+02 5.17422E+00 3.83329E+02
 -1      2956 2.60621E+02-2.41376E+01 1.76706E+01 2.27077E+02-5.31385E+00 2.96700E+02
 -1      2957-6.17388E+03 3.75103E+01 1.54603E-01 4.77668E+02 9.27218E+00 1.03462E+03
 -1      2958-5.54047E+03 1.84663E+01 1.15744E+01 4.42680E+02-1.22171E+01 9.91501E+02
 -1      2959-2.49569E+03 4.62097E+00 3.14952E+01 4.26334E+02 3.02258E+01 1.85979E+03
 -1      2960-6.83574E+03-5.71821E+01-1.95950E+01 7.37731E+02-8.49668E+00 8.98974E+02
 -1      2961-7.55915E+03-6.19549E+01 3.24179E+00 8.53692E+02-1.32643E+01 9.84320E+02
 -1      2962 3.77440E+02-1.77615E+01 3.15917E+01 9.47781E+01 1.53304E+00 2.24453E+02
 -1      2963 5.97567E+02-1.05878E+01 3.65557E+01 1.20201E+02 5.25993E+00 1.29245E+02
 -1      2964 4.30735E+02-1.40494E+01 3.37822E+01 8.27134E+01 1.42833E+00 1.59191E+02
 -1      2965 1.15562E+02-1.34414E+01 4.86294E+01 6.05398E+01 3.39740E+00 2.60753E+02
 -1      2966 1.51018E+01 1.59719E+01-1.13073E+01-1.00532E+02-8.16700E+00-2.44663E+02
 -1      2967-6.29588E+02-2.98895E-01-4.30529E+01-8.19457E+01 6.05514E-01-8.48051E+01
 -1      2968-1.11831E+02 1.70442E+01-6.71628E+01-1.10828E+02-5.31149E+00-2.95199E+02
 -1      2969 4.52797E+04 2.84091E+02-1.74871E+02 1.52957E+03-1.05683E+02 1.95048E+03
 -1      2970 5.29442E+03-1.14515E+02 2.19022E+02 1.99314E+03 2.01442E+02 4.33408E+03
 -1      2971 1.62121E+04 6.09933E+02-3.52314E+02 1.62624E+03 3.24277E+02 3.78686E+03
 -1      2972-2.12892E+04-5.15866E+03-3.75451E+03 9.37512E+02-5.38508E+02 3.48485E+03
 -1      2973-5.65886E+03 1.28764E+02 1.36165E+03 1.02107E+03 1.36913E+02 2.58710E+03
 -1      2974-1.77009E+00-1.73052E+01-1.79950E+01-2.42620E+02 4.11185E+00-5.75470E+02
 -1      2975-4.23931E+01 2.98732E+01 6.30643E+01-2.39981E+02 7.16268E-01-5.60660E+02
 -1      2976-1.00089E+04 4.01013E+01-2.48566E+02 2.00766E+03-9.60320E+01 4.32146E+03
 -1      2977 8.57623E+03 2.59327E+00 2.28264E+02 9.63179E+02-3.71825E+02 3.35863E+03
 -1      2978-1.72404E+04-6.18134E+02 2.89320E+02 1.59889E+03-2.69158E+02 3.74862E+03
 -1      2979 6.29950E+03-3.89265E+01 5.93252E+01 1.50929E+03 3.91710E+01 3.44307E+03
 -1      2980 3.99035E+04-5.93233E+01-2.76334E+01 1.48748E+03 1.07899E+01 1.76953E+03
 -1      2981 3.41601E+04-8.42157E+01-5.77550E+01 1.48616E+03 3.86548E+01 2.26752E+03
 -1      2982 7.15920E+03 7.59896E+01-8.45825E+01 1.62389E+03 6.62721E+01 3.57531E+03
 -1      2983 4.15150E+04 3.83113E+01 3.58870E+01 1.43688E+03 3.48802E+01 1.83311E+03
 -1      2984 1.32367E+04-9.53708E+00-2.14844E+01 1.40115E+03 4.22043E+01 3.19502E+03
 -1      2985-5.87193E+03 1.87856E+00 3.94001E+01 7.12221E+02-5.55625E+00 8.62319E+02
 -1      2986-1.85107E+03-3.31105E+01-3.74684E+01 6.46246E+02-7.23026E+00 1.65573E+03
 -1      2987-4.43808E+03 2.24186E+01 2.84064E+01 7.64345E+02-2.58206E+00 1.10800E+03
 -1      2988-7.41675E+03 4.49015E+01 1.19504E+01 8.05189E+02 1.06719E+01 9.12959E+02
 -1      2989-2.79106E+03 3.10335E+01 8.14152E+01 6.66108E+02 5.14451E-01 1.75987E+03
 -1      2990-4.47524E+03 3.26934E+01 5.50741E+01 6.50999E+02-1.14676E+01 1.59492E+03
 -1      2991-7.36691E+01-1.72095E+01 1.82583E+01-3.41969E+01 6.95974E+00-1.90614E+02
 -1      2992 2.04728E+02-1.04507E+01 1.84988E+01-1.03684E+02 1.32775E+00-2.18981E+02
 -1      2993 2.63142E+02-1.87310E+01 7.48718E+01-1.24338E+02-1.07100E-01-2.72900E+02
 -1      2994-1.87977E+03 6.59133E+00-1.29735E+01 4.64220E+02-1.52232E+01 1.82585E+03
 -1      2995-3.40001E+03 3.41459E+01 1.92907E+01 3.77540E+02-1.08463E+01 1.73484E+03
 -1      2996-4.72596E+03 9.46377E+00 1.41916E+01 3.83017E+02 3.66141E+00 1.84767E+03
 -1      2997-3.43905E+04-3.10413E+03-3.12516E+02 2.42628E+03 1.90219E+02 5.12764E+03
 -1      2998-1.90187E+03 1.31505E+01 3.13625E+01 4.56880E+02-7.06206E+00 2.18410E+03
 -1      2999 1.44023E+03-9.10306E+00 9.72693E+00 9.26027E+02 1.51802E+01 2.09750E+03
 -1      3000-3.31022E+03 1.88010E+01 3.96211E+01 5.80272E+02-2.54831E+01 2.20914E+03
 -1      3001-1.56771E+03 5.71810E+00-1.61248E+01 4.85419E+02-2.03518E+01 2.19817E+03
 -1      3002 1.94217E+03 2.47545E+01-6.17502E+01 9.76598E+02-4.36578E+00 2.15030E+03
 -1      3003 3.30247E+03 1.16126E+01-3.37155E+01 8.40849E+02-5.79074E+00 1.96478E+03
 -1      3004-3.21186E+04 1.25486E+01 6.98419E+01 7.44193E+02 2.28570E+02 3.54798E+03
 -1      3005-1.65311E+04 1.18572E+02 1.48439E+02 1.38871E+03 1.84057E+02 3.53241E+03
 -1      3006-1.48270E+04 4.52589E+01 1.03032E+02 9.49251E+02 1.16912E+02 3.47199E+03
 -1      3007-3.16057E+04 4.28601E+01 2.80432E+01 7.17659E+02 7.73022E+01 3.38812E+03
 -1      3008-1.68458E+04-5.53063E+01-1.03367E+02 1.29563E+03 3.87880E+01 3.27038E+03
 -1      3009-3.37093E+04-1.41128E+01-1.72512E+01 1.23643E+03 1.60925E+02 3.14205E+03
 -1      3010 9.17539E+03-2.76893E+01-4.28731E+01 9.26423E+02 5.88765E+00 1.07301E+03
 -1      3011 8.02362E+03-3.13964E+01-3.16762E+01 9.46964E+02 5.55431E+01 1.37686E+03
 -1      3012 1.01350E+04 1.00240E+01 2.87041E+00 8.99680E+02 1.52401E+01 1.12592E+03
 -1      3013-7.23757E+03 1.43193E+01 4.49782E+01 5.97811E+02 1.40519E+01 8.72712E+02
 -1      3014-8.86958E+03 1.26568E+01 1.20273E+01 6.37072E+02-4.74693E+00 8.91897E+02
 -1      3015-5.90563E+03 3.58806E+01 6.23621E+01 3.37458E+02 3.47551E+00 1.54831E+03
 -1      3016-7.43144E+03 8.37033E+00 2.37258E+01 3.49151E+02-1.37356E+01 1.61570E+03
 -1      3017-5.30748E+04-3.08763E+01-3.72536E+01 1.42550E+03 1.95374E+02 1.88182E+03
 -1      3018-3.56355E+04-3.32092E+01 1.84478E+01 1.47945E+03 4.57572E+01 2.29058E+03
 -1      3019-5.20396E+04-5.88910E+00 7.76099E+01 1.47814E+03 2.35245E+01 1.74958E+03
 -1      3020-2.51277E+02-7.92741E+00 1.17034E+00 3.69369E+01 5.33628E+00 1.68590E+02
 -1      3021-5.24545E+02-1.23725E+01-3.14337E+01 5.12933E+01 1.11848E+01 2.47452E+02
 -1      3022 1.01707E+04-1.52383E+01-8.21310E+00 3.03222E+02 1.13852E+00 8.34988E+02
 -1      3023 1.80419E+04-1.70111E+01-5.17541E+01 3.76275E+02 1.48788E+01 1.02451E+03
 -1      3024-8.75208E+02-1.89598E+01-2.39070E+01 1.03423E+02 1.13891E+01 1.28090E+02
 -1      3025 3.33980E+04 2.49168E+01-2.19229E+00 1.46283E+03-2.07250E+00 1.77525E+03
 -1      3026 3.48308E+04-2.42708E+00 7.78382E+01 1.49763E+03 3.92592E+01 1.82473E+03
 -1      3027 2.21711E+03-2.94224E+00 2.28305E+00 4.88276E+02 1.56844E+01 1.91436E+03
 -1      3028 5.06303E+03-1.24001E+00-5.74169E+01 3.74899E+02 6.54530E-01 1.92468E+03
 -1      3029 6.07268E+04 3.89843E+01 4.96545E+01 5.46729E+02-6.86138E+00 1.52156E+03
 -1      3030 3.37525E+03 1.02590E+01 5.55900E+00 5.79347E+02-1.43063E+01 2.25392E+03
 -1      3031 7.11806E+03-1.11494E+01 5.47487E+00 4.15571E+02 1.09197E+01 2.17707E+03
 -1      3032 3.44978E+04-3.32967E+01-7.08222E+01 1.36851E+03 3.48068E+01 1.47885E+03
 -1      3033 6.87463E+03 1.61616E+01-4.09184E-01 1.35267E+03-2.54241E+01 3.05735E+03
 -1      3034 2.20451E+04 6.69067E+01 4.64961E+01 1.28126E+03-3.77845E+01 2.73675E+03
 -1      3035 6.21574E+01 3.60250E+01-1.57915E+00-1.82652E+02 1.09648E+01-5.13732E+02
 -1      3036 5.38531E+03-1.59671E+01-6.23133E+01 7.32759E+02 1.84814E+01 7.99904E+02
 -1      3037 1.12411E+03 1.75304E+01-2.13404E+01 7.18598E+02-1.51276E+01 1.66821E+03
 -1      3038 4.03340E+03 2.68781E+01 1.90376E+00 7.07996E+02-2.01740E+01 1.52939E+03
 -1      3039 1.14637E+04 6.73688E+00-5.20966E+01 8.82760E+02-5.75474E+00 1.03988E+03
 -1      3040-8.09211E+03 2.39852E+01 7.11382E+00 9.75925E+02-1.60983E+01 1.37757E+03
 -1      3041-1.14461E+04 2.72996E+01 5.11183E+01 8.56281E+02 8.46978E+00 1.04969E+03
 -1      3042 1.43751E+04 3.37939E-01-1.16771E+01 9.56658E+02-7.73520E+01 3.58409E+03
 -1      3043 3.09394E+04-1.54068E+01 5.66853E+01 6.61834E+02-1.60622E+01 3.46391E+03
 -1      3044 4.49485E+04 7.37582E+00 3.03675E+00 1.37662E+03-1.84616E+00 1.61462E+03
 -1      3045 3.63313E+04 1.10643E+01 6.40215E+01 1.44105E+03-4.42570E+01 1.47714E+03
 -1      3046 1.23334E+04-3.18764E+00 3.02264E+01 8.74735E+02 1.94018E+01 3.44265E+03
 -1      3047 2.74477E+04-8.54622E+00-5.34537E+01 6.56264E+02-1.14518E+01 3.39517E+03
 -1      3048-8.00948E+03-2.49235E+00 6.27726E+01 7.63271E+02 1.67758E+01 3.51432E+03
 -1      3049-1.42301E+04 3.59817E+01 8.93083E+01 9.47458E+02 3.52163E+01 3.49200E+03
 -1      3050-7.58336E+03-1.28560E+01-4.61614E+01 8.25310E+02 5.66625E+01 3.43621E+03
 -1      3051 8.34077E+03-1.38677E+01-4.57758E+00 7.78777E+02 1.00172E+01 9.16440E+02
 -1      3052 6.39383E+03 9.23861E+00 1.76888E+01 7.95188E+02-2.23979E+01 8.11206E+02
 -1      3053-1.80130E+04 1.40943E+01 4.42773E+01 3.70092E+02-2.37904E+01 1.02389E+03
 -1      3054 2.01226E+03-4.73295E+00-7.06247E+01 4.86660E+02 9.27864E+00 1.96718E+03
 -1      3055 2.55469E+03-1.18901E+01-1.98485E+01 4.99975E+02-1.12604E+01 2.02554E+03
 -1      3056 5.02574E+04 1.93455E+01-7.14534E+01 1.39051E+03-3.48427E+01 1.67598E+03
 -1      3057-2.85344E+04 1.68151E+01-9.11887E+01 8.30485E+02-5.01646E+00 1.64431E+03
 -1      3058-2.74062E+04-3.54082E+01 3.93673E+01 8.10819E+02-7.71486E+00 1.56116E+03
 -1      3059-9.55104E+03-2.40694E+01-4.94094E+01 7.11712E+02-2.65482E+01 2.93386E+03
 -1      3060-3.10973E+04 3.59720E+01 7.12770E+01 1.36400E+03 3.10124E+01 1.59268E+03
 -1      3061-3.20929E+04 9.07684E+01 5.99969E+01 1.24746E+03 1.12187E+01 1.60923E+03
 -1      3062-1.48377E+04-2.40930E+00-5.03680E+01 4.79805E+02 5.86311E+00 2.68736E+03
 -1      3063-1.40231E+04-2.70591E+01 4.11615E+01 4.74980E+02-2.87787E+01 2.60356E+03
 -1      3064-8.36625E+03-3.24099E+01-2.41046E+01 1.06856E+03-9.19444E+00 2.38762E+03
 -1      3065 7.90906E+03 1.46476E+01-3.50456E+01 8.92711E+02 8.14454E+00 1.08704E+03
 -1      3066 8.79088E+03 1.21748E+01 5.18590E+00 9.08265E+02-8.66283E+00 1.13491E+03
 -1      3067-6.06313E+04-3.78833E+01-5.66729E+01 5.54005E+02 1.02948E+01 1.52372E+03
 -1      3068-2.49381E+04-2.88818E+01 4.89624E+01 1.15118E+03 1.80759E+01 1.34129E+03
 -1      3069-4.87608E+04-7.79779E-01 1.90235E+01 6.08987E+02 1.35162E+02 3.00208E+03
 -1      3070-4.80037E+04 3.03841E+01 6.35066E+01 6.11919E+02 4.79640E+01 2.95937E+03
 -1      3071-2.92683E+04-5.65376E+01-3.02106E+00 1.48525E+03 1.70455E+01 2.08509E+03
 -1      3072-4.48738E+04-1.30862E+01-3.27718E+01 1.35146E+03-2.77946E+01 1.65106E+03
 -1      3073-3.08681E+04 4.20709E+00-9.58158E+01 6.81056E+02 2.95781E+00 3.49762E+03
 -1      3074-4.65099E+03 5.56052E+01 3.36946E+01 6.58071E+02-3.13316E+01 3.24759E+03
 -1      3075-7.98101E+03-1.35909E+01-7.33061E+01 1.14784E+03 2.47483E+01 3.06403E+03
 -1      3076-1.53735E+04 2.30819E+01-4.10050E+01 5.28955E+02-2.15943E+01 2.84049E+03
 -1      3077-3.13582E+04-3.03207E+01-7.09067E+01 1.42459E+03 4.84723E+01 1.57835E+03
 -1      3078-2.27740E+02 1.03876E+01 2.93265E+01 1.61464E+02-9.97152E+00 7.73137E+02
 -1      3079-2.52428E+02 2.54783E+01 4.21155E+01 2.93932E+02-1.34229E+01 7.49814E+02
 -1      3080-4.25998E+02 9.84653E+00 3.47867E+01 1.75634E+02-4.50491E+00 8.85833E+02
 -1      3081 1.49915E+02-3.31401E+00 6.69612E+00 2.07192E+02-5.72698E+00 8.12814E+02
 -1      3082 1.79308E+01-2.71530E+00 1.88048E+01 1.90213E+02 2.89686E+00 7.11169E+02
 -1      3083 4.22111E+02-8.61100E+00-4.16635E+01 1.77272E+02 3.06232E+00 8.88011E+02
 -1      3084 2.37050E+02-9.28743E+00-2.24974E+01 1.65104E+02 1.06573E+01 7.71332E+02
 -1      3085 2.61385E+02-2.04692E+01-4.71642E+01 2.91091E+02 1.49005E+01 7.56659E+02
 -1      3086-6.95894E+00-6.52619E+00 1.78995E+01 2.98332E+02 1.01240E+01 4.52640E+02
 -1      3087-3.16184E+02 3.43839E+00 1.90813E+01 3.39451E+02 1.76641E+01 4.92512E+02
 -1      3088-6.71497E+02 2.96012E+01 1.37785E+01 3.72937E+02-1.21417E+01 4.43126E+02
 -1      3089-2.67735E+02 1.71260E+01 2.34594E+01 3.32665E+02-3.14314E+00 4.07466E+02
 -1      3090 2.62293E+02-2.14431E+01-1.95607E+01 3.33880E+02 2.77941E+00 4.03103E+02
 -1      3091 6.71214E+02-2.27314E+01-1.60412E+01 3.69489E+02 1.36392E+01 4.38779E+02
 -1      3092 1.64387E+03-2.16912E+01-3.29767E+01 4.45475E+02 6.62979E-01 4.81983E+02
 -1      3093 1.20474E+03 4.55195E+00-1.46289E+01 4.79329E+02 1.07830E+01 9.92172E+02
 -1      3094 6.74337E+02-5.99345E+00-2.06124E+01 4.09819E+02 2.89855E+01 1.02506E+03
 -1      3095-1.64236E+03 2.14614E+01 3.28528E+01 4.46199E+02-1.82921E+00 4.82224E+02
 -1      3096-1.20376E+03-3.80324E+00 1.52603E+01 4.78639E+02-1.03193E+01 9.90983E+02
 -1      3097-6.75566E+02 6.39853E+00 2.11873E+01 4.11388E+02-2.90992E+01 1.02475E+03
 -1      3098-1.12248E+03 3.28711E+00 1.98506E+01 1.90098E+02-9.54946E+00 1.06336E+03
 -1      3099-4.61038E+02 2.22062E+00 1.19514E+01 4.24176E+02-4.71414E+00 1.10987E+03
 -1      3100 1.12284E+03-4.79419E+00-2.05151E+01 1.90654E+02 8.93677E+00 1.06347E+03
 -1      3101 4.60918E+02-4.57688E+00-1.37582E+01 4.24735E+02 4.44907E+00 1.11064E+03
 -1      3102 5.58574E+03 3.07960E+01 7.87475E+01 7.18472E+02-4.21968E+01 3.29334E+03
 -1      3103-3.55957E+04-3.08986E+01 5.05929E+01 1.28576E+03 1.90831E+01 1.49177E+03
 -1      3104-2.19354E+04 2.15025E+01-4.63151E+01 5.86905E+02-2.26266E+01 3.16417E+03
 -1      3105-2.00118E+03-2.23978E+01-5.20528E+01 5.10785E+02 3.30163E+01 2.33261E+03
 -1      3106 1.12212E+04 3.04818E+00 3.35234E+01 9.80677E+02-3.88149E+01 1.15205E+03
 -1      3107 4.05153E+03 7.61709E+00 4.65398E+01 6.40155E+02-4.50086E+01 2.98358E+03
 -1      3108-2.25830E+04-5.02472E+00-2.49913E+01 1.28821E+03 5.28361E+01 1.43533E+03
 -1      3109-1.90131E+01-1.31181E+01-1.60769E+01 2.48399E+02 2.30195E+00 6.36371E+02
 -1      3110-1.02191E+02-1.34378E+01-9.88343E+00 1.24379E+02 1.03529E+01 6.37492E+02
 -1      3111 1.75986E+02-2.91768E+01-5.20707E+01 2.73615E+02 1.66004E+01 6.56898E+02
 -1      3112 7.51773E+00 3.96116E+00 1.94318E+01 2.55544E+02-3.85495E+00 6.25204E+02
 -1      3113 1.08659E+02 1.10562E+01 1.02419E+01 1.20279E+02-1.18399E+01 6.33709E+02
 -1      3114-1.77606E+02 2.77991E+01 5.33331E+01 2.76437E+02-1.70822E+01 6.53553E+02
 -1      3115 1.52083E+02 1.18398E+01 3.33105E+01 2.64710E+02-1.12587E+01 2.98950E+02
 -1      3116-1.53242E+02-8.93217E+00-3.04376E+01 2.64585E+02 1.03175E+01 2.91201E+02
 -1      3117-1.03168E+04 6.97692E+01 1.11202E+02 7.75783E+02 4.22710E+01 3.02360E+03
 -1      3118-3.35313E+04-5.08745E+01-6.62163E+01 1.37688E+03-4.59068E+01 1.66953E+03
 -1      3119-1.45254E+04-1.26116E+01-4.29441E+01 1.31606E+03-1.80760E+01 2.90877E+03
 -1      3120 1.53744E+04-2.16353E+01 4.65174E+01 5.28355E+02 1.85999E+01 2.84032E+03
 -1      3121-5.61302E+03-1.12252E+01-5.27291E+01 7.10031E+02 5.39068E+01 3.27794E+03
 -1      3122 3.13620E+04 2.23851E-03 3.23647E+01 1.41492E+03-5.46914E+01 1.58919E+03
 -1      3123-3.41795E+04 4.09097E+01 1.11799E+00 1.52088E+03 1.27478E+01 2.26478E+03
 -1      3124-5.02658E+04 3.33670E+01 4.84741E+01 1.41645E+03 3.54313E+01 1.72864E+03
 -1      3125-4.06205E+03-8.12282E+00-4.34703E+01 6.41716E+02 4.63783E+01 2.98366E+03
 -1      3126 2.49129E+04 2.93157E+01-5.30095E+01 1.15760E+03-1.96851E+01 1.34203E+03
 -1      3127-2.75573E+04-3.99009E+01 1.19566E+01 6.56472E+02 1.45674E+01 3.41084E+03
 -1      3128-5.41193E+03-5.19384E+01-1.60465E+01 6.56951E+02 3.71850E+01 3.32181E+03
 -1      3129 3.56381E+04 2.78122E+01-5.07119E+01 1.28716E+03-2.42575E+01 1.49133E+03
 -1      3130 2.19891E+04-2.30984E+01 4.51072E+01 5.87495E+02 1.90792E+01 3.16681E+03
 -1      3131 2.16540E+04-6.20244E+01-1.67078E+01 1.07840E+03 9.79085E+00 1.17123E+03
 -1      3132 2.34016E+04 7.08717E+01 2.08664E+01 1.13840E+03 1.05317E+01 1.19048E+03
 -1      3133 8.33027E+03 1.92427E+01 4.55281E+00 9.76338E+02 1.45919E+01 2.54595E+03
 -1      3134-3.73449E+04 4.15589E+01 6.69357E+01 4.66503E+02-1.01568E+01 1.31926E+03
 -1      3135-7.04328E+03 1.49676E+01-4.52334E+01 4.02479E+02-2.14622E+01 2.17916E+03
 -1      3136 1.31547E+04-1.92886E+01-4.73878E+01 1.00796E+03 2.00699E+01 1.09725E+03
 -1      3137 2.64126E+03 1.56012E+01-7.22391E+00 1.00408E+03-1.96757E+01 2.28395E+03
 -1      3138 8.97938E+03 4.12252E+01 2.93630E+01 9.37612E+02-3.04772E+01 2.04527E+03
 -1      3139-1.05036E+03 7.06985E+00 2.69219E+01 2.62979E+02 1.17338E+00 5.63406E+02
 -1      3140 1.14427E+03 1.64759E+01-2.30241E+00 2.68347E+02-4.96718E+00 5.54456E+02
 -1      3141-5.26748E+04 1.01584E+01 5.17112E+01 5.34190E+02-1.16477E+01 1.45403E+03
 -1      3142 4.33480E+04 1.45040E+02 1.20458E+02 1.59112E+03-6.69895E+00 1.91026E+03
 -1      3143-1.31513E+04 2.52759E+01 4.80210E+01 1.00753E+03-1.97415E+01 1.09839E+03
 -1      3144-2.64790E+03-1.60757E+01 7.56960E+00 1.00624E+03 1.91056E+01 2.28174E+03
 -1      3145-8.96582E+03-4.10426E+01-2.43426E+01 9.44611E+02 3.50503E+01 2.05365E+03
 -1      3146-2.12695E+04 4.80572E+01-4.32971E+00 7.31992E+02 2.41860E+00 1.54418E+03
 -1      3147 2.25537E+04 1.07887E+00 2.39370E+01 1.29010E+03-5.12431E+01 1.43368E+03
 -1      3148-1.69864E+03 3.84892E+01 1.39230E+01 4.89405E+02-1.83022E+01 2.39808E+03
 -1      3149-3.45131E+03-9.99311E+00-5.19341E+01 8.43069E+02 2.23200E+01 2.29145E+03
 -1      3150 1.70223E+03-4.53644E+01-9.42058E+00 4.87343E+02 2.01949E+01 2.39260E+03
 -1      3151 3.43684E+03 6.10614E+00 4.56413E+01 8.49303E+02-2.56185E+01 2.29221E+03
 -1      3152 2.70457E+04 1.45278E+02 4.22443E+03 7.06948E+02-5.79650E+01-9.37939E+02
 -1      3153 7.64596E+03-7.52520E+02 3.39350E+03-5.35291E+02-3.91330E+02-1.47853E+03
 -1      3154 1.71038E+04-9.27109E+02 2.28857E+03 1.10868E+03-8.64464E+02 2.61544E+03
 -1      3155-2.33721E+03-6.39444E+02 1.96997E+03 9.02390E+02-1.04438E+03 1.92812E+03
 -1      3156-8.47595E+03-6.90785E+02 1.38771E+03 2.87882E+02-7.41419E+02 1.90638E+03
 -1      3157 2.14530E+04 1.52586E+01 6.32521E+01 7.33041E+02-3.04174E+00 1.54448E+03
 -1      3158 3.74509E+04-1.09344E+01-5.32763E+01 4.80249E+02 1.07609E+01 1.30662E+03
 -1      3159 8.64206E+03-2.37839E+01 3.33117E+00 8.13912E+02 2.62579E+01 3.13148E+03
 -1      3160 9.44751E+03-6.77765E+01-2.19421E+01 9.02011E+02 5.83404E+01 3.16715E+03
 -1      3161 5.27162E+04-7.67544E+00-5.16350E+01 5.29922E+02 1.09347E+01 1.45568E+03
 -1      3162 1.42804E+02-1.64985E+01 2.18014E+01 1.49130E+02 4.93727E+00 3.31890E+02
 -1      3163 2.92876E+02-1.77376E+01 2.20963E+01 1.93584E+02-7.53427E+00 2.87494E+02
 -1      3164 5.12928E+01-1.55391E+01 5.96063E+01 2.15024E+02 3.04024E+00 4.95843E+02
 -1      3165-4.67475E+00-5.82436E+00 4.72631E+01 1.21612E+02 1.07638E+01 4.54681E+02
 -1      3166-1.67711E+03-3.25980E+01-1.40287E+01 4.21696E+02-2.13111E+01 1.70576E+03
 -1      3167-1.73138E+03 9.62020E+00-3.94237E+01 8.04071E+02 8.37274E+00 1.85589E+03
 -1      3168-8.46651E+02-4.23123E+01-6.86015E+01 4.98720E+02 5.87622E-01 1.83913E+03
 -1      3169-2.17753E+03-1.72960E+00 7.82195E+01 4.32405E+02 9.74624E+00 1.73588E+03
 -1      3170-2.24428E+03-1.72587E+00 1.18648E+02 8.38781E+02 1.09645E+00 1.94669E+03
 -1      3171-3.10672E+03-2.88005E+01 4.67252E+01 7.33735E+02-1.04724E+01 1.68921E+03
 -1      3172-5.93620E+04 3.71254E+01-1.36974E+01 1.04318E+03 1.53813E+02 1.74112E+03
 -1      3173-5.83604E+04 4.15696E+01 5.37272E+01 1.11262E+03 3.81160E+01 1.63072E+03
 -1      3174-2.37803E+04 2.33205E+00-1.05406E+01 4.16107E+02 4.25894E+00 1.13141E+03
 -1      3175 2.38202E+04 2.01578E+01 2.52094E+01 4.13021E+02-2.69325E+00 1.13618E+03
 -1      3176-2.09721E+03-5.32642E+00 3.11853E+01 5.66999E+02 1.04936E+01 6.17279E+02
 -1      3177-2.24174E+03 9.29870E+00 1.86091E+01 4.62897E+02-1.98430E+01 4.97783E+02
 -1      3178 2.09576E+03 4.76819E+00-3.45517E+01 5.67844E+02-9.60357E+00 6.15298E+02
 -1      3179 2.24135E+03-9.47563E+00-2.00746E+01 4.62237E+02 1.96935E+01 4.97431E+02
 -1      3180 3.59278E+02-2.18123E+01 2.24429E+01 2.63420E+02-3.15354E+00 1.29962E+03
 -1      3181 1.37315E+03-1.46231E+01-8.25721E+00 2.00902E+02 1.20193E+01 1.15807E+03
 -1      3182-3.56231E+02 2.25261E+01-2.27171E+01 2.63161E+02 2.65192E+00 1.29610E+03
 -1      3183-1.37177E+03 1.45691E+01 8.91107E+00 2.01113E+02-1.23564E+01 1.15739E+03
 -1      3184-1.50766E+04 4.20713E+01-1.09971E+00 6.59350E+02-2.00186E+00 1.39595E+03
 -1      3185 1.84265E+04-1.01217E+01-1.53365E+01 1.02721E+03 8.67375E+00 1.21909E+03
 -1      3186 1.44381E+04-3.08334E+00 5.34483E+00 1.10243E+03-3.51571E+01 1.09607E+03
 -1      3187-1.84102E+04 4.32970E+00 1.75380E+01 1.02820E+03-9.41595E+00 1.21907E+03
 -1      3188-1.44583E+04-5.24717E+00-1.35351E+01 1.09156E+03 2.84859E+01 1.09131E+03
 -1      3189-9.53709E+01-1.29177E+01 2.22817E+01-2.59731E+01 6.04223E+00-6.16909E+01
 -1      3190 1.91079E+02-4.48240E+00 3.83651E+01-4.52411E+00 3.20079E+00-1.21720E+01
 -1      3191-1.65294E+02-1.78534E+01 1.90662E+01 3.39074E+01 1.03274E+01 1.02195E+02
 -1      3192 1.27401E+02-1.43786E+01 3.30811E+01 6.69507E+01 3.14847E-01 1.54773E+02
 -1      3193 3.30452E+02-1.36140E+01 5.50472E+01 1.73290E+01 3.60694E+00 4.75073E+01
 -1      3194 1.50111E+04-4.55135E+01-2.80577E+00 6.46739E+02 4.62719E+00 1.39753E+03
 -1      3195-1.13557E+04-1.30382E+01 1.54341E+01 4.98506E+02 6.18566E-01 2.56042E+03
 -1      3196-2.27680E+03-2.26450E+01 4.29223E+00 4.79900E+02 1.48406E+01 2.49202E+03
 -1      3197-8.34316E+03-1.29523E+02-1.79301E+02 8.89802E+02 1.65266E+02 3.60754E+03
 -1      3198 1.13056E+04 1.07204E+01-2.28770E+01 5.01372E+02-4.47498E+00 2.56379E+03
 -1      3199 2.22878E+03 1.26671E+01-9.67432E+00 4.79725E+02-1.93891E+01 2.49762E+03
 -1      3200-2.68904E+04-5.93108E+01 5.35015E+01 7.98932E+02-8.07228E+00 1.60587E+03
 -1      3201-9.23885E+03-3.49456E+01-2.44918E+01 7.38260E+02-2.75525E+01 3.01723E+03
 -1      3202-4.68732E+02 3.92699E+01-4.02206E+01-1.86244E+02-1.25459E+00-2.35778E+02
 -1      3203-4.75401E+02 3.08650E+01-4.07876E+01-9.75971E+01-3.28292E+00-1.22924E+02
 -1      3204-7.56613E+03 4.84836E+02-1.10090E+03 9.23787E+02 6.07545E+02 3.48265E+03
 -1      3205-1.82215E+04 3.05547E+01-2.22218E+02 1.27984E+03 7.43557E+02 4.01110E+03
 -1      3206-8.86466E+03 3.08141E-01-2.03452E+02 9.44137E+02 3.75874E+02 3.33721E+03
 -1      3207-2.48524E+02 4.52212E+01 1.32300E+02-2.64311E+02-1.03798E+01-2.97844E+02
 -1      3208-2.85647E+02 9.70634E+01 1.54499E+02-2.49464E+02-2.30783E+01-3.02097E+02
 -1      3209-1.07737E+02 4.52095E+01 1.06165E+02-2.41358E+02-9.13158E+00-5.00774E+02
 -1      3210-1.52635E+02 7.67395E+01 1.23125E+02-2.27119E+02-1.11252E+01-5.00351E+02
 -1      3211-4.43120E+02-1.85847E+01-6.25176E+01-2.16489E+02-5.14068E-01-2.40030E+02
 -1      3212-9.64364E+03-3.70166E+01 1.37038E+02 1.43477E+03-1.58369E+01 3.23503E+03
 -1      3213-2.76147E+04-1.07155E+02-7.23407E+01 1.37922E+03-4.56355E+01 2.06073E+03
 -1      3214-8.86479E+03 1.34378E+01-1.34355E+02 1.40345E+03-1.91415E+00 3.16182E+03
 -1      3215-1.91125E+04-4.83773E+01-9.57274E+02 1.33392E+03 8.70865E+02 3.99178E+03
 -1      3216-4.10475E+04-1.04189E+03-2.44849E+03 1.37370E+03 1.10672E+03 3.38928E+03
 -1      3217-3.94014E+04-3.79076E+02-5.59653E+02 1.01176E+03 9.04984E+02 3.60924E+03
 -1      3218-2.84460E+02 2.67189E+01 1.42519E+02-2.78876E+02-9.01170E+00-2.81841E+02
 -1      3219-7.39340E+01 3.80375E+01 9.82246E+01-2.36937E+02-3.67863E+00-5.06540E+02
 -1      3220-3.91425E+02-2.74496E+00-6.81158E+01-2.39105E+02-1.04825E+01-2.58669E+02
 -1      3221-3.68590E+02 3.43963E+01-4.67336E+01-2.54330E+02-1.00569E+01-2.39481E+02
 -1      3222-8.27992E+03 8.67942E+02-9.89642E+02 8.40655E+02 7.57439E+02 3.18014E+03
 -1      3223 2.26140E+02 1.96330E+01 9.85707E+00-1.00320E+02-7.56832E+00-4.29343E+02
 -1      3224 2.86196E+02 2.05868E+01 2.28265E+01-8.56707E+01-1.34927E+01-3.19440E+02
 -1      3225 9.38783E+01 1.25770E+01-3.60095E+01-1.03684E+02 8.52159E+00-5.00501E+02
 -1      3226 1.68892E+02 2.35595E+01-2.78142E+01-9.07839E+01-3.58081E+00-3.82288E+02
 -1      3227-2.15001E+02-4.76321E+00-1.87965E+01-9.37144E+01 1.42173E+01-2.36404E+02
 -1      3228-5.21976E+02-1.98372E+01-2.22233E+01-3.58562E+01 9.77312E+00-2.01329E+02
 -1      3229-4.71139E+02-4.52247E+01-8.27651E+01-1.25705E+02 8.32708E+00-2.88181E+02
 -1      3230-5.19831E+03-2.34226E+01 1.25374E+01 8.10377E+02 8.75443E-01 1.15535E+03
 -1      3231-8.36072E+03 4.68001E+00 1.00328E+01 7.91413E+02-2.08908E+01 9.42306E+02
 -1      3232-1.67708E+04 6.80529E+01 1.77664E+01 1.32180E+03 5.52372E+01 2.94758E+03
 -1      3233 5.95463E+03-2.18061E+01-6.93455E+01 1.23165E+03-1.55022E+01 3.11736E+03
 -1      3234-4.86561E+04-2.17191E+03 1.56446E+02 1.21834E+03-2.71481E+01 2.23134E+03
 -1      3235-4.08302E+04-5.52412E+02 1.00057E+02 1.66205E+03 3.25666E+02 3.07488E+03
 -1      3236-4.56350E+04-3.10507E+02 1.13503E+02 1.52769E+03 7.86359E+01 1.93414E+03
 -1      3237-4.24435E+04-2.44737E+03-8.92990E+01 1.70340E+03 3.67323E+02 3.18207E+03
 -1      3238-6.23672E+04-1.92042E+03-1.11286E+02 1.75648E+03 6.60248E+02 2.27002E+03
 -1      3239-6.46584E+04-4.39642E+03-5.93028E+02 1.90398E+03 8.35994E+02 2.66740E+03
 -1      3240-1.39293E+02-9.41676E+00 2.67003E+01 4.99036E+01 4.43015E+00 2.29546E+02
 -1      3241 1.07457E+03 3.99438E+01 5.36050E+01 4.00843E+02-1.32129E+01 1.92706E+03
 -1      3242-1.19077E+03-4.14015E+01 8.33468E+01 7.80865E+02 6.83829E+00 1.75365E+03
 -1      3243 7.37394E+02 1.12012E+01 3.72029E+01 3.81392E+02 1.59696E+01 1.78984E+03
 -1      3244 1.67827E+03-3.27056E+01-1.88215E+01 4.28284E+02-9.25893E+00 2.17360E+03
 -1      3245-1.93568E+03 4.16431E+01-4.00269E+01 9.00238E+02-9.98075E+00 2.04166E+03
 -1      3246 1.26715E+03-6.92946E+01-4.91605E+01 4.38147E+02 2.21284E+01 2.16889E+03
 -1      3247-2.25105E+02 1.43864E+01 4.46321E+01 2.99334E+02 6.19836E+00 3.39794E+02
 -1      3248 1.46184E+02 1.30799E+01 4.94793E+01 2.84732E+02-5.84309E+00 3.03635E+02
 -1      3249 7.91023E-01 2.63562E+00 3.43344E+00 2.93952E+02 5.59668E+00 6.60445E+02
 -1      3250-6.83879E+01-3.05317E+01-2.58536E+00 1.32857E+02 1.11265E+01 6.60983E+02
 -1      3251 8.60066E+01-1.90977E+01 2.56361E+00 1.42970E+02 1.63101E+00 7.39014E+02
 -1      3252-1.06151E+04 1.11652E+01 4.84761E+01 8.80366E+02 2.88337E+01 9.91917E+02
 -1      3253-9.55614E+03 4.86260E+01 1.05387E+02 9.41350E+02-2.17981E+01 9.78345E+02
 -1      3254-6.72374E+03-3.83193E+01-3.71272E+01 8.31764E+02 1.92879E+01 9.12551E+02
 -1      3255-5.82785E+03-2.31620E+00-3.37906E+00 7.18587E+02-2.75934E+01 8.85925E+02
 -1      3256-8.88040E+02-1.75666E+01-4.62344E+01-8.34226E+01 5.75406E+00-7.88125E+01
 -1      3257-1.38307E+03-2.32515E+01-4.44309E+01 1.62441E+01 1.40048E+01 4.30857E+01
 -1      3258-6.28583E+02 3.71588E+01 3.36128E+00 3.56927E+02-2.06117E+01 1.74217E+03
 -1      3259-1.69227E+03 3.27296E+00-5.02735E+01 6.44266E+02 1.44629E+01 1.69877E+03
 -1      3260 2.62697E+02 1.29270E+01 2.03638E+00 3.48147E+01-8.46139E+00 1.61724E+02
 -1      3261 2.88331E+02 1.85300E+01 1.73770E+01 1.41158E+01-8.94770E+00 3.71139E+01
 -1      3262 6.48808E+02 1.27210E+01 2.76315E+01-3.75430E+00-1.03876E+01-1.34521E+01
 -1      3263 3.76666E+02 2.38098E+01 3.89901E+01 1.69217E+01-1.40493E+01 3.71439E+01
 -1      3264 6.37207E+02 1.86996E+01 2.93567E+01 1.27552E+01-1.05479E+01 1.08119E+02
 -1      3265-5.04925E+04-3.91116E+03 8.91857E+01 1.08169E+03-6.54640E+01 2.36375E+03
 -1      3266-5.07074E+02-1.08368E+01 9.20937E+00 3.93221E+02 5.14072E+00 4.76988E+02
 -1      3267-7.68473E+01-1.57270E+00 4.18571E+01 3.56571E+02 3.73450E+00 8.21547E+02
 -1      3268-1.14397E+02-1.99130E+01 4.23812E+01 3.00476E+02 2.17416E+00 7.01105E+02
 -1      3269 3.63718E+01-4.24654E+00 3.19631E+01 2.06084E+02 5.03674E+00 9.24424E+02
 -1      3270-4.67087E+03 6.01069E+01 1.69801E+02 8.77391E+02 2.33830E+01 3.14780E+03
 -1      3271 2.22838E+02-1.00491E+01 6.17307E+01-1.06209E+01 3.37927E+00 4.31324E+00
 -1      3272 1.27581E+02-1.36123E+01 4.92700E+01 4.48745E+01 7.09087E+00 1.47112E+02
 -1      3273 7.35207E+04-5.15163E+01-6.81849E+01 4.65177E+02-1.50773E+01 1.51069E+03
 -1      3274-4.30796E+04-3.27113E+00 6.61413E+01 1.37622E+03 5.64918E+01 1.70992E+03
 -1      3275-4.13119E+04 9.56276E+01 1.17214E+02 1.53998E+03-3.30519E+01 1.67684E+03
 -1      3276-7.79589E+03 7.65313E+01-1.19209E+02 1.51361E+03-3.07715E+01 3.36751E+03
 -1      3277-3.65982E+04-7.92314E+01-1.04803E+02 1.46166E+03 5.27987E+01 1.62200E+03
 -1      3278 7.08766E+03-2.04765E+01-3.48406E+00 7.50496E+02-8.39823E+01 3.36384E+03
 -1      3279 6.35896E+03-8.69337E+01-8.71556E+01 7.49544E+02 5.73136E-01 3.49402E+03
 -1      3280 5.80284E+03 7.62256E+01 7.10021E+01 7.25623E+02-3.60398E+01 3.39663E+03
 -1      3281 1.07967E+04 6.41701E+02-1.11234E+03 1.04694E+03 6.35130E+02 2.80305E+03
 -1      3282 4.19160E+04 2.35361E+03 9.83582E+00 7.37908E+02 8.08452E+01 2.36848E+03
 -1      3283 3.34269E+04 6.77061E+02-3.37605E+02 3.60626E+02 1.17361E+02 1.09941E+03
 -1      3284 9.18091E+03 1.16387E+02-2.31217E+02 1.04471E+03 2.32042E+02 2.73322E+03
 -1      3285 3.80456E+04 5.09179E+02-1.05221E+02 1.12701E+03 7.30554E+01 1.86021E+03
 -1      3286 3.37874E+02 2.05226E+01 3.09158E+01-8.81483E+01 1.66013E+00-4.95914E+02
 -1      3287 3.60542E+02 1.31567E+01 2.79326E+01-1.32027E+02-1.23823E+01-2.70284E+02
 -1      3288 5.34809E+02 2.75121E+01 4.17307E+01-6.14967E+01-4.82484E+00-3.50033E+02
 -1      3289 5.19394E+02 4.15166E+01 8.94748E+01-1.39695E+02-3.14221E+00-3.20572E+02
 -1      3290-2.32700E+01 2.47877E+01-7.65666E+01-1.04508E+02-2.61055E+00-4.05993E+02
 -1      3291-4.28278E+02 1.37538E+01-5.66240E+01-8.07889E+01-3.83838E+00-1.86462E+02
 -1      3292-8.99226E+00 7.58059E+00-6.38651E+01-4.26956E+01-3.73463E+00-2.56486E+02
 -1      3293 3.33195E+01-1.42013E+01 8.25466E+01-1.06425E+02 6.36906E+00-3.95033E+02
 -1      3294 1.62083E+02-1.33108E+01 7.60683E+01-5.67163E+01 3.06575E+00-2.23250E+02
 -1      3295 4.38432E+04 3.40923E+03 8.36598E+03 2.66591E+03-1.41767E+02 5.70008E+02
 -1      3296 4.14924E+04 8.04065E+03 7.44732E+03 3.51174E+03-1.21533E+03 3.13849E+03
 -1      3297 5.07298E+04 1.00584E+03 3.14674E+03 2.02951E+03-1.44404E+03 3.31593E+03
 -1      3298 2.32638E+04 2.93532E+03 2.68828E+03 1.80676E+03-1.26068E+03 2.01596E+03
 -1      3299-6.79808E+01 3.16488E+01-1.13043E+01-2.15390E+02-8.72744E+00-5.72811E+02
 -1      3300 4.66339E+01-1.13919E+01-2.28724E+01-2.41942E+02-7.33781E+00-5.57636E+02
 -1      3301-1.02272E+04 1.68889E+00 9.72056E+00 2.92213E+02-8.79713E+00 8.12350E+02
 -1      3302 1.28988E+04 2.72923E+03 8.52576E+02 5.35232E+02 2.56585E+02 2.75918E+03
 -1      3303-1.51138E+04-3.06383E+01-1.24599E+03 2.36440E+03 9.56436E+02 4.97153E+03
 -1      3304 3.22843E+04-1.45943E+02 6.00419E+01 6.97119E+02-4.78911E+02 3.33838E+03
 -1      3305 1.48740E+04 2.43883E+02 3.20383E+02 1.66643E+03-2.79088E+02 4.31387E+03
 -1      3306 3.89440E+04 5.28870E+02 1.13651E+02 1.63791E+03-7.68267E+02 3.92616E+03
 -1      3307-1.03551E+02 1.62083E+01 4.28796E+01-2.32419E+02-1.20720E+01-5.46199E+02
 -1      3308 3.29094E+01-2.10428E+01-5.52322E+01 1.18810E+02 3.08985E+00 5.95498E+02
 -1      3309 4.62289E+02-9.03069E+00-4.32834E+01 1.62793E+02 1.28422E+01 7.23458E+02
 -1      3310-3.34635E+01 2.05017E+01 5.69546E+01 1.19511E+02-3.19736E+00 5.94369E+02
 -1      3311-4.61634E+02 8.87053E+00 4.41756E+01 1.63197E+02-1.24113E+01 7.20569E+02
 -1      3312-4.50032E+01 2.17978E+01 3.34362E+01 2.24261E+02-6.81947E+00 3.02569E+02
 -1      3313-4.97948E+02 2.26348E+01 2.13271E+01 2.86351E+02-1.19894E+01 4.13592E+02
 -1      3314 4.41364E+01-2.26802E+01-3.31595E+01 2.22496E+02 6.49061E+00 3.02338E+02
 -1      3315 4.97958E+02-2.40183E+01-2.08985E+01 2.83099E+02 1.14012E+01 4.14708E+02
 -1      3316 5.44868E+04 2.86625E+02-2.23581E+02 1.30742E+03-3.02020E+02 1.94508E+03
 -1      3317 2.85872E+02-8.67098E+01-1.49694E+02-2.45638E+02 1.95426E+01-2.84871E+02
 -1      3318 2.61831E+02-7.85043E+01-1.38500E+02-2.71407E+02 1.17563E+01-3.04654E+02
 -1      3319 4.22019E+02-4.23486E+00 4.38655E+01-2.46416E+02 5.36791E+00-2.50977E+02
 -1      3320 1.27069E+02-7.29761E+01-1.26714E+02-2.24119E+02 1.60322E+01-5.14518E+02
 -1      3321 4.80066E+02 2.12154E+01 4.31408E+01-2.07094E+02 9.15125E+00-2.23404E+02
 -1      3322-1.13498E+04-5.71667E+02 1.00048E+03 1.01127E+03-6.43231E+02 2.69766E+03
 -1      3323-4.20973E+04-2.30072E+03 6.28979E+00 6.50468E+02-1.23551E+02 2.19911E+03
 -1      3324-3.32188E+04-6.97586E+02 3.11932E+02 4.41370E+02-8.31592E+01 1.06154E+03
 -1      3325-9.89787E+03-9.31337E+01 1.95795E+02 1.06082E+03-2.37219E+02 2.66421E+03
 -1      3326-3.86822E+04-4.96158E+02 1.57467E+02 1.22176E+03-1.05427E+02 1.87998E+03
 -1      3327 8.05675E+02 2.29681E+00 3.88968E+01 4.57086E+01-2.42224E+00 7.50321E+01
 -1      3328 6.87405E+02 1.69348E+01 4.19218E+01 1.73169E+01-3.37221E+00 3.24342E+01
 -1      3329 1.07734E+03 2.44994E+01 4.45285E+01-7.10355E+00-8.10227E+00-7.56328E+00
 -1      3330 4.66786E+02-4.87885E+00 4.29986E+01 5.08767E+01-3.65849E+00 9.83138E+01
 -1      3331 7.69688E+02-1.43993E+00 2.62895E+01 9.98714E+01 3.61625E+00 1.08565E+02
 -1      3332 1.02415E+03 2.09860E+01 3.00922E+01 4.49574E+01-6.19198E+00 2.43526E+01
 -1      3333 6.15056E+02 1.64658E+01 3.26924E+01-2.03140E+02-1.95337E+00-2.21004E+02
 -1      3334 1.69656E+02-4.84532E+00 9.61776E+01-2.13341E+02 7.81835E+00-4.46749E+02
 -1      3335 9.95600E+02-1.39395E+00 2.84656E+00 3.57977E+02 1.46729E+01 1.73035E+03
 -1      3336-9.32106E+02-2.29883E+01-4.98067E+00 7.37647E+02 6.65877E+00 1.64428E+03
 -1      3337-2.09470E+03-9.06648E-01 4.03445E+01 6.54931E+02 7.12711E+00 1.54690E+03
 -1      3338-1.86875E+03 9.76692E+00 5.69070E+01 9.58001E+02 3.90117E+00 2.14203E+03
 -1      3339 1.81281E+03-1.56679E+01 2.19015E+01 4.98662E+02-1.09544E+01 2.30604E+03
 -1      3340-3.84181E+03-1.83701E+01 2.57165E+01 8.02748E+02 1.39405E+00 1.89015E+03
 -1      3341-5.14766E+03-5.98177E+00 2.77446E+01 7.32066E+02-1.01615E+01 8.39920E+02
 -1      3342-1.10663E+04 1.61418E+01-4.77127E+00 9.64799E+02 1.48431E+01 1.13970E+03
 -1      3343-5.18041E+03 9.61285E-01 1.92415E+01 3.77013E+02 3.48412E+00 1.94604E+03
 -1      3344-1.05114E+03-2.59220E+01-2.54681E+01 3.60791E+02 1.72943E+01 1.84821E+03
 -1      3345-4.28393E+04-2.33198E+03-6.44881E+03 2.14452E+03 1.65000E+02 8.00789E+02
 -1      3346-2.54725E+04-4.08651E+03-7.23035E+03 2.43063E+03 3.53883E+02-6.35141E+02
 -1      3347-5.22136E+04-9.00855E+02-3.02166E+03 1.71691E+03 1.52050E+03 3.16327E+03
 -1      3348-3.25200E+04-9.72565E+02-3.42697E+03 1.71188E+03 1.16601E+03 2.55929E+03
 -1      3349-4.11629E+04-7.53577E+03-6.50967E+03 3.53526E+03 7.41334E+02 3.14977E+03
 -1      3350 5.03885E+02-3.66506E+01 4.53159E+01-1.84226E+02-5.28029E+00-2.22130E+02
 -1      3351 4.26540E+02-2.20095E+01 4.66723E+01-8.78033E+01 4.91500E+00-1.71356E+02
 -1      3352 6.50143E+02-2.53841E+01 3.76483E+01-1.18419E+02 2.53721E+00-9.39572E+01
 -1      3353-5.23080E+04-1.13794E+04-2.39675E+03-2.22217E+03 3.83561E+02 1.66596E+03
 -1      3354-6.15305E+04-1.22850E+04-3.53635E+03 1.03246E+02-3.50415E+02 2.77124E+03
 -1      3355-7.11924E+04-6.88501E+03-1.11810E+03 2.84945E+03 1.18363E+03 3.34726E+03
 -1      3356-4.08553E+04-8.10121E+03-6.69056E+03 9.93161E+02 8.88778E+02 4.63679E+03
 -1      3357-6.17862E+04-6.99734E+03-5.85004E+02 1.10494E+03 8.29100E+02 3.67125E+03
 -1      3358-3.26948E+04 1.73466E+02-2.90773E+01 6.48881E+02 4.49018E+02 3.28271E+03
 -1      3359-1.98196E+04-2.45943E+02-3.39647E+02 1.61171E+03 3.63231E+02 4.21983E+03
 -1      3360-4.06568E+04-5.38606E+02-1.27022E+02 1.59758E+03 8.06715E+02 3.80934E+03
 -1      3361-1.10525E+02 5.54396E+01 6.12831E+01-1.30876E+02-3.08544E+01-6.35177E+02
 -1      3362-1.30239E+02 6.07351E+01 9.11412E+01-1.14756E+02-3.75646E+01-6.15367E+02
 -1      3363-2.02980E+02-1.34829E+01-2.93912E+00-1.07331E+02-1.42974E+01-5.78202E+02
 -1      3364-2.94420E+02-1.71953E+01-6.24537E+01-8.64077E+01-1.35912E+01-5.31214E+02
 -1      3365-1.10228E+02 5.75062E+01 5.77396E+01-2.14903E+02-2.13259E+01-5.52905E+02
 -1      3366-5.49545E+04-2.58389E+02 1.88539E+02 1.25592E+03 2.71250E+02 1.88273E+03
 -1      3367-2.37830E+02 8.57856E+00-3.59414E+01-4.75607E+01 8.58337E-01-1.22369E+02
 -1      3368 3.71633E+04 3.07334E+01 6.80034E+00 1.47455E+03 1.32838E+01 1.69273E+03
 -1      3369 4.65974E+04 7.94511E+00-8.47601E+01 1.41110E+03 3.40091E+01 1.60744E+03
 -1      3370 2.05558E+04-5.28557E+01-1.95996E+01 1.33074E+03 6.36951E+01 2.91101E+03
 -1      3371 2.21848E+04-2.52724E+01-1.14798E+01 1.31534E+03-2.90864E+01 3.02506E+03
 -1      3372 3.17497E+04-2.49275E+01-3.03806E+01 1.20732E+03-2.61109E+01 2.95218E+03
 -1      3373 4.84618E+04-3.74053E+01 5.56288E+01 1.38985E+03-3.08239E+01 1.60381E+03
 -1      3374 8.83169E+02 1.08027E+01 4.15066E+01-2.78661E+01 2.69748E+00-4.86452E+01
 -1      3375 9.83651E+01 1.31945E+01-1.35468E+01 7.01981E+01-2.28444E+00 3.85962E+02
 -1      3376 1.87394E+02 2.57701E+01 1.39061E+01 1.13912E+02-8.79004E+00 2.78700E+02
 -1      3377 4.44093E+02 1.91724E+01 1.87857E+01 6.58416E+01-1.12076E+01 3.67076E+02
 -1      3378 2.46620E+02 1.23949E+01 2.87719E+01 1.06857E+02-9.82119E+00 5.15241E+02
 -1      3379 3.50414E+02 2.34929E+01 4.90066E+01 1.59197E+02-1.21387E+01 3.93804E+02
 -1      3380 4.05668E+01 2.23221E+01 1.48757E+01 1.66194E+02-6.76312E+00 4.12423E+02
 -1      3381-5.29504E+02 2.45295E+00-4.06148E+01 1.67421E+02-1.77990E+00 1.69227E+02
 -1      3382-7.12905E+02-1.67076E+01-4.33821E+01 1.49534E+02 1.25618E+01 1.53765E+02
 -1      3383-3.58894E+02-1.03829E+01-5.18325E+01 1.18939E+02 7.68602E+00 2.62616E+02
 -1      3384-1.94564E+02-1.01633E+01-5.61158E+01 1.69715E+02-1.39514E+00 4.00843E+02
 -1      3385-3.50489E+02-2.18049E+01-5.52722E+01 1.60637E+02 1.09319E+01 3.91121E+02
 -1      3386-4.72166E+02-1.92453E+01-3.20411E+01 2.12201E+02 4.87482E+00 2.63963E+02
 -1      3387 1.18335E+04 1.49173E+01-7.19995E+01 1.34699E+03-2.01599E+00 3.10049E+03
 -1      3388 3.79008E+04-1.02954E+02-2.66376E+01 1.48989E+03 1.32655E+00 1.68486E+03
 -1      3389 2.28391E+04 1.02107E+01-4.77745E+01 1.37090E+03-3.24571E+01 3.03348E+03
 -1      3390 1.82464E+04-3.24184E+01-7.63478E+01 1.28361E+03 1.82201E+01 2.73416E+03
 -1      3391-6.16913E+02 4.56502E+01 4.11301E+01 6.11496E+02 1.54872E+00 1.59082E+03
 -1      3392-4.77413E+02 2.76920E+01 8.04110E+00 3.60261E+02 2.49257E+00 9.52730E+02
 -1      3393 7.37356E+02-1.74379E+01-6.79445E+01 3.94360E+02-8.03983E+00 8.62705E+02
 -1      3394-7.41414E+02 9.84068E+00 6.64800E+01 3.96456E+02 4.94219E+00 8.63502E+02
 -1      3395 4.77385E+02-2.31282E+01 4.76295E-01 3.59119E+02 8.49735E-01 9.53687E+02
 -1      3396 2.76673E+03-1.80385E+01-7.87503E+01 6.80373E+02 5.16842E+00 1.46212E+03
 -1      3397 6.11256E+04 1.39710E+04 5.02722E+03-7.11103E+02-3.64684E+02 3.40861E+03
 -1      3398 6.67587E+04 1.26974E+04 3.39639E+03 1.91197E+03 5.51118E+01 2.83004E+03
 -1      3399 5.61404E+04 6.92345E+03 2.34076E+02 1.02050E+03-3.56301E+01 3.36632E+03
 -1      3400 3.34392E+04 8.43417E+03 7.21095E+03 8.27111E+02 7.95942E+01 4.72563E+03
 -1      3401 4.76775E+04 5.23236E+03-3.12877E+02-4.89781E+02 2.56632E+01 2.80595E+03
 -1      3402 1.44199E+02 1.31946E+01-1.41911E+01 1.08070E+02-7.65219E+00 5.10007E+02
 -1      3403-1.22928E+02 1.75446E+01-5.43593E+01 1.68222E+02-6.28096E+00 3.93516E+02
 -1      3404 6.04901E+01 3.42738E+01-4.02101E+00 2.18335E+02 5.22206E-02 5.52763E+02
 -1      3405-4.41424E+02-1.19038E+01-2.77750E+01 2.18098E+02 4.70063E+00 2.56095E+02
 -1      3406-7.91752E+01 2.36853E+00-5.45953E+01 2.28674E+02 2.58249E+00 5.14645E+02
 -1      3407 6.82919E+03-3.04163E+01-7.94889E+01 9.45115E+02 1.69691E+01 2.00285E+03
 -1      3408 2.35509E+04 1.53974E+02 7.07160E+01 1.54699E+03-1.01360E+02 3.52416E+03
 -1      3409-6.54871E+01-1.46710E+01 7.67891E+00-5.14327E+01 2.98538E+00-1.15958E+02
 -1      3410-4.71078E+03 4.05635E+01 3.48937E+01 1.15296E+03 2.60581E+00 3.04926E+03
 -1      3411-2.77834E+02-8.35445E+00 2.04478E+01 3.52064E+02 2.17726E+00 4.50100E+02
 -1      3412-5.10721E+01-1.80280E+01 4.19776E+01 2.79329E+02 3.17461E+00 3.03120E+02
 -1      3413-1.50988E+02-1.35159E+01 4.46785E+01 2.03305E+02 4.80212E+00 7.67676E+02
 -1      3414-2.39585E+01-1.62595E+01 5.51595E+01 1.41792E+02 5.22336E-01 6.20165E+02
 -1      3415-7.40205E+03 1.29460E+01 9.08473E+01 1.62491E+03-8.28802E+01 3.53525E+03
 -1      3416 7.48139E+03 4.24924E+01 1.39018E+02 8.60695E+02-1.32113E+02 3.54929E+03
 -1      3417-1.53227E+04-5.21252E+00-1.32794E+01 1.39825E+03-6.49152E+01 3.10721E+03
 -1      3418 1.68965E+03-4.45586E+01-2.43233E+01 8.44289E+02 2.67825E+00 2.23366E+03
 -1      3419 1.05330E+02-5.90945E+01 4.32058E+01-1.29712E+02 3.32252E+01-6.29092E+02
 -1      3420 1.06758E+02-5.93447E+01 9.54249E+00-1.26896E+02 3.28058E+01-6.28497E+02
 -1      3421 5.54908E+01 2.23262E+01-7.41874E+01-1.11705E+02 1.43464E+01-5.50564E+02
 -1      3422 1.32878E+02 3.69662E+01-6.38041E+00-1.14693E+02 1.52089E+01-5.75963E+02
 -1      3423-2.61632E+01-3.83344E+01 1.28218E+01-2.20285E+02 1.98197E+01-5.56905E+02
 -1      3424-7.23749E+03 4.61779E+00 2.03500E+01 7.22329E+02 2.46876E+01 3.47638E+03
 -1      3425-7.59097E+03-3.61089E+01-2.08582E+01 7.17774E+02 5.00874E+00 3.44778E+03
 -1      3426-2.99355E+04 7.25425E+00 7.86571E+01 6.58952E+02-1.76849E+01 3.43525E+03
 -1      3427-1.05759E+04-8.86775E+00 5.24029E+01 1.25306E+03 3.63874E+00 3.11901E+03
 -1      3428-1.02580E+04 1.10648E+02 8.72251E+01 1.27520E+03 5.91380E+01 3.25617E+03
 -1      3429-1.68931E+03 4.19915E+01 2.44190E+01 8.44552E+02-1.55820E-02 2.23297E+03
 -1      3430-6.83193E+03 2.43446E+01 8.24825E+01 9.51280E+02-2.12715E+01 2.00774E+03
 -1      3431 1.03936E+04-1.61341E+01-4.94924E+01 9.91490E+02-2.11287E+01 2.18455E+03
 -1      3432-5.81783E+03 1.12994E+01 6.66981E-01 9.14119E+02 1.15594E+01 2.38613E+03
 -1      3433 8.67299E+03 4.46753E+01 1.25929E+02 1.51202E+03-1.89773E+02 3.62171E+03
 -1      3434-4.36257E+04-1.09491E+02-6.38012E+01 1.57703E+03-1.80081E+01 1.87872E+03
 -1      3435 9.31403E+03-7.92038E+00-6.31094E+01 8.16369E+02 8.80900E+00 9.18129E+02
 -1      3436 4.34358E+03 4.38491E-01-4.53963E+01 7.81735E+02 8.49308E+00 1.77133E+03
 -1      3437 7.99683E+03-1.59609E+01-1.54567E+01 8.95776E+02-2.04466E+00 1.02037E+03
 -1      3438 1.03803E+04-4.13643E+01 1.06835E+01 8.69430E+02-2.62307E+01 9.90109E+02
 -1      3439 5.30739E+03 4.92756E+01-2.12740E+01 8.38311E+02-3.01746E+01 1.85865E+03
 -1      3440 6.62255E+03-3.47735E+01-4.07843E+01 7.26396E+02 1.54645E+01 1.76610E+03
 -1      3441-9.11728E+03 7.15856E+01 3.62123E+01 1.21471E+03-2.57012E+01 3.18749E+03
 -1      3442-2.83771E+04 4.08978E+01-1.46473E+01 6.65756E+02 1.84770E+00 3.38583E+03
 -1      3443-3.17620E+04-3.34164E+01-4.42084E+01 1.19944E+03 2.69565E+01 2.97294E+03
 -1      3444 9.17373E+01-6.80388E+01-9.76640E+01-2.41258E+02 8.39488E+00-4.99224E+02
 -1      3445 3.67183E+02-7.75496E+00 5.35801E+01-2.52820E+02 3.71130E+00-2.37943E+02
 -1      3446-7.13251E+04-1.49048E+04-3.25454E+03 2.11274E+03 4.46295E+02 3.16186E+03
 -1      3447-5.19275E+04-1.11303E+04-9.46596E+03 2.65273E+03 7.69087E+02 5.70298E+03
 -1      3448 5.80247E+02-2.28966E+01 5.88565E+00 2.61350E+02-1.87681E+01 1.36830E+03
 -1      3449 5.74717E+02 6.93219E+00-1.14022E+01 4.88193E+02-1.12046E+00 1.21678E+03
 -1      3450 1.90540E+03-1.46774E+01-9.98860E+00 2.91235E+02-8.88591E-02 1.39763E+03
 -1      3451 3.54478E+02-9.70564E+00 2.16441E+01 2.91199E+02 1.36704E+01 1.49028E+03
 -1      3452 3.19857E+02-1.87135E+01 1.58149E+01 5.20690E+02 2.53996E+01 1.31641E+03
 -1      3453-1.10005E+03-1.02966E+00 3.01957E+01 5.34187E+02-1.38797E+00 1.22695E+03
 -1      3454-3.25709E+03-4.74496E-01 2.11058E+01 5.85699E+02 1.76352E+00 6.88994E+02
 -1      3455-1.28298E+03 1.93658E+01 2.62841E+01 5.10457E+02 2.26703E+01 1.14969E+03
 -1      3456-2.72668E+03 1.84661E+00 5.28880E+01 5.82786E+02 2.20668E+01 6.27401E+02
 -1      3457-3.23722E+03 7.61467E+00 2.68639E+01 6.41594E+02-1.96853E+00 6.74289E+02
 -1      3458-1.63707E+03 1.66663E+00 4.17580E+01 5.51273E+02-1.25999E+01 1.23115E+03
 -1      3459 2.84586E+02 1.72918E+01-3.37443E-03-2.23211E+01-4.92550E+00-6.44854E+01
 -1      3460 3.35348E+02 2.08938E+01 1.43601E+01-2.44771E+01-1.12659E+01-6.57944E+01
 -1      3461-5.26191E+03 8.67561E+01 5.90207E+01 8.04928E+02 1.91073E+01 1.20257E+03
 -1      3462-6.95779E+03 1.18926E+01 2.02523E+01 8.73530E+02 5.82588E+00 1.17473E+03
 -1      3463-5.92602E+03-5.51625E+00 6.57184E+00 8.48403E+02-6.27761E+00 1.22746E+03
 -1      3464-1.12225E+04-5.58807E+01-1.54623E+01 1.09882E+03 6.21522E+01 2.46108E+03
 -1      3465-2.34433E+04 3.28507E+01-1.83483E+01 1.14369E+03 2.55223E+01 1.30368E+03
 -1      3466-1.79818E+04 2.75574E+01 2.23730E+01 1.20602E+03-4.88922E+00 1.38089E+03
 -1      3467-1.13695E+04-2.49334E+01 4.90892E+01 1.05545E+03 1.33851E+00 2.30720E+03
 -1      3468-2.33064E+04-1.81855E+01 1.45076E+01 1.09086E+03 4.72678E+00 1.18403E+03
 -1      3469-1.66350E+04 4.76459E-01 5.91307E+01 9.29393E+02-2.41739E+01 2.30489E+03
 -1      3470 1.45377E+04-5.14874E-01-3.13877E+01 5.37798E+02 1.74319E+01 2.76250E+03
 -1      3471 5.61998E+03 3.47615E+01 2.70695E+01 1.00998E+03-4.93118E+01 2.63336E+03
 -1      3472 3.54287E+03-1.56059E+01 2.40261E+01 5.89113E+02 1.45952E+01 2.81279E+03
 -1      3473 1.46125E+04-8.39765E+00 9.11389E+00 4.81013E+02-1.16542E+01 2.68537E+03
 -1      3474 5.91338E+03-3.67953E+01 3.73796E+01 9.40660E+02-2.91866E+01 2.51009E+03
 -1      3475 1.66042E+04-1.88174E+01-3.87550E+01 9.06403E+02 2.29012E+01 2.30536E+03
 -1      3476 1.12045E+04 5.02886E+01 3.07590E+01 1.09311E+03-6.91020E+01 2.45151E+03
 -1      3477 2.34209E+04-2.24489E+01 2.79883E+00 1.16040E+03-2.59147E+01 1.32145E+03
 -1      3478 1.13823E+04 5.62750E+01 3.11078E+01 1.04981E+03 2.41760E+01 2.29464E+03
 -1      3479 5.22999E+02-3.14222E+00 3.97293E+01-2.18421E+02 6.78116E+00-2.09060E+02
 -1      3480 6.59661E+02-3.63208E+00 4.50228E+01-1.68557E+02 5.21075E-01-1.93555E+02
 -1      3481 9.96267E+02 2.51159E+01 4.04317E+01-1.09555E+02-8.24022E+00-9.41977E+01
 -1      3482 3.79491E+02 2.80880E+00 7.67167E+01-1.61518E+02-5.62479E+00-3.15477E+02
 -1      3483 8.55033E+02 2.90226E+01 4.40195E+01-1.53389E+02-6.32415E+00-1.07970E+02
 -1      3484-2.37265E+04-4.18479E+01 2.83524E+01 7.54231E+02-6.34734E+00 1.54659E+03
 -1      3485-2.32459E+04-6.71732E+01 4.74635E+01 7.59682E+02-1.00491E+01 1.57765E+03
 -1      3486-7.20153E+03-4.53511E+01 3.69900E+01 7.21841E+02-3.18969E+01 2.93579E+03
 -1      3487-2.67165E+04-8.10589E+00 7.44196E+01 1.31679E+03 2.67561E+01 1.58558E+03
 -1      3488 5.59547E+02 1.11908E+01 5.74707E+01-2.84449E+01-8.49042E+00-5.02008E+01
 -1      3489-1.28947E+02-2.44444E+01 5.91398E+00 9.25046E+01 3.37652E+00 2.41679E+02
 -1      3490-3.20788E+01-1.22976E+01 4.40883E+00 2.20986E+02 5.49109E+00 5.73571E+02
 -1      3491 4.54712E+01-5.88698E+00 3.77836E+01 2.41445E+02-5.72500E+00 5.15064E+02
 -1      3492-8.81800E+03-3.65385E+03-4.29855E+03 2.10486E+03 8.62906E+02 2.03415E+03
 -1      3493 1.02240E+03 1.32073E+03-1.17096E+03 6.33194E+02 9.93332E+02 2.06393E+03
 -1      3494 5.96340E+02 1.31451E+01 3.33941E+01-5.07377E+01-1.07205E+01-2.45114E+02
 -1      3495 1.97592E+03 1.82143E+01-6.54886E+00 7.31464E+02 1.53655E+00 1.99867E+03
 -1      3496 1.56063E+03-3.49088E+01 1.07885E+01 6.70573E+02-4.24834E+00 1.80104E+03
 -1      3497-1.47150E+04 8.22395E+00 2.31007E+01 5.37055E+02-3.30189E+00 2.77002E+03
 -1      3498-5.60875E+03-3.77824E+01-1.29947E+01 1.01840E+03 4.26047E+01 2.64465E+03
 -1      3499-5.91983E+03-2.09902E+01-4.87909E+01 9.83594E+02-6.79014E+00 2.52019E+03
 -1      3500 7.37276E+03 4.83799E+01-1.08556E+01 8.63646E+02 6.85876E+00 1.02379E+03
 -1      3501 2.23906E+03-3.40138E+01-9.48558E+01 7.90190E+02 2.04990E+01 1.85430E+03
 -1      3502 3.77871E+03-5.53122E+00-8.06314E-02 7.69653E+02 2.66511E+01 1.71082E+03
 -1      3503 5.10002E+02 6.72547E+00 2.29774E+01 5.55281E+01-1.07214E+01 2.44968E+02
 -1      3504 2.75283E+02 2.33588E+01 2.73833E+01 7.05044E+01-6.32563E+00 1.68084E+02
 -1      3505 6.53095E+02 3.36082E+01 6.40939E+01 4.41838E+01-1.31997E+01 1.15406E+02
 -1      3506-4.19294E+03 2.53783E+00 5.81877E+01 7.50229E+02-4.31906E+00 1.59862E+03
 -1      3507-4.77870E+04-5.79527E+03 4.36901E+01-3.26938E+02-1.38920E+01 3.10871E+03
 -1      3508-2.71959E+04-7.58237E+03-5.68821E+03-2.60514E+02 3.20924E+01 3.77222E+03
 -1      3509 7.37504E+03 1.49763E+01 6.82144E+00 5.09053E+02-8.03757E+00 1.05649E+03
 -1      3510 5.62860E+02 1.67968E+01 2.68493E+01 8.97410E+01-1.12679E+01 2.47882E+02
 -1      3511 5.18136E+02 1.91763E+01 6.13544E+01 6.25970E+01-7.22779E+00 3.58422E+02
 -1      3512 6.59142E+02 2.85187E+01 3.75944E+01 1.37597E+02-4.46227E+00 1.72351E+02
 -1      3513 4.02047E+02 2.46187E+01 3.17499E+01 1.95654E+02-8.84006E+00 2.88358E+02
 -1      3514 2.87342E+02 1.82746E+01 5.02750E+01 1.13184E+02-1.50648E+01 5.06184E+02
 -1      3515-5.62416E+02-1.66530E+01-2.65749E+01 9.04453E+01 1.18132E+01 2.46458E+02
 -1      3516-5.21346E+02-2.04751E+01-6.54746E+01 6.21423E+01 7.33939E+00 3.58674E+02
 -1      3517-6.60766E+02-2.66507E+01-4.01477E+01 1.37999E+02 3.54409E+00 1.73243E+02
 -1      3518-3.97128E+02-2.41111E+01-3.01838E+01 1.96499E+02 8.90309E+00 2.86708E+02
 -1      3519-2.86141E+02-1.76732E+01-4.92954E+01 1.13244E+02 1.44019E+01 5.04418E+02
 -1      3520 8.47925E+02 1.51617E+01 2.72760E+01 6.51058E+01-1.02806E+01 2.13557E+02
 -1      3521 9.11130E+02 3.46978E+01 3.73363E+01 1.04157E+02-8.28256E+00 1.37080E+02
 -1      3522-8.47479E+02-1.43868E+01-2.74456E+01 6.53207E+01 1.02624E+01 2.13261E+02
 -1      3523-9.06380E+02-3.32286E+01-3.68924E+01 1.05160E+02 7.92628E+00 1.36745E+02
 -1      3524-1.08139E+03-1.52855E+01-3.26890E+01 5.31127E+01 6.44795E+00 1.50453E+02
 -1      3525-7.19063E+02-1.55982E+01-6.22166E+01 5.30330E+01 7.95345E+00 2.68848E+02
 -1      3526 1.08172E+03 1.59357E+01 3.18762E+01 5.29275E+01-6.40248E+00 1.49822E+02
 -1      3527 7.19042E+02 1.44731E+01 5.89767E+01 5.48872E+01-7.91309E+00 2.67778E+02
 -1      3528-5.64181E+03-2.99902E+01 1.16895E+01 8.37141E+02-2.37806E+00 1.74840E+03
 -1      3529-2.44092E+04 1.35524E-01-4.92084E+01 1.37121E+03 6.18036E+00 2.92098E+03
 -1      3530 1.39826E+04 3.56871E+00-4.02060E+01 3.40128E+02 3.23025E+00 9.06201E+02
 -1      3531 1.26914E+04-1.64484E+01-2.95853E+01 3.17469E+02 3.28721E-01 8.94394E+02
 -1      3532 1.11699E+04-1.06738E+01-8.32034E+01 6.68282E+02 2.76493E+00 9.36794E+02
 -1      3533 1.00766E+04-3.41306E+01-5.07060E+01 6.56604E+02 5.61881E+00 9.25570E+02
 -1      3534 8.30758E+03-8.55739E+00-6.48494E+01 3.56771E+02-2.36573E+01 1.70325E+03
 -1      3535-7.22116E+04-2.15880E+03-5.76290E+02 1.82462E+03 8.70466E+02 2.11210E+03
 -1      3536-5.94943E+04-8.63353E+02-7.01966E+02 9.02473E+02 1.08357E+03 3.14773E+03
 -1      3537-8.14558E+04-4.57889E+02-8.62108E+01 3.18577E+02 3.19673E+02 9.19747E+02
 -1      3538-6.36085E+04-5.93509E+02 3.01532E+01 1.12650E+03 3.65193E+02 1.67980E+03
 -1      3539-5.18557E+04-1.03569E+02-2.15246E+02 4.21472E+02 4.53762E+02 2.70620E+03
 -1      3540 8.14315E+03-4.27132E+01 1.52044E+01 1.17775E+03-1.01745E+01 3.15669E+03
 -1      3541-1.22639E+01 3.89007E+01 5.71108E+01-2.06225E+02-1.74866E+01-5.69155E+02
 -1      3542-7.54943E+01-3.28253E+01 1.27868E+01-1.06188E+02-1.25986E+01-5.68672E+02
 -1      3543-4.20570E+03 3.94404E+01 1.41763E+01 5.93817E+02 4.43206E+00 6.58593E+02
 -1      3544-2.53480E+03-5.63246E+00 3.71760E+01 6.02847E+02-1.23365E+00 1.26859E+03
 -1      3545-2.53546E+03 5.31540E+01 7.11652E+01 5.01409E+02-1.86257E+01 1.23745E+03
 -1      3546 2.72581E+03 2.57755E+00-2.96371E+01 2.68614E+02-6.03091E+00 1.44656E+03
 -1      3547 2.50723E+03-6.02338E+01-7.67867E+01 5.00137E+02 1.84935E+01 1.22514E+03
 -1      3548 1.02383E+03-1.25067E+01 6.93434E+00 5.33751E+02 6.31734E-01 1.42188E+03
 -1      3549-2.18154E+04 7.20027E+01 5.53864E+01 1.32436E+03 1.27816E+00 2.80520E+03
 -1      3550 2.97630E+04-4.88037E+01 4.43869E+00 8.40905E+02 1.55688E+01 1.64977E+03
 -1      3551 2.54855E+02 5.04668E+00 1.28043E+01-9.08359E+01 1.19720E+01-5.57684E+02
 -1      3552 6.50016E+01-4.44395E+01 7.44688E+00-2.11909E+02 2.16801E+01-5.70762E+02
 -1      3553 6.91233E+04-3.74022E+01 1.57151E+01 5.26379E+02 1.92338E+01 1.54047E+03
 -1      3554 6.72054E+04-4.21326E+01-3.65259E+01 5.24788E+02-1.69485E+01 1.49042E+03
 -1      3555 5.61227E+04 5.98782E+00 5.55863E+01 1.13568E+03-1.53590E+01 1.63162E+03
 -1      3556 4.49913E+04 3.17724E+01 3.29050E+01 6.17272E+02 1.62875E+01 2.92894E+03
 -1      3557 4.66149E+04-9.95615E+00 2.26580E+01 6.20285E+02 8.84586E+00 2.99735E+03
 -1      3558-7.90712E+03-4.35621E+01-5.59115E+01 1.14482E+03 4.39854E+01 2.92468E+03
 -1      3559 9.04734E+03 4.11015E+01-2.10440E+01 1.23308E+03-1.09658E+01 3.26489E+03
 -1      3560-5.99954E+03 3.21853E+00 6.98929E+01 1.19954E+03 2.31684E+01 3.10447E+03
 -1      3561 1.67841E+04-7.27174E+01-5.48153E+01 1.31498E+03-5.93070E+01 2.86662E+03
 -1      3562-2.50861E+03 1.28931E+01 4.49447E+01 6.72876E+02-1.69572E+00 1.49737E+03
 -1      3563-4.26947E+02 5.00733E+00 6.05557E+01 3.67816E+02-1.71445E+01 8.25938E+02
 -1      3564-1.71516E+02 3.66871E+01 3.82076E+00 3.52551E+02-8.21923E+00 8.90252E+02
 -1      3565 4.20076E+02-1.43575E+01-6.37128E+01 3.71281E+02 1.48908E+01 8.29837E+02
 -1      3566 1.69625E+02-3.51706E+01 2.20304E+00 3.48685E+02 1.12010E+01 8.83520E+02
 -1      3567 7.80661E+02-4.10163E+01-3.36150E+01 6.37895E+02-7.50191E+00 1.58155E+03
 -1      3568 6.16861E+03-3.06005E+01-5.19260E+01 9.49867E+02-3.30830E+01 2.06694E+03
 -1      3569 2.24021E+03 9.00570E+00 7.77625E+00 8.68254E+02 2.71420E+00 2.23903E+03
 -1      3570-2.24934E+03-1.48436E-01 1.83288E+01 8.60208E+02 9.66020E+00 2.23797E+03
 -1      3571-6.17114E+03-3.55787E+00 3.59584E+01 9.53796E+02 1.50240E+01 2.07779E+03
 -1      3572-1.59924E+04-7.33014E+01-1.38286E+01 1.22187E+03 5.35151E+01 2.75595E+03
 -1      3573 8.03382E+03 4.31148E+01 5.26155E+01 1.14430E+03-4.32656E+01 2.92351E+03
 -1      3574-1.21082E+04 4.04600E+01 1.38230E+01 1.16701E+03 2.99830E+01 2.61067E+03
 -1      3575-4.42200E+03-3.26794E+01-1.02076E+01 1.10844E+03-9.83735E+00 2.76631E+03
 -1      3576 4.42724E+03 3.08615E+01 8.51916E+00 1.10863E+03 1.06110E+01 2.76326E+03
 -1      3577 1.61156E+04 6.86258E+01 1.62028E+01 1.21957E+03-5.33753E+01 2.75033E+03
 -1      3578 2.72430E+03 5.92645E+00 2.03837E+01 5.10155E+02 2.08049E+01 2.72536E+03
 -1      3579-6.35256E+03-3.62534E+01-3.23632E+01 1.04332E+03-1.21455E+01 2.38712E+03
 -1      3580 4.93021E+03 7.85550E+00 1.85209E+01 8.81710E+02 1.46506E+01 2.49997E+03
 -1      3581-1.84516E+04-3.79149E+01 2.40867E+01 1.17947E+03-6.22903E+00 1.19510E+03
 -1      3582-1.18043E+04 5.48806E-01 3.26693E+01 1.04439E+03-1.19446E+01 2.19051E+03
 -1      3583 1.21137E+04-4.14541E+01-1.08336E+01 1.16708E+03-3.16616E+01 2.60927E+03
 -1      3584 5.35351E+04 1.09356E+04 1.27536E+03-2.66066E+03 4.18944E+02 1.66823E+03
 -1      3585 2.74652E+04 6.91703E+03 5.19927E+03-4.84009E+02 2.27888E+02 3.78855E+03
 -1      3586-5.68417E+02 1.01055E+01-3.32254E+01-2.40647E+01-2.97248E+00-7.39629E+01
 -1      3587-4.90837E+02 1.35143E+01-5.11483E+01-6.38958E+01-3.05689E+00-1.03118E+02
 -1      3588-2.45557E+00 1.22909E+01-5.15021E+01-2.57061E+01-7.77870E+00-1.33774E+02
 -1      3589-5.48567E+02 2.72369E+01-2.71268E+01-4.43421E+01 1.27234E+00-7.64001E+01
 -1      3590-7.21288E+02 1.10857E+00 2.95931E+01 5.90777E+02-2.84414E+00 1.40286E+03
 -1      3591-9.75662E+02-1.28226E+01 2.45031E+00 5.28998E+02-7.40421E+00 1.27840E+03
 -1      3592-1.73606E+03 3.17194E+00 2.88312E+01 5.62092E+02-6.56916E+00 1.40271E+03
 -1      3593-1.58494E+02-1.77715E+01 3.90245E+01 1.76834E+02 2.36689E+00 3.60526E+02
 -1      3594 1.39035E+02-7.45153E+01-1.44008E+02-1.15336E+02 3.52024E+01-6.23255E+02
 -1      3595 1.22724E+02-6.04564E+01-1.07111E+02-2.00696E+02 2.07593E+01-5.49944E+02
 -1      3596 2.52297E+02 1.40572E+01-6.48861E+00-2.24623E+01-6.25621E+00-2.02592E+02
 -1      3597 2.87214E+02 1.06377E+01-1.34541E+02-2.74290E+02 1.40651E+01-2.93321E+02
 -1      3598 7.49171E+01-1.50866E+01-1.14018E+02-2.35800E+02 5.11399E+00-5.01452E+02
 -1      3599 3.68505E+03-4.83396E+01 1.89899E+01 1.32037E+03-1.98613E+01 3.12526E+03
 -1      3600 1.31878E+04 3.89874E+01 9.67306E+01 1.29335E+03 7.05856E+00 3.08023E+03
 -1      3601 1.45351E+04-6.77032E+01-7.58227E+01 1.30378E+03-4.67806E+01 3.14011E+03
 -1      3602-7.35815E+04-2.04740E+00 2.12285E+01 4.64601E+02 1.15270E+01 1.49283E+03
 -1      3603 1.58020E+02 7.78845E+00-2.26343E+01 6.41077E+01-4.39569E+00 2.65449E+02
 -1      3604 4.11801E+03 2.91815E+01-4.02969E+01 1.41960E+03 2.64959E+01 3.23246E+03
 -1      3605-6.46421E+03 3.29567E+00 5.48107E+01 3.95246E+02-2.12548E+01 2.08009E+03
 -1      3606-2.59709E+03 9.95472E+00 3.54048E+01 7.38141E+02-7.11531E+00 1.86992E+03
 -1      3607-1.79325E+03-1.70217E+01-3.28881E+01 4.00401E+02-7.32619E-01 2.02223E+03
 -1      3608-5.65988E+03 1.99044E+01 2.92099E+00 3.89440E+02-5.32808E+00 1.99919E+03
 -1      3609-1.86782E+03 5.09720E+01 2.28975E+01 6.87818E+02-1.38128E+01 1.82101E+03
 -1      3610-6.67119E+03 2.02309E+01 2.07065E+01 7.08671E+02-2.34534E+00 1.76148E+03
 -1      3611-6.64499E+01-1.47323E+00-3.25774E+00 1.45652E+02-5.03594E+00 3.40875E+02
 -1      3612-2.29748E+02-1.18404E+01-8.23812E+00 1.41064E+02 9.08767E+00 3.23759E+02
 -1      3613-7.38200E+01-2.38646E+01-2.27322E+01 1.92875E+02 1.69055E+00 4.73891E+02
 -1      3614 2.74357E+02 6.55854E+00 2.35671E+01 1.30649E+02-6.79150E+00 3.45692E+02
 -1      3615 1.08552E+02 1.00817E+01 5.26711E+01 1.91297E+02 5.22298E-01 4.78062E+02
 -1      3616-1.85579E+04 6.70264E+00 1.27965E+02 1.27787E+03 6.82985E+01 3.17375E+03
 -1      3617 9.77831E+02-6.27652E+00 1.23143E+00 5.38225E+02 1.38836E+01 1.28449E+03
 -1      3618 1.69093E+03-2.16027E+01-2.56984E+01 5.72497E+02 1.18789E+01 1.37788E+03
 -1      3619-1.52490E+04 9.51340E+00 6.25299E+00 3.33734E+02-6.28810E+00 9.73015E+02
 -1      3620-1.40215E+04 4.42585E+01 4.10288E+01 3.27253E+02 6.05977E+00 8.94348E+02
 -1      3621-1.24402E+04 1.72927E+01-9.61392E+00 7.14411E+02-2.33811E+00 1.01605E+03
 -1      3622-9.35586E+03-1.09747E+01 1.11325E+00 3.71679E+02-2.68106E+01 1.76625E+03
 -1      3623-1.02978E+04 1.13425E+01 1.56115E+01 3.87711E+02-1.79215E+01 1.83884E+03
 -1      3624-2.69138E+03 1.21596E+01 2.36736E+01 1.09271E+03-1.22784E+01 2.49980E+03
 -1      3625-3.49560E+03 1.81233E+01-8.15154E+00 1.15310E+03-8.67519E+00 2.55553E+03
 -1      3626-6.87961E+03 1.10414E+03-1.18162E+03-4.08237E+02-9.74853E+01-1.65368E+03
 -1      3627 1.00932E+04 1.78132E+03 3.25102E+02-5.29866E+01 4.90259E+02 1.97945E+03
 -1      3628-6.52111E+04-8.11871E-03 3.87854E+01 5.42453E+02 2.03907E+01 1.50154E+03
 -1      3629-6.73968E+04-3.26876E+01-1.15020E+01 5.21999E+02-3.17600E+01 1.49896E+03
 -1      3630-4.31124E+04 1.80473E+01 9.08930E+01 6.24346E+02 4.59386E+01 2.92280E+03
 -1      3631-5.40085E+04 3.54708E+01 5.62797E+01 1.09647E+03 1.75075E+01 1.56033E+03
 -1      3632-5.20669E+04 4.99580E+01 7.90710E+01 1.14146E+03 6.73902E+00 1.59233E+03
 -1      3633-1.52069E+01 1.04721E+01-2.90398E+01 2.09054E+02 4.62169E+00 4.79785E+02
 -1      3634-1.71259E+04 1.98385E+00-1.06306E+02 1.24795E+03-2.82768E+01 3.17443E+03
 -1      3635-4.51672E+02-5.00460E+00-8.50083E+00 5.45889E+02 3.23883E+00 1.26939E+03
 -1      3636-1.09732E+02 3.98719E+01-1.15292E+02-1.28675E+02-3.43187E+01-6.29299E+02
 -1      3637 3.97704E+01 4.10100E+01-6.03480E+01-2.14452E+02-1.48406E+01-5.48768E+02
 -1      3638 7.97088E+03-1.47603E+01-1.01929E+02 1.01974E+03 1.11440E+01 2.50688E+03
 -1      3639-2.25227E+03 7.38688E+01 5.19894E+01 7.84238E+02 2.21954E+01 2.02493E+03
 -1      3640-7.95395E+03 4.75042E+01 3.08298E+01 9.99918E+02 3.62309E+00 2.47036E+03
 -1      3641-6.92628E+04 2.81964E+01-1.92311E+01 5.41039E+02-1.58209E+01 1.53648E+03
 -1      3642-4.48681E+04 2.61848E+01 1.60659E+01 6.11433E+02 3.99848E+01 2.87420E+03
 -1      3643-5.59161E+04 3.20548E+01-8.83382E+00 1.15634E+03 1.21965E+01 1.63682E+03
 -1      3644-4.66410E+04 2.00851E+01-4.64319E-01 6.21962E+02-1.57420E+01 3.00397E+03
 -1      3645 2.49555E+03 2.97760E+01 4.85297E+01 7.54850E+02 1.66349E+01 1.79596E+03
 -1      3646 9.51475E+02 1.81586E+01-4.73433E+01 8.46216E+02-3.45814E+00 1.93138E+03
 -1      3647 3.25681E+03-4.65143E+01-8.32869E+01 7.83163E+02-7.86012E+00 1.90857E+03
 -1      3648 3.17240E+04 2.26050E+02-2.87567E+02 8.31068E+02 9.72699E+01 1.14074E+03
 -1      3649 3.66491E+04 1.49450E+02-8.75120E+01 1.57822E+03-4.23861E+00 1.98057E+03
 -1      3650 2.58284E+04 3.39698E+03 2.76736E+03 1.78110E+03-6.08147E+02 3.02885E+03
 -1      3651 5.67524E+02-1.20083E+01 3.96055E+01 2.42263E+01 2.62980E+00 5.14105E+01
 -1      3652 7.59477E+02-1.65906E+01 4.13193E+01-3.79469E+00 2.80889E+00-2.09196E+01
 -1      3653 6.81969E+02-1.76886E+01 2.59862E+01 6.66405E+01 2.90921E+00 9.88129E+01
 -1      3654-1.27019E+04 1.55933E+01 4.21398E+01 3.04173E+02 3.24175E+00 8.93581E+02
 -1      3655-1.12221E+04 9.49302E+00-4.35196E+01 6.64842E+02-3.63768E+01 9.82428E+02
 -1      3656-8.41712E+03-1.92159E+00 5.12439E+01 3.49196E+02 2.04735E+01 1.69071E+03
 -1      3657-1.02035E+04 2.25263E+01 4.32708E+01 6.56917E+02 2.51729E+00 8.89098E+02
 -1      3658 5.60422E+02-9.81110E+00 3.37405E+01-3.50901E+01 5.77157E+00-5.30741E+01
 -1      3659 5.08087E+02-2.27124E+01 4.06595E+01-4.80610E+01 3.61872E+00-1.40712E+02
 -1      3660 1.98839E+02-1.00537E+01 5.98265E+01-3.33904E+01 8.04760E+00-1.02552E+02
 -1      3661 7.49606E+02-1.84810E+01 3.15785E+01-6.02524E+01-2.42467E+00-5.76752E+01
 -1      3662-9.95085E+03-2.24215E+00-3.09173E+01 1.48890E+03 1.99295E+02 3.59910E+03
 -1      3663 4.73736E+04 9.70010E+03 9.34988E+03 2.32598E+03-5.34171E+02 4.97368E+03
 -1      3664 6.94211E+04 6.12900E+03 7.72363E+02 2.49137E+03-1.08205E+03 3.51955E+03
 -1      3665-1.39194E+03 1.32013E+01 1.33042E+01 4.43390E+02 1.10065E+01 2.12014E+03
 -1      3666-2.48304E+04-2.00027E+02-8.93432E+01 1.53191E+03 8.29727E+01 3.45905E+03
 -1      3667 8.24368E+02 2.85194E+00 3.45417E+01-8.52505E+01 5.00515E+00-6.31535E+01
 -1      3668 5.24232E+02 6.50556E+00 6.07922E+01-7.05936E+01-6.60384E+00-1.45210E+02
 -1      3669 3.17517E+04 2.11301E+02-1.08194E+02 8.02729E+02 3.12962E+01 1.61609E+03
 -1      3670 9.28349E+03 4.26323E+01-1.24489E+02 1.03172E+03 1.88124E+02 3.19396E+03
 -1      3671-3.29726E+04-3.93207E+02 3.00493E+02 4.76940E+02-5.72611E+01 1.43702E+03
 -1      3672-9.85530E+03-4.04573E+01 2.01988E+02 1.06768E+03-1.80038E+02 3.16539E+03
 -1      3673 5.22028E+02-3.32600E+01 1.41884E+01 7.72568E+02-2.71962E+01 1.84245E+03
 -1      3674-6.00000E+03 2.71535E+01 4.89540E+01 7.59139E+02 2.87417E+01 9.03376E+02
 -1      3675-7.54749E+03-1.17937E+01 7.29789E+01 8.53270E+02 2.91467E+01 9.02661E+02
 -1      3676-8.69203E+03-6.45270E+00-3.66894E+01 8.98414E+02-2.94424E+01 9.32855E+02
 -1      3677-3.13575E+04-1.10464E+02 2.06932E+02 8.95833E+02-4.68022E+01 1.49822E+03
 -1      3678-3.69042E+04-5.73668E+01 5.97716E+00 1.62232E+03-1.38158E+01 1.92836E+03
 -1      3679-2.23169E+02 7.14425E+00-3.08359E+01 1.30578E+02-3.77604E+00 2.71996E+02
 -1      3680-3.03012E+02 6.72320E+00-4.35414E+01 1.08968E+02-9.71601E+00 1.91964E+02
 -1      3681-7.10432E+01 1.20043E+01-5.03166E+01 7.25455E+01-6.93433E+00 2.89756E+02
 -1      3682-3.90078E+02 1.74115E+01-4.60075E+01 1.72836E+02-4.52516E+00 1.98520E+02
 -1      3683-7.27795E+01 1.05864E+01-5.04773E+01 9.24040E+01-5.68781E+00 3.96671E+02
 -1      3684-4.56516E+02 1.12307E+01-3.13965E+01 8.21022E+01-4.92081E+00 1.63182E+02
 -1      3685-5.38533E+02 2.56555E+01-2.95260E+01 1.29537E+02 2.25078E+00 1.64283E+02
 -1      3686-2.93580E+02-8.22138E+00-2.15178E+01 2.23922E+02-2.83174E+00 2.87486E+02
 -1      3687-5.92682E+00 8.33914E+00-2.99271E+01 1.34381E+02-1.14884E+01 5.01688E+02
 -1      3688 2.25108E+03-3.45008E+01-2.12468E+01 4.71808E+02 5.72369E+00 2.07355E+03
 -1      3689 1.23725E+03-8.20817E+01-1.37152E+01 3.95274E+02 2.59509E+00 1.99984E+03
 -1      3690-1.55625E+02-1.69046E+01 6.96375E+00 1.02085E+02 8.84045E+00 4.45700E+02
 -1      3691-1.01790E+02 4.89906E+00 2.29618E+01 1.15361E+02 6.24427E+00 5.38157E+02
 -1      3692 4.41636E+02 5.01097E+00 3.92525E+01 1.87532E+02-1.20818E+00 2.52560E+02
 -1      3693 3.74829E+02 2.10386E+00 1.59212E+01 2.33794E+02-3.16543E+00 2.63676E+02
 -1      3694-3.37306E+04-2.99562E+01 1.34038E+01 1.45740E+03 9.44961E-01 1.98053E+03
 -1      3695-3.98491E+04 1.79384E+01-1.11870E+02 1.50907E+03-3.12586E+01 1.62659E+03
 -1      3696 1.13114E+04 1.55532E+01 4.20235E+01 8.06797E+02-4.95611E+00 3.45940E+03
 -1      3697 5.98468E+03 1.26958E+02 4.55000E+01 7.13386E+02-1.49568E+01 3.48463E+03
 -1      3698-5.40947E+02-1.55570E+01-7.40219E+01-8.23912E+01 5.08962E+00-3.81561E+02
 -1      3699-7.27720E+02-2.89490E+01-4.67437E+01-1.47103E+02 3.09566E+00-2.16356E+02
 -1      3700-1.04418E+03-2.88180E+01-5.51119E+01-6.24452E+01 9.00990E+00-1.70736E+02
 -1      3701-7.16663E+02-2.43001E+01-6.87795E+01-4.27090E+01 6.74567E+00-2.41179E+02
 -1      3702-9.04106E+02-3.45360E+01-4.52274E+01-9.30774E+01 9.81692E+00-1.01839E+02
 -1      3703 2.80766E+04-4.70246E+01-3.06749E+01 8.15796E+02 1.51376E+01 1.67206E+03
 -1      3704 3.11446E+04-8.45167E-01-3.82068E+01 1.40490E+03 7.42330E+00 1.76040E+03
 -1      3705 8.23022E+03 2.32862E+01 2.33519E+01 7.81901E+02-5.45065E+00 3.04912E+03
 -1      3706 8.50693E+03-2.36130E+01 2.77497E+01 8.31895E+02 1.88835E+00 3.11837E+03
 -1      3707 3.18899E+04-9.79045E+01 7.15213E-02 1.40251E+03-1.79001E+00 1.76247E+03
 -1      3708 2.76311E+04 6.07800E+00-5.30903E+01 8.10594E+02-4.13166E+01 1.66954E+03
 -1      3709 7.83383E+03-2.70640E+01-1.59366E+01 7.69411E+02-5.93390E+00 3.06311E+03
 -1      3710 2.63965E+04-3.27919E+01-4.38023E+01 8.07730E+02 5.60198E+00 1.64584E+03
 -1      3711 2.98487E+04-1.23357E+01 6.97921E+00 1.37725E+03 4.76289E+00 1.73570E+03
 -1      3712-5.85497E+04-6.36608E+01-2.52340E+01 5.53902E+02 1.06652E+01 1.50268E+03
 -1      3713-4.35675E+04 1.49525E+01 1.60850E+01 1.12420E+03 1.87624E+00 1.64957E+03
 -1      3714-5.66117E+04-1.77627E+01 6.27511E+00 5.42430E+02-2.12693E+00 1.52682E+03
 -1      3715-3.58146E+04-1.92926E+01-8.16070E+00 6.18697E+02-2.06354E+01 2.87888E+03
 -1      3716-2.64825E+02-3.21744E+00 1.28285E+01 1.85608E+02-1.89021E+00 4.30612E+02
 -1      3717-2.06360E+02-5.23414E+00 3.26107E+01 2.30845E+02 6.95521E+00 8.69621E+02
 -1      3718-5.56503E+02-5.93215E+00 2.29888E+01 2.31853E+02 2.46302E+00 4.80131E+02
 -1      3719-5.90557E+02-1.18476E+01 2.37281E+01 3.88726E+02 2.04131E+00 5.07785E+02
 -1      3720 2.68286E+02 5.27197E+00-1.76899E+01 1.95705E+02 5.43668E+00 4.50065E+02
 -1      3721 2.42001E+02 1.72046E+01-3.78134E+01 2.34429E+02-9.77782E+00 8.64172E+02
 -1      3722-9.33355E+02-1.04922E+01 4.61539E+01 2.48527E+02 5.81148E+00 5.06279E+02
 -1      3723 6.18027E+02 1.53581E+01-1.65067E+01 2.36721E+02-4.79383E+00 4.75815E+02
 -1      3724 6.24487E+02 1.67150E+01-2.69407E+01 3.91350E+02-2.06217E+00 5.08495E+02
 -1      3725 7.54471E+02 3.56294E+01-1.77698E+01 2.45736E+02 3.51434E+00 5.29321E+02
 -1      3726-9.10266E+03-1.15197E+01 1.30928E+01 2.77567E+02-6.77945E+00 7.87127E+02
 -1      3727-6.12545E+03 4.37365E+01 3.27373E+01 5.87683E+02-1.05971E+01 8.44376E+02
 -1      3728-8.04773E+03 1.86363E+01 3.83838E+01 2.74066E+02-4.64695E-01 7.66463E+02
 -1      3729-5.05161E+03 2.34357E+01 3.56205E+01 3.35445E+02-2.30784E+01 1.48078E+03
 -1      3730 9.23489E+03 4.24361E+00-1.59197E+01 2.79079E+02 7.69390E+00 8.02917E+02
 -1      3731 5.00327E+03-2.65323E+01-4.27518E+01 3.24826E+02 1.45770E+01 1.48195E+03
 -1      3732 8.00519E+03-3.03969E+01-3.34459E+01 2.80996E+02-1.93664E+00 7.74790E+02
 -1      3733 6.07079E+03-5.25416E+01-5.03474E+01 5.82807E+02 2.15723E+01 8.57078E+02
 -1      3734-5.43768E+04 3.97590E+01 3.02399E+01 5.19550E+02 3.97550E+00 1.52199E+03
 -1      3735-4.10530E+04-3.12783E-01 1.75711E+01 4.85412E+02-2.14254E+00 1.38271E+03
 -1      3736-3.91649E+04 8.12626E+01 5.85167E+01 4.82857E+02-2.99939E+00 1.27985E+03
 -1      3737-3.18073E+04-5.83329E+01-1.39187E+01 1.04099E+03 1.48279E+01 1.50553E+03
 -1      3738-2.59857E+04-4.85427E+00 2.44953E+01 5.85004E+02 1.85458E+01 2.63596E+03
 -1      3739-1.92350E+04 3.41549E+01 2.58261E+01 3.68687E+02-2.74585E+00 1.08669E+03
 -1      3740-1.31560E+04 1.55737E+01 2.76171E+01 4.47281E+02-6.26320E+00 2.08104E+03
 -1      3741-2.08092E+04 7.74035E+00 1.76584E+01 3.97174E+02-2.08255E+00 1.10665E+03
 -1      3742-1.60333E+04 1.05106E+01 2.27150E+01 8.13969E+02-5.15486E+00 1.20195E+03
 -1      3743 1.92580E+04-3.57540E+01-3.42383E+01 3.69933E+02 2.35117E+00 1.09617E+03
 -1      3744 1.32354E+04 2.96183E+00-1.34276E+01 4.48667E+02 1.63714E+01 2.08324E+03
 -1      3745-2.09236E+04-4.32297E+00 5.35718E+01 7.17683E+02 2.30067E+01 1.54926E+03
 -1      3746-5.57251E+03 3.05500E+01-2.32190E+01 7.42843E+02 5.98760E+00 2.83509E+03
 -1      3747-1.98402E+04 3.77235E+00-1.93890E+01 7.58087E+02 2.87771E+00 1.53845E+03
 -1      3748-2.19680E+04 8.43293E+01 3.88041E+01 1.26666E+03 1.07934E+01 1.66020E+03
 -1      3749 2.08611E+04 5.22561E+00-1.67027E+01 3.94439E+02 3.08775E+00 1.10905E+03
 -1      3750 1.60130E+04-2.37170E+01-3.19815E+01 8.20838E+02-2.47856E-01 1.19305E+03
 -1      3751 5.44186E+04-3.68534E+01-2.73735E+01 5.14437E+02-2.86859E+00 1.52229E+03
 -1      3752 3.58464E+04 1.48460E+01 1.86039E+01 6.19437E+02 2.00717E+01 2.87037E+03
 -1      3753 5.66462E+04 1.54494E+01-3.96874E+00 5.37162E+02 1.92570E+00 1.52757E+03
 -1      3754 4.36018E+04-2.49128E+01-1.67103E+01 1.13006E+03-3.07375E+00 1.64439E+03
 -1      3755 5.86253E+04 6.43211E+01 2.06953E+01 5.47288E+02-1.08722E+01 1.49887E+03
 -1      3756 2.22802E+04 4.18630E+01 7.32490E+00 4.06500E+02-6.62726E+00 1.11067E+03
 -1      3757-2.24474E+04-1.59775E+01 1.77989E+01 3.99497E+02-4.44623E+00 1.12482E+03
 -1      3758 3.89733E+04-4.58629E+01-4.58565E+01 4.49929E+02-6.87936E+00 1.36501E+03
 -1      3759 2.60967E+04 2.65860E+01 3.21282E+00 5.79782E+02-9.20392E+00 2.62629E+03
 -1      3760 1.98465E+04 1.28613E+01 3.17624E+01 7.42983E+02-6.61425E+00 1.54554E+03
 -1      3761 2.03020E+04 8.52187E+01 1.85088E+01 7.48672E+02 1.03876E+01 1.50583E+03
 -1      3762 2.20618E+04-6.61559E+01-1.19899E+01 1.25468E+03-1.19504E+01 1.64734E+03
 -1      3763 5.79903E+03 5.14298E-01 4.89288E+01 7.46351E+02-1.46395E+01 2.83892E+03
 -1      3764-1.49293E+04-1.54817E+01 4.31112E+01 6.55727E+02 1.03054E+01 1.37076E+03
 -1      3765-1.38073E+04 1.67857E+01 2.42013E+01 6.47507E+02-4.82610E+00 1.34635E+03
 -1      3766-4.04652E+03-3.50173E+00-2.54608E+01 6.67924E+02-3.39948E-01 2.52079E+03
 -1      3767-1.51847E+04 9.41060E+01 6.24251E+01 1.13390E+03 9.81906E+00 1.47759E+03
 -1      3768 4.11454E+04 1.63059E+01-2.09860E+01 4.89373E+02 3.62211E+00 1.36700E+03
 -1      3769 3.18873E+04 5.20590E+01 1.55858E+01 1.03762E+03-2.05074E+01 1.51183E+03
 -1      3770 1.32562E+04-6.60434E+01-1.89784E+01 6.64706E+02-2.33880E+01 1.32498E+03
 -1      3771 1.53709E+04-2.42449E+01-1.38873E+01 1.10750E+03-3.89537E+00 1.44084E+03
 -1      3772 1.47334E+04 9.78001E+00-4.89397E+01 6.51845E+02-1.33096E+01 1.40332E+03
 -1      3773 3.88552E+03-6.41068E+00-7.51926E+00 6.64149E+02 9.92133E+00 2.50971E+03
 -1      3774-4.10362E+03 4.78086E+00 1.04784E+02 8.01751E+02 3.10238E+01 1.93999E+03
 -1      3775-3.40423E+03-1.94011E+00-4.17310E+01 7.18689E+02-2.38865E+01 1.83636E+03
 -1      3776 1.36437E+04-2.89208E+01-3.43160E+01 6.59137E+02 3.90308E+00 1.37853E+03
 -1      3777-2.05789E+03-2.65465E+01 5.68716E+01 5.34777E+02 1.18010E+01 6.24908E+02
 -1      3778-5.11703E+02-3.41069E+01 6.17519E+01 2.83345E+02-1.69377E+01 1.18612E+03
 -1      3779-1.82451E+03-3.19074E+01 4.16746E+01 3.11584E+02-1.88871E+00 6.48988E+02
 -1      3780-2.48649E+03-9.34189E+00 1.31150E+01 5.80190E+02 4.41412E+00 6.70189E+02
 -1      3781-8.30270E+02-9.26578E+00 4.03518E+01 3.10863E+02 7.66862E+00 1.23977E+03
 -1      3782 1.19226E+04-7.98915E+00-5.20775E+01 6.08105E+02-3.36857E+01 1.28151E+03
 -1      3783 3.19659E+03-2.19609E+01-1.33896E+01 6.00026E+02-7.50567E+00 2.33300E+03
 -1      3784-5.70429E+02 1.64003E+01-3.03493E+01-1.49389E+01-1.33057E+00 1.74798E+01
 -1      3785 1.10396E+04 1.93656E+00 7.63507E+00 6.16877E+02 2.32257E-01 1.26142E+03
 -1      3786 1.20897E+04-4.40855E+01-5.00672E+01 1.03739E+03-3.70080E+00 1.35817E+03
 -1      3787-7.91611E+04-1.16043E+02 2.56094E+00 2.42398E+02 2.11073E+02 1.12122E+03
 -1      3788-6.16298E+04-4.47929E+01 1.66964E+01 9.70043E+02 2.32230E+02 1.79879E+03
 -1      3789 7.10992E+04 2.04119E+03 5.18657E+02 1.81198E+03-7.83271E+02 2.05363E+03
 -1      3790 5.82414E+04 8.37135E+02 5.12140E+02 7.98327E+02-1.03556E+03 3.25792E+03
 -1      3791 8.13620E+04 4.81035E+02 1.13991E+02 2.76333E+02-3.26541E+02 9.36870E+02
 -1      3792 6.30204E+04 5.13883E+02-8.66456E+01 1.14041E+03-4.04600E+02 1.71517E+03
 -1      3793 5.11128E+04 1.04758E+02 3.14227E+02 4.85597E+02-5.04857E+02 2.76330E+03
 -1      3794-2.73337E+04 1.79743E+01-1.26468E+01 9.43069E+02-2.23597E+01 1.31504E+03
 -1      3795-2.29119E+04 1.39756E+01-1.95923E+01 5.06643E+02-4.20762E+01 2.42091E+03
 -1      3796-3.37486E+04 2.33757E+01-9.37203E+00 4.50296E+02-1.33944E+01 1.24170E+03
 -1      3797-2.71631E+04 1.86329E+01 3.92270E+01 8.62210E+02-2.83487E+00 1.19244E+03
 -1      3798-2.27965E+04 3.92286E+01 5.77201E+01 4.54628E+02 1.63332E+01 2.26112E+03
 -1      3799 2.73256E+04-1.53336E+01 1.47754E+01 9.42080E+02 1.91636E+01 1.31639E+03
 -1      3800 2.27936E+04-2.06497E+01 1.66185E+01 5.09014E+02 4.83497E+01 2.43598E+03
 -1      3801 3.36387E+04-2.49159E+01 9.87418E+00 4.49870E+02 1.81138E+01 1.25881E+03
 -1      3802 2.71416E+04-3.01099E+01-4.47603E+01 8.65499E+02 4.82156E-01 1.18326E+03
 -1      3803 2.26804E+04-3.38914E+01-3.23012E+01 4.56695E+02-1.37426E+01 2.27434E+03
 -1      3804 5.76791E+02-7.17055E+00 4.01450E+01 9.01957E+00 3.29569E+00-2.77322E+01
 -1      3805 3.29156E+03-1.53007E+01-2.20479E+01 4.77784E+02 7.11339E+00 6.97322E+02
 -1      3806 2.71956E+03-2.59639E+01-3.94655E+01 2.76982E+02 1.44429E+01 1.19434E+03
 -1      3807 4.27005E+03-5.56513E+00-1.65375E+01 2.15521E+02 1.19852E+01 6.05709E+02
 -1      3808 2.90569E+03-3.84095E+01-5.72126E+01 3.91353E+02-7.27590E+00 5.17895E+02
 -1      3809 2.43823E+03-2.17588E+01-5.81609E+01 1.90898E+02-2.23123E-01 1.01929E+03
 -1      3810 1.60119E+03 3.11447E+00-2.87847E+01 4.31599E+02 2.38528E+01 1.06833E+03
 -1      3811-3.29229E+03 1.14370E+01 2.97182E+01 4.77812E+02-5.91937E+00 6.96646E+02
 -1      3812-2.71696E+03 2.41385E+01 4.43600E+01 2.77248E+02-1.09287E+01 1.19654E+03
 -1      3813-4.27425E+03 5.95938E+00 1.88719E+01 2.15708E+02-1.11461E+01 6.06680E+02
 -1      3814-2.90683E+03 3.95021E+01 5.75117E+01 3.91617E+02 7.73976E+00 5.17515E+02
 -1      3815-2.43770E+03 2.23374E+01 5.76726E+01 1.91353E+02 4.63080E-01 1.01966E+03
 -1      3816-1.60447E+03-5.90132E+00 2.74877E+01 4.30746E+02-2.39716E+01 1.07078E+03
 -1      3817 1.23210E+04-1.68932E+01 1.76923E+01 7.02557E+02 2.54449E+01 9.99429E+02
 -1      3818 5.62498E+03-3.58374E+00 5.15169E+01 3.89014E+02 4.31385E+00 1.99256E+03
 -1      3819 6.52639E+03-1.11741E+01-7.14210E+01 3.99218E+02 7.41458E-01 2.08403E+03
 -1      3820 9.40637E+03 1.26502E+01-2.89742E+01 3.67814E+02 4.60250E+00 1.76478E+03
 -1      3821 1.03599E+04 5.55560E-01 1.13828E+01 3.78997E+02 3.16822E+01 1.85239E+03
 -1      3822-7.77199E+04-8.23751E+01 1.89201E+01 3.60892E+02 6.96264E+01 1.39825E+03
 -1      3823-5.05195E+04 3.85460E+00 1.19594E+02 5.09870E+02 2.72097E+02 2.94558E+03
 -1      3824-6.77006E+03-3.07789E+01-1.44601E+01 6.25004E+02 4.75630E+00 2.65650E+03
 -1      3825-2.27266E+04 7.18302E+01 5.30780E+01 1.19283E+03-1.80367E+01 1.43340E+03
 -1      3826-9.08970E+03-6.00301E+01-1.45810E+00 1.18211E+03-7.91512E+00 2.70320E+03
 -1      3827-3.05751E+04-1.51348E+01 2.03532E+01 5.15226E+02-1.48005E+01 2.50381E+03
 -1      3828-3.65218E+04-2.59744E+01-1.55122E+01 9.67338E+02-8.05790E+00 1.34054E+03
 -1      3829-2.07413E+04 1.04651E+02 1.07469E+02 1.04619E+03-2.05908E-01 2.60037E+03
 -1      3830-4.41005E+02-1.72649E+01-1.52871E+01 6.28509E+01 1.08889E+01 3.63966E+02
 -1      3831-2.43761E+02-1.44712E+01-3.58738E+01 1.07659E+02 3.58309E+00 5.15810E+02
 -1      3832 7.13785E+02 1.54809E+01 4.10963E+01 1.50565E+02-7.29126E+00 1.50950E+02
 -1      3833 4.71453E+02 2.87530E+01 3.45363E+01 2.14854E+02-1.39467E+00 2.64577E+02
 -1      3834 5.22859E+04-1.30946E+01-5.33755E+01 1.12383E+03-1.86319E+01 1.59418E+03
 -1      3835 5.41808E+04-1.01258E+01 7.21407E+01 1.12557E+03 3.22386E+01 1.61309E+03
 -1      3836 2.83522E+04 7.85126E+00 9.85211E+01 6.42568E+02 1.50762E+00 3.39379E+03
 -1      3837 4.31751E+04 1.72594E+01-6.27165E+01 5.97412E+02-5.09085E+01 2.94274E+03
 -1      3838 2.99180E+04 8.19109E+00-1.05505E+02 6.62049E+02-1.78813E+01 3.41568E+03
 -1      3839-2.00106E+03 1.38056E+01 2.47354E+01 3.11125E+02-7.31087E+00 6.97826E+02
 -1      3840-2.49881E+03 3.04282E+00-8.10991E-01 3.51703E+02 5.25682E+00 7.15803E+02
 -1      3841-3.01429E+03-2.49090E+01 2.94108E+01 6.22917E+02-4.92529E+00 6.99756E+02
 -1      3842-1.03872E+03-7.79960E+00 3.75895E+01 3.07676E+02 1.34166E+01 1.34974E+03
 -1      3843-2.77083E+03 7.12438E+00 2.80797E+01 1.80208E+02 6.87094E-01 5.16246E+02
 -1      3844-3.45333E+03 3.62891E-01 2.13569E+01 1.85491E+02-1.08969E+01 5.58192E+02
 -1      3845-1.84364E+03 1.84502E+01 5.02554E+01 1.90620E+02-1.17096E+00 9.68915E+02
 -1      3846-2.17981E+03 3.90646E+01 3.48341E+01 3.73598E+02-1.92451E+00 4.87486E+02
 -1      3847 3.45249E+03-4.63711E-01-2.09410E+01 1.85614E+02 1.11238E+01 5.57667E+02
 -1      3848 2.17991E+03-3.87365E+01-3.50340E+01 3.73095E+02 1.58171E+00 4.86922E+02
 -1      3849 2.77044E+03-6.88116E+00-2.81550E+01 1.80195E+02-7.73852E-01 5.15819E+02
 -1      3850 1.84432E+03-1.85029E+01-5.01678E+01 1.90732E+02 7.57381E-01 9.68639E+02
 -1      3851-4.46469E+04 8.67067E+00-1.51214E+00 4.80573E+02-1.95858E+01 1.35503E+03
 -1      3852-4.26984E+04 3.59675E+01 4.11368E+01 4.62402E+02 2.62322E+01 1.35354E+03
 -1      3853-3.21265E+04-2.85771E+00-7.33901E+00 5.27800E+02-1.70985E+01 2.60155E+03
 -1      3854-3.83155E+04-1.97617E+01 9.72292E+00 9.96782E+02-4.64488E+00 1.34595E+03
 -1      3855-1.88026E+04-3.71611E+01 2.22418E+01 7.18943E+02-1.07662E+01 1.44729E+03
 -1      3856-1.83837E+04-4.45951E+01 2.86008E+01 7.12374E+02-5.40681E+00 1.45552E+03
 -1      3857-6.50692E+03-4.39854E-01 4.48528E+00 6.17569E+02-1.03414E+01 2.69828E+03
 -1      3858-2.17634E+04 2.11489E+01 1.86330E+01 1.21742E+03 1.20657E+01 1.36329E+03
 -1      3859 6.80356E+03 2.70223E+01 5.53332E+00 6.49648E+02-8.16294E-01 2.67537E+03
 -1      3860 2.26379E+04-8.30975E+01-6.37602E+01 1.16167E+03 2.19576E+01 1.41223E+03
 -1      3861 9.21624E+03 6.54344E+01 1.01031E+01 1.18684E+03-3.59947E+00 2.69768E+03
 -1      3862 3.05635E+04 1.17374E+01-3.23001E+01 5.20627E+02 1.63669E+01 2.49174E+03
 -1      3863 3.65709E+04 2.81903E+01 1.46838E+01 9.59038E+02 3.54159E+00 1.35159E+03
 -1      3864 2.07638E+04-1.05258E+02-1.00624E+02 1.04915E+03 4.60714E+00 2.59991E+03
 -1      3865 1.87443E+04 2.96118E+01-2.19829E+01 7.25636E+02 1.14366E+01 1.46585E+03
 -1      3866 2.16975E+04-2.17411E+01-2.13104E+01 1.20582E+03-1.47675E+01 1.35966E+03
 -1      3867 4.27623E+04-2.96006E+01-4.03621E+01 4.51348E+02-2.86213E+01 1.36404E+03
 -1      3868 3.21236E+04 1.86100E+00 6.42236E+00 5.29285E+02 1.84858E+01 2.59901E+03
 -1      3869 3.73434E+03 2.61015E+01-9.88073E+00 5.14166E+02 2.98250E+00 2.16794E+03
 -1      3870 1.23079E+04-4.12634E+01-5.22165E+01 9.73379E+02 1.34667E+01 1.16849E+03
 -1      3871 4.94442E+03 5.58998E+01-2.41999E+01 9.88262E+02-7.74781E+00 2.22571E+03
 -1      3872 9.83977E+03 3.86245E+01-2.72364E+01 5.80528E+02 4.58184E+00 1.18442E+03
 -1      3873 1.02418E+04 3.80662E+01-2.62941E+01 5.87549E+02 1.08876E+01 1.17888E+03
 -1      3874 1.15572E+04-1.71246E+01-1.79863E+01 9.85345E+02-5.93686E+00 1.10202E+03
 -1      3875 3.46590E+03-6.42630E+00-5.08760E+00 5.00314E+02 7.15425E+00 2.19075E+03
 -1      3876 1.83073E+04 4.64693E+01-2.36468E+01 6.97703E+02 5.17639E+00 1.45942E+03
 -1      3877 6.53609E+03 9.63844E-03-3.05468E+00 6.18911E+02 8.83205E+00 2.70024E+03
 -1      3878-3.24075E+03 6.71070E+00 3.87840E+01 6.13937E+02 5.84433E+00 2.36589E+03
 -1      3879-1.22929E+04-2.18317E+01-2.06546E-01 1.04275E+03-1.15493E+00 1.37665E+03
 -1      3880-1.10090E+04 1.20148E+01 1.50821E+01 5.93270E+02 2.08510E+00 1.25238E+03
 -1      3881-3.80919E+03-1.70084E+01-8.87865E+00 5.28321E+02-3.07270E+00 2.15587E+03
 -1      3882-1.23841E+04 1.63430E+01 5.53789E+01 1.00251E+03 3.73641E-01 1.12867E+03
 -1      3883-4.91765E+03-4.64697E+01 3.71087E+01 9.82977E+02 1.84878E+01 2.24277E+03
 -1      3884-3.23207E+04-2.71786E+01 9.02658E+00 4.27587E+02-2.93863E+01 1.19589E+03
 -1      3885-2.13804E+04 1.21163E+01 5.83924E+01 4.75069E+02-6.88226E+00 2.28400E+03
 -1      3886-4.65953E+04-3.83173E+01 7.95376E+01 1.39414E+03-2.68453E+01 1.56709E+03
 -1      3887-1.03778E+04 4.00914E+01-3.60859E+01 8.55846E+02 1.30789E+01 9.85913E+02
 -1      3888-9.39543E+03-2.31286E+01 4.68074E+01 8.34109E+02-1.10791E+01 9.08077E+02
 -1      3889-3.05577E+04 7.91123E+00 3.14140E+01 4.24999E+02 4.19477E+00 1.17911E+03
 -1      3890-2.54784E+04 3.51133E+01-1.04939E+01 8.74179E+02-1.20182E+01 1.18863E+03
 -1      3891 3.21801E+04 2.49543E+01-4.00258E+00 4.23848E+02 3.05005E+01 1.21296E+03
 -1      3892 2.12329E+04-1.02158E+00-5.38330E+01 4.68441E+02 8.86688E-01 2.28998E+03
 -1      3893-9.72665E+03-1.50457E+01 4.62755E+01 5.70154E+02-5.57941E+00 1.18503E+03
 -1      3894-1.05884E+04-2.92252E+01 2.87842E+01 5.71900E+02 2.77485E+01 1.20399E+03
 -1      3895-3.43629E+03 1.19964E+00 1.83771E+01 4.94700E+02-1.52559E+01 2.17743E+03
 -1      3896-1.14951E+04 1.98224E+01 1.05418E+01 9.98655E+02 1.72055E+00 1.11349E+03
 -1      3897 4.46924E+04-5.04725E+00 1.63583E+00 4.76731E+02 1.98528E+01 1.35357E+03
 -1      3898 3.83490E+04 2.09065E+01-1.02836E+01 9.93630E+02 5.28867E+00 1.34579E+03
 -1      3899-5.53785E+02-3.74837E+00 5.04763E+00 4.84222E+02 5.35436E+00 1.21235E+03
 -1      3900-1.59615E+03-6.27757E+00 1.40496E+01 2.87347E+02-1.59597E+01 1.31097E+03
 -1      3901-2.54187E+03 7.36538E+00 1.37061E+01 5.47020E+02-1.23419E+01 6.74886E+02
 -1      3902 1.59670E+03 1.45162E-01-1.73786E+01 2.87078E+02 1.85347E+01 1.30836E+03
 -1      3903 1.28558E+03-1.86146E+01-3.51572E+01 5.07337E+02-2.43876E+01 1.14456E+03
 -1      3904 2.54424E+03-7.69191E+00-9.35208E+00 5.46875E+02 1.11858E+01 6.73288E+02
 -1      3905-4.84264E+04 8.80083E+01-2.18111E+01 1.42817E+03 3.63834E+01 1.65146E+03
 -1      3906 5.46824E+03 1.28291E+01-4.43484E-01 4.42555E+02 3.25435E+00 9.97294E+02
 -1      3907 6.32069E+03 2.98940E+01 1.19104E+01 5.01201E+02-7.16660E+00 1.02928E+03
 -1      3908 7.10357E+03 4.03289E+00-6.20574E+00 8.55718E+02-3.46899E+00 1.08208E+03
 -1      3909 1.97744E+03 2.16324E+01-5.55221E+00 4.92502E+02-1.49730E+01 1.89369E+03
 -1      3910 6.31159E+03-1.99545E+01 5.90657E+00 8.17481E+02-1.79195E+01 1.04646E+03
 -1      3911-1.19740E+03 7.27798E+00 5.09467E+01 3.70330E+02-3.00432E+00 1.60305E+03
 -1      3912-1.66026E+03 1.13017E+00 1.33071E+01 3.93457E+02 1.27500E+01 1.63783E+03
 -1      3913 3.53074E+04-2.51503E+01 6.50034E+00 1.47983E+03 2.58303E-01 1.66726E+03
 -1      3914 1.25600E+04 1.33443E+01-3.77172E+01 1.28431E+03-1.83489E+01 2.92140E+03
 -1      3915-2.59829E+03-2.16610E+01 6.57271E+00 4.92201E+02 1.07332E+01 2.07344E+03
 -1      3916-2.49405E+03-2.28725E+01 5.74144E+01 4.27961E+02-6.28087E+00 1.89976E+03
 -1      3917 8.49483E+03-3.37503E+01-5.86850E+01 1.00487E+03 3.93923E+01 2.23555E+03
 -1      3918 1.42583E+04-1.59727E+01-2.93124E+01 1.12189E+03-7.75664E+00 1.28448E+03
 -1      3919-4.57664E+03-2.28789E+01 1.43287E+01 7.30023E+02 2.55354E+00 8.41636E+02
 -1      3920-5.09805E+03 6.29668E+00 9.35836E-01 7.38320E+02-8.31662E-01 8.60718E+02
 -1      3921-8.42935E+03 4.20882E+01 5.39233E+01 1.00802E+03-4.06989E+01 2.23768E+03
 -1      3922-1.42776E+04-5.29395E+00 2.61300E+01 1.10820E+03-1.61282E+00 1.31545E+03
 -1      3923-8.77154E+03 9.69144E+00 1.55083E+01 9.44842E+02 9.39370E+00 1.11868E+03
 -1      3924-8.52815E+03-2.59933E+01 5.81914E+01 8.65800E+02 6.01476E+00 9.38301E+02
 -1      3925 3.04083E+04-7.72584E+00-2.92680E+01 4.24587E+02-4.08822E+00 1.19595E+03
 -1      3926 2.54508E+04-3.35589E+01-7.01684E+00 8.85400E+02 1.35828E+01 1.18413E+03
 -1      3927-3.92007E+03 5.98852E+01 2.18959E+00 9.37028E+02-1.02195E+01 2.40252E+03
 -1      3928-2.76255E+03 4.69082E+01 4.50739E+00 5.40325E+02-1.04138E+01 2.62123E+03
 -1      3929-6.73732E+03 2.39035E+01 1.87196E+01 6.92596E+02-8.15969E+00 3.41016E+03
 -1      3930 6.32824E+03-5.31702E+00-8.48767E+00 8.40638E+02-2.62398E+00 9.98171E+02
 -1      3931 2.05460E+03 2.45690E+01-5.49376E+01 7.14647E+02-1.24776E+01 1.66216E+03
 -1      3932 3.93103E+03-6.22596E+01-1.42717E+01 9.27666E+02 1.70118E+01 2.39050E+03
 -1      3933 2.78817E+03-3.49245E+01 8.89559E+00 5.40327E+02 1.55592E+01 2.62239E+03
 -1      3934 7.94660E+04 2.03263E+02-1.99088E+02 4.61551E+02-1.61311E+02 1.21495E+03
 -1      3935 4.96216E+04 1.37656E+01-1.34519E+02 5.13353E+02-3.15991E+02 2.98247E+03
 -1      3936-1.22456E+03-2.31971E+01-4.86483E+01-5.16894E+01 9.69831E+00-9.46500E+01
 -1      3937-8.26001E+02-1.40955E+01-5.91322E+01-2.58899E+01 9.39124E+00-1.29407E+02
 -1      3938 7.74478E+04 3.24211E+01-5.86625E+01 3.16488E+02-8.00819E+01 1.36705E+03
 -1      3939 6.09957E+04 1.12828E+01-6.44941E+00 9.93196E+02-2.41025E+02 1.82463E+03
 -1      3940-9.99846E+03 4.72418E+00-2.42695E+01 8.70124E+02-5.26516E+01 3.21213E+03
 -1      3941-1.00034E+04-1.47205E+01 5.22325E+01 7.65500E+02-3.95497E+01 3.04807E+03
 -1      3942-1.38097E+03-2.08260E+01-3.81124E+01-2.04360E+01 1.00663E+01-6.66832E+01
 -1      3943-1.05665E+03-2.48486E+01-3.17572E+01-4.67419E+01 5.56471E+00-6.84356E+01
 -1      3944-4.04998E+03-1.61219E+01-1.46321E+01 5.71791E+02-3.10018E+00 3.07379E+03
 -1      3945-5.18586E+03 1.73737E+01-2.19716E+01 6.53121E+02-1.08764E+01 3.15905E+03
 -1      3946-8.91391E+03 4.91830E+01-2.66625E+01 1.09563E+03 3.21166E+01 2.83753E+03
 -1      3947-2.19601E+04 4.65257E+01 1.61572E+01 5.50874E+02 5.20824E+00 3.05266E+03
 -1      3948-7.71165E+03-2.64453E+01-5.25066E+01 1.05113E+03 1.25582E+01 2.82875E+03
 -1      3949 2.97396E+02-1.80129E+01-3.43847E+01 1.21635E+02 4.48960E+00 3.36298E+02
 -1      3950-2.96953E+02 1.74418E+01 3.49602E+01 1.22390E+02-4.53358E+00 3.35404E+02
 -1      3951-3.40818E+03 3.00004E+01 2.30743E+01 5.76050E+02-4.18585E+00 3.02716E+03
 -1      3952-3.32310E+03 4.90522E+01-1.34829E+01 1.05900E+03-4.76558E+01 2.74663E+03
 -1      3953-1.66851E+04 2.53448E+01-3.49702E+01 6.26042E+02 8.05061E-01 3.02513E+03
 -1      3954-2.12581E+04-1.55793E+01 1.73910E+01 5.49387E+02 7.53275E+00 3.00558E+03
 -1      3955 2.12557E+04 1.62895E+01-1.83028E+01 5.50023E+02-6.63967E+00 3.00494E+03
 -1      3956 1.67029E+04-2.87354E+01 4.33190E+01 6.29330E+02-1.26930E+00 3.02485E+03
 -1      3957 3.37437E+03-5.12201E+01 1.17099E+01 1.05852E+03 4.80787E+01 2.74563E+03
 -1      3958 3.43830E+03-3.03242E+01-2.18270E+01 5.73350E+02 2.64250E+00 3.02789E+03
 -1      3959 7.73965E+03 2.39560E+01 4.99550E+01 1.05004E+03-1.32804E+01 2.82888E+03
 -1      3960-2.61201E+04 1.98137E+01 5.26856E+00 1.35017E+03-8.26439E+00 1.54902E+03
 -1      3961-1.69871E+04-3.05042E+01 2.85985E+01 1.19773E+03 1.71032E+00 2.60243E+03
 -1      3962-3.47673E+04-4.23960E+00 4.29454E+01 1.25092E+03 1.02789E+01 1.34008E+03
 -1      3963-2.67629E+04-1.09661E+01 1.72581E+01 1.34525E+03 2.28280E+01 1.34210E+03
 -1      3964-1.77486E+04-2.09305E+01 3.24860E+00 1.18518E+03 3.47930E+01 2.50466E+03
 -1      3965-3.31483E+04 2.89365E+01 1.85414E+00 1.21816E+03 1.99091E+01 1.33584E+03
 -1      3966-2.83630E+04-3.15424E+01 3.54220E+01 1.25379E+03-6.33572E+00 1.48677E+03
 -1      3967-2.51959E+04 2.34215E+01 1.08750E+01 1.29977E+03 5.84722E+00 1.33496E+03
 -1      3968-1.31630E+04 1.39393E+01 4.53665E+01 1.14917E+03-2.77123E+01 2.51988E+03
 -1      3969 2.19561E+04-4.71682E+01-1.36664E+01 5.51000E+02-3.02983E+00 3.05270E+03
 -1      3970 8.99737E+03-5.04073E+01 2.60986E+01 1.09369E+03-3.31459E+01 2.83529E+03
 -1      3971 5.27194E+03-1.38352E+01 4.30853E+01 6.47850E+02 1.21667E+01 3.16094E+03
 -1      3972 4.08124E+03 1.74400E+01 1.11719E+01 5.68007E+02 1.52232E+00 3.07512E+03
 -1      3973-3.53361E+04 2.65763E+01-3.38931E+01 1.57353E+03-5.74169E+01 1.79934E+03
 -1      3974-3.52135E+04-2.05533E+01 4.49076E+01 1.42494E+03-1.70729E+00 1.61495E+03
 -1      3975 2.83558E+04 4.13473E+01-2.81540E+01 1.25310E+03 6.29976E+00 1.48341E+03
 -1      3976 1.32172E+04-1.34962E+01-4.35734E+01 1.14740E+03 2.80646E+01 2.51752E+03
 -1      3977 2.51982E+04-2.35897E+01-1.18129E+01 1.30016E+03-6.91893E+00 1.33102E+03
 -1      3978 3.31182E+04-3.10896E+01-1.37400E+00 1.22061E+03-1.90077E+01 1.33646E+03
 -1      3979 1.77776E+04 1.72644E+01-5.66306E+00 1.18501E+03-3.51788E+01 2.50270E+03
 -1      3980 1.09645E+03 6.23592E+01 9.16479E+01 4.11959E+02 1.46580E+01 2.09426E+03
 -1      3981-1.02560E+02-2.55078E+01 3.41897E+00 5.83063E+01 5.15062E+00 3.50314E+02
 -1      3982 6.26332E+02 1.39697E+01 5.25785E+01 1.54162E+02 6.38279E+00 1.39748E+02
 -1      3983 3.65665E+02 1.95438E+00 5.38196E+01 1.01610E+02 5.86714E-01 2.24676E+02
 -1      3984 2.67600E+04 5.06735E+00-1.72297E+01 1.34494E+03-2.32493E+01 1.33790E+03
 -1      3985 2.61676E+04 1.02315E+00 1.39753E+00 1.34875E+03 7.49954E+00 1.54285E+03
 -1      3986 3.47305E+04 6.82513E+00-4.40188E+01 1.25261E+03-7.79368E+00 1.34092E+03
 -1      3987 1.70708E+04 2.78343E+01-2.72384E+01 1.19473E+03-3.64430E+00 2.59918E+03
 -1      3988-1.39948E+03-2.24758E+01-3.61955E+01-8.64864E+00 7.50609E+00 1.60735E+01
 -1      3989 7.57099E+04-4.70940E+01-5.51289E+01 3.89957E+02-2.90126E+01 1.46035E+03
 -1      3990-5.35533E+02 5.22006E+00-3.81872E+01 4.01460E+01-2.56839E+00 1.29418E+02
 -1      3991 6.06658E+03-9.01282E+01-1.27658E+02 6.78233E+02-1.96889E+01 3.39390E+03
 -1      3992 2.59007E+04-6.62837E+01-3.67818E+01 7.97964E+02-8.89222E+00 1.59376E+03
 -1      3993 7.67020E+03 2.53415E+00 3.41303E+01 7.43057E+02-1.10950E+01 3.01200E+03
 -1      3994 2.46770E+04-3.05362E+00-4.80632E+01 7.55732E+02 1.23981E+01 1.58232E+03
 -1      3995 2.85938E+04 2.67707E+00 5.16783E+00 1.35530E+03-2.64509E+01 1.68629E+03
 -1      3996-1.03359E+02 2.57301E+01-2.71427E+01 1.47525E+02 4.38023E+00 3.39694E+02
 -1      3997-1.31131E+03 2.88034E+01 1.13307E+01 3.88788E+02-7.15280E+00 1.97027E+03
 -1      3998 3.31650E+02 2.29320E+01 1.94922E+01-7.13901E+01-8.32566E+00-1.70718E+02
 -1      3999-3.79731E+04 8.00794E+01 1.34700E+02 1.47142E+03 5.76531E+01 1.57378E+03
 -1      4000 4.16673E+03 1.03860E+01-3.74229E+01 4.17697E+02 1.27543E+00 8.79712E+02
 -1      4001 1.25540E+03 1.30794E+01-1.26088E+01 4.12003E+02-1.56505E+01 1.73791E+03
 -1      4002 4.90715E+03 2.25909E+01-1.93574E+01 7.56240E+02-2.02539E+01 9.91402E+02
 -1      4003 4.99375E+03 2.52859E+01-4.58923E+00 7.28697E+02 2.94369E-02 8.09534E+02
 -1      4004 1.49209E+03 6.91398E+00-3.99826E+01 3.64638E+02 1.16568E+01 1.59453E+03
 -1      4005 2.93992E+04-5.30457E+00-6.99623E+01 8.24316E+02-2.62795E+01 1.68925E+03
 -1      4006 5.56928E+03-2.45785E+01-6.12769E+01 1.39080E+03 3.94027E+00 3.14692E+03
 -1      4007 2.65195E+04 4.53059E+03 2.70675E+03 1.33648E+03-7.58388E+02 3.43558E+03
 -1      4008 3.84730E+03 1.81995E+01-1.49302E+01 6.60795E+02-4.56425E+00 6.62342E+02
 -1      4009 1.41117E+03 1.26852E+01-3.49493E+01 5.84404E+02-2.20699E+00 1.34763E+03
 -1      4010 4.02061E+03-2.85249E+01-3.50571E+01 6.83890E+02 1.65315E+00 7.83299E+02
 -1      4011 4.92456E+03-1.26557E+01-3.18404E+01 6.29812E+02 7.47641E+00 6.68526E+02
 -1      4012 2.51017E+03-1.06005E+01-3.42360E+01 6.06574E+02 1.68309E+00 1.30589E+03
 -1      4013 2.35734E+03 6.35899E+00-2.94809E+01 5.82149E+02-3.48501E+00 1.20532E+03
 -1      4014 5.31356E+02 1.29671E+01 7.54294E+01-7.84751E+01-3.97457E+00-3.84645E+02
 -1      4015 7.62707E+02 1.50360E+01 8.43709E+01-4.87812E+01-5.80139E+00-2.63361E+02
 -1      4016-7.52123E+02 4.28746E+01 5.05249E+01 4.58497E+02-1.23023E+01 1.15444E+03
 -1      4017 7.50204E+02-4.34843E+01-5.44683E+01 4.57748E+02 1.21144E+01 1.15025E+03
 -1      4018 8.87737E+02-7.69022E+00-6.02473E+01 7.67924E+02-2.86354E+00 1.78501E+03
 -1      4019-2.12891E+03 2.94516E+01 4.11278E+01 1.06731E+03 7.87574E+00 2.41221E+03
 -1      4020 2.14830E+03-2.07032E+01-3.41184E+01 1.07260E+03-7.95735E+00 2.42395E+03
 -1      4021 4.77712E+03-3.79126E+01-4.35934E+01 4.27997E+02-8.67223E+00 8.79817E+02
 -1      4022 5.65495E+03 4.10123E+01 2.35617E+00 7.82872E+02 6.03925E+00 1.04147E+03
 -1      4023 8.96600E+03 8.68577E+00-1.22275E+01 6.65873E+02 2.94170E+01 2.91625E+03
 -1      4024 2.96298E+04 1.76695E+01 2.56115E+01 1.33173E+03 4.96984E-01 1.49076E+03
 -1      4025-5.87890E+02 2.92750E+01 3.57859E+00 3.27127E+02-6.25112E+00 1.61234E+03
 -1      4026-6.34179E+02 2.13595E+00-2.60197E+01 2.80757E+02-4.65558E+00 1.53989E+03
 -1      4027-3.10410E+03 2.52215E+01 2.25964E+01 2.83718E+02-4.57519E+00 1.55109E+03
 -1      4028-1.09553E+03-8.71941E-01-2.21562E+01 5.10847E+02-7.70500E+00 1.38007E+03
 -1      4029-1.07168E+03 3.23202E+01 9.25320E+00 5.55450E+02 8.58318E+00 1.44295E+03
 -1      4030 5.14568E+03 1.68471E+01-2.33155E+01 4.61082E+02-7.91352E+00 9.70502E+02
 -1      4031 1.35580E+03-1.15991E+00-3.16531E+01 4.33593E+02-1.07763E+01 1.80335E+03
 -1      4032 8.84321E+02 2.20921E+01 2.76883E+01 9.96484E+01-1.00376E+01 1.29398E+02
 -1      4033 6.61003E+03 5.14987E+01-8.03718E+00 5.04126E+02 1.01242E+01 1.05507E+03
 -1      4034-7.54478E+04-1.38946E-01 1.69621E+01 4.01377E+02 6.41035E+01 1.41218E+03
 -1      4035-3.33586E+02 2.56703E+01-4.22362E+00 2.70720E+02-6.98718E+00 1.44830E+03
 -1      4036-2.81441E+02 4.77779E+01 9.48863E+00 4.94004E+02-2.38780E+01 1.27408E+03
 -1      4037-1.87035E+03 2.10832E+01 1.07154E+01 3.01122E+02-1.91102E+00 1.40371E+03
 -1      4038-2.76320E+03-2.07431E+00 2.41906E+01 2.68140E+02-1.69932E+00 1.45242E+03
 -1      4039 5.05239E+03-1.38261E+01 4.44506E+01 1.19217E+03-1.53799E+00 2.81258E+03
 -1      4040 4.00983E+03 1.43390E+01-8.39943E+01 1.21456E+03 1.70304E+01 2.82856E+03
 -1      4041-1.26848E+04 4.09859E+01 7.35810E+01 1.16892E+03-2.29751E+00 2.81471E+03
 -1      4042 1.26736E+04-4.24470E+01-7.37585E+01 1.16915E+03 1.43678E+00 2.81391E+03
 -1      4043 8.43276E+03 5.72497E+01 8.79693E+01 1.12092E+03 4.07119E+01 2.72817E+03
 -1      4044-5.02854E+03 1.11797E+01-4.59605E+01 1.19162E+03 2.42083E+00 2.81445E+03
 -1      4045-8.41919E+03-5.83417E+01-8.80743E+01 1.12227E+03-4.13019E+01 2.72976E+03
 -1      4046-3.93095E+03-1.65804E+01 8.41323E+01 1.21607E+03-1.45912E+01 2.82828E+03
 -1      4047 8.03945E+02-7.47045E+00-1.99181E+01 5.66625E+02-1.08654E+01 1.47760E+03
 -1      4048 6.52784E+02 3.40798E+00 1.46677E+01 2.91686E+02 5.47584E-01 1.57162E+03
 -1      4049 3.06271E+03 7.21505E+00-3.70736E+01 3.42823E+02 1.04063E+01 1.64996E+03
 -1      4050 3.44020E+03 3.00400E+01 1.29014E+01 5.56225E+02 1.69805E+01 1.37134E+03
 -1      4051 3.06446E+03-2.77898E+01-7.72548E+00 2.78630E+02 1.34658E+01 1.53411E+03
 -1      4052 1.50987E+04-3.98946E+01-8.46481E-01 3.34178E+02 8.33348E+00 9.55605E+02
 -1      4053-5.26087E+03-4.15609E+01 4.28687E+01 4.51424E+02-3.51514E+00 9.54399E+02
 -1      4054-2.17310E+04 3.66950E+01-1.02052E+01 1.06651E+03-5.69588E+00 1.16633E+03
 -1      4055-1.03116E+04 3.58734E+01 5.85983E+01 1.00456E+03-9.14969E+00 2.18953E+03
 -1      4056-1.56337E+04-1.68341E+01-4.41473E+00 1.12712E+03-3.15038E+00 1.31577E+03
 -1      4057-1.71344E+04 8.57505E+00 3.91308E+00 1.16211E+03-1.11204E+01 1.19087E+03
 -1      4058-5.65913E+03 2.05741E+01 5.27006E+01 1.01953E+03 5.26711E+00 2.34942E+03
 -1      4059 5.79780E+03-2.84475E+01-3.75819E+01 8.81164E+02 3.81160E+01 2.39619E+03
 -1      4060 1.38729E+04 2.54085E+01-4.10536E+01 4.83955E+02 8.81540E+00 2.62949E+03
 -1      4061 3.35296E+03 2.09283E+01 1.16344E+01 5.34800E+02-3.03989E-01 2.67031E+03
 -1      4062 2.21751E+03-1.73973E+01 1.42613E+01 5.09436E+02-1.97217E+00 2.68391E+03
 -1      4063 6.51027E+04-1.11570E+01-5.19831E+01 5.39473E+02-1.63362E+01 1.53090E+03
 -1      4064 3.04842E+03-1.34269E+01-3.75229E+01 6.23125E+02-4.02400E-01 6.40730E+02
 -1      4065 4.14946E+03-3.02469E+01-1.93737E+01 5.89154E+02-9.79713E-02 6.49886E+02
 -1      4066 3.23543E+03-1.23572E+00-1.85373E+01 5.85857E+02 3.50711E-01 6.98837E+02
 -1      4067 1.51648E+03-1.09609E+01-6.54126E+01 5.33321E+02 4.39301E+00 1.18184E+03
 -1      4068 2.44077E+03 1.44514E+00-3.55254E+01 6.55698E+02-1.70354E+01 1.44495E+03
 -1      4069 4.98581E+03-2.20323E+01-6.22323E+00 6.75518E+02 5.35017E+00 8.16885E+02
 -1      4070 1.46862E+03 7.10057E-01-5.29084E+01 4.55525E+02-1.16680E+01 1.85232E+03
 -1      4071-4.07960E+03-1.39028E+01 2.46046E+01 6.77858E+02 1.13172E+00 6.86646E+02
 -1      4072-2.40753E+03 4.58082E+00 3.11416E+01 6.24219E+02 8.46027E+00 1.34855E+03
 -1      4073-5.00959E+03 3.20672E+01 1.10612E+01 6.83896E+02-4.95313E+00 8.19823E+02
 -1      4074-4.97335E+03 5.55274E+00 4.75296E+01 6.26498E+02-1.12049E+01 6.80885E+02
 -1      4075-3.47206E+03-2.12509E+01 1.23873E+01 5.57694E+02-1.60850E+01 1.39157E+03
 -1      4076-4.33964E+03 3.67867E+00 6.20867E+00 4.48693E+02-1.50846E+01 6.41536E+02
 -1      4077-3.68235E+03 6.17615E+00 4.34647E+01 2.54195E+02-1.09914E+01 1.18951E+03
 -1      4078-5.33819E+03-5.89498E+00 5.82888E+00 2.57578E+02-1.17549E+01 6.93611E+02
 -1      4079 5.04369E+03-2.43406E+01-3.56292E+01 2.70980E+02 1.00362E+01 1.33412E+03
 -1      4080 6.04962E+03-4.04043E+01-5.04012E+01 5.11317E+02 6.22442E+00 6.91009E+02
 -1      4081 6.23368E+03-3.27103E+01-5.50865E+01 2.65037E+02 6.04006E+00 7.15638E+02
 -1      4082 8.26454E+02 1.21345E+01 5.73016E+01 4.35671E+01-1.10842E+01 1.63401E+02
 -1      4083 9.44516E+02 1.96298E+01 6.30856E+01-1.74838E+00-9.16249E+00 3.93271E+01
 -1      4084 1.04079E+03 2.82233E+01 2.81548E+01 6.32293E+01-1.31765E+01 1.10596E+02
 -1      4085 1.17368E+03 2.91175E+01 3.28902E+01 1.17620E+01-5.46475E+00 1.12823E+00
 -1      4086-4.36665E+03 1.16358E+01 4.61533E+01 2.62909E+02-1.35262E+01 1.29589E+03
 -1      4087-5.18521E+03 2.32998E+01 2.13564E+01 4.90062E+02-1.11136E+01 6.65591E+02
 -1      4088 4.31441E+03-9.95937E+00-4.77611E+01 2.61766E+02 9.42414E+00 1.28627E+03
 -1      4089 5.11244E+03-2.67826E+01-3.25793E+01 4.90497E+02 1.08244E+01 6.56968E+02
 -1      4090 1.07223E+04 3.43767E+01 1.33596E+01 3.67723E+02 4.16189E+00 9.54984E+02
 -1      4091-1.99334E+02-1.11844E+01-3.19583E+01 1.13390E+02 7.80796E+00 3.10991E+02
 -1      4092 1.99324E+02 1.07718E+01 3.21047E+01 1.13388E+02-7.87873E+00 3.11262E+02
 -1      4093 1.46580E+04-4.05448E+01-2.28906E+01 4.08440E+02 4.61058E+00 1.06442E+03
 -1      4094-1.08537E+03-7.05764E+00-2.54898E+01 4.87560E+01 7.21064E+00 1.30057E+02
 -1      4095 1.37696E+03 1.73863E+01 3.72486E+01 1.39207E+01-8.11409E+00 4.29331E+01
 -1      4096 1.09570E+03 1.20899E+01 2.98753E+01 4.86540E+01-7.73474E+00 1.30197E+02
 -1      4097 5.75540E+04 4.38232E+01 1.04939E+01 6.32153E+02-4.75001E+00 1.66999E+03
 -1      4098-4.43523E+03 6.91601E+00 5.27885E+01 5.45768E+02-6.87293E+00 2.30888E+03
 -1      4099-1.38643E+04-5.78349E+01-3.23748E+01 1.05915E+03 1.62268E+01 1.19254E+03
 -1      4100-1.14433E+04-1.02282E+01-6.92617E+00 6.15750E+02 2.46301E+00 1.31357E+03
 -1      4101-2.10719E+04 1.50199E+01 4.49426E+01 5.94970E+02-9.70981E+00 3.08260E+03
 -1      4102-2.46510E+04 4.71812E+00 3.93622E+01 1.05177E+03-2.55580E+01 2.61031E+03
 -1      4103-4.68089E+03-6.12584E+00 2.49079E+01 5.40788E+02 4.55962E+00 2.38121E+03
 -1      4104-1.47807E+04-1.21543E+01 1.04535E+01 1.09593E+03 3.84181E-01 1.21286E+03
 -1      4105-5.75353E+04-5.52694E+01-3.81676E+01 6.38168E+02 3.53868E+00 1.67755E+03
 -1      4106 6.40939E+04-7.03054E+01-5.87488E+01 6.34760E+02-2.79136E+01 1.71560E+03
 -1      4107-6.09022E+03 4.45373E+01 6.71312E+00 6.80775E+02 3.11170E+01 3.26197E+03
 -1      4108 1.22394E+04-2.85770E+01-7.09884E+00 1.22503E+03 1.86143E+01 2.78253E+03
 -1      4109 4.91346E+03 6.30748E+00-2.71531E+01 7.19264E+02-8.00613E+00 8.10154E+02
 -1      4110 1.85745E+03-3.39340E+00-3.11361E+01 6.49286E+02 8.70290E+00 1.47690E+03
 -1      4111-6.69116E+02 1.66101E+01 2.13101E+01 1.80774E+02-9.40638E+00 9.85255E+02
 -1      4112-9.46949E+02 3.93522E+01 5.57548E+01 3.33737E+02 3.06551E+00 8.43315E+02
 -1      4113-1.16501E+03 1.68161E+01 4.14234E+01 4.11949E+02-1.59026E+01 4.51383E+02
 -1      4114 6.69695E+02-1.84789E+01-2.19945E+01 1.82054E+02 8.97654E+00 9.85887E+02
 -1      4115 9.46693E+02-3.97855E+01-5.56185E+01 3.33637E+02-3.44088E+00 8.43338E+02
 -1      4116 1.16366E+03-1.82357E+01-4.30030E+01 4.12759E+02 1.45067E+01 4.52359E+02
 -1      4117 6.24702E+02-1.13733E+01 1.07569E+01 3.43265E+02 1.26430E+01 1.64567E+03
 -1      4118-1.60306E+03-3.36528E+01 5.99812E+01 6.20406E+02 9.18754E+00 1.41061E+03
 -1      4119-9.72422E+02 2.63323E+00-2.21884E+01 3.53818E+02-1.23534E+00 1.70069E+03
 -1      4120-9.37873E+02-1.22942E+01-5.45139E+00 6.04776E+02 1.13372E+01 1.53981E+03
 -1      4121-4.25963E+03 1.23502E+01 2.87737E+01 7.02649E+02-1.24654E+01 8.02106E+02
 -1      4122 4.44193E+03-4.62783E+01-1.83374E+01 6.00665E+02-3.78222E+01 2.97187E+03
 -1      4123-8.88326E+03 2.08019E+01-1.01794E+01 1.11726E+03-5.57564E+00 2.55614E+03
 -1      4124-4.45522E+03 4.54575E+01 2.14835E+01 6.00232E+02 3.72957E+01 2.97155E+03
 -1      4125 8.90542E+03-2.07115E+01 1.17753E+01 1.11789E+03 5.73780E+00 2.55417E+03
 -1      4126 6.67511E+02-1.57859E+00 1.14940E+01 5.83698E+02-1.11626E+00 1.36842E+03
 -1      4127 7.33878E+02 1.76551E+01-3.79197E+01 6.07991E+02 4.20136E+00 1.41514E+03
 -1      4128 2.11149E+04-1.57879E+01-3.91796E+01 5.94848E+02 1.19433E+01 3.08318E+03
 -1      4129 2.46952E+04-3.34263E+00-3.70709E+01 1.05273E+03 2.46821E+01 2.60911E+03
 -1      4130-3.39786E+04 3.33271E+01-1.44297E+01 1.27191E+03 3.11541E+01 1.45092E+03
 -1      4131-2.39435E+04 6.72964E+00 6.09108E+01 1.26718E+03 4.63692E+01 1.39214E+03
 -1      4132-5.49325E+02 2.91835E+01-4.28235E+00 2.65706E+02 1.67827E+01 1.36588E+03
 -1      4133 1.02302E+03 5.65021E+00-3.90084E+01 5.13634E+02-4.33034E-01 1.18223E+03
 -1      4134 2.69398E+03-8.53931E+00-5.26214E+01 5.86289E+02-2.20971E+01 6.29515E+02
 -1      4135 1.23415E+04-4.19864E+00-4.71446E+01 1.00303E+03-3.06662E+01 1.13642E+03
 -1      4136 4.59741E+03-2.28853E+01-1.10603E+01 9.03268E+02 1.13197E+01 2.04266E+03
 -1      4137-1.23239E+04-1.27436E+01 1.88962E+01 1.00349E+03 1.42656E+01 1.14356E+03
 -1      4138-4.59409E+03 2.38290E+01 5.77282E+00 9.16492E+02-1.10339E+01 2.05890E+03
 -1      4139 2.77647E+04-6.93552E+00-2.96020E+01 9.64045E+02 4.76974E+01 1.89117E+03
 -1      4140-2.36879E+03 1.80973E+01-7.05429E+00 4.97503E+02 1.56237E+01 2.37463E+03
 -1      4141 2.35723E+03-1.33281E+00 1.96201E+01 5.02581E+02 1.05162E+00 2.37387E+03
 -1      4142-2.99119E+04-1.00380E+00 7.88745E+00 8.23629E+02-8.10091E+00 1.62839E+03
 -1      4143-2.83183E+04-1.74472E+01-5.67205E+01 9.85085E+02-6.69206E+01 1.88813E+03
 -1      4144 3.28589E+04-1.09345E+01-7.76344E+01 1.38620E+03-5.06583E+01 1.55430E+03
 -1      4145-3.18086E+04 4.13731E+01 2.96663E+01 5.31486E+02-2.86837E+00 1.39624E+03
 -1      4146 8.88114E+02-6.74542E+00-2.23499E+01 1.66798E+02 6.96764E+00 4.47930E+02
 -1      4147-8.88084E+02 6.70573E+00 2.26487E+01 1.67111E+02-7.20264E+00 4.47307E+02
 -1      4148 1.39485E+03 2.63398E+01-2.96383E+01 3.02539E+02-3.55621E+00 6.60796E+02
 -1      4149 2.49757E+03 1.30457E+01-2.20971E+01 3.38967E+02-2.94089E+00 7.08051E+02
 -1      4150 2.70939E+03 7.81577E-01-1.10256E+01 3.98149E+02-2.55504E+00 8.54102E+02
 -1      4151 9.71860E+02 9.78790E+00-3.23588E+01 3.38452E+02-5.23794E+00 1.41973E+03
 -1      4152 3.07948E+03 2.36117E+00-1.99016E+01 6.46107E+02-8.68238E+00 7.74971E+02
 -1      4153-1.39303E+03-2.64259E+01 2.59267E+01 3.00441E+02 4.35708E-01 6.59310E+02
 -1      4154-4.17428E+03-1.69319E+00 1.81971E+01 4.02905E+02 8.61377E-01 8.52051E+02
 -1      4155-3.30517E+03-1.65067E+01 3.28939E+01 4.26418E+02 3.48004E+00 9.12130E+02
 -1      4156-2.04724E+04-2.38842E+01-4.86886E-01 7.57534E+02 1.01728E+01 1.67047E+03
 -1      4157 7.34111E+03 1.30182E+01-1.39114E+01 5.62708E+02-5.65942E+00 1.21307E+03
 -1      4158-4.54335E+04 4.99634E+01 2.89122E+01 5.94345E+02-3.05221E+00 1.55927E+03
 -1      4159-1.47328E+04-4.93231E+01 2.58313E+01 6.93076E+02-2.18367E+00 1.51521E+03
 -1      4160-1.96519E+04 1.29653E+01 5.45584E+01 1.06121E+03-1.92506E+01 1.21388E+03
 -1      4161-1.44092E+04 7.19677E+01 7.35388E+01 8.77865E+02 2.41197E+01 2.16911E+03
 -1      4162-7.33152E+03-4.98629E+00 2.28209E+01 4.95648E+02 6.50302E+00 1.04499E+03
 -1      4163-7.32094E+03 3.67996E+00-2.14895E+00 5.76552E+02 1.23016E+00 1.23083E+03
 -1      4164-1.24765E+04-3.38005E+00 7.47367E+00 6.00202E+02 1.87335E+00 1.25519E+03
 -1      4165 2.39030E+04-5.22779E+00-6.07777E+01 1.26862E+03-4.73024E+01 1.39031E+03
 -1      4166 3.18101E+04-4.51174E+01-3.05010E+01 5.33043E+02 5.45177E+00 1.39666E+03
 -1      4167-1.20037E+04 7.67411E+00 1.42769E+01 5.03950E+02 2.30634E+00 2.59667E+03
 -1      4168 1.19058E+04-9.44931E+00-7.86260E+00 5.06429E+02-1.64623E+01 2.59080E+03
 -1      4169 1.44210E+04-6.18492E+01-6.34173E+01 8.52011E+02-2.48772E+01 2.18104E+03
 -1      4170-6.41739E+04 1.89221E+01 2.91313E+01 6.19645E+02 1.00391E+01 1.71229E+03
 -1      4171 3.39872E+04-2.65887E+01 1.61192E+01 1.27479E+03-2.88465E+01 1.44862E+03
 -1      4172 1.96146E+04-1.77675E+01-4.34033E+01 1.06494E+03 3.06052E+01 1.22366E+03
 -1      4173 1.47204E+04 4.87261E+01-2.59842E+01 6.90496E+02 2.85965E+00 1.51469E+03
 -1      4174 2.04895E+04 4.65736E+01-2.44792E+01 7.64576E+02-8.17847E+00 1.67128E+03
 -1      4175 2.35905E+04 3.13906E+01 1.49594E+00 4.82074E+02 5.95270E+00 1.26879E+03
 -1      4176 4.54829E+04-5.15299E+01-2.77524E+01 5.94948E+02 1.99777E+00 1.55625E+03
 -1      4177-2.35812E+04-3.04079E+01-3.64599E+00 4.81477E+02-1.52268E+00 1.26962E+03
 -1      4178 9.17360E+02-1.85513E+00-5.14708E+01 1.70721E+02 2.62919E+00 8.20121E+02
 -1      4179 1.10378E+03-2.06970E+01-2.20979E+01 3.20010E+02 7.34397E+00 4.34620E+02
 -1      4180-1.10510E+03 2.17081E+01 2.18420E+01 3.20117E+02-8.10750E+00 4.34213E+02
 -1      4181 1.04283E+03 1.16436E+01-4.21067E+01 3.53575E+02 2.70744E+00 1.49591E+03
 -1      4182-9.17388E+02 1.64220E+00 5.08767E+01 1.70628E+02-2.65692E+00 8.20034E+02
 -1      4183 3.78286E+03 2.35613E+01-7.63753E+00 6.75797E+02-4.16966E+00 8.03491E+02
 -1      4184 2.04553E+03 3.61056E+01-4.08705E+01 5.34987E+02-1.15316E+01 6.27172E+02
 -1      4185 5.20977E+02 2.78112E+01-6.40495E+01 2.79429E+02 1.37927E+01 1.17865E+03
 -1      4186-1.15479E+03-7.24381E+00 1.76687E+01 3.67423E+02 1.82189E+01 1.52817E+03
 -1      4187-3.79895E+03 1.26270E+01 3.07145E+01 6.88417E+02-1.46589E+00 8.29130E+02
 -1      4188 2.63964E+03 3.06723E+01-4.78747E+01 5.05560E+02 2.02452E+01 2.11219E+03
 -1      4189 9.84384E+03 3.13538E+01-2.73683E+01 9.48743E+02-1.77886E+01 1.13349E+03
 -1      4190-3.26927E+04 2.82808E+01-1.10973E+01 5.69438E+02-4.99828E+01 2.71515E+03
 -1      4191-3.93319E+04 3.12299E+01 3.31552E-01 1.05533E+03-2.10707E+01 1.46341E+03
 -1      4192-1.94425E+04-6.40360E+01 4.64213E+01 1.18906E+03 2.14858E+01 1.41726E+03
 -1      4193-5.18212E+03-4.48971E+01 8.22496E+01 6.39426E+02-4.18555E+01 2.64574E+03
 -1      4194-2.67161E+03-9.99660E+00 4.94225E+01 5.10663E+02-1.15170E+01 2.12735E+03
 -1      4195 7.20016E+03 5.21971E+01-7.69726E+01 7.05279E+02 4.23077E+01 2.91620E+03
 -1      4196 5.17143E+03 4.52978E+01-8.00025E+01 6.39280E+02 4.24773E+01 2.64604E+03
 -1      4197-9.80463E+03-3.90730E+01 1.21589E+00 9.59588E+02 3.89352E+00 1.14524E+03
 -1      4198 2.18436E+04 3.31840E+00-2.52374E+01 8.61970E+02-3.65948E+00 1.20505E+03
 -1      4199-6.05478E+03 1.37546E+01 2.09395E+01 2.42144E+02-8.70787E+00 6.72744E+02
 -1      4200 6.06226E+03-1.33012E+01-2.35135E+01 2.41720E+02 6.12862E+00 6.72104E+02
 -1      4201-3.07385E+03-1.75641E+01 1.65696E+01 3.42845E+02-9.98063E+00 1.64589E+03
 -1      4202-1.80665E+04-1.20252E+01 4.49454E+01 4.69286E+02 2.83529E+01 2.22498E+03
 -1      4203 3.27403E+04-2.88006E+01 1.26431E+01 5.70130E+02 4.89338E+01 2.71428E+03
 -1      4204 1.93707E+04 6.28519E+01-4.71277E+01 1.18336E+03-2.11075E+01 1.41770E+03
 -1      4205 3.94093E+04-3.10544E+01 4.36127E-01 1.05447E+03 1.91710E+01 1.46099E+03
 -1      4206 2.67145E+04 6.44232E+01-4.60409E+01 1.30868E+03-2.48124E+01 1.57507E+03
 -1      4207-2.18565E+04 1.54241E+00 2.42271E+01 8.60756E+02 8.62101E+00 1.20531E+03
 -1      4208 1.80337E+04 1.81459E+01-4.97454E+01 4.72754E+02-3.02557E+01 2.22907E+03
 -1      4209 8.74278E+01-5.28440E-01 1.90578E-01 1.33117E+03 1.94728E+00 3.02575E+03
 -1      4210 1.14960E+04-6.61929E+01-1.15071E+02 1.14930E+03-1.15671E+00 2.79341E+03
 -1      4211 1.58802E+01 1.52111E+01-2.20692E+01 1.26392E+03 2.47270E+00 3.19820E+03
 -1      4212-5.95353E+00-5.03402E+00 1.32491E+00 4.18962E+02 6.46670E-01 9.52448E+02
 -1      4213-4.31153E+02-7.53028E+00-6.40732E+00 3.81138E+02 4.10070E+00 9.34406E+02
 -1      4214 4.30693E+02 7.48170E+00 7.54825E+00 3.81016E+02-3.91273E+00 9.33176E+02
 -1      4215 1.36001E+00 1.22646E+00 1.94536E+01 6.44425E+02-4.81000E+00 1.58168E+03
 -1      4216 1.55424E+03-4.70683E+00-6.94295E+01 5.88014E+02-7.87145E+00 1.45062E+03
 -1      4217-1.52406E+03 5.02427E+01 3.72163E+01 5.91146E+02 6.74785E-02 1.44476E+03
 -1      4218-7.49649E+02 5.49796E+00 3.20208E+01 6.31401E+02-1.29689E+00 1.46695E+03
 -1      4219 8.22547E+02-5.44213E-01-4.41619E+00 6.74112E+02 1.05773E+01 1.57808E+03
 -1      4220 5.17299E+00 1.38690E+00-2.67986E+00 5.04536E+02-9.58744E-01 1.22947E+03
 -1      4221 4.53559E+02-3.48404E+00 2.03359E+01 5.44632E+02 3.31999E+00 1.27378E+03
 -1      4222 5.58566E+03-1.14038E+01 4.19258E+01 1.30324E+03 4.08851E+00 3.01624E+03
 -1      4223-1.14613E+04 6.33355E+01 1.13664E+02 1.14852E+03 1.50799E+00 2.79487E+03
 -1      4224-9.23438E-01-2.65746E+00-1.93954E+00 9.20492E+02-7.64827E-01 2.31220E+03
 -1      4225 2.10418E+03-2.52494E+00 3.49915E+01 9.63344E+02 4.85997E+00 2.21538E+03
 -1      4226-2.10434E+03 4.26528E+00-3.20076E+01 9.72402E+02-5.40118E+00 2.22211E+03
 -1      4227 1.41467E+03-5.09071E+00-2.47681E+01 1.56202E+02 9.61518E+00 4.33780E+02
 -1      4228 3.31352E+03 2.22496E+01-2.64467E+01 3.77324E+02-4.79693E+00 7.93890E+02
 -1      4229-1.41446E+03 5.54049E+00 2.46721E+01 1.56283E+02-1.00479E+01 4.33691E+02
 -1      4230 1.77024E+03 2.10557E+01-3.10750E+01 3.04312E+02-2.88063E+00 6.38489E+02
 -1      4231-3.26999E+03 8.62990E+00 1.41227E+01 3.74632E+02 3.02482E+00 7.90680E+02
 -1      4232-1.65669E+04-2.61402E+01 1.42551E+01 3.59543E+02 3.27738E+00 1.01063E+03
 -1      4233-4.84458E+04 3.42944E+01 2.08137E+01 5.14732E+02-6.97523E+00 1.40913E+03
 -1      4234 8.52872E+03 2.55006E+01-2.55958E+01 5.34082E+02-5.39418E+00 1.12553E+03
 -1      4235-1.67714E+04-3.32621E+01 2.69848E+01 6.68157E+02 8.81970E-01 1.41641E+03
 -1      4236 1.83120E+01 4.36080E-01-3.96803E-01 1.12703E+03-1.07336E+00 2.81341E+03
 -1      4237-4.05950E+03 1.54071E+01-7.75765E+01 1.16804E+03 1.70296E+00 2.72900E+03
 -1      4238 2.14975E+01 5.40509E+00-2.10872E+00 1.05841E+03 2.84850E+00 2.44387E+03
 -1      4239-2.33514E+03 6.06365E+00-3.51278E+01 1.08204E+03 9.99095E-01 2.43278E+03
 -1      4240 6.68323E+03 6.19107E+01 1.03264E+02 1.01300E+03-2.15999E+01 2.41080E+03
 -1      4241 4.04025E+03-1.80360E+01 7.72273E+01 1.16783E+03-1.79679E+00 2.72850E+03
 -1      4242-8.53425E+03-2.91915E+01 2.62119E+01 5.34783E+02 2.00388E+00 1.12526E+03
 -1      4243 1.67097E+04 3.31837E+01-2.67218E+01 6.60574E+02-9.56987E-01 1.41796E+03
 -1      4244 2.30504E+04 3.90241E+01-2.88827E+01 7.28790E+02-1.43760E+00 1.55982E+03
 -1      4245-6.70696E+03-8.91597E+01-7.23716E+01 9.89122E+02 8.17255E+00 2.37567E+03
 -1      4246 9.05557E+00-3.22237E+00-3.92039E-01 1.20073E+03-3.83150E+00 2.73807E+03
 -1      4247 2.72224E+04 1.28709E+01-1.05808E+01 4.24864E+02 3.14493E+00 1.16159E+03
 -1      4248-2.72792E+04-1.45785E+01 1.02877E+01 4.21358E+02-2.85069E+00 1.15972E+03
 -1      4249 4.84777E+04-3.31299E+01-1.95546E+01 5.12128E+02 6.74302E+00 1.40993E+03
 -1      4250 3.63199E+03-5.91435E+00-4.74427E+01 2.50195E+02 1.09316E+01 1.18470E+03
 -1      4251 5.27334E+03 5.28130E+00-7.13800E+00 2.53861E+02 1.01328E+01 6.88456E+02
 -1      4252 4.28301E+03-1.98763E+00-5.64558E+00 4.46565E+02 1.37380E+01 6.36155E+02
 -1      4253-6.11650E+03 4.02036E+01 5.45255E+01 5.09931E+02-3.02754E+00 6.85017E+02
 -1      4254-6.30878E+03 3.06270E+01 5.23485E+01 2.63937E+02-8.76098E+00 7.20167E+02
 -1      4255-5.09361E+03 2.55735E+01 4.87754E+01 2.64603E+02-6.79651E+00 1.35395E+03
 -1      4256-4.86480E+03-1.74342E+01-3.35913E+01 5.48166E+02 1.90969E+01 2.37188E+03
 -1      4257-1.21460E+04 1.42817E-01 3.92310E+01 6.18267E+02-5.29284E-01 1.32780E+03
 -1      4258-1.57826E+04 4.21806E+01 3.44906E+01 1.10209E+03-1.17847E+01 1.25349E+03
 -1      4259 6.27973E+02 1.55525E+01 3.05988E+01-1.12020E+01-9.68134E+00-1.39828E+02
 -1      4260 7.39189E+02 3.80127E+01 7.05390E+01-5.59891E+01-1.43220E+01-9.79505E+01
 -1      4261-1.07213E+04 4.02863E+00 1.78515E+01 3.49100E+02 2.22859E+00 9.43095E+02
 -1      4262-6.46063E+02-4.13760E+01-7.32757E+01-4.64157E+01-5.00058E+00-1.67312E+02
 -1      4263-9.03316E+02-4.04702E+01-5.56145E+01-6.17925E+01 1.15672E+01-1.57568E+02
 -1      4264-3.45510E+02-2.33382E+00-4.19211E+01-8.53017E+01 6.96950E+00-3.98981E+02
 -1      4265-4.78582E+02-8.98234E+00-3.45956E+01-1.49045E+02 3.95487E+00-2.44936E+02
 -1      4266-2.68995E+02 1.07259E+02 1.36165E+02-2.20116E+02-1.52576E+01-2.72292E+02
 -1      4267-1.40202E+02 6.54668E+01 1.06435E+02-1.94754E+02-6.09673E+00-4.82528E+02
 -1      4268 4.04355E+04 1.72244E+03-1.01968E+03-5.12146E+02 3.96702E+01-5.50821E+02
 -1      4269 3.92648E+04 1.29170E+03-1.93620E+03-2.86558E+03 8.17263E+02-7.66638E+02
 -1      4270 4.03149E+04 3.74192E+03-7.37178E+02-1.52386E+03 1.16917E+02 2.47781E+03
 -1      4271 1.87625E+04 1.74215E+03-1.11537E+03 2.41101E+02 6.97049E+02 1.67535E+03
 -1      4272-2.13473E+03-7.90541E+01 8.64915E+01 1.45561E+03-1.20297E+01 3.39592E+03
 -1      4273-1.82799E-01-1.90025E+01 2.51686E+01 2.37997E+02-1.36004E+00 5.73107E+02
 -1      4274 4.03535E+01 8.55776E+00-5.70658E+00 1.06790E+02-2.35701E-01 2.59415E+02
 -1      4275-1.88679E+03 4.84106E+01-1.86743E+01 1.40468E+03 2.77368E+00 3.30146E+03
 -1      4276-2.57493E+02 1.12423E+01-4.79213E+01-8.85933E+01-2.25020E+00-2.05372E+02
 -1      4277-2.50243E+02 1.38216E+01-6.34202E+01-1.04927E+02-1.03760E+00-1.98295E+02
 -1      4278-6.01986E+01 1.52384E+01-5.38432E+01-1.24321E+02 2.17292E+00-4.35638E+02
 -1      4279-3.27768E+02 2.68275E+01-3.68342E+01-2.03069E+02-1.03977E+00-2.57684E+02
 -1      4280 9.38649E+02 1.58510E+01 6.39837E+01-3.43371E+00-1.06727E+01-6.17404E+01
 -1      4281 9.25687E+02 2.03099E+01 7.54892E+01-4.57036E+01-1.21526E+01-1.51364E+02
 -1      4282-5.05893E+02-3.88161E+01 4.65161E+01 8.87608E+02-1.47458E-01 2.08039E+03
 -1      4283-1.48026E+02 9.96009E+01 1.67463E+02-1.12916E+02 4.91309E+00-4.78016E+02
 -1      4284-1.52388E+02 8.16327E+01 1.73227E+02-9.78554E+01-1.70381E+01-5.88836E+02
 -1      4285-3.18165E+02 4.49024E+01-8.39445E+00 8.03438E+02-4.83608E-01 1.87269E+03
 -1      4286-7.59966E+02 2.36884E+01 2.36989E+01 1.44164E+03 1.05195E+01 3.71380E+03
 -1      4287 2.69271E+02-2.25240E+01 7.82180E+01-1.07707E+02-2.33032E+00-1.89213E+02
 -1      4288 4.38076E+02-1.36766E+01 4.57622E+01-9.99500E+01 2.07787E+00-1.75180E+02
 -1      4289 1.44818E+01-2.61041E+01 8.11868E+01-1.25247E+02 2.82445E+00-4.32181E+02
 -1      4290 2.76465E+02-4.78934E+01 4.90246E+01-2.10816E+02 4.79920E+00-2.56372E+02
 -1      4291-3.93617E+04-1.29282E+03 1.36597E+03-2.89197E+03-8.89515E+02-7.98358E+02
 -1      4292-4.05647E+04-1.68650E+03 8.64699E+02-4.55250E+02-1.83549E+01-6.14880E+02
 -1      4293-1.97332E+04-1.74427E+03 4.11218E+02 1.93894E+02-5.46401E+02 1.19432E+03
 -1      4294-4.03690E+04-3.93251E+03 8.71865E+01-1.73151E+03-3.55985E+02 2.35062E+03
 -1      4295-2.86176E+02 1.09051E+02 1.78266E+02-1.75950E+02 2.19286E-02-2.79395E+02
 -1      4296-9.62972E+04-3.84789E+02 1.09159E+03 2.58345E+03 1.93563E+03 1.38652E+03
 -1      4297-8.94533E+04-1.27568E+03-2.09524E+02 8.56894E+02 1.70903E+02 4.09546E+02
 -1      4298-7.02749E+04-2.70181E+03-3.44325E+03 2.00699E+03 1.08912E+03 3.15514E+03
 -1      4299-7.80362E+04-4.63753E+03-4.13862E+02 3.93321E+03 7.97909E+02 3.35852E+03
 -1      4300 8.93540E+02 3.99552E+01 5.43430E+01-6.10218E+01-1.11300E+01-1.55086E+02
 -1      4301 6.37678E+02 4.51909E+01 7.20027E+01-4.75660E+01 5.50275E+00-1.64917E+02
 -1      4302 4.89629E+02 6.22321E+00 2.44050E+01-1.41760E+02 5.30697E-01-2.42306E+02
 -1      4303 3.53872E+02 2.52010E+01 8.01000E+01-7.96071E+01-7.07626E+00-4.14292E+02
 -1      4304 7.21539E+02 2.53884E+01 3.63396E+01-1.43135E+02-3.23773E+00-2.10884E+02
 -1      4305-7.08766E+03-3.91926E+03-1.17276E+03-2.58047E+03 3.34414E+02-8.62114E+02
 -1      4306-2.33639E+04-5.23917E+03-3.42654E+03-1.61861E+03-5.25928E+02 2.82374E+03
 -1      4307-2.73805E+02-4.11688E+01 1.08209E+02-2.72402E+02-3.85366E-01-2.67813E+02
 -1      4308-5.30022E+01-1.20199E+01 8.80548E+01-2.21614E+02 5.24791E+00-4.98041E+02
 -1      4309 9.60447E+04 6.89982E+02-2.98502E+02 2.74916E+03-2.20956E+03 1.25619E+03
 -1      4310 8.92855E+04 1.23215E+03 2.17309E+02 9.11698E+02-2.21484E+02 4.19327E+02
 -1      4311 6.88445E+04 2.46512E+03 3.14703E+03 1.93556E+03-1.04069E+03 3.22541E+03
 -1      4312 7.70797E+04 5.54074E+03 1.67464E+03 3.53651E+03-9.94195E+02 3.10472E+03
 -1      4313 2.95024E+03 3.06941E+01-6.04117E+00 6.00333E+02-1.37256E+00 6.51726E+02
 -1      4314 8.83995E+02-1.76988E+00-5.53409E+01 2.96501E+02 3.82776E+00 1.30783E+03
 -1      4315-2.16166E+04-2.71984E+03-1.43085E+03-3.11137E+03-2.28573E+02-1.15351E+03
 -1      4316 6.11393E+04 7.20585E+03 1.27832E+04 5.02448E+03-1.11367E+02 2.63765E+03
 -1      4317 5.65734E+04 1.10110E+04 1.01293E+04 5.05696E+03-9.88547E+02 5.50492E+03
 -1      4318 9.43238E+01-3.28359E+01 1.43363E+02-1.21136E+02-4.20695E+00-5.03644E+02
 -1      4319 9.16300E+01-2.10819E+01 1.53400E+02-1.22919E+02 1.13401E+01-6.07971E+02
 -1      4320-2.73806E+02-3.39676E+01 1.42849E+02-2.34557E+02-1.88964E+00-2.83688E+02
 -1      4321 4.82565E+04 1.09456E+04 3.55545E+03-4.54061E+03 1.54148E+02 2.00277E+03
 -1      4322-5.12686E+04-1.09926E+04-2.17448E+03-4.05450E+03-3.20805E+02 1.32372E+03
 -1      4323-4.30789E+04-7.70707E+03-1.47753E+03-6.07172E+03-8.77961E+00-1.62851E+01
 -1      4324-5.25158E+01 3.01362E+01-1.34583E+02-1.40527E+02-2.81723E+01-5.50237E+02
 -1      4325 4.34942E+04 7.95835E+03 2.29649E+03-6.13196E+03 3.96963E+02 4.49125E+02
 -1      4326 2.33514E+04 5.79473E+03 4.35974E+03-1.77399E+03 6.74251E+02 2.55582E+03
 -1      4327 7.44574E+04 5.15853E+03 9.94486E+03 4.50069E+03-3.89440E+02 4.51430E+03
 -1      4328 7.96298E+04 1.67234E+04 6.97274E+03 4.85699E+03-2.72143E+02 4.56300E+03
 -1      4329 8.34396E+04 1.25794E+04 4.91232E+03 7.43610E+03-3.37564E+02 3.19753E+03
 -1      4330 2.09470E+03-9.48357E+00-1.35047E+01 1.88778E+02 2.74599E+00 5.07450E+02
 -1      4331 1.53297E+03-2.51658E+01-1.40403E+01 3.27761E+02 9.17834E+00 4.62945E+02
 -1      4332 1.33595E+03-9.58303E+00-5.07469E+01 1.80638E+02 8.60422E+00 8.69101E+02
 -1      4333-1.53249E+03 2.54164E+01 1.41072E+01 3.27765E+02-9.96075E+00 4.62849E+02
 -1      4334-1.33598E+03 9.26185E+00 5.10323E+01 1.80773E+02-8.87597E+00 8.68827E+02
 -1      4335-2.09461E+03 9.43038E+00 1.33858E+01 1.88922E+02-3.07767E+00 5.07616E+02
 -1      4336-3.66590E+03-1.32826E+01 3.33988E+01 6.56797E+02 1.33657E+00 7.04678E+02
 -1      4337-1.05730E+03-4.07113E+00 4.08021E+01 3.12698E+02 3.53698E+00 1.41839E+03
 -1      4338-2.64624E+03-1.27033E+01 6.14731E+01 3.60267E+02 7.57518E+00 7.65070E+02
 -1      4339 3.65301E+03-1.72025E+00-8.71250E+00 4.05550E+02 4.15786E+00 8.65068E+02
 -1      4340 1.39675E+03-3.26973E-01-4.30552E+01 3.43336E+02-3.85686E+00 1.51812E+03
 -1      4341 4.20155E+03 6.81031E+00-1.93706E+01 6.99931E+02 1.20456E+00 7.79529E+02
 -1      4342-4.01898E+04 1.31347E+01 4.60269E+01 9.81374E+02 5.34717E+00 1.33267E+03
 -1      4343-4.38726E+04 3.36679E+01 7.19401E+01 5.28917E+02-1.50222E+01 1.42541E+03
 -1      4344-3.35085E+04 3.24639E+01 2.77099E+01 5.18109E+02-1.00312E+00 2.60371E+03
 -1      4345 8.80598E+03-3.07293E+01 1.29417E+01 5.52308E+02-4.41613E+00 1.18829E+03
 -1      4346 3.33552E+03-5.05689E+00-2.17436E+01 4.86124E+02-3.43846E+00 2.11270E+03
 -1      4347 1.05607E+04 5.15394E+00 3.64407E+00 9.71172E+02-5.96814E+00 1.07369E+03
 -1      4348-1.68014E+04 3.63146E+01-2.20642E+01 6.82472E+02 7.39724E+00 1.47275E+03
 -1      4349-6.35069E+03 1.18903E+00 1.76611E+01 6.08635E+02-1.05310E+00 2.63313E+03
 -1      4350-2.05295E+04-4.59087E+00-1.19050E+01 1.21020E+03 1.55424E+01 1.34330E+03
 -1      4351-1.05524E+04-9.03042E+00-6.10809E+00 9.74464E+02-4.31447E-01 1.07850E+03
 -1      4352-8.80156E+03 1.93818E+00-3.81673E+01 5.56890E+02-1.11443E+01 1.18713E+03
 -1      4353-3.33948E+03-5.31674E-01 2.60065E+01 4.81426E+02-1.08924E+00 2.11189E+03
 -1      4354 4.02200E+04-1.18723E+01-4.52537E+01 9.78752E+02-4.65152E+00 1.33405E+03
 -1      4355 4.38750E+04-3.32575E+01-7.20259E+01 5.28663E+02 1.56953E+01 1.42589E+03
 -1      4356 3.35083E+04-3.11437E+01-2.64146E+01 5.18494E+02 9.83128E-01 2.60416E+03
 -1      4357-7.64419E+01 3.16313E+01-1.98406E+02-1.22915E+02 3.94434E+00-5.09216E+02
 -1      4358 7.51263E+01 2.56114E+01-8.27070E+01-2.19643E+02 3.83068E+00-4.93482E+02
 -1      4359 2.05017E+04 5.90968E+00 1.28545E+01 1.20517E+03-1.60670E+01 1.34145E+03
 -1      4360 1.68403E+04-3.56185E+01 2.30932E+01 6.82002E+02-9.35016E+00 1.47085E+03
 -1      4361 6.38172E+03-3.22032E-01-1.58303E+01 6.10978E+02 1.28738E-01 2.63215E+03
 -1      4362 2.38355E+04-1.31570E+01 1.20793E+01 8.40099E+02 2.07798E+01 1.15369E+03
 -1      4363 2.00535E+04 1.89079E+01-3.65228E+01 4.56523E+02 1.27368E+01 2.20304E+03
 -1      4364 2.76095E+04 1.96416E+01 3.15427E+01 4.59169E+02 7.51182E-01 1.23718E+03
 -1      4365 4.68933E+02-1.02228E+01 2.50572E+01 5.28751E+01 4.65937E+00 1.17365E+02
 -1      4366 8.71967E+03-8.17482E+00-1.78401E+01 6.52787E+02 2.08694E+00 2.88094E+03
 -1      4367 2.81486E+04-9.04116E+00-1.33076E+01 1.32258E+03 8.14730E+00 1.46039E+03
 -1      4368 2.29768E+04-1.84824E+01 1.94342E+01 7.55444E+02 1.55224E+01 1.59716E+03
 -1      4369-4.41337E+03 8.44825E+00 5.02590E+00 4.40457E+02 5.43676E+00 9.41106E+02
 -1      4370 5.12042E+01-1.60613E+01 2.83513E+01 1.48444E+02 4.96864E+00 3.16636E+02
 -1      4371-6.42031E+03-2.98783E+01 4.58006E+01 4.75608E+02 1.28443E+01 1.01746E+03
 -1      4372-2.40569E+04 3.93787E+01-1.90903E+01 7.80846E+02 1.81215E+01 1.67537E+03
 -1      4373-6.20477E+04-7.24395E+03-1.25538E+04 4.83503E+03-8.63673E+01 2.93833E+03
 -1      4374-7.46076E+04-5.30950E+03-1.02789E+04 4.48632E+03 4.78437E+02 4.49958E+03
 -1      4375-5.78756E+04-1.12069E+04-1.17407E+04 5.19444E+03 1.21538E+03 5.69270E+03
 -1      4376 3.05772E+02-9.50486E+01-1.33898E+02-2.28468E+02 8.60524E+00-2.55342E+02
 -1      4377 3.07055E+02-1.01775E+02-1.75198E+02-1.83309E+02-6.97792E-01-2.76795E+02
 -1      4378 1.48422E+02-7.03088E+01-9.69001E+01-1.86334E+02 2.95510E+00-4.85491E+02
 -1      4379-7.95869E+04-1.46819E+04-4.54723E+03 4.78756E+03-4.73916E+02 4.42289E+03
 -1      4380-2.76206E+04-1.80044E+01-3.67599E+01 4.60141E+02-2.98311E+00 1.23934E+03
 -1      4381-2.38670E+04 2.28991E+01-2.34349E+01 8.32764E+02-1.84623E+01 1.15609E+03
 -1      4382-2.00987E+04-1.01337E+01 2.33463E+01 4.56951E+02-2.19828E+01 2.20260E+03
 -1      4383 8.89483E+03-5.70813E+02-1.35774E+03-1.05450E+03-6.97610E+02-1.67217E+03
 -1      4384 2.21518E+04 3.41964E+03 3.21634E+03-3.07355E+03 2.71931E+02-1.14800E+03
 -1      4385-2.72064E+04-2.84224E+01 4.34287E+01 8.38394E+02 1.27818E+00 1.71954E+03
 -1      4386 2.24165E+02 1.87965E+01-1.33688E+02-2.47526E+02 1.27955E+01-3.06568E+02
 -1      4387-8.51176E+04-1.44104E+04-6.53501E+03 7.51515E+03 8.70799E+02 3.90507E+03
 -1      4388 8.09703E+02 4.92897E+00-4.92583E+01 2.80130E+02-1.43378E+00 1.22562E+03
 -1      4389 2.31872E+03 1.37516E+01-2.07840E+01 5.65554E+02-5.54034E+00 6.35385E+02
 -1      4390 2.09936E+03 3.91835E+00-1.57758E+01 3.32060E+02 6.25017E-01 7.04089E+02
 -1      4391 2.60659E+02 5.73093E+01-1.53560E+02-2.33319E+02-1.79879E+00-2.87421E+02
 -1      4392 1.66175E+02 7.90962E+00 1.76051E+01-5.10543E+01-2.26079E+00-1.16405E+02
 -1      4393 1.53021E+02-8.48284E+01-1.66411E+02-1.08133E+02 2.71417E+01-5.36760E+02
 -1      4394 1.41448E+02-1.08554E+02-2.07319E+02-1.13354E+02-8.92371E+00-4.91507E+02
 -1      4395 1.06974E+03 3.01296E+01 4.47682E+01-5.45129E+01-5.60364E+00-7.84374E+01
 -1      4396 1.03271E+03 2.53615E+01 5.36060E+01-6.05294E+01-1.03732E+01-1.62879E+02
 -1      4397 9.73166E+02 4.22096E+01 3.97968E+01-1.09240E+02-1.06569E+01-9.96576E+01
 -1      4398 1.16851E+03 3.48524E+01 3.26721E+01-2.68376E+01-9.02486E+00-1.64394E+01
 -1      4399 1.14978E+03 3.79687E+01 3.83581E+01-6.80380E+01-9.45243E+00-9.15072E+01
 -1      4400 1.31759E+03 1.46688E+01 3.18426E+01-2.88261E+00-5.50495E+00-6.00588E+00
 -1      4401 1.20025E+03 1.69304E+01 3.95438E+01-4.80796E+01-7.81823E+00-1.01334E+02
 -1      4402 1.37669E+03 1.81525E+01 3.76131E+01-2.38023E+01-8.88136E+00-5.92001E+01
 -1      4403 1.79924E+02 1.08017E+01-1.82633E+01 4.50395E+01-8.29613E+00 1.35434E+02
 -3
    1PSTEP                         6           1           2          
    1PGM                1.000000E+00                                  
    1PGK                3.906955E+07                                  
    1PHID                         -1                                  
    1PSUBC                         0                                  
    1PMODE                         1                                  
  100CL  102 994.8081810        4403                     2    2MODAL      1
 -4  ERROR       1    1
 -5  STR(%)      1    1    0    0
 -1         1 1.72658E+01
 -1         2 1.01033E+01
 -1         3 1.00073E+01
 -1         4 1.69626E+01
 -1         5 2.75318E+01
 -1         6 2.95494E+01
 -1         7 2.97271E+01
 -1         8 2.71169E+01
 -1         9 1.13349E+01
 -1        10 2.01655E+01
 -1        11 3.00576E+01
 -1        12 1.07191E+01
 -1        13 1.57502E+01
 -1        14 2.51116E+01
 -1        15 2.36617E+01
 -1        16 1.24681E+01
 -1        17 1.24681E+01
 -1        18 9.70997E+00
 -1        19 1.48670E+01
 -1        20 1.24681E+01
 -1        21 1.10891E+01
 -1        22 9.85862E+00
 -1        23 2.97149E+01
 -1        24 2.19238E+01
 -1        25 1.20260E+01
 -1        26 2.33388E+01
 -1        27 2.58194E+01
 -1        28 1.69749E+01
 -1        29 1.10166E+01
 -1        30 1.09641E+01
 -1        31 1.16852E+01
 -1        32 1.11221E+01
 -1        33 1.05337E+01
 -1        34 1.13246E+01
 -1        35 1.14037E+01
 -1        36 1.40424E+01
 -1        37 2.00652E+01
 -1        38 1.27480E+01
 -1        39 1.16414E+01
 -1        40 2.48073E+01
 -1        41 1.64066E+01
 -1        42 1.21947E+01
 -1        43 1.95866E+01
 -1        44 2.75318E+01
 -1        45 2.84095E+01
 -1        46 2.91492E+01
 -1        47 2.75318E+01
 -1        48 2.79706E+01
 -1        49 2.87793E+01
 -1        50 2.94382E+01
 -1        51 1.15861E+01
 -1        52 1.16460E+01
 -1        53 1.99372E+01
 -1        54 1.93515E+01
 -1        55 1.16160E+01
 -1        56 1.57916E+01
 -1        57 2.48322E+01
 -1        58 2.91858E+01
 -1        59 2.90081E+01
 -1        60 2.72265E+01
 -1        61 2.93676E+01
 -1        62 2.90970E+01
 -1        63 2.81173E+01
 -1        64 2.71717E+01
 -1        65 7.22660E+00
 -1        66 5.54478E+00
 -1        67 5.65844E+00
 -1        68 1.07688E+01
 -1        69 5.70495E+00
 -1        70 1.04321E+01
 -1        71 5.77206E+00
 -1        72 5.82182E+00
 -1        73 1.07556E+01
 -1        74 9.69301E+00
 -1        75 5.85549E+00
 -1        76 5.90560E+00
 -1        77 1.07955E+01
 -1        78 5.84853E+00
 -1        79 9.06475E+00
 -1        80 1.00281E+01
 -1        81 5.98442E+00
 -1        82 6.10225E+00
 -1        83 1.07701E+01
 -1        84 6.13806E+00
 -1        85 9.46301E+00
 -1        86 6.35660E+00
 -1        87 1.00765E+01
 -1        88 6.71062E+00
 -1        89 6.56827E+00
 -1        90 1.06472E+01
 -1        91 2.35121E+01
 -1        92 2.35121E+01
 -1        93 1.28025E+01
 -1        94 1.22353E+01
 -1        95 7.35000E+00
 -1        96 8.80219E+00
 -1        97 1.28627E+01
 -1        98 8.66493E+00
 -1        99 6.38569E+00
 -1       100 5.60161E+00
 -1       101 8.21361E+00
 -1       102 8.23686E+00
 -1       103 8.06854E+00
 -1       104 8.10210E+00
 -1       105 5.79694E+00
 -1       106 8.28872E+00
 -1       107 1.02243E+01
 -1       108 7.77425E+00
 -1       109 5.88054E+00
 -1       110 8.35056E+00
 -1       111 8.32203E+00
 -1       112 7.45664E+00
 -1       113 9.54642E+00
 -1       114 8.00626E+00
 -1       115 6.04333E+00
 -1       116 8.43619E+00
 -1       117 8.45410E+00
 -1       118 7.80054E+00
 -1       119 7.90981E+00
 -1       120 8.21657E+00
 -1       121 8.39358E+00
 -1       122 6.63944E+00
 -1       123 8.60771E+00
 -1       124 1.70796E+01
 -1       125 2.35121E+01
 -1       126 1.81573E+01
 -1       127 1.25189E+01
 -1       128 9.79267E+00
 -1       129 8.07609E+00
 -1       130 1.08324E+01
 -1       131 2.12061E+01
 -1       132 1.81998E+01
 -1       133 1.80676E+01
 -1       134 1.71493E+01
 -1       135 1.66826E+01
 -1       136 1.66421E+01
 -1       137 1.66725E+01
 -1       138 1.68244E+01
 -1       139 1.65942E+01
 -1       140 1.69953E+01
 -1       141 1.66511E+01
 -1       142 1.64047E+01
 -1       143 1.64353E+01
 -1       144 1.65192E+01
 -1       145 1.59473E+01
 -1       146 1.58637E+01
 -1       147 1.62917E+01
 -1       148 1.59754E+01
 -1       149 1.58180E+01
 -1       150 1.56169E+01
 -1       151 1.47874E+01
 -1       152 1.55561E+01
 -1       153 1.44556E+01
 -1       154 1.36427E+01
 -1       155 1.20459E+01
 -1       156 1.10626E+01
 -1       157 1.13939E+01
 -1       158 2.04671E+01
 -1       159 2.04671E+01
 -1       160 1.73174E+01
 -1       161 2.00405E+01
 -1       162 2.06150E+01
 -1       163 2.06150E+01
 -1       164 1.82867E+01
 -1       165 1.77328E+01
 -1       166 1.81337E+01
 -1       167 1.76084E+01
 -1       168 1.69159E+01
 -1       169 1.66623E+01
 -1       170 1.66573E+01
 -1       171 1.67484E+01
 -1       172 1.67093E+01
 -1       173 1.67948E+01
 -1       174 1.68232E+01
 -1       175 1.65279E+01
 -1       176 1.64200E+01
 -1       177 1.64772E+01
 -1       178 1.62332E+01
 -1       179 1.59055E+01
 -1       180 1.60777E+01
 -1       181 1.61336E+01
 -1       182 1.58967E+01
 -1       183 1.57174E+01
 -1       184 1.52021E+01
 -1       185 1.51718E+01
 -1       186 1.50059E+01
 -1       187 1.40492E+01
 -1       188 1.28443E+01
 -1       189 1.15543E+01
 -1       190 1.12282E+01
 -1       191 1.59305E+01
 -1       192 2.04671E+01
 -1       193 1.88922E+01
 -1       194 1.86789E+01
 -1       195 2.03277E+01
 -1       196 2.06150E+01
 -1       197 1.94508E+01
 -1       198 2.29092E+01
 -1       199 1.81891E+01
 -1       200 1.80539E+01
 -1       201 1.72958E+01
 -1       202 1.69362E+01
 -1       203 1.68940E+01
 -1       204 1.69988E+01
 -1       205 1.65611E+01
 -1       206 1.65966E+01
 -1       207 1.67496E+01
 -1       208 1.66360E+01
 -1       209 1.63473E+01
 -1       210 1.64119E+01
 -1       211 1.65871E+01
 -1       212 1.64195E+01
 -1       213 1.63806E+01
 -1       214 1.59581E+01
 -1       215 1.59688E+01
 -1       216 1.58464E+01
 -1       217 1.52277E+01
 -1       218 1.45522E+01
 -1       219 1.51825E+01
 -1       220 1.47126E+01
 -1       221 1.37980E+01
 -1       222 1.28367E+01
 -1       223 1.11449E+01
 -1       224 9.20467E+00
 -1       225 2.02627E+01
 -1       226 2.30761E+01
 -1       227 1.82388E+01
 -1       228 2.09456E+01
 -1       229 2.09456E+01
 -1       230 2.08147E+01
 -1       231 1.81733E+01
 -1       232 1.75758E+01
 -1       233 1.81215E+01
 -1       234 1.76749E+01
 -1       235 1.71160E+01
 -1       236 1.69151E+01
 -1       237 1.69464E+01
 -1       238 1.67799E+01
 -1       239 1.65789E+01
 -1       240 1.66731E+01
 -1       241 1.66928E+01
 -1       242 1.64916E+01
 -1       243 1.63796E+01
 -1       244 1.64995E+01
 -1       245 1.65033E+01
 -1       246 1.64000E+01
 -1       247 1.61694E+01
 -1       248 1.59635E+01
 -1       249 1.59076E+01
 -1       250 1.55370E+01
 -1       251 1.48899E+01
 -1       252 1.48673E+01
 -1       253 1.49475E+01
 -1       254 1.42553E+01
 -1       255 1.33173E+01
 -1       256 1.19908E+01
 -1       257 1.01748E+01
 -1       258 1.47337E+01
 -1       259 2.16694E+01
 -1       260 2.06575E+01
 -1       261 1.95922E+01
 -1       262 2.09456E+01
 -1       263 2.08801E+01
 -1       264 1.94940E+01
 -1       265 2.26451E+01
 -1       266 7.21374E+00
 -1       267 5.52357E+00
 -1       268 5.70012E+00
 -1       269 1.07742E+01
 -1       270 5.62631E+00
 -1       271 1.04222E+01
 -1       272 5.77215E+00
 -1       273 5.82300E+00
 -1       274 1.07829E+01
 -1       275 9.69237E+00
 -1       276 5.84798E+00
 -1       277 5.87493E+00
 -1       278 1.07774E+01
 -1       279 5.74253E+00
 -1       280 9.05235E+00
 -1       281 1.00161E+01
 -1       282 5.93388E+00
 -1       283 6.12463E+00
 -1       284 6.07845E+00
 -1       285 6.09786E+00
 -1       286 9.37502E+00
 -1       287 6.24995E+00
 -1       288 9.82296E+00
 -1       289 6.56333E+00
 -1       290 6.56333E+00
 -1       291 1.06500E+01
 -1       292 2.35176E+01
 -1       293 2.35176E+01
 -1       294 1.28022E+01
 -1       295 1.19844E+01
 -1       296 1.07422E+01
 -1       297 9.99457E+00
 -1       298 1.28168E+01
 -1       299 8.61051E+00
 -1       300 6.36866E+00
 -1       301 5.61185E+00
 -1       302 8.23717E+00
 -1       303 8.20026E+00
 -1       304 8.02424E+00
 -1       305 8.09716E+00
 -1       306 5.79758E+00
 -1       307 8.30297E+00
 -1       308 1.02377E+01
 -1       309 7.77018E+00
 -1       310 5.86146E+00
 -1       311 8.32614E+00
 -1       312 8.25994E+00
 -1       313 7.39744E+00
 -1       314 9.53422E+00
 -1       315 7.97499E+00
 -1       316 6.02926E+00
 -1       317 6.10154E+00
 -1       318 6.08816E+00
 -1       319 7.73644E+00
 -1       320 7.81249E+00
 -1       321 8.03646E+00
 -1       322 8.19315E+00
 -1       323 6.56333E+00
 -1       324 8.60668E+00
 -1       325 1.70838E+01
 -1       326 2.35176E+01
 -1       327 1.81599E+01
 -1       328 1.23933E+01
 -1       329 1.13633E+01
 -1       330 1.03684E+01
 -1       331 1.14057E+01
 -1       332 2.12719E+01
 -1       333 3.10203E+01
 -1       334 3.00576E+01
 -1       335 1.89981E+01
 -1       336 2.06615E+01
 -1       337 3.24010E+01
 -1       338 2.73066E+01
 -1       339 3.10203E+01
 -1       340 1.72686E+01
 -1       341 1.23485E+01
 -1       342 3.24010E+01
 -1       343 3.00576E+01
 -1       344 1.85753E+01
 -1       345 1.09641E+01
 -1       346 1.13975E+01
 -1       347 3.24010E+01
 -1       348 2.36617E+01
 -1       349 3.00576E+01
 -1       350 2.12629E+01
 -1       351 1.11495E+01
 -1       352 1.05337E+01
 -1       353 1.09641E+01
 -1       354 1.07024E+01
 -1       355 1.05538E+01
 -1       356 1.17118E+01
 -1       357 1.77689E+01
 -1       358 2.41451E+01
 -1       359 1.48487E+01
 -1       360 2.04135E+01
 -1       361 1.59982E+01
 -1       362 1.58128E+01
 -1       363 3.00576E+01
 -1       364 2.51116E+01
 -1       365 2.53595E+01
 -1       366 3.00576E+01
 -1       367 1.98874E+01
 -1       368 1.98874E+01
 -1       369 2.86821E+01
 -1       370 1.10293E+01
 -1       371 1.24083E+01
 -1       372 1.98276E+01
 -1       373 1.18730E+01
 -1       374 3.03676E+01
 -1       375 2.64720E+01
 -1       376 2.47978E+01
 -1       377 2.64720E+01
 -1       378 2.15232E+01
 -1       379 3.10203E+01
 -1       380 2.12089E+01
 -1       381 1.41163E+01
 -1       382 1.44769E+01
 -1       383 1.41163E+01
 -1       384 1.53416E+01
 -1       385 1.50601E+01
 -1       386 1.81333E+01
 -1       387 1.87867E+01
 -1       388 3.17107E+01
 -1       389 3.17107E+01
 -1       390 2.16844E+01
 -1       391 3.17107E+01
 -1       392 2.23748E+01
 -1       393 3.24010E+01
 -1       394 3.12293E+01
 -1       395 2.65312E+01
 -1       396 2.86821E+01
 -1       397 2.98538E+01
 -1       398 2.50092E+01
 -1       399 2.56996E+01
 -1       400 2.48348E+01
 -1       401 2.48348E+01
 -1       402 1.89650E+01
 -1       403 2.98538E+01
 -1       404 3.24010E+01
 -1       405 3.24010E+01
 -1       406 2.84095E+01
 -1       407 2.72265E+01
 -1       408 1.32229E+01
 -1       409 2.90081E+01
 -1       410 1.33771E+01
 -1       411 1.15260E+01
 -1       412 2.69439E+01
 -1       413 1.52868E+01
 -1       414 1.67988E+01
 -1       415 1.32153E+01
 -1       416 2.75318E+01
 -1       417 2.71169E+01
 -1       418 2.95494E+01
 -1       419 2.97271E+01
 -1       420 1.24236E+01
 -1       421 1.95866E+01
 -1       422 2.75318E+01
 -1       423 2.75318E+01
 -1       424 2.95494E+01
 -1       425 2.48073E+01
 -1       426 2.93676E+01
 -1       427 2.94382E+01
 -1       428 2.97271E+01
 -1       429 2.48322E+01
 -1       430 1.93515E+01
 -1       431 2.71169E+01
 -1       432 2.71717E+01
 -1       433 1.76760E+01
 -1       434 1.40174E+01
 -1       435 2.24181E+01
 -1       436 1.29855E+01
 -1       437 1.24322E+01
 -1       438 1.42548E+01
 -1       439 2.03774E+01
 -1       440 2.72379E+01
 -1       441 2.76767E+01
 -1       442 2.72379E+01
 -1       443 2.84095E+01
 -1       444 2.87793E+01
 -1       445 2.76767E+01
 -1       446 2.90683E+01
 -1       447 1.15860E+01
 -1       448 1.15560E+01
 -1       449 1.93214E+01
 -1       450 1.83680E+01
 -1       451 1.42224E+01
 -1       452 1.41624E+01
 -1       453 2.32630E+01
 -1       454 2.90081E+01
 -1       455 2.90970E+01
 -1       456 2.92788E+01
 -1       457 2.72265E+01
 -1       458 2.81173E+01
 -1       459 2.81173E+01
 -1       460 2.71717E+01
 -1       461 1.96838E+01
 -1       462 2.04165E+01
 -1       463 2.08124E+01
 -1       464 1.50070E+01
 -1       465 2.26041E+01
 -1       466 1.28195E+01
 -1       467 2.03018E+01
 -1       468 2.11926E+01
 -1       469 1.93762E+01
 -1       470 1.24515E+01
 -1       471 2.00834E+01
 -1       472 1.28233E+01
 -1       473 1.38552E+01
 -1       474 1.43319E+01
 -1       475 2.21475E+01
 -1       476 1.23706E+01
 -1       477 1.32962E+01
 -1       478 1.29004E+01
 -1       479 1.00129E+01
 -1       480 2.35121E+01
 -1       481 2.92012E+01
 -1       482 1.07438E+01
 -1       483 1.86084E+01
 -1       484 1.28869E+01
 -1       485 2.11494E+01
 -1       486 2.26056E+01
 -1       487 1.04321E+01
 -1       488 1.03494E+01
 -1       489 2.74688E+01
 -1       490 1.08179E+01
 -1       491 9.06475E+00
 -1       492 1.07556E+01
 -1       493 3.06474E+01
 -1       494 1.02634E+01
 -1       495 9.17643E+00
 -1       496 1.71411E+01
 -1       497 1.87783E+01
 -1       498 2.68672E+01
 -1       499 2.49900E+01
 -1       500 2.39084E+01
 -1       501 2.64317E+01
 -1       502 2.56661E+01
 -1       503 2.71285E+01
 -1       504 1.22010E+01
 -1       505 1.58560E+01
 -1       506 2.04671E+01
 -1       507 2.04810E+01
 -1       508 1.52132E+01
 -1       509 9.84172E+00
 -1       510 2.73813E+01
 -1       511 1.82619E+01
 -1       512 1.07688E+01
 -1       513 2.74730E+01
 -1       514 1.16342E+01
 -1       515 1.10534E+01
 -1       516 1.39108E+01
 -1       517 2.27309E+01
 -1       518 1.02515E+01
 -1       519 1.92886E+01
 -1       520 1.08517E+01
 -1       521 1.82325E+01
 -1       522 1.79473E+01
 -1       523 1.07955E+01
 -1       524 2.41649E+01
 -1       525 2.57344E+01
 -1       526 1.30076E+01
 -1       527 1.06472E+01
 -1       528 1.00281E+01
 -1       529 2.92012E+01
 -1       530 1.16209E+01
 -1       531 2.56661E+01
 -1       532 2.61603E+01
 -1       533 1.28025E+01
 -1       534 1.82507E+01
 -1       535 1.72607E+01
 -1       536 1.67618E+01
 -1       537 9.69301E+00
 -1       538 2.08763E+01
 -1       539 1.19791E+01
 -1       540 1.66079E+01
 -1       541 2.76130E+01
 -1       542 2.75157E+01
 -1       543 2.70739E+01
 -1       544 3.06474E+01
 -1       545 2.41649E+01
 -1       546 2.39084E+01
 -1       547 2.60205E+01
 -1       548 2.74730E+01
 -1       549 2.92012E+01
 -1       550 2.67711E+01
 -1       551 9.72295E+00
 -1       552 1.28869E+01
 -1       553 1.86084E+01
 -1       554 1.06815E+01
 -1       555 2.12374E+01
 -1       556 1.58560E+01
 -1       557 1.83482E+01
 -1       558 1.93252E+01
 -1       559 2.11494E+01
 -1       560 1.72607E+01
 -1       561 1.33559E+01
 -1       562 2.12950E+01
 -1       563 2.27309E+01
 -1       564 2.68672E+01
 -1       565 2.53421E+01
 -1       566 2.56661E+01
 -1       567 2.57344E+01
 -1       568 2.64317E+01
 -1       569 2.37376E+01
 -1       570 1.48653E+01
 -1       571 2.26056E+01
 -1       572 2.49900E+01
 -1       573 2.41649E+01
 -1       574 2.70464E+01
 -1       575 1.52868E+01
 -1       576 1.08964E+01
 -1       577 2.60205E+01
 -1       578 2.65719E+01
 -1       579 3.06474E+01
 -1       580 1.01033E+01
 -1       581 2.95494E+01
 -1       582 2.51573E+01
 -1       583 1.08076E+01
 -1       584 3.03525E+01
 -1       585 2.39566E+01
 -1       586 2.44236E+01
 -1       587 1.01033E+01
 -1       588 1.07191E+01
 -1       589 8.66493E+00
 -1       590 2.63446E+01
 -1       591 1.83994E+01
 -1       592 2.17220E+01
 -1       593 2.48073E+01
 -1       594 2.95494E+01
 -1       595 2.12061E+01
 -1       596 1.92317E+01
 -1       597 2.36470E+01
 -1       598 1.86159E+01
 -1       599 2.54065E+01
 -1       600 3.03525E+01
 -1       601 2.88879E+01
 -1       602 3.06474E+01
 -1       603 1.40174E+01
 -1       604 1.76760E+01
 -1       605 2.24181E+01
 -1       606 1.19212E+01
 -1       607 1.24745E+01
 -1       608 1.37439E+01
 -1       609 1.86792E+01
 -1       610 8.22059E+00
 -1       611 9.06150E+00
 -1       612 1.04998E+01
 -1       613 7.96090E+00
 -1       614 7.90407E+00
 -1       615 1.05799E+01
 -1       616 1.45153E+01
 -1       617 1.19602E+01
 -1       618 1.42626E+01
 -1       619 8.23686E+00
 -1       620 1.07688E+01
 -1       621 1.45153E+01
 -1       622 1.04321E+01
 -1       623 8.06854E+00
 -1       624 1.06005E+01
 -1       625 1.20114E+01
 -1       626 1.43414E+01
 -1       627 1.43414E+01
 -1       628 8.08563E+00
 -1       629 8.06075E+00
 -1       630 1.43001E+01
 -1       631 1.44941E+01
 -1       632 1.20272E+01
 -1       633 1.42910E+01
 -1       634 1.02243E+01
 -1       635 1.07556E+01
 -1       636 1.44941E+01
 -1       637 7.77425E+00
 -1       638 9.69301E+00
 -1       639 1.02243E+01
 -1       640 8.36175E+00
 -1       641 8.33669E+00
 -1       642 1.02555E+01
 -1       643 1.43714E+01
 -1       644 1.19265E+01
 -1       645 1.43826E+01
 -1       646 8.32203E+00
 -1       647 1.07955E+01
 -1       648 1.43714E+01
 -1       649 9.06475E+00
 -1       650 7.45664E+00
 -1       651 9.93014E+00
 -1       652 1.00281E+01
 -1       653 9.54642E+00
 -1       654 9.54642E+00
 -1       655 1.15627E+01
 -1       656 1.35846E+01
 -1       657 1.35846E+01
 -1       658 8.17689E+00
 -1       659 8.11798E+00
 -1       660 1.36963E+01
 -1       661 1.37660E+01
 -1       662 1.14320E+01
 -1       663 1.35067E+01
 -1       664 8.44095E+00
 -1       665 1.07570E+01
 -1       666 1.37528E+01
 -1       667 1.01574E+01
 -1       668 8.49490E+00
 -1       669 1.07978E+01
 -1       670 1.07849E+01
 -1       671 1.23381E+01
 -1       672 1.30325E+01
 -1       673 1.10278E+01
 -1       674 9.16784E+00
 -1       675 1.35961E+01
 -1       676 8.36176E+00
 -1       677 1.00447E+01
 -1       678 1.09960E+01
 -1       679 8.81082E+00
 -1       680 8.88200E+00
 -1       681 1.05331E+01
 -1       682 1.02444E+01
 -1       683 8.20500E+00
 -1       684 1.04475E+01
 -1       685 1.70796E+01
 -1       686 1.06472E+01
 -1       687 1.02444E+01
 -1       688 2.35121E+01
 -1       689 2.35121E+01
 -1       690 1.70796E+01
 -1       691 1.28025E+01
 -1       692 1.81573E+01
 -1       693 1.81573E+01
 -1       694 1.19281E+01
 -1       695 1.22117E+01
 -1       696 1.22117E+01
 -1       697 1.30642E+01
 -1       698 1.55068E+01
 -1       699 1.51996E+01
 -1       700 1.02182E+01
 -1       701 9.49211E+00
 -1       702 1.52063E+01
 -1       703 1.10196E+01
 -1       704 8.98931E+00
 -1       705 1.04053E+01
 -1       706 1.93629E+01
 -1       707 2.44236E+01
 -1       708 2.43575E+01
 -1       709 3.06474E+01
 -1       710 2.27244E+01
 -1       711 2.22653E+01
 -1       712 2.90143E+01
 -1       713 2.23091E+01
 -1       714 2.20757E+01
 -1       715 2.74250E+01
 -1       716 2.20778E+01
 -1       717 2.20575E+01
 -1       718 2.74709E+01
 -1       719 2.18580E+01
 -1       720 2.18732E+01
 -1       721 2.72734E+01
 -1       722 2.17698E+01
 -1       723 2.18458E+01
 -1       724 2.69705E+01
 -1       725 2.14924E+01
 -1       726 2.13773E+01
 -1       727 2.65138E+01
 -1       728 2.15129E+01
 -1       729 2.17135E+01
 -1       730 2.62960E+01
 -1       731 2.13307E+01
 -1       732 2.11586E+01
 -1       733 2.60489E+01
 -1       734 2.11586E+01
 -1       735 2.10354E+01
 -1       736 2.56661E+01
 -1       737 2.10695E+01
 -1       738 2.10848E+01
 -1       739 2.57002E+01
 -1       740 2.07127E+01
 -1       741 2.07546E+01
 -1       742 2.53622E+01
 -1       743 2.03420E+01
 -1       744 2.00561E+01
 -1       745 2.45774E+01
 -1       746 2.00561E+01
 -1       747 2.00143E+01
 -1       748 2.41649E+01
 -1       749 1.98861E+01
 -1       750 2.01001E+01
 -1       751 2.40367E+01
 -1       752 1.95113E+01
 -1       753 1.93531E+01
 -1       754 2.33196E+01
 -1       755 1.92905E+01
 -1       756 1.92118E+01
 -1       757 2.26682E+01
 -1       758 1.83472E+01
 -1       759 1.82466E+01
 -1       760 2.17410E+01
 -1       761 1.80489E+01
 -1       762 1.76342E+01
 -1       763 2.06786E+01
 -1       764 1.70380E+01
 -1       765 1.74223E+01
 -1       766 1.98848E+01
 -1       767 1.70823E+01
 -1       768 1.65320E+01
 -1       769 1.89485E+01
 -1       770 1.55318E+01
 -1       771 1.51253E+01
 -1       772 1.76082E+01
 -1       773 1.47494E+01
 -1       774 1.39509E+01
 -1       775 1.62320E+01
 -1       776 1.29784E+01
 -1       777 1.24867E+01
 -1       778 1.48834E+01
 -1       779 1.19748E+01
 -1       780 1.21404E+01
 -1       781 1.33989E+01
 -1       782 1.22007E+01
 -1       783 1.67373E+01
 -1       784 1.29472E+01
 -1       785 2.04671E+01
 -1       786 2.04671E+01
 -1       787 1.67373E+01
 -1       788 1.88639E+01
 -1       789 1.72890E+01
 -1       790 1.88639E+01
 -1       791 1.92334E+01
 -1       792 2.05949E+01
 -1       793 1.92051E+01
 -1       794 2.46209E+01
 -1       795 2.49081E+01
 -1       796 2.51753E+01
 -1       797 2.49081E+01
 -1       798 2.49081E+01
 -1       799 2.92012E+01
 -1       800 2.33178E+01
 -1       801 2.21536E+01
 -1       802 2.76109E+01
 -1       803 2.55889E+01
 -1       804 1.29593E+01
 -1       805 1.24391E+01
 -1       806 1.29344E+01
 -1       807 1.39175E+01
 -1       808 1.53606E+01
 -1       809 1.66175E+01
 -1       810 1.01850E+01
 -1       811 1.17420E+01
 -1       812 1.70968E+01
 -1       813 1.02022E+01
 -1       814 2.92012E+01
 -1       815 2.92012E+01
 -1       816 2.76109E+01
 -1       817 2.76109E+01
 -1       818 2.60205E+01
 -1       819 1.50885E+01
 -1       820 1.50345E+01
 -1       821 1.59906E+01
 -1       822 1.89996E+01
 -1       823 2.02813E+01
 -1       824 1.88184E+01
 -1       825 1.84783E+01
 -1       826 1.86084E+01
 -1       827 1.76082E+01
 -1       828 1.84783E+01
 -1       829 1.36334E+01
 -1       830 1.31214E+01
 -1       831 1.28869E+01
 -1       832 1.29472E+01
 -1       833 1.31214E+01
 -1       834 2.11494E+01
 -1       835 2.51753E+01
 -1       836 1.72607E+01
 -1       837 1.92051E+01
 -1       838 1.92051E+01
 -1       839 2.26682E+01
 -1       840 2.26056E+01
 -1       841 2.19503E+01
 -1       842 2.10857E+01
 -1       843 2.19503E+01
 -1       844 1.89526E+01
 -1       845 1.91209E+01
 -1       846 1.86016E+01
 -1       847 2.71220E+01
 -1       848 2.25109E+01
 -1       849 2.17873E+01
 -1       850 1.78458E+01
 -1       851 1.86083E+01
 -1       852 2.25590E+01
 -1       853 2.61047E+01
 -1       854 2.74485E+01
 -1       855 2.74922E+01
 -1       856 2.72811E+01
 -1       857 2.72576E+01
 -1       858 2.72597E+01
 -1       859 2.08424E+01
 -1       860 1.72777E+01
 -1       861 1.82761E+01
 -1       862 1.77137E+01
 -1       863 2.47360E+01
 -1       864 1.66148E+01
 -1       865 1.74802E+01
 -1       866 1.64866E+01
 -1       867 2.40367E+01
 -1       868 1.69683E+01
 -1       869 1.85936E+01
 -1       870 2.23321E+01
 -1       871 1.76795E+01
 -1       872 1.82108E+01
 -1       873 2.60489E+01
 -1       874 2.91302E+01
 -1       875 2.74971E+01
 -1       876 2.86096E+01
 -1       877 2.70924E+01
 -1       878 3.06474E+01
 -1       879 2.86096E+01
 -1       880 2.28888E+01
 -1       881 1.88895E+01
 -1       882 1.89382E+01
 -1       883 2.75643E+01
 -1       884 1.92547E+01
 -1       885 1.75985E+01
 -1       886 1.88274E+01
 -1       887 9.99202E+00
 -1       888 1.84141E+01
 -1       889 1.22316E+01
 -1       890 1.30472E+01
 -1       891 1.64286E+01
 -1       892 1.98733E+01
 -1       893 1.99360E+01
 -1       894 1.63795E+01
 -1       895 2.26682E+01
 -1       896 2.04177E+01
 -1       897 2.39898E+01
 -1       898 1.99639E+01
 -1       899 1.63851E+01
 -1       900 2.51753E+01
 -1       901 2.68672E+01
 -1       902 2.65138E+01
 -1       903 2.69225E+01
 -1       904 2.68191E+01
 -1       905 2.68191E+01
 -1       906 2.47360E+01
 -1       907 2.43638E+01
 -1       908 2.49900E+01
 -1       909 2.45774E+01
 -1       910 2.43638E+01
 -1       911 2.33196E+01
 -1       912 2.27309E+01
 -1       913 2.39084E+01
 -1       914 2.33196E+01
 -1       915 2.40367E+01
 -1       916 2.64317E+01
 -1       917 2.60489E+01
 -1       918 2.57512E+01
 -1       919 2.58869E+01
 -1       920 2.58869E+01
 -1       921 2.57002E+01
 -1       922 2.57344E+01
 -1       923 2.56661E+01
 -1       924 2.56661E+01
 -1       925 2.57002E+01
 -1       926 2.68502E+01
 -1       927 1.90124E+01
 -1       928 1.87341E+01
 -1       929 1.15043E+01
 -1       930 1.91108E+01
 -1       931 1.84141E+01
 -1       932 1.53606E+01
 -1       933 1.43881E+01
 -1       934 1.62320E+01
 -1       935 1.58560E+01
 -1       936 1.13653E+01
 -1       937 1.50950E+01
 -1       938 1.55743E+01
 -1       939 1.39711E+01
 -1       940 1.99031E+01
 -1       941 1.93069E+01
 -1       942 2.10569E+01
 -1       943 2.08592E+01
 -1       944 1.67807E+01
 -1       945 1.45999E+01
 -1       946 1.52938E+01
 -1       947 1.69108E+01
 -1       948 1.15988E+01
 -1       949 1.22047E+01
 -1       950 1.17670E+01
 -1       951 1.13643E+01
 -1       952 1.89076E+01
 -1       953 2.26542E+01
 -1       954 2.72597E+01
 -1       955 2.72734E+01
 -1       956 2.74730E+01
 -1       957 1.41106E+01
 -1       958 1.90284E+01
 -1       959 1.57733E+01
 -1       960 1.88367E+01
 -1       961 1.78927E+01
 -1       962 2.14687E+01
 -1       963 2.45774E+01
 -1       964 2.41649E+01
 -1       965 2.41649E+01
 -1       966 1.13049E+01
 -1       967 1.44408E+01
 -1       968 1.50316E+01
 -1       969 1.39711E+01
 -1       970 2.12662E+01
 -1       971 1.72322E+01
 -1       972 1.57219E+01
 -1       973 2.30761E+01
 -1       974 1.06772E+01
 -1       975 1.94421E+01
 -1       976 1.79371E+01
 -1       977 1.30409E+01
 -1       978 1.16409E+01
 -1       979 1.12887E+01
 -1       980 2.62200E+01
 -1       981 2.70005E+01
 -1       982 1.07742E+01
 -1       983 2.57570E+01
 -1       984 2.30156E+01
 -1       985 2.56593E+01
 -1       986 1.05512E+01
 -1       987 2.72240E+01
 -1       988 1.93989E+01
 -1       989 1.10635E+01
 -1       990 2.27556E+01
 -1       991 2.61866E+01
 -1       992 9.38796E+00
 -1       993 1.06500E+01
 -1       994 9.90684E+00
 -1       995 1.82073E+01
 -1       996 1.79465E+01
 -1       997 1.00161E+01
 -1       998 1.82354E+01
 -1       999 9.69237E+00
 -1      1000 2.97149E+01
 -1      1001 1.20267E+01
 -1      1002 9.64940E+00
 -1      1003 2.73099E+01
 -1      1004 2.66606E+01
 -1      1005 2.66606E+01
 -1      1006 2.35437E+01
 -1      1007 1.43339E+01
 -1      1008 2.35176E+01
 -1      1009 8.76425E+00
 -1      1010 1.71452E+01
 -1      1011 2.26364E+01
 -1      1012 1.73169E+01
 -1      1013 1.67876E+01
 -1      1014 2.64157E+01
 -1      1015 2.49849E+01
 -1      1016 2.33278E+01
 -1      1017 2.30156E+01
 -1      1018 1.08016E+01
 -1      1019 1.13176E+01
 -1      1020 1.44999E+01
 -1      1021 2.27556E+01
 -1      1022 1.16647E+01
 -1      1023 1.94287E+01
 -1      1024 1.07829E+01
 -1      1025 1.03593E+01
 -1      1026 1.58795E+01
 -1      1027 9.82296E+00
 -1      1028 2.68112E+01
 -1      1029 2.10395E+01
 -1      1030 2.56593E+01
 -1      1031 1.28022E+01
 -1      1032 1.76320E+01
 -1      1033 9.85057E+00
 -1      1034 2.73630E+01
 -1      1035 2.69828E+01
 -1      1036 1.04222E+01
 -1      1037 1.20260E+01
 -1      1038 1.07774E+01
 -1      1039 2.22081E+01
 -1      1040 1.93989E+01
 -1      1041 1.07742E+01
 -1      1042 2.61866E+01
 -1      1043 2.68112E+01
 -1      1044 8.77596E+00
 -1      1045 1.06596E+01
 -1      1046 1.35506E+01
 -1      1047 1.72117E+01
 -1      1048 1.79371E+01
 -1      1049 2.04992E+01
 -1      1050 1.79255E+01
 -1      1051 1.63218E+01
 -1      1052 1.58795E+01
 -1      1053 1.30409E+01
 -1      1054 2.27556E+01
 -1      1055 2.70005E+01
 -1      1056 2.53843E+01
 -1      1057 2.10395E+01
 -1      1058 2.56593E+01
 -1      1059 2.57570E+01
 -1      1060 2.64157E+01
 -1      1061 1.84908E+01
 -1      1062 1.57219E+01
 -1      1063 2.37415E+01
 -1      1064 2.26364E+01
 -1      1065 2.49849E+01
 -1      1066 9.05235E+00
 -1      1067 2.73099E+01
 -1      1068 1.22253E+01
 -1      1069 2.92877E+01
 -1      1070 9.99457E+00
 -1      1071 2.62930E+01
 -1      1072 1.00073E+01
 -1      1073 2.97149E+01
 -1      1074 2.64468E+01
 -1      1075 2.97271E+01
 -1      1076 1.20267E+01
 -1      1077 1.00073E+01
 -1      1078 1.10166E+01
 -1      1079 8.61051E+00
 -1      1080 2.97149E+01
 -1      1081 2.33388E+01
 -1      1082 2.39520E+01
 -1      1083 2.48322E+01
 -1      1084 2.97271E+01
 -1      1085 2.12719E+01
 -1      1086 2.67819E+01
 -1      1087 1.90164E+01
 -1      1088 2.23100E+01
 -1      1089 2.58194E+01
 -1      1090 2.97149E+01
 -1      1091 2.97149E+01
 -1      1092 1.20260E+01
 -1      1093 1.69749E+01
 -1      1094 2.08705E+01
 -1      1095 1.10166E+01
 -1      1096 1.19057E+01
 -1      1097 1.19356E+01
 -1      1098 1.93361E+01
 -1      1099 1.18363E+01
 -1      1100 1.59820E+01
 -1      1101 1.21260E+01
 -1      1102 2.08769E+01
 -1      1103 2.37384E+01
 -1      1104 2.36708E+01
 -1      1105 2.95013E+01
 -1      1106 2.26390E+01
 -1      1107 2.22599E+01
 -1      1108 2.82559E+01
 -1      1109 2.23028E+01
 -1      1110 2.21230E+01
 -1      1111 2.72669E+01
 -1      1112 2.17984E+01
 -1      1113 2.17773E+01
 -1      1114 2.69853E+01
 -1      1115 2.15570E+01
 -1      1116 2.16094E+01
 -1      1117 2.64403E+01
 -1      1118 2.19050E+01
 -1      1119 2.16862E+01
 -1      1120 2.65156E+01
 -1      1121 2.17808E+01
 -1      1122 2.17985E+01
 -1      1123 2.69058E+01
 -1      1124 2.15061E+01
 -1      1125 2.15826E+01
 -1      1126 2.67081E+01
 -1      1127 2.12044E+01
 -1      1128 2.11476E+01
 -1      1129 2.60375E+01
 -1      1130 2.11476E+01
 -1      1131 2.10033E+01
 -1      1132 2.56593E+01
 -1      1133 2.10521E+01
 -1      1134 2.10845E+01
 -1      1135 2.57082E+01
 -1      1136 2.06984E+01
 -1      1137 2.07860E+01
 -1      1138 2.53710E+01
 -1      1139 1.99575E+01
 -1      1140 1.98736E+01
 -1      1141 2.41564E+01
 -1      1142 1.97175E+01
 -1      1143 1.96981E+01
 -1      1144 2.31717E+01
 -1      1145 1.95681E+01
 -1      1146 1.93568E+01
 -1      1147 2.28856E+01
 -1      1148 1.93568E+01
 -1      1149 1.93622E+01
 -1      1150 2.27556E+01
 -1      1151 1.93026E+01
 -1      1152 1.92414E+01
 -1      1153 2.26960E+01
 -1      1154 1.84429E+01
 -1      1155 1.81336E+01
 -1      1156 2.18379E+01
 -1      1157 1.73349E+01
 -1      1158 1.69971E+01
 -1      1159 2.02408E+01
 -1      1160 1.59345E+01
 -1      1161 1.62497E+01
 -1      1162 1.83795E+01
 -1      1163 1.65598E+01
 -1      1164 1.63248E+01
 -1      1165 1.76270E+01
 -1      1166 1.61723E+01
 -1      1167 1.57150E+01
 -1      1168 1.77846E+01
 -1      1169 1.47600E+01
 -1      1170 1.42793E+01
 -1      1171 1.66770E+01
 -1      1172 1.35853E+01
 -1      1173 1.27394E+01
 -1      1174 1.50279E+01
 -1      1175 1.20929E+01
 -1      1176 1.11228E+01
 -1      1177 1.36874E+01
 -1      1178 1.18523E+01
 -1      1179 1.73813E+01
 -1      1180 1.37704E+01
 -1      1181 2.16694E+01
 -1      1182 2.30761E+01
 -1      1183 1.87880E+01
 -1      1184 1.94778E+01
 -1      1185 1.70592E+01
 -1      1186 1.94778E+01
 -1      1187 1.88337E+01
 -1      1188 2.01871E+01
 -1      1189 1.76541E+01
 -1      1190 2.35661E+01
 -1      1191 2.35661E+01
 -1      1192 2.28076E+01
 -1      1193 2.22446E+01
 -1      1194 2.21792E+01
 -1      1195 2.48651E+01
 -1      1196 2.01068E+01
 -1      1197 1.87861E+01
 -1      1198 2.14713E+01
 -1      1199 2.29228E+01
 -1      1200 8.03737E+00
 -1      1201 8.88245E+00
 -1      1202 1.02792E+01
 -1      1203 7.67476E+00
 -1      1204 7.58649E+00
 -1      1205 1.01003E+01
 -1      1206 1.07742E+01
 -1      1207 8.23717E+00
 -1      1208 1.02118E+01
 -1      1209 8.20026E+00
 -1      1210 1.07742E+01
 -1      1211 1.07742E+01
 -1      1212 1.04222E+01
 -1      1213 8.02424E+00
 -1      1214 1.05982E+01
 -1      1215 1.19897E+01
 -1      1216 1.43147E+01
 -1      1217 1.43147E+01
 -1      1218 8.09115E+00
 -1      1219 8.06573E+00
 -1      1220 1.42833E+01
 -1      1221 1.45092E+01
 -1      1222 1.20292E+01
 -1      1223 1.42973E+01
 -1      1224 1.02377E+01
 -1      1225 1.07829E+01
 -1      1226 1.45092E+01
 -1      1227 7.77018E+00
 -1      1228 9.69237E+00
 -1      1229 1.02377E+01
 -1      1230 8.33827E+00
 -1      1231 8.32479E+00
 -1      1232 1.02470E+01
 -1      1233 1.43619E+01
 -1      1234 1.19107E+01
 -1      1235 1.43740E+01
 -1      1236 8.25994E+00
 -1      1237 1.07774E+01
 -1      1238 1.43619E+01
 -1      1239 9.05235E+00
 -1      1240 7.39744E+00
 -1      1241 9.91485E+00
 -1      1242 1.00161E+01
 -1      1243 9.53422E+00
 -1      1244 9.53422E+00
 -1      1245 1.15395E+01
 -1      1246 1.35806E+01
 -1      1247 1.35806E+01
 -1      1248 8.70665E+00
 -1      1249 8.61127E+00
 -1      1250 1.42169E+01
 -1      1251 1.14330E+01
 -1      1252 1.14561E+01
 -1      1253 1.40381E+01
 -1      1254 7.43105E+00
 -1      1255 7.42135E+00
 -1      1256 1.27759E+01
 -1      1257 9.38149E+00
 -1      1258 7.74291E+00
 -1      1259 9.07610E+00
 -1      1260 8.78375E+00
 -1      1261 1.03463E+01
 -1      1262 1.03528E+01
 -1      1263 9.86490E+00
 -1      1264 8.07839E+00
 -1      1265 1.06122E+01
 -1      1266 8.19315E+00
 -1      1267 9.82296E+00
 -1      1268 9.86490E+00
 -1      1269 8.81342E+00
 -1      1270 8.81342E+00
 -1      1271 1.04432E+01
 -1      1272 1.02503E+01
 -1      1273 8.20695E+00
 -1      1274 1.04570E+01
 -1      1275 1.70838E+01
 -1      1276 1.06500E+01
 -1      1277 1.02503E+01
 -1      1278 2.35176E+01
 -1      1279 2.35176E+01
 -1      1280 1.70838E+01
 -1      1281 1.28022E+01
 -1      1282 1.81599E+01
 -1      1283 1.81599E+01
 -1      1284 1.18126E+01
 -1      1285 1.22215E+01
 -1      1286 1.22215E+01
 -1      1287 1.12034E+01
 -1      1288 1.18245E+01
 -1      1289 1.16528E+01
 -1      1290 1.03359E+01
 -1      1291 1.07097E+01
 -1      1292 1.11709E+01
 -1      1293 1.14057E+01
 -1      1294 9.99457E+00
 -1      1295 1.03359E+01
 -1      1296 1.98608E+01
 -1      1297 1.57219E+01
 -1      1298 1.50279E+01
 -1      1299 1.69769E+01
 -1      1300 1.60218E+01
 -1      1301 1.60218E+01
 -1      1302 1.16379E+01
 -1      1303 1.59260E+01
 -1      1304 1.68678E+01
 -1      1305 1.32695E+01
 -1      1306 9.71777E+00
 -1      1307 1.84319E+01
 -1      1308 1.89256E+01
 -1      1309 2.27928E+01
 -1      1310 1.50380E+01
 -1      1311 1.46967E+01
 -1      1312 1.89664E+01
 -1      1313 1.79038E+01
 -1      1314 2.10395E+01
 -1      1315 2.02408E+01
 -1      1316 1.97651E+01
 -1      1317 1.76270E+01
 -1      1318 1.79371E+01
 -1      1319 1.79313E+01
 -1      1320 1.77788E+01
 -1      1321 1.79313E+01
 -1      1322 1.39422E+01
 -1      1323 1.32957E+01
 -1      1324 1.30409E+01
 -1      1325 1.37704E+01
 -1      1326 1.32957E+01
 -1      1327 1.44382E+01
 -1      1328 1.44263E+01
 -1      1329 1.37602E+01
 -1      1330 1.43408E+01
 -1      1331 1.65456E+01
 -1      1332 1.69625E+01
 -1      1333 1.98908E+01
 -1      1334 1.86434E+01
 -1      1335 1.58939E+01
 -1      1336 2.15678E+01
 -1      1337 2.66606E+01
 -1      1338 2.64403E+01
 -1      1339 2.67359E+01
 -1      1340 2.65156E+01
 -1      1341 2.68112E+01
 -1      1342 2.61924E+01
 -1      1343 2.59000E+01
 -1      1344 2.69058E+01
 -1      1345 2.70005E+01
 -1      1346 2.61924E+01
 -1      1347 1.88785E+01
 -1      1348 1.83161E+01
 -1      1349 1.90420E+01
 -1      1350 2.71463E+01
 -1      1351 1.90420E+01
 -1      1352 2.47493E+01
 -1      1353 2.43632E+01
 -1      1354 2.57082E+01
 -1      1355 2.57570E+01
 -1      1356 2.47493E+01
 -1      1357 2.31717E+01
 -1      1358 2.30156E+01
 -1      1359 2.26119E+01
 -1      1360 2.26119E+01
 -1      1361 2.24818E+01
 -1      1362 2.64157E+01
 -1      1363 2.60375E+01
 -1      1364 2.56593E+01
 -1      1365 2.56593E+01
 -1      1366 2.60375E+01
 -1      1367 1.85062E+01
 -1      1368 1.89571E+01
 -1      1369 2.68280E+01
 -1      1370 1.84221E+01
 -1      1371 1.91595E+01
 -1      1372 1.12886E+01
 -1      1373 2.71034E+01
 -1      1374 2.71463E+01
 -1      1375 2.71729E+01
 -1      1376 2.72935E+01
 -1      1377 2.83254E+01
 -1      1378 2.14713E+01
 -1      1379 1.93989E+01
 -1      1380 1.57128E+01
 -1      1381 1.57128E+01
 -1      1382 1.58121E+01
 -1      1383 1.21260E+01
 -1      1384 1.33927E+01
 -1      1385 1.27725E+01
 -1      1386 1.17006E+01
 -1      1387 1.23071E+01
 -1      1388 1.46363E+01
 -1      1389 2.26960E+01
 -1      1390 2.26364E+01
 -1      1391 2.27556E+01
 -1      1392 2.27556E+01
 -1      1393 2.26960E+01
 -1      1394 2.61866E+01
 -1      1395 2.48651E+01
 -1      1396 1.83202E+01
 -1      1397 2.16992E+01
 -1      1398 2.16992E+01
 -1      1399 1.39394E+01
 -1      1400 1.36275E+01
 -1      1401 1.46273E+01
 -1      1402 1.36625E+01
 -1      1403 1.82139E+01
 -1      1404 1.61468E+01
 -1      1405 9.71299E+00
 -1      1406 1.18454E+01
 -1      1407 1.14457E+01
 -1      1408 1.09084E+01
 -1      1409 1.39162E+01
 -1      1410 1.46215E+01
 -1      1411 1.30724E+01
 -1      1412 1.31143E+01
 -1      1413 1.71236E+01
 -1      1414 1.86799E+01
 -1      1415 2.26039E+01
 -1      1416 2.25093E+01
 -1      1417 1.86167E+01
 -1      1418 2.69058E+01
 -1      1419 2.08440E+01
 -1      1420 1.72715E+01
 -1      1421 1.78811E+01
 -1      1422 2.14657E+01
 -1      1423 2.43632E+01
 -1      1424 1.99504E+01
 -1      1425 1.63858E+01
 -1      1426 2.24818E+01
 -1      1427 1.61121E+01
 -1      1428 1.56302E+01
 -1      1429 1.85993E+01
 -1      1430 2.23255E+01
 -1      1431 2.18099E+01
 -1      1432 1.78718E+01
 -1      1433 2.59000E+01
 -1      1434 1.82793E+01
 -1      1435 1.77247E+01
 -1      1436 1.76758E+01
 -1      1437 1.82211E+01
 -1      1438 2.57082E+01
 -1      1439 2.80040E+01
 -1      1440 2.77903E+01
 -1      1441 2.95013E+01
 -1      1442 1.20267E+01
 -1      1443 1.10106E+01
 -1      1444 1.10106E+01
 -1      1445 2.73099E+01
 -1      1446 2.69853E+01
 -1      1447 2.69853E+01
 -1      1448 1.87174E+01
 -1      1449 1.85414E+01
 -1      1450 1.17309E+01
 -1      1451 1.70886E+01
 -1      1452 1.49019E+01
 -1      1453 1.89135E+01
 -1      1454 2.15678E+01
 -1      1455 2.07693E+01
 -1      1456 2.07693E+01
 -1      1457 2.49849E+01
 -1      1458 2.41564E+01
 -1      1459 2.40003E+01
 -1      1460 1.68965E+01
 -1      1461 1.60340E+01
 -1      1462 1.58795E+01
 -1      1463 1.76541E+01
 -1      1464 1.32695E+01
 -1      1465 1.19791E+01
 -1      1466 1.25866E+01
 -1      1467 2.30761E+01
 -1      1468 1.20681E+01
 -1      1469 1.08517E+01
 -1      1470 1.22512E+01
 -1      1471 1.11222E+01
 -1      1472 1.85752E+01
 -1      1473 1.06173E+01
 -1      1474 1.90328E+01
 -1      1475 1.73661E+01
 -1      1476 9.05381E+00
 -1      1477 1.03186E+01
 -1      1478 1.98493E+01
 -1      1479 1.51113E+01
 -1      1480 1.24709E+01
 -1      1481 1.92897E+01
 -1      1482 1.70016E+01
 -1      1483 2.14577E+01
 -1      1484 1.60878E+01
 -1      1485 1.87616E+01
 -1      1486 1.90545E+01
 -1      1487 1.78001E+01
 -1      1488 1.37494E+01
 -1      1489 2.90081E+01
 -1      1490 1.44999E+01
 -1      1491 1.16825E+01
 -1      1492 1.01604E+01
 -1      1493 1.86569E+01
 -1      1494 1.96611E+01
 -1      1495 2.12660E+01
 -1      1496 2.35437E+01
 -1      1497 1.69411E+01
 -1      1498 1.08517E+01
 -1      1499 1.46323E+01
 -1      1500 2.35121E+01
 -1      1501 1.28367E+01
 -1      1502 1.80879E+01
 -1      1503 9.84092E+00
 -1      1504 1.71566E+01
 -1      1505 1.82388E+01
 -1      1506 1.08179E+01
 -1      1507 2.30761E+01
 -1      1508 1.85414E+01
 -1      1509 1.89782E+01
 -1      1510 9.27643E+00
 -1      1511 1.46847E+01
 -1      1512 1.91048E+01
 -1      1513 1.63652E+01
 -1      1514 1.89596E+01
 -1      1515 1.94448E+01
 -1      1516 1.86140E+01
 -1      1517 1.03401E+01
 -1      1518 1.03356E+01
 -1      1519 1.16825E+01
 -1      1520 1.02259E+01
 -1      1521 1.78054E+01
 -1      1522 1.47681E+01
 -1      1523 1.23871E+01
 -1      1524 1.37980E+01
 -1      1525 1.97819E+01
 -1      1526 9.97322E+00
 -1      1527 1.32654E+01
 -1      1528 1.63137E+01
 -1      1529 1.56949E+01
 -1      1530 1.76127E+01
 -1      1531 1.75830E+01
 -1      1532 1.84148E+01
 -1      1533 1.96098E+01
 -1      1534 1.62184E+01
 -1      1535 1.49185E+01
 -1      1536 1.96447E+01
 -1      1537 2.02714E+01
 -1      1538 1.23871E+01
 -1      1539 1.19685E+01
 -1      1540 1.22512E+01
 -1      1541 1.99090E+01
 -1      1542 1.79445E+01
 -1      1543 1.85752E+01
 -1      1544 1.69411E+01
 -1      1545 1.52552E+01
 -1      1546 2.03230E+01
 -1      1547 1.79445E+01
 -1      1548 1.27629E+01
 -1      1549 1.85414E+01
 -1      1550 1.44927E+01
 -1      1551 1.95173E+01
 -1      1552 1.86200E+01
 -1      1553 1.76987E+01
 -1      1554 1.35009E+01
 -1      1555 1.87954E+01
 -1      1556 1.44387E+01
 -1      1557 1.49387E+01
 -1      1558 1.79562E+01
 -1      1559 1.86329E+01
 -1      1560 1.97375E+01
 -1      1561 2.72265E+01
 -1      1562 1.09352E+01
 -1      1563 1.35021E+01
 -1      1564 2.05448E+01
 -1      1565 1.30099E+01
 -1      1566 9.33413E+00
 -1      1567 2.71169E+01
 -1      1568 2.95494E+01
 -1      1569 1.39041E+01
 -1      1570 1.01491E+01
 -1      1571 9.71869E+00
 -1      1572 8.28036E+00
 -1      1573 1.49862E+01
 -1      1574 1.20660E+01
 -1      1575 1.55995E+01
 -1      1576 2.95494E+01
 -1      1577 2.93676E+01
 -1      1578 2.12061E+01
 -1      1579 2.71717E+01
 -1      1580 2.71169E+01
 -1      1581 2.26451E+01
 -1      1582 1.27173E+01
 -1      1583 1.23568E+01
 -1      1584 1.15418E+01
 -1      1585 1.21938E+01
 -1      1586 1.24753E+01
 -1      1587 1.35074E+01
 -1      1588 1.31377E+01
 -1      1589 2.90970E+01
 -1      1590 2.90081E+01
 -1      1591 2.92788E+01
 -1      1592 2.81173E+01
 -1      1593 2.72265E+01
 -1      1594 2.81173E+01
 -1      1595 2.71717E+01
 -1      1596 9.08088E+00
 -1      1597 8.23997E+00
 -1      1598 1.01346E+01
 -1      1599 7.75900E+00
 -1      1600 7.81583E+00
 -1      1601 1.04542E+01
 -1      1602 1.23456E+01
 -1      1603 1.49008E+01
 -1      1604 1.45030E+01
 -1      1605 1.05544E+01
 -1      1606 8.02251E+00
 -1      1607 1.46864E+01
 -1      1608 7.93267E+00
 -1      1609 1.02963E+01
 -1      1610 1.02502E+01
 -1      1611 1.46959E+01
 -1      1612 1.23658E+01
 -1      1613 1.45600E+01
 -1      1614 8.19468E+00
 -1      1615 8.21956E+00
 -1      1616 1.47884E+01
 -1      1617 1.24000E+01
 -1      1618 1.48669E+01
 -1      1619 1.47978E+01
 -1      1620 1.05371E+01
 -1      1621 1.00058E+01
 -1      1622 1.46484E+01
 -1      1623 9.48472E+00
 -1      1624 7.56596E+00
 -1      1625 9.79752E+00
 -1      1626 8.33669E+00
 -1      1627 8.36175E+00
 -1      1628 1.00472E+01
 -1      1629 1.23336E+01
 -1      1630 1.47786E+01
 -1      1631 1.47897E+01
 -1      1632 1.05656E+01
 -1      1633 8.09207E+00
 -1      1634 1.45486E+01
 -1      1635 7.45117E+00
 -1      1636 9.05928E+00
 -1      1637 9.69471E+00
 -1      1638 9.45283E+00
 -1      1639 9.93451E+00
 -1      1640 9.44736E+00
 -1      1641 1.40580E+01
 -1      1642 1.20362E+01
 -1      1643 1.39644E+01
 -1      1644 8.55333E+00
 -1      1645 8.61225E+00
 -1      1646 1.46051E+01
 -1      1647 1.19538E+01
 -1      1648 1.42877E+01
 -1      1649 1.44638E+01
 -1      1650 1.08109E+01
 -1      1651 8.49490E+00
 -1      1652 1.43286E+01
 -1      1653 8.49490E+00
 -1      1654 1.01574E+01
 -1      1655 1.08517E+01
 -1      1656 1.32021E+01
 -1      1657 1.16489E+01
 -1      1658 1.38964E+01
 -1      1659 9.16784E+00
 -1      1660 1.10278E+01
 -1      1661 1.44601E+01
 -1      1662 1.01512E+01
 -1      1663 8.46824E+00
 -1      1664 1.11025E+01
 -1      1665 9.19656E+00
 -1      1666 9.12539E+00
 -1      1667 1.09542E+01
 -1      1668 9.12539E+00
 -1      1669 1.11648E+01
 -1      1670 1.16825E+01
 -1      1671 1.16169E+01
 -1      1672 1.80493E+01
 -1      1673 1.21346E+01
 -1      1674 2.35121E+01
 -1      1675 2.35121E+01
 -1      1676 1.80493E+01
 -1      1677 1.91401E+01
 -1      1678 1.37853E+01
 -1      1679 1.91401E+01
 -1      1680 1.26367E+01
 -1      1681 1.23531E+01
 -1      1682 1.36195E+01
 -1      1683 1.56701E+01
 -1      1684 1.32274E+01
 -1      1685 1.57879E+01
 -1      1686 9.70903E+00
 -1      1687 1.04351E+01
 -1      1688 1.55864E+01
 -1      1689 1.11521E+01
 -1      1690 1.31824E+01
 -1      1691 1.27851E+01
 -1      1692 2.15258E+01
 -1      1693 1.89516E+01
 -1      1694 1.90192E+01
 -1      1695 1.64296E+01
 -1      1696 1.84784E+01
 -1      1697 1.88575E+01
 -1      1698 1.97552E+01
 -1      1699 1.77965E+01
 -1      1700 1.79763E+01
 -1      1701 1.91590E+01
 -1      1702 1.77540E+01
 -1      1703 1.77751E+01
 -1      1704 1.86354E+01
 -1      1705 1.77870E+01
 -1      1706 1.77346E+01
 -1      1707 1.85946E+01
 -1      1708 1.70721E+01
 -1      1709 1.72909E+01
 -1      1710 1.80791E+01
 -1      1711 1.71047E+01
 -1      1712 1.70869E+01
 -1      1713 1.75979E+01
 -1      1714 1.79020E+01
 -1      1715 1.78255E+01
 -1      1716 1.83336E+01
 -1      1717 1.75254E+01
 -1      1718 1.75822E+01
 -1      1719 1.87346E+01
 -1      1720 1.71517E+01
 -1      1721 1.72961E+01
 -1      1722 1.81855E+01
 -1      1723 1.68890E+01
 -1      1724 1.68567E+01
 -1      1725 1.76611E+01
 -1      1726 1.75643E+01
 -1      1727 1.74767E+01
 -1      1728 1.79537E+01
 -1      1729 1.71098E+01
 -1      1730 1.71936E+01
 -1      1731 1.81707E+01
 -1      1732 1.75880E+01
 -1      1733 1.76074E+01
 -1      1734 1.82977E+01
 -1      1735 1.60882E+01
 -1      1736 1.62995E+01
 -1      1737 1.75069E+01
 -1      1738 1.64852E+01
 -1      1739 1.64799E+01
 -1      1740 1.66100E+01
 -1      1741 1.61058E+01
 -1      1742 1.61670E+01
 -1      1743 1.66834E+01
 -1      1744 1.56577E+01
 -1      1745 1.59671E+01
 -1      1746 1.62265E+01
 -1      1747 1.54329E+01
 -1      1748 1.57707E+01
 -1      1749 1.62007E+01
 -1      1750 1.54387E+01
 -1      1751 1.51235E+01
 -1      1752 1.60043E+01
 -1      1753 1.49120E+01
 -1      1754 1.51469E+01
 -1      1755 1.54031E+01
 -1      1756 1.37980E+01
 -1      1757 1.42553E+01
 -1      1758 1.44546E+01
 -1      1759 1.28367E+01
 -1      1760 1.33173E+01
 -1      1761 1.33173E+01
 -1      1762 1.16981E+01
 -1      1763 1.25439E+01
 -1      1764 1.25439E+01
 -1      1765 1.07959E+01
 -1      1766 1.17660E+01
 -1      1767 1.23192E+01
 -1      1768 1.73813E+01
 -1      1769 1.18523E+01
 -1      1770 1.34435E+01
 -1      1771 2.30761E+01
 -1      1772 2.16694E+01
 -1      1773 1.87880E+01
 -1      1774 2.06575E+01
 -1      1775 2.30761E+01
 -1      1776 2.30761E+01
 -1      1777 1.95922E+01
 -1      1778 1.82388E+01
 -1      1779 2.06575E+01
 -1      1780 2.12016E+01
 -1      1781 2.12016E+01
 -1      1782 1.98482E+01
 -1      1783 2.21792E+01
 -1      1784 2.22446E+01
 -1      1785 2.25007E+01
 -1      1786 1.87315E+01
 -1      1787 2.00522E+01
 -1      1788 2.14167E+01
 -1      1789 2.32033E+01
 -1      1790 1.69411E+01
 -1      1791 1.44601E+01
 -1      1792 1.23710E+01
 -1      1793 1.14944E+01
 -1      1794 1.48520E+01
 -1      1795 1.52655E+01
 -1      1796 2.07283E+01
 -1      1797 1.20348E+01
 -1      1798 1.24869E+01
 -1      1799 1.51658E+01
 -1      1800 1.63658E+01
 -1      1801 1.87844E+01
 -1      1802 2.05103E+01
 -1      1803 2.05103E+01
 -1      1804 1.62186E+01
 -1      1805 1.96881E+01
 -1      1806 1.61698E+01
 -1      1807 1.58564E+01
 -1      1808 1.99581E+01
 -1      1809 1.65734E+01
 -1      1810 1.27420E+01
 -1      1811 1.27420E+01
 -1      1812 1.42752E+01
 -1      1813 1.61655E+01
 -1      1814 1.77521E+01
 -1      1815 1.22512E+01
 -1      1816 1.25439E+01
 -1      1817 1.21778E+01
 -1      1818 1.21098E+01
 -1      1819 1.21098E+01
 -1      1820 1.83540E+01
 -1      1821 1.48711E+01
 -1      1822 1.48487E+01
 -1      1823 1.81903E+01
 -1      1824 1.85976E+01
 -1      1825 1.69152E+01
 -1      1826 1.69346E+01
 -1      1827 1.62608E+01
 -1      1828 1.67569E+01
 -1      1829 1.50969E+01
 -1      1830 1.51774E+01
 -1      1831 1.93579E+01
 -1      1832 1.92022E+01
 -1      1833 1.50311E+01
 -1      1834 1.95912E+01
 -1      1835 1.96779E+01
 -1      1836 1.53315E+01
 -1      1837 1.94073E+01
 -1      1838 1.48775E+01
 -1      1839 2.00524E+01
 -1      1840 1.90294E+01
 -1      1841 1.84417E+01
 -1      1842 1.61423E+01
 -1      1843 1.72179E+01
 -1      1844 1.64373E+01
 -1      1845 1.31052E+01
 -1      1846 1.34987E+01
 -1      1847 1.43318E+01
 -1      1848 1.83832E+01
 -1      1849 1.49727E+01
 -1      1850 1.88056E+01
 -1      1851 1.44757E+01
 -1      1852 1.25017E+01
 -1      1853 1.19806E+01
 -1      1854 1.66588E+01
 -1      1855 2.04635E+01
 -1      1856 2.05576E+01
 -1      1857 2.09054E+01
 -1      1858 2.01971E+01
 -1      1859 1.65574E+01
 -1      1860 1.69051E+01
 -1      1861 1.53695E+01
 -1      1862 1.60262E+01
 -1      1863 1.43061E+01
 -1      1864 1.45979E+01
 -1      1865 1.52210E+01
 -1      1866 1.61900E+01
 -1      1867 1.95069E+01
 -1      1868 1.46304E+01
 -1      1869 1.34818E+01
 -1      1870 1.72008E+01
 -1      1871 1.94672E+01
 -1      1872 2.15942E+01
 -1      1873 1.65969E+01
 -1      1874 1.67744E+01
 -1      1875 2.32581E+01
 -1      1876 2.05653E+01
 -1      1877 1.74926E+01
 -1      1878 1.78108E+01
 -1      1879 1.57201E+01
 -1      1880 1.53285E+01
 -1      1881 1.65294E+01
 -1      1882 2.19076E+01
 -1      1883 2.08646E+01
 -1      1884 2.06833E+01
 -1      1885 1.90739E+01
 -1      1886 2.00902E+01
 -1      1887 1.73315E+01
 -1      1888 1.74702E+01
 -1      1889 1.70062E+01
 -1      1890 1.68933E+01
 -1      1891 1.81370E+01
 -1      1892 1.51676E+01
 -1      1893 1.91394E+01
 -1      1894 1.86515E+01
 -1      1895 1.44385E+01
 -1      1896 1.90294E+01
 -1      1897 1.93960E+01
 -1      1898 1.86751E+01
 -1      1899 1.85238E+01
 -1      1900 1.88437E+01
 -1      1901 1.91852E+01
 -1      1902 1.81707E+01
 -1      1903 1.85414E+01
 -1      1904 1.87049E+01
 -1      1905 1.90756E+01
 -1      1906 1.92026E+01
 -1      1907 1.71471E+01
 -1      1908 1.23423E+01
 -1      1909 1.57400E+01
 -1      1910 2.14561E+01
 -1      1911 2.12551E+01
 -1      1912 1.37031E+01
 -1      1913 2.05103E+01
 -1      1914 1.62222E+01
 -1      1915 1.34435E+01
 -1      1916 1.23871E+01
 -1      1917 1.18255E+01
 -1      1918 1.18255E+01
 -1      1919 1.12385E+01
 -1      1920 1.19669E+01
 -1      1921 1.25495E+01
 -1      1922 1.69491E+01
 -1      1923 1.27976E+01
 -1      1924 1.27078E+01
 -1      1925 1.92194E+01
 -1      1926 1.97215E+01
 -1      1927 1.94685E+01
 -1      1928 1.94899E+01
 -1      1929 2.05239E+01
 -1      1930 1.56196E+01
 -1      1931 1.61006E+01
 -1      1932 1.21763E+01
 -1      1933 1.52210E+01
 -1      1934 1.40666E+01
 -1      1935 1.54730E+01
 -1      1936 1.51636E+01
 -1      1937 2.07283E+01
 -1      1938 1.63563E+01
 -1      1939 1.79445E+01
 -1      1940 1.27998E+01
 -1      1941 1.32804E+01
 -1      1942 1.25071E+01
 -1      1943 1.21398E+01
 -1      1944 1.62633E+01
 -1      1945 1.57976E+01
 -1      1946 1.79760E+01
 -1      1947 1.66875E+01
 -1      1948 1.20974E+01
 -1      1949 1.28682E+01
 -1      1950 1.48016E+01
 -1      1951 1.65497E+01
 -1      1952 1.63204E+01
 -1      1953 1.71917E+01
 -1      1954 1.85288E+01
 -1      1955 1.85139E+01
 -1      1956 1.77891E+01
 -1      1957 1.21778E+01
 -1      1958 1.36427E+01
 -1      1959 1.30076E+01
 -1      1960 1.47411E+01
 -1      1961 2.06150E+01
 -1      1962 1.65263E+01
 -1      1963 1.16974E+01
 -1      1964 1.63201E+01
 -1      1965 1.01912E+01
 -1      1966 1.83770E+01
 -1      1967 1.78717E+01
 -1      1968 1.08016E+01
 -1      1969 9.03642E+00
 -1      1970 1.03435E+01
 -1      1971 1.06024E+01
 -1      1972 1.15071E+01
 -1      1973 1.73174E+01
 -1      1974 1.26623E+01
 -1      1975 1.80743E+01
 -1      1976 1.21175E+01
 -1      1977 1.78704E+01
 -1      1978 1.85468E+01
 -1      1979 1.74793E+01
 -1      1980 1.79765E+01
 -1      1981 1.37181E+01
 -1      1982 2.54115E+01
 -1      1983 1.25154E+01
 -1      1984 1.22748E+01
 -1      1985 1.06071E+01
 -1      1986 1.80983E+01
 -1      1987 1.04444E+01
 -1      1988 9.72656E+00
 -1      1989 1.87241E+01
 -1      1990 1.06772E+01
 -1      1991 1.44556E+01
 -1      1992 1.55561E+01
 -1      1993 1.65263E+01
 -1      1994 2.04671E+01
 -1      1995 1.59754E+01
 -1      1996 9.86787E+00
 -1      1997 1.21175E+01
 -1      1998 2.35176E+01
 -1      1999 1.73911E+01
 -1      2000 1.87691E+01
 -1      2001 1.03186E+01
 -1      2002 1.45249E+01
 -1      2003 1.91219E+01
 -1      2004 1.72617E+01
 -1      2005 2.15196E+01
 -1      2006 9.83495E+00
 -1      2007 1.89855E+01
 -1      2008 1.12887E+01
 -1      2009 1.75819E+01
 -1      2010 1.03771E+01
 -1      2011 1.76340E+01
 -1      2012 1.89764E+01
 -1      2013 1.24510E+01
 -1      2014 9.27584E+00
 -1      2015 1.20459E+01
 -1      2016 1.59502E+01
 -1      2017 1.25013E+01
 -1      2018 1.16974E+01
 -1      2019 1.14745E+01
 -1      2020 2.03044E+01
 -1      2021 1.68692E+01
 -1      2022 1.23485E+01
 -1      2023 1.01934E+01
 -1      2024 9.38796E+00
 -1      2025 1.47169E+01
 -1      2026 1.64700E+01
 -1      2027 1.43693E+01
 -1      2028 2.00803E+01
 -1      2029 1.24510E+01
 -1      2030 1.19237E+01
 -1      2031 1.22748E+01
 -1      2032 1.46041E+01
 -1      2033 1.80635E+01
 -1      2034 1.86810E+01
 -1      2035 1.55722E+01
 -1      2036 1.44865E+01
 -1      2037 1.99238E+01
 -1      2038 1.95006E+01
 -1      2039 1.78696E+01
 -1      2040 1.85658E+01
 -1      2041 1.80635E+01
 -1      2042 1.97263E+01
 -1      2043 1.17639E+01
 -1      2044 1.49238E+01
 -1      2045 1.47834E+01
 -1      2046 1.86390E+01
 -1      2047 1.27957E+01
 -1      2048 1.95184E+01
 -1      2049 1.86111E+01
 -1      2050 1.63987E+01
 -1      2051 1.77885E+01
 -1      2052 1.58637E+01
 -1      2053 1.85468E+01
 -1      2054 2.84095E+01
 -1      2055 1.97557E+01
 -1      2056 1.82867E+01
 -1      2057 1.80063E+01
 -1      2058 9.70997E+00
 -1      2059 1.31470E+01
 -1      2060 2.97271E+01
 -1      2061 2.75318E+01
 -1      2062 1.38615E+01
 -1      2063 1.52064E+01
 -1      2064 1.28076E+01
 -1      2065 1.56734E+01
 -1      2066 9.70997E+00
 -1      2067 9.85862E+00
 -1      2068 8.46186E+00
 -1      2069 2.75318E+01
 -1      2070 2.75318E+01
 -1      2071 2.29092E+01
 -1      2072 2.97271E+01
 -1      2073 2.94382E+01
 -1      2074 2.12719E+01
 -1      2075 1.30931E+01
 -1      2076 1.30931E+01
 -1      2077 1.34326E+01
 -1      2078 1.24083E+01
 -1      2079 1.10293E+01
 -1      2080 1.30333E+01
 -1      2081 1.10293E+01
 -1      2082 2.69105E+01
 -1      2083 2.64717E+01
 -1      2084 2.64717E+01
 -1      2085 2.87793E+01
 -1      2086 2.84095E+01
 -1      2087 2.69105E+01
 -1      2088 2.90683E+01
 -1      2089 1.89116E+01
 -1      2090 1.89778E+01
 -1      2091 1.64514E+01
 -1      2092 1.70092E+01
 -1      2093 1.74684E+01
 -1      2094 1.83125E+01
 -1      2095 1.72771E+01
 -1      2096 1.75105E+01
 -1      2097 1.73704E+01
 -1      2098 1.71380E+01
 -1      2099 1.71583E+01
 -1      2100 1.77528E+01
 -1      2101 1.73854E+01
 -1      2102 1.73702E+01
 -1      2103 1.78662E+01
 -1      2104 1.72031E+01
 -1      2105 1.71272E+01
 -1      2106 1.78401E+01
 -1      2107 1.74856E+01
 -1      2108 1.76007E+01
 -1      2109 1.79794E+01
 -1      2110 1.80586E+01
 -1      2111 1.78580E+01
 -1      2112 1.87495E+01
 -1      2113 1.69564E+01
 -1      2114 1.71285E+01
 -1      2115 1.81918E+01
 -1      2116 1.71906E+01
 -1      2117 1.73138E+01
 -1      2118 1.76191E+01
 -1      2119 1.69132E+01
 -1      2120 1.68979E+01
 -1      2121 1.76838E+01
 -1      2122 1.75330E+01
 -1      2123 1.74911E+01
 -1      2124 1.79689E+01
 -1      2125 1.62087E+01
 -1      2126 1.64946E+01
 -1      2127 1.75084E+01
 -1      2128 1.58637E+01
 -1      2129 1.59055E+01
 -1      2130 1.61669E+01
 -1      2131 1.68855E+01
 -1      2132 1.66715E+01
 -1      2133 1.66715E+01
 -1      2134 1.59754E+01
 -1      2135 1.61336E+01
 -1      2136 1.67273E+01
 -1      2137 1.60691E+01
 -1      2138 1.61477E+01
 -1      2139 1.61477E+01
 -1      2140 1.57835E+01
 -1      2141 1.58841E+01
 -1      2142 1.61352E+01
 -1      2143 1.56568E+01
 -1      2144 1.60716E+01
 -1      2145 1.62383E+01
 -1      2146 1.55561E+01
 -1      2147 1.51718E+01
 -1      2148 1.60412E+01
 -1      2149 1.44556E+01
 -1      2150 1.50059E+01
 -1      2151 1.50059E+01
 -1      2152 1.36427E+01
 -1      2153 1.40492E+01
 -1      2154 1.40492E+01
 -1      2155 1.20459E+01
 -1      2156 1.28443E+01
 -1      2157 1.28443E+01
 -1      2158 1.16687E+01
 -1      2159 1.21604E+01
 -1      2160 1.21604E+01
 -1      2161 1.19224E+01
 -1      2162 1.17568E+01
 -1      2163 1.23629E+01
 -1      2164 1.67373E+01
 -1      2165 1.22007E+01
 -1      2166 1.27293E+01
 -1      2167 2.04671E+01
 -1      2168 2.04671E+01
 -1      2169 1.67373E+01
 -1      2170 1.49093E+01
 -1      2171 1.64842E+01
 -1      2172 1.64842E+01
 -1      2173 1.86789E+01
 -1      2174 1.73174E+01
 -1      2175 1.49093E+01
 -1      2176 2.10673E+01
 -1      2177 2.07801E+01
 -1      2178 1.94185E+01
 -1      2179 2.06150E+01
 -1      2180 2.06150E+01
 -1      2181 2.10673E+01
 -1      2182 1.82867E+01
 -1      2183 1.94508E+01
 -1      2184 1.94508E+01
 -1      2185 2.29092E+01
 -1      2186 8.90807E+00
 -1      2187 8.06299E+00
 -1      2188 1.01562E+01
 -1      2189 7.62507E+00
 -1      2190 7.71334E+00
 -1      2191 1.01645E+01
 -1      2192 8.07224E+00
 -1      2193 1.06093E+01
 -1      2194 1.00855E+01
 -1      2195 1.05756E+01
 -1      2196 8.00168E+00
 -1      2197 1.04107E+01
 -1      2198 7.90877E+00
 -1      2199 1.03067E+01
 -1      2200 1.02841E+01
 -1      2201 1.46993E+01
 -1      2202 1.23743E+01
 -1      2203 1.45838E+01
 -1      2204 8.18965E+00
 -1      2205 8.21508E+00
 -1      2206 1.47918E+01
 -1      2207 1.24042E+01
 -1      2208 1.48842E+01
 -1      2209 1.47963E+01
 -1      2210 1.05632E+01
 -1      2211 1.00180E+01
 -1      2212 1.46645E+01
 -1      2213 9.48410E+00
 -1      2214 7.56191E+00
 -1      2215 9.80969E+00
 -1      2216 8.32479E+00
 -1      2217 8.33827E+00
 -1      2218 1.00387E+01
 -1      2219 1.23220E+01
 -1      2220 1.47732E+01
 -1      2221 1.47854E+01
 -1      2222 1.05480E+01
 -1      2223 8.03059E+00
 -1      2224 1.45439E+01
 -1      2225 7.38948E+00
 -1      2226 9.04439E+00
 -1      2227 9.67754E+00
 -1      2228 9.44365E+00
 -1      2229 9.92553E+00
 -1      2230 9.43569E+00
 -1      2231 1.40452E+01
 -1      2232 1.20041E+01
 -1      2233 1.39546E+01
 -1      2234 8.61127E+00
 -1      2235 8.70665E+00
 -1      2236 1.46815E+01
 -1      2237 1.19975E+01
 -1      2238 1.19744E+01
 -1      2239 1.45795E+01
 -1      2240 8.13591E+00
 -1      2241 8.14562E+00
 -1      2242 1.40319E+01
 -1      2243 7.74291E+00
 -1      2244 9.38149E+00
 -1      2245 9.79067E+00
 -1      2246 1.04411E+01
 -1      2247 8.87852E+00
 -1      2248 1.04475E+01
 -1      2249 8.86224E+00
 -1      2250 1.06487E+01
 -1      2251 1.14908E+01
 -1      2252 9.84542E+00
 -1      2253 8.21560E+00
 -1      2254 1.06712E+01
 -1      2255 9.13035E+00
 -1      2256 9.13035E+00
 -1      2257 1.07826E+01
 -1      2258 9.13035E+00
 -1      2259 1.11737E+01
 -1      2260 1.16974E+01
 -1      2261 1.15827E+01
 -1      2262 1.80165E+01
 -1      2263 1.21064E+01
 -1      2264 2.35176E+01
 -1      2265 2.35176E+01
 -1      2266 1.80165E+01
 -1      2267 1.91294E+01
 -1      2268 1.37716E+01
 -1      2269 1.91294E+01
 -1      2270 1.24599E+01
 -1      2271 1.20510E+01
 -1      2272 1.34293E+01
 -1      2273 1.20510E+01
 -1      2274 1.14299E+01
 -1      2275 1.21175E+01
 -1      2276 1.07097E+01
 -1      2277 1.03359E+01
 -1      2278 1.13974E+01
 -1      2279 1.13284E+01
 -1      2280 1.27395E+01
 -1      2281 1.16698E+01
 -1      2282 2.11947E+01
 -1      2283 1.46075E+01
 -1      2284 1.50139E+01
 -1      2285 1.19049E+01
 -1      2286 1.27033E+01
 -1      2287 1.36681E+01
 -1      2288 1.92653E+01
 -1      2289 1.55355E+01
 -1      2290 1.27293E+01
 -1      2291 1.24510E+01
 -1      2292 1.52573E+01
 -1      2293 1.37684E+01
 -1      2294 1.24566E+01
 -1      2295 2.07906E+01
 -1      2296 1.64023E+01
 -1      2297 1.54296E+01
 -1      2298 2.03476E+01
 -1      2299 2.08000E+01
 -1      2300 1.72248E+01
 -1      2301 1.74921E+01
 -1      2302 1.63280E+01
 -1      2303 1.60412E+01
 -1      2304 1.65263E+01
 -1      2305 1.64625E+01
 -1      2306 1.64625E+01
 -1      2307 1.61745E+01
 -1      2308 1.10714E+01
 -1      2309 1.19861E+01
 -1      2310 1.18106E+01
 -1      2311 1.18106E+01
 -1      2312 1.20993E+01
 -1      2313 1.74656E+01
 -1      2314 1.72932E+01
 -1      2315 1.73156E+01
 -1      2316 1.75005E+01
 -1      2317 1.86460E+01
 -1      2318 1.41233E+01
 -1      2319 1.40304E+01
 -1      2320 1.48459E+01
 -1      2321 1.92385E+01
 -1      2322 1.86851E+01
 -1      2323 1.94241E+01
 -1      2324 1.90516E+01
 -1      2325 1.91504E+01
 -1      2326 1.87528E+01
 -1      2327 1.98250E+01
 -1      2328 1.80999E+01
 -1      2329 1.82187E+01
 -1      2330 1.85868E+01
 -1      2331 1.90880E+01
 -1      2332 1.94351E+01
 -1      2333 1.51600E+01
 -1      2334 1.91438E+01
 -1      2335 1.20998E+01
 -1      2336 1.28627E+01
 -1      2337 1.72211E+01
 -1      2338 1.24218E+01
 -1      2339 1.17806E+01
 -1      2340 1.46209E+01
 -1      2341 1.18767E+01
 -1      2342 1.22759E+01
 -1      2343 1.88122E+01
 -1      2344 1.44913E+01
 -1      2345 1.25634E+01
 -1      2346 1.20296E+01
 -1      2347 1.67112E+01
 -1      2348 1.46632E+01
 -1      2349 1.42253E+01
 -1      2350 1.43044E+01
 -1      2351 1.83652E+01
 -1      2352 1.51774E+01
 -1      2353 1.14755E+01
 -1      2354 1.35397E+01
 -1      2355 1.35234E+01
 -1      2356 1.35882E+01
 -1      2357 1.46478E+01
 -1      2358 1.66804E+01
 -1      2359 1.80619E+01
 -1      2360 1.59607E+01
 -1      2361 1.50565E+01
 -1      2362 1.26485E+01
 -1      2363 1.36999E+01
 -1      2364 1.25232E+01
 -1      2365 1.35158E+01
 -1      2366 1.41154E+01
 -1      2367 1.32619E+01
 -1      2368 2.05359E+01
 -1      2369 2.11355E+01
 -1      2370 1.21607E+01
 -1      2371 1.62804E+01
 -1      2372 1.83427E+01
 -1      2373 1.49499E+01
 -1      2374 1.65488E+01
 -1      2375 1.60989E+01
 -1      2376 1.53788E+01
 -1      2377 1.33608E+01
 -1      2378 1.33608E+01
 -1      2379 1.73422E+01
 -1      2380 1.49848E+01
 -1      2381 1.82757E+01
 -1      2382 1.71346E+01
 -1      2383 1.32960E+01
 -1      2384 1.75398E+01
 -1      2385 1.90326E+01
 -1      2386 1.84547E+01
 -1      2387 1.75084E+01
 -1      2388 1.85468E+01
 -1      2389 1.90326E+01
 -1      2390 1.52310E+01
 -1      2391 1.59829E+01
 -1      2392 1.46017E+01
 -1      2393 1.60981E+01
 -1      2394 1.52903E+01
 -1      2395 1.61574E+01
 -1      2396 1.64501E+01
 -1      2397 1.63799E+01
 -1      2398 1.60225E+01
 -1      2399 1.48536E+01
 -1      2400 1.58622E+01
 -1      2401 1.88810E+01
 -1      2402 1.67369E+01
 -1      2403 1.96365E+01
 -1      2404 2.18491E+01
 -1      2405 1.60741E+01
 -1      2406 1.52895E+01
 -1      2407 2.07906E+01
 -1      2408 1.20742E+01
 -1      2409 1.24832E+01
 -1      2410 1.21874E+01
 -1      2411 1.20993E+01
 -1      2412 1.22748E+01
 -1      2413 1.21604E+01
 -1      2414 1.51667E+01
 -1      2415 1.93559E+01
 -1      2416 1.94501E+01
 -1      2417 1.52655E+01
 -1      2418 1.85412E+01
 -1      2419 1.87995E+01
 -1      2420 1.79839E+01
 -1      2421 1.77518E+01
 -1      2422 1.50155E+01
 -1      2423 1.53744E+01
 -1      2424 1.45051E+01
 -1      2425 1.44714E+01
 -1      2426 1.95142E+01
 -1      2427 1.77966E+01
 -1      2428 1.92399E+01
 -1      2429 1.61220E+01
 -1      2430 1.66723E+01
 -1      2431 1.71574E+01
 -1      2432 1.29571E+01
 -1      2433 1.33598E+01
 -1      2434 1.52824E+01
 -1      2435 1.92653E+01
 -1      2436 1.80635E+01
 -1      2437 1.16192E+01
 -1      2438 1.08159E+01
 -1      2439 1.20194E+01
 -1      2440 1.86580E+01
 -1      2441 1.44327E+01
 -1      2442 1.65358E+01
 -1      2443 1.51943E+01
 -1      2444 1.54974E+01
 -1      2445 1.79503E+01
 -1      2446 1.88804E+01
 -1      2447 1.91826E+01
 -1      2448 1.97122E+01
 -1      2449 1.82177E+01
 -1      2450 1.21874E+01
 -1      2451 3.24010E+01
 -1      2452 2.09105E+01
 -1      2453 2.75556E+01
 -1      2454 2.75157E+01
 -1      2455 2.67464E+01
 -1      2456 1.56595E+01
 -1      2457 1.30409E+01
 -1      2458 1.55515E+01
 -1      2459 1.82003E+01
 -1      2460 2.16208E+01
 -1      2461 2.56748E+01
 -1      2462 2.75570E+01
 -1      2463 2.35355E+01
 -1      2464 2.68537E+01
 -1      2465 2.44275E+01
 -1      2466 1.92886E+01
 -1      2467 1.72607E+01
 -1      2468 2.74730E+01
 -1      2469 1.52868E+01
 -1      2470 2.72562E+01
 -1      2471 1.81269E+01
 -1      2472 3.10203E+01
 -1      2473 2.59535E+01
 -1      2474 2.75570E+01
 -1      2475 1.50351E+01
 -1      2476 1.30076E+01
 -1      2477 1.78589E+01
 -1      2478 1.53550E+01
 -1      2479 1.53550E+01
 -1      2480 1.78589E+01
 -1      2481 2.75570E+01
 -1      2482 2.35355E+01
 -1      2483 2.27236E+01
 -1      2484 2.44275E+01
 -1      2485 2.35355E+01
 -1      2486 2.68537E+01
 -1      2487 2.59302E+01
 -1      2488 2.39084E+01
 -1      2489 2.68537E+01
 -1      2490 2.33278E+01
 -1      2491 3.06474E+01
 -1      2492 1.58613E+01
 -1      2493 2.61866E+01
 -1      2494 2.68664E+01
 -1      2495 2.83615E+01
 -1      2496 2.71700E+01
 -1      2497 2.68788E+01
 -1      2498 1.52255E+01
 -1      2499 2.73099E+01
 -1      2500 1.67988E+01
 -1      2501 2.10395E+01
 -1      2502 1.83045E+01
 -1      2503 2.83615E+01
 -1      2504 2.71322E+01
 -1      2505 2.92012E+01
 -1      2506 1.83187E+01
 -1      2507 2.12374E+01
 -1      2508 1.99090E+01
 -1      2509 1.57399E+01
 -1      2510 2.00873E+01
 -1      2511 2.00837E+01
 -1      2512 2.64477E+01
 -1      2513 2.65442E+01
 -1      2514 2.21952E+01
 -1      2515 1.86084E+01
 -1      2516 1.80635E+01
 -1      2517 1.79445E+01
 -1      2518 1.51623E+01
 -1      2519 1.53550E+01
 -1      2520 1.78589E+01
 -1      2521 2.74775E+01
 -1      2522 2.35355E+01
 -1      2523 2.38496E+01
 -1      2524 2.68537E+01
 -1      2525 2.75570E+01
 -1      2526 2.35200E+01
 -1      2527 2.22090E+01
 -1      2528 2.37565E+01
 -1      2529 2.68528E+01
 -1      2530 2.27139E+01
 -1      2531 2.27236E+01
 -1      2532 1.85560E+01
 -1      2533 2.68664E+01
 -1      2534 2.63428E+01
 -1      2535 2.83615E+01
 -1      2536 2.82935E+01
 -1      2537 1.86084E+01
 -1      2538 2.12950E+01
 -1      2539 2.80314E+01
 -1      2540 1.56595E+01
 -1      2541 1.82003E+01
 -1      2542 2.75157E+01
 -1      2543 2.70739E+01
 -1      2544 2.07879E+01
 -1      2545 2.59535E+01
 -1      2546 1.16974E+01
 -1      2547 1.58560E+01
 -1      2548 1.16825E+01
 -1      2549 1.82003E+01
 -1      2550 2.70005E+01
 -1      2551 2.59302E+01
 -1      2552 2.59535E+01
 -1      2553 2.59302E+01
 -1      2554 2.25496E+01
 -1      2555 2.44275E+01
 -1      2556 2.27309E+01
 -1      2557 2.27556E+01
 -1      2558 1.63259E+01
 -1      2559 1.57219E+01
 -1      2560 1.52725E+01
 -1      2561 1.54977E+01
 -1      2562 2.44275E+01
 -1      2563 2.16115E+01
 -1      2564 2.37216E+01
 -1      2565 2.09055E+01
 -1      2566 2.10616E+01
 -1      2567 2.31717E+01
 -1      2568 2.38777E+01
 -1      2569 2.28696E+01
 -1      2570 2.07595E+01
 -1      2571 2.35756E+01
 -1      2572 1.30472E+01
 -1      2573 2.06536E+01
 -1      2574 1.44672E+01
 -1      2575 2.20737E+01
 -1      2576 1.67068E+01
 -1      2577 1.74657E+01
 -1      2578 1.45954E+01
 -1      2579 1.48827E+01
 -1      2580 1.55740E+01
 -1      2581 1.77530E+01
 -1      2582 2.39005E+01
 -1      2583 2.98286E+01
 -1      2584 2.64729E+01
 -1      2585 2.57826E+01
 -1      2586 3.17107E+01
 -1      2587 2.91383E+01
 -1      2588 2.94864E+01
 -1      2589 2.69140E+01
 -1      2590 2.86096E+01
 -1      2591 2.89518E+01
 -1      2592 3.15242E+01
 -1      2593 2.30761E+01
 -1      2594 1.90556E+01
 -1      2595 1.90556E+01
 -1      2596 1.91508E+01
 -1      2597 1.51303E+01
 -1      2598 1.91508E+01
 -1      2599 1.53473E+01
 -1      2600 1.93678E+01
 -1      2601 1.54425E+01
 -1      2602 1.93678E+01
 -1      2603 3.00070E+01
 -1      2604 2.91302E+01
 -1      2605 2.68335E+01
 -1      2606 2.61432E+01
 -1      2607 2.61866E+01
 -1      2608 2.38221E+01
 -1      2609 2.38221E+01
 -1      2610 2.66594E+01
 -1      2611 2.42950E+01
 -1      2612 2.66594E+01
 -1      2613 2.68711E+01
 -1      2614 2.45067E+01
 -1      2615 2.73439E+01
 -1      2616 2.71724E+01
 -1      2617 2.75173E+01
 -1      2618 2.72121E+01
 -1      2619 2.69705E+01
 -1      2620 2.73155E+01
 -1      2621 2.72757E+01
 -1      2622 2.37006E+01
 -1      2623 2.37404E+01
 -1      2624 2.34988E+01
 -1      2625 2.71724E+01
 -1      2626 2.69705E+01
 -1      2627 2.25297E+01
 -1      2628 2.23279E+01
 -1      2629 2.74346E+01
 -1      2630 2.42611E+01
 -1      2631 1.31595E+01
 -1      2632 1.22177E+01
 -1      2633 1.68020E+01
 -1      2634 1.68020E+01
 -1      2635 2.39135E+01
 -1      2636 2.37018E+01
 -1      2637 2.37323E+01
 -1      2638 2.29004E+01
 -1      2639 2.26896E+01
 -1      2640 2.25040E+01
 -1      2641 2.22932E+01
 -1      2642 2.63499E+01
 -1      2643 2.30949E+01
 -1      2644 2.33057E+01
 -1      2645 2.71517E+01
 -1      2646 2.35009E+01
 -1      2647 2.32583E+01
 -1      2648 2.35009E+01
 -1      2649 2.32583E+01
 -1      2650 2.75570E+01
 -1      2651 2.28623E+01
 -1      2652 2.32419E+01
 -1      2653 2.32676E+01
 -1      2654 2.36473E+01
 -1      2655 2.71517E+01
 -1      2656 2.07921E+01
 -1      2657 2.20187E+01
 -1      2658 2.67553E+01
 -1      2659 2.45013E+01
 -1      2660 2.09346E+01
 -1      2661 2.21081E+01
 -1      2662 2.62638E+01
 -1      2663 2.26971E+01
 -1      2664 2.50903E+01
 -1      2665 2.17470E+01
 -1      2666 2.13674E+01
 -1      2667 2.52514E+01
 -1      2668 2.21081E+01
 -1      2669 2.26971E+01
 -1      2670 1.97131E+01
 -1      2671 2.00980E+01
 -1      2672 2.06704E+01
 -1      2673 2.10554E+01
 -1      2674 2.25781E+01
 -1      2675 2.29039E+01
 -1      2676 2.29039E+01
 -1      2677 2.72121E+01
 -1      2678 2.09346E+01
 -1      2679 2.56567E+01
 -1      2680 2.60654E+01
 -1      2681 2.24909E+01
 -1      2682 2.64707E+01
 -1      2683 2.28962E+01
 -1      2684 2.71517E+01
 -1      2685 2.28659E+01
 -1      2686 2.32363E+01
 -1      2687 2.32712E+01
 -1      2688 2.36416E+01
 -1      2689 2.65810E+01
 -1      2690 2.65810E+01
 -1      2691 2.61846E+01
 -1      2692 2.61846E+01
 -1      2693 1.27140E+01
 -1      2694 1.27140E+01
 -1      2695 1.37111E+01
 -1      2696 1.40380E+01
 -1      2697 1.37111E+01
 -1      2698 1.27459E+01
 -1      2699 1.27459E+01
 -1      2700 1.27293E+01
 -1      2701 1.27293E+01
 -1      2702 1.30242E+01
 -1      2703 1.19056E+01
 -1      2704 1.30409E+01
 -1      2705 1.30409E+01
 -1      2706 1.40380E+01
 -1      2707 1.40380E+01
 -1      2708 1.64898E+01
 -1      2709 1.29639E+01
 -1      2710 1.29639E+01
 -1      2711 1.29472E+01
 -1      2712 1.29472E+01
 -1      2713 1.67068E+01
 -1      2714 1.84044E+01
 -1      2715 1.82337E+01
 -1      2716 1.80296E+01
 -1      2717 1.65360E+01
 -1      2718 1.75707E+01
 -1      2719 1.75707E+01
 -1      2720 1.74000E+01
 -1      2721 1.74000E+01
 -1      2722 2.32667E+01
 -1      2723 2.32667E+01
 -1      2724 2.75570E+01
 -1      2725 2.37404E+01
 -1      2726 2.28822E+01
 -1      2727 2.72787E+01
 -1      2728 2.28822E+01
 -1      2729 2.72787E+01
 -1      2730 2.60443E+01
 -1      2731 2.24895E+01
 -1      2732 2.64496E+01
 -1      2733 2.28948E+01
 -1      2734 1.99401E+01
 -1      2735 2.14579E+01
 -1      2736 1.91913E+01
 -1      2737 2.24153E+01
 -1      2738 2.01487E+01
 -1      2739 2.10600E+01
 -1      2740 1.92042E+01
 -1      2741 2.20174E+01
 -1      2742 2.01615E+01
 -1      2743 2.25781E+01
 -1      2744 1.97456E+01
 -1      2745 2.01509E+01
 -1      2746 2.11083E+01
 -1      2747 2.07030E+01
 -1      2748 2.29341E+01
 -1      2749 2.26927E+01
 -1      2750 2.25260E+01
 -1      2751 2.22846E+01
 -1      2752 2.63383E+01
 -1      2753 2.47081E+01
 -1      2754 2.18106E+01
 -1      2755 2.52976E+01
 -1      2756 2.24001E+01
 -1      2757 2.62643E+01
 -1      2758 2.22220E+01
 -1      2759 2.25966E+01
 -1      2760 2.28114E+01
 -1      2761 2.31861E+01
 -1      2762 2.65890E+01
 -1      2763 2.65890E+01
 -1      2764 2.61809E+01
 -1      2765 2.61809E+01
 -1      2766 2.47062E+01
 -1      2767 2.18111E+01
 -1      2768 2.52956E+01
 -1      2769 2.24005E+01
 -1      2770 2.62643E+01
 -1      2771 2.10778E+01
 -1      2772 2.08117E+01
 -1      2773 2.08117E+01
 -1      2774 2.35355E+01
 -1      2775 2.10778E+01
 -1      2776 2.14688E+01
 -1      2777 2.53324E+01
 -1      2778 2.53324E+01
 -1      2779 2.47088E+01
 -1      2780 2.50512E+01
 -1      2781 2.47088E+01
 -1      2782 2.21108E+01
 -1      2783 2.21108E+01
 -1      2784 2.14872E+01
 -1      2785 2.14872E+01
 -1      2786 2.27037E+01
 -1      2787 2.29463E+01
 -1      2788 2.70024E+01
 -1      2789 2.53299E+01
 -1      2790 2.53299E+01
 -1      2791 2.41564E+01
 -1      2792 2.41564E+01
 -1      2793 2.03403E+01
 -1      2794 2.30859E+01
 -1      2795 2.03403E+01
 -1      2796 2.30859E+01
 -1      2797 2.35355E+01
 -1      2798 2.37216E+01
 -1      2799 2.33178E+01
 -1      2800 2.28888E+01
 -1      2801 2.75157E+01
 -1      2802 2.70299E+01
 -1      2803 2.70299E+01
 -1      2804 2.24031E+01
 -1      2805 2.09945E+01
 -1      2806 2.45493E+01
 -1      2807 2.32997E+01
 -1      2808 2.71119E+01
 -1      2809 2.30582E+01
 -1      2810 2.33302E+01
 -1      2811 1.95069E+01
 -1      2812 2.00902E+01
 -1      2813 2.37323E+01
 -1      2814 2.46170E+01
 -1      2815 2.52980E+01
 -1      2816 2.10425E+01
 -1      2817 2.14175E+01
 -1      2818 2.17879E+01
 -1      2819 2.69863E+01
 -1      2820 2.69863E+01
 -1      2821 1.38711E+01
 -1      2822 1.38711E+01
 -1      2823 1.41980E+01
 -1      2824 1.38067E+01
 -1      2825 1.38067E+01
 -1      2826 1.41016E+01
 -1      2827 1.41980E+01
 -1      2828 1.41980E+01
 -1      2829 1.40246E+01
 -1      2830 1.40246E+01
 -1      2831 2.69546E+01
 -1      2832 2.69546E+01
 -1      2833 2.59219E+01
 -1      2834 2.62643E+01
 -1      2835 2.59219E+01
 -1      2836 2.27003E+01
 -1      2837 2.27003E+01
 -1      2838 2.59188E+01
 -1      2839 2.59188E+01
 -1      2840 1.99063E+01
 -1      2841 1.95214E+01
 -1      2842 2.14291E+01
 -1      2843 2.29683E+01
 -1      2844 2.39350E+01
 -1      2845 2.00708E+01
 -1      2846 2.00782E+01
 -1      2847 2.29733E+01
 -1      2848 2.39419E+01
 -1      2849 2.08568E+01
 -1      2850 2.04822E+01
 -1      2851 1.29425E+01
 -1      2852 1.65850E+01
 -1      2853 2.66575E+01
 -1      2854 2.23492E+01
 -1      2855 2.04009E+01
 -1      2856 2.06670E+01
 -1      2857 2.31247E+01
 -1      2858 1.76299E+01
 -1      2859 1.76299E+01
 -1      2860 1.82595E+01
 -1      2861 2.12662E+01
 -1      2862 1.89996E+01
 -1      2863 1.84636E+01
 -1      2864 1.67660E+01
 -1      2865 2.83784E+01
 -1      2866 2.31670E+01
 -1      2867 2.45551E+01
 -1      2868 1.93436E+01
 -1      2869 2.03383E+01
 -1      2870 2.30706E+01
 -1      2871 2.03383E+01
 -1      2872 2.30706E+01
 -1      2873 2.22182E+01
 -1      2874 2.25961E+01
 -1      2875 2.28077E+01
 -1      2876 2.31855E+01
 -1      2877 2.36488E+01
 -1      2878 2.32742E+01
 -1      2879 2.31630E+01
 -1      2880 2.27885E+01
 -1      2881 2.57033E+01
 -1      2882 1.51951E+01
 -1      2883 1.40850E+01
 -1      2884 2.31717E+01
 -1      2885 2.26800E+01
 -1      2886 1.99344E+01
 -1      2887 2.31296E+01
 -1      2888 2.24658E+01
 -1      2889 2.67038E+01
 -1      2890 2.10733E+01
 -1      2891 2.08049E+01
 -1      2892 2.10733E+01
 -1      2893 2.08049E+01
 -1      2894 2.56406E+01
 -1      2895 2.30478E+01
 -1      2896 1.80987E+01
 -1      2897 2.34655E+01
 -1      2898 1.95187E+01
 -1      2899 2.45245E+01
 -1      2900 2.02776E+01
 -1      2901 1.83859E+01
 -1      2902 2.70024E+01
 -1      2903 2.45314E+01
 -1      2904 2.31296E+01
 -1      2905 2.31247E+01
 -1      2906 2.08632E+01
 -1      2907 2.04853E+01
 -1      2908 2.26598E+01
 -1      2909 1.99275E+01
 -1      2910 2.23865E+01
 -1      2911 1.76718E+01
 -1      2912 1.95276E+01
 -1      2913 2.00884E+01
 -1      2914 1.80888E+01
 -1      2915 1.86185E+01
 -1      2916 1.82132E+01
 -1      2917 2.29214E+01
 -1      2918 2.33951E+01
 -1      2919 2.72117E+01
 -1      2920 2.03989E+01
 -1      2921 2.06673E+01
 -1      2922 2.69334E+01
 -1      2923 2.25368E+01
 -1      2924 2.33117E+01
 -1      2925 2.79386E+01
 -1      2926 2.79386E+01
 -1      2927 3.24010E+01
 -1      2928 3.24010E+01
 -1      2929 2.96399E+01
 -1      2930 2.96399E+01
 -1      2931 2.96399E+01
 -1      2932 2.22245E+01
 -1      2933 2.37207E+01
 -1      2934 2.31374E+01
 -1      2935 2.73628E+01
 -1      2936 3.24010E+01
 -1      2937 2.36972E+01
 -1      2938 2.40717E+01
 -1      2939 2.10458E+01
 -1      2940 2.29741E+01
 -1      2941 2.81856E+01
 -1      2942 1.70629E+01
 -1      2943 1.66671E+01
 -1      2944 1.71438E+01
 -1      2945 2.72117E+01
 -1      2946 1.46112E+01
 -1      2947 1.88547E+01
 -1      2948 1.50070E+01
 -1      2949 2.74529E+01
 -1      2950 2.35395E+01
 -1      2951 1.48810E+01
 -1      2952 2.02664E+01
 -1      2953 2.26461E+01
 -1      2954 1.64601E+01
 -1      2955 2.18454E+01
 -1      2956 1.40804E+01
 -1      2957 1.85036E+01
 -1      2958 1.80186E+01
 -1      2959 2.08880E+01
 -1      2960 1.84256E+01
 -1      2961 1.89106E+01
 -1      2962 1.72890E+01
 -1      2963 2.26744E+01
 -1      2964 1.92334E+01
 -1      2965 2.45904E+01
 -1      2966 2.40214E+01
 -1      2967 2.33884E+01
 -1      2968 2.14968E+01
 -1      2969 2.47798E+01
 -1      2970 3.03473E+01
 -1      2971 2.96569E+01
 -1      2972 3.15242E+01
 -1      2973 3.15242E+01
 -1      2974 1.45383E+01
 -1      2975 1.46192E+01
 -1      2976 3.03813E+01
 -1      2977 2.79873E+01
 -1      2978 2.95045E+01
 -1      2979 2.74128E+01
 -1      2980 2.38164E+01
 -1      2981 2.39193E+01
 -1      2982 2.79046E+01
 -1      2983 2.43082E+01
 -1      2984 2.78017E+01
 -1      2985 1.67156E+01
 -1      2986 1.80296E+01
 -1      2987 1.68863E+01
 -1      2988 1.68863E+01
 -1      2989 1.82003E+01
 -1      2990 1.80296E+01
 -1      2991 2.76109E+01
 -1      2992 2.50559E+01
 -1      2993 2.36640E+01
 -1      2994 1.80629E+01
 -1      2995 1.78922E+01
 -1      2996 1.80629E+01
 -1      2997 2.87631E+01
 -1      2998 2.10395E+01
 -1      2999 2.13301E+01
 -1      3000 2.13301E+01
 -1      3001 2.22875E+01
 -1      3002 2.25781E+01
 -1      3003 2.22875E+01
 -1      3004 2.76722E+01
 -1      3005 2.79386E+01
 -1      3006 2.72492E+01
 -1      3007 2.66628E+01
 -1      3008 2.69292E+01
 -1      3009 2.73522E+01
 -1      3010 1.93691E+01
 -1      3011 1.96598E+01
 -1      3012 2.06171E+01
 -1      3013 1.46830E+01
 -1      3014 1.48537E+01
 -1      3015 1.45882E+01
 -1      3016 1.47589E+01
 -1      3017 2.43330E+01
 -1      3018 2.39100E+01
 -1      3019 2.33236E+01
 -1      3020 2.43525E+01
 -1      3021 2.05292E+01
 -1      3022 1.60772E+01
 -1      3023 1.72836E+01
 -1      3024 1.99090E+01
 -1      3025 2.29834E+01
 -1      3026 2.34752E+01
 -1      3027 1.82742E+01
 -1      3028 1.83334E+01
 -1      3029 1.86052E+01
 -1      3030 2.14291E+01
 -1      3031 2.12374E+01
 -1      3032 2.32226E+01
 -1      3033 2.72787E+01
 -1      3034 2.67241E+01
 -1      3035 1.63300E+01
 -1      3036 1.75707E+01
 -1      3037 1.82003E+01
 -1      3038 1.82595E+01
 -1      3039 1.94681E+01
 -1      3040 1.90097E+01
 -1      3041 1.74773E+01
 -1      3042 2.72811E+01
 -1      3043 2.67953E+01
 -1      3044 2.06932E+01
 -1      3045 2.09696E+01
 -1      3046 2.71640E+01
 -1      3047 2.66094E+01
 -1      3048 2.73099E+01
 -1      3049 2.74128E+01
 -1      3050 2.78017E+01
 -1      3051 1.59098E+01
 -1      3052 1.58506E+01
 -1      3053 1.73290E+01
 -1      3054 2.10395E+01
 -1      3055 2.22875E+01
 -1      3056 2.34336E+01
 -1      3057 2.25535E+01
 -1      3058 2.27857E+01
 -1      3059 2.72734E+01
 -1      3060 2.25861E+01
 -1      3061 2.23539E+01
 -1      3062 2.27826E+01
 -1      3063 2.23789E+01
 -1      3064 2.34886E+01
 -1      3065 1.85636E+01
 -1      3066 1.98116E+01
 -1      3067 1.85919E+01
 -1      3068 2.03710E+01
 -1      3069 1.95679E+01
 -1      3070 1.85585E+01
 -1      3071 2.35288E+01
 -1      3072 2.31835E+01
 -1      3073 2.68264E+01
 -1      3074 2.70005E+01
 -1      3075 2.69334E+01
 -1      3076 2.35901E+01
 -1      3077 2.36019E+01
 -1      3078 1.43615E+01
 -1      3079 1.68615E+01
 -1      3080 1.34197E+01
 -1      3081 1.26912E+01
 -1      3082 1.31705E+01
 -1      3083 1.38337E+01
 -1      3084 1.43130E+01
 -1      3085 1.68020E+01
 -1      3086 1.68615E+01
 -1      3087 1.68615E+01
 -1      3088 1.80635E+01
 -1      3089 1.80635E+01
 -1      3090 1.79445E+01
 -1      3091 1.79445E+01
 -1      3092 1.20348E+01
 -1      3093 1.35188E+01
 -1      3094 1.23617E+01
 -1      3095 1.20742E+01
 -1      3096 1.34299E+01
 -1      3097 1.23691E+01
 -1      3098 1.23691E+01
 -1      3099 1.35262E+01
 -1      3100 1.22847E+01
 -1      3101 1.34224E+01
 -1      3102 2.64098E+01
 -1      3103 2.12443E+01
 -1      3104 2.51326E+01
 -1      3105 2.20174E+01
 -1      3106 2.10554E+01
 -1      3107 2.52956E+01
 -1      3108 2.31861E+01
 -1      3109 1.78716E+01
 -1      3110 1.53826E+01
 -1      3111 1.90141E+01
 -1      3112 1.78734E+01
 -1      3113 1.53735E+01
 -1      3114 1.90754E+01
 -1      3115 1.90754E+01
 -1      3116 1.90141E+01
 -1      3117 2.74943E+01
 -1      3118 2.25748E+01
 -1      3119 2.72948E+01
 -1      3120 2.35995E+01
 -1      3121 2.64707E+01
 -1      3122 2.36473E+01
 -1      3123 2.30407E+01
 -1      3124 2.24543E+01
 -1      3125 2.52971E+01
 -1      3126 2.03752E+01
 -1      3127 2.68388E+01
 -1      3128 2.69058E+01
 -1      3129 2.11947E+01
 -1      3130 2.50941E+01
 -1      3131 2.07921E+01
 -1      3132 2.20187E+01
 -1      3133 2.44275E+01
 -1      3134 1.83578E+01
 -1      3135 1.97977E+01
 -1      3136 2.06878E+01
 -1      3137 2.31456E+01
 -1      3138 2.27347E+01
 -1      3139 1.26690E+01
 -1      3140 1.27140E+01
 -1      3141 1.86104E+01
 -1      3142 2.40377E+01
 -1      3143 2.06710E+01
 -1      3144 2.31332E+01
 -1      3145 2.27272E+01
 -1      3146 2.27768E+01
 -1      3147 2.31850E+01
 -1      3148 2.26960E+01
 -1      3149 2.27396E+01
 -1      3150 2.26682E+01
 -1      3151 2.27224E+01
 -1      3152 2.85930E+01
 -1      3153 3.03525E+01
 -1      3154 2.88879E+01
 -1      3155 3.06474E+01
 -1      3156 3.03525E+01
 -1      3157 2.27351E+01
 -1      3158 1.83545E+01
 -1      3159 2.73099E+01
 -1      3160 2.78017E+01
 -1      3161 1.86054E+01
 -1      3162 2.26461E+01
 -1      3163 1.48810E+01
 -1      3164 1.64601E+01
 -1      3165 1.72607E+01
 -1      3166 1.89485E+01
 -1      3167 1.89485E+01
 -1      3168 1.92886E+01
 -1      3169 2.02918E+01
 -1      3170 2.02918E+01
 -1      3171 1.99517E+01
 -1      3172 1.94029E+01
 -1      3173 1.83936E+01
 -1      3174 1.76097E+01
 -1      3175 1.76145E+01
 -1      3176 1.35430E+01
 -1      3177 1.18106E+01
 -1      3178 1.36618E+01
 -1      3179 1.18255E+01
 -1      3180 1.42591E+01
 -1      3181 1.25192E+01
 -1      3182 1.44528E+01
 -1      3183 1.26240E+01
 -1      3184 2.17684E+01
 -1      3185 1.85763E+01
 -1      3186 1.85971E+01
 -1      3187 1.86051E+01
 -1      3188 1.86087E+01
 -1      3189 2.92012E+01
 -1      3190 2.83784E+01
 -1      3191 2.86163E+01
 -1      3192 2.77935E+01
 -1      3193 2.86163E+01
 -1      3194 2.17632E+01
 -1      3195 2.27396E+01
 -1      3196 2.27556E+01
 -1      3197 2.76382E+01
 -1      3198 2.27224E+01
 -1      3199 2.27309E+01
 -1      3200 2.25861E+01
 -1      3201 2.70739E+01
 -1      3202 1.75755E+01
 -1      3203 2.32110E+01
 -1      3204 2.91917E+01
 -1      3205 2.98820E+01
 -1      3206 2.78283E+01
 -1      3207 2.81173E+01
 -1      3208 2.90081E+01
 -1      3209 2.12566E+01
 -1      3210 2.21475E+01
 -1      3211 2.21475E+01
 -1      3212 2.74943E+01
 -1      3213 2.25535E+01
 -1      3214 2.72734E+01
 -1      3215 2.93470E+01
 -1      3216 2.65859E+01
 -1      3217 2.71209E+01
 -1      3218 2.72265E+01
 -1      3219 2.15439E+01
 -1      3220 2.24347E+01
 -1      3221 2.15439E+01
 -1      3222 2.86566E+01
 -1      3223 1.64686E+01
 -1      3224 2.01547E+01
 -1      3225 1.39440E+01
 -1      3226 1.76301E+01
 -1      3227 2.40403E+01
 -1      3228 2.65953E+01
 -1      3229 2.12284E+01
 -1      3230 1.79944E+01
 -1      3231 1.79944E+01
 -1      3232 2.75173E+01
 -1      3233 2.75173E+01
 -1      3234 2.46858E+01
 -1      3235 2.55625E+01
 -1      3236 2.35428E+01
 -1      3237 2.52037E+01
 -1      3238 2.28014E+01
 -1      3239 2.24426E+01
 -1      3240 2.45904E+01
 -1      3241 1.84783E+01
 -1      3242 1.84044E+01
 -1      3243 1.86084E+01
 -1      3244 2.12950E+01
 -1      3245 2.14579E+01
 -1      3246 2.12662E+01
 -1      3247 1.68615E+01
 -1      3248 1.68615E+01
 -1      3249 1.56595E+01
 -1      3250 1.31705E+01
 -1      3251 1.26912E+01
 -1      3252 1.99880E+01
 -1      3253 1.88468E+01
 -1      3254 1.81985E+01
 -1      3255 1.70903E+01
 -1      3256 2.34073E+01
 -1      3257 1.89416E+01
 -1      3258 1.80629E+01
 -1      3259 1.82003E+01
 -1      3260 2.23837E+01
 -1      3261 2.68711E+01
 -1      3262 2.34872E+01
 -1      3263 2.41718E+01
 -1      3264 1.89998E+01
 -1      3265 2.43269E+01
 -1      3266 1.55355E+01
 -1      3267 1.43335E+01
 -1      3268 1.43335E+01
 -1      3269 1.13653E+01
 -1      3270 2.74730E+01
 -1      3271 2.92012E+01
 -1      3272 2.86163E+01
 -1      3273 1.86474E+01
 -1      3274 2.39100E+01
 -1      3275 2.30407E+01
 -1      3276 2.75157E+01
 -1      3277 2.32873E+01
 -1      3278 2.75157E+01
 -1      3279 2.72811E+01
 -1      3280 2.69225E+01
 -1      3281 3.01540E+01
 -1      3282 2.54348E+01
 -1      3283 2.45685E+01
 -1      3284 2.87906E+01
 -1      3285 2.40714E+01
 -1      3286 1.44127E+01
 -1      3287 1.86182E+01
 -1      3288 1.41763E+01
 -1      3289 1.65623E+01
 -1      3290 1.76301E+01
 -1      3291 1.93443E+01
 -1      3292 2.32656E+01
 -1      3293 2.20737E+01
 -1      3294 2.76109E+01
 -1      3295 2.38950E+01
 -1      3296 2.39588E+01
 -1      3297 2.71923E+01
 -1      3298 2.86569E+01
 -1      3299 1.38552E+01
 -1      3300 1.52752E+01
 -1      3301 1.14123E+01
 -1      3302 3.17107E+01
 -1      3303 2.89496E+01
 -1      3304 2.79873E+01
 -1      3305 3.03813E+01
 -1      3306 2.78089E+01
 -1      3307 1.43319E+01
 -1      3308 2.17979E+01
 -1      3309 2.07283E+01
 -1      3310 2.18025E+01
 -1      3311 2.07906E+01
 -1      3312 2.18025E+01
 -1      3313 2.07906E+01
 -1      3314 2.17979E+01
 -1      3315 2.07283E+01
 -1      3316 2.48138E+01
 -1      3317 2.84095E+01
 -1      3318 2.69105E+01
 -1      3319 2.11052E+01
 -1      3320 2.26041E+01
 -1      3321 2.26041E+01
 -1      3322 3.06474E+01
 -1      3323 2.52016E+01
 -1      3324 2.52016E+01
 -1      3325 2.95045E+01
 -1      3326 2.40586E+01
 -1      3327 2.40559E+01
 -1      3328 2.38180E+01
 -1      3329 2.04341E+01
 -1      3330 2.44096E+01
 -1      3331 2.13177E+01
 -1      3332 1.76960E+01
 -1      3333 1.53301E+01
 -1      3334 1.74628E+01
 -1      3335 1.86084E+01
 -1      3336 1.84044E+01
 -1      3337 1.86084E+01
 -1      3338 2.25704E+01
 -1      3339 2.24075E+01
 -1      3340 2.24075E+01
 -1      3341 1.70903E+01
 -1      3342 2.11005E+01
 -1      3343 1.80687E+01
 -1      3344 1.80687E+01
 -1      3345 2.15232E+01
 -1      3346 3.03676E+01
 -1      3347 1.94524E+01
 -1      3348 2.82969E+01
 -1      3349 2.89496E+01
 -1      3350 1.82068E+01
 -1      3351 2.21536E+01
 -1      3352 2.37439E+01
 -1      3353 2.05123E+01
 -1      3354 1.98276E+01
 -1      3355 1.96137E+01
 -1      3356 2.70927E+01
 -1      3357 2.02984E+01
 -1      3358 2.78623E+01
 -1      3359 3.03813E+01
 -1      3360 2.76202E+01
 -1      3361 1.37439E+01
 -1      3362 1.52868E+01
 -1      3363 1.37439E+01
 -1      3364 1.52868E+01
 -1      3365 1.52868E+01
 -1      3366 2.35428E+01
 -1      3367 2.71511E+01
 -1      3368 2.10608E+01
 -1      3369 2.08515E+01
 -1      3370 2.66570E+01
 -1      3371 2.67053E+01
 -1      3372 2.64960E+01
 -1      3373 2.08997E+01
 -1      3374 2.46408E+01
 -1      3375 2.10331E+01
 -1      3376 2.09633E+01
 -1      3377 1.58097E+01
 -1      3378 1.79834E+01
 -1      3379 1.79136E+01
 -1      3380 2.31370E+01
 -1      3381 2.03397E+01
 -1      3382 1.72008E+01
 -1      3383 2.30478E+01
 -1      3384 2.31352E+01
 -1      3385 1.99963E+01
 -1      3386 1.72882E+01
 -1      3387 2.70881E+01
 -1      3388 2.12825E+01
 -1      3389 2.69270E+01
 -1      3390 2.72787E+01
 -1      3391 1.80296E+01
 -1      3392 1.33663E+01
 -1      3393 1.33588E+01
 -1      3394 1.23525E+01
 -1      3395 1.23450E+01
 -1      3396 1.80296E+01
 -1      3397 1.52670E+01
 -1      3398 1.55090E+01
 -1      3399 2.23849E+01
 -1      3400 2.41444E+01
 -1      3401 2.21429E+01
 -1      3402 1.55525E+01
 -1      3403 2.07061E+01
 -1      3404 1.76564E+01
 -1      3405 1.48591E+01
 -1      3406 1.76546E+01
 -1      3407 2.31456E+01
 -1      3408 2.83275E+01
 -1      3409 2.81856E+01
 -1      3410 2.72787E+01
 -1      3411 1.67373E+01
 -1      3412 1.80633E+01
 -1      3413 1.67373E+01
 -1      3414 1.80633E+01
 -1      3415 2.79386E+01
 -1      3416 2.79386E+01
 -1      3417 2.79386E+01
 -1      3418 2.31332E+01
 -1      3419 1.18756E+01
 -1      3420 1.17763E+01
 -1      3421 1.40433E+01
 -1      3422 1.39440E+01
 -1      3423 1.36936E+01
 -1      3424 2.69853E+01
 -1      3425 2.67635E+01
 -1      3426 2.65017E+01
 -1      3427 2.66046E+01
 -1      3428 2.68264E+01
 -1      3429 2.31456E+01
 -1      3430 2.31332E+01
 -1      3431 2.35756E+01
 -1      3432 2.26366E+01
 -1      3433 2.83615E+01
 -1      3434 2.43330E+01
 -1      3435 1.64755E+01
 -1      3436 1.96791E+01
 -1      3437 1.78359E+01
 -1      3438 1.79349E+01
 -1      3439 2.11384E+01
 -1      3440 1.97781E+01
 -1      3441 2.68664E+01
 -1      3442 2.67635E+01
 -1      3443 2.66046E+01
 -1      3444 2.32682E+01
 -1      3445 2.17692E+01
 -1      3446 1.23485E+01
 -1      3447 1.96137E+01
 -1      3448 1.50138E+01
 -1      3449 1.52587E+01
 -1      3450 1.51102E+01
 -1      3451 1.53606E+01
 -1      3452 1.56055E+01
 -1      3453 1.55092E+01
 -1      3454 1.38149E+01
 -1      3455 1.52587E+01
 -1      3456 1.37186E+01
 -1      3457 1.40654E+01
 -1      3458 1.56055E+01
 -1      3459 2.66594E+01
 -1      3460 2.39601E+01
 -1      3461 1.74223E+01
 -1      3462 1.79074E+01
 -1      3463 1.79074E+01
 -1      3464 2.33114E+01
 -1      3465 1.83600E+01
 -1      3466 1.94762E+01
 -1      3467 2.34886E+01
 -1      3468 1.85372E+01
 -1      3469 2.23724E+01
 -1      3470 2.31870E+01
 -1      3471 2.33183E+01
 -1      3472 2.42962E+01
 -1      3473 2.42962E+01
 -1      3474 2.44275E+01
 -1      3475 2.33183E+01
 -1      3476 2.27684E+01
 -1      3477 2.09094E+01
 -1      3478 2.38777E+01
 -1      3479 1.59942E+01
 -1      3480 1.62481E+01
 -1      3481 1.53476E+01
 -1      3482 1.72264E+01
 -1      3483 1.50937E+01
 -1      3484 2.26221E+01
 -1      3485 2.22687E+01
 -1      3486 2.68189E+01
 -1      3487 2.29273E+01
 -1      3488 2.49946E+01
 -1      3489 2.39702E+01
 -1      3490 1.78716E+01
 -1      3491 1.78734E+01
 -1      3492 3.10203E+01
 -1      3493 3.03676E+01
 -1      3494 1.78624E+01
 -1      3495 2.12662E+01
 -1      3496 1.84636E+01
 -1      3497 2.26054E+01
 -1      3498 2.27615E+01
 -1      3499 2.29387E+01
 -1      3500 1.64684E+01
 -1      3501 1.96720E+01
 -1      3502 1.83116E+01
 -1      3503 1.64758E+01
 -1      3504 2.16478E+01
 -1      3505 1.82639E+01
 -1      3506 1.84044E+01
 -1      3507 2.21828E+01
 -1      3508 2.89770E+01
 -1      3509 1.85636E+01
 -1      3510 1.37716E+01
 -1      3511 1.42710E+01
 -1      3512 1.52405E+01
 -1      3513 1.74142E+01
 -1      3514 1.64448E+01
 -1      3515 1.37853E+01
 -1      3516 1.63557E+01
 -1      3517 1.73385E+01
 -1      3518 1.74259E+01
 -1      3519 1.64431E+01
 -1      3520 1.24599E+01
 -1      3521 1.39287E+01
 -1      3522 1.26367E+01
 -1      3523 1.61900E+01
 -1      3524 1.20459E+01
 -1      3525 1.57649E+01
 -1      3526 1.18792E+01
 -1      3527 1.36904E+01
 -1      3528 1.99255E+01
 -1      3529 2.69292E+01
 -1      3530 1.08517E+01
 -1      3531 1.08517E+01
 -1      3532 1.45852E+01
 -1      3533 1.45852E+01
 -1      3534 1.45852E+01
 -1      3535 1.87406E+01
 -1      3536 1.87150E+01
 -1      3537 1.05768E+01
 -1      3538 1.94820E+01
 -1      3539 1.94563E+01
 -1      3540 2.67608E+01
 -1      3541 1.67068E+01
 -1      3542 1.51639E+01
 -1      3543 1.38863E+01
 -1      3544 1.56768E+01
 -1      3545 1.54264E+01
 -1      3546 1.50689E+01
 -1      3547 1.53138E+01
 -1      3548 1.55643E+01
 -1      3549 2.69701E+01
 -1      3550 2.29834E+01
 -1      3551 1.44127E+01
 -1      3552 1.41624E+01
 -1      3553 1.05544E+01
 -1      3554 1.03861E+01
 -1      3555 1.84421E+01
 -1      3556 1.84882E+01
 -1      3557 1.86565E+01
 -1      3558 2.49016E+01
 -1      3559 2.70299E+01
 -1      3560 2.75570E+01
 -1      3561 2.75570E+01
 -1      3562 1.82337E+01
 -1      3563 1.55355E+01
 -1      3564 1.65493E+01
 -1      3565 1.64898E+01
 -1      3566 1.54760E+01
 -1      3567 1.82337E+01
 -1      3568 2.35355E+01
 -1      3569 2.35277E+01
 -1      3570 2.35355E+01
 -1      3571 2.35277E+01
 -1      3572 2.48899E+01
 -1      3573 2.48433E+01
 -1      3574 2.68537E+01
 -1      3575 2.68533E+01
 -1      3576 2.68537E+01
 -1      3577 2.48550E+01
 -1      3578 2.42962E+01
 -1      3579 2.44275E+01
 -1      3580 2.44275E+01
 -1      3581 1.94762E+01
 -1      3582 2.34886E+01
 -1      3583 2.68533E+01
 -1      3584 1.61318E+01
 -1      3585 2.50092E+01
 -1      3586 2.35437E+01
 -1      3587 2.14167E+01
 -1      3588 2.53379E+01
 -1      3589 2.53379E+01
 -1      3590 1.57038E+01
 -1      3591 1.54533E+01
 -1      3592 1.55246E+01
 -1      3593 2.04671E+01
 -1      3594 1.44127E+01
 -1      3595 1.67988E+01
 -1      3596 2.32656E+01
 -1      3597 2.61777E+01
 -1      3598 2.25354E+01
 -1      3599 2.71697E+01
 -1      3600 2.69604E+01
 -1      3601 2.70086E+01
 -1      3602 1.06093E+01
 -1      3603 2.16992E+01
 -1      3604 2.73914E+01
 -1      3605 1.85234E+01
 -1      3606 1.84303E+01
 -1      3607 1.83976E+01
 -1      3608 1.83455E+01
 -1      3609 1.82524E+01
 -1      3610 1.83782E+01
 -1      3611 2.17237E+01
 -1      3612 1.85848E+01
 -1      3613 1.86722E+01
 -1      3614 1.65003E+01
 -1      3615 1.86740E+01
 -1      3616 2.69079E+01
 -1      3617 1.54533E+01
 -1      3618 1.54120E+01
 -1      3619 9.47881E+00
 -1      3620 9.79067E+00
 -1      3621 1.43747E+01
 -1      3622 1.39720E+01
 -1      3623 1.36601E+01
 -1      3624 2.44275E+01
 -1      3625 2.44275E+01
 -1      3626 3.03676E+01
 -1      3627 3.10203E+01
 -1      3628 1.03067E+01
 -1      3629 1.03996E+01
 -1      3630 1.86443E+01
 -1      3631 1.86217E+01
 -1      3632 1.85288E+01
 -1      3633 1.62431E+01
 -1      3634 2.71697E+01
 -1      3635 1.53569E+01
 -1      3636 1.27120E+01
 -1      3637 1.56749E+01
 -1      3638 2.33183E+01
 -1      3639 1.97977E+01
 -1      3640 2.33114E+01
 -1      3641 1.05756E+01
 -1      3642 1.88203E+01
 -1      3643 1.83599E+01
 -1      3644 1.85585E+01
 -1      3645 1.88036E+01
 -1      3646 2.01640E+01
 -1      3647 2.02630E+01
 -1      3648 2.44744E+01
 -1      3649 2.39773E+01
 -1      3650 2.98286E+01
 -1      3651 2.53604E+01
 -1      3652 2.53604E+01
 -1      3653 2.47755E+01
 -1      3654 9.38796E+00
 -1      3655 1.39720E+01
 -1      3656 1.37941E+01
 -1      3657 1.37941E+01
 -1      3658 2.49081E+01
 -1      3659 2.33178E+01
 -1      3660 2.92012E+01
 -1      3661 2.49081E+01
 -1      3662 2.83275E+01
 -1      3663 2.22624E+01
 -1      3664 2.05028E+01
 -1      3665 1.97651E+01
 -1      3666 2.83615E+01
 -1      3667 2.17852E+01
 -1      3668 2.27635E+01
 -1      3669 2.34425E+01
 -1      3670 2.77588E+01
 -1      3671 2.35685E+01
 -1      3672 2.78714E+01
 -1      3673 1.87965E+01
 -1      3674 1.70823E+01
 -1      3675 1.75674E+01
 -1      3676 1.89106E+01
 -1      3677 2.21252E+01
 -1      3678 2.26154E+01
 -1      3679 1.94778E+01
 -1      3680 2.12524E+01
 -1      3681 2.28076E+01
 -1      3682 2.46314E+01
 -1      3683 2.10331E+01
 -1      3684 1.88337E+01
 -1      3685 2.22127E+01
 -1      3686 1.91508E+01
 -1      3687 1.55525E+01
 -1      3688 1.93069E+01
 -1      3689 1.89668E+01
 -1      3690 1.72607E+01
 -1      3691 1.64601E+01
 -1      3692 1.50282E+01
 -1      3693 1.42276E+01
 -1      3694 2.26713E+01
 -1      3695 2.26926E+01
 -1      3696 2.74730E+01
 -1      3697 2.74943E+01
 -1      3698 1.22316E+01
 -1      3699 1.43944E+01
 -1      3700 1.13392E+01
 -1      3701 1.81732E+01
 -1      3702 2.03360E+01
 -1      3703 2.26373E+01
 -1      3704 2.27402E+01
 -1      3705 2.67635E+01
 -1      3706 2.69853E+01
 -1      3707 2.29619E+01
 -1      3708 2.24170E+01
 -1      3709 2.65432E+01
 -1      3710 2.23976E+01
 -1      3711 2.27208E+01
 -1      3712 1.44072E+01
 -1      3713 1.90821E+01
 -1      3714 1.04832E+01
 -1      3715 1.89582E+01
 -1      3716 1.67373E+01
 -1      3717 1.30076E+01
 -1      3718 1.30076E+01
 -1      3719 1.30076E+01
 -1      3720 1.87880E+01
 -1      3721 1.47675E+01
 -1      3722 1.27293E+01
 -1      3723 1.44999E+01
 -1      3724 1.47675E+01
 -1      3725 1.37704E+01
 -1      3726 1.13960E+01
 -1      3727 1.46667E+01
 -1      3728 1.06907E+01
 -1      3729 1.38829E+01
 -1      3730 1.44601E+01
 -1      3731 1.49190E+01
 -1      3732 1.19791E+01
 -1      3733 1.49190E+01
 -1      3734 1.46724E+01
 -1      3735 1.08016E+01
 -1      3736 1.43740E+01
 -1      3737 1.88277E+01
 -1      3738 1.88277E+01
 -1      3739 1.45795E+01
 -1      3740 1.74121E+01
 -1      3741 1.12887E+01
 -1      3742 1.74121E+01
 -1      3743 1.40284E+01
 -1      3744 1.68935E+01
 -1      3745 2.23940E+01
 -1      3746 2.57981E+01
 -1      3747 2.14639E+01
 -1      3748 2.15959E+01
 -1      3749 1.06869E+01
 -1      3750 1.73289E+01
 -1      3751 1.46638E+01
 -1      3752 1.89532E+01
 -1      3753 1.04834E+01
 -1      3754 1.90872E+01
 -1      3755 1.44340E+01
 -1      3756 1.41316E+01
 -1      3757 1.46815E+01
 -1      3758 1.47897E+01
 -1      3759 1.88358E+01
 -1      3760 2.20370E+01
 -1      3761 2.24152E+01
 -1      3762 2.21841E+01
 -1      3763 2.58064E+01
 -1      3764 2.13559E+01
 -1      3765 2.03175E+01
 -1      3766 2.42962E+01
 -1      3767 2.04488E+01
 -1      3768 1.08179E+01
 -1      3769 1.88358E+01
 -1      3770 2.04079E+01
 -1      3771 2.05639E+01
 -1      3772 2.09346E+01
 -1      3773 2.33278E+01
 -1      3774 1.89223E+01
 -1      3775 1.87444E+01
 -1      3776 2.05639E+01
 -1      3777 1.37186E+01
 -1      3778 1.45366E+01
 -1      3779 1.30928E+01
 -1      3780 1.40654E+01
 -1      3781 1.48834E+01
 -1      3782 2.07755E+01
 -1      3783 2.27396E+01
 -1      3784 2.48651E+01
 -1      3785 1.94870E+01
 -1      3786 1.94710E+01
 -1      3787 1.01389E+01
 -1      3788 1.90441E+01
 -1      3789 1.90957E+01
 -1      3790 1.90763E+01
 -1      3791 1.09158E+01
 -1      3792 1.96483E+01
 -1      3793 1.96290E+01
 -1      3794 1.62569E+01
 -1      3795 1.64863E+01
 -1      3796 1.05480E+01
 -1      3797 1.64341E+01
 -1      3798 1.66635E+01
 -1      3799 1.62723E+01
 -1      3800 1.65023E+01
 -1      3801 1.05656E+01
 -1      3802 1.73816E+01
 -1      3803 1.76115E+01
 -1      3804 2.53604E+01
 -1      3805 1.35188E+01
 -1      3806 1.32042E+01
 -1      3807 1.13679E+01
 -1      3808 1.16825E+01
 -1      3809 1.13679E+01
 -1      3810 1.35188E+01
 -1      3811 1.35262E+01
 -1      3812 1.32093E+01
 -1      3813 1.13804E+01
 -1      3814 1.16974E+01
 -1      3815 1.13804E+01
 -1      3816 1.35262E+01
 -1      3817 1.60446E+01
 -1      3818 1.88220E+01
 -1      3819 2.02813E+01
 -1      3820 1.60446E+01
 -1      3821 1.59906E+01
 -1      3822 9.68798E+00
 -1      3823 1.90055E+01
 -1      3824 2.57981E+01
 -1      3825 2.15959E+01
 -1      3826 2.59302E+01
 -1      3827 1.83776E+01
 -1      3828 1.83776E+01
 -1      3829 2.64036E+01
 -1      3830 1.85848E+01
 -1      3831 1.86722E+01
 -1      3832 1.42678E+01
 -1      3833 1.64415E+01
 -1      3834 1.83041E+01
 -1      3835 1.83523E+01
 -1      3836 2.69604E+01
 -1      3837 1.84399E+01
 -1      3838 2.70086E+01
 -1      3839 1.40654E+01
 -1      3840 1.39509E+01
 -1      3841 1.39509E+01
 -1      3842 1.58560E+01
 -1      3843 1.07740E+01
 -1      3844 1.13804E+01
 -1      3845 1.07740E+01
 -1      3846 1.16974E+01
 -1      3847 1.13679E+01
 -1      3848 1.16825E+01
 -1      3849 1.07621E+01
 -1      3850 1.07621E+01
 -1      3851 9.48410E+00
 -1      3852 1.02470E+01
 -1      3853 1.78229E+01
 -1      3854 1.76147E+01
 -1      3855 2.18213E+01
 -1      3856 2.18213E+01
 -1      3857 2.57981E+01
 -1      3858 2.19533E+01
 -1      3859 2.58064E+01
 -1      3860 2.21841E+01
 -1      3861 2.59535E+01
 -1      3862 1.83740E+01
 -1      3863 1.83740E+01
 -1      3864 2.63920E+01
 -1      3865 2.18078E+01
 -1      3866 2.19549E+01
 -1      3867 1.02555E+01
 -1      3868 1.78116E+01
 -1      3869 2.27556E+01
 -1      3870 1.94870E+01
 -1      3871 2.27396E+01
 -1      3872 1.98786E+01
 -1      3873 1.98786E+01
 -1      3874 1.98786E+01
 -1      3875 2.27556E+01
 -1      3876 2.18078E+01
 -1      3877 2.58064E+01
 -1      3878 2.39084E+01
 -1      3879 2.06938E+01
 -1      3880 2.06938E+01
 -1      3881 2.33196E+01
 -1      3882 2.01051E+01
 -1      3883 2.33196E+01
 -1      3884 9.68550E+00
 -1      3885 1.58010E+01
 -1      3886 2.23680E+01
 -1      3887 1.75412E+01
 -1      3888 1.73633E+01
 -1      3889 9.04439E+00
 -1      3890 1.57930E+01
 -1      3891 9.70018E+00
 -1      3892 1.67461E+01
 -1      3893 1.93531E+01
 -1      3894 2.01051E+01
 -1      3895 2.27309E+01
 -1      3896 1.93531E+01
 -1      3897 9.48472E+00
 -1      3898 1.76033E+01
 -1      3899 1.53550E+01
 -1      3900 1.44528E+01
 -1      3901 1.36394E+01
 -1      3902 1.43555E+01
 -1      3903 1.53550E+01
 -1      3904 1.36618E+01
 -1      3905 2.21062E+01
 -1      3906 1.75685E+01
 -1      3907 1.78779E+01
 -1      3908 1.86766E+01
 -1      3909 2.02408E+01
 -1      3910 1.83672E+01
 -1      3911 1.86084E+01
 -1      3912 1.86084E+01
 -1      3913 2.09025E+01
 -1      3914 2.69334E+01
 -1      3915 2.21981E+01
 -1      3916 2.10857E+01
 -1      3917 2.27188E+01
 -1      3918 1.85811E+01
 -1      3919 1.65320E+01
 -1      3920 1.65320E+01
 -1      3921 2.33160E+01
 -1      3922 1.91975E+01
 -1      3923 1.97351E+01
 -1      3924 1.86226E+01
 -1      3925 9.05928E+00
 -1      3926 1.67407E+01
 -1      3927 2.27236E+01
 -1      3928 2.27396E+01
 -1      3929 2.68388E+01
 -1      3930 1.59027E+01
 -1      3931 1.82524E+01
 -1      3932 2.33112E+01
 -1      3933 2.33196E+01
 -1      3934 1.05993E+01
 -1      3935 1.93124E+01
 -1      3936 1.25681E+01
 -1      3937 1.94021E+01
 -1      3938 1.01183E+01
 -1      3939 1.91674E+01
 -1      3940 2.79152E+01
 -1      3941 2.74922E+01
 -1      3942 1.18511E+01
 -1      3943 1.96190E+01
 -1      3944 2.58064E+01
 -1      3945 2.58064E+01
 -1      3946 2.59535E+01
 -1      3947 2.58064E+01
 -1      3948 2.59535E+01
 -1      3949 2.35121E+01
 -1      3950 2.35176E+01
 -1      3951 2.58553E+01
 -1      3952 2.64036E+01
 -1      3953 2.63054E+01
 -1      3954 2.58553E+01
 -1      3955 2.58323E+01
 -1      3956 2.62941E+01
 -1      3957 2.63920E+01
 -1      3958 2.58323E+01
 -1      3959 2.59302E+01
 -1      3960 2.03568E+01
 -1      3961 2.59418E+01
 -1      3962 2.03684E+01
 -1      3963 2.03568E+01
 -1      3964 2.59418E+01
 -1      3965 2.04387E+01
 -1      3966 2.08888E+01
 -1      3967 2.04270E+01
 -1      3968 2.63920E+01
 -1      3969 2.57981E+01
 -1      3970 2.59302E+01
 -1      3971 2.57981E+01
 -1      3972 2.57981E+01
 -1      3973 2.31166E+01
 -1      3974 2.26937E+01
 -1      3975 2.08861E+01
 -1      3976 2.64036E+01
 -1      3977 2.04360E+01
 -1      3978 2.04243E+01
 -1      3979 2.59418E+01
 -1      3980 2.03101E+01
 -1      3981 2.26461E+01
 -1      3982 2.04136E+01
 -1      3983 2.18856E+01
 -1      3984 2.03191E+01
 -1      3985 2.03191E+01
 -1      3986 2.03074E+01
 -1      3987 2.59418E+01
 -1      3988 1.54232E+01
 -1      3989 1.41176E+01
 -1      3990 2.04432E+01
 -1      3991 2.72734E+01
 -1      3992 2.26932E+01
 -1      3993 2.68388E+01
 -1      3994 2.21971E+01
 -1      3995 2.22247E+01
 -1      3996 2.30761E+01
 -1      3997 1.81208E+01
 -1      3998 2.17290E+01
 -1      3999 2.24717E+01
 -1      4000 1.65242E+01
 -1      4001 1.81208E+01
 -1      4002 1.67079E+01
 -1      4003 1.66558E+01
 -1      4004 1.80687E+01
 -1      4005 2.26588E+01
 -1      4006 2.72117E+01
 -1      4007 2.98286E+01
 -1      4008 1.42424E+01
 -1      4009 1.67904E+01
 -1      4010 1.53109E+01
 -1      4011 1.40177E+01
 -1      4012 1.65657E+01
 -1      4013 1.54972E+01
 -1      4014 1.33967E+01
 -1      4015 1.31602E+01
 -1      4016 1.41980E+01
 -1      4017 1.41980E+01
 -1      4018 1.82524E+01
 -1      4019 2.37220E+01
 -1      4020 2.31296E+01
 -1      4021 1.68160E+01
 -1      4022 1.69997E+01
 -1      4023 2.69058E+01
 -1      4024 2.22917E+01
 -1      4025 1.70903E+01
 -1      4026 1.60218E+01
 -1      4027 1.59097E+01
 -1      4028 1.56098E+01
 -1      4029 1.66783E+01
 -1      4030 1.65059E+01
 -1      4031 1.78107E+01
 -1      4032 1.51720E+01
 -1      4033 1.86766E+01
 -1      4034 1.00469E+01
 -1      4035 1.57219E+01
 -1      4036 1.55385E+01
 -1      4037 1.55385E+01
 -1      4038 1.56098E+01
 -1      4039 2.64036E+01
 -1      4040 2.64036E+01
 -1      4041 2.64036E+01
 -1      4042 2.63920E+01
 -1      4043 2.68537E+01
 -1      4044 2.63920E+01
 -1      4045 2.68537E+01
 -1      4046 2.63920E+01
 -1      4047 1.68574E+01
 -1      4048 1.58560E+01
 -1      4049 1.68574E+01
 -1      4050 1.65657E+01
 -1      4051 1.55643E+01
 -1      4052 1.07978E+01
 -1      4053 1.74223E+01
 -1      4054 1.86333E+01
 -1      4055 2.32290E+01
 -1      4056 1.93127E+01
 -1      4057 1.95722E+01
 -1      4058 2.41680E+01
 -1      4059 2.41680E+01
 -1      4060 2.41680E+01
 -1      4061 2.39084E+01
 -1      4062 2.41680E+01
 -1      4063 1.02963E+01
 -1      4064 1.39866E+01
 -1      4065 1.37619E+01
 -1      4066 1.38031E+01
 -1      4067 1.55385E+01
 -1      4068 1.78589E+01
 -1      4069 1.53109E+01
 -1      4070 1.88733E+01
 -1      4071 1.38100E+01
 -1      4072 1.68574E+01
 -1      4073 1.48114E+01
 -1      4074 1.36308E+01
 -1      4075 1.66783E+01
 -1      4076 1.35975E+01
 -1      4077 1.32806E+01
 -1      4078 1.10305E+01
 -1      4079 1.36258E+01
 -1      4080 1.36258E+01
 -1      4081 1.26745E+01
 -1      4082 1.37023E+01
 -1      4083 1.62263E+01
 -1      4084 1.39287E+01
 -1      4085 1.64527E+01
 -1      4086 1.26603E+01
 -1      4087 1.26828E+01
 -1      4088 1.26427E+01
 -1      4089 1.27492E+01
 -1      4090 1.38909E+01
 -1      4091 2.17979E+01
 -1      4092 2.18025E+01
 -1      4093 1.60038E+01
 -1      4094 1.60722E+01
 -1      4095 1.18911E+01
 -1      4096 1.38621E+01
 -1      4097 1.84399E+01
 -1      4098 2.41680E+01
 -1      4099 2.09534E+01
 -1      4100 2.01456E+01
 -1      4101 2.47545E+01
 -1      4102 2.49016E+01
 -1      4103 2.42962E+01
 -1      4104 2.01456E+01
 -1      4105 1.86443E+01
 -1      4106 1.86565E+01
 -1      4107 2.72787E+01
 -1      4108 2.72787E+01
 -1      4109 1.74000E+01
 -1      4110 1.80296E+01
 -1      4111 1.55522E+01
 -1      4112 1.48804E+01
 -1      4113 1.52573E+01
 -1      4114 1.54157E+01
 -1      4115 1.48135E+01
 -1      4116 1.51658E+01
 -1      4117 1.72322E+01
 -1      4118 1.72322E+01
 -1      4119 1.78922E+01
 -1      4120 1.78589E+01
 -1      4121 1.51862E+01
 -1      4122 2.62941E+01
 -1      4123 2.63920E+01
 -1      4124 2.63049E+01
 -1      4125 2.64031E+01
 -1      4126 1.56367E+01
 -1      4127 1.67052E+01
 -1      4128 2.47113E+01
 -1      4129 2.48433E+01
 -1      4130 1.93165E+01
 -1      4131 2.08888E+01
 -1      4132 1.55385E+01
 -1      4133 1.55385E+01
 -1      4134 1.38031E+01
 -1      4135 2.10778E+01
 -1      4136 2.31456E+01
 -1      4137 2.10655E+01
 -1      4138 2.31254E+01
 -1      4139 2.27947E+01
 -1      4140 2.30859E+01
 -1      4141 2.30628E+01
 -1      4142 2.26703E+01
 -1      4143 2.27554E+01
 -1      4144 2.35009E+01
 -1      4145 1.64863E+01
 -1      4146 2.07283E+01
 -1      4147 2.07906E+01
 -1      4148 1.32500E+01
 -1      4149 1.42793E+01
 -1      4150 1.58284E+01
 -1      4151 1.67904E+01
 -1      4152 1.53478E+01
 -1      4153 1.31125E+01
 -1      4154 1.65320E+01
 -1      4155 1.65320E+01
 -1      4156 2.20359E+01
 -1      4157 1.96909E+01
 -1      4158 1.73163E+01
 -1      4159 2.16445E+01
 -1      4160 1.87203E+01
 -1      4161 2.26366E+01
 -1      4162 1.84133E+01
 -1      4163 1.96690E+01
 -1      4164 2.00143E+01
 -1      4165 2.08856E+01
 -1      4166 1.65023E+01
 -1      4167 2.24658E+01
 -1      4168 2.33112E+01
 -1      4169 2.35707E+01
 -1      4170 1.85585E+01
 -1      4171 1.92206E+01
 -1      4172 1.99352E+01
 -1      4173 2.16324E+01
 -1      4174 2.20768E+01
 -1      4175 1.63710E+01
 -1      4176 1.72560E+01
 -1      4177 1.63698E+01
 -1      4178 1.42958E+01
 -1      4179 1.52655E+01
 -1      4180 1.52895E+01
 -1      4181 1.77455E+01
 -1      4182 1.43568E+01
 -1      4183 1.58284E+01
 -1      4184 1.38031E+01
 -1      4185 1.48444E+01
 -1      4186 1.76082E+01
 -1      4187 1.61256E+01
 -1      4188 2.30859E+01
 -1      4189 1.99503E+01
 -1      4190 1.73163E+01
 -1      4191 1.70966E+01
 -1      4192 2.21224E+01
 -1      4193 2.62941E+01
 -1      4194 2.30628E+01
 -1      4195 2.72787E+01
 -1      4196 2.63049E+01
 -1      4197 1.99200E+01
 -1      4198 1.62774E+01
 -1      4199 9.84542E+00
 -1      4200 1.01194E+01
 -1      4201 1.70903E+01
 -1      4202 1.63698E+01
 -1      4203 1.72560E+01
 -1      4204 2.21094E+01
 -1      4205 1.70375E+01
 -1      4206 2.25849E+01
 -1      4207 1.62793E+01
 -1      4208 1.63710E+01
 -1      4209 2.59418E+01
 -1      4210 2.53051E+01
 -1      4211 2.75570E+01
 -1      4212 1.40214E+01
 -1      4213 1.55522E+01
 -1      4214 1.54927E+01
 -1      4215 1.78589E+01
 -1      4216 1.67052E+01
 -1      4217 1.67052E+01
 -1      4218 1.70800E+01
 -1      4219 1.80296E+01
 -1      4220 1.53550E+01
 -1      4221 1.54533E+01
 -1      4222 2.75570E+01
 -1      4223 2.53517E+01
 -1      4224 2.35355E+01
 -1      4225 2.35355E+01
 -1      4226 2.35277E+01
 -1      4227 1.16169E+01
 -1      4228 1.57150E+01
 -1      4229 1.15827E+01
 -1      4230 1.32925E+01
 -1      4231 1.51253E+01
 -1      4232 1.34905E+01
 -1      4233 1.05632E+01
 -1      4234 1.95008E+01
 -1      4235 2.15627E+01
 -1      4236 2.68537E+01
 -1      4237 2.68537E+01
 -1      4238 2.33160E+01
 -1      4239 2.41680E+01
 -1      4240 2.35707E+01
 -1      4241 2.68533E+01
 -1      4242 1.94628E+01
 -1      4243 2.15615E+01
 -1      4244 2.23066E+01
 -1      4245 2.35756E+01
 -1      4246 2.38777E+01
 -1      4247 9.93451E+00
 -1      4248 9.92553E+00
 -1      4249 1.05371E+01
 -1      4250 1.31630E+01
 -1      4251 1.09916E+01
 -1      4252 1.34775E+01
 -1      4253 1.34861E+01
 -1      4254 1.26603E+01
 -1      4255 1.27023E+01
 -1      4256 2.42962E+01
 -1      4257 2.01874E+01
 -1      4258 2.04488E+01
 -1      4259 2.00934E+01
 -1      4260 1.85569E+01
 -1      4261 1.37877E+01
 -1      4262 2.95494E+01
 -1      4263 2.15258E+01
 -1      4264 2.24181E+01
 -1      4265 2.24181E+01
 -1      4266 2.92788E+01
 -1      4267 2.24181E+01
 -1      4268 2.47821E+01
 -1      4269 2.13624E+01
 -1      4270 2.20151E+01
 -1      4271 3.03676E+01
 -1      4272 2.74943E+01
 -1      4273 1.64601E+01
 -1      4274 2.24082E+01
 -1      4275 2.75150E+01
 -1      4276 2.32579E+01
 -1      4277 2.67819E+01
 -1      4278 2.11540E+01
 -1      4279 2.14891E+01
 -1      4280 1.57325E+01
 -1      4281 1.35015E+01
 -1      4282 2.04547E+01
 -1      4283 2.95494E+01
 -1      4284 2.24181E+01
 -1      4285 1.87444E+01
 -1      4286 2.83615E+01
 -1      4287 2.63446E+01
 -1      4288 2.17220E+01
 -1      4289 2.16421E+01
 -1      4290 2.28293E+01
 -1      4291 2.18972E+01
 -1      4292 2.52016E+01
 -1      4293 3.06474E+01
 -1      4294 2.18972E+01
 -1      4295 2.95494E+01
 -1      4296 9.85862E+00
 -1      4297 1.03048E+01
 -1      4298 1.84430E+01
 -1      4299 1.82944E+01
 -1      4300 2.11947E+01
 -1      4301 2.97271E+01
 -1      4302 2.32630E+01
 -1      4303 2.32630E+01
 -1      4304 1.47305E+01
 -1      4305 3.03525E+01
 -1      4306 3.03525E+01
 -1      4307 2.71717E+01
 -1      4308 2.14891E+01
 -1      4309 9.71869E+00
 -1      4310 1.05192E+01
 -1      4311 1.86797E+01
 -1      4312 1.82952E+01
 -1      4313 1.42793E+01
 -1      4314 1.57219E+01
 -1      4315 3.03525E+01
 -1      4316 1.90463E+01
 -1      4317 1.91102E+01
 -1      4318 2.67819E+01
 -1      4319 1.96711E+01
 -1      4320 2.71169E+01
 -1      4321 1.60040E+01
 -1      4322 2.18878E+01
 -1      4323 2.16023E+01
 -1      4324 1.91901E+01
 -1      4325 1.57926E+01
 -1      4326 2.47978E+01
 -1      4327 1.05337E+01
 -1      4328 1.23568E+01
 -1      4329 1.01491E+01
 -1      4330 1.11648E+01
 -1      4331 1.21346E+01
 -1      4332 1.11648E+01
 -1      4333 1.21064E+01
 -1      4334 1.11737E+01
 -1      4335 1.11737E+01
 -1      4336 1.47494E+01
 -1      4337 1.62320E+01
 -1      4338 1.47494E+01
 -1      4339 1.64565E+01
 -1      4340 1.79162E+01
 -1      4341 1.59991E+01
 -1      4342 1.81485E+01
 -1      4343 1.78229E+01
 -1      4344 1.83682E+01
 -1      4345 1.93622E+01
 -1      4346 2.26960E+01
 -1      4347 1.95604E+01
 -1      4348 2.11674E+01
 -1      4349 2.58323E+01
 -1      4350 2.16606E+01
 -1      4351 1.95255E+01
 -1      4352 1.93531E+01
 -1      4353 2.26682E+01
 -1      4354 1.81244E+01
 -1      4355 1.78116E+01
 -1      4356 1.83429E+01
 -1      4357 2.63446E+01
 -1      4358 2.28293E+01
 -1      4359 2.16598E+01
 -1      4360 2.11504E+01
 -1      4361 2.58553E+01
 -1      4362 1.71342E+01
 -1      4363 1.72278E+01
 -1      4364 1.67461E+01
 -1      4365 2.40359E+01
 -1      4366 2.70005E+01
 -1      4367 2.23066E+01
 -1      4368 2.17808E+01
 -1      4369 1.70823E+01
 -1      4370 1.80633E+01
 -1      4371 1.84559E+01
 -1      4372 2.18732E+01
 -1      4373 1.17118E+01
 -1      4374 1.07024E+01
 -1      4375 1.91382E+01
 -1      4376 2.90683E+01
 -1      4377 2.97271E+01
 -1      4378 2.32630E+01
 -1      4379 1.10293E+01
 -1      4380 1.58010E+01
 -1      4381 1.61923E+01
 -1      4382 1.62829E+01
 -1      4383 3.03676E+01
 -1      4384 2.41451E+01
 -1      4385 2.20991E+01
 -1      4386 2.72379E+01
 -1      4387 1.05538E+01
 -1      4388 1.50279E+01
 -1      4389 1.39866E+01
 -1      4390 1.42793E+01
 -1      4391 2.75318E+01
 -1      4392 2.81667E+01
 -1      4393 2.32630E+01
 -1      4394 2.97271E+01
 -1      4395 1.82031E+01
 -1      4396 1.13284E+01
 -1      4397 1.44941E+01
 -1      4398 1.57325E+01
 -1      4399 1.35015E+01
 -1      4400 1.57650E+01
 -1      4401 1.31602E+01
 -1      4402 1.06772E+01
 -1      4403 2.61866E+01
 -3
    1PSTEP                         7           1           2          
    1PGM                1.000000E+00                                  
    1PGK                3.906961E+07                                  
    1PHID                         -1                                  
    1PSUBC                         0                                  
    1PMODE                         2                                  
  100CL  103 994.8089209        4403                     2    3MODAL      1
 -4  DISP        4    1
 -5  D1          1    2    1    0
 -5  D2          1    2    2    0
 -5  D3          1    2    3    0
 -5  ALL         1    2    0    0    1ALL
 -1         1 0.00000E+00 0.00000E+00 0.00000E+00
 -1         2 0.00000E+00 0.00000E+00 0.00000E+00
 -1         3 0.00000E+00 0.00000E+00 0.00000E+00
 -1         4 0.00000E+00 0.00000E+00 0.00000E+00
 -1         5 1.87083E+01 2.04053E+02-8.57000E+01
 -1         6 7.64148E+00 2.04054E+02-8.57022E+01
 -1         7-7.64156E+00 2.04054E+02-8.57028E+01
 -1         8-1.87083E+01 2.04053E+02-8.57007E+01
 -1         9 0.00000E+00 0.00000E+00 0.00000E+00
 -1        10 0.00000E+00 0.00000E+00 0.00000E+00
 -1        11 0.00000E+00 0.00000E+00 0.00000E+00
 -1        12 0.00000E+00 0.00000E+00 0.00000E+00
 -1        13 0.00000E+00 0.00000E+00 0.00000E+00
 -1        14 0.00000E+00 0.00000E+00 0.00000E+00
 -1        15 0.00000E+00 0.00000E+00 0.00000E+00
 -1        16 0.00000E+00 0.00000E+00 0.00000E+00
 -1        17 0.00000E+00 0.00000E+00 0.00000E+00
 -1        18 0.00000E+00 0.00000E+00 0.00000E+00
 -1        19 0.00000E+00 0.00000E+00 0.00000E+00
 -1        20 0.00000E+00 0.00000E+00 0.00000E+00
 -1        21 0.00000E+00 0.00000E+00 0.00000E+00
 -1        22 0.00000E+00 0.00000E+00 0.00000E+00
 -1        23 0.00000E+00 0.00000E+00 0.00000E+00
 -1        24 0.00000E+00 0.00000E+00 0.00000E+00
 -1        25 0.00000E+00 0.00000E+00 0.00000E+00
 -1        26 0.00000E+00 0.00000E+00 0.00000E+00
 -1        27 0.00000E+00 0.00000E+00 0.00000E+00
 -1        28 0.00000E+00 0.00000E+00 0.00000E+00
 -1        29 0.00000E+00 0.00000E+00 0.00000E+00
 -1        30 0.00000E+00 0.00000E+00 0.00000E+00
 -1        31 0.00000E+00 0.00000E+00 0.00000E+00
 -1        32 0.00000E+00 0.00000E+00 0.00000E+00
 -1        33 0.00000E+00 0.00000E+00 0.00000E+00
 -1        34 0.00000E+00 0.00000E+00 0.00000E+00
 -1        35 0.00000E+00 0.00000E+00 0.00000E+00
 -1        36 0.00000E+00 0.00000E+00 0.00000E+00
 -1        37 1.04028E+01 2.04051E+02-8.57045E+01
 -1        38 1.31727E+01 2.04052E+02-8.57048E+01
 -1        39 1.59427E+01 2.04052E+02-8.57026E+01
 -1        40 9.01996E+00 2.04052E+02-8.57033E+01
 -1        41 1.17873E+01 2.04051E+02-8.57049E+01
 -1        42 1.45580E+01 2.04052E+02-8.57038E+01
 -1        43 1.73263E+01 2.04053E+02-8.57010E+01
 -1        44 1.21278E+01 2.04059E+02-8.57018E+01
 -1        45 5.53253E+00 2.04062E+02-8.57007E+01
 -1        46-1.06276E+00 2.04060E+02-8.56998E+01
 -1        47 1.54212E+01 2.04056E+02-8.57012E+01
 -1        48 8.83085E+00 2.04061E+02-8.57014E+01
 -1        49 2.23405E+00 2.04062E+02-8.57000E+01
 -1        50-4.35593E+00 2.04057E+02-8.57006E+01
 -1        51-1.59428E+01 2.04052E+02-8.57030E+01
 -1        52-1.31727E+01 2.04052E+02-8.57052E+01
 -1        53-1.04028E+01 2.04051E+02-8.57051E+01
 -1        54-1.73262E+01 2.04052E+02-8.57017E+01
 -1        55-1.45580E+01 2.04052E+02-8.57043E+01
 -1        56-1.17874E+01 2.04051E+02-8.57055E+01
 -1        57-9.02010E+00 2.04052E+02-8.57040E+01
 -1        58 1.06268E+00 2.04059E+02-8.56995E+01
 -1        59-5.53244E+00 2.04061E+02-8.57006E+01
 -1        60-1.21278E+01 2.04058E+02-8.57020E+01
 -1        61 4.35583E+00 2.04056E+02-8.57001E+01
 -1        62-2.23414E+00 2.04061E+02-8.56997E+01
 -1        63-8.83086E+00 2.04060E+02-8.57015E+01
 -1        64-1.54211E+01 2.04055E+02-8.57017E+01
 -1        65 6.56055E-01 2.65552E-01 2.66877E-01
 -1        66 1.25882E+00 1.24999E+00-9.47749E-02
 -1        67 1.84711E+00 2.91051E+00-8.03349E-01
 -1        68 2.40801E+00 5.17230E+00-1.77494E+00
 -1        69 2.93850E+00 7.99105E+00-2.98363E+00
 -1        70 3.43473E+00 1.13308E+01-4.41035E+00
 -1        71 3.90041E+00 1.51549E+01-6.03849E+00
 -1        72 4.33413E+00 1.94348E+01-7.85925E+00
 -1        73 4.73623E+00 2.41350E+01-9.85494E+00
 -1        74 5.10851E+00 2.92285E+01-1.20162E+01
 -1        75 5.45145E+00 3.46827E+01-1.43283E+01
 -1        76 5.76547E+00 4.04676E+01-1.67786E+01
 -1        77 6.05095E+00 4.65526E+01-1.93539E+01
 -1        78 6.30997E+00 5.29130E+01-2.20451E+01
 -1        79 6.54207E+00 5.95204E+01-2.48390E+01
 -1        80 6.74880E+00 6.63474E+01-2.77246E+01
 -1        81 6.93181E+00 7.33677E+01-3.06895E+01
 -1        82 7.09132E+00 8.05593E+01-3.37268E+01
 -1        83 7.22817E+00 8.78964E+01-3.68236E+01
 -1        84 7.34468E+00 9.53591E+01-3.99732E+01
 -1        85 7.44079E+00 1.02927E+02-4.31655E+01
 -1        86 7.51938E+00 1.10577E+02-4.63908E+01
 -1        87 7.58071E+00 1.18294E+02-4.96436E+01
 -1        88 7.62688E+00 1.26061E+02-5.29166E+01
 -1        89 7.65947E+00 1.33863E+02-5.62022E+01
 -1        90 7.67970E+00 1.41686E+02-5.94961E+01
 -1        91 7.68981E+00 1.49518E+02-6.27926E+01
 -1        92 7.69157E+00 1.57351E+02-6.60875E+01
 -1        93 7.68711E+00 1.65176E+02-6.93777E+01
 -1        94 7.67803E+00 1.72987E+02-7.26610E+01
 -1        95 7.66695E+00 1.80781E+02-7.59351E+01
 -1        96 7.65582E+00 1.88557E+02-7.92001E+01
 -1        97 7.64669E+00 1.96315E+02-8.24564E+01
 -1        98 3.55618E-01 7.27873E-02 2.54692E-01
 -1        99 9.58185E-01 6.69630E-01 1.38013E-01
 -1       100 1.55592E+00 2.00187E+00-4.12754E-01
 -1       101 2.13123E+00 3.96993E+00-1.25856E+00
 -1       102 2.67724E+00 6.51475E+00-2.35123E+00
 -1       103 3.19051E+00 9.59827E+00-3.67023E+00
 -1       104 3.67145E+00 1.31837E+01-5.19977E+00
 -1       105 4.12092E+00 1.72397E+01-6.92609E+00
 -1       106 4.53908E+00 2.17340E+01-8.83602E+00
 -1       107 4.92616E+00 2.66348E+01-1.09161E+01
 -1       108 5.28342E+00 3.19123E+01-1.31544E+01
 -1       109 5.61193E+00 3.75354E+01-1.55370E+01
 -1       110 5.91172E+00 4.34741E+01-1.80514E+01
 -1       111 6.18387E+00 4.97005E+01-2.06861E+01
 -1       112 6.42904E+00 5.61876E+01-2.34297E+01
 -1       113 6.64859E+00 6.29078E+01-2.62708E+01
 -1       114 6.84316E+00 6.98345E+01-2.91976E+01
 -1       115 7.01421E+00 7.69434E+01-3.22001E+01
 -1       116 7.16248E+00 8.42108E+01-3.52683E+01
 -1       117 7.28888E+00 9.16136E+01-3.83926E+01
 -1       118 7.39499E+00 9.91313E+01-4.15643E+01
 -1       119 7.48237E+00 1.06742E+02-4.47741E+01
 -1       120 7.55197E+00 1.14428E+02-4.80143E+01
 -1       121 7.60558E+00 1.22172E+02-5.12780E+01
 -1       122 7.64470E+00 1.29959E+02-5.45581E+01
 -1       123 7.67090E+00 1.37772E+02-5.78485E+01
 -1       124 7.68590E+00 1.45601E+02-6.11442E+01
 -1       125 7.69161E+00 1.53435E+02-6.44403E+01
 -1       126 7.68999E+00 1.61265E+02-6.77333E+01
 -1       127 7.68294E+00 1.69083E+02-7.10203E+01
 -1       128 7.67263E+00 1.76886E+02-7.42991E+01
 -1       129 7.66125E+00 1.84671E+02-7.75687E+01
 -1       130 7.65087E+00 1.92438E+02-8.08292E+01
 -1       131 7.64344E+00 2.00188E+02-8.40812E+01
 -1       132 1.60733E+00 6.52229E-01-6.53404E-01
 -1       133 3.08075E+00 1.68978E+00-1.13943E+00
 -1       134 4.52193E+00 3.33878E+00-1.82128E+00
 -1       135 5.89576E+00 5.57816E+00-2.73893E+00
 -1       136 7.19376E+00 8.37247E+00-3.88840E+00
 -1       137 8.41000E+00 1.16860E+01-5.25654E+00
 -1       138 9.54987E+00 1.54883E+01-6.83004E+00
 -1       139 1.06094E+01 1.97439E+01-8.59452E+00
 -1       140 1.15963E+01 2.44220E+01-1.05384E+01
 -1       141 1.25080E+01 2.94939E+01-1.26458E+01
 -1       142 1.33465E+01 3.49255E+01-1.49060E+01
 -1       143 1.41142E+01 4.06893E+01-1.73058E+01
 -1       144 1.48150E+01 4.67546E+01-1.98343E+01
 -1       145 1.54477E+01 5.30955E+01-2.24777E+01
 -1       146 1.60168E+01 5.96829E+01-2.52251E+01
 -1       147 1.65239E+01 6.64910E+01-2.80672E+01
 -1       148 1.69703E+01 7.34947E+01-3.09908E+01
 -1       149 1.73604E+01 8.06690E+01-3.39876E+01
 -1       150 1.76963E+01 8.79911E+01-3.70474E+01
 -1       151 1.79814E+01 9.54391E+01-4.01603E+01
 -1       152 1.82173E+01 1.02991E+02-4.33188E+01
 -1       153 1.84091E+01 1.10629E+02-4.65140E+01
 -1       154 1.85596E+01 1.18335E+02-4.97386E+01
 -1       155 1.86730E+01 1.26091E+02-5.29854E+01
 -1       156 1.87517E+01 1.33883E+02-5.62486E+01
 -1       157 1.88020E+01 1.41697E+02-5.95231E+01
 -1       158 1.88269E+01 1.49523E+02-6.28028E+01
 -1       159 1.88310E+01 1.57351E+02-6.60849E+01
 -1       160 1.88199E+01 1.65171E+02-6.93658E+01
 -1       161 1.87978E+01 1.72980E+02-7.26430E+01
 -1       162 1.87705E+01 1.80774E+02-7.59154E+01
 -1       163 1.87432E+01 1.88550E+02-7.91824E+01
 -1       164 1.87212E+01 1.96311E+02-8.24441E+01
 -1       165 8.71156E-01 3.63564E-01-4.38197E-01
 -1       166 2.34599E+00 1.09745E+00-8.79654E-01
 -1       167 3.80838E+00 2.43837E+00-1.45172E+00
 -1       168 5.21821E+00 4.38696E+00-2.25064E+00
 -1       169 6.55451E+00 6.90783E+00-3.28519E+00
 -1       170 7.81130E+00 9.96605E+00-4.54613E+00
 -1       171 8.98948E+00 1.35280E+01-6.01839E+00
 -1       172 1.00889E+01 1.75611E+01-7.68946E+00
 -1       173 1.11122E+01 2.20321E+01-9.54506E+00
 -1       174 1.20608E+01 2.69107E+01-1.15721E+01
 -1       175 1.29357E+01 3.21662E+01-1.37578E+01
 -1       176 1.37391E+01 3.77679E+01-1.60894E+01
 -1       177 1.44730E+01 4.36859E+01-1.85549E+01
 -1       178 1.51393E+01 4.98925E+01-2.11421E+01
 -1       179 1.57400E+01 5.63600E+01-2.38391E+01
 -1       180 1.62779E+01 6.30610E+01-2.66351E+01
 -1       181 1.67540E+01 6.99700E+01-2.95193E+01
 -1       182 1.71723E+01 7.70619E+01-3.24808E+01
 -1       183 1.75349E+01 8.43129E+01-3.55102E+01
 -1       184 1.78447E+01 9.17006E+01-3.85976E+01
 -1       185 1.81050E+01 9.92032E+01-4.17346E+01
 -1       186 1.83186E+01 1.06801E+02-4.49122E+01
 -1       187 1.84893E+01 1.14475E+02-4.81230E+01
 -1       188 1.86205E+01 1.22207E+02-5.13595E+01
 -1       189 1.87162E+01 1.29984E+02-5.46155E+01
 -1       190 1.87803E+01 1.37788E+02-5.78848E+01
 -1       191 1.88171E+01 1.45610E+02-6.11625E+01
 -1       192 1.88311E+01 1.53437E+02-6.44438E+01
 -1       193 1.88271E+01 1.61262E+02-6.77256E+01
 -1       194 1.88097E+01 1.69078E+02-7.10049E+01
 -1       195 1.87845E+01 1.76879E+02-7.42799E+01
 -1       196 1.87565E+01 1.84664E+02-7.75495E+01
 -1       197 1.87313E+01 1.92432E+02-8.08138E+01
 -1       198 1.87131E+01 2.00186E+02-8.40731E+01
 -1       199-1.60628E+00 6.52233E-01-6.54864E-01
 -1       200-3.08072E+00 1.68929E+00-1.14027E+00
 -1       201-4.52228E+00 3.33834E+00-1.82153E+00
 -1       202-5.89697E+00 5.57707E+00-2.73987E+00
 -1       203-7.19374E+00 8.37121E+00-3.88939E+00
 -1       204-8.41102E+00 1.16854E+01-5.25748E+00
 -1       205-9.54901E+00 1.54874E+01-6.83046E+00
 -1       206-1.06095E+01 1.97435E+01-8.59500E+00
 -1       207-1.15964E+01 2.44225E+01-1.05384E+01
 -1       208-1.25081E+01 2.94934E+01-1.26463E+01
 -1       209-1.33466E+01 3.49251E+01-1.49065E+01
 -1       210-1.41144E+01 4.06888E+01-1.73063E+01
 -1       211-1.48152E+01 4.67542E+01-1.98348E+01
 -1       212-1.54486E+01 5.30946E+01-2.24780E+01
 -1       213-1.60173E+01 5.96822E+01-2.52263E+01
 -1       214-1.65240E+01 6.64912E+01-2.80672E+01
 -1       215-1.69705E+01 7.34941E+01-3.09913E+01
 -1       216-1.73604E+01 8.06685E+01-3.39880E+01
 -1       217-1.76969E+01 8.79907E+01-3.70477E+01
 -1       218-1.79815E+01 9.54387E+01-4.01608E+01
 -1       219-1.82180E+01 1.02991E+02-4.33195E+01
 -1       220-1.84093E+01 1.10629E+02-4.65145E+01
 -1       221-1.85597E+01 1.18334E+02-4.97391E+01
 -1       222-1.86728E+01 1.26090E+02-5.29861E+01
 -1       223-1.87518E+01 1.33882E+02-5.62493E+01
 -1       224-1.88021E+01 1.41697E+02-5.95236E+01
 -1       225-1.88269E+01 1.49523E+02-6.28035E+01
 -1       226-1.88313E+01 1.57350E+02-6.60856E+01
 -1       227-1.88199E+01 1.65171E+02-6.93665E+01
 -1       228-1.87979E+01 1.72980E+02-7.26437E+01
 -1       229-1.87706E+01 1.80773E+02-7.59162E+01
 -1       230-1.87433E+01 1.88550E+02-7.91831E+01
 -1       231-1.87213E+01 1.96310E+02-8.24447E+01
 -1       232-8.71276E-01 3.64094E-01-4.38165E-01
 -1       233-2.34584E+00 1.09651E+00-8.80468E-01
 -1       234-3.80855E+00 2.43788E+00-1.45196E+00
 -1       235-5.21880E+00 4.38637E+00-2.25110E+00
 -1       236-6.55490E+00 6.90704E+00-3.28609E+00
 -1       237-7.81153E+00 9.96554E+00-4.54684E+00
 -1       238-8.98944E+00 1.35278E+01-6.01932E+00
 -1       239-1.00889E+01 1.75607E+01-7.68989E+00
 -1       240-1.11122E+01 2.20319E+01-9.54528E+00
 -1       241-1.20609E+01 2.69104E+01-1.15724E+01
 -1       242-1.29358E+01 3.21657E+01-1.37583E+01
 -1       243-1.37392E+01 3.77674E+01-1.60899E+01
 -1       244-1.44732E+01 4.36855E+01-1.85553E+01
 -1       245-1.51395E+01 4.98920E+01-2.11425E+01
 -1       246-1.57407E+01 5.63593E+01-2.38398E+01
 -1       247-1.62779E+01 6.30605E+01-2.66356E+01
 -1       248-1.67542E+01 6.99696E+01-2.95196E+01
 -1       249-1.71724E+01 7.70614E+01-3.24813E+01
 -1       250-1.75351E+01 8.43124E+01-3.55106E+01
 -1       251-1.78450E+01 9.17001E+01-3.85981E+01
 -1       252-1.81052E+01 9.92027E+01-4.17351E+01
 -1       253-1.83188E+01 1.06800E+02-4.49129E+01
 -1       254-1.84893E+01 1.14474E+02-4.81236E+01
 -1       255-1.86206E+01 1.22207E+02-5.13603E+01
 -1       256-1.87162E+01 1.29983E+02-5.46161E+01
 -1       257-1.87803E+01 1.37788E+02-5.78854E+01
 -1       258-1.88172E+01 1.45609E+02-6.11631E+01
 -1       259-1.88313E+01 1.53437E+02-6.44445E+01
 -1       260-1.88272E+01 1.61261E+02-6.77262E+01
 -1       261-1.88098E+01 1.69077E+02-7.10057E+01
 -1       262-1.87846E+01 1.76878E+02-7.42806E+01
 -1       263-1.87566E+01 1.84663E+02-7.75503E+01
 -1       264-1.87313E+01 1.92432E+02-8.08145E+01
 -1       265-1.87131E+01 2.00185E+02-8.40738E+01
 -1       266-6.55103E-01 2.65367E-01 2.67281E-01
 -1       267-1.25760E+00 1.25035E+00-9.41790E-02
 -1       268-1.84717E+00 2.91110E+00-8.02965E-01
 -1       269-2.40840E+00 5.17329E+00-1.77600E+00
 -1       270-2.93844E+00 7.99181E+00-2.98421E+00
 -1       271-3.43468E+00 1.13313E+01-4.41090E+00
 -1       272-3.90051E+00 1.51553E+01-6.03892E+00
 -1       273-4.33421E+00 1.94352E+01-7.85967E+00
 -1       274-4.73631E+00 2.41355E+01-9.85537E+00
 -1       275-5.10866E+00 2.92289E+01-1.20167E+01
 -1       276-5.45175E+00 3.46832E+01-1.43287E+01
 -1       277-5.76559E+00 4.04674E+01-1.67792E+01
 -1       278-6.05086E+00 4.65531E+01-1.93543E+01
 -1       279-6.31007E+00 5.29136E+01-2.20456E+01
 -1       280-6.54214E+00 5.95208E+01-2.48395E+01
 -1       281-6.74907E+00 6.63478E+01-2.77251E+01
 -1       282-6.93179E+00 7.33676E+01-3.06901E+01
 -1       283-7.09106E+00 8.05597E+01-3.37272E+01
 -1       284-7.22860E+00 8.78973E+01-3.68243E+01
 -1       285-7.34476E+00 9.53598E+01-3.99737E+01
 -1       286-7.44096E+00 1.02927E+02-4.31657E+01
 -1       287-7.51962E+00 1.10578E+02-4.63915E+01
 -1       288-7.58085E+00 1.18295E+02-4.96443E+01
 -1       289-7.62696E+00 1.26062E+02-5.29173E+01
 -1       290-7.65954E+00 1.33864E+02-5.62029E+01
 -1       291-7.67977E+00 1.41686E+02-5.94968E+01
 -1       292-7.68988E+00 1.49519E+02-6.27932E+01
 -1       293-7.69162E+00 1.57352E+02-6.60881E+01
 -1       294-7.68717E+00 1.65176E+02-6.93783E+01
 -1       295-7.67810E+00 1.72988E+02-7.26616E+01
 -1       296-7.66695E+00 1.80782E+02-7.59359E+01
 -1       297-7.65585E+00 1.88558E+02-7.92009E+01
 -1       298-7.64679E+00 1.96316E+02-8.24570E+01
 -1       299-3.54926E-01 7.36443E-02 2.54831E-01
 -1       300-9.57203E-01 6.69298E-01 1.38083E-01
 -1       301-1.55521E+00 2.00164E+00-4.12906E-01
 -1       302-2.13170E+00 3.97019E+00-1.25900E+00
 -1       303-2.67751E+00 6.51550E+00-2.35193E+00
 -1       304-3.19046E+00 9.59866E+00-3.67086E+00
 -1       305-3.67149E+00 1.31842E+01-5.20025E+00
 -1       306-4.12101E+00 1.72402E+01-6.92651E+00
 -1       307-4.53915E+00 2.17345E+01-8.83645E+00
 -1       308-4.92626E+00 2.66352E+01-1.09165E+01
 -1       309-5.28363E+00 3.19128E+01-1.31548E+01
 -1       310-5.61218E+00 3.75358E+01-1.55374E+01
 -1       311-5.91149E+00 4.34745E+01-1.80517E+01
 -1       312-6.18393E+00 4.97010E+01-2.06866E+01
 -1       313-6.42910E+00 5.61881E+01-2.34302E+01
 -1       314-6.64874E+00 6.29083E+01-2.62713E+01
 -1       315-6.84349E+00 6.98350E+01-2.91979E+01
 -1       316-7.01403E+00 7.69439E+01-3.22005E+01
 -1       317-7.16243E+00 8.42112E+01-3.52688E+01
 -1       318-7.28913E+00 9.16143E+01-3.83932E+01
 -1       319-7.39513E+00 9.91317E+01-4.15647E+01
 -1       320-7.48238E+00 1.06743E+02-4.47747E+01
 -1       321-7.55220E+00 1.14429E+02-4.80150E+01
 -1       322-7.60566E+00 1.22173E+02-5.12787E+01
 -1       323-7.64478E+00 1.29959E+02-5.45587E+01
 -1       324-7.67097E+00 1.37773E+02-5.78492E+01
 -1       325-7.68596E+00 1.45602E+02-6.11448E+01
 -1       326-7.69168E+00 1.53436E+02-6.44410E+01
 -1       327-7.69004E+00 1.61265E+02-6.77340E+01
 -1       328-7.68301E+00 1.69084E+02-7.10209E+01
 -1       329-7.67266E+00 1.76887E+02-7.42998E+01
 -1       330-7.66125E+00 1.84672E+02-7.75694E+01
 -1       331-7.65096E+00 1.92439E+02-8.08299E+01
 -1       332-7.64349E+00 2.00189E+02-8.40818E+01
 -1       333 0.00000E+00 0.00000E+00 0.00000E+00
 -1       334 0.00000E+00 0.00000E+00 0.00000E+00
 -1       335 0.00000E+00 0.00000E+00 0.00000E+00
 -1       336 0.00000E+00 0.00000E+00 0.00000E+00
 -1       337 0.00000E+00 0.00000E+00 0.00000E+00
 -1       338 0.00000E+00 0.00000E+00 0.00000E+00
 -1       339 0.00000E+00 0.00000E+00 0.00000E+00
 -1       340 0.00000E+00 0.00000E+00 0.00000E+00
 -1       341 0.00000E+00 0.00000E+00 0.00000E+00
 -1       342 0.00000E+00 0.00000E+00 0.00000E+00
 -1       343 0.00000E+00 0.00000E+00 0.00000E+00
 -1       344 0.00000E+00 0.00000E+00 0.00000E+00
 -1       345 0.00000E+00 0.00000E+00 0.00000E+00
 -1       346 0.00000E+00 0.00000E+00 0.00000E+00
 -1       347 0.00000E+00 0.00000E+00 0.00000E+00
 -1       348 0.00000E+00 0.00000E+00 0.00000E+00
 -1       349 0.00000E+00 0.00000E+00 0.00000E+00
 -1       350 0.00000E+00 0.00000E+00 0.00000E+00
 -1       351 0.00000E+00 0.00000E+00 0.00000E+00
 -1       352 0.00000E+00 0.00000E+00 0.00000E+00
 -1       353 0.00000E+00 0.00000E+00 0.00000E+00
 -1       354 0.00000E+00 0.00000E+00 0.00000E+00
 -1       355 0.00000E+00 0.00000E+00 0.00000E+00
 -1       356 0.00000E+00 0.00000E+00 0.00000E+00
 -1       357 0.00000E+00 0.00000E+00 0.00000E+00
 -1       358 0.00000E+00 0.00000E+00 0.00000E+00
 -1       359 0.00000E+00 0.00000E+00 0.00000E+00
 -1       360 0.00000E+00 0.00000E+00 0.00000E+00
 -1       361 0.00000E+00 0.00000E+00 0.00000E+00
 -1       362 0.00000E+00 0.00000E+00 0.00000E+00
 -1       363 0.00000E+00 0.00000E+00 0.00000E+00
 -1       364 0.00000E+00 0.00000E+00 0.00000E+00
 -1       365 0.00000E+00 0.00000E+00 0.00000E+00
 -1       366 0.00000E+00 0.00000E+00 0.00000E+00
 -1       367 0.00000E+00 0.00000E+00 0.00000E+00
 -1       368 0.00000E+00 0.00000E+00 0.00000E+00
 -1       369 0.00000E+00 0.00000E+00 0.00000E+00
 -1       370 0.00000E+00 0.00000E+00 0.00000E+00
 -1       371 0.00000E+00 0.00000E+00 0.00000E+00
 -1       372 0.00000E+00 0.00000E+00 0.00000E+00
 -1       373 0.00000E+00 0.00000E+00 0.00000E+00
 -1       374 0.00000E+00 0.00000E+00 0.00000E+00
 -1       375 0.00000E+00 0.00000E+00 0.00000E+00
 -1       376 0.00000E+00 0.00000E+00 0.00000E+00
 -1       377 0.00000E+00 0.00000E+00 0.00000E+00
 -1       378 0.00000E+00 0.00000E+00 0.00000E+00
 -1       379 0.00000E+00 0.00000E+00 0.00000E+00
 -1       380 0.00000E+00 0.00000E+00 0.00000E+00
 -1       381 0.00000E+00 0.00000E+00 0.00000E+00
 -1       382 0.00000E+00 0.00000E+00 0.00000E+00
 -1       383 0.00000E+00 0.00000E+00 0.00000E+00
 -1       384 0.00000E+00 0.00000E+00 0.00000E+00
 -1       385 0.00000E+00 0.00000E+00 0.00000E+00
 -1       386 0.00000E+00 0.00000E+00 0.00000E+00
 -1       387 0.00000E+00 0.00000E+00 0.00000E+00
 -1       388 0.00000E+00 0.00000E+00 0.00000E+00
 -1       389 0.00000E+00 0.00000E+00 0.00000E+00
 -1       390 0.00000E+00 0.00000E+00 0.00000E+00
 -1       391 0.00000E+00 0.00000E+00 0.00000E+00
 -1       392 0.00000E+00 0.00000E+00 0.00000E+00
 -1       393 0.00000E+00 0.00000E+00 0.00000E+00
 -1       394 0.00000E+00 0.00000E+00 0.00000E+00
 -1       395 0.00000E+00 0.00000E+00 0.00000E+00
 -1       396 0.00000E+00 0.00000E+00 0.00000E+00
 -1       397 0.00000E+00 0.00000E+00 0.00000E+00
 -1       398 0.00000E+00 0.00000E+00 0.00000E+00
 -1       399 0.00000E+00 0.00000E+00 0.00000E+00
 -1       400 0.00000E+00 0.00000E+00 0.00000E+00
 -1       401 0.00000E+00 0.00000E+00 0.00000E+00
 -1       402 0.00000E+00 0.00000E+00 0.00000E+00
 -1       403 0.00000E+00 0.00000E+00 0.00000E+00
 -1       404 0.00000E+00 0.00000E+00 0.00000E+00
 -1       405 0.00000E+00 0.00000E+00 0.00000E+00
 -1       406-5.08776E-02 2.04060E+02-8.57026E+01
 -1       407-6.24414E+00 2.04060E+02-8.57026E+01
 -1       408 9.53198E+00 2.04056E+02-8.57037E+01
 -1       409 8.81690E-02 2.04060E+02-8.57023E+01
 -1       410-9.74221E-01 2.04059E+02-8.57037E+01
 -1       411-8.27999E+00 2.04056E+02-8.57043E+01
 -1       412 7.10053E+00 2.04060E+02-8.57025E+01
 -1       413 6.10557E+00 2.04056E+02-8.57042E+01
 -1       414-6.94432E+00 2.04055E+02-8.57046E+01
 -1       415-2.48055E+00 2.04059E+02-8.57039E+01
 -1       416 1.18694E+01 2.04056E+02-8.57023E+01
 -1       417-1.18698E+01 2.04056E+02-8.57027E+01
 -1       418 4.84824E+00 2.04056E+02-8.57023E+01
 -1       419-4.87113E+00 2.04056E+02-8.57026E+01
 -1       420 3.57831E+00 2.04059E+02-8.57038E+01
 -1       421 1.39077E+01 2.04054E+02-8.57024E+01
 -1       422 1.52913E+01 2.04054E+02-8.57013E+01
 -1       423 1.19991E+01 2.04058E+02-8.57018E+01
 -1       424 6.24578E+00 2.04054E+02-8.57016E+01
 -1       425 7.62705E+00 2.04053E+02-8.57036E+01
 -1       426 2.95473E+00 2.04058E+02-8.57009E+01
 -1       427-2.96631E+00 2.04058E+02-8.57012E+01
 -1       428-6.25738E+00 2.04054E+02-8.57020E+01
 -1       429-7.63867E+00 2.04054E+02-8.57041E+01
 -1       430-1.39078E+01 2.04054E+02-8.57028E+01
 -1       431-1.52913E+01 2.04054E+02-8.57019E+01
 -1       432-1.19994E+01 2.04057E+02-8.57022E+01
 -1       433 8.25642E+00 2.04053E+02-8.57043E+01
 -1       434 9.64115E+00 2.04054E+02-8.57047E+01
 -1       435 5.47656E+00 2.04056E+02-8.57034E+01
 -1       436 1.13541E+01 2.04053E+02-8.57043E+01
 -1       437 1.27393E+01 2.04054E+02-8.57033E+01
 -1       438 7.81878E+00 2.04056E+02-8.57042E+01
 -1       439 1.07009E+01 2.04056E+02-8.57030E+01
 -1       440 9.61481E+00 2.04060E+02-8.57020E+01
 -1       441 6.31751E+00 2.04062E+02-8.57015E+01
 -1       442 9.48565E+00 2.04058E+02-8.57025E+01
 -1       443 2.74145E+00 2.04062E+02-8.57014E+01
 -1       444-5.55673E-01 2.04060E+02-8.57011E+01
 -1       445 3.52502E+00 2.04061E+02-8.57024E+01
 -1       446-2.46173E+00 2.04059E+02-8.57024E+01
 -1       447-1.07287E+01 2.04054E+02-8.57048E+01
 -1       448-1.21136E+01 2.04054E+02-8.57039E+01
 -1       449-1.00752E+01 2.04056E+02-8.57036E+01
 -1       450-8.67534E+00 2.04053E+02-8.57049E+01
 -1       451-1.00598E+01 2.04053E+02-8.57052E+01
 -1       452-7.61201E+00 2.04056E+02-8.57046E+01
 -1       453-5.90731E+00 2.04056E+02-8.57037E+01
 -1       454-2.72271E+00 2.04061E+02-8.57011E+01
 -1       455 5.74318E-01 2.04060E+02-8.57008E+01
 -1       456 2.46887E+00 2.04058E+02-8.57021E+01
 -1       457-9.18659E+00 2.04059E+02-8.57022E+01
 -1       458-5.88937E+00 2.04061E+02-8.57017E+01
 -1       459-3.07775E+00 2.04060E+02-8.57024E+01
 -1       460-9.05762E+00 2.04058E+02-8.57028E+01
 -1       461 5.33957E+00 2.04060E+02-8.57032E+01
 -1       462 1.76399E+00 2.04060E+02-8.57032E+01
 -1       463-1.26540E+00 2.04059E+02-8.57035E+01
 -1       464-4.71308E+00 2.04057E+02-8.57042E+01
 -1       465-3.49815E+00 2.04058E+02-8.57036E+01
 -1       466 5.48722E-01 2.04059E+02-8.57038E+01
 -1       467-3.60937E+00 2.04060E+02-8.57033E+01
 -1       468-4.43246E-01 2.04060E+02-8.57032E+01
 -1       469-7.26243E+00 2.04058E+02-8.57035E+01
 -1       470-4.62779E+00 2.04059E+02-8.57040E+01
 -1       471 8.31681E+00 2.04058E+02-8.57032E+01
 -1       472 6.55571E+00 2.04058E+02-8.57038E+01
 -1       473 4.84241E+00 2.04058E+02-8.57040E+01
 -1       474 2.56652E+00 2.04059E+02-8.57038E+01
 -1       475 3.09689E+00 2.04058E+02-8.57033E+01
 -1       476-5.38051E+00 2.04058E+02-8.57043E+01
 -1       477-1.72749E+00 2.04059E+02-8.57039E+01
 -1       478 1.30202E+00 2.04059E+02-8.57039E+01
 -1       479 1.04213E+01 1.22197E+02-5.12920E+01
 -1       480 1.05339E+01 1.53436E+02-6.44406E+01
 -1       481 1.59851E+01 1.84582E+02-7.75219E+01
 -1       482 9.99131E+00 9.16744E+01-3.84284E+01
 -1       483 1.55587E+01 1.06812E+02-4.48661E+01
 -1       484 1.59496E+01 1.37791E+02-5.78727E+01
 -1       485 1.59757E+01 1.69076E+02-7.10099E+01
 -1       486 1.45853E+01 7.70853E+01-3.23868E+01
 -1       487 4.38301E+00 9.85411E+00-3.82073E+00
 -1       488 5.66132E+00 1.74661E+01-7.05938E+00
 -1       489 4.43028E+00 4.46872E+00-1.91906E+00
 -1       490 7.70054E+00 3.76998E+01-1.56332E+01
 -1       491 8.80988E+00 5.62794E+01-2.34883E+01
 -1       492 6.76428E+00 2.68292E+01-1.10309E+01
 -1       493 1.89149E+00 1.12882E+00-4.99223E-01
 -1       494 2.13881E+00 2.30837E+00-5.95119E-01
 -1       495 1.05023E+01 1.92796E+02-8.09781E+01
 -1       496 9.38201E+00 6.99297E+01-2.92535E+01
 -1       497 1.05034E+01 1.76881E+02-7.42953E+01
 -1       498 7.63525E+00 1.35954E+01-5.74488E+00
 -1       499 1.22903E+01 4.37274E+01-1.83867E+01
 -1       500 1.38613E+01 6.30690E+01-2.65057E+01
 -1       501 9.43586E+00 2.20906E+01-9.30817E+00
 -1       502 1.09868E+01 3.22159E+01-1.35557E+01
 -1       503 6.90104E-01 4.24406E-01 5.45509E-02
 -1       504 1.44850E+01 1.98589E+02-8.34065E+01
 -1       505 1.58150E+01 1.22214E+02-5.13323E+01
 -1       506 1.59939E+01 1.53438E+02-6.44425E+01
 -1       507 1.51562E+01 9.17175E+01-3.85292E+01
 -1       508 1.02526E+01 1.06783E+02-4.47980E+01
 -1       509 1.05079E+01 1.37783E+02-5.78545E+01
 -1       510 3.22275E+00 2.51610E+00-1.10203E+00
 -1       511 2.92921E+00 4.25318E+00-1.42730E+00
 -1       512 3.67687E+00 6.78221E+00-2.50992E+00
 -1       513 5.07860E+00 8.40120E+00-3.33840E+00
 -1       514 1.04709E+01 1.84698E+02-7.75787E+01
 -1       515 1.04733E+01 1.29976E+02-5.45678E+01
 -1       516 1.58963E+01 1.29988E+02-5.45962E+01
 -1       517 1.42491E+01 6.99946E+01-2.94112E+01
 -1       518 9.61631E+00 7.70266E+01-3.22489E+01
 -1       519 1.53768E+01 9.92175E+01-4.16773E+01
 -1       520 1.01365E+01 9.91827E+01-4.15938E+01
 -1       521 6.23102E+00 2.19449E+01-8.95985E+00
 -1       522 8.10831E+00 4.36240E+01-1.81392E+01
 -1       523 8.46758E+00 4.98297E+01-2.07634E+01
 -1       524 1.09089E+01 5.30486E+01-2.21898E+01
 -1       525 1.16697E+01 3.78139E+01-1.59045E+01
 -1       526 1.59819E+01 1.45611E+02-6.11561E+01
 -1       527 1.05275E+01 1.45607E+02-6.11470E+01
 -1       528 9.09322E+00 6.29795E+01-2.63183E+01
 -1       529 1.59540E+01 1.76877E+02-7.42862E+01
 -1       530 1.05192E+01 1.69079E+02-7.10172E+01
 -1       531 1.02435E+01 2.69646E+01-1.13527E+01
 -1       532 8.56930E+00 1.76242E+01-7.43395E+00
 -1       533 1.05304E+01 1.61262E+02-6.77316E+01
 -1       534 5.04072E+00 1.34255E+01-5.34189E+00
 -1       535 1.59901E+01 1.61261E+02-6.77281E+01
 -1       536 9.81695E+00 8.42831E+01-3.53104E+01
 -1       537 7.25276E+00 3.20913E+01-1.32596E+01
 -1       538 1.48931E+01 8.43330E+01-3.54291E+01
 -1       539 1.03487E+01 1.14461E+02-4.80332E+01
 -1       540 1.57037E+01 1.14483E+02-4.80866E+01
 -1       541 2.20530E+00 1.79314E+00-5.32972E-01
 -1       542 3.18993E+00 3.37606E+00-1.20515E+00
 -1       543 6.67436E+00 1.01001E+01-4.28374E+00
 -1       544 8.90457E-01 5.28814E-01-1.03799E-01
 -1       545 1.29035E+01 4.99191E+01-2.09877E+01
 -1       546 1.13072E+01 5.96728E+01-2.49813E+01
 -1       547 1.32309E+01 1.88138E+02-7.90195E+01
 -1       548 5.56112E+00 6.92778E+00-2.95510E+00
 -1       549 1.32214E+01 1.80755E+02-7.59193E+01
 -1       550 5.93283E+00 1.17202E+01-4.74443E+00
 -1       551 1.32607E+01 1.49524E+02-6.27962E+01
 -1       552 1.32444E+01 1.41699E+02-5.95059E+01
 -1       553 1.29709E+01 1.10634E+02-4.64393E+01
 -1       554 1.32636E+01 1.57350E+02-6.60861E+01
 -1       555 1.24689E+01 8.79996E+01-3.69116E+01
 -1       556 1.30758E+01 1.18338E+02-4.96807E+01
 -1       557 1.28348E+01 1.02997E+02-4.32256E+01
 -1       558 1.26697E+01 9.54459E+01-4.00470E+01
 -1       559 1.32384E+01 1.72979E+02-7.26533E+01
 -1       560 1.32550E+01 1.65171E+02-6.93725E+01
 -1       561 1.32097E+01 1.33885E+02-5.62204E+01
 -1       562 1.22343E+01 8.06789E+01-3.38293E+01
 -1       563 1.16528E+01 6.64905E+01-2.78532E+01
 -1       564 6.73701E+00 1.55196E+01-6.35147E+00
 -1       565 7.48383E+00 1.97727E+01-8.14927E+00
 -1       566 8.81876E+00 2.95186E+01-1.22650E+01
 -1       567 9.40916E+00 3.49485E+01-1.45566E+01
 -1       568 8.17694E+00 2.44498E+01-1.01242E+01
 -1       569 9.95040E+00 4.07098E+01-1.69865E+01
 -1       570 1.31544E+01 1.26094E+02-5.29434E+01
 -1       571 1.19597E+01 7.35069E+01-3.08091E+01
 -1       572 1.04426E+01 4.67740E+01-1.95429E+01
 -1       573 1.34182E+01 5.63731E+01-2.36962E+01
 -1       574 4.15385E+00 5.59764E+00-2.14820E+00
 -1       575 1.17930E+01 1.98355E+02-8.33105E+01
 -1       576 1.25820E+00 9.22175E-01-3.00008E-02
 -1       577 1.58772E+01 1.92756E+02-8.09555E+01
 -1       578 1.37989E+00 9.10242E-01-1.70571E-01
 -1       579 8.89811E-01 4.80370E-01-2.59016E-01
 -1       580 4.91655E-01 2.60314E-01 1.67205E-01
 -1       581 9.59459E+00 1.99118E+02-8.36320E+01
 -1       582 1.67461E+01 1.99156E+02-8.36427E+01
 -1       583 1.31769E+01 1.94128E+02-8.15348E+01
 -1       584 4.21437E-01 2.90174E-01-9.69393E-02
 -1       585 4.66067E-01 2.74707E-01-1.83453E-01
 -1       586 1.23342E+00 5.72552E-01-4.54444E-01
 -1       587 2.09597E-01 9.50636E-02 1.39410E-01
 -1       588 2.44915E-01 1.55040E-01 1.05674E-01
 -1       589 5.84904E-01 2.69784E-01 2.27422E-01
 -1       590 1.77270E+01 2.01606E+02-8.46716E+01
 -1       591 1.63440E+01 2.01606E+02-8.46728E+01
 -1       592 1.77334E+01 1.97733E+02-8.30438E+01
 -1       593 9.99792E+00 2.01586E+02-8.46678E+01
 -1       594 8.61593E+00 2.01588E+02-8.46685E+01
 -1       595 8.62040E+00 1.97717E+02-8.30443E+01
 -1       596 3.09882E-01 2.01110E-01 7.82294E-02
 -1       597 3.46502E-01 2.29744E-01 4.22014E-02
 -1       598 5.88485E-01 3.45477E-01 1.13681E-01
 -1       599 4.16976E-01 2.84442E-01 3.55774E-04
 -1       600 4.41739E-01 2.97047E-01-5.85078E-02
 -1       601 7.88891E-01 4.85558E-01-1.76582E-02
 -1       602 8.90691E-01 5.12772E-01-1.76461E-01
 -1       603 1.24822E+01 2.01205E+02-8.45072E+01
 -1       604 1.10972E+01 2.01205E+02-8.45079E+01
 -1       605 1.06933E+01 1.98737E+02-8.34713E+01
 -1       606 1.52134E+01 2.01322E+02-8.45546E+01
 -1       607 1.38283E+01 2.01322E+02-8.45556E+01
 -1       608 1.31389E+01 1.98472E+02-8.33585E+01
 -1       609 1.56158E+01 1.98872E+02-8.35246E+01
 -1       610 1.29710E+00 1.08445E+00-4.28282E-02
 -1       611 9.20313E-01 5.90112E-01 1.37941E-01
 -1       612 8.59802E-01 5.34048E-01 1.11035E-01
 -1       613 2.02874E+00 2.60597E+00-6.82602E-01
 -1       614 1.67385E+00 1.77600E+00-3.28648E-01
 -1       615 1.70446E+00 1.52871E+00-2.69712E-01
 -1       616 2.70175E+00 4.70861E+00-1.58542E+00
 -1       617 2.36946E+00 3.58177E+00-1.10166E+00
 -1       618 2.53948E+00 3.20645E+00-9.79090E-01
 -1       619 3.33920E+00 7.38246E+00-2.73238E+00
 -1       620 3.02505E+00 5.97739E+00-2.13010E+00
 -1       621 3.30934E+00 5.44759E+00-1.93886E+00
 -1       622 3.93812E+00 1.05886E+01-4.10206E+00
 -1       623 3.64501E+00 8.92298E+00-3.39049E+00
 -1       624 4.03417E+00 8.25197E+00-3.13784E+00
 -1       625 4.49910E+00 1.42867E+01-5.67768E+00
 -1       626 4.22280E+00 1.23785E+01-4.86562E+00
 -1       627 4.71727E+00 1.15789E+01-4.55611E+00
 -1       628 5.02460E+00 1.84471E+01-7.44773E+00
 -1       629 4.76784E+00 1.63114E+01-6.53894E+00
 -1       630 5.35556E+00 1.53897E+01-6.17682E+00
 -1       631 5.50847E+00 2.30369E+01-9.39619E+00
 -1       632 5.27164E+00 2.06902E+01-8.40063E+00
 -1       633 5.95051E+00 1.96529E+01-7.98825E+00
 -1       634 5.95961E+00 2.80262E+01-1.15132E+01
 -1       635 5.73916E+00 2.54827E+01-1.04345E+01
 -1       636 6.50298E+00 2.43378E+01-9.97465E+00
 -1       637 6.37401E+00 3.33841E+01-1.37847E+01
 -1       638 6.17085E+00 3.06607E+01-1.26302E+01
 -1       639 7.01306E+00 2.94158E+01-1.21264E+01
 -1       640 6.75362E+00 3.90808E+01-1.61974E+01
 -1       641 6.56826E+00 3.61919E+01-1.49739E+01
 -1       642 7.48043E+00 3.48539E+01-1.44295E+01
 -1       643 7.09842E+00 4.50858E+01-1.87384E+01
 -1       644 6.93063E+00 4.20463E+01-1.74529E+01
 -1       645 7.90833E+00 4.06241E+01-1.68711E+01
 -1       646 7.40647E+00 5.13691E+01-2.13968E+01
 -1       647 7.25297E+00 4.81920E+01-2.00530E+01
 -1       648 8.29298E+00 4.66924E+01-1.94367E+01
 -1       649 7.69186E+00 5.78973E+01-2.41570E+01
 -1       650 7.55503E+00 5.45972E+01-2.27616E+01
 -1       651 8.64198E+00 5.30242E+01-2.21127E+01
 -1       652 7.93541E+00 6.46611E+01-2.70155E+01
 -1       653 7.81342E+00 6.12506E+01-2.55744E+01
 -1       654 8.95554E+00 5.96013E+01-2.48919E+01
 -1       655 8.17063E+00 7.16467E+01-2.99664E+01
 -1       656 8.06185E+00 6.81394E+01-2.84854E+01
 -1       657 9.24166E+00 6.64302E+01-2.77759E+01
 -1       658 8.36606E+00 7.87911E+01-3.29835E+01
 -1       659 8.27186E+00 7.51983E+01-3.14660E+01
 -1       660 9.50264E+00 7.34573E+01-3.07423E+01
 -1       661 8.53317E+00 8.60881E+01-3.60629E+01
 -1       662 8.45327E+00 8.24219E+01-3.45161E+01
 -1       663 9.71973E+00 8.06366E+01-3.37725E+01
 -1       664 8.67761E+00 9.35152E+01-3.91973E+01
 -1       665 8.60870E+00 8.97863E+01-3.76237E+01
 -1       666 9.90795E+00 8.79628E+01-3.68627E+01
 -1       667 8.79659E+00 1.01053E+02-4.23768E+01
 -1       668 8.74039E+00 9.72718E+01-4.07817E+01
 -1       669 1.00665E+01 9.54148E+01-4.00056E+01
 -1       670 8.89370E+00 1.08679E+02-4.55918E+01
 -1       671 8.84699E+00 1.04856E+02-4.39805E+01
 -1       672 1.01977E+01 1.02972E+02-4.31917E+01
 -1       673 8.97056E+00 1.16376E+02-4.88364E+01
 -1       674 8.93484E+00 1.12520E+02-4.72109E+01
 -1       675 1.03030E+01 1.10613E+02-4.64119E+01
 -1       676 9.02898E+00 1.24128E+02-5.21028E+01
 -1       677 9.00206E+00 1.20246E+02-5.04672E+01
 -1       678 1.03873E+01 1.18323E+02-4.96600E+01
 -1       679 9.07040E+00 1.31918E+02-5.53840E+01
 -1       680 9.05143E+00 1.28019E+02-5.37419E+01
 -1       681 1.04493E+01 1.26082E+02-5.29282E+01
 -1       682 9.09684E+00 1.39734E+02-5.86746E+01
 -1       683 9.08540E+00 1.35824E+02-5.70284E+01
 -1       684 1.04922E+01 1.33877E+02-5.62102E+01
 -1       685 9.11073E+00 1.47562E+02-6.19694E+01
 -1       686 9.10525E+00 1.43647E+02-6.03218E+01
 -1       687 1.05193E+01 1.41694E+02-5.95004E+01
 -1       688 9.11398E+00 1.55393E+02-6.52639E+01
 -1       689 9.11345E+00 1.51478E+02-6.36169E+01
 -1       690 1.05320E+01 1.49521E+02-6.27940E+01
 -1       691 9.10934E+00 1.63219E+02-6.85548E+01
 -1       692 9.11246E+00 1.59307E+02-6.69100E+01
 -1       693 1.05331E+01 1.57350E+02-6.60866E+01
 -1       694 9.09859E+00 1.71033E+02-7.18394E+01
 -1       695 9.10459E+00 1.67128E+02-7.01980E+01
 -1       696 1.05254E+01 1.65172E+02-6.93753E+01
 -1       697 9.08456E+00 1.78831E+02-7.51156E+01
 -1       698 9.09175E+00 1.74934E+02-7.34787E+01
 -1       699 1.05117E+01 1.72982E+02-7.26574E+01
 -1       700 9.06225E+00 1.86628E+02-7.83899E+01
 -1       701 9.06953E+00 1.82740E+02-7.67573E+01
 -1       702 1.04872E+01 1.80792E+02-7.59381E+01
 -1       703 9.07289E+00 1.94556E+02-8.17177E+01
 -1       704 9.07909E+00 1.90676E+02-8.00895E+01
 -1       705 1.04863E+01 1.88749E+02-7.92795E+01
 -1       706 1.00478E+01 1.95958E+02-8.23058E+01
 -1       707 1.76093E+00 8.96104E-01-5.67120E-01
 -1       708 2.45738E+00 1.40653E+00-8.04985E-01
 -1       709 1.40615E+00 7.61399E-01-3.71195E-01
 -1       710 3.17525E+00 2.10096E+00-1.10559E+00
 -1       711 3.84652E+00 2.92519E+00-1.44936E+00
 -1       712 2.56358E+00 1.73979E+00-7.69717E-01
 -1       713 4.50175E+00 3.90236E+00-1.85394E+00
 -1       714 5.13807E+00 5.02143E+00-2.31755E+00
 -1       715 3.83492E+00 3.41790E+00-1.48008E+00
 -1       716 5.75177E+00 6.25266E+00-2.83195E+00
 -1       717 6.35330E+00 7.64589E+00-3.41049E+00
 -1       718 5.00285E+00 5.63216E+00-2.40921E+00
 -1       719 6.95753E+00 9.23372E+00-4.07091E+00
 -1       720 7.52090E+00 1.08919E+01-4.76064E+00
 -1       721 6.12602E+00 8.44482E+00-3.59012E+00
 -1       722 8.04455E+00 1.26397E+01-5.48637E+00
 -1       723 8.57144E+00 1.45396E+01-6.27806E+00
 -1       724 7.16339E+00 1.17892E+01-4.98950E+00
 -1       725 9.07939E+00 1.65555E+01-7.11887E+00
 -1       726 9.56987E+00 1.86825E+01-8.00576E+00
 -1       727 8.10948E+00 1.55537E+01-6.56573E+00
 -1       728 1.00421E+01 2.09165E+01-8.93853E+00
 -1       729 1.04983E+01 2.32549E+01-9.91555E+00
 -1       730 9.01075E+00 1.98047E+01-8.34861E+00
 -1       731 1.09372E+01 2.56931E+01-1.09340E+01
 -1       732 1.13590E+01 2.82274E+01-1.19921E+01
 -1       733 9.84676E+00 2.44790E+01-1.03101E+01
 -1       734 1.17632E+01 3.08545E+01-1.30900E+01
 -1       735 1.21511E+01 3.35693E+01-1.42244E+01
 -1       736 1.06221E+01 2.95459E+01-1.24354E+01
 -1       737 1.25229E+01 3.63691E+01-1.53952E+01
 -1       738 1.28779E+01 3.92503E+01-1.65995E+01
 -1       739 1.13353E+01 3.49730E+01-1.47127E+01
 -1       740 1.32162E+01 4.22079E+01-1.78367E+01
 -1       741 1.35402E+01 4.52399E+01-1.91055E+01
 -1       742 1.19873E+01 4.07328E+01-1.71295E+01
 -1       743 1.38711E+01 4.83367E+01-2.04027E+01
 -1       744 1.41644E+01 5.15059E+01-2.17284E+01
 -1       745 1.26028E+01 4.67893E+01-1.96731E+01
 -1       746 1.44437E+01 5.47338E+01-2.30793E+01
 -1       747 1.47072E+01 5.80265E+01-2.44568E+01
 -1       748 1.31672E+01 5.31157E+01-2.23291E+01
 -1       749 1.49488E+01 6.13757E+01-2.58584E+01
 -1       750 1.51835E+01 6.47788E+01-2.72832E+01
 -1       751 1.36460E+01 5.96932E+01-2.50892E+01
 -1       752 1.53949E+01 6.82429E+01-2.87331E+01
 -1       753 1.56016E+01 7.17437E+01-3.01983E+01
 -1       754 1.40609E+01 6.65076E+01-2.79484E+01
 -1       755 1.57855E+01 7.52898E+01-3.16830E+01
 -1       756 1.59657E+01 7.88764E+01-3.31849E+01
 -1       757 1.44230E+01 7.35182E+01-3.08901E+01
 -1       758 1.61333E+01 8.25009E+01-3.47033E+01
 -1       759 1.62887E+01 8.61614E+01-3.62365E+01
 -1       760 1.47445E+01 8.06904E+01-3.39002E+01
 -1       761 1.64319E+01 8.98542E+01-3.77838E+01
 -1       762 1.65636E+01 9.35774E+01-3.93433E+01
 -1       763 1.50299E+01 8.80095E+01-3.69726E+01
 -1       764 1.66837E+01 9.73281E+01-4.09150E+01
 -1       765 1.67928E+01 1.01104E+02-4.24972E+01
 -1       766 1.52710E+01 9.54541E+01-4.00975E+01
 -1       767 1.68919E+01 1.04902E+02-4.40891E+01
 -1       768 1.69805E+01 1.08720E+02-4.56894E+01
 -1       769 1.54724E+01 1.03004E+02-4.32672E+01
 -1       770 1.70594E+01 1.12556E+02-4.72976E+01
 -1       771 1.71291E+01 1.16409E+02-4.89123E+01
 -1       772 1.56352E+01 1.10639E+02-4.64728E+01
 -1       773 1.71896E+01 1.20275E+02-5.05332E+01
 -1       774 1.72420E+01 1.24152E+02-5.21587E+01
 -1       775 1.57631E+01 1.18343E+02-4.97067E+01
 -1       776 1.72862E+01 1.28040E+02-5.37890E+01
 -1       777 1.73227E+01 1.31936E+02-5.54227E+01
 -1       778 1.58588E+01 1.26096E+02-5.29621E+01
 -1       779 1.73520E+01 1.35837E+02-5.70592E+01
 -1       780 1.73752E+01 1.39744E+02-5.86983E+01
 -1       781 1.59261E+01 1.33887E+02-5.62332E+01
 -1       782 1.73924E+01 1.43655E+02-6.03387E+01
 -1       783 1.74040E+01 1.47567E+02-6.19800E+01
 -1       784 1.59682E+01 1.41700E+02-5.95139E+01
 -1       785 1.74105E+01 1.51481E+02-6.36221E+01
 -1       786 1.74124E+01 1.55394E+02-6.52643E+01
 -1       787 1.59897E+01 1.49524E+02-6.27991E+01
 -1       788 1.74105E+01 1.59306E+02-6.69062E+01
 -1       789 1.74054E+01 1.63216E+02-6.85476E+01
 -1       790 1.59936E+01 1.57350E+02-6.60856E+01
 -1       791 1.73973E+01 1.67124E+02-7.01879E+01
 -1       792 1.73872E+01 1.71028E+02-7.18270E+01
 -1       793 1.59839E+01 1.65170E+02-6.93697E+01
 -1       794 1.73755E+01 1.74929E+02-7.34648E+01
 -1       795 1.73628E+01 1.78826E+02-7.51013E+01
 -1       796 1.59654E+01 1.72979E+02-7.26488E+01
 -1       797 1.73772E+01 1.82678E+02-7.67191E+01
 -1       798 1.73646E+01 1.86566E+02-7.83524E+01
 -1       799 1.59696E+01 1.80732E+02-7.59049E+01
 -1       800 1.73096E+01 1.90654E+02-8.00696E+01
 -1       801 1.72996E+01 1.94534E+02-8.16999E+01
 -1       802 1.59305E+01 1.88671E+02-7.92396E+01
 -1       803 1.63112E+01 1.95957E+02-8.22994E+01
 -1       804 1.18168E+01 1.28034E+02-5.37542E+01
 -1       805 1.17872E+01 1.24146E+02-5.21173E+01
 -1       806 1.17521E+01 1.20267E+02-5.04846E+01
 -1       807 1.17111E+01 1.16400E+02-4.88562E+01
 -1       808 1.31178E+01 1.22211E+02-5.13099E+01
 -1       809 1.18984E+01 1.51480E+02-6.36179E+01
 -1       810 1.18946E+01 1.47566E+02-6.19718E+01
 -1       811 1.18974E+01 1.59306E+02-6.69087E+01
 -1       812 1.18993E+01 1.55394E+02-6.52636E+01
 -1       813 1.32634E+01 1.53437E+02-6.44412E+01
 -1       814 1.45873E+01 1.78816E+02-7.51030E+01
 -1       815 1.46035E+01 1.82668E+02-7.67208E+01
 -1       816 1.46076E+01 1.86360E+02-7.82710E+01
 -1       817 1.32260E+01 1.84448E+02-7.74703E+01
 -1       818 1.45544E+01 1.90447E+02-7.99877E+01
 -1       819 1.14094E+01 9.73131E+01-4.08172E+01
 -1       820 1.13273E+01 9.35602E+01-3.92357E+01
 -1       821 1.12379E+01 8.98357E+01-3.76660E+01
 -1       822 1.11398E+01 8.61414E+01-3.61089E+01
 -1       823 1.25733E+01 9.17082E+01-3.84732E+01
 -1       824 1.41109E+01 1.01107E+02-4.24482E+01
 -1       825 1.41938E+01 1.04904E+02-4.40448E+01
 -1       826 1.42685E+01 1.08723E+02-4.56500E+01
 -1       827 1.43346E+01 1.12559E+02-4.72622E+01
 -1       828 1.29058E+01 1.06806E+02-4.48283E+01
 -1       829 1.45548E+01 1.31936E+02-5.54069E+01
 -1       830 1.45791E+01 1.35838E+02-5.70467E+01
 -1       831 1.45982E+01 1.39745E+02-5.86884E+01
 -1       832 1.46128E+01 1.43655E+02-6.03314E+01
 -1       833 1.32291E+01 1.37790E+02-5.78626E+01
 -1       834 1.46069E+01 1.71028E+02-7.18317E+01
 -1       835 1.45968E+01 1.74928E+02-7.34702E+01
 -1       836 1.46225E+01 1.63216E+02-6.85503E+01
 -1       837 1.46157E+01 1.67124E+02-7.01916E+01
 -1       838 1.32473E+01 1.69077E+02-7.10137E+01
 -1       839 1.31130E+01 7.17495E+01-3.01045E+01
 -1       840 1.32657E+01 7.52952E+01-3.15950E+01
 -1       841 1.34170E+01 7.88813E+01-3.31032E+01
 -1       842 1.35577E+01 8.25054E+01-3.46269E+01
 -1       843 1.21010E+01 7.70730E+01-3.23107E+01
 -1       844 4.75658E+00 9.12402E+00-3.56583E+00
 -1       845 4.35724E+00 7.59016E+00-2.91263E+00
 -1       846 5.13958E+00 1.07856E+01-4.27211E+00
 -1       847 5.51222E+00 9.99778E+00-4.01502E+00
 -1       848 5.51189E+00 1.25695E+01-5.02996E+00
 -1       849 6.87795E+00 2.08559E+01-8.54387E+00
 -1       850 6.55634E+00 1.86184E+01-7.59544E+00
 -1       851 6.22137E+00 1.64895E+01-6.69329E+00
 -1       852 5.87077E+00 1.44711E+01-5.83622E+00
 -1       853 7.11604E+00 1.75913E+01-7.22730E+00
 -1       854 3.23207E+00 2.94208E+00-1.13776E+00
 -1       855 3.78542E+00 3.91958E+00-1.54973E+00
 -1       856 3.67765E+00 4.41712E+00-1.64751E+00
 -1       857 4.31722E+00 5.03071E+00-2.01857E+00
 -1       858 4.83514E+00 6.26201E+00-2.54060E+00
 -1       859 9.04443E+00 4.21647E+01-1.75551E+01
 -1       860 8.81421E+00 3.92041E+01-1.63037E+01
 -1       861 8.57195E+00 3.63218E+01-1.50859E+01
 -1       862 8.31850E+00 3.35191E+01-1.39011E+01
 -1       863 9.68501E+00 3.77899E+01-1.57548E+01
 -1       864 9.87262E+00 5.46620E+01-2.28319E+01
 -1       865 9.67954E+00 5.14393E+01-2.14714E+01
 -1       866 1.00507E+01 5.79759E+01-2.42304E+01
 -1       867 1.11130E+01 5.63313E+01-2.35732E+01
 -1       868 1.02123E+01 6.13244E+01-2.56435E+01
 -1       869 7.49031E+00 2.56363E+01-1.05670E+01
 -1       870 7.18990E+00 2.31962E+01-9.53405E+00
 -1       871 8.05396E+00 3.08023E+01-1.27525E+01
 -1       872 7.77811E+00 2.81731E+01-1.16402E+01
 -1       873 8.50334E+00 2.69367E+01-1.11749E+01
 -1       874 2.07903E+00 1.44719E+00-4.99085E-01
 -1       875 2.69021E+00 2.15574E+00-8.04129E-01
 -1       876 1.62407E+00 1.02911E+00-3.20839E-01
 -1       877 1.79534E+00 1.30624E+00-3.31346E-01
 -1       878 1.36784E+00 7.98146E-01-2.77879E-01
 -1       879 1.14902E+00 7.01964E-01-1.32749E-01
 -1       880 3.08696E+00 3.81123E+00-1.30159E+00
 -1       881 2.64015E+00 2.83884E+00-8.86234E-01
 -1       882 2.19774E+00 2.04961E+00-5.50804E-01
 -1       883 2.70308E+00 2.51705E+00-8.39878E-01
 -1       884 1.70120E+00 1.34135E+00-2.59856E-01
 -1       885 1.18659E+01 1.90467E+02-7.99993E+01
 -1       886 1.18511E+01 1.86418E+02-7.82993E+01
 -1       887 1.18394E+01 1.93462E+02-8.12564E+01
 -1       888 1.32035E+01 1.91134E+02-8.02777E+01
 -1       889 1.11475E+01 1.95576E+02-8.21446E+01
 -1       890 1.24847E+01 1.96242E+02-8.24230E+01
 -1       891 1.07974E+01 7.52651E+01-3.15238E+01
 -1       892 1.06647E+01 7.17180E+01-3.00276E+01
 -1       893 1.05287E+01 6.82083E+01-2.85476E+01
 -1       894 1.03665E+01 6.47350E+01-2.70820E+01
 -1       895 1.18106E+01 6.99753E+01-2.93211E+01
 -1       896 1.18456E+01 1.82727E+02-7.67493E+01
 -1       897 1.18629E+01 1.78818E+02-7.51076E+01
 -1       898 1.18708E+01 1.74930E+02-7.34745E+01
 -1       899 1.18795E+01 1.71029E+02-7.18357E+01
 -1       900 1.32301E+01 1.76869E+02-7.42872E+01
 -1       901 7.20688E+00 1.45550E+01-6.03548E+00
 -1       902 7.63421E+00 1.65699E+01-6.88350E+00
 -1       903 6.32635E+00 1.09089E+01-4.50057E+00
 -1       904 6.76422E+00 1.26554E+01-5.23482E+00
 -1       905 6.34015E+00 1.35607E+01-5.52287E+00
 -1       906 1.08244E+01 3.92602E+01-1.64365E+01
 -1       907 1.11083E+01 4.22175E+01-1.76812E+01
 -1       908 1.13797E+01 4.52493E+01-1.89568E+01
 -1       909 1.16617E+01 4.83459E+01-2.02603E+01
 -1       910 1.02009E+01 4.37060E+01-1.82502E+01
 -1       911 1.27669E+01 6.47786E+01-2.71733E+01
 -1       912 1.29433E+01 6.82418E+01-2.86290E+01
 -1       913 1.25753E+01 6.13703E+01-2.57396E+01
 -1       914 1.14847E+01 6.30557E+01-2.64066E+01
 -1       915 1.23736E+01 5.80218E+01-2.43318E+01
 -1       916 8.82488E+00 2.32682E+01-9.70519E+00
 -1       917 9.19421E+00 2.57057E+01-1.07309E+01
 -1       918 8.04640E+00 1.86962E+01-7.77960E+00
 -1       919 8.44269E+00 2.09300E+01-8.72059E+00
 -1       920 7.83529E+00 2.20605E+01-9.11606E+00
 -1       921 1.02139E+01 3.35802E+01-1.40463E+01
 -1       922 1.05260E+01 3.63796E+01-1.52242E+01
 -1       923 9.54815E+00 2.82394E+01-1.17984E+01
 -1       924 9.88810E+00 3.08658E+01-1.29033E+01
 -1       925 9.11937E+00 3.21901E+01-1.33924E+01
 -1       926 1.01928E+00 6.44699E-01-3.63386E-02
 -1       927 9.91609E-01 6.39847E-01 3.40809E-02
 -1       928 1.32863E+00 9.27655E-01-9.76205E-02
 -1       929 1.38307E+01 1.96359E+02-8.24707E+01
 -1       930 1.51805E+01 1.95674E+02-8.21815E+01
 -1       931 1.45271E+01 1.93442E+02-8.12453E+01
 -1       932 1.44872E+01 1.24153E+02-5.21360E+01
 -1       933 1.45241E+01 1.28041E+02-5.37695E+01
 -1       934 1.43928E+01 1.16411E+02-4.88815E+01
 -1       935 1.44435E+01 1.20276E+02-5.05061E+01
 -1       936 1.46222E+01 1.47567E+02-6.19755E+01
 -1       937 1.46274E+01 1.51481E+02-6.36196E+01
 -1       938 1.46290E+01 1.55394E+02-6.52639E+01
 -1       939 1.46271E+01 1.59306E+02-6.69075E+01
 -1       940 1.39186E+01 9.35810E+01-3.92843E+01
 -1       941 1.40191E+01 9.73314E+01-4.08606E+01
 -1       942 1.36876E+01 8.61657E+01-3.61661E+01
 -1       943 1.38081E+01 8.98582E+01-3.77187E+01
 -1       944 1.15498E+01 1.04889E+02-4.40088E+01
 -1       945 1.14835E+01 1.01090E+02-4.24084E+01
 -1       946 1.16640E+01 1.12546E+02-4.72339E+01
 -1       947 1.16097E+01 1.08709E+02-4.56172E+01
 -1       948 1.18610E+01 1.35834E+02-5.70364E+01
 -1       949 1.18414E+01 1.31931E+02-5.53939E+01
 -1       950 1.18874E+01 1.43653E+02-6.03258E+01
 -1       951 1.18764E+01 1.39741E+02-5.86804E+01
 -1       952 3.94362E+00 6.18580E+00-2.31396E+00
 -1       953 3.52080E+00 4.92359E+00-1.77581E+00
 -1       954 4.62261E+00 6.93133E+00-2.71492E+00
 -1       955 5.85386E+00 9.24756E+00-3.79992E+00
 -1       956 5.34488E+00 7.66083E+00-3.13173E+00
 -1       957 1.31845E+01 1.29985E+02-5.45803E+01
 -1       958 1.10336E+01 8.24798E+01-3.45659E+01
 -1       959 1.09204E+01 7.88529E+01-3.30364E+01
 -1       960 1.27559E+01 9.92100E+01-4.16313E+01
 -1       961 9.46957E+00 4.82997E+01-2.01454E+01
 -1       962 9.26611E+00 4.51984E+01-1.88358E+01
 -1       963 1.06803E+01 4.98790E+01-2.08530E+01
 -1       964 1.19181E+01 5.14828E+01-2.15812E+01
 -1       965 1.21535E+01 5.47098E+01-2.29385E+01
 -1       966 1.32543E+01 1.45610E+02-6.11510E+01
 -1       967 1.18871E+01 1.67125E+02-7.01949E+01
 -1       968 1.18933E+01 1.63217E+02-6.85524E+01
 -1       969 1.32603E+01 1.61262E+02-6.77298E+01
 -1       970 1.23551E+01 8.43224E+01-3.53636E+01
 -1       971 1.30262E+01 1.14479E+02-4.80570E+01
 -1       972-1.58152E+01 1.22214E+02-5.13328E+01
 -1       973-1.59935E+01 1.53437E+02-6.44432E+01
 -1       974-1.04323E+01 1.84586E+02-7.75320E+01
 -1       975-1.51563E+01 9.17166E+01-3.85294E+01
 -1       976-1.55589E+01 1.06812E+02-4.48664E+01
 -1       977-1.59498E+01 1.37791E+02-5.78734E+01
 -1       978-1.05192E+01 1.69079E+02-7.10179E+01
 -1       979-9.61690E+00 7.70271E+01-3.22495E+01
 -1       980-6.63982E+00 1.00345E+01-4.25346E+00
 -1       981-8.56971E+00 1.76244E+01-7.43449E+00
 -1       982-2.93704E+00 4.26381E+00-1.43233E+00
 -1       983-1.16698E+01 3.78137E+01-1.59050E+01
 -1       984-1.33729E+01 5.63638E+01-2.36904E+01
 -1       985-1.02433E+01 2.69642E+01-1.13531E+01
 -1       986-1.25502E+00 9.18059E-01-2.80594E-02
 -1       987-3.22466E+00 2.52232E+00-1.10342E+00
 -1       988-1.58763E+01 1.92793E+02-8.09717E+01
 -1       989-1.04734E+01 1.29976E+02-5.45684E+01
 -1       990-1.42300E+01 6.99962E+01-2.94119E+01
 -1       991-1.59541E+01 1.76877E+02-7.42869E+01
 -1       992-1.01363E+01 9.91825E+01-4.15943E+01
 -1       993-1.05275E+01 1.45607E+02-6.11476E+01
 -1       994-1.03484E+01 1.14461E+02-4.80338E+01
 -1       995-5.04548E+00 1.34265E+01-5.34319E+00
 -1       996-8.10901E+00 4.36245E+01-1.81399E+01
 -1       997-9.07981E+00 6.29932E+01-2.63243E+01
 -1       998-6.23110E+00 2.19451E+01-8.96027E+00
 -1       999-7.25277E+00 3.20915E+01-1.32601E+01
 -1      1000-8.38909E-01 5.03642E-01-9.22659E-02
 -1      1001-1.18722E+01 1.98589E+02-8.34093E+01
 -1      1002-2.13307E+00 2.29916E+00-5.90710E-01
 -1      1003-4.42663E+00 4.45767E+00-1.91653E+00
 -1      1004-5.57158E+00 6.97657E+00-2.97275E+00
 -1      1005-5.07152E+00 8.40051E+00-3.33749E+00
 -1      1006-1.59458E+01 1.84694E+02-7.75700E+01
 -1      1007-1.58964E+01 1.29988E+02-5.45968E+01
 -1      1008-1.05339E+01 1.53437E+02-6.44413E+01
 -1      1009-9.99071E+00 9.16747E+01-3.84289E+01
 -1      1010-9.36232E+00 6.99276E+01-2.92529E+01
 -1      1011-1.45855E+01 7.70851E+01-3.23873E+01
 -1      1012-1.53766E+01 9.92169E+01-4.16780E+01
 -1      1013-9.81712E+00 8.42831E+01-3.53108E+01
 -1      1014-9.43615E+00 2.20903E+01-9.30876E+00
 -1      1015-1.22905E+01 4.37272E+01-1.83872E+01
 -1      1016-1.28730E+01 4.99252E+01-2.09887E+01
 -1      1017-1.08589E+01 5.30479E+01-2.21884E+01
 -1      1018-7.70015E+00 3.77004E+01-1.56336E+01
 -1      1019-1.02543E+01 1.06783E+02-4.47986E+01
 -1      1020-1.59818E+01 1.45611E+02-6.11568E+01
 -1      1021-1.38467E+01 6.30544E+01-2.64995E+01
 -1      1022-1.05037E+01 1.76881E+02-7.42960E+01
 -1      1023-1.59757E+01 1.69076E+02-7.10105E+01
 -1      1024-6.76437E+00 2.68294E+01-1.10313E+01
 -1      1025-5.66141E+00 1.74663E+01-7.05979E+00
 -1      1026-1.59903E+01 1.61261E+02-6.77287E+01
 -1      1027-1.04213E+01 1.22197E+02-5.12927E+01
 -1      1028-7.64020E+00 1.35958E+01-5.74573E+00
 -1      1029-1.48930E+01 8.43326E+01-3.54299E+01
 -1      1030-1.09868E+01 3.22157E+01-1.35562E+01
 -1      1031-1.05304E+01 1.61263E+02-6.77323E+01
 -1      1032-1.57037E+01 1.14483E+02-4.80872E+01
 -1      1033-1.05079E+01 1.37784E+02-5.78552E+01
 -1      1034-2.21295E+00 1.79521E+00-5.36540E-01
 -1      1035-3.18790E+00 3.37632E+00-1.20578E+00
 -1      1036-4.38242E+00 9.91754E+00-3.84749E+00
 -1      1037-7.16965E-01 4.35559E-01 5.65071E-02
 -1      1038-8.43634E+00 4.98229E+01-2.07602E+01
 -1      1039-1.12667E+01 5.96718E+01-2.49798E+01
 -1      1040-1.31682E+01 1.88138E+02-7.90201E+01
 -1      1041-3.65507E+00 6.73140E+00-2.48806E+00
 -1      1042-1.32165E+01 1.80755E+02-7.59198E+01
 -1      1043-5.93405E+00 1.17199E+01-4.74467E+00
 -1      1044-1.32609E+01 1.49524E+02-6.27968E+01
 -1      1045-1.32638E+01 1.57350E+02-6.60868E+01
 -1      1046-1.32098E+01 1.33885E+02-5.62211E+01
 -1      1047-1.32385E+01 1.72979E+02-7.26541E+01
 -1      1048-1.28355E+01 1.02997E+02-4.32259E+01
 -1      1049-1.22339E+01 8.06789E+01-3.38299E+01
 -1      1050-1.29696E+01 1.10634E+02-4.64401E+01
 -1      1051-1.30756E+01 1.18338E+02-4.96815E+01
 -1      1052-1.32550E+01 1.65171E+02-6.93732E+01
 -1      1053-1.32445E+01 1.41699E+02-5.95066E+01
 -1      1054-1.16349E+01 6.64902E+01-2.78532E+01
 -1      1055-6.73630E+00 1.55197E+01-6.35236E+00
 -1      1056-7.48373E+00 1.97727E+01-8.14968E+00
 -1      1057-1.24695E+01 8.79998E+01-3.69119E+01
 -1      1058-8.81882E+00 2.95186E+01-1.22654E+01
 -1      1059-9.40922E+00 3.49486E+01-1.45570E+01
 -1      1060-8.17708E+00 2.44498E+01-1.01246E+01
 -1      1061-1.26698E+01 9.54459E+01-4.00472E+01
 -1      1062-1.31545E+01 1.26093E+02-5.29440E+01
 -1      1063-9.95058E+00 4.07097E+01-1.69869E+01
 -1      1064-1.19597E+01 7.35069E+01-3.08095E+01
 -1      1065-1.04428E+01 4.67741E+01-1.95433E+01
 -1      1066-8.76672E+00 5.62872E+01-2.34912E+01
 -1      1067-4.15542E+00 5.59800E+00-2.14877E+00
 -1      1068-1.45640E+01 1.98355E+02-8.33088E+01
 -1      1069-1.89442E+00 1.13173E+00-4.99962E-01
 -1      1070-1.05014E+01 1.92759E+02-8.09632E+01
 -1      1071-1.37887E+00 9.08611E-01-1.68517E-01
 -1      1072-4.94088E-01 2.62079E-01 1.68053E-01
 -1      1073-8.80021E-01 4.84210E-01-2.54009E-01
 -1      1074-1.67620E+01 1.99116E+02-8.36268E+01
 -1      1075-9.60991E+00 1.99158E+02-8.36490E+01
 -1      1076-1.31960E+01 1.94128E+02-8.15356E+01
 -1      1077-2.10729E-01 9.58648E-02 1.40698E-01
 -1      1078-2.46488E-01 1.56315E-01 1.07436E-01
 -1      1079-5.85518E-01 2.70589E-01 2.28013E-01
 -1      1080-4.09011E-01 2.74967E-01-9.76207E-02
 -1      1081-4.61650E-01 2.72659E-01-1.80041E-01
 -1      1082-1.22750E+00 5.73287E-01-4.53077E-01
 -1      1083-1.00058E+01 2.01606E+02-8.46767E+01
 -1      1084-8.62372E+00 2.01608E+02-8.46774E+01
 -1      1085-8.62818E+00 1.97737E+02-8.30531E+01
 -1      1086-1.77349E+01 2.01586E+02-8.46640E+01
 -1      1087-1.63518E+01 2.01586E+02-8.46651E+01
 -1      1088-1.77413E+01 1.97713E+02-8.30362E+01
 -1      1089-3.85829E-01 2.61559E-01-2.59746E-03
 -1      1090-4.34492E-01 2.99742E-01-5.10429E-02
 -1      1091-8.65151E-01 5.04224E-01-1.65275E-01
 -1      1092-3.20998E-01 2.07566E-01 8.38372E-02
 -1      1093-3.69982E-01 2.54957E-01 4.52317E-02
 -1      1094-7.81750E-01 4.80399E-01-1.37389E-02
 -1      1095-6.01143E-01 3.51565E-01 1.15400E-01
 -1      1096-1.52531E+01 2.01205E+02-8.45061E+01
 -1      1097-1.38678E+01 2.01205E+02-8.45070E+01
 -1      1098-1.56633E+01 1.98735E+02-8.34678E+01
 -1      1099-1.25219E+01 2.01322E+02-8.45569E+01
 -1      1100-1.11366E+01 2.01322E+02-8.45576E+01
 -1      1101-1.32182E+01 1.98472E+02-8.33591E+01
 -1      1102-1.07405E+01 1.98873E+02-8.35292E+01
 -1      1103-1.76249E+00 8.97224E-01-5.67761E-01
 -1      1104-2.45936E+00 1.40787E+00-8.06071E-01
 -1      1105-1.40302E+00 7.61830E-01-3.69246E-01
 -1      1106-3.17719E+00 2.10471E+00-1.10616E+00
 -1      1107-3.84772E+00 2.92871E+00-1.45019E+00
 -1      1108-2.56620E+00 1.74439E+00-7.70454E-01
 -1      1109-4.49981E+00 3.89695E+00-1.85284E+00
 -1      1110-5.13662E+00 5.01490E+00-2.31657E+00
 -1      1111-3.83371E+00 3.41710E+00-1.47974E+00
 -1      1112-5.75866E+00 6.27612E+00-2.84077E+00
 -1      1113-6.35878E+00 7.67145E+00-3.42034E+00
 -1      1114-5.00652E+00 5.64773E+00-2.41564E+00
 -1      1115-6.93985E+00 9.20216E+00-4.05669E+00
 -1      1116-7.50277E+00 1.08575E+01-4.74540E+00
 -1      1117-6.11331E+00 8.44079E+00-3.58614E+00
 -1      1118-8.04724E+00 1.26399E+01-5.48756E+00
 -1      1119-8.57355E+00 1.45395E+01-6.27885E+00
 -1      1120-7.14759E+00 1.17535E+01-4.97386E+00
 -1      1121-9.07971E+00 1.65549E+01-7.11913E+00
 -1      1122-9.57012E+00 1.86823E+01-8.00630E+00
 -1      1123-8.11268E+00 1.55526E+01-6.56634E+00
 -1      1124-1.00422E+01 2.09162E+01-8.93905E+00
 -1      1125-1.04984E+01 2.32544E+01-9.91568E+00
 -1      1126-9.01087E+00 1.98046E+01-8.34913E+00
 -1      1127-1.09370E+01 2.56929E+01-1.09341E+01
 -1      1128-1.13590E+01 2.82269E+01-1.19926E+01
 -1      1129-9.84704E+00 2.44790E+01-1.03104E+01
 -1      1130-1.17633E+01 3.08541E+01-1.30905E+01
 -1      1131-1.21512E+01 3.35689E+01-1.42249E+01
 -1      1132-1.06221E+01 2.95457E+01-1.24359E+01
 -1      1133-1.25230E+01 3.63687E+01-1.53956E+01
 -1      1134-1.28780E+01 3.92500E+01-1.66000E+01
 -1      1135-1.13354E+01 3.49728E+01-1.47132E+01
 -1      1136-1.32164E+01 4.22076E+01-1.78371E+01
 -1      1137-1.35404E+01 4.52395E+01-1.91060E+01
 -1      1138-1.19874E+01 4.07326E+01-1.71300E+01
 -1      1139-1.38562E+01 4.83396E+01-2.04034E+01
 -1      1140-1.41490E+01 5.15085E+01-2.17288E+01
 -1      1141-1.25880E+01 4.67921E+01-1.96738E+01
 -1      1142-1.44218E+01 5.47293E+01-2.30764E+01
 -1      1143-1.46849E+01 5.80217E+01-2.44546E+01
 -1      1144-1.31293E+01 5.31133E+01-2.23264E+01
 -1      1145-1.49415E+01 6.13685E+01-2.58560E+01
 -1      1146-1.51762E+01 6.47714E+01-2.72801E+01
 -1      1147-1.36156E+01 5.96818E+01-2.50837E+01
 -1      1148-1.53854E+01 6.82437E+01-2.87333E+01
 -1      1149-1.55921E+01 7.17443E+01-3.01988E+01
 -1      1150-1.40443E+01 6.65013E+01-2.79454E+01
 -1      1151-1.57856E+01 7.52894E+01-3.16836E+01
 -1      1152-1.59659E+01 7.88761E+01-3.31854E+01
 -1      1153-1.44135E+01 7.35189E+01-3.08907E+01
 -1      1154-1.61333E+01 8.25005E+01-3.47038E+01
 -1      1155-1.62889E+01 8.61607E+01-3.62370E+01
 -1      1156-1.47446E+01 8.06902E+01-3.39007E+01
 -1      1157-1.64320E+01 8.98539E+01-3.77842E+01
 -1      1158-1.65638E+01 9.35769E+01-3.93437E+01
 -1      1159-1.50295E+01 8.80093E+01-3.69731E+01
 -1      1160-1.66838E+01 9.73279E+01-4.09156E+01
 -1      1161-1.67930E+01 1.01103E+02-4.24978E+01
 -1      1162-1.52710E+01 9.54543E+01-4.00984E+01
 -1      1163-1.68922E+01 1.04902E+02-4.40898E+01
 -1      1164-1.69806E+01 1.08720E+02-4.56899E+01
 -1      1165-1.54721E+01 1.03003E+02-4.32676E+01
 -1      1166-1.70595E+01 1.12556E+02-4.72981E+01
 -1      1167-1.71290E+01 1.16408E+02-4.89129E+01
 -1      1168-1.56354E+01 1.10639E+02-4.64733E+01
 -1      1169-1.71898E+01 1.20274E+02-5.05338E+01
 -1      1170-1.72420E+01 1.24152E+02-5.21595E+01
 -1      1171-1.57631E+01 1.18342E+02-4.97073E+01
 -1      1172-1.72862E+01 1.28039E+02-5.37897E+01
 -1      1173-1.73228E+01 1.31935E+02-5.54233E+01
 -1      1174-1.58591E+01 1.26096E+02-5.29629E+01
 -1      1175-1.73520E+01 1.35837E+02-5.70599E+01
 -1      1176-1.73754E+01 1.39744E+02-5.86989E+01
 -1      1177-1.59262E+01 1.33886E+02-5.62338E+01
 -1      1178-1.73924E+01 1.43654E+02-6.03393E+01
 -1      1179-1.74040E+01 1.47567E+02-6.19806E+01
 -1      1180-1.59683E+01 1.41700E+02-5.95145E+01
 -1      1181-1.74105E+01 1.51480E+02-6.36228E+01
 -1      1182-1.74125E+01 1.55393E+02-6.52650E+01
 -1      1183-1.59896E+01 1.49524E+02-6.27998E+01
 -1      1184-1.74106E+01 1.59306E+02-6.69069E+01
 -1      1185-1.74054E+01 1.63216E+02-6.85482E+01
 -1      1186-1.59934E+01 1.57350E+02-6.60863E+01
 -1      1187-1.73974E+01 1.67124E+02-7.01886E+01
 -1      1188-1.73873E+01 1.71028E+02-7.18277E+01
 -1      1189-1.59840E+01 1.65170E+02-6.93703E+01
 -1      1190-1.73756E+01 1.74928E+02-7.34656E+01
 -1      1191-1.73630E+01 1.78825E+02-7.51020E+01
 -1      1192-1.59654E+01 1.72978E+02-7.26494E+01
 -1      1193-1.73577E+01 1.82734E+02-7.67436E+01
 -1      1194-1.73451E+01 1.86622E+02-7.83768E+01
 -1      1195-1.59499E+01 1.80788E+02-7.59293E+01
 -1      1196-1.73093E+01 1.90671E+02-8.00781E+01
 -1      1197-1.72993E+01 1.94552E+02-8.17083E+01
 -1      1198-1.59104E+01 1.88746E+02-7.92717E+01
 -1      1199-1.63186E+01 1.95956E+02-8.22995E+01
 -1      1200-1.29523E+00 1.08095E+00-4.17715E-02
 -1      1201-9.18773E-01 5.88030E-01 1.38693E-01
 -1      1202-8.59396E-01 5.33192E-01 1.11757E-01
 -1      1203-2.02614E+00 2.60138E+00-6.80511E-01
 -1      1204-1.67150E+00 1.77354E+00-3.26952E-01
 -1      1205-1.70038E+00 1.52354E+00-2.67430E-01
 -1      1206-2.70592E+00 4.71490E+00-1.58871E+00
 -1      1207-2.37318E+00 3.58751E+00-1.10420E+00
 -1      1208-2.53964E+00 3.20731E+00-9.79937E-01
 -1      1209-3.32911E+00 7.35627E+00-2.72118E+00
 -1      1210-3.01519E+00 5.95343E+00-2.12015E+00
 -1      1211-3.30234E+00 5.43125E+00-1.93184E+00
 -1      1212-3.93644E+00 1.06217E+01-4.11640E+00
 -1      1213-3.64400E+00 8.95355E+00-3.40380E+00
 -1      1214-4.02314E+00 8.25459E+00-3.13792E+00
 -1      1215-4.50165E+00 1.42875E+01-5.67846E+00
 -1      1216-4.22513E+00 1.23793E+01-4.86647E+00
 -1      1217-4.71851E+00 1.16138E+01-4.57105E+00
 -1      1218-5.02468E+00 1.84474E+01-7.44814E+00
 -1      1219-4.76794E+00 1.63117E+01-6.53936E+00
 -1      1220-5.35816E+00 1.53903E+01-6.17765E+00
 -1      1221-5.50854E+00 2.30372E+01-9.39661E+00
 -1      1222-5.27171E+00 2.06906E+01-8.40105E+00
 -1      1223-5.95059E+00 1.96531E+01-7.98865E+00
 -1      1224-5.95971E+00 2.80265E+01-1.15136E+01
 -1      1225-5.73924E+00 2.54830E+01-1.04349E+01
 -1      1226-6.50306E+00 2.43380E+01-9.97508E+00
 -1      1227-6.37428E+00 3.33845E+01-1.37852E+01
 -1      1228-6.17097E+00 3.06610E+01-1.26307E+01
 -1      1229-7.01312E+00 2.94160E+01-1.21268E+01
 -1      1230-6.75354E+00 3.90807E+01-1.61978E+01
 -1      1231-6.56845E+00 3.61923E+01-1.49744E+01
 -1      1232-7.48026E+00 3.48542E+01-1.44300E+01
 -1      1233-7.09850E+00 4.50863E+01-1.87390E+01
 -1      1234-6.93055E+00 4.20468E+01-1.74531E+01
 -1      1235-7.90873E+00 4.06239E+01-1.68711E+01
 -1      1236-7.39065E+00 5.13657E+01-2.13955E+01
 -1      1237-7.23742E+00 4.81886E+01-2.00517E+01
 -1      1238-8.27789E+00 4.66892E+01-1.94354E+01
 -1      1239-7.66996E+00 5.79013E+01-2.41589E+01
 -1      1240-7.53352E+00 5.46011E+01-2.27634E+01
 -1      1241-8.60490E+00 5.30246E+01-2.21125E+01
 -1      1242-7.92865E+00 6.46682E+01-2.70188E+01
 -1      1243-7.80675E+00 6.12576E+01-2.55777E+01
 -1      1244-8.92701E+00 5.96120E+01-2.48964E+01
 -1      1245-8.16111E+00 7.16457E+01-2.99660E+01
 -1      1246-8.05235E+00 6.81385E+01-2.84853E+01
 -1      1247-9.22524E+00 6.64361E+01-2.77785E+01
 -1      1248-8.36610E+00 7.87915E+01-3.29839E+01
 -1      1249-8.27210E+00 7.51985E+01-3.14664E+01
 -1      1250-9.49275E+00 7.34559E+01-3.07418E+01
 -1      1251-8.53414E+00 8.60883E+01-3.60636E+01
 -1      1252-8.45331E+00 8.24222E+01-3.45164E+01
 -1      1253-9.72006E+00 8.06368E+01-3.37729E+01
 -1      1254-8.67756E+00 9.35156E+01-3.91979E+01
 -1      1255-8.60909E+00 8.97871E+01-3.76244E+01
 -1      1256-9.90720E+00 8.79633E+01-3.68635E+01
 -1      1257-8.79670E+00 1.01053E+02-4.23771E+01
 -1      1258-8.74037E+00 9.72721E+01-4.07821E+01
 -1      1259-1.00662E+01 9.54150E+01-4.00062E+01
 -1      1260-8.89410E+00 1.08679E+02-4.55927E+01
 -1      1261-8.84767E+00 1.04856E+02-4.39808E+01
 -1      1262-1.01981E+01 1.02972E+02-4.31922E+01
 -1      1263-8.97064E+00 1.16377E+02-4.88371E+01
 -1      1264-8.93495E+00 1.12520E+02-4.72117E+01
 -1      1265-1.03037E+01 1.10614E+02-4.64128E+01
 -1      1266-9.02903E+00 1.24129E+02-5.21035E+01
 -1      1267-9.00213E+00 1.20247E+02-5.04678E+01
 -1      1268-1.03873E+01 1.18323E+02-4.96607E+01
 -1      1269-9.07047E+00 1.31919E+02-5.53847E+01
 -1      1270-9.05150E+00 1.28020E+02-5.37425E+01
 -1      1271-1.04494E+01 1.26082E+02-5.29289E+01
 -1      1272-9.09691E+00 1.39734E+02-5.86753E+01
 -1      1273-9.08547E+00 1.35824E+02-5.70290E+01
 -1      1274-1.04923E+01 1.33877E+02-5.62108E+01
 -1      1275-9.11080E+00 1.47563E+02-6.19701E+01
 -1      1276-9.10532E+00 1.43648E+02-6.03224E+01
 -1      1277-1.05194E+01 1.41694E+02-5.95010E+01
 -1      1278-9.11405E+00 1.55394E+02-6.52646E+01
 -1      1279-9.11352E+00 1.51478E+02-6.36176E+01
 -1      1280-1.05321E+01 1.49522E+02-6.27946E+01
 -1      1281-9.10939E+00 1.63219E+02-6.85555E+01
 -1      1282-9.11251E+00 1.59308E+02-6.69106E+01
 -1      1283-1.05332E+01 1.57351E+02-6.60873E+01
 -1      1284-9.09866E+00 1.71033E+02-7.18400E+01
 -1      1285-9.10465E+00 1.67128E+02-7.01986E+01
 -1      1286-1.05254E+01 1.65173E+02-6.93759E+01
 -1      1287-9.08474E+00 1.78832E+02-7.51164E+01
 -1      1288-9.09193E+00 1.74935E+02-7.34793E+01
 -1      1289-1.05118E+01 1.72982E+02-7.26580E+01
 -1      1290-9.04301E+00 1.86572E+02-7.83670E+01
 -1      1291-9.05020E+00 1.82684E+02-7.67344E+01
 -1      1292-1.04680E+01 1.80736E+02-7.59151E+01
 -1      1293-9.07253E+00 1.94538E+02-8.17106E+01
 -1      1294-9.07870E+00 1.90659E+02-8.00824E+01
 -1      1295-1.04666E+01 1.88675E+02-7.92488E+01
 -1      1296-1.00550E+01 1.95960E+02-8.23069E+01
 -1      1297-1.44872E+01 1.24153E+02-5.21366E+01
 -1      1298-1.45242E+01 1.28041E+02-5.37703E+01
 -1      1299-1.43927E+01 1.16410E+02-4.88821E+01
 -1      1300-1.44435E+01 1.20276E+02-5.05067E+01
 -1      1301-1.31178E+01 1.22210E+02-5.13105E+01
 -1      1302-1.46222E+01 1.47567E+02-6.19762E+01
 -1      1303-1.46272E+01 1.51481E+02-6.36203E+01
 -1      1304-1.46290E+01 1.55394E+02-6.52646E+01
 -1      1305-1.46273E+01 1.59306E+02-6.69082E+01
 -1      1306-1.32636E+01 1.53437E+02-6.44419E+01
 -1      1307-1.18238E+01 1.82670E+02-7.67263E+01
 -1      1308-1.18605E+01 1.78818E+02-7.51083E+01
 -1      1309-1.31922E+01 1.84448E+02-7.74710E+01
 -1      1310-1.18005E+01 1.86362E+02-7.82763E+01
 -1      1311-1.18341E+01 1.90449E+02-7.99922E+01
 -1      1312-1.39186E+01 9.35808E+01-3.92847E+01
 -1      1313-1.40194E+01 9.73314E+01-4.08612E+01
 -1      1314-1.36878E+01 8.61657E+01-3.61667E+01
 -1      1315-1.38081E+01 8.98580E+01-3.77189E+01
 -1      1316-1.25735E+01 9.17083E+01-3.84737E+01
 -1      1317-1.41110E+01 1.01106E+02-4.24487E+01
 -1      1318-1.41940E+01 1.04904E+02-4.40450E+01
 -1      1319-1.42683E+01 1.08723E+02-4.56504E+01
 -1      1320-1.43343E+01 1.12559E+02-4.72629E+01
 -1      1321-1.29058E+01 1.06806E+02-4.48287E+01
 -1      1322-1.45549E+01 1.31936E+02-5.54076E+01
 -1      1323-1.45792E+01 1.35838E+02-5.70474E+01
 -1      1324-1.45983E+01 1.39745E+02-5.86891E+01
 -1      1325-1.46128E+01 1.43655E+02-6.03320E+01
 -1      1326-1.32292E+01 1.37790E+02-5.78632E+01
 -1      1327-1.18709E+01 1.74930E+02-7.34753E+01
 -1      1328-1.18796E+01 1.71030E+02-7.18364E+01
 -1      1329-1.18872E+01 1.67125E+02-7.01956E+01
 -1      1330-1.18933E+01 1.63217E+02-6.85531E+01
 -1      1331-1.32474E+01 1.69077E+02-7.10145E+01
 -1      1332-1.07976E+01 7.52653E+01-3.15243E+01
 -1      1333-1.06549E+01 7.17170E+01-3.00274E+01
 -1      1334-1.10336E+01 8.24799E+01-3.45664E+01
 -1      1335-1.09204E+01 7.88531E+01-3.30369E+01
 -1      1336-1.21010E+01 7.70731E+01-3.23112E+01
 -1      1337-5.34583E+00 7.68586E+00-3.14061E+00
 -1      1338-5.83411E+00 9.21554E+00-3.78491E+00
 -1      1339-5.50889E+00 9.99714E+00-4.01476E+00
 -1      1340-6.31002E+00 1.08743E+01-4.48532E+00
 -1      1341-6.76694E+00 1.26555E+01-5.23517E+00
 -1      1342-8.04631E+00 1.86963E+01-7.78005E+00
 -1      1343-8.44266E+00 2.09299E+01-8.72107E+00
 -1      1344-7.20948E+00 1.45549E+01-6.03602E+00
 -1      1345-7.63415E+00 1.65696E+01-6.88413E+00
 -1      1346-7.11569E+00 1.75915E+01-7.22775E+00
 -1      1347-3.09079E+00 3.81588E+00-1.30411E+00
 -1      1348-2.63663E+00 2.83479E+00-8.84412E-01
 -1      1349-3.52523E+00 4.92966E+00-1.77892E+00
 -1      1350-3.67734E+00 4.41714E+00-1.64838E+00
 -1      1351-3.93252E+00 6.16231E+00-2.30390E+00
 -1      1352-1.08245E+01 3.92600E+01-1.64370E+01
 -1      1353-1.11085E+01 4.22174E+01-1.76816E+01
 -1      1354-1.02140E+01 3.35801E+01-1.40468E+01
 -1      1355-1.05261E+01 3.63795E+01-1.52246E+01
 -1      1356-9.68509E+00 3.77899E+01-1.57553E+01
 -1      1357-1.18782E+01 5.14853E+01-2.15808E+01
 -1      1358-1.21059E+01 5.47049E+01-2.29347E+01
 -1      1359-1.10675E+01 5.63303E+01-2.35717E+01
 -1      1360-1.23308E+01 5.80165E+01-2.43283E+01
 -1      1361-1.25479E+01 6.13630E+01-2.57359E+01
 -1      1362-8.82502E+00 2.32681E+01-9.70570E+00
 -1      1363-9.19420E+00 2.57056E+01-1.07313E+01
 -1      1364-9.54815E+00 2.82393E+01-1.17989E+01
 -1      1365-9.88816E+00 3.08657E+01-1.29037E+01
 -1      1366-8.50343E+00 2.69367E+01-1.11753E+01
 -1      1367-2.19851E+00 2.04751E+00-5.50683E-01
 -1      1368-1.70287E+00 1.34025E+00-2.60811E-01
 -1      1369-1.79752E+00 1.30643E+00-3.31682E-01
 -1      1370-1.32605E+00 9.24153E-01-9.58494E-02
 -1      1371-1.03283E+00 6.50147E-01-3.43062E-02
 -1      1372-1.00159E+00 6.46665E-01 3.36641E-02
 -1      1373-3.23231E+00 2.94559E+00-1.13873E+00
 -1      1374-3.78306E+00 3.91465E+00-1.54903E+00
 -1      1375-2.70695E+00 2.51815E+00-8.41993E-01
 -1      1376-2.69526E+00 2.15918E+00-8.06849E-01
 -1      1377-2.08327E+00 1.44921E+00-5.01689E-01
 -1      1378-1.45567E+01 1.86416E+02-7.82954E+01
 -1      1379-1.45225E+01 1.90466E+02-7.99961E+01
 -1      1380-1.31818E+01 1.91134E+02-8.02784E+01
 -1      1381-1.45361E+01 1.93461E+02-8.12538E+01
 -1      1382-1.52197E+01 1.95575E+02-8.21408E+01
 -1      1383-1.38798E+01 1.96242E+02-8.24223E+01
 -1      1384-1.18168E+01 1.28034E+02-5.37548E+01
 -1      1385-1.17872E+01 1.24146E+02-5.21179E+01
 -1      1386-1.18610E+01 1.35834E+02-5.70371E+01
 -1      1387-1.18414E+01 1.31931E+02-5.53945E+01
 -1      1388-1.31846E+01 1.29985E+02-5.45810E+01
 -1      1389-1.31035E+01 7.17503E+01-3.01051E+01
 -1      1390-1.32658E+01 7.52951E+01-3.15955E+01
 -1      1391-1.27507E+01 6.47712E+01-2.71702E+01
 -1      1392-1.29249E+01 6.82426E+01-2.86291E+01
 -1      1393-1.18015E+01 6.99752E+01-2.93213E+01
 -1      1394-1.45849E+01 1.78816E+02-7.51037E+01
 -1      1395-1.45815E+01 1.82725E+02-7.67452E+01
 -1      1396-1.46069E+01 1.71028E+02-7.18324E+01
 -1      1397-1.45968E+01 1.74928E+02-7.34709E+01
 -1      1398-1.32277E+01 1.76869E+02-7.42879E+01
 -1      1399-1.14093E+01 9.73131E+01-4.08176E+01
 -1      1400-1.13273E+01 9.35604E+01-3.92362E+01
 -1      1401-1.15503E+01 1.04889E+02-4.40094E+01
 -1      1402-1.14835E+01 1.01090E+02-4.24087E+01
 -1      1403-1.27562E+01 9.92099E+01-4.16318E+01
 -1      1404-1.18984E+01 1.51480E+02-6.36186E+01
 -1      1405-1.18947E+01 1.47566E+02-6.19725E+01
 -1      1406-1.18875E+01 1.43653E+02-6.03265E+01
 -1      1407-1.18764E+01 1.39741E+02-5.86810E+01
 -1      1408-1.32544E+01 1.45610E+02-6.11516E+01
 -1      1409-1.16637E+01 1.12547E+02-4.72345E+01
 -1      1410-1.16102E+01 1.08709E+02-4.56181E+01
 -1      1411-1.17521E+01 1.20267E+02-5.04852E+01
 -1      1412-1.17110E+01 1.16400E+02-4.88569E+01
 -1      1413-1.30256E+01 1.14479E+02-4.80576E+01
 -1      1414-6.22127E+00 1.64897E+01-6.69376E+00
 -1      1415-5.87297E+00 1.44716E+01-5.83739E+00
 -1      1416-5.51443E+00 1.25699E+01-5.03084E+00
 -1      1417-5.14009E+00 1.08190E+01-4.28584E+00
 -1      1418-6.34082E+00 1.35606E+01-5.52310E+00
 -1      1419-9.04479E+00 4.21648E+01-1.75556E+01
 -1      1420-8.81418E+00 3.92042E+01-1.63040E+01
 -1      1421-9.45421E+00 4.82965E+01-2.01440E+01
 -1      1422-9.26637E+00 4.51986E+01-1.88363E+01
 -1      1423-1.02011E+01 4.37060E+01-1.82507E+01
 -1      1424-1.05101E+01 6.82071E+01-2.85472E+01
 -1      1425-1.03509E+01 6.47417E+01-2.70850E+01
 -1      1426-1.14554E+01 6.30552E+01-2.64059E+01
 -1      1427-1.01853E+01 6.13306E+01-2.56459E+01
 -1      1428-1.00090E+01 5.79795E+01-2.42312E+01
 -1      1429-7.49039E+00 2.56364E+01-1.05675E+01
 -1      1430-7.18998E+00 2.31963E+01-9.53446E+00
 -1      1431-6.87797E+00 2.08560E+01-8.54428E+00
 -1      1432-6.55638E+00 1.86186E+01-7.59583E+00
 -1      1433-7.83533E+00 2.20605E+01-9.11651E+00
 -1      1434-8.57193E+00 3.63220E+01-1.50863E+01
 -1      1435-8.31853E+00 3.35192E+01-1.39016E+01
 -1      1436-8.05403E+00 3.08024E+01-1.27530E+01
 -1      1437-7.77819E+00 2.81732E+01-1.16406E+01
 -1      1438-9.11944E+00 3.21901E+01-1.33928E+01
 -1      1439-1.12408E+00 6.88804E-01-1.23333E-01
 -1      1440-1.62328E+00 1.03019E+00-3.19558E-01
 -1      1441-1.34329E+00 7.86542E-01-2.70170E-01
 -1      1442-1.25337E+01 1.96360E+02-8.24728E+01
 -1      1443-1.11865E+01 1.95675E+02-8.21866E+01
 -1      1444-1.18485E+01 1.93444E+02-8.12493E+01
 -1      1445-4.31619E+00 5.02500E+00-2.01764E+00
 -1      1446-4.84049E+00 6.28480E+00-2.54945E+00
 -1      1447-4.62015E+00 6.93105E+00-2.71487E+00
 -1      1448-4.34225E+00 7.56352E+00-2.90079E+00
 -1      1449-4.75374E+00 9.15427E+00-3.57794E+00
 -1      1450-1.18975E+01 1.59306E+02-6.69094E+01
 -1      1451-1.18994E+01 1.55394E+02-6.52643E+01
 -1      1452-1.12379E+01 8.98359E+01-3.76667E+01
 -1      1453-1.11399E+01 8.61415E+01-3.61093E+01
 -1      1454-1.34171E+01 7.88812E+01-3.31037E+01
 -1      1455-1.35574E+01 8.25053E+01-3.46277E+01
 -1      1456-1.23552E+01 8.43224E+01-3.53642E+01
 -1      1457-1.13799E+01 4.52493E+01-1.89573E+01
 -1      1458-1.16469E+01 4.83486E+01-2.02611E+01
 -1      1459-1.06560E+01 4.98786E+01-2.08523E+01
 -1      1460-9.63909E+00 5.14354E+01-2.14691E+01
 -1      1461-9.82626E+00 5.46654E+01-2.28325E+01
 -1      1462-1.46226E+01 1.63216E+02-6.85509E+01
 -1      1463-1.46158E+01 1.67124E+02-7.01923E+01
 -1      1464-1.32604E+01 1.61262E+02-6.77305E+01
 -1      1465 9.04305E-01 1.14419E+02-4.80506E+01
 -1      1466 9.26570E-01 1.45599E+02-6.11504E+01
 -1      1467-1.20694E+01 1.61263E+02-6.77276E+01
 -1      1468 1.06274E+00 1.84592E+02-7.75287E+01
 -1      1469 9.07094E-01 9.15965E+01-3.84605E+01
 -1      1470-1.19935E+01 1.29965E+02-5.46061E+01
 -1      1471 8.32709E-01 7.69199E+01-3.22943E+01
 -1      1472-4.98798E+00 9.70559E+00-4.39340E+00
 -1      1473 4.95048E-01 1.71765E+01-7.18036E+00
 -1      1474 2.52757E-01 3.87845E+00-1.58250E+00
 -1      1475-8.86637E+00 3.75863E+01-1.59871E+01
 -1      1476 7.75489E-01 5.61831E+01-2.35791E+01
 -1      1477 5.97618E-01 2.65806E+01-1.11341E+01
 -1      1478-1.41781E+00 7.24182E-01-6.79376E-01
 -1      1479-1.17357E+01 1.06759E+02-4.48886E+01
 -1      1480 9.31844E-01 1.69084E+02-7.10152E+01
 -1      1481-1.19371E+01 1.92798E+02-8.09697E+01
 -1      1482-1.07282E+01 6.98735E+01-2.94630E+01
 -1      1483-1.20449E+01 1.76883E+02-7.42840E+01
 -1      1484-1.12303E+01 8.42406E+01-3.54684E+01
 -1      1485 6.94422E-01 4.34319E+01-1.82202E+01
 -1      1486-7.17854E+00 2.18249E+01-9.42382E+00
 -1      1487-9.77598E+00 4.97788E+01-2.10728E+01
 -1      1488-1.38105E-01 1.36621E-02-9.22881E-02
 -1      1489-2.42426E+00 1.98593E+02-8.34071E+01
 -1      1490-1.20605E+01 1.45603E+02-6.11597E+01
 -1      1491 9.18442E-01 1.29953E+02-5.45774E+01
 -1      1492 3.57507E-01 9.52490E+00-3.96379E+00
 -1      1493-3.34342E+00 4.08178E+00-2.07454E+00
 -1      1494-2.41839E+00 2.10711E+00-1.26235E+00
 -1      1495-9.09858E-01 1.25982E+00-7.44533E-01
 -1      1496-1.20652E+01 1.84701E+02-7.75672E+01
 -1      1497 8.94759E-01 1.06730E+02-4.48202E+01
 -1      1498 9.28739E-01 9.91165E+01-4.16211E+01
 -1      1499-5.34601E+00 9.53515E+01-4.00872E+01
 -1      1500 9.29120E-01 1.53434E+02-6.44416E+01
 -1      1501-1.19310E+01 1.22182E+02-5.13460E+01
 -1      1502 8.11850E-01 6.98080E+01-2.93051E+01
 -1      1503 8.24394E-01 6.28823E+01-2.63943E+01
 -1      1504-4.80400E+00 5.95710E+01-2.51018E+01
 -1      1505-1.20597E+01 1.69081E+02-7.10082E+01
 -1      1506 7.01663E-01 3.74631E+01-1.57098E+01
 -1      1507-1.20706E+01 1.53435E+02-6.44439E+01
 -1      1508-9.35298E+00 4.35384E+01-1.84689E+01
 -1      1509 5.53866E-01 2.16750E+01-9.07200E+00
 -1      1510 6.41497E-01 3.18335E+01-1.33429E+01
 -1      1511-3.74759E+00 2.91510E+01-1.23774E+01
 -1      1512 9.32820E-01 1.76887E+02-7.42928E+01
 -1      1513-1.09972E+01 7.69777E+01-3.24322E+01
 -1      1514 4.41823E-01 1.31165E+01-5.47176E+00
 -1      1515-2.84250E+00 1.51233E+01-6.51925E+00
 -1      1516-4.19852E+00 6.63023E+00-3.12319E+00
 -1      1517 3.11343E-01 6.43683E+00-2.66043E+00
 -1      1518 7.79656E-01 4.96966E+01-2.08509E+01
 -1      1519 9.22964E-01 1.37769E+02-5.78609E+01
 -1      1520 9.11715E-01 1.22165E+02-5.13054E+01
 -1      1521 8.73941E-01 8.41902E+01-3.53493E+01
 -1      1522 9.30788E-01 1.61265E+02-6.77308E+01
 -1      1523-1.20355E+01 1.37777E+02-5.78791E+01
 -1      1524-1.18459E+01 1.14441E+02-4.81046E+01
 -1      1525-1.33247E+00 2.85855E+00-1.41211E+00
 -1      1526 1.97154E-01 1.91905E+00-7.51980E-01
 -1      1527-5.33156E-01 9.09515E-02-3.09428E-01
 -1      1528-1.15408E+01 9.14366E+01-3.84780E+01
 -1      1529-1.17197E+01 9.93585E+01-4.17924E+01
 -1      1530-6.51512E+00 1.73177E+01-7.55123E+00
 -1      1531-5.79144E+00 1.32555E+01-5.86538E+00
 -1      1532-7.81415E+00 2.67107E+01-1.14570E+01
 -1      1533-4.61989E+00 5.29214E+01-2.23186E+01
 -1      1534-1.05410E+01 6.29653E+01-2.65778E+01
 -1      1535-3.98897E+00 3.46380E+01-1.46704E+01
 -1      1536-5.46931E+00 1.88144E+02-7.90169E+01
 -1      1537-5.54582E+00 1.80763E+02-7.59160E+01
 -1      1538-5.56249E+00 1.41683E+02-5.95126E+01
 -1      1539-5.54816E+00 1.33860E+02-5.62309E+01
 -1      1540-5.52482E+00 1.26058E+02-5.29586E+01
 -1      1541-5.56013E+00 1.72987E+02-7.26505E+01
 -1      1542-5.57077E+00 1.57350E+02-6.60863E+01
 -1      1543-5.13869E+00 8.05481E+01-3.38846E+01
 -1      1544-5.44778E+00 1.10571E+02-4.64660E+01
 -1      1545-2.13262E+00 7.95448E+00-3.53074E+00
 -1      1546-1.74622E+00 5.12615E+00-2.35502E+00
 -1      1547-5.56946E+00 1.49517E+02-6.27991E+01
 -1      1548-5.49176E+00 1.18290E+02-4.97015E+01
 -1      1549-4.41378E+00 4.65459E+01-1.96507E+01
 -1      1550-5.56707E+00 1.65175E+02-6.93709E+01
 -1      1551-4.21048E+00 4.04367E+01-1.70945E+01
 -1      1552-5.02334E+00 7.33551E+01-3.08727E+01
 -1      1553-5.23698E+00 8.78865E+01-3.69593E+01
 -1      1554-5.39076E+00 1.02919E+02-4.32583E+01
 -1      1555-1.01989E+01 5.62603E+01-2.37784E+01
 -1      1556-4.89051E+00 6.63325E+01-2.79316E+01
 -1      1557-2.49202E+00 1.12962E+01-4.92239E+00
 -1      1558-8.37552E+00 3.19721E+01-1.36478E+01
 -1      1559-3.44059E+00 2.41048E+01-1.02678E+01
 -1      1560-3.15679E+00 1.94025E+01-8.30364E+00
 -1      1561-8.83376E+00 1.98358E+02-8.33076E+01
 -1      1562 9.86905E-02 5.29985E-01-1.80467E-01
 -1      1563 8.60173E-01 1.92764E+02-8.09604E+01
 -1      1564-5.78777E-01 4.01444E-01-3.80273E-01
 -1      1565-7.58933E-01 1.96935E-01-4.19314E-01
 -1      1566 1.74865E-01 1.83295E-02 1.03699E-01
 -1      1567-1.40675E+01 1.99118E+02-8.36264E+01
 -1      1568 2.96067E+00 1.99160E+02-8.36466E+01
 -1      1569-5.56057E+00 1.94133E+02-8.15329E+01
 -1      1570 6.64641E-02-5.50847E-02 6.53330E-02
 -1      1571 1.59908E-01-1.79032E-02 1.35345E-01
 -1      1572 3.86267E-01 1.25332E-01 1.77741E-01
 -1      1573-4.45435E-01 1.18345E-01-2.90817E-01
 -1      1574-3.40424E-01 3.59910E-02-2.44060E-01
 -1      1575-1.15067E+00 4.14293E-01-5.37295E-01
 -1      1576 5.30382E+00 2.01609E+02-8.46753E+01
 -1      1577 2.01217E+00 2.01609E+02-8.46736E+01
 -1      1578 5.30376E+00 1.97738E+02-8.30514E+01
 -1      1579-1.30976E+01 2.01588E+02-8.46649E+01
 -1      1580-1.63896E+01 2.01587E+02-8.46641E+01
 -1      1581-1.63942E+01 1.97715E+02-8.30356E+01
 -1      1582-1.09718E-01-6.32967E-02-7.57111E-02
 -1      1583-2.03697E-02-5.93857E-02-1.41372E-03
 -1      1584 2.28858E-02 6.58983E-03 9.35399E-03
 -1      1585-3.13653E-01-4.38049E-03-2.23998E-01
 -1      1586-2.13282E-01-3.75659E-02-1.47485E-01
 -1      1587-3.33328E-01 3.82021E-02-2.01949E-01
 -1      1588-6.56709E-01 1.32216E-01-3.73221E-01
 -1      1589-6.80011E-01 2.01327E+02-8.45542E+01
 -1      1590-3.97814E+00 2.01327E+02-8.45542E+01
 -1      1591 2.69248E-01 1.98876E+02-8.35267E+01
 -1      1592-7.18289E+00 2.01209E+02-8.45052E+01
 -1      1593-1.04811E+01 2.01209E+02-8.45054E+01
 -1      1594-5.62918E+00 1.98475E+02-8.33573E+01
 -1      1595-1.14516E+01 1.98738E+02-8.34670E+01
 -1      1596 4.39654E-01 3.62431E-01 5.59608E-02
 -1      1597 5.97156E-01 8.49701E-01-1.35982E-01
 -1      1598 1.72464E-01 2.07540E-01 1.08658E-03
 -1      1599 7.85146E-01 1.54754E+00-4.22045E-01
 -1      1600 9.48777E-01 2.38077E+00-7.74880E-01
 -1      1601 1.43223E-01 1.13472E+00-4.27538E-01
 -1      1602 1.10036E+00 3.36046E+00-1.19392E+00
 -1      1603 1.25994E+00 4.49252E+00-1.67555E+00
 -1      1604 2.26965E-01 2.82589E+00-1.13663E+00
 -1      1605 1.40878E+00 5.77165E+00-2.21929E+00
 -1      1606 1.55749E+00 7.18332E+00-2.81928E+00
 -1      1607 2.82542E-01 5.08754E+00-2.09196E+00
 -1      1608 1.69232E+00 8.72735E+00-3.47517E+00
 -1      1609 1.83286E+00 1.03993E+01-4.18397E+00
 -1      1610 3.36603E-01 7.91603E+00-3.28498E+00
 -1      1611 1.98056E+00 1.21947E+01-4.94250E+00
 -1      1612 2.11051E+00 1.41086E+01-5.75233E+00
 -1      1613 3.99078E-01 1.12601E+01-4.69247E+00
 -1      1614 2.23551E+00 1.61385E+01-6.61086E+00
 -1      1615 2.35793E+00 1.82807E+01-7.51666E+00
 -1      1616 4.69608E-01 1.50889E+01-6.30174E+00
 -1      1617 2.47870E+00 2.05298E+01-8.46700E+00
 -1      1618 2.59358E+00 2.28821E+01-9.46082E+00
 -1      1619 5.25283E-01 1.93729E+01-8.10358E+00
 -1      1620 2.69951E+00 2.53346E+01-1.04961E+01
 -1      1621 2.80457E+00 2.78832E+01-1.15728E+01
 -1      1622 5.76216E-01 2.40788E+01-1.00821E+01
 -1      1623 2.90363E+00 3.05098E+01-1.26813E+01
 -1      1624 3.00001E+00 3.32383E+01-1.38329E+01
 -1      1625 6.20145E-01 2.91623E+01-1.22201E+01
 -1      1626 3.10179E+00 3.60532E+01-1.50205E+01
 -1      1627 3.19089E+00 3.89475E+01-1.62412E+01
 -1      1628 6.72344E-01 3.46066E+01-1.45084E+01
 -1      1629 3.25290E+00 4.19317E+01-1.75009E+01
 -1      1630 3.33438E+00 4.49761E+01-1.87848E+01
 -1      1631 6.99593E-01 4.04094E+01-1.69486E+01
 -1      1632 3.43664E+00 4.81081E+01-2.01040E+01
 -1      1633 3.50957E+00 5.12907E+01-2.14461E+01
 -1      1634 7.36830E-01 4.65295E+01-1.95207E+01
 -1      1635 3.56032E+00 5.45334E+01-2.28136E+01
 -1      1636 3.62640E+00 5.78389E+01-2.42069E+01
 -1      1637 7.78898E-01 5.29093E+01-2.22026E+01
 -1      1638 3.69898E+00 6.11883E+01-2.56179E+01
 -1      1639 3.75770E+00 6.46035E+01-2.70574E+01
 -1      1640 8.00242E-01 5.95056E+01-2.49750E+01
 -1      1641 3.79386E+00 6.80660E+01-2.85162E+01
 -1      1642 3.84441E+00 7.15775E+01-2.99955E+01
 -1      1643 8.18556E-01 6.63209E+01-2.78397E+01
 -1      1644 3.89264E+00 7.51334E+01-3.14933E+01
 -1      1645 3.93781E+00 7.87309E+01-3.30085E+01
 -1      1646 8.23046E-01 7.33421E+01-3.07904E+01
 -1      1647 3.99099E+00 8.23660E+01-3.45393E+01
 -1      1648 4.03083E+00 8.60360E+01-3.60848E+01
 -1      1649 8.53891E-01 8.05368E+01-3.38138E+01
 -1      1650 4.07483E+00 8.97390E+01-3.76434E+01
 -1      1651 4.10757E+00 9.34717E+01-3.92155E+01
 -1      1652 8.90720E-01 8.78778E+01-3.68981E+01
 -1      1653 4.14114E+00 9.72318E+01-4.07984E+01
 -1      1654 4.16938E+00 1.01017E+02-4.23917E+01
 -1      1655 9.18589E-01 9.53437E+01-4.00356E+01
 -1      1656 4.17166E+00 1.04823E+02-4.39939E+01
 -1      1657 4.19360E+00 1.08650E+02-4.56043E+01
 -1      1658 9.12044E-01 1.02913E+02-4.32165E+01
 -1      1659 4.21343E+00 1.12494E+02-4.72219E+01
 -1      1660 4.23157E+00 1.16354E+02-4.88460E+01
 -1      1661 9.00066E-01 1.10566E+02-4.64321E+01
 -1      1662 4.24695E+00 1.20227E+02-5.04755E+01
 -1      1663 4.26047E+00 1.24111E+02-5.21099E+01
 -1      1664 9.08255E-01 1.18286E+02-4.96755E+01
 -1      1665 4.27235E+00 1.28005E+02-5.37479E+01
 -1      1666 4.28178E+00 1.31907E+02-5.53889E+01
 -1      1667 9.15380E-01 1.26055E+02-5.29396E+01
 -1      1668 4.28976E+00 1.35814E+02-5.70323E+01
 -1      1669 4.29636E+00 1.39727E+02-5.86777E+01
 -1      1670 9.21178E-01 1.33858E+02-5.62180E+01
 -1      1671 4.30136E+00 1.43642E+02-6.03239E+01
 -1      1672 4.30489E+00 1.47559E+02-6.19708E+01
 -1      1673 9.25011E-01 1.41683E+02-5.95050E+01
 -1      1674 4.30739E+00 1.51476E+02-6.36176E+01
 -1      1675 4.30861E+00 1.55393E+02-6.52641E+01
 -1      1676 9.27977E-01 1.49517E+02-6.27960E+01
 -1      1677 4.30893E+00 1.59308E+02-6.69096E+01
 -1      1678 4.30827E+00 1.63221E+02-6.85539E+01
 -1      1679 9.30070E-01 1.57350E+02-6.60866E+01
 -1      1680 4.30702E+00 1.67131E+02-7.01968E+01
 -1      1681 4.30544E+00 1.71037E+02-7.18379E+01
 -1      1682 9.31475E-01 1.65176E+02-6.93737E+01
 -1      1683 4.30353E+00 1.74938E+02-7.34770E+01
 -1      1684 4.30127E+00 1.78835E+02-7.51139E+01
 -1      1685 9.32363E-01 1.72988E+02-7.26549E+01
 -1      1686 4.36353E+00 1.82688E+02-7.67320E+01
 -1      1687 4.36138E+00 1.86575E+02-7.83645E+01
 -1      1688 9.97815E-01 1.80742E+02-7.59117E+01
 -1      1689 4.25734E+00 1.90662E+02-8.00802E+01
 -1      1690 4.25614E+00 1.94540E+02-8.17085E+01
 -1      1691 9.61267E-01 1.88680E+02-7.92457E+01
 -1      1692 1.91087E+00 1.95963E+02-8.23043E+01
 -1      1693-2.17102E+00 1.16794E+00-9.07263E-01
 -1      1694-1.56210E+00 6.56457E-01-6.76593E-01
 -1      1695-1.12526E+00 4.11579E-01-5.46392E-01
 -1      1696-3.39877E+00 2.68864E+00-1.54210E+00
 -1      1697-2.80544E+00 1.86222E+00-1.20166E+00
 -1      1698-1.92095E+00 1.33247E+00-9.39933E-01
 -1      1699-4.55248E+00 4.79817E+00-2.40706E+00
 -1      1700-3.98710E+00 3.67458E+00-1.94653E+00
 -1      1701-2.88607E+00 3.01921E+00-1.63749E+00
 -1      1702-5.63200E+00 7.47178E+00-3.50641E+00
 -1      1703-5.09853E+00 6.06948E+00-2.92941E+00
 -1      1704-3.77809E+00 5.28593E+00-2.56955E+00
 -1      1705-6.63832E+00 1.06681E+01-4.82562E+00
 -1      1706-6.13847E+00 9.00604E+00-4.13947E+00
 -1      1707-4.60031E+00 8.10322E+00-3.73112E+00
 -1      1708-7.61355E+00 1.43460E+01-6.34820E+00
 -1      1709-7.14393E+00 1.24411E+01-5.55964E+00
 -1      1710-5.39389E+00 1.14208E+01-5.10387E+00
 -1      1711-8.51011E+00 1.85073E+01-8.07359E+00
 -1      1712-8.07276E+00 1.63749E+01-7.18912E+00
 -1      1713-6.15907E+00 1.52296E+01-6.68401E+00
 -1      1714-9.33819E+00 2.31021E+01-9.98162E+00
 -1      1715-8.93251E+00 2.07578E+01-9.00766E+00
 -1      1716-6.85284E+00 1.95179E+01-8.46489E+00
 -1      1717-1.01151E+01 2.80824E+01-1.20522E+01
 -1      1718-9.73912E+00 2.55424E+01-1.09963E+01
 -1      1719-7.50176E+00 2.42187E+01-1.04204E+01
 -1      1720-1.08190E+01 3.34306E+01-1.42777E+01
 -1      1721-1.04726E+01 3.07106E+01-1.31459E+01
 -1      1722-8.10062E+00 2.92966E+01-1.25340E+01
 -1      1723-1.14515E+01 3.91211E+01-1.66474E+01
 -1      1724-1.11351E+01 3.62351E+01-1.54454E+01
 -1      1725-8.62694E+00 3.47379E+01-1.47999E+01
 -1      1726-1.20483E+01 4.51316E+01-1.91521E+01
 -1      1727-1.17601E+01 4.20944E+01-1.78862E+01
 -1      1728-9.11497E+00 4.05242E+01-1.72118E+01
 -1      1729-1.25794E+01 5.14236E+01-2.17756E+01
 -1      1730-1.23182E+01 4.82491E+01-2.04522E+01
 -1      1731-9.56991E+00 4.66242E+01-1.97564E+01
 -1      1732-1.30786E+01 5.79599E+01-2.45026E+01
 -1      1733-1.28437E+01 5.46617E+01-2.31266E+01
 -1      1734-9.99213E+00 5.29888E+01-2.24122E+01
 -1      1735-1.35053E+01 6.47180E+01-2.73232E+01
 -1      1736-1.32963E+01 6.13096E+01-2.59007E+01
 -1      1737-1.03749E+01 5.95856E+01-2.51667E+01
 -1      1738-1.38250E+01 7.16748E+01-3.02280E+01
 -1      1739-1.36411E+01 6.81697E+01-2.87644E+01
 -1      1740-1.06401E+01 6.63952E+01-2.80106E+01
 -1      1741-1.41573E+01 7.88155E+01-3.32108E+01
 -1      1742-1.39971E+01 7.52247E+01-3.17108E+01
 -1      1743-1.08671E+01 7.34045E+01-3.09385E+01
 -1      1744-1.44442E+01 8.61092E+01-3.62587E+01
 -1      1745-1.43065E+01 8.24447E+01-3.47273E+01
 -1      1746-1.11179E+01 8.05907E+01-3.39423E+01
 -1      1747-1.47442E+01 9.34321E+01-3.93199E+01
 -1      1748-1.46264E+01 8.97058E+01-3.77623E+01
 -1      1749-1.13889E+01 8.78236E+01-3.69671E+01
 -1      1750-1.49554E+01 1.01171E+02-4.25562E+01
 -1      1751-1.48578E+01 9.73912E+01-4.09757E+01
 -1      1752-1.16344E+01 9.53828E+01-4.01287E+01
 -1      1753-1.50607E+01 1.08691E+02-4.57022E+01
 -1      1754-1.49815E+01 1.04869E+02-4.41033E+01
 -1      1755-1.17312E+01 1.03049E+02-4.33360E+01
 -1      1756-1.51933E+01 1.16385E+02-4.89224E+01
 -1      1757-1.51312E+01 1.12530E+02-4.73089E+01
 -1      1758-1.17940E+01 1.10592E+02-4.64929E+01
 -1      1759-1.52943E+01 1.24135E+02-5.21666E+01
 -1      1760-1.52477E+01 1.20254E+02-5.05420E+01
 -1      1761-1.18913E+01 1.18306E+02-4.97224E+01
 -1      1762-1.53670E+01 1.31923E+02-5.54282E+01
 -1      1763-1.53341E+01 1.28025E+02-5.37957E+01
 -1      1764-1.19648E+01 1.26069E+02-5.29739E+01
 -1      1765-1.54146E+01 1.39737E+02-5.87017E+01
 -1      1766-1.53938E+01 1.35828E+02-5.70638E+01
 -1      1767-1.20167E+01 1.33868E+02-5.62412E+01
 -1      1768-1.54409E+01 1.47563E+02-6.19820E+01
 -1      1769-1.54302E+01 1.43649E+02-6.03414E+01
 -1      1770-1.20500E+01 1.41688E+02-5.95189E+01
 -1      1771-1.54496E+01 1.55393E+02-6.52651E+01
 -1      1772-1.54472E+01 1.51478E+02-6.36235E+01
 -1      1773-1.20672E+01 1.49519E+02-6.28017E+01
 -1      1774-1.54445E+01 1.63218E+02-6.85472E+01
 -1      1775-1.54484E+01 1.59307E+02-6.69065E+01
 -1      1776-1.20713E+01 1.57350E+02-6.60860E+01
 -1      1777-1.54295E+01 1.71031E+02-7.18262E+01
 -1      1778-1.54379E+01 1.67126E+02-7.01873E+01
 -1      1779-1.20654E+01 1.65174E+02-6.93685E+01
 -1      1780-1.54091E+01 1.78829E+02-7.51001E+01
 -1      1781-1.54196E+01 1.74932E+02-7.34639E+01
 -1      1782-1.20528E+01 1.72984E+02-7.26468E+01
 -1      1783-1.54061E+01 1.86626E+02-7.83752E+01
 -1      1784-1.54165E+01 1.82738E+02-7.67417E+01
 -1      1785-1.20551E+01 1.80794E+02-7.59264E+01
 -1      1786-1.53314E+01 1.94555E+02-8.17072E+01
 -1      1787-1.53393E+01 1.90675E+02-8.00765E+01
 -1      1788-1.20007E+01 1.88752E+02-7.92692E+01
 -1      1789-1.30023E+01 1.95959E+02-8.22984E+01
 -1      1790-2.26988E+00 1.08646E+02-4.56436E+01
 -1      1791-2.28023E+00 1.12491E+02-4.72572E+01
 -1      1792-2.28931E+00 1.16351E+02-4.88767E+01
 -1      1793-2.29679E+00 1.20224E+02-5.05026E+01
 -1      1794-5.47094E+00 1.14423E+02-4.80805E+01
 -1      1795-2.32141E+00 1.47558E+02-6.19753E+01
 -1      1796-2.32163E+00 1.51475E+02-6.36199E+01
 -1      1797-2.31883E+00 1.39725E+02-5.86873E+01
 -1      1798-2.32048E+00 1.43641E+02-6.03311E+01
 -1      1799-5.56675E+00 1.45600E+02-6.11556E+01
 -1      1800-8.81389E+00 1.67129E+02-7.01898E+01
 -1      1801-8.81756E+00 1.63219E+02-6.85491E+01
 -1      1802-8.81997E+00 1.59307E+02-6.69072E+01
 -1      1803-8.82060E+00 1.55392E+02-6.52649E+01
 -1      1804-5.56933E+00 1.61264E+02-6.77290E+01
 -1      1805-2.30757E+00 1.78826E+02-7.51046E+01
 -1      1806-2.24043E+00 1.82678E+02-7.67225E+01
 -1      1807-2.20393E+00 1.86369E+02-7.82727E+01
 -1      1808-5.50747E+00 1.84456E+02-7.74672E+01
 -1      1809-2.30335E+00 1.90455E+02-7.99891E+01
 -1      1810-2.20964E+00 9.34677E+01-3.92747E+01
 -1      1811-2.22148E+00 9.72280E+01-4.08528E+01
 -1      1812-2.18024E+00 8.97343E+01-3.77084E+01
 -1      1813-5.29305E+00 9.16048E+01-3.85170E+01
 -1      1814-2.16994E+00 8.60310E+01-3.61551E+01
 -1      1815-8.75454E+00 1.28010E+02-5.37828E+01
 -1      1816-8.73190E+00 1.24117E+02-5.21515E+01
 -1      1817-8.78858E+00 1.35818E+02-5.70555E+01
 -1      1818-8.77338E+00 1.31911E+02-5.54178E+01
 -1      1819-5.53752E+00 1.29955E+02-5.45932E+01
 -1      1820-2.08885E+00 7.15710E+01-3.00894E+01
 -1      1821-2.11494E+00 7.51276E+01-3.15817E+01
 -1      1822-2.13854E+00 7.87252E+01-3.30904E+01
 -1      1823-2.14921E+00 8.23611E+01-3.46158E+01
 -1      1824-5.08265E+00 7.69318E+01-3.23703E+01
 -1      1825-3.50540E+00 8.80176E+00-3.96264E+00
 -1      1826-3.21933E+00 7.26072E+00-3.32468E+00
 -1      1827-4.08979E+00 1.22494E+01-5.39436E+00
 -1      1828-3.79041E+00 1.04713E+01-4.65534E+00
 -1      1829-2.31498E+00 9.56248E+00-4.20043E+00
 -1      1830-1.28808E+00 1.82647E+01-7.74293E+00
 -1      1831-1.34779E+00 2.05149E+01-8.68580E+00
 -1      1832-1.15401E+00 1.40927E+01-5.99582E+00
 -1      1833-1.22384E+00 1.61235E+01-6.84687E+00
 -1      1834-3.00193E+00 1.72082E+01-7.38839E+00
 -1      1835-6.91624E-01 4.47009E+00-1.96944E+00
 -1      1836-7.78756E-01 5.74947E+00-2.50465E+00
 -1      1837-6.03375E-01 3.33531E+00-1.49477E+00
 -1      1838-5.08679E-01 2.35410E+00-1.08221E+00
 -1      1839-1.54133E+00 3.92070E+00-1.85383E+00
 -1      1840-6.74843E+00 4.19712E+01-1.77825E+01
 -1      1841-6.56951E+00 3.89925E+01-1.65389E+01
 -1      1842-6.39179E+00 3.60943E+01-1.53291E+01
 -1      1843-4.10203E+00 3.74976E+01-1.58659E+01
 -1      1844-6.21681E+00 3.32843E+01-1.41572E+01
 -1      1845-1.99254E+00 5.78640E+01-2.43414E+01
 -1      1846-2.01512E+00 6.12143E+01-2.57465E+01
 -1      1847-1.95053E+00 5.45379E+01-2.29470E+01
 -1      1848-4.71362E+00 5.62167E+01-2.36978E+01
 -1      1849-1.89591E+00 5.12942E+01-2.15857E+01
 -1      1850-1.40489E+00 2.28672E+01-9.67078E+00
 -1      1851-1.46545E+00 2.53202E+01-1.06984E+01
 -1      1852-1.53965E+00 2.78449E+01-1.17569E+01
 -1      1853-1.59424E+00 3.04711E+01-1.28578E+01
 -1      1854-3.59568E+00 2.65819E+01-1.13030E+01
 -1      1855-1.60510E+00 1.65148E+00-1.00525E+00
 -1      1856-1.23654E+00 9.47575E-01-7.08624E-01
 -1      1857-7.46824E-01 7.82484E-01-5.44046E-01
 -1      1858-9.71396E-01 5.40251E-01-5.33358E-01
 -1      1859-9.29722E-01 3.56749E-01-4.83631E-01
 -1      1860-5.91965E-01 2.17678E-01-3.42716E-01
 -1      1861-8.63884E+00 1.12503E+02-4.72857E+01
 -1      1862-8.59868E+00 1.08660E+02-4.56763E+01
 -1      1863-8.55337E+00 1.04835E+02-4.40739E+01
 -1      1864-8.56366E+00 1.01133E+02-4.25244E+01
 -1      1865-5.42050E+00 1.06736E+02-4.48578E+01
 -1      1866-2.31526E+00 1.71036E+02-7.18331E+01
 -1      1867-2.31292E+00 1.74938E+02-7.34716E+01
 -1      1868-2.31909E+00 1.63220E+02-6.85512E+01
 -1      1869-2.31727E+00 1.67130E+02-7.01929E+01
 -1      1870-5.56386E+00 1.69083E+02-7.10114E+01
 -1      1871-8.70434E+00 1.90472E+02-7.99934E+01
 -1      1872-8.76659E+00 1.86423E+02-7.82921E+01
 -1      1873-8.74912E+00 1.93466E+02-8.12513E+01
 -1      1874-5.51480E+00 1.91140E+02-8.02754E+01
 -1      1875-1.03850E+01 1.95579E+02-8.21391E+01
 -1      1876-7.19728E+00 1.96246E+02-8.24202E+01
 -1      1877-7.99142E+00 7.51576E+01-3.16528E+01
 -1      1878-7.89333E+00 7.16034E+01-3.01664E+01
 -1      1879-7.78846E+00 6.80928E+01-2.86981E+01
 -1      1880-7.73595E+00 6.46363E+01-2.72535E+01
 -1      1881-4.95861E+00 6.98208E+01-2.93922E+01
 -1      1882-8.80659E+00 1.82732E+02-7.67416E+01
 -1      1883-8.79439E+00 1.78824E+02-7.51001E+01
 -1      1884-8.80338E+00 1.74936E+02-7.34674E+01
 -1      1885-8.80900E+00 1.71034E+02-7.18293E+01
 -1      1886-5.55305E+00 1.76877E+02-7.42841E+01
 -1      1887-8.16779E+00 8.23868E+01-3.46772E+01
 -1      1888-8.08293E+00 7.87533E+01-3.31572E+01
 -1      1889-8.37549E+00 8.96555E+01-3.77196E+01
 -1      1890-8.24673E+00 8.60552E+01-3.62129E+01
 -1      1891-5.18928E+00 8.42006E+01-3.54150E+01
 -1      1892-1.72360E+00 3.89318E+01-1.64030E+01
 -1      1893-1.79140E+00 4.19174E+01-1.76557E+01
 -1      1894-1.83309E+00 4.49729E+01-1.89363E+01
 -1      1895-1.84878E+00 4.81053E+01-2.02487E+01
 -1      1896-4.31409E+00 4.34553E+01-1.83576E+01
 -1      1897-5.12141E+00 2.05905E+01-8.86454E+00
 -1      1898-4.88005E+00 1.83337E+01-7.92520E+00
 -1      1899-5.58503E+00 2.53864E+01-1.08634E+01
 -1      1900-5.35093E+00 2.29403E+01-9.84434E+00
 -1      1901-3.30095E+00 2.17031E+01-9.26466E+00
 -1      1902-7.06534E+00 4.81477E+01-2.03624E+01
 -1      1903-6.91248E+00 4.50246E+01-1.90585E+01
 -1      1904-7.22377E+00 5.13344E+01-2.16938E+01
 -1      1905-4.51887E+00 4.97009E+01-2.09706E+01
 -1      1906-7.38251E+00 5.45777E+01-2.30490E+01
 -1      1907-3.22229E-01 1.70241E-01-2.22333E-01
 -1      1908-6.92751E-02 2.15907E-01-1.22475E-01
 -1      1909-2.66283E-01 4.47890E-01-2.86414E-01
 -1      1910-3.99211E+00 1.96364E+02-8.24704E+01
 -1      1911-7.82262E-01 1.95679E+02-8.21839E+01
 -1      1912-2.34989E+00 1.93449E+02-8.12464E+01
 -1      1913-8.81913E+00 1.51476E+02-6.36219E+01
 -1      1914-8.81569E+00 1.47559E+02-6.19791E+01
 -1      1915-8.80966E+00 1.43643E+02-6.03367E+01
 -1      1916-8.80064E+00 1.39729E+02-5.86956E+01
 -1      1917-2.31297E+00 1.31905E+02-5.54047E+01
 -1      1918-2.31622E+00 1.35813E+02-5.70453E+01
 -1      1919-2.30325E+00 1.24109E+02-5.21327E+01
 -1      1920-2.30857E+00 1.28003E+02-5.37673E+01
 -1      1921-1.01916E+00 1.03825E+01-4.44392E+00
 -1      1922-1.07963E+00 1.21782E+01-5.19434E+00
 -1      1923-8.58040E-01 7.16539E+00-3.09652E+00
 -1      1924-9.44570E-01 8.71012E+00-3.74450E+00
 -1      1925-2.27439E+00 3.43731E+00-1.74393E+00
 -1      1926-1.93601E+00 2.44621E+00-1.33478E+00
 -1      1927-2.91339E+00 5.84784E+00-2.73969E+00
 -1      1928-2.60284E+00 4.56992E+00-2.21244E+00
 -1      1929-1.12249E+00 1.98894E+00-1.04979E+00
 -1      1930-4.17749E-01 1.55682E+00-7.47010E-01
 -1      1931-3.34891E-01 8.49566E-01-4.53314E-01
 -1      1932-2.22330E+00 1.01013E+02-4.24406E+01
 -1      1933-2.25900E+00 1.04820E+02-4.40381E+01
 -1      1934-5.36999E+00 9.91237E+01-4.16677E+01
 -1      1935-8.45530E+00 9.33864E+01-3.92812E+01
 -1      1936-8.52014E+00 9.73493E+01-4.09402E+01
 -1      1937-2.32130E+00 1.55392E+02-6.52644E+01
 -1      1938-2.32038E+00 1.59308E+02-6.69082E+01
 -1      1939-5.57057E+00 1.53434E+02-6.44428E+01
 -1      1940-8.70523E+00 1.20234E+02-5.05242E+01
 -1      1941-8.67426E+00 1.16362E+02-4.89022E+01
 -1      1942-5.50942E+00 1.22168E+02-5.13277E+01
 -1      1943-2.01440E+00 6.45960E+01-2.71641E+01
 -1      1944-2.06238E+00 6.80591E+01-2.86166E+01
 -1      1945-4.84970E+00 6.29267E+01-2.65063E+01
 -1      1946-7.52472E+00 5.79015E+01-2.44387E+01
 -1      1947-7.64880E+00 6.12568E+01-2.58408E+01
 -1      1948-1.64037E+00 3.32160E+01-1.40074E+01
 -1      1949-1.68156E+00 3.60313E+01-1.51880E+01
 -1      1950-3.87076E+00 3.18507E+01-1.35052E+01
 -1      1951-5.81753E+00 2.79089E+01-1.19155E+01
 -1      1952-6.02217E+00 3.05417E+01-1.30132E+01
 -1      1953-2.66912E+00 1.31505E+01-5.69559E+00
 -1      1954-4.62980E+00 1.61957E+01-7.03546E+00
 -1      1955-4.36496E+00 1.41611E+01-6.18958E+00
 -1      1956-1.94215E+00 6.47294E+00-2.91461E+00
 -1      1957-5.55624E+00 1.37770E+02-5.78709E+01
 -1      1958 1.18458E+01 1.14442E+02-4.81042E+01
 -1      1959 1.20605E+01 1.45604E+02-6.11594E+01
 -1      1960-9.30856E-01 1.61265E+02-6.77311E+01
 -1      1961 1.21580E+01 1.84589E+02-7.75194E+01
 -1      1962 1.14693E+01 9.16401E+01-3.85621E+01
 -1      1963-9.18512E-01 1.29954E+02-5.45777E+01
 -1      1964 1.09971E+01 7.69782E+01-3.24320E+01
 -1      1965-3.57909E-01 9.52557E+00-3.96395E+00
 -1      1966 6.44926E+00 1.73339E+01-7.55575E+00
 -1      1967 3.34171E+00 4.08614E+00-2.07577E+00
 -1      1968-6.56295E-01 3.74897E+01-1.57223E+01
 -1      1969-7.75352E-01 5.61236E+01-2.35541E+01
 -1      1970-5.71045E-01 2.65809E+01-1.11356E+01
 -1      1971-9.82371E-02 5.26935E-01-1.79443E-01
 -1      1972-8.94421E-01 1.06731E+02-4.48206E+01
 -1      1973 1.20597E+01 1.69081E+02-7.10079E+01
 -1      1974-8.58343E-01 1.92801E+02-8.09764E+01
 -1      1975-8.11472E-01 6.98083E+01-2.93052E+01
 -1      1976-9.32727E-01 1.76888E+02-7.42931E+01
 -1      1977-8.52566E-01 8.41908E+01-3.53498E+01
 -1      1978 9.26222E+00 4.35368E+01-1.84669E+01
 -1      1979 1.05108E+01 6.29318E+01-2.65635E+01
 -1      1980 8.27595E+00 3.19864E+01-1.36520E+01
 -1      1981 5.03536E-01 7.40957E-02-2.93227E-01
 -1      1982 8.64551E+00 1.98592E+02-8.34058E+01
 -1      1983-9.26631E-01 1.45600E+02-6.11507E+01
 -1      1984 1.19934E+01 1.29966E+02-5.46057E+01
 -1      1985-4.72854E-01 1.71768E+01-7.18199E+00
 -1      1986 4.98779E+00 9.70553E+00-4.39266E+00
 -1      1987-2.54045E-01 3.87421E+00-1.58041E+00
 -1      1988-1.78042E-01 1.89181E+00-7.46034E-01
 -1      1989 9.37677E-01 1.26213E+00-7.51839E-01
 -1      1990-9.70268E-01 1.84705E+02-7.75764E+01
 -1      1991 1.17354E+01 1.06759E+02-4.48883E+01
 -1      1992 1.16442E+01 9.91520E+01-4.17053E+01
 -1      1993 5.29643E+00 9.53518E+01-4.00866E+01
 -1      1994 1.20707E+01 1.53436E+02-6.44435E+01
 -1      1995 1.07738E+01 6.98726E+01-2.94626E+01
 -1      1996-9.11798E-01 1.22166E+02-5.13057E+01
 -1      1997-9.31921E-01 1.69085E+02-7.10156E+01
 -1      1998-9.29185E-01 1.53435E+02-6.44419E+01
 -1      1999 8.79184E+00 3.76035E+01-1.59930E+01
 -1      2000-6.95089E-01 4.34321E+01-1.82202E+01
 -1      2001-7.63146E-01 4.96584E+01-2.08353E+01
 -1      2002 4.63053E+00 5.28317E+01-2.22812E+01
 -1      2003 7.10518E+00 2.18221E+01-9.42109E+00
 -1      2004 7.71456E+00 2.67161E+01-1.14573E+01
 -1      2005 1.20448E+01 1.76884E+02-7.42836E+01
 -1      2006-8.41992E-01 6.28414E+01-2.63768E+01
 -1      2007-5.24719E-01 2.16753E+01-9.07381E+00
 -1      2008-8.33267E-01 7.69203E+01-3.22943E+01
 -1      2009 5.74370E+00 1.32853E+01-5.87533E+00
 -1      2010-3.11808E-01 6.43682E+00-2.66056E+00
 -1      2011 4.19831E+00 6.63212E+00-3.12280E+00
 -1      2012-4.18900E-01 1.31166E+01-5.47372E+00
 -1      2013 1.20353E+01 1.37777E+02-5.78788E+01
 -1      2014-6.15899E-01 3.18628E+01-1.33563E+01
 -1      2015 1.19310E+01 1.22183E+02-5.13456E+01
 -1      2016 1.12522E+01 8.42409E+01-3.54683E+01
 -1      2017 1.20693E+01 1.61264E+02-6.77272E+01
 -1      2018-9.23022E-01 1.37769E+02-5.78612E+01
 -1      2019-9.04024E-01 1.14420E+02-4.80512E+01
 -1      2020 1.34205E+00 2.85929E+00-1.41401E+00
 -1      2021 2.45141E+00 2.13777E+00-1.27655E+00
 -1      2022 1.40583E-01 2.33824E-02-9.69918E-02
 -1      2023-9.83419E-01 9.13940E+01-3.83748E+01
 -1      2024-1.00043E+00 9.93231E+01-4.17075E+01
 -1      2025 4.78870E+00 5.94793E+01-2.50629E+01
 -1      2026 9.80007E+00 4.97485E+01-2.10597E+01
 -1      2027 5.61827E+00 1.88145E+02-7.90168E+01
 -1      2028 5.55788E+00 1.80763E+02-7.59161E+01
 -1      2029 5.56242E+00 1.41684E+02-5.95126E+01
 -1      2030 5.54810E+00 1.33861E+02-5.62309E+01
 -1      2031 5.52471E+00 1.26058E+02-5.29587E+01
 -1      2032 5.56014E+00 1.72987E+02-7.26504E+01
 -1      2033 5.57068E+00 1.57351E+02-6.60863E+01
 -1      2034 5.13854E+00 8.05482E+01-3.38846E+01
 -1      2035 5.44743E+00 1.10572E+02-4.64657E+01
 -1      2036 4.91159E+00 6.63184E+01-2.79258E+01
 -1      2037 2.82985E+00 1.51233E+01-6.51810E+00
 -1      2038 2.49162E+00 1.12973E+01-4.92241E+00
 -1      2039 2.13194E+00 7.95490E+00-3.53125E+00
 -1      2040 1.74671E+00 5.12694E+00-2.35549E+00
 -1      2041 5.56936E+00 1.49518E+02-6.27992E+01
 -1      2042 3.14378E+00 1.94053E+01-8.30413E+00
 -1      2043 5.49163E+00 1.18290E+02-4.97014E+01
 -1      2044 3.95172E+00 3.46596E+01-1.46782E+01
 -1      2045 3.70389E+00 2.92033E+01-1.23977E+01
 -1      2046 3.43371E+00 2.41076E+01-1.02686E+01
 -1      2047 5.56695E+00 1.65176E+02-6.93709E+01
 -1      2048 4.17961E+00 4.04462E+01-1.70977E+01
 -1      2049 5.02331E+00 7.33556E+01-3.08727E+01
 -1      2050 5.23693E+00 8.78871E+01-3.69593E+01
 -1      2051 5.39050E+00 1.02920E+02-4.32583E+01
 -1      2052 1.01964E+01 5.62197E+01-2.37609E+01
 -1      2053 4.38534E+00 4.65332E+01-1.96446E+01
 -1      2054 2.23614E+00 1.98360E+02-8.33090E+01
 -1      2055 1.42173E+00 7.28130E-01-6.81405E-01
 -1      2056 1.19391E+01 1.92761E+02-8.09537E+01
 -1      2057 5.77342E-01 4.01223E-01-3.81555E-01
 -1      2058-1.77157E-01 1.91956E-02 1.04858E-01
 -1      2059 7.52687E-01 1.95479E-01-4.11278E-01
 -1      2060-2.99800E+00 1.99121E+02-8.36305E+01
 -1      2061 1.40303E+01 1.99158E+02-8.36426E+01
 -1      2062 5.51576E+00 1.94134E+02-8.15330E+01
 -1      2063 4.41724E-01 1.17025E-01-2.89476E-01
 -1      2064 3.44845E-01 2.96265E-02-2.51684E-01
 -1      2065 1.14617E+00 4.11673E-01-5.34200E-01
 -1      2066-6.57098E-02-4.91129E-02 6.75257E-02
 -1      2067-1.61540E-01-1.62831E-02 1.36451E-01
 -1      2068-3.88443E-01 1.26707E-01 1.78943E-01
 -1      2069 1.30790E+01 2.01609E+02-8.46729E+01
 -1      2070 1.63710E+01 2.01608E+02-8.46719E+01
 -1      2071 1.63756E+01 1.97735E+02-8.30434E+01
 -1      2072-5.32251E+00 2.01590E+02-8.46675E+01
 -1      2073-2.03088E+00 2.01590E+02-8.46657E+01
 -1      2074-5.32247E+00 1.97719E+02-8.30437E+01
 -1      2075 2.83920E-01-3.24480E-03-2.01654E-01
 -1      2076 2.05349E-01-4.48543E-02-1.43755E-01
 -1      2077 6.31467E-01 1.24403E-01-3.62407E-01
 -1      2078 1.08765E-01-5.76164E-02-6.75030E-02
 -1      2079 1.46428E-02-6.32081E-02 5.50435E-03
 -1      2080 3.26324E-01 3.74913E-02-2.01856E-01
 -1      2081-2.85296E-02 1.12197E-02 6.82679E-03
 -1      2082 7.08881E+00 2.01327E+02-8.45542E+01
 -1      2083 1.03869E+01 2.01326E+02-8.45541E+01
 -1      2084 1.13388E+01 1.98875E+02-8.35242E+01
 -1      2085 5.85911E-01 2.01210E+02-8.45055E+01
 -1      2086 3.88403E+00 2.01210E+02-8.45052E+01
 -1      2087 5.44064E+00 1.98476E+02-8.33573E+01
 -1      2088-3.81969E-01 1.98741E+02-8.34697E+01
 -1      2089 2.17390E+00 1.17106E+00-9.09202E-01
 -1      2090 1.56455E+00 6.58809E-01-6.76842E-01
 -1      2091 1.12273E+00 4.11241E-01-5.44529E-01
 -1      2092 3.41809E+00 2.70573E+00-1.54927E+00
 -1      2093 2.82354E+00 1.87693E+00-1.20758E+00
 -1      2094 1.93744E+00 1.34798E+00-9.46637E-01
 -1      2095 4.55173E+00 4.80093E+00-2.40776E+00
 -1      2096 3.98629E+00 3.67696E+00-1.94708E+00
 -1      2097 2.90349E+00 3.03891E+00-1.64605E+00
 -1      2098 5.63146E+00 7.47286E+00-3.50622E+00
 -1      2099 5.09885E+00 6.07074E+00-2.92886E+00
 -1      2100 3.77664E+00 5.28902E+00-2.57019E+00
 -1      2101 6.63853E+00 1.06685E+01-4.82539E+00
 -1      2102 6.13864E+00 9.00671E+00-4.13914E+00
 -1      2103 4.60007E+00 8.10384E+00-3.73108E+00
 -1      2104 7.58900E+00 1.43611E+01-6.35332E+00
 -1      2105 7.12212E+00 1.24551E+01-5.56404E+00
 -1      2106 5.37187E+00 1.14346E+01-5.10838E+00
 -1      2107 8.47636E+00 1.85154E+01-8.07609E+00
 -1      2108 8.04058E+00 1.63827E+01-7.19161E+00
 -1      2109 6.10244E+00 1.52528E+01-6.69208E+00
 -1      2110 9.30074E+00 2.31003E+01-9.98008E+00
 -1      2111 8.89649E+00 2.07562E+01-9.00620E+00
 -1      2112 6.78320E+00 1.95252E+01-8.46608E+00
 -1      2113 1.00640E+01 2.80849E+01-1.20524E+01
 -1      2114 9.68975E+00 2.55443E+01-1.09962E+01
 -1      2115 7.41579E+00 2.42202E+01-1.04189E+01
 -1      2116 1.07682E+01 3.34377E+01-1.42798E+01
 -1      2117 1.04235E+01 3.07174E+01-1.31478E+01
 -1      2118 8.00092E+00 2.93063E+01-1.25362E+01
 -1      2119 1.14137E+01 3.91298E+01-1.66502E+01
 -1      2120 1.10983E+01 3.62435E+01-1.54481E+01
 -1      2121 8.53938E+00 3.47537E+01-1.48049E+01
 -1      2122 1.20021E+01 4.51307E+01-1.91510E+01
 -1      2123 1.17150E+01 4.20935E+01-1.78850E+01
 -1      2124 9.03239E+00 4.05323E+01-1.72138E+01
 -1      2125 1.25915E+01 5.14089E+01-2.17692E+01
 -1      2126 1.23297E+01 4.82345E+01-2.04456E+01
 -1      2127 9.53523E+00 4.66086E+01-1.97492E+01
 -1      2128 1.30769E+01 5.79396E+01-2.44935E+01
 -1      2129 1.28421E+01 5.46421E+01-2.31179E+01
 -1      2130 1.00032E+01 5.29535E+01-2.23975E+01
 -1      2131 1.34904E+01 6.47012E+01-2.73157E+01
 -1      2132 1.32816E+01 6.12933E+01-2.58932E+01
 -1      2133 1.03587E+01 5.95482E+01-2.51503E+01
 -1      2134 1.38478E+01 7.16747E+01-3.02275E+01
 -1      2135 1.36636E+01 6.81693E+01-2.87638E+01
 -1      2136 1.06474E+01 6.63780E+01-2.80028E+01
 -1      2137 1.41572E+01 7.88159E+01-3.32105E+01
 -1      2138 1.39969E+01 7.52252E+01-3.17104E+01
 -1      2139 1.08901E+01 7.34042E+01-3.09382E+01
 -1      2140 1.44555E+01 8.61096E+01-3.62585E+01
 -1      2141 1.43173E+01 8.24452E+01-3.47270E+01
 -1      2142 1.11286E+01 8.05913E+01-3.39422E+01
 -1      2143 1.47086E+01 9.35341E+01-3.93619E+01
 -1      2144 1.45915E+01 8.98071E+01-3.78038E+01
 -1      2145 1.13646E+01 8.79248E+01-3.70087E+01
 -1      2146 1.49171E+01 1.01068E+02-4.25127E+01
 -1      2147 1.48194E+01 9.72885E+01-4.09321E+01
 -1      2148 1.15603E+01 9.53830E+01-4.01281E+01
 -1      2149 1.50608E+01 1.08691E+02-4.57017E+01
 -1      2150 1.49817E+01 1.04869E+02-4.41028E+01
 -1      2151 1.16934E+01 1.02945E+02-4.32921E+01
 -1      2152 1.51933E+01 1.16386E+02-4.89219E+01
 -1      2153 1.51311E+01 1.12531E+02-4.73084E+01
 -1      2154 1.17937E+01 1.10592E+02-4.64927E+01
 -1      2155 1.52941E+01 1.24135E+02-5.21660E+01
 -1      2156 1.52474E+01 1.20255E+02-5.05415E+01
 -1      2157 1.18912E+01 1.18306E+02-4.97222E+01
 -1      2158 1.53669E+01 1.31924E+02-5.54278E+01
 -1      2159 1.53339E+01 1.28026E+02-5.37952E+01
 -1      2160 1.19649E+01 1.26070E+02-5.29736E+01
 -1      2161 1.54146E+01 1.39737E+02-5.87012E+01
 -1      2162 1.53938E+01 1.35828E+02-5.70633E+01
 -1      2163 1.20167E+01 1.33869E+02-5.62409E+01
 -1      2164 1.54408E+01 1.47564E+02-6.19815E+01
 -1      2165 1.54301E+01 1.43650E+02-6.03409E+01
 -1      2166 1.20499E+01 1.41689E+02-5.95185E+01
 -1      2167 1.54496E+01 1.55394E+02-6.52646E+01
 -1      2168 1.54472E+01 1.51479E+02-6.36230E+01
 -1      2169 1.20672E+01 1.49520E+02-6.28013E+01
 -1      2170 1.54443E+01 1.63219E+02-6.85467E+01
 -1      2171 1.54485E+01 1.59307E+02-6.69059E+01
 -1      2172 1.20712E+01 1.57351E+02-6.60856E+01
 -1      2173 1.54294E+01 1.71032E+02-7.18257E+01
 -1      2174 1.54377E+01 1.67127E+02-7.01868E+01
 -1      2175 1.20653E+01 1.65174E+02-6.93682E+01
 -1      2176 1.54091E+01 1.78830E+02-7.50996E+01
 -1      2177 1.54197E+01 1.74933E+02-7.34633E+01
 -1      2178 1.20527E+01 1.72985E+02-7.26464E+01
 -1      2179 1.54525E+01 1.86570E+02-7.83509E+01
 -1      2180 1.54630E+01 1.82682E+02-7.67175E+01
 -1      2181 1.21014E+01 1.80739E+02-7.59023E+01
 -1      2182 1.53324E+01 1.94537E+02-8.16989E+01
 -1      2183 1.53404E+01 1.90657E+02-8.00682E+01
 -1      2184 1.20479E+01 1.88677E+02-7.92374E+01
 -1      2185 1.29846E+01 1.95961E+02-8.22985E+01
 -1      2186-4.38719E-01 3.60604E-01 5.68922E-02
 -1      2187-5.95616E-01 8.47409E-01-1.36643E-01
 -1      2188-1.74133E-01 2.07803E-01 1.65577E-03
 -1      2189-7.73917E-01 1.53474E+00-4.18120E-01
 -1      2190-9.35923E-01 2.36548E+00-7.71083E-01
 -1      2191-1.35622E-01 1.12093E+00-4.23509E-01
 -1      2192-1.10183E+00 3.35819E+00-1.19248E+00
 -1      2193-1.26091E+00 4.49080E+00-1.67470E+00
 -1      2194-2.15980E-01 2.80678E+00-1.13030E+00
 -1      2195-1.40906E+00 5.77218E+00-2.21989E+00
 -1      2196-1.55791E+00 7.18393E+00-2.81950E+00
 -1      2197-2.84167E-01 5.08512E+00-2.09103E+00
 -1      2198-1.69265E+00 8.72795E+00-3.47569E+00
 -1      2199-1.83294E+00 1.03997E+01-4.18432E+00
 -1      2200-3.36954E-01 7.91648E+00-3.28548E+00
 -1      2201-1.96932E+00 1.21948E+01-4.94381E+00
 -1      2202-2.09857E+00 1.41087E+01-5.75360E+00
 -1      2203-3.88426E-01 1.12604E+01-4.69362E+00
 -1      2204-2.22466E+00 1.61388E+01-6.61196E+00
 -1      2205-2.34648E+00 1.82810E+01-7.51775E+00
 -1      2206-4.46942E-01 1.50891E+01-6.30352E+00
 -1      2207-2.46438E+00 2.05300E+01-8.46820E+00
 -1      2208-2.57861E+00 2.28823E+01-9.46200E+00
 -1      2209-4.99708E-01 1.93733E+01-8.10532E+00
 -1      2210-2.68643E+00 2.53348E+01-1.04971E+01
 -1      2211-2.79101E+00 2.78835E+01-1.15738E+01
 -1      2212-5.48247E-01 2.40791E+01-1.00837E+01
 -1      2213-2.89148E+00 3.05243E+01-1.26882E+01
 -1      2214-2.98747E+00 3.32533E+01-1.38400E+01
 -1      2215-5.94024E-01 2.91766E+01-1.22273E+01
 -1      2216-3.07988E+00 3.60665E+01-1.50270E+01
 -1      2217-3.16830E+00 3.89609E+01-1.62484E+01
 -1      2218-6.37181E-01 3.46346E+01-1.45215E+01
 -1      2219-3.25272E+00 4.19321E+01-1.75012E+01
 -1      2220-3.33444E+00 4.49765E+01-1.87850E+01
 -1      2221-6.76726E-01 4.04238E+01-1.69557E+01
 -1      2222-3.42807E+00 4.80894E+01-2.00965E+01
 -1      2223-3.50091E+00 5.12717E+01-2.14384E+01
 -1      2224-7.28945E-01 4.65111E+01-1.95132E+01
 -1      2225-3.55982E+00 5.45042E+01-2.28014E+01
 -1      2226-3.62592E+00 5.78092E+01-2.41945E+01
 -1      2227-7.70424E-01 5.28607E+01-2.21823E+01
 -1      2228-3.70751E+00 6.11683E+01-2.56094E+01
 -1      2229-3.76644E+00 6.45831E+01-2.70488E+01
 -1      2230-8.08839E-01 5.94552E+01-2.49537E+01
 -1      2231-3.79402E+00 6.80663E+01-2.85165E+01
 -1      2232-3.84467E+00 7.15779E+01-2.99959E+01
 -1      2233-8.27422E-01 6.63004E+01-2.78310E+01
 -1      2234-3.89261E+00 7.51338E+01-3.14938E+01
 -1      2235-3.93776E+00 7.87314E+01-3.30088E+01
 -1      2236-8.23044E-01 7.33430E+01-3.07910E+01
 -1      2237-3.97993E+00 8.23663E+01-3.45398E+01
 -1      2238-4.01887E+00 8.60366E+01-3.60852E+01
 -1      2239-8.43581E-01 8.05372E+01-3.38141E+01
 -1      2240-4.11182E+00 8.96385E+01-3.76009E+01
 -1      2241-4.14542E+00 9.33705E+01-3.91727E+01
 -1      2242-9.18156E-01 8.77773E+01-3.68556E+01
 -1      2243-4.17766E+00 9.73351E+01-4.08416E+01
 -1      2244-4.20606E+00 1.01120E+02-4.24352E+01
 -1      2245-9.92904E-01 9.53442E+01-4.00351E+01
 -1      2246-4.17133E+00 1.04824E+02-4.39943E+01
 -1      2247-4.19333E+00 1.08650E+02-4.56047E+01
 -1      2248-9.48002E-01 1.03017E+02-4.32599E+01
 -1      2249-4.21349E+00 1.12495E+02-4.72224E+01
 -1      2250-4.23166E+00 1.16354E+02-4.88466E+01
 -1      2251-8.99879E-01 1.10567E+02-4.64323E+01
 -1      2252-4.24707E+00 1.20227E+02-5.04760E+01
 -1      2253-4.26055E+00 1.24112E+02-5.21104E+01
 -1      2254-9.08248E-01 1.18287E+02-4.96758E+01
 -1      2255-4.27243E+00 1.28006E+02-5.37483E+01
 -1      2256-4.28185E+00 1.31907E+02-5.53894E+01
 -1      2257-9.15478E-01 1.26056E+02-5.29399E+01
 -1      2258-4.28982E+00 1.35815E+02-5.70328E+01
 -1      2259-4.29643E+00 1.39727E+02-5.86782E+01
 -1      2260-9.21241E-01 1.33859E+02-5.62183E+01
 -1      2261-4.30142E+00 1.43643E+02-6.03244E+01
 -1      2262-4.30495E+00 1.47560E+02-6.19713E+01
 -1      2263-9.25071E-01 1.41684E+02-5.95053E+01
 -1      2264-4.30745E+00 1.51477E+02-6.36181E+01
 -1      2265-4.30867E+00 1.55394E+02-6.52646E+01
 -1      2266-9.28042E-01 1.49518E+02-6.27963E+01
 -1      2267-4.30899E+00 1.59309E+02-6.69101E+01
 -1      2268-4.30833E+00 1.63222E+02-6.85544E+01
 -1      2269-9.30137E-01 1.57351E+02-6.60869E+01
 -1      2270-4.30709E+00 1.67131E+02-7.01973E+01
 -1      2271-4.30550E+00 1.71037E+02-7.18384E+01
 -1      2272-9.31551E-01 1.65177E+02-6.93741E+01
 -1      2273-4.30351E+00 1.74939E+02-7.34775E+01
 -1      2274-4.30121E+00 1.78836E+02-7.51145E+01
 -1      2275-9.32382E-01 1.72989E+02-7.26552E+01
 -1      2276-4.31731E+00 1.82745E+02-7.67561E+01
 -1      2277-4.31505E+00 1.86632E+02-7.83887E+01
 -1      2278-9.51502E-01 1.80799E+02-7.59357E+01
 -1      2279-4.25651E+00 1.90681E+02-8.00885E+01
 -1      2280-4.25528E+00 1.94560E+02-8.17168E+01
 -1      2281-9.14144E-01 1.88756E+02-7.92774E+01
 -1      2282-1.92861E+00 1.95963E+02-8.23042E+01
 -1      2283 8.63873E+00 1.12504E+02-4.72856E+01
 -1      2284 8.59852E+00 1.08661E+02-4.56762E+01
 -1      2285 8.70518E+00 1.20234E+02-5.05241E+01
 -1      2286 8.67413E+00 1.16362E+02-4.89022E+01
 -1      2287 5.47081E+00 1.14424E+02-4.80805E+01
 -1      2288 8.81913E+00 1.51477E+02-6.36217E+01
 -1      2289 8.81562E+00 1.47560E+02-6.19789E+01
 -1      2290 8.80958E+00 1.43644E+02-6.03365E+01
 -1      2291 8.80056E+00 1.39729E+02-5.86954E+01
 -1      2292 5.56667E+00 1.45600E+02-6.11556E+01
 -1      2293 2.31899E+00 1.63221E+02-6.85514E+01
 -1      2294 2.31718E+00 1.67131E+02-7.01931E+01
 -1      2295 2.32123E+00 1.55393E+02-6.52646E+01
 -1      2296 2.32030E+00 1.59308E+02-6.69084E+01
 -1      2297 5.56924E+00 1.61265E+02-6.77291E+01
 -1      2298 8.85891E+00 1.82677E+02-7.67178E+01
 -1      2299 8.80031E+00 1.78824E+02-7.50999E+01
 -1      2300 5.58801E+00 1.84456E+02-7.74672E+01
 -1      2301 8.88739E+00 1.86368E+02-7.82682E+01
 -1      2302 8.77973E+00 1.90454E+02-7.99853E+01
 -1      2303 8.45857E+00 9.72468E+01-4.08965E+01
 -1      2304 8.39399E+00 9.34887E+01-3.93235E+01
 -1      2305 5.26849E+00 9.16052E+01-3.85169E+01
 -1      2306 8.33913E+00 8.97573E+01-3.77617E+01
 -1      2307 8.25753E+00 8.60558E+01-3.62127E+01
 -1      2308 2.30315E+00 1.24110E+02-5.21328E+01
 -1      2309 2.30849E+00 1.28004E+02-5.37675E+01
 -1      2310 2.31292E+00 1.31906E+02-5.54048E+01
 -1      2311 2.31616E+00 1.35814E+02-5.70454E+01
 -1      2312 5.53744E+00 1.29956E+02-5.45931E+01
 -1      2313 7.99133E+00 7.51580E+01-3.16527E+01
 -1      2314 7.91619E+00 7.16031E+01-3.01662E+01
 -1      2315 8.17897E+00 8.23871E+01-3.46771E+01
 -1      2316 8.08291E+00 7.87536E+01-3.31571E+01
 -1      2317 5.08252E+00 7.69322E+01-3.23702E+01
 -1      2318 8.57982E-01 7.16556E+00-3.09659E+00
 -1      2319 9.43662E-01 8.71070E+00-3.74474E+00
 -1      2320 1.01882E+00 1.03833E+01-4.44403E+00
 -1      2321 1.09055E+00 1.21788E+01-5.19533E+00
 -1      2322 2.31450E+00 9.56327E+00-4.20039E+00
 -1      2323 5.07919E+00 2.05909E+01-8.86322E+00
 -1      2324 4.83974E+00 1.83439E+01-7.92778E+00
 -1      2325 4.59135E+00 1.62039E+01-7.03737E+00
 -1      2326 4.33319E+00 1.41767E+01-6.19442E+00
 -1      2327 2.98901E+00 1.72096E+01-7.38812E+00
 -1      2328 2.91322E+00 5.84904E+00-2.73977E+00
 -1      2329 2.60156E+00 4.57302E+00-2.21310E+00
 -1      2330 1.95595E+00 2.46287E+00-1.34342E+00
 -1      2331 2.27919E+00 3.44022E+00-1.74513E+00
 -1      2332 1.54721E+00 3.92205E+00-1.85492E+00
 -1      2333 1.73143E+00 3.89503E+01-1.64109E+01
 -1      2334 1.77540E+00 4.19225E+01-1.76573E+01
 -1      2335 1.63511E+00 3.32417E+01-1.40179E+01
 -1      2336 1.68480E+00 3.60557E+01-1.51981E+01
 -1      2337 4.06786E+00 3.75133E+01-1.58714E+01
 -1      2338 1.90981E+00 5.12306E+01-2.15593E+01
 -1      2339 1.95609E+00 5.44633E+01-2.29158E+01
 -1      2340 4.71178E+00 5.61261E+01-2.36597E+01
 -1      2341 1.98513E+00 5.77884E+01-2.43095E+01
 -1      2342 1.99905E+00 6.11477E+01-2.57182E+01
 -1      2343 1.41631E+00 2.28689E+01-9.67196E+00
 -1      2344 1.47489E+00 2.53220E+01-1.06994E+01
 -1      2345 1.53089E+00 2.78711E+01-1.17674E+01
 -1      2346 1.58410E+00 3.05124E+01-1.28746E+01
 -1      2347 3.57114E+00 2.66085E+01-1.13131E+01
 -1      2348 3.46541E-01 8.47951E-01-4.56655E-01
 -1      2349 4.39827E-01 1.54504E+00-7.47921E-01
 -1      2350 2.65051E-01 4.46228E-01-2.85664E-01
 -1      2351 7.56771E-01 7.83059E-01-5.47540E-01
 -1      2352 3.22998E-01 1.76896E-01-2.24929E-01
 -1      2353 6.41153E-02 2.24980E-01-1.23430E-01
 -1      2354 2.27021E+00 1.08647E+02-4.56440E+01
 -1      2355 2.28028E+00 1.12492E+02-4.72574E+01
 -1      2356 2.18780E+00 1.01117E+02-4.24838E+01
 -1      2357 2.25908E+00 1.04821E+02-4.40382E+01
 -1      2358 5.42021E+00 1.06736E+02-4.48579E+01
 -1      2359 8.80334E+00 1.74936E+02-7.34672E+01
 -1      2360 8.80894E+00 1.71035E+02-7.18291E+01
 -1      2361 8.81385E+00 1.67129E+02-7.01897E+01
 -1      2362 8.81747E+00 1.63220E+02-6.85490E+01
 -1      2363 5.56380E+00 1.69084E+02-7.10114E+01
 -1      2364 2.32462E+00 1.86426E+02-7.82965E+01
 -1      2365 2.37866E+00 1.90474E+02-7.99969E+01
 -1      2366 5.56686E+00 1.91141E+02-8.02754E+01
 -1      2367 2.32842E+00 1.93468E+02-8.12545E+01
 -1      2368 6.89126E-01 1.95581E+02-8.21429E+01
 -1      2369 3.87567E+00 1.96247E+02-8.24213E+01
 -1      2370 2.01587E+00 6.45684E+01-2.71525E+01
 -1      2371 2.07314E+00 6.80521E+01-2.86138E+01
 -1      2372 2.08896E+00 7.15714E+01-3.00895E+01
 -1      2373 2.11475E+00 7.51281E+01-3.15818E+01
 -1      2374 4.96932E+00 6.98139E+01-2.93892E+01
 -1      2375 2.31361E+00 1.78826E+02-7.51047E+01
 -1      2376 2.29269E+00 1.82735E+02-7.67464E+01
 -1      2377 2.31520E+00 1.71037E+02-7.18332E+01
 -1      2378 2.31290E+00 1.74938E+02-7.34718E+01
 -1      2379 5.55909E+00 1.76878E+02-7.42841E+01
 -1      2380 2.13835E+00 7.87256E+01-3.30904E+01
 -1      2381 2.15974E+00 8.23616E+01-3.46161E+01
 -1      2382 2.18076E+00 8.60317E+01-3.61554E+01
 -1      2383 2.14152E+00 8.96336E+01-3.76658E+01
 -1      2384 5.18923E+00 8.42013E+01-3.54149E+01
 -1      2385 6.68821E+00 4.19754E+01-1.77830E+01
 -1      2386 6.51652E+00 3.90061E+01-1.65434E+01
 -1      2387 7.06292E+00 4.81263E+01-2.03531E+01
 -1      2388 6.85246E+00 4.50177E+01-1.90544E+01
 -1      2389 4.28434E+00 4.34540E+01-1.83563E+01
 -1      2390 7.82160E+00 6.80853E+01-2.86949E+01
 -1      2391 7.73145E+00 6.46126E+01-2.72433E+01
 -1      2392 4.85228E+00 6.28730E+01-2.64836E+01
 -1      2393 7.62543E+00 6.11939E+01-2.58139E+01
 -1      2394 7.51554E+00 5.78354E+01-2.44104E+01
 -1      2395 6.33630E+00 3.61138E+01-1.53360E+01
 -1      2396 6.14805E+00 3.33025E+01-1.41631E+01
 -1      2397 5.95160E+00 3.05755E+01-1.30254E+01
 -1      2398 5.74611E+00 2.79376E+01-1.19255E+01
 -1      2399 3.83005E+00 3.18881E+01-1.35195E+01
 -1      2400 5.76256E-01 2.07121E-01-3.35250E-01
 -1      2401 9.72137E-01 5.42074E-01-5.33927E-01
 -1      2402 9.10726E-01 3.44406E-01-4.74704E-01
 -1      2403 7.08069E+00 1.96364E+02-8.24694E+01
 -1      2404 1.02917E+01 1.95678E+02-8.21802E+01
 -1      2405 8.72773E+00 1.93448E+02-8.12434E+01
 -1      2406 2.32134E+00 1.47559E+02-6.19754E+01
 -1      2407 2.32155E+00 1.51476E+02-6.36200E+01
 -1      2408 2.31876E+00 1.39726E+02-5.86874E+01
 -1      2409 2.32042E+00 1.43641E+02-6.03312E+01
 -1      2410 8.78850E+00 1.35818E+02-5.70553E+01
 -1      2411 8.77331E+00 1.31911E+02-5.54177E+01
 -1      2412 8.75437E+00 1.28010E+02-5.37827E+01
 -1      2413 8.73194E+00 1.24118E+02-5.21514E+01
 -1      2414 1.29302E+00 1.82665E+01-7.74384E+00
 -1      2415 1.35523E+00 2.05167E+01-8.68687E+00
 -1      2416 1.15943E+00 1.40928E+01-5.99615E+00
 -1      2417 1.22793E+00 1.61240E+01-6.84713E+00
 -1      2418 4.06585E+00 1.22646E+01-5.39911E+00
 -1      2419 3.79011E+00 1.04717E+01-4.65495E+00
 -1      2420 3.50526E+00 8.80198E+00-3.96244E+00
 -1      2421 3.21902E+00 7.26175E+00-3.32479E+00
 -1      2422 5.21897E-01 2.33975E+00-1.07932E+00
 -1      2423 6.08361E-01 3.33311E+00-1.49429E+00
 -1      2424 6.90391E-01 4.46813E+00-1.96858E+00
 -1      2425 7.78707E-01 5.74994E+00-2.50508E+00
 -1      2426 1.14351E+00 1.99078E+00-1.05429E+00
 -1      2427 1.63413E+00 1.66739E+00-1.01535E+00
 -1      2428 1.25004E+00 9.52085E-01-7.13443E-01
 -1      2429 8.55316E+00 1.04836E+02-4.40739E+01
 -1      2430 8.52641E+00 1.01030E+02-4.24807E+01
 -1      2431 5.34498E+00 9.91243E+01-4.16676E+01
 -1      2432 2.16182E+00 9.73311E+01-4.08957E+01
 -1      2433 2.14569E+00 9.33661E+01-3.92315E+01
 -1      2434 8.81981E+00 1.59308E+02-6.69071E+01
 -1      2435 8.82044E+00 1.55393E+02-6.52647E+01
 -1      2436 5.57052E+00 1.53435E+02-6.44428E+01
 -1      2437 2.28927E+00 1.16352E+02-4.88769E+01
 -1      2438 2.29674E+00 1.20225E+02-5.05027E+01
 -1      2439 5.50933E+00 1.22169E+02-5.13278E+01
 -1      2440 1.81899E+00 4.49669E+01-1.89333E+01
 -1      2441 1.84234E+00 4.80802E+01-2.02379E+01
 -1      2442 4.50941E+00 4.96507E+01-2.09493E+01
 -1      2443 7.38621E+00 5.45124E+01-2.30217E+01
 -1      2444 7.24024E+00 5.12748E+01-2.16690E+01
 -1      2445 5.53278E+00 2.53909E+01-1.08637E+01
 -1      2446 5.31034E+00 2.29407E+01-9.84316E+00
 -1      2447 3.29082E+00 2.17059E+01-9.26530E+00
 -1      2448 2.66285E+00 1.31508E+01-5.69539E+00
 -1      2449 1.94224E+00 6.47349E+00-2.91475E+00
 -1      2450 5.55617E+00 1.37771E+02-5.78709E+01
 -1      2451-3.45681E-02 9.69098E-01-4.06180E-01
 -1      2452-2.81697E-01 1.91437E+02-8.04024E+01
 -1      2453-7.47763E-05 1.76873E+02-7.42858E+01
 -1      2454-1.52233E-03 4.16471E+00-1.74869E+00
 -1      2455 1.59619E-04 2.18825E+01-9.18950E+00
 -1      2456-2.35685E-04 1.53436E+02-6.44423E+01
 -1      2457-4.54693E-05 1.37780E+02-5.78666E+01
 -1      2458-2.73511E-04 1.22189E+02-5.13189E+01
 -1      2459 1.79845E-04 1.06771E+02-4.48436E+01
 -1      2460-2.53373E-04 8.42611E+01-3.53888E+01
 -1      2461-1.12225E-06 4.35794E+01-1.83022E+01
 -1      2462-1.14652E-04 1.33566E+01-5.61007E+00
 -1      2463-1.20567E-03 6.99027E+01-2.93593E+01
 -1      2464 4.15613E-03 3.20391E+01-1.34562E+01
 -1      2465-2.33300E-03 5.62276E+01-2.36150E+01
 -1      2466 1.98858E+00 9.53992E+01-4.00681E+01
 -1      2467 2.08879E+00 1.65168E+02-6.93698E+01
 -1      2468 7.80907E-01 8.17647E+00-3.43862E+00
 -1      2469 2.80757E+00 1.95784E+02-8.22289E+01
 -1      2470 2.35094E-01 3.99665E-01-1.13903E-01
 -1      2471 7.36601E+00 1.95998E+02-8.23175E+01
 -1      2472-5.59763E-01 4.37714E-01-2.37443E-01
 -1      2473-3.59918E+00 2.67867E+01-1.12753E+01
 -1      2474 1.22349E+00 1.73854E+01-7.27347E+00
 -1      2475-5.64121E+00 1.45605E+02-6.11544E+01
 -1      2476 5.64115E+00 1.45606E+02-6.11542E+01
 -1      2477-2.26268E+00 1.14449E+02-4.80641E+01
 -1      2478-2.29141E+00 1.29970E+02-5.45845E+01
 -1      2479 2.29123E+00 1.29969E+02-5.45844E+01
 -1      2480 2.26235E+00 1.14449E+02-4.80639E+01
 -1      2481-1.22857E+00 1.73861E+01-7.27389E+00
 -1      2482 2.09875E+00 7.69958E+01-3.23274E+01
 -1      2483-4.86585E+00 6.29675E+01-2.64598E+01
 -1      2484 4.55910E+00 4.97836E+01-2.09261E+01
 -1      2485-2.09923E+00 7.69983E+01-3.23285E+01
 -1      2486-1.67741E+00 3.76405E+01-1.57884E+01
 -1      2487 3.60228E+00 2.67845E+01-1.12736E+01
 -1      2488 4.87449E+00 6.29676E+01-2.64595E+01
 -1      2489 1.66663E+00 3.76402E+01-1.57883E+01
 -1      2490-4.54365E+00 4.97832E+01-2.09261E+01
 -1      2491 5.70465E-01 4.46326E-01-2.43231E-01
 -1      2492-7.26221E+00 1.96037E+02-8.23341E+01
 -1      2493-6.03161E+00 1.69767E+02-7.13010E+01
 -1      2494-2.52760E+00 1.01048E+01-4.28081E+00
 -1      2495 4.63228E-01 2.23007E+00-8.96423E-01
 -1      2496 2.33087E+00 1.84449E+02-7.74684E+01
 -1      2497-2.33751E-01 3.67844E-01-9.53629E-02
 -1      2498-6.08728E+00 1.60474E+02-6.73983E+01
 -1      2499-2.05477E+00 6.45291E+00-2.75099E+00
 -1      2500-3.18967E+00 1.96213E+02-8.24093E+01
 -1      2501-5.70302E+00 9.09967E+01-3.82273E+01
 -1      2502-5.84100E+00 9.98676E+01-4.19498E+01
 -1      2503-5.08149E-01 2.35366E+00-9.43766E-01
 -1      2504-6.08462E+00 1.84090E+02-7.73169E+01
 -1      2505 4.61156E+00 1.84094E+02-7.73175E+01
 -1      2506 2.60179E+00 1.00873E+02-4.23573E+01
 -1      2507 2.54808E+00 8.99699E+01-3.77761E+01
 -1      2508 2.70774E+00 1.70840E+02-7.17527E+01
 -1      2509-2.70779E+00 1.70840E+02-7.17530E+01
 -1      2510-2.71092E+00 1.59491E+02-6.69856E+01
 -1      2511 2.71094E+00 1.59490E+02-6.69853E+01
 -1      2512 1.15965E+00 1.05223E+01-4.37474E+00
 -1      2513 8.92084E-01 6.05690E+00-2.49554E+00
 -1      2514-2.18449E+00 4.82833E+01-2.02546E+01
 -1      2515 6.55373E+00 1.12607E+02-4.73004E+01
 -1      2516-2.73275E+00 1.47482E+02-6.19408E+01
 -1      2517 2.73269E+00 1.47482E+02-6.19406E+01
 -1      2518 6.65659E+00 1.31842E+02-5.53755E+01
 -1      2519-6.65666E+00 1.31842E+02-5.53758E+01
 -1      2520-6.58027E+00 1.16304E+02-4.88526E+01
 -1      2521 3.65733E+00 1.84562E+01-7.79087E+00
 -1      2522-6.12718E+00 7.87362E+01-3.30833E+01
 -1      2523-1.71215E+00 2.55484E+01-1.06957E+01
 -1      2524 4.93355E+00 3.90585E+01-1.64327E+01
 -1      2525-3.65935E+00 1.84573E+01-7.79152E+00
 -1      2526 6.12735E+00 7.87366E+01-3.30830E+01
 -1      2527 2.18028E+00 4.82795E+01-2.02529E+01
 -1      2528 1.71197E+00 2.55282E+01-1.06870E+01
 -1      2529-4.93623E+00 3.90622E+01-1.64344E+01
 -1      2530 2.38964E+00 6.46160E+01-2.71194E+01
 -1      2531-2.38724E+00 6.45960E+01-2.71110E+01
 -1      2532-2.62052E+00 8.99809E+01-3.77808E+01
 -1      2533-1.15380E+00 1.05232E+01-4.37490E+00
 -1      2534-8.86909E-01 6.05133E+00-2.49310E+00
 -1      2535 1.41351E+00 2.61648E+00-1.15229E+00
 -1      2536-1.42496E+00 2.62135E+00-1.15161E+00
 -1      2537 7.10847E+00 1.02155E+02-4.29143E+01
 -1      2538 7.91648E+00 8.93017E+01-3.75228E+01
 -1      2539 7.35820E+00 1.72147E+02-7.22998E+01
 -1      2540 7.36938E+00 1.58179E+02-6.64340E+01
 -1      2541-2.72526E+00 1.01286E+02-4.25305E+01
 -1      2542 2.32682E+00 5.67266E+00-2.44336E+00
 -1      2543 3.20171E+00 1.11451E+01-4.73485E+00
 -1      2544-3.18991E+00 1.80671E+02-7.58825E+01
 -1      2545-5.43617E+00 3.32895E+01-1.40240E+01
 -1      2546-3.19099E+00 1.39536E+02-5.86021E+01
 -1      2547 7.72758E+00 1.20450E+02-5.05946E+01
 -1      2548 3.19092E+00 1.39535E+02-5.86019E+01
 -1      2549-7.62850E+00 1.08495E+02-4.55766E+01
 -1      2550-3.82298E+00 1.42512E+01-6.04307E+00
 -1      2551 2.15919E+00 3.07857E+01-1.28857E+01
 -1      2552-2.15762E+00 3.08022E+01-1.28928E+01
 -1      2553 5.44209E+00 3.32943E+01-1.40255E+01
 -1      2554-2.70034E+00 5.77225E+01-2.42147E+01
 -1      2555 2.69863E+00 5.77430E+01-2.42231E+01
 -1      2556 6.99964E+00 7.14911E+01-3.00479E+01
 -1      2557-6.99619E+00 7.14934E+01-3.00491E+01
 -1      2558-1.86231E+00 1.88459E+02-7.91527E+01
 -1      2559-7.90484E+00 1.24054E+02-5.21078E+01
 -1      2560 3.16159E+00 1.22485E+02-5.14370E+01
 -1      2561-3.16009E+00 1.21889E+02-5.11868E+01
 -1      2562 6.53142E+00 5.60284E+01-2.35610E+01
 -1      2563-5.09176E+00 5.62524E+01-2.36632E+01
 -1      2564-6.66892E+00 5.62658E+01-2.36358E+01
 -1      2565-1.17775E+01 5.63178E+01-2.37472E+01
 -1      2566-7.31995E+00 5.29984E+01-2.23296E+01
 -1      2567-8.87134E+00 5.30304E+01-2.22948E+01
 -1      2568-2.31832E+00 5.29728E+01-2.22524E+01
 -1      2569-9.18835E+00 5.96213E+01-2.50602E+01
 -1      2570-7.57958E+00 5.95954E+01-2.50930E+01
 -1      2571-2.39397E+00 5.95681E+01-2.50219E+01
 -1      2572 7.99321E+00 1.94957E+02-8.18822E+01
 -1      2573 8.01661E+00 1.91964E+02-8.06254E+01
 -1      2574 1.02726E+01 1.95064E+02-8.19257E+01
 -1      2575 1.02967E+01 1.92071E+02-8.06685E+01
 -1      2576 5.08658E+00 1.95891E+02-8.22733E+01
 -1      2577-1.32887E+00 1.91966E+02-8.06246E+01
 -1      2578-1.37649E+00 1.94959E+02-8.18816E+01
 -1      2579-6.41242E+00 1.95085E+02-8.19335E+01
 -1      2580-2.22725E+00 1.95911E+02-8.22813E+01
 -1      2581-6.36604E+00 1.92092E+02-8.06761E+01
 -1      2582-1.20818E-01 4.01920E-01-2.04119E-01
 -1      2583 1.36872E-01 6.59279E-01-2.64473E-01
 -1      2584-3.30799E-01 7.35845E-01-3.59278E-01
 -1      2585-5.77051E-01 4.43581E-01-3.29403E-01
 -1      2586-3.80149E-01 6.66126E-01-2.91713E-01
 -1      2587-1.66704E-01 3.79516E-01-1.84564E-01
 -1      2588 7.33021E-01 8.48159E-01-3.13243E-01
 -1      2589 7.39615E-01 6.16506E-01-1.19863E-01
 -1      2590 9.31113E-01 6.66569E-01-2.39197E-01
 -1      2591 3.99933E-01 4.42226E-01-1.62102E-01
 -1      2592 3.55768E-01 6.65096E-01-2.97306E-01
 -1      2593-1.40296E+01 1.53436E+02-6.44437E+01
 -1      2594-1.08144E+01 1.49522E+02-6.27992E+01
 -1      2595-8.85513E+00 1.49520E+02-6.27998E+01
 -1      2596-9.07897E+00 1.56955E+02-6.59207E+01
 -1      2597-5.86716E+00 1.53041E+02-6.42768E+01
 -1      2598-1.10387E+01 1.56956E+02-6.59206E+01
 -1      2599-2.82222E+00 1.49521E+02-6.27979E+01
 -1      2600-7.99192E+00 1.53436E+02-6.44425E+01
 -1      2601-3.04377E+00 1.56956E+02-6.59207E+01
 -1      2602-6.03353E+00 1.53435E+02-6.44427E+01
 -1      2603 9.37708E-01 1.29683E+00-4.99320E-01
 -1      2604 1.26062E+00 1.04235E+00-3.97777E-01
 -1      2605-4.16222E-01 1.17534E+00-5.45120E-01
 -1      2606-7.75807E-01 8.05191E-01-4.88416E-01
 -1      2607-1.09959E+01 1.73325E+02-7.27947E+01
 -1      2608-9.04017E+00 1.73327E+02-7.27938E+01
 -1      2609-1.39992E+01 1.76880E+02-7.42848E+01
 -1      2610-1.10158E+01 1.80486E+02-7.58029E+01
 -1      2611-9.06278E+00 1.80488E+02-7.58017E+01
 -1      2612-6.05856E+00 1.76936E+02-7.43119E+01
 -1      2613-3.01423E+00 1.73322E+02-7.27943E+01
 -1      2614-6.02229E+00 1.76878E+02-7.42864E+01
 -1      2615-3.04419E+00 1.80484E+02-7.58023E+01
 -1      2616 5.25752E+00 1.69506E+01-7.08794E+00
 -1      2617 1.71027E+00 1.58142E+01-6.65223E+00
 -1      2618 3.24725E+00 1.43744E+01-5.99457E+00
 -1      2619 4.86475E+00 1.32617E+01-5.53905E+00
 -1      2620 1.66928E+00 1.22217E+01-5.14619E+00
 -1      2621 3.46036E+00 1.46033E+01-6.17899E+00
 -1      2622 3.22691E+00 1.67856E+01-7.15752E+00
 -1      2623 1.36366E+00 1.42737E+01-6.03709E+00
 -1      2624 3.04294E+00 1.30787E+01-5.61564E+00
 -1      2625 5.81082E+00 1.59116E+01-6.72894E+00
 -1      2626 5.32891E+00 1.23287E+01-5.23256E+00
 -1      2627 4.80165E+00 1.58014E+01-6.77524E+00
 -1      2628 4.42701E+00 1.22075E+01-5.28345E+00
 -1      2629 9.99253E-01 9.89519E-01-2.67448E-01
 -1      2630-1.56220E-01 7.62893E-01-3.55011E-01
 -1      2631-6.62732E+00 1.55393E+02-6.52643E+01
 -1      2632-6.62626E+00 1.51479E+02-6.36199E+01
 -1      2633-2.78350E+00 1.55393E+02-6.52645E+01
 -1      2634-2.78311E+00 1.51477E+02-6.36204E+01
 -1      2635-2.77385E+00 1.78817E+02-7.51017E+01
 -1      2636-5.81529E+00 1.82426E+02-7.66163E+01
 -1      2637-2.77875E+00 1.74929E+02-7.34688E+01
 -1      2638-3.58128E+00 2.18684E+01-9.24919E+00
 -1      2639-1.67623E+00 2.30237E+01-9.70634E+00
 -1      2640-5.47259E+00 2.42712E+01-1.03054E+01
 -1      2641-3.51409E+00 2.54597E+01-1.07766E+01
 -1      2642-1.72933E+00 2.42821E+01-1.02049E+01
 -1      2643-3.56739E+00 2.12176E+01-9.01154E+00
 -1      2644-5.36271E+00 2.01246E+01-8.58157E+00
 -1      2645-1.89682E+00 2.01356E+01-8.46596E+00
 -1      2646-1.36954E+00 1.42735E+01-6.03709E+00
 -1      2647 2.30341E-01 1.32958E+01-5.57529E+00
 -1      2648-8.62220E-01 1.62528E+01-6.86054E+00
 -1      2649 8.21142E-01 1.52248E+01-6.35418E+00
 -1      2650 5.78516E-01 1.53167E+01-6.42549E+00
 -1      2651 2.86458E-01 2.18308E+01-9.16063E+00
 -1      2652-1.60566E+00 2.06763E+01-8.72233E+00
 -1      2653 9.14009E-01 1.95002E+01-8.15275E+00
 -1      2654-9.07972E-01 1.83888E+01-7.75655E+00
 -1      2655 6.43596E-01 1.95860E+01-8.21925E+00
 -1      2656-2.37409E+00 5.79154E+01-2.43454E+01
 -1      2657-2.32451E+00 5.45948E+01-2.29521E+01
 -1      2658-3.66340E+00 2.24657E+01-9.46678E+00
 -1      2659-2.22276E+00 4.66447E+01-1.95952E+01
 -1      2660-7.00716E+00 4.66372E+01-1.96658E+01
 -1      2661-4.66947E+00 4.35694E+01-1.83448E+01
 -1      2662-2.51608E+00 4.12965E+01-1.73507E+01
 -1      2663-7.10445E+00 4.12885E+01-1.74336E+01
 -1      2664-4.76606E+00 4.43131E+01-1.86334E+01
 -1      2665-8.56556E-01 2.23926E+01-9.43332E+00
 -1      2666 1.12177E+00 2.35954E+01-9.86821E+00
 -1      2667 8.29246E-01 2.36802E+01-9.93606E+00
 -1      2668-2.17400E+00 4.50836E+01-1.89607E+01
 -1      2669-4.68695E+00 4.27583E+01-1.80298E+01
 -1      2670 4.43612E-01 8.42436E+01-3.53791E+01
 -1      2671-2.57537E+00 8.24172E+01-3.46284E+01
 -1      2672 1.49814E+00 8.05817E+01-3.38308E+01
 -1      2673-1.49737E+00 7.87695E+01-3.30950E+01
 -1      2674 1.06079E+00 8.06123E+01-3.38544E+01
 -1      2675 2.49890E+00 1.33738E+01-5.54264E+00
 -1      2676 3.24283E+00 1.53301E+01-6.31030E+00
 -1      2677 4.04784E+00 1.64085E+01-6.79459E+00
 -1      2678-4.47394E+00 4.81751E+01-2.02919E+01
 -1      2679 1.46195E+00 2.12975E+01-8.91288E+00
 -1      2680-3.80818E+00 2.07688E+01-8.68476E+00
 -1      2681-3.09500E+00 2.18981E+01-9.13306E+00
 -1      2682-4.26990E+00 1.85410E+01-7.69379E+00
 -1      2683-3.60958E+00 1.95989E+01-8.11244E+00
 -1      2684-6.46107E-01 1.95864E+01-8.21945E+00
 -1      2685-2.71742E-01 2.18310E+01-9.16115E+00
 -1      2686 1.59909E+00 2.06779E+01-8.72276E+00
 -1      2687-9.02811E-01 1.95007E+01-8.15354E+00
 -1      2688 8.98872E-01 1.83907E+01-7.75696E+00
 -1      2689-3.98224E+00 2.31117E+01-9.67057E+00
 -1      2690-4.69798E+00 2.19354E+01-9.22021E+00
 -1      2691-6.64224E+00 2.43615E+01-1.02662E+01
 -1      2692-5.92368E+00 2.55955E+01-1.07209E+01
 -1      2693-6.01508E+00 1.37779E+02-5.78700E+01
 -1      2694-2.77705E+00 1.39733E+02-5.86890E+01
 -1      2695-5.60020E+00 1.43646E+02-6.03337E+01
 -1      2696-2.81795E+00 1.41691E+02-5.95099E+01
 -1      2697-8.84218E+00 1.41690E+02-5.95141E+01
 -1      2698 6.01500E+00 1.37779E+02-5.78698E+01
 -1      2699 2.77698E+00 1.39733E+02-5.86890E+01
 -1      2700 8.84203E+00 1.41691E+02-5.95138E+01
 -1      2701 5.60012E+00 1.43646E+02-6.03336E+01
 -1      2702 2.81788E+00 1.41691E+02-5.95098E+01
 -1      2703-9.44750E+00 1.47565E+02-6.19758E+01
 -1      2704-6.61148E+00 1.39737E+02-5.86873E+01
 -1      2705-7.96797E+00 1.37783E+02-5.78685E+01
 -1      2706-9.44090E+00 1.43651E+02-6.03317E+01
 -1      2707-1.07988E+01 1.41695E+02-5.95125E+01
 -1      2708-5.60421E+00 1.47561E+02-6.19771E+01
 -1      2709 6.61142E+00 1.39737E+02-5.86870E+01
 -1      2710 7.96792E+00 1.37783E+02-5.78682E+01
 -1      2711 1.07988E+01 1.41695E+02-5.95121E+01
 -1      2712 9.44084E+00 1.43651E+02-6.03313E+01
 -1      2713 5.11480E+00 1.06774E+02-4.48319E+01
 -1      2714 6.45722E+00 1.08693E+02-4.56432E+01
 -1      2715 7.62236E+00 1.12535E+02-4.72491E+01
 -1      2716 1.12606E+00 1.10602E+02-4.64509E+01
 -1      2717 6.27112E+00 1.10604E+02-4.64329E+01
 -1      2718-2.71174E+00 1.08676E+02-4.56504E+01
 -1      2719 4.52721E-01 1.06761E+02-4.48377E+01
 -1      2720-1.59904E+00 1.12511E+02-4.72593E+01
 -1      2721 1.57977E+00 1.10587E+02-4.64400E+01
 -1      2722-2.18773E-01 1.32960E+01-5.57580E+00
 -1      2723-8.11260E-01 1.52253E+01-6.35490E+00
 -1      2724-5.81018E-01 1.53172E+01-6.42557E+00
 -1      2725 8.53058E-01 1.62534E+01-6.86025E+00
 -1      2726-2.50132E+00 1.33742E+01-5.54296E+00
 -1      2727-3.24754E+00 1.43741E+01-5.99474E+00
 -1      2728-3.24781E+00 1.53310E+01-6.31089E+00
 -1      2729-4.05063E+00 1.64090E+01-6.79509E+00
 -1      2730 3.80831E+00 2.07689E+01-8.68451E+00
 -1      2731 3.09515E+00 2.18980E+01-9.13283E+00
 -1      2732 4.26722E+00 1.85407E+01-7.69338E+00
 -1      2733 3.60683E+00 1.95984E+01-8.11204E+00
 -1      2734-4.83028E+00 6.12780E+01-2.57837E+01
 -1      2735 6.13224E+00 8.24493E+01-3.46148E+01
 -1      2736 4.89412E+00 8.42666E+01-3.53694E+01
 -1      2737 7.13170E+00 7.88244E+01-3.30717E+01
 -1      2738 5.91232E+00 8.06168E+01-3.38162E+01
 -1      2739-6.13248E+00 8.24495E+01-3.46151E+01
 -1      2740-4.89419E+00 8.42668E+01-3.53697E+01
 -1      2741-7.13203E+00 7.88257E+01-3.30725E+01
 -1      2742-5.91269E+00 8.06182E+01-3.38170E+01
 -1      2743-1.06120E+00 8.06136E+01-3.38550E+01
 -1      2744-4.32809E-01 8.42438E+01-3.53793E+01
 -1      2745 2.57519E+00 8.24174E+01-3.46282E+01
 -1      2746 1.49706E+00 7.87709E+01-3.30955E+01
 -1      2747-1.48772E+00 8.05832E+01-3.38315E+01
 -1      2748 3.54491E+00 2.18679E+01-9.24845E+00
 -1      2749 1.67303E+00 2.30251E+01-9.70677E+00
 -1      2750 5.43570E+00 2.42695E+01-1.03035E+01
 -1      2751 3.51210E+00 2.54602E+01-1.07763E+01
 -1      2752 1.73104E+00 2.42809E+01-1.02042E+01
 -1      2753-5.01858E+00 4.21024E+01-1.76556E+01
 -1      2754-4.03576E+00 4.35905E+01-1.82623E+01
 -1      2755-5.74943E+00 3.91479E+01-1.63746E+01
 -1      2756-4.80472E+00 4.05849E+01-1.69600E+01
 -1      2757-8.61599E-01 4.05760E+01-1.70369E+01
 -1      2758-3.55788E-01 4.35429E+01-1.82823E+01
 -1      2759 2.10739E+00 4.20375E+01-1.76828E+01
 -1      2760-1.20603E+00 4.05147E+01-1.69899E+01
 -1      2761 1.20832E+00 3.90396E+01-1.64203E+01
 -1      2762 3.98241E+00 2.31117E+01-9.67035E+00
 -1      2763 4.69811E+00 2.19356E+01-9.21998E+00
 -1      2764 5.92522E+00 2.55942E+01-1.07197E+01
 -1      2765 6.64382E+00 2.43606E+01-1.02651E+01
 -1      2766 5.01854E+00 4.21025E+01-1.76555E+01
 -1      2767 4.03572E+00 4.35904E+01-1.82621E+01
 -1      2768 5.74405E+00 3.91478E+01-1.63743E+01
 -1      2769 4.79924E+00 4.05848E+01-1.69599E+01
 -1      2770 8.56095E-01 4.05759E+01-1.70368E+01
 -1      2771-2.48880E+00 7.16411E+01-3.01053E+01
 -1      2772 4.12276E-01 6.98783E+01-2.93453E+01
 -1      2773 1.45340E+00 7.33933E+01-3.08097E+01
 -1      2774 1.03617E+00 7.34286E+01-3.08368E+01
 -1      2775-1.48054E+00 7.51756E+01-3.15863E+01
 -1      2776-4.57772E+00 5.13580E+01-2.16258E+01
 -1      2777 5.14226E+00 4.51385E+01-1.89322E+01
 -1      2778 6.12734E+00 4.36173E+01-1.83241E+01
 -1      2779 8.51073E+00 4.67012E+01-1.96381E+01
 -1      2780 2.23023E+00 4.66448E+01-1.95951E+01
 -1      2781 7.52314E+00 4.82629E+01-2.02493E+01
 -1      2782 4.62421E+00 4.35692E+01-1.83443E+01
 -1      2783 2.16008E+00 4.50774E+01-1.89579E+01
 -1      2784 4.46687E+00 4.81689E+01-2.02891E+01
 -1      2785 6.96801E+00 4.66370E+01-1.96652E+01
 -1      2786 8.27360E-01 1.18063E+01-4.90881E+00
 -1      2787-6.78187E-01 1.27287E+01-5.37955E+00
 -1      2788 6.12108E-01 1.19099E+01-4.99167E+00
 -1      2789-5.14233E+00 4.51385E+01-1.89324E+01
 -1      2790-6.12742E+00 4.36171E+01-1.83243E+01
 -1      2791-7.51607E+00 4.82626E+01-2.02496E+01
 -1      2792-8.50369E+00 4.67008E+01-1.96384E+01
 -1      2793-4.66627E+00 6.99084E+01-2.93319E+01
 -1      2794-5.92615E+00 7.16803E+01-3.00889E+01
 -1      2795-5.76984E+00 7.34338E+01-3.07929E+01
 -1      2796-7.05141E+00 7.52356E+01-3.15623E+01
 -1      2797-1.03765E+00 7.34298E+01-3.08373E+01
 -1      2798-5.46394E+00 5.46024E+01-2.29105E+01
 -1      2799-5.56770E+00 5.79197E+01-2.43047E+01
 -1      2800 1.44046E+00 4.18690E+00-1.66863E+00
 -1      2801 1.69143E+00 3.68830E+00-1.49668E+00
 -1      2802 2.28069E+00 4.56681E+00-1.78176E+00
 -1      2803 4.07033E-01 5.07446E+00-2.11833E+00
 -1      2804 2.01031E+00 5.09063E+00-1.96649E+00
 -1      2805 4.03860E+00 2.36919E+01-9.82804E+00
 -1      2806 4.76540E+00 2.25444E+01-9.37045E+00
 -1      2807 5.32639E+00 2.01228E+01-8.58032E+00
 -1      2808 1.89612E+00 2.01349E+01-8.46557E+00
 -1      2809 3.56346E+00 2.12180E+01-9.01149E+00
 -1      2810 4.66610E-01 1.76879E+02-7.42885E+01
 -1      2811 1.81986E+00 1.73864E+02-7.30233E+01
 -1      2812-1.42265E+00 1.75805E+02-7.38367E+01
 -1      2813 1.35318E+00 1.73858E+02-7.30196E+01
 -1      2814-4.76607E+00 2.25540E+01-9.37493E+00
 -1      2815-8.29030E-01 2.36900E+01-9.94024E+00
 -1      2816-4.03913E+00 2.37018E+01-9.83262E+00
 -1      2817-1.10675E+00 2.36054E+01-9.87315E+00
 -1      2818 8.49804E-01 2.24039E+01-9.43779E+00
 -1      2819-5.80569E+00 2.13724E+01-8.94770E+00
 -1      2820-6.44726E+00 2.02258E+01-8.53793E+00
 -1      2821-6.11051E+00 1.36759E+02-5.74439E+01
 -1      2822-9.34276E+00 1.34808E+02-5.66268E+01
 -1      2823-3.33208E+00 1.34809E+02-5.66197E+01
 -1      2824 6.11044E+00 1.36759E+02-5.74438E+01
 -1      2825 9.34268E+00 1.34809E+02-5.66266E+01
 -1      2826 3.33200E+00 1.34809E+02-5.66196E+01
 -1      2827-1.12957E+01 1.34815E+02-5.66242E+01
 -1      2828-9.94398E+00 1.36768E+02-5.74403E+01
 -1      2829 9.94392E+00 1.36768E+02-5.74399E+01
 -1      2830 1.12956E+01 1.34815E+02-5.66238E+01
 -1      2831 6.44624E+00 2.02253E+01-8.53725E+00
 -1      2832 5.80489E+00 2.13715E+01-8.94699E+00
 -1      2833 7.60733E+00 4.28596E+01-1.79802E+01
 -1      2834 2.51475E+00 4.12946E+01-1.73499E+01
 -1      2835 8.53903E+00 4.13593E+01-1.74012E+01
 -1      2836 4.67178E+00 4.27502E+01-1.80261E+01
 -1      2837 7.05854E+00 4.12860E+01-1.74320E+01
 -1      2838-8.54051E+00 4.13611E+01-1.74023E+01
 -1      2839-7.60884E+00 4.28614E+01-1.79813E+01
 -1      2840-1.34026E+00 8.52356E+01-3.58082E+01
 -1      2841 1.70941E+00 8.70786E+01-3.65589E+01
 -1      2842 1.26486E+00 8.71066E+01-3.65810E+01
 -1      2843-6.18593E+00 4.44201E+01-1.85871E+01
 -1      2844-1.07289E+00 4.59130E+01-1.92765E+01
 -1      2845-5.19271E+00 4.59218E+01-1.92009E+01
 -1      2846 5.19041E+00 4.59196E+01-1.91998E+01
 -1      2847 6.18374E+00 4.44182E+01-1.85861E+01
 -1      2848 1.07090E+00 4.59112E+01-1.92757E+01
 -1      2849 1.09259E+00 4.43137E+01-1.86314E+01
 -1      2850-1.43236E+00 4.58535E+01-1.92291E+01
 -1      2851-9.67290E+00 1.58912E+02-6.67426E+01
 -1      2852-5.82778E+00 1.58912E+02-6.67423E+01
 -1      2853 3.74002E+00 1.29053E+01-5.30500E+00
 -1      2854 2.99846E+00 1.19236E+01-4.85954E+00
 -1      2855 1.61352E+00 6.72066E+01-2.82066E+01
 -1      2856-1.25240E+00 6.89484E+01-2.89711E+01
 -1      2857 1.20682E+00 6.72485E+01-2.82398E+01
 -1      2858 1.75517E+00 1.03799E+02-4.35863E+01
 -1      2859-1.39449E+00 1.05705E+02-4.44016E+01
 -1      2860 1.30663E+00 1.03817E+02-4.36009E+01
 -1      2861 7.44729E+00 8.52865E+01-3.57868E+01
 -1      2862 6.20241E+00 8.71106E+01-3.65455E+01
 -1      2863 7.74925E+00 1.05736E+02-4.43884E+01
 -1      2864 6.40613E+00 1.03820E+02-4.35773E+01
 -1      2865 6.61281E+00 1.78816E+02-7.51022E+01
 -1      2866 5.25120E+00 1.76877E+02-7.42890E+01
 -1      2867 7.96959E+00 1.75802E+02-7.38379E+01
 -1      2868 6.60758E+00 1.73862E+02-7.30241E+01
 -1      2869 4.67451E+00 6.99093E+01-2.93322E+01
 -1      2870 5.92480E+00 7.16803E+01-3.00887E+01
 -1      2871 5.77918E+00 7.34338E+01-3.07928E+01
 -1      2872 7.05098E+00 7.52344E+01-3.15616E+01
 -1      2873 3.55765E-01 4.35426E+01-1.82822E+01
 -1      2874-2.12308E+00 4.20325E+01-1.76810E+01
 -1      2875 1.20046E+00 4.05141E+01-1.69896E+01
 -1      2876-1.22900E+00 3.90345E+01-1.64186E+01
 -1      2877-7.07800E-01 3.55761E+00-1.54649E+00
 -1      2878 1.35089E-01 4.09476E+00-1.70731E+00
 -1      2879-4.09964E-01 4.35110E+00-1.86613E+00
 -1      2880 5.54398E-01 4.95626E+00-2.02237E+00
 -1      2881-1.46485E+00 2.13073E+01-8.91710E+00
 -1      2882-6.15385E+00 1.38718E+02-5.82624E+01
 -1      2883 6.15380E+00 1.38718E+02-5.82622E+01
 -1      2884-7.66193E+00 5.14029E+01-2.15690E+01
 -1      2885-7.09106E+00 6.90087E+01-2.89375E+01
 -1      2886-5.83208E+00 6.72431E+01-2.81820E+01
 -1      2887-1.20688E+00 6.72384E+01-2.82355E+01
 -1      2888-8.08328E+00 6.13069E+01-2.57320E+01
 -1      2889 3.66410E+00 2.24638E+01-9.46550E+00
 -1      2890 2.48749E+00 7.16414E+01-3.01053E+01
 -1      2891-4.13610E-01 6.98785E+01-2.93454E+01
 -1      2892 1.48019E+00 7.51770E+01-3.15869E+01
 -1      2893-1.45364E+00 7.33948E+01-3.08105E+01
 -1      2894 4.77177E+00 4.43113E+01-1.86325E+01
 -1      2895-5.79556E+00 1.71377E+02-7.19757E+01
 -1      2896 1.26329E+00 1.93611E+02-8.13157E+01
 -1      2897 6.47474E+00 1.89789E+02-7.97106E+01
 -1      2898 3.54314E+00 1.93718E+02-8.13603E+01
 -1      2899-1.92716E+00 4.28482E+01-1.79733E+01
 -1      2900-2.87569E+00 1.89790E+02-7.97102E+01
 -1      2901-3.77288E+00 1.93737E+02-8.13686E+01
 -1      2902 1.20744E+00 1.37715E+01-5.74847E+00
 -1      2903 1.91976E+00 4.28462E+01-1.79724E+01
 -1      2904-2.25124E+00 7.07282E+01-2.96916E+01
 -1      2905 2.25211E+00 7.07373E+01-2.96953E+01
 -1      2906-1.11061E+00 4.43068E+01-1.86289E+01
 -1      2907 1.43015E+00 4.58516E+01-1.92284E+01
 -1      2908 7.09246E+00 6.90188E+01-2.89415E+01
 -1      2909 5.84303E+00 6.72542E+01-2.81864E+01
 -1      2910 2.32341E+00 8.34278E+01-3.50282E+01
 -1      2911-6.23863E+00 8.71165E+01-3.65482E+01
 -1      2912-7.48330E+00 8.52922E+01-3.57896E+01
 -1      2913-1.30105E+00 8.71119E+01-3.65834E+01
 -1      2914 2.43631E+00 1.07632E+02-4.51992E+01
 -1      2915 1.30422E+00 8.52415E+01-3.58103E+01
 -1      2916-1.73465E+00 8.70845E+01-3.65614E+01
 -1      2917-8.13387E-01 1.18067E+01-4.90979E+00
 -1      2918 6.75222E-01 1.27289E+01-5.37962E+00
 -1      2919-6.08985E-01 1.19103E+01-4.99165E+00
 -1      2920-1.61228E+00 6.71966E+01-2.82024E+01
 -1      2921 1.25349E+00 6.89384E+01-2.89669E+01
 -1      2922-3.73695E+00 1.29053E+01-5.30557E+00
 -1      2923-2.99770E+00 1.19243E+01-4.86018E+00
 -1      2924 1.53590E+00 3.15307E+00-1.15766E+00
 -1      2925 2.73967E-01 3.13454E+00-1.30682E+00
 -1      2926 1.71337E+00 2.75129E+00-1.02643E+00
 -1      2927-2.10163E-02 2.34037E-01-9.72412E-02
 -1      2928-1.14252E-01 2.38968E-01-1.00939E-01
 -1      2929-1.14350E-01 9.85599E-02-2.41436E-02
 -1      2930-1.68969E-01 6.37082E-01-2.47665E-01
 -1      2931-6.20453E-02 8.02637E-02-1.85990E-02
 -1      2932 6.67757E+00 1.34514E+01-5.83631E+00
 -1      2933-1.60616E+00 1.82606E+02-7.66933E+01
 -1      2934 1.63262E+00 1.80670E+02-7.58815E+01
 -1      2935 1.16615E+00 1.80663E+02-7.58778E+01
 -1      2936 6.21470E-02 2.36904E-01-1.00240E-01
 -1      2937 3.90771E-01 3.01927E+00-1.21403E+00
 -1      2938-3.57379E-01 2.54081E+00-1.11059E+00
 -1      2939-2.35944E+00 8.34346E+01-3.50311E+01
 -1      2940 6.41394E+00 1.80668E+02-7.58823E+01
 -1      2941 7.77424E+00 1.82603E+02-7.66943E+01
 -1      2942-1.38155E+00 1.97751E+02-8.30545E+01
 -1      2943 1.64890E+00 1.97751E+02-8.30543E+01
 -1      2944-6.28092E-01 1.97751E+02-8.30544E+01
 -1      2945-1.20654E+00 1.37721E+01-5.74868E+00
 -1      2946 1.94732E-01 2.00137E+02-8.40564E+01
 -1      2947-1.73620E+00 1.93825E+02-8.14060E+01
 -1      2948-2.83498E+00 2.00137E+02-8.40567E+01
 -1      2949 6.70104E-01 3.92516E+00-1.60339E+00
 -1      2950 2.51921E+00 1.77651E+02-7.46135E+01
 -1      2951 1.40279E+01 1.61263E+02-6.77274E+01
 -1      2952 9.71300E+00 1.66709E+02-7.00144E+01
 -1      2953 1.16710E+01 1.66707E+02-7.00149E+01
 -1      2954 1.16789E+01 1.59721E+02-6.70811E+01
 -1      2955 7.36565E+00 1.65168E+02-6.93689E+01
 -1      2956 9.71924E+00 1.59721E+02-6.70811E+01
 -1      2957 1.33052E+01 9.16815E+01-3.85522E+01
 -1      2958 1.34105E+01 9.54212E+01-4.01189E+01
 -1      2959 1.15220E+01 9.05050E+01-3.80265E+01
 -1      2960 9.76746E+00 9.42062E+01-3.96047E+01
 -1      2961 9.68721E+00 9.04728E+01-3.80403E+01
 -1      2962 1.40231E+01 1.65172E+02-6.93686E+01
 -1      2963 9.70819E+00 1.70614E+02-7.16541E+01
 -1      2964 1.40165E+01 1.69079E+02-7.10085E+01
 -1      2965 1.16650E+01 1.70612E+02-7.16548E+01
 -1      2966-3.18156E+00 1.87765E+02-7.88606E+01
 -1      2967-5.77758E+00 1.86117E+02-7.81667E+01
 -1      2968-6.67288E+00 1.90068E+02-7.98274E+01
 -1      2969-1.14762E+00 1.93637E+00-9.55456E-01
 -1      2970-5.91306E-01 1.70453E+00-7.25859E-01
 -1      2971-1.02984E+00 1.31503E+00-6.09828E-01
 -1      2972 1.20134E-01 8.95749E-02-5.99134E-02
 -1      2973 1.71897E-01 1.12227E-01-5.36817E-02
 -1      2974-4.87099E+00 2.00049E+02-8.40197E+01
 -1      2975-4.11784E+00 2.00049E+02-8.40195E+01
 -1      2976 5.39350E-01 1.69622E+00-7.28792E-01
 -1      2977 1.88512E+00 2.16013E+00-8.66736E-01
 -1      2978 1.03199E+00 1.31985E+00-6.14992E-01
 -1      2979-9.30974E-01 5.24722E+00-2.21440E+00
 -1      2980-1.89073E+00 5.81243E+00-2.56547E+00
 -1      2981-8.14364E-01 4.68887E+00-2.02020E+00
 -1      2982-8.09096E-01 3.34196E+00-1.41588E+00
 -1      2983-1.61044E+00 3.78532E+00-1.72681E+00
 -1      2984-1.76832E+00 4.33691E+00-1.86676E+00
 -1      2985 1.59896E+00 1.12511E+02-4.72592E+01
 -1      2986-1.12633E+00 1.10602E+02-4.64512E+01
 -1      2987 2.71206E+00 1.08677E+02-4.56506E+01
 -1      2988 1.33343E+00 1.05913E+02-4.44887E+01
 -1      2989-1.36814E+00 1.04025E+02-4.36877E+01
 -1      2990-2.49864E+00 1.07841E+02-4.52866E+01
 -1      2991 8.92401E+00 1.86117E+02-7.81679E+01
 -1      2992 2.16353E+00 1.87767E+02-7.88610E+01
 -1      2993 5.98906E+00 1.90051E+02-7.98194E+01
 -1      2994-6.45801E+00 1.08693E+02-4.56436E+01
 -1      2995-7.62240E+00 1.12535E+02-4.72495E+01
 -1      2996-7.81285E+00 1.05944E+02-4.44758E+01
 -1      2997 1.59317E-01 3.65529E-01-1.77468E-01
 -1      2998-9.09028E+00 8.94926E+01-3.75772E+01
 -1      2999-2.82934E+00 8.76147E+01-3.68002E+01
 -1      3000-6.19242E+00 8.61130E+01-3.61550E+01
 -1      3001-9.25842E+00 8.33420E+01-3.49935E+01
 -1      3002-3.08742E+00 8.14869E+01-3.42274E+01
 -1      3003-5.92672E+00 8.48197E+01-3.56351E+01
 -1      3004-1.75256E+00 2.81964E+00-1.05067E+00
 -1      3005-2.97218E-01 3.20609E+00-1.33560E+00
 -1      3006-1.69409E+00 3.68842E+00-1.49706E+00
 -1      3007-2.27761E+00 4.56437E+00-1.78131E+00
 -1      3008-4.06930E-01 5.07244E+00-2.11762E+00
 -1      3009-6.95717E-01 4.00221E+00-1.63359E+00
 -1      3010-5.46524E+00 8.94477E+01-3.75960E+01
 -1      3011-2.60092E+00 8.60838E+01-3.61669E+01
 -1      3012-5.68772E+00 8.32887E+01-3.50156E+01
 -1      3013-1.58016E+00 1.10588E+02-4.64404E+01
 -1      3014-1.81732E+00 1.04006E+02-4.36729E+01
 -1      3015-6.27072E+00 1.10605E+02-4.64334E+01
 -1      3016-6.46899E+00 1.04027E+02-4.36641E+01
 -1      3017 3.50108E-01 2.60482E+00-1.13676E+00
 -1      3018 7.12299E-01 3.55801E+00-1.54647E+00
 -1      3019 4.17624E-01 4.34923E+00-1.86622E+00
 -1      3020 6.61600E+00 1.74928E+02-7.34694E+01
 -1      3021 7.97358E+00 1.71911E+02-7.22034E+01
 -1      3022 5.57159E+00 1.06755E+02-4.48050E+01
 -1      3023 5.34296E+00 8.42333E+01-3.53217E+01
 -1      3024-1.42680E+00 1.71913E+02-7.22024E+01
 -1      3025-2.79698E+00 5.23065E+00-2.35987E+00
 -1      3026-2.30467E+00 3.32940E+00-1.57555E+00
 -1      3027 6.42398E+00 1.04872E+02-4.40375E+01
 -1      3028 7.70503E+00 1.01931E+02-4.27880E+01
 -1      3029 2.73650E+00 1.32603E+01-5.38106E+00
 -1      3030 6.19255E+00 8.61130E+01-3.61546E+01
 -1      3031 7.51448E+00 8.89760E+01-3.73387E+01
 -1      3032-3.33605E+00 1.47006E+01-6.29985E+00
 -1      3033-1.88316E+00 1.37936E+01-5.80791E+00
 -1      3034-1.17022E+00 1.22962E+01-5.19454E+00
 -1      3035-5.22570E+00 1.96124E+02-8.23717E+01
 -1      3036-6.53652E+00 1.09535E+02-4.60244E+01
 -1      3037-3.80879E+00 1.07631E+02-4.52071E+01
 -1      3038-2.48513E+00 1.04669E+02-4.39658E+01
 -1      3039-1.35221E+00 8.89289E+01-3.73585E+01
 -1      3040 2.60079E+00 8.60840E+01-3.61669E+01
 -1      3041 1.31597E+00 8.89348E+01-3.73606E+01
 -1      3042 1.93497E+00 4.80492E+00-1.96688E+00
 -1      3043 2.56527E+00 5.79122E+00-2.29931E+00
 -1      3044-6.27968E-01 1.09099E+01-4.61680E+00
 -1      3045-3.12769E+00 1.27644E+01-5.49095E+00
 -1      3046 3.04795E+00 1.24695E+01-5.19301E+00
 -1      3047 3.49208E+00 1.10926E+01-4.54020E+00
 -1      3048-3.14435E+00 6.00243E+00-2.48112E+00
 -1      3049-1.93728E+00 4.80503E+00-1.96761E+00
 -1      3050-2.63127E+00 3.99075E+00-1.63513E+00
 -1      3051-1.38666E+00 1.01896E+02-4.28025E+01
 -1      3052-6.50249E+00 1.05707E+02-4.44190E+01
 -1      3053-5.33183E+00 8.42337E+01-3.53223E+01
 -1      3054-1.03302E+01 8.76418E+01-3.68213E+01
 -1      3055-1.04715E+01 8.15187E+01-3.42527E+01
 -1      3056-4.64668E-01 5.59329E+00-2.38706E+00
 -1      3057 4.86953E+00 6.79177E+00-3.06823E+00
 -1      3058 5.33746E+00 8.25591E+00-3.67714E+00
 -1      3059 4.58627E+00 8.87997E+00-3.78998E+00
 -1      3060 4.12232E+00 1.04333E+01-4.54308E+00
 -1      3061 3.81708E+00 8.78261E+00-3.85630E+00
 -1      3062-6.83149E+00 5.53574E+01-2.31840E+01
 -1      3063-6.95759E+00 5.86867E+01-2.45863E+01
 -1      3064-1.34395E+00 5.69772E+01-2.39229E+01
 -1      3065-8.48967E+00 8.76109E+01-3.68342E+01
 -1      3066-8.65905E+00 8.14824E+01-3.42679E+01
 -1      3067-2.72724E+00 1.32607E+01-5.38236E+00
 -1      3068 1.11771E+00 4.74093E+01-1.99304E+01
 -1      3069-1.57394E+00 3.22978E+00-1.18601E+00
 -1      3070-2.00881E+00 5.09462E+00-1.96874E+00
 -1      3071 1.28008E+00 1.23649E+01-5.23707E+00
 -1      3072 6.30930E-01 1.09104E+01-4.61715E+00
 -1      3073-2.56310E+00 5.78851E+00-2.29858E+00
 -1      3074-5.24789E+00 1.48836E+01-6.22320E+00
 -1      3075-2.41301E+00 1.23579E+01-5.16911E+00
 -1      3076-6.32982E+00 4.75108E+01-1.98879E+01
 -1      3077 3.39858E+00 1.89481E+01-8.06161E+00
 -1      3078-7.99645E+00 1.52418E+02-6.40137E+01
 -1      3079-1.36681E+00 1.50459E+02-6.31920E+01
 -1      3080-7.99394E+00 1.48503E+02-6.23686E+01
 -1      3081 6.62624E+00 1.51479E+02-6.36196E+01
 -1      3082 6.62728E+00 1.55393E+02-6.52640E+01
 -1      3083 7.99389E+00 1.48503E+02-6.23682E+01
 -1      3084 7.99639E+00 1.52418E+02-6.40132E+01
 -1      3085 1.36663E+00 1.50459E+02-6.31919E+01
 -1      3086 2.78337E+00 1.55393E+02-6.52645E+01
 -1      3087 2.78303E+00 1.51478E+02-6.36203E+01
 -1      3088 1.41734E+00 1.48500E+02-6.23699E+01
 -1      3089 1.41757E+00 1.52416E+02-6.40143E+01
 -1      3090-1.41763E+00 1.52415E+02-6.40142E+01
 -1      3091-1.41739E+00 1.48499E+02-6.23697E+01
 -1      3092-1.18397E+00 1.40609E+02-5.90564E+01
 -1      3093-1.74125E+00 1.35684E+02-5.69880E+01
 -1      3094 1.59471E+00 1.38658E+02-5.82348E+01
 -1      3095 1.18391E+00 1.40610E+02-5.90565E+01
 -1      3096 1.74116E+00 1.35685E+02-5.69880E+01
 -1      3097-1.59479E+00 1.38658E+02-5.82350E+01
 -1      3098-8.21370E+00 1.40617E+02-5.90536E+01
 -1      3099-4.92786E+00 1.35688E+02-5.69867E+01
 -1      3100 8.21363E+00 1.40617E+02-5.90531E+01
 -1      3101 4.92779E+00 1.35688E+02-5.69864E+01
 -1      3102 5.53674E+00 1.91075E+01-7.99439E+00
 -1      3103 8.85744E-01 2.48293E+01-1.04552E+01
 -1      3104-4.96990E+00 2.49739E+01-1.03943E+01
 -1      3105-9.16450E+00 7.97056E+01-3.34650E+01
 -1      3106-5.62986E+00 7.96480E+01-3.34891E+01
 -1      3107 7.41544E+00 3.98795E+01-1.67270E+01
 -1      3108 4.55384E+00 3.97648E+01-1.67754E+01
 -1      3109 1.35539E+00 1.56463E+02-6.57138E+01
 -1      3110 7.98501E+00 1.58421E+02-6.65358E+01
 -1      3111 2.72262E+00 1.53487E+02-6.44637E+01
 -1      3112-1.35558E+00 1.56464E+02-6.57139E+01
 -1      3113-7.98506E+00 1.58421E+02-6.65363E+01
 -1      3114-2.72268E+00 1.53488E+02-6.44639E+01
 -1      3115 1.42914E+00 1.58421E+02-6.65360E+01
 -1      3116-1.42920E+00 1.58420E+02-6.65359E+01
 -1      3117 3.87811E+00 6.26809E+00-2.69682E+00
 -1      3118 3.22758E+00 6.15896E+00-2.76379E+00
 -1      3119 2.77867E+00 8.20149E+00-3.50171E+00
 -1      3120 6.32754E+00 4.75088E+01-1.98868E+01
 -1      3121-5.53748E+00 1.91082E+01-7.99500E+00
 -1      3122-3.40580E+00 1.89475E+01-8.06168E+00
 -1      3123 8.12916E-01 4.68927E+00-2.02011E+00
 -1      3124 4.67015E-01 5.59100E+00-2.38633E+00
 -1      3125-7.41690E+00 3.98813E+01-1.67280E+01
 -1      3126-1.13390E+00 4.74137E+01-1.99326E+01
 -1      3127-3.48889E+00 1.10927E+01-4.54076E+00
 -1      3128-4.93083E+00 1.29545E+01-5.41166E+00
 -1      3129-8.88976E-01 2.48178E+01-1.04505E+01
 -1      3130 4.96925E+00 2.49640E+01-1.03897E+01
 -1      3131-1.03361E+00 5.86530E+01-2.46482E+01
 -1      3132-1.00940E+00 5.53167E+01-2.32483E+01
 -1      3133 1.34308E+00 5.69872E+01-2.39270E+01
 -1      3134-4.39789E+00 4.35213E+01-1.81633E+01
 -1      3135-7.55089E+00 8.89816E+01-3.73413E+01
 -1      3136-6.00907E+00 7.24290E+01-3.04681E+01
 -1      3137-3.48693E+00 7.06939E+01-2.96969E+01
 -1      3138-2.23993E+00 6.80197E+01-2.85801E+01
 -1      3139 1.39890E+01 1.37785E+02-5.78768E+01
 -1      3140-1.39890E+01 1.37784E+02-5.78773E+01
 -1      3141-3.37431E+00 2.18003E+01-8.99361E+00
 -1      3142-1.37857E+00 2.76597E+00-1.30148E+00
 -1      3143 6.01076E+00 7.24281E+01-3.04676E+01
 -1      3144 3.48745E+00 7.06928E+01-2.96964E+01
 -1      3145 2.24276E+00 6.80085E+01-2.85752E+01
 -1      3146 8.26054E+00 2.19660E+01-9.38728E+00
 -1      3147-4.57046E+00 3.97619E+01-1.67746E+01
 -1      3148-9.46248E+00 7.24995E+01-3.04387E+01
 -1      3149-4.66322E+00 6.80345E+01-2.85654E+01
 -1      3150 9.46413E+00 7.24984E+01-3.04379E+01
 -1      3151 4.66633E+00 6.80435E+01-2.85691E+01
 -1      3152 2.63001E-01 1.48664E-01 5.18708E-03
 -1      3153 3.03869E-01 1.66459E-01-3.72457E-02
 -1      3154 6.35886E-01 4.25773E-01-1.07881E-01
 -1      3155 7.41184E-01 4.54017E-01-1.88882E-01
 -1      3156 2.89874E-01 1.44622E-01-7.46356E-02
 -1      3157-8.29732E+00 2.19674E+01-9.38831E+00
 -1      3158 4.39811E+00 4.35209E+01-1.81630E+01
 -1      3159-3.39228E+00 5.36276E+00-2.30533E+00
 -1      3160-2.78242E+00 3.46962E+00-1.51579E+00
 -1      3161 3.38897E+00 2.18003E+01-8.99259E+00
 -1      3162 4.72469E+00 1.68659E+02-7.08356E+01
 -1      3163 7.07717E+00 1.63216E+02-6.85490E+01
 -1      3164 4.72857E+00 1.61675E+02-6.79023E+01
 -1      3165 9.03533E+00 1.63216E+02-6.85491E+01
 -1      3166 1.12479E+01 1.00679E+02-4.22952E+01
 -1      3167 4.53399E+00 9.87667E+01-4.14861E+01
 -1      3168 8.64883E+00 9.72958E+01-4.08676E+01
 -1      3169 1.16132E+01 9.42353E+01-3.95919E+01
 -1      3170 4.97173E+00 9.23397E+01-3.87881E+01
 -1      3171 7.52697E+00 9.56902E+01-4.02023E+01
 -1      3172-4.15540E-01 3.08711E+00-1.23890E+00
 -1      3173-5.54710E-01 4.95196E+00-2.02113E+00
 -1      3174-5.08402E+00 6.98637E+01-2.92690E+01
 -1      3175 5.09330E+00 6.98647E+01-2.92693E+01
 -1      3176 6.10019E+00 1.32852E+02-5.58043E+01
 -1      3177 1.18289E+00 1.36698E+02-5.74141E+01
 -1      3178-6.10025E+00 1.32852E+02-5.58044E+01
 -1      3179-1.18296E+00 1.36697E+02-5.74139E+01
 -1      3180 9.92742E+00 1.32863E+02-5.57992E+01
 -1      3181 8.20335E+00 1.36707E+02-5.74096E+01
 -1      3182-9.92748E+00 1.32863E+02-5.57997E+01
 -1      3183-8.20341E+00 1.36707E+02-5.74101E+01
 -1      3184 1.07673E+01 4.36389E+01-1.84428E+01
 -1      3185-1.23484E+00 6.54745E+01-2.75131E+01
 -1      3186-5.92979E+00 6.89104E+01-2.89936E+01
 -1      3187 1.24655E+00 6.54574E+01-2.75059E+01
 -1      3188 5.94215E+00 6.89022E+01-2.89900E+01
 -1      3189 8.91516E+00 1.82425E+02-7.66175E+01
 -1      3190 2.30715E+00 1.80485E+02-7.58026E+01
 -1      3191 1.02926E+01 1.76454E+02-7.41098E+01
 -1      3192 3.67769E+00 1.74511E+02-7.32934E+01
 -1      3193 5.98367E+00 1.78126E+02-7.48107E+01
 -1      3194-1.08131E+01 4.36398E+01-1.84436E+01
 -1      3195-6.98632E+00 6.55323E+01-2.74746E+01
 -1      3196-9.33381E+00 6.89787E+01-2.89588E+01
 -1      3197-2.25980E+00 2.98668E+00-1.21173E+00
 -1      3198 6.99664E+00 6.55425E+01-2.74787E+01
 -1      3199 9.34451E+00 6.89776E+01-2.89583E+01
 -1      3200 5.81831E+00 9.91423E+00-4.36655E+00
 -1      3201 4.98015E+00 1.05893E+01-4.50614E+00
 -1      3202-9.59941E+00 1.94417E+02-8.16525E+01
 -1      3203-9.01296E+00 1.88446E+02-7.91444E+01
 -1      3204-1.25566E+00 1.03586E+00-3.94928E-01
 -1      3205-9.83205E-01 1.30344E+00-4.87732E-01
 -1      3206-1.89496E+00 2.16288E+00-8.66480E-01
 -1      3207-4.33487E+00 2.01326E+02-8.45546E+01
 -1      3208-1.16835E+00 2.01326E+02-8.45546E+01
 -1      3209-1.71873E+00 1.99923E+02-8.39662E+01
 -1      3210 1.44761E+00 1.99923E+02-8.39665E+01
 -1      3211 1.90205E-01 1.97189E+02-8.28184E+01
 -1      3212 1.63559E+00 6.86771E+00-2.90828E+00
 -1      3213 2.56746E+00 7.40891E+00-3.21692E+00
 -1      3214 1.91530E+00 9.60675E+00-4.05768E+00
 -1      3215-7.65240E-01 8.54464E-01-3.00803E-01
 -1      3216-7.31040E-01 5.99315E-01-1.09753E-01
 -1      3217-9.96787E-01 9.68592E-01-2.55565E-01
 -1      3218-7.53901E+00 2.01209E+02-8.45056E+01
 -1      3219-6.75318E+00 2.00049E+02-8.40192E+01
 -1      3220-4.84494E+00 1.97315E+02-8.28706E+01
 -1      3221-8.04913E+00 1.97198E+02-8.28209E+01
 -1      3222-9.22472E-01 6.60130E-01-2.34943E-01
 -1      3223-6.74286E+00 1.92783E+02-8.09688E+01
 -1      3224-6.72530E+00 1.89789E+02-7.97112E+01
 -1      3225-1.02302E+01 1.95083E+02-8.19343E+01
 -1      3226-1.02135E+01 1.92090E+02-8.06772E+01
 -1      3227 1.02389E+00 1.87945E+02-7.89358E+01
 -1      3228 7.78355E+00 1.86295E+02-7.82445E+01
 -1      3229 2.56905E+00 1.90121E+02-7.98507E+01
 -1      3230 2.69807E+00 1.04853E+02-4.40455E+01
 -1      3231 1.32622E+00 1.02103E+02-4.28891E+01
 -1      3232 1.18302E+00 1.78965E+01-7.53632E+00
 -1      3233 2.42522E+00 1.79368E+01-7.51918E+00
 -1      3234 7.91458E-01 8.12393E-01-4.95058E-01
 -1      3235 3.88498E-01 1.16412E+00-5.41865E-01
 -1      3236 1.15848E+00 1.93470E+00-9.57374E-01
 -1      3237 2.97641E-01 7.24681E-01-3.54358E-01
 -1      3238 1.56165E-01 7.37933E-01-3.45901E-01
 -1      3239 1.10049E-01 3.83748E-01-1.96115E-01
 -1      3240 1.02980E+01 1.72564E+02-7.24758E+01
 -1      3241 9.96434E+00 1.02576E+02-4.30751E+01
 -1      3242 3.56640E+00 1.04458E+02-4.38739E+01
 -1      3243 1.00207E+01 1.06384E+02-4.46752E+01
 -1      3244 1.00988E+01 8.49663E+01-3.56764E+01
 -1      3245 3.93331E+00 8.67717E+01-3.64480E+01
 -1      3246 1.01908E+01 8.86513E+01-3.72248E+01
 -1      3247 6.46844E+00 1.53850E+02-6.46168E+01
 -1      3248 6.46879E+00 1.57765E+02-6.62602E+01
 -1      3249 3.68431E+00 1.55808E+02-6.54384E+01
 -1      3250 1.03144E+01 1.57765E+02-6.62600E+01
 -1      3251 1.03141E+01 1.53851E+02-6.46159E+01
 -1      3252 6.51108E+00 8.49098E+01-3.57009E+01
 -1      3253 6.57050E+00 8.85991E+01-3.72477E+01
 -1      3254 6.24677E+00 1.02541E+02-4.30899E+01
 -1      3255 6.28227E+00 1.06353E+02-4.46886E+01
 -1      3256-1.57072E+00 1.86297E+02-7.82435E+01
 -1      3257 5.71800E+00 1.76884E+02-7.42948E+01
 -1      3258-1.02909E+01 1.09565E+02-4.60121E+01
 -1      3259-5.16609E+00 1.04887E+02-4.40483E+01
 -1      3260-6.61602E+00 1.74928E+02-7.34697E+01
 -1      3261-6.61032E+00 1.78816E+02-7.51026E+01
 -1      3262-8.20318E+00 1.80714E+02-7.59017E+01
 -1      3263-1.59545E+00 1.78772E+02-7.50839E+01
 -1      3264-8.21025E+00 1.76828E+02-7.42697E+01
 -1      3265 5.79695E-01 4.47648E-01-3.33916E-01
 -1      3266 5.60410E+00 1.47561E+02-6.19770E+01
 -1      3267 2.82226E+00 1.49520E+02-6.27978E+01
 -1      3268 6.50737E+00 1.51893E+02-6.37945E+01
 -1      3269 9.44735E+00 1.47565E+02-6.19754E+01
 -1      3270 3.27460E+00 7.47964E+00-3.16354E+00
 -1      3271 1.02788E+01 1.80488E+02-7.58025E+01
 -1      3272 1.16579E+01 1.74514E+02-7.32932E+01
 -1      3273 1.58635E+00 4.05228E+00-1.47231E+00
 -1      3274 1.79725E+00 4.20776E+00-1.91492E+00
 -1      3275 2.02745E+00 5.42496E+00-2.42217E+00
 -1      3276 1.08145E+00 4.88577E+00-2.06759E+00
 -1      3277 2.84375E+00 1.12417E+01-4.84813E+00
 -1      3278 2.87297E+00 4.43341E+00-1.82587E+00
 -1      3279 3.24153E+00 5.63301E+00-2.33042E+00
 -1      3280 4.54706E+00 1.14310E+01-4.76896E+00
 -1      3281-1.13851E+00 7.45607E-01-3.67651E-01
 -1      3282-9.40761E-01 5.95767E-01-4.34285E-01
 -1      3283-1.64189E+00 9.41526E-01-6.23589E-01
 -1      3284-1.88340E+00 1.71737E+00-7.79611E-01
 -1      3285-1.54948E+00 1.56831E+00-8.42139E-01
 -1      3286-8.19320E+00 1.95172E+02-8.19727E+01
 -1      3287-1.07185E+00 1.89948E+02-7.97774E+01
 -1      3288-7.53281E+00 1.91295E+02-8.03452E+01
 -1      3289-2.52618E+00 1.92338E+02-8.07819E+01
 -1      3290-1.15694E+01 1.94416E+02-8.16531E+01
 -1      3291-1.39080E+01 1.92796E+02-8.09702E+01
 -1      3292-1.09849E+01 1.88445E+02-7.91454E+01
 -1      3293 1.16216E+01 1.94379E+02-8.16366E+01
 -1      3294 1.02497E+01 1.88428E+02-7.91373E+01
 -1      3295 2.24583E-01 1.13912E-01 3.63859E-02
 -1      3296 1.59997E-01 1.10836E-01 2.34164E-03
 -1      3297 4.99989E-01 3.73491E-01-1.87853E-02
 -1      3298 2.11352E-01 1.32823E-01-2.20629E-02
 -1      3299 3.19295E+00 1.99922E+02-8.39664E+01
 -1      3300 5.47191E+00 2.00030E+02-8.40111E+01
 -1      3301-5.57156E+00 1.06756E+02-4.48053E+01
 -1      3302-1.90116E-01 1.06202E-01-6.14623E-02
 -1      3303-3.92260E-01 4.21279E-01-1.49883E-01
 -1      3304 1.42167E+00 1.95265E+00-6.89128E-01
 -1      3305 1.67071E-01 1.54718E+00-6.41862E-01
 -1      3306 3.72975E-01 1.14649E+00-4.29622E-01
 -1      3307 9.16505E-01 1.99922E+02-8.39664E+01
 -1      3308 6.61954E+00 1.56464E+02-6.57138E+01
 -1      3309 6.63003E+00 1.50459E+02-6.31902E+01
 -1      3310-6.61959E+00 1.56464E+02-6.57142E+01
 -1      3311-6.63010E+00 1.50460E+02-6.31907E+01
 -1      3312-1.82197E+00 1.56464E+02-6.57143E+01
 -1      3313-1.83275E+00 1.50458E+02-6.31913E+01
 -1      3314 1.82192E+00 1.56463E+02-6.57140E+01
 -1      3315 1.83268E+00 1.50458E+02-6.31910E+01
 -1      3316-2.91216E-01 1.73925E+00-7.72622E-01
 -1      3317 1.09293E+00 2.01210E+02-8.45058E+01
 -1      3318 4.29690E+00 2.01327E+02-8.45546E+01
 -1      3319 2.72863E+00 1.97403E+02-8.29077E+01
 -1      3320-1.62009E+00 2.00137E+02-8.40566E+01
 -1      3321-4.75295E-01 1.97286E+02-8.28595E+01
 -1      3322 1.14432E+00 7.49178E-01-3.71536E-01
 -1      3323 9.49160E-01 6.01759E-01-4.39104E-01
 -1      3324 1.64224E+00 9.42207E-01-6.24051E-01
 -1      3325 1.87774E+00 1.71203E+00-7.80756E-01
 -1      3326 1.54659E+00 1.56773E+00-8.44231E-01
 -1      3327 6.45772E+00 1.76457E+02-7.41086E+01
 -1      3328 2.77987E+00 1.78818E+02-7.51017E+01
 -1      3329 1.18402E+00 1.80717E+02-7.59000E+01
 -1      3330 2.08076E+00 1.76412E+02-7.40918E+01
 -1      3331 6.45873E+00 1.72567E+02-7.24748E+01
 -1      3332 1.18208E+00 1.76832E+02-7.42680E+01
 -1      3333 1.16287E+00 1.95174E+02-8.19718E+01
 -1      3334 2.08807E+00 1.96106E+02-8.23632E+01
 -1      3335 9.75957E+00 1.11619E+02-4.68742E+01
 -1      3336 3.26489E+00 1.09684E+02-4.60682E+01
 -1      3337 6.83746E+00 1.07364E+02-4.50996E+01
 -1      3338 3.08767E+00 8.14868E+01-3.42271E+01
 -1      3339 9.16414E+00 7.97056E+01-3.34648E+01
 -1      3340 7.01636E+00 8.39837E+01-3.52884E+01
 -1      3341 5.99642E+00 1.11593E+02-4.68855E+01
 -1      3342 5.62973E+00 7.96483E+01-3.34889E+01
 -1      3343-7.76853E+00 1.02137E+02-4.28748E+01
 -1      3344-1.02379E+01 1.05740E+02-4.44052E+01
 -1      3345-2.29892E-01 1.24447E-01 3.43020E-02
 -1      3346-2.56491E-01 1.47276E-01 4.46841E-03
 -1      3347-4.96812E-01 3.64617E-01-1.13647E-02
 -1      3348-5.74691E-01 3.98193E-01-6.36338E-02
 -1      3349-1.54373E-01 1.02583E-01 2.21841E-03
 -1      3350 9.65231E+00 1.94380E+02-8.16363E+01
 -1      3351 1.39095E+01 1.92759E+02-8.09541E+01
 -1      3352 8.27782E+00 1.88430E+02-7.91368E+01
 -1      3353 1.77328E-01 1.32061E-02-9.46155E-02
 -1      3354 1.03404E-01-5.78344E-03-5.69217E-02
 -1      3355-2.71598E-02 1.98293E-01-7.20982E-02
 -1      3356 4.71139E-02 6.14031E-02-4.24121E-02
 -1      3357 1.79662E-01 1.91884E-01-1.49383E-01
 -1      3358-1.46299E+00 2.01164E+00-7.09989E-01
 -1      3359-2.28942E-01 1.59723E+00-6.56732E-01
 -1      3360-3.96634E-01 1.16418E+00-4.31746E-01
 -1      3361 1.02954E+01 2.01323E+02-8.45559E+01
 -1      3362 8.94983E+00 2.01206E+02-8.45072E+01
 -1      3363 8.64921E+00 1.97187E+02-8.28182E+01
 -1      3364 7.30377E+00 1.97070E+02-8.27699E+01
 -1      3365 4.45689E+00 1.99922E+02-8.39668E+01
 -1      3366 2.97576E-01 1.79283E+00-7.96169E-01
 -1      3367-1.87680E+00 1.84270E+02-7.73923E+01
 -1      3368-2.31925E+00 9.03974E+00-3.91219E+00
 -1      3369-5.81597E-01 9.21359E+00-3.90517E+00
 -1      3370-7.03114E-01 1.02887E+01-4.34000E+00
 -1      3371-6.25322E-01 7.94256E+00-3.35553E+00
 -1      3372 1.02858E+00 8.15290E+00-3.37731E+00
 -1      3373-5.14594E-01 6.97384E+00-2.96643E+00
 -1      3374 5.08449E+00 1.82428E+02-7.66169E+01
 -1      3375-9.64062E+00 1.67470E+02-7.03370E+01
 -1      3376-4.36965E+00 1.70304E+02-7.15270E+01
 -1      3377-7.97810E+00 1.68007E+02-7.05638E+01
 -1      3378-7.98322E+00 1.62332E+02-6.81798E+01
 -1      3379-2.70984E+00 1.65169E+02-6.93708E+01
 -1      3380-4.37266E+00 1.64632E+02-6.91447E+01
 -1      3381-5.79853E+00 1.67472E+02-7.03360E+01
 -1      3382-1.42776E+00 1.68009E+02-7.05626E+01
 -1      3383-1.66169E+00 1.70304E+02-7.15266E+01
 -1      3384-1.66250E+00 1.64632E+02-6.91445E+01
 -1      3385 2.70972E+00 1.65169E+02-6.93706E+01
 -1      3386-1.42869E+00 1.62333E+02-6.81791E+01
 -1      3387-2.29657E+00 8.18533E+00-3.47653E+00
 -1      3388-2.09330E+00 7.20815E+00-3.14773E+00
 -1      3389-5.62366E-01 6.22768E+00-2.63597E+00
 -1      3390-1.41277E+00 1.57557E+01-6.64454E+00
 -1      3391-4.95586E+00 1.11470E+02-4.68147E+01
 -1      3392-4.41591E+00 1.42571E+02-5.98782E+01
 -1      3393-1.22250E+00 1.42569E+02-5.98788E+01
 -1      3394 1.22243E+00 1.42569E+02-5.98789E+01
 -1      3395 4.41586E+00 1.42571E+02-5.98780E+01
 -1      3396-2.70035E+00 1.11462E+02-4.68178E+01
 -1      3397-1.20702E-01-5.98312E-03-6.98496E-02
 -1      3398-3.33028E-02-1.41544E-02-1.83301E-02
 -1      3399-3.19993E-01 2.15654E-01-1.92213E-01
 -1      3400-1.31526E-01 7.13545E-02-6.46454E-02
 -1      3401-5.38486E-01 2.76318E-01-2.68107E-01
 -1      3402-9.67058E+00 1.62824E+02-6.83853E+01
 -1      3403-6.06013E+00 1.65123E+02-6.93505E+01
 -1      3404-4.39925E+00 1.59982E+02-6.71919E+01
 -1      3405-5.82657E+00 1.62824E+02-6.83847E+01
 -1      3406-1.68839E+00 1.59982E+02-6.71918E+01
 -1      3407-2.49126E+00 7.42207E+01-3.11826E+01
 -1      3408-4.44946E-01 2.39283E+00-1.03098E+00
 -1      3409 3.47125E+00 1.84271E+02-7.73929E+01
 -1      3410-2.58898E+00 1.58050E+01-6.62433E+00
 -1      3411 8.85505E+00 1.49520E+02-6.27996E+01
 -1      3412 9.71977E+00 1.55808E+02-6.54384E+01
 -1      3413 1.08141E+01 1.49522E+02-6.27987E+01
 -1      3414 1.16797E+01 1.55808E+02-6.54382E+01
 -1      3415 8.02000E-01 3.33983E+00-1.41542E+00
 -1      3416 2.25292E+00 2.98407E+00-1.21380E+00
 -1      3417 1.85955E+00 4.00732E+00-1.74088E+00
 -1      3418 4.57363E+00 7.42381E+01-3.11742E+01
 -1      3419-1.14226E+01 2.01206E+02-8.45067E+01
 -1      3420-1.00767E+01 2.01323E+02-8.45564E+01
 -1      3421-1.09162E+01 1.97196E+02-8.28214E+01
 -1      3422-9.57023E+00 1.97313E+02-8.28713E+01
 -1      3423-7.77120E+00 2.00048E+02-8.40195E+01
 -1      3424-3.47842E+00 7.39488E+00-3.06653E+00
 -1      3425-3.85786E+00 9.21868E+00-3.83395E+00
 -1      3426-2.83934E+00 7.16508E+00-2.88093E+00
 -1      3427-1.63787E+00 7.99103E+00-3.33250E+00
 -1      3428-1.46369E+00 6.27811E+00-2.61265E+00
 -1      3429-4.57216E+00 7.42404E+01-3.11754E+01
 -1      3430 2.49278E+00 7.42208E+01-3.11825E+01
 -1      3431-1.03673E+00 6.03287E+01-2.53444E+01
 -1      3432-3.77131E+00 6.03424E+01-2.53303E+01
 -1      3433 9.19885E-01 2.44512E+00-1.00738E+00
 -1      3434 1.37763E+00 2.76276E+00-1.30168E+00
 -1      3435-1.39025E+00 9.81082E+01-4.12122E+01
 -1      3436-1.59152E+00 9.59070E+01-4.02844E+01
 -1      3437-5.52206E+00 9.31744E+01-3.91588E+01
 -1      3438-1.37492E+00 9.26528E+01-3.89221E+01
 -1      3439-1.57315E+00 9.04770E+01-3.80044E+01
 -1      3440 2.57670E+00 9.53935E+01-4.00552E+01
 -1      3441-1.84859E+00 1.03384E+01-4.31916E+00
 -1      3442-3.22934E+00 9.39856E+00-3.82459E+00
 -1      3443-1.02412E+00 8.14929E+00-3.37652E+00
 -1      3444 3.65717E+00 2.00030E+02-8.40111E+01
 -1      3445 8.00694E+00 1.97295E+02-8.28618E+01
 -1      3446 3.09727E-02-1.82089E-02-1.19009E-02
 -1      3447-5.45587E-02 6.29887E-02-7.09853E-03
 -1      3448 9.90675E+00 1.28964E+02-5.41614E+01
 -1      3449 4.47293E+00 1.30907E+02-5.49790E+01
 -1      3450 7.72431E+00 1.28027E+02-5.37625E+01
 -1      3451 1.04324E+01 1.23271E+02-5.17697E+01
 -1      3452 5.02063E+00 1.25205E+02-5.25838E+01
 -1      3453 7.19749E+00 1.26137E+02-5.29810E+01
 -1      3454 1.61970E+00 1.28014E+02-5.37683E+01
 -1      3455 2.18023E+00 1.30904E+02-5.49804E+01
 -1      3456 6.08753E+00 1.28951E+02-5.41673E+01
 -1      3457 6.62662E+00 1.23252E+02-5.17776E+01
 -1      3458 2.73597E+00 1.25200E+02-5.25859E+01
 -1      3459-9.64923E+00 1.82423E+02-7.66182E+01
 -1      3460-4.63758E+00 1.82381E+02-7.65999E+01
 -1      3461 6.79580E+00 9.72764E+01-4.08760E+01
 -1      3462 3.63727E+00 9.53856E+01-4.00759E+01
 -1      3463 6.74318E+00 9.35208E+01-3.93008E+01
 -1      3464 1.17148E+00 4.90198E+01-2.05966E+01
 -1      3465 1.16999E+00 5.05408E+01-2.12453E+01
 -1      3466 4.59024E+00 5.13142E+01-2.16073E+01
 -1      3467 1.01753E+00 5.36944E+01-2.25591E+01
 -1      3468 1.01421E+00 5.52618E+01-2.32250E+01
 -1      3469-2.43965E+00 5.29364E+01-2.22065E+01
 -1      3470 6.47395E+00 5.06355E+01-2.12039E+01
 -1      3471 3.36436E+00 4.90424E+01-2.05856E+01
 -1      3472 7.69334E+00 5.14034E+01-2.15696E+01
 -1      3473 6.85573E+00 5.53679E+01-2.31888E+01
 -1      3474 3.65680E+00 5.37313E+01-2.25518E+01
 -1      3475 2.43664E+00 5.29443E+01-2.22098E+01
 -1      3476-1.16605E+00 4.90176E+01-2.05958E+01
 -1      3477-1.16615E+00 5.05828E+01-2.12630E+01
 -1      3478-1.01137E+00 5.37042E+01-2.25632E+01
 -1      3479 6.44186E+00 1.95066E+02-8.19251E+01
 -1      3480 6.49240E+00 1.92073E+02-8.06678E+01
 -1      3481 1.87794E+00 1.88302E+02-7.90853E+01
 -1      3482 2.75346E+00 1.92230E+02-8.07354E+01
 -1      3483 1.82836E+00 1.91298E+02-8.03436E+01
 -1      3484 7.09425E+00 1.54140E+01-6.65455E+00
 -1      3485 7.49797E+00 1.74896E+01-7.51999E+00
 -1      3486 6.13393E+00 1.80137E+01-7.61027E+00
 -1      3487 5.06862E+00 1.79079E+01-7.65471E+00
 -1      3488 7.11856E-01 1.82383E+02-7.66000E+01
 -1      3489 5.03325E+00 1.71493E+02-7.20265E+01
 -1      3490 5.04015E+00 1.58835E+02-6.67096E+01
 -1      3491 2.32907E+00 1.58835E+02-6.67097E+01
 -1      3492-2.30517E-01 1.34443E-01-3.62316E-02
 -1      3493-7.17868E-01 4.40269E-01-1.75948E-01
 -1      3494-7.51597E+00 1.88299E+02-7.90871E+01
 -1      3495 5.23470E+00 8.96425E+01-3.76435E+01
 -1      3496 4.85327E+00 1.01519E+02-4.26331E+01
 -1      3497-6.45166E+00 5.06371E+01-2.12042E+01
 -1      3498-3.35896E+00 4.90441E+01-2.05865E+01
 -1      3499-3.64970E+00 5.37214E+01-2.25479E+01
 -1      3500-5.58848E+00 9.76131E+01-4.10198E+01
 -1      3501-5.77464E+00 9.54143E+01-4.00808E+01
 -1      3502-1.62334E+00 1.00365E+02-4.21565E+01
 -1      3503-7.97354E+00 1.71911E+02-7.22039E+01
 -1      3504-1.35326E+00 1.73858E+02-7.30197E+01
 -1      3505-2.94912E+00 1.75759E+02-7.38192E+01
 -1      3506 2.18835E+00 1.01714E+02-4.27246E+01
 -1      3507 5.30562E-01 2.67223E-01-2.63103E-01
 -1      3508 2.32208E-01 1.03841E-01-9.05989E-02
 -1      3509-1.30538E+01 8.42899E+01-3.54568E+01
 -1      3510-5.72980E+00 1.61264E+02-6.77321E+01
 -1      3511-6.61514E+00 1.66054E+02-6.97441E+01
 -1      3512-1.82136E+00 1.66056E+02-6.97435E+01
 -1      3513-1.82197E+00 1.60378E+02-6.73584E+01
 -1      3514-6.61874E+00 1.60377E+02-6.73587E+01
 -1      3515 5.72974E+00 1.61264E+02-6.77316E+01
 -1      3516 6.61507E+00 1.66054E+02-6.97436E+01
 -1      3517 1.82128E+00 1.66055E+02-6.97432E+01
 -1      3518 1.82193E+00 1.60377E+02-6.73582E+01
 -1      3519 6.61870E+00 1.60377E+02-6.73583E+01
 -1      3520-5.72785E+00 1.65175E+02-6.93755E+01
 -1      3521-1.82077E+00 1.69962E+02-7.13845E+01
 -1      3522 5.72778E+00 1.65175E+02-6.93749E+01
 -1      3523 1.82070E+00 1.69962E+02-7.13842E+01
 -1      3524 5.72512E+00 1.69082E+02-7.10168E+01
 -1      3525 6.61159E+00 1.69960E+02-7.13848E+01
 -1      3526-5.72519E+00 1.69082E+02-7.10173E+01
 -1      3527-6.61164E+00 1.69960E+02-7.13852E+01
 -1      3528 2.65155E+00 8.96314E+01-3.76530E+01
 -1      3529 7.48814E-01 5.82586E+00-2.47694E+00
 -1      3530 5.48801E+00 9.53768E+01-4.00147E+01
 -1      3531 5.52939E+00 9.91472E+01-4.16018E+01
 -1      3532 1.75289E+00 9.62239E+01-4.04028E+01
 -1      3533 1.76827E+00 9.99997E+01-4.19895E+01
 -1      3534 6.36671E+00 1.00024E+02-4.19797E+01
 -1      3535-1.90571E-01 4.66164E-01-1.29643E-01
 -1      3536-6.65053E-01 6.10168E-01-7.48838E-02
 -1      3537-6.70073E-01 7.06109E-01-6.74610E-02
 -1      3538-2.66278E-01 1.36139E+00-5.13708E-01
 -1      3539-1.05587E+00 1.50317E+00-4.57297E-01
 -1      3540 2.16927E+00 1.08614E+01-4.53938E+00
 -1      3541 6.73566E+00 2.00029E+02-8.40114E+01
 -1      3542 1.09284E+01 1.97294E+02-8.28619E+01
 -1      3543 1.17521E+00 1.23971E+02-5.20702E+01
 -1      3544 2.28708E+00 1.21165E+02-5.08920E+01
 -1      3545-2.72758E+00 1.25925E+02-5.28840E+01
 -1      3546 8.14854E+00 1.24287E+02-5.21878E+01
 -1      3547 2.72810E+00 1.26223E+02-5.30093E+01
 -1      3548 5.44711E+00 1.21471E+02-5.10138E+01
 -1      3549 9.97813E-01 1.08022E+01-4.56427E+00
 -1      3550-3.87389E+00 4.28339E+00-2.02696E+00
 -1      3551-7.53361E+00 1.97402E+02-8.29094E+01
 -1      3552-5.73484E+00 2.00136E+02-8.40568E+01
 -1      3553 1.99025E+00 6.59724E+00-2.55575E+00
 -1      3554 2.18591E+00 8.07308E+00-3.18257E+00
 -1      3555 6.16122E-01 6.26969E+00-2.57683E+00
 -1      3556 2.46774E+00 7.83919E+00-3.13142E+00
 -1      3557 2.24043E+00 6.39773E+00-2.52060E+00
 -1      3558-2.64761E+00 2.61833E+01-1.09799E+01
 -1      3559 1.62336E+00 5.89365E+00-2.45094E+00
 -1      3560-2.42882E+00 1.79379E+01-7.51973E+00
 -1      3561-1.18622E+00 1.78969E+01-7.53664E+00
 -1      3562 2.14962E+00 1.13524E+02-4.76826E+01
 -1      3563 1.45545E+00 1.46543E+02-6.15478E+01
 -1      3564-4.18755E+00 1.46544E+02-6.15474E+01
 -1      3565-1.45547E+00 1.46543E+02-6.15477E+01
 -1      3566 4.18752E+00 1.46544E+02-6.15471E+01
 -1      3567 4.41009E+00 1.13530E+02-4.76800E+01
 -1      3568-2.00210E+00 7.78571E+01-3.27070E+01
 -1      3569 4.10737E+00 7.78723E+01-3.27005E+01
 -1      3570-4.10762E+00 7.78734E+01-3.27012E+01
 -1      3571 2.00188E+00 7.78584E+01-3.27074E+01
 -1      3572 9.21435E-01 2.61468E+01-1.09938E+01
 -1      3573 2.64898E+00 2.61718E+01-1.09747E+01
 -1      3574 1.60549E+00 3.83320E+01-1.61137E+01
 -1      3575-3.29591E+00 3.83634E+01-1.61021E+01
 -1      3576 3.28923E+00 3.83615E+01-1.61012E+01
 -1      3577-9.19530E-01 2.61378E+01-1.09901E+01
 -1      3578 8.73232E+00 5.45317E+01-2.28882E+01
 -1      3579 5.53134E+00 5.28774E+01-2.22312E+01
 -1      3580 4.62538E+00 5.69008E+01-2.38830E+01
 -1      3581 5.56808E+00 5.44349E+01-2.29291E+01
 -1      3582 1.93802E+00 5.68551E+01-2.38937E+01
 -1      3583-1.61213E+00 3.83337E+01-1.61145E+01
 -1      3584-2.06502E-01 1.97571E-02-1.16739E-01
 -1      3585-2.50525E-01 1.05045E-01-9.74960E-02
 -1      3586-1.40060E+01 1.84698E+02-7.75681E+01
 -1      3587-1.39400E+01 1.88749E+02-7.92700E+01
 -1      3588-1.10160E+01 1.84393E+02-7.74438E+01
 -1      3589-9.07526E+00 1.84395E+02-7.74427E+01
 -1      3590 3.86604E+00 1.21319E+02-5.09546E+01
 -1      3591-1.14282E+00 1.26076E+02-5.29505E+01
 -1      3592-1.58010E+00 1.22040E+02-5.12547E+01
 -1      3593 1.40296E+01 1.53437E+02-6.44432E+01
 -1      3594-9.40825E+00 2.01323E+02-8.45569E+01
 -1      3595-5.06746E+00 2.00136E+02-8.40572E+01
 -1      3596-9.62865E+00 1.86115E+02-7.81684E+01
 -1      3597 7.87315E+00 2.01326E+02-8.45545E+01
 -1      3598 7.23324E+00 2.00030E+02-8.40108E+01
 -1      3599-7.94049E-01 9.10968E+00-3.83004E+00
 -1      3600 9.62532E-01 9.32960E+00-3.90080E+00
 -1      3601 8.44556E-01 7.09619E+00-2.96207E+00
 -1      3602-1.59061E+00 4.05588E+00-1.47372E+00
 -1      3603-9.63547E+00 1.71374E+02-7.19769E+01
 -1      3604-7.21081E-01 7.28109E+00-3.06233E+00
 -1      3605-7.61255E+00 9.27018E+01-3.89065E+01
 -1      3606-4.21849E+00 9.49069E+01-3.98550E+01
 -1      3607-9.26252E+00 9.76495E+01-4.10036E+01
 -1      3608-7.71876E+00 9.83518E+01-4.12824E+01
 -1      3609-4.28548E+00 1.00581E+02-4.22383E+01
 -1      3610-2.67515E+00 9.56040E+01-4.01433E+01
 -1      3611-1.97243E+00 1.67469E+02-7.03360E+01
 -1      3612 2.39839E+00 1.68005E+02-7.05614E+01
 -1      3613 2.39977E+00 1.62330E+02-6.81779E+01
 -1      3614-3.10314E-01 1.68005E+02-7.05615E+01
 -1      3615-3.10702E-01 1.62330E+02-6.81780E+01
 -1      3616-1.12610E-01 7.07501E+00-2.96836E+00
 -1      3617 1.14275E+00 1.26076E+02-5.29504E+01
 -1      3618 1.58052E+00 1.22338E+02-5.13797E+01
 -1      3619-5.48419E+00 9.15319E+01-3.83953E+01
 -1      3620-5.52562E+00 9.52751E+01-3.99717E+01
 -1      3621-1.80760E+00 9.06925E+01-3.80775E+01
 -1      3622-6.34038E+00 9.45586E+01-3.96804E+01
 -1      3623-6.29159E+00 9.08232E+01-3.81083E+01
 -1      3624 2.32507E+00 5.29723E+01-2.22522E+01
 -1      3625 3.26678E+00 5.61241E+01-2.35790E+01
 -1      3626-3.00125E-01 1.65679E-01-3.92956E-02
 -1      3627-2.93420E-01 1.46245E-01-8.00799E-02
 -1      3628-2.36163E+00 9.70929E+00-3.87750E+00
 -1      3629-2.18416E+00 8.10263E+00-3.19515E+00
 -1      3630-2.78072E+00 1.02001E+01-4.13093E+00
 -1      3631-7.07259E-01 8.41464E+00-3.48092E+00
 -1      3632-7.56801E-01 1.00483E+01-4.16920E+00
 -1      3633-1.99884E+00 1.62822E+02-6.83843E+01
 -1      3634-1.30244E-01 9.31296E+00-3.90818E+00
 -1      3635 3.31897E+00 1.27009E+02-5.33439E+01
 -1      3636 1.20087E+01 2.01323E+02-8.45552E+01
 -1      3637 8.44926E+00 2.00029E+02-8.40110E+01
 -1      3638 1.11832E+00 5.22088E+01-2.19217E+01
 -1      3639-4.16045E+00 9.04943E+01-3.80021E+01
 -1      3640-1.12043E+00 5.22109E+01-2.19225E+01
 -1      3641-1.98212E+00 6.57165E+00-2.54534E+00
 -1      3642-2.55682E+00 8.50811E+00-3.41447E+00
 -1      3643-6.13979E-01 6.26722E+00-2.57587E+00
 -1      3644-2.22870E+00 6.37004E+00-2.50915E+00
 -1      3645 2.29385E+00 9.81322E+01-4.12114E+01
 -1      3646-1.87505E+00 9.31911E+01-3.91407E+01
 -1      3647 2.27006E+00 9.26803E+01-3.89213E+01
 -1      3648-2.23274E+00 1.55160E+00-8.87914E-01
 -1      3649-1.94122E+00 2.38309E+00-1.18209E+00
 -1      3650 9.55741E-02 9.77129E-02-2.29940E-02
 -1      3651 1.39992E+01 1.76881E+02-7.42843E+01
 -1      3652 8.32571E+00 1.80491E+02-7.58019E+01
 -1      3653 9.70251E+00 1.74516E+02-7.32925E+01
 -1      3654-5.56630E+00 9.92506E+01-4.16452E+01
 -1      3655-1.82341E+00 9.46342E+01-3.97341E+01
 -1      3656-6.42971E+00 1.00230E+02-4.20661E+01
 -1      3657-1.86564E+00 1.00309E+02-4.21191E+01
 -1      3658 1.40720E+01 1.84585E+02-7.75201E+01
 -1      3659 1.40196E+01 1.88674E+02-7.92380E+01
 -1      3660 1.02992E+01 1.84339E+02-7.74197E+01
 -1      3661 8.38513E+00 1.84341E+02-7.74191E+01
 -1      3662-9.54500E-01 2.51153E+00-1.03203E+00
 -1      3663 5.02238E-02 7.47449E-02-1.43028E-02
 -1      3664 1.63569E-02 2.01735E-01-7.92188E-02
 -1      3665-9.16383E+00 9.32158E+01-3.91416E+01
 -1      3666 4.29718E-01 2.45298E+00-1.05636E+00
 -1      3667 5.11555E+00 1.86120E+02-7.81673E+01
 -1      3668 1.37355E+00 1.86277E+02-7.82352E+01
 -1      3669-2.80988E+00 2.32929E+00-1.21722E+00
 -1      3670-2.35157E+00 2.53663E+00-1.12529E+00
 -1      3671 2.23146E+00 1.55352E+00-8.92450E-01
 -1      3672 2.34524E+00 2.53017E+00-1.12590E+00
 -1      3673-1.91023E+00 9.76273E+01-4.10035E+01
 -1      3674 9.38078E+00 1.00655E+02-4.23053E+01
 -1      3675 6.19507E+00 9.87503E+01-4.15004E+01
 -1      3676 6.61307E+00 9.23195E+01-3.88068E+01
 -1      3677 2.82714E+00 2.34126E+00-1.22288E+00
 -1      3678 1.95097E+00 2.39455E+00-1.18956E+00
 -1      3679-1.40281E+01 1.61262E+02-6.77279E+01
 -1      3680-1.40232E+01 1.65172E+02-6.93691E+01
 -1      3681-1.10022E+01 1.69422E+02-7.11558E+01
 -1      3682-9.04921E+00 1.65517E+02-6.95148E+01
 -1      3683-1.10074E+01 1.65516E+02-6.95154E+01
 -1      3684-1.40165E+01 1.69078E+02-7.10090E+01
 -1      3685-9.04518E+00 1.69424E+02-7.11550E+01
 -1      3686-9.07783E+00 1.60869E+02-6.75632E+01
 -1      3687-1.10371E+01 1.60868E+02-6.75635E+01
 -1      3688 7.31697E+00 9.54145E+01-4.00636E+01
 -1      3689 9.90177E+00 9.87891E+01-4.14840E+01
 -1      3690 7.66912E+00 1.65170E+02-6.93708E+01
 -1      3691 1.03125E+01 1.61677E+02-6.79030E+01
 -1      3692 3.82668E+00 1.65171E+02-6.93705E+01
 -1      3693 6.46774E+00 1.61678E+02-6.79028E+01
 -1      3694 1.44747E+00 8.11468E+00-3.47722E+00
 -1      3695 2.25333E+00 6.78118E+00-2.98714E+00
 -1      3696 2.90895E+00 8.24927E+00-3.41810E+00
 -1      3697 3.60502E+00 6.98541E+00-2.89951E+00
 -1      3698 6.65549E+00 1.94291E+02-8.16032E+01
 -1      3699 1.83339E+00 1.94274E+02-8.15948E+01
 -1      3700 5.68177E+00 1.92780E+02-8.09699E+01
 -1      3701 6.42105E+00 1.88625E+02-7.92242E+01
 -1      3702 1.59382E+00 1.88609E+02-7.92157E+01
 -1      3703-4.87348E+00 6.81595E+00-3.07767E+00
 -1      3704-3.47483E+00 8.31034E+00-3.64182E+00
 -1      3705-4.22478E+00 8.42924E+00-3.58938E+00
 -1      3706-3.78313E+00 6.68359E+00-2.85874E+00
 -1      3707-3.11214E+00 6.56008E+00-2.91319E+00
 -1      3708-5.34984E+00 8.28522E+00-3.68818E+00
 -1      3709-4.58565E+00 1.00397E+01-4.26382E+00
 -1      3710-5.80203E+00 9.88181E+00-4.35179E+00
 -1      3711-3.76258E+00 9.92288E+00-4.31409E+00
 -1      3712-2.89732E+00 1.52290E+01-6.21475E+00
 -1      3713-8.57852E-01 1.73088E+01-7.23161E+00
 -1      3714-3.06254E+00 1.73112E+01-7.09613E+00
 -1      3715-3.43186E+00 1.74100E+01-7.18823E+00
 -1      3716 1.40255E+01 1.49522E+02-6.28006E+01
 -1      3717 1.08080E+01 1.45608E+02-6.11550E+01
 -1      3718 1.40177E+01 1.45608E+02-6.11585E+01
 -1      3719 8.84992E+00 1.45605E+02-6.11563E+01
 -1      3720-1.40256E+01 1.49522E+02-6.28012E+01
 -1      3721-1.08082E+01 1.45608E+02-6.11555E+01
 -1      3722 1.40056E+01 1.41695E+02-5.95171E+01
 -1      3723-1.40179E+01 1.45607E+02-6.11590E+01
 -1      3724-8.84990E+00 1.45605E+02-6.11566E+01
 -1      3725-1.40056E+01 1.41694E+02-5.95176E+01
 -1      3726-5.59918E+00 1.10589E+02-4.64186E+01
 -1      3727-1.58722E+00 1.14438E+02-4.80582E+01
 -1      3728-5.62413E+00 1.14439E+02-4.80390E+01
 -1      3729-6.29817E+00 1.14453E+02-4.80520E+01
 -1      3730 5.59945E+00 1.10588E+02-4.64181E+01
 -1      3731 6.29828E+00 1.14453E+02-4.80517E+01
 -1      3732 5.62371E+00 1.14438E+02-4.80384E+01
 -1      3733 1.58711E+00 1.14438E+02-4.80577E+01
 -1      3734-3.22151E+00 1.95035E+01-8.02308E+00
 -1      3735-4.17491E+00 3.75874E+01-1.56599E+01
 -1      3736-4.28829E+00 4.05167E+01-1.68964E+01
 -1      3737-1.17353E+00 3.75845E+01-1.57580E+01
 -1      3738-4.67620E+00 3.76588E+01-1.57270E+01
 -1      3739-5.27876E+00 8.05838E+01-3.37852E+01
 -1      3740-5.84850E+00 7.70068E+01-3.22970E+01
 -1      3741-5.22069E+00 7.69700E+01-3.22628E+01
 -1      3742-1.47140E+00 7.69692E+01-3.23128E+01
 -1      3743 5.28969E+00 8.05835E+01-3.37846E+01
 -1      3744 5.84804E+00 7.70054E+01-3.22959E+01
 -1      3745 8.62100E+00 2.43587E+01-1.03866E+01
 -1      3746 6.91066E+00 2.68513E+01-1.13099E+01
 -1      3747 8.96780E+00 2.68492E+01-1.14261E+01
 -1      3748 5.65470E+00 2.67641E+01-1.13469E+01
 -1      3749 5.22121E+00 7.69695E+01-3.22625E+01
 -1      3750 1.47093E+00 7.69680E+01-3.23123E+01
 -1      3751 3.23551E+00 1.95035E+01-8.02204E+00
 -1      3752 3.42922E+00 1.74095E+01-7.18778E+00
 -1      3753 3.07371E+00 1.73111E+01-7.09519E+00
 -1      3754 8.66415E-01 1.73082E+01-7.23089E+00
 -1      3755 2.90537E+00 1.52285E+01-6.21360E+00
 -1      3756 5.15906E+00 7.33956E+01-3.07565E+01
 -1      3757-5.15971E+00 7.33958E+01-3.07569E+01
 -1      3758 4.28915E+00 4.05166E+01-1.68959E+01
 -1      3759 4.67088E+00 3.76583E+01-1.57263E+01
 -1      3760-9.01824E+00 2.68466E+01-1.14256E+01
 -1      3761-8.66882E+00 2.43567E+01-1.03861E+01
 -1      3762-5.70294E+00 2.67620E+01-1.13468E+01
 -1      3763-6.90921E+00 2.68523E+01-1.13113E+01
 -1      3764 1.10443E+01 4.67043E+01-1.97268E+01
 -1      3765 1.13422E+01 4.98399E+01-2.10380E+01
 -1      3766 8.72030E+00 4.98352E+01-2.09542E+01
 -1      3767 7.17624E+00 4.97754E+01-2.09796E+01
 -1      3768 4.19639E+00 3.75741E+01-1.56534E+01
 -1      3769 1.19079E+00 3.75713E+01-1.57521E+01
 -1      3770-1.15409E+01 5.30510E+01-2.23804E+01
 -1      3771-7.15666E+00 4.97902E+01-2.09863E+01
 -1      3772-1.10761E+01 4.67083E+01-1.97279E+01
 -1      3773-8.69814E+00 4.98381E+01-2.09550E+01
 -1      3774-3.29186E-01 9.26818E+01-3.89252E+01
 -1      3775-3.56068E-01 9.83344E+01-4.12992E+01
 -1      3776-1.13152E+01 4.98583E+01-2.10451E+01
 -1      3777 9.32497E+00 1.30905E+02-5.49891E+01
 -1      3778 1.12740E+01 1.30913E+02-5.49856E+01
 -1      3779 1.39402E+01 1.29978E+02-5.46030E+01
 -1      3780 9.85584E+00 1.25202E+02-5.25980E+01
 -1      3781 1.17988E+01 1.25213E+02-5.25932E+01
 -1      3782-1.19928E+01 5.96400E+01-2.51381E+01
 -1      3783-9.34619E+00 6.29981E+01-2.64778E+01
 -1      3784-1.40080E+01 1.80791E+02-7.59272E+01
 -1      3785-1.21850E+01 6.30147E+01-2.65500E+01
 -1      3786-7.70002E+00 6.29738E+01-2.65082E+01
 -1      3787-9.17864E-01 1.30571E+00-3.07904E-01
 -1      3788-3.46030E-01 2.15653E+00-8.46908E-01
 -1      3789 1.87750E-01 4.87720E-01-1.41506E-01
 -1      3790 6.71778E-01 6.30351E-01-8.76851E-02
 -1      3791 6.72343E-01 7.10024E-01-6.90494E-02
 -1      3792 2.50055E-01 1.31717E+00-4.98066E-01
 -1      3793 1.02578E+00 1.45573E+00-4.42083E-01
 -1      3794-1.48344E+00 4.89814E+01-2.05440E+01
 -1      3795-5.28412E+00 4.90424E+01-2.05156E+01
 -1      3796-4.59604E+00 4.97347E+01-2.07839E+01
 -1      3797-1.71715E+00 5.36583E+01-2.25061E+01
 -1      3798-5.63302E+00 5.37181E+01-2.24776E+01
 -1      3799 1.48961E+00 4.89984E+01-2.05511E+01
 -1      3800 5.29740E+00 4.90438E+01-2.05162E+01
 -1      3801 4.62051E+00 4.97574E+01-2.07930E+01
 -1      3802 1.72469E+00 5.36876E+01-2.25183E+01
 -1      3803 5.64818E+00 5.37314E+01-2.24832E+01
 -1      3804 1.40168E+01 1.80735E+02-7.59030E+01
 -1      3805 1.60783E+00 1.29963E+02-5.45812E+01
 -1      3806 6.37613E+00 1.29971E+02-5.45777E+01
 -1      3807 5.69382E+00 1.29964E+02-5.45709E+01
 -1      3808 2.05553E+00 1.34743E+02-5.65885E+01
 -1      3809 6.83674E+00 1.34750E+02-5.65854E+01
 -1      3810 2.74092E+00 1.34748E+02-5.65912E+01
 -1      3811-1.60791E+00 1.29964E+02-5.45814E+01
 -1      3812-6.37621E+00 1.29972E+02-5.45781E+01
 -1      3813-5.69389E+00 1.29964E+02-5.45713E+01
 -1      3814-2.05559E+00 1.34744E+02-5.65887E+01
 -1      3815-6.83681E+00 1.34751E+02-5.65859E+01
 -1      3816-2.74103E+00 1.34749E+02-5.65915E+01
 -1      3817 1.73354E+00 9.07877E+01-3.81178E+01
 -1      3818 7.65529E+00 9.81462E+01-4.11963E+01
 -1      3819 7.57568E+00 9.26961E+01-3.89036E+01
 -1      3820 6.30335E+00 9.45526E+01-3.96777E+01
 -1      3821 6.25477E+00 9.08175E+01-3.81056E+01
 -1      3822-1.14883E+00 2.08116E+00-6.33948E-01
 -1      3823-1.32184E+00 2.30304E+00-7.92652E-01
 -1      3824 7.95740E+00 3.00441E+01-1.26615E+01
 -1      3825 6.64281E+00 2.99514E+01-1.27008E+01
 -1      3826 4.49626E+00 2.99717E+01-1.26208E+01
 -1      3827-4.82770E+00 3.41793E+01-1.42419E+01
 -1      3828-1.44375E+00 3.40929E+01-1.42778E+01
 -1      3829-1.93128E+00 3.41597E+01-1.43160E+01
 -1      3830 7.97808E+00 1.68007E+02-7.05634E+01
 -1      3831 7.98313E+00 1.62332E+02-6.81794E+01
 -1      3832 1.42771E+00 1.68009E+02-7.05627E+01
 -1      3833 1.42858E+00 1.62334E+02-6.81792E+01
 -1      3834 7.59330E-01 1.00479E+01-4.16896E+00
 -1      3835 6.70518E-01 7.71445E+00-3.18615E+00
 -1      3836 3.23574E+00 9.39890E+00-3.82487E+00
 -1      3837 2.78618E+00 1.01675E+01-4.11665E+00
 -1      3838 2.84562E+00 7.16836E+00-2.88205E+00
 -1      3839 1.39069E+01 1.26084E+02-5.29702E+01
 -1      3840 1.38676E+01 1.22200E+02-5.13415E+01
 -1      3841 9.82660E+00 1.21318E+02-5.09692E+01
 -1      3842 1.17641E+01 1.21331E+02-5.09637E+01
 -1      3843-5.71405E+00 1.37776E+02-5.78570E+01
 -1      3844-5.70487E+00 1.33868E+02-5.62130E+01
 -1      3845-6.84663E+00 1.38659E+02-5.82294E+01
 -1      3846-2.05892E+00 1.38654E+02-5.82316E+01
 -1      3847 5.70480E+00 1.33867E+02-5.62126E+01
 -1      3848 2.05885E+00 1.38653E+02-5.82313E+01
 -1      3849 5.71398E+00 1.37776E+02-5.78565E+01
 -1      3850 6.84656E+00 1.38659E+02-5.82289E+01
 -1      3851-3.92941E+00 3.19691E+01-1.32890E+01
 -1      3852-4.05501E+00 3.47367E+01-1.44571E+01
 -1      3853-4.67653E+00 3.14341E+01-1.30832E+01
 -1      3854-1.39810E+00 3.13436E+01-1.31217E+01
 -1      3855 9.30046E+00 2.94348E+01-1.25063E+01
 -1      3856 9.62077E+00 3.21096E+01-1.36237E+01
 -1      3857 8.22598E+00 3.27379E+01-1.37914E+01
 -1      3858 6.86729E+00 3.26499E+01-1.38285E+01
 -1      3859-7.95441E+00 3.00417E+01-1.26611E+01
 -1      3860-6.69210E+00 2.99458E+01-1.26993E+01
 -1      3861-4.49179E+00 2.99706E+01-1.26210E+01
 -1      3862 4.82842E+00 3.41707E+01-1.42380E+01
 -1      3863 1.46643E+00 3.40716E+01-1.42680E+01
 -1      3864 1.92698E+00 3.41509E+01-1.43123E+01
 -1      3865-9.34887E+00 2.94280E+01-1.25040E+01
 -1      3866-6.91466E+00 3.26400E+01-1.38251E+01
 -1      3867 4.07631E+00 3.47239E+01-1.44507E+01
 -1      3868 4.67704E+00 3.14257E+01-1.30794E+01
 -1      3869-1.04840E+01 6.72266E+01-2.82589E+01
 -1      3870-8.80591E+00 6.72009E+01-2.82903E+01
 -1      3871-5.91812E+00 6.71939E+01-2.82391E+01
 -1      3872-1.24704E+01 6.99394E+01-2.94481E+01
 -1      3873-1.23086E+01 6.64404E+01-2.79840E+01
 -1      3874-8.86599E+00 7.06887E+01-2.97504E+01
 -1      3875-1.06168E+01 7.07354E+01-2.97309E+01
 -1      3876-9.67085E+00 3.21026E+01-1.36213E+01
 -1      3877-8.22297E+00 3.27355E+01-1.37910E+01
 -1      3878 9.35686E+00 6.30054E+01-2.64806E+01
 -1      3879 7.68888E+00 6.29573E+01-2.65009E+01
 -1      3880 1.21774E+01 6.30052E+01-2.65458E+01
 -1      3881 1.04930E+01 6.72327E+01-2.82615E+01
 -1      3882 8.79255E+00 6.71829E+01-2.82822E+01
 -1      3883 5.92406E+00 6.71928E+01-2.82383E+01
 -1      3884-4.68838E+00 5.29404E+01-2.21353E+01
 -1      3885-5.73648E+00 5.69955E+01-2.38592E+01
 -1      3886 5.84444E-01 9.21410E+00-3.90545E+00
 -1      3887 1.31402E+00 9.26587E+01-3.89243E+01
 -1      3888 1.30519E+00 9.83139E+01-4.12982E+01
 -1      3889-4.76640E+00 5.61997E+01-2.35096E+01
 -1      3890-1.73911E+00 5.69317E+01-2.38825E+01
 -1      3891 4.71875E+00 5.29562E+01-2.21416E+01
 -1      3892 5.75748E+00 5.70016E+01-2.38617E+01
 -1      3893 1.25026E+01 6.99381E+01-2.94475E+01
 -1      3894 1.23524E+01 6.64476E+01-2.79865E+01
 -1      3895 1.06280E+01 7.07335E+01-2.97299E+01
 -1      3896 8.89059E+00 7.06870E+01-2.97496E+01
 -1      3897 3.94164E+00 3.19545E+01-1.32822E+01
 -1      3898 1.41158E+00 3.13208E+01-1.31116E+01
 -1      3899-4.47302E+00 1.30907E+02-5.49792E+01
 -1      3900-7.74085E+00 1.31925E+02-5.54014E+01
 -1      3901 1.62298E+00 1.31914E+02-5.54059E+01
 -1      3902 7.74079E+00 1.31925E+02-5.54010E+01
 -1      3903-2.18032E+00 1.30904E+02-5.49805E+01
 -1      3904-1.62304E+00 1.31914E+02-5.54058E+01
 -1      3905 5.16183E-01 6.97113E+00-2.96544E+00
 -1      3906-1.34487E+01 9.55237E+01-4.01623E+01
 -1      3907-1.33409E+01 9.15797E+01-3.85103E+01
 -1      3908-8.61807E+00 9.12208E+01-3.83474E+01
 -1      3909-1.04184E+01 9.13501E+01-3.83778E+01
 -1      3910-8.68858E+00 9.51641E+01-4.00004E+01
 -1      3911 1.10679E+01 1.09700E+02-4.60804E+01
 -1      3912 1.13151E+01 1.04477E+02-4.38891E+01
 -1      3913-2.50657E+00 1.07172E+01-4.61303E+00
 -1      3914-3.14852E+00 1.21004E+01-5.12940E+00
 -1      3915 1.04710E+01 8.15190E+01-3.42524E+01
 -1      3916 1.14227E+01 8.68037E+01-3.64735E+01
 -1      3917-1.25258E+00 6.37812E+01-2.67946E+01
 -1      3918-4.87425E+00 6.46548E+01-2.71991E+01
 -1      3919 9.15369E+00 1.09682E+02-4.60880E+01
 -1      3920 9.41365E+00 1.04455E+02-4.38984E+01
 -1      3921 1.25760E+00 6.37712E+01-2.67904E+01
 -1      3922 4.88854E+00 6.46480E+01-2.71959E+01
 -1      3923 8.66988E+00 8.14828E+01-3.42678E+01
 -1      3924 9.59483E+00 8.67691E+01-3.64885E+01
 -1      3925 4.78899E+00 5.62256E+01-2.35203E+01
 -1      3926 1.73839E+00 5.69717E+01-2.38992E+01
 -1      3927-3.63179E+00 6.37908E+01-2.67823E+01
 -1      3928-8.21631E+00 6.47190E+01-2.71661E+01
 -1      3929-4.17150E+00 1.08938E+01-4.53884E+00
 -1      3930-5.61267E+00 1.01397E+02-4.26067E+01
 -1      3931-6.73179E+00 1.04168E+02-4.37580E+01
 -1      3932 3.63721E+00 6.38008E+01-2.67862E+01
 -1      3933 8.22890E+00 6.47190E+01-2.71660E+01
 -1      3934 9.08870E-01 1.31323E+00-3.13986E-01
 -1      3935 1.29013E+00 2.24641E+00-7.73994E-01
 -1      3936 5.66137E+00 1.88734E+02-7.92711E+01
 -1      3937 6.40169E+00 1.84574E+02-7.75230E+01
 -1      3938 1.16480E+00 2.09974E+00-6.39256E-01
 -1      3939 3.35923E-01 2.11053E+00-8.28928E-01
 -1      3940 2.77579E+00 3.47119E+00-1.51886E+00
 -1      3941 3.46392E+00 5.01749E+00-2.17205E+00
 -1      3942 5.76713E+00 1.84645E+02-7.75544E+01
 -1      3943 1.69649E+00 1.84520E+02-7.74986E+01
 -1      3944-7.16467E+00 3.13806E+01-1.31580E+01
 -1      3945-6.15260E+00 2.81337E+01-1.17881E+01
 -1      3946-2.90304E+00 2.87893E+01-1.20693E+01
 -1      3947-5.51257E+00 3.01418E+01-1.25615E+01
 -1      3948-3.77561E+00 3.20639E+01-1.34449E+01
 -1      3949 5.73042E+00 1.53435E+02-6.44411E+01
 -1      3950-5.73048E+00 1.53436E+02-6.44416E+01
 -1      3951-7.39747E+00 3.41177E+01-1.43087E+01
 -1      3952-3.60409E+00 3.54554E+01-1.48812E+01
 -1      3953-5.59011E+00 3.62624E+01-1.51598E+01
 -1      3954-5.69799E+00 3.28419E+01-1.36998E+01
 -1      3955 5.69846E+00 3.28335E+01-1.36959E+01
 -1      3956 5.58480E+00 3.62622E+01-1.51593E+01
 -1      3957 3.60187E+00 3.54576E+01-1.48818E+01
 -1      3958 7.40050E+00 3.41201E+01-1.43092E+01
 -1      3959 3.77915E+00 3.20577E+01-1.34420E+01
 -1      3960 3.64835E+00 2.80036E+01-1.18412E+01
 -1      3961 8.04256E-01 2.87477E+01-1.20852E+01
 -1      3962 7.99510E-01 2.99988E+01-1.26215E+01
 -1      3963 4.54989E+00 3.12425E+01-1.32176E+01
 -1      3964 1.58761E+00 3.20137E+01-1.34675E+01
 -1      3965 8.26288E-01 3.27050E+01-1.37572E+01
 -1      3966 1.17455E+00 3.61491E+01-1.52072E+01
 -1      3967 4.69811E+00 3.39861E+01-1.43655E+01
 -1      3968 1.96618E+00 3.54222E+01-1.48968E+01
 -1      3969 5.51295E+00 3.01336E+01-1.25578E+01
 -1      3970 2.90536E+00 2.87798E+01-1.20649E+01
 -1      3971 6.15417E+00 2.81324E+01-1.17868E+01
 -1      3972 7.16760E+00 3.13828E+01-1.31584E+01
 -1      3973 2.29735E+00 3.32763E+00-1.57666E+00
 -1      3974 2.88568E+00 4.87307E+00-2.22938E+00
 -1      3975-1.19907E+00 3.61379E+01-1.52030E+01
 -1      3976-1.96845E+00 3.54197E+01-1.48960E+01
 -1      3977-4.71356E+00 3.39730E+01-1.43606E+01
 -1      3978-8.43748E-01 3.26859E+01-1.37496E+01
 -1      3979-1.58360E+00 3.20030E+01-1.34631E+01
 -1      3980 1.02754E+01 9.23673E+01-3.87861E+01
 -1      3981 1.03040E+01 1.68660E+02-7.08364E+01
 -1      3982 6.46229E+00 1.68663E+02-7.08356E+01
 -1      3983 2.32567E+00 1.71494E+02-7.20263E+01
 -1      3984-4.56927E+00 3.12135E+01-1.32061E+01
 -1      3985-3.66821E+00 2.79789E+01-1.18316E+01
 -1      3986-8.21566E-01 2.99640E+01-1.26075E+01
 -1      3987-8.01507E-01 2.87409E+01-1.20824E+01
 -1      3988 5.77889E+00 1.80739E+02-7.59138E+01
 -1      3989 1.38290E+00 3.00348E+00-1.02439E+00
 -1      3990-1.40084E+01 1.72981E+02-7.26476E+01
 -1      3991 4.21951E+00 9.71867E+00-4.04913E+00
 -1      3992-6.24751E+00 1.16062E+01-5.06911E+00
 -1      3993-4.93408E+00 1.17751E+01-4.99112E+00
 -1      3994-6.70366E+00 1.34372E+01-5.83180E+00
 -1      3995-4.07296E+00 1.16468E+01-5.03349E+00
 -1      3996-1.40302E+01 1.57350E+02-6.60861E+01
 -1      3997-9.32285E+00 1.01430E+02-4.25921E+01
 -1      3998-3.97267E+00 1.86275E+02-7.82353E+01
 -1      3999 2.63783E+00 9.52641E+00-4.13250E+00
 -1      4000-1.36407E+01 1.06787E+02-4.48822E+01
 -1      4001-1.06702E+01 1.03328E+02-4.34045E+01
 -1      4002-8.77267E+00 1.03307E+02-4.34135E+01
 -1      4003-9.68292E+00 1.07629E+02-4.52302E+01
 -1      4004-1.15927E+01 1.07650E+02-4.52218E+01
 -1      4005-4.38457E+00 5.47767E+00-2.52292E+00
 -1      4006-1.35040E+00 1.16752E+01-4.91277E+00
 -1      4007-1.23442E-02 8.19224E-02-3.68347E-02
 -1      4008-6.69308E+00 1.21172E+02-5.09058E+01
 -1      4009-7.24218E+00 1.20174E+02-5.04781E+01
 -1      4010-6.03339E+00 1.17299E+02-4.92791E+01
 -1      4011-1.17216E+00 1.20386E+02-5.05649E+01
 -1      4012-1.72311E+00 1.19387E+02-5.01444E+01
 -1      4013-2.36843E+00 1.23266E+02-5.17741E+01
 -1      4014-6.84586E+00 1.94487E+02-8.16861E+01
 -1      4015-6.18513E+00 1.90610E+02-8.00582E+01
 -1      4016-1.14796E+00 1.33872E+02-5.62252E+01
 -1      4017 1.14786E+00 1.33872E+02-5.62251E+01
 -1      4018-2.93657E+00 1.03309E+02-4.33910E+01
 -1      4019 2.47352E+00 6.64085E+01-2.78945E+01
 -1      4020-2.47072E+00 6.64084E+01-2.78946E+01
 -1      4021-1.36261E+01 1.03080E+02-4.33286E+01
 -1      4022-8.77884E+00 9.96171E+01-4.18663E+01
 -1      4023-5.74907E+00 1.39009E+01-5.89598E+00
 -1      4024-4.81970E+00 1.37657E+01-5.94023E+00
 -1      4025-9.81915E+00 1.17321E+02-4.92701E+01
 -1      4026-1.04926E+01 1.21193E+02-5.08973E+01
 -1      4027-8.12191E+00 1.20110E+02-5.04313E+01
 -1      4028-5.53116E+00 1.22975E+02-5.16459E+01
 -1      4029-4.87552E+00 1.19097E+02-5.00166E+01
 -1      4030-1.35420E+01 9.92901E+01-4.17405E+01
 -1      4031-1.06046E+01 9.95366E+01-4.18128E+01
 -1      4032 1.42671E+00 1.71914E+02-7.22025E+01
 -1      4033-1.32288E+01 8.78697E+01-3.69563E+01
 -1      4034-1.37348E+00 2.99535E+00-1.02219E+00
 -1      4035-1.05237E+01 1.25074E+02-5.25280E+01
 -1      4036-5.10436E+00 1.27011E+02-5.33429E+01
 -1      4037-7.72432E+00 1.28028E+02-5.37629E+01
 -1      4038-8.14692E+00 1.23989E+02-5.20628E+01
 -1      4039-2.69602E+00 3.26569E+01-1.37266E+01
 -1      4040-1.86466E+00 2.93640E+01-1.23388E+01
 -1      4041-1.08463E+00 3.14241E+01-1.31872E+01
 -1      4042 1.08966E+00 3.14158E+01-1.31836E+01
 -1      4043 8.11505E-01 3.48014E+01-1.46111E+01
 -1      4044 2.70308E+00 3.26592E+01-1.37274E+01
 -1      4045-8.12412E-01 3.48015E+01-1.46111E+01
 -1      4046 1.87035E+00 2.93627E+01-1.23380E+01
 -1      4047 4.98819E+00 1.17449E+02-4.93259E+01
 -1      4048 1.03992E+01 1.19394E+02-5.01410E+01
 -1      4049 7.65329E+00 1.16389E+02-4.88699E+01
 -1      4050 2.71106E+00 1.18460E+02-4.97475E+01
 -1      4051 8.12396E+00 1.20407E+02-5.05560E+01
 -1      4052 5.44662E+00 9.16330E+01-3.84381E+01
 -1      4053 1.35039E+01 9.91873E+01-4.16971E+01
 -1      4054 1.02550E+00 5.85968E+01-2.46248E+01
 -1      4055 1.03902E+00 6.03187E+01-2.53402E+01
 -1      4056 4.82640E+00 6.12315E+01-2.57640E+01
 -1      4057 5.66451E+00 5.77531E+01-2.43188E+01
 -1      4058 5.72217E+00 5.94679E+01-2.49967E+01
 -1      4059 3.77457E+00 6.03528E+01-2.53345E+01
 -1      4060 6.97667E+00 5.86975E+01-2.45909E+01
 -1      4061 8.10701E+00 6.13070E+01-2.57321E+01
 -1      4062 8.89092E+00 5.78446E+01-2.42802E+01
 -1      4063 2.36510E+00 9.67734E+00-3.86353E+00
 -1      4064-6.71304E+00 1.25057E+02-5.25350E+01
 -1      4065-1.17558E+00 1.24269E+02-5.21954E+01
 -1      4066-1.61972E+00 1.28014E+02-5.37683E+01
 -1      4067-2.81698E+00 1.27007E+02-5.33447E+01
 -1      4068-2.15410E+00 1.15373E+02-4.84590E+01
 -1      4069-1.60517E+00 1.16368E+02-4.88787E+01
 -1      4070-1.05318E+01 9.57688E+01-4.02310E+01
 -1      4071 6.60548E+00 1.19373E+02-5.01504E+01
 -1      4072 2.71836E+00 1.17442E+02-4.93287E+01
 -1      4073 1.60512E+00 1.16369E+02-4.88789E+01
 -1      4074 1.17182E+00 1.20089E+02-5.04399E+01
 -1      4075-2.71048E+00 1.18163E+02-4.96228E+01
 -1      4076-2.04510E+00 1.25917E+02-5.28796E+01
 -1      4077-6.80437E+00 1.25927E+02-5.28752E+01
 -1      4078-5.38849E+00 1.23975E+02-5.20531E+01
 -1      4079 6.76452E+00 1.18463E+02-4.97354E+01
 -1      4080 2.03250E+00 1.18449E+02-4.97414E+01
 -1      4081 5.37313E+00 1.20390E+02-5.05450E+01
 -1      4082-6.60758E+00 1.73863E+02-7.30245E+01
 -1      4083-6.84505E+00 1.78777E+02-7.50893E+01
 -1      4084-1.81995E+00 1.73865E+02-7.30236E+01
 -1      4085-2.06201E+00 1.78780E+02-7.50882E+01
 -1      4086-6.78489E+00 1.22042E+02-5.12408E+01
 -1      4087-2.03912E+00 1.22029E+02-5.12460E+01
 -1      4088 6.78644E+00 1.22339E+02-5.13657E+01
 -1      4089 2.03957E+00 1.22327E+02-5.13710E+01
 -1      4090 5.01426E+00 1.01902E+02-4.27684E+01
 -1      4091 5.20006E+00 1.58421E+02-6.65365E+01
 -1      4092-5.20012E+00 1.58421E+02-6.65370E+01
 -1      4093 4.89015E+00 8.89369E+01-3.73117E+01
 -1      4094 5.19297E+00 1.71913E+02-7.22058E+01
 -1      4095-5.71807E+00 1.76885E+02-7.42953E+01
 -1      4096-5.19303E+00 1.71914E+02-7.22062E+01
 -1      4097 2.27054E+00 1.09409E+01-4.43370E+00
 -1      4098 1.01337E+01 5.95130E+01-2.50229E+01
 -1      4099 8.49154E+00 5.94562E+01-2.50468E+01
 -1      4100 1.12228E+01 5.78414E+01-2.43754E+01
 -1      4101-5.16449E+00 2.74907E+01-1.14554E+01
 -1      4102-1.93072E+00 2.81277E+01-1.17742E+01
 -1      4103 9.96435E+00 5.61914E+01-2.36297E+01
 -1      4104 8.36065E+00 5.61314E+01-2.36549E+01
 -1      4105-2.26769E+00 1.09411E+01-4.43418E+00
 -1      4106 1.66824E+00 5.63083E+00-2.18451E+00
 -1      4107-5.25767E+00 1.69514E+01-7.08851E+00
 -1      4108-3.76135E+00 1.62963E+01-6.89234E+00
 -1      4109-6.00921E+00 1.13438E+02-4.76597E+01
 -1      4110-7.10865E+00 1.12391E+02-4.72110E+01
 -1      4111-7.98877E+00 1.44588E+02-6.07234E+01
 -1      4112-2.96251E+00 1.43508E+02-6.02712E+01
 -1      4113 1.41645E+00 1.44583E+02-6.07254E+01
 -1      4114 7.98870E+00 1.44588E+02-6.07230E+01
 -1      4115 2.96244E+00 1.43508E+02-6.02709E+01
 -1      4116-1.41652E+00 1.44583E+02-6.07252E+01
 -1      4117 9.80088E+00 1.15470E+02-4.84919E+01
 -1      4118 7.14027E+00 1.16522E+02-4.89447E+01
 -1      4119-9.77992E+00 1.13463E+02-4.76494E+01
 -1      4120-4.41934E+00 1.15379E+02-4.84565E+01
 -1      4121 6.02203E+00 1.15447E+02-4.85018E+01
 -1      4122 7.21314E+00 3.69765E+01-1.55072E+01
 -1      4123 5.20326E+00 3.61345E+01-1.52110E+01
 -1      4124-7.21454E+00 3.69783E+01-1.55082E+01
 -1      4125-5.20155E+00 3.61339E+01-1.52110E+01
 -1      4126-3.94945E+00 1.23121E+02-5.17117E+01
 -1      4127-3.29900E+00 1.19243E+02-5.00825E+01
 -1      4128 5.16390E+00 2.74804E+01-1.14506E+01
 -1      4129 1.93139E+00 2.81093E+01-1.17663E+01
 -1      4130 9.19725E-01 2.73516E+01-1.15137E+01
 -1      4131 4.42975E+00 3.68567E+01-1.55576E+01
 -1      4132-9.90680E+00 1.28964E+02-5.41619E+01
 -1      4133-7.28372E+00 1.27944E+02-5.37400E+01
 -1      4134-6.08755E+00 1.28951E+02-5.41675E+01
 -1      4135-5.56704E+00 7.60452E+01-3.19789E+01
 -1      4136-6.57050E+00 7.50932E+01-3.15568E+01
 -1      4137 5.56696E+00 7.60456E+01-3.19788E+01
 -1      4138 6.57230E+00 7.50922E+01-3.15561E+01
 -1      4139-2.89477E+00 2.95509E+00-1.43260E+00
 -1      4140-9.06209E+00 7.61071E+01-3.19530E+01
 -1      4141 9.06195E+00 7.61072E+01-3.19527E+01
 -1      4142 3.87419E+00 4.29141E+00-2.02958E+00
 -1      4143 2.88815E+00 2.95102E+00-1.43392E+00
 -1      4144-3.23444E+00 1.67863E+01-7.15805E+00
 -1      4145-4.12463E+00 4.74263E+01-1.98292E+01
 -1      4146 5.20951E+00 1.48500E+02-6.23667E+01
 -1      4147-5.20957E+00 1.48501E+02-6.23672E+01
 -1      4148-1.26964E+01 1.32861E+02-5.58108E+01
 -1      4149-1.38677E+01 1.22199E+02-5.13421E+01
 -1      4150-1.25574E+01 1.17317E+02-4.92915E+01
 -1      4151-1.11817E+01 1.19254E+02-5.00917E+01
 -1      4152-9.24830E+00 1.19241E+02-5.00972E+01
 -1      4153 1.26964E+01 1.32862E+02-5.58103E+01
 -1      4154 1.36406E+01 1.06788E+02-4.48816E+01
 -1      4155 1.24811E+01 1.11615E+02-4.68999E+01
 -1      4156 7.07806E+00 1.90813E+01-8.15443E+00
 -1      4157-1.17190E+01 7.96960E+01-3.35226E+01
 -1      4158-3.23527E+00 2.48534E+01-1.03106E+01
 -1      4159 9.48140E+00 3.98609E+01-1.68423E+01
 -1      4160 1.24114E+00 6.20274E+01-2.60664E+01
 -1      4161-2.54821E+00 6.11318E+01-2.56517E+01
 -1      4162 1.30646E+01 8.42904E+01-3.54566E+01
 -1      4163 1.17188E+01 7.96963E+01-3.35222E+01
 -1      4164 1.17982E+01 5.63018E+01-2.37413E+01
 -1      4165-4.45009E+00 3.68476E+01-1.55542E+01
 -1      4166 4.12247E+00 4.74242E+01-1.98282E+01
 -1      4167-6.87340E+00 6.21067E+01-2.60326E+01
 -1      4168 6.89524E+00 6.21171E+01-2.60369E+01
 -1      4169 2.54855E+00 6.11521E+01-2.56601E+01
 -1      4170-1.66567E+00 5.62863E+00-2.18397E+00
 -1      4171-9.41676E-01 2.73154E+01-1.14992E+01
 -1      4172-1.24714E+00 6.20840E+01-2.60902E+01
 -1      4173-9.48290E+00 3.98625E+01-1.68433E+01
 -1      4174-7.07883E+00 1.90820E+01-8.15512E+00
 -1      4175 4.55697E+00 6.54876E+01-2.74382E+01
 -1      4176 3.23487E+00 2.48431E+01-1.03059E+01
 -1      4177-4.55573E+00 6.54777E+01-2.74343E+01
 -1      4178 6.62669E+00 1.46544E+02-6.15445E+01
 -1      4179 1.83164E+00 1.46541E+02-6.15457E+01
 -1      4180-1.83170E+00 1.46542E+02-6.15459E+01
 -1      4181-1.11402E+01 1.15390E+02-4.84695E+01
 -1      4182-6.62676E+00 1.46544E+02-6.15449E+01
 -1      4183-9.21380E+00 1.15375E+02-4.84759E+01
 -1      4184-9.32505E+00 1.30905E+02-5.49894E+01
 -1      4185-1.12741E+01 1.30913E+02-5.49860E+01
 -1      4186 1.11181E+01 1.13542E+02-4.76934E+01
 -1      4187 9.19535E+00 1.13526E+02-4.77002E+01
 -1      4188-1.03593E+01 7.79009E+01-3.27344E+01
 -1      4189-8.56641E+00 7.78619E+01-3.27508E+01
 -1      4190-4.20300E+00 2.61729E+01-1.08752E+01
 -1      4191-1.15365E+00 2.60800E+01-1.09142E+01
 -1      4192 6.87286E+00 3.83405E+01-1.61995E+01
 -1      4193 8.31381E+00 3.84173E+01-1.61671E+01
 -1      4194 1.03592E+01 7.79011E+01-3.27341E+01
 -1      4195-6.13449E+00 1.80148E+01-7.61094E+00
 -1      4196-8.31526E+00 3.84191E+01-1.61681E+01
 -1      4197 8.56638E+00 7.78622E+01-3.27506E+01
 -1      4198 1.60985E+00 6.37595E+01-2.67570E+01
 -1      4199-5.66440E+00 1.22181E+02-5.12966E+01
 -1      4200 5.66432E+00 1.22180E+02-5.12962E+01
 -1      4201-7.65334E+00 1.16389E+02-4.88702E+01
 -1      4202-5.73553E+00 6.37861E+01-2.67260E+01
 -1      4203 4.20251E+00 2.61626E+01-1.08705E+01
 -1      4204-6.91193E+00 3.83334E+01-1.61970E+01
 -1      4205 1.16679E+00 2.60695E+01-1.09093E+01
 -1      4206-5.10302E+00 1.79000E+01-7.65244E+00
 -1      4207-1.61743E+00 6.37290E+01-2.67441E+01
 -1      4208 5.74374E+00 6.37891E+01-2.67271E+01
 -1      4209 1.65489E-03 2.67728E+01-1.12445E+01
 -1      4210 8.98901E-01 2.87168E+01-1.20524E+01
 -1      4211-2.52532E-03 1.74001E+01-7.30792E+00
 -1      4212-4.82127E-06 1.45605E+02-6.11534E+01
 -1      4213-1.36485E+00 1.42629E+02-5.99033E+01
 -1      4214 1.36479E+00 1.42629E+02-5.99032E+01
 -1      4215 7.87878E-05 1.14451E+02-4.80687E+01
 -1      4216 1.13568E+00 1.18313E+02-4.96900E+01
 -1      4217-1.13566E+00 1.18314E+02-4.96900E+01
 -1      4218 3.29317E+00 1.17387E+02-4.93033E+01
 -1      4219-3.27211E+00 1.11524E+02-4.68412E+01
 -1      4220 7.66319E-06 1.29971E+02-5.45870E+01
 -1      4221-3.31894E+00 1.27009E+02-5.33441E+01
 -1      4222-1.71062E+00 1.58151E+01-6.65221E+00
 -1      4223-8.94867E-01 2.87273E+01-1.20569E+01
 -1      4224-2.14696E-04 7.70022E+01-3.23404E+01
 -1      4225-3.01947E+00 7.42851E+01-3.12031E+01
 -1      4226 3.01821E+00 7.42852E+01-3.12030E+01
 -1      4227 5.72561E+00 1.45603E+02-6.11481E+01
 -1      4228-1.37689E+01 1.14464E+02-4.80995E+01
 -1      4229-5.72568E+00 1.45604E+02-6.11486E+01
 -1      4230-1.39402E+01 1.29977E+02-5.46034E+01
 -1      4231 1.37688E+01 1.14464E+02-4.80989E+01
 -1      4232-5.43750E+00 8.78172E+01-3.68308E+01
 -1      4233-3.66317E+00 2.66965E+01-1.10624E+01
 -1      4234-1.27829E+01 7.70353E+01-3.24190E+01
 -1      4235 1.02202E+01 3.77163E+01-1.59669E+01
 -1      4236-5.30600E-03 3.76514E+01-1.58134E+01
 -1      4237 2.38329E+00 3.54831E+01-1.49100E+01
 -1      4238 3.78437E-03 6.29605E+01-2.64431E+01
 -1      4239 2.39680E+00 5.95686E+01-2.50220E+01
 -1      4240 1.17118E+00 6.03826E+01-2.53553E+01
 -1      4241-2.38023E+00 3.54848E+01-1.49108E+01
 -1      4242 1.27827E+01 7.70357E+01-3.24186E+01
 -1      4243-1.02576E+01 3.77078E+01-1.59638E+01
 -1      4244-7.53087E+00 1.74819E+01-7.51716E+00
 -1      4245-1.17000E+00 6.03726E+01-2.53514E+01
 -1      4246 7.40208E-03 4.97745E+01-2.09051E+01
 -1      4247 4.95545E+00 6.29259E+01-2.63445E+01
 -1      4248-4.95702E+00 6.29124E+01-2.63389E+01
 -1      4249 3.67651E+00 2.66964E+01-1.10615E+01
 -1      4250 6.80566E+00 1.26226E+02-5.30003E+01
 -1      4251 5.38960E+00 1.24273E+02-5.21782E+01
 -1      4252 2.04546E+00 1.26215E+02-5.30049E+01
 -1      4253-2.03190E+00 1.18152E+02-4.96168E+01
 -1      4254-5.37185E+00 1.20093E+02-5.04202E+01
 -1      4255-6.76260E+00 1.18167E+02-4.96108E+01
 -1      4256 9.77737E+00 5.29324E+01-2.22624E+01
 -1      4257 1.10205E+01 5.45470E+01-2.29963E+01
 -1      4258 8.20121E+00 5.28691E+01-2.22892E+01
 -1      4259-8.18321E+00 1.84407E+02-7.74528E+01
 -1      4260-2.52558E+00 1.84567E+02-7.75186E+01
 -1      4261-5.07707E+00 1.02109E+02-4.28550E+01
 -1      4262 6.27809E+00 1.99139E+02-8.36395E+01
 -1      4263 5.23120E+00 1.95942E+02-8.22973E+01
 -1      4264 6.20430E+00 1.97452E+02-8.29303E+01
 -1      4265 2.88292E+00 1.97472E+02-8.29381E+01
 -1      4266 1.21328E+00 2.01326E+02-8.45549E+01
 -1      4267 3.82811E+00 1.99922E+02-8.39669E+01
 -1      4268-1.21932E+00 5.58689E-01-4.93956E-01
 -1      4269-7.99180E-01 3.40122E-01-3.47918E-01
 -1      4270-6.78370E-01 3.13726E-01-3.00467E-01
 -1      4271-7.62315E-01 4.17407E-01-2.43408E-01
 -1      4272 3.35494E-01 6.01724E+00-2.52827E+00
 -1      4273 1.04452E+00 1.59304E+02-6.69070E+01
 -1      4274 1.04356E+00 1.71025E+02-7.18297E+01
 -1      4275 4.40043E-01 1.06262E+01-4.46385E+00
 -1      4276-1.49714E+01 1.95957E+02-8.22988E+01
 -1      4277-1.54158E+01 1.99117E+02-8.36264E+01
 -1      4278-1.20153E+01 1.97577E+02-8.29807E+01
 -1      4279-1.06663E+01 1.97578E+02-8.29805E+01
 -1      4280-6.81306E+00 1.82630E+02-7.67073E+01
 -1      4281-6.14636E+00 1.86524E+02-7.83423E+01
 -1      4282 9.82203E-01 8.97964E+01-3.77143E+01
 -1      4283 7.22152E+00 2.01587E+02-8.46672E+01
 -1      4284 8.31987E+00 2.01206E+02-8.45074E+01
 -1      4285 1.00403E+00 1.01060E+02-4.24448E+01
 -1      4286-1.53860E-02 2.31074E+00-9.70520E-01
 -1      4287 1.53894E+01 1.99157E+02-8.36425E+01
 -1      4288 1.43450E+01 1.95960E+02-8.22986E+01
 -1      4289 1.20592E+01 1.97578E+02-8.29803E+01
 -1      4290 1.06995E+01 1.97579E+02-8.29802E+01
 -1      4291 8.00816E-01 3.37181E-01-3.47050E-01
 -1      4292 1.22524E+00 5.62211E-01-4.96188E-01
 -1      4293 7.71583E-01 4.19927E-01-2.49974E-01
 -1      4294 6.80381E-01 3.15527E-01-3.00239E-01
 -1      4295 3.90422E+00 2.01608E+02-8.46745E+01
 -1      4296-3.28580E-01 1.30910E-01 1.50313E-01
 -1      4297-4.46616E-01 3.26413E-01 7.03665E-02
 -1      4298-4.00292E-01 2.84164E-01 3.55859E-02
 -1      4299-1.92161E-01 1.90394E-01 8.11279E-03
 -1      4300-5.23809E+00 1.95981E+02-8.23138E+01
 -1      4301-6.30452E+00 1.99140E+02-8.36400E+01
 -1      4302-3.09255E+00 1.97667E+02-8.30203E+01
 -1      4303-6.40282E+00 1.97686E+02-8.30290E+01
 -1      4304-2.02349E+00 1.94507E+02-8.16931E+01
 -1      4305 3.51517E-01 1.93697E-01-7.80664E-02
 -1      4306 3.51454E-01 1.47851E-01-1.20916E-01
 -1      4307-1.03528E+01 2.01208E+02-8.45055E+01
 -1      4308-9.56645E+00 2.00048E+02-8.40190E+01
 -1      4309 3.25949E-01 1.28412E-01 1.48941E-01
 -1      4310 4.46697E-01 3.27181E-01 6.96946E-02
 -1      4311 4.05991E-01 2.96117E-01 2.73578E-02
 -1      4312 1.88650E-01 2.03014E-01-1.31032E-04
 -1      4313-9.91816E+00 1.23120E+02-5.17255E+01
 -1      4314-1.18583E+01 1.23132E+02-5.17205E+01
 -1      4315 3.27701E-01 1.62592E-01-1.18446E-01
 -1      4316 2.13625E-01 1.13549E-01 6.17258E-02
 -1      4317 1.44053E-01 8.90919E-02 2.25698E-02
 -1      4318-1.43158E+01 2.01587E+02-8.46651E+01
 -1      4319-1.32171E+01 2.01206E+02-8.45060E+01
 -1      4320-1.29684E+01 2.01588E+02-8.46651E+01
 -1      4321-2.40808E-01 4.16662E-02-1.36785E-01
 -1      4322 2.58063E-01 4.01405E-02-1.47721E-01
 -1      4323 2.95075E-01 8.34783E-02-1.57750E-01
 -1      4324 1.31396E+01 2.01606E+02-8.46735E+01
 -1      4325-2.93188E-01 8.37465E-02-1.55559E-01
 -1      4326-3.41584E-01 1.45788E-01-1.19110E-01
 -1      4327 1.62826E-01 6.83983E-02 8.17137E-02
 -1      4328 2.83828E-02-1.62626E-02 2.23925E-02
 -1      4329 9.02042E-02-6.98709E-05 6.19282E-02
 -1      4330 5.43319E+00 1.40611E+02-5.90495E+01
 -1      4331 2.06146E+00 1.42566E+02-5.98755E+01
 -1      4332 6.85406E+00 1.42571E+02-5.98737E+01
 -1      4333-2.06152E+00 1.42567E+02-5.98758E+01
 -1      4334-6.85413E+00 1.42571E+02-5.98741E+01
 -1      4335-5.43326E+00 1.40611E+02-5.90500E+01
 -1      4336 9.79266E+00 1.17445E+02-4.93452E+01
 -1      4337 1.17236E+01 1.17460E+02-4.93389E+01
 -1      4338 1.31431E+01 1.19390E+02-5.01617E+01
 -1      4339-1.30058E+01 1.09559E+02-4.60410E+01
 -1      4340-1.16491E+01 1.11483E+02-4.68308E+01
 -1      4341-9.73018E+00 1.11465E+02-4.68383E+01
 -1      4342-1.35042E+00 2.86817E+01-1.20017E+01
 -1      4343-3.64311E+00 3.00242E+01-1.24815E+01
 -1      4344-4.51862E+00 2.87758E+01-1.19622E+01
 -1      4345-1.19581E+01 7.24871E+01-3.05078E+01
 -1      4346-1.07518E+01 7.42716E+01-3.12145E+01
 -1      4347-8.97901E+00 7.42274E+01-3.12330E+01
 -1      4348 9.35138E+00 3.40968E+01-1.44411E+01
 -1      4349 8.48347E+00 3.55183E+01-1.49573E+01
 -1      4350 7.08257E+00 3.54336E+01-1.49930E+01
 -1      4351 8.98071E+00 7.42265E+01-3.12323E+01
 -1      4352 1.19597E+01 7.24862E+01-3.05070E+01
 -1      4353 1.07535E+01 7.42706E+01-3.12137E+01
 -1      4354 1.36493E+00 2.86736E+01-1.19977E+01
 -1      4355 3.64368E+00 3.00158E+01-1.24778E+01
 -1      4356 4.51907E+00 2.87677E+01-1.19585E+01
 -1      4357 1.43081E+01 2.01607E+02-8.46729E+01
 -1      4358 9.61821E+00 2.00029E+02-8.40106E+01
 -1      4359-7.11607E+00 3.54226E+01-1.49891E+01
 -1      4360-9.34833E+00 3.40941E+01-1.44406E+01
 -1      4361-8.48038E+00 3.55158E+01-1.49568E+01
 -1      4362 1.77907E+00 6.03027E+01-2.52997E+01
 -1      4363 5.84888E+00 6.03387E+01-2.52673E+01
 -1      4364 4.60758E+00 5.86357E+01-2.45453E+01
 -1      4365 1.30777E+01 1.72564E+02-7.24723E+01
 -1      4366-6.09846E+00 1.58882E+01-6.72836E+00
 -1      4367-5.12061E+00 1.57640E+01-6.77404E+00
 -1      4368-6.63012E+00 1.48514E+01-6.40306E+00
 -1      4369 1.26525E+01 1.02570E+02-4.31097E+01
 -1      4370 1.30978E+01 1.57765E+02-6.62596E+01
 -1      4371 1.28073E+01 8.86425E+01-3.72756E+01
 -1      4372 5.77369E+00 1.13981E+01-4.95652E+00
 -1      4373-2.23213E-01 1.19395E-01 6.46146E-02
 -1      4374-1.64317E-01 6.94183E-02 8.33549E-02
 -1      4375-1.41165E-01 8.34777E-02 2.49712E-02
 -1      4376-1.31890E+00 2.01210E+02-8.45062E+01
 -1      4377-3.93439E+00 2.01589E+02-8.46666E+01
 -1      4378-4.03051E+00 2.00137E+02-8.40572E+01
 -1      4379-3.46541E-02-1.69236E-02 3.00920E-02
 -1      4380-4.60853E+00 5.86257E+01-2.45413E+01
 -1      4381-1.78868E+00 6.02722E+01-2.52868E+01
 -1      4382-5.84300E+00 6.03351E+01-2.52661E+01
 -1      4383-2.98182E-01 1.61477E-01-7.14132E-02
 -1      4384-3.19686E-01 1.54743E-01-1.16258E-01
 -1      4385 4.12004E+00 5.60573E+00-2.54603E+00
 -1      4386 1.05658E+01 2.01609E+02-8.46732E+01
 -1      4387-8.90883E-02 1.32306E-03 6.38628E-02
 -1      4388-1.18908E+01 1.27018E+02-5.33519E+01
 -1      4389-9.94551E+00 1.27008E+02-5.33561E+01
 -1      4390-1.32802E+01 1.25071E+02-5.25447E+01
 -1      4391 1.29499E+01 2.01608E+02-8.46729E+01
 -1      4392-7.36558E-01 1.84092E+02-7.73179E+01
 -1      4393-8.27719E+00 2.01606E+02-8.46760E+01
 -1      4394-7.24104E+00 2.01607E+02-8.46759E+01
 -1      4395 1.84517E+00 1.84613E+02-7.75359E+01
 -1      4396-5.68045E+00 1.92781E+02-8.09704E+01
 -1      4397-1.35936E+00 1.90631E+02-8.00650E+01
 -1      4398-2.07932E+00 1.82688E+02-7.67299E+01
 -1      4399-1.41639E+00 1.86582E+02-7.83648E+01
 -1      4400-5.42848E+00 1.80726E+02-7.59083E+01
 -1      4401-4.75983E+00 1.88508E+02-7.91759E+01
 -1      4402-5.70149E+00 1.84646E+02-7.75549E+01
 -1      4403-9.62812E+00 1.75266E+02-7.36115E+01
 -3
    1PSTEP                         8           1           2          
    1PGM                1.000000E+00                                  
    1PGK                3.906961E+07                                  
    1PHID                         -1                                  
    1PSUBC                         0                                  
    1PMODE                         2                                  
  100CL  103 994.8089209        4403                     2    3MODAL      1
 -4  STRESS      6    1
 -5  SXX         1    4    1    1
 -5  SYY         1    4    2    2
 -5  SZZ         1    4    3    3
 -5  SXY         1    4    1    2
 -5  SYZ         1    4    2    3
 -5  SZX         1    4    3    1
 -1         1 1.45134E+05 4.54655E+04 4.63355E+04 1.82616E+04-5.33839E+03-2.45239E+04
 -1         2 5.93599E+04 1.75373E+04 1.98610E+04 1.10761E+03 2.21067E+03 1.64102E+04
 -1         3-5.93321E+04-1.76409E+04-1.98758E+04 1.27207E+03-2.17696E+03 1.63755E+04
 -1         4-1.45248E+05-4.55570E+04-4.64772E+04 1.81078E+04 5.06632E+03-2.43564E+04
 -1         5-2.86013E+02 2.51449E+02 1.02613E+02-2.06965E+02-4.21994E+01 5.96502E+01
 -1         6-1.28120E+02 2.41564E+02-1.06908E+02-2.39227E+02 1.90810E+01 1.24456E+02
 -1         7 1.14221E+02-2.54968E+02 1.06069E+02-2.32054E+02-1.64166E+01 1.27555E+02
 -1         8 3.17397E+02-2.29253E+02-8.68573E+01-2.17534E+02 5.16969E+01 6.98199E+01
 -1         9 7.41673E+04 3.13491E+04 3.09920E+04 1.51391E+04-2.98389E+02 1.05177E+04
 -1        10 9.66262E+04 4.01238E+04 4.07302E+04 2.03062E+04 8.21364E+02 4.67377E+03
 -1        11 1.15886E+05 4.82442E+04 4.87802E+04 2.63176E+04 1.27434E+03-4.72458E+03
 -1        12 6.35429E+04 2.72301E+04 2.72317E+04 1.04150E+04 3.32579E-01 1.40233E+04
 -1        13 8.49013E+04 3.63833E+04 3.63852E+04 1.70101E+04 1.86610E-01 7.24759E+03
 -1        14 1.08143E+05 4.63431E+04 4.63455E+04 2.36559E+04 8.00526E-03-4.66475E+02
 -1        15 1.33615E+05 5.72591E+04 5.72615E+04 2.79537E+04 1.12591E-01-1.29911E+04
 -1        16 8.92472E+04 3.77647E+04 3.67380E+04-4.01009E+03 1.43660E+03-2.21505E+04
 -1        17 3.98085E+04 1.69282E+04 1.58431E+04-9.93095E+03 9.45462E+02-8.01435E+03
 -1        18-1.24461E+04-4.97337E+03-6.40131E+03-9.80956E+03 5.20067E+02 6.28415E+03
 -1        19 1.25003E+05 5.35709E+04 5.35691E+04 4.25050E+03 4.80739E-01-2.91571E+04
 -1        20 6.48939E+04 2.78111E+04 2.78100E+04-6.63724E+03 3.87180E-01-1.54945E+04
 -1        21 1.38906E+04 5.95319E+03 5.95240E+03-9.88748E+03 6.24203E-01-1.00744E+03
 -1        22-4.18852E+04-1.79500E+04-1.79501E+04-6.46160E+03 6.05871E-01 1.30556E+04
 -1        23-1.17025E+05-4.96956E+04-4.90165E+04 2.65435E+04 2.92129E+02-5.90981E+03
 -1        24-9.68431E+04-4.10045E+04-4.05272E+04 2.12422E+04 3.14963E+02 3.49730E+03
 -1        25-7.37166E+04-3.11451E+04-3.08789E+04 1.50837E+04 3.18406E+02 1.07405E+04
 -1        26-1.31116E+05-5.61883E+04-5.61905E+04 2.65292E+04-3.57572E-01-1.30828E+04
 -1        27-1.09326E+05-4.68500E+04-4.68524E+04 2.40757E+04-5.73106E-01-5.83714E+02
 -1        28-8.69609E+04-3.72658E+04-3.72677E+04 1.82590E+04-4.49748E-01 7.52216E+03
 -1        29-6.34513E+04-2.71908E+04-2.71924E+04 1.04291E+04-3.35884E-01 1.41300E+04
 -1        30 9.96369E+03 4.40964E+03 3.50538E+03-1.04535E+04-7.96478E+02 4.62683E+03
 -1        31-4.14527E+04-1.70942E+04-1.81744E+04-9.57225E+03-3.46471E+02-9.63754E+03
 -1        32-9.19566E+04-3.83654E+04-3.98746E+04-2.65682E+03-2.93227E+02-2.31129E+04
 -1        33 4.23342E+04 1.81427E+04 1.81426E+04-7.14035E+03-5.74475E-01 1.29335E+04
 -1        34-1.66778E+04-7.14719E+03-7.14677E+03-1.00956E+04-5.98696E-01-2.41457E+03
 -1        35-6.80940E+04-2.91819E+04-2.91807E+04-6.52310E+03-8.16273E-01-1.61720E+04
 -1        36-1.22753E+05-5.26066E+04-5.26051E+04 4.81280E+03-6.87774E-01-2.80172E+04
 -1        37-2.62892E+02 2.74995E+02-1.33255E+02-2.54182E+02 2.61063E+01 2.79171E+02
 -1        38-2.47221E+02 2.83121E+02 1.05513E+02-2.46776E+02 1.99248E+01 2.55948E+02
 -1        39-2.37108E+02 2.83728E+02 2.58489E+02-2.31233E+02-6.84837E+00 2.29734E+02
 -1        40-1.98344E+02 2.46115E+02-1.81865E+02-2.54170E+02 3.26855E+01 2.24639E+02
 -1        41-2.40979E+02 2.87819E+02-7.23160E+00-2.51415E+02 3.33717E+01 2.63232E+02
 -1        42-2.36043E+02 2.77413E+02 1.97215E+02-2.32628E+02 1.11810E+01 2.37560E+02
 -1        43-2.36690E+02 2.67616E+02 2.23316E+02-2.33601E+02-2.55592E+01 1.55802E+02
 -1        44-8.20453E+01 4.92196E+02 1.20649E+02-5.95960E+02 1.73311E+01 9.91562E+01
 -1        45-1.03095E+02 4.00426E+01 1.21600E+02-6.07866E+02 5.00312E+01 1.02742E+02
 -1        46-1.28250E+02-4.36666E+02 1.09942E+02-6.18008E+02 4.15394E+01 1.05650E+02
 -1        47-1.34086E+02 4.79034E+02 1.27516E+02-4.29205E+02 1.89440E+00 8.42287E+01
 -1        48-9.28099E+01 2.76817E+02 1.15503E+02-5.97263E+02 4.30706E+01 8.91528E+01
 -1        49-9.93714E+01-2.06094E+02 1.19089E+02-6.13410E+02 5.52371E+01 1.03846E+02
 -1        50-4.05536E+01-4.50932E+02 9.09540E+01-4.64831E+02 2.49978E+01 1.35394E+02
 -1        51 2.44299E+02-2.83185E+02-2.51174E+02-2.58649E+02-8.95337E-01 2.27505E+02
 -1        52 2.52997E+02-2.75101E+02-1.09131E+02-2.43787E+02-2.10821E+01 2.55760E+02
 -1        53 2.56393E+02-2.75731E+02 1.35226E+02-2.23667E+02-2.54411E+01 2.80151E+02
 -1        54 2.40777E+02-2.64010E+02-2.02568E+02-2.32212E+02 2.24426E+01 1.53559E+02
 -1        55 2.40395E+02-2.97895E+02-1.97719E+02-2.54910E+02-6.83638E+00 2.49743E+02
 -1        56 2.48020E+02-2.61432E+02 3.77538E+00-2.33094E+02-2.82658E+01 2.70015E+02
 -1        57 2.06576E+02-2.49409E+02 1.76786E+02-2.45133E+02-3.71210E+01 2.15606E+02
 -1        58 1.22453E+02 4.35306E+02-1.19196E+02-6.18610E+02-3.38244E+01 9.82312E+01
 -1        59 1.00169E+02-5.43022E+01-1.20565E+02-6.07426E+02-5.29014E+01 1.03833E+02
 -1        60 8.92414E+01-4.80906E+02-1.19720E+02-5.96929E+02-2.72704E+01 1.06962E+02
 -1        61 4.68664E+01 4.55868E+02-8.85919E+01-4.67167E+02-2.44609E+01 1.29042E+02
 -1        62 9.60562E+01 1.88963E+02-1.23980E+02-6.10236E+02-5.25814E+01 1.06390E+02
 -1        63 1.02080E+02-2.83394E+02-1.24482E+02-6.08322E+02-4.38289E+01 1.06576E+02
 -1        64 1.43366E+02-4.63069E+02-1.27513E+02-4.38673E+02-1.21694E+00 7.23347E+01
 -1        65 4.12522E+04-1.24120E+03-1.27264E+03-2.19231E+03-3.57718E+02 2.86546E+02
 -1        66 4.27354E+04 2.55484E+01-1.63096E+02 1.30300E+02-1.56755E+01-2.26372E+02
 -1        67 4.11526E+04 3.98684E+01-3.04980E+01 3.32821E+02-2.24623E+01-3.40164E+02
 -1        68 3.90464E+04-2.72491E+01 2.65396E+01 5.00074E+02-9.54020E+00-3.69024E+02
 -1        69 3.66763E+04 1.29142E+01 1.17397E+01 3.41267E+02-1.84014E+01-2.80150E+02
 -1        70 3.43752E+04 1.58293E+01-2.59134E+01 4.86555E+02 1.52292E+01-3.47780E+02
 -1        71 3.21142E+04-3.41976E+01-3.11876E+00 3.29766E+02 2.30049E+01-2.96021E+02
 -1        72 2.99153E+04-5.76803E+00-3.33146E+01 3.29438E+02 1.47138E+01-2.78773E+02
 -1        73 2.76636E+04-6.43341E+00 2.30845E+01 4.58630E+02-1.70300E+01-3.29325E+02
 -1        74 2.54890E+04-8.30394E+00 2.10319E+01 4.04711E+02-4.29252E-01-2.83346E+02
 -1        75 2.34934E+04-1.74437E+01-1.64684E+01 2.92604E+02 5.76393E+00-2.49772E+02
 -1        76 2.14435E+04-1.36835E+01-3.48932E+01 2.90268E+02 1.59946E+01-2.58317E+02
 -1        77 1.94468E+04-1.67742E+01 2.04058E+01 4.11984E+02-1.14170E+01-2.98567E+02
 -1        78 1.74946E+04 1.25013E+01 2.11528E+01 2.67154E+02-5.27566E+00-2.22309E+02
 -1        79 1.57276E+04-1.34049E+01-1.16568E+01 3.39364E+02-8.17842E-01-2.47789E+02
 -1        80 1.38934E+04 2.90258E+00-8.45057E+00 3.69464E+02 1.16946E+01-2.66931E+02
 -1        81 1.22192E+04-2.73222E+01-1.23974E+00 2.45035E+02 1.70369E+01-2.17620E+02
 -1        82 1.06154E+04-4.56060E+00-2.16820E+01 2.35468E+02 9.81777E+00-1.98229E+02
 -1        83 9.03508E+03-1.94184E+01 1.79036E+01 3.22992E+02-8.89984E+00-2.29145E+02
 -1        84 7.57628E+03 7.58023E+00 1.34405E+01 2.03796E+02-1.62524E+01-1.69612E+02
 -1        85 6.26973E+03-9.56208E+00-2.20204E+01 2.75020E+02 1.14451E+01-1.96380E+02
 -1        86 4.95329E+03 5.85595E+00 2.48328E+01 1.81642E+02-9.05566E+00-1.60112E+02
 -1        87 3.82243E+03-1.21549E+01 3.43124E+00 2.07612E+02 2.78979E+00-1.54511E+02
 -1        88 2.80138E+03-9.85527E+00-3.08371E-02 1.78234E+02 6.22275E-01-1.34055E+02
 -1        89 1.86728E+03-1.17574E+01-4.69335E+00 1.26008E+02 8.33767E+00-1.06324E+02
 -1        90 1.07742E+03-1.03815E+01 1.26942E-01 1.36722E+02 1.83672E+00-9.86788E+01
 -1        91 4.13321E+02-1.00259E+01-4.04292E+00 1.18416E+02 2.87741E+00-8.74952E+01
 -1        92-1.21060E+02-1.61308E+01 7.39249E+00 9.68240E+01 1.22897E+00-6.98996E+01
 -1        93-5.13131E+02-7.87312E+00-1.30172E+00 4.73206E+01 3.69965E+00-3.83006E+01
 -1        94-7.34528E+02-1.30109E+01-5.53047E-01 2.85761E+01 2.30086E+00-2.19415E+01
 -1        95-8.20985E+02-5.40754E+00 2.49672E+00 1.96247E+00-1.09408E+00-3.22582E+00
 -1        96-7.47760E+02-1.00132E+01 5.15895E+00-2.00302E+01 1.34839E-01 1.80548E+01
 -1        97-5.36767E+02-3.12124E+01 1.39748E+01 3.71948E+00-1.11460E+00 3.67101E+00
 -1        98 4.75908E+04 8.99366E+02 1.37908E+03-2.19082E+03 4.45855E+00 6.01422E+03
 -1        99 4.31330E+04 4.59420E+01 1.42441E+02-3.67012E+02 4.24293E+02 3.68463E+02
 -1       100 4.20348E+04-3.06548E+01 5.38573E+00 2.60175E+02-8.96317E+01-3.60483E+02
 -1       101 4.00873E+04-1.37789E+01 1.96230E+01 4.45524E+02-6.43373E+00-3.79265E+02
 -1       102 3.79219E+04 4.28223E+00 2.76737E+01 4.47472E+02-3.43874E+01-3.72915E+02
 -1       103 3.54495E+04-1.76614E+01-3.18356E+01 4.43257E+02 1.18111E+01-3.44340E+02
 -1       104 3.32722E+04-1.25574E+01-1.65348E+01 4.38739E+02-3.87024E+00-3.42849E+02
 -1       105 3.09864E+04-1.83633E+01-1.65795E+01 3.76540E+02 3.65713E+01-3.31057E+02
 -1       106 2.87161E+04-4.54715E+01-2.33536E+01 4.15466E+02 1.15270E+00-3.28086E+02
 -1       107 2.66119E+04-1.95707E+00 2.17423E+01 4.55128E+02-8.00225E+00-3.44353E+02
 -1       108 2.45128E+04 4.12794E+00 8.87349E+00 3.85096E+02-3.33394E-01-3.07373E+02
 -1       109 2.24130E+04-5.05864E+01-4.63076E+01 3.36671E+02 1.26349E+01-2.70198E+02
 -1       110 2.03822E+04-4.62878E+01-2.19522E+01 3.72918E+02-7.38340E-01-2.96187E+02
 -1       111 1.85384E+04 3.78368E+01 5.10802E+01 3.62421E+02-6.28976E+00-2.86666E+02
 -1       112 1.65839E+04-6.81251E+00-4.96479E+00 3.36018E+02 2.85331E+00-2.67059E+02
 -1       113 1.47655E+04-1.01474E+01-1.88489E+01 3.77571E+02 9.64751E+00-2.82642E+02
 -1       114 1.30726E+04-1.21234E+01-9.85052E+00 3.28252E+02-3.66997E-02-2.60103E+02
 -1       115 1.13911E+04-1.70278E+01-1.20433E+01 2.73530E+02 2.77751E+01-2.40977E+02
 -1       116 9.76406E+03-3.70496E+01-1.74645E+01 2.92619E+02 1.14529E+00-2.32694E+02
 -1       117 8.32975E+03-3.54947E+00 1.48278E+01 2.75790E+02-2.25835E+01-2.26057E+02
 -1       118 6.86104E+03-1.07974E+01-1.67450E+01 2.58212E+02 7.12910E+00-2.02847E+02
 -1       119 5.62243E+03 1.22523E+01 9.39285E+00 2.46606E+02-1.67206E+00-1.83871E+02
 -1       120 4.38484E+03-7.60579E+00 1.21548E+01 2.23338E+02 4.26244E+00-1.70937E+02
 -1       121 3.29580E+03-1.23579E+01 6.69503E-01 2.06264E+02 1.79514E+00-1.64490E+02
 -1       122 2.32762E+03-4.32654E+00-1.96395E+00 1.64886E+02 7.26945E+00-1.31434E+02
 -1       123 1.43811E+03-1.92314E+01-6.24151E+00 1.38191E+02 8.33410E+00-1.21999E+02
 -1       124 7.16471E+02-1.26660E+01-6.36592E+00 1.35103E+02 4.17757E+00-1.05042E+02
 -1       125 1.20771E+02-1.34705E+01-3.40572E+00 1.17265E+02 6.16552E+00-8.96336E+01
 -1       126-3.20955E+02-9.88484E+00 2.76098E+00 7.61931E+01 6.60567E+00-6.25792E+01
 -1       127-6.55762E+02-1.74342E+01-4.55846E+00 3.61944E+01 4.90533E-01-3.75105E+01
 -1       128-7.96803E+02-1.28281E+01-4.46306E+00 1.51943E+01 8.66211E+00-1.38665E+01
 -1       129-8.00394E+02-1.52232E+01-6.35508E-01-1.58322E+01 4.62798E-01 5.25130E+00
 -1       130-6.54719E+02-1.23810E+01 4.29770E+00-2.19266E+01-7.75551E+00 1.40857E+01
 -1       131-3.62785E+02 6.32696E+01-2.96623E+01-6.86447E+01 1.75893E+01 3.39165E+01
 -1       132 1.01348E+05-3.06779E+03-3.09747E+03-2.91918E+03 4.64674E+02 1.72350E+03
 -1       133 1.04655E+05-1.97138E+02-2.99091E+02-7.34528E+01-1.14680E+01 2.27008E+02
 -1       134 1.00852E+05-4.49982E+01-3.42586E+01 2.35734E+02-4.58897E+01 8.92247E+01
 -1       135 9.54643E+04-1.04911E+01 8.29785E+00 3.32142E+02-1.82628E+01 1.88093E+01
 -1       136 8.98011E+04-2.26289E+00 8.51861E+00 1.92253E+02-2.39450E+01 6.60656E+01
 -1       137 8.42139E+04-7.65272E+00-1.36464E+01 3.29822E+02-3.21295E+00-5.23950E+00
 -1       138 7.85556E+04-4.98695E+00 2.51554E+00 1.83908E+02-1.52161E+01 5.95335E+01
 -1       139 7.31505E+04-2.79227E+01-4.21742E+01 3.45954E+02-3.76969E+01-8.64628E+00
 -1       140 6.77320E+04 1.13406E+01 2.58947E+01 1.57582E+02-6.39914E+00 7.10441E+01
 -1       141 6.25213E+04-3.87854E-02 2.02792E+00 1.72334E+02-1.91050E+01 5.01574E+01
 -1       142 5.74853E+04-1.25808E+01-2.02128E+01 2.78862E+02-3.26246E+00-5.43274E-01
 -1       143 5.24439E+04-2.04655E+01-2.93315E+01 2.95576E+02-3.97614E+01 3.74050E+00
 -1       144 4.75811E+04 8.18123E+00 1.89397E+01 1.49450E+02-3.99336E+00 6.48914E+01
 -1       145 4.28938E+04 1.81015E+00 6.93160E+00 2.42146E+02 3.13856E+00 3.00606E+00
 -1       146 3.84927E+04-1.94401E+01-1.91764E+01 2.17706E+02-3.84112E+00 1.79574E+01
 -1       147 3.39898E+04 1.29804E+01 1.47637E+01 1.42236E+02-1.88362E+00 5.08610E+01
 -1       148 2.99506E+04-1.67793E+01-1.53515E+01 2.20857E+02-6.37043E+00-2.59157E+00
 -1       149 2.59411E+04-1.04188E+01-1.94163E+01 2.13216E+02-6.31685E+00 4.32457E+00
 -1       150 2.21061E+04-1.23883E+00-1.42199E+00 1.94822E+02-2.46846E+00 3.50738E+00
 -1       151 1.86055E+04-1.25051E+01-1.30433E+01 1.06273E+02 1.31217E+00 3.33763E+01
 -1       152 1.52944E+04-9.40526E+00-1.47767E+01 1.91686E+02 3.75183E-01 2.35088E+00
 -1       153 1.21741E+04-1.27738E+01 1.84091E-01 1.68160E+02-9.13583E-01 1.84834E+00
 -1       154 9.34422E+03-6.45551E+00 4.79043E-01 1.44344E+02-3.21312E+00 3.63813E+00
 -1       155 6.83822E+03-1.19156E+01-1.00120E+01 7.99308E+01 3.72768E+00 1.93230E+01
 -1       156 4.58478E+03-2.15894E+01-2.19802E+01 1.21221E+02-2.01549E+01 6.26021E+00
 -1       157 2.59781E+03-1.36730E+00 5.23382E+00 5.94562E+01 9.44977E-01 2.42069E+01
 -1       158 1.00034E+03-7.59122E+00-6.67601E+00 4.46571E+01 2.82655E-01 1.14932E+01
 -1       159-2.93589E+02-2.08620E+01-1.25730E+01 6.79180E+01-8.66832E+00-1.50553E+00
 -1       160-1.26386E+03-4.53437E+00 3.80992E-01 2.37519E+01-2.46513E+00 6.17505E+00
 -1       161-1.79728E+03-2.41561E+01-1.69321E+01 2.45623E+01-7.95902E+00 6.38306E-02
 -1       162-2.01958E+03-6.20372E+00-2.27528E+00 5.22960E+00 1.31387E+00 6.64280E+00
 -1       163-1.81685E+03-1.09576E+01-4.45845E+00-4.01160E+00 2.46393E-01-3.83636E-02
 -1       164-1.32497E+03-2.87312E+01-1.47354E+01 1.86256E+01 1.18694E+01-9.30121E+00
 -1       165 1.16853E+05 3.26517E+03 3.16938E+03 2.66024E+03-8.35109E+02-6.08731E+03
 -1       166 1.05253E+05-7.86836E+01-6.84985E+01-2.59318E+02-4.90304E+02-9.45989E+01
 -1       167 1.02948E+05-8.74095E+01-6.67356E+01 1.40851E+02-3.20020E+01 1.57796E+02
 -1       168 9.81636E+04-3.87555E+01-2.45393E+01 2.99042E+02-3.46839E+01 6.92920E+01
 -1       169 9.28074E+04 5.94516E+01 8.38106E+01 2.67186E+02 4.55769E+00 6.00822E+01
 -1       170 8.69077E+04-2.44271E+01-2.15347E+01 2.59181E+02-5.50584E+01 6.57166E+01
 -1       171 8.14974E+04 5.30665E+01 5.99258E+01 2.66819E+02 1.96087E+01 3.66632E+01
 -1       172 7.56962E+04-4.61794E+01-4.36360E+01 2.57165E+02-6.51750E+01 6.42777E+01
 -1       173 7.05522E+04 5.03133E+01 3.02904E+01 2.66285E+02 8.91499E+00 2.92307E+01
 -1       174 6.51810E+04 3.63480E+01 4.75737E+01 1.98103E+02-1.78118E+01 6.13411E+01
 -1       175 5.99074E+04-3.25812E+01-2.48574E+01 2.20474E+02-4.19066E+01 5.64838E+01
 -1       176 5.48513E+04-3.15462E+01-3.77949E+01 2.83575E+02-2.25045E+01 2.98413E+01
 -1       177 5.00998E+04 3.40035E+01 2.04677E+01 2.36295E+02 2.33917E+00 3.46163E+01
 -1       178 4.52177E+04-4.62701E+00 5.82961E+00 2.18783E+02-2.19460E+01 4.36945E+01
 -1       179 4.06631E+04-8.92551E+00-7.12593E+00 2.18839E+02 1.69580E+00 4.46404E+01
 -1       180 3.62709E+04 4.45126E+01 3.90788E+01 2.03378E+02-3.80639E+00 3.03781E+01
 -1       181 3.18852E+04-2.65500E+01-2.63316E+01 1.83606E+02-2.96492E+01 4.76580E+01
 -1       182 2.78636E+04-2.35499E+01-2.71952E+01 2.16639E+02-9.95516E+00 2.35493E+01
 -1       183 2.40032E+04-6.34931E+00-6.72784E+00 2.09684E+02-8.90324E+00 1.78800E+01
 -1       184 2.03681E+04-1.10748E+01-4.13690E-01 1.58828E+02 1.02121E+01 3.54654E+01
 -1       185 1.68245E+04-6.13055E+01-5.85083E+01 1.47718E+02-1.06344E+01 3.04536E+01
 -1       186 1.37055E+04-1.11911E+01-7.83439E+00 1.80866E+02-1.70433E+00 1.79943E+01
 -1       187 1.07550E+04-5.60673E+00 2.68495E+00 1.56027E+02-4.55394E+00 1.90845E+01
 -1       188 8.09529E+03-7.90682E+00-2.40286E+00 1.15468E+02 7.22365E+00 2.48404E+01
 -1       189 5.59227E+03-6.25003E+01-5.49324E+01 1.01720E+02-1.05156E+01 2.11877E+01
 -1       190 3.58763E+03-7.25729E+00-6.64172E+00 9.89380E+01 1.79065E-01 1.27036E+01
 -1       191 1.77118E+03-1.45553E+01-1.29336E+01 6.24362E+01-6.32343E+00 2.03052E+01
 -1       192 2.71960E+02-3.91396E+01-2.98467E+01 5.59919E+01-9.86797E+00 1.09908E+01
 -1       193-7.95863E+02-9.21315E+00-4.68630E+00 4.64435E+01-5.48171E+00 4.09045E+00
 -1       194-1.59233E+03-2.50922E+01-1.82261E+01 1.98332E+01-1.14546E+01 1.17808E+01
 -1       195-1.96352E+03-2.46087E+01-1.71363E+01 1.79221E+01-2.14037E+00 7.43975E-01
 -1       196-1.96225E+03-2.26453E+01-1.70379E+01-9.29070E-01-3.23691E+00 5.35067E-01
 -1       197-1.57938E+03-1.63400E+01-1.25341E+01-4.32093E+00-3.31434E+00 2.68059E+00
 -1       198-9.14424E+02 4.24148E+01-1.71816E+00-6.36477E+01-2.34345E+01 2.41251E+01
 -1       199-1.01397E+05 2.97290E+03 3.08411E+03-2.94586E+03-5.00954E+02 1.71942E+03
 -1       200-1.04693E+05 1.93016E+02 2.85831E+02-9.37011E+01 2.97615E+00 2.00540E+02
 -1       201-1.00839E+05 4.65714E+01 3.97097E+01 2.39036E+02 5.57909E+01 9.92333E+01
 -1       202-9.54817E+04-1.25696E+01-1.96798E+01 1.78321E+02 7.14696E+00 8.65924E+01
 -1       203-8.97827E+04-1.38932E+01-1.92446E+01 1.96703E+02 3.91489E+00 5.57362E+01
 -1       204-8.42029E+04-1.66717E+00-2.05182E+00 1.90878E+02-1.43219E+01 5.91621E+01
 -1       205-7.86537E+04 7.78199E-01 4.32109E+00 2.94083E+02 5.25644E+00-2.23703E+00
 -1       206-7.31150E+04 1.83853E+01 2.65210E+01 3.26978E+02 4.06360E+01-1.66188E+00
 -1       207-6.77583E+04 3.28521E+00-4.25895E+00 1.63503E+02 2.27380E+01 8.34419E+01
 -1       208-6.25226E+04-5.22329E+00-6.81750E+00 1.72629E+02 1.70883E+01 5.24962E+01
 -1       209-5.74840E+04 1.12777E+01 2.01594E+01 2.75270E+02 2.62980E+00-6.81629E-01
 -1       210-5.24490E+04 2.00453E+01 3.00066E+01 2.92326E+02 3.94865E+01 2.76049E+00
 -1       211-4.75668E+04 1.84647E-02-1.39168E+01 1.56367E+02 1.28078E+00 5.91086E+01
 -1       212-4.29727E+04 1.86946E+00 5.29472E+00 1.47593E+02-1.18409E+01 5.68567E+01
 -1       213-3.83671E+04-1.25926E+01-2.07010E+01 1.26373E+02-1.09802E+00 6.03326E+01
 -1       214-3.40321E+04 5.80340E-01-2.04559E+00 1.39820E+02 1.60352E+01 3.94296E+01
 -1       215-2.99407E+04 1.30626E+01 1.41645E+01 2.24990E+02 5.36164E+00-8.83401E-01
 -1       216-2.59300E+04 1.45476E+01 2.07583E+01 2.19584E+02 1.26900E+01 1.69774E+00
 -1       217-2.21200E+04 8.60895E+00 4.97029E+00 1.21245E+02 1.09554E+01 4.76599E+01
 -1       218-1.85832E+04 1.01742E+01 1.22192E+01 1.14132E+02 9.37761E+00 2.90422E+01
 -1       219-1.52668E+04-9.08023E-01-5.26185E+00 1.08046E+02-1.30702E+01 3.30614E+01
 -1       220-1.22206E+04 1.14179E+01 9.17754E+00 1.53880E+02 7.67292E+00 4.46969E+00
 -1       221-9.40279E+03 1.75510E+01 1.70973E+01 1.44273E+02 3.83471E+00 6.27357E+00
 -1       222-6.85065E+03 1.28056E+01 1.07469E+01 1.24556E+02 6.06639E+00 6.09014E+00
 -1       223-4.57930E+03 1.83749E+01 1.79012E+01 1.22219E+02 1.91289E+01 4.84189E+00
 -1       224-2.60679E+03 7.25096E+00 1.77883E+00 5.79791E+01 3.95263E+00 2.24567E+01
 -1       225-1.00065E+03 8.18755E+00 9.07540E+00 4.49362E+01-7.76208E-01 1.16016E+01
 -1       226 3.05284E+02 9.29294E+00 3.08003E+00 3.22564E+01 2.89008E+00 1.30558E+01
 -1       227 1.25976E+03 5.37785E+00 1.05651E+00 2.80673E+01 7.88703E-01 1.03333E+01
 -1       228 1.82052E+03 6.85112E+00 6.86840E+00 7.10622E+00-8.43325E-01-2.57167E+00
 -1       229 2.01368E+03 8.22789E+00 3.36189E+00-5.76815E+00-1.48520E+00-3.89617E+00
 -1       230 1.81772E+03 9.27896E+00 4.47914E+00-1.45704E+01-1.30987E+00-1.02367E+01
 -1       231 1.33506E+03 3.56136E+01 1.35228E+01 8.67497E+00-1.10917E+01-1.82633E+01
 -1       232-1.16772E+05-3.21399E+03-3.20041E+03 2.62388E+03 4.41067E+02-6.15290E+03
 -1       233-1.05296E+05 1.35482E+02 1.10620E+02-2.63248E+02 4.05653E+02-1.32793E+02
 -1       234-1.02982E+05 5.86027E+01 7.41478E+01 1.51396E+02 1.10779E+02 1.31742E+02
 -1       235-9.82605E+04-2.72983E+01-2.79465E+01 2.41375E+02 4.89722E+00 8.45881E+01
 -1       236-9.27143E+04-6.22126E+01-6.21393E+01 2.20259E+02 1.14925E+01 6.72236E+01
 -1       237-8.69996E+04-5.32354E+00-8.35627E+00 2.14334E+02-9.18631E+00 6.44121E+01
 -1       238-8.12889E+04 6.55275E+01 6.88749E+01 2.49382E+02 1.23440E+01 5.13070E+01
 -1       239-7.57720E+04 3.19445E+01 3.93272E+01 3.04006E+02 2.58999E+01 3.10936E+01
 -1       240-7.05371E+04-1.76229E+01-2.17318E+01 2.64430E+02-4.92689E+00 4.46798E+01
 -1       241-6.51833E+04-3.49016E+01-3.86825E+01 1.86668E+02 3.23100E+01 6.83832E+01
 -1       242-5.99054E+04 2.91814E+01 2.36412E+01 2.18403E+02 4.18880E+01 5.83023E+01
 -1       243-5.48528E+04 3.12963E+01 3.88686E+01 2.78926E+02 2.23373E+01 3.02065E+01
 -1       244-5.01002E+04-3.04744E+01-1.87268E+01 2.35313E+02-5.47564E+00 3.38843E+01
 -1       245-4.52653E+04 4.84329E+00 4.23363E+00 1.75237E+02-1.31476E+01 6.60366E+01
 -1       246-4.06484E+04-9.24323E+00 2.73352E-02 1.64932E+02-2.71195E+00 3.86849E+01
 -1       247-3.62327E+04-2.64012E+01-3.70351E+01 1.59645E+02 1.85529E+01 4.80708E+01
 -1       248-3.18915E+04 3.38928E+01 2.51610E+01 1.77505E+02 3.56508E+01 4.63837E+01
 -1       249-2.78490E+04 2.35068E+01 2.79828E+01 2.18818E+02 1.16316E+01 2.29496E+01
 -1       250-2.40561E+04-1.57843E+01-1.62980E+01 1.83442E+02-5.38701E+00 2.99977E+01
 -1       251-2.03350E+04 1.37904E+01 1.42539E+01 1.32029E+02 1.59658E+01 4.18552E+01
 -1       252-1.68905E+04 1.21644E+01 7.12495E+00 1.17910E+02-4.00672E+00 3.17126E+01
 -1       253-1.36436E+04 4.71766E+01 4.45336E+01 1.37502E+02 8.46567E+00 2.99473E+01
 -1       254-1.07399E+04 2.63420E+01 2.62691E+01 1.48995E+02 9.99256E+00 2.08408E+01
 -1       255-8.06481E+03 2.26905E+01 2.09123E+01 1.37504E+02 7.44166E+00 1.85807E+01
 -1       256-5.63014E+03 2.89929E+01 2.85457E+01 1.23418E+02 1.77226E+01 1.64085E+01
 -1       257-3.58683E+03 1.28355E+01 1.02622E+01 9.78696E+01 3.82135E+00 1.43983E+01
 -1       258-1.76452E+03 1.99326E+01 1.62974E+01 5.75640E+01 6.14959E+00 2.28626E+01
 -1       259-2.98914E+02 2.41128E+01 1.88246E+01 4.43522E+01-6.79141E-01 7.49788E+00
 -1       260 8.19084E+02 1.59071E+01 6.91815E+00 3.40366E+01 1.54328E+00 1.24833E+01
 -1       261 1.58204E+03 1.70472E+01 1.59763E+01 2.19681E+01 8.54000E+00 5.72995E+00
 -1       262 1.96674E+03 2.20294E+01 1.81289E+01-9.14780E-01-1.33506E+00-3.39838E+00
 -1       263 1.96048E+03 2.33249E+01 1.69808E+01-1.22284E+01 1.67090E+00-4.02074E+00
 -1       264 1.58370E+03 1.92192E+01 1.09305E+01-1.87323E+01 1.93122E+00-8.32807E+00
 -1       265 9.13793E+02-4.06730E+01-8.99462E+00-7.06109E+01 2.60752E+01 2.74025E+01
 -1       266-4.12122E+04 1.28147E+03 1.30510E+03-2.17133E+03 3.05011E+02 2.98350E+02
 -1       267-4.27968E+04 6.22948E+00 2.05019E+02 1.10093E+02-1.33461E+01-2.05523E+02
 -1       268-4.12449E+04-8.78533E-01 5.41846E+01 3.62165E+02-3.23258E+01-3.05186E+02
 -1       269-3.89982E+04 2.97922E+01-3.29660E+01 4.79341E+02 2.35491E+00-3.52144E+02
 -1       270-3.66412E+04-2.47009E+01-2.22757E+01 3.40519E+02 8.56508E+00-2.80126E+02
 -1       271-3.43877E+04 8.91937E-01 2.57576E+01 4.95297E+02-1.33785E+01-3.40521E+02
 -1       272-3.21162E+04 3.32987E+01 1.80476E+00 3.33332E+02-2.26578E+01-2.94831E+02
 -1       273-2.99137E+04 6.08348E+00 3.30538E+01 3.32719E+02-1.48251E+01-2.78447E+02
 -1       274-2.76651E+04 6.19657E+00-2.32856E+01 4.60358E+02 1.70070E+01-3.30143E+02
 -1       275-2.54989E+04 8.36546E+00-2.02414E+01 4.04513E+02-3.07455E-01-2.85656E+02
 -1       276-2.34912E+04 3.11124E+01 3.10980E+01 2.97566E+02-1.37621E+01-2.40053E+02
 -1       277-2.13853E+04-2.95615E+01-1.27450E+01 2.92983E+02 2.35006E+01-2.59813E+02
 -1       278-1.94833E+04 2.29757E+01-1.34864E+01 4.12071E+02 7.57646E+00-2.97454E+02
 -1       279-1.74938E+04-1.62642E+01-2.38535E+01 2.69795E+02 6.47003E+00-2.18049E+02
 -1       280-1.57314E+04 9.35588E+00 1.20780E+01 3.40799E+02-1.37588E+00-2.42023E+02
 -1       281-1.39199E+04 5.45821E+00 2.07168E+01 3.68951E+02-1.50342E+01-2.65325E+02
 -1       282-1.21584E+04-1.00103E+01-3.73449E+01 2.39631E+02 1.48911E+01-2.08120E+02
 -1       283-1.06149E+04 9.79082E+00 2.82562E+01 2.14172E+02-1.23660E+01-1.84925E+02
 -1       284-9.05704E+03 3.09862E+01 8.95865E+00 2.18049E+02-1.84401E+01-1.86382E+02
 -1       285-7.57159E+03-7.25843E+00-1.26339E+01 1.91123E+02 1.34370E+01-1.62688E+02
 -1       286-6.23940E+03 2.06917E+00 1.18789E+01 2.59851E+02-4.87981E+00-1.88807E+02
 -1       287-4.98900E+03 1.69644E+01 9.22855E+00 1.80163E+02-1.15102E+01-1.55631E+02
 -1       288-3.80850E+03 5.26078E+00-8.68661E+00 2.10681E+02 1.73587E+00-1.49055E+02
 -1       289-2.80338E+03 6.35306E+00 3.00463E+00 1.76676E+02-5.27532E-01-1.34874E+02
 -1       290-1.86654E+03 1.14620E+01 4.92780E+00 1.26161E+02-8.13685E+00-1.06926E+02
 -1       291-1.07759E+03 1.02141E+01-2.19872E-01 1.36553E+02-1.83485E+00-9.86620E+01
 -1       292-4.13253E+02 1.00384E+01 3.92566E+00 1.18953E+02-2.97191E+00-8.76951E+01
 -1       293 1.21903E+02 1.64005E+01-6.90671E+00 9.78632E+01-1.35648E+00-6.91834E+01
 -1       294 5.11135E+02 7.81574E+00 1.27727E+00 4.64725E+01-3.29985E+00-3.77714E+01
 -1       295 7.35807E+02 1.53925E+01-1.27403E+00 2.62632E+01-1.54220E+00-1.92524E+01
 -1       296 8.15661E+02 1.51718E+01-2.34741E+00-2.96330E-01-2.43841E+00-4.01645E-01
 -1       297 7.24990E+02 2.16331E+01-4.91084E+00-2.31199E+01-3.33116E+00 1.39561E+01
 -1       298 5.41180E+02 2.79661E+01-1.49759E+01 6.53082E+00 2.88997E+00 4.77788E+00
 -1       299-4.75770E+04-1.04681E+03-1.41213E+03-2.09794E+03-7.88077E+00 5.99008E+03
 -1       300-4.30504E+04 6.57049E+01-4.38976E+01-3.10425E+02-2.75625E+02 4.41276E+02
 -1       301-4.21243E+04 1.55257E+01 1.68502E+01 3.26440E+02-1.21314E+02-2.57982E+02
 -1       302-4.00836E+04 5.84654E+01 2.73552E+01 4.54856E+02-3.22485E+01-3.70249E+02
 -1       303-3.79108E+04-4.27757E+01-5.86371E+01 4.39877E+02 5.04706E+00-3.50192E+02
 -1       304-3.54585E+04 6.78493E+00 1.45808E+01 4.53653E+02-1.29849E+01-3.46889E+02
 -1       305-3.32881E+04 4.65190E+00 8.69413E+00 4.42352E+02 6.23485E+00-3.38196E+02
 -1       306-3.09852E+04 1.83631E+01 1.60364E+01 3.79689E+02-3.73555E+01-3.30450E+02
 -1       307-2.87160E+04 4.59570E+01 2.34999E+01 4.18229E+02-1.21574E+00-3.28228E+02
 -1       308-2.66171E+04 1.55001E+00-2.19344E+01 4.57013E+02 8.36988E+00-3.45496E+02
 -1       309-2.45195E+04 2.83316E+00-1.12032E+00 3.88480E+02-2.32792E+00-3.03188E+02
 -1       310-2.24071E+04 3.93774E+01 3.41911E+01 3.21606E+02 2.98472E+01-2.78179E+02
 -1       311-2.03894E+04 4.09610E+00-1.11308E+01 3.75558E+02-1.02852E+01-2.99208E+02
 -1       312-1.85537E+04-4.09626E+01-5.37174E+01 3.66928E+02 5.51845E+00-2.80873E+02
 -1       313-1.65812E+04 7.08734E+00 6.54269E+00 3.36664E+02-4.69484E+00-2.61766E+02
 -1       314-1.47792E+04 1.06744E+01 2.02908E+01 3.75060E+02-1.00689E+01-2.83166E+02
 -1       315-1.30718E+04-2.50395E+01-1.78649E+01 3.25976E+02 2.94668E+00-2.51732E+02
 -1       316-1.13836E+04-2.25634E+00-5.40987E-01 2.79438E+02-5.53525E+00-2.19372E+02
 -1       317-9.81161E+03 3.38406E+01 2.64300E+01 2.23591E+02-4.25338E+00-1.82731E+02
 -1       318-8.28966E+03 2.78347E+01 1.19790E+01 2.21650E+02 7.99951E+00-2.04814E+02
 -1       319-6.86480E+03 2.23620E+01 1.30469E+01 2.46328E+02-1.13904E+01-1.94601E+02
 -1       320-5.61865E+03 6.69192E+00 3.20849E+00 2.39274E+02-1.58665E+00-1.90092E+02
 -1       321-4.36851E+03 2.15226E+01 3.09634E+00 2.07269E+02-9.10470E+00-1.71549E+02
 -1       322-3.29276E+03 9.23837E+00-9.46706E-01 2.04926E+02 2.65854E-01-1.63959E+02
 -1       323-2.32605E+03 5.64845E+00 3.42966E+00 1.65382E+02-6.94184E+00-1.32531E+02
 -1       324-1.43791E+03 1.91444E+01 6.19291E+00 1.38170E+02-8.28907E+00-1.22054E+02
 -1       325-7.16834E+02 1.25316E+01 6.28151E+00 1.35245E+02-4.23396E+00-1.05113E+02
 -1       326-1.19343E+02 1.41302E+01 3.84743E+00 1.17880E+02-6.63827E+00-8.97607E+01
 -1       327 3.20614E+02 1.03290E+01-2.28327E+00 7.60999E+01-6.05799E+00-6.22186E+01
 -1       328 6.54897E+02 1.79451E+01 4.39804E+00 3.46231E+01-8.42480E-02-3.57197E+01
 -1       329 8.01938E+02 1.54943E+01 2.71941E+00 1.55700E+01-5.69169E+00-1.17812E+01
 -1       330 7.98602E+02 1.73026E+01 3.96823E-01-1.46744E+01-5.03392E+00 8.14960E+00
 -1       331 6.51717E+02 1.56506E+01-1.14850E+00-1.88419E+01-3.30418E+00 1.89013E+01
 -1       332 3.68258E+02-5.49991E+01 3.67418E+01-6.29132E+01-1.14565E+01 3.60667E+01
 -1       333-3.18866E+04-1.29999E+04-1.37724E+04 2.66477E+03-1.77599E+02 2.90648E+03
 -1       334 4.95992E+04 1.94512E+04 1.98529E+04 5.17627E+03 4.98962E+00-1.42864E+03
 -1       335-3.81429E+04-1.64719E+04-1.53460E+04-2.24890E+02 1.39480E+02-5.15418E+03
 -1       336 3.32057E+04 1.41918E+04 1.42304E+04 1.63140E+03-5.97885E+01 3.32166E+03
 -1       337 1.36767E+04 5.67795E+03 5.90783E+03 1.91358E+02-9.44592E+01 2.87074E+02
 -1       338 3.25062E+04 1.24965E+04 1.28579E+04-9.72039E+02 1.73894E+01-3.32835E+03
 -1       339-5.26111E+04-2.11936E+04-2.27068E+04 5.70909E+03-1.30771E+02-2.19399E+03
 -1       340-2.20237E+02-1.17276E+03-3.69303E+02-2.69078E+03-1.42264E+02 4.49615E+02
 -1       341 9.86526E+02 3.48155E+02 3.34024E+02-2.91770E+03-3.36126E+02 1.44440E+03
 -1       342-2.94978E+03-6.49516E+02-9.47439E+02-6.87507E+02-2.29427E+02 3.22163E+02
 -1       343 6.69157E+04 2.46870E+04 2.53067E+04 6.46696E+03-2.96197E+02-8.90243E+03
 -1       344-6.53017E+04-2.69948E+04-2.69379E+04 5.84431E+03-7.13442E+02-8.55137E+03
 -1       345 2.72296E+04 9.49196E+03 1.09227E+04 4.02907E+01 1.02370E+02 6.14121E+03
 -1       346-2.68210E+04-1.02415E+04-1.12158E+04 3.35128E+02 1.34476E+02 6.32307E+03
 -1       347-2.13799E+04-7.99506E+03-8.46266E+03 3.56272E+02 3.61571E+02-5.57563E+02
 -1       348 1.03799E+05 3.95207E+04 4.01843E+04 1.31890E+04-2.49182E+03-1.76838E+04
 -1       349 9.06040E+04 3.79979E+04 3.76175E+04 1.76108E+04 6.22743E+02-6.81079E+03
 -1       350 7.88182E+04 3.23302E+04 3.27505E+04 6.22053E+02 7.81640E+02-1.67995E+04
 -1       351 4.88515E+04 2.08197E+04 2.06926E+04 8.02008E+03-7.11155E+01 8.84157E+03
 -1       352 4.24926E+04 1.54930E+04 1.70805E+04 8.14746E+02 1.03506E+03 1.17419E+04
 -1       353 2.04210E+04 7.83654E+03 8.06780E+03-5.97931E+03-5.30861E+02 5.94412E+03
 -1       354-4.22559E+04-1.54416E+04-1.69941E+04 9.37766E+02-1.01745E+03 1.18771E+04
 -1       355-1.99903E+04-8.56682E+03-8.56674E+03-4.94390E+03 4.57804E-01 6.80246E+03
 -1       356-4.89024E+04-2.08856E+04-2.07355E+04 8.11828E+03 3.11158E+01 9.00344E+03
 -1       357-1.02795E+05-3.96024E+04-4.01192E+04 1.27282E+04 2.25542E+03-1.73269E+04
 -1       358-8.78531E+04-3.76475E+04-3.76497E+04 1.62918E+04-7.34295E-02-7.54439E+03
 -1       359-7.67296E+04-3.28826E+04-3.28810E+04 1.83297E+03-3.74168E-01-1.63662E+04
 -1       360 6.16180E+04 2.64049E+04 2.64067E+04 1.02276E+04 2.82659E-01 3.99197E+03
 -1       361 5.16373E+04 2.21274E+04 2.21293E+04 7.99999E+03 9.71735E-02 6.79495E+03
 -1       362 3.00767E+04 1.20991E+04 1.27693E+04 1.10518E+03-2.62157E+02 4.69516E+03
 -1       363 7.85345E+04 3.36541E+04 3.36563E+04 1.48551E+04 1.24210E-01-3.27197E+03
 -1       364 7.16476E+04 3.01431E+04 3.02003E+04 1.34229E+04 3.57360E+02 1.34031E+03
 -1       365 4.26430E+04 1.70969E+04 1.79226E+04 3.49653E+03 2.08318E+02 1.60144E+03
 -1       366 5.98794E+04 2.31558E+04 2.49863E+04 5.90480E+03 8.98212E+01-4.13948E+03
 -1       367 3.60157E+04 1.50592E+04 1.48055E+04-5.36772E+03 4.65422E+02-6.46078E+03
 -1       368 5.72179E+04 2.45213E+04 2.45202E+04-2.11116E+03 3.67995E-01-1.16651E+04
 -1       369 5.20774E+04 2.17250E+04 2.04493E+04 1.33423E+03-2.01061E+02-6.17507E+03
 -1       370-4.94599E+03-1.84160E+03-2.47681E+03-6.43369E+03 1.62463E+02 3.35467E+03
 -1       371 1.81577E+04 7.78168E+03 7.78104E+03-6.52945E+03 5.40492E-01-2.30616E+03
 -1       372 1.83952E+04 7.48047E+03 6.80495E+03-2.91393E+03 2.24418E+02-1.03532E+03
 -1       373-1.31085E+04-5.61366E+03-5.60471E+03-2.09153E+03-3.34807E+01 3.87443E+03
 -1       374-8.33986E+04-3.58126E+04-3.55845E+04 1.65167E+04-4.60413E+01-3.98335E+03
 -1       375-7.26509E+04-3.11328E+04-3.11348E+04 1.36478E+04-2.58102E-01 3.29705E+02
 -1       376-6.01986E+04-2.40328E+04-2.53101E+04 5.83716E+03-1.99116E+02-4.64970E+03
 -1       377-6.19285E+04-2.65814E+04-2.64836E+04 1.20363E+04-3.21909E+01 3.58430E+03
 -1       378-5.03040E+04-2.15560E+04-2.15578E+04 8.52351E+03-2.96320E-01 6.70625E+03
 -1       379-4.14647E+04-1.67085E+04-1.73930E+04 4.50826E+03 2.31133E+02 5.20900E+02
 -1       380-2.96088E+04-1.14430E+04-1.24870E+04 1.52357E+03 2.00747E+02 4.41393E+03
 -1       381 4.20130E+03 1.80082E+03 1.80123E+03-6.26449E+03-4.77909E-01 2.05740E+03
 -1       382-1.91463E+04-8.37684E+03-8.59460E+03-6.39152E+03-2.83357E+02-4.09968E+03
 -1       383 1.51910E+04 6.26844E+03 6.11738E+03-2.25030E+03 2.70163E+02 3.36950E+03
 -1       384-4.00517E+04-1.71642E+04-1.71631E+04-4.72140E+03-5.48221E-01-8.17077E+03
 -1       385-6.34525E+04-2.68890E+04-2.75286E+04-1.47580E+03-2.13699E+02-1.40491E+04
 -1       386-1.76516E+04-7.54263E+03-7.51485E+03-2.33081E+03 2.75940E+01-2.57941E+03
 -1       387-5.26360E+04-2.21897E+04-2.12220E+04 1.89985E+03-1.13405E+02-6.85424E+03
 -1       388-3.80211E+04-1.62941E+04-1.62942E+04 1.79132E+03-6.49974E-02-1.21682E+03
 -1       389-2.74034E+04-1.14787E+04-1.14771E+04 1.27884E+03-1.45963E+02 1.07090E+03
 -1       390-1.75058E+04-7.50208E+03-7.50230E+03-9.95467E+02 3.21075E-02 2.32350E+03
 -1       391-1.89292E+04-8.11220E+03-8.11239E+03-5.75387E+01 8.05239E-03 1.69911E+03
 -1       392 5.27200E+01 2.27741E+01 2.26511E+01-2.20724E+03 4.71024E-02 1.19321E+03
 -1       393-1.27705E+04-5.29527E+03-5.39878E+03 5.44146E+01 6.31736E+01 2.64976E+02
 -1       394 3.31390E+04 1.40625E+04 1.34961E+04 1.60515E+03-1.10269E+02-6.24345E+01
 -1       395 2.51993E+04 1.07993E+04 1.07995E+04 4.55287E+02-3.39661E-03 1.89179E+03
 -1       396 4.37002E+04 1.87279E+04 1.87280E+04 1.33364E+03 1.04076E-01-2.29813E+03
 -1       397 2.19302E+04 9.39819E+03 9.39826E+03-3.72833E+02 4.73243E-02-1.19434E+03
 -1       398-4.93016E+04-2.11285E+04-2.11286E+04 1.72958E+03-1.05687E-01-3.13751E+03
 -1       399-3.00121E+04-1.28618E+04-1.28619E+04-4.04738E+02-7.46721E-02-2.14514E+03
 -1       400-1.09286E+04-4.46873E+03-4.07839E+03-1.71701E+03-1.98227E+02-6.11893E+02
 -1       401 5.15660E+03 2.20976E+03 2.20989E+03-1.42604E+03-3.54427E-02 1.02418E+03
 -1       402 1.69199E+04 7.25100E+03 7.25122E+03-7.42001E+02-7.09332E-02 2.34485E+03
 -1       403 1.57857E+04 6.44890E+03 7.28294E+03-1.41149E+03-1.52925E+01-5.53419E+02
 -1       404 5.12502E+03 2.72958E+03 2.55048E+03-3.10745E+02-2.70897E+02-2.40238E+02
 -1       405-4.64334E+03-1.55837E+03-1.65834E+03-4.83264E+02 3.11472E+02 2.03153E+02
 -1       406 6.11961E+01-1.19095E+02 1.80573E+02-5.95252E+02 5.87373E+01 2.62556E+02
 -1       407-7.30154E+01-3.01620E+02-2.49788E+02-5.95622E+02-6.84481E+01 2.56111E+02
 -1       408 1.97433E+02 5.87534E+02 3.62339E+02-6.20440E+02 3.38738E+01 2.57546E+02
 -1       409-3.64332E+01 2.05995E+02-1.97522E+02-6.01609E+02-6.30469E+01 2.60842E+02
 -1       410-1.42927E+01-2.43732E+01-8.37191E+01-6.48729E+02-1.86529E+01 2.71367E+02
 -1       411-1.68277E+02-5.27156E+02-2.94376E+02-6.29416E+02-3.32209E+01 2.50710E+02
 -1       412 1.03967E+02 4.24331E+02 2.88798E+02-6.06677E+02 7.17602E+01 2.52721E+02
 -1       413 1.51756E+02 5.00635E+02 1.31009E+02-6.18678E+02 1.92864E+01 2.53726E+02
 -1       414-1.64087E+02-5.42145E+02-9.35730E+01-6.11739E+02-2.84849E+01 2.53335E+02
 -1       415-1.94364E+01-2.32377E+02-2.88492E+01-6.48359E+02 5.63579E+00 2.76079E+02
 -1       416 1.81114E+02 6.48020E+02 3.84004E+02-5.91660E+02 4.93239E+00 2.45861E+02
 -1       417-2.05075E+02-5.67585E+02-3.43139E+02-5.68643E+02-9.09215E+00 2.31805E+02
 -1       418 8.40350E+01 4.56165E+02-8.68183E+01-5.78850E+02-7.26714E+00 2.51880E+02
 -1       419-2.98850E+01-4.91755E+02 1.08017E+02-5.72970E+02 4.78878E+00 2.57775E+02
 -1       420 7.72437E+00 1.84017E+02 1.26430E+02-6.45476E+02 2.77464E+01 2.66269E+02
 -1       421 6.08083E+01 5.77451E+02 4.14448E+02-4.73719E+02-8.22770E+00 2.45523E+02
 -1       422 3.02910E+01 5.36069E+02 2.86936E+02-4.29817E+02-2.38578E+01 1.64631E+02
 -1       423 8.78127E+01 6.91784E+02 3.09927E+02-5.99946E+02 1.84705E+01 2.01148E+02
 -1       424 2.00004E+01 4.37334E+02-1.18684E+02-4.41827E+02 1.12791E+01 2.01507E+02
 -1       425 4.70554E+01 4.85903E+02-7.36635E+01-4.70874E+02 2.70159E+01 2.48591E+02
 -1       426 1.15698E+01 4.61459E+02-1.58046E+02-5.77764E+02-4.80810E+01 2.10406E+02
 -1       427-1.63107E+01-4.59374E+02 1.55349E+02-5.72215E+02 4.02250E+01 2.05634E+02
 -1       428-1.64735E+01-4.81684E+02 1.12390E+02-4.37728E+02-1.51625E+01 2.04685E+02
 -1       429 2.55807E+00-5.11988E+02 1.20422E+02-4.72011E+02-3.75241E+01 2.67077E+02
 -1       430-8.06818E+01-5.36341E+02-3.62266E+02-4.55551E+02-7.43324E+00 2.30797E+02
 -1       431-5.43729E+01-5.04893E+02-2.76504E+02-4.23928E+02 3.14518E+01 1.63821E+02
 -1       432-7.01056E+01-5.82710E+02-2.74027E+02-5.68250E+02-3.77741E+01 1.76714E+02
 -1       433 5.64204E+01 5.02034E+02 4.40102E+01-4.98542E+02 3.35285E+01 2.35054E+02
 -1       434 8.38426E+01 5.16511E+02 1.87497E+02-4.77744E+02 3.53032E+01 2.39305E+02
 -1       435 1.51511E+02 4.93624E+02-9.83690E+00-6.03328E+02 1.47614E+01 2.47845E+02
 -1       436 4.78601E+01 5.00981E+02 2.94765E+02-4.78172E+02 2.75788E+01 2.50192E+02
 -1       437 9.43905E+01 5.30591E+02 3.66107E+02-4.62595E+02 2.25514E+01 2.39654E+02
 -1       438 1.67696E+02 5.22583E+02 2.50413E+02-6.16149E+02 2.31481E+01 2.51983E+02
 -1       439 1.84237E+02 6.10522E+02 4.01147E+02-5.94272E+02 3.26500E+01 2.41658E+02
 -1       440 3.09540E+01 4.68842E+02 2.40373E+02-5.73663E+02 6.16661E+01 1.79712E+02
 -1       441 3.35045E+01 2.56475E+02 2.26874E+02-5.74427E+02 7.60112E+01 1.98999E+02
 -1       442 1.13660E+02 5.63127E+02 3.32177E+02-5.89262E+02 4.92577E+01 2.41446E+02
 -1       443 2.12544E+01-1.11578E+01 2.15699E+02-5.68028E+02 7.75366E+01 1.97902E+02
 -1       444 1.49041E+01-3.25114E+02 1.75859E+02-5.54490E+02 6.29572E+01 2.20631E+02
 -1       445 8.86479E+01 1.42285E+02 2.17307E+02-5.94460E+02 6.68138E+01 2.57427E+02
 -1       446 4.30584E+01-3.78319E+02 1.35127E+02-5.69568E+02 3.83030E+01 2.60679E+02
 -1       447-1.05153E+02-5.17332E+02-2.75081E+02-4.88454E+02-3.08733E+01 2.40333E+02
 -1       448-7.05367E+01-5.35992E+02-3.84361E+02-4.97833E+02-1.81924E+01 2.31441E+02
 -1       449-1.81507E+02-5.78101E+02-3.83018E+02-6.03775E+02-1.39924E+01 2.42527E+02
 -1       450-9.03910E+01-5.03801E+02-4.68614E+01-4.63327E+02-3.38719E+01 2.43868E+02
 -1       451-2.34310E+01-4.72982E+02-1.58344E+02-4.67360E+02-3.99085E+01 2.27966E+02
 -1       452-1.55138E+02-5.22508E+02-2.10315E+02-6.16429E+02-3.76658E+01 2.47934E+02
 -1       453-1.32095E+02-5.32588E+02 1.77937E+01-5.99686E+02-2.87275E+00 2.66101E+02
 -1       454 4.46099E+00 5.10983E+01-2.05478E+02-5.72021E+02-7.91695E+01 1.98958E+02
 -1       455-1.77017E+01 3.20996E+02-1.95806E+02-5.65904E+02-6.35444E+01 2.10977E+02
 -1       456-3.04260E+01 3.94826E+02-1.33625E+02-5.84780E+02-4.15948E+01 2.60404E+02
 -1       457-3.63840E+01-4.98280E+02-2.54438E+02-5.56172E+02-5.87897E+01 1.94083E+02
 -1       458-5.41701E+01-2.09104E+02-2.18022E+02-5.69651E+02-8.04279E+01 2.00644E+02
 -1       459-4.09839E+01-7.01453E+01-2.28436E+02-5.98802E+02-6.47507E+01 2.54408E+02
 -1       460-1.08535E+02-5.58792E+02-3.28827E+02-5.79899E+02-3.64879E+01 2.43797E+02
 -1       461 5.12454E+01 3.18615E+02 2.57097E+02-6.30329E+02 5.81111E+01 2.50667E+02
 -1       462 2.62246E+01 4.32093E+01 1.70913E+02-6.18948E+02 5.43631E+01 2.70889E+02
 -1       463-1.21496E+01-2.06886E+02 6.81703E+01-6.36650E+02 3.58406E+01 2.59434E+02
 -1       464-4.38866E+01-4.49243E+02-7.48431E+01-6.23675E+02-3.57818E+00 2.72904E+02
 -1       465-2.56647E+01-4.40037E+02 5.99715E+01-6.06732E+02 2.40363E+01 2.60813E+02
 -1       466-4.76592E+00-2.70973E+01 6.67587E+01-6.48159E+02 1.10289E+01 2.82936E+02
 -1       467-2.73343E+01-1.50115E+02-1.92082E+02-6.24390E+02-5.16195E+01 2.60420E+02
 -1       468 2.65165E+00 8.47579E+01-1.28712E+02-6.30698E+02-4.15732E+01 2.61939E+02
 -1       469-6.81394E+01-5.00067E+02-3.16172E+02-6.24861E+02-5.15873E+01 2.66006E+02
 -1       470-7.18686E+01-3.23535E+02-1.98742E+02-6.36514E+02-4.45258E+01 2.62098E+02
 -1       471 7.58574E+01 5.52608E+02 3.36334E+02-6.18993E+02 4.75810E+01 2.59057E+02
 -1       472 6.44378E+01 4.68337E+02 2.56947E+02-6.22612E+02 4.29598E+01 2.59876E+02
 -1       473 5.07982E+01 3.93585E+02 1.36552E+02-6.32987E+02 2.20575E+01 2.59599E+02
 -1       474 3.53417E+01 2.71519E+02 1.37094E+01-6.29467E+02-1.43165E+01 2.73149E+02
 -1       475 2.04057E+01 3.98591E+02-6.39445E+01-6.15722E+02-1.72541E+01 2.51650E+02
 -1       476-5.10749E+01-4.05196E+02-1.44689E+02-6.33642E+02-2.27735E+01 2.62288E+02
 -1       477-3.23448E+01-1.54318E+02-6.14795E+01-6.54093E+02-6.37095E+00 2.76779E+02
 -1       478 1.49396E+01 1.15637E+02 2.37992E+01-6.62569E+02 7.02944E+00 2.63192E+02
 -1       479 4.39819E+03-5.13002E+00-1.07045E+01 1.92104E+01-2.10027E-01-7.19513E+02
 -1       480 7.35488E+01-2.18674E+01-3.44354E-01 3.11251E+01-3.03948E+00-3.50407E+02
 -1       481-1.67166E+03-7.17655E+00-5.55454E+01-1.82396E+01-7.05791E+00 3.91747E+01
 -1       482 1.12288E+04 6.11784E+01 6.75659E+00 7.64621E+01-1.01518E+01-1.00570E+03
 -1       483 1.16011E+04 6.89324E-01-1.56873E+01 6.94432E+01 7.38599E+00-5.56739E+02
 -1       484 2.99982E+03-3.53256E-01-1.98108E+01 1.19606E+02 8.17990E+00-3.82005E+02
 -1       485-1.35037E+03-1.46181E+01-5.67444E+01 1.97648E+01-1.01267E+00-1.02822E+02
 -1       486 2.37154E+04-9.16843E+00-2.13714E+01 7.97562E+01-6.29178E+00-7.23989E+02
 -1       487 4.88529E+04-1.01356E+02-2.62275E+01 9.46548E+01 4.62696E-01-1.58348E+03
 -1       488 4.22162E+04 1.03322E+01-8.91920E+00 1.67268E+02 1.13827E+01-1.56757E+03
 -1       489 8.37464E+04-1.47035E+01-6.13735E+01 1.33773E+02 1.63737E-01-9.46090E+02
 -1       490 3.06306E+04-4.08369E+01-1.79872E+00 1.23717E+02 1.76854E+01-1.38726E+03
 -1       491 2.28428E+04-5.91721E+01-8.58380E-01 2.24835E+00 1.08523E+01-1.29268E+03
 -1       492 3.62939E+04 1.96784E+01-1.48643E+01 1.31283E+02-9.22184E+00-1.44795E+03
 -1       493 9.30430E+04-2.85784E+02 1.12081E+03-3.12242E+02 3.69315E+02-1.29348E+03
 -1       494 5.92378E+04 4.26897E+01 3.70076E+02 3.60866E+02 5.13661E+01-1.47757E+03
 -1       495-1.02192E+03-3.30215E+01 4.91784E+00-1.68416E+01-3.20084E-01 1.73720E+02
 -1       496 1.76835E+04 5.51558E+01 5.35405E+01 2.02222E+02-3.34858E+01-1.05611E+03
 -1       497-1.17649E+03-3.15939E+01-4.09670E+00 2.61612E+01-1.18861E+00-4.08972E+01
 -1       498 6.89340E+04 5.38768E+01 3.02284E+01 8.03692E+01-2.15857E+00-1.00464E+03
 -1       499 4.23925E+04 6.11000E+01 4.19035E+01 2.64221E+02 1.48121E+01-9.54886E+02
 -1       500 3.08133E+04 3.53787E+00-9.83479E+00 1.16594E+02 9.18573E-01-8.02562E+02
 -1       501 5.97187E+04 7.16314E+01 4.40700E+01 2.84280E+02 1.39861E+01-1.06327E+03
 -1       502 5.09974E+04-4.01811E+01-3.02682E+01 7.77418E+01 7.24971E+00-9.41937E+02
 -1       503 7.45510E+04-5.23654E+03 9.32444E+03 1.42906E+03 1.11477E+02 2.11020E+03
 -1       504-8.23544E+02-1.62040E+02-1.10208E+02 2.12110E+01 2.22666E+00 2.61272E+02
 -1       505 6.78114E+03 1.55660E+01-3.21842E+01 2.94528E+01-4.90697E+00-4.47008E+02
 -1       506 2.74454E+02-3.10435E+01-5.44008E+01 2.72596E+01-5.25962E+00-2.34272E+02
 -1       507 1.71606E+04 3.42040E+01-2.21993E+01 4.05177E+01-1.01097E+01-6.28175E+02
 -1       508 7.54068E+03 4.58382E+01 4.52360E+01 1.73640E+02-3.55312E+01-7.71112E+02
 -1       509 1.92655E+03-2.94557E+01-8.25146E+00 2.26781E+01 4.32583E-01-5.52750E+02
 -1       510 8.88527E+04-1.78300E+01 1.28740E+02 1.10752E+02 3.51817E+01-8.39822E+02
 -1       511 5.54474E+04-9.54237E+01-6.94657E+01 3.04209E+02 5.72259E+01-1.52775E+03
 -1       512 5.16496E+04 1.04678E+02 1.15953E+01 1.41564E+02-1.42949E+01-1.64769E+03
 -1       513 6.33929E+04 5.32992E+00-1.13666E+01 2.51335E+02 1.44061E+01-1.66015E+03
 -1       514-1.20344E+03-1.05480E+01 2.13604E-01 1.17095E+01 2.95292E+00 6.50817E+01
 -1       515 3.03954E+03-7.40606E+00 1.04711E+01 5.24539E+01 6.10678E+00-6.08151E+02
 -1       516 4.87762E+03-3.73071E+01-5.00378E+01 4.47838E+01-9.32362E+00-4.09255E+02
 -1       517 2.72783E+04-3.76739E+01-4.15379E+01 3.13614E+01 1.43047E+00-7.46081E+02
 -1       518 1.54157E+04 5.20241E+00-4.95664E+00 1.28604E+02 6.65589E+00-1.13348E+03
 -1       519 1.44946E+04-6.80381E+01-4.52292E+01 1.13887E+02-2.44231E+01-6.41353E+02
 -1       520 9.55410E+03-7.53590E+01-1.30620E+01 5.07999E+01 8.01227E+00-9.21588E+02
 -1       521 3.94684E+04-1.23670E+02-8.15394E+01 3.00052E+02 4.89857E+01-1.36024E+03
 -1       522 2.80392E+04-1.22069E+02-7.38635E+01 2.69394E+02 4.34718E+01-1.22906E+03
 -1       523 2.50544E+04 7.64391E+01 4.85947E+00 1.18774E+02-1.41184E+01-1.29735E+03
 -1       524 3.02883E+04-1.02872E+01-2.62257E+01 1.61290E+02-6.76493E+00-1.34776E+03
 -1       525 4.67161E+04-2.01065E+01-1.90431E+01 1.19295E+02-4.64925E+00-9.11283E+02
 -1       526 1.51289E+03-9.37145E+00-4.63229E+01 4.28564E+01-5.26235E+00-2.92022E+02
 -1       527 9.29955E+02-2.06083E+01 1.52409E-01 2.82924E+01 2.83403E+00-4.50806E+02
 -1       528 2.02435E+04-3.38237E+01 2.60125E+00 1.03275E+02 5.08010E+00-1.19505E+03
 -1       529-1.67962E+03-2.39404E+01-5.22584E+01 1.77333E+01-3.68163E+00-2.92223E+01
 -1       530-9.98633E+02-1.32007E+01-6.77258E+00 1.17968E+01 8.32738E-01-1.62082E+02
 -1       531 5.52553E+04 2.50191E+01-1.56741E+01 1.20924E+02-6.90553E+00-9.54971E+02
 -1       532 6.45005E+04-6.53769E+01-4.64376E+01 1.46951E+02 8.05018E+00-1.00825E+03
 -1       533-5.92024E+02-9.97978E+00-4.04843E+00 3.78090E+01 2.33300E+00-2.49551E+02
 -1       534 4.52380E+04 9.83464E+01 8.82492E+01 2.58263E+02-5.52889E+01-1.40634E+03
 -1       535-7.28663E+02-5.68790E+00-4.19729E+01 5.32829E+01-2.68772E+00-1.73998E+02
 -1       536 1.34501E+04-1.04721E+02-6.18890E+01 2.11609E+02 4.31034E+01-9.49324E+02
 -1       537 3.32560E+04 6.02556E+01 5.89606E-01 6.85920E+00-5.63262E-01-1.45342E+03
 -1       538 2.04010E+04-1.37004E+01-5.08361E+01 5.57175E+01-1.42265E+01-6.82374E+02
 -1       539 5.98519E+03-1.90233E+01-1.25777E+01 6.93011E+01-4.01248E+00-7.75243E+02
 -1       540 9.08450E+03-8.60694E+00-4.47454E+01 6.04975E+01-1.76928E+00-5.11099E+02
 -1       541 7.63788E+04-2.42262E+02 1.25542E+03 3.12197E+02 2.44034E+02-1.27603E+03
 -1       542 7.15458E+04 1.93551E+01 1.25833E+02 3.44522E+02 3.79935E+01-1.62683E+03
 -1       543 7.41432E+04-8.39060E+01-4.06676E+01 1.13805E+02 1.59982E+01-1.02316E+03
 -1       544 8.93162E+04-9.39854E+03 7.00769E+03-6.45537E+02 3.04604E+02-2.22035E+03
 -1       545 3.85919E+04-1.34458E+01-5.01008E+01 1.28740E+02 1.11478E+01-8.46588E+02
 -1       546 2.70288E+04-9.79929E+00-1.38796E+01 1.53625E+02 5.69922E+00-1.31456E+03
 -1       547-1.31296E+03-4.93321E+01-4.62059E+01-3.24465E+00-3.61170E+00 1.22544E+02
 -1       548 7.88072E+04 8.99314E+01 8.54958E+00 1.89679E+02 1.55003E+01-1.06087E+03
 -1       549-1.45483E+03-3.52839E+01-4.46318E+01-1.74388E+01-2.61770E+00 5.74180E+00
 -1       550 5.91874E+04 1.82888E+01 3.74753E+00 3.47053E+02-5.14695E+00-1.64969E+03
 -1       551 6.20169E+02-1.57054E+01-3.37526E+01 9.70308E+01-3.10767E+00-4.12692E+02
 -1       552 1.85525E+03-3.35757E+01-3.35043E+01 9.46494E+01-9.70771E+00-4.98225E+02
 -1       553 8.70047E+03-2.61049E+01-4.17438E+01 1.32477E+02 1.12169E+01-8.65206E+02
 -1       554-2.16118E+02-3.19430E+01-4.12012E+01 5.22756E+01-2.38659E+00-3.17353E+02
 -1       555 1.55993E+04-2.88409E+01-4.28749E+01 2.13386E+02-5.12571E+00-1.07299E+03
 -1       556 6.55875E+03-1.27925E+01-3.52631E+01 8.61928E+01-2.84729E+00-7.82437E+02
 -1       557 1.06745E+04 5.27478E+00-1.79344E+01 1.98960E+02-6.81270E+00-9.34010E+02
 -1       558 1.30287E+04-2.25409E+01-2.95144E+01 1.55423E+02 5.93067E+00-9.96016E+02
 -1       559-1.35025E+03-2.28341E+01-4.45827E+01 3.24273E+01-1.17420E+00-1.04127E+02
 -1       560-9.11836E+02-2.82873E+01-4.13888E+01 3.02567E+01-4.19700E+00-2.11947E+02
 -1       561 3.15195E+03-4.57365E+00-4.81782E+01 7.67380E+01-3.02913E-02-6.27529E+02
 -1       562 1.80159E+04-2.92842E+00-1.91568E+01 2.06575E+02-1.11498E+01-1.14331E+03
 -1       563 2.39687E+04-9.63045E+00-1.19951E+01 1.53367E+02-1.90473E+01-1.23244E+03
 -1       564 5.56099E+04-1.60812E+01-2.25056E+01 2.61656E+02 1.30260E+01-1.62498E+03
 -1       565 5.11837E+04 1.21313E+01-4.01019E+01 2.80736E+02 1.13993E+01-1.58698E+03
 -1       566 4.40389E+04-8.27566E+00-1.97835E+01 1.87207E+02 6.37504E+00-1.51976E+03
 -1       567 4.04306E+04-2.07342E+01-2.07620E+00 1.83250E+02 3.32337E+00-1.46403E+03
 -1       568 4.78866E+04-2.35666E+01-4.02645E+00 2.66917E+02 1.00371E+00-1.52290E+03
 -1       569 3.66682E+04-3.42933E+00-4.15448E+01 2.54116E+02 7.99981E+00-1.44257E+03
 -1       570 4.76031E+03-1.99995E+01-3.43488E+01 8.09916E+01-4.47148E+00-6.92674E+02
 -1       571 2.11811E+04-1.89590E+01-2.12816E+01 2.14761E+02 6.89919E+00-1.20783E+03
 -1       572 3.36841E+04-2.10912E+01-6.47646E+00 2.36907E+02-2.37698E+00-1.36533E+03
 -1       573 3.46453E+04 5.05387E+00-1.75905E+01 6.17524E+01-5.94611E+00-8.08121E+02
 -1       574 6.75197E+04-3.99015E+01-5.06340E+01 3.47222E+02 1.78333E+01-1.68444E+03
 -1       575-8.35675E+02-1.94745E+02-8.14641E+01 5.65173E+01-6.99912E-01 3.06403E+02
 -1       576 6.32059E+04 1.56246E+02 1.92193E+03 2.97257E+02 6.29718E+01 5.21712E+01
 -1       577-1.31729E+03-3.35622E+01-7.00443E+01-3.13572E+01-5.54645E+00 1.17384E+02
 -1       578 7.89705E+04-4.55572E+02 4.89831E+03 9.23485E+01 3.75595E+02-7.55374E+02
 -1       579 1.02594E+05-6.28833E+03 2.63432E+03-4.25715E+02 5.40744E+02-4.91931E+03
 -1       580 5.99953E+04-2.92903E+03 4.41371E+03-2.15838E+02-1.60731E+01 5.46128E+03
 -1       581-7.27633E+02-9.27995E+01-1.44252E+01 8.17261E+00 9.78577E-02 2.16048E+02
 -1       582-8.25420E+02-1.46983E+02-1.12660E+02 2.35678E+01-1.39184E+01 1.28076E+02
 -1       583-1.14315E+03-1.34392E+01-7.02765E+01 2.30136E+01-2.02102E+00 2.31901E+02
 -1       584 1.04833E+05 7.92478E+03 2.02242E+04 1.10464E+04 3.60899E+02-5.81663E+03
 -1       585 1.21398E+05 1.19479E+04 1.88508E+04 9.29677E+03-2.85215E+03-1.37256E+04
 -1       586 1.01236E+05-2.40936E+03-1.03515E+03-1.78646E+03 9.82434E+02-1.20404E+03
 -1       587 5.83023E+04 4.12347E+03 1.04293E+04 1.28760E+03 1.64948E+03 1.09749E+04
 -1       588 6.48287E+04 7.27082E+03 1.53999E+04 6.18151E+03 2.40189E+02 8.76934E+03
 -1       589 5.02120E+04-8.24336E+02 7.88438E+02-9.46227E+02-4.49106E+02 2.81658E+03
 -1       590-6.20726E+02-1.79184E+01-3.80483E+01-6.17153E+01-3.20927E+01 8.36711E+01
 -1       591-6.29155E+02-7.85840E+01-8.77250E-01-6.35194E+01-1.40589E+01 1.89451E+02
 -1       592-1.09295E+03-2.43476E+01-5.59206E+01 2.81369E+01-8.56111E+00 5.35142E+01
 -1       593-6.15359E+02-7.97198E+00-1.06814E+02-5.28106E+01-5.64210E+00 2.89748E+02
 -1       594-5.20233E+02 1.21655E+01-5.75283E+01-7.68002E+01 1.47890E+01 1.78938E+02
 -1       595-6.39515E+02-3.51830E+01 7.37975E+00 6.70943E+00 1.08181E+01 9.72468E+01
 -1       596 7.42501E+04 8.73503E+03 1.88715E+04 7.75941E+03-5.64173E+02 5.96330E+03
 -1       597 8.46153E+04 1.20517E+04 2.31242E+04 9.93512E+03 8.93013E+02 3.66975E+03
 -1       598 6.64428E+04-4.47105E+03 7.17436E+03 1.74202E+01 5.95021E+00 4.55180E+03
 -1       599 9.10231E+04 7.73067E+03 2.05592E+04 8.68838E+03 6.19757E+02 7.66635E+02
 -1       600 1.01635E+05 1.26606E+04 2.49873E+04 1.14226E+04 1.07400E+03-3.36367E+03
 -1       601 8.11854E+04-6.69718E+03 9.16677E+03-1.41628E+02-2.63419E+01 1.72504E+02
 -1       602 9.64385E+04-8.31208E+03 6.47679E+03-6.78228E+02 1.50474E+02-3.95265E+03
 -1       603-5.98521E+02-3.64590E+01-5.12034E+01-4.95230E+01 1.97564E-01 2.91755E+02
 -1       604-6.07359E+02-7.98061E+01-1.38102E+02-5.96153E+01 2.05645E+00 2.86254E+02
 -1       605-7.86327E+02-1.63328E+02-6.88678E+01 2.44638E+01 3.29531E+00 2.61715E+02
 -1       606-6.45160E+02-5.51310E+01-3.14981E+01-4.06157E+01 7.09133E-01 2.33664E+02
 -1       607-6.20325E+02-6.67185E+01-6.71850E+01-7.27268E+01 1.69822E+00 2.64415E+02
 -1       608-8.17170E+02-1.59995E+02-9.69540E+01 3.42028E+01 6.86238E-01 2.98482E+02
 -1       609-8.39923E+02-1.63347E+02-1.11835E+02 2.29583E+01 1.27533E-01 1.94050E+02
 -1       610 5.36715E+04 4.48473E+02 8.75447E+02 3.35575E+02 1.16098E+01-1.55506E+02
 -1       611 5.47036E+04 7.13843E+02 1.94062E+03-2.16624E+02 4.13665E+02 1.07957E+03
 -1       612 6.12134E+04-1.22917E+02 3.33688E+03 2.80009E+02 1.53402E+02 2.58834E+03
 -1       613 5.01780E+04 1.68028E+02 1.49496E+02 2.55754E+02 7.72251E+01-1.01581E+03
 -1       614 5.12169E+04 4.35073E+01 2.29636E+02 2.16677E+02 5.64061E+00-8.07207E+02
 -1       615 6.10051E+04-3.17366E+00 9.00159E+02 2.59874E+02-6.00890E+00-8.94080E+02
 -1       616 4.72394E+04-6.50467E+01 6.43454E-01 3.30362E+02 8.31607E+01-9.97982E+02
 -1       617 4.82663E+04-8.66483E+01-1.84130E+01 1.16930E+02 5.50163E-01-1.08714E+03
 -1       618 5.68411E+04-1.54074E+02-6.68990E+01 2.22339E+02 1.89822E+01-1.60223E+03
 -1       619 4.42414E+04 9.91394E+01 3.80361E+01 1.39163E+02-9.01923E+00-1.00908E+03
 -1       620 4.54144E+04 7.90858E+01 1.52347E+01 3.18365E+02-2.26248E+01-1.02237E+03
 -1       621 5.36732E+04 7.09011E+01 3.96379E+01 3.14199E+02 5.92204E+01-1.62997E+03
 -1       622 4.13890E+04-9.10960E+01-5.61507E+01 2.53184E+02 4.01706E+01-9.75131E+02
 -1       623 4.27518E+04-6.95458E+01 1.06209E+01 9.80232E+01-7.34675E+00-9.94477E+02
 -1       624 5.01704E+04-5.00796E+01-6.01593E+01 6.42057E+01-1.98017E+01-1.60628E+03
 -1       625 3.87332E+04 7.55600E+01 3.65631E+01 9.13335E+01 1.65613E+00-1.00527E+03
 -1       626 3.97584E+04 6.00505E+01 2.07828E+00 3.08343E+02-6.92570E+01-9.26832E+02
 -1       627 4.67057E+04-7.61721E+01-6.46300E+01 2.48366E+02-6.11134E+01-1.55504E+03
 -1       628 3.59953E+04 4.94635E+01-3.82958E+01 1.13096E+02 3.03620E+01-1.03054E+03
 -1       629 3.73001E+04-3.08149E+01 1.30892E+01 9.54200E+01-1.90981E+01-1.00756E+03
 -1       630 4.40806E+04 1.08055E+02 1.77436E+02 1.73037E+02 6.28767E+00-1.50160E+03
 -1       631 3.36288E+04-3.71968E+01 3.93732E+01 3.20910E+02 5.73205E+01-9.21909E+02
 -1       632 3.44815E+04-1.29795E+02-9.81410E+01 1.49706E+02 1.48768E+01-9.65149E+02
 -1       633 4.06716E+04-6.82930E+01-7.70327E+01 2.19983E+02-4.91460E-01-1.51946E+03
 -1       634 3.09357E+04 1.15804E+01 8.48986E+00 2.31285E+02 1.88477E+01-8.59933E+02
 -1       635 3.20236E+04 2.04201E+01-1.23472E+01 2.67178E+02-3.15546E+01-8.95103E+02
 -1       636 3.81390E+04 4.31268E+01 5.18073E+01 2.67182E+02 4.07604E+01-1.48645E+03
 -1       637 2.83839E+04 6.53859E+01-1.98735E+00 6.07057E+01 3.67994E+00-8.94001E+02
 -1       638 2.94281E+04 4.31041E+01 2.34654E+01 1.93808E+02-1.59785E+01-8.68282E+02
 -1       639 3.49352E+04 7.43515E+01 9.12567E+00 1.31853E+02 2.43844E+01-1.47507E+03
 -1       640 2.59047E+04 4.09741E+01-3.29683E+01 8.27924E+01 5.01561E+01-9.29186E+02
 -1       641 2.71052E+04-3.02688E+01 2.17899E+01 8.18418E+01-3.12112E+00-8.84034E+02
 -1       642 3.19918E+04-3.47370E+01 1.85592E+00 2.17230E+01-1.57616E+01-1.41642E+03
 -1       643 2.37893E+04-4.41407E+01 3.59880E+01 2.90653E+02 5.48442E+01-8.29843E+02
 -1       644 2.45534E+04-1.18678E+02-8.25685E+01 1.35824E+02 1.44407E+01-8.72759E+02
 -1       645 2.90847E+04-1.00435E+02-9.23178E+01 1.59575E+02-1.23302E+01-1.39015E+03
 -1       646 2.13382E+04 6.87862E+01 1.42878E+01 1.14434E+02-9.92249E+00-7.90732E+02
 -1       647 2.23503E+04 4.05490E+01 1.98280E+00 2.41653E+02-3.50257E+01-8.25170E+02
 -1       648 2.67839E+04 3.77186E+01 4.29356E+01 2.48400E+02 3.84866E+01-1.34179E+03
 -1       649 1.92089E+04-5.66535E+01-2.18790E+01 1.55902E+02 1.81218E+01-7.67364E+02
 -1       650 2.01550E+04-7.32712E+01 5.53727E+00 5.56226E+01 1.28191E+00-8.00951E+02
 -1       651 2.39568E+04 2.65247E+01 4.18367E+00 3.68038E+01 1.78693E+01-1.29053E+03
 -1       652 1.70007E+04-3.68297E+01 1.36198E+00 2.14316E+02 2.09956E+01-7.33476E+02
 -1       653 1.79229E+04-3.49968E+01-1.15096E+01 1.89674E+02-1.68068E+01-7.22482E+02
 -1       654 2.13844E+04-7.54820E+01-2.87012E+01 9.56816E+01-1.48670E+01-1.26570E+03
 -1       655 1.49901E+04 5.10066E+01 1.75649E+01 7.16068E+01 6.44923E+00-7.47249E+02
 -1       656 1.57318E+04 2.37363E+01-1.29991E+01 2.34326E+02-4.82892E+01-7.05696E+02
 -1       657 1.87870E+04-5.12815E+01-4.21323E+01 2.02792E+02-4.39217E+01-1.18175E+03
 -1       658 1.29631E+04 3.28706E+01-2.70012E+01 8.71472E+01 2.27260E+01-7.41825E+02
 -1       659 1.39001E+04-2.94945E+01 4.03217E+00 7.43151E+01-1.46241E+01-7.34181E+02
 -1       660 1.68039E+04 7.25783E+01 1.23803E+02 1.34254E+02 8.06175E+00-1.10124E+03
 -1       661 1.12671E+04-4.48462E+01 2.23473E+01 2.26812E+02 4.54043E+01-6.42224E+02
 -1       662 1.18641E+04-1.00255E+02-7.52551E+01 1.10092E+02 1.23685E+01-6.82029E+02
 -1       663 1.43033E+04-5.72287E+01-6.08327E+01 1.60737E+02 2.75846E+00-1.08673E+03
 -1       664 9.43974E+03 5.31595E+01 1.85768E+01 7.32570E+01-9.25268E+00-6.12237E+02
 -1       665 1.01605E+04 3.98845E+01 1.45394E+00 1.99119E+02-1.87810E+01-6.27620E+02
 -1       666 1.24821E+04 3.89540E+01 3.08729E+01 2.06014E+02 3.37848E+01-1.01964E+03
 -1       667 7.76660E+03-7.12393E+01-2.95571E+01 1.35181E+02 2.70207E+01-5.59361E+02
 -1       668 8.53596E+03-5.50176E+01 9.54592E+00 5.86474E+01 1.66188E+00-5.81386E+02
 -1       669 1.03520E+04-4.19392E+01-3.69891E+01 3.12346E+01-7.27915E+00-9.64366E+02
 -1       670 6.31239E+03 5.08442E+01 4.80625E+01 7.97773E+01-8.73682E+00-5.44587E+02
 -1       671 6.82311E+03-2.84138E+00-2.51806E+01 1.88440E+02-3.49588E+01-5.30180E+02
 -1       672 8.26440E+03-6.71751E+01-4.57752E+01 1.39026E+02-4.06340E+01-8.86460E+02
 -1       673 4.85181E+03-2.24682E+01-2.16094E+01 1.08494E+02 1.71752E+01-4.64333E+02
 -1       674 5.50194E+03-5.26169E+01 9.20891E+00 4.70476E+01-1.70859E+01-5.22957E+02
 -1       675 6.89058E+03 3.23492E+01 5.21754E+01 1.03175E+02 6.96906E+00-8.19454E+02
 -1       676 3.59636E+03-1.20041E+01 4.01323E-01 8.78964E+01 2.96954E-01-4.23811E+02
 -1       677 4.08152E+03-8.09260E+00-1.39629E+01 1.06285E+02-2.21903E+00-4.37006E+02
 -1       678 5.20224E+03 3.35212E+01 6.24019E+00 6.22776E+01 2.21369E+00-7.59625E+02
 -1       679 2.41899E+03 5.31500E+00-8.01791E+00 4.21026E+01 1.57881E+01-3.85392E+02
 -1       680 2.92650E+03-1.92185E+01 7.13000E+00 8.03856E+01-1.83505E+01-3.90125E+02
 -1       681 3.69878E+03-4.10866E+01-2.01066E+01 2.80737E+01-1.41449E+00-6.85068E+02
 -1       682 1.47608E+03-3.37113E+01-4.27349E+00 7.71104E+01 4.42765E+00-3.31235E+02
 -1       683 1.84686E+03-4.09799E+01-2.17307E+01 4.59773E+01-6.75341E-02-3.53607E+02
 -1       684 2.47842E+03 9.22706E+00 1.81187E+01 2.77007E+01 8.04531E+00-5.79359E+02
 -1       685 6.32397E+02-2.63411E+01-5.08399E+00 6.40070E+01 5.85520E+00-2.69331E+02
 -1       686 9.58924E+02-2.46805E+01-6.09936E+00 7.02883E+01-6.75042E+00-2.80447E+02
 -1       687 1.38422E+03-3.82799E+01-1.25873E+01 4.24908E+01-2.80871E+00-5.09721E+02
 -1       688-4.71490E+01-2.77547E+01 2.53353E+00 6.11110E+01 8.45502E+00-2.03358E+02
 -1       689 2.02899E+02-2.47081E+01-1.25377E+01 6.52119E+01-1.04413E+01-2.20991E+02
 -1       690 4.44796E+02-2.93510E+01-1.47793E+01 3.67217E+01-1.48217E+01-4.12410E+02
 -1       691-5.58356E+02-2.84878E+00-3.08335E+00 2.65855E+01 8.00720E+00-1.48966E+02
 -1       692-3.72288E+02-2.12023E+01-8.35681E+00 5.65104E+01-6.94127E+00-1.65952E+02
 -1       693-2.59793E+02-2.23396E+01-8.51922E+00 4.57895E+01 4.23760E+00-3.13948E+02
 -1       694-8.97513E+02-2.12096E+01-6.19092E+00 1.72823E+01 2.42744E-01-9.21316E+01
 -1       695-7.94876E+02-2.37817E+01-1.33129E+01 1.79106E+01-7.62654E-01-1.14678E+02
 -1       696-7.96791E+02 1.16390E-01 3.45512E+00 2.95662E+01 7.41567E+00-2.03484E+02
 -1       697-1.01315E+03-1.11603E+01 2.81566E+00 1.30071E+01 8.10042E+00-2.25703E+01
 -1       698-1.01708E+03-3.56753E+01-1.26949E+01 1.78530E+01-6.83083E-01-4.09328E+01
 -1       699-1.14096E+03-2.58013E+01-1.20615E+01 1.12302E+01-8.02167E+00-1.02011E+02
 -1       700-9.76631E+02-1.64889E+01 2.35695E+00 8.18293E+00 5.14276E+00 5.24985E+01
 -1       701-1.06441E+03-2.38485E+01-1.85253E+01 6.74717E+00-1.17868E+00 1.90194E+01
 -1       702-1.22245E+03-2.26605E+01-1.02923E+01 2.29562E+01 5.61044E+00 6.59525E+00
 -1       703-8.17503E+02-1.97948E+01 1.67115E+00-7.09711E+00 7.78654E+00 1.07200E+02
 -1       704-9.30131E+02-1.90942E+01 1.45829E+00-2.73560E+00 4.13741E+00 9.45030E+01
 -1       705-1.11480E+03-2.12915E+01 2.59782E+00-1.19386E+01 6.82014E+00 1.11658E+02
 -1       706-8.87841E+02-4.14908E+01-1.29523E+01-1.91911E+01 9.08776E-01 1.86720E+02
 -1       707 1.00204E+05 6.08841E+02 1.55802E+03-3.41097E+02-5.02995E+02-1.08012E+03
 -1       708 9.90961E+04-6.74254E+01 2.77754E+02-2.05320E+02 2.15270E+02-4.63734E+02
 -1       709 9.62978E+04-3.36129E+02 2.27133E+03-2.09281E+02 2.19134E+02-2.52140E+03
 -1       710 9.69141E+04 4.09517E+00 7.52266E+01 5.60055E+01-2.58045E+01-3.73596E+02
 -1       711 9.48208E+04-3.77333E+01-4.79038E+00 1.64591E+02-4.23558E+01-3.67613E+02
 -1       712 9.08848E+04-1.85936E+01 5.89775E+02-5.62891E+01 2.00656E+02-9.96774E+02
 -1       713 9.22980E+04-7.66377E+00-2.84592E+01 1.60322E+02 7.40778E+00-4.24979E+02
 -1       714 8.96058E+04-1.67650E+01-4.16047E+01 2.21937E+02-5.21846E+01-4.71802E+02
 -1       715 8.61971E+04-5.48514E+01 3.54789E+00 1.33850E+02 1.69359E+01-8.90685E+02
 -1       716 8.71844E+04 2.35797E+01 9.87138E+00 2.23312E+02 5.53322E+01-4.81267E+02
 -1       717 8.43837E+04 3.11705E+01 1.73343E+01 1.16147E+02-1.65988E+01-4.28885E+02
 -1       718 8.13393E+04 1.10714E+00-4.60790E+01 2.18494E+02 5.24559E+00-1.00125E+03
 -1       719 8.19202E+04-3.50323E+01-2.48881E+01 9.96051E+01 2.70317E+01-4.48446E+02
 -1       720 7.92106E+04-7.13591E+01-2.87483E+01 2.26649E+02-2.70356E+01-4.95706E+02
 -1       721 7.66076E+04 3.11414E+01 1.89837E+01 8.09277E+01 5.56451E+00-1.00320E+03
 -1       722 7.66122E+04 1.49686E+01 2.33215E+01 1.89606E+02 5.21031E+01-5.11870E+02
 -1       723 7.37661E+04 3.10394E+01 1.07116E+01 9.04431E+01-2.18755E+01-4.49236E+02
 -1       724 7.15597E+04-7.26208E+01-1.47282E+01 1.90953E+02 1.74371E+01-1.02615E+03
 -1       725 7.14811E+04-3.83164E+01-2.76872E+01 1.08280E+02 2.28428E+01-4.54942E+02
 -1       726 6.88381E+04-6.34728E+01-4.03996E+01 2.45802E+02-4.39052E+01-4.91881E+02
 -1       727 6.67647E+04 2.53062E+01 1.03309E+01 9.31049E+01 2.69827E+00-1.01072E+03
 -1       728 6.63188E+04-4.31851E+01-3.26391E+01 2.72503E+02 3.52194E+01-4.71342E+02
 -1       729 6.38390E+04 5.41381E+01 4.59861E+01 1.37871E+02-1.20086E+01-4.08868E+02
 -1       730 6.18780E+04-1.08037E+02-6.80499E+01 2.69492E+02 3.40989E+00-1.00434E+03
 -1       731 6.16088E+04-4.91862E+01 1.26473E+01 5.37630E+01 3.02350E+01-3.80857E+02
 -1       732 5.88675E+04 1.20589E+01-2.87816E+01 8.09899E+01-2.10140E+01-4.17415E+02
 -1       733 5.77550E+04 1.05643E+02 1.77110E+01 1.87111E+02-8.80994E+00-9.59281E+02
 -1       734 5.67032E+04-2.97907E+01-2.75057E+01 8.33405E+01 1.86882E+01-4.23908E+02
 -1       735 5.42841E+04-3.82878E+01-1.56192E+01 1.73830E+02-2.26110E+01-4.54817E+02
 -1       736 5.31353E+04 4.05932E+01 4.18937E+00 7.52509E+01 2.83611E+00-9.52652E+02
 -1       737 5.20302E+04-3.17604E+01-2.04965E+01 1.77795E+02 2.66357E+01-4.53353E+02
 -1       738 4.95504E+04-2.77891E+01-2.43952E+01 1.89904E+02-5.31694E+01-4.43587E+02
 -1       739 4.87720E+04-8.10399E+01-3.79843E+01 1.37014E+02-9.09368E-01-9.25668E+02
 -1       740 4.73141E+04-3.95194E+01-2.81717E+01 2.38447E+02 2.90713E+01-4.15429E+02
 -1       741 4.50871E+04 4.77952E+01 4.45564E+01 1.25311E+02-9.41173E+00-3.62024E+02
 -1       742 4.43103E+04-7.42672E+01-6.53883E+01 2.10882E+02 3.36236E+00-8.97871E+02
 -1       743 4.31394E+04-5.41189E+01-1.51281E+01 6.15780E+01 2.56196E+01-3.35475E+02
 -1       744 4.07629E+04 1.46373E+01-3.33158E+01 1.52086E+02-1.99101E+01-4.08808E+02
 -1       745 4.06941E+04 8.35578E+01 1.19156E+01 1.74637E+02-5.21544E+00-8.45626E+02
 -1       746 3.87341E+04 1.35173E+01-1.80115E+01 1.43427E+02 1.75865E+01-3.94810E+02
 -1       747 3.65944E+04-1.93453E+01-7.94590E+00 1.27858E+02-1.96304E+01-3.83698E+02
 -1       748 3.66600E+04 6.91529E+01-4.78954E+00 1.16290E+02 1.21124E+01-8.28635E+02
 -1       749 3.46520E+04-4.38583E+01-4.61964E+00 1.31113E+02 3.54361E+01-3.68667E+02
 -1       750 3.23992E+04 1.64009E+01-1.01421E+01 8.84628E+01-2.12178E+01-3.62149E+02
 -1       751 3.26808E+04-5.81467E+01-3.29031E+01 7.29769E+01-1.55049E+01-7.88252E+02
 -1       752 3.06301E+04-3.39255E+01-2.67850E+01 4.00979E+01 9.17899E+00-3.14679E+02
 -1       753 2.86035E+04-4.78947E+01-3.70649E+01 1.22107E+02-2.18337E+01-3.73232E+02
 -1       754 2.90147E+04 3.50204E+01-5.32276E+01 5.48755E+01-6.41599E+00-7.66003E+02
 -1       755 2.67725E+04-2.30315E+01-1.39801E+01 1.36427E+02 1.94059E+01-3.58980E+02
 -1       756 2.48188E+04-1.91474E+01-2.14208E+01 1.27903E+02-3.24445E+01-3.55624E+02
 -1       757 2.53688E+04-7.49997E+01-4.71425E+01 9.79763E+01 4.05391E+00-7.41848E+02
 -1       758 2.31410E+04-1.24784E+01-2.94575E+01 1.24425E+02 1.75074E+01-3.35272E+02
 -1       759 2.12811E+04-5.06856E+00-2.50963E+01 1.16392E+02-3.47977E+01-3.40280E+02
 -1       760 2.19712E+04-2.87331E+01-5.50966E+01 8.67149E+01-7.66870E+00-6.96113E+02
 -1       761 1.96254E+04 2.41038E+01-9.43465E+00 1.12387E+02 1.27850E+01-3.14985E+02
 -1       762 1.79054E+04 2.81584E+01-1.22008E+01 4.26035E+01-1.42156E+01-2.71285E+02
 -1       763 1.88045E+04 2.64085E+01-3.72477E+01 1.02113E+02-1.44438E+01-6.69499E+02
 -1       764 1.64521E+04-2.38800E+01-4.04823E+01 8.30545E+01 1.86165E-02-2.80527E+02
 -1       765 1.48800E+04-2.60484E+01-2.62473E+01 1.36910E+02-3.90181E+01-2.94088E+02
 -1       766 1.57377E+04-4.25559E+01-3.71318E+01 3.84207E+01-1.48817E+01-5.95097E+02
 -1       767 1.34275E+04-3.74275E+00-1.43291E+01 1.23884E+02 2.88524E+01-2.79555E+02
 -1       768 1.19011E+04-1.21428E+01-1.21015E+01 1.09330E+02-1.84280E+01-2.72425E+02
 -1       769 1.29840E+04-2.87082E+01-3.50189E+01 1.21786E+02 5.14830E+00-5.87985E+02
 -1       770 1.06218E+04-8.92574E+00-2.20665E+01 1.00954E+02 1.85160E+01-2.52171E+02
 -1       771 9.23953E+03-2.82437E+00-2.05674E+01 9.47459E+01-1.95208E+01-2.50479E+02
 -1       772 1.03486E+04-7.78959E+00-3.64023E+01 8.04613E+01 1.64461E+00-5.26394E+02
 -1       773 8.05311E+03 8.17001E+00-1.79546E+01 8.13619E+01 8.86320E+00-2.23770E+02
 -1       774 6.83340E+03 1.99727E+01-1.49076E+01 3.23249E+01-7.18056E+00-1.94882E+02
 -1       775 7.94648E+03 1.94587E+01-4.34182E+01 7.39291E+01-5.01010E+00-4.85892E+02
 -1       776 5.81001E+03-2.13082E+01-3.06644E+01 5.95715E+01 3.20770E+00-1.98090E+02
 -1       777 4.68872E+03-3.07352E+01-3.85294E+01 7.62344E+01-2.88782E+01-1.91603E+02
 -1       778 5.79081E+03-3.34160E+01-3.99233E+01 2.66678E+01-6.27137E+00-4.18624E+02
 -1       779 3.73117E+03-3.44004E+01-3.29815E+01 1.00970E+02 8.33750E+00-1.64159E+02
 -1       780 2.82498E+03 1.22598E+01-8.95364E-01 4.72312E+01-5.99993E+00-1.43254E+02
 -1       781 3.76740E+03-6.62485E+01-7.54843E+01 8.62166E+01 9.47120E+00-3.83276E+02
 -1       782 2.08265E+03-1.94261E+01-2.22088E+01 1.76322E+01 3.23986E+00-1.16425E+02
 -1       783 1.24665E+03 5.21723E+00-3.43531E+01 2.33376E+01-8.54086E+00-1.23339E+02
 -1       784 2.29400E+03 8.65985E+00-3.93092E+01 7.97122E+01-5.68878E+00-3.29189E+02
 -1       785 6.10137E+02-1.91436E+01-3.16147E+01 3.19785E+01 2.83310E+00-1.12760E+02
 -1       786-2.66293E+01-2.51268E+01-3.27635E+01 4.72343E+01-1.66920E+01-1.15574E+02
 -1       787 8.30243E+02-4.01099E+01-5.54068E+01 4.05056E+01-1.03812E+00-2.62952E+02
 -1       788-5.34955E+02-2.77263E+01-3.49459E+01 5.06526E+01 2.45350E+00-8.24222E+01
 -1       789-9.78374E+02 2.04328E+00-2.04533E+01 2.51060E+01-6.52044E+00-6.99547E+01
 -1       790-3.05143E+02-4.11020E+01-7.15201E+01 5.12390E+01 3.47164E+00-1.99953E+02
 -1       791-1.31965E+03-1.23566E+01-3.36961E+01 1.57291E+01 2.59248E+00-4.39247E+01
 -1       792-1.57557E+03-2.27499E+01-3.45175E+01 1.98628E+01-4.74153E+00-4.68682E+01
 -1       793-1.04484E+03 9.47820E-01-5.16000E+01 3.76575E+01-4.43781E+00-1.33874E+02
 -1       794-1.76133E+03-2.66991E+01-3.49398E+01 1.79463E+01-4.13251E+00-1.46735E+01
 -1       795-1.86273E+03-7.98630E+00-2.80250E+01 2.75232E-01-3.71670E+00-4.81595E+00
 -1       796-1.58237E+03-3.58326E+01-6.87277E+01 2.06082E+01 4.42009E+00-6.84365E+01
 -1       797-1.83092E+03-2.12667E+00-3.07848E+01-6.70706E+00-3.02156E+00 2.07747E+01
 -1       798-1.76140E+03-1.48371E+01-4.21820E+01-6.48732E+00-1.95074E+00 1.68970E+01
 -1       799-1.71029E+03-2.96236E+01-6.51585E+01 1.79970E+00-7.66815E+00 9.74360E-03
 -1       800-1.55258E+03-3.65498E+00-3.09349E+01-1.17799E+01-7.64003E+00 4.89723E+01
 -1       801-1.31758E+03-1.49410E+01-3.90716E+01-8.04991E+00-1.01793E+01 5.61183E+01
 -1       802-1.53612E+03-2.82871E+01-7.14206E+01-3.70321E+01-7.19348E+00 7.72275E+01
 -1       803-1.16231E+03-6.13102E+01-1.03314E+02-6.51211E+00-8.01932E+00 1.18115E+02
 -1       804 3.96731E+03-1.63447E+01-8.37338E+00 5.83700E+01 2.55832E+01-6.71252E+02
 -1       805 4.55178E+03-3.20096E+01-4.11774E+01 2.96021E+01-1.11347E+01-7.44930E+02
 -1       806 5.46546E+03 2.20589E+01-1.29379E+01 3.89791E+01 1.14079E+01-7.89728E+02
 -1       807 6.19229E+03-1.71022E+01-2.53333E+01 9.86230E+01-2.95332E+01-7.98912E+02
 -1       808 5.60194E+03-1.71757E+01-5.75602E+01 8.62999E+01-1.32641E+01-7.53061E+02
 -1       809 3.05481E+02-2.33941E+01-3.48293E+01 3.51996E+01 1.23084E+00-4.14738E+02
 -1       810 7.26210E+02-3.20007E+01-4.73027E+01 4.70887E+01-1.09744E+01-4.71361E+02
 -1       811-4.47932E+02-2.31431E+01-4.94970E+01 2.84210E+01 6.28878E+00-3.01493E+02
 -1       812-4.50573E+01-2.89778E+01-2.07256E+01 2.01245E+01-9.37526E+00-3.74018E+02
 -1       813 1.83922E+02-3.76666E+01-3.19594E+01 8.00117E+01 8.54690E+00-3.50974E+02
 -1       814-1.55486E+03-2.67226E+01-5.18574E+01 5.75748E+00-1.30301E-01-1.23923E+01
 -1       815-1.60335E+03-2.65878E+01-5.61721E+01-8.58035E+00-9.95838E+00 2.64064E+01
 -1       816-1.53861E+03-2.80658E+01-6.09958E+01-1.97523E+01-1.37709E+01 8.44096E+01
 -1       817-1.49052E+03-5.87414E+01-7.77207E+01-9.57498E+00-5.64821E+00 6.57803E+01
 -1       818-1.30832E+03-3.31111E+01-5.84957E+01-2.10596E+01-2.87341E+00 1.19479E+02
 -1       819 1.13059E+04-4.35951E+01-2.84540E+01 9.66843E+01 2.21322E+01-1.01296E+03
 -1       820 1.21416E+04-2.58113E+01-2.04664E+01 7.63411E+01-5.23884E+00-1.05236E+03
 -1       821 1.34371E+04 4.59528E+01 2.58308E+01 1.44754E+02 2.29461E+01-1.10450E+03
 -1       822 1.46412E+04 2.56667E+01 2.64754E+01 1.82329E+02 7.49228E+00-1.08048E+03
 -1       823 1.43318E+04 4.30305E+00-7.59555E+01 1.70379E+02 1.04010E+01-1.06487E+03
 -1       824 1.25334E+04-3.13414E+01-2.21126E+01 1.39291E+02 1.05834E+01-7.53494E+02
 -1       825 1.11325E+04 2.86882E-01-2.83829E+01 1.09664E+02-2.51004E+01-7.00792E+02
 -1       826 1.01677E+04-2.88090E+00 2.42004E+00 8.26854E+01 1.99470E+01-6.99472E+02
 -1       827 8.78801E+03-1.00309E+01-4.81852E+01 6.99348E+01-1.83151E+01-6.86582E+02
 -1       828 9.68720E+03-4.43954E+01-9.22653E+01 1.72865E+02 5.73094E+00-8.71831E+02
 -1       829 3.95961E+03-2.92224E+01-6.45727E+01 6.59739E+01 1.98073E+01-5.10288E+02
 -1       830 2.98791E+03-3.86097E+01-7.31717E+01 8.69625E+01-1.27691E+01-4.99905E+02
 -1       831 2.52446E+03-1.46479E+00-2.32421E+01 1.34720E+02 3.85110E+00-4.25813E+02
 -1       832 1.64805E+03-4.00883E+00-5.58797E+01 9.11234E+01-1.81752E+01-4.10179E+02
 -1       833 2.44382E+03-3.11048E+01-6.79620E+01 6.04052E+01-8.52676E+00-5.78699E+02
 -1       834-1.38346E+03-2.66978E+01-6.58287E+01 2.57361E+01-3.22796E+00-9.68421E+01
 -1       835-1.54740E+03-1.94098E+01-6.67822E+01 1.37944E+01-1.49008E+00-6.01045E+01
 -1       836-7.91466E+02-1.02665E+01-4.09860E+01 5.08355E+01 6.86290E-01-1.90373E+02
 -1       837-1.16053E+03-8.48109E+00-5.70568E+01 3.38963E+01-4.17288E+00-1.57139E+02
 -1       838-1.21683E+03-3.88199E+01-5.98375E+01 4.35486E+01-2.47468E-01-1.60953E+02
 -1       839 2.41052E+04-6.46102E+01-1.38583E+01 1.24309E+02 2.47964E+00-9.87131E+02
 -1       840 2.23106E+04-2.09369E+01-3.89495E+01 1.13127E+02-3.73522E+01-9.24094E+02
 -1       841 2.09426E+04-2.39243E+01-4.12031E+01 1.05915E+02 2.22818E+01-9.31887E+02
 -1       842 1.91780E+04-1.13530E+01-8.07296E+01 1.03108E+02-2.57381E+01-8.94309E+02
 -1       843 1.96247E+04 3.37145E+00-3.96207E+00 1.69854E+02 8.80244E+00-1.17204E+03
 -1       844 5.60827E+04-4.12696E+01 2.51183E+00 1.51842E+02 3.79410E+01-1.72458E+03
 -1       845 5.75246E+04-2.47538E+01 3.84790E+00 1.42541E+02-1.45931E+01-1.72656E+03
 -1       846 5.37991E+04-8.06970E+01-9.39915E+01 1.94451E+02-5.66170E+01-1.75540E+03
 -1       847 6.11830E+04-3.17065E+01 4.81683E+01 2.88690E+02-5.20575E+00-1.70873E+03
 -1       848 5.20652E+04-5.45401E+01-9.07707E+01 2.61195E+02-1.26402E+01-1.64274E+03
 -1       849 4.50838E+04-1.19626E+02-1.02479E+02 3.58490E+02 2.79458E+01-1.52266E+03
 -1       850 4.68202E+04-5.48858E+01 1.42191E+01 2.70362E+02-1.92136E+01-1.58143E+03
 -1       851 4.88927E+04 4.21739E+01-3.15723E+01 2.49560E+02 7.33814E+01-1.57965E+03
 -1       852 5.07240E+04 1.16431E+02 7.95036E+01 3.79835E+02-3.67541E+01-1.59344E+03
 -1       853 5.33846E+04 5.42891E+00 3.18137E+01 2.47788E+02 3.08038E+01-1.58232E+03
 -1       854 8.04068E+04 2.43941E+01 2.22259E+02 1.71182E+02 7.06360E+01-1.27826E+03
 -1       855 7.76200E+04-3.33354E+00-5.84156E+00 2.10395E+02-7.73292E+00-1.27374E+03
 -1       856 6.94573E+04 2.00400E+01 1.15884E+02 3.63373E+02 1.26587E+01-1.61735E+03
 -1       857 7.56410E+04-7.20131E+00-1.44753E+01 2.08446E+02 5.36148E+01-1.26157E+03
 -1       858 7.32212E+04 8.78884E+00-6.56374E+01 2.50539E+02-2.37184E+01-1.32583E+03
 -1       859 3.21390E+04-1.17819E+02-9.81000E+01 3.27843E+02 2.33378E+01-1.38031E+03
 -1       860 3.36324E+04-9.89209E+01-3.03280E+01 1.86842E+02-3.64883E+01-1.44068E+03
 -1       861 3.56771E+04-4.52777E+01 6.44469E+00 1.81444E+02 5.73713E+01-1.42057E+03
 -1       862 3.68835E+04-3.22120E+01-3.28319E+01 7.52807E+01-2.80481E+00-1.53554E+03
 -1       863 3.86950E+04 8.73179E+00 3.73505E+01 2.21382E+02 2.35781E+01-1.44341E+03
 -1       864 2.65059E+04 2.41368E+01-2.93425E+01 7.58949E+01 4.16305E+00-1.37698E+03
 -1       865 2.76629E+04 1.99755E+01-2.11611E+01 1.12971E+02-2.72035E+01-1.36174E+03
 -1       866 2.48777E+04-6.81175E+01-2.58607E+01 6.69623E+01-3.46121E+01-1.35595E+03
 -1       867 2.86701E+04-1.33140E+01-2.16808E+01 1.52315E+02-1.15699E+01-1.33550E+03
 -1       868 2.36278E+04 5.03695E+00-1.96113E+01 1.05698E+02 2.87623E+01-1.32669E+03
 -1       869 4.20830E+04 4.57214E+01 6.42184E+01 1.62299E+02 5.17914E+01-1.59089E+03
 -1       870 4.38418E+04 6.83908E+01 9.43639E+01 2.33443E+02 1.00622E+01-1.50393E+03
 -1       871 3.86946E+04 5.95093E+01-2.02645E+01 8.69083E+01 4.19196E+01-1.54999E+03
 -1       872 4.01857E+04-2.50586E+01-1.24693E+01 1.29965E+02-3.36306E+01-1.57716E+03
 -1       873 4.58266E+04-5.73474E+01-8.44528E+01 2.37646E+02 2.57589E+01-1.56626E+03
 -1       874 8.49532E+04-6.43835E+00 1.69924E+03 2.38931E+01 2.44942E+02-1.26636E+03
 -1       875 8.24577E+04 3.79081E+01 7.16688E+02 1.92043E+02 1.04917E+02-1.11398E+03
 -1       876 8.55943E+04-5.39799E+02 3.15120E+03-3.36989E+02 2.74712E+02-1.11712E+03
 -1       877 7.78146E+04-4.45487E+02 3.24385E+03 1.51974E+02 3.01108E+02-1.04403E+03
 -1       878 8.86122E+04-1.36254E+03 3.87788E+03-7.63249E+02 3.51791E+02-2.14360E+03
 -1       879 8.10397E+04-9.94612E+02 6.45994E+03-5.65795E+02 2.27032E+02-1.04636E+03
 -1       880 6.32324E+04-1.02179E+02-1.97716E+01 4.47802E+02 5.55177E+01-1.65646E+03
 -1       881 6.53565E+04-3.36423E+01 2.81111E+02 2.66046E+02-1.86430E+01-1.51376E+03
 -1       882 6.76604E+04-8.09783E+00 7.51032E+02 3.81886E+02 1.54864E+02-1.38279E+03
 -1       883 7.39689E+04-8.27641E+01 4.90564E+02 2.67949E+02 1.55580E+02-1.48946E+03
 -1       884 6.98358E+04 3.66315E+01 1.86986E+03 1.80226E+02 1.67031E+02-6.55151E+02
 -1       885-1.15100E+03-3.33807E+01-2.16648E+01-9.65973E+00-3.28387E+00 1.69124E+02
 -1       886-1.31440E+03-2.40277E+01-3.22033E+01-8.33980E+00 6.43225E+00 9.87519E+01
 -1       887-1.11272E+03-3.51607E+01-5.22396E+01 6.03715E+00-9.21684E+00 2.03408E+02
 -1       888-1.26734E+03-3.33037E+01-7.55112E+01 2.59515E+01-2.08412E+00 1.79531E+02
 -1       889-1.02275E+03-6.68075E+01-4.31615E+01 1.24529E+01 4.54594E-01 2.28587E+02
 -1       890-1.03950E+03-4.10457E+01-7.67495E+01 3.61750E+01 5.79980E+00 2.63990E+02
 -1       891 1.83118E+04 3.89521E+01-3.84338E+01 2.05475E+02 6.01771E+01-1.15591E+03
 -1       892 1.96612E+04 4.53022E+01 1.96270E+01 3.03662E+02-1.52086E+01-1.20055E+03
 -1       893 2.06926E+04-5.17370E+01-3.93671E+01 1.60338E+02-2.40556E+01-1.21654E+03
 -1       894 2.20239E+04-4.95195E+01-3.88741E+01 1.25663E+02-4.97338E+01-1.29510E+03
 -1       895 2.24998E+04-6.36227E+01-5.24686E+01 1.49034E+02 6.47301E+00-1.20027E+03
 -1       896-1.37950E+03-1.87267E+01-3.27132E+01-2.78297E-01 1.26278E+00 4.13297E+01
 -1       897-1.29505E+03-3.52257E+01-2.29775E+01 2.04501E+00-2.64377E+00-2.89865E+01
 -1       898-1.31036E+03-2.68465E+01-3.91750E+01 6.99398E+00-3.36802E+00-7.99044E+01
 -1       899-1.20217E+03-2.19078E+01-3.86353E+01 1.78542E+01-1.93289E-01-1.46317E+02
 -1       900-1.42944E+03-4.50723E+01-5.49764E+01 3.31314E+00-2.44369E+00-4.82514E+01
 -1       901 6.23007E+04 4.52924E+01 3.71599E+01 1.33708E+02 3.80629E+01-1.31450E+03
 -1       902 5.98787E+04-1.87401E+00-2.04233E+01 1.67507E+02-4.64989E+00-1.31622E+03
 -1       903 6.66210E+04-9.39108E+01-1.65238E+01 2.13724E+02 2.57003E+01-1.29648E+03
 -1       904 6.40895E+04-1.87084E+01-2.41748E+01 1.81945E+02-3.86100E+01-1.25583E+03
 -1       905 5.74285E+04-2.74703E+01-1.16790E+02 3.24277E+02 7.69190E+00-1.59448E+03
 -1       906 4.17302E+04-3.69953E+01-6.31545E+01 1.69304E+02 5.50259E+01-1.17186E+03
 -1       907 3.94221E+04-8.89488E+01-1.22527E+02 2.27159E+02-3.14587E+01-1.21962E+03
 -1       908 3.82286E+04 8.26917E+01 4.38662E+01 3.03540E+02 1.18595E+01-1.11909E+03
 -1       909 3.61054E+04 3.20160E+01-5.11059E+01 1.72973E+02-2.73510E+01-1.12561E+03
 -1       910 3.51605E+04-8.42753E+00-4.04907E+01 2.38986E+02-3.31704E+01-1.38607E+03
 -1       911 2.73395E+04 9.97943E+00-2.76393E+01 1.34952E+02 3.20522E+01-1.00632E+03
 -1       912 2.55902E+04-2.54756E+00-3.86996E+01 8.78242E+01-1.97457E+00-9.61021E+02
 -1       913 2.89994E+04-1.92000E+01-2.19331E+01 1.38389E+02-3.76584E+01-1.05055E+03
 -1       914 2.54980E+04 1.97070E+01 1.74795E+01 1.85731E+02-2.73962E+01-1.29625E+03
 -1       915 3.08378E+04-3.84838E+01-3.39482E+01 9.00665E+01 9.31178E+00-1.04344E+03
 -1       916 5.40021E+04 8.72281E+01 4.60640E+01 3.36433E+02 1.55841E+01-1.25052E+03
 -1       917 5.15765E+04 4.69332E+01-4.70059E+01 1.88558E+02-3.23944E+01-1.26450E+03
 -1       918 5.79238E+04-6.34720E+01-6.16482E+01 2.21319E+02 5.54542E+01-1.30897E+03
 -1       919 5.53400E+04-7.95555E+01-1.30769E+02 2.49509E+02-3.17767E+01-1.34979E+03
 -1       920 4.95230E+04 2.47398E-01-3.95397E+01 2.64105E+02-3.41229E+01-1.53440E+03
 -1       921 4.56849E+04-7.02127E+01-1.15909E+01 1.36773E+02 1.15470E+01-1.20509E+03
 -1       922 4.35493E+04-4.03401E+00-1.72813E+01 1.57539E+02-3.35747E+01-1.15626E+03
 -1       923 4.95456E+04 7.03744E+00-2.30302E+01 2.09340E+02 4.86842E+01-1.25917E+03
 -1       924 4.74673E+04 2.51443E+00-1.55746E+01 1.07268E+02 3.48323E+00-1.21308E+03
 -1       925 4.21835E+04-2.78946E+01-8.91903E+00 1.71997E+02 2.05185E+01-1.50563E+03
 -1       926 7.44540E+04-6.27526E+02 6.63710E+03-4.20928E+01 4.11186E+02 6.16946E+02
 -1       927 6.73068E+04 2.91787E+02 5.30986E+03 2.71790E+01 5.63204E+02 1.57953E+03
 -1       928 7.08197E+04-3.67313E+02 3.42454E+03-3.39750E+01 3.36372E+02-2.65713E+02
 -1       929-1.03273E+03-4.29190E+01-8.64538E+01 1.84975E+01 4.02901E-01 2.51900E+02
 -1       930-1.13278E+03-5.57819E+01-1.04863E+02 1.46701E+00 5.25623E+00 1.92815E+02
 -1       931-1.26001E+03-3.75561E+01-9.47498E+01-2.69031E+00 1.45116E+00 1.87962E+02
 -1       932 5.76184E+03-1.66662E+01-4.06546E+01 4.74225E+01-7.19793E+00-5.69979E+02
 -1       933 4.82753E+03-3.12072E+01-4.12039E+01 5.91551E+01-1.87550E+01-5.48228E+02
 -1       934 7.84267E+03-6.92969E+00-3.69616E+01 7.22169E+01 1.23370E+01-6.27850E+02
 -1       935 6.66070E+03 1.69776E+01-5.30188E+01 6.30064E+01-1.53608E+01-6.18540E+02
 -1       936 1.02179E+03-3.66806E+01-4.95480E+01 7.25175E+01-4.40004E+00-3.44109E+02
 -1       937 4.40034E+02-2.70376E+01-5.86573E+01 4.87612E+01-1.12172E+01-3.02735E+02
 -1       938-8.01445E+00-1.40148E+01-4.76358E+01 4.87238E+01 1.10419E+01-2.80658E+02
 -1       939-5.32872E+02-2.24363E+01-5.80705E+01 4.89365E+01-9.84798E+00-2.45275E+02
 -1       940 1.51083E+04 9.13484E+00-2.91795E+01 6.83735E+01 4.18361E-01-8.23622E+02
 -1       941 1.37182E+04-8.30188E+01-4.70106E+01 1.56422E+02-2.54912E+01-8.12951E+02
 -1       942 1.80100E+04 4.11308E-01-3.22057E+01 1.00026E+02 2.06015E+01-8.32119E+02
 -1       943 1.64114E+04 4.10872E+01-4.52819E+01 1.11936E+02-2.21503E+01-8.30068E+02
 -1       944 8.96906E+03-4.31847E+01-6.22809E+01 1.44674E+02-1.24414E+01-9.11306E+02
 -1       945 9.95206E+03-6.80983E+01-7.96082E+01 1.09333E+02-3.80417E+01-1.01359E+03
 -1       946 7.28294E+03 2.20899E+01-3.11563E+01 1.13331E+02 2.69724E+01-8.33869E+02
 -1       947 8.27413E+03 4.72344E+01 3.52361E+01 1.99836E+02-2.06762E+01-8.47621E+02
 -1       948 2.51875E+03 9.20383E+00-3.85744E+01 4.17366E+01 4.58383E+00-6.00717E+02
 -1       949 3.06149E+03-2.73909E+01-4.77878E+01 7.25955E+01-1.73533E+01-6.44555E+02
 -1       950 1.34703E+03-1.68444E+01-1.27942E+01 4.16295E+01 1.49675E+01-5.09550E+02
 -1       951 1.84052E+03-4.62444E+01-2.36328E+01 3.78230E+01-6.86111E+00-5.47658E+02
 -1       952 5.96546E+04 8.66378E+01 4.66342E+01 2.32560E+02 4.70506E+01-1.78186E+03
 -1       953 6.16290E+04 6.45899E+01 8.16713E+01 2.68162E+02 2.28271E+01-1.69970E+03
 -1       954 6.54510E+04-2.33430E+01-1.39503E+02 2.96749E+02 2.58806E+01-1.73156E+03
 -1       955 6.87142E+04-2.54083E+01-4.33427E+01 1.45926E+02 7.51666E+00-1.35768E+03
 -1       956 7.12031E+04 1.12168E+02-1.16668E+00 2.77331E+02 5.20605E+01-1.35247E+03
 -1       957 3.93391E+03-2.93680E+01-3.12810E+01 9.75182E+01 1.29730E+01-6.56806E+02
 -1       958 1.55613E+04-1.11794E+02-8.14525E+01 2.69836E+02 2.36507E+01-1.07167E+03
 -1       959 1.68025E+04-4.08701E+01 8.94740E+00 2.01029E+02-1.72439E+01-1.14466E+03
 -1       960 1.17961E+04-2.43666E+01 1.65334E+01 1.86008E+02-8.45662E+00-9.95189E+02
 -1       961 2.93845E+04 4.83718E+01 7.68744E+01 1.49952E+02 5.06789E+01-1.41795E+03
 -1       962 3.10015E+04 5.02350E+01 8.11784E+01 2.12989E+02 3.00376E+00-1.34998E+03
 -1       963 3.18726E+04-4.71958E+01-6.78565E+01 2.09433E+02 2.24852E+01-1.39566E+03
 -1       964 3.43623E+04-1.49112E+01-2.76211E+01 1.87771E+02 4.04226E+01-1.11075E+03
 -1       965 3.24748E+04 2.80025E+01-7.59114E+00 1.04143E+02-1.39500E+01-1.06826E+03
 -1       966 1.14453E+03-3.39381E+01-5.46788E+01 9.47370E+01-1.58321E+01-4.76917E+02
 -1       967-9.95124E+02-8.75482E+00-3.52004E+01 2.68520E+01 4.00991E+00-1.93334E+02
 -1       968-7.47687E+02-1.55939E+01-2.64258E+01 3.10990E+01-4.53664E+00-2.52944E+02
 -1       969-6.52303E+02-4.13496E+01-7.61079E+01 2.73514E+01-3.19096E-01-2.69638E+02
 -1       970 1.67733E+04-3.11506E+00 2.57705E+01 2.22715E+02-1.49705E+01-1.07442E+03
 -1       971 7.45654E+03-4.72315E+01-7.40998E+01 1.01439E+02-1.99374E+00-8.28781E+02
 -1       972-6.89232E+03 6.83085E+00 3.74883E+01 3.56221E+01 6.33985E+00-4.58724E+02
 -1       973-2.69873E+02 2.79328E+01 4.71523E+01 5.90506E+01 6.17167E+00-2.50902E+02
 -1       974 1.19399E+03 1.69981E+01-9.64326E-02 9.13810E-01-1.39767E+00 5.58633E+01
 -1       975-1.71457E+04-1.27136E+01 2.16786E+01 1.04271E+02 7.66832E+00-6.52005E+02
 -1       976-1.17416E+04 2.40198E+01 4.71791E+01 3.65352E+01 4.80461E+00-5.61589E+02
 -1       977-2.99439E+03-2.13049E-01 1.68608E+01 1.08935E+02-5.20107E+00-3.72429E+02
 -1       978 9.98565E+02 1.28843E+01 8.55090E+00 1.21605E+01-1.65034E+00-1.61942E+02
 -1       979-1.55299E+04 1.00183E+01-1.83268E+00 8.86288E+01 4.96850E-01-1.12141E+03
 -1       980-7.40446E+04 2.43121E+01 3.11130E+01 9.68443E+01 5.83027E+00-1.02050E+03
 -1       981-6.45119E+04 2.10290E+01 2.24359E+01 1.39171E+02 3.79912E+00-9.96277E+02
 -1       982-5.53614E+04 3.87106E+01 4.42169E+01 1.73967E+02-1.75860E+01-1.64747E+03
 -1       983-4.67176E+04 1.99256E+01 1.70038E+01 1.17524E+02 3.63350E+00-9.09538E+02
 -1       984-3.45995E+04 1.81478E+01 2.89508E+01 2.07518E+02-6.92398E+00-8.67040E+02
 -1       985-5.51816E+04-3.93633E+01 1.45566E+01 1.49977E+02 1.24751E+01-9.71611E+02
 -1       986-6.30159E+04-1.43614E+02-1.73095E+03 2.23327E+02-4.34605E+01-5.79182E+01
 -1       987-8.86626E+04 1.09642E+01-9.94871E+01 9.39572E+01-4.40859E+01-8.25181E+02
 -1       988 1.31772E+03 2.89016E+01 7.26117E+01-1.92757E+00 2.72666E+00 1.27820E+02
 -1       989-3.04213E+03 9.75157E+00-6.66802E+00 5.27678E+01-7.34067E+00-6.07948E+02
 -1       990-2.71825E+04 3.54715E+01 3.06496E+01 6.34283E+01-4.48876E+00-7.72385E+02
 -1       991 1.66995E+03 2.61374E+01 5.59118E+01 1.67393E+01 5.18984E+00-2.39923E+01
 -1       992-9.54916E+03 6.04790E+01 1.27887E+01 3.91451E+01-1.11984E+00-9.26593E+02
 -1       993-9.30250E+02 2.05529E+01-8.32452E-01 2.83436E+01-2.52863E+00-4.50817E+02
 -1       994-5.90486E+03 1.29589E+01 1.24673E+01 8.56200E+01 1.43720E+00-7.75168E+02
 -1       995-4.52771E+04-9.34529E+01-6.60960E+01 2.58879E+02 4.14901E+01-1.41194E+03
 -1       996-2.81076E+04 1.08374E+02 8.32805E+01 2.16375E+02-3.66608E+01-1.23991E+03
 -1       997-2.02036E+04 3.04715E+01-5.87831E+00 1.07351E+02-4.24285E+00-1.19208E+03
 -1       998-3.94686E+04 1.23865E+02 8.21069E+01 2.99862E+02-4.87091E+01-1.36165E+03
 -1       999-3.32583E+04-5.65352E+01 2.01740E+00 1.62613E+01-2.64543E+00-1.46489E+03
 -1      1000-8.89267E+04 6.27705E+03-9.23384E+03 8.29194E+02-6.16231E+02-1.70789E+03
 -1      1001 8.06512E+02 1.65264E+02 9.74648E+01 1.47922E+01 1.38748E+00 3.08225E+02
 -1      1002-5.87168E+04-4.38834E+01-2.65003E+02 2.02176E+02-2.06653E+01-1.57230E+03
 -1      1003-8.36879E+04-1.98677E+01 8.34394E+00 1.53207E+02-3.41541E+01-9.41984E+02
 -1      1004-7.88297E+04-2.70319E+00 4.26760E+01 1.44747E+02-1.41129E+01-1.02154E+03
 -1      1005-6.32804E+04 8.04711E+00 2.06058E+01 2.11837E+02-8.76197E+00-1.67535E+03
 -1      1006 1.66619E+03 6.94428E+00 6.12961E+01 9.06508E+00 8.14153E+00 4.71574E+01
 -1      1007-4.84408E+03 1.62003E+01 4.26350E+01 5.09553E+01 5.22119E+00-4.08981E+02
 -1      1008-7.34095E+01 2.23172E+01 1.84431E+00 3.14521E+01 2.74451E+00-3.51156E+02
 -1      1009-1.13091E+04-1.21045E+01-1.13121E+01 1.12898E+02 1.14052E+00-1.00162E+03
 -1      1010-1.77048E+04-6.35635E+01-4.47917E+01 2.45391E+02 3.85892E+01-1.04671E+03
 -1      1011-2.37257E+04 1.41097E+01 2.81364E+01 8.40097E+01 5.78616E+00-7.24197E+02
 -1      1012-1.43360E+04 1.03833E+01 3.50086E+01 7.60245E+01 3.42871E+00-6.13098E+02
 -1      1013-1.33456E+04 7.42191E+01 3.43550E+01 1.73237E+02-3.03376E+01-9.73677E+02
 -1      1014-5.96999E+04-6.47004E+01-5.97553E+01 2.48716E+02-8.48854E+00-1.03718E+03
 -1      1015-4.24057E+04-5.31507E+01-4.09931E+01 2.67890E+02-1.60523E+01-9.55237E+02
 -1      1016-3.85669E+04 1.19098E+01 3.47013E+01 1.44441E+02-4.53255E+00-8.53374E+02
 -1      1017-3.01991E+04 7.37688E+00 8.21337E+00 2.47470E+02-6.06274E+00-1.30761E+03
 -1      1018-3.07495E+04 6.08181E+01-9.05733E+00 1.61225E+02-1.37671E+01-1.38533E+03
 -1      1019-7.47268E+03-5.40553E+00-1.38783E+01 6.48178E+01-1.23317E+00-8.38945E+02
 -1      1020-1.47769E+03 3.48218E+00 4.47216E+01 6.91766E+01 7.77324E+00-2.93980E+02
 -1      1021-3.07478E+04-1.59960E+01 9.16765E+00 8.86251E+01 9.50559E+00-7.86285E+02
 -1      1022 1.19670E+03 2.45973E+01 4.51960E+00-2.71794E+00-3.21232E-01-4.81630E+01
 -1      1023 1.33638E+03 1.04069E+01 5.64027E+01 1.15746E+01 1.20493E+01-9.81601E+01
 -1      1024-3.62930E+04-1.97825E+01 1.49061E+01 1.32325E+02 9.02575E+00-1.44891E+03
 -1      1025-4.22139E+04-1.10368E+01 6.00556E+00 1.68274E+02-8.50062E+00-1.56581E+03
 -1      1026 7.29472E+02 1.24992E+01 4.84974E+01 5.02430E+01 2.09979E+00-1.76787E+02
 -1      1027-4.40450E+03 5.63833E-01 3.67787E+00 1.64505E+01-5.30513E-01-7.22977E+02
 -1      1028-6.93493E+04 3.35338E+01 2.96653E+01 7.25868E+01-1.56152E-01-1.01565E+03
 -1      1029-2.03059E+04-7.43300E-01 1.22654E+01 7.72804E+01 7.96830E+00-6.73572E+02
 -1      1030-5.09996E+04 4.09448E+01 3.31403E+01 7.76074E+01-6.29244E+00-9.38458E+02
 -1      1031 5.92866E+02 1.07433E+01 6.74181E+00 3.64868E+01-3.44087E+00-2.49188E+02
 -1      1032-9.15785E+03 7.37896E+00 3.28978E+01 5.40249E+01 5.84771E+00-5.09231E+02
 -1      1033-1.92678E+03 2.94247E+01 8.04822E+00 2.26355E+01-2.28793E-01-5.53096E+02
 -1      1034-7.65724E+04 2.50310E+02-1.29488E+03 2.97106E+02-2.21539E+02-1.28079E+03
 -1      1035-7.16241E+04-5.94706E+01-1.30389E+02 3.84072E+02-7.01357E+01-1.60589E+03
 -1      1036-4.85694E+04 1.01438E+02 3.40707E+00 7.94090E+01-3.39223E+00-1.60217E+03
 -1      1037-7.30340E+04 6.36454E+03-8.22282E+03-7.14150E+01-2.64596E+02 2.41611E+03
 -1      1038-2.49653E+04-7.51088E+01-2.86640E-01 1.25749E+02 7.54988E+00-1.28836E+03
 -1      1039-2.69239E+04-5.69026E+00 1.77872E+01 2.25538E+02 2.06962E+00-1.29869E+03
 -1      1040 1.33830E+03 3.59938E+01 4.25710E+01-7.29540E+00 2.65541E+00 1.26343E+02
 -1      1041-5.14702E+04-1.06593E+02 1.40540E+01 1.46709E+02 1.97721E+01-1.62180E+03
 -1      1042 1.46858E+03 3.07399E+01 4.05726E+01-1.86295E+01 3.53056E+00 3.77113E+00
 -1      1043-5.91991E+04-1.60781E+01 4.79247E+00 2.16898E+02 4.35603E+01-1.62763E+03
 -1      1044-6.34302E+02 1.39579E+01 3.68317E+01 8.93388E+01 5.45646E+00-4.08696E+02
 -1      1045 2.20624E+02 2.95194E+01 3.93689E+01 4.56316E+01 2.35776E+00-3.09770E+02
 -1      1046-3.15186E+03 9.49347E+00 4.99940E+01 7.28238E+01-6.63531E-01-6.25567E+02
 -1      1047 1.34303E+03 2.52014E+01 4.47275E+01 3.07596E+01 2.54490E+00-1.09009E+02
 -1      1048-1.06685E+04-1.32492E+01 2.78386E+01 1.21753E+02 1.96126E+01-9.17378E+02
 -1      1049-1.80129E+04-7.55712E+00 4.66434E+01 2.22079E+02-1.57066E-01-1.15354E+03
 -1      1050-8.61558E+03 3.09174E+01 3.56186E+01 1.68173E+02 3.38353E+00-8.50296E+02
 -1      1051-6.54359E+03 5.88002E+00 3.33412E+01 1.06790E+02 5.70464E+00-7.86390E+02
 -1      1052 9.30025E+02 3.09343E+01 4.74324E+01 2.75671E+01 1.91110E+00-2.13400E+02
 -1      1053-1.85645E+03 3.39054E+01 3.25683E+01 9.36566E+01 8.21008E+00-4.97583E+02
 -1      1054-2.39127E+04 4.84270E+00 1.05911E+01 1.63544E+02 1.26843E+01-1.22439E+03
 -1      1055-5.55564E+04 1.70672E+01 8.75542E+00 2.96796E+02-3.69698E-01-1.63517E+03
 -1      1056-5.11997E+04-9.79463E+00 4.51859E+01 2.82073E+02-1.08464E+01-1.60249E+03
 -1      1057-1.56599E+04 4.81542E+01 2.68540E+01 1.92224E+02 6.21715E-01-1.08837E+03
 -1      1058-4.40382E+04 7.06992E+00 1.99391E+01 1.88762E+02-3.27919E+00-1.51943E+03
 -1      1059-4.04283E+04 2.19099E+01 2.67593E+00 1.84339E+02 2.34247E+00-1.46544E+03
 -1      1060-4.78943E+04 1.93736E+01 2.15676E+00 2.64298E+02-5.28624E+00-1.52109E+03
 -1      1061-1.30393E+04 3.55349E+00 3.33646E+01 1.21497E+02-1.85537E+01-1.00253E+03
 -1      1062-4.75663E+03 1.82855E+01 3.20995E+01 8.80013E+01 1.37569E+00-6.93261E+02
 -1      1063-3.66800E+04 6.69317E+00 4.46085E+01 2.50219E+02-1.44721E+01-1.44399E+03
 -1      1064-2.11892E+04 2.41408E+01 2.39548E+01 2.20394E+02-1.06655E+01-1.20199E+03
 -1      1065-3.36927E+04 3.12944E+01 4.15699E+00 2.42796E+02 5.23296E+00-1.35369E+03
 -1      1066-2.27278E+04 6.17280E+01-6.08976E+00-1.51402E-01-8.63899E+00-1.27922E+03
 -1      1067-6.76530E+04 6.08219E+01 2.65968E+01 3.46582E+02 5.28871E+00-1.69693E+03
 -1      1068 8.68343E+02 2.00952E+02 1.44983E+02 6.22400E+01-1.92341E+00 2.48183E+02
 -1      1069-9.30396E+04 2.25917E+02-1.02904E+03-2.22969E+02-3.32966E+02-1.18408E+03
 -1      1070 1.00755E+03 1.85326E+01-8.82015E+00 5.71737E-01 5.21190E-01 1.73781E+02
 -1      1071-7.87701E+04 4.58475E+02-5.01919E+03 5.15048E+01-3.62022E+02-9.04293E+02
 -1      1072-5.98913E+04 3.01259E+03-4.29725E+03-2.81256E+02-1.58644E+01 5.39717E+03
 -1      1073-1.04097E+05 6.40603E+03-3.79057E+03 6.28762E+02-2.64115E+02-5.69011E+03
 -1      1074 8.96557E+02 1.17888E+02 1.06605E+02 2.70389E+01-1.23237E+00 1.19661E+02
 -1      1075 7.03422E+02 1.43784E+02 3.45065E+01 2.06698E+01-2.92475E+00 2.18651E+02
 -1      1076 1.08480E+03 4.57409E+01 5.58368E+01-2.13434E+01-3.81228E+00 2.31068E+02
 -1      1077-5.81505E+04-4.15939E+03-1.03531E+04 1.32802E+03-1.62726E+03 1.08985E+04
 -1      1078-6.45325E+04-7.05630E+03-1.53381E+04 6.12976E+03-2.19850E+02 8.70150E+03
 -1      1079-5.01957E+04 8.18019E+02-7.00205E+02-9.89872E+02 4.21549E+02 2.80674E+03
 -1      1080-1.08498E+05-1.33451E+04-2.38035E+04 1.26276E+04 8.56479E+02-7.01649E+03
 -1      1081-1.22157E+05-1.24575E+04-1.95010E+04 9.85267E+03 2.46267E+03-1.34616E+04
 -1      1082-1.01297E+05 2.28589E+03 1.10501E+03-1.87252E+03-7.93152E+02-1.33040E+03
 -1      1083 6.02723E+02 6.32550E+01 1.40353E+02-4.71593E+01 4.23316E+00 2.75473E+02
 -1      1084 4.85176E+02 5.88221E+00 5.92715E+01-7.18492E+01-1.49888E+01 1.76062E+02
 -1      1085 6.51578E+02 3.52670E+01-5.56577E+00 1.13262E+01-1.66614E+01 8.73705E+01
 -1      1086 6.57334E+02 1.79245E+00 3.28551E+01-6.90288E+01 2.48612E+01 8.76111E+01
 -1      1087 6.45264E+02 3.08362E+01 3.30483E+00-6.77742E+01 6.40942E+00 1.77744E+02
 -1      1088 1.16437E+03 5.87263E+01 7.50605E+01 4.45201E+01-1.67939E+01 3.80978E+01
 -1      1089-9.21963E+04-1.22493E+04-2.30995E+04 1.03246E+04 1.35072E-01 4.85711E+02
 -1      1090-9.97871E+04-1.08399E+04-2.43173E+04 1.09665E+04-7.93836E+02-3.17095E+03
 -1      1091-9.52259E+04 8.08799E+03-6.99002E+03 1.19370E+02-6.22223E+02-3.58163E+03
 -1      1092-7.36399E+04-8.53863E+03-1.84989E+04 6.96545E+03 1.61507E+02 6.20514E+03
 -1      1093-8.31388E+04-1.02438E+04-2.10161E+04 9.02934E+03-2.45539E+02 3.30650E+03
 -1      1094-8.07745E+04 5.48611E+03-9.26708E+03 4.92914E+02-3.61321E+02 3.63471E+02
 -1      1095-6.60265E+04 4.89087E+03-6.88145E+03-2.68067E+02 9.83625E+01 4.51462E+03
 -1      1096 6.34787E+02 9.35172E+01 2.78318E+01-6.10662E+01-3.32231E+00 2.41126E+02
 -1      1097 6.12422E+02 4.97277E+01 7.42854E+01-4.90565E+01-5.04519E+00 2.59599E+02
 -1      1098 8.68783E+02 1.52198E+02 1.14126E+02 3.11475E+01 1.30216E+01 2.02755E+02
 -1      1099 6.33099E+02 6.19808E+01 6.03716E+01-6.93747E+01 1.46238E+00 2.86373E+02
 -1      1100 6.26692E+02 4.77652E+01 1.50438E+02-4.03130E+01 2.72304E-01 2.99710E+02
 -1      1101 8.15289E+02 1.57048E+02 9.43308E+01 2.79889E+01 5.58568E+00 2.72082E+02
 -1      1102 7.74162E+02 1.67072E+02 8.39575E+01 1.91023E+01 2.18653E+00 2.91481E+02
 -1      1103-1.00309E+05-5.90278E+02-1.51739E+03-3.22966E+02 5.09312E+02-1.06524E+03
 -1      1104-9.90211E+04 1.51938E+01-2.90587E+02-1.49544E+02-2.01307E+02-4.84872E+02
 -1      1105-9.61374E+04 4.77194E+02-2.09308E+03-3.28174E+02-1.61472E+02-2.69047E+03
 -1      1106-9.68808E+04-3.03537E+00-5.99216E+01 8.15807E-02 3.62717E+01-3.59081E+02
 -1      1107-9.47427E+04 5.31757E+01 5.71527E+00 1.61108E+02 3.54425E+01-3.57503E+02
 -1      1108-9.07985E+04-3.13594E+01-5.11952E+02 9.51419E+00-1.92576E+02-9.09388E+02
 -1      1109-9.22912E+04 1.01079E+01 1.02838E+01 1.72033E+02-2.53654E+01-4.21002E+02
 -1      1110-8.96237E+04-6.57903E+01-9.27702E+00 1.23788E+02 1.70046E+01-4.22004E+02
 -1      1111-8.61481E+04 4.45604E+01-2.18929E+01 1.76563E+02-1.93157E+01-8.98694E+02
 -1      1112-8.72409E+04 6.71361E+01 1.01205E+01 7.52281E+01-3.62633E+01-3.97504E+02
 -1      1113-8.42886E+04-4.08933E+00 4.47267E+01 1.15171E+02 1.40112E+01-4.76389E+02
 -1      1114-8.13451E+04-3.39944E+01 5.88078E+01 1.38688E+02-8.72302E-01-9.81853E+02
 -1      1115-8.19254E+04 4.75185E+01 1.00730E+01 6.40019E+01-1.28909E+01-4.13312E+02
 -1      1116-7.90712E+04 5.22249E-01 4.50085E+01 6.63262E+01 2.39969E+01-4.56204E+02
 -1      1117-7.63994E+04-3.92580E+01 7.44754E+01 1.36283E+02 1.54371E+01-1.05063E+03
 -1      1118-7.67599E+04 3.08596E+01 1.55890E+01 8.30268E+01-1.79615E+01-4.47830E+02
 -1      1119-7.39345E+04 2.12226E+01 2.53335E+01 1.50022E+02 4.49613E+01-5.01062E+02
 -1      1120-7.15701E+04 6.87511E+01 8.24174E+01 1.05212E+02 1.69629E+00-1.05263E+03
 -1      1121-7.15104E+04 2.50645E+01 1.13778E+01 1.91751E+02-2.57915E+01-4.95147E+02
 -1      1122-6.87824E+04 2.94466E+01 2.80482E+01 2.13388E+02 5.72931E+01-4.94350E+02
 -1      1123-6.67478E+04 6.17899E+01 4.59780E+01 1.10186E+02 6.39777E+00-1.00390E+03
 -1      1124-6.63274E+04 2.16982E+01 2.68808E+00 2.46222E+02-3.25053E+01-4.70297E+02
 -1      1125-6.37769E+04-4.13550E+01-3.48418E+01 1.01684E+02 1.41110E+01-3.76272E+02
 -1      1126-6.18786E+04 7.88875E+01 6.65628E+01 2.31929E+02 2.31896E-01-9.94701E+02
 -1      1127-6.15946E+04 2.26299E+01-8.88973E+00 6.74540E+01-3.78866E+01-4.09692E+02
 -1      1128-5.88844E+04-2.13779E+01 1.30318E+01 1.01302E+02 2.22763E+01-4.13245E+02
 -1      1129-5.77361E+04-8.98910E+01-9.26263E+01 1.59238E+02 1.26496E+00-9.82582E+02
 -1      1130-5.67070E+04 2.97806E+01 2.77312E+01 8.33303E+01-1.83583E+01-4.19979E+02
 -1      1131-5.42820E+04 3.86021E+01 1.70306E+01 1.73175E+02 2.30390E+01-4.51748E+02
 -1      1132-5.31584E+04-4.57543E+01-6.47922E+00 8.25737E+01-1.43152E+00-9.47345E+02
 -1      1133-5.20297E+04 3.19535E+01 2.05724E+01 1.75209E+02-2.72268E+01-4.52499E+02
 -1      1134-4.95535E+04 2.71503E+01 2.46372E+01 1.87172E+02 5.24832E+01-4.43171E+02
 -1      1135-4.87744E+04 8.09156E+01 3.78729E+01 1.36142E+02 5.48924E-01-9.23375E+02
 -1      1136-4.73210E+04 4.06413E+01 2.69739E+01 2.37732E+02-2.81446E+01-4.15757E+02
 -1      1137-4.50862E+04-4.96407E+01-4.61924E+01 1.25449E+02 1.00710E+01-3.64835E+02
 -1      1138-4.43165E+04 7.44076E+01 6.29035E+01 2.10922E+02-4.18256E+00-8.97054E+02
 -1      1139-4.30866E+04 4.66277E+01 1.01758E+01 7.91662E+01-1.79022E+01-3.33421E+02
 -1      1140-4.07036E+04-6.53891E+00 4.20084E+01 6.80345E+01 1.78122E+01-3.68827E+02
 -1      1141-4.06120E+04-5.61287E+01 1.30395E+01 2.09988E+02 7.42378E-01-8.66383E+02
 -1      1142-3.88181E+04 3.30617E+01 1.20225E+01 7.18624E+01-2.48585E+01-3.34263E+02
 -1      1143-3.64357E+04-4.40849E+00 3.60844E+01 7.92619E+01 2.23576E+01-3.60058E+02
 -1      1144-3.64159E+04 8.69395E+01 1.02241E+02 1.42028E+02 2.59481E+00-8.81650E+02
 -1      1145-3.46590E+04 3.30222E+01-1.09577E+01 2.94714E+01-2.54631E+01-3.14938E+02
 -1      1146-3.23748E+04-5.64597E+00 2.66202E+01 6.42249E+01 1.78955E+01-3.44307E+02
 -1      1147-3.27556E+04-8.10616E+01 2.53294E+01 1.23744E+02 1.79758E+01-8.22750E+02
 -1      1148-3.05599E+04 2.64842E+01 2.70071E+01 6.70622E+01-1.62732E+01-3.46172E+02
 -1      1149-2.85956E+04 3.35244E+01 1.42180E+01 1.40807E+02 2.01317E+01-3.73598E+02
 -1      1150-2.89664E+04-3.00917E+01-1.66113E+00 6.38952E+01 6.44542E-01-7.80562E+02
 -1      1151-2.67752E+04 2.47753E+01 1.96547E+01 1.38293E+02-2.00001E+01-3.59859E+02
 -1      1152-2.48147E+04 2.30266E+01 2.78534E+01 1.34313E+02 3.41227E+01-3.56572E+02
 -1      1153-2.53732E+04 7.18384E+01 4.50656E+01 1.06116E+02-5.74161E-01-7.45191E+02
 -1      1154-2.31241E+04 9.02079E+00 4.77422E+00 1.33199E+02-2.28032E+01-3.40978E+02
 -1      1155-2.12178E+04-2.12728E+01 7.57983E+00 6.10396E+01 1.85870E+01-2.92306E+02
 -1      1156-2.19540E+04 3.20588E+01 4.28531E+01 1.07755E+02 5.87361E-01-6.97647E+02
 -1      1157-1.97088E+04 9.52874E+00 1.25070E+01 4.01995E+01-1.77108E+01-2.86580E+02
 -1      1158-1.79009E+04-1.79177E+01 2.81351E+01 6.64892E+01 1.06589E+01-2.81404E+02
 -1      1159-1.88294E+04-2.81773E+01 1.75108E-01 7.42831E+01 5.33269E+00-6.75871E+02
 -1      1160-1.64356E+04 1.61615E+01 1.61413E+01 5.41016E+01-1.06510E+01-2.66415E+02
 -1      1161-1.48121E+04-9.08993E+00 1.47853E+01 5.17369E+01 1.11030E+01-2.62922E+02
 -1      1162-1.57563E+04-2.38030E+01-1.76588E+01 9.83821E+01 5.44739E+00-6.32821E+02
 -1      1163-1.34997E+04 1.50366E+01 2.18633E+01 4.63008E+01-1.04749E+01-2.47102E+02
 -1      1164-1.19295E+04 2.39719E+01 3.55265E+01 7.79992E+01 2.92707E+01-2.72012E+02
 -1      1165-1.29955E+04 3.58341E+01 6.77648E+01 6.65675E+01 1.23854E+00-5.92985E+02
 -1      1166-1.06461E+04 1.74451E+01 2.01785E+01 9.41408E+01-9.39028E+00-2.49192E+02
 -1      1167-9.27059E+03 2.11275E+01 2.55718E+01 8.49597E+01 2.19062E+01-2.46502E+02
 -1      1168-1.03120E+04 4.43882E+01 6.67053E+01 5.00052E+01 6.73980E+00-5.34675E+02
 -1      1169-8.11601E+03 1.53193E+01 2.49978E+01 8.40255E+01-1.11516E+01-2.24176E+02
 -1      1170-6.86139E+03 1.37822E+01 2.30387E+01 6.75051E+01 2.10708E+01-2.20375E+02
 -1      1171-7.94182E+03 3.37241E+01 5.78760E+01 5.48750E+01 3.22197E+00-4.80316E+02
 -1      1172-5.80921E+03 2.31219E+01 2.79602E+01 7.71641E+01-7.57613E+00-1.98442E+02
 -1      1173-4.68948E+03 2.46450E+01 3.07893E+01 7.88724E+01 2.42359E+01-1.95645E+02
 -1      1174-5.77686E+03 3.47418E+01 6.27998E+01 4.32459E+01 5.73337E+00-4.29970E+02
 -1      1175-3.73430E+03 3.12740E+01 2.85311E+01 9.44137E+01-7.59083E+00-1.65921E+02
 -1      1176-2.82278E+03-1.38863E+01 5.87715E+00 4.28041E+01 6.96727E+00-1.34089E+02
 -1      1177-3.77973E+03 5.51149E+01 7.02514E+01 8.67785E+01-6.53785E+00-3.84714E+02
 -1      1178-2.05124E+03 1.61987E+01 2.74026E+01 3.20620E+01-4.75254E+00-1.24570E+02
 -1      1179-1.24657E+03-1.05195E+01 2.79004E+01 3.37979E+01 1.02482E+01-1.18800E+02
 -1      1180-2.28002E+03-6.24241E+00 2.23390E+01 8.76123E+01 3.82787E+00-3.30166E+02
 -1      1181-6.04912E+02 1.90654E+01 3.44203E+01 2.98024E+01-2.90169E-01-1.00773E+02
 -1      1182 2.07425E+01-5.62301E+00 2.47602E+01 2.40443E+01 1.27203E+01-8.94050E+01
 -1      1183-8.02870E+02 4.58233E+01 5.92582E+01 6.41266E+01 8.76798E+00-2.59854E+02
 -1      1184 5.20352E+02 1.91535E+01 3.04251E+01 2.61213E+01-7.74123E+00-7.36759E+01
 -1      1185 1.00007E+03 5.12116E+00 2.78744E+01 2.20958E+01 3.67577E+00-7.57980E+01
 -1      1186 2.43701E+02 1.68706E+01 4.26111E+01 5.68346E+01-4.21265E+00-2.05403E+02
 -1      1187 1.28176E+03 1.08205E+01 3.39224E+01-4.72049E-01 5.89610E+00-3.70963E+01
 -1      1188 1.57472E+03 2.58237E+00 3.89543E+01 1.09071E+01 8.90859E+00-4.42228E+01
 -1      1189 1.06497E+03 1.02124E+01 6.24108E+01 2.86103E+01 9.50326E+00-1.45996E+02
 -1      1190 1.77099E+03 1.75293E+01 3.68331E+01 1.06601E+01 3.65805E+00-1.63162E+01
 -1      1191 1.83140E+03 1.78045E+00 2.47073E+01 8.57145E+00 5.58086E+00-1.15102E+01
 -1      1192 1.57414E+03 3.83112E+01 6.95474E+01 1.47128E+01 4.52161E+00-5.75719E+01
 -1      1193 1.86064E+03 1.49646E+01 4.56335E+01 2.46452E+00 4.21980E+00 2.20443E+01
 -1      1194 1.72351E+03 4.79140E+00 3.19948E+01 2.78013E+00 3.85226E+00 1.70223E+01
 -1      1195 1.72546E+03 2.91634E+01 7.78953E+01 2.24568E+01 7.30936E+00 1.33682E+01
 -1      1196 1.57902E+03 1.14518E+01 4.14747E+01-4.60188E+00 4.45372E+00 5.17493E+01
 -1      1197 1.29040E+03-6.85990E+00 2.69461E+01 1.50449E+00 6.23384E+00 5.88915E+01
 -1      1198 1.53163E+03 2.35861E+01 7.67009E+01-6.21156E+00 1.02264E+01 9.32375E+01
 -1      1199 1.16046E+03 5.39157E+01 1.07710E+02 1.19008E+01 3.96904E-01 1.36236E+02
 -1      1200-5.31158E+04-2.79477E+02-6.05574E+02 1.74693E+02 4.68363E+01-2.14033E+02
 -1      1201-5.47739E+04-7.58869E+02-1.99930E+03-2.38631E+02-4.63120E+02 1.09397E+03
 -1      1202-6.12471E+04 1.69689E+02-3.30615E+03 2.45975E+02-2.01958E+02 2.61159E+03
 -1      1203-4.99350E+04-1.21910E+02-4.97904E+01 1.57489E+02-2.78834E+01-1.05415E+03
 -1      1204-5.13264E+04-1.06723E+02-3.07513E+02 4.76240E+01-8.47127E+01-7.86322E+02
 -1      1205-6.09939E+04-8.07352E+01-9.37873E+02 1.65832E+02 4.06334E+01-9.08991E+02
 -1      1206-4.71105E+04 4.49897E+01-1.46146E+01 3.03289E+02-6.00146E+01-1.02381E+03
 -1      1207-4.82531E+04 9.47123E+01 4.64748E+01 1.53510E+02-1.71292E+01-1.03341E+03
 -1      1208-5.70071E+04 8.02545E+00-1.14134E+02 1.89572E+02 2.49420E+01-1.63036E+03
 -1      1209-4.41326E+04-8.96789E+01-1.14438E+01 1.47486E+02 7.48375E+00-9.98160E+02
 -1      1210-4.53350E+04-3.56721E+01-3.85466E+00 2.76709E+02 3.61271E+01-1.01443E+03
 -1      1211-5.35139E+04-3.12274E+01 4.50989E+00 2.17734E+02-4.43603E+01-1.68951E+03
 -1      1212-4.13258E+04 9.94837E+01 4.67430E+01 2.73812E+02-2.03406E+01-9.61704E+02
 -1      1213-4.25890E+04 9.61939E+01-5.53173E+00 8.94141E+01 4.44555E+00-9.95925E+02
 -1      1214-5.00427E+04-5.09444E+01-3.91137E+00 8.53142E+01-1.74072E+01-1.60695E+03
 -1      1215-3.87575E+04-7.90767E+01-2.55377E+01 9.19038E+01-7.45708E+00-1.00408E+03
 -1      1216-3.97792E+04-4.90073E+01 9.44975E+00 3.12252E+02 6.41316E+01-9.27329E+02
 -1      1217-4.66344E+04 8.79171E+01 5.37675E+01 2.80205E+02 6.90937E+01-1.55724E+03
 -1      1218-3.59944E+04-4.93664E+01 3.66528E+01 1.15696E+02-2.97825E+01-1.03012E+03
 -1      1219-3.72973E+04 3.10836E+01-1.21628E+01 9.74360E+01 1.91079E+01-1.00597E+03
 -1      1220-4.41012E+04-1.05801E+02-1.67997E+02 1.72377E+02-1.07089E+01-1.49727E+03
 -1      1221-3.36295E+04 3.75500E+01-3.98706E+01 3.21617E+02-5.67736E+01-9.22009E+02
 -1      1222-3.44801E+04 1.30473E+02 9.77379E+01 1.51914E+02-1.45084E+01-9.65537E+02
 -1      1223-4.06715E+04 6.75882E+01 7.56887E+01 2.21137E+02 1.75392E+00-1.51969E+03
 -1      1224-3.09393E+04-1.19646E+01-9.25546E+00 2.31423E+02-1.88071E+01-8.61438E+02
 -1      1225-3.20251E+04-2.11587E+01 1.14598E+01 2.68313E+02 3.11091E+01-8.96041E+02
 -1      1226-3.81389E+04-4.17616E+01-5.05802E+01 2.67649E+02-4.08317E+01-1.48792E+03
 -1      1227-2.83967E+04-6.14470E+01 8.37392E+00 6.92051E+01-9.38798E+00-8.98898E+02
 -1      1228-2.94341E+04-3.92289E+01-1.75734E+01 1.95943E+02 1.27642E+01-8.74880E+02
 -1      1229-3.49281E+04-7.02487E+01-7.12244E+00 1.34605E+02-2.58122E+01-1.47834E+03
 -1      1230-2.59382E+04-2.15504E+01-2.42022E+01 1.09364E+02-3.68196E+01-9.14374E+02
 -1      1231-2.70703E+04 4.16292E+01 3.71994E+00 1.30732E+02-9.87630E+00-8.95064E+02
 -1      1232-3.19514E+04 6.12048E+01 9.48981E+00 5.81674E+01 1.45956E+01-1.44791E+03
 -1      1233-2.37963E+04 6.58938E+01 2.12584E+00 2.62801E+02-5.59906E+01-8.06013E+02
 -1      1234-2.46831E+04 7.47622E+01 2.60499E+01 8.10697E+01-9.37910E-01-8.85950E+02
 -1      1235-2.91358E+04 1.26907E+02 1.56103E+02 1.32977E+02-1.16059E+00-1.36957E+03
 -1      1236-2.12945E+04-7.11058E+01-1.22443E+01 1.17475E+02 8.32717E+00-7.80800E+02
 -1      1237-2.23227E+04-4.12826E+01-3.22755E+00 2.45231E+02 2.93771E+01-8.17189E+02
 -1      1238-2.66903E+04-3.17986E+01-3.24973E+01 2.41433E+02-3.83980E+01-1.33063E+03
 -1      1239-1.91545E+04 5.61297E+01 2.01850E+01 1.56661E+02-1.68639E+01-7.56265E+02
 -1      1240-2.00975E+04 7.03383E+01-7.58646E+00 5.54436E+01 1.18043E+00-7.91619E+02
 -1      1241-2.38540E+04-2.53979E+01-4.71572E+00 3.70235E+01-2.02728E+01-1.27611E+03
 -1      1242-1.69938E+04 3.58054E+01-2.37701E+00 2.13811E+02-2.22544E+01-7.32488E+02
 -1      1243-1.79043E+04 3.09912E+01 9.95435E+00 1.91913E+02 1.64379E+01-7.17951E+02
 -1      1244-2.13137E+04 7.18044E+01 1.92064E+01 9.74324E+01 1.60510E+01-1.25949E+03
 -1      1245-1.50549E+04-7.90710E+01-5.68097E+01 1.08989E+02 9.66114E+00-7.33923E+02
 -1      1246-1.57169E+04-1.77224E+00 4.88344E+01 2.57791E+02 4.42126E+01-7.21026E+02
 -1      1247-1.87066E+04 5.62942E+01 4.92670E+01 2.14717E+02 4.72396E+01-1.18559E+03
 -1      1248-1.29656E+04-2.33174E+01 4.22385E+01 4.07175E+01-2.14659E+01-7.14216E+02
 -1      1249-1.39387E+04 4.61644E+01-3.91967E+01 4.52981E+01 2.28531E+01-7.37143E+02
 -1      1250-1.68398E+04-5.76362E+01-7.59149E+01 1.59736E+02-1.91401E+01-1.12206E+03
 -1      1251-1.11438E+04-7.05005E+00 1.57641E+01 4.67833E+01-3.64217E+01-7.09675E+02
 -1      1252-1.19654E+04 2.84785E+01 8.63268E+00 5.69886E+01-4.16419E+00-6.90861E+02
 -1      1253-1.42654E+04 7.23182E+01 7.44970E+01 1.26086E+02 2.08365E+01-1.07296E+03
 -1      1254-9.40066E+03-9.58651E+00 6.38754E-01 7.95825E+01-3.62531E-01-6.32527E+02
 -1      1255-1.01674E+04 4.77294E+01 2.92863E+01 1.04137E+02 1.20236E+01-6.57399E+02
 -1      1256-1.24396E+04-3.28642E+01-7.92411E+01 1.42924E+02-1.22311E+01-9.91357E+02
 -1      1257-7.76668E+03 5.72602E+01 3.47579E+01 1.28297E+02-2.22916E+01-5.59724E+02
 -1      1258-8.55848E+03 4.14190E+01-1.06212E+01 4.18083E+01 3.01558E+00-5.87138E+02
 -1      1259-1.03808E+04 4.31419E+01 3.56515E+01 6.33310E+01 4.28843E-01-9.58540E+02
 -1      1260-6.22207E+03-2.21253E+01 4.07402E+00 5.57672E+01-1.59264E+01-5.31309E+02
 -1      1261-6.88482E+03-1.46451E+01-4.15013E+00 1.40730E+02 2.84592E+01-5.15349E+02
 -1      1262-8.41771E+03 4.20043E+01 1.54236E+01 9.31833E+01 2.09502E+01-9.07221E+02
 -1      1263-4.85140E+03 1.28002E+01 1.78291E+00 1.27872E+02-1.46929E+01-4.74232E+02
 -1      1264-5.42144E+03 4.99475E+01 2.85592E+01 6.92280E+01 9.33489E+00-5.06053E+02
 -1      1265-6.74691E+03-2.04744E+01-4.90510E+01 6.09025E+01-1.46695E+01-8.09891E+02
 -1      1266-3.60118E+03 5.64741E+00-2.02053E+00 8.60305E+01 3.44135E-01-4.26897E+02
 -1      1267-4.07783E+03 4.21109E+00 1.09545E+01 1.07428E+02 3.47792E+00-4.39027E+02
 -1      1268-5.22381E+03-3.82684E+01-1.59328E+01 6.90231E+01-7.10759E+00-7.65442E+02
 -1      1269-2.41841E+03-5.27126E+00 1.01110E+01 4.19774E+01-1.69687E+01-3.85779E+02
 -1      1270-2.93249E+03 1.91087E+01-5.98278E+00 7.92772E+01 1.83978E+01-3.90594E+02
 -1      1271-3.70638E+03 3.68017E+01 1.66493E+01 2.18237E+01 1.15338E+00-6.86056E+02
 -1      1272-1.47614E+03 3.36830E+01 4.20749E+00 7.70731E+01-4.34449E+00-3.31386E+02
 -1      1273-1.84655E+03 4.11740E+01 2.18401E+01 4.61117E+01 1.36152E-01-3.53984E+02
 -1      1274-2.47770E+03-9.21998E+00-1.68716E+01 2.71295E+01-8.44129E+00-5.79461E+02
 -1      1275-6.32453E+02 2.63218E+01 4.79763E+00 6.43334E+01-5.73479E+00-2.69543E+02
 -1      1276-9.59322E+02 2.44818E+01 5.74207E+00 7.01549E+01 6.79668E+00-2.80525E+02
 -1      1277-1.38482E+03 3.79916E+01 1.19186E+01 4.24771E+01 3.02816E+00-5.09903E+02
 -1      1278 4.77123E+01 2.80982E+01-1.63700E+00 6.16836E+01-8.68118E+00-2.03258E+02
 -1      1279-2.02745E+02 2.48455E+01 1.28762E+01 6.56597E+01 1.02916E+01-2.21666E+02
 -1      1280-4.44420E+02 2.99938E+01 1.54023E+01 3.70617E+01 1.51082E+01-4.13071E+02
 -1      1281 5.57724E+02 3.02831E+00 4.25946E+00 2.56330E+01-8.24634E+00-1.48609E+02
 -1      1282 3.74211E+02 2.05155E+01 9.51661E+00 5.71190E+01 5.96570E+00-1.65940E+02
 -1      1283 2.61898E+02 2.20176E+01 1.17046E+01 4.62986E+01-5.50156E+00-3.14228E+02
 -1      1284 8.95473E+02 2.24707E+01 6.99739E+00 1.61869E+01-8.47961E-01-9.00629E+01
 -1      1285 7.93088E+02 2.34697E+01 1.38052E+01 1.79143E+01 7.88715E-01-1.13569E+02
 -1      1286 7.97410E+02 1.87374E+00-1.64755E+00 2.91031E+01-7.62300E+00-2.02499E+02
 -1      1287 1.04721E+03 2.96522E+01 7.23952E+00-9.04450E-01-1.80654E+00-2.14441E+01
 -1      1288 9.97670E+02 2.85331E+01 4.17697E+00 8.45593E+00 1.23707E+00-3.93943E+01
 -1      1289 1.11995E+03 2.44363E+01 1.46692E+01 2.12662E+00-2.69728E-01-1.05639E+02
 -1      1290 9.95741E+02 2.94640E+01 1.25563E-01-1.04787E+01-8.09355E-01 4.02601E+01
 -1      1291 1.04236E+03 2.46385E+01 3.12326E+00 2.50875E-01-1.01965E+00 2.44102E+01
 -1      1292 1.24465E+03 2.80434E+01 1.54681E+01 1.78270E-01 5.84041E+00 1.62923E+00
 -1      1293 8.15780E+02 1.70557E+01-2.43714E+00-5.33649E+00-5.96465E+00 1.03365E+02
 -1      1294 9.02029E+02 3.04657E+01-5.19611E+00-1.05597E+01-4.80031E+00 8.81898E+01
 -1      1295 1.13586E+03 3.17013E+01 5.93619E+00-4.19099E+00-8.79775E-01 1.18082E+02
 -1      1296 8.90015E+02 3.34806E+01 1.37131E+01 4.51533E+00-1.64319E+00 1.93739E+02
 -1      1297-5.78816E+03 3.12769E+01 4.63564E+01 5.35696E+01-9.09657E+00-5.70753E+02
 -1      1298-4.79599E+03 7.83396E+00 4.59623E+01 7.34454E+01 1.70288E+01-5.37044E+02
 -1      1299-7.83487E+03 2.38741E+01 4.38087E+01 8.11954E+01-1.52526E+01-6.39240E+02
 -1      1300-6.69866E+03 9.87054E+00 4.98063E+01 7.45003E+01 1.88896E+01-6.02586E+02
 -1      1301-5.62759E+03 1.49241E+01 3.30794E+01 9.63508E+01-1.73774E+00-7.48637E+02
 -1      1302-1.01462E+03 2.84122E+01 5.56343E+01 8.81258E+01 5.86382E+00-3.51888E+02
 -1      1303-4.73322E+02 4.15424E+01 5.37135E+01 8.72802E+01 1.58923E+01-3.33574E+02
 -1      1304-7.06924E+00 3.06864E+01 3.43307E+01 7.82505E+01-1.50988E+01-2.90041E+02
 -1      1305 5.12780E+02 1.66714E+01 4.35399E+01 4.90128E+01 1.00351E+01-2.47486E+02
 -1      1306-1.79088E+02 4.61167E+01 5.36285E+01 6.77637E+01-3.96199E-01-3.39825E+02
 -1      1307 1.38822E+03 2.49360E+01 3.95204E+01-7.03754E+00 1.59167E+00 4.05123E+01
 -1      1308 1.37220E+03 1.98429E+01 3.05909E+01 2.13056E+00 4.40313E+00-1.72499E+01
 -1      1309 1.50342E+03 4.79732E+01 7.04380E+01-1.82723E+01 1.10368E+01 7.44779E+01
 -1      1310 1.27967E+03 1.76810E+01 1.91574E+01-1.13850E+01-3.79615E+00 8.67876E+01
 -1      1311 1.20909E+03 3.54859E+01 2.92610E+01-8.03539E+00 5.44953E-01 1.53899E+02
 -1      1312-1.50712E+04-9.85263E+00 4.82845E+01 1.41289E+02-2.64437E+01-8.37374E+02
 -1      1313-1.36643E+04 7.42718E+00 5.93912E+01 1.23731E+02 8.60825E-01-8.18526E+02
 -1      1314-1.80442E+04 2.85897E+01 3.64964E+01 1.04780E+02-1.83139E+01-8.17873E+02
 -1      1315-1.64124E+04-1.37712E+01 4.76457E+01 1.25213E+02 2.98626E+01-8.50814E+02
 -1      1316-1.42891E+04 2.39335E+01 6.34156E+01 1.64186E+02-1.60416E+01-1.07485E+03
 -1      1317-1.25217E+04 1.35541E+01 2.38454E+01 1.06742E+02 2.83505E+00-7.66809E+02
 -1      1318-1.11976E+04 9.45934E+00 4.31788E+01 8.77405E+01 2.97009E+01-7.15972E+02
 -1      1319-1.00616E+04 3.18053E+01 4.34286E+01 9.40517E+01-1.18527E+00-6.94597E+02
 -1      1320-8.81592E+03 9.94568E+00 4.50367E+01 8.89623E+01 2.56466E+01-6.38694E+02
 -1      1321-9.55329E+03 4.79360E+01 5.60675E+01 1.16925E+02-9.86179E-01-8.79459E+02
 -1      1322-3.95390E+03 2.53054E+01 5.99610E+01 6.83770E+01-1.73021E+01-5.10165E+02
 -1      1323-2.99281E+03 4.24013E+01 7.47415E+01 8.20428E+01 1.29607E+01-4.97206E+02
 -1      1324-2.52148E+03 4.93790E+00 2.47573E+01 1.33657E+02-4.46418E+00-4.21654E+02
 -1      1325-1.63905E+03 2.62394E-01 5.80722E+01 9.79290E+01 1.83372E+01-4.16879E+02
 -1      1326-2.44545E+03 3.27102E+01 6.81607E+01 5.88572E+01 8.32130E+00-5.77767E+02
 -1      1327 1.26694E+03 2.10801E+01 3.52271E+01 1.08339E+01-9.20740E-01-7.99808E+01
 -1      1328 1.20551E+03 2.72945E+01 4.78938E+01 1.66527E+01-1.51247E+00-1.46906E+02
 -1      1329 9.96223E+02 9.37810E+00 3.80045E+01 2.55823E+01-5.90199E+00-1.92733E+02
 -1      1330 7.53880E+02 1.89736E+01 3.21686E+01 3.09819E+01 2.51299E+00-2.51357E+02
 -1      1331 1.21559E+03 4.37411E+01 6.98544E+01 3.31426E+01 1.21978E+00-1.64050E+02
 -1      1332-1.83429E+04-3.41500E+01 4.34665E+01 2.21127E+02-5.36904E+01-1.17794E+03
 -1      1333-1.96487E+04-4.86108E+01-2.48940E+01 3.03225E+02 1.27154E+01-1.17157E+03
 -1      1334-1.55747E+04 8.16385E+01 8.78364E+01 2.75030E+02-2.45027E+01-1.08908E+03
 -1      1335-1.67643E+04 5.52373E+01 1.24631E+01 1.96814E+02 3.46623E+01-1.16513E+03
 -1      1336-1.95975E+04-2.08700E+00 4.37901E+00 1.91171E+02-2.24938E+01-1.16358E+03
 -1      1337-7.09949E+04-1.30760E+01 4.39469E+01 2.21308E+02-5.29959E+01-1.36799E+03
 -1      1338-6.86278E+04-6.31470E+00 2.75999E+01 2.09558E+02 1.10457E+01-1.36225E+03
 -1      1339-6.12460E+04-2.23389E+01-2.47475E+01 2.46186E+02 3.11363E+01-1.69435E+03
 -1      1340-6.66079E+04 3.13154E+01-1.01535E+01 1.82638E+02-7.05805E+00-1.32752E+03
 -1      1341-6.42515E+04 8.43529E+00 2.44344E+01 1.53000E+02 4.96357E+01-1.27586E+03
 -1      1342-5.79129E+04 3.41800E+01 6.79450E+01 1.99372E+02-6.64758E+01-1.29655E+03
 -1      1343-5.53722E+04 8.51309E+01 1.31187E+02 2.49350E+02 3.65909E+01-1.34891E+03
 -1      1344-6.22876E+04 3.43592E+01-5.26106E+00 1.47597E+02-2.01387E+00-1.32379E+03
 -1      1345-5.98755E+04 1.53101E+01 2.85257E+01 1.73502E+02 5.40540E+01-1.25894E+03
 -1      1346-5.34403E+04-3.34467E+01-4.43915E+01 2.49484E+02-2.73064E+01-1.59482E+03
 -1      1347-6.34575E+04-4.55503E+01-1.48764E+01 1.97115E+02-5.80983E+01-1.74832E+03
 -1      1348-6.52964E+04 4.00267E+01-2.28797E+02 2.88068E+02-5.77956E+01-1.62794E+03
 -1      1349-6.15484E+04-2.23738E+01-3.01760E+01 2.14607E+02 8.44213E+00-1.74447E+03
 -1      1350-6.95927E+04 6.25840E+00-5.34910E+00 3.84366E+02 3.10213E+01-1.64558E+03
 -1      1351-5.96142E+04-2.20167E+01-5.25609E+01 1.96562E+02-5.25672E+01-1.79151E+03
 -1      1352-4.17421E+04 3.44784E+01 5.63410E+01 1.65731E+02-5.71987E+01-1.17019E+03
 -1      1353-3.94336E+04 8.75170E+01 1.20333E+02 2.27918E+02 2.80918E+01-1.22254E+03
 -1      1354-4.56856E+04 7.07064E+01 1.38442E+01 1.36913E+02-1.02325E+01-1.20463E+03
 -1      1355-4.35467E+04 6.32638E+00 1.70046E+01 1.56765E+02 3.48576E+01-1.15563E+03
 -1      1356-3.86987E+04-1.07396E-01-3.04455E+01 2.14963E+02-2.48482E+01-1.44218E+03
 -1      1357-3.42820E+04 6.00322E+01 1.17158E+01 2.55785E+02-2.65379E+01-1.11356E+03
 -1      1358-3.24174E+04 4.62662E+01-2.71827E+01 2.88655E+02 5.24490E+01-1.10830E+03
 -1      1359-2.85781E+04-2.67231E-01 2.34879E+01 2.44010E+02 1.52419E+01-1.29684E+03
 -1      1360-3.07057E+04-3.94134E+01 3.38783E+01 2.63904E+02-5.22244E+01-1.08830E+03
 -1      1361-2.89304E+04-3.93942E+01 9.21735E+00 1.92964E+02 2.23354E+01-1.04768E+03
 -1      1362-5.40146E+04-8.27698E+01-4.83779E+01 3.35365E+02-1.84032E+01-1.23188E+03
 -1      1363-5.15462E+04-5.35458E+01 5.60935E+01 1.86420E+02 3.36626E+01-1.27384E+03
 -1      1364-4.95556E+04-1.95385E+01 1.71608E+01 2.19046E+02-3.88636E+01-1.26575E+03
 -1      1365-4.74677E+04-1.01333E+00 1.79167E+01 1.09035E+02-2.95056E+00-1.21435E+03
 -1      1366-4.58232E+04 5.42581E+01 8.12134E+01 2.36837E+02-2.75782E+01-1.56872E+03
 -1      1367-6.77199E+04-3.62807E+00-7.80991E+02 3.21253E+02-2.02649E+02-1.38284E+03
 -1      1368-6.99002E+04-1.87874E+01-1.92489E+03 1.72189E+02-1.09826E+02-6.61768E+02
 -1      1369-7.77623E+04 4.91780E+02-3.35325E+03 1.05873E+02-2.93586E+02-1.05438E+03
 -1      1370-7.05505E+04 3.16326E+02-3.32622E+03-2.61356E+01-2.46111E+02-2.86836E+02
 -1      1371-7.40001E+04 2.78855E+02-6.51405E+03-1.14500E+02-5.68106E+02 6.28757E+02
 -1      1372-6.68266E+04 2.68034E+02-5.12183E+03-2.45352E+02-4.64426E+02 1.71070E+03
 -1      1373-8.02790E+04-2.23823E+01-1.93809E+02 2.37279E+02-7.35112E+01-1.24798E+03
 -1      1374-7.76513E+04 2.70823E+01-4.77162E+01 2.54675E+02 9.71182E+00-1.27875E+03
 -1      1375-7.39057E+04 9.99689E+01-4.74924E+02 3.10837E+02-1.57707E+02-1.50518E+03
 -1      1376-8.25081E+04-2.35532E+01-6.43913E+02 1.94178E+02-6.80826E+01-1.13788E+03
 -1      1377-8.50519E+04-1.06375E+01-1.61617E+03 6.25266E+01-2.14057E+02-1.26953E+03
 -1      1378 1.54900E+03 2.19882E+01 7.11712E+01-8.57162E+00 9.38071E+00 8.80740E+01
 -1      1379 1.30351E+03 2.01735E+01 5.54358E+01-5.32365E+00 2.26751E+00 1.20443E+02
 -1      1380 1.22785E+03 5.85735E+01 5.57837E+01-8.23785E+00-9.98756E-01 1.83782E+02
 -1      1381 1.24867E+03 3.86201E+01 7.48701E+01-1.27814E-01 4.22919E+00 1.76550E+02
 -1      1382 1.16388E+03 6.77895E+01 1.07132E+02 2.75944E+01-4.05224E+00 1.97493E+02
 -1      1383 1.09459E+03 6.43790E+01 9.95040E+01 2.27626E+01 4.12578E+00 2.32664E+02
 -1      1384-3.96491E+03 1.94942E+01 1.45914E+01 6.07217E+01-2.49650E+01-6.72538E+02
 -1      1385-4.56000E+03 3.64887E+01 3.64532E+01 2.55239E+01 8.99949E+00-7.47484E+02
 -1      1386-2.51925E+03-9.04135E+00 3.94188E+01 4.08208E+01-4.73000E+00-5.99815E+02
 -1      1387-3.06002E+03 3.12424E+01 5.21048E+01 7.03270E+01 1.75207E+01-6.43708E+02
 -1      1388-3.93383E+03 2.35741E+01 3.22978E+01 9.58741E+01-1.08495E+01-6.53158E+02
 -1      1389-2.40940E+04 6.42532E+01 1.86718E+01 1.29450E+02 2.95771E+00-9.89962E+02
 -1      1390-2.23204E+04 2.25501E+01 3.82847E+01 1.19510E+02 3.73365E+01-9.22571E+02
 -1      1391-2.72714E+04-1.69715E+00 1.75794E+01 1.61702E+02-3.02068E+01-1.00452E+03
 -1      1392-2.55263E+04 1.34923E+00 4.11280E+01 9.26191E+01-1.89065E+00-9.68744E+02
 -1      1393-2.24806E+04 5.79007E+01 4.57810E+01 1.50024E+02-8.11223E+00-1.19376E+03
 -1      1394 1.55960E+03 2.99445E+01 6.23046E+01-6.88309E+00 2.35775E+00-1.14619E+01
 -1      1395 1.61253E+03 2.34107E+01 6.59550E+01-5.70995E+00 1.00763E+01 2.02441E+01
 -1      1396 1.38706E+03 2.54532E+01 5.15547E+01 1.88412E+01 5.01018E+00-1.03293E+02
 -1      1397 1.53071E+03 2.49492E+01 5.66656E+01-1.33914E+00 1.67428E+00-6.18553E+01
 -1      1398 1.41838E+03 3.74228E+01 4.03857E+01 5.34789E+00 2.53685E+00-6.38866E+01
 -1      1399-1.12641E+04 2.74965E+01 1.24860E+00 7.74853E+01-2.38023E+01-1.00968E+03
 -1      1400-1.21606E+04 2.69432E+01 4.83294E+00 1.23547E+02 1.09531E+01-1.01802E+03
 -1      1401-9.07233E+03 1.19263E+01 2.19934E+01 8.44537E+01 4.84436E-01-9.39059E+02
 -1      1402-1.00034E+04 2.67495E+01 3.56806E+01 8.50330E+01 3.66373E+01-9.88367E+02
 -1      1403-1.18383E+04-6.97562E+00 1.16704E+01 1.37425E+02 1.43812E+01-9.82613E+02
 -1      1404-3.09206E+02 2.34536E+01 3.28266E+01 3.09746E+01 7.50517E-01-4.14336E+02
 -1      1405-7.29439E+02 2.86555E+01 4.23753E+01 4.41664E+01 1.14368E+01-4.68662E+02
 -1      1406-1.34753E+03 1.74373E+01 1.29343E+01 4.09721E+01-1.55902E+01-5.08520E+02
 -1      1407-1.84168E+03 4.63583E+01 2.33154E+01 3.76201E+01 6.67072E+00-5.46948E+02
 -1      1408-1.15055E+03 2.85095E+01 5.13344E+01 9.37209E+01 1.50000E+01-4.74710E+02
 -1      1409-7.25651E+03-2.03269E+01 2.13654E+01 1.15633E+02-2.38997E+01-8.54188E+02
 -1      1410-8.09670E+03 3.51532E+01 3.24558E+01 9.39110E+01 1.51531E+01-9.33525E+02
 -1      1411-5.46481E+03-2.32620E+01 2.30259E+01 4.54406E+01-1.28013E+01-7.88713E+02
 -1      1412-6.22145E+03 4.55280E+00 2.44695E+01 9.84790E+01 2.00822E+01-8.10480E+02
 -1      1413-7.57206E+03 2.41522E+00 1.08523E+01 1.28863E+02-6.90478E+00-8.31171E+02
 -1      1414-4.89161E+04-5.71839E+01 3.63018E+01 2.76892E+02-8.10497E+01-1.58492E+03
 -1      1415-5.07026E+04-7.18125E+01-2.94007E+01 4.05746E+02 2.44504E+01-1.61337E+03
 -1      1416-5.20992E+04 4.35508E+01 6.05404E+01 2.24767E+02 3.65485E+01-1.61298E+03
 -1      1417-5.37569E+04 7.77331E+01 4.65839E+01 1.91404E+02 8.60500E+01-1.71594E+03
 -1      1418-5.73112E+04 4.76698E+01 3.30847E+01 2.08928E+02 3.49366E+00-1.60848E+03
 -1      1419-3.21492E+04 1.12525E+02 9.20550E+01 3.30791E+02-2.78872E+01-1.41040E+03
 -1      1420-3.36777E+04 1.00816E+02 3.82352E+01 1.68825E+02 4.98021E+01-1.41988E+03
 -1      1421-2.93324E+04-4.49866E+01-7.72867E+01 1.58510E+02-5.63896E+01-1.41898E+03
 -1      1422-3.09772E+04-4.89563E+01-9.15989E+01 2.08425E+02 1.60284E+00-1.35497E+03
 -1      1423-3.51609E+04 1.52090E+01 3.87724E+01 2.38683E+02 3.18865E+01-1.38557E+03
 -1      1424-2.06287E+04 5.41200E+01 3.96738E+01 1.69112E+02 3.00652E+01-1.20628E+03
 -1      1425-2.19862E+04 4.75575E+01 4.37001E+01 1.29504E+02 5.13231E+01-1.29392E+03
 -1      1426-2.54580E+04-4.49346E+01-2.87038E+01 2.17338E+02 2.49063E+01-1.28982E+03
 -1      1427-2.35607E+04-1.22762E+01-5.07913E+00 1.21488E+02-1.70171E+01-1.34206E+03
 -1      1428-2.47962E+04 6.50794E+01-8.81066E+00 8.06809E+01 4.64581E+01-1.36395E+03
 -1      1429-4.20819E+04-4.52837E+01-6.57240E+01 1.63466E+02-5.32404E+01-1.59119E+03
 -1      1430-4.38461E+04-6.92329E+01-9.69747E+01 2.33482E+02-9.60164E+00-1.50161E+03
 -1      1431-4.50862E+04 1.20646E+02 1.04549E+02 3.61234E+02-2.75252E+01-1.52989E+03
 -1      1432-4.68267E+04 5.48401E+01-2.11946E+01 2.71190E+02 1.91188E+01-1.59241E+03
 -1      1433-4.95393E+04-2.91924E+00 4.61165E+01 2.63339E+02 3.26731E+01-1.53872E+03
 -1      1434-3.56613E+04 5.79290E+01 9.68775E+00 1.91985E+02-3.53027E+01-1.41147E+03
 -1      1435-3.68818E+04 2.76438E+01 2.72945E+01 8.03326E+01 3.17783E+00-1.53187E+03
 -1      1436-3.86907E+04-5.79013E+01 1.57586E+01 8.88442E+01-4.24140E+01-1.55028E+03
 -1      1437-4.01850E+04 2.38744E+01 1.24400E+01 1.30738E+02 3.44765E+01-1.57729E+03
 -1      1438-4.21830E+04 2.71119E+01 9.48721E+00 1.75032E+02-1.80794E+01-1.50526E+03
 -1      1439-8.20264E+04 3.98055E+02-7.06731E+03 1.38229E+02-4.82253E+02-1.33066E+03
 -1      1440-8.56474E+04 7.10710E+02-3.13612E+03-3.68120E+02-2.71460E+02-1.19151E+03
 -1      1441-8.94123E+04 4.50039E+02-4.72004E+03-2.14665E+02-6.53508E+02-1.67592E+03
 -1      1442 1.02660E+03 7.88775E+01 9.47265E+01-7.29046E+00-1.35801E+01 2.70760E+02
 -1      1443 9.65432E+02 4.48443E+01 3.93692E+01 1.51297E+00-6.45351E+00 2.49568E+02
 -1      1444 1.03690E+03 2.48387E+01 4.02383E+01-4.59382E+00-4.19979E+00 2.16919E+02
 -1      1445-7.57566E+04 1.99200E+01-7.33131E+00 1.99933E+02-4.18392E+01-1.22952E+03
 -1      1446-7.32579E+04-4.10576E+01 2.66398E+01 2.14182E+02 2.71360E+01-1.32987E+03
 -1      1447-6.54024E+04 4.18614E+01 6.37278E+01 2.85117E+02-2.05141E+01-1.73663E+03
 -1      1448-5.73584E+04-6.71003E+01 1.16735E+00 1.57936E+02 4.41082E+01-1.69386E+03
 -1      1449-5.58626E+04-2.40845E+01-8.52528E+00 1.39143E+02-1.45865E+01-1.73658E+03
 -1      1450 4.56498E+02 2.61801E+01 5.55045E+01 2.56299E+01-7.97638E+00-2.98155E+02
 -1      1451 4.52003E+01 2.66364E+01 2.31441E+01 1.81696E+01 9.00981E+00-3.69559E+02
 -1      1452-1.34480E+04-2.07285E+01-4.26285E+01 1.66907E+02-3.03569E+01-1.06452E+03
 -1      1453-1.45996E+04-8.02353E+00-3.00397E+01 2.00859E+02-5.21716E+00-1.06298E+03
 -1      1454-2.09046E+04 2.04046E+01 5.43022E+01 1.31215E+02-3.79494E+01-9.28669E+02
 -1      1455-1.91739E+04 3.61957E+01 7.13288E+01 1.28248E+02 2.92163E+01-9.14183E+02
 -1      1456-1.68119E+04 2.06718E+01 5.79181E+01 2.08448E+02 3.41179E+01-1.10280E+03
 -1      1457-3.82488E+04-7.20956E+01-4.18337E+01 3.06487E+02-1.23526E+01-1.11431E+03
 -1      1458-3.60455E+04-2.22133E+01 6.45327E+01 2.12944E+02 1.62350E+01-1.13663E+03
 -1      1459-3.17403E+04 8.68973E+01 8.54227E+01 2.43968E+02-2.10631E+01-1.38905E+03
 -1      1460-2.75371E+04-9.42828E+00 6.25115E+01 1.29794E+02 8.37699E+00-1.38005E+03
 -1      1461-2.63651E+04-2.08238E+01 6.01449E+01 8.90528E+01-1.84760E+01-1.38350E+03
 -1      1462 8.23068E+02 2.12706E+01 5.20540E+01 4.66518E+01-9.30894E-02-1.93577E+02
 -1      1463 1.17476E+03 2.31177E+01 5.65149E+01 3.28675E+01 1.16714E+01-1.53758E+02
 -1      1464 6.66056E+02 5.21975E+01 7.11445E+01 3.16865E+01-2.16545E+00-2.63314E+02
 -1      1465 6.20040E+02-1.93591E+01 1.03022E+01 1.60362E+03 2.75391E-01-4.27907E+01
 -1      1466 1.89323E+02-4.63325E+01 1.40638E+01 9.20561E+02 2.07986E+00-9.65862E+00
 -1      1467 4.40901E+02 6.62647E+01-1.95841E-01 4.85301E+02 8.00814E+00-1.78336E+01
 -1      1468 4.83977E+01-5.40288E+01 7.59644E+00-1.17163E+02 2.85329E+00 5.77837E+00
 -1      1469 1.23323E+03-1.16265E+01-2.81111E+01 1.98240E+03 9.71805E+00-2.70495E+01
 -1      1470-3.71569E+03 5.78361E+01-2.70880E+00 1.18303E+03 4.30253E+00-2.40121E+01
 -1      1471 1.35168E+03-3.76137E+01 8.52136E+00 2.31237E+03 2.28727E+00-2.98874E+01
 -1      1472-5.58431E+04 5.46036E+00 2.58956E+00 3.03697E+03-2.20924E+00-6.85982E+01
 -1      1473 3.83202E+03-3.13909E+01 6.61594E+00 3.17552E+03 3.25364E+00-4.19995E+01
 -1      1474 5.00216E+03 1.20783E-01 8.43960E+01 3.12002E+03-7.04343E+01-2.05860E+02
 -1      1475-3.55891E+04 3.10257E+01-3.54132E+00 2.59523E+03-2.10496E+00-4.81459E+01
 -1      1476 2.07291E+03-3.55026E+01 4.48931E+01 2.61593E+03-1.37586E+01 8.76723E+00
 -1      1477 3.47758E+03-3.46546E+00-2.18865E+01 2.95452E+03 6.97921E+00-5.73325E+01
 -1      1478-6.86175E+04 2.71141E+02 6.45914E+02 1.65923E+03-4.03628E+02 9.21924E+02
 -1      1479-8.87868E+03 4.45697E+01-1.14544E-01 1.62594E+03 8.28598E+00-2.94747E+01
 -1      1480 5.56285E+01-5.22785E+01 1.61381E+01 3.31880E+02 1.07583E+00 5.75603E+00
 -1      1481 8.43503E+02 1.05578E+02 1.31866E+01-3.31381E+02 7.00116E+00 1.21205E+01
 -1      1482-2.05164E+04 5.58827E+01-1.45258E+00 2.21897E+03-6.10308E-01-3.92316E+01
 -1      1483 1.15801E+03 7.03597E+01 9.50134E+00 9.71022E+01 7.39341E+00-1.22955E+00
 -1      1484-1.54262E+04 3.99698E+01 1.89943E+01 1.96524E+03 9.58094E+00-4.36875E+01
 -1      1485 2.40228E+03 2.51844E+01 7.36620E+01 2.65188E+03-3.96259E+01-8.09505E+01
 -1      1486-4.56366E+04-7.82953E-01 5.28943E+00 2.78709E+03 2.24377E+01-1.13430E+02
 -1      1487-2.93429E+04 1.97684E+01-3.75145E+00 2.48078E+03 9.10801E+00-8.16347E+01
 -1      1488-1.55115E+04-4.42738E+03 2.69142E+02-1.10744E+03-8.74729E+02-1.36409E+02
 -1      1489 2.89834E+02 6.91117E+00 8.07580E+01-6.80456E+02 3.46213E+00-2.95660E+00
 -1      1490-1.19817E+03 6.27292E+01 2.67040E+00 8.73622E+02 3.63182E+00-2.90893E+01
 -1      1491 3.85339E+02-3.64102E+01-2.50106E+00 1.26411E+03 7.06267E-01-2.67205E+01
 -1      1492 4.28197E+03-2.25225E+01 9.77515E+01 3.24999E+03-6.40052E+00-6.42659E+01
 -1      1493-6.35778E+04 3.73686E+01 2.41630E+01 2.89775E+03-7.16357E+00-3.25722E+01
 -1      1494-6.64684E+04 1.93020E+02 3.13320E+01 2.56479E+03-8.68652E+01 1.20068E+02
 -1      1495-3.16913E+04-5.47935E+02 1.01507E+02 3.01727E+03-5.73007E+02-1.65181E+02
 -1      1496 1.14833E+03 7.86713E+01-3.65500E-01-1.11938E+02 8.68780E+00 8.70835E+00
 -1      1497 8.49913E+02-4.64640E+01-2.96247E+01 1.67368E+03 2.16964E+01-6.29566E+01
 -1      1498 9.54524E+02-3.13166E+01 4.87532E+01 1.90811E+03-1.07275E+01-3.00941E+01
 -1      1499-5.50287E+03 1.80377E+01 9.85296E+00 2.38294E+03 5.19169E+00-4.69648E+01
 -1      1500 1.43883E+02-4.14823E+01 9.76399E+00 7.13810E+02 4.85745E+00-1.36784E+01
 -1      1501-5.25844E+03 5.29268E+01-6.48043E-01 1.33351E+03 5.94769E+00-1.70893E+01
 -1      1502 1.70509E+03-4.70351E+01-5.40242E+01 2.28464E+03 3.06412E+01-1.07981E+02
 -1      1503 1.90683E+03-3.89829E+01 2.47192E+01 2.45871E+03-5.17928E-01-4.56583E+01
 -1      1504-1.14693E+04-4.62692E+00 4.50353E+00 3.08362E+03 1.26693E+01-9.42239E+01
 -1      1505 9.30784E+02 7.04176E+01-1.35245E+00 2.99915E+02 2.96580E+00-8.45595E+00
 -1      1506 2.83306E+03-1.88762E+01 2.05658E+01 2.83576E+03-5.79283E+00-4.14804E+01
 -1      1507-2.78089E+02 6.38474E+01 1.03932E+01 6.82328E+02 3.67419E+00-2.04276E+01
 -1      1508-3.24281E+04-1.50839E+00-3.44822E+00 2.49069E+03 2.08019E+01-1.00231E+02
 -1      1509 3.58600E+03 2.56618E+01 7.27224E+01 2.92555E+03-4.30500E+01-9.44916E+01
 -1      1510 3.23929E+03-1.10422E+01-5.28929E+01 2.95761E+03 1.47957E+01-1.68107E+00
 -1      1511-1.87771E+04 2.97584E+00 1.54297E+01 3.60705E+03 2.04218E+00-8.14154E+01
 -1      1512 2.67865E+01-4.44133E+01 1.57452E+01 9.31771E+01 5.55708E+00-9.70742E+00
 -1      1513-1.79334E+04 4.74480E+01-3.11847E+00 2.09341E+03 4.20794E+00-3.82800E+01
 -1      1514 4.37187E+03-3.90877E+01-8.65150E+01 3.05288E+03 3.93608E+01-1.41088E+02
 -1      1515-2.35335E+04 1.87273E+01 5.56971E+00 3.82096E+03 9.74197E+00-1.21788E+02
 -1      1516-5.96718E+04 2.71999E+01-1.67771E+01 3.02699E+03 3.51451E+00-6.79138E+01
 -1      1517 5.01359E+03 2.16338E+01-7.36973E+01 3.29926E+03 1.46334E+01-1.46899E+01
 -1      1518 2.62812E+03-1.21589E+01-3.24874E+01 2.62222E+03 2.89055E+00-3.01429E+01
 -1      1519 2.35715E+02-4.59217E+01 2.55030E+01 1.12346E+03-2.68836E-01 1.58048E+01
 -1      1520 5.27682E+02-3.02239E+01 4.74316E+00 1.46573E+03 2.47779E+00 8.42803E+00
 -1      1521 1.19092E+03 5.69685E+00 6.19461E+01 2.06148E+03-2.57363E+01-6.25631E+01
 -1      1522 9.52248E+01-3.58001E+01 1.84492E+00 5.23933E+02 3.69317E+00-1.67304E+01
 -1      1523-2.35389E+03 4.64173E+01 1.13063E+01 1.01618E+03 6.37655E+00-4.78495E+01
 -1      1524-6.96196E+03 5.91862E+01-6.07246E+00 1.47787E+03 8.36498E+00-2.80864E+01
 -1      1525-2.98955E+04-5.01079E+01 7.75745E+00 3.85611E+03-1.28836E+02-1.46035E+02
 -1      1526 5.31407E+03-2.61389E+02-2.71147E+01 2.94293E+03-1.00806E+02-2.44250E+02
 -1      1527-5.29528E+04-3.56797E+03 4.59330E+03 6.59950E+02-9.25218E+02-4.48204E+00
 -1      1528-1.32554E+04 5.97677E+01-1.35329E+00 1.88547E+03 6.77563E+00-3.94014E+01
 -1      1529-1.09796E+04 4.74383E+01 1.26064E+01 1.70923E+03 6.16357E+00-4.08270E+01
 -1      1530-4.92327E+04 4.06873E+01-6.49144E+00 2.84659E+03-5.34999E-01-5.97653E+01
 -1      1531-5.28009E+04 1.52243E+01-9.75916E+00 2.93449E+03 4.31082E+00-5.67628E+01
 -1      1532-4.22539E+04 3.87574E+01 4.81858E+00 2.74587E+03-7.38605E+00-8.09910E+01
 -1      1533-1.28004E+04 3.16203E+01 1.18021E+00 3.17083E+03-1.06414E+01-9.96737E+01
 -1      1534-2.34423E+04 2.71261E+01 4.34564E+00 2.30440E+03-5.66213E+00-6.90552E+01
 -1      1535-1.71922E+04-4.68099E+00 1.82372E+01 3.50943E+03-2.23140E+00-7.31618E+01
 -1      1536 5.44140E+02 1.91971E+01 2.17611E+01-2.97318E+02 5.93849E+00 4.23277E-01
 -1      1537 6.09930E+02 1.89565E+01 1.21451E+01-1.79815E+01 8.90094E+00 5.12278E+00
 -1      1538-7.52861E+02 1.05707E+01 1.62513E+01 1.21460E+03 1.03769E+01-4.11407E+01
 -1      1539-1.31625E+03 3.90975E+01-1.02779E+00 1.46362E+03 6.33871E+00-3.08237E+01
 -1      1540-2.00745E+03 1.25693E+01 7.48151E+00 1.66255E+03 5.35538E-01-3.68610E+01
 -1      1541 5.63664E+02 1.47464E+01 9.34832E+00 2.52035E+02 6.72529E+00-1.15454E+01
 -1      1542 7.55582E+01 1.50554E+01 1.53168E+01 7.63078E+02 1.04281E+01-1.70458E+01
 -1      1543-7.51847E+03 3.05449E+01 7.75584E+00 2.68212E+03-9.32618E+00-8.24494E+01
 -1      1544-3.67879E+03 1.49990E+01-2.72068E+00 2.02946E+03 3.75268E+00-6.28357E+01
 -1      1545-2.65855E+04-2.50831E+01 6.95581E+00 3.98142E+03-1.00887E+01-7.93550E+01
 -1      1546-2.83284E+04 4.13540E+01 6.29412E+00 3.97134E+03-1.40659E+00-1.51815E+02
 -1      1547-2.60279E+02 1.04777E+01 1.57574E+00 9.97906E+02 2.40744E+00-3.81234E+01
 -1      1548-2.75023E+03 2.19727E+01 5.27272E+00 1.86041E+03 3.41471E+00-4.37532E+01
 -1      1549-1.41753E+04 1.35093E+01 1.85719E+01 3.27789E+03 1.51203E+01-1.02571E+02
 -1      1550 3.92335E+02 1.59128E+01 1.08620E+01 5.14573E+02 3.92213E+00-1.23753E+01
 -1      1551-1.54571E+04 3.48321E+01 8.16778E+00 3.39894E+03-1.15293E+01-9.86853E+01
 -1      1552-8.96146E+03 2.05359E+01 7.88880E+00 2.80622E+03 3.22209E+00-8.91809E+01
 -1      1553-6.55156E+03 1.30810E+01 1.21231E+01 2.53600E+03 1.34175E+01-7.98521E+01
 -1      1554-4.48410E+03-2.49305E+00-3.27519E+00 2.22948E+03 1.33307E+01-5.70632E+01
 -1      1555-2.64351E+04 1.99807E+01-4.51757E+00 2.34644E+03 1.47462E+01-8.86256E+01
 -1      1556-1.00565E+04-2.56169E+01 1.23693E+01 2.96182E+03 1.21056E+01-6.49196E+01
 -1      1557-2.48598E+04-2.07006E+01 3.27561E+00 3.94225E+03 1.99607E+01-8.34362E+01
 -1      1558-3.89405E+04 5.27730E+01-5.61164E+00 2.67260E+03-4.20320E+00-5.15826E+01
 -1      1559-2.00823E+04 1.62417E+01 1.45266E+01 3.66153E+03 8.79301E+00-1.13928E+02
 -1      1560-2.15334E+04 4.18607E+01 2.98248E+00 3.75386E+03-1.80494E+01-1.10039E+02
 -1      1561 4.07186E+02 1.23500E+02 9.26530E+01-6.51309E+02-1.44358E+00-3.01562E+01
 -1      1562 3.10516E+03-1.58810E+03-4.23535E+02 1.12302E+03-3.57514E+02-8.34269E+02
 -1      1563 1.38363E+02-8.22350E+01 1.56628E+01-3.56638E+02 3.17024E+00 7.41731E+00
 -1      1564-3.33861E+04-2.17046E+03 2.00049E+02 1.99782E+03-8.98969E+02-2.17860E+02
 -1      1565-8.59930E+04-1.94475E+02 6.82822E+03 2.52343E+03-7.80068E+02-4.75632E+02
 -1      1566 1.60513E+04-3.54242E+03-2.79810E+03-3.00409E+03-7.33817E+02-2.66708E+02
 -1      1567 4.96099E+02 1.21145E+02 4.52529E+01-3.73957E+02 1.40481E+01-1.17823E+01
 -1      1568 1.88338E+02-7.49984E+01 3.95905E+01-4.33190E+02 7.94477E+00-5.99447E+00
 -1      1569 4.79401E+02 3.21547E+01-1.55746E+00-5.48399E+02 5.68856E-02-1.22934E+01
 -1      1570 1.19575E+04-1.70184E+03-2.35634E+03-6.43230E+03-6.77174E+02 2.30862E+03
 -1      1571 3.75540E+04 4.25124E+03 6.05025E+03-1.85569E+03 4.88658E+02 7.37064E+03
 -1      1572 2.66211E+04-3.26376E+03-2.76425E+03-3.36939E+03-1.40532E+03-1.27644E+03
 -1      1573-1.13794E+05-1.70192E+04-1.34176E+04 8.15246E+03 1.78194E+03-1.20969E+04
 -1      1574-8.75528E+04-1.67713E+04-1.04887E+04 9.45136E+02 2.98997E+02-1.12882E+04
 -1      1575-8.94058E+04 4.68820E+03 5.25006E+03-1.93446E+03-2.20587E+03 2.71196E+03
 -1      1576 8.33393E+01 4.01029E+01-1.78760E+01-3.34378E+02 6.25421E+00 3.86142E+01
 -1      1577 2.35158E+02 1.63091E+02-1.27158E+01-5.81366E+02 1.30984E+01 5.87622E+00
 -1      1578-1.32983E+02-7.69448E+01 2.95171E+01-1.75566E+02-1.54090E+01-4.79957E+00
 -1      1579 3.05201E+02-1.02248E+02 3.50691E+01-5.35585E+02 1.52817E+01 4.14446E+01
 -1      1580 4.12775E+02-1.48996E+00 1.99257E+01-2.95287E+02 2.91495E+01 2.16240E+01
 -1      1581 9.04353E+02 8.07654E+01 1.19894E+00-1.58521E+02-6.52112E+00-2.48684E+01
 -1      1582-2.78088E+04-9.60312E+03-6.29439E+03-5.41425E+03-1.03210E+03-3.65957E+03
 -1      1583-4.20419E+03-1.39507E+03 7.48140E+02-5.43029E+03-8.95190E+02 1.58600E+03
 -1      1584 1.32722E+03-3.24551E+03-1.44576E+03-2.49647E+03-3.14290E+02-1.38039E+02
 -1      1585-6.96529E+04-1.70837E+04-9.95862E+03-1.59933E+03-1.25778E+03-9.06073E+03
 -1      1586-4.71962E+04-9.83671E+03-5.04396E+03-3.92811E+03-6.57166E+02-4.90374E+03
 -1      1587-3.33441E+04-3.88447E+03 2.17856E+03-4.76167E+02-5.89404E+02 4.54967E+00
 -1      1588-6.85360E+04-2.16595E+03 6.12605E+03 9.59925E+02-6.74708E+02-1.98388E+02
 -1      1589 2.20507E+02 1.82847E+02 2.02221E+01-6.40260E+02-1.48221E+00 2.57571E+01
 -1      1590 2.54663E+02 1.80976E+01 2.44883E+01-6.59334E+02-2.61306E+00 3.32551E+01
 -1      1591 2.46167E+02 3.67391E+00 7.96254E+01-5.74787E+02 8.20656E+00 2.59275E+00
 -1      1592 2.73919E+02 5.33109E+01 3.41368E+01-6.49212E+02-9.47764E+00 1.89968E+01
 -1      1593 3.05833E+02-9.32223E+01 6.01273E+01-6.21154E+02-7.13163E+00 2.21315E+01
 -1      1594 3.35494E+02 4.07503E+01 5.89211E+01-6.81046E+02 1.41301E+01-8.12484E+00
 -1      1595 4.51694E+02 8.49490E+01 5.63371E+01-5.41519E+02 1.50522E+01-1.74960E+01
 -1      1596 2.28576E+04-5.44905E+02 2.26826E+02-6.31031E+02 1.86661E+02-3.59622E+02
 -1      1597 2.27678E+04-6.69259E+02-4.48756E+02 8.12548E+02-1.49629E+02-4.38610E+02
 -1      1598 8.61038E+03-2.38368E+03-5.99858E+02-1.21283E+03-4.79534E+02-8.22384E+02
 -1      1599 2.35137E+04-3.12416E+02-1.05027E+02 1.45662E+03-8.33772E+01-9.16338E+01
 -1      1600 2.32733E+04-5.30126E+01-9.39308E+01 1.76325E+03-5.55646E+01-1.71357E+02
 -1      1601 4.01015E+03-8.44013E+02-7.13179E+01 2.18183E+03-1.64085E+02-2.56625E+02
 -1      1602 2.31952E+04 3.57694E+01 1.13592E+02 1.85252E+03-4.73533E+01-1.03074E+02
 -1      1603 2.20346E+04-6.74682E+01 8.48720E+01 1.86697E+03-6.13154E+01-2.43912E+02
 -1      1604 5.30821E+03-5.03421E+01 2.12255E+01 3.12381E+03-3.09130E+01-2.04997E+02
 -1      1605 2.18868E+04-1.19677E+01-4.40084E+01 1.89298E+03-6.15086E+00-1.74796E+02
 -1      1606 2.08348E+04 2.08671E+01-7.84342E+01 1.84766E+03 8.11415E+00-5.62436E+01
 -1      1607 4.78519E+03-6.82487E+01-1.91365E+01 3.29114E+03-1.00762E+02-1.79319E+02
 -1      1608 2.05414E+04 6.58278E+00 1.05546E+02 1.86632E+03-2.88486E+01-5.98602E+01
 -1      1609 1.94583E+04-2.51282E+01 5.88841E+01 1.88850E+03 1.04231E+01-1.84538E+02
 -1      1610 4.64415E+03 2.59380E+01 1.34912E+01 3.27595E+03 2.73029E+01-1.69270E+00
 -1      1611 1.93984E+04 6.44086E+01-6.75209E+01 1.81850E+03 4.83083E+01-2.02508E+02
 -1      1612 1.80982E+04-6.04446E+01-1.13932E+02 1.80346E+03 2.79373E+01-6.95807E+01
 -1      1613 4.48591E+03 1.40725E+01 4.39624E+00 3.23928E+03 7.08494E+01-1.62928E+02
 -1      1614 1.78998E+04-5.31482E+01 2.86049E+01 1.83531E+03 1.45180E+01-5.77456E+01
 -1      1615 1.70156E+04-3.99668E+00-1.53538E+01 1.81439E+03-5.49219E+00-4.37282E+01
 -1      1616 4.02570E+03-8.89661E+01-6.89940E+00 3.14317E+03-1.59705E+01-7.31389E+01
 -1      1617 1.67905E+04-1.43753E+01 6.89682E+01 1.72957E+03-6.17590E+00-1.90675E+01
 -1      1618 1.56658E+04-2.60372E+01 9.01800E+01 1.70284E+03-4.68486E+01-1.67498E+02
 -1      1619 3.94472E+03 1.20603E+02 7.91479E+01 3.05874E+03 1.05499E+01-3.01783E+01
 -1      1620 1.55266E+04 1.18986E+01-1.76821E+01 1.70745E+03-1.43222E+01-1.73880E+02
 -1      1621 1.44836E+04-2.26998E+01 3.53865E-01 1.66759E+03 2.08983E+00-1.35721E+02
 -1      1622 3.46295E+03-4.29971E+01 2.27715E+00 3.01152E+03-5.28500E+01-1.32172E+02
 -1      1623 1.43181E+04-2.23862E+00-3.48112E+01 1.69248E+03-1.89347E+00-1.43245E+02
 -1      1624 1.33188E+04-4.06823E+01-7.84627E+01 1.65754E+03 2.31316E+01-7.23682E+01
 -1      1625 3.32525E+03-1.39049E+01-3.49146E+01 2.99463E+03-1.29548E+01-6.57428E+01
 -1      1626 1.31004E+04-4.71425E+01 1.98011E+01 1.64985E+03-4.24280E+00-3.16115E+01
 -1      1627 1.22884E+04-2.56993E+00 1.66404E+01 1.63097E+03-6.85778E+00-5.47470E+01
 -1      1628 3.08194E+03 3.10274E+01 2.08683E+01 2.88059E+03 1.63971E+01 1.30076E+01
 -1      1629 1.19634E+04-1.99929E+01 5.84159E+01 1.56936E+03-1.10742E+01-1.58146E+01
 -1      1630 1.09686E+04-2.22680E+01 8.63731E+01 1.53952E+03-4.11643E+01-1.51292E+02
 -1      1631 2.84940E+03 1.03962E+02 9.63357E+01 2.77641E+03-4.18909E+00-1.39444E+01
 -1      1632 1.09071E+04-2.19279E+01-5.63025E+01 1.52988E+03-3.27249E+00-1.43447E+02
 -1      1633 1.00802E+04 1.84245E+01-3.91577E+01 1.48805E+03 6.17116E+00-2.83075E+01
 -1      1634 2.38916E+03-3.92681E+01-3.24033E+00 2.70740E+03-5.06460E+01-1.15035E+02
 -1      1635 9.83960E+03 1.43009E+01 6.93717E+01 1.47894E+03-2.16963E+01-5.56846E+01
 -1      1636 8.95733E+03-2.61803E+01 3.61777E+01 1.48274E+03-9.18751E-01-1.19021E+02
 -1      1637 2.32597E+03-5.65315E+01 2.04861E+00 2.60297E+03-2.24501E+01 1.78935E+01
 -1      1638 8.84536E+03-5.93049E+00 1.44210E+01 1.39723E+03 2.24377E-01-1.17069E+02
 -1      1639 7.96140E+03-3.06295E+01 2.36424E+01 1.41144E+03 1.65132E+01-1.38189E+02
 -1      1640 2.00383E+03-3.66421E+01 2.46983E+01 2.56891E+03 8.24487E+00-4.71204E+01
 -1      1641 7.83497E+03 3.58777E+01-4.08691E+01 1.36991E+03 3.48292E+01-1.56094E+02
 -1      1642 6.87123E+03-5.20937E+01-7.69620E+01 1.34615E+03 2.01564E+01-5.10115E+01
 -1      1643 1.93156E+03 5.16174E+00 8.00764E+00 2.43745E+03 5.45209E+01-1.15100E+02
 -1      1644 6.73613E+03-4.79884E+01 2.76217E+01 1.34339E+03 9.28970E+00-4.00431E+01
 -1      1645 6.10340E+03-7.79133E+00-5.57961E+00 1.31509E+03-3.15433E+00-2.83110E+01
 -1      1646 1.46597E+03-8.19262E+01-3.53216E-01 2.31844E+03-1.26230E+01-5.62709E+01
 -1      1647 5.93856E+03-2.16942E+01 5.54750E+01 1.22306E+03-5.29629E+00-9.85585E+00
 -1      1648 5.16769E+03-2.75520E+01 7.62604E+01 1.19475E+03-3.01574E+01-1.17619E+02
 -1      1649 1.43972E+03 7.15645E+01 6.01255E+01 2.19142E+03 9.21848E+00-1.76442E+01
 -1      1650 5.07363E+03-1.75927E+01-1.79363E+01 1.16487E+03-1.40905E+00-1.14569E+02
 -1      1651 4.41010E+03-1.01075E+00-3.56892E+01 1.11729E+03-2.72250E+00-3.14033E+01
 -1      1652 1.14182E+03-4.26049E+01 1.43755E+01 2.07782E+03-4.16818E+01-9.80124E+01
 -1      1653 4.31734E+03 1.35362E+01 7.29106E+01 1.09001E+03-1.94336E+01-4.47421E+01
 -1      1654 3.69719E+03-1.75489E+01 4.04413E+01 1.08959E+03 7.34209E+00-1.08646E+02
 -1      1655 1.06130E+03-2.99997E+01-1.03577E+01 1.94328E+03-1.25346E+01-7.07850E+00
 -1      1656 3.57859E+03 2.06016E+00-3.70790E+01 9.92502E+02 3.08813E+01-1.00122E+02
 -1      1657 2.89422E+03-1.14984E+01-2.50480E+01 9.81250E+02-9.17400E-01-2.26578E+01
 -1      1658 9.24085E+02-2.06304E+01 2.39969E+00 1.82128E+03 3.60122E+01-8.51001E+01
 -1      1659 2.83343E+03 2.12948E+01 4.65482E+01 9.39845E+02-2.18129E+00-5.57108E+01
 -1      1660 2.26716E+03-1.57601E+01 2.05046E+01 9.09164E+02-4.59008E+00-8.38659E+01
 -1      1661 6.44774E+02-9.51784E+01-2.95161E+01 1.66504E+03-7.10511E+00-2.86968E+01
 -1      1662 2.19508E+03-1.08663E+01 1.29399E+01 8.36998E+02-4.70558E+00-6.95265E+01
 -1      1663 1.68304E+03-2.62469E+01-1.73665E+00 8.11766E+02 1.02100E+01-5.41232E+01
 -1      1664 5.08691E+02-4.63515E+01-2.29592E+01 1.54886E+03-1.54567E+01-2.37863E+01
 -1      1665 1.60563E+03-1.12993E+01 3.43054E+00 7.44660E+02 8.23056E+00-5.86940E+01
 -1      1666 1.15951E+03-2.18090E+01-1.09072E+01 7.17057E+02 4.04790E+00-2.49652E+01
 -1      1667 4.80457E+02-2.11819E+01 2.02005E+01 1.38951E+03 9.63271E+00-7.99677E+00
 -1      1668 1.06299E+03-3.27373E+01 3.22815E+01 6.45156E+02-2.66877E+00-1.12509E+01
 -1      1669 7.22173E+02-1.45786E+01 2.15943E+01 6.19764E+02 4.06151E+00-3.50404E+01
 -1      1670 3.10465E+02-5.00856E+01 7.91278E+00 1.19499E+03-1.41859E+01-3.38686E-01
 -1      1671 6.63570E+02-2.01839E+01 1.21468E+01 5.34719E+02 4.03455E+00-4.41632E+01
 -1      1672 3.40892E+02-2.46483E+01 1.38457E+01 5.14711E+02 6.73596E+00-4.25673E+01
 -1      1673 2.50359E+02-3.93519E+01 1.49960E+01 1.02948E+03 1.17178E+01-1.08126E+01
 -1      1674 3.13233E+02-1.11949E+01 9.74735E+00 4.22072E+02 8.55882E+00-4.29201E+01
 -1      1675 3.95269E+01-3.00879E+01 1.66570E+01 3.94782E+02-3.83185E-01-3.85642E+01
 -1      1676 1.72695E+02-4.08162E+01 9.18386E+00 8.33767E+02 1.69571E+01-1.91405E+01
 -1      1677 1.47924E+01-1.27986E+01 1.24157E+01 3.18324E+02 2.13105E+00-3.95823E+01
 -1      1678-1.77915E+02-1.94807E+01-1.20983E+00 2.84898E+02 4.68499E+00-1.02834E+01
 -1      1679 1.07421E+02-4.60894E+01 6.97854E+00 6.35458E+02-3.74949E+00-2.64441E+01
 -1      1680-2.15254E+02-3.23699E+01 2.08880E+01 2.04357E+02-1.17322E+00 1.18123E+00
 -1      1681-2.90994E+02-2.11084E+01 1.66294E+01 1.69085E+02 5.25647E+00-4.43022E+00
 -1      1682 6.09757E+01-5.27118E+01 4.54846E+00 4.24411E+02-5.42230E+00-8.52985E+00
 -1      1683-3.01947E+02-2.21784E+01 1.75283E+01 7.03333E+01 4.68269E+00-9.56601E+00
 -1      1684-3.50057E+02-2.34063E+01 1.60822E+01 4.00922E+01 8.91803E-01-2.52171E+00
 -1      1685 5.90095E+01-4.57891E+01 9.99234E+00 2.09676E+02 9.98108E+00-3.20528E+00
 -1      1686-3.66169E+02-2.99947E+01 1.68322E+01-4.69657E+01-4.15496E+00 8.61852E+00
 -1      1687-2.99338E+02-2.06118E+01 2.06409E+01-8.78968E+01 4.63422E+00 8.72765E+00
 -1      1688 2.02741E+01-5.50645E+01 4.18771E+00-1.30183E+01 1.79224E-01-7.67842E+00
 -1      1689-2.74483E+02-4.17512E+01 1.67257E+01-1.77744E+02-6.16297E+00 7.24922E+00
 -1      1690-1.69207E+02-4.28760E+01 1.55729E+01-2.05009E+02-1.69845E+00-4.34760E+00
 -1      1691 6.75942E+01-7.58080E+01 3.13446E+00-2.37924E+02-3.01030E+00 7.90731E+00
 -1      1692 1.18341E+02-8.04239E+01 4.16400E+00-3.87872E+02 4.06214E+00 1.10817E+01
 -1      1693-8.64231E+04 4.12294E+02 4.63193E+02 8.89918E+02-2.19562E+02 5.02770E+02
 -1      1694-8.78554E+04-1.04626E+03-9.90979E+02 2.59211E+02 5.47776E+02 5.73674E+02
 -1      1695-7.42655E+04 3.32457E+02 1.28909E+03 1.46985E+03-5.93969E+02 1.18773E+03
 -1      1696-8.37139E+04 1.24956E+02 3.09674E+01 1.45461E+03-1.05402E+01 1.07331E+02
 -1      1697-8.56439E+04 1.09255E+02 2.73887E+01 1.23419E+03 1.70448E+01 9.27029E+01
 -1      1698-6.75265E+04 1.70041E+02 1.40294E+02 2.27315E+03-1.70490E+02 2.39247E+02
 -1      1699-7.95324E+04-7.25242E+00 5.54607E+00 1.57183E+03 8.47146E+00-1.57382E+01
 -1      1700-8.21379E+04 2.70943E+01 5.22100E+01 1.56217E+03 9.93631E+00 3.54689E+01
 -1      1701-6.50952E+04 9.52839E+01 3.08675E+01 2.82912E+03-1.12976E+01 3.09033E+01
 -1      1702-7.48233E+04-1.99170E+01-2.12101E+01 1.64645E+03 1.02273E+01-5.96218E+01
 -1      1703-7.75778E+04 6.79271E+00 2.06045E+01 1.64215E+03-2.39825E+01-1.27042E+01
 -1      1704-6.16299E+04 6.12610E+01 3.96188E+01 2.99392E+03-2.15256E+01-6.69618E+01
 -1      1705-7.00790E+04-1.43323E+01-2.03165E+01 1.61580E+03 1.02658E+00-1.74565E+01
 -1      1706-7.27772E+04-9.55708E+00-1.19698E+01 1.63785E+03-1.15245E+01-1.79062E+01
 -1      1707-5.77295E+04 6.51827E+01 1.37652E+01 3.03532E+03-2.08762E+01-8.44754E+01
 -1      1708-6.57522E+04 2.05798E+01-1.85738E+01 1.61698E+03 3.33847E+01-2.11792E+01
 -1      1709-6.84913E+04-3.46708E+00-3.89567E+01 1.59903E+03-2.35990E+01-4.03330E+01
 -1      1710-5.42760E+04-9.94459E+00 4.94381E+01 2.98291E+03 4.13506E+00-8.24018E+01
 -1      1711-6.11937E+04 4.08390E+01 4.26431E+00 1.58095E+03 5.38395E+01-3.23719E+01
 -1      1712-6.39139E+04 6.10589E+00 2.83467E+00 1.55960E+03-1.69615E+01-3.72877E+01
 -1      1713-5.09329E+04 5.20438E+01 2.87029E+01 2.92311E+03 9.85528E+00-3.72378E+01
 -1      1714-5.66866E+04 1.00642E+01 3.39847E+01 1.48449E+03 2.70938E+01-5.54444E+01
 -1      1715-5.93172E+04-9.06359E+00 7.55325E+01 1.53556E+03 5.76466E+00-5.63721E+01
 -1      1716-4.73566E+04 3.08957E+01 5.15039E+01 2.84396E+03 4.23445E+01-6.95506E+01
 -1      1717-5.24706E+04 1.45705E+01 1.28063E+01 1.49836E+03 7.96022E+00-6.36351E+01
 -1      1718-5.50016E+04 3.09613E+01 3.34961E+01 1.46888E+03-8.42486E+00-1.69252E+01
 -1      1719-4.40461E+04 5.40489E+01-6.39793E+01 2.76249E+03-1.73825E+00-9.72434E+01
 -1      1720-4.82801E+04 2.58302E+01 1.83577E+01 1.46654E+03 1.85799E+01-3.15910E+01
 -1      1721-5.07232E+04 4.00089E+01-1.15397E+01 1.41262E+03-8.72237E+00-1.19425E+01
 -1      1722-4.06364E+04 6.05105E+01-5.68564E+01 2.70235E+03-1.92395E+01-7.42983E+01
 -1      1723-4.40413E+04 3.54174E+01 3.90850E+00 1.43392E+03 4.80462E+01-2.42483E+01
 -1      1724-4.65011E+04 1.14010E+01 1.79893E+01 1.42987E+03-2.00125E+01-3.29267E+01
 -1      1725-3.72460E+04 3.47676E+01 3.78523E+01 2.67492E+03 1.74697E+01-5.87637E+01
 -1      1726-4.00165E+04-1.70941E+01 3.89369E+00 1.31217E+03 8.45819E+00-5.26184E+01
 -1      1727-4.23861E+04-3.10615E+00 6.29073E+01 1.37001E+03 1.07846E+01-5.11738E+01
 -1      1728-3.39094E+04 3.56642E+01 4.72522E+01 2.57109E+03 3.40405E+01-6.33882E+01
 -1      1729-3.62008E+04-4.35491E+00-1.48972E+01 1.31129E+03 1.02857E+01-2.20078E+01
 -1      1730-3.84375E+04 2.15197E+00-9.40493E+00 1.34003E+03-5.39368E+00-2.30593E+01
 -1      1731-3.08816E+04 5.69862E+01 1.73211E+00 2.49037E+03-7.24073E+00-1.06077E+02
 -1      1732-3.24463E+04-5.19071E+00-2.59613E+01 1.26105E+03 1.37696E+01-4.75028E+01
 -1      1733-3.46816E+04 1.12229E+01 9.34914E+00 1.28660E+03-1.29159E+01-5.38988E+01
 -1      1734-2.78262E+04 2.57549E+00 7.30190E+01 2.41846E+03 2.06963E+01-9.85773E+01
 -1      1735-2.88219E+04 3.67379E+00 1.46505E+00 1.25227E+03 1.76422E+01-4.67588E+01
 -1      1736-3.09270E+04-7.73575E+00 1.38335E+01 1.24534E+03-2.77186E+01-1.16966E+01
 -1      1737-2.49653E+04 2.60457E+01-6.45070E+00 2.33286E+03-6.07908E+00-6.25295E+01
 -1      1738-2.52896E+04 2.95965E+01 1.48040E+01 1.21640E+03 1.85059E+01-2.57825E+01
 -1      1739-2.72760E+04 4.30920E+01-1.08718E+01 1.17644E+03-6.93474E+00-9.43192E+00
 -1      1740-2.19859E+04 6.87527E+01-3.20502E+01 2.25248E+03-1.37816E+01-5.06807E+01
 -1      1741-2.19488E+04 3.76971E+01 1.00008E+01 1.15104E+03 3.19054E+01-1.49591E+01
 -1      1742-2.39092E+04 1.73749E+01 1.26268E+01 1.15626E+03-1.12970E+01-2.32084E+01
 -1      1743-1.91981E+04 5.04394E+01 3.78601E+01 2.17864E+03 1.50640E+01-4.65723E+01
 -1      1744-1.87729E+04 2.68037E+01 1.76504E+01 1.06437E+03 1.94474E+01-1.90476E+01
 -1      1745-2.06501E+04 3.77114E+00 3.46860E+01 1.10143E+03-3.44056E+00-2.39185E+01
 -1      1746-1.66452E+04 3.77360E+01 1.48778E+01 2.05640E+03 2.61181E+01-3.59826E+01
 -1      1747-1.59713E+04 4.32612E+01 7.61684E+00 1.00080E+03 1.14453E+01-1.10537E+01
 -1      1748-1.76760E+04 4.41977E+01 5.16628E+00 1.00798E+03-5.22299E-01-8.27292E+00
 -1      1749-1.43419E+04 7.96680E+01-1.54258E+01 1.93474E+03-1.26969E+00-5.45825E+01
 -1      1750-1.31301E+04 1.84975E+01-6.52180E+00 9.11588E+02 3.65946E+00-9.85814E+00
 -1      1751-1.47495E+04 3.95891E+01 7.48485E-01 9.31942E+02 1.10712E+01-2.99657E+01
 -1      1752-1.20937E+04 7.72447E+01 8.68075E+00 1.80499E+03 1.29841E+01-4.76958E+01
 -1      1753-1.05702E+04 3.52635E+01-4.71392E+00 8.93820E+02 2.20477E+01-8.11158E+00
 -1      1754-1.20681E+04 2.01814E+01-2.19739E+01 8.98384E+02-1.27998E+01-2.51407E+01
 -1      1755-9.85755E+03 3.46509E+01 4.84193E+01 1.66978E+03 1.11288E+01-3.45929E+01
 -1      1756-8.19650E+03 3.94426E+01 7.61906E+00 8.05537E+02 2.14847E+01-6.73240E+00
 -1      1757-9.58287E+03 2.27820E+01 1.88555E+00 8.14743E+02-6.54124E-01-1.48973E+01
 -1      1758-7.85104E+03 7.28885E+01 2.16901E+01 1.56979E+03 1.01994E+01-1.85351E+01
 -1      1759-6.06488E+03 3.65751E+01 5.03171E+00 7.23522E+02 1.75206E+01-2.60907E+00
 -1      1760-7.31892E+03 2.53235E+01 7.98218E+00 7.37909E+02-2.98937E+00-9.23439E+00
 -1      1761-6.06228E+03 6.18515E+01 1.04197E+01 1.42408E+03 1.36963E+01-1.78034E+01
 -1      1762-4.16769E+03 3.90879E+01 3.41375E+00 6.45717E+02 2.40368E+01-9.97988E+00
 -1      1763-5.27808E+03 2.88085E+01 5.00635E+00 6.55949E+02-3.25364E+00-1.26797E+01
 -1      1764-4.43669E+03 6.68806E+01 1.28206E+01 1.27652E+03 7.89534E+00-1.75517E+01
 -1      1765-2.49118E+03 2.48108E+01 7.16555E+00 5.32749E+02 1.07883E+01-1.82943E+01
 -1      1766-3.45467E+03 2.21364E+01 3.20836E+01 5.67650E+02 6.89202E+00-1.90533E+01
 -1      1767-2.97257E+03 6.58088E+01 3.32256E+01 1.11279E+03 1.53084E+01-2.67874E+01
 -1      1768-1.13001E+03 3.94568E+01-1.49920E-01 4.55938E+02 6.21965E+00-1.20744E+01
 -1      1769-1.91009E+03 4.13992E+01-1.05463E+00 4.74550E+02-2.97227E+00-1.14541E+01
 -1      1770-1.76881E+03 7.51172E+01-5.34351E+00 9.44659E+02 3.28147E-02-4.07187E+01
 -1      1771-1.57935E+01 3.76334E+01-9.03285E+00 3.52590E+02 9.08579E+00-9.89368E+00
 -1      1772-6.42606E+02 4.22303E+01-3.27029E+00 3.73324E+02-1.19380E+00-1.59663E+01
 -1      1773-6.98571E+02 6.76583E+01 1.54766E+01 7.75497E+02 1.17582E+01-2.44681E+01
 -1      1774 8.16017E+02 3.47481E+01-7.86779E+00 2.51489E+02 2.89869E+00-1.32619E+01
 -1      1775 3.52482E+02 4.29859E+01-1.19129E+00 2.75407E+02 3.74760E-01-5.85984E+00
 -1      1776 1.13842E+02 8.74192E+01 5.46130E+00 5.94469E+02-1.43756E+00-1.81700E+01
 -1      1777 1.34666E+03 3.89757E+01-8.01212E+00 1.47558E+02 2.21777E+00-8.70138E-01
 -1      1778 1.07558E+03 3.52516E+01-8.37300E+00 1.74881E+02-2.88781E+00-3.43988E+00
 -1      1779 7.17932E+02 7.99277E+01 4.13942E+00 3.88379E+02 1.40776E+00-2.16853E+01
 -1      1780 1.56512E+03 4.14703E+01-3.88415E+00 3.38293E+01 5.48149E+00-2.10832E-01
 -1      1781 1.46865E+03 4.08552E+01-8.29183E+00 6.05416E+01-4.02620E-01-5.01023E+00
 -1      1782 1.08746E+03 8.35720E+01 1.17497E+01 2.00961E+02 4.15355E+00 1.25208E+00
 -1      1783 1.46072E+03 4.61211E+01-3.71619E+00-7.52416E+01 5.14329E+00-8.53909E-01
 -1      1784 1.55334E+03 4.40577E+01-1.02935E+01-5.00163E+01 4.70346E-01-1.34013E+00
 -1      1785 1.20452E+03 8.88936E+01 2.29084E+01-4.59929E+00 8.84745E+00 6.99931E+00
 -1      1786 1.04389E+03 5.52637E+01-1.09215E+00-1.85858E+02 7.26312E+00 3.84747E+00
 -1      1787 1.29952E+03 5.00387E+01-9.37245E+00-1.61168E+02 2.84978E-01 2.48846E+00
 -1      1788 1.04767E+03 1.06610E+02 1.92722E+01-2.22540E+02 4.12608E+00 1.96164E+01
 -1      1789 7.29167E+02 1.20679E+02 3.58990E+01-3.48801E+02 9.72207E+00 1.51662E+00
 -1      1790-1.51503E+03-1.71220E+01-2.09786E+01 1.90571E+03 3.53920E+00-1.03803E+02
 -1      1791-1.52043E+03-7.08278E+00-2.61188E+01 1.83623E+03-2.86382E+01-3.89881E+01
 -1      1792-1.04812E+03 9.69964E+00 1.35829E+01 1.75759E+03 3.87805E+00-3.51008E+01
 -1      1793-1.10078E+03-3.08799E+00-1.52887E+01 1.70294E+03-1.59917E+01 8.87944E+00
 -1      1794-3.13260E+03 1.35870E+01 1.94616E+01 1.95774E+03-4.66591E+00-4.17320E+01
 -1      1795-1.15496E+01 5.47985E+00 1.60706E+01 1.00449E+03 8.58945E+00-1.13948E+01
 -1      1796-3.14594E+01-2.18886E+00 1.09597E+01 8.86431E+02 1.01622E+01-5.76294E+00
 -1      1797-2.18509E+02-1.35461E+01 2.48878E+01 1.21027E+03 2.20006E+01 7.39457E+00
 -1      1798-2.82582E+02-3.08009E+01 3.14429E+00 1.10133E+03-6.52552E-01-7.78072E+00
 -1      1799-4.91362E+02 2.00754E+01 3.54524E+00 1.13097E+03 1.05698E+01-4.33673E+01
 -1      1800 6.66497E+02 4.84424E+01 8.78891E+00 4.09656E+02 6.72897E+00-1.50013E+01
 -1      1801 4.19704E+02 3.90496E+01 5.13197E+00 5.12656E+02 1.15570E+00-1.75611E+01
 -1      1802 2.95986E+02 4.23880E+01 1.33946E+01 6.38615E+02 1.13928E+01-1.64218E+01
 -1      1803-1.10259E+02 1.97368E+01 4.35627E+00 7.30582E+02-6.00386E-01-2.76055E+01
 -1      1804 2.78125E+02 2.27037E+01 2.21821E+01 6.45403E+02 5.39492E+00-1.21246E+01
 -1      1805 3.09238E+02-1.19930E+01 1.40853E+01 4.96666E+01 7.69161E+00-2.51434E+00
 -1      1806 3.50190E+02-8.45400E+00 6.38385E+00-7.73183E+01 4.86866E+00 1.16782E+00
 -1      1807 3.22900E+02-1.78704E+01 9.03948E+00-2.11731E+02 1.39516E+00 3.62428E+00
 -1      1808 6.20619E+02 3.28458E+01 2.41866E+01-1.61996E+02 8.02970E+00 3.67030E+00
 -1      1809 3.27890E+02-3.02690E+01 1.71552E+01-3.55049E+02 2.71215E+00 4.08151E+00
 -1      1810-2.15385E+03 9.64619E+00 1.32282E+01 2.26253E+03-2.16799E+00-3.33682E+01
 -1      1811-2.26017E+03 8.11785E+00-8.69917E+00 2.18258E+03-2.38877E+01-2.52996E+01
 -1      1812-2.72938E+03-5.98354E+01-2.19924E+01 2.36097E+03-1.45782E+01-4.49009E+01
 -1      1813-6.03369E+03 2.30298E+01 1.99638E+01 2.50677E+03 1.88111E+00-6.73076E+01
 -1      1814-2.71996E+03-4.16952E+01 1.27459E+00 2.38426E+03-2.36168E+01-5.55493E+01
 -1      1815-2.86114E+03 3.76958E+01 5.64375E+00 1.43511E+03 7.70951E+00-4.55193E+01
 -1      1816-3.61795E+03 2.75885E+01 7.52805E+00 1.52849E+03-1.70927E+00-3.94558E+01
 -1      1817-1.82499E+03 6.40664E+01 2.01318E+01 1.26280E+03 3.06106E+01-4.43745E+01
 -1      1818-2.50931E+03 4.44504E+01-9.56247E-02 1.35129E+03-1.47391E-01-3.82250E+01
 -1      1819-1.65659E+03 1.93942E+01 1.91443E+01 1.56684E+03-1.86942E+00-3.68580E+01
 -1      1820-3.73715E+03-2.07315E+01-2.32911E+01 2.58311E+03 3.04628E+00-1.33937E+02
 -1      1821-3.71909E+03 2.46519E+01-1.46421E+01 2.59363E+03-2.27478E+01-9.28786E+01
 -1      1822-3.04506E+03 1.29524E+01 3.72746E+01 2.51744E+03 4.36695E+01-7.08297E+01
 -1      1823-3.04280E+03 3.71499E+01 5.07741E+01 2.41502E+03-1.07730E+01-1.22172E+02
 -1      1824-8.23728E+03 3.27675E+00 1.71243E+01 2.77911E+03-1.03216E+01-5.98947E+01
 -1      1825-4.11839E+04 3.08881E+01 1.30571E+01 3.56742E+03-3.97173E+01-1.02610E+02
 -1      1826-4.31072E+04-1.85664E+00-2.77825E+01 3.57099E+03-4.57485E+01-8.81931E+01
 -1      1827-3.88414E+04 1.54884E+01 1.31450E+01 3.43118E+03 1.84345E+01-8.36274E+01
 -1      1828-4.03227E+04-9.57663E+00-9.54685E+00 3.52699E+03 3.32553E+00-7.60941E+01
 -1      1829-2.57048E+04-2.62909E+01-3.04523E+01 4.00639E+03 1.27238E+01-9.62172E+01
 -1      1830-8.81331E+03 2.54917E+01 4.93177E+01 3.49457E+03 5.76310E+01-9.45436E+01
 -1      1831-8.79238E+03 6.13216E+01 6.05209E+01 3.40927E+03-2.17060E+01-1.70627E+02
 -1      1832-9.71138E+03-1.95038E+01-4.13902E+01 3.48729E+03 5.98061E+00-1.77538E+02
 -1      1833-9.74068E+03 3.22148E+01-2.33559E+01 3.55248E+03-3.09511E+01-1.23107E+02
 -1      1834-2.25533E+04-3.10269E+00 1.82510E+01 3.83495E+03-1.41042E+01-8.13663E+01
 -1      1835-1.18266E+04-7.65767E+01-2.01867E+01 3.66780E+03-7.38939E+01-1.17252E+02
 -1      1836-1.17651E+04-7.78893E+01-3.82093E+01 3.80632E+03-4.58643E+01-7.65487E+01
 -1      1837-1.23254E+04-1.75074E+00 4.63574E+01 3.53045E+03-9.07542E+01-2.21215E+02
 -1      1838-1.23132E+04-1.77375E+02 7.79787E+01 3.42752E+03-1.07882E+02-2.06155E+02
 -1      1839-2.90564E+04 6.13991E+01-7.88829E+00 3.86589E+03-3.28290E+01-1.50634E+02
 -1      1840-2.39552E+04 5.13264E+01 4.45316E+01 3.04752E+03 4.91266E+01-1.14680E+02
 -1      1841-2.56018E+04-6.39259E+00-7.78036E+00 3.09158E+03-3.12858E+01-8.22151E+01
 -1      1842-2.63707E+04 1.51013E+01 1.60704E+01 3.09136E+03 1.21809E+01-9.53546E+01
 -1      1843-1.64348E+04-1.30393E+01 1.85355E+01 3.48188E+03-1.00370E+01-7.28998E+01
 -1      1844-2.80446E+04-3.80713E+00 2.63346E+01 3.16825E+03 1.27500E+01-9.86376E+01
 -1      1845-4.74434E+03-4.19110E+01 3.12796E+01 2.92195E+03 2.85664E+01-4.10303E+00
 -1      1846-4.77583E+03-5.35132E+01-1.72436E+01 2.86675E+03-2.28689E+00-3.14638E+01
 -1      1847-5.30898E+03 4.80719E+01-1.85899E+01 2.95178E+03-4.19732E+01-1.41670E+01
 -1      1848-1.21510E+04 3.30046E+01-1.20315E+01 3.14234E+03 8.00900E+00-8.51896E+01
 -1      1849-5.08285E+03 7.48360E+01 3.86094E+01 3.01458E+03-1.43662E+01-4.16863E+01
 -1      1850-8.32824E+03-5.18254E+01-1.47793E+01 3.42069E+03-3.82181E+01-7.17113E+01
 -1      1851-8.36160E+03-7.40353E+01-4.12661E+01 3.45383E+03-1.34283E+01-5.27563E+01
 -1      1852-7.64812E+03 1.65961E+00 2.50162E+01 3.37961E+03 1.69178E+01-2.15275E+01
 -1      1853-7.71694E+03-1.30394E+01-2.94622E+01 3.35370E+03-1.25981E+01 3.63222E+00
 -1      1854-1.94338E+04 3.04532E+01 3.82253E+01 3.68975E+03-1.01031E+01-1.14269E+02
 -1      1855-4.90232E+04-2.28646E+02-5.14803E+01 2.88676E+03-2.89533E+02 1.37059E+01
 -1      1856-5.04981E+04-5.61142E+02 5.27366E+01 2.40298E+03-4.37917E+02 9.21166E+01
 -1      1857-3.25994E+04-1.40251E+03 1.55739E+02 2.50659E+03-7.23635E+02-1.68156E+02
 -1      1858-5.07707E+04-1.15308E+03 6.71925E+02 1.84401E+03-6.81359E+02 4.08362E+02
 -1      1859-5.94803E+04-6.78084E+02 1.11469E+03 8.76222E+02-1.25416E+03 5.94990E+02
 -1      1860-4.22633E+04-3.18946E+03 3.59168E+02 1.10006E+03-1.13156E+03 1.40304E+02
 -1      1861-5.24481E+03 6.49412E+01 1.20201E+01 1.77362E+03 1.88224E+01-4.96708E+01
 -1      1862-6.24028E+03 2.24544E+01-2.30038E+00 1.87615E+03 1.26464E+01-6.49514E+01
 -1      1863-6.69610E+03 3.54273E+01 6.05650E+00 1.91446E+03 1.48578E+01-4.90217E+01
 -1      1864-7.71985E+03 2.31651E+01 1.60221E+00 2.00576E+03 3.75430E+00-4.22608E+01
 -1      1865-4.05977E+03 9.13084E+00 3.25609E+01 2.12621E+03 8.37394E+00-5.50247E+01
 -1      1866 3.33018E+02-7.43106E+00 1.15652E+01 3.03286E+02 5.95982E+00-3.05711E+00
 -1      1867 3.30681E+02-1.56796E+00 1.54290E+01 1.73410E+02 8.60439E+00 1.44047E+00
 -1      1868 2.43666E+02-1.05694E+01 5.96162E+00 5.35204E+02 6.51113E+00-1.06221E+01
 -1      1869 2.41260E+02-8.98544E+00 1.46519E+00 4.28473E+02-1.52455E+00-8.65439E+00
 -1      1870 5.08447E+02 2.73550E+01 1.48363E+01 3.88881E+02 6.73317E+00-1.46601E+01
 -1      1871 7.01994E+02 6.28643E+01 1.40497E+01-3.34133E+02 4.76883E+00 1.03023E+01
 -1      1872 8.64382E+02 5.54874E+01 1.48567E+01-2.11566E+02 1.03300E+01 9.70847E+00
 -1      1873 6.72141E+02 8.03330E+01 1.39003E+01-4.61942E+02 6.92848E+00 3.49893E+00
 -1      1874 5.31742E+02 3.25714E+01 1.10148E+01-4.27735E+02 1.47574E+00-1.34262E+01
 -1      1875 6.33404E+02 1.10943E+02 3.22423E+01-5.03964E+02-5.02145E+00-1.04354E+01
 -1      1876 4.82646E+02 5.92044E+01 2.23043E+01-5.93432E+02-5.36918E+00-1.10022E+01
 -1      1877-1.33416E+04 6.57509E+01 2.46761E+01 2.48695E+03 2.38436E+01-7.36334E+01
 -1      1878-1.46862E+04 2.49081E+01 2.13446E+01 2.58490E+03 3.11726E+01-9.90593E+01
 -1      1879-1.52861E+04 2.35967E+01 3.08385E+01 2.59802E+03-7.78661E+00-5.19677E+01
 -1      1880-1.67620E+04-9.26814E+00-2.05121E+01 2.63603E+03-1.14128E+01-7.62247E+01
 -1      1881-9.47545E+03-2.34396E+00 5.32275E+01 2.88269E+03 1.00430E+01-6.37306E+01
 -1      1882 8.98315E+02 4.53464E+01 1.04022E+01-7.78264E+01 9.46248E+00 4.76287E+00
 -1      1883 8.74997E+02 3.97523E+01 1.34802E+01 3.80460E+01 6.11568E+00-1.37563E+00
 -1      1884 8.58794E+02 4.56703E+01 1.59147E+01 1.69724E+02 8.76870E+00-8.53303E+00
 -1      1885 7.53059E+02 4.36990E+01 7.67436E+00 2.79420E+02 1.06049E+01-1.05677E+01
 -1      1886 6.03411E+02 2.16084E+01 2.03928E+01 1.13714E+02 8.19307E+00-1.96677E+00
 -1      1887-1.14971E+04 4.26903E+01 2.36189E+01 2.38852E+03 3.08236E+01-7.08782E+01
 -1      1888-1.27807E+04 8.72423E+00-2.41995E+00 2.46364E+03-2.06232E+01-6.93986E+01
 -1      1889-9.90140E+03 6.51836E+01 2.62129E+00 2.24943E+03 1.27593E+01-5.04182E+01
 -1      1890-1.10066E+04 4.71433E+01 5.42873E-01 2.25322E+03-2.55135E+00-6.11967E+01
 -1      1891-7.01211E+03 5.36491E+01-1.92571E+00 2.57423E+03 1.48197E+01-7.92884E+01
 -1      1892-6.20941E+03 4.46917E+01 7.53370E+01 3.15818E+03 4.59610E+01-5.27864E+01
 -1      1893-6.36299E+03 4.96440E+01 6.01873E+01 3.08411E+03-1.67256E+01-1.54301E+02
 -1      1894-5.94838E+03-5.09068E+01-7.47686E+00 3.07837E+03-3.15453E+01-6.59842E+01
 -1      1895-5.89112E+03-7.70481E+01-4.36530E+01 3.09638E+03-1.85245E+01-4.49707E+01
 -1      1896-1.47885E+04 6.49130E+01-5.35478E+00 3.29425E+03 1.72452E+01-9.65827E+01
 -1      1897-3.36225E+04 5.82122E+01 4.60915E+01 3.37008E+03 5.50261E+01-1.27288E+02
 -1      1898-3.54682E+04-8.77837E+00-1.24468E+01 3.41219E+03-3.67194E+01-1.02921E+02
 -1      1899-3.11681E+04 6.26719E+01 1.66132E+01 3.26526E+03 3.70030E+00-6.82126E+01
 -1      1900-3.28987E+04 6.97789E+00-2.67528E+01 3.22072E+03 5.12680E+00-1.26427E+02
 -1      1901-2.07801E+04 7.36935E+01-1.30504E+01 3.65629E+03 1.38463E+01-1.08607E+02
 -1      1902-2.17172E+04 6.41650E+01 5.56699E+00 2.92410E+03-1.52874E+01-9.00588E+01
 -1      1903-2.33271E+04 1.02522E+01-1.63647E+01 2.90368E+03 6.36469E+00-1.07401E+02
 -1      1904-2.10447E+04 1.03408E+01 1.30395E+01 2.89101E+03 2.97552E+00-1.03021E+02
 -1      1905-1.34743E+04 2.52397E+01 4.72755E+01 3.30024E+03-5.29618E+00-1.07132E+02
 -1      1906-1.95840E+04 3.79705E+01 4.28023E+01 2.78669E+03 3.46801E+01-9.66303E+01
 -1      1907-2.45054E+04-2.80453E+03 1.46914E+02 3.23747E+02-1.04565E+03-1.98210E+02
 -1      1908-6.74249E+03-3.23824E+03-8.96079E+02-4.56187E+02-1.24949E+03-4.40446E+02
 -1      1909-1.49749E+04-1.53828E+03-1.58994E+01 1.51990E+03-5.95773E+02-3.81448E+02
 -1      1910 3.85033E+02 1.84983E+01 1.42819E+01-6.16501E+02-8.38747E+00-9.64692E+00
 -1      1911 2.82703E+02-4.59083E+01 3.17131E+01-5.24122E+02-6.92599E+00 5.22666E+00
 -1      1912 3.17640E+02-2.40280E+01 6.90904E+00-4.68169E+02 6.10683E+00-8.20150E+00
 -1      1913-2.70820E+02 4.95151E+01 2.14677E+01 8.35295E+02 1.30239E+01-3.36550E+01
 -1      1914-7.28091E+02 2.55920E+01 7.69729E+00 9.43648E+02 1.25918E+01-3.39354E+01
 -1      1915-9.76381E+02 3.54124E+01 4.65635E+00 1.06245E+03 5.52561E+00-4.06956E+01
 -1      1916-1.58434E+03 2.80564E+01 1.21735E+00 1.12238E+03 1.11434E+00-5.33833E+01
 -1      1917-4.24656E+02 2.21055E+01 1.90390E+01 1.37694E+03 9.67300E+00-2.63579E+01
 -1      1918-5.23836E+02-2.37289E+00-1.90137E+01 1.30915E+03-3.13687E+00-9.95534E+00
 -1      1919-7.31102E+02 5.84971E+00 2.17260E+01 1.60909E+03 1.12373E+01 5.44548E+00
 -1      1920-8.29489E+02-2.48292E+01 2.73958E+00 1.48603E+03-1.07260E+01-1.82544E+01
 -1      1921-1.02185E+04 4.60212E+01 5.39837E+01 3.71235E+03 4.16770E+01-5.57245E+01
 -1      1922-1.01057E+04-1.89648E+01 5.89742E+00 3.60303E+03 7.21762E+01-7.10999E+01
 -1      1923-1.08284E+04-2.80736E+01 2.60538E+01 3.75319E+03 2.79308E+01-4.07257E+01
 -1      1924-1.11714E+04-2.71370E+01 1.58477E+01 3.68287E+03 6.05624E+00-3.64547E+01
 -1      1925-4.67223E+04-1.01041E+01 4.56305E+01 3.51082E+03 1.25965E+00-1.27002E+02
 -1      1926-4.84175E+04-4.92134E+01-3.24243E+01 3.34791E+03-1.15052E+02-4.51229E+01
 -1      1927-4.39891E+04 8.96385E+01-1.84657E+00 3.57158E+03-2.31389E+00-9.66657E+01
 -1      1928-4.59655E+04 4.07392E+01-1.41060E+01 3.46562E+03-2.73440E+01-9.99606E+01
 -1      1929-3.08870E+04-2.73526E+02 1.68690E+01 3.57280E+03-3.37088E+02-1.13284E+02
 -1      1930-1.33472E+04-4.17758E+02 1.79283E+01 3.01644E+03-3.63589E+02-2.77922E+02
 -1      1931-1.41141E+04-8.93181E+02 4.44145E+01 2.15471E+03-3.64058E+02-2.16959E+02
 -1      1932-1.75831E+03-1.58741E+00 1.64738E+01 2.12588E+03 2.06417E+01-3.91343E+01
 -1      1933-1.75314E+03-8.39146E+00 1.23835E+01 2.01178E+03 3.85433E+01-3.67312E+01
 -1      1934-4.97568E+03-7.08523E+00-1.26404E+01 2.33327E+03 9.11004E+00-6.47900E+01
 -1      1935-9.38269E+03 2.58894E+01 7.39774E+00 2.17185E+03 2.79575E+01-5.90842E+01
 -1      1936-8.25414E+03 3.84699E+01 3.41691E+01 2.09104E+03 2.18329E+01-5.22413E+01
 -1      1937 9.38363E+01-1.93355E+01 1.42155E+01 7.75545E+02 9.02074E+00-6.95727E-01
 -1      1938 1.23298E+02-1.23164E+00 1.17917E+01 6.62726E+02 3.24867E+00-8.36481E+00
 -1      1939-8.30866E+01 1.46185E+01 2.02136E+01 8.68655E+02 2.26196E+00-2.67289E+01
 -1      1940-4.01280E+03 4.77012E+01 4.95788E+00 1.61520E+03 1.27667E+01-4.73791E+01
 -1      1941-4.85099E+03 3.95166E+01 8.33405E-01 1.70520E+03 2.00930E+00-5.14259E+01
 -1      1942-2.35302E+03 1.86436E+01 1.47562E+01 1.77918E+03 3.77675E-01-4.47801E+01
 -1      1943-4.03135E+03 2.02783E+00 3.59102E+01 2.80603E+03 3.16933E+01-3.34552E+01
 -1      1944-4.05782E+03-2.92118E+01 1.54741E+01 2.70840E+03 6.08455E+01-5.35526E+01
 -1      1945-1.07586E+04-1.66272E+01-3.06175E+01 3.06138E+03 1.61882E+01-9.61980E+01
 -1      1946-1.89673E+04-1.14287E+01-3.14630E+01 2.73822E+03-2.96264E+01-7.27787E+01
 -1      1947-1.74525E+04 6.32831E+01 1.49896E+01 2.72330E+03-4.45179E+00-8.67040E+01
 -1      1948-6.97763E+03 4.20448E+00 2.21577E+01 3.28347E+03 1.91833E+01-3.31881E+00
 -1      1949-7.17854E+03-2.22510E+01 6.49423E+00 3.21570E+03-1.62748E+01-6.84013E+01
 -1      1950-1.79040E+04-2.10003E+00 5.27682E+01 3.58936E+03-9.11238E+00-7.12044E+01
 -1      1951-3.05110E+04 3.98445E+00-4.39927E+00 3.21798E+03-6.69809E+00-1.04703E+02
 -1      1952-2.88382E+04 1.38328E+01 2.21540E+01 3.18973E+03-6.14817E+00-6.46982E+01
 -1      1953-2.41627E+04-1.07927E+01 5.42746E+01 3.87425E+03 1.75368E+01-9.10318E+01
 -1      1954-3.62494E+04 7.04237E+01 3.03555E+01 3.39548E+03 3.48592E+01-1.06091E+02
 -1      1955-3.80745E+04 7.05735E+00-7.05007E+00 3.46768E+03 2.11771E+01-1.17949E+02
 -1      1956-2.74894E+04 2.17280E+01 1.90138E+01 4.07058E+03-1.58951E+01-1.31687E+02
 -1      1957-1.01108E+03 4.15807E+01 1.11641E+00 1.34981E+03 1.19875E+01-2.35956E+01
 -1      1958 6.94066E+03-4.13189E+01-6.35000E+00 1.47930E+03-5.03865E+00-2.74381E+01
 -1      1959 1.20666E+03-5.62541E+01-5.05763E-01 8.78656E+02-2.90158E+00-3.13737E+01
 -1      1960-9.62960E+01 3.75750E+01-3.37445E+00 5.22451E+02-3.60949E+00-1.73872E+01
 -1      1961-1.16256E+03-8.28421E+01 1.73301E+00-1.26528E+02-6.38289E+00-2.31289E+00
 -1      1962 1.30783E+04-5.42545E+01 1.35697E+01 1.89495E+03-4.38932E+00-4.58792E+01
 -1      1963-3.81225E+02 3.62041E+01-2.61202E-01 1.26415E+03-2.49410E+00-2.61754E+01
 -1      1964 1.79365E+04-5.12547E+01 5.42430E+00 2.09825E+03-4.74642E+00-3.78384E+01
 -1      1965-4.29518E+03 1.83740E+01-8.11144E+01 3.28919E+03 2.51816E+01-4.23805E+01
 -1      1966 4.86511E+04-6.36248E+01-6.02752E-01 2.90738E+03 1.33597E+01-6.83737E+01
 -1      1967 6.34766E+04-4.91550E+01-5.10039E+00 2.91479E+03 1.75348E+01-2.43292E+01
 -1      1968-2.76322E+03 7.40278E+00-1.53264E+01 2.82616E+03 9.22014E+00-1.46235E+01
 -1      1969-2.07873E+03 2.78698E+01-4.49555E+01 2.61751E+03 1.39757E+01 1.52474E+00
 -1      1970-3.33539E+03 3.49967E+00 2.21294E+01 2.96365E+03-7.45290E+00-5.64466E+01
 -1      1971-2.79136E+03 1.67952E+03 5.69363E+02 1.00949E+03 3.89830E+02-9.68185E+02
 -1      1972-8.02992E+02 4.50555E+01 1.24690E+01 1.72175E+03-9.93803E+00-3.48341E+01
 -1      1973-9.15316E+02-7.65809E+01-4.56017E-01 3.04399E+02-4.70627E+00-3.43962E+00
 -1      1974-1.36107E+02 8.53476E+01-1.30519E+01-3.72639E+02-6.39282E-01-5.99560E+00
 -1      1975-1.75597E+03 4.81179E+01 3.96523E+01 2.27986E+03-2.71901E+01-8.31757E+01
 -1      1976-4.12423E+01 4.62784E+01-1.37150E+01 9.86251E+01-2.96809E+00 2.16822E+00
 -1      1977-1.17157E+03-1.11849E+01-4.61628E+01 2.09553E+03 2.08720E+01-6.30023E+01
 -1      1978 3.21131E+04-1.87241E+00 3.10583E+00 2.52354E+03-2.41109E+01-1.00042E+02
 -1      1979 2.34904E+04-1.87703E+01 7.72971E+00 2.25380E+03-1.30228E+01-4.36702E+01
 -1      1980 3.84602E+04-5.68138E+01 5.61774E+00 2.71967E+03 2.57148E+00-4.87537E+01
 -1      1981 5.30832E+04 3.06599E+03-4.34423E+03 7.13381E+02 9.61290E+02-4.03668E+02
 -1      1982-3.73957E+02-6.07778E+01-6.66711E+01-6.65030E+02-1.14321E+00-1.39137E+01
 -1      1983-1.89410E+02 4.70388E+01-1.37818E+01 9.20306E+02-2.12006E+00-9.66551E+00
 -1      1984 3.70742E+03-6.44327E+01-3.80685E+00 1.18671E+03 3.10096E+00-1.90335E+01
 -1      1985-3.65882E+03 2.87810E+01-7.88820E+00 3.18723E+03-4.09582E+00-4.69467E+01
 -1      1986 5.57857E+04-5.32395E+01-9.12260E+00 3.00908E+03 1.54191E+01-5.78453E+01
 -1      1987-4.93996E+03 1.32339E+01-7.72074E+00 3.18175E+03 2.98384E+01-8.50051E+01
 -1      1988-4.32170E+03 4.07895E+02 4.42712E+01 2.86541E+03 8.69410E+01-3.28394E+02
 -1      1989 3.26206E+04 5.30990E+02-8.33339E+01 3.02202E+03 5.35706E+02-8.08956E+01
 -1      1990-5.23746E+01 5.39028E+01-8.95015E+00-1.27174E+02-2.40103E+00 3.06080E+00
 -1      1991 8.83546E+03-4.12462E+01-2.68753E+00 1.60206E+03 1.41395E-01-2.84145E+01
 -1      1992 1.09654E+04-3.79318E+01-1.71696E+01 1.73847E+03 3.67759E+00-3.68264E+01
 -1      1993 5.45182E+03-1.19404E+01-5.35035E+00 2.35377E+03-4.97494E+00-6.59308E+01
 -1      1994 2.78113E+02-6.81673E+01-4.46846E+00 6.77738E+02-2.70494E+00-1.01918E+01
 -1      1995 2.06226E+04-3.97751E+01 5.27979E+00 2.23068E+03 8.87930E+00-4.70205E+01
 -1      1996-5.21741E+02 3.39123E+01-1.13731E+00 1.46173E+03-4.01329E+00 6.62926E+00
 -1      1997-5.39771E+01 5.07736E+01-1.53050E+01 3.32636E+02-1.66704E+00 6.76378E+00
 -1      1998-1.44042E+02 4.16567E+01-9.24881E+00 7.15013E+02-5.68121E+00-1.36428E+01
 -1      1999 3.52715E+04-3.39888E+01 3.15563E+00 2.62438E+03 1.86568E+00-4.91988E+01
 -1      2000-2.47246E+03-2.08967E+01-8.71278E+01 2.65538E+03 4.22177E+01-1.16622E+02
 -1      2001-2.58335E+03 1.76693E+01 3.70211E+01 2.63313E+03-1.40492E+01-2.45763E+01
 -1      2002 1.28597E+04-1.88670E+01-1.17826E+01 3.20532E+03-1.07442E+01-6.94904E+01
 -1      2003 4.52014E+04-7.99220E-01 2.72252E+00 2.79949E+03-2.77805E+01-1.01500E+02
 -1      2004 4.17180E+04-3.12445E+01-2.95802E+00 2.82269E+03 8.20722E+00-8.54778E+01
 -1      2005-1.16270E+03-7.18504E+01-4.08348E+00 7.77573E+01-5.93045E+00-9.21561E+00
 -1      2006-1.94747E+03 3.38855E+01-2.91876E+01 2.45069E+03 2.18153E+00-4.18252E+01
 -1      2007-3.40081E+03-2.66394E+01-7.41487E+01 2.93687E+03 4.38606E+01-9.41088E+01
 -1      2008-1.46966E+03 2.34617E+01-5.96632E-01 2.32652E+03-1.22947E+00-6.61381E+01
 -1      2009 5.21531E+04-2.98516E+00-7.15990E+00 2.94521E+03 5.38249E+00-4.85918E+01
 -1      2010-5.04772E+03 1.01492E+01 5.24494E+01 3.26000E+03-1.27306E+01-3.50657E+01
 -1      2011 5.95901E+04-4.97802E+01-3.87753E+00 3.03384E+03 1.07510E+01-7.02277E+01
 -1      2012-4.15318E+03 6.92607E+01 9.08207E+01 3.06934E+03-4.80784E+01-1.45959E+02
 -1      2013 2.36614E+03-4.24983E+01-4.90152E+00 1.00443E+03-7.54709E+00-4.78680E+01
 -1      2014-3.11453E+03 7.57904E+00 5.24031E+01 2.95990E+03-1.33794E+01-2.05999E+00
 -1      2015 5.24102E+03-4.43586E+01-3.54797E+00 1.35526E+03-9.64434E+00-2.40886E+01
 -1      2016 1.54706E+04-4.33029E+01-5.94495E-01 1.96906E+03-1.08063E+01-2.67749E+01
 -1      2017-4.61226E+02-6.53429E+01-7.19995E+00 4.86904E+02-4.39587E+00-1.79236E+01
 -1      2018-2.35996E+02 4.54436E+01-2.59123E+01 1.12314E+03 5.21053E-01 1.58923E+01
 -1      2019-5.81358E+02 3.27724E+01-1.72090E+01 1.59750E+03 1.49629E-01-1.11885E+01
 -1      2020 3.01960E+04 6.74512E+01 1.45779E+01 3.84232E+03 1.27860E+02-1.46731E+02
 -1      2021 6.70018E+04-1.70192E+02 1.80220E+01 2.57852E+03 1.09847E+02 1.00443E+02
 -1      2022 1.53094E+04 3.01840E+03-2.00922E+03-1.28397E+03 7.76701E+02-6.45182E+00
 -1      2023-1.21945E+03 1.62533E+01 1.31558E+01 1.99891E+03-3.71461E+00 2.42532E+00
 -1      2024-9.75143E+02 3.11650E+01-4.92304E+01 1.86965E+03 3.90182E+00-2.82742E+01
 -1      2025 1.14188E+04-5.73248E+00 4.38392E-01 3.10186E+03 8.46762E+00-6.83303E+01
 -1      2026 2.93492E+04-3.70757E+01 7.93099E+00 2.47049E+03 5.38601E+00-6.44629E+01
 -1      2027-5.77332E+02-1.85204E+01-1.39047E+01-3.02251E+02-7.47213E+00-1.75809E+00
 -1      2028-6.14722E+02-1.85353E+01-1.63039E+01-1.79834E+01-6.18354E+00 3.00360E+00
 -1      2029 7.51936E+02-9.69502E+00-1.71519E+01 1.21487E+03-1.03251E+01-4.04744E+01
 -1      2030 1.31609E+03-3.77402E+01 4.10055E+00 1.46602E+03-6.80456E+00-3.33682E+01
 -1      2031 2.00595E+03-1.80499E+01-1.07694E+01 1.65918E+03-6.64897E-01-3.31721E+01
 -1      2032-5.73564E+02-2.07858E+01-5.24984E+00 2.55436E+02-2.54305E+00-7.37674E+00
 -1      2033-8.27318E+01-1.96867E+01-1.26893E+01 7.68505E+02-9.43705E+00-2.14244E+01
 -1      2034 7.56083E+03-1.35842E+01-1.40559E+01 2.67125E+03-3.58801E+00-8.64867E+01
 -1      2035 3.63348E+03-2.41179E+01-1.29933E+01 2.02651E+03-4.81019E+00-6.10610E+01
 -1      2036 1.01214E+04 3.05499E+01-1.17873E+01 2.96729E+03-1.91929E+01-6.34179E+01
 -1      2037 2.34175E+04-8.99898E+00 1.81214E-01 3.80725E+03 4.17343E+00-1.16846E+02
 -1      2038 2.48656E+04 2.74736E+01-3.36626E+00 3.92502E+03 1.49303E+01-1.48403E+02
 -1      2039 2.65792E+04 5.91768E+00-1.69724E+01 3.93868E+03 3.09933E-01-1.13636E+02
 -1      2040 2.83725E+04-3.78104E+01-1.55100E+01 4.00174E+03-2.49620E+00-1.50905E+02
 -1      2041 2.69275E+02-1.04977E+01-8.66783E+00 9.94944E+02-1.61433E+00-4.46890E+01
 -1      2042 2.14334E+04-3.89743E+01-7.87819E+00 3.74281E+03 1.84167E+01-1.08270E+02
 -1      2043 2.74696E+03-1.60377E+01-2.04799E+00 1.86061E+03-6.40016E+00-3.61737E+01
 -1      2044 1.70237E+04 3.49147E+00-1.62538E+01 3.50562E+03 7.38780E+00-7.31651E+01
 -1      2045 1.85303E+04-2.77873E+00-1.58089E+01 3.60664E+03-1.35730E+00-8.16305E+01
 -1      2046 2.00334E+04-1.56374E+01-2.02008E+01 3.66092E+03-6.63918E+00-1.17074E+02
 -1      2047-3.85704E+02-1.78239E+01-1.34483E+01 5.09886E+02-5.63621E+00-1.31112E+01
 -1      2048 1.53321E+04-3.36886E+01-5.59260E+00 3.39548E+03 6.95552E+00-1.03636E+02
 -1      2049 8.95216E+03-1.47790E+01-2.62851E+00 2.80773E+03-5.72445E+00-8.61564E+01
 -1      2050 6.53615E+03-2.63726E+01-1.01895E+01 2.54342E+03-8.11658E+00-9.06785E+01
 -1      2051 4.47969E+03 2.20570E+00-9.42278E-01 2.21886E+03 1.01906E+01-8.38012E+01
 -1      2052 2.64248E+04-2.83539E+01 3.52560E+00 2.38127E+03-6.07321E+00-5.05033E+01
 -1      2053 1.40841E+04-1.88946E+01-1.33612E+01 3.28422E+03-8.97696E+00-1.03146E+02
 -1      2054-3.19453E+02 2.58400E+01-7.08271E+01-6.80618E+02-3.50049E+00-2.56871E+01
 -1      2055 6.88034E+04-3.27944E+02-5.67037E+02 1.71310E+03 3.66605E+02 8.23489E+02
 -1      2056-8.46946E+02-1.08273E+02-8.26772E+00-3.48279E+02-4.62644E+00-3.61302E-02
 -1      2057 3.28571E+04 1.98787E+03-1.74327E+02 1.95824E+03 8.07752E+02 1.64843E+02
 -1      2058-1.68920E+04 3.41732E+03 2.03531E+03-2.62503E+03 5.34454E+02 1.95542E+01
 -1      2059 8.39718E+04-6.07857E+02-7.55010E+03 1.73459E+03 1.24033E+03 5.82283E+02
 -1      2060-1.85201E+02 7.66133E+01-3.65538E+01-4.36329E+02-4.27873E+00-5.80111E+00
 -1      2061-4.80412E+02-1.31283E+02-7.95931E+01-4.07919E+02-5.66980E+00-2.39766E+01
 -1      2062-4.70862E+02-2.60795E+01-1.50738E+01-5.47530E+02 2.32441E+00-5.64208E+00
 -1      2063 1.12987E+05 1.66435E+04 1.29069E+04 8.64218E+03-2.19337E+03-1.18216E+04
 -1      2064 8.33725E+04 1.34975E+04 4.05361E+03-3.87736E+02 6.75341E+02-9.49607E+03
 -1      2065 8.93007E+04-4.38020E+03-5.21570E+03-1.91671E+03 2.43823E+03 2.56152E+03
 -1      2066-1.42820E+04 2.41661E+02-1.28706E+03-5.70172E+03 2.65535E+02 3.38098E+03
 -1      2067-3.78565E+04-4.51822E+03-6.20617E+03-2.05739E+03-4.16999E+02 7.19467E+03
 -1      2068-2.66835E+04 3.49620E+03 2.79892E+03-3.40457E+03 1.34641E+03-1.29903E+03
 -1      2069-2.92323E+02 1.36388E+02-5.17186E+01-5.32070E+02-1.86410E+01 3.48066E+01
 -1      2070-3.93017E+02 6.65882E+00-1.41461E+01-2.90932E+02-2.00626E+01 1.39629E+01
 -1      2071-9.20238E+02-1.08683E+02-1.87456E+01-1.53049E+02 2.17882E+01-3.59794E+01
 -1      2072-7.91590E+01-3.65379E+01 2.08112E+01-3.29765E+02-2.18735E+00 4.16864E+01
 -1      2073-2.24208E+02-1.54327E+02 1.35681E+01-5.82397E+02-6.57030E+00 8.43565E+00
 -1      2074 1.35388E+02 7.37526E+01-3.09287E+01-1.73876E+02 1.71850E+01-4.64566E-01
 -1      2075 6.92951E+04 1.72922E+04 1.03535E+04-1.49529E+03 1.40023E+03-9.62304E+03
 -1      2076 4.55443E+04 8.63732E+03 2.12416E+03-4.26736E+03 1.27056E+03-4.26523E+03
 -1      2077 7.00496E+04 2.89333E+03-6.35754E+03 9.05004E+02 5.13885E+02 2.15716E+02
 -1      2078 2.70202E+04 8.91782E+03 4.45222E+03-5.24424E+03 1.04152E+03-3.29724E+03
 -1      2079 2.48904E+03-1.90517E+02-3.71077E+03-5.74485E+03 9.02571E+02 2.14513E+03
 -1      2080 3.46380E+04 4.01942E+03-2.66700E+03-5.07832E+02 6.50580E+02-1.82246E+02
 -1      2081-4.54065E+02 3.44826E+03 1.47336E+02-2.54258E+03 5.52748E+02 4.18027E+02
 -1      2082-2.57911E+02-3.35293E+01-3.35116E+01-6.51161E+02 1.71960E+00 3.04221E+01
 -1      2083-3.00244E+02 9.94219E+01-3.24427E+01-6.18532E+02-9.63592E-01 1.03410E+01
 -1      2084-4.20935E+02-7.62424E+01-6.34021E+01-5.52906E+02-4.60288E+00-2.13158E+01
 -1      2085-2.22940E+02-1.69488E+02-1.46769E+01-6.42598E+02 7.65839E+00 2.53055E+01
 -1      2086-2.38994E+02-2.90785E-01-1.33740E+00-6.62263E+02 7.15556E+00 1.82829E+01
 -1      2087-3.50511E+02-4.24843E+01-6.95565E+01-6.88151E+02-7.61692E+00-2.38686E+01
 -1      2088-2.55173E+02-2.62835E+00-7.46372E+01-5.76222E+02-1.06106E+01-8.48069E+00
 -1      2089 8.67593E+04-2.94468E+02-3.00517E+02 9.52031E+02 1.51584E+02 3.66829E+02
 -1      2090 8.78518E+04 9.80863E+02 9.15091E+02 2.42006E+02-6.24986E+02 5.72799E+02
 -1      2091 7.41908E+04-6.12904E+01-1.21896E+03 1.21961E+03 6.38992E+02 1.02806E+03
 -1      2092 8.39448E+04-1.13119E+02-1.67936E+01 1.43461E+03 1.48153E+01 9.91593E+01
 -1      2093 8.58129E+04-1.37299E+02-3.71725E+00 1.23377E+03 4.45641E+01 9.72834E+01
 -1      2094 6.77710E+04-2.01203E+02-1.54446E+00 2.21858E+03 2.04399E+02 1.58535E+02
 -1      2095 7.94985E+04-6.89465E+01 6.17996E+00 1.62970E+03-1.97287E+01-9.59216E+00
 -1      2096 8.21414E+04-3.65212E+01-4.24258E+00 1.55839E+03 4.56606E-01 3.18726E+01
 -1      2097 6.53238E+04-8.02717E+01 1.74004E+01 2.82843E+03 2.31848E+01 4.00118E+01
 -1      2098 7.47368E+04 2.68265E+00-4.58866E+01 1.64483E+03-2.68308E+01-6.99260E+01
 -1      2099 7.75393E+04 2.74914E+01-1.67554E+01 1.68012E+03 3.11789E+01-1.52124E+01
 -1      2100 6.16267E+04-1.40208E+01 5.29593E+00 3.03560E+03 2.15915E+01-3.81374E+01
 -1      2101 7.00782E+04-3.88995E+01-3.12553E+01 1.66458E+03-1.63669E+01-4.29398E+01
 -1      2102 7.27875E+04-4.44455E+01 7.24580E+00 1.58925E+03 1.22551E+01-8.51303E+00
 -1      2103 5.77293E+04-6.44365E+01 4.56240E+01 2.99927E+03 2.30745E+01-6.94111E+01
 -1      2104 6.53711E+04-1.01111E+01-3.44655E+01 1.60412E+03-2.88090E+01-4.27634E+01
 -1      2105 6.81391E+04 2.60074E+01-3.62306E+01 1.64648E+03 3.06742E+01-3.38769E+01
 -1      2106 5.40126E+04-2.30984E+00-3.13508E+01 3.02653E+03-4.10175E+00-7.11891E+01
 -1      2107 6.09769E+04-4.56084E+01-2.12254E+01 1.61708E+03-3.91632E+01-4.79671E+01
 -1      2108 6.36098E+04-4.70666E+01 1.41121E+01 1.54187E+03 1.61670E+01-1.90975E+01
 -1      2109 5.04112E+04-7.08719E+01 2.72023E+01 2.92813E+03 2.31803E+01-6.59957E+01
 -1      2110 5.64799E+04 2.09836E+01-9.52358E+00 1.47825E+03-1.76413E+01-5.77944E+01
 -1      2111 5.91002E+04 2.04391E+00-7.53714E+01 1.54986E+03-8.45667E+00-6.11133E+01
 -1      2112 4.68460E+04-3.23464E+01-7.01736E+01 2.88455E+03-4.64714E+01-8.82015E+01
 -1      2113 5.22200E+04-3.88642E+00-3.88026E+00 1.54000E+03-2.20159E+01-5.96618E+01
 -1      2114 5.47396E+04 6.89082E+00-2.08757E+01 1.52945E+03 3.29642E+01-1.55411E+01
 -1      2115 4.35500E+04-2.09088E+01 1.62581E+01 2.81687E+03 2.12375E+00-8.35433E+01
 -1      2116 4.80421E+04-3.07185E+01-1.90436E+01 1.49424E+03-2.00404E+01-3.01644E+01
 -1      2117 5.04861E+04-4.38154E+01 1.17376E+01 1.44023E+03 6.98547E+00-1.12186E+01
 -1      2118 4.01106E+04-7.40512E+01 4.07000E+01 2.75775E+03 1.86124E+01-6.36407E+01
 -1      2119 4.38822E+04-3.67287E+01-3.13862E+00 1.45229E+03-4.79784E+01-2.36380E+01
 -1      2120 4.63398E+04-1.21575E+01-1.85176E+01 1.44784E+03 1.97000E+01-3.25986E+01
 -1      2121 3.68467E+04-3.72721E+01-3.72979E+01 2.70957E+03-1.94418E+01-5.95691E+01
 -1      2122 3.98625E+04 1.73596E+01-7.11441E+00 1.33336E+03-1.20493E+01-5.21444E+01
 -1      2123 4.22207E+04 1.49595E+00-6.32899E+01 1.39023E+03-1.16599E+01-4.99936E+01
 -1      2124 3.35908E+04-3.90296E+01-4.74495E+01 2.60185E+03-3.52253E+01-6.37914E+01
 -1      2125 3.62030E+04-2.05541E+01 3.45182E+01 1.34295E+03-1.00303E+01-3.00774E+01
 -1      2126 3.85264E+04 9.02428E+00 1.72560E+01 1.32838E+03 2.61032E+01 3.83729E+00
 -1      2127 3.07966E+04-3.67111E+01 1.62476E+01 2.50213E+03 2.81618E+00-7.92474E+01
 -1      2128 3.24831E+04-2.21749E+01-2.39771E+01 1.27968E+03-2.43103E+01-1.75148E+01
 -1      2129 3.46407E+04-1.22253E+01 1.74899E+01 1.30006E+03 2.10944E+01-2.54566E+01
 -1      2130 2.78925E+04-3.23762E+01 2.64815E+01 2.43869E+03 2.39972E+01-5.62958E+01
 -1      2131 2.87598E+04-2.90804E+00 2.60707E+00 1.21496E+03-1.40830E+01-2.58885E+01
 -1      2132 3.09661E+04-1.15790E+01-4.00116E+01 1.24012E+03 5.06642E+00-1.48314E+01
 -1      2133 2.49282E+04-2.71523E+01-1.96240E+01 2.34257E+03-2.66155E+01-4.08584E+01
 -1      2134 2.53522E+04-2.28356E+01 2.20235E+00 1.21900E+03-1.80245E+01-2.33244E+01
 -1      2135 2.73189E+04-9.13692E+00 3.01302E+01 1.19602E+03 2.43291E+01-7.38087E+00
 -1      2136 2.20406E+04-4.89069E+01 1.74980E+01 2.23424E+03 9.69904E+00-4.92952E+01
 -1      2137 2.19532E+04-3.67102E+01-1.05228E+01 1.15173E+03-2.88453E+01-1.18603E+01
 -1      2138 2.39181E+04-1.82862E+01-9.98619E+00 1.15656E+03 9.22227E+00-2.37988E+01
 -1      2139 1.92289E+04-5.49398E+01-3.23463E+01 2.17645E+03-7.69297E+00-4.36756E+01
 -1      2140 1.88150E+04-4.07673E+01 4.59473E+00 1.07901E+03-2.25987E+01-1.50767E+01
 -1      2141 2.06942E+04-1.33345E+01-9.68542E+00 1.08554E+03 3.50697E+00-1.39107E+01
 -1      2142 1.66703E+04-4.20151E+01-1.66072E+00 2.06217E+03-2.40582E+01-2.95428E+01
 -1      2143 1.58665E+04-2.20946E+01-1.65481E+01 1.00256E+03-1.88788E+01-1.05181E+01
 -1      2144 1.75830E+04-4.76878E+00 3.09423E+00 1.05396E+03 2.17835E+01-1.60743E+01
 -1      2145 1.42918E+04-4.40420E+01 8.28248E+00 1.96306E+03 4.67443E+00-3.89226E+01
 -1      2146 1.31493E+04-4.91171E+01-2.60167E+00 9.60698E+02-2.11274E+01-1.37516E+01
 -1      2147 1.47872E+04-5.11223E+01 1.59819E+01 9.30878E+02 1.12842E+01-3.42223E+01
 -1      2148 1.20023E+04-6.11892E+01-1.23507E+01 1.80727E+03-7.51469E+00-4.80543E+01
 -1      2149 1.05278E+04-3.37129E+01-1.95161E-01 8.73752E+02-1.16430E+01-1.62502E+01
 -1      2150 1.20574E+04-5.36010E+00-9.80882E+00 9.00389E+02 1.50983E+01-1.83032E+01
 -1      2151 9.85128E+03-5.67205E+01-2.00512E+01 1.70294E+03-7.21852E+00-3.01171E+01
 -1      2152 8.17467E+03-2.90747E+01 5.30502E+00 8.01726E+02-1.46661E+01-1.50114E+01
 -1      2153 9.56318E+03-1.60882E+01 1.22291E+00 8.24919E+02 1.29616E+01-9.08622E+00
 -1      2154 7.86785E+03-5.77949E+01-1.19400E+01 1.56474E+03 9.86031E+00-2.64801E+01
 -1      2155 6.05598E+03-3.23850E+01-1.44185E+01 7.16359E+02-1.68909E+01-5.75466E+00
 -1      2156 7.27255E+03-2.29571E+01-1.42046E+00 7.50753E+02 5.96309E+00-1.00551E+01
 -1      2157 6.07191E+03-5.30531E+01 5.14403E+00 1.42982E+03 1.98667E+00-2.97530E+01
 -1      2158 4.17967E+03-3.94230E+01 2.02811E+00 6.46761E+02-2.21342E+01-9.18637E+00
 -1      2159 5.27334E+03-4.21194E+01 1.28881E+01 6.52294E+02 9.88251E+00-2.28328E+01
 -1      2160 4.43995E+03-5.74239E+01-9.92118E+00 1.26745E+03-7.57809E+00-1.86590E+01
 -1      2161 2.50247E+03-1.55306E+01 4.33852E+00 5.23344E+02-2.91041E+00-2.13083E+01
 -1      2162 3.46432E+03-2.39487E+01-3.12457E+01 5.62866E+02-9.99154E+00-2.00815E+01
 -1      2163 2.96625E+03-7.15342E+01-3.77411E+01 1.11189E+03-1.39233E+01-2.81006E+01
 -1      2164 1.13781E+03-3.30964E+01 5.56853E+00 4.60126E+02-8.04990E+00-6.97770E+00
 -1      2165 1.91366E+03-2.53579E+01 4.40821E+00 4.82901E+02 8.34501E+00-6.62335E+00
 -1      2166 1.77619E+03-6.43820E+01-2.09540E+00 9.39905E+02 2.72629E+00-4.53048E+01
 -1      2167 2.28067E+01-4.50656E+01-1.13159E-02 3.64843E+02-1.13615E+01-1.03046E+01
 -1      2168 6.53416E+02-4.23186E+01 8.40074E+00 3.75527E+02 3.20314E+00-1.22030E+01
 -1      2169 7.07860E+02-6.81679E+01-6.89856E+00 7.81490E+02-6.53982E+00-1.77290E+01
 -1      2170-8.39247E+02-3.15616E+01-3.13834E+00 2.50646E+02-6.65081E+00-1.01402E+01
 -1      2171-3.62406E+02-3.10444E+01-1.16177E+01 2.80683E+02-4.17079E-01-8.05470E+00
 -1      2172-1.28674E+02-7.98675E+01-2.21243E+01 5.88106E+02 3.64120E-01-1.40565E+01
 -1      2173-1.33565E+03-4.79182E+01-1.04245E+01 1.53905E+02-9.05700E+00-4.67166E+00
 -1      2174-1.06939E+03-4.42085E+01 7.68231E+00 1.70417E+02-5.49887E-01-2.05273E+00
 -1      2175-7.13922E+02-8.42236E+01-2.56972E+00 3.96945E+02-2.20474E+00-9.61848E+00
 -1      2176-1.56920E+03-3.97372E+01 7.69082E+00 3.25973E+01-1.41592E-01-5.33267E-01
 -1      2177-1.46683E+03-4.31668E+01-9.95869E+00 6.07589E+01-7.26042E+00-3.56963E+00
 -1      2178-1.09502E+03-8.22887E+01-2.02833E+01 1.95780E+02-3.90212E+00-5.66404E+00
 -1      2179-1.46594E+03-4.69242E+01 8.88449E+00-7.39488E+01-3.51526E-02 3.97518E+00
 -1      2180-1.56722E+03-4.45725E+01 3.29082E+00-4.99961E+01-5.68053E+00 2.95880E+00
 -1      2181-1.20606E+03-9.26478E+01-1.47576E+01-2.25382E+01-4.38890E+00-1.26308E+01
 -1      2182-1.03653E+03-4.82149E+01 1.89029E+01-1.85870E+02 7.92319E-01 3.02981E+00
 -1      2183-1.30387E+03-5.67861E+01 3.45301E+00-1.62628E+02-4.02395E+00 3.40713E+00
 -1      2184-1.05380E+03-1.04945E+02-1.43134E+01-2.37305E+02-6.47804E+00-1.78534E+00
 -1      2185-7.45326E+02-1.33538E+02-3.74142E+01-3.75662E+02 6.38241E-02-2.15641E+01
 -1      2186-2.27735E+04 4.85684E+02-2.66289E+02-5.84378E+02-1.87733E+02-3.93359E+02
 -1      2187-2.21131E+04 9.66907E+02 7.24841E+02 7.09714E+02 2.77976E+02-7.02381E+02
 -1      2188-8.72484E+03 2.52967E+03 5.50216E+02-1.07715E+03 5.75770E+02-7.49862E+02
 -1      2189-2.33979E+04 2.52162E+02 7.59096E+01 1.45705E+03-2.49396E+01-2.11368E+02
 -1      2190-2.28134E+04 2.00158E+02 1.40123E+02 1.74317E+03 6.85400E+01-2.28667E+02
 -1      2191-3.79239E+03 7.51117E+02 4.39997E+01 2.22841E+03 1.44875E+02-3.45973E+02
 -1      2192-2.30286E+04 6.92726E+01-3.69782E+01 1.83256E+03-1.37283E+01-6.70664E+01
 -1      2193-2.21274E+04 1.85834E+01-7.98777E+01 1.83152E+03 5.70759E+01-1.84879E+02
 -1      2194-4.94212E+03 3.44121E+01-9.61408E+01 3.11065E+03 1.33548E+01-1.29304E+02
 -1      2195-2.18843E+04 3.61338E+01 4.31215E+01 1.87205E+03-9.54574E+00-1.65628E+02
 -1      2196-2.08688E+04-1.84911E+01 5.52752E+01 1.85928E+03-7.09965E+00-3.71917E+01
 -1      2197-4.99667E+03 1.74905E+01 8.41302E+00 3.29703E+03 6.20984E+01-9.55288E+01
 -1      2198-2.05456E+04-3.37103E+01-1.08046E+02 1.86046E+03 3.47289E+01-7.69901E+01
 -1      2199-1.94572E+04 1.72493E+01-6.21805E+01 1.89635E+03-9.16132E+00-1.83220E+02
 -1      2200-4.63034E+03 6.63520E+01 2.33370E+01 3.26135E+03 2.57308E+01 2.05279E-01
 -1      2201-1.92991E+04-4.41190E+01 7.11013E+01 1.83082E+03-4.66249E+01-1.98011E+02
 -1      2202-1.79880E+04 7.81839E+01 1.12818E+02 1.81873E+03-3.10983E+01-7.14274E+01
 -1      2203-4.36631E+03-1.38630E+01-1.11339E+01 3.23776E+03-6.17220E+01-1.62709E+02
 -1      2204-1.78134E+04 5.41351E+01-3.03747E+01 1.84455E+03-1.52356E+01-5.98611E+01
 -1      2205-1.69314E+04 4.22154E+00 1.68163E+01 1.82249E+03 5.44761E+00-4.39314E+01
 -1      2206-3.82247E+03 1.05330E+02 6.02637E+00 3.16522E+03 1.07474E+01-8.12908E+01
 -1      2207-1.66963E+04 1.30502E+01-6.91376E+01 1.73844E+03 6.42806E+00-1.81330E+01
 -1      2208-1.55749E+04 2.51587E+01-9.01064E+01 1.71102E+03 4.74403E+01-1.67644E+02
 -1      2209-3.76835E+03-1.24017E+02-8.18145E+01 3.06921E+03-1.13496E+01-3.08706E+01
 -1      2210-1.54554E+04-1.19407E+01 1.77308E+01 1.71432E+03 1.40471E+01-1.74287E+02
 -1      2211-1.44175E+04 2.24401E+01-4.48676E-01 1.67388E+03-2.32833E+00-1.36700E+02
 -1      2212-3.29723E+03 4.51491E+01 1.02864E-01 3.02126E+03 5.34181E+01-1.31152E+02
 -1      2213-1.42629E+04 9.31131E-01 3.36728E+01 1.69316E+03 2.51134E+00-1.43038E+02
 -1      2214-1.32611E+04 4.33418E+01 7.71335E+01 1.66084E+03-2.42578E+01-6.57004E+01
 -1      2215-3.19057E+03 1.34456E+01 3.67701E+01 3.00107E+03 1.24650E+01-6.59460E+01
 -1      2216-1.30297E+04 5.09416E+01-2.29980E+01 1.63897E+03-8.23767E+00-1.77669E+00
 -1      2217-1.22273E+04-4.60445E+01-2.72127E+00 1.62690E+03 3.37406E+01-3.63526E+01
 -1      2218-2.89510E+03-1.84324E+01-8.73453E+00 2.88032E+03-1.12552E+01 2.50990E+01
 -1      2219-1.20777E+04-4.33500E+01-1.06893E+02 1.57778E+03 2.80570E+01-5.80268E+01
 -1      2220-1.09843E+04 5.36736E+01-7.40946E+01 1.56578E+03 3.77147E+01-1.72950E+02
 -1      2221-2.80635E+03-7.25027E+01-4.04327E+01 2.79453E+03-1.21638E+01-3.14657E+01
 -1      2222-1.09026E+04 2.16846E+01 5.57894E+01 1.53469E+03-3.65092E+00-1.40152E+02
 -1      2223-1.00600E+04-1.50930E+01 3.96369E+01 1.49806E+03-9.35777E+00-2.47044E+01
 -1      2224-2.31823E+03 5.07446E+01 8.33846E+00 2.71748E+03 4.91107E+01-1.21365E+02
 -1      2225-9.84100E+03-1.60811E+01-6.86459E+01 1.48011E+03 2.20221E+01-5.57048E+01
 -1      2226-8.96661E+03 2.01303E+01-3.63015E+01 1.48462E+03-6.45918E-01-1.18514E+02
 -1      2227-2.30443E+03 5.96198E+01 2.46079E+00 2.61177E+03 1.57844E+01 1.78759E+01
 -1      2228-8.86877E+03 2.97423E+00-1.56268E+01 1.39487E+03-7.57379E-01-1.12313E+02
 -1      2229-7.99783E+03 2.76434E+01-2.44545E+01 1.40574E+03-1.71409E+01-1.37964E+02
 -1      2230-2.03246E+03 2.32414E+01-3.24852E+01 2.56593E+03-8.46405E+00-4.83513E+01
 -1      2231-7.84475E+03-1.17078E+01 5.25149E+01 1.34831E+03-3.83074E+01-1.37406E+02
 -1      2232-6.93430E+03 1.46471E+00 3.59178E+01 1.33693E+03 1.79783E+00-1.97384E+01
 -1      2233-1.90989E+03 4.71870E+00-2.56698E+00 2.42591E+03-5.02408E+01-1.05893E+02
 -1      2234-6.80144E+03-7.53772E+00-3.01529E+01 1.35472E+03 1.05864E+01-7.32426E+01
 -1      2235-6.08889E+03 2.49732E+01 1.72135E+01 1.33048E+03-9.61832E+00-6.66845E+01
 -1      2236-1.51753E+03 9.85024E+01 3.52015E+01 2.32022E+03 7.47929E+00-6.24785E+01
 -1      2237-5.86309E+03 3.62891E+01-1.16258E+01 1.26025E+03-2.61340E+00 2.02426E+00
 -1      2238-5.21767E+03 8.95841E+00-3.10614E+01 1.23969E+03-1.50016E+00-4.33488E+00
 -1      2239-1.41369E+03-6.50473E+01-4.97979E+01 2.23106E+03-7.23075E+00-5.92860E+01
 -1      2240-5.07234E+03 3.94904E+01-1.87694E+01 1.16507E+03-1.12227E+01-1.06703E+01
 -1      2241-4.49070E+03-2.79078E+01 5.27088E+00 1.11409E+03 1.15004E+01-1.30698E+01
 -1      2242-1.14649E+03 5.60236E+01-2.15071E+01 2.05493E+03 3.99046E+01-2.20831E+01
 -1      2243-4.32712E+03 7.81484E+00-6.56482E+01 1.07552E+03 1.33422E+01-3.75102E+01
 -1      2244-3.67942E+03 2.72462E+01-2.60507E+01 1.06829E+03-3.53550E+00-9.56962E+01
 -1      2245-1.15824E+03 1.40819E+00-2.01393E+01 1.92832E+03-2.34799E+01-3.16033E+00
 -1      2246-3.51854E+03-7.48163E+00 1.42529E+01 1.00570E+03-1.72149E+01-9.68399E+01
 -1      2247-2.89056E+03 3.23228E+01 3.45094E+01 9.81787E+02-1.02873E+01-3.89519E+01
 -1      2248-9.13900E+02 3.27724E+01-7.90078E+00 1.83104E+03-2.88212E+01-5.82837E+01
 -1      2249-2.78321E+03 2.99398E+01-3.74398E+01 9.29335E+02-3.51763E+00-2.69592E+01
 -1      2250-2.26657E+03 8.35773E+00-3.00941E+01 8.94245E+02 9.96439E+00-6.10052E+01
 -1      2251-6.69096E+02 6.55956E+01-8.21788E+00 1.67335E+03 2.07586E+01-1.55175E+01
 -1      2252-2.18037E+03 1.03979E+01-9.54752E+00 8.34894E+02 4.79206E+00-6.71468E+01
 -1      2253-1.67964E+03 2.36637E+01 6.06641E+00 8.09936E+02-9.86911E+00-5.50898E+01
 -1      2254-5.37207E+02 4.55966E+01 1.58501E+01 1.54433E+03 9.74313E+00-1.94063E+01
 -1      2255-1.60334E+03 1.11262E+01-4.49962E+00 7.44893E+02-9.83037E+00-5.77517E+01
 -1      2256-1.15846E+03 2.13312E+01 9.44980E+00 7.17683E+02-4.02939E+00-2.53822E+01
 -1      2257-4.79364E+02 2.27725E+01-2.10611E+01 1.38757E+03-1.27340E+01-4.72157E+00
 -1      2258-1.06289E+03 3.24529E+01-3.26568E+01 6.45170E+02 2.92612E+00-1.13629E+01
 -1      2259-7.22243E+02 1.42620E+01-2.17114E+01 6.19423E+02-4.01703E+00-3.49273E+01
 -1      2260-3.09885E+02 4.99605E+01-8.40910E+00 1.19493E+03 1.41942E+01-3.96459E-01
 -1      2261-6.63730E+02 2.03471E+01-1.20841E+01 5.34595E+02-4.07083E+00-4.42269E+01
 -1      2262-3.40954E+02 2.52077E+01-1.36843E+01 5.15001E+02-6.60969E+00-4.26145E+01
 -1      2263-2.50614E+02 3.95973E+01-1.50327E+01 1.02912E+03-1.18042E+01-1.08360E+01
 -1      2264-3.13122E+02 1.13680E+01-1.00388E+01 4.22998E+02-8.97576E+00-4.29387E+01
 -1      2265-3.97426E+01 3.03004E+01-1.62279E+01 3.95769E+02 3.75122E-02-3.81633E+01
 -1      2266-1.72973E+02 4.12628E+01-9.38528E+00 8.34640E+02-1.79447E+01-1.89642E+01
 -1      2267-1.45853E+01 1.26378E+01-1.33527E+01 3.18294E+02-2.76804E+00-3.91009E+01
 -1      2268 1.76256E+02 1.95166E+01 3.72888E-01 2.83495E+02-4.83632E+00-1.05932E+01
 -1      2269-1.07387E+02 4.74692E+01-7.15544E+00 6.35645E+02 3.02019E+00-2.59255E+01
 -1      2270 2.14995E+02 3.16412E+01-2.07119E+01 2.03982E+02 1.35373E+00 1.75643E+00
 -1      2271 2.94972E+02 2.11198E+01-1.61202E+01 1.67560E+02-4.46449E+00-2.77500E+00
 -1      2272-6.11759E+01 5.42503E+01-4.31008E+00 4.24194E+02 5.90589E+00-8.60453E+00
 -1      2273 3.14927E+02 2.56805E+01-1.53605E+01 7.16131E+01-3.98196E+00-5.93909E+00
 -1      2274 3.47404E+02 2.49383E+01-1.61486E+01 4.23124E+01-3.37703E+00 1.61890E-01
 -1      2275-4.67039E+01 4.58792E+01-9.40765E+00 2.13685E+02-3.92650E+00 1.74994E+00
 -1      2276 3.47521E+02 2.96548E+01-1.43921E+01-5.55685E+01-3.01321E+00 2.73885E+00
 -1      2277 3.01308E+02 2.95707E+01-1.40044E+01-8.36153E+01-2.55249E+00 8.66234E+00
 -1      2278-4.08335E+01 5.46031E+01-8.79857E+00-1.34702E+01-2.32455E+00 2.66904E+00
 -1      2279 2.51254E+02 4.38737E+01-1.62939E+01-1.84066E+02-3.28077E+00 2.59997E+00
 -1      2280 1.70485E+02 4.50829E+01-1.89230E+01-2.03863E+02 4.45527E+00-4.19099E+00
 -1      2281-7.84397E+01 6.81115E+01-3.63397E+00-2.51535E+02-2.80571E+00 3.37693E+00
 -1      2282-1.14246E+02 7.95079E+01-5.19913E+00-3.90962E+02 2.89125E-01 7.46946E+00
 -1      2283 5.25752E+03-4.01765E+01-6.75559E+00 1.79520E+03-1.47258E+01-4.61811E+01
 -1      2284 6.22538E+03-2.83659E+01 1.43623E+01 1.85916E+03 1.97021E+00-6.45267E+01
 -1      2285 3.99741E+03-4.54942E+01 7.68875E+00 1.62790E+03-5.57141E+00-4.35989E+01
 -1      2286 4.84857E+03-2.95979E+01 1.70204E+00 1.68852E+03-2.09940E-01-4.78494E+01
 -1      2287 3.14975E+03-2.87130E+01-4.68007E+00 1.96683E+03-6.73189E+00-4.92512E+01
 -1      2288 2.72484E+02-4.03556E+01-1.28795E+01 8.33028E+02-9.03974E+00-2.74287E+01
 -1      2289 7.29943E+02-2.87258E+01-9.26486E+00 9.41633E+02-1.10850E+01-3.67822E+01
 -1      2290 9.78036E+02-4.13200E+01-4.83978E+00 1.05857E+03-2.39984E+00-4.65576E+01
 -1      2291 1.57980E+03-2.69770E+01-3.42225E+00 1.12619E+03-1.14650E-02-5.07576E+01
 -1      2292 4.87964E+02-1.90717E+01-8.14930E+00 1.13207E+03-9.36463E+00-4.48535E+01
 -1      2293-2.43703E+02 1.10924E+01-7.69602E+00 5.36043E+02-4.99457E+00-1.06164E+01
 -1      2294-2.39832E+02 7.74303E+00-2.07052E+00 4.29914E+02 1.30880E+00-8.47273E+00
 -1      2295-9.74443E+01 1.89383E+01-1.51647E+01 7.75431E+02-9.61977E+00-3.13396E-01
 -1      2296-1.22734E+02 5.44723E+00-1.12690E+01 6.62117E+02-4.64426E+00-8.94469E+00
 -1      2297-2.81288E+02-3.34662E+01-1.60435E+01 6.48691E+02-6.17469E+00-9.99006E+00
 -1      2298-8.97699E+02-5.21731E+01-7.68594E+00-7.25494E+01-9.12268E+00 3.48542E-02
 -1      2299-8.90053E+02-5.03555E+01-1.06801E+01 4.04375E+01-4.82411E+00 1.14317E+00
 -1      2300-6.24890E+02-2.73340E+01-2.10686E+01-1.57358E+02-7.49057E+00 2.52987E+00
 -1      2301-8.75283E+02-5.86732E+01-1.01636E+01-2.09508E+02-8.18106E+00 1.70096E+00
 -1      2302-7.07124E+02-6.01927E+01-6.04485E+00-3.31261E+02-8.36155E+00 1.18277E-01
 -1      2303 8.23564E+03-1.58785E+01-2.82220E+01 2.07733E+03-1.48052E+01-6.78629E+01
 -1      2304 9.23585E+03-3.11028E+01 2.26646E+01 2.14510E+03 2.09714E+00-7.11102E+01
 -1      2305 5.98159E+03-4.53697E+01-6.26895E+00 2.50254E+03 4.39661E+00-7.86394E+01
 -1      2306 9.84557E+03-8.24449E+01 2.72664E+01 2.24836E+03-8.76136E+00-7.40894E+01
 -1      2307 1.10028E+04-3.76923E+01 1.38047E+01 2.27523E+03 2.11975E+01-7.30926E+01
 -1      2308 7.27679E+02-2.63451E+00-1.95792E+01 1.60948E+03-1.08015E+01 1.17346E+01
 -1      2309 8.41896E+02 2.33499E+01-8.08618E+00 1.48416E+03 1.05745E+01-1.48297E+01
 -1      2310 4.24868E+02-2.02825E+01-1.76487E+01 1.37778E+03-1.10487E+01-2.80994E+01
 -1      2311 5.22968E+02 3.08854E+00 1.91899E+01 1.30989E+03 2.75155E+00-1.06020E+01
 -1      2312 1.65975E+03-1.64262E+01-2.34503E+01 1.56908E+03 3.03713E+00-3.96374E+01
 -1      2313 1.33422E+04-6.64753E+01-1.84863E+01 2.48569E+03-2.37649E+01-7.06006E+01
 -1      2314 1.47232E+04-2.58191E+01-1.68860E+01 2.57950E+03-2.16281E+01-9.89785E+01
 -1      2315 1.15500E+04-3.98039E+01-2.31361E+01 2.38262E+03-8.10321E+00-8.04650E+01
 -1      2316 1.28070E+04-2.66921E+01 1.64518E+00 2.45241E+03 1.22003E+01-6.01002E+01
 -1      2317 8.23133E+03 2.10107E+00-1.54878E+01 2.76972E+03 4.66903E+00-5.65225E+01
 -1      2318 1.07918E+04 5.64373E+00 6.67768E+00 3.74011E+03-1.34609E+01-4.39742E+01
 -1      2319 1.11352E+04 1.12345E+01 2.94369E+01 3.72338E+03 2.85500E+01-2.61031E+01
 -1      2320 1.02610E+04-7.98519E+01-4.52404E+01 3.71828E+03-1.65248E+01-7.50047E+01
 -1      2321 1.01897E+04-3.22153E+01-8.68355E+00 3.58991E+03-4.84906E+01-8.97074E+01
 -1      2322 2.57112E+04 6.18093E+01-1.14725E+01 4.01305E+03 4.92210E+00-1.27279E+02
 -1      2323 3.33223E+04-5.76922E+01-4.41509E+01 3.38147E+03-5.12141E+01-1.24042E+02
 -1      2324 3.51279E+04 5.40796E+00-2.83451E+01 3.43945E+03 1.92575E+01-1.09033E+02
 -1      2325 3.59227E+04-9.21268E+00-2.38231E+01 3.45314E+03 4.63699E+00-8.42804E+01
 -1      2326 3.77775E+04-6.97862E+00 4.27049E+01 3.45000E+03 1.53835E+01-9.67658E+01
 -1      2327 2.24312E+04 6.83936E+00-2.35499E+01 3.82424E+03 2.18158E+01-8.13405E+01
 -1      2328 4.40459E+04-1.06984E+02 1.17479E+01 3.58482E+03-2.27598E+01-1.18230E+02
 -1      2329 4.59495E+04-1.48445E+01 2.37301E+01 3.49412E+03 4.70770E+01-1.14915E+02
 -1      2330 4.87669E+04 1.97371E+01 5.55621E+01 3.32346E+03 1.18824E+02-4.04347E+01
 -1      2331 4.68364E+04 1.52060E+01-2.69925E+01 3.47288E+03 5.20705E+01-1.33925E+02
 -1      2332 2.92560E+04 4.21399E+01 1.46270E+01 3.88752E+03 3.43676E+01-1.61090E+02
 -1      2333 6.21105E+03-3.27156E+01-7.98244E+01 3.18207E+03-3.10609E+01-7.54724E+01
 -1      2334 6.29839E+03-5.56322E+01-6.01865E+01 3.05150E+03 1.43665E+01-1.48921E+02
 -1      2335 6.94871E+03-7.04467E+00-2.48165E+01 3.28482E+03-1.91018E+01-3.47322E+00
 -1      2336 7.20223E+03 3.40769E+01-3.44211E+00 3.22191E+03 3.68615E+01-6.43306E+01
 -1      2337 1.62893E+04 1.71439E+01-1.07679E+01 3.48121E+03 9.39472E+00-8.04196E+01
 -1      2338 5.14823E+03-1.28883E+01-2.35918E+01 3.00163E+03-1.02426E+01-2.49595E+01
 -1      2339 5.35454E+03-5.31039E-01 2.11275E+01 2.94996E+03 2.03863E+01-2.92707E+00
 -1      2340 1.21554E+04-1.45946E+01 1.28562E+01 3.18289E+03-4.74186E+00-5.49526E+01
 -1      2341 4.70184E+03-7.81535E+00-2.75728E+01 2.91700E+03-1.07571E+01 7.08844E-01
 -1      2342 4.73285E+03 7.06107E+00 1.37477E+01 2.84792E+03 1.60741E+01-1.71195E+01
 -1      2343 8.39703E+03 4.92334E+01 1.48095E+01 3.42746E+03 4.01173E+01-7.15640E+01
 -1      2344 8.41513E+03 6.99952E+01 4.14745E+01 3.45687E+03 1.49069E+01-5.34164E+01
 -1      2345 7.59660E+03-4.30077E-01-2.54335E+01 3.38014E+03-1.70568E+01-2.12127E+01
 -1      2346 7.66112E+03 1.14091E+01 3.03618E+01 3.35436E+03 1.16901E+01 1.92649E+00
 -1      2347 1.92858E+04-3.43746E+01-4.32946E+01 3.68653E+03 1.14343E+01-1.16729E+02
 -1      2348 1.46248E+04 9.89394E+02 3.73101E+01 2.11688E+03 3.51558E+02-1.53283E+02
 -1      2349 1.40863E+04 4.20446E+02-4.26216E+01 3.01534E+03 3.13198E+02-2.73588E+02
 -1      2350 1.47156E+04 1.54610E+03 2.08921E+02 1.51662E+03 5.63311E+02-2.25698E+02
 -1      2351 3.27714E+04 1.38680E+03-2.12298E+02 2.44305E+03 6.59116E+02 7.40014E+01
 -1      2352 2.27877E+04 1.99402E+03-2.56504E+02 2.91876E+02 1.07075E+03 2.09673E+02
 -1      2353 5.74527E+03 3.06480E+03 4.38124E+02-5.83021E+02 1.08144E+03-5.29808E+01
 -1      2354 1.44905E+03 2.74296E+01-2.19718E+01 1.93262E+03-1.27981E+01-1.87422E+01
 -1      2355 1.51013E+03 1.47886E+01 1.70216E+01 1.86824E+03 3.25564E+00-4.51142E+01
 -1      2356 1.69720E+03-4.73081E+01-1.77914E+01 2.12577E+03-1.15351E+01-3.09947E+01
 -1      2357 1.80529E+03 8.08280E+00-1.12781E+00 2.02390E+03-1.00910E+01-2.88915E+01
 -1      2358 4.05796E+03-2.38172E+01-1.82738E+01 2.09401E+03 1.11799E+01-7.67076E+01
 -1      2359-8.74538E+02-4.83805E+01-3.40491E+00 1.69882E+02-3.11602E+00-5.83816E+00
 -1      2360-7.54898E+02-4.61769E+01-1.07581E+01 2.87009E+02-1.34701E+00-8.25342E+00
 -1      2361-6.65567E+02-4.35626E+01-1.07258E+01 4.07568E+02-1.70682E+00-1.53138E+01
 -1      2362-4.14695E+02-4.54079E+01-6.66230E+00 5.06384E+02-3.21826E+00-1.85995E+01
 -1      2363-4.96751E+02-2.08463E+01-1.18565E+01 3.87638E+02-1.25988E+00-1.33681E+01
 -1      2364-3.37819E+02 1.75528E+01-1.19661E+01-2.15227E+02-4.52857E+00-4.12182E+00
 -1      2365-3.69469E+02 2.70164E+01-1.07757E+01-3.53512E+02 7.08296E-01 3.76439E-01
 -1      2366-5.34596E+02-2.85920E+01-1.06051E+01-4.31232E+02-2.55044E+00-5.14124E+00
 -1      2367-2.89681E+02 2.32249E+01-8.46501E+00-4.66651E+02 2.43267E+00-6.33810E+00
 -1      2368-2.78870E+02 4.59572E+01-2.66015E+01-5.20883E+02 6.65188E+00-1.31707E+01
 -1      2369-3.99459E+02-1.39004E+01-1.85474E+01-6.06715E+02 5.85628E+00-2.30889E+01
 -1      2370 4.03891E+03 2.52264E+00-3.59468E+01 2.80422E+03-3.11888E+01-3.47105E+01
 -1      2371 4.10569E+03 2.76560E+01-1.19667E+01 2.71662E+03-5.72605E+01-4.85965E+01
 -1      2372 3.73006E+03 1.80479E+01 2.19308E+01 2.60788E+03-3.82599E+00-1.38649E+02
 -1      2373 3.69479E+03-1.12094E+01 1.98841E+01 2.56738E+03 3.30427E+01-7.78190E+01
 -1      2374 9.50103E+03 1.82282E+00-5.28440E+01 2.88740E+03-1.25375E+01-6.49157E+01
 -1      2375-3.55673E+02 6.26501E+00-1.65025E+01 4.40225E+01-3.77099E+00-2.05160E+00
 -1      2376-3.41290E+02 1.61428E+01-1.00208E+01-8.38526E+01-9.91901E-01-3.18839E+00
 -1      2377-3.30310E+02 4.90820E+00-1.32966E+01 3.02153E+02-8.12919E+00-2.27471E+00
 -1      2378-3.05543E+02 9.99958E+00-1.04391E+01 1.72184E+02-2.92247E+00-2.55091E+00
 -1      2379-6.05668E+02-2.41388E+01-9.34238E+00 1.21920E+02-2.09534E+00 2.15879E+00
 -1      2380 3.04785E+03 9.94045E+00-3.07320E+01 2.49919E+03-2.69001E+01-8.02996E+01
 -1      2381 3.05718E+03-1.42137E+01-5.58816E+01 2.41586E+03 1.54693E+01-1.31655E+02
 -1      2382 2.69677E+03 1.87729E-01-2.31899E+01 2.35367E+03 2.48453E+01-6.64954E+01
 -1      2383 2.69237E+03 6.79774E+01 1.70730E+01 2.36567E+03 1.03427E+01-7.40423E+01
 -1      2384 7.02294E+03-8.89281E+00-1.08863E+01 2.55752E+03-2.15009E+01-9.32099E+01
 -1      2385 2.37304E+04-5.50386E+01-4.51107E+01 3.05668E+03-5.18489E+01-1.16080E+02
 -1      2386 2.53787E+04 6.17201E-01 6.50196E+00 3.10383E+03 2.89495E+01-8.68902E+01
 -1      2387 2.16976E+04-6.61301E+01-7.75970E+00 2.91693E+03 9.00133E-01-7.91830E+01
 -1      2388 2.31214E+04-1.36936E+01 2.08739E+01 2.91740E+03-5.48907E+00-1.09964E+02
 -1      2389 1.46866E+04-6.81125E+01 7.36110E+00 3.29206E+03-1.55115E+01-9.86236E+01
 -1      2390 1.53630E+04-2.92822E+01-2.76808E+01 2.59117E+03 1.23488E+01-5.70653E+01
 -1      2391 1.68114E+04 2.12208E+01 2.51000E+01 2.63867E+03 1.54489E+01-5.83945E+01
 -1      2392 1.07633E+04 2.00945E+01 2.72358E+01 3.05555E+03-1.47044E+01-8.62002E+01
 -1      2393 1.74504E+04-3.94313E+01-2.24746E+01 2.71857E+03-8.31486E+00-8.17607E+01
 -1      2394 1.89345E+04-1.63548E+01-3.49119E+00 2.78739E+03-6.54272E+00-7.30403E+01
 -1      2395 2.61297E+04-1.71117E+01-1.38117E+01 3.10258E+03-1.07653E+01-9.62885E+01
 -1      2396 2.77191E+04 4.83434E+00-2.46725E+01 3.18259E+03-1.34224E+01-9.90071E+01
 -1      2397 2.84725E+04-1.13527E+01-1.92270E+01 3.20517E+03 4.57905E+00-6.63548E+01
 -1      2398 3.01091E+04-8.94601E+00 9.19161E+00 3.23345E+03 1.33910E+01-1.08662E+02
 -1      2399 1.76963E+04 2.15098E+00-5.22860E+01 3.58880E+03 1.01951E+01-6.97330E+01
 -1      2400 4.12828E+04 3.06928E+03-1.11375E+02 1.17764E+03 9.39711E+02 5.81365E+01
 -1      2401 5.07135E+04 1.21219E+03-4.91343E+02 1.86443E+03 5.98886E+02 5.72993E+02
 -1      2402 5.90319E+04 7.12132E+02-1.08762E+03 1.00886E+03 1.29261E+03 4.37994E+02
 -1      2403-4.68305E+02-4.97864E+01-2.94400E+01-6.11887E+02 9.67531E+00-1.29960E+01
 -1      2404-6.09685E+02-1.01327E+02-1.39402E+01-5.01333E+02 3.93362E+00-1.44870E+01
 -1      2405-6.71788E+02-7.35033E+01-2.17219E+01-4.62042E+02-6.01773E+00 3.89654E+00
 -1      2406 8.78388E+00-4.83301E+00-1.84467E+01 1.00533E+03-6.32802E+00-1.28508E+01
 -1      2407 3.52182E+01 4.29149E+00-1.10314E+01 8.89242E+02-8.88108E+00-6.92594E+00
 -1      2408 2.18079E+02 1.36355E+01-2.52244E+01 1.21029E+03-2.22329E+01 7.49151E+00
 -1      2409 2.82691E+02 3.14879E+01-2.91385E+00 1.10141E+03 1.95977E-01-7.63569E+00
 -1      2410 1.82288E+03-6.08568E+01-1.76232E+01 1.26390E+03-3.06511E+01-4.66556E+01
 -1      2411 2.51774E+03-4.54219E+01-3.97121E-01 1.35220E+03 3.13140E-01-3.85253E+01
 -1      2412 2.85413E+03-3.75654E+01-1.82269E+01 1.43542E+03-1.24752E+01-3.49465E+01
 -1      2413 3.61577E+03-3.13787E+01 1.02318E+00 1.52257E+03-1.62629E+01-3.49757E+01
 -1      2414 8.85163E+03-2.63120E+01-4.96924E+01 3.49187E+03-5.80595E+01-9.30367E+01
 -1      2415 8.83566E+03-5.99839E+01-6.29089E+01 3.40826E+03 2.22936E+01-1.70038E+02
 -1      2416 9.81046E+03 6.05869E+01 7.95640E+01 3.49107E+03-2.07094E+01-1.78459E+02
 -1      2417 9.77916E+03-3.03049E+01 2.69408E+01 3.54994E+03 1.92527E+01-1.27016E+02
 -1      2418 3.85201E+04 5.53036E+00-2.38758E+01 3.44849E+03-2.02954E+01-1.06380E+02
 -1      2419 4.02982E+04 5.46109E+01-6.72519E+01 3.54033E+03 1.41365E+01-1.20616E+02
 -1      2420 4.11712E+04-5.53618E+00-4.83051E+01 3.55266E+03 2.11271E+01-9.88042E+01
 -1      2421 4.30826E+04-4.13534E+01 1.65523E+01 3.52151E+03 2.41258E+01-1.13989E+02
 -1      2422 1.27669E+04 1.49815E+02-6.88310E+01 3.43013E+03 8.19553E+01-1.57857E+02
 -1      2423 1.25486E+04 1.51107E+01 5.06127E+01 3.68119E+03 7.20899E+01-6.98935E+01
 -1      2424 1.16290E+04 1.55578E+01-9.42827E+00 3.71657E+03 3.97203E+01-6.80111E+01
 -1      2425 1.17904E+04 6.89986E+01 1.10785E+01 3.79875E+03 3.20195E+01-5.54943E+01
 -1      2426 3.13115E+04 1.57769E+02-7.27495E+01 3.59893E+03 3.35575E+02-1.01969E+02
 -1      2427 4.96857E+04 1.37927E+02 3.49714E+01 2.91609E+03 2.78469E+02 2.52844E+01
 -1      2428 5.08929E+04 5.01191E+02-9.04710E+00 2.43857E+03 3.96730E+02 1.32014E+02
 -1      2429 6.65823E+03-2.28806E+01-1.43078E+01 1.91691E+03-1.51614E+01-6.61716E+01
 -1      2430 7.69055E+03 2.06744E+01-2.15606E+01 2.02069E+03 8.91640E+00-6.70230E+01
 -1      2431 4.95248E+03 8.05898E+00-7.30429E+00 2.33118E+03-3.62420E+00-7.57353E+01
 -1      2432 2.24611E+03 8.27848E-01-1.51421E+01 2.16471E+03 3.00372E+00-1.72875E+01
 -1      2433 2.06432E+03 9.39756E+00-3.45319E+01 2.26739E+03-2.62005E+01-3.75567E+01
 -1      2434-2.86560E+02-5.38385E+01-4.35071E+00 6.39191E+02-1.37456E+01-2.20929E+01
 -1      2435 8.70342E+01-4.31491E+01 1.04028E+00 7.43666E+02 4.43793E+00-2.74776E+01
 -1      2436 8.57163E+01-5.79284E+00-2.14975E+01 8.69341E+02 1.20320E-01-3.71326E+01
 -1      2437 1.03839E+03-7.26048E-02-7.95712E+00 1.76270E+03-2.29620E+01-2.24169E+01
 -1      2438 1.10975E+03 2.01928E+01 1.54899E+01 1.70334E+03 8.04948E+00 1.62835E+00
 -1      2439 2.35552E+03-2.83322E+01 1.00359E+00 1.78153E+03-9.53640E+00-4.03340E+01
 -1      2440 5.92688E+03 4.02977E+01 4.38622E+00 3.07051E+03 3.77771E+01-7.09950E+01
 -1      2441 5.87745E+03 7.82314E+01 4.64916E+01 3.09343E+03 1.50528E+01-4.03307E+01
 -1      2442 1.35041E+04-1.74947E+01-3.30181E+01 3.29471E+03 5.91442E+00-9.71806E+01
 -1      2443 1.96474E+04-2.55670E+01 2.86514E+00 2.84770E+03-7.12149E-01-8.20251E+01
 -1      2444 2.10980E+04-1.18020E+01-5.46440E+00 2.87641E+03 8.83769E+00-1.02780E+02
 -1      2445 3.08621E+04-7.26875E+01-1.19692E+01 3.26541E+03 7.38164E+00-8.48744E+01
 -1      2446 3.26330E+04-1.12987E+01 1.49728E+01 3.24871E+03-1.00708E+00-1.18788E+02
 -1      2447 2.07038E+04-6.56030E+01 9.70826E+00 3.65121E+03-1.34754E+01-1.10249E+02
 -1      2448 2.41580E+04-3.88703E+01-8.44775E+00 3.80085E+03 2.53072E+01-1.40165E+02
 -1      2449 2.74687E+04-7.02050E+01-1.19368E+01 4.06343E+03 6.28034E+00-1.34281E+02
 -1      2450 1.01111E+03-4.10397E+01-7.12592E-03 1.35026E+03-1.24905E+01-2.42788E+01
 -1      2451-1.68565E+03 3.62656E+01-7.24829E-01 5.96804E+03 8.45273E+00-2.51245E+03
 -1      2452 4.29966E+00 1.35698E+01-1.70347E+00-3.98437E+02-9.92181E-01 1.56341E+02
 -1      2453-3.27586E+00-4.08710E+00 5.02259E+00 9.92140E+01 1.28262E+00-3.74908E+01
 -1      2454-2.61378E+01 5.11490E+00-1.88242E+01 3.65864E+03-1.36923E+01-1.53261E+03
 -1      2455 4.17233E+00 5.48050E-01 4.70708E-01 3.19867E+03-5.39070E-01-1.34654E+03
 -1      2456-6.17746E+00 2.00713E+00-6.98353E-01 7.56145E+02 1.17208E+00-3.22505E+02
 -1      2457 1.02328E+00 2.50361E-01 6.17292E-01 1.14684E+03 1.53559E-01-4.90557E+02
 -1      2458-4.13939E+01-7.73822E+00-9.24895E+00 1.42157E+03-3.85890E+00-6.06643E+02
 -1      2459-4.11709E+01-1.58212E+01 1.12959E+01 1.80760E+03-4.64758E+00-7.55682E+02
 -1      2460-2.20342E+00-4.95319E+00-9.77799E+00 2.23025E+03-4.83687E+00-9.21643E+02
 -1      2461 6.31254E+00-1.66254E+00-1.54171E+00 2.88320E+03 5.73795E-01-1.21114E+03
 -1      2462-6.22704E+01-2.18220E+01-6.81804E-01 3.32995E+03 5.61004E+00-1.37508E+03
 -1      2463-1.22354E+00-1.03253E+00-1.60989E+00 2.46693E+03 2.84196E+00-1.02194E+03
 -1      2464 1.93378E+01 3.11227E-01 1.27516E-01 2.87521E+03 4.13145E-01-1.20546E+03
 -1      2465-9.37799E-01 2.94440E+01 1.59174E+01 2.68831E+03-4.75135E+00-1.11345E+03
 -1      2466 2.10214E+03-5.69373E+00-7.84021E+00 1.95763E+03-1.51826E-02-8.31031E+02
 -1      2467-1.04399E+02-2.74414E+01-1.08604E+01 4.29366E+02-7.17087E+00-1.81982E+02
 -1      2468 9.82825E+03-3.51672E+01-3.25855E+00 3.30975E+03-4.25037E+00-1.37817E+03
 -1      2469-8.31910E+01-7.84357E+01 4.21470E+01-4.67569E+02-1.46921E+00 2.01924E+02
 -1      2470 1.92502E+04-6.90366E+02 1.57847E+03 4.90666E+03-4.49619E+02-1.66563E+03
 -1      2471-2.62587E+02-8.52847E+01-3.30594E+01-4.50561E+02 1.28764E+00 1.77211E+02
 -1      2472-4.69349E+04-1.14186E+03-2.03213E+03 5.44275E+03-1.54366E+03-2.76750E+03
 -1      2473-1.95101E+04 1.50682E+01 6.26323E+00 2.83778E+03-1.71084E+01-1.14010E+03
 -1      2474 9.30791E+03-9.88075E+00 1.40772E+00 3.03874E+03-1.25572E+00-1.33100E+03
 -1      2475-6.08090E+02 3.86424E+01 1.43064E+01 8.70552E+02 9.68121E+00-3.49334E+02
 -1      2476 6.13817E+02-3.26982E+01-9.79600E+00 8.72175E+02-1.01091E+01-3.51684E+02
 -1      2477-1.29168E+03 3.35100E+01-2.04846E+01 1.53773E+03 2.61140E+00-6.60365E+02
 -1      2478-7.41181E+02 3.79728E+01-7.88186E+00 1.22439E+03-7.00672E+00-5.22893E+02
 -1      2479 7.14501E+02-3.31938E+01 1.40536E+01 1.22437E+03 1.76897E+00-5.22622E+02
 -1      2480 1.36732E+03-2.56168E+01 1.70930E+01 1.55028E+03 4.91624E+00-6.73140E+02
 -1      2481-9.29034E+03 2.16542E+01 8.60582E+00 2.99636E+03-9.14918E+00-1.33724E+03
 -1      2482 3.44263E+03-3.34852E+01 1.17993E+01 2.18403E+03 3.71085E+00-9.60362E+02
 -1      2483-1.08974E+04 3.72345E+01 1.65631E+01 2.36385E+03 2.52424E+00-9.69860E+02
 -1      2484 1.36270E+04 6.36305E+00 9.47913E+00 2.52352E+03 1.45205E+01-1.01939E+03
 -1      2485-3.44063E+03 3.02948E+01-1.67783E+01 2.18590E+03-1.84022E+00-9.57461E+02
 -1      2486-6.75704E+03 6.35091E+00-5.75244E+00 2.72504E+03-8.31469E+00-1.19382E+03
 -1      2487 1.95270E+04-1.58635E+01-1.37603E+00 2.83582E+03 1.77878E+01-1.14739E+03
 -1      2488 1.09436E+04-3.33636E+01-1.86486E+01 2.35948E+03-1.07055E+01-9.63201E+02
 -1      2489 6.72300E+03-1.53192E+01-4.20147E+00 2.73339E+03 1.17593E+01-1.18671E+03
 -1      2490-1.36170E+04-1.34744E+01-8.79547E+00 2.51074E+03-4.89577E+00-1.02290E+03
 -1      2491 4.71321E+04 1.48544E+03 2.20440E+03 5.24040E+03 1.42940E+03-2.70413E+03
 -1      2492 2.27559E+02 6.85654E+01 2.12146E+01-4.50287E+02-3.43896E+00 1.82273E+02
 -1      2493 4.27421E+02 4.72472E+01 1.88348E+01 2.73403E+02 1.33527E+01-1.14869E+02
 -1      2494-2.78565E+04 1.48671E+01 1.17996E+01 3.02274E+03 9.78285E+00-1.23569E+03
 -1      2495 1.30931E+04-4.85441E+00-1.67113E+01 3.69399E+03-1.57244E+02-1.74919E+03
 -1      2496-2.04807E+02-4.89098E+01 2.51991E+01-1.21186E+02 4.79793E+00 5.12357E+01
 -1      2497-1.98733E+04 9.84033E+01-2.14410E+03 4.82759E+03 7.42661E+02-1.42412E+03
 -1      2498 1.50174E+02 3.54790E+01 1.41319E+01 5.13579E+02 9.19430E+00-2.03609E+02
 -1      2499-3.01387E+04 4.80080E+00 1.88072E+01 3.11497E+03-4.44912E+01-1.25067E+03
 -1      2500 1.17986E+02 8.29053E+01-3.75904E+01-4.57570E+02 3.01354E+00 2.09018E+02
 -1      2501-6.63447E+03 2.37364E+01 8.47727E+00 1.90880E+03-5.78749E+00-7.75180E+02
 -1      2502-5.43550E+03 3.19852E+01 7.62901E+00 1.72584E+03 8.34501E+00-7.32859E+02
 -1      2503-1.38827E+04-6.26815E+00 5.89860E+01 3.62813E+03 1.54000E+02-1.72385E+03
 -1      2504 5.43516E+02 5.29987E+01 1.24025E+01-1.01938E+02 9.27161E+00 5.10731E+01
 -1      2505-4.03624E+02-3.73013E+01-1.88542E+01-1.23735E+02-1.14672E+01 4.21813E+01
 -1      2506 2.37653E+03-4.72967E+01 2.11842E+01 1.71998E+03 5.81055E+00-7.41691E+02
 -1      2507 3.07886E+03-5.30313E-02 8.89498E+00 1.88123E+03 1.01006E+00-8.29463E+02
 -1      2508-2.04291E+02-5.06472E+01 2.36689E+01 2.44205E+02 5.37330E+00-1.06783E+02
 -1      2509 2.06791E+02 4.88482E+01-2.47608E+01 2.51307E+02-5.81405E+00-1.10172E+02
 -1      2510 4.71533E+01 4.52211E+01-2.27723E+01 5.39129E+02-1.88868E+00-2.35026E+02
 -1      2511-6.24978E+01-4.60485E+01 2.06995E+01 5.39905E+02 5.76976E+00-2.33464E+02
 -1      2512 1.23870E+04-4.15700E+01 1.94127E-01 3.00446E+03 1.52192E+00-1.31153E+03
 -1      2513 1.35301E+04 2.85681E+01-3.74386E+01 3.07025E+03-6.66403E+00-1.37177E+03
 -1      2514-6.77957E+03-9.32139E+00-2.11913E+00 2.46441E+03 5.58963E+00-1.09423E+03
 -1      2515 4.11198E+03-2.74724E+01-5.68059E+00 1.50063E+03-8.74412E+00-6.05168E+02
 -1      2516-2.52558E+02 4.16237E+01-1.34823E+01 7.99129E+02-5.86451E+00-3.45379E+02
 -1      2517 2.52999E+02-3.99058E+01 1.48502E+01 7.98527E+02 5.22641E+00-3.44686E+02
 -1      2518 1.92034E+03-4.30816E+01-1.88143E+01 1.12120E+03-7.30215E+00-4.52369E+02
 -1      2519-1.92740E+03 4.45613E+01 1.87382E+01 1.11708E+03 6.16882E+00-4.49474E+02
 -1      2520-3.70432E+03 3.48291E+01 2.37495E+01 1.42779E+03-2.69792E+00-5.83879E+02
 -1      2521 2.65154E+04-3.62303E+01-1.12030E+01 2.78465E+03-1.79246E+01-1.11058E+03
 -1      2522-9.70405E+03 3.43655E+01 1.96371E+01 2.02444E+03 1.66491E+01-8.22174E+02
 -1      2523-9.63120E+03-1.15779E+01-7.69820E-01 2.75324E+03 6.21825E+00-1.21059E+03
 -1      2524 1.92130E+04-4.52993E+01-2.08156E+01 2.52756E+03-1.99640E+01-1.01295E+03
 -1      2525-2.66379E+04 5.16814E+01 2.44892E+01 2.77659E+03 1.38799E+01-1.10679E+03
 -1      2526 9.70361E+03-3.14527E+01-1.98826E+01 2.04254E+03-5.94461E+00-8.24056E+02
 -1      2527 6.76636E+03 5.73755E+00 1.63841E+00 2.46931E+03-4.63283E+00-1.08910E+03
 -1      2528 9.63944E+03 1.23872E+01 5.06918E-02 2.75172E+03-6.15895E+00-1.20875E+03
 -1      2529-1.92218E+04 4.41783E+01 2.07453E+01 2.52437E+03 1.82327E+01-1.01210E+03
 -1      2530 5.17187E+03-3.48238E+01 9.68698E+00 2.25239E+03-3.87756E+00-9.89297E+02
 -1      2531-5.18533E+03 3.86777E+01-8.40065E+00 2.25320E+03 9.81042E-01-9.92214E+02
 -1      2532-3.18176E+03 7.76914E+00-6.98643E-01 1.87024E+03 5.14255E+00-8.37232E+02
 -1      2533-1.23414E+04 2.25309E+01-2.18808E+01 2.97810E+03 1.86718E+00-1.31347E+03
 -1      2534-1.35170E+04 3.27245E+00 1.23402E+01 3.10065E+03 2.40486E+01-1.36247E+03
 -1      2535 3.64888E+04-3.14311E+01-1.02596E+02 3.24485E+03 3.23002E+02-1.12036E+03
 -1      2536-3.67639E+04 5.10232E+01 7.21649E+01 3.18568E+03-2.99035E+02-1.14658E+03
 -1      2537 6.17061E+03-1.64668E+01-1.27421E+00 1.60626E+03-1.37767E+01-6.42868E+02
 -1      2538 9.72288E+03-5.03743E+01-2.30956E+01 1.71013E+03 6.44183E-01-6.98087E+02
 -1      2539-6.03368E+02-4.54474E+01-1.67531E+01 2.05951E+02-1.48348E+01-8.14641E+01
 -1      2540-6.71413E+01-4.35867E+01-1.81139E+01 5.34439E+02-1.15722E+01-2.14441E+02
 -1      2541-2.45774E+03 3.04987E+01-1.46951E+01 1.69214E+03-1.79092E+00-7.36125E+02
 -1      2542 3.70772E+04-4.48437E+01-3.46346E+01 2.93405E+03 5.32330E+01-1.13485E+03
 -1      2543 3.29237E+04 2.11085E+01 1.00949E+01 2.85186E+03-2.51931E+01-1.13891E+03
 -1      2544 2.84979E+02 5.57698E+01-2.39668E+01-1.33477E+01-6.17217E+00 1.64006E+00
 -1      2545-2.44119E+04-5.36971E+00-3.28405E+00 2.52603E+03 1.45419E+01-1.01532E+03
 -1      2546-5.59590E+02 3.67278E+01-1.68320E+01 9.26708E+02-3.32333E+00-4.10839E+02
 -1      2547 3.67064E+03-4.55996E+01-1.70520E+01 1.29982E+03-5.77123E+00-5.26415E+02
 -1      2548 5.60418E+02-3.66870E+01 1.71269E+01 9.26365E+02 3.60443E+00-4.10780E+02
 -1      2549-5.53015E+03 3.95043E+01 1.12000E+01 1.46795E+03 2.24238E+00-5.97522E+02
 -1      2550-3.34372E+04 3.54820E+00-4.32982E-01 2.70569E+03-1.34220E+01-1.07289E+03
 -1      2551 1.04621E+04-4.32269E+01 2.41625E+01 2.60275E+03-7.28692E+00-1.13050E+03
 -1      2552-1.04466E+04 4.14979E+01-2.53230E+01 2.60257E+03 4.67550E+00-1.12868E+03
 -1      2553 2.44374E+04 4.88352E+00 2.49613E+00 2.52374E+03-1.55737E+01-1.01599E+03
 -1      2554-6.80704E+03 2.05641E+01-8.06006E+00 2.25782E+03-3.98583E+00-9.90500E+02
 -1      2555 6.76319E+03-2.47116E+01 6.02662E+00 2.25152E+03 9.70454E+00-9.77059E+02
 -1      2556 1.29170E+04-1.28151E+01-5.99932E+00 2.00677E+03-5.63910E+00-7.99421E+02
 -1      2557-1.29168E+04 1.14829E+01 7.05633E+00 1.99713E+03 4.84750E+00-7.92413E+02
 -1      2558 1.26307E+02 6.04051E+01-3.10736E+01-2.44460E+02-4.59668E+00 8.62289E+01
 -1      2559-3.24008E+03 3.24612E+01 1.26260E+01 1.22174E+03 9.85151E+00-4.93762E+02
 -1      2560 1.39813E+03-4.21793E+01 1.72730E+01 1.29012E+03 8.22036E+00-5.52276E+02
 -1      2561-1.42316E+03 3.98363E+01-1.78463E+01 1.27739E+03-3.58646E+00-5.69432E+02
 -1      2562 1.70897E+04-2.21018E+01-8.81729E+00 2.24820E+03-5.53483E+00-9.01686E+02
 -1      2563-1.32254E+04 2.85199E+01 3.13575E+01 2.54592E+03 1.90544E+00-6.91479E+02
 -1      2564-1.73317E+04 2.25291E+01 9.38747E+00 1.74162E+03-3.35422E+00-1.02061E+03
 -1      2565-3.05606E+04 7.34662E+00-7.85002E+00 1.24763E+03 8.37713E+00-4.67342E+02
 -1      2566-2.02907E+04 1.84468E+01-4.95418E+01 2.33975E+03 3.43686E+01-5.39898E+02
 -1      2567-2.45668E+04-5.83234E+01-3.72843E+01 1.37242E+03 2.79191E+01-9.50864E+02
 -1      2568-6.55583E+03 1.06644E+02 1.04081E+02 2.62882E+03-2.85219E+01-1.12299E+03
 -1      2569-2.22729E+04 8.24545E+01 6.64831E+01 1.34522E+03-2.37285E+01-9.26986E+02
 -1      2570-1.83931E+04 5.33566E+01 4.52012E+01 2.29147E+03-2.29405E-01-5.20056E+02
 -1      2571-5.69846E+03-4.31280E+01-5.59540E+01 2.55583E+03 1.17244E+01-1.06690E+03
 -1      2572-4.99656E+02-2.32655E+01 1.46679E+01-2.24725E+02 6.46196E+00 2.17256E+02
 -1      2573-6.43642E+02-6.22050E+01 1.42888E+00-2.07084E+02-4.18862E+00 1.59107E+02
 -1      2574-6.24393E+02-3.51959E+01-1.22741E+01-2.05834E+02-6.67354E+00 2.01967E+02
 -1      2575-7.61276E+02-6.64125E+01-2.67610E+01-2.00845E+02 5.51598E+00 1.59095E+02
 -1      2576-1.26321E+02-9.16632E+01 1.50246E+01-4.43056E+02 2.60810E+00 2.13007E+02
 -1      2577 1.58237E+02-3.22106E+01 2.11077E+01-3.81571E+02 2.29154E+00 8.88233E+01
 -1      2578 1.24596E+02-1.99812E+01 9.93131E+00-5.05301E+02-7.33690E+00 8.96070E+01
 -1      2579 3.45628E+02 2.51229E+01 8.41583E+00-4.97456E+02-2.36491E-01 8.71203E+01
 -1      2580 5.12897E+01-5.56780E+00 4.03956E+01-5.07937E+02-1.28049E+01 1.90529E+02
 -1      2581 4.24352E+02 4.30689E+01 3.24058E+01-3.82863E+02-2.81953E+00 8.22805E+01
 -1      2582-8.12947E+03-1.18488E+03 6.34764E+02 3.15270E+03-6.96680E+02-9.30057E+02
 -1      2583 8.40544E+03-3.55088E+01 7.16928E+02 5.53346E+03-4.54105E+02-2.31753E+03
 -1      2584-1.77425E+04-8.91514E+02-3.08986E+01 4.03564E+03-8.08824E+02-1.44458E+03
 -1      2585-3.97377E+04-2.32944E+03-9.48470E+02 3.56759E+03-1.16063E+03-1.42038E+03
 -1      2586-2.39180E+04-6.02970E+02-9.70923E+02 5.36731E+03-1.10049E+03-2.26211E+03
 -1      2587-1.37215E+04-1.14327E+03-2.14674E+02 5.24966E+03-9.16374E+02-1.98000E+03
 -1      2588 3.95644E+04 6.25051E+01 2.26095E+03 3.30899E+03 3.81438E+02-1.71903E+03
 -1      2589 5.02629E+04-2.46047E+02 3.82076E+03 2.34208E+03-2.70355E+01-1.03429E+03
 -1      2590 6.39380E+04 6.95110E+02 4.22096E+03 2.73836E+03 8.13970E+02-1.84367E+03
 -1      2591 3.37081E+04 1.39125E+02 3.03139E+03 5.20935E+03 4.57023E+02-2.07982E+03
 -1      2592 2.19279E+04 4.33407E+02 7.25228E+02 5.45017E+03 1.16299E+03-2.29538E+03
 -1      2593-2.76921E+02 4.67826E+01 2.94245E+01 3.52189E+02 9.85219E+00-1.19596E+02
 -1      2594-5.65154E+02 8.07292E+00 1.88729E+01 4.44884E+02 1.42085E+01-3.17844E+02
 -1      2595-5.11003E+02 5.59653E+01 3.97589E+00 7.58155E+02 1.50338E+01-1.72926E+02
 -1      2596-2.45084E+01 2.06336E+01 1.30953E+01 5.89405E+02-7.82988E-01-1.21778E+02
 -1      2597-1.95306E+02 5.07444E+01 2.87216E+01 6.82051E+02 1.65700E+01-2.67578E+02
 -1      2598-7.48623E+00 4.23648E+01 2.67244E+01 3.12602E+02 7.15973E+00-2.36230E+02
 -1      2599-2.24987E+02 6.51107E+01 4.21443E+01 8.18609E+02 1.02039E+01-3.27685E+02
 -1      2600-1.79343E+02 2.92792E+01 1.82466E+01 4.75916E+02 6.56918E+00-2.74059E+02
 -1      2601 3.34934E+01 9.94086E+00-1.81953E+00 6.42339E+02 1.40984E+01-2.52608E+02
 -1      2602-1.56808E+02 2.41682E+01 7.55278E+00 6.82219E+02 7.09595E+00-2.02550E+02
 -1      2603 3.80161E+04-7.31818E+01 4.88596E+02 3.21914E+03 3.10725E+02-1.71532E+03
 -1      2604 6.14815E+04 1.05521E+02 1.77959E+03 2.30914E+03 6.46716E+02-1.78202E+03
 -1      2605-1.69214E+04-2.10486E+02 3.04038E+01 4.06019E+03-6.87040E+02-1.34057E+03
 -1      2606-3.83079E+04-4.97365E+02-4.57963E+02 3.69626E+03-9.10022E+02-1.05182E+03
 -1      2607 1.00913E+03 3.09047E+01 2.44342E+01 1.22751E+02 7.15343E+00-7.18228E+01
 -1      2608 7.82688E+02 5.46350E+01 1.45509E+01 1.80885E+02 1.08931E+01-5.10508E+01
 -1      2609 1.38824E+03 4.43246E+01 2.34301E+01 5.24744E+01 1.05315E+01-1.35578E+01
 -1      2610 1.08594E+03 4.35021E+01 2.69617E+01-2.24490E+01 6.64033E+00 6.97824E+00
 -1      2611 8.66947E+02 5.68249E+01 1.93619E+01-8.92132E-01 7.86792E+00 1.00657E+01
 -1      2612 5.48757E+02 6.27614E+01 2.64067E+01 7.97679E+01 1.35637E+01-4.20633E+01
 -1      2613 2.31821E+02 3.99994E+01 2.55973E+01 1.83629E+02 1.18971E+01-7.23326E+01
 -1      2614 5.56164E+02 3.02457E+01 1.16091E+01 8.96960E+01 7.45965E+00-2.62880E+01
 -1      2615 2.90755E+02 3.93554E+01 1.98428E+01-7.48995E+00 7.56402E+00 5.67351E+00
 -1      2616 4.07728E+04-1.22219E+02 1.74688E+01 1.51434E+03-2.61519E+01-1.35827E+03
 -1      2617 1.36774E+04 1.14525E+02 8.00925E+01 3.02300E+03 1.74185E+00-1.18847E+03
 -1      2618 2.79454E+04-6.08147E+00 1.11798E+01 2.01604E+03-2.54935E+01-1.38054E+03
 -1      2619 4.45054E+04 2.96453E+01-7.66841E+01 1.55353E+03 3.89656E+01-1.45502E+03
 -1      2620 1.63132E+04-1.04806E+02-2.59337E+01 3.10401E+03-2.51130E+01-1.22093E+03
 -1      2621 2.96909E+04-3.87221E+01-3.47623E+01 2.80889E+03-1.44665E+00-1.14365E+03
 -1      2622 2.48480E+04 7.42128E+01-4.25506E+01 3.25660E+03-2.53915E-03-6.06733E+02
 -1      2623 1.17998E+04 2.64659E+01 3.67565E+01 3.33446E+03-4.20673E+01-8.40154E+02
 -1      2624 2.81417E+04-1.18289E+02-1.17302E+01 3.32864E+03 3.60866E+00-6.27588E+02
 -1      2625 4.73112E+04-9.43949E+01-3.23067E+01 1.50866E+03 2.98739E+01-1.08067E+03
 -1      2626 5.11629E+04 9.82118E+01 1.79390E+01 1.50070E+03-2.89498E+01-1.10493E+03
 -1      2627 3.90517E+04-5.73330E+01-7.13778E+01 2.81557E+03 5.74155E+01-5.92838E+02
 -1      2628 4.26925E+04 3.24814E+01 5.26196E+01 2.86521E+03-3.61273E+01-5.65287E+02
 -1      2629 4.84060E+04-2.16710E+02 2.07987E+03 2.27380E+03-2.45646E+01-1.25000E+03
 -1      2630-7.40503E+03-1.20819E+03 3.64391E+02 3.43099E+03-5.93010E+02-9.06792E+02
 -1      2631 1.07640E+01 2.29853E+01 9.96487E+00 4.54545E+02 1.51210E+01-3.08158E+02
 -1      2632-3.07488E+02 1.64783E+01 6.66489E+00 4.90391E+02 1.13723E+01-3.51657E+02
 -1      2633 9.49110E-01 8.15641E+00 7.12562E+00 7.14959E+02 1.32415E+01-1.94212E+02
 -1      2634-1.14665E+02 5.25349E+00 7.78034E+00 8.24844E+02 8.33685E+00-2.11661E+02
 -1      2635 2.83732E+02 4.92527E+00 1.28793E+01 3.91683E+01 8.90333E+00-1.61105E+01
 -1      2636 5.52688E+02 2.66887E+01 8.25185E+00-6.35909E+01 8.25287E+00 2.05017E+01
 -1      2637 2.55128E+02 4.91720E-01 7.93436E+00 1.66795E+02 6.70584E+00-3.54583E+01
 -1      2638-2.29025E+04 7.11155E+01 3.03912E+01 2.86250E+03-1.25448E+01-8.40923E+02
 -1      2639-1.02274E+04 1.19991E+01 4.92893E+01 3.21381E+03-2.32912E+01-8.19239E+02
 -1      2640-3.23843E+04-6.73245E+01 2.41106E+01 2.75683E+03-1.24744E+01-6.34613E+02
 -1      2641-1.98000E+04-6.95495E+00 2.54322E+01 3.18416E+03-8.45948E+00-6.53395E+02
 -1      2642-1.01373E+04-6.26653E+01-5.92306E+01 3.01930E+03-4.60690E+01-1.19423E+03
 -1      2643-2.33023E+04-1.51720E+01-3.79161E+01 3.13704E+03 7.68616E-01-6.10204E+02
 -1      2644-3.62422E+04 3.20368E+01-3.25099E+01 2.76053E+03 2.75986E+01-6.07478E+02
 -1      2645-1.30802E+04 1.41175E+02 1.13068E+02 2.94475E+03 8.44740E+00-1.15035E+03
 -1      2646-1.18827E+04-2.38785E+01-2.19420E+01 3.41826E+03 3.08071E+01-8.44175E+02
 -1      2647 2.20697E+03-1.06261E+02-6.87428E+01 3.07892E+03 4.31443E+01-8.80205E+02
 -1      2648-6.91701E+03 6.09318E+01 4.56368E+01 3.37385E+03-1.65238E+01-6.95399E+02
 -1      2649 6.86934E+03 7.18919E+01 3.82115E+00 2.88882E+03-1.23237E+01-7.70326E+02
 -1      2650 4.72599E+03 3.98440E+01-1.14468E+01 3.19508E+03 2.55633E+01-1.41739E+03
 -1      2651 1.77997E+03 9.21000E+01 9.24765E+01 2.95148E+03-3.34545E+01-8.34581E+02
 -1      2652-1.07655E+04 3.54509E+01 3.49261E+01 3.26404E+03-4.54532E+01-8.05475E+02
 -1      2653 6.44205E+03-3.04120E+01 1.71779E+01 2.84464E+03 8.32893E+00-7.51699E+02
 -1      2654-6.37009E+03-1.04968E+02-5.89920E+01 3.31267E+03 1.02111E+01-7.01890E+02
 -1      2655 4.50724E+03-6.90664E+01-2.50168E+01 3.16085E+03 2.20855E+01-1.40672E+03
 -1      2656-5.92266E+03-1.83410E+01-1.50640E+01 2.75509E+03 1.24530E+01-7.42112E+02
 -1      2657-6.31762E+03 5.35778E+00 3.43408E+01 2.79820E+03-1.65442E+01-7.42477E+02
 -1      2658-2.29258E+04 6.59028E+01 5.11419E+01 2.77130E+03 3.47726E+01-1.07499E+03
 -1      2659-7.10241E+03-5.74190E+01-5.39515E+01 2.70559E+03-3.99604E+01-1.07814E+03
 -1      2660-2.28013E+04-4.77047E+00 3.77054E+01 2.45987E+03-9.80470E+00-5.49530E+02
 -1      2661-1.62557E+04 7.14252E+01 4.12591E+01 2.58781E+03-8.78030E+00-7.54372E+02
 -1      2662-9.39209E+03 1.17348E+02 9.85846E+01 2.66731E+03 9.99359E+00-1.04528E+03
 -1      2663-2.59148E+04 3.33236E+01-1.98032E+01 2.49548E+03 2.31621E+01-5.61865E+02
 -1      2664-1.62614E+04 5.41119E+01 2.84786E+01 2.47291E+03 2.26620E+01-9.80699E+02
 -1      2665-5.47207E+03 4.37111E+00 3.04186E+01 3.18863E+03 1.21211E+01-6.72136E+02
 -1      2666 6.72037E+03 6.10726E+01 3.34050E+01 2.75953E+03-2.70515E+01-6.89036E+02
 -1      2667 4.91436E+03 4.81104E+01 3.32846E+01 2.99590E+03-5.83509E-01-1.34561E+03
 -1      2668-7.25084E+03 1.22630E+01 4.68489E+01 2.88897E+03-1.62932E+01-7.35545E+02
 -1      2669-1.66597E+04-1.89929E+01-3.29076E+01 2.82980E+03-7.37886E-01-5.57972E+02
 -1      2670 5.78645E+02 5.17395E+01 6.36260E+01 2.07256E+03-2.59596E+01-5.82697E+02
 -1      2671-3.75480E+03 1.61374E+01 1.79563E+01 2.30015E+03-3.52124E+01-5.71905E+02
 -1      2672 2.31701E+03-3.85591E+01 1.84803E+01 2.03231E+03 8.64652E+00-5.36249E+02
 -1      2673-2.22410E+03-8.48504E+01-4.02040E+01 2.38223E+03 6.68183E+00-5.09520E+02
 -1      2674 1.61046E+03-6.90708E+01-1.62215E+01 2.24021E+03 4.29894E+00-9.85848E+02
 -1      2675 2.26496E+04 5.54061E+01 8.28701E+01 2.08202E+03-3.81106E+01-1.36313E+03
 -1      2676 2.69990E+04-3.45661E+01-8.93583E+00 1.69878E+03-1.22617E+01-1.24872E+03
 -1      2677 3.20900E+04-1.05599E+02-6.54154E+01 1.62433E+03-6.43134E+00-1.43348E+03
 -1      2678-1.39053E+04-1.95551E+01 2.46586E+01 2.84139E+03-2.84167E+00-5.64465E+02
 -1      2679 9.51158E+03-6.78620E+00-2.48166E+01 2.84427E+03 3.69436E+00-1.27256E+03
 -1      2680-2.54387E+04 2.81689E+00 2.75706E+01 1.93413E+03-8.19680E+01-1.38858E+03
 -1      2681-1.97534E+04 7.73154E+01 6.00215E+01 1.98955E+03-5.41488E+01-1.30470E+03
 -1      2682-3.06128E+04-1.05251E+02-8.88434E+01 1.63256E+03 1.53766E+01-1.43670E+03
 -1      2683-2.47232E+04-3.07428E+01-4.12307E+01 1.68350E+03-1.90189E+01-1.21346E+03
 -1      2684-4.53272E+03 6.77289E+01 1.78293E+01 3.15812E+03-2.46021E+01-1.40009E+03
 -1      2685-1.68513E+03-8.94642E+01-9.27777E+01 2.95381E+03 3.39137E+01-8.33109E+02
 -1      2686 1.07222E+04-2.60987E+01-3.26929E+01 3.25792E+03 4.41355E+01-8.03256E+02
 -1      2687-6.36904E+03 2.74024E+01-1.40704E+01 2.84972E+03-7.55815E+00-7.50774E+02
 -1      2688 6.30384E+03 1.12372E+02 6.65128E+01 3.30480E+03-1.10057E+01-7.03480E+02
 -1      2689-2.42084E+04 4.93446E+01-2.56040E+00 1.92821E+03-7.49925E+01-1.33496E+03
 -1      2690-2.99135E+04-9.19737E+00 6.53081E+00 1.98514E+03-4.51073E+01-1.14053E+03
 -1      2691-3.92743E+04 3.73304E+01-3.80651E+00 1.60861E+03-4.37896E+00-1.13067E+03
 -1      2692-3.34766E+04 9.21401E+01 6.08910E+01 1.58596E+03-3.06720E+00-1.30702E+03
 -1      2693-1.21270E+03 4.86011E+01 1.69386E+01 1.05737E+03 7.46606E+00-2.98542E+02
 -1      2694-4.43455E+02 9.29828E+00 2.19475E+01 1.14558E+03 1.30051E+01-2.89367E+02
 -1      2695-6.71964E+02 1.01145E+01 2.25733E+01 1.02441E+03 8.33807E+00-2.06436E+02
 -1      2696-4.05376E+02-2.12913E+01-2.41171E+01 1.00609E+03 1.16791E+01-4.08535E+02
 -1      2697-1.39039E+03 1.24354E+01 2.39110E+01 9.22015E+02-3.41651E+00-2.01184E+02
 -1      2698 1.20714E+03-4.65328E+01-2.03825E+01 1.05945E+03-8.38807E+00-2.96457E+02
 -1      2699 4.42519E+02-1.02655E+01-2.28276E+01 1.14550E+03-1.35058E+01-2.88399E+02
 -1      2700 1.38634E+03-3.26570E+01-2.44216E+01 9.22601E+02-3.49182E-02-1.99531E+02
 -1      2701 6.75301E+02-1.12248E+01-2.25639E+01 1.02479E+03-1.16038E+01-2.07317E+02
 -1      2702 4.07852E+02 1.93589E+01 2.51655E+01 1.00812E+03-9.42610E+00-4.09809E+02
 -1      2703-7.08669E+02 6.69275E+00 8.04240E+00 4.71070E+02 1.22156E+01-3.72492E+02
 -1      2704-1.05819E+03 3.29020E+01 1.32988E+01 6.83225E+02 1.82705E+00-4.89630E+02
 -1      2705-1.55113E+03 9.49655E+00 1.42196E+01 7.16635E+02-8.73410E+00-4.32392E+02
 -1      2706-1.17717E+03 6.02614E+01 2.32710E+01 4.93988E+02 1.67150E+01-4.18670E+02
 -1      2707-1.68547E+03 5.12350E+01 2.05135E+01 5.14293E+02 1.03519E+00-3.75942E+02
 -1      2708-4.53790E+02 2.31708E+01-1.68896E+00 9.23703E+02 9.61793E+00-1.90158E+02
 -1      2709 1.05848E+03-3.23169E+01-1.36028E+01 6.83177E+02-2.33701E+00-4.88974E+02
 -1      2710 1.55503E+03-1.03424E+01-1.60094E+01 7.18850E+02 7.55846E+00-4.32461E+02
 -1      2711 1.68276E+03-4.54046E+01-1.39717E+01 5.20919E+02 2.76298E+00-3.80151E+02
 -1      2712 1.16873E+03-5.34875E+01-2.49296E+01 4.97645E+02-1.67107E+01-4.18825E+02
 -1      2713 3.77711E+03-5.41198E+00 3.36869E+01 1.14285E+03-1.62882E+01-7.41069E+02
 -1      2714 4.43446E+03-2.70867E+01-3.07930E+00 1.09740E+03-1.58558E+01-7.46435E+02
 -1      2715 4.83296E+03-5.55203E+01-4.64631E+01 8.56024E+02 1.16570E+01-7.59765E+02
 -1      2716 7.06083E+02-2.25475E+00 7.12747E+00 1.70429E+03 5.44815E+00-7.54180E+02
 -1      2717 4.28108E+03-3.31449E+01-1.84961E+01 9.13046E+02-9.05954E+00-6.61792E+02
 -1      2718-1.91125E+03-1.22530E+01-2.70154E+00 1.83504E+03 1.75050E+01-4.55264E+02
 -1      2719 3.96794E+02-6.76818E+01-3.37085E+01 1.69257E+03 2.67976E+01-4.80064E+02
 -1      2720-1.05512E+03 9.94270E+00 2.09975E+01 1.75282E+03-3.17568E+00-3.56422E+02
 -1      2721 1.07174E+03-1.86017E+01 6.90485E-01 1.55604E+03-4.75393E+00-4.00118E+02
 -1      2722-2.12494E+03 1.19711E+02 4.12451E+01 3.08034E+03-3.11345E+01-8.72749E+02
 -1      2723-6.79283E+03-9.07933E+01-5.93988E+00 2.89644E+03 7.27259E+00-7.79530E+02
 -1      2724-4.82507E+03-9.49262E+01-6.30841E+01 3.18218E+03 3.37502E+00-1.37383E+03
 -1      2725 6.83743E+03-8.96247E+01-5.70380E+01 3.33967E+03-9.99937E+00-7.12164E+02
 -1      2726-2.27033E+04-9.95995E+01-8.38716E+01 2.08076E+03 5.70959E+01-1.34428E+03
 -1      2727-2.80444E+04-5.72092E+00-1.52036E+01 2.02716E+03 2.53492E+01-1.40582E+03
 -1      2728-2.70435E+04 3.72789E+01 1.29272E+01 1.69140E+03-9.24891E-01-1.24426E+03
 -1      2729-3.20825E+04 1.07410E+02 8.86151E+01 1.63665E+03-2.17098E+01-1.45250E+03
 -1      2730 2.54400E+04-2.35793E+00-2.23332E+01 1.93119E+03 8.31305E+01-1.38328E+03
 -1      2731 1.97563E+04-7.76415E+01-5.49254E+01 1.99120E+03 5.49814E+01-1.30654E+03
 -1      2732 3.06132E+04 1.12165E+02 8.83592E+01 1.63888E+03-1.67231E+01-1.43591E+03
 -1      2733 2.47012E+04 2.74922E+01 3.67608E+01 1.68549E+03 2.06768E+01-1.21630E+03
 -1      2734-1.11757E+04 9.48270E+00 3.37444E+01 2.65499E+03 8.66726E+00-5.70670E+02
 -1      2735 8.95572E+03-1.17836E+01-2.22957E+01 1.37310E+03 2.29647E+01-9.48063E+02
 -1      2736 6.75766E+03-6.16111E+01-4.72486E+01 1.39983E+03 2.65897E+01-9.13553E+02
 -1      2737 1.10106E+04 5.70689E+01 5.29095E+01 1.17477E+03-1.49253E+01-1.03968E+03
 -1      2738 8.69975E+03 1.11390E+01 3.98836E+01 1.20989E+03 1.50091E+01-8.59446E+02
 -1      2739-8.93630E+03 8.71351E+00 2.16681E+01 1.37726E+03-4.48677E+01-9.57100E+02
 -1      2740-6.77129E+03 5.70821E+01 3.56521E+01 1.40314E+03-3.15453E+01-9.05635E+02
 -1      2741-1.10083E+04-7.20895E+01-7.87057E+01 1.18354E+03 6.37671E+00-1.03319E+03
 -1      2742-8.71598E+03-3.95274E+01-6.62784E+01 1.20352E+03-1.04924E+01-8.53149E+02
 -1      2743-1.64352E+03 8.13007E+01 2.37138E+01 2.23917E+03-1.48161E+01-9.85417E+02
 -1      2744-5.73215E+02-6.21330E+01-5.80325E+01 2.07259E+03 2.03208E+01-5.88459E+02
 -1      2745 3.74057E+03-4.84154E+01-3.77072E+01 2.29548E+03 2.11507E+01-5.69195E+02
 -1      2746 2.21986E+03 8.21491E+01 3.28887E+01 2.38618E+03-1.31027E+01-5.11694E+02
 -1      2747-2.30381E+03 3.41837E+01-1.41329E+01 2.04666E+03-2.07227E+01-5.51108E+02
 -1      2748 2.26619E+04-7.73571E+01-4.56617E+01 2.88138E+03 6.03596E+00-8.28754E+02
 -1      2749 1.02015E+04-1.09748E+01-5.24557E+01 3.21282E+03 2.16666E+01-8.17309E+02
 -1      2750 3.21247E+04 5.95522E+00-3.85887E+01 2.77972E+03 6.76992E+00-6.34091E+02
 -1      2751 1.98021E+04 1.82877E+01-2.55326E+01 3.17845E+03 5.25458E+00-6.58180E+02
 -1      2752 1.01481E+04 6.49553E+01 6.91031E+01 3.01749E+03 4.75641E+01-1.19529E+03
 -1      2753-1.82062E+04 2.12424E+00 2.32463E+01 1.74775E+03-7.48574E+01-1.24842E+03
 -1      2754-1.40572E+04 7.86762E+01 5.53454E+01 1.78958E+03-5.19037E+01-1.18108E+03
 -1      2755-2.20638E+04-8.09032E+01-9.27642E+01 1.50341E+03-2.70141E+00-1.28416E+03
 -1      2756-1.76585E+04 1.06772E+01-9.76327E+00 1.53296E+03-2.36034E-01-1.12355E+03
 -1      2757-3.22555E+03 3.95630E+01 7.82025E+00 2.85674E+03-1.37294E+01-1.26768E+03
 -1      2758-1.16472E+03-6.24295E+01-6.02219E+01 2.64711E+03 2.02430E+01-7.46591E+02
 -1      2759 7.67434E+03-1.91364E+01-2.90947E+01 2.94777E+03 3.34506E+01-7.26349E+02
 -1      2760-4.50458E+03 9.58571E+01-5.78432E+00 2.57433E+03 2.87497E+00-6.87268E+02
 -1      2761 4.54026E+03 8.13193E+01 4.99137E+01 3.00733E+03-1.50096E+01-6.47650E+02
 -1      2762 2.42085E+04-5.08038E+01 4.67380E-01 1.92729E+03 7.09031E+01-1.33542E+03
 -1      2763 2.99258E+04 3.99281E+00-2.11478E+01 1.98475E+03 4.06023E+01-1.14536E+03
 -1      2764 3.34702E+04-9.29232E+01-6.54501E+01 1.58557E+03 3.69917E-02-1.30155E+03
 -1      2765 3.92800E+04-4.34833E+01 1.83461E+01 1.61562E+03 1.97743E+01-1.14232E+03
 -1      2766 1.82049E+04-1.71551E+00-1.76864E+01 1.74784E+03 7.25983E+01-1.24949E+03
 -1      2767 1.40580E+04-6.37834E+01-4.42557E+01 1.79188E+03 4.51165E+01-1.17113E+03
 -1      2768 2.20514E+04 8.35675E+01 9.36876E+01 1.51171E+03-4.57510E+00-1.29599E+03
 -1      2769 1.76905E+04 4.28768E+00 4.50881E+01 1.54911E+03 1.97106E+01-1.10024E+03
 -1      2770 3.21852E+03-5.64842E+01-2.65180E+01 2.85653E+03 2.59081E+01-1.26778E+03
 -1      2771-4.56215E+03-1.26336E+01-2.24962E+01 2.53194E+03 2.57246E+01-6.25024E+02
 -1      2772 8.69468E+02-8.95744E+01-4.98102E+01 2.30345E+03 3.21608E+01-6.58511E+02
 -1      2773 2.60105E+03 4.79871E+01 1.30681E+01 2.12462E+03-8.73079E+00-5.67667E+02
 -1      2774 1.81579E+03 4.53562E+01 1.75408E+01 2.34181E+03 9.46366E+00-1.01449E+03
 -1      2775-2.61574E+03 3.78070E+01 3.57378E+01 2.45821E+03-1.41092E+01-5.10124E+02
 -1      2776-1.32771E+04-2.61932E+01-4.37452E+01 2.76695E+03-5.41096E+00-5.74226E+02
 -1      2777 1.70794E+04-4.52009E+01-1.63823E+00 1.73560E+03 6.63684E+01-1.19791E+03
 -1      2778 2.12567E+04 6.34549E+00-1.29584E+01 1.79770E+03 3.95504E+01-1.02828E+03
 -1      2779 2.77253E+04-3.64433E+01 1.69850E+01 1.44118E+03 1.81204E+01-1.02438E+03
 -1      2780 7.18718E+03 7.62946E+01 7.33064E+01 2.70679E+03 4.05912E+01-1.07172E+03
 -1      2781 2.34646E+04-8.27368E+01-5.65669E+01 1.41099E+03-6.02668E+00-1.16595E+03
 -1      2782 1.61064E+04-7.00753E+01-4.29009E+01 2.59558E+03 5.58356E+00-7.54242E+02
 -1      2783 7.20680E+03-1.55994E+01-4.69485E+01 2.88697E+03 1.93525E+01-7.35962E+02
 -1      2784 1.38923E+04 2.25331E+01-1.45007E+01 2.84638E+03 4.56477E+00-5.83790E+02
 -1      2785 2.26793E+04 8.25737E+00-2.88982E+01 2.49045E+03 7.09303E+00-5.66609E+02
 -1      2786 8.32950E+03-8.96086E+01-1.84770E+01 2.93413E+03 1.54816E+01-7.58833E+02
 -1      2787-6.16421E+03-3.10743E+01-6.50650E+01 3.43836E+03 5.76575E-01-7.29811E+02
 -1      2788 6.08672E+03-9.14437E+01-8.51870E+00 3.20011E+03 8.69286E+00-1.40369E+03
 -1      2789-1.70915E+04 4.29807E+01-4.21140E+00 1.73536E+03-6.34453E+01-1.19523E+03
 -1      2790-2.12675E+04-9.25613E+00 1.10313E+01 1.79704E+03-4.15322E+01-1.02708E+03
 -1      2791-2.34792E+04 8.39123E+01 5.03652E+01 1.37985E+03 7.01095E+00-1.15600E+03
 -1      2792-2.77087E+04 5.09517E+01-1.95109E+01 1.41909E+03-2.10935E+01-1.01864E+03
 -1      2793-8.88277E+03-5.39695E+01-6.01320E+01 1.55162E+03 3.78563E+01-9.96981E+02
 -1      2794-1.08065E+04 1.99632E-01 6.67484E-01 1.49699E+03 1.67759E+01-1.04687E+03
 -1      2795-1.03394E+04 5.20408E+01 3.60229E+01 1.24595E+03 1.13587E+01-9.00148E+02
 -1      2796-1.20661E+04 9.10947E+01 6.02447E+01 1.19607E+03-2.64858E+01-1.06394E+03
 -1      2797-1.81558E+03-5.21956E+01-2.69145E+01 2.33760E+03-1.12901E+00-1.01739E+03
 -1      2798-1.48773E+04 5.06017E+01 7.32775E+00 1.73764E+03-1.02796E+01-1.19236E+03
 -1      2799-1.37836E+04-3.22778E+01-4.92854E+01 1.71834E+03-2.25970E+00-1.17360E+03
 -1      2800 2.76797E+04-1.16652E+02-1.01546E+02 2.29929E+03 3.57871E+01-1.50836E+03
 -1      2801 3.56871E+04-2.22595E+01 5.19686E+00 2.26204E+03 7.15008E+01-1.45928E+03
 -1      2802 4.18193E+04-1.15270E+02-4.00680E+01 1.74938E+03 6.01701E+00-1.52353E+03
 -1      2803 6.92090E+03 1.10610E+02 1.31179E+01 3.40029E+03-1.81861E+01-1.50966E+03
 -1      2804 3.42053E+04-9.85425E+01-1.05331E+02 1.73449E+03 1.88287E+01-1.34900E+03
 -1      2805 2.43551E+04-5.64234E+01-7.51117E+01 1.57890E+03 8.85227E+00-1.20608E+03
 -1      2806 2.97913E+04-8.97703E+01-5.16367E+01 1.54357E+03-6.99480E+00-1.39455E+03
 -1      2807 3.60123E+04-2.57484E+01 4.83931E+01 2.76381E+03-3.90704E+01-5.99645E+02
 -1      2808 1.31074E+04-1.49527E+02-1.14675E+02 2.94356E+03-1.11913E+00-1.14932E+03
 -1      2809 2.32924E+04 1.35313E+01 4.29558E+01 3.13882E+03 2.33032E+00-6.03846E+02
 -1      2810-1.06100E+01-2.88579E+01 1.58517E+01 9.28991E+01 7.35181E+00-2.82018E+01
 -1      2811-1.20888E+02-5.17980E+01 1.41087E+01 1.64119E+02 5.46519E+00-5.25373E+01
 -1      2812 1.70893E+02-1.61356E+01 1.76577E+01 1.23738E+02 6.28875E+00-4.14585E+01
 -1      2813-1.10472E+02-3.52623E+01 1.17378E+01 1.71408E+02 4.79196E+00-7.49654E+01
 -1      2814-2.97894E+04 9.08126E+01 5.28178E+01 1.54682E+03 8.50844E+00-1.39618E+03
 -1      2815-4.90349E+03-4.39765E+01-2.99006E+01 2.99667E+03-2.35664E-01-1.34551E+03
 -1      2816-2.43494E+04 5.77695E+01 7.64941E+01 1.57943E+03-8.57565E+00-1.20659E+03
 -1      2817-6.62555E+03-6.02498E+01-3.42072E+01 2.76501E+03 2.75660E+01-6.90194E+02
 -1      2818 5.42650E+03-8.66398E-02-3.14940E+01 3.18577E+03-1.19544E+01-6.73373E+02
 -1      2819-3.76701E+04-7.44274E+01-3.96478E+01 1.53009E+03 7.22850E+00-1.25860E+03
 -1      2820-4.34074E+04-5.44026E+01-4.13443E+01 1.55201E+03 1.37377E+01-1.12951E+03
 -1      2821-1.29967E+03 1.17524E+01 1.29025E+01 1.16864E+03 3.75184E+00-2.37647E+02
 -1      2822-2.17892E+03 5.42530E+01 4.98830E+00 1.05435E+03 1.01658E+01-2.44868E+02
 -1      2823-8.14202E+02 7.69054E+01 6.33570E+01 1.12966E+03 1.73444E+00-4.65360E+02
 -1      2824 1.29952E+03-1.12539E+01-1.32923E+01 1.16885E+03-3.32378E+00-2.38052E+02
 -1      2825 2.17453E+03-5.53474E+01-8.85647E+00 1.05239E+03-1.01431E+01-2.46989E+02
 -1      2826 8.17058E+02-7.43242E+01-6.08227E+01 1.12923E+03-2.19173E+00-4.66167E+02
 -1      2827-2.57100E+03 8.27152E+00 8.58026E+00 6.15737E+02 1.99933E+00-4.30064E+02
 -1      2828-2.06770E+03 7.55146E+00-7.34931E+00 5.93730E+02 6.11271E-01-4.57500E+02
 -1      2829 2.06789E+03-7.77386E+00 8.98443E+00 5.94251E+02-1.14687E+00-4.58356E+02
 -1      2830 2.56774E+03-1.10480E+01-1.01521E+01 6.19670E+02-2.12323E+00-4.29388E+02
 -1      2831 4.34067E+04 8.64607E+01 4.46147E+01 1.54277E+03-2.47555E+01-1.12800E+03
 -1      2832 3.76796E+04 8.69080E+01 4.94093E+01 1.51785E+03-5.08577E+00-1.26806E+03
 -1      2833 2.68291E+04 6.89573E+01 4.52115E+01 1.39235E+03-7.06324E+00-1.13806E+03
 -1      2834 9.39042E+03-1.21110E+02-1.00969E+02 2.66870E+03-1.01600E+01-1.04342E+03
 -1      2835 3.10174E+04 3.96392E+01 3.19560E+01 1.42299E+03-1.23447E+01-1.02397E+03
 -1      2836 1.66120E+04 1.83973E+01 3.74871E+01 2.83238E+03 4.43435E-01-5.59591E+02
 -1      2837 2.57455E+04-3.48747E+01 1.87760E+01 2.51212E+03-2.58434E+01-5.61119E+02
 -1      2838-3.10337E+04-3.93737E+01-3.26967E+01 1.42485E+03 9.77975E+00-1.02143E+03
 -1      2839-2.68330E+04-6.14310E+01-4.28473E+01 1.39007E+03 5.48954E+00-1.13618E+03
 -1      2840-1.90961E+03 1.49880E+00 2.93362E+01 2.22905E+03 1.66711E+01-4.67990E+02
 -1      2841 2.17633E+03 3.27775E+01 2.77635E+01 1.91346E+03-1.33782E+01-4.73258E+02
 -1      2842 1.61525E+03 4.01634E+01 2.35049E+01 2.07889E+03 3.69708E+00-9.17464E+02
 -1      2843-2.11599E+04 9.20434E+01 4.11336E+01 1.38661E+03 1.14836E+01-1.25760E+03
 -1      2844-3.48043E+03-5.29736E+01-3.24351E+01 2.69002E+03 1.01738E+00-1.20823E+03
 -1      2845-1.72321E+04 7.21676E+01 7.25608E+01 1.39319E+03-1.18647E+01-1.07338E+03
 -1      2846 1.72321E+04-5.18938E+01-6.06079E+01 1.41145E+03 6.94027E+00-1.08258E+03
 -1      2847 2.11418E+04-9.15007E+01-5.10581E+01 1.39114E+03-9.73626E+00-1.25506E+03
 -1      2848 3.46080E+03 4.26569E+01 2.28985E+01 2.69194E+03-1.90407E-01-1.20721E+03
 -1      2849 3.84585E+03-8.53030E+00-2.93529E+01 2.86519E+03-1.25697E+01-6.09439E+02
 -1      2850-4.67204E+03-3.77298E+01-1.08160E+01 2.48911E+03 1.59098E+01-6.32750E+02
 -1      2851 1.94956E+02 2.70240E+01 7.89184E+00 2.91026E+02 5.21827E+00-2.49669E+02
 -1      2852 1.18002E+02 1.64473E+01 1.53667E+01 6.26745E+02 1.17457E+01-1.17794E+02
 -1      2853 3.47106E+04 8.39532E+01 4.20972E+01 1.64539E+03 1.28761E+01-1.45096E+03
 -1      2854 2.91167E+04 4.44893E+01 9.14235E+01 1.66320E+03-3.03279E+01-1.24984E+03
 -1      2855 3.36912E+03-8.38718E+01-6.33780E+00 2.20412E+03 1.65156E+01-5.71920E+02
 -1      2856-2.37540E+03-3.89760E+01-4.97784E+01 2.55961E+03 2.26138E-01-5.51366E+02
 -1      2857 2.46930E+03-6.30962E+01-3.61532E+01 2.36718E+03-5.73480E-01-1.01459E+03
 -1      2858 1.51646E+03-7.67925E+01-1.48202E+01 1.63786E+03 2.02528E+01-4.17683E+02
 -1      2859-1.01395E+03-3.47204E+01-3.30782E+01 1.89285E+03 3.90193E+00-4.05300E+02
 -1      2860 1.11190E+03-7.30733E+01 6.01752E+00 1.78285E+03-1.77581E+00-7.77089E+02
 -1      2861 1.00826E+04-8.93207E+01-3.58038E+01 1.08181E+03-4.74864E+00-9.71966E+02
 -1      2862 8.12399E+03-5.84585E+01-4.56699E+01 1.08711E+03 1.45914E+01-8.29944E+02
 -1      2863 5.91198E+03 2.47870E+01 2.51395E+01 9.17885E+02 4.47977E+00-7.98305E+02
 -1      2864 5.08721E+03 5.29632E+00 5.76416E+01 9.48536E+02-1.05301E+01-7.03063E+02
 -1      2865-6.75361E+02-2.92690E+01-5.97925E+00 3.49805E+01-3.28532E+00-1.44156E+01
 -1      2866-5.34962E+02-3.62445E+01 2.60958E+00 6.40163E+01-2.66845E-01-3.89913E+01
 -1      2867-8.01311E+02-4.63108E+01-7.46827E+00 8.61922E+01 1.95855E-01-5.36815E+01
 -1      2868-6.46243E+02-3.34359E+01 1.73379E+01 1.18133E+02 4.04735E-01-6.67749E+01
 -1      2869 8.89646E+03 6.55715E+01 6.75522E+01 1.55249E+03-4.26259E+01-1.00360E+03
 -1      2870 1.07987E+04 2.67634E+00 5.36325E+00 1.50254E+03-1.85461E+01-1.04371E+03
 -1      2871 1.03797E+04-4.30381E+01-3.09085E+00 1.24009E+03-5.44287E-01-9.16154E+02
 -1      2872 1.20676E+04-8.77757E+01-5.99971E+01 1.19128E+03 2.16347E+01-1.05933E+03
 -1      2873 1.17454E+03 7.18953E+01 7.91865E+01 2.65980E+03-2.83491E+01-7.49159E+02
 -1      2874-7.72993E+03 2.44533E+01 3.02978E+01 2.94745E+03-3.53348E+01-7.27177E+02
 -1      2875 4.55212E+03-3.30884E+01 2.66005E+01 2.60021E+03 8.40929E+00-6.75904E+02
 -1      2876-4.61855E+03-8.52393E+01-4.65418E+01 2.99942E+03 8.16633E+00-6.38957E+02
 -1      2877-1.49722E+04-3.91664E+01 5.67738E+00 3.53698E+03-1.65069E+02-9.39920E+02
 -1      2878 2.47845E+03 5.17543E+01 5.35005E+01 3.25495E+03-9.51311E+01-9.84781E+02
 -1      2879-7.63956E+03 2.61653E+01 2.48985E+01 3.44093E+03-4.73060E+01-7.74914E+02
 -1      2880 9.36108E+03 5.01281E+01-3.73973E+00 3.01298E+03-4.02875E+01-8.18658E+02
 -1      2881-9.53030E+03 4.23041E+00 2.39417E+01 2.84447E+03-3.83593E+00-1.27108E+03
 -1      2882-1.14125E+03 7.08292E+01 4.43563E+01 9.70541E+02 2.27958E+01-3.75126E+02
 -1      2883 1.14703E+03-6.45250E+01-3.45488E+01 9.68038E+02-2.07208E+01-3.80134E+02
 -1      2884-2.20660E+04-2.24386E+01 3.14987E+00 1.38575E+03-1.21295E+01-1.12660E+03
 -1      2885-1.37839E+04-6.59094E+01-6.64655E+01 1.24951E+03 6.56389E+00-1.14647E+03
 -1      2886-1.16280E+04-1.67043E+01-6.45568E+01 1.27598E+03 1.19816E+01-9.53442E+02
 -1      2887-2.46580E+03 6.65529E+01 3.92187E+01 2.36248E+03 4.92262E+00-1.02204E+03
 -1      2888-1.87995E+04 3.27240E+01 1.14154E+01 1.32715E+03 2.02393E+00-1.08717E+03
 -1      2889 2.29728E+04-4.96133E+01-1.19620E+01 2.75046E+03-2.70538E+01-1.08342E+03
 -1      2890 4.55798E+03 2.05286E+01 2.65442E+01 2.52909E+03-2.73699E+01-6.30295E+02
 -1      2891-8.61276E+02 9.50084E+01 6.46925E+01 2.31046E+03-3.73185E+01-6.64532E+02
 -1      2892 2.61179E+03-3.93827E+01-3.56483E+01 2.45431E+03 9.86026E+00-5.05766E+02
 -1      2893-2.56909E+03 2.89265E+00-6.69850E+00 2.13753E+03 2.05616E+01-5.63477E+02
 -1      2894 1.63207E+04-4.93926E+01-1.90386E+01 2.48529E+03-2.19620E+01-9.81703E+02
 -1      2895 4.78181E+02 2.38109E+01 8.28536E+00 2.60773E+02 1.13884E+01-5.93819E+01
 -1      2896-5.93489E+01-5.63412E+01 1.42714E+01-4.33935E+02-9.71900E-02 1.89472E+02
 -1      2897-5.79276E+02-4.05004E+01-5.87546E+00-2.04478E+02-5.69859E+00 1.30422E+02
 -1      2898-1.62499E+02-4.10021E+01-1.77298E+01-4.33537E+02 4.29054E+00 1.68819E+02
 -1      2899-6.81668E+03-3.57531E+01-2.87564E+01 2.58301E+03 2.11219E+01-1.15483E+03
 -1      2900 2.54345E+02 4.22493E+00 1.82456E+01-3.14794E+02 1.17177E+01 8.69785E+01
 -1      2901 1.58593E+02 6.52115E+01 1.87067E+01-4.34773E+02-6.99281E-01 1.69375E+02
 -1      2902 1.07355E+04-1.00795E+02-4.08473E+01 2.96485E+03 2.07087E+01-1.32253E+03
 -1      2903 6.76212E+03-1.49810E+01-2.95679E+01 2.57973E+03 6.72772E+00-1.15385E+03
 -1      2904-4.23231E+03 3.66390E+01-3.03892E+01 2.17733E+03-1.02788E+00-9.85976E+02
 -1      2905 4.21598E+03-7.38225E+01-1.52441E+01 2.18642E+03 1.86040E+01-9.84015E+02
 -1      2906-3.91559E+03 3.44057E+00 3.43449E+01 2.87055E+03 1.42650E+01-6.06880E+02
 -1      2907 4.67593E+03 5.16906E+01 3.46791E+01 2.48179E+03-2.12472E+01-6.18120E+02
 -1      2908 1.37852E+04 6.87317E+01 6.45884E+01 1.24904E+03-8.69058E+00-1.14521E+03
 -1      2909 1.16632E+04 3.39257E+01 7.35491E+01 1.26006E+03-2.01438E+01-9.48285E+02
 -1      2910 3.27567E+03-1.10512E+01-4.40458E+00 2.00655E+03 5.60232E+00-8.96391E+02
 -1      2911-8.11778E+03 7.53041E+01 4.65742E+01 1.07560E+03-1.73815E+01-8.17650E+02
 -1      2912-1.01064E+04 8.89547E+01 5.82205E+01 1.07129E+03 1.45990E+01-9.76609E+02
 -1      2913-1.61587E+03-3.52282E+01-7.26198E+00 2.08657E+03-2.52913E+00-9.23080E+02
 -1      2914 1.79890E+03-5.55162E+01 2.31648E+01 1.61402E+03 3.47449E+00-7.19081E+02
 -1      2915 1.86527E+03-4.83551E+01-4.83212E+01 2.23865E+03-1.40973E+01-4.70916E+02
 -1      2916-2.25986E+03-7.91098E+01-4.92930E+01 1.87824E+03 2.05657E+01-4.94109E+02
 -1      2917-8.19652E+03 1.06443E+02 3.80691E+00 2.93245E+03-2.61146E+01-7.66878E+02
 -1      2918 6.06811E+03 7.03062E+01 4.89228E+01 3.33677E+03 1.95446E+01-7.32774E+02
 -1      2919-6.03421E+03 9.59507E+01 4.28400E+01 3.17139E+03 2.37117E+00-1.36260E+03
 -1      2920-3.35208E+03 9.06770E+01 1.88737E+01 2.19591E+03-2.27938E+01-5.59834E+02
 -1      2921 2.37287E+03 3.62726E+01 4.81336E+01 2.55795E+03-8.82930E-01-5.50642E+02
 -1      2922-3.47745E+04-1.11011E+02-8.02225E+01 1.65864E+03 1.68253E+01-1.53078E+03
 -1      2923-2.91346E+04-8.70847E+01-9.03609E+01 1.66313E+03 1.66054E+01-1.25821E+03
 -1      2924 3.45256E+04-7.59493E+00-1.41864E+00 1.96630E+03-4.97650E+01-1.45494E+03
 -1      2925 6.35448E+03-7.20977E+01-9.80373E-01 3.72223E+03-8.77046E+01-1.67855E+03
 -1      2926 4.28569E+04 1.18332E+02 2.37360E+02 1.97035E+03-4.22273E+01-1.61868E+03
 -1      2927-2.12797E+03-1.46748E+02-4.86627E+02 3.84236E+03-2.46187E+02-1.61520E+03
 -1      2928-1.17101E+04-2.50410E+03-3.04835E+03 4.22271E+03 8.09697E+01-1.85115E+03
 -1      2929-2.03954E+04-3.34203E+03-5.25319E+03 3.44986E+03 6.83213E+02-9.73370E+02
 -1      2930-1.05332E+04 3.80457E+02-7.02283E+02 5.38246E+03 5.18292E+02-2.22861E+03
 -1      2931-1.10489E+04-7.96601E+02-2.38350E+03 2.57009E+03 4.97338E+02-5.87952E+02
 -1      2932 6.04918E+04 2.44593E+01-1.00695E+01 1.48196E+03-9.39488E+00-5.26722E+02
 -1      2933 1.81137E+02-1.49827E+01 1.43296E+01-7.08534E+01 5.77058E+00 2.52308E+01
 -1      2934-1.29522E+02-4.66946E+01 1.65130E+01-7.18748E+00 4.09300E+00 1.19920E+01
 -1      2935-1.08937E+02-3.81856E+01 1.35435E+01-1.07146E+01 5.30566E+00 3.58876E+00
 -1      2936 7.02180E+03 2.27951E+03 3.08547E+03 4.16700E+03-1.45711E+02-1.62405E+03
 -1      2937 8.93344E+03-1.08129E+02-1.26641E+01 3.16523E+03-8.89062E+01-9.59387E+02
 -1      2938-8.79528E+03-1.98484E+02-9.58976E+01 3.65916E+03-1.41503E+02-8.91486E+02
 -1      2939-3.29373E+03 5.78955E+01 4.17413E+01 2.00000E+03-1.46857E+01-8.96881E+02
 -1      2940-6.60969E+02-4.14531E+01 1.69684E+01-2.56865E+01 2.59901E+00 5.13289E+00
 -1      2941-7.84412E+02-3.16631E+01-1.71376E+00-5.79159E+01 1.08803E+00 2.70392E+01
 -1      2942 2.99237E+01-3.49570E+01 4.84550E+00-5.34565E+02 2.37528E+00 2.25227E+02
 -1      2943-3.71136E+01 4.08062E+01 1.63597E+01-5.41234E+02 2.07311E+00 2.18008E+02
 -1      2944 1.09674E+01 1.07619E+01-1.67320E+01-5.43148E+02-3.49360E-01 2.23147E+02
 -1      2945-1.07601E+04 6.15184E+01 7.84036E+00 2.94841E+03-2.98900E+01-1.32747E+03
 -1      2946 1.01096E+01 3.17886E+01 2.23757E+01-5.79911E+02 3.76406E+00 2.50045E+02
 -1      2947 7.65133E+01 5.43502E+01-2.85077E+01-4.52122E+02 4.63952E+00 1.96266E+02
 -1      2948 6.43989E+01-4.76278E+01-1.30420E+01-5.51178E+02 6.29204E+00 2.44222E+02
 -1      2949 1.33675E+04 8.41036E+01 1.27009E+01 3.25642E+03-8.22529E+01-1.49246E+03
 -1      2950-2.29921E+02-5.32957E+01 1.88914E+01 6.33986E+01 5.13126E+00-2.77514E+01
 -1      2951-5.81642E+02-3.28134E+01-2.09635E+01 2.53768E+02-9.59685E+00-8.99292E+01
 -1      2952-5.84568E+02-4.41289E+01-2.04592E+01 3.40306E+02-4.66222E+00-6.21606E+01
 -1      2953-7.28272E+02-4.60289E+01-3.45721E+01 1.56573E+02-7.92980E+00-1.34878E+02
 -1      2954-3.63359E+02-2.20979E+01-2.47699E+01 2.84816E+02-6.47508E+00-2.02731E+02
 -1      2955-3.87143E+02-6.04312E+01-3.32990E+01 3.68349E+02-1.68487E+01-1.40663E+02
 -1      2956-2.53179E+02-5.67302E+01-1.24446E+01 5.06043E+02-1.35892E+01-1.08770E+02
 -1      2957 1.51120E+04-4.36845E+00-2.01018E+01 9.46368E+02-8.76162E+00-3.30463E+02
 -1      2958 1.40061E+04-2.75431E+01-3.75834E+01 8.64027E+02 2.77641E+00-3.24685E+02
 -1      2959 1.35499E+04-9.94846E+00 3.99612E+00 9.06508E+02-1.36744E+00-6.94282E+02
 -1      2960 1.04574E+04-6.51344E+01-1.40677E+01 1.69933E+03-2.35803E+01-3.61913E+02
 -1      2961 1.14236E+04-6.82367E+01-9.19040E+00 1.79005E+03-1.44011E+01-3.60315E+02
 -1      2962-8.15630E+02-3.58949E+01-9.70423E+00 1.83418E+02-1.08288E+01-7.38984E+01
 -1      2963-7.84715E+02-6.43242E+01-1.79358E+01 2.52705E+02-8.81946E+00-4.57887E+01
 -1      2964-1.09106E+03-3.83016E+01-1.72156E+01 1.54851E+02-5.02415E+00-5.38805E+01
 -1      2965-9.72431E+02-3.65968E+01-3.40310E+01 1.23715E+02-1.06567E+01-9.48631E+01
 -1      2966 2.67210E+02 3.11358E+01 1.87764E+00-2.27474E+02 9.70982E+00 9.69869E+01
 -1      2967 5.33030E+02 2.53054E+01 1.84940E+01-1.88824E+02 9.07001E+00 3.74132E+01
 -1      2968 4.93431E+02 8.36888E+01 3.97043E+01-2.75110E+02 7.72467E+00 1.28351E+02
 -1      2969-3.39648E+04 1.48109E+00 1.46542E+02 3.23145E+03-4.54360E+02-6.46841E+02
 -1      2970-1.99040E+04-2.92304E+02-1.93067E+02 4.11365E+03-3.35060E+02-1.55999E+03
 -1      2971-4.10721E+04-1.10311E+02-5.70505E+02 3.72983E+03-7.71467E+02-1.52971E+03
 -1      2972 2.11417E+04 2.20381E+03 1.43119E+03 2.80655E+03 3.79795E+02-1.62484E+03
 -1      2973 2.96004E+04 3.63842E+03 4.66173E+03 3.44871E+03 4.95066E+02-1.54733E+03
 -1      2974 1.01678E+02-7.75299E+01-2.49775E+01-5.36213E+02-2.20019E+00 2.38059E+02
 -1      2975 9.12738E+01 8.16411E+00-2.92570E+01-5.62695E+02-8.67034E+00 2.22880E+02
 -1      2976 1.80890E+04 2.73676E+02 1.11670E+02 4.15632E+03 3.63327E+02-1.54840E+03
 -1      2977 5.61040E+04-2.04787E+02 2.14669E+02 1.82112E+03 2.68891E+02-1.24192E+03
 -1      2978 4.09970E+04 1.24063E+02 4.61927E+02 3.73833E+03 7.80140E+02-1.55643E+03
 -1      2979-1.54844E+04-7.02694E+01-4.85759E+01 3.35395E+03-8.59813E+01-1.33514E+03
 -1      2980-2.92148E+04-1.18531E+01 2.82235E+01 3.47965E+03-2.33700E+01-7.24859E+02
 -1      2981-1.44534E+04-3.48580E+01-8.00555E+00 3.48668E+03-9.03695E+01-9.35595E+02
 -1      2982-1.82568E+04 7.04626E+01 2.77282E+01 3.37766E+03-1.81198E+02-1.29402E+03
 -1      2983-3.24226E+04 2.48406E+01-1.77314E+01 3.43167E+03-1.17606E+02-6.90875E+02
 -1      2984-3.33235E+04 2.70453E+01 3.38542E+01 3.09606E+03-1.11234E+02-1.24430E+03
 -1      2985 1.11986E+03-4.16312E+01-1.31137E+01 1.74143E+03-1.78507E+00-3.64714E+02
 -1      2986-7.90612E+02-2.74485E+01-4.35177E+01 1.65032E+03 4.08212E+00-7.08658E+02
 -1      2987 1.83978E+03-2.30762E+00-1.40212E+00 1.78048E+03-2.30156E+01-4.73936E+02
 -1      2988 7.98412E+02 5.68413E+01 2.61688E+00 1.80594E+03-1.49713E+01-3.92171E+02
 -1      2989-1.13989E+03 7.32608E+01 1.64906E+01 1.75385E+03-3.08233E+00-7.60772E+02
 -1      2990-1.84649E+03 4.31507E+01-1.41617E+01 1.59309E+03-1.02736E+01-6.72872E+02
 -1      2991-8.27315E+02-4.31578E+01-1.70490E+01-8.54342E+01-7.43756E+00 7.70731E+01
 -1      2992-1.80847E+02-1.18303E+01-2.53812E+00-2.41642E+02-1.54160E+01 8.56321E+01
 -1      2993-4.36661E+02-7.22470E+01-4.49054E+01-3.00722E+02-6.86743E+00 1.15630E+02
 -1      2994-4.46513E+03 2.53490E+01 3.18539E+01 1.12201E+03 1.43599E+01-7.54074E+02
 -1      2995-4.89419E+03 4.71965E+01 1.59549E+01 8.73155E+02-7.71815E+00-7.42178E+02
 -1      2996-5.88067E+03-1.86951E+01-2.96081E+01 9.37564E+02 2.20128E+01-7.79553E+02
 -1      2997 1.40771E+04 1.32183E+03-2.45696E+02 4.91689E+03 1.18710E+03-2.33457E+03
 -1      2998-1.11094E+04 6.03444E+01 6.35792E+00 1.07488E+03 3.68892E+00-9.06794E+02
 -1      2999-3.52586E+03-3.35455E+01-2.07122E+01 2.04461E+03-2.65648E+01-8.14098E+02
 -1      3000-8.07441E+03 3.06627E+01 4.85842E-01 1.37061E+03-5.18455E+01-9.06693E+02
 -1      3001-1.28690E+04-9.81933E+00-8.13659E-01 1.11128E+03-4.45245E-01-9.62585E+02
 -1      3002-4.75184E+03 6.70359E+01 2.83375E+01 2.07521E+03 9.35065E+00-7.97164E+02
 -1      3003-8.07332E+03 3.58174E+01 1.73343E+01 1.95256E+03 1.68274E+01-8.05591E+02
 -1      3004-4.29948E+04-7.09358E+01-1.65230E+02 1.96013E+03 2.29898E+01-1.59648E+03
 -1      3005-6.76936E+03 1.22340E+02 1.24213E+01 3.61574E+03 6.77499E+01-1.61837E+03
 -1      3006-3.56949E+04 2.69586E+01-4.66168E+01 2.29651E+03-1.22640E+02-1.45693E+03
 -1      3007-4.20712E+04 3.02614E+01 1.76913E+01 1.77203E+03-4.26392E+01-1.37667E+03
 -1      3008-6.82785E+03-7.67243E+01 4.73567E+01 3.40685E+03 2.75732E+01-1.53104E+03
 -1      3009-1.36634E+04-1.89977E+01 1.37032E+01 3.22868E+03 6.76051E+01-1.43665E+03
 -1      3010-6.59460E+03-1.15092E+01 2.42412E+01 2.16895E+03-2.44968E+00-4.42539E+02
 -1      3011-3.44440E+03-2.76212E+01 7.71773E+00 2.19345E+03-2.19999E+01-5.73346E+02
 -1      3012-8.08844E+03 1.16435E+01-1.28099E+01 2.22809E+03 1.37343E+01-4.52360E+02
 -1      3013-1.04243E+03 4.76381E+01 5.77311E+00 1.58879E+03 4.76397E+00-3.93238E+02
 -1      3014-1.57833E+03 2.98801E+01-9.64037E+00 1.66309E+03-6.94891E+00-4.16602E+02
 -1      3015-4.31502E+03 3.61197E+01-3.20000E+01 8.83368E+02-6.66801E+00-7.15913E+02
 -1      3016-5.13057E+03-6.61087E+00-6.39429E+00 9.13425E+02-5.62784E+00-7.45097E+02
 -1      3017 8.34577E+03 2.01133E+02 5.90480E+01 3.61544E+03 1.45342E+02-8.66791E+02
 -1      3018 1.50628E+04 2.48643E+01-2.44126E+01 3.47284E+03 1.46557E+02-9.65262E+02
 -1      3019 8.05076E+03-1.43129E+01-7.53551E+00 3.38349E+03 8.05483E+01-7.58742E+02
 -1      3020-6.11537E+02-1.83335E+01 4.09736E+00 8.56273E+01-2.93199E+00-6.88430E+01
 -1      3021-7.16996E+02-3.06221E+01 4.62853E+00 1.33470E+02 7.13609E+00-1.07078E+02
 -1      3022 4.24498E+03 1.84978E+01 1.81589E+01 8.78810E+02-6.23075E-01-4.23149E+02
 -1      3023 7.25969E+03-8.14900E+01-5.61566E+00 1.08112E+03 6.46207E+00-5.15653E+02
 -1      3024 1.47808E+02-2.23870E+01 1.33170E+01 2.47504E+02 1.01709E+00-5.80992E+01
 -1      3025-4.66637E+04 4.34174E+01 3.23170E+01 2.97828E+03-4.52172E+01-6.43730E+02
 -1      3026-5.02252E+04 1.19673E+01 1.72560E+01 2.93786E+03-1.23137E+02-5.92786E+02
 -1      3027 5.15825E+03-9.42484E+00 2.59527E+01 1.15947E+03-3.11244E+01-7.69024E+02
 -1      3028 6.71633E+03 7.59143E+00 4.47383E+01 9.67873E+02 2.03552E+01-8.63593E+02
 -1      3029 2.46783E+04 1.46946E+01-4.61161E+01 1.60247E+03-1.34855E+01-7.47313E+02
 -1      3030 8.11772E+03-2.02095E+01-4.75492E+01 1.37980E+03 3.32329E+01-8.98233E+02
 -1      3031 9.14880E+03-4.68146E+01-4.42685E+01 1.07861E+03-3.29165E+01-9.81390E+02
 -1      3032-2.84891E+04-1.50117E+01-2.92820E+00 3.24822E+03 7.07624E+00-5.74014E+02
 -1      3033-1.66965E+04-2.20831E+01-2.80729E+01 2.99722E+03 6.00698E+01-1.18844E+03
 -1      3034-1.09354E+04 4.20130E+01-3.96672E+01 3.08137E+03 2.57451E+00-1.15209E+03
 -1      3035 1.52193E+02 8.61956E+01-1.30477E+01-4.35363E+02-1.27706E+00 2.12374E+02
 -1      3036-4.60946E+03 1.39019E+01 3.92431E+00 1.74159E+03 6.82301E+00-3.16034E+02
 -1      3037-2.73688E+03 2.18680E+01 2.38160E+00 1.61741E+03 3.94776E+01-6.62999E+02
 -1      3038-1.82669E+03 4.75849E+00-1.69247E+01 1.71455E+03 4.30686E+00-6.41600E+02
 -1      3039-1.57566E+03 3.98481E+01 2.75349E+01 2.21461E+03 4.21214E+01-4.66845E+02
 -1      3040 3.43569E+03-3.02358E+01-2.15388E+01 2.22180E+03 3.42882E+01-5.80042E+02
 -1      3041 1.51913E+03-4.54909E+01-3.00010E+01 2.23233E+03-2.47280E+01-4.77673E+02
 -1      3042 3.42645E+04-1.68094E+01-5.97852E+01 2.26819E+03 7.15752E+01-1.44497E+03
 -1      3043 4.02563E+04-6.80883E+01-1.01339E+02 1.74891E+03-3.72504E+01-1.58379E+03
 -1      3044-6.45678E+03-2.19412E+01 2.39451E+01 3.48536E+03-2.62902E+01-7.02738E+02
 -1      3045-2.91882E+04 9.54463E-01 1.14817E+01 3.28891E+03-9.16042E+00-5.72477E+02
 -1      3046 2.92284E+04 4.88584E+00 4.13019E+01 2.08691E+03-4.61332E+01-1.38688E+03
 -1      3047 3.61388E+04 1.80723E+01 6.90523E+01 1.69325E+03 4.39460E+01-1.52029E+03
 -1      3048-4.87936E+04 3.19101E+01 2.76433E+01 1.76794E+03-2.38266E+01-1.43951E+03
 -1      3049-3.41783E+04 3.80640E+01 3.01061E+00 2.25864E+03-8.22994E+01-1.48137E+03
 -1      3050-5.25058E+04-3.36493E+01-8.15500E+00 1.76962E+03-9.78433E+01-1.46061E+03
 -1      3051-1.18477E+03-3.58883E+01 1.63138E+01 1.97851E+03-6.08057E+00-4.01528E+02
 -1      3052-5.02400E+03 2.84321E+01 1.44714E+01 1.82094E+03-1.28970E+00-3.18742E+02
 -1      3053-7.16899E+03 8.82434E+01 2.77491E+01 1.11094E+03-4.71218E+00-5.29504E+02
 -1      3054-1.33251E+04 4.40916E+01 1.91834E+01 1.05018E+03-2.89798E+00-7.31818E+02
 -1      3055-1.51704E+04-9.41888E+00 4.48731E+00 1.09187E+03 2.21582E+01-7.78693E+02
 -1      3056-7.14047E+03 1.32243E+02 2.71722E+01 3.54031E+03 3.43384E+01-7.81078E+02
 -1      3057 6.91490E+04 4.21668E+01-1.55001E+01 1.55032E+03 1.25004E+00-5.39749E+02
 -1      3058 6.72773E+04 2.09585E+01 4.51549E+01 1.52409E+03-2.72108E+01-4.98952E+02
 -1      3059 5.54200E+04-6.32709E+01-3.42578E+01 1.55128E+03 1.76767E+00-1.14952E+03
 -1      3060 4.41857E+04-4.44536E+01-1.27355E+01 2.92176E+03 1.85660E+01-5.98558E+02
 -1      3061 4.60475E+04 4.04727E+01-3.32673E+01 2.87538E+03 2.95913E+01-5.97460E+02
 -1      3062-1.84411E+04-2.16115E+01-4.17663E+01 1.20846E+03-1.91639E+01-1.11839E+03
 -1      3063-1.67728E+04 5.19321E+01 4.91090E+01 1.18606E+03 2.02197E+01-1.11580E+03
 -1      3064-3.39742E+03 2.12976E+01-6.06622E+00 2.54570E+03-9.61057E+00-1.03830E+03
 -1      3065-1.09185E+04 3.22842E+01 3.58808E+01 1.90215E+03-2.11483E+01-4.20947E+02
 -1      3066-1.26290E+04 1.35779E+01-6.05335E+00 1.97976E+03 2.11276E+01-4.27149E+02
 -1      3067-2.45876E+04-1.65302E+00 5.74055E+01 1.61314E+03 1.10068E+00-7.50473E+02
 -1      3068 3.43872E+03-3.80706E+01-1.96035E+01 2.87516E+03-4.80538E+01-6.15044E+02
 -1      3069-3.48197E+04-2.04821E+01 3.37378E+01 1.88914E+03 3.38696E+01-1.56527E+03
 -1      3070-3.41849E+04 3.78832E+01 2.74972E+01 1.72762E+03 1.58947E+01-1.42784E+03
 -1      3071 1.22338E+04 8.29998E+00 6.40913E+00 3.39731E+03-4.63683E+01-8.79492E+02
 -1      3072 6.56949E+03 8.78340E+01 2.10484E+01 3.46077E+03 3.94842E+01-7.58160E+02
 -1      3073-4.02817E+04 8.59227E+01 7.34577E+01 1.75039E+03 4.55287E+01-1.51376E+03
 -1      3074-4.44364E+04 4.74140E+01 1.09325E+01 1.45236E+03-1.76133E+01-1.36003E+03
 -1      3075-2.32156E+04-6.89291E+01-1.79463E+01 2.73797E+03 2.84655E+01-1.29928E+03
 -1      3076-1.99728E+04 5.40485E+01-1.30598E-01 1.37620E+03 5.36151E+01-1.24064E+03
 -1      3077 2.40054E+04-9.49255E+01 2.72010E+01 3.24169E+03 1.28761E+01-5.87348E+02
 -1      3078-1.42737E+02 1.77878E+01 2.15939E-01 4.11130E+02 5.56571E+00-3.11991E+02
 -1      3079-1.16740E+02 4.18041E+01-1.47658E+01 7.80760E+02-7.17339E+00-3.49075E+02
 -1      3080-5.23009E+02 1.24525E+01-3.02328E+00 4.48839E+02-1.60623E+01-3.73569E+02
 -1      3081 2.98046E+02-2.36060E+01-8.92496E+00 4.91697E+02-1.79793E+01-3.44932E+02
 -1      3082-8.25494E+00-2.24358E+01-1.09126E+01 4.52253E+02-1.74347E+01-2.99204E+02
 -1      3083 5.25865E+02-1.16384E+01 3.44591E+00 4.52411E+02 1.56396E+01-3.72924E+02
 -1      3084 1.40639E+02-2.42491E+01-1.09317E+00 4.13474E+02-6.40438E+00-3.11794E+02
 -1      3085 9.32702E+01-3.97862E+01 1.26131E+01 7.74402E+02 3.96399E+00-3.51810E+02
 -1      3086-1.88998E+01-2.11204E+01-1.43269E+01 7.11320E+02-1.44199E+01-1.89627E+02
 -1      3087 1.06926E+02-1.11422E+01-1.46936E+01 8.15192E+02-8.51274E+00-2.05864E+02
 -1      3088 7.87887E+01 3.15713E+01-2.64137E+00 8.87816E+02 9.15421E+00-1.98642E+02
 -1      3089-6.61282E+01 1.49909E+01-1.10992E+01 7.62639E+02-1.18429E+01-1.79578E+02
 -1      3090 5.77092E+01-2.04077E+01 5.53495E+00 7.64044E+02 1.07290E+01-1.80348E+02
 -1      3091-7.42914E+01-2.61450E+01 2.01754E+00 8.86331E+02-8.68659E+00-1.97731E+02
 -1      3092-7.31306E+01-7.42416E+00 2.92559E+01 1.06399E+03 1.24820E+01-2.19013E+02
 -1      3093-5.68072E+02-2.18259E+01 9.79642E+00 1.09625E+03-4.73209E+00-4.05357E+02
 -1      3094 2.76885E+02-2.26356E+01 1.26594E+01 1.04399E+03 1.19630E+01-4.59751E+02
 -1      3095 7.31018E+01 7.59942E+00-2.93841E+01 1.06376E+03-1.23592E+01-2.18349E+02
 -1      3096 5.68980E+02 2.33282E+01-8.99971E+00 1.09647E+03 4.81983E+00-4.05510E+02
 -1      3097-2.75144E+02 2.27944E+01-1.21698E+01 1.04504E+03-1.20810E+01-4.59962E+02
 -1      3098-1.20141E+03 4.38241E+01 1.21820E+01 4.93491E+02 7.67194E+00-4.49234E+02
 -1      3099-1.25065E+03 1.74614E+01-1.91777E+01 9.83851E+02-1.16332E+01-4.47945E+02
 -1      3100 1.20067E+03-4.44096E+01-1.29561E+01 4.93566E+02-8.36078E+00-4.49055E+02
 -1      3101 1.25132E+03-1.87401E+01 1.99412E+01 9.83213E+02 1.12297E+01-4.48296E+02
 -1      3102 3.90923E+04 6.78057E+01-4.73251E+01 1.52621E+03-2.83241E+01-1.31808E+03
 -1      3103 4.96875E+03-3.90867E+01-2.33015E+01 3.20933E+03-5.26622E+01-6.83350E+02
 -1      3104-2.84676E+04 4.78746E+01 2.63626E+00 1.53542E+03 5.29628E+01-1.39125E+03
 -1      3105-1.39860E+04-3.01664E+01 4.15080E+01 1.12720E+03 2.41031E+01-9.80496E+02
 -1      3106-8.59278E+03 6.40162E+01-6.30683E+00 2.33126E+03-7.92194E+00-4.45604E+02
 -1      3107 2.81287E+04 2.58626E+01-3.98625E+01 1.40137E+03-2.82413E+01-1.20159E+03
 -1      3108 1.72481E+04-6.10747E+01 1.20673E+01 2.94595E+03 1.18241E+01-5.53058E+02
 -1      3109 7.94789E+00-1.40335E+01 1.13991E+01 6.39050E+02 3.25918E+00-2.83712E+02
 -1      3110-1.13346E+02-3.40797E+01-7.50634E+00 2.99799E+02 5.36179E+00-2.72164E+02
 -1      3111 7.39413E+01-4.75395E+01 1.45234E+01 6.54351E+02 7.22718E+00-2.75384E+02
 -1      3112 1.90840E+01 1.94646E+01-9.35840E-01 6.48214E+02 9.39845E-01-2.82149E+02
 -1      3113 1.09879E+02 3.23843E+01 3.58098E+00 2.93529E+02-3.45441E+00-2.68944E+02
 -1      3114-7.02533E+01 4.68240E+01-1.42610E+01 6.56672E+02-6.12266E+00-2.75631E+02
 -1      3115-9.17493E+00 1.38292E+00-1.51699E+01 6.41145E+02-3.57367E+00-1.26852E+02
 -1      3116 1.84719E+00-3.41262E+00 1.53576E+01 6.36315E+02 6.08706E+00-1.25057E+02
 -1      3117 5.80783E+04 3.45948E+01-2.21478E+01 1.59094E+03 2.81545E+01-1.12782E+03
 -1      3118 4.84176E+04-8.52183E+01-6.23041E+00 2.94504E+03-2.40569E+00-5.84111E+02
 -1      3119 3.50688E+04 6.64530E+00-1.75397E+01 2.83535E+03 4.50166E+00-1.10250E+03
 -1      3120 1.99559E+04-4.87908E+01-1.00317E+01 1.37588E+03-5.05101E+01-1.24896E+03
 -1      3121-3.91188E+04-3.93603E+01 5.17870E+01 1.54256E+03 2.68916E+01-1.32567E+03
 -1      3122-2.40583E+04 7.33340E+01-2.09671E+01 3.23858E+03-1.94338E+01-6.01664E+02
 -1      3123 1.43714E+04-5.00125E+00-1.88271E+01 3.54407E+03 9.41451E+01-9.62442E+02
 -1      3124 7.17388E+03-1.03979E+02-5.86197E+01 3.53437E+03-1.16027E+01-7.76358E+02
 -1      3125-2.81378E+04-2.52766E+01 4.34773E+01 1.39720E+03 2.43852E+01-1.19991E+03
 -1      3126-3.50443E+03 2.65036E+01 2.21889E+01 2.86957E+03 5.15322E+01-6.15171E+02
 -1      3127-3.60773E+04-5.04426E+00-2.84466E+01 1.63073E+03-1.94914E+01-1.51940E+03
 -1      3128-4.62392E+04-3.80424E+01-1.31673E+01 1.45146E+03 2.61160E+01-1.34063E+03
 -1      3129-4.98700E+03 3.64035E+01 2.10060E+01 3.20791E+03 5.39184E+01-6.80714E+02
 -1      3130 2.84732E+04-4.88183E+01-8.68832E+00 1.53422E+03-5.38403E+01-1.39144E+03
 -1      3131-2.26316E+03 1.40085E+01 5.22996E+01 2.62205E+03 3.39479E+01-5.17660E+02
 -1      3132-2.90399E+03 2.29333E+00-1.76338E+01 2.67751E+03-1.27118E+01-5.27458E+02
 -1      3133 3.45347E+03 1.28301E+01 3.76554E+01 2.41484E+03-3.90312E-01-1.06793E+03
 -1      3134-1.54001E+04 3.48058E+01-4.97020E+01 1.39104E+03-4.10244E+00-6.60726E+02
 -1      3135-9.21803E+03 6.57052E+01 2.49586E+01 1.04962E+03 3.60902E+01-9.76805E+02
 -1      3136-1.09850E+04 9.41692E+00-1.05331E+01 2.39414E+03 6.90084E+00-4.20621E+02
 -1      3137-6.47506E+03-3.75120E+00-1.26713E+01 2.23483E+03 4.80216E+01-8.90510E+02
 -1      3138-4.21481E+03 3.42759E+01-1.21841E+01 2.31327E+03 1.05115E-01-8.78751E+02
 -1      3139 2.70087E+03-1.33100E+01-4.31144E+00 5.28209E+02-5.73546E+00-1.92198E+02
 -1      3140-2.66487E+03 2.22164E+01 1.62830E+01 5.31091E+02 4.03543E+00-1.93728E+02
 -1      3141-2.13500E+04 8.84160E+01 9.65472E+00 1.53974E+03-2.73828E-01-7.38332E+02
 -1      3142-3.32088E+04 1.07756E+02 4.00187E+01 3.50543E+03-2.27425E+02-6.78519E+02
 -1      3143 1.09842E+04-3.84776E+00 1.14388E+01 2.39477E+03-8.70202E+00-4.22280E+02
 -1      3144 6.47275E+03 4.06890E+00 1.41088E+01 2.23691E+03-4.71283E+01-8.93654E+02
 -1      3145 4.22270E+03-2.41581E+01 1.86332E+01 2.31267E+03 6.51417E-01-8.81825E+02
 -1      3146 5.24651E+04 3.71975E+01 2.43789E+01 1.45595E+03-2.55054E+00-5.16427E+02
 -1      3147-1.73148E+04 6.19140E+01-1.16453E+01 2.94323E+03-1.51667E+01-5.50233E+02
 -1      3148-1.70537E+04 2.57292E+01 2.43951E+01 1.06831E+03-9.80437E+00-1.00230E+03
 -1      3149-9.31841E+03-2.89862E+01-3.36101E+00 2.05824E+03 2.33028E+01-9.95506E+02
 -1      3150 1.70530E+04-2.38857E+01-1.87392E+01 1.07130E+03 8.68541E+00-1.00554E+03
 -1      3151 9.31306E+03 3.15506E+01 1.18105E+01 2.06484E+03-2.31624E+01-9.90882E+02
 -1      3152 6.24901E+04 5.69196E+03 1.42369E+04 4.31000E+03 4.38181E+02 2.10871E+02
 -1      3153 6.81230E+04 2.40978E+03 1.24566E+04 2.63237E+03-1.41023E+02-2.34198E+03
 -1      3154 6.13962E+04 5.86673E+02 6.79919E+03 3.47452E+03 7.51073E+02-1.09921E+03
 -1      3155 6.97851E+04 6.00430E+02 5.84557E+03 3.19853E+03 1.05899E+03-2.51949E+03
 -1      3156 4.84405E+04 9.14637E+03 9.61282E+03 5.27403E+03 6.31512E+02-2.51251E+03
 -1      3157-5.25885E+04-2.20842E+01 6.19328E+00 1.43105E+03-3.64313E+00-5.30280E+02
 -1      3158 1.51404E+04-8.49652E+01-7.47738E+00 1.39300E+03 2.86603E+00-6.65599E+02
 -1      3159-5.66385E+04 2.22064E+01 1.14575E+01 1.71720E+03-6.28544E+01-1.10791E+03
 -1      3160-6.04443E+04-3.22283E+01 7.57971E+00 1.68649E+03-1.18634E+02-1.07132E+03
 -1      3161 2.14423E+04-8.98727E+01-1.15131E+01 1.53241E+03 6.52129E-01-7.38176E+02
 -1      3162-3.52724E+02-1.86898E+01-3.91305E+00 3.21070E+02-1.40062E+01-1.26487E+02
 -1      3163-2.91862E+02-4.74446E+01-1.13559E+01 4.50544E+02-6.76867E+00-1.19606E+02
 -1      3164-1.30068E+02-6.96431E+01-3.94519E+01 4.90014E+02-7.40670E+00-1.99886E+02
 -1      3165-4.12420E+02-2.26574E+01-1.95478E+01 2.85929E+02 6.51037E-01-1.85571E+02
 -1      3166 1.02680E+04-4.41278E+01-1.89737E+01 8.80275E+02-8.62465E+00-6.50734E+02
 -1      3167 4.20752E+03 5.58308E+01 3.86270E+01 1.80899E+03-1.10758E+01-7.25339E+02
 -1      3168 8.41870E+03-5.99104E+01-2.39533E+01 1.20113E+03-1.72506E+01-7.11280E+02
 -1      3169 1.23436E+04 1.03090E+01-1.34003E+01 8.95600E+02-1.17467E+01-7.14425E+02
 -1      3170 5.81293E+03-1.06897E+02-5.33424E+01 1.85315E+03 1.99259E+00-7.63182E+02
 -1      3171 7.80468E+03-5.39020E+01-4.22909E+01 1.63238E+03-1.02348E+01-6.54848E+02
 -1      3172-9.44303E+03-6.95643E+01 1.52181E+01 3.21254E+03 6.75601E+01-9.32238E+02
 -1      3173-9.36868E+03 1.19617E+01-2.61233E+01 3.06903E+03 3.01492E+01-7.89888E+02
 -1      3174-9.79176E+03-3.82919E+01-1.46138E+01 1.20199E+03 3.13317E-01-5.67237E+02
 -1      3175 9.60335E+03-6.14826E+00-3.57257E+01 1.20369E+03-5.71954E+00-5.59591E+02
 -1      3176 1.62535E+03-2.64555E+01-1.50347E+00 1.27564E+03-6.02809E+00-2.53171E+02
 -1      3177 3.24809E+02 4.91945E+00-1.41856E-01 1.18376E+03 5.82005E+00-2.21718E+02
 -1      3178-1.62878E+03 2.61548E+01 2.08644E+00 1.27299E+03 5.63588E+00-2.50836E+02
 -1      3179-3.26567E+02-5.52889E+00 9.07193E-01 1.18241E+03-5.53523E+00-2.21340E+02
 -1      3180 2.62742E+03-2.28184E+01-1.41617E+01 6.12945E+02-1.25124E+01-5.13955E+02
 -1      3181 1.80654E+03-1.09098E+01 1.45870E+00 5.05192E+02 1.50606E+01-5.18851E+02
 -1      3182-2.62811E+03 2.54478E+01 1.47411E+01 6.09726E+02 1.15121E+01-5.11612E+02
 -1      3183-1.80781E+03 1.19239E+01-1.43237E+00 5.04331E+02-1.47884E+01-5.18256E+02
 -1      3184 3.72559E+04 3.26025E+01 2.19522E+01 1.31512E+03 3.54611E-01-4.67268E+02
 -1      3185-2.58103E+03-1.68085E+01 3.43240E+01 2.60575E+03-1.53857E+01-5.30209E+02
 -1      3186-1.15167E+04-5.24416E+00 1.39538E+01 2.44504E+03 4.57503E+00-4.25252E+02
 -1      3187 2.62420E+03 2.60883E+01-3.32386E+01 2.61245E+03 1.32349E+01-5.26943E+02
 -1      3188 1.15502E+04 1.19538E+01-1.49938E+01 2.44627E+03-1.19706E+01-4.32834E+02
 -1      3189-8.81124E+02-3.12406E+01-1.68522E+01-5.47235E+01-6.81037E+00 2.55643E+01
 -1      3190-2.15893E+02-2.94645E+01-1.98152E+01-1.19055E+01-9.89115E+00 3.26314E+00
 -1      3191-9.99377E+02-3.89864E+01-2.51345E+01 7.11730E+01-4.11753E-02-4.19293E+01
 -1      3192-3.04260E+02-3.90824E+01-1.77671E+01 1.56970E+02-7.24724E+00-5.78461E+01
 -1      3193-5.44469E+02-5.56875E+01-3.21339E+01 5.00457E+01-1.56411E+01-2.56868E+01
 -1      3194-3.74202E+04-3.07467E+01-2.18264E+01 1.29569E+03-3.50488E-01-4.70835E+02
 -1      3195-1.47548E+04 3.61507E+01-7.14219E+00 1.23063E+03-1.88871E+01-1.14215E+03
 -1      3196-1.83304E+04 1.88525E+00-8.24214E+00 1.07040E+03 2.73554E+01-9.77654E+02
 -1      3197-5.43892E+04-5.12912E+01-2.91363E+01 1.82532E+03-1.49806E+02-1.38532E+03
 -1      3198 1.47858E+04-3.65810E+01 1.32503E+01 1.22619E+03 1.46470E+01-1.14663E+03
 -1      3199 1.83632E+04-5.74973E+00 4.65131E+00 1.07360E+03-2.94813E+01-9.79612E+02
 -1      3200 6.50244E+04-3.60699E+01-6.93588E+00 1.51129E+03 2.38541E+01-5.23781E+02
 -1      3201 5.33348E+04-4.17643E+01-4.50466E+01 1.55495E+03-8.89408E+00-1.11466E+03
 -1      3202 5.39523E+02 7.54141E+01 1.99419E+01-3.81024E+02 5.80953E+00 8.50929E+01
 -1      3203 7.17898E+02 7.60668E+01 2.13817E+01-2.19207E+02 7.62841E+00 4.39473E+01
 -1      3204-6.15825E+04-1.46916E+02-1.82791E+03 2.31877E+03-6.65286E+02-1.69565E+03
 -1      3205-3.97582E+04 8.36633E+01-5.58762E+02 3.10500E+03-2.81005E+02-1.70933E+03
 -1      3206-5.64322E+04 2.00232E+02-2.28375E+02 1.77961E+03-2.21935E+02-1.24677E+03
 -1      3207 1.05724E+02-7.10602E+01-5.38171E+01-6.32646E+02-3.19887E+01 1.29922E+02
 -1      3208 1.04608E+02 9.68860E+01-4.87436E+01-6.32768E+02-3.48197E+01 1.32615E+02
 -1      3209 2.64618E+01-5.98679E+01-4.33604E+01-5.74101E+02-2.51430E+01 2.12745E+02
 -1      3210-2.43831E+01 4.77712E+01-3.89106E+01-5.53585E+02-1.97522E+01 2.12883E+02
 -1      3211 6.71192E+01-5.09131E+01 3.15479E+01-5.59744E+02-1.55609E+01 1.09319E+02
 -1      3212 2.33060E+04-1.73637E+02-9.88959E+01 3.17361E+03 3.32371E+01-1.26230E+03
 -1      3213 3.45752E+04-1.20017E+02-4.16940E+00 3.08184E+03 2.19150E+01-8.55695E+02
 -1      3214 2.15199E+04 1.50978E+02 8.88914E+01 3.09532E+03-1.86325E+01-1.22771E+03
 -1      3215-4.12153E+04-7.30601E+01-2.47455E+03 3.16581E+03-3.22762E+02-1.67326E+03
 -1      3216-5.06663E+04 8.80140E+01-3.74668E+03 2.40512E+03 3.56108E+01-8.05367E+02
 -1      3217-4.89471E+04 2.37895E+02-2.12301E+03 2.20512E+03 3.60564E+01-1.17668E+03
 -1      3218 1.35609E+02-9.52202E+01-5.92639E+01-6.14743E+02-4.01327E+01 1.10855E+02
 -1      3219 1.16795E+02-5.42618E+01-5.03780E+01-5.50931E+02-2.37147E+01 2.11444E+02
 -1      3220 2.07314E+02 6.76689E+00 1.65643E+01-5.80539E+02-1.05134E+01 1.03172E+02
 -1      3221 2.93425E+02 6.37468E+01 1.88800E+01-5.32333E+02-1.30567E+01 8.45982E+01
 -1      3222-6.35498E+04-5.10150E+02-4.37579E+03 2.51899E+03-8.08465E+02-1.75634E+03
 -1      3223 4.73851E+02 3.23106E+01-3.23619E+00-2.43178E+02-5.95833E+00 1.80577E+02
 -1      3224 5.73354E+02 2.36607E+01-4.70153E+00-2.03576E+02-2.73651E-01 1.29453E+02
 -1      3225 5.98205E+02 3.30727E+01 1.21539E+01-2.27237E+02-6.05777E-04 2.10178E+02
 -1      3226 7.80466E+02 5.70319E+01 3.75410E+01-1.97432E+02-4.37837E+00 1.67142E+02
 -1      3227-8.16057E+01-2.07809E+01 1.25958E+01-2.40845E+02 6.28238E+00 1.08351E+02
 -1      3228-7.32424E+02-4.54420E+01-2.51185E+00-7.90140E+01-9.64066E-01 8.24409E+01
 -1      3229-1.89745E+02-7.03099E+01 1.82379E+01-2.86636E+02 5.53605E+00 1.15860E+02
 -1      3230 2.16224E+03-6.09605E+00-6.55438E+00 1.89157E+03-2.10859E+01-4.98256E+02
 -1      3231 1.18194E+03 6.16862E+01 1.78479E+01 1.94488E+03 1.71964E+01-4.15174E+02
 -1      3232 8.63028E+03 1.82879E+01 9.18590E+00 3.10394E+03-3.07242E+01-1.24671E+03
 -1      3233 1.78976E+04-1.25966E+01-2.70462E+01 2.95349E+03-5.77068E+01-1.29160E+03
 -1      3234 3.89447E+04 5.27847E+02 3.73516E+02 3.62777E+03 8.68574E+02-1.00532E+03
 -1      3235 1.57876E+04 2.36016E+02-3.93141E+01 4.02075E+03 7.04112E+02-1.32721E+03
 -1      3236 3.43319E+04-6.11908E+00-1.61071E+02 3.22781E+03 4.27124E+02-5.92109E+02
 -1      3237 1.61772E+04 1.06839E+03-1.94405E+01 3.90798E+03 8.01949E+02-1.28496E+03
 -1      3238 7.53799E+03 1.17450E+03-5.09187E+02 3.39980E+03 6.43470E+02-8.65367E+02
 -1      3239 7.87693E+03 1.08207E+03-7.13046E+02 3.03551E+03 8.09388E+02-7.28601E+02
 -1      3240-9.29609E+02-2.45161E+01-1.84538E+01 1.11661E+02-1.27916E+01-9.22965E+01
 -1      3241 8.46377E+03 2.21497E+01-2.90362E+00 8.89983E+02-2.18978E+01-7.74705E+02
 -1      3242 2.97016E+03-6.90815E+01-9.76561E+00 1.73045E+03-2.56996E+01-6.89291E+02
 -1      3243 7.56850E+03-1.28675E+01-3.65196E+01 8.56760E+02 2.53636E+01-7.87667E+02
 -1      3244 1.37337E+04-3.36689E+01 8.64593E+00 9.50278E+02-3.07996E+01-9.57878E+02
 -1      3245 5.03333E+03 3.01152E+01-3.91979E+00 1.97735E+03 2.07853E+01-7.85521E+02
 -1      3246 1.26030E+04-8.76472E+01-4.04572E+01 9.42276E+02 1.23010E+01-8.76275E+02
 -1      3247 1.02621E+02-1.85048E+01-1.87664E+01 7.49177E+02-8.07991E+00-1.41079E+02
 -1      3248-5.30432E+01-8.23235E+00-5.06551E+00 6.53037E+02-1.10719E+01-1.18776E+02
 -1      3249-3.03414E+00-6.78398E+00-6.80459E+00 6.42692E+02-1.44997E+01-2.52783E+02
 -1      3250-1.40507E+02-3.80779E+01-1.52638E+01 2.97169E+02-3.93109E+00-2.66861E+02
 -1      3251 2.30127E+02-4.50349E+01-2.30934E+01 3.38548E+02-9.56129E+00-3.25783E+02
 -1      3252 8.71624E+03 1.53502E+01-3.92679E+00 2.18879E+03-1.40492E+01-3.85596E+02
 -1      3253 8.20403E+03 1.74594E+01-6.89589E+00 2.13003E+03-6.10914E+00-3.73243E+02
 -1      3254 5.28412E+03-4.51189E+01-1.44521E+01 1.90373E+03-5.21037E+00-3.56885E+02
 -1      3255 4.88103E+03-4.50166E+01-1.01838E+01 1.81935E+03 2.75091E-01-3.54608E+02
 -1      3256 1.54443E+02-1.12575E+01 2.03986E+01-2.00179E+02 8.12681E+00 2.98918E+01
 -1      3257-5.64045E+02-4.29074E+01 1.13794E+01 5.49574E+01 2.77163E+00-2.27337E+01
 -1      3258-7.05723E+03 4.48283E+01 2.13113E+01 8.07789E+02-5.96224E+00-7.30742E+02
 -1      3259-4.16524E+03 8.64833E+00-1.72470E+01 1.52186E+03 1.47786E+01-7.28911E+02
 -1      3260 6.18541E+02 2.20841E+01 5.37510E+00 8.68919E+01 8.33066E-04-6.25850E+01
 -1      3261 6.64750E+02 2.51289E+01 1.09629E+00 3.74929E+01 8.70179E-01-1.14040E+01
 -1      3262 8.60109E+02 3.93288E+01 7.13130E-01-1.04352E+01-1.36421E-01 2.37553E+00
 -1      3263 1.36985E+02 3.19266E+01-9.04295E+00 4.38433E+01-6.80125E+00-1.83162E+01
 -1      3264 8.08353E+02 4.24903E+01 7.34058E+00 2.93667E+01 4.03382E+00-4.29661E+01
 -1      3265 3.97363E+04 2.27783E+03 7.80113E+02 3.34164E+03 1.04036E+03-1.09375E+03
 -1      3266 4.68171E+02-2.87337E+01-1.78246E+00 9.17932E+02-9.95328E+00-1.91894E+02
 -1      3267 1.93643E+02-5.87551E+01-4.15143E+01 8.10444E+02-1.01601E+01-3.29377E+02
 -1      3268 2.81527E+02-4.38438E+01-1.97721E+01 6.90948E+02-1.12602E+01-2.82223E+02
 -1      3269 6.95474E+02-4.11555E+00-8.24749E+00 4.72508E+02-1.02580E+01-3.80771E+02
 -1      3270 4.41218E+04 4.42048E+01-6.07575E+00 2.05140E+03 4.30176E+01-1.22337E+03
 -1      3271-1.00191E+03-4.00005E+01-2.63726E+01-2.40955E+01-8.06738E+00 1.54046E+00
 -1      3272-1.09960E+03-2.71044E+01-2.66334E+01 9.68381E+01-8.93847E+00-5.58187E+01
 -1      3273 3.03733E+04 5.56249E-01 7.23212E+01 1.68163E+03 1.17134E+01-8.47029E+02
 -1      3274 3.35975E+04-1.90214E+00-3.74764E+01 3.39584E+03 7.92275E+01-6.62102E+02
 -1      3275 3.28155E+04 3.51773E+01 9.51805E+00 3.44479E+03 3.17518E+01-6.35057E+02
 -1      3276 1.87703E+04 6.37801E+01-2.31130E+01 3.31081E+03 8.66033E+01-1.29917E+03
 -1      3277 2.88602E+04-3.18607E+01 1.53272E+01 3.35575E+03-9.03325E+00-6.25575E+02
 -1      3278 5.40215E+04-6.21623E+01 8.55222E+00 1.64407E+03 9.02765E+00-1.44036E+03
 -1      3279 5.22778E+04-8.22027E+01-4.50440E+01 1.62866E+03 4.78078E+01-1.37994E+03
 -1      3280 4.61747E+04 8.49721E+01 2.48218E+01 1.58526E+03-4.47988E+01-1.36975E+03
 -1      3281-7.06971E+04-4.51594E+02-1.82971E+03 2.10538E+03-8.06966E+02-1.73477E+03
 -1      3282-5.85227E+04-6.29232E+02-7.98885E+02 3.16054E+03-1.03463E+03-6.86937E+02
 -1      3283-8.12346E+04 8.48798E+00-4.94071E+02 8.22774E+02-3.38456E+02-2.33742E+02
 -1      3284-6.48885E+04 4.25493E+00-5.08403E+02 1.59271E+03-3.78021E+02-1.04741E+03
 -1      3285-5.31502E+04-1.78175E+02-3.36670E+01 2.62781E+03-4.01980E+02-4.17703E+02
 -1      3286 5.22933E+02 4.57081E+01-8.47951E+00-2.24429E+02-6.09507E+00 2.15278E+02
 -1      3287 5.60644E+01 3.65718E+01-1.10773E+01-3.13680E+02-1.48896E+01 1.23943E+02
 -1      3288 5.87440E+02 5.37115E+01-1.56552E+00-1.54292E+02 7.71701E-01 1.47334E+02
 -1      3289 1.49306E+02 7.41156E+01-2.88001E+01-3.53959E+02-6.13090E-01 1.44049E+02
 -1      3290 7.25289E+02 3.77463E+01 2.47933E+01-2.15729E+02-1.57323E+00 1.50683E+02
 -1      3291 1.04181E+03 5.24421E+01 2.66372E+01-1.64480E+02 9.81176E+00 6.37576E+01
 -1      3292 9.35641E+02 4.57283E+01 3.06103E+01-8.82952E+01 7.80974E+00 9.46774E+01
 -1      3293-7.28873E+02-4.57610E+01-2.95138E+01-2.20515E+02-3.21568E+00 1.43683E+02
 -1      3294-8.48986E+02-4.38268E+01-3.11603E+01-1.16298E+02-7.65307E+00 8.81575E+01
 -1      3295 5.35049E+04 2.06520E+03 1.13612E+04 2.00363E+03-1.61410E+02 2.61761E+03
 -1      3296 2.74296E+04 5.83100E+03 6.61164E+03 3.72242E+03-1.41015E+02 2.70498E+02
 -1      3297 4.79085E+04-6.00255E+02 5.64849E+03 3.22462E+03 2.09470E+01 2.00241E+02
 -1      3298 3.54853E+04 7.09218E+03 8.65542E+03 4.83558E+03 4.12301E+02-9.04851E+02
 -1      3299-6.04742E+01 4.99297E+01 3.01141E+01-5.49474E+02 4.55577E+00 2.42545E+02
 -1      3300-1.17069E+02 3.61257E+01 3.48458E+01-5.47087E+02 2.01447E+01 2.19709E+02
 -1      3301-4.10723E+03 2.32226E+01 1.21426E+01 8.67854E+02-3.39408E+00-4.11674E+02
 -1      3302-3.30034E+04-4.40155E+03-5.26445E+03 3.51428E+03-6.55235E+02-2.08918E+03
 -1      3303-3.36928E+04-1.69160E+02-2.98232E+03 5.19258E+03-4.58617E+02-2.18300E+03
 -1      3304 4.46731E+04-1.29613E+02 3.76031E+02 2.07450E+03 6.87144E+01-1.56279E+03
 -1      3305 5.94905E+03 2.30785E+02-8.22493E+00 4.46513E+03-1.24696E+02-2.01469E+03
 -1      3306 1.56820E+04-4.48280E+02 6.04368E+02 3.91484E+03-3.46614E+02-1.63638E+03
 -1      3307-2.52702E+01-2.04545E+01-1.15452E+01-5.65272E+02-8.25159E+00 2.39849E+02
 -1      3308 2.93475E+01-2.67032E+01 2.47185E+01 3.11036E+02 6.04190E+00-2.86387E+02
 -1      3309 2.39625E+02-2.13392E+01 1.25864E+01 4.24750E+02 3.71847E+00-3.28692E+02
 -1      3310-2.70473E+01 2.68280E+01-2.51705E+01 3.10213E+02-5.87618E+00-2.87759E+02
 -1      3311-2.40016E+02 2.14228E+01-1.17418E+01 4.25830E+02-4.01454E+00-3.30214E+02
 -1      3312-1.29267E+00 5.68152E+01-4.24301E+00 6.21695E+02 2.16557E+00-1.38980E+02
 -1      3313-1.52764E+02 3.96339E+01-9.01551E+00 7.41472E+02-6.05388E+00-1.89274E+02
 -1      3314 3.28580E+00-5.79702E+01 4.62568E+00 6.21592E+02-2.16072E+00-1.37728E+02
 -1      3315 1.52059E+02-3.96715E+01 9.21270E+00 7.40255E+02 5.30010E+00-1.89706E+02
 -1      3316-9.42846E+03-2.32708E+02-1.71310E+01 3.43125E+03-3.87245E+02-1.00510E+03
 -1      3317-1.06300E+02-5.04247E+01 6.04193E+01-6.28577E+02 3.08913E+01 1.26685E+02
 -1      3318-1.07651E+02-1.58489E+01 5.80226E+01-6.27964E+02 3.00824E+01 1.23553E+02
 -1      3319-1.34110E+02 7.25059E+00-3.14526E+01-5.79402E+02 1.34522E+01 1.10426E+02
 -1      3320 3.58501E+01-1.70304E+01 4.17632E+01-5.54537E+02 1.27868E+01 2.19769E+02
 -1      3321-6.10954E+01 6.80565E+01-1.81681E+01-5.53107E+02 1.17824E+01 1.10469E+02
 -1      3322 7.10736E+04 6.41793E+02 1.94157E+03 2.17601E+03 8.73209E+02-1.76923E+03
 -1      3323 5.85978E+04 6.16183E+02 7.33740E+02 3.20433E+03 1.02655E+03-7.15667E+02
 -1      3324 8.13938E+04-4.66389E+01 4.77300E+02 7.77479E+02 3.59065E+02-2.53390E+02
 -1      3325 6.47717E+04 2.53746E+01 5.74962E+02 1.61001E+03 3.78279E+02-1.09888E+03
 -1      3326 5.30022E+04 1.34367E+02 1.62975E+01 2.66530E+03 3.83658E+02-3.82149E+02
 -1      3327-6.05713E+02-2.92725E+01-1.97817E+01 1.05630E+02-9.72133E+00-2.62712E+01
 -1      3328-2.69195E+02 1.25293E+00-1.00111E+01 3.85937E+01-7.40541E+00-1.56383E+01
 -1      3329-1.58492E+02 1.96417E+01-2.23194E+01-1.56887E+01-6.11222E+00 2.25829E+00
 -1      3330-1.68365E+02-2.99264E+00-2.16729E+01 1.03389E+02-7.09276E+00-3.75285E+01
 -1      3331-5.71048E+02-3.26957E+01-6.09814E+00 2.30002E+02-1.06239E+01-4.26660E+01
 -1      3332-1.35851E+02 2.08945E+01-1.23669E+01 1.09463E+02-4.66733E+00-9.50075E+00
 -1      3333-1.34181E+02 1.75223E+01-2.01514E+01-5.04428E+02 4.60830E+00 9.84979E+01
 -1      3334-8.69984E+01-7.89591E-01-3.89777E+01-5.14056E+02 7.63691E+00 1.87175E+02
 -1      3335 6.35499E+03-4.37442E+01 8.87104E+00 8.21223E+02 2.52620E+00-7.22701E+02
 -1      3336 2.21348E+03 2.97796E+01 1.78435E+01 1.62536E+03-1.05243E+01-6.38076E+02
 -1      3337 5.12223E+03-5.07323E+01-3.94751E+01 1.54629E+03-1.59951E+01-6.39376E+02
 -1      3338 4.58700E+03-8.81642E+01-6.91247E+01 2.08038E+03-7.68070E+00-8.12527E+02
 -1      3339 1.39578E+04 2.00502E+01-4.48993E+01 1.12115E+03-1.19814E+01-9.75010E+02
 -1      3340 9.70779E+03-1.30138E+01 7.65749E+00 1.85647E+03-2.45710E+00-7.71763E+02
 -1      3341 3.84345E+03 6.47651E+00-2.49329E+01 1.72634E+03-1.02764E+01-3.43019E+02
 -1      3342 8.70322E+03-4.90700E+01 2.57990E+01 2.30704E+03 8.26328E-01-4.49593E+02
 -1      3343-6.69552E+03 7.27869E+00-5.45949E+00 9.21592E+02-7.73233E+00-8.40749E+02
 -1      3344-8.08425E+03-7.00722E+00 3.14012E+00 8.04689E+02 1.39292E+01-7.54903E+02
 -1      3345-5.18124E+04-1.13947E+03-1.07818E+04 1.27628E+03-3.98459E+02 2.59256E+03
 -1      3346-6.16485E+04-4.32906E+03-1.27152E+04 3.13756E+03 1.18278E+02 4.40092E+02
 -1      3347-4.76476E+04 3.97416E+01-5.55963E+03 2.82216E+03-5.85563E+00 5.37210E+02
 -1      3348-5.56699E+04 7.72369E+01-6.57108E+03 3.25990E+03-4.97883E+01-1.03615E+03
 -1      3349-2.71318E+04-5.65814E+03-7.62077E+03 3.79089E+03 4.35540E+01 4.97228E+02
 -1      3350-5.36656E+02-7.31070E+01-1.40160E+01-3.88238E+02-3.32567E+00 8.10360E+01
 -1      3351-1.04548E+03-5.75691E+01-2.66519E+01-1.77184E+02-1.01265E+01 6.13756E+01
 -1      3352-6.74738E+02-6.57766E+01-2.37994E+01-2.46517E+02-7.29107E+00 3.23655E+01
 -1      3353 4.13862E+04 6.42840E+03 2.45565E+03 4.82214E+02 3.09314E+02-2.16754E+03
 -1      3354 2.41226E+04 7.03491E+03 3.18635E+03-8.76354E+02 2.47429E+02-1.80927E+03
 -1      3355-2.10015E+03 8.28876E+02-1.40698E+03 1.99917E+03 9.96569E+02-5.39542E+02
 -1      3356 6.70814E+03 3.82505E+03 3.25809E+03 2.16468E+03 8.56924E+02-1.89965E+03
 -1      3357 1.85507E+04 3.00720E+03-3.31459E+02 2.48250E+03 8.44846E+02-1.11784E+03
 -1      3358-4.51514E+04 1.09168E+02-3.71427E+02 2.03776E+03-6.25356E+01-1.53599E+03
 -1      3359-8.05016E+03-2.42704E+02-2.39778E+01 4.38195E+03 1.44363E+02-2.00496E+03
 -1      3360-1.65931E+04 3.78289E+02-6.94278E+02 3.83767E+03 3.38272E+02-1.62371E+03
 -1      3361-2.59997E+02 1.38226E+02 4.63960E+01-3.00420E+02 1.44484E+01 2.60820E+02
 -1      3362-2.76011E+02 1.43499E+02 2.65268E+01-2.89132E+02 1.06557E+01 2.76938E+02
 -1      3363-3.85843E+02-6.35190E+01 1.85071E+00-2.65784E+02 6.83478E+00 2.38430E+02
 -1      3364-3.66243E+02-4.74188E+01 3.36932E+01-2.45456E+02 9.89458E+00 2.50701E+02
 -1      3365-6.57763E+01 1.14706E+02 4.17557E+01-5.16515E+02 2.88540E+00 2.38832E+02
 -1      3366 9.51698E+03 2.24081E+02 3.68578E+01 3.43116E+03 3.65012E+02-9.56600E+02
 -1      3367 1.55098E+02 2.94853E+00 1.53623E+01-1.16567E+02 2.18945E+00 5.31000E+01
 -1      3368-2.72008E+04-7.92507E+00 4.53155E+01 3.39798E+03-1.45679E+01-7.01252E+02
 -1      3369-6.99969E+03 1.20429E+01 4.48998E+01 3.43544E+03-4.33609E+01-6.76356E+02
 -1      3370-7.96751E+03 3.87729E+01-7.48671E+01 3.17712E+03-1.96729E+01-1.24575E+03
 -1      3371-7.59804E+03-1.10396E+02-1.49306E+00 3.14245E+03 2.45550E+01-1.27888E+03
 -1      3372 1.29902E+04 2.90008E+01 6.50349E+00 2.99085E+03-9.60558E+00-1.30658E+03
 -1      3373-6.68908E+03-6.51003E+01-6.01507E+01 3.46025E+03 5.25620E+01-7.07889E+02
 -1      3374-4.96541E+02-1.69189E+01-1.47529E+01-6.70715E+01-1.07175E+01 1.83505E+01
 -1      3375 6.56618E+02 3.59977E+01 1.50336E+01 1.67711E+02 7.90952E+00-1.54694E+02
 -1      3376 3.13446E+02 4.26616E+01-1.51005E+00 2.59079E+02 1.82023E+00-1.14868E+02
 -1      3377 5.66078E+02 4.05649E+01-1.16831E+00 1.53673E+02-1.93612E+00-1.57404E+02
 -1      3378 4.22657E+02 3.46491E+01 4.85913E-01 2.68306E+02 4.10414E+00-2.20779E+02
 -1      3379 1.42452E+02 5.57957E+01-1.91334E+01 3.97695E+02-2.82629E+00-1.70626E+02
 -1      3380 2.38215E+02 5.49573E+01 2.61116E-01 4.04064E+02 8.01745E+00-1.81993E+02
 -1      3381 3.97540E+02 1.95841E+01 1.59955E+01 3.82882E+02 8.00619E+00-7.01601E+01
 -1      3382 9.27330E+01-1.15809E+01 1.81297E+01 3.68086E+02 2.95620E+00-6.32502E+01
 -1      3383 8.67170E+01-3.59670E+00 1.23939E+01 2.76682E+02 6.01593E+00-1.06294E+02
 -1      3384 1.41196E+02-1.04154E+01 2.28119E+01 4.20868E+02 1.11028E+01-1.72657E+02
 -1      3385-1.42875E+02-4.85891E+01 2.19108E+01 3.95141E+02 6.46627E+00-1.70639E+02
 -1      3386 1.27489E+02-2.11137E+01 1.59901E+01 5.18880E+02 9.89548E+00-1.16442E+02
 -1      3387-2.90438E+04 5.23622E+01 2.38749E+01 3.04689E+03-2.06152E+00-1.23430E+03
 -1      3388-2.84065E+04 7.11795E+01 2.23255E+01 3.45209E+03-4.30770E+01-6.86656E+02
 -1      3389-8.60953E+03-1.04055E+02-8.78406E+01 3.26692E+03-3.35614E+01-1.28435E+03
 -1      3390-1.17475E+04-1.21374E+01 2.52301E+01 3.04647E+03-2.70286E+01-1.14430E+03
 -1      3391-3.33115E+03 4.75452E+01-2.19546E+01 1.43753E+03-5.91451E+00-6.58538E+02
 -1      3392-5.65984E+02 7.18461E+01 1.66062E+01 8.65328E+02 9.68545E+00-4.09529E+02
 -1      3393-7.12299E+01 5.50540E+00 3.13800E+01 9.57806E+02 4.02379E+00-3.65355E+02
 -1      3394 7.31698E+01-1.27090E+01-3.16394E+01 9.59499E+02-5.65251E+00-3.66734E+02
 -1      3395 5.69805E+02-6.74937E+01-1.64555E+01 8.66064E+02-6.36022E+00-4.08877E+02
 -1      3396-1.94849E+03-3.30320E+01 1.94565E+01 1.59436E+03-1.36473E+01-6.11211E+02
 -1      3397-2.72610E+04-3.98291E+03-2.78516E+02-6.20694E+02 1.05794E+02-7.68227E+02
 -1      3398-8.50615E+03-3.68266E+03-4.31055E+00-1.34609E+03-4.76634E+02 3.44119E+02
 -1      3399-3.02063E+04-2.82749E+03-6.32879E+02 2.62605E+03-1.18852E+03-1.87414E+03
 -1      3400-2.36753E+04-2.89520E+03-2.29205E+03 2.28966E+03-1.19968E+03-1.96768E+03
 -1      3401-5.13479E+04-4.17253E+03-1.70080E+03 3.53996E+03-1.54929E+03-2.06833E+03
 -1      3402 4.82098E+02 2.75876E+01 3.25358E+01 2.54037E+02 1.47661E+00-2.04506E+02
 -1      3403 3.13486E+02 6.00922E+01 2.97484E+01 3.91940E+02 1.51816E+01-1.62343E+02
 -1      3404 4.98669E+01 4.28248E+01-1.99409E+00 5.11992E+02-2.81012E+00-2.35863E+02
 -1      3405 2.43601E+02 3.42943E+01 1.10415E+01 5.04056E+02 5.62653E+00-1.06336E+02
 -1      3406-7.28802E+00-2.91057E-01 6.05348E+00 5.54859E+02-2.39774E+00-2.12397E+02
 -1      3407-4.55066E+03-2.68808E+00 2.30473E+01 2.22275E+03-1.73766E+01-8.35952E+02
 -1      3408-1.19425E+04-5.14734E+01-3.88288E+01 3.60550E+03-1.94976E+02-1.43439E+03
 -1      3409-2.76801E+02-3.56287E+01 3.21264E+00-1.22482E+02-1.51416E+00 5.10600E+01
 -1      3410-2.11009E+04 8.16536E+01 1.48587E+01 2.73919E+03-3.42930E+01-1.27453E+03
 -1      3411 5.21287E+02-3.16357E+01 1.70879E+00 7.54545E+02-1.90725E+01-1.67867E+02
 -1      3412 8.72492E+01-5.94482E+01-1.49281E+01 5.98376E+02-2.49042E+00-1.11383E+02
 -1      3413 5.74069E+02-6.79293E+00-1.64630E+01 4.40893E+02-2.24464E+01-2.91914E+02
 -1      3414 9.74053E+01-3.86610E+01-2.90204E+01 2.94304E+02-2.53591E+00-2.31647E+02
 -1      3415 1.79273E+04-1.06463E+02-5.39421E+01 3.44262E+03 1.82491E+02-1.29857E+03
 -1      3416 5.41690E+04 3.68617E+01 1.06366E+01 1.78858E+03 1.68634E+02-1.39006E+03
 -1      3417 3.67513E+04 1.20109E+01 1.42914E+01 3.03593E+03 1.58386E+02-1.16764E+03
 -1      3418 8.03700E+03-7.37461E+01-1.24536E+01 2.00553E+03 2.67303E+01-9.21178E+02
 -1      3419 2.77934E+02-1.46983E+02-8.52966E+01-2.90769E+02-1.96514E+01 2.44613E+02
 -1      3420 2.58623E+02-1.39478E+02-7.74946E+01-3.12026E+02-1.18921E+01 2.70676E+02
 -1      3421 4.58000E+02 4.03936E+01 1.91489E+01-2.24939E+02-6.09557E+00 2.08032E+02
 -1      3422 4.01697E+02 4.26573E+01-6.88889E+00-2.54737E+02-7.16019E+00 2.46146E+02
 -1      3423 1.19965E+02-1.27140E+02-7.02035E+01-5.16681E+02-1.31892E+01 2.29179E+02
 -1      3424-4.68048E+04 2.99576E+01 1.26091E+02 1.67666E+03-2.72554E+01-1.41839E+03
 -1      3425-4.54514E+04 2.64233E+01-1.53507E+01 1.67914E+03-1.78483E+01-1.38932E+03
 -1      3426-3.85921E+04-2.58687E+01-9.43497E+00 1.65350E+03 5.21648E+01-1.47358E+03
 -1      3427-2.09251E+04 1.95444E+00-5.74236E+01 3.03126E+03 2.50564E+01-1.33543E+03
 -1      3428-2.20617E+04-2.17250E+01-4.07402E+01 3.03996E+03-6.54345E+00-1.37176E+03
 -1      3429-8.02827E+03 7.24956E+01 2.11004E+01 1.99862E+03-2.44206E+01-9.22628E+02
 -1      3430 4.55817E+03 6.55208E+00-2.29865E+01 2.22382E+03 1.83677E+01-8.41389E+02
 -1      3431-2.22288E+03 2.16200E+01 2.92351E+01 2.40207E+03 3.68477E+00-9.19638E+02
 -1      3432-8.88121E+03 5.21912E+01 2.83940E+01 2.18432E+03 1.39232E+01-1.01842E+03
 -1      3433 2.49391E+04 9.51388E+01 1.73675E+02 3.50280E+03 7.72752E+01-1.48984E+03
 -1      3434 3.33571E+04-8.64039E+01-2.50724E+01 3.48136E+03 2.15804E+02-6.79224E+02
 -1      3435-1.48906E+03 1.36363E+01 3.88294E+01 2.00229E+03-2.69916E+01-3.92353E+02
 -1      3436-1.88856E+03 4.24448E+01 1.82229E+01 1.85467E+03-9.17008E+00-7.51515E+02
 -1      3437-6.10888E+03 2.16935E+01-1.21829E+01 2.07338E+03 8.52629E+00-4.14477E+02
 -1      3438-1.28703E+03-1.61496E+01-2.28490E+01 2.10897E+03 3.02726E+01-4.20597E+02
 -1      3439-1.70584E+03-1.21009E+01 4.60737E+01 2.00700E+03-2.55845E+00-8.02725E+02
 -1      3440 2.67041E+03-8.54731E+01-1.94663E+01 1.77292E+03-2.55924E-01-7.70757E+02
 -1      3441-2.00945E+04-4.60537E+01 6.77078E+01 2.92262E+03-5.82402E+01-1.33423E+03
 -1      3442-3.75649E+04 1.12165E+02 1.27183E+01 1.59662E+03-4.89161E+01-1.49210E+03
 -1      3443-1.29184E+04 1.26559E+01-3.35953E+00 3.01219E+03 2.20407E+01-1.29806E+03
 -1      3444-6.81353E+01-1.41811E+01 4.22739E+01-5.66252E+02 2.11091E+01 2.12293E+02
 -1      3445-2.62651E+02-1.49651E+01-5.99209E+00-5.51815E+02 1.09840E+01 9.38711E+01
 -1      3446 7.51238E+03 1.51114E+03-1.01592E+03-1.78550E+03-5.14683E+01 3.76767E+02
 -1      3447-9.40929E+03-2.02978E+02-1.48661E+03 1.75245E+03 4.22890E+02 1.33237E+02
 -1      3448 3.29839E+03-5.34077E+01-1.21782E+01 6.29072E+02-1.17875E+01-5.63344E+02
 -1      3449 1.24821E+03-4.66325E+01-1.71886E+01 1.14370E+03-3.11967E+01-5.11044E+02
 -1      3450 2.70602E+03-1.52128E+01 1.10845E+01 6.86199E+02-1.42353E+00-5.89919E+02
 -1      3451 4.27061E+03-2.08539E+01-2.53038E+01 6.66771E+02-7.29297E+00-5.98480E+02
 -1      3452 2.01952E+03-4.29567E+01-2.00251E+01 1.22789E+03-8.94385E+00-5.55544E+02
 -1      3453 2.70233E+03-4.39616E+01-3.08635E+01 1.20432E+03-2.49269E+00-4.84924E+02
 -1      3454 6.04371E+02 1.37020E+01-2.55542E-01 1.40062E+03-3.40334E-01-2.86233E+02
 -1      3455 4.89740E+02-5.30079E+00-3.79856E+01 1.21702E+03-2.12315E+01-4.74815E+02
 -1      3456 1.94834E+03-1.31171E+01-2.19081E+01 1.35928E+03 4.52038E+00-2.66488E+02
 -1      3457 2.80684E+03-3.42736E+01-6.03356E+00 1.46947E+03-1.19508E+01-2.73688E+02
 -1      3458 1.22654E+03-2.50070E+01-1.44526E+01 1.31762E+03-2.42053E+01-5.12566E+02
 -1      3459 9.66455E+02 3.50964E+01 1.22144E+01-4.84659E+01 9.21052E+00 3.08571E+01
 -1      3460 4.05125E+02 5.12305E+01-5.81738E+00-5.90996E+01-1.60475E+00 2.20408E+01
 -1      3461 6.59511E+03 2.79266E+01 8.25496E-01 1.79761E+03 3.62803E+00-5.02797E+02
 -1      3462 3.78605E+03-9.77439E+00-5.01570E+00 2.06823E+03-5.04604E+00-5.14450E+02
 -1      3463 7.54796E+03-4.36305E+01 2.60563E+01 1.85545E+03 7.69935E+00-5.14170E+02
 -1      3464 3.37388E+03 9.97941E+00-3.49257E+01 2.64087E+03 5.78980E+00-1.06775E+03
 -1      3465 3.10616E+03 1.66683E+01 2.30041E+01 2.77323E+03-4.83532E+01-5.60974E+02
 -1      3466 1.32839E+04-3.88398E+01 2.89832E+00 2.79130E+03-1.69562E+01-5.64304E+02
 -1      3467 3.12440E+03-3.12592E+01 3.03881E+00 2.51167E+03 3.90865E+01-1.01069E+03
 -1      3468 2.86587E+03 5.54308E+00-7.67117E-01 2.71868E+03 9.89119E+00-5.17772E+02
 -1      3469-6.81583E+03 5.24846E+01-3.48739E+01 2.33453E+03-4.34539E+00-1.05867E+03
 -1      3470 1.86687E+04 3.12449E+01-6.47380E+00 1.30958E+03-5.03548E+01-1.18008E+03
 -1      3471 1.02995E+04-1.19176E+01 4.60979E+01 2.48259E+03-3.89215E+01-1.11827E+03
 -1      3472 2.20782E+04-6.85607E+00-4.03027E+01 1.37083E+03-7.09504E+00-1.15179E+03
 -1      3473 1.83766E+04-1.82808E+01 1.09553E+01 1.19924E+03 8.94658E+00-1.18315E+03
 -1      3474 1.02119E+04-3.05213E+01-3.49772E+00 2.33465E+03 2.54750E+01-1.05446E+03
 -1      3475 6.82843E+03-6.37003E+01 3.97488E+01 2.36188E+03 7.14263E+00-1.02242E+03
 -1      3476-3.34077E+03-2.09646E+01 2.32827E+01 2.66040E+03 7.62986E+00-1.04605E+03
 -1      3477-3.09071E+03-1.05083E+01-1.53528E+01 2.77698E+03 3.27772E+01-5.75165E+02
 -1      3478-3.10029E+03 1.41622E+01-4.72671E+00 2.52645E+03-1.47131E+01-9.36744E+02
 -1      3479-3.73666E+02-2.74945E+01-2.04573E+01-5.03856E+02 7.08799E-02 8.64762E+01
 -1      3480-4.45650E+02-3.55603E+01-2.09628E+01-3.89234E+02-6.36563E+00 7.81565E+01
 -1      3481-2.20518E+02 2.35089E+01-2.06619E+01-2.68495E+02-4.94713E+00 3.97074E+01
 -1      3482-1.35186E+02-4.61978E+00-3.59416E+01-3.71109E+02 5.18629E-01 1.25028E+02
 -1      3483-1.71123E+02 2.09782E+01-1.73598E+01-3.78081E+02 1.06501E+00 4.42896E+01
 -1      3484 5.87290E+04-7.87018E+00 3.56045E+01 1.46256E+03-1.78607E+01-5.20320E+02
 -1      3485 5.66627E+04-3.64079E+01-7.12191E-01 1.48132E+03 2.05252E+01-5.33105E+02
 -1      3486 4.54493E+04-5.05073E+01-3.65723E+01 1.54590E+03-8.99072E+00-1.09923E+03
 -1      3487 3.74331E+04-6.78030E+01-9.36323E+00 2.84020E+03 2.50550E+01-6.00691E+02
 -1      3488-5.88222E+01 1.72679E+01-2.22454E+01-6.41455E+01-6.58393E+00 2.07083E+01
 -1      3489-3.79792E+02-5.23979E+01-6.91283E+00 2.21070E+02-2.14062E+00-1.04447E+02
 -1      3490-3.28174E+01-4.04614E+01 5.06775E+00 5.09611E+02 2.34672E+00-2.39905E+02
 -1      3491-1.50096E+00 8.00533E-01-2.06581E+01 5.73113E+02-2.34301E+00-2.09099E+02
 -1      3492-3.96745E+04-6.29664E+03-7.45834E+03 4.55782E+03-8.25388E+02-7.92431E+02
 -1      3493-6.98807E+04-1.25133E+03-7.17273E+03 3.62989E+03-1.12157E+03-2.61001E+03
 -1      3494 7.13386E+02 4.88841E+01-3.01103E+00-1.29363E+02 2.74255E-01 1.07079E+02
 -1      3495 6.38776E+03-2.49983E+01 5.46806E+01 1.72490E+03-1.69738E+01-8.37676E+02
 -1      3496 4.25132E+03-4.51381E+01-4.33559E+01 1.61583E+03 1.27825E+00-7.58300E+02
 -1      3497-1.86006E+04-1.37733E+01 6.17494E+00 1.33085E+03 4.22860E+01-1.17417E+03
 -1      3498-1.02540E+04-1.08728E+01-5.19828E+01 2.46232E+03 5.10720E+01-1.13460E+03
 -1      3499-1.01966E+04-3.20980E+01-3.47380E+01 2.27456E+03-2.79429E+01-1.06801E+03
 -1      3500-5.45449E+03-1.14926E+00 1.93035E+01 2.01243E+03 1.34804E+01-4.34173E+02
 -1      3501-6.06666E+03-5.88077E+00 8.54349E+00 1.80524E+03 1.17310E+01-7.51633E+02
 -1      3502-1.46275E+03 6.02269E+01 3.59753E+01 1.83329E+03-5.98448E+00-7.18463E+02
 -1      3503 7.37329E+02 3.22688E+01 3.20385E+00 1.35323E+02-4.00413E+00-1.05136E+02
 -1      3504 1.12670E+02 4.11018E+01-8.04348E+00 1.81856E+02-4.40944E+00-8.11465E+01
 -1      3505 2.64970E+02 5.62222E+01-1.83467E+01 1.17199E+02-6.37353E+00-5.46114E+01
 -1      3506 1.89596E+03-3.30597E+01-1.52574E+01 1.78901E+03 4.48410E+00-6.64651E+02
 -1      3507 5.07040E+04 3.01342E+03 1.16397E+03 3.15182E+03 1.48859E+03-1.94933E+03
 -1      3508 3.92970E+04 6.21513E+03 7.41519E+03 2.83531E+03 6.66235E+02-3.26652E+03
 -1      3509-1.78445E+04 1.40897E+01 1.78985E+01 9.95817E+02 8.12366E+00-3.58132E+02
 -1      3510 2.47913E+02 2.85772E+01 1.86597E+00 2.67229E+02-3.33243E+00-1.24149E+02
 -1      3511 4.12468E+02 3.78621E+01-1.87811E+01 1.80790E+02-4.98740E+00-1.72046E+02
 -1      3512 8.57794E+01 4.99543E+01-7.30912E+00 3.79776E+02-4.74399E+00-8.00850E+01
 -1      3513-5.27299E+00 4.03375E+01-1.48539E+01 5.22572E+02-9.30243E+00-1.33975E+02
 -1      3514 2.76400E+02 2.81935E+01-1.17442E+01 2.92664E+02 4.31211E-02-2.35305E+02
 -1      3515-2.48125E+02-2.78662E+01-1.95165E+00 2.69043E+02 2.29843E+00-1.23579E+02
 -1      3516-4.07904E+02-3.77845E+01 2.00823E+01 1.77387E+02 5.34952E+00-1.71460E+02
 -1      3517-8.00118E+01-4.72976E+01 1.15559E+01 3.77710E+02 4.05234E+00-8.01681E+01
 -1      3518-1.67926E+00-4.18611E+01 1.19201E+01 5.24688E+02 1.00046E+01-1.32333E+02
 -1      3519-2.83775E+02-3.08551E+01 1.03861E+01 2.95223E+02-1.39380E-01-2.34605E+02
 -1      3520 3.08501E+02 3.90770E+01-1.05804E+01 1.94194E+02-7.03447E+00-1.08878E+02
 -1      3521 1.02883E+02 5.44914E+01-1.23843E+01 2.82710E+02-4.47722E+00-6.47884E+01
 -1      3522-3.08781E+02-3.84719E+01 1.09979E+01 1.94581E+02 7.00487E+00-1.09501E+02
 -1      3523-1.05135E+02-5.78569E+01 1.56301E+01 2.82064E+02 1.34717E+00-6.47526E+01
 -1      3524-4.59620E+02-3.50141E+01 1.03961E+01 1.67217E+02 3.04314E+00-7.61690E+01
 -1      3525-5.56499E+02-3.57821E+01 1.81684E+01 1.42266E+02 3.22217E+00-1.24943E+02
 -1      3526 4.60114E+02 3.36508E+01-9.88234E+00 1.67319E+02-3.43495E+00-7.51252E+01
 -1      3527 5.62856E+02 3.02199E+01-1.98931E+01 1.44470E+02-2.17292E+00-1.26592E+02
 -1      3528 3.23152E+03 3.60459E+01-3.30048E+01 1.99207E+03-1.31122E+01-7.33319E+02
 -1      3529 1.17732E+04 6.44561E+01 1.13049E+01 3.25754E+03 2.60445E+01-1.21466E+03
 -1      3530 5.54157E+03-1.47402E+01-2.72742E-01 9.77548E+02-1.61872E+00-4.51838E+02
 -1      3531 5.28663E+03-4.77789E+01 5.33147E+01 9.47474E+02 8.36871E+00-4.58211E+02
 -1      3532 1.79416E+03-5.69787E+01 2.04105E+01 1.79984E+03 2.26038E+00-4.38167E+02
 -1      3533 1.58101E+03-6.53555E+01 3.34252E+01 1.76374E+03-1.68820E+01-4.28324E+02
 -1      3534 6.05233E+03-5.87599E+01 4.33690E+01 9.46838E+02 1.16093E+01-7.91099E+02
 -1      3535-1.12942E+04 1.17081E+03-5.34507E+02 2.64700E+03 6.60212E+02-1.15573E+03
 -1      3536-4.22391E+04-8.11834E+01-2.15091E+03 2.19424E+03 1.34278E+02-6.61585E+02
 -1      3537-3.29939E+04 4.94464E+02-5.80461E+02 8.00363E+02 1.67391E+02-6.28329E+02
 -1      3538-9.12215E+03 2.37770E+02-1.15695E+02 2.72320E+03 2.37039E+02-1.07224E+03
 -1      3539-3.80631E+04 8.86594E+01-5.72573E+02 1.96248E+03 1.18647E+02-1.20544E+03
 -1      3540 2.27009E+04-3.27504E+01-8.94435E+01 2.81515E+03 1.95036E+01-1.32736E+03
 -1      3541-1.11704E+02 9.73609E+01 4.12365E+01-4.99557E+02 1.02894E+01 2.37613E+02
 -1      3542-4.42261E+02-4.38925E+01-6.48864E+00-2.36040E+02 3.23533E+00 2.16295E+02
 -1      3543 3.42460E+02 5.07371E+00-1.28629E+01 1.46941E+03 6.94606E+00-2.86210E+02
 -1      3544 1.07923E+03-5.74932E+00-2.04605E+01 1.42639E+03 2.36602E+00-5.28600E+02
 -1      3545-1.04331E+03 5.24080E+01 1.08732E+01 1.24889E+03-7.10246E+00-5.43833E+02
 -1      3546 3.15010E+03-1.94676E+01-2.35907E+01 6.60151E+02 3.39824E+00-6.28805E+02
 -1      3547 1.01241E+03-4.51707E+01 2.28798E-01 1.24678E+03 7.31254E+00-5.35670E+02
 -1      3548 2.51876E+03-4.28916E+01-2.44057E+00 1.26006E+03 3.41087E+00-5.93701E+02
 -1      3549 1.04388E+04-6.68064E+01 8.23594E+00 3.16506E+03 2.20870E+01-1.18143E+03
 -1      3550-7.36313E+04-1.54732E+01-1.83570E+00 1.48374E+03-2.33053E+01-4.69220E+02
 -1      3551 3.76804E+02 5.08390E+01-5.15869E+00-2.34757E+02-3.00979E+00 2.51699E+02
 -1      3552 9.03055E+01-9.93961E+01-6.97223E+01-4.94492E+02-5.17615E+00 2.41483E+02
 -1      3553 2.83232E+04 6.35227E+01-3.81694E+01 1.65798E+03 8.09264E+00-8.05149E+02
 -1      3554 2.71927E+04 4.27989E+00-3.40187E+01 1.63318E+03-1.79735E+01-7.70158E+02
 -1      3555 9.39842E+03 5.31801E+01-6.28014E+01 3.11331E+03 3.76562E+01-7.70751E+02
 -1      3556 3.15064E+04 6.36468E+01-3.05398E+01 1.66216E+03 1.91545E+00-1.40738E+03
 -1      3557 3.25946E+04 6.47461E+01-1.93012E+01 1.71703E+03-3.63230E+01-1.43250E+03
 -1      3558-1.46777E+04 2.14047E+01-4.61278E+01 2.77077E+03 3.35053E+01-1.23935E+03
 -1      3559 2.54153E+04 3.81409E+01 7.90465E+01 2.92417E+03 9.64599E+00-1.37061E+03
 -1      3560-1.78572E+04 8.46883E+01 3.58978E+01 2.87004E+03 5.49651E+01-1.28690E+03
 -1      3561-8.56819E+03-1.25815E+01 5.56574E+01 3.09193E+03 2.40196E+01-1.20817E+03
 -1      3562 1.45136E+03 2.85067E+01 1.62691E+01 1.56143E+03 1.32737E+01-6.15931E+02
 -1      3563 1.92755E+02-9.91661E+00-1.17946E+01 8.88829E+02 2.09610E+00-3.44152E+02
 -1      3564-4.27977E+02 5.52059E+01 1.37131E+01 8.25447E+02-1.10740E+01-3.78425E+02
 -1      3565-1.85873E+02 4.61299E+00 1.36686E+01 8.93550E+02-2.84754E+00-3.41972E+02
 -1      3566 4.36646E+02-4.99116E+01-1.00423E+01 8.23810E+02 1.39751E+01-3.77160E+02
 -1      3567 2.79848E+03-2.17535E+01 1.77765E+01 1.49710E+03 7.63949E+00-6.45971E+02
 -1      3568-3.07994E+03 5.42698E+00 5.13831E+01 2.22995E+03 1.88679E+01-8.78787E+02
 -1      3569 6.53276E+03-6.48392E+01-3.99942E+00 2.08095E+03-2.25403E+01-9.19234E+02
 -1      3570-6.52074E+03 7.41040E+01 2.20464E+01 2.07475E+03 3.49287E+01-9.25663E+02
 -1      3571 3.09433E+03-1.35862E+01-5.27217E+01 2.22685E+03-1.79380E+01-8.78652E+02
 -1      3572 4.89342E+03-1.01208E+01-5.02398E+01 2.93517E+03 6.09876E+00-1.17645E+03
 -1      3573 1.46873E+04-2.14846E+01 4.45769E+01 2.76795E+03-3.23834E+01-1.23995E+03
 -1      3574 6.05587E+03-5.30594E+01-5.59213E+01 2.75574E+03-4.54894E+01-1.08115E+03
 -1      3575-1.28002E+04 4.80707E+01 7.01160E+01 2.59675E+03 5.35680E+01-1.15277E+03
 -1      3576 1.27810E+04-4.98728E+01-6.69890E+01 2.60007E+03-5.26882E+01-1.15124E+03
 -1      3577-4.88473E+03 3.48429E+00 4.71374E+01 2.93198E+03-7.47734E+00-1.17409E+03
 -1      3578 2.35782E+04-4.06603E+01 2.41291E+01 1.18554E+03-1.31037E+01-1.09651E+03
 -1      3579 1.55705E+04 9.34094E+01 9.03150E+01 2.34408E+03 1.20802E+01-9.41320E+02
 -1      3580 1.18305E+04-5.52627E+01-2.19265E+01 2.22792E+03 2.34218E-01-1.05678E+03
 -1      3581 1.49249E+04 3.99211E+00-3.18367E+01 2.69176E+03-2.68735E+01-4.88498E+02
 -1      3582 4.96562E+03-2.80480E+01-4.44390E+01 2.50545E+03-9.49469E+00-9.74660E+02
 -1      3583-6.07478E+03 5.58155E+01 5.58949E+01 2.75826E+03 4.55866E+01-1.07999E+03
 -1      3584-4.57889E+04-9.69704E+03-3.20005E+03 5.47095E+02-3.15785E+02-2.45269E+03
 -1      3585-4.28851E+04-7.59213E+03-7.74205E+03 3.35735E+03-9.61526E+02-3.92846E+03
 -1      3586 1.37283E+03 3.82536E+01 2.00139E+01-5.48646E+01 1.16408E+01 2.32259E+01
 -1      3587 1.22735E+03 4.33077E+01 1.92883E+01-1.37447E+02 7.87919E+00 3.42083E+01
 -1      3588 1.07838E+03 3.34253E+01 2.59805E+01-5.43814E+01 5.85754E+00 5.33262E+01
 -1      3589 8.36074E+02 5.71389E+01 1.10907E+01-1.03068E+02 1.00957E+01 2.94403E+01
 -1      3590 1.77305E+03-3.82170E+01-2.73295E+01 1.40336E+03 9.66690E+00-5.88509E+02
 -1      3591-3.95258E+02 1.08585E+01 7.10839E+00 1.29463E+03-1.28839E+01-5.36157E+02
 -1      3592-6.90095E+02 3.30262E+01 2.10903E-01 1.40151E+03-7.49482E+00-6.10471E+02
 -1      3593 3.09754E+02-4.28314E+01-2.12919E+01 3.44542E+02-5.71752E+00-1.21488E+02
 -1      3594 3.04699E+02-1.30465E+02 1.10949E+01-2.88486E+02-1.68747E+01 2.75714E+02
 -1      3595 8.13484E+01-1.19808E+02-1.72077E+01-4.89466E+02-7.16468E+00 2.37242E+02
 -1      3596 9.12467E+02 3.96247E+01 1.49058E+01-6.50686E+01 9.92435E+00 8.49760E+01
 -1      3597-1.35732E+02 1.53144E+02 7.97271E+01-6.20703E+02 3.27006E+01 1.18156E+02
 -1      3598-1.31327E+02 9.92674E+01 6.05820E+01-5.42119E+02 1.87763E+01 2.04452E+02
 -1      3599-9.07739E+03 4.13445E+00 2.99828E+01 3.11568E+03 3.27027E+01-1.30040E+03
 -1      3600 1.10423E+04 1.16271E+02-1.09005E+02 3.19836E+03 3.41288E+01-1.37736E+03
 -1      3601 1.17226E+04-1.19231E+02 8.41711E+01 3.21547E+03-5.42394E+01-1.35630E+03
 -1      3602-3.00750E+04 6.11218E+01 3.83194E+01 1.61598E+03 2.12465E+01-8.60605E+02
 -1      3603 8.38292E+02 2.51768E+01 1.97354E+01 1.43219E+02 9.24324E+00-1.10089E+02
 -1      3604-1.00786E+04 2.59646E+01-5.93003E+00 3.17098E+03-6.67054E+01-1.27019E+03
 -1      3605-8.23743E+03-4.07632E+01-7.13324E+00 9.79226E+02 2.68298E+01-9.06235E+02
 -1      3606-4.41635E+03 2.45597E+01-3.45136E+01 1.77972E+03 1.11374E+01-7.86210E+02
 -1      3607-9.18776E+03 2.90876E+01-1.46926E+00 9.45168E+02-1.10632E+01-8.26407E+02
 -1      3608-7.62733E+03 5.18250E+01-9.57764E+00 9.24062E+02-2.74463E+01-8.54166E+02
 -1      3609-3.93975E+03 6.58983E+00 1.24783E+01 1.66978E+03-2.28104E+01-7.71615E+02
 -1      3610-2.78350E+03 3.35755E+01 3.07400E+00 1.77739E+03 5.15895E+00-7.62454E+02
 -1      3611 1.65993E+02 1.14894E+01 9.94035E+00 3.42027E+02 9.69991E+00-1.43521E+02
 -1      3612-1.68279E+02-2.07977E+01-4.90039E+00 3.43288E+02 2.68042E+00-1.44118E+02
 -1      3613-8.13967E+01-5.11138E+01 8.06600E+00 4.85884E+02-2.54394E+00-2.09666E+02
 -1      3614 3.99650E+01 5.12296E+00-7.84038E+00 3.29999E+02-4.78048E+00-1.48125E+02
 -1      3615-6.91826E+00 2.14623E+01-1.99335E+01 4.81546E+02-2.92027E+00-2.11620E+02
 -1      3616-1.75748E+03 8.97568E+01-3.66504E+01 3.15733E+03-1.37843E+00-1.38700E+03
 -1      3617 4.02214E+02 1.94837E+00 1.78887E+01 1.27885E+03-4.04172E+00-5.52903E+02
 -1      3618 7.16458E+02-1.59573E+01 2.09155E+01 1.41074E+03 5.48996E-01-6.03818E+02
 -1      3619-6.25806E+03 4.92423E-01 7.15047E+00 1.03043E+03 2.36718E+00-5.02521E+02
 -1      3620-5.59587E+03-6.76928E+00 3.54287E+00 9.62401E+02 1.39394E+01-4.57017E+02
 -1      3621-2.19605E+03-1.33159E+01 3.91618E+01 1.85976E+03-1.45713E+01-4.90662E+02
 -1      3622-6.54129E+03-2.25072E+01 1.45302E+01 9.83796E+02 4.95678E+00-8.32623E+02
 -1      3623-7.24782E+03-3.81911E+01 5.71613E+00 1.05797E+03 1.03495E+01-8.61406E+02
 -1      3624 6.59704E+03-5.18904E+01-4.77643E+01 2.45804E+03 3.24286E+01-9.89027E+02
 -1      3625 8.55850E+03-1.15449E+01-2.44109E+01 2.47399E+03 2.07143E+01-9.56267E+02
 -1      3626-7.02531E+04-3.72992E+03-1.51399E+04 3.18916E+03-5.82040E+02-2.04318E+03
 -1      3627-5.03614E+04-9.26392E+03-1.04891E+04 5.41740E+03-8.07300E+02-2.72178E+03
 -1      3628-2.65061E+04 4.36465E+01-6.86236E+01 1.64038E+03 1.25254E+01-7.82807E+02
 -1      3629-2.71161E+04 1.76136E+01-3.15305E+01 1.60455E+03 4.85710E+00-7.82694E+02
 -1      3630-3.04666E+04 8.94490E+01-1.49382E+01 1.65261E+03-2.93918E+01-1.37653E+03
 -1      3631-8.64790E+03 5.82918E+01-1.62770E+01 3.03481E+03 1.56967E+01-7.28769E+02
 -1      3632-8.21104E+03 5.08460E+01-6.54209E+01 3.05691E+03 4.32435E+01-7.51691E+02
 -1      3633 3.55989E+01 2.74586E+01 1.13680E+01 4.71880E+02-9.49613E+00-1.90400E+02
 -1      3634-1.35638E+03-1.49632E+02 5.06620E+01 3.14948E+03 2.10611E+01-1.37169E+03
 -1      3635 1.10716E+03 1.46807E+01 1.46565E+01 1.25605E+03-6.77729E+00-5.14110E+02
 -1      3636-2.97688E+02 1.51701E+02 1.00913E+02-2.93101E+02 1.32993E+01 2.52464E+02
 -1      3637-1.46367E+02 1.20797E+02 7.97198E+01-4.97828E+02 1.03949E+01 2.21611E+02
 -1      3638 3.24072E+03-3.01665E+01 3.14753E+01 2.48339E+03-1.64343E+01-1.12716E+03
 -1      3639-5.04692E+03 1.58587E+01-6.96703E+01 1.87839E+03 2.05274E+01-8.47429E+02
 -1      3640-3.30563E+03 9.17241E+01-1.55568E+01 2.55782E+03-2.09355E+01-1.06027E+03
 -1      3641-2.82901E+04-6.30280E+01 2.37692E+01 1.65562E+03-9.82581E+00-8.17484E+02
 -1      3642-3.14966E+04 6.03744E+01 1.45658E+01 1.64496E+03 2.57219E+01-1.37217E+03
 -1      3643-9.26949E+03-1.92071E+01 5.62724E+01 3.11751E+03-3.75295E+01-7.80042E+02
 -1      3644-3.24610E+04-5.09204E+01 3.60250E+01 1.71042E+03 3.07977E+01-1.42904E+03
 -1      3645 2.22979E+03 3.31661E+01-5.72724E+01 1.85615E+03 3.87369E+01-7.73682E+02
 -1      3646-2.21761E+03 4.11748E+01-1.45350E+01 1.92180E+03-3.55361E+01-7.95908E+02
 -1      3647 2.60659E+03-1.05299E+02 6.14669E+01 1.95104E+03-2.31118E+01-8.41272E+02
 -1      3648-7.96473E+04 8.84042E+01-2.88039E+02 1.17269E+03-2.02217E+02-4.51901E+02
 -1      3649-5.17041E+04 1.50030E+02-2.60431E+01 2.88042E+03-2.65443E+02-4.76611E+02
 -1      3650 1.63555E+04 2.00711E+03 3.37188E+03 3.28713E+03-8.49674E+01-8.12687E+02
 -1      3651-1.38619E+03-3.90174E+01-1.88081E+01 4.38779E+01-1.01491E+01-1.76787E+01
 -1      3652-7.79464E+02-6.13800E+01-1.95354E+01-1.20719E+01-9.01554E+00 1.10513E+01
 -1      3653-8.75168E+02-5.42966E+01-9.97509E+00 1.40963E+02-1.24185E+01-3.81957E+01
 -1      3654-5.30624E+03 4.16368E+01-3.47336E+01 9.40004E+02 3.97845E+00-4.61170E+02
 -1      3655-2.03074E+03 2.56450E+01 3.33423E-01 1.79820E+03-2.13218E+00-4.49851E+02
 -1      3656-5.99173E+03 5.72929E+01-2.17635E+01 9.25752E+02-1.53060E+01-7.95332E+02
 -1      3657-1.65343E+03 5.49986E+01-3.11223E+01 1.73998E+03 1.94362E+01-4.23153E+02
 -1      3658-1.38768E+03-3.79984E+01-2.04453E+01-6.57646E+01-9.35934E+00 2.20918E+01
 -1      3659-1.22825E+03-4.87913E+01-2.12796E+01-9.45625E+01-7.24439E+00 5.32599E+01
 -1      3660-9.85051E+02-2.84553E+01-2.07877E+01-7.38482E+01-5.65703E+00 4.23096E+01
 -1      3661-7.79663E+02-5.69236E+01-1.35127E+01-1.28885E+02-8.31810E+00 2.05719E+01
 -1      3662-2.54874E+04-7.94777E+01-1.66023E+02 3.41225E+03-5.05558E+01-1.47530E+03
 -1      3663 8.41452E+03-8.91937E+02 1.24608E+03 1.94000E+03-5.88566E+02-5.12111E+02
 -1      3664 1.53534E+03-2.04039E+03 8.53534E+02 2.05423E+03-1.08668E+03-8.70103E+02
 -1      3665-9.92080E+03 2.72647E+01 7.75723E+01 1.04425E+03-1.00184E+01-8.65801E+02
 -1      3666 1.14713E+04 8.96065E+01 5.24257E+01 3.56319E+03 1.79501E+02-1.39636E+03
 -1      3667-4.87568E+02-1.94614E+01-1.77430E+01-2.04607E+02-1.09580E+01 3.15689E+01
 -1      3668-1.45703E+02 1.17844E+01-2.68717E+01-1.83784E+02-9.77290E+00 6.28194E+01
 -1      3669-7.75635E+04 7.87965E+01-5.16616E+01 1.30198E+03-8.53084E+01-3.50723E+02
 -1      3670-6.27496E+04 2.64417E+01 4.34026E+01 1.68738E+03-1.78647E+02-9.63240E+02
 -1      3671 7.91067E+04-1.04497E+02 4.73149E+01 1.11818E+03 1.72533E+02-2.49058E+02
 -1      3672 6.26639E+04-1.14827E+01 2.26704E+00 1.72186E+03 1.99176E+02-9.63822E+02
 -1      3673-1.71713E+03-4.15306E+00-1.37339E+01 1.81478E+03 1.23922E+01-7.52031E+02
 -1      3674 8.52328E+03 7.52085E+00 9.99663E-02 1.65224E+03 8.34860E+00-3.38090E+02
 -1      3675 5.86535E+03 5.00742E+00 1.41106E+01 1.97593E+03-2.66597E+01-3.66926E+02
 -1      3676 7.45932E+03-6.07408E+01-5.85127E+01 2.06667E+03 1.80007E+01-3.74397E+02
 -1      3677 7.79852E+04-3.15485E+01 8.87995E+01 1.34259E+03 7.87676E+01-3.64022E+02
 -1      3678 5.18701E+04-1.15623E+02-6.53769E+00 2.89911E+03 2.51045E+02-4.84424E+02
 -1      3679 5.57447E+02 3.20918E+01 1.69209E+01 2.58593E+02 8.90613E+00-9.35539E+01
 -1      3680 8.54976E+02 3.32960E+01 1.60381E+01 2.17642E+02 1.30329E+01-6.69861E+01
 -1      3681 8.62842E+02 3.33886E+01 2.85793E+01 1.56632E+02 7.08697E+00-1.11447E+02
 -1      3682 4.74636E+02 6.25553E+01 2.07453E+01 3.73504E+02 7.09743E+00-6.96707E+01
 -1      3683 6.15784E+02 4.17380E+01 2.94145E+01 1.95024E+02 5.68897E-01-1.48819E+02
 -1      3684 1.09510E+03 3.22084E+01 1.99029E+01 1.52072E+02 9.80470E+00-5.10655E+01
 -1      3685 6.84818E+02 5.79373E+01 1.73113E+01 2.82656E+02 9.34188E+00-6.15108E+01
 -1      3686 3.26934E+02 4.55555E+01 1.99764E+01 4.89250E+02 1.64500E+01-1.06150E+02
 -1      3687 4.40684E+02 2.79229E+01 3.46702E+01 2.82490E+02 1.36622E+01-1.88730E+02
 -1      3688 7.58243E+03-2.48089E+01-2.31086E+01 1.19163E+03 4.25841E+00-8.62012E+02
 -1      3689 9.46647E+03-4.55087E+01 1.36472E+01 9.02936E+02-2.99518E+01-8.15023E+02
 -1      3690-4.70745E+02-3.98666E+01-1.32835E+01 2.57682E+02-7.05015E+00-1.87946E+02
 -1      3691-4.33509E+02-2.89375E+01-2.77216E+01 2.59628E+02-2.22002E+00-2.14981E+02
 -1      3692-2.28255E+02-1.53161E+01-1.67708E+01 4.46659E+02-1.06269E+01-1.12610E+02
 -1      3693-2.38349E+02-3.53941E+01-2.29240E+01 5.30341E+02-6.40031E+00-1.04191E+02
 -1      3694 1.81756E+04-2.78311E+01-2.93197E+01 3.45665E+03-3.08869E+00-8.70186E+02
 -1      3695 3.17400E+04-7.06583E+01-5.05511E+01 3.43701E+03 4.63189E+01-6.42554E+02
 -1      3696 3.66020E+04-2.28065E+01-3.23442E+00 2.00668E+03-2.42889E+00-1.44853E+03
 -1      3697 5.05009E+04 3.20882E+01-7.23763E+01 1.60174E+03 6.07781E+01-1.39939E+03
 -1      3698-4.72646E+02-3.90927E+01 3.95796E+01-2.34649E+02 2.48152E-01 1.84399E+02
 -1      3699-1.66296E+01-7.75695E+01 1.96273E+01-4.05312E+02 4.62867E+00 1.02536E+02
 -1      3700-4.24223E+02-4.78314E+01 1.95738E+01-1.74699E+02 5.30108E+00 8.61948E+01
 -1      3701-5.61933E+02-3.79393E+01 2.71825E+01-1.08095E+02 1.52483E+00 1.10381E+02
 -1      3702-7.45175E+01-7.33934E+01 1.34240E+01-2.39396E+02 3.25854E+00 5.15879E+01
 -1      3703-6.92676E+04 5.24284E+00-8.13612E+00 1.56075E+03 4.59211E+00-5.28528E+02
 -1      3704-4.35014E+04 3.94255E+01 1.81256E+01 2.97281E+03-1.71109E+01-6.52428E+02
 -1      3705-5.28944E+04 5.32962E+01 2.18545E+01 1.70220E+03-5.30688E+01-1.14921E+03
 -1      3706-5.43573E+04 1.93177E+01 7.16235E+01 1.70225E+03 4.00018E+00-1.16077E+03
 -1      3707-4.47872E+04 2.94710E+01 4.42983E+01 2.99834E+03 2.01341E+01-6.48271E+02
 -1      3708-6.70556E+04-2.49333E+00-6.03351E+01 1.52037E+03 1.02803E+01-5.22161E+02
 -1      3709-5.08121E+04 4.89392E+00 1.80400E+01 1.69164E+03 1.59400E+00-1.16683E+03
 -1      3710-6.49705E+04 7.94683E+00-1.21580E+01 1.53361E+03 4.74968E+00-5.26075E+02
 -1      3711-4.18451E+04-1.25451E+01-2.28808E+00 2.97716E+03 2.59252E+01-6.64655E+02
 -1      3712-2.42135E+04 5.26279E+01-1.90067E+01 1.64621E+03-1.74052E+01-7.62799E+02
 -1      3713-6.41758E+03 3.27462E+01 3.08410E+01 2.96245E+03 5.56629E+00-7.99852E+02
 -1      3714-2.29229E+04 3.24759E+01 2.83034E+01 1.63445E+03 2.78048E+00-7.86131E+02
 -1      3715-2.57611E+04 1.22434E+01-8.14801E+00 1.71968E+03 4.58405E+00-1.32069E+03
 -1      3716 8.46903E+02-4.13153E+01-3.49634E+01 3.71832E+02-5.26387E+00-1.47533E+02
 -1      3717 1.05195E+03-2.82304E+01-2.64564E+01 4.82280E+02-1.05742E+01-3.35751E+02
 -1      3718 1.38434E+03-2.85324E+01-1.95481E+01 4.51135E+02-5.06380E+00-1.56210E+02
 -1      3719 8.93108E+02-4.37123E+01-1.51655E+01 8.49562E+02-1.24625E+01-1.85506E+02
 -1      3720-8.35878E+02 3.31010E+01 3.79841E+01 3.78753E+02 9.75603E+00-1.47279E+02
 -1      3721-1.07615E+03 2.77577E+01 1.54962E+01 4.87988E+02 9.53583E+00-3.33621E+02
 -1      3722 2.00945E+03-2.05681E+01-1.95536E+00 4.91851E+02-4.46782E+00-1.77061E+02
 -1      3723-1.35994E+03 3.09619E+01 2.35956E+01 4.55595E+02 6.30048E+00-1.60342E+02
 -1      3724-8.67752E+02 5.27151E+01 2.23440E+01 8.53560E+02 5.28506E+00-1.81660E+02
 -1      3725-2.08672E+03 2.83907E+01 5.53591E+00 4.84033E+02 5.98709E+00-1.78017E+02
 -1      3726-3.86422E+03 4.93284E+01-1.18153E+01 8.28552E+02-1.55872E+01-4.02452E+02
 -1      3727-9.36853E+02 1.84937E+01-3.32795E+00 1.52821E+03-3.09206E+00-3.91061E+02
 -1      3728-3.23909E+03 3.32365E+01 1.10194E+00 8.14837E+02 1.44455E+00-3.85728E+02
 -1      3729-3.56528E+03 4.86401E+01 2.25899E+01 8.79850E+02 4.17061E+00-6.68461E+02
 -1      3730 3.60374E+03-1.54727E+01 4.48467E+01 8.43125E+02-5.60891E+00-4.05767E+02
 -1      3731 3.59928E+03-1.99129E+01-3.56410E+01 8.75249E+02 1.03466E+01-6.77113E+02
 -1      3732 3.31426E+03-2.35372E+01 4.32301E+00 8.22639E+02-2.81086E-01-3.92502E+02
 -1      3733 1.01081E+03 9.18147E+00 1.90740E+01 1.51761E+03 1.90399E+01-4.01660E+02
 -1      3734-2.24974E+04 2.18953E+01 6.99616E+01 1.55260E+03-1.45017E+01-7.79895E+02
 -1      3735-1.67222E+04 3.87640E+01-1.08976E+01 1.45992E+03-5.43966E-01-7.22463E+02
 -1      3736-1.57214E+04-2.63261E+01-1.55388E+00 1.44734E+03 1.83549E+01-6.57107E+02
 -1      3737-4.81050E+03 5.04894E+01-3.75033E+01 2.68779E+03 7.79123E-01-7.03735E+02
 -1      3738-1.89497E+04-1.62183E+01-9.20489E+01 1.57293E+03 1.03731E+01-1.20192E+03
 -1      3739-8.09073E+03 1.92111E+01 5.70619E+01 1.10275E+03-1.22753E+01-5.44293E+02
 -1      3740-9.48777E+03 1.80383E+01-1.44228E+01 1.23905E+03 5.15102E-01-9.46971E+02
 -1      3741-8.50266E+03 1.79995E+01-3.65058E+00 1.19090E+03 8.03248E-01-5.76569E+02
 -1      3742-2.42688E+03 3.72071E+01 1.09519E+00 2.15463E+03-5.59999E+00-5.83773E+02
 -1      3743 8.08366E+03-2.55108E+01-4.75285E+01 1.09996E+03 1.30220E+01-5.59288E+02
 -1      3744 9.43717E+03-2.16891E+01 1.33780E+01 1.24869E+03-2.63833E+00-9.55876E+02
 -1      3745 5.04913E+04 3.02876E+01 6.67635E+01 1.39783E+03-4.61436E+00-5.16971E+02
 -1      3746 3.72256E+04-3.89868E+01-8.03196E+01 1.58585E+03-2.12937E+01-1.09649E+03
 -1      3747 4.84672E+04-8.98053E+00-1.50450E+01 1.45573E+03-3.89640E+00-5.12618E+02
 -1      3748 3.05748E+04-1.17235E+01-1.62202E+01 2.77326E+03-2.71284E+01-6.17043E+02
 -1      3749 8.37578E+03-3.32110E+01-1.83141E+01 1.18881E+03-2.18019E+00-5.66774E+02
 -1      3750 2.33468E+03-4.72832E+01-1.53241E+01 2.14870E+03-3.83169E+00-5.78980E+02
 -1      3751 2.25926E+04-2.24559E+01-7.04751E+01 1.54446E+03 1.56279E+01-7.80784E+02
 -1      3752 2.57553E+04-6.94913E+00 1.05207E+01 1.72544E+03-2.33695E+00-1.32735E+03
 -1      3753 2.30093E+04-3.25209E+01-2.69011E+01 1.62794E+03-2.79541E+00-7.84677E+02
 -1      3754 6.48173E+03-4.02510E+01-2.40929E+01 2.95893E+03-3.71542E+00-7.93682E+02
 -1      3755 2.42768E+04-5.32973E+01 2.30388E+01 1.64026E+03 1.01660E+01-7.60406E+02
 -1      3756 9.32449E+03-5.18898E+01 1.66876E+01 1.20486E+03 1.15180E+01-5.62943E+02
 -1      3757-8.90881E+03 7.59883E+00-6.86549E+01 1.16618E+03 6.37506E+00-5.52042E+02
 -1      3758 1.61852E+04-4.11235E+01-7.48626E+01 1.37522E+03 1.14674E+01-7.09150E+02
 -1      3759 1.88051E+04-1.24385E+01 7.08638E+01 1.56843E+03-1.17513E+01-1.19355E+03
 -1      3760-4.86936E+04 4.97718E+00 3.06357E+01 1.41880E+03 1.76978E+00-5.21108E+02
 -1      3761-5.09847E+04-2.19102E+01-3.27992E+01 1.43635E+03 1.26425E+01-4.90633E+02
 -1      3762-3.07443E+04 3.86225E+01 3.92264E+01 2.75375E+03 1.59675E+01-6.07273E+02
 -1      3763-3.71981E+04 4.26815E+01 7.51185E+01 1.60130E+03 2.76135E+01-1.09069E+03
 -1      3764 3.55465E+04 1.56725E+01 4.30772E+01 1.26427E+03-1.16608E+00-4.58884E+02
 -1      3765 3.39738E+04-4.12843E+01-2.69999E+01 1.27452E+03 8.91679E+00-4.50089E+02
 -1      3766 2.59623E+04-5.18569E+01-8.52417E+01 1.41429E+03-1.52516E+01-9.65180E+02
 -1      3767 2.14523E+04-2.24148E+01-1.75997E+01 2.45690E+03-2.10806E+01-5.45414E+02
 -1      3768 1.67088E+04-5.00196E+01-5.69019E+00 1.45985E+03-3.28536E+00-7.14903E+02
 -1      3769 4.73729E+03-7.98996E+01 7.25650E+00 2.69587E+03-9.25319E+00-7.04955E+02
 -1      3770-3.20701E+04 3.56476E+01 1.89282E+01 1.26773E+03-1.87139E+01-4.39937E+02
 -1      3771-2.15847E+04-1.35476E+01-2.83713E+01 2.43085E+03 1.82485E+01-5.27766E+02
 -1      3772-3.56581E+04-1.30823E+01-4.30340E+01 1.27088E+03-1.43225E+00-4.67497E+02
 -1      3773-2.60878E+04 5.53469E+00 3.20358E+01 1.39374E+03 3.00786E+00-9.61692E+02
 -1      3774-4.91270E+02 9.65404E+01-3.04135E+01 1.92651E+03-1.81834E+01-8.44476E+02
 -1      3775-2.42172E+02-5.88507E+01 1.19954E+01 1.82078E+03 4.92736E+00-7.90119E+02
 -1      3776-3.39701E+04 1.34196E+01-3.90438E+00 1.28002E+03 6.90921E+00-4.51874E+02
 -1      3777 2.83335E+03-5.82229E+01-2.27590E+00 1.14439E+03 1.41992E+01-2.41517E+02
 -1      3778 3.46265E+03-4.11093E+01-2.31779E+01 6.12319E+02 2.26475E+00-4.42112E+02
 -1      3779 4.33182E+03-3.97057E+01-1.67657E+01 6.08720E+02-7.44517E-01-2.10711E+02
 -1      3780 3.77329E+03-4.10226E+01-5.16251E+00 1.20841E+03-1.36413E+01-2.55405E+02
 -1      3781 4.43847E+03-6.38220E+00-1.89234E+01 6.54359E+02-2.15573E+01-4.57588E+02
 -1      3782-2.87895E+04-5.94223E+00-5.92267E+01 1.16479E+03 8.36816E+00-4.14492E+02
 -1      3783-2.06578E+04 5.64718E+01 6.31798E+01 1.30408E+03 1.57591E+01-9.11003E+02
 -1      3784 1.39811E+03 4.45433E+01 1.95769E+01-2.73150E+01 6.58625E+00-4.69411E+00
 -1      3785-2.70905E+04 8.38574E+00 8.21036E+00 1.17934E+03 4.22494E+00-4.21088E+02
 -1      3786-1.71001E+04 3.25172E+01 3.30420E+01 2.28481E+03 2.44928E+01-5.14923E+02
 -1      3787-3.30905E+04 2.79546E+02-4.03540E+02 1.44253E+03 5.76868E+01-5.13859E+02
 -1      3788-9.20531E+03 2.48551E+02-1.66467E+01 3.19286E+03 1.82951E+02-1.14507E+03
 -1      3789 1.11094E+04-1.30338E+03 5.26412E+02 2.71649E+03-6.22429E+02-1.05778E+03
 -1      3790 4.16291E+04-1.97048E+02 2.07475E+03 2.17406E+03-1.06641E+02-7.03137E+02
 -1      3791 3.33095E+04-5.43258E+02 5.96689E+02 8.42345E+02-1.86242E+02-5.45091E+02
 -1      3792 8.69306E+03-3.30902E+02 1.50335E+02 2.76745E+03-2.31663E+02-1.10768E+03
 -1      3793 3.76435E+04-6.89140E+01 6.45840E+02 2.00293E+03-1.08082E+02-1.14077E+03
 -1      3794-4.70756E+03-2.89913E+01 6.11316E+01 2.50649E+03-5.26627E+01-6.05862E+02
 -1      3795-1.57700E+04-4.11404E+01 3.38568E+01 1.36472E+03 1.86040E+01-1.12881E+03
 -1      3796-1.38050E+04-4.40970E+01 1.41696E+01 1.33920E+03-1.10624E+01-6.42720E+02
 -1      3797-4.70111E+03 4.76011E+01-9.82555E+00 2.37981E+03 5.75893E+00-5.60651E+02
 -1      3798-1.56066E+04 3.73210E+01-1.35179E+01 1.23536E+03 1.07822E+01-1.06650E+03
 -1      3799 4.72088E+03 3.05084E+01-5.37539E+01 2.49965E+03 4.79547E+01-6.08373E+02
 -1      3800 1.58075E+04 4.56176E+01-3.40407E+01 1.36157E+03-1.99447E+01-1.13560E+03
 -1      3801 1.38672E+04 4.26154E+01-1.36059E+01 1.32814E+03 1.37635E+00-6.52610E+02
 -1      3802 4.71991E+03-6.59927E+01 1.06803E+01 2.37391E+03-4.76660E+00-5.53572E+02
 -1      3803 1.56500E+04-3.30258E+01 8.64594E+00 1.24759E+03-8.87751E+00-1.07852E+03
 -1      3804-1.40105E+03-3.52788E+01-2.14481E+01 1.40957E+01-6.22873E+00 7.53830E+00
 -1      3805 5.24272E+02-4.52615E+01-3.00725E+00 1.22179E+03 6.49267E+00-3.17552E+02
 -1      3806 1.92113E+03-1.82968E+01 1.70308E+01 7.07171E+02-4.11617E+00-5.37724E+02
 -1      3807 1.70064E+03-2.76928E+01-4.71963E-01 6.52297E+02 1.60820E+00-3.07037E+02
 -1      3808 5.21338E+02-2.46181E+01 1.67189E+01 1.05624E+03 1.99210E+00-2.50128E+02
 -1      3809 1.67799E+03-5.04779E+01 3.88605E+00 5.35713E+02 2.67913E+00-4.89021E+02
 -1      3810 6.60257E+02-4.46277E+01 3.34293E+01 1.08951E+03 1.11494E+01-4.73405E+02
 -1      3811-5.29707E+02 3.82814E+01-2.13159E+00 1.22299E+03-1.14938E+01-3.14925E+02
 -1      3812-1.93103E+03 1.18608E+01-1.73041E+01 7.13008E+02-4.09137E-01-5.36123E+02
 -1      3813-1.70139E+03 2.89549E+01 7.73636E-01 6.53364E+02-3.01048E+00-3.07767E+02
 -1      3814-5.21749E+02 2.41800E+01-1.75705E+01 1.05598E+03-2.17056E+00-2.50532E+02
 -1      3815-1.67695E+03 5.25483E+01-1.72772E+00 5.35188E+02-2.73990E+00-4.89244E+02
 -1      3816-6.53772E+02 4.59526E+01-3.07890E+01 1.08790E+03-1.15735E+01-4.74391E+02
 -1      3817 2.21359E+03 1.56451E+01-2.54025E+01 1.88820E+03 3.97080E+01-4.62254E+02
 -1      3818 7.61118E+03-6.59891E+01-1.34072E+01 9.46428E+02 2.20008E+01-8.41305E+02
 -1      3819 8.21388E+03 4.19292E+01 1.44712E+01 9.85870E+02-1.78071E+01-8.92709E+02
 -1      3820 6.52708E+03 1.91220E+01-9.16400E+00 1.00158E+03 6.59642E+00-8.34012E+02
 -1      3821 7.13857E+03 4.24139E+01 3.92220E+00 1.03913E+03-1.75849E+01-8.61853E+02
 -1      3822-3.14694E+04 1.78967E+02-5.58841E+01 1.53974E+03 4.42049E+01-9.60277E+02
 -1      3823-3.62920E+04 1.60373E+01-9.59357E+01 2.01653E+03 4.44978E+01-1.60386E+03
 -1      3824 3.94476E+04-4.50202E+01-5.11263E+01 1.34757E+03-5.35731E-01-9.86354E+02
 -1      3825 3.29227E+04-1.99790E+01-2.81203E+01 2.56042E+03 8.72065E+00-5.18255E+02
 -1      3826 2.22881E+04 7.02176E+01 8.71265E+01 2.65746E+03-9.27237E+00-1.06945E+03
 -1      3827-2.10219E+04-2.80869E+01-8.16894E+01 1.42129E+03-1.90804E+01-1.16459E+03
 -1      3828-6.45787E+03 5.44131E+01 2.03931E+01 2.60362E+03 2.86893E+00-6.15939E+02
 -1      3829-8.48612E+03 3.77110E+01 4.64026E+01 2.64469E+03-1.14569E+01-1.15718E+03
 -1      3830-5.59726E+02-4.50204E+01-3.39412E+00 1.49400E+02 1.48079E+00-1.56534E+02
 -1      3831-4.24149E+02-3.61364E+01-4.87357E+00 2.69369E+02-2.43685E+00-2.19226E+02
 -1      3832-9.28399E+01 1.08959E+01-1.58090E+01 3.67092E+02-7.79788E+00-6.39267E+01
 -1      3833-1.32346E+02 2.09255E+01-1.59583E+01 5.17883E+02-4.20198E+00-1.16539E+02
 -1      3834 8.25070E+03-8.33771E+01 6.12141E+01 3.05006E+03-5.62350E+01-7.58568E+02
 -1      3835 8.79697E+03 1.39669E+01-2.25229E+01 3.02841E+03 1.20031E+01-7.61330E+02
 -1      3836 3.76979E+04-9.56617E+01-2.68907E+01 1.59186E+03 3.16194E+01-1.43147E+03
 -1      3837 3.07616E+04-9.87154E+01 4.52003E+01 1.61965E+03 2.04250E+01-1.36393E+03
 -1      3838 3.87114E+04 9.21721E+01 1.35233E+01 1.64707E+03-3.38728E+01-1.48709E+03
 -1      3839 5.19717E+03-3.06355E+01-2.88738E+01 6.05551E+02 2.73374E+00-2.23486E+02
 -1      3840 6.00735E+03-1.59521E+01-2.55660E+01 6.74948E+02-1.23248E+01-2.31857E+02
 -1      3841 4.49609E+03-4.21848E+01-1.25573E+01 1.30923E+03-8.94114E+00-2.69020E+02
 -1      3842 5.31574E+03-2.65352E+01-1.08372E+01 6.81499E+02-4.21271E+00-5.01122E+02
 -1      3843-1.08733E+03 3.90372E+01-1.09763E+01 5.57859E+02 6.13867E-01-2.65509E+02
 -1      3844-1.51913E+03 3.57443E+01-1.80711E+01 5.82777E+02-1.66448E+01-2.89466E+02
 -1      3845-1.23270E+03 2.44147E+01-2.00214E+00 5.06931E+02-6.08388E-01-4.59919E+02
 -1      3846-3.82340E+02 4.19907E+01-6.56679E+00 1.00314E+03 3.76977E+00-2.26001E+02
 -1      3847 1.51993E+03-3.53634E+01 1.93997E+01 5.83188E+02 1.57526E+01-2.89253E+02
 -1      3848 3.81910E+02-4.25635E+01 6.56331E+00 1.00351E+03-3.36743E+00-2.26183E+02
 -1      3849 1.08735E+03-3.91039E+01 1.09072E+01 5.57932E+02-5.19464E-01-2.65297E+02
 -1      3850 1.23273E+03-2.42014E+01 1.92659E+00 5.07040E+02 9.66360E-01-4.59481E+02
 -1      3851-1.81477E+04-9.72292E+00 3.95882E+01 1.45610E+03-7.38039E+00-7.09844E+02
 -1      3852-1.77326E+04-3.54034E+00 2.81894E+01 1.39613E+03-1.21626E+01-7.08451E+02
 -1      3853-2.19522E+04 5.82625E+00-3.25632E+01 1.37611E+03 1.09868E+01-1.22331E+03
 -1      3854-6.71811E+03 3.59484E+01-8.87888E+00 2.71476E+03-1.44035E+01-6.22224E+02
 -1      3855 4.67689E+04 1.28605E+01 2.28011E+01 1.37632E+03-3.42795E+01-4.80551E+02
 -1      3856 4.47817E+04-2.55776E+01-2.79346E+00 1.35922E+03 1.34148E+01-4.81250E+02
 -1      3857 3.76182E+04-1.53700E+01-4.22374E+01 1.33329E+03-1.22538E+00-9.90198E+02
 -1      3858 3.13546E+04-5.26214E+01-1.48028E+01 2.58873E+03 9.29641E+00-5.20212E+02
 -1      3859-3.94335E+04 4.12762E+01 5.15957E+01 1.36302E+03 3.70209E+00-9.80007E+02
 -1      3860-3.31850E+04 1.01151E+01 2.82226E+01 2.52921E+03-9.39122E+00-5.23185E+02
 -1      3861-2.22616E+04-6.56265E+01-8.93994E+01 2.66072E+03 4.68097E+00-1.06902E+03
 -1      3862 2.10447E+04 3.77366E+01 9.03428E+01 1.40378E+03 2.40413E+01-1.14298E+03
 -1      3863 6.56157E+03-4.41353E+01-1.60912E+01 2.61532E+03 1.07110E+00-6.38416E+02
 -1      3864 8.45908E+03-4.63128E+01-5.18555E+01 2.64414E+03 2.37143E-01-1.16025E+03
 -1      3865-4.70037E+04-1.52970E+01-1.78356E+01 1.36304E+03 3.48066E+01-4.73325E+02
 -1      3866-3.15824E+04 5.11004E+01 1.41260E+01 2.56809E+03-1.01878E+01-5.20201E+02
 -1      3867 1.77898E+04 3.62996E+00-1.92188E+01 1.40049E+03 1.20806E+01-7.25383E+02
 -1      3868 2.19667E+04-3.57972E+00 3.32362E+01 1.37439E+03-1.30994E+01-1.21933E+03
 -1      3869-2.14955E+04 5.34527E+01 4.37092E+01 1.09164E+03-3.71386E+00-8.03877E+02
 -1      3870-1.80324E+04 2.83763E+01 3.30431E+01 2.08467E+03-1.43044E+01-4.14801E+02
 -1      3871-1.20820E+04-2.49053E+01-5.13942E+01 2.17751E+03 4.12776E+01-8.61419E+02
 -1      3872-2.39045E+04 2.33489E+01 1.33871E+00 1.10881E+03-1.06430E+01-3.93322E+02
 -1      3873-2.55638E+04-3.03257E+00-2.11203E+01 1.12676E+03 2.91885E+01-3.93688E+02
 -1      3874-1.66304E+04 4.56745E+01 2.33457E+01 2.10785E+03-1.15585E+01-4.16299E+02
 -1      3875-1.99629E+04 2.17951E+01 3.52184E+01 1.07491E+03-4.14322E+00-8.12163E+02
 -1      3876-4.50156E+04 2.47408E+01 5.82539E+00 1.33398E+03-1.34769E+01-4.80695E+02
 -1      3877-3.76066E+04 1.46768E+01 4.23426E+01 1.33541E+03 7.17390E-01-9.88082E+02
 -1      3878 2.08705E+04-1.44038E+01-4.14080E-01 1.35108E+03-5.93368E+00-9.21839E+02
 -1      3879 1.71690E+04-3.17817E+01-2.46497E+01 2.31265E+03-1.09879E+01-5.36294E+02
 -1      3880 2.71672E+04 3.61718E+00 8.67477E+00 1.16692E+03-1.33811E+01-4.12260E+02
 -1      3881 2.15128E+04-6.66732E+01-4.67274E+01 1.09403E+03 2.45165E+01-8.02563E+02
 -1      3882 1.80094E+04-4.53598E+01-2.24221E+01 2.09244E+03 1.16946E+01-4.10706E+02
 -1      3883 1.20249E+04 1.53244E+00 3.83857E+01 2.19659E+03-3.66428E+01-8.78948E+02
 -1      3884-1.28772E+04 2.86985E+01-2.95896E+01 1.27486E+03-1.59693E+00-6.25360E+02
 -1      3885-1.46886E+04 1.33018E+01-9.17547E-01 1.19925E+03-1.31262E+01-1.06481E+03
 -1      3886 7.00457E+03-7.29918E+01-7.01024E+01 3.40613E+03 1.64163E+01-6.78614E+02
 -1      3887 1.24832E+03 6.91978E+01 3.99813E+01 2.10571E+03-1.59579E+01-4.30130E+02
 -1      3888 1.43550E+03-3.42977E+01-3.08633E+01 1.98722E+03 3.22167E+00-3.93776E+02
 -1      3889-1.24589E+04 3.11388E+01-4.65420E+01 1.28443E+03 2.97991E+00-6.17836E+02
 -1      3890-4.43615E+03 1.77601E+01 6.12840E+00 2.38094E+03 6.38254E+00-5.44278E+02
 -1      3891 1.29531E+04-3.34861E+01 2.68556E+01 1.26659E+03-2.86803E+00-6.36127E+02
 -1      3892 1.47462E+04-2.12486E+00-4.18116E+00 1.21393E+03 2.01068E+01-1.07432E+03
 -1      3893 2.40244E+04-2.02824E+01 1.02546E+01 1.10505E+03 1.15654E+01-3.84171E+02
 -1      3894 2.54856E+04-7.77037E+00 2.29784E+01 1.10130E+03-1.44194E+01-3.81575E+02
 -1      3895 1.99938E+04-2.99450E+01-4.14229E+01 1.07482E+03 6.12132E+00-8.12975E+02
 -1      3896 1.67286E+04-2.86222E+01-1.97173E+01 2.11184E+03 9.57740E+00-4.20853E+02
 -1      3897 1.81896E+04 5.09496E+00-4.14474E+01 1.45103E+03 7.05860E+00-7.05364E+02
 -1      3898 6.79415E+03-3.63394E+01 1.02477E+01 2.71407E+03 1.30044E+01-6.22037E+02
 -1      3899-1.26929E+03 5.21795E+01 2.05057E+01 1.14092E+03 2.88172E+01-5.11352E+02
 -1      3900-2.00402E+03 2.07760E+01-1.59173E+00 6.69675E+02 1.20907E+00-5.54918E+02
 -1      3901 3.13494E+02 1.58819E+01-1.60262E+01 1.31294E+03-1.38052E+01-2.76968E+02
 -1      3902 2.00035E+03-2.30343E+01 4.29022E+00 6.70871E+02-2.54895E+00-5.53978E+02
 -1      3903-5.18678E+02 9.53030E+00 3.93912E+01 1.21454E+03 1.71849E+01-4.74108E+02
 -1      3904-3.14529E+02-1.19019E+01 1.93438E+01 1.31466E+03 1.16229E+01-2.75509E+02
 -1      3905 6.67987E+03 8.25779E+01 3.32375E+01 3.44331E+03-9.41016E+00-7.30746E+02
 -1      3906-1.39972E+04 4.08155E+01 1.12686E+01 9.04061E+02 8.80307E+00-3.45056E+02
 -1      3907-1.52579E+04 1.09176E+01 3.07265E+01 9.50349E+02-3.16981E+00-3.35811E+02
 -1      3908-9.95054E+03 2.64874E+01 1.94183E+00 1.86049E+03 2.08492E+00-4.05132E+02
 -1      3909-1.18593E+04 4.82330E+01 5.42298E+01 1.06931E+03 2.71580E+01-7.14207E+02
 -1      3910-8.97674E+03 4.73558E+01-1.05618E+01 1.77049E+03-2.49206E+00-3.92747E+02
 -1      3911 7.76411E+03-2.89319E+01-1.76277E+01 8.26232E+02 2.97624E+00-5.90076E+02
 -1      3912 8.95778E+03 5.06255E+00-2.35270E+01 8.31296E+02-8.84885E+00-6.08999E+02
 -1      3913-2.64468E+04-1.35275E+01-5.01604E+01 3.38086E+03 2.50289E+01-7.01258E+02
 -1      3914-3.06890E+04 3.39705E+01 1.16092E+01 2.87264E+03 3.52465E+01-1.15308E+03
 -1      3915 1.51855E+04 7.08397E-01-1.56235E+01 1.09369E+03-2.41238E+01-7.67118E+02
 -1      3916 1.49568E+04-6.74062E+01-2.93422E+01 8.78144E+02 6.58378E+00-6.99229E+02
 -1      3917-2.98746E+03 3.67929E+01-2.38985E+01 2.41111E+03-2.69226E+01-9.43571E+02
 -1      3918-1.05733E+04-1.45847E+01-3.95777E+01 2.60685E+03 2.00713E+01-5.39982E+02
 -1      3919 6.38239E+03-4.69571E+01-2.64340E+01 1.54665E+03 3.90056E+00-3.30418E+02
 -1      3920 7.55890E+03-2.38248E+01 3.31677E+00 1.58459E+03-1.74653E+01-3.18661E+02
 -1      3921 2.97555E+03-2.14907E+01 3.69770E+01 2.38481E+03 1.68035E+01-9.55358E+02
 -1      3922 1.05835E+04-5.73572E+00 2.38183E+01 2.61334E+03-2.28518E+01-5.67462E+02
 -1      3923 1.26835E+04-1.76211E+01 1.73069E+01 1.99921E+03-2.47552E+01-4.37039E+02
 -1      3924 1.25329E+04-5.81283E+01-2.67165E+01 1.81164E+03 7.57341E+00-3.34338E+02
 -1      3925 1.25108E+04-3.53287E+01 4.40750E+01 1.28453E+03-9.71841E-01-6.22727E+02
 -1      3926 4.43248E+03-2.66652E+01-7.58221E+00 2.38366E+03 3.55450E+00-5.28299E+02
 -1      3927-8.08683E+03 2.29028E+01 4.90525E+01 2.23845E+03-4.79392E+01-1.01925E+03
 -1      3928-1.75110E+04-1.30100E+01-6.73713E+00 1.28956E+03 1.84638E+01-1.07973E+03
 -1      3929-4.36120E+04-4.83963E+01 1.37630E+01 1.66868E+03 1.49503E+01-1.38750E+03
 -1      3930-5.03234E+03 9.14105E+00-3.25635E+01 1.93434E+03 1.06581E+01-4.28430E+02
 -1      3931-5.47979E+03 5.84078E+01 2.38587E+01 1.60739E+03 2.35618E+01-6.64499E+02
 -1      3932 8.04945E+03-1.28577E+01-4.54442E+01 2.24622E+03 4.00348E+01-9.97031E+02
 -1      3933 1.75566E+04 1.23757E+00 2.83346E+00 1.32563E+03-1.67248E+01-1.09074E+03
 -1      3934 3.18965E+04-3.45026E+02 3.17181E+02 1.16594E+03-9.86274E+01-8.82510E+02
 -1      3935 3.62752E+04-3.92199E+00 2.45051E+02 2.13117E+03-4.05895E+01-1.59727E+03
 -1      3936-5.08183E+02-3.98850E+01 1.94796E+01-1.43840E+02 2.52516E+00 4.59983E+01
 -1      3937-6.61201E+02-3.18173E+01 2.31821E+01-6.83546E+01-1.13682E+00 5.74596E+01
 -1      3938 3.23281E+04-3.36810E+01 1.79990E+02 1.65676E+03-1.04455E+01-8.70333E+02
 -1      3939 9.33480E+03-1.74343E+02 3.34627E+01 3.20489E+03-1.61922E+02-1.10089E+03
 -1      3940 6.03006E+04 1.73570E+01-3.48719E+01 1.69244E+03 1.27330E+02-1.02429E+03
 -1      3941 6.03208E+04-5.16530E+01-2.60038E+01 1.53461E+03 4.22241E+01-1.05506E+03
 -1      3942-5.63631E+02-3.20557E+01 9.83945E+00-5.38941E+01 4.29779E+00 3.51055E+01
 -1      3943-1.05604E+02-5.46893E+01 1.38119E+01-1.13376E+02 8.58433E+00 2.98832E+01
 -1      3944-3.40682E+04 2.41079E+01-1.63286E+01 1.33449E+03 2.59590E+01-1.22777E+03
 -1      3945-3.19188E+04-5.77555E+00 5.72340E+01 1.55484E+03-2.55367E+00-1.29636E+03
 -1      3946-1.50724E+04-6.66806E+00-1.03562E+01 2.60426E+03-2.74067E+01-1.18369E+03
 -1      3947-2.72553E+04 1.24990E+01-2.13076E+01 1.35174E+03 5.11679E+00-1.32599E+03
 -1      3948-1.74474E+04 3.34747E+01 2.19842E+01 2.50654E+03 3.68035E+01-1.18728E+03
 -1      3949 1.21419E+02-3.13598E+01 1.03635E+01 3.54923E+02 1.58064E+00-1.68106E+02
 -1      3950-1.21821E+02 3.13103E+01-1.00081E+01 3.55593E+02-1.79889E+00-1.68366E+02
 -1      3951-3.24569E+04-1.82193E+01 1.98385E+01 1.32540E+03 1.64183E+01-1.22633E+03
 -1      3952-1.53650E+04 1.20865E+01 3.48723E+01 2.52069E+03 6.04209E+00-1.15900E+03
 -1      3953-2.35003E+04 1.63897E+01-1.95397E+01 1.48292E+03-7.67541E+00-1.29832E+03
 -1      3954-2.56781E+04 7.49760E+00 1.44331E+01 1.34772E+03 2.18685E+01-1.33421E+03
 -1      3955 2.56887E+04-8.64775E+00-8.20760E+00 1.34629E+03-2.29620E+01-1.33355E+03
 -1      3956 2.34733E+04-2.41682E+01-3.62792E+00 1.48345E+03 8.33225E+00-1.29463E+03
 -1      3957 1.53517E+04-1.29550E+01-3.55406E+01 2.51988E+03-7.58729E+00-1.15631E+03
 -1      3958 3.24705E+04 1.84153E+01-2.33406E+01 1.32328E+03-1.42018E+01-1.22717E+03
 -1      3959 1.74684E+04-3.32596E+01-2.07389E+01 2.50458E+03-3.80781E+01-1.18788E+03
 -1      3960 1.91078E+04-5.47141E+01 1.76149E+01 3.14101E+03-7.42332E+00-6.53048E+02
 -1      3961 4.47269E+03-1.17730E+01 3.53883E+01 2.83523E+03 4.28031E+01-1.09114E+03
 -1      3962 4.08909E+03 3.72797E+01 1.84751E+01 3.08725E+03 5.01857E-01-5.80471E+02
 -1      3963 2.14759E+04-3.25987E+00-2.64615E+01 3.03146E+03-1.49187E+01-5.48391E+02
 -1      3964 7.04440E+03-5.17411E+01-4.09817E+01 2.83024E+03-1.83509E+01-1.05089E+03
 -1      3965 3.44476E+03-2.42212E-01-2.85087E+01 3.04850E+03-2.52290E+00-5.71724E+02
 -1      3966 5.09970E+03-3.03272E+01 4.67030E+00 3.04173E+03 8.32357E+00-6.20055E+02
 -1      3967 2.07793E+04-9.15066E+00 3.74296E+01 2.99454E+03-9.91436E+00-5.43802E+02
 -1      3968 8.62775E+03-3.27117E+01 2.96564E+01 2.74594E+03-3.96782E+01-1.05782E+03
 -1      3969 2.72637E+04-1.37690E+01 2.39668E+01 1.35109E+03-4.37693E+00-1.32523E+03
 -1      3970 1.50897E+04 7.00128E+00 1.12596E+01 2.60114E+03 2.71630E+01-1.18606E+03
 -1      3971 3.19332E+04 1.46743E+01-4.67497E+01 1.55253E+03 2.58858E+00-1.30117E+03
 -1      3972 3.40798E+04-2.54826E+01 1.25561E+01 1.33099E+03-2.57398E+01-1.22808E+03
 -1      3973 5.01217E+04-1.65344E+01-1.36700E+01 2.98651E+03 1.25161E+02-5.83760E+02
 -1      3974 5.01958E+04-5.81405E+01-2.13738E+01 2.88909E+03 6.32419E+01-5.52572E+02
 -1      3975-5.20839E+03 9.01259E+00-6.86599E+00 3.04521E+03-6.78094E+00-6.21513E+02
 -1      3976-8.64043E+03 3.34207E+01-2.86218E+01 2.74939E+03 3.81516E+01-1.05818E+03
 -1      3977-2.08532E+04 4.03946E+00-3.80205E+01 2.99431E+03 1.26358E+01-5.43879E+02
 -1      3978-3.51967E+03 4.05440E+00 2.84272E+01 3.05057E+03 1.42625E+00-5.73149E+02
 -1      3979-7.02435E+03 5.29923E+01 4.21350E+01 2.83046E+03 1.78130E+01-1.05229E+03
 -1      3980 1.15505E+04 9.98397E+00-2.76718E+01 9.10806E+02 3.05468E+01-8.49585E+02
 -1      3981-7.83078E+02-5.05293E+01-2.08022E+01 1.37746E+02-1.41866E+01-1.40035E+02
 -1      3982-4.91468E+02-2.00937E+01-1.71819E+01 3.44356E+02-1.24295E+01-5.82858E+01
 -1      3983-1.97106E+02-8.64531E+00-2.37401E+01 2.44196E+02-5.75471E+00-9.64050E+01
 -1      3984-2.15879E+04 7.64399E-01 2.76225E+01 3.02954E+03 1.40519E+01-5.48989E+02
 -1      3985-1.92219E+04 5.99513E+01-2.18180E+01 3.14422E+03 8.04491E+00-6.54588E+02
 -1      3986-4.20306E+03-3.58144E+01-1.85215E+01 3.08942E+03-4.55778E-01-5.81549E+02
 -1      3987-4.45720E+03 8.53627E+00-3.71576E+01 2.83583E+03-4.40138E+01-1.09039E+03
 -1      3988-5.76268E+02-4.24519E+01 5.48673E+00-2.57091E+01 2.36899E+00-8.86357E+00
 -1      3989 3.08117E+04 8.80821E+00 4.08764E+01 1.64298E+03-4.55205E+01-9.23406E+02
 -1      3990 1.25450E+03 3.83972E+01 3.03886E+01 7.49033E+01 9.65715E+00-4.27193E+01
 -1      3991 4.78518E+04-6.24580E+01 2.04045E+01 1.55872E+03-5.42414E+01-1.37940E+03
 -1      3992-6.26917E+04 2.14842E+01 2.42907E+01 1.52436E+03-2.60803E+01-5.28590E+02
 -1      3993-4.88364E+04-1.42126E+01 1.04642E+01 1.62529E+03 1.91219E+01-1.12454E+03
 -1      3994-6.11477E+04 9.93357E+00-1.62169E+01 1.47277E+03-7.56384E+00-5.34523E+02
 -1      3995-4.04648E+04 2.75734E+01-1.05904E+01 2.89475E+03 3.65911E+01-6.52410E+02
 -1      3996 1.04544E+02 3.96594E+01 2.29881E+01 2.85362E+02 9.88373E+00-1.13072E+02
 -1      3997-8.11016E+03 5.72623E+00 2.24787E+01 9.47769E+02 1.65731E+01-7.97815E+02
 -1      3998 3.40113E+02 5.61919E+01-3.51582E+00-1.73953E+02 1.26180E+00 7.73948E+01
 -1      3999 2.98194E+04 9.90844E+01 2.79505E+01 3.37295E+03-2.59676E+01-6.29141E+02
 -1      4000-1.03612E+04 2.11392E+01 2.44148E+00 8.19415E+02 2.45031E+00-2.93356E+02
 -1      4001-8.72598E+03 2.39464E+01 2.11989E+01 9.15016E+02 1.12285E+01-6.52736E+02
 -1      4002-7.23874E+03 4.96328E+01 2.85939E+00 1.62374E+03 1.85639E+01-3.90694E+02
 -1      4003-7.21757E+03 3.79242E+01 9.69917E+00 1.54334E+03-1.20145E+01-2.96189E+02
 -1      4004-8.66416E+03 1.16899E+01 9.26965E+00 7.75247E+02-5.40622E+00-6.00351E+02
 -1      4005-7.14577E+04-1.71659E+00-4.83188E+01 1.48386E+03-1.77012E+01-4.94860E+02
 -1      4006-1.36963E+04 1.28096E+02 1.15106E+02 3.07826E+03 1.38255E+00-1.22249E+03
 -1      4007-1.69001E+03-2.41407E+03-2.13889E+03 2.89161E+03 2.06052E+02-1.51076E+03
 -1      4008-3.01917E+03 1.88873E+01 8.20031E+00 1.52417E+03 1.32128E+01-2.74736E+02
 -1      4009-3.45449E+03 2.99541E+01 1.52284E+01 1.32743E+03 5.64255E+00-5.40186E+02
 -1      4010-3.25233E+03 2.61508E+01-3.63324E+00 1.60164E+03 8.44518E+00-3.30604E+02
 -1      4011-6.40587E+02-1.57909E+01 3.34223E-01 1.56210E+03 5.12748E-02-2.81646E+02
 -1      4012-1.05328E+03-1.99400E-01-8.50938E+00 1.43253E+03-1.30571E+01-5.42362E+02
 -1      4013-8.70602E+02 2.51761E+01 3.38991E+01 1.37000E+03 1.71337E+01-5.02911E+02
 -1      4014 4.91953E+02 3.46675E+01-4.26073E+01-2.15398E+02 1.92711E+00 1.78614E+02
 -1      4015 5.20997E+02 3.47208E+01-3.46690E+01-1.41240E+02 5.39526E-01 1.23060E+02
 -1      4016-3.06622E+02 3.36813E+01 1.06218E+01 1.17597E+03-4.63206E+00-5.22531E+02
 -1      4017 3.07578E+02-2.87838E+01-6.46716E+00 1.18104E+03 5.07454E+00-5.18340E+02
 -1      4018-2.56533E+03 6.33907E+01 7.91360E+01 1.72090E+03 6.35281E+00-6.93620E+02
 -1      4019 5.20302E+03-8.36682E+01-7.86014E+01 2.35523E+03-2.00943E+01-9.32919E+02
 -1      4020-5.22768E+03 7.54594E+01 6.86641E+01 2.37392E+03 1.65220E+01-9.44759E+02
 -1      4021-1.13897E+04 2.57062E+01 3.60714E+01 8.50607E+02-5.21810E+00-2.90186E+02
 -1      4022-8.25580E+03 1.15346E+01-5.14913E+00 1.68797E+03-1.65051E+00-4.01029E+02
 -1      4023-5.14165E+04-1.15458E+01-1.45562E+01 1.42323E+03-2.40402E+01-1.08751E+03
 -1      4024-4.31402E+04 1.02264E+01 1.55625E+00 2.82065E+03-3.36431E+01-5.40012E+02
 -1      4025-5.13677E+03 2.08145E+01 4.03398E+01 7.87589E+02 2.26103E+00-6.65168E+02
 -1      4026-4.84907E+03 1.65103E+01 4.89019E+00 6.62611E+02 1.16259E+01-6.24529E+02
 -1      4027-3.94485E+03 2.02783E+01-3.88849E+00 6.76546E+02-4.31536E+00-6.76031E+02
 -1      4028-2.30148E+03 4.17550E+01 1.21275E+01 1.20779E+03 1.48870E+01-5.73372E+02
 -1      4029-2.53497E+03 1.11178E+01 5.10628E+00 1.30467E+03-1.21497E+01-6.03248E+02
 -1      4030-1.26465E+04 2.32517E+01 2.31461E+01 8.73548E+02 1.31004E+01-3.07976E+02
 -1      4031-9.85495E+03 3.40686E+01 1.95934E+01 9.63543E+02 3.55769E+00-6.87617E+02
 -1      4032-1.74718E+02 1.41827E+01-1.74532E+01 2.48014E+02-5.90857E+00-5.71675E+01
 -1      4033-1.67173E+04 2.75215E+01 7.63742E-01 9.67462E+02 1.85226E+01-3.52477E+02
 -1      4034-3.13166E+04 6.80390E+01 3.34045E+01 1.65600E+03-1.83156E+01-8.83977E+02
 -1      4035-4.01215E+03 2.76812E+01 2.57437E+01 6.39064E+02 6.74520E+00-5.87187E+02
 -1      4036-1.87380E+03 4.11782E+01 5.34828E+00 1.18390E+03 1.66411E+01-5.38535E+02
 -1      4037-2.71579E+03 5.07990E+00-9.84888E+00 6.92646E+02 7.33568E-01-5.92958E+02
 -1      4038-3.18351E+03 3.16819E+01 1.68085E+01 6.61109E+02 4.52641E+00-6.36289E+02
 -1      4039-1.22803E+04-5.29695E+01-3.00479E+01 2.79913E+03 4.68933E+00-1.16118E+03
 -1      4040-9.60138E+03 1.03268E+02 6.51132E+01 2.80338E+03-3.83818E+01-1.14907E+03
 -1      4041-5.17029E+03 6.41265E+01-1.46084E+01 2.82973E+03-3.18188E-01-1.19737E+03
 -1      4042 5.19609E+03-6.22094E+01 1.65521E+01 2.82909E+03 4.12355E-01-1.19801E+03
 -1      4043 3.42420E+03 6.67663E+01-8.57953E+00 2.75622E+03 1.75406E+01-1.18010E+03
 -1      4044 1.23114E+04 5.10953E+01 2.82973E+01 2.79862E+03-5.01460E+00-1.16093E+03
 -1      4045-3.43056E+03-6.59748E+01 9.45527E+00 2.75311E+03-1.53418E+01-1.18337E+03
 -1      4046 9.63253E+03-1.05361E+02-6.55453E+01 2.80228E+03 3.99670E+01-1.15128E+03
 -1      4047 2.62774E+03-3.75184E+01 1.31239E+01 1.34530E+03-4.56811E+00-6.14712E+02
 -1      4048 5.15673E+03-3.63464E+01 4.81345E-01 6.78261E+02-3.68042E+00-6.37845E+02
 -1      4049 4.03806E+03-9.82060E+00-3.10064E+00 8.09839E+02-3.17615E+00-7.09379E+02
 -1      4050 1.40940E+03-3.90458E+01 2.18881E+01 1.40372E+03 9.12077E+00-6.11640E+02
 -1      4051 3.89702E+03-3.83305E+01-2.51551E+00 6.79926E+02 4.32574E+00-6.74414E+02
 -1      4052 6.25860E+03 3.10289E+01-7.76136E+00 9.99310E+02 5.34838E+00-4.93246E+02
 -1      4053 1.27317E+04-6.07305E+01-2.63705E+01 8.92576E+02-7.50528E+00-3.11286E+02
 -1      4054 2.31485E+03 1.59190E+01-2.15869E+01 2.66726E+03-6.29899E+00-4.98576E+02
 -1      4055 2.20588E+03 1.69512E+01-1.73242E+01 2.39644E+03-4.54628E+01-9.76409E+02
 -1      4056 1.11573E+04-6.82861E-01-2.55344E+01 2.66064E+03 4.79529E+00-5.76565E+02
 -1      4057 1.43087E+04-3.32581E+01 1.89843E+01 2.64881E+03 1.37846E+01-4.86363E+02
 -1      4058 1.38613E+04-9.86122E+01-8.61582E+01 2.31376E+03-1.30228E+01-9.37522E+02
 -1      4059 8.81817E+03-5.52710E+01-1.22977E+01 2.22819E+03-2.60817E+01-1.00601E+03
 -1      4060 1.68904E+04-1.10615E+01-6.20525E+00 1.16970E+03-9.19724E-01-1.15612E+03
 -1      4061 1.89108E+04-1.53145E+01 1.34308E+01 1.33282E+03 4.95890E+00-1.11067E+03
 -1      4062 2.22133E+04 9.92758E+00-3.00847E+01 1.18059E+03 1.68174E+01-1.07843E+03
 -1      4063 2.66519E+04-4.88132E+01 7.15411E+01 1.64634E+03-4.08263E+00-7.85378E+02
 -1      4064-2.62678E+03 2.23564E+01 2.99510E+00 1.43395E+03 1.04404E+01-2.66495E+02
 -1      4065-3.38884E+02-4.48111E+00 2.73668E+01 1.46398E+03 4.63623E+00-2.82395E+02
 -1      4066-6.24819E+02-1.47365E+01-1.05839E+01 1.40795E+03 2.50833E+00-2.82277E+02
 -1      4067-1.13349E+03-9.58516E-01-5.40487E-01 1.27810E+03 2.92224E+01-4.98223E+02
 -1      4068-1.12855E+03-2.26347E+00 5.48700E+01 1.53665E+03-2.95423E-01-6.11213E+02
 -1      4069-6.89513E+02-3.05694E-02 3.43961E+01 1.66156E+03 1.24760E+01-3.49766E+02
 -1      4070-1.10618E+04 3.68439E+01-1.18009E+01 9.73414E+02 1.02606E+01-7.02467E+02
 -1      4071 3.22998E+03-1.13296E+01-2.49807E+01 1.55742E+03-1.78970E+00-2.82362E+02
 -1      4072 1.31760E+03 1.46352E+01-1.95671E+01 1.47514E+03 7.04103E+00-5.64457E+02
 -1      4073 7.40767E+02 1.31047E+01-2.01046E+01 1.65926E+03-6.69913E+00-3.42431E+02
 -1      4074 6.39506E+02 6.72348E+00-5.35968E+00 1.56134E+03-6.96676E+00-2.94273E+02
 -1      4075-1.41162E+03 1.09724E+01-4.91686E+01 1.40666E+03-5.68982E+00-6.16601E+02
 -1      4076-8.35571E+02 5.88049E+01-1.62031E+00 1.24580E+03 4.22749E+00-2.98591E+02
 -1      4077-2.44170E+03 7.09048E+00-3.62845E+01 6.54404E+02-9.07209E+00-5.70220E+02
 -1      4078-2.17450E+03 1.64422E+01-1.29661E+01 7.27184E+02-1.68302E+00-3.41193E+02
 -1      4079 3.49667E+03-5.48187E+01-2.28700E+01 7.07432E+02-6.15356E+00-6.31711E+02
 -1      4080 1.02433E+03-2.74953E+01 1.41520E+01 1.40589E+03 7.39800E+00-3.25926E+02
 -1      4081 2.55368E+03-4.25850E+01 9.07510E+00 7.55383E+02 5.87719E+00-3.52487E+02
 -1      4082 6.47691E+02 2.99158E+01-1.96375E+01 1.09840E+02-6.82587E+00-7.51385E+01
 -1      4083 7.09344E+02 3.33762E+01-1.95246E+01 6.10194E+00-1.94806E+00-2.01685E+01
 -1      4084 1.20913E+02 5.64365E+01-9.81059E+00 1.65974E+02-2.58586E+00-4.87220E+01
 -1      4085 1.48947E+02 5.74773E+01-1.34813E+01 4.12060E+01-5.55347E+00-2.49119E+00
 -1      4086-2.94769E+03 2.72108E+01-1.65527E+01 6.77291E+02-2.02735E+00-6.17550E+02
 -1      4087-9.54459E+02 4.25671E+01-1.10954E+01 1.34451E+03-3.51180E+00-3.03316E+02
 -1      4088 2.90579E+03-2.44944E+01 7.34080E+00 6.77801E+02 5.33322E+00-6.12858E+02
 -1      4089 9.42508E+02-3.95135E+01 1.31558E+01 1.34274E+03 7.67865E+00-2.97044E+02
 -1      4090 4.38604E+03-3.36955E+01 2.07106E+01 9.96263E+02 1.00769E+01-4.51987E+02
 -1      4091-8.43153E+01-3.36922E+01 1.73695E+01 3.28792E+02 2.19458E+00-1.54704E+02
 -1      4092 8.47159E+01 3.38288E+01-1.71280E+01 3.28603E+02-2.33466E+00-1.55143E+02
 -1      4093 5.96874E+03-2.66438E+01-3.18985E+01 1.11235E+03 5.84674E+00-5.04620E+02
 -1      4094-4.46731E+02-3.15590E+01 1.57954E+01 1.33530E+02 1.69862E+00-6.22479E+01
 -1      4095 5.61351E+02 3.54700E+01-1.27596E+01 4.81207E+01-2.95976E+00-2.39248E+01
 -1      4096 4.51114E+02 3.23721E+01-1.42414E+01 1.33203E+02-2.45929E+00-6.25372E+01
 -1      4097 2.35312E+04-3.68535E+01 3.60899E+01 1.73898E+03-7.57824E+00-7.99393E+02
 -1      4098 2.43174E+04 3.33553E+01 2.77206E+01 1.16585E+03-1.90448E+01-8.29292E+02
 -1      4099 2.04619E+04-2.30049E+01 1.20381E+01 2.20447E+03-1.24111E+01-4.56767E+02
 -1      4100 2.80429E+04 2.44451E+01 2.61348E+01 1.25081E+03-1.33064E+01-4.61952E+02
 -1      4101-2.70441E+04-3.97576E+01-2.64008E+00 1.46718E+03 5.30085E+01-1.32479E+03
 -1      4102-1.00613E+04 4.99364E+01-3.34428E+01 2.65506E+03-9.57435E+00-1.15787E+03
 -1      4103 2.58890E+04-8.57168E+00-7.02284E+00 1.18344E+03-9.43693E+00-8.67339E+02
 -1      4104 2.17607E+04-2.32309E+01-2.09341E+00 2.28826E+03-1.11587E+01-4.66993E+02
 -1      4105-2.34902E+04 1.03351E+01-3.66085E+01 1.74821E+03-8.51771E+00-7.95294E+02
 -1      4106 2.61927E+04-4.72943E+01-5.79327E+01 1.80472E+03 7.10718E+00-8.44702E+02
 -1      4107-4.07785E+04 6.43733E+01 6.32115E+00 1.51820E+03 4.37439E+01-1.34568E+03
 -1      4108-2.98653E+04 4.14071E+01 4.55713E+01 2.72735E+03-4.70486E+01-1.08646E+03
 -1      4109-3.60993E+03 3.09843E+01 2.30660E+01 1.68456E+03 8.92405E+00-3.23081E+02
 -1      4110-4.54160E+03 5.51749E+01 3.98471E+01 1.44144E+03-1.50706E+01-5.82290E+02
 -1      4111-9.79834E+02 4.29051E+01 4.68949E+00 4.60392E+02-1.25051E+01-4.16298E+02
 -1      4112-3.84086E+02 4.03969E+01-3.47007E-03 8.63886E+02 1.07049E+00-3.83429E+02
 -1      4113 2.33141E+02 1.40690E+01-1.71935E+01 9.86415E+02 1.73777E+00-2.01107E+02
 -1      4114 9.82750E+02-4.11812E+01-3.04300E+00 4.60774E+02 1.13374E+01-4.15186E+02
 -1      4115 3.84811E+02-3.89736E+01 1.40171E+00 8.64235E+02-1.75874E+00-3.82560E+02
 -1      4116-2.30088E+02-9.51305E+00 1.95217E+01 9.87207E+02-1.85857E+00-2.01117E+02
 -1      4117 5.45310E+03-2.69499E+01-2.29284E+01 7.94190E+02 4.52492E+00-6.75160E+02
 -1      4118 3.91882E+03-4.88444E+01-9.84140E+00 1.38301E+03-2.02010E+01-5.52968E+02
 -1      4119-6.02134E+03 3.20766E+01 2.14695E+01 8.09644E+02 6.45523E+00-6.91707E+02
 -1      4120-2.49730E+03 5.84342E+01 1.07447E+01 1.44036E+03 6.75835E+00-6.35653E+02
 -1      4121 3.45734E+03-2.07693E+01-9.66558E+00 1.63609E+03-5.19826E+00-3.27911E+02
 -1      4122 2.96704E+04-3.91920E+01 1.19609E+01 1.38022E+03-2.98770E+01-1.21994E+03
 -1      4123 2.17352E+04-7.34259E+00-1.88828E+01 2.51317E+03 1.32359E+01-1.01238E+03
 -1      4124-2.96726E+04 3.83482E+01-1.78104E+01 1.37826E+03 3.20174E+01-1.21844E+03
 -1      4125-2.17259E+04 6.03024E+00 1.79918E+01 2.51214E+03-1.46387E+01-1.01149E+03
 -1      4126-1.62952E+03-1.28797E+01-8.80980E+00 1.35972E+03 1.50402E+00-5.61171E+02
 -1      4127-1.79250E+03 3.02951E+01 8.72637E+00 1.40076E+03-1.18933E+01-5.77615E+02
 -1      4128 2.70505E+04 4.03946E+01 5.65516E+00 1.46626E+03-5.19414E+01-1.32359E+03
 -1      4129 1.00683E+04-4.99077E+01 3.29764E+01 2.65415E+03 8.81535E+00-1.15750E+03
 -1      4130 4.55613E+03 3.12907E+01 3.62284E+01 3.10476E+03-4.40758E+01-6.30415E+02
 -1      4131 1.80750E+04 1.97585E+01 4.29230E+00 2.95253E+03 6.37113E+00-5.66480E+02
 -1      4132-3.28897E+03 4.53889E+01 1.63723E+01 6.27908E+02 1.33031E+01-5.55179E+02
 -1      4133-2.50444E+03 4.89174E+01 3.09176E+01 1.16439E+03 3.07826E-01-4.71460E+02
 -1      4134-1.96314E+03 1.44120E+01 1.16767E+01 1.35346E+03-2.42161E+00-2.61905E+02
 -1      4135-9.20582E+03 1.30076E+01 2.03678E+01 2.36921E+03 9.49621E+00-4.49466E+02
 -1      4136-1.12433E+04 3.95477E+01 4.35116E+01 1.99621E+03-2.82400E+01-7.93323E+02
 -1      4137 9.20094E+03-1.63111E+01-2.11634E+01 2.36734E+03-1.52578E+01-4.48253E+02
 -1      4138 1.12650E+04-3.27111E+01-3.90278E+01 2.00603E+03 2.68189E+01-7.91028E+02
 -1      4139-6.90189E+04-2.45450E+01-3.81795E+01 1.67722E+03-1.28540E+02-5.36569E+02
 -1      4140-1.52155E+04 4.67525E+01 1.37286E+01 1.11690E+03 2.75954E+01-9.90954E+02
 -1      4141 1.51985E+04-2.91698E+01-5.37847E+00 1.12100E+03-1.97944E+01-9.88582E+02
 -1      4142 7.36386E+04-1.06011E+01-6.40773E+00 1.47109E+03 1.55941E+01-4.78225E+02
 -1      4143 6.88443E+04 2.10002E+01-3.89262E+00 1.71365E+03 1.29165E+02-5.21965E+02
 -1      4144-2.49145E+04-9.56065E-01 1.86275E+01 3.24815E+03 7.19186E+00-6.10615E+02
 -1      4145-1.30430E+04 9.58159E-01 3.65836E+01 1.44677E+03-8.29114E+00-6.62517E+02
 -1      4146 3.62651E+02-2.55591E+01 1.35581E+01 4.68729E+02 2.87357E+00-2.18122E+02
 -1      4147-3.62678E+02 2.55963E+01-1.35619E+01 4.69461E+02-2.77106E+00-2.17882E+02
 -1      4148-3.39980E+03 1.37499E+01-9.41100E+00 6.35248E+02 3.22870E+00-2.41979E+02
 -1      4149-6.11300E+03 1.79529E+01 3.66485E+00 6.65740E+02 7.04498E+00-2.37579E+02
 -1      4150-6.62972E+03 1.43296E+01 1.03805E+01 8.14640E+02 4.77457E+00-3.03257E+02
 -1      4151-5.38721E+03 1.54512E+01 2.83513E+01 7.62611E+02 1.57790E+01-5.25605E+02
 -1      4152-4.52476E+03 4.23107E+01 6.16826E+00 1.36917E+03 1.54552E+01-3.07764E+02
 -1      4153 3.40602E+03-1.29309E+01 9.09555E+00 6.35496E+02-2.41143E+00-2.43051E+02
 -1      4154 1.02256E+04-2.28983E+01-1.54031E+01 8.07631E+02 4.59379E-01-2.93497E+02
 -1      4155 8.09463E+03-3.11397E+01-1.11741E+01 8.68554E+02-7.78144E+00-3.21520E+02
 -1      4156 5.01352E+04 5.91297E+01 6.88543E+01 1.60567E+03-1.22162E+01-6.17016E+02
 -1      4157-1.79468E+04 7.51370E+00-4.18415E+00 1.15836E+03 6.59661E+00-4.33815E+02
 -1      4158-1.85419E+04-1.11287E+01 3.98726E+01 1.62190E+03 5.09565E+00-7.42230E+02
 -1      4159 3.60994E+04 9.11769E+00 3.88527E+01 1.45851E+03-6.33846E+00-5.55686E+02
 -1      4160 3.02747E+03-1.89183E+00-4.06377E+01 2.61702E+03 4.38667E+01-5.14072E+02
 -1      4161-5.94798E+03 1.51001E+01 1.44861E+01 2.21422E+03 1.19745E+01-9.93492E+02
 -1      4162 1.79609E+04-2.22473E+01-1.13373E+01 9.80483E+02-1.37641E+01-3.52304E+02
 -1      4163 1.79219E+04-2.69749E+00-4.10225E+00 1.17145E+03-4.76213E+00-4.32460E+02
 -1      4164 3.05493E+04-9.77181E+00-4.69637E+00 1.18368E+03-8.33558E+00-4.26039E+02
 -1      4165-1.81612E+04-2.65919E+01-4.73079E+00 2.94979E+03-4.34667E+00-5.66645E+02
 -1      4166 1.30126E+04 3.95715E+00-3.05360E+01 1.44598E+03 1.67702E+00-6.63864E+02
 -1      4167-1.58865E+04 6.06426E+01 1.84791E+01 1.23466E+03-4.12212E+01-1.12285E+03
 -1      4168 1.59416E+04-6.81916E+01-1.09854E+01 1.21300E+03 4.38690E+01-1.12635E+03
 -1      4169 5.89507E+03-4.16878E+01-3.91335E+01 2.22458E+03-8.36546E+00-9.68365E+02
 -1      4170-2.61665E+04 1.69715E+01 9.06411E+00 1.81818E+03 4.45985E+00-8.66130E+02
 -1      4171-4.67581E+03-2.85977E+01-3.62194E+01 3.10708E+03 4.46572E+01-6.30004E+02
 -1      4172-3.04114E+03 7.83054E-01 3.63575E+01 2.61903E+03-3.19495E+01-5.32194E+02
 -1      4173-3.61046E+04-9.33051E+00-3.89279E+01 1.45610E+03 4.80430E+00-5.54990E+02
 -1      4174-5.01521E+04-1.66749E+01-4.83927E+01 1.60460E+03 5.53261E+00-6.10671E+02
 -1      4175 9.63423E+03-2.77395E+01 4.11390E+01 1.31690E+03-3.71269E+00-6.05290E+02
 -1      4176 1.85452E+04 1.13453E+01-4.02057E+01 1.62096E+03-4.98746E+00-7.41023E+02
 -1      4177-9.65257E+03 2.94437E+01-4.05452E+01 1.31935E+03-6.64911E+00-6.02511E+02
 -1      4178 6.42558E+02-2.92443E+01 2.21309E+01 4.46594E+02 8.16978E+00-3.78287E+02
 -1      4179 1.85201E+02-5.06456E+01 2.08088E+01 8.44274E+02-4.84982E+00-1.99160E+02
 -1      4180-1.84392E+02 5.20450E+01-1.98861E+01 8.44135E+02 4.62382E+00-1.98812E+02
 -1      4181-6.45520E+03-1.95841E-01 8.23801E+00 7.85302E+02-5.19142E-01-5.62194E+02
 -1      4182-6.41434E+02 3.01222E+01-2.20812E+01 4.47229E+02-8.11497E+00-3.78959E+02
 -1      4183-5.33951E+03 3.68894E+01-6.08657E+00 1.44629E+03-1.23641E+00-3.13154E+02
 -1      4184-2.82873E+03 5.55629E+01 1.85271E+00 1.13896E+03-9.75460E+00-2.39577E+02
 -1      4185-3.45155E+03 2.99712E+01 1.50173E+01 6.10406E+02 5.03988E-01-4.38952E+02
 -1      4186 6.61253E+03-3.61309E+01-3.51863E+01 8.10596E+02-1.50359E+01-5.73678E+02
 -1      4187 5.52904E+03-3.49100E+01-2.03841E+01 1.48117E+03-2.21297E+01-3.20240E+02
 -1      4188-1.67524E+04 7.90712E+00 4.52637E+00 1.10474E+03 1.84035E+00-8.02223E+02
 -1      4189-1.38112E+04 3.57090E+01-1.68950E+01 2.05059E+03-1.41793E+01-4.34664E+02
 -1      4190-2.28375E+04-2.93946E+01 5.85407E+01 1.50971E+03 2.43553E+01-1.26152E+03
 -1      4191-6.58315E+03-4.88604E+01 3.98224E+01 2.80023E+03-4.69832E+01-6.78066E+02
 -1      4192 2.72361E+04-4.92423E+01 1.72144E+01 2.56581E+03 3.69406E+01-5.37010E+02
 -1      4193 3.30606E+04-2.00593E+01 1.10953E+01 1.37674E+03 1.06920E+01-9.99411E+02
 -1      4194 1.67272E+04 6.40935E+00 4.41648E+00 1.11568E+03 3.93625E+00-8.00591E+02
 -1      4195-4.56712E+04 1.31084E+01-1.26804E+01 1.52252E+03-1.08003E+01-1.09759E+03
 -1      4196-3.30630E+04 2.01243E+01-1.19815E+01 1.37409E+03-1.26967E+01-9.96930E+02
 -1      4197 1.38150E+04-3.23310E+01 1.23590E+01 2.06128E+03 1.06914E+01-4.38559E+02
 -1      4198 3.45302E+03-6.89149E+01 4.21818E+01 2.30473E+03-3.53467E+01-5.58599E+02
 -1      4199-2.47343E+03 1.54066E+01-4.21662E+00 7.13210E+02-2.61358E+00-3.41245E+02
 -1      4200 2.47526E+03-1.94234E+01 2.09389E+00 7.15264E+02 2.92863E+00-3.38278E+02
 -1      4201-3.98441E+03 4.07313E+01 1.65008E+01 8.31681E+02 6.38066E+00-7.09027E+02
 -1      4202-1.28253E+04 4.92358E+01-5.09169E+01 1.24095E+03-2.33971E+01-1.03799E+03
 -1      4203 2.28427E+04 2.99300E+01-5.89248E+01 1.50834E+03-2.43417E+01-1.25989E+03
 -1      4204-2.73974E+04 4.72937E+01-1.80346E+01 2.54931E+03-3.81996E+01-5.35543E+02
 -1      4205 6.65810E+03 4.88644E+01-4.01240E+01 2.79694E+03 4.68983E+01-6.77470E+02
 -1      4206-3.79241E+04 4.58068E+01-2.88534E+01 2.80780E+03-3.84428E+01-5.91744E+02
 -1      4207-3.47660E+03 6.94866E+01-5.00673E+01 2.30550E+03 3.39537E+01-5.52904E+02
 -1      4208 1.28406E+04-5.24171E+01 4.81022E+01 1.23471E+03 1.94105E+01-1.04357E+03
 -1      4209 9.87182E+00-3.15689E+00 2.47482E-02 2.96933E+03 9.88887E-01-1.18884E+03
 -1      4210 4.69057E+03-9.47306E+01 2.30132E+01 2.81811E+03-6.76869E-01-1.20706E+03
 -1      4211-1.26306E+01 1.63772E+01 2.32714E+00 3.27922E+03-7.18480E+00-1.45622E+03
 -1      4212 1.43687E+01-1.02907E+00 2.23527E+00 9.35792E+02 1.52364E+00-3.75782E+02
 -1      4213-1.73308E+02-9.80695E-01-2.99635E+00 9.44490E+02 1.66283E+00-4.08756E+02
 -1      4214 1.78198E+02 2.53907E+00 6.49913E+00 9.45619E+02-1.47638E+00-4.07861E+02
 -1      4215 2.46930E+01-2.79502E+01-1.12837E+01 1.59841E+03 2.32617E+00-6.89533E+02
 -1      4216 6.05415E+02-4.40104E+01 1.15141E+00 1.46346E+03 4.07295E+00-6.33572E+02
 -1      4217-6.55408E+02 4.08827E+01-2.90158E+01 1.46919E+03 8.62981E+00-6.35938E+02
 -1      4218 1.84019E+03-4.13578E+01-3.21108E+01 1.45353E+03 7.14599E+00-5.94031E+02
 -1      4219-2.09470E+03 9.36494E+00-1.94825E+01 1.56143E+03-7.33777E+00-6.44318E+02
 -1      4220-9.34862E+00 1.21479E+00 5.15009E-01 1.24164E+03 2.18704E+00-5.32545E+02
 -1      4221-1.10987E+03-2.55907E+01-1.48129E+01 1.26477E+03-8.49618E+00-5.21477E+02
 -1      4222-1.37026E+04-5.37558E+01-3.16019E+01 2.97768E+03-1.46091E+01-1.21385E+03
 -1      4223-4.66908E+03 9.42488E+01-2.48261E+01 2.81922E+03 6.51982E-01-1.20774E+03
 -1      4224-1.06274E+00 2.77936E+00 3.52928E+00 2.36489E+03 8.52998E-01-1.03853E+03
 -1      4225-5.15683E+03-4.94663E+01-3.56579E+01 2.18091E+03-1.28511E+01-8.82190E+02
 -1      4226 5.15009E+03 3.80103E+01 2.57920E+01 2.18328E+03 1.28492E+01-8.77644E+02
 -1      4227 5.79681E+02-2.89614E+01 1.74403E+01 4.60100E+02 3.31352E+00-2.19084E+02
 -1      4228-8.10800E+03 1.63150E+01-4.37355E+00 7.47681E+02 1.09431E+01-2.70570E+02
 -1      4229-5.79804E+02 2.93042E+01-1.74541E+01 4.59994E+02-3.09771E+00-2.19277E+02
 -1      4230-4.33405E+03 2.21796E+01 9.95830E-01 6.02645E+02 5.43355E+00-2.17374E+02
 -1      4231 8.01368E+03-2.75896E+01-2.61686E+01 7.47982E+02-5.80289E+00-2.71519E+02
 -1      4232-7.05468E+03 6.89260E+01 6.25002E+00 1.04854E+03-1.95243E+01-5.04372E+02
 -1      4233-1.97955E+04-7.74220E+00 2.73704E+01 1.48768E+03 1.10169E+00-7.03370E+02
 -1      4234-2.08922E+04 7.31463E+00-1.23902E+01 1.06434E+03 7.34239E+00-3.86845E+02
 -1      4235 4.10699E+04-4.22644E+00 2.01445E+01 1.33948E+03-9.11748E-01-4.87874E+02
 -1      4236-2.08877E+01-3.97014E-01-4.73864E-01 2.86866E+03 2.44635E+00-1.26056E+03
 -1      4237 9.93953E+03 9.57370E+01 5.70415E+01 2.70612E+03-3.89457E+00-1.11382E+03
 -1      4238 2.27458E+00 3.76703E+00 1.74798E-01 2.41620E+03-7.98088E+00-9.84495E+02
 -1      4239 5.71612E+03 3.90413E+01 2.17451E+01 2.37088E+03-3.24294E+00-9.32920E+02
 -1      4240 2.78222E+03 3.42175E+01 1.76248E+01 2.35929E+03 9.75185E+00-1.04560E+03
 -1      4241-9.92150E+03-9.34255E+01-5.44666E+01 2.70477E+03 4.46144E+00-1.11319E+03
 -1      4242 2.08808E+04-9.03850E+00 1.40743E+01 1.06374E+03-9.34255E+00-3.85190E+02
 -1      4243-4.12300E+04 3.11764E+00-2.08554E+01 1.32261E+03 5.17030E-01-4.87335E+02
 -1      4244-5.69569E+04-3.88087E-01-2.74273E+01 1.45442E+03 3.58423E+00-5.38501E+02
 -1      4245-2.71978E+03-6.16946E+01-2.32436E+01 2.43499E+03 2.25002E+01-9.73987E+02
 -1      4246 3.71769E+01 7.85366E+00 8.52528E+00 2.68946E+03 7.50411E+00-1.08057E+03
 -1      4247 1.11038E+04-2.98740E+01 3.13293E+01 1.23360E+03 2.46458E+00-5.83123E+02
 -1      4248-1.11014E+04 3.12504E+01-2.96011E+01 1.23139E+03-2.80504E+00-5.79470E+02
 -1      4249 1.98667E+04 7.65953E+00-2.77340E+01 1.48128E+03-1.73721E+00-7.02911E+02
 -1      4250 2.41447E+03-9.76062E-01 4.05671E+01 6.48211E+02 1.37684E+01-5.67112E+02
 -1      4251 2.14935E+03-1.37138E+01 1.45009E+01 7.23124E+02 5.44955E+00-3.37178E+02
 -1      4252 8.28548E+02-5.41015E+01 6.86850E+00 1.23864E+03 2.86611E-01-2.94603E+02
 -1      4253-1.04376E+03 1.42038E+01-2.00198E+01 1.39381E+03-8.97614E+00-3.13250E+02
 -1      4254-2.56884E+03 4.46578E+01-9.76714E+00 7.57033E+02-3.62863E-01-3.56514E+02
 -1      4255-3.54414E+03 3.93911E+01 4.15289E+00 7.12285E+02 1.03706E+00-6.49410E+02
 -1      4256 2.74868E+04-4.41662E+01-4.24856E+01 1.19907E+03 2.41880E+00-8.73779E+02
 -1      4257 2.97598E+04-6.19041E+01-4.44737E+01 1.26448E+03-7.03953E+00-4.69376E+02
 -1      4258 2.30221E+04-1.76218E+01-2.31321E+01 2.29667E+03-1.21892E+01-4.66066E+02
 -1      4259 8.21197E+02 4.25817E+01 3.50636E+00-3.27703E+01-4.74556E-01 5.93772E+01
 -1      4260 2.27604E+02 6.17910E+01-2.09105E+01-1.27203E+02-6.11506E+00 4.82969E+01
 -1      4261-4.38818E+03 1.80483E+01-1.59694E+01 9.82376E+02-2.43438E-01-4.57932E+02
 -1      4262-2.45948E+02-6.44366E+01 1.49391E+01-1.98379E+02 2.13215E-01 1.05008E+02
 -1      4263-2.54684E+02-4.81356E+01 8.27922E+00-2.04021E+02 4.16064E+00 8.87677E+01
 -1      4264-3.27576E+02-3.86442E+01 2.60322E+01-2.63621E+02 1.75580E+00 2.01225E+02
 -1      4265-5.73811E+01-5.87245E+01 1.20658E+01-4.34567E+02 1.00677E+00 1.20883E+02
 -1      4266 7.85453E+01 1.65822E+02-1.52974E+01-6.07887E+02-1.04237E+01 1.31303E+02
 -1      4267-5.23928E+01 8.02548E+01-1.79679E+01-4.97432E+02-5.43351E+00 2.19083E+02
 -1      4268-8.54917E+04-4.28592E+01-1.10195E+03 6.93176E+02-1.80087E+02-1.30150E+03
 -1      4269-9.64519E+04 1.16950E+03-3.59500E+02 1.18725E+03-1.84659E+03-2.66863E+03
 -1      4270-6.84683E+04-2.65539E+03-1.56075E+03 4.02531E+03-9.51241E+02-2.27615E+03
 -1      4271-7.74323E+04-6.25141E+02-4.30414E+03 3.11324E+03-6.41512E+02-3.84620E+03
 -1      4272 5.15416E+03-4.88465E+01-1.89945E+01 3.36883E+03 3.31926E+01-1.38540E+03
 -1      4273-4.61500E-01-1.64010E+01 1.42563E+00 5.75449E+02 3.74051E+00-2.44107E+02
 -1      4274-9.61398E+01-8.66457E+00-1.28346E+01 2.64180E+02-3.91353E+00-1.09972E+02
 -1      4275 4.59900E+03-4.27997E+01-6.88690E+01 3.28529E+03-9.42532E+00-1.35855E+03
 -1      4276 8.99451E+02 5.43526E+01 3.45554E+01-1.56985E+02 8.79389E+00 6.11111E+01
 -1      4277 6.48221E+02 7.32727E+01 4.09845E+01-1.66642E+02-4.77607E+00 4.58107E+01
 -1      4278 4.75225E+02 2.54135E+01 5.03250E+00-2.45367E+02 1.80721E+00 1.43354E+02
 -1      4279 3.43230E+02 3.99251E+01 3.10881E+00-3.99364E+02 6.43594E+00 8.48037E+01
 -1      4280 7.01514E+02 2.89229E+01-2.02999E+01-1.52604E+01-3.59481E+00 2.88962E+01
 -1      4281 6.08606E+02 3.22709E+01-2.67956E+01-1.15267E+02-4.41752E+00 7.06672E+01
 -1      4282 1.22300E+03 3.97011E+00 3.41975E+01 2.06691E+03 7.88948E+00-8.49566E+02
 -1      4283-2.74345E+02 1.40925E+02-3.43453E+01-2.82558E+02 4.34888E-01 2.33873E+02
 -1      4284-2.72881E+02 1.05429E+02-4.28833E+01-2.67227E+02 1.15294E+00 2.70715E+02
 -1      4285 8.89794E+02-2.15638E+01-9.76501E+00 1.85319E+03-1.01988E+01-7.67492E+02
 -1      4286-4.14464E+02 1.56924E+01 2.04272E+00 3.84131E+03 4.45482E+00-1.73083E+03
 -1      4287-6.02762E+02-8.58680E+01-4.50511E+01-1.73384E+02-5.23269E-01 4.62815E+01
 -1      4288-8.22008E+02-6.37654E+01-3.43894E+01-1.80626E+02-1.02092E+01 5.43801E+01
 -1      4289-4.62757E+02-5.47725E+01-2.69500E+01-2.35933E+02-6.80576E+00 1.50750E+02
 -1      4290-3.77233E+02-8.43401E+01-2.83612E+01-4.19072E+02-6.09199E-01 8.49174E+01
 -1      4291 9.60699E+04-3.27804E+02 8.22458E+02 9.84893E+02 2.13853E+03-2.52359E+03
 -1      4292 8.54227E+04 6.81626E+01 1.16665E+03 7.88908E+02 2.11082E+02-1.15377E+03
 -1      4293 7.78456E+04 1.92220E+03 5.24720E+03 3.01524E+03 9.62933E+02-3.27107E+03
 -1      4294 6.87199E+04 3.98291E+03 2.44892E+03 3.30187E+03 1.14477E+03-2.18788E+03
 -1      4295 9.39110E+01 1.50005E+02-2.92640E+01-5.06232E+02 1.56801E+00 1.22327E+02
 -1      4296-3.94989E+04 1.26709E+03-1.63978E+03-1.45200E+03 8.02994E+02 2.35531E+03
 -1      4297-3.09110E+04 1.07917E+03-1.45134E+03 2.02856E+02 1.77862E+02 1.26690E+03
 -1      4298-4.09580E+04-1.04429E+02-4.06454E+03 2.16056E+03 1.99586E+02 1.48264E+03
 -1      4299-1.92813E+04 7.50159E+02-1.52708E+03 1.56059E+03 5.39434E+02-1.22093E+02
 -1      4300 2.66870E+02 5.85926E+01-7.03797E+00-1.96825E+02-4.80265E+00 8.32328E+01
 -1      4301 2.30105E+02 7.66892E+01-1.45142E+01-1.98483E+02-1.24976E+00 1.01452E+02
 -1      4302 6.31715E+01 5.50782E+01-9.48696E+00-4.41224E+02 3.96959E+00 1.26019E+02
 -1      4303 3.23254E+02 5.63307E+01-3.51320E+01-2.47186E+02-8.30609E-01 1.99263E+02
 -1      4304 2.01147E+01 7.92972E+01-2.04955E+01-4.05379E+02-1.65129E+00 1.00655E+02
 -1      4305 7.98091E+04 6.12059E+03 1.62959E+04 4.12658E+03 2.04941E+02-4.91072E+03
 -1      4306 5.65539E+04 1.03073E+04 1.08631E+04 5.61209E+03 9.73141E+02-5.09985E+03
 -1      4307 1.53117E+02-1.72456E+02-8.18695E+01-5.88585E+02-1.57455E+01 9.74081E+01
 -1      4308 1.32282E+02-1.10215E+02-6.65327E+01-4.82810E+02-4.71826E+00 1.90544E+02
 -1      4309 3.92163E+04-1.12518E+03 1.58839E+03-1.36239E+03-8.44704E+02 2.38469E+03
 -1      4310 3.09314E+04-1.13762E+03 1.45381E+03 2.29905E+02-1.29879E+02 1.28799E+03
 -1      4311 4.05437E+04-1.92994E+02 3.90224E+03 2.22939E+03-1.38248E+02 1.49476E+03
 -1      4312 1.95418E+04-1.04290E+02 1.82817E+03 1.14243E+03-5.06098E+02-2.25852E+02
 -1      4313-4.26996E+03 4.72504E+01 8.76801E+00 1.25579E+03-4.31291E+00-2.40224E+02
 -1      4314-5.11445E+03 9.67878E+00 1.34267E+01 6.28166E+02-2.56081E+00-4.76664E+02
 -1      4315 8.32537E+04 4.52571E+03 1.21738E+04 3.27890E+03 2.90679E+02-7.39576E+03
 -1      4316 5.09009E+04 1.37530E+03 1.07451E+04 1.53303E+03-6.16975E+02 4.04317E+03
 -1      4317 2.33092E+04 3.45839E+03 5.31338E+03 2.77196E+03-2.90997E+02 1.39594E+03
 -1      4318 2.94689E+02-1.77561E+02-1.01291E+02-2.76360E+02 1.99217E+00 1.76835E+02
 -1      4319 2.97916E+02-1.35823E+02-9.36381E+01-2.56161E+02-1.02287E+01 2.30367E+02
 -1      4320 1.47191E+02-1.68222E+02-9.91601E+01-4.77606E+02 6.44298E+00 1.13881E+02
 -1      4321-6.21534E+04-9.27066E+03-2.80509E+03 2.41814E+03 7.65048E+02-3.62198E+03
 -1      4322 6.13765E+04 1.26816E+04 7.73293E+03 2.85939E+03-8.14011E+00-5.05923E+03
 -1      4323 7.46280E+04 1.00388E+04 5.33911E+03 4.46402E+03 4.49738E+02-4.45698E+03
 -1      4324-2.63217E+02 1.57941E+02 1.15731E+02-2.97540E+02 9.02475E+00 2.09309E+02
 -1      4325-7.62218E+04-1.29823E+04-7.21407E+03 4.51738E+03-8.76638E+02-4.93576E+03
 -1      4326-5.75960E+04-1.21426E+04-1.27534E+04 5.43473E+03-1.51575E+03-5.12303E+03
 -1      4327 4.28611E+04 1.22858E+03 7.57758E+03 6.38135E+01-8.55904E+01 6.05812E+03
 -1      4328 6.30693E+03 1.03465E+03 3.90402E+03-9.12973E+02 2.10273E+02 2.60357E+03
 -1      4329 2.14544E+04 1.53681E+03 2.70607E+03-1.23375E+03-2.85535E+02 3.12290E+03
 -1      4330 8.51796E+02-5.29802E+00 7.64656E+00 5.29467E+02-2.98338E+00-2.47647E+02
 -1      4331 3.47314E+02-4.62777E+01 4.65212E+00 9.04893E+02 1.02722E+00-2.11562E+02
 -1      4332 8.22109E+02-1.35421E+01 1.42703E+01 4.76379E+02 3.95030E+00-4.17549E+02
 -1      4333-3.47231E+02 4.64045E+01-4.43508E+00 9.04711E+02-8.71220E-01-2.11508E+02
 -1      4334-8.21940E+02 1.37137E+01-1.41770E+01 4.76483E+02-3.57168E+00-4.17781E+02
 -1      4335-8.51665E+02 5.38085E+00-7.43913E+00 5.29368E+02 3.20776E+00-2.47560E+02
 -1      4336 5.24820E+03-4.30698E+01-2.18974E+01 1.35798E+03-1.97195E+00-2.67816E+02
 -1      4337 6.31351E+03-3.82022E+01-2.19314E+01 6.81867E+02-1.88801E+00-5.10833E+02
 -1      4338 6.47759E+03-4.81691E+01-1.79802E+01 7.26718E+02-5.09750E+00-2.68721E+02
 -1      4339-8.96358E+03 1.63691E+01 1.29018E+01 8.22999E+02-5.92547E+00-3.02528E+02
 -1      4340-7.43199E+03 2.84188E+01 2.92033E+01 7.62574E+02 3.48379E+00-5.57608E+02
 -1      4341-6.28345E+03 5.14646E+01 1.95153E+01 1.45770E+03 3.86890E+00-3.04719E+02
 -1      4342-6.87193E+03 2.37508E+01-8.15406E+00 2.72021E+03-1.78186E+00-6.22696E+02
 -1      4343-1.79184E+04 4.73848E+01-4.91383E+01 1.49750E+03 5.08541E+00-6.95968E+02
 -1      4344-2.32301E+04 3.02438E+01-9.94466E+00 1.37295E+03 1.26251E+01-1.25322E+03
 -1      4345-2.15544E+04-2.60109E+01-1.05091E+01 1.13007E+03-1.02655E+01-4.19601E+02
 -1      4346-1.84829E+04-5.21783E+00 1.44369E+01 1.04256E+03 5.02064E+00-7.65995E+02
 -1      4347-1.55343E+04 2.37962E+01-5.40990E+00 2.02454E+03 3.44356E+00-4.06349E+02
 -1      4348 4.11293E+04 4.53183E+01 2.38429E+01 1.40165E+03 8.57361E+00-5.21540E+02
 -1      4349 3.57940E+04 2.29805E+01-8.95278E+00 1.30518E+03-1.43307E+01-9.50475E+02
 -1      4350 3.00051E+04-1.84095E+01 2.14760E+01 2.51926E+03-7.03801E+00-5.09030E+02
 -1      4351 1.55346E+04-2.84576E+01 5.81397E-02 2.02875E+03-5.51137E+00-4.05560E+02
 -1      4352 2.15600E+04 1.53697E+01-2.08218E+00 1.13441E+03 4.47709E+00-4.20800E+02
 -1      4353 1.84828E+04 5.26334E+00-1.30355E+01 1.04466E+03-5.96795E+00-7.66410E+02
 -1      4354 6.94750E+03-2.57783E+01 6.70579E+00 2.71584E+03 3.86339E-01-6.24926E+02
 -1      4355 1.79205E+04-4.92494E+01 4.75176E+01 1.49872E+03-6.21658E+00-6.96120E+02
 -1      4356 2.32366E+04-3.20293E+01 9.26699E+00 1.37244E+03-1.31913E+01-1.25401E+03
 -1      4357-2.98013E+02 1.77216E+02 1.07420E+02-2.87863E+02-9.18126E+00 1.88589E+02
 -1      4358-1.71508E+02 1.05874E+02 6.44655E+01-4.80639E+02 3.21404E+00 1.89602E+02
 -1      4359-3.01531E+04 1.70733E+01-2.23429E+01 2.50748E+03 7.17079E+00-5.07576E+02
 -1      4360-4.11155E+04-4.56242E+01-2.43974E+01 1.40376E+03-9.39076E+00-5.20094E+02
 -1      4361-3.57828E+04-2.36361E+01 8.14662E+00 1.30711E+03 1.35611E+01-9.49288E+02
 -1      4362 4.30616E+03-2.02208E+01-5.12744E+00 2.30033E+03 1.41698E+01-5.25589E+02
 -1      4363 1.36355E+04 1.43021E+01 4.49025E+00 1.18129E+03 1.61821E+01-1.05551E+03
 -1      4364 1.12936E+04 1.78963E+01-2.57340E+01 1.30166E+03 1.36311E+01-6.00902E+02
 -1      4365-1.14633E+03-2.41462E+01-7.29340E+00 1.10740E+02-9.77583E+00-4.27411E+01
 -1      4366-4.91360E+04 2.56724E+01 2.37919E+01 1.42635E+03-1.22267E+01-1.04447E+03
 -1      4367-4.14264E+04 3.00866E+01 2.17524E+01 2.75195E+03-1.13592E+01-5.56848E+02
 -1      4368-5.61758E+04-2.96139E+00 9.70232E+00 1.52559E+03-2.36724E+01-5.59445E+02
 -1      4369 1.07614E+04-3.10604E+00-7.80353E+00 8.95313E+02-1.68483E-02-3.31600E+02
 -1      4370-1.38590E+02-2.13915E+01-3.00567E+00 3.01620E+02-7.13193E+00-1.11865E+02
 -1      4371 1.58622E+04-4.84953E+01-1.61272E+01 9.50737E+02 2.73136E+00-3.52747E+02
 -1      4372 5.86929E+04 5.41567E+01 3.37360E+01 1.60735E+03-4.27730E+00-5.96839E+02
 -1      4373-5.09518E+04-1.69417E+03-1.07096E+04 1.10813E+03 3.37545E+02 4.09429E+03
 -1      4374-4.27474E+04-1.18277E+03-7.42420E+03 9.98786E+01 2.96677E+01 6.13657E+03
 -1      4375-2.38594E+04-3.84058E+03-5.89402E+03 2.60903E+03 6.83559E+02 1.80248E+03
 -1      4376-8.73518E+01-1.47139E+02 2.59405E+01-6.00615E+02 9.10063E+00 1.17531E+02
 -1      4377-8.07740E+01-1.66293E+02 3.14493E+01-5.04134E+02-4.70759E+00 1.20411E+02
 -1      4378 7.52297E+01-1.13945E+02 4.87892E+00-4.91379E+02 5.31485E+00 2.23684E+02
 -1      4379-7.89601E+03 1.72621E+03 9.23870E+02-1.88462E+03-6.95459E+02 1.03203E+03
 -1      4380-1.13054E+04-1.58711E+01 2.53551E+01 1.29598E+03-6.57987E+00-6.03620E+02
 -1      4381-4.33457E+03 2.91700E+01 2.44519E+00 2.29834E+03-2.48142E+00-5.28777E+02
 -1      4382-1.36256E+04-8.93750E+00-5.86857E+00 1.17750E+03-9.83561E+00-1.04824E+03
 -1      4383-7.84189E+04-4.43435E+03-1.44496E+04 4.06941E+03 3.45542E+02-5.02237E+03
 -1      4384-8.45256E+04-6.33774E+03-1.46516E+04 3.92125E+03-7.92574E+02-7.55197E+03
 -1      4385 6.62830E+04-2.78216E+01 5.73750E+00 1.62006E+03 1.52305E+01-5.67339E+02
 -1      4386-1.53458E+02 1.78121E+02 9.01683E+01-5.34673E+02 2.58558E+01 1.11823E+02
 -1      4387-2.23689E+04-3.04159E+03-3.35478E+03-1.17287E+03 2.87549E+02 3.20575E+03
 -1      4388-4.13809E+03 2.37535E+01 3.03425E+01 6.21595E+02 8.23086E+00-4.42939E+02
 -1      4389-3.52144E+03 5.61705E+01 1.39632E+01 1.17467E+03 6.58781E+00-2.47499E+02
 -1      4390-5.13810E+03 1.84840E+01 1.09519E+01 6.67312E+02-1.66691E+00-2.43995E+02
 -1      4391-1.57040E+02 2.21271E+02 1.09535E+02-4.91449E+02-6.60200E+00 1.18474E+02
 -1      4392 6.80326E+01 1.67212E+01-2.90670E+00-1.11793E+02-1.50382E+00 4.68223E+01
 -1      4393 2.34073E+02-1.25423E+02 1.31300E+01-2.95347E+02-1.41346E+01 2.49698E+02
 -1      4394 2.67421E+02-1.47721E+02 6.10795E+01-2.84329E+02-6.47233E+00 2.37761E+02
 -1      4395-2.33799E+02 1.37721E+01-1.79920E+01-1.35242E+02-6.17730E+00 3.14793E+01
 -1      4396 4.15229E+02 4.77119E+01-1.98203E+01-1.78552E+02-3.79918E+00 8.01559E+01
 -1      4397 3.04989E+01 8.16975E+01-1.34016E+01-3.04326E+02-2.23470E+00 5.15353E+01
 -1      4398 1.52995E+02 6.60813E+01-8.52751E+00-7.10637E+01-4.26291E+00 1.04302E+01
 -1      4399 6.37528E+01 6.12087E+01-1.31932E+01-1.81738E+02-5.55645E+00 3.90034E+01
 -1      4400 5.35470E+02 3.36714E+01-1.40344E+01-6.62954E+00-4.25819E+00 3.03843E+00
 -1      4401 4.03123E+02 4.06363E+01-1.94822E+01-1.37862E+02-1.59014E+00 5.02819E+01
 -1      4402 5.54340E+02 3.48015E+01-1.34724E+01-6.01637E+01-3.03799E+00 3.05174E+01
 -1      4403 9.23056E+02 3.68786E+01 2.36217E+01 9.84150E+01 2.95829E+00-6.19347E+01
 -3
    1PSTEP                         9           1           2          
    1PGM                1.000000E+00                                  
    1PGK                3.906961E+07                                  
    1PHID                         -1                                  
    1PSUBC                         0                                  
    1PMODE                         2                                  
  100CL  103 994.8089209        4403                     2    3MODAL      1
 -4  ERROR       1    1
 -5  STR(%)      1    1    0    0
 -1         1 1.01126E+01
 -1         2 1.74779E+01
 -1         3 1.71489E+01
 -1         4 1.04331E+01
 -1         5 3.04934E+01
 -1         6 2.69986E+01
 -1         7 2.77023E+01
 -1         8 2.96580E+01
 -1         9 1.15445E+01
 -1        10 1.20550E+01
 -1        11 1.06270E+01
 -1        12 1.45112E+01
 -1        13 1.17997E+01
 -1        14 1.13410E+01
 -1        15 1.03698E+01
 -1        16 1.20743E+01
 -1        17 2.06077E+01
 -1        18 3.02889E+01
 -1        19 1.10935E+01
 -1        20 1.63410E+01
 -1        21 2.54483E+01
 -1        22 2.37189E+01
 -1        23 9.97082E+00
 -1        24 1.23436E+01
 -1        25 1.23436E+01
 -1        26 1.02020E+01
 -1        27 1.11572E+01
 -1        28 1.23436E+01
 -1        29 1.47463E+01
 -1        30 3.03723E+01
 -1        31 2.05213E+01
 -1        32 1.07903E+01
 -1        33 2.39251E+01
 -1        34 2.54468E+01
 -1        35 1.56558E+01
 -1        36 1.06117E+01
 -1        37 2.69986E+01
 -1        38 2.82753E+01
 -1        39 2.96332E+01
 -1        40 2.69986E+01
 -1        41 2.76369E+01
 -1        42 2.89542E+01
 -1        43 3.00633E+01
 -1        44 2.00511E+01
 -1        45 1.04053E+01
 -1        46 1.16940E+01
 -1        47 2.52723E+01
 -1        48 1.52282E+01
 -1        49 1.10497E+01
 -1        50 1.96981E+01
 -1        51 2.91854E+01
 -1        52 2.84352E+01
 -1        53 2.77023E+01
 -1        54 2.94217E+01
 -1        55 2.88103E+01
 -1        56 2.80687E+01
 -1        57 2.77023E+01
 -1        58 1.16100E+01
 -1        59 1.28883E+01
 -1        60 2.00959E+01
 -1        61 1.93043E+01
 -1        62 1.22492E+01
 -1        63 1.64921E+01
 -1        64 2.48769E+01
 -1        65 1.76709E+01
 -1        66 1.79762E+01
 -1        67 1.69360E+01
 -1        68 1.68548E+01
 -1        69 1.69196E+01
 -1        70 1.66272E+01
 -1        71 1.68911E+01
 -1        72 1.68130E+01
 -1        73 1.67498E+01
 -1        74 1.62431E+01
 -1        75 1.66893E+01
 -1        76 1.67310E+01
 -1        77 1.67770E+01
 -1        78 1.62182E+01
 -1        79 1.61242E+01
 -1        80 1.60479E+01
 -1        81 1.61875E+01
 -1        82 1.59253E+01
 -1        83 1.62843E+01
 -1        84 1.46810E+01
 -1        85 1.48866E+01
 -1        86 1.40960E+01
 -1        87 1.35390E+01
 -1        88 1.27141E+01
 -1        89 1.28041E+01
 -1        90 9.16983E+00
 -1        91 1.91956E+01
 -1        92 1.91956E+01
 -1        93 1.77784E+01
 -1        94 1.99371E+01
 -1        95 2.06129E+01
 -1        96 2.06129E+01
 -1        97 1.84759E+01
 -1        98 1.75744E+01
 -1        99 1.78235E+01
 -1       100 1.74561E+01
 -1       101 1.68954E+01
 -1       102 1.68872E+01
 -1       103 1.67734E+01
 -1       104 1.67592E+01
 -1       105 1.68520E+01
 -1       106 1.67814E+01
 -1       107 1.64964E+01
 -1       108 1.64662E+01
 -1       109 1.67101E+01
 -1       110 1.67540E+01
 -1       111 1.64976E+01
 -1       112 1.61712E+01
 -1       113 1.60860E+01
 -1       114 1.61177E+01
 -1       115 1.60564E+01
 -1       116 1.61048E+01
 -1       117 1.54826E+01
 -1       118 1.47838E+01
 -1       119 1.44913E+01
 -1       120 1.38175E+01
 -1       121 1.31265E+01
 -1       122 1.27591E+01
 -1       123 1.09870E+01
 -1       124 1.41827E+01
 -1       125 1.91956E+01
 -1       126 1.84870E+01
 -1       127 1.88578E+01
 -1       128 2.02750E+01
 -1       129 2.06129E+01
 -1       130 1.95444E+01
 -1       131 2.27372E+01
 -1       132 7.20734E+00
 -1       133 5.44318E+00
 -1       134 1.04030E+01
 -1       135 1.00110E+01
 -1       136 5.72094E+00
 -1       137 9.89508E+00
 -1       138 5.74958E+00
 -1       139 1.03504E+01
 -1       140 5.79684E+00
 -1       141 5.80065E+00
 -1       142 9.20188E+00
 -1       143 1.02390E+01
 -1       144 5.76146E+00
 -1       145 9.86646E+00
 -1       146 8.73660E+00
 -1       147 5.90085E+00
 -1       148 8.95569E+00
 -1       149 9.90392E+00
 -1       150 8.93467E+00
 -1       151 6.05130E+00
 -1       152 9.39960E+00
 -1       153 1.03818E+01
 -1       154 9.29183E+00
 -1       155 6.43810E+00
 -1       156 7.65727E+00
 -1       157 9.94624E+00
 -1       158 2.38071E+01
 -1       159 2.38071E+01
 -1       160 1.27546E+01
 -1       161 1.12794E+01
 -1       162 7.25897E+00
 -1       163 9.03595E+00
 -1       164 1.28169E+01
 -1       165 8.66000E+00
 -1       166 6.32526E+00
 -1       167 7.92308E+00
 -1       168 1.02070E+01
 -1       169 7.86595E+00
 -1       170 7.80801E+00
 -1       171 7.82233E+00
 -1       172 8.05001E+00
 -1       173 8.07364E+00
 -1       174 5.79874E+00
 -1       175 7.50127E+00
 -1       176 9.72043E+00
 -1       177 8.00023E+00
 -1       178 7.81396E+00
 -1       179 9.30153E+00
 -1       180 7.31872E+00
 -1       181 7.42827E+00
 -1       182 9.42981E+00
 -1       183 9.41929E+00
 -1       184 7.49298E+00
 -1       185 7.72545E+00
 -1       186 9.89072E+00
 -1       187 9.83684E+00
 -1       188 7.86497E+00
 -1       189 7.04769E+00
 -1       190 8.80175E+00
 -1       191 1.68767E+01
 -1       192 2.38071E+01
 -1       193 1.82809E+01
 -1       194 1.20170E+01
 -1       195 9.26920E+00
 -1       196 8.14746E+00
 -1       197 1.09264E+01
 -1       198 2.16552E+01
 -1       199 7.21190E+00
 -1       200 5.51729E+00
 -1       201 1.03538E+01
 -1       202 5.68926E+00
 -1       203 5.74949E+00
 -1       204 5.66346E+00
 -1       205 9.27226E+00
 -1       206 1.03212E+01
 -1       207 5.61936E+00
 -1       208 5.66518E+00
 -1       209 9.19072E+00
 -1       210 1.02156E+01
 -1       211 5.79086E+00
 -1       212 5.81534E+00
 -1       213 5.81346E+00
 -1       214 5.91924E+00
 -1       215 8.93883E+00
 -1       216 9.91128E+00
 -1       217 6.05584E+00
 -1       218 6.01142E+00
 -1       219 6.18695E+00
 -1       220 8.17644E+00
 -1       221 8.78859E+00
 -1       222 7.27335E+00
 -1       223 7.75341E+00
 -1       224 9.96462E+00
 -1       225 2.32427E+01
 -1       226 2.32427E+01
 -1       227 1.23958E+01
 -1       228 8.15152E+00
 -1       229 7.42109E+00
 -1       230 9.10679E+00
 -1       231 1.28769E+01
 -1       232 8.82252E+00
 -1       233 6.36460E+00
 -1       234 7.93555E+00
 -1       235 8.02154E+00
 -1       236 5.71937E+00
 -1       237 5.70647E+00
 -1       238 7.46786E+00
 -1       239 9.79671E+00
 -1       240 7.97026E+00
 -1       241 5.64227E+00
 -1       242 7.42795E+00
 -1       243 9.70318E+00
 -1       244 8.00325E+00
 -1       245 5.80310E+00
 -1       246 5.81440E+00
 -1       247 5.86635E+00
 -1       248 7.42903E+00
 -1       249 9.42505E+00
 -1       250 7.98356E+00
 -1       251 6.03363E+00
 -1       252 6.09919E+00
 -1       253 7.18170E+00
 -1       254 8.48251E+00
 -1       255 8.03097E+00
 -1       256 7.51338E+00
 -1       257 8.85901E+00
 -1       258 1.66037E+01
 -1       259 2.32427E+01
 -1       260 1.78192E+01
 -1       261 1.02736E+01
 -1       262 7.78631E+00
 -1       263 8.26394E+00
 -1       264 1.09918E+01
 -1       265 2.12674E+01
 -1       266 1.76756E+01
 -1       267 1.80675E+01
 -1       268 1.71212E+01
 -1       269 1.68634E+01
 -1       270 1.68425E+01
 -1       271 1.66621E+01
 -1       272 1.69928E+01
 -1       273 1.69186E+01
 -1       274 1.68448E+01
 -1       275 1.63202E+01
 -1       276 1.68794E+01
 -1       277 1.64688E+01
 -1       278 1.67392E+01
 -1       279 1.61913E+01
 -1       280 1.60743E+01
 -1       281 1.59941E+01
 -1       282 1.56605E+01
 -1       283 1.59406E+01
 -1       284 1.56752E+01
 -1       285 1.47753E+01
 -1       286 1.49426E+01
 -1       287 1.45183E+01
 -1       288 1.37749E+01
 -1       289 1.28047E+01
 -1       290 1.27995E+01
 -1       291 9.16170E+00
 -1       292 1.92599E+01
 -1       293 1.92599E+01
 -1       294 1.77182E+01
 -1       295 1.97707E+01
 -1       296 2.10804E+01
 -1       297 1.96063E+01
 -1       298 1.80836E+01
 -1       299 1.74123E+01
 -1       300 1.78715E+01
 -1       301 1.75943E+01
 -1       302 1.69923E+01
 -1       303 1.68529E+01
 -1       304 1.67523E+01
 -1       305 1.68275E+01
 -1       306 1.69557E+01
 -1       307 1.68817E+01
 -1       308 1.65825E+01
 -1       309 1.65998E+01
 -1       310 1.66741E+01
 -1       311 1.66040E+01
 -1       312 1.64652E+01
 -1       313 1.61328E+01
 -1       314 1.60342E+01
 -1       315 1.58273E+01
 -1       316 1.58006E+01
 -1       317 1.58079E+01
 -1       318 1.52252E+01
 -1       319 1.48589E+01
 -1       320 1.47304E+01
 -1       321 1.41466E+01
 -1       322 1.32898E+01
 -1       323 1.28021E+01
 -1       324 1.09806E+01
 -1       325 1.42108E+01
 -1       326 1.92599E+01
 -1       327 1.84890E+01
 -1       328 1.87444E+01
 -1       329 2.04255E+01
 -1       330 2.03434E+01
 -1       331 1.88450E+01
 -1       332 2.28929E+01
 -1       333 2.06873E+01
 -1       334 1.35869E+01
 -1       335 1.89653E+01
 -1       336 2.07737E+01
 -1       337 4.23724E+01
 -1       338 3.07869E+01
 -1       339 1.22796E+01
 -1       340 4.23724E+01
 -1       341 3.07869E+01
 -1       342 3.53247E+01
 -1       343 1.14689E+01
 -1       344 1.07874E+01
 -1       345 3.03723E+01
 -1       346 1.98485E+01
 -1       347 4.23724E+01
 -1       348 1.07908E+01
 -1       349 1.10480E+01
 -1       350 1.17716E+01
 -1       351 2.09584E+01
 -1       352 2.39251E+01
 -1       353 3.03723E+01
 -1       354 1.84987E+01
 -1       355 2.50687E+01
 -1       356 1.60960E+01
 -1       357 1.06103E+01
 -1       358 1.03791E+01
 -1       359 1.07888E+01
 -1       360 1.64143E+01
 -1       361 1.61591E+01
 -1       362 2.55730E+01
 -1       363 1.21070E+01
 -1       364 1.28210E+01
 -1       365 1.71803E+01
 -1       366 1.25279E+01
 -1       367 2.56973E+01
 -1       368 2.14306E+01
 -1       369 2.11279E+01
 -1       370 3.05379E+01
 -1       371 2.56973E+01
 -1       372 3.07869E+01
 -1       373 2.53177E+01
 -1       374 1.11252E+01
 -1       375 1.23116E+01
 -1       376 1.15335E+01
 -1       377 1.65154E+01
 -1       378 1.65154E+01
 -1       379 1.64834E+01
 -1       380 2.02679E+01
 -1       381 3.63723E+01
 -1       382 3.14469E+01
 -1       383 3.63723E+01
 -1       384 1.97433E+01
 -1       385 1.48778E+01
 -1       386 3.06689E+01
 -1       387 1.48763E+01
 -1       388 2.73260E+01
 -1       389 3.15298E+01
 -1       390 2.57371E+01
 -1       391 2.80060E+01
 -1       392 3.30558E+01
 -1       393 3.88485E+01
 -1       394 2.79797E+01
 -1       395 3.15730E+01
 -1       396 2.21869E+01
 -1       397 3.65796E+01
 -1       398 1.56225E+01
 -1       399 3.06689E+01
 -1       400 4.23724E+01
 -1       401 4.23724E+01
 -1       402 3.15730E+01
 -1       403 3.30558E+01
 -1       404 3.88485E+01
 -1       405 4.23724E+01
 -1       406 1.28046E+01
 -1       407 1.53845E+01
 -1       408 2.82753E+01
 -1       409 1.17388E+01
 -1       410 1.22805E+01
 -1       411 2.84352E+01
 -1       412 1.66147E+01
 -1       413 2.69794E+01
 -1       414 2.71429E+01
 -1       415 1.28046E+01
 -1       416 3.04934E+01
 -1       417 2.96580E+01
 -1       418 2.69986E+01
 -1       419 2.77023E+01
 -1       420 1.48419E+01
 -1       421 3.00633E+01
 -1       422 3.04934E+01
 -1       423 2.52723E+01
 -1       424 2.69986E+01
 -1       425 2.69986E+01
 -1       426 1.93043E+01
 -1       427 1.96981E+01
 -1       428 2.77023E+01
 -1       429 2.77023E+01
 -1       430 2.94217E+01
 -1       431 2.96580E+01
 -1       432 2.48769E+01
 -1       433 2.69890E+01
 -1       434 2.76273E+01
 -1       435 2.69890E+01
 -1       436 2.82753E+01
 -1       437 2.89542E+01
 -1       438 2.76273E+01
 -1       439 2.93843E+01
 -1       440 1.83329E+01
 -1       441 1.35100E+01
 -1       442 2.35541E+01
 -1       443 1.16050E+01
 -1       444 1.22493E+01
 -1       445 1.47097E+01
 -1       446 2.02535E+01
 -1       447 2.84352E+01
 -1       448 2.88103E+01
 -1       449 2.90466E+01
 -1       450 2.74226E+01
 -1       451 2.77890E+01
 -1       452 2.77890E+01
 -1       453 2.74226E+01
 -1       454 1.23136E+01
 -1       455 1.16744E+01
 -1       456 1.93687E+01
 -1       457 1.77402E+01
 -1       458 1.41364E+01
 -1       459 1.35617E+01
 -1       460 2.25212E+01
 -1       461 1.57283E+01
 -1       462 1.38232E+01
 -1       463 1.28046E+01
 -1       464 1.99738E+01
 -1       465 1.99738E+01
 -1       466 1.38232E+01
 -1       467 1.38325E+01
 -1       468 1.20097E+01
 -1       469 2.19098E+01
 -1       470 2.03578E+01
 -1       471 2.24450E+01
 -1       472 2.15586E+01
 -1       473 2.09106E+01
 -1       474 1.96300E+01
 -1       475 1.93591E+01
 -1       476 2.06199E+01
 -1       477 1.25426E+01
 -1       478 1.35612E+01
 -1       479 1.27141E+01
 -1       480 1.91956E+01
 -1       481 1.36236E+01
 -1       482 1.43880E+01
 -1       483 1.02164E+01
 -1       484 1.34726E+01
 -1       485 1.13224E+01
 -1       486 9.73926E+00
 -1       487 1.83870E+01
 -1       488 1.84144E+01
 -1       489 1.01096E+01
 -1       490 1.81731E+01
 -1       491 1.73812E+01
 -1       492 1.71793E+01
 -1       493 1.01376E+01
 -1       494 1.97200E+01
 -1       495 1.84759E+01
 -1       496 1.82233E+01
 -1       497 2.21710E+01
 -1       498 1.01713E+01
 -1       499 1.85879E+01
 -1       500 1.06376E+01
 -1       501 1.88635E+01
 -1       502 9.00817E+00
 -1       503 1.34507E+01
 -1       504 2.82753E+01
 -1       505 9.03420E+00
 -1       506 2.38071E+01
 -1       507 8.53804E+00
 -1       508 1.70577E+01
 -1       509 1.28041E+01
 -1       510 1.00253E+01
 -1       511 1.95627E+01
 -1       512 1.59850E+01
 -1       513 1.66856E+01
 -1       514 2.06129E+01
 -1       515 1.28041E+01
 -1       516 8.41360E+00
 -1       517 9.17859E+00
 -1       518 1.69953E+01
 -1       519 1.38240E+01
 -1       520 1.54759E+01
 -1       521 1.91657E+01
 -1       522 1.84427E+01
 -1       523 1.66722E+01
 -1       524 1.41232E+01
 -1       525 1.00072E+01
 -1       526 1.31586E+01
 -1       527 1.20924E+01
 -1       528 1.67750E+01
 -1       529 1.34038E+01
 -1       530 1.77784E+01
 -1       531 1.06969E+01
 -1       532 1.01366E+01
 -1       533 1.29628E+01
 -1       534 1.93639E+01
 -1       535 1.47875E+01
 -1       536 1.77164E+01
 -1       537 1.79022E+01
 -1       538 9.57149E+00
 -1       539 1.39387E+01
 -1       540 1.00082E+01
 -1       541 2.05341E+01
 -1       542 1.97591E+01
 -1       543 9.66007E+00
 -1       544 1.06270E+01
 -1       545 1.08319E+01
 -1       546 1.47264E+01
 -1       547 1.69278E+01
 -1       548 1.59627E+01
 -1       549 2.03952E+01
 -1       550 1.94546E+01
 -1       551 1.71219E+01
 -1       552 1.34726E+01
 -1       553 1.70577E+01
 -1       554 1.71219E+01
 -1       555 1.63849E+01
 -1       556 1.24456E+01
 -1       557 1.74555E+01
 -1       558 1.46376E+01
 -1       559 1.96029E+01
 -1       560 1.42049E+01
 -1       561 1.17846E+01
 -1       562 1.86679E+01
 -1       563 1.33812E+01
 -1       564 1.87183E+01
 -1       565 1.95486E+01
 -1       566 1.45191E+01
 -1       567 1.50660E+01
 -1       568 1.86476E+01
 -1       569 1.93548E+01
 -1       570 1.24613E+01
 -1       571 1.88723E+01
 -1       572 1.80760E+01
 -1       573 9.48046E+00
 -1       574 1.85475E+01
 -1       575 2.69794E+01
 -1       576 1.83784E+01
 -1       577 1.35575E+01
 -1       578 1.98411E+01
 -1       579 9.34687E+00
 -1       580 1.97682E+01
 -1       581 2.69986E+01
 -1       582 3.04934E+01
 -1       583 1.39179E+01
 -1       584 9.98695E+00
 -1       585 9.72976E+00
 -1       586 8.27711E+00
 -1       587 1.86231E+01
 -1       588 1.56564E+01
 -1       589 1.87196E+01
 -1       590 3.04934E+01
 -1       591 3.00633E+01
 -1       592 2.16552E+01
 -1       593 2.69986E+01
 -1       594 2.69986E+01
 -1       595 2.27372E+01
 -1       596 1.24976E+01
 -1       597 1.27528E+01
 -1       598 1.66095E+01
 -1       599 1.13410E+01
 -1       600 1.06270E+01
 -1       601 1.20388E+01
 -1       602 9.98695E+00
 -1       603 2.76273E+01
 -1       604 2.69890E+01
 -1       605 2.69890E+01
 -1       606 2.89542E+01
 -1       607 2.82753E+01
 -1       608 2.76273E+01
 -1       609 2.93843E+01
 -1       610 1.81773E+01
 -1       611 1.80246E+01
 -1       612 1.90733E+01
 -1       613 1.83280E+01
 -1       614 1.88481E+01
 -1       615 1.90492E+01
 -1       616 1.82087E+01
 -1       617 1.82493E+01
 -1       618 1.96413E+01
 -1       619 1.64523E+01
 -1       620 1.64199E+01
 -1       621 1.77738E+01
 -1       622 1.75071E+01
 -1       623 1.76533E+01
 -1       624 1.71860E+01
 -1       625 1.81275E+01
 -1       626 1.79956E+01
 -1       627 1.88754E+01
 -1       628 1.76137E+01
 -1       629 1.76527E+01
 -1       630 1.88892E+01
 -1       631 1.79578E+01
 -1       632 1.79893E+01
 -1       633 1.87901E+01
 -1       634 1.67112E+01
 -1       635 1.69646E+01
 -1       636 1.81725E+01
 -1       637 1.72958E+01
 -1       638 1.70727E+01
 -1       639 1.75408E+01
 -1       640 1.74520E+01
 -1       641 1.74312E+01
 -1       642 1.80377E+01
 -1       643 1.76098E+01
 -1       644 1.75868E+01
 -1       645 1.83079E+01
 -1       646 1.64452E+01
 -1       647 1.67246E+01
 -1       648 1.75575E+01
 -1       649 1.67527E+01
 -1       650 1.67997E+01
 -1       651 1.70267E+01
 -1       652 1.64114E+01
 -1       653 1.64496E+01
 -1       654 1.70781E+01
 -1       655 1.72054E+01
 -1       656 1.71356E+01
 -1       657 1.74991E+01
 -1       658 1.64603E+01
 -1       659 1.65914E+01
 -1       660 1.76093E+01
 -1       661 1.70004E+01
 -1       662 1.68209E+01
 -1       663 1.73558E+01
 -1       664 1.45345E+01
 -1       665 1.53362E+01
 -1       666 1.60522E+01
 -1       667 1.51812E+01
 -1       668 1.50784E+01
 -1       669 1.49320E+01
 -1       670 1.55768E+01
 -1       671 1.59721E+01
 -1       672 1.62668E+01
 -1       673 1.37388E+01
 -1       674 1.40173E+01
 -1       675 1.54982E+01
 -1       676 1.27141E+01
 -1       677 1.31265E+01
 -1       678 1.33264E+01
 -1       679 1.28041E+01
 -1       680 1.27591E+01
 -1       681 1.27591E+01
 -1       682 1.09870E+01
 -1       683 1.28041E+01
 -1       684 1.28041E+01
 -1       685 1.56440E+01
 -1       686 1.06311E+01
 -1       687 1.24482E+01
 -1       688 1.91956E+01
 -1       689 1.91956E+01
 -1       690 1.56440E+01
 -1       691 1.53706E+01
 -1       692 1.60792E+01
 -1       693 1.60792E+01
 -1       694 1.88578E+01
 -1       695 1.77784E+01
 -1       696 1.53706E+01
 -1       697 2.13919E+01
 -1       698 2.10541E+01
 -1       699 1.99747E+01
 -1       700 2.06129E+01
 -1       701 2.06129E+01
 -1       702 2.13919E+01
 -1       703 1.84759E+01
 -1       704 1.95444E+01
 -1       705 1.95444E+01
 -1       706 2.27372E+01
 -1       707 8.67246E+00
 -1       708 7.79038E+00
 -1       709 9.74222E+00
 -1       710 7.73422E+00
 -1       711 1.02141E+01
 -1       712 1.00814E+01
 -1       713 1.02563E+01
 -1       714 1.00603E+01
 -1       715 1.00674E+01
 -1       716 1.29868E+01
 -1       717 1.08418E+01
 -1       718 1.30361E+01
 -1       719 7.69051E+00
 -1       720 9.77758E+00
 -1       721 1.28114E+01
 -1       722 1.00332E+01
 -1       723 7.96042E+00
 -1       724 9.91566E+00
 -1       725 7.94308E+00
 -1       726 1.02435E+01
 -1       727 1.01539E+01
 -1       728 1.46070E+01
 -1       729 1.23302E+01
 -1       730 1.45000E+01
 -1       731 8.24689E+00
 -1       732 8.24880E+00
 -1       733 1.47802E+01
 -1       734 7.40441E+00
 -1       735 9.10503E+00
 -1       736 9.85256E+00
 -1       737 9.60455E+00
 -1       738 1.01231E+01
 -1       739 9.50770E+00
 -1       740 1.44135E+01
 -1       741 1.21747E+01
 -1       742 1.42976E+01
 -1       743 8.29669E+00
 -1       744 1.03492E+01
 -1       745 1.47099E+01
 -1       746 9.67346E+00
 -1       747 9.10853E+00
 -1       748 1.01562E+01
 -1       749 9.68711E+00
 -1       750 8.26923E+00
 -1       751 1.00590E+01
 -1       752 7.53972E+00
 -1       753 9.06714E+00
 -1       754 9.90810E+00
 -1       755 9.34748E+00
 -1       756 9.82159E+00
 -1       757 9.45892E+00
 -1       758 9.73771E+00
 -1       759 9.25308E+00
 -1       760 9.65538E+00
 -1       761 8.73635E+00
 -1       762 7.29467E+00
 -1       763 9.05477E+00
 -1       764 9.93767E+00
 -1       765 1.16118E+01
 -1       766 1.11810E+01
 -1       767 9.80800E+00
 -1       768 1.02991E+01
 -1       769 1.20202E+01
 -1       770 1.01950E+01
 -1       771 9.65001E+00
 -1       772 1.01123E+01
 -1       773 9.16302E+00
 -1       774 7.73615E+00
 -1       775 9.52120E+00
 -1       776 7.42585E+00
 -1       777 8.03544E+00
 -1       778 8.72390E+00
 -1       779 1.05649E+01
 -1       780 1.17094E+01
 -1       781 1.09431E+01
 -1       782 1.15524E+01
 -1       783 1.84828E+01
 -1       784 1.33156E+01
 -1       785 2.38071E+01
 -1       786 2.38071E+01
 -1       787 1.84828E+01
 -1       788 1.92973E+01
 -1       789 1.37710E+01
 -1       790 1.92973E+01
 -1       791 1.20385E+01
 -1       792 1.13009E+01
 -1       793 1.30549E+01
 -1       794 1.23416E+01
 -1       795 1.03314E+01
 -1       796 1.23631E+01
 -1       797 1.04413E+01
 -1       798 1.13298E+01
 -1       799 1.35137E+01
 -1       800 1.12967E+01
 -1       801 1.31872E+01
 -1       802 1.35905E+01
 -1       803 2.20254E+01
 -1       804 1.26327E+01
 -1       805 1.25877E+01
 -1       806 1.25798E+01
 -1       807 1.31921E+01
 -1       808 1.24535E+01
 -1       809 1.81588E+01
 -1       810 1.46072E+01
 -1       811 1.50423E+01
 -1       812 1.81588E+01
 -1       813 1.71219E+01
 -1       814 1.68995E+01
 -1       815 1.70094E+01
 -1       816 1.52757E+01
 -1       817 1.86615E+01
 -1       818 1.52426E+01
 -1       819 1.50567E+01
 -1       820 1.45128E+01
 -1       821 1.53865E+01
 -1       822 1.70506E+01
 -1       823 1.55112E+01
 -1       824 1.56398E+01
 -1       825 1.38359E+01
 -1       826 1.36370E+01
 -1       827 1.35329E+01
 -1       828 1.72566E+01
 -1       829 1.00991E+01
 -1       830 1.26286E+01
 -1       831 1.34726E+01
 -1       832 1.33156E+01
 -1       833 1.26286E+01
 -1       834 1.54627E+01
 -1       835 1.65033E+01
 -1       836 1.44962E+01
 -1       837 1.27637E+01
 -1       838 1.69039E+01
 -1       839 1.40254E+01
 -1       840 1.43058E+01
 -1       841 1.42036E+01
 -1       842 1.41197E+01
 -1       843 1.87701E+01
 -1       844 1.75363E+01
 -1       845 1.63353E+01
 -1       846 1.89208E+01
 -1       847 1.80701E+01
 -1       848 1.94093E+01
 -1       849 1.93572E+01
 -1       850 1.89815E+01
 -1       851 1.85663E+01
 -1       852 1.90411E+01
 -1       853 1.91335E+01
 -1       854 1.48922E+01
 -1       855 1.49343E+01
 -1       856 1.91533E+01
 -1       857 1.43285E+01
 -1       858 1.72551E+01
 -1       859 1.88987E+01
 -1       860 1.87639E+01
 -1       861 1.66195E+01
 -1       862 1.64841E+01
 -1       863 1.72104E+01
 -1       864 1.57522E+01
 -1       865 1.53977E+01
 -1       866 1.60538E+01
 -1       867 1.44248E+01
 -1       868 1.57507E+01
 -1       869 1.79134E+01
 -1       870 1.89067E+01
 -1       871 1.62107E+01
 -1       872 1.58492E+01
 -1       873 1.65833E+01
 -1       874 1.53358E+01
 -1       875 1.52797E+01
 -1       876 1.49894E+01
 -1       877 2.01876E+01
 -1       878 1.03823E+01
 -1       879 1.52341E+01
 -1       880 1.96609E+01
 -1       881 1.97395E+01
 -1       882 2.01270E+01
 -1       883 2.01466E+01
 -1       884 1.94562E+01
 -1       885 1.77019E+01
 -1       886 1.87703E+01
 -1       887 1.61969E+01
 -1       888 1.54228E+01
 -1       889 2.27276E+01
 -1       890 2.04486E+01
 -1       891 1.79338E+01
 -1       892 1.85478E+01
 -1       893 1.58022E+01
 -1       894 1.50781E+01
 -1       895 1.61267E+01
 -1       896 2.05040E+01
 -1       897 2.12831E+01
 -1       898 2.08869E+01
 -1       899 1.86907E+01
 -1       900 1.99990E+01
 -1       901 1.44448E+01
 -1       902 1.44274E+01
 -1       903 1.45573E+01
 -1       904 1.48129E+01
 -1       905 1.90865E+01
 -1       906 1.46810E+01
 -1       907 1.89713E+01
 -1       908 1.83320E+01
 -1       909 1.44540E+01
 -1       910 1.87154E+01
 -1       911 1.20094E+01
 -1       912 1.12799E+01
 -1       913 1.26820E+01
 -1       914 1.40538E+01
 -1       915 1.21034E+01
 -1       916 1.87555E+01
 -1       917 1.46723E+01
 -1       918 1.48426E+01
 -1       919 1.92061E+01
 -1       920 1.90981E+01
 -1       921 1.20371E+01
 -1       922 1.25366E+01
 -1       923 1.26080E+01
 -1       924 1.17636E+01
 -1       925 1.47926E+01
 -1       926 1.66459E+01
 -1       927 1.59145E+01
 -1       928 1.91098E+01
 -1       929 2.10966E+01
 -1       930 2.09164E+01
 -1       931 1.37377E+01
 -1       932 1.07478E+01
 -1       933 1.04375E+01
 -1       934 1.12269E+01
 -1       935 1.07399E+01
 -1       936 1.51402E+01
 -1       937 2.04645E+01
 -1       938 2.04645E+01
 -1       939 1.59547E+01
 -1       940 1.15878E+01
 -1       941 1.42308E+01
 -1       942 1.29782E+01
 -1       943 1.24615E+01
 -1       944 1.72566E+01
 -1       945 1.64657E+01
 -1       946 1.54982E+01
 -1       947 1.70577E+01
 -1       948 1.22943E+01
 -1       949 1.22943E+01
 -1       950 1.27825E+01
 -1       951 1.31383E+01
 -1       952 1.72663E+01
 -1       953 1.90551E+01
 -1       954 1.76166E+01
 -1       955 1.31728E+01
 -1       956 1.63241E+01
 -1       957 1.21229E+01
 -1       958 1.81921E+01
 -1       959 1.78316E+01
 -1       960 1.60465E+01
 -1       961 1.73741E+01
 -1       962 1.82594E+01
 -1       963 1.60996E+01
 -1       964 1.24776E+01
 -1       965 1.18018E+01
 -1       966 1.52973E+01
 -1       967 1.59917E+01
 -1       968 1.35838E+01
 -1       969 1.56634E+01
 -1       970 1.75264E+01
 -1       971 1.47516E+01
 -1       972 8.55962E+00
 -1       973 2.32427E+01
 -1       974 1.96063E+01
 -1       975 1.10779E+01
 -1       976 8.90719E+00
 -1       977 1.35367E+01
 -1       978 1.77182E+01
 -1       979 1.69818E+01
 -1       980 1.00989E+01
 -1       981 1.00819E+01
 -1       982 1.78548E+01
 -1       983 9.99850E+00
 -1       984 1.78026E+01
 -1       985 1.07969E+01
 -1       986 1.96812E+01
 -1       987 9.97058E+00
 -1       988 1.36310E+01
 -1       989 1.27995E+01
 -1       990 9.33365E+00
 -1       991 1.30761E+01
 -1       992 1.51873E+01
 -1       993 1.20812E+01
 -1       994 1.50719E+01
 -1       995 1.93535E+01
 -1       996 1.84436E+01
 -1       997 1.67366E+01
 -1       998 1.91604E+01
 -1       999 1.81115E+01
 -1      1000 1.36509E+01
 -1      1001 2.55304E+01
 -1      1002 1.87128E+01
 -1      1003 1.06891E+01
 -1      1004 1.07793E+01
 -1      1005 1.52240E+01
 -1      1006 1.18027E+01
 -1      1007 8.28180E+00
 -1      1008 1.92599E+01
 -1      1009 1.57675E+01
 -1      1010 1.81891E+01
 -1      1011 9.73722E+00
 -1      1012 1.10779E+01
 -1      1013 1.77426E+01
 -1      1014 1.88771E+01
 -1      1015 1.86194E+01
 -1      1016 1.07903E+01
 -1      1017 1.96341E+01
 -1      1018 1.77019E+01
 -1      1019 1.51491E+01
 -1      1020 1.37210E+01
 -1      1021 1.09669E+01
 -1      1022 1.99216E+01
 -1      1023 1.30761E+01
 -1      1024 1.72601E+01
 -1      1025 1.85244E+01
 -1      1026 1.80657E+01
 -1      1027 1.28047E+01
 -1      1028 9.81706E+00
 -1      1029 1.09623E+01
 -1      1030 9.00530E+00
 -1      1031 1.29875E+01
 -1      1032 8.81334E+00
 -1      1033 1.27995E+01
 -1      1034 1.95452E+01
 -1      1035 2.04548E+01
 -1      1036 1.84417E+01
 -1      1037 1.36465E+01
 -1      1038 1.66683E+01
 -1      1039 1.73438E+01
 -1      1040 1.59288E+01
 -1      1041 1.76332E+01
 -1      1042 1.97723E+01
 -1      1043 1.37648E+01
 -1      1044 1.70872E+01
 -1      1045 1.70872E+01
 -1      1046 1.17782E+01
 -1      1047 1.97723E+01
 -1      1048 1.30325E+01
 -1      1049 1.85039E+01
 -1      1050 1.74028E+01
 -1      1051 1.29952E+01
 -1      1052 1.43617E+01
 -1      1053 1.35367E+01
 -1      1054 1.33959E+01
 -1      1055 1.94343E+01
 -1      1056 1.95510E+01
 -1      1057 1.66606E+01
 -1      1058 1.45207E+01
 -1      1059 1.50345E+01
 -1      1060 1.86533E+01
 -1      1061 1.41024E+01
 -1      1062 1.22157E+01
 -1      1063 1.93600E+01
 -1      1064 1.88760E+01
 -1      1065 1.81317E+01
 -1      1066 1.73578E+01
 -1      1067 1.88401E+01
 -1      1068 2.84352E+01
 -1      1069 1.00596E+01
 -1      1070 1.80836E+01
 -1      1071 1.88013E+01
 -1      1072 1.97932E+01
 -1      1073 9.78726E+00
 -1      1074 2.96580E+01
 -1      1075 2.77023E+01
 -1      1076 1.52401E+01
 -1      1077 1.84711E+01
 -1      1078 1.60684E+01
 -1      1079 1.87344E+01
 -1      1080 9.87904E+00
 -1      1081 1.01102E+01
 -1      1082 8.49958E+00
 -1      1083 2.77023E+01
 -1      1084 2.77023E+01
 -1      1085 2.28929E+01
 -1      1086 2.96580E+01
 -1      1087 2.94217E+01
 -1      1088 2.12674E+01
 -1      1089 1.29972E+01
 -1      1090 1.18109E+01
 -1      1091 1.17191E+01
 -1      1092 1.29951E+01
 -1      1093 1.29951E+01
 -1      1094 1.36487E+01
 -1      1095 1.67199E+01
 -1      1096 2.88103E+01
 -1      1097 2.84352E+01
 -1      1098 2.90466E+01
 -1      1099 2.69828E+01
 -1      1100 2.66164E+01
 -1      1101 2.69828E+01
 -1      1102 2.66164E+01
 -1      1103 8.63575E+00
 -1      1104 7.78844E+00
 -1      1105 9.92342E+00
 -1      1106 7.74394E+00
 -1      1107 1.01622E+01
 -1      1108 1.00151E+01
 -1      1109 1.05215E+01
 -1      1110 8.18920E+00
 -1      1111 1.03299E+01
 -1      1112 8.23426E+00
 -1      1113 8.26437E+00
 -1      1114 1.07342E+01
 -1      1115 7.92421E+00
 -1      1116 7.88120E+00
 -1      1117 1.04391E+01
 -1      1118 7.74026E+00
 -1      1119 9.54466E+00
 -1      1120 9.95800E+00
 -1      1121 9.67706E+00
 -1      1122 1.02015E+01
 -1      1123 9.94946E+00
 -1      1124 1.45991E+01
 -1      1125 1.22483E+01
 -1      1126 1.44795E+01
 -1      1127 8.20812E+00
 -1      1128 8.23103E+00
 -1      1129 1.48370E+01
 -1      1130 7.33524E+00
 -1      1131 9.09801E+00
 -1      1132 9.90109E+00
 -1      1133 9.59461E+00
 -1      1134 1.01071E+01
 -1      1135 9.50190E+00
 -1      1136 1.44175E+01
 -1      1137 1.22052E+01
 -1      1138 1.43090E+01
 -1      1139 8.29060E+00
 -1      1140 8.30284E+00
 -1      1141 1.47049E+01
 -1      1142 1.18090E+01
 -1      1143 1.18081E+01
 -1      1144 1.42965E+01
 -1      1145 8.39019E+00
 -1      1146 8.44308E+00
 -1      1147 1.43848E+01
 -1      1148 7.62644E+00
 -1      1149 9.13624E+00
 -1      1150 1.01503E+01
 -1      1151 9.33802E+00
 -1      1152 9.82425E+00
 -1      1153 9.53543E+00
 -1      1154 1.04368E+01
 -1      1155 8.50907E+00
 -1      1156 1.03498E+01
 -1      1157 8.56689E+00
 -1      1158 8.54469E+00
 -1      1159 1.10201E+01
 -1      1160 8.54469E+00
 -1      1161 8.63245E+00
 -1      1162 1.10779E+01
 -1      1163 7.54707E+00
 -1      1164 8.54181E+00
 -1      1165 9.99257E+00
 -1      1166 8.49489E+00
 -1      1167 8.80096E+00
 -1      1168 8.86027E+00
 -1      1169 8.67410E+00
 -1      1170 7.91649E+00
 -1      1171 8.68648E+00
 -1      1172 7.77758E+00
 -1      1173 8.01760E+00
 -1      1174 8.42071E+00
 -1      1175 1.06451E+01
 -1      1176 1.17507E+01
 -1      1177 1.09092E+01
 -1      1178 1.18428E+01
 -1      1179 1.84818E+01
 -1      1180 1.36288E+01
 -1      1181 2.32427E+01
 -1      1182 2.32427E+01
 -1      1183 1.84818E+01
 -1      1184 2.06542E+01
 -1      1185 1.52307E+01
 -1      1186 2.06542E+01
 -1      1187 1.27359E+01
 -1      1188 1.06138E+01
 -1      1189 1.55709E+01
 -1      1190 1.06138E+01
 -1      1191 1.02486E+01
 -1      1192 1.30761E+01
 -1      1193 9.61189E+00
 -1      1194 1.04547E+01
 -1      1195 1.24394E+01
 -1      1196 1.13689E+01
 -1      1197 1.32539E+01
 -1      1198 1.27168E+01
 -1      1199 2.16445E+01
 -1      1200 1.88743E+01
 -1      1201 1.86784E+01
 -1      1202 1.97372E+01
 -1      1203 1.79170E+01
 -1      1204 1.83901E+01
 -1      1205 1.91970E+01
 -1      1206 1.73591E+01
 -1      1207 1.74880E+01
 -1      1208 1.82838E+01
 -1      1209 1.72378E+01
 -1      1210 1.72483E+01
 -1      1211 1.77440E+01
 -1      1212 1.75519E+01
 -1      1213 1.76421E+01
 -1      1214 1.80374E+01
 -1      1215 1.81732E+01
 -1      1216 1.80078E+01
 -1      1217 1.88976E+01
 -1      1218 1.77215E+01
 -1      1219 1.77586E+01
 -1      1220 1.89389E+01
 -1      1221 1.80026E+01
 -1      1222 1.80395E+01
 -1      1223 1.88424E+01
 -1      1224 1.67902E+01
 -1      1225 1.70525E+01
 -1      1226 1.82103E+01
 -1      1227 1.74955E+01
 -1      1228 1.72159E+01
 -1      1229 1.76859E+01
 -1      1230 1.70854E+01
 -1      1231 1.72907E+01
 -1      1232 1.79067E+01
 -1      1233 1.75914E+01
 -1      1234 1.74562E+01
 -1      1235 1.80728E+01
 -1      1236 1.64298E+01
 -1      1237 1.67038E+01
 -1      1238 1.75560E+01
 -1      1239 1.67160E+01
 -1      1240 1.67745E+01
 -1      1241 1.70130E+01
 -1      1242 1.63654E+01
 -1      1243 1.64055E+01
 -1      1244 1.70472E+01
 -1      1245 1.69248E+01
 -1      1246 1.70916E+01
 -1      1247 1.74629E+01
 -1      1248 1.64612E+01
 -1      1249 1.63212E+01
 -1      1250 1.75854E+01
 -1      1251 1.67089E+01
 -1      1252 1.68416E+01
 -1      1253 1.73622E+01
 -1      1254 1.52714E+01
 -1      1255 1.57214E+01
 -1      1256 1.67551E+01
 -1      1257 1.50649E+01
 -1      1258 1.49813E+01
 -1      1259 1.54774E+01
 -1      1260 1.48337E+01
 -1      1261 1.50458E+01
 -1      1262 1.51682E+01
 -1      1263 1.44234E+01
 -1      1264 1.47951E+01
 -1      1265 1.51105E+01
 -1      1266 1.28047E+01
 -1      1267 1.32898E+01
 -1      1268 1.39383E+01
 -1      1269 1.27995E+01
 -1      1270 1.28021E+01
 -1      1271 1.28021E+01
 -1      1272 1.09806E+01
 -1      1273 1.27995E+01
 -1      1274 1.27995E+01
 -1      1275 1.56705E+01
 -1      1276 1.06215E+01
 -1      1277 1.24403E+01
 -1      1278 1.92599E+01
 -1      1279 1.92599E+01
 -1      1280 1.56705E+01
 -1      1281 1.53528E+01
 -1      1282 1.61237E+01
 -1      1283 1.61237E+01
 -1      1284 1.87444E+01
 -1      1285 1.77182E+01
 -1      1286 1.53528E+01
 -1      1287 2.05010E+01
 -1      1288 1.98461E+01
 -1      1289 1.88199E+01
 -1      1290 1.96063E+01
 -1      1291 2.03434E+01
 -1      1292 1.97639E+01
 -1      1293 1.80836E+01
 -1      1294 1.88450E+01
 -1      1295 1.88450E+01
 -1      1296 2.28929E+01
 -1      1297 1.03877E+01
 -1      1298 1.02487E+01
 -1      1299 1.09043E+01
 -1      1300 1.07774E+01
 -1      1301 1.26055E+01
 -1      1302 1.54041E+01
 -1      1303 2.01650E+01
 -1      1304 2.01650E+01
 -1      1305 1.75765E+01
 -1      1306 1.70872E+01
 -1      1307 1.96893E+01
 -1      1308 1.98469E+01
 -1      1309 1.78505E+01
 -1      1310 1.77676E+01
 -1      1311 1.70062E+01
 -1      1312 1.25902E+01
 -1      1313 1.25902E+01
 -1      1314 1.38115E+01
 -1      1315 1.38693E+01
 -1      1316 1.53815E+01
 -1      1317 1.20552E+01
 -1      1318 1.09699E+01
 -1      1319 1.31550E+01
 -1      1320 1.31081E+01
 -1      1321 1.52176E+01
 -1      1322 1.00300E+01
 -1      1323 1.26575E+01
 -1      1324 1.35367E+01
 -1      1325 1.36288E+01
 -1      1326 1.26575E+01
 -1      1327 1.98469E+01
 -1      1328 1.87452E+01
 -1      1329 1.60399E+01
 -1      1330 1.36746E+01
 -1      1331 1.70670E+01
 -1      1332 1.79289E+01
 -1      1333 1.85325E+01
 -1      1334 1.81233E+01
 -1      1335 1.77429E+01
 -1      1336 1.86899E+01
 -1      1337 1.30016E+01
 -1      1338 1.26614E+01
 -1      1339 1.44944E+01
 -1      1340 1.19319E+01
 -1      1341 1.17909E+01
 -1      1342 1.48165E+01
 -1      1343 1.92141E+01
 -1      1344 1.46257E+01
 -1      1345 1.47581E+01
 -1      1346 1.94927E+01
 -1      1347 1.91548E+01
 -1      1348 1.95838E+01
 -1      1349 1.83474E+01
 -1      1350 1.96474E+01
 -1      1351 1.82366E+01
 -1      1352 1.46792E+01
 -1      1353 1.89897E+01
 -1      1354 1.20199E+01
 -1      1355 1.25165E+01
 -1      1356 1.71972E+01
 -1      1357 1.52122E+01
 -1      1358 1.87184E+01
 -1      1359 1.84890E+01
 -1      1360 1.75732E+01
 -1      1361 1.41554E+01
 -1      1362 1.87652E+01
 -1      1363 1.47251E+01
 -1      1364 1.26588E+01
 -1      1365 1.17630E+01
 -1      1366 1.65870E+01
 -1      1367 1.91290E+01
 -1      1368 1.96132E+01
 -1      1369 1.91732E+01
 -1      1370 1.92412E+01
 -1      1371 1.62239E+01
 -1      1372 1.66638E+01
 -1      1373 1.52127E+01
 -1      1374 1.55720E+01
 -1      1375 2.00000E+01
 -1      1376 1.47579E+01
 -1      1377 1.48024E+01
 -1      1378 1.38657E+01
 -1      1379 1.47799E+01
 -1      1380 1.55844E+01
 -1      1381 1.44355E+01
 -1      1382 2.10331E+01
 -1      1383 2.18376E+01
 -1      1384 1.25076E+01
 -1      1385 1.25102E+01
 -1      1386 1.22888E+01
 -1      1387 1.22888E+01
 -1      1388 1.19969E+01
 -1      1389 1.41048E+01
 -1      1390 1.43066E+01
 -1      1391 1.21814E+01
 -1      1392 1.13648E+01
 -1      1393 1.61359E+01
 -1      1394 1.64242E+01
 -1      1395 1.57875E+01
 -1      1396 1.64242E+01
 -1      1397 1.64242E+01
 -1      1398 1.97723E+01
 -1      1399 1.46449E+01
 -1      1400 1.49350E+01
 -1      1401 1.40908E+01
 -1      1402 1.41099E+01
 -1      1403 1.35675E+01
 -1      1404 1.81735E+01
 -1      1405 1.45842E+01
 -1      1406 1.28090E+01
 -1      1407 1.31681E+01
 -1      1408 1.53120E+01
 -1      1409 1.62373E+01
 -1      1410 1.62759E+01
 -1      1411 1.28999E+01
 -1      1412 1.40335E+01
 -1      1413 1.51990E+01
 -1      1414 1.89794E+01
 -1      1415 1.93939E+01
 -1      1416 1.65591E+01
 -1      1417 1.61032E+01
 -1      1418 1.65995E+01
 -1      1419 1.89018E+01
 -1      1420 1.85309E+01
 -1      1421 1.74000E+01
 -1      1422 1.82876E+01
 -1      1423 1.87458E+01
 -1      1424 1.57925E+01
 -1      1425 1.50662E+01
 -1      1426 1.53698E+01
 -1      1427 1.70402E+01
 -1      1428 1.73508E+01
 -1      1429 1.79567E+01
 -1      1430 1.89069E+01
 -1      1431 1.93557E+01
 -1      1432 1.90377E+01
 -1      1433 1.91022E+01
 -1      1434 1.63682E+01
 -1      1435 1.65730E+01
 -1      1436 1.63161E+01
 -1      1437 1.58904E+01
 -1      1438 1.47776E+01
 -1      1439 1.62261E+01
 -1      1440 1.44304E+01
 -1      1441 1.18552E+01
 -1      1442 2.03853E+01
 -1      1443 2.18070E+01
 -1      1444 1.66618E+01
 -1      1445 1.47646E+01
 -1      1446 1.48097E+01
 -1      1447 1.70320E+01
 -1      1448 1.64286E+01
 -1      1449 1.68328E+01
 -1      1450 1.50374E+01
 -1      1451 1.81735E+01
 -1      1452 1.62141E+01
 -1      1453 1.72016E+01
 -1      1454 1.41206E+01
 -1      1455 1.47331E+01
 -1      1456 1.75823E+01
 -1      1457 1.83756E+01
 -1      1458 1.44610E+01
 -1      1459 1.88829E+01
 -1      1460 1.81512E+01
 -1      1461 1.84959E+01
 -1      1462 1.62137E+01
 -1      1463 1.37189E+01
 -1      1464 1.57245E+01
 -1      1465 1.60468E+01
 -1      1466 1.07088E+01
 -1      1467 2.07315E+01
 -1      1468 2.72726E+01
 -1      1469 2.01924E+01
 -1      1470 8.28180E+00
 -1      1471 2.06034E+01
 -1      1472 9.93793E+00
 -1      1473 2.55297E+01
 -1      1474 2.71890E+01
 -1      1475 1.02156E+01
 -1      1476 2.38049E+01
 -1      1477 2.58006E+01
 -1      1478 1.00426E+01
 -1      1479 8.30913E+00
 -1      1480 1.93298E+01
 -1      1481 1.11219E+01
 -1      1482 9.33365E+00
 -1      1483 1.87358E+01
 -1      1484 1.09196E+01
 -1      1485 2.42237E+01
 -1      1486 1.81072E+01
 -1      1487 1.02769E+01
 -1      1488 3.03723E+01
 -1      1489 1.29748E+01
 -1      1490 1.21615E+01
 -1      1491 1.46263E+01
 -1      1492 2.69232E+01
 -1      1493 1.06891E+01
 -1      1494 1.03538E+01
 -1      1495 2.69019E+01
 -1      1496 1.16562E+01
 -1      1497 1.93737E+01
 -1      1498 1.86413E+01
 -1      1499 1.89005E+01
 -1      1500 1.91956E+01
 -1      1501 8.78859E+00
 -1      1502 2.31796E+01
 -1      1503 2.39582E+01
 -1      1504 2.39582E+01
 -1      1505 9.08160E+00
 -1      1506 2.57831E+01
 -1      1507 2.32427E+01
 -1      1508 1.77773E+01
 -1      1509 2.58006E+01
 -1      1510 2.57620E+01
 -1      1511 2.57620E+01
 -1      1512 2.77602E+01
 -1      1513 9.91128E+00
 -1      1514 2.69599E+01
 -1      1515 2.69599E+01
 -1      1516 1.07793E+01
 -1      1517 2.71890E+01
 -1      1518 2.42237E+01
 -1      1519 1.28041E+01
 -1      1520 1.59525E+01
 -1      1521 2.01924E+01
 -1      1522 1.63474E+01
 -1      1523 1.05811E+01
 -1      1524 8.81334E+00
 -1      1525 2.63026E+01
 -1      1526 2.69019E+01
 -1      1527 1.88954E+01
 -1      1528 1.07062E+01
 -1      1529 1.10779E+01
 -1      1530 1.03212E+01
 -1      1531 9.81706E+00
 -1      1532 1.08650E+01
 -1      1533 2.38049E+01
 -1      1534 1.02379E+01
 -1      1535 2.57831E+01
 -1      1536 2.27317E+01
 -1      1537 2.77602E+01
 -1      1538 1.26874E+01
 -1      1539 1.26874E+01
 -1      1540 1.52780E+01
 -1      1541 1.93298E+01
 -1      1542 8.29504E+00
 -1      1543 1.96794E+01
 -1      1544 1.93737E+01
 -1      1545 2.69232E+01
 -1      1546 2.71890E+01
 -1      1547 1.04263E+01
 -1      1548 1.59525E+01
 -1      1549 2.42237E+01
 -1      1550 1.63474E+01
 -1      1551 2.33661E+01
 -1      1552 2.31796E+01
 -1      1553 2.01924E+01
 -1      1554 1.81159E+01
 -1      1555 1.78026E+01
 -1      1556 2.17000E+01
 -1      1557 2.60096E+01
 -1      1558 9.19072E+00
 -1      1559 2.58006E+01
 -1      1560 2.49659E+01
 -1      1561 1.53845E+01
 -1      1562 3.02231E+01
 -1      1563 2.27317E+01
 -1      1564 2.61101E+01
 -1      1565 1.07874E+01
 -1      1566 3.02231E+01
 -1      1567 2.96580E+01
 -1      1568 2.63797E+01
 -1      1569 1.03726E+01
 -1      1570 3.02977E+01
 -1      1571 2.38505E+01
 -1      1572 2.39470E+01
 -1      1573 1.06103E+01
 -1      1574 1.07888E+01
 -1      1575 8.99963E+00
 -1      1576 2.66892E+01
 -1      1577 1.89949E+01
 -1      1578 2.24278E+01
 -1      1579 2.48769E+01
 -1      1580 2.96580E+01
 -1      1581 2.12674E+01
 -1      1582 2.54468E+01
 -1      1583 3.03723E+01
 -1      1584 3.02977E+01
 -1      1585 1.48428E+01
 -1      1586 1.97084E+01
 -1      1587 2.46338E+01
 -1      1588 1.48414E+01
 -1      1589 1.22924E+01
 -1      1590 1.29316E+01
 -1      1591 1.96773E+01
 -1      1592 1.41364E+01
 -1      1593 1.77402E+01
 -1      1594 1.41796E+01
 -1      1595 2.25212E+01
 -1      1596 2.39470E+01
 -1      1597 2.40997E+01
 -1      1598 3.02231E+01
 -1      1599 2.24390E+01
 -1      1600 2.19190E+01
 -1      1601 2.85625E+01
 -1      1602 2.20625E+01
 -1      1603 2.20219E+01
 -1      1604 2.70454E+01
 -1      1605 2.20219E+01
 -1      1606 2.20543E+01
 -1      1607 2.71890E+01
 -1      1608 2.19214E+01
 -1      1609 2.17752E+01
 -1      1610 2.70561E+01
 -1      1611 2.17935E+01
 -1      1612 2.19255E+01
 -1      1613 2.69415E+01
 -1      1614 2.12104E+01
 -1      1615 2.11713E+01
 -1      1616 2.62448E+01
 -1      1617 2.13068E+01
 -1      1618 2.12752E+01
 -1      1619 2.56651E+01
 -1      1620 2.12752E+01
 -1      1621 2.10218E+01
 -1      1622 2.58006E+01
 -1      1623 2.10026E+01
 -1      1624 2.12256E+01
 -1      1625 2.57813E+01
 -1      1626 2.12362E+01
 -1      1627 2.12571E+01
 -1      1628 2.57726E+01
 -1      1629 2.04774E+01
 -1      1630 2.05004E+01
 -1      1631 2.50034E+01
 -1      1632 2.05004E+01
 -1      1633 2.02210E+01
 -1      1634 2.42237E+01
 -1      1635 2.00116E+01
 -1      1636 1.99646E+01
 -1      1637 2.40143E+01
 -1      1638 2.00412E+01
 -1      1639 2.00030E+01
 -1      1640 2.38816E+01
 -1      1641 1.96137E+01
 -1      1642 1.96836E+01
 -1      1643 2.35689E+01
 -1      1644 1.83955E+01
 -1      1645 1.82644E+01
 -1      1646 2.18915E+01
 -1      1647 1.80589E+01
 -1      1648 1.82384E+01
 -1      1649 2.03979E+01
 -1      1650 1.82384E+01
 -1      1651 1.74367E+01
 -1      1652 2.01924E+01
 -1      1653 1.66611E+01
 -1      1654 1.67639E+01
 -1      1655 1.94168E+01
 -1      1656 1.71301E+01
 -1      1657 1.67348E+01
 -1      1658 1.90075E+01
 -1      1659 1.50714E+01
 -1      1660 1.47929E+01
 -1      1661 1.77102E+01
 -1      1662 1.47457E+01
 -1      1663 1.43333E+01
 -1      1664 1.59996E+01
 -1      1665 1.36702E+01
 -1      1666 1.37152E+01
 -1      1667 1.52894E+01
 -1      1668 1.28041E+01
 -1      1669 1.09870E+01
 -1      1670 1.37152E+01
 -1      1671 9.93934E+00
 -1      1672 1.49522E+01
 -1      1673 1.17565E+01
 -1      1674 1.91956E+01
 -1      1675 1.91956E+01
 -1      1676 1.49522E+01
 -1      1677 1.77715E+01
 -1      1678 1.70629E+01
 -1      1679 1.77715E+01
 -1      1680 1.85541E+01
 -1      1681 1.96335E+01
 -1      1682 1.78386E+01
 -1      1683 2.38487E+01
 -1      1684 2.41865E+01
 -1      1685 2.35450E+01
 -1      1686 2.39427E+01
 -1      1687 2.39427E+01
 -1      1688 2.75164E+01
 -1      1689 2.16723E+01
 -1      1690 2.06038E+01
 -1      1691 2.50022E+01
 -1      1692 2.45557E+01
 -1      1693 7.77995E+00
 -1      1694 8.62725E+00
 -1      1695 1.04150E+01
 -1      1696 1.03538E+01
 -1      1697 7.93555E+00
 -1      1698 1.01982E+01
 -1      1699 8.18920E+00
 -1      1700 1.05215E+01
 -1      1701 1.05215E+01
 -1      1702 8.26437E+00
 -1      1703 8.23426E+00
 -1      1704 1.07342E+01
 -1      1705 7.80069E+00
 -1      1706 7.84371E+00
 -1      1707 1.03586E+01
 -1      1708 9.54466E+00
 -1      1709 7.74026E+00
 -1      1710 9.87749E+00
 -1      1711 1.03212E+01
 -1      1712 9.79671E+00
 -1      1713 1.00691E+01
 -1      1714 1.18633E+01
 -1      1715 1.42142E+01
 -1      1716 1.42142E+01
 -1      1717 8.26508E+00
 -1      1718 8.24217E+00
 -1      1719 1.44861E+01
 -1      1720 9.19072E+00
 -1      1721 7.42795E+00
 -1      1722 1.00279E+01
 -1      1723 1.02156E+01
 -1      1724 9.70318E+00
 -1      1725 9.70318E+00
 -1      1726 1.17841E+01
 -1      1727 1.39965E+01
 -1      1728 1.39965E+01
 -1      1729 8.04611E+00
 -1      1730 8.03388E+00
 -1      1731 1.40271E+01
 -1      1732 1.18081E+01
 -1      1733 1.18090E+01
 -1      1734 1.40398E+01
 -1      1735 8.07857E+00
 -1      1736 8.02568E+00
 -1      1737 1.40203E+01
 -1      1738 9.13624E+00
 -1      1739 7.62644E+00
 -1      1740 9.78578E+00
 -1      1741 9.91128E+00
 -1      1742 9.42505E+00
 -1      1743 9.62246E+00
 -1      1744 8.48772E+00
 -1      1745 1.04154E+01
 -1      1746 1.04154E+01
 -1      1747 8.35880E+00
 -1      1748 8.38100E+00
 -1      1749 1.08129E+01
 -1      1750 8.63245E+00
 -1      1751 8.54469E+00
 -1      1752 1.08921E+01
 -1      1753 8.24278E+00
 -1      1754 7.24804E+00
 -1      1755 9.69354E+00
 -1      1756 8.80096E+00
 -1      1757 8.49489E+00
 -1      1758 8.56123E+00
 -1      1759 8.03097E+00
 -1      1760 8.78859E+00
 -1      1761 8.80096E+00
 -1      1762 8.01760E+00
 -1      1763 7.77758E+00
 -1      1764 8.53519E+00
 -1      1765 1.02728E+01
 -1      1766 9.16723E+00
 -1      1767 9.43143E+00
 -1      1768 1.77021E+01
 -1      1769 1.10630E+01
 -1      1770 1.13713E+01
 -1      1771 2.32427E+01
 -1      1772 2.32427E+01
 -1      1773 1.77021E+01
 -1      1774 1.65637E+01
 -1      1775 2.19871E+01
 -1      1776 2.19871E+01
 -1      1777 8.61656E+00
 -1      1778 1.07387E+01
 -1      1779 1.49066E+01
 -1      1780 1.30784E+01
 -1      1781 1.34437E+01
 -1      1782 1.39087E+01
 -1      1783 1.03815E+01
 -1      1784 9.53865E+00
 -1      1785 1.51960E+01
 -1      1786 1.19994E+01
 -1      1787 1.01144E+01
 -1      1788 1.13891E+01
 -1      1789 2.03899E+01
 -1      1790 1.93737E+01
 -1      1791 1.77102E+01
 -1      1792 1.59996E+01
 -1      1793 1.59525E+01
 -1      1794 1.76631E+01
 -1      1795 1.05676E+01
 -1      1796 1.48110E+01
 -1      1797 1.27457E+01
 -1      1798 1.16981E+01
 -1      1799 1.15569E+01
 -1      1800 1.27145E+01
 -1      1801 1.85395E+01
 -1      1802 1.45133E+01
 -1      1803 1.57689E+01
 -1      1804 1.23212E+01
 -1      1805 2.77602E+01
 -1      1806 2.75164E+01
 -1      1807 2.50022E+01
 -1      1808 2.52460E+01
 -1      1809 2.27317E+01
 -1      1810 1.95464E+01
 -1      1811 1.87709E+01
 -1      1812 2.01924E+01
 -1      1813 1.95464E+01
 -1      1814 2.01924E+01
 -1      1815 1.17799E+01
 -1      1816 1.20333E+01
 -1      1817 1.16342E+01
 -1      1818 1.04846E+01
 -1      1819 1.39827E+01
 -1      1820 2.31796E+01
 -1      1821 2.18915E+01
 -1      1822 2.01414E+01
 -1      1823 1.99359E+01
 -1      1824 2.14295E+01
 -1      1825 1.84306E+01
 -1      1826 1.88512E+01
 -1      1827 1.79133E+01
 -1      1828 1.79738E+01
 -1      1829 2.64664E+01
 -1      1830 2.52478E+01
 -1      1831 2.53833E+01
 -1      1832 2.69599E+01
 -1      1833 2.62448E+01
 -1      1834 2.59629E+01
 -1      1835 2.71890E+01
 -1      1836 2.71890E+01
 -1      1837 2.67458E+01
 -1      1838 2.66022E+01
 -1      1839 2.67458E+01
 -1      1840 2.05717E+01
 -1      1841 1.67909E+01
 -1      1842 1.79994E+01
 -1      1843 2.45746E+01
 -1      1844 1.74869E+01
 -1      1845 2.38816E+01
 -1      1846 2.39582E+01
 -1      1847 2.38049E+01
 -1      1848 2.38816E+01
 -1      1849 2.40143E+01
 -1      1850 2.58006E+01
 -1      1851 2.58006E+01
 -1      1852 2.57813E+01
 -1      1853 2.57620E+01
 -1      1854 2.57813E+01
 -1      1855 1.86279E+01
 -1      1856 1.84723E+01
 -1      1857 2.65060E+01
 -1      1858 1.80763E+01
 -1      1859 1.44690E+01
 -1      1860 2.25027E+01
 -1      1861 1.40935E+01
 -1      1862 1.38414E+01
 -1      1863 1.32125E+01
 -1      1864 1.45969E+01
 -1      1865 1.87448E+01
 -1      1866 1.93298E+01
 -1      1867 2.35450E+01
 -1      1868 1.63474E+01
 -1      1869 1.78386E+01
 -1      1870 1.78386E+01
 -1      1871 1.69268E+01
 -1      1872 1.71940E+01
 -1      1873 1.07472E+01
 -1      1874 1.65521E+01
 -1      1875 1.32532E+01
 -1      1876 1.28785E+01
 -1      1877 1.65455E+01
 -1      1878 1.62566E+01
 -1      1879 1.55168E+01
 -1      1880 1.59690E+01
 -1      1881 2.24398E+01
 -1      1882 1.97082E+01
 -1      1883 2.32480E+01
 -1      1884 1.90328E+01
 -1      1885 1.42057E+01
 -1      1886 2.35450E+01
 -1      1887 1.52995E+01
 -1      1888 1.47954E+01
 -1      1889 1.54493E+01
 -1      1890 1.55560E+01
 -1      1891 1.99359E+01
 -1      1892 2.45746E+01
 -1      1893 2.37949E+01
 -1      1894 2.42237E+01
 -1      1895 2.42237E+01
 -1      1896 2.37949E+01
 -1      1897 2.15366E+01
 -1      1898 1.76435E+01
 -1      1899 1.83328E+01
 -1      1900 2.19539E+01
 -1      1901 2.53833E+01
 -1      1902 1.72503E+01
 -1      1903 2.10005E+01
 -1      1904 1.70409E+01
 -1      1905 2.40143E+01
 -1      1906 2.08038E+01
 -1      1907 2.82412E+01
 -1      1908 3.02977E+01
 -1      1909 2.81666E+01
 -1      1910 1.16737E+01
 -1      1911 1.78533E+01
 -1      1912 1.65521E+01
 -1      1913 1.68345E+01
 -1      1914 1.12939E+01
 -1      1915 1.24244E+01
 -1      1916 1.16342E+01
 -1      1917 1.36568E+01
 -1      1918 1.27457E+01
 -1      1919 1.56152E+01
 -1      1920 1.49522E+01
 -1      1921 2.64664E+01
 -1      1922 2.64847E+01
 -1      1923 2.70561E+01
 -1      1924 2.69232E+01
 -1      1925 1.84959E+01
 -1      1926 1.83282E+01
 -1      1927 1.89841E+01
 -1      1928 1.89390E+01
 -1      1929 2.66022E+01
 -1      1930 2.69019E+01
 -1      1931 2.85625E+01
 -1      1932 1.83786E+01
 -1      1933 1.87448E+01
 -1      1934 1.85082E+01
 -1      1935 1.48033E+01
 -1      1936 1.49892E+01
 -1      1937 1.37453E+01
 -1      1938 1.23212E+01
 -1      1939 9.36069E+00
 -1      1940 1.23705E+01
 -1      1941 1.23829E+01
 -1      1942 1.56152E+01
 -1      1943 2.28291E+01
 -1      1944 2.24398E+01
 -1      1945 2.28291E+01
 -1      1946 2.08804E+01
 -1      1947 1.70980E+01
 -1      1948 2.57726E+01
 -1      1949 2.57831E+01
 -1      1950 2.57726E+01
 -1      1951 1.83135E+01
 -1      1952 1.74764E+01
 -1      1953 2.64847E+01
 -1      1954 1.86405E+01
 -1      1955 1.83885E+01
 -1      1956 2.70561E+01
 -1      1957 1.26874E+01
 -1      1958 1.03818E+01
 -1      1959 1.02834E+01
 -1      1960 1.64651E+01
 -1      1961 1.28790E+01
 -1      1962 1.31492E+01
 -1      1963 1.45624E+01
 -1      1964 9.90392E+00
 -1      1965 2.66058E+01
 -1      1966 1.03504E+01
 -1      1967 1.04030E+01
 -1      1968 2.57614E+01
 -1      1969 2.39377E+01
 -1      1970 2.57885E+01
 -1      1971 2.88004E+01
 -1      1972 1.78761E+01
 -1      1973 1.04190E+01
 -1      1974 1.80836E+01
 -1      1975 2.32500E+01
 -1      1976 2.96842E+01
 -1      1977 2.00116E+01
 -1      1978 1.77317E+01
 -1      1979 1.06376E+01
 -1      1980 9.20188E+00
 -1      1981 2.55363E+01
 -1      1982 1.16825E+01
 -1      1983 1.07080E+01
 -1      1984 8.41360E+00
 -1      1985 2.55296E+01
 -1      1986 9.89508E+00
 -1      1987 2.70872E+01
 -1      1988 2.70690E+01
 -1      1989 2.71540E+01
 -1      1990 2.96842E+01
 -1      1991 1.03818E+01
 -1      1992 1.31135E+01
 -1      1993 1.91072E+01
 -1      1994 2.38071E+01
 -1      1995 8.95569E+00
 -1      1996 1.61376E+01
 -1      1997 1.92011E+01
 -1      1998 1.92599E+01
 -1      1999 1.02390E+01
 -1      2000 2.41968E+01
 -1      2001 2.41968E+01
 -1      2002 2.39377E+01
 -1      2003 1.80714E+01
 -1      2004 1.04147E+01
 -1      2005 1.34038E+01
 -1      2006 2.38844E+01
 -1      2007 2.57885E+01
 -1      2008 2.07249E+01
 -1      2009 1.01713E+01
 -1      2010 2.69047E+01
 -1      2011 1.47144E+01
 -1      2012 2.68848E+01
 -1      2013 1.16508E+01
 -1      2014 2.57196E+01
 -1      2015 9.29183E+00
 -1      2016 9.90392E+00
 -1      2017 1.27546E+01
 -1      2018 1.27995E+01
 -1      2019 1.61376E+01
 -1      2020 2.71892E+01
 -1      2021 1.04030E+01
 -1      2022 3.02889E+01
 -1      2023 1.99895E+01
 -1      2024 1.91072E+01
 -1      2025 2.38844E+01
 -1      2026 1.02564E+01
 -1      2027 1.77581E+01
 -1      2028 2.96842E+01
 -1      2029 1.27016E+01
 -1      2030 1.27016E+01
 -1      2031 1.53810E+01
 -1      2032 2.79623E+01
 -1      2033 8.21063E+00
 -1      2034 2.00116E+01
 -1      2035 1.78761E+01
 -1      2036 2.15828E+01
 -1      2037 2.68848E+01
 -1      2038 2.59267E+01
 -1      2039 2.68745E+01
 -1      2040 2.69047E+01
 -1      2041 1.06846E+01
 -1      2042 2.49676E+01
 -1      2043 1.61376E+01
 -1      2044 2.57614E+01
 -1      2045 2.57196E+01
 -1      2046 2.57885E+01
 -1      2047 1.64651E+01
 -1      2048 2.32325E+01
 -1      2049 2.32500E+01
 -1      2050 2.06078E+01
 -1      2051 1.81645E+01
 -1      2052 9.86646E+00
 -1      2053 2.41968E+01
 -1      2054 1.20290E+01
 -1      2055 1.01178E+01
 -1      2056 1.25282E+01
 -1      2057 2.61501E+01
 -1      2058 3.02889E+01
 -1      2059 1.01126E+01
 -1      2060 2.61360E+01
 -1      2061 3.04934E+01
 -1      2062 1.55234E+01
 -1      2063 1.01126E+01
 -1      2064 1.10935E+01
 -1      2065 8.66000E+00
 -1      2066 3.02889E+01
 -1      2067 2.37189E+01
 -1      2068 2.39822E+01
 -1      2069 2.52723E+01
 -1      2070 3.04934E+01
 -1      2071 2.16552E+01
 -1      2072 2.69192E+01
 -1      2073 1.89150E+01
 -1      2074 2.21098E+01
 -1      2075 1.88053E+01
 -1      2076 2.30720E+01
 -1      2077 1.78245E+01
 -1      2078 2.54483E+01
 -1      2079 3.02889E+01
 -1      2080 2.79126E+01
 -1      2081 3.02889E+01
 -1      2082 1.10439E+01
 -1      2083 1.58668E+01
 -1      2084 2.10880E+01
 -1      2085 1.18615E+01
 -1      2086 1.12172E+01
 -1      2087 1.18557E+01
 -1      2088 1.90825E+01
 -1      2089 7.78050E+00
 -1      2090 8.66258E+00
 -1      2091 1.01152E+01
 -1      2092 1.04030E+01
 -1      2093 7.92308E+00
 -1      2094 1.02604E+01
 -1      2095 1.02070E+01
 -1      2096 1.04030E+01
 -1      2097 1.04030E+01
 -1      2098 1.02176E+01
 -1      2099 1.23627E+01
 -1      2100 1.25587E+01
 -1      2101 9.89508E+00
 -1      2102 7.80801E+00
 -1      2103 1.23047E+01
 -1      2104 7.96042E+00
 -1      2105 1.00332E+01
 -1      2106 1.00332E+01
 -1      2107 1.03504E+01
 -1      2108 8.05001E+00
 -1      2109 1.02608E+01
 -1      2110 1.19341E+01
 -1      2111 1.42109E+01
 -1      2112 1.42109E+01
 -1      2113 8.10769E+00
 -1      2114 8.10578E+00
 -1      2115 1.42431E+01
 -1      2116 9.20188E+00
 -1      2117 7.50127E+00
 -1      2118 9.80830E+00
 -1      2119 1.02390E+01
 -1      2120 9.72043E+00
 -1      2121 9.72043E+00
 -1      2122 1.17466E+01
 -1      2123 1.39854E+01
 -1      2124 1.39854E+01
 -1      2125 1.00614E+01
 -1      2126 8.00894E+00
 -1      2127 1.39941E+01
 -1      2128 9.30153E+00
 -1      2129 9.86646E+00
 -1      2130 1.00614E+01
 -1      2131 8.26923E+00
 -1      2132 9.68711E+00
 -1      2133 1.02520E+01
 -1      2134 8.95569E+00
 -1      2135 7.42827E+00
 -1      2136 9.79665E+00
 -1      2137 9.90392E+00
 -1      2138 9.42981E+00
 -1      2139 9.42981E+00
 -1      2140 9.41929E+00
 -1      2141 9.90392E+00
 -1      2142 9.90392E+00
 -1      2143 9.60025E+00
 -1      2144 1.10419E+01
 -1      2145 1.15266E+01
 -1      2146 1.12566E+01
 -1      2147 9.58241E+00
 -1      2148 1.31314E+01
 -1      2149 1.03818E+01
 -1      2150 9.89072E+00
 -1      2151 1.17477E+01
 -1      2152 9.83684E+00
 -1      2153 1.03818E+01
 -1      2154 1.03818E+01
 -1      2155 7.86497E+00
 -1      2156 9.29183E+00
 -1      2157 9.83684E+00
 -1      2158 8.03544E+00
 -1      2159 7.42585E+00
 -1      2160 8.85272E+00
 -1      2161 1.07985E+01
 -1      2162 9.65406E+00
 -1      2163 1.00322E+01
 -1      2164 1.70453E+01
 -1      2165 1.01148E+01
 -1      2166 1.09671E+01
 -1      2167 2.38071E+01
 -1      2168 2.38071E+01
 -1      2169 1.70453E+01
 -1      2170 1.27546E+01
 -1      2171 1.82809E+01
 -1      2172 1.82809E+01
 -1      2173 1.08492E+01
 -1      2174 1.15868E+01
 -1      2175 1.15868E+01
 -1      2176 1.03314E+01
 -1      2177 1.23416E+01
 -1      2178 1.19114E+01
 -1      2179 1.09575E+01
 -1      2180 1.00690E+01
 -1      2181 1.31414E+01
 -1      2182 1.26726E+01
 -1      2183 1.07821E+01
 -1      2184 1.27036E+01
 -1      2185 2.15108E+01
 -1      2186 2.32380E+01
 -1      2187 2.34339E+01
 -1      2188 2.95447E+01
 -1      2189 2.25682E+01
 -1      2190 2.20951E+01
 -1      2191 2.79347E+01
 -1      2192 2.21042E+01
 -1      2193 2.19753E+01
 -1      2194 2.70781E+01
 -1      2195 2.18841E+01
 -1      2196 2.18736E+01
 -1      2197 2.69960E+01
 -1      2198 2.17241E+01
 -1      2199 2.16339E+01
 -1      2200 2.67553E+01
 -1      2201 2.17734E+01
 -1      2202 2.19388E+01
 -1      2203 2.67453E+01
 -1      2204 2.12612E+01
 -1      2205 2.12241E+01
 -1      2206 2.62072E+01
 -1      2207 2.13535E+01
 -1      2208 2.13167E+01
 -1      2209 2.56590E+01
 -1      2210 2.13167E+01
 -1      2211 2.10544E+01
 -1      2212 2.57885E+01
 -1      2213 2.10199E+01
 -1      2214 2.12995E+01
 -1      2215 2.57541E+01
 -1      2216 2.13204E+01
 -1      2217 2.11151E+01
 -1      2218 2.57405E+01
 -1      2219 2.03328E+01
 -1      2220 2.04680E+01
 -1      2221 2.49791E+01
 -1      2222 2.04680E+01
 -1      2223 2.01940E+01
 -1      2224 2.41968E+01
 -1      2225 2.00645E+01
 -1      2226 2.00060E+01
 -1      2227 2.40672E+01
 -1      2228 1.99793E+01
 -1      2229 1.99392E+01
 -1      2230 2.39110E+01
 -1      2231 1.96221E+01
 -1      2232 1.94553E+01
 -1      2233 2.35672E+01
 -1      2234 1.81927E+01
 -1      2235 1.83328E+01
 -1      2236 2.19874E+01
 -1      2237 1.79761E+01
 -1      2238 1.78434E+01
 -1      2239 2.03682E+01
 -1      2240 1.78324E+01
 -1      2241 1.73824E+01
 -1      2242 2.00006E+01
 -1      2243 1.69412E+01
 -1      2244 1.70249E+01
 -1      2245 1.95484E+01
 -1      2246 1.64093E+01
 -1      2247 1.61972E+01
 -1      2248 1.84917E+01
 -1      2249 1.53279E+01
 -1      2250 1.49563E+01
 -1      2251 1.70069E+01
 -1      2252 1.49563E+01
 -1      2253 1.44711E+01
 -1      2254 1.61376E+01
 -1      2255 1.36835E+01
 -1      2256 1.36809E+01
 -1      2257 1.53500E+01
 -1      2258 1.27995E+01
 -1      2259 1.09806E+01
 -1      2260 1.36809E+01
 -1      2261 9.93485E+00
 -1      2262 1.49839E+01
 -1      2263 1.17537E+01
 -1      2264 1.92599E+01
 -1      2265 1.92599E+01
 -1      2266 1.49839E+01
 -1      2267 1.78625E+01
 -1      2268 1.70916E+01
 -1      2269 1.78625E+01
 -1      2270 1.84597E+01
 -1      2271 1.94859E+01
 -1      2272 1.78331E+01
 -1      2273 2.47274E+01
 -1      2274 2.53823E+01
 -1      2275 2.44426E+01
 -1      2276 2.53823E+01
 -1      2277 2.46452E+01
 -1      2278 2.96842E+01
 -1      2279 1.88450E+01
 -1      2280 1.80836E+01
 -1      2281 2.38839E+01
 -1      2282 2.21098E+01
 -1      2283 1.41290E+01
 -1      2284 1.41290E+01
 -1      2285 1.27147E+01
 -1      2286 1.32597E+01
 -1      2287 1.70069E+01
 -1      2288 1.72459E+01
 -1      2289 1.04840E+01
 -1      2290 1.14925E+01
 -1      2291 1.21762E+01
 -1      2292 1.16931E+01
 -1      2293 1.64651E+01
 -1      2294 1.78331E+01
 -1      2295 1.37353E+01
 -1      2296 1.23379E+01
 -1      2297 1.23379E+01
 -1      2298 2.12816E+01
 -1      2299 2.15440E+01
 -1      2300 2.37211E+01
 -1      2301 1.53185E+01
 -1      2302 1.51431E+01
 -1      2303 1.61104E+01
 -1      2304 1.61282E+01
 -1      2305 1.98575E+01
 -1      2306 1.68785E+01
 -1      2307 1.52559E+01
 -1      2308 1.57593E+01
 -1      2309 1.49717E+01
 -1      2310 1.36320E+01
 -1      2311 1.27505E+01
 -1      2312 1.40413E+01
 -1      2313 1.65770E+01
 -1      2314 1.61028E+01
 -1      2315 1.49578E+01
 -1      2316 1.49578E+01
 -1      2317 2.16308E+01
 -1      2318 2.68896E+01
 -1      2319 2.67402E+01
 -1      2320 2.62663E+01
 -1      2321 2.64057E+01
 -1      2322 2.64006E+01
 -1      2323 2.15195E+01
 -1      2324 1.76590E+01
 -1      2325 1.86176E+01
 -1      2326 1.85280E+01
 -1      2327 2.59262E+01
 -1      2328 2.08095E+01
 -1      2329 1.86538E+01
 -1      2330 1.87961E+01
 -1      2331 1.87961E+01
 -1      2332 2.70469E+01
 -1      2333 2.44970E+01
 -1      2334 2.37146E+01
 -1      2335 2.57405E+01
 -1      2336 2.57614E+01
 -1      2337 2.44970E+01
 -1      2338 2.40672E+01
 -1      2339 2.39377E+01
 -1      2340 2.39110E+01
 -1      2341 2.39110E+01
 -1      2342 2.38844E+01
 -1      2343 2.57885E+01
 -1      2344 2.57885E+01
 -1      2345 2.57541E+01
 -1      2346 2.57196E+01
 -1      2347 2.57541E+01
 -1      2348 2.79772E+01
 -1      2349 2.71115E+01
 -1      2350 2.74753E+01
 -1      2351 2.66521E+01
 -1      2352 2.82195E+01
 -1      2353 2.95447E+01
 -1      2354 1.78761E+01
 -1      2355 1.70069E+01
 -1      2356 1.86359E+01
 -1      2357 1.80203E+01
 -1      2358 1.80203E+01
 -1      2359 2.06830E+01
 -1      2360 1.91907E+01
 -1      2361 1.34421E+01
 -1      2362 1.46098E+01
 -1      2363 2.22137E+01
 -1      2364 2.37211E+01
 -1      2365 1.79208E+01
 -1      2366 1.66408E+01
 -1      2367 1.68035E+01
 -1      2368 1.50563E+01
 -1      2369 1.37762E+01
 -1      2370 2.27336E+01
 -1      2371 2.24164E+01
 -1      2372 2.32500E+01
 -1      2373 2.19874E+01
 -1      2374 2.24164E+01
 -1      2375 2.96842E+01
 -1      2376 2.96842E+01
 -1      2377 2.35817E+01
 -1      2378 2.88232E+01
 -1      2379 2.88232E+01
 -1      2380 2.03682E+01
 -1      2381 2.00116E+01
 -1      2382 2.03097E+01
 -1      2383 2.02987E+01
 -1      2384 2.03097E+01
 -1      2385 2.04821E+01
 -1      2386 1.67357E+01
 -1      2387 1.72266E+01
 -1      2388 2.09643E+01
 -1      2389 2.37146E+01
 -1      2390 1.52693E+01
 -1      2391 1.61102E+01
 -1      2392 2.27336E+01
 -1      2393 1.72610E+01
 -1      2394 1.68754E+01
 -1      2395 1.80002E+01
 -1      2396 1.74817E+01
 -1      2397 1.74608E+01
 -1      2398 1.80672E+01
 -1      2399 2.57405E+01
 -1      2400 2.58432E+01
 -1      2401 1.81340E+01
 -1      2402 1.78270E+01
 -1      2403 1.36030E+01
 -1      2404 1.21053E+01
 -1      2405 1.40258E+01
 -1      2406 1.06963E+01
 -1      2407 1.49723E+01
 -1      2408 1.27505E+01
 -1      2409 1.17048E+01
 -1      2410 1.21762E+01
 -1      2411 1.05576E+01
 -1      2412 1.18973E+01
 -1      2413 1.23364E+01
 -1      2414 2.52486E+01
 -1      2415 2.53781E+01
 -1      2416 2.68848E+01
 -1      2417 2.62072E+01
 -1      2418 1.80490E+01
 -1      2419 1.79109E+01
 -1      2420 1.83848E+01
 -1      2421 2.07944E+01
 -1      2422 2.71291E+01
 -1      2423 2.71382E+01
 -1      2424 2.69960E+01
 -1      2425 2.69047E+01
 -1      2426 2.71716E+01
 -1      2427 1.87785E+01
 -1      2428 1.86359E+01
 -1      2429 1.42732E+01
 -1      2430 1.56390E+01
 -1      2431 1.86359E+01
 -1      2432 1.91072E+01
 -1      2433 1.95484E+01
 -1      2434 1.04826E+01
 -1      2435 1.60089E+01
 -1      2436 9.44763E+00
 -1      2437 1.61376E+01
 -1      2438 1.61376E+01
 -1      2439 1.57593E+01
 -1      2440 2.41968E+01
 -1      2441 2.41968E+01
 -1      2442 2.40672E+01
 -1      2443 1.69021E+01
 -1      2444 1.70970E+01
 -1      2445 1.81016E+01
 -1      2446 2.19300E+01
 -1      2447 2.53781E+01
 -1      2448 2.64057E+01
 -1      2449 2.68896E+01
 -1      2450 1.27016E+01
 -1      2451 3.53247E+01
 -1      2452 2.13034E+01
 -1      2453 2.96459E+01
 -1      2454 2.71892E+01
 -1      2455 2.69337E+01
 -1      2456 1.71219E+01
 -1      2457 1.35367E+01
 -1      2458 1.55577E+01
 -1      2459 1.93737E+01
 -1      2460 2.06078E+01
 -1      2461 2.56264E+01
 -1      2462 2.69599E+01
 -1      2463 2.35724E+01
 -1      2464 2.62992E+01
 -1      2465 2.49988E+01
 -1      2466 1.96138E+01
 -1      2467 1.63186E+01
 -1      2468 2.70062E+01
 -1      2469 1.90049E+01
 -1      2470 4.23724E+01
 -1      2471 1.66147E+01
 -1      2472 2.65291E+01
 -1      2473 2.69337E+01
 -1      2474 2.55297E+01
 -1      2475 1.35600E+01
 -1      2476 1.31586E+01
 -1      2477 1.78761E+01
 -1      2478 1.52411E+01
 -1      2479 1.46263E+01
 -1      2480 1.60628E+01
 -1      2481 2.55296E+01
 -1      2482 2.06034E+01
 -1      2483 2.49988E+01
 -1      2484 2.56264E+01
 -1      2485 2.07249E+01
 -1      2486 2.57614E+01
 -1      2487 2.69337E+01
 -1      2488 2.49988E+01
 -1      2489 2.57831E+01
 -1      2490 2.56264E+01
 -1      2491 2.71706E+01
 -1      2492 1.53845E+01
 -1      2493 1.90984E+01
 -1      2494 2.70062E+01
 -1      2495 2.69019E+01
 -1      2496 2.96459E+01
 -1      2497 3.07869E+01
 -1      2498 1.63186E+01
 -1      2499 2.66309E+01
 -1      2500 1.85846E+01
 -1      2501 1.92147E+01
 -1      2502 1.92147E+01
 -1      2503 2.71892E+01
 -1      2504 2.96459E+01
 -1      2505 2.96459E+01
 -1      2506 1.93737E+01
 -1      2507 2.01924E+01
 -1      2508 2.01281E+01
 -1      2509 2.90578E+01
 -1      2510 1.53412E+01
 -1      2511 1.63186E+01
 -1      2512 2.70062E+01
 -1      2513 2.71890E+01
 -1      2514 2.56264E+01
 -1      2515 1.51462E+01
 -1      2516 1.70872E+01
 -1      2517 1.71219E+01
 -1      2518 1.52411E+01
 -1      2519 1.42636E+01
 -1      2520 1.60628E+01
 -1      2521 2.42678E+01
 -1      2522 2.01611E+01
 -1      2523 2.69173E+01
 -1      2524 2.32757E+01
 -1      2525 2.42703E+01
 -1      2526 2.01577E+01
 -1      2527 2.55762E+01
 -1      2528 2.69337E+01
 -1      2529 2.32332E+01
 -1      2530 2.46857E+01
 -1      2531 2.49988E+01
 -1      2532 2.06078E+01
 -1      2533 2.68848E+01
 -1      2534 2.71892E+01
 -1      2535 2.55124E+01
 -1      2536 2.50787E+01
 -1      2537 1.80568E+01
 -1      2538 2.06078E+01
 -1      2539 2.90578E+01
 -1      2540 1.95092E+01
 -1      2541 1.91072E+01
 -1      2542 2.58527E+01
 -1      2543 2.54635E+01
 -1      2544 2.96842E+01
 -1      2545 2.56696E+01
 -1      2546 1.27016E+01
 -1      2547 1.60396E+01
 -1      2548 1.26874E+01
 -1      2549 1.74028E+01
 -1      2550 2.41960E+01
 -1      2551 2.57831E+01
 -1      2552 2.57614E+01
 -1      2553 2.56662E+01
 -1      2554 2.39377E+01
 -1      2555 2.39582E+01
 -1      2556 2.06927E+01
 -1      2557 2.07654E+01
 -1      2558 2.81146E+01
 -1      2559 1.52695E+01
 -1      2560 1.59525E+01
 -1      2561 1.61376E+01
 -1      2562 2.32091E+01
 -1      2563 2.14007E+01
 -1      2564 2.14007E+01
 -1      2565 1.78026E+01
 -1      2566 2.17145E+01
 -1      2567 2.17145E+01
 -1      2568 2.53126E+01
 -1      2569 2.14007E+01
 -1      2570 2.14007E+01
 -1      2571 2.49988E+01
 -1      2572 1.64614E+01
 -1      2573 1.79664E+01
 -1      2574 1.52663E+01
 -1      2575 1.67713E+01
 -1      2576 1.78098E+01
 -1      2577 2.08683E+01
 -1      2578 1.46887E+01
 -1      2579 1.28785E+01
 -1      2580 1.71947E+01
 -1      2581 1.90581E+01
 -1      2582 3.42412E+01
 -1      2583 3.88485E+01
 -1      2584 3.07174E+01
 -1      2585 2.63196E+01
 -1      2586 3.09269E+01
 -1      2587 3.44508E+01
 -1      2588 2.75829E+01
 -1      2589 3.11068E+01
 -1      2590 2.35059E+01
 -1      2591 3.47715E+01
 -1      2592 3.12476E+01
 -1      2593 2.32427E+01
 -1      2594 1.84013E+01
 -1      2595 1.84013E+01
 -1      2596 1.97807E+01
 -1      2597 1.49393E+01
 -1      2598 1.97807E+01
 -1      2599 1.53410E+01
 -1      2600 2.01823E+01
 -1      2601 1.67203E+01
 -1      2602 2.01823E+01
 -1      2603 2.79294E+01
 -1      2604 2.38524E+01
 -1      2605 3.11133E+01
 -1      2606 2.67155E+01
 -1      2607 1.60872E+01
 -1      2608 1.89171E+01
 -1      2609 1.59059E+01
 -1      2610 2.13610E+01
 -1      2611 2.41908E+01
 -1      2612 2.43722E+01
 -1      2613 2.43722E+01
 -1      2614 2.41908E+01
 -1      2615 2.96459E+01
 -1      2616 2.14930E+01
 -1      2617 2.56138E+01
 -1      2618 2.28391E+01
 -1      2619 2.20909E+01
 -1      2620 2.62117E+01
 -1      2621 2.48657E+01
 -1      2622 2.55763E+01
 -1      2623 2.69223E+01
 -1      2624 2.61741E+01
 -1      2625 1.72195E+01
 -1      2626 1.78174E+01
 -1      2627 1.72195E+01
 -1      2628 1.78174E+01
 -1      2629 3.14533E+01
 -1      2630 3.46372E+01
 -1      2631 1.71046E+01
 -1      2632 1.71046E+01
 -1      2633 1.27085E+01
 -1      2634 1.37741E+01
 -1      2635 2.87030E+01
 -1      2636 2.87030E+01
 -1      2637 2.44878E+01
 -1      2638 2.25204E+01
 -1      2639 2.63671E+01
 -1      2640 2.25204E+01
 -1      2641 2.63671E+01
 -1      2642 2.69337E+01
 -1      2643 2.50354E+01
 -1      2644 2.11887E+01
 -1      2645 2.56020E+01
 -1      2646 2.69599E+01
 -1      2647 2.69599E+01
 -1      2648 2.62448E+01
 -1      2649 2.62448E+01
 -1      2650 2.62448E+01
 -1      2651 2.63671E+01
 -1      2652 2.59498E+01
 -1      2653 2.56651E+01
 -1      2654 2.52478E+01
 -1      2655 2.62317E+01
 -1      2656 2.44785E+01
 -1      2657 2.44019E+01
 -1      2658 2.56020E+01
 -1      2659 2.56264E+01
 -1      2660 2.17019E+01
 -1      2661 2.17019E+01
 -1      2662 2.44298E+01
 -1      2663 2.05053E+01
 -1      2664 2.44298E+01
 -1      2665 2.59498E+01
 -1      2666 2.63671E+01
 -1      2667 2.69337E+01
 -1      2668 2.49251E+01
 -1      2669 2.37285E+01
 -1      2670 2.04001E+01
 -1      2671 2.01436E+01
 -1      2672 2.03979E+01
 -1      2673 2.01414E+01
 -1      2674 2.06056E+01
 -1      2675 2.31619E+01
 -1      2676 2.24468E+01
 -1      2677 2.21240E+01
 -1      2678 2.49251E+01
 -1      2679 2.62317E+01
 -1      2680 2.32424E+01
 -1      2681 2.30471E+01
 -1      2682 2.25403E+01
 -1      2683 2.23450E+01
 -1      2684 2.62316E+01
 -1      2685 2.63611E+01
 -1      2686 2.59507E+01
 -1      2687 2.56590E+01
 -1      2688 2.52486E+01
 -1      2689 2.27935E+01
 -1      2690 2.29054E+01
 -1      2691 2.29054E+01
 -1      2692 2.27935E+01
 -1      2693 1.20589E+01
 -1      2694 1.31120E+01
 -1      2695 1.31237E+01
 -1      2696 1.35483E+01
 -1      2697 1.20705E+01
 -1      2698 1.25938E+01
 -1      2699 1.31191E+01
 -1      2700 1.24047E+01
 -1      2701 1.29301E+01
 -1      2702 1.33476E+01
 -1      2703 1.53236E+01
 -1      2704 1.35367E+01
 -1      2705 1.35367E+01
 -1      2706 1.35483E+01
 -1      2707 1.35483E+01
 -1      2708 1.19932E+01
 -1      2709 1.35046E+01
 -1      2710 1.35046E+01
 -1      2711 1.33156E+01
 -1      2712 1.33156E+01
 -1      2713 1.82157E+01
 -1      2714 1.82157E+01
 -1      2715 1.65602E+01
 -1      2716 1.77182E+01
 -1      2717 1.65602E+01
 -1      2718 1.93737E+01
 -1      2719 1.93737E+01
 -1      2720 1.77182E+01
 -1      2721 1.77182E+01
 -1      2722 2.69223E+01
 -1      2723 2.62072E+01
 -1      2724 2.62447E+01
 -1      2725 2.62072E+01
 -1      2726 2.31567E+01
 -1      2727 2.31971E+01
 -1      2728 2.24415E+01
 -1      2729 2.24819E+01
 -1      2730 2.32412E+01
 -1      2731 2.30497E+01
 -1      2732 2.25392E+01
 -1      2733 2.23477E+01
 -1      2734 2.44785E+01
 -1      2735 1.96378E+01
 -1      2736 1.91621E+01
 -1      2737 1.96356E+01
 -1      2738 1.91599E+01
 -1      2739 1.95559E+01
 -1      2740 1.91752E+01
 -1      2741 1.96144E+01
 -1      2742 1.92337E+01
 -1      2743 2.06663E+01
 -1      2744 2.03097E+01
 -1      2745 2.03097E+01
 -1      2746 2.03682E+01
 -1      2747 2.03682E+01
 -1      2748 2.25026E+01
 -1      2749 2.63611E+01
 -1      2750 2.25026E+01
 -1      2751 2.63611E+01
 -1      2752 2.69337E+01
 -1      2753 2.24932E+01
 -1      2754 2.20350E+01
 -1      2755 2.25607E+01
 -1      2756 2.21025E+01
 -1      2757 2.56939E+01
 -1      2758 2.49116E+01
 -1      2759 2.44294E+01
 -1      2760 2.49791E+01
 -1      2761 2.44970E+01
 -1      2762 2.27906E+01
 -1      2763 2.28986E+01
 -1      2764 2.27906E+01
 -1      2765 2.28986E+01
 -1      2766 2.24906E+01
 -1      2767 2.20345E+01
 -1      2768 2.25689E+01
 -1      2769 2.21129E+01
 -1      2770 2.57048E+01
 -1      2771 2.33760E+01
 -1      2772 2.33760E+01
 -1      2773 2.18915E+01
 -1      2774 2.20879E+01
 -1      2775 2.18915E+01
 -1      2776 2.47157E+01
 -1      2777 2.18512E+01
 -1      2778 2.21072E+01
 -1      2779 2.21072E+01
 -1      2780 2.56264E+01
 -1      2781 2.18512E+01
 -1      2782 2.16791E+01
 -1      2783 2.49116E+01
 -1      2784 2.49116E+01
 -1      2785 2.16791E+01
 -1      2786 2.69830E+01
 -1      2787 2.69830E+01
 -1      2788 2.69830E+01
 -1      2789 2.18790E+01
 -1      2790 2.21229E+01
 -1      2791 2.18790E+01
 -1      2792 2.21229E+01
 -1      2793 2.08807E+01
 -1      2794 2.12242E+01
 -1      2795 1.94570E+01
 -1      2796 1.98004E+01
 -1      2797 2.21486E+01
 -1      2798 2.23165E+01
 -1      2799 2.11713E+01
 -1      2800 2.33759E+01
 -1      2801 2.34741E+01
 -1      2802 2.34740E+01
 -1      2803 2.71891E+01
 -1      2804 2.33758E+01
 -1      2805 2.30497E+01
 -1      2806 2.32412E+01
 -1      2807 2.11696E+01
 -1      2808 2.56008E+01
 -1      2809 2.50282E+01
 -1      2810 2.87030E+01
 -1      2811 2.39442E+01
 -1      2812 2.39442E+01
 -1      2813 2.48870E+01
 -1      2814 2.32342E+01
 -1      2815 2.69255E+01
 -1      2816 2.30389E+01
 -1      2817 2.63529E+01
 -1      2818 2.59425E+01
 -1      2819 2.14618E+01
 -1      2820 2.15737E+01
 -1      2821 1.34755E+01
 -1      2822 1.24223E+01
 -1      2823 1.39002E+01
 -1      2824 1.39713E+01
 -1      2825 1.34460E+01
 -1      2826 1.43889E+01
 -1      2827 1.39002E+01
 -1      2828 1.39002E+01
 -1      2829 1.43569E+01
 -1      2830 1.43569E+01
 -1      2831 2.15657E+01
 -1      2832 2.14577E+01
 -1      2833 2.06759E+01
 -1      2834 2.44511E+01
 -1      2835 2.09318E+01
 -1      2836 2.37363E+01
 -1      2837 2.05037E+01
 -1      2838 2.09263E+01
 -1      2839 2.06825E+01
 -1      2840 1.99359E+01
 -1      2841 2.01924E+01
 -1      2842 2.04001E+01
 -1      2843 2.24932E+01
 -1      2844 2.56264E+01
 -1      2845 2.20350E+01
 -1      2846 2.20094E+01
 -1      2847 2.24655E+01
 -1      2848 2.56013E+01
 -1      2849 2.44294E+01
 -1      2850 2.49116E+01
 -1      2851 1.67029E+01
 -1      2852 1.23068E+01
 -1      2853 2.28622E+01
 -1      2854 2.31850E+01
 -1      2855 2.39327E+01
 -1      2856 2.39327E+01
 -1      2857 2.41291E+01
 -1      2858 1.93737E+01
 -1      2859 1.93737E+01
 -1      2860 1.93737E+01
 -1      2861 1.94301E+01
 -1      2862 1.89544E+01
 -1      2863 1.82157E+01
 -1      2864 1.82157E+01
 -1      2865 2.50205E+01
 -1      2866 2.59084E+01
 -1      2867 2.02616E+01
 -1      2868 2.11496E+01
 -1      2869 2.08978E+01
 -1      2870 2.12223E+01
 -1      2871 1.94134E+01
 -1      2872 1.97379E+01
 -1      2873 2.49251E+01
 -1      2874 2.44962E+01
 -1      2875 2.50034E+01
 -1      2876 2.45746E+01
 -1      2877 2.67459E+01
 -1      2878 2.71891E+01
 -1      2879 2.67458E+01
 -1      2880 2.71890E+01
 -1      2881 2.62234E+01
 -1      2882 1.39118E+01
 -1      2883 1.41998E+01
 -1      2884 2.26303E+01
 -1      2885 2.19374E+01
 -1      2886 2.15940E+01
 -1      2887 2.42856E+01
 -1      2888 2.11713E+01
 -1      2889 2.56008E+01
 -1      2890 2.34112E+01
 -1      2891 2.34112E+01
 -1      2892 2.19874E+01
 -1      2893 2.19874E+01
 -1      2894 2.44511E+01
 -1      2895 1.92141E+01
 -1      2896 2.01542E+01
 -1      2897 1.91156E+01
 -1      2898 1.89591E+01
 -1      2899 2.56939E+01
 -1      2900 2.20176E+01
 -1      2901 1.83440E+01
 -1      2902 2.62679E+01
 -1      2903 2.56797E+01
 -1      2904 2.28619E+01
 -1      2905 2.26446E+01
 -1      2906 2.44711E+01
 -1      2907 2.49000E+01
 -1      2908 2.17790E+01
 -1      2909 2.14545E+01
 -1      2910 2.03979E+01
 -1      2911 1.91752E+01
 -1      2912 1.95559E+01
 -1      2913 2.06078E+01
 -1      2914 1.77182E+01
 -1      2915 2.03097E+01
 -1      2916 2.03097E+01
 -1      2917 2.68848E+01
 -1      2918 2.68848E+01
 -1      2919 2.69223E+01
 -1      2920 2.41244E+01
 -1      2921 2.41244E+01
 -1      2922 2.31595E+01
 -1      2923 2.31191E+01
 -1      2924 2.32323E+01
 -1      2925 2.70455E+01
 -1      2926 2.33305E+01
 -1      2927 3.53247E+01
 -1      2928 3.88485E+01
 -1      2929 3.65796E+01
 -1      2930 3.30558E+01
 -1      2931 3.30558E+01
 -1      2932 1.01713E+01
 -1      2933 2.87030E+01
 -1      2934 2.87030E+01
 -1      2935 2.96459E+01
 -1      2936 3.88485E+01
 -1      2937 2.70454E+01
 -1      2938 2.66022E+01
 -1      2939 2.06663E+01
 -1      2940 2.59084E+01
 -1      2941 2.50205E+01
 -1      2942 1.70540E+01
 -1      2943 1.80726E+01
 -1      2944 1.67920E+01
 -1      2945 2.62072E+01
 -1      2946 1.67132E+01
 -1      2947 1.99440E+01
 -1      2948 1.56946E+01
 -1      2949 2.70454E+01
 -1      2950 2.48870E+01
 -1      2951 1.37710E+01
 -1      2952 2.09062E+01
 -1      2953 2.19227E+01
 -1      2954 1.71483E+01
 -1      2955 2.42835E+01
 -1      2956 1.61319E+01
 -1      2957 1.08436E+01
 -1      2958 1.08258E+01
 -1      2959 1.45729E+01
 -1      2960 1.68607E+01
 -1      2961 1.68785E+01
 -1      2962 1.26033E+01
 -1      2963 1.97384E+01
 -1      2964 1.08707E+01
 -1      2965 2.01901E+01
 -1      2966 2.54747E+01
 -1      2967 2.61888E+01
 -1      2968 2.25152E+01
 -1      2969 2.59903E+01
 -1      2970 3.02017E+01
 -1      2971 2.58039E+01
 -1      2972 3.12476E+01
 -1      2973 3.47715E+01
 -1      2974 1.40946E+01
 -1      2975 1.38325E+01
 -1      2976 3.04186E+01
 -1      2977 2.30233E+01
 -1      2978 2.63415E+01
 -1      2979 2.69100E+01
 -1      2980 2.69099E+01
 -1      2981 2.71891E+01
 -1      2982 2.61340E+01
 -1      2983 2.61339E+01
 -1      2984 2.58548E+01
 -1      2985 1.78761E+01
 -1      2986 1.86249E+01
 -1      2987 1.86249E+01
 -1      2988 1.84917E+01
 -1      2989 1.92404E+01
 -1      2990 1.84917E+01
 -1      2991 2.32868E+01
 -1      2992 2.54747E+01
 -1      2993 2.31303E+01
 -1      2994 1.83882E+01
 -1      2995 1.76394E+01
 -1      2996 1.82550E+01
 -1      2997 2.89788E+01
 -1      2998 1.79377E+01
 -1      2999 1.99113E+01
 -1      3000 1.86342E+01
 -1      3001 1.84109E+01
 -1      3002 2.03845E+01
 -1      3003 1.96879E+01
 -1      3004 2.38220E+01
 -1      3005 2.71892E+01
 -1      3006 2.38220E+01
 -1      3007 2.38220E+01
 -1      3008 2.71892E+01
 -1      3009 2.71892E+01
 -1      3010 1.97035E+01
 -1      3011 2.04001E+01
 -1      3012 2.01768E+01
 -1      3013 1.78761E+01
 -1      3014 1.84917E+01
 -1      3015 1.65126E+01
 -1      3016 1.71282E+01
 -1      3017 2.71892E+01
 -1      3018 2.71892E+01
 -1      3019 2.71892E+01
 -1      3020 2.46244E+01
 -1      3021 1.98655E+01
 -1      3022 1.82157E+01
 -1      3023 1.89544E+01
 -1      3024 1.97290E+01
 -1      3025 1.86600E+01
 -1      3026 1.78839E+01
 -1      3027 1.84146E+01
 -1      3028 1.84146E+01
 -1      3029 2.31619E+01
 -1      3030 1.84964E+01
 -1      3031 1.82887E+01
 -1      3032 2.55779E+01
 -1      3033 2.55779E+01
 -1      3034 2.56011E+01
 -1      3035 1.69846E+01
 -1      3036 1.83882E+01
 -1      3037 1.83882E+01
 -1      3038 1.83882E+01
 -1      3039 2.01924E+01
 -1      3040 2.06078E+01
 -1      3041 2.06078E+01
 -1      3042 2.28684E+01
 -1      3043 2.28682E+01
 -1      3044 2.65079E+01
 -1      3045 2.51028E+01
 -1      3046 2.32072E+01
 -1      3047 2.32304E+01
 -1      3048 2.27355E+01
 -1      3049 2.30146E+01
 -1      3050 2.19594E+01
 -1      3051 1.87448E+01
 -1      3052 1.77594E+01
 -1      3053 1.88771E+01
 -1      3054 1.50885E+01
 -1      3055 1.55617E+01
 -1      3056 2.71890E+01
 -1      3057 1.53385E+01
 -1      3058 1.29289E+01
 -1      3059 2.07131E+01
 -1      3060 1.76793E+01
 -1      3061 2.00889E+01
 -1      3062 2.17859E+01
 -1      3063 2.06408E+01
 -1      3064 2.44683E+01
 -1      3065 1.50671E+01
 -1      3066 1.55404E+01
 -1      3067 2.31191E+01
 -1      3068 2.49116E+01
 -1      3069 2.25220E+01
 -1      3070 2.25220E+01
 -1      3071 2.64433E+01
 -1      3072 2.64057E+01
 -1      3073 2.30146E+01
 -1      3074 2.18152E+01
 -1      3075 2.55404E+01
 -1      3076 2.18790E+01
 -1      3077 2.46177E+01
 -1      3078 1.70872E+01
 -1      3079 1.71046E+01
 -1      3080 1.70872E+01
 -1      3081 1.71219E+01
 -1      3082 1.71219E+01
 -1      3083 1.71219E+01
 -1      3084 1.71219E+01
 -1      3085 1.71219E+01
 -1      3086 1.26663E+01
 -1      3087 1.39033E+01
 -1      3088 1.38859E+01
 -1      3089 1.26489E+01
 -1      3090 1.27085E+01
 -1      3091 1.37741E+01
 -1      3092 1.26874E+01
 -1      3093 1.34755E+01
 -1      3094 1.31120E+01
 -1      3095 1.27016E+01
 -1      3096 1.39713E+01
 -1      3097 1.31191E+01
 -1      3098 1.31191E+01
 -1      3099 1.34826E+01
 -1      3100 1.30800E+01
 -1      3101 1.39642E+01
 -1      3102 2.19082E+01
 -1      3103 2.63529E+01
 -1      3104 2.27853E+01
 -1      3105 1.93325E+01
 -1      3106 1.99203E+01
 -1      3107 2.13152E+01
 -1      3108 2.32541E+01
 -1      3109 1.67203E+01
 -1      3110 1.67203E+01
 -1      3111 1.67203E+01
 -1      3112 1.62316E+01
 -1      3113 1.62142E+01
 -1      3114 1.62142E+01
 -1      3115 1.17759E+01
 -1      3116 1.23068E+01
 -1      3117 2.09077E+01
 -1      3118 2.02835E+01
 -1      3119 2.56581E+01
 -1      3120 2.18261E+01
 -1      3121 2.19107E+01
 -1      3122 2.46181E+01
 -1      3123 2.70469E+01
 -1      3124 2.70469E+01
 -1      3125 2.12966E+01
 -1      3126 2.49000E+01
 -1      3127 2.03248E+01
 -1      3128 1.89804E+01
 -1      3129 2.63671E+01
 -1      3130 2.27906E+01
 -1      3131 2.39582E+01
 -1      3132 2.38816E+01
 -1      3133 2.44785E+01
 -1      3134 2.13202E+01
 -1      3135 1.86342E+01
 -1      3136 2.19725E+01
 -1      3137 2.21689E+01
 -1      3138 2.27256E+01
 -1      3139 1.25617E+01
 -1      3140 1.20589E+01
 -1      3141 2.24745E+01
 -1      3142 2.56907E+01
 -1      3143 2.19713E+01
 -1      3144 2.21325E+01
 -1      3145 2.28458E+01
 -1      3146 1.84675E+01
 -1      3147 2.32997E+01
 -1      3148 1.98207E+01
 -1      3149 2.28821E+01
 -1      3150 1.97825E+01
 -1      3151 2.26892E+01
 -1      3152 1.35188E+01
 -1      3153 1.21070E+01
 -1      3154 2.03106E+01
 -1      3155 1.88988E+01
 -1      3156 2.03788E+01
 -1      3157 1.84922E+01
 -1      3158 2.13332E+01
 -1      3159 1.86600E+01
 -1      3160 1.78839E+01
 -1      3161 2.24832E+01
 -1      3162 2.26882E+01
 -1      3163 1.45366E+01
 -1      3164 1.79139E+01
 -1      3165 1.55531E+01
 -1      3166 1.59404E+01
 -1      3167 1.88353E+01
 -1      3168 1.67189E+01
 -1      3169 1.72159E+01
 -1      3170 2.01108E+01
 -1      3171 1.93323E+01
 -1      3172 2.71382E+01
 -1      3173 2.71382E+01
 -1      3174 2.07195E+01
 -1      3175 2.07015E+01
 -1      3176 1.39713E+01
 -1      3177 1.27016E+01
 -1      3178 1.34755E+01
 -1      3179 1.26874E+01
 -1      3180 1.35128E+01
 -1      3181 1.22360E+01
 -1      3182 1.30209E+01
 -1      3183 1.22399E+01
 -1      3184 1.81598E+01
 -1      3185 2.31929E+01
 -1      3186 2.12327E+01
 -1      3187 2.32908E+01
 -1      3188 2.11378E+01
 -1      3189 2.50205E+01
 -1      3190 2.96459E+01
 -1      3191 2.47265E+01
 -1      3192 2.93519E+01
 -1      3193 2.93519E+01
 -1      3194 1.81984E+01
 -1      3195 1.91974E+01
 -1      3196 1.70806E+01
 -1      3197 2.27668E+01
 -1      3198 1.90335E+01
 -1      3199 1.70369E+01
 -1      3200 9.77758E+00
 -1      3201 1.75618E+01
 -1      3202 1.32532E+01
 -1      3203 2.03839E+01
 -1      3204 2.30371E+01
 -1      3205 2.74349E+01
 -1      3206 2.23120E+01
 -1      3207 1.41796E+01
 -1      3208 1.23568E+01
 -1      3209 1.71947E+01
 -1      3210 1.53719E+01
 -1      3211 1.59899E+01
 -1      3212 2.64294E+01
 -1      3213 2.08603E+01
 -1      3214 2.62348E+01
 -1      3215 2.70630E+01
 -1      3216 2.47941E+01
 -1      3217 2.51660E+01
 -1      3218 1.53845E+01
 -1      3219 1.53845E+01
 -1      3220 1.41796E+01
 -1      3221 1.53845E+01
 -1      3222 2.26652E+01
 -1      3223 1.82718E+01
 -1      3224 1.86161E+01
 -1      3225 1.53123E+01
 -1      3226 1.56566E+01
 -1      3227 2.54747E+01
 -1      3228 2.32868E+01
 -1      3229 2.43254E+01
 -1      3230 1.87691E+01
 -1      3231 1.86359E+01
 -1      3232 2.48987E+01
 -1      3233 2.48988E+01
 -1      3234 2.71623E+01
 -1      3235 3.12394E+01
 -1      3236 2.63332E+01
 -1      3237 3.07374E+01
 -1      3238 2.89705E+01
 -1      3239 2.84685E+01
 -1      3240 2.43304E+01
 -1      3241 1.77561E+01
 -1      3242 1.87152E+01
 -1      3243 1.75572E+01
 -1      3244 1.96378E+01
 -1      3245 2.06078E+01
 -1      3246 1.84964E+01
 -1      3247 1.50969E+01
 -1      3248 1.38599E+01
 -1      3249 1.83156E+01
 -1      3250 1.83156E+01
 -1      3251 1.83156E+01
 -1      3252 2.03097E+01
 -1      3253 2.06078E+01
 -1      3254 1.81107E+01
 -1      3255 1.79665E+01
 -1      3256 2.61888E+01
 -1      3257 2.49656E+01
 -1      3258 1.74028E+01
 -1      3259 1.82550E+01
 -1      3260 2.47091E+01
 -1      3261 2.47091E+01
 -1      3262 2.47282E+01
 -1      3263 2.96650E+01
 -1      3264 2.47282E+01
 -1      3265 2.66604E+01
 -1      3266 1.19216E+01
 -1      3267 1.51402E+01
 -1      3268 1.63339E+01
 -1      3269 1.51402E+01
 -1      3270 2.14844E+01
 -1      3271 2.15248E+01
 -1      3272 2.12308E+01
 -1      3273 2.33758E+01
 -1      3274 2.65209E+01
 -1      3275 2.63787E+01
 -1      3276 2.65209E+01
 -1      3277 2.56951E+01
 -1      3278 2.28059E+01
 -1      3279 2.22001E+01
 -1      3280 2.24591E+01
 -1      3281 1.82944E+01
 -1      3282 1.82859E+01
 -1      3283 1.00511E+01
 -1      3284 1.75692E+01
 -1      3285 1.75607E+01
 -1      3286 1.69124E+01
 -1      3287 2.47090E+01
 -1      3288 2.16774E+01
 -1      3289 2.33496E+01
 -1      3290 1.45078E+01
 -1      3291 1.23765E+01
 -1      3292 2.16384E+01
 -1      3293 1.50861E+01
 -1      3294 2.16017E+01
 -1      3295 1.71122E+01
 -1      3296 3.15730E+01
 -1      3297 2.79115E+01
 -1      3298 2.79797E+01
 -1      3299 1.69234E+01
 -1      3300 1.57283E+01
 -1      3301 1.65126E+01
 -1      3302 3.44508E+01
 -1      3303 2.86580E+01
 -1      3304 2.37180E+01
 -1      3305 3.11133E+01
 -1      3306 3.46372E+01
 -1      3307 1.56427E+01
 -1      3308 1.77571E+01
 -1      3309 1.81588E+01
 -1      3310 1.73006E+01
 -1      3311 1.81735E+01
 -1      3312 1.73006E+01
 -1      3313 1.81735E+01
 -1      3314 1.77571E+01
 -1      3315 1.81588E+01
 -1      3316 2.69019E+01
 -1      3317 1.24168E+01
 -1      3318 1.22436E+01
 -1      3319 1.51336E+01
 -1      3320 1.56946E+01
 -1      3321 1.53068E+01
 -1      3322 1.86541E+01
 -1      3323 1.86442E+01
 -1      3324 1.01277E+01
 -1      3325 1.78250E+01
 -1      3326 1.78151E+01
 -1      3327 2.93710E+01
 -1      3328 2.96650E+01
 -1      3329 2.96842E+01
 -1      3330 2.93710E+01
 -1      3331 2.85101E+01
 -1      3332 2.88232E+01
 -1      3333 1.70540E+01
 -1      3334 1.75997E+01
 -1      3335 1.61019E+01
 -1      3336 1.72599E+01
 -1      3337 1.66015E+01
 -1      3338 2.03828E+01
 -1      3339 1.94128E+01
 -1      3340 2.03828E+01
 -1      3341 1.65112E+01
 -1      3342 2.00846E+01
 -1      3343 1.60699E+01
 -1      3344 1.52176E+01
 -1      3345 1.71669E+01
 -1      3346 1.71691E+01
 -1      3347 2.22167E+01
 -1      3348 2.22189E+01
 -1      3349 2.57371E+01
 -1      3350 1.45715E+01
 -1      3351 1.30428E+01
 -1      3352 2.10870E+01
 -1      3353 2.81616E+01
 -1      3354 3.05379E+01
 -1      3355 3.05379E+01
 -1      3356 3.07869E+01
 -1      3357 2.81616E+01
 -1      3358 2.33672E+01
 -1      3359 3.12569E+01
 -1      3360 2.89880E+01
 -1      3361 2.76273E+01
 -1      3362 2.69794E+01
 -1      3363 2.36401E+01
 -1      3364 2.29921E+01
 -1      3365 2.29921E+01
 -1      3366 2.71716E+01
 -1      3367 2.96459E+01
 -1      3368 2.69647E+01
 -1      3369 2.69647E+01
 -1      3370 2.70062E+01
 -1      3371 2.70976E+01
 -1      3372 2.70976E+01
 -1      3373 2.70561E+01
 -1      3374 2.96650E+01
 -1      3375 1.67301E+01
 -1      3376 2.40781E+01
 -1      3377 2.17098E+01
 -1      3378 1.48515E+01
 -1      3379 2.21995E+01
 -1      3380 1.72198E+01
 -1      3381 1.77229E+01
 -1      3382 1.82378E+01
 -1      3383 1.96133E+01
 -1      3384 1.77085E+01
 -1      3385 1.82234E+01
 -1      3386 1.63330E+01
 -1      3387 2.68185E+01
 -1      3388 2.67770E+01
 -1      3389 2.69099E+01
 -1      3390 2.48629E+01
 -1      3391 1.76394E+01
 -1      3392 1.31308E+01
 -1      3393 1.31237E+01
 -1      3394 1.29301E+01
 -1      3395 1.29230E+01
 -1      3396 1.67328E+01
 -1      3397 3.06339E+01
 -1      3398 3.63723E+01
 -1      3399 2.84507E+01
 -1      3400 3.44508E+01
 -1      3401 2.27122E+01
 -1      3402 1.53402E+01
 -1      3403 1.77085E+01
 -1      3404 1.58299E+01
 -1      3405 1.63330E+01
 -1      3406 1.63186E+01
 -1      3407 2.06844E+01
 -1      3408 2.59903E+01
 -1      3409 2.96459E+01
 -1      3410 2.48628E+01
 -1      3411 1.84828E+01
 -1      3412 2.16582E+01
 -1      3413 1.84828E+01
 -1      3414 2.16582E+01
 -1      3415 2.63508E+01
 -1      3416 2.26358E+01
 -1      3417 2.56826E+01
 -1      3418 2.06481E+01
 -1      3419 2.84352E+01
 -1      3420 2.69828E+01
 -1      3421 2.19098E+01
 -1      3422 2.04575E+01
 -1      3423 2.19098E+01
 -1      3424 2.09274E+01
 -1      3425 2.11151E+01
 -1      3426 2.12066E+01
 -1      3427 2.70977E+01
 -1      3428 2.69100E+01
 -1      3429 2.07452E+01
 -1      3430 2.07088E+01
 -1      3431 2.44785E+01
 -1      3432 2.44683E+01
 -1      3433 2.62072E+01
 -1      3434 2.63508E+01
 -1      3435 1.91371E+01
 -1      3436 1.92942E+01
 -1      3437 1.90576E+01
 -1      3438 1.95464E+01
 -1      3439 1.97035E+01
 -1      3440 1.97830E+01
 -1      3441 2.69455E+01
 -1      3442 2.10544E+01
 -1      3443 2.70370E+01
 -1      3444 1.47097E+01
 -1      3445 1.41486E+01
 -1      3446 3.05379E+01
 -1      3447 3.07869E+01
 -1      3448 1.38512E+01
 -1      3449 1.49337E+01
 -1      3450 1.35438E+01
 -1      3451 1.42505E+01
 -1      3452 1.53329E+01
 -1      3453 1.56403E+01
 -1      3454 1.53110E+01
 -1      3455 1.52411E+01
 -1      3456 1.53110E+01
 -1      3457 1.57103E+01
 -1      3458 1.56403E+01
 -1      3459 2.47091E+01
 -1      3460 2.96650E+01
 -1      3461 1.63637E+01
 -1      3462 1.93605E+01
 -1      3463 1.63815E+01
 -1      3464 2.56264E+01
 -1      3465 2.47820E+01
 -1      3466 2.47820E+01
 -1      3467 2.47820E+01
 -1      3468 2.39377E+01
 -1      3469 2.47820E+01
 -1      3470 1.98497E+01
 -1      3471 2.56013E+01
 -1      3472 1.98748E+01
 -1      3473 1.90407E+01
 -1      3474 2.47923E+01
 -1      3475 2.47672E+01
 -1      3476 2.56013E+01
 -1      3477 2.46906E+01
 -1      3478 2.47923E+01
 -1      3479 1.60691E+01
 -1      3480 1.71864E+01
 -1      3481 2.29363E+01
 -1      3482 2.23647E+01
 -1      3483 2.18190E+01
 -1      3484 1.02608E+01
 -1      3485 1.02435E+01
 -1      3486 1.72022E+01
 -1      3487 1.73091E+01
 -1      3488 2.96650E+01
 -1      3489 2.45930E+01
 -1      3490 1.79139E+01
 -1      3491 1.74252E+01
 -1      3492 2.36082E+01
 -1      3493 2.00900E+01
 -1      3494 2.20217E+01
 -1      3495 2.04001E+01
 -1      3496 1.87152E+01
 -1      3497 2.26303E+01
 -1      3498 2.56264E+01
 -1      3499 2.47820E+01
 -1      3500 1.90576E+01
 -1      3501 1.92147E+01
 -1      3502 1.92942E+01
 -1      3503 2.44151E+01
 -1      3504 2.93519E+01
 -1      3505 2.93710E+01
 -1      3506 1.85820E+01
 -1      3507 2.63535E+01
 -1      3508 2.89788E+01
 -1      3509 1.09410E+01
 -1      3510 1.47263E+01
 -1      3511 2.10227E+01
 -1      3512 2.27615E+01
 -1      3513 1.59032E+01
 -1      3514 1.41644E+01
 -1      3515 1.46551E+01
 -1      3516 1.65454E+01
 -1      3517 1.82378E+01
 -1      3518 1.63330E+01
 -1      3519 1.46407E+01
 -1      3520 1.60943E+01
 -1      3521 2.41295E+01
 -1      3522 1.61463E+01
 -1      3523 1.97290E+01
 -1      3524 1.85541E+01
 -1      3525 1.89533E+01
 -1      3526 1.84597E+01
 -1      3527 2.33880E+01
 -1      3528 2.06078E+01
 -1      3529 2.65209E+01
 -1      3530 1.78341E+01
 -1      3531 1.70586E+01
 -1      3532 1.97830E+01
 -1      3533 1.90075E+01
 -1      3534 1.74248E+01
 -1      3535 2.97936E+01
 -1      3536 2.52340E+01
 -1      3537 2.42408E+01
 -1      3538 2.79948E+01
 -1      3539 2.34352E+01
 -1      3540 2.62348E+01
 -1      3541 2.17971E+01
 -1      3542 2.24450E+01
 -1      3543 1.57593E+01
 -1      3544 1.60886E+01
 -1      3545 1.56893E+01
 -1      3546 1.42069E+01
 -1      3547 1.52894E+01
 -1      3548 1.59960E+01
 -1      3549 2.61741E+01
 -1      3550 1.06891E+01
 -1      3551 2.20575E+01
 -1      3552 2.35099E+01
 -1      3553 2.15870E+01
 -1      3554 2.27880E+01
 -1      3555 2.71890E+01
 -1      3556 2.27880E+01
 -1      3557 2.15870E+01
 -1      3558 2.69255E+01
 -1      3559 2.65208E+01
 -1      3560 2.48999E+01
 -1      3561 2.49000E+01
 -1      3562 1.65112E+01
 -1      3563 1.51229E+01
 -1      3564 1.53236E+01
 -1      3565 1.53410E+01
 -1      3566 1.51402E+01
 -1      3567 1.56045E+01
 -1      3568 2.03823E+01
 -1      3569 2.03806E+01
 -1      3570 2.04430E+01
 -1      3571 2.04413E+01
 -1      3572 2.69255E+01
 -1      3573 2.69337E+01
 -1      3574 2.45186E+01
 -1      3575 2.44973E+01
 -1      3576 2.45294E+01
 -1      3577 2.69337E+01
 -1      3578 1.86662E+01
 -1      3579 2.44178E+01
 -1      3580 2.35837E+01
 -1      3581 2.35734E+01
 -1      3582 2.35734E+01
 -1      3583 2.45082E+01
 -1      3584 1.89303E+01
 -1      3585 2.27472E+01
 -1      3586 1.17294E+01
 -1      3587 1.14623E+01
 -1      3588 2.07243E+01
 -1      3589 2.06510E+01
 -1      3590 1.57986E+01
 -1      3591 1.53994E+01
 -1      3592 1.58476E+01
 -1      3593 2.38071E+01
 -1      3594 2.63367E+01
 -1      3595 2.28638E+01
 -1      3596 2.27873E+01
 -1      3597 1.41486E+01
 -1      3598 1.66147E+01
 -1      3599 2.70062E+01
 -1      3600 2.70062E+01
 -1      3601 2.70976E+01
 -1      3602 2.24710E+01
 -1      3603 1.94354E+01
 -1      3604 2.68185E+01
 -1      3605 1.73551E+01
 -1      3606 1.99113E+01
 -1      3607 1.66586E+01
 -1      3608 1.66048E+01
 -1      3609 1.91609E+01
 -1      3610 1.98575E+01
 -1      3611 1.77085E+01
 -1      3612 1.82234E+01
 -1      3613 1.63186E+01
 -1      3614 2.26882E+01
 -1      3615 1.58299E+01
 -1      3616 2.70977E+01
 -1      3617 1.50920E+01
 -1      3618 1.57551E+01
 -1      3619 1.78785E+01
 -1      3620 1.75884E+01
 -1      3621 2.02987E+01
 -1      3622 1.78976E+01
 -1      3623 1.81877E+01
 -1      3624 2.53126E+01
 -1      3625 2.41040E+01
 -1      3626 1.29653E+01
 -1      3627 1.94044E+01
 -1      3628 2.25238E+01
 -1      3629 2.26732E+01
 -1      3630 2.26632E+01
 -1      3631 2.68947E+01
 -1      3632 2.67453E+01
 -1      3633 1.63186E+01
 -1      3634 2.69455E+01
 -1      3635 1.53994E+01
 -1      3636 2.82753E+01
 -1      3637 2.24450E+01
 -1      3638 2.52875E+01
 -1      3639 1.99113E+01
 -1      3640 2.53126E+01
 -1      3641 2.22689E+01
 -1      3642 2.22590E+01
 -1      3643 2.70469E+01
 -1      3644 2.24112E+01
 -1      3645 1.94937E+01
 -1      3646 1.94143E+01
 -1      3647 1.99031E+01
 -1      3648 1.02067E+01
 -1      3649 1.77163E+01
 -1      3650 4.23724E+01
 -1      3651 1.34038E+01
 -1      3652 2.15248E+01
 -1      3653 2.12308E+01
 -1      3654 1.71473E+01
 -1      3655 1.98575E+01
 -1      3656 1.71473E+01
 -1      3657 1.91072E+01
 -1      3658 1.32513E+01
 -1      3659 1.32182E+01
 -1      3660 2.16348E+01
 -1      3661 2.12624E+01
 -1      3662 2.61340E+01
 -1      3663 4.23724E+01
 -1      3664 3.63723E+01
 -1      3665 1.66586E+01
 -1      3666 2.63508E+01
 -1      3667 2.37020E+01
 -1      3668 2.88803E+01
 -1      3669 1.01622E+01
 -1      3670 1.75247E+01
 -1      3671 1.00715E+01
 -1      3672 1.77688E+01
 -1      3673 1.94143E+01
 -1      3674 1.55852E+01
 -1      3675 1.85820E+01
 -1      3676 1.98575E+01
 -1      3677 1.02141E+01
 -1      3678 1.79577E+01
 -1      3679 1.93986E+01
 -1      3680 1.69038E+01
 -1      3681 1.60872E+01
 -1      3682 1.99150E+01
 -1      3683 1.85821E+01
 -1      3684 1.10788E+01
 -1      3685 1.40900E+01
 -1      3686 1.85251E+01
 -1      3687 1.71922E+01
 -1      3688 1.71257E+01
 -1      3689 1.63472E+01
 -1      3690 1.52618E+01
 -1      3691 1.68571E+01
 -1      3692 1.63919E+01
 -1      3693 1.79871E+01
 -1      3694 2.69403E+01
 -1      3695 2.63636E+01
 -1      3696 2.18459E+01
 -1      3697 2.12692E+01
 -1      3698 1.87404E+01
 -1      3699 2.08683E+01
 -1      3700 2.06038E+01
 -1      3701 2.40609E+01
 -1      3702 2.61888E+01
 -1      3703 1.07793E+01
 -1      3704 1.88927E+01
 -1      3705 1.88927E+01
 -1      3706 1.87051E+01
 -1      3707 1.87051E+01
 -1      3708 1.04391E+01
 -1      3709 1.85525E+01
 -1      3710 1.00184E+01
 -1      3711 1.84720E+01
 -1      3712 2.24415E+01
 -1      3713 2.55296E+01
 -1      3714 2.20270E+01
 -1      3715 2.20270E+01
 -1      3716 1.84828E+01
 -1      3717 1.31586E+01
 -1      3718 1.17210E+01
 -1      3719 1.17210E+01
 -1      3720 1.84818E+01
 -1      3721 1.36405E+01
 -1      3722 1.24047E+01
 -1      3723 1.29412E+01
 -1      3724 1.28607E+01
 -1      3725 1.28491E+01
 -1      3726 1.56433E+01
 -1      3727 1.70069E+01
 -1      3728 1.56047E+01
 -1      3729 1.64740E+01
 -1      3730 1.66562E+01
 -1      3731 1.50007E+01
 -1      3732 1.49927E+01
 -1      3733 1.60548E+01
 -1      3734 2.21565E+01
 -1      3735 2.17317E+01
 -1      3736 2.21025E+01
 -1      3737 2.57614E+01
 -1      3738 2.17317E+01
 -1      3739 1.84967E+01
 -1      3740 1.88533E+01
 -1      3741 1.88533E+01
 -1      3742 2.07249E+01
 -1      3743 1.85938E+01
 -1      3744 1.87994E+01
 -1      3745 1.43842E+01
 -1      3746 1.88153E+01
 -1      3747 1.05558E+01
 -1      3748 1.86742E+01
 -1      3749 1.87994E+01
 -1      3750 2.06034E+01
 -1      3751 2.21075E+01
 -1      3752 2.19720E+01
 -1      3753 2.19720E+01
 -1      3754 2.55297E+01
 -1      3755 2.24468E+01
 -1      3756 1.94134E+01
 -1      3757 2.01159E+01
 -1      3758 2.11984E+01
 -1      3759 2.19781E+01
 -1      3760 1.08309E+01
 -1      3761 1.48711E+01
 -1      3762 1.88993E+01
 -1      3763 1.88653E+01
 -1      3764 1.42818E+01
 -1      3765 1.05442E+01
 -1      3766 1.82292E+01
 -1      3767 1.79414E+01
 -1      3768 2.19781E+01
 -1      3769 2.57831E+01
 -1      3770 1.40398E+01
 -1      3771 1.79516E+01
 -1      3772 1.42838E+01
 -1      3773 1.82084E+01
 -1      3774 2.01108E+01
 -1      3775 1.93605E+01
 -1      3776 1.05336E+01
 -1      3777 1.18274E+01
 -1      3778 1.18274E+01
 -1      3779 8.41360E+00
 -1      3780 1.22266E+01
 -1      3781 1.22266E+01
 -1      3782 1.43848E+01
 -1      3783 1.79829E+01
 -1      3784 1.23661E+01
 -1      3785 1.06024E+01
 -1      3786 1.76184E+01
 -1      3787 2.33751E+01
 -1      3788 2.71291E+01
 -1      3789 3.62978E+01
 -1      3790 3.03754E+01
 -1      3791 2.43008E+01
 -1      3792 2.85625E+01
 -1      3793 2.26401E+01
 -1      3794 2.49116E+01
 -1      3795 2.11474E+01
 -1      3796 2.04325E+01
 -1      3797 2.40672E+01
 -1      3798 2.03030E+01
 -1      3799 2.49000E+01
 -1      3800 2.11242E+01
 -1      3801 2.04480E+01
 -1      3802 2.40910E+01
 -1      3803 2.03152E+01
 -1      3804 1.35137E+01
 -1      3805 1.46263E+01
 -1      3806 1.37152E+01
 -1      3807 1.37152E+01
 -1      3808 1.36568E+01
 -1      3809 1.27457E+01
 -1      3810 1.36568E+01
 -1      3811 1.49018E+01
 -1      3812 1.40203E+01
 -1      3813 1.36809E+01
 -1      3814 1.36320E+01
 -1      3815 1.27505E+01
 -1      3816 1.39713E+01
 -1      3817 2.01924E+01
 -1      3818 1.70056E+01
 -1      3819 1.74150E+01
 -1      3820 1.78341E+01
 -1      3821 1.72902E+01
 -1      3822 2.28909E+01
 -1      3823 2.29510E+01
 -1      3824 1.81816E+01
 -1      3825 1.80405E+01
 -1      3826 2.63000E+01
 -1      3827 2.17317E+01
 -1      3828 2.57614E+01
 -1      3829 2.57614E+01
 -1      3830 1.71665E+01
 -1      3831 1.52618E+01
 -1      3832 2.27615E+01
 -1      3833 1.59032E+01
 -1      3834 2.69647E+01
 -1      3835 2.70561E+01
 -1      3836 2.18459E+01
 -1      3837 2.26966E+01
 -1      3838 2.19373E+01
 -1      3839 8.72390E+00
 -1      3840 9.16302E+00
 -1      3841 1.26657E+01
 -1      3842 1.25369E+01
 -1      3843 1.27995E+01
 -1      3844 1.27995E+01
 -1      3845 1.27505E+01
 -1      3846 1.27505E+01
 -1      3847 1.28041E+01
 -1      3848 1.27457E+01
 -1      3849 1.28041E+01
 -1      3850 1.27457E+01
 -1      3851 2.19156E+01
 -1      3852 2.19365E+01
 -1      3853 2.19365E+01
 -1      3854 2.57405E+01
 -1      3855 9.94941E+00
 -1      3856 9.10503E+00
 -1      3857 1.73372E+01
 -1      3858 1.74340E+01
 -1      3859 1.82332E+01
 -1      3860 1.82673E+01
 -1      3861 2.63016E+01
 -1      3862 2.19781E+01
 -1      3863 2.57831E+01
 -1      3864 2.57831E+01
 -1      3865 9.99380E+00
 -1      3866 1.74302E+01
 -1      3867 2.18427E+01
 -1      3868 2.18427E+01
 -1      3869 1.58662E+01
 -1      3870 1.55017E+01
 -1      3871 2.28821E+01
 -1      3872 9.33365E+00
 -1      3873 1.01503E+01
 -1      3874 1.50495E+01
 -1      3875 1.50495E+01
 -1      3876 9.09801E+00
 -1      3877 1.73374E+01
 -1      3878 1.78182E+01
 -1      3879 1.78182E+01
 -1      3880 1.06376E+01
 -1      3881 1.56652E+01
 -1      3882 1.56652E+01
 -1      3883 2.28458E+01
 -1      3884 2.07773E+01
 -1      3885 2.06477E+01
 -1      3886 2.68796E+01
 -1      3887 1.98575E+01
 -1      3888 1.91072E+01
 -1      3889 2.06477E+01
 -1      3890 2.39377E+01
 -1      3891 2.08025E+01
 -1      3892 2.06697E+01
 -1      3893 9.06714E+00
 -1      3894 9.90810E+00
 -1      3895 1.49356E+01
 -1      3896 1.48242E+01
 -1      3897 2.18321E+01
 -1      3898 2.57726E+01
 -1      3899 1.47524E+01
 -1      3900 1.35097E+01
 -1      3901 1.39713E+01
 -1      3902 1.32054E+01
 -1      3903 1.44450E+01
 -1      3904 1.36568E+01
 -1      3905 2.70318E+01
 -1      3906 1.10779E+01
 -1      3907 1.08921E+01
 -1      3908 1.49604E+01
 -1      3909 1.51463E+01
 -1      3910 1.51463E+01
 -1      3911 1.26813E+01
 -1      3912 1.41366E+01
 -1      3913 2.65079E+01
 -1      3914 2.56011E+01
 -1      3915 1.48646E+01
 -1      3916 1.50897E+01
 -1      3917 2.48423E+01
 -1      3918 2.33494E+01
 -1      3919 1.27640E+01
 -1      3920 1.42193E+01
 -1      3921 2.49988E+01
 -1      3922 2.32908E+01
 -1      3923 1.50308E+01
 -1      3924 1.52559E+01
 -1      3925 2.05931E+01
 -1      3926 2.38816E+01
 -1      3927 2.49988E+01
 -1      3928 1.91974E+01
 -1      3929 2.03855E+01
 -1      3930 1.86653E+01
 -1      3931 1.83087E+01
 -1      3932 2.48423E+01
 -1      3933 1.91900E+01
 -1      3934 2.49716E+01
 -1      3935 2.33109E+01
 -1      3936 2.16723E+01
 -1      3937 2.51294E+01
 -1      3938 2.33109E+01
 -1      3939 2.69019E+01
 -1      3940 1.78110E+01
 -1      3941 1.79811E+01
 -1      3942 2.39427E+01
 -1      3943 2.84592E+01
 -1      3944 2.00952E+01
 -1      3945 2.07272E+01
 -1      3946 2.63476E+01
 -1      3947 2.01411E+01
 -1      3948 2.57155E+01
 -1      3949 1.91956E+01
 -1      3950 1.92599E+01
 -1      3951 2.03521E+01
 -1      3952 2.57155E+01
 -1      3953 2.03980E+01
 -1      3954 2.03980E+01
 -1      3955 2.04246E+01
 -1      3956 2.04246E+01
 -1      3957 2.57247E+01
 -1      3958 2.03661E+01
 -1      3959 2.57247E+01
 -1      3960 2.63267E+01
 -1      3961 2.63476E+01
 -1      3962 2.57405E+01
 -1      3963 2.56929E+01
 -1      3964 2.57138E+01
 -1      3965 2.57614E+01
 -1      3966 2.57614E+01
 -1      3967 2.57138E+01
 -1      3968 2.57138E+01
 -1      3969 2.01511E+01
 -1      3970 2.63584E+01
 -1      3971 2.07264E+01
 -1      3972 2.00927E+01
 -1      3973 1.79577E+01
 -1      3974 1.81278E+01
 -1      3975 2.57831E+01
 -1      3976 2.57264E+01
 -1      3977 2.57264E+01
 -1      3978 2.57831E+01
 -1      3979 2.57264E+01
 -1      3980 1.76227E+01
 -1      3981 2.16314E+01
 -1      3982 2.27615E+01
 -1      3983 2.90578E+01
 -1      3984 2.57158E+01
 -1      3985 2.63479E+01
 -1      3986 2.57726E+01
 -1      3987 2.63584E+01
 -1      3988 2.47218E+01
 -1      3989 2.32323E+01
 -1      3990 1.59059E+01
 -1      3991 2.10746E+01
 -1      3992 9.87749E+00
 -1      3993 1.84116E+01
 -1      3994 9.81706E+00
 -1      3995 1.84116E+01
 -1      3996 2.19871E+01
 -1      3997 1.61236E+01
 -1      3998 2.88803E+01
 -1      3999 2.61690E+01
 -1      4000 8.60816E+00
 -1      4001 1.40609E+01
 -1      4002 1.37619E+01
 -1      4003 1.28560E+01
 -1      4004 1.31550E+01
 -1      4005 1.07342E+01
 -1      4006 2.69830E+01
 -1      4007 4.23724E+01
 -1      4008 1.56110E+01
 -1      4009 1.56661E+01
 -1      4010 1.60076E+01
 -1      4011 1.59525E+01
 -1      4012 1.60076E+01
 -1      4013 1.56110E+01
 -1      4014 1.83341E+01
 -1      4015 2.30991E+01
 -1      4016 1.43889E+01
 -1      4017 1.40815E+01
 -1      4018 1.92942E+01
 -1      4019 2.42856E+01
 -1      4020 2.42856E+01
 -1      4021 9.99257E+00
 -1      4022 1.51463E+01
 -1      4023 1.70065E+01
 -1      4024 1.70065E+01
 -1      4025 1.45290E+01
 -1      4026 1.41324E+01
 -1      4027 1.45664E+01
 -1      4028 1.57035E+01
 -1      4029 1.61002E+01
 -1      4030 1.10779E+01
 -1      4031 1.51463E+01
 -1      4032 2.85101E+01
 -1      4033 1.08342E+01
 -1      4034 2.29000E+01
 -1      4035 1.37426E+01
 -1      4036 1.52553E+01
 -1      4037 1.37284E+01
 -1      4038 1.41766E+01
 -1      4039 2.59844E+01
 -1      4040 2.66165E+01
 -1      4041 2.60303E+01
 -1      4042 2.60412E+01
 -1      4043 2.60412E+01
 -1      4044 2.59827E+01
 -1      4045 2.60303E+01
 -1      4046 2.66165E+01
 -1      4047 1.60512E+01
 -1      4048 1.42426E+01
 -1      4049 1.42542E+01
 -1      4050 1.60076E+01
 -1      4051 1.41990E+01
 -1      4052 1.72902E+01
 -1      4053 1.34688E+01
 -1      4054 2.39110E+01
 -1      4055 2.44683E+01
 -1      4056 2.44416E+01
 -1      4057 2.35467E+01
 -1      4058 2.41040E+01
 -1      4059 2.44785E+01
 -1      4060 1.93423E+01
 -1      4061 1.98626E+01
 -1      4062 1.89678E+01
 -1      4063 2.26551E+01
 -1      4064 1.52738E+01
 -1      4065 1.56152E+01
 -1      4066 1.49522E+01
 -1      4067 1.49479E+01
 -1      4068 1.60628E+01
 -1      4069 1.60076E+01
 -1      4070 1.51463E+01
 -1      4071 1.60886E+01
 -1      4072 1.69578E+01
 -1      4073 1.70069E+01
 -1      4074 1.61376E+01
 -1      4075 1.70069E+01
 -1      4076 1.53500E+01
 -1      4077 1.44685E+01
 -1      4078 1.44711E+01
 -1      4079 1.49456E+01
 -1      4080 1.59996E+01
 -1      4081 1.47457E+01
 -1      4082 2.44897E+01
 -1      4083 2.48029E+01
 -1      4084 2.93710E+01
 -1      4085 2.96842E+01
 -1      4086 1.44711E+01
 -1      4087 1.61376E+01
 -1      4088 1.43333E+01
 -1      4089 1.59525E+01
 -1      4090 1.71301E+01
 -1      4091 1.77571E+01
 -1      4092 1.73006E+01
 -1      4093 1.82384E+01
 -1      4094 2.00326E+01
 -1      4095 2.48029E+01
 -1      4096 2.44143E+01
 -1      4097 2.18167E+01
 -1      4098 1.69234E+01
 -1      4099 1.69234E+01
 -1      4100 1.59729E+01
 -1      4101 2.07190E+01
 -1      4102 2.63394E+01
 -1      4103 1.63448E+01
 -1      4104 1.65378E+01
 -1      4105 2.17734E+01
 -1      4106 2.20219E+01
 -1      4107 2.18523E+01
 -1      4108 2.42331E+01
 -1      4109 1.77182E+01
 -1      4110 1.67328E+01
 -1      4111 1.53120E+01
 -1      4112 1.48944E+01
 -1      4113 1.48944E+01
 -1      4114 1.52973E+01
 -1      4115 1.49046E+01
 -1      4116 1.49046E+01
 -1      4117 1.37959E+01
 -1      4118 1.55929E+01
 -1      4119 1.67328E+01
 -1      4120 1.69694E+01
 -1      4121 1.56419E+01
 -1      4122 1.91709E+01
 -1      4123 2.44710E+01
 -1      4124 1.91339E+01
 -1      4125 2.44514E+01
 -1      4126 1.54136E+01
 -1      4127 1.58102E+01
 -1      4128 2.07264E+01
 -1      4129 2.63584E+01
 -1      4130 2.63185E+01
 -1      4131 2.45186E+01
 -1      4132 1.32397E+01
 -1      4133 1.47666E+01
 -1      4134 1.47708E+01
 -1      4135 2.16704E+01
 -1      4136 2.04633E+01
 -1      4137 2.17038E+01
 -1      4138 2.04252E+01
 -1      4139 1.77163E+01
 -1      4140 1.95185E+01
 -1      4141 1.95150E+01
 -1      4142 1.02563E+01
 -1      4143 1.79577E+01
 -1      4144 2.56151E+01
 -1      4145 2.11828E+01
 -1      4146 1.81588E+01
 -1      4147 1.81735E+01
 -1      4148 1.10085E+01
 -1      4149 8.67410E+00
 -1      4150 1.24257E+01
 -1      4151 1.23112E+01
 -1      4152 1.24257E+01
 -1      4153 1.14492E+01
 -1      4154 1.02991E+01
 -1      4155 1.27640E+01
 -1      4156 1.73091E+01
 -1      4157 1.50362E+01
 -1      4158 2.18810E+01
 -1      4159 1.67574E+01
 -1      4160 2.44416E+01
 -1      4161 2.44683E+01
 -1      4162 9.73771E+00
 -1      4163 1.50308E+01
 -1      4164 9.67346E+00
 -1      4165 2.45082E+01
 -1      4166 2.11766E+01
 -1      4167 2.11713E+01
 -1      4168 1.97061E+01
 -1      4169 2.43220E+01
 -1      4170 2.20263E+01
 -1      4171 2.63479E+01
 -1      4172 2.43220E+01
 -1      4173 1.67244E+01
 -1      4174 1.72957E+01
 -1      4175 2.03668E+01
 -1      4176 2.18417E+01
 -1      4177 2.04965E+01
 -1      4178 1.46072E+01
 -1      4179 1.39154E+01
 -1      4180 1.38976E+01
 -1      4181 1.24381E+01
 -1      4182 1.45842E+01
 -1      4183 1.24381E+01
 -1      4184 1.12727E+01
 -1      4185 1.12727E+01
 -1      4186 1.25772E+01
 -1      4187 1.27640E+01
 -1      4188 1.49492E+01
 -1      4189 1.50362E+01
 -1      4190 2.20887E+01
 -1      4191 2.63529E+01
 -1      4192 1.67574E+01
 -1      4193 1.66415E+01
 -1      4194 1.49485E+01
 -1      4195 1.71761E+01
 -1      4196 1.66159E+01
 -1      4197 1.50308E+01
 -1      4198 2.43220E+01
 -1      4199 1.44711E+01
 -1      4200 1.43333E+01
 -1      4201 1.54357E+01
 -1      4202 2.08677E+01
 -1      4203 2.20565E+01
 -1      4204 1.67244E+01
 -1      4205 2.63671E+01
 -1      4206 1.72957E+01
 -1      4207 2.44416E+01
 -1      4208 2.07304E+01
 -1      4209 2.69337E+01
 -1      4210 2.66165E+01
 -1      4211 2.55296E+01
 -1      4212 1.33593E+01
 -1      4213 1.53120E+01
 -1      4214 1.53293E+01
 -1      4215 1.69694E+01
 -1      4216 1.58102E+01
 -1      4217 1.67169E+01
 -1      4218 1.53519E+01
 -1      4219 1.77182E+01
 -1      4220 1.49337E+01
 -1      4221 1.49107E+01
 -1      4222 2.56151E+01
 -1      4223 2.66083E+01
 -1      4224 2.06641E+01
 -1      4225 2.18667E+01
 -1      4226 2.18650E+01
 -1      4227 1.14006E+01
 -1      4228 8.81334E+00
 -1      4229 1.13946E+01
 -1      4230 8.28180E+00
 -1      4231 1.01950E+01
 -1      4232 1.88661E+01
 -1      4233 2.15243E+01
 -1      4234 9.82425E+00
 -1      4235 1.01231E+01
 -1      4236 2.57723E+01
 -1      4237 2.47875E+01
 -1      4238 2.49988E+01
 -1      4239 2.49988E+01
 -1      4240 2.48423E+01
 -1      4241 2.47662E+01
 -1      4242 9.82159E+00
 -1      4243 1.01071E+01
 -1      4244 1.02015E+01
 -1      4245 2.49988E+01
 -1      4246 2.56264E+01
 -1      4247 2.03666E+01
 -1      4248 2.03105E+01
 -1      4249 2.14899E+01
 -1      4250 1.43783E+01
 -1      4251 1.43333E+01
 -1      4252 1.52894E+01
 -1      4253 1.61376E+01
 -1      4254 1.49563E+01
 -1      4255 1.56047E+01
 -1      4256 1.70205E+01
 -1      4257 1.65378E+01
 -1      4258 1.67328E+01
 -1      4259 2.28065E+01
 -1      4260 2.88994E+01
 -1      4261 1.70249E+01
 -1      4262 2.66892E+01
 -1      4263 2.48651E+01
 -1      4264 2.30017E+01
 -1      4265 2.26923E+01
 -1      4266 1.99867E+01
 -1      4267 2.30017E+01
 -1      4268 9.91493E+00
 -1      4269 1.02873E+01
 -1      4270 1.86582E+01
 -1      4271 1.81582E+01
 -1      4272 2.70977E+01
 -1      4273 1.67203E+01
 -1      4274 2.29823E+01
 -1      4275 2.69830E+01
 -1      4276 2.16445E+01
 -1      4277 2.96580E+01
 -1      4278 2.25212E+01
 -1      4279 2.25212E+01
 -1      4280 2.46452E+01
 -1      4281 2.38605E+01
 -1      4282 2.01108E+01
 -1      4283 2.69986E+01
 -1      4284 2.69890E+01
 -1      4285 1.94937E+01
 -1      4286 2.70455E+01
 -1      4287 3.04934E+01
 -1      4288 2.15108E+01
 -1      4289 2.35541E+01
 -1      4290 2.35541E+01
 -1      4291 9.72976E+00
 -1      4292 9.73234E+00
 -1      4293 1.82587E+01
 -1      4294 1.86416E+01
 -1      4295 2.66892E+01
 -1      4296 2.50411E+01
 -1      4297 2.42968E+01
 -1      4298 2.52901E+01
 -1      4299 3.05379E+01
 -1      4300 2.28929E+01
 -1      4301 2.69192E+01
 -1      4302 2.23603E+01
 -1      4303 2.31435E+01
 -1      4304 1.83341E+01
 -1      4305 1.10480E+01
 -1      4306 1.93198E+01
 -1      4307 2.25212E+01
 -1      4308 2.25212E+01
 -1      4309 2.49957E+01
 -1      4310 2.49957E+01
 -1      4311 3.10703E+01
 -1      4312 3.62978E+01
 -1      4313 1.20290E+01
 -1      4314 1.19146E+01
 -1      4315 1.04079E+01
 -1      4316 2.19115E+01
 -1      4317 3.63723E+01
 -1      4318 2.96580E+01
 -1      4319 2.90466E+01
 -1      4320 2.96580E+01
 -1      4321 1.48763E+01
 -1      4322 1.85026E+01
 -1      4323 1.07908E+01
 -1      4324 2.93843E+01
 -1      4325 1.07874E+01
 -1      4326 1.86582E+01
 -1      4327 2.50703E+01
 -1      4328 3.03723E+01
 -1      4329 3.02977E+01
 -1      4330 1.09286E+01
 -1      4331 1.16981E+01
 -1      4332 1.23899E+01
 -1      4333 1.17048E+01
 -1      4334 1.23914E+01
 -1      4335 1.09316E+01
 -1      4336 1.32107E+01
 -1      4337 1.30239E+01
 -1      4338 1.26657E+01
 -1      4339 1.27896E+01
 -1      4340 1.31081E+01
 -1      4341 1.31081E+01
 -1      4342 2.57750E+01
 -1      4343 2.10408E+01
 -1      4344 2.15108E+01
 -1      4345 1.48521E+01
 -1      4346 1.52513E+01
 -1      4347 1.53384E+01
 -1      4348 1.74340E+01
 -1      4349 1.78367E+01
 -1      4350 1.79526E+01
 -1      4351 1.52983E+01
 -1      4352 1.48242E+01
 -1      4353 1.52160E+01
 -1      4354 2.57919E+01
 -1      4355 2.10131E+01
 -1      4356 2.14812E+01
 -1      4357 3.04934E+01
 -1      4358 2.35541E+01
 -1      4359 1.79426E+01
 -1      4360 1.74302E+01
 -1      4361 1.78340E+01
 -1      4362 2.39582E+01
 -1      4363 2.03666E+01
 -1      4364 2.00412E+01
 -1      4365 2.01686E+01
 -1      4366 1.71389E+01
 -1      4367 1.72586E+01
 -1      4368 1.67341E+01
 -1      4369 1.37282E+01
 -1      4370 2.16582E+01
 -1      4371 1.47712E+01
 -1      4372 1.76793E+01
 -1      4373 1.67475E+01
 -1      4374 1.98208E+01
 -1      4375 2.53177E+01
 -1      4376 1.98656E+01
 -1      4377 2.69192E+01
 -1      4378 2.31435E+01
 -1      4379 3.05379E+01
 -1      4380 2.00060E+01
 -1      4381 2.39110E+01
 -1      4382 2.03372E+01
 -1      4383 1.10334E+01
 -1      4384 1.02873E+01
 -1      4385 1.79318E+01
 -1      4386 2.35541E+01
 -1      4387 2.50687E+01
 -1      4388 1.17757E+01
 -1      4389 1.17757E+01
 -1      4390 1.12714E+01
 -1      4391 3.04934E+01
 -1      4392 2.96459E+01
 -1      4393 2.74226E+01
 -1      4394 2.77023E+01
 -1      4395 2.88994E+01
 -1      4396 1.80836E+01
 -1      4397 2.30991E+01
 -1      4398 2.96842E+01
 -1      4399 2.88994E+01
 -1      4400 2.53823E+01
 -1      4401 2.38605E+01
 -1      4402 2.46452E+01
 -1      4403 1.94354E+01
 -3
 9999
