    1C
    1UUSER                                                              
    1UDATE              28.august.2022                                  
    1UTIME              12:58:47                                        
    1UHOST                                                              
    1UPGM               CalculiX                                        
    1UVERSION           Version 2.19                             
    1UCOMPILETIME       Sat Dec 18 23:10:56     2021                    
    1UDIR                                                               
    1UDBN                                                               
    1UMAT    1STEEL                                                     
    2C                           467                                     1
 -1         1 0.00000E+00 0.00000E+00 1.00000E+01
 -1         2 0.00000E+00 0.00000E+00 0.00000E+00
 -1         3 0.00000E+00 1.00000E+01 1.00000E+01
 -1         4 0.00000E+00 1.00000E+01 0.00000E+00
 -1         5 1.00000E+02 0.00000E+00 1.00000E+01
 -1         6 1.00000E+02 0.00000E+00 0.00000E+00
 -1         7 1.00000E+02 1.00000E+01 1.00000E+01
 -1         8 1.00000E+02 1.00000E+01 0.00000E+00
 -1         9 0.00000E+00 0.00000E+00 5.00000E+00
 -1        10 0.00000E+00 5.00000E+00 1.00000E+01
 -1        11 0.00000E+00 1.00000E+01 5.00000E+00
 -1        12 0.00000E+00 5.00000E+00 0.00000E+00
 -1        13 1.00000E+02 0.00000E+00 5.00000E+00
 -1        14 1.00000E+02 5.00000E+00 1.00000E+01
 -1        15 1.00000E+02 1.00000E+01 5.00000E+00
 -1        16 1.00000E+02 5.00000E+00 0.00000E+00
 -1        17 1.00000E+01 0.00000E+00 0.00000E+00
 -1        18 2.00000E+01 0.00000E+00 0.00000E+00
 -1        19 3.00000E+01 0.00000E+00 0.00000E+00
 -1        20 4.00000E+01 0.00000E+00 0.00000E+00
 -1        21 5.00000E+01 0.00000E+00 0.00000E+00
 -1        22 6.00000E+01 0.00000E+00 0.00000E+00
 -1        23 7.00000E+01 0.00000E+00 0.00000E+00
 -1        24 8.00000E+01 0.00000E+00 0.00000E+00
 -1        25 9.00000E+01 0.00000E+00 0.00000E+00
 -1        26 5.00000E+00 0.00000E+00 0.00000E+00
 -1        27 1.50000E+01 0.00000E+00 0.00000E+00
 -1        28 2.50000E+01 0.00000E+00 0.00000E+00
 -1        29 3.50000E+01 0.00000E+00 0.00000E+00
 -1        30 4.50000E+01 0.00000E+00 0.00000E+00
 -1        31 5.50000E+01 0.00000E+00 0.00000E+00
 -1        32 6.50000E+01 0.00000E+00 0.00000E+00
 -1        33 7.50000E+01 0.00000E+00 0.00000E+00
 -1        34 8.50000E+01 0.00000E+00 0.00000E+00
 -1        35 9.50000E+01 0.00000E+00 0.00000E+00
 -1        36 1.00000E+01 0.00000E+00 1.00000E+01
 -1        37 2.00000E+01 0.00000E+00 1.00000E+01
 -1        38 3.00000E+01 0.00000E+00 1.00000E+01
 -1        39 4.00000E+01 0.00000E+00 1.00000E+01
 -1        40 5.00000E+01 0.00000E+00 1.00000E+01
 -1        41 6.00000E+01 0.00000E+00 1.00000E+01
 -1        42 7.00000E+01 0.00000E+00 1.00000E+01
 -1        43 8.00000E+01 0.00000E+00 1.00000E+01
 -1        44 9.00000E+01 0.00000E+00 1.00000E+01
 -1        45 5.00000E+00 0.00000E+00 1.00000E+01
 -1        46 1.50000E+01 0.00000E+00 1.00000E+01
 -1        47 2.50000E+01 0.00000E+00 1.00000E+01
 -1        48 3.50000E+01 0.00000E+00 1.00000E+01
 -1        49 4.50000E+01 0.00000E+00 1.00000E+01
 -1        50 5.50000E+01 0.00000E+00 1.00000E+01
 -1        51 6.50000E+01 0.00000E+00 1.00000E+01
 -1        52 7.50000E+01 0.00000E+00 1.00000E+01
 -1        53 8.50000E+01 0.00000E+00 1.00000E+01
 -1        54 9.50000E+01 0.00000E+00 1.00000E+01
 -1        55 1.00000E+01 1.00000E+01 0.00000E+00
 -1        56 2.00000E+01 1.00000E+01 0.00000E+00
 -1        57 3.00000E+01 1.00000E+01 0.00000E+00
 -1        58 4.00000E+01 1.00000E+01 0.00000E+00
 -1        59 5.00000E+01 1.00000E+01 0.00000E+00
 -1        60 6.00000E+01 1.00000E+01 0.00000E+00
 -1        61 7.00000E+01 1.00000E+01 0.00000E+00
 -1        62 8.00000E+01 1.00000E+01 0.00000E+00
 -1        63 9.00000E+01 1.00000E+01 0.00000E+00
 -1        64 5.00000E+00 1.00000E+01 0.00000E+00
 -1        65 1.50000E+01 1.00000E+01 0.00000E+00
 -1        66 2.50000E+01 1.00000E+01 0.00000E+00
 -1        67 3.50000E+01 1.00000E+01 0.00000E+00
 -1        68 4.50000E+01 1.00000E+01 0.00000E+00
 -1        69 5.50000E+01 1.00000E+01 0.00000E+00
 -1        70 6.50000E+01 1.00000E+01 0.00000E+00
 -1        71 7.50000E+01 1.00000E+01 0.00000E+00
 -1        72 8.50000E+01 1.00000E+01 0.00000E+00
 -1        73 9.50000E+01 1.00000E+01 0.00000E+00
 -1        74 1.00000E+01 1.00000E+01 1.00000E+01
 -1        75 2.00000E+01 1.00000E+01 1.00000E+01
 -1        76 3.00000E+01 1.00000E+01 1.00000E+01
 -1        77 4.00000E+01 1.00000E+01 1.00000E+01
 -1        78 5.00000E+01 1.00000E+01 1.00000E+01
 -1        79 6.00000E+01 1.00000E+01 1.00000E+01
 -1        80 7.00000E+01 1.00000E+01 1.00000E+01
 -1        81 8.00000E+01 1.00000E+01 1.00000E+01
 -1        82 9.00000E+01 1.00000E+01 1.00000E+01
 -1        83 5.00000E+00 1.00000E+01 1.00000E+01
 -1        84 1.50000E+01 1.00000E+01 1.00000E+01
 -1        85 2.50000E+01 1.00000E+01 1.00000E+01
 -1        86 3.50000E+01 1.00000E+01 1.00000E+01
 -1        87 4.50000E+01 1.00000E+01 1.00000E+01
 -1        88 5.50000E+01 1.00000E+01 1.00000E+01
 -1        89 6.50000E+01 1.00000E+01 1.00000E+01
 -1        90 7.50000E+01 1.00000E+01 1.00000E+01
 -1        91 8.50000E+01 1.00000E+01 1.00000E+01
 -1        92 9.50000E+01 1.00000E+01 1.00000E+01
 -1        93 0.00000E+00 5.00000E+00 5.00000E+00
 -1        94 0.00000E+00 2.50000E+00 7.50000E+00
 -1        95 0.00000E+00 2.50000E+00 2.50000E+00
 -1        96 0.00000E+00 7.50000E+00 7.50000E+00
 -1        97 0.00000E+00 7.50000E+00 2.50000E+00
 -1        98 1.00000E+02 5.00000E+00 5.00000E+00
 -1        99 1.00000E+02 2.50000E+00 2.50000E+00
 -1       100 1.00000E+02 2.50000E+00 7.50000E+00
 -1       101 1.00000E+02 7.50000E+00 7.50000E+00
 -1       102 1.00000E+02 7.50000E+00 2.50000E+00
 -1       103 1.50000E+01 0.00000E+00 5.00000E+00
 -1       104 2.50000E+01 0.00000E+00 5.00000E+00
 -1       105 3.50000E+01 0.00000E+00 5.00000E+00
 -1       106 4.50000E+01 0.00000E+00 5.00000E+00
 -1       107 5.50000E+01 0.00000E+00 5.00000E+00
 -1       108 6.50000E+01 0.00000E+00 5.00000E+00
 -1       109 7.50000E+01 0.00000E+00 5.00000E+00
 -1       110 8.50000E+01 0.00000E+00 5.00000E+00
 -1       111 5.00000E+00 0.00000E+00 5.00000E+00
 -1       112 9.50000E+01 0.00000E+00 5.00000E+00
 -1       113 2.50000E+00 0.00000E+00 2.50000E+00
 -1       114 2.50000E+00 0.00000E+00 7.50000E+00
 -1       115 7.50000E+00 0.00000E+00 7.50000E+00
 -1       116 7.50000E+00 0.00000E+00 2.50000E+00
 -1       117 9.75000E+01 0.00000E+00 7.50000E+00
 -1       118 9.75000E+01 0.00000E+00 2.50000E+00
 -1       119 9.25000E+01 0.00000E+00 7.50000E+00
 -1       120 9.25000E+01 0.00000E+00 2.50000E+00
 -1       121 1.75000E+01 0.00000E+00 2.50000E+00
 -1       122 1.25000E+01 0.00000E+00 2.50000E+00
 -1       123 1.00000E+01 0.00000E+00 5.00000E+00
 -1       124 1.25000E+01 0.00000E+00 7.50000E+00
 -1       125 2.75000E+01 0.00000E+00 2.50000E+00
 -1       126 2.25000E+01 0.00000E+00 2.50000E+00
 -1       127 2.00000E+01 0.00000E+00 5.00000E+00
 -1       128 1.75000E+01 0.00000E+00 7.50000E+00
 -1       129 2.25000E+01 0.00000E+00 7.50000E+00
 -1       130 3.75000E+01 0.00000E+00 2.50000E+00
 -1       131 3.25000E+01 0.00000E+00 2.50000E+00
 -1       132 3.00000E+01 0.00000E+00 5.00000E+00
 -1       133 2.75000E+01 0.00000E+00 7.50000E+00
 -1       134 3.25000E+01 0.00000E+00 7.50000E+00
 -1       135 4.75000E+01 0.00000E+00 2.50000E+00
 -1       136 4.25000E+01 0.00000E+00 2.50000E+00
 -1       137 4.00000E+01 0.00000E+00 5.00000E+00
 -1       138 3.75000E+01 0.00000E+00 7.50000E+00
 -1       139 4.25000E+01 0.00000E+00 7.50000E+00
 -1       140 5.75000E+01 0.00000E+00 2.50000E+00
 -1       141 5.25000E+01 0.00000E+00 2.50000E+00
 -1       142 5.00000E+01 0.00000E+00 5.00000E+00
 -1       143 4.75000E+01 0.00000E+00 7.50000E+00
 -1       144 5.25000E+01 0.00000E+00 7.50000E+00
 -1       145 6.75000E+01 0.00000E+00 2.50000E+00
 -1       146 6.25000E+01 0.00000E+00 2.50000E+00
 -1       147 6.00000E+01 0.00000E+00 5.00000E+00
 -1       148 5.75000E+01 0.00000E+00 7.50000E+00
 -1       149 6.25000E+01 0.00000E+00 7.50000E+00
 -1       150 7.75000E+01 0.00000E+00 2.50000E+00
 -1       151 7.25000E+01 0.00000E+00 2.50000E+00
 -1       152 7.00000E+01 0.00000E+00 5.00000E+00
 -1       153 6.75000E+01 0.00000E+00 7.50000E+00
 -1       154 7.25000E+01 0.00000E+00 7.50000E+00
 -1       155 8.75000E+01 0.00000E+00 2.50000E+00
 -1       156 8.25000E+01 0.00000E+00 2.50000E+00
 -1       157 8.00000E+01 0.00000E+00 5.00000E+00
 -1       158 7.75000E+01 0.00000E+00 7.50000E+00
 -1       159 8.25000E+01 0.00000E+00 7.50000E+00
 -1       160 9.00000E+01 0.00000E+00 5.00000E+00
 -1       161 8.75000E+01 0.00000E+00 7.50000E+00
 -1       162 2.50000E+01 1.00000E+01 5.00000E+00
 -1       163 3.50000E+01 1.00000E+01 5.00000E+00
 -1       164 4.50000E+01 1.00000E+01 5.00000E+00
 -1       165 5.50000E+01 1.00000E+01 5.00000E+00
 -1       166 6.50000E+01 1.00000E+01 5.00000E+00
 -1       167 7.50000E+01 1.00000E+01 5.00000E+00
 -1       168 8.50000E+01 1.00000E+01 5.00000E+00
 -1       169 5.00000E+00 1.00000E+01 5.00000E+00
 -1       170 9.50000E+01 1.00000E+01 5.00000E+00
 -1       171 1.50000E+01 1.00000E+01 5.00000E+00
 -1       172 2.50000E+00 1.00000E+01 7.50000E+00
 -1       173 2.50000E+00 1.00000E+01 2.50000E+00
 -1       174 7.50000E+00 1.00000E+01 7.50000E+00
 -1       175 7.50000E+00 1.00000E+01 2.50000E+00
 -1       176 9.75000E+01 1.00000E+01 2.50000E+00
 -1       177 9.75000E+01 1.00000E+01 7.50000E+00
 -1       178 9.25000E+01 1.00000E+01 7.50000E+00
 -1       179 9.25000E+01 1.00000E+01 2.50000E+00
 -1       180 1.25000E+01 1.00000E+01 2.50000E+00
 -1       181 1.75000E+01 1.00000E+01 2.50000E+00
 -1       182 1.00000E+01 1.00000E+01 5.00000E+00
 -1       183 1.25000E+01 1.00000E+01 7.50000E+00
 -1       184 2.25000E+01 1.00000E+01 2.50000E+00
 -1       185 2.75000E+01 1.00000E+01 2.50000E+00
 -1       186 2.25000E+01 1.00000E+01 7.50000E+00
 -1       187 2.00000E+01 1.00000E+01 5.00000E+00
 -1       188 1.75000E+01 1.00000E+01 7.50000E+00
 -1       189 3.25000E+01 1.00000E+01 2.50000E+00
 -1       190 3.75000E+01 1.00000E+01 2.50000E+00
 -1       191 2.75000E+01 1.00000E+01 7.50000E+00
 -1       192 3.00000E+01 1.00000E+01 5.00000E+00
 -1       193 3.25000E+01 1.00000E+01 7.50000E+00
 -1       194 4.25000E+01 1.00000E+01 2.50000E+00
 -1       195 4.75000E+01 1.00000E+01 2.50000E+00
 -1       196 3.75000E+01 1.00000E+01 7.50000E+00
 -1       197 4.00000E+01 1.00000E+01 5.00000E+00
 -1       198 4.25000E+01 1.00000E+01 7.50000E+00
 -1       199 5.25000E+01 1.00000E+01 2.50000E+00
 -1       200 5.75000E+01 1.00000E+01 2.50000E+00
 -1       201 4.75000E+01 1.00000E+01 7.50000E+00
 -1       202 5.00000E+01 1.00000E+01 5.00000E+00
 -1       203 5.25000E+01 1.00000E+01 7.50000E+00
 -1       204 6.25000E+01 1.00000E+01 2.50000E+00
 -1       205 6.75000E+01 1.00000E+01 2.50000E+00
 -1       206 5.75000E+01 1.00000E+01 7.50000E+00
 -1       207 6.00000E+01 1.00000E+01 5.00000E+00
 -1       208 6.25000E+01 1.00000E+01 7.50000E+00
 -1       209 7.25000E+01 1.00000E+01 2.50000E+00
 -1       210 7.75000E+01 1.00000E+01 2.50000E+00
 -1       211 6.75000E+01 1.00000E+01 7.50000E+00
 -1       212 7.00000E+01 1.00000E+01 5.00000E+00
 -1       213 7.25000E+01 1.00000E+01 7.50000E+00
 -1       214 8.25000E+01 1.00000E+01 2.50000E+00
 -1       215 8.75000E+01 1.00000E+01 2.50000E+00
 -1       216 7.75000E+01 1.00000E+01 7.50000E+00
 -1       217 8.00000E+01 1.00000E+01 5.00000E+00
 -1       218 8.25000E+01 1.00000E+01 7.50000E+00
 -1       219 8.75000E+01 1.00000E+01 7.50000E+00
 -1       220 9.00000E+01 1.00000E+01 5.00000E+00
 -1       221 9.50000E+01 5.00000E+00 0.00000E+00
 -1       222 1.50000E+01 5.00000E+00 0.00000E+00
 -1       223 2.50000E+01 5.00000E+00 0.00000E+00
 -1       224 3.50000E+01 5.00000E+00 0.00000E+00
 -1       225 4.50000E+01 5.00000E+00 0.00000E+00
 -1       226 5.50000E+01 5.00000E+00 0.00000E+00
 -1       227 5.00000E+00 5.00000E+00 0.00000E+00
 -1       228 6.50000E+01 5.00000E+00 0.00000E+00
 -1       229 7.50000E+01 5.00000E+00 0.00000E+00
 -1       230 8.50000E+01 5.00000E+00 0.00000E+00
 -1       231 2.50000E+00 7.50000E+00 0.00000E+00
 -1       232 2.50000E+00 2.50000E+00 0.00000E+00
 -1       233 7.50000E+00 2.50000E+00 0.00000E+00
 -1       234 7.50000E+00 7.50000E+00 0.00000E+00
 -1       235 9.75000E+01 2.50000E+00 0.00000E+00
 -1       236 9.75000E+01 7.50000E+00 0.00000E+00
 -1       237 9.25000E+01 2.50000E+00 0.00000E+00
 -1       238 9.25000E+01 7.50000E+00 0.00000E+00
 -1       239 1.25000E+01 2.50000E+00 0.00000E+00
 -1       240 1.75000E+01 2.50000E+00 0.00000E+00
 -1       241 1.00000E+01 5.00000E+00 0.00000E+00
 -1       242 1.25000E+01 7.50000E+00 0.00000E+00
 -1       243 2.25000E+01 2.50000E+00 0.00000E+00
 -1       244 2.75000E+01 2.50000E+00 0.00000E+00
 -1       245 2.00000E+01 5.00000E+00 0.00000E+00
 -1       246 1.75000E+01 7.50000E+00 0.00000E+00
 -1       247 2.25000E+01 7.50000E+00 0.00000E+00
 -1       248 3.25000E+01 2.50000E+00 0.00000E+00
 -1       249 3.75000E+01 2.50000E+00 0.00000E+00
 -1       250 3.00000E+01 5.00000E+00 0.00000E+00
 -1       251 2.75000E+01 7.50000E+00 0.00000E+00
 -1       252 3.25000E+01 7.50000E+00 0.00000E+00
 -1       253 4.25000E+01 2.50000E+00 0.00000E+00
 -1       254 4.75000E+01 2.50000E+00 0.00000E+00
 -1       255 4.00000E+01 5.00000E+00 0.00000E+00
 -1       256 3.75000E+01 7.50000E+00 0.00000E+00
 -1       257 4.25000E+01 7.50000E+00 0.00000E+00
 -1       258 5.25000E+01 2.50000E+00 0.00000E+00
 -1       259 5.75000E+01 2.50000E+00 0.00000E+00
 -1       260 5.00000E+01 5.00000E+00 0.00000E+00
 -1       261 4.75000E+01 7.50000E+00 0.00000E+00
 -1       262 5.25000E+01 7.50000E+00 0.00000E+00
 -1       263 6.25000E+01 2.50000E+00 0.00000E+00
 -1       264 6.75000E+01 2.50000E+00 0.00000E+00
 -1       265 6.00000E+01 5.00000E+00 0.00000E+00
 -1       266 5.75000E+01 7.50000E+00 0.00000E+00
 -1       267 6.25000E+01 7.50000E+00 0.00000E+00
 -1       268 7.25000E+01 2.50000E+00 0.00000E+00
 -1       269 7.75000E+01 2.50000E+00 0.00000E+00
 -1       270 7.00000E+01 5.00000E+00 0.00000E+00
 -1       271 6.75000E+01 7.50000E+00 0.00000E+00
 -1       272 7.25000E+01 7.50000E+00 0.00000E+00
 -1       273 8.25000E+01 2.50000E+00 0.00000E+00
 -1       274 8.75000E+01 2.50000E+00 0.00000E+00
 -1       275 8.00000E+01 5.00000E+00 0.00000E+00
 -1       276 7.75000E+01 7.50000E+00 0.00000E+00
 -1       277 8.25000E+01 7.50000E+00 0.00000E+00
 -1       278 9.00000E+01 5.00000E+00 0.00000E+00
 -1       279 8.75000E+01 7.50000E+00 0.00000E+00
 -1       280 5.00000E+00 5.00000E+00 1.00000E+01
 -1       281 2.50000E+01 5.00000E+00 1.00000E+01
 -1       282 3.50000E+01 5.00000E+00 1.00000E+01
 -1       283 4.50000E+01 5.00000E+00 1.00000E+01
 -1       284 5.50000E+01 5.00000E+00 1.00000E+01
 -1       285 6.50000E+01 5.00000E+00 1.00000E+01
 -1       286 7.50000E+01 5.00000E+00 1.00000E+01
 -1       287 8.50000E+01 5.00000E+00 1.00000E+01
 -1       288 9.50000E+01 5.00000E+00 1.00000E+01
 -1       289 1.50000E+01 5.00000E+00 1.00000E+01
 -1       290 2.50000E+00 2.50000E+00 1.00000E+01
 -1       291 2.50000E+00 7.50000E+00 1.00000E+01
 -1       292 7.50000E+00 2.50000E+00 1.00000E+01
 -1       293 7.50000E+00 7.50000E+00 1.00000E+01
 -1       294 9.75000E+01 7.50000E+00 1.00000E+01
 -1       295 9.75000E+01 2.50000E+00 1.00000E+01
 -1       296 9.25000E+01 2.50000E+00 1.00000E+01
 -1       297 9.25000E+01 7.50000E+00 1.00000E+01
 -1       298 1.75000E+01 2.50000E+00 1.00000E+01
 -1       299 1.25000E+01 2.50000E+00 1.00000E+01
 -1       300 1.00000E+01 5.00000E+00 1.00000E+01
 -1       301 1.25000E+01 7.50000E+00 1.00000E+01
 -1       302 2.75000E+01 2.50000E+00 1.00000E+01
 -1       303 2.25000E+01 2.50000E+00 1.00000E+01
 -1       304 2.25000E+01 7.50000E+00 1.00000E+01
 -1       305 2.00000E+01 5.00000E+00 1.00000E+01
 -1       306 1.75000E+01 7.50000E+00 1.00000E+01
 -1       307 3.75000E+01 2.50000E+00 1.00000E+01
 -1       308 3.25000E+01 2.50000E+00 1.00000E+01
 -1       309 2.75000E+01 7.50000E+00 1.00000E+01
 -1       310 3.00000E+01 5.00000E+00 1.00000E+01
 -1       311 3.25000E+01 7.50000E+00 1.00000E+01
 -1       312 4.75000E+01 2.50000E+00 1.00000E+01
 -1       313 4.25000E+01 2.50000E+00 1.00000E+01
 -1       314 3.75000E+01 7.50000E+00 1.00000E+01
 -1       315 4.00000E+01 5.00000E+00 1.00000E+01
 -1       316 4.25000E+01 7.50000E+00 1.00000E+01
 -1       317 5.75000E+01 2.50000E+00 1.00000E+01
 -1       318 5.25000E+01 2.50000E+00 1.00000E+01
 -1       319 4.75000E+01 7.50000E+00 1.00000E+01
 -1       320 5.00000E+01 5.00000E+00 1.00000E+01
 -1       321 5.25000E+01 7.50000E+00 1.00000E+01
 -1       322 6.75000E+01 2.50000E+00 1.00000E+01
 -1       323 6.25000E+01 2.50000E+00 1.00000E+01
 -1       324 5.75000E+01 7.50000E+00 1.00000E+01
 -1       325 6.00000E+01 5.00000E+00 1.00000E+01
 -1       326 6.25000E+01 7.50000E+00 1.00000E+01
 -1       327 7.75000E+01 2.50000E+00 1.00000E+01
 -1       328 7.25000E+01 2.50000E+00 1.00000E+01
 -1       329 6.75000E+01 7.50000E+00 1.00000E+01
 -1       330 7.00000E+01 5.00000E+00 1.00000E+01
 -1       331 7.25000E+01 7.50000E+00 1.00000E+01
 -1       332 8.75000E+01 2.50000E+00 1.00000E+01
 -1       333 8.25000E+01 2.50000E+00 1.00000E+01
 -1       334 7.75000E+01 7.50000E+00 1.00000E+01
 -1       335 8.00000E+01 5.00000E+00 1.00000E+01
 -1       336 8.25000E+01 7.50000E+00 1.00000E+01
 -1       337 8.75000E+01 7.50000E+00 1.00000E+01
 -1       338 9.00000E+01 5.00000E+00 1.00000E+01
 -1       339 1.00000E+01 5.00000E+00 5.00000E+00
 -1       340 9.00000E+01 5.00000E+00 5.00000E+00
 -1       341 2.25000E+01 5.00000E+00 2.50000E+00
 -1       342 2.50000E+01 5.00000E+00 5.00000E+00
 -1       343 2.00000E+01 7.50000E+00 7.50000E+00
 -1       344 2.00000E+01 2.50000E+00 7.50000E+00
 -1       345 1.75000E+01 2.50000E+00 5.00000E+00
 -1       346 4.50000E+01 7.50000E+00 2.50000E+00
 -1       347 4.50000E+01 7.50000E+00 7.50000E+00
 -1       348 4.50000E+01 5.00000E+00 5.00000E+00
 -1       349 4.75000E+01 7.50000E+00 5.00000E+00
 -1       350 3.75000E+01 5.00000E+00 7.50000E+00
 -1       351 3.75000E+01 2.50000E+00 5.00000E+00
 -1       352 3.50000E+01 7.50000E+00 2.50000E+00
 -1       353 4.00000E+01 5.00000E+00 5.00000E+00
 -1       354 4.00000E+01 2.50000E+00 2.50000E+00
 -1       355 1.50000E+01 2.50000E+00 2.50000E+00
 -1       356 1.50000E+01 2.50000E+00 7.50000E+00
 -1       357 1.50000E+01 5.00000E+00 5.00000E+00
 -1       358 2.50000E+01 2.50000E+00 2.50000E+00
 -1       359 2.50000E+01 7.50000E+00 2.50000E+00
 -1       360 2.25000E+01 5.00000E+00 7.50000E+00
 -1       361 2.50000E+01 2.50000E+00 7.50000E+00
 -1       362 2.50000E+01 7.50000E+00 7.50000E+00
 -1       363 4.25000E+01 7.50000E+00 5.00000E+00
 -1       364 4.50000E+01 2.50000E+00 2.50000E+00
 -1       365 4.25000E+01 5.00000E+00 2.50000E+00
 -1       366 4.50000E+01 2.50000E+00 7.50000E+00
 -1       367 2.75000E+01 5.00000E+00 7.50000E+00
 -1       368 2.75000E+01 2.50000E+00 5.00000E+00
 -1       369 3.50000E+01 5.00000E+00 5.00000E+00
 -1       370 3.25000E+01 2.50000E+00 5.00000E+00
 -1       371 3.50000E+01 7.50000E+00 7.50000E+00
 -1       372 3.25000E+01 5.00000E+00 7.50000E+00
 -1       373 6.50000E+01 2.50000E+00 7.50000E+00
 -1       374 6.25000E+01 5.00000E+00 7.50000E+00
 -1       375 6.50000E+01 7.50000E+00 7.50000E+00
 -1       376 6.50000E+01 5.00000E+00 5.00000E+00
 -1       377 4.00000E+01 7.50000E+00 7.50000E+00
 -1       378 1.50000E+01 7.50000E+00 2.50000E+00
 -1       379 1.50000E+01 7.50000E+00 7.50000E+00
 -1       380 1.75000E+01 7.50000E+00 5.00000E+00
 -1       381 3.50000E+01 2.50000E+00 2.50000E+00
 -1       382 3.50000E+01 2.50000E+00 7.50000E+00
 -1       383 5.50000E+01 7.50000E+00 7.50000E+00
 -1       384 5.50000E+01 5.00000E+00 5.00000E+00
 -1       385 5.50000E+01 7.50000E+00 2.50000E+00
 -1       386 5.25000E+01 7.50000E+00 5.00000E+00
 -1       387 7.50000E+01 5.00000E+00 5.00000E+00
 -1       388 7.75000E+01 5.00000E+00 2.50000E+00
 -1       389 7.50000E+01 7.50000E+00 7.50000E+00
 -1       390 7.75000E+01 7.50000E+00 5.00000E+00
 -1       391 7.50000E+01 2.50000E+00 7.50000E+00
 -1       392 7.25000E+01 5.00000E+00 7.50000E+00
 -1       393 6.00000E+01 2.50000E+00 2.50000E+00
 -1       394 6.00000E+01 7.50000E+00 2.50000E+00
 -1       395 6.25000E+01 5.00000E+00 2.50000E+00
 -1       396 7.00000E+01 2.50000E+00 7.50000E+00
 -1       397 7.00000E+01 7.50000E+00 7.50000E+00
 -1       398 8.50000E+01 5.00000E+00 5.00000E+00
 -1       399 8.25000E+01 7.50000E+00 5.00000E+00
 -1       400 8.50000E+01 2.50000E+00 2.50000E+00
 -1       401 8.25000E+01 5.00000E+00 2.50000E+00
 -1       402 8.50000E+01 2.50000E+00 7.50000E+00
 -1       403 7.50000E+01 2.50000E+00 2.50000E+00
 -1       404 7.50000E+01 7.50000E+00 2.50000E+00
 -1       405 6.75000E+01 7.50000E+00 5.00000E+00
 -1       406 7.25000E+01 5.00000E+00 2.50000E+00
 -1       407 4.75000E+01 2.50000E+00 5.00000E+00
 -1       408 5.75000E+01 7.50000E+00 5.00000E+00
 -1       409 6.50000E+01 7.50000E+00 2.50000E+00
 -1       410 6.50000E+01 2.50000E+00 2.50000E+00
 -1       411 6.75000E+01 5.00000E+00 2.50000E+00
 -1       412 5.50000E+01 2.50000E+00 7.50000E+00
 -1       413 5.25000E+01 5.00000E+00 7.50000E+00
 -1       414 5.50000E+01 2.50000E+00 2.50000E+00
 -1       415 5.75000E+01 2.50000E+00 5.00000E+00
 -1       416 8.50000E+01 7.50000E+00 7.50000E+00
 -1       417 8.50000E+01 7.50000E+00 2.50000E+00
 -1       418 2.75000E+01 7.50000E+00 5.00000E+00
 -1       419 7.75000E+01 5.00000E+00 7.50000E+00
 -1       420 8.00000E+01 2.50000E+00 7.50000E+00
 -1       421 3.00000E+01 5.00000E+00 5.00000E+00
 -1       422 5.00000E+01 2.50000E+00 7.50000E+00
 -1       423 5.00000E+01 5.00000E+00 5.00000E+00
 -1       424 8.25000E+01 2.50000E+00 5.00000E+00
 -1       425 6.75000E+01 2.50000E+00 5.00000E+00
 -1       426 9.75000E+01 5.00000E+00 2.50000E+00
 -1       427 9.75000E+01 7.50000E+00 5.00000E+00
 -1       428 9.50000E+01 7.50000E+00 2.50000E+00
 -1       429 9.50000E+01 2.50000E+00 2.50000E+00
 -1       430 9.50000E+01 5.00000E+00 5.00000E+00
 -1       431 9.75000E+01 2.50000E+00 5.00000E+00
 -1       432 2.50000E+00 5.00000E+00 7.50000E+00
 -1       433 2.50000E+00 7.50000E+00 5.00000E+00
 -1       434 5.00000E+00 7.50000E+00 7.50000E+00
 -1       435 5.00000E+00 2.50000E+00 7.50000E+00
 -1       436 5.00000E+00 5.00000E+00 5.00000E+00
 -1       437 2.50000E+00 2.50000E+00 5.00000E+00
 -1       438 5.00000E+00 7.50000E+00 2.50000E+00
 -1       439 2.50000E+00 5.00000E+00 2.50000E+00
 -1       440 5.00000E+00 2.50000E+00 2.50000E+00
 -1       441 9.50000E+01 7.50000E+00 7.50000E+00
 -1       442 9.75000E+01 5.00000E+00 7.50000E+00
 -1       443 9.50000E+01 2.50000E+00 7.50000E+00
 -1       444 1.25000E+01 7.50000E+00 5.00000E+00
 -1       445 1.25000E+01 5.00000E+00 7.50000E+00
 -1       446 1.25000E+01 5.00000E+00 2.50000E+00
 -1       447 1.25000E+01 2.50000E+00 5.00000E+00
 -1       448 7.50000E+00 7.50000E+00 5.00000E+00
 -1       449 7.50000E+00 2.50000E+00 5.00000E+00
 -1       450 7.50000E+00 5.00000E+00 7.50000E+00
 -1       451 7.50000E+00 5.00000E+00 2.50000E+00
 -1       452 8.75000E+01 5.00000E+00 2.50000E+00
 -1       453 8.75000E+01 5.00000E+00 7.50000E+00
 -1       454 8.75000E+01 7.50000E+00 5.00000E+00
 -1       455 8.75000E+01 2.50000E+00 5.00000E+00
 -1       456 9.25000E+01 7.50000E+00 5.00000E+00
 -1       457 9.25000E+01 2.50000E+00 5.00000E+00
 -1       458 9.25000E+01 5.00000E+00 2.50000E+00
 -1       459 9.25000E+01 5.00000E+00 7.50000E+00
 -1       460 1.00000E+01 7.50000E+00 7.50000E+00
 -1       461 1.00000E+01 2.50000E+00 7.50000E+00
 -1       462 1.00000E+01 7.50000E+00 2.50000E+00
 -1       463 1.00000E+01 2.50000E+00 2.50000E+00
 -1       464 9.00000E+01 7.50000E+00 2.50000E+00
 -1       465 9.00000E+01 2.50000E+00 2.50000E+00
 -1       466 9.00000E+01 2.50000E+00 7.50000E+00
 -1       467 9.00000E+01 7.50000E+00 7.50000E+00
 -3
    3C                           208                                     1
 -1       225    6    0    1
 -2       162        18       104       289       341       126       342       343       345       344
 -1       226    6    0    1
 -2       225       164       283        59       346       347       348       261       195       349
 -1       227    6    0    1
 -2       163        39       224       106       350       351       352       353       139       354
 -1       228    6    0    1
 -2       103        18       222       289       121       240       355       356       345       357
 -1       229    6    0    1
 -2       223        18       104       162       243       126       358       359       341       342
 -1       230    6    0    1
 -2       104       162        75       281       342       186       360       361       362       304
 -1       231    6    0    1
 -2       225       283        58       106       348       363       257       364       366       365
 -1       232    6    0    1
 -2        75       162       104       289       186       342       360       306       343       344
 -1       233    6    0    1
 -2       163        58       106       224       190       365       353       352       256       354
 -1       234    6    0    1
 -2       162       104        38       281       342       133       367       362       361       302
 -1       235    6    0    1
 -2       104       162        38       223       342       367       133       358       359       368
 -1       236    6    0    1
 -2       282       224        38       163       369       370       308       371       352       372
 -1       237    6    0    1
 -2       285       108        79       166       373       374       326       375       376       208
 -1       238    6    0    1
 -2       163       283       106        58       377       366       353       190       363       365
 -1       239    6    0    1
 -2       222        56       171       289       246       181       378       357       380       379
 -1       240    6    0    1
 -2       283       225        58       164       348       257       363       347       346       194
 -1       241    6    0    1
 -2       163        39       282       224       350       307       371       352       351       369
 -1       242    6    0    1
 -2       283        39       163       106       313       350       377       366       139       353
 -1       243    6    0    1
 -2       224       282        38       105       369       308       370       381       382       134
 -1       244    6    0    1
 -2       224        39       282       105       351       307       369       381       138       382
 -1       245    6    0    1
 -2       284        78       165       226       321       203       383       384       386       385
 -1       246    6    0    1
 -2       167       109        62       286       387       388       210       389       391       390
 -1       247    6    0    1
 -2        42       167       286       109       392       389       328       154       387       391
 -1       248    6    0    1
 -2       166       108       226        22       376       393       394       395       146       259
 -1       249    6    0    1
 -2        42       167       109       285       392       387       154       322       397       396
 -1       250    6    0    1
 -2       230       287        62       110       398       399       277       400       402       401
 -1       251    6    0    1
 -2       109       167        62       229       387       210       388       403       404       276
 -1       252    6    0    1
 -2       167       109       285        61       387       396       397       209       406       405
 -1       253    6    0    1
 -2       225       283       106        21       348       366       364       254       407       135
 -1       254    6    0    1
 -2       165        79       284       226       206       324       383       385       408       384
 -1       255    6    0    1
 -2       108        79       166       226       374       208       376       393       408       394
 -1       256    6    0    1
 -2       108       166       228        22       376       409       410       146       395       263
 -1       257    6    0    1
 -2       166       108        61       285       376       411       205       375       373       405
 -1       258    6    0    1
 -2        78       284       107       226       321       412       413       386       384       414
 -1       259    6    0    1
 -2        41       107       284       226       148       412       317       415       414       384
 -1       260    6    0    1
 -2        61       167       109       229       209       387       406       272       404       403
 -1       261    6    0    1
 -2       287       230        62       168       398       277       399       416       417       214
 -1       262    6    0    1
 -2       108       166        61       228       376       205       411       410       409       271
 -1       263    6    0    1
 -2       162        38       223        76       367       368       359       191       310       418
 -1       264    6    0    1
 -2        37        18       289       104       127       345       298       129       126       344
 -1       265    6    0    1
 -2       108        41       285        79       149       323       373       374       325       326
 -1       266    6    0    1
 -2        75        56       162       289       187       184       186       306       380       343
 -1       267    6    0    1
 -2        81        43       109       287       335       158       419       336       333       420
 -1       268    6    0    1
 -2        75       171        56       289       188       181       187       306       379       380
 -1       269    6    0    1
 -2        56       222        18       289       246       240       245       380       357       345
 -1       270    6    0    1
 -2        56        18       162       289       245       341       184       380       345       343
 -1       271    6    0    1
 -2       282        76       163        38       311       193       371       308       310       372
 -1       272    6    0    1
 -2        39        20       224       106       137       249       351       139       136       354
 -1       273    6    0    1
 -2        18       223        56       162       243       247       245       341       359       184
 -1       274    6    0    1
 -2        60       166        79       226       204       208       207       266       394       408
 -1       275    6    0    1
 -2        20        58       224       106       255       256       249       136       365       354
 -1       276    6    0    1
 -2       283       225        59        21       348       261       349       407       254       260
 -1       277    6    0    1
 -2        18        37       289       103       127       298       345       121       128       356
 -1       278    6    0    1
 -2       162       223        57        76       359       251       185       191       418       192
 -1       279    6    0    1
 -2        77        39       163       283       315       350       196       316       313       377
 -1       280    6    0    1
 -2       163        57       224        38       189       252       352       372       421       370
 -1       281    6    0    1
 -2        20        58       106       225       255       365       136       253       257       364
 -1       282    6    0    1
 -2       223       104        19        38       358       125       244       368       133       132
 -1       283    6    0    1
 -2       162        38        76       281       367       310       191       362       302       309
 -1       284    6    0    1
 -2        75        37       104       281       305       129       360       304       303       361
 -1       285    6    0    1
 -2       167        81       286        62       216       334       389       210       217       390
 -1       286    6    0    1
 -2       163       283        58        77       377       363       190       196       316       197
 -1       287    6    0    1
 -2        39        77       163       282       315       196       350       307       314       371
 -1       288    6    0    1
 -2       105       224        19        38       381       248       131       134       370       132
 -1       289    6    0    1
 -2        21        40       283       106       142       312       407       135       143       366
 -1       290    6    0    1
 -2        20        39       224       105       137       351       249       130       138       381
 -1       291    6    0    1
 -2        78       107       283        21       413       422       319       423       141       407
 -1       292    6    0    1
 -2        40        78       107       283       320       413       144       312       319       422
 -1       293    6    0    1
 -2        78        40       107       284       320       144       413       321       318       412
 -1       294    6    0    1
 -2        40        21       283       107       142       407       312       144       141       422
 -1       295    6    0    1
 -2        79        41       284       226       325       317       324       408       415       384
 -1       296    6    0    1
 -2        42        80       167       285       330       213       392       322       329       397
 -1       297    6    0    1
 -2       229       109        61        23       403       406       272       268       151       270
 -1       298    6    0    1
 -2        78       283       164        59       319       347       201       202       349       195
 -1       299    6    0    1
 -2        43        81       109       286       335       419       158       327       334       391
 -1       300    6    0    1
 -2       287        81       168        62       336       218       416       399       217       214
 -1       301    6    0    1
 -2        80        42       167       286       330       392       213       331       328       389
 -1       302    6    0    1
 -2        81       109       286        62       419       391       334       217       388       390
 -1       303    6    0    1
 -2        59       165        78       226       199       203       202       262       385       386
 -1       304    6    0    1
 -2        80        61       167       285       212       209       213       329       405       397
 -1       305    6    0    1
 -2       228       166        60        22       409       204       267       263       395       265
 -1       306    6    0    1
 -2        79       108        41       226       374       149       325       408       393       415
 -1       307    6    0    1
 -2        79       165        60       226       206       200       207       408       385       266
 -1       308    6    0    1
 -2        80        61       285       166       212       405       329       211       205       375
 -1       309    6    0    1
 -2        43        24       287       110       157       424       333       159       156       402
 -1       310    6    0    1
 -2       107        78       226        21       413       386       414       141       423       258
 -1       311    6    0    1
 -2       108        61        23       228       411       270       145       410       271       264
 -1       312    6    0    1
 -2       108        61       285        23       411       405       373       145       270       425
 -1       313    6    0    1
 -2       287        24       109        62       424       150       420       399       275       388
 -1       314    6    0    1
 -2       226        60       166        22       266       204       394       259       265       395
 -1       315    6    0    1
 -2        42        23       285       109       152       425       322       154       151       396
 -1       316    6    0    1
 -2        61       109       285        23       406       396       405       270       151       425
 -1       317    6    0    1
 -2       226       108        41        22       393       149       415       259       146       147
 -1       318    6    0    1
 -2       226        41       107        22       415       148       414       259       147       140
 -1       319    6    0    1
 -2        24       109        62       229       150       388       275       269       403       276
 -1       320    6    0    1
 -2        81       109        62       287       419       388       217       336       420       399
 -1       321    6    0    1
 -2        24        43       287       109       157       333       424       150       158       420
 -1       322    6    0    1
 -2       287        24        62       110       424       275       399       402       156       401
 -1       323    6    0    1
 -2       110        62       230        24       401       277       400       156       275       273
 -1       324    6    0    1
 -2        58       283       164        77       363       347       194       197       316       198
 -1       325    6    0    1
 -2        75        37       289       104       305       298       306       360       129       344
 -1       326    6    0    1
 -2        42        23       108       285       152       145       153       322       425       373
 -1       327    6    0    1
 -2        57        19        38       223       250       132       421       251       244       368
 -1       328    6    0    1
 -2        76       223        57        38       418       251       192       310       368       421
 -1       329    6    0    1
 -2        57       163        76        38       189       193       192       421       372       310
 -1       330    6    0    1
 -2        19        57        38       224       250       421       132       248       252       370
 -1       331    6    0    1
 -2        59        78       283        21       202       319       349       260       423       407
 -1       332    6    0    1
 -2       226        78        59        21       386       202       262       258       423       260
 -1       333    6    0    1
 -2       221        98       170       112       426       427       428       429       431       430
 -1       334    6    0    1
 -2       280        93       169       111       432       433       434       435       437       436
 -1       335    6    0    1
 -2       227       169        93       111       438       433       439       440       436       437
 -1       336    6    0    1
 -2       288       170        98       112       441       427       442       443       430       431
 -1       337    6    0    1
 -2       171       222       289       339       378       357       379       444       446       445
 -1       338    6    0    1
 -2       222       103       289       339       355       356       357       446       447       445
 -1       339    6    0    1
 -2       169       280       111       339       434       435       436       448       450       449
 -1       340    6    0    1
 -2       227       169       111       339       438       436       440       451       448       449
 -1       341    6    0    1
 -2       230       168       287       340       417       416       398       452       454       453
 -1       342    6    0    1
 -2       110       230       287       340       400       398       402       455       452       453
 -1       343    6    0    1
 -2       170       221       112       340       428       429       430       456       458       457
 -1       344    6    0    1
 -2       288       170       112       340       441       430       443       459       456       457
 -1       345    6    0    1
 -2        19        18       104       223        28       126       125       244       243       358
 -1       346    6    0    1
 -2        18        17       103       222        27       122       121       240       239       355
 -1       347    6    0    1
 -2         4         2       227        93        12       232       231        97        95       439
 -1       348    6    0    1
 -2        75        74       171       289        84       183       188       306       301       379
 -1       349    6    0    1
 -2        56        55       222       171        65       242       246       181       180       378
 -1       350    6    0    1
 -2        36       103       289        37       124       356       299        46       128       298
 -1       351    6    0    1
 -2         7         5       288        98        14       295       294       101       100       442
 -1       352    6    0    1
 -2        20       225       106        21       253       364       136        30       254       135
 -1       353    6    0    1
 -2       225        58       164        59       257       194       346       261        68       195
 -1       354    6    0    1
 -2        77        76       163       282        86       193       196       314       311       371
 -1       355    6    0    1
 -2        55         4       227       169        64       231       234       175       173       438
 -1       356    6    0    1
 -2        56       223        57       162       247       251        66       184       359       185
 -1       357    6    0    1
 -2        58        57       224       163        67       252       256       190       189       352
 -1       358    6    0    1
 -2        93         3         1       280        96        10        94       432       291       290
 -1       359    6    0    1
 -2         3         4       169        93        11       173       172        96        97       433
 -1       360    6    0    1
 -2        19        20       224       105        29       249       248       131       130       381
 -1       361    6    0    1
 -2        76        75       162       281        85       186       191       309       304       362
 -1       362    6    0    1
 -2        93         1         2       111        94         9        95       437       114       113
 -1       363    6    0    1
 -2         3       169        74       280       172       174        83       291       434       293
 -1       364    6    0    1
 -2       227         2        17       111       232        26       233       440       113       116
 -1       365    6    0    1
 -2        36         1       280       111        45       290       292       115       114       435
 -1       366    6    0    1
 -2        40       283       106        39       312       366       143        49       313       139
 -1       367    6    0    1
 -2        37       104       281        38       129       361       303        47       133       302
 -1       368    6    0    1
 -2       282       105        39        38       382       138       307       308       134        48
 -1       369    6    0    1
 -2        98         8         6       221       102        16        99       426       236       235
 -1       370    6    0    1
 -2        40        41       107       284        50       148       144       318       317       412
 -1       371    6    0    1
 -2        42        41       285       108        51       323       322       153       149       373
 -1       372    6    0    1
 -2        60        61       166       228        70       205       204       267       271       409
 -1       373    6    0    1
 -2       107       226        22        21       414       259       140       141       258        31
 -1       374    6    0    1
 -2       287        44        43       110       332        53       333       402       161       159
 -1       375    6    0    1
 -2         6         5        98       112        13       100        99       118       117       431
 -1       376    6    0    1
 -2        43       109        42       286       158       154        52       327       391       328
 -1       377    6    0    1
 -2        80       285        79       166       329       326        89       211       375       208
 -1       378    6    0    1
 -2       164        77       283        78       198       316       347       201        87       319
 -1       379    6    0    1
 -2        62        63       168       230        72       215       214       277       279       417
 -1       380    6    0    1
 -2       284        78        79       165       321        88       324       383       203       206
 -1       381    6    0    1
 -2       287        81        82       168       336        91       337       416       218       219
 -1       382    6    0    1
 -2        82         7       288       170        92       294       297       178       177       441
 -1       383    6    0    1
 -2       286        80        81       167       331        90       334       389       213       216
 -1       384    6    0    1
 -2       170         8         7        98       176        15       177       427       102       101
 -1       385    6    0    1
 -2        59        60       165       226        69       200       199       262       266       385
 -1       386    6    0    1
 -2        61        62       167       229        71       210       209       272       276       404
 -1       387    6    0    1
 -2         8       170        63       221       176       179        73       236       428       238
 -1       388    6    0    1
 -2       112       221         6        25       429       235       118       120       237        35
 -1       389    6    0    1
 -2        23       108       228        22       145       410       264        32       146       263
 -1       390    6    0    1
 -2        23       229       109        24       268       403       151        33       269       150
 -1       391    6    0    1
 -2         5        44       288       112        54       296       295       117       119       443
 -1       392    6    0    1
 -2        25       110       230        24       155       400       274        34       156       273
 -1       393    6    0    1
 -2        74       289        36       339       301       299       300       460       445       461
 -1       394    6    0    1
 -2        55       171        74       339       180       183       182       462       444       460
 -1       395    6    0    1
 -2        17       222        55       339       239       242       241       463       446       462
 -1       396    6    0    1
 -2        36        17       111       339       123       116       115       461       463       449
 -1       397    6    0    1
 -2        36       280        74       339       292       293       300       461       450       460
 -1       398    6    0    1
 -2        74       169        55       339       174       175       182       460       448       462
 -1       399    6    0    1
 -2        55       227        17       339       234       233       241       462       451       463
 -1       400    6    0    1
 -2        36       103        17       339       124       122       123       461       447       463
 -1       401    6    0    1
 -2       230        25        63       340       274       278       279       452       465       464
 -1       402    6    0    1
 -2        44       112        25       340       119       120       160       466       457       465
 -1       403    6    0    1
 -2        82       168        63       340       219       215       220       467       454       464
 -1       404    6    0    1
 -2        44       287        82       340       332       337       338       466       453       467
 -1       405    6    0    1
 -2        63        25       221       340       278       237       238       464       465       458
 -1       406    6    0    1
 -2        25       110        44       340       155       161       160       465       455       466
 -1       407    6    0    1
 -2        63       170        82       340       179       178       220       464       456       467
 -1       408    6    0    1
 -2        82       288        44       340       297       296       338       467       459       466
 -1       409    6    0    1
 -2        98       170         8       221       427       176       102       426       428       236
 -1       410    6    0    1
 -2       169         4       227        93       173       231       438       433        97       439
 -1       411    6    0    1
 -2       221         6        98       112       235        99       426       429       118       431
 -1       412    6    0    1
 -2       170         7       288        98       177       294       441       427       101       442
 -1       413    6    0    1
 -2         2       227        93       111       232       439        95       113       440       437
 -1       414    6    0    1
 -2        93       169         3       280       433       172        96       432       434       291
 -1       415    6    0    1
 -2         1        93       280       111        94       432       290       114       437       435
 -1       416    6    0    1
 -2        98         5       288       112       100       295       442       431       117       443
 -1       417    6    0    1
 -2       289        74       171       339       301       183       379       445       460       444
 -1       418    6    0    1
 -2       171        55       222       339       180       242       378       444       462       446
 -1       419    6    0    1
 -2        36       289       103       339       299       356       124       461       445       447
 -1       420    6    0    1
 -2        36       111       280       339       115       435       292       461       449       450
 -1       421    6    0    1
 -2       227       111        17       339       440       116       233       451       449       463
 -1       422    6    0    1
 -2       222        17       103       339       239       122       355       446       463       447
 -1       423    6    0    1
 -2       169        74       280       339       174       293       434       448       460       450
 -1       424    6    0    1
 -2       227        55       169       339       234       175       438       451       462       448
 -1       425    6    0    1
 -2       230        63       168       340       279       215       417       452       464       454
 -1       426    6    0    1
 -2       168        82       287       340       219       337       416       454       467       453
 -1       427    6    0    1
 -2       110        25       230       340       155       274       400       455       465       452
 -1       428    6    0    1
 -2       112       221        25       340       429       237       120       457       458       465
 -1       429    6    0    1
 -2        44       110       287       340       161       402       332       466       455       453
 -1       430    6    0    1
 -2        44       288       112       340       296       443       119       466       459       457
 -1       431    6    0    1
 -2       170        63       221       340       179       238       428       456       464       458
 -1       432    6    0    1
 -2       288        82       170       340       297       178       441       459       467       456
 -3
    1PSTEP                         1           1           1          
  100CL  101 3.40000E-01         467                     0    1           1
 -4  DISP        4    1
 -5  D1          1    2    1    0
 -5  D2          1    2    2    0
 -5  D3          1    2    3    0
 -5  ALL         1    2    0    0    1ALL
 -1         1 0.00000E+00 0.00000E+00 0.00000E+00
 -1         2 0.00000E+00 0.00000E+00 0.00000E+00
 -1         3 0.00000E+00 0.00000E+00 0.00000E+00
 -1         4 0.00000E+00 0.00000E+00 0.00000E+00
 -1         5-2.67707E-02 1.27729E+01-2.86527E-04
 -1         6-2.67562E-02 1.27729E+01 6.94771E-04
 -1         7-1.91846E+00 1.25921E+01 4.91278E-04
 -1         8-1.91845E+00 1.25921E+01-1.11974E-04
 -1         9 0.00000E+00 0.00000E+00 0.00000E+00
 -1        10 0.00000E+00 0.00000E+00 0.00000E+00
 -1        11 0.00000E+00 0.00000E+00 0.00000E+00
 -1        12 0.00000E+00 0.00000E+00 0.00000E+00
 -1        13-2.58262E-02 1.27734E+01 2.05203E-04
 -1        14-9.72443E-01 1.26816E+01 1.03057E-04
 -1        15-1.91952E+00 1.25923E+01 1.88977E-04
 -1        16-9.72430E-01 1.26816E+01 2.91004E-04
 -1        17 1.71587E-01 1.84954E-01 2.49315E-02
 -1        18 3.19147E-01 7.19224E-01 2.27652E-02
 -1        19 4.27549E-01 1.56236E+00 2.00114E-02
 -1        20 4.90083E-01 2.67462E+00 1.73880E-02
 -1        21 5.05548E-01 4.01628E+00 1.42934E-02
 -1        22 4.74911E-01 5.54603E+00 1.16037E-02
 -1        23 4.01851E-01 7.22514E+00 8.75953E-03
 -1        24 2.89560E-01 9.01481E+00 5.83638E-03
 -1        25 1.44095E-01 1.08764E+01 3.16310E-03
 -1        26 8.76026E-02 4.96340E-02 2.49341E-02
 -1        27 2.50139E-01 4.11185E-01 2.43218E-02
 -1        28 3.78945E-01 1.10456E+00 2.14747E-02
 -1        29 4.64848E-01 2.08767E+00 1.86790E-02
 -1        30 5.04055E-01 3.31953E+00 1.60237E-02
 -1        31 4.96516E-01 4.76042E+00 1.30125E-02
 -1        32 4.43578E-01 6.36962E+00 1.01890E-02
 -1        33 3.50213E-01 8.10863E+00 7.32234E-03
 -1        34 2.20684E-01 9.93874E+00 4.76027E-03
 -1        35 6.17316E-02 1.18226E+01 1.77607E-03
 -1        36 1.71621E-01 1.84917E-01-2.49144E-02
 -1        37 3.19308E-01 7.18931E-01-2.31802E-02
 -1        38 4.27503E-01 1.56233E+00-2.02234E-02
 -1        39 4.89650E-01 2.67466E+00-1.70029E-02
 -1        40 5.05997E-01 4.01600E+00-1.46394E-02
 -1        41 4.75472E-01 5.54630E+00-1.15084E-02
 -1        42 4.01160E-01 7.22499E+00-8.74853E-03
 -1        43 2.89107E-01 9.01474E+00-5.52980E-03
 -1        44 1.44108E-01 1.08765E+01-2.79623E-03
 -1        45 8.76020E-02 4.96290E-02-2.49303E-02
 -1        46 2.50309E-01 4.11184E-01-2.43433E-02
 -1        47 3.78763E-01 1.10436E+00-2.17330E-02
 -1        48 4.64638E-01 2.08768E+00-1.88108E-02
 -1        49 5.04252E-01 3.31962E+00-1.59551E-02
 -1        50 4.96501E-01 4.76013E+00-1.31650E-02
 -1        51 4.43934E-01 6.36964E+00-1.01382E-02
 -1        52 3.49818E-01 8.10846E+00-7.17570E-03
 -1        53 2.20772E-01 9.93878E+00-4.35197E-03
 -1        54 6.17170E-02 1.18226E+01-1.37910E-03
 -1        55-1.78420E-01 1.78130E-01-2.51367E-02
 -1        56-3.56755E-01 6.95702E-01-2.31193E-02
 -1        57-5.35076E-01 1.51545E+00-2.01828E-02
 -1        58-7.20081E-01 2.60123E+00-1.74681E-02
 -1        59-9.14213E-01 3.91470E+00-1.42210E-02
 -1        60-1.11461E+00 5.41877E+00-1.16057E-02
 -1        61-1.32040E+00 7.07568E+00-8.60467E-03
 -1        62-1.52703E+00 8.84779E+00-5.47899E-03
 -1        63-1.72830E+00 1.06994E+01-2.59862E-03
 -1        64-8.95328E-02 4.72542E-02-2.53267E-02
 -1        65-2.68078E-01 3.96980E-01-2.44571E-02
 -1        66-4.45870E-01 1.06985E+00-2.17040E-02
 -1        67-6.27337E-01 2.02734E+00-1.85962E-02
 -1        68-8.16262E-01 3.23150E+00-1.56632E-02
 -1        69-1.01389E+00 4.64530E+00-1.27910E-02
 -1        70-1.21711E+00 6.23038E+00-1.00430E-02
 -1        71-1.42401E+00 7.94963E+00-7.08738E-03
 -1        72-1.62882E+00 9.76608E+00-4.17768E-03
 -1        73-1.82547E+00 1.16427E+01-1.20475E-03
 -1        74-1.78460E-01 1.78092E-01 2.50965E-02
 -1        75-3.56027E-01 6.95267E-01 2.32817E-02
 -1        76-5.36186E-01 1.51517E+00 2.04716E-02
 -1        77-7.20631E-01 2.60131E+00 1.71449E-02
 -1        78-9.13440E-01 3.91468E+00 1.44302E-02
 -1        79-1.11458E+00 5.41885E+00 1.14144E-02
 -1        80-1.32043E+00 7.07552E+00 8.75195E-03
 -1        81-1.52643E+00 8.84804E+00 5.62141E-03
 -1        82-1.72834E+00 1.06994E+01 2.97628E-03
 -1        83-8.95315E-02 4.72504E-02 2.53212E-02
 -1        84-2.68171E-01 3.97088E-01 2.44467E-02
 -1        85-4.45575E-01 1.06978E+00 2.16797E-02
 -1        86-6.27526E-01 2.02730E+00 1.86027E-02
 -1        87-8.16464E-01 3.23148E+00 1.58411E-02
 -1        88-1.01346E+00 4.64519E+00 1.29447E-02
 -1        89-1.21748E+00 6.23049E+00 9.97206E-03
 -1        90-1.42397E+00 7.94967E+00 7.26702E-03
 -1        91-1.62885E+00 9.76607E+00 4.48881E-03
 -1        92-1.82548E+00 1.16427E+01 1.57631E-03
 -1        93 0.00000E+00 0.00000E+00 0.00000E+00
 -1        94 0.00000E+00 0.00000E+00 0.00000E+00
 -1        95 0.00000E+00 0.00000E+00 0.00000E+00
 -1        96 0.00000E+00 0.00000E+00 0.00000E+00
 -1        97 0.00000E+00 0.00000E+00 0.00000E+00
 -1        98-9.72562E-01 1.26823E+01 1.96948E-04
 -1        99-5.00045E-01 1.27275E+01 2.20905E-04
 -1       100-5.00051E-01 1.27275E+01 1.80137E-04
 -1       101-1.44512E+00 1.26373E+01 1.19289E-04
 -1       102-1.44511E+00 1.26373E+01 2.67515E-04
 -1       103 2.49994E-01 4.23382E-01 3.07272E-05
 -1       104 3.78238E-01 1.11546E+00 4.53363E-05
 -1       105 4.64204E-01 2.09704E+00-1.30985E-04
 -1       106 5.03702E-01 3.32783E+00 8.44654E-05
 -1       107 4.96115E-01 4.76697E+00-5.24416E-05
 -1       108 4.43391E-01 6.37488E+00-6.81713E-05
 -1       109 3.49890E-01 8.11211E+00 1.50982E-05
 -1       110 2.20552E-01 9.94091E+00 1.38844E-04
 -1       111 8.50265E-02 6.02020E-02 2.13134E-06
 -1       112 6.16484E-02 1.18234E+01 1.98181E-04
 -1       113 4.00975E-02 2.28007E-02 5.98121E-03
 -1       114 4.00969E-02 2.27999E-02-5.98051E-03
 -1       115 1.29480E-01 1.15436E-01-1.33554E-02
 -1       116 1.29475E-01 1.15448E-01 1.33675E-02
 -1       117 1.83494E-02 1.22978E+01-4.14421E-04
 -1       118 1.83574E-02 1.22978E+01 8.18974E-04
 -1       119 1.03822E-01 1.13496E+01-8.61537E-04
 -1       120 1.03825E-01 1.13496E+01 1.24399E-03
 -1       121 2.85621E-01 5.64121E-01 1.17041E-02
 -1       122 2.11799E-01 2.97034E-01 1.22910E-02
 -1       123 1.71819E-01 1.98408E-01 1.62696E-05
 -1       124 2.11876E-01 2.97030E-01-1.22226E-02
 -1       125 4.04210E-01 1.33235E+00 1.02915E-02
 -1       126 3.49748E-01 9.10941E-01 1.10790E-02
 -1       127 3.18847E-01 7.30751E-01-2.59205E-04
 -1       128 2.85862E-01 5.64038E-01-1.18219E-02
 -1       129 3.49654E-01 9.10729E-01-1.14607E-02
 -1       130 4.78556E-01 2.38059E+00 8.93063E-03
 -1       131 4.47185E-01 1.82437E+00 9.60192E-03
 -1       132 4.26679E-01 1.57236E+00-9.77149E-05
 -1       133 4.03776E-01 1.33257E+00-1.02366E-02
 -1       134 4.47056E-01 1.82423E+00-9.89502E-03
 -1       135 5.05934E-01 3.66750E+00 7.51058E-03
 -1       136 4.97921E-01 2.99648E+00 8.53387E-03
 -1       137 4.89373E-01 2.68354E+00 1.65114E-04
 -1       138 4.78278E-01 2.38059E+00-8.95155E-03
 -1       139 4.97857E-01 2.99642E+00-8.17118E-03
 -1       140 4.86993E-01 5.15300E+00 6.10474E-03
 -1       141 5.02030E-01 4.38775E+00 6.81685E-03
 -1       142 5.05367E-01 4.02355E+00-2.03935E-04
 -1       143 5.06242E-01 3.66743E+00-7.56645E-03
 -1       144 5.02081E-01 4.38765E+00-7.15828E-03
 -1       145 4.23368E-01 6.79735E+00 4.45121E-03
 -1       146 4.59951E-01 5.95743E+00 5.70755E-03
 -1       147 4.74751E-01 5.55213E+00 2.27444E-04
 -1       148 4.86930E-01 5.15304E+00-6.06101E-03
 -1       149 4.60476E-01 5.95769E+00-5.46749E-03
 -1       150 3.20516E-01 8.56152E+00 3.23334E-03
 -1       151 3.76673E-01 7.66661E+00 4.10659E-03
 -1       152 4.01058E-01 7.22957E+00-1.90361E-04
 -1       153 4.23702E-01 6.79726E+00-4.66902E-03
 -1       154 3.76233E-01 7.66637E+00-4.27524E-03
 -1       155 1.83388E-01 1.04077E+01 2.09344E-03
 -1       156 2.55662E-01 9.47649E+00 2.89596E-03
 -1       157 2.89002E-01 9.01749E+00 2.99645E-04
 -1       158 3.20205E-01 8.56156E+00-2.89727E-03
 -1       159 2.55950E-01 9.47668E+00-2.41136E-03
 -1       160 1.44714E-01 1.08781E+01 1.80676E-04
 -1       161 1.83435E-01 1.04077E+01-1.77014E-03
 -1       162-4.47164E-01 1.08085E+00-1.24452E-04
 -1       163-6.29034E-01 2.03616E+00 6.79499E-05
 -1       164-8.17966E-01 3.23926E+00 1.48435E-04
 -1       165-1.01507E+00 4.65156E+00 8.23494E-05
 -1       166-1.21847E+00 6.23563E+00 1.02444E-04
 -1       167-1.42504E+00 7.95351E+00-3.38794E-05
 -1       168-1.62975E+00 9.76814E+00 1.51964E-04
 -1       169-8.72529E-02 5.79151E-02-2.77878E-06
 -1       170-1.82570E+00 1.16435E+01 1.85998E-04
 -1       171-2.69236E-01 4.09239E-01-4.22742E-05
 -1       172-4.07634E-02 2.19322E-02 6.25443E-03
 -1       173-4.07642E-02 2.19329E-02-6.25469E-03
 -1       174-1.33834E-01 1.11063E-01 1.36223E-02
 -1       175-1.33827E-01 1.11075E-01-1.36422E-02
 -1       176-1.87279E+00 1.21172E+01-3.37627E-04
 -1       177-1.87280E+00 1.21172E+01 7.11592E-04
 -1       178-1.77780E+00 1.11708E+01 1.14244E-03
 -1       179-1.77778E+00 1.11708E+01-7.68143E-04
 -1       180-2.24174E-01 2.86687E-01-1.24462E-02
 -1       181-3.13225E-01 5.45495E-01-1.19117E-02
 -1       182-1.79716E-01 1.91422E-01-2.27884E-05
 -1       183-2.24261E-01 2.86719E-01 1.23534E-02
 -1       184-4.01982E-01 8.81962E-01-1.13270E-02
 -1       185-4.91615E-01 1.29173E+00-1.05491E-02
 -1       186-4.01406E-01 8.81587E-01 1.15159E-02
 -1       187-3.57602E-01 7.07031E-01 2.55187E-04
 -1       188-3.13221E-01 5.45404E-01 1.19849E-02
 -1       189-5.82059E-01 1.77035E+00-9.70339E-03
 -1       190-6.74545E-01 2.31356E+00-9.03152E-03
 -1       191-4.91432E-01 1.29186E+00 1.02520E-02
 -1       192-5.36983E-01 1.52554E+00-5.15224E-05
 -1       193-5.82550E-01 1.77040E+00 9.94518E-03
 -1       194-7.69130E-01 2.91549E+00-8.27988E-03
 -1       195-8.66055E-01 3.57238E+00-7.29365E-03
 -1       196-6.74681E-01 2.31352E+00 8.79479E-03
 -1       197-7.21992E-01 2.60952E+00-1.51847E-04
 -1       198-7.69522E-01 2.91552E+00 8.30705E-03
 -1       199-9.64828E-01 4.27940E+00-6.71804E-03
 -1       200-1.06519E+00 5.03140E+00-6.02074E-03
 -1       201-8.66037E-01 3.57223E+00 7.69045E-03
 -1       202-9.15131E-01 3.92178E+00 2.57127E-04
 -1       203-9.64355E-01 4.27930E+00 6.95789E-03
 -1       204-1.16643E+00 5.82408E+00-5.64513E-03
 -1       205-1.26935E+00 6.65271E+00-4.44197E-03
 -1       206-1.06491E+00 5.03142E+00 6.06193E-03
 -1       207-1.11592E+00 5.42446E+00-1.99035E-04
 -1       208-1.16660E+00 5.82421E+00 5.43919E-03
 -1       209-1.37283E+00 7.51236E+00-4.03077E-03
 -1       210-1.47620E+00 8.39855E+00-2.98747E-03
 -1       211-1.26982E+00 6.65243E+00 4.63107E-03
 -1       212-1.32146E+00 7.07981E+00 2.23009E-04
 -1       213-1.37273E+00 7.51221E+00 4.25868E-03
 -1       214-1.57872E+00 9.30671E+00-2.43856E-03
 -1       215-1.67960E+00 1.02324E+01-1.63271E-03
 -1       216-1.47622E+00 8.39833E+00 3.19394E-03
 -1       217-1.52759E+00 8.85070E+00-3.91209E-05
 -1       218-1.57874E+00 9.30683E+00 2.59048E-03
 -1       219-1.67965E+00 1.02324E+01 2.02134E-03
 -1       220-1.72951E+00 1.07007E+01 1.92686E-04
 -1       221-8.81740E-01 1.17320E+01 2.83024E-04
 -1       222-8.22105E-03 3.91868E-01-3.17461E-04
 -1       223-3.23674E-02 1.07652E+00-2.61601E-04
 -1       224-8.04401E-02 2.04827E+00-8.80478E-05
 -1       225-1.55110E-01 3.26769E+00 7.33663E-05
 -1       226-2.57480E-01 4.69629E+00 4.26940E-05
 -1       227-7.31424E-04 3.42446E-02-4.33514E-04
 -1       228-3.85924E-01 6.29500E+00 3.03091E-05
 -1       229-5.36321E-01 8.02561E+00 1.84872E-04
 -1       230-7.03747E-01 9.85031E+00 2.62699E-04
 -1       231-2.02875E-02 3.45820E-03-8.41073E-03
 -1       232 1.96306E-02 4.02803E-03 7.89210E-03
 -1       233 6.40306E-02 9.51343E-02 1.26397E-02
 -1       234-6.72985E-02 9.28850E-02-1.32434E-02
 -1       235-4.55080E-01 1.22519E+01 6.41393E-04
 -1       236-1.39912E+00 1.21619E+01-6.57620E-05
 -1       237-3.66916E-01 1.13032E+01 1.45184E-03
 -1       238-1.30643E+00 1.12141E+01-8.93358E-04
 -1       239 1.02945E-01 2.75626E-01 1.23001E-02
 -1       240 1.36311E-01 5.41732E-01 1.15895E-02
 -1       241-2.95514E-03 1.69268E-01-3.10794E-04
 -1       242-1.13511E-01 2.70459E-01-1.27539E-02
 -1       243 1.62746E-01 8.87020E-01 1.09183E-02
 -1       244 1.81243E-01 1.30675E+00 1.01131E-02
 -1       245-1.77084E-02 6.95778E-01-3.46242E-04
 -1       246-1.61619E-01 5.32284E-01-1.20193E-02
 -1       247-2.12129E-01 8.72354E-01-1.12337E-02
 -1       248 1.90728E-01 1.79626E+00 9.68427E-03
 -1       249 1.91112E-01 2.35042E+00 8.64576E-03
 -1       250-5.33918E-02 1.52888E+00-1.40769E-04
 -1       251-2.65606E-01 1.28654E+00-1.04196E-02
 -1       252-3.22875E-01 1.76949E+00-9.88934E-03
 -1       253 1.82198E-01 2.96378E+00 8.26473E-03
 -1       254 1.63822E-01 3.63246E+00 7.53430E-03
 -1       255-1.14285E-01 2.62936E+00-2.29484E-04
 -1       256-3.84311E-01 2.31703E+00-9.00760E-03
 -1       257-4.50030E-01 2.92358E+00-8.31584E-03
 -1       258 1.36416E-01 4.35047E+00 6.92814E-03
 -1       259 1.00035E-01 5.11364E+00 5.79728E-03
 -1       260-2.02775E-01 3.95832E+00-5.43296E-05
 -1       261-5.20654E-01 3.58493E+00-7.39128E-03
 -1       262-5.96020E-01 4.29628E+00-6.86988E-03
 -1       263 5.41262E-02 5.91608E+00 5.46992E-03
 -1       264 9.08191E-04 6.75404E+00 4.80010E-03
 -1       265-3.18587E-01 5.47708E+00 2.92478E-05
 -1       266-6.75245E-01 5.05314E+00-5.84549E-03
 -1       267-7.57890E-01 5.84955E+00-5.34877E-03
 -1       268-6.01752E-02 7.62213E+00 3.95060E-03
 -1       269-1.28270E-01 8.51595E+00 3.56017E-03
 -1       270-4.58745E-01 7.14611E+00 1.55733E-04
 -1       271-8.44388E-01 6.68183E+00-4.60723E-03
 -1       272-9.33900E-01 7.54521E+00-3.89069E-03
 -1       273-2.02567E-01 9.43033E+00 2.70374E-03
 -1       274-2.82583E-01 1.03610E+01 2.00866E-03
 -1       275-6.18457E-01 8.92849E+00 1.25414E-04
 -1       276-1.02551E+00 8.43438E+00-2.92843E-03
 -1       277-1.11873E+00 9.34558E+00-2.33530E-03
 -1       278-7.91846E-01 1.07865E+01 2.78212E-04
 -1       279-1.21259E+00 1.02737E+01-1.45067E-03
 -1       280-7.30655E-04 3.42407E-02 4.33509E-04
 -1       281-3.23910E-02 1.07625E+00 1.32387E-04
 -1       282-8.02729E-02 2.04826E+00 2.64340E-05
 -1       283-1.55114E-01 3.26753E+00-5.09886E-05
 -1       284-2.57657E-01 4.69630E+00 7.98726E-06
 -1       285-3.85996E-01 6.29492E+00-4.20397E-05
 -1       286-5.36326E-01 8.02564E+00 1.22013E-04
 -1       287-7.03882E-01 9.85040E+00 2.52125E-04
 -1       288-8.81753E-01 1.17320E+01 1.01078E-04
 -1       289-8.27265E-03 3.91608E-01 3.57298E-04
 -1       290 1.96299E-02 4.02823E-03-7.89137E-03
 -1       291-2.02863E-02 3.45883E-03 8.40987E-03
 -1       292 6.40396E-02 9.51174E-02-1.26303E-02
 -1       293-6.73081E-02 9.28673E-02 1.32302E-02
 -1       294-1.39913E+00 1.21619E+01 4.47809E-04
 -1       295-4.55094E-01 1.22519E+01-2.45342E-04
 -1       296-3.66926E-01 1.13033E+01-1.07399E-03
 -1       297-1.30645E+00 1.12141E+01 1.27232E-03
 -1       298 1.36754E-01 5.41757E-01-1.14678E-02
 -1       299 1.02963E-01 2.75515E-01-1.22906E-02
 -1       300-2.95232E-03 1.69243E-01 3.10829E-04
 -1       301-1.13535E-01 2.70388E-01 1.27673E-02
 -1       302 1.80955E-01 1.30656E+00-1.03766E-02
 -1       303 1.62666E-01 8.86724E-01-1.10579E-02
 -1       304-2.11670E-01 8.72212E-01 1.13796E-02
 -1       305-1.78845E-02 6.95920E-01 2.10315E-04
 -1       306-1.61959E-01 5.32445E-01 1.18145E-02
 -1       307 1.90859E-01 2.35032E+00-8.86802E-03
 -1       308 1.90583E-01 1.79639E+00-9.83398E-03
 -1       309-2.65582E-01 1.28624E+00 1.06079E-02
 -1       310-5.28803E-02 1.52862E+00 1.82416E-04
 -1       311-3.22936E-01 1.76946E+00 9.65459E-03
 -1       312 1.64201E-01 3.63247E+00-7.35073E-03
 -1       313 1.82217E-01 2.96372E+00-8.26936E-03
 -1       314-3.84336E-01 2.31704E+00 9.05639E-03
 -1       315-1.14128E-01 2.62942E+00 2.35170E-04
 -1       316-4.50402E-01 2.92344E+00 8.57006E-03
 -1       317 9.96556E-02 5.11336E+00-6.10479E-03
 -1       318 1.36400E-01 4.35027E+00-6.78029E-03
 -1       319-5.20942E-01 3.58499E+00 7.37624E-03
 -1       320-2.03017E-01 3.95834E+00 1.96728E-04
 -1       321-5.95573E-01 4.29635E+00 6.92979E-03
 -1       322 1.11697E-03 6.75426E+00-4.38253E-03
 -1       323 5.44784E-02 5.91608E+00-5.28680E-03
 -1       324-6.74827E-01 5.05280E+00 6.05372E-03
 -1       325-3.18818E-01 5.47675E+00-1.06236E-04
 -1       326-7.58025E-01 5.84960E+00 5.36717E-03
 -1       327-1.28529E-01 8.51587E+00-3.15584E-03
 -1       328-6.04966E-02 7.62205E+00-3.98473E-03
 -1       329-8.44909E-01 6.68206E+00 4.41369E-03
 -1       330-4.58561E-01 7.14632E+00-1.97436E-05
 -1       331-9.33870E-01 7.54497E+00 3.98147E-03
 -1       332-2.82591E-01 1.03611E+01-1.58287E-03
 -1       333-2.02558E-01 9.43017E+00-2.62507E-03
 -1       334-1.02558E+00 8.43462E+00 3.13845E-03
 -1       335-6.18470E-01 8.92842E+00-2.19692E-06
 -1       336-1.11893E+00 9.34549E+00 2.79569E-03
 -1       337-1.21266E+00 1.02737E+01 1.82104E-03
 -1       338-7.91867E-01 1.07865E+01 9.86279E-05
 -1       339-3.44481E-03 1.82002E-01 3.11828E-06
 -1       340-7.92115E-01 1.07879E+01 1.87973E-04
 -1       341-2.49909E-02 8.85071E-01-9.31895E-05
 -1       342-3.33447E-02 1.08712E+00 1.17647E-05
 -1       343-1.87171E-01 7.01370E-01 5.85713E-03
 -1       344 1.50009E-01 7.13377E-01-5.74404E-03
 -1       345 1.35957E-01 5.53427E-01-8.40463E-06
 -1       346-4.85981E-01 3.25346E+00-3.83303E-03
 -1       347-4.86076E-01 3.25344E+00 4.03799E-03
 -1       348-1.56296E-01 3.27540E+00 1.12692E-04
 -1       349-5.22201E-01 3.59237E+00 2.02855E-04
 -1       350-9.70092E-02 2.33823E+00 1.94931E-05
 -1       351 1.90346E-01 2.35945E+00-3.44726E-05
 -1       352-3.54226E-01 2.04229E+00-4.64654E-03
 -1       353-1.15236E-01 2.63797E+00 3.44976E-06
 -1       354 1.87005E-01 2.65634E+00 4.15407E-03
 -1       355 1.20233E-01 4.07622E-01 6.01094E-03
 -1       356 1.20275E-01 4.07532E-01-5.91684E-03
 -1       357-8.86446E-03 4.03845E-01-3.83982E-06
 -1       358 1.72732E-01 1.09580E+00 5.09376E-03
 -1       359-2.39514E-01 1.07855E+00-5.42742E-03
 -1       360-2.50769E-02 8.85041E-01 8.69309E-05
 -1       361 1.72518E-01 1.09583E+00-5.37595E-03
 -1       362-2.39283E-01 1.07843E+00 5.39872E-03
 -1       363-4.51612E-01 2.93156E+00 2.02689E-05
 -1       364 1.73705E-01 3.29761E+00 4.01756E-03
 -1       365-1.34681E-01 2.94769E+00 4.18002E-05
 -1       366 1.73867E-01 3.29762E+00-3.95748E-03
 -1       367-4.27224E-02 1.30176E+00 5.12187E-05
 -1       368 1.80358E-01 1.31701E+00 2.60986E-05
 -1       369-8.09847E-02 2.05755E+00-6.72788E-05
 -1       370 1.89879E-01 1.80599E+00-1.63086E-04
 -1       371-3.54171E-01 2.04235E+00 4.69030E-03
 -1       372-6.65275E-02 1.78774E+00-1.65781E-04
 -1       373 2.84700E-02 6.33481E+00-2.37826E-03
 -1       374-3.52304E-01 5.88544E+00 9.54367E-05
 -1       375-8.02035E-01 6.26516E+00 2.34815E-03
 -1       376-3.86796E-01 6.29998E+00 5.64355E-05
 -1       377-4.17540E-01 2.61960E+00 4.47675E-03
 -1       378-1.38065E-01 4.00479E-01-6.24808E-03
 -1       379-1.38164E-01 4.00442E-01 6.20100E-03
 -1       380-1.62732E-01 5.44214E-01 4.54728E-05
 -1       381 1.91459E-01 2.07266E+00 4.55581E-03
 -1       382 1.91527E-01 2.07264E+00-4.75767E-03
 -1       383-6.35806E-01 4.67396E+00 3.26330E-03
 -1       384-2.58745E-01 4.70265E+00-2.98645E-05
 -1       385-6.35843E-01 4.67401E+00-3.18630E-03
 -1       386-5.96977E-01 4.30309E+00 9.91763E-05
 -1       387-5.37052E-01 8.02902E+00 1.19633E-05
 -1       388-5.77234E-01 8.47692E+00 3.24258E-04
 -1       389-9.80350E-01 7.98945E+00 1.75070E-03
 -1       390-1.02662E+00 8.43758E+00 1.09921E-04
 -1       391-9.35896E-02 8.06870E+00-1.64163E-03
 -1       392-4.97406E-01 7.58541E+00 2.06809E-05
 -1       393 7.75030E-02 5.51445E+00 2.86437E-03
 -1       394-7.16798E-01 5.45089E+00-2.90545E-03
 -1       395-3.52219E-01 5.88545E+00 2.92738E-05
 -1       396-2.92655E-02 7.18780E+00-2.13168E-03
 -1       397-8.89581E-01 7.11320E+00 2.23074E-03
 -1       398-7.04271E-01 9.85253E+00 2.12349E-04
 -1       399-1.11947E+00 9.34817E+00 7.63575E-05
 -1       400-2.42031E-01 9.89559E+00 1.30475E-03
 -1       401-6.61000E-01 9.38918E+00 1.41516E-04
 -1       402-2.41939E-01 9.89566E+00-1.04936E-03
 -1       403-9.36547E-02 8.06882E+00 1.92739E-03
 -1       404-9.80545E-01 7.98943E+00-1.66658E-03
 -1       405-8.45666E-01 6.68636E+00 7.07323E-05
 -1       406-4.97570E-01 7.58548E+00-9.06404E-06
 -1       407 1.63192E-01 3.63995E+00 5.29317E-06
 -1       408-6.76191E-01 5.05881E+00-1.20710E-05
 -1       409-8.01797E-01 6.26531E+00-2.49028E-03
 -1       410 2.82798E-02 6.33480E+00 2.50215E-03
 -1       411-4.22216E-01 6.72039E+00 7.86916E-05
 -1       412 1.18672E-01 4.73151E+00-3.25340E-03
 -1       413-2.30369E-01 4.32668E+00 1.17773E-04
 -1       414 1.18900E-01 4.73159E+00 3.18221E-03
 -1       415 9.91082E-02 5.11965E+00 3.89842E-05
 -1       416-1.16618E+00 9.80938E+00 1.29008E-03
 -1       417-1.16615E+00 9.80934E+00-8.79587E-04
 -1       418-2.66957E-01 1.29677E+00-1.35733E-04
 -1       419-5.77386E-01 8.47685E+00 6.37182E-05
 -1       420-1.65242E-01 8.97289E+00-1.35350E-03
 -1       421-5.41605E-02 1.53883E+00-9.56832E-05
 -1       422 1.50832E-01 3.99090E+00-3.56833E-03
 -1       423-2.03887E-01 3.96551E+00 1.04830E-04
 -1       424-2.02798E-01 9.43281E+00 1.91244E-04
 -1       425 4.32894E-04 6.75884E+00 5.36508E-06
 -1       426-9.27136E-01 1.22071E+01 2.40932E-04
 -1       427-1.39962E+00 1.21622E+01 1.90905E-04
 -1       428-1.35329E+00 1.16878E+01-1.34257E-04
 -1       429-4.10474E-01 1.17776E+01 6.09246E-04
 -1       430-8.81889E-01 1.17327E+01 1.91916E-04
 -1       431-4.54755E-01 1.22524E+01 1.98053E-04
 -1       432-3.34946E-04 9.06970E-03 1.38339E-04
 -1       433-1.94020E-02 1.12081E-02-4.48393E-07
 -1       434-4.37969E-02 4.55695E-02 6.51475E-03
 -1       435 4.19169E-02 4.68103E-02-6.12361E-03
 -1       436-9.66987E-04 4.51371E-02 7.66794E-09
 -1       437 1.86857E-02 1.16678E-02 4.37082E-07
 -1       438-4.37966E-02 4.55739E-02-6.51924E-03
 -1       439-3.35050E-04 9.07068E-03-1.38161E-04
 -1       440 4.19162E-02 4.68145E-02 6.12773E-03
 -1       441-1.35329E+00 1.16878E+01 5.13497E-04
 -1       442-9.27143E-01 1.22071E+01 1.48133E-04
 -1       443-4.10481E-01 1.17776E+01-2.20804E-04
 -1       444-1.14323E-01 2.82997E-01-1.46226E-05
 -1       445-5.55107E-03 2.79347E-01 1.78922E-04
 -1       446-5.54834E-03 2.79388E-01-1.70432E-04
 -1       447 1.02608E-01 2.88199E-01 1.48405E-05
 -1       448-6.73204E-02 1.05115E-01-6.42462E-06
 -1       449 6.33178E-02 1.07372E-01 6.27805E-06
 -1       450-1.83129E-03 9.98333E-02 2.02912E-04
 -1       451-1.83176E-03 9.98450E-02-2.02350E-04
 -1       452-7.47760E-01 1.03182E+01 2.28677E-04
 -1       453-7.47811E-01 1.03183E+01 1.78375E-04
 -1       454-1.21324E+00 1.02754E+01 1.86328E-04
 -1       455-2.82637E-01 1.03629E+01 1.72474E-04
 -1       456-1.30700E+00 1.12151E+01 1.90005E-04
 -1       457-3.66793E-01 1.13044E+01 1.88598E-04
 -1       458-8.36781E-01 1.12592E+01 2.33723E-04
 -1       459-8.36790E-01 1.12592E+01 1.45650E-04
 -1       460-9.06368E-02 1.80090E-01 6.26450E-03
 -1       461 8.37668E-02 1.83637E-01-5.99386E-03
 -1       462-9.06319E-02 1.80117E-01-6.28452E-03
 -1       463 8.37590E-02 1.83663E-01 6.01556E-03
 -1       464-1.25996E+00 1.07437E+01-4.97109E-04
 -1       465-3.24259E-01 1.08321E+01 9.59350E-04
 -1       466-3.24267E-01 1.08322E+01-5.96502E-04
 -1       467-1.25998E+00 1.07437E+01 8.79582E-04
 -3
    1PSTEP                         2           1           1          
  100CL  101 3.40000E-01         467                     0    1           1
 -4  STRESS      6    1
 -5  SXX         1    4    1    1
 -5  SYY         1    4    2    2
 -5  SZZ         1    4    3    3
 -5  SXY         1    4    1    2
 -5  SYZ         1    4    2    3
 -5  SZX         1    4    3    1
 -1         1 4.21472E+03 1.13214E+03 1.39389E+03 7.90404E+01-1.92488E+02-4.40358E+02
 -1         2 4.21510E+03 1.13229E+03 1.39402E+03 7.89353E+01 1.92574E+02 4.40298E+02
 -1         3-4.08877E+03-1.14789E+03-1.41763E+03 4.46602E+01-1.95815E+02 4.24995E+02
 -1         4-4.08923E+03-1.14811E+03-1.41785E+03 4.45174E+01 1.95964E+02-4.24875E+02
 -1         5 3.37362E+01-2.43164E+00-8.71983E+00 5.76600E+01-1.63803E+00 6.37109E+00
 -1         6 3.35065E+01-2.57095E+00-8.76308E+00 5.74667E+01 1.52232E+00-6.48668E+00
 -1         7-4.29862E+01 3.87993E+01 8.84520E+00 3.37121E+01-3.90189E+00-5.34296E+00
 -1         8-4.27514E+01 3.88003E+01 8.87302E+00 3.36467E+01 3.85115E+00 5.45269E+00
 -1         9 4.35077E+03 1.81674E+03 1.81575E+03 5.21873E+02-1.45775E-04-1.20924E-02
 -1        10-2.22737E-02-2.29910E+01-1.95508E+01-3.10750E+02-1.15598E-01 8.08407E-01
 -1        11-4.19557E+03-1.84724E+03-1.84777E+03 4.61612E+02 3.69858E-04 3.50773E-02
 -1        12-3.70432E-02-2.29998E+01-1.95590E+01-3.10840E+02 1.15653E-01-8.11310E-01
 -1        13 1.53122E+01-2.72978E+01-2.42019E+01 4.77838E+01-9.43019E-03-3.08291E-02
 -1        14-1.36319E+01 2.70603E+01 5.73560E-02 6.80788E+01-1.70265E+01 3.30287E+00
 -1        15-1.70144E+01 5.59196E+01 2.43431E+01 2.44590E+01-2.60293E-03 2.12617E-02
 -1        16-1.36029E+01 2.70586E+01 6.14393E-02 6.80112E+01 1.70213E+01-3.30633E+00
 -1        17 3.65348E+03-9.49379E+00-2.34702E+01 1.62126E+02-1.74157E+01-3.69767E+01
 -1        18 3.23142E+03 8.76930E+00 1.68452E+00 2.80097E+02-1.65258E+00-1.16157E+01
 -1        19 2.84030E+03 3.58319E+01 3.89168E+00 3.29058E+02-4.71696E+00-1.37375E+01
 -1        20 2.39834E+03 5.19924E+01 1.82286E+00 3.39734E+02-1.20754E+01-5.83033E+00
 -1        21 1.98023E+03 5.46625E+01-5.60932E+00 3.40962E+02-3.87848E-01-9.17816E+00
 -1        22 1.52714E+03 7.27745E+01 8.23797E+00 3.12085E+02-8.78027E+00-7.09200E+00
 -1        23 1.17760E+03 5.97712E+01-1.20066E+01 2.53565E+02 3.83648E+00-1.37925E+01
 -1        24 7.71829E+02 3.56393E+01 8.48455E+00 1.91434E+02-6.10251E+00-1.36538E+01
 -1        25 3.83085E+02 3.37169E+01-1.92629E+00 1.24970E+02 1.88101E-01-9.44990E+00
 -1        26 3.83658E+03 5.63141E+01 1.51061E+02 2.69284E+01 6.12222E+01 1.04614E+02
 -1        27 3.49677E+03 1.29847E+01 2.31822E+00 2.27757E+02 7.27464E-01-1.04713E+01
 -1        28 3.08190E+03 3.69959E+01 1.07547E+01 3.03716E+02-1.36796E+01-1.88565E+01
 -1        29 2.62492E+03 4.21244E+01-3.75569E+00 3.37091E+02-4.32159E+00-7.42347E+00
 -1        30 2.19993E+03 5.18548E+01 1.15412E-02 3.43449E+02-1.31501E+01-2.14782E+01
 -1        31 1.78249E+03 6.62727E+01-3.18772E-01 3.30190E+02-1.72543E+01-1.03252E+01
 -1        32 1.39855E+03 6.48129E+01 8.11508E+00 2.78443E+02-4.79725E+00-3.31215E+01
 -1        33 9.79199E+02 4.70545E+01 3.95381E-01 2.18803E+02-5.32343E+00-2.97543E+01
 -1        34 5.73581E+02 3.31663E+01 5.78180E+00 1.51222E+02-1.14807E+01-1.73363E+01
 -1        35 1.95680E+02 2.19874E+01-5.60796E-02 7.98189E+01-3.48492E+00-5.37432E+00
 -1        36 3.65783E+03-1.02553E+01-2.40513E+01 1.61276E+02 1.67823E+01 3.81214E+01
 -1        37 3.24258E+03 3.09113E+01 7.44385E+00 2.69610E+02 1.25744E+01 1.00796E+01
 -1        38 2.80410E+03 2.88967E+01-2.55835E+00 3.47288E+02 8.48694E-02 7.19011E+00
 -1        39 2.41393E+03 5.17568E+01 2.42886E+00 3.50632E+02 7.98074E-01 1.42493E+01
 -1        40 1.97251E+03 6.67032E+01 2.40722E+00 3.30425E+02 1.45417E+01 5.62724E+00
 -1        41 1.58210E+03 5.58414E+01-8.20402E+00 2.98477E+02-4.81271E-01 1.22742E+01
 -1        42 1.13205E+03 7.09787E+01 9.50805E+00 2.59399E+02 1.00031E+01 8.48478E+00
 -1        43 7.98265E+02 3.23804E+01-6.64061E+00 1.93841E+02-9.08349E+00 1.24826E+01
 -1        44 3.79551E+02 3.42184E+01-6.51443E-01 1.22704E+02 1.21610E+00 1.01771E+01
 -1        45 3.83744E+03 5.65255E+01 1.51160E+02 2.66263E+01-6.12015E+01-1.04339E+02
 -1        46 3.50289E+03 2.55013E+01 4.48743E+00 2.34241E+02 6.55426E+00 3.28003E+00
 -1        47 3.07233E+03 2.56101E+01 1.02780E+00 2.99271E+02 7.06539E+00 3.26292E+01
 -1        48 2.62073E+03 4.43458E+01 3.54468E+00 3.32324E+02 1.87684E+00 1.57703E+01
 -1        49 2.21491E+03 5.28252E+01-7.39135E+00 3.48257E+02 2.01276E+01 1.37461E+01
 -1        50 1.78870E+03 5.48879E+01 6.79928E-01 3.18201E+02 1.16982E+01 2.18590E+01
 -1        51 1.36608E+03 6.77791E+01-1.58304E+00 2.80931E+02 1.74843E+01 1.22691E+01
 -1        52 9.90207E+02 5.90032E+01 1.34016E+01 2.22841E+02 4.52978E+00 3.44309E+01
 -1        53 5.74773E+02 2.05350E+01-5.44630E+00 1.56533E+02-3.67073E+00 8.16796E+00
 -1        54 1.94946E+02 2.15774E+01-2.35986E-01 7.93800E+01 3.55770E+00 5.62363E+00
 -1        55-3.51357E+03 1.29879E+00 3.36872E+01-9.62379E+01-1.02688E+01 3.50756E+01
 -1        56-3.16249E+03-1.14258E+01 1.31387E+01-1.76260E+02 3.48223E+00 1.22841E+01
 -1        57-2.76833E+03-2.34111E+01-2.86656E+00-2.01716E+02 3.32534E-01 8.82749E+00
 -1        58-2.34394E+03-2.00216E+01 2.02537E+00-2.35069E+02 1.47988E+00 1.42384E+01
 -1        59-1.97593E+03-2.71628E+01 1.18072E+01-2.39445E+02 6.18490E+00 1.01253E+01
 -1        60-1.52999E+03-4.52193E+01-6.36423E+00-2.01154E+02-8.44852E+00 8.58224E+00
 -1        61-1.18706E+03-1.54067E+01 6.89588E+00-1.41513E+02 3.98789E+00 6.67831E+00
 -1        62-7.76920E+02-7.00410E+00-2.11755E+00-8.53374E+01 2.44981E+00 9.98994E+00
 -1        63-3.95030E+02 5.58041E+00 1.17384E+00-2.45499E+01 3.10935E+00 7.95732E+00
 -1        64-3.63639E+03-6.16257E+01-1.49075E+02-1.07521E+02 6.67622E+01-8.64026E+01
 -1        65-3.33764E+03-7.73709E+00-2.03883E-01-1.32898E+02 8.61832E+00 6.39835E+00
 -1        66-2.92362E+03-1.13631E+01 4.38654E+00-1.94684E+02-9.34775E+00 1.39003E+01
 -1        67-2.54671E+03-2.99775E+01-8.57385E+00-2.24748E+02 9.22459E+00 2.23050E+01
 -1        68-2.15989E+03-2.88831E+01 1.70008E+00-2.49138E+02 3.09742E+00 1.47470E+01
 -1        69-1.74731E+03-4.34036E+01 6.38745E-01-2.12596E+02 6.90911E-01 7.50831E+00
 -1        70-1.35350E+03-2.06224E+01 8.55256E-01-1.87454E+02 1.70648E+00 2.90294E+01
 -1        71-9.70759E+02-2.01779E+01 4.03188E+00-1.37355E+02 5.20425E+00 2.50203E+01
 -1        72-5.81630E+02-1.01234E+01-5.95694E+00-6.38427E+01 2.70428E+00 1.08966E+01
 -1        73-2.01187E+02 1.04949E+01 1.21537E-01 2.89740E+00-1.08709E+00 5.90241E+00
 -1        74-3.51766E+03 3.05015E+00 3.45242E+01-9.69444E+01 9.25568E+00-3.64896E+01
 -1        75-3.14067E+03-3.39288E+01-4.24893E+00-1.59074E+02 6.85889E+00-9.14992E+00
 -1        76-2.77819E+03-1.87649E+01 1.57280E+01-2.20677E+02-4.93062E+00-8.47117E+00
 -1        77-2.36237E+03-2.01019E+01 3.02149E+00-2.47377E+02-1.33764E+01-6.42245E+00
 -1        78-1.94193E+03-2.63256E+01-3.81640E+00-2.15624E+02-1.50927E+00-7.86588E+00
 -1        79-1.55391E+03-2.43449E+01 8.16412E-01-1.96156E+02-4.60652E+00-9.84066E+00
 -1        80-1.14662E+03-3.56801E+01-6.86061E+00-1.54788E+02 8.76589E+00-1.13486E+01
 -1        81-8.03613E+02-7.69426E+00 8.14050E-01-8.13938E+01-1.67530E+00-1.18237E+01
 -1        82-3.91812E+02 4.43311E+00-1.04395E-01-2.45440E+01-2.16341E+00-8.86207E+00
 -1        83-3.63732E+03-6.18632E+01-1.49284E+02-1.07833E+02-6.68367E+01 8.60198E+01
 -1        84-3.33108E+03-2.68913E+01-3.97569E+00-1.21954E+02 6.71344E-01-2.86936E-02
 -1        85-2.96393E+03-2.19025E+01-5.39369E+00-2.04166E+02-8.64999E-01-2.98838E+01
 -1        86-2.52577E+03-2.34357E+01 5.09207E+00-2.35215E+02-8.42001E+00-2.69134E+01
 -1        87-2.13800E+03-2.30222E+01-4.36409E-01-2.32252E+02-8.98674E-01-2.96850E+00
 -1        88-1.75457E+03-3.00423E+01-1.08273E+00-2.23762E+02-3.97548E+00-1.42400E+01
 -1        89-1.36945E+03-4.81548E+01-9.08015E+00-1.80137E+02 9.37565E+00-1.76743E+01
 -1        90-9.63264E+02-1.34614E+01-9.89819E+00-1.27077E+02 1.20752E+01-2.23847E+01
 -1        91-5.96890E+02-3.11233E+00-4.06442E+00-5.75020E+01-7.78894E+00-2.09382E+00
 -1        92-2.00507E+02 1.05637E+01 2.24655E-01 2.83170E+00 1.03985E+00-6.10400E+00
 -1        93-6.71381E+01-2.34557E+01-1.70037E+01-5.17490E+01 4.54486E-03 3.49299E-03
 -1        94 1.95996E+03 6.87276E+02 7.59425E+02 2.35993E+01-5.62320E+01-2.12627E+02
 -1        95 1.96002E+03 6.87264E+02 7.59419E+02 2.35942E+01 5.62498E+01 2.12631E+02
 -1        96-1.97928E+03-7.18607E+02-7.87646E+02 1.37945E+01-5.81830E+01 2.09724E+02
 -1        97-1.97933E+03-7.18585E+02-7.87626E+02 1.37802E+01 5.82091E+01-2.09709E+02
 -1        98-2.33872E+01 3.68051E+01-4.10703E-03 9.21798E+01 2.45097E-02-3.79926E-03
 -1        99-1.09155E+01 4.37805E+00-1.11771E+01 7.85881E+01 4.94008E-01-2.02541E+00
 -1       100-1.09188E+01 4.31249E+00-1.12539E+01 7.86332E+01-4.80388E-01 1.99014E+00
 -1       101-2.02119E+01 5.35998E+01 1.12581E+01 6.68204E+01-1.22518E+00-1.65544E+00
 -1       102-2.01978E+01 5.35487E+01 1.12012E+01 6.68144E+01 1.24313E+00 1.67712E+00
 -1       103 3.49776E+03-6.61907E+00 1.23619E+01 1.94550E+02 2.23007E-01 2.37243E+00
 -1       104 3.07103E+03 3.32401E+00 3.06424E+00 2.98603E+02-1.99539E-01 2.91177E+00
 -1       105 2.62559E+03 2.88681E+01-2.38369E+00 3.12411E+02-1.57204E+00 1.94042E-03
 -1       106 2.25534E+03 2.77602E+01-2.99620E-01 3.35469E+02-2.78617E+00-5.05538E+00
 -1       107 1.81977E+03 4.14843E+01 1.84443E+00 3.12632E+02 3.85876E-01 3.51222E+00
 -1       108 1.39078E+03 4.23050E+01 3.88814E+00 2.88584E+02 9.61375E-01 2.14595E+00
 -1       109 9.57853E+02 4.76024E+01-4.51990E-01 2.28713E+02-2.77411E-01 4.79952E+00
 -1       110 5.83975E+02 3.72909E+01-1.41768E+01 1.40588E+02-1.85860E-01 1.07067E+00
 -1       111 3.97838E+03-1.06325E+02 6.32980E+01 2.05245E+02-6.07733E-02 1.13880E-01
 -1       112 1.94704E+02 2.59103E+01-5.17682E-01 7.10361E+01 8.08421E-02 9.36934E-02
 -1       113 4.06205E+03 2.62872E+02 6.20818E+02 1.83945E+02 9.55656E+01 2.20098E+02
 -1       114 4.06176E+03 2.62693E+02 6.20739E+02 1.84016E+02-9.55477E+01-2.20079E+02
 -1       115 3.80331E+03-6.00435E+01-5.19067E+01 1.37864E+02 4.71644E+01 3.18491E+01
 -1       116 3.80243E+03-5.99596E+01-5.17182E+01 1.38363E+02-4.73131E+01-3.12550E+01
 -1       117 1.13515E+02 1.96737E+01-2.66701E+00 4.78997E+01 9.90141E-02 3.23786E-01
 -1       118 1.13327E+02 1.94649E+01-2.71885E+00 4.77934E+01-1.33378E-01-3.42663E-01
 -1       119 2.84768E+02 1.30280E+01-6.42137E+00 8.25438E+01 3.04222E+00 2.84451E+00
 -1       120 2.85435E+02 1.34387E+01-6.30932E+00 8.32799E+01-2.70270E+00-2.27067E+00
 -1       121 3.36626E+03 7.78858E+00-4.99909E+00 2.24384E+02-1.14146E+00-7.37034E+00
 -1       122 3.60446E+03 6.31426E-01 2.04120E+01 1.87352E+02 2.75134E+00 5.76586E+00
 -1       123 3.72172E+03 2.05701E+01 5.09839E+01 1.47141E+02-2.76751E-01 9.86659E-01
 -1       124 3.61060E+03-1.08638E+00 2.08468E+01 1.86089E+02-3.34803E+00-2.43658E+00
 -1       125 2.95429E+03 3.17463E+01 1.11516E+01 3.00555E+02-2.66720E+00-9.55643E+00
 -1       126 3.16205E+03 4.12235E+00 4.90177E+00 2.82382E+02-3.11137E+00-6.96102E+00
 -1       127 3.25457E+03 2.67711E+01 5.12597E-01 2.41361E+02-7.85421E-01-3.85650E+00
 -1       128 3.37452E+03 2.60297E+01 4.64222E+00 2.29182E+02 3.28740E+00 1.51447E+00
 -1       129 3.17207E+03 1.01490E+01 3.92438E+00 2.79480E+02 7.33530E+00 1.72790E+01
 -1       130 2.51357E+03 4.94892E+01-4.34970E-01 3.15501E+02-1.52011E+00-1.16667E+00
 -1       131 2.74763E+03 1.76311E+01-2.06488E+00 3.17330E+02-6.60625E+00-9.07031E+00
 -1       132 2.84170E+03 3.53055E+01 6.40710E+00 3.24351E+02-2.15542E+00-8.08554E+00
 -1       133 2.93626E+03 7.14666E+00-1.37085E+01 3.14797E+02-4.50689E-01 4.25180E+00
 -1       134 2.74379E+03 2.84811E+01 7.71446E+00 3.18709E+02 1.33355E+00 7.96359E+00
 -1       135 2.08034E+03 4.22767E+01-1.46704E+01 3.13640E+02 1.55037E+00-4.25056E+00
 -1       136 2.33636E+03 3.50854E+01 4.07182E+00 3.42015E+02-9.43998E+00-9.44181E+00
 -1       137 2.40484E+03 5.19412E+01 4.10657E+00 3.10302E+02-1.21403E+00 1.55671E+00
 -1       138 2.50340E+03 4.39357E+01-4.15267E+00 3.18371E+02-1.84485E+00 6.96607E+00
 -1       139 2.33980E+03 2.48889E+01 3.35797E-01 3.36895E+02 6.51246E-02 2.85506E+00
 -1       140 1.66016E+03 6.75304E+01 2.04102E-01 2.98918E+02 5.25948E-02 2.53377E+00
 -1       141 1.91799E+03 4.23824E+01-2.17019E+00 3.25445E+02-4.00643E+00-2.57975E+00
 -1       142 1.98851E+03 6.25360E+01 3.14649E-01 3.00978E+02 2.08562E-01-5.22592E-01
 -1       143 2.09691E+03 6.66970E+01 1.39214E-01 3.18846E+02-4.37425E+00-5.39793E-01
 -1       144 1.90570E+03 4.42602E+01 2.24889E+00 3.24264E+02 1.21718E+01 8.97609E+00
 -1       145 1.28224E+03 6.32188E+01-5.12736E+00 2.63818E+02 8.97114E+00-5.09440E+00
 -1       146 1.49283E+03 5.32246E+01 4.72512E+00 3.01518E+02-7.45229E+00-2.99193E+00
 -1       147 1.55551E+03 6.08454E+01-5.05575E+00 2.75510E+02-8.32081E-01 8.57535E+00
 -1       148 1.67942E+03 5.13402E+01-1.17517E+01 2.89787E+02-4.02395E+00 7.29441E+00
 -1       149 1.48753E+03 2.85358E+01-2.01748E+00 2.86951E+02 5.65951E+00 9.37914E+00
 -1       150 8.82754E+02 6.77266E+01 1.20872E+01 1.95884E+02 5.44792E+00-8.95592E+00
 -1       151 1.07312E+03 2.79148E+01-1.26023E+01 2.33504E+02-6.40302E+00-6.51558E+00
 -1       152 1.16159E+03 5.99549E+01-3.82772E+00 2.31747E+02 5.51396E+00-6.73743E+00
 -1       153 1.25242E+03 6.44069E+01 5.26258E+00 2.52205E+02 1.82712E+00 1.84515E+00
 -1       154 1.10123E+03 5.54541E+01 1.40787E+01 2.47395E+02 1.12601E+01 5.15864E+00
 -1       155 4.97289E+02 4.29176E+01-9.47740E-01 1.21668E+02 2.89673E+00-2.31420E+00
 -1       156 6.71441E+02 2.67424E+01-1.69859E+00 1.70175E+02-9.17229E+00-5.48714E+00
 -1       157 7.97250E+02 2.11771E+01 5.53279E+00 1.74327E+02-4.64767E+00-1.45372E+00
 -1       158 8.47320E+02 5.12260E+01-2.86462E+00 2.00262E+02-7.58507E+00 1.52365E+01
 -1       159 7.02018E+02 1.60790E+01-9.64367E+00 1.62150E+02 2.58751E+00 4.86971E+00
 -1       160 3.83866E+02 2.21877E+01-3.62941E+00 1.04018E+02 4.41095E-01 6.03477E-01
 -1       161 4.87131E+02 4.17053E+01-4.72857E-01 1.17644E+02-2.78782E+00 7.09433E+00
 -1       162-3.01901E+03-1.61121E+01-3.44627E+00-1.98063E+02-2.38402E+00 1.88646E+00
 -1       163-2.51470E+03-4.19301E+01-9.41501E-02-2.39940E+02 6.06353E-01-1.08995E+01
 -1       164-2.15013E+03-3.86922E+01-3.41974E+00-2.68867E+02-3.00269E-01-1.32729E+00
 -1       165-1.74836E+03-3.53120E+01-8.25205E-01-2.51955E+02 4.65414E-01 3.89694E+00
 -1       166-1.40727E+03-1.25508E+01-4.74382E-01-1.90292E+02 7.17450E-01 1.05033E+00
 -1       167-1.02107E+03-3.34552E+00-1.99827E-01-1.38276E+02-4.36534E+00-3.98144E+00
 -1       168-5.68502E+02-1.69057E+01 1.07786E+01-9.84268E+01-2.85056E-01 7.06784E-01
 -1       169-3.86701E+03 8.51712E+01-4.86768E+01 5.88632E+01-7.80779E-02-1.61974E-01
 -1       170-1.94791E+02 1.07029E+00 6.69820E-01-2.18632E+00 4.96212E-02-1.01270E-01
 -1       171-3.36254E+03-4.80761E+00-7.43901E-01-1.59744E+02 8.52026E-01-2.28480E+00
 -1       172-3.89464E+03-2.70735E+02-6.18733E+02 1.00202E+02-9.40346E+01 2.09015E+02
 -1       173-3.89496E+03-2.70976E+02-6.18888E+02 1.00115E+02 9.40890E+01-2.09025E+02
 -1       174-3.63205E+03 4.93068E+01 7.16027E+01-6.46658E+01 4.51749E+01-3.58300E+01
 -1       175-3.63104E+03 4.93954E+01 7.18692E+01-6.40090E+01-4.56386E+01 3.49943E+01
 -1       176-1.07793E+02 1.88929E+00 2.89315E+00 6.75874E+00 1.33491E-02 3.65147E-01
 -1       177-1.07969E+02 1.81257E+00 2.86279E+00 6.80292E+00-1.38411E-02-3.61453E-01
 -1       178-2.78651E+02 7.79161E+00 6.29812E+00-2.86748E+01 1.53065E+00-3.19392E+00
 -1       179-2.79423E+02 7.86085E+00 6.29397E+00-2.84607E+01-1.44349E+00 2.66516E+00
 -1       180-3.44827E+03-8.48874E+00-1.24339E+01-1.26162E+02 6.48957E+00-9.94724E+00
 -1       181-3.23350E+03-1.32628E+01 1.69722E+01-1.75400E+02 3.65847E+00 9.06139E+00
 -1       182-3.53402E+03-2.16648E+01-3.62902E+01-1.12817E+02-7.21417E-01-1.13351E+00
 -1       183-3.45394E+03-5.83276E+00-1.11487E+01-1.26899E+02-6.55184E+00 6.63465E+00
 -1       184-3.07708E+03 4.82450E+00 5.63718E+00-1.95046E+02-2.49928E+00 8.08337E+00
 -1       185-2.81887E+03-2.91638E+01 1.49963E+00-2.17608E+02 3.24743E+00 3.19184E+00
 -1       186-3.08970E+03-1.97276E+01-3.38315E+00-1.79387E+02 4.16230E+00-3.48627E+00
 -1       187-3.10801E+03-2.26005E+01 1.66990E+01-1.87451E+02 1.02350E+00 7.47842E+00
 -1       188-3.21239E+03-2.52990E+01 9.89357E+00-1.66369E+02 1.42741E+00-9.48536E-01
 -1       189-2.68296E+03-2.73888E+01-5.60261E+00-2.34146E+02-7.08157E+00-2.51395E+00
 -1       190-2.41997E+03-4.81102E+01 1.29255E+00-2.46470E+02 5.98898E-01-5.63516E-01
 -1       191-2.88381E+03-3.35088E+01 9.12967E+00-2.19360E+02-9.32783E+00-1.69260E+00
 -1       192-2.77339E+03-1.88406E+01 4.82576E+00-2.16271E+02-1.34369E+00-9.26443E-01
 -1       193-2.63102E+03-1.50550E+00 7.18053E+00-2.34876E+02 1.16197E+01-7.32657E+00
 -1       194-2.26347E+03-2.86342E+01-6.92155E+00-2.66637E+02-1.26487E+00 5.41130E+00
 -1       195-2.04554E+03-3.74425E+01 8.88489E+00-2.56188E+02 3.15068E+00 6.98333E+00
 -1       196-2.41863E+03-3.74807E+01 3.16362E+00-2.40996E+02-9.09773E+00-1.25400E+01
 -1       197-2.35195E+03-2.15137E+01 3.98386E+00-2.76389E+02-1.59354E+00-3.27866E-01
 -1       198-2.25674E+03-2.34036E+01-8.72361E-01-2.70074E+02-1.75247E+00-2.39247E+00
 -1       199-1.85022E+03-1.87629E+01 6.11607E+00-2.54853E+02-7.95668E-01 1.12051E+01
 -1       200-1.63722E+03-6.05330E+01-5.48050E+00-2.27386E+02 1.94286E+00 2.90486E+00
 -1       201-2.01984E+03-4.34309E+01-1.53555E+00-2.44540E+02-2.36136E+00-3.03588E+00
 -1       202-1.93826E+03-2.00554E+01 8.47973E+00-2.36437E+02-7.71551E-01 4.53928E+00
 -1       203-1.86530E+03-3.30133E+01-1.19935E+01-2.51151E+02-1.20571E+00-4.12200E+00
 -1       204-1.47495E+03-2.03641E+01-2.90071E-01-2.01858E+02-3.44231E+00 1.54686E+01
 -1       205-1.26120E+03-4.14153E+00 1.88072E+01-1.72909E+02 4.33856E+00 1.90616E+00
 -1       206-1.63847E+03-3.62860E+01 1.00310E+01-2.30300E+02-2.08852E+00-5.98382E+00
 -1       207-1.51546E+03-4.13482E+01 1.19417E+01-2.22233E+02 1.95282E-01-3.62769E+00
 -1       208-1.46959E+03-1.62785E+01-2.56193E-02-2.02999E+02 1.64412E-02-7.13343E+00
 -1       209-1.07009E+03-3.68248E+00 1.07771E+01-1.48035E+02-2.15787E+00 5.65503E+00
 -1       210-8.72028E+02-2.55221E+00 5.01458E+00-1.20712E+02 2.17997E+00 9.40500E+00
 -1       211-1.25407E+03-4.80022E+01-1.00324E+01-1.79102E+02 2.83423E-01-6.26456E+00
 -1       212-1.14396E+03-4.03736E+01 6.68939E+00-1.71332E+02 2.15968E-01 1.16200E+00
 -1       213-1.09471E+03-1.35892E+01-3.25271E+00-1.56486E+02 1.68115E+00-1.96060E+01
 -1       214-6.84251E+02-1.64332E+01-8.49667E+00-1.07305E+02 1.71610E+00 8.36040E+00
 -1       215-4.82254E+02-1.51597E+01 1.35739E+00-6.65609E+01 2.95605E+00-9.29422E-02
 -1       216-8.56174E+02-2.44789E+01 9.33762E+00-1.22981E+02-5.19859E+00-4.21557E+00
 -1       217-7.95886E+02-1.19484E+01-1.01714E+01-1.02654E+02-4.19548E-01-7.75371E-01
 -1       218-7.00278E+02-4.60013E+00 2.41689E+00-1.03170E+02-1.08612E-01 1.34973E+00
 -1       219-4.77153E+02-1.64443E+01 7.45692E-01-6.80782E+01-2.57852E+00-5.18964E-01
 -1       220-3.80304E+02 7.10601E-01 2.93148E+00-4.38263E+01 1.05470E-01-8.30184E-01
 -1       221-2.73551E+01 4.06380E+01 1.35298E-01 1.02320E+02 1.52791E+00-1.86093E-01
 -1       222-5.25989E+01-1.90357E+01-3.69814E+00 1.15906E+02-4.30303E+00 1.11451E+00
 -1       223-5.95166E+01-6.07340E+00-1.03077E+01 9.12129E+01-1.55384E+00-3.10300E-01
 -1       224-2.84149E+01 7.05414E+00-1.04661E-01 1.02748E+02 2.81924E+00 7.13098E-01
 -1       225-2.99591E+01 1.73162E+01 4.60448E+00 1.14420E+02 4.84820E-01-3.14025E+00
 -1       226-2.54074E+01 2.19968E+01-1.84756E+00 9.68388E+01 2.23274E+00-3.68091E-01
 -1       227-5.68862E+01-3.28726E+01-5.43679E-01 9.17823E+01-9.18128E+01-2.37713E+00
 -1       228-3.27003E+01 2.66181E+01-7.31105E+00 1.06618E+02-7.07049E-01-1.34724E+00
 -1       229-2.61282E+01 2.92997E+01 5.44506E-01 9.65030E+01-9.70558E-01-2.33558E+00
 -1       230-2.36483E+01 4.36353E+01 2.79640E+00 1.03631E+02 1.29147E+00 7.29522E-01
 -1       231-2.07389E+03-4.41583E+02-5.76376E+02 4.39247E+00 5.86986E+01-2.14350E+02
 -1       232 2.07492E+03 4.03432E+02 5.66903E+02 2.11238E+01 5.61147E+01 2.18231E+02
 -1       233 1.80328E+03-6.07653E+01-9.04684E+01 1.05519E+02-7.18802E+01-5.05659E+01
 -1       234-1.79561E+03 2.56814E+01 9.46778E+01-1.08259E+01-6.89640E+01 5.11052E+01
 -1       235 5.19367E+00 2.32535E+01 1.13949E-01 8.19634E+01 1.08424E+00-9.51209E+00
 -1       236-3.89341E+01 3.72988E+01 2.29194E-02 7.01664E+01 4.55727E+00 8.53724E+00
 -1       237 1.46916E+02 2.57226E+01-1.67484E+01 1.12059E+02-2.48232E+00-1.03461E+01
 -1       238-1.81971E+02 3.60162E+01 1.68484E+01 4.47742E+01 1.71971E+00 1.05376E+01
 -1       239 1.78598E+03-1.46191E+00-1.84812E+00 1.60536E+02-3.95689E-01-4.77044E+00
 -1       240 1.62802E+03 6.30509E+00-2.31707E+00 1.93204E+02-1.28590E+00-1.18909E+01
 -1       241 1.58856E+01-1.15090E+01 2.73897E+00 6.98000E+01 7.55811E+00-4.33126E-01
 -1       242-1.78277E+03-2.00410E+01-5.74872E-01 1.66902E+01 3.17220E+00 2.52133E+00
 -1       243 1.56655E+03-5.52591E+00 1.06201E+01 2.02428E+02-6.24217E+00-9.23271E+00
 -1       244 1.40469E+03 2.50584E+01-1.37979E+00 2.08279E+02-5.44078E+00-6.06020E+00
 -1       245-9.94732E+00-8.41567E+00 8.00726E+00 8.09746E+01 7.74786E+00-2.58963E+00
 -1       246-1.63737E+03-2.13180E+01 3.74898E+00-2.63991E+01 7.13519E+00 1.36008E+01
 -1       247-1.57484E+03 1.45241E+01 7.03385E+00-3.70447E+01-5.09977E+00 2.75055E+00
 -1       248 1.37005E+03 1.02270E+01-2.74092E+00 2.16587E+02 3.46179E+00-1.32894E+01
 -1       249 1.20873E+03 4.22716E+01 5.48371E+00 2.17914E+02-7.93274E-01-5.31343E+00
 -1       250-1.91286E+00 7.10048E+00 8.54759E-01 8.61474E+01-6.33343E-01 5.26041E+00
 -1       251-1.42938E+03-2.29696E+01-1.36140E+01-5.23810E+01 1.18928E+00 3.72435E+00
 -1       252-1.39420E+03 1.79739E-01 1.29713E+01-5.11627E+01-1.90274E+00 1.45713E+01
 -1       253 1.15221E+03 1.78362E+01-1.64983E+00 2.35481E+02-1.31466E+01-7.07697E+00
 -1       254 9.95019E+02 4.96863E+01 2.05963E+00 2.29009E+02 5.31436E+00-1.30415E+01
 -1       255-3.67833E+00 2.31100E+01 1.21291E-01 8.12419E+01-4.59099E+00 1.47219E+01
 -1       256-1.21844E+03-1.73643E+01-9.60323E+00-5.99792E+01 8.44458E+00 2.28036E+01
 -1       257-1.16553E+03 9.57585E+00 5.99257E+00-5.76226E+01-3.48925E+00 7.44628E+00
 -1       258 9.51426E+02 2.05557E+01-1.27867E+01 2.26803E+02-4.96484E+00-1.38815E+01
 -1       259 7.69968E+02 5.46187E+01 5.72184E+00 2.04782E+02-4.85845E-01-9.98999E+00
 -1       260-2.70758E+01 1.24260E+01 4.13609E+00 7.45275E+01 6.67172E+00-5.66158E+00
 -1       261-1.02886E+03-1.90764E+01 2.80459E+00-6.12392E+01 9.00203E+00 5.06123E+00
 -1       262-9.63525E+02 1.96292E+01 1.16196E+01-7.11878E+01 5.60875E+00 1.41451E+01
 -1       263 7.26361E+02 4.02980E+01 7.88183E+00 2.13911E+02-9.90610E+00-4.01841E+00
 -1       264 6.07849E+02 5.74760E+01-1.16326E+01 1.84825E+02 1.01682E+01-8.32403E+00
 -1       265-1.95803E+01 2.24619E+01 1.65602E+00 7.49888E+01-6.93847E+00-1.09457E+01
 -1       266-8.14840E+02-1.64448E+01-6.28198E+00-4.83621E+01-4.56930E+00 5.31706E+00
 -1       267-7.67882E+02 9.63464E+00-1.26781E+01-4.42808E+01-8.40277E+00 5.00271E+00
 -1       268 5.35846E+02 2.82290E+01-1.00352E-01 1.80018E+02-1.09617E+01-4.16266E+00
 -1       269 4.05649E+02 5.46451E+01-7.79725E-01 1.52398E+02 8.60073E+00-8.79651E+00
 -1       270-3.19742E+01 2.03083E+01-1.41353E+01 7.65801E+01 7.19758E+00-3.84318E+00
 -1       271-6.49831E+02-4.72939E+00 3.59064E+00-2.22100E+01 4.73446E+00 2.47903E+00
 -1       272-5.60280E+02 2.24059E+01-1.46988E+00-1.82796E+01-2.62157E+00 2.67147E-01
 -1       273 3.35997E+02 2.27074E+01 1.34641E+00 1.42863E+02-1.20342E+01-7.14811E+00
 -1       274 2.04232E+02 5.32449E+01 1.67721E+01 1.19631E+02 3.33492E+00-9.94634E+00
 -1       275-8.50991E+00 2.44544E+01 9.34898E+00 7.79676E+01-3.49222E+00 5.66885E-01
 -1       276-4.50846E+02-7.73027E+00 3.54159E+00 4.17562E-01 4.35650E+00 1.44052E+00
 -1       277-3.58982E+02 2.88394E+01 7.91362E-01 1.88133E+01 2.57890E+00 9.07686E+00
 -1       278-2.01967E+01 3.41929E+01-2.48810E-01 8.73712E+01 1.54841E+00-8.50106E-02
 -1       279-2.43274E+02 1.18246E+01-1.64848E+01 4.00171E+01 4.45206E+00 1.07433E+01
 -1       280-5.68307E+01-3.28449E+01-4.42305E-01 9.14900E+01 9.17461E+01 2.39623E+00
 -1       281-5.13205E+01-2.77780E-01 4.93556E+00 1.07782E+02-4.40802E-01-1.51150E+00
 -1       282-4.82987E+01 3.88608E+00-5.41603E+00 1.06819E+02 1.92950E+00-2.16934E+00
 -1       283-7.18496E+00 1.63978E+01-1.70303E+00 1.02163E+02 5.81378E-01-2.33808E-01
 -1       284-3.20977E+01 2.96304E+01 5.89796E+00 1.10852E+02-8.16414E-01 1.50287E+00
 -1       285-2.81536E+01 2.64739E+01 1.07250E+00 9.58556E+01-3.00704E+00 1.52200E+00
 -1       286-4.98084E+01 3.10401E+01 1.21972E+00 1.01117E+02 4.64330E+00 9.59998E-01
 -1       287-3.42095E+01 3.96654E+01 1.98896E+00 9.75060E+01 6.87246E-01-2.69010E+00
 -1       288-2.72548E+01 4.05182E+01 1.53261E-01 1.02147E+02-1.48031E+00 1.60588E-01
 -1       289-5.61207E+01-1.61051E+01-5.50848E+00 1.07165E+02-3.46144E-01-8.81746E-01
 -1       290 2.07474E+03 4.03379E+02 5.66810E+02 2.11093E+01-5.60842E+01-2.18244E+02
 -1       291-2.07362E+03-4.41452E+02-5.76193E+02 4.38879E+00-5.86128E+01 2.14419E+02
 -1       292 1.80449E+03-6.02658E+01-9.03130E+01 1.04857E+02 7.18237E+01 5.10705E+01
 -1       293-1.79678E+03 2.50407E+01 9.43137E+01-1.16331E+01 6.86398E+01-5.17256E+01
 -1       294-3.90432E+01 3.72911E+01-3.35135E-02 7.01528E+01-4.57378E+00-8.48617E+00
 -1       295 5.37704E+00 2.33031E+01 2.19192E-01 8.20283E+01-1.14266E+00 9.44509E+00
 -1       296 1.46321E+02 2.49664E+01-1.67495E+01 1.11278E+02 2.79059E+00 1.07648E+01
 -1       297-1.80979E+02 3.60948E+01 1.69657E+01 4.44749E+01-1.67749E+00-1.10058E+01
 -1       298 1.62812E+03 1.39365E+01 2.89680E+00 1.89163E+02 6.83803E+00 5.00151E+00
 -1       299 1.79195E+03-7.71076E+00-2.73918E+00 1.56001E+02-1.60008E+00 8.52915E+00
 -1       300 1.69115E+01-1.12643E+01 2.75235E+00 6.88966E+01-7.73691E+00 5.02608E-01
 -1       301-1.79139E+03-7.88403E+00 1.10390E+00 1.27826E+01-5.30343E+00-5.87772E+00
 -1       302 1.43257E+03 2.55006E+01-3.81369E+00 2.25346E+02-2.37826E+00 4.29573E+00
 -1       303 1.57357E+03 8.51927E-02 1.14065E+01 1.98553E+02 9.72511E+00 6.77767E+00
 -1       304-1.58481E+03-9.65139E+00-9.00052E+00-2.39573E+01 6.07044E+00-4.21531E+00
 -1       305 5.19130E+00-9.50703E+00 6.34208E-01 7.61468E+01 4.52271E+00-9.98093E+00
 -1       306-1.62534E+03-2.69579E+01-5.57993E+00-2.54928E+01 1.61963E+00-1.28859E+01
 -1       307 1.20926E+03 4.28682E+01 5.59929E+00 2.30752E+02-2.41485E+00 5.92190E+00
 -1       308 1.32657E+03 5.52326E+00-3.82091E+00 2.27787E+02 3.48584E+00 6.89705E+00
 -1       309-1.44734E+03-2.18170E+01 1.29662E+01-5.81815E+01-9.60935E+00-6.31572E+00
 -1       310-1.48340E+00 5.88206E+00 1.30367E+01 8.15587E+01-5.86997E+00 3.15825E-01
 -1       311-1.36542E+03 1.00803E+01-2.80491E+00-5.69566E+01 9.00933E+00-5.76764E+00
 -1       312 1.00164E+03 5.17645E+01 5.82157E+00 2.20478E+02 2.73943E+00 4.97478E+00
 -1       313 1.15795E+03 1.42708E+01-1.09173E+01 2.31766E+02 6.64417E+00 2.37544E+01
 -1       314-1.23013E+03-2.13690E+01-4.08698E+00-5.98873E+01-1.44538E+01-1.94515E+00
 -1       315-2.83775E+00 2.41327E+01 4.93619E-01 7.95713E+01-5.99901E+00 1.37527E+01
 -1       316-1.17516E+03 9.68018E+00 5.19461E+00-7.57230E+01-1.47942E+00-7.14823E+00
 -1       317 7.96946E+02 5.49533E+01 1.65273E+00 2.06014E+02-9.31117E+00 1.21022E+01
 -1       318 9.41156E+02 3.12563E+01 4.05079E+00 2.25686E+02 1.29486E+01 4.41820E+00
 -1       319-1.01135E+03-1.67794E+01-9.65763E+00-5.69388E+01 4.21397E-01-1.13414E+01
 -1       320-7.10385E+00 2.35590E+01-1.50624E+00 8.02967E+01 2.65082E+00-7.79885E+00
 -1       321-9.61117E+02 1.25218E+01 3.68291E+00-4.99182E+01-9.81504E-02-5.86570E+00
 -1       322 5.76288E+02 5.61773E+01 5.31011E+00 1.77540E+02-5.20980E-01 8.65629E+00
 -1       323 7.44699E+02 1.44230E+01-7.35453E+00 2.04747E+02 7.73468E+00 5.87636E+00
 -1       324-8.26963E+02-1.03083E+01 1.47593E+00-4.32714E+01-7.03994E+00-8.26733E+00
 -1       325-4.47489E+00 2.17504E+01-1.11491E+01 7.91662E+01-7.81288E+00-5.43708E-01
 -1       326-7.77164E+02 1.90994E+01-1.36144E+01-4.68650E+01-1.13831E+00-9.85804E+00
 -1       327 3.90674E+02 5.37015E+01-1.28650E+01 1.55735E+02-9.33824E+00 5.72065E+00
 -1       328 5.37146E+02 4.88976E+01 1.78038E+01 1.87504E+02 1.32907E+01 6.34836E+00
 -1       329-6.15654E+02-1.17228E+01-4.94095E+00-2.53512E+01 4.58914E+00-1.68409E+00
 -1       330-2.19436E+01 2.22139E+01-2.27181E-01 7.12131E+01 6.02329E+00 1.05166E+01
 -1       331-5.71543E+02 2.28487E+01 1.19052E+00-2.21675E+01 9.23330E+00-6.85170E+00
 -1       332 2.04740E+02 5.83333E+01 2.31906E+01 1.15336E+02 1.11766E+00 9.76560E+00
 -1       333 3.56315E+02 2.72971E+01-5.63185E+00 1.44635E+02 7.81092E-01 6.08521E+00
 -1       334-4.40691E+02-3.37355E-01-2.08615E+00 7.38352E+00 3.53056E+00-5.37532E+00
 -1       335-1.01490E+01 2.61281E+01 5.58580E+00 7.92593E+01-6.81276E+00-1.40010E+01
 -1       336-3.94501E+02 2.79326E+01 7.95667E+00 1.27181E+01-7.01660E+00-1.45357E+01
 -1       337-2.34270E+02 9.12138E+00-1.62786E+01 4.06110E+01-4.81001E+00-1.51018E+01
 -1       338-2.11373E+01 3.26879E+01-5.06422E-01 8.57480E+01-1.11246E+00 2.47362E-01
 -1       339-6.75056E+01-3.64307E+01-8.98515E+00 9.59355E+01-6.55403E-01 1.20323E-01
 -1       340-2.27277E+01 3.41032E+01-1.97096E-01 8.96068E+01 5.67084E-01-3.00227E-01
 -1       341 1.19748E+01-2.20908E+01-1.40869E+01 6.22042E+01 1.41019E+00 4.72047E+00
 -1       342-9.76930E+00-9.01767E+00-1.44238E+00 6.80850E+01-6.68889E-01-5.22135E+00
 -1       343-1.59351E+03-2.40760E+01-4.02035E+00-4.35066E+01-1.88152E+00 3.04142E+00
 -1       344 1.57547E+03 9.81287E+00 5.95188E+00 1.95898E+02-2.63638E+00 7.90628E+00
 -1       345 1.62538E+03 2.27684E+00 2.68154E+00 1.87844E+02 9.50525E-01-2.71619E+00
 -1       346-1.09305E+03-8.41273E+00 8.76957E-01-7.38754E+01-6.65287E-02 1.14610E+00
 -1       347-1.09654E+03-1.10365E+01-6.43972E+00-8.48251E+01 7.51828E-01-1.00398E+01
 -1       348-9.50806E+00 1.37916E+01 4.69022E-01 1.03215E+02-1.57781E+00-2.26777E+00
 -1       349-1.04581E+03-2.39028E+01-1.13913E+01-7.42512E+01 1.14659E+00 1.26944E+00
 -1       350-2.07921E+01 1.46623E+01 8.03167E+00 7.45200E+01-9.07906E-01-2.60137E+00
 -1       351 1.22994E+03 3.74490E+01 9.69852E+00 2.23790E+02-1.76791E+00 3.45588E+00
 -1       352-1.27629E+03-1.68482E+01 1.52551E+00-6.78307E+01-2.27485E-01-2.56299E+00
 -1       353-7.25419E+01 1.45089E+00 8.91202E+00 6.09863E+01 1.86418E+00 8.67719E-01
 -1       354 1.15775E+03 2.00117E+01-3.11458E+00 2.24365E+02-1.72088E+00-3.55560E-02
 -1       355 1.72430E+03-8.56832E+00 4.03032E+00 1.60187E+02-3.77203E+00-3.88856E+00
 -1       356 1.73652E+03-1.72363E+01 5.95048E+00 1.52979E+02 3.55821E+00 1.03173E+01
 -1       357-5.04440E+01-2.03212E+01-3.39965E+00 1.08700E+02-5.40178E+00 1.78096E-01
 -1       358 1.49249E+03-2.98073E+00 6.08486E+00 1.93097E+02-7.46948E-01-3.54502E+00
 -1       359-1.52119E+03-9.95207E+00-1.25629E+01-5.83032E+01 2.15536E+00 1.53627E+00
 -1       360-2.50849E+01-1.33002E+01 1.43488E+00 8.10920E+01 1.78459E+00 3.51639E+00
 -1       361 1.50152E+03 2.17338E-01-1.38239E+00 2.09700E+02-1.39019E+00-1.81586E+00
 -1       362-1.51620E+03-7.57384E+00 5.89309E+00-4.12660E+01-5.49214E+00 2.66522E+00
 -1       363-1.14514E+03 5.02810E+00 8.33723E+00-6.96726E+01-1.34745E+00 6.14942E-01
 -1       364 1.07860E+03 1.78135E+01-1.39302E+00 2.20716E+02 1.97530E+00-5.30640E+00
 -1       365-2.61781E+01 1.61228E+01 7.11565E+00 7.44179E+01-1.25463E+00 3.64944E-01
 -1       366 1.11935E+03 2.09035E+01-5.16268E-01 2.15532E+02 1.79838E-02 3.53034E+00
 -1       367-1.12783E+01 2.15283E+01 8.59227E+00 7.96140E+01-3.48187E+00 1.40454E+00
 -1       368 1.40377E+03 1.68642E+01 7.84075E-01 2.14362E+02-1.72480E+00 4.24793E+00
 -1       369-3.81708E+01-1.09960E+00-6.80580E+00 1.02635E+02 1.38943E+00-7.31537E+00
 -1       370 1.33274E+03 8.70943E+00-1.08448E+01 2.18371E+02 3.81223E+00 4.62778E+00
 -1       371-1.30073E+03-1.91258E+01-5.28361E+00-6.78991E+01 5.00919E+00-6.22361E+00
 -1       372 1.51102E+01-1.65904E+01-1.74667E+01 6.41694E+01 2.71266E+00-1.24556E+00
 -1       373 6.69716E+02 2.71070E+01 1.13542E+01 1.83961E+02-4.09006E+00 5.55078E+00
 -1       374-2.75837E+01 2.94843E+01 1.41436E+01 6.24279E+01-2.29805E+00 6.01700E+00
 -1       375-6.96174E+02 1.71596E+01-7.28988E+00-5.44897E+01-2.83737E+00-6.66689E+00
 -1       376-7.57415E+00 2.15104E+01 1.45910E+00 6.68090E+01-9.37746E-01-6.14365E+00
 -1       377-1.22464E+03-1.61151E+01-4.07593E+00-6.87744E+01-2.43179E+00-3.75769E+00
 -1       378-1.71579E+03-1.55956E+01-2.18966E+00-2.11012E+01-1.56240E+00 4.26022E+00
 -1       379-1.73420E+03-7.40592E+00-5.44113E+00-2.54004E+01 1.12546E+00-1.11017E+01
 -1       380-1.66639E+03-3.09905E+01-9.47501E+00-3.08628E+01 1.08129E+00 8.50269E-02
 -1       381 1.29095E+03 1.62663E+01-2.27849E+00 2.07768E+02 2.27686E-01-6.19845E+00
 -1       382 1.28484E+03 1.74148E+01-3.04198E+00 2.15938E+02 1.86058E+00 7.28848E-01
 -1       383-8.92850E+02-2.90033E+00 2.17271E+00-6.45174E+01 9.70306E-01-1.65805E+00
 -1       384-1.46195E+01 2.35761E+01 3.13042E+00 9.95703E+01 3.57075E+00 1.19711E+00
 -1       385-8.90921E+02 1.89668E+00-1.82245E+00-7.91836E+01 6.19651E-01 1.07692E+01
 -1       386-9.56413E+02 3.27724E-01-1.41899E+00-6.47906E+01 2.01810E+00-3.10257E+00
 -1       387-9.17208E+00 3.18276E+01 2.03010E+00 6.53398E+01-8.13661E-01 7.56101E+00
 -1       388 1.41128E+01 8.90426E+00-8.16269E+00 6.98693E+01-4.64702E-02 1.23105E+00
 -1       389-5.19278E+02 1.50183E+01 1.62687E+00-1.92240E+01-1.79578E+00 7.14704E-01
 -1       390-4.42135E+02 4.50345E+00-9.43938E+00-8.61836E+00 1.58014E-01 4.66477E+00
 -1       391 4.32258E+02 3.24509E+01-2.53240E+00 1.69619E+02 7.23175E-01 1.05623E+00
 -1       392-1.05270E+00 2.33981E+01-1.02060E+01 7.08811E+01 3.05381E-01-5.30813E+00
 -1       393 7.33927E+02 4.00695E+01 9.86409E-01 1.95122E+02 8.94513E-01 3.42549E+00
 -1       394-7.91878E+02-1.33397E+01-8.78849E+00-5.09543E+01 2.40946E+00 7.85552E+00
 -1       395 6.01062E+00 2.42050E+01-1.82174E+00 7.28910E+01-1.83110E+00 2.75784E+00
 -1       396 5.43269E+02 4.33426E+01 2.00303E+00 1.66239E+02-4.06775E-01-3.57379E+00
 -1       397-5.92251E+02-8.28262E+00-1.05654E+01-2.68637E+01-4.98796E+00-8.35329E+00
 -1       398 3.13370E-01 4.69684E+01 1.40209E+01 1.00404E+02 2.80841E+00-2.94461E+00
 -1       399-3.82798E+02 1.87311E+01-9.29595E-01 9.77068E+00 5.04268E-01 7.62658E+00
 -1       400 2.69044E+02 3.74018E+01-7.26280E+00 1.24212E+02-1.07934E+00-4.07482E+00
 -1       401-2.16440E+01 4.08115E+01 8.17899E+00 6.79749E+01 7.66776E-03 1.20826E+00
 -1       402 2.64364E+02 3.60547E+01-9.11834E+00 1.12970E+02 4.82265E+00 5.41216E+00
 -1       403 4.75928E+02 4.12399E+01-5.99686E-01 1.66164E+02-1.00611E+00 2.77559E+00
 -1       404-5.02005E+02 1.71219E+01-2.75453E+00-1.53403E+01 7.33563E-01-4.19390E+00
 -1       405-6.16746E+02 1.03654E-01 3.54738E+00-2.30851E+01 3.11982E+00 5.65153E+00
 -1       406-3.28417E+01 3.03523E+01 4.99607E+00 6.00740E+01-3.12534E-01-2.19202E-01
 -1       407 1.01960E+03 4.00814E+01 4.11612E+00 2.19563E+02 2.55449E+00 3.31016E+00
 -1       408-8.27784E+02-1.23005E+01-3.79428E+00-5.23026E+01-3.07368E+00-2.35064E+00
 -1       409-7.16358E+02 9.98853E+00 8.91695E-02-3.70274E+01 2.42709E+00-2.40773E+00
 -1       410 6.59250E+02 3.49048E+01-8.61217E+00 2.03087E+02 2.03004E+00 2.79844E+00
 -1       411-6.77805E+00-1.67343E-02-9.83695E+00 7.66931E+01 3.47748E+00-1.12802E+00
 -1       412 8.73036E+02 3.11616E+01 8.39755E-01 2.07583E+02-1.75128E+00 2.65080E+00
 -1       413-4.95748E+01 1.52571E+01 7.70379E+00 6.80371E+01-1.74748E+00-2.22114E+00
 -1       414 8.96872E+02 2.58403E+01 1.48014E+00 2.00514E+02-1.19258E+00-7.35391E+00
 -1       415 8.21884E+02 4.97156E+01 6.08780E+00 1.99147E+02-8.45195E-01-1.00203E+00
 -1       416-2.78438E+02 1.51552E+01 1.29071E+01 5.29784E+00-3.95056E+00-7.91148E+00
 -1       417-2.93631E+02 1.81655E+01 6.51932E+00 8.13516E+00 7.55408E-02 5.58163E+00
 -1       418-1.46352E+03-2.32542E+01-8.24803E+00-6.62654E+01-3.40573E+00 5.32836E-01
 -1       419 5.53498E+00 1.29585E+01-4.12678E+00 7.87555E+01-2.56781E+00-6.35962E-01
 -1       420 3.81331E+02 3.92201E+01-7.46851E+00 1.48551E+02 8.52780E-01 2.34020E+00
 -1       421-1.90018E+01 1.07668E+00-5.96578E+00 7.94346E+01 2.75610E+00 2.56046E+00
 -1       422 9.57542E+02 3.88695E+01 8.86241E+00 2.18982E+02 1.78842E-01 1.83367E+00
 -1       423-1.82482E+01 4.13021E+00-7.88098E+00 7.23843E+01 2.91923E+00-1.67286E+00
 -1       424 3.28169E+02 2.64732E+01-6.47507E+00 1.41473E+02-2.64859E+00-1.75295E+00
 -1       425 6.20415E+02 5.65668E+01 1.18154E+01 1.77412E+02 2.46338E+00 6.59745E-01
 -1       426-2.48634E+01 3.81906E+01 8.19477E-03 9.58789E+01-8.50972E-01 1.96974E-01
 -1       427-7.26382E+01 2.85289E+01 1.30693E+01 4.99140E+01 3.83629E-02-3.16796E-02
 -1       428-1.09088E+02 2.24634E+01 8.04275E-01 5.29706E+01 1.17679E+00-6.48298E-01
 -1       429 7.97113E+01 3.35708E+01-6.06158E-01 8.86480E+01 1.33328E+00 2.49171E-01
 -1       430-1.23918E+01 2.55782E+01 5.18507E-02 6.49224E+01 1.26699E-01-7.76284E-03
 -1       431 4.94524E+01 2.13593E+01-1.29331E+01 7.58691E+01 5.08056E-02 1.84464E-02
 -1       432-5.96413E+01-3.08096E+01-8.47890E+00 4.31072E+01 1.16899E+02 3.12844E+00
 -1       433-1.93703E+03 4.16605E+01-4.21398E+01 3.04437E+01-4.09732E-02-4.24362E-02
 -1       434-1.98955E+03 1.46498E+01-1.70592E+00 8.14207E+01 6.76783E+01 7.60476E+00
 -1       435 1.98104E+03-5.98352E+01 7.57266E+00 1.55727E+02 6.52177E+01-5.83206E+00
 -1       436 6.12235E+00-1.93441E+01-8.49694E-01 2.02031E+02-1.46957E-01-2.34126E-02
 -1       437 1.91963E+03-7.43491E+01 3.19857E+01 8.55485E+01-3.27093E-02 3.75561E-02
 -1       438-1.98962E+03 1.45547E+01-1.75964E+00 8.15672E+01-6.78128E+01-7.78490E+00
 -1       439-5.96560E+01-3.08133E+01-8.47612E+00 4.32094E+01-1.16912E+02-3.11843E+00
 -1       440 1.98109E+03-5.97596E+01 7.54108E+00 1.55858E+02-6.53471E+01 5.97331E+00
 -1       441-1.09083E+02 2.23597E+01 8.11407E-01 5.28773E+01-1.08775E+00 5.22644E-01
 -1       442-2.48340E+01 3.81510E+01 2.52467E-02 9.58146E+01 8.86299E-01-2.03035E-01
 -1       443 7.98091E+01 3.35807E+01-5.82658E-01 8.85589E+01-1.20195E+00-1.58282E-01
 -1       444-1.73564E+03-1.83861E+01-1.53815E+01-2.77310E+01-3.65436E-02-1.23208E+00
 -1       445-5.68619E+01-2.64497E+01-6.17690E+00 9.92736E+01-3.47730E+00-1.13418E-01
 -1       446-5.57498E+01-2.81827E+01-7.36277E+00 1.03049E+02 2.34002E-01 3.13205E-01
 -1       447 1.73093E+03-2.09047E+01 1.14749E+01 1.38523E+02-2.91825E-01 1.33463E+00
 -1       448-1.90036E+03-5.00436E+00-4.06075E+00 4.75530E+01-4.58025E-01-3.70520E-02
 -1       449 1.87905E+03-4.30930E+01 2.26791E+00 1.36517E+02-4.20955E-01 1.74076E-01
 -1       450-5.91932E+01-3.42509E+01-5.28747E+00 9.01242E+01 1.91126E+01 1.20120E+00
 -1       451-5.93005E+01-3.42563E+01-5.38889E+00 9.03802E+01-1.99933E+01-1.01850E+00
 -1       452-2.34658E+01 3.59077E+01-8.83040E-02 9.40299E+01-1.49126E+00 5.02920E-01
 -1       453-1.94694E+01 3.65044E+01 4.44042E+00 9.25831E+01 3.79503E+00-3.25624E+00
 -1       454-2.79822E+02 4.89694E+00 9.03748E+00 5.23505E-01-1.32451E-01-3.28988E-02
 -1       455 2.60509E+02 3.57490E+01-1.29726E+01 1.05507E+02 1.26639E-01 2.38802E+00
 -1       456-1.42594E+02 1.17067E+01-1.45231E+01 3.85774E+01 2.97991E-01-1.53850E-01
 -1       457 1.19564E+02 3.65685E+01 1.44776E+01 8.60326E+01 3.89299E-01-4.84027E-03
 -1       458-2.39815E+01 3.64700E+01 9.51690E-02 9.32755E+01 4.98176E+00-8.92891E-01
 -1       459-2.39297E+01 3.62474E+01-1.23433E-02 9.31905E+01-4.31285E+00 7.14469E-01
 -1       460-1.80763E+03-4.02078E+01-2.58832E+01 4.54086E+00-1.25710E+01-7.06007E+00
 -1       461 1.80036E+03-1.11330E+00 2.17350E+01 1.33319E+02-7.51119E+00 8.36684E+00
 -1       462-1.80613E+03-3.97538E+01-2.58093E+01 4.43945E+00 1.09799E+01 6.76055E+00
 -1       463 1.79780E+03-1.86500E+00 2.17457E+01 1.33507E+02 6.37894E+00-7.83346E+00
 -1       464-2.13699E+02 2.12284E+01-6.03095E-01 3.46538E+01 1.37222E+00 2.33052E+00
 -1       465 1.82383E+02 3.41345E+01 1.42873E-01 1.10655E+02 3.74206E-01-3.05403E+00
 -1       466 1.81113E+02 3.39181E+01 2.72022E-01 1.10077E+02 1.01040E+00 2.99448E+00
 -1       467-2.12310E+02 2.12188E+01-1.10976E+00 3.49392E+01-3.29384E-01-2.86669E+00
 -3
    1PSTEP                         3           1           1          
  100CL  101 3.40000E-01         467                     0    1           1
 -4  FORC        4    1
 -5  F1          1    2    1    0
 -5  F2          1    2    2    0
 -5  F3          1    2    3    0
 -5  ALL         1    2    0    0    1ALL
 -1         1-8.88244E+03-3.93116E+03 5.76987E+03
 -1         2-8.88306E+03-3.93153E+03-5.77027E+03
 -1         3 8.61171E+03-3.84814E+03-5.72765E+03
 -1         4 8.61230E+03-3.84873E+03 5.72831E+03
 -1         5 9.40361E-03-1.45959E-02 1.35444E-03
 -1         6 9.36309E-03-1.45838E-02-1.37059E-03
 -1         7 1.15136E-02 1.15953E-02 1.64812E-03
 -1         8 1.14813E-02 1.16084E-02-1.64702E-03
 -1         9-2.86638E+04-9.90367E+03 5.07124E-02
 -1        10 2.24606E+02 4.81450E+03-1.03209E+02
 -1        11 2.78937E+04-9.51972E+03-1.17718E-01
 -1        12 2.24750E+02 4.81476E+03 1.03189E+02
 -1        13 2.07949E+00 5.65500E+02-1.45705E-03
 -1        14 1.60101E+00 5.67127E+02 4.00808E-01
 -1        15 1.16395E+00 5.68750E+02-8.23351E-04
 -1        16 1.59871E+00 5.67127E+02-4.03073E-01
 -1        17 1.77443E-02 5.93394E-03 1.72004E-03
 -1        18 5.97717E-02 1.81856E-02 1.01481E-03
 -1        19 3.20774E-02 1.78521E-02-5.86280E-04
 -1        20 1.56288E-02 2.21225E-02 3.89733E-03
 -1        21 3.97090E-02 7.67516E-02 7.83260E-03
 -1        22 4.48659E-02 3.35354E-02 1.23935E-02
 -1        23 8.40022E-02 1.96834E-02 1.19002E-02
 -1        24 1.03537E-01-3.07616E-03 7.21010E-03
 -1        25 5.45435E-02-1.35239E-02 1.68206E-03
 -1        26-1.64555E-04-1.46940E-02-9.32095E-03
 -1        27 5.65598E-03-9.35799E-02-5.65174E-02
 -1        28 4.21815E-02-2.31981E-01-1.38175E-01
 -1        29 1.32275E-01-3.74280E-01-2.18532E-01
 -1        30 2.66193E-01-4.72726E-01-2.58339E-01
 -1        31 3.98345E-01-5.60487E-01-2.58064E-01
 -1        32 4.82577E-01-7.29410E-01-2.57697E-01
 -1        33 5.04367E-01-1.01825E+00-2.86841E-01
 -1        34 4.83495E-01-1.34574E+00-3.44270E-01
 -1        35 4.61969E-01-1.57367E+00-3.92374E-01
 -1        36 1.76629E-02 5.89019E-03-1.70273E-03
 -1        37 2.25940E-02 8.72546E-03-1.66045E-03
 -1        38 8.53833E-02 5.67177E-02 2.62541E-04
 -1        39 3.38027E-02 5.12602E-02-3.79852E-03
 -1        40 1.57605E-02 2.78297E-02-9.23918E-03
 -1        41 5.75820E-02 4.59262E-02-1.10832E-02
 -1        42 7.21566E-02 1.76815E-02-1.20886E-02
 -1        43 6.22968E-02-3.94948E-03-8.59441E-03
 -1        44 5.45577E-02-1.38030E-02-1.66552E-03
 -1        45-1.73911E-04-1.46745E-02 9.31182E-03
 -1        46 5.85566E-03-9.37062E-02 5.65826E-02
 -1        47 4.15740E-02-2.32289E-01 1.38577E-01
 -1        48 1.31516E-01-3.73442E-01 2.18137E-01
 -1        49 2.67692E-01-4.72847E-01 2.59150E-01
 -1        50 3.99194E-01-5.63661E-01 2.58693E-01
 -1        51 4.83315E-01-7.30991E-01 2.57108E-01
 -1        52 5.05977E-01-1.01434E+00 2.87374E-01
 -1        53 4.85385E-01-1.34728E+00 3.43929E-01
 -1        54 4.64233E-01-1.57410E+00 3.91806E-01
 -1        55 1.89515E-02-3.07717E-03 1.76213E-03
 -1        56 4.66567E-02 8.08167E-03 8.15850E-05
 -1        57 5.88497E-02 3.56371E-02-3.16123E-03
 -1        58 3.91621E-02 5.34128E-02-6.98303E-03
 -1        59 3.15079E-02 5.48403E-02-8.90129E-03
 -1        60 2.75527E-02 1.70848E-02-9.34868E-03
 -1        61 1.32143E-01 2.25299E-02-6.99191E-03
 -1        62 1.75755E-01 8.57262E-03-5.54717E-03
 -1        63 5.26599E-02 8.50843E-03-6.74259E-03
 -1        64-6.37154E-04 1.43875E-02-9.42101E-03
 -1        65-9.79379E-03 9.21849E-02-5.72295E-02
 -1        66-4.69716E-02 2.30474E-01-1.43792E-01
 -1        67-1.35560E-01 3.74040E-01-2.34004E-01
 -1        68-2.69877E-01 4.79230E-01-2.85661E-01
 -1        69-4.03380E-01 5.81004E-01-2.96002E-01
 -1        70-4.90420E-01 7.57458E-01-2.97445E-01
 -1        71-5.15302E-01 1.04403E+00-3.22449E-01
 -1        72-4.95416E-01 1.36963E+00-3.66444E-01
 -1        73-4.70145E-01 1.58331E+00-3.99991E-01
 -1        74 1.89502E-02-3.03064E-03-1.74678E-03
 -1        75 3.59062E-02 6.42823E-03-4.83470E-04
 -1        76 4.41589E-02 2.97330E-02 4.93580E-03
 -1        77 2.08313E-02 3.03114E-02 6.63812E-03
 -1        78 5.20621E-02 7.17145E-02 9.97630E-03
 -1        79 7.84201E-02 4.53862E-02 7.84423E-03
 -1        80 4.86950E-02 7.59344E-03 7.62308E-03
 -1        81 9.38883E-02 3.39129E-03 7.29358E-03
 -1        82 5.27630E-02 8.79052E-03 6.25976E-03
 -1        83-6.32373E-04 1.43907E-02 9.43142E-03
 -1        84-9.69514E-03 9.20769E-02 5.72171E-02
 -1        85-4.72459E-02 2.30196E-01 1.43850E-01
 -1        86-1.37291E-01 3.75715E-01 2.35097E-01
 -1        87-2.69746E-01 4.78994E-01 2.86108E-01
 -1        88-4.02288E-01 5.79128E-01 2.95062E-01
 -1        89-4.87534E-01 7.57097E-01 2.97441E-01
 -1        90-5.13051E-01 1.04478E+00 3.22153E-01
 -1        91-4.94009E-01 1.36810E+00 3.67318E-01
 -1        92-4.67887E-01 1.58274E+00 4.00539E-01
 -1        93 2.65903E+02-1.64899E+03 1.03573E-02
 -1        94-2.14568E+04 4.97017E+03-1.26206E+03
 -1        95-2.14564E+04 4.96994E+03 1.26164E+03
 -1        96 2.17549E+04 5.13145E+03 1.24335E+03
 -1        97 2.17546E+04 5.13113E+03-1.24312E+03
 -1        98 2.06415E-02-2.36826E-04-7.42643E-06
 -1        99 3.21695E+00 1.13427E+03-6.54808E-06
 -1       100 3.21696E+00 1.13427E+03-4.50924E-03
 -1       101 3.21599E+00 1.13424E+03-2.40298E-03
 -1       102 3.21601E+00 1.13424E+03-2.11200E-03
 -1       103 2.59420E-02 4.66145E-03-1.24440E-05
 -1       104 6.20335E-02 2.29008E-02-1.28153E-03
 -1       105 2.21520E-02 1.65171E-02-2.41355E-04
 -1       106 4.73251E-02 6.63974E-02-4.00102E-04
 -1       107 3.89983E-02 5.21909E-02-2.02101E-03
 -1       108 1.21081E-01 5.78903E-02-2.94631E-04
 -1       109 2.56251E-01 2.43555E-02-1.23378E-04
 -1       110 7.86468E-02-1.15263E-02-6.34176E-04
 -1       111 1.46212E-02 2.57187E-03-5.97381E-06
 -1       112 4.58625E-02-9.30723E-03-3.43763E-06
 -1       113-3.98069E-03-1.35711E-02 8.23595E-04
 -1       114-3.98307E-03-1.35595E-02-8.23372E-04
 -1       115-4.90245E-03-4.63224E-02-2.53489E-04
 -1       116-4.88905E-03-4.63489E-02 2.64992E-04
 -1       117 9.05496E-01-3.19218E+00-1.93668E-03
 -1       118 9.05575E-01-3.19223E+00 7.10202E-04
 -1       119 9.06762E-01-3.09395E+00 1.49797E-03
 -1       120 9.06703E-01-3.09404E+00-2.67538E-03
 -1       121 1.02040E-02-2.33083E-01 4.85686E-04
 -1       122-9.27290E-04-1.41090E-01 5.55398E-04
 -1       123 5.01805E-03-8.53673E-02-1.51197E-05
 -1       124-9.89692E-04-1.41160E-01-6.84397E-04
 -1       125 1.15109E-01-5.13997E-01 9.03681E-04
 -1       126-5.02926E-03-4.13683E-01 1.49589E-03
 -1       127 4.33956E-02-3.09339E-01 1.52161E-04
 -1       128 2.64870E-02-2.30578E-01-3.62715E-04
 -1       129 3.16070E-02-4.04763E-01-6.87580E-04
 -1       130 3.13248E-01-7.75661E-01 1.07109E-03
 -1       131 2.26104E-01-6.85660E-01 9.73976E-04
 -1       132 8.62750E-02-6.38037E-01 1.08886E-03
 -1       133 7.63702E-02-5.28508E-01-1.34788E-03
 -1       134 2.08300E-01-6.95018E-01-8.36293E-04
 -1       135 5.72058E-01-9.77836E-01 1.41383E-03
 -1       136 4.44347E-01-9.25855E-01-1.20700E-03
 -1       137 3.86645E-01-8.37495E-01 1.11834E-04
 -1       138 2.97428E-01-7.88650E-01-1.28247E-03
 -1       139 4.12879E-01-9.54329E-01 8.55056E-04
 -1       140 8.29248E-01-1.16351E+00-3.14476E-03
 -1       141 6.89318E-01-1.12110E+00-1.95243E-03
 -1       142 6.64515E-01-1.01101E+00 1.24771E-03
 -1       143 5.82325E-01-9.57204E-01 2.29043E-04
 -1       144 7.15045E-01-1.09754E+00 4.10738E-03
 -1       145 9.11304E-01-1.56703E+00-7.35690E-03
 -1       146 8.81472E-01-1.38867E+00-5.74316E-03
 -1       147 8.87859E-01-1.26034E+00 5.09899E-04
 -1       148 8.16539E-01-1.17921E+00 2.49817E-03
 -1       149 8.43308E-01-1.40264E+00 7.18219E-03
 -1       150 8.33087E-01-2.16301E+00-7.00841E-03
 -1       151 8.55831E-01-1.91660E+00-7.83647E-03
 -1       152 9.90817E-01-1.72884E+00-5.13660E-04
 -1       153 9.72184E-01-1.56295E+00 5.79369E-03
 -1       154 9.21957E-01-1.91453E+00 7.11606E-03
 -1       155 9.21280E-01-2.82308E+00-3.69842E-03
 -1       156 8.95605E-01-2.57212E+00-4.29096E-03
 -1       157 9.91273E-01-2.38356E+00 4.18668E-04
 -1       158 9.19093E-01-2.17175E+00 7.73887E-03
 -1       159 9.72907E-01-2.58323E+00 4.68457E-03
 -1       160 9.40699E-01-2.98451E+00-5.58593E-04
 -1       161 9.20453E-01-2.82459E+00 3.01698E-03
 -1       162 8.23379E-02 2.76626E-02-8.86724E-04
 -1       163 6.66996E-02 8.97886E-02 1.19154E-03
 -1       164 1.53075E-02 3.55040E-02 7.18561E-04
 -1       165 2.09852E-02 2.94628E-02-4.96750E-04
 -1       166 8.88226E-02 3.58826E-02 1.74352E-03
 -1       167 1.36068E-01 1.10781E-02-4.97823E-05
 -1       168 6.87854E-02 1.05711E-02 3.39268E-06
 -1       169 1.47521E-02-1.72740E-03-4.77285E-06
 -1       170 4.30025E-02 4.82253E-03-1.71950E-06
 -1       171 2.61242E-02 1.70494E-03-2.98286E-05
 -1       172-4.28786E-03 1.32861E-02-8.53348E-04
 -1       173-4.28505E-03 1.32897E-02 8.55177E-04
 -1       174-6.47941E-03 4.55386E-02-5.27054E-05
 -1       175-6.46716E-03 4.55513E-02 7.89826E-05
 -1       176-9.42376E-01 3.19975E+00 4.09593E-03
 -1       177-9.42392E-01 3.19967E+00-2.86628E-03
 -1       178-9.63413E-01 3.10492E+00-5.62908E-03
 -1       179-9.63544E-01 3.10496E+00 6.61466E-03
 -1       180-1.82429E-02 1.40100E-01 3.99086E-04
 -1       181-3.43084E-02 2.32527E-01 2.05783E-04
 -1       182-1.94359E-03 8.57182E-02 1.02952E-05
 -1       183-1.82041E-02 1.40190E-01-2.92826E-04
 -1       184-1.29144E-01 3.85591E-01 1.03829E-03
 -1       185-1.13031E-01 5.34439E-01-1.40492E-04
 -1       186-9.71848E-02 3.94529E-01-5.95994E-04
 -1       187-3.65985E-02 3.18094E-01 2.57236E-04
 -1       188-1.95251E-02 2.35282E-01 3.21368E-04
 -1       189-2.69536E-01 6.70656E-01 2.61547E-03
 -1       190-3.58361E-01 7.42088E-01-6.93504E-05
 -1       191-1.46764E-01 5.12482E-01-2.76343E-05
 -1       192-2.07775E-01 5.88995E-01-6.16536E-04
 -1       193-2.54910E-01 6.85596E-01-3.82166E-03
 -1       194-4.96157E-01 9.22763E-01 1.91964E-03
 -1       195-6.18025E-01 9.96911E-01 1.91467E-03
 -1       196-3.39826E-01 7.84148E-01-2.05274E-04
 -1       197-3.97631E-01 8.85367E-01-1.87627E-04
 -1       198-4.86641E-01 9.45574E-01-2.01511E-03
 -1       199-7.72217E-01 1.13487E+00 3.45258E-03
 -1       200-8.70691E-01 1.23242E+00 4.32626E-03
 -1       201-6.09596E-01 1.02149E+00-2.77235E-03
 -1       202-7.33212E-01 9.79033E-01-2.15728E-03
 -1       203-7.82463E-01 1.11023E+00-5.03539E-03
 -1       204-1.01641E+00 1.39824E+00 5.34862E-03
 -1       205-1.07996E+00 1.58815E+00 8.10424E-03
 -1       206-8.87995E-01 1.20734E+00-4.79015E-03
 -1       207-9.29437E-01 1.32347E+00-6.46624E-04
 -1       208-1.06159E+00 1.36397E+00-7.63225E-03
 -1       209-1.18409E+00 1.91772E+00 8.41630E-03
 -1       210-1.11743E+00 2.20337E+00 9.88682E-03
 -1       211-1.01666E+00 1.61589E+00-7.23927E-03
 -1       212-1.03717E+00 1.77942E+00 4.00630E-04
 -1       213-1.11312E+00 1.93825E+00-7.91375E-03
 -1       214-1.03764E+00 2.60361E+00 7.56252E-03
 -1       215-1.00975E+00 2.84538E+00 6.86903E-03
 -1       216-1.03679E+00 2.21184E+00-7.71186E-03
 -1       217-1.19777E+00 2.39744E+00-8.75243E-04
 -1       218-1.00062E+00 2.60844E+00-7.90008E-03
 -1       219-1.01012E+00 2.84638E+00-6.15957E-03
 -1       220-9.55997E-01 2.99687E+00 2.98216E-04
 -1       221 3.68262E-02-1.81203E-03-2.69674E-03
 -1       222 3.69141E-02 5.40028E-03 2.57849E-03
 -1       223 5.47633E-02 2.60149E-02 9.14776E-04
 -1       224 6.78894E-02 5.95804E-02-1.09751E-04
 -1       225 2.40663E-02 4.44894E-02-4.96605E-05
 -1       226 1.08299E-01 9.67791E-02 9.75512E-04
 -1       227 1.14892E-02 6.21807E-04 2.42487E-03
 -1       228 4.26389E-02 1.53992E-02 3.08815E-03
 -1       229 5.93171E-02 4.69508E-03 2.58377E-03
 -1       230 8.84139E-02 5.56326E-04-5.57554E-05
 -1       231-8.91060E-03-8.47409E-04-6.95734E-03
 -1       232-9.53122E-03 4.21151E-04-7.05646E-03
 -1       233-2.37360E-02-7.35963E-04-2.64915E-02
 -1       234-2.27218E-02-1.95644E-03-2.63609E-02
 -1       235-1.93943E-02 2.44257E-02-7.95717E-01
 -1       236-2.61120E-02-1.34309E-02-8.04757E-01
 -1       237-6.23522E-02 2.13100E-02-7.71820E-01
 -1       238-6.61372E-02-2.06412E-04-7.89972E-01
 -1       239-4.31675E-02-4.23321E-03-8.36085E-02
 -1       240-7.04130E-02-1.26316E-02-1.39207E-01
 -1       241-2.36041E-02-2.15500E-03-4.93284E-02
 -1       242-4.07177E-02-7.00183E-03-8.38337E-02
 -1       243-6.46631E-02-2.37444E-02-2.39783E-01
 -1       244-8.55869E-02-4.34942E-02-3.13060E-01
 -1       245-1.08046E-01-2.95028E-02-1.86553E-01
 -1       246-6.68226E-02-1.56013E-02-1.39842E-01
 -1       247-4.37129E-02-2.19763E-02-2.43735E-01
 -1       248-7.77433E-02-5.82297E-02-4.14273E-01
 -1       249-5.67419E-02-6.92344E-02-4.66652E-01
 -1       250-7.65608E-02-5.38905E-02-3.69093E-01
 -1       251-1.09911E-01-6.88677E-02-3.19421E-01
 -1       252-8.59207E-02-8.56450E-02-4.27009E-01
 -1       253-2.29393E-02-5.03384E-02-5.17785E-01
 -1       254-3.13419E-02-7.91484E-02-5.33716E-01
 -1       255-2.42427E-02-5.44041E-02-5.03881E-01
 -1       256-4.88417E-02-9.08518E-02-4.86235E-01
 -1       257-4.45469E-02-1.10543E-01-5.43699E-01
 -1       258-5.27217E-02-9.64628E-02-5.33855E-01
 -1       259-7.29727E-02-6.26989E-02-5.30176E-01
 -1       260-5.48284E-02-1.42940E-01-5.53478E-01
 -1       261-3.14818E-02-1.12764E-01-5.66241E-01
 -1       262-3.89815E-02-1.07359E-01-5.75330E-01
 -1       263-6.70032E-02-2.52413E-02-5.24181E-01
 -1       264-4.78336E-02-1.71765E-03-5.32435E-01
 -1       265-3.27015E-02-3.85325E-02-5.45363E-01
 -1       266-5.15315E-02-9.37087E-02-5.73931E-01
 -1       267-3.98314E-02-4.06437E-02-5.75177E-01
 -1       268-6.51498E-02 1.15378E-02-5.68169E-01
 -1       269-7.07127E-02 1.95337E-02-6.03147E-01
 -1       270-1.89342E-01-2.99926E-02-5.73259E-01
 -1       271-8.05646E-02-3.91231E-02-5.86289E-01
 -1       272-1.07276E-01-1.55458E-02-6.18152E-01
 -1       273-7.19407E-02 2.34034E-02-6.71454E-01
 -1       274-9.30250E-02 2.82335E-02-7.15697E-01
 -1       275-2.36865E-01 1.23995E-02-6.59632E-01
 -1       276-1.15576E-01-7.95797E-03-6.53063E-01
 -1       277-1.56619E-01-3.19663E-04-7.07687E-01
 -1       278-5.25667E-02 1.38327E-02-7.58321E-01
 -1       279-9.59287E-02 3.06018E-03-7.46045E-01
 -1       280 1.14815E-02 6.24229E-04-2.43469E-03
 -1       281 2.74479E-02 1.09551E-02-8.01965E-04
 -1       282 2.94352E-02 2.79705E-02 5.70646E-04
 -1       283 5.80215E-02 1.05187E-01 1.40199E-03
 -1       284 3.60400E-02 3.94765E-02-1.87778E-03
 -1       285 1.48311E-01 3.25057E-02-2.16041E-03
 -1       286 7.80914E-02 7.88667E-03-1.33378E-03
 -1       287 1.93187E-01 8.21478E-04-5.94009E-04
 -1       288 3.67654E-02-1.81067E-03 2.65113E-03
 -1       289 8.91398E-02 1.96592E-02-2.92853E-03
 -1       290-9.52332E-03 4.14327E-04 7.05727E-03
 -1       291-8.90279E-03-8.38125E-04 6.96460E-03
 -1       292-2.37579E-02-7.46545E-04 2.64926E-02
 -1       293-2.27440E-02-1.93767E-03 2.63702E-02
 -1       294-2.15899E-02-1.44270E-02 8.04733E-01
 -1       295-1.47968E-02 2.34578E-02 7.95747E-01
 -1       296-5.75685E-02 2.04870E-02 7.71956E-01
 -1       297-6.16170E-02-1.11380E-03 7.90020E-01
 -1       298-7.24868E-02-1.44443E-02 1.39434E-01
 -1       299-4.34560E-02-4.02898E-03 8.35915E-02
 -1       300-2.36434E-02-2.13005E-03 4.93288E-02
 -1       301-4.09308E-02-6.92769E-03 8.39360E-02
 -1       302-6.52664E-02-3.40700E-02 3.12857E-01
 -1       303-4.76718E-02-1.71624E-02 2.39531E-01
 -1       304-6.22734E-02-2.82654E-02 2.42880E-01
 -1       305-4.30296E-02-1.36394E-02 1.86525E-01
 -1       306-8.37604E-02-2.10265E-02 1.40487E-01
 -1       307-5.45451E-02-7.33799E-02 4.66621E-01
 -1       308-7.55043E-02-6.45866E-02 4.13978E-01
 -1       309-4.29805E-02-3.04081E-02 3.19269E-01
 -1       310-1.27727E-01-9.21609E-02 3.68640E-01
 -1       311-3.51113E-02-4.94824E-02 4.28280E-01
 -1       312-3.20670E-02-7.52013E-02 5.33978E-01
 -1       313-4.75330E-02-8.62018E-02 5.20031E-01
 -1       314-2.48009E-02-5.71328E-02 4.85557E-01
 -1       315-2.04701E-02-5.69682E-02 5.04027E-01
 -1       316-4.05438E-02-1.14870E-01 5.44491E-01
 -1       317-5.30843E-02-5.50862E-02 5.29229E-01
 -1       318-1.76863E-02-4.30927E-02 5.33034E-01
 -1       319-5.52957E-02-1.69443E-01 5.68202E-01
 -1       320-1.33519E-02-5.41157E-02 5.51750E-01
 -1       321-4.54873E-02-1.07474E-01 5.74238E-01
 -1       322-1.39221E-01-1.51262E-02 5.35210E-01
 -1       323-3.65437E-02-1.66816E-02 5.25248E-01
 -1       324-5.22706E-02-9.33818E-02 5.75118E-01
 -1       325-1.06226E-01-9.01299E-02 5.48152E-01
 -1       326-6.40437E-02-5.27795E-02 5.77045E-01
 -1       327-6.75874E-02 1.85641E-02 6.02754E-01
 -1       328-1.05531E-01 7.86366E-03 5.68736E-01
 -1       329-1.11058E-01-5.23406E-02 5.85532E-01
 -1       330-5.93386E-02-1.07404E-02 5.71464E-01
 -1       331-6.82260E-02-1.30430E-02 6.18447E-01
 -1       332-8.67878E-02 2.83784E-02 7.16990E-01
 -1       333-1.51451E-01 3.37690E-02 6.72820E-01
 -1       334-1.40921E-01-1.38854E-02 6.49429E-01
 -1       335-6.73162E-02 1.45312E-02 6.57196E-01
 -1       336-2.35745E-01-3.86227E-03 7.09154E-01
 -1       337-9.14196E-02 2.46431E-03 7.47225E-01
 -1       338-4.82945E-02 1.28533E-02 7.58627E-01
 -1       339 4.70426E-02 4.22106E-03-3.81018E-05
 -1       340 1.25751E-01-5.31408E-03 1.58043E-04
 -1       341-1.42422E-01-3.98720E-02 1.16419E-03
 -1       342-1.46167E-01-5.35120E-02 4.75720E-06
 -1       343-1.33972E-01-3.63990E-02-5.44075E-04
 -1       344-1.05390E-01-2.37288E-02 5.27275E-04
 -1       345-1.83609E-01-3.43833E-02-5.47343E-04
 -1       346-3.08893E-02-6.97358E-02-4.38248E-04
 -1       347-5.14162E-02-1.16930E-01-2.67205E-03
 -1       348-6.49413E-02-1.13508E-01-1.11564E-03
 -1       349-5.53833E-02-1.29144E-01-8.75714E-04
 -1       350-8.42632E-02-1.23762E-01-8.65811E-04
 -1       351-7.87147E-02-7.48418E-02 3.14518E-03
 -1       352-1.25885E-01-1.51942E-01-3.40173E-03
 -1       353-9.69280E-02-1.40709E-01-3.73368E-04
 -1       354-7.69600E-02-8.77345E-02 5.40180E-05
 -1       355-5.61118E-02-5.33662E-03 2.12860E-04
 -1       356-7.21985E-02-7.13818E-03-3.94203E-04
 -1       357-8.60418E-02-1.26115E-02-2.09247E-05
 -1       358-7.85175E-02-2.83758E-02 1.35894E-03
 -1       359-1.06784E-01-4.88582E-02 2.02157E-03
 -1       360-7.19147E-02-2.13680E-02 1.59336E-04
 -1       361-7.47101E-02-2.54818E-02-3.74901E-04
 -1       362-7.32837E-02-3.29309E-02 1.14289E-04
 -1       363-7.04811E-02-1.37148E-01-3.04830E-03
 -1       364-4.22360E-02-6.20533E-02-2.01130E-03
 -1       365-8.45172E-02-1.19611E-01 1.35001E-03
 -1       366-8.81083E-02-1.26295E-01 2.84483E-04
 -1       367-7.34154E-02-3.62885E-02 5.45516E-04
 -1       368-1.32081E-01-6.24003E-02 1.87158E-04
 -1       369-6.26641E-02-6.09631E-02-5.78275E-04
 -1       370-1.23953E-01-8.07286E-02 6.62998E-04
 -1       371-7.21610E-02-8.37906E-02 1.47577E-03
 -1       372-9.53712E-02-7.91422E-02-1.94276E-03
 -1       373-1.69180E-01-4.44824E-02 2.00469E-03
 -1       374-1.91963E-01-1.03658E-01 8.70736E-04
 -1       375-1.23224E-01-5.43285E-02-1.17931E-03
 -1       376-2.22609E-01-8.81317E-02-2.53545E-04
 -1       377-7.12535E-02-1.20918E-01-2.14012E-04
 -1       378-5.18570E-02-9.10314E-03 3.48515E-04
 -1       379-6.61219E-02-1.19850E-02-4.94189E-04
 -1       380-1.22158E-01-2.95246E-02 6.69602E-05
 -1       381-7.95843E-02-5.76277E-02 2.23550E-03
 -1       382-4.71873E-02-3.67629E-02-4.81506E-04
 -1       383-4.62967E-02-6.63660E-02 3.90939E-04
 -1       384-9.91491E-02-9.90804E-02 1.00856E-03
 -1       385-7.63035E-02-1.13510E-01 2.11776E-03
 -1       386-8.94682E-02-1.46438E-01 1.74205E-03
 -1       387-3.18565E-01-2.61448E-02 3.57831E-04
 -1       388-3.96534E-01-2.22999E-02 1.51183E-03
 -1       389-1.99494E-01-2.85467E-02-1.04631E-03
 -1       390-1.17360E-01-1.55365E-02-1.06048E-03
 -1       391-2.00544E-01-1.47008E-03 2.05899E-03
 -1       392-1.56029E-01-2.08809E-02 2.86000E-04
 -1       393-1.66518E-01-8.64594E-02-1.54252E-03
 -1       394-1.17426E-01-9.86900E-02-2.78997E-03
 -1       395-9.91319E-02-5.10093E-02-9.05172E-04
 -1       396-2.77507E-01-3.06930E-02 1.25612E-03
 -1       397-2.05840E-01-5.64067E-02 9.64521E-04
 -1       398-1.42974E-01 6.01095E-03-2.15264E-03
 -1       399-3.91335E-01-2.66412E-02 1.63214E-03
 -1       400-1.76371E-01 2.06466E-02 1.62465E-03
 -1       401-1.03823E-01 4.71211E-03 1.89150E-03
 -1       402-2.06211E-01 1.98268E-02-7.51186E-05
 -1       403-1.96674E-01-2.77880E-03-1.02840E-03
 -1       404-1.22025E-01-1.51484E-02 1.15976E-03
 -1       405-3.35961E-01-9.96072E-02-2.45046E-04
 -1       406-2.99453E-01-4.23217E-02-1.87539E-03
 -1       407-8.55887E-02-1.37909E-01-2.78566E-03
 -1       408-2.05144E-01-1.93970E-01 3.02246E-03
 -1       409-1.10999E-01-5.35933E-02-4.31482E-04
 -1       410-1.17555E-01-2.70519E-02-2.26096E-03
 -1       411-1.24251E-01-3.43936E-02-3.36666E-04
 -1       412-5.71855E-02-5.23879E-02 2.37628E-03
 -1       413-8.73794E-02-1.23408E-01 3.59472E-03
 -1       414-8.20350E-02-7.94397E-02-7.35735E-04
 -1       415-1.39032E-01-8.24396E-02 9.83752E-04
 -1       416-1.86513E-01-2.11319E-02-1.37544E-03
 -1       417-1.47437E-01-1.78752E-02-2.53864E-04
 -1       418-6.81402E-02-4.08934E-02-6.28196E-05
 -1       419-2.36646E-01-1.20937E-02 5.18289E-04
 -1       420-3.29254E-01 8.40620E-03-2.78088E-04
 -1       421-1.75736E-01-1.12266E-01-1.27400E-03
 -1       422-4.21825E-02-5.67999E-02 1.89163E-03
 -1       423-8.98161E-02-1.55084E-01 1.83472E-04
 -1       424-2.47389E-01 2.12448E-02 1.25495E-03
 -1       425-1.88813E-01-1.77862E-02-4.90721E-04
 -1       426-2.70098E-02 2.06018E-03 1.33289E-03
 -1       427-5.10045E-02-1.55155E-02 1.63798E-05
 -1       428-7.25014E-02-1.39071E-02 1.95606E-03
 -1       429-7.48062E-02 2.16704E-02 1.89598E-03
 -1       430-5.78994E-02 3.48364E-03 1.92019E-05
 -1       431-4.83652E-02 1.81755E-02 1.20159E-05
 -1       432-8.97068E-03-1.65569E-05 5.09965E-05
 -1       433-1.46376E-02-1.39840E-03 5.64031E-06
 -1       434-2.28130E-02-2.07370E-03-8.53960E-05
 -1       435-2.39199E-02 5.82996E-04 2.98092E-05
 -1       436-1.75980E-02-4.00676E-04 9.66644E-06
 -1       437-1.49186E-02 1.01797E-03 6.58502E-06
 -1       438-2.28188E-02-2.07554E-03 1.00451E-04
 -1       439-8.97986E-03-1.58234E-05-4.64987E-05
 -1       440-2.39316E-02 5.91768E-04-7.69044E-06
 -1       441-7.25530E-02-1.39064E-02-1.90733E-03
 -1       442-2.70405E-02 2.04264E-03-1.32259E-03
 -1       443-7.48535E-02 2.16295E-02-1.86004E-03
 -1       444-4.56299E-02-6.54946E-03-1.88498E-05
 -1       445-5.96987E-02-6.10427E-03-1.35445E-04
 -1       446-5.97836E-02-5.97393E-03 2.73355E-04
 -1       447-4.90014E-02-3.09232E-03 3.93165E-05
 -1       448-3.29419E-02-3.19292E-03 1.97658E-05
 -1       449-3.47250E-02-8.55816E-05 2.41255E-05
 -1       450-2.80685E-02-1.18234E-03-1.34090E-04
 -1       451-2.80705E-02-1.17898E-03 1.54099E-04
 -1       452-1.63660E-01 5.34362E-03 5.22905E-04
 -1       453-1.61538E-01 7.86992E-03-1.60379E-03
 -1       454-1.33287E-01-1.42694E-02-1.41934E-04
 -1       455-1.30254E-01 2.05916E-02-4.12546E-04
 -1       456-9.62972E-02-3.25122E-03 2.06806E-05
 -1       457-9.53142E-02 1.60903E-02-1.70818E-06
 -1       458-8.27968E-02 2.45570E-03 1.61090E-03
 -1       459-8.27752E-02 2.40186E-03-1.57527E-03
 -1       460-5.55556E-02-5.92108E-03-2.23479E-05
 -1       461-5.89290E-02-2.57850E-03 8.61352E-06
 -1       462-5.54888E-02-5.86201E-03 7.27867E-05
 -1       463-5.89220E-02-2.60432E-03 5.78246E-05
 -1       464-1.60480E-01-1.41117E-02 2.18397E-03
 -1       465-1.58820E-01 2.85267E-02 1.21452E-03
 -1       466-1.57800E-01 2.94573E-02-1.40543E-03
 -1       467-1.60351E-01-1.45534E-02-1.91127E-03
 -3
    1PSTEP                         4           1           1          
  100CL  101 3.40000E-01         467                     0    1           1
 -4  ERROR       1    1
 -5  STR(%)      1    1    0    0
 -1         1 4.12673E+01
 -1         2 4.12668E+01
 -1         3 4.12673E+01
 -1         4 4.12668E+01
 -1         5 1.80587E+01
 -1         6 1.81469E+01
 -1         7 1.96769E+01
 -1         8 1.96769E+01
 -1         9 4.12671E+01
 -1        10 4.12673E+01
 -1        11 4.12671E+01
 -1        12 4.12668E+01
 -1        13 1.81028E+01
 -1        14 1.88678E+01
 -1        15 1.96769E+01
 -1        16 1.89119E+01
 -1        17 3.06549E+01
 -1        18 3.05296E+01
 -1        19 3.05066E+01
 -1        20 3.01846E+01
 -1        21 3.02008E+01
 -1        22 3.00334E+01
 -1        23 3.02818E+01
 -1        24 2.99481E+01
 -1        25 2.93974E+01
 -1        26 3.59609E+01
 -1        27 3.05923E+01
 -1        28 3.05181E+01
 -1        29 3.03456E+01
 -1        30 3.01927E+01
 -1        31 3.01171E+01
 -1        32 3.01576E+01
 -1        33 3.01150E+01
 -1        34 2.96728E+01
 -1        35 2.37722E+01
 -1        36 3.06594E+01
 -1        37 3.01186E+01
 -1        38 3.05066E+01
 -1        39 3.01804E+01
 -1        40 3.02382E+01
 -1        41 3.04758E+01
 -1        42 2.99345E+01
 -1        43 2.97488E+01
 -1        44 2.94886E+01
 -1        45 3.59634E+01
 -1        46 3.03890E+01
 -1        47 3.03126E+01
 -1        48 3.03435E+01
 -1        49 3.02093E+01
 -1        50 3.03570E+01
 -1        51 3.02051E+01
 -1        52 2.98416E+01
 -1        53 2.96187E+01
 -1        54 2.37737E+01
 -1        55 3.06549E+01
 -1        56 3.01997E+01
 -1        57 3.05066E+01
 -1        58 3.01846E+01
 -1        59 3.01398E+01
 -1        60 3.00334E+01
 -1        61 3.02818E+01
 -1        62 2.99481E+01
 -1        63 2.93974E+01
 -1        64 3.59609E+01
 -1        65 3.04273E+01
 -1        66 3.03532E+01
 -1        67 3.03456E+01
 -1        68 3.01622E+01
 -1        69 3.00866E+01
 -1        70 3.01576E+01
 -1        71 3.01150E+01
 -1        72 2.96728E+01
 -1        73 2.45372E+01
 -1        74 3.06594E+01
 -1        75 3.01186E+01
 -1        76 3.00903E+01
 -1        77 3.01804E+01
 -1        78 3.02382E+01
 -1        79 3.04758E+01
 -1        80 2.99345E+01
 -1        81 2.97488E+01
 -1        82 2.94886E+01
 -1        83 3.59634E+01
 -1        84 3.03890E+01
 -1        85 3.01045E+01
 -1        86 3.01353E+01
 -1        87 3.02093E+01
 -1        88 3.03570E+01
 -1        89 3.02051E+01
 -1        90 2.98416E+01
 -1        91 2.96187E+01
 -1        92 2.45828E+01
 -1        93 4.12673E+01
 -1        94 4.12673E+01
 -1        95 4.12671E+01
 -1        96 4.12673E+01
 -1        97 4.12671E+01
 -1        98 1.96769E+01
 -1        99 1.89119E+01
 -1       100 1.88678E+01
 -1       101 1.96769E+01
 -1       102 1.96769E+01
 -1       103 2.33188E+01
 -1       104 3.05296E+01
 -1       105 1.95249E+01
 -1       106 3.01846E+01
 -1       107 3.02382E+01
 -1       108 3.02818E+01
 -1       109 2.99573E+01
 -1       110 2.67169E+01
 -1       111 2.97790E+01
 -1       112 2.80716E+01
 -1       113 3.55229E+01
 -1       114 3.55232E+01
 -1       115 3.02192E+01
 -1       116 3.02170E+01
 -1       117 2.30652E+01
 -1       118 2.31093E+01
 -1       119 2.87801E+01
 -1       120 2.87345E+01
 -1       121 2.69242E+01
 -1       122 2.69869E+01
 -1       123 3.06572E+01
 -1       124 2.69891E+01
 -1       125 3.05181E+01
 -1       126 3.05296E+01
 -1       127 3.03241E+01
 -1       128 2.67187E+01
 -1       129 3.03241E+01
 -1       130 2.48548E+01
 -1       131 2.50158E+01
 -1       132 3.05066E+01
 -1       133 3.05181E+01
 -1       134 2.50158E+01
 -1       135 3.01927E+01
 -1       136 3.01846E+01
 -1       137 3.01825E+01
 -1       138 2.48526E+01
 -1       139 3.01825E+01
 -1       140 3.01358E+01
 -1       141 3.02195E+01
 -1       142 3.02195E+01
 -1       143 3.02114E+01
 -1       144 3.02382E+01
 -1       145 3.02818E+01
 -1       146 3.01576E+01
 -1       147 3.02546E+01
 -1       148 3.03570E+01
 -1       149 3.03788E+01
 -1       150 2.99527E+01
 -1       151 3.01195E+01
 -1       152 3.01082E+01
 -1       153 3.01082E+01
 -1       154 2.99459E+01
 -1       155 2.80572E+01
 -1       156 2.83325E+01
 -1       157 2.98485E+01
 -1       158 2.98530E+01
 -1       159 2.82328E+01
 -1       160 2.94430E+01
 -1       161 2.81028E+01
 -1       162 3.05296E+01
 -1       163 3.04048E+01
 -1       164 1.95727E+01
 -1       165 1.96892E+01
 -1       166 3.02530E+01
 -1       167 2.99573E+01
 -1       168 2.10387E+01
 -1       169 2.97790E+01
 -1       170 2.80716E+01
 -1       171 2.23772E+01
 -1       172 3.55232E+01
 -1       173 3.55229E+01
 -1       174 3.02192E+01
 -1       175 3.02170E+01
 -1       176 2.38743E+01
 -1       177 2.38743E+01
 -1       178 2.87801E+01
 -1       179 2.87345E+01
 -1       180 2.65161E+01
 -1       181 2.62885E+01
 -1       182 3.06572E+01
 -1       183 2.65183E+01
 -1       184 3.03646E+01
 -1       185 3.05181E+01
 -1       186 3.03241E+01
 -1       187 3.01592E+01
 -1       188 2.62479E+01
 -1       189 3.04557E+01
 -1       190 3.02947E+01
 -1       191 3.03100E+01
 -1       192 3.02985E+01
 -1       193 3.02476E+01
 -1       194 2.48787E+01
 -1       195 2.48563E+01
 -1       196 3.02926E+01
 -1       197 3.01825E+01
 -1       198 2.48765E+01
 -1       199 2.49145E+01
 -1       200 2.48613E+01
 -1       201 2.49055E+01
 -1       202 3.01890E+01
 -1       203 2.49637E+01
 -1       204 3.01432E+01
 -1       205 3.02674E+01
 -1       206 2.50825E+01
 -1       207 3.02546E+01
 -1       208 3.03644E+01
 -1       209 3.01195E+01
 -1       210 2.99527E+01
 -1       211 3.00938E+01
 -1       212 3.01082E+01
 -1       213 2.99459E+01
 -1       214 2.54934E+01
 -1       215 2.52181E+01
 -1       216 2.98530E+01
 -1       217 2.98485E+01
 -1       218 2.53937E+01
 -1       219 2.52637E+01
 -1       220 2.94430E+01
 -1       221 2.80716E+01
 -1       222 3.01997E+01
 -1       223 3.05296E+01
 -1       224 3.04048E+01
 -1       225 3.01398E+01
 -1       226 3.04758E+01
 -1       227 4.12668E+01
 -1       228 3.00978E+01
 -1       229 2.98089E+01
 -1       230 2.93974E+01
 -1       231 4.12668E+01
 -1       232 4.12668E+01
 -1       233 3.59609E+01
 -1       234 3.59609E+01
 -1       235 2.31093E+01
 -1       236 2.38743E+01
 -1       237 2.87345E+01
 -1       238 2.87345E+01
 -1       239 3.04273E+01
 -1       240 3.03646E+01
 -1       241 3.06549E+01
 -1       242 3.04273E+01
 -1       243 3.05296E+01
 -1       244 3.05181E+01
 -1       245 3.03646E+01
 -1       246 3.01997E+01
 -1       247 3.03646E+01
 -1       248 3.04557E+01
 -1       249 3.02947E+01
 -1       250 3.05066E+01
 -1       251 3.05181E+01
 -1       252 3.04557E+01
 -1       253 3.01622E+01
 -1       254 3.01703E+01
 -1       255 3.01846E+01
 -1       256 3.02947E+01
 -1       257 3.01622E+01
 -1       258 3.03383E+01
 -1       259 3.02546E+01
 -1       260 3.01703E+01
 -1       261 3.01398E+01
 -1       262 3.03078E+01
 -1       263 3.00656E+01
 -1       264 3.01898E+01
 -1       265 3.00334E+01
 -1       266 3.02546E+01
 -1       267 3.00656E+01
 -1       268 3.00454E+01
 -1       269 2.98785E+01
 -1       270 3.02818E+01
 -1       271 3.01898E+01
 -1       272 3.00454E+01
 -1       273 2.96728E+01
 -1       274 2.93974E+01
 -1       275 2.99481E+01
 -1       276 2.98785E+01
 -1       277 2.96728E+01
 -1       278 2.93974E+01
 -1       279 2.93974E+01
 -1       280 4.12673E+01
 -1       281 2.99612E+01
 -1       282 3.04048E+01
 -1       283 3.02382E+01
 -1       284 3.04758E+01
 -1       285 3.02818E+01
 -1       286 2.97488E+01
 -1       287 2.99481E+01
 -1       288 2.80617E+01
 -1       289 3.01997E+01
 -1       290 4.12673E+01
 -1       291 4.12673E+01
 -1       292 3.59634E+01
 -1       293 3.59634E+01
 -1       294 2.38693E+01
 -1       295 2.30602E+01
 -1       296 2.87752E+01
 -1       297 2.87752E+01
 -1       298 3.01592E+01
 -1       299 3.04295E+01
 -1       300 3.06594E+01
 -1       301 3.04295E+01
 -1       302 3.02339E+01
 -1       303 3.00399E+01
 -1       304 3.00399E+01
 -1       305 3.01186E+01
 -1       306 3.01592E+01
 -1       307 3.02926E+01
 -1       308 3.04557E+01
 -1       309 3.00258E+01
 -1       310 3.02985E+01
 -1       311 3.02476E+01
 -1       312 3.02382E+01
 -1       313 3.02093E+01
 -1       314 3.02926E+01
 -1       315 3.01804E+01
 -1       316 3.02093E+01
 -1       317 3.04758E+01
 -1       318 3.03570E+01
 -1       319 3.02382E+01
 -1       320 3.02382E+01
 -1       321 3.03570E+01
 -1       322 3.01082E+01
 -1       323 3.03788E+01
 -1       324 3.04758E+01
 -1       325 3.04758E+01
 -1       326 3.03788E+01
 -1       327 2.97488E+01
 -1       328 2.98416E+01
 -1       329 3.01082E+01
 -1       330 2.99345E+01
 -1       331 2.98416E+01
 -1       332 2.97184E+01
 -1       333 2.98485E+01
 -1       334 2.97488E+01
 -1       335 2.97488E+01
 -1       336 2.98485E+01
 -1       337 2.97184E+01
 -1       338 2.94886E+01
 -1       339 3.06594E+01
 -1       340 2.94886E+01
 -1       341 3.05296E+01
 -1       342 3.05296E+01
 -1       343 3.03646E+01
 -1       344 3.03646E+01
 -1       345 3.03646E+01
 -1       346 2.48563E+01
 -1       347 2.49055E+01
 -1       348 3.01890E+01
 -1       349 3.01890E+01
 -1       350 3.02926E+01
 -1       351 3.02926E+01
 -1       352 3.04048E+01
 -1       353 3.02947E+01
 -1       354 3.02947E+01
 -1       355 2.67593E+01
 -1       356 2.67593E+01
 -1       357 3.01997E+01
 -1       358 3.05296E+01
 -1       359 3.05296E+01
 -1       360 3.03241E+01
 -1       361 3.02454E+01
 -1       362 3.02454E+01
 -1       363 3.02114E+01
 -1       364 3.01622E+01
 -1       365 3.01846E+01
 -1       366 3.02114E+01
 -1       367 3.05181E+01
 -1       368 3.05181E+01
 -1       369 3.04048E+01
 -1       370 3.04557E+01
 -1       371 3.04048E+01
 -1       372 3.04557E+01
 -1       373 3.02818E+01
 -1       374 3.03788E+01
 -1       375 3.02674E+01
 -1       376 3.02674E+01
 -1       377 3.03215E+01
 -1       378 2.62885E+01
 -1       379 2.62885E+01
 -1       380 3.01997E+01
 -1       381 2.49649E+01
 -1       382 2.49649E+01
 -1       383 2.50825E+01
 -1       384 3.04758E+01
 -1       385 2.50825E+01
 -1       386 3.03570E+01
 -1       387 2.99573E+01
 -1       388 2.99527E+01
 -1       389 2.98530E+01
 -1       390 2.98485E+01
 -1       391 2.98530E+01
 -1       392 2.99459E+01
 -1       393 3.03788E+01
 -1       394 3.03644E+01
 -1       395 3.01432E+01
 -1       396 3.01195E+01
 -1       397 3.01195E+01
 -1       398 2.96728E+01
 -1       399 2.99481E+01
 -1       400 2.80572E+01
 -1       401 2.83325E+01
 -1       402 2.83325E+01
 -1       403 2.98831E+01
 -1       404 2.98831E+01
 -1       405 3.02818E+01
 -1       406 3.01195E+01
 -1       407 3.02195E+01
 -1       408 3.04758E+01
 -1       409 3.01754E+01
 -1       410 3.01898E+01
 -1       411 3.02818E+01
 -1       412 3.03570E+01
 -1       413 3.02382E+01
 -1       414 3.03570E+01
 -1       415 3.04758E+01
 -1       416 2.54934E+01
 -1       417 2.52181E+01
 -1       418 3.03100E+01
 -1       419 2.98530E+01
 -1       420 2.99527E+01
 -1       421 3.05066E+01
 -1       422 3.02382E+01
 -1       423 3.02195E+01
 -1       424 2.99481E+01
 -1       425 3.02818E+01
 -1       426 2.38743E+01
 -1       427 2.38743E+01
 -1       428 2.80716E+01
 -1       429 2.80716E+01
 -1       430 2.80716E+01
 -1       431 2.38743E+01
 -1       432 4.12673E+01
 -1       433 3.55232E+01
 -1       434 3.55232E+01
 -1       435 3.55232E+01
 -1       436 2.97790E+01
 -1       437 3.55232E+01
 -1       438 3.55229E+01
 -1       439 4.12671E+01
 -1       440 3.55229E+01
 -1       441 2.80667E+01
 -1       442 2.38693E+01
 -1       443 2.80667E+01
 -1       444 2.65183E+01
 -1       445 3.04295E+01
 -1       446 3.04295E+01
 -1       447 2.69891E+01
 -1       448 3.02192E+01
 -1       449 3.02192E+01
 -1       450 3.59634E+01
 -1       451 3.59631E+01
 -1       452 2.94430E+01
 -1       453 2.97184E+01
 -1       454 2.52637E+01
 -1       455 2.81028E+01
 -1       456 2.87801E+01
 -1       457 2.87801E+01
 -1       458 2.87801E+01
 -1       459 2.87752E+01
 -1       460 3.06594E+01
 -1       461 3.06594E+01
 -1       462 3.06572E+01
 -1       463 3.06572E+01
 -1       464 2.94430E+01
 -1       465 2.94430E+01
 -1       466 2.94886E+01
 -1       467 2.94886E+01
 -3
    1PSTEP                         5           2           1          
  100CL  102 6.80000E-01         467                     0    2           1
 -4  DISP        4    1
 -5  D1          1    2    1    0
 -5  D2          1    2    2    0
 -5  D3          1    2    3    0
 -5  ALL         1    2    0    0    1ALL
 -1         1 0.00000E+00 0.00000E+00 0.00000E+00
 -1         2 0.00000E+00 0.00000E+00 0.00000E+00
 -1         3 0.00000E+00 0.00000E+00 0.00000E+00
 -1         4 0.00000E+00 0.00000E+00 0.00000E+00
 -1         5-1.80935E+00 2.45580E+01-5.61200E-04
 -1         6-1.80928E+00 2.45580E+01 1.64594E-03
 -1         7-5.39432E+00 2.38926E+01 8.95003E-04
 -1         8-5.39426E+00 2.38926E+01 9.12761E-05
 -1         9 0.00000E+00 0.00000E+00 0.00000E+00
 -1        10 0.00000E+00 0.00000E+00 0.00000E+00
 -1        11 0.00000E+00 0.00000E+00 0.00000E+00
 -1        12 0.00000E+00 0.00000E+00 0.00000E+00
 -1        13-1.80774E+00 2.45593E+01 5.44440E-04
 -1        14-3.60121E+00 2.42237E+01 1.68494E-04
 -1        15-5.39633E+00 2.38925E+01 4.91853E-04
 -1        16-3.60115E+00 2.42237E+01 8.67612E-04
 -1        17 3.27280E-01 3.66516E-01 4.82059E-02
 -1        18 5.84121E-01 1.41900E+00 4.37133E-02
 -1        19 7.26101E-01 3.07123E+00 3.84421E-02
 -1        20 7.31412E-01 5.23833E+00 3.33549E-02
 -1        21 5.95651E-01 7.83739E+00 2.73316E-02
 -1        22 3.23703E-01 1.07845E+01 2.22556E-02
 -1        23-7.12018E-02 1.40035E+01 1.68695E-02
 -1        24-5.73983E-01 1.74196E+01 1.13370E-02
 -1        25-1.16214E+00 2.09604E+01 6.30224E-03
 -1        26 1.68714E-01 9.90130E-02 4.81267E-02
 -1        27 4.69091E-01 8.12900E-01 4.70482E-02
 -1        28 6.71600E-01 2.17530E+00 4.13563E-02
 -1        29 7.46583E-01 4.09633E+00 3.59116E-02
 -1        30 6.81722E-01 6.48957E+00 3.08001E-02
 -1        31 4.77291E-01 9.27308E+00 2.49802E-02
 -1        32 1.40825E-01 1.23653E+01 1.96232E-02
 -1        33-3.10546E-01 1.56916E+01 1.41638E-02
 -1        34-8.58590E-01 1.91783E+01 9.32215E-03
 -1        35-1.47930E+00 2.27564E+01 3.68460E-03
 -1        36 3.27354E-01 3.66458E-01-4.81734E-02
 -1        37 5.84616E-01 1.41842E+00-4.47252E-02
 -1        38 7.26032E-01 3.07121E+00-3.88299E-02
 -1        39 7.30525E-01 5.23835E+00-3.26340E-02
 -1        40 5.96585E-01 7.83691E+00-2.80669E-02
 -1        41 3.24653E-01 1.07852E+01-2.20101E-02
 -1        42-7.25169E-02 1.40031E+01-1.67109E-02
 -1        43-5.74846E-01 1.74193E+01-1.05691E-02
 -1        44-1.16217E+00 2.09605E+01-5.35371E-03
 -1        45 1.68714E-01 9.90045E-02-4.81168E-02
 -1        46 4.69422E-01 8.12839E-01-4.71050E-02
 -1        47 6.71298E-01 2.17493E+00-4.20072E-02
 -1        48 7.46158E-01 4.09638E+00-3.62580E-02
 -1        49 6.82050E-01 6.48975E+00-3.06614E-02
 -1        50 4.77314E-01 9.27255E+00-2.52698E-02
 -1        51 1.41451E-01 1.23655E+01-1.94070E-02
 -1        52-3.11266E-01 1.56912E+01-1.37301E-02
 -1        53-8.58470E-01 1.91784E+01-8.32483E-03
 -1        54-1.47937E+00 2.27564E+01-2.64977E-03
 -1        55-3.53164E-01 3.40717E-01-4.89688E-02
 -1        56-7.25784E-01 1.33050E+00-4.49804E-02
 -1        57-1.13241E+00 2.89509E+00-3.91418E-02
 -1        58-1.59560E+00 4.96321E+00-3.36504E-02
 -1        59-2.12370E+00 7.45932E+00-2.71614E-02
 -1        60-2.71002E+00 1.03124E+01-2.20549E-02
 -1        61-3.34850E+00 1.34507E+01-1.62380E-02
 -1        62-4.02286E+00 1.68043E+01-1.01988E-02
 -1        63-4.71225E+00 2.03082E+01-4.66596E-03
 -1        64-1.76038E-01 8.99968E-02-4.96129E-02
 -1        65-5.36903E-01 7.59349E-01-4.74610E-02
 -1        66-9.23963E-01 2.04490E+00-4.20288E-02
 -1        67-1.35777E+00 3.87056E+00-3.58396E-02
 -1        68-1.85194E+00 6.16154E+00-2.99663E-02
 -1        69-2.41028E+00 8.84573E+00-2.43401E-02
 -1        70-3.02365E+00 1.18501E+01-1.89877E-02
 -1        71-3.68249E+00 1.51048E+01-1.32844E-02
 -1        72-4.36730E+00 1.85418E+01-7.68821E-03
 -1        73-5.05617E+00 2.20940E+01-1.99930E-03
 -1        74-3.53241E-01 3.40623E-01 4.88757E-02
 -1        75-7.24137E-01 1.32952E+00 4.52531E-02
 -1        76-1.13455E+00 2.89456E+00 3.95205E-02
 -1        77-1.59677E+00 4.96329E+00 3.28960E-02
 -1        78-2.12217E+00 7.45936E+00 2.76509E-02
 -1        79-2.71004E+00 1.03126E+01 2.17344E-02
 -1        80-3.34853E+00 1.34504E+01 1.65860E-02
 -1        81-4.02184E+00 1.68050E+01 1.06123E-02
 -1        82-4.71237E+00 2.03082E+01 5.59203E-03
 -1        83-1.76035E-01 8.99912E-02 4.96005E-02
 -1        84-5.37140E-01 7.59646E-01 4.74236E-02
 -1        85-9.23329E-01 2.04482E+00 4.17883E-02
 -1        86-1.35814E+00 3.87045E+00 3.56773E-02
 -1        87-1.85236E+00 6.16152E+00 3.02856E-02
 -1        88-2.40944E+00 8.84561E+00 2.46466E-02
 -1        89-3.02444E+00 1.18502E+01 1.89136E-02
 -1        90-3.68248E+00 1.51049E+01 1.37349E-02
 -1        91-4.36737E+00 1.85418E+01 8.45951E-03
 -1        92-5.05623E+00 2.20941E+01 2.94250E-03
 -1        93 0.00000E+00 0.00000E+00 0.00000E+00
 -1        94 0.00000E+00 0.00000E+00 0.00000E+00
 -1        95 0.00000E+00 0.00000E+00 0.00000E+00
 -1        96 0.00000E+00 0.00000E+00 0.00000E+00
 -1        97 0.00000E+00 0.00000E+00 0.00000E+00
 -1        98-3.60163E+00 2.42249E+01 5.17875E-04
 -1        99-2.70615E+00 2.43911E+01 6.54504E-04
 -1       100-2.70618E+00 2.43911E+01 4.05688E-04
 -1       101-4.49726E+00 2.40590E+01 2.79398E-04
 -1       102-4.49723E+00 2.40589E+01 7.32021E-04
 -1       103 4.67670E-01 8.36474E-01 6.16120E-05
 -1       104 6.68695E-01 2.19607E+00 4.57847E-05
 -1       105 7.43485E-01 4.11415E+00-2.98033E-04
 -1       106 6.79218E-01 6.50522E+00 1.85423E-04
 -1       107 4.74825E-01 9.28535E+00-8.61931E-05
 -1       108 1.38924E-01 1.23751E+01-7.99757E-05
 -1       109-3.12254E-01 1.56980E+01 1.10279E-04
 -1       110-8.59562E-01 1.91823E+01 3.76061E-04
 -1       111 1.63425E-01 1.19459E-01 5.60079E-06
 -1       112-1.47974E+00 2.27578E+01 5.16822E-04
 -1       113 7.74407E-02 4.52739E-02 1.13836E-02
 -1       114 7.74396E-02 4.52725E-02-1.13807E-02
 -1       115 2.47872E-01 2.28934E-01-2.57006E-02
 -1       116 2.47862E-01 2.28954E-01 2.57270E-02
 -1       117-1.64273E+00 2.36576E+01-7.24693E-04
 -1       118-1.64270E+00 2.36576E+01 1.78822E-03
 -1       119-1.31909E+00 2.18589E+01-1.58825E-03
 -1       120-1.31906E+00 2.18588E+01 2.58102E-03
 -1       121 5.28725E-01 1.11375E+00 2.24843E-02
 -1       122 4.00091E-01 5.87553E-01 2.37099E-02
 -1       123 3.26794E-01 3.92725E-01 3.45992E-05
 -1       124 4.00249E-01 5.87543E-01-2.35696E-02
 -1       125 7.00940E-01 2.62110E+00 1.97114E-02
 -1       126 6.29397E-01 1.79520E+00 2.12099E-02
 -1       127 5.82251E-01 1.44135E+00-5.46054E-04
 -1       128 5.29237E-01 1.11356E+00-2.27819E-02
 -1       129 6.29258E-01 1.79484E+00-2.21237E-02
 -1       130 7.41243E-01 4.66639E+00 1.70924E-02
 -1       131 7.38386E-01 3.58262E+00 1.83837E-02
 -1       132 7.22638E-01 3.09032E+00-2.43138E-04
 -1       133 7.00097E-01 2.62152E+00-1.96649E-02
 -1       134 7.38129E-01 3.58236E+00-1.90215E-02
 -1       135 6.41021E-01 7.16290E+00 1.43622E-02
 -1       136 7.08346E-01 5.86294E+00 1.63795E-02
 -1       137 7.28093E-01 5.25530E+00 2.82786E-04
 -1       138 7.40694E-01 4.66636E+00-1.72000E-02
 -1       139 7.08238E-01 5.86282E+00-1.56727E-02
 -1       140 4.03015E-01 1.00287E+01 1.17051E-02
 -1       141 5.38552E-01 8.55428E+00 1.30374E-02
 -1       142 5.93473E-01 7.85113E+00-4.01500E-04
 -1       143 6.41612E-01 7.16279E+00-1.44798E-02
 -1       144 5.38655E-01 8.55410E+00-1.37236E-02
 -1       145 3.60639E-02 1.31845E+01 8.59534E-03
 -1       146 2.33697E-01 1.15744E+01 1.09797E-02
 -1       147 3.21661E-01 1.07960E+01 4.62440E-04
 -1       148 4.02871E-01 1.00287E+01-1.15810E-02
 -1       149 2.34615E-01 1.15750E+01-1.04302E-02
 -1       150-4.41024E-01 1.65554E+01 6.30431E-03
 -1       151-1.89593E-01 1.48472E+01 7.95505E-03
 -1       152-7.40844E-02 1.40117E+01-2.89866E-04
 -1       153 3.66872E-02 1.31845E+01-8.88589E-03
 -1       154-1.90381E-01 1.48467E+01-8.12907E-03
 -1       155-1.00854E+00 2.00698E+01 4.17678E-03
 -1       156-7.15193E-01 1.82986E+01 5.68510E-03
 -1       157-5.75924E-01 1.74244E+01 6.66110E-04
 -1       158-4.41635E-01 1.65554E+01-5.49255E-03
 -1       159-7.14735E-01 1.82990E+01-4.55904E-03
 -1       160-1.16154E+00 2.09636E+01 4.69125E-04
 -1       161-1.00846E+00 2.00698E+01-3.32450E-03
 -1       162-9.28111E-01 2.06605E+00-3.03741E-04
 -1       163-1.36286E+00 3.88711E+00 3.00534E-05
 -1       164-1.85710E+00 6.17592E+00 2.77653E-04
 -1       165-2.41422E+00 8.85724E+00 1.64535E-04
 -1       166-3.02781E+00 1.18597E+01 2.26378E-04
 -1       167-3.68568E+00 1.51118E+01-1.27810E-05
 -1       168-4.36973E+00 1.85454E+01 3.78528E-04
 -1       169-1.71874E-01 1.10797E-01-6.24200E-06
 -1       170-5.05687E+00 2.20954E+01 4.72000E-04
 -1       171-5.40382E-01 7.82972E-01-8.33020E-05
 -1       172-7.99707E-02 4.19842E-02 1.24177E-02
 -1       173-7.99723E-02 4.19850E-02-1.24184E-02
 -1       174-2.64381E-01 2.12379E-01 2.67195E-02
 -1       175-2.64366E-01 2.12406E-01-2.67641E-02
 -1       176-5.22670E+00 2.29925E+01-4.30674E-04
 -1       177-5.22673E+00 2.29925E+01 1.39262E-03
 -1       178-4.88587E+00 2.12004E+01 2.19706E-03
 -1       179-4.88582E+00 2.12003E+01-1.26295E-03
 -1       180-4.46926E-01 5.48466E-01-2.42576E-02
 -1       181-6.32873E-01 1.04339E+00-2.32080E-02
 -1       182-3.56717E-01 3.66301E-01-4.82230E-05
 -1       183-4.47102E-01 5.48535E-01 2.40685E-02
 -1       184-8.26144E-01 1.68625E+00-2.20674E-02
 -1       185-1.03033E+00 2.46823E+00-2.05379E-02
 -1       186-8.24921E-01 1.68538E+00 2.23288E-02
 -1       187-7.28682E-01 1.35201E+00 5.04984E-04
 -1       188-6.32816E-01 1.04321E+00 2.33206E-02
 -1       189-1.24664E+00 3.38078E+00-1.88749E-02
 -1       190-1.47822E+00 4.41542E+00-1.74802E-02
 -1       191-1.02993E+00 2.46859E+00 1.97755E-02
 -1       192-1.13789E+00 2.91424E+00-1.99457E-04
 -1       193-1.24762E+00 3.38088E+00 1.91521E-02
 -1       194-1.72553E+00 5.56058E+00-1.59362E-02
 -1       195-1.98927E+00 6.80893E+00-1.39598E-02
 -1       196-1.47849E+00 4.41531E+00 1.68472E-02
 -1       197-1.60119E+00 4.97853E+00-3.36145E-04
 -1       198-1.72633E+00 5.56059E+00 1.59170E-02
 -1       199-2.26836E+00 8.15123E+00-1.28237E-02
 -1       200-2.56181E+00 9.57766E+00-1.14622E-02
 -1       201-1.98920E+00 6.80862E+00 1.47496E-02
 -1       202-2.12723E+00 7.47246E+00 5.22676E-04
 -1       203-2.26743E+00 8.15111E+00 1.33189E-02
 -1       204-2.86781E+00 1.10802E+01-1.07079E-02
 -1       205-3.18713E+00 1.26497E+01-8.37766E-03
 -1       206-2.56129E+00 9.57776E+00 1.15591E-02
 -1       207-2.71412E+00 1.03228E+01-3.75664E-04
 -1       208-2.86822E+00 1.10804E+01 1.03655E-02
 -1       209-3.51662E+00 1.42770E+01-7.57029E-03
 -1       210-3.85393E+00 1.59541E+01-5.55145E-03
 -1       211-3.18797E+00 1.26490E+01 8.80635E-03
 -1       212-3.35177E+00 1.34581E+01 4.70031E-04
 -1       213-3.51640E+00 1.42768E+01 8.09347E-03
 -1       214-4.19651E+00 1.76724E+01-4.47959E-03
 -1       215-4.54163E+00 1.94241E+01-2.92555E-03
 -1       216-3.85392E+00 1.59537E+01 6.07118E-03
 -1       217-4.02487E+00 1.68096E+01-1.63876E-06
 -1       218-4.19661E+00 1.76726E+01 4.92978E-03
 -1       219-4.54175E+00 1.94240E+01 3.85904E-03
 -1       220-4.71496E+00 2.03102E+01 4.70615E-04
 -1       221-3.26727E+00 2.24240E+01 8.35203E-04
 -1       222-3.11306E-02 7.62542E-01-1.20194E-03
 -1       223-1.22339E-01 2.08968E+00-9.36602E-04
 -1       224-3.02180E-01 3.96597E+00-4.76544E-04
 -1       225-5.81310E-01 6.31092E+00 3.75088E-05
 -1       226-9.62388E-01 9.04730E+00 5.68619E-05
 -1       227-2.77067E-03 6.68659E-02-1.63966E-03
 -1       228-1.43832E+00 1.20986E+01 1.69119E-04
 -1       229-1.99431E+00 1.53918E+01 5.37106E-04
 -1       230-2.61165E+00 1.88563E+01 7.49750E-04
 -1       231-4.00845E-02 6.30247E-03-1.68419E-02
 -1       232 3.75959E-02 8.46250E-03 1.48784E-02
 -1       233 1.21503E-01 1.87547E-01 2.39999E-02
 -1       234-1.33888E-01 1.79041E-01-2.62780E-02
 -1       235-2.53965E+00 2.34897E+01 1.53056E-03
 -1       236-4.32887E+00 2.31582E+01 1.76436E-04
 -1       237-2.21081E+00 2.16910E+01 3.05297E-03
 -1       238-3.99186E+00 2.13626E+01-1.41327E-03
 -1       239 1.90213E-01 5.41369E-01 2.34488E-02
 -1       240 2.41043E-01 1.06202E+00 2.20407E-02
 -1       241-1.12005E-02 3.29806E-01-1.17220E-03
 -1       242-2.30225E-01 5.21863E-01-2.51483E-02
 -1       243 2.69727E-01 1.73603E+00 2.07105E-02
 -1       244 2.72596E-01 2.55340E+00 1.92193E-02
 -1       245-6.70782E-02 1.35225E+00-1.13823E-03
 -1       246-3.36724E-01 1.02654E+00-2.36396E-02
 -1       247-4.56062E-01 1.68117E+00-2.20512E-02
 -1       248 2.46517E-01 3.50438E+00 1.84329E-02
 -1       249 1.90795E-01 4.57818E+00 1.64076E-02
 -1       250-2.00682E-01 2.96406E+00-5.54644E-04
 -1       251-5.90944E-01 2.47724E+00-2.04082E-02
 -1       252-7.44033E-01 3.40403E+00-1.93082E-02
 -1       253 1.04750E-01 5.76389E+00 1.57713E-02
 -1       254-1.21267E-02 7.05327E+00 1.43940E-02
 -1       255-4.28842E-01 5.08458E+00-6.32156E-04
 -1       256-9.16737E-01 4.45322E+00-1.75081E-02
 -1       257-1.10968E+00 5.61351E+00-1.60641E-02
 -1       258-1.58400E-01 8.43453E+00 1.32498E-02
 -1       259-3.33610E-01 9.89928E+00 1.11034E-02
 -1       260-7.59184E-01 7.63512E+00-1.36712E-04
 -1       261-1.32429E+00 6.87665E+00-1.41736E-02
 -1       262-1.55994E+00 8.23321E+00-1.31338E-02
 -1       263-5.37852E-01 1.14360E+01 1.05414E-02
 -1       264-7.66223E-01 1.30376E+01 9.30478E-03
 -1       265-1.18922E+00 1.05388E+01 1.13664E-04
 -1       266-1.81456E+00 9.67461E+00-1.11226E-02
 -1       267-2.08642E+00 1.11895E+01-1.01063E-02
 -1       268-1.01850E+00 1.46937E+01 7.70802E-03
 -1       269-1.29197E+00 1.63962E+01 6.99079E-03
 -1       270-1.70754E+00 1.37192E+01 4.48547E-04
 -1       271-2.37583E+00 1.27706E+01-8.64479E-03
 -1       272-2.68012E+00 1.44093E+01-7.24167E-03
 -1       273-1.58361E+00 1.81352E+01 5.38644E-03
 -1       274-1.89126E+00 1.99029E+01 4.08940E-03
 -1       275-2.29700E+00 1.71068E+01 4.59414E-04
 -1       276-2.99629E+00 1.60957E+01-5.36728E-03
 -1       277-3.32239E+00 1.78227E+01-4.20405E-03
 -1       278-2.93623E+00 2.06316E+01 8.06230E-04
 -1       279-3.65513E+00 1.95811E+01-2.49494E-03
 -1       280-2.77049E-03 6.68596E-02 1.63992E-03
 -1       281-1.22324E-01 2.08919E+00 5.21709E-04
 -1       282-3.01877E-01 3.96598E+00 2.00928E-04
 -1       283-5.81316E-01 6.31063E+00 1.17573E-05
 -1       284-9.62740E-01 9.04728E+00 2.26344E-05
 -1       285-1.43849E+00 1.20984E+01-1.00593E-04
 -1       286-1.99437E+00 1.53918E+01 1.81178E-04
 -1       287-2.61196E+00 1.88564E+01 4.32480E-04
 -1       288-3.26734E+00 2.24240E+01 1.53525E-04
 -1       289-3.12744E-02 7.62032E-01 1.31446E-03
 -1       290 3.75942E-02 8.46316E-03-1.48763E-02
 -1       291-4.00823E-02 6.30551E-03 1.68401E-02
 -1       292 1.21520E-01 1.87519E-01-2.39796E-02
 -1       293-1.33909E-01 1.79003E-01 2.62488E-02
 -1       294-4.32893E+00 2.31583E+01 8.11742E-04
 -1       295-2.53972E+00 2.34897E+01-4.94080E-04
 -1       296-2.21088E+00 2.16910E+01-2.07962E-03
 -1       297-3.99194E+00 2.13626E+01 2.36717E-03
 -1       298 2.42051E-01 1.06193E+00-2.18144E-02
 -1       299 1.90252E-01 5.41154E-01-2.34179E-02
 -1       300-1.11954E-02 3.29759E-01 1.17348E-03
 -1       301-2.30278E-01 5.21732E-01 2.51781E-02
 -1       302 2.72008E-01 2.55307E+00-1.98215E-02
 -1       303 2.69640E-01 1.73542E+00-2.11411E-02
 -1       304-4.55020E-01 1.68088E+00 2.22478E-02
 -1       305-6.73422E-02 1.35253E+00 7.69876E-04
 -1       306-3.37344E-01 1.02698E+00 2.32790E-02
 -1       307 1.90233E-01 4.57803E+00-1.69523E-02
 -1       308 2.46238E-01 3.50468E+00-1.88027E-02
 -1       309-5.90859E-01 2.47672E+00 2.06008E-02
 -1       310-1.99649E-01 2.96358E+00 5.32499E-04
 -1       311-7.44152E-01 3.40401E+00 1.86667E-02
 -1       312-1.13714E-02 7.05332E+00-1.40304E-02
 -1       313 1.04734E-01 5.76375E+00-1.58095E-02
 -1       314-9.16876E-01 4.45320E+00 1.74667E-02
 -1       315-4.28624E-01 5.08476E+00 5.60959E-04
 -1       316-1.11049E+00 5.61325E+00 1.65327E-02
 -1       317-3.34323E-01 9.89868E+00-1.16892E-02
 -1       318-1.58376E-01 8.43414E+00-1.29876E-02
 -1       319-1.32487E+00 6.87671E+00 1.41783E-02
 -1       320-7.59645E-01 7.63505E+00 4.12416E-04
 -1       321-1.55906E+00 8.23341E+00 1.32648E-02
 -1       322-7.65924E-01 1.30381E+01-8.37896E-03
 -1       323-5.37232E-01 1.14360E+01-1.01164E-02
 -1       324-1.81370E+00 9.67402E+00 1.15311E-02
 -1       325-1.18962E+00 1.05381E+01-2.15126E-04
 -1       326-2.08674E+00 1.11895E+01 1.02041E-02
 -1       327-1.29246E+00 1.63959E+01-6.05807E-03
 -1       328-1.01911E+00 1.46935E+01-7.63441E-03
 -1       329-2.37692E+00 1.27710E+01 8.35751E-03
 -1       330-1.70728E+00 1.37197E+01-7.78288E-05
 -1       331-2.68003E+00 1.44089E+01 7.51848E-03
 -1       332-1.89135E+00 1.99031E+01-3.05385E-03
 -1       333-1.58358E+00 1.81349E+01-5.03995E-03
 -1       334-2.99652E+00 1.60961E+01 5.90584E-03
 -1       335-2.29703E+00 1.71067E+01-6.04582E-05
 -1       336-3.32277E+00 1.78225E+01 5.25294E-03
 -1       337-3.65531E+00 1.95812E+01 3.40486E-03
 -1       338-2.93632E+00 2.06317E+01 1.40181E-04
 -1       339-1.30559E-02 3.54474E-01 7.89303E-06
 -1       340-2.93723E+00 2.06343E+01 4.72467E-04
 -1       341-9.44795E-02 1.71884E+00-4.71328E-04
 -1       342-1.25841E-01 2.10999E+00-1.85767E-05
 -1       343-3.96898E-01 1.35202E+00 1.15035E-02
 -1       344 2.56479E-01 1.39702E+00-1.09564E-02
 -1       345 2.39100E-01 1.08450E+00 2.61685E-05
 -1       346-1.21810E+00 6.24349E+00-7.37494E-03
 -1       347-1.21830E+00 6.24343E+00 7.78337E-03
 -1       348-5.85451E-01 6.32530E+00 2.03877E-04
 -1       349-1.32911E+00 6.89040E+00 4.03443E-04
 -1       350-3.64736E-01 4.52421E+00 8.76742E-05
 -1       351 1.87403E-01 4.59531E+00-1.31754E-04
 -1       352-8.31507E-01 3.92678E+00-9.10821E-03
 -1       353-4.32566E-01 5.10080E+00-3.14271E-05
 -1       354 1.48543E-01 5.16964E+00 7.86098E-03
 -1       355 2.16946E-01 7.99536E-01 1.14359E-02
 -1       356 2.17013E-01 7.99350E-01-1.12021E-02
 -1       357-3.35919E-02 7.85646E-01-2.07613E-05
 -1       358 2.72756E-01 2.14254E+00 9.60153E-03
 -1       359-5.24736E-01 2.07754E+00-1.07099E-02
 -1       360-9.46596E-02 1.71884E+00 3.01028E-04
 -1       361 2.72324E-01 2.14263E+00-1.02953E-02
 -1       362-5.24188E-01 2.07734E+00 1.04863E-02
 -1       363-1.11462E+00 5.62839E+00 2.62047E-05
 -1       364 4.77725E-02 6.40770E+00 7.66778E-03
 -1       365-5.04915E-01 5.69618E+00-1.67843E-05
 -1       366 4.80882E-02 6.40772E+00-7.53860E-03
 -1       367-1.61054E-01 2.52512E+00 1.67524E-04
 -1       368 2.69176E-01 2.57302E+00-1.72675E-05
 -1       369-3.05069E-01 3.98360E+00-1.81560E-04
 -1       370 2.43068E-01 3.52288E+00-3.96827E-04
 -1       371-8.31440E-01 3.92686E+00 9.03533E-03
 -1       372-2.50569E-01 3.46346E+00-2.69713E-04
 -1       373-6.50196E-01 1.22365E+01-4.51821E-03
 -1       374-1.31374E+00 1.13175E+01 2.02896E-04
 -1       375-2.23273E+00 1.19789E+01 4.47607E-03
 -1       376-1.44146E+00 1.21077E+01 1.47199E-04
 -1       377-1.01383E+00 5.03198E+00 8.64306E-03
 -1       378-2.84420E-01 7.72573E-01-1.23232E-02
 -1       379-2.84642E-01 7.72507E-01 1.22669E-02
 -1       380-3.40233E-01 1.04953E+00 1.01613E-04
 -1       381 2.19823E-01 4.04003E+00 8.60219E-03
 -1       382 2.19948E-01 4.04001E+00-9.13976E-03
 -1       383-1.68741E+00 8.95245E+00 6.22314E-03
 -1       384-9.66525E-01 9.05900E+00-5.34769E-05
 -1       385-1.68748E+00 8.95253E+00-6.09487E-03
 -1       386-1.56353E+00 8.24583E+00 1.78944E-04
 -1       387-1.99678E+00 1.53979E+01 9.05245E-05
 -1       388-2.14534E+00 1.62491E+01 7.58597E-04
 -1       389-2.83936E+00 1.52517E+01 3.33092E-03
 -1       390-2.99942E+00 1.61013E+01 2.79431E-04
 -1       391-1.15396E+00 1.55445E+01-3.11122E-03
 -1       392-1.85058E+00 1.45547E+01 4.85169E-05
 -1       393-4.34853E-01 1.06670E+01 5.50994E-03
 -1       394-1.95083E+00 1.04311E+01-5.51176E-03
 -1       395-1.31356E+00 1.13176E+01 1.13287E-04
 -1       396-8.91617E-01 1.38652E+01-4.04418E-03
 -1       397-2.52875E+00 1.35893E+01 4.24928E-03
 -1       398-2.61337E+00 1.88602E+01 5.03636E-04
 -1       399-3.32464E+00 1.78273E+01 2.32824E-04
 -1       400-1.73641E+00 1.90191E+01 2.66211E-03
 -1       401-2.45407E+00 1.79811E+01 4.32988E-04
 -1       402-1.73628E+00 1.90193E+01-1.96423E-03
 -1       403-1.15410E+00 1.55447E+01 3.80357E-03
 -1       404-2.83970E+00 1.52516E+01-3.04849E-03
 -1       405-2.37963E+00 1.27788E+01 1.83697E-04
 -1       406-1.85090E+00 1.45548E+01 8.89494E-05
 -1       407-1.51660E-02 7.06730E+00 2.70274E-05
 -1       408-1.81795E+00 9.68502E+00-3.28108E-05
 -1       409-2.23230E+00 1.19792E+01-4.67196E-03
 -1       410-6.50523E-01 1.22365E+01 4.86057E-03
 -1       411-1.57267E+00 1.29086E+01 2.46416E-04
 -1       412-2.45031E-01 9.16597E+00-6.22415E-03
 -1       413-8.61124E-01 8.33998E+00 2.37649E-04
 -1       414-2.44594E-01 9.16615E+00 6.09129E-03
 -1       415-3.37081E-01 9.91041E+00 8.38456E-05
 -1       416-3.48969E+00 1.87013E+01 2.47201E-03
 -1       417-3.48960E+00 1.87012E+01-1.49975E-03
 -1       418-5.95284E-01 2.49673E+00-3.46146E-04
 -1       419-2.14562E+00 1.62489E+01 1.30526E-04
 -1       420-1.43740E+00 1.72653E+01-2.55238E-03
 -1       421-2.03883E-01 2.98299E+00-2.48665E-04
 -1       422-8.37587E-02 7.74293E+00-6.81639E-03
 -1       423-7.63131E-01 7.64846E+00 2.01957E-04
 -1       424-1.58487E+00 1.81398E+01 4.60927E-04
 -1       425-7.68582E-01 1.30465E+01 6.99307E-05
 -1       426-3.43440E+00 2.33243E+01 6.79510E-04
 -1       427-4.32993E+00 2.31587E+01 4.93852E-04
 -1       428-4.16129E+00 2.22600E+01-4.66685E-05
 -1       429-2.37428E+00 2.25906E+01 1.37648E-03
 -1       430-3.26782E+00 2.24253E+01 4.94082E-04
 -1       431-2.53923E+00 2.34907E+01 5.18287E-04
 -1       432-1.26952E-03 1.77445E-02 5.23837E-04
 -1       433-3.84177E-02 2.14779E-02-1.02976E-06
 -1       434-8.69528E-02 8.77462E-02 1.30307E-02
 -1       435 7.98234E-02 9.24442E-02-1.15504E-02
 -1       436-3.66629E-03 8.80376E-02-6.92685E-08
 -1       437 3.57021E-02 2.32203E-02 1.19570E-06
 -1       438-8.69516E-02 8.77541E-02-1.30406E-02
 -1       439-1.26946E-03 1.77460E-02-5.23325E-04
 -1       440 7.98222E-02 9.24519E-02 1.15600E-02
 -1       441-4.16132E+00 2.22600E+01 1.01530E-03
 -1       442-3.43443E+00 2.33243E+01 3.32850E-04
 -1       443-2.37431E+00 2.25906E+01-3.68725E-04
 -1       444-2.32880E-01 5.46065E-01-3.05306E-05
 -1       445-2.10319E-02 5.43804E-01 6.65095E-04
 -1       446-2.10218E-02 5.43883E-01-6.45435E-04
 -1       447 1.88512E-01 5.65719E-01 3.17948E-05
 -1       448-1.34632E-01 2.02761E-01-1.40092E-05
 -1       449 1.19459E-01 2.11299E-01 1.35818E-05
 -1       450-6.94298E-03 1.94585E-01 7.66190E-04
 -1       451-6.94272E-03 1.94607E-01-7.65243E-04
 -1       452-2.77383E+00 1.97437E+01 6.20298E-04
 -1       453-2.77395E+00 1.97437E+01 3.69558E-04
 -1       454-3.65695E+00 1.95842E+01 4.56632E-04
 -1       455-1.89201E+00 1.99065E+01 4.40818E-04
 -1       456-3.99330E+00 2.13644E+01 4.77958E-04
 -1       457-2.21100E+00 2.16932E+01 4.86027E-04
 -1       458-3.10173E+00 2.15277E+01 6.48887E-04
 -1       459-3.10176E+00 2.15278E+01 3.16609E-04
 -1       460-1.82520E-01 3.47514E-01 1.23992E-02
 -1       461 1.56486E-01 3.60924E-01-1.13786E-02
 -1       462-1.82511E-01 3.47573E-01-1.24422E-02
 -1       463 1.56469E-01 3.60970E-01 1.14261E-02
 -1       464-3.82430E+00 2.04714E+01-7.52789E-04
 -1       465-2.05014E+00 2.07972E+01 2.02482E-03
 -1       466-2.05018E+00 2.07972E+01-1.09434E-03
 -1       467-3.82435E+00 2.04714E+01 1.69921E-03
 -3
    1PSTEP                         6           2           1          
  100CL  102 6.80000E-01         467                     0    2           1
 -4  STRESS      6    1
 -5  SXX         1    4    1    1
 -5  SYY         1    4    2    2
 -5  SZZ         1    4    3    3
 -5  SXY         1    4    1    2
 -5  SYZ         1    4    2    3
 -5  SZX         1    4    3    1
 -1         1 8.31830E+03 2.18849E+03 2.69217E+03 1.91450E+02-3.72192E+02-8.69162E+02
 -1         2 8.31908E+03 2.18871E+03 2.69237E+03 1.91265E+02 3.72321E+02 8.69094E+02
 -1         3-7.84123E+03-2.24841E+03-2.78234E+03 6.02027E+01-3.84764E+02 8.10981E+02
 -1         4-7.84219E+03-2.24897E+03-2.78286E+03 5.98343E+01 3.85137E+02-8.10731E+02
 -1         5 4.48323E+01 3.85049E+01-1.66561E+01 1.22922E+02-8.86545E-01 1.24765E+01
 -1         6 4.45261E+01 3.81038E+01-1.67397E+01 1.22544E+02 6.30380E-01-1.26551E+01
 -1         7-7.80957E+01 9.39551E+01 1.67200E+01 4.12517E+01-9.10832E+00-8.66835E+00
 -1         8-7.76235E+01 9.39277E+01 1.67718E+01 4.12127E+01 9.05034E+00 8.88833E+00
 -1         9 8.61421E+03 3.51264E+03 3.50788E+03 1.07798E+03-1.85241E-04 2.65833E-03
 -1        10-1.97948E-01-8.72357E+01-7.41245E+01-5.99373E+02-8.46834E-01 3.09295E+00
 -1        11-8.02604E+03-3.62818E+03-3.62956E+03 8.48846E+02 1.47174E-03 7.13750E-02
 -1        12-2.39852E-01-8.72635E+01-7.41502E+01-5.99591E+02 8.47367E-01-3.08006E+00
 -1        13 1.59769E+01-1.48974E+01-4.60316E+01 1.07430E+02-2.72041E-02-5.48596E-02
 -1        14-4.72791E+01 9.67269E+01 2.52170E-02 1.16179E+02-3.07216E+01 1.18751E+01
 -1        15-2.32209E+01 1.20896E+02 4.61943E+01 2.77306E+01 1.72472E-03 4.04071E-02
 -1        16-4.71800E+01 9.66825E+01 3.19195E-02 1.16068E+02 3.07114E+01-1.18805E+01
 -1        17 7.19619E+03 1.20885E-01-3.65173E+01 5.68649E+02-4.06758E+01-7.30224E+01
 -1        18 6.22639E+03 9.66810E+01 8.48113E+00 9.60628E+02-7.53224E+00-2.28078E+01
 -1        19 5.40747E+03 2.30249E+02 1.13209E+01 1.13932E+03-1.41433E+01-2.68593E+01
 -1        20 4.46819E+03 3.07958E+02 6.36218E+00 1.17000E+03-2.63629E+01-9.26710E+00
 -1        21 3.59143E+03 3.38591E+02-9.25929E+00 1.13203E+03-3.66569E+00-1.76803E+01
 -1        22 2.70767E+03 3.77290E+02 1.66362E+01 9.94666E+02-1.88497E+01-1.14207E+01
 -1        23 2.06562E+03 3.25587E+02-2.21237E+01 8.08374E+02 2.56952E+00-2.74080E+01
 -1        24 1.33107E+03 2.32622E+02 1.63293E+01 5.87560E+02-1.60787E+01-2.37088E+01
 -1        25 6.48203E+02 1.69145E+02-3.62983E+00 3.46067E+02-2.94927E+00-1.78551E+01
 -1        26 7.63795E+03 1.13165E+02 2.96224E+02 1.88741E+02 1.14651E+02 2.19852E+02
 -1        27 6.87346E+03 8.38618E+01 6.08861E+00 7.90982E+02-5.00337E+00-2.38140E+01
 -1        28 5.95680E+03 2.03165E+02 2.42114E+01 1.06326E+03-3.26818E+01-3.66904E+01
 -1        29 4.95925E+03 2.63000E+02-8.79910E+00 1.16821E+03-1.35064E+01-1.36610E+01
 -1        30 4.06803E+03 3.30293E+02 1.07223E+00 1.16706E+03-3.16580E+01-4.05140E+01
 -1        31 3.22093E+03 3.71967E+02-8.83881E-01 1.08428E+03-3.66753E+01-1.52831E+01
 -1        32 2.48691E+03 3.52792E+02 1.62553E+01 9.10294E+02-1.92496E+01-6.22547E+01
 -1        33 1.71138E+03 2.77693E+02 1.02202E+00 6.94925E+02-1.99511E+01-5.48074E+01
 -1        34 9.87266E+02 1.94253E+02 1.10407E+01 4.54235E+02-2.73581E+01-2.90235E+01
 -1        35 3.30742E+02 1.07213E+02-1.85897E-01 2.07829E+02-8.40601E+00-9.01169E+00
 -1        36 7.20562E+03-1.04699E+00-3.75360E+01 5.67004E+02 3.96258E+01 7.54572E+01
 -1        37 6.29124E+03 1.47651E+02 1.88439E+01 9.43655E+02 2.79875E+01 2.00295E+01
 -1        38 5.26955E+03 2.03333E+02-4.35622E+00 1.15889E+03 2.67082E+00 1.41362E+01
 -1        39 4.47306E+03 3.02093E+02 6.35994E+00 1.18277E+03 5.90848E+00 2.77045E+01
 -1        40 3.59627E+03 3.63269E+02 6.51704E+00 1.11329E+03 3.01669E+01 7.73286E+00
 -1        41 2.82773E+03 3.41555E+02-1.42100E+01 9.88344E+02 3.34267E+00 2.36713E+01
 -1        42 1.97274E+03 3.46738E+02 1.85435E+01 8.02528E+02 2.15986E+01 1.32640E+01
 -1        43 1.37965E+03 2.30093E+02-1.24172E+01 6.01377E+02-1.28143E+01 2.63531E+01
 -1        44 6.43150E+02 1.68411E+02-1.21956E+00 3.40707E+02 5.79793E+00 1.87692E+01
 -1        45 7.63986E+03 1.13492E+02 2.96390E+02 1.88181E+02-1.14534E+02-2.19267E+02
 -1        46 6.88283E+03 9.95254E+01 6.60917E+00 8.07730E+02 1.87454E+01 6.80850E+00
 -1        47 5.93778E+03 1.80918E+02 5.17838E+00 1.05195E+03 2.09960E+01 6.70532E+01
 -1        48 4.95589E+03 2.75233E+02 9.19459E+00 1.15584E+03 1.05134E+01 3.10877E+01
 -1        49 4.09472E+03 3.29917E+02-1.40038E+01 1.17998E+03 4.26164E+01 2.26087E+01
 -1        50 3.23928E+03 3.46665E+02 2.48150E+00 1.06619E+03 2.91613E+01 4.00179E+01
 -1        51 2.42262E+03 3.57097E+02-2.64085E+00 9.05259E+02 3.76326E+01 1.85606E+01
 -1        52 1.73075E+03 3.03696E+02 2.59522E+01 7.01967E+02 1.94860E+01 6.41154E+01
 -1        53 9.85450E+02 1.73790E+02-1.05478E+01 4.68129E+02-3.78878E+00 1.68351E+01
 -1        54 3.29643E+02 1.06117E+02-5.30185E-01 2.06931E+02 8.63189E+00 9.45851E+00
 -1        55-6.67066E+03-2.71239E+01 7.52024E+01-4.05665E+02-1.28151E+01 6.62192E+01
 -1        56-5.94628E+03-9.66815E+01 3.37397E+01-7.13545E+02 1.19129E+01 2.23894E+01
 -1        57-5.16439E+03-1.73691E+02-3.14703E+00-8.49354E+02 4.24370E+00 1.64756E+01
 -1        58-4.29190E+03-2.09442E+02 6.42218E+00-9.36133E+02 7.27682E+00 2.60401E+01
 -1        59-3.54601E+03-2.36210E+02 2.55696E+01-9.18787E+02 1.54561E+01 1.74271E+01
 -1        60-2.70369E+03-2.61515E+02-1.13590E+01-7.71654E+02-1.34471E+01 1.79748E+01
 -1        61-2.09400E+03-1.72122E+02 1.37452E+01-5.99427E+02 1.00234E+01 1.11539E+01
 -1        62-1.35929E+03-1.07827E+02-4.02141E+00-3.88592E+02 7.99075E+00 1.77868E+01
 -1        63-6.89350E+02-2.58346E+01 2.29157E+00-1.66292E+02 8.52497E+00 1.36995E+01
 -1        64-6.88158E+03-1.31907E+02-2.88806E+02-3.20233E+02 1.35559E+02-1.51177E+02
 -1        65-6.27208E+03-5.84795E+01 1.79973E+00-5.56413E+02 2.25664E+01 8.60736E+00
 -1        66-5.42538E+03-1.15153E+02 1.24891E+01-7.89209E+02-1.38844E+01 2.63973E+01
 -1        67-4.66259E+03-1.94872E+02-1.61172E+01-8.95123E+02 2.32048E+01 4.06971E+01
 -1        68-3.88918E+03-2.30220E+02 4.81722E+00-9.45206E+02 1.14210E+01 2.56328E+01
 -1        69-3.10852E+03-2.61194E+02 7.43109E-01-8.27516E+02 4.58712E+00 1.31524E+01
 -1        70-2.36995E+03-2.04949E+02 2.13215E+00-7.15435E+02 1.18249E+01 5.33710E+01
 -1        71-1.68201E+03-1.68694E+02 8.28965E+00-5.30551E+02 1.80246E+01 4.47245E+01
 -1        72-1.00820E+03-8.94476E+01-1.13678E+01-2.89027E+02 8.71125E+00 1.92058E+01
 -1        73-3.50468E+02 1.23002E+01 1.62355E-01-5.59176E+01-5.71201E-02 1.12517E+01
 -1        74-6.67837E+03-2.29699E+01 7.66797E+01-4.07069E+02 1.06784E+01-6.91760E+01
 -1        75-5.93453E+03-1.56306E+02-3.66430E+00-6.90059E+02 1.19111E+01-1.74865E+01
 -1        76-5.15808E+03-1.58115E+02 3.58443E+01-8.82621E+02-1.39172E+01-1.46558E+01
 -1        77-4.30155E+03-2.04921E+02 8.68575E+00-9.53789E+02-2.94178E+01-9.13889E+00
 -1        78-3.50974E+03-2.33764E+02-6.03836E+00-8.73971E+02-5.86467E+00-1.42312E+01
 -1        79-2.75863E+03-2.22658E+02 3.03658E+00-7.77023E+02-1.23519E+01-1.70565E+01
 -1        80-2.00392E+03-2.14717E+02-1.27143E+01-6.04850E+02 1.31752E+01-2.36646E+01
 -1        81-1.41015E+03-1.07808E+02 1.68972E+00-3.89143E+02-6.98632E+00-2.14809E+01
 -1        82-6.83454E+02-2.77535E+01-1.34805E-01-1.64891E+02-7.04072E+00-1.57315E+01
 -1        83-6.88329E+03-1.32517E+02-2.89273E+02-3.20861E+02-1.35810E+02 1.50429E+02
 -1        84-6.26474E+03-1.08756E+02-1.01651E+01-5.35964E+02-4.69781E+00 1.46975E+00
 -1        85-5.49932E+03-1.34749E+02-7.90496E+00-8.09475E+02-5.78637E+00-5.69225E+01
 -1        86-4.62012E+03-1.84616E+02 1.17171E+01-9.12953E+02-2.31220E+01-5.01411E+01
 -1        87-3.85914E+03-2.18486E+02-2.32978E+00-9.08541E+02-5.00743E+00-2.38399E+00
 -1        88-3.11446E+03-2.37907E+02-1.22838E+00-8.54346E+02-1.26980E+01-2.49550E+01
 -1        89-2.40453E+03-2.54572E+02-1.70870E+01-6.98567E+02 1.22133E+01-3.57148E+01
 -1        90-1.67477E+03-1.50077E+02-1.89287E+01-5.11964E+02 1.60154E+01-4.53687E+01
 -1        91-1.04034E+03-7.34418E+01-7.89829E+00-2.84451E+02-1.54621E+01-9.47245E-01
 -1        92-3.49179E+02 1.24234E+01 3.55097E-01-5.58336E+01-1.01517E-01-1.16140E+01
 -1        93-2.54209E+02-8.89976E+01-6.44266E+01-9.98019E+01 9.60773E-03 7.99182E-03
 -1        94 3.79446E+03 1.30870E+03 1.45246E+03 5.83199E+01-1.08021E+02-4.15406E+02
 -1        95 3.79459E+03 1.30868E+03 1.45245E+03 5.83105E+01 1.08053E+02 4.15437E+02
 -1        96-3.86757E+03-1.42753E+03-1.55945E+03 2.08299E+01-1.15392E+02 4.04427E+02
 -1        97-3.86769E+03-1.42747E+03-1.55940E+03 2.07722E+01 1.15452E+02-4.04395E+02
 -1        98-8.06677E+01 1.29977E+02-1.79512E-01 1.52660E+02 4.54791E-02-1.51494E-02
 -1        99-5.06617E+01 6.20863E+01-2.13553E+01 1.43234E+02 2.18068E-01-3.95774E+00
 -1       100-5.07020E+01 6.19940E+01-2.15020E+01 1.43336E+02-2.02708E-01 3.88699E+00
 -1       101-5.71288E+01 1.44353E+02 2.12649E+01 1.02981E+02-2.86301E+00-2.67487E+00
 -1       102-5.71017E+01 1.44257E+02 2.11574E+01 1.02992E+02 2.90433E+00 2.70928E+00
 -1       103 6.85136E+03 2.55141E+01 3.23822E+01 7.20639E+02 1.00177E+00 4.50062E+00
 -1       104 5.86294E+03 1.07782E+02 7.73531E+00 1.03368E+03 9.33359E-01 5.82246E+00
 -1       105 4.95754E+03 2.27052E+02 8.78492E-01 1.12220E+03-3.44654E+00 2.65548E-01
 -1       106 4.14916E+03 2.62389E+02 1.18366E-01 1.14934E+03-6.57724E+00-8.84225E+00
 -1       107 3.28716E+03 3.11393E+02 4.60331E+00 1.05968E+03 2.15528E+00 6.24820E+00
 -1       108 2.44815E+03 3.09290E+02 7.10671E+00 9.27916E+02 2.26152E+00 3.52001E+00
 -1       109 1.65607E+03 2.81276E+02-9.41142E-01 7.04060E+02 9.49155E-01 9.23770E+00
 -1       110 1.01151E+03 1.95021E+02-2.68187E+01 4.37084E+02-7.14825E-02 2.13746E+00
 -1       111 7.82805E+03-2.17911E+02 1.35247E+02 5.43403E+02-1.46852E-01 2.48559E-01
 -1       112 3.34403E+02 1.08666E+02-1.06358E+00 1.90505E+02 1.83869E-01 1.53044E-01
 -1       113 8.05370E+03 5.06659E+02 1.21009E+03 4.43397E+02 1.87569E+02 4.37682E+02
 -1       114 8.05311E+03 5.06365E+02 1.20997E+03 4.43513E+02-1.87583E+02-4.37588E+02
 -1       115 7.53220E+03-1.10875E+02-8.38080E+01 4.68836E+02 9.30288E+01 5.83258E+01
 -1       116 7.53030E+03-1.10435E+02-8.32128E+01 4.69733E+02-9.31779E+01-5.70862E+01
 -1       117 1.99556E+02 7.73323E+01-5.14264E+00 1.24581E+02 3.09067E-01 5.81108E-01
 -1       118 1.99265E+02 7.68624E+01-5.24261E+00 1.24396E+02-3.80184E-01-6.01750E-01
 -1       119 4.92823E+02 9.75875E+01-1.22315E+01 2.44873E+02 6.73852E+00 4.39529E+00
 -1       120 4.93606E+02 9.88817E+01-1.20096E+01 2.46282E+02-5.90154E+00-3.42296E+00
 -1       121 6.57613E+03 7.80308E+01 3.74279E-01 8.18071E+02-3.82689E+00-1.38941E+01
 -1       122 7.09590E+03 3.19866E+01 4.58453E+01 6.70340E+02 1.31800E+00 8.31650E+00
 -1       123 7.37303E+03 6.54260E+01 1.12691E+02 5.43191E+02-3.03040E-01 2.10123E+00
 -1       124 7.10895E+03 2.96239E+01 4.75856E+01 6.67713E+02-2.22378E+00-1.55834E+00
 -1       125 5.67064E+03 1.97233E+02 2.82776E+01 1.07127E+03-9.07633E+00-1.61546E+01
 -1       126 6.09169E+03 1.01469E+02 1.50627E+01 9.91212E+02-8.95263E+00-1.40958E+01
 -1       127 6.34311E+03 1.38917E+02 1.54306E+01 8.81677E+02-1.16859E+00-8.95406E+00
 -1       128 6.60093E+03 1.12312E+02 1.58194E+01 8.32621E+02 8.80346E+00-4.69016E-01
 -1       129 6.11687E+03 1.12875E+02 1.02800E+01 9.78126E+02 1.89945E+01 3.57115E+01
 -1       130 4.72855E+03 2.81306E+02 3.39647E+00 1.12710E+03-5.22357E+00-4.39001E-01
 -1       131 5.22014E+03 1.99585E+02 5.27222E-01 1.13266E+03-1.67952E+01-1.80541E+01
 -1       132 5.39705E+03 2.21999E+02 1.88488E+01 1.12644E+03-6.54464E+00-1.53088E+01
 -1       133 5.60112E+03 1.45889E+02-2.17471E+01 1.09197E+03 2.31128E+00 7.81545E+00
 -1       134 5.20664E+03 2.22346E+02 2.31451E+01 1.13325E+03 5.44528E+00 1.62898E+01
 -1       135 3.82779E+03 2.99916E+02-2.40361E+01 1.09631E+03 1.79464E-01-8.07990E+00
 -1       136 4.33045E+03 2.79735E+02 1.02284E+01 1.17348E+03-2.18155E+01-1.60659E+01
 -1       137 4.50521E+03 2.97770E+02 1.51076E+01 1.11214E+03-2.34771E+00 4.40638E+00
 -1       138 4.70505E+03 2.71837E+02-2.53258E+00 1.12876E+03-7.87211E-01 1.32812E+01
 -1       139 4.33572E+03 2.56519E+02 2.44145E+00 1.16198E+03 1.50085E+00 6.62019E+00
 -1       140 2.98910E+03 3.59895E+02 2.01805E+00 1.00211E+03 1.62424E-01 5.88068E+00
 -1       141 3.47886E+03 3.14551E+02-2.34644E+00 1.10107E+03-8.26123E+00-4.23276E+00
 -1       142 3.65193E+03 3.42288E+02 7.29031E+00 1.06030E+03 4.64357E-01-1.88843E+00
 -1       143 3.85895E+03 3.48260E+02 1.60829E+00 1.10784E+03-7.65354E+00-2.44999E+00
 -1       144 3.45800E+03 3.19424E+02 5.48901E+00 1.09520E+03 2.64943E+01 1.46475E+01
 -1       145 2.26013E+03 3.37698E+02-9.33568E+00 8.53228E+02 1.48026E+01-1.21405E+01
 -1       146 2.64901E+03 3.38077E+02 9.53051E+00 9.75344E+02-1.54398E+01-4.04492E+00
 -1       147 2.79646E+03 3.37996E+02-6.35981E+00 9.37882E+02 6.92863E-01 1.70654E+01
 -1       148 3.03012E+03 3.25510E+02-2.07196E+01 9.92178E+02-4.91509E+00 1.44981E+01
 -1       149 2.64622E+03 2.84306E+02-2.77173E+00 9.52988E+02 1.39764E+01 1.64943E+01
 -1       150 1.53838E+03 2.98680E+02 2.33514E+01 6.18883E+02 7.12170E+00-1.83861E+01
 -1       151 1.87641E+03 2.51452E+02-2.34164E+01 7.51815E+02-1.43952E+01-1.06756E+01
 -1       152 2.05242E+03 3.12126E+02-5.56877E+00 7.64259E+02 8.37269E+00-1.47960E+01
 -1       153 2.21595E+03 3.32958E+02 1.11027E+01 8.24565E+02 4.78135E+00 2.45446E+00
 -1       154 1.92212E+03 3.11752E+02 2.70891E+01 7.78194E+02 2.30145E+01 6.64878E+00
 -1       155 8.63270E+02 1.89626E+02-1.67993E+00 3.74104E+02 4.54333E+00-5.27436E+00
 -1       156 1.15571E+03 1.98062E+02-3.07548E+00 5.20891E+02-1.91415E+01-7.35518E+00
 -1       157 1.39021E+03 1.96682E+02 1.11498E+01 5.69853E+02-9.05515E+00-1.18919E+00
 -1       158 1.46919E+03 2.69163E+02-5.24351E+00 6.20954E+02-9.15620E+00 3.08641E+01
 -1       159 1.21866E+03 1.75214E+02-1.82124E+01 5.20249E+02 6.67714E+00 8.39087E+00
 -1       160 6.63110E+02 1.34193E+02-6.74699E+00 3.12713E+02 1.03426E+00 9.83368E-01
 -1       161 8.46890E+02 1.84290E+02-8.33301E-01 3.63999E+02-2.86564E+00 1.42280E+01
 -1       162-5.69507E+03-1.45408E+02-6.98343E+00-8.10363E+02-4.77740E+00 5.99549E+00
 -1       163-4.64392E+03-2.45788E+02 1.86053E+00-9.36622E+02-1.59945E+00-2.14574E+01
 -1       164-3.86941E+03-2.65693E+02-2.97082E+00-9.81064E+02-9.39905E-01-2.13742E+00
 -1       165-3.09302E+03-2.68033E+02 1.28601E+00-9.05405E+02 2.19502E+00 6.67368E+00
 -1       166-2.48364E+03-1.97943E+02-3.15349E-01-7.40150E+02 1.98341E+00 1.81182E+00
 -1       167-1.78214E+03-1.42853E+02-1.66665E-02-5.54217E+02-9.66625E+00-6.26550E+00
 -1       168-9.62672E+02-1.24439E+02 2.08361E+01-3.45224E+02-2.80344E-01 1.42569E+00
 -1       169-7.40750E+03 1.38715E+02-7.96493E+01-1.09255E+01-1.29740E-01-3.60224E-01
 -1       170-3.36117E+02-8.15850E+00 1.20486E+00-6.00681E+01 5.99765E-02-2.05949E-01
 -1       171-6.34384E+03-6.74605E+01 7.43882E+00-6.10694E+02 1.44903E+00-4.57408E+00
 -1       172-7.42081E+03-5.36479E+02-1.20244E+03 1.25368E+02-1.81793E+02 3.95728E+02
 -1       173-7.42146E+03-5.37071E+02-1.20282E+03 1.25147E+02 1.81976E+02-3.95761E+02
 -1       174-6.88625E+03 7.17742E+01 1.58817E+02-2.96623E+02 8.56293E+01-7.27354E+01
 -1       175-6.88429E+03 7.23742E+01 1.59666E+02-2.95223E+02-8.67565E+01 7.10424E+01
 -1       176-1.81798E+02 4.37962E+00 5.43399E+00-1.58877E+01 1.59640E-01 6.70935E-01
 -1       177-1.82155E+02 4.25759E+00 5.37761E+00-1.58429E+01-1.57828E-01-6.65322E-01
 -1       178-4.72443E+02-1.79224E+01 1.19475E+01-1.36605E+02 1.77376E+00-6.36130E+00
 -1       179-4.73982E+02-1.76929E+01 1.19565E+01-1.36502E+02-1.78996E+00 5.34479E+00
 -1       180-6.50987E+03-5.94264E+01-1.72828E+01-5.09252E+02 1.60506E+01-2.32216E+01
 -1       181-6.07115E+03-9.03782E+01 4.42892E+01-6.73864E+02 9.77544E+00 1.78260E+01
 -1       182-6.66705E+03-6.66076E+01-5.67710E+01-4.36935E+02-1.73221E+00-2.12005E+00
 -1       183-6.52012E+03-5.17171E+01-1.41078E+01-5.10608E+02-1.58821E+01 1.65141E+01
 -1       184-5.77487E+03-8.00865E+01 1.70472E+01-7.74693E+02-2.04721E+00 1.46575E+01
 -1       185-5.21850E+03-1.69605E+02 1.21493E+01-8.48242E+02 1.10228E+01 6.15350E+00
 -1       186-5.80171E+03-1.33155E+02-3.31298E+00-7.43309E+02 6.58719E+00-4.61872E+00
 -1       187-5.81042E+03-1.16985E+02 4.81782E+01-7.23970E+02 1.25417E+00 1.39671E+01
 -1       188-6.02499E+03-1.20087E+02 2.72445E+01-6.56938E+02-1.58390E+00-3.01022E+00
 -1       189-4.96585E+03-2.01171E+02-9.80026E+00-9.17729E+02-1.33365E+01-5.39947E+00
 -1       190-4.43017E+03-2.59470E+02 5.66059E+00-9.48388E+02 1.26848E+00 1.89011E-01
 -1       191-5.37380E+03-1.85307E+02 2.21190E+01-8.65428E+02-2.20215E+01-1.34367E+00
 -1       192-5.15089E+03-1.59585E+02 1.74195E+01-8.70435E+02-2.65455E+00-8.41375E-01
 -1       193-4.86123E+03-1.42941E+02 1.78972E+01-9.15573E+02 1.91849E+01-1.42801E+01
 -1       194-4.09148E+03-2.39573E+02-9.24404E+00-9.86773E+02-8.07178E-02 9.08854E+00
 -1       195-3.66844E+03-2.57666E+02 2.13250E+01-9.47665E+02 8.43784E+00 1.29016E+01
 -1       196-4.42649E+03-2.34074E+02 9.46930E+00-9.35348E+02-2.19457E+01-2.28428E+01
 -1       197-4.25765E+03-2.18047E+02 1.52637E+01-1.00659E+03-3.53332E+00 3.62399E-01
 -1       198-4.07416E+03-2.30615E+02 7.73212E-01-9.89903E+02-5.98541E+00-1.96856E+00
 -1       199-3.28380E+03-2.33299E+02 1.50379E+01-9.29462E+02 2.06758E+00 2.03723E+01
 -1       200-2.89130E+03-3.03692E+02-8.79173E+00-8.33459E+02 5.52522E+00 4.83652E+00
 -1       201-3.62321E+03-2.64907E+02 1.27872E+00-9.19514E+02-6.34426E+00-4.56669E+00
 -1       202-3.47747E+03-2.23219E+02 2.03201E+01-9.07048E+02-6.62345E-01 8.56785E+00
 -1       203-3.31739E+03-2.59975E+02-1.95673E+01-9.23105E+02-4.17967E+00-7.41831E+00
 -1       204-2.60118E+03-2.16242E+02 1.91765E-01-7.69935E+02-1.81009E+00 2.95964E+01
 -1       205-2.21039E+03-1.68242E+02 3.73555E+01-6.75137E+02 9.43979E+00 2.16983E+00
 -1       206-2.89222E+03-2.57429E+02 2.26681E+01-8.46062E+02-5.86806E+00-1.10316E+01
 -1       207-2.66045E+03-2.61343E+02 2.72166E+01-8.04820E+02-2.92666E-01-6.84063E+00
 -1       208-2.58907E+03-2.10508E+02 1.46055E+00-7.73150E+02-2.38409E+00-1.31255E+01
 -1       209-1.86524E+03-1.49766E+02 2.13416E+01-5.82954E+02-2.20307E+00 1.09156E+01
 -1       210-1.51161E+03-1.24315E+02 1.00537E+01-4.80038E+02 7.28060E+00 1.68797E+01
 -1       211-2.18971E+03-2.53530E+02-1.81629E+01-6.70445E+02-2.02915E+00-1.21481E+01
 -1       212-1.98736E+03-2.31172E+02 1.49203E+01-6.30803E+02 5.42723E-01 1.98407E+00
 -1       213-1.90664E+03-1.73665E+02-5.75947E+00-6.01815E+02-2.99668E+00-3.70479E+01
 -1       214-1.17055E+03-1.34644E+02-1.58721E+01-3.96580E+02 6.00773E+00 1.49633E+01
 -1       215-8.23727E+02-9.59533E+01 2.78059E+00-2.61831E+02 5.55388E+00-1.20890E+00
 -1       216-1.47882E+03-1.64883E+02 1.88901E+01-4.71556E+02-1.16627E+01-6.14463E+00
 -1       217-1.38176E+03-1.27987E+02-1.90999E+01-4.22979E+02-1.09800E+00-1.25641E+00
 -1       218-1.20192E+03-1.10944E+02 4.77313E+00-3.97692E+02 1.00137E-01 2.83444E+00
 -1       219-8.13352E+02-9.89623E+01 1.68321E+00-2.62586E+02-5.00317E+00-9.57181E-02
 -1       220-6.49464E+02-4.63789E+01 5.78908E+00-1.94024E+02-8.29450E-02-1.59640E+00
 -1       221-9.45744E+01 1.43231E+02 1.24188E-01 1.68237E+02 2.80301E+00-8.58170E-01
 -1       222-2.01866E+02-6.86227E+01-1.41727E+01 2.24871E+02-7.92573E+00 3.18219E+00
 -1       223-2.06840E+02-2.27953E+01-2.69168E+01 1.66086E+02-3.36528E+00-1.91383E+00
 -1       224-1.36644E+02 2.23062E+01-5.73630E+00 1.86929E+02 5.23290E+00 8.48072E-01
 -1       225-1.29892E+02 6.59783E+01 5.62537E+00 2.06264E+02 7.61118E-01-6.88476E+00
 -1       226-1.05632E+02 7.97355E+01-6.36516E+00 1.68261E+02 4.24978E+00-1.20834E+00
 -1       227-2.15244E+02-1.24068E+02-2.02591E+00 1.81339E+02-1.78800E+02-8.98843E+00
 -1       228-1.18364E+02 1.04703E+02-1.45073E+01 1.81755E+02-1.70537E+00-2.42899E+00
 -1       229-9.43721E+01 1.11551E+02 6.84088E-01 1.63280E+02-2.42018E+00-4.13383E+00
 -1       230-8.97602E+01 1.47325E+02 4.98824E+00 1.71510E+02 2.66893E+00 8.87523E-01
 -1       231-4.03327E+03-8.93552E+02-1.13066E+03-3.29097E+00 1.16837E+02-4.12267E+02
 -1       232 4.03737E+03 7.49152E+02 1.09471E+03 6.06437E+01 1.07036E+02 4.26981E+02
 -1       233 3.49905E+03-1.39769E+02-1.71532E+02 3.20775E+02-1.42237E+02-9.81759E+01
 -1       234-3.47136E+03 9.01326E+00 1.87445E+02-1.18545E+02-1.31087E+02 1.00035E+02
 -1       235-2.22570E+01 9.99829E+01 1.09606E-01 1.48386E+02-1.16189E+00-1.81473E+01
 -1       236-9.48054E+01 1.15358E+02-6.01221E-02 1.08087E+02 1.13926E+01 1.44555E+01
 -1       237 2.19795E+02 1.32129E+02-3.19205E+01 2.47967E+02-8.16700E+00-1.86035E+01
 -1       238-3.41449E+02 8.78047E+01 3.19320E+01 1.67247E+01 6.76182E+00 1.90456E+01
 -1       239 3.45124E+03-5.11978E+00-6.63206E+00 4.50892E+02-4.45864E+00-1.14658E+01
 -1       240 3.10241E+03 3.99490E+01-2.28559E+00 5.77337E+02-6.11743E+00-2.10733E+01
 -1       241 5.96981E+01-4.15348E+01 1.06000E+01 1.46982E+02 1.54848E+01-1.59532E+00
 -1       242-3.44199E+03-7.04893E+01-2.64310E+00-9.03389E+01 9.88772E+00 2.99260E+00
 -1       243 2.95834E+03 3.05821E+01 2.08102E+01 6.05439E+02-1.79085E+01-2.02134E+01
 -1       244 2.62878E+03 1.20529E+02-5.27751E+00 6.42485E+02-1.22251E+01-1.13739E+01
 -1       245-2.18809E+01-2.47721E+01 1.44529E+01 1.68790E+02 1.64730E+01-6.59732E+00
 -1       246-3.13955E+03-8.69272E+01 9.27012E+00-2.34604E+02 1.92537E+01 2.79118E+01
 -1       247-3.00013E+03-1.04386E+01 1.38500E+01-2.71787E+02-7.02146E+00 1.23478E+00
 -1       248 2.55768E+03 1.09234E+02-6.50641E+00 6.66362E+02 2.98513E+00-2.79415E+01
 -1       249 2.21656E+03 1.89173E+02 1.01152E+01 6.68845E+02-2.72509E+00-1.00391E+01
 -1       250-1.63308E+01 2.35570E+01 1.92852E+00 1.72637E+02-1.00044E+00 1.01956E+01
 -1       251-2.71662E+03-1.09680E+02-2.86812E+01-3.31661E+02 4.16608E+00 6.91863E+00
 -1       252-2.64184E+03-5.93517E+01 2.47706E+01-3.39134E+02 2.51821E-01 2.75366E+01
 -1       253 2.09525E+03 1.59034E+02-3.87113E+00 7.03720E+02-2.83564E+01-1.36601E+01
 -1       254 1.77570E+03 2.31993E+02 3.66530E+00 6.72305E+02 6.49112E+00-2.62197E+01
 -1       255-2.39945E+01 6.50123E+01 1.23618E+00 1.57200E+02-7.03162E+00 2.73890E+01
 -1       256-2.28057E+03-1.05706E+02-1.83403E+01-3.66463E+02 1.95604E+01 4.43172E+01
 -1       257-2.17280E+03-5.29890E+01 1.04711E+01-3.61477E+02-2.91354E+00 1.27161E+01
 -1       258 1.68411E+03 1.81300E+02-2.47945E+01 6.64879E+02-1.35693E+01-2.55945E+01
 -1       259 1.34014E+03 2.43992E+02 1.07591E+01 5.84378E+02-3.39416E+00-1.88424E+01
 -1       260-7.12324E+01 5.16084E+01 7.23330E+00 1.38982E+02 1.16574E+01-1.26997E+01
 -1       261-1.89152E+03-1.10397E+02 4.78384E+00-3.55250E+02 1.97261E+01 7.86515E+00
 -1       262-1.75111E+03-3.62899E+01 2.28997E+01-3.75524E+02 1.50163E+01 2.52652E+01
 -1       263 1.24896E+03 2.24774E+02 1.49105E+01 5.94250E+02-2.07021E+01-5.41385E+00
 -1       264 1.03887E+03 2.47510E+02-2.22427E+01 5.09555E+02 1.68924E+01-1.84663E+01
 -1       265-5.95901E+01 7.94968E+01 3.70389E+00 1.35734E+02-1.63940E+01-1.98889E+01
 -1       266-1.47700E+03-9.59021E+01-1.25303E+01-3.01439E+02-7.09885E+00 1.17337E+01
 -1       267-1.38777E+03-4.27710E+01-2.51974E+01-2.92815E+02-1.47814E+01 1.06857E+01
 -1       268 9.05990E+02 1.90340E+02-4.00424E-01 4.88821E+02-2.24269E+01-4.84766E+00
 -1       269 6.75889E+02 2.20874E+02-1.87721E+00 3.93795E+02 1.32746E+01-1.91389E+01
 -1       270-8.52508E+01 8.21176E+01-2.72378E+01 1.32380E+02 1.23679E+01-9.49640E+00
 -1       271-1.17879E+03-5.65511E+01 7.05128E+00-2.25858E+02 1.02559E+01 3.12291E+00
 -1       272-1.00856E+03 1.62090E+00-3.07362E+00-2.02682E+02-4.45815E+00 8.88613E-01
 -1       273 5.51372E+02 1.53901E+02 2.54559E+00 3.64594E+02-2.50510E+01-9.70402E+00
 -1       274 3.21870E+02 1.90258E+02 3.16910E+01 2.71500E+02 2.86997E+00-1.97706E+01
 -1       275-4.35113E+01 9.55080E+01 1.75863E+01 1.38067E+02-6.47146E+00 2.06192E+00
 -1       276-8.16128E+02-3.85464E+01 6.64274E+00-1.31315E+02 9.02366E+00 1.13615E+00
 -1       277-6.53268E+02 4.69910E+01 1.37242E+00-8.19980E+01 7.87338E+00 1.59605E+01
 -1       278-7.10277E+01 1.21583E+02-4.82647E-01 1.46638E+02 2.84716E+00-7.88533E-01
 -1       279-4.53126E+02 3.57798E+01-3.14895E+01-3.51921E+00 1.19138E+01 1.86013E+01
 -1       280-2.15245E+02-1.23965E+02-1.73756E+00 1.80758E+02 1.78668E+02 8.98611E+00
 -1       281-1.94860E+02-5.49936E+00 7.78994E+00 1.99992E+02-1.67233E+00-2.51036E+00
 -1       282-1.72064E+02 1.92429E+01-1.52037E+01 1.93230E+02 3.98703E+00-4.56270E+00
 -1       283-8.23384E+01 5.64963E+01-7.17593E+00 1.83045E+02 1.07641E+00-4.56818E-02
 -1       284-1.24443E+02 1.01015E+02 9.03366E+00 1.92306E+02-1.68544E+00 3.65922E+00
 -1       285-1.02102E+02 9.91456E+01 8.07597E-01 1.63503E+02-5.22354E+00 3.94807E+00
 -1       286-1.41390E+02 1.16302E+02 1.67715E+00 1.63753E+02 9.10566E+00 4.49196E-01
 -1       287-1.06669E+02 1.35317E+02 3.39765E+00 1.58491E+02 4.04526E-01-5.24424E+00
 -1       288-9.42840E+01 1.42900E+02 1.64562E-01 1.68001E+02-2.72177E+00 7.90421E-01
 -1       289-2.14416E+02-6.26731E+01-1.92290E+01 2.04155E+02-1.45056E+00-1.95207E+00
 -1       290 4.03696E+03 7.49126E+02 1.09457E+03 6.06100E+01-1.07010E+02-4.26987E+02
 -1       291-4.03274E+03-8.93172E+02-1.13021E+03-3.24574E+00-1.16600E+02 4.12400E+02
 -1       292 3.50153E+03-1.39020E+02-1.71329E+02 3.19546E+02 1.42313E+02 9.91730E+01
 -1       293-3.47374E+03 7.25159E+00 1.86541E+02-1.20222E+02 1.30189E+02-1.01300E+02
 -1       294-9.49960E+01 1.15329E+02-1.65060E-01 1.08030E+02-1.14054E+01-1.43579E+01
 -1       295-2.19576E+01 1.00130E+02 3.12585E-01 1.48547E+02 1.02928E+00 1.80391E+01
 -1       296 2.19162E+02 1.30167E+02-3.19231E+01 2.46617E+02 8.89117E+00 1.92844E+01
 -1       297-3.39432E+02 8.78114E+01 3.21535E+01 1.64976E+01-6.84509E+00-1.99380E+01
 -1       298 3.11109E+03 5.71429E+01 4.91045E+00 5.67500E+02 1.43155E+01 8.01877E+00
 -1       299 3.46575E+03-1.37882E+01-7.07749E+00 4.40385E+02-1.20520E-02 2.04049E+01
 -1       300 6.26109E+01-4.15383E+01 1.05696E+01 1.45408E+02-1.58611E+01 1.76090E+00
 -1       301-3.45726E+03-4.09093E+01 2.42835E+00-9.79728E+01-1.27521E+01-8.71792E+00
 -1       302 2.66094E+03 1.21020E+02-7.09041E+00 6.75430E+02-2.61914E+00 7.83554E+00
 -1       303 2.98949E+03 4.25509E+01 1.99903E+01 5.97152E+02 2.11937E+01 1.71411E+01
 -1       304-3.05051E+03-7.11578E+01-1.82978E+01-2.48203E+02 9.22605E+00-5.50047E+00
 -1       305 7.44866E+00-3.20841E+01 3.68154E+00 1.54492E+02 9.19933E+00-1.69651E+01
 -1       306-3.12638E+03-1.04799E+02-1.13201E+01-2.37085E+02 2.81108E+00-2.73673E+01
 -1       307 2.20024E+03 1.88451E+02 9.03648E+00 6.89744E+02-9.21964E-01 1.06778E+01
 -1       308 2.44944E+03 9.44239E+01-9.21417E+00 6.81853E+02 9.44193E+00 1.39972E+01
 -1       309-2.73719E+03-1.00972E+02 2.59910E+01-3.45200E+02-2.03149E+01-1.32221E+01
 -1       310-1.89154E+01 1.92812E+01 2.51324E+01 1.61849E+02-1.30275E+01 1.51000E+00
 -1       311-2.56804E+03-3.54484E+01-7.20659E+00-3.47168E+02 1.52433E+01-1.04225E+01
 -1       312 1.79476E+03 2.33416E+02 1.07856E+01 6.56780E+02 6.40105E+00 8.82631E+00
 -1       313 2.09985E+03 1.48584E+02-2.08070E+01 6.90810E+02 1.57058E+01 4.74794E+01
 -1       314-2.29350E+03-1.10260E+02-8.60394E+00-3.61672E+02-3.01975E+01-2.16434E+00
 -1       315-2.28589E+01 6.60223E+01 9.02349E-01 1.53173E+02-1.02712E+01 2.74422E+01
 -1       316-2.17290E+03-5.57431E+01 9.81929E+00-3.95897E+02-4.53857E+00-1.26827E+01
 -1       317 1.39380E+03 2.46549E+02 2.79955E+00 5.93988E+02-1.41165E+01 2.53892E+01
 -1       318 1.67104E+03 2.02393E+02 7.36293E+00 6.60737E+02 2.70247E+01 7.10187E+00
 -1       319-1.86561E+03-1.05412E+02-1.76170E+01-3.49425E+02-1.63727E+00-2.21410E+01
 -1       320-3.46200E+01 7.50178E+01-2.37267E+00 1.51212E+02 3.89170E+00-1.43461E+01
 -1       321-1.76664E+03-4.59242E+01 6.38812E+00-3.33860E+02-2.79970E+00-9.94450E+00
 -1       322 9.82480E+02 2.38000E+02 9.82766E+00 4.87128E+02 1.41845E+00 1.65240E+01
 -1       323 1.29438E+03 1.75432E+02-1.39281E+01 5.90502E+02 1.72730E+01 9.84981E+00
 -1       324-1.50453E+03-8.37922E+01 2.79653E+00-2.97240E+02-1.67819E+01-1.36759E+01
 -1       325-3.13986E+01 8.07339E+01-2.18391E+01 1.47015E+02-1.48798E+01 1.28315E+00
 -1       326-1.40622E+03-2.75825E+01-2.64231E+01-3.04449E+02-5.75407E+00-1.74427E+01
 -1       327 6.45747E+02 2.20746E+02-2.46028E+01 3.95252E+02-1.57645E+01 1.35475E+01
 -1       328 9.01704E+02 2.31690E+02 3.37148E+01 4.96083E+02 2.74786E+01 8.24725E+00
 -1       329-1.10922E+03-6.89661E+01-9.94998E+00-2.18471E+02 8.27918E+00-4.58083E+00
 -1       330-6.32736E+01 8.24655E+01-1.59521E-01 1.24964E+02 1.47066E+01 1.86386E+01
 -1       331-1.02522E+03 7.72508E-01 1.89690E+00-2.12755E+02 1.54526E+01-1.50348E+01
 -1       332 3.25915E+02 1.97231E+02 4.40473E+01 2.62353E+02 5.33622E+00 1.79309E+01
 -1       333 5.88113E+02 1.64409E+02-1.08549E+01 3.72933E+02 3.58370E+00 1.12521E+01
 -1       334-8.00706E+02-2.00399E+01-4.25585E+00-1.17632E+02 4.84256E+00-1.11723E+01
 -1       335-4.73550E+01 9.91156E+01 1.05746E+01 1.39552E+02-1.70989E+01-2.42447E+01
 -1       336-7.15642E+02 3.98042E+01 1.49086E+01-1.03402E+02-1.78310E+01-2.48539E+01
 -1       337-4.36906E+02 3.17637E+01-3.10322E+01 1.21215E+00-1.39893E+01-2.67575E+01
 -1       338-7.17682E+01 1.17683E+02-9.70323E-01 1.43934E+02-1.98312E+00 9.42506E-01
 -1       339-2.55775E+02-1.36283E+02-3.39337E+01 1.86782E+02-1.37628E+00 2.41803E-01
 -1       340-7.89987E+01 1.21929E+02-7.31579E-01 1.49395E+02 9.68417E-01-7.49442E-01
 -1       341 1.46463E+01-6.24418E+01-3.12909E+01 1.19930E+02 2.20161E+00 1.07104E+01
 -1       342-3.35800E+01-2.74059E+01-6.07590E+00 1.39052E+02-3.89477E-01-8.94549E+00
 -1       343-3.06804E+03-1.13942E+02-1.09859E+01-2.89254E+02-5.81972E+00 5.52375E+00
 -1       344 2.96180E+03 4.96901E+01 8.34543E+00 5.93156E+02-6.99532E+00 1.41707E+01
 -1       345 3.08131E+03 2.09353E+01 3.44409E+00 5.63975E+02 8.80602E-01-5.66633E+00
 -1       346-2.01010E+03-9.54115E+01 1.32680E+00-3.83187E+02 1.03534E+00 2.10975E+00
 -1       347-2.01264E+03-1.05186E+02-1.25937E+01-4.06076E+02-6.35828E-01-1.94484E+01
 -1       348-8.43047E+01 5.12841E+01-3.88476E+00 1.89553E+02-3.29391E+00-3.67218E+00
 -1       349-1.92251E+03-1.28181E+02-2.37523E+01-3.81682E+02 2.98662E+00 1.78561E+00
 -1       350-6.01668E+01 4.23133E+01 1.43264E+01 1.50012E+02-1.12804E+00-5.69776E+00
 -1       351 2.24850E+03 1.71695E+02 1.67527E+01 6.81205E+02-1.78784E+00 6.78692E+00
 -1       352-2.39672E+03-1.07996E+02 3.87044E+00-3.73175E+02-1.80945E+00-4.98457E+00
 -1       353-1.64555E+02 1.39235E+01 1.52544E+01 1.19702E+02 4.72334E+00 5.74187E-01
 -1       354 2.09251E+03 1.44672E+02-9.14049E+00 6.80011E+02-2.74298E+00 7.44623E-01
 -1       355 3.32120E+03-1.24725E+01 8.94763E+00 4.84207E+02-8.82804E+00-7.35306E+00
 -1       356 3.34577E+03-3.01353E+01 1.25651E+01 4.67425E+02 8.51004E+00 2.10421E+01
 -1       357-1.94102E+02-7.99210E+01-1.56739E+01 2.10970E+02-1.08129E+01 8.69855E-01
 -1       358 2.80739E+03 4.17306E+01 1.12110E+01 6.02842E+02-3.51787E+00-6.50964E+00
 -1       359-2.91395E+03-8.25900E+01-2.69371E+01-3.33409E+02 6.45440E+00 3.09199E+00
 -1       360-6.73763E+01-3.52194E+01 2.09540E+00 1.76960E+02 4.41078E+00 7.92490E+00
 -1       361 2.81192E+03 4.94537E+01-5.24870E+00 6.30690E+02-6.63869E-01-4.83458E+00
 -1       362-2.90254E+03-7.70245E+01 8.81533E+00-3.01705E+02-1.44197E+01 6.76952E+00
 -1       363-2.12469E+03-7.03849E+01 1.48780E+01-3.79198E+02-1.29918E+00 7.49985E-01
 -1       364 1.94760E+03 1.57667E+02-2.70765E+00 6.67976E+02 1.21731E+00-9.83683E+00
 -1       365-7.19952E+01 5.08170E+01 1.27244E+01 1.45097E+02-1.16084E+00 3.97271E-01
 -1       366 2.02698E+03 1.59007E+02-8.87512E-01 6.61224E+02 6.82692E-01 7.28156E+00
 -1       367-4.18046E+01 4.68989E+01 1.43968E+01 1.66318E+02-6.19143E+00 4.15579E+00
 -1       368 2.59890E+03 9.36202E+01-2.24302E+00 6.48337E+02-2.79316E+00 8.39102E+00
 -1       369-1.52685E+02 2.80964E+00-2.11798E+01 1.89255E+02 1.28414E+00-1.45507E+01
 -1       370 2.45606E+03 9.48500E+01-2.47623E+01 6.64917E+02 8.89820E+00 8.79949E+00
 -1       371-2.44032E+03-1.07279E+02-9.58810E+00-3.73060E+02 7.49568E+00-1.23550E+01
 -1       372 1.55818E+01-3.51293E+01-3.62365E+01 1.27165E+02 4.81264E+00-3.48502E+00
 -1       373 1.15424E+03 1.85929E+02 2.13031E+01 5.29698E+02-5.90730E+00 1.15420E+01
 -1       374-7.12221E+01 8.71337E+01 2.62186E+01 1.08716E+02-3.11829E+00 1.19280E+01
 -1       375-1.24549E+03-3.40749E+01-1.40094E+01-2.99171E+02-7.73188E+00-1.16100E+01
 -1       376-3.41926E+01 7.56091E+01 2.12519E+00 1.21850E+02-3.26073E+00-1.17461E+01
 -1       377-2.29513E+03-1.10243E+02-1.08743E+01-3.79184E+02-4.95300E+00-6.72320E+00
 -1       378-3.29326E+03-7.65271E+01-3.08293E+00-1.94579E+02-1.05601E+00 8.47989E+00
 -1       379-3.33100E+03-5.79540E+01-8.81690E+00-2.02559E+02 1.11217E+00-2.13212E+01
 -1       380-3.20404E+03-1.17582E+02-1.94056E+01-2.40124E+02 3.26549E+00-7.67119E-01
 -1       381 2.38938E+03 1.21348E+02-5.43638E+00 6.53485E+02-1.39887E+00-1.23383E+01
 -1       382 2.37772E+03 1.25346E+02-6.62343E+00 6.68981E+02 4.67671E+00 9.60923E-01
 -1       383-1.61878E+03-8.14620E+01 4.02983E+00-3.46732E+02 7.81986E-01-3.51666E+00
 -1       384-8.51514E+01 8.21506E+01 2.63511E+00 1.77236E+02 7.03528E+00 1.41789E+00
 -1       385-1.60844E+03-7.95153E+01-4.10082E+00-3.75607E+02 4.60999E+00 2.00895E+01
 -1       386-1.75447E+03-7.90451E+01-5.06549E+00-3.58480E+02 2.76378E+00-6.58248E+00
 -1       387-3.63658E+01 9.90820E+01 3.57485E+00 1.13581E+02 5.36297E-01 1.46043E+01
 -1       388 2.88663E+00 6.10120E+01-1.58448E+01 1.34907E+02 3.34183E-01 2.29737E+00
 -1       389-9.30979E+02-1.11285E+01 2.85334E+00-1.92199E+02-3.48900E+00 1.92839E+00
 -1       390-7.93275E+02-2.13362E+01-1.85197E+01-1.47644E+02 1.79107E+00 8.79782E+00
 -1       391 7.13120E+02 1.88397E+02-5.21689E+00 4.38389E+02 1.99070E+00 1.73208E+00
 -1       392-2.36023E+01 8.46940E+01-1.95247E+01 1.28215E+02-1.09134E+00-9.91093E+00
 -1       393 1.27088E+03 2.11554E+02 9.27539E-01 5.62903E+02 2.28086E+00 6.70631E+00
 -1       394-1.43712E+03-9.55607E+01-1.77959E+01-3.06688E+02 6.58209E+00 1.49906E+01
 -1       395-9.43228E+00 8.06220E+01-3.68781E+00 1.34784E+02-2.53025E+00 5.44065E+00
 -1       396 9.23912E+02 2.06767E+02 3.20446E+00 4.61601E+02-1.63112E+00-6.83270E+00
 -1       397-1.06676E+03-6.44155E+01-2.07562E+01-2.18684E+02-1.18201E+01-1.46240E+01
 -1       398-4.31822E+01 1.52364E+02 2.62930E+01 1.72401E+02 4.33989E+00-6.41257E+00
 -1       399-6.93355E+02 2.11611E+01-2.03128E+00-1.02445E+02 3.42684E+00 1.41547E+01
 -1       400 4.38686E+02 1.66218E+02-1.38914E+01 3.05392E+02-3.39771E+00-7.27573E+00
 -1       401-6.12953E+01 1.19469E+02 1.53960E+01 1.10643E+02 5.05010E-01 2.29147E+00
 -1       402 4.36814E+02 1.56454E+02-1.73238E+01 2.84235E+02 1.07583E+01 8.63499E+00
 -1       403 7.97582E+02 2.04578E+02-1.29371E+00 4.42248E+02-1.25388E+00 5.80146E+00
 -1       404-8.99955E+02-4.11528E+00-5.28834E+00-1.80608E+02 3.85485E-01-8.21412E+00
 -1       405-1.11520E+03-4.72038E+01 6.40619E+00-2.18608E+02 7.63393E+00 9.84275E+00
 -1       406-7.86189E+01 9.15232E+01 9.02925E+00 9.90983E+01-5.24594E-01-1.69083E-01
 -1       407 1.82148E+03 2.04666E+02 7.12946E+00 6.59301E+02 5.25215E+00 5.84976E+00
 -1       408-1.50448E+03-9.45821E+01-7.82204E+00-3.13970E+02-6.63294E+00-3.49662E+00
 -1       409-1.29719E+03-3.88595E+01-2.87108E-01-2.70723E+02 4.69083E+00-5.25421E+00
 -1       410 1.12414E+03 2.11087E+02-1.72598E+01 5.60802E+02 3.98047E+00 5.00259E+00
 -1       411-3.86379E+01 4.18676E+01-1.94377E+01 1.44133E+02 6.43058E+00-3.50498E+00
 -1       412 1.54255E+03 1.96653E+02 1.05680E+00 6.14402E+02-2.19684E+00 5.36645E+00
 -1       413-1.16244E+02 5.64340E+01 1.39212E+01 1.23558E+02-4.10329E+00-3.95846E+00
 -1       414 1.59144E+03 1.83828E+02 3.26232E+00 6.08304E+02-4.37600E+00-1.40144E+01
 -1       415 1.44426E+03 2.30865E+02 1.15942E+01 5.88141E+02-1.52653E+00-1.72998E+00
 -1       416-4.95584E+02 1.72546E+01 2.45469E+01-7.72306E+01-1.00173E+01-1.35387E+01
 -1       417-5.25183E+02 2.39360E+01 1.23640E+01-7.77996E+01 2.01389E+00 1.04279E+01
 -1       418-2.77755E+03-1.13795E+02-1.78722E+01-3.58619E+02-7.35627E+00 2.67839E+00
 -1       419-1.80922E+01 7.36282E+01-8.02726E+00 1.47039E+02-5.05238E+00-3.10099E-01
 -1       420 6.32049E+02 1.87590E+02-1.46094E+01 3.82741E+02 2.37661E+00 4.11829E+00
 -1       421-6.17993E+01 3.13704E+00-1.43413E+01 1.58339E+02 6.78962E+00 4.17119E+00
 -1       422 1.69921E+03 2.07498E+02 1.49381E+01 6.50770E+02 8.28182E-01 2.91550E+00
 -1       423-5.83038E+01 3.11412E+01-1.69638E+01 1.37684E+02 4.38589E+00-3.84539E+00
 -1       424 5.37075E+02 1.58825E+02-1.23826E+01 3.58452E+02-5.58438E+00-2.46324E+00
 -1       425 1.06712E+03 2.39232E+02 2.26188E+01 4.99237E+02 4.60261E+00 4.93210E-01
 -1       426-8.57547E+01 1.34786E+02-1.20185E-01 1.58355E+02-1.51843E+00 6.61368E-01
 -1       427-1.44000E+02 8.39091E+01 2.47091E+01 6.38924E+01 6.19635E-02-7.20343E-02
 -1       428-2.13476E+02 7.24999E+01 1.44198E+00 5.93720E+01 1.99468E+00-1.60594E+00
 -1       429 1.11335E+02 1.27566E+02-1.24352E+00 1.81511E+02 2.57948E+00 2.49488E-02
 -1       430-4.30271E+01 9.17618E+01-1.14648E-02 1.11552E+02 2.36309E-01-5.44813E-02
 -1       431 6.33104E+01 9.49819E+01-2.46910E+01 1.52726E+02 1.02345E-01 1.90748E-02
 -1       432-2.25855E+02-1.16567E+02-3.21079E+01 8.61378E+01 2.27612E+02 1.18135E+01
 -1       433-3.77917E+03 4.84248E+01-9.12894E+01 1.28300E+01-7.56700E-02-9.49217E-02
 -1       434-3.87139E+03-1.66204E+01 2.80066E+00 9.59329E+01 1.34114E+02 1.61188E+01
 -1       435 3.83860E+03-1.53545E+02 1.94852E+01 3.77324E+02 1.24738E+02-9.42692E+00
 -1       436 2.29545E+01-7.26869E+01-3.12958E+00 3.99636E+02-3.02403E-01-6.37072E-02
 -1       437 3.71293E+03-1.71961E+02 5.28427E+01 2.21653E+02-7.34605E-02 8.66434E-02
 -1       438-3.87147E+03-1.68690E+01 2.63589E+00 9.62211E+01-1.34351E+02-1.65437E+01
 -1       439-2.25861E+02-1.16605E+02-3.21199E+01 8.63322E+01-2.27635E+02-1.18023E+01
 -1       440 3.83876E+03-1.53427E+02 1.93813E+01 3.77593E+02-1.25035E+02 9.70534E+00
 -1       441-2.13413E+02 7.22470E+01 1.45854E+00 5.92411E+01-1.86832E+00 1.33926E+00
 -1       442-8.56622E+01 1.34671E+02-8.70975E-02 1.58262E+02 1.58389E+00-6.85841E-01
 -1       443 1.11573E+02 1.27531E+02-1.19556E+00 1.81381E+02-2.30149E+00 1.04443E-01
 -1       444-3.34600E+03-9.13915E+01-3.36199E+01-1.95942E+02-1.22294E-01-2.28000E+00
 -1       445-2.15284E+02-1.00940E+02-2.49874E+01 1.93025E+02-7.11409E+00 1.89524E-01
 -1       446-2.11969E+02-1.04270E+02-2.78478E+01 2.00893E+02 6.13644E-01 4.02853E-01
 -1       447 3.32721E+03-5.43389E+01 1.88309E+01 4.28552E+02-4.20963E-01 2.89322E+00
 -1       448-3.70494E+03-5.86096E+01-7.70763E+00 1.60495E+01-9.25051E-01-6.36374E-02
 -1       449 3.62383E+03-1.21639E+02 1.28770E+00 3.52316E+02-8.66769E-01 4.05811E-01
 -1       450-2.24095E+02-1.28695E+02-1.99918E+01 1.77422E+02 3.74168E+01 4.38012E+00
 -1       451-2.24238E+02-1.28685E+02-2.02546E+01 1.77939E+02-3.92157E+01-3.95566E+00
 -1       452-8.33519E+01 1.27399E+02-6.09508E-01 1.56758E+02-2.60781E+00 1.44884E+00
 -1       453-7.50187E+01 1.27853E+02 8.10020E+00 1.55237E+02 6.04834E+00-7.38488E+00
 -1       454-4.95357E+02-4.35357E+00 1.71022E+01-8.31150E+01-2.59595E-01-1.61243E-02
 -1       455 4.34860E+02 1.51417E+02-2.47409E+01 2.69813E+02 1.00558E+00 4.45772E+00
 -1       456-2.66711E+02 4.08529E+01-2.77830E+01 2.63343E+01 5.07124E-01-3.88584E-01
 -1       457 1.86385E+02 1.33224E+02 2.73163E+01 1.89006E+02 7.30447E-01-1.36919E-01
 -1       458-8.29481E+01 1.29295E+02-3.49530E-02 1.54705E+02 9.03751E+00-3.30229E+00
 -1       459-8.28116E+01 1.28823E+02-2.38080E-01 1.54643E+02-7.84150E+00 2.74097E+00
 -1       460-3.50390E+03-1.27277E+02-5.41682E+01-1.00482E+02-2.94334E+01-1.22042E+01
 -1       461 3.47393E+03-2.64445E+01 3.85365E+01 3.84904E+02-1.02032E+01 1.71280E+01
 -1       462-3.50124E+03-1.26116E+02-5.37713E+01-1.00855E+02 2.59135E+01 1.16763E+01
 -1       463 3.46813E+03-2.78710E+01 3.86585E+01 3.85268E+02 8.13650E+00-1.59352E+01
 -1       464-3.94440E+02 5.16731E+01-1.27025E+00-6.70345E+00 3.38869E+00 3.84870E+00
 -1       465 2.86460E+02 1.48234E+02 1.51106E-01 2.54391E+02-3.88321E-01-5.86269E+00
 -1       466 2.84491E+02 1.47376E+02 3.88553E-01 2.53027E+02 2.97466E+00 5.30111E+00
 -1       467-3.92050E+02 5.19172E+01-2.24718E+00-5.73011E+00-1.61688E+00-5.20317E+00
 -3
    1PSTEP                         7           2           1          
  100CL  102 6.80000E-01         467                     0    2           1
 -4  FORC        4    1
 -5  F1          1    2    1    0
 -5  F2          1    2    2    0
 -5  F3          1    2    3    0
 -5  ALL         1    2    0    0    1ALL
 -1         1-1.75355E+04-7.72753E+03 1.12587E+04
 -1         2-1.75369E+04-7.72810E+03-1.12593E+04
 -1         3 1.65094E+04-7.41192E+03-1.10988E+04
 -1         4 1.65105E+04-7.41335E+03 1.11005E+04
 -1         5 3.74248E-05 1.67189E-06 1.28130E-05
 -1         6 3.73928E-05 1.63544E-06-1.28412E-05
 -1         7-7.38650E-06 3.71220E-05 9.50397E-06
 -1         8-7.41475E-06 3.71008E-05-9.51482E-06
 -1         9-5.65091E+04-1.96752E+04-4.91530E-02
 -1        10 8.51099E+02 9.33365E+03-3.90985E+02
 -1        11 5.35909E+04-1.82160E+04-1.71541E-01
 -1        12 8.51324E+02 9.33441E+03 3.90944E+02
 -1        13 1.00949E-02 1.13333E+03-9.41102E-07
 -1        14 5.18779E-03 1.13334E+03 3.57171E-03
 -1        15 3.53986E-04 1.13334E+03-1.65547E-06
 -1        16 5.18662E-03 1.13334E+03-3.57432E-03
 -1        17 4.43079E-05 2.21113E-05 5.74315E-06
 -1        18 1.70911E-04 8.30381E-05 1.00880E-05
 -1        19 1.31898E-04 8.95202E-05 1.33297E-05
 -1        20 1.21646E-04 1.03841E-04 1.88677E-05
 -1        21 3.47656E-04 3.35162E-04 2.15804E-05
 -1        22 1.90994E-04 2.08053E-04 2.62613E-05
 -1        23 2.32407E-04 2.48803E-04 1.81680E-05
 -1        24 1.94646E-04 2.02124E-04 6.46984E-06
 -1        25 1.03145E-04 7.34663E-05-5.29499E-06
 -1        26 1.13253E-06-3.75396E-05-2.29313E-05
 -1        27 4.01149E-05-2.42612E-04-1.42563E-04
 -1        28 1.97733E-04-6.49769E-04-3.84717E-04
 -1        29 5.37877E-04-1.23659E-03-7.46287E-04
 -1        30 1.09573E-03-1.96108E-03-1.21194E-03
 -1        31 1.85798E-03-2.76284E-03-1.75137E-03
 -1        32 2.74936E-03-3.57267E-03-2.32183E-03
 -1        33 3.64410E-03-4.30654E-03-2.86253E-03
 -1        34 4.37002E-03-4.86931E-03-3.29293E-03
 -1        35 4.78435E-03-5.16913E-03-3.54875E-03
 -1        36 4.43796E-05 2.21515E-05-5.77930E-06
 -1        37 6.58505E-05 3.97951E-05-9.73955E-06
 -1        38 3.48163E-04 2.20023E-04-1.40996E-05
 -1        39 2.43776E-04 1.93881E-04-1.75823E-05
 -1        40 1.38967E-04 1.35478E-04-2.37341E-05
 -1        41 2.72670E-04 2.85195E-04-2.10402E-05
 -1        42 1.80399E-04 2.00729E-04-2.31324E-05
 -1        43 1.27044E-04 1.14952E-04-5.57030E-06
 -1        44 1.03437E-04 7.33089E-05 5.46271E-06
 -1        45 1.14811E-06-3.75550E-05 2.29494E-05
 -1        46 4.00027E-05-2.42583E-04 1.42572E-04
 -1        47 1.97887E-04-6.50276E-04 3.84958E-04
 -1        48 5.37675E-04-1.23655E-03 7.46379E-04
 -1        49 1.09649E-03-1.96130E-03 1.21227E-03
 -1        50 1.85953E-03-2.76740E-03 1.75277E-03
 -1        51 2.75146E-03-3.57516E-03 2.32053E-03
 -1        52 3.63829E-03-4.30564E-03 2.86024E-03
 -1        53 4.37147E-03-4.87297E-03 3.29504E-03
 -1        54 4.78531E-03-5.17152E-03 3.54940E-03
 -1        55 5.07021E-05-2.56300E-06 4.27645E-06
 -1        56 1.34076E-04 3.45956E-05 2.49272E-06
 -1        57 2.43194E-04 1.20845E-04-2.81049E-06
 -1        58 2.77532E-04 1.96299E-04-1.08276E-05
 -1        59 2.71881E-04 2.39676E-04-1.82891E-05
 -1        60 1.46211E-04 1.56415E-04-2.69207E-05
 -1        61 3.51401E-04 4.27712E-04-3.44058E-05
 -1        62 2.94182E-04 3.96416E-04-3.47854E-05
 -1        63 5.11796E-05 1.19657E-04-2.66883E-05
 -1        64-3.30296E-06 3.66166E-05-2.49351E-05
 -1        65-5.16738E-05 2.35485E-04-1.51705E-04
 -1        66-2.15522E-04 6.32190E-04-4.08869E-04
 -1        67-5.58665E-04 1.20560E-03-7.91662E-04
 -1        68-1.11748E-03 1.91766E-03-1.28150E-03
 -1        69-1.87977E-03 2.71355E-03-1.84249E-03
 -1        70-2.76633E-03 3.51662E-03-2.41957E-03
 -1        71-3.65031E-03 4.25167E-03-2.94805E-03
 -1        72-4.38043E-03 4.83107E-03-3.35889E-03
 -1        73-4.79097E-03 5.15354E-03-3.57199E-03
 -1        74 5.06190E-05-2.54496E-06-4.25649E-06
 -1        75 1.08130E-04 2.71361E-05-2.26954E-06
 -1        76 1.79689E-04 8.44958E-05 2.96782E-06
 -1        77 1.38586E-04 9.19575E-05 9.32330E-06
 -1        78 4.08299E-04 3.65708E-04 1.91107E-05
 -1        79 3.75948E-04 3.96038E-04 2.76599E-05
 -1        80 1.23020E-04 1.63400E-04 3.27094E-05
 -1        81 1.56878E-04 2.23795E-04 2.72380E-05
 -1        82 5.07171E-05 1.20618E-04 2.74587E-05
 -1        83-3.31486E-06 3.65927E-05 2.49186E-05
 -1        84-5.15991E-05 2.35512E-04 1.51669E-04
 -1        85-2.15628E-04 6.32369E-04 4.08929E-04
 -1        86-5.58816E-04 1.20510E-03 7.91505E-04
 -1        87-1.11652E-03 1.91629E-03 1.28078E-03
 -1        88-1.87841E-03 2.71063E-03 1.84148E-03
 -1        89-2.76488E-03 3.51853E-03 2.41941E-03
 -1        90-3.65051E-03 4.25323E-03 2.94903E-03
 -1        91-4.37883E-03 4.82546E-03 3.35596E-03
 -1        92-4.78979E-03 5.15100E-03 3.57125E-03
 -1        93 1.00670E+03-3.20676E+03 7.50617E-03
 -1        94-4.14408E+04 9.47133E+03-2.47249E+03
 -1        95-4.14401E+04 9.47114E+03 2.47132E+03
 -1        96 4.25716E+04 1.00845E+04 2.40135E+03
 -1        97 4.25709E+04 1.00839E+04-2.40091E+03
 -1        98 2.69873E-05 3.34657E-05-2.00681E-08
 -1        99 1.03610E-02 2.26668E+03-1.11352E-05
 -1       100 1.03610E-02 2.26668E+03 5.92950E-06
 -1       101 1.04315E-02 2.26668E+03-3.63890E-06
 -1       102 1.04315E-02 2.26668E+03-1.56658E-06
 -1       103 6.85952E-05 2.54742E-05-4.25007E-08
 -1       104 1.86107E-04 9.01893E-05-3.38874E-07
 -1       105 1.19836E-04 8.38312E-05 6.71247E-09
 -1       106 3.47705E-04 2.72316E-04-3.65487E-07
 -1       107 2.98748E-04 2.80113E-04-9.21097E-07
 -1       108 4.43856E-04 4.77017E-04-1.64549E-06
 -1       109 5.27079E-04 6.19357E-04-2.20331E-06
 -1       110 1.51801E-04 1.32612E-04 4.91666E-06
 -1       111 3.71888E-05 9.50588E-06-2.32375E-09
 -1       112 7.99655E-05 5.97913E-05-2.49481E-08
 -1       113-9.58820E-06-3.48519E-05 2.21611E-06
 -1       114-9.58906E-06-3.48547E-05-2.21192E-06
 -1       115-6.52463E-06-1.19350E-04-1.33160E-06
 -1       116-6.52440E-06-1.19345E-04 1.35738E-06
 -1       117 9.63163E-03-1.03930E-02-1.24167E-05
 -1       118 9.63182E-03-1.03930E-02 1.39152E-05
 -1       119 9.45045E-03-1.02685E-02-1.01512E-05
 -1       120 9.45057E-03-1.02686E-02 1.17456E-05
 -1       121 9.61568E-05-6.11788E-04 4.61388E-06
 -1       122 3.18605E-05-3.64301E-04 3.53805E-06
 -1       123 3.01779E-05-2.16055E-04 2.73797E-08
 -1       124 3.19031E-05-3.64248E-04-3.35128E-06
 -1       125 5.29578E-04-1.47321E-03 1.02545E-05
 -1       126 1.05838E-04-1.16718E-03 8.27797E-06
 -1       127 2.24818E-04-8.16984E-04 4.45383E-08
 -1       128 1.40704E-04-5.99024E-04-4.44356E-06
 -1       129 2.23714E-04-1.12107E-03-8.27841E-06
 -1       130 1.30007E-03-2.68863E-03 1.80120E-05
 -1       131 9.38792E-04-2.16905E-03 1.54231E-05
 -1       132 4.12028E-04-1.96377E-03 5.28709E-07
 -1       133 3.93519E-04-1.53749E-03-9.78791E-06
 -1       134 8.55848E-04-2.21679E-03-1.48001E-05
 -1       135 2.40439E-03-4.24548E-03 2.62185E-05
 -1       136 1.78310E-03-3.68684E-03 2.41656E-05
 -1       137 1.61519E-03-3.10438E-03 5.05380E-07
 -1       138 1.20996E-03-2.74557E-03-1.77434E-05
 -1       139 1.59373E-03-3.82088E-03-2.21524E-05
 -1       140 4.10038E-03-5.76922E-03 3.10567E-05
 -1       141 3.00318E-03-5.49210E-03 3.09188E-05
 -1       142 2.95087E-03-4.63440E-03 5.54903E-07
 -1       143 2.50832E-03-4.16129E-03-2.47457E-05
 -1       144 3.21673E-03-5.30539E-03-3.10286E-05
 -1       145 5.70299E-03-7.57739E-03 3.12541E-05
 -1       146 4.95935E-03-6.95405E-03 3.92075E-05
 -1       147 4.63017E-03-6.26214E-03 1.00848E-06
 -1       148 3.99595E-03-5.87506E-03-3.28035E-05
 -1       149 4.74916E-03-7.15704E-03-3.51890E-05
 -1       150 7.31188E-03-9.13064E-03 3.59909E-05
 -1       151 6.58940E-03-8.65767E-03 3.75398E-05
 -1       152 6.44259E-03-7.82972E-03-1.81552E-06
 -1       153 5.90372E-03-7.36934E-03-3.28810E-05
 -1       154 6.78132E-03-8.45865E-03-3.97527E-05
 -1       155 8.94417E-03-9.91005E-03 2.48819E-05
 -1       156 8.37807E-03-9.63300E-03 2.83345E-05
 -1       157 8.11870E-03-9.15111E-03 1.27554E-06
 -1       158 7.48459E-03-8.95952E-03-2.89946E-05
 -1       159 8.52749E-03-9.48227E-03-2.32474E-05
 -1       160 9.29136E-03-1.00768E-02 5.64496E-07
 -1       161 8.94560E-03-9.91331E-03-2.37672E-05
 -1       162 2.55311E-04 1.02633E-04-1.00550E-06
 -1       163 4.20911E-04 2.85412E-04 1.13198E-06
 -1       164 1.37708E-04 1.14652E-04-2.59704E-09
 -1       165 1.43156E-04 1.49093E-04-3.32803E-08
 -1       166 3.47213E-04 3.73656E-04 5.22334E-06
 -1       167 3.06875E-04 3.60829E-04-5.44515E-06
 -1       168 7.25779E-05 1.52245E-04 5.25922E-08
 -1       169 3.76664E-05-1.51490E-06-4.07076E-09
 -1       170 4.10232E-05 9.42406E-05-5.42061E-08
 -1       171 6.79053E-05 1.18387E-05 3.90810E-08
 -1       172-1.14194E-05 3.36254E-05-2.04160E-06
 -1       173-1.14174E-05 3.36350E-05 2.04035E-06
 -1       174-2.25087E-05 1.14694E-04 3.01770E-07
 -1       175-2.25000E-05 1.14712E-04-3.04272E-07
 -1       176-9.66656E-03 1.03530E-02-6.17164E-06
 -1       177-9.66654E-03 1.03529E-02 4.78111E-06
 -1       178-9.50024E-03 1.02140E-02 2.22781E-06
 -1       179-9.50037E-03 1.02140E-02-3.43687E-06
 -1       180-8.22189E-05 3.54227E-04-1.72622E-06
 -1       181-1.61456E-04 5.95042E-04-3.40808E-06
 -1       182-2.29051E-05 2.18579E-04-2.20057E-08
 -1       183-8.22637E-05 3.54213E-04 1.58391E-06
 -1       184-5.04577E-04 1.01266E-03-7.08703E-06
 -1       185-5.06176E-04 1.49347E-03-9.11883E-06
 -1       186-4.14410E-04 1.04910E-03 7.12956E-06
 -1       187-2.00480E-04 8.32304E-04 1.64345E-07
 -1       188-1.24014E-04 6.07689E-04 3.23768E-06
 -1       189-1.12307E-03 2.05940E-03-1.28091E-05
 -1       190-1.59267E-03 2.47151E-03-1.77705E-05
 -1       191-6.26906E-04 1.42722E-03 8.23314E-06
 -1       192-8.82096E-04 1.71270E-03-1.02657E-07
 -1       193-1.05309E-03 2.10507E-03 1.28394E-05
 -1       194-2.02454E-03 3.51819E-03-2.05951E-05
 -1       195-2.56216E-03 4.12983E-03-2.30823E-05
 -1       196-1.43271E-03 2.59903E-03 1.60153E-05
 -1       197-1.58660E-03 3.14306E-03-3.47286E-07
 -1       198-1.94134E-03 3.59180E-03 2.09068E-05
 -1       199-3.39341E-03 5.17993E-03-2.79989E-05
 -1       200-4.06922E-03 5.83536E-03-2.96886E-05
 -1       201-2.47381E-03 4.21048E-03 2.37306E-05
 -1       202-3.27794E-03 4.32570E-03 3.69429E-07
 -1       203-3.48041E-03 5.08207E-03 2.65396E-05
 -1       204-5.32235E-03 6.59016E-03-3.27819E-05
 -1       205-6.04793E-03 7.21233E-03-2.79969E-05
 -1       206-4.16104E-03 5.72932E-03 2.91338E-05
 -1       207-4.60305E-03 6.32576E-03-2.10812E-06
 -1       208-5.49753E-03 6.37854E-03 2.65223E-05
 -1       209-7.25348E-03 7.89851E-03-2.58036E-05
 -1       210-7.76054E-03 8.64892E-03-2.25798E-05
 -1       211-5.87389E-03 7.43230E-03 3.04928E-05
 -1       212-6.43422E-03 7.88682E-03 1.24947E-06
 -1       213-7.11061E-03 8.10544E-03 3.07299E-05
 -1       214-8.54974E-03 9.46477E-03-1.95363E-05
 -1       215-9.02566E-03 9.82949E-03-1.94409E-05
 -1       216-7.61352E-03 8.83733E-03 2.35926E-05
 -1       217-8.36578E-03 8.82747E-03-1.87471E-06
 -1       218-8.49717E-03 9.54047E-03 2.05320E-05
 -1       219-9.02709E-03 9.82842E-03 1.86431E-05
 -1       220-9.27413E-03 1.01119E-02-5.43536E-07
 -1       221 5.11307E-05 6.46683E-05 2.74167E-07
 -1       222 9.80752E-05 2.85259E-05 7.05745E-06
 -1       223 1.92467E-04 9.93062E-05 6.95439E-06
 -1       224 3.75513E-04 2.47743E-04 7.49812E-06
 -1       225 2.08973E-04 1.78133E-04 5.87178E-06
 -1       226 6.07657E-04 6.28966E-04 7.13896E-06
 -1       227 2.92300E-05 4.58946E-06 6.19243E-06
 -1       228 1.43631E-04 1.61031E-04 6.08762E-07
 -1       229 1.23583E-04 1.45885E-04-2.77752E-06
 -1       230 1.32463E-04 1.72784E-04-5.26921E-07
 -1       231-2.15848E-05-3.51990E-06-1.78349E-05
 -1       232-2.53302E-05-4.19990E-07-1.79613E-05
 -1       233-6.22184E-05-8.43289E-06-6.73147E-05
 -1       234-5.60296E-05-1.14168E-05-6.76943E-05
 -1       235-7.09227E-05-2.54272E-05-7.14908E-03
 -1       236 1.16224E-06-7.38135E-05-7.15012E-03
 -1       237-1.18912E-04-1.22369E-04-7.04641E-03
 -1       238-7.51231E-05-1.52365E-04-7.05749E-03
 -1       239-1.14962E-04-2.88368E-05-2.14148E-04
 -1       240-1.94967E-04-6.45731E-05-3.62786E-04
 -1       241-6.07101E-05-1.37481E-05-1.26352E-04
 -1       242-1.01465E-04-3.23392E-05-2.16329E-04
 -1       243-2.01309E-04-9.55920E-05-6.62105E-04
 -1       244-3.06592E-04-1.64214E-04-9.11072E-04
 -1       245-3.06177E-04-1.24764E-04-4.99381E-04
 -1       246-1.75932E-04-6.74382E-05-3.66000E-04
 -1       247-1.28630E-04-7.18833E-05-6.67081E-04
 -1       248-3.54534E-04-2.24670E-04-1.35594E-03
 -1       249-3.98206E-04-2.87740E-04-1.69905E-03
 -1       250-3.18245E-04-1.94011E-04-1.12401E-03
 -1       251-4.07217E-04-2.35089E-04-9.18258E-04
 -1       252-3.90803E-04-2.69486E-04-1.36839E-03
 -1       253-2.35594E-04-2.10740E-04-2.26958E-03
 -1       254-4.39302E-04-3.97908E-04-2.68416E-03
 -1       255-2.16769E-04-1.91466E-04-1.97967E-03
 -1       256-3.55906E-04-2.87714E-04-1.71257E-03
 -1       257-3.83643E-04-3.59989E-04-2.28938E-03
 -1       258-5.52629E-04-5.53170E-04-3.34436E-03
 -1       259-5.58235E-04-5.91386E-04-3.80888E-03
 -1       260-6.09949E-04-6.07611E-04-3.01940E-03
 -1       261-3.97306E-04-4.03374E-04-2.70940E-03
 -1       262-4.08458E-04-4.65025E-04-3.37375E-03
 -1       263-3.50849E-04-4.12277E-04-4.48702E-03
 -1       264-2.37152E-04-2.99451E-04-4.93971E-03
 -1       265-2.28644E-04-3.00212E-04-4.15445E-03
 -1       266-4.00185E-04-4.90861E-04-3.83098E-03
 -1       267-2.14067E-04-3.08857E-04-4.51842E-03
 -1       268-2.17363E-04-2.81890E-04-5.58903E-03
 -1       269-1.98236E-04-2.58314E-04-5.97524E-03
 -1       270-5.74077E-04-7.16249E-04-5.27405E-03
 -1       271-2.98441E-04-4.10030E-04-4.97404E-03
 -1       272-2.69486E-04-3.91819E-04-5.61289E-03
 -1       273-1.60342E-04-2.13353E-04-6.49009E-03
 -1       274-1.83320E-04-2.17497E-04-6.76348E-03
 -1       275-4.48218E-04-5.96015E-04-6.25264E-03
 -1       276-2.44268E-04-3.62026E-04-6.00616E-03
 -1       277-2.45520E-04-3.91328E-04-6.50701E-03
 -1       278-8.97420E-05-1.34689E-04-6.92404E-03
 -1       279-1.36885E-04-2.42668E-04-6.77994E-03
 -1       280 2.92270E-05 4.58608E-06-6.19931E-06
 -1       281 8.95095E-05 4.29754E-05-7.55338E-06
 -1       282 1.60966E-04 1.05053E-04-6.50150E-06
 -1       283 5.31571E-04 4.49382E-04-7.24308E-06
 -1       284 2.22934E-04 2.24632E-04-4.45718E-06
 -1       285 3.99999E-04 4.67518E-04-2.95971E-06
 -1       286 1.53862E-04 1.89550E-04 4.17398E-06
 -1       287 3.15911E-04 4.00094E-04 3.98537E-06
 -1       288 5.10965E-05 6.46175E-05-3.60825E-07
 -1       289 2.55029E-04 9.05793E-05-7.14302E-06
 -1       290-2.53267E-05-4.27538E-07 1.79713E-05
 -1       291-2.15821E-05-3.51680E-06 1.78316E-05
 -1       292-6.22269E-05-8.45488E-06 6.73333E-05
 -1       293-5.60486E-05-1.14206E-05 6.76943E-05
 -1       294 3.40255E-06-7.87689E-05 7.15009E-03
 -1       295-6.86920E-05-3.04299E-05 7.14904E-03
 -1       296-1.16522E-04-1.27020E-04 7.04621E-03
 -1       297-7.27259E-05-1.57083E-04 7.05750E-03
 -1       298-2.07120E-04-7.09148E-05 3.63923E-04
 -1       299-1.14930E-04-2.90618E-05 2.14221E-04
 -1       300-6.07457E-05-1.37977E-05 1.26367E-04
 -1       301-1.01492E-04-3.25369E-05 2.16312E-04
 -1       302-2.31357E-04-1.26390E-04 9.11170E-04
 -1       303-1.46568E-04-7.16180E-05 6.61745E-04
 -1       304-1.82003E-04-9.64453E-05 6.67784E-04
 -1       305-1.26013E-04-5.72984E-05 4.99103E-04
 -1       306-2.29471E-04-9.05205E-05 3.65853E-04
 -1       307-3.82574E-04-2.78062E-04 1.69749E-03
 -1       308-3.52705E-04-2.33447E-04 1.35650E-03
 -1       309-1.45522E-04-9.39216E-05 9.18751E-04
 -1       310-5.08221E-04-3.08062E-04 1.12537E-03
 -1       311-1.74212E-04-1.37775E-04 1.36806E-03
 -1       312-4.50765E-04-4.07425E-04 2.68736E-03
 -1       313-4.15498E-04-3.47200E-04 2.26953E-03
 -1       314-1.86626E-04-1.62907E-04 1.71317E-03
 -1       315-2.03779E-04-1.81328E-04 1.97930E-03
 -1       316-3.68655E-04-3.50373E-04 2.29210E-03
 -1       317-4.60039E-04-4.88807E-04 3.80143E-03
 -1       318-2.53915E-04-2.75550E-04 3.34528E-03
 -1       319-6.85438E-04-6.68001E-04 2.70912E-03
 -1       320-2.38742E-04-2.60500E-04 3.01923E-03
 -1       321-4.13913E-04-4.73788E-04 3.37143E-03
 -1       322-5.12123E-04-6.05387E-04 4.95304E-03
 -1       323-2.49072E-04-3.06650E-04 4.49166E-03
 -1       324-4.10739E-04-4.94575E-04 3.83251E-03
 -1       325-6.36361E-04-7.19938E-04 4.15206E-03
 -1       326-3.11799E-04-4.17070E-04 4.52104E-03
 -1       327-1.96116E-04-2.61648E-04 5.97623E-03
 -1       328-3.07432E-04-3.94775E-04 5.58066E-03
 -1       329-3.71661E-04-5.15214E-04 4.97199E-03
 -1       330-2.03076E-04-3.02164E-04 5.27850E-03
 -1       331-1.84570E-04-3.00833E-04 5.61132E-03
 -1       332-1.79517E-04-2.18485E-04 6.76450E-03
 -1       333-3.22647E-04-3.79956E-04 6.48369E-03
 -1       334-2.94990E-04-4.41736E-04 6.00579E-03
 -1       335-1.68474E-04-2.41521E-04 6.24997E-03
 -1       336-3.86772E-04-5.78580E-04 6.51976E-03
 -1       337-1.35150E-04-2.46223E-04 6.77957E-03
 -1       338-8.72151E-05-1.39511E-04 6.92382E-03
 -1       339 1.20316E-04 2.62188E-05-1.15877E-08
 -1       340 1.82169E-04 2.27818E-04-1.71940E-07
 -1       341-4.17568E-04-1.73729E-04 8.93397E-07
 -1       342-4.60182E-04-2.07982E-04 1.11563E-06
 -1       343-3.82682E-04-1.53073E-04-1.43359E-07
 -1       344-3.12731E-04-1.14164E-04-5.42490E-07
 -1       345-5.19251E-04-1.77369E-04-4.12195E-07
 -1       346-2.61506E-04-2.36373E-04 4.66893E-07
 -1       347-4.32343E-04-3.91595E-04-2.54481E-07
 -1       348-5.63502E-04-4.80798E-04 4.01841E-08
 -1       349-5.47819E-04-5.06127E-04 9.61494E-07
 -1       350-5.98177E-04-4.31495E-04-1.85982E-06
 -1       351-5.33436E-04-3.51952E-04 3.72106E-07
 -1       352-7.00911E-04-4.89219E-04-2.55530E-07
 -1       353-6.99132E-04-5.21797E-04-8.09633E-08
 -1       354-5.43626E-04-3.84642E-04-8.85787E-07
 -1       355-1.51654E-04-3.80432E-05 5.95740E-07
 -1       356-1.96702E-04-5.10657E-05-3.43577E-07
 -1       357-2.26457E-04-6.82309E-05 3.16677E-08
 -1       358-2.58031E-04-1.16597E-04-1.39459E-07
 -1       359-3.43538E-04-1.72104E-04 4.43198E-07
 -1       360-2.13064E-04-8.94696E-05-4.15774E-07
 -1       361-2.43731E-04-1.08056E-04-6.52496E-08
 -1       362-2.34241E-04-1.18607E-04-2.78858E-07
 -1       363-5.08776E-04-4.36711E-04-8.64799E-07
 -1       364-3.91556E-04-3.05407E-04-4.89886E-07
 -1       365-6.22839E-04-4.77975E-04 2.22193E-06
 -1       366-7.72210E-04-5.99214E-04-3.37366E-07
 -1       367-2.57593E-04-1.31203E-04-5.62071E-07
 -1       368-4.75629E-04-2.41362E-04 6.65708E-07
 -1       369-3.21808E-04-2.08059E-04-1.33910E-07
 -1       370-5.43550E-04-3.20754E-04-2.20354E-07
 -1       371-3.80153E-04-2.61059E-04 1.97968E-07
 -1       372-4.35666E-04-2.70065E-04-6.49669E-07
 -1       373-5.98371E-04-6.46508E-04-1.39583E-06
 -1       374-7.90167E-04-8.60869E-04-4.69041E-07
 -1       375-3.69468E-04-4.38500E-04-1.19884E-05
 -1       376-7.87060E-04-8.57174E-04 3.75271E-06
 -1       377-5.05956E-04-3.99426E-04 1.43735E-06
 -1       378-1.32231E-04-4.17090E-05 4.60333E-07
 -1       379-1.69159E-04-5.46956E-05-5.12442E-07
 -1       380-3.35461E-04-1.24180E-04-4.43710E-08
 -1       381-4.27487E-04-2.61549E-04 5.13586E-07
 -1       382-2.54384E-04-1.56671E-04-5.36201E-07
 -1       383-2.78107E-04-3.00860E-04-7.47069E-07
 -1       384-6.00910E-04-6.04087E-04-2.27831E-07
 -1       385-4.57659E-04-5.02693E-04 3.42753E-06
 -1       386-6.64406E-04-6.70107E-04 1.31320E-06
 -1       387-6.93469E-04-8.05690E-04 3.30501E-07
 -1       388-7.13944E-04-8.99871E-04 1.31593E-05
 -1       389-3.92576E-04-4.96556E-04-1.00553E-05
 -1       390-2.07314E-04-2.71500E-04-1.46076E-06
 -1       391-4.20836E-04-4.80437E-04 3.60346E-06
 -1       392-3.55787E-04-4.22830E-04-3.99132E-06
 -1       393-8.16653E-04-8.35174E-04 3.80019E-07
 -1       394-5.51978E-04-6.26359E-04-3.90458E-06
 -1       395-3.96662E-04-4.32430E-04 1.35904E-06
 -1       396-7.34677E-04-8.25519E-04-2.29540E-07
 -1       397-4.86525E-04-6.20258E-04 5.79354E-06
 -1       398-2.27531E-04-2.68224E-04 4.14150E-06
 -1       399-6.01728E-04-8.30451E-04-4.52547E-06
 -1       400-3.08714E-04-3.19096E-04-5.11554E-08
 -1       401-1.81606E-04-2.01952E-04-3.17851E-06
 -1       402-3.59171E-04-3.76525E-04-1.43557E-05
 -1       403-4.27927E-04-4.85154E-04-7.06884E-07
 -1       404-2.40025E-04-2.95202E-04 4.92945E-06
 -1       405-8.74836E-04-1.06907E-03-4.01266E-06
 -1       406-7.08341E-04-8.37435E-04 5.09734E-06
 -1       407-9.01949E-04-7.59201E-04-2.77832E-06
 -1       408-1.04047E-03-1.14886E-03 3.83178E-06
 -1       409-3.68014E-04-4.29081E-04 1.53404E-06
 -1       410-4.03720E-04-4.30923E-04-2.26664E-06
 -1       411-3.76032E-04-4.25531E-04-2.84904E-06
 -1       412-4.20884E-04-3.89134E-04 5.74203E-07
 -1       413-7.01603E-04-6.54154E-04 1.75985E-06
 -1       414-6.28804E-04-5.85179E-04-6.50281E-07
 -1       415-8.32025E-04-8.04952E-04-3.90552E-07
 -1       416-2.31546E-04-3.93284E-04-4.15987E-06
 -1       417-1.81635E-04-3.04727E-04 6.17006E-06
 -1       418-2.50426E-04-1.38818E-04 2.96391E-07
 -1       419-4.26609E-04-5.40767E-04 4.34678E-06
 -1       420-5.99290E-04-6.94007E-04-2.84419E-06
 -1       421-7.04087E-04-4.04378E-04-9.23694E-07
 -1       422-4.13393E-04-3.52182E-04-6.79090E-07
 -1       423-7.81321E-04-7.27167E-04 2.11288E-06
 -1       424-4.55777E-04-4.96278E-04-1.73550E-06
 -1       425-5.76621E-04-6.12640E-04 3.65565E-06
 -1       426-3.43469E-05-4.33582E-05-7.86537E-06
 -1       427-3.08930E-05-1.16902E-04 5.67551E-08
 -1       428-6.32329E-05-1.55063E-04 8.87015E-06
 -1       429-1.36352E-04-9.80684E-05 8.95104E-06
 -1       430-7.90428E-05-1.00231E-04 7.95215E-08
 -1       431-1.05799E-04-5.46624E-05 6.96005E-08
 -1       432-2.28795E-05-1.06132E-06 1.26758E-07
 -1       433-3.62539E-05-5.42366E-06 3.97031E-09
 -1       434-5.60336E-05-9.79564E-06-3.72573E-07
 -1       435-6.28460E-05-3.33030E-06 2.62096E-07
 -1       436-4.49416E-05-4.34332E-06 5.63514E-09
 -1       437-3.90365E-05 7.08847E-07 3.33089E-09
 -1       438-5.60371E-05-9.80788E-06 3.89624E-07
 -1       439-2.28838E-05-1.06319E-06-1.23776E-07
 -1       440-6.28429E-05-3.33352E-06-2.55268E-07
 -1       441-6.33000E-05-1.55075E-04-8.67552E-06
 -1       442-3.43632E-05-4.34271E-05 7.92379E-06
 -1       443-1.36344E-04-9.82139E-05-8.73448E-06
 -1       444-1.13453E-04-3.19059E-05 1.22093E-08
 -1       445-1.54600E-04-3.73008E-05-3.57382E-07
 -1       446-1.54632E-04-3.72922E-05 3.78619E-07
 -1       447-1.30421E-04-2.76044E-05 1.57617E-08
 -1       448-8.05074E-05-1.63724E-05 1.57785E-08
 -1       449-9.10828E-05-9.37911E-06 7.16199E-09
 -1       450-7.15017E-05-1.01790E-05-3.71891E-07
 -1       451-7.14966E-05-1.01903E-05 3.84466E-07
 -1       452-2.40372E-04-2.97758E-04 2.73596E-06
 -1       453-2.42360E-04-2.96918E-04-1.76910E-06
 -1       454-1.51573E-04-2.71714E-04-1.64221E-07
 -1       455-2.30301E-04-2.15686E-04-3.13160E-07
 -1       456-1.08227E-04-1.85689E-04 1.32255E-07
 -1       457-1.55609E-04-1.48040E-04 1.38770E-07
 -1       458-1.15641E-04-1.45352E-04-8.96563E-07
 -1       459-1.15498E-04-1.45362E-04 1.05388E-06
 -1       460-1.36632E-04-3.18236E-05-2.38749E-07
 -1       461-1.54905E-04-2.64751E-05-1.99734E-07
 -1       462-1.36612E-04-3.18181E-05 2.74952E-07
 -1       463-1.54921E-04-2.64772E-05 2.24777E-07
 -1       464-1.82495E-04-3.19776E-04-3.42061E-06
 -1       465-2.72245E-04-2.53105E-04-1.55436E-06
 -1       466-2.72747E-04-2.51605E-04 2.04596E-06
 -1       467-1.81444E-04-3.19976E-04 3.39226E-06
 -3
    1PSTEP                         8           2           1          
  100CL  102 6.80000E-01         467                     0    2           1
 -4  ERROR       1    1
 -5  STR(%)      1    1    0    0
 -1         1 4.09913E+01
 -1         2 4.09905E+01
 -1         3 4.09913E+01
 -1         4 4.09905E+01
 -1         5 1.75918E+01
 -1         6 1.75918E+01
 -1         7 2.09345E+01
 -1         8 2.09345E+01
 -1         9 4.09909E+01
 -1        10 4.09913E+01
 -1        11 4.09909E+01
 -1        12 4.09905E+01
 -1        13 1.75918E+01
 -1        14 1.92631E+01
 -1        15 2.09345E+01
 -1        16 1.92631E+01
 -1        17 3.06742E+01
 -1        18 3.05898E+01
 -1        19 3.05373E+01
 -1        20 3.01674E+01
 -1        21 3.02676E+01
 -1        22 2.99225E+01
 -1        23 3.03267E+01
 -1        24 2.99672E+01
 -1        25 2.92930E+01
 -1        26 3.58324E+01
 -1        27 3.06320E+01
 -1        28 3.05635E+01
 -1        29 3.03524E+01
 -1        30 3.02175E+01
 -1        31 3.00950E+01
 -1        32 3.01246E+01
 -1        33 3.01469E+01
 -1        34 2.96301E+01
 -1        35 2.34424E+01
 -1        36 3.06808E+01
 -1        37 3.00957E+01
 -1        38 3.05373E+01
 -1        39 3.01425E+01
 -1        40 3.02492E+01
 -1        41 3.05291E+01
 -1        42 2.98608E+01
 -1        43 2.97735E+01
 -1        44 2.93814E+01
 -1        45 3.58361E+01
 -1        46 3.03883E+01
 -1        47 3.03165E+01
 -1        48 3.03399E+01
 -1        49 3.01958E+01
 -1        50 3.03891E+01
 -1        51 3.01949E+01
 -1        52 2.98171E+01
 -1        53 2.95774E+01
 -1        54 2.34866E+01
 -1        55 3.06742E+01
 -1        56 3.02507E+01
 -1        57 3.05373E+01
 -1        58 3.01674E+01
 -1        59 3.01954E+01
 -1        60 2.99225E+01
 -1        61 3.03267E+01
 -1        62 2.99672E+01
 -1        63 2.92930E+01
 -1        64 3.58324E+01
 -1        65 3.04625E+01
 -1        66 3.03940E+01
 -1        67 3.03524E+01
 -1        68 3.01814E+01
 -1        69 3.00590E+01
 -1        70 3.01246E+01
 -1        71 3.01469E+01
 -1        72 2.96301E+01
 -1        73 2.51137E+01
 -1        74 3.06808E+01
 -1        75 3.00957E+01
 -1        76 2.98617E+01
 -1        77 2.99664E+01
 -1        78 3.02676E+01
 -1        79 3.05291E+01
 -1        80 2.98608E+01
 -1        81 2.97735E+01
 -1        82 2.93814E+01
 -1        83 3.58361E+01
 -1        84 3.03883E+01
 -1        85 2.99787E+01
 -1        86 2.99140E+01
 -1        87 3.01170E+01
 -1        88 3.03983E+01
 -1        89 3.01949E+01
 -1        90 2.98171E+01
 -1        91 2.95774E+01
 -1        92 2.51580E+01
 -1        93 4.09913E+01
 -1        94 4.09913E+01
 -1        95 4.09909E+01
 -1        96 4.09913E+01
 -1        97 4.09909E+01
 -1        98 2.09345E+01
 -1        99 1.92631E+01
 -1       100 1.92631E+01
 -1       101 2.09345E+01
 -1       102 2.09345E+01
 -1       103 2.38052E+01
 -1       104 3.05898E+01
 -1       105 1.97796E+01
 -1       106 3.01674E+01
 -1       107 3.02676E+01
 -1       108 3.03267E+01
 -1       109 2.99672E+01
 -1       110 2.67668E+01
 -1       111 2.94257E+01
 -1       112 2.78041E+01
 -1       113 3.52081E+01
 -1       114 3.52085E+01
 -1       115 3.00533E+01
 -1       116 3.00500E+01
 -1       117 2.26979E+01
 -1       118 2.26979E+01
 -1       119 2.85928E+01
 -1       120 2.85485E+01
 -1       121 2.71975E+01
 -1       122 2.72397E+01
 -1       123 3.06775E+01
 -1       124 2.72430E+01
 -1       125 3.05635E+01
 -1       126 3.05898E+01
 -1       127 3.03427E+01
 -1       128 2.69504E+01
 -1       129 3.03427E+01
 -1       130 2.49735E+01
 -1       131 2.51584E+01
 -1       132 3.05373E+01
 -1       133 3.05635E+01
 -1       134 2.51584E+01
 -1       135 3.02175E+01
 -1       136 3.01674E+01
 -1       137 3.01550E+01
 -1       138 2.49610E+01
 -1       139 3.01550E+01
 -1       140 3.00950E+01
 -1       141 3.02676E+01
 -1       142 3.02584E+01
 -1       143 3.02083E+01
 -1       144 3.02584E+01
 -1       145 3.03267E+01
 -1       146 3.01246E+01
 -1       147 3.02258E+01
 -1       148 3.03983E+01
 -1       149 3.04279E+01
 -1       150 2.99672E+01
 -1       151 3.01469E+01
 -1       152 3.00937E+01
 -1       153 3.00937E+01
 -1       154 2.99140E+01
 -1       155 2.80299E+01
 -1       156 2.83670E+01
 -1       157 2.98703E+01
 -1       158 2.98703E+01
 -1       159 2.82701E+01
 -1       160 2.93372E+01
 -1       161 2.80741E+01
 -1       162 3.05898E+01
 -1       163 3.03883E+01
 -1       164 1.94273E+01
 -1       165 1.96211E+01
 -1       166 3.01460E+01
 -1       167 2.98608E+01
 -1       168 2.13414E+01
 -1       169 2.94257E+01
 -1       170 2.78041E+01
 -1       171 2.19608E+01
 -1       172 3.52085E+01
 -1       173 3.52081E+01
 -1       174 3.00533E+01
 -1       175 3.00500E+01
 -1       176 2.43693E+01
 -1       177 2.43693E+01
 -1       178 2.85928E+01
 -1       179 2.85485E+01
 -1       180 2.63175E+01
 -1       181 2.61058E+01
 -1       182 3.06775E+01
 -1       183 2.63208E+01
 -1       184 3.04203E+01
 -1       185 3.05635E+01
 -1       186 3.03427E+01
 -1       187 3.01732E+01
 -1       188 2.60282E+01
 -1       189 3.04628E+01
 -1       190 3.02779E+01
 -1       191 3.02257E+01
 -1       192 3.01995E+01
 -1       193 3.01250E+01
 -1       194 2.47974E+01
 -1       195 2.48113E+01
 -1       196 3.01774E+01
 -1       197 3.00669E+01
 -1       198 2.46968E+01
 -1       199 2.49082E+01
 -1       200 2.47718E+01
 -1       201 2.48474E+01
 -1       202 3.02315E+01
 -1       203 2.49443E+01
 -1       204 3.00342E+01
 -1       205 3.02363E+01
 -1       206 2.50751E+01
 -1       207 3.02258E+01
 -1       208 3.03375E+01
 -1       209 3.00937E+01
 -1       210 2.99140E+01
 -1       211 3.00034E+01
 -1       212 3.00937E+01
 -1       213 2.98608E+01
 -1       214 2.56543E+01
 -1       215 2.53172E+01
 -1       216 2.98171E+01
 -1       217 2.98703E+01
 -1       218 2.55574E+01
 -1       219 2.53614E+01
 -1       220 2.93372E+01
 -1       221 2.78041E+01
 -1       222 3.02507E+01
 -1       223 3.05898E+01
 -1       224 3.03883E+01
 -1       225 3.01954E+01
 -1       226 3.05291E+01
 -1       227 4.09905E+01
 -1       228 3.01196E+01
 -1       229 2.97350E+01
 -1       230 2.92930E+01
 -1       231 4.09905E+01
 -1       232 4.09905E+01
 -1       233 3.58324E+01
 -1       234 3.58324E+01
 -1       235 2.26979E+01
 -1       236 2.43693E+01
 -1       237 2.85485E+01
 -1       238 2.85485E+01
 -1       239 3.04625E+01
 -1       240 3.04203E+01
 -1       241 3.06742E+01
 -1       242 3.04625E+01
 -1       243 3.05898E+01
 -1       244 3.05635E+01
 -1       245 3.04203E+01
 -1       246 3.02507E+01
 -1       247 3.04203E+01
 -1       248 3.04628E+01
 -1       249 3.02779E+01
 -1       250 3.05373E+01
 -1       251 3.05635E+01
 -1       252 3.04628E+01
 -1       253 3.01814E+01
 -1       254 3.02315E+01
 -1       255 3.01674E+01
 -1       256 3.02779E+01
 -1       257 3.01814E+01
 -1       258 3.03983E+01
 -1       259 3.02258E+01
 -1       260 3.02315E+01
 -1       261 3.01954E+01
 -1       262 3.03622E+01
 -1       263 3.00210E+01
 -1       264 3.02231E+01
 -1       265 2.99225E+01
 -1       266 3.02258E+01
 -1       267 3.00210E+01
 -1       268 3.00308E+01
 -1       269 2.98511E+01
 -1       270 3.03267E+01
 -1       271 3.02231E+01
 -1       272 3.00308E+01
 -1       273 2.96301E+01
 -1       274 2.92930E+01
 -1       275 2.99672E+01
 -1       276 2.98511E+01
 -1       277 2.96301E+01
 -1       278 2.92930E+01
 -1       279 2.92930E+01
 -1       280 4.09913E+01
 -1       281 2.99234E+01
 -1       282 3.03883E+01
 -1       283 3.02492E+01
 -1       284 3.05291E+01
 -1       285 3.03267E+01
 -1       286 2.97735E+01
 -1       287 2.99672E+01
 -1       288 2.77948E+01
 -1       289 3.02507E+01
 -1       290 4.09913E+01
 -1       291 4.09913E+01
 -1       292 3.58361E+01
 -1       293 3.58361E+01
 -1       294 2.43646E+01
 -1       295 2.26933E+01
 -1       296 2.85881E+01
 -1       297 2.85881E+01
 -1       298 3.01732E+01
 -1       299 3.04658E+01
 -1       300 3.06808E+01
 -1       301 3.04658E+01
 -1       302 3.02304E+01
 -1       303 3.00096E+01
 -1       304 3.00096E+01
 -1       305 3.00957E+01
 -1       306 3.01732E+01
 -1       307 3.02654E+01
 -1       308 3.04628E+01
 -1       309 2.98926E+01
 -1       310 3.01995E+01
 -1       311 3.01250E+01
 -1       312 3.02492E+01
 -1       313 3.01958E+01
 -1       314 3.01774E+01
 -1       315 3.00544E+01
 -1       316 3.01078E+01
 -1       317 3.05291E+01
 -1       318 3.03891E+01
 -1       319 3.02584E+01
 -1       320 3.02584E+01
 -1       321 3.03983E+01
 -1       322 3.00937E+01
 -1       323 3.04279E+01
 -1       324 3.05291E+01
 -1       325 3.05291E+01
 -1       326 3.04279E+01
 -1       327 2.97735E+01
 -1       328 2.98171E+01
 -1       329 3.00937E+01
 -1       330 2.98608E+01
 -1       331 2.98171E+01
 -1       332 2.96743E+01
 -1       333 2.98703E+01
 -1       334 2.97735E+01
 -1       335 2.97735E+01
 -1       336 2.98703E+01
 -1       337 2.96743E+01
 -1       338 2.93814E+01
 -1       339 3.06808E+01
 -1       340 2.93814E+01
 -1       341 3.05898E+01
 -1       342 3.05898E+01
 -1       343 3.04203E+01
 -1       344 3.04203E+01
 -1       345 3.04203E+01
 -1       346 2.48113E+01
 -1       347 2.48382E+01
 -1       348 3.02223E+01
 -1       349 3.02223E+01
 -1       350 3.02654E+01
 -1       351 3.02654E+01
 -1       352 3.03883E+01
 -1       353 3.02779E+01
 -1       354 3.02779E+01
 -1       355 2.70280E+01
 -1       356 2.70280E+01
 -1       357 3.02507E+01
 -1       358 3.05898E+01
 -1       359 3.05898E+01
 -1       360 3.03427E+01
 -1       361 3.02566E+01
 -1       362 3.02566E+01
 -1       363 3.02083E+01
 -1       364 3.01814E+01
 -1       365 3.01674E+01
 -1       366 3.02083E+01
 -1       367 3.05635E+01
 -1       368 3.05635E+01
 -1       369 3.03883E+01
 -1       370 3.04628E+01
 -1       371 3.03883E+01
 -1       372 3.04628E+01
 -1       373 3.03267E+01
 -1       374 3.04279E+01
 -1       375 3.02363E+01
 -1       376 3.02363E+01
 -1       377 3.03188E+01
 -1       378 2.61058E+01
 -1       379 2.61058E+01
 -1       380 3.02507E+01
 -1       381 2.50839E+01
 -1       382 2.50839E+01
 -1       383 2.50751E+01
 -1       384 3.05291E+01
 -1       385 2.50751E+01
 -1       386 3.03983E+01
 -1       387 2.99140E+01
 -1       388 2.99672E+01
 -1       389 2.98171E+01
 -1       390 2.98703E+01
 -1       391 2.98703E+01
 -1       392 2.98608E+01
 -1       393 3.04279E+01
 -1       394 3.03375E+01
 -1       395 3.00342E+01
 -1       396 3.01469E+01
 -1       397 3.00937E+01
 -1       398 2.96301E+01
 -1       399 2.99672E+01
 -1       400 2.80299E+01
 -1       401 2.83670E+01
 -1       402 2.83670E+01
 -1       403 2.98511E+01
 -1       404 2.97979E+01
 -1       405 3.03267E+01
 -1       406 3.01469E+01
 -1       407 3.02584E+01
 -1       408 3.05291E+01
 -1       409 3.01328E+01
 -1       410 3.02231E+01
 -1       411 3.03267E+01
 -1       412 3.03983E+01
 -1       413 3.02676E+01
 -1       414 3.03983E+01
 -1       415 3.05291E+01
 -1       416 2.56543E+01
 -1       417 2.53172E+01
 -1       418 3.02257E+01
 -1       419 2.98703E+01
 -1       420 2.99672E+01
 -1       421 3.05373E+01
 -1       422 3.02584E+01
 -1       423 3.02676E+01
 -1       424 2.99672E+01
 -1       425 3.03267E+01
 -1       426 2.43693E+01
 -1       427 2.43693E+01
 -1       428 2.78041E+01
 -1       429 2.78041E+01
 -1       430 2.78041E+01
 -1       431 2.43693E+01
 -1       432 4.09913E+01
 -1       433 3.52085E+01
 -1       434 3.52085E+01
 -1       435 3.52085E+01
 -1       436 2.94257E+01
 -1       437 3.52085E+01
 -1       438 3.52081E+01
 -1       439 4.09909E+01
 -1       440 3.52081E+01
 -1       441 2.77994E+01
 -1       442 2.43646E+01
 -1       443 2.77994E+01
 -1       444 2.63208E+01
 -1       445 3.04658E+01
 -1       446 3.04658E+01
 -1       447 2.72430E+01
 -1       448 3.00533E+01
 -1       449 3.00533E+01
 -1       450 3.58361E+01
 -1       451 3.58357E+01
 -1       452 2.93372E+01
 -1       453 2.96743E+01
 -1       454 2.53614E+01
 -1       455 2.80741E+01
 -1       456 2.85928E+01
 -1       457 2.85928E+01
 -1       458 2.85928E+01
 -1       459 2.85881E+01
 -1       460 3.06808E+01
 -1       461 3.06808E+01
 -1       462 3.06775E+01
 -1       463 3.06775E+01
 -1       464 2.93372E+01
 -1       465 2.93372E+01
 -1       466 2.93814E+01
 -1       467 2.93814E+01
 -3
    1PSTEP                         9           3           1          
  100CL  103 1.000000000         467                     0    3           1
 -4  DISP        4    1
 -5  D1          1    2    1    0
 -5  D2          1    2    2    0
 -5  D3          1    2    3    0
 -5  ALL         1    2    0    0    1ALL
 -1         1 0.00000E+00 0.00000E+00 0.00000E+00
 -1         2 0.00000E+00 0.00000E+00 0.00000E+00
 -1         3 0.00000E+00 0.00000E+00 0.00000E+00
 -1         4 0.00000E+00 0.00000E+00 0.00000E+00
 -1         5-4.57874E+00 3.41658E+01-9.15021E-04
 -1         6-4.57861E+00 3.41658E+01 2.56228E-03
 -1         7-9.48728E+00 3.28766E+01 1.05932E-03
 -1         8-9.48717E+00 3.28766E+01 4.04783E-04
 -1         9 0.00000E+00 0.00000E+00 0.00000E+00
 -1        10 0.00000E+00 0.00000E+00 0.00000E+00
 -1        11 0.00000E+00 0.00000E+00 0.00000E+00
 -1        12 0.00000E+00 0.00000E+00 0.00000E+00
 -1        13-4.57679E+00 3.41679E+01 8.26508E-04
 -1        14-7.03185E+00 3.35192E+01 7.47183E-05
 -1        15-9.48997E+00 3.28760E+01 7.30285E-04
 -1        16-7.03173E+00 3.35191E+01 1.48185E-03
 -1        17 4.55907E-01 5.28179E-01 6.79183E-02
 -1        18 7.81937E-01 2.03468E+00 6.11227E-02
 -1        19 8.97972E-01 4.38459E+00 5.36764E-02
 -1        20 7.64616E-01 7.44544E+00 4.64387E-02
 -1        21 3.75429E-01 1.10913E+01 3.78777E-02
 -1        22-2.57175E-01 1.51987E+01 3.08624E-02
 -1        23-1.10620E+00 1.96597E+01 2.34245E-02
 -1        24-2.13954E+00 2.43707E+01 1.58137E-02
 -1        25-3.31338E+00 2.92354E+01 8.92959E-03
 -1        26 2.37181E-01 1.43587E-01 6.77629E-02
 -1        27 6.43017E-01 1.16836E+00 6.62578E-02
 -1        28 8.70034E-01 3.11237E+00 5.79207E-02
 -1        29 8.63574E-01 5.83515E+00 5.01315E-02
 -1        30 6.02490E-01 9.20377E+00 4.29123E-02
 -1        31 8.97831E-02 1.30955E+01 3.46970E-02
 -1        32-6.56495E-01 1.73924E+01 2.72757E-02
 -1        33-1.60264E+00 2.19903E+01 1.97155E-02
 -1        34-2.71129E+00 2.67891E+01 1.30686E-02
 -1        35-3.93674E+00 3.16981E+01 5.34902E-03
 -1        36 4.56022E-01 5.28112E-01-6.78726E-02
 -1        37 7.82858E-01 2.03385E+00-6.28112E-02
 -1        38 8.97894E-01 4.38462E+00-5.42168E-02
 -1        39 7.63314E-01 7.44540E+00-4.54742E-02
 -1        40 3.76831E-01 1.10907E+01-3.90372E-02
 -1        41-2.55996E-01 1.51997E+01-3.05256E-02
 -1        42-1.10798E+00 1.96589E+01-2.31532E-02
 -1        43-2.14070E+00 2.43702E+01-1.46774E-02
 -1        44-3.31347E+00 2.92356E+01-7.50251E-03
 -1        45 2.37182E-01 1.43576E-01-6.77459E-02
 -1        46 6.43501E-01 1.16821E+00-6.63578E-02
 -1        47 8.69661E-01 3.11186E+00-5.90301E-02
 -1        48 8.62945E-01 5.83525E+00-5.07471E-02
 -1        49 6.02907E-01 9.20403E+00-4.27489E-02
 -1        50 8.98799E-02 1.30948E+01-3.51618E-02
 -1        51-6.55693E-01 1.73927E+01-2.69309E-02
 -1        52-1.60356E+00 2.19895E+01-1.90591E-02
 -1        53-2.71117E+00 2.67893E+01-1.15922E-02
 -1        54-3.93686E+00 3.16981E+01-3.78645E-03
 -1        55-5.08038E-01 4.76354E-01-6.94265E-02
 -1        56-1.06582E+00 1.85789E+00-6.35766E-02
 -1        57-1.71018E+00 4.03453E+00-5.50702E-02
 -1        58-2.48344E+00 6.90140E+00-4.70037E-02
 -1        59-3.40048E+00 1.03484E+01-3.76043E-02
 -1        60-4.44985E+00 1.42754E+01-3.03748E-02
 -1        61-5.61777E+00 1.85828E+01-2.22155E-02
 -1        62-6.87309E+00 2.31764E+01-1.37983E-02
 -1        63-8.17726E+00 2.79712E+01-6.14400E-03
 -1        64-2.51960E-01 1.25430E-01-7.07532E-02
 -1        65-7.79285E-01 1.06109E+00-6.70084E-02
 -1        66-1.37505E+00 2.85255E+00-5.91218E-02
 -1        67-2.08158E+00 5.38794E+00-5.01169E-02
 -1        68-2.92447E+00 8.55770E+00-4.15793E-02
 -1        69-3.90984E+00 1.22581E+01-3.35749E-02
 -1        70-5.02071E+00 1.63872E+01-2.60281E-02
 -1        71-6.23689E+00 2.08493E+01-1.80729E-02
 -1        72-7.52204E+00 2.55543E+01-1.03122E-02
 -1        73-8.83491E+00 3.04147E+01-2.47140E-03
 -1        74-5.08144E-01 4.76195E-01 6.92739E-02
 -1        75-1.06315E+00 1.85635E+00 6.39213E-02
 -1        76-1.71323E+00 4.03376E+00 5.53882E-02
 -1        77-2.48522E+00 6.90140E+00 4.57584E-02
 -1        78-3.39827E+00 1.03486E+01 3.83371E-02
 -1        79-4.44997E+00 1.42756E+01 2.99034E-02
 -1        80-5.61777E+00 1.85824E+01 2.26730E-02
 -1        81-6.87184E+00 2.31775E+01 1.44003E-02
 -1        82-8.17747E+00 2.79713E+01 7.49289E-03
 -1        83-2.51952E-01 1.25425E-01 7.07330E-02
 -1        84-7.79706E-01 1.06161E+00 6.69334E-02
 -1        85-1.37407E+00 2.85252E+00 5.85511E-02
 -1        86-2.08212E+00 5.38774E+00 4.96669E-02
 -1        87-2.92512E+00 8.55768E+00 4.19597E-02
 -1        88-3.90863E+00 1.22580E+01 3.39540E-02
 -1        89-5.02186E+00 1.63873E+01 2.59058E-02
 -1        90-6.23694E+00 2.08495E+01 1.87024E-02
 -1        91-7.52217E+00 2.55543E+01 1.14319E-02
 -1        92-8.83503E+00 3.04147E+01 3.86030E-03
 -1        93 0.00000E+00 0.00000E+00 0.00000E+00
 -1        94 0.00000E+00 0.00000E+00 0.00000E+00
 -1        95 0.00000E+00 0.00000E+00 0.00000E+00
 -1        96 0.00000E+00 0.00000E+00 0.00000E+00
 -1        97 0.00000E+00 0.00000E+00 0.00000E+00
 -1        98-7.03263E+00 3.35207E+01 7.78017E-04
 -1        99-5.80649E+00 3.38427E+01 1.08377E-03
 -1       100-5.80655E+00 3.38427E+01 5.17808E-04
 -1       101-8.25903E+00 3.31991E+01 3.32917E-04
 -1       102-8.25897E+00 3.31991E+01 1.17773E-03
 -1       103 6.39663E-01 1.20147E+00 8.91550E-05
 -1       104 8.64155E-01 3.14108E+00 1.50994E-05
 -1       105 8.57089E-01 5.85960E+00-4.83577E-04
 -1       106 5.96932E-01 9.22503E+00 2.65412E-04
 -1       107 8.44617E-02 1.31120E+01-1.34896E-04
 -1       108-6.60833E-01 1.74055E+01-1.00412E-04
 -1       109-1.60618E+00 2.19986E+01 1.86907E-04
 -1       110-2.71341E+00 2.67944E+01 5.71054E-04
 -1       111 2.29338E-01 1.72420E-01 9.64759E-06
 -1       112-3.93763E+00 3.16999E+01 7.80464E-04
 -1       113 1.09146E-01 6.54032E-02 1.58326E-02
 -1       114 1.09145E-01 6.54012E-02-1.58269E-02
 -1       115 3.46536E-01 3.30187E-01-3.60805E-02
 -1       116 3.46519E-01 3.30214E-01 3.61217E-02
 -1       117-4.25566E+00 3.29328E+01-1.02990E-03
 -1       118-4.25559E+00 3.29328E+01 2.64002E-03
 -1       119-3.62297E+00 3.04678E+01-2.22270E-03
 -1       120-3.62291E+00 3.04677E+01 3.71915E-03
 -1       121 7.15787E-01 1.59832E+00 3.14602E-02
 -1       122 5.52324E-01 8.45052E-01 3.33243E-02
 -1       123 4.54111E-01 5.65309E-01 5.29840E-05
 -1       124 5.52562E-01 8.45038E-01-3.31153E-02
 -1       125 8.87258E-01 3.74546E+00 2.74620E-02
 -1       126 8.28408E-01 2.57068E+00 2.95717E-02
 -1       127 7.77750E-01 2.06611E+00-8.32725E-04
 -1       128 7.16576E-01 1.59803E+00-3.19668E-02
 -1       129 8.28254E-01 2.57022E+00-3.10802E-02
 -1       130 8.17429E-01 6.63916E+00 2.37531E-02
 -1       131 8.83833E-01 5.10838E+00 2.55805E-02
 -1       132 8.91029E-01 4.41089E+00-4.13752E-04
 -1       133 8.86046E-01 3.74605E+00-2.74740E-02
 -1       134 8.83460E-01 5.10802E+00-2.65837E-02
 -1       135 4.92397E-01 1.01470E+01 1.99024E-02
 -1       136 6.86207E-01 8.32338E+00 2.28005E-02
 -1       137 7.57721E-01 7.46865E+00 3.45266E-04
 -1       138 8.16640E-01 6.63909E+00-2.40069E-02
 -1       139 6.86080E-01 8.32321E+00-2.18300E-02
 -1       140-8.01495E-02 1.41473E+01 1.62173E-02
 -1       141 2.35687E-01 1.20923E+01 1.80490E-02
 -1       142 3.70333E-01 1.11099E+01-5.99264E-04
 -1       143 4.93234E-01 1.01469E+01-2.01240E-02
 -1       144 2.35843E-01 1.20921E+01-1.90996E-02
 -1       145-8.79634E-01 1.85264E+01 1.19388E-02
 -1       146-4.54777E-01 1.62950E+01 1.52386E-02
 -1       147-2.61952E-01 1.52142E+01 6.37204E-04
 -1       148-8.03712E-02 1.41474E+01-1.60677E-02
 -1       149-4.53604E-01 1.62960E+01-1.44564E-02
 -1       150-1.86936E+00 2.31805E+01 8.79511E-03
 -1       151-1.35261E+00 2.08247E+01 1.10666E-02
 -1       152-1.11168E+00 1.96703E+01-3.70657E-04
 -1       153-8.78797E-01 1.85264E+01-1.22980E-02
 -1       154-1.35362E+00 2.08238E+01-1.12500E-02
 -1       155-3.00996E+00 2.80133E+01 5.89729E-03
 -1       156-2.42386E+00 2.55796E+01 7.95959E-03
 -1       157-2.14315E+00 2.43770E+01 9.60493E-04
 -1       158-1.87020E+00 2.31804E+01-7.60435E-03
 -1       159-2.42334E+00 2.55803E+01-6.31676E-03
 -1       160-3.31323E+00 2.92400E+01 7.06603E-04
 -1       161-3.00987E+00 2.80133E+01-4.60990E-03
 -1       162-1.38287E+00 2.88200E+00-5.10860E-04
 -1       163-2.09083E+00 5.41033E+00-8.33327E-05
 -1       164-2.93381E+00 8.57685E+00 3.61119E-04
 -1       165-3.91716E+00 1.22733E+01 2.05815E-04
 -1       166-5.02815E+00 1.63996E+01 3.05521E-04
 -1       167-6.24260E+00 2.08583E+01-1.70385E-05
 -1       168-7.52606E+00 2.55587E+01 5.49788E-04
 -1       169-2.46384E-01 1.54980E-01-1.00919E-05
 -1       170-8.83614E+00 3.04164E+01 6.94990E-04
 -1       171-7.85716E-01 1.09416E+00-1.20925E-04
 -1       172-1.14257E-01 5.87769E-02 1.79125E-02
 -1       173-1.14260E-01 5.87773E-02-1.79138E-02
 -1       174-3.79817E-01 2.96886E-01 3.81309E-02
 -1       175-3.79797E-01 2.96927E-01-3.82028E-02
 -1       176-9.16290E+00 3.16443E+01-4.27837E-04
 -1       177-9.16296E+00 3.16443E+01 1.85053E-03
 -1       178-8.50822E+00 2.91916E+01 2.94634E-03
 -1       179-8.50814E+00 2.91916E+01-1.57808E-03
 -1       180-6.46523E-01 7.66619E-01-3.43876E-02
 -1       181-9.24728E-01 1.45744E+00-3.28569E-02
 -1       182-5.14367E-01 5.12203E-01-7.48136E-05
 -1       183-6.46788E-01 7.66726E-01 3.41032E-02
 -1       184-1.22225E+00 2.35332E+00-3.12158E-02
 -1       185-1.54561E+00 3.44106E+00-2.90094E-02
 -1       186-1.22034E+00 2.35192E+00 3.14666E-02
 -1       187-1.07137E+00 1.88758E+00 7.36046E-04
 -1       188-9.24580E-01 1.45718E+00 3.29860E-02
 -1       189-1.89800E+00 4.70832E+00-2.66105E-02
 -1       190-2.28461E+00 6.14253E+00-2.45258E-02
 -1       191-1.54501E+00 3.44171E+00 2.76951E-02
 -1       192-1.72002E+00 4.06079E+00-4.04976E-04
 -1       193-1.89942E+00 4.70845E+00 2.67703E-02
 -1       194-2.70634E+00 7.72691E+00-2.22412E-02
 -1       195-3.16437E+00 9.45082E+00-1.93749E-02
 -1       196-2.28498E+00 6.14235E+00 2.34047E-02
 -1       197-2.49341E+00 6.92178E+00-5.39763E-04
 -1       198-2.70752E+00 7.72684E+00 2.20963E-02
 -1       199-3.65691E+00 1.13013E+01-1.77531E-02
 -1       200-4.18198E+00 1.32646E+01-1.58291E-02
 -1       201-3.16421E+00 9.45039E+00 2.04683E-02
 -1       202-3.40734E+00 1.03659E+01 7.39814E-04
 -1       203-3.65559E+00 1.13012E+01 1.84285E-02
 -1       204-4.73650E+00 1.53297E+01-1.47442E-02
 -1       205-5.32060E+00 1.74838E+01-1.14787E-02
 -1       206-4.18128E+00 1.32648E+01 1.59150E-02
 -1       207-4.45728E+00 1.42889E+01-5.55170E-04
 -1       208-4.73714E+00 1.53300E+01 1.42439E-02
 -1       209-5.92877E+00 1.97149E+01-1.03429E-02
 -1       210-6.55664E+00 2.20120E+01-7.52821E-03
 -1       211-5.32165E+00 1.74828E+01 1.20559E-02
 -1       212-5.62362E+00 1.85923E+01 6.50602E-04
 -1       213-5.92844E+00 1.97146E+01 1.10587E-02
 -1       214-7.19942E+00 2.43642E+01-6.02879E-03
 -1       215-7.85202E+00 2.67611E+01-3.87515E-03
 -1       216-6.55656E+00 2.20114E+01 8.26590E-03
 -1       217-6.87686E+00 2.31832E+01 1.54947E-05
 -1       218-7.19960E+00 2.43645E+01 6.69398E-03
 -1       219-7.85217E+00 2.67611E+01 5.22691E-03
 -1       220-8.18137E+00 2.79733E+01 6.85116E-04
 -1       221-6.38495E+00 3.10548E+01 1.42594E-03
 -1       222-6.26071E-02 1.08163E+00-2.39255E-03
 -1       223-2.45056E-01 2.95421E+00-1.81310E-03
 -1       224-6.02081E-01 5.58770E+00-1.01220E-03
 -1       225-1.15356E+00 8.86108E+00-5.91376E-05
 -1       226-1.90233E+00 1.26608E+01 4.87552E-05
 -1       227-5.57900E-03 9.52886E-02-3.29483E-03
 -1       228-2.83269E+00 1.68778E+01 3.44494E-04
 -1       229-3.91552E+00 2.14115E+01 9.22061E-04
 -1       230-5.11414E+00 2.61668E+01 1.27197E-03
 -1       231-5.76024E-02 8.48599E-03-2.44690E-02
 -1       232 5.25910E-02 1.28377E-02 2.05182E-02
 -1       233 1.68493E-01 2.69239E-01 3.32901E-02
 -1       234-1.93452E-01 2.52142E-01-3.78549E-02
 -1       235-5.48338E+00 3.26083E+01 2.39212E-03
 -1       236-7.93348E+00 3.19660E+01 5.22686E-04
 -1       237-4.84364E+00 3.01443E+01 4.46942E-03
 -1       238-7.28326E+00 2.95079E+01-1.67022E-03
 -1       239 2.57184E-01 7.74209E-01 3.26277E-02
 -1       240 3.11794E-01 1.51535E+00 3.05761E-02
 -1       241-2.25638E-02 4.68638E-01-2.34117E-03
 -1       242-3.37710E-01 7.35094E-01-3.60025E-02
 -1       243 3.24523E-01 2.47201E+00 2.86491E-02
 -1       244 2.88320E-01 3.62863E+00 2.66019E-02
 -1       245-1.34685E-01 1.91487E+00-2.15271E-03
 -1       246-5.03945E-01 1.44446E+00-3.37283E-02
 -1       247-6.97884E-01 2.36276E+00-3.13744E-02
 -1       248 1.97700E-01 4.97018E+00 2.55353E-02
 -1       249 5.13409E-02 6.48020E+00 2.26432E-02
 -1       250-4.00606E-01 4.18322E+00-1.09865E-03
 -1       251-9.25091E-01 3.47696E+00-2.89525E-02
 -1       252-1.19044E+00 4.77111E+00-2.73006E-02
 -1       253-1.51855E-01 8.14248E+00 2.18534E-02
 -1       254-4.12558E-01 9.94448E+00 1.99439E-02
 -1       255-8.52714E-01 7.15141E+00-1.09993E-03
 -1       256-1.49657E+00 6.23294E+00-2.46380E-02
 -1       257-1.84461E+00 7.84566E+00-2.24749E-02
 -1       258-7.27847E-01 1.18693E+01 1.83575E-02
 -1       259-1.09648E+00 1.39046E+01 1.53785E-02
 -1       260-1.50371E+00 1.07023E+01-2.27306E-04
 -1       261-2.23671E+00 9.59729E+00-1.96922E-02
 -1       262-2.67149E+00 1.14743E+01-1.81944E-02
 -1       263-1.51730E+00 1.60340E+01 1.46622E-02
 -1       264-1.98267E+00 1.82483E+01 1.29860E-02
 -1       265-2.34639E+00 1.47245E+01 2.13593E-04
 -1       266-3.14550E+00 1.34646E+01-1.53363E-02
 -1       267-3.65524E+00 1.55526E+01-1.38541E-02
 -1       268-2.49070E+00 2.05329E+01 1.07961E-02
 -1       269-3.03635E+00 2.28767E+01 9.82863E-03
 -1       270-3.35738E+00 1.91109E+01 7.69749E-04
 -1       271-4.20047E+00 1.77281E+01-1.17809E-02
 -1       272-4.77630E+00 1.99792E+01-9.80471E-03
 -1       273-3.61381E+00 2.52669E+01 7.63929E-03
 -1       274-4.21863E+00 2.76929E+01 5.87621E-03
 -1       275-4.50338E+00 2.37668E+01 8.47270E-04
 -1       276-5.37710E+00 2.22931E+01-7.17852E-03
 -1       277-5.99912E+00 2.46603E+01-5.54524E-03
 -1       278-5.74349E+00 2.85999E+01 1.37184E-03
 -1       279-6.63622E+00 2.70688E+01-3.17296E-03
 -1       280-5.57983E-03 9.52811E-02 3.29503E-03
 -1       281-2.44961E-01 2.95356E+00 1.02780E-03
 -1       282-6.01666E-01 5.58772E+00 4.23264E-04
 -1       283-1.15355E+00 8.86067E+00 9.32313E-05
 -1       284-1.90282E+00 1.26608E+01-1.94381E-05
 -1       285-2.83294E+00 1.68776E+01-2.36257E-04
 -1       286-3.91563E+00 2.14116E+01 1.04364E-04
 -1       287-5.11462E+00 2.61669E+01 4.39226E-04
 -1       288-6.38507E+00 3.10549E+01 4.94385E-05
 -1       289-6.28614E-02 1.08088E+00 2.59081E-03
 -1       290 5.25882E-02 1.28391E-02-2.05144E-02
 -1       291-5.75989E-02 8.49257E-03 2.44661E-02
 -1       292 1.68518E-01 2.69201E-01-3.32593E-02
 -1       293-1.93483E-01 2.52083E-01 3.78077E-02
 -1       294-7.93360E+00 3.19661E+01 9.48012E-04
 -1       295-5.48350E+00 3.26083E+01-8.31161E-04
 -1       296-4.84376E+00 3.01444E+01-3.01147E-03
 -1       297-7.28341E+00 2.95079E+01 3.07773E-03
 -1       298 3.13425E-01 1.51510E+00-3.02657E-02
 -1       299 2.57246E-01 7.73901E-01-3.25707E-02
 -1       300-2.25562E-02 4.68572E-01 2.34311E-03
 -1       301-3.37792E-01 7.34914E-01 3.60476E-02
 -1       302 2.87441E-01 3.62821E+00-2.75758E-02
 -1       303 3.24485E-01 2.47112E+00-2.94515E-02
 -1       304-6.96205E-01 2.36235E+00 3.15536E-02
 -1       305-1.34975E-01 1.91528E+00 1.50427E-03
 -1       306-5.04810E-01 1.44526E+00 3.32541E-02
 -1       307 5.04596E-02 6.48000E+00-2.35694E-02
 -1       308 1.97294E-01 4.97069E+00-2.61688E-02
 -1       309-9.24931E-01 3.47629E+00 2.90196E-02
 -1       310-3.99080E-01 4.18260E+00 9.35852E-04
 -1       311-1.19061E+00 4.77114E+00 2.61586E-02
 -1       312-4.11452E-01 9.94458E+00-1.94672E-02
 -1       313-1.51925E-01 8.14227E+00-2.19759E-02
 -1       314-1.49685E+00 6.23285E+00 2.44004E-02
 -1       315-8.52503E-01 7.15171E+00 8.75128E-04
 -1       316-1.84586E+00 7.84529E+00 2.30753E-02
 -1       317-1.09743E+00 1.39037E+01-1.62604E-02
 -1       318-7.27735E-01 1.18687E+01-1.80705E-02
 -1       319-2.23755E+00 9.59729E+00 1.96896E-02
 -1       320-1.50432E+00 1.07021E+01 5.65638E-04
 -1       321-2.67021E+00 1.14747E+01 1.83389E-02
 -1       322-1.98237E+00 1.82490E+01-1.16552E-02
 -1       323-1.51650E+00 1.60343E+01-1.40691E-02
 -1       324-3.14421E+00 1.34639E+01 1.58483E-02
 -1       325-2.34687E+00 1.47235E+01-3.79451E-04
 -1       326-3.65573E+00 1.55526E+01 1.39781E-02
 -1       327-3.03701E+00 2.28763E+01-8.48161E-03
 -1       328-2.49152E+00 2.05325E+01-1.06480E-02
 -1       329-4.20208E+00 1.77284E+01 1.13802E-02
 -1       330-3.35712E+00 1.91116E+01-2.33623E-04
 -1       331-4.77612E+00 1.99787E+01 1.01961E-02
 -1       332-4.21882E+00 2.76932E+01-4.34943E-03
 -1       333-3.61373E+00 2.52665E+01-7.07761E-03
 -1       334-5.37754E+00 2.22936E+01 7.95539E-03
 -1       335-4.50343E+00 2.37667E+01-2.41706E-04
 -1       336-5.99962E+00 2.46599E+01 7.04765E-03
 -1       337-6.63651E+00 2.70690E+01 4.50464E-03
 -1       338-5.74365E+00 2.86000E+01 2.91283E-05
 -1       339-2.62867E-02 5.03410E-01 1.26909E-05
 -1       340-5.74538E+00 2.86033E+01 6.99593E-04
 -1       341-1.89376E-01 2.43151E+00-1.00155E-03
 -1       342-2.51893E-01 2.98239E+00-7.70223E-05
 -1       343-6.01558E-01 1.90102E+00 1.63848E-02
 -1       344 3.19925E-01 1.99080E+00-1.52400E-02
 -1       345 3.07567E-01 1.54675E+00 8.52908E-05
 -1       346-2.04211E+00 8.71917E+00-1.02869E-02
 -1       347-2.04241E+00 8.71908E+00 1.08359E-02
 -1       348-1.16143E+00 8.88033E+00 2.52415E-04
 -1       349-2.24550E+00 9.61553E+00 5.58935E-04
 -1       350-7.26198E-01 6.36816E+00 1.56430E-04
 -1       351 4.43874E-02 6.50359E+00-2.72591E-04
 -1       352-1.34499E+00 5.49945E+00-1.29150E-02
 -1       353-8.60084E-01 7.17341E+00-1.02318E-04
 -1       354-4.90614E-02 7.30948E+00 1.08102E-02
 -1       355 2.86559E-01 1.14162E+00 1.58766E-02
 -1       356 2.86642E-01 1.14134E+00-1.54851E-02
 -1       357-6.75427E-02 1.11401E+00-4.58728E-05
 -1       358 3.08913E-01 3.04720E+00 1.31961E-02
 -1       359-8.13248E-01 2.91759E+00-1.52956E-02
 -1       360-1.89656E-01 2.43156E+00 5.72951E-04
 -1       361 3.08267E-01 3.04735E+00-1.43599E-02
 -1       362-8.12348E-01 2.91735E+00 1.47763E-02
 -1       363-1.85368E+00 7.86561E+00 3.89701E-06
 -1       364-2.80014E-01 9.04239E+00 1.06121E-02
 -1       365-1.00276E+00 8.00410E+00-1.38960E-04
 -1       366-2.79560E-01 9.04244E+00-1.04572E-02
 -1       367-3.22015E-01 3.56637E+00 3.02483E-04
 -1       368 2.81506E-01 3.65575E+00-1.06635E-04
 -1       369-6.08239E-01 5.61183E+00-3.26241E-04
 -1       370 1.90759E-01 4.99561E+00-6.63901E-04
 -1       371-1.34493E+00 5.49954E+00 1.26115E-02
 -1       372-4.99994E-01 4.88337E+00-3.43610E-04
 -1       373-1.74743E+00 1.71412E+01-6.27209E-03
 -1       374-2.58936E+00 1.57996E+01 2.49233E-04
 -1       375-3.92994E+00 1.66384E+01 6.11251E-03
 -1       376-2.83865E+00 1.68897E+01 2.04398E-04
 -1       377-1.67135E+00 7.03735E+00 1.20718E-02
 -1       378-4.22175E-01 1.08760E+00-1.76353E-02
 -1       379-4.22531E-01 1.08751E+00 1.75935E-02
 -1       380-5.10541E-01 1.47664E+00 1.61419E-04
 -1       381 1.26316E-01 5.72355E+00 1.18223E-02
 -1       382 1.26487E-01 5.72354E+00-1.27715E-02
 -1       383-2.90851E+00 1.24674E+01 8.55399E-03
 -1       384-1.90997E+00 1.26763E+01-1.01966E-04
 -1       385-2.90862E+00 1.24675E+01-8.45882E-03
 -1       386-2.67842E+00 1.14911E+01 2.09679E-04
 -1       387-3.92008E+00 2.14194E+01 1.43424E-04
 -1       388-4.20899E+00 2.25890E+01 1.15876E-03
 -1       389-5.07818E+00 2.11348E+01 4.50827E-03
 -1       390-5.38249E+00 2.23002E+01 4.03085E-04
 -1       391-2.76171E+00 2.17044E+01-4.33690E-03
 -1       392-3.63585E+00 2.02601E+01 7.88027E-06
 -1       393-1.30561E+00 1.49686E+01 7.63766E-03
 -1       394-3.40072E+00 1.45073E+01-7.60102E-03
 -1       395-2.58910E+00 1.57997E+01 1.95244E-04
 -1       396-2.23562E+00 1.93902E+01-5.61845E-03
 -1       397-4.48937E+00 1.88526E+01 5.78858E-03
 -1       398-5.11729E+00 2.61719E+01 7.33289E-04
 -1       399-6.00311E+00 2.46661E+01 3.51056E-04
 -1       400-3.91484E+00 2.64802E+01 3.80478E-03
 -1       401-4.80836E+00 2.49663E+01 7.27444E-04
 -1       402-3.91471E+00 2.64804E+01-2.75005E-03
 -1       403-2.76194E+00 2.17046E+01 5.34385E-03
 -1       404-5.07860E+00 2.11346E+01-4.09614E-03
 -1       405-4.20720E+00 1.77385E+01 2.61955E-04
 -1       406-3.63629E+00 2.02602E+01 2.03178E-04
 -1       407-4.18842E-01 9.96334E+00 3.32743E-05
 -1       408-3.15193E+00 1.34783E+01-9.09306E-05
 -1       409-3.92938E+00 1.66389E+01-6.38769E-03
 -1       410-1.74785E+00 1.71410E+01 6.77578E-03
 -1       411-3.09464E+00 1.79940E+01 4.16345E-04
 -1       412-9.10669E-01 1.28858E+01-8.66715E-03
 -1       413-1.70334E+00 1.16799E+01 3.04141E-04
 -1       414-9.10068E-01 1.28861E+01 8.42386E-03
 -1       415-1.10317E+00 1.39193E+01 9.31792E-05
 -1       416-6.31885E+00 2.58636E+01 3.33021E-03
 -1       417-6.31870E+00 2.58635E+01-1.92074E-03
 -1       418-9.33232E-01 3.50380E+00-5.94508E-04
 -1       419-4.20937E+00 2.25887E+01 1.14140E-04
 -1       420-3.32449E+00 2.40713E+01-3.56266E-03
 -1       421-4.07096E-01 4.20930E+00-4.32406E-04
 -1       422-5.67940E-01 1.09057E+01-9.47683E-03
 -1       423-1.51122E+00 1.07201E+01 2.58264E-04
 -1       424-3.61643E+00 2.52728E+01 6.75405E-04
 -1       425-1.98752E+00 1.82600E+01 1.15611E-04
 -1       426-6.70870E+00 3.22876E+01 1.10736E-03
 -1       427-7.93503E+00 3.19665E+01 7.35011E-04
 -1       428-7.60954E+00 3.07362E+01 1.00157E-04
 -1       429-5.16228E+00 3.13768E+01 2.06426E-03
 -1       430-6.38597E+00 3.10566E+01 7.37275E-04
 -1       431-5.48303E+00 3.26098E+01 7.80543E-04
 -1       432-2.55710E-03 2.53534E-02 1.05445E-03
 -1       433-5.53095E-02 3.01227E-02-1.69335E-06
 -1       434-1.25454E-01 1.23480E-01 1.89098E-02
 -1       435 1.11082E-01 1.32935E-01-1.59354E-02
 -1       436-7.38988E-03 1.25272E-01-3.95213E-07
 -1       437 4.98355E-02 3.36329E-02 2.08067E-06
 -1       438-1.25451E-01 1.23491E-01-1.89258E-02
 -1       439-2.55684E-03 2.53553E-02-1.05363E-03
 -1       440 1.11081E-01 1.32946E-01 1.59506E-02
 -1       441-7.60960E+00 3.07362E+01 1.33564E-03
 -1       442-6.70876E+00 3.22876E+01 4.08517E-04
 -1       443-5.16234E+00 3.13769E+01-5.50853E-04
 -1       444-3.42780E-01 7.69071E-01-4.72310E-05
 -1       445-4.23227E-02 7.71782E-01 1.31808E-03
 -1       446-4.23029E-02 7.71895E-01-1.28827E-03
 -1       447 2.53521E-01 8.08496E-01 4.83011E-05
 -1       448-1.95378E-01 2.85638E-01-2.24451E-05
 -1       449 1.64808E-01 3.02804E-01 2.08449E-05
 -1       450-1.39881E-02 2.76623E-01 1.53452E-03
 -1       451-1.39867E-02 2.76656E-01-1.53424E-03
 -1       452-5.42863E+00 2.73830E+01 1.00158E-03
 -1       453-5.42880E+00 2.73830E+01 4.51315E-04
 -1       454-6.63932E+00 2.70727E+01 6.67563E-04
 -1       455-4.22036E+00 2.76976E+01 6.57422E-04
 -1       456-7.28560E+00 2.95100E+01 7.05147E-04
 -1       457-4.84436E+00 3.01473E+01 7.28078E-04
 -1       458-6.06418E+00 2.98273E+01 1.05426E-03
 -1       459-6.06425E+00 2.98273E+01 3.81103E-04
 -1       460-2.66290E-01 4.89613E-01 1.78093E-02
 -1       461 2.13865E-01 5.16541E-01-1.57743E-02
 -1       462-2.66278E-01 4.89704E-01-1.78777E-02
 -1       463 2.13838E-01 5.16603E-01 1.58480E-02
 -1       464-6.96076E+00 2.82876E+01-8.79759E-04
 -1       465-4.52997E+00 2.89191E+01 2.94294E-03
 -1       466-4.53005E+00 2.89192E+01-1.55212E-03
 -1       467-6.96084E+00 2.82876E+01 2.26894E-03
 -3
    1PSTEP                        10           3           1          
  100CL  103 1.000000000         467                     0    3           1
 -4  STRESS      6    1
 -5  SXX         1    4    1    1
 -5  SYY         1    4    2    2
 -5  SZZ         1    4    3    3
 -5  SXY         1    4    1    2
 -5  SYZ         1    4    2    3
 -5  SZX         1    4    3    1
 -1         1 1.19427E+04 3.08633E+03 3.79510E+03 3.22614E+02-5.25566E+02-1.24643E+03
 -1         2 1.19438E+04 3.08657E+03 3.79535E+03 3.22368E+02 5.25712E+02 1.24639E+03
 -1         3-1.09820E+04-3.20766E+03-3.97716E+03 5.56465E+01-5.50805E+02 1.12947E+03
 -1         4-1.09835E+04-3.20864E+03-3.97805E+03 5.50177E+01 5.51447E+02-1.12909E+03
 -1         5 3.62579E+01 1.09751E+02-2.28450E+01 1.76129E+02 1.36125E+00 1.71221E+01
 -1         6 3.59827E+01 1.09047E+02-2.29609E+01 1.75646E+02-1.74694E+00-1.73146E+01
 -1         7-9.45338E+01 1.47881E+02 2.29559E+01 3.33281E+01-1.41265E+01-9.91883E+00
 -1         8-9.38880E+01 1.47842E+02 2.30262E+01 3.33758E+01 1.40918E+01 1.02270E+01
 -1         9 1.24035E+04 4.95898E+03 4.94742E+03 1.61106E+03 2.59848E-04 3.56739E-02
 -1        10-6.92224E-01-1.76002E+02-1.49393E+02-8.39924E+02-2.40707E+00 6.27589E+00
 -1        11-1.12188E+04-5.19154E+03-5.19335E+03 1.14745E+03 3.14610E-03 1.06941E-01
 -1        12-7.98033E-01-1.76068E+02-1.49456E+02-8.40291E+02 2.40889E+00-6.23678E+00
 -1        13 2.13101E+00 3.10309E+01-6.31050E+01 1.60657E+02-4.74493E-02-6.97420E-02
 -1        14-8.27884E+01 1.82352E+02 4.96389E-02 1.37449E+02-3.92794E+01 2.22819E+01
 -1        15-1.47692E+01 1.80291E+02 6.34252E+01 2.11852E+01 9.87640E-03 5.41620E-02
 -1        16-8.26101E+01 1.82253E+02 5.82012E-02 1.37329E+02 3.92653E+01-2.22881E+01
 -1        17 1.02801E+04 4.34246E+01-4.09151E+01 1.12430E+03-6.57586E+01-1.04703E+02
 -1        18 8.66704E+03 2.96278E+02 1.79183E+01 1.85316E+03-1.56795E+01-3.25117E+01
 -1        19 7.38650E+03 6.20230E+02 2.03627E+01 2.17650E+03-2.60338E+01-3.77253E+01
 -1        20 5.93349E+03 8.05570E+02 1.21345E+01 2.19322E+03-4.05144E+01-1.00921E+01
 -1        21 4.61686E+03 8.78400E+02-1.13916E+01 2.05878E+03-8.50881E+00-2.43678E+01
 -1        22 3.38139E+03 9.20397E+02 2.41104E+01 1.75421E+03-2.83011E+01-1.30682E+01
 -1        23 2.53933E+03 7.97757E+02-2.97938E+01 1.41183E+03-2.03838E+00-3.83175E+01
 -1        24 1.60101E+03 5.84132E+02 2.27126E+01 1.00291E+03-2.67777E+01-2.92583E+01
 -1        25 7.64245E+02 3.90817E+02-4.87184E+00 5.63819E+02-7.76648E+00-2.37769E+01
 -1        26 1.10345E+04 1.72007E+02 4.23227E+02 4.43268E+02 1.57666E+02 3.31246E+02
 -1        27 9.77084E+03 2.31859E+02 1.03999E+01 1.54939E+03-1.50893E+01-3.80397E+01
 -1        28 8.28162E+03 5.31087E+02 3.84273E+01 2.05873E+03-5.41229E+01-5.17775E+01
 -1        29 6.69870E+03 7.04604E+02-1.41022E+01 2.21714E+03-2.49145E+01-1.77703E+01
 -1        30 5.34357E+03 8.67646E+02 2.75707E+00 2.16268E+03-5.22144E+01-5.49286E+01
 -1        31 4.10973E+03 9.35658E+02-1.45807E+00 1.95402E+03-5.47205E+01-1.54840E+01
 -1        32 3.10594E+03 8.72190E+02 2.34978E+01 1.61650E+03-3.83286E+01-8.34635E+01
 -1        33 2.09073E+03 6.90764E+02 1.74098E+00 1.20822E+03-3.84473E+01-7.16917E+01
 -1        34 1.18425E+03 4.74695E+02 1.53179E+01 7.68178E+02-4.32015E+01-3.44323E+01
 -1        35 3.89393E+02 2.43818E+02-2.47275E-01 3.31191E+02-1.33355E+01-1.06718E+01
 -1        36 1.02950E+04 4.20402E+01-4.22384E+01 1.12198E+03 6.44832E+01 1.08492E+02
 -1        37 8.80922E+03 3.79370E+02 3.20338E+01 1.83784E+03 4.43275E+01 2.85756E+01
 -1        38 7.11827E+03 5.61645E+02-5.72157E+00 2.17621E+03 6.65005E+00 2.00142E+01
 -1        39 5.91685E+03 7.86751E+02 1.07689E+01 2.19896E+03 1.34308E+01 3.87448E+01
 -1        40 4.64343E+03 9.16699E+02 1.11988E+01 2.03722E+03 4.44633E+01 6.76245E+00
 -1        41 3.55891E+03 8.72882E+02-1.82088E+01 1.77195E+03 9.55838E+00 3.23984E+01
 -1        42 2.40993E+03 8.21152E+02 2.61104E+01 1.38325E+03 3.22986E+01 1.45797E+01
 -1        43 1.66277E+03 5.87957E+02-1.68230E+01 1.03125E+03-1.21487E+01 3.84139E+01
 -1        44 7.59492E+02 3.87592E+02-1.57263E+00 5.55896E+02 1.18053E+01 2.44758E+01
 -1        45 1.10376E+04 1.72381E+02 4.23436E+02 4.42513E+02-1.57410E+02-3.30344E+02
 -1        46 9.78072E+03 2.46035E+02 7.01949E+00 1.57900E+03 3.39948E+01 1.01402E+01
 -1        47 8.25489E+03 4.98080E+02 1.11432E+01 2.03939E+03 3.95163E+01 9.93837E+01
 -1        48 6.70049E+03 7.29132E+02 1.57060E+01 2.19497E+03 2.29636E+01 4.36916E+01
 -1        49 5.37747E+03 8.66002E+02-1.94358E+01 2.18575E+03 6.41827E+01 2.66904E+01
 -1        50 4.14132E+03 8.97587E+02 4.81520E+00 1.93569E+03 4.84996E+01 5.24914E+01
 -1        51 3.01715E+03 8.73524E+02-3.22343E+00 1.59817E+03 5.63255E+01 1.93386E+01
 -1        52 2.11606E+03 7.30037E+02 3.63853E+01 1.21647E+03 3.91493E+01 8.48680E+01
 -1        53 1.17594E+03 4.51753E+02-1.46422E+01 7.90200E+02-1.34523E+00 2.39670E+01
 -1        54 3.88233E+02 2.41941E+02-7.23558E-01 3.29999E+02 1.37405E+01 1.12384E+01
 -1        55-9.23509E+03-8.89107E+01 1.18494E+02-8.26253E+02-9.42590E+00 9.08654E+01
 -1        56-8.11231E+03-2.74277E+02 5.80783E+01-1.42390E+03 2.30884E+01 2.95908E+01
 -1        57-6.94112E+03-4.81130E+02-1.59857E+00-1.69157E+03 1.01633E+01 2.21067E+01
 -1        58-5.62129E+03-6.03176E+02 1.20838E+01-1.80764E+03 1.52370E+01 3.43709E+01
 -1        59-4.52494E+03-6.60232E+02 3.92600E+01-1.72986E+03 2.54702E+01 2.13749E+01
 -1        60-3.37529E+03-6.72003E+02-1.47889E+01-1.43010E+03-1.54286E+01 2.64201E+01
 -1        61-2.59144E+03-4.99183E+02 1.98223E+01-1.13216E+03 1.63322E+01 1.31374E+01
 -1        62-1.66006E+03-3.25224E+02-5.39150E+00-7.38851E+02 1.45406E+01 2.24957E+01
 -1        63-8.36417E+02-1.12628E+02 3.32948E+00-3.35753E+02 1.43700E+01 1.67428E+01
 -1        64-9.51759E+03-2.06105E+02-4.08559E+02-5.80698E+02 1.99506E+02-1.93719E+02
 -1        65-8.58181E+03-1.65369E+02 5.29720E+00-1.12252E+03 3.87794E+01 7.15888E+00
 -1        66-7.28902E+03-3.37786E+02 2.24787E+01-1.55866E+03-1.51779E+01 3.66350E+01
 -1        67-6.14076E+03-5.27983E+02-2.22399E+01-1.73587E+03 3.88920E+01 5.40243E+01
 -1        68-5.00103E+03-6.36518E+02 8.58052E+00-1.78295E+03 2.17589E+01 3.18849E+01
 -1        69-3.92281E+03-6.79924E+02 6.31334E-01-1.54960E+03 9.80236E+00 1.62951E+01
 -1        70-2.92297E+03-5.75653E+02 3.55373E+00-1.31644E+03 2.57652E+01 7.03428E+01
 -1        71-2.04216E+03-4.61064E+02 1.22034E+01-9.68793E+02 3.34784E+01 5.69591E+01
 -1        72-1.21945E+03-2.53120E+02-1.55688E+01-5.44662E+02 1.56987E+01 2.40813E+01
 -1        73-4.24003E+02-8.17081E+00 2.62207E-01-1.31673E+02 2.16984E+00 1.51236E+01
 -1        74-9.24594E+03-8.21042E+01 1.20432E+02-8.28505E+02 6.10771E+00-9.53673E+01
 -1        75-8.12730E+03-3.81561E+02 1.46129E-01-1.40182E+03 1.52653E+01-2.44618E+01
 -1        76-6.90475E+03-4.50076E+02 5.73791E+01-1.73309E+03-2.46436E+01-1.79963E+01
 -1        77-5.60998E+03-5.87974E+02 1.56326E+01-1.82299E+03-4.53100E+01-8.23862E+00
 -1        78-4.50409E+03-6.57756E+02-6.86050E+00-1.67183E+03-1.14868E+01-1.83516E+01
 -1        79-3.45614E+03-6.24548E+02 6.03730E+00-1.45632E+03-2.09273E+01-2.10031E+01
 -1        80-2.45970E+03-5.55440E+02-1.70741E+01-1.11371E+03 1.38881E+01-3.45184E+01
 -1        81-1.72767E+03-3.26303E+02 2.60980E+00-7.48560E+02-1.37071E+01-2.77509E+01
 -1        82-8.29035E+02-1.14488E+02-2.34042E-03-3.32395E+02-1.27455E+01-1.98324E+01
 -1        83-9.51992E+03-2.07161E+02-4.09297E+02-5.81606E+02-1.99995E+02 1.92659E+02
 -1        84-8.57745E+03-2.52748E+02-1.72211E+01-1.09245E+03-1.34241E+01 4.53872E+00
 -1        85-7.38937E+03-3.65381E+02-8.54649E+00-1.59012E+03-1.29419E+01-7.96593E+01
 -1        86-6.07819E+03-5.16133E+02 1.87616E+01-1.75800E+03-4.05872E+01-6.77489E+01
 -1        87-4.97415E+03-6.17533E+02-4.87446E+00-1.72785E+03-9.91279E+00 1.15889E+00
 -1        88-3.92016E+03-6.52339E+02-7.16733E-01-1.59208E+03-2.30438E+01-3.12068E+01
 -1        89-2.97659E+03-6.39930E+02-2.33092E+01-1.29061E+03 1.01498E+01-5.08692E+01
 -1        90-2.03949E+03-4.29325E+02-2.61333E+01-9.46431E+02 1.37304E+01-6.46289E+01
 -1        91-1.26457E+03-2.30728E+02-1.09385E+01-5.47629E+02-2.13757E+01 2.25425E+00
 -1        92-4.22308E+02-7.93398E+00 5.23621E-01-1.31332E+02-2.46155E+00-1.55849E+01
 -1        93-5.11505E+02-1.79557E+02-1.29745E+02-1.39927E+02 1.51841E-02 1.21406E-02
 -1        94 5.35726E+03 1.82132E+03 2.02972E+03 1.00480E+02-1.51808E+02-5.90496E+02
 -1        95 5.35743E+03 1.82128E+03 2.02970E+03 1.00464E+02 1.51853E+02 5.90568E+02
 -1        96-5.50435E+03-2.06091E+03-2.24537E+03 2.40652E+01-1.66600E+02 5.68460E+02
 -1        97-5.50455E+03-2.06083E+03-2.24530E+03 2.39475E+01 1.66697E+02-5.68410E+02
 -1        98-1.41265E+02 2.40514E+02-3.28518E-01 1.72046E+02 5.95153E-02-3.03439E-02
 -1        99-9.92209E+01 1.46547E+02-2.93241E+01 1.79126E+02-5.35204E-01-5.41803E+00
 -1       100-9.93194E+01 1.46461E+02-2.95271E+01 1.79272E+02 5.43360E-01 5.31740E+00
 -1       101-8.94995E+01 2.40721E+02 2.91452E+01 1.08638E+02-4.44024E+00-3.04497E+00
 -1       102-8.94701E+01 2.40599E+02 2.89984E+01 1.08676E+02 4.50351E+00 3.08257E+00
 -1       103 9.71136E+03 1.22046E+02 5.56627E+01 1.44107E+03 2.08836E+00 6.28550E+00
 -1       104 8.07062E+03 3.52789E+02 1.26984E+01 1.98723E+03 2.82505E+00 8.35654E+00
 -1       105 6.69261E+03 6.40910E+02 7.13037E+00 2.15382E+03-5.28048E+00 8.06786E-01
 -1       106 5.43499E+03 7.41788E+02 7.92823E-01 2.13554E+03-1.05410E+01-1.12628E+01
 -1       107 4.19628E+03 8.36339E+02 7.55333E+00 1.93103E+03 4.49750E+00 7.94874E+00
 -1       108 3.02821E+03 8.08695E+02 9.47360E+00 1.63406E+03 3.52231E+00 4.17905E+00
 -1       109 2.00273E+03 6.94148E+02-1.38457E+00 1.20622E+03 3.01493E+00 1.26063E+01
 -1       110 1.22136E+03 4.68994E+02-3.66668E+01 7.49723E+02 2.54233E-01 3.00951E+00
 -1       111 1.11970E+04-3.15676E+02 2.05591E+02 9.53390E+02-2.42785E-01 3.94884E-01
 -1       112 4.00643E+02 2.39004E+02-1.44909E+00 3.08694E+02 2.82799E-01 1.75451E-01
 -1       113 1.16026E+04 7.14933E+02 1.71909E+03 7.39856E+02 2.68226E+02 6.31679E+02
 -1       114 1.16018E+04 7.14569E+02 1.71895E+03 7.39995E+02-2.68297E+02-6.31470E+02
 -1       115 1.08231E+04-1.37030E+02-9.86769E+01 9.19250E+02 1.33037E+02 7.81811E+01
 -1       116 1.08201E+04-1.36089E+02-9.75764E+01 9.20432E+02-1.33092E+02-7.62841E+01
 -1       117 2.44585E+02 1.66947E+02-7.03880E+00 2.01458E+02 5.54773E-01 7.37388E-01
 -1       118 2.44251E+02 1.66227E+02-7.17765E+00 2.01248E+02-6.56023E-01-7.48251E-01
 -1       119 5.92497E+02 2.50153E+02-1.67332E+01 4.13950E+02 1.01534E+01 4.70133E+00
 -1       120 5.93037E+02 2.52498E+02-1.64175E+01 4.15714E+02-8.80660E+00-3.53605E+00
 -1       121 9.28172E+03 2.37905E+02 1.17801E+01 1.62215E+03-7.17452E+00-1.92740E+01
 -1       122 1.01161E+04 1.13219E+02 7.20073E+01 1.33049E+03-3.21470E+00 8.59749E+00
 -1       123 1.05842E+04 1.44920E+02 1.75899E+02 1.09418E+03-1.60260E-01 3.24548E+00
 -1       124 1.01364E+04 1.10729E+02 7.55538E+01 1.32652E+03 2.28610E+00 1.48263E+00
 -1       125 7.81894E+03 5.35671E+02 4.76743E+01 2.07743E+03-1.69709E+01-1.97410E+01
 -1       126 8.46357E+03 3.28560E+02 2.74152E+01 1.92387E+03-1.62381E+01-2.04919E+01
 -1       127 8.91822E+03 3.63374E+02 3.81791E+01 1.74376E+03-1.53790E+00-1.47476E+01
 -1       128 9.32660E+03 2.87531E+02 3.05083E+01 1.65048E+03 1.47013E+01-5.01592E+00
 -1       129 8.50891E+03 3.42291E+02 1.74509E+01 1.89764E+03 3.30451E+01 5.29821E+01
 -1       130 6.34863E+03 7.39355E+02 9.42201E+00 2.15099E+03-9.45126E+00 1.89503E+00
 -1       131 7.10089E+03 5.90856E+02 5.65063E+00 2.17973E+03-2.86704E+01-2.55260E+01
 -1       132 7.35802E+03 5.98614E+02 3.38700E+01 2.15196E+03-1.20409E+01-2.10309E+01
 -1       133 7.68264E+03 4.55474E+02-2.59672E+01 2.09428E+03 6.75712E+00 1.01578E+01
 -1       134 7.07492E+03 6.24764E+02 4.17901E+01 2.17635E+03 1.12367E+01 2.37383E+01
 -1       135 4.99542E+03 8.09180E+02-2.94115E+01 2.04242E+03-2.79827E+00-1.06959E+01
 -1       136 5.71670E+03 7.72370E+02 1.69829E+01 2.19033E+03-3.46080E+01-1.95169E+01
 -1       137 6.01458E+03 7.78095E+02 2.91388E+01 2.11557E+03-2.97585E+00 7.89899E+00
 -1       138 6.31254E+03 7.25756E+02 2.32328E+00 2.14806E+03 1.96117E+00 1.82285E+01
 -1       139 5.72403E+03 7.33836E+02 5.30260E+00 2.17271E+03 3.91119E+00 1.03290E+01
 -1       140 3.79382E+03 8.97128E+02 4.56697E+00 1.81191E+03 7.13138E-01 9.35126E+00
 -1       141 4.46455E+03 8.46108E+02-1.36463E+00 2.01228E+03-1.21618E+01-4.98194E+00
 -1       142 4.74917E+03 8.72552E+02 1.74389E+01 1.97375E+03 4.54726E-01-3.67791E+00
 -1       143 5.03693E+03 8.80414E+02 3.66628E+00 2.06011E+03-1.05409E+01-5.11486E+00
 -1       144 4.43962E+03 8.53241E+02 8.94137E+00 2.00014E+03 4.03714E+01 1.68933E+01
 -1       145 2.79541E+03 8.28248E+02-1.25253E+01 1.50245E+03 1.75325E+01-1.91194E+01
 -1       146 3.30613E+03 8.65047E+02 1.37452E+01 1.72855E+03-2.25935E+01-3.43225E+00
 -1       147 3.53896E+03 8.51266E+02-5.30819E+00 1.69999E+03 3.81320E+00 2.41342E+01
 -1       148 3.85417E+03 8.46747E+02-2.70609E+01 1.80805E+03-3.67654E+00 2.03471E+01
 -1       149 3.30901E+03 7.84128E+02-2.73860E+00 1.70578E+03 2.28290E+01 2.06530E+01
 -1       150 1.87485E+03 6.88290E+02 3.25641E+01 1.07062E+03 5.95379E+00-2.62517E+01
 -1       151 2.29465E+03 6.74404E+02-3.17152E+01 1.31580E+03-2.21202E+01-1.23308E+01
 -1       152 2.54076E+03 7.63163E+02-5.84676E+00 1.35368E+03 8.74462E+00-2.23103E+01
 -1       153 2.74971E+03 8.12368E+02 1.65241E+01 1.45904E+03 7.78316E+00 1.91826E+00
 -1       154 2.34884E+03 7.66795E+02 3.76779E+01 1.34965E+03 3.30676E+01 5.26742E+00
 -1       155 1.04514E+03 4.34576E+02-2.12552E+00 6.39170E+02 5.00630E+00-8.04694E+00
 -1       156 1.38590E+03 5.08065E+02-4.02104E+00 8.87672E+02-2.77012E+01-6.30732E+00
 -1       157 1.68876E+03 5.30831E+02 1.60399E+01 9.98399E+02-1.24230E+01 1.53671E-01
 -1       158 1.77977E+03 6.47527E+02-7.00569E+00 1.06598E+03-6.37088E+00 4.36819E+01
 -1       159 1.47227E+03 4.79294E+02-2.48581E+01 9.04239E+02 1.09964E+01 1.01959E+01
 -1       160 7.96844E+02 3.31014E+02-9.05214E+00 5.29848E+02 1.61293E+00 1.13041E+00
 -1       161 1.02670E+03 4.23048E+02-1.01425E+00 6.23623E+02-1.04775E+00 1.99594E+01
 -1       162-7.76353E+03-4.08183E+02-9.90732E+00-1.61727E+03-6.66069E+00 1.12796E+01
 -1       163-6.15280E+03-6.39113E+02 5.18313E+00-1.81051E+03-5.64586E+00-3.04798E+01
 -1       164-4.97073E+03-7.05410E+02 6.42481E-02-1.82809E+03-1.66684E+00-2.49626E+00
 -1       165-3.87903E+03-7.16515E+02 5.17196E+00-1.65514E+03 4.36265E+00 8.19735E+00
 -1       166-3.08498E+03-5.82294E+02 4.02473E-01-1.37428E+03 3.45151E+00 2.15527E+00
 -1       167-2.17655E+03-4.40354E+02 5.39051E-01-1.02609E+03-1.46819E+01-6.87955E+00
 -1       168-1.13753E+03-3.22032E+02 2.91425E+01-6.03724E+02-7.40470E-02 2.00417E+00
 -1       169-1.03539E+04 1.58767E+02-9.33600E+01-1.62082E+02-1.60117E-01-5.70414E-01
 -1       170-4.03761E+02-3.71019E+01 1.69072E+00-1.30515E+02 4.11012E-02-2.92465E-01
 -1       171-8.70889E+03-1.95296E+02 2.13481E+01-1.20481E+03 1.84276E+00-6.67710E+00
 -1       172-1.03306E+04-7.74253E+02-1.70394E+03 9.77470E+01-2.56568E+02 5.47337E+02
 -1       173-1.03316E+04-7.75267E+02-1.70458E+03 9.73739E+01 2.56930E+02-5.47400E+02
 -1       174-9.53147E+03 6.32763E+01 2.50002E+02-6.17380E+02 1.18424E+02-1.06435E+02
 -1       175-9.52868E+03 6.46631E+01 2.51607E+02-6.15257E+02-1.20322E+02 1.03946E+02
 -1       176-2.13692E+02 1.82756E+00 7.49925E+00-4.44368E+01 3.67433E-01 8.70887E-01
 -1       177-2.14193E+02 1.67117E+00 7.42308E+00-4.44254E+01-3.62493E-01-8.65791E-01
 -1       178-5.56648E+02-8.42766E+01 1.64917E+01-2.55716E+02 1.12493E+00-8.85866E+00
 -1       179-5.58732E+02-8.39667E+01 1.65222E+01-2.55933E+02-1.35372E+00 7.48217E+00
 -1       180-8.95474E+03-1.58351E+02-1.60047E+01-1.02150E+03 2.65365E+01-3.80641E+01
 -1       181-8.28544E+03-2.43976E+02 7.70597E+01-1.32614E+03 1.74068E+01 2.53380E+01
 -1       182-9.17815E+03-1.39170E+02-6.37466E+01-8.67602E+02-2.89732E+00-2.93345E+00
 -1       183-8.96860E+03-1.44295E+02-1.06801E+01-1.02377E+03-2.59927E+01 2.80644E+01
 -1       184-7.85172E+03-2.75800E+02 3.18016E+01-1.53414E+03 2.76535E-01 1.93818E+01
 -1       185-6.98145E+03-4.45658E+02 2.81232E+01-1.65252E+03 2.12805E+01 7.78195E+00
 -1       186-7.89374E+03-3.57927E+02-6.95211E-01-1.48683E+03 7.91932E+00-3.85857E+00
 -1       187-7.88579E+03-2.99998E+02 8.76718E+01-1.42142E+03 9.60567E-01 1.96239E+01
 -1       188-8.21395E+03-2.94022E+02 4.86157E+01-1.30036E+03-7.64217E+00-4.83918E+00
 -1       189-6.61583E+03-5.47729E+02-1.25291E+01-1.78336E+03-1.87608E+01-8.30518E+00
 -1       190-5.81302E+03-6.63427E+02 1.18300E+01-1.81636E+03 2.25820E+00 1.52849E+00
 -1       191-7.23121E+03-4.80024E+02 3.69492E+01-1.69736E+03-3.57799E+01 1.19447E+00
 -1       192-6.89787E+03-4.52509E+02 3.42267E+01-1.71139E+03-3.71937E+00-1.20858E-01
 -1       193-6.46313E+03-4.55104E+02 3.02680E+01-1.77673E+03 2.36204E+01-2.00009E+01
 -1       194-5.28889E+03-6.60297E+02-8.25579E+00-1.85362E+03 2.25764E+00 1.08634E+01
 -1       195-4.68845E+03-6.88016E+02 3.49126E+01-1.76794E+03 1.45679E+01 1.70114E+01
 -1       196-5.80869E+03-6.20368E+02 1.73992E+01-1.79607E+03-3.61119E+01-2.98334E+01
 -1       197-5.52151E+03-6.18095E+02 3.03140E+01-1.88813E+03-5.28834E+00 1.68307E+00
 -1       198-5.26125E+03-6.47299E+02 4.00365E+00-1.85333E+03-1.08214E+01 8.21374E-01
 -1       199-4.13806E+03-6.67617E+02 2.48844E+01-1.71274E+03 6.72884E+00 2.66177E+01
 -1       200-3.61603E+03-7.46232E+02-1.02179E+01-1.52697E+03 9.60085E+00 5.46274E+00
 -1       201-4.63149E+03-6.91694E+02 6.66862E+00-1.72217E+03-1.07151E+01-4.56506E+00
 -1       202-4.43440E+03-6.41261E+02 3.32017E+01-1.70646E+03-2.13936E-02 1.18005E+01
 -1       203-4.18985E+03-7.04476E+02-2.34041E+01-1.70566E+03-7.90557E+00-9.39601E+00
 -1       204-3.23518E+03-6.11913E+02 1.23717E+00-1.42341E+03 2.90956E+00 4.04353E+01
 -1       205-2.72145E+03-5.16796E+02 5.35806E+01-1.24879E+03 1.41143E+01 1.00404E+00
 -1       206-3.61317E+03-6.84355E+02 3.56405E+01-1.55273E+03-1.02929E+01-1.45311E+01
 -1       207-3.30060E+03-6.77096E+02 4.29317E+01-1.46495E+03-1.18302E+00-9.36951E+00
 -1       208-3.21552E+03-6.06854E+02 3.88500E+00-1.42777E+03-5.93654E+00-1.72136E+01
 -1       209-2.27775E+03-4.59214E+02 3.05166E+01-1.07466E+03-9.00287E-01 1.49294E+01
 -1       210-1.83112E+03-3.82672E+02 1.45928E+01-8.82611E+02 1.34036E+01 2.15439E+01
 -1       211-2.69110E+03-6.30785E+02-2.39416E+01-1.22161E+03-5.76993E+00-1.64992E+01
 -1       212-2.42645E+03-5.84198E+02 2.31378E+01-1.14050E+03 8.67458E-01 2.50117E+00
 -1       213-2.32826E+03-4.98508E+02-7.35116E+00-1.10228E+03-1.11144E+01-4.98051E+01
 -1       214-1.39847E+03-3.59931E+02-2.13910E+01-7.08185E+02 1.11837E+01 1.90321E+01
 -1       215-9.81650E+02-2.47589E+02 4.17525E+00-4.73049E+02 7.35861E+00-2.80603E+00
 -1       216-1.78798E+03-4.32580E+02 2.74483E+01-8.56275E+02-1.77060E+01-5.92767E+00
 -1       217-1.67608E+03-3.64825E+02-2.58916E+01-7.83463E+02-1.79364E+00-1.41761E+00
 -1       218-1.43964E+03-3.29085E+02 6.87126E+00-7.19895E+02 5.76208E-01 4.18152E+00
 -1       219-9.67358E+02-2.51620E+02 2.73611E+00-4.71537E+02-6.82317E+00 8.78863E-01
 -1       220-7.71997E+02-1.49739E+02 8.33161E+00-3.59954E+02-4.38314E-01-2.16225E+00
 -1       221-1.65957E+02 2.63864E+02 1.30933E-01 1.87209E+02 3.64416E+00-1.73015E+00
 -1       222-4.05379E+02-1.32671E+02-2.83373E+01 3.17059E+02-1.02554E+01 5.66305E+00
 -1       223-3.96288E+02-4.51465E+01-4.62140E+01 2.14970E+02-5.26982E+00-4.20917E+00
 -1       224-2.82322E+02 4.12153E+01-1.42216E+01 2.40785E+02 7.26681E+00 5.82588E-01
 -1       225-2.59853E+02 1.29674E+02 4.43748E+00 2.60750E+02 7.54340E-01-1.07579E+01
 -1       226-2.04070E+02 1.51039E+02-1.19303E+01 2.02891E+02 5.86573E+00-2.30753E+00
 -1       227-4.32746E+02-2.48604E+02-3.96806E+00 2.62448E+02-2.53903E+02-1.80642E+01
 -1       228-2.17919E+02 2.01442E+02-2.06521E+01 2.12471E+02-2.69942E+00-3.17167E+00
 -1       229-1.71257E+02 2.12297E+02 6.82691E-01 1.88897E+02-3.92369E+00-5.29008E+00
 -1       230-1.62527E+02 2.68453E+02 6.60037E+00 1.92644E+02 3.82611E+00 6.12906E-01
 -1       231-5.71695E+03-1.30864E+03-1.61518E+03-1.69486E+01 1.69112E+02-5.77949E+02
 -1       232 5.72582E+03 1.01837E+03 1.54268E+03 1.13226E+02 1.49331E+02 6.07581E+02
 -1       233 4.93763E+03-2.15509E+02-2.37297E+02 6.01180E+02-2.04378E+02-1.39252E+02
 -1       234-4.88613E+03-4.23569E+01 2.69381E+02-2.79802E+02-1.81889E+02 1.42585E+02
 -1       235-6.22007E+01 2.00290E+02 1.39424E-01 1.84047E+02-5.23442E+00-2.43950E+01
 -1       236-1.43006E+02 2.02619E+02-8.93396E-02 1.13565E+02 1.83859E+01 1.73490E+01
 -1       237 2.25030E+02 2.89603E+02-4.38234E+01 3.56913E+02-1.49071E+01-2.37055E+01
 -1       238-4.38901E+02 1.22173E+02 4.38500E+01-4.94166E+01 1.30256E+01 2.44064E+01
 -1       239 4.84638E+03 3.26087E+00-1.36610E+01 8.11146E+02-1.08384E+01-1.90617E+01
 -1       240 4.27981E+03 1.20877E+02-6.10380E-01 1.05804E+03-1.23476E+01-2.75450E+01
 -1       241 1.17179E+02-7.93024E+01 2.13116E+01 2.29831E+02 2.34657E+01-3.45183E+00
 -1       242-4.83226E+03-1.45774E+02-4.92111E+00-2.70070E+02 1.85683E+01 1.90817E+00
 -1       243 4.04192E+03 1.27470E+02 2.99162E+01 1.10301E+03-3.25639E+01-3.06966E+01
 -1       244 3.53892E+03 3.05504E+02-1.04209E+01 1.17453E+03-1.92909E+01-1.54675E+01
 -1       245-3.84099E+01-3.93594E+01 1.94693E+01 2.58004E+02 2.53060E+01-1.16263E+01
 -1       246-4.36179E+03-1.99575E+02 1.55974E+01-5.39384E+02 3.45264E+01 4.08897E+01
 -1       247-4.13610E+03-8.68916E+01 2.00641E+01-6.10358E+02-7.32308E+00-3.22935E+00
 -1       248 3.43011E+03 3.13184E+02-1.05800E+01 1.21232E+03-5.00793E-01-4.17843E+01
 -1       249 2.90519E+03 4.54587E+02 1.38081E+01 1.20109E+03-5.19045E+00-1.38138E+01
 -1       250-4.08906E+01 5.05519E+01 3.07652E+00 2.53598E+02-8.92312E-01 1.45263E+01
 -1       251-3.71567E+03-2.72339E+02-4.34178E+01-7.20464E+02 8.09663E+00 9.14808E+00
 -1       252-3.59701E+03-1.98144E+02 3.49852E+01-7.41713E+02 4.97925E+00 3.78092E+01
 -1       253 2.71804E+03 4.33763E+02-6.13345E+00 1.24475E+03-4.37701E+01-1.84980E+01
 -1       254 2.24891E+03 5.49602E+02 4.86583E+00 1.16623E+03 4.71498E+00-3.76768E+01
 -1       255-5.52604E+01 1.20397E+02 2.95699E+00 2.21614E+02-7.87060E+00 3.75557E+01
 -1       256-3.04893E+03-2.88898E+02-2.56067E+01-7.79396E+02 3.21095E+01 6.26047E+01
 -1       257-2.88915E+03-2.14089E+02 1.36906E+01-7.69900E+02-1.37242E-01 1.53917E+01
 -1       258 2.11347E+03 4.83012E+02-3.50074E+01 1.14762E+03-2.35427E+01-3.39018E+01
 -1       259 1.64537E+03 5.59553E+02 1.48186E+01 9.85788E+02-7.57528E+00-2.56262E+01
 -1       260-1.22114E+02 1.07788E+02 9.43036E+00 1.86772E+02 1.47407E+01-1.98614E+01
 -1       261-2.47147E+03-2.98809E+02 6.15892E+00-7.36589E+02 3.03146E+01 8.22374E+00
 -1       262-2.25519E+03-1.97709E+02 3.28488E+01-7.62439E+02 2.56846E+01 3.24146E+01
 -1       263 1.51241E+03 5.39666E+02 2.06262E+01 9.86937E+02-3.04286E+01-4.48638E+00
 -1       264 1.24683E+03 5.51795E+02-3.08301E+01 8.37157E+02 2.01407E+01-2.81987E+01
 -1       265-1.06479E+02 1.54263E+02 5.80373E+00 1.74613E+02-2.63864E+01-2.58511E+01
 -1       266-1.89009E+03-2.64483E+02-1.79430E+01-6.22897E+02-7.68843E+00 1.78739E+01
 -1       267-1.76547E+03-1.87884E+02-3.60064E+01-6.09731E+02-1.90061E+01 1.60772E+01
 -1       268 1.07183E+03 4.67211E+02-6.81478E-01 7.95662E+02-3.22125E+01-2.81869E+00
 -1       269 7.88030E+02 4.73413E+02-2.92495E+00 6.21834E+02 1.43915E+01-2.85772E+01
 -1       270-1.40809E+02 1.62109E+02-3.79464E+01 1.60525E+02 1.52013E+01-1.54014E+01
 -1       271-1.49864E+03-1.86598E+02 1.00925E+01-4.91494E+02 1.53138E+01 2.16142E+00
 -1       272-1.26801E+03-9.44805E+01-4.45284E+00-4.42384E+02-5.54021E+00 1.53609E+00
 -1       273 6.29470E+02 3.70319E+02 3.58180E+00 5.71622E+02-3.62229E+01-8.51811E+00
 -1       274 3.54260E+02 3.79206E+02 4.34095E+01 3.96977E+02-1.21010E-01-2.75012E+01
 -1       275-8.61795E+01 1.86582E+02 2.40651E+01 1.69690E+02-8.54983E+00 3.94574E+00
 -1       276-1.03065E+03-1.20132E+02 9.15332E+00-3.08933E+02 1.29345E+01-4.64354E-01
 -1       277-8.23936E+02 1.97523E+01 1.84940E+00-2.29938E+02 1.39386E+01 1.99557E+01
 -1       278-1.25670E+02 2.26731E+02-5.75012E-01 1.68618E+02 3.68272E+00-1.76630E+00
 -1       279-5.83208E+02 4.03177E+01-4.33099E+01-8.73594E+01 1.99302E+01 2.28816E+01
 -1       280-4.32858E+02-2.48399E+02-3.45273E+00 2.61583E+02 2.53710E+02 1.80071E+01
 -1       281-3.85271E+02-1.22510E+01 9.20472E+00 2.65025E+02-3.57049E+00-2.88204E+00
 -1       282-3.29201E+02 4.06702E+01-2.68043E+01 2.47881E+02 5.64876E+00-6.94935E+00
 -1       283-1.86931E+02 1.06198E+02-1.43413E+01 2.30839E+02 1.54071E+00 4.18830E-01
 -1       284-2.37179E+02 1.88219E+02 1.02315E+01 2.31461E+02-2.34432E+00 6.12428E+00
 -1       285-1.87486E+02 1.88511E+02-1.38037E-01 1.91837E+02-6.47157E+00 6.57040E+00
 -1       286-2.35382E+02 2.17540E+02 1.67963E+00 1.79789E+02 1.25836E+01-9.92149E-01
 -1       287-1.81838E+02 2.46605E+02 4.35372E+00 1.74448E+02-4.97620E-01-7.19691E+00
 -1       288-1.65480E+02 2.63332E+02 1.93467E-01 1.87022E+02-3.54734E+00 1.61711E+00
 -1       289-4.28199E+02-1.24990E+02-3.74044E+01 2.81375E+02-3.30790E+00-2.91926E+00
 -1       290 5.72517E+03 1.01842E+03 1.54252E+03 1.13167E+02-1.49331E+02-6.07571E+02
 -1       291-5.71619E+03-1.30794E+03-1.61441E+03-1.68311E+01-1.68684E+02 5.78135E+02
 -1       292 4.94143E+03-2.14671E+02-2.37108E+02 5.99486E+02 2.04696E+02 1.40703E+02
 -1       293-4.88966E+03-4.55404E+01 2.67837E+02-2.82315E+02 1.80271E+02-1.44458E+02
 -1       294-1.43237E+02 2.02553E+02-2.30917E-01 1.13457E+02-1.83832E+01-1.72177E+01
 -1       295-6.18549E+01 2.00564E+02 4.21819E-01 1.84291E+02 5.03096E+00 2.42722E+01
 -1       296 2.24657E+02 2.86381E+02-4.38275E+01 3.55394E+02 1.60374E+01 2.44857E+01
 -1       297-4.36106E+02 1.22155E+02 4.41531E+01-4.93091E+01-1.33249E+01-2.56048E+01
 -1       298 4.30264E+03 1.47797E+02 6.29783E+00 1.04212E+03 2.14008E+01 9.31485E+00
 -1       299 4.87118E+03-5.94796E+00-1.29059E+01 7.94089E+02 4.01974E+00 3.38864E+01
 -1       300 1.22395E+02-7.98726E+01 2.12009E+01 2.27886E+02-2.40469E+01 3.73795E+00
 -1       301-4.85264E+03-9.63522E+01 4.45275E+00-2.81977E+02-2.11281E+01-9.41535E+00
 -1       302 3.56070E+03 3.05353E+02-9.76027E+00 1.21894E+03-1.71713E+00 1.03818E+01
 -1       303 4.10693E+03 1.45862E+02 2.61951E+01 1.09274E+03 3.36771E+01 2.87918E+01
 -1       304-4.24251E+03-1.90330E+02-2.71263E+01-5.80142E+02 1.05313E+01-4.46735E+00
 -1       305 6.07498E+00-5.78540E+01 8.18628E+00 2.33304E+02 1.35795E+01-2.16312E+01
 -1       306-4.35287E+03-2.34986E+02-1.67513E+01-5.47842E+02 3.05060E+00-4.18151E+01
 -1       307 2.86433E+03 4.50141E+02 1.08433E+01 1.22403E+03 2.54310E+00 1.36568E+01
 -1       308 3.25014E+03 2.84979E+02-1.50970E+01 1.22358E+03 1.65822E+01 2.02016E+01
 -1       309-3.72892E+03-2.52526E+02 3.82325E+01-7.41388E+02-3.13416E+01-1.94402E+01
 -1       310-4.79201E+01 4.15959E+01 3.56927E+01 2.35199E+02-2.04428E+01 3.66162E+00
 -1       311-3.47244E+03-1.58188E+02-1.22094E+01-7.47087E+02 1.93723E+01-1.37101E+01
 -1       312 2.28285E+03 5.48569E+02 1.47344E+01 1.14686E+03 1.02056E+01 1.14242E+01
 -1       313 2.72088E+03 4.11552E+02-2.91130E+01 1.21963E+03 2.64099E+01 6.86241E+01
 -1       314-3.05940E+03-2.89049E+02-1.29479E+01-7.66427E+02-4.53778E+01-4.37413E-01
 -1       315-5.40028E+01 1.20445E+02 1.27601E+00 2.14841E+02-1.28320E+01 4.00293E+01
 -1       316-2.86891E+03-2.21041E+02 1.37785E+01-8.14819E+02-8.22909E+00-1.63302E+01
 -1       317 1.71987E+03 5.67751E+02 3.55733E+00 1.00803E+03-1.51282E+01 3.74472E+01
 -1       318 2.10218E+03 5.13623E+02 9.94360E+00 1.14059E+03 4.03076E+01 7.71158E+00
 -1       319-2.44118E+03-2.93461E+02-2.35768E+01-7.32125E+02-5.31684E+00-3.11441E+01
 -1       320-7.29408E+01 1.43233E+02-2.64965E+00 2.05284E+02 4.17021E+00-1.93636E+01
 -1       321-2.29972E+03-2.06105E+02 8.29797E+00-7.06824E+02-6.60654E+00-1.19127E+01
 -1       322 1.17603E+03 5.27845E+02 1.33400E+01 7.98265E+02 4.74873E+00 2.25270E+01
 -1       323 1.58226E+03 4.75775E+02-1.91188E+01 9.99315E+02 2.66974E+01 1.14614E+01
 -1       324-1.93155E+03-2.48870E+02 3.98220E+00-6.24034E+02-2.68462E+01-1.58456E+01
 -1       325-6.89333E+01 1.59818E+02-3.09014E+01 1.94066E+02-2.02840E+01 4.49132E+00
 -1       326-1.78904E+03-1.72690E+02-3.70522E+01-6.33214E+02-1.17450E+01-2.19643E+01
 -1       327 7.46500E+02 4.73269E+02-3.39804E+01 6.17836E+02-1.90189E+01 2.13693E+01
 -1       328 1.06110E+03 5.23968E+02 4.64024E+01 7.96306E+02 3.97398E+01 6.55091E+00
 -1       329-1.40226E+03-1.97918E+02-1.42489E+01-4.65365E+02 1.06818E+01-7.85968E+00
 -1       330-1.08108E+02 1.59912E+02 1.63950E-01 1.54505E+02 2.38667E+01 2.35298E+01
 -1       331-1.28511E+03-9.83141E+01 2.25856E+00-4.58079E+02 1.86251E+01-2.27298E+01
 -1       332 3.63545E+02 3.85508E+02 6.05688E+01 3.84313E+02 1.08433E+01 2.33427E+01
 -1       333 6.76142E+02 3.88510E+02-1.50142E+01 5.87931E+02 7.24347E+00 1.47054E+01
 -1       334-1.01400E+03-8.94762E+01-6.07517E+00-2.90962E+02 4.37453E+00-1.61144E+01
 -1       335-9.19116E+01 1.91823E+02 1.46152E+01 1.70515E+02-2.78531E+01-2.99774E+01
 -1       336-9.00847E+02 6.27259E-01 2.03867E+01-2.68425E+02-2.90971E+01-3.02395E+01
 -1       337-5.63121E+02 3.72772E+01-4.26074E+01-7.72631E+01-2.43629E+01-3.37005E+01
 -1       338-1.25690E+02 2.20381E+02-1.24381E+00 1.65698E+02-2.48281E+00 1.79883E+00
 -1       339-5.12648E+02-2.70825E+02-6.79630E+01 2.64976E+02-2.11632E+00 3.63098E-01
 -1       340-1.39284E+02 2.27033E+02-1.29136E+00 1.69998E+02 1.17385E+00-1.21448E+00
 -1       341 1.20564E+01-1.10288E+02-4.92111E+01 1.75577E+02 2.95084E+00 1.70966E+01
 -1       342-6.73298E+01-4.56424E+01-1.24027E+01 2.09002E+02 5.48811E-01-1.16593E+01
 -1       343-4.26658E+03-2.70256E+02-1.91321E+01-6.40022E+02-1.09386E+01 7.83613E+00
 -1       344 4.02970E+03 1.43029E+02 8.09060E+00 1.08525E+03-1.22639E+01 1.93196E+01
 -1       345 4.23194E+03 8.01606E+01 2.78175E+00 1.03360E+03 3.97246E-02-8.47299E+00
 -1       346-2.63429E+03-2.82325E+02 1.62073E+00-7.81126E+02 2.79880E+00 2.53702E+00
 -1       347-2.63163E+03-3.02594E+02-1.77722E+01-8.14166E+02-3.44334E+00-2.72388E+01
 -1       348-1.89303E+02 1.01096E+02-1.06618E+01 2.45522E+02-4.79201E+00-4.40241E+00
 -1       349-2.51224E+03-3.33927E+02-3.53023E+01-7.74477E+02 4.92638E+00 1.59525E+00
 -1       350-1.12691E+02 8.36493E+01 1.90582E+01 2.17366E+02-1.21573E+00-8.98854E+00
 -1       351 2.94084E+03 4.20377E+02 2.14813E+01 1.22040E+03-6.72920E-01 9.47464E+00
 -1       352-3.22386E+03-2.90416E+02 6.65384E+00-7.82395E+02-4.05099E+00-6.87762E+00
 -1       353-2.64445E+02 3.96726E+01 1.95061E+01 1.67156E+02 7.70655E+00-6.77054E-01
 -1       354 2.70054E+03 3.90931E+02-1.64103E+01 1.20918E+03-3.04207E+00 1.87016E+00
 -1       355 4.63919E+03 9.06345E+00 1.40047E+01 8.96872E+02-1.41048E+01-1.01690E+01
 -1       356 4.67635E+03-1.85005E+01 1.90017E+01 8.69719E+02 1.40347E+01 3.12024E+01
 -1       357-3.89602E+02-1.59113E+02-3.28938E+01 2.97969E+02-1.57959E+01 1.95547E+00
 -1       358 3.81030E+03 1.57657E+02 1.51966E+01 1.11297E+03-7.18596E+00-8.58197E+00
 -1       359-4.02360E+03-2.26304E+02-4.12465E+01-7.18586E+02 1.20171E+01 4.05244E+00
 -1       360-1.24605E+02-5.26866E+01 2.24566E+00 2.76604E+02 7.38779E+00 1.25719E+01
 -1       361 3.80357E+03 1.69522E+02-1.05221E+01 1.14655E+03 8.34989E-01-8.69217E+00
 -1       362-4.00598E+03-2.17103E+02 9.86694E+00-6.73784E+02-2.49389E+01 1.23698E+01
 -1       363-2.81259E+03-2.47017E+02 1.98450E+01-7.85083E+02-5.22379E-01 2.87780E-01
 -1       364 2.50357E+03 4.29835E+02-3.85969E+00 1.18147E+03-9.55450E-01-1.30153E+01
 -1       365-1.29322E+02 1.00684E+02 1.69322E+01 2.03368E+02-2.68297E-01-8.49129E-02
 -1       366 2.61695E+03 4.26116E+02-1.14638E+00 1.17736E+03 1.82109E+00 1.07065E+01
 -1       367-8.78923E+01 8.11809E+01 1.80420E+01 2.49981E+02-8.08637E+00 7.52825E+00
 -1       368 3.46712E+03 2.52243E+02-7.54712E+00 1.17289E+03-3.30524E+00 1.20928E+01
 -1       369-3.03297E+02 1.08005E+01-3.89208E+01 2.48152E+02 5.14869E-02-2.09639E+01
 -1       370 3.25306E+03 2.79259E+02-3.94491E+01 1.20027E+03 1.44781E+01 1.20538E+01
 -1       371-3.28268E+03-2.82622E+02-1.28004E+01-7.82983E+02 8.00371E+00-1.75980E+01
 -1       372 5.96649E+00-4.99919E+01-5.41645E+01 1.87867E+02 6.06171E+00-6.10859E+00
 -1       373 1.39802E+03 4.68257E+02 2.91928E+01 8.91333E+02-5.90648E+00 1.67600E+01
 -1       374-1.17282E+02 1.57281E+02 3.55930E+01 1.34229E+02-2.79155E+00 1.69434E+01
 -1       375-1.56436E+03-1.79391E+02-1.94109E+01-6.00542E+02-1.31613E+01-1.43503E+01
 -1       376-6.78690E+01 1.46290E+02 2.33203E+00 1.57750E+02-6.28794E+00-1.61309E+01
 -1       377-3.07352E+03-3.01086E+02-1.85240E+01-7.93052E+02-7.34305E+00-8.90821E+00
 -1       378-4.59050E+03-1.78417E+02-2.93408E+00-4.50371E+02 1.12588E+00 1.21760E+01
 -1       379-4.64679E+03-1.48330E+02-1.04687E+01-4.62536E+02 9.27471E-02-3.01738E+01
 -1       380-4.46360E+03-2.56772E+02-2.88375E+01-5.43925E+02 5.86222E+00-2.36451E+00
 -1       381 3.16835E+03 3.35709E+02-8.94960E+00 1.19273E+03-4.13256E+00-1.76357E+01
 -1       382 3.15170E+03 3.44074E+02-1.02797E+01 1.21445E+03 7.68192E+00 6.66497E-01
 -1       383-2.07700E+03-2.59520E+02 5.63001E+00-7.01273E+02-2.24601E-01-5.01856E+00
 -1       384-1.77510E+02 1.55598E+02 8.75041E-02 2.20231E+02 9.90706E+00 9.51557E-01
 -1       385-2.05424E+03-2.65726E+02-6.26684E+00-7.40547E+02 1.03075E+01 2.68166E+01
 -1       386-2.27954E+03-2.62736E+02-9.53702E+00-7.34902E+02 2.47629E+00-9.71871E+00
 -1       387-6.72268E+01 1.80281E+02 4.72076E+00 1.39072E+02 3.18950E+00 2.00931E+01
 -1       388-2.27192E+01 1.37870E+02-2.21024E+01 1.80668E+02 9.21668E-01 3.03620E+00
 -1       389-1.16481E+03-1.07148E+02 3.79169E+00-4.14056E+02-4.80069E+00 3.38421E+00
 -1       390-9.92928E+02-1.02381E+02-2.59988E+01-3.28341E+02 4.16296E+00 1.17699E+01
 -1       391 8.20964E+02 4.43039E+02-7.61210E+00 6.93054E+02 3.32246E+00 1.92904E+00
 -1       392-5.40291E+01 1.63730E+02-2.69518E+01 1.63762E+02-3.36398E+00-1.31686E+01
 -1       393 1.54945E+03 5.08590E+02 2.64857E-01 9.51615E+02 3.98273E+00 9.42203E+00
 -1       394-1.83707E+03-2.71955E+02-2.57396E+01-6.29493E+02 1.15971E+01 2.04754E+01
 -1       395-3.51585E+01 1.53470E+02-5.25407E+00 1.78231E+02-2.38879E+00 7.57598E+00
 -1       396 1.10116E+03 4.75878E+02 3.79197E+00 7.59580E+02-3.31178E+00-9.34568E+00
 -1       397-1.34566E+03-1.93982E+02-2.92759E+01-4.62348E+02-1.88494E+01-1.83458E+01
 -1       398-9.98801E+01 2.76508E+02 3.58568E+01 2.02004E+02 4.68856E+00-9.57469E+00
 -1       399-8.72251E+02-2.41273E+01-2.96925E+00-2.59768E+02 7.44687E+00 1.86400E+01
 -1       400 4.98853E+02 3.61796E+02-1.91044E+01 4.69188E+02-6.08725E+00-9.22504E+00
 -1       401-9.96336E+01 2.08713E+02 2.11098E+01 1.25037E+02 1.26348E+00 3.04653E+00
 -1       402 5.03855E+02 3.40597E+02-2.37210E+01 4.42746E+02 1.62948E+01 9.72125E+00
 -1       403 9.35529E+02 4.68211E+02-1.85259E+00 7.10455E+02-7.99917E-01 8.48627E+00
 -1       404-1.12554E+03-9.26657E+01-7.23672E+00-3.94034E+02-6.87019E-01-1.14724E+01
 -1       405-1.41300E+03-1.70318E+02 8.60035E+00-4.71230E+02 1.23547E+01 1.22570E+01
 -1       406-1.21561E+02 1.63587E+02 1.20206E+01 1.15044E+02-5.67070E-01 9.22598E-03
 -1       407 2.31159E+03 5.01613E+02 9.12594E+00 1.15515E+03 7.76469E+00 7.63339E+00
 -1       408-1.92933E+03-2.71828E+02-1.13955E+01-6.45557E+02-9.91355E+00-3.57905E+00
 -1       409-1.64928E+03-1.77622E+02-7.72160E-01-5.70659E+02 6.45691E+00-8.19245E+00
 -1       410 1.34625E+03 5.13397E+02-2.48190E+01 9.25057E+02 5.75056E+00 6.59022E+00
 -1       411-8.13317E+01 1.08101E+02-2.76104E+01 1.90548E+02 8.40052E+00-6.41141E+00
 -1       412 1.92758E+03 4.96508E+02 9.03813E-01 1.06076E+03-1.79839E+00 7.64390E+00
 -1       413-1.86788E+02 1.13505E+02 1.86209E+01 1.59978E+02-6.64293E+00-5.01631E+00
 -1       414 1.99742E+03 4.77595E+02 5.02126E+00 1.06166E+03-8.54379E+00-1.91075E+01
 -1       415 1.79150E+03 5.41397E+02 1.60990E+01 1.00992E+03-2.02500E+00-2.27952E+00
 -1       416-6.12542E+02-1.46782E+01 3.38705E+01-1.88321E+02-1.63496E+01-1.64568E+01
 -1       417-6.51994E+02-6.51537E+00 1.70706E+01-1.95938E+02 4.85288E+00 1.37759E+01
 -1       418-3.79632E+03-2.81858E+02-2.74729E+01-7.58738E+02-1.10624E+01 5.81924E+00
 -1       419-5.51529E+01 1.59026E+02-1.11828E+01 1.90499E+02-7.00174E+00 6.39888E-01
 -1       420 7.32224E+02 4.21434E+02-2.04916E+01 6.03823E+02 4.04575E+00 5.15728E+00
 -1       421-1.19628E+02 1.12312E+01-2.35498E+01 2.30075E+02 1.12341E+01 4.72010E+00
 -1       422 2.13694E+03 5.10969E+02 1.86556E+01 1.13089E+03 1.53482E+00 3.35198E+00
 -1       423-1.08735E+02 7.43918E+01-2.57231E+01 1.88437E+02 4.70187E+00-5.86327E+00
 -1       424 6.11658E+02 3.73403E+02-1.70464E+01 5.59841E+02-8.16111E+00-2.29853E+00
 -1       425 1.28965E+03 5.34124E+02 3.14374E+01 8.29426E+02 6.13978E+00-1.40604E-01
 -1       426-1.50262E+02 2.49005E+02-2.08092E-01 1.77620E+02-1.91756E+00 1.20903E+00
 -1       427-1.92415E+02 1.41432E+02 3.38752E+01 5.20981E+01 7.04390E-02-1.10952E-01
 -1       428-2.84269E+02 1.22171E+02 1.99243E+00 3.46727E+01 2.40028E+00-2.58382E+00
 -1       429 1.05008E+02 2.54223E+02-1.70474E+00 2.48769E+02 3.51290E+00-4.82538E-01
 -1       430-7.54618E+01 1.73761E+02-3.12914E-02 1.33349E+02 3.12557E-01-1.19911E-01
 -1       431 5.10216E+01 1.97697E+02-3.39028E+01 2.07801E+02 1.44238E-01 6.21710E-03
 -1       432-4.54412E+02-2.34310E+02-6.46138E+01 1.26451E+02 3.23128E+02 2.37332E+01
 -1       433-5.36845E+03 2.70931E+01-1.40785E+02-3.55367E+01-1.03615E-01-1.50565E-01
 -1       434-5.48577E+03-8.07932E+01 1.20167E+01 6.38717E+01 1.93283E+02 2.42664E+01
 -1       435 5.41855E+03-2.59265E+02 3.30030E+01 6.30187E+02 1.74382E+02-1.08236E+01
 -1       436 4.54308E+01-1.44858E+02-6.20604E+00 5.79422E+02-4.56301E-01-1.11104E-01
 -1       437 5.23417E+03-2.74991E+02 6.34260E+01 3.85068E+02-1.16551E-01 1.41009E-01
 -1       438-5.48585E+03-8.12329E+01 1.17086E+01 6.42981E+01-1.93597E+02-2.49695E+01
 -1       439-4.54406E+02-2.34405E+02-6.46528E+01 1.26727E+02-3.23158E+02-2.37302E+01
 -1       440 5.41884E+03-2.59124E+02 3.28088E+01 6.30599E+02-1.74861E+02 1.12321E+01
 -1       441-2.84140E+02 1.21779E+02 2.01863E+00 3.45635E+01-2.28070E+00 2.19310E+00
 -1       442-1.50104E+02 2.48815E+02-1.61855E-01 1.77540E+02 2.00269E+00-1.25769E+00
 -1       443 1.05381E+02 2.54131E+02-1.63518E+00 2.48651E+02-3.10650E+00 6.05138E-01
 -1       444-4.68436E+03-2.09027E+02-5.22940E+01-4.39868E+02-2.20450E-01-3.14924E+00
 -1       445-4.30785E+02-2.00652E+02-5.09224E+01 2.73253E+02-1.08110E+01 7.72600E-01
 -1       446-4.24829E+02-2.05240E+02-5.56205E+01 2.85336E+02 1.26181E+00 3.35319E-01
 -1       447 4.64212E+03-7.57868E+01 2.25428E+01 8.02189E+02-3.86932E-01 4.50474E+00
 -1       448-5.25463E+03-1.45258E+02-9.34473E+00-6.65411E+01-1.37611E+00-8.20281E-02
 -1       449 5.09119E+03-2.13004E+02-3.05937E+00 6.08609E+02-1.30541E+00 6.66488E-01
 -1       450-4.50007E+02-2.56670E+02-4.00772E+01 2.55491E+02 5.35230E+01 8.63601E+00
 -1       451-4.50138E+02-2.56624E+02-4.05239E+01 2.56269E+02-5.62225E+01-7.94882E+00
 -1       452-1.48272E+02 2.36539E+02-1.21861E+00 1.78154E+02-3.23196E+00 2.49699E+00
 -1       453-1.36424E+02 2.36860E+02 1.08737E+01 1.77649E+02 6.76593E+00-1.12916E+01
 -1       454-6.10207E+02-4.56404E+01 2.35113E+01-1.92093E+02-3.55502E-01 3.29876E-02
 -1       455 5.07146E+02 3.28737E+02-3.39927E+01 4.24384E+02 2.23942E+00 5.89927E+00
 -1       456-3.44046E+02 6.45804E+01-3.82247E+01-1.29089E+01 6.11987E-01-6.32282E-01
 -1       457 2.02730E+02 2.66501E+02 3.73757E+01 2.72485E+02 9.69919E-01-3.32072E-01
 -1       458-1.45754E+02 2.39612E+02-1.79450E-01 1.74664E+02 1.16320E+01-6.26702E+00
 -1       459-1.45560E+02 2.38949E+02-4.57393E-01 1.74706E+02-1.01152E+01 5.25740E+00
 -1       460-4.93936E+03-2.46554E+02-8.14433E+01-2.68402E+02-4.79283E+01-1.50531E+01
 -1       461 4.87513E+03-5.55586E+01 5.00861E+01 7.02654E+02-9.34012E+00 2.51294E+01
 -1       462-4.93575E+03-2.44552E+02-8.05659E+01-2.69173E+02 4.23316E+01 1.43919E+01
 -1       463 4.86574E+03-5.75804E+01 5.03560E+01 7.03093E+02 6.50381E+00-2.32243E+01
 -1       464-5.02324E+02 6.24171E+01-1.77355E+00-8.33646E+01 5.41271E+00 4.49218E+00
 -1       465 3.12428E+02 3.15181E+02 1.69232E-01 3.75521E+02-1.78862E+00-7.90648E+00
 -1       466 3.10296E+02 3.13424E+02 4.86040E-01 3.73522E+02 5.21149E+00 6.63235E+00
 -1       467-4.99468E+02 6.31969E+01-3.13191E+00-8.16472E+01-3.27681E+00-6.69393E+00
 -3
    1PSTEP                        11           3           1          
  100CL  103 1.000000000         467                     0    3           1
 -4  FORC        4    1
 -5  F1          1    2    1    0
 -5  F2          1    2    2    0
 -5  F3          1    2    3    0
 -5  ALL         1    2    0    0    1ALL
 -1         1-2.51819E+04-1.10583E+04 1.60021E+04
 -1         2-2.51841E+04-1.10589E+04-1.60029E+04
 -1         3 2.31143E+04-1.04198E+04-1.56805E+04
 -1         4 2.31159E+04-1.04222E+04 1.56834E+04
 -1         5 4.83357E-04 7.15370E-05 1.81069E-04
 -1         6 4.82901E-04 7.07949E-05-1.81230E-04
 -1         7-1.44250E-04 4.73944E-04 1.43135E-04
 -1         8-1.44461E-04 4.73629E-04-1.43237E-04
 -1         9-8.10667E+04-2.84408E+04-2.60069E-01
 -1        10 1.71364E+03 1.31723E+04-7.87286E+02
 -1        11 7.51888E+04-2.54902E+04-1.98020E-01
 -1        12 1.71409E+03 1.31737E+04 7.87300E+02
 -1        13 1.45163E-01 1.66666E+03 5.77015E-06
 -1        14 7.36037E-02 1.66674E+03 5.71986E-02
 -1        15 2.86787E-03 1.66681E+03 3.16203E-06
 -1        16 7.36046E-02 1.66674E+03-5.71901E-02
 -1        17 7.38279E-04 3.60335E-04 9.00126E-05
 -1        18 2.80127E-03 1.31053E-03 1.47555E-04
 -1        19 2.12094E-03 1.35991E-03 1.51230E-04
 -1        20 1.90431E-03 1.50984E-03 1.91077E-04
 -1        21 5.15764E-03 4.81767E-03 1.88901E-04
 -1        22 2.66232E-03 2.92461E-03 2.39704E-04
 -1        23 3.05129E-03 3.47966E-03 1.08490E-04
 -1        24 2.39503E-03 2.84049E-03-7.00720E-06
 -1        25 1.26169E-03 1.06112E-03-1.31668E-04
 -1        26 1.46186E-05-6.33915E-04-3.86664E-04
 -1        27 6.48620E-04-4.06473E-03-2.42339E-03
 -1        28 3.17824E-03-1.07384E-02-6.52723E-03
 -1        29 8.48880E-03-2.01030E-02-1.26271E-02
 -1        30 1.69580E-02-3.12549E-02-2.04285E-02
 -1        31 2.82464E-02-4.29890E-02-2.93275E-02
 -1        32 4.11816E-02-5.40965E-02-3.84863E-02
 -1        33 5.39673E-02-6.34311E-02-4.68510E-02
 -1        34 6.42074E-02-7.01068E-02-5.32470E-02
 -1        35 6.99813E-02-7.34556E-02-5.68953E-02
 -1        36 7.39911E-04 3.61432E-04-9.09834E-05
 -1        37 1.08498E-03 6.20396E-04-1.32216E-04
 -1        38 5.57653E-03 3.31050E-03-1.73289E-04
 -1        39 3.79744E-03 2.83653E-03-1.53092E-04
 -1        40 2.07448E-03 1.92115E-03-2.21306E-04
 -1        41 3.81938E-03 4.03671E-03-1.53050E-04
 -1        42 2.35166E-03 2.80420E-03-1.87539E-04
 -1        43 1.58624E-03 1.62163E-03 2.41923E-05
 -1        44 1.26584E-03 1.05931E-03 1.35471E-04
 -1        45 1.45517E-05-6.34039E-04 3.86740E-04
 -1        46 6.44696E-04-4.06027E-03 2.42157E-03
 -1        47 3.18180E-03-1.07516E-02 6.53213E-03
 -1        48 8.48391E-03-2.00974E-02 1.26257E-02
 -1        49 1.69623E-02-3.12417E-02 2.04254E-02
 -1        50 2.82660E-02-4.30411E-02 2.93478E-02
 -1        51 4.12104E-02-5.41071E-02 3.84623E-02
 -1        52 5.38665E-02-6.33997E-02 4.68056E-02
 -1        53 6.42119E-02-7.01195E-02 5.32672E-02
 -1        54 6.99778E-02-7.34481E-02 5.68969E-02
 -1        55 8.44597E-04-4.75341E-05 7.81268E-05
 -1        56 2.19642E-03 5.51543E-04 7.15244E-05
 -1        57 3.89642E-03 1.85932E-03 1.94922E-05
 -1        58 4.26488E-03 2.93265E-03-7.49084E-05
 -1        59 4.03654E-03 3.52601E-03-1.52831E-04
 -1        60 2.03560E-03 2.26231E-03-2.71141E-04
 -1        61 4.54490E-03 6.07555E-03-3.96791E-04
 -1        62 3.54545E-03 5.54704E-03-4.40347E-04
 -1        63 5.33197E-04 1.63578E-03-3.44433E-04
 -1        64-5.10763E-05 6.09528E-04-4.16551E-04
 -1        65-8.34839E-04 3.90842E-03-2.50639E-03
 -1        66-3.44363E-03 1.03701E-02-6.73026E-03
 -1        67-8.75804E-03 1.94747E-02-1.30034E-02
 -1        68-1.71797E-02 3.04066E-02-2.10179E-02
 -1        69-2.84115E-02 4.20610E-02-3.01465E-02
 -1        70-4.12364E-02 5.31064E-02-3.93904E-02
 -1        71-5.38603E-02 6.25254E-02-4.76475E-02
 -1        72-6.42005E-02 6.94805E-02-5.39084E-02
 -1        73-7.00000E-02 7.31827E-02-5.71264E-02
 -1        74 8.41474E-04-4.63629E-05-7.67338E-05
 -1        75 1.76584E-03 4.21471E-04-6.05558E-05
 -1        76 2.87085E-03 1.28209E-03-2.09071E-05
 -1        77 2.12462E-03 1.39437E-03 4.15595E-05
 -1        78 5.97856E-03 5.35197E-03 1.67651E-04
 -1        79 5.21798E-03 5.72425E-03 2.91199E-04
 -1        80 1.58710E-03 2.32914E-03 3.74773E-04
 -1        81 1.89064E-03 3.13952E-03 3.30865E-04
 -1        82 5.26627E-04 1.64861E-03 3.56988E-04
 -1        83-5.09582E-05 6.09340E-04 4.16420E-04
 -1        84-8.28830E-04 3.91362E-03 2.50738E-03
 -1        85-3.44287E-03 1.03871E-02 6.73941E-03
 -1        86-8.75531E-03 1.94655E-02 1.29974E-02
 -1        87-1.71583E-02 3.03918E-02 2.10029E-02
 -1        88-2.83953E-02 4.20444E-02 3.01389E-02
 -1        89-4.12267E-02 5.31636E-02 3.93936E-02
 -1        90-5.38750E-02 6.25812E-02 4.76708E-02
 -1        91-6.41902E-02 6.94435E-02 5.38714E-02
 -1        92-6.99998E-02 7.31892E-02 5.71231E-02
 -1        93 2.02518E+03-4.54446E+03 2.97227E-03
 -1        94-5.83715E+04 1.31523E+04-3.52736E+03
 -1        95-5.83704E+04 1.31524E+04 3.52520E+03
 -1        96 6.06518E+04 1.43923E+04 3.38326E+03
 -1        97 6.06509E+04 1.43915E+04-3.38269E+03
 -1        98 3.12232E-04 4.63702E-04-2.20697E-07
 -1        99 1.46938E-01 3.33348E+03-1.02661E-04
 -1       100 1.46938E-01 3.33348E+03 1.20207E-04
 -1       101 1.47920E-01 3.33347E+03 6.52288E-06
 -1       102 1.47920E-01 3.33347E+03 1.12104E-05
 -1       103 1.13876E-03 4.13699E-04-1.03155E-06
 -1       104 3.00517E-03 1.39793E-03-4.39651E-06
 -1       105 1.88789E-03 1.27124E-03 1.50133E-06
 -1       106 5.37788E-03 4.00075E-03-7.54412E-06
 -1       107 4.36014E-03 4.02217E-03-1.15084E-05
 -1       108 6.06754E-03 6.76986E-03-9.36140E-06
 -1       109 6.63103E-03 8.69502E-03-3.16677E-05
 -1       110 1.86196E-03 1.88727E-03 7.29783E-05
 -1       111 6.20050E-04 1.53393E-04 4.57265E-08
 -1       112 9.61721E-04 8.66280E-04-1.21220E-07
 -1       113-1.57622E-04-5.89214E-04 3.51352E-05
 -1       114-1.57645E-04-5.89230E-04-3.51357E-05
 -1       115-1.26422E-04-2.00867E-03-2.15267E-05
 -1       116-1.26168E-04-2.00853E-03 2.13214E-05
 -1       117 1.40815E-01-1.47469E-01-1.61451E-04
 -1       118 1.40817E-01-1.47469E-01 1.67326E-04
 -1       119 1.38293E-01-1.46107E-01-1.44619E-04
 -1       120 1.38294E-01-1.46109E-01 1.51779E-04
 -1       121 1.53913E-03-1.01982E-02 6.43440E-05
 -1       122 4.95839E-04-6.09583E-03 5.32254E-05
 -1       123 4.76831E-04-3.62572E-03 1.27968E-07
 -1       124 4.97323E-04-6.09397E-03-4.94056E-05
 -1       125 8.46324E-03-2.42514E-02 1.32004E-04
 -1       126 1.62678E-03-1.92512E-02 1.09950E-04
 -1       127 3.63055E-03-1.35889E-02-2.23614E-06
 -1       128 2.27492E-03-9.99611E-03-6.10196E-05
 -1       129 3.56097E-03-1.85249E-02-1.26331E-04
 -1       130 2.03641E-02-4.35164E-02 2.29940E-04
 -1       131 1.48210E-02-3.53285E-02 2.04152E-04
 -1       132 6.49361E-03-3.20299E-02 9.22653E-06
 -1       133 6.26895E-03-2.52526E-02-1.26894E-04
 -1       134 1.35109E-02-3.60695E-02-1.98560E-04
 -1       135 3.69871E-02-6.72258E-02 3.25438E-04
 -1       136 2.76252E-02-5.88123E-02 3.19704E-04
 -1       137 2.51505E-02-4.99873E-02 8.82969E-06
 -1       138 1.89512E-02-4.43779E-02-2.34954E-04
 -1       139 2.47064E-02-6.08348E-02-2.85509E-04
 -1       140 6.19409E-02-8.92706E-02 3.77101E-04
 -1       141 4.58907E-02-8.54920E-02 3.91406E-04
 -1       142 4.50889E-02-7.30054E-02-6.67745E-07
 -1       143 3.85396E-02-6.60009E-02-3.12447E-04
 -1       144 4.90119E-02-8.27434E-02-4.09191E-04
 -1       145 8.53058E-02-1.13905E-01 3.89921E-04
 -1       146 7.45346E-02-1.05664E-01 4.96727E-04
 -1       147 6.96213E-02-9.61312E-02 2.86411E-06
 -1       148 6.04569E-02-9.07966E-02-4.21659E-04
 -1       149 7.16064E-02-1.08584E-01-4.68940E-04
 -1       150 1.08653E-01-1.33620E-01 4.65407E-04
 -1       151 9.82734E-02-1.27934E-01 4.92497E-04
 -1       152 9.56736E-02-1.16892E-01-2.67276E-05
 -1       153 8.79705E-02-1.10927E-01-4.16484E-04
 -1       154 1.00771E-01-1.25111E-01-5.14823E-04
 -1       155 1.31217E-01-1.42113E-01 3.00013E-04
 -1       156 1.23405E-01-1.39166E-01 3.38018E-04
 -1       157 1.19453E-01-1.33110E-01 2.14068E-06
 -1       158 1.10785E-01-1.31188E-01-3.88616E-04
 -1       159 1.25230E-01-1.37022E-01-2.95165E-04
 -1       160 1.35972E-01-1.43844E-01 3.61737E-07
 -1       161 1.31239E-01-1.42155E-01-3.02806E-04
 -1       162 4.15333E-03 1.61696E-03-4.02916E-05
 -1       163 6.53932E-03 4.21485E-03 3.06127E-05
 -1       164 2.09467E-03 1.67333E-03-1.86942E-06
 -1       165 2.06244E-03 2.14662E-03 1.34036E-06
 -1       166 4.75610E-03 5.34518E-03 8.85323E-05
 -1       167 3.91554E-03 5.10138E-03-8.82856E-05
 -1       168 7.88108E-04 2.08356E-03 1.90798E-07
 -1       169 6.34821E-04-3.26662E-05-7.33363E-08
 -1       170 4.22212E-04 1.28015E-03-5.13824E-07
 -1       171 1.12074E-03 1.87885E-04 9.47856E-07
 -1       172-1.99852E-04 5.58321E-04-3.56164E-05
 -1       173-1.99878E-04 5.58356E-04 3.56085E-05
 -1       174-3.58619E-04 1.91854E-03 5.11522E-06
 -1       175-3.58897E-04 1.91864E-03-4.83938E-06
 -1       176-1.41211E-01 1.46882E-01-5.27646E-05
 -1       177-1.41211E-01 1.46881E-01 4.78885E-05
 -1       178-1.38870E-01 1.45295E-01 3.12878E-05
 -1       179-1.38872E-01 1.45295E-01-3.40624E-05
 -1       180-1.33647E-03 5.90971E-03-2.21008E-05
 -1       181-2.61885E-03 9.88726E-03-4.17971E-05
 -1       182-3.57122E-04 3.65391E-03-1.52724E-07
 -1       183-1.33746E-03 5.91009E-03 1.80696E-05
 -1       184-8.15087E-03 1.67809E-02-9.35320E-05
 -1       185-8.08905E-03 2.44427E-02-1.12881E-04
 -1       186-6.68454E-03 1.73389E-02 1.03867E-04
 -1       187-3.23292E-03 1.37491E-02 6.60935E-06
 -1       188-1.99847E-03 1.00743E-02 4.03031E-05
 -1       189-1.77625E-02 3.35874E-02-1.48812E-04
 -1       190-2.49276E-02 4.01813E-02-2.40328E-04
 -1       191-1.00251E-02 2.34640E-02 9.28623E-05
 -1       192-1.40179E-02 2.80866E-02 1.54116E-06
 -1       193-1.66444E-02 3.42562E-02 1.63793E-04
 -1       194-3.13397E-02 5.61511E-02-2.47005E-04
 -1       195-3.93834E-02 6.53351E-02-2.70300E-04
 -1       196-2.24496E-02 4.20360E-02 2.00859E-04
 -1       197-2.47201E-02 5.04088E-02-5.49513E-06
 -1       198-3.00636E-02 5.72196E-02 2.64875E-04
 -1       199-5.16375E-02 8.06988E-02-3.40623E-04
 -1       200-6.15288E-02 8.99884E-02-3.57708E-04
 -1       201-3.80344E-02 6.64747E-02 2.98536E-04
 -1       202-4.99586E-02 6.83706E-02 1.33195E-05
 -1       203-5.29060E-02 7.93168E-02 3.20987E-04
 -1       204-7.95906E-02 1.00267E-01-3.91549E-04
 -1       205-8.99294E-02 1.08517E-01-3.25135E-04
 -1       206-6.28438E-02 8.84971E-02 3.54811E-04
 -1       207-6.93054E-02 9.68021E-02-2.87579E-05
 -1       208-8.19772E-02 9.72876E-02 3.06755E-04
 -1       209-1.06837E-01 1.17049E-01-2.95433E-04
 -1       210-1.14227E-01 1.26664E-01-2.51336E-04
 -1       211-8.76189E-02 1.11607E-01 3.74357E-04
 -1       212-9.56420E-02 1.17477E-01 2.25684E-05
 -1       213-1.05043E-01 1.19941E-01 3.71262E-04
 -1       214-1.25504E-01 1.36662E-01-2.19346E-04
 -1       215-1.32193E-01 1.40882E-01-2.16105E-04
 -1       216-1.12397E-01 1.29293E-01 2.73295E-04
 -1       217-1.22458E-01 1.28465E-01-1.16765E-05
 -1       218-1.24886E-01 1.37703E-01 2.53400E-04
 -1       219-1.32210E-01 1.40866E-01 2.18454E-04
 -1       220-1.35789E-01 1.44256E-01-7.25588E-07
 -1       221 5.86407E-04 9.01678E-04 4.07667E-06
 -1       222 1.62037E-03 4.56317E-04 1.17058E-04
 -1       223 3.09940E-03 1.53022E-03 1.10928E-04
 -1       224 5.90282E-03 3.75076E-03 1.32556E-04
 -1       225 3.16541E-03 2.60172E-03 9.53939E-05
 -1       226 8.60310E-03 8.97928E-03 1.18409E-04
 -1       227 4.88144E-04 7.98058E-05 1.04235E-04
 -1       228 1.93465E-03 2.28621E-03-5.65024E-06
 -1       229 1.55500E-03 2.05284E-03-4.85423E-05
 -1       230 1.55795E-03 2.40907E-03-1.31535E-05
 -1       231-3.56342E-04-5.71879E-05-2.97069E-04
 -1       232-4.28784E-04-5.97501E-06-3.03395E-04
 -1       233-1.04221E-03-1.45014E-04-1.13468E-03
 -1       234-9.33665E-04-1.92512E-04-1.13216E-03
 -1       235-8.54518E-04-4.70764E-04-1.14448E-01
 -1       236 1.48202E-04-9.86396E-04-1.14434E-01
 -1       237-1.34221E-03-1.78735E-03-1.12989E-01
 -1       238-7.35361E-04-2.11036E-03-1.13057E-01
 -1       239-1.91001E-03-4.83752E-04-3.60711E-03
 -1       240-3.20488E-03-1.06351E-03-6.10151E-03
 -1       241-1.01078E-03-2.30621E-04-2.12049E-03
 -1       242-1.67440E-03-5.27430E-04-3.61094E-03
 -1       243-3.25725E-03-1.55685E-03-1.11384E-02
 -1       244-4.90035E-03-2.62269E-03-1.53013E-02
 -1       245-5.00748E-03-2.00299E-03-8.37167E-03
 -1       246-2.88577E-03-1.09362E-03-6.10543E-03
 -1       247-2.06439E-03-1.15059E-03-1.10928E-02
 -1       248-5.55820E-03-3.53382E-03-2.27359E-02
 -1       249-6.16129E-03-4.44274E-03-2.84604E-02
 -1       250-5.06201E-03-3.04675E-03-1.87647E-02
 -1       251-6.53055E-03-3.64019E-03-1.52606E-02
 -1       252-6.16736E-03-4.11907E-03-2.27106E-02
 -1       253-3.48538E-03-3.25643E-03-3.79447E-02
 -1       254-6.48269E-03-5.98130E-03-4.47906E-02
 -1       255-3.25834E-03-2.95086E-03-3.29649E-02
 -1       256-5.48079E-03-4.35643E-03-2.83928E-02
 -1       257-5.76231E-03-5.36502E-03-3.79058E-02
 -1       258-7.90485E-03-8.14485E-03-5.56412E-02
 -1       259-7.70222E-03-8.65140E-03-6.31869E-02
 -1       260-8.90187E-03-8.92328E-03-5.01150E-02
 -1       261-5.85241E-03-5.95426E-03-4.48276E-02
 -1       262-5.83533E-03-6.76739E-03-5.56947E-02
 -1       263-4.59828E-03-6.01707E-03-7.40516E-02
 -1       264-2.97361E-03-4.37117E-03-8.12188E-02
 -1       265-2.98686E-03-4.37875E-03-6.85312E-02
 -1       266-5.49706E-03-7.04033E-03-6.31251E-02
 -1       267-2.71321E-03-4.44968E-03-7.41418E-02
 -1       268-2.59091E-03-4.06515E-03-9.12715E-02
 -1       269-2.30760E-03-3.71562E-03-9.71751E-02
 -1       270-7.26429E-03-1.01902E-02-8.62382E-02
 -1       271-3.74958E-03-5.83848E-03-8.13351E-02
 -1       272-3.20445E-03-5.53507E-03-9.13141E-02
 -1       273-1.78618E-03-3.05437E-03-1.04851E-01
 -1       274-2.06953E-03-3.11526E-03-1.08880E-01
 -1       275-5.27003E-03-8.39733E-03-1.01178E-01
 -1       276-2.81917E-03-5.08974E-03-9.73241E-02
 -1       277-2.71968E-03-5.45893E-03-1.04903E-01
 -1       278-9.40224E-04-1.91180E-03-1.11157E-01
 -1       279-1.42539E-03-3.37730E-03-1.08967E-01
 -1       280 4.88193E-04 7.96556E-05-1.04248E-04
 -1       281 1.44646E-03 6.68014E-04-1.30110E-04
 -1       282 2.53515E-03 1.58282E-03-1.03076E-04
 -1       283 8.03055E-03 6.54865E-03-1.28964E-04
 -1       284 3.19930E-03 3.22403E-03-6.49437E-05
 -1       285 5.22384E-03 6.59248E-03-3.47211E-05
 -1       286 1.91759E-03 2.66127E-03 6.89119E-05
 -1       287 3.78806E-03 5.59981E-03 5.18652E-05
 -1       288 5.86076E-04 9.00796E-04-4.92189E-06
 -1       289 4.19092E-03 1.41905E-03-1.13444E-04
 -1       290-4.28826E-04-5.96949E-06 3.03402E-04
 -1       291-3.56295E-04-5.71899E-05 2.97033E-04
 -1       292-1.04255E-03-1.44714E-04 1.13470E-03
 -1       293-9.33464E-04-1.92030E-04 1.13211E-03
 -1       294 1.45909E-04-9.71521E-04 1.14433E-01
 -1       295-8.57411E-04-4.56914E-04 1.14447E-01
 -1       296-1.34276E-03-1.76994E-03 1.12985E-01
 -1       297-7.34752E-04-2.09358E-03 1.13056E-01
 -1       298-3.41010E-03-1.15687E-03 6.13172E-03
 -1       299-1.90800E-03-4.88882E-04 3.60855E-03
 -1       300-1.01103E-03-2.30477E-04 2.12060E-03
 -1       301-1.67329E-03-5.32259E-04 3.60971E-03
 -1       302-3.70183E-03-2.01818E-03 1.52971E-02
 -1       303-2.36443E-03-1.17727E-03 1.11331E-02
 -1       304-2.92715E-03-1.53329E-03 1.11099E-02
 -1       305-2.05173E-03-9.37989E-04 8.34935E-03
 -1       306-3.75989E-03-1.43280E-03 6.08601E-03
 -1       307-5.93058E-03-4.28127E-03 2.84183E-02
 -1       308-5.52311E-03-3.63830E-03 2.27455E-02
 -1       309-2.30033E-03-1.48395E-03 1.52750E-02
 -1       310-8.09681E-03-4.72801E-03 1.88010E-02
 -1       311-2.70543E-03-2.11416E-03 2.26916E-02
 -1       312-6.64325E-03-6.09197E-03 4.48484E-02
 -1       313-6.26238E-03-5.24708E-03 3.79272E-02
 -1       314-2.85802E-03-2.47288E-03 2.84095E-02
 -1       315-3.08418E-03-2.76215E-03 3.29610E-02
 -1       316-5.54649E-03-5.19450E-03 3.79654E-02
 -1       317-6.37843E-03-7.14783E-03 6.30627E-02
 -1       318-3.53278E-03-4.10246E-03 5.56550E-02
 -1       319-1.01493E-02-9.74880E-03 4.48175E-02
 -1       320-3.38641E-03-3.87740E-03 5.01056E-02
 -1       321-5.86380E-03-6.87761E-03 5.56512E-02
 -1       322-6.57748E-03-8.65127E-03 8.14022E-02
 -1       323-3.22783E-03-4.45401E-03 7.41293E-02
 -1       324-5.66573E-03-7.10715E-03 6.31337E-02
 -1       325-8.70385E-03-1.03710E-02 6.85011E-02
 -1       326-4.05787E-03-5.92863E-03 7.41834E-02
 -1       327-2.30669E-03-3.69498E-03 9.71837E-02
 -1       328-3.75642E-03-5.60935E-03 9.11377E-02
 -1       329-4.71574E-03-7.23694E-03 8.13304E-02
 -1       330-2.44508E-03-4.26630E-03 8.62934E-02
 -1       331-2.14331E-03-4.19534E-03 9.12815E-02
 -1       332-2.05393E-03-3.05247E-03 1.08892E-01
 -1       333-3.80909E-03-5.35577E-03 1.04779E-01
 -1       334-3.45592E-03-6.13214E-03 9.73170E-02
 -1       335-1.92857E-03-3.36130E-03 1.01146E-01
 -1       336-4.47761E-03-8.00156E-03 1.05085E-01
 -1       337-1.43327E-03-3.34799E-03 1.08960E-01
 -1       338-9.37161E-04-1.89760E-03 1.11153E-01
 -1       339 2.00077E-03 4.32361E-04 1.37438E-07
 -1       340 2.11669E-03 3.17870E-03-2.04650E-06
 -1       341-6.81773E-03-2.74129E-03 2.12520E-05
 -1       342-7.44161E-03-3.25740E-03 3.88556E-05
 -1       343-6.26638E-03-2.37107E-03-7.10030E-06
 -1       344-5.13132E-03-1.79076E-03-1.59962E-05
 -1       345-8.54131E-03-2.82236E-03-1.43043E-05
 -1       346-3.98080E-03-3.42239E-03 1.09059E-05
 -1       347-6.57052E-03-5.64770E-03 4.09399E-06
 -1       348-8.55152E-03-7.06708E-03 2.71138E-06
 -1       349-8.24632E-03-7.31734E-03 1.94524E-05
 -1       350-9.30848E-03-6.38950E-03-5.30727E-05
 -1       351-8.36067E-03-5.30131E-03-8.86907E-06
 -1       352-1.09896E-02-7.28095E-03 1.10781E-06
 -1       353-1.08440E-02-7.74197E-03-7.11374E-07
 -1       354-8.46077E-03-5.76306E-03-3.11781E-05
 -1       355-2.51906E-03-6.15390E-04 1.27150E-05
 -1       356-3.26863E-03-8.29969E-04-6.43275E-06
 -1       357-3.73731E-03-1.09554E-03 7.36615E-07
 -1       358-4.16814E-03-1.82964E-03-1.53514E-05
 -1       359-5.55973E-03-2.61590E-03 8.45679E-06
 -1       360-3.47467E-03-1.40959E-03-3.83530E-06
 -1       361-3.95349E-03-1.67973E-03-3.19667E-06
 -1       362-3.77875E-03-1.83929E-03-8.13445E-06
 -1       363-7.77409E-03-6.40703E-03-1.19693E-05
 -1       364-5.95757E-03-4.50425E-03-1.02301E-05
 -1       365-9.59621E-03-7.06585E-03 4.29847E-05
 -1       366-1.17698E-02-8.84147E-03-1.63339E-06
 -1       367-4.15509E-03-2.01609E-03-1.45546E-05
 -1       368-7.64027E-03-3.72282E-03 1.71897E-05
 -1       369-5.03327E-03-3.12672E-03-4.94849E-06
 -1       370-8.61226E-03-4.90613E-03-4.33500E-06
 -1       371-5.97695E-03-3.86484E-03 3.80328E-06
 -1       372-6.92892E-03-4.03721E-03-1.30326E-05
 -1       373-8.03816E-03-9.21777E-03-4.00590E-05
 -1       374-1.08632E-02-1.22873E-02-2.35125E-05
 -1       375-4.96684E-03-6.17516E-03-1.88812E-04
 -1       376-1.07024E-02-1.21965E-02 3.78026E-05
 -1       377-7.80429E-03-5.88427E-03 3.57122E-05
 -1       378-2.18082E-03-6.57944E-04 3.74314E-06
 -1       379-2.77944E-03-8.60202E-04-7.26885E-06
 -1       380-5.50574E-03-1.91661E-03 5.48761E-06
 -1       381-6.74072E-03-4.00644E-03 4.59579E-06
 -1       382-4.00806E-03-2.39357E-03-1.29007E-05
 -1       383-4.00410E-03-4.28284E-03-1.76750E-05
 -1       384-8.62670E-03-8.72456E-03-7.72073E-06
 -1       385-6.59510E-03-7.14068E-03 5.59664E-05
 -1       386-9.71062E-03-9.63788E-03 1.29089E-05
 -1       387-8.80441E-03-1.13567E-02 2.18682E-05
 -1       388-8.71748E-03-1.25931E-02 1.69292E-04
 -1       389-4.91574E-03-6.94185E-03-1.45590E-04
 -1       390-2.53938E-03-3.78269E-03-1.48725E-05
 -1       391-5.26993E-03-6.78862E-03 5.22866E-05
 -1       392-4.54966E-03-5.96629E-03-6.34519E-05
 -1       393-1.13444E-02-1.19942E-02 1.77806E-05
 -1       394-7.65116E-03-8.87504E-03-7.32364E-05
 -1       395-5.44505E-03-6.16859E-03 1.88862E-05
 -1       396-9.52070E-03-1.17090E-02-2.30263E-05
 -1       397-6.24575E-03-8.69846E-03 8.96050E-05
 -1       398-2.71132E-03-3.76568E-03 6.01850E-05
 -1       399-7.14580E-03-1.15485E-02-7.11639E-05
 -1       400-3.72379E-03-4.51483E-03 5.74648E-06
 -1       401-2.19072E-03-2.83379E-03-5.64595E-05
 -1       402-4.32101E-03-5.30632E-03-2.09708E-04
 -1       403-5.39139E-03-6.86308E-03-2.29015E-05
 -1       404-3.01133E-03-4.13543E-03 7.49593E-05
 -1       405-1.14203E-02-1.50419E-02-6.96581E-05
 -1       406-9.08955E-03-1.18163E-02 9.75749E-05
 -1       407-1.35010E-02-1.11286E-02-5.33417E-05
 -1       408-1.46190E-02-1.63554E-02 5.66595E-05
 -1       409-4.95961E-03-6.05517E-03 3.21882E-05
 -1       410-5.42316E-03-6.15873E-03-3.54305E-05
 -1       411-4.98945E-03-6.02360E-03-5.12143E-05
 -1       412-6.07645E-03-5.63107E-03 2.31197E-06
 -1       413-1.02595E-02-9.47753E-03 2.42538E-05
 -1       414-9.05212E-03-8.47013E-03-1.64855E-05
 -1       415-1.17286E-02-1.15906E-02-1.40168E-05
 -1       416-2.63000E-03-5.41401E-03-7.00118E-05
 -1       417-2.06098E-03-4.19288E-03 9.37880E-05
 -1       418-4.03539E-03-2.09130E-03 6.33215E-06
 -1       419-5.21690E-03-7.56441E-03 6.09378E-05
 -1       420-7.30355E-03-9.77642E-03-3.91260E-05
 -1       421-1.12545E-02-6.15696E-03-2.51237E-05
 -1       422-6.12953E-03-5.15119E-03-1.76080E-05
 -1       423-1.15277E-02-1.05404E-02 3.34043E-05
 -1       424-5.55373E-03-7.02450E-03-2.31613E-05
 -1       425-7.58902E-03-8.71171E-03 5.52284E-05
 -1       426-3.92509E-04-6.06126E-04-1.13997E-04
 -1       427-2.60240E-04-1.55375E-03 6.44973E-07
 -1       428-6.32756E-04-2.09058E-03 1.30459E-04
 -1       429-1.64516E-03-1.43778E-03 1.28997E-04
 -1       430-9.05135E-04-1.39743E-03 8.69532E-07
 -1       431-1.30495E-03-8.34496E-04 5.87850E-07
 -1       432-3.82995E-04-9.96722E-06 1.82488E-06
 -1       433-6.12649E-04-8.58341E-05-6.36950E-09
 -1       434-9.34610E-04-1.60080E-04-7.59576E-06
 -1       435-1.05685E-03-5.32210E-05 5.99181E-06
 -1       436-7.53855E-04-6.32699E-05 7.29468E-09
 -1       437-6.50748E-04 1.71178E-05 6.22972E-09
 -1       438-9.34733E-04-1.60178E-04 7.68023E-06
 -1       439-3.82997E-04-9.96903E-06-1.82398E-06
 -1       440-1.05672E-03-5.32876E-05-6.04097E-06
 -1       441-6.33424E-04-2.09082E-03-1.28556E-04
 -1       442-3.92813E-04-6.06841E-04 1.14653E-04
 -1       443-1.64493E-03-1.43964E-03-1.26622E-04
 -1       444-1.87423E-03-5.12424E-04-2.88890E-07
 -1       445-2.56693E-03-5.96215E-04-6.24164E-06
 -1       446-2.56760E-03-5.95490E-04 5.66047E-06
 -1       447-2.17532E-03-4.55548E-04-1.20811E-07
 -1       448-1.34199E-03-2.68004E-04 1.67480E-07
 -1       449-1.52715E-03-1.55071E-04-1.15873E-07
 -1       450-1.19649E-03-1.59016E-04-6.40925E-06
 -1       451-1.19638E-03-1.59324E-04 6.41769E-06
 -1       452-2.81278E-03-4.16315E-03 3.99877E-05
 -1       453-2.84095E-03-4.15751E-03-2.89600E-05
 -1       454-1.68133E-03-3.72538E-03-2.44841E-06
 -1       455-2.76731E-03-3.07118E-03-4.88431E-06
 -1       456-1.18068E-03-2.54934E-03 1.36597E-06
 -1       457-1.84016E-03-2.10715E-03 1.46687E-06
 -1       458-1.33193E-03-2.02687E-03-1.39385E-05
 -1       459-1.33011E-03-2.02676E-03 1.52830E-05
 -1       460-2.26367E-03-5.16509E-04-1.95963E-06
 -1       461-2.59263E-03-4.40116E-04-5.85554E-06
 -1       462-2.26264E-03-5.16199E-04 1.92153E-06
 -1       463-2.59307E-03-4.40061E-04 5.45570E-06
 -1       464-2.00636E-03-4.37991E-03-5.01677E-05
 -1       465-3.24964E-03-3.61099E-03-2.58390E-05
 -1       466-3.25827E-03-3.59241E-03 3.11983E-05
 -1       467-1.99207E-03-4.38126E-03 4.79111E-05
 -3
    1PSTEP                        12           3           1          
  100CL  103 1.000000000         467                     0    3           1
 -4  ERROR       1    1
 -5  STR(%)      1    1    0    0
 -1         1 4.07562E+01
 -1         2 4.07551E+01
 -1         3 4.07562E+01
 -1         4 4.07551E+01
 -1         5 1.71277E+01
 -1         6 1.71277E+01
 -1         7 2.98842E+01
 -1         8 2.98842E+01
 -1         9 4.07557E+01
 -1        10 4.07562E+01
 -1        11 4.07557E+01
 -1        12 4.07551E+01
 -1        13 1.71277E+01
 -1        14 2.35060E+01
 -1        15 2.98842E+01
 -1        16 2.35060E+01
 -1        17 3.07000E+01
 -1        18 3.06268E+01
 -1        19 3.05663E+01
 -1        20 3.01489E+01
 -1        21 3.03136E+01
 -1        22 2.99808E+01
 -1        23 3.03509E+01
 -1        24 2.99602E+01
 -1        25 2.91700E+01
 -1        26 3.57276E+01
 -1        27 3.06634E+01
 -1        28 3.05966E+01
 -1        29 3.03576E+01
 -1        30 3.02313E+01
 -1        31 3.01472E+01
 -1        32 3.01658E+01
 -1        33 3.01555E+01
 -1        34 2.95651E+01
 -1        35 2.31489E+01
 -1        36 3.07085E+01
 -1        37 3.00760E+01
 -1        38 3.05663E+01
 -1        39 3.01806E+01
 -1        40 3.02383E+01
 -1        41 3.05589E+01
 -1        42 2.97984E+01
 -1        43 2.97716E+01
 -1        44 2.92558E+01
 -1        45 3.57324E+01
 -1        46 3.03923E+01
 -1        47 3.03212E+01
 -1        48 3.03734E+01
 -1        49 3.02094E+01
 -1        50 3.03986E+01
 -1        51 3.01787E+01
 -1        52 2.97850E+01
 -1        53 2.95137E+01
 -1        54 2.31917E+01
 -1        55 3.07000E+01
 -1        56 3.02863E+01
 -1        57 3.05663E+01
 -1        58 3.01489E+01
 -1        59 3.02331E+01
 -1        60 2.98218E+01
 -1        61 3.03509E+01
 -1        62 2.99602E+01
 -1        63 2.91700E+01
 -1        64 3.57276E+01
 -1        65 3.04932E+01
 -1        66 3.04263E+01
 -1        67 3.03576E+01
 -1        68 3.01910E+01
 -1        69 3.00274E+01
 -1        70 3.00863E+01
 -1        71 3.01555E+01
 -1        72 2.95651E+01
 -1        73 2.95271E+01
 -1        74 3.07085E+01
 -1        75 3.00760E+01
 -1        76 2.96625E+01
 -1        77 2.97826E+01
 -1        78 3.03136E+01
 -1        79 3.05589E+01
 -1        80 2.97984E+01
 -1        81 2.97716E+01
 -1        82 2.92558E+01
 -1        83 3.57324E+01
 -1        84 3.03923E+01
 -1        85 2.98693E+01
 -1        86 2.97226E+01
 -1        87 3.00481E+01
 -1        88 3.04362E+01
 -1        89 3.01787E+01
 -1        90 2.97850E+01
 -1        91 2.95137E+01
 -1        92 2.95700E+01
 -1        93 4.07562E+01
 -1        94 4.07562E+01
 -1        95 4.07557E+01
 -1        96 4.07562E+01
 -1        97 4.07557E+01
 -1        98 2.98842E+01
 -1        99 2.35060E+01
 -1       100 2.35060E+01
 -1       101 2.98842E+01
 -1       102 2.98842E+01
 -1       103 2.42100E+01
 -1       104 3.06268E+01
 -1       105 1.99850E+01
 -1       106 3.01806E+01
 -1       107 3.03136E+01
 -1       108 3.03509E+01
 -1       109 2.99602E+01
 -1       110 2.67815E+01
 -1       111 2.91166E+01
 -1       112 2.75127E+01
 -1       113 3.49359E+01
 -1       114 3.49364E+01
 -1       115 2.99126E+01
 -1       116 2.99083E+01
 -1       117 2.23202E+01
 -1       118 2.23202E+01
 -1       119 2.83842E+01
 -1       120 2.83413E+01
 -1       121 2.74184E+01
 -1       122 2.74550E+01
 -1       123 3.07043E+01
 -1       124 2.74593E+01
 -1       125 3.05966E+01
 -1       126 3.06268E+01
 -1       127 3.03514E+01
 -1       128 2.71430E+01
 -1       129 3.03514E+01
 -1       130 2.50670E+01
 -1       131 2.52756E+01
 -1       132 3.05663E+01
 -1       133 3.05966E+01
 -1       134 2.52756E+01
 -1       135 3.02471E+01
 -1       136 3.01648E+01
 -1       137 3.01648E+01
 -1       138 2.50828E+01
 -1       139 3.01806E+01
 -1       140 3.01472E+01
 -1       141 3.03136E+01
 -1       142 3.02759E+01
 -1       143 3.02094E+01
 -1       144 3.02759E+01
 -1       145 3.03509E+01
 -1       146 3.01658E+01
 -1       147 3.02699E+01
 -1       148 3.04362E+01
 -1       149 3.04549E+01
 -1       150 2.99602E+01
 -1       151 3.01555E+01
 -1       152 3.00747E+01
 -1       153 3.00747E+01
 -1       154 2.98793E+01
 -1       155 2.79758E+01
 -1       156 2.83709E+01
 -1       157 2.98659E+01
 -1       158 2.98659E+01
 -1       159 2.82766E+01
 -1       160 2.92129E+01
 -1       161 2.80186E+01
 -1       162 3.06268E+01
 -1       163 3.03766E+01
 -1       164 1.93306E+01
 -1       165 1.95926E+01
 -1       166 3.00624E+01
 -1       167 2.97984E+01
 -1       168 2.16467E+01
 -1       169 2.91166E+01
 -1       170 2.98842E+01
 -1       171 2.16027E+01
 -1       172 3.49364E+01
 -1       173 3.49359E+01
 -1       174 2.99126E+01
 -1       175 2.99083E+01
 -1       176 2.98842E+01
 -1       177 2.98842E+01
 -1       178 2.95700E+01
 -1       179 2.95271E+01
 -1       180 2.61513E+01
 -1       181 2.59445E+01
 -1       182 3.07043E+01
 -1       183 2.61556E+01
 -1       184 3.04566E+01
 -1       185 3.05966E+01
 -1       186 3.03514E+01
 -1       187 3.01812E+01
 -1       188 2.58394E+01
 -1       189 3.04714E+01
 -1       190 3.02627E+01
 -1       191 3.01447E+01
 -1       192 3.01144E+01
 -1       193 3.00195E+01
 -1       194 2.47398E+01
 -1       195 2.47818E+01
 -1       196 3.00796E+01
 -1       197 2.99658E+01
 -1       198 2.45566E+01
 -1       199 2.49129E+01
 -1       200 2.47072E+01
 -1       201 2.48221E+01
 -1       202 3.02733E+01
 -1       203 2.49531E+01
 -1       204 2.99421E+01
 -1       205 3.02067E+01
 -1       206 2.50758E+01
 -1       207 3.01903E+01
 -1       208 3.03107E+01
 -1       209 3.00747E+01
 -1       210 2.98793E+01
 -1       211 2.99304E+01
 -1       212 3.00747E+01
 -1       213 2.97984E+01
 -1       214 2.58035E+01
 -1       215 2.54084E+01
 -1       216 2.97850E+01
 -1       217 2.98659E+01
 -1       218 2.57092E+01
 -1       219 2.54512E+01
 -1       220 2.92129E+01
 -1       221 2.75127E+01
 -1       222 3.02863E+01
 -1       223 3.06268E+01
 -1       224 3.03766E+01
 -1       225 3.02331E+01
 -1       226 3.05589E+01
 -1       227 4.07551E+01
 -1       228 3.01285E+01
 -1       229 2.96790E+01
 -1       230 2.91700E+01
 -1       231 4.07551E+01
 -1       232 4.07551E+01
 -1       233 3.57276E+01
 -1       234 3.57276E+01
 -1       235 2.23202E+01
 -1       236 2.86984E+01
 -1       237 2.83413E+01
 -1       238 2.83413E+01
 -1       239 3.04932E+01
 -1       240 3.04566E+01
 -1       241 3.07000E+01
 -1       242 3.04932E+01
 -1       243 3.06268E+01
 -1       244 3.05966E+01
 -1       245 3.04566E+01
 -1       246 3.02863E+01
 -1       247 3.04566E+01
 -1       248 3.04714E+01
 -1       249 3.02627E+01
 -1       250 3.05663E+01
 -1       251 3.05966E+01
 -1       252 3.04714E+01
 -1       253 3.01910E+01
 -1       254 3.02733E+01
 -1       255 3.01489E+01
 -1       256 3.02627E+01
 -1       257 3.01910E+01
 -1       258 3.04362E+01
 -1       259 3.02699E+01
 -1       260 3.02733E+01
 -1       261 3.02331E+01
 -1       262 3.03960E+01
 -1       263 3.00547E+01
 -1       264 3.02397E+01
 -1       265 2.99013E+01
 -1       266 3.01903E+01
 -1       267 2.99751E+01
 -1       268 3.00149E+01
 -1       269 2.98196E+01
 -1       270 3.03509E+01
 -1       271 3.02397E+01
 -1       272 3.00149E+01
 -1       273 2.95651E+01
 -1       274 2.91700E+01
 -1       275 2.99602E+01
 -1       276 2.98196E+01
 -1       277 2.95651E+01
 -1       278 2.91700E+01
 -1       279 2.91700E+01
 -1       280 4.07562E+01
 -1       281 2.99168E+01
 -1       282 3.03766E+01
 -1       283 3.02383E+01
 -1       284 3.05589E+01
 -1       285 3.03509E+01
 -1       286 2.97716E+01
 -1       287 2.99602E+01
 -1       288 2.75040E+01
 -1       289 3.02863E+01
 -1       290 4.07562E+01
 -1       291 4.07562E+01
 -1       292 3.57324E+01
 -1       293 3.57324E+01
 -1       294 2.86941E+01
 -1       295 2.23158E+01
 -1       296 2.83799E+01
 -1       297 2.83799E+01
 -1       298 3.01812E+01
 -1       299 3.04974E+01
 -1       300 3.07085E+01
 -1       301 3.04974E+01
 -1       302 3.02415E+01
 -1       303 2.99964E+01
 -1       304 2.99964E+01
 -1       305 3.00760E+01
 -1       306 3.01812E+01
 -1       307 3.02786E+01
 -1       308 3.04714E+01
 -1       309 2.97896E+01
 -1       310 3.01144E+01
 -1       311 3.00195E+01
 -1       312 3.02383E+01
 -1       313 3.02094E+01
 -1       314 3.00796E+01
 -1       315 2.99816E+01
 -1       316 3.00105E+01
 -1       317 3.05589E+01
 -1       318 3.03986E+01
 -1       319 3.02759E+01
 -1       320 3.02759E+01
 -1       321 3.04362E+01
 -1       322 3.00747E+01
 -1       323 3.04549E+01
 -1       324 3.05589E+01
 -1       325 3.05589E+01
 -1       326 3.04549E+01
 -1       327 2.97716E+01
 -1       328 2.97850E+01
 -1       329 3.00747E+01
 -1       330 2.97984E+01
 -1       331 2.97850E+01
 -1       332 2.96080E+01
 -1       333 2.98659E+01
 -1       334 2.97716E+01
 -1       335 2.97716E+01
 -1       336 2.98659E+01
 -1       337 2.96080E+01
 -1       338 2.92558E+01
 -1       339 3.07085E+01
 -1       340 2.92558E+01
 -1       341 3.06268E+01
 -1       342 3.06268E+01
 -1       343 3.04566E+01
 -1       344 3.04566E+01
 -1       345 3.04566E+01
 -1       346 2.47818E+01
 -1       347 2.47844E+01
 -1       348 3.02357E+01
 -1       349 3.02357E+01
 -1       350 3.02786E+01
 -1       351 3.02786E+01
 -1       352 3.03766E+01
 -1       353 3.02786E+01
 -1       354 3.02786E+01
 -1       355 2.72482E+01
 -1       356 2.72482E+01
 -1       357 3.02863E+01
 -1       358 3.06268E+01
 -1       359 3.06268E+01
 -1       360 3.03514E+01
 -1       361 3.02718E+01
 -1       362 3.02718E+01
 -1       363 3.01936E+01
 -1       364 3.02068E+01
 -1       365 3.01648E+01
 -1       366 3.02094E+01
 -1       367 3.05966E+01
 -1       368 3.05966E+01
 -1       369 3.03766E+01
 -1       370 3.04714E+01
 -1       371 3.03766E+01
 -1       372 3.04714E+01
 -1       373 3.03509E+01
 -1       374 3.04549E+01
 -1       375 3.02067E+01
 -1       376 3.02067E+01
 -1       377 3.03074E+01
 -1       378 2.59445E+01
 -1       379 2.59445E+01
 -1       380 3.02863E+01
 -1       381 2.51808E+01
 -1       382 2.51808E+01
 -1       383 2.50758E+01
 -1       384 3.05589E+01
 -1       385 2.50758E+01
 -1       386 3.04362E+01
 -1       387 2.98793E+01
 -1       388 2.99602E+01
 -1       389 2.97850E+01
 -1       390 2.98659E+01
 -1       391 2.98659E+01
 -1       392 2.97984E+01
 -1       393 3.04549E+01
 -1       394 3.03107E+01
 -1       395 3.00216E+01
 -1       396 3.01555E+01
 -1       397 3.00747E+01
 -1       398 2.95651E+01
 -1       399 2.99602E+01
 -1       400 2.79758E+01
 -1       401 2.83709E+01
 -1       402 2.83709E+01
 -1       403 2.98196E+01
 -1       404 2.97387E+01
 -1       405 3.03509E+01
 -1       406 3.01555E+01
 -1       407 3.02759E+01
 -1       408 3.05589E+01
 -1       409 3.00955E+01
 -1       410 3.02397E+01
 -1       411 3.03509E+01
 -1       412 3.04362E+01
 -1       413 3.03136E+01
 -1       414 3.04362E+01
 -1       415 3.05589E+01
 -1       416 2.58035E+01
 -1       417 2.54084E+01
 -1       418 3.01447E+01
 -1       419 2.98659E+01
 -1       420 2.99602E+01
 -1       421 3.05663E+01
 -1       422 3.02759E+01
 -1       423 3.03136E+01
 -1       424 2.99602E+01
 -1       425 3.03509E+01
 -1       426 2.86984E+01
 -1       427 2.98842E+01
 -1       428 2.86984E+01
 -1       429 2.75127E+01
 -1       430 2.86984E+01
 -1       431 2.86984E+01
 -1       432 4.07562E+01
 -1       433 3.49364E+01
 -1       434 3.49364E+01
 -1       435 3.49364E+01
 -1       436 2.91166E+01
 -1       437 3.49364E+01
 -1       438 3.49359E+01
 -1       439 4.07557E+01
 -1       440 3.49359E+01
 -1       441 2.86941E+01
 -1       442 2.86941E+01
 -1       443 2.75083E+01
 -1       444 2.61556E+01
 -1       445 3.04974E+01
 -1       446 3.04974E+01
 -1       447 2.74593E+01
 -1       448 2.99126E+01
 -1       449 2.99126E+01
 -1       450 3.57324E+01
 -1       451 3.57318E+01
 -1       452 2.92129E+01
 -1       453 2.96080E+01
 -1       454 2.54512E+01
 -1       455 2.80186E+01
 -1       456 2.95700E+01
 -1       457 2.83842E+01
 -1       458 2.83842E+01
 -1       459 2.83799E+01
 -1       460 3.07085E+01
 -1       461 3.07085E+01
 -1       462 3.07043E+01
 -1       463 3.07043E+01
 -1       464 2.92129E+01
 -1       465 2.92129E+01
 -1       466 2.92558E+01
 -1       467 2.92558E+01
 -3
 9999
