    1C
    1USimple_beam.                                                      
    1UUSER                                                              
    1UDATE              17.february.2025                                
    1UTIME              20:19:24                                        
    1UHOST                                                              
    1UPGM               CalculiX                                        
    1UVERSION           Version 2.22                             
    1UCOMPILETIME       Sun Aug  4 19:39:24     2024                    
    1UDIR                                                               
    1UDBN                                                               
    1UMAT    1STEEL                                                     
    1PSTEP                         1           1           1          
  100CL  101 1.000000000        4403                     0    1           1
 -4  DISP        4    1
 -5  D1          1    2    1    0
 -5  D2          1    2    2    0
 -5  D3          1    2    3    0
 -5  ALL         1    2    0    0    1ALL
 -1         1 0.00000E+00 0.00000E+00 0.00000E+00
 -1         2 0.00000E+00 0.00000E+00 0.00000E+00
 -1         3 0.00000E+00 0.00000E+00 0.00000E+00
 -1         4 0.00000E+00 0.00000E+00 0.00000E+00
 -1         5 2.84459E-01 3.80879E+00-2.90681E-05
 -1         6 2.84460E-01 3.80879E+00 3.03331E-05
 -1         7-2.84459E-01 3.80879E+00 2.78200E-05
 -1         8-2.84463E-01 3.80879E+00-3.18389E-05
 -1         9 0.00000E+00 0.00000E+00 0.00000E+00
 -1        10 0.00000E+00 0.00000E+00 0.00000E+00
 -1        11 0.00000E+00 0.00000E+00 0.00000E+00
 -1        12 0.00000E+00 0.00000E+00 0.00000E+00
 -1        13 0.00000E+00 0.00000E+00 0.00000E+00
 -1        14 0.00000E+00 0.00000E+00 0.00000E+00
 -1        15 0.00000E+00 0.00000E+00 0.00000E+00
 -1        16 0.00000E+00 0.00000E+00 0.00000E+00
 -1        17 0.00000E+00 0.00000E+00 0.00000E+00
 -1        18 0.00000E+00 0.00000E+00 0.00000E+00
 -1        19 0.00000E+00 0.00000E+00 0.00000E+00
 -1        20 0.00000E+00 0.00000E+00 0.00000E+00
 -1        21 0.00000E+00 0.00000E+00 0.00000E+00
 -1        22 0.00000E+00 0.00000E+00 0.00000E+00
 -1        23 0.00000E+00 0.00000E+00 0.00000E+00
 -1        24 0.00000E+00 0.00000E+00 0.00000E+00
 -1        25 0.00000E+00 0.00000E+00 0.00000E+00
 -1        26 0.00000E+00 0.00000E+00 0.00000E+00
 -1        27 0.00000E+00 0.00000E+00 0.00000E+00
 -1        28 0.00000E+00 0.00000E+00 0.00000E+00
 -1        29 0.00000E+00 0.00000E+00 0.00000E+00
 -1        30 0.00000E+00 0.00000E+00 0.00000E+00
 -1        31 0.00000E+00 0.00000E+00 0.00000E+00
 -1        32 0.00000E+00 0.00000E+00 0.00000E+00
 -1        33 0.00000E+00 0.00000E+00 0.00000E+00
 -1        34 0.00000E+00 0.00000E+00 0.00000E+00
 -1        35 0.00000E+00 0.00000E+00 0.00000E+00
 -1        36 0.00000E+00 0.00000E+00 0.00000E+00
 -1        37 2.84577E-01 3.80887E+00 3.91711E-05
 -1        38 2.84594E-01 3.80888E+00 4.89508E-06
 -1        39 2.84580E-01 3.80887E+00-3.22251E-05
 -1        40 2.84551E-01 3.80884E+00 3.70206E-05
 -1        41 2.84593E-01 3.80888E+00 2.29593E-05
 -1        42 2.84593E-01 3.80889E+00-1.88630E-05
 -1        43 2.84547E-01 3.80885E+00-3.62893E-05
 -1        44 1.41876E-01 3.80854E+00 6.83208E-05
 -1        45-3.70698E-06 3.80840E+00-7.08596E-07
 -1        46-1.41882E-01 3.80854E+00-6.39296E-05
 -1        47 2.13026E-01 3.80868E+00 4.24350E-05
 -1        48 7.09001E-02 3.80844E+00 4.37662E-05
 -1        49-7.09041E-02 3.80844E+00-4.17316E-05
 -1        50-2.13029E-01 3.80868E+00-4.22917E-05
 -1        51-2.84577E-01 3.80887E+00-4.05844E-05
 -1        52-2.84595E-01 3.80888E+00-6.91615E-06
 -1        53-2.84579E-01 3.80887E+00 3.15062E-05
 -1        54-2.84553E-01 3.80884E+00-3.86049E-05
 -1        55-2.84593E-01 3.80888E+00-2.49399E-05
 -1        56-2.84593E-01 3.80888E+00 1.76001E-05
 -1        57-2.84546E-01 3.80885E+00 3.54462E-05
 -1        58 1.41882E-01 3.80854E+00-6.05224E-05
 -1        59-3.27884E-06 3.80840E+00-5.47367E-07
 -1        60-1.41882E-01 3.80854E+00 5.99589E-05
 -1        61 2.13030E-01 3.80868E+00-3.79820E-05
 -1        62 7.09017E-02 3.80844E+00-4.24121E-05
 -1        63-7.09036E-02 3.80844E+00 4.01659E-05
 -1        64-2.13032E-01 3.80868E+00 3.65527E-05
 -1        65 1.61960E-02 5.96664E-03 6.71488E-03
 -1        66 3.15211E-02 1.99589E-02 7.79353E-03
 -1        67 4.68753E-02 4.35589E-02 7.78822E-03
 -1        68 6.18929E-02 7.62958E-02 7.57271E-03
 -1        69 7.64767E-02 1.17782E-01 7.31523E-03
 -1        70 9.05502E-02 1.67714E-01 7.05428E-03
 -1        71 1.04152E-01 2.25774E-01 6.81038E-03
 -1        72 1.17253E-01 2.91692E-01 6.55214E-03
 -1        73 1.29851E-01 3.65157E-01 6.31007E-03
 -1        74 1.41964E-01 4.45905E-01 6.05398E-03
 -1        75 1.53584E-01 5.33633E-01 5.79671E-03
 -1        76 1.64706E-01 6.28048E-01 5.54320E-03
 -1        77 1.75327E-01 7.28844E-01 5.30074E-03
 -1        78 1.85470E-01 8.35758E-01 5.04511E-03
 -1        79 1.95104E-01 9.48494E-01 4.78879E-03
 -1        80 2.04244E-01 1.06675E+00 4.53225E-03
 -1        81 2.12902E-01 1.19024E+00 4.28894E-03
 -1        82 2.21060E-01 1.31867E+00 4.03133E-03
 -1        83 2.28714E-01 1.45175E+00 3.78935E-03
 -1        84 2.35892E-01 1.58919E+00 3.53134E-03
 -1        85 2.42553E-01 1.73072E+00 3.27107E-03
 -1        86 2.48741E-01 1.87600E+00 3.02858E-03
 -1        87 2.54422E-01 2.02479E+00 2.77776E-03
 -1        88 2.59612E-01 2.17678E+00 2.51866E-03
 -1        89 2.64313E-01 2.33167E+00 2.27104E-03
 -1        90 2.68510E-01 2.48918E+00 2.01638E-03
 -1        91 2.72215E-01 2.64902E+00 1.76362E-03
 -1        92 2.75428E-01 2.81088E+00 1.51559E-03
 -1        93 2.78156E-01 2.97451E+00 1.26114E-03
 -1        94 2.80368E-01 3.13957E+00 1.00332E-03
 -1        95 2.82108E-01 3.30580E+00 7.62641E-04
 -1        96 2.83346E-01 3.47290E+00 5.13187E-04
 -1        97 2.84107E-01 3.64057E+00 2.86341E-04
 -1        98 8.70866E-03 2.84107E-03 4.99477E-03
 -1        99 2.38318E-02 1.17693E-02 7.50779E-03
 -1       100 3.92289E-02 3.05920E-02 7.84588E-03
 -1       101 5.44359E-02 5.88178E-02 7.68856E-03
 -1       102 6.92429E-02 9.59670E-02 7.44324E-03
 -1       103 8.35736E-02 1.41716E-01 7.18803E-03
 -1       104 9.74119E-02 1.95743E-01 6.93237E-03
 -1       105 1.10760E-01 2.57767E-01 6.68098E-03
 -1       106 1.23614E-01 3.27498E-01 6.42982E-03
 -1       107 1.35970E-01 4.04641E-01 6.17991E-03
 -1       108 1.47833E-01 4.88915E-01 5.92439E-03
 -1       109 1.59205E-01 5.80022E-01 5.67091E-03
 -1       110 1.70079E-01 6.77664E-01 5.42066E-03
 -1       111 1.80460E-01 7.81556E-01 5.16959E-03
 -1       112 1.90345E-01 8.91418E-01 4.91819E-03
 -1       113 1.99737E-01 1.00695E+00 4.66309E-03
 -1       114 2.08634E-01 1.12786E+00 4.41055E-03
 -1       115 2.17039E-01 1.25385E+00 4.15990E-03
 -1       116 2.24949E-01 1.38464E+00 3.90904E-03
 -1       117 2.32363E-01 1.51994E+00 3.65866E-03
 -1       118 2.39282E-01 1.65946E+00 3.40368E-03
 -1       119 2.45710E-01 1.80291E+00 3.15130E-03
 -1       120 2.51641E-01 1.94998E+00 2.90182E-03
 -1       121 2.57077E-01 2.10040E+00 2.64818E-03
 -1       122 2.62022E-01 2.25388E+00 2.39460E-03
 -1       123 2.66470E-01 2.41012E+00 2.14435E-03
 -1       124 2.70424E-01 2.56883E+00 1.89125E-03
 -1       125 2.73883E-01 2.72971E+00 1.63946E-03
 -1       126 2.76852E-01 2.89249E+00 1.38644E-03
 -1       127 2.79321E-01 3.05687E+00 1.13409E-03
 -1       128 2.81299E-01 3.22256E+00 8.83098E-04
 -1       129 2.82784E-01 3.38926E+00 6.36642E-04
 -1       130 2.83782E-01 3.55668E+00 3.98686E-04
 -1       131 2.84334E-01 3.72456E+00 1.71104E-04
 -1       132 1.61937E-02 5.96886E-03-6.71223E-03
 -1       133 3.15195E-02 1.99606E-02-7.79168E-03
 -1       134 4.68754E-02 4.35634E-02-7.78727E-03
 -1       135 6.18937E-02 7.63030E-02-7.56288E-03
 -1       136 7.64740E-02 1.17791E-01-7.31341E-03
 -1       137 9.05540E-02 1.67708E-01-7.05704E-03
 -1       138 1.04155E-01 2.25778E-01-6.80568E-03
 -1       139 1.17244E-01 2.91692E-01-6.54727E-03
 -1       140 1.29857E-01 3.65155E-01-6.30565E-03
 -1       141 1.41969E-01 4.45911E-01-6.04990E-03
 -1       142 1.53583E-01 5.33632E-01-5.79497E-03
 -1       143 1.64700E-01 6.28046E-01-5.53869E-03
 -1       144 1.75334E-01 7.28843E-01-5.29639E-03
 -1       145 1.85463E-01 8.35761E-01-5.04494E-03
 -1       146 1.95104E-01 9.48493E-01-4.78535E-03
 -1       147 2.04253E-01 1.06674E+00-4.53996E-03
 -1       148 2.12897E-01 1.19024E+00-4.28283E-03
 -1       149 2.21053E-01 1.31867E+00-4.03163E-03
 -1       150 2.28716E-01 1.45175E+00-3.78221E-03
 -1       151 2.35888E-01 1.58920E+00-3.52564E-03
 -1       152 2.42556E-01 1.73071E+00-3.27827E-03
 -1       153 2.48737E-01 1.87601E+00-3.02584E-03
 -1       154 2.54422E-01 2.02479E+00-2.77402E-03
 -1       155 2.59618E-01 2.17678E+00-2.51738E-03
 -1       156 2.64305E-01 2.33168E+00-2.26154E-03
 -1       157 2.68513E-01 2.48917E+00-2.02048E-03
 -1       158 2.72221E-01 2.64902E+00-1.76229E-03
 -1       159 2.75428E-01 2.81089E+00-1.51052E-03
 -1       160 2.78155E-01 2.97450E+00-1.26202E-03
 -1       161 2.80374E-01 3.13957E+00-1.00738E-03
 -1       162 2.82109E-01 3.30580E+00-7.60364E-04
 -1       163 2.83344E-01 3.47290E+00-5.13349E-04
 -1       164 2.84104E-01 3.64057E+00-2.83308E-04
 -1       165 8.70907E-03 2.84278E-03-4.99359E-03
 -1       166 2.38299E-02 1.17710E-02-7.50669E-03
 -1       167 3.92273E-02 3.05925E-02-7.84560E-03
 -1       168 5.44366E-02 5.88188E-02-7.68513E-03
 -1       169 6.92419E-02 9.59719E-02-7.43617E-03
 -1       170 8.35725E-02 1.41711E-01-7.18659E-03
 -1       171 9.74144E-02 1.95742E-01-6.92963E-03
 -1       172 1.10760E-01 2.57770E-01-6.67878E-03
 -1       173 1.23613E-01 3.27498E-01-6.42780E-03
 -1       174 1.35971E-01 4.04641E-01-6.17645E-03
 -1       175 1.47835E-01 4.88915E-01-5.92298E-03
 -1       176 1.59203E-01 5.80022E-01-5.66914E-03
 -1       177 1.70079E-01 6.77664E-01-5.41911E-03
 -1       178 1.80458E-01 7.81558E-01-5.16936E-03
 -1       179 1.90344E-01 8.91419E-01-4.91479E-03
 -1       180 1.99740E-01 1.00695E+00-4.66319E-03
 -1       181 2.08633E-01 1.12786E+00-4.41243E-03
 -1       182 2.17037E-01 1.25385E+00-4.15761E-03
 -1       183 2.24946E-01 1.38464E+00-3.90772E-03
 -1       184 2.32360E-01 1.51995E+00-3.65209E-03
 -1       185 2.39284E-01 1.65946E+00-3.40345E-03
 -1       186 2.45708E-01 1.80290E+00-3.15059E-03
 -1       187 2.51641E-01 1.94998E+00-2.89948E-03
 -1       188 2.57078E-01 2.10041E+00-2.64451E-03
 -1       189 2.62024E-01 2.25389E+00-2.39282E-03
 -1       190 2.66471E-01 2.41012E+00-2.14222E-03
 -1       191 2.70424E-01 2.56882E+00-1.89165E-03
 -1       192 2.73887E-01 2.72972E+00-1.63745E-03
 -1       193 2.76851E-01 2.89249E+00-1.38373E-03
 -1       194 2.79323E-01 3.05687E+00-1.13612E-03
 -1       195 2.81303E-01 3.22256E+00-8.82877E-04
 -1       196 2.82784E-01 3.38926E+00-6.35467E-04
 -1       197 2.83779E-01 3.55668E+00-3.98123E-04
 -1       198 2.84333E-01 3.72457E+00-1.67683E-04
 -1       199-1.61829E-02 5.96918E-03-6.72856E-03
 -1       200-3.15117E-02 1.99548E-02-7.80381E-03
 -1       201-4.68805E-02 4.35622E-02-7.78682E-03
 -1       202-6.19021E-02 7.62954E-02-7.56822E-03
 -1       203-7.64742E-02 1.17784E-01-7.31600E-03
 -1       204-9.05603E-02 1.67705E-01-7.06060E-03
 -1       205-1.04150E-01 2.25775E-01-6.80454E-03
 -1       206-1.17244E-01 2.91692E-01-6.54826E-03
 -1       207-1.29858E-01 3.65162E-01-6.30465E-03
 -1       208-1.41972E-01 4.45909E-01-6.05079E-03
 -1       209-1.53584E-01 5.33631E-01-5.79582E-03
 -1       210-1.64701E-01 6.28045E-01-5.53973E-03
 -1       211-1.75336E-01 7.28842E-01-5.29815E-03
 -1       212-1.85471E-01 8.35758E-01-5.04111E-03
 -1       213-1.95108E-01 9.48488E-01-4.79321E-03
 -1       214-2.04254E-01 1.06675E+00-4.53820E-03
 -1       215-2.12900E-01 1.19024E+00-4.28410E-03
 -1       216-2.21054E-01 1.31867E+00-4.03204E-03
 -1       217-2.28722E-01 1.45175E+00-3.78171E-03
 -1       218-2.35891E-01 1.58920E+00-3.52826E-03
 -1       219-2.42565E-01 1.73071E+00-3.27798E-03
 -1       220-2.48738E-01 1.87601E+00-3.02383E-03
 -1       221-2.54424E-01 2.02479E+00-2.77332E-03
 -1       222-2.59616E-01 2.17678E+00-2.52007E-03
 -1       223-2.64305E-01 2.33168E+00-2.26310E-03
 -1       224-2.68514E-01 2.48918E+00-2.02048E-03
 -1       225-2.72222E-01 2.64902E+00-1.76367E-03
 -1       226-2.75437E-01 2.81089E+00-1.51493E-03
 -1       227-2.78156E-01 2.97450E+00-1.26426E-03
 -1       228-2.80378E-01 3.13957E+00-1.00689E-03
 -1       229-2.82110E-01 3.30580E+00-7.58865E-04
 -1       230-2.83347E-01 3.47290E+00-5.14420E-04
 -1       231-2.84107E-01 3.64057E+00-2.86723E-04
 -1       232-8.71025E-03 2.85348E-03-4.98771E-03
 -1       233-2.38264E-02 1.17613E-02-7.51472E-03
 -1       234-3.92254E-02 3.05883E-02-7.84538E-03
 -1       235-5.44425E-02 5.88166E-02-7.68652E-03
 -1       236-6.92461E-02 9.59679E-02-7.44136E-03
 -1       237-8.35740E-02 1.41710E-01-7.18860E-03
 -1       238-9.74144E-02 1.95742E-01-6.93406E-03
 -1       239-1.10760E-01 2.57770E-01-6.67891E-03
 -1       240-1.23611E-01 3.27498E-01-6.42653E-03
 -1       241-1.35973E-01 4.04641E-01-6.17609E-03
 -1       242-1.47837E-01 4.88913E-01-5.92407E-03
 -1       243-1.59205E-01 5.80021E-01-5.67005E-03
 -1       244-1.70081E-01 6.77663E-01-5.42013E-03
 -1       245-1.80461E-01 7.81558E-01-5.16980E-03
 -1       246-1.90350E-01 8.91417E-01-4.91801E-03
 -1       247-1.99739E-01 1.00695E+00-4.66411E-03
 -1       248-2.08636E-01 1.12785E+00-4.41173E-03
 -1       249-2.17039E-01 1.25385E+00-4.15926E-03
 -1       250-2.24947E-01 1.38464E+00-3.90666E-03
 -1       251-2.32364E-01 1.51995E+00-3.65402E-03
 -1       252-2.39286E-01 1.65946E+00-3.40356E-03
 -1       253-2.45711E-01 1.80291E+00-3.15245E-03
 -1       254-2.51642E-01 1.94998E+00-2.89927E-03
 -1       255-2.57080E-01 2.10040E+00-2.64791E-03
 -1       256-2.62022E-01 2.25388E+00-2.39401E-03
 -1       257-2.66470E-01 2.41012E+00-2.14170E-03
 -1       258-2.70426E-01 2.56882E+00-1.89197E-03
 -1       259-2.73889E-01 2.72971E+00-1.63895E-03
 -1       260-2.76856E-01 2.89249E+00-1.38861E-03
 -1       261-2.79323E-01 3.05687E+00-1.13562E-03
 -1       262-2.81303E-01 3.22256E+00-8.81729E-04
 -1       263-2.82786E-01 3.38926E+00-6.35801E-04
 -1       264-2.83783E-01 3.55668E+00-3.99331E-04
 -1       265-2.84336E-01 3.72456E+00-1.72562E-04
 -1       266-1.61855E-02 5.96293E-03 6.72675E-03
 -1       267-3.15085E-02 1.99530E-02 7.80725E-03
 -1       268-4.68742E-02 4.35642E-02 7.79007E-03
 -1       269-6.18973E-02 7.63001E-02 7.56739E-03
 -1       270-7.64761E-02 1.17786E-01 7.31458E-03
 -1       271-9.05495E-02 1.67715E-01 7.05242E-03
 -1       272-1.04153E-01 2.25775E-01 6.81003E-03
 -1       273-1.17254E-01 2.91693E-01 6.55177E-03
 -1       274-1.29852E-01 3.65158E-01 6.30960E-03
 -1       275-1.41966E-01 4.45906E-01 6.05325E-03
 -1       276-1.53587E-01 5.33635E-01 5.79616E-03
 -1       277-1.64708E-01 6.28041E-01 5.54421E-03
 -1       278-1.75327E-01 7.28844E-01 5.30029E-03
 -1       279-1.85471E-01 8.35759E-01 5.04416E-03
 -1       280-1.95105E-01 9.48495E-01 4.78737E-03
 -1       281-2.04247E-01 1.06675E+00 4.53087E-03
 -1       282-2.12903E-01 1.19023E+00 4.28930E-03
 -1       283-2.21058E-01 1.31867E+00 4.03016E-03
 -1       284-2.28724E-01 1.45175E+00 3.78356E-03
 -1       285-2.35892E-01 1.58919E+00 3.52996E-03
 -1       286-2.42557E-01 1.73071E+00 3.27534E-03
 -1       287-2.48744E-01 1.87601E+00 3.02486E-03
 -1       288-2.54423E-01 2.02479E+00 2.77677E-03
 -1       289-2.59613E-01 2.17678E+00 2.51738E-03
 -1       290-2.64314E-01 2.33168E+00 2.26968E-03
 -1       291-2.68511E-01 2.48918E+00 2.01488E-03
 -1       292-2.72217E-01 2.64902E+00 1.76163E-03
 -1       293-2.75428E-01 2.81089E+00 1.51253E-03
 -1       294-2.78155E-01 2.97451E+00 1.25885E-03
 -1       295-2.80373E-01 3.13957E+00 1.00602E-03
 -1       296-2.82105E-01 3.30580E+00 7.57923E-04
 -1       297-2.83341E-01 3.47290E+00 5.12415E-04
 -1       298-2.84105E-01 3.64057E+00 2.81827E-04
 -1       299-8.70506E-03 2.84900E-03 4.99885E-03
 -1       300-2.38237E-02 1.17592E-02 7.51790E-03
 -1       301-3.92211E-02 3.05891E-02 7.84666E-03
 -1       302-5.44387E-02 5.88183E-02 7.68663E-03
 -1       303-6.92461E-02 9.59704E-02 7.44012E-03
 -1       304-8.35720E-02 1.41716E-01 7.18583E-03
 -1       305-9.74125E-02 1.95743E-01 6.93147E-03
 -1       306-1.10761E-01 2.57768E-01 6.68061E-03
 -1       307-1.23615E-01 3.27498E-01 6.42938E-03
 -1       308-1.35971E-01 4.04641E-01 6.17929E-03
 -1       309-1.47835E-01 4.88916E-01 5.92381E-03
 -1       310-1.59207E-01 5.80022E-01 5.67111E-03
 -1       311-1.70077E-01 6.77664E-01 5.42221E-03
 -1       312-1.80461E-01 7.81557E-01 5.16885E-03
 -1       313-1.90346E-01 8.91419E-01 4.91690E-03
 -1       314-1.99739E-01 1.00695E+00 4.66152E-03
 -1       315-2.08637E-01 1.12786E+00 4.41154E-03
 -1       316-2.17038E-01 1.25385E+00 4.15959E-03
 -1       317-2.24950E-01 1.38465E+00 3.90640E-03
 -1       318-2.32366E-01 1.51994E+00 3.65607E-03
 -1       319-2.39285E-01 1.65946E+00 3.40492E-03
 -1       320-2.45710E-01 1.80291E+00 3.14946E-03
 -1       321-2.51644E-01 1.94998E+00 2.89959E-03
 -1       322-2.57078E-01 2.10041E+00 2.64689E-03
 -1       323-2.62024E-01 2.25388E+00 2.39343E-03
 -1       324-2.66471E-01 2.41012E+00 2.14288E-03
 -1       325-2.70425E-01 2.56883E+00 1.88957E-03
 -1       326-2.73884E-01 2.72972E+00 1.63678E-03
 -1       327-2.76852E-01 2.89249E+00 1.38351E-03
 -1       328-2.79322E-01 3.05687E+00 1.13278E-03
 -1       329-2.81301E-01 3.22256E+00 8.82637E-04
 -1       330-2.82784E-01 3.38926E+00 6.33736E-04
 -1       331-2.83779E-01 3.55668E+00 3.95145E-04
 -1       332-2.84333E-01 3.72457E+00 1.66655E-04
 -1       333 0.00000E+00 0.00000E+00 0.00000E+00
 -1       334 0.00000E+00 0.00000E+00 0.00000E+00
 -1       335 0.00000E+00 0.00000E+00 0.00000E+00
 -1       336 0.00000E+00 0.00000E+00 0.00000E+00
 -1       337 0.00000E+00 0.00000E+00 0.00000E+00
 -1       338 0.00000E+00 0.00000E+00 0.00000E+00
 -1       339 0.00000E+00 0.00000E+00 0.00000E+00
 -1       340 0.00000E+00 0.00000E+00 0.00000E+00
 -1       341 0.00000E+00 0.00000E+00 0.00000E+00
 -1       342 0.00000E+00 0.00000E+00 0.00000E+00
 -1       343 0.00000E+00 0.00000E+00 0.00000E+00
 -1       344 0.00000E+00 0.00000E+00 0.00000E+00
 -1       345 0.00000E+00 0.00000E+00 0.00000E+00
 -1       346 0.00000E+00 0.00000E+00 0.00000E+00
 -1       347 0.00000E+00 0.00000E+00 0.00000E+00
 -1       348 0.00000E+00 0.00000E+00 0.00000E+00
 -1       349 0.00000E+00 0.00000E+00 0.00000E+00
 -1       350 0.00000E+00 0.00000E+00 0.00000E+00
 -1       351 0.00000E+00 0.00000E+00 0.00000E+00
 -1       352 0.00000E+00 0.00000E+00 0.00000E+00
 -1       353 0.00000E+00 0.00000E+00 0.00000E+00
 -1       354 0.00000E+00 0.00000E+00 0.00000E+00
 -1       355 0.00000E+00 0.00000E+00 0.00000E+00
 -1       356 0.00000E+00 0.00000E+00 0.00000E+00
 -1       357 0.00000E+00 0.00000E+00 0.00000E+00
 -1       358 0.00000E+00 0.00000E+00 0.00000E+00
 -1       359 0.00000E+00 0.00000E+00 0.00000E+00
 -1       360 0.00000E+00 0.00000E+00 0.00000E+00
 -1       361 0.00000E+00 0.00000E+00 0.00000E+00
 -1       362 0.00000E+00 0.00000E+00 0.00000E+00
 -1       363 0.00000E+00 0.00000E+00 0.00000E+00
 -1       364 0.00000E+00 0.00000E+00 0.00000E+00
 -1       365 0.00000E+00 0.00000E+00 0.00000E+00
 -1       366 0.00000E+00 0.00000E+00 0.00000E+00
 -1       367 0.00000E+00 0.00000E+00 0.00000E+00
 -1       368 0.00000E+00 0.00000E+00 0.00000E+00
 -1       369 0.00000E+00 0.00000E+00 0.00000E+00
 -1       370 0.00000E+00 0.00000E+00 0.00000E+00
 -1       371 0.00000E+00 0.00000E+00 0.00000E+00
 -1       372 0.00000E+00 0.00000E+00 0.00000E+00
 -1       373 0.00000E+00 0.00000E+00 0.00000E+00
 -1       374 0.00000E+00 0.00000E+00 0.00000E+00
 -1       375 0.00000E+00 0.00000E+00 0.00000E+00
 -1       376 0.00000E+00 0.00000E+00 0.00000E+00
 -1       377 0.00000E+00 0.00000E+00 0.00000E+00
 -1       378 0.00000E+00 0.00000E+00 0.00000E+00
 -1       379 0.00000E+00 0.00000E+00 0.00000E+00
 -1       380 0.00000E+00 0.00000E+00 0.00000E+00
 -1       381 0.00000E+00 0.00000E+00 0.00000E+00
 -1       382 0.00000E+00 0.00000E+00 0.00000E+00
 -1       383 0.00000E+00 0.00000E+00 0.00000E+00
 -1       384 0.00000E+00 0.00000E+00 0.00000E+00
 -1       385 0.00000E+00 0.00000E+00 0.00000E+00
 -1       386 0.00000E+00 0.00000E+00 0.00000E+00
 -1       387 0.00000E+00 0.00000E+00 0.00000E+00
 -1       388 0.00000E+00 0.00000E+00 0.00000E+00
 -1       389 0.00000E+00 0.00000E+00 0.00000E+00
 -1       390 0.00000E+00 0.00000E+00 0.00000E+00
 -1       391 0.00000E+00 0.00000E+00 0.00000E+00
 -1       392 0.00000E+00 0.00000E+00 0.00000E+00
 -1       393 0.00000E+00 0.00000E+00 0.00000E+00
 -1       394 0.00000E+00 0.00000E+00 0.00000E+00
 -1       395 0.00000E+00 0.00000E+00 0.00000E+00
 -1       396 0.00000E+00 0.00000E+00 0.00000E+00
 -1       397 0.00000E+00 0.00000E+00 0.00000E+00
 -1       398 0.00000E+00 0.00000E+00 0.00000E+00
 -1       399 0.00000E+00 0.00000E+00 0.00000E+00
 -1       400 0.00000E+00 0.00000E+00 0.00000E+00
 -1       401 0.00000E+00 0.00000E+00 0.00000E+00
 -1       402 0.00000E+00 0.00000E+00 0.00000E+00
 -1       403 0.00000E+00 0.00000E+00 0.00000E+00
 -1       404 0.00000E+00 0.00000E+00 0.00000E+00
 -1       405 0.00000E+00 0.00000E+00 0.00000E+00
 -1       406-6.64645E-02 3.80849E+00-9.61993E-06
 -1       407-6.54614E-02 3.80849E+00 7.84535E-06
 -1       408 1.71764E-01 3.80871E+00-3.03932E-06
 -1       409 7.06875E-02 3.80850E+00-1.11030E-05
 -1       410 1.74155E-03 3.80852E+00-9.28943E-08
 -1       411-1.53111E-01 3.80867E+00-2.94390E-06
 -1       412 8.00252E-02 3.80850E+00 1.76645E-05
 -1       413 1.57053E-01 3.80868E+00 1.93271E-06
 -1       414-1.80973E-01 3.80872E+00 2.11342E-06
 -1       415-6.96297E-02 3.80856E+00-5.24697E-06
 -1       416 1.80078E-01 3.80867E+00 8.56351E-06
 -1       417-1.80071E-01 3.80868E+00 8.16633E-06
 -1       418 1.80070E-01 3.80868E+00-9.27019E-06
 -1       419-1.80934E-01 3.80867E+00-1.41435E-05
 -1       420 5.31635E-02 3.80854E+00 4.41717E-06
 -1       421 2.32264E-01 3.80879E+00-1.49606E-05
 -1       422 2.32200E-01 3.80876E+00 9.39625E-06
 -1       423 1.60985E-01 3.80860E+00 3.50568E-05
 -1       424 2.32203E-01 3.80876E+00-7.16241E-06
 -1       425 2.32263E-01 3.80879E+00 1.84955E-05
 -1       426 1.60978E-01 3.80860E+00-3.15414E-05
 -1       427-1.61408E-01 3.80860E+00-3.60717E-05
 -1       428-2.32630E-01 3.80876E+00-1.07729E-05
 -1       429-2.32692E-01 3.80879E+00 1.33690E-05
 -1       430-2.32265E-01 3.80879E+00-2.02094E-05
 -1       431-2.32205E-01 3.80876E+00 5.69753E-06
 -1       432-1.60980E-01 3.80860E+00 3.07523E-05
 -1       433 2.20728E-01 3.80879E+00 1.31008E-05
 -1       434 2.20738E-01 3.80880E+00 7.04814E-06
 -1       435 1.68565E-01 3.80868E+00-1.46384E-06
 -1       436 2.28115E-01 3.80882E+00-5.95548E-06
 -1       437 2.28094E-01 3.80880E+00-1.35585E-05
 -1       438 1.64414E-01 3.80870E+00-1.08050E-06
 -1       439 1.75926E-01 3.80869E+00 1.60449E-06
 -1       440 1.10958E-01 3.80851E+00 3.96847E-05
 -1       441 3.99937E-02 3.80843E+00 1.53462E-05
 -1       442 1.30019E-01 3.80858E+00 2.00982E-05
 -1       443-3.32184E-02 3.80842E+00-1.06625E-05
 -1       444-1.04183E-01 3.80850E+00-3.29122E-05
 -1       445 6.77012E-03 3.80847E+00 2.41111E-06
 -1       446-1.23665E-01 3.80857E+00-1.81554E-05
 -1       447-2.18761E-01 3.80879E+00-7.93287E-06
 -1       448-2.18753E-01 3.80879E+00-1.44679E-05
 -1       449-1.66594E-01 3.80868E+00 4.48460E-07
 -1       450-2.32708E-01 3.80881E+00 1.27862E-05
 -1       451-2.32729E-01 3.80882E+00 4.07560E-06
 -1       452-1.67046E-01 3.80870E+00-1.04230E-06
 -1       453-1.80959E-01 3.80870E+00-3.51193E-06
 -1       454 3.53272E-02 3.80842E+00-1.32612E-05
 -1       455 1.06293E-01 3.80850E+00-3.24068E-05
 -1       456 1.25347E-01 3.80858E+00-1.66523E-05
 -1       457-1.03681E-01 3.80850E+00 3.16572E-05
 -1       458-3.27175E-02 3.80842E+00 9.52696E-06
 -1       459 2.60349E-03 3.80847E+00-1.26260E-06
 -1       460-1.22734E-01 3.80857E+00 1.56022E-05
 -1       461 6.66001E-02 3.80852E+00 7.45501E-06
 -1       462-6.65679E-03 3.80850E+00-3.75148E-06
 -1       463-6.80527E-02 3.80853E+00-5.88781E-06
 -1       464-1.25273E-01 3.80863E+00-2.84048E-06
 -1       465-1.23688E-01 3.80860E+00-6.04419E-06
 -1       466-8.22639E-03 3.80853E+00-2.53612E-06
 -1       467-3.18626E-02 3.80850E+00 3.93784E-06
 -1       468 3.62155E-02 3.80850E+00-3.21458E-06
 -1       469-1.09276E-01 3.80857E+00 3.44540E-06
 -1       470-7.56494E-02 3.80856E+00 1.90952E-06
 -1       471 1.25876E-01 3.80860E+00 8.03458E-06
 -1       472 1.12435E-01 3.80860E+00 1.62357E-06
 -1       473 1.05088E-01 3.80860E+00 5.15837E-08
 -1       474 7.93599E-02 3.80856E+00-1.79360E-06
 -1       475 1.13859E-01 3.80858E+00-4.59110E-06
 -1       476-1.11358E-01 3.80861E+00-1.63418E-06
 -1       477-3.39406E-02 3.80854E+00-3.06217E-06
 -1       478 2.74521E-02 3.80853E+00 2.80253E-06
 -1       479 2.57180E-01 2.10141E+00 1.29948E-03
 -1       480 2.73981E-01 2.73033E+00 8.05304E-04
 -1       481 2.82863E-01 3.38778E+00-3.17885E-04
 -1       482 2.32461E-01 1.52133E+00 1.79545E-03
 -1       483 2.45808E-01 1.80410E+00-1.54657E-03
 -1       484 2.66544E-01 2.41093E+00-1.05083E-03
 -1       485 2.79417E-01 3.05730E+00-5.57786E-04
 -1       486 2.17138E-01 1.25543E+00-2.03961E-03
 -1       487 8.36614E-02 1.44381E-01 3.54723E-03
 -1       488 1.10852E-01 2.60302E-01 3.27989E-03
 -1       489 5.45003E-02 6.17286E-02-3.77133E-03
 -1       490 1.59297E-01 5.82178E-01 2.78516E-03
 -1       491 1.90402E-01 8.92773E-01 2.41987E-03
 -1       492 1.36074E-01 4.06983E-01 3.03237E-03
 -1       493 2.26217E-02 1.38829E-02-3.47421E-03
 -1       494 3.91536E-02 3.35466E-02 3.83678E-03
 -1       495 2.83911E-01 3.56467E+00 1.89121E-04
 -1       496 2.08714E-01 1.12953E+00 2.16743E-03
 -1       497 2.81378E-01 3.22289E+00 4.38959E-04
 -1       498 9.75141E-02 1.98369E-01-3.40097E-03
 -1       499 1.70151E-01 6.79718E-01-2.65900E-03
 -1       500 1.99801E-01 1.00832E+00-2.32408E-03
 -1       501 1.23686E-01 3.29935E-01-3.15349E-03
 -1       502 1.47931E-01 4.91163E-01-2.90444E-03
 -1       503 1.08760E-02 6.30008E-03 1.06809E-03
 -1       504 2.84375E-01 3.69009E+00-5.07149E-05
 -1       505 2.57179E-01 2.10141E+00-1.29787E-03
 -1       506 2.73981E-01 2.73034E+00-8.02199E-04
 -1       507 2.32461E-01 1.52133E+00-1.79226E-03
 -1       508 2.45784E-01 1.80410E+00 1.54777E-03
 -1       509 2.66565E-01 2.41093E+00 1.05233E-03
 -1       510 3.90950E-02 3.34386E-02-3.86030E-03
 -1       511 5.44102E-02 6.15727E-02 3.78523E-03
 -1       512 6.92964E-02 9.86610E-02 3.68540E-03
 -1       513 7.65378E-02 1.21338E-01-8.63254E-06
 -1       514 2.82882E-01 3.39019E+00 3.16691E-04
 -1       515 2.62118E-01 2.25479E+00 1.17761E-03
 -1       516 2.62122E-01 2.25480E+00-1.17393E-03
 -1       517 2.08731E-01 1.12949E+00-2.17934E-03
 -1       518 2.17131E-01 1.25543E+00 2.04297E-03
 -1       519 2.39370E-01 1.66076E+00-1.66972E-03
 -1       520 2.39390E-01 1.66077E+00 1.67023E-03
 -1       521 1.23686E-01 3.29941E-01 3.15369E-03
 -1       522 1.70151E-01 6.79725E-01 2.65867E-03
 -1       523 1.80551E-01 7.83423E-01 2.55299E-03
 -1       524 1.85468E-01 8.37189E-01-2.76557E-05
 -1       525 1.59307E-01 5.82178E-01-2.78066E-03
 -1       526 2.70522E-01 2.56954E+00-9.28436E-04
 -1       527 2.70525E-01 2.56955E+00 9.28473E-04
 -1       528 1.99792E-01 1.00809E+00 2.31157E-03
 -1       529 2.81395E-01 3.22289E+00-4.34458E-04
 -1       530 2.79420E-01 3.05731E+00 5.56193E-04
 -1       531 1.36067E-01 4.06982E-01-3.02903E-03
 -1       532 1.10859E-01 2.60307E-01-3.27561E-03
 -1       533 2.76953E-01 2.89301E+00 6.81256E-04
 -1       534 9.74923E-02 1.98360E-01 3.41856E-03
 -1       535 2.76943E-01 2.89301E+00-6.80493E-04
 -1       536 2.25022E-01 1.38613E+00 1.91662E-03
 -1       537 1.47935E-01 4.91163E-01 2.90990E-03
 -1       538 2.25044E-01 1.38613E+00-1.91446E-03
 -1       539 2.51737E-01 1.95108E+00 1.42243E-03
 -1       540 2.51741E-01 1.95108E+00-1.42158E-03
 -1       541 3.20536E-02 2.47475E-02 3.09013E-05
 -1       542 4.68734E-02 4.74147E-02 1.19953E-06
 -1       543 8.39309E-02 1.45340E-01-3.58763E-03
 -1       544 1.14041E-02 6.50036E-03-1.17514E-03
 -1       545 1.80536E-01 7.83314E-01-2.58675E-03
 -1       546 1.95170E-01 9.50443E-01-1.92674E-05
 -1       547 2.83388E-01 3.46429E+00-3.25148E-06
 -1       548 6.90342E-02 9.79204E-02-3.72006E-03
 -1       549 2.82210E-01 3.30580E+00-7.24806E-07
 -1       550 9.06456E-02 1.71241E-01 7.94875E-07
 -1       551 2.72310E-01 2.64990E+00-8.68939E-07
 -1       552 2.68611E-01 2.49019E+00 7.45109E-06
 -1       553 2.48847E-01 1.87752E+00-1.66747E-06
 -1       554 2.75525E-01 2.81164E+00-3.38094E-06
 -1       555 2.28806E-01 1.45364E+00 2.06893E-06
 -1       556 2.54525E-01 2.02618E+00 3.31101E-06
 -1       557 2.42647E-01 1.73235E+00-2.36173E-07
 -1       558 2.35989E-01 1.59096E+00 2.07814E-08
 -1       559 2.80463E-01 3.14008E+00 9.91595E-07
 -1       560 2.78253E-01 2.97514E+00-3.26720E-09
 -1       561 2.64406E-01 2.33281E+00 8.97521E-07
 -1       562 2.21165E-01 1.32068E+00 3.59296E-06
 -1       563 2.04328E-01 1.06876E+00-7.14055E-06
 -1       564 1.04259E-01 2.29180E-01-9.30544E-07
 -1       565 1.17356E-01 2.94963E-01 6.63478E-06
 -1       566 1.42069E-01 4.48933E-01-3.17051E-07
 -1       567 1.53685E-01 5.36529E-01-5.17418E-07
 -1       568 1.29959E-01 3.68315E-01 6.16020E-06
 -1       569 1.64808E-01 6.30813E-01 6.21091E-06
 -1       570 2.59714E-01 2.17804E+00 9.14347E-07
 -1       571 2.13002E-01 1.19238E+00-6.07760E-06
 -1       572 1.75435E-01 7.31496E-01 6.26568E-06
 -1       573 1.90416E-01 8.92907E-01-2.46489E-03
 -1       574 6.18592E-02 7.98109E-02 4.30309E-06
 -1       575 2.84371E-01 3.68502E+00 5.76919E-05
 -1       576 2.26658E-02 1.39327E-02 3.46636E-03
 -1       577 2.83913E-01 3.56387E+00-1.85599E-04
 -1       578 1.97941E-02 1.23508E-02-1.37339E-05
 -1       579 9.80090E-03 4.95401E-03-3.09786E-03
 -1       580 9.71605E-03 4.92841E-03 3.06916E-03
 -1       581 2.84369E-01 3.70148E+00 1.30566E-04
 -1       582 2.84379E-01 3.70232E+00-1.24948E-04
 -1       583 2.84046E-01 3.59355E+00 1.55872E-06
 -1       584 4.69101E-03 3.02252E-03-1.47666E-03
 -1       585 4.76893E-03 2.47888E-03-2.33749E-03
 -1       586 1.29470E-02 5.55897E-03-4.95801E-03
 -1       587 4.72680E-03 2.46821E-03 2.31174E-03
 -1       588 4.65416E-03 3.00760E-03 1.45457E-03
 -1       589 1.29029E-02 5.54575E-03 4.94303E-03
 -1       590 2.84461E-01 3.75550E+00-1.02431E-04
 -1       591 2.84498E-01 3.75555E+00-6.85052E-05
 -1       592 2.84254E-01 3.67145E+00-1.96850E-04
 -1       593 2.84498E-01 3.75512E+00 7.25636E-05
 -1       594 2.84459E-01 3.75507E+00 1.05762E-04
 -1       595 2.84252E-01 3.67103E+00 2.01438E-04
 -1       596 5.15417E-03 3.30838E-03 9.52928E-04
 -1       597 5.17818E-03 3.34042E-03 3.27573E-04
 -1       598 1.02849E-02 5.69485E-03 2.04908E-03
 -1       599 5.55163E-03 3.67050E-03-3.27247E-04
 -1       600 5.37830E-03 3.42627E-03-1.03158E-03
 -1       601 1.11518E-02 6.53669E-03-3.58410E-05
 -1       602 1.05746E-02 5.80255E-03-2.12317E-03
 -1       603 2.84507E-01 3.74690E+00 1.95396E-05
 -1       604 2.84496E-01 3.74687E+00 5.39159E-05
 -1       605 2.84376E-01 3.69325E+00 9.71841E-05
 -1       606 2.84505E-01 3.74942E+00-4.96715E-05
 -1       607 2.84506E-01 3.74943E+00-1.42632E-05
 -1       608 2.84376E-01 3.68756E+00 3.27213E-06
 -1       609 2.84384E-01 3.69621E+00-9.00276E-05
 -1       610 2.71347E-02 1.69213E-02 5.65428E-03
 -1       611 1.92259E-02 9.95158E-03 5.17456E-03
 -1       612 1.61622E-02 8.68591E-03 3.51771E-03
 -1       613 4.30637E-02 3.85220E-02 5.83375E-03
 -1       614 3.53049E-02 2.67028E-02 5.83166E-03
 -1       615 3.09587E-02 2.24716E-02 3.73362E-03
 -1       616 5.81897E-02 6.88902E-02 5.69809E-03
 -1       617 5.06692E-02 5.25487E-02 5.77975E-03
 -1       618 4.68376E-02 4.64323E-02 3.82733E-03
 -1       619 7.29189E-02 1.08176E-01 5.51510E-03
 -1       620 6.56249E-02 8.74594E-02 5.61526E-03
 -1       621 6.19167E-02 7.90180E-02 3.73949E-03
 -1       622 8.71371E-02 1.56007E-01 5.31660E-03
 -1       623 8.01010E-02 1.31066E-01 5.41773E-03
 -1       624 7.65306E-02 1.20455E-01 3.61593E-03
 -1       625 1.00858E-01 2.12029E-01 5.12855E-03
 -1       626 9.40532E-02 1.83022E-01 5.21856E-03
 -1       627 9.06382E-02 1.70351E-01 3.47970E-03
 -1       628 1.14086E-01 2.75959E-01 4.92929E-03
 -1       629 1.07534E-01 2.43027E-01 5.03002E-03
 -1       630 1.04228E-01 2.28355E-01 3.34922E-03
 -1       631 1.26802E-01 3.47515E-01 4.74931E-03
 -1       632 1.20508E-01 3.10803E-01 4.83601E-03
 -1       633 1.17323E-01 2.94177E-01 3.21188E-03
 -1       634 1.39051E-01 4.26413E-01 4.55915E-03
 -1       635 1.32993E-01 3.86058E-01 4.65549E-03
 -1       636 1.29942E-01 3.67552E-01 3.09535E-03
 -1       637 1.50791E-01 5.12363E-01 4.36643E-03
 -1       638 1.44980E-01 4.68524E-01 4.46659E-03
 -1       639 1.42061E-01 4.48206E-01 2.97057E-03
 -1       640 1.62034E-01 6.05078E-01 4.17768E-03
 -1       641 1.56476E-01 5.57894E-01 4.27433E-03
 -1       642 1.53668E-01 5.35830E-01 2.84339E-03
 -1       643 1.72772E-01 7.04254E-01 3.99711E-03
 -1       644 1.67468E-01 6.53875E-01 4.08396E-03
 -1       645 1.64777E-01 6.30150E-01 2.71740E-03
 -1       646 1.83043E-01 8.09561E-01 3.81498E-03
 -1       647 1.77970E-01 7.56124E-01 3.91122E-03
 -1       648 1.75414E-01 7.30811E-01 2.60879E-03
 -1       649 1.92783E-01 9.20599E-01 3.61971E-03
 -1       650 1.87967E-01 8.64262E-01 3.71920E-03
 -1       651 1.85526E-01 8.37381E-01 2.49034E-03
 -1       652 2.02050E-01 1.03739E+00 3.43813E-03
 -1       653 1.97479E-01 9.78283E-01 3.53481E-03
 -1       654 1.95153E-01 9.49734E-01 2.36572E-03
 -1       655 2.10844E-01 1.15985E+00 3.24262E-03
 -1       656 2.06510E-01 1.09813E+00 3.33250E-03
 -1       657 2.04314E-01 1.06815E+00 2.23722E-03
 -1       658 2.19129E-01 1.28702E+00 3.05051E-03
 -1       659 2.15048E-01 1.22283E+00 3.15084E-03
 -1       660 2.12978E-01 1.19186E+00 2.10543E-03
 -1       661 2.26902E-01 1.41891E+00 2.87058E-03
 -1       662 2.23080E-01 1.35240E+00 2.95731E-03
 -1       663 2.21130E-01 1.32020E+00 1.97506E-03
 -1       664 2.34208E-01 1.55523E+00 2.67810E-03
 -1       665 2.30619E-01 1.48653E+00 2.77706E-03
 -1       666 2.28805E-01 1.45318E+00 1.85874E-03
 -1       667 2.41001E-01 1.69572E+00 2.48560E-03
 -1       668 2.37673E-01 1.62498E+00 2.58693E-03
 -1       669 2.35976E-01 1.59053E+00 1.73192E-03
 -1       670 2.47301E-01 1.84003E+00 2.30501E-03
 -1       671 2.44203E-01 1.76741E+00 2.39165E-03
 -1       672 2.42648E-01 1.73196E+00 1.60635E-03
 -1       673 2.53111E-01 1.98792E+00 2.11599E-03
 -1       674 2.50271E-01 1.91354E+00 2.21158E-03
 -1       675 2.48814E-01 1.87715E+00 1.48912E-03
 -1       676 2.58427E-01 2.13907E+00 1.92433E-03
 -1       677 2.55832E-01 2.06310E+00 2.02364E-03
 -1       678 2.54515E-01 2.02585E+00 1.36206E-03
 -1       679 2.63248E-01 2.29321E+00 1.73852E-03
 -1       680 2.60896E-01 2.21579E+00 1.83218E-03
 -1       681 2.59705E-01 2.17773E+00 1.23763E-03
 -1       682 2.67569E-01 2.45004E+00 1.54945E-03
 -1       683 2.65470E-01 2.37131E+00 1.64726E-03
 -1       684 2.64395E-01 2.33254E+00 1.11499E-03
 -1       685 2.71401E-01 2.60926E+00 1.36133E-03
 -1       686 2.69548E-01 2.52937E+00 1.45686E-03
 -1       687 2.68603E-01 2.48994E+00 9.90396E-04
 -1       688 2.74735E-01 2.77059E+00 1.17597E-03
 -1       689 2.73128E-01 2.68968E+00 1.26859E-03
 -1       690 2.72311E-01 2.64969E+00 8.65348E-04
 -1       691 2.77587E-01 2.93374E+00 9.85347E-04
 -1       692 2.76220E-01 2.85195E+00 1.08363E-03
 -1       693 2.75524E-01 2.81146E+00 7.43858E-04
 -1       694 2.79926E-01 3.09843E+00 7.95247E-04
 -1       695 2.78818E-01 3.01591E+00 8.94543E-04
 -1       696 2.78238E-01 2.97499E+00 6.19219E-04
 -1       697 2.81778E-01 3.26433E+00 6.14801E-04
 -1       698 2.80905E-01 3.18124E+00 7.03331E-04
 -1       699 2.80462E-01 3.13995E+00 4.93882E-04
 -1       700 2.83146E-01 3.43153E+00 4.28006E-04
 -1       701 2.82525E-01 3.34801E+00 5.24810E-04
 -1       702 2.82186E-01 3.30644E+00 3.77416E-04
 -1       703 2.84040E-01 3.60261E+00 2.51001E-04
 -1       704 2.83662E-01 3.51879E+00 3.35052E-04
 -1       705 2.83452E-01 3.47735E+00 2.48170E-04
 -1       706 2.84175E-01 3.63303E+00 1.68306E-04
 -1       707 1.92036E-02 9.92869E-03-5.17623E-03
 -1       708 2.71110E-02 1.68943E-02-5.65722E-03
 -1       709 1.61824E-02 8.68344E-03-3.53182E-03
 -1       710 3.52738E-02 2.66528E-02-5.84128E-03
 -1       711 4.30310E-02 3.84634E-02-5.84383E-03
 -1       712 3.09065E-02 2.23979E-02-3.74452E-03
 -1       713 5.07063E-02 5.26239E-02-5.77228E-03
 -1       714 5.82352E-02 6.89799E-02-5.68578E-03
 -1       715 4.68576E-02 4.64403E-02-3.83059E-03
 -1       716 6.54918E-02 8.71082E-02-5.62787E-03
 -1       717 7.27896E-02 1.07787E-01-5.53147E-03
 -1       718 6.18256E-02 7.87805E-02-3.74809E-03
 -1       719 8.02331E-02 1.31524E-01-5.43625E-03
 -1       720 8.72735E-02 1.56500E-01-5.33678E-03
 -1       721 7.65399E-02 1.20502E-01-3.65455E-03
 -1       722 9.40649E-02 1.83024E-01-5.21285E-03
 -1       723 1.00867E-01 2.12036E-01-5.11729E-03
 -1       724 9.07802E-02 1.70876E-01-3.49231E-03
 -1       725 1.07537E-01 2.43030E-01-5.02647E-03
 -1       726 1.14083E-01 2.75966E-01-4.92709E-03
 -1       727 1.04238E-01 2.28363E-01-3.33916E-03
 -1       728 1.20499E-01 3.10801E-01-4.83307E-03
 -1       729 1.26811E-01 3.47514E-01-4.74666E-03
 -1       730 1.17337E-01 2.94179E-01-3.21202E-03
 -1       731 1.32994E-01 3.86061E-01-4.65368E-03
 -1       732 1.39052E-01 4.26411E-01-4.55386E-03
 -1       733 1.29930E-01 3.67552E-01-3.09523E-03
 -1       734 1.44981E-01 4.68528E-01-4.46266E-03
 -1       735 1.50789E-01 5.12365E-01-4.36476E-03
 -1       736 1.42053E-01 4.48208E-01-2.96698E-03
 -1       737 1.56475E-01 5.57893E-01-4.27215E-03
 -1       738 1.62034E-01 6.05082E-01-4.17546E-03
 -1       739 1.53677E-01 5.35829E-01-2.84211E-03
 -1       740 1.67459E-01 6.53874E-01-4.08150E-03
 -1       741 1.72781E-01 7.04252E-01-3.99480E-03
 -1       742 1.64791E-01 6.30150E-01-2.71755E-03
 -1       743 1.77966E-01 7.56068E-01-3.92829E-03
 -1       744 1.83031E-01 8.09502E-01-3.83172E-03
 -1       745 1.75397E-01 7.30756E-01-2.62777E-03
 -1       746 1.87970E-01 8.64323E-01-3.73989E-03
 -1       747 1.92790E-01 9.20662E-01-3.63968E-03
 -1       748 1.85533E-01 8.37389E-01-2.52677E-03
 -1       749 1.97484E-01 9.78396E-01-3.53932E-03
 -1       750 2.02061E-01 1.03750E+00-3.44859E-03
 -1       751 1.95165E-01 9.49918E-01-2.39366E-03
 -1       752 2.06523E-01 1.09811E+00-3.34670E-03
 -1       753 2.10844E-01 1.15983E+00-3.24631E-03
 -1       754 2.04317E-01 1.06825E+00-2.25546E-03
 -1       755 2.15049E-01 1.22283E+00-3.14521E-03
 -1       756 2.19125E-01 1.28702E+00-3.05022E-03
 -1       757 2.12992E-01 1.19184E+00-2.11008E-03
 -1       758 2.23079E-01 1.35239E+00-2.95793E-03
 -1       759 2.26912E-01 1.41892E+00-2.86511E-03
 -1       760 2.21147E-01 1.32020E+00-1.97628E-03
 -1       761 2.30619E-01 1.48654E+00-2.77170E-03
 -1       762 2.34206E-01 1.55524E+00-2.67232E-03
 -1       763 2.28812E-01 1.45319E+00-1.85423E-03
 -1       764 2.37664E-01 1.62498E+00-2.58117E-03
 -1       765 2.40995E-01 1.69571E+00-2.48975E-03
 -1       766 2.35967E-01 1.59053E+00-1.72640E-03
 -1       767 2.44213E-01 1.76740E+00-2.39592E-03
 -1       768 2.47303E-01 1.84003E+00-2.30136E-03
 -1       769 2.42650E-01 1.73195E+00-1.60712E-03
 -1       770 2.50269E-01 1.91354E+00-2.20908E-03
 -1       771 2.53113E-01 1.98792E+00-2.11375E-03
 -1       772 2.48831E-01 1.87716E+00-1.48495E-03
 -1       773 2.55830E-01 2.06310E+00-2.02073E-03
 -1       774 2.58430E-01 2.13907E+00-1.92105E-03
 -1       775 2.54517E-01 2.02585E+00-1.35976E-03
 -1       776 2.60903E-01 2.21579E+00-1.82961E-03
 -1       777 2.63246E-01 2.29322E+00-1.73366E-03
 -1       778 2.59701E-01 2.17774E+00-1.23169E-03
 -1       779 2.65457E-01 2.37131E+00-1.63899E-03
 -1       780 2.67568E-01 2.45004E+00-1.55297E-03
 -1       781 2.64396E-01 2.33254E+00-1.11065E-03
 -1       782 2.69549E-01 2.52937E+00-1.46071E-03
 -1       783 2.71404E-01 2.60926E+00-1.35908E-03
 -1       784 2.68586E-01 2.48994E+00-9.94105E-04
 -1       785 2.73134E-01 2.68968E+00-1.26623E-03
 -1       786 2.74737E-01 2.77060E+00-1.17296E-03
 -1       787 2.72302E-01 2.64968E+00-8.62341E-04
 -1       788 2.76216E-01 2.85196E+00-1.07964E-03
 -1       789 2.77582E-01 2.93374E+00-9.85440E-04
 -1       790 2.75523E-01 2.81146E+00-7.42038E-04
 -1       791 2.78816E-01 3.01591E+00-8.95826E-04
 -1       792 2.79927E-01 3.09842E+00-7.97529E-04
 -1       793 2.78233E-01 2.97498E+00-6.20249E-04
 -1       794 2.80917E-01 3.18124E+00-7.04449E-04
 -1       795 2.81785E-01 3.26433E+00-6.13206E-04
 -1       796 2.80467E-01 3.13995E+00-4.94427E-04
 -1       797 2.82518E-01 3.34680E+00-5.26384E-04
 -1       798 2.83135E-01 3.43032E+00-4.30542E-04
 -1       799 2.82179E-01 3.30523E+00-3.79968E-04
 -1       800 2.83660E-01 3.51839E+00-3.35869E-04
 -1       801 2.84039E-01 3.60222E+00-2.48671E-04
 -1       802 2.83444E-01 3.47574E+00-2.50612E-04
 -1       803 2.84179E-01 3.63306E+00-1.63907E-04
 -1       804 2.60933E-01 2.21640E+00 6.03222E-04
 -1       805 2.58464E-01 2.13971E+00 6.36373E-04
 -1       806 2.55869E-01 2.06378E+00 6.64376E-04
 -1       807 2.53149E-01 1.98862E+00 6.99349E-04
 -1       808 2.57173E-01 2.10173E+00 9.30006E-07
 -1       809 2.73164E-01 2.69010E+00 4.17488E-04
 -1       810 2.71437E-01 2.60972E+00 4.49416E-04
 -1       811 2.76258E-01 2.85232E+00 3.54384E-04
 -1       812 2.74771E-01 2.77098E+00 3.89408E-04
 -1       813 2.73965E-01 2.73053E+00 3.77465E-06
 -1       814 2.81817E-01 3.26435E+00-2.06477E-04
 -1       815 2.82552E-01 3.34678E+00-1.72511E-04
 -1       816 2.83142E-01 3.42604E+00-1.48685E-04
 -1       817 2.82844E-01 3.38496E+00-1.22940E-06
 -1       818 2.83672E-01 3.51406E+00-1.07676E-04
 -1       819 2.37706E-01 1.62584E+00 8.46788E-04
 -1       820 2.34242E-01 1.55612E+00 8.84944E-04
 -1       821 2.30658E-01 1.48746E+00 9.14641E-04
 -1       822 2.26941E-01 1.41987E+00 9.44068E-04
 -1       823 2.32453E-01 1.52177E+00 2.04673E-06
 -1       824 2.41033E-01 1.69654E+00-8.19478E-04
 -1       825 2.44249E-01 1.76820E+00-7.88207E-04
 -1       826 2.47342E-01 1.84080E+00-7.62082E-04
 -1       827 2.50308E-01 1.91428E+00-7.24801E-04
 -1       828 2.45794E-01 1.80448E+00 7.84242E-09
 -1       829 2.63284E-01 2.29379E+00-5.70550E-04
 -1       830 2.65499E-01 2.37185E+00-5.41192E-04
 -1       831 2.67592E-01 2.45055E+00-5.12392E-04
 -1       832 2.69583E-01 2.52985E+00-4.76427E-04
 -1       833 2.66561E-01 2.41119E+00-1.43755E-06
 -1       834 2.79964E-01 3.09869E+00-2.63879E-04
 -1       835 2.80951E-01 3.18147E+00-2.31708E-04
 -1       836 2.77612E-01 2.93407E+00-3.29301E-04
 -1       837 2.78851E-01 3.01621E+00-2.92592E-04
 -1       838 2.79413E-01 3.05744E+00-2.65506E-07
 -1       839 2.10885E-01 1.16091E+00-1.07738E-03
 -1       840 2.15087E-01 1.22388E+00-1.03505E-03
 -1       841 2.19165E-01 1.28804E+00-1.00489E-03
 -1       842 2.23119E-01 1.35338E+00-9.67556E-04
 -1       843 2.17135E-01 1.25593E+00 1.69879E-06
 -1       844 8.01163E-02 1.32814E-01 1.78178E-03
 -1       845 7.29336E-02 1.09961E-01 1.82471E-03
 -1       846 8.71757E-02 1.57772E-01 1.75809E-03
 -1       847 8.36473E-02 1.45251E-01-5.31860E-06
 -1       848 9.40943E-02 1.84758E-01 1.72458E-03
 -1       849 1.20536E-01 3.12409E-01 1.58951E-03
 -1       850 1.14121E-01 2.77598E-01 1.62787E-03
 -1       851 1.07572E-01 2.44697E-01 1.65352E-03
 -1       852 1.00890E-01 2.13734E-01 1.69867E-03
 -1       853 1.10860E-01 2.61109E-01 3.24545E-06
 -1       854 4.29846E-02 4.03685E-02-1.92555E-03
 -1       855 5.07007E-02 5.45213E-02-1.89615E-03
 -1       856 5.44171E-02 6.25262E-02 1.97205E-06
 -1       857 5.81963E-02 7.07365E-02-1.86954E-03
 -1       858 6.54690E-02 8.88431E-02-1.87313E-03
 -1       859 1.67494E-01 6.55232E-01 1.34174E-03
 -1       860 1.62069E-01 6.06464E-01 1.38048E-03
 -1       861 1.56509E-01 5.59317E-01 1.40513E-03
 -1       862 1.50826E-01 5.13814E-01 1.44093E-03
 -1       863 1.59299E-01 5.82858E-01 3.39039E-06
 -1       864 1.87952E-01 8.64950E-01 1.21063E-03
 -1       865 1.83026E-01 8.10292E-01 1.25090E-03
 -1       866 1.92804E-01 9.21585E-01 1.18565E-03
 -1       867 1.90373E-01 8.93100E-01-2.43042E-05
 -1       868 1.97499E-01 9.79238E-01 1.15889E-03
 -1       869 1.33033E-01 3.87606E-01 1.53281E-03
 -1       870 1.26844E-01 3.49092E-01 1.56346E-03
 -1       871 1.45019E-01 4.70010E-01 1.46862E-03
 -1       872 1.39089E-01 4.27927E-01 1.50317E-03
 -1       873 1.36067E-01 4.07729E-01 3.33536E-06
 -1       874 2.73183E-02 1.90893E-02-1.76367E-03
 -1       875 3.55773E-02 2.91036E-02-1.90474E-03
 -1       876 2.11820E-02 1.32686E-02-1.65809E-03
 -1       877 2.59332E-02 1.78759E-02 5.65520E-06
 -1       878 1.69323E-02 9.74776E-03-2.28578E-03
 -1       879 1.55721E-02 9.13872E-03-7.23135E-04
 -1       880 5.06541E-02 5.44512E-02 1.90297E-03
 -1       881 4.30122E-02 4.04220E-02 1.91628E-03
 -1       882 3.56074E-02 2.91410E-02 1.92402E-03
 -1       883 3.95141E-02 3.50566E-02 1.54071E-05
 -1       884 2.73389E-02 1.91113E-02 1.79522E-03
 -1       885 2.83674E-01 3.51446E+00 1.07130E-04
 -1       886 2.83152E-01 3.42725E+00 1.44202E-04
 -1       887 2.83984E-01 3.57912E+00 9.05105E-05
 -1       888 2.83747E-01 3.52889E+00-3.70759E-08
 -1       889 2.84165E-01 3.62482E+00 1.14981E-04
 -1       890 2.84224E-01 3.63927E+00 3.65208E-05
 -1       891 2.15085E-01 1.22388E+00 1.03397E-03
 -1       892 2.10873E-01 1.16093E+00 1.07091E-03
 -1       893 2.06543E-01 1.09911E+00 1.09566E-03
 -1       894 2.02080E-01 1.03840E+00 1.13650E-03
 -1       895 2.08717E-01 1.12993E+00-9.30229E-07
 -1       896 2.82562E-01 3.34799E+00 1.71040E-04
 -1       897 2.81809E-01 3.26434E+00 2.08950E-04
 -1       898 2.80946E-01 3.18147E+00 2.34177E-04
 -1       899 2.79966E-01 3.09869E+00 2.62819E-04
 -1       900 2.81383E-01 3.22281E+00 8.14473E-07
 -1       901 1.00900E-01 2.13739E-01-1.68875E-03
 -1       902 1.07574E-01 2.44700E-01-1.65075E-03
 -1       903 8.73114E-02 1.58278E-01-1.77896E-03
 -1       904 9.41005E-02 1.84758E-01-1.71495E-03
 -1       905 9.74998E-02 1.99209E-01 1.06344E-06
 -1       906 1.62074E-01 6.06468E-01-1.37372E-03
 -1       907 1.67501E-01 6.55231E-01-1.34307E-03
 -1       908 1.72808E-01 7.05579E-01-1.31703E-03
 -1       909 1.78002E-01 7.57379E-01-1.30546E-03
 -1       910 1.70168E-01 6.80374E-01-5.45240E-07
 -1       911 2.02083E-01 1.03852E+00-1.15343E-03
 -1       912 2.06548E-01 1.09910E+00-1.10762E-03
 -1       913 1.97503E-01 9.79352E-01-1.18582E-03
 -1       914 1.99802E-01 1.00893E+00-1.54012E-05
 -1       915 1.92809E-01 9.21654E-01-1.22859E-03
 -1       916 1.26838E-01 3.49091E-01-1.56412E-03
 -1       917 1.33029E-01 3.87609E-01-1.52598E-03
 -1       918 1.14126E-01 2.77601E-01-1.62079E-03
 -1       919 1.20542E-01 3.12409E-01-1.59000E-03
 -1       920 1.23703E-01 3.30712E-01-9.66444E-08
 -1       921 1.50827E-01 5.13814E-01-1.43776E-03
 -1       922 1.56514E-01 5.59314E-01-1.40344E-03
 -1       923 1.39086E-01 4.27924E-01-1.50157E-03
 -1       924 1.45017E-01 4.70010E-01-1.46522E-03
 -1       925 1.47930E-01 4.91877E-01 1.87312E-06
 -1       926 1.53122E-02 9.02335E-03 6.39014E-04
 -1       927 1.66891E-02 9.62606E-03 2.22821E-03
 -1       928 2.11999E-02 1.33031E-02 1.63542E-03
 -1       929 2.84229E-01 3.64180E+00-3.20990E-05
 -1       930 2.84171E-01 3.62696E+00-1.08051E-04
 -1       931 2.83983E-01 3.57872E+00-8.71828E-05
 -1       932 2.58463E-01 2.13971E+00-6.33885E-04
 -1       933 2.60934E-01 2.21640E+00-5.97916E-04
 -1       934 2.53151E-01 1.98862E+00-6.95995E-04
 -1       935 2.55869E-01 2.06378E+00-6.61613E-04
 -1       936 2.71436E-01 2.60971E+00-4.50168E-04
 -1       937 2.73164E-01 2.69010E+00-4.12483E-04
 -1       938 2.74773E-01 2.77099E+00-3.86154E-04
 -1       939 2.76255E-01 2.85232E+00-3.55629E-04
 -1       940 2.34241E-01 1.55613E+00-8.81758E-04
 -1       941 2.37694E-01 1.62584E+00-8.45447E-04
 -1       942 2.26946E-01 1.41987E+00-9.41381E-04
 -1       943 2.30657E-01 1.48746E+00-9.09696E-04
 -1       944 2.44243E-01 1.76820E+00 7.89441E-04
 -1       945 2.41040E-01 1.69654E+00 8.19556E-04
 -1       946 2.50307E-01 1.91428E+00 7.24473E-04
 -1       947 2.47330E-01 1.84080E+00 7.63331E-04
 -1       948 2.65504E-01 2.37185E+00 5.39817E-04
 -1       949 2.63280E-01 2.29379E+00 5.76941E-04
 -1       950 2.69586E-01 2.52985E+00 4.79899E-04
 -1       951 2.67608E-01 2.45055E+00 5.13952E-04
 -1       952 6.56022E-02 8.91859E-02 1.86109E-03
 -1       953 5.81551E-02 7.06511E-02 1.88064E-03
 -1       954 6.92558E-02 9.94890E-02-3.19378E-06
 -1       955 8.02517E-02 1.33278E-01-1.81324E-03
 -1       956 7.27996E-02 1.09575E-01-1.85298E-03
 -1       957 2.62114E-01 2.25508E+00 3.48963E-06
 -1       958 2.23109E-01 1.35338E+00 9.70057E-04
 -1       959 2.19165E-01 1.28803E+00 1.00889E-03
 -1       960 2.39374E-01 1.66117E+00 2.68518E-07
 -1       961 1.78010E-01 7.57428E-01 1.29377E-03
 -1       962 1.72814E-01 7.05581E-01 1.31563E-03
 -1       963 1.80504E-01 7.83609E-01-1.06551E-05
 -1       964 1.83020E-01 8.10233E-01-1.29331E-03
 -1       965 1.87960E-01 8.65013E-01-1.26027E-03
 -1       966 2.70515E-01 2.56977E+00 2.58234E-07
 -1       967 2.78854E-01 3.01621E+00 2.91137E-04
 -1       968 2.77620E-01 2.93407E+00 3.28050E-04
 -1       969 2.76943E-01 2.89318E+00-1.03530E-06
 -1       970 2.25032E-01 1.38660E+00 2.11822E-06
 -1       971 2.51738E-01 1.95143E+00-4.21178E-09
 -1       972-2.57180E-01 2.10141E+00-1.29841E-03
 -1       973-2.73966E-01 2.73033E+00-8.07182E-04
 -1       974-2.82870E-01 3.38777E+00 3.18556E-04
 -1       975-2.32460E-01 1.52132E+00-1.79096E-03
 -1       976-2.45811E-01 1.80411E+00-1.54432E-03
 -1       977-2.66550E-01 2.41093E+00-1.05434E-03
 -1       978-2.79417E-01 3.05730E+00 5.55559E-04
 -1       979-2.17136E-01 1.25543E+00 2.04155E-03
 -1       980-8.36506E-02 1.44373E-01-3.54677E-03
 -1       981-1.10864E-01 2.60310E-01-3.27630E-03
 -1       982-5.44945E-02 6.17265E-02 3.77327E-03
 -1       983-1.59308E-01 5.82177E-01-2.78145E-03
 -1       984-1.90389E-01 8.92771E-01-2.41837E-03
 -1       985-1.36064E-01 4.06979E-01-3.03002E-03
 -1       986-2.26182E-02 1.38829E-02 3.48007E-03
 -1       987-3.91596E-02 3.35359E-02-3.83899E-03
 -1       988-2.83914E-01 3.56467E+00-1.92292E-04
 -1       989-2.62120E-01 2.25479E+00 1.17595E-03
 -1       990-2.08732E-01 1.12953E+00-2.16421E-03
 -1       991-2.81393E-01 3.22289E+00-4.37068E-04
 -1       992-2.39386E-01 1.66076E+00 1.66895E-03
 -1       993-2.70527E-01 2.56955E+00 9.26936E-04
 -1       994-2.51734E-01 1.95108E+00 1.42239E-03
 -1       995-9.74933E-02 1.98369E-01 3.40432E-03
 -1       996-1.70157E-01 6.79727E-01 2.65639E-03
 -1       997-1.99812E-01 1.00832E+00 2.32336E-03
 -1       998-1.23687E-01 3.29941E-01 3.15329E-03
 -1       999-1.47936E-01 4.91164E-01 2.90857E-03
 -1      1000-1.08456E-02 6.23556E-03-1.06974E-03
 -1      1001-2.84370E-01 3.69009E+00 5.01816E-05
 -1      1002-3.90981E-02 3.34312E-02 3.86411E-03
 -1      1003-5.44245E-02 6.15650E-02-3.78695E-03
 -1      1004-6.92932E-02 9.86616E-02-3.68068E-03
 -1      1005-7.65354E-02 1.21337E-01 1.25416E-05
 -1      1006-2.82882E-01 3.39019E+00-3.16557E-04
 -1      1007-2.62125E-01 2.25480E+00-1.17449E-03
 -1      1008-2.73982E-01 2.73034E+00 8.02532E-04
 -1      1009-2.32454E-01 1.52133E+00 1.79328E-03
 -1      1010-2.08708E-01 1.12949E+00 2.18123E-03
 -1      1011-2.17141E-01 1.25543E+00-2.04067E-03
 -1      1012-2.39371E-01 1.66076E+00-1.67018E-03
 -1      1013-2.25023E-01 1.38613E+00 1.91662E-03
 -1      1014-1.23691E-01 3.29933E-01-3.15627E-03
 -1      1015-1.70153E-01 6.79719E-01-2.66002E-03
 -1      1016-1.80545E-01 7.83433E-01-2.55153E-03
 -1      1017-1.85467E-01 8.37192E-01 2.42450E-05
 -1      1018-1.59294E-01 5.82181E-01 2.78439E-03
 -1      1019-2.45808E-01 1.80410E+00 1.54684E-03
 -1      1020-2.70519E-01 2.56954E+00-9.31149E-04
 -1      1021-1.99788E-01 1.00808E+00-2.31208E-03
 -1      1022-2.81399E-01 3.22290E+00 4.31124E-04
 -1      1023-2.79424E-01 3.05730E+00-5.58680E-04
 -1      1024-1.36075E-01 4.06983E-01 3.03167E-03
 -1      1025-1.10853E-01 2.60302E-01 3.27965E-03
 -1      1026-2.76945E-01 2.89301E+00-6.80171E-04
 -1      1027-2.57181E-01 2.10141E+00 1.29878E-03
 -1      1028-9.75164E-02 1.98369E-01-3.41130E-03
 -1      1029-2.25045E-01 1.38613E+00-1.91911E-03
 -1      1030-1.47932E-01 4.91162E-01-2.90553E-03
 -1      1031-2.76953E-01 2.89301E+00 6.78171E-04
 -1      1032-2.51741E-01 1.95109E+00-1.42281E-03
 -1      1033-2.66566E-01 2.41093E+00 1.05085E-03
 -1      1034-3.20548E-02 2.47493E-02-2.45898E-05
 -1      1035-4.68568E-02 4.74161E-02-1.51925E-07
 -1      1036-8.39397E-02 1.45347E-01 3.58533E-03
 -1      1037-1.13987E-02 6.50274E-03 1.16790E-03
 -1      1038-1.80543E-01 7.83310E-01 2.58804E-03
 -1      1039-1.95169E-01 9.50439E-01 2.16535E-05
 -1      1040-2.83392E-01 3.46429E+00-4.27621E-06
 -1      1041-6.90435E-02 9.79204E-02 3.71993E-03
 -1      1042-2.82199E-01 3.30580E+00 3.31238E-06
 -1      1043-9.06577E-02 1.71239E-01-4.74015E-07
 -1      1044-2.72313E-01 2.64990E+00 1.09630E-06
 -1      1045-2.75534E-01 2.81164E+00-8.39346E-06
 -1      1046-2.64408E-01 2.33281E+00-9.89270E-07
 -1      1047-2.80465E-01 3.14007E+00-2.31616E-06
 -1      1048-2.42657E-01 1.73235E+00 3.79497E-08
 -1      1049-2.21160E-01 1.32068E+00 3.99746E-06
 -1      1050-2.48826E-01 1.87752E+00-5.71330E-06
 -1      1051-2.54523E-01 2.02618E+00-1.64467E-06
 -1      1052-2.78251E-01 2.97513E+00 3.03632E-08
 -1      1053-2.68613E-01 2.49019E+00 6.07180E-06
 -1      1054-2.04330E-01 1.06876E+00 7.51117E-06
 -1      1055-1.04254E-01 2.29181E-01-5.33700E-06
 -1      1056-1.17356E-01 2.94963E-01 6.28221E-06
 -1      1057-2.28816E-01 1.45364E+00 4.05457E-06
 -1      1058-1.42070E-01 4.48932E-01-1.01408E-06
 -1      1059-1.53686E-01 5.36529E-01-1.22119E-06
 -1      1060-1.29960E-01 3.68315E-01 5.77126E-06
 -1      1061-2.35988E-01 1.59096E+00 3.17255E-06
 -1      1062-2.59715E-01 2.17804E+00-3.93079E-07
 -1      1063-1.64810E-01 6.30813E-01 5.61314E-06
 -1      1064-2.13003E-01 1.19238E+00-6.84134E-06
 -1      1065-1.75438E-01 7.31498E-01 6.23033E-06
 -1      1066-1.90417E-01 8.92910E-01 2.46469E-03
 -1      1067-6.18632E-02 7.98143E-02 2.62164E-07
 -1      1068-2.84372E-01 3.68502E+00-5.94963E-05
 -1      1069-2.26668E-02 1.39315E-02-3.46897E-03
 -1      1070-2.83911E-01 3.56387E+00 1.88135E-04
 -1      1071-1.98001E-02 1.23440E-02 1.38217E-05
 -1      1072-9.78675E-03 4.96752E-03 3.09691E-03
 -1      1073-9.70802E-03 5.01841E-03-3.05228E-03
 -1      1074-2.84370E-01 3.70148E+00-1.30635E-04
 -1      1075-2.84379E-01 3.70232E+00 1.24311E-04
 -1      1076-2.84040E-01 3.59355E+00-1.08007E-06
 -1      1077-4.75954E-03 2.48761E-03 2.33362E-03
 -1      1078-4.69117E-03 3.03361E-03 1.47423E-03
 -1      1079-1.29374E-02 5.56095E-03 4.96763E-03
 -1      1080-4.56390E-03 2.84006E-03-1.46136E-03
 -1      1081-4.72795E-03 2.46573E-03-2.29561E-03
 -1      1082-1.28902E-02 5.57602E-03-4.94891E-03
 -1      1083-2.84498E-01 3.75555E+00 6.74932E-05
 -1      1084-2.84461E-01 3.75550E+00 1.01417E-04
 -1      1085-2.84255E-01 3.67145E+00 1.95779E-04
 -1      1086-2.84462E-01 3.75507E+00-1.07077E-04
 -1      1087-2.84499E-01 3.75512E+00-7.34937E-05
 -1      1088-2.84253E-01 3.67102E+00-2.01355E-04
 -1      1089-5.15812E-03 3.34319E-03-3.27624E-04
 -1      1090-5.28192E-03 3.44547E-03-9.61259E-04
 -1      1091-1.03085E-02 5.74244E-03-2.02051E-03
 -1      1092-5.36849E-03 3.42244E-03 1.03203E-03
 -1      1093-5.52846E-03 3.67057E-03 3.27717E-04
 -1      1094-1.11402E-02 6.51548E-03 2.77899E-05
 -1      1095-1.05636E-02 5.81150E-03 2.12201E-03
 -1      1096-2.84497E-01 3.74687E+00-5.52680E-05
 -1      1097-2.84507E-01 3.74689E+00-2.14097E-05
 -1      1098-2.84377E-01 3.69325E+00-9.82991E-05
 -1      1099-2.84504E-01 3.74943E+00 1.30217E-05
 -1      1100-2.84504E-01 3.74942E+00 4.90876E-05
 -1      1101-2.84375E-01 3.68756E+00-4.75940E-06
 -1      1102-2.84382E-01 3.69621E+00 8.93479E-05
 -1      1103-1.92273E-02 9.94935E-03-5.17667E-03
 -1      1104-2.71373E-02 1.69099E-02-5.66212E-03
 -1      1105-1.61617E-02 8.70204E-03-3.51152E-03
 -1      1106-3.53146E-02 2.67164E-02-5.83164E-03
 -1      1107-4.30654E-02 3.85207E-02-5.83255E-03
 -1      1108-3.09619E-02 2.24726E-02-3.73004E-03
 -1      1109-5.06710E-02 5.25463E-02-5.77932E-03
 -1      1110-5.82052E-02 6.88879E-02-5.69612E-03
 -1      1111-4.68533E-02 4.64315E-02-3.82583E-03
 -1      1112-6.56299E-02 8.74643E-02-5.61217E-03
 -1      1113-7.29196E-02 1.08179E-01-5.51501E-03
 -1      1114-6.19114E-02 7.90178E-02-3.73897E-03
 -1      1115-8.00957E-02 1.31064E-01-5.41842E-03
 -1      1116-8.71382E-02 1.55996E-01-5.31896E-03
 -1      1117-7.65239E-02 1.20462E-01-3.61813E-03
 -1      1118-9.40699E-02 1.83024E-01-5.22237E-03
 -1      1119-1.00863E-01 2.12033E-01-5.12336E-03
 -1      1120-9.06364E-02 1.70344E-01-3.47923E-03
 -1      1121-1.07538E-01 2.43027E-01-5.02482E-03
 -1      1122-1.14085E-01 2.75967E-01-4.92835E-03
 -1      1123-1.04246E-01 2.28352E-01-3.34437E-03
 -1      1124-1.20500E-01 3.10801E-01-4.83468E-03
 -1      1125-1.26810E-01 3.47512E-01-4.74476E-03
 -1      1126-1.17339E-01 2.94179E-01-3.21329E-03
 -1      1127-1.32992E-01 3.86063E-01-4.65223E-03
 -1      1128-1.39053E-01 4.26409E-01-4.55472E-03
 -1      1129-1.29934E-01 3.67555E-01-3.09340E-03
 -1      1130-1.44983E-01 4.68527E-01-4.46387E-03
 -1      1131-1.50790E-01 5.12364E-01-4.36579E-03
 -1      1132-1.42052E-01 4.48208E-01-2.96807E-03
 -1      1133-1.56477E-01 5.57893E-01-4.27302E-03
 -1      1134-1.62035E-01 6.05081E-01-4.17633E-03
 -1      1135-1.53678E-01 5.35829E-01-2.84301E-03
 -1      1136-1.67461E-01 6.53873E-01-4.08245E-03
 -1      1137-1.72784E-01 7.04252E-01-3.99596E-03
 -1      1138-1.64793E-01 6.30150E-01-2.71829E-03
 -1      1139-1.77974E-01 7.56131E-01-3.91177E-03
 -1      1140-1.83040E-01 8.09562E-01-3.81103E-03
 -1      1141-1.75402E-01 7.30814E-01-2.61073E-03
 -1      1142-1.87965E-01 8.64263E-01-3.71538E-03
 -1      1143-1.92786E-01 9.20597E-01-3.62320E-03
 -1      1144-1.85522E-01 8.37374E-01-2.48407E-03
 -1      1145-1.97480E-01 9.78280E-01-3.53908E-03
 -1      1146-2.02054E-01 1.03738E+00-3.43939E-03
 -1      1147-1.95141E-01 9.49735E-01-2.36942E-03
 -1      1148-2.06524E-01 1.09814E+00-3.33671E-03
 -1      1149-2.10848E-01 1.15986E+00-3.23913E-03
 -1      1150-2.04314E-01 1.06815E+00-2.23814E-03
 -1      1151-2.15051E-01 1.22283E+00-3.14682E-03
 -1      1152-2.19128E-01 1.28702E+00-3.05163E-03
 -1      1153-2.12994E-01 1.19186E+00-2.10252E-03
 -1      1154-2.23079E-01 1.35239E+00-2.95956E-03
 -1      1155-2.26915E-01 1.41891E+00-2.86442E-03
 -1      1156-2.21150E-01 1.32020E+00-1.97764E-03
 -1      1157-2.30622E-01 1.48654E+00-2.77170E-03
 -1      1158-2.34209E-01 1.55524E+00-2.67359E-03
 -1      1159-2.28806E-01 1.45319E+00-1.85566E-03
 -1      1160-2.37666E-01 1.62498E+00-2.58405E-03
 -1      1161-2.41003E-01 1.69571E+00-2.48936E-03
 -1      1162-2.35969E-01 1.59054E+00-1.73163E-03
 -1      1163-2.44220E-01 1.76741E+00-2.39779E-03
 -1      1164-2.47305E-01 1.84003E+00-2.29955E-03
 -1      1165-2.42644E-01 1.73195E+00-1.60709E-03
 -1      1166-2.50271E-01 1.91355E+00-2.20764E-03
 -1      1167-2.53112E-01 1.98792E+00-2.11284E-03
 -1      1168-2.48832E-01 1.87716E+00-1.48389E-03
 -1      1169-2.55832E-01 2.06310E+00-2.02071E-03
 -1      1170-2.58429E-01 2.13907E+00-1.92467E-03
 -1      1171-2.54516E-01 2.02585E+00-1.36016E-03
 -1      1172-2.60901E-01 2.21579E+00-1.83169E-03
 -1      1173-2.63247E-01 2.29322E+00-1.73498E-03
 -1      1174-2.59709E-01 2.17774E+00-1.23584E-03
 -1      1175-2.65459E-01 2.37130E+00-1.64138E-03
 -1      1176-2.67568E-01 2.45003E+00-1.55190E-03
 -1      1177-2.64399E-01 2.33254E+00-1.11235E-03
 -1      1178-2.69548E-01 2.52937E+00-1.46077E-03
 -1      1179-2.71404E-01 2.60926E+00-1.36070E-03
 -1      1180-2.68590E-01 2.48995E+00-9.92793E-04
 -1      1181-2.73132E-01 2.68968E+00-1.26828E-03
 -1      1182-2.74739E-01 2.77059E+00-1.17545E-03
 -1      1183-2.72297E-01 2.64969E+00-8.64144E-04
 -1      1184-2.76223E-01 2.85196E+00-1.08278E-03
 -1      1185-2.77586E-01 2.93374E+00-9.88891E-04
 -1      1186-2.75512E-01 2.81146E+00-7.44480E-04
 -1      1187-2.78822E-01 3.01591E+00-8.97870E-04
 -1      1188-2.79933E-01 3.09842E+00-7.96476E-04
 -1      1189-2.78236E-01 2.97498E+00-6.23258E-04
 -1      1190-2.80920E-01 3.18124E+00-7.04620E-04
 -1      1191-2.81784E-01 3.26433E+00-6.11230E-04
 -1      1192-2.80461E-01 3.13995E+00-4.93967E-04
 -1      1193-2.82527E-01 3.34801E+00-5.23025E-04
 -1      1194-2.83146E-01 3.43153E+00-4.28854E-04
 -1      1195-2.82192E-01 3.30644E+00-3.76124E-04
 -1      1196-2.83663E-01 3.51879E+00-3.37250E-04
 -1      1197-2.84040E-01 3.60261E+00-2.51689E-04
 -1      1198-2.83453E-01 3.47735E+00-2.50171E-04
 -1      1199-2.84176E-01 3.63303E+00-1.70293E-04
 -1      1200-2.71128E-02 1.68792E-02 5.67055E-03
 -1      1201-1.92038E-02 9.92196E-03 5.18484E-03
 -1      1202-1.61747E-02 8.68454E-03 3.53876E-03
 -1      1203-4.30370E-02 3.84593E-02 5.84541E-03
 -1      1204-3.52830E-02 2.66663E-02 5.84553E-03
 -1      1205-3.09079E-02 2.23978E-02 3.74907E-03
 -1      1206-5.82344E-02 6.89766E-02 5.68843E-03
 -1      1207-5.07105E-02 5.26275E-02 5.77232E-03
 -1      1208-4.68490E-02 4.64429E-02 3.82716E-03
 -1      1209-7.27952E-02 1.07788E-01 5.53392E-03
 -1      1210-6.54989E-02 8.71066E-02 5.63104E-03
 -1      1211-6.18269E-02 7.87782E-02 3.75054E-03
 -1      1212-8.72744E-02 1.56507E-01 5.33404E-03
 -1      1213-8.02396E-02 1.31526E-01 5.43672E-03
 -1      1214-7.65448E-02 1.20500E-01 3.65644E-03
 -1      1215-1.00859E-01 2.12035E-01 5.12165E-03
 -1      1216-9.40539E-02 1.83027E-01 5.21076E-03
 -1      1217-9.07760E-02 1.70881E-01 3.49221E-03
 -1      1218-1.14087E-01 2.75959E-01 4.92896E-03
 -1      1219-1.07535E-01 2.43027E-01 5.02971E-03
 -1      1220-1.04229E-01 2.28360E-01 3.34227E-03
 -1      1221-1.26803E-01 3.47515E-01 4.74885E-03
 -1      1222-1.20509E-01 3.10803E-01 4.83562E-03
 -1      1223-1.17324E-01 2.94177E-01 3.21164E-03
 -1      1224-1.39052E-01 4.26413E-01 4.55840E-03
 -1      1225-1.32994E-01 3.86058E-01 4.65491E-03
 -1      1226-1.29943E-01 3.67552E-01 3.09484E-03
 -1      1227-1.50793E-01 5.12364E-01 4.36549E-03
 -1      1228-1.44981E-01 4.68525E-01 4.46562E-03
 -1      1229-1.42062E-01 4.48207E-01 2.96973E-03
 -1      1230-1.62033E-01 6.05076E-01 4.17916E-03
 -1      1231-1.56477E-01 5.57896E-01 4.27336E-03
 -1      1232-1.53667E-01 5.35831E-01 2.84220E-03
 -1      1233-1.72774E-01 7.04255E-01 3.99594E-03
 -1      1234-1.67468E-01 6.53876E-01 4.08616E-03
 -1      1235-1.64781E-01 6.30146E-01 2.71969E-03
 -1      1236-1.83039E-01 8.09500E-01 3.83192E-03
 -1      1237-1.77966E-01 7.56063E-01 3.92859E-03
 -1      1238-1.75412E-01 7.30756E-01 2.62637E-03
 -1      1239-1.92791E-01 9.20664E-01 3.64092E-03
 -1      1240-1.87975E-01 8.64325E-01 3.74139E-03
 -1      1241-1.85530E-01 8.37390E-01 2.53041E-03
 -1      1242-2.02060E-01 1.03750E+00 3.44293E-03
 -1      1243-1.97489E-01 9.78399E-01 3.53992E-03
 -1      1244-1.95171E-01 9.49920E-01 2.39364E-03
 -1      1245-2.10845E-01 1.15983E+00 3.25267E-03
 -1      1246-2.06510E-01 1.09811E+00 3.33913E-03
 -1      1247-2.04322E-01 1.06825E+00 2.25089E-03
 -1      1248-2.19130E-01 1.28702E+00 3.04909E-03
 -1      1249-2.15052E-01 1.22283E+00 3.15160E-03
 -1      1250-2.12976E-01 1.19184E+00 2.11560E-03
 -1      1251-2.26912E-01 1.41891E+00 2.86536E-03
 -1      1252-2.23081E-01 1.35240E+00 2.95650E-03
 -1      1253-2.21133E-01 1.32020E+00 1.97495E-03
 -1      1254-2.34207E-01 1.55524E+00 2.67652E-03
 -1      1255-2.30622E-01 1.48654E+00 2.77312E-03
 -1      1256-2.28797E-01 1.45319E+00 1.85545E-03
 -1      1257-2.41002E-01 1.69571E+00 2.48771E-03
 -1      1258-2.37672E-01 1.62498E+00 2.58579E-03
 -1      1259-2.35973E-01 1.59053E+00 1.73041E-03
 -1      1260-2.47308E-01 1.84003E+00 2.29972E-03
 -1      1261-2.44212E-01 1.76741E+00 2.39511E-03
 -1      1262-2.42654E-01 1.73196E+00 1.60699E-03
 -1      1263-2.53112E-01 1.98792E+00 2.11550E-03
 -1      1264-2.50271E-01 1.91355E+00 2.20820E-03
 -1      1265-2.48824E-01 1.87716E+00 1.48490E-03
 -1      1266-2.58428E-01 2.13907E+00 1.92285E-03
 -1      1267-2.55833E-01 2.06310E+00 2.02272E-03
 -1      1268-2.54515E-01 2.02585E+00 1.36143E-03
 -1      1269-2.63250E-01 2.29321E+00 1.73714E-03
 -1      1270-2.60897E-01 2.21579E+00 1.83078E-03
 -1      1271-2.59706E-01 2.17773E+00 1.23613E-03
 -1      1272-2.67570E-01 2.45004E+00 1.54795E-03
 -1      1273-2.65471E-01 2.37131E+00 1.64583E-03
 -1      1274-2.64396E-01 2.33254E+00 1.11346E-03
 -1      1275-2.71402E-01 2.60927E+00 1.35958E-03
 -1      1276-2.69549E-01 2.52937E+00 1.45531E-03
 -1      1277-2.68604E-01 2.48994E+00 9.88881E-04
 -1      1278-2.74736E-01 2.77060E+00 1.17303E-03
 -1      1279-2.73129E-01 2.68968E+00 1.26629E-03
 -1      1280-2.72312E-01 2.64969E+00 8.63810E-04
 -1      1281-2.77586E-01 2.93374E+00 9.82663E-04
 -1      1282-2.76220E-01 2.85196E+00 1.08059E-03
 -1      1283-2.75524E-01 2.81146E+00 7.40541E-04
 -1      1284-2.79925E-01 3.09842E+00 7.95062E-04
 -1      1285-2.78817E-01 3.01591E+00 8.92728E-04
 -1      1286-2.78237E-01 2.97499E+00 6.17550E-04
 -1      1287-2.81783E-01 3.26433E+00 6.10392E-04
 -1      1288-2.80916E-01 3.18124E+00 7.03434E-04
 -1      1289-2.80465E-01 3.13995E+00 4.92111E-04
 -1      1290-2.83136E-01 3.43032E+00 4.30398E-04
 -1      1291-2.82517E-01 3.34680E+00 5.23611E-04
 -1      1292-2.82191E-01 3.30523E+00 3.76241E-04
 -1      1293-2.84038E-01 3.60221E+00 2.47771E-04
 -1      1294-2.83658E-01 3.51839E+00 3.34418E-04
 -1      1295-2.83452E-01 3.47574E+00 2.51503E-04
 -1      1296-2.84178E-01 3.63306E+00 1.64075E-04
 -1      1297-2.58464E-01 2.13971E+00-6.34780E-04
 -1      1298-2.60938E-01 2.21640E+00-6.00134E-04
 -1      1299-2.53148E-01 1.98862E+00-6.97911E-04
 -1      1300-2.55868E-01 2.06377E+00-6.62516E-04
 -1      1301-2.57173E-01 2.10173E+00 6.65574E-07
 -1      1302-2.71438E-01 2.60971E+00-4.50878E-04
 -1      1303-2.73158E-01 2.69011E+00-4.15792E-04
 -1      1304-2.74768E-01 2.77098E+00-3.93402E-04
 -1      1305-2.76257E-01 2.85232E+00-3.56380E-04
 -1      1306-2.73972E-01 2.73053E+00 5.64445E-07
 -1      1307-2.82552E-01 3.34678E+00 1.74596E-04
 -1      1308-2.81816E-01 3.26435E+00 2.01995E-04
 -1      1309-2.82844E-01 3.38496E+00 1.54411E-06
 -1      1310-2.83147E-01 3.42604E+00 1.46677E-04
 -1      1311-2.83676E-01 3.51407E+00 1.09802E-04
 -1      1312-2.34241E-01 1.55613E+00-8.82679E-04
 -1      1313-2.37698E-01 1.62584E+00-8.47641E-04
 -1      1314-2.26947E-01 1.41987E+00-9.46009E-04
 -1      1315-2.30655E-01 1.48746E+00-9.08258E-04
 -1      1316-2.32456E-01 1.52177E+00 1.52139E-06
 -1      1317-2.41035E-01 1.69653E+00-8.21036E-04
 -1      1318-2.44252E-01 1.76820E+00-7.84400E-04
 -1      1319-2.47340E-01 1.84080E+00-7.58679E-04
 -1      1320-2.50304E-01 1.91428E+00-7.26728E-04
 -1      1321-2.45795E-01 1.80448E+00 2.74249E-06
 -1      1322-2.63286E-01 2.29379E+00-5.72293E-04
 -1      1323-2.65501E-01 2.37185E+00-5.42995E-04
 -1      1324-2.67596E-01 2.45055E+00-5.14430E-04
 -1      1325-2.69584E-01 2.52985E+00-4.77420E-04
 -1      1326-2.66562E-01 2.41119E+00-3.00310E-06
 -1      1327-2.80951E-01 3.18147E+00 2.26203E-04
 -1      1328-2.79962E-01 3.09869E+00 2.62426E-04
 -1      1329-2.78852E-01 3.01621E+00 2.91238E-04
 -1      1330-2.77619E-01 2.93407E+00 3.25961E-04
 -1      1331-2.79413E-01 3.05744E+00-1.24169E-06
 -1      1332-2.15087E-01 1.22388E+00 1.03332E-03
 -1      1333-2.10871E-01 1.16091E+00 1.07769E-03
 -1      1334-2.23107E-01 1.35338E+00 9.70118E-04
 -1      1335-2.19165E-01 1.28804E+00 1.00823E-03
 -1      1336-2.17134E-01 1.25593E+00 8.89871E-07
 -1      1337-7.29307E-02 1.09962E-01-1.82181E-03
 -1      1338-8.01119E-02 1.32812E-01-1.78249E-03
 -1      1339-8.36517E-02 1.45248E-01 4.84579E-06
 -1      1340-8.71728E-02 1.57766E-01-1.76019E-03
 -1      1341-9.41046E-02 1.84758E-01-1.71868E-03
 -1      1342-1.14126E-01 2.77602E-01-1.62156E-03
 -1      1343-1.20543E-01 3.12408E-01-1.59105E-03
 -1      1344-1.00902E-01 2.13736E-01-1.69287E-03
 -1      1345-1.07576E-01 2.44698E-01-1.65276E-03
 -1      1346-1.10857E-01 2.61111E-01 2.77151E-06
 -1      1347-5.06926E-02 5.45206E-02 1.89675E-03
 -1      1348-4.29806E-02 4.03680E-02 1.92658E-03
 -1      1349-5.81941E-02 7.07353E-02 1.87097E-03
 -1      1350-5.44105E-02 6.25245E-02-6.53459E-06
 -1      1351-6.54728E-02 8.88426E-02 1.87461E-03
 -1      1352-1.62075E-01 6.06467E-01-1.37457E-03
 -1      1353-1.67503E-01 6.55231E-01-1.34373E-03
 -1      1354-1.50828E-01 5.13814E-01-1.43861E-03
 -1      1355-1.56515E-01 5.59314E-01-1.40422E-03
 -1      1356-1.59300E-01 5.82858E-01 2.43990E-06
 -1      1357-1.83026E-01 8.10295E-01-1.24898E-03
 -1      1358-1.87948E-01 8.64950E-01-1.21024E-03
 -1      1359-1.90371E-01 8.93100E-01 2.27237E-05
 -1      1360-1.92796E-01 9.21581E-01-1.18665E-03
 -1      1361-1.97496E-01 9.79237E-01-1.16004E-03
 -1      1362-1.26840E-01 3.49091E-01-1.56549E-03
 -1      1363-1.33029E-01 3.87609E-01-1.52623E-03
 -1      1364-1.39086E-01 4.27923E-01-1.50206E-03
 -1      1365-1.45018E-01 4.70010E-01-1.46590E-03
 -1      1366-1.36067E-01 4.07729E-01 2.43531E-06
 -1      1367-3.55759E-02 2.91034E-02 1.90644E-03
 -1      1368-2.73186E-02 1.90880E-02 1.76970E-03
 -1      1369-2.59377E-02 1.78743E-02-1.91366E-06
 -1      1370-2.11820E-02 1.32662E-02 1.65848E-03
 -1      1371-1.55703E-02 9.13340E-03 7.22316E-04
 -1      1372-1.69256E-02 9.74698E-03 2.28663E-03
 -1      1373-4.30137E-02 4.04228E-02-1.91471E-03
 -1      1374-5.06584E-02 5.44464E-02-1.90671E-03
 -1      1375-3.95086E-02 3.50580E-02-1.41438E-05
 -1      1376-3.56090E-02 2.91424E-02-1.92281E-03
 -1      1377-2.73388E-02 1.91090E-02-1.78995E-03
 -1      1378-2.83154E-01 3.42725E+00-1.46102E-04
 -1      1379-2.83675E-01 3.51447E+00-1.10705E-04
 -1      1380-2.83744E-01 3.52889E+00-5.05582E-07
 -1      1381-2.83984E-01 3.57912E+00-9.17030E-05
 -1      1382-2.84166E-01 3.62482E+00-1.17537E-04
 -1      1383-2.84222E-01 3.63927E+00-3.79768E-05
 -1      1384-2.60935E-01 2.21640E+00 6.01222E-04
 -1      1385-2.58465E-01 2.13971E+00 6.35666E-04
 -1      1386-2.65505E-01 2.37186E+00 5.38230E-04
 -1      1387-2.63281E-01 2.29379E+00 5.75163E-04
 -1      1388-2.62115E-01 2.25508E+00 1.73950E-06
 -1      1389-2.10887E-01 1.16093E+00-1.06980E-03
 -1      1390-2.15090E-01 1.22388E+00-1.03580E-03
 -1      1391-2.02077E-01 1.03840E+00-1.14022E-03
 -1      1392-2.06550E-01 1.09912E+00-1.09163E-03
 -1      1393-2.08718E-01 1.12993E+00 5.87145E-06
 -1      1394-2.81813E-01 3.26434E+00-2.06609E-04
 -1      1395-2.82561E-01 3.34799E+00-1.71748E-04
 -1      1396-2.79965E-01 3.09869E+00-2.66105E-04
 -1      1397-2.80948E-01 3.18147E+00-2.33797E-04
 -1      1398-2.81378E-01 3.22281E+00-4.57583E-06
 -1      1399-2.37703E-01 1.62583E+00 8.48247E-04
 -1      1400-2.34241E-01 1.55612E+00 8.84592E-04
 -1      1401-2.44249E-01 1.76820E+00 7.88235E-04
 -1      1402-2.41039E-01 1.69654E+00 8.20470E-04
 -1      1403-2.39376E-01 1.66117E+00-3.06762E-07
 -1      1404-2.73165E-01 2.69010E+00 4.16344E-04
 -1      1405-2.71439E-01 2.60972E+00 4.48907E-04
 -1      1406-2.69587E-01 2.52985E+00 4.78383E-04
 -1      1407-2.67609E-01 2.45055E+00 5.12535E-04
 -1      1408-2.70517E-01 2.56977E+00-1.07149E-06
 -1      1409-2.50302E-01 1.91428E+00 7.24463E-04
 -1      1410-2.47335E-01 1.84080E+00 7.59019E-04
 -1      1411-2.55870E-01 2.06378E+00 6.62931E-04
 -1      1412-2.53148E-01 1.98862E+00 6.97596E-04
 -1      1413-2.51729E-01 1.95143E+00 3.85603E-07
 -1      1414-1.07572E-01 2.44697E-01 1.65265E-03
 -1      1415-1.00889E-01 2.13737E-01 1.68940E-03
 -1      1416-9.40978E-02 1.84760E-01 1.71741E-03
 -1      1417-8.73164E-02 1.58282E-01 1.77859E-03
 -1      1418-9.75071E-02 1.99208E-01 2.89610E-06
 -1      1419-1.67497E-01 6.55233E-01 1.34071E-03
 -1      1420-1.62069E-01 6.06464E-01 1.38029E-03
 -1      1421-1.78007E-01 7.57376E-01 1.31130E-03
 -1      1422-1.72817E-01 7.05581E-01 1.31501E-03
 -1      1423-1.70170E-01 6.80374E-01-1.09798E-06
 -1      1424-2.06543E-01 1.09909E+00 1.11080E-03
 -1      1425-2.02091E-01 1.03852E+00 1.15020E-03
 -1      1426-1.99804E-01 1.00893E+00 1.17141E-05
 -1      1427-1.97509E-01 9.79350E-01 1.18485E-03
 -1      1428-1.92812E-01 9.21655E-01 1.22850E-03
 -1      1429-1.33034E-01 3.87606E-01 1.53206E-03
 -1      1430-1.26845E-01 3.49092E-01 1.56302E-03
 -1      1431-1.20536E-01 3.12409E-01 1.58916E-03
 -1      1432-1.14122E-01 2.77598E-01 1.62771E-03
 -1      1433-1.23704E-01 3.30712E-01-8.02068E-07
 -1      1434-1.56509E-01 5.59318E-01 1.40473E-03
 -1      1435-1.50827E-01 5.13814E-01 1.44024E-03
 -1      1436-1.45020E-01 4.70010E-01 1.46774E-03
 -1      1437-1.39090E-01 4.27927E-01 1.50243E-03
 -1      1438-1.47931E-01 4.91877E-01 1.13086E-06
 -1      1439-1.53021E-02 9.00086E-03-6.40406E-04
 -1      1440-2.11988E-02 1.32968E-02-1.63529E-03
 -1      1441-1.66846E-02 9.61824E-03-2.23296E-03
 -1      1442-2.84223E-01 3.64180E+00 3.19326E-05
 -1      1443-2.84169E-01 3.62696E+00 1.07533E-04
 -1      1444-2.83984E-01 3.57872E+00 8.91253E-05
 -1      1445-5.81553E-02 7.06494E-02-1.88361E-03
 -1      1446-6.55975E-02 8.91882E-02-1.85660E-03
 -1      1447-6.92558E-02 9.94891E-02 5.25282E-06
 -1      1448-7.28071E-02 1.09575E-01 1.85245E-03
 -1      1449-8.02559E-02 1.33279E-01 1.81369E-03
 -1      1450-2.76260E-01 2.85232E+00 3.50056E-04
 -1      1451-2.74774E-01 2.77099E+00 3.85686E-04
 -1      1452-2.30657E-01 1.48746E+00 9.12097E-04
 -1      1453-2.26944E-01 1.41987E+00 9.43788E-04
 -1      1454-2.19166E-01 1.28804E+00-1.00507E-03
 -1      1455-2.23117E-01 1.35338E+00-9.72502E-04
 -1      1456-2.25034E-01 1.38660E+00-2.13727E-06
 -1      1457-1.72810E-01 7.05580E-01-1.31758E-03
 -1      1458-1.78009E-01 7.57432E-01-1.28769E-03
 -1      1459-1.80505E-01 7.83611E-01 1.68249E-05
 -1      1460-1.83022E-01 8.10233E-01 1.29489E-03
 -1      1461-1.87961E-01 8.65017E-01 1.26007E-03
 -1      1462-2.77617E-01 2.93407E+00-3.28171E-04
 -1      1463-2.78855E-01 3.01621E+00-2.92738E-04
 -1      1464-2.76945E-01 2.89318E+00-2.99043E-06
 -1      1465 1.23224E-01 1.94888E+00 1.42385E-03
 -1      1466 1.32434E-01 2.56811E+00 9.27813E-04
 -1      1467-1.35587E-01 2.89197E+00-6.81583E-04
 -1      1468 1.41262E-01 3.38730E+00 3.17739E-04
 -1      1469 1.14491E-01 1.51856E+00 1.80844E-03
 -1      1470-1.28313E-01 2.25297E+00-1.17304E-03
 -1      1471 1.06249E-01 1.25227E+00 2.03878E-03
 -1      1472-4.07738E-02 1.38983E-01-3.52784E-03
 -1      1473 5.44589E-02 2.55241E-01 3.29675E-03
 -1      1474 2.67854E-02 5.57911E-02 3.82295E-03
 -1      1475-7.91076E-02 5.77581E-01-2.82509E-03
 -1      1476 9.34664E-02 8.90064E-01 2.41808E-03
 -1      1477 6.69009E-02 4.02307E-01 3.05251E-03
 -1      1478-1.10897E-02 8.00804E-03-3.68207E-03
 -1      1479-1.20314E-01 1.80171E+00-1.54533E-03
 -1      1480 1.36797E-01 3.05644E+00 5.51330E-04
 -1      1481-1.37344E-01 3.56438E+00-1.78689E-04
 -1      1482-1.02123E-01 1.12618E+00-2.16055E-03
 -1      1483-1.37775E-01 3.22223E+00-4.31922E-04
 -1      1484-1.10128E-01 1.38316E+00-1.91782E-03
 -1      1485 8.32096E-02 6.75602E-01 2.65821E-03
 -1      1486-6.15766E-02 3.25092E-01-3.21299E-03
 -1      1487-8.97402E-02 7.79963E-01-2.57854E-03
 -1      1488 2.66913E-03 1.33353E-04 1.46310E-03
 -1      1489 6.68289E-02 3.68989E+00 2.96556E-05
 -1      1490-1.32440E-01 2.56811E+00-9.25468E-04
 -1      1491 1.28316E-01 2.25297E+00 1.17558E-03
 -1      1492 4.07704E-02 1.38983E-01 3.52440E-03
 -1      1493-2.68144E-02 5.57280E-02-3.83167E-03
 -1      1494-1.91503E-02 2.72846E-02-3.89786E-03
 -1      1495 2.04561E-04 1.67996E-02 5.59454E-05
 -1      1496-1.39292E-01 3.38972E+00-3.12577E-04
 -1      1497 1.20312E-01 1.80171E+00 1.54746E-03
 -1      1498 1.18033E-01 1.65818E+00 1.68054E-03
 -1      1499-4.60797E-04 1.58743E+00-9.00943E-06
 -1      1500 1.34132E-01 2.72909E+00 8.04737E-04
 -1      1501-1.25888E-01 2.09940E+00-1.29837E-03
 -1      1502 1.02129E-01 1.12619E+00 2.16433E-03
 -1      1503 9.84383E-02 1.00527E+00 2.30319E-03
 -1      1504-1.06332E-03 9.47245E-01-2.45714E-05
 -1      1505-1.36807E-01 3.05644E+00-5.56683E-04
 -1      1506 7.85944E-02 5.77451E-01 2.80713E-03
 -1      1507-1.34137E-01 2.72909E+00-8.03547E-04
 -1      1508-8.47249E-02 6.75632E-01-2.70796E-03
 -1      1509 6.08766E-02 3.25065E-01 3.17749E-03
 -1      1510 7.26876E-02 4.86212E-01 2.92644E-03
 -1      1511-7.48292E-04 4.42038E-01-3.26434E-05
 -1      1512 1.37778E-01 3.22223E+00 4.33263E-04
 -1      1513-1.06246E-01 1.25227E+00-2.04001E-03
 -1      1514 4.79229E-02 1.93130E-01 3.42704E-03
 -1      1515-2.05803E-04 2.22367E-01-1.61416E-05
 -1      1516-3.40027E-02 9.31384E-02-3.68190E-03
 -1      1517 3.39926E-02 9.31480E-02 3.68500E-03
 -1      1518 8.92145E-02 7.80177E-01 2.56391E-03
 -1      1519 1.30494E-01 2.40930E+00 1.04798E-03
 -1      1520 1.25885E-01 2.09940E+00 1.29936E-03
 -1      1521 1.10525E-01 1.38316E+00 1.92390E-03
 -1      1522 1.35588E-01 2.89197E+00 6.80871E-04
 -1      1523-1.30503E-01 2.40931E+00-1.05085E-03
 -1      1524-1.23222E-01 1.94888E+00-1.42249E-03
 -1      1525 7.01978E-05 3.95115E-02 1.43989E-05
 -1      1526 1.95403E-02 2.76995E-02 3.95910E-03
 -1      1527-2.87115E-03 2.98229E-04-1.54814E-03
 -1      1528-1.15815E-01 1.51483E+00-1.82840E-03
 -1      1529-1.19462E-01 1.66204E+00-1.69920E-03
 -1      1530-5.51524E-02 2.54964E-01-3.34056E-03
 -1      1531-4.83351E-02 1.92652E-01-3.46047E-03
 -1      1532-6.80813E-02 4.02200E-01-3.10235E-03
 -1      1533-7.91729E-04 8.33666E-01-2.30487E-05
 -1      1534-9.98347E-02 1.00540E+00-2.33667E-03
 -1      1535-6.23619E-04 5.30384E-01-2.42021E-05
 -1      1536 1.59404E-03 3.46378E+00 2.83897E-06
 -1      1537 1.24697E-04 3.30503E+00-2.89004E-06
 -1      1538 3.46484E-06 2.48817E+00 3.19470E-06
 -1      1539-3.11583E-06 2.33054E+00-7.05199E-07
 -1      1540 8.43242E-07 2.17552E+00-6.46926E-08
 -1      1541 2.65638E-06 3.13907E+00-8.19807E-07
 -1      1542-1.73027E-06 2.81012E+00-3.25855E-06
 -1      1543-8.02299E-06 1.31665E+00 2.61632E-06
 -1      1544-5.01039E-06 1.87449E+00-2.97653E-06
 -1      1545-3.24258E-06 1.14125E-01 2.74483E-06
 -1      1546 8.90004E-06 7.24086E-02 6.85736E-06
 -1      1547 2.60899E-06 2.64814E+00 1.40373E-06
 -1      1548-5.28219E-07 2.02341E+00-2.07929E-06
 -1      1549-4.64050E-04 7.26409E-01-1.10448E-05
 -1      1550-1.00261E-06 2.97387E+00 9.70078E-07
 -1      1551-5.23084E-04 6.25119E-01-1.41754E-05
 -1      1552-4.86514E-06 1.18809E+00-3.00425E-06
 -1      1553 2.22336E-06 1.44985E+00 3.26291E-06
 -1      1554 2.31006E-06 1.72908E+00 7.67267E-07
 -1      1555-9.52532E-02 8.89928E-01-2.46714E-03
 -1      1556 2.32373E-06 1.06448E+00 9.87590E-07
 -1      1557 2.16087E-06 1.64183E-01-6.11625E-08
 -1      1558-7.39208E-02 4.86421E-01-2.96844E-03
 -1      1559-1.04600E-04 3.61965E-01-2.32012E-06
 -1      1560-2.15185E-04 2.88375E-01-8.17350E-06
 -1      1561-7.08756E-02 3.68482E+00-3.58166E-05
 -1      1562 1.11261E-02 8.06114E-03 3.68900E-03
 -1      1563 1.37382E-01 3.56358E+00 1.77751E-04
 -1      1564-1.32318E-05 4.86750E-03 9.95656E-06
 -1      1565-6.78522E-03 1.14577E-03-3.79786E-03
 -1      1566 6.72666E-03 1.13165E-03 3.73295E-03
 -1      1567-1.83621E-01 3.70134E+00-9.44387E-05
 -1      1568 1.82817E-01 3.70220E+00 9.13045E-05
 -1      1569-4.80487E-04 3.59323E+00-1.40773E-06
 -1      1570 2.98557E-03-3.80238E-04 2.28991E-03
 -1      1571 4.32717E-03 5.43082E-04 3.05986E-03
 -1      1572 1.10519E-02 3.34397E-03 5.17315E-03
 -1      1573-4.36165E-03 5.60864E-04-3.07316E-03
 -1      1574-2.94393E-03-2.97203E-04-2.25623E-03
 -1      1575-1.11013E-02 3.37471E-03-5.20091E-03
 -1      1576 2.33553E-01 3.75543E+00 6.66007E-05
 -1      1577 1.62342E-01 3.75539E+00 1.24571E-05
 -1      1578 2.33446E-01 3.67136E+00 1.84822E-04
 -1      1579-1.62744E-01 3.75497E+00-1.45406E-05
 -1      1580-2.33957E-01 3.75500E+00-6.90460E-05
 -1      1581-2.33850E-01 3.67094E+00-1.88300E-04
 -1      1582 6.99470E-04-1.03532E-03 4.94678E-04
 -1      1583 1.91973E-03-6.92237E-04 1.45442E-03
 -1      1584 4.76636E-03 4.88656E-04 2.70238E-03
 -1      1585-2.17223E-03-7.38425E-04-1.65664E-03
 -1      1586-7.66846E-04-9.50491E-04-5.82101E-04
 -1      1587-5.63748E-05 2.61850E-05 1.42943E-06
 -1      1588-4.98977E-03 5.64457E-04-2.75994E-03
 -1      1589 1.04331E-01 3.74921E+00-4.37062E-06
 -1      1590 3.34149E-02 3.74918E+00 4.41018E-07
 -1      1591 1.24774E-01 3.69604E+00 5.71066E-05
 -1      1592-3.54392E-02 3.74665E+00 1.79125E-06
 -1      1593-1.06355E-01 3.74667E+00 2.88577E-07
 -1      1594-2.01407E-03 3.68735E+00-8.37004E-07
 -1      1595-1.27199E-01 3.69308E+00-6.16128E-05
 -1      1596 1.45499E-02 6.53621E-03 5.37232E-03
 -1      1597 2.02066E-02 1.34187E-02 5.73302E-03
 -1      1598 9.43197E-03 3.74876E-03 3.98181E-03
 -1      1599 2.64551E-02 2.32816E-02 5.89407E-03
 -1      1600 3.21851E-02 3.51126E-02 5.88465E-03
 -1      1601 1.52781E-02 1.65737E-02 3.86878E-03
 -1      1602 3.77014E-02 4.91470E-02 5.79604E-03
 -1      1603 4.33231E-02 6.55330E-02 5.71208E-03
 -1      1604 2.32087E-02 4.06257E-02 3.89599E-03
 -1      1605 4.88026E-02 8.41993E-02 5.61260E-03
 -1      1606 5.42410E-02 1.04973E-01 5.51205E-03
 -1      1607 3.04223E-02 7.33665E-02 3.75533E-03
 -1      1608 5.94450E-02 1.27877E-01 5.40503E-03
 -1      1609 6.46995E-02 1.52874E-01 5.30653E-03
 -1      1610 3.74272E-02 1.15010E-01 3.60152E-03
 -1      1611 7.00353E-02 1.79932E-01 5.22580E-03
 -1      1612 7.51041E-02 2.08993E-01 5.13392E-03
 -1      1613 4.43619E-02 1.65039E-01 3.47375E-03
 -1      1614 8.00624E-02 2.40036E-01 5.04065E-03
 -1      1615 8.49529E-02 2.73027E-01 4.94190E-03
 -1      1616 5.12252E-02 2.23199E-01 3.36582E-03
 -1      1617 8.97920E-02 3.07925E-01 4.85165E-03
 -1      1618 9.45077E-02 3.44691E-01 4.75827E-03
 -1      1619 5.76978E-02 2.89208E-01 3.23856E-03
 -1      1620 9.90793E-02 3.83295E-01 4.66482E-03
 -1      1621 1.03602E-01 4.23701E-01 4.56702E-03
 -1      1622 6.39198E-02 3.62777E-01 3.11778E-03
 -1      1623 1.07986E-01 4.65643E-01 4.47339E-03
 -1      1624 1.12319E-01 5.09529E-01 4.37687E-03
 -1      1625 6.98245E-02 4.43395E-01 2.98869E-03
 -1      1626 1.16714E-01 5.55143E-01 4.28863E-03
 -1      1627 1.20871E-01 6.02377E-01 4.19358E-03
 -1      1628 7.56687E-02 5.30991E-01 2.86833E-03
 -1      1629 1.24564E-01 6.51437E-01 4.08736E-03
 -1      1630 1.28531E-01 7.01869E-01 3.99421E-03
 -1      1631 8.09480E-02 6.25719E-01 2.73309E-03
 -1      1632 1.32855E-01 7.54138E-01 3.91496E-03
 -1      1633 1.36641E-01 8.07637E-01 3.81739E-03
 -1      1634 8.62291E-02 7.27118E-01 2.61378E-03
 -1      1635 1.40011E-01 8.62558E-01 3.71624E-03
 -1      1636 1.43611E-01 9.18962E-01 3.62021E-03
 -1      1637 9.13818E-02 8.34397E-01 2.48936E-03
 -1      1638 1.47286E-01 9.76551E-01 3.53216E-03
 -1      1639 1.50701E-01 1.03571E+00 3.43397E-03
 -1      1640 9.59774E-02 9.46985E-01 2.36153E-03
 -1      1641 1.53676E-01 1.09615E+00 3.33367E-03
 -1      1642 1.56890E-01 1.15792E+00 3.24198E-03
 -1      1643 1.00319E-01 1.06508E+00 2.23155E-03
 -1      1644 1.60022E-01 1.22095E+00 3.15099E-03
 -1      1645 1.63060E-01 1.28520E+00 3.05265E-03
 -1      1646 1.04221E-01 1.18861E+00 2.10573E-03
 -1      1647 1.66209E-01 1.35063E+00 2.96426E-03
 -1      1648 1.69074E-01 1.41720E+00 2.87130E-03
 -1      1649 1.08416E-01 1.31713E+00 1.98291E-03
 -1      1650 1.71994E-01 1.48489E+00 2.78226E-03
 -1      1651 1.74667E-01 1.55364E+00 2.68251E-03
 -1      1652 1.12535E-01 1.45032E+00 1.86910E-03
 -1      1653 1.77310E-01 1.62344E+00 2.59074E-03
 -1      1654 1.79808E-01 1.69423E+00 2.49322E-03
 -1      1655 1.16293E-01 1.58786E+00 1.74493E-03
 -1      1656 1.81767E-01 1.76598E+00 2.39455E-03
 -1      1657 1.84063E-01 1.83866E+00 2.30165E-03
 -1      1658 1.19207E-01 1.72947E+00 1.61100E-03
 -1      1659 1.86271E-01 1.91223E+00 2.20943E-03
 -1      1660 1.88395E-01 1.98665E+00 2.11516E-03
 -1      1661 1.21801E-01 1.87486E+00 1.48508E-03
 -1      1662 1.90417E-01 2.06190E+00 2.02295E-03
 -1      1663 1.92351E-01 2.13792E+00 1.92475E-03
 -1      1664 1.24585E-01 2.02374E+00 1.36221E-03
 -1      1665 1.94197E-01 2.21470E+00 1.83262E-03
 -1      1666 1.95941E-01 2.29217E+00 1.73880E-03
 -1      1667 1.27130E-01 2.17582E+00 1.23680E-03
 -1      1668 1.97599E-01 2.37033E+00 1.64755E-03
 -1      1669 1.99168E-01 2.44911E+00 1.54937E-03
 -1      1670 1.29438E-01 2.33081E+00 1.11480E-03
 -1      1671 2.00643E-01 2.52850E+00 1.45774E-03
 -1      1672 2.02024E-01 2.60845E+00 1.36138E-03
 -1      1673 1.31495E-01 2.48841E+00 9.89441E-04
 -1      1674 2.03316E-01 2.68893E+00 1.26931E-03
 -1      1675 2.04513E-01 2.76989E+00 1.17460E-03
 -1      1676 1.33312E-01 2.64835E+00 8.65287E-04
 -1      1677 2.05616E-01 2.85131E+00 1.08179E-03
 -1      1678 2.06623E-01 2.93316E+00 9.86398E-04
 -1      1679 1.34890E-01 2.81031E+00 7.43054E-04
 -1      1680 2.07546E-01 3.01538E+00 8.94583E-04
 -1      1681 2.08378E-01 3.09795E+00 7.94605E-04
 -1      1682 1.36225E-01 2.97402E+00 6.19986E-04
 -1      1683 2.09121E-01 3.18082E+00 7.03391E-04
 -1      1684 2.09757E-01 3.26397E+00 6.12832E-04
 -1      1685 1.37316E-01 3.13919E+00 4.90587E-04
 -1      1686 2.11691E-01 3.34649E+00 5.27707E-04
 -1      1687 2.12154E-01 3.43007E+00 4.30831E-04
 -1      1688 1.39548E-01 3.30465E+00 3.79462E-04
 -1      1689 2.10352E-01 3.51819E+00 3.32650E-04
 -1      1690 2.10617E-01 3.60206E+00 2.39193E-04
 -1      1691 1.39363E-01 3.47535E+00 2.49573E-04
 -1      1692 1.60099E-01 3.63286E+00 1.43088E-04
 -1      1693-2.01782E-02 1.33812E-02-5.71159E-03
 -1      1694-1.45271E-02 6.50799E-03-5.37531E-03
 -1      1695-9.46053E-03 3.75291E-03-4.00127E-03
 -1      1696-3.19519E-02 3.48804E-02-5.85549E-03
 -1      1697-2.62385E-02 2.30854E-02-5.87571E-03
 -1      1698-1.50981E-02 1.63701E-02-3.84552E-03
 -1      1699-4.33334E-02 6.55006E-02-5.71341E-03
 -1      1700-3.77228E-02 4.91158E-02-5.80286E-03
 -1      1701-2.29912E-02 4.03477E-02-3.87381E-03
 -1      1702-5.42459E-02 1.04973E-01-5.51225E-03
 -1      1703-4.88013E-02 8.41959E-02-5.60772E-03
 -1      1704-3.04511E-02 7.33280E-02-3.75494E-03
 -1      1705-6.46968E-02 1.52869E-01-5.30730E-03
 -1      1706-5.94467E-02 1.27876E-01-5.40532E-03
 -1      1707-3.74334E-02 1.15008E-01-3.60261E-03
 -1      1708-7.53124E-02 2.08755E-01-5.14906E-03
 -1      1709-7.02121E-02 1.79705E-01-5.24539E-03
 -1      1710-4.45568E-02 1.64819E-01-3.49167E-03
 -1      1711-8.53120E-02 2.72891E-01-4.96071E-03
 -1      1712-8.03992E-02 2.39910E-01-5.05896E-03
 -1      1713-5.17702E-02 2.22821E-01-3.40103E-03
 -1      1714-9.48568E-02 3.44707E-01-4.77389E-03
 -1      1715-9.01388E-02 3.07942E-01-4.86623E-03
 -1      1716-5.83942E-02 2.89074E-01-3.27436E-03
 -1      1717-1.04198E-01 4.23654E-01-4.59258E-03
 -1      1718-9.96511E-02 3.83251E-01-4.69077E-03
 -1      1719-6.48539E-02 3.62735E-01-3.16180E-03
 -1      1720-1.12961E-01 5.09641E-01-4.39884E-03
 -1      1721-1.08597E-01 4.65754E-01-4.49814E-03
 -1      1722-7.10367E-02 4.43440E-01-3.03903E-03
 -1      1723-1.21141E-01 6.02444E-01-4.19888E-03
 -1      1724-1.16975E-01 5.55211E-01-4.29680E-03
 -1      1725-7.65546E-02 5.31166E-01-2.89792E-03
 -1      1726-1.29298E-01 7.01888E-01-4.01620E-03
 -1      1727-1.25320E-01 6.51457E-01-4.10956E-03
 -1      1728-8.19431E-02 6.25802E-01-2.76378E-03
 -1      1729-1.36903E-01 8.07531E-01-3.82193E-03
 -1      1730-1.33106E-01 7.54036E-01-3.92100E-03
 -1      1731-8.72679E-02 7.27030E-01-2.64192E-03
 -1      1732-1.44515E-01 9.18898E-01-3.64305E-03
 -1      1733-1.40894E-01 8.62496E-01-3.73751E-03
 -1      1734-9.25214E-02 8.34222E-01-2.51881E-03
 -1      1735-1.51401E-01 1.03578E+00-3.45306E-03
 -1      1736-1.47972E-01 9.76612E-01-3.54763E-03
 -1      1737-9.75777E-02 9.46977E-01-2.40080E-03
 -1      1738-1.56894E-01 1.15792E+00-3.23943E-03
 -1      1739-1.53667E-01 1.09615E+00-3.33761E-03
 -1      1740-1.01035E-01 1.06513E+00-2.25121E-03
 -1      1741-1.63066E-01 1.28520E+00-3.05159E-03
 -1      1742-1.60027E-01 1.22095E+00-3.14786E-03
 -1      1743-1.04215E-01 1.18861E+00-2.10187E-03
 -1      1744-1.68863E-01 1.41720E+00-2.86538E-03
 -1      1745-1.66015E-01 1.35063E+00-2.95938E-03
 -1      1746-1.08216E-01 1.31714E+00-1.97766E-03
 -1      1747-1.75310E-01 1.55177E+00-2.69567E-03
 -1      1748-1.72621E-01 1.48304E+00-2.79288E-03
 -1      1749-1.12986E-01 1.44848E+00-1.87632E-03
 -1      1750-1.80548E-01 1.69618E+00-2.49993E-03
 -1      1751-1.78049E-01 1.62536E+00-2.60048E-03
 -1      1752-1.17674E-01 1.58787E+00-1.76332E-03
 -1      1753-1.84065E-01 1.83866E+00-2.30110E-03
 -1      1754-1.81758E-01 1.76598E+00-2.39621E-03
 -1      1755-1.19933E-01 1.73143E+00-1.61949E-03
 -1      1756-1.88395E-01 1.98665E+00-2.11306E-03
 -1      1757-1.86277E-01 1.91223E+00-2.20872E-03
 -1      1758-1.21798E-01 1.87486E+00-1.48408E-03
 -1      1759-1.92355E-01 2.13792E+00-1.92495E-03
 -1      1760-1.90423E-01 2.06190E+00-2.02141E-03
 -1      1761-1.24584E-01 2.02374E+00-1.36032E-03
 -1      1762-1.95946E-01 2.29218E+00-1.73461E-03
 -1      1763-1.94197E-01 2.21470E+00-1.83245E-03
 -1      1764-1.27131E-01 2.17582E+00-1.23555E-03
 -1      1765-1.99166E-01 2.44911E+00-1.55102E-03
 -1      1766-1.97610E-01 2.37033E+00-1.64231E-03
 -1      1767-1.29436E-01 2.33081E+00-1.11016E-03
 -1      1768-2.02020E-01 2.60845E+00-1.36194E-03
 -1      1769-2.00640E-01 2.52850E+00-1.46021E-03
 -1      1770-1.31504E-01 2.48841E+00-9.92494E-04
 -1      1771-2.04508E-01 2.76989E+00-1.17655E-03
 -1      1772-2.03313E-01 2.68892E+00-1.26974E-03
 -1      1773-1.33320E-01 2.64834E+00-8.66083E-04
 -1      1774-2.06627E-01 2.93315E+00-9.85997E-04
 -1      1775-2.05615E-01 2.85131E+00-1.08540E-03
 -1      1776-1.34896E-01 2.81031E+00-7.45790E-04
 -1      1777-2.08375E-01 3.09795E+00-7.98760E-04
 -1      1778-2.07546E-01 3.01538E+00-8.94018E-04
 -1      1779-1.36229E-01 2.97402E+00-6.18768E-04
 -1      1780-2.09758E-01 3.26397E+00-6.12439E-04
 -1      1781-2.09114E-01 3.18082E+00-7.06034E-04
 -1      1782-1.37323E-01 3.13919E+00-4.95428E-04
 -1      1783-2.11168E-01 3.43128E+00-4.28629E-04
 -1      1784-2.10709E-01 3.34770E+00-5.23394E-04
 -1      1785-1.38566E-01 3.30586E+00-3.75036E-04
 -1      1786-2.10599E-01 3.60246E+00-2.41694E-04
 -1      1787-2.10333E-01 3.51859E+00-3.33774E-04
 -1      1788-1.38357E-01 3.47697E+00-2.47704E-04
 -1      1789-1.60480E-01 3.63284E+00-1.45112E-04
 -1      1790 6.05095E-02 1.83789E+00 7.62939E-04
 -1      1791 6.12357E-02 1.91149E+00 7.26267E-04
 -1      1792 6.19287E-02 1.98595E+00 6.99487E-04
 -1      1793 6.25974E-02 2.06123E+00 6.63433E-04
 -1      1794-1.89452E-06 1.94853E+00 9.95343E-07
 -1      1795 6.64156E-02 2.60800E+00 4.49443E-04
 -1      1796 6.68374E-02 2.68851E+00 4.17385E-04
 -1      1797 6.54766E-02 2.44860E+00 5.11669E-04
 -1      1798 6.59605E-02 2.52801E+00 4.76325E-04
 -1      1799 2.06245E-06 2.56788E+00-1.95815E-07
 -1      1800-6.82385E-02 3.01508E+00-2.92486E-04
 -1      1801-6.79308E-02 2.93283E+00-3.27538E-04
 -1      1802-6.75998E-02 2.85095E+00-3.55930E-04
 -1      1803-6.72385E-02 2.76950E+00-3.92148E-04
 -1      1804-1.41993E-06 2.89180E+00-5.09841E-07
 -1      1805 6.90346E-02 3.26357E+00 2.05964E-04
 -1      1806 7.05899E-02 3.34612E+00 1.72829E-04
 -1      1807 7.14686E-02 3.42550E+00 1.48046E-04
 -1      1808 8.57439E-04 3.38432E+00 8.64645E-07
 -1      1809 6.94074E-02 3.51365E+00 1.05460E-04
 -1      1810 5.74270E-02 1.55275E+00 8.87330E-04
 -1      1811 5.83439E-02 1.62258E+00 8.51400E-04
 -1      1812 5.67725E-02 1.48396E+00 9.21116E-04
 -1      1813-2.26420E-04 1.51811E+00-1.49900E-06
 -1      1814 5.57030E-02 1.41625E+00 9.48927E-04
 -1      1815-6.38378E-02 2.21409E+00-5.99589E-04
 -1      1816-6.32331E-02 2.13728E+00-6.34237E-04
 -1      1817-6.49620E-02 2.36978E+00-5.39860E-04
 -1      1818-6.44145E-02 2.29160E+00-5.70878E-04
 -1      1819-1.54597E-06 2.25269E+00 1.66836E-06
 -1      1820 5.15687E-02 1.15684E+00 1.07165E-03
 -1      1821 5.25959E-02 1.21990E+00 1.03435E-03
 -1      1822 5.35963E-02 1.28419E+00 1.00636E-03
 -1      1823 5.47647E-02 1.34965E+00 9.73240E-04
 -1      1824-4.84785E-06 1.25177E+00 1.06776E-06
 -1      1825-1.94973E-02 1.26079E-01-1.77731E-03
 -1      1826-1.78730E-02 1.03136E-01-1.82695E-03
 -1      1827-2.33007E-02 1.77959E-01-1.74221E-03
 -1      1828-2.12219E-02 1.51109E-01-1.74933E-03
 -1      1829-1.34248E-06 1.38117E-01-5.76275E-07
 -1      1830 2.79071E-02 2.71363E-01 1.62965E-03
 -1      1831 2.95245E-02 3.06293E-01 1.59437E-03
 -1      1832 2.46770E-02 2.07282E-01 1.69608E-03
 -1      1833 2.62885E-02 2.38357E-01 1.65705E-03
 -1      1834-2.09630E-04 2.54410E-01-1.06952E-05
 -1      1835 1.42965E-02 6.35860E-02 1.89973E-03
 -1      1836 1.60650E-02 8.22789E-02 1.86015E-03
 -1      1837 1.24735E-02 4.71408E-02 1.92923E-03
 -1      1838 1.07229E-02 3.30741E-02 1.98254E-03
 -1      1839 4.61206E-05 5.48416E-02 7.37063E-06
 -1      1840-4.19276E-02 6.50011E-01-1.37607E-03
 -1      1841-4.04726E-02 6.00971E-01-1.40449E-03
 -1      1842-3.91464E-02 5.53604E-01-1.43714E-03
 -1      1843-5.75780E-04 5.76929E-01-1.88148E-05
 -1      1844-3.79646E-02 5.08006E-01-1.48194E-03
 -1      1845 4.67764E-02 9.18323E-01 1.18227E-03
 -1      1846 4.80960E-02 9.75953E-01 1.15224E-03
 -1      1847 4.57098E-02 8.61535E-01 1.21178E-03
 -1      1848-9.22282E-04 8.89738E-01-2.37389E-05
 -1      1849 4.48105E-02 8.06575E-01 1.25764E-03
 -1      1850 3.11313E-02 3.43088E-01 1.57277E-03
 -1      1851 3.26159E-02 3.81724E-01 1.54024E-03
 -1      1852 3.37858E-02 4.21767E-01 1.49730E-03
 -1      1853 3.52083E-02 4.63722E-01 1.46184E-03
 -1      1854-4.13367E-04 4.01128E-01-1.68627E-05
 -1      1855-8.59581E-03 2.15599E-02-1.93171E-03
 -1      1856-6.54131E-03 1.17330E-02-1.86306E-03
 -1      1857 7.23702E-05 1.01243E-02 2.71482E-05
 -1      1858-5.18102E-03 6.14179E-03-1.82138E-03
 -1      1859-6.32928E-03 3.42317E-03-2.63603E-03
 -1      1860-1.97114E-03 2.12011E-03-8.60848E-04
 -1      1861-6.12336E-02 1.91149E+00-7.23802E-04
 -1      1862-6.05067E-02 1.83789E+00-7.59414E-04
 -1      1863-5.97460E-02 1.76518E+00-7.83826E-04
 -1      1864-6.00946E-02 1.69534E+00-8.35304E-04
 -1      1865 1.93316E-07 1.80133E+00 2.58228E-06
 -1      1866 6.85068E-02 3.09768E+00 2.59898E-04
 -1      1867 6.87507E-02 3.18059E+00 2.29669E-04
 -1      1868 6.79284E-02 2.93283E+00 3.28162E-04
 -1      1869 6.82353E-02 3.01508E+00 2.90050E-04
 -1      1870 1.87959E-07 3.05631E+00-1.80597E-06
 -1      1871-6.77900E-02 3.51405E+00-1.02834E-04
 -1      1872-6.88881E-02 3.42671E+00-1.43541E-04
 -1      1873-6.88932E-02 3.57880E+00-8.29923E-05
 -1      1874 5.57436E-04 3.52847E+00 4.47576E-07
 -1      1875-1.04132E-01 3.62457E+00-9.65744E-05
 -1      1876-3.56634E-02 3.63901E+00-2.91524E-05
 -1      1877-5.25941E-02 1.21990E+00-1.03234E-03
 -1      1878-5.15644E-02 1.15684E+00-1.06790E-03
 -1      1879-5.05044E-02 1.09504E+00-1.09459E-03
 -1      1880-5.04534E-02 1.03463E+00-1.15584E-03
 -1      1881 2.27638E-07 1.12565E+00 2.18349E-06
 -1      1882-6.94760E-02 3.34733E+00-1.70678E-04
 -1      1883-6.89021E-02 3.26357E+00-2.05683E-04
 -1      1884-6.87515E-02 3.18059E+00-2.27853E-04
 -1      1885-6.85102E-02 3.09768E+00-2.65015E-04
 -1      1886 6.70415E-05 3.22192E+00-2.97860E-07
 -1      1887-5.45636E-02 1.34965E+00-9.73301E-04
 -1      1888-5.35951E-02 1.28419E+00-1.00474E-03
 -1      1889-5.74542E-02 1.48211E+00-9.27863E-04
 -1      1890-5.55048E-02 1.41625E+00-9.45371E-04
 -1      1891-2.54565E-06 1.38269E+00-2.82703E-07
 -1      1892 3.97073E-02 6.00901E-01 1.38172E-03
 -1      1893 4.06623E-02 6.50002E-01 1.33146E-03
 -1      1894 4.19970E-02 7.00645E-01 1.30865E-03
 -1      1895 4.37072E-02 7.52944E-01 1.29096E-03
 -1      1896-4.94918E-04 6.74977E-01-1.57203E-05
 -1      1897-3.00738E-02 3.06300E-01-1.62602E-03
 -1      1898-2.84727E-02 2.71218E-01-1.65908E-03
 -1      1899-3.33080E-02 3.81666E-01-1.56863E-03
 -1      1900-3.16014E-02 3.43093E-01-1.59852E-03
 -1      1901-1.63003E-04 3.24243E-01-8.13688E-06
 -1      1902-4.44467E-02 7.52840E-01-1.30923E-03
 -1      1903-4.32330E-02 7.00654E-01-1.34982E-03
 -1      1904-4.58639E-02 8.06471E-01-1.28496E-03
 -1      1905-6.25078E-04 7.79289E-01-1.60234E-05
 -1      1906-4.73950E-02 8.61468E-01-1.25628E-03
 -1      1907 1.85762E-03 2.00763E-03 8.25217E-04
 -1      1908 6.15396E-03 3.28043E-03 2.57616E-03
 -1      1909 5.17959E-03 6.16809E-03 1.82074E-03
 -1      1910 3.31610E-02 3.64155E+00 2.33722E-05
 -1      1911 1.02131E-01 3.62671E+00 9.15057E-05
 -1      1912 6.84313E-02 3.57840E+00 8.10031E-05
 -1      1913-6.68423E-02 2.68851E+00-4.12474E-04
 -1      1914-6.64194E-02 2.60800E+00-4.48691E-04
 -1      1915-6.59649E-02 2.52801E+00-4.77562E-04
 -1      1916-6.54834E-02 2.44859E+00-5.14883E-04
 -1      1917 6.44130E-02 2.29160E+00 5.75088E-04
 -1      1918 6.49623E-02 2.36978E+00 5.38256E-04
 -1      1919 6.32337E-02 2.13729E+00 6.35745E-04
 -1      1920 6.38383E-02 2.21409E+00 6.00902E-04
 -1      1921 2.12181E-02 1.51110E-01 1.74679E-03
 -1      1922 2.30885E-02 1.78194E-01 1.72819E-03
 -1      1923 1.78682E-02 1.03142E-01 1.82773E-03
 -1      1924 1.94883E-02 1.26078E-01 1.77624E-03
 -1      1925-1.24042E-02 4.71011E-02-1.92356E-03
 -1      1926-1.04743E-02 3.28510E-02-1.93791E-03
 -1      1927-1.60661E-02 8.22766E-02-1.85386E-03
 -1      1928-1.43160E-02 6.35491E-02-1.90067E-03
 -1      1929 1.55454E-04 2.70936E-02 3.45389E-05
 -1      1930 8.97280E-03 2.17563E-02 2.01404E-03
 -1      1931 6.72799E-03 1.17760E-02 1.92662E-03
 -1      1932 5.93974E-02 1.69340E+00 8.25476E-04
 -1      1933 5.97462E-02 1.76519E+00 7.87912E-04
 -1      1934-2.32978E-04 1.65776E+00-3.29931E-06
 -1      1935-5.85798E-02 1.55087E+00-9.03520E-04
 -1      1936-5.94917E-02 1.62449E+00-8.66618E-04
 -1      1937 6.72342E-02 2.76950E+00 3.88305E-04
 -1      1938 6.75970E-02 2.85095E+00 3.54318E-04
 -1      1939 3.59563E-06 2.72889E+00 6.97949E-07
 -1      1940-6.25964E-02 2.06123E+00-6.62679E-04
 -1      1941-6.19306E-02 1.98595E+00-6.97254E-04
 -1      1942 1.52686E-07 2.09908E+00 1.17790E-06
 -1      1943 4.97522E-02 1.03457E+00 1.13626E-03
 -1      1944 5.05019E-02 1.09504E+00 1.09689E-03
 -1      1945-5.43475E-04 1.00521E+00-1.42833E-05
 -1      1946-4.87339E-02 9.18255E-01-1.23439E-03
 -1      1947-4.98627E-02 9.76016E-01-1.19526E-03
 -1      1948 3.67285E-02 5.07899E-01 1.43805E-03
 -1      1949 3.82589E-02 5.53535E-01 1.40523E-03
 -1      1950-6.89506E-04 4.85346E-01-2.54652E-05
 -1      1951-3.51219E-02 4.21714E-01-1.55504E-03
 -1      1952-3.65758E-02 4.63827E-01-1.51516E-03
 -1      1953-9.38025E-05 1.92274E-01-4.43197E-06
 -1      1954-2.68375E-02 2.38221E-01-1.68953E-03
 -1      1955-2.50963E-02 2.07040E-01-1.72262E-03
 -1      1956 2.55515E-06 9.21873E-02 2.29259E-06
 -1      1957-1.22722E-06 2.40904E+00-1.92167E-06
 -1      1958 1.23220E-01 1.94888E+00-1.42259E-03
 -1      1959 1.32441E-01 2.56811E+00-9.28100E-04
 -1      1960-1.35590E-01 2.89197E+00 6.80446E-04
 -1      1961 1.41260E-01 3.38730E+00-3.20542E-04
 -1      1962 1.14498E-01 1.51857E+00-1.80048E-03
 -1      1963-1.28316E-01 2.25297E+00 1.17531E-03
 -1      1964 1.06245E-01 1.25227E+00-2.03971E-03
 -1      1965-4.07727E-02 1.38985E-01 3.52276E-03
 -1      1966 5.41058E-02 2.55230E-01-3.27187E-03
 -1      1967 2.67750E-02 5.57936E-02-3.81904E-03
 -1      1968-7.78731E-02 5.77868E-01 2.78194E-03
 -1      1969-9.34246E-02 8.89041E-01 2.41874E-03
 -1      1970-6.64750E-02 4.02298E-01 3.03284E-03
 -1      1971-1.10902E-02 8.00916E-03 3.68483E-03
 -1      1972-1.20314E-01 1.80171E+00 1.54672E-03
 -1      1973 1.36798E-01 3.05644E+00-5.54418E-04
 -1      1974-1.37343E-01 3.56439E+00 1.77203E-04
 -1      1975-1.02127E-01 1.12619E+00 2.16501E-03
 -1      1976-1.37772E-01 3.22222E+00 4.32359E-04
 -1      1977-1.10132E-01 1.38316E+00 1.91690E-03
 -1      1978 8.32102E-02 6.75609E-01-2.65937E-03
 -1      1979 9.93149E-02 1.00481E+00-2.32638E-03
 -1      1980 7.22941E-02 4.86662E-01-2.90154E-03
 -1      1981 2.67159E-03 1.33494E-04-1.45896E-03
 -1      1982 6.68287E-02 3.68989E+00-2.81798E-05
 -1      1983-1.32435E-01 2.56811E+00 9.26901E-04
 -1      1984 1.28310E-01 2.25297E+00-1.17045E-03
 -1      1985-5.41124E-02 2.55231E-01 3.27578E-03
 -1      1986 4.07693E-02 1.38980E-01-3.52210E-03
 -1      1987-2.68130E-02 5.57258E-02 3.82613E-03
 -1      1988-1.91537E-02 2.72868E-02 3.90012E-03
 -1      1989 2.05350E-04 1.67918E-02-5.21748E-05
 -1      1990-1.39287E-01 3.38972E+00 3.11072E-04
 -1      1991 1.20310E-01 1.80171E+00-1.54571E-03
 -1      1992 1.18036E-01 1.65817E+00-1.68165E-03
 -1      1993-4.63490E-04 1.58743E+00 7.47415E-06
 -1      1994 1.34131E-01 2.72909E+00-8.00998E-04
 -1      1995 1.02932E-01 1.12615E+00-2.17929E-03
 -1      1996-1.25886E-01 2.09940E+00 1.29910E-03
 -1      1997-1.36799E-01 3.05644E+00 5.52181E-04
 -1      1998-1.34133E-01 2.72910E+00 8.03756E-04
 -1      1999 7.78717E-02 5.77866E-01-2.77959E-03
 -1      2000-8.32146E-02 6.75601E-01 2.65952E-03
 -1      2001-8.89073E-02 7.79525E-01 2.55705E-03
 -1      2002 1.01121E-03 8.32143E-01-2.88594E-05
 -1      2003 6.04153E-02 3.25060E-01-3.15425E-03
 -1      2004 6.64809E-02 4.02298E-01-3.03069E-03
 -1      2005 1.37768E-01 3.22223E+00-4.35930E-04
 -1      2006-9.87197E-02 1.00456E+00 2.31022E-03
 -1      2007-6.04158E-02 3.25054E-01 3.15321E-03
 -1      2008-1.06253E-01 1.25227E+00 2.04058E-03
 -1      2009 4.75619E-02 1.93115E-01-3.40053E-03
 -1      2010-3.39984E-02 9.31420E-02 3.68310E-03
 -1      2011 3.40016E-02 9.31560E-02-3.67677E-03
 -1      2012-4.75691E-02 1.93116E-01 3.40153E-03
 -1      2013 1.30498E-01 2.40931E+00-1.05143E-03
 -1      2014-7.22985E-02 4.86669E-01 2.90840E-03
 -1      2015 1.25889E-01 2.09940E+00-1.29885E-03
 -1      2016 1.10524E-01 1.38316E+00-1.92278E-03
 -1      2017 1.35593E-01 2.89197E+00-6.79493E-04
 -1      2018-1.30494E-01 2.40930E+00 1.04730E-03
 -1      2019-1.23222E-01 1.94888E+00 1.42089E-03
 -1      2020 7.85135E-05 3.95104E-02-1.30560E-05
 -1      2021 1.95368E-02 2.76983E-02-3.95927E-03
 -1      2022-2.86588E-03 3.05430E-04 1.53985E-03
 -1      2023-1.15811E-01 1.51483E+00 1.83226E-03
 -1      2024-1.19462E-01 1.66204E+00 1.69688E-03
 -1      2025 8.34800E-04 9.45656E-01-1.96596E-05
 -1      2026 9.01590E-02 7.79445E-01-2.58933E-03
 -1      2027 1.59142E-03 3.46378E+00-5.15451E-06
 -1      2028 1.28090E-04 3.30503E+00 1.77302E-06
 -1      2029-4.59687E-06 2.48817E+00 3.50315E-06
 -1      2030 2.10881E-06 2.33054E+00-3.60235E-07
 -1      2031-2.23393E-06 2.17552E+00-5.19045E-07
 -1      2032 1.51075E-06 3.13907E+00 1.77131E-06
 -1      2033 1.64486E-06 2.81013E+00-2.88581E-06
 -1      2034 2.99668E-06 1.31665E+00 1.17776E-06
 -1      2035-5.23798E-07 1.87449E+00 4.09567E-07
 -1      2036 3.74019E-04 1.06422E+00-6.87773E-06
 -1      2037 3.86880E-06 2.22368E-01 3.72370E-07
 -1      2038-1.54578E-06 1.64190E-01 2.98722E-07
 -1      2039-4.03116E-06 1.14125E-01 1.24904E-07
 -1      2040 5.95451E-06 7.24107E-02-1.77182E-07
 -1      2041-3.81420E-06 2.64814E+00-1.84172E-06
 -1      2042 6.06668E-06 2.88417E-01 3.20576E-06
 -1      2043-1.91162E-06 2.02341E+00 1.67150E-06
 -1      2044-1.45247E-06 5.30735E-01-1.91757E-07
 -1      2045 7.33688E-07 4.42879E-01-8.74818E-07
 -1      2046-6.94398E-06 3.62005E-01 3.27985E-06
 -1      2047-4.54717E-06 2.97387E+00-8.89528E-07
 -1      2048 5.72665E-06 6.25275E-01 2.76097E-06
 -1      2049 4.54821E-06 1.18809E+00-3.29058E-06
 -1      2050 5.65512E-07 1.44985E+00 9.88123E-07
 -1      2051 1.00494E-06 1.72908E+00 9.03738E-07
 -1      2052 9.52143E-02 8.89228E-01-2.46575E-03
 -1      2053-6.87353E-06 7.26195E-01 3.25782E-06
 -1      2054-7.08773E-02 3.68482E+00 3.37028E-05
 -1      2055 1.11257E-02 8.06006E-03-3.69005E-03
 -1      2056 1.37385E-01 3.56358E+00-1.80113E-04
 -1      2057-1.46139E-05 4.86628E-03-9.63240E-06
 -1      2058-6.79994E-03 1.14617E-03 3.80431E-03
 -1      2059 6.72778E-03 1.13383E-03-3.73329E-03
 -1      2060-1.83618E-01 3.70135E+00 9.00845E-05
 -1      2061 1.82812E-01 3.70220E+00-9.02968E-05
 -1      2062-4.78293E-04 3.59323E+00 1.30473E-06
 -1      2063 4.32719E-03 5.45783E-04-3.05930E-03
 -1      2064 2.98534E-03-3.78743E-04-2.28997E-03
 -1      2065 1.10511E-02 3.34630E-03-5.17402E-03
 -1      2066-2.95241E-03-2.90464E-04 2.24164E-03
 -1      2067-4.37619E-03 5.69453E-04 3.07817E-03
 -1      2068-1.11040E-02 3.36802E-03 5.20751E-03
 -1      2069 1.62337E-01 3.75540E+00-6.35737E-06
 -1      2070 2.33550E-01 3.75543E+00-6.35804E-05
 -1      2071 2.33443E-01 3.67137E+00-1.82340E-04
 -1      2072-2.33953E-01 3.75501E+00 6.34223E-05
 -1      2073-1.62742E-01 3.75497E+00 1.01062E-05
 -1      2074-2.33846E-01 3.67094E+00 1.82154E-04
 -1      2075 1.91637E-03-6.89642E-04-1.45053E-03
 -1      2076 6.99521E-04-1.03176E-03-4.93667E-04
 -1      2077 4.76901E-03 4.90575E-04-2.69785E-03
 -1      2078-7.66410E-04-9.45566E-04 5.84695E-04
 -1      2079-2.19434E-03-7.31496E-04 1.66523E-03
 -1      2080-5.19203E-05 2.96924E-05 4.14085E-07
 -1      2081-4.99761E-03 5.66578E-04 2.76196E-03
 -1      2082 3.34144E-02 3.74919E+00-1.85482E-07
 -1      2083 1.04330E-01 3.74921E+00-2.90521E-07
 -1      2084 1.24774E-01 3.69604E+00-5.74299E-05
 -1      2085-1.06355E-01 3.74668E+00-2.42039E-06
 -1      2086-3.54403E-02 3.74666E+00-2.99215E-06
 -1      2087-2.01506E-03 3.68735E+00-2.96974E-07
 -1      2088-1.27198E-01 3.69308E+00 5.91336E-05
 -1      2089 2.02050E-02 1.34195E-02-5.73175E-03
 -1      2090 1.45486E-02 6.53688E-03-5.37359E-03
 -1      2091 9.43316E-03 3.74727E-03-3.98420E-03
 -1      2092 3.21896E-02 3.51127E-02-5.88457E-03
 -1      2093 2.64547E-02 2.32827E-02-5.89312E-03
 -1      2094 1.52772E-02 1.65731E-02-3.87039E-03
 -1      2095 4.33174E-02 6.55370E-02-5.70694E-03
 -1      2096 3.77051E-02 4.91474E-02-5.79825E-03
 -1      2097 2.31950E-02 4.06196E-02-3.89835E-03
 -1      2098 5.42406E-02 1.04979E-01-5.51060E-03
 -1      2099 4.88051E-02 8.42066E-02-5.60475E-03
 -1      2100 3.04218E-02 7.33705E-02-3.74875E-03
 -1      2101 6.47000E-02 1.52868E-01-5.30652E-03
 -1      2102 5.94474E-02 1.27878E-01-5.40584E-03
 -1      2103 3.74315E-02 1.15011E-01-3.60353E-03
 -1      2104 7.49178E-02 2.08985E-01-5.11832E-03
 -1      2105 6.98583E-02 1.79920E-01-5.21281E-03
 -1      2106 4.41950E-02 1.65030E-01-3.46147E-03
 -1      2107 8.47778E-02 2.73020E-01-4.92746E-03
 -1      2108 7.98928E-02 2.40031E-01-5.02687E-03
 -1      2109 5.08672E-02 2.23189E-01-3.33925E-03
 -1      2110 9.42627E-02 3.44684E-01-4.74315E-03
 -1      2111 8.95723E-02 3.07919E-01-4.83621E-03
 -1      2112 5.72899E-02 2.89201E-01-3.21131E-03
 -1      2113 1.03376E-01 4.23696E-01-4.55629E-03
 -1      2114 9.88646E-02 3.83287E-01-4.65035E-03
 -1      2115 6.34807E-02 3.62770E-01-3.09214E-03
 -1      2116 1.12132E-01 5.09757E-01-4.36522E-03
 -1      2117 1.07799E-01 4.65865E-01-4.46395E-03
 -1      2118 6.94207E-02 4.43608E-01-2.96925E-03
 -1      2119 1.20514E-01 6.02584E-01-4.17585E-03
 -1      2120 1.16370E-01 5.55346E-01-4.27335E-03
 -1      2121 7.51136E-02 5.31429E-01-2.84201E-03
 -1      2122 1.28525E-01 7.01871E-01-3.99156E-03
 -1      2123 1.24571E-01 6.51440E-01-4.08451E-03
 -1      2124 8.05700E-02 6.25939E-01-2.71677E-03
 -1      2125 1.37113E-01 8.07270E-01-3.83148E-03
 -1      2126 1.33306E-01 7.53783E-01-3.92660E-03
 -1      2127 8.66906E-02 7.26767E-01-2.62475E-03
 -1      2128 1.44490E-01 9.18544E-01-3.64096E-03
 -1      2129 1.40871E-01 8.62151E-01-3.73975E-03
 -1      2130 9.27153E-02 8.33612E-01-2.52826E-03
 -1      2131 1.51139E-01 1.03548E+00-3.44636E-03
 -1      2132 1.47717E-01 9.76324E-01-3.54154E-03
 -1      2133 9.73029E-02 9.46329E-01-2.39427E-03
 -1      2134 1.57300E-01 1.15791E+00-3.24820E-03
 -1      2135 1.54065E-01 1.09613E+00-3.34435E-03
 -1      2136 1.01166E-01 1.06483E+00-2.25124E-03
 -1      2137 1.63065E-01 1.28520E+00-3.05111E-03
 -1      2138 1.60025E-01 1.22095E+00-3.14699E-03
 -1      2139 1.04627E-01 1.18860E+00-2.11006E-03
 -1      2140 1.69068E-01 1.41721E+00-2.86698E-03
 -1      2141 1.66211E-01 1.35063E+00-2.96270E-03
 -1      2142 1.08411E-01 1.31714E+00-1.98131E-03
 -1      2143 1.74665E-01 1.55365E+00-2.68014E-03
 -1      2144 1.71993E-01 1.48490E+00-2.77574E-03
 -1      2145 1.12537E-01 1.45032E+00-1.86362E-03
 -1      2146 1.79812E-01 1.69423E+00-2.49547E-03
 -1      2147 1.77314E-01 1.62344E+00-2.59018E-03
 -1      2148 1.16298E-01 1.58786E+00-1.74254E-03
 -1      2149 1.84066E-01 1.83866E+00-2.30031E-03
 -1      2150 1.81763E-01 1.76598E+00-2.39596E-03
 -1      2151 1.19208E-01 1.72947E+00-1.61272E-03
 -1      2152 1.88393E-01 1.98666E+00-2.11234E-03
 -1      2153 1.86275E-01 1.91223E+00-2.20861E-03
 -1      2154 1.21795E-01 1.87486E+00-1.48449E-03
 -1      2155 1.92348E-01 2.13793E+00-1.92332E-03
 -1      2156 1.90418E-01 2.06190E+00-2.01947E-03
 -1      2157 1.24584E-01 2.02374E+00-1.36046E-03
 -1      2158 1.95945E-01 2.29218E+00-1.73352E-03
 -1      2159 1.94193E-01 2.21470E+00-1.83085E-03
 -1      2160 1.27133E-01 2.17582E+00-1.23568E-03
 -1      2161 1.99167E-01 2.44911E+00-1.54929E-03
 -1      2162 1.97609E-01 2.37033E+00-1.64191E-03
 -1      2163 1.29433E-01 2.33081E+00-1.10942E-03
 -1      2164 2.02018E-01 2.60845E+00-1.36182E-03
 -1      2165 2.00637E-01 2.52850E+00-1.45709E-03
 -1      2166 1.31502E-01 2.48842E+00-9.89271E-04
 -1      2167 2.04512E-01 2.76989E+00-1.17202E-03
 -1      2168 2.03310E-01 2.68893E+00-1.26846E-03
 -1      2169 1.33318E-01 2.64834E+00-8.65930E-04
 -1      2170 2.06625E-01 2.93316E+00-9.85824E-04
 -1      2171 2.05619E-01 2.85132E+00-1.07909E-03
 -1      2172 1.34891E-01 2.81031E+00-7.41788E-04
 -1      2173 2.08380E-01 3.09794E+00-7.97817E-04
 -1      2174 2.07547E-01 3.01538E+00-8.96131E-04
 -1      2175 1.36229E-01 2.97402E+00-6.21335E-04
 -1      2176 2.09760E-01 3.26397E+00-6.11202E-04
 -1      2177 2.09118E-01 3.18082E+00-7.06134E-04
 -1      2178 1.37314E-01 3.13919E+00-4.94035E-04
 -1      2179 2.12155E-01 3.43007E+00-4.27943E-04
 -1      2180 2.11689E-01 3.34649E+00-5.24642E-04
 -1      2181 1.39542E-01 3.30466E+00-3.76241E-04
 -1      2182 2.10615E-01 3.60206E+00-2.39009E-04
 -1      2183 2.10348E-01 3.51819E+00-3.31702E-04
 -1      2184 1.39363E-01 3.47536E+00-2.46268E-04
 -1      2185 1.60098E-01 3.63287E+00-1.43980E-04
 -1      2186-1.45253E-02 6.50607E-03 5.38219E-03
 -1      2187-2.01750E-02 1.33795E-02 5.71578E-03
 -1      2188-9.46418E-03 3.74844E-03 4.00324E-03
 -1      2189-2.62354E-02 2.30851E-02 5.87865E-03
 -1      2190-3.19444E-02 3.48827E-02 5.85741E-03
 -1      2191-1.50981E-02 1.63683E-02 3.84924E-03
 -1      2192-3.77166E-02 4.91161E-02 5.80279E-03
 -1      2193-4.33376E-02 6.55008E-02 5.71293E-03
 -1      2194-2.29975E-02 4.03465E-02 3.87792E-03
 -1      2195-4.88058E-02 8.41992E-02 5.60952E-03
 -1      2196-5.42458E-02 1.04975E-01 5.51192E-03
 -1      2197-3.04446E-02 7.33265E-02 3.75586E-03
 -1      2198-5.94462E-02 1.27880E-01 5.40391E-03
 -1      2199-6.46994E-02 1.52875E-01 5.30530E-03
 -1      2200-3.74315E-02 1.15011E-01 3.60178E-03
 -1      2201-6.98635E-02 1.79923E-01 5.21235E-03
 -1      2202-7.49200E-02 2.08983E-01 5.12100E-03
 -1      2203-4.41979E-02 1.65033E-01 3.45970E-03
 -1      2204-7.98940E-02 2.40028E-01 5.02996E-03
 -1      2205-8.47742E-02 2.73020E-01 4.93123E-03
 -1      2206-5.08731E-02 2.23187E-01 3.34287E-03
 -1      2207-8.95670E-02 3.07917E-01 4.83922E-03
 -1      2208-9.42709E-02 3.44683E-01 4.74598E-03
 -1      2209-5.72960E-02 2.89198E-01 3.21584E-03
 -1      2210-9.88708E-02 3.83289E-01 4.65462E-03
 -1      2211-1.03384E-01 4.23694E-01 4.55686E-03
 -1      2212-6.34745E-02 3.62767E-01 3.09590E-03
 -1      2213-1.07803E-01 4.65865E-01 4.46389E-03
 -1      2214-1.12129E-01 5.09760E-01 4.36768E-03
 -1      2215-6.94165E-02 4.43610E-01 2.96987E-03
 -1      2216-1.16367E-01 5.55345E-01 4.27574E-03
 -1      2217-1.20511E-01 6.02583E-01 4.17658E-03
 -1      2218-7.51190E-02 5.31429E-01 2.84578E-03
 -1      2219-1.24563E-01 6.51437E-01 4.08662E-03
 -1      2220-1.28532E-01 7.01869E-01 3.99475E-03
 -1      2221-8.05768E-02 6.25939E-01 2.71733E-03
 -1      2222-1.32695E-01 7.53816E-01 3.91130E-03
 -1      2223-1.36478E-01 8.07307E-01 3.81348E-03
 -1      2224-8.60807E-02 7.26801E-01 2.61023E-03
 -1      2225-1.39980E-01 8.62054E-01 3.71638E-03
 -1      2226-1.43579E-01 9.18445E-01 3.62006E-03
 -1      2227-9.12035E-02 8.33564E-01 2.48670E-03
 -1      2228-1.47419E-01 9.76201E-01 3.53511E-03
 -1      2229-1.50838E-01 1.03535E+00 3.43712E-03
 -1      2230-9.60938E-02 9.46114E-01 2.36482E-03
 -1      2231-1.53677E-01 1.09615E+00 3.33364E-03
 -1      2232-1.56893E-01 1.15792E+00 3.24049E-03
 -1      2233-1.00463E-01 1.06471E+00 2.23511E-03
 -1      2234-1.60021E-01 1.22095E+00 3.14777E-03
 -1      2235-1.63060E-01 1.28520E+00 3.05225E-03
 -1      2236-1.04222E-01 1.18861E+00 2.10256E-03
 -1      2237-1.66010E-01 1.35063E+00 2.95959E-03
 -1      2238-1.68865E-01 1.41720E+00 2.86706E-03
 -1      2239-1.08225E-01 1.31713E+00 1.97904E-03
 -1      2240-1.72622E-01 1.48304E+00 2.79612E-03
 -1      2241-1.75311E-01 1.55177E+00 2.69418E-03
 -1      2242-1.12987E-01 1.44848E+00 1.87886E-03
 -1      2243-1.78046E-01 1.62536E+00 2.59808E-03
 -1      2244-1.80551E-01 1.69618E+00 2.50157E-03
 -1      2245-1.17674E-01 1.58787E+00 1.76256E-03
 -1      2246-1.81765E-01 1.76598E+00 2.39535E-03
 -1      2247-1.84061E-01 1.83866E+00 2.30146E-03
 -1      2248-1.19930E-01 1.73143E+00 1.62019E-03
 -1      2249-1.86274E-01 1.91223E+00 2.21043E-03
 -1      2250-1.88396E-01 1.98666E+00 2.11320E-03
 -1      2251-1.21801E-01 1.87486E+00 1.48651E-03
 -1      2252-1.90418E-01 2.06190E+00 2.02200E-03
 -1      2253-1.92352E-01 2.13793E+00 1.92372E-03
 -1      2254-1.24585E-01 2.02374E+00 1.36192E-03
 -1      2255-1.94198E-01 2.21470E+00 1.83183E-03
 -1      2256-1.95941E-01 2.29218E+00 1.73795E-03
 -1      2257-1.27131E-01 2.17582E+00 1.23619E-03
 -1      2258-1.97600E-01 2.37033E+00 1.64653E-03
 -1      2259-1.99169E-01 2.44911E+00 1.54827E-03
 -1      2260-1.29439E-01 2.33081E+00 1.11420E-03
 -1      2261-2.00644E-01 2.52850E+00 1.45654E-03
 -1      2262-2.02025E-01 2.60845E+00 1.36001E-03
 -1      2263-1.31496E-01 2.48842E+00 9.88744E-04
 -1      2264-2.03317E-01 2.68893E+00 1.26772E-03
 -1      2265-2.04513E-01 2.76989E+00 1.17273E-03
 -1      2266-1.33313E-01 2.64835E+00 8.64181E-04
 -1      2267-2.05617E-01 2.85132E+00 1.07981E-03
 -1      2268-2.06624E-01 2.93316E+00 9.84736E-04
 -1      2269-1.34891E-01 2.81031E+00 7.41964E-04
 -1      2270-2.07547E-01 3.01538E+00 8.93676E-04
 -1      2271-2.08380E-01 3.09794E+00 7.95578E-04
 -1      2272-1.36228E-01 2.97402E+00 6.19691E-04
 -1      2273-2.09119E-01 3.18082E+00 7.04489E-04
 -1      2274-2.09763E-01 3.26397E+00 6.10462E-04
 -1      2275-1.37315E-01 3.13919E+00 4.92917E-04
 -1      2276-2.10711E-01 3.34770E+00 5.19651E-04
 -1      2277-2.11172E-01 3.43128E+00 4.25812E-04
 -1      2278-1.38559E-01 3.30586E+00 3.72890E-04
 -1      2279-2.10334E-01 3.51859E+00 3.28826E-04
 -1      2280-2.10596E-01 3.60247E+00 2.36613E-04
 -1      2281-1.38351E-01 3.47698E+00 2.44251E-04
 -1      2282-1.60479E-01 3.63284E+00 1.42700E-04
 -1      2283 6.12322E-02 1.91150E+00-7.26007E-04
 -1      2284 6.05051E-02 1.83789E+00-7.58821E-04
 -1      2285 6.25960E-02 2.06123E+00-6.63145E-04
 -1      2286 6.19278E-02 1.98595E+00-6.98065E-04
 -1      2287-4.13099E-07 1.94853E+00-2.48738E-07
 -1      2288 6.68384E-02 2.68851E+00-4.15089E-04
 -1      2289 6.64184E-02 2.60800E+00-4.50618E-04
 -1      2290 6.59644E-02 2.52801E+00-4.77639E-04
 -1      2291 6.54810E-02 2.44860E+00-5.14675E-04
 -1      2292-2.79878E-06 2.56788E+00-1.03935E-06
 -1      2293-6.79323E-02 2.93283E+00 3.27459E-04
 -1      2294-6.82389E-02 3.01508E+00 2.90938E-04
 -1      2295-6.72349E-02 2.76950E+00 3.88070E-04
 -1      2296-6.75988E-02 2.85096E+00 3.54070E-04
 -1      2297-1.04852E-06 2.89180E+00-1.17058E-06
 -1      2298 7.05902E-02 3.34613E+00-1.74228E-04
 -1      2299 6.90257E-02 3.26357E+00-2.04358E-04
 -1      2300 8.57893E-04 3.38433E+00-4.67492E-06
 -1      2301 7.14682E-02 3.42550E+00-1.49484E-04
 -1      2302 6.94074E-02 3.51365E+00-1.05648E-04
 -1      2303 5.83468E-02 1.62258E+00-8.49591E-04
 -1      2304 5.74350E-02 1.55276E+00-8.84772E-04
 -1      2305-2.27061E-04 1.51811E+00 3.96025E-06
 -1      2306 5.67750E-02 1.48397E+00-9.17110E-04
 -1      2307 5.57022E-02 1.41625E+00-9.46194E-04
 -1      2308-6.32350E-02 2.13729E+00 6.35774E-04
 -1      2309-6.38390E-02 2.21409E+00 6.00848E-04
 -1      2310-6.44135E-02 2.29160E+00 5.75216E-04
 -1      2311-6.49631E-02 2.36978E+00 5.38018E-04
 -1      2312 3.74256E-07 2.25269E+00 1.94514E-06
 -1      2313 5.25935E-02 1.21991E+00-1.03241E-03
 -1      2314 5.19715E-02 1.15683E+00-1.07663E-03
 -1      2315 5.47629E-02 1.34965E+00-9.75124E-04
 -1      2316 5.35948E-02 1.28419E+00-1.00506E-03
 -1      2317 2.39556E-06 1.25177E+00 8.59784E-07
 -1      2318-1.78705E-02 1.03139E-01 1.82808E-03
 -1      2319-1.94966E-02 1.26080E-01 1.77572E-03
 -1      2320-2.12205E-02 1.51113E-01 1.74612E-03
 -1      2321-2.29187E-02 1.78191E-01 1.71435E-03
 -1      2322-2.18052E-06 1.38122E-01 7.44015E-07
 -1      2323 2.94045E-02 3.06312E-01-1.59011E-03
 -1      2324 2.78274E-02 2.71383E-01-1.62079E-03
 -1      2325 2.62245E-02 2.38357E-01-1.65040E-03
 -1      2326 2.45851E-02 2.07283E-01-1.68643E-03
 -1      2327 3.09606E-06 2.54430E-01 1.71268E-06
 -1      2328 1.60666E-02 8.22846E-02-1.85455E-03
 -1      2329 1.42920E-02 6.35903E-02-1.89560E-03
 -1      2330 1.07214E-02 3.30713E-02-1.98189E-03
 -1      2331 1.24664E-02 4.71381E-02-1.93013E-03
 -1      2332 4.77955E-05 5.48490E-02-6.64269E-06
 -1      2333-3.95916E-02 6.01196E-01 1.37714E-03
 -1      2334-4.09293E-02 6.50083E-01 1.34004E-03
 -1      2335-3.68349E-02 5.08310E-01 1.44122E-03
 -1      2336-3.82242E-02 5.53925E-01 1.40390E-03
 -1      2337 2.08101E-06 5.77186E-01 2.02783E-06
 -1      2338-4.45377E-02 8.05494E-01 1.25162E-03
 -1      2339-4.55729E-02 8.60259E-01 1.20946E-03
 -1      2340 9.25801E-04 8.88182E-01-2.49503E-05
 -1      2341-4.68636E-02 9.17020E-01 1.18481E-03
 -1      2342-4.83415E-02 9.74796E-01 1.15858E-03
 -1      2343-3.09507E-02 3.43105E-01 1.56348E-03
 -1      2344-3.24657E-02 3.81742E-01 1.53300E-03
 -1      2345-3.39498E-02 4.22181E-01 1.50337E-03
 -1      2346-3.54073E-02 4.64382E-01 1.46849E-03
 -1      2347-2.66177E-06 4.01552E-01 1.64907E-06
 -1      2348-6.54181E-03 1.17291E-02 1.86862E-03
 -1      2349-8.59507E-03 2.15575E-02 1.93337E-03
 -1      2350-5.18420E-03 6.14287E-03 1.82229E-03
 -1      2351 7.16663E-05 1.01169E-02-2.44104E-05
 -1      2352-1.97011E-03 2.12224E-03 8.59226E-04
 -1      2353-6.33235E-03 3.42540E-03 2.63255E-03
 -1      2354-6.05077E-02 1.83789E+00 7.60780E-04
 -1      2355-6.12353E-02 1.91150E+00 7.25854E-04
 -1      2356-6.00923E-02 1.69535E+00 8.34659E-04
 -1      2357-5.97448E-02 1.76519E+00 7.87829E-04
 -1      2358 4.89199E-07 1.80133E+00 9.42903E-07
 -1      2359 6.87478E-02 3.18059E+00-2.31230E-04
 -1      2360 6.85049E-02 3.09768E+00-2.62344E-04
 -1      2361 6.82366E-02 3.01508E+00-2.92903E-04
 -1      2362 6.79326E-02 2.93283E+00-3.29190E-04
 -1      2363-1.32773E-06 3.05631E+00-9.39262E-08
 -1      2364-6.88831E-02 3.42671E+00 1.39537E-04
 -1      2365-6.77894E-02 3.51406E+00 1.05294E-04
 -1      2366 5.57706E-04 3.52847E+00 1.60528E-06
 -1      2367-6.88935E-02 3.57880E+00 8.27826E-05
 -1      2368-1.04133E-01 3.62458E+00 9.45765E-05
 -1      2369-3.56642E-02 3.63902E+00 2.72218E-05
 -1      2370-4.97127E-02 1.03408E+00 1.13548E-03
 -1      2371-5.03090E-02 1.09491E+00 1.09310E-03
 -1      2372-5.15681E-02 1.15684E+00 1.07146E-03
 -1      2373-5.25976E-02 1.21991E+00 1.03421E-03
 -1      2374 1.92128E-04 1.12552E+00-1.64974E-06
 -1      2375-6.88966E-02 3.26357E+00 2.01835E-04
 -1      2376-6.94722E-02 3.34734E+00 1.68826E-04
 -1      2377-6.85086E-02 3.09768E+00 2.63154E-04
 -1      2378-6.87497E-02 3.18059E+00 2.28622E-04
 -1      2379 6.49032E-05 3.22193E+00-2.92525E-06
 -1      2380-5.35988E-02 1.28419E+00 1.00649E-03
 -1      2381-5.45726E-02 1.34965E+00 9.69218E-04
 -1      2382-5.55035E-02 1.41625E+00 9.45621E-04
 -1      2383-5.74516E-02 1.48211E+00 9.31367E-04
 -1      2384 2.15142E-06 1.38270E+00 1.16172E-06
 -1      2385 4.09229E-02 6.50083E-01-1.34313E-03
 -1      2386 3.95886E-02 6.01196E-01-1.37336E-03
 -1      2387 4.44168E-02 7.52473E-01-1.30859E-03
 -1      2388 4.22305E-02 7.00541E-01-1.31883E-03
 -1      2389-6.48715E-07 6.74954E-01-1.63708E-08
 -1      2390 5.10920E-02 1.09489E+00-1.10650E-03
 -1      2391 5.03817E-02 1.03421E+00-1.15348E-03
 -1      2392 6.09537E-04 1.00427E+00-1.52585E-05
 -1      2393 4.94770E-02 9.74922E-01-1.18573E-03
 -1      2394 4.85939E-02 9.17113E-01-1.22904E-03
 -1      2395 3.82232E-02 5.53925E-01-1.40242E-03
 -1      2396 3.68307E-02 5.08307E-01-1.43687E-03
 -1      2397 3.54085E-02 4.64379E-01-1.46524E-03
 -1      2398 3.39508E-02 4.22182E-01-1.50276E-03
 -1      2399-5.96956E-07 4.85953E-01 2.30344E-06
 -1      2400 1.85808E-03 2.00755E-03-8.24509E-04
 -1      2401 5.17876E-03 6.16764E-03-1.82017E-03
 -1      2402 6.15570E-03 3.27934E-03-2.57523E-03
 -1      2403 3.31621E-02 3.64155E+00-2.34625E-05
 -1      2404 1.02131E-01 3.62671E+00-9.25283E-05
 -1      2405 6.84313E-02 3.57840E+00-8.14000E-05
 -1      2406-6.64162E-02 2.60800E+00 4.48280E-04
 -1      2407-6.68387E-02 2.68851E+00 4.16712E-04
 -1      2408-6.54775E-02 2.44860E+00 5.11403E-04
 -1      2409-6.59612E-02 2.52801E+00 4.75978E-04
 -1      2410 6.49603E-02 2.36978E+00-5.39813E-04
 -1      2411 6.44132E-02 2.29160E+00-5.70208E-04
 -1      2412 6.38352E-02 2.21409E+00-5.98360E-04
 -1      2413 6.32351E-02 2.13729E+00-6.35721E-04
 -1      2414-2.78316E-02 2.71383E-01 1.62519E-03
 -1      2415-2.94091E-02 3.06313E-01 1.58780E-03
 -1      2416-2.45940E-02 2.07279E-01 1.69120E-03
 -1      2417-2.62257E-02 2.38357E-01 1.65369E-03
 -1      2418 2.29142E-02 1.78190E-01-1.71371E-03
 -1      2419 2.12186E-02 1.51109E-01-1.74617E-03
 -1      2420 1.94950E-02 1.26077E-01-1.77645E-03
 -1      2421 1.78710E-02 1.03144E-01-1.82685E-03
 -1      2422-1.04752E-02 3.28518E-02 1.94015E-03
 -1      2423-1.24044E-02 4.71037E-02 1.92067E-03
 -1      2424-1.43119E-02 6.35519E-02 1.89990E-03
 -1      2425-1.60620E-02 8.22783E-02 1.85618E-03
 -1      2426 1.58813E-04 2.70918E-02-3.23975E-05
 -1      2427 8.97319E-03 2.17532E-02-2.01475E-03
 -1      2428 6.72749E-03 1.17747E-02-1.92462E-03
 -1      2429 5.97444E-02 1.76518E+00-7.86723E-04
 -1      2430 5.93995E-02 1.69340E+00-8.24560E-04
 -1      2431-2.33279E-04 1.65777E+00 4.33768E-06
 -1      2432-5.94912E-02 1.62449E+00 8.65737E-04
 -1      2433-5.85798E-02 1.55087E+00 9.05125E-04
 -1      2434 6.75968E-02 2.85096E+00-3.55690E-04
 -1      2435 6.72316E-02 2.76950E+00-3.86826E-04
 -1      2436-1.24144E-06 2.72890E+00 9.90165E-07
 -1      2437-6.19297E-02 1.98595E+00 6.99162E-04
 -1      2438-6.25978E-02 2.06123E+00 6.64299E-04
 -1      2439-1.85205E-06 2.09908E+00 1.07227E-07
 -1      2440-4.22276E-02 7.00541E-01 1.31633E-03
 -1      2441-4.37998E-02 7.52516E-01 1.29472E-03
 -1      2442 4.89044E-04 7.78440E-01-1.23437E-05
 -1      2443 4.74775E-02 8.60352E-01-1.26147E-03
 -1      2444 4.61692E-02 8.05457E-01-1.29590E-03
 -1      2445 3.24686E-02 3.81743E-01-1.52876E-03
 -1      2446 3.09547E-02 3.43104E-01-1.56605E-03
 -1      2447-3.07753E-07 3.24284E-01 1.49444E-07
 -1      2448 3.52663E-07 1.92274E-01 6.07642E-07
 -1      2449 2.49991E-06 9.21888E-02 6.24583E-07
 -1      2450 9.77491E-08 2.40904E+00-1.98502E-06
 -1      2451-8.82582E-04 1.29359E-02 1.43021E-05
 -1      2452-1.04032E-02 3.53515E+00-3.12165E-06
 -1      2453 3.18862E-06 3.22237E+00 3.20186E-07
 -1      2454 2.36778E-06 5.86275E-02 5.58588E-06
 -1      2455 5.66884E-06 3.27498E-01 1.18309E-05
 -1      2456-5.94732E-06 2.72971E+00-4.02994E-06
 -1      2457-7.66122E-07 2.41012E+00 7.54846E-06
 -1      2458-3.75726E-06 2.10040E+00 2.37339E-06
 -1      2459 4.89389E-06 1.80291E+00-3.40792E-06
 -1      2460-2.37718E-06 1.38464E+00 7.33310E-06
 -1      2461-1.87925E-07 6.77664E-01 1.18037E-05
 -1      2462-1.12553E-06 1.95747E-01-4.13587E-06
 -1      2463-3.80659E-05 1.12786E+00-7.00126E-06
 -1      2464 4.75107E-05 4.88914E-01 4.43587E-07
 -1      2465-1.84822E-05 8.90637E-01 4.19146E-06
 -1      2466 2.60812E-02 1.58919E+00-4.23892E-05
 -1      2467 3.08463E-02 2.97441E+00-1.74509E-05
 -1      2468 8.32209E-03 1.17677E-01-8.84468E-05
 -1      2469 1.05565E-01 3.62918E+00 3.54371E-05
 -1      2470 5.89533E-03 5.48103E-03 9.59487E-04
 -1      2471 1.11528E-01 3.63383E+00-3.88772E-05
 -1      2472-5.76476E-03 5.24191E-03-9.65894E-04
 -1      2473-4.04723E-02 4.04662E-01-5.59615E-04
 -1      2474 3.30686E-02 2.57763E-01 6.03811E-04
 -1      2475-8.10265E-02 2.56882E+00-1.71583E-04
 -1      2476 8.10266E-02 2.56883E+00-1.69499E-04
 -1      2477-7.54016E-02 1.94998E+00 2.63111E-04
 -1      2478-7.85231E-02 2.25389E+00 2.14787E-04
 -1      2479 7.85207E-02 2.25388E+00 2.15052E-04
 -1      2480 7.53959E-02 1.94999E+00 2.63094E-04
 -1      2481-3.31104E-02 2.57772E-01 6.01187E-04
 -1      2482 6.49954E-02 1.25383E+00 3.74467E-04
 -1      2483-5.96385E-02 1.00654E+00-4.21621E-04
 -1      2484 5.44106E-02 7.81192E-01-4.73747E-04
 -1      2485-6.50121E-02 1.25387E+00 3.74472E-04
 -1      2486-4.76586E-02 5.80015E-01 5.10135E-04
 -1      2487 4.06918E-02 4.04625E-01-5.57061E-04
 -1      2488 5.98659E-02 1.00654E+00-4.20206E-04
 -1      2489 4.75630E-02 5.80011E-01 5.11207E-04
 -1      2490-5.41377E-02 7.81188E-01-4.72096E-04
 -1      2491 5.82274E-03 5.35741E-03-9.70392E-04
 -1      2492-1.09959E-01 3.63467E+00-3.72562E-05
 -1      2493-8.95375E-02 3.07141E+00-1.17294E-04
 -1      2494-2.71859E-02 1.46275E-01-7.38184E-04
 -1      2495 1.19050E-02 3.10356E-02 7.46822E-04
 -1      2496 8.63749E-02 3.38458E+00 6.00546E-05
 -1      2497-5.87851E-03 5.07061E-03 1.03700E-03
 -1      2498-8.93431E-02 2.87602E+00-1.47947E-04
 -1      2499-2.17715E-02 9.18443E-02-7.83221E-04
 -1      2500-1.16780E-01 3.63846E+00 4.02224E-05
 -1      2501-7.40795E-02 1.50770E+00-3.80636E-04
 -1      2502-8.02494E-02 1.67255E+00-3.31201E-04
 -1      2503-1.29699E-02 3.28276E-02 8.25149E-04
 -1      2504-1.08162E-01 3.37693E+00-4.53619E-05
 -1      2505 5.31303E-02 3.37691E+00-4.65490E-05
 -1      2506 8.46717E-02 1.69154E+00 4.21378E-04
 -1      2507 8.11434E-02 1.48900E+00 4.58508E-04
 -1      2508 9.85316E-02 3.09410E+00 1.38802E-04
 -1      2509-9.85377E-02 3.09411E+00 1.32778E-04
 -1      2510-9.72844E-02 2.85547E+00 1.81116E-04
 -1      2511 9.72873E-02 2.85547E+00 1.81113E-04
 -1      2512 3.04992E-02 1.53193E-01 8.90968E-04
 -1      2513 2.31142E-02 8.66758E-02 9.33064E-04
 -1      2514-6.33789E-02 7.56330E-01 6.58412E-04
 -1      2515 8.89006E-02 1.91441E+00-3.74832E-04
 -1      2516-9.63833E-02 2.60720E+00 2.34449E-04
 -1      2517 9.63821E-02 2.60720E+00 2.35339E-04
 -1      2518 9.34749E-02 2.29108E+00-2.98576E-04
 -1      2519-9.34758E-02 2.29108E+00-2.99602E-04
 -1      2520-8.98757E-02 1.98575E+00-3.58620E-04
 -1      2521 4.03753E-02 2.73792E-01-8.41856E-04
 -1      2522-7.77704E-02 1.28478E+00-5.22078E-04
 -1      2523-4.71963E-02 3.85494E-01 7.85877E-04
 -1      2524 5.74436E-02 6.02833E-01-7.13587E-04
 -1      2525-4.04101E-02 2.73815E-01-8.41986E-04
 -1      2526 7.77718E-02 1.28478E+00-5.17994E-04
 -1      2527 6.32803E-02 7.56268E-01 6.57406E-04
 -1      2528 4.72707E-02 3.85177E-01 7.91120E-04
 -1      2529-5.75115E-02 6.02896E-01-7.13751E-04
 -1      2530 7.19209E-02 1.03548E+00 5.88850E-04
 -1      2531-7.18495E-02 1.03513E+00 5.88747E-04
 -1      2532-8.18130E-02 1.48920E+00 4.51467E-04
 -1      2533-3.04279E-02 1.53200E-01 8.92135E-04
 -1      2534-2.30478E-02 8.65940E-02 9.35393E-04
 -1      2535 1.46179E-02 3.58738E-02-9.66061E-04
 -1      2536-1.49877E-02 3.59524E-02-9.64794E-04
 -1      2537 9.44766E-02 1.71547E+00-5.05847E-04
 -1      2538 1.03799E-01 1.47648E+00-7.31296E-04
 -1      2539 1.09526E-01 3.12184E+00-1.60938E-04
 -1      2540 1.07828E-01 2.82813E+00-2.28217E-04
 -1      2541-8.81267E-02 1.69930E+00 4.44993E-04
 -1      2542 2.44910E-02 8.02117E-02-1.15324E-03
 -1      2543 3.44516E-02 1.61811E-01-1.08037E-03
 -1      2544-1.17210E-01 3.30353E+00 1.27569E-04
 -1      2545-6.23159E-02 5.08751E-01-1.01599E-03
 -1      2546-1.11134E-01 2.44556E+00 3.58625E-04
 -1      2547 1.06350E-01 2.06634E+00-4.67657E-04
 -1      2548 1.11133E-01 2.44556E+00 3.59171E-04
 -1      2549-1.02681E-01 1.83564E+00-5.30975E-04
 -1      2550-4.15850E-02 2.08953E-01-1.18814E-03
 -1      2551 6.02853E-02 4.69111E-01 1.03723E-03
 -1      2552-6.02830E-02 4.69374E-01 1.03720E-03
 -1      2553 6.24841E-02 5.08825E-01-1.01562E-03
 -1      2554-8.01071E-02 9.16462E-01 8.42421E-04
 -1      2555 8.00420E-02 9.16815E-01 8.40631E-04
 -1      2556 8.75225E-02 1.15568E+00-7.52017E-04
 -1      2557-8.74807E-02 1.15573E+00-7.51743E-04
 -1      2558-9.86384E-02 3.47083E+00 8.75145E-05
 -1      2559-1.09499E-01 2.13693E+00-4.62930E-04
 -1      2560 1.06920E-01 2.10625E+00 4.57780E-04
 -1      2561-1.06755E-01 2.09457E+00 4.60964E-04
 -1      2562 7.90219E-02 8.86973E-01-8.55621E-04
 -1      2563-4.76209E-02 8.90743E-01-6.16531E-04
 -1      2564-9.49940E-02 8.91239E-01-6.04308E-04
 -1      2565-1.42763E-01 8.91355E-01-2.75352E-03
 -1      2566-7.42365E-02 8.35083E-01-1.31715E-03
 -1      2567-1.20468E-01 8.35990E-01-1.30370E-03
 -1      2568-2.78200E-02 8.35193E-01-1.14912E-04
 -1      2569-1.26590E-01 9.48666E-01-1.23573E-03
 -1      2570-7.79549E-02 9.47840E-01-1.24688E-03
 -1      2571-2.91270E-02 9.47891E-01-1.07629E-04
 -1      2572 1.94725E-01 3.61134E+00 4.23213E-05
 -1      2573 1.94547E-01 3.54663E+00 5.08098E-05
 -1      2574 1.97719E-01 3.61367E+00-4.19457E-05
 -1      2575 1.97539E-01 3.54895E+00-5.34260E-05
 -1      2576 1.08559E-01 3.63153E+00-3.65115E-07
 -1      2577 5.35079E-02 3.54646E+00 5.13336E-05
 -1      2578 5.25102E-02 3.61122E+00 3.69212E-05
 -1      2579-5.51818E-02 3.61396E+00-3.86062E-05
 -1      2580-2.19457E-03 3.63191E+00-1.91207E-06
 -1      2581-5.41018E-02 3.54920E+00-5.24265E-05
 -1      2582 3.36290E-03 5.36346E-03 9.61087E-04
 -1      2583 3.44683E-03 8.72454E-03 2.23679E-04
 -1      2584-4.16278E-04 9.61978E-03-6.75280E-05
 -1      2585-3.37544E-03 5.24514E-03-9.40823E-04
 -1      2586-4.13835E-03 8.63079E-03-2.68212E-04
 -1      2587-1.43572E-05 4.77303E-03-1.73426E-05
 -1      2588 1.05055E-02 1.12807E-02-6.48544E-05
 -1      2589 1.20962E-02 8.55142E-03 8.78205E-04
 -1      2590 1.20358E-02 8.48083E-03-8.90928E-04
 -1      2591 5.80991E-03 5.69676E-03-1.07747E-05
 -1      2592 3.42963E-03 8.61126E-03-2.65469E-04
 -1      2593-2.03983E-01 2.72971E+00-9.12411E-04
 -1      2594-1.76829E-01 2.64925E+00-4.54197E-04
 -1      2595-1.07459E-01 2.64879E+00-4.53320E-04
 -1      2596-1.11888E-01 2.80247E+00-4.13506E-04
 -1      2597-8.52285E-02 2.72156E+00-1.61554E-04
 -1      2598-1.82042E-01 2.80289E+00-4.10707E-04
 -1      2599-4.07813E-02 2.64902E+00-3.68424E-05
 -1      2600-1.36789E-01 2.72987E+00-2.00832E-04
 -1      2601-4.44562E-02 2.80268E+00-4.59510E-05
 -1      2602-6.70799E-02 2.72956E+00-2.01854E-04
 -1      2603 1.35192E-02 1.75460E-02-5.88923E-05
 -1      2604 1.63849E-02 1.36522E-02-9.75628E-04
 -1      2605-4.26461E-04 1.57425E-02-5.46512E-05
 -1      2606-4.48678E-03 1.01837E-02-1.00298E-03
 -1      2607-1.85086E-01 3.14701E+00-2.66376E-04
 -1      2608-1.13617E-01 3.14674E+00-2.68224E-04
 -1      2609-2.09511E-01 3.22256E+00-4.91534E-04
 -1      2610-1.94932E-01 3.29977E+00-1.80996E-04
 -1      2611-1.23050E-01 3.29956E+00-1.99400E-04
 -1      2612-9.88895E-02 3.22375E+00-7.96017E-05
 -1      2613-4.49156E-02 3.14678E+00-2.41835E-05
 -1      2614-6.88998E-02 3.22238E+00-1.08614E-04
 -1      2615-5.39450E-02 3.29954E+00-1.78149E-05
 -1      2616 7.38126E-02 2.50690E-01-8.09493E-04
 -1      2617 1.87349E-02 2.33261E-01-2.16237E-04
 -1      2618 5.02421E-02 2.11369E-01 2.01753E-06
 -1      2619 6.70032E-02 1.94104E-01-9.43941E-04
 -1      2620 1.80358E-02 1.78407E-01-2.66538E-04
 -1      2621 3.77028E-02 2.14422E-01-9.49715E-04
 -1      2622 1.93110E-02 2.47818E-01-8.11196E-04
 -1      2623-2.23842E-06 2.09652E-01 9.40546E-07
 -1      2624 1.86888E-02 1.91013E-01-9.37846E-04
 -1      2625 7.15518E-02 2.34215E-01-1.94320E-03
 -1      2626 6.46175E-02 1.79412E-01-2.14556E-03
 -1      2627 4.45842E-02 2.32312E-01-1.94270E-03
 -1      2628 4.08174E-02 1.77385E-01-2.14377E-03
 -1      2629 1.64469E-02 1.37385E-02 9.83263E-04
 -1      2630 4.65834E-03 1.03627E-02 1.04499E-03
 -1      2631-1.37186E-01 2.77044E+00-4.01242E-07
 -1      2632-1.36386E-01 2.68952E+00-1.13331E-06
 -1      2633-3.08209E-06 2.77005E+00-2.47990E-07
 -1      2634-4.56186E-06 2.68909E+00-6.88036E-07
 -1      2635 6.41266E-05 3.26376E+00 2.21987E-06
 -1      2636-5.39458E-02 3.34102E+00-8.17010E-05
 -1      2637-2.82481E-06 3.18082E+00-6.03308E-07
 -1      2638-3.07904E-02 3.26897E-01-8.01972E-04
 -1      2639-5.55217E-05 3.45285E-01-1.12548E-06
 -1      2640-5.16856E-02 3.64333E-01-1.64208E-03
 -1      2641-1.98250E-02 3.83416E-01-6.08928E-04
 -1      2642-1.93175E-02 3.65163E-01-1.43086E-04
 -1      2643-2.16752E-02 3.16616E-01-7.81829E-04
 -1      2644-5.06694E-02 2.99220E-01-1.88862E-03
 -1      2645-2.10582E-02 3.00123E-01-2.01339E-04
 -1      2646-8.97292E-05 2.09651E-01-1.52752E-06
 -1      2647 2.39682E-02 1.95088E-01 8.55838E-04
 -1      2648 1.59288E-02 2.40175E-01 6.54812E-04
 -1      2649 4.11883E-02 2.24863E-01 1.76039E-03
 -1      2650 1.55402E-02 2.25767E-01 1.56132E-04
 -1      2651 3.04489E-02 3.26888E-01 7.96445E-04
 -1      2652-9.95811E-05 3.08526E-01-2.29672E-06
 -1      2653 4.63896E-02 2.90820E-01 1.69295E-03
 -1      2654 1.69116E-02 2.73140E-01 6.42175E-04
 -1      2655 1.75082E-02 2.91693E-01 1.47774E-04
 -1      2656-5.31759E-04 9.19347E-01-4.29983E-06
 -1      2657-4.06860E-04 8.62616E-01-7.21734E-06
 -1      2658-4.08246E-02 3.36383E-01-6.87441E-04
 -1      2659-2.62990E-02 7.28661E-01-1.21647E-04
 -1      2660-6.99871E-02 7.27965E-01-1.38068E-03
 -1      2661-4.23696E-02 6.77157E-01-6.75229E-04
 -1      2662-2.94790E-02 6.39831E-01-1.69023E-04
 -1      2663-7.08506E-02 6.39066E-01-1.59629E-03
 -1      2664-5.61518E-02 6.89651E-01-5.80364E-04
 -1      2665 2.21166E-02 3.35576E-01 7.69281E-04
 -1      2666 5.44238E-02 3.54923E-01 1.83148E-03
 -1      2667 2.27931E-02 3.55805E-01 2.07116E-04
 -1      2668-2.36466E-04 7.02499E-01-3.33568E-06
 -1      2669-3.01809E-02 6.63570E-01-6.63583E-04
 -1      2670 5.52709E-02 1.38427E+00 4.83269E-04
 -1      2671 3.38761E-06 1.35102E+00-6.73257E-07
 -1      2672 8.74234E-02 1.31812E+00 1.03920E-03
 -1      2673 3.27918E-02 1.28528E+00 3.99710E-04
 -1      2674 3.30979E-02 1.31866E+00 8.89645E-05
 -1      2675 4.85557E-02 1.96401E-01 8.52730E-04
 -1      2676 6.75512E-02 2.26669E-01 1.75552E-03
 -1      2677 6.97194E-02 2.42874E-01 6.61354E-04
 -1      2678-2.69179E-02 7.53894E-01-5.16693E-04
 -1      2679 3.99244E-02 3.18591E-01 6.99923E-04
 -1      2680-6.00639E-02 3.10176E-01-1.04851E-06
 -1      2681-6.16516E-02 3.28104E-01 7.89216E-04
 -1      2682-7.39986E-02 2.75815E-01 6.47052E-04
 -1      2683-7.60870E-02 2.92566E-01 1.68407E-03
 -1      2684-1.75248E-02 2.91698E-01 1.46776E-04
 -1      2685-3.02128E-02 3.26886E-01 7.90140E-04
 -1      2686-1.74261E-06 3.08548E-01 4.93811E-07
 -1      2687-4.61935E-02 2.90821E-01 1.68436E-03
 -1      2688-1.70356E-02 2.73167E-01 6.46009E-04
 -1      2689-6.32151E-02 3.46892E-01-7.18840E-07
 -1      2690-6.16512E-02 3.28112E-01-7.87617E-04
 -1      2691-8.41786E-02 3.66002E-01-1.62275E-03
 -1      2692-8.61843E-02 3.85934E-01-6.11773E-04
 -1      2693-6.52584E-02 2.40992E+00-2.61764E-04
 -1      2694-8.41987E-06 2.44931E+00-5.62719E-07
 -1      2695-4.03643E-02 2.52854E+00-1.91806E-04
 -1      2696-4.02226E-02 2.48918E+00-4.65125E-05
 -1      2697-1.05996E-01 2.48891E+00-5.21163E-04
 -1      2698 6.52574E-02 2.40992E+00-2.61438E-04
 -1      2699 7.28649E-06 2.44931E+00-2.28352E-07
 -1      2700 1.05994E-01 2.48891E+00-5.18557E-04
 -1      2701 4.03633E-02 2.52854E+00-1.90639E-04
 -1      2702 4.02219E-02 2.48918E+00-4.56314E-05
 -1      2703-1.76263E-01 2.60922E+00-1.79346E-04
 -1      2704-1.33602E-01 2.44983E+00-1.89522E-06
 -1      2705-1.33086E-01 2.41032E+00-2.62657E-04
 -1      2706-1.75060E-01 2.52933E+00-1.91550E-04
 -1      2707-1.74415E-01 2.48944E+00-5.19328E-04
 -1      2708-4.06414E-02 2.60849E+00-1.77462E-04
 -1      2709 1.33602E-01 2.44983E+00-1.42799E-06
 -1      2710 1.33086E-01 2.41033E+00-2.62132E-04
 -1      2711 1.74415E-01 2.48945E+00-5.19962E-04
 -1      2712 1.75060E-01 2.52933E+00-1.90576E-04
 -1      2713 1.22704E-01 1.80321E+00 3.86095E-04
 -1      2714 1.23464E-01 1.83973E+00 2.80661E-06
 -1      2715 1.62525E-01 1.91348E+00 2.89279E-04
 -1      2716 3.72589E-02 1.87600E+00 7.15108E-05
 -1      2717 1.61562E-01 1.87641E+00 7.79360E-04
 -1      2718 7.67387E-06 1.83896E+00 1.10086E-06
 -1      2719 6.01655E-02 1.80261E+00 3.85825E-04
 -1      2720 3.74716E-02 1.91230E+00 2.89720E-04
 -1      2721 9.81785E-02 1.87560E+00 7.78712E-04
 -1      2722-2.37898E-02 1.95085E-01 8.49731E-04
 -1      2723-4.10173E-02 2.24863E-01 1.75247E-03
 -1      2724-1.55608E-02 2.25773E-01 1.55231E-04
 -1      2725-1.60521E-02 2.40182E-01 6.59529E-04
 -1      2726-4.85575E-02 1.96404E-01 8.50167E-04
 -1      2727-5.02477E-02 2.11366E-01 1.91449E-06
 -1      2728-6.75723E-02 2.26677E-01 1.75008E-03
 -1      2729-6.97435E-02 2.42880E-01 6.58392E-04
 -1      2730 6.00688E-02 3.10176E-01-3.69070E-07
 -1      2731 6.16570E-02 3.28104E-01 7.89676E-04
 -1      2732 7.39763E-02 2.75810E-01 6.49038E-04
 -1      2733 7.60639E-02 2.92561E-01 1.68575E-03
 -1      2734-3.00107E-02 9.76985E-01-4.69094E-04
 -1      2735 1.11352E-01 1.35201E+00-5.14416E-07
 -1      2736 1.12323E-01 1.38501E+00 4.81919E-04
 -1      2737 1.42277E-01 1.28692E+00 4.00713E-04
 -1      2738 1.43563E-01 1.31920E+00 1.03669E-03
 -1      2739-1.11355E-01 1.35201E+00-1.91019E-06
 -1      2740-1.12324E-01 1.38501E+00 4.79894E-04
 -1      2741-1.42287E-01 1.28694E+00 4.00298E-04
 -1      2742-1.43573E-01 1.31922E+00 1.03577E-03
 -1      2743-3.31078E-02 1.31868E+00 8.87836E-05
 -1      2744-5.50736E-02 1.38427E+00 4.81294E-04
 -1      2745-5.23339E-06 1.35102E+00 7.47032E-07
 -1      2746-3.28012E-02 1.28530E+00 3.99670E-04
 -1      2747-8.72383E-02 1.31815E+00 1.03686E-03
 -1      2748 3.02183E-02 3.26890E-01-7.86903E-04
 -1      2749 7.56986E-06 3.45304E-01 3.83034E-07
 -1      2750 5.11818E-02 3.64308E-01-1.62023E-03
 -1      2751 1.98771E-02 3.83420E-01-6.08491E-04
 -1      2752 1.94287E-02 3.65144E-01-1.42391E-04
 -1      2753-8.35474E-02 6.53345E-01-7.88814E-07
 -1      2754-8.48875E-02 6.78174E-01 6.65411E-04
 -1      2755-1.05167E-01 6.04948E-01 5.49385E-04
 -1      2756-1.06935E-01 6.28782E-01 1.42643E-03
 -1      2757-2.46519E-02 6.28049E-01 1.24258E-04
 -1      2758-4.16135E-02 6.77147E-01 6.66033E-04
 -1      2759-4.72042E-06 6.51970E-01-5.83906E-08
 -1      2760-6.49576E-02 6.27307E-01 1.42243E-03
 -1      2761-2.42314E-02 6.02705E-01 5.46541E-04
 -1      2762 6.32208E-02 3.46892E-01-6.35459E-07
 -1      2763 6.16566E-02 3.28113E-01-7.87271E-04
 -1      2764 8.62913E-02 3.85916E-01-6.06798E-04
 -1      2765 8.42835E-02 3.65987E-01-1.62036E-03
 -1      2766 8.35465E-02 6.53345E-01-1.02490E-06
 -1      2767 8.48867E-02 6.78174E-01 6.65470E-04
 -1      2768 1.05118E-01 6.04948E-01 5.50985E-04
 -1      2769 1.06886E-01 6.28781E-01 1.42621E-03
 -1      2770 2.46025E-02 6.28048E-01 1.24594E-04
 -1      2771-1.18284E-05 1.15834E+00 7.83817E-07
 -1      2772 5.10520E-02 1.12744E+00 5.40162E-04
 -1      2773 8.40060E-02 1.18965E+00 1.10408E-03
 -1      2774 3.18538E-02 1.19022E+00 9.73503E-05
 -1      2775 3.21813E-02 1.22104E+00 4.12965E-04
 -1      2776-2.78323E-02 8.07475E-01-5.05673E-04
 -1      2777 8.62033E-02 7.03727E-01-9.98587E-07
 -1      2778 8.48867E-02 6.78182E-01-6.63940E-04
 -1      2779 1.14019E-01 7.29371E-01-1.36721E-03
 -1      2780 2.64306E-02 7.28661E-01-1.21697E-04
 -1      2781 1.15708E-01 7.55883E-01-5.13029E-04
 -1      2782 4.16133E-02 6.77151E-01-6.63352E-04
 -1      2783 4.47490E-06 7.02393E-01 8.27363E-08
 -1      2784 2.68103E-02 7.53786E-01-5.15199E-04
 -1      2785 6.93377E-02 7.27959E-01-1.36741E-03
 -1      2786 3.88619E-02 1.72894E-01 2.01131E-03
 -1      2787 1.66943E-02 1.86375E-01 8.28739E-04
 -1      2788 1.61848E-02 1.73870E-01 2.15195E-04
 -1      2789-8.62045E-02 7.03727E-01-1.14161E-06
 -1      2790-8.48880E-02 6.78182E-01-6.64051E-04
 -1      2791-1.15579E-01 7.55880E-01-5.13110E-04
 -1      2792-1.13891E-01 7.29368E-01-1.36635E-03
 -1      2793-1.04188E-01 1.12826E+00 5.45659E-04
 -1      2794-1.05260E-01 1.15943E+00 2.36929E-06
 -1      2795-1.38270E-01 1.19079E+00 1.10913E-03
 -1      2796-1.39639E-01 1.22275E+00 4.12956E-04
 -1      2797-3.19008E-02 1.19024E+00 9.73743E-05
 -1      2798-9.37701E-02 8.63091E-01 5.56424E-06
 -1      2799-9.61970E-02 9.19777E-01 5.70105E-06
 -1      2800 2.70030E-02 5.93676E-02 9.55172E-04
 -1      2801 2.51085E-02 5.17636E-02 2.66796E-06
 -1      2802 3.80527E-02 6.49398E-02 9.17610E-04
 -1      2803 1.05332E-02 7.19941E-02 2.42911E-04
 -1      2804 4.05655E-02 7.30571E-02 2.18011E-03
 -1      2805 8.69272E-02 3.56695E-01 1.82363E-03
 -1      2806 8.48137E-02 3.38339E-01 7.72873E-04
 -1      2807 5.00948E-02 2.99193E-01-1.86875E-03
 -1      2808 2.10472E-02 3.00110E-01-2.01275E-04
 -1      2809 2.16075E-02 3.16619E-01-7.79632E-04
 -1      2810 6.88938E-02 3.22238E+00 1.07328E-04
 -1      2811 1.18128E-01 3.15812E+00 2.75647E-04
 -1      2812 4.95311E-02 3.19935E+00 1.09523E-04
 -1      2813 4.93927E-02 3.15816E+00 2.85907E-05
 -1      2814-8.47879E-02 3.38486E-01 7.68808E-04
 -1      2815-2.27473E-02 3.55957E-01 2.05814E-04
 -1      2816-8.69002E-02 3.56847E-01 1.81889E-03
 -1      2817-5.41508E-02 3.55072E-01 1.81957E-03
 -1      2818-2.21905E-02 3.35751E-01 7.70730E-04
 -1      2819-8.25824E-02 3.19401E-01-7.81497E-04
 -1      2820-8.04231E-02 3.01037E-01-1.87013E-03
 -1      2821-4.72150E-02 2.38918E+00-2.63186E-04
 -1      2822-1.11902E-01 2.35011E+00-6.38616E-04
 -1      2823-4.70256E-02 2.35042E+00-6.75729E-05
 -1      2824 4.72138E-02 2.38918E+00-2.63037E-04
 -1      2825 1.11901E-01 2.35011E+00-6.38745E-04
 -1      2826 4.70247E-02 2.35042E+00-6.73228E-05
 -1      2827-1.79413E-01 2.35074E+00-6.40651E-04
 -1      2828-1.80150E-01 2.39011E+00-2.63636E-04
 -1      2829 1.80149E-01 2.39011E+00-2.62501E-04
 -1      2830 1.79411E-01 2.35074E+00-6.38711E-04
 -1      2831 8.04038E-02 3.01024E-01-1.86885E-03
 -1      2832 8.25644E-02 3.19386E-01-7.80993E-04
 -1      2833 1.14236E-01 6.65767E-01-6.59960E-04
 -1      2834 2.94446E-02 6.39799E-01-1.69209E-04
 -1      2835 1.12411E-01 6.40571E-01-1.57977E-03
 -1      2836 2.99179E-02 6.63433E-01-6.58329E-04
 -1      2837 7.00764E-02 6.39023E-01-1.57917E-03
 -1      2838-1.12448E-01 6.40604E-01-1.58006E-03
 -1      2839-1.14274E-01 6.65800E-01-6.59679E-04
 -1      2840 3.97192E-02 1.40209E+00 4.61780E-04
 -1      2841 9.60645E-02 1.43595E+00 1.09221E-03
 -1      2842 4.00557E-02 1.43648E+00 1.24148E-04
 -1      2843-1.16206E-01 6.92092E-01 6.45613E-04
 -1      2844-3.09707E-02 7.16539E-01 1.73582E-04
 -1      2845-1.17986E-01 7.17290E-01 1.52807E-03
 -1      2846 1.17935E-01 7.17258E-01 1.52796E-03
 -1      2847 1.16156E-01 6.92062E-01 6.45064E-04
 -1      2848 3.09233E-02 7.16509E-01 1.73620E-04
 -1      2849-3.04982E-02 6.89789E-01 6.50344E-04
 -1      2850-7.35886E-02 7.15796E-01 1.53202E-03
 -1      2851-1.82533E-01 2.84372E+00-1.57431E-04
 -1      2852-4.45669E-02 2.84312E+00-1.58958E-04
 -1      2853 6.45342E-02 1.89347E-01 8.32317E-04
 -1      2854 6.22088E-02 1.74849E-01 2.00754E-03
 -1      2855 8.68261E-02 1.08067E+00 1.29154E-03
 -1      2856 3.69387E-02 1.11090E+00 5.38789E-04
 -1      2857 3.65314E-02 1.08130E+00 1.40069E-04
 -1      2858 1.02348E-01 1.74649E+00 9.24193E-04
 -1      2859 4.30357E-02 1.78235E+00 3.81043E-04
 -1      2860 4.27658E-02 1.74695E+00 9.87210E-05
 -1      2861 1.52690E-01 1.40374E+00 4.62774E-04
 -1      2862 1.53958E-01 1.43702E+00 1.09080E-03
 -1      2863 1.65439E-01 1.78371E+00 3.82206E-04
 -1      2864 1.64368E-01 1.74740E+00 9.24383E-04
 -1      2865 1.40702E-01 3.26396E+00 1.07213E-06
 -1      2866 1.40499E-01 3.22255E+00 1.06860E-04
 -1      2867 1.89969E-01 3.19975E+00 1.10070E-04
 -1      2868 1.89651E-01 3.15839E+00 2.77533E-04
 -1      2869 1.04149E-01 1.12828E+00 5.40894E-04
 -1      2870 1.05220E-01 1.15943E+00 1.85479E-06
 -1      2871 1.38260E-01 1.19079E+00 1.10223E-03
 -1      2872 1.39628E-01 1.22273E+00 4.12475E-04
 -1      2873 4.16130E-02 6.77147E-01 6.66252E-04
 -1      2874-2.58218E-04 6.51891E-01-3.98418E-06
 -1      2875 6.49072E-02 6.27304E-01 1.42492E-03
 -1      2876 2.39278E-02 6.02624E-01 5.40940E-04
 -1      2877 4.55385E-05 4.97607E-02 3.58980E-06
 -1      2878 1.33861E-02 5.79409E-02 9.63113E-04
 -1      2879 9.91766E-03 6.15948E-02 9.22405E-04
 -1      2880 2.53820E-02 7.09599E-02 2.19236E-03
 -1      2881-3.99139E-02 3.18741E-01 6.96844E-04
 -1      2882-8.74224E-02 2.42902E+00-2.25546E-04
 -1      2883 8.74225E-02 2.42902E+00-2.25114E-04
 -1      2884-1.18846E-01 8.08772E-01-4.89505E-04
 -1      2885-1.40627E-01 1.11262E+00 5.36521E-04
 -1      2886-1.39134E-01 1.08173E+00 1.29656E-03
 -1      2887-3.65352E-02 1.08112E+00 1.40626E-04
 -1      2888-1.28116E-01 9.78070E-01-4.58031E-04
 -1      2889 4.09094E-02 3.36352E-01-6.85913E-04
 -1      2890-2.74531E-05 1.15834E+00 7.78088E-07
 -1      2891-5.10911E-02 1.12744E+00 5.40660E-04
 -1      2892-3.21904E-02 1.22106E+00 4.12413E-04
 -1      2893-8.40138E-02 1.18967E+00 1.10185E-03
 -1      2894 5.62432E-02 6.89619E-01-5.81347E-04
 -1      2895-4.48271E-02 3.10525E+00-1.13116E-04
 -1      2896 4.75412E-02 3.58215E+00 1.03352E-05
 -1      2897 1.36396E-01 3.49963E+00-4.09358E-06
 -1      2898 5.05153E-02 3.58448E+00-1.60358E-05
 -1      2899-5.53180E-02 6.65727E-01 5.88218E-04
 -1      2900-4.39895E-03 3.49953E+00-5.27817E-06
 -1      2901-6.01456E-02 3.58490E+00-1.48461E-05
 -1      2902 3.21772E-02 2.02352E-01 7.34297E-04
 -1      2903 5.52225E-02 6.65697E-01 5.88168E-04
 -1      2904-6.87157E-02 1.14254E+00 4.70072E-04
 -1      2905 6.87431E-02 1.14270E+00 4.70442E-04
 -1      2906 3.01808E-02 6.89677E-01 6.43470E-04
 -1      2907 7.35390E-02 7.15767E-01 1.52983E-03
 -1      2908 1.40667E-01 1.11280E+00 5.37479E-04
 -1      2909 1.39175E-01 1.08193E+00 1.29260E-03
 -1      2910 7.29642E-02 1.36962E+00 4.22562E-04
 -1      2911-1.54293E-01 1.43712E+00 1.08157E-03
 -1      2912-1.53022E-01 1.40385E+00 4.52034E-04
 -1      2913-4.03879E-02 1.43658E+00 1.21383E-04
 -1      2914 8.02454E-02 1.81935E+00 3.31409E-04
 -1      2915-4.00496E-02 1.40220E+00 4.63555E-04
 -1      2916-9.61972E-02 1.43606E+00 1.08778E-03
 -1      2917-3.86563E-02 1.72889E-01 2.00115E-03
 -1      2918-1.67490E-02 1.86376E-01 8.31024E-04
 -1      2919-1.61471E-02 1.73873E-01 2.16944E-04
 -1      2920-8.67887E-02 1.08049E+00 1.29170E-03
 -1      2921-3.69041E-02 1.11072E+00 5.38454E-04
 -1      2922-6.44966E-02 1.89347E-01 8.31583E-04
 -1      2923-6.21725E-02 1.74855E-01 2.00314E-03
 -1      2924 3.05100E-02 4.48430E-02 2.04903E-03
 -1      2925 7.09526E-03 4.37763E-02 1.84509E-04
 -1      2926 2.79953E-02 3.86017E-02 7.95464E-04
 -1      2927-9.57696E-04 2.85366E-03 5.07839E-05
 -1      2928-1.31479E-03 2.89932E-03-3.24089E-05
 -1      2929-1.95573E-03 1.15431E-03 1.28518E-04
 -1      2930-4.26068E-03 8.46966E-03 3.53296E-04
 -1      2931-1.79685E-03 9.63625E-04 3.26392E-04
 -1      2932 7.24610E-02 1.95742E-01-3.84682E-03
 -1      2933 4.31915E-02 3.34484E+00 7.05700E-05
 -1      2934 1.12182E-01 3.30336E+00 2.00621E-04
 -1      2935 4.30823E-02 3.30336E+00 2.18875E-05
 -1      2936 8.36937E-04 2.87682E-03-1.82103E-05
 -1      2937 1.86888E-02 4.27966E-02 2.05744E-03
 -1      2938 6.55881E-03 3.54043E-02 7.95652E-04
 -1      2939-7.32995E-02 1.36974E+00 4.18816E-04
 -1      2940 1.84060E-01 3.30356E+00 1.98352E-04
 -1      2941 1.84304E-01 3.34512E+00 7.02580E-05
 -1      2942-3.99926E-02 3.67181E+00 2.32332E-06
 -1      2943 2.13500E-02 3.67181E+00-1.33835E-06
 -1      2944-4.33850E-03 3.67181E+00-1.13222E-06
 -1      2945-3.21561E-02 2.02358E-01 7.34047E-04
 -1      2946-3.18416E-02 3.72349E+00 3.63562E-06
 -1      2947-6.35513E-02 3.58679E+00 1.77884E-05
 -1      2948-9.32198E-02 3.72351E+00 8.17492E-06
 -1      2949 1.72751E-02 5.54785E-02 8.50224E-04
 -1      2950 9.25564E-02 3.23897E+00 9.16128E-05
 -1      2951 2.06194E-01 2.89249E+00-7.64894E-04
 -1      2952 1.22710E-01 3.00664E+00-3.75198E-04
 -1      2953 1.93727E-01 3.00700E+00-3.72913E-04
 -1      2954 1.92134E-01 2.86049E+00-4.39482E-04
 -1      2955 1.08765E-01 2.97440E+00-1.92817E-04
 -1      2956 1.21699E-01 2.86007E+00-4.39650E-04
 -1      2957 1.73400E-01 1.51995E+00-2.03038E-03
 -1      2958 1.76094E-01 1.58920E+00-1.96254E-03
 -1      2959 1.67735E-01 1.49873E+00-1.24200E-03
 -1      2960 1.10887E-01 1.56655E+00-1.21025E-03
 -1      2961 1.09138E-01 1.49761E+00-1.25024E-03
 -1      2962 2.07155E-01 2.97450E+00-7.03427E-04
 -1      2963 1.23204E-01 3.08917E+00-3.31764E-04
 -1      2964 2.08038E-01 3.05687E+00-6.32464E-04
 -1      2965 1.94509E-01 3.08948E+00-3.32843E-04
 -1      2966-5.93700E-02 3.45596E+00-7.30712E-06
 -1      2967-5.33274E-02 3.42034E+00-6.48919E-05
 -1      2968-1.09129E-01 3.50563E+00-5.39662E-05
 -1      2969-6.44140E-03 2.60959E-02-9.34979E-04
 -1      2970-6.54868E-03 2.31803E-02-2.38582E-04
 -1      2971-1.06960E-02 1.73579E-02-1.06415E-03
 -1      2972 8.44628E-04 8.68793E-04-1.95198E-04
 -1      2973 1.94792E-03 1.17861E-03-2.35985E-04
 -1      2974-8.98114E-02 3.72162E+00-4.83676E-06
 -1      2975-5.41300E-02 3.72160E+00-7.08982E-06
 -1      2976 5.19092E-03 2.30535E-02-2.40549E-04
 -1      2977 2.49337E-02 2.94568E-02-9.34227E-04
 -1      2978 1.05843E-02 1.74157E-02-1.07735E-03
 -1      2979-9.80488E-03 7.43462E-02-1.99471E-04
 -1      2980-1.03935E-02 8.22985E-02-8.05749E-04
 -1      2981 1.56356E-07 6.61968E-02-6.00394E-08
 -1      2982-8.54304E-03 4.66042E-02-2.37016E-04
 -1      2983-9.23338E-03 5.26471E-02-9.28295E-04
 -1      2984-1.86607E-02 6.07830E-02-8.70263E-04
 -1      2985-3.74715E-02 1.91230E+00 2.91687E-04
 -1      2986-3.72624E-02 1.87601E+00 6.83220E-05
 -1      2987-2.47775E-06 1.83896E+00 9.60738E-08
 -1      2988-4.47592E-02 1.78629E+00 3.97540E-04
 -1      2989-4.44773E-02 1.75086E+00 1.07226E-04
 -1      2990-8.20061E-02 1.82332E+00 3.42710E-04
 -1      2991 1.68005E-01 3.42056E+00-6.80057E-05
 -1      2992 2.14276E-02 3.45597E+00-7.09262E-06
 -1      2993 8.23069E-02 3.50521E+00-5.49163E-05
 -1      2994-1.23477E-01 1.83973E+00 5.96485E-07
 -1      2995-1.62526E-01 1.91348E+00 2.89627E-04
 -1      2996-1.67246E-01 1.78766E+00 3.95733E-04
 -1      2997-1.36377E-04 4.59649E-03 3.48888E-05
 -1      2998-1.51857E-01 1.48040E+00-3.95378E-04
 -1      2999-3.65046E-02 1.44571E+00-9.74502E-05
 -1      3000-1.13276E-01 1.41854E+00-7.03721E-07
 -1      3001-1.51690E-01 1.36821E+00-4.79215E-04
 -1      3002-3.94127E-02 1.33438E+00-1.24738E-04
 -1      3003-7.61015E-02 1.39468E+00-4.43419E-04
 -1      3004-2.87519E-02 3.96003E-02 8.44346E-04
 -1      3005-7.60385E-03 4.48187E-02 2.04037E-04
 -1      3006-2.51172E-02 5.17634E-02-1.81033E-06
 -1      3007-3.80146E-02 6.49033E-02 9.14495E-04
 -1      3008-1.05082E-02 7.19605E-02 2.40837E-04
 -1      3009-1.79017E-02 5.66129E-02 8.90146E-04
 -1      3010-3.67853E-02 1.47887E+00-3.95737E-04
 -1      3011-2.64999E-06 1.41758E+00 7.57371E-07
 -1      3012-3.97499E-02 1.36652E+00-4.76349E-04
 -1      3013-9.81818E-02 1.87560E+00 7.78163E-04
 -1      3014-1.04106E-01 1.75041E+00 9.46743E-04
 -1      3015-1.61556E-01 1.87641E+00 7.78196E-04
 -1      3016-1.66161E-01 1.75132E+00 9.45469E-04
 -1      3017-6.95584E-03 3.63350E-02 8.38361E-04
 -1      3018 3.94698E-05 4.97645E-02-2.47426E-06
 -1      3019-9.80059E-03 6.15591E-02 9.10621E-04
 -1      3020 1.40281E-01 3.18106E+00-6.92878E-07
 -1      3021 1.89323E-01 3.11705E+00 1.21532E-04
 -1      3022 1.82984E-01 1.80291E+00 1.74796E-03
 -1      3023 1.67711E-01 1.38465E+00 2.17713E-03
 -1      3024 4.92984E-02 3.11661E+00 1.21314E-04
 -1      3025-2.49103E-02 7.33054E-02-2.06188E-03
 -1      3026-2.05309E-02 4.55717E-02-2.23864E-03
 -1      3027 1.21930E-01 1.76710E+00 7.29516E-07
 -1      3028 1.63287E-01 1.71180E+00 3.93329E-04
 -1      3029 7.26381E-02 1.95747E-01 3.86317E-03
 -1      3030 1.13279E-01 1.41854E+00 1.42866E-06
 -1      3031 1.55218E-01 1.47113E+00 4.51327E-04
 -1      3032-2.12582E-02 2.15723E-01-1.01154E-03
 -1      3033-2.04650E-02 2.02300E-01-2.99475E-04
 -1      3034-2.90446E-03 1.79561E-01-8.56481E-05
 -1      3035-1.13381E-01 3.63660E+00-1.40353E-07
 -1      3036-5.14947E-02 1.85509E+00-4.50721E-04
 -1      3037-5.11836E-02 1.81925E+00-1.35650E-04
 -1      3038-7.78767E-03 1.76289E+00-4.11909E-05
 -1      3039 4.03780E-02 1.46953E+00 4.50530E-04
 -1      3040-7.21893E-07 1.41758E+00 1.09822E-06
 -1      3041-4.07117E-02 1.46964E+00 4.51237E-04
 -1      3042 2.88785E-02 6.80143E-02 4.16067E-06
 -1      3043 4.30636E-02 8.28694E-02 9.06702E-04
 -1      3044 1.55695E-02 1.58868E-01 8.46252E-04
 -1      3045-1.97467E-02 1.86207E-01-1.02342E-03
 -1      3046 4.68545E-02 1.82352E-01 4.30521E-07
 -1      3047 5.98725E-02 1.61893E-01 8.43505E-04
 -1      3048-4.27325E-02 8.53005E-02-8.05973E-04
 -1      3049-2.88774E-02 6.80135E-02-3.31070E-06
 -1      3050-3.52849E-02 5.58327E-02-9.06370E-04
 -1      3051 4.24744E-02 1.71038E+00 3.94111E-04
 -1      3052-5.08508E-02 1.78220E+00-4.66509E-04
 -1      3053-1.67509E-01 1.38464E+00 2.17183E-03
 -1      3054-1.50625E-01 1.44623E+00-1.01794E-03
 -1      3055-1.50363E-01 1.33494E+00-1.14870E-03
 -1      3056 1.11896E-02 7.97473E-02 9.06194E-04
 -1      3057 5.14823E-02 9.55323E-02-4.16520E-03
 -1      3058 5.67367E-02 1.17303E-01-4.09131E-03
 -1      3059 5.48035E-02 1.27420E-01-2.24907E-03
 -1      3060 3.77704E-02 1.50573E-01-2.18098E-03
 -1      3061 3.48161E-02 1.25806E-01-2.23455E-03
 -1      3062-1.33765E-01 8.76317E-01 7.38140E-04
 -1      3063-1.37181E-01 9.33302E-01 7.17569E-04
 -1      3064-3.98123E-02 9.03513E-01 2.11432E-04
 -1      3065-9.24296E-02 1.44520E+00-1.01680E-03
 -1      3066-9.37774E-02 1.33382E+00-1.14878E-03
 -1      3067-7.24599E-02 1.95743E-01 3.84867E-03
 -1      3068-3.14318E-02 7.41408E-01 6.39286E-04
 -1      3069-3.13165E-02 4.59745E-02 2.10650E-03
 -1      3070-4.05437E-02 7.31087E-02 2.17318E-03
 -1      3071-8.26320E-07 1.80599E-01 8.12638E-07
 -1      3072-1.55350E-02 1.58870E-01 8.43422E-04
 -1      3073-4.30261E-02 8.28296E-02 9.05427E-04
 -1      3074-7.22993E-02 2.18855E-01-1.01183E-03
 -1      3075-3.58238E-02 1.80592E-01-8.88948E-05
 -1      3076-1.19753E-01 7.43658E-01 6.38143E-04
 -1      3077 2.04712E-02 2.81268E-01-7.90973E-04
 -1      3078-1.85257E-01 2.70902E+00 2.03233E-04
 -1      3079-4.84213E-02 2.66832E+00 5.26940E-05
 -1      3080-1.84110E-01 2.62848E+00 2.14022E-04
 -1      3081 1.36387E-01 2.68952E+00 1.22295E-06
 -1      3082 1.37189E-01 2.77044E+00 6.53591E-07
 -1      3083 1.84110E-01 2.62848E+00 2.14327E-04
 -1      3084 1.85257E-01 2.70902E+00 2.05420E-04
 -1      3085 4.84169E-02 2.66832E+00 5.30243E-05
 -1      3086-2.83525E-06 2.77005E+00-1.89623E-07
 -1      3087 1.36004E-06 2.68909E+00 2.15142E-07
 -1      3088-4.82549E-02 2.62771E+00 2.14300E-04
 -1      3089-4.85576E-02 2.70831E+00 2.02190E-04
 -1      3090 4.85563E-02 2.70831E+00 2.02452E-04
 -1      3091 4.82537E-02 2.62771E+00 2.15380E-04
 -1      3092 5.56640E-02 2.46688E+00 3.02953E-04
 -1      3093 8.00347E-03 2.36786E+00 2.75639E-05
 -1      3094 5.54571E-02 2.42783E+00 9.41538E-05
 -1      3095-5.56649E-02 2.46688E+00 3.02896E-04
 -1      3096-8.00462E-03 2.36786E+00 2.75052E-05
 -1      3097-5.54582E-02 2.42783E+00 9.38487E-05
 -1      3098-1.89633E-01 2.46782E+00 3.03004E-04
 -1      3099-1.02271E-01 2.36818E+00 2.71696E-05
 -1      3100 1.89632E-01 2.46782E+00 3.04036E-04
 -1      3101 1.02270E-01 2.36818E+00 2.76855E-05
 -1      3102 7.82347E-02 2.84088E-01-7.89218E-04
 -1      3103-2.32972E-02 3.73922E-01 7.59364E-04
 -1      3104-8.90018E-02 3.76604E-01 7.60859E-04
 -1      3105-1.49039E-01 1.30256E+00-4.86887E-04
 -1      3106-3.90531E-02 1.30081E+00-4.87833E-04
 -1      3107 1.10576E-01 6.16581E-01-6.67728E-04
 -1      3108 2.89582E-02 6.14193E-01-6.69529E-04
 -1      3109 4.84371E-02 2.79246E+00 4.94341E-05
 -1      3110 1.86441E-01 2.83348E+00 1.76593E-04
 -1      3111 9.68941E-02 2.73078E+00 2.03914E-04
 -1      3112-4.84414E-02 2.79246E+00 4.89936E-05
 -1      3113-1.86440E-01 2.83348E+00 1.74977E-04
 -1      3114-9.68945E-02 2.73079E+00 2.02991E-04
 -1      3115-4.85573E-02 2.83285E+00 1.77647E-04
 -1      3116 4.85559E-02 2.83285E+00 1.78036E-04
 -1      3117 4.58357E-02 8.85893E-02-2.32136E-03
 -1      3118 2.91104E-02 8.68412E-02-2.30258E-03
 -1      3119 2.95580E-02 1.17651E-01-1.11361E-03
 -1      3120 1.19701E-01 7.43627E-01 6.37493E-04
 -1      3121-7.82513E-02 2.84101E-01-7.89433E-04
 -1      3122-2.05898E-02 2.81262E-01-7.95542E-04
 -1      3123 1.35187E-06 6.62007E-02 5.62206E-07
 -1      3124-1.11550E-02 7.97082E-02 9.02213E-04
 -1      3125-1.10612E-01 6.16613E-01-6.67515E-04
 -1      3126 3.11481E-02 7.41485E-01 6.33138E-04
 -1      3127-5.98345E-02 1.61894E-01 8.42026E-04
 -1      3128-6.75071E-02 1.89403E-01-1.02897E-03
 -1      3129 2.32812E-02 3.73743E-01 7.59871E-04
 -1      3130 8.90300E-02 3.76449E-01 7.64683E-04
 -1      3131 3.97502E-02 9.32063E-01 7.02875E-04
 -1      3132 3.88662E-02 8.74988E-01 7.21595E-04
 -1      3133 3.97774E-02 9.03686E-01 2.13223E-04
 -1      3134-1.26616E-01 6.77663E-01 3.01384E-03
 -1      3135-1.55555E-01 1.47123E+00 4.43042E-04
 -1      3136-4.39659E-02 1.17195E+00-6.36933E-04
 -1      3137-4.35461E-02 1.14176E+00-1.91799E-04
 -1      3138-6.10699E-03 1.09465E+00-5.25995E-05
 -1      3139 1.98457E-01 2.41012E+00-1.18677E-03
 -1      3140-1.98456E-01 2.41012E+00-1.18750E-03
 -1      3141-9.19879E-02 3.27497E-01 3.57429E-03
 -1      3142-7.83894E-03 3.79462E-02-9.32371E-04
 -1      3143 4.39871E-02 1.17192E+00-6.37299E-04
 -1      3144 4.35290E-02 1.14174E+00-1.92041E-04
 -1      3145 6.16041E-03 1.09445E+00-5.27622E-05
 -1      3146 9.19866E-02 3.27499E-01-3.56741E-03
 -1      3147-2.92466E-02 6.14149E-01-6.75844E-04
 -1      3148-1.49823E-01 1.17392E+00-6.37724E-04
 -1      3149-7.95657E-02 1.09513E+00-5.35849E-05
 -1      3150 1.49843E-01 1.17390E+00-6.37514E-04
 -1      3151 7.96239E-02 1.09529E+00-5.38031E-05
 -1      3152 3.75903E-03 1.98464E-03 2.49741E-06
 -1      3153 3.86824E-03 1.93377E-03-5.28893E-04
 -1      3154 8.76812E-03 5.46621E-03-2.77833E-04
 -1      3155 8.95891E-03 5.41031E-03-1.24909E-03
 -1      3156 3.29654E-03 1.51362E-03-5.49017E-04
 -1      3157-9.25663E-02 3.27521E-01-3.58990E-03
 -1      3158 1.26617E-01 6.77663E-01 3.01391E-03
 -1      3159-4.02865E-02 7.53782E-02-2.05129E-03
 -1      3160-3.27230E-02 4.77298E-02-2.20932E-03
 -1      3161 9.22189E-02 3.27505E-01 3.58358E-03
 -1      3162 7.00475E-02 3.04798E+00-7.58821E-05
 -1      3163 8.33525E-02 2.93326E+00-2.20707E-04
 -1      3164 6.95098E-02 2.90112E+00-8.39665E-05
 -1      3165 1.54010E-01 2.93355E+00-2.20496E-04
 -1      3166 1.67236E-01 1.68787E+00-1.03054E-03
 -1      3167 5.98650E-02 1.65193E+00-2.18201E-04
 -1      3168 1.31803E-01 1.62458E+00-5.78996E-04
 -1      3169 1.70321E-01 1.56763E+00-1.19549E-03
 -1      3170 6.54347E-02 1.53249E+00-2.75270E-04
 -1      3171 9.94035E-02 1.59449E+00-6.12997E-04
 -1      3172-1.93516E-02 4.37989E-02 2.12795E-03
 -1      3173-2.53753E-02 7.08897E-02 2.18825E-03
 -1      3174-1.55353E-01 1.12783E+00 2.45401E-03
 -1      3175 1.55351E-01 1.12786E+00 2.44799E-03
 -1      3176 4.68235E-02 2.31087E+00-2.76640E-04
 -1      3177-5.52260E-02 2.38795E+00 3.18970E-04
 -1      3178-4.68245E-02 2.31087E+00-2.77242E-04
 -1      3179 5.52250E-02 2.38795E+00 3.19254E-04
 -1      3180 1.78659E-01 2.31185E+00-2.73116E-04
 -1      3181 1.88164E-01 2.38895E+00 3.20208E-04
 -1      3182-1.78660E-01 2.31185E+00-2.74503E-04
 -1      3183-1.88165E-01 2.38895E+00 3.19153E-04
 -1      3184 1.26617E-01 6.77665E-01-3.00718E-03
 -1      3185 3.61504E-02 1.05009E+00 5.53180E-04
 -1      3186-4.30637E-02 1.10988E+00-6.53502E-04
 -1      3187-3.59273E-02 1.04979E+00 5.49959E-04
 -1      3188 4.32746E-02 1.10973E+00-6.55717E-04
 -1      3189 1.67649E-01 3.34127E+00-8.20980E-05
 -1      3190 2.65101E-02 3.29955E+00-1.51680E-05
 -1      3191 1.95533E-01 3.21367E+00-1.22893E-04
 -1      3192 5.48712E-02 3.17206E+00-3.61375E-05
 -1      3193 8.15011E-02 3.24908E+00-9.11713E-05
 -1      3194-1.27378E-01 6.77682E-01-3.02566E-03
 -1      3195-1.37621E-01 1.05175E+00 5.50286E-04
 -1      3196-1.46774E-01 1.11179E+00-6.50892E-04
 -1      3197-3.01284E-02 4.13102E-02-9.09095E-04
 -1      3198 1.37660E-01 1.05193E+00 5.45773E-04
 -1      3199 1.46793E-01 1.11177E+00-6.57211E-04
 -1      3200 6.22462E-02 1.42152E-01-4.01566E-03
 -1      3201 5.98931E-02 1.53095E-01-2.20639E-03
 -1      3202-1.23677E-01 3.59954E+00-9.49459E-05
 -1      3203-1.22787E-01 3.47058E+00-1.34878E-04
 -1      3204-1.63287E-02 1.35637E-02-9.74937E-04
 -1      3205-1.45630E-02 1.76996E-02 6.53697E-05
 -1      3206-2.51017E-02 2.94967E-02-9.30979E-04
 -1      3207 7.18232E-04 3.74919E+00 1.01600E-06
 -1      3208 6.87598E-02 3.74921E+00 4.28034E-07
 -1      3209 2.00789E-02 3.71883E+00 2.68826E-06
 -1      3210 8.81371E-02 3.71885E+00 1.41632E-05
 -1      3211 8.62028E-02 3.65953E+00 3.84624E-05
 -1      3212 1.73181E-02 9.80997E-02-4.61921E-04
 -1      3213 2.18637E-02 1.05759E-01-1.23475E-03
 -1      3214 2.05100E-02 1.38914E-01-4.51543E-04
 -1      3215-1.13231E-02 1.14372E-02 7.38703E-05
 -1      3216-1.20168E-02 8.34215E-03 9.21281E-04
 -1      3217-1.64208E-02 1.34632E-02 1.01135E-03
 -1      3218-6.81738E-02 3.74668E+00-2.68778E-06
 -1      3219-8.77203E-02 3.72159E+00-1.31202E-05
 -1      3220-2.15411E-02 3.66227E+00-9.22963E-06
 -1      3221-9.04265E-02 3.65974E+00-4.41179E-05
 -1      3222-1.19674E-02 8.40784E-03-8.70218E-04
 -1      3223-1.46964E-01 3.56431E+00 1.95252E-06
 -1      3224-1.46802E-01 3.49964E+00 5.28395E-06
 -1      3225-1.96934E-01 3.61409E+00-4.43118E-05
 -1      3226-1.96754E-01 3.54937E+00-5.31636E-05
 -1      3227 3.80704E-02 3.45980E+00 5.92369E-06
 -1      3228 1.84691E-01 3.42441E+00 5.79087E-05
 -1      3229 9.60062E-02 3.50674E+00 5.62374E-05
 -1      3230-3.65716E-07 1.76629E+00 1.07898E-06
 -1      3231-4.41755E-02 1.71427E+00 4.09868E-04
 -1      3232 3.10893E-03 2.65372E-01-6.05558E-05
 -1      3233 3.66786E-02 2.66081E-01-6.09261E-05
 -1      3234 4.63886E-03 1.02682E-02-1.04883E-03
 -1      3235-4.25350E-04 1.56225E-02 6.07082E-05
 -1      3236 6.51550E-03 2.60616E-02-9.56803E-04
 -1      3237-4.17901E-04 9.51111E-03 7.51179E-05
 -1      3238-4.64977E-03 1.00204E-02 1.06040E-03
 -1      3239-3.48829E-03 5.12443E-03 9.88738E-04
 -1      3240 1.94883E-01 3.13093E+00-1.37870E-04
 -1      3241 1.68378E-01 1.72382E+00-4.47098E-04
 -1      3242 4.76132E-02 1.75902E+00-1.21550E-04
 -1      3243 1.70576E-01 1.79588E+00-4.31101E-04
 -1      3244 1.63700E-01 1.39771E+00-6.11378E-04
 -1      3245 5.13159E-02 1.43030E+00-1.86415E-04
 -1      3246 1.66423E-01 1.46498E+00-5.94199E-04
 -1      3247 5.35639E-02 2.73792E+00-2.21158E-04
 -1      3248 5.38636E-02 2.81917E+00-2.08514E-04
 -1      3249 5.37253E-02 2.77884E+00-6.31959E-05
 -1      3250 1.91645E-01 2.81984E+00-2.06218E-04
 -1      3251 1.90573E-01 2.73865E+00-2.18439E-04
 -1      3252 5.08746E-02 1.39588E+00-6.28987E-04
 -1      3253 5.17206E-02 1.46321E+00-6.12586E-04
 -1      3254 4.72857E-02 1.72235E+00-4.43532E-04
 -1      3255 4.79056E-02 1.79447E+00-4.30144E-04
 -1      3256 4.40159E-02 3.42417E+00 5.74632E-05
 -1      3257 2.09507E-01 3.22256E+00 4.88778E-04
 -1      3258-1.75441E-01 1.85649E+00-4.51504E-04
 -1      3259-9.53631E-02 1.76730E+00-3.50665E-05
 -1      3260-1.40281E-01 3.18106E+00-1.49494E-06
 -1      3261-1.40710E-01 3.26396E+00-2.56351E-06
 -1      3262-1.99625E-01 3.30465E+00 1.11611E-04
 -1      3263-5.85121E-02 3.26292E+00 3.48932E-05
 -1      3264-1.99048E-01 3.22163E+00 1.26366E-04
 -1      3265 3.34496E-03 5.29589E-03-9.63211E-04
 -1      3266 4.06398E-02 2.60849E+00-1.77468E-04
 -1      3267 4.07822E-02 2.64902E+00-3.88291E-05
 -1      3268 9.43707E-02 2.69785E+00-2.04552E-04
 -1      3269 1.76260E-01 2.60922E+00-1.78078E-04
 -1      3270 4.01726E-02 1.06920E-01-1.24609E-03
 -1      3271 1.67418E-01 3.29972E+00-2.00399E-04
 -1      3272 1.95207E-01 3.17229E+00-2.93105E-04
 -1      3273 4.05364E-02 5.86843E-02 4.30287E-03
 -1      3274 1.06712E-02 5.87283E-02-1.04485E-03
 -1      3275 1.20779E-02 7.65127E-02-1.02598E-03
 -1      3276 1.13580E-02 6.90199E-02-2.92102E-04
 -1      3277 1.73531E-02 1.63175E-01-9.52767E-04
 -1      3278 3.81868E-02 6.22202E-02-1.04762E-03
 -1      3279 4.33443E-02 7.97853E-02-1.03052E-03
 -1      3280 6.22348E-02 1.66322E-01-9.59629E-04
 -1      3281-1.30730E-02 9.06368E-03-2.08769E-03
 -1      3282-8.22522E-03 6.89935E-03-2.18282E-03
 -1      3283-1.67836E-02 1.09525E-02-4.09406E-03
 -1      3284-2.19384E-02 2.26275E-02-2.19698E-03
 -1      3285-1.35913E-02 2.04080E-02-2.24449E-03
 -1      3286-2.00353E-01 3.61599E+00 4.00984E-05
 -1      3287-5.45419E-02 3.50299E+00 2.00702E-05
 -1      3288-1.91152E-01 3.53217E+00 7.22252E-05
 -1      3289-1.07722E-01 3.55460E+00 6.39238E-05
 -1      3290-1.96885E-01 3.59963E+00-1.01073E-04
 -1      3291-2.10555E-01 3.56452E+00-2.13638E-04
 -1      3292-1.95816E-01 3.47071E+00-1.19957E-04
 -1      3293 1.97673E-01 3.59881E+00-1.00575E-04
 -1      3294 1.68173E-01 3.47029E+00-1.33347E-04
 -1      3295 3.67490E-03 1.71916E-03 5.32497E-04
 -1      3296 3.24139E-03 1.53746E-03 5.94353E-04
 -1      3297 8.87497E-03 5.39086E-03 1.17341E-03
 -1      3298 3.29317E-03 1.65617E-03 1.19860E-04
 -1      3299 7.93827E-02 3.71888E+00 1.94081E-06
 -1      3300 8.23600E-02 3.72119E+00-9.01012E-06
 -1      3301-1.82985E-01 1.80291E+00 1.74838E-03
 -1      3302-1.96331E-03 1.07187E-03-3.05331E-04
 -1      3303-5.77144E-03 5.43061E-03 3.28634E-05
 -1      3304 2.31381E-02 2.72014E-02 8.10686E-04
 -1      3305 4.27733E-03 2.11031E-02 1.44122E-04
 -1      3306 9.45503E-03 1.57858E-02 9.42057E-04
 -1      3307 5.36734E-02 3.71886E+00 6.19216E-06
 -1      3308 1.85925E-01 2.79267E+00 4.41083E-04
 -1      3309 1.84680E-01 2.66856E+00 4.98305E-04
 -1      3310-1.85924E-01 2.79267E+00 4.39125E-04
 -1      3311-1.84681E-01 2.66856E+00 4.96927E-04
 -1      3312-1.15823E-01 2.79224E+00 4.38466E-04
 -1      3313-1.15201E-01 2.66807E+00 4.97542E-04
 -1      3314 1.15822E-01 2.79224E+00 4.39616E-04
 -1      3315 1.15200E-01 2.66807E+00 4.98333E-04
 -1      3316 5.50026E-03 2.39925E-02 8.17614E-04
 -1      3317-6.86761E-02 3.74668E+00 1.63452E-06
 -1      3318 2.18049E-04 3.74920E+00-1.53208E-06
 -1      3319-2.49495E-02 3.66416E+00 9.45576E-06
 -1      3320-9.16324E-02 3.72349E+00 1.21262E-05
 -1      3321-9.38365E-02 3.66164E+00 4.42516E-05
 -1      3322 1.31012E-02 9.09870E-03-2.11100E-03
 -1      3323 8.27005E-03 6.97635E-03-2.19803E-03
 -1      3324 1.67810E-02 1.09578E-02-4.09851E-03
 -1      3325 2.17762E-02 2.25424E-02-2.21678E-03
 -1      3326 1.34665E-02 2.03968E-02-2.24581E-03
 -1      3327 5.50105E-02 3.21327E+00-1.22412E-04
 -1      3328 7.17195E-05 3.26376E+00-1.11321E-06
 -1      3329-5.85219E-02 3.30430E+00 1.13149E-04
 -1      3330-3.44462E-03 3.21245E+00 5.17753E-06
 -1      3331 5.47629E-02 3.13047E+00-1.36706E-04
 -1      3332-5.84130E-02 3.22122E+00 1.27824E-04
 -1      3333-5.85921E-02 3.61586E+00 3.83688E-05
 -1      3334-2.62357E-03 3.63613E+00 1.59097E-06
 -1      3335 1.69018E-01 1.89582E+00-3.60391E-04
 -1      3336 4.40463E-02 1.85840E+00-9.88275E-05
 -1      3337 9.18095E-02 1.81410E+00-4.33121E-04
 -1      3338 3.94148E-02 1.33438E+00-1.22643E-04
 -1      3339 1.49034E-01 1.30255E+00-4.89154E-04
 -1      3340 9.05713E-02 1.37945E+00-6.28161E-04
 -1      3341 4.42961E-02 1.89454E+00-3.62537E-04
 -1      3342 3.90531E-02 1.30081E+00-4.87915E-04
 -1      3343-1.65076E-01 1.71570E+00 4.07503E-04
 -1      3344-1.73270E-01 1.78366E+00-4.67894E-04
 -1      3345-3.77125E-03 1.85266E-03 5.26354E-04
 -1      3346-3.66330E-03 1.90267E-03 5.29059E-06
 -1      3347-8.90659E-03 5.31284E-03 1.27337E-03
 -1      3348-8.71263E-03 5.36164E-03 3.02016E-04
 -1      3349-3.13057E-03 1.40119E-03 5.40189E-04
 -1      3350 1.24480E-01 3.59872E+00-9.68494E-05
 -1      3351 2.10571E-01 3.56372E+00-2.11634E-04
 -1      3352 9.52161E-02 3.47016E+00-1.20145E-04
 -1      3353 1.05500E-03-2.38240E-04-5.54356E-04
 -1      3354-1.19369E-04-3.30702E-04 8.92956E-05
 -1      3355-4.16593E-03 2.79393E-03 1.44037E-03
 -1      3356-6.28433E-04 6.00883E-04 1.61158E-04
 -1      3357-1.07843E-03 2.30188E-03 3.23116E-04
 -1      3358-2.38372E-02 2.80508E-02 8.40506E-04
 -1      3359-5.82295E-03 2.18542E-02 2.57358E-04
 -1      3360-1.00272E-02 1.60703E-02 1.03567E-03
 -1      3361 2.20689E-01 3.74939E+00-7.17368E-07
 -1      3362 2.20679E-01 3.74685E+00 2.33772E-05
 -1      3363 1.94824E-01 3.65964E+00 1.19502E-05
 -1      3364 1.94810E-01 3.65709E+00 5.16300E-05
 -1      3365 1.31304E-01 3.71889E+00 1.68963E-05
 -1      3366-5.67808E-03 2.47572E-02 8.37021E-04
 -1      3367-1.08948E-02 3.38072E+00-6.68773E-06
 -1      3368-1.29080E-02 1.30177E-01-7.69737E-04
 -1      3369 1.43333E-02 1.33404E-01 8.63976E-04
 -1      3370 1.33817E-03 1.49311E-01 3.85100E-05
 -1      3371 1.16731E-03 1.14213E-01 3.88850E-05
 -1      3372 2.68544E-02 1.17711E-01 9.13936E-04
 -1      3373 1.24805E-02 1.00082E-01 8.84623E-04
 -1      3374 2.65976E-02 3.34100E+00-4.56117E-05
 -1      3375-1.84037E-01 3.02314E+00-1.28917E-04
 -1      3376-9.40398E-02 3.08283E+00 4.93448E-06
 -1      3377-1.88583E-01 3.03447E+00 1.39335E-04
 -1      3378-1.87378E-01 2.91517E+00 1.59679E-04
 -1      3379-9.79635E-02 2.97441E+00 1.55334E-04
 -1      3380-9.34849E-02 2.96320E+00 5.72878E-06
 -1      3381-4.46507E-02 3.02266E+00-1.28274E-04
 -1      3382 4.91092E-02 3.03397E+00 1.39406E-04
 -1      3383 4.44298E-03 3.08270E+00 5.20742E-06
 -1      3384 4.42520E-03 2.96305E+00 6.18259E-06
 -1      3385 9.79572E-02 2.97441E+00 1.56692E-04
 -1      3386 4.88009E-02 2.91459E+00 1.60430E-04
 -1      3387-2.45138E-02 1.17554E-01-7.59609E-04
 -1      3388-1.15828E-02 1.02907E-01-7.89139E-04
 -1      3389 9.85420E-04 8.88139E-02 3.81345E-05
 -1      3390-6.08604E-03 2.32346E-01-1.38375E-04
 -1      3391-8.91895E-02 1.89273E+00-6.19078E-05
 -1      3392-9.61851E-02 2.50714E+00 4.01192E-05
 -1      3393 1.55795E-02 2.50690E+00 4.01903E-05
 -1      3394-1.55804E-02 2.50690E+00 4.03720E-05
 -1      3395 9.61846E-02 2.50714E+00 4.11051E-05
 -1      3396-1.44468E-02 1.89236E+00-6.09054E-05
 -1      3397-1.14572E-04-3.52924E-04-8.06874E-05
 -1      3398 1.06329E-03-2.56019E-04 5.67380E-04
 -1      3399-9.88286E-04 2.39635E-03-2.84711E-04
 -1      3400-5.83588E-04 6.31858E-04-1.37279E-04
 -1      3401-4.10079E-03 2.87450E-03-1.39730E-03
 -1      3402-1.83434E-01 2.92546E+00-1.42988E-04
 -1      3403-8.94729E-02 2.97345E+00-1.31196E-04
 -1      3404-9.33204E-02 2.86582E+00 7.16319E-06
 -1      3405-4.47923E-02 2.92491E+00-1.41805E-04
 -1      3406 4.02583E-03 2.86566E+00 6.79885E-06
 -1      3407-1.23858E-02 1.20414E+00-8.69688E-05
 -1      3408-1.02735E-03 3.30139E-02-6.52435E-05
 -1      3409 6.97464E-02 3.38078E+00-6.16490E-06
 -1      3410-3.76612E-02 2.33195E-01-1.41461E-04
 -1      3411 1.07461E-01 2.64878E+00-4.55774E-04
 -1      3412 1.21051E-01 2.77861E+00-4.78161E-04
 -1      3413 1.76818E-01 2.64925E+00-4.51633E-04
 -1      3414 1.91108E-01 2.77907E+00-4.79896E-04
 -1      3415 8.33931E-03 4.65743E-02-2.35905E-04
 -1      3416 2.99246E-02 4.12617E-02-9.36160E-04
 -1      3417 1.93942E-02 5.59112E-02-1.06802E-03
 -1      3418 7.64646E-02 1.20465E+00-8.73674E-05
 -1      3419-2.18703E-01 3.74684E+00-2.44020E-05
 -1      3420-2.18713E-01 3.74939E+00-6.92970E-07
 -1      3421-1.97016E-01 3.65983E+00-5.36623E-05
 -1      3422-1.97030E-01 3.66238E+00-1.43816E-05
 -1      3423-1.31534E-01 3.72164E+00-1.74294E-05
 -1      3424-4.75869E-02 1.05899E-01-7.85369E-04
 -1      3425-5.31913E-02 1.33097E-01-7.65398E-04
 -1      3426-4.79989E-02 1.03145E-01 8.89963E-04
 -1      3427-2.53057E-02 1.14998E-01 4.09688E-05
 -1      3428-2.24251E-02 8.96202E-02 3.75141E-05
 -1      3429-7.64517E-02 1.20469E+00-8.73855E-05
 -1      3430 1.23999E-02 1.20414E+00-8.73402E-05
 -1      3431 1.14809E-02 9.60966E-01 1.01001E-04
 -1      3432-7.00992E-02 9.61381E-01 9.83476E-05
 -1      3433 1.32011E-02 3.38085E-02-5.44515E-05
 -1      3434 7.72263E-03 3.78970E-02-9.29672E-04
 -1      3435 4.16599E-02 1.63937E+00 4.09739E-04
 -1      3436 3.77480E-03 1.59855E+00 2.07193E-05
 -1      3437-3.75893E-02 1.54753E+00-3.82540E-04
 -1      3438 4.07902E-02 1.53804E+00 4.29431E-04
 -1      3439 3.69558E-03 1.49813E+00 2.03460E-05
 -1      3440 8.29566E-02 1.58919E+00 4.39533E-04
 -1      3441-2.87986E-02 1.50123E-01 4.17608E-05
 -1      3442-5.50728E-02 1.36427E-01 8.67536E-04
 -1      3443-2.67921E-02 1.17658E-01 9.10929E-04
 -1      3444 2.25596E-02 3.72116E+00-3.05723E-06
 -1      3445 8.91810E-02 3.66186E+00-3.89692E-05
 -1      3446-1.28423E-03-2.65119E-04 7.82915E-04
 -1      3447-2.22226E-03 8.47480E-04 6.78301E-04
 -1      3448 1.77080E-01 2.23426E+00-2.90957E-04
 -1      3449 8.59868E-02 2.27259E+00-2.22035E-05
 -1      3450 1.69429E-01 2.21573E+00 2.42866E-04
 -1      3451 1.82431E-01 2.12196E+00-3.83261E-04
 -1      3452 9.26535E-02 2.15972E+00-5.21520E-05
 -1      3453 1.00071E-01 2.17794E+00-3.75996E-04
 -1      3454-3.90698E-02 2.21475E+00 2.41948E-04
 -1      3455 7.29037E-03 2.27234E+00-2.15749E-05
 -1      3456 4.64144E-02 2.23323E+00-2.91866E-04
 -1      3457 5.35417E-02 2.12077E+00-3.83707E-04
 -1      3458 1.50129E-02 2.15940E+00-5.29710E-05
 -1      3459-1.95195E-01 3.34130E+00-4.38486E-05
 -1      3460-1.12699E-01 3.34024E+00 3.08515E-05
 -1      3461 7.17465E-02 1.62383E+00-5.81450E-04
 -1      3462 1.28090E-02 1.58866E+00-1.05698E-04
 -1      3463 7.06399E-02 1.55405E+00-6.02665E-04
 -1      3464-4.86688E-03 7.68437E-01 4.60702E-05
 -1      3465-3.18389E-02 7.94002E-01 6.11831E-04
 -1      3466 2.80690E-02 8.06728E-01-5.09720E-04
 -1      3467-1.06793E-02 8.47422E-01 1.02697E-04
 -1      3468-3.87792E-02 8.74045E-01 7.21923E-04
 -1      3469-7.15741E-02 8.34841E-01 7.50454E-04
 -1      3470 1.23115E-01 7.96172E-01 6.08791E-04
 -1      3471 5.88798E-02 7.68960E-01 4.37897E-05
 -1      3472 1.18973E-01 8.08772E-01-5.08357E-04
 -1      3473 1.33734E-01 8.76494E-01 7.19109E-04
 -1      3474 6.69219E-02 8.48222E-01 1.02898E-04
 -1      3475 7.14914E-02 8.34977E-01 7.49302E-04
 -1      3476 4.95211E-03 7.68404E-01 4.69077E-05
 -1      3477 3.19076E-02 7.94715E-01 6.11857E-04
 -1      3478 1.07746E-02 8.47592E-01 1.04819E-04
 -1      3479 5.54888E-02 3.61354E+00-4.03993E-05
 -1      3480 5.64812E-02 3.54878E+00-5.29930E-05
 -1      3481-4.84980E-02 3.46731E+00 6.45086E-05
 -1      3482 6.31683E-03 3.55225E+00-5.10798E-06
 -1      3483-4.95911E-02 3.53199E+00 5.60082E-05
 -1      3484 7.74762E-02 2.25776E-01-3.78137E-03
 -1      3485 8.24115E-02 2.57768E-01-3.71068E-03
 -1      3486 7.60159E-02 2.66656E-01-1.90637E-03
 -1      3487 4.73659E-02 2.64796E-01-1.90486E-03
 -1      3488-3.21136E-02 3.34016E+00 3.09170E-05
 -1      3489 1.04033E-01 3.10804E+00-8.26194E-06
 -1      3490 1.02567E-01 2.84189E+00-8.96907E-06
 -1      3491 5.35704E-03 2.84169E+00-1.06206E-05
 -1      3492-3.12364E-03 1.57163E-03-1.08269E-04
 -1      3493-8.73266E-03 5.26284E-03-1.16607E-03
 -1      3494-1.90918E-01 3.46755E+00 8.61207E-05
 -1      3495 9.24961E-02 1.48301E+00-6.03287E-05
 -1      3496 8.95711E-02 1.70372E+00-2.31120E-05
 -1      3497-1.23166E-01 7.96201E-01 6.28026E-04
 -1      3498-5.87947E-02 7.68990E-01 4.38659E-05
 -1      3499-6.68094E-02 8.48053E-01 1.01444E-04
 -1      3500-4.00094E-02 1.63000E+00-3.76953E-04
 -1      3501-7.71630E-02 1.58942E+00-3.55479E-04
 -1      3502 2.06028E-03 1.68184E+00 1.00706E-05
 -1      3503-1.89317E-01 3.11705E+00 1.23826E-04
 -1      3504-4.94006E-02 3.15816E+00 2.88095E-05
 -1      3505-1.07873E-01 3.19860E+00 1.36717E-04
 -1      3506 3.03432E-03 1.70714E+00-1.52510E-05
 -1      3507 3.97833E-03 2.76253E-03-1.34765E-03
 -1      3508 2.04661E-03 9.37526E-04-5.60486E-04
 -1      3509-1.67511E-01 1.38465E+00-2.16910E-03
 -1      3510-2.06195E-01 2.89249E+00 7.65528E-04
 -1      3511-1.88172E-01 2.99321E+00 3.50196E-04
 -1      3512-1.17222E-01 2.99286E+00 3.51177E-04
 -1      3513-1.16432E-01 2.87377E+00 4.04126E-04
 -1      3514-1.86904E-01 2.87417E+00 4.02843E-04
 -1      3515 2.06194E-01 2.89249E+00 7.67314E-04
 -1      3516 1.88171E-01 2.99321E+00 3.51519E-04
 -1      3517 1.17220E-01 2.99286E+00 3.52252E-04
 -1      3518 1.16432E-01 2.87377E+00 4.03874E-04
 -1      3519 1.86904E-01 2.87417E+00 4.04277E-04
 -1      3520-2.07156E-01 2.97450E+00 7.00960E-04
 -1      3521-1.17704E-01 3.07533E+00 3.12065E-04
 -1      3522 2.07156E-01 2.97450E+00 7.02429E-04
 -1      3523 1.17700E-01 3.07533E+00 3.12668E-04
 -1      3524 2.08038E-01 3.05687E+00 6.30989E-04
 -1      3525 1.88948E-01 3.07563E+00 3.15451E-04
 -1      3526-2.08038E-01 3.05687E+00 6.30222E-04
 -1      3527-1.88945E-01 3.07564E+00 3.14381E-04
 -1      3528 1.11186E-02 1.48254E+00-6.87456E-05
 -1      3529 1.16635E-03 8.28598E-02-4.98955E-05
 -1      3530 1.76032E-01 1.58920E+00 1.96535E-03
 -1      3531 1.78634E-01 1.65947E+00 1.89761E-03
 -1      3532 9.99354E-02 1.60450E+00 1.00227E-03
 -1      3533 1.01424E-01 1.67501E+00 9.66586E-04
 -1      3534 1.62163E-01 1.67595E+00 9.63362E-04
 -1      3535-8.31965E-03 6.77826E-03 2.25125E-03
 -1      3536-1.30957E-02 8.94819E-03 2.15542E-03
 -1      3537-1.67612E-02 1.09247E-02 4.10140E-03
 -1      3538-1.26583E-02 1.92010E-02 2.12419E-03
 -1      3539-2.07318E-02 2.13295E-02 2.09316E-03
 -1      3540 3.24614E-02 1.57972E-01-5.17665E-05
 -1      3541 1.34298E-01 3.72123E+00-4.13005E-06
 -1      3542 1.97811E-01 3.66195E+00-5.02399E-05
 -1      3543-5.36427E-02 2.13497E+00 3.80384E-04
 -1      3544-2.85224E-06 2.08021E+00 6.03521E-07
 -1      3545-9.28110E-02 2.17383E+00 3.23924E-04
 -1      3546 1.82900E-01 2.14202E+00 3.79842E-04
 -1      3547 9.28783E-02 2.17973E+00 3.23710E-04
 -1      3548 1.06649E-01 2.08650E+00 6.13558E-07
 -1      3549 1.58503E-03 1.56994E-01-4.80616E-05
 -1      3550-4.05555E-02 5.86517E-02-4.30085E-03
 -1      3551-2.00446E-01 3.66427E+00 4.99299E-05
 -1      3552-1.34958E-01 3.72355E+00 4.06638E-06
 -1      3553 5.15812E-02 9.59046E-02 4.15816E-03
 -1      3554 5.69817E-02 1.17752E-01 4.08155E-03
 -1      3555 2.84557E-02 9.02185E-02 2.14688E-03
 -1      3556 5.04776E-02 1.13587E-01 2.10623E-03
 -1      3557 4.55611E-02 9.22483E-02 2.14661E-03
 -1      3558-4.38775E-02 3.95353E-01 5.28969E-05
 -1      3559 2.38279E-02 8.39283E-02-5.47537E-05
 -1      3560-3.67189E-02 2.66098E-01-6.11541E-05
 -1      3561-3.14279E-03 2.65381E-01-6.07907E-05
 -1      3562 6.96701E-03 1.93201E+00-2.63530E-05
 -1      3563-7.52016E-03 2.58790E+00 1.70149E-05
 -1      3564-8.86969E-02 2.58810E+00 1.59499E-05
 -1      3565 7.52030E-03 2.58790E+00 1.69873E-05
 -1      3566 8.86961E-02 2.58810E+00 1.73464E-05
 -1      3567 8.21688E-02 1.93233E+00-2.74981E-05
 -1      3568-6.05447E-03 1.26905E+00-3.77463E-05
 -1      3569 7.13589E-02 1.26950E+00-3.57864E-05
 -1      3570-7.13676E-02 1.26952E+00-3.76203E-05
 -1      3571 6.04652E-03 1.26907E+00-3.70223E-05
 -1      3572-3.72164E-03 3.94672E-01 5.66317E-05
 -1      3573 4.40246E-02 3.95174E-01 5.77969E-05
 -1      3574 4.44944E-03 5.91080E-01-5.14603E-05
 -1      3575-5.25490E-02 5.91717E-01-5.17423E-05
 -1      3576 5.24676E-02 5.91685E-01-5.08717E-05
 -1      3577 3.87696E-03 3.94531E-01 5.94155E-05
 -1      3578 1.32840E-01 8.61800E-01-7.45608E-04
 -1      3579 6.64640E-02 8.33409E-01-6.52416E-04
 -1      3580 7.95431E-02 9.02266E-01-4.90486E-07
 -1      3581 3.95234E-02 8.59522E-01-7.47489E-04
 -1      3582-1.66376E-05 9.01240E-01 4.97160E-07
 -1      3583-4.52961E-03 5.91110E-01-5.24133E-05
 -1      3584-1.31971E-03-2.19185E-04-7.79409E-04
 -1      3585-2.26411E-03 9.17586E-04-6.43338E-04
 -1      3586-2.11013E-01 3.38996E+00-3.55287E-04
 -1      3587-2.10224E-01 3.47716E+00-2.81983E-04
 -1      3588-1.95412E-01 3.38354E+00-1.53735E-04
 -1      3589-1.23746E-01 3.38337E+00-1.68068E-04
 -1      3590 5.32899E-02 2.08335E+00-1.15308E-04
 -1      3591-3.88961E-02 2.17678E+00 5.62706E-05
 -1      3592-5.33941E-02 2.09749E+00 1.15008E-04
 -1      3593 2.03985E-01 2.72971E+00-9.11308E-04
 -1      3594-2.32662E-01 3.74939E+00 2.27016E-05
 -1      3595-1.48865E-01 3.72354E+00 2.02696E-05
 -1      3596-1.95608E-01 3.42058E+00-3.84740E-05
 -1      3597 7.34257E-02 3.74921E+00-1.43973E-06
 -1      3598 9.57904E-02 3.72118E+00-1.77526E-05
 -1      3599-8.52225E-03 1.31609E-01-8.02368E-05
 -1      3600 1.87856E-02 1.35026E-01 2.05593E-04
 -1      3601 1.63616E-02 1.01756E-01 2.07927E-04
 -1      3602-4.05823E-02 5.87327E-02 4.30006E-03
 -1      3603-1.84768E-01 3.10569E+00-1.09293E-04
 -1      3604-7.66865E-03 1.04375E-01-8.37006E-05
 -1      3605-1.57999E-01 1.53969E+00 4.23643E-04
 -1      3606-8.11237E-02 1.58017E+00 3.19723E-05
 -1      3607-1.58692E-01 1.63141E+00-3.38586E-04
 -1      3608-1.62815E-01 1.64469E+00 4.27136E-04
 -1      3609-8.41853E-02 1.68609E+00 4.23038E-05
 -1      3610-8.50009E-02 1.59310E+00 4.52088E-04
 -1      3611-2.91990E-02 3.02285E+00-1.43717E-05
 -1      3612 6.45919E-02 3.03419E+00 3.42384E-05
 -1      3613 6.41840E-02 2.91486E+00 3.75491E-05
 -1      3614-3.36559E-02 3.03415E+00 3.17623E-05
 -1      3615-3.34441E-02 2.91481E+00 3.82311E-05
 -1      3616-8.58651E-03 1.01423E-01 2.09856E-04
 -1      3617 3.88951E-02 2.17678E+00 5.62749E-05
 -1      3618 5.34360E-02 2.10333E+00 1.14838E-04
 -1      3619-1.74046E-01 1.51809E+00 2.04606E-03
 -1      3620-1.76681E-01 1.58731E+00 1.97354E-03
 -1      3621-9.87779E-02 1.50218E+00 1.06189E-03
 -1      3622-1.59175E-01 1.57406E+00 1.00896E-03
 -1      3623-1.56775E-01 1.50506E+00 1.04545E-03
 -1      3624 2.79507E-02 8.35188E-01-1.15438E-04
 -1      3625 3.95367E-02 8.88803E-01-2.12333E-04
 -1      3626-3.78336E-03 1.88854E-03-5.77832E-04
 -1      3627-3.30443E-03 1.52309E-03-6.35432E-04
 -1      3628-6.22447E-02 1.42158E-01 4.01620E-03
 -1      3629-5.70947E-02 1.18192E-01 4.09814E-03
 -1      3630-5.75464E-02 1.48867E-01 2.06031E-03
 -1      3631-3.28946E-02 1.21985E-01 2.08614E-03
 -1      3632-3.57299E-02 1.46407E-01 2.04055E-03
 -1      3633-2.94271E-02 2.92514E+00-1.49808E-05
 -1      3634-9.86831E-03 1.34752E-01 2.03859E-04
 -1      3635 4.62167E-02 2.19520E+00-7.81089E-05
 -1      3636 2.28050E-01 3.74939E+00-2.39862E-05
 -1      3637 1.41637E-01 3.72122E+00-1.93400E-05
 -1      3638 3.27446E-02 8.22337E-01 1.61085E-04
 -1      3639-7.79587E-02 1.49864E+00 1.21427E-05
 -1      3640-3.27952E-02 8.22370E-01 1.61685E-04
 -1      3641-5.14879E-02 9.55267E-02 4.16936E-03
 -1      3642-5.25721E-02 1.23544E-01 2.10223E-03
 -1      3643-2.84232E-02 9.01752E-02 2.14437E-03
 -1      3644-4.54325E-02 9.18430E-02 2.15804E-03
 -1      3645 5.50832E-02 1.64017E+00 9.94090E-05
 -1      3646-2.44497E-02 1.54827E+00-4.02350E-05
 -1      3647 5.39276E-02 1.53889E+00 9.93244E-05
 -1      3648-2.29996E-02 1.93963E-02-4.31328E-03
 -1      3649-1.71867E-02 3.19686E-02-2.26316E-03
 -1      3650 1.96758E-03 1.16653E-03 2.33759E-04
 -1      3651 2.09512E-01 3.22256E+00-4.88671E-04
 -1      3652 9.55824E-02 3.29951E+00-1.78192E-04
 -1      3653 1.23643E-01 3.17201E+00-2.95116E-04
 -1      3654-1.79373E-01 1.66140E+00 1.90365E-03
 -1      3655-1.00384E-01 1.57497E+00 1.02283E-03
 -1      3656-1.63942E-01 1.67982E+00 9.82156E-04
 -1      3657-1.03868E-01 1.68081E+00 9.92815E-04
 -1      3658 2.11991E-01 3.38754E+00-3.58682E-04
 -1      3659 2.12426E-01 3.47555E+00-2.82264E-04
 -1      3660 1.67824E-01 3.38229E+00-1.68831E-04
 -1      3661 9.71975E-02 3.38212E+00-1.55786E-04
 -1      3662-1.39359E-02 3.47735E-02-2.63327E-05
 -1      3663 2.08412E-03 9.57252E-04 5.68203E-04
 -1      3664 4.00482E-03 2.81236E-03 1.34647E-03
 -1      3665-1.54225E-01 1.54901E+00-3.81910E-04
 -1      3666 4.98878E-04 3.38823E-02-3.33363E-05
 -1      3667 2.73867E-02 3.42033E+00-4.26767E-05
 -1      3668-2.26623E-02 3.42382E+00 2.19909E-05
 -1      3669-2.90700E-02 3.04105E-02-4.38978E-03
 -1      3670-2.75108E-02 3.42918E-02-2.22890E-03
 -1      3671 2.28981E-02 1.94210E-02-4.31981E-03
 -1      3672 2.73054E-02 3.41883E-02-2.25011E-03
 -1      3673-2.66357E-02 1.63069E+00-3.52477E-05
 -1      3674 1.06340E-01 1.68691E+00-1.03255E-03
 -1      3675 4.64119E-02 1.65118E+00-4.62314E-04
 -1      3676 5.23150E-02 1.53163E+00-5.84744E-04
 -1      3677 2.92762E-02 3.05685E-02-4.41892E-03
 -1      3678 1.72009E-02 3.21229E-02-2.28201E-03
 -1      3679-2.06200E-01 2.89249E+00-7.69796E-04
 -1      3680-2.07162E-01 2.97450E+00-7.03063E-04
 -1      3681-1.84398E-01 3.06430E+00-3.01902E-04
 -1      3682-1.12724E-01 2.98157E+00-3.33478E-04
 -1      3683-1.83627E-01 2.98191E+00-3.36965E-04
 -1      3684-2.08033E-01 3.05687E+00-6.31012E-04
 -1      3685-1.13197E-01 3.06399E+00-3.01098E-04
 -1      3686-1.12469E-01 2.88406E+00-3.78420E-04
 -1      3687-1.82983E-01 2.88444E+00-3.78519E-04
 -1      3688 1.30857E-01 1.58973E+00-1.06964E-04
 -1      3689 1.66090E-01 1.65270E+00-4.65617E-04
 -1      3690 1.54370E-01 2.97465E+00-3.98364E-05
 -1      3691 1.92621E-01 2.90147E+00-1.86911E-04
 -1      3692 1.54197E-02 2.97426E+00-3.88103E-05
 -1      3693 5.41399E-02 2.90085E+00-1.87235E-04
 -1      3694 4.15879E-03 1.16617E-01-2.20620E-04
 -1      3695 1.35040E-02 9.64897E-02-1.00441E-03
 -1      3696 4.22483E-02 1.18794E-01-2.25120E-04
 -1      3697 4.84691E-02 9.97447E-02-1.01613E-03
 -1      3698 1.94679E-01 3.59689E+00 9.94067E-05
 -1      3699 1.21498E-01 3.59640E+00 9.24464E-05
 -1      3700 2.10574E-01 3.56412E+00 2.12472E-04
 -1      3701 1.84881E-01 3.47454E+00 1.31719E-04
 -1      3702 1.11883E-01 3.47400E+00 1.33382E-04
 -1      3703-5.15811E-02 9.58998E-02-4.15551E-03
 -1      3704-3.13116E-02 1.18870E-01-1.96789E-03
 -1      3705-5.08218E-02 1.20792E-01-1.97075E-03
 -1      3706-4.51697E-02 9.48442E-02-2.01841E-03
 -1      3707-2.78403E-02 9.28774E-02-2.02028E-03
 -1      3708-5.69883E-02 1.17750E-01-4.08428E-03
 -1      3709-5.55181E-02 1.44924E-01-1.92955E-03
 -1      3710-6.21396E-02 1.41675E-01-4.00113E-03
 -1      3711-3.40486E-02 1.43008E-01-1.92569E-03
 -1      3712-7.74760E-02 2.25773E-01 3.78464E-03
 -1      3713-4.36294E-02 2.56883E-01 1.71556E-03
 -1      3714-8.24096E-02 2.57766E-01 3.71139E-03
 -1      3715-7.18687E-02 2.58658E-01 1.72001E-03
 -1      3716 2.02739E-01 2.64902E+00-9.78045E-04
 -1      3717 1.75656E-01 2.56908E+00-4.84497E-04
 -1      3718 2.01400E-01 2.56882E+00-1.05055E-03
 -1      3719 1.06753E-01 2.56857E+00-4.86666E-04
 -1      3720-2.02741E-01 2.64902E+00-9.79436E-04
 -1      3721-1.75660E-01 2.56908E+00-4.89557E-04
 -1      3722 1.99977E-01 2.48918E+00-1.12226E-03
 -1      3723-2.01406E-01 2.56882E+00-1.05124E-03
 -1      3724-1.06751E-01 2.56857E+00-4.84394E-04
 -1      3725-1.99972E-01 2.48918E+00-1.12399E-03
 -1      3726-1.85238E-01 1.87601E+00 1.68197E-03
 -1      3727-9.93271E-02 1.94960E+00 7.44917E-04
 -1      3728-1.87407E-01 1.94998E+00 1.61061E-03
 -1      3729-1.63443E-01 1.95037E+00 7.46541E-04
 -1      3730 1.85241E-01 1.87600E+00 1.68291E-03
 -1      3731 1.63444E-01 1.95037E+00 7.44795E-04
 -1      3732 1.87402E-01 1.94998E+00 1.61124E-03
 -1      3733 9.93269E-02 1.94960E+00 7.47873E-04
 -1      3734-8.72445E-02 2.91690E-01 3.63943E-03
 -1      3735-1.18517E-01 5.80023E-01 3.15250E-03
 -1      3736-1.22606E-01 6.28043E-01 3.07796E-03
 -1      3737-6.27815E-02 5.79262E-01 1.45726E-03
 -1      3738-1.03356E-01 5.80776E-01 1.45724E-03
 -1      3739-1.64610E-01 1.31867E+00 2.23793E-03
 -1      3740-1.40960E-01 1.25442E+00 1.06921E-03
 -1      3741-1.61613E-01 1.25385E+00 2.31037E-03
 -1      3742-8.56520E-02 1.25331E+00 1.06873E-03
 -1      3743 1.64806E-01 1.31867E+00 2.24231E-03
 -1      3744 1.40950E-01 1.25439E+00 1.07221E-03
 -1      3745 9.66386E-02 3.65159E-01-3.50232E-03
 -1      3746 8.82554E-02 4.05453E-01-1.58559E-03
 -1      3747 1.01194E-01 4.04640E-01-3.42885E-03
 -1      3748 5.36012E-02 4.03810E-01-1.58909E-03
 -1      3749 1.61617E-01 1.25385E+00 2.31120E-03
 -1      3750 8.56406E-02 1.25329E+00 1.06744E-03
 -1      3751 8.74637E-02 2.91699E-01 3.64886E-03
 -1      3752 7.18466E-02 2.58653E-01 1.72232E-03
 -1      3753 8.25834E-02 2.57773E-01 3.71949E-03
 -1      3754 4.37819E-02 2.56881E-01 1.72304E-03
 -1      3755 7.76391E-02 2.25775E-01 3.79723E-03
 -1      3756 1.58525E-01 1.19023E+00 2.38409E-03
 -1      3757-1.58532E-01 1.19023E+00 2.38281E-03
 -1      3758 1.22611E-01 6.28045E-01 3.07908E-03
 -1      3759 1.03307E-01 5.80773E-01 1.46166E-03
 -1      3760-1.02002E-01 4.04599E-01-3.45667E-03
 -1      3761-9.73987E-02 3.65125E-01-3.53127E-03
 -1      3762-5.42917E-02 4.03774E-01-1.61146E-03
 -1      3763-8.81462E-02 4.05467E-01-1.59238E-03
 -1      3764 1.30524E-01 7.28739E-01-2.96260E-03
 -1      3765 1.35272E-01 7.81380E-01-2.91056E-03
 -1      3766 1.17348E-01 7.81963E-01-1.34919E-03
 -1      3767 7.22996E-02 7.80606E-01-1.35311E-03
 -1      3768 1.18866E-01 5.79817E-01 3.16295E-03
 -1      3769 6.30976E-02 5.79052E-01 1.46436E-03
 -1      3770-1.38808E-01 8.35701E-01-2.81575E-03
 -1      3771-7.19530E-02 7.80862E-01-1.34778E-03
 -1      3772-1.31313E-01 7.28817E-01-2.96725E-03
 -1      3773-1.17223E-01 7.82018E-01-1.33600E-03
 -1      3774-2.84672E-02 1.53885E+00 1.01652E-04
 -1      3775-3.04013E-02 1.64388E+00 1.03987E-04
 -1      3776-1.35078E-01 7.81701E-01-2.89284E-03
 -1      3777 1.10948E-01 2.27214E+00-6.76662E-04
 -1      3778 1.77867E-01 2.27280E+00-6.77001E-04
 -1      3779 1.95144E-01 2.25389E+00-1.33217E-03
 -1      3780 1.17276E-01 2.15919E+00-8.18064E-04
 -1      3781 1.83311E-01 2.15994E+00-8.14966E-04
 -1      3782-1.46333E-01 9.48375E-01-2.69160E-03
 -1      3783-1.29592E-01 1.00704E+00-1.20725E-03
 -1      3784-2.10500E-01 3.30615E+00-4.24954E-04
 -1      3785-1.49742E-01 1.00674E+00-2.61597E-03
 -1      3786-7.97484E-02 1.00623E+00-1.21579E-03
 -1      3787-2.29790E-02 1.93631E-02 4.32096E-03
 -1      3788-1.61258E-02 3.04736E-02 2.14762E-03
 -1      3789 8.31067E-03 7.05529E-03 2.18940E-03
 -1      3790 1.31879E-02 9.19995E-03 2.09026E-03
 -1      3791 1.67999E-02 1.09819E-02 4.09321E-03
 -1      3792 1.21673E-02 1.85503E-02 2.05430E-03
 -1      3793 2.00859E-02 2.06306E-02 2.01972E-03
 -1      3794-7.60787E-02 7.68134E-01 1.49940E-03
 -1      3795-1.21465E-01 7.69528E-01 1.50922E-03
 -1      3796-1.34655E-01 7.81414E-01 2.89439E-03
 -1      3797-8.47976E-02 8.47151E-01 1.61640E-03
 -1      3798-1.32046E-01 8.48572E-01 1.63011E-03
 -1      3799 7.61793E-02 7.68425E-01 1.50053E-03
 -1      3800 1.21417E-01 7.69551E-01 1.49632E-03
 -1      3801 1.34820E-01 7.81802E-01 2.88403E-03
 -1      3802 8.49224E-02 8.47656E-01 1.61749E-03
 -1      3803 1.32020E-01 8.48799E-01 1.61704E-03
 -1      3804 2.10102E-01 3.30494E+00-4.27043E-04
 -1      3805 1.03430E-01 2.25356E+00 6.15810E-04
 -1      3806 1.70186E-01 2.25420E+00 6.17135E-04
 -1      3807 1.95141E-01 2.25388E+00 1.32966E-03
 -1      3808 1.19882E-01 2.34890E+00 7.19987E-04
 -1      3809 1.87383E-01 2.34957E+00 7.19432E-04
 -1      3810 9.47020E-02 2.34923E+00 2.87081E-04
 -1      3811-1.03431E-01 2.25356E+00 6.15770E-04
 -1      3812-1.70187E-01 2.25420E+00 6.16135E-04
 -1      3813-1.95142E-01 2.25388E+00 1.32897E-03
 -1      3814-1.19882E-01 2.34890E+00 7.19370E-04
 -1      3815-1.87384E-01 2.34957E+00 7.18365E-04
 -1      3816-9.47034E-02 2.34924E+00 2.86650E-04
 -1      3817 9.77774E-02 1.50392E+00 1.05690E-03
 -1      3818 1.61043E-01 1.64084E+00 4.10421E-04
 -1      3819 1.57654E-01 1.53959E+00 4.33785E-04
 -1      3820 1.58826E-01 1.57395E+00 1.01584E-03
 -1      3821 1.56430E-01 1.50496E+00 1.05224E-03
 -1      3822-2.90446E-02 3.03583E-02 4.39676E-03
 -1      3823-2.61781E-02 3.26892E-02 2.13668E-03
 -1      3824 1.01360E-01 4.56323E-01-1.93122E-03
 -1      3825 6.48073E-02 4.54537E-01-1.93391E-03
 -1      3826 5.12016E-02 4.55418E-01-7.72789E-04
 -1      3827-1.07723E-01 5.24299E-01 1.87019E-03
 -1      3828-6.88767E-02 5.22577E-01 1.87229E-03
 -1      3829-5.44106E-02 5.23438E-01 7.47912E-04
 -1      3830 1.88584E-01 3.03447E+00 1.39231E-04
 -1      3831 1.87377E-01 2.91517E+00 1.62438E-04
 -1      3832-4.91111E-02 3.03397E+00 1.39614E-04
 -1      3833-4.88041E-02 2.91460E+00 1.60184E-04
 -1      3834 3.57612E-02 1.46405E-01 2.04234E-03
 -1      3835 3.13941E-02 1.11570E-01 2.09764E-03
 -1      3836 5.51064E-02 1.36430E-01 8.57424E-04
 -1      3837 5.74843E-02 1.48374E-01 2.04877E-03
 -1      3838 4.80396E-02 1.03191E-01 8.83193E-04
 -1      3839 1.93345E-01 2.17678E+00-1.39727E-03
 -1      3840 1.91456E-01 2.10041E+00-1.46679E-03
 -1      3841 1.16114E-01 2.08296E+00-8.58037E-04
 -1      3842 1.81497E-01 2.08375E+00-8.59667E-04
 -1      3843-1.98459E-01 2.41012E+00 1.19108E-03
 -1      3844-1.96841E-01 2.33168E+00 1.26236E-03
 -1      3845-1.88894E-01 2.42813E+00 6.77666E-04
 -1      3846-1.20849E-01 2.42752E+00 6.75798E-04
 -1      3847 1.96840E-01 2.33167E+00 1.26337E-03
 -1      3848 1.20848E-01 2.42751E+00 6.76404E-04
 -1      3849 1.98458E-01 2.41012E+00 1.19216E-03
 -1      3850 1.88893E-01 2.42813E+00 6.78695E-04
 -1      3851-1.10039E-01 4.88916E-01 3.28933E-03
 -1      3852-1.14323E-01 5.33631E-01 3.21958E-03
 -1      3853-1.03634E-01 4.79985E-01 1.91453E-03
 -1      3854-6.62586E-02 4.78221E-01 1.91184E-03
 -1      3855 1.05659E-01 4.45908E-01-3.36201E-03
 -1      3856 1.10041E-01 4.88912E-01-3.29018E-03
 -1      3857 1.05494E-01 4.99694E-01-1.89132E-03
 -1      3858 6.74544E-02 4.97956E-01-1.89013E-03
 -1      3859-1.01277E-01 4.56286E-01-1.93274E-03
 -1      3860-6.55712E-02 4.54446E-01-1.95902E-03
 -1      3861-5.10058E-02 4.55402E-01-7.74143E-04
 -1      3862 1.07720E-01 5.24161E-01 1.87043E-03
 -1      3863 6.92231E-02 5.22241E-01 1.88243E-03
 -1      3864 5.43680E-02 5.23298E-01 7.48287E-04
 -1      3865-1.06440E-01 4.45800E-01-3.38799E-03
 -1      3866-6.81924E-02 4.97795E-01-1.91313E-03
 -1      3867 1.14662E-01 5.33434E-01 3.23005E-03
 -1      3868 1.03629E-01 4.79853E-01 1.91490E-03
 -1      3869-1.45195E-01 1.08070E+00-1.45466E-03
 -1      3870-9.39439E-02 1.07980E+00-1.46464E-03
 -1      3871-7.32746E-02 1.08015E+00-5.78847E-04
 -1      3872-1.55356E-01 1.12785E+00-2.45130E-03
 -1      3873-1.52061E-01 1.06642E+00-2.53151E-03
 -1      3874-9.48552E-02 1.14111E+00-1.40426E-03
 -1      3875-1.48296E-01 1.14240E+00-1.40627E-03
 -1      3876-1.10855E-01 4.88799E-01-3.31582E-03
 -1      3877-1.05410E-01 4.99656E-01-1.89299E-03
 -1      3878 1.29700E-01 1.00717E+00-1.21089E-03
 -1      3879 7.96027E-02 1.00594E+00-1.21134E-03
 -1      3880 1.49488E-01 1.00656E+00-2.61632E-03
 -1      3881 1.45220E-01 1.08080E+00-1.46197E-03
 -1      3882 9.37014E-02 1.07948E+00-1.45848E-03
 -1      3883 7.34106E-02 1.08013E+00-5.77782E-04
 -1      3884-1.38386E-01 8.35536E-01 2.82962E-03
 -1      3885-1.35480E-01 9.04438E-01 1.58627E-03
 -1      3886-1.43018E-02 1.33406E-01 8.63024E-04
 -1      3887-4.15831E-02 1.53815E+00 4.33086E-04
 -1      3888-4.38069E-02 1.64321E+00 4.32081E-04
 -1      3889-1.41840E-01 8.90970E-01 2.75622E-03
 -1      3890-8.68225E-02 9.02927E-01 1.57303E-03
 -1      3891 1.38545E-01 8.35810E-01 2.81515E-03
 -1      3892 1.35446E-01 9.04543E-01 1.56940E-03
 -1      3893 1.55754E-01 1.12782E+00-2.46480E-03
 -1      3894 1.52877E-01 1.06654E+00-2.54201E-03
 -1      3895 1.48316E-01 1.14236E+00-1.41028E-03
 -1      3896 9.52822E-02 1.14108E+00-1.41221E-03
 -1      3897 1.10225E-01 4.88690E-01 3.29647E-03
 -1      3898 6.64533E-02 4.77862E-01 1.91855E-03
 -1      3899-8.59880E-02 2.27259E+00-2.30141E-05
 -1      3900-1.70953E-01 2.29316E+00 2.27887E-04
 -1      3901-3.94227E-02 2.29223E+00 2.27798E-04
 -1      3902 1.70952E-01 2.29316E+00 2.29140E-04
 -1      3903-7.29168E-03 2.27234E+00-2.17232E-05
 -1      3904 3.94219E-02 2.29223E+00 2.27924E-04
 -1      3905-1.24533E-02 1.00039E-01 8.82745E-04
 -1      3906-1.76825E-01 1.59111E+00-1.97072E-03
 -1      3907-1.74040E-01 1.51808E+00-2.04417E-03
 -1      3908-9.49422E-02 1.51146E+00-9.94525E-04
 -1      3909-1.53041E-01 1.51431E+00-9.83483E-04
 -1      3910-9.64697E-02 1.58440E+00-9.59444E-04
 -1      3911 1.67996E-01 1.85883E+00-8.76169E-04
 -1      3912 1.69475E-01 1.75948E+00-9.89200E-04
 -1      3913-1.40394E-02 1.55359E-01-7.56094E-04
 -1      3914-3.40485E-02 1.76312E-01-9.56245E-04
 -1      3915 1.50355E-01 1.33494E+00-1.14735E-03
 -1      3916 1.65060E-01 1.43089E+00-1.28402E-03
 -1      3917 5.77023E-03 1.02072E+00 4.39680E-05
 -1      3918-3.01524E-02 1.03555E+00-4.49272E-04
 -1      3919 1.04790E-01 1.85797E+00-8.75522E-04
 -1      3920 1.07323E-01 1.75855E+00-9.89686E-04
 -1      3921-5.62857E-03 1.02055E+00 4.30184E-05
 -1      3922 3.04487E-02 1.03543E+00-4.51432E-04
 -1      3923 9.39763E-02 1.33382E+00-1.15119E-03
 -1      3924 1.07239E-01 1.42974E+00-1.29368E-03
 -1      3925 1.41867E-01 8.91417E-01 2.73942E-03
 -1      3926 8.68097E-02 9.03616E-01 1.57183E-03
 -1      3927-6.57165E-02 1.02104E+00 4.17300E-05
 -1      3928-1.31086E-01 1.03727E+00-4.48262E-04
 -1      3929-5.78468E-02 1.58278E-01-7.54027E-04
 -1      3930-4.03344E-02 1.70088E+00-3.60624E-04
 -1      3931-9.13481E-02 1.75350E+00-4.31894E-04
 -1      3932 6.58655E-02 1.02122E+00 4.36051E-05
 -1      3933 1.31193E-01 1.03727E+00-4.52542E-04
 -1      3934 2.29220E-02 1.94626E-02 4.31451E-03
 -1      3935 2.54702E-02 3.18475E-02 2.05934E-03
 -1      3936 2.10243E-01 3.47676E+00 2.80457E-04
 -1      3937 1.84505E-01 3.38735E+00 1.69380E-04
 -1      3938 2.93028E-02 3.06266E-02 4.40859E-03
 -1      3939 1.57313E-02 2.98071E-02 2.10083E-03
 -1      3940 3.25257E-02 4.77440E-02-2.22010E-03
 -1      3941 4.07918E-02 7.02062E-02-2.33972E-03
 -1      3942 2.11999E-01 3.38875E+00 3.57366E-04
 -1      3943 1.13834E-01 3.38598E+00 1.68200E-04
 -1      3944-1.03369E-01 4.78243E-01-8.78793E-04
 -1      3945-9.01137E-02 4.26286E-01-6.00536E-04
 -1      3946-5.01273E-02 4.36873E-01 1.23740E-04
 -1      3947-1.01569E-01 4.58955E-01 8.87641E-04
 -1      3948-6.13192E-02 4.89405E-01-1.52961E-06
 -1      3949 2.03983E-01 2.72971E+00 9.10545E-04
 -1      3950-2.03984E-01 2.72972E+00 9.08675E-04
 -1      3951-1.07458E-01 5.22460E-01-8.60618E-04
 -1      3952-5.52609E-02 5.44245E-01-1.20268E-04
 -1      3953-1.01550E-01 5.57764E-01 5.59981E-04
 -1      3954-1.05703E-01 5.02406E-01 8.68651E-04
 -1      3955 1.05699E-01 5.02271E-01 8.68985E-04
 -1      3956 1.01502E-01 5.57762E-01 5.63164E-04
 -1      3957 5.53010E-02 5.44281E-01-1.17634E-04
 -1      3958 1.07544E-01 5.22498E-01-8.58361E-04
 -1      3959 6.14034E-02 4.89306E-01-4.47117E-08
 -1      3960 2.07898E-02 4.23820E-01-5.95330E-04
 -1      3961-8.13657E-03 4.36088E-01 1.27150E-04
 -1      3962-2.97822E-02 4.56197E-01 8.88039E-04
 -1      3963 3.03424E-02 4.75547E-01-8.78380E-04
 -1      3964 1.30760E-05 4.88413E-01 8.72105E-07
 -1      3965-3.09952E-02 4.99709E-01 8.68364E-04
 -1      3966-2.34011E-02 5.55470E-01 5.61023E-04
 -1      3967 3.15474E-02 5.19828E-01-8.57776E-04
 -1      3968 8.98007E-03 5.43564E-01-1.19155E-04
 -1      3969 1.01564E-01 4.58825E-01 8.87767E-04
 -1      3970 5.02430E-02 4.36723E-01 1.27358E-04
 -1      3971 9.02251E-02 4.26268E-01-5.94231E-04
 -1      3972 1.03452E-01 4.78280E-01-8.76281E-04
 -1      3973 2.03065E-02 4.55444E-02-2.23226E-03
 -1      3974 2.59007E-02 6.79494E-02-2.35023E-03
 -1      3975 2.30328E-02 5.55288E-01 5.52662E-04
 -1      3976-8.94111E-03 5.43526E-01-1.19033E-04
 -1      3977-3.17684E-02 5.19619E-01-8.64920E-04
 -1      3978 3.06915E-02 4.99401E-01 8.60086E-04
 -1      3979 7.66380E-05 4.88244E-01 2.36346E-06
 -1      3980 1.69055E-01 1.53335E+00-5.71833E-04
 -1      3981 1.94143E-01 3.04829E+00-1.56556E-04
 -1      3982 5.45555E-02 3.04778E+00-1.58526E-04
 -1      3983 5.43029E-03 3.10790E+00-1.00443E-05
 -1      3984-3.06349E-02 4.75082E-01-8.88120E-04
 -1      3985-2.10341E-02 4.23429E-01-6.03947E-04
 -1      3986 2.93961E-02 4.55639E-01 8.77242E-04
 -1      3987 8.25901E-03 4.35981E-01 1.29595E-04
 -1      3988 2.11480E-01 3.30494E+00 4.28623E-04
 -1      3989 3.50371E-02 4.35503E-02 4.37385E-03
 -1      3990-2.08820E-01 3.13957E+00-5.58860E-04
 -1      3991 5.73665E-02 1.40518E-01-9.82494E-04
 -1      3992-6.73464E-02 1.67701E-01-3.92509E-03
 -1      3993-6.01268E-02 1.71118E-01-1.89446E-03
 -1      3994-7.28364E-02 1.95517E-01-3.88023E-03
 -1      3995-3.72438E-02 1.68996E-01-1.90985E-03
 -1      3996-2.05132E-01 2.81088E+00-8.43848E-04
 -1      3997-1.60909E-01 1.70223E+00-3.27010E-04
 -1      3998-1.03415E-01 3.42388E+00 3.27918E-05
 -1      3999 1.59948E-02 1.37370E-01-9.75034E-04
 -1      4000-1.82985E-01 1.80291E+00-1.75273E-03
 -1      4001-1.61975E-01 1.73779E+00-8.55086E-04
 -1      4002-1.00092E-01 1.73691E+00-8.70672E-04
 -1      4003-1.11538E-01 1.81879E+00-1.00095E-03
 -1      4004-1.74350E-01 1.81971E+00-1.00193E-03
 -1      4005-4.61556E-02 7.61393E-02-4.24000E-03
 -1      4006-1.46084E-02 1.70167E-01-1.84325E-04
 -1      4007 6.38292E-04 8.82248E-04 1.38934E-04
 -1      4008-5.43205E-02 2.08003E+00-4.05734E-04
 -1      4009-9.96198E-02 2.06095E+00-4.13823E-04
 -1      4010-4.50478E-02 2.00464E+00-3.38131E-04
 -1      4011 5.31439E-02 2.06479E+00 3.99967E-04
 -1      4012 7.69986E-03 2.04554E+00 3.28526E-05
 -1      4013-1.06944E-03 2.12134E+00-3.58225E-06
 -1      4014-2.00301E-01 3.60113E+00 1.01502E-04
 -1      4015-1.91085E-01 3.51732E+00 1.45980E-04
 -1      4016-3.96023E-02 2.33167E+00 5.31407E-05
 -1      4017 3.96010E-02 2.33167E+00 5.31219E-05
 -1      4018-4.06151E-02 1.73733E+00-8.24911E-05
 -1      4019 3.05912E-02 1.06654E+00-1.04028E-04
 -1      4020-3.05157E-02 1.06654E+00-1.03909E-04
 -1      4021-1.81823E-01 1.73267E+00-1.82894E-03
 -1      4022-9.98872E-02 1.66750E+00-9.14094E-04
 -1      4023-6.98978E-02 2.03315E-01-2.22258E-03
 -1      4024-4.50410E-02 2.01043E-01-2.23686E-03
 -1      4025-1.71868E-01 2.00584E+00-3.37937E-04
 -1      4026-1.82511E-01 2.08127E+00-4.05051E-04
 -1      4027-1.80924E-01 2.06022E+00 4.00853E-04
 -1      4028-1.08139E-01 2.11595E+00-4.62360E-06
 -1      4029-9.82771E-02 2.04016E+00 3.25418E-05
 -1      4030-1.79375E-01 1.66140E+00-1.90086E-03
 -1      4031-1.59799E-01 1.66647E+00-8.87481E-04
 -1      4032-4.93031E-02 3.11661E+00 1.24525E-04
 -1      4033-1.71301E-01 1.44992E+00-2.11680E-03
 -1      4034-3.48838E-02 4.34265E-02 4.36504E-03
 -1      4035-1.84340E-01 2.15742E+00-3.85052E-04
 -1      4036-9.41441E-02 2.19536E+00-5.61785E-05
 -1      4037-1.69429E-01 2.21573E+00 2.40606E-04
 -1      4038-1.82765E-01 2.13616E+00 3.81266E-04
 -1      4039-3.08608E-02 4.98791E-01-2.55734E-04
 -1      4040-2.11079E-02 4.45912E-01-1.36905E-04
 -1      4041-3.03869E-02 4.79100E-01 2.57152E-04
 -1      4042 3.04390E-02 4.78968E-01 2.57178E-04
 -1      4043 2.29644E-02 5.33634E-01 1.30609E-04
 -1      4044 3.09912E-02 4.98827E-01-2.56391E-04
 -1      4045-2.29609E-02 5.33635E-01 1.30290E-04
 -1      4046 2.12689E-02 4.45891E-01-1.36854E-04
 -1      4047 9.07709E-02 2.00809E+00-5.84940E-05
 -1      4048 1.80571E-01 2.04617E+00-4.02825E-04
 -1      4049 1.64368E-01 1.98786E+00 2.76586E-04
 -1      4050 9.10178E-02 2.02768E+00 3.56353E-04
 -1      4051 1.81068E-01 2.06603E+00 3.99908E-04
 -1      4052 1.73406E-01 1.51995E+00 2.03526E-03
 -1      4053 1.78635E-01 1.65947E+00-1.89921E-03
 -1      4054-3.98874E-02 9.31094E-01 7.03246E-04
 -1      4055-1.14192E-02 9.60789E-01 9.99452E-05
 -1      4056 2.99968E-02 9.76178E-01-4.68497E-04
 -1      4057 4.04350E-02 9.16198E-01-7.23098E-04
 -1      4058 6.97508E-02 9.46014E-01-6.16543E-04
 -1      4059 7.01789E-02 9.61561E-01 9.90607E-05
 -1      4060 1.37148E-01 9.33483E-01 7.01879E-04
 -1      4061 1.28216E-01 9.78068E-01-4.68429E-04
 -1      4062 1.36280E-01 9.18420E-01-7.23287E-04
 -1      4063 6.21417E-02 1.41679E-01 4.00412E-03
 -1      4064-5.48644E-02 2.15624E+00-3.83712E-04
 -1      4065 5.36818E-02 2.14084E+00 3.79408E-04
 -1      4066 3.90696E-02 2.21475E+00 2.40731E-04
 -1      4067-1.61618E-02 2.19504E+00-5.63425E-05
 -1      4068-7.00656E-03 1.96769E+00-2.46661E-05
 -1      4069 3.79009E-02 1.98672E+00 2.78024E-04
 -1      4070-1.57535E-01 1.59614E+00-9.20692E-04
 -1      4071 5.29977E-02 2.04491E+00-4.04323E-04
 -1      4072 1.47095E-02 2.00774E+00-5.75528E-05
 -1      4073-3.79013E-02 1.98672E+00 2.76665E-04
 -1      4074-5.31016E-02 2.05898E+00 4.02429E-04
 -1      4075-9.09457E-02 2.02191E+00 3.57255E-04
 -1      4076-1.17486E-01 2.17346E+00 8.11027E-04
 -1      4077-1.83641E-01 2.17421E+00 8.11611E-04
 -1      4078-1.82723E-01 2.13557E+00 1.29923E-03
 -1      4079 1.80107E-01 2.02809E+00 8.88377E-04
 -1      4080 1.15223E-01 2.02727E+00 8.89842E-04
 -1      4081 1.81026E-01 2.06541E+00 1.35596E-03
 -1      4082-1.89635E-01 3.15839E+00 2.77604E-04
 -1      4083-1.99333E-01 3.26314E+00 2.63253E-04
 -1      4084-1.18135E-01 3.15811E+00 2.78615E-04
 -1      4085-1.27525E-01 3.26289E+00 2.62949E-04
 -1      4086-1.81839E-01 2.09788E+00 8.51839E-04
 -1      4087-1.16335E-01 2.09710E+00 8.52109E-04
 -1      4088 1.81980E-01 2.10371E+00 8.48689E-04
 -1      4089 1.16425E-01 2.10293E+00 8.48847E-04
 -1      4090 1.63243E-01 1.71109E+00 1.51555E-03
 -1      4091 1.86400E-01 2.83316E+00 6.75894E-04
 -1      4092-1.86400E-01 2.83316E+00 6.74115E-04
 -1      4093 1.55174E-01 1.47032E+00 1.71541E-03
 -1      4094 1.89278E-01 3.11683E+00 4.77186E-04
 -1      4095-2.09510E-01 3.22256E+00 4.90704E-04
 -1      4096-1.89277E-01 3.11683E+00 4.76343E-04
 -1      4097 5.98288E-02 1.60385E-01 3.24684E-03
 -1      4098 1.37946E-01 9.46727E-01-1.55449E-03
 -1      4099 8.90165E-02 9.45325E-01-1.55463E-03
 -1      4100 1.36252E-01 9.17529E-01-2.43831E-03
 -1      4101-9.31186E-02 4.16526E-01 7.41005E-04
 -1      4102-5.35796E-02 4.26525E-01 9.09543E-04
 -1      4103 1.34568E-01 8.89735E-01-1.60034E-03
 -1      4104 8.71294E-02 8.88303E-01-1.60081E-03
 -1      4105-5.97936E-02 1.60385E-01 3.24517E-03
 -1      4106 4.30689E-02 8.14035E-02 3.45316E-03
 -1      4107-7.38221E-02 2.50704E-01-8.09379E-04
 -1      4108-4.12207E-02 2.40380E-01-1.00595E-03
 -1      4109-4.45470E-02 1.93002E+00-3.54229E-04
 -1      4110-9.63892E-02 1.91025E+00-4.41242E-04
 -1      4111-1.82867E-01 2.54845E+00 2.31701E-04
 -1      4112-1.03840E-01 2.52609E+00 2.91807E-04
 -1      4113-4.79330E-02 2.54763E+00 2.33069E-04
 -1      4114 1.82866E-01 2.54845E+00 2.32783E-04
 -1      4115 1.03839E-01 2.52609E+00 2.92505E-04
 -1      4116 4.79319E-02 2.54763E+00 2.33280E-04
 -1      4117 1.70962E-01 1.96999E+00-3.44661E-04
 -1      4118 9.75631E-02 1.98995E+00-4.20821E-04
 -1      4119-1.69958E-01 1.93127E+00-3.53726E-04
 -1      4120-8.26239E-02 1.96800E+00-2.35134E-05
 -1      4121 4.48083E-02 1.96876E+00-3.45582E-04
 -1      4122 1.06818E-01 5.69006E-01-6.87343E-04
 -1      4123 6.01604E-02 5.54978E-01-8.55584E-04
 -1      4124-1.06853E-01 5.69037E-01-6.87389E-04
 -1      4125-6.01062E-02 5.54971E-01-8.55951E-04
 -1      4126-5.46171E-02 2.11865E+00-1.18134E-04
 -1      4127-4.53029E-02 2.04285E+00-8.56106E-05
 -1      4128 9.31495E-02 4.16364E-01 7.45189E-04
 -1      4129 5.36196E-02 4.26234E-01 9.12466E-04
 -1      4130-2.43818E-02 4.13897E-01 7.41563E-04
 -1      4131 2.79766E-02 5.66566E-01-6.86814E-04
 -1      4132-1.77081E-01 2.23426E+00-2.92963E-04
 -1      4133-1.01592E-01 2.21365E+00-3.75464E-04
 -1      4134-4.64146E-02 2.23323E+00-2.92412E-04
 -1      4135-3.83348E-02 1.23628E+00-5.06241E-04
 -1      4136-8.27754E-02 1.21962E+00-6.29831E-04
 -1      4137 3.83341E-02 1.23628E+00-5.05953E-04
 -1      4138 8.27973E-02 1.21960E+00-6.28978E-04
 -1      4139-3.01581E-02 3.97078E-02-3.57355E-03
 -1      4140-1.46287E-01 1.23807E+00-5.05843E-04
 -1      4141 1.46285E-01 1.23808E+00-5.05186E-04
 -1      4142 4.05650E-02 5.87668E-02-4.29434E-03
 -1      4143 2.99586E-02 3.96414E-02-3.58119E-03
 -1      4144-1.94353E-02 2.47832E-01-8.14447E-04
 -1      4145-1.19708E-01 7.42530E-01 2.41738E-03
 -1      4146 1.84065E-01 2.62809E+00 8.27598E-04
 -1      4147-1.84066E-01 2.62810E+00 8.26327E-04
 -1      4148-1.78619E-01 2.31136E+00-1.05839E-03
 -1      4149-1.91459E-01 2.10041E+00-1.47180E-03
 -1      4150-1.71828E-01 2.00524E+00-1.29050E-03
 -1      4151-1.72774E-01 2.04323E+00-7.87170E-04
 -1      4152-1.07775E-01 2.04246E+00-7.87454E-04
 -1      4153 1.78619E-01 2.31136E+00-1.05743E-03
 -1      4154 1.82984E-01 1.80290E+00-1.74901E-03
 -1      4155 1.68976E-01 1.89518E+00-1.37411E-03
 -1      4156 7.81895E-02 2.82680E-01-3.02655E-03
 -1      4157-1.48993E-01 1.30169E+00-1.86946E-03
 -1      4158-8.89572E-02 3.75259E-01 2.88150E-03
 -1      4159 1.10531E-01 6.15391E-01-2.56302E-03
 -1      4160-3.48812E-02 9.90214E-01 5.60959E-04
 -1      4161-7.61432E-02 9.75090E-01 7.08239E-04
 -1      4162 1.67709E-01 1.38465E+00-2.17267E-03
 -1      4163 1.48991E-01 1.30169E+00-1.86835E-03
 -1      4164 1.42744E-01 8.91067E-01-2.77056E-03
 -1      4165-2.83266E-02 5.66419E-01-6.95446E-04
 -1      4166 1.19657E-01 7.42499E-01 2.41627E-03
 -1      4167-1.34527E-01 9.92223E-01 5.73077E-04
 -1      4168 1.34566E-01 9.92401E-01 5.60428E-04
 -1      4169 7.61449E-02 9.75443E-01 7.07613E-04
 -1      4170-4.30312E-02 8.13652E-02 3.45065E-03
 -1      4171 2.40515E-02 4.13321E-01 7.33179E-04
 -1      4172 3.48080E-02 9.91197E-01 5.60551E-04
 -1      4173-1.10567E-01 6.15423E-01-2.56349E-03
 -1      4174-7.82062E-02 2.82695E-01-3.02716E-03
 -1      4175 1.37626E-01 1.05108E+00 2.10293E-03
 -1      4176 8.89855E-02 3.75102E-01 2.88686E-03
 -1      4177-1.37587E-01 1.05090E+00 2.10135E-03
 -1      4178 1.83480E-01 2.58826E+00 5.34447E-04
 -1      4179 1.14455E-01 2.58774E+00 5.35497E-04
 -1      4180-1.14456E-01 2.58774E+00 5.34677E-04
 -1      4181-1.70909E-01 1.96825E+00-8.22901E-04
 -1      4182-1.83481E-01 2.58826E+00 5.33222E-04
 -1      4183-1.06610E-01 1.96744E+00-8.23996E-04
 -1      4184-1.10950E-01 2.27214E+00-6.78259E-04
 -1      4185-1.77868E-01 2.27280E+00-6.77926E-04
 -1      4186 1.69984E-01 1.93258E+00-8.40087E-04
 -1      4187 1.06031E-01 1.93176E+00-8.40144E-04
 -1      4188-1.47655E-01 1.26986E+00-1.18442E-03
 -1      4189-9.20915E-02 1.26870E+00-1.18553E-03
 -1      4190-9.10540E-02 3.95882E-01 1.78165E-03
 -1      4191-5.67555E-02 3.94142E-01 1.78142E-03
 -1      4192 6.77652E-02 5.90593E-01-1.61719E-03
 -1      4193 1.08691E-01 5.92175E-01-1.61686E-03
 -1      4194 1.47652E-01 1.26986E+00-1.18356E-03
 -1      4195-7.60307E-02 2.66674E-01-1.90670E-03
 -1      4196-1.08726E-01 5.92207E-01-1.61711E-03
 -1      4197 9.20917E-02 1.26871E+00-1.18447E-03
 -1      4198 8.52722E-02 1.02058E+00 1.33707E-03
 -1      4199-1.91459E-01 2.10041E+00 1.47050E-03
 -1      4200 1.91459E-01 2.10040E+00 1.47113E-03
 -1      4201-1.64369E-01 1.98785E+00 2.77074E-04
 -1      4202-1.36070E-01 1.02146E+00 1.34126E-03
 -1      4203 9.10835E-02 3.95723E-01 1.78635E-03
 -1      4204-6.84235E-02 5.90479E-01-1.63292E-03
 -1      4205 5.70021E-02 3.93985E-01 1.79188E-03
 -1      4206-4.79152E-02 2.64670E-01-1.92950E-03
 -1      4207-8.53788E-02 1.02005E+00 1.33877E-03
 -1      4208 1.36103E-01 1.02151E+00 1.33807E-03
 -1      4209 1.11071E-04 4.04642E-01-3.23449E-07
 -1      4210 2.49949E-02 4.35682E-01 1.95749E-04
 -1      4211-2.06715E-05 2.57767E-01 6.23418E-07
 -1      4212 7.89737E-08 2.56882E+00-7.55598E-07
 -1      4213-4.77697E-02 2.50822E+00 6.03362E-05
 -1      4214 4.77689E-02 2.50822E+00 6.07362E-05
 -1      4215 6.81994E-07 1.94998E+00 1.68248E-06
 -1      4216 3.81168E-02 2.02479E+00 6.53135E-05
 -1      4217-3.81171E-02 2.02479E+00 6.45283E-05
 -1      4218 4.50693E-02 2.00678E+00-8.94321E-05
 -1      4219-4.42971E-02 1.89366E+00-9.24588E-05
 -1      4220 1.21023E-07 2.25388E+00-6.71148E-07
 -1      4221-4.62163E-02 2.19520E+00-7.78750E-05
 -1      4222-1.87477E-02 2.33278E-01-2.10905E-04
 -1      4223-2.49057E-02 4.35848E-01 1.94391E-04
 -1      4224-7.75954E-06 1.25385E+00 1.06273E-06
 -1      4225-3.79924E-02 1.20537E+00-1.31852E-04
 -1      4226 3.79529E-02 1.20537E+00-1.31713E-04
 -1      4227 2.01405E-01 2.56883E+00 1.05225E-03
 -1      4228-1.87407E-01 1.94998E+00-1.61194E-03
 -1      4229-2.01406E-01 2.56883E+00 1.05099E-03
 -1      4230-1.95144E-01 2.25388E+00-1.33116E-03
 -1      4231 1.87405E-01 1.94998E+00-1.60879E-03
 -1      4232-1.71302E-01 1.44992E+00 2.11859E-03
 -1      4233-1.01200E-01 4.04641E-01 3.43114E-03
 -1      4234-1.61618E-01 1.25385E+00-2.31170E-03
 -1      4235 1.18514E-01 5.80022E-01-3.15002E-03
 -1      4236-4.72457E-05 5.80020E-01-3.41352E-07
 -1      4237 2.75152E-02 5.44604E-01-1.80671E-04
 -1      4238 1.09209E-04 1.00654E+00-1.83455E-07
 -1      4239 2.92268E-02 9.47897E-01-1.06513E-04
 -1      4240 3.49342E-02 9.61998E-01 1.51054E-04
 -1      4241-2.74973E-02 5.44634E-01-1.80134E-04
 -1      4242 1.61616E-01 1.25385E+00-2.31070E-03
 -1      4243-1.19131E-01 5.79885E-01-3.16746E-03
 -1      4244-8.29287E-02 2.57645E-01-3.73549E-03
 -1      4245-3.49012E-02 9.61826E-01 1.48985E-04
 -1      4246 1.33851E-04 7.81190E-01-1.38382E-06
 -1      4247 1.49048E-01 1.00668E+00 2.60699E-03
 -1      4248-1.49190E-01 1.00644E+00 2.61391E-03
 -1      4249 1.01413E-01 4.04648E-01 3.43888E-03
 -1      4250 1.83774E-01 2.18010E+00 8.09810E-04
 -1      4251 1.82860E-01 2.14143E+00 1.29517E-03
 -1      4252 1.17570E-01 2.17935E+00 8.08437E-04
 -1      4253-1.15127E-01 2.02150E+00 8.92569E-04
 -1      4254-1.80882E-01 2.05960E+00 1.36047E-03
 -1      4255-1.79958E-01 2.02232E+00 8.91596E-04
 -1      4256 1.31117E-01 8.34238E-01-1.63835E-03
 -1      4257 1.32834E-01 8.61215E-01-2.49910E-03
 -1      4258 8.48323E-02 8.32768E-01-1.64068E-03
 -1      4259-2.00080E-01 3.38384E+00 9.52284E-05
 -1      4260-1.07970E-01 3.38708E+00 1.09319E-04
 -1      4261-1.65035E-01 1.71499E+00 1.53991E-03
 -1      4262 2.33550E-01 3.70183E+00 1.19169E-04
 -1      4263 2.10742E-01 3.63251E+00 1.69632E-04
 -1      4264 1.94811E-01 3.66531E+00 7.93291E-05
 -1      4265 1.44187E-01 3.66568E+00 7.00708E-05
 -1      4266 1.23392E-01 3.74924E+00 8.96847E-06
 -1      4267 1.42809E-01 3.71887E+00 3.18339E-05
 -1      4268-1.20448E-02 5.69555E-03-4.12258E-03
 -1      4269-8.08696E-03 3.00812E-03-3.60211E-03
 -1      4270-6.31095E-03 3.13590E-03-2.21302E-03
 -1      4271-8.39400E-03 4.58256E-03-2.00153E-03
 -1      4272 3.55820E-03 8.57250E-02-2.09972E-05
 -1      4273 1.53042E-02 2.85159E+00-3.09364E-06
 -1      4274 1.55123E-02 3.09804E+00-4.24736E-06
 -1      4275 4.73672E-03 1.54397E-01-1.95841E-05
 -1      4276-2.33825E-01 3.63295E+00-1.75547E-04
 -1      4277-2.33956E-01 3.70141E+00-1.22361E-04
 -1      4278-1.97017E-01 3.66806E+00-8.21719E-05
 -1      4279-1.46787E-01 3.66800E+00-7.09805E-05
 -1      4280-1.99853E-01 3.34561E+00 2.25384E-04
 -1      4281-1.90734E-01 3.42924E+00 1.92966E-04
 -1      4282 1.27419E-02 1.48571E+00-1.13126E-05
 -1      4283 2.32207E-01 3.75507E+00 5.17529E-05
 -1      4284 2.32221E-01 3.74684E+00 4.32786E-05
 -1      4285 1.33156E-02 1.69497E+00-8.98933E-06
 -1      4286-3.51289E-04 3.18892E-02 1.16327E-07
 -1      4287 2.33549E-01 3.70226E+00-1.15063E-04
 -1      4288 2.10743E-01 3.63294E+00-1.68533E-04
 -1      4289 1.97805E-01 3.66806E+00-7.79136E-05
 -1      4290 1.47173E-01 3.66801E+00-7.30845E-05
 -1      4291 8.09523E-03 2.96727E-03-3.59704E-03
 -1      4292 1.20937E-02 5.73491E-03-4.13408E-03
 -1      4293 8.47596E-03 4.60743E-03-2.03525E-03
 -1      4294 6.29589E-03 3.16015E-03-2.19424E-03
 -1      4295 1.81456E-01 3.75543E+00 2.89104E-05
 -1      4296-8.13305E-03 2.99834E-03 3.62988E-03
 -1      4297-1.20774E-02 5.70551E-03 4.14272E-03
 -1      4298-8.41205E-03 4.51409E-03 2.06228E-03
 -1      4299-6.35568E-03 3.06736E-03 2.25990E-03
 -1      4300-2.10722E-01 3.63334E+00 1.66203E-04
 -1      4301-2.33953E-01 3.70183E+00 1.14947E-04
 -1      4302-1.50201E-01 3.66990E+00 7.12665E-05
 -1      4303-2.00438E-01 3.67038E+00 7.76625E-05
 -1      4304-1.27087E-01 3.60144E+00 9.57483E-05
 -1      4305 4.09831E-03 2.04351E-03-1.03031E-03
 -1      4306 3.57991E-03 1.37165E-03-1.03610E-03
 -1      4307-1.25418E-01 3.74671E+00-1.18542E-05
 -1      4308-1.45008E-01 3.72162E+00-3.24826E-05
 -1      4309 8.05595E-03 2.95403E-03 3.57994E-03
 -1      4310 1.20594E-02 5.71644E-03 4.11810E-03
 -1      4311 8.50846E-03 4.65224E-03 2.00537E-03
 -1      4312 6.33481E-03 3.21723E-03 2.19237E-03
 -1      4313-1.17730E-01 2.11826E+00-8.51815E-04
 -1      4314-1.83422E-01 2.11904E+00-8.52453E-04
 -1      4315 3.51128E-03 1.49450E-03-1.45564E-03
 -1      4316 3.90659E-03 1.95771E-03 9.77427E-04
 -1      4317 3.60281E-03 1.39240E-03 1.06415E-03
 -1      4318-2.32209E-01 3.75507E+00-5.28712E-05
 -1      4319-2.32223E-01 3.74684E+00-4.50196E-05
 -1      4320-1.81859E-01 3.75501E+00-3.10642E-05
 -1      4321-2.02703E-03-3.84025E-06-1.21681E-03
 -1      4322 2.07977E-03-5.84332E-05-1.23166E-03
 -1      4323 2.78250E-03 4.10223E-04-1.58864E-03
 -1      4324 2.28045E-01 3.75552E+00-3.78172E-05
 -1      4325-2.75868E-03 4.11699E-04-1.58958E-03
 -1      4326-3.48883E-03 1.35527E-03-1.02450E-03
 -1      4327 3.47907E-03 1.48307E-03 1.43783E-03
 -1      4328 2.08202E-03-5.97731E-05 1.23313E-03
 -1      4329 2.78485E-03 4.10154E-04 1.58838E-03
 -1      4330 1.89588E-01 2.46735E+00 1.03000E-03
 -1      4331 1.21760E-01 2.50673E+00 6.38650E-04
 -1      4332 1.90317E-01 2.50731E+00 6.38733E-04
 -1      4333-1.21761E-01 2.50673E+00 6.38024E-04
 -1      4334-1.90317E-01 2.50731E+00 6.37654E-04
 -1      4335-1.89589E-01 2.46735E+00 1.02895E-03
 -1      4336 1.14896E-01 2.00751E+00-8.98791E-04
 -1      4337 1.79595E-01 2.00833E+00-8.98543E-04
 -1      4338 1.80528E-01 2.04554E+00-1.37120E-03
 -1      4339-1.75396E-01 1.85579E+00-1.53496E-03
 -1      4340-1.76475E-01 1.89299E+00-9.61552E-04
 -1      4341-1.12899E-01 1.89211E+00-9.61774E-04
 -1      4342-6.35842E-02 4.35584E-01 1.95250E-03
 -1      4343-1.01527E-01 4.57576E-01 3.01644E-03
 -1      4344-9.94560E-02 4.37382E-01 1.95246E-03
 -1      4345-1.49779E-01 1.17293E+00-2.16676E-03
 -1      4346-1.51295E-01 1.20505E+00-1.36642E-03
 -1      4347-9.67758E-02 1.20379E+00-1.36639E-03
 -1      4348 1.07502E-01 5.21163E-01-2.92454E-03
 -1      4349 1.09544E-01 5.44774E-01-1.85148E-03
 -1      4350 7.00478E-02 5.43068E-01-1.85122E-03
 -1      4351 9.67971E-02 1.20377E+00-1.36676E-03
 -1      4352 1.49798E-01 1.17291E+00-2.16676E-03
 -1      4353 1.51315E-01 1.20503E+00-1.36637E-03
 -1      4354 6.38046E-02 4.35461E-01 1.95960E-03
 -1      4355 1.01522E-01 4.57446E-01 3.01687E-03
 -1      4356 9.94510E-02 4.37255E-01 1.95274E-03
 -1      4357 2.32201E-01 3.75550E+00-4.99237E-05
 -1      4358 1.45795E-01 3.72120E+00-2.85807E-05
 -1      4359-7.05624E-02 5.42889E-01-1.86703E-03
 -1      4360-1.07416E-01 5.21123E-01-2.92528E-03
 -1      4361-1.09456E-01 5.44735E-01-1.85295E-03
 -1      4362 8.91313E-02 9.60808E-01 1.53471E-03
 -1      4363 1.38793E-01 9.61857E-01 1.53619E-03
 -1      4364 1.37118E-01 9.32598E-01 2.41969E-03
 -1      4365 1.94840E-01 3.13070E+00-4.95319E-04
 -1      4366-7.46462E-02 2.33773E-01-2.17792E-03
 -1      4367-4.81844E-02 2.31640E-01-2.19878E-03
 -1      4368-7.22550E-02 2.17287E-01-3.43279E-03
 -1      4369 1.68336E-01 1.72308E+00-1.59292E-03
 -1      4370 1.91601E-01 2.81951E+00-7.24846E-04
 -1      4371 1.66377E-01 1.46411E+00-1.95572E-03
 -1      4372 6.21918E-02 1.64743E-01-3.41684E-03
 -1      4373-4.10434E-03 2.06017E-03 1.03584E-03
 -1      4374-3.51755E-03 1.51480E-03 1.45825E-03
 -1      4375-3.51398E-03 1.32391E-03 1.04617E-03
 -1      4376-1.25846E-01 3.74671E+00 9.86228E-06
 -1      4377-1.82287E-01 3.75501E+00 2.55409E-05
 -1      4378-1.48852E-01 3.72352E+00 3.01365E-05
 -1      4379-2.01192E-03-5.18278E-05 1.23588E-03
 -1      4380-1.37148E-01 9.32423E-01 2.42021E-03
 -1      4381-8.93036E-02 9.60280E-01 1.53787E-03
 -1      4382-1.38831E-01 9.61794E-01 1.54140E-03
 -1      4383-3.42424E-03 1.64713E-03-9.58648E-04
 -1      4384-3.43466E-03 1.39844E-03-1.43282E-03
 -1      4385 4.33534E-02 7.82439E-02-3.65381E-03
 -1      4386 1.31407E-01 3.75539E+00-6.37890E-06
 -1      4387-2.76373E-03 4.36356E-04 1.57969E-03
 -1      4388-1.85207E-01 2.19557E+00-8.11122E-04
 -1      4389-1.18876E-01 2.19483E+00-8.10488E-04
 -1      4390-1.84298E-01 2.15683E+00-1.29606E-03
 -1      4391 1.81456E-01 3.75543E+00-2.46346E-05
 -1      4392-2.75001E-02 3.37692E+00 5.37354E-06
 -1      4393-2.32659E-01 3.75553E+00 3.78477E-05
 -1      4394-2.32629E-01 3.75550E+00 4.85555E-05
 -1      4395-4.91393E-02 3.38788E+00 8.12016E-05
 -1      4396-2.10551E-01 3.56412E+00 2.07543E-04
 -1      4397-1.17993E-01 3.51759E+00 1.36052E-04
 -1      4398-1.28257E-01 3.34661E+00 2.23544E-04
 -1      4399-1.18998E-01 3.43028E+00 1.78919E-04
 -1      4400-1.99578E-01 3.30466E+00 3.80542E-04
 -1      4401-1.90885E-01 3.47185E+00 2.57279E-04
 -1      4402-2.11007E-01 3.38875E+00 3.55074E-04
 -1      4403-1.85405E-01 3.18834E+00-1.02698E-04
 -3
    1PSTEP                         2           1           1          
  100CL  101 1.000000000        4403                     0    1           1
 -4  STRESS      6    1
 -5  SXX         1    4    1    1
 -5  SYY         1    4    2    2
 -5  SZZ         1    4    3    3
 -5  SXY         1    4    1    2
 -5  SYZ         1    4    2    3
 -5  SZX         1    4    3    1
 -1         1 1.44407E+03 4.45945E+02 4.66963E+02 1.28801E+02-5.40886E+01-2.92545E+02
 -1         2 1.44415E+03 4.45929E+02 4.67402E+02 1.28860E+02 5.41433E+01 2.92895E+02
 -1         3-1.44497E+03-4.47154E+02-4.67584E+02 1.30941E+02-5.29590E+01 2.90739E+02
 -1         4-1.44524E+03-4.47514E+02-4.67868E+02 1.27567E+02 5.12422E+01-2.90629E+02
 -1         5 6.76405E+00-1.04754E+01 3.92273E-01 7.33424E+00 1.22002E+00 1.12086E+00
 -1         6 7.63984E+00-9.76437E+00 6.95521E-01 7.68026E+00-1.46927E+00-9.08733E-01
 -1         7-7.00682E+00 1.03635E+01-6.28223E-01 7.37208E+00 1.32404E+00-1.08714E+00
 -1         8-7.63835E+00 9.73083E+00-7.27806E-01 7.67661E+00-1.52842E+00 8.92957E-01
 -1         9 1.32710E+03 5.56231E+02 5.56968E+02 2.84715E+02-1.05778E+01 1.10009E+02
 -1        10 1.35571E+03 5.67915E+02 5.68907E+02 2.83686E+02 8.38470E+00 8.47131E+00
 -1        11 1.32250E+03 5.54026E+02 5.55698E+02 2.83284E+02 1.09386E+01-1.12158E+02
 -1        12 1.37469E+03 5.89157E+02 5.89156E+02 2.61528E+02-7.11401E-05 1.93802E+02
 -1        13 1.33275E+03 5.71179E+02 5.71178E+02 2.72207E+02 3.47104E-05 5.80745E+01
 -1        14 1.36520E+03 5.85086E+02 5.85085E+02 2.86998E+02 3.45675E-05-5.75437E+01
 -1        15 1.37401E+03 5.88862E+02 5.88862E+02 2.60402E+02 7.03683E-05-1.95036E+02
 -1        16 7.18436E+02 3.04472E+02 2.91415E+02-1.21475E+02 1.60302E+01-1.93378E+02
 -1        17-1.28519E+01-1.34852E+00-1.72277E+01-1.60283E+02 9.51307E+00 1.22915E+01
 -1        18-7.60887E+02-3.15063E+02-3.36536E+02-1.05624E+02 4.51468E+00 2.10579E+02
 -1        19 1.20111E+03 5.14761E+02 5.14761E+02-3.47531E+01-9.80954E-06-3.02672E+02
 -1        20 3.49231E+02 1.49671E+02 1.49671E+02-1.39382E+02-8.88528E-05-9.46840E+01
 -1        21-3.98968E+02-1.70987E+02-1.70987E+02-1.36521E+02-1.05430E-04 1.10424E+02
 -1        22-1.18465E+03-5.07710E+02-5.07710E+02-2.53379E+01-5.64456E-05 2.94449E+02
 -1        23-1.32513E+03-5.58007E+02-5.56477E+02 2.77681E+02 6.26981E+00-1.23740E+02
 -1        24-1.34790E+03-5.66024E+02-5.65834E+02 2.85771E+02 7.66929E+00-8.02139E+00
 -1        25-1.32056E+03-5.52476E+02-5.55130E+02 2.83207E+02 1.14138E+01 1.11720E+02
 -1        26-1.34883E+03-5.78072E+02-5.78072E+02 2.42855E+02-1.04024E-05-1.93725E+02
 -1        27-1.36621E+03-5.85519E+02-5.85518E+02 2.85598E+02 8.45649E-05-5.86626E+01
 -1        28-1.35729E+03-5.81697E+02-5.81697E+02 2.86628E+02 3.61399E-05 5.78832E+01
 -1        29-1.37336E+03-5.88584E+02-5.88584E+02 2.61528E+02 6.96971E-05 1.94535E+02
 -1        30 7.19822E+02 3.04936E+02 2.92073E+02-1.21650E+02-1.59434E+01 1.93693E+02
 -1        31-1.26324E+01-1.32298E+00-1.75194E+01-1.60772E+02-9.29403E+00-1.19067E+01
 -1        32-7.54556E+02-3.12457E+02-3.33333E+02-1.07323E+02-6.25531E+00-2.12336E+02
 -1        33 1.20134E+03 5.14861E+02 5.14861E+02-3.50227E+01 9.10718E-06 3.02731E+02
 -1        34 3.50468E+02 1.50201E+02 1.50201E+02-1.39856E+02 8.88982E-05 9.49051E+01
 -1        35-3.92620E+02-1.68266E+02-1.68266E+02-1.37137E+02 1.06050E-04-1.09281E+02
 -1        36-1.17993E+03-5.05685E+02-5.05685E+02-2.66415E+01 5.72225E-05-2.95552E+02
 -1        37 9.17521E+00-1.11383E+01-2.02969E+00 9.13077E+00-3.17135E-01-9.89707E-01
 -1        38 8.78817E+00-1.13794E+01-4.39703E+00 8.81017E+00 1.03480E-01 5.90391E-02
 -1        39 8.94697E+00-1.11745E+01-2.02786E+00 8.29771E+00 4.92257E-01 9.72954E-01
 -1        40 7.98786E+00-1.02463E+01 6.48583E-02 8.61838E+00-1.02169E+00-1.19837E+00
 -1        41 8.49442E+00-1.17968E+01-3.86987E+00 8.93584E+00-4.09924E-01-2.31844E-01
 -1        42 8.50349E+00-1.11212E+01-3.90338E+00 8.46871E+00 3.03858E-01 5.95367E-01
 -1        43 7.96287E+00-1.03474E+01-4.50168E-01 8.56706E+00 1.23304E+00 9.92713E-01
 -1        44-8.37931E-01-2.24516E+01-1.75403E-01 2.32393E+01-1.06803E+00-8.93390E-02
 -1        45-1.42592E-02 2.61402E-01-8.21000E-02 2.42113E+01-2.64113E+00 2.07961E-02
 -1        46 7.42641E-01 2.20482E+01 3.50574E-01 2.32865E+01-1.58150E+00-2.23583E-02
 -1        47 1.02063E+00-2.13063E+01-7.21041E-01 1.62168E+01-6.27066E-01 5.88551E-01
 -1        48-5.14647E-01-1.17756E+01-8.87049E-02 2.37210E+01-2.29570E+00 4.84186E-01
 -1        49 1.04276E-01 1.21858E+01 3.14004E-01 2.40168E+01-2.44644E+00 7.32140E-02
 -1        50-1.59798E+00 2.06118E+01 6.33041E-01 1.66085E+01-5.16964E-01-1.42123E+00
 -1        51-9.06077E+00 1.12960E+01 2.08710E+00 9.20453E+00-3.32270E-01 1.03066E+00
 -1        52-8.99953E+00 1.11411E+01 4.32643E+00 8.67339E+00 1.62381E-02-6.56287E-02
 -1        53-8.98242E+00 1.09159E+01 2.00420E+00 8.11679E+00 4.80817E-01-9.70203E-01
 -1        54-7.91666E+00 1.02812E+01-2.52594E-02 8.66881E+00-1.04277E+00 1.25954E+00
 -1        55-8.43695E+00 1.20485E+01 3.91157E+00 8.99412E+00-4.86629E-01 1.86012E-01
 -1        56-8.72837E+00 1.04901E+01 3.75597E+00 8.17396E+00 3.35734E-01-5.71791E-01
 -1        57-7.93300E+00 1.03320E+01 4.10050E-01 8.57119E+00 1.19768E+00-9.71602E-01
 -1        58-8.09676E-01-2.22153E+01-2.33898E-01 2.31997E+01 1.36534E+00 1.99106E-02
 -1        59-1.42256E-01 2.49555E-01-1.29550E-01 2.43039E+01 2.62073E+00-1.74517E-01
 -1        60 7.60383E-01 2.20216E+01 3.16135E-01 2.32988E+01 1.47259E+00-1.89575E-02
 -1        61 1.37503E+00-2.07795E+01-7.72038E-01 1.67518E+01 4.68720E-01-1.21210E+00
 -1        62-3.97015E-01-1.21670E+01-2.90397E-01 2.38160E+01 2.35510E+00-6.86083E-03
 -1        63 2.02556E-01 1.22147E+01 4.22300E-01 2.40711E+01 2.34648E+00-1.49402E-01
 -1        64-1.42425E+00 2.07872E+01 7.90625E-01 1.67184E+01 4.92679E-01 1.20546E+00
 -1        65 1.03890E+03-3.02525E+01-3.09627E+01-3.86190E+01-6.29815E+00-8.67584E+00
 -1        66 1.10066E+03-1.27335E+00-3.38516E+00-1.18934E+00-1.99935E-02-2.11696E+00
 -1        67 1.08668E+03 9.08130E-02-5.34719E-01 1.98921E+00 6.91262E-03-2.03389E+00
 -1        68 1.05738E+03-9.20886E-02 2.86779E-01 3.55425E+00-1.53046E-01-1.71311E+00
 -1        69 1.02331E+03 3.74783E-02 6.85822E-03 2.36944E+00-1.42222E-01-1.46355E+00
 -1        70 9.88097E+02 8.04439E-02-2.11340E-01 3.67967E+00 2.21683E-01-1.54767E+00
 -1        71 9.52822E+02-1.96829E-01-3.03392E-02 2.31623E+00 1.86642E-01-1.68030E+00
 -1        72 9.18128E+02-3.42934E-02-2.43163E-01 2.35721E+00 6.31340E-02-1.60076E+00
 -1        73 8.82280E+02 5.20686E-02 2.27437E-01 3.67503E+00-2.72458E-01-1.56372E+00
 -1        74 8.46410E+02 3.31449E-02 1.84211E-01 3.32163E+00-1.50846E-02-1.33300E+00
 -1        75 8.12124E+02-1.61380E-01-1.74133E-01 2.28371E+00-7.35957E-03-1.48329E+00
 -1        76 7.76689E+02-1.17937E-01-3.06401E-01 2.24960E+00 5.93896E-02-1.67879E+00
 -1        77 7.41184E+02-7.32228E-03 2.32147E-01 3.65966E+00-2.38440E-01-1.59701E+00
 -1        78 7.05477E+02 1.52041E-01 1.90091E-01 2.28986E+00 1.56404E-02-1.42403E+00
 -1        79 6.71171E+02-1.29525E-01-1.57556E-01 3.24175E+00-3.10461E-02-1.43153E+00
 -1        80 6.35070E+02 1.07306E-02-1.18122E-01 3.69067E+00 2.37516E-01-1.59299E+00
 -1        81 5.99952E+02-1.94173E-01-1.96257E-02 2.33259E+00 1.87743E-01-1.66784E+00
 -1        82 5.65190E+02-1.33718E-02-2.22477E-01 2.36821E+00 5.55369E-02-1.60397E+00
 -1        83 5.29233E+02-4.21202E-02 2.44120E-01 3.76226E+00-2.31743E-01-1.53820E+00
 -1        84 4.94046E+02 1.22144E-01 1.19131E-01 2.35560E+00-1.74991E-01-1.46285E+00
 -1        85 4.59215E+02-5.19683E-02-3.27787E-01 3.71863E+00 2.28923E-01-1.52491E+00
 -1        86 4.23228E+02 9.67539E-02 2.74157E-01 2.31078E+00-3.98998E-02-1.66930E+00
 -1        87 3.87818E+02 1.00351E-02 1.17511E-01 3.18219E+00 2.38931E-03-1.49209E+00
 -1        88 3.53350E+02-6.05212E-02-5.78563E-02 3.16739E+00 1.53943E-02-1.46780E+00
 -1        89 3.17463E+02-8.10653E-02-5.48632E-02 2.34402E+00 1.68126E-01-1.57528E+00
 -1        90 2.82693E+02 2.53215E-02-8.94736E-02 3.33032E+00 1.58770E-02-1.41230E+00
 -1        91 2.47260E+02 1.37161E-02-1.62669E-01 3.50879E+00 5.54613E-02-1.53125E+00
 -1        92 2.11531E+02-3.15781E-02 2.13488E-01 3.43459E+00-3.15556E-02-1.50447E+00
 -1        93 1.76288E+02-3.33619E-02-4.09845E-02 2.39136E+00 1.76603E-01-1.49608E+00
 -1        94 1.41224E+02 6.29364E-02-2.21595E-01 3.75088E+00 1.65746E-01-1.51778E+00
 -1        95 1.05851E+02-2.15603E-01-4.13768E-02 2.32060E+00 1.90788E-01-1.67552E+00
 -1        96 7.12071E+01-6.17140E-02-2.31754E-01 2.08815E+00 7.80261E-02-1.32634E+00
 -1        97 3.93183E+01 1.14930E+00-9.77008E-02-2.80045E-01 2.41361E-01-5.35698E-01
 -1        98 1.17498E+03 3.01387E+01 3.18468E+01-6.31676E-01 6.40807E+00 8.83799E+01
 -1        99 1.09437E+03-4.23275E-02 6.14143E-01-6.51252E+00 6.48420E+00 4.66862E+00
 -1       100 1.09603E+03-6.18103E-01-2.15509E-01 6.81072E-01-4.94604E-01-2.43875E+00
 -1       101 1.07218E+03-2.38532E-01 1.20222E-02 2.98165E+00-5.03073E-02-2.01989E+00
 -1       102 1.04141E+03 1.60885E-01 2.89178E-01 3.06021E+00-3.98753E-01-1.94319E+00
 -1       103 1.00453E+03-4.38363E-01-5.71942E-01 3.17466E+00 1.52709E-01-1.72188E+00
 -1       104 9.71174E+02 2.53408E-02 2.94417E-02 3.22724E+00-1.02057E-01-1.73893E+00
 -1       105 9.35322E+02-9.21612E-02-1.13737E-01 2.67726E+00 2.31480E-01-1.88064E+00
 -1       106 8.99301E+02-4.03701E-01-2.38840E-01 3.16813E+00 5.00065E-02-1.70732E+00
 -1       107 8.65014E+02 1.35811E-01 2.61177E-01 3.59505E+00-1.40942E-01-1.77158E+00
 -1       108 8.29756E+02 1.32445E-01 1.48951E-01 3.00403E+00-1.67298E-01-1.75548E+00
 -1       109 7.93787E+02-5.51795E-01-5.35893E-01 2.67255E+00-3.08681E-03-1.64144E+00
 -1       110 7.58072E+02-4.41047E-01-2.43036E-01 3.15134E+00 3.73054E-02-1.70567E+00
 -1       111 7.24661E+02 7.16515E-01 7.46537E-01 3.11401E+00-1.25341E-01-1.74237E+00
 -1       112 6.87834E+02-8.33144E-02-1.25840E-01 2.96763E+00 1.15869E-01-1.75635E+00
 -1       113 6.52446E+02-1.55362E-01-2.66794E-01 3.59849E+00 1.39547E-01-1.76423E+00
 -1       114 6.18210E+02 3.73641E-02 6.55507E-02 3.22295E+00-8.27832E-02-1.77116E+00
 -1       115 5.82422E+02-7.86810E-02-9.78524E-02 2.69574E+00 2.42434E-01-1.87507E+00
 -1       116 5.46296E+02-4.04131E-01-2.36954E-01 3.21366E+00 8.48555E-02-1.70693E+00
 -1       117 5.12679E+02 2.40383E-01 2.98198E-01 3.10051E+00-3.86251E-01-1.83680E+00
 -1       118 4.75411E+02-1.71193E-01-3.65147E-01 3.17731E+00 2.06099E-01-1.77600E+00
 -1       119 4.42025E+02 4.20030E-01 2.56195E-01 3.21108E+00-3.66598E-02-1.65992E+00
 -1       120 4.05672E+02 2.47509E-02 1.76025E-01 3.16265E+00 5.04099E-02-1.74101E+00
 -1       121 3.70569E+02-6.15556E-03 2.42862E-02 3.26097E+00 1.94299E-02-1.85693E+00
 -1       122 3.35809E+02 2.87590E-01 2.24320E-01 3.00740E+00-8.06462E-04-1.61810E+00
 -1       123 2.99529E+02-1.91276E-01-1.73032E-01 2.95167E+00 3.32972E-01-1.85726E+00
 -1       124 2.64503E+02-7.70003E-02-1.98375E-01 3.50063E+00 2.98853E-02-1.79702E+00
 -1       125 2.29368E+02-4.45838E-03-1.00676E-02 3.71017E+00 6.93181E-03-1.83898E+00
 -1       126 1.95034E+02 4.28487E-01 5.51636E-01 3.08778E+00-6.40493E-02-1.75893E+00
 -1       127 1.57835E+02-2.04645E-01-2.82998E-01 3.11749E+00 4.24899E-01-1.88292E+00
 -1       128 1.24250E+02 1.26391E-01 5.80465E-02 3.22112E+00-1.28522E-01-1.72679E+00
 -1       129 8.83842E+01-3.02608E-02-1.21606E-01 2.48013E+00 2.13857E-01-1.76443E+00
 -1       130 5.40918E+01-2.83316E-01-4.50415E-01 1.64971E+00-1.70472E-01-9.80141E-01
 -1       131 2.45958E+01-2.52349E+00 4.34357E-01 2.10825E+00-7.11001E-01-4.02929E-02
 -1       132 1.03875E+03-3.02929E+01-3.06612E+01-3.86243E+01 6.08373E+00 8.49265E+00
 -1       133 1.10071E+03-1.30334E+00-3.54956E+00-1.21142E+00-2.50723E-02 2.11728E+00
 -1       134 1.08662E+03-4.27217E-01-1.06472E-01 2.33143E+00-4.49717E-01 2.31020E+00
 -1       135 1.05694E+03-1.07134E-01 2.06546E-01 3.50304E+00-9.99307E-02 1.73382E+00
 -1       136 1.02321E+03-1.17315E-01 2.69523E-03 2.30617E+00-2.12048E-01 1.51859E+00
 -1       137 9.88290E+02 5.64861E-02-5.55748E-02 3.52836E+00-6.13816E-03 1.42903E+00
 -1       138 9.52829E+02-1.13657E-01-3.14510E-02 2.30165E+00-1.48084E-01 1.51365E+00
 -1       139 9.17767E+02-9.00067E-02-2.91804E-01 3.81685E+00-2.36998E-01 1.50602E+00
 -1       140 8.81943E+02 1.39169E-01 3.26554E-01 2.19921E+00 2.35395E-02 1.62909E+00
 -1       141 8.47135E+02-9.38733E-02-7.32763E-02 2.27789E+00-2.02813E-01 1.47767E+00
 -1       142 8.12109E+02 2.22121E-02-1.42357E-01 3.34405E+00-5.57971E-03 1.38784E+00
 -1       143 7.76456E+02-6.24452E-02-2.39503E-01 3.69151E+00-2.74911E-01 1.57939E+00
 -1       144 7.40841E+02 1.15440E-01 2.74543E-01 2.29379E+00 3.69489E-02 1.66015E+00
 -1       145 7.05611E+02 2.85092E-02 6.54966E-02 3.18998E+00 1.70832E-02 1.42618E+00
 -1       146 6.71280E+02-8.91106E-02-1.43801E-01 3.10678E+00-2.44747E-02 1.47925E+00
 -1       147 6.34683E+02 1.92586E-01 2.11110E-01 2.30621E+00 4.37405E-02 1.54860E+00
 -1       148 6.00582E+02-4.94312E-02-1.16298E-01 3.33441E+00-3.04571E-02 1.36974E+00
 -1       149 5.64923E+02 8.24239E-02-1.99950E-01 3.40632E+00-3.86449E-02 1.47006E+00
 -1       150 5.29015E+02 6.20621E-02 1.31644E-01 3.28147E+00 4.24302E-02 1.49749E+00
 -1       151 4.94566E+02-1.79997E-01-2.51115E-01 2.21709E+00-5.59447E-02 1.48704E+00
 -1       152 4.59028E+02 1.32041E-01-9.84054E-02 3.64785E+00 7.78510E-02 1.56411E+00
 -1       153 4.23271E+02-7.41487E-02 1.70903E-01 3.42994E+00 2.53668E-02 1.48921E+00
 -1       154 3.87720E+02 8.92133E-02 1.62180E-01 3.26433E+00 1.61386E-02 1.43924E+00
 -1       155 3.53424E+02-1.73732E-01-2.03408E-01 2.33739E+00 1.19402E-02 1.44115E+00
 -1       156 3.17579E+02 3.77406E-02-2.10786E-01 3.67453E+00-2.22949E-01 1.62925E+00
 -1       157 2.81829E+02 9.78665E-02 2.80542E-01 2.21946E+00 6.28556E-02 1.52367E+00
 -1       158 2.47568E+02-1.62042E-01-2.41004E-01 2.28330E+00-9.38043E-02 1.53086E+00
 -1       159 2.11413E+02-2.92908E-02 1.89329E-01 3.65200E+00 1.17435E-02 1.48323E+00
 -1       160 1.76360E+02-8.74236E-02 2.72025E-02 2.31273E+00-1.71179E-01 1.52388E+00
 -1       161 1.41519E+02-5.47032E-02-1.55022E-01 3.57050E+00-7.52343E-02 1.42767E+00
 -1       162 1.05402E+02 5.05761E-02 1.60357E-01 2.35141E+00 5.53961E-02 1.54444E+00
 -1       163 7.09168E+01 7.39292E-02 2.04582E-02 1.99395E+00 1.46407E-01 1.31495E+00
 -1       164 3.94832E+01 1.12602E+00-7.29283E-02-3.09187E-01-2.26990E-01 6.16678E-01
 -1       165 1.17467E+03 3.02342E+01 3.12648E+01-6.60499E-01-6.57820E+00-8.74654E+01
 -1       166 1.09427E+03-2.67299E-01 3.30786E-01-6.52074E+00-6.53156E+00-4.75969E+00
 -1       167 1.09601E+03-7.72740E-01-5.51865E-01 1.26636E+00 4.50835E-01 2.55188E+00
 -1       168 1.07216E+03-4.09832E-01-5.50232E-02 3.19576E+00-2.60996E-01 2.19815E+00
 -1       169 1.04125E+03 2.48721E-01 5.11341E-01 3.04882E+00 5.16003E-02 1.84159E+00
 -1       170 1.00523E+03-1.04141E-01-1.42948E-01 3.05908E+00-3.79362E-01 1.87075E+00
 -1       171 9.71330E+02 3.00191E-01 3.50771E-01 3.07041E+00 1.48715E-01 1.64062E+00
 -1       172 9.34366E+02-2.56860E-01-2.89723E-01 3.14570E+00-4.59620E-01 1.92959E+00
 -1       173 9.00753E+02 5.06893E-01 2.80299E-01 3.17632E+00 5.49929E-02 1.63535E+00
 -1       174 8.65009E+02 2.23047E-01 3.12365E-01 2.61515E+00-3.35100E-02 1.65296E+00
 -1       175 8.29077E+02-1.98666E-01-1.55118E-01 2.91446E+00-3.33593E-01 1.82235E+00
 -1       176 7.93622E+02-1.26869E-01-2.62116E-01 3.60465E+00-1.31886E-01 1.82047E+00
 -1       177 7.59490E+02 4.34910E-01 2.51370E-01 3.17374E+00 1.73080E-02 1.71769E+00
 -1       178 7.23286E+02 1.69860E-02 1.69703E-01 3.11182E+00-8.20387E-02 1.72763E+00
 -1       179 6.88351E+02 1.10129E-03-2.63829E-02 3.19996E+00 2.30888E-02 1.84591E+00
 -1       180 6.53485E+02 5.45920E-01 4.18424E-01 2.98953E+00-9.63742E-03 1.59671E+00
 -1       181 6.17113E+02-1.24114E-01-1.35615E-01 3.00813E+00-1.63860E-01 1.78508E+00
 -1       182 5.82294E+02-5.23922E-02-2.09679E-01 3.51160E+00-4.09469E-02 1.76520E+00
 -1       183 5.47167E+02 8.67908E-02 5.08225E-02 3.52009E+00 1.73089E-02 1.73560E+00
 -1       184 5.12059E+02-8.01325E-02 5.41317E-02 3.01973E+00 9.01433E-02 1.79081E+00
 -1       185 4.75757E+02-5.28633E-01-6.15841E-01 3.04899E+00-6.47947E-02 1.74369E+00
 -1       186 4.41336E+02 5.19770E-02 7.17276E-02 3.69802E+00 9.68562E-02 1.85021E+00
 -1       187 4.05971E+02 9.47292E-02 2.29632E-01 3.50245E+00 4.93067E-02 1.78971E+00
 -1       188 3.71104E+02 7.79408E-02 1.34141E-01 2.99207E+00 1.42768E-01 1.75386E+00
 -1       189 3.34183E+02-7.38504E-01-7.55747E-01 3.15950E+00-1.22660E-01 1.75427E+00
 -1       190 3.00609E+02 3.94078E-01 2.41412E-01 3.12801E+00 6.61011E-02 1.68376E+00
 -1       191 2.64812E+02 9.45066E-03 7.66745E-03 2.67228E+00 2.73558E-02 1.67276E+00
 -1       192 2.28643E+02-5.52271E-01-4.24808E-01 3.14245E+00-1.65739E-01 1.69965E+00
 -1       193 1.94947E+02 2.93438E-01 5.25444E-01 3.08794E+00 1.18757E-01 1.73599E+00
 -1       194 1.58323E+02-1.12455E-01-1.91938E-01 3.05240E+00-3.95810E-01 1.91046E+00
 -1       195 1.24213E+02 5.06275E-01 4.16504E-01 3.11058E+00 1.44286E-01 1.67990E+00
 -1       196 8.81876E+01 2.20886E-02 3.64074E-02 2.45238E+00 2.14178E-01 1.58843E+00
 -1       197 5.41490E+01-9.17734E-02-2.08909E-01 1.65440E+00 1.84867E-01 9.74654E-01
 -1       198 2.48815E+01-2.30241E+00 6.71694E-01 2.00613E+00 5.18167E-01 6.91792E-02
 -1       199-1.03910E+03 2.96458E+01 3.06239E+01-3.86549E+01-6.33317E+00 8.42755E+00
 -1       200-1.10099E+03 1.14300E+00 3.40528E+00-1.39155E+00-1.03131E-01 1.84698E+00
 -1       201-1.08676E+03 4.64379E-01 8.54542E-02 2.33064E+00 5.09166E-01 2.44708E+00
 -1       202-1.05709E+03-1.84604E-01-2.32203E-01 2.22641E+00-2.73185E-02 1.71428E+00
 -1       203-1.02284E+03-1.51184E-01-1.92237E-01 2.31781E+00-4.31888E-02 1.44278E+00
 -1       204-9.88305E+02-1.06748E-01-8.19586E-02 2.32411E+00-1.52485E-01 1.52465E+00
 -1       205-9.53366E+02-3.66193E-02 5.14942E-02 3.27066E+00 3.95665E-02 1.35859E+00
 -1       206-9.17473E+02 1.55339E-02 1.70254E-01 3.69426E+00 2.48344E-01 1.53991E+00
 -1       207-8.82373E+02 1.51527E-01 8.36174E-03 2.24910E+00 2.52963E-01 1.75637E+00
 -1       208-8.47157E+02-2.67223E-03-9.47229E-03 2.29464E+00 1.59181E-01 1.49525E+00
 -1       209-8.12070E+02-3.87073E-02 1.38824E-01 3.29259E+00-1.54666E-03 1.38772E+00
 -1       210-7.76513E+02 5.95142E-02 2.44811E-01 3.64445E+00 2.76463E-01 1.57005E+00
 -1       211-7.40748E+02-2.69878E-02-2.27729E-01 2.31853E+00-5.24817E-02 1.59152E+00
 -1       212-7.06152E+02-1.23446E-01 1.28768E-02 2.22266E+00-1.76553E-01 1.58134E+00
 -1       213-6.70177E+02-1.84686E-01-3.12937E-01 2.09183E+00-9.17508E-02 1.58484E+00
 -1       214-6.35297E+02 9.25114E-02 5.50235E-02 2.24924E+00 2.02293E-01 1.45597E+00
 -1       215-6.00361E+02-1.23482E-02 8.50015E-02 3.34881E+00 2.07810E-02 1.38053E+00
 -1       216-5.64747E+02-3.68248E-02 1.59991E-01 3.49571E+00 7.27556E-02 1.47414E+00
 -1       217-5.29398E+02 1.42965E-01 8.38152E-02 2.33657E+00 1.95469E-01 1.68622E+00
 -1       218-4.94214E+02 1.10051E-01 1.98598E-01 2.27226E+00 2.27629E-01 1.38957E+00
 -1       219-4.58817E+02-1.70647E-01-1.94048E-01 2.32258E+00-2.14458E-01 1.46554E+00
 -1       220-4.23876E+02-9.69762E-03 5.95089E-02 3.26465E+00 5.53793E-02 1.44737E+00
 -1       221-3.88556E+02-5.45418E-03 1.60329E-01 3.38088E+00 8.75568E-03 1.50846E+00
 -1       222-3.53206E+02-2.99207E-02 8.23162E-02 3.27714E+00 2.89065E-02 1.45752E+00
 -1       223-3.17421E+02-1.59247E-02 1.22108E-01 3.70151E+00 2.32677E-01 1.59878E+00
 -1       224-2.82251E+02 2.05470E-01 1.98749E-02 2.33068E+00 1.82712E-01 1.64955E+00
 -1       225-2.47410E+02 6.98384E-02 2.57335E-01 2.35611E+00 1.10111E-01 1.54991E+00
 -1       226-2.11879E+02 1.49177E-01 4.45043E-02 2.25511E+00 2.30409E-01 1.65782E+00
 -1       227-1.75944E+02-2.63229E-01-3.18695E-01 2.24679E+00-1.09276E-01 1.36426E+00
 -1       228-1.41451E+02 1.77351E-01 2.42417E-01 2.25770E+00 1.85427E-01 1.53836E+00
 -1       229-1.05813E+02 1.34251E-01 7.46335E-02 2.27342E+00 1.61905E-01 1.54227E+00
 -1       230-7.10877E+01 8.94683E-02 1.61944E-01 2.05705E+00 1.04682E-01 1.33724E+00
 -1       231-3.95765E+01-1.21665E+00 1.57382E-01-2.18551E-01 2.84319E-01 6.90886E-01
 -1       232-1.17403E+03-3.01393E+01-3.17792E+01-6.52869E-01 2.47329E+00-8.83045E+01
 -1       233-1.09405E+03 9.26712E-01 4.56165E-01-6.01416E+00 4.61782E+00-5.49251E+00
 -1       234-1.09712E+03 2.36369E-01 4.40648E-01 1.68719E+00 1.40509E+00 1.93564E+00
 -1       235-1.07263E+03-5.35647E-02-2.75403E-01 2.64087E+00 1.45944E-01 2.11162E+00
 -1       236-1.04076E+03-5.28627E-01-5.38170E-01 2.60876E+00-3.87813E-02 1.64802E+00
 -1       237-1.00581E+03-1.10198E-01-1.32914E-01 2.57308E+00-1.73540E-01 1.63494E+00
 -1       238-9.70091E+02 3.15050E-01 3.24011E-01 2.96770E+00 6.19984E-02 1.71710E+00
 -1       239-9.34800E+02 1.20432E-01 2.54431E-01 3.56267E+00 1.45170E-01 1.78680E+00
 -1       240-9.00679E+02-1.20590E-01-7.59398E-02 3.17613E+00-6.23440E-02 1.76760E+00
 -1       241-8.65051E+02-1.70360E-01-1.91361E-01 2.48141E+00 3.05386E-01 1.79224E+00
 -1       242-8.29033E+02 1.44680E-01 1.23672E-01 2.89045E+00 3.24556E-01 1.83334E+00
 -1       243-7.93625E+02 1.24545E-01 2.68431E-01 3.54244E+00 1.28550E-01 1.82403E+00
 -1       244-7.59526E+02-3.93593E-01-2.28286E-01 3.13869E+00-4.46420E-02 1.70970E+00
 -1       245-7.23633E+02-8.73915E-02-4.35776E-02 2.61442E+00-2.42183E-01 1.82205E+00
 -1       246-6.88254E+02-3.15113E-01-2.02205E-01 2.41009E+00-5.86906E-02 1.45014E+00
 -1       247-6.53152E+02-1.75414E-01-3.20742E-01 2.52442E+00 6.13469E-02 1.59488E+00
 -1       248-6.17225E+02 2.26799E-01 1.65161E-01 2.90346E+00 3.34571E-01 1.81724E+00
 -1       249-5.82076E+02 5.30769E-02 2.05559E-01 3.50497E+00 4.22843E-02 1.75302E+00
 -1       250-5.47609E+02-2.23277E-01-1.73597E-01 3.16293E+00-9.63612E-02 1.75756E+00
 -1       251-5.11868E+02 3.70294E-02 7.90440E-02 2.59048E+00 2.82606E-01 1.66697E+00
 -1       252-4.76554E+02-8.11614E-02-6.45227E-02 2.40437E+00 8.77083E-04 1.58380E+00
 -1       253-4.40588E+02 3.25543E-01 2.81094E-01 2.99303E+00 4.67989E-02 1.71786E+00
 -1       254-4.05829E+02 9.20786E-02 2.12201E-01 3.45686E+00 2.38575E-02 1.81619E+00
 -1       255-3.70655E+02 5.12684E-02 1.34477E-01 3.50340E+00-1.57887E-02 1.84033E+00
 -1       256-3.34701E+02 1.31286E-01 2.71872E-01 3.59941E+00 1.39200E-01 1.82218E+00
 -1       257-3.00548E+02-4.36634E-02-6.84478E-02 3.22557E+00-8.16030E-02 1.76640E+00
 -1       258-2.64692E+02 6.84887E-02 1.09097E-01 2.67286E+00 2.12320E-01 1.84000E+00
 -1       259-2.29419E+02 2.47891E-01 2.49655E-01 2.53951E+00 1.01978E-01 1.46188E+00
 -1       260-1.94317E+02-3.81475E-01-3.97652E-01 2.47997E+00 2.21208E-01 1.64798E+00
 -1       261-1.58690E+02-4.52987E-02-6.68418E-02 2.63164E+00 2.22709E-04 1.57091E+00
 -1       262-1.23514E+02 2.36767E-01 2.57485E-01 2.49447E+00 1.59551E-01 1.55790E+00
 -1       263-8.82830E+01 1.09789E-01 7.69356E-02 2.45634E+00 1.99136E-01 1.58103E+00
 -1       264-5.41308E+01 1.39364E-01 3.51137E-01 1.71961E+00-5.59996E-02 1.14723E+00
 -1       265-2.48176E+01 2.33161E+00-4.02716E-01 2.11503E+00-7.56106E-01 9.71821E-02
 -1       266-1.03888E+03 2.98678E+01 3.06476E+01-3.85441E+01 6.00995E+00-8.19626E+00
 -1       267-1.10090E+03 1.31159E+00 3.43972E+00-1.43986E+00 3.38017E-03-1.78542E+00
 -1       268-1.08737E+03 8.80587E-02 6.34169E-01 2.26491E+00-3.88636E-01-1.75382E+00
 -1       269-1.05712E+03 1.15738E-01-2.67920E-01 3.36245E+00 3.09939E-02-1.67524E+00
 -1       270-1.02274E+03-2.06520E-01-1.74481E-01 2.33200E+00-9.16220E-03-1.45649E+00
 -1       271-9.88327E+02 8.14653E-02 2.17729E-01 3.77428E+00-2.05893E-01-1.45222E+00
 -1       272-9.52845E+02 1.97683E-01 2.22311E-02 2.34693E+00-1.87529E-01-1.67513E+00
 -1       273-9.18113E+02 3.49818E-02 2.41253E-01 2.38504E+00-6.32995E-02-1.60099E+00
 -1       274-8.82281E+02-5.57593E-02-2.26321E-01 3.69081E+00 2.71582E-01-1.57259E+00
 -1       275-8.46478E+02-3.44812E-02-1.80321E-01 3.32161E+00 1.06557E-02-1.35193E+00
 -1       276-8.12111E+02 2.55732E-01 2.77255E-01 2.32819E+00-4.99625E-02-1.42720E+00
 -1       277-7.76264E+02-1.87665E-01-5.70748E-02 2.31503E+00 2.27180E-01-1.73112E+00
 -1       278-7.41450E+02 5.18180E-02-1.76192E-01 3.65256E+00 2.09130E-01-1.58915E+00
 -1       279-7.05479E+02-1.82970E-01-2.05779E-01 2.32158E+00-8.94840E-03-1.41025E+00
 -1       280-6.71207E+02 7.23828E-02 1.88028E-01 3.25027E+00 1.37444E-02-1.39107E+00
 -1       281-6.35293E+02 3.79810E-02 2.29193E-01 3.68685E+00-2.60798E-01-1.58465E+00
 -1       282-5.99422E+02-9.87582E-02-3.13731E-01 2.23756E+00 8.33497E-02-1.52906E+00
 -1       283-5.65173E+02 7.82577E-02 2.94267E-01 2.16860E+00-7.20698E-02-1.46915E+00
 -1       284-5.29474E+02 2.10377E-01 6.01243E-02 2.32908E+00-1.75722E-01-1.56976E+00
 -1       285-4.94136E+02-8.08989E-02-8.37127E-02 2.22911E+00 1.86940E-01-1.42528E+00
 -1       286-4.58901E+02-4.83072E-02 1.31690E-01 3.48141E+00-8.09119E-02-1.48109E+00
 -1       287-4.23636E+02 1.50218E-01 1.10204E-01 2.36640E+00-1.79966E-01-1.65559E+00
 -1       288-3.87687E+02-1.21559E-01-1.51187E-01 3.27489E+00 6.20736E-02-1.42999E+00
 -1       289-3.53438E+02 1.76365E-02 1.21717E-01 3.13200E+00 2.43573E-03-1.51368E+00
 -1       290-3.17453E+02 7.58952E-02 5.68920E-02 2.34171E+00-1.62356E-01-1.58435E+00
 -1       291-2.82697E+02-2.81852E-02 8.98782E-02 3.32646E+00-1.65133E-02-1.40834E+00
 -1       292-2.47250E+02-1.22967E-02 1.51721E-01 3.53330E+00-5.71810E-02-1.55142E+00
 -1       293-2.11484E+02 4.16891E-02-1.93064E-01 3.49744E+00 4.26113E-02-1.47258E+00
 -1       294-1.76332E+02 5.39129E-02 1.95435E-02 2.37099E+00-1.68130E-01-1.49758E+00
 -1       295-1.41651E+02-3.10722E-02 1.96281E-01 3.48194E+00 3.24970E-02-1.46585E+00
 -1       296-1.05900E+02 4.24172E-02-1.38410E-02 3.29867E+00-2.65782E-02-1.43911E+00
 -1       297-7.07389E+01-1.28866E-01 1.20740E-01 3.07694E+00-3.13178E-02-1.10631E+00
 -1       298-3.94114E+01-1.10603E+00 9.11417E-02-2.60883E-01-2.90805E-01-5.54419E-01
 -1       299-1.17447E+03-3.19367E+01-3.08445E+01 4.72436E-01-4.97388E+00 8.73755E+01
 -1       300-1.09383E+03 8.23129E-01-8.23626E-02-6.05313E+00-4.83090E+00 5.70634E+00
 -1       301-1.09688E+03 2.90262E-01 4.35223E-01 1.42522E+00-1.30310E+00-1.44914E+00
 -1       302-1.07242E+03 4.69520E-01 2.60699E-01 3.05635E+00-3.93578E-01-1.92835E+00
 -1       303-1.04132E+03-6.23585E-01-6.90702E-01 3.01806E+00 5.43063E-02-1.78316E+00
 -1       304-1.00472E+03 1.44656E-01 2.13128E-01 3.20512E+00-2.83044E-01-1.76862E+00
 -1       305-9.71349E+02-9.28285E-02-9.97726E-02 3.26249E+00 1.22744E-01-1.68379E+00
 -1       306-9.35315E+02 9.32675E-02 1.10717E-01 2.70552E+00-2.37922E-01-1.88224E+00
 -1       307-8.99295E+02 4.05844E-01 2.40448E-01 3.19220E+00-5.11420E-02-1.71047E+00
 -1       308-8.65052E+02-1.42668E-01-2.64433E-01 3.61133E+00 1.44072E-01-1.78104E+00
 -1       309-8.29809E+02-8.48343E-02-9.37411E-02 3.03292E+00 1.45051E-01-1.73284E+00
 -1       310-7.93774E+02 4.65164E-01 4.18506E-01 2.54695E+00 2.75268E-01-1.70890E+00
 -1       311-7.58103E+02 9.14720E-02 5.11299E-02 3.19337E+00-8.05737E-02-1.77584E+00
 -1       312-7.24772E+02-7.42154E-01-7.62738E-01 3.15138E+00 1.17174E-01-1.71078E+00
 -1       313-6.87816E+02 8.15539E-02 1.41766E-01 2.96860E+00-1.33418E-01-1.72147E+00
 -1       314-6.52555E+02 1.58188E-01 2.87310E-01 3.58113E+00-1.44680E-01-1.78026E+00
 -1       315-6.18231E+02-4.01450E-01-2.55017E-01 3.13790E+00 5.19443E-02-1.67442E+00
 -1       316-5.82285E+02-5.34024E-02 5.23695E-03 2.72551E+00 1.33478E-02-1.70305E+00
 -1       317-5.47181E+02 2.51908E-01 1.98456E-01 2.45891E+00 6.64513E-03-1.35844E+00
 -1       318-5.11738E+02 2.35792E-01 1.36994E-01 2.45027E+00 3.20926E-02-1.76501E+00
 -1       319-4.75526E+02 5.00043E-01 4.86344E-01 3.03841E+00-1.18771E-01-1.68173E+00
 -1       320-4.41903E+02-1.99818E-01-2.06330E-01 3.16413E+00 1.20529E-01-1.76018E+00
 -1       321-4.05468E+02 1.22071E-01 1.75383E-03 3.02674E+00-2.25371E-01-1.72371E+00
 -1       322-3.70563E+02-4.60004E-02-7.04241E-03 3.26602E+00 4.52129E-02-1.87406E+00
 -1       323-3.35771E+02-2.46482E-01-1.82168E-01 3.01822E+00 3.32071E-04-1.63900E+00
 -1       324-2.99528E+02 1.89264E-01 1.73576E-01 2.94854E+00-3.33257E-01-1.85616E+00
 -1       325-2.64514E+02 6.88308E-02 1.89412E-01 3.50901E+00-2.83353E-02-1.80200E+00
 -1       326-2.29298E+02 3.13840E-02 2.12179E-02 3.74679E+00-2.80284E-02-1.85278E+00
 -1       327-1.94995E+02-4.04399E-01-5.46769E-01 3.09072E+00 9.94361E-02-1.74447E+00
 -1       328-1.58200E+02 2.06017E-01 2.52478E-01 2.99925E+00-3.40530E-01-1.88594E+00
 -1       329-1.23713E+02-6.72687E-02 2.52756E-02 3.56878E+00 2.91043E-02-1.78978E+00
 -1       330-8.81970E+01-5.35697E-03 7.82435E-02 3.29880E+00-7.83594E-02-1.64235E+00
 -1       331-5.46321E+01-2.68664E-01-4.00105E-02 2.10502E+00 3.12989E-01-1.05632E+00
 -1       332-2.48309E+01 2.15205E+00-6.92216E-01 1.93622E+00 4.89892E-01-1.19942E-01
 -1       333-5.71272E+02-2.29112E+02-2.37362E+02 3.65057E+01-1.95009E+00 3.17366E+01
 -1       334 6.07982E+02 2.38233E+02 2.49438E+02 4.45840E+01-1.25238E+00-3.17157E+01
 -1       335-2.87211E+02-1.23630E+02-1.15115E+02-3.76427E+01 3.41881E+00-4.89579E+01
 -1       336 5.89572E+02 2.50064E+02 2.52042E+02 2.62285E+01-7.44364E-01 3.83738E+01
 -1       337 2.01728E+02 8.28023E+01 8.62095E+01-1.49186E+01 6.41465E-01-1.58330E-01
 -1       338 2.36301E+02 8.23859E+01 9.10316E+01-4.38142E+01 1.28561E+00-2.74201E+01
 -1       339-6.38786E+02-2.55992E+02-2.75610E+02 4.64971E+01-3.33654E+00-4.05986E+01
 -1       340 2.40095E+02 8.37845E+01 9.22534E+01-4.53523E+01-7.58073E-01 2.84740E+01
 -1       341-2.69940E+02-1.16887E+02-1.08422E+02-4.34151E+01-3.79943E+00 5.07231E+01
 -1       342-1.55280E+02-5.54386E+01-5.99485E+01-2.51962E+01-3.53157E+00 7.44767E+00
 -1       343 6.79478E+02 2.44004E+02 2.60479E+02 3.21347E+01-3.16537E+00-1.08684E+02
 -1       344-6.63112E+02-2.72747E+02-2.72589E+02 2.37475E+01-7.02936E+00-1.07482E+02
 -1       345 6.78252E+02 2.44639E+02 2.61653E+02 3.10087E+01 2.71942E+00 1.08956E+02
 -1       346-6.71276E+02-2.55728E+02-2.71159E+02 3.61245E+01 2.39235E+00 1.07564E+02
 -1       347-2.21299E+02-7.94612E+01-8.97715E+01-1.57814E+01 3.00608E+00-8.35495E+00
 -1       348 1.04097E+03 3.91136E+02 4.07483E+02 8.75269E+01-2.52112E+01-2.11337E+02
 -1       349 9.84046E+02 4.15439E+02 4.11699E+02 1.70611E+02 4.60077E+00-1.13928E+02
 -1       350 7.16393E+02 2.88924E+02 2.94580E+02-5.48479E+01 9.39487E+00-1.64259E+02
 -1       351 9.84772E+02 4.15589E+02 4.12248E+02 1.70460E+02-4.80467E+00 1.12815E+02
 -1       352 1.04107E+03 3.91298E+02 4.07339E+02 8.75046E+01 2.52310E+01 2.10951E+02
 -1       353 7.17687E+02 2.89264E+02 2.95154E+02-5.49237E+01-9.33791E+00 1.64401E+02
 -1       354-1.03713E+03-3.90468E+02-4.07900E+02 8.94907E+01-2.43930E+01 2.09819E+02
 -1       355-6.98423E+02-2.99325E+02-2.99326E+02-3.68049E+01 2.32382E-05 1.65347E+02
 -1       356-9.86118E+02-4.15945E+02-4.13064E+02 1.71974E+02 4.98156E+00 1.13866E+02
 -1       357-1.03074E+03-3.92948E+02-4.05715E+02 8.18738E+01 2.28405E+01-2.08806E+02
 -1       358-9.55747E+02-4.09608E+02-4.09607E+02 1.50172E+02-3.87875E-05-1.18800E+02
 -1       359-6.96561E+02-2.98527E+02-2.98527E+02-3.94928E+01-2.21250E-05-1.67734E+02
 -1       360 9.29934E+02 3.98545E+02 3.98544E+02 1.48564E+02-1.69840E-05 2.53646E+01
 -1       361 9.23395E+02 3.95743E+02 3.95742E+02 1.46071E+02 5.18102E-05 7.40178E+01
 -1       362 6.47310E+02 2.56086E+02 2.72378E+02 3.17242E+01-2.42424E+00 6.61592E+01
 -1       363 9.25596E+02 3.96686E+02 3.96685E+02 1.57419E+02-2.02269E-07-7.25887E+01
 -1       364 9.58472E+02 4.06815E+02 4.06432E+02 1.71602E+02 2.53333E+00-1.64494E+01
 -1       365 6.01576E+02 2.43806E+02 2.53629E+02 3.95896E+01 3.05366E+00 7.25467E+00
 -1       366 6.56476E+02 2.50375E+02 2.73384E+02 3.92703E+01 2.16716E+00-6.26721E+01
 -1       367 1.23945E+02 4.90917E+01 4.57884E+01-1.03028E+02 5.45407E+00-1.71018E+01
 -1       368 4.46211E+02 1.91234E+02 1.91234E+02-7.75286E+01-3.66946E-05-9.94144E+01
 -1       369 4.87401E+02 2.02662E+02 1.92253E+02-2.32022E+01-3.38965E+00-6.88486E+01
 -1       370-5.00962E+02-2.09960E+02-2.19428E+02-7.59523E+01 2.06454E+00 1.26788E+02
 -1       371-1.61303E+02-6.91302E+01-6.91303E+01-1.01724E+02-3.63559E-05 4.45937E+01
 -1       372 8.65880E+00 1.04382E+00-3.70579E+00-5.74580E+01 1.34810E+00 1.23644E+01
 -1       373-4.76592E+02-2.01472E+02-1.94979E+02-1.82515E+01 8.62962E-01 7.93347E+01
 -1       374-9.70685E+02-4.15809E+02-4.16378E+02 1.70022E+02 1.21835E-01-8.15119E+01
 -1       375-9.58141E+02-4.10634E+02-4.10633E+02 1.64467E+02 1.79093E-05-2.88317E+01
 -1       376-6.66644E+02-2.62841E+02-2.79369E+02 3.61394E+01-2.51172E+00-6.74619E+01
 -1       377-9.30323E+02-3.96110E+02-3.95192E+02 1.66895E+02 1.69316E+00 1.71140E+01
 -1       378-8.98412E+02-3.85036E+02-3.85035E+02 1.50992E+02 5.08461E-06 7.27037E+01
 -1       379-6.03435E+02-2.38993E+02-2.51873E+02 4.47780E+01 3.55063E+00-8.24132E+00
 -1       380-6.35205E+02-2.45145E+02-2.66239E+02 3.59407E+01 1.60430E+00 6.19960E+01
 -1       381 4.49722E+02 1.92738E+02 1.92739E+02-7.91112E+01 3.71885E-05 1.00572E+02
 -1       382 1.26000E+02 4.98292E+01 4.64409E+01-1.04798E+02-5.42003E+00 1.81570E+01
 -1       383 4.88371E+02 2.03269E+02 1.92980E+02-2.43220E+01 3.34359E+00 7.00103E+01
 -1       384-1.69994E+02-7.28547E+01-7.28548E+01-9.83961E+01 3.71240E-05-4.38296E+01
 -1       385-5.04076E+02-2.10772E+02-2.20191E+02-7.27039E+01-2.61120E+00-1.26867E+02
 -1       386 6.69890E-02-2.29959E+00-6.96538E+00-5.56459E+01-1.09954E+00-1.13483E+01
 -1       387-4.80890E+02-2.03171E+02-1.95572E+02-1.73847E+01-7.62489E-01-7.77122E+01
 -1       388-4.45023E+02-1.90725E+02-1.90725E+02-1.38555E+00 3.40195E-05-2.44036E+01
 -1       389-4.07807E+02-1.73688E+02-1.71439E+02 8.51676E-01-1.42752E+00 6.24356E+00
 -1       390-4.58649E+02-1.96564E+02-1.96564E+02-1.55626E+01-3.59460E-05 3.80053E+01
 -1       391-3.77808E+02-1.61918E+02-1.61918E+02-9.25659E+00-1.21272E-05 1.88987E+01
 -1       392-2.05203E+02-8.79446E+01-8.79445E+01-3.93200E+01-3.30085E-05 2.63975E+01
 -1       393-1.90439E+02-7.96851E+01-8.18185E+01-1.41959E+01-1.91834E+00 2.03338E-01
 -1       394 4.21977E+02 1.77138E+02 1.73443E+02 2.70565E+00-2.41579E+00-1.10008E+01
 -1       395 4.12566E+02 1.76815E+02 1.76814E+02-1.90406E+00 1.68093E-05 1.81596E+01
 -1       396 4.48359E+02 1.92154E+02 1.92154E+02-1.19878E+01-2.99302E-05-3.28875E+01
 -1       397 1.99706E+02 8.55890E+01 8.55889E+01-2.96353E+01-6.91856E-06-1.63975E+01
 -1       398-5.01143E+02-2.14776E+02-2.14776E+02-9.60970E+00 4.08920E-05-4.24208E+01
 -1       399-2.50936E+02-1.07545E+02-1.07544E+02-3.36618E+01 4.39643E-05-2.48250E+01
 -1       400 1.29506E+01 6.58296E+00 1.33880E+01-4.00974E+01-1.98287E+00-1.70895E+00
 -1       401 2.01425E+02 8.63257E+01 8.63256E+01-3.21489E+01 2.13147E-05 1.67964E+01
 -1       402 4.33827E+02 1.85927E+02 1.85926E+02-1.28133E+01 4.94367E-05 3.55933E+01
 -1       403 4.74117E+01 1.86864E+01 2.94749E+01-4.19333E+01 1.14210E+00 2.62024E-01
 -1       404 1.93422E+01 1.47476E+01 1.18831E+01-2.38231E+01-3.17848E+00-3.86002E+00
 -1       405-2.17331E+01-2.06899E+00-3.71711E+00-2.54958E+01 5.22629E+00 2.64883E+00
 -1       406 2.84654E-02 1.03483E+01 1.68235E+00 2.31330E+01-3.37462E+00 7.05600E-02
 -1       407 9.71197E-02 1.03974E+01 1.55027E+00 2.31340E+01 3.51396E+00-9.82333E-02
 -1       408-6.83346E+00-2.60888E+01-9.05163E+00 2.36183E+01-6.05323E-01-1.85052E-01
 -1       409-9.60542E-01-1.45700E+01-2.21630E+00 2.34519E+01 3.58271E+00 7.95994E-02
 -1       410 3.76266E-01-1.25720E-01-9.52881E-02 2.56172E+01 1.16626E+00 2.76952E-02
 -1       411 6.21411E+00 2.40009E+01 8.83664E+00 2.40226E+01 5.54927E-01 2.80752E-02
 -1       412-1.33622E+00-1.60603E+01-2.31771E+00 2.35922E+01-3.72224E+00 2.63794E-01
 -1       413-5.88143E+00-2.40296E+01-8.85619E+00 2.34885E+01 5.76233E-01-8.90321E-02
 -1       414 6.48896E+00 2.58131E+01 9.24788E+00 2.28929E+01-5.05808E-01 1.27560E-01
 -1       415 9.19991E-01 1.19749E+01 3.14314E+00 2.53585E+01-8.62878E-01-3.78965E-01
 -1       416-5.02692E+00-2.70896E+01-5.50909E+00 2.22609E+01-6.55028E-01 1.18476E-01
 -1       417 5.42489E+00 2.36645E+01 5.20009E+00 2.14249E+01 6.93672E-01 4.05925E-01
 -1       418-5.51914E+00-2.37103E+01-5.29915E+00 2.14645E+01 9.17698E-01-3.72747E-01
 -1       419 3.99364E+00 2.52397E+01 5.09865E+00 2.12243E+01-7.50856E-01-3.81622E-01
 -1       420 1.54601E-01-8.10727E+00-2.25134E+00 2.54578E+01-1.19663E+00 2.64632E-01
 -1       421-9.71079E-01-2.36028E+01-5.63942E+00 1.77404E+01 3.33131E-01 2.75346E-01
 -1       422-1.14690E+00-2.22490E+01-2.94185E+00 1.60976E+01 5.10503E-01 6.79673E-01
 -1       423-3.11041E+00-2.91973E+01-3.49922E+00 2.28840E+01-1.34556E+00-1.14279E-01
 -1       424-1.75982E+00-2.08823E+01-3.20638E+00 1.59341E+01-6.92613E-01-6.68425E-01
 -1       425-2.14784E+00-2.22565E+01-5.46993E+00 1.73664E+01 4.70741E-02-2.94570E-01
 -1       426-1.80399E+00-2.44541E+01-2.61615E+00 2.14574E+01 2.08127E+00-7.42168E-01
 -1       427 1.70553E+00 2.41724E+01 2.47577E+00 2.12665E+01-1.79329E+00-5.16319E-01
 -1       428 1.48464E+00 2.23927E+01 3.38094E+00 1.57984E+01 7.42259E-01-7.66285E-01
 -1       429 9.25162E-01 2.36985E+01 5.62967E+00 1.76447E+01 4.71560E-01-4.03959E-01
 -1       430 2.12155E+00 2.22374E+01 5.40078E+00 1.73675E+01-3.19888E-02 3.14383E-01
 -1       431 1.75596E+00 2.07955E+01 3.15796E+00 1.59077E+01-7.90541E-01 6.64867E-01
 -1       432 1.69354E+00 2.42450E+01 2.53012E+00 2.14079E+01 1.99115E+00 7.62985E-01
 -1       433-2.15748E+00-2.29615E+01-8.44822E+00 1.86469E+01-3.68867E-02-4.50550E-02
 -1       434-3.18148E+00-2.27950E+01-9.20508E+00 1.80958E+01 7.84634E-02 6.07950E-02
 -1       435-6.30042E+00-2.48519E+01-7.70782E+00 2.27303E+01 4.48720E-01-1.65653E-01
 -1       436-1.29010E+00-2.15717E+01-8.95899E+00 1.79524E+01 8.13011E-02-4.22710E-01
 -1       437-3.30312E+00-2.27083E+01-7.87581E+00 1.76263E+01-1.65647E-01 1.72890E-02
 -1       438-6.03773E+00-2.43184E+01-9.53434E+00 2.33945E+01 2.28829E-01-1.09295E-01
 -1       439-6.35069E+00-2.63396E+01-8.17293E+00 2.25045E+01-1.12599E+00 2.11788E-01
 -1       440 2.42706E-01-1.86329E+01-1.10501E+00 2.20548E+01-3.13326E+00 6.81039E-01
 -1       441-9.89941E-01-8.04014E+00-1.02780E+00 2.21455E+01-4.05374E+00 7.47065E-03
 -1       442-2.28016E+00-2.27429E+01-4.05878E+00 2.27260E+01-2.45587E+00 2.91189E-01
 -1       443 7.86281E-01 5.43344E+00 1.36012E-01 2.19676E+01-4.07631E+00 2.94483E-01
 -1       444 6.75633E-01 2.01095E+01 2.10768E+00 2.11357E+01-3.03979E+00-4.26017E-01
 -1       445-1.58557E+00-2.29947E+00 1.66935E-02 2.30743E+01-3.76411E+00 8.33144E-02
 -1       446 1.40837E+00 2.16107E+01 4.15618E+00 2.17246E+01-2.04154E+00-1.95126E-01
 -1       447 3.41253E+00 2.27964E+01 9.24873E+00 1.83848E+01 2.81052E-02-6.92903E-02
 -1       448 2.26728E+00 2.29776E+01 8.48861E+00 1.89477E+01-9.15813E-03 5.94767E-02
 -1       449 6.31797E+00 2.49329E+01 7.64487E+00 2.30427E+01 4.22093E-01 1.58833E-01
 -1       450 2.93872E+00 2.22407E+01 7.85529E+00 1.70352E+01-6.63720E-02-2.45405E-02
 -1       451 1.02422E+00 2.10516E+01 8.86819E+00 1.74141E+01 1.21319E-01 4.95481E-01
 -1       452 6.18192E+00 2.42295E+01 9.59584E+00 2.33618E+01 3.12405E-01 5.91275E-02
 -1       453 6.01169E+00 2.64520E+01 7.91628E+00 2.23036E+01-1.22780E+00-3.65157E-01
 -1       454-1.14239E+00-7.47973E+00-9.04948E-01 2.23595E+01 4.02116E+00 1.29699E-01
 -1       455-3.09116E-01-2.01528E+01-1.75309E+00 2.15778E+01 3.15331E+00-2.96094E-01
 -1       456-1.44181E+00-2.22226E+01-4.42267E+00 2.24092E+01 2.26669E+00-2.06960E-01
 -1       457 7.47220E-01 1.99605E+01 1.88626E+00 2.12785E+01 3.15407E+00 3.62196E-01
 -1       458 8.61783E-01 5.63160E+00 1.02486E-01 2.20595E+01 4.17222E+00-2.84089E-01
 -1       459-1.09803E+00-1.13428E+00 2.61622E-01 2.31536E+01 3.63620E+00-1.60067E-02
 -1       460 1.82666E+00 2.23751E+01 4.51981E+00 2.21694E+01 2.05541E+00 2.05846E-01
 -1       461-1.45561E+00-1.26554E+01-3.11119E+00 2.49332E+01-2.78861E+00 5.08255E-01
 -1       462-1.12578E-01 7.35579E-01-3.08595E-02 2.42772E+01-2.99307E+00-1.23374E-01
 -1       463 1.54802E+00 1.26400E+01 3.80801E+00 2.49432E+01-2.55121E+00 2.12790E-01
 -1       464 2.69056E+00 2.19837E+01 7.10306E+00 2.38599E+01-1.06629E+00-3.80699E-01
 -1       465 2.57448E+00 2.29949E+01 6.11718E+00 2.34404E+01-2.10050E+00 2.64915E-01
 -1       466 9.80726E-01 2.22274E+00 4.64392E-01 2.56419E+01-8.54869E-01-4.07631E-01
 -1       467 1.29927E-01 4.51577E+00 1.01833E+00 2.45315E+01 2.64776E+00 1.99857E-01
 -1       468-1.12728E+00-7.03826E+00-1.85399E+00 2.47109E+01 2.78897E+00-2.17815E-01
 -1       469 2.34057E+00 2.09594E+01 5.72303E+00 2.41144E+01 1.99949E+00-4.18111E-01
 -1       470 3.23720E+00 1.39249E+01 4.49323E+00 2.46943E+01 1.55909E+00 3.38464E-01
 -1       471-2.69482E+00-2.35411E+01-5.48980E+00 2.38745E+01-2.00479E+00-1.11873E-01
 -1       472-2.64135E+00-2.06085E+01-6.36020E+00 2.42733E+01-1.36809E+00 2.56141E-01
 -1       473-2.64362E+00-1.85445E+01-6.02282E+00 2.44450E+01 1.74380E-02 3.43408E-02
 -1       474-2.67145E+00-1.43344E+01-4.77864E+00 2.45166E+01 1.67578E+00-3.15900E-01
 -1       475-2.05722E+00-2.13666E+01-5.44072E+00 2.39296E+01 1.77611E+00 1.79109E-01
 -1       476 2.74164E+00 1.92161E+01 6.14749E+00 2.45410E+01 1.62323E-01-1.28426E-01
 -1       477 1.56683E+00 7.18299E+00 1.85612E+00 2.58376E+01 1.00397E-01-2.79869E-01
 -1       478-6.93654E-01-5.82065E+00-1.40245E+00 2.61329E+01-1.45402E-01 3.20147E-01
 -1       479 3.70468E+02-6.93108E-02-1.09292E-01 5.23684E-01-1.71478E-02-2.53388E+00
 -1       480 2.29282E+02 4.70327E-02 1.73792E-01 1.08961E+00-8.77047E-02-2.28272E+00
 -1       481 8.95480E+01-1.25075E-01-1.98209E-01 1.35217E+00-7.44368E-02 2.32718E+00
 -1       482 5.10951E+02 7.07231E-01 1.80671E-01 1.07069E+00-5.95153E-02-2.54647E+00
 -1       483 4.40724E+02 2.48579E-01 3.00069E-01 1.07560E+00 1.41695E-01 2.27299E+00
 -1       484 2.99040E+02 8.53319E-01 5.59935E-01 2.88956E+00 3.89123E-01 1.33692E+00
 -1       485 1.60016E+02-8.56983E-01-1.45664E-01 9.06910E-01 3.61357E-02 2.57727E+00
 -1       486 5.82952E+02-6.29586E-02 2.08221E-01 1.01648E+00-4.14522E-02 2.39620E+00
 -1       487 1.00824E+03-7.27662E-01-3.43195E-01 9.39304E-01-4.84200E-02-2.52352E+00
 -1       488 9.34181E+02 1.23461E-01 3.49157E-02 1.60275E+00 9.06696E-02-2.56990E+00
 -1       489 1.07780E+03 6.26034E-02-3.45271E-01 1.41666E+00 6.98781E-03 3.42282E+00
 -1       490 7.94057E+02-2.65938E-01 6.56951E-02 1.34375E+00 1.71688E-01-2.36019E+00
 -1       491 6.89948E+02-4.81390E-01-1.34202E-01 2.32710E-01 8.99594E-02-2.69872E+00
 -1       492 8.63883E+02 1.87767E-01-8.00726E-02 1.21927E+00-5.99592E-02-2.34530E+00
 -1       493 1.14892E+03-1.03558E+00 2.13620E+01-1.37431E+00 2.16027E+00-1.17210E+01
 -1       494 1.11630E+03 6.03766E-01 3.73380E+00 2.97736E+00 9.82955E-02-2.57692E+00
 -1       495 5.41963E+01 3.44608E-02-2.75586E-01 6.19445E-01 2.68641E-02-1.78429E+00
 -1       496 6.16214E+02 7.51410E-01 6.74803E-01 2.35672E+00-3.34989E-01-1.46571E+00
 -1       497 1.22188E+02 8.13231E-01 6.20428E-01 2.30882E+00-4.43952E-01-1.34917E+00
 -1       498 9.68638E+02 5.94062E-01 3.62371E-01 6.14019E-01 4.07640E-02 2.40826E+00
 -1       499 7.57796E+02 9.40275E-01 6.96844E-01 2.73930E+00 3.13836E-01 1.41309E+00
 -1       500 6.52637E+02 2.39839E-01 1.66726E-01 1.32581E+00 3.37853E-02 2.15097E+00
 -1       501 8.98946E+02 9.48444E-01 6.29078E-01 2.69336E+00 2.90934E-01 1.37789E+00
 -1       502 8.30356E+02-5.17556E-01-6.16923E-02 6.41936E-01 2.52353E-02 2.52520E+00
 -1       503 1.18260E+03-8.49690E+01 1.29827E+02 1.63406E+01-2.70838E+00 2.94789E+01
 -1       504 3.14034E+01 6.05208E+00 2.35192E+00-1.01054E+00-1.68832E-01 1.00384E+00
 -1       505 3.69024E+02 5.13286E-01 6.76417E-02 2.39003E-01 2.63676E-02 2.71702E+00
 -1       506 2.30560E+02-5.02686E-01-2.98295E-01 1.38294E+00-9.11701E-02 2.29989E+00
 -1       507 5.09812E+02 6.91664E-01 5.20153E-02 3.31081E-01-3.26407E-02 2.67332E+00
 -1       508 4.40220E+02 9.17202E-01 6.94700E-01 2.70786E+00-4.72355E-01-1.28640E+00
 -1       509 3.00951E+02-5.22815E-01-9.12156E-02 6.21235E-01-1.04386E-02-2.49722E+00
 -1       510 1.11675E+03 3.38761E-01 3.67412E+00 2.36765E+00-1.29960E-01 2.22646E+00
 -1       511 1.07894E+03-5.09290E-01-6.35890E-01 2.53782E+00 1.80955E-01-2.71030E+00
 -1       512 1.04064E+03 7.65327E-01 7.64459E-02 1.27971E+00-4.05892E-02-2.82387E+00
 -1       513 1.02434E+03 1.97090E-01-1.24682E-01 2.17928E+00 1.23535E-01-5.68984E-02
 -1       514 8.74600E+01 2.93570E-02-2.89605E-01 1.27484E+00-1.09797E-02-2.34553E+00
 -1       515 3.34158E+02 2.84186E-01 3.29190E-01 9.84420E-01 1.27308E-01-2.24408E+00
 -1       516 3.37078E+02-7.19553E-01-1.77358E-01 1.20689E+00-1.24680E-01 2.36603E+00
 -1       517 6.19399E+02-5.15070E-01-9.54255E-02 2.57338E-01 2.48110E-02 2.64195E+00
 -1       518 5.81316E+02 1.34744E-01 4.98905E-02 1.64892E+00 6.39003E-02-2.53398E+00
 -1       519 4.78650E+02-9.63167E-01-3.34501E-01 1.98628E+00-3.70614E-01 1.69648E+00
 -1       520 4.78793E+02-8.17754E-01-2.99747E-01 1.05165E+00 2.52876E-02-2.37733E+00
 -1       521 9.00931E+02-8.66316E-01-6.86949E-01 2.78969E+00 3.16279E-01-1.38606E+00
 -1       522 7.59813E+02-9.41588E-01-7.01481E-01 2.78872E+00 3.10496E-01-1.42862E+00
 -1       523 7.21857E+02 7.21961E-01 1.22085E-01 1.20918E+00-1.33458E-01-2.38391E+00
 -1       524 7.05967E+02 4.22217E-02-1.63062E-02 1.75853E+00-5.63452E-02-4.35053E-02
 -1       525 7.94933E+02-2.20652E-01 4.02801E-02 1.23244E+00-5.03965E-02 2.33821E+00
 -1       526 2.64984E+02-1.62203E-02-3.53888E-03 1.03471E+00 9.09503E-02 2.57167E+00
 -1       527 2.65523E+02-1.22800E-01 5.74041E-02 1.03464E+00 4.64670E-02-2.37744E+00
 -1       528 6.54107E+02-2.41553E-01-3.45404E-02 1.23516E+00 2.93425E-02-2.31859E+00
 -1       529 1.22420E+02 2.38580E-01 1.61736E-01 1.55447E+00 2.18071E-01 2.17229E+00
 -1       530 1.59710E+02-7.11575E-01-2.55878E-01 1.15750E+00 7.12576E-03-2.45015E+00
 -1       531 8.64091E+02 2.82826E-01 5.00051E-02 1.01776E+00 1.26868E-03 2.40046E+00
 -1       532 9.36246E+02-7.49508E-01-2.10527E-01 1.27763E+00-3.05720E-03 2.50260E+00
 -1       533 1.91975E+02 6.92794E-01 1.39173E-01 8.71910E-01 4.75281E-02-2.38099E+00
 -1       534 9.69117E+02 8.33100E-01 7.27065E-01 2.29603E+00-4.10493E-01-1.39000E+00
 -1       535 1.91347E+02 9.15669E-01 4.34208E-01 1.61260E+00 1.70434E-01 1.80230E+00
 -1       536 5.47921E+02-9.22950E-01-6.66404E-01 2.81788E+00 4.73468E-01-1.24711E+00
 -1       537 8.27597E+02 5.11662E-01 1.10827E-01 2.08875E-01 8.53886E-03-2.63355E+00
 -1       538 5.47464E+02-7.39704E-02-3.22883E-01 7.69943E-01-1.55649E-01 2.33691E+00
 -1       539 4.06172E+02-6.02531E-02-1.42501E-01 1.28899E+00-1.03892E-01-2.27605E+00
 -1       540 4.05221E+02 6.25135E-02-1.97340E-01 9.65386E-01 5.29135E-02 2.36880E+00
 -1       541 1.13971E+03-3.07124E+00 1.86021E+01 2.24347E+00-1.56477E-01-6.62974E-02
 -1       542 1.09645E+03 3.52364E-01 1.88412E+00 3.09367E+00-7.87276E-02-3.54537E-02
 -1       543 1.00646E+03-8.70638E-01-2.16176E-01 9.46357E-01 5.94790E-02 2.62910E+00
 -1       544 1.16456E+03-1.15542E+02 1.06365E+02-9.00171E+00 2.13620E-01-3.43897E+01
 -1       545 7.24047E+02-1.04269E-01-2.77824E-01 1.31955E+00 1.33549E-01 2.34066E+00
 -1       546 6.70295E+02-4.44074E-03 8.83540E-02 1.66176E+00 4.38933E-02-1.53404E-01
 -1       547 7.14455E+01 6.82622E-01-1.15792E-01 2.62722E+00-3.92842E-02 6.05346E-02
 -1       548 1.03903E+03 9.46298E-01 2.37389E-01 1.67287E+00 2.14689E-01 2.16437E+00
 -1       549 1.08434E+02-3.64862E-01-3.76158E-01 2.76560E+00 7.99548E-02-1.16903E-01
 -1       550 9.87583E+02 2.69594E-01 3.25056E-02 3.07825E+00-1.23699E-01 1.02055E-02
 -1       551 2.45745E+02 3.74513E-01 1.07455E-01 2.95573E+00-9.25650E-02 1.38094E-01
 -1       552 2.83841E+02-1.00888E-01 5.07846E-03 2.85076E+00-1.36305E-01 3.39239E-01
 -1       553 4.25903E+02-1.82138E-01-1.87661E-01 2.47601E+00 1.80214E-01-2.21813E-01
 -1       554 2.13352E+02-4.15614E-01 1.94712E-02 2.99753E+00 5.82643E-02 1.28047E-01
 -1       555 5.30155E+02-2.57275E-01-1.24302E-01 2.97494E+00-9.81149E-04-7.74149E-02
 -1       556 3.88485E+02 7.81120E-02 3.45989E-02 1.76569E+00-3.43081E-03 7.76860E-03
 -1       557 4.58223E+02 3.65311E-01 8.05707E-02 3.02267E+00-1.68879E-01-8.26591E-02
 -1       558 4.93514E+02-1.55047E-01 4.57007E-02 2.20536E+00 1.30377E-01-7.58468E-02
 -1       559 1.40470E+02 2.65639E-01 8.18030E-02 3.06558E+00-1.65234E-01 7.33990E-04
 -1       560 1.77071E+02 1.41239E-01 9.56272E-02 2.16486E+00-1.27313E-02 3.63196E-02
 -1       561 3.17369E+02 6.78826E-02-3.54147E-02 1.89822E+00 9.41017E-02-2.25167E-01
 -1       562 5.62145E+02 2.26465E-01 1.12419E-01 2.51765E+00-1.43139E-01-3.26611E-01
 -1       563 6.35175E+02 1.38494E-02-8.56092E-02 1.83849E+00-1.60077E-01 1.61411E-01
 -1       564 9.55189E+02-1.16418E-01-9.92218E-02 2.39082E+00 1.43910E-01-2.86715E-01
 -1       565 9.15229E+02 2.19208E-01-1.54814E-01 2.58689E+00 4.86454E-02-1.52489E-01
 -1       566 8.47059E+02 5.30000E-02-7.37334E-02 1.80917E+00 9.08027E-02-7.05282E-02
 -1       567 8.11721E+02-6.06530E-02 1.12286E-01 1.80901E+00 2.63460E-02 8.74531E-02
 -1       568 8.84426E+02-1.19430E-01 1.60155E-01 2.54928E+00 4.25083E-02 1.76928E-01
 -1       569 7.74284E+02 8.28028E-02-1.73640E-01 2.54931E+00 5.81831E-02-1.90404E-01
 -1       570 3.52848E+02 1.42371E-02 1.05072E-01 1.63182E+00-8.40669E-02 1.13920E-01
 -1       571 6.01537E+02-6.39220E-02 4.56708E-02 2.71059E+00 1.16149E-01-4.26432E-01
 -1       572 7.43330E+02-1.02339E-01 2.03435E-01 2.54353E+00 2.57320E-02 1.92203E-01
 -1       573 6.88243E+02 5.51017E-02 6.45899E-02 5.50393E-01-3.40432E-02 2.57242E+00
 -1       574 1.06095E+03-3.21766E-01-2.35767E-01 2.96685E+00 1.57368E-01-5.00542E-02
 -1       575 3.30425E+01 7.77281E+00 2.95537E+00-2.25299E+00 2.44570E-02-1.24738E+00
 -1       576 1.14959E+03-8.76174E-01 2.19270E+01-9.43303E-01-2.03748E+00 1.15582E+01
 -1       577 5.48496E+01-7.64599E-02-4.88380E-01 4.56596E-01 1.52650E-02 1.85527E+00
 -1       578 1.15350E+03-6.68886E+00 7.03087E+01-1.94080E+00-2.18033E-01 6.90132E-01
 -1       579 1.16630E+03-6.60652E+01 4.88376E+01-7.72514E+00 3.84906E+00-7.57167E+01
 -1       580 1.16645E+03-6.56511E+01 5.10764E+01-7.09339E+00-4.39672E+00 7.71413E+01
 -1       581 3.06933E+01 3.24650E+00 1.33100E+00-1.38672E+00-4.79591E-03-1.96752E+00
 -1       582 2.96205E+01 5.35876E+00 2.09791E+00-1.52644E+00 1.90579E-01 1.71290E+00
 -1       583 4.99376E+01-1.92139E-01 4.84261E-01-4.28953E-03 6.24468E-02-6.81943E-02
 -1       584 1.19571E+03 1.02562E+02 2.47409E+02 1.15229E+02 5.32452E-01-1.05778E+02
 -1       585 1.27327E+03 1.11921E+02 2.04346E+02 6.95359E+01-3.23334E+01-1.76534E+02
 -1       586 1.09406E+03-2.36395E+01-2.38949E+00-2.14275E+01 1.03999E+01-3.10516E+01
 -1       587 1.27350E+03 1.12400E+02 2.06240E+02 7.00217E+01 3.25557E+01 1.77860E+02
 -1       588 1.19775E+03 1.04321E+02 2.49458E+02 1.16494E+02-3.07640E-01 1.07056E+02
 -1       589 1.09442E+03-2.36131E+01-1.17635E+00-2.10605E+01-1.05804E+01 3.14486E+01
 -1       590 2.03169E+01 1.45223E-03 1.48609E+00 1.90036E+00 8.61547E-01 1.49747E+00
 -1       591 2.27269E+01 2.95970E+00 2.64755E+00 1.99952E+00 2.41541E-01 1.62511E+00
 -1       592 3.55571E+01 1.05231E+00 5.19376E-01-1.44544E+00 2.99820E-01 9.09677E-01
 -1       593 2.31584E+01 8.64351E-01 1.96229E+00 2.00532E+00 2.38087E-04-2.17717E+00
 -1       594 2.15296E+01-5.73674E-01 1.48950E+00 2.05667E+00-8.12180E-01-1.54224E+00
 -1       595 3.52374E+01 1.00019E+00 3.73242E-01-1.27246E+00-1.63189E-02-1.21865E+00
 -1       596 1.24180E+03 1.49466E+02 3.11828E+02 1.34723E+02-1.43407E+01 6.53265E+01
 -1       597 1.25653E+03 1.69388E+02 3.24544E+02 1.39642E+02 8.82356E+00 2.46657E+01
 -1       598 1.16748E+03-8.82080E+01 1.00491E+02-5.58369E+00-1.78467E+00 6.14482E+01
 -1       599 1.22966E+03 1.17711E+02 2.87774E+02 1.17633E+02 3.20364E+00-1.92382E+01
 -1       600 1.23693E+03 1.41734E+02 3.01751E+02 1.22707E+02 8.70371E+00-7.01698E+01
 -1       601 1.16305E+03-8.89958E+01 1.28648E+02-1.72632E+00-3.86250E+00-2.76640E+00
 -1       602 1.16586E+03-9.45014E+01 9.43457E+01-1.02527E+01 1.70563E+00-6.23938E+01
 -1       603 2.25729E+01 1.82446E+00 1.44453E+00 1.67483E+00 1.17109E-01-6.31347E-01
 -1       604 2.32908E+01 3.67872E+00 2.62510E+00 2.04033E+00 1.69708E-02-9.43618E-01
 -1       605 3.16818E+01 5.85455E+00 2.36663E+00-1.38621E+00-2.85297E-01-1.39533E+00
 -1       606 2.32565E+01 2.06434E+00 2.63488E+00 1.46342E+00-1.01967E-01 1.28638E+00
 -1       607 2.30180E+01 2.58532E+00 1.55209E+00 2.50648E+00-5.44184E-03 5.52979E-01
 -1       608 3.17516E+01 5.92498E+00 1.94111E+00-1.35456E+00-1.63139E-01-4.07249E-01
 -1       609 3.06958E+01 6.09291E+00 2.61446E+00-1.05821E+00-1.66337E-01 1.90565E+00
 -1       610 1.13213E+03 2.74273E+00 8.49433E+00 1.34431E-01-1.56436E+00 4.12419E+00
 -1       611 1.13297E+03 9.96500E+00 2.51935E+01-4.95315E+00 6.93283E+00 1.76885E+01
 -1       612 1.14458E+03-3.05373E+00 4.02385E+01-7.89058E-01-7.46380E-01 3.87409E+01
 -1       613 1.10238E+03 1.86295E+00 1.49472E+00 2.32837E+00 6.03938E-01-2.94772E+00
 -1       614 1.11109E+03 7.34375E-01 2.13973E+00 1.65986E+00 2.92657E-01-1.05078E+00
 -1       615 1.13088E+03-6.43734E-01 1.08460E+01 6.11679E-01-1.63049E+00 2.64852E+00
 -1       616 1.06830E+03-1.04046E-01-7.74229E-02 2.51314E+00 5.16339E-01-2.59087E+00
 -1       617 1.08254E+03-5.84816E-01-3.17649E-01 1.09265E+00-1.41171E-02-3.37976E+00
 -1       618 1.09419E+03-9.51259E-01 5.96658E-02 1.78917E+00-1.96366E-02-3.51875E+00
 -1       619 1.03258E+03 6.40423E-01 2.10120E-01 1.12524E+00 6.74219E-02-2.46048E+00
 -1       620 1.04933E+03 6.02259E-01 1.67451E-01 2.41294E+00-2.57939E-01-2.41290E+00
 -1       621 1.06105E+03 7.06013E-01 2.33965E-01 2.47191E+00 2.67710E-01-2.86310E+00
 -1       622 9.96690E+02-5.63342E-01-4.87260E-01 2.02210E+00 4.39811E-01-2.13314E+00
 -1       623 1.01557E+03-4.39646E-01-5.82371E-02 9.30038E-01-1.23499E-01-2.37763E+00
 -1       624 1.02380E+03-4.09417E-01-4.80121E-01 7.60330E-01-9.64639E-02-2.61070E+00
 -1       625 9.61471E+02 5.71216E-01 4.12126E-01 8.78023E-01 2.07908E-02-2.74754E+00
 -1       626 9.78182E+02 3.44093E-01 1.55361E-01 2.53338E+00-5.26725E-01-1.91854E+00
 -1       627 9.86006E+02-7.03348E-01-5.73242E-01 2.13709E+00-3.51753E-01-2.27826E+00
 -1       628 9.25754E+02 4.78650E-01-1.92779E-01 9.57135E-01 2.45134E-01-2.93239E+00
 -1       629 9.44550E+02-1.63885E-01 2.25139E-01 8.11698E-01-1.78302E-01-2.60502E+00
 -1       630 9.54470E+02 8.90084E-01 1.32358E+00 1.67442E+00-1.87096E-02-2.05803E+00
 -1       631 8.92476E+02 2.86122E-02 2.59996E-01 2.73636E+00 4.27803E-01-2.15982E+00
 -1       632 9.08044E+02-8.53040E-01-7.57901E-01 1.36376E+00 2.25882E-02-2.59239E+00
 -1       633 9.16022E+02-6.45462E-01-4.33684E-01 2.15054E+00 5.30878E-03-2.44295E+00
 -1       634 8.55753E+02 2.18372E-01 6.83733E-02 1.99444E+00 2.30919E-01-1.83618E+00
 -1       635 8.73465E+02 2.29733E-01 7.61421E-03 2.22571E+00-4.12992E-01-2.02202E+00
 -1       636 8.84811E+02 5.70500E-01 4.62939E-01 2.34205E+00 2.17921E-01-2.42923E+00
 -1       637 8.19993E+02 5.45210E-01 6.79252E-02 5.13678E-01 5.21379E-02-2.47728E+00
 -1       638 8.37342E+02 4.82149E-01 2.69686E-01 1.67775E+00-1.91134E-01-1.97019E+00
 -1       639 8.47156E+02 7.77820E-01 1.32565E-01 1.26935E+00 1.34194E-01-2.53875E+00
 -1       640 7.84325E+02 5.22811E-01-2.10210E-01 7.47242E-01 4.36221E-01-2.91429E+00
 -1       641 8.03367E+02-1.27896E-01 2.55817E-01 8.94687E-01-4.88929E-02-2.29430E+00
 -1       642 8.11110E+02-4.64653E-01 1.58539E-01 4.80612E-01-7.90019E-02-2.44932E+00
 -1       643 7.51304E+02-3.60547E-02 2.54110E-01 2.75869E+00 4.54792E-01-2.16938E+00
 -1       644 7.66825E+02-8.44157E-01-7.08557E-01 1.36948E+00 2.79254E-02-2.61520E+00
 -1       645 7.74488E+02-9.96156E-01-6.56409E-01 1.75546E+00-9.66307E-02-2.60430E+00
 -1       646 7.14478E+02 5.41217E-01 1.66581E-01 1.23506E+00 5.61300E-03-2.06782E+00
 -1       647 7.32481E+02 4.28940E-01 1.80724E-01 2.22171E+00-4.86476E-01-2.23323E+00
 -1       648 7.43481E+02 6.63731E-01 5.03164E-01 2.37493E+00 2.43713E-01-2.51324E+00
 -1       649 6.80210E+02-4.85849E-01-2.24270E-01 1.60305E+00 2.30028E-01-2.07326E+00
 -1       650 6.97526E+02-6.05316E-01-5.92994E-02 5.93382E-01-1.92791E-02-2.47087E+00
 -1       651 7.06104E+02 3.97705E-01-7.18103E-02 5.04155E-01 1.02868E-01-2.54986E+00
 -1       652 6.44132E+02-2.55972E-01-4.09561E-02 2.25256E+00 3.84205E-01-2.01511E+00
 -1       653 6.62043E+02-2.96701E-01-1.13406E-01 1.96505E+00-2.53556E-01-1.88054E+00
 -1       654 6.70664E+02-7.45309E-01-2.82148E-01 1.17424E+00-9.43801E-02-2.60525E+00
 -1       655 6.08611E+02 5.56707E-01 3.26422E-01 8.83754E-01 4.16980E-02-2.74221E+00
 -1       656 6.25143E+02 2.05946E-01 3.83303E-02 2.53519E+00-4.88806E-01-2.01209E+00
 -1       657 6.33341E+02-5.45132E-01-3.96219E-01 2.31070E+00-3.10594E-01-2.32620E+00
 -1       658 5.72844E+02 5.00559E-01-1.87070E-01 9.89554E-01 2.39518E-01-2.91638E+00
 -1       659 5.91669E+02-1.58275E-01 2.23135E-01 8.30641E-01-1.83667E-01-2.57942E+00
 -1       660 6.01657E+02 8.87887E-01 1.30813E+00 1.70160E+00-2.96306E-03-2.02953E+00
 -1       661 5.39440E+02-5.54550E-02 2.07287E-01 2.79301E+00 5.01178E-01-2.10509E+00
 -1       662 5.55063E+02-8.68789E-01-8.12448E-01 1.39861E+00 3.57741E-02-2.58849E+00
 -1       663 5.63076E+02-6.64373E-01-4.82160E-01 2.21423E+00 3.71109E-02-2.40360E+00
 -1       664 5.03178E+02 5.40479E-01 1.93959E-01 9.65214E-01 2.25249E-02-2.32847E+00
 -1       665 5.20334E+02 5.55798E-01 1.16490E-01 2.42311E+00-3.33656E-01-2.18278E+00
 -1       666 5.31511E+02 7.96590E-01 4.91399E-01 2.57026E+00 3.35375E-01-2.29094E+00
 -1       667 4.67573E+02-7.24009E-01-3.40841E-01 2.01740E+00 4.96596E-01-1.99446E+00
 -1       668 4.85978E+02-5.32067E-01 3.56710E-02 9.83556E-01-4.52327E-02-2.25079E+00
 -1       669 4.94450E+02-5.14778E-01-5.51484E-01 7.63122E-01-1.06028E-01-2.47186E+00
 -1       670 4.33107E+02 7.90586E-01 7.66101E-01 1.34036E+00-5.15429E-02-2.58560E+00
 -1       671 4.48880E+02 2.59752E-02-1.85615E-01 2.75842E+00-5.20792E-01-2.05950E+00
 -1       672 4.56048E+02-8.35939E-01-5.76422E-01 2.20509E+00-3.63584E-01-2.32454E+00
 -1       673 3.96967E+02 1.01648E-01-1.76782E-01 1.71714E+00 2.39399E-01-2.02573E+00
 -1       674 4.15319E+02-6.77774E-01 1.21332E-01 7.85656E-01-3.23324E-01-2.69779E+00
 -1       675 4.25576E+02 9.64722E-01 7.67068E-01 1.76100E+00 4.98597E-02-2.49781E+00
 -1       676 3.62209E+02-1.72583E-01 5.04707E-02 1.72306E+00 1.15909E-01-2.03317E+00
 -1       677 3.78828E+02 4.29157E-02-1.39534E-01 1.68015E+00-1.13665E-01-2.04893E+00
 -1       678 3.88930E+02 6.88474E-01 2.39992E-01 9.78655E-01-9.35990E-02-2.57623E+00
 -1       679 3.25469E+02 3.47231E-01-5.30012E-02 8.02330E-01 2.62726E-01-2.43756E+00
 -1       680 3.44410E+02-5.39453E-02 3.21123E-01 1.60163E+00-4.00354E-01-2.03288E+00
 -1       681 3.52326E+02-6.83827E-01-1.83823E-01 9.01333E-01 5.50526E-02-2.57631E+00
 -1       682 2.91981E+02-4.07572E-01 1.53341E-02 1.95044E+00 1.91613E-01-2.12215E+00
 -1       683 3.08656E+02-4.91788E-01-2.58846E-01 9.31288E-01-7.35243E-02-2.36191E+00
 -1       684 3.17669E+02 2.86852E-01 3.50829E-01 3.74570E-01 5.21823E-02-2.44246E+00
 -1       685 2.56230E+02-1.44009E-01-3.67844E-03 2.01291E+00 3.01018E-01-1.99549E+00
 -1       686 2.73523E+02-1.52432E-01-7.81552E-02 1.92409E+00-2.55251E-01-1.90174E+00
 -1       687 2.82509E+02-7.63763E-01-1.49790E-01 1.34360E+00-6.43874E-02-2.56805E+00
 -1       688 2.20725E+02-1.66211E-03 1.53490E-01 2.09842E+00 3.00379E-01-1.87117E+00
 -1       689 2.37989E+02 3.49617E-02-1.05015E-01 2.09215E+00-3.93838E-01-1.85315E+00
 -1       690 2.46694E+02-1.43235E-01-1.69390E-02 1.41965E+00-1.61530E-01-2.58496E+00
 -1       691 1.84256E+02 4.04993E-01-6.65505E-02 9.41204E-01 1.58736E-01-2.32640E+00
 -1       692 2.03006E+02 4.82467E-01 3.53293E-01 1.78485E+00-3.90305E-01-2.04651E+00
 -1       693 2.12460E+02 4.88917E-01 3.57577E-01 1.29629E+00 1.31972E-01-2.59640E+00
 -1       694 1.50229E+02-5.86963E-01-2.14111E-01 2.44676E+00 2.80609E-01-2.13354E+00
 -1       695 1.67341E+02-5.89553E-01-3.13385E-01 1.05381E+00-4.89965E-02-2.29584E+00
 -1       696 1.76389E+02 5.09679E-01 3.27969E-01 7.22672E-01 1.33364E-01-2.35210E+00
 -1       697 1.14518E+02 5.76418E-01 3.87331E-01 9.11001E-01 2.34831E-02-2.72679E+00
 -1       698 1.31215E+02 2.84278E-01 9.58562E-02 2.54709E+00-5.59356E-01-1.86111E+00
 -1       699 1.39440E+02-7.57370E-01-4.31865E-01 2.49624E+00-3.38345E-01-2.13672E+00
 -1       700 7.89463E+01 3.10552E-01-2.86001E-01 7.73817E-01 1.34561E-01-2.52104E+00
 -1       701 9.74930E+01-2.02418E-01 8.70971E-02 8.30856E-01-2.29231E-01-2.44376E+00
 -1       702 1.07504E+02 8.66283E-01 1.08756E+00 1.54168E+00-9.36830E-02-2.02490E+00
 -1       703 4.58543E+01 7.99152E-02-3.08523E-01 1.51928E-01 7.65204E-02-1.56201E+00
 -1       704 6.23086E+01-3.18324E-01-3.37717E-01 7.99906E-01-1.43962E-01-1.88852E+00
 -1       705 7.03252E+01-2.48290E-01-2.60764E-01 1.18770E+00-1.78063E-01-1.95192E+00
 -1       706 4.19481E+01 5.04306E-01 3.06945E-01 6.28033E-02-1.28208E-02-1.68481E+00
 -1       707 1.13296E+03 9.96554E+00 2.52659E+01-4.86781E+00-6.96529E+00-1.79887E+01
 -1       708 1.13185E+03 2.68697E+00 8.23725E+00 6.74570E-02 1.50178E+00-4.15364E+00
 -1       709 1.14474E+03-3.54866E+00 3.94185E+01-1.41818E+00 4.18593E-02-3.91062E+01
 -1       710 1.11101E+03 7.05746E-01 2.11261E+00 1.36766E+00-3.32325E-01 6.62664E-01
 -1       711 1.10133E+03 1.37066E-01 1.17543E+00 2.26332E+00-7.48292E-01 2.78031E+00
 -1       712 1.13089E+03-1.25025E-01 1.03323E+01 1.45883E-01 1.92288E+00-2.85651E+00
 -1       713 1.08275E+03 1.23844E-01 1.12119E-03 1.63100E+00-4.02830E-02 2.79346E+00
 -1       714 1.06726E+03-8.50733E-02-1.14729E-01 2.32076E+00-4.16957E-01 2.54472E+00
 -1       715 1.09584E+03-2.49322E-01 1.07292E+00 1.56062E+00 3.63827E-02 3.48246E+00
 -1       716 1.04861E+03 3.97724E-01 9.40185E-02 2.23408E+00 4.71611E-01 2.33347E+00
 -1       717 1.03172E+03 4.53967E-01 4.36611E-02 9.36807E-01-8.93459E-02 2.61486E+00
 -1       718 1.05902E+03 9.23779E-02-3.20338E-01 2.09922E+00-3.20212E-02 3.08072E+00
 -1       719 1.01425E+03-5.49533E-01-2.53074E-01 1.00802E+00 1.10666E-01 2.41988E+00
 -1       720 9.97390E+02-6.90907E-01-1.38081E-01 2.27069E+00-2.01235E-01 2.16525E+00
 -1       721 1.02401E+03 2.57833E-01 4.21086E-01 5.34131E-01 4.09854E-03 2.69370E+00
 -1       722 9.79223E+02 4.19543E-01 2.58877E-01 1.87346E+00 4.86715E-01 1.88686E+00
 -1       723 9.60817E+02 4.11402E-01 7.26162E-02 7.82018E-01-1.48501E-01 2.32834E+00
 -1       724 9.88109E+02-5.88262E-01 9.50443E-03 1.73049E+00 1.75416E-01 2.57348E+00
 -1       725 9.43986E+02-5.99472E-01-2.38504E-01 1.08442E+00 6.83350E-02 2.29049E+00
 -1       726 9.26773E+02-6.68450E-01-2.01792E-01 2.52550E+00-3.15050E-01 2.14524E+00
 -1       727 9.53019E+02 2.48604E-01 4.08951E-01 6.43439E-01-6.86173E-02 2.39464E+00
 -1       728 9.07467E+02-2.38153E-02-3.22914E-01 2.77784E+00 4.42990E-01 2.08259E+00
 -1       729 8.91901E+02 8.25531E-01 6.52110E-01 1.33505E+00 1.91476E-02 2.55636E+00
 -1       730 9.15458E+02-8.39117E-01-4.93934E-01 2.65387E+00 2.15793E-01 2.37610E+00
 -1       731 8.74440E+02-3.96717E-01 3.88001E-01 5.69432E-01 3.72629E-01 2.77990E+00
 -1       732 8.55046E+02 1.75462E-01-2.94661E-01 6.51988E-01-1.90389E-01 2.47910E+00
 -1       733 8.84517E+02 1.08503E+00 6.68558E-01 1.62964E+00-9.29581E-02 2.52235E+00
 -1       734 8.38112E+02-5.13154E-01-2.64405E-01 9.13890E-01 7.66141E-02 2.31389E+00
 -1       735 8.21414E+02-4.12352E-01-6.95668E-03 1.95856E+00-1.69354E-01 2.12001E+00
 -1       736 8.47267E+02 3.75243E-01 3.44161E-01 4.75407E-01-3.72603E-03 2.37715E+00
 -1       737 8.02923E+02-2.29725E-01-1.25829E-01 1.98728E+00 2.37464E-01 1.86372E+00
 -1       738 7.85289E+02-2.48331E-01-3.15438E-02 2.24276E+00-4.06578E-01 2.04212E+00
 -1       739 8.11975E+02-7.64694E-01-1.09203E-01 1.40053E+00 4.48337E-02 2.57034E+00
 -1       740 7.66266E+02-1.29412E-02-2.83061E-01 2.72832E+00 4.33150E-01 2.15793E+00
 -1       741 7.50749E+02 8.14129E-01 7.04258E-01 1.33969E+00 2.94487E-02 2.62916E+00
 -1       742 7.73945E+02-5.55088E-01-4.69170E-01 2.33637E+00 2.17622E-01 2.44469E+00
 -1       743 7.32999E+02-6.34801E-01 4.51688E-02 7.88409E-01 3.06946E-01 2.72149E+00
 -1       744 7.14832E+02 1.23263E-01-2.23524E-01 1.77262E+00-2.37336E-01 2.00801E+00
 -1       745 7.43283E+02 9.51840E-01 6.67567E-01 1.73361E+00-6.07968E-02 2.60189E+00
 -1       746 6.96632E+02 1.24723E-01-9.28618E-02 1.73239E+00 1.16180E-01 2.03183E+00
 -1       747 6.80034E+02-7.94346E-02 1.13894E-01 1.67410E+00-1.28982E-01 2.06929E+00
 -1       748 7.06740E+02 7.95041E-01 2.63142E-01 1.14968E+00 6.04753E-02 2.58802E+00
 -1       749 6.62203E+02-2.44831E-01 6.16457E-02 1.76453E+00 4.35739E-01 2.14040E+00
 -1       750 6.43819E+02 4.21895E-01 1.32104E-01 1.10260E+00-1.64842E-01 2.21332E+00
 -1       751 6.69914E+02-6.61550E-01-1.54148E-01 8.69576E-01-5.10871E-02 2.68898E+00
 -1       752 6.26906E+02-5.24357E-01-5.01266E-02 5.83384E-01 9.59151E-02 2.52149E+00
 -1       753 6.09640E+02-4.74600E-01-2.03168E-01 1.70246E+00-1.93602E-01 1.98402E+00
 -1       754 6.35801E+02 3.59954E-01-1.56911E-01 4.52545E-01-1.25161E-01 2.57146E+00
 -1       755 5.91179E+02-1.30355E-01 1.39138E-02 1.95216E+00 2.55812E-01 1.90024E+00
 -1       756 5.73870E+02-6.58982E-02 5.45967E-02 1.95907E+00-3.05979E-01 1.96574E+00
 -1       757 5.99765E+02-7.54568E-01-1.17583E-01 1.23814E+00 1.76484E-01 2.55224E+00
 -1       758 5.55914E+02 4.88530E-02-2.57824E-01 1.91149E+00 2.66287E-01 1.91295E+00
 -1       759 5.38644E+02 1.00958E-02 3.40824E-02 1.82964E+00-3.83997E-01 1.88219E+00
 -1       760 5.64371E+02-2.15580E-01-2.73626E-01 1.25268E+00 4.57523E-02 2.68125E+00
 -1       761 5.19750E+02 5.66639E-01 1.85111E-01 1.72075E+00 2.04486E-01 2.04378E+00
 -1       762 5.02387E+02 5.85246E-01-5.16789E-02 5.78687E-01-1.37002E-01 2.49496E+00
 -1       763 5.29775E+02 6.03298E-01 5.35911E-02 1.37679E+00-2.98137E-01 2.50535E+00
 -1       764 4.85180E+02-5.94427E-01-3.60843E-01 1.23665E+00-6.94765E-02 2.24461E+00
 -1       765 4.68848E+02-1.75316E-01 1.52102E-01 2.52350E+00-4.85765E-01 2.14546E+00
 -1       766 4.93071E+02-4.76242E-01-1.93234E-01 5.08793E-01-7.39470E-02 2.70607E+00
 -1       767 4.49806E+02 2.46660E-01-3.31520E-02 2.20048E+00 4.69399E-01 1.90146E+00
 -1       768 4.32315E+02 4.16601E-02 2.28929E-01 2.02285E+00-2.53324E-01 1.90544E+00
 -1       769 4.59768E+02 2.69753E-02 2.67945E-01 2.14819E+00 6.98184E-02 2.46242E+00
 -1       770 4.14332E+02 8.53286E-02-6.15436E-02 1.94667E+00 2.97435E-01 1.99721E+00
 -1       771 3.97042E+02 1.71057E-01 3.94699E-02 1.90681E+00-2.49588E-01 1.92656E+00
 -1       772 4.23774E+02 2.93298E-01 2.58981E-01 1.29657E+00-4.98587E-02 2.65982E+00
 -1       773 3.78755E+02 4.90681E-01 2.25370E-01 1.63689E+00 2.14911E-01 2.06907E+00
 -1       774 3.61417E+02 5.90145E-01 3.60179E-02 6.03738E-01-5.31456E-02 2.49589E+00
 -1       775 3.88482E+02 6.83310E-01 1.42957E-01 1.16769E+00-1.32939E-01 2.58557E+00
 -1       776 3.44405E+02-5.73385E-01-1.98611E-01 1.25977E+00 1.65252E-03 2.08710E+00
 -1       777 3.26346E+02-4.12854E-01-1.65995E-01 2.23743E+00-4.73941E-01 2.24285E+00
 -1       778 3.52820E+02-4.03658E-01 1.09414E-02 4.90317E-01 6.61247E-02 2.57896E+00
 -1       779 3.07425E+02 7.70199E-03-3.05715E-01 2.78880E+00 4.88843E-01 2.15744E+00
 -1       780 2.91990E+02 8.01683E-01 6.79857E-01 1.33531E+00 3.72194E-02 2.50689E+00
 -1       781 3.15356E+02-7.01134E-01-4.97795E-01 2.43420E+00 3.56051E-01 2.42833E+00
 -1       782 2.74272E+02-4.30869E-01 3.72348E-01 6.02120E-01 2.67502E-01 2.69809E+00
 -1       783 2.55421E+02 3.62466E-01-2.57748E-01 5.43013E-01-1.61970E-01 2.67803E+00
 -1       784 2.84519E+02 8.97108E-01 6.79584E-01 1.92299E+00-6.02218E-02 2.40635E+00
 -1       785 2.38446E+02-6.15945E-01-2.99233E-01 1.12683E+00 1.06918E-01 2.22256E+00
 -1       786 2.20722E+02-3.04234E-01 2.14054E-02 2.35960E+00-4.23849E-01 1.98827E+00
 -1       787 2.46794E+02-4.33062E-01-1.62563E-01 1.29307E+00 3.14976E-01 2.28924E+00
 -1       788 2.01847E+02 3.48550E-01 1.42822E-01 2.31139E+00 4.96491E-01 2.01260E+00
 -1       789 1.84484E+02 4.47582E-01 1.48839E-01 9.23071E-01-7.68605E-02 2.41463E+00
 -1       790 2.11495E+02 8.13032E-02-1.38827E-01 2.22373E+00-2.38657E-02 2.48845E+00
 -1       791 1.67602E+02-5.38646E-01-2.08318E-01 9.98610E-01 9.71691E-02 2.38505E+00
 -1       792 1.50811E+02-6.70112E-01-9.99404E-02 2.25754E+00-2.34639E-01 2.15983E+00
 -1       793 1.76891E+02 2.60463E-01 5.35110E-01 5.02551E-01-1.72931E-02 2.49252E+00
 -1       794 1.31968E+02 1.27841E-02-9.66011E-02 2.30467E+00 4.36554E-01 1.95796E+00
 -1       795 1.14413E+02 6.14369E-01 2.94968E-01 1.17659E+00-1.21276E-01 2.21100E+00
 -1       796 1.40835E+02-9.21867E-01-2.10935E-01 2.02275E+00 2.65061E-01 2.52389E+00
 -1       797 9.77409E+01-4.74485E-01 2.94155E-02 8.30302E-01 1.49367E-01 2.71313E+00
 -1       798 7.92855E+01 7.32406E-02-4.01688E-01 6.33620E-01-1.36402E-01 2.20417E+00
 -1       799 1.05930E+02 1.48222E-01-2.80345E-01 1.63279E+00-2.09592E-01 2.14748E+00
 -1       800 6.31424E+01-2.28582E-01-1.25836E-01 4.39520E-01 1.80318E-01 2.02786E+00
 -1       801 4.57286E+01-6.78825E-02-7.02677E-01-1.44301E-01-6.37104E-02 1.47872E+00
 -1       802 7.06639E+01-5.80868E-01-1.04199E+00 1.03280E+00 1.04853E-02 1.73216E+00
 -1       803 4.23998E+01 6.70780E-01 3.48206E-01-4.74044E-01-1.87791E-02 1.56249E+00
 -1       804 3.44839E+02 1.36714E-01 2.26906E-01 1.41354E+00 5.27132E-01-1.31371E+00
 -1       805 3.61511E+02-4.41754E-01-2.47417E-01 8.97211E-01-2.31595E-01-1.66016E+00
 -1       806 3.79480E+02 4.60568E-01 2.19400E-01 8.60394E-01 1.20316E-01-1.75590E+00
 -1       807 3.96168E+02 1.93929E-02 1.03472E-02 1.86948E+00-4.67021E-01-1.23282E+00
 -1       808 3.70455E+02 6.18865E-02-2.42335E-02 1.73024E+00-1.81560E-01-5.13341E-02
 -1       809 2.37257E+02-2.10624E-01-1.55481E-01 1.65626E+00 2.35840E-01-1.74526E+00
 -1       810 2.55500E+02-2.65667E-01-3.86063E-01 1.73028E+00-3.99159E-01-1.87726E+00
 -1       811 2.03312E+02 4.39082E-01-1.11985E-01 1.38122E+00 3.36483E-01-1.86566E+00
 -1       812 2.22131E+02-2.16293E-01 3.33350E-01 1.42607E+00-3.06433E-01-2.31007E+00
 -1       813 2.29596E+02-5.08186E-03 1.88436E-01 3.14412E+00 4.08589E-01 2.41028E-01
 -1       814 1.16075E+02-2.84077E-02 2.63914E-01 1.85106E+00 3.83130E-01 1.46814E+00
 -1       815 9.71420E+01 1.03943E-01-3.44356E-01 2.29866E+00-2.57573E-01 1.35874E+00
 -1       816 8.05833E+01-2.79545E-01-2.21560E-01 2.19264E+00 2.37080E-01 1.42329E+00
 -1       817 8.83863E+01-1.70545E-01-6.26282E-01 2.42468E+00-9.58095E-02 1.62397E-02
 -1       818 6.29692E+01 1.51584E-01-3.92002E-01 1.47246E+00-2.91167E-01 1.73951E+00
 -1       819 4.86486E+02-4.64498E-01-1.43201E-01 1.61650E+00 3.12484E-01-1.67438E+00
 -1       820 5.02832E+02-1.83867E-01 6.81554E-02 1.31230E+00-5.44287E-03-1.69220E+00
 -1       821 5.21054E+02 7.44313E-01 3.97817E-01 2.07479E+00 2.95412E-01-1.94626E+00
 -1       822 5.40575E+02 6.33726E-01 6.77081E-01 2.50458E+00-3.94105E-02-1.39103E+00
 -1       823 5.12875E+02 3.53272E-01-3.47351E-01 2.49910E+00 1.56790E-01-2.15748E-01
 -1       824 4.68353E+02-8.89366E-02 2.75285E-02 2.10624E+00 1.13847E-01 1.67414E+00
 -1       825 4.49587E+02 2.52656E-01 1.11221E-01 1.58562E+00-3.49314E-01 2.00671E+00
 -1       826 4.33803E+02 4.30171E-02 6.63272E-01 1.25882E+00 3.62226E-01 1.70158E+00
 -1       827 4.14501E+02 2.15852E-01 2.02917E-02 1.13073E+00-2.32395E-01 1.55294E+00
 -1       828 4.42227E+02-3.11783E-01-1.06869E+00 2.93612E+00 2.56748E-02 6.37251E-02
 -1       829 3.26315E+02-4.39772E-01-4.26695E-01 1.62172E+00 5.75645E-01 1.61265E+00
 -1       830 3.06556E+02-4.80402E-01-3.94408E-01 2.21733E+00-1.11928E-03 1.02172E+00
 -1       831 2.93680E+02 8.48229E-01 4.22127E-01 3.71074E+00 1.82339E-01 1.26683E+00
 -1       832 2.74545E+02 5.13353E-01-3.32337E-01 2.56415E+00-4.53635E-01 1.37442E+00
 -1       833 2.99953E+02-4.39161E-01-4.19337E-01 1.89448E+00-2.10109E-01-1.95475E-01
 -1       834 1.50076E+02-6.78108E-01-3.08081E-01 1.74720E+00 1.64741E-01 1.97768E+00
 -1       835 1.31207E+02-2.04310E-01-4.05086E-01 1.77793E+00-2.03865E-01 1.92984E+00
 -1       836 1.85243E+02 1.00005E+00 3.80040E-01 2.45932E+00 3.52608E-01 1.26806E+00
 -1       837 1.67991E+02-8.17852E-02-1.96444E-01 9.96865E-01-7.09462E-02 1.39233E+00
 -1       838 1.57870E+02-2.40834E-01 4.44156E-01 2.49873E+00-8.77245E-02-1.26164E-01
 -1       839 6.09223E+02-6.71334E-01 2.50595E-01 1.24479E+00 2.48108E-01 1.44870E+00
 -1       840 5.90884E+02-7.42252E-02 1.14787E-01 1.24771E+00-3.84370E-01 1.88165E+00
 -1       841 5.73723E+02-1.90290E-01-7.00743E-02 1.23553E+00 2.82079E-01 1.49329E+00
 -1       842 5.54095E+02 9.78804E-02-7.33288E-01 1.06365E+00-3.54748E-01 1.70189E+00
 -1       843 5.83085E+02 4.13419E-01 3.64896E-01 2.16961E+00 7.72169E-02-1.50107E-01
 -1       844 1.01591E+03-3.52422E-01-5.69075E-02 1.48196E+00 3.74100E-01-1.76075E+00
 -1       845 1.03259E+03-9.93502E-02-8.04821E-03 1.42530E+00-1.72099E-02-1.69888E+00
 -1       846 9.96390E+02-5.75831E-01-4.99922E-01 1.83899E+00-4.85937E-01-2.06667E+00
 -1       847 1.00505E+03-1.48082E-01 4.25695E-01 2.51826E+00-6.03462E-02-2.15544E-01
 -1       848 9.77290E+02-5.39132E-01-7.12381E-01 2.47045E+00 5.99765E-02-1.43020E+00
 -1       849 9.05961E+02-9.47498E-01-7.43394E-01 3.25750E+00 2.06726E-01-1.21577E+00
 -1       850 9.25696E+02-3.63789E-01 3.32449E-01 2.45152E+00-1.80619E-01-1.19268E+00
 -1       851 9.44423E+02 3.51182E-01-2.08324E-01 2.29364E+00 4.96325E-01-1.07900E+00
 -1       852 9.64435E+02 1.02055E+00 6.80511E-01 3.33353E+00-3.10763E-01-1.23678E+00
 -1       853 9.35288E+02 2.07313E-01 4.60931E-01 2.35608E+00 2.56543E-01 2.70221E-01
 -1       854 1.10804E+03 5.31606E-01 3.76940E+00 1.72904E+00 1.74287E-01 1.04920E+00
 -1       855 1.08698E+03 2.77795E-01 5.59478E-01 1.78661E+00-2.55106E-01 2.20533E+00
 -1       856 1.07800E+03 2.54131E-01 1.28224E+00 3.16484E+00 5.21829E-03 1.57692E-01
 -1       857 1.06955E+03-5.44984E-02 1.70935E-01 1.70419E+00 3.49826E-01 2.31964E+00
 -1       858 1.05068E+03 8.60414E-02-1.06120E-01 2.10964E+00-1.60797E-01 1.95998E+00
 -1       859 7.64960E+02-1.01868E+00-7.74877E-01 3.28334E+00 2.03987E-01-1.26320E+00
 -1       860 7.84194E+02-7.10617E-01 5.90565E-02 1.86053E+00-3.21513E-01-1.28245E+00
 -1       861 8.04169E+02-3.23777E-01 1.07014E-01 1.93507E+00 5.09584E-01-9.79532E-01
 -1       862 8.20140E+02-1.74551E-01-1.87947E-01 8.84169E-01-7.47949E-03-1.74035E+00
 -1       863 7.94461E+02 3.27867E-01 6.19131E-01 2.26059E+00 2.40775E-01 2.29828E-01
 -1       864 6.97592E+02 2.29664E-01-1.57531E-01 9.21636E-01-3.14963E-02-1.73522E+00
 -1       865 7.13874E+02 3.62718E-01-7.34089E-02 1.31488E+00-3.26928E-01-1.43620E+00
 -1       866 6.79716E+02-6.53744E-01-3.31082E-02 9.46533E-01-3.03094E-01-1.69220E+00
 -1       867 6.88523E+02-7.60835E-02 1.61540E-01 1.69926E+00-1.49807E-01 2.69689E-02
 -1       868 6.62098E+02 7.97243E-02-7.90729E-02 1.33205E+00 2.89696E-01-1.84074E+00
 -1       869 8.73898E+02 3.94130E-01 5.41044E-01 1.61428E+00 5.33003E-01-1.61505E+00
 -1       870 8.93997E+02 7.71077E-01 1.00979E+00 2.26618E+00-9.59737E-02-7.79259E-01
 -1       871 8.37899E+02 6.35692E-01-1.34913E-01 1.06747E+00 3.03478E-01-1.62268E+00
 -1       872 8.55697E+02-1.05014E-01-2.77272E-02 1.41078E+00-3.10841E-01-1.80922E+00
 -1       873 8.64349E+02-3.33809E-01-6.16513E-01 2.23455E+00 2.60227E-01-2.15896E-01
 -1       874 1.14633E+03 2.86951E-01 2.58834E+01 6.79763E-02 4.30090E-01-5.61410E+00
 -1       875 1.12692E+03 2.75546E-01 1.08713E+01 2.34906E+00-4.05504E-01 4.59720E-01
 -1       876 1.14561E+03-5.89406E+00 4.63318E+01-4.18663E+00 4.98529E-02-7.51372E+00
 -1       877 1.14825E+03-6.06984E+00 4.79452E+01-7.88919E-01-3.26012E-01-9.05479E-03
 -1       878 1.13123E+03-1.15085E+01 6.45771E+01-8.80190E+00-1.00149E+00-2.89760E+01
 -1       879 1.12628E+03-9.08609E+00 9.20685E+01-6.71648E+00-2.62955E+00-1.31101E+01
 -1       880 1.08597E+03-5.84137E-01 2.27119E-01 3.71370E+00 1.27900E-01-1.66832E+00
 -1       881 1.10695E+03 3.47830E-01 3.55565E+00 2.00205E+00-3.50188E-01-5.82832E-01
 -1       882 1.12662E+03-2.12400E-03 1.04277E+01 2.66328E+00 3.36950E-01-6.50140E-01
 -1       883 1.11722E+03-1.15368E+00 6.87280E+00 2.18352E+00 1.22094E-01 1.18188E-01
 -1       884 1.14657E+03 1.60486E-01 2.51899E+01 2.00790E-01-1.85074E-01 5.85452E+00
 -1       885 6.25842E+01 4.19932E-02-5.66378E-01 1.30179E+00 1.92316E-01-1.42011E+00
 -1       886 8.02747E+01-2.05821E-01-4.78545E-01 2.23803E+00-1.63719E-01-1.55530E+00
 -1       887 5.20032E+01 1.89600E-01 1.12228E-01 3.33077E-01-6.68280E-02-1.08269E+00
 -1       888 6.15088E+01 7.84160E-01 1.35637E+00 7.15265E-01 1.38850E-02 6.14420E-02
 -1       889 4.49372E+01 1.13842E+00 7.77606E-01-4.75740E-01-2.47120E-01-1.28109E+00
 -1       890 4.32369E+01 8.08780E-01 1.12409E+00-9.68505E-01-2.83762E-02-7.29346E-01
 -1       891 5.91859E+02 6.07644E-01-2.24981E-01 2.62067E+00 5.22206E-01-1.14032E+00
 -1       892 6.11301E+02 7.67258E-01 3.75445E-01 3.63388E+00-2.27194E-01-1.49392E+00
 -1       893 6.24493E+02-5.47049E-01-4.53110E-01 2.08429E+00 1.52459E-03-1.11510E+00
 -1       894 6.43907E+02-3.90691E-01-3.10558E-01 1.61396E+00-5.39196E-01-1.68020E+00
 -1       895 6.17735E+02-4.54967E-01-4.45153E-01 1.86969E+00 1.97487E-01 1.26959E-01
 -1       896 9.72941E+01 3.15652E-01-4.67226E-01 2.09405E+00 4.40706E-01-1.14819E+00
 -1       897 1.17510E+02 8.97734E-01 6.24636E-01 3.45186E+00-3.63345E-01-1.23455E+00
 -1       898 1.30190E+02-5.86495E-01-7.26584E-01 2.41610E+00 8.66308E-03-1.37684E+00
 -1       899 1.49613E+02-7.16313E-01-2.99655E-01 2.10025E+00-3.60418E-01-1.87641E+00
 -1       900 1.24524E+02-4.54541E-01-1.13223E+00 3.03967E+00-4.78256E-02 7.70933E-02
 -1       901 9.62346E+02 3.37688E-01 5.16387E-01 1.02147E+00 3.56690E-01 1.53294E+00
 -1       902 9.44413E+02 1.12980E-01 3.77902E-02 1.40427E+00-8.98068E-02 1.44985E+00
 -1       903 9.96825E+02-6.92093E-01-2.78174E-01 1.77011E+00 1.81698E-01 1.99225E+00
 -1       904 9.78601E+02-4.11063E-02-1.81857E-01 1.46862E+00-3.25691E-01 2.10735E+00
 -1       905 9.71679E+02-1.55918E-01-9.82336E-01 2.93213E+00-1.62734E-02 3.90170E-02
 -1       906 7.84834E+02-4.20135E-01-6.10309E-01 1.64911E+00 5.42245E-01 1.61400E+00
 -1       907 7.64698E+02-7.86308E-01-1.04197E+00 2.25617E+00-1.22962E-01 7.81576E-01
 -1       908 7.52682E+02 1.06031E+00 8.06980E-01 3.25882E+00 1.89339E-01 1.26131E+00
 -1       909 7.33502E+02 5.98038E-01-1.29519E-01 1.87150E+00-2.88842E-01 1.37047E+00
 -1       910 7.58802E+02-4.76701E-03 2.93070E-02 2.48101E+00-3.32047E-01 3.95985E-03
 -1       911 6.43076E+02 1.66060E-01-2.20136E-01 1.48837E+00 3.72004E-01 1.34782E+00
 -1       912 6.26946E+02 1.98902E-01-1.48271E-01 8.98988E-01-5.15051E-02 1.88257E+00
 -1       913 6.62479E+02 2.68447E-02 1.79060E-01 1.46856E+00-4.61999E-01 1.29043E+00
 -1       914 6.52991E+02 3.34547E-01 4.66984E-01 2.07671E+00-2.95624E-01-1.86899E-01
 -1       915 6.79336E+02-4.51170E-01-1.40222E-01 8.36330E-01 1.81623E-01 1.72059E+00
 -1       916 8.93747E+02 1.00083E+00 7.31316E-01 3.26292E+00 1.96530E-01 1.22835E+00
 -1       917 8.74650E+02 7.26861E-01-1.05033E-01 1.79061E+00-3.52627E-01 1.32677E+00
 -1       918 9.26421E+02-5.70916E-01-5.57345E-01 1.94297E+00 4.91700E-01 1.49588E+00
 -1       919 9.05776E+02-6.29880E-01-1.04503E+00 2.25068E+00-1.09558E-01 7.72479E-01
 -1       920 8.99855E+02 4.10011E-02-6.95606E-03 2.46756E+00-3.25270E-01 1.91916E-02
 -1       921 8.21028E+02-6.49661E-01 6.44749E-02 1.13133E+00 1.53276E-01 1.54058E+00
 -1       922 8.03105E+02 8.33248E-02 3.33213E-02 1.40514E+00-3.32278E-01 1.80525E+00
 -1       923 8.54504E+02 1.20870E-01-1.57198E-01 1.92274E+00 5.47396E-01 1.18904E+00
 -1       924 8.38343E+02 1.22318E-01 6.78602E-02 8.72624E-01-1.74399E-02 1.54423E+00
 -1       925 8.29405E+02 3.40895E-02 7.84393E-02 1.66999E+00 2.18136E-01 2.12546E-03
 -1       926 1.13292E+03-8.90394E+00 9.54576E+01-3.87107E+00-1.10628E+00 1.43579E+01
 -1       927 1.13801E+03-2.33309E+00 6.84964E+01-4.43580E+00 5.37888E-01 2.65872E+01
 -1       928 1.14766E+03-6.57359E+00 4.74135E+01-4.44203E+00 3.52852E-01 8.39062E+00
 -1       929 4.17192E+01 5.02960E-01 7.81198E-01-3.64715E-01 5.49232E-02 4.27369E-01
 -1       930 4.34948E+01 7.27251E-01 6.22564E-01-6.98365E-02 8.72694E-02 1.64844E+00
 -1       931 5.18689E+01 1.46869E-01 2.12017E-01 4.35705E-01 1.32730E-01 1.19830E+00
 -1       932 3.61363E+02-2.51296E-01 9.81156E-02 9.33949E-01-7.31912E-03 1.76051E+00
 -1       933 3.45093E+02-2.89463E-01 6.05226E-02 1.24585E+00-2.90003E-01 1.49785E+00
 -1       934 3.97224E+02 4.77650E-02 4.68129E-02 1.22846E+00 3.13065E-01 1.74210E+00
 -1       935 3.79237E+02 6.44474E-01-4.33426E-02 1.00170E+00-3.19069E-01 1.63455E+00
 -1       936 2.55275E+02-4.64842E-01 2.54815E-02 2.29760E+00 1.91814E-01 1.93722E+00
 -1       937 2.37437E+02-6.88623E-02-3.23072E-01 1.62982E+00-3.08674E-01 2.12200E+00
 -1       938 2.21696E+02-1.74927E-01 2.18469E-01 1.96844E+00 3.84215E-01 1.65960E+00
 -1       939 2.02321E+02 1.47801E-01 2.79528E-01 2.13306E+00-2.42822E-01 1.68094E+00
 -1       940 5.02234E+02 8.55616E-02 1.56511E-01 8.76570E-01 1.12394E-01 1.49386E+00
 -1       941 4.85084E+02-1.09418E+00-3.95226E-01 2.41622E+00-3.08022E-01 1.05971E+00
 -1       942 5.39107E+02-3.97733E-02 1.09512E-01 1.16092E+00 2.02929E-01 2.02599E+00
 -1       943 5.20819E+02 6.36689E-01 1.86053E-01 1.41258E+00-3.24907E-01 2.01388E+00
 -1       944 4.47705E+02-5.64953E-01-6.40319E-01 2.47780E+00 9.09034E-03-1.39685E+00
 -1       945 4.66736E+02-7.39521E-01-6.31134E-01 1.87326E+00-5.60778E-01-2.13337E+00
 -1       946 4.15500E+02 5.51632E-01-5.23960E-02 1.89450E+00 3.82073E-01-1.27662E+00
 -1       947 4.35042E+02 1.05523E+00 8.22058E-01 3.33277E+00-2.81765E-01-1.01806E+00
 -1       948 3.08914E+02 1.49148E-01-2.35361E-01 8.94723E-01 5.58699E-02-1.72538E+00
 -1       949 3.25180E+02 1.23404E-02-1.95547E-01 1.50257E+00-3.96820E-01-1.57917E+00
 -1       950 2.73369E+02-4.25286E-02 9.04730E-02 1.31969E+00 3.94230E-01-1.96990E+00
 -1       951 2.91717E+02-6.82735E-01 1.79133E-01 1.31924E+00-1.00100E-01-1.42188E+00
 -1       952 1.05146E+03 7.24864E-01 2.07687E-01 2.11559E+00 3.51380E-01-2.11117E+00
 -1       953 1.07130E+03 6.48346E-01 7.37139E-01 2.30711E+00-1.04631E-01-1.80222E+00
 -1       954 1.04271E+03-1.64663E-01-1.00000E+00 2.55165E+00 2.00680E-01-2.58986E-01
 -1       955 1.01494E+03-9.48047E-02-3.70532E-01 1.03879E+00-5.58275E-02 1.34204E+00
 -1       956 1.03286E+03 1.10099E+00 1.08832E-01 2.44388E+00 4.23605E-01 1.40109E+00
 -1       957 3.35258E+02 2.29840E-01 4.50076E-01 2.13577E+00 3.21180E-01 1.00333E-01
 -1       958 5.52984E+02-1.12353E+00-8.30116E-01 3.43012E+00 3.02465E-01-1.02532E+00
 -1       959 5.73104E+02-3.17127E-01 3.02688E-01 2.47320E+00-2.16087E-01-1.28165E+00
 -1       960 4.75641E+02 2.19509E-02 8.02859E-01 2.62379E+00-1.30442E-01-2.88406E-01
 -1       961 7.32641E+02 4.89599E-01 7.46947E-01 1.63179E+00 5.72580E-01-1.57014E+00
 -1       962 7.52850E+02 6.78120E-01 1.00245E+00 2.30129E+00-1.52898E-01-7.80502E-01
 -1       963 7.23326E+02-2.39490E-01-4.89644E-01 2.24626E+00 2.70697E-01-1.53083E-01
 -1       964 7.13977E+02-3.23673E-02-1.62637E-01 1.88917E+00 5.21567E-01 1.23403E+00
 -1       965 6.97325E+02 4.14145E-01 2.51313E-01 9.12387E-01-1.75211E-01 1.70752E+00
 -1       966 2.64165E+02 7.98054E-02 1.27177E-01 2.72217E+00-2.45981E-01-3.87972E-02
 -1       967 1.67791E+02 9.67263E-02-9.75211E-02 1.31226E+00 5.80966E-02-1.57521E+00
 -1       968 1.84577E+02 4.21734E-01 6.04277E-02 1.47773E+00-3.47301E-01-1.58875E+00
 -1       969 1.94556E+02-9.82755E-02-6.75955E-01 2.38079E+00 4.91621E-03 2.92933E-02
 -1       970 5.45904E+02 2.90759E-01 8.77759E-01 2.88509E+00-7.28911E-02 1.20606E-02
 -1       971 4.05243E+02-3.07924E-01-3.36550E-01 1.99359E+00-3.22643E-02-5.75378E-02
 -1       972-3.71515E+02-7.31330E-02-5.99525E-02 7.92503E-01 6.56230E-02 2.42768E+00
 -1       973-2.28968E+02 3.82608E-02-9.81539E-02 1.99236E+00-1.51578E-02 1.44914E+00
 -1       974-8.85409E+01-9.22773E-03 9.86718E-02 9.17891E-01 9.66098E-02-2.31504E+00
 -1       975-5.09870E+02-2.95961E-01-1.00310E-01 1.20471E+00 3.79519E-02 2.32011E+00
 -1       976-4.43160E+02 2.48960E-01 1.90733E-01 7.08343E-01 6.26263E-02 2.37081E+00
 -1       977-2.98567E+02-7.64442E-01-6.69745E-01 2.36771E+00-3.36401E-01 1.46078E+00
 -1       978-1.59440E+02 5.82288E-01 5.75772E-02 8.93901E-01-7.55335E-02-2.53754E+00
 -1       979-5.82283E+02 3.75535E-02-8.42213E-02 1.28028E+00 3.81789E-02-2.50063E+00
 -1       980-1.00689E+03 2.25954E-01 7.76386E-02 7.60193E-01 3.32843E-02 2.70124E+00
 -1       981-9.36216E+02 2.19736E-01-3.42724E-02 1.29130E+00 2.43550E-02 2.37844E+00
 -1       982-1.07808E+03 5.38771E-02 4.38960E-01 1.40438E+00-6.84410E-03-3.47307E+00
 -1       983-7.94952E+02 2.20518E-01-4.82694E-02 1.21655E+00 4.09215E-02 2.35504E+00
 -1       984-6.89004E+02 9.79681E-03 5.00608E-02 2.33994E+00-1.04358E-01 1.76790E+00
 -1       985-8.63113E+02-4.17896E-01-1.37398E-02 1.31623E+00 6.53207E-02 2.33825E+00
 -1       986-1.14914E+03 9.08146E-01-1.93171E+01-1.06400E+00 2.04209E+00 1.05032E+01
 -1       987-1.11529E+03-1.86344E-01-3.19121E+00 1.54399E+00 5.95828E-02 2.88434E+00
 -1       988-5.38550E+01-2.33527E-02 2.78732E-01 2.72287E-01-2.37683E-02 1.80140E+00
 -1       989-3.34226E+02-2.40995E-01-2.60856E-01 1.00417E+00-1.31829E-01-2.22952E+00
 -1       990-6.18547E+02 5.29497E-01 2.86936E-02 6.22673E-01-2.05613E-02 2.45024E+00
 -1       991-1.22450E+02-1.18563E-01-3.91192E-01 9.10494E-01-3.31506E-02 2.35156E+00
 -1       992-4.78645E+02 5.89893E-01 2.22257E-01 8.36835E-01 6.59657E-02-2.44228E+00
 -1       993-2.65542E+02 1.12315E-01-7.92187E-02 1.02689E+00-2.84168E-02-2.36490E+00
 -1       994-4.05195E+02-2.21125E-02 1.23050E-01 1.41780E+00 6.08488E-02-2.23000E+00
 -1       995-9.69092E+02-7.89995E-01-6.14363E-01 2.31000E+00 3.05372E-01-1.41250E+00
 -1       996-7.60311E+02 8.54306E-01 7.98417E-01 2.32180E+00-2.39248E-01-1.56713E+00
 -1       997-6.53989E+02 2.18543E-01 1.38748E-02 1.26604E+00-2.52337E-02-2.30711E+00
 -1       998-9.00923E+02 8.76114E-01 6.95180E-01 2.79144E+00-3.21382E-01-1.39900E+00
 -1       999-8.27602E+02-4.85328E-01-9.82674E-02 2.80144E-01-3.04409E-02-2.71316E+00
 -1      1000-1.16792E+03 8.47690E+01-1.26598E+02 6.83882E+00-3.26106E+00-2.78927E+01
 -1      1001-3.17822E+01-6.03513E+00-2.40974E+00-1.01899E+00-1.45641E-01-9.69437E-01
 -1      1002-1.11294E+03-5.87159E-01-2.81408E+00 1.23418E+00 3.35199E-01-3.63451E+00
 -1      1003-1.07665E+03-5.37924E-01-1.31173E-01 1.52786E+00-3.48877E-01 3.47507E+00
 -1      1004-1.04126E+03-6.99534E-02 2.07502E-01 1.23361E+00-9.12056E-02 2.79672E+00
 -1      1005-1.02416E+03 2.10590E-02 2.42407E-01 1.88600E+00-6.28397E-02-4.52714E-02
 -1      1006-8.73230E+01-1.95021E-01 2.42153E-01 9.07257E-01-4.48189E-02 2.36599E+00
 -1      1007-3.36286E+02 2.27174E-01 4.35364E-02 1.22537E+00 2.72987E-02 2.34110E+00
 -1      1008-2.29271E+02-3.39301E-02-1.49870E-01 1.09797E+00 1.20686E-01-2.35553E+00
 -1      1009-5.11945E+02-2.11537E-01-2.28524E-01 1.63425E+00-6.26197E-02-2.36074E+00
 -1      1010-6.16752E+02-8.09200E-01-5.47592E-01 2.86256E+00 3.89984E-01-1.32150E+00
 -1      1011-5.83144E+02 1.41641E-01-7.97140E-02 1.06662E+00 2.36858E-02 2.37476E+00
 -1      1012-4.76562E+02 1.48854E-01 4.11779E-02 1.10297E+00 4.20193E-02 2.53661E+00
 -1      1013-5.46855E+02 6.09273E-01 3.65816E-01 2.33559E+00-3.31549E-01-1.57445E+00
 -1      1014-8.98531E+02-8.29012E-01-7.55235E-01 2.24866E+00-2.39651E-01 1.55124E+00
 -1      1015-7.57920E+02-8.57957E-01-6.79392E-01 2.79005E+00-3.19656E-01 1.40220E+00
 -1      1016-7.24889E+02 9.27757E-02 6.07416E-02 1.47487E+00-8.57860E-02 2.56932E+00
 -1      1017-7.06631E+02-7.50997E-03-2.91384E-01 2.69348E+00 2.43789E-03 3.27730E-01
 -1      1018-7.95045E+02 4.48041E-01-1.29741E-01 1.71274E+00-1.43161E-01-2.20023E+00
 -1      1019-4.39551E+02-3.46538E-01-2.97961E-01 9.30474E-01-5.40525E-02-2.38750E+00
 -1      1020-2.63804E+02-8.30640E-02 2.37438E-02 1.58938E+00 5.10476E-02 2.45349E+00
 -1      1021-6.52197E+02-2.51769E-01-1.88252E-01 8.49390E-01 4.30773E-02 2.35213E+00
 -1      1022-1.24177E+02 7.57309E-02 1.98020E-01 9.59565E-01-8.78270E-02-2.25651E+00
 -1      1023-1.58758E+02 1.84408E-01 7.34759E-02 6.73169E-01 2.40263E-02 2.52692E+00
 -1      1024-8.63876E+02-1.86617E-01 8.96577E-02 1.22682E+00 5.66310E-02-2.35615E+00
 -1      1025-9.34173E+02-1.33203E-01-5.42704E-02 1.61623E+00-5.91418E-02-2.55479E+00
 -1      1026-1.93171E+02-3.28925E-01 5.71635E-02 1.79386E+00-6.79944E-02 2.20560E+00
 -1      1027-3.70519E+02-2.62319E-02-2.96048E-02 4.79833E-01-1.40231E-02-2.57822E+00
 -1      1028-9.72612E+02 2.89035E-01 1.18455E-01 5.99286E-01 3.78368E-02 2.33480E+00
 -1      1029-5.45673E+02-2.50143E-01-2.65370E-01 8.28869E-01 1.36113E-03 2.32312E+00
 -1      1030-8.30378E+02 5.29595E-01 1.01804E-01 6.40159E-01-9.15905E-03 2.58259E+00
 -1      1031-1.91830E+02-5.85259E-01-8.23011E-02 7.77921E-01-9.58474E-02-2.32085E+00
 -1      1032-4.06569E+02 1.54114E-02-1.65603E-01 9.75237E-01 1.77302E-02 2.41702E+00
 -1      1033-3.00953E+02 5.22546E-01 8.89898E-02 6.19698E-01 1.25304E-02-2.49775E+00
 -1      1034-1.13915E+03 3.21843E+00-1.86949E+01 2.18243E+00 7.97630E-02-2.68239E-01
 -1      1035-1.09712E+03-6.47343E-01-1.91367E+00 3.43193E+00-1.51803E-01 9.96703E-02
 -1      1036-1.00701E+03 7.22095E-01 2.09625E-01 8.35318E-01 3.50494E-02-2.69036E+00
 -1      1037-1.16714E+03 1.10218E+02-1.08110E+02-7.39637E+00 3.62773E-01 3.47091E+01
 -1      1038-7.21907E+02-7.47435E-01-1.35187E-01 1.25560E+00 1.24430E-01-2.40422E+00
 -1      1039-6.69943E+02-2.35773E-01 3.89731E-02 2.53927E+00-6.26959E-02-5.41855E-02
 -1      1040-7.31592E+01-1.99353E-01 2.54254E-01 2.10272E+00-5.32533E-02-1.65357E-01
 -1      1041-1.04021E+03-8.52389E-01 1.47060E-01 1.24521E+00 1.86068E-01-2.76261E+00
 -1      1042-1.07746E+02 5.23751E-01 2.84341E-01 2.97337E+00 7.23885E-02-3.35514E-01
 -1      1043-9.87680E+02-2.09103E-01 6.05227E-02 1.93469E+00 3.73554E-01 2.55807E-01
 -1      1044-2.46730E+02-1.83112E-01 6.71124E-02 2.98796E+00 8.99765E-02 4.33684E-01
 -1      1045-2.12808E+02 1.77657E-01-5.30339E-02 2.63520E+00-1.72541E-01 3.56437E-01
 -1      1046-3.17368E+02 1.25270E-02 6.16039E-02 1.83500E+00-1.06908E-01-1.88472E-01
 -1      1047-1.39676E+02-3.58534E-01 8.36077E-02 2.91596E+00-2.79453E-01-9.18926E-02
 -1      1048-4.58179E+02-3.47132E-01 2.18447E-02 1.93271E+00 2.65816E-01 3.56646E-01
 -1      1049-5.62419E+02-3.16586E-01 2.43114E-01 2.82165E+00 4.16537E-02-4.02159E-01
 -1      1050-4.24236E+02 1.23661E-01 6.41334E-02 2.96974E+00-2.85448E-03-2.90573E-02
 -1      1051-3.87842E+02-2.07473E-01-1.70250E-02 1.90817E+00 7.98445E-02-5.36126E-02
 -1      1052-1.76619E+02 2.55671E-01 1.74794E-01 2.03407E+00 8.66243E-02 2.16875E-01
 -1      1053-2.83856E+02 5.33742E-02-7.26591E-02 2.77932E+00 1.01205E-01 3.66882E-01
 -1      1054-6.34994E+02-7.45755E-02 4.74531E-02 1.97793E+00 8.80653E-02 2.47701E-01
 -1      1055-9.54520E+02 1.02825E-01-8.57745E-02 2.73412E+00-5.26572E-02-3.35060E-01
 -1      1056-9.15367E+02-1.70728E-01 2.06523E-01 2.58959E+00-4.41989E-02-2.83860E-01
 -1      1057-5.30924E+02 4.33718E-01-2.27893E-02 2.70359E+00-1.08559E-01-3.26387E-01
 -1      1058-8.47070E+02-6.90491E-02 7.05684E-02 1.82682E+00-4.90977E-02-6.41222E-02
 -1      1059-8.11712E+02 6.85729E-02-1.06419E-01 1.81760E+00 1.60533E-02 7.93324E-02
 -1      1060-8.84439E+02 6.43566E-02-1.97870E-01 2.51976E+00-1.04065E-01 1.86229E-01
 -1      1061-4.93891E+02-2.12896E-01 1.09451E-01 1.81368E+00-2.67557E-01-8.30422E-02
 -1      1062-3.52623E+02 3.87471E-03-6.76454E-02 1.69795E+00 4.07667E-02 1.08683E-01
 -1      1063-7.74393E+02-5.95362E-02 2.09491E-01 2.52318E+00-1.14381E-01-1.97593E-01
 -1      1064-6.01616E+02 9.29018E-02-4.22679E-02 2.78218E+00-1.53275E-01-3.42169E-01
 -1      1065-7.43427E+02 2.01567E-01-1.99211E-01 2.61501E+00-2.66796E-02 3.14156E-01
 -1      1066-6.89928E+02 5.16391E-01 8.29119E-02 2.31633E-01-6.80112E-02-2.69443E+00
 -1      1067-1.06215E+03 5.08081E-01 1.51690E-01 2.96038E+00 1.20957E-01-2.91476E-01
 -1      1068-3.29386E+01-7.73215E+00-2.92179E+00-2.29047E+00 7.00983E-02 1.35865E+00
 -1      1069-1.14856E+03 6.05495E-01-1.96566E+01-6.64490E-01-2.03727E+00-9.91805E+00
 -1      1070-5.32820E+01-1.42987E-01 1.07782E-01 2.37106E-01 2.27334E-02-1.93130E+00
 -1      1071-1.15411E+03 7.16017E+00-7.10758E+01-2.49016E+00 1.26510E-02-9.10338E-01
 -1      1072-1.16653E+03 6.62404E+01-4.77761E+01-8.63825E+00 3.25635E+00 7.66736E+01
 -1      1073-1.18155E+03 7.19136E+01-6.15414E+01 3.62147E+00-8.71953E-01-8.30243E+01
 -1      1074-3.15661E+01-4.01032E+00-1.75573E+00-1.36131E+00 2.52214E-01 2.05366E+00
 -1      1075-2.97740E+01-5.37768E+00-2.14399E+00-1.67013E+00 1.70052E-01-1.84879E+00
 -1      1076-4.86765E+01-5.71865E-01 3.61490E-02 1.28945E+00 1.20352E-01-1.50952E-01
 -1      1077-1.27215E+03-1.12798E+02-2.03718E+02 7.02764E+01-3.20627E+01 1.76534E+02
 -1      1078-1.19351E+03-1.01152E+02-2.47037E+02 1.15194E+02 1.11494E+00 1.05763E+02
 -1      1079-1.09545E+03 2.27565E+01 2.61256E+00-2.18511E+01 9.96486E+00 3.16521E+01
 -1      1080-1.22809E+03-1.48211E+02-2.82166E+02 1.27916E+02 1.19794E+01-1.16103E+02
 -1      1081-1.28104E+03-1.16371E+02-2.10065E+02 7.70643E+01 2.81676E+01-1.74538E+02
 -1      1082-1.09483E+03 2.26609E+01 2.67226E+00-2.21959E+01-7.86522E+00-3.28879E+01
 -1      1083-2.28485E+01-3.19900E+00-2.71171E+00 1.79500E+00 1.72726E-01-1.74313E+00
 -1      1084-2.02877E+01-3.43662E-02-1.53835E+00 1.85326E+00 8.73100E-01-1.51308E+00
 -1      1085-3.54887E+01-9.18461E-01-4.65796E-01-1.38681E+00 2.58357E-01-8.98812E-01
 -1      1086-2.15810E+01 5.29614E-01-1.41966E+00 2.17481E+00-6.93409E-01 1.56916E+00
 -1      1087-2.32188E+01-8.90829E-01-2.01602E+00 2.06273E+00 1.77910E-02 2.20888E+00
 -1      1088-3.67926E+01-1.90997E+00-7.00453E-01-1.63111E+00 2.53529E-01 1.22036E+00
 -1      1089-1.24679E+03-1.66286E+02-3.20252E+02 1.34157E+02 4.67506E+00-2.16167E+01
 -1      1090-1.21357E+03-1.08681E+02-2.86582E+02 1.15174E+02-4.38605E+00-6.97355E+01
 -1      1091-1.16047E+03 9.80445E+01-9.79658E+01-3.47950E+00-4.50147E+00-5.84434E+01
 -1      1092-1.23911E+03-1.46812E+02-3.04315E+02 1.23830E+02 8.54283E+00 6.95403E+01
 -1      1093-1.23304E+03-1.27677E+02-2.91401E+02 1.21106E+02 2.69694E+00 1.87663E+01
 -1      1094-1.16458E+03 8.54296E+01-1.30660E+02-7.61559E-01-1.82677E+00 1.94290E+00
 -1      1095-1.16517E+03 9.41606E+01-9.34376E+01-1.03290E+01 1.91542E+00 6.31407E+01
 -1      1096-2.31100E+01-3.49782E+00-2.54778E+00 2.11910E+00 3.47561E-02 1.01215E+00
 -1      1097-2.25850E+01-1.79657E+00-1.43337E+00 1.65841E+00 1.99196E-02 6.31451E-01
 -1      1098-3.17267E+01-5.77273E+00-2.52633E+00-1.34061E+00-2.27797E-01 1.44160E+00
 -1      1099-2.34572E+01-2.65711E+00-1.58458E+00 2.37752E+00-4.90921E-02-4.86333E-01
 -1      1100-2.36915E+01-2.10514E+00-2.78793E+00 1.24836E+00-3.56274E-02-1.29273E+00
 -1      1101-3.18991E+01-5.95586E+00-1.88443E+00-1.35382E+00-1.20738E-01 5.84969E-01
 -1      1102-3.10424E+01-6.03334E+00-2.71754E+00-1.27079E+00-1.55288E-01-2.04957E+00
 -1      1103-1.13429E+03-9.94520E+00-2.48183E+01-4.76043E+00 7.29239E+00-1.77395E+01
 -1      1104-1.12806E+03-2.01369E+00-6.78093E+00-2.93228E-01-1.95772E+00-3.87143E+00
 -1      1105-1.14274E+03 6.23372E+00-3.75694E+01-3.41206E+00 1.31498E+00-4.05388E+01
 -1      1106-1.11245E+03-6.40096E-01-2.39202E+00-2.60784E-02 1.11978E+00 1.21162E+00
 -1      1107-1.10086E+03 3.06565E-01-1.02256E+00 1.88833E+00 5.31780E-01 2.85931E+00
 -1      1108-1.13106E+03-1.98781E-01-9.54035E+00 5.36881E-01-1.80830E+00-1.61884E+00
 -1      1109-1.08265E+03-1.90805E-01-8.46722E-02 1.66300E+00-1.45872E-01 2.95359E+00
 -1      1110-1.06749E+03-1.01457E+00-2.89205E-01 1.32292E+00 9.64376E-02 2.86695E+00
 -1      1111-1.09531E+03 3.10633E-01-1.15634E+00 1.98755E+00-4.06375E-02 3.45719E+00
 -1      1112-1.05012E+03 5.74614E-01-6.64536E-02 7.40564E-01-3.42761E-01 3.09385E+00
 -1      1113-1.03157E+03-1.60956E-01 3.33971E-01 9.59404E-01 1.27713E-01 2.40655E+00
 -1      1114-1.05952E+03-2.58807E-01 2.35955E-01 1.20401E+00 1.10517E-01 3.28550E+00
 -1      1115-1.01516E+03 4.20757E-01-1.05944E-01 6.23862E-01-1.39978E-01 2.79575E+00
 -1      1116-9.96853E+02-7.79207E-02 2.60880E-01 6.32000E-01 1.94551E-01 2.46262E+00
 -1      1117-1.02345E+03-1.72435E-01 4.04829E-01 1.05453E+00 2.47058E-01 2.46421E+00
 -1      1118-9.80452E+02 3.50937E-01-1.45594E-02 7.09809E-01-1.39765E-01 2.37518E+00
 -1      1119-9.62219E+02 2.44169E-01 1.48749E-01 1.58435E+00 3.86441E-01 1.93544E+00
 -1      1120-9.88459E+02 6.60923E-01 7.41557E-01 8.06189E-01-4.63287E-02 2.18544E+00
 -1      1121-9.44205E+02 2.00931E-01 4.64799E-02 1.97952E+00-2.17771E-01 1.86518E+00
 -1      1122-9.26454E+02 2.55145E-01 6.03479E-02 2.27299E+00 3.78813E-01 1.99270E+00
 -1      1123-9.52763E+02 5.02092E-01 1.69380E-01 1.04203E+00 1.64837E-02 2.55467E+00
 -1      1124-9.07530E+02-1.93410E-01-3.38046E-02 2.50676E+00-4.44181E-01 1.98571E+00
 -1      1125-8.90944E+02-5.26858E-01-3.21270E-01 8.52414E-01 6.16266E-02 2.79318E+00
 -1      1126-9.15533E+02 5.46110E-01 4.45996E-01 2.28630E+00-1.92163E-01 2.38342E+00
 -1      1127-8.74277E+02 1.13009E-01-1.84215E-01 7.16657E-01-3.41091E-01 2.59699E+00
 -1      1128-8.55113E+02-2.32286E-01 1.68710E-01 9.04098E-01 1.64851E-01 2.59123E+00
 -1      1129-8.84216E+02-1.15527E+00-1.38278E+00 1.27284E+00-2.48491E-02 2.24054E+00
 -1      1130-8.38133E+02 5.18265E-01 2.57957E-01 9.26365E-01-7.71521E-02 2.36412E+00
 -1      1131-8.21369E+02 4.19693E-01 2.55292E-02 1.94966E+00 1.76793E-01 2.16787E+00
 -1      1132-8.47567E+02-4.61302E-01-4.03170E-01 5.68860E-01 3.71232E-02 2.46583E+00
 -1      1133-8.02904E+02 2.33142E-01 1.29406E-01 1.95573E+00-2.44426E-01 1.87445E+00
 -1      1134-7.85324E+02 2.40302E-01 3.72045E-02 2.21028E+00 3.99509E-01 2.04535E+00
 -1      1135-8.12007E+02 7.61926E-01 1.15592E-01 1.39119E+00-4.62006E-02 2.60062E+00
 -1      1136-7.66338E+02 3.34917E-02 2.70087E-01 2.72313E+00-4.18864E-01 2.16167E+00
 -1      1137-7.50794E+02-8.43623E-01-7.32661E-01 1.34196E+00-1.71333E-02 2.59164E+00
 -1      1138-7.73996E+02 5.68592E-01 4.64533E-01 2.34117E+00-2.22743E-01 2.44575E+00
 -1      1139-7.33198E+02 4.87088E-01-1.68248E-01 9.15571E-01-2.22820E-01 2.91978E+00
 -1      1140-7.14594E+02-2.00615E-01 2.17521E-01 7.79666E-01 1.77460E-01 2.55494E+00
 -1      1141-7.42874E+02-6.15112E-01-3.57787E-01 2.10393E+00 2.18551E-03 2.45774E+00
 -1      1142-6.98208E+02 2.70552E-01-9.98022E-02 6.96193E-01-3.21260E-01 2.78040E+00
 -1      1143-6.78982E+02-9.87672E-02 2.26406E-01 8.13699E-01 1.81113E-01 2.45712E+00
 -1      1144-7.04886E+02 1.02227E+00 1.08727E+00 1.49193E+00-8.47952E-02 1.96266E+00
 -1      1145-6.62623E+02 2.95569E-01-4.46942E-01 3.82221E-01-3.56270E-01 2.69504E+00
 -1      1146-6.43225E+02-1.42062E-01 2.63040E-01 5.98988E-01 1.89504E-01 2.42438E+00
 -1      1147-6.71936E+02-9.35751E-01-2.42010E-01 1.22429E+00 2.86243E-01 2.26263E+00
 -1      1148-6.26279E+02 5.13481E-01 2.39058E-01 8.89721E-01-8.78369E-02 2.29199E+00
 -1      1149-6.09633E+02 4.14250E-01-4.54972E-02 1.95932E+00 1.82243E-01 2.07238E+00
 -1      1150-6.35447E+02-3.21243E-01-4.44315E-01 4.37451E-01 2.23666E-02 2.35025E+00
 -1      1151-5.91174E+02 1.66893E-01 7.26337E-02 1.93927E+00-2.59562E-01 1.87267E+00
 -1      1152-5.73800E+02 1.42702E-01 4.61199E-02 2.03835E+00 2.99740E-01 1.94958E+00
 -1      1153-6.00136E+02 7.84765E-01 1.00018E-01 1.35071E+00-7.46349E-02 2.53620E+00
 -1      1154-5.55803E+02-3.29214E-01-1.95543E-01 1.94504E+00-4.22393E-01 1.84321E+00
 -1      1155-5.37441E+02-3.88058E-01-1.11207E-02 7.55212E-01 1.93567E-01 2.43637E+00
 -1      1156-5.64305E+02 1.73693E-01 6.68338E-02 1.47351E+00-1.46348E-01 2.58682E+00
 -1      1157-5.21114E+02 4.23569E-02-1.26014E-01 5.49335E-01-2.51178E-01 2.45346E+00
 -1      1158-5.02154E+02-2.87410E-01 3.12120E-01 8.43647E-01 1.65162E-01 2.49726E+00
 -1      1159-5.29875E+02-7.59280E-01-8.19579E-01 6.81012E-01 1.02084E-01 2.22230E+00
 -1      1160-4.85277E+02 2.63061E-01 6.50171E-02 8.71992E-01-7.36127E-02 2.51932E+00
 -1      1161-4.67756E+02-2.18005E-01-1.35055E-01 9.76023E-01 1.28246E-01 2.57270E+00
 -1      1162-4.93806E+02-5.00240E-01-7.53405E-01 1.17708E+00 7.48156E-02 2.38682E+00
 -1      1163-4.50931E+02 2.91696E-01-2.49050E-02 7.83597E-01-1.72925E-01 2.40568E+00
 -1      1164-4.32734E+02 2.01105E-01 1.45120E-01 1.62500E+00 3.98039E-01 2.00104E+00
 -1      1165-4.59504E+02 4.53171E-01 5.35212E-01 1.15129E+00-2.89126E-02 2.38190E+00
 -1      1166-4.14680E+02 8.48850E-02 1.87750E-02 1.90532E+00-2.26298E-01 1.94765E+00
 -1      1167-3.97540E+02 7.27980E-02-7.07793E-02 1.91065E+00 2.68474E-01 2.00827E+00
 -1      1168-4.23198E+02 4.36923E-01 2.42169E-01 1.03218E+00 4.04691E-02 2.54974E+00
 -1      1169-3.79691E+02-4.81772E-02 1.00197E-01 1.93132E+00-2.58583E-01 1.97099E+00
 -1      1170-3.62479E+02-7.17559E-02-1.54444E-01 1.76925E+00 3.09012E-01 2.02516E+00
 -1      1171-3.88199E+02 2.92135E-01 1.59240E-01 1.21721E+00-5.75569E-02 2.67592E+00
 -1      1172-3.44159E+02 2.17236E-01 1.43951E-01 1.94229E+00-2.18125E-01 1.93318E+00
 -1      1173-3.26421E+02 2.60600E-01 4.29145E-02 2.26122E+00 3.68944E-01 2.03435E+00
 -1      1174-3.52957E+02 3.64078E-01 1.97566E-01 1.09963E+00 3.95836E-02 2.66571E+00
 -1      1175-3.07479E+02-1.88771E-01-2.21320E-02 2.54271E+00-4.88099E-01 2.00300E+00
 -1      1176-2.90944E+02-5.55079E-01-3.18156E-01 8.84927E-01 4.38109E-02 2.72036E+00
 -1      1177-3.15601E+02 5.55739E-01 4.08869E-01 2.31199E+00-3.15734E-01 2.31909E+00
 -1      1178-2.74046E+02 1.54517E-01-2.45431E-01 8.20524E-01-1.89450E-01 2.51275E+00
 -1      1179-2.55144E+02-3.79128E-01 2.36432E-01 9.22234E-01 2.44311E-01 2.84041E+00
 -1      1180-2.84083E+02-9.03621E-01-1.26181E+00 1.70487E+00-1.01768E-02 2.00024E+00
 -1      1181-2.38447E+02 1.43875E-01-7.71351E-02 8.26133E-01-1.75073E-01 2.60986E+00
 -1      1182-2.19947E+02-2.63966E-01 6.65361E-02 7.20657E-01 2.92940E-01 3.00717E+00
 -1      1183-2.45934E+02 4.34880E-01 6.71978E-02 1.86333E+00-1.30271E-01 2.15533E+00
 -1      1184-2.03406E+02 4.18256E-01 1.61336E-01 1.06763E+00-3.92562E-01 2.56798E+00
 -1      1185-1.85025E+02-2.89355E-01-1.54643E-02 1.29061E+00 2.20395E-02 2.26425E+00
 -1      1186-2.13304E+02-8.34721E-01-1.18191E+00 1.53622E+00-1.30098E-01 2.28164E+00
 -1      1187-1.68112E+02 3.29898E-01-3.46911E-01 4.05663E-01-1.91019E-01 2.56509E+00
 -1      1188-1.49209E+02-2.05882E-01 3.64321E-01 4.68819E-01 2.29537E-01 2.58902E+00
 -1      1189-1.77207E+02-7.30518E-01-1.66125E-02 1.28779E+00 2.76604E-01 2.35819E+00
 -1      1190-1.32713E+02 1.04001E-01-3.26457E-01 7.16958E-01-2.52555E-01 2.27740E+00
 -1      1191-1.13576E+02-2.34406E-01 3.43702E-02 7.05441E-01 2.28735E-01 2.61821E+00
 -1      1192-1.40651E+02 1.14149E-01-3.42767E-01 1.05619E+00-4.20048E-01 2.06927E+00
 -1      1193-9.72193E+01 1.79066E-01-9.97542E-02 7.55160E-01-2.22697E-01 2.30211E+00
 -1      1194-7.88472E+01-3.41831E-01 2.71917E-01 6.89413E-01 1.48699E-01 2.46985E+00
 -1      1195-1.06316E+02-5.20315E-01-8.97099E-01 9.68188E-01 7.74834E-02 2.10885E+00
 -1      1196-6.23273E+01 3.02916E-01 1.31667E-01 7.76749E-01-1.54423E-01 1.84208E+00
 -1      1197-4.54074E+01 1.37808E-01 4.00295E-01-5.65571E-02 5.84845E-02 1.64831E+00
 -1      1198-7.05423E+01 1.16591E-01 2.67835E-01 8.47479E-01-3.02877E-01 1.97339E+00
 -1      1199-4.22940E+01-6.82172E-01-1.00298E+00-2.63272E-01-7.76291E-02 1.46554E+00
 -1      1200-1.12803E+03-1.76610E+00-6.45529E+00-5.44174E-01 1.85818E+00 3.92898E+00
 -1      1201-1.13418E+03-1.01247E+01-2.51696E+01-4.91083E+00-7.60650E+00 1.77507E+01
 -1      1202-1.14561E+03 4.51640E+00-3.85130E+01-1.51668E+00-4.69932E-01 3.88759E+01
 -1      1203-1.09986E+03-1.12273E+00-5.18290E-01 1.00652E+00-1.34109E-02-3.38778E+00
 -1      1204-1.11298E+03-1.23608E+00-2.92944E+00-3.65353E-01-9.32437E-01-1.25726E+00
 -1      1205-1.13135E+03-3.05490E-01-1.00099E+01 3.79902E-01 1.79123E+00 1.94557E+00
 -1      1206-1.06722E+03 1.12454E-01 1.28659E-01 2.23411E+00-4.21137E-01-2.70269E+00
 -1      1207-1.08266E+03 5.03151E-01 4.68327E-01 1.11248E+00-1.51119E-01-2.87088E+00
 -1      1208-1.09543E+03-1.24012E-01-1.42557E+00 1.32215E+00 3.27657E-01-3.62125E+00
 -1      1209-1.03218E+03-5.80152E-01-3.36757E-02 1.27376E+00-3.04501E-02-2.33014E+00
 -1      1210-1.04952E+03-3.43771E-01-1.12224E-01 2.00070E+00 3.86693E-01-2.45092E+00
 -1      1211-1.06026E+03-3.57155E-01 1.18457E-01 1.64567E+00-1.54413E-01-3.29658E+00
 -1      1212-9.96785E+02 7.61208E-01 4.35153E-01 2.23767E+00-2.73557E-01-2.04101E+00
 -1      1213-1.01471E+03 6.49455E-01 1.00472E-01 7.38535E-01 8.43488E-02-2.52052E+00
 -1      1214-1.02390E+03-5.92683E-01 1.58758E-01 8.48049E-01-5.87484E-02-2.69490E+00
 -1      1215-9.61528E+02-5.94259E-01-3.44947E-01 8.81256E-01-6.37564E-02-2.72917E+00
 -1      1216-9.78172E+02-2.30096E-01-7.49210E-02 2.57226E+00 4.88106E-01-1.88194E+00
 -1      1217-9.85757E+02 8.31659E-01 3.96026E-01 2.44518E+00 3.82194E-01-2.28199E+00
 -1      1218-9.25749E+02-4.84145E-01 1.79637E-01 9.78390E-01-2.36273E-01-2.93201E+00
 -1      1219-9.44540E+02 1.63072E-01-2.18315E-01 8.30304E-01 1.83016E-01-2.59595E+00
 -1      1220-9.54516E+02-8.66199E-01-1.27584E+00 1.68359E+00-5.78703E-03-2.02427E+00
 -1      1221-8.92474E+02-2.53553E-02-2.59792E-01 2.74461E+00-4.25231E-01-2.16370E+00
 -1      1222-9.08027E+02 8.59565E-01 7.57206E-01 1.38195E+00-2.02209E-02-2.59782E+00
 -1      1223-9.16015E+02 6.45495E-01 4.26693E-01 2.16370E+00 7.53593E-03-2.44144E+00
 -1      1224-8.55778E+02-2.21221E-01-7.18203E-02 1.99602E+00-2.31155E-01-1.84970E+00
 -1      1225-8.73472E+02-2.37798E-01-1.01892E-02 2.23417E+00 4.08748E-01-2.03334E+00
 -1      1226-8.84803E+02-5.55932E-01-4.40648E-01 2.34675E+00-2.19570E-01-2.44679E+00
 -1      1227-8.20074E+02-5.14901E-01-2.68808E-02 5.83757E-01-9.41212E-02-2.51663E+00
 -1      1228-8.37381E+02-4.54801E-01-2.30969E-01 1.69531E+00 1.69122E-01-2.01858E+00
 -1      1229-8.47107E+02-7.48231E-01-1.17572E-01 1.28927E+00-1.46565E-01-2.56225E+00
 -1      1230-7.84677E+02-3.40689E-01-1.88680E-01 1.01354E+00-4.26874E-01-2.66473E+00
 -1      1231-8.02988E+02 2.65931E-01 2.16196E-02 1.31047E+00-4.82579E-03-2.34504E+00
 -1      1232-8.10793E+02 6.34624E-01-9.42485E-02 7.55738E-01 7.61620E-02-2.67461E+00
 -1      1233-7.51314E+02 2.48947E-01 6.07068E-02 2.52947E+00-4.58580E-01-2.00994E+00
 -1      1234-7.67755E+02 5.68320E-01 3.60810E-01 9.46311E-01 7.16207E-02-2.81896E+00
 -1      1235-7.74881E+02 1.07796E+00 1.34144E+00 1.50216E+00-1.54636E-02-2.36739E+00
 -1      1236-7.14499E+02-5.72921E-01-1.72101E-01 1.26581E+00-7.15421E-03-2.05723E+00
 -1      1237-7.32633E+02-4.44052E-01-2.12092E-01 2.24271E+00 4.60253E-01-2.21030E+00
 -1      1238-7.43168E+02-6.21399E-01-4.39758E-01 2.31232E+00-2.28397E-01-2.47122E+00
 -1      1239-6.80210E+02 4.75522E-01 2.26219E-01 1.61810E+00-2.10514E-01-2.04526E+00
 -1      1240-6.97525E+02 5.77203E-01 4.91145E-02 5.98216E-01 4.52832E-02-2.46288E+00
 -1      1241-7.06125E+02-4.23061E-01 2.82434E-02 5.03894E-01-9.44952E-02-2.54198E+00
 -1      1242-6.44167E+02 2.47543E-01 3.34121E-02 2.25012E+00-4.00923E-01-2.02122E+00
 -1      1243-6.62000E+02 2.49544E-01 1.13790E-01 1.97740E+00 2.50705E-01-1.85464E+00
 -1      1244-6.70617E+02 7.46850E-01 2.30438E-01 1.19307E+00 1.08402E-01-2.61520E+00
 -1      1245-6.09628E+02-8.01469E-01-6.68383E-01 1.32727E+00 3.21888E-02-2.50603E+00
 -1      1246-6.25111E+02 4.33459E-02 3.41816E-01 2.77706E+00 4.65745E-01-2.14593E+00
 -1      1247-6.32910E+02 5.95659E-01 4.54789E-01 2.42034E+00 3.29398E-01-2.38847E+00
 -1      1248-5.72777E+02-3.90750E-01 3.09386E-01 5.37912E-01-1.91616E-01-2.70033E+00
 -1      1249-5.91781E+02 4.49709E-01-4.01380E-01 6.30287E-01 2.58881E-01-2.70713E+00
 -1      1250-6.02123E+02-9.06317E-01-7.19191E-01 2.06087E+00-9.62075E-02-2.32227E+00
 -1      1251-5.37870E+02-3.04166E-01 1.65816E-01 6.58235E-01-3.77673E-01-3.04162E+00
 -1      1252-5.55981E+02 1.76741E-01 8.63650E-02 8.32542E-01 1.92142E-02-2.69309E+00
 -1      1253-5.62690E+02 8.25986E-01 5.18244E-01 1.86754E+00 1.83337E-01-2.29484E+00
 -1      1254-5.02978E+02-2.37764E-01-6.16092E-02 1.06068E+00-1.24683E-01-2.49565E+00
 -1      1255-5.20658E+02 4.33292E-01 1.87755E-01 1.25076E+00 1.71579E-01-2.57703E+00
 -1      1256-5.31033E+02-5.33576E-01-9.56669E-01 1.96748E+00-1.09812E-01-1.91624E+00
 -1      1257-4.67671E+02 4.29227E-01 3.71991E-01 1.86201E+00-3.69019E-01-2.02844E+00
 -1      1258-4.86308E+02 3.69001E-01-1.93509E-02 7.89040E-01 1.55458E-01-2.33289E+00
 -1      1259-4.94667E+02 4.78414E-01 4.23383E-01 1.13962E+00-5.36789E-03-2.34572E+00
 -1      1260-4.31581E+02-4.07435E-01-3.26590E-02 8.26781E-01-2.12358E-01-2.43919E+00
 -1      1261-4.49921E+02-3.95870E-01-2.65610E-01 2.00181E+00 4.10973E-01-1.88621E+00
 -1      1262-4.58399E+02 2.86440E-01 2.65471E-02 1.51171E+00 1.31401E-01-2.59460E+00
 -1      1263-3.97073E+02-2.34411E-01-2.81203E-02 1.98683E+00-2.31583E-01-2.12002E+00
 -1      1264-4.14641E+02 4.68886E-01 2.07572E-01 9.54157E-01 2.37867E-01-2.40572E+00
 -1      1265-4.23547E+02-5.59043E-01-7.90672E-01 9.40710E-01-1.47056E-01-2.25954E+00
 -1      1266-3.62285E+02 7.02701E-02-9.04076E-02 1.67425E+00-8.96132E-02-2.09372E+00
 -1      1267-3.78775E+02-1.23194E-01 9.87488E-02 1.73285E+00 1.33513E-01-2.06857E+00
 -1      1268-3.89215E+02-7.81761E-01-3.69952E-01 1.10570E+00 1.53230E-02-2.63548E+00
 -1      1269-3.25462E+02-3.54479E-01 9.01869E-02 7.96578E-01-2.80960E-01-2.44114E+00
 -1      1270-3.44555E+02 5.89226E-02-2.95317E-01 1.59234E+00 4.12019E-01-2.04541E+00
 -1      1271-3.52418E+02 6.25444E-01 1.23689E-01 8.01510E-01-4.21362E-02-2.60108E+00
 -1      1272-2.91985E+02 4.06349E-01-1.51829E-02 1.94947E+00-1.91320E-01-2.12070E+00
 -1      1273-3.08654E+02 4.93233E-01 2.61468E-01 9.31497E-01 7.42632E-02-2.36550E+00
 -1      1274-3.17658E+02-2.88928E-01-3.25314E-01 3.65092E-01-5.56491E-02-2.43739E+00
 -1      1275-2.56231E+02 1.37788E-01-2.13239E-02 2.02476E+00-2.95794E-01-2.00397E+00
 -1      1276-2.73536E+02 1.43194E-01 6.68465E-02 1.91900E+00 2.57892E-01-1.90255E+00
 -1      1277-2.82519E+02 7.58534E-01 1.40497E-01 1.34165E+00 7.09710E-02-2.57045E+00
 -1      1278-2.20694E+02 2.26579E-02-1.16955E-01 2.13465E+00-2.89399E-01-1.88479E+00
 -1      1279-2.37969E+02-2.21188E-02 1.04399E-01 2.10689E+00 4.01104E-01-1.90662E+00
 -1      1280-2.46673E+02 1.63872E-01-4.95199E-03 1.41713E+00 2.08740E-01-2.60714E+00
 -1      1281-1.84223E+02-3.77697E-01 9.21091E-02 8.99712E-01-1.60292E-01-2.29912E+00
 -1      1282-2.02876E+02-5.26955E-01-3.17177E-01 1.81819E+00 3.67733E-01-2.03251E+00
 -1      1283-2.12348E+02-5.31223E-01-2.43807E-01 1.32629E+00-1.57814E-01-2.60407E+00
 -1      1284-1.50580E+02 4.92934E-01 8.79071E-02 2.14039E+00-2.22242E-01-2.15276E+00
 -1      1285-1.67235E+02 5.11261E-01 2.18058E-01 1.02162E+00 3.99987E-02-2.34105E+00
 -1      1286-1.76128E+02-3.01512E-01-3.76447E-01 6.01576E-01-1.50370E-01-2.34581E+00
 -1      1287-1.15218E+02-1.27075E-02-8.43647E-02 1.92283E+00-4.03987E-01-1.83142E+00
 -1      1288-1.32584E+02 2.19689E-02 1.97502E-01 2.03047E+00 3.07182E-01-1.85476E+00
 -1      1289-1.41257E+02 6.86424E-01 3.10238E-01 1.52747E+00 8.25218E-02-2.60555E+00
 -1      1290-7.99734E+01-1.70087E-01 2.80793E-03 1.85845E+00-2.53917E-01-1.72488E+00
 -1      1291-9.69056E+01 4.86852E-03 1.93867E-01 1.92171E+00 3.05662E-01-1.90268E+00
 -1      1292-1.06054E+02 4.44416E-02 1.52595E-01 1.31358E+00-9.08392E-03-2.56122E+00
 -1      1293-4.60759E+01-1.24189E-01 1.44732E-01 1.07546E-01 6.86285E-02-1.47692E+00
 -1      1294-6.16292E+01-8.67999E-02 1.86035E-01 1.50200E+00 3.28427E-01-1.60077E+00
 -1      1295-7.05610E+01-4.14080E-02 1.97109E-01 1.06199E+00 4.29314E-02-2.24549E+00
 -1      1296-4.23578E+01-5.46713E-01-5.25853E-01-5.88567E-01 5.61912E-02-1.83118E+00
 -1      1297-3.62098E+02 2.91589E-01-3.86632E-02 9.29207E-01-2.09990E-01 1.70393E+00
 -1      1298-3.44394E+02-1.52730E-01 8.43515E-02 1.34522E+00 2.97192E-01 1.83210E+00
 -1      1299-3.97422E+02 1.29718E-01-1.10798E-01 1.31624E+00-3.76062E-01 1.69022E+00
 -1      1300-3.79101E+02-4.23127E-02 1.26602E-01 1.21255E+00 2.71921E-01 1.88085E+00
 -1      1301-3.70904E+02-2.83306E-01-3.26852E-01 1.74128E+00-2.06812E-02-7.09005E-02
 -1      1302-2.54922E+02 5.17354E-01 4.39168E-01 2.82818E+00-3.73253E-02 1.76112E+00
 -1      1303-2.38764E+02 1.69275E-01 1.26307E-01 3.28193E+00 4.86788E-01 9.73867E-01
 -1      1304-2.20274E+02-6.94052E-02-1.40095E-01 3.34552E+00-6.06790E-01 7.13527E-01
 -1      1305-2.03597E+02-6.54837E-01-8.84613E-01 2.04732E+00 3.15026E-01 1.47779E+00
 -1      1306-2.29784E+02 1.81588E-01 4.84705E-01 2.97607E+00-3.26705E-01 7.52758E-01
 -1      1307-9.74242E+01 2.05135E-02-1.86012E-01 1.38623E+00-2.73942E-01-1.70622E+00
 -1      1308-1.15810E+02 7.08665E-02-1.78659E-01 1.57473E+00 3.14497E-01-1.62697E+00
 -1      1309-8.95320E+01 2.18224E-01 6.59503E-01 2.26626E+00-2.02239E-01 9.98999E-03
 -1      1310-8.15495E+01 3.68605E-01 3.44564E-01 1.11485E+00 1.93591E-01-1.95659E+00
 -1      1311-6.26591E+01-1.28570E-02 7.50569E-01 8.55206E-01-2.93679E-01-1.25238E+00
 -1      1312-5.01701E+02-2.39315E-01 3.56682E-01 1.96158E+00-3.40958E-01 1.23761E+00
 -1      1313-4.85076E+02-1.36342E-01 2.99927E-01 1.73074E+00 9.34428E-02 1.19836E+00
 -1      1314-5.39256E+02 2.29695E-01-1.09464E-01 1.34296E+00-3.01110E-01 2.16378E+00
 -1      1315-5.21058E+02-5.56366E-01-1.59117E-01 1.64568E+00 3.78999E-01 1.59837E+00
 -1      1316-5.12044E+02-1.19684E-01 2.83345E-01 2.35803E+00-2.65819E-01-3.48630E-01
 -1      1317-4.67880E+02 1.82188E-01-1.11712E-01 1.64856E+00-6.91547E-02 1.46780E+00
 -1      1318-4.50203E+02-1.88689E-02 1.02138E-01 1.41876E+00 4.36798E-01 1.90718E+00
 -1      1319-4.32300E+02 2.82246E-01-9.62851E-02 1.39337E+00-1.41520E-01 1.81807E+00
 -1      1320-4.14510E+02-1.10360E-01-1.10685E-01 1.35938E+00 3.16269E-01 2.29168E+00
 -1      1321-4.40244E+02 3.07211E-01 4.21701E-01 2.01062E+00-1.68140E-01 2.30483E-01
 -1      1322-3.26146E+02 3.81789E-01 3.08014E-01 1.61761E+00-5.32116E-01 1.66198E+00
 -1      1323-3.06752E+02 5.68141E-01 4.76985E-01 2.09006E+00 1.61129E-02 1.10544E+00
 -1      1324-2.93665E+02-7.87491E-01-3.87030E-01 3.66922E+00-2.20305E-01 1.50791E+00
 -1      1325-2.74257E+02-6.37776E-01 2.93482E-01 2.65093E+00 5.03971E-01 1.16867E+00
 -1      1326-3.00017E+02 4.48290E-01 3.92650E-01 1.85819E+00 2.12577E-01-1.53016E-01
 -1      1327-1.31218E+02-2.67466E-02 6.26770E-01 1.26736E+00-3.85761E-01-2.33335E+00
 -1      1328-1.49749E+02 5.94588E-01 1.82872E-01 1.57773E+00-1.01326E-02-1.89596E+00
 -1      1329-1.67422E+02 1.61324E-01 1.35647E-01 1.16831E+00-1.62768E-01-1.51772E+00
 -1      1330-1.84215E+02-2.22996E-01 7.47926E-02 1.41352E+00 3.19357E-01-1.41394E+00
 -1      1331-1.57952E+02 2.38868E-01 4.26456E-02 2.59388E+00-1.27937E-01 2.76942E-01
 -1      1332-5.92180E+02-5.76523E-01 2.43760E-01 2.74482E+00-4.82302E-01-1.31456E+00
 -1      1333-6.11378E+02-8.31879E-01-4.44532E-01 3.65813E+00 1.87044E-01-1.24029E+00
 -1      1334-5.53147E+02 7.66152E-01 8.44249E-01 3.51507E+00-2.78793E-01-1.35845E+00
 -1      1335-5.72586E+02 4.97445E-01-1.65961E-01 2.44984E+00 3.72863E-01-1.49672E+00
 -1      1336-5.82613E+02-3.91734E-01-3.90656E-01 2.48881E+00-2.40590E-01 4.85039E-02
 -1      1337-1.03199E+03-1.26621E-01 3.80461E-01 1.87697E+00-4.47574E-01 1.33374E+00
 -1      1338-1.01516E+03-1.73349E-01 1.33935E-01 1.81816E+00 1.70086E-01 1.50702E+00
 -1      1339-1.00612E+03-1.47138E-01-2.50957E-01 2.14284E+00 2.91878E-01-1.40993E-01
 -1      1340-9.97099E+02 3.65361E-01-3.55862E-02 1.57105E+00-1.90356E-01 1.58847E+00
 -1      1341-9.79686E+02 1.02747E-02 7.69902E-02 1.32619E+00 4.43106E-01 1.89289E+00
 -1      1342-9.26117E+02 3.84203E-01 6.41863E-01 1.74528E+00-5.87329E-01 1.58482E+00
 -1      1343-9.06129E+02 7.10421E-01 1.11039E+00 2.21975E+00 1.58218E-01 8.09103E-01
 -1      1344-9.62149E+02 3.24405E-01-2.77657E-01 1.06852E+00-1.22251E-01 1.50570E+00
 -1      1345-9.44267E+02-2.06821E-02-1.39245E-01 1.42962E+00 4.12788E-01 1.92936E+00
 -1      1346-9.35788E+02-4.90590E-01-5.96724E-01 2.37329E+00-2.37007E-01 1.67213E-01
 -1      1347-1.08749E+03-5.74120E-01-7.10730E-01 1.87779E+00-2.67789E-01-2.48378E+00
 -1      1348-1.10659E+03-1.57382E-01-3.19657E+00 2.21004E+00-1.14849E-01-1.55875E+00
 -1      1349-1.07058E+03-3.22967E-01-4.01462E-01 1.90416E+00 2.81424E-01-1.91852E+00
 -1      1350-1.07915E+03 1.36656E-01-5.55141E-01 3.30614E+00 5.22327E-01-2.57349E-01
 -1      1351-1.05154E+03-2.36880E-01-3.60530E-01 1.74240E+00-4.47905E-01-2.13817E+00
 -1      1352-7.84948E+02 3.94593E-01 5.60127E-01 1.62179E+00-5.59620E-01 1.62614E+00
 -1      1353-7.64807E+02 7.77222E-01 1.03980E+00 2.27115E+00 9.63887E-02 7.54042E-01
 -1      1354-8.21049E+02 6.49654E-01-3.68124E-02 1.12721E+00-1.44479E-01 1.54280E+00
 -1      1355-8.03098E+02-6.80554E-02-2.84845E-02 1.39534E+00 3.39576E-01 1.81037E+00
 -1      1356-7.94506E+02-2.67634E-01-5.61535E-01 2.21447E+00-2.56378E-01 2.41134E-01
 -1      1357-7.14542E+02 5.75437E-01 7.44903E-03 2.75216E+00-4.82923E-01 1.32187E+00
 -1      1358-6.98116E+02 2.08236E-01-7.59798E-01 3.39632E+00 5.01467E-01 9.76029E-01
 -1      1359-6.88666E+02-1.68552E-01-2.44478E-01 2.76818E+00 1.91921E-01 3.34880E-01
 -1      1360-6.78486E+02-5.22292E-01 3.07889E-01 3.08145E+00-5.61832E-01 8.43581E-01
 -1      1361-6.62802E+02-8.64954E-01-4.10033E-01 2.15151E+00 2.82695E-01 1.47047E+00
 -1      1362-8.93798E+02-9.59121E-01-7.21936E-01 3.26564E+00-2.33888E-01 1.47233E+00
 -1      1363-8.74294E+02-7.72572E-01 1.12826E-01 1.68644E+00 4.11090E-01 1.18231E+00
 -1      1364-8.54646E+02-2.30339E-01 5.74441E-02 2.01186E+00-3.97041E-01 1.11894E+00
 -1      1365-8.38335E+02-9.62819E-02-3.88756E-02 8.88001E-01 2.24219E-02 1.53106E+00
 -1      1366-8.64337E+02 2.71252E-01 5.59901E-01 2.21319E+00-2.78491E-01-2.37991E-01
 -1      1367-1.12652E+03-6.79466E-02-1.06341E+01 2.37569E+00-7.18689E-01-7.70861E-01
 -1      1368-1.14624E+03-1.22195E-01-2.56484E+01 2.63315E-01 5.90789E-01 5.86842E+00
 -1      1369-1.14778E+03 6.61364E+00-4.83613E+01-1.13103E+00-6.34559E-02-1.37002E-01
 -1      1370-1.14634E+03 5.96024E+00-4.61054E+01-4.02542E+00 4.02828E-01 8.04614E+00
 -1      1371-1.12759E+03 8.87042E+00-9.23463E+01-7.57916E+00-2.07195E+00 1.37027E+01
 -1      1372-1.13121E+03 1.19069E+01-6.32162E+01-9.04033E+00-8.34530E-01 2.94397E+01
 -1      1373-1.10742E+03-5.39534E-01-3.52395E+00 2.30716E+00-1.40105E-01 1.45433E+00
 -1      1374-1.08704E+03-4.24518E-02-1.06355E+00 2.18794E+00 4.37516E-02 2.17278E+00
 -1      1375-1.11586E+03 1.20459E+00-6.83275E+00 2.57687E+00-2.25648E-01 6.66336E-02
 -1      1376-1.12693E+03-1.68970E-01-1.02940E+01 2.24017E+00 7.40389E-01 4.21394E-01
 -1      1377-1.14603E+03-3.40270E-01-2.47750E+01 3.77514E-01-4.33568E-01-5.74584E+00
 -1      1378-8.03413E+01 8.75610E-02 8.82397E-03 2.03362E+00-1.19926E-01 1.22959E+00
 -1      1379-6.24962E+01 3.72118E-01 4.82978E-01 9.84280E-01 2.38707E-01 1.43982E+00
 -1      1380-6.00422E+01-5.52299E-01 3.30412E-01 1.69404E+00-2.83116E-01-8.92559E-02
 -1      1381-5.20160E+01-4.07132E-01 1.75791E-01 5.22048E-01-3.28314E-01 1.28689E+00
 -1      1382-4.47912E+01-1.11846E+00-6.49663E-01-7.33207E-01-2.13953E-01 1.37856E+00
 -1      1383-4.37461E+01-1.38302E+00-1.26445E+00-6.87125E-01-1.71291E-01 9.32141E-01
 -1      1384-3.44811E+02-3.84140E-02-1.37302E-01 1.45383E+00-4.98223E-01-1.33974E+00
 -1      1385-3.61618E+02 4.97630E-01 1.23862E-01 7.94705E-01 1.57757E-01-1.73675E+00
 -1      1386-3.08921E+02-1.48795E-01 2.51726E-01 8.75620E-01-5.65903E-02-1.69848E+00
 -1      1387-3.25162E+02 5.13496E-02 2.63778E-01 1.47469E+00 4.04973E-01-1.55591E+00
 -1      1388-3.35262E+02-2.98794E-01-4.52100E-01 2.11461E+00-2.82033E-01 1.59318E-01
 -1      1389-6.09363E+02 7.02267E-01-2.18862E-01 1.30506E+00-1.01519E-01 1.39671E+00
 -1      1390-5.91049E+02 6.69465E-02-1.26079E-01 1.31642E+00 3.76294E-01 1.92309E+00
 -1      1391-6.42764E+02-3.10788E-02 1.24309E-01 1.82485E+00-4.11077E-01 1.49110E+00
 -1      1392-6.26582E+02-1.68220E-01 1.48791E-01 9.22245E-01 5.16648E-02 1.74442E+00
 -1      1393-6.17732E+02 3.71401E-01 3.37500E-01 1.88769E+00-2.20922E-01 2.03243E-01
 -1      1394-1.16275E+02 1.90505E-01-5.14258E-03 1.79037E+00-2.62021E-01 2.00435E+00
 -1      1395-9.74718E+01-2.52535E-01 5.69895E-01 1.95961E+00 3.11059E-01 1.42017E+00
 -1      1396-1.49032E+02 3.51686E-01 3.33729E-01 2.34659E+00-4.46679E-01 1.86222E+00
 -1      1397-1.31503E+02 2.95700E-01 1.37482E-02 1.84530E+00 1.00843E-01 1.59297E+00
 -1      1398-1.24064E+02 7.52785E-02-4.95981E-02 3.16518E+00 3.57146E-01-4.34245E-01
 -1      1399-4.85850E+02 2.73817E-01-1.62158E-01 1.30968E+00-3.66452E-01-1.71651E+00
 -1      1400-5.02973E+02 1.38730E-01-2.66533E-01 1.94529E+00 3.31890E-02-1.32902E+00
 -1      1401-4.49245E+02 2.61945E-05 6.74998E-03 1.56942E+00-1.91713E-01-1.64951E+00
 -1      1402-4.67524E+02 1.24462E-01 1.35133E-01 1.52056E+00 5.41055E-01-1.72910E+00
 -1      1403-4.76460E+02-3.93340E-01-4.81095E-01 2.05488E+00 1.67297E-01-9.61236E-02
 -1      1404-2.37521E+02 1.87763E-01-9.98528E-02 1.50318E+00-1.91159E-01-1.79307E+00
 -1      1405-2.55597E+02 1.90277E-01 1.46394E-01 1.65601E+00 3.73287E-01-1.75388E+00
 -1      1406-2.73384E+02 3.37406E-02-8.88816E-02 1.27050E+00-3.96704E-01-1.94266E+00
 -1      1407-2.91745E+02 6.81504E-01-1.97096E-01 1.30654E+00 9.73491E-02-1.38590E+00
 -1      1408-2.64257E+02-1.72787E-01-2.40927E-01 2.72758E+00 2.47886E-01 1.23844E-01
 -1      1409-4.15303E+02-6.77308E-01-6.18892E-02 2.07346E+00-3.01827E-01-1.61277E+00
 -1      1410-4.32664E+02 1.72038E-01 2.17641E-01 1.67281E+00 3.13054E-01-2.28960E+00
 -1      1411-3.79520E+02-5.93257E-01-8.50772E-02 1.04045E+00-1.16076E-01-1.71348E+00
 -1      1412-3.96623E+02-2.64696E-01-4.34110E-02 1.82783E+00 4.07713E-01-1.45574E+00
 -1      1413-4.07122E+02-6.75983E-01-5.96228E-01 2.28651E+00-1.01269E-01-1.77659E-01
 -1      1414-9.44700E+02-5.51368E-01 2.18270E-01 2.60035E+00-5.23820E-01-1.11982E+00
 -1      1415-9.64116E+02-6.98594E-01-3.23735E-01 3.59731E+00 2.56734E-01-1.42519E+00
 -1      1416-9.77323E+02 3.70618E-01 5.54115E-01 2.15381E+00 8.05320E-02-1.03604E+00
 -1      1417-9.96501E+02 5.85798E-01 2.86142E-01 1.81769E+00 6.70387E-01-1.70007E+00
 -1      1418-9.70608E+02 2.16961E-01 2.84404E-01 1.88192E+00-5.06092E-02 1.78393E-01
 -1      1419-7.65057E+02 9.57713E-01 7.38239E-01 3.28667E+00-2.43572E-01-1.47325E+00
 -1      1420-7.84613E+02 7.48604E-01-4.00132E-02 1.76251E+00 3.91217E-01-1.12672E+00
 -1      1421-7.32612E+02-4.61427E-01-7.61685E-01 1.70572E+00-6.21939E-01-1.58471E+00
 -1      1422-7.52656E+02-6.34577E-01-1.06422E+00 2.26943E+00 1.77076E-01-8.01901E-01
 -1      1423-7.58820E+02 7.96844E-02-2.54021E-02 2.48383E+00 3.06985E-01 2.23723E-02
 -1      1424-6.24244E+02 5.70884E-01 4.72231E-01 2.17883E+00 5.21156E-02-1.04308E+00
 -1      1425-6.43862E+02 3.77854E-01 3.73910E-01 1.67242E+00 5.51771E-01-1.68101E+00
 -1      1426-6.53316E+02-6.41525E-01-6.26526E-01 2.48847E+00 2.31768E-01-6.05002E-02
 -1      1427-6.62010E+02-1.79886E-01-1.58808E-02 1.47166E+00-1.98435E-01-2.00968E+00
 -1      1428-6.79832E+02 5.96084E-01-1.53181E-01 1.09759E+00 3.59167E-01-1.85672E+00
 -1      1429-8.73870E+02-3.86860E-01-5.27748E-01 1.61801E+00-5.48638E-01-1.62555E+00
 -1      1430-8.94010E+02-7.77027E-01-1.01680E+00 2.26794E+00 9.17146E-02-7.66761E-01
 -1      1431-9.05970E+02 9.67726E-01 7.66293E-01 3.28421E+00-2.08072E-01-1.27131E+00
 -1      1432-9.25767E+02 3.68914E-01-3.97692E-01 2.44292E+00 1.75788E-01-1.29048E+00
 -1      1433-8.99988E+02-7.31963E-02 3.88416E-02 2.46522E+00 3.08072E-01-1.06407E-02
 -1      1434-8.04053E+02 4.52180E-01 2.89132E-03 2.03454E+00-3.52659E-01-8.92653E-01
 -1      1435-8.20121E+02 1.43559E-01 1.46819E-01 9.25890E-01 1.22154E-02-1.70993E+00
 -1      1436-8.37876E+02-6.28888E-01 9.71833E-02 1.08685E+00-3.01776E-01-1.62664E+00
 -1      1437-8.55709E+02 8.82845E-02 2.81731E-02 1.41953E+00 3.22922E-01-1.81278E+00
 -1      1438-8.29413E+02-4.14700E-02-7.87023E-02 1.69975E+00-1.94254E-01 9.14190E-04
 -1      1439-1.13767E+03 6.68611E+00-9.81850E+01-2.52704E+00-3.88708E-01-1.47881E+01
 -1      1440-1.14706E+03 8.10520E+00-4.63162E+01-4.99172E+00-7.57013E-02-8.17141E+00
 -1      1441-1.13925E+03 1.43694E+00-7.17759E+01-4.15370E+00-1.98273E+00-2.51368E+01
 -1      1442-4.23180E+01-1.52501E+00-1.25724E+00 5.82611E-02 3.28068E-01-4.59261E-01
 -1      1443-4.30288E+01-4.93943E-01-4.53473E-01-2.56030E-01 8.63822E-02-1.75034E+00
 -1      1444-5.13015E+01-2.46556E-01-1.36767E-01 3.96806E-01 2.32070E-01-1.72941E+00
 -1      1445-1.07021E+03 1.39987E-01-3.80309E-01 1.64049E+00-2.77926E-01 2.44991E+00
 -1      1446-1.05184E+03-4.70433E-01-5.74684E-02 1.91333E+00 2.77808E-01 1.88744E+00
 -1      1447-1.04228E+03 3.82484E-01 6.73349E-01 2.45475E+00-1.38258E-01-2.77985E-01
 -1      1448-1.03203E+03-5.82211E-01 8.50767E-02 1.48561E+00 3.67681E-01-1.55614E+00
 -1      1449-1.01521E+03-9.85423E-02-5.30069E-02 1.29235E+00-8.01007E-02-1.83587E+00
 -1      1450-2.02827E+02-2.74582E-01 3.62254E-01 1.20291E+00-4.08285E-01-1.57048E+00
 -1      1451-2.22067E+02 2.11969E-01-1.85946E-01 1.27488E+00 3.08262E-01-2.07872E+00
 -1      1452-5.21008E+02-3.67388E-01-5.85647E-01 2.36005E+00-4.65183E-01-1.43257E+00
 -1      1453-5.40265E+02-3.91967E-01-6.53922E-01 2.64542E+00 1.21109E-01-1.03098E+00
 -1      1454-5.73282E+02 1.65024E-01 4.08593E-01 1.60572E+00-4.82146E-01 1.64370E+00
 -1      1455-5.54546E+02 2.99744E-01 5.38330E-01 1.59362E+00 2.58807E-01 1.41406E+00
 -1      1456-5.46555E+02 7.32760E-02 2.32642E-01 2.81088E+00 4.18243E-01-2.38554E-01
 -1      1457-7.52882E+02-9.61464E-01-7.51714E-01 3.30217E+00-2.01533E-01 1.29963E+00
 -1      1458-7.33231E+02-4.18767E-01 3.53823E-01 2.32301E+00 1.52483E-01 1.28364E+00
 -1      1459-7.22852E+02 6.95225E-01 6.82499E-01 2.60659E+00-2.65617E-01-1.60944E-02
 -1      1460-7.13876E+02-3.19487E-01 2.31074E-01 1.41250E+00 2.34055E-01-1.62432E+00
 -1      1461-6.97495E+02-1.96073E-01 2.85194E-01 1.02013E+00-3.77927E-02-1.85032E+00
 -1      1462-1.84746E+02-1.24881E-01 1.86731E-01 2.21609E+00-2.05656E-01 1.24759E+00
 -1      1463-1.67881E+02-7.72623E-02 2.62386E-01 1.99907E+00 3.74115E-01 1.68687E+00
 -1      1464-1.93860E+02 2.81670E-01 3.32315E-01 2.23763E+00-8.84250E-02 2.47122E-01
 -1      1465 1.98781E+02 1.05460E-01 6.08274E-02 2.77574E+01-5.32879E-02 1.81425E-02
 -1      1466 1.29702E+02-2.03430E-01 1.10691E-01 2.74708E+01-3.04585E-03 6.06174E-02
 -1      1467-9.49642E+01-2.65438E-02-5.47630E-03 2.73588E+01-5.69964E-03-2.90958E-01
 -1      1468 4.32736E+01 9.58944E-02-4.55998E-03 2.75419E+01 9.58256E-02 3.05171E-01
 -1      1469 2.53089E+02 3.40367E-01-2.04219E-01 2.71639E+01 1.20191E-01 1.29784E-01
 -1      1470-1.64375E+02 1.29950E-01-1.84000E-01 2.74390E+01-2.69795E-02-5.57915E-02
 -1      1471 2.84764E+02-1.44318E-01-1.06104E-02 2.80948E+01-2.95162E-02 2.83881E-01
 -1      1472-4.94031E+02-1.72782E-01 4.80153E-02 2.78914E+01-3.04959E-02-2.47471E-01
 -1      1473 4.60834E+02-1.21233E-01-1.30184E-02 2.80075E+01-2.30433E-02 2.80406E-01
 -1      1474 5.30840E+02-4.39374E-01 2.90224E-01 2.47930E+01-6.74068E-01-9.47813E-01
 -1      1475-3.95792E+02 9.74997E-02-1.24852E-01 2.71493E+01-6.20266E-02 3.27908E-02
 -1      1476 3.38257E+02-2.22418E-01 2.86248E-01 2.79545E+01-1.40248E-01 3.29804E-01
 -1      1477 4.27047E+02 9.71736E-02-1.47646E-01 2.73417E+01 4.28190E-02-1.79685E-02
 -1      1478-5.28034E+02 1.46346E+01 8.54104E+00-1.87008E+00-5.63276E+00 1.37220E+01
 -1      1479-2.16514E+02 3.85025E-02-1.37066E-01 2.75522E+01 3.03684E-02-1.01664E-01
 -1      1480 7.71985E+01-3.27419E-01 3.76053E-01 2.76122E+01-1.62712E-01 2.14861E-01
 -1      1481-2.27077E+01-1.33420E+00-1.84037E-01 2.69057E+01 3.86964E-03-1.84648E-01
 -1      1482-3.02026E+02 1.96907E-01-2.14958E-01 2.77963E+01-2.92908E-02-3.90817E-01
 -1      1483-6.01745E+01 2.46969E-02 6.99856E-02 2.72478E+01-1.54064E-01-8.12656E-02
 -1      1484-2.68558E+02 1.02722E-01 3.13896E-01 2.72072E+01 1.33791E-01-4.28333E-02
 -1      1485 3.71543E+02 8.85295E-02 3.23824E-01 2.68656E+01-3.22882E-01 8.37183E-02
 -1      1486-4.50169E+02 7.44778E-02 4.04971E-01 2.67063E+01 3.20295E-01 1.04223E-01
 -1      1487-3.61335E+02-1.49694E-01 1.02546E-02 2.76917E+01 5.75500E-02-2.75717E-01
 -1      1488 2.74492E+02-1.24532E+01-3.05835E+01-2.46173E+01-1.31249E+01 1.96081E+00
 -1      1489 3.15551E+00 5.84581E-01 1.57420E-01 3.45314E+01-1.13770E-02-2.33864E-01
 -1      1490-1.28852E+02 8.38051E-02 3.71951E-02 2.80051E+01-2.77314E-02-2.62027E-01
 -1      1491 1.64459E+02 1.17314E-02-2.00060E-01 2.74132E+01-1.67572E-02 1.26364E-02
 -1      1492 4.93410E+02-1.62709E-01 4.79714E-01 2.75983E+01-1.29732E-02-1.46680E-02
 -1      1493-5.33340E+02 3.56048E-01 4.63663E-01 2.53468E+01-1.66401E-01 3.97759E-01
 -1      1494-5.34885E+02 3.83366E+00 4.98943E-01 1.88092E+01-1.25066E+00 3.23276E+00
 -1      1495 6.71221E+00 3.87136E-02-1.00730E-01 1.85222E+01-8.34179E+00-4.14496E-01
 -1      1496-4.25686E+01 1.35221E-02-6.00754E-02 2.76499E+01 3.14298E-02-2.29028E-01
 -1      1497 2.17265E+02-6.69908E-02-3.43112E-01 2.68564E+01 1.72713E-01 5.05514E-02
 -1      1498 2.35402E+02-1.33373E-01 3.98491E-01 2.77915E+01-1.79609E-01 3.10659E-02
 -1      1499-9.39605E-01 1.28559E-01 9.08317E-02 3.48391E+01-5.33404E-02 1.00230E-01
 -1      1500 1.12696E+02-2.68489E-02-1.33865E-01 2.69861E+01 4.13142E-02-3.59376E-02
 -1      1501-1.81781E+02 8.70720E-02-2.19358E-02 2.74070E+01 1.81041E-02-6.38549E-02
 -1      1502 3.03310E+02-7.66190E-02-4.29010E-01 2.69761E+01 1.70354E-01-4.77260E-02
 -1      1503 3.22416E+02-2.35506E-01 1.26394E-01 2.73880E+01-1.40637E-02-2.20606E-02
 -1      1504-3.81483E+00-1.42085E-01 1.04795E-01 3.49290E+01 1.72355E-01-3.18464E-03
 -1      1505-7.80434E+01-7.64987E-03 4.49874E-02 2.81449E+01-4.52935E-02-1.01598E-01
 -1      1506 3.92775E+02-3.92154E-02-1.63339E-02 2.75762E+01-9.09081E-02 1.09178E-01
 -1      1507-1.12052E+02-1.08817E-02 5.59280E-02 2.71502E+01-6.88680E-02-1.47036E-01
 -1      1508-3.79677E+02 2.03484E-02 2.75716E-01 2.65335E+01 2.97091E-01-5.33607E-02
 -1      1509 4.44208E+02 4.28735E-02 2.76017E-01 2.67375E+01-3.05185E-01 4.94220E-02
 -1      1510 4.09736E+02 8.83904E-02-3.15795E-01 2.79785E+01 1.38865E-01 2.53178E-01
 -1      1511-4.89697E+00-8.86751E-02 1.36942E-01 3.49553E+01 1.61672E-02-4.11648E-02
 -1      1512 6.09781E+01-1.51212E-01-5.25735E-01 2.70167E+01 2.17602E-01-1.72453E-01
 -1      1513-2.85526E+02 2.03465E-01-9.87805E-02 2.74630E+01-7.14710E-03-4.41209E-02
 -1      1514 4.80024E+02-3.79094E-02-4.75785E-01 2.68713E+01 1.74810E-01-5.03050E-02
 -1      1515-2.83467E+00 1.50513E-01-4.02032E-02 3.45229E+01 1.10144E-01 3.90701E-02
 -1      1516-5.14564E+02 5.70956E-02-1.87661E-02 2.71784E+01-2.31904E-02-6.07864E-02
 -1      1517 5.14759E+02 3.16069E-01-3.30044E-01 2.72824E+01 8.57507E-02 1.76520E-01
 -1      1518 3.59291E+02 1.63334E-01-1.39671E-01 2.71605E+01 5.62853E-02 1.07388E-01
 -1      1519 1.46208E+02-1.72965E-01 2.44874E-01 2.77565E+01-6.30816E-02 4.21140E-01
 -1      1520 1.81840E+02 3.32584E-02-1.27117E-02 2.79469E+01-1.60325E-02 3.66632E-01
 -1      1521 2.68636E+02 6.03524E-02 3.37661E-01 2.68080E+01-2.40641E-01 6.53695E-02
 -1      1522 9.50991E+01 1.38228E-01-4.06969E-01 2.76962E+01 5.66663E-02 8.16828E-02
 -1      1523-1.47483E+02 6.31057E-02 4.37984E-01 2.69818E+01 1.86222E-01 4.04142E-02
 -1      1524-1.98928E+02 2.67074E-01-1.43913E-01 2.74055E+01 5.94831E-02-1.05002E-01
 -1      1525 2.04974E+00-1.39840E-01 3.03091E-01 3.07821E+01-1.70878E+00 9.30740E-02
 -1      1526 5.46433E+02-2.58368E+00-1.63392E-01 1.99490E+01-1.46478E+00-2.55373E+00
 -1      1527-2.75644E+02-2.17047E+00 1.94098E+01-2.57797E+01-1.21339E+01-1.25440E-01
 -1      1528-2.55404E+02 2.36310E-01-4.49201E-02 2.76985E+01 3.66665E-02-1.92467E-01
 -1      1529-2.37711E+02-4.19806E-02 1.04508E-01 2.69059E+01 1.94190E-02-2.88207E-01
 -1      1530-4.67923E+02 2.09370E-01-1.60020E-01 2.70980E+01-3.36117E-02 4.49806E-03
 -1      1531-4.84629E+02-3.37349E-02-1.98871E-01 2.73192E+01-2.43163E-02-7.86346E-02
 -1      1532-4.33573E+02 1.24836E-01 1.48725E-01 2.72882E+01-1.93579E-02-1.97156E-01
 -1      1533-2.72049E+00 3.93100E-01-2.63871E-02 3.47430E+01-1.45392E-01 4.46011E-02
 -1      1534-3.26690E+02-5.40042E-02 1.94660E-01 2.75387E+01-4.17787E-02-7.45628E-02
 -1      1535-3.78238E+00-9.57564E-02 1.17861E-01 3.49720E+01-1.31590E-02 4.77154E-02
 -1      1536 5.16209E-01-1.26228E-02-1.10122E-01 3.46663E+01-1.04080E-02-7.24084E-05
 -1      1537-1.21862E+00-6.49850E-02 3.20088E-02 3.45276E+01 1.08776E-01-6.82228E-02
 -1      1538 8.83598E-01-1.07719E-01 7.63749E-02 3.44422E+01 6.85603E-02-6.08179E-02
 -1      1539 1.88951E-01 4.88386E-01-1.12342E-01 3.50399E+01 1.24035E-01-3.47308E-02
 -1      1540-3.23128E-01-2.64383E-02 3.50368E-03 3.50356E+01-7.54685E-02 1.39099E-02
 -1      1541 3.25004E-01-1.92277E-01-1.78242E-01 3.47482E+01-2.61056E-01 5.18605E-03
 -1      1542-8.71801E-01-7.40973E-02 1.94894E-01 3.48062E+01 1.50398E-01 1.02724E-01
 -1      1543 7.84776E-01 1.59225E-01 1.24442E-01 3.46499E+01-1.51442E-01 1.24039E-01
 -1      1544-8.86282E-01 7.35447E-02-2.28891E-01 3.44965E+01 2.61712E-02 6.90303E-03
 -1      1545-6.11910E-02-3.02728E-01 4.96784E-02 3.46552E+01-3.93066E-02 9.90745E-02
 -1      1546 8.91748E-01 3.63487E-01-2.35835E-01 3.33438E+01-1.14233E-01-2.00277E-01
 -1      1547 3.40692E-01-9.07184E-02-2.26664E-01 3.47505E+01-1.94098E-01-3.58225E-03
 -1      1548-1.95849E-01 1.31633E-01 5.07479E-02 3.49547E+01-2.75254E-02-4.16007E-02
 -1      1549-1.21166E+00 1.58137E-01 6.85252E-02 3.47132E+01 1.57621E-01-1.45717E-02
 -1      1550 1.25071E-01-2.38921E-01-1.04456E-01 3.47571E+01 3.66777E-02-6.86891E-02
 -1      1551-1.61389E+00 1.87751E-01 7.54716E-02 3.47275E+01-1.02594E-01 6.52316E-02
 -1      1552-9.32449E-01 1.52216E-01-4.49302E-02 3.44601E+01 6.90564E-02 5.80591E-02
 -1      1553 4.76907E-01 5.01438E-02-1.09646E-01 3.47110E+01 1.89131E-01 1.61382E-02
 -1      1554 1.01212E-03-2.77056E-01-3.10693E-02 3.51525E+01 3.68066E-02-7.89782E-02
 -1      1555-3.45717E+02-8.53064E-03-4.56420E-02 2.68707E+01 9.78705E-02 5.44886E-02
 -1      1556-7.30815E-02-4.47914E-01 1.45117E-01 3.50522E+01 3.54319E-02 6.79741E-02
 -1      1557 4.33453E-02-2.55790E-01 9.31434E-02 3.51871E+01 2.78619E-02 5.34647E-02
 -1      1558-4.15175E+02 2.14436E-01-2.66827E-01 2.73231E+01-6.23726E-02-4.19582E-01
 -1      1559 1.18454E-01 1.72601E-01 5.92252E-02 3.47398E+01 8.02061E-02-4.28475E-02
 -1      1560-8.88236E-01 2.38747E-01 5.08316E-02 3.46680E+01-1.51328E-01 7.40523E-02
 -1      1561-3.52550E+00-2.25453E+00-5.01572E-01 3.43043E+01 3.46779E-02 8.79733E-02
 -1      1562 5.31059E+02-1.41919E+01-6.92155E+00-5.54102E-01-5.29804E+00-1.19494E+01
 -1      1563 2.29791E+01 1.49953E+00 1.77660E-01 2.68481E+01-3.19521E-02 1.32593E-01
 -1      1564-3.58505E+00-1.58395E+00 9.79074E-02 4.52250E+00-1.25105E+01-2.32466E+00
 -1      1565-7.48322E+02 2.70309E+01 6.30164E+01-1.76412E+01-8.97120E+00-3.92254E+00
 -1      1566 7.27333E+02-3.29615E+01-7.37734E+01-2.69122E+01-1.35008E+01-5.46386E+00
 -1      1567-9.52474E+00-1.98621E+00-4.30578E-01 1.93693E+01-3.61523E-01 1.08338E-01
 -1      1568 9.28075E+00 2.18949E+00 5.51073E-01 1.99069E+01-2.40379E-01-1.24691E-01
 -1      1569 6.13677E-02-1.14424E-01 2.74535E-01 3.67265E+01 2.99265E-02 6.36139E-02
 -1      1570 6.91761E+02 8.24316E+01 1.33394E+01-6.61256E+01-9.27516E+00 8.57129E+01
 -1      1571 1.07700E+03 1.46177E+02 1.34313E+02 3.54739E+01 1.92919E+01 1.37974E+02
 -1      1572 8.45375E+02-5.56284E+01-5.62693E+01-4.82800E+01-2.78584E+01-2.66941E+01
 -1      1573-1.08548E+03-1.50626E+02-1.39191E+02 3.03509E+01 1.55738E+01-1.38283E+02
 -1      1574-7.37761E+02-1.16377E+02-8.45885E+01-5.12111E+01-2.02629E-01-1.06128E+02
 -1      1575-8.47102E+02 5.92659E+01 5.60512E+01-4.86421E+01-2.56244E+01 2.76992E+01
 -1      1576 7.84266E+00-1.78030E+00 1.16524E+00 1.34356E+01-6.30623E-01-3.12060E-01
 -1      1577 2.71207E+00-7.71240E+00 1.03676E+00 2.36349E+01-5.84234E-01 6.13085E-01
 -1      1578 2.44108E+01 2.63722E+00 6.27580E-03 8.54049E+00 7.81902E-01-4.54074E-01
 -1      1579-2.91313E+00 7.35585E+00-1.12691E+00 2.35061E+01-5.49123E-01-6.58672E-01
 -1      1580-7.88662E+00 1.74563E+00-1.25459E+00 1.33316E+01-7.06135E-01 2.45709E-01
 -1      1581-2.45904E+01-1.64982E+00 2.87746E-01 8.80461E+00 2.56065E-01 4.80579E-01
 -1      1582 1.28100E+02-9.19334E+00-3.23326E+01-9.06889E+01-1.62964E+01 3.95826E+00
 -1      1583 4.72609E+02 1.12497E+02 7.91216E+01-6.93567E+01-1.64680E+01 8.11329E+01
 -1      1584 5.19339E+02-5.05670E+00-5.66043E+01-3.15854E+01-5.53502E+00-2.39091E+00
 -1      1585-4.87520E+02-1.22427E+02-9.68906E+01-7.25513E+01-1.61623E+01-8.11131E+01
 -1      1586-1.47584E+02-5.48758E+00-3.08688E+00-8.66098E+01-1.18354E+01-1.18566E+01
 -1      1587 9.96182E+00 7.90973E-01-3.60078E+00-2.91407E+01-8.79356E+00 1.41595E+00
 -1      1588-5.03493E+02 1.19610E+01 4.49330E+01-3.09382E+01-8.95923E+00-4.69071E+00
 -1      1589 2.33585E+00-7.86701E+00 9.05740E-01 2.82027E+01 1.74632E-01-8.40578E-03
 -1      1590 2.58776E-01-8.84703E-02 4.30231E-01 3.02813E+01 2.55150E-01-1.74542E-01
 -1      1591 5.86178E+00 1.03264E-01-5.48874E-01 2.79386E+01-4.68570E-01-3.42277E-01
 -1      1592-1.26962E+00-6.60363E-01-7.03621E-01 3.02056E+01 3.45709E-01-9.15170E-02
 -1      1593-2.52249E+00 7.14939E+00-9.46900E-01 2.85646E+01 2.97624E-01-2.44411E-02
 -1      1594 2.97302E-01 7.31968E-02 2.93765E-01 3.55955E+01-5.12607E-01-3.57380E-01
 -1      1595-6.12555E+00-3.17114E-01 4.62396E-01 2.78814E+01-4.61498E-01 1.50805E-01
 -1      1596 8.10417E+02 3.16132E+00 7.77009E+00-1.51930E+01 5.49765E+00-6.83189E+00
 -1      1597 8.13388E+02-7.43963E+00-5.47575E+00 9.53512E-01-2.15888E+00-5.92602E+00
 -1      1598 6.07231E+02-1.89636E+01-1.27880E+01-1.94455E+01-7.43265E+00-1.34826E+01
 -1      1599 8.19381E+02-3.19666E+00-1.23056E+00 8.39151E+00-8.13720E-01-1.12619E+00
 -1      1600 8.16402E+02-7.72078E-01-8.80963E-01 1.20032E+01-5.82555E-01-1.50488E+00
 -1      1601 5.35805E+02-7.13726E+00-4.82181E-01 1.13491E+01-2.70514E+00-3.40248E+00
 -1      1602 8.08865E+02-1.68014E-01 5.08737E-01 1.40291E+01-3.78876E-01-4.67556E-01
 -1      1603 7.94278E+02-5.64325E-01 6.26434E-01 1.45102E+01-4.34791E-01-1.10386E+00
 -1      1604 5.39859E+02-6.42500E-01 1.68046E-01 2.32044E+01-5.42532E-01-1.67556E+00
 -1      1605 7.85110E+02 8.66231E-02-6.77719E-02 1.53328E+01-1.88768E-01-6.37778E-01
 -1      1606 7.68960E+02 2.52740E-01-4.11115E-01 1.49235E+01 9.02404E-02-1.80992E-01
 -1      1607 5.22117E+02-4.23875E-01 7.56441E-02 2.67042E+01-8.82041E-01-6.16273E-01
 -1      1608 7.58479E+02 4.02917E-03 6.56728E-01 1.54839E+01-2.60136E-01 7.34077E-04
 -1      1609 7.41372E+02-2.75102E-01 2.91852E-01 1.57305E+01 2.80655E-01-7.00068E-01
 -1      1610 5.03998E+02 3.36600E-01-8.45774E-02 2.74609E+01 1.92804E-01 2.81718E-01
 -1      1611 7.33792E+02 5.29073E-01-6.26653E-01 1.54000E+01 2.20991E-01-6.34297E-01
 -1      1612 7.15653E+02-1.73234E-01-7.09956E-01 1.51628E+01 2.42960E-01-3.67835E-02
 -1      1613 4.86966E+02 3.29254E-02-2.85869E-01 2.77893E+01 4.77997E-01-4.35991E-01
 -1      1614 7.06282E+02-3.08040E-01 4.19833E-03 1.55304E+01 3.30017E-02-1.34589E-01
 -1      1615 6.90213E+02-6.52322E-02-1.31295E-01 1.55873E+01 9.16662E-03-7.73607E-02
 -1      1616 4.70473E+02-4.63478E-01 1.97319E-01 2.75125E+01-1.55166E-01 2.86394E-01
 -1      1617 6.81264E+02-1.87440E-01 3.42830E-01 1.49791E+01-6.40822E-02 1.73941E-01
 -1      1618 6.63667E+02-1.94114E-01 6.97147E-01 1.51533E+01-2.65082E-01-5.28605E-01
 -1      1619 4.53545E+02 7.51867E-01 3.38163E-01 2.74362E+01 8.63023E-02 3.93922E-01
 -1      1620 6.54305E+02 2.03735E-01-9.87980E-02 1.54747E+01-3.10157E-01-6.92519E-01
 -1      1621 6.36871E+02-8.07278E-02 5.31656E-02 1.52544E+01 1.11301E-01-4.66561E-01
 -1      1622 4.35703E+02-8.85015E-02 2.00648E-01 2.75231E+01-4.29754E-01-2.86945E-01
 -1      1623 6.27451E+02 6.97239E-02-1.99017E-01 1.56705E+01-1.04098E-01-5.52825E-01
 -1      1624 6.10609E+02-2.26449E-01-5.99865E-01 1.53588E+01 2.46796E-01-3.08914E-01
 -1      1625 4.18401E+02 7.56800E-02-2.69717E-02 2.79691E+01-1.03827E-01-3.47629E-02
 -1      1626 6.01738E+02-3.11171E-01 3.54939E-02 1.54752E+01-9.33174E-02 7.49941E-02
 -1      1627 5.85395E+02-5.74735E-02 1.26003E-01 1.54326E+01 6.64357E-02-2.52506E-01
 -1      1628 4.01428E+02 3.35631E-01 1.27809E-02 2.76036E+01 1.51489E-01 3.44783E-01
 -1      1629 5.74236E+02-2.27767E-01 3.18069E-01 1.50535E+01-1.22066E-01 1.89277E-01
 -1      1630 5.56775E+02-1.81561E-01 7.05436E-01 1.52128E+01-2.58956E-01-5.24940E-01
 -1      1631 3.83103E+02 6.49059E-01 4.57366E-01 2.74481E+01-3.56545E-02 3.72785E-01
 -1      1632 5.49234E+02 3.93141E-02-4.06041E-01 1.54632E+01-2.35438E-01-6.22272E-01
 -1      1633 5.32588E+02 3.14288E-01-3.10758E-01 1.51068E+01 1.45071E-01 1.15591E-01
 -1      1634 3.65086E+02-3.82911E-02 1.89451E-01 2.75525E+01-4.59295E-01-2.48925E-01
 -1      1635 5.22072E+02 1.50451E-01 5.28766E-01 1.53477E+01-2.71659E-01-2.29758E-01
 -1      1636 5.05271E+02-1.83601E-01 1.86923E-01 1.56064E+01 5.76801E-02-5.74782E-01
 -1      1637 3.48773E+02-2.39951E-01 1.25349E-01 2.74192E+01-1.94775E-01 3.99078E-01
 -1      1638 4.96695E+02-2.70799E-03-2.52613E-02 1.52323E+01-1.24612E-01-5.22140E-01
 -1      1639 4.79068E+02-2.66898E-01 1.03549E-01 1.55009E+01 3.37064E-01-6.94368E-01
 -1      1640 3.30300E+02-2.62779E-01-4.13355E-02 2.79558E+01 7.77542E-02-1.36988E-02
 -1      1641 4.68941E+02 4.42852E-01-6.27182E-01 1.55052E+01 2.02329E-01-6.83835E-01
 -1      1642 4.50877E+02-1.93421E-01-6.92154E-01 1.52424E+01 2.30529E-01-2.88807E-02
 -1      1643 3.13263E+02 1.32232E-01-2.34340E-01 2.77363E+01 4.65240E-01-3.68728E-01
 -1      1644 4.41790E+02-3.18688E-01 1.62950E-02 1.55959E+01 3.15779E-02-1.31458E-01
 -1      1645 4.25709E+02-8.09049E-02-1.38792E-01 1.56580E+01 4.79326E-03-6.48749E-02
 -1      1646 2.94060E+02-4.77836E-01 2.36998E-01 2.75989E+01-1.60098E-01 2.91992E-01
 -1      1647 4.16990E+02-2.29748E-01 3.61364E-01 1.50010E+01-5.49077E-02 1.84272E-01
 -1      1648 3.99458E+02-2.52135E-01 7.33913E-01 1.52223E+01-2.40682E-01-5.14993E-01
 -1      1649 2.77719E+02 7.44944E-01 3.65045E-01 2.75145E+01 1.18453E-01 4.27385E-01
 -1      1650 3.90504E+02 7.31041E-02-7.21412E-02 1.55277E+01-2.40222E-01-6.24283E-01
 -1      1651 3.73681E+02 2.28622E-01-4.05432E-01 1.50714E+01 7.84015E-03 2.57083E-02
 -1      1652 2.60909E+02-4.38439E-02 3.82898E-01 2.75430E+01-5.05571E-01-3.42545E-01
 -1      1653 3.64956E+02 3.06661E-01 7.59934E-01 1.53307E+01-3.37465E-01-2.27277E-01
 -1      1654 3.48179E+02-1.17613E-01 2.59223E-01 1.57163E+01 2.09269E-01-6.80798E-01
 -1      1655 2.44132E+02 2.03609E-01-1.25303E-02 2.74637E+01-1.39201E-01 2.79629E-01
 -1      1656 3.37774E+02 2.87613E-01-7.03632E-01 1.52654E+01 2.27706E-01-4.98634E-01
 -1      1657 3.20120E+02 2.77729E-01-3.43512E-01 1.50732E+01 7.60828E-02 1.35202E-01
 -1      1658 2.26091E+02 1.80970E-02-3.14724E-01 2.76830E+01 3.84386E-01-3.12208E-01
 -1      1659 3.11418E+02 4.35904E-01 3.44365E-01 1.54806E+01-1.80740E-01-4.80939E-01
 -1      1660 2.93858E+02 2.41794E-03 2.47183E-01 1.55333E+01-2.46471E-02-5.90392E-01
 -1      1661 2.07700E+02-5.23724E-01-2.08511E-01 2.75660E+01-1.38612E-01 2.28705E-01
 -1      1662 2.84733E+02 8.17705E-02 1.99183E-01 1.54516E+01-2.06019E-01-5.16995E-01
 -1      1663 2.67724E+02-1.26900E-01-1.84235E-01 1.54298E+01 1.83386E-01-4.69168E-01
 -1      1664 1.89946E+02-5.76428E-02-9.87700E-02 2.80250E+01-2.78067E-01 1.28611E-01
 -1      1665 2.58478E+02 1.43900E-01-3.61612E-01 1.54670E+01-5.14220E-03-5.49090E-01
 -1      1666 2.40835E+02-1.79422E-01-4.20395E-01 1.54399E+01 1.57360E-01-1.29805E-01
 -1      1667 1.73630E+02 2.73589E-01 1.07856E-01 2.80299E+01 2.22163E-01 1.11713E-01
 -1      1668 2.31800E+02-2.22827E-01 3.26204E-01 1.51346E+01-8.17858E-02-1.77886E-01
 -1      1669 2.15225E+02 2.39172E-02 7.42448E-02 1.55193E+01 9.09064E-02-4.17269E-01
 -1      1670 1.55518E+02-2.58045E-01 3.05372E-01 2.76233E+01-2.27330E-01 3.79135E-01
 -1      1671 2.06019E+02 5.23233E-02-7.23277E-02 1.52970E+01-6.71581E-02-5.32393E-01
 -1      1672 1.88662E+02-2.00774E-01-7.07317E-03 1.54630E+01 2.28589E-01-6.69481E-01
 -1      1673 1.38549E+02-4.27062E-02-4.68002E-02 2.79186E+01 2.35082E-01 9.94144E-02
 -1      1674 1.79913E+02 3.20111E-01-1.92142E-01 1.52128E+01 1.06766E-02-6.51474E-01
 -1      1675 1.62040E+02-2.46858E-01 4.89246E-02 1.51195E+01-1.17176E-02-6.29191E-01
 -1      1676 1.21185E+02-6.21528E-03-5.82044E-02 2.77371E+01 2.81910E-01-1.44021E-01
 -1      1677 1.52950E+02 1.99870E-01-1.65986E-01 1.56249E+01-1.60099E-01-6.88167E-01
 -1      1678 1.35614E+02-9.85289E-02-6.14520E-01 1.55259E+01 2.42876E-01 6.22392E-03
 -1      1679 1.03943E+02-5.87677E-02-5.26299E-02 2.78453E+01-2.20390E-01-2.78670E-01
 -1      1680 1.26757E+02-2.66527E-01 4.42153E-01 1.50685E+01-9.61814E-02-1.67957E-01
 -1      1681 1.10178E+02-1.02015E-01 1.38724E-01 1.56149E+01 1.74365E-01-5.25559E-01
 -1      1682 8.62707E+01-3.06444E-01 2.15187E-01 2.76090E+01-1.71269E-01 3.17779E-01
 -1      1683 1.00785E+02 4.12328E-01-7.04702E-01 1.54709E+01 1.74660E-01-6.49888E-01
 -1      1684 8.26692E+01-2.43805E-01-7.03741E-01 1.52347E+01 2.69067E-01-4.87140E-02
 -1      1685 7.00338E+01 2.48202E-01-2.19733E-01 2.77871E+01 4.94514E-01-3.06337E-01
 -1      1686 7.41317E+01-2.24647E-01-1.08377E-02 1.52500E+01 8.83762E-02-1.70901E-01
 -1      1687 5.81079E+01 1.77201E-01-4.94193E-02 1.50583E+01 8.70859E-02-1.27535E-02
 -1      1688 5.21899E+01-4.35388E-01 1.86071E-01 2.74407E+01-4.76616E-02 2.34291E-01
 -1      1689 4.62879E+01 2.72805E-01 1.83428E-02 1.48118E+01 7.06452E-02 1.68326E-01
 -1      1690 3.12322E+01 6.32596E-01-8.85753E-02 1.41002E+01-2.08265E-01 1.82776E-01
 -1      1691 3.38973E+01 1.19118E+00 2.73814E-01 2.71330E+01 2.84088E-01 3.93079E-01
 -1      1692 1.83304E+01 1.95769E+00 5.57254E-01 2.30088E+01-6.04275E-02-2.47355E-01
 -1      1693-8.06307E+02 1.05021E+01 8.43574E+00-3.36402E-01-3.56478E+00 8.75246E+00
 -1      1694-8.10228E+02-3.54441E+00-9.01384E+00-1.49836E+01 4.78563E+00 7.19465E+00
 -1      1695-6.08722E+02 2.21198E+01 1.29805E+01-1.70988E+01-7.99556E+00 1.40713E+01
 -1      1696-8.11372E+02 1.96206E+00 2.52861E-01 1.16128E+01-6.49406E-01 2.78992E+00
 -1      1697-8.17659E+02 2.11517E+00 7.41916E-01 8.06592E+00 2.12655E-01 2.07242E+00
 -1      1698-5.32126E+02 6.21326E+00 1.70009E+00 1.20317E+01-1.73253E+00 4.04456E+00
 -1      1699-7.95223E+02-1.54450E-01 2.98069E-01 1.43313E+01-7.52105E-02 3.49771E-01
 -1      1700-8.08688E+02 5.55717E-01 6.40776E-01 1.36301E+01 2.00003E-01 1.40953E+00
 -1      1701-5.35599E+02 1.61363E+00 1.22473E-01 2.34099E+01-3.97962E-01 1.68373E+00
 -1      1702-7.69562E+02-3.55195E-01-8.09927E-02 1.53424E+01 2.11426E-03-1.49274E-01
 -1      1703-7.85164E+02 7.85185E-02 1.58171E-01 1.51982E+01-1.04586E-01 1.99655E-01
 -1      1704-5.23343E+02 7.46447E-01 5.89358E-01 2.65084E+01-2.61768E-01-1.04801E-01
 -1      1705-7.41726E+02-2.85762E-01 7.21077E-03 1.54500E+01-6.05603E-02 1.54881E-01
 -1      1706-7.57775E+02-9.40512E-02-1.43156E-01 1.54183E+01-4.27704E-02 1.14719E-01
 -1      1707-5.03485E+02 6.52701E-01 4.18742E-01 2.74314E+01-2.33997E-01-3.24052E-01
 -1      1708-7.19302E+02 1.37583E-01-1.85355E-01 1.54483E+01 1.45270E-01 5.96772E-01
 -1      1709-7.36594E+02-2.04222E-01-5.58832E-01 1.52531E+01-1.92687E-01 1.23432E-01
 -1      1710-4.89031E+02-2.39193E-01 2.74145E-01 2.75308E+01 1.08950E-01-2.41234E-01
 -1      1711-6.93013E+02 2.58445E-01-8.38623E-02 1.53809E+01 3.17827E-01 6.59614E-01
 -1      1712-7.10565E+02-7.81686E-02-6.59068E-02 1.50655E+01-7.25502E-02 5.02326E-01
 -1      1713-4.76022E+02 2.17791E-01 9.01893E-02 2.76258E+01 7.93931E-02 1.80980E-01
 -1      1714-6.65526E+02 2.70729E-01 6.91584E-01 1.50470E+01 2.57363E-01 5.27599E-02
 -1      1715-6.83576E+02-3.32145E-01 6.76521E-01 1.52705E+01 2.18860E-01 6.40055E-01
 -1      1716-4.59461E+02-1.45315E-01 1.94300E-01 2.74021E+01 4.76898E-01 3.62338E-01
 -1      1717-6.41200E+02-8.64126E-02 1.90535E-01 1.53608E+01 3.89976E-02-2.08186E-01
 -1      1718-6.57413E+02 2.65250E-01 1.34868E-01 1.52555E+01 1.11623E-01 1.78963E-01
 -1      1719-4.41929E+02 5.32126E-01-2.55560E-01 2.72458E+01-7.65421E-02-1.86709E-01
 -1      1720-6.14404E+02-2.29750E-02-5.24578E-02 1.52584E+01 7.91832E-02 4.02166E-01
 -1      1721-6.31068E+02 2.22285E-01-3.21452E-01 1.48588E+01-7.34633E-02 1.17081E-01
 -1      1722-4.25000E+02 2.48163E-01-3.90703E-01 2.72126E+01-2.46189E-01-5.13396E-01
 -1      1723-5.86492E+02 2.02879E-01-9.25162E-02 1.53412E+01 3.03323E-01 6.96629E-01
 -1      1724-6.03785E+02-5.64810E-02 7.62381E-02 1.51348E+01-1.22116E-01 5.12550E-01
 -1      1725-4.06063E+02-3.27152E-04 1.16915E-02 2.76817E+01 2.24038E-01-5.48861E-02
 -1      1726-5.60126E+02-2.10456E-01 3.28132E-01 1.48408E+01 6.30180E-02-1.72225E-01
 -1      1727-5.77697E+02-2.00514E-01 7.01020E-01 1.50223E+01 2.60176E-01 5.30951E-01
 -1      1728-3.87651E+02-1.11752E-01 2.14169E-01 2.73144E+01 4.21790E-01 3.01047E-01
 -1      1729-5.34284E+02-3.39124E-01 4.04194E-02 1.53155E+01 1.57578E-02 1.05833E-01
 -1      1730-5.50343E+02-7.39798E-02-1.46832E-01 1.53910E+01-2.54584E-04 7.29404E-02
 -1      1731-3.69498E+02 7.08735E-01 3.18748E-01 2.71802E+01-1.00370E-01-4.05646E-01
 -1      1732-5.08568E+02-2.54605E-01-1.32445E-01 1.52799E+01 2.22435E-02-2.01254E-01
 -1      1733-5.25356E+02 2.20977E-02 7.30508E-02 1.52585E+01-7.42241E-02-1.91664E-01
 -1      1734-3.53037E+02-3.26080E-01 5.16248E-01 2.73185E+01 3.01987E-01-2.93405E-01
 -1      1735-4.81598E+02-1.18903E-01 1.57721E-01 1.55094E+01 2.04346E-01 5.53547E-03
 -1      1736-4.98189E+02-3.37723E-01 3.33964E-02 1.54044E+01-1.40007E-01 2.94798E-01
 -1      1737-3.35837E+02 3.94258E-01 3.61800E-01 2.74219E+01-9.52168E-02-6.47314E-02
 -1      1738-4.51996E+02 8.18243E-04-5.17584E-02 1.55536E+01 1.07648E-01 4.01420E-01
 -1      1739-4.68645E+02 2.63931E-01-3.12486E-01 1.51379E+01-5.60820E-02 1.28771E-01
 -1      1740-3.14395E+02 3.61076E-01-1.68508E-01 2.76226E+01-2.12624E-01-2.99324E-01
 -1      1741-4.25308E+02 2.23533E-01 4.05429E-02 1.54616E+01 2.25910E-01 6.51881E-01
 -1      1742-4.42755E+02-4.64398E-02 6.89349E-02 1.53176E+01-7.74192E-02 5.27227E-01
 -1      1743-2.94346E+02 5.31610E-02 6.86714E-02 2.79325E+01 2.36835E-01-7.96196E-02
 -1      1744-3.98570E+02 2.37967E-01 5.51904E-01 1.52672E+01 1.93751E-01 2.05054E-01
 -1      1745-4.16113E+02-2.76495E-01 4.65755E-01 1.54744E+01 8.07555E-02 5.97329E-01
 -1      1746-2.77247E+02-1.34059E-01-2.75962E-02 2.78117E+01 3.86680E-01 1.85458E-01
 -1      1747-3.75654E+02 1.53210E-01 1.77042E-01 1.52698E+01 5.73346E-02 1.09089E-01
 -1      1748-3.91907E+02 3.14787E-01-3.19381E-02 1.53090E+01 7.04862E-02 2.49420E-01
 -1      1749-2.62296E+02 3.99837E-01-2.74065E-01 2.75023E+01-1.61397E-01-2.51090E-01
 -1      1750-3.48690E+02-2.33019E-01 7.66475E-02 1.50290E+01-9.93423E-02 1.84597E-02
 -1      1751-3.65116E+02 3.35546E-01-1.86124E-02 1.49865E+01 1.91541E-01-1.96970E-01
 -1      1752-2.47063E+02-3.86968E-02-3.10342E-01 2.72873E+01 1.49168E-01-4.30108E-01
 -1      1753-3.20453E+02 2.28710E-01-1.27270E-01 1.56095E+01 1.69771E-01 6.29741E-01
 -1      1754-3.37656E+02-9.52361E-02-5.23137E-01 1.54435E+01-1.95909E-01 6.80840E-02
 -1      1755-2.27103E+02-3.13799E-01 3.05196E-01 2.73583E+01 2.37944E-01-2.07347E-01
 -1      1756-2.93814E+02 2.45088E-01 3.61476E-02 1.53911E+01 2.10116E-01 6.66866E-01
 -1      1757-3.11303E+02-9.16441E-02-3.15046E-02 1.52379E+01 9.47356E-03 5.36016E-01
 -1      1758-2.07504E+02 2.58196E-01 1.10945E-01 2.78989E+01 1.47157E-01 1.16526E-01
 -1      1759-2.67429E+02 2.25601E-01 6.49727E-02 1.53556E+01 1.48952E-01 6.46034E-01
 -1      1760-2.84899E+02-1.27884E-01 9.78356E-02 1.52624E+01-2.68657E-02 5.83070E-01
 -1      1761-1.90401E+02-1.03307E-02-1.08268E-01 2.78448E+01 2.31349E-01 1.11055E-01
 -1      1762-2.41269E+02 2.21923E-01-1.23044E-01 1.55640E+01 3.01044E-01 6.67869E-01
 -1      1763-2.58679E+02-9.37386E-02-3.79730E-02 1.52988E+01-9.12341E-02 5.07264E-01
 -1      1764-1.73131E+02 1.57650E-02-6.63940E-02 2.79346E+01 1.00725E-01 1.49794E-02
 -1      1765-2.14126E+02 1.75965E-01 6.90539E-01 1.52285E+01 2.32601E-01 2.09355E-02
 -1      1766-2.32201E+02-4.51113E-01 6.34099E-01 1.55056E+01 2.01110E-01 6.84981E-01
 -1      1767-1.56378E+02-1.60933E-01 2.29679E-01 2.77795E+01 4.35378E-01 3.35773E-01
 -1      1768-1.88836E+02 1.05195E-01 2.02395E-01 1.55662E+01-2.97269E-02 8.53670E-02
 -1      1769-2.04993E+02 3.14487E-01-8.55530E-03 1.55751E+01 2.69484E-02 1.39677E-01
 -1      1770-1.38220E+02 4.10938E-01-2.33243E-01 2.75717E+01-1.46537E-01-2.84595E-01
 -1      1771-1.62625E+02-4.55663E-02-1.68325E-01 1.53885E+01 1.03118E-01-1.71172E-01
 -1      1772-1.78927E+02 2.81278E-01 1.25101E-01 1.54313E+01 6.65657E-02-2.52786E-01
 -1      1773-1.21551E+02-8.12829E-01-3.62095E-01 2.75667E+01 2.28331E-01-4.42383E-01
 -1      1774-1.36367E+02-4.26920E-01 2.59198E-02 1.53131E+01-7.72561E-02-3.24818E-01
 -1      1775-1.52545E+02 3.58228E-01 1.44712E-01 1.52989E+01 8.18382E-02-7.86219E-03
 -1      1776-1.03540E+02 3.64345E-01-4.38605E-01 2.75026E+01-3.49467E-01-4.65435E-01
 -1      1777-1.10159E+02 1.66989E-01 1.09302E-01 1.56409E+01 1.44667E-01 3.22334E-01
 -1      1778-1.26604E+02-1.47051E-01-1.17487E-01 1.56449E+01-2.11069E-01 2.78753E-01
 -1      1779-8.69708E+01 1.90894E-01 1.66319E-01 2.77302E+01-1.21180E-01-1.92736E-01
 -1      1780-8.37334E+01-1.13243E-01-6.76260E-03 1.54163E+01 2.87910E-02-1.25856E-01
 -1      1781-1.00018E+02 2.35791E-01 1.61209E-01 1.54770E+01 4.84395E-02-1.42121E-01
 -1      1782-6.93462E+01-4.47528E-01-1.89016E-01 2.77825E+01 1.52390E-01-1.47059E-01
 -1      1783-5.75888E+01-1.13630E-01 5.53490E-02 1.51471E+01 1.01955E-01 7.75833E-02
 -1      1784-7.36521E+01 2.62789E-01 1.56331E-02 1.53441E+01 3.08044E-02 1.46901E-01
 -1      1785-5.21188E+01 3.34850E-01-4.43761E-01 2.74328E+01-4.06944E-01-3.34778E-01
 -1      1786-3.11470E+01-7.34245E-01-2.22750E-01 1.42937E+01-3.38001E-02-1.88459E-01
 -1      1787-4.61345E+01-8.61915E-02 4.15019E-02 1.48665E+01 6.37477E-02-1.25287E-01
 -1      1788-3.35546E+01-1.12924E+00-4.23554E-01 2.71503E+01 3.01666E-01-3.30982E-01
 -1      1789-1.80179E+01-1.58340E+00-7.41288E-01 2.26706E+01-1.86904E-01 1.53867E-01
 -1      1790 1.07601E+02-2.97415E-02-2.16124E-01 3.12278E+01-1.11393E-01-2.16260E-01
 -1      1791 9.89025E+01-1.41254E-01-3.02314E-01 3.15967E+01-3.48325E-01 2.61329E-01
 -1      1792 9.95338E+01 2.78871E-01 2.10126E-01 3.16554E+01-1.28726E-01 2.27675E-01
 -1      1793 9.10381E+01 5.08334E-02-1.46131E-01 3.21011E+01-2.83780E-01 6.28398E-01
 -1      1794 4.11287E-01 8.06825E-03 2.68503E-01 3.50192E+01-7.19748E-02 1.15642E-01
 -1      1795 6.49053E+01 4.51435E-01 6.23039E-02 3.22270E+01-8.73459E-03 2.69487E-01
 -1      1796 5.66385E+01 2.18589E-01-9.42346E-02 3.17827E+01 2.79021E-01 2.61408E-01
 -1      1797 7.35655E+01-9.94859E-02 1.13115E-01 3.21385E+01 4.40626E-01 6.94939E-01
 -1      1798 6.45948E+01-5.56040E-01-2.05590E-01 3.18058E+01 8.66736E-02 3.42860E-01
 -1      1799-1.75913E-01-1.01563E-02-3.72428E-01 3.52684E+01-7.51232E-03-1.59234E-01
 -1      1800-3.90281E+01 9.22978E-02 1.58702E-01 3.18574E+01-2.19735E-01-2.11429E-01
 -1      1801-4.77428E+01-2.52223E-01-2.10551E-01 3.17820E+01-4.12820E-02-1.11306E-01
 -1      1802-4.67963E+01 3.36294E-01 3.94394E-01 3.20628E+01 6.17343E-02 1.42607E-01
 -1      1803-5.70255E+01-5.59440E-01-2.06453E-01 3.12378E+01-1.46029E-02 9.07217E-02
 -1      1804-4.97811E-02-3.91036E-01 5.19331E-02 3.52688E+01 7.86281E-02 1.24966E-01
 -1      1805 2.93313E+01-2.08846E-01-2.92312E-01 3.10751E+01 6.25430E-03-3.83136E-01
 -1      1806 2.14800E+01 8.66591E-02-1.71499E-01 3.16948E+01-6.06357E-02-8.74728E-02
 -1      1807 2.23144E+01 3.66543E-01 4.77868E-02 3.18824E+01 3.29023E-01 1.10583E-01
 -1      1808 5.89094E-01 9.74202E-02 1.12890E-01 3.51655E+01 4.84348E-02 5.71631E-02
 -1      1809 1.22477E+01 5.91819E-01-2.34616E-01 3.19106E+01 9.91399E-05 2.26524E-01
 -1      1810 1.25866E+02 2.22348E-01 2.73313E-01 3.18656E+01-1.79586E-01 1.82368E-01
 -1      1811 1.17234E+02 1.00282E-01-1.40206E-01 3.18082E+01-3.55324E-01 2.64324E-01
 -1      1812 1.25966E+02-4.04645E-01-1.40824E-01 3.21037E+01 3.94887E-02 1.85073E-01
 -1      1813-8.13991E-01-1.15433E-01 5.42621E-02 3.54115E+01 2.06439E-02 3.31317E-02
 -1      1814 1.34149E+02-1.41971E-01 9.80060E-02 3.18104E+01-4.12546E-01 3.11175E-01
 -1      1815-8.23091E+01 2.05709E-02 1.29051E-01 3.18207E+01-3.72751E-02-3.94920E-01
 -1      1816-9.09118E+01-2.25012E-01-9.81196E-02 3.19886E+01-1.87265E-02-4.32776E-01
 -1      1817-7.42192E+01 5.21932E-01 1.62684E-01 3.18623E+01 6.83386E-01-2.36446E-01
 -1      1818-8.22839E+01 3.50444E-02-2.19818E-01 3.20695E+01 1.27532E-01-2.87597E-01
 -1      1819-1.53697E-01 1.59418E-01 2.70388E-01 3.52059E+01 3.08272E-02 9.49696E-02
 -1      1820 1.50851E+02-7.43964E-03-5.57349E-02 3.09656E+01-9.37652E-02-8.14625E-02
 -1      1821 1.42626E+02 2.05755E-01-5.27022E-02 3.18538E+01-1.68424E-01 4.29118E-02
 -1      1822 1.43093E+02 2.92704E-01 2.05389E-01 3.16673E+01 3.53247E-01 9.69233E-02
 -1      1823 1.35454E+02 2.54501E-01 2.40534E-01 3.11198E+01-7.13084E-02-1.65952E-01
 -1      1824-1.63233E-01-3.95036E-02 2.17935E-01 3.51869E+01-2.50494E-02 2.92664E-01
 -1      1825-2.46606E+02 2.60806E-02 2.03944E-01 3.18108E+01-4.71765E-01-1.87687E-01
 -1      1826-2.57048E+02-2.94966E-01-2.11243E-01 3.15663E+01-2.59205E-01 5.63930E-02
 -1      1827-2.42461E+02-3.12935E-02 6.44295E-02 3.13506E+01-1.81905E-02-1.73152E-01
 -1      1828-2.46532E+02-2.53742E-01-2.48318E-01 3.19267E+01 2.84038E-02 1.88150E-02
 -1      1829 2.11278E-01-7.57579E-02-1.78503E-01 3.52202E+01-5.52850E-03 3.69114E-02
 -1      1830 2.30296E+02 4.03317E-01 2.24997E-01 3.16876E+01 3.42936E-01 8.60196E-02
 -1      1831 2.22384E+02 2.89949E-01 1.28599E-01 3.11251E+01-1.30397E-01-2.12401E-01
 -1      1832 2.38321E+02-3.66669E-03-1.09334E-01 3.09701E+01-6.77542E-02-8.09826E-02
 -1      1833 2.29730E+02 1.91131E-01-5.82530E-02 3.18848E+01-1.72063E-01 4.90687E-02
 -1      1834-1.85358E+00 7.39993E-02 2.67721E-01 3.52388E+01-1.00408E-02 2.63510E-01
 -1      1835 2.65072E+02-3.66097E-01-5.68320E-02 3.01697E+01-8.34347E-01-6.82460E-02
 -1      1836 2.56959E+02-4.72045E-01-8.14381E-02 3.17309E+01-1.93242E-01 1.28814E-01
 -1      1837 2.66667E+02-2.77208E-01 3.75953E-02 2.80768E+01-1.11392E+00-5.11070E-01
 -1      1838 2.75352E+02-1.12892E+00 1.00877E+00 2.57187E+01-1.60455E+00-1.16742E+00
 -1      1839 1.84110E+00 6.12693E-01-1.78144E-01 3.17082E+01-7.80068E-01-1.17724E-01
 -1      1840-1.91158E+02-6.82864E-02 1.33788E-01 3.17795E+01 4.31745E-01-2.53206E-01
 -1      1841-1.99428E+02-4.68798E-01-2.59831E-01 3.21227E+01-1.10225E-01-1.54730E-01
 -1      1842-1.99670E+02-9.95233E-03 1.81770E-01 3.17237E+01-2.59423E-02-3.49840E-01
 -1      1843-3.34350E+00-1.55722E-02 2.30618E-01 3.52507E+01 1.18157E-03 2.08589E-01
 -1      1844-2.09551E+02-1.65888E-01-3.35291E-02 3.20384E+01 2.36187E-01-5.18227E-01
 -1      1845 1.66808E+02-3.86210E-01 5.68884E-02 3.20683E+01 2.16685E-01 4.39794E-01
 -1      1846 1.59323E+02-5.51942E-01-2.01666E-01 3.19596E+01 5.82061E-02 2.54847E-01
 -1      1847 1.68027E+02 3.91324E-01-1.47578E-01 3.17783E+01-4.53770E-01 2.82317E-01
 -1      1848-3.38058E+00 3.59337E-01-1.39382E-01 3.50750E+01 3.55200E-04 2.16137E-01
 -1      1849 1.78244E+02 7.18890E-01 4.07423E-01 3.18423E+01-2.67728E-01 1.52015E-01
 -1      1850 2.21667E+02-3.58805E-02 1.33137E-01 3.18546E+01-4.38017E-01 2.62973E-01
 -1      1851 2.12858E+02-4.36188E-01-2.59517E-01 3.22145E+01 8.63509E-02 1.86275E-01
 -1      1852 2.11172E+02 3.84356E-02 1.68566E-01 3.18244E+01 2.37419E-02 3.74267E-01
 -1      1853 2.02875E+02-1.27607E-01-4.91893E-02 3.20790E+01-6.99123E-02 5.04137E-01
 -1      1854-3.11071E+00-5.53180E-02 1.69196E-01 3.52678E+01-1.83455E-02-1.70970E-01
 -1      1855-2.64164E+02 1.02218E+00-8.40026E-01 1.91404E+01-4.27683E+00 1.88353E+00
 -1      1856-2.65242E+02 3.01427E+00 8.92733E-01 9.62179E+00-5.78440E+00 2.07258E+00
 -1      1857 1.44955E+00-2.21274E-01-5.37730E-01 1.14445E+01-1.01680E+01-1.37413E+00
 -1      1858-2.66475E+02 3.14842E+00 6.36000E+00 1.23857E+00-9.43141E+00 5.05074E+00
 -1      1859-3.95083E+02 1.91023E+01 1.13631E+01-1.92645E+01-1.68372E+01 4.64040E+00
 -1      1860-1.43078E+02-8.13368E+00 1.33018E-01-1.30047E+01-1.62910E+01 8.10640E-02
 -1      1861-9.92036E+01 6.28887E-01 1.41715E-01 3.17164E+01 8.85941E-02-3.56057E-01
 -1      1862-1.08540E+02-6.12119E-02-2.43477E-01 3.20060E+01 2.15732E-01-6.10968E-01
 -1      1863-1.08457E+02 1.25288E-02 5.93849E-02 3.13746E+01 1.43962E-02-2.22203E-01
 -1      1864-1.19126E+02-3.38989E-01-3.20862E-01 3.17853E+01 1.36331E-01-3.03996E-02
 -1      1865-4.68394E-01-2.54175E-01 2.74026E-01 3.49030E+01 1.24730E-01-1.20779E-01
 -1      1866 3.91087E+01 6.35190E-01 1.41797E-01 3.22780E+01 1.25204E-01 2.24891E-01
 -1      1867 3.13912E+01 2.40046E-01-9.35642E-02 3.16531E+01 4.16210E-01 1.65670E-01
 -1      1868 4.76341E+01-1.45878E-01-2.45936E-01 3.16163E+01 9.12947E-02 2.81273E-01
 -1      1869 3.87687E+01-1.19368E-01-3.57409E-01 3.20399E+01-1.17303E-01 1.55081E-01
 -1      1870 2.02551E-01 4.39402E-02-2.39591E-01 3.53138E+01-6.77421E-02-1.13426E-01
 -1      1871-1.20118E+01-7.85152E-01-6.64373E-02 3.19086E+01 1.08574E-02-3.54514E-01
 -1      1872-2.15375E+01-3.71593E-01-3.87712E-01 3.19778E+01 3.05953E-01-2.13641E-01
 -1      1873-1.19081E+01-1.17081E+00-1.10376E-01 3.28008E+01-2.38016E-01-3.81141E-01
 -1      1874 8.74845E-02-1.31303E-01 6.44823E-02 3.58778E+01-3.23586E-02 4.24792E-02
 -1      1875-1.19453E+01-1.77531E+00-1.29935E-01 3.08562E+01 4.78206E-01 9.71986E-02
 -1      1876-3.18968E+00-6.27643E-01-4.79112E-01 3.53359E+01 3.65084E-01-2.39889E-01
 -1      1877-1.42503E+02 5.67456E-01 2.46086E-01 3.18352E+01 9.82337E-02-3.50714E-01
 -1      1878-1.51470E+02 1.06719E-01-9.41378E-02 3.21492E+01 4.51505E-01-6.89956E-01
 -1      1879-1.51236E+02-2.93996E-02 4.36679E-01 3.17540E+01-1.38665E-01-1.98117E-01
 -1      1880-1.63684E+02-3.86094E-01-1.35853E-01 3.13016E+01-8.03361E-02-5.17200E-02
 -1      1881-4.68369E-01-3.66683E-01 3.79606E-01 3.48491E+01 1.53699E-01 3.03243E-02
 -1      1882-2.13524E+01 2.68781E-01 2.81963E-01 3.19080E+01 1.16270E-01 3.98016E-03
 -1      1883-3.12175E+01-4.07707E-01-1.09500E-01 3.11988E+01-6.16608E-02 5.95884E-02
 -1      1884-2.99099E+01 4.13298E-01 1.19745E-01 3.10698E+01-5.87931E-02 1.56709E-01
 -1      1885-3.91877E+01-7.35664E-01-3.05182E-01 3.16768E+01 2.00114E-02-6.61597E-02
 -1      1886-5.83939E-01-3.98213E-01 9.55196E-03 3.43155E+01-1.66433E-01 1.02048E-01
 -1      1887-1.34243E+02 4.97119E-02 1.40951E-01 3.19707E+01 3.00468E-01-2.34456E-01
 -1      1888-1.42940E+02-3.76771E-01-1.35083E-01 3.22800E+01-1.05742E-01-2.31012E-01
 -1      1889-1.27946E+02 3.95233E-01 5.94735E-02 3.19592E+01 5.50620E-02 7.74466E-02
 -1      1890-1.33876E+02 3.50838E-01-1.03141E-01 3.13404E+01 4.06468E-02-2.54658E-01
 -1      1891 7.75752E-01 5.19858E-01-1.95469E-01 3.42082E+01 2.24081E-02 9.33107E-02
 -1      1892 1.96274E+02 4.95463E-01 4.04760E-01 3.15937E+01 2.67161E-01 1.59730E-01
 -1      1893 1.85731E+02 2.30266E-01 1.58345E-01 3.11913E+01-9.64561E-02-2.13447E-01
 -1      1894 1.84708E+02-7.22301E-02 1.21575E-01 3.19028E+01-4.13550E-01 2.90736E-01
 -1      1895 1.77802E+02-5.06617E-01-3.17120E-01 3.22547E+01 6.05061E-02 2.30500E-01
 -1      1896-1.17322E+00 6.02065E-01-1.48879E-01 3.42283E+01 2.84548E-02 2.09353E-02
 -1      1897-2.26414E+02-1.98127E-02 1.11289E-01 3.17153E+01 4.64560E-01-2.29583E-01
 -1      1898-2.35076E+02-4.74641E-01-2.84891E-01 3.21384E+01-1.09514E-01-2.21164E-01
 -1      1899-2.16776E+02 4.26941E-01 4.10600E-01 3.16293E+01-1.26564E-01 1.25338E-01
 -1      1900-2.24486E+02 2.56540E-01 1.32541E-01 3.08640E+01 1.05407E-01 1.67551E-01
 -1      1901-1.61087E-01 6.32154E-01-1.48039E-01 3.42100E+01-1.70675E-02 4.75237E-03
 -1      1902-1.80933E+02 3.12178E-01 2.25460E-01 3.15982E+01-3.62956E-01-4.66004E-02
 -1      1903-1.89676E+02 2.25451E-01 1.50146E-01 3.10553E+01 1.24310E-01 2.46240E-01
 -1      1904-1.81978E+02-1.10636E-01-1.10368E-01 3.18947E+01 1.12136E-01 1.11216E-01
 -1      1905-2.86391E+00-8.55319E-02 1.72407E-01 3.54151E+01 4.11136E-02-5.58855E-02
 -1      1906-1.73451E+02 5.22296E-01 2.59039E-01 3.09912E+01 1.36459E-01 3.33512E-01
 -1      1907 1.23209E+02 9.32763E-01 2.82259E-01-1.25592E+01-1.44065E+01-1.48239E+00
 -1      1908 3.85288E+02-1.95708E+01-1.39976E+01-1.74690E+01-1.84072E+01-6.01591E+00
 -1      1909 2.64611E+02-2.83735E+00-3.26174E+00 1.16649E+00-8.84783E+00-6.94867E+00
 -1      1910 3.43298E+00 3.75795E-01 4.55233E-01 3.59137E+01 4.97424E-01-6.29351E-02
 -1      1911 1.15027E+01 1.54294E+00-2.78376E-01 3.09564E+01 5.80097E-01-4.03843E-01
 -1      1912 1.20000E+01 1.21050E+00 4.46569E-01 3.28101E+01-1.08791E-01 3.95352E-01
 -1      1913-5.57337E+01 3.94133E-01 2.36772E-01 3.10234E+01 4.20864E-02 1.82555E-01
 -1      1914-6.51289E+01-6.93564E-01-3.24532E-01 3.17759E+01 2.53226E-01-2.24206E-02
 -1      1915-6.45975E+01-1.72665E-01 1.31395E-01 3.18372E+01-1.43871E-01-4.32977E-02
 -1      1916-7.29579E+01 1.51020E-02 6.75146E-02 3.09702E+01-7.79090E-02 7.70366E-02
 -1      1917 8.28161E+01 5.39290E-01 2.34033E-01 3.13557E+01-4.52131E-02 9.86662E-02
 -1      1918 7.33577E+01 3.83445E-02-4.53318E-01 3.17713E+01-1.14849E-01 2.33007E-01
 -1      1919 9.08350E+01 1.87499E-01 1.51126E-01 3.21263E+01 1.14735E-01 4.38539E-01
 -1      1920 8.18334E+01-3.58235E-01-2.19477E-01 3.16448E+01-1.11897E-01 2.56220E-01
 -1      1921 2.46951E+02 2.41705E-01 2.75776E-01 3.21794E+01 9.03063E-02 2.00744E-01
 -1      1922 2.40562E+02-3.66691E-01-1.34854E-01 3.18055E+01 6.01108E-01 2.91871E-01
 -1      1923 2.57174E+02-2.31201E-01 1.95015E-01 3.17831E+01 1.93641E-01 2.67902E-01
 -1      1924 2.46465E+02-2.09964E-01-9.90834E-02 3.16228E+01 1.78383E-01 2.90157E-01
 -1      1925-2.65065E+02-7.59007E-02 4.69046E-01 2.94467E+01-3.20765E-01-2.83438E-01
 -1      1926-2.68935E+02 7.47751E-01-4.17622E-01 2.60856E+01-1.37820E+00 9.43312E-01
 -1      1927-2.56522E+02 5.96263E-01 1.08959E-01 3.11783E+01-2.88152E-01-1.58110E-01
 -1      1928-2.65924E+02 2.87460E-01-3.14416E-01 3.00031E+01-2.13640E-01-2.16058E-01
 -1      1929 3.39834E+00-5.40939E-01-6.45775E-02 2.62365E+01-4.65656E+00 1.10132E-01
 -1      1930 2.74973E+02-1.51649E+00 3.73143E-01 1.95714E+01-4.63292E+00-2.21338E+00
 -1      1931 2.71992E+02-2.32129E+00 2.16985E-01 9.65427E+00-5.82245E+00-2.51915E+00
 -1      1932 1.17600E+02 8.45084E-03-1.08992E-02 3.21754E+01 7.92798E-02 1.35120E-01
 -1      1933 1.08822E+02-3.18295E-01-1.44204E-01 3.18414E+01 5.56393E-01 2.47817E-01
 -1      1934-2.62637E-01-1.17146E-01-2.19718E-01 3.52757E+01-4.43816E-02-7.52842E-02
 -1      1935-1.28468E+02 5.91207E-02-3.97118E-02 3.18447E+01 4.64571E-01-1.06876E-01
 -1      1936-1.19284E+02 3.11039E-01 4.27480E-01 3.16685E+01 1.13691E-01-8.38117E-03
 -1      1937 5.56398E+01-3.01435E-01 9.93120E-02 3.17357E+01 8.40726E-02 3.33760E-01
 -1      1938 4.73529E+01-2.17970E-01-1.10976E-01 3.20871E+01-8.59053E-03 2.09182E-01
 -1      1939-3.80174E-01-3.24199E-01 9.02254E-02 3.45285E+01-8.66925E-02 1.19055E-01
 -1      1940-9.13105E+01 2.24176E-01 7.04990E-02 3.18529E+01 6.40829E-02-4.08498E-01
 -1      1941-9.94849E+01 8.67267E-02-1.51475E-01 3.19790E+01 1.11841E-01-4.20246E-01
 -1      1942 1.88315E-01 9.10638E-02 2.04104E-01 3.53045E+01-6.03022E-02-1.07698E-01
 -1      1943 1.61284E+02-7.59753E-02 2.01254E-01 3.20603E+01 1.10697E-01 2.89507E-01
 -1      1944 1.52158E+02-5.22847E-01-1.34967E-01 3.18601E+01 6.61707E-01 2.47871E-01
 -1      1945-1.67738E+00-6.30094E-02-1.52348E-01 3.53531E+01 5.54780E-02-8.19969E-02
 -1      1946-1.75063E+02-5.15027E-01-2.47463E-01 3.11799E+01-1.20904E-01 5.39790E-01
 -1      1947-1.64609E+02 6.52966E-01 4.68914E-01 3.16534E+01-2.29892E-01-7.76871E-02
 -1      1948 2.03090E+02 5.23925E-02 1.73064E-01 3.18310E+01 1.65487E-01 3.20469E-01
 -1      1949 1.94684E+02-1.75584E-01-7.83081E-02 3.17424E+01-7.71217E-03 1.40314E-01
 -1      1950-3.63694E+00-1.59121E-01 4.57636E-01 3.52837E+01-2.04875E-02 1.72148E-02
 -1      1951-2.19713E+02-1.59318E-01 7.72453E-02 3.14619E+01 1.26800E-01-1.91802E-01
 -1      1952-2.10069E+02 5.09213E-02 2.75190E-01 3.18631E+01-8.04911E-02-2.47044E-01
 -1      1953-1.35752E+00-2.98036E-01 3.57855E-01 3.48972E+01 1.71972E-01-3.78323E-02
 -1      1954-2.34647E+02 5.95587E-01 2.61353E-01 3.17713E+01 1.34784E-01-3.57373E-01
 -1      1955-2.43315E+02 4.37522E-02-1.80565E-01 3.19301E+01 2.21194E-01-5.69531E-01
 -1      1956-3.43371E-01-1.19697E-01-3.37403E-02 3.48668E+01-1.39487E-01-1.92974E-01
 -1      1957 4.90769E-01 4.10149E-01-3.40348E-01 3.48437E+01 1.79614E-01-1.49887E-02
 -1      1958 1.99160E+02 1.43490E-01-1.18848E-01 2.74866E+01-3.99938E-02-6.30883E-02
 -1      1959 1.29680E+02 7.71437E-02 2.88738E-02 2.82786E+01 8.85077E-03-1.75222E-01
 -1      1960-9.51487E+01-5.22053E-02 2.96180E-01 2.76111E+01-1.98930E-02 5.64735E-02
 -1      1961 4.48822E+01 4.81654E-01 2.24494E-02 2.74175E+01-2.94232E-02-3.07886E-01
 -1      1962 2.52515E+02-4.15203E-01-1.12040E-01 2.77364E+01-7.90559E-02 2.52359E-01
 -1      1963-1.64445E+02-2.02893E-02 1.83875E-01 2.74060E+01-1.48109E-02 1.49231E-02
 -1      1964 2.85614E+02-2.84171E-01 1.16736E-01 2.75091E+01-7.50880E-03-6.52787E-02
 -1      1965-4.93152E+02 1.50986E-01-4.09684E-01 2.78935E+01 2.23421E-01 9.75484E-02
 -1      1966 4.57920E+02-3.24145E-01 3.06574E-01 2.77117E+01 1.33555E-01-2.83380E-01
 -1      1967 5.31113E+02-2.43773E-01-7.82392E-02 2.52977E+01 2.62376E-01 4.91255E-01
 -1      1968-3.89685E+02-6.88427E-02 1.26381E-02 2.74809E+01 9.67893E-02 2.68419E-01
 -1      1969-3.38444E+02 1.61517E-01-2.99700E-01 2.79535E+01 1.36434E-01 2.53367E-01
 -1      1970-4.24339E+02-8.71690E-02 1.51763E-01 2.74316E+01-4.77714E-02-1.25758E-02
 -1      1971-5.27254E+02 1.47522E+01 8.68659E+00-1.89646E+00 5.66181E+00-1.35915E+01
 -1      1972-2.16566E+02 1.22169E-01 2.46410E-01 2.72557E+01-5.32752E-02 3.06619E-02
 -1      1973 7.68359E+01-2.41031E-01 3.00396E-01 2.75791E+01 1.20921E-01-2.48983E-01
 -1      1974-2.34781E+01-1.73330E+00-3.61311E-02 2.70572E+01 3.58220E-03 7.43364E-02
 -1      1975-3.03703E+02 3.35455E-02 2.86289E-01 2.68731E+01-1.63336E-01 6.48763E-02
 -1      1976-6.06639E+01 8.98937E-02-3.60132E-02 2.72759E+01 4.48624E-02 2.24680E-02
 -1      1977-2.67728E+02-1.50324E-01-1.92257E-01 2.72284E+01 1.69092E-01 9.42481E-02
 -1      1978 3.72956E+02-7.76800E-02-2.97801E-01 2.69068E+01-3.24572E-01-5.64103E-02
 -1      1979 3.26161E+02 4.20375E-02 7.30156E-03 2.70061E+01-7.08399E-02-6.54956E-02
 -1      1980 4.05881E+02-2.57018E-01 2.52094E-01 2.78144E+01 3.68079E-02-3.79308E-01
 -1      1981 2.75390E+02-1.18190E+01-2.95971E+01-2.46498E+01 1.28261E+01-2.00648E+00
 -1      1982 2.83737E+00-2.45211E-01-4.62901E-02 3.48765E+01 6.43848E-02 1.65907E-01
 -1      1983-1.29689E+02 2.51850E-01-1.01857E-01 2.74591E+01-7.97871E-03 5.58743E-02
 -1      1984 1.63596E+02-1.46239E-01 2.02494E-01 2.73693E+01 1.36392E-01-1.73167E-01
 -1      1985-4.57843E+02 1.02213E-01 1.25116E-02 2.81225E+01 1.62300E-03 2.34895E-01
 -1      1986 4.92230E+02-2.36284E-01 2.85074E-01 2.76382E+01 1.25731E-01-2.89396E-01
 -1      1987-5.30761E+02 3.12179E-01 1.14305E-01 2.49513E+01 3.62498E-01-5.44482E-01
 -1      1988-5.35563E+02 3.92987E+00 7.42097E-01 1.91568E+01 1.14927E+00-3.52181E+00
 -1      1989 7.34691E+00 1.97323E-02 3.37599E-01 1.84716E+01 7.69744E+00 4.26886E-01
 -1      1990-4.33057E+01-1.08420E-01-5.05024E-02 2.71587E+01-6.41058E-02 5.67620E-02
 -1      1991 2.16553E+02-5.36723E-02-9.13817E-02 2.71928E+01 9.88720E-03 3.64954E-03
 -1      1992 2.34820E+02 1.80794E-01 5.64663E-02 2.68845E+01 1.42019E-01 1.11883E-02
 -1      1993-9.61952E-01-1.74884E-02-3.48689E-02 3.45173E+01-7.05797E-03-3.61933E-02
 -1      1994 1.11766E+02-2.46303E-02 1.15614E-01 2.71751E+01 1.03358E-01-1.83552E-01
 -1      1995 3.05051E+02-2.93622E-02 2.73487E-01 2.79144E+01 1.19573E-01-2.83104E-01
 -1      1996-1.81750E+02 1.56466E-02 1.61628E-03 2.78938E+01-2.08388E-02 3.42427E-01
 -1      1997-7.71129E+01 3.15437E-01-2.72584E-01 2.76962E+01 5.90821E-02 2.95681E-01
 -1      1998-1.12728E+02-2.56608E-03 1.59112E-01 2.70561E+01-6.53855E-02-4.14273E-02
 -1      1999 3.89456E+02-1.22185E-01 1.20709E-01 2.74466E+01 6.21461E-02 1.61597E-02
 -1      2000-3.72043E+02-9.03496E-02-4.26084E-01 2.69747E+01 3.23052E-01-6.52820E-02
 -1      2001-3.58308E+02-1.05129E-01 2.03628E-01 2.72744E+01-1.69974E-01 1.50609E-01
 -1      2002 3.90227E+00-1.12799E-01-1.01823E-01 3.49409E+01-4.42630E-02-2.09231E-02
 -1      2003 4.42229E+02-1.29162E-01-3.15070E-01 2.68981E+01-3.25823E-01 3.89525E-03
 -1      2004 4.23872E+02-3.01449E-02-2.07429E-01 2.79683E+01 3.16532E-02-8.27208E-02
 -1      2005 6.14502E+01 1.29295E-01-8.58657E-02 2.70940E+01-1.20325E-01-1.39161E-01
 -1      2006-3.23547E+02 1.76904E-01-1.64130E-01 2.72867E+01 3.26813E-02 1.61891E-02
 -1      2007-4.40834E+02-4.88450E-02-2.93781E-01 2.68563E+01 3.08329E-01 4.69370E-02
 -1      2008-2.85791E+02-2.19890E-02 3.12179E-02 2.83988E+01 2.11592E-02 6.49922E-02
 -1      2009 4.76274E+02 3.43467E-02-3.46845E-01 2.74443E+01-2.43480E-02-2.61390E-02
 -1      2010-5.14885E+02-6.05996E-02 1.65601E-01 2.70535E+01-9.96124E-02 5.42179E-02
 -1      2011 5.14069E+02-3.66818E-01-4.79297E-01 2.69332E+01-5.03136E-02 3.17808E-01
 -1      2012-4.76425E+02 2.46753E-01 4.82544E-01 2.70632E+01-2.15068E-01-1.23767E-01
 -1      2013 1.47887E+02-9.37125E-04-2.83453E-01 2.68728E+01-1.67607E-01-7.32875E-02
 -1      2014-4.07266E+02-1.05054E-01 3.13013E-01 2.80240E+01-1.29909E-01 2.49864E-01
 -1      2015 1.82151E+02 1.27960E-01-2.98539E-01 2.80259E+01-1.46160E-01-2.60698E-01
 -1      2016 2.69178E+02 1.12189E-01 9.18832E-02 2.72210E+01-4.43809E-02 4.49841E-03
 -1      2017 9.51749E+01-2.92019E-01-4.68030E-01 2.72091E+01-1.19535E-01 2.15188E-01
 -1      2018-1.46211E+02 1.74907E-01-2.52163E-01 2.77551E+01 6.63543E-02 4.27746E-01
 -1      2019-1.98397E+02 9.03823E-02-8.22617E-02 2.74912E+01 4.82242E-02 2.04113E-01
 -1      2020 1.70348E+00 1.02780E-01-1.56494E-02 3.08893E+01 1.76400E+00 1.25684E-01
 -1      2021 5.43931E+02-3.39328E+00 1.08691E-01 1.92171E+01 1.49796E+00 2.48843E+00
 -1      2022-2.73503E+02-9.07509E-01 1.97722E+01-2.66771E+01 1.18021E+01-1.03743E+00
 -1      2023-2.55995E+02-2.35932E-01 1.18077E-01 2.72201E+01 2.19562E-03 3.75217E-01
 -1      2024-2.37606E+02 1.07177E-01-3.10859E-01 2.72881E+01 4.10014E-03-1.92044E-02
 -1      2025 2.46234E+00 1.97078E-03 5.62809E-02 3.50486E+01 9.50478E-02-5.80172E-02
 -1      2026 3.62186E+02 3.90720E-02 9.68285E-02 2.74200E+01 5.31914E-02 3.54605E-02
 -1      2027 7.12683E-01-2.07959E-01 3.30448E-03 3.54646E+01 1.09494E-01-8.28324E-02
 -1      2028-8.69817E-01-9.05803E-03-2.20226E-01 3.46957E+01-1.61018E-01 1.91030E-02
 -1      2029-8.49969E-01 1.38754E-01-9.68231E-02 3.44594E+01-9.58053E-02-3.37918E-02
 -1      2030-2.06527E-01-4.65867E-01 1.29496E-01 3.50836E+01-1.17845E-01-5.28632E-02
 -1      2031 1.12920E-01-1.13212E-01-3.62421E-02 3.49583E+01 1.12904E-01 1.39559E-02
 -1      2032-2.13948E-01-8.17865E-02 1.40190E-02 3.51818E+01 1.56801E-02 1.08534E-01
 -1      2033 4.78217E-01-2.37901E-02 1.49939E-02 3.48666E+01-2.01851E-01 2.09010E-02
 -1      2034-1.57095E-01-8.22803E-02-1.92669E-01 3.45921E+01 4.24312E-02 9.87146E-04
 -1      2035-6.75952E-02-2.18774E-02 1.33591E-02 3.45827E+01-3.16259E-02 2.59926E-02
 -1      2036 1.43948E+00 4.84729E-01-9.68481E-02 3.50783E+01-1.48904E-01 2.59150E-02
 -1      2037 6.26259E-01 2.08767E-02 1.08051E-01 3.44213E+01-6.25962E-03-5.67817E-02
 -1      2038 6.70645E-02 2.52005E-01-1.12061E-01 3.49144E+01 1.89415E-01 3.87471E-04
 -1      2039-3.36129E-01 1.15396E-01-1.84135E-01 3.42832E+01 4.51762E-02-6.31318E-02
 -1      2040 1.60698E-01-2.25690E-01 7.74119E-02 3.38768E+01 6.15799E-02 2.86650E-02
 -1      2041 3.21810E-01 1.35107E-02-8.04347E-02 3.46965E+01 2.06409E-01-1.48504E-01
 -1      2042-7.46184E-01-2.23413E-01-1.22529E-01 3.46270E+01 1.50900E-01 8.88152E-02
 -1      2043-3.16230E-01-6.21192E-02 6.10114E-02 3.49603E+01-8.23840E-02 3.91015E-02
 -1      2044 4.84019E-01 7.97084E-02-1.04694E-01 3.49309E+01 4.79328E-02 5.09005E-02
 -1      2045 4.01389E-01 8.62673E-02-1.43307E-01 3.49516E+01 7.40723E-03-3.64633E-02
 -1      2046-8.66914E-01-1.75424E-01-1.01799E-01 3.47490E+01-8.41558E-02-7.33004E-02
 -1      2047-2.45172E-01 2.69795E-02-1.70584E-01 3.44563E+01 5.36596E-02-1.34844E-01
 -1      2048-8.44548E-01-1.90652E-01-5.82389E-02 3.46896E+01 8.21093E-02 3.09975E-02
 -1      2049 8.33094E-01-8.33641E-02 9.93746E-02 3.44422E+01-7.40734E-02 6.06790E-02
 -1      2050-2.55791E-01-1.51260E-01 7.45358E-02 3.48486E+01-1.05877E-01-2.56343E-02
 -1      2051 1.45999E-02 2.24003E-01-6.32430E-02 3.49256E+01 2.09536E-01 6.36471E-02
 -1      2052 3.45209E+02 1.86665E-02 1.34128E-02 2.75338E+01-2.35044E-02-3.33867E-01
 -1      2053-7.77895E-01-2.26595E-01-5.43893E-02 3.47248E+01-9.93610E-02-5.14016E-02
 -1      2054-3.25670E+00-2.14705E+00-5.75239E-01 3.44457E+01 6.30936E-02-1.32684E-02
 -1      2055 5.30454E+02-1.42985E+01-7.22477E+00-2.41641E-01 4.98923E+00 1.22679E+01
 -1      2056 2.35266E+01 1.50937E+00 2.55507E-01 2.71898E+01 2.03980E-02 1.14891E-02
 -1      2057-3.45602E+00-1.17937E+00 2.91913E-01 3.80518E+00 1.15828E+01 2.57694E+00
 -1      2058-7.47527E+02 2.75408E+01 6.59095E+01-1.98323E+01 8.66919E+00 4.38590E+00
 -1      2059 7.27784E+02-3.32837E+01-7.36660E+01-2.69226E+01 1.39560E+01 5.42197E+00
 -1      2060-9.39212E+00-2.30213E+00-5.10924E-01 2.00504E+01 9.84952E-02-2.40695E-01
 -1      2061 8.70539E+00 2.13515E+00 4.82221E-01 2.05995E+01 1.85760E-01 4.12142E-01
 -1      2062 1.56580E-01 1.65619E-01 2.07052E-01 3.65222E+01-2.13201E-01-1.14974E-01
 -1      2063 1.07699E+03 1.45978E+02 1.34178E+02 3.56414E+01-1.92293E+01-1.37518E+02
 -1      2064 6.91740E+02 8.24417E+01 1.31616E+01-6.61169E+01 9.62245E+00-8.54152E+01
 -1      2065 8.45429E+02-5.55773E+01-5.54597E+01-4.83028E+01 2.76965E+01 2.64397E+01
 -1      2066-7.38942E+02-1.16148E+02-8.35497E+01-5.13202E+01-1.55059E+00 1.05058E+02
 -1      2067-1.08522E+03-1.50381E+02-1.37249E+02 3.07290E+01-1.64882E+01 1.37893E+02
 -1      2068-8.45601E+02 5.97648E+01 5.65546E+01-4.88049E+01 2.56762E+01-2.75289E+01
 -1      2069 2.45928E+00-9.16567E+00 9.04888E-01 2.32446E+01 6.86985E-01-4.97670E-01
 -1      2070 7.67405E+00-1.77977E+00 9.13392E-01 1.31836E+01 5.38630E-01 6.01751E-01
 -1      2071 2.42963E+01 2.71155E+00-9.02925E-02 8.53192E+00-8.70322E-01 6.73252E-01
 -1      2072-7.94680E+00 1.63422E+00-1.20538E+00 1.33135E+01 4.40671E-01-4.75361E-01
 -1      2073-2.92856E+00 7.44255E+00-9.56232E-01 2.35955E+01 3.14656E-01 5.88990E-01
 -1      2074-2.44097E+01-2.57739E+00 1.07403E-01 8.57917E+00-8.25559E-01-6.37300E-01
 -1      2075 4.73194E+02 1.12974E+02 8.01883E+01-6.92698E+01 1.64466E+01-8.10127E+01
 -1      2076 1.29196E+02-8.30831E+00-3.10863E+01-9.05034E+01 1.67575E+01-4.15822E+00
 -1      2077 5.20676E+02-4.61253E+00-5.58675E+01-3.16918E+01 5.78547E+00 2.41984E+00
 -1      2078-1.46112E+02-4.20291E+00-3.39065E+00-8.69922E+01 1.19662E+01 1.10858E+01
 -1      2079-4.87045E+02-1.22055E+02-9.61516E+01-7.25269E+01 1.42761E+01 7.89563E+01
 -1      2080 9.90348E+00 1.27394E+00-3.96850E+00-2.90600E+01 8.32835E+00-1.56046E+00
 -1      2081-4.99658E+02 1.30945E+01 4.81711E+01-3.23169E+01 8.35176E+00 3.99981E+00
 -1      2082 3.49551E-01-1.46024E-01 4.05780E-01 3.02173E+01-1.53128E-01-8.58134E-02
 -1      2083 2.45010E+00-7.30194E+00 5.51319E-01 2.85536E+01 9.99746E-02 3.41962E-01
 -1      2084 5.14938E+00-2.24965E-01-3.40435E-01 2.85370E+01 8.59841E-02 4.55879E-01
 -1      2085-2.45524E+00 7.27485E+00-9.85934E-01 2.86436E+01-3.44707E-01-7.03140E-03
 -1      2086-1.19527E+00-7.05300E-01-8.14022E-01 3.01783E+01-4.56355E-01 9.33348E-02
 -1      2087 3.33459E-01 1.39130E-01 2.12455E-01 3.55493E+01 4.54336E-01 4.40158E-01
 -1      2088-5.75165E+00-4.52515E-02 5.08928E-01 2.81459E+01 4.85657E-01-1.43148E-01
 -1      2089 8.13352E+02-7.66245E+00-5.65480E+00 1.05418E+00 1.97609E+00 6.17387E+00
 -1      2090 8.10015E+02 2.83926E+00 8.12687E+00-1.50222E+01-5.62583E+00 6.91588E+00
 -1      2091 6.06965E+02-1.93951E+01-1.28869E+01-1.95424E+01 7.81590E+00 1.34003E+01
 -1      2092 8.15047E+02-1.76282E+00-6.16772E-02 1.13631E+01 5.71265E-01 2.44224E+00
 -1      2093 8.19929E+02-2.94029E+00-6.65699E-01 8.15233E+00 9.12275E-01 1.45091E+00
 -1      2094 5.35847E+02-6.62411E+00-2.27627E-01 1.17390E+01 2.05105E+00 2.93022E+00
 -1      2095 7.94251E+02-5.68740E-01 1.12726E-01 1.45435E+01 1.40513E-01 1.02212E+00
 -1      2096 8.08427E+02-3.85045E-01 2.15022E-02 1.35883E+01-9.40022E-02 1.32351E+00
 -1      2097 5.39300E+02-1.26828E+00 5.71171E-01 2.33825E+01 4.73439E-01 1.65455E+00
 -1      2098 7.68352E+02-3.04762E-02-6.75155E-01 1.52235E+01-2.60498E-01-4.44996E-02
 -1      2099 7.85490E+02 3.84501E-01-1.72390E-01 1.54254E+01 7.05440E-02 9.64614E-01
 -1      2100 5.23667E+02 1.49088E-01 7.86700E-02 2.69275E+01 2.88086E-01 6.74120E-01
 -1      2101 7.41122E+02-1.07591E-01 4.35778E-02 1.55516E+01-3.62172E-02 4.61547E-01
 -1      2102 7.57701E+02-2.88983E-01 3.50399E-01 1.50387E+01 7.27189E-02 1.81606E-01
 -1      2103 5.03124E+02-4.45357E-01 1.80870E-01 2.73036E+01 2.00626E-01-2.96665E-01
 -1      2104 7.14371E+02-1.18778E-01-5.46988E-01 1.53372E+01-2.22462E-01 7.10942E-02
 -1      2105 7.31711E+02 3.09850E-01-4.17458E-01 1.55868E+01 7.18238E-02 5.86505E-01
 -1      2106 4.85048E+02 1.99428E-01 7.11671E-03 2.80061E+01-1.56357E-01 1.06313E-01
 -1      2107 6.88853E+02-1.20007E-01 1.56079E-01 1.56941E+01-2.16577E-01 5.05147E-01
 -1      2108 7.05431E+02-3.02539E-01 3.94880E-01 1.51183E+01 1.19390E-01 1.47323E-01
 -1      2109 4.67141E+02-4.42385E-01 1.30990E-01 2.75840E+01 2.62863E-01-3.12082E-01
 -1      2110 6.61926E+02 1.69100E-01-3.56380E-01 1.50586E+01-1.25217E-01-1.61348E-01
 -1      2111 6.79470E+02 1.28082E-01-7.47248E-01 1.52949E+01-2.28075E-01 5.04536E-01
 -1      2112 4.50454E+02 1.21039E-01-2.46036E-01 2.76921E+01-5.34220E-01 1.96314E-01
 -1      2113 6.36139E+02 6.32615E-02-1.68788E-01 1.57845E+01-2.10678E-01-2.38830E-02
 -1      2114 6.52561E+02 2.55273E-01-7.67897E-02 1.57294E+01 1.36242E-01 2.81141E-01
 -1      2115 4.32855E+02-4.97611E-01-2.47485E-01 2.76881E+01 2.69738E-02-1.37060E-01
 -1      2116 6.09776E+02-4.25163E-02 2.82807E-02 1.55574E+01-1.00159E-01 4.16114E-01
 -1      2117 6.26481E+02-2.73076E-01 3.07886E-01 1.51495E+01 3.93572E-02 1.34795E-01
 -1      2118 4.14976E+02-4.11628E-01 1.49035E-01 2.78365E+01 2.21213E-01-3.09253E-01
 -1      2119 5.83314E+02-2.17823E-01 9.51284E-02 1.55383E+01-3.01691E-01 6.99728E-01
 -1      2120 6.00605E+02 5.42887E-02-7.85951E-02 1.53266E+01 1.22000E-01 5.09966E-01
 -1      2121 3.98232E+02-2.40779E-02-1.28741E-02 2.80296E+01-2.40547E-01-6.65063E-02
 -1      2122 5.56767E+02 1.97587E-01-3.54997E-01 1.50973E+01-9.35469E-02-1.51485E-01
 -1      2123 5.74252E+02 1.81460E-01-6.98770E-01 1.52564E+01-2.62348E-01 5.37479E-01
 -1      2124 3.81123E+02 8.13091E-02-2.08256E-01 2.76334E+01-4.30576E-01 2.87774E-01
 -1      2125 5.34425E+02-2.48429E-02 2.54445E-01 1.53278E+01-4.13927E-03 5.68690E-01
 -1      2126 5.51917E+02 3.90352E-01 3.80183E-01 1.52496E+01 1.73067E-01 4.81080E-01
 -1      2127 3.67333E+02-5.28448E-01-1.59040E-01 2.74004E+01 5.59379E-02-1.81792E-01
 -1      2128 5.08333E+02-8.97010E-02-2.18069E-01 1.51452E+01-2.01564E-01 5.06326E-01
 -1      2129 5.25277E+02 9.77775E-02 1.44969E-01 1.52262E+01 2.04363E-01 4.59754E-01
 -1      2130 3.53376E+02-1.05348E-01-5.32363E-02 2.77018E+01 2.60733E-01-7.71242E-02
 -1      2131 4.80678E+02 2.00629E-01-1.66272E-01 1.51249E+01-5.36864E-02 2.90721E-02
 -1      2132 4.98031E+02-4.27602E-02-4.23276E-01 1.51249E+01-8.56892E-02 4.73475E-01
 -1      2133 3.35555E+02 1.55515E-01 6.56231E-02 2.76254E+01-2.66572E-01-1.42032E-01
 -1      2134 4.53433E+02-4.31344E-02 2.14937E-01 1.56400E+01-1.15542E-01 5.45055E-01
 -1      2135 4.70144E+02 2.18174E-01 5.50159E-01 1.53166E+01 2.72088E-01 3.05151E-01
 -1      2136 3.15569E+02-2.45612E-01 1.00808E-01 2.74066E+01 1.48198E-01-3.62276E-01
 -1      2137 4.25377E+02-2.32843E-01-6.91276E-02 1.54704E+01-2.11315E-01 6.59595E-01
 -1      2138 4.42933E+02 4.33374E-02-4.73355E-02 1.53440E+01 4.50268E-02 5.11959E-01
 -1      2139 2.95279E+02-1.40464E-01-2.72077E-02 2.79197E+01-1.17269E-01 1.98327E-02
 -1      2140 3.99201E+02-2.58340E-01 1.44561E-01 1.52502E+01-6.18634E-02 6.22682E-01
 -1      2141 4.16897E+02 2.42729E-01-8.26969E-02 1.51954E+01-1.78463E-02 6.15628E-01
 -1      2142 2.77625E+02 1.73544E-01 1.96331E-01 2.78783E+01-3.05549E-01 1.18512E-01
 -1      2143 3.73450E+02-9.76576E-02-4.79913E-01 1.53739E+01-2.08213E-01 3.37604E-01
 -1      2144 3.90770E+02 3.79638E-01 3.79717E-02 1.57682E+01 2.30492E-01 8.46494E-01
 -1      2145 2.61564E+02 2.03976E-01 2.10895E-01 2.80262E+01 1.15542E-01 4.02544E-01
 -1      2146 3.47284E+02-2.53451E-01 1.89060E-01 1.54485E+01-6.26576E-02 7.33331E-01
 -1      2147 3.64641E+02-3.65758E-01 3.34807E-01 1.49759E+01 8.92624E-02-1.44120E-01
 -1      2148 2.43561E+02-4.30833E-01-1.76045E-01 2.69484E+01-1.17014E-01-6.09393E-02
 -1      2149 3.19976E+02-2.12570E-01 5.43812E-02 1.52050E+01-1.25270E-02 6.01452E-01
 -1      2150 3.37573E+02 3.41191E-01-1.80891E-01 1.53868E+01 1.36277E-01 6.37491E-01
 -1      2151 2.25743E+02-1.20098E-01-1.21654E-01 2.77776E+01-8.89538E-02 3.33115E-01
 -1      2152 2.93584E+02-6.71109E-02 6.46469E-02 1.53051E+01-7.79277E-02 5.22390E-01
 -1      2153 3.11095E+02 1.94936E-01 5.03874E-02 1.54337E+01 1.61205E-01 6.69133E-01
 -1      2154 2.07664E+02-1.46142E-01-1.42231E-01 2.78661E+01 2.37008E-01 1.37368E-01
 -1      2155 2.67591E+02-1.82377E-01-5.24736E-01 1.54075E+01-2.72320E-01 2.55389E-01
 -1      2156 2.84341E+02 1.20430E-01-1.82360E-01 1.56574E+01 8.41146E-02 5.90330E-01
 -1      2157 1.90633E+02 4.12487E-02-4.55824E-02 2.80210E+01 9.04052E-02 1.60964E-02
 -1      2158 2.41628E+02-1.02349E-02 4.38715E-01 1.55693E+01-2.11492E-01 6.06742E-01
 -1      2159 2.58286E+02-2.85138E-01 3.37383E-01 1.52715E+01 1.62196E-01-1.17809E-01
 -1      2160 1.72874E+02 2.41066E-01-6.45181E-02 2.75868E+01-1.46592E-01-4.00507E-01
 -1      2161 2.14708E+02 3.27053E-01-3.21732E-01 1.50275E+01-4.48310E-02-2.05441E-01
 -1      2162 2.32344E+02 3.29417E-01-6.56773E-01 1.52802E+01-2.20632E-01 5.61210E-01
 -1      2163 1.56180E+02 3.65281E-02-2.38745E-01 2.77012E+01-4.06044E-01 2.13826E-01
 -1      2164 1.89054E+02-6.48949E-02-9.62592E-02 1.57195E+01-2.01492E-01 2.67239E-01
 -1      2165 2.05425E+02 2.38806E-01 9.34406E-02 1.57339E+01 1.74298E-01 3.03734E-01
 -1      2166 1.38575E+02-3.67320E-01-1.07283E-01 2.76760E+01 1.34522E-01-2.10781E-01
 -1      2167 1.62535E+02-1.55918E-01 4.69989E-01 1.54293E+01 3.69734E-02 4.42833E-01
 -1      2168 1.79499E+02-2.36090E-01 2.19085E-01 1.51833E+01 5.98179E-02-9.20400E-02
 -1      2169 1.20821E+02 3.67155E-01 1.97398E-01 2.77558E+01-1.50791E-01-2.32455E-01
 -1      2170 1.35523E+02-2.24055E-03-6.91043E-01 1.53778E+01-2.63633E-01-8.42379E-02
 -1      2171 1.53219E+02 4.21119E-01-2.46050E-01 1.56603E+01 9.26047E-02 7.81842E-01
 -1      2172 1.04428E+02 5.40197E-02-4.97377E-03 2.78249E+01 1.29609E-01 3.94467E-01
 -1      2173 1.10052E+02-1.31660E-01 6.55151E-02 1.55318E+01-6.25692E-02 4.82777E-01
 -1      2174 1.26612E+02-2.76488E-01 3.61591E-01 1.50199E+01 7.00383E-02 2.09762E-01
 -1      2175 8.59485E+01-4.57749E-01 1.45483E-01 2.74200E+01 1.45139E-01-3.11893E-01
 -1      2176 8.37072E+01 2.16433E-01-1.90820E-01 1.51043E+01-6.06260E-02-1.07382E-01
 -1      2177 1.00697E+02 4.77541E-02-5.33187E-01 1.53198E+01-7.25102E-02 4.59673E-01
 -1      2178 6.93482E+01 3.14067E-01-4.92360E-03 2.78443E+01-2.42482E-01 7.99355E-02
 -1      2179 5.83743E+01 4.79168E-01 1.00792E-01 1.47987E+01 2.32441E-02 1.15894E-01
 -1      2180 7.46822E+01 2.36917E-01 1.30993E-01 1.51329E+01 3.02090E-02 1.14285E-01
 -1      2181 5.26604E+01-3.15698E-01-1.50655E-01 2.73349E+01 1.36067E-01-4.15246E-01
 -1      2182 3.13179E+01 4.96878E-01-1.09579E-01 1.43563E+01 8.79823E-02-7.12443E-02
 -1      2183 4.67649E+01 6.35741E-01 2.44759E-01 1.50135E+01 1.73633E-02-2.46831E-02
 -1      2184 3.39981E+01 1.03025E+00-3.29422E-01 2.72625E+01-8.00027E-02-2.00637E-01
 -1      2185 1.76844E+01 1.65936E+00 4.07829E-01 2.33762E+01-1.13772E-01 3.66042E-01
 -1      2186-8.09456E+02-3.86170E+00-8.96891E+00-1.48523E+01-5.19326E+00-6.94460E+00
 -1      2187-8.06188E+02 1.05250E+01 8.63748E+00-3.37310E-01 3.84055E+00-8.99143E+00
 -1      2188-6.06435E+02 2.32658E+01 1.45070E+01-1.68060E+01 7.85192E+00-1.38730E+01
 -1      2189-8.17395E+02 2.29035E+00 1.06339E+00 8.52825E+00-4.19120E-01-2.15090E+00
 -1      2190-8.11223E+02 2.16529E+00 1.26058E+00 1.20479E+01 6.94125E-01-2.08141E+00
 -1      2191-5.32261E+02 6.47542E+00 1.66281E+00 1.20476E+01 2.07776E+00-4.61144E+00
 -1      2192-8.08296E+02 7.75897E-01-3.89391E-02 1.38799E+01-1.36701E-01-3.86544E-01
 -1      2193-7.94897E+02 3.29512E-01-4.98050E-01 1.43189E+01 4.18427E-01-9.18692E-01
 -1      2194-5.35733E+02 7.88706E-01-6.33770E-01 2.31297E+01 4.08501E-01-1.34252E+00
 -1      2195-7.85226E+02 1.15316E-01 1.88014E-01 1.51606E+01 8.43436E-02-7.03084E-01
 -1      2196-7.69001E+02-1.82990E-01 3.21697E-01 1.50778E+01-1.33115E-01 4.75168E-02
 -1      2197-5.23505E+02 9.24164E-02-1.15275E-02 2.67230E+01 5.74544E-01-3.18752E-01
 -1      2198-7.58286E+02-2.13003E-01-6.78735E-01 1.53447E+01 3.34050E-01-2.42834E-01
 -1      2199-7.41590E+02 1.69560E-01-2.97662E-01 1.58151E+01-2.04502E-01-6.09911E-01
 -1      2200-5.03941E+02 3.15109E-01-3.99725E-03 2.74001E+01 1.86081E-01 2.83228E-01
 -1      2201-7.32133E+02-3.73903E-01 6.67217E-01 1.55414E+01-1.89563E-01-6.00006E-01
 -1      2202-7.13810E+02 3.02685E-01 7.08894E-01 1.53050E+01-2.63727E-01-5.62772E-02
 -1      2203-4.85207E+02-5.76108E-02 2.40512E-01 2.78437E+01-3.94581E-01-3.70439E-01
 -1      2204-7.04790E+02 3.19961E-01-1.12775E-02 1.56209E+01-4.62705E-02-1.54777E-01
 -1      2205-6.88740E+02 6.97519E-02 1.46403E-01 1.56666E+01-1.31591E-02-8.15536E-02
 -1      2206-4.67076E+02 5.79261E-01-2.11477E-01 2.77233E+01 1.17118E-01 2.04994E-01
 -1      2207-6.79567E+02 1.80307E-01-3.44382E-01 1.50660E+01 6.28801E-02 1.78539E-01
 -1      2208-6.61984E+02 1.92257E-01-6.94581E-01 1.52355E+01 2.66875E-01-5.34310E-01
 -1      2209-4.50397E+02-7.77720E-01-3.62590E-01 2.75424E+01-1.02733E-01 3.82138E-01
 -1      2210-6.52941E+02-2.01913E-01 1.01312E-01 1.55400E+01 3.06382E-01-6.99100E-01
 -1      2211-6.35556E+02 8.08990E-02-5.42715E-02 1.53161E+01-1.12280E-01-4.75959E-01
 -1      2212-4.32640E+02 1.19649E-01-1.78997E-01 2.76231E+01 4.32041E-01-2.84280E-01
 -1      2213-6.26262E+02-7.62743E-02 1.91391E-01 1.56935E+01 1.08211E-01-5.54157E-01
 -1      2214-6.09417E+02 2.49291E-01 5.87915E-01 1.54057E+01-2.59122E-01-2.66172E-01
 -1      2215-4.15808E+02-7.38083E-02 4.29786E-02 2.80424E+01 1.00660E-01-3.77370E-02
 -1      2216-6.00049E+02 3.03326E-01-8.77546E-02 1.54046E+01-1.51091E-02 2.52390E-01
 -1      2217-5.83818E+02-3.89769E-01-1.30798E-01 1.53223E+01 1.68868E-01-1.08843E-01
 -1      2218-3.98068E+02-2.35808E-01 6.93733E-02 2.76345E+01-1.14802E-01 4.21260E-01
 -1      2219-5.74878E+02-2.44677E-01-6.71869E-01 1.52330E+01 2.75516E-01-2.73194E-02
 -1      2220-5.56942E+02 3.57109E-01-6.75406E-01 1.54134E+01 2.22360E-01-6.48077E-01
 -1      2221-3.81540E+02-6.29258E-01 8.57703E-02 2.75262E+01-7.87409E-02 3.41859E-01
 -1      2222-5.48876E+02-2.73234E-02 4.10235E-01 1.54999E+01 1.73596E-01-6.01186E-01
 -1      2223-5.32121E+02-2.75371E-01 3.33664E-01 1.52060E+01-1.78507E-01 1.30548E-01
 -1      2224-3.64247E+02 1.19886E-01-1.59756E-01 2.76326E+01 4.37023E-01-2.92750E-01
 -1      2225-5.22165E+02-1.70752E-01-5.28506E-01 1.53561E+01 2.68859E-01-2.38281E-01
 -1      2226-5.05419E+02 1.24409E-01-1.73426E-01 1.56126E+01-7.85489E-02-5.79588E-01
 -1      2227-3.48350E+02 2.82197E-01-6.02625E-02 2.74990E+01 1.17947E-01 3.95078E-01
 -1      2228-4.97291E+02-3.73406E-02 3.23593E-02 1.51947E+01 1.21581E-01-4.78111E-01
 -1      2229-4.79775E+02 2.34109E-01-1.08598E-01 1.54386E+01-3.36552E-01-6.92255E-01
 -1      2230-3.31016E+02 1.24577E-01-3.72597E-02 2.79120E+01-8.77168E-02-2.58909E-02
 -1      2231-4.69071E+02-2.96030E-01 6.62802E-01 1.53002E+01-2.30107E-01-5.50887E-01
 -1      2232-4.51391E+02-2.99875E-01 3.13748E-01 1.50352E+01-3.20187E-02 2.03287E-01
 -1      2233-3.13477E+02-3.28142E-02 2.74541E-01 2.76141E+01-4.20425E-01-2.97160E-01
 -1      2234-4.42224E+02-1.75543E-01-1.16818E-01 1.58449E+01 2.04360E-01-3.46890E-01
 -1      2235-4.25724E+02 1.58007E-01 2.15699E-01 1.58142E+01-1.62485E-01-3.34152E-01
 -1      2236-2.94476E+02 4.15838E-01 1.76687E-01 2.77303E+01 1.33467E-01 1.51015E-01
 -1      2237-4.15864E+02 3.58279E-01 9.30594E-02 1.54010E+01-2.83006E-02 2.98615E-01
 -1      2238-3.99364E+02 1.04885E-01-2.85940E-01 1.55271E+01-1.37822E-01 2.34660E-01
 -1      2239-2.77245E+02-7.14576E-01-2.90454E-01 2.79278E+01-1.22919E-01 1.13138E-01
 -1      2240-3.92003E+02 1.73326E-01-5.75589E-02 1.51725E+01-3.83580E-02 7.62524E-02
 -1      2241-3.75879E+02-4.99742E-01 5.76314E-02 1.48773E+01 1.07193E-01 2.24020E-02
 -1      2242-2.61823E+02 3.44316E-01-4.81416E-01 2.73542E+01 4.02952E-01 4.56096E-01
 -1      2243-3.65978E+02-2.13683E-02-6.06634E-01 1.52105E+01 2.09530E-01-4.76764E-02
 -1      2244-3.48595E+02 2.83716E-01-1.32866E-01 1.53990E+01-2.10223E-01-6.68911E-01
 -1      2245-2.47318E+02-4.39111E-01 1.54148E-02 2.72190E+01-2.81991E-01 2.93007E-01
 -1      2246-3.37304E+02-3.61527E-01 3.59843E-01 1.54849E+01-4.46761E-02-5.97554E-01
 -1      2247-3.19765E+02 1.84449E-01 5.22646E-01 1.53126E+01-2.02827E-01-1.51897E-01
 -1      2248-2.27032E+02 9.56513E-02 1.36965E-01 2.77292E+01-2.76337E-01-2.95433E-01
 -1      2249-3.10939E+02 1.82958E-01-2.06808E-01 1.52215E+01-8.33981E-03-2.59271E-01
 -1      2250-2.93743E+02-2.51393E-02-2.86358E-01 1.53631E+01 1.09990E-01-4.01812E-01
 -1      2251-2.07523E+02 4.89244E-01-1.97920E-01 2.75659E+01 2.52129E-01 2.54060E-01
 -1      2252-2.84536E+02-1.10374E-01-1.53719E-01 1.54479E+01 2.07482E-01-4.77891E-01
 -1      2253-2.67674E+02 9.08931E-02 2.41782E-01 1.53911E+01-1.78054E-01-5.24143E-01
 -1      2254-1.90186E+02 1.06534E-01 4.03025E-02 2.79726E+01 2.06988E-01 1.75769E-01
 -1      2255-2.58501E+02-1.49343E-01 3.79732E-01 1.54594E+01-2.55944E-02-5.57578E-01
 -1      2256-2.40819E+02 1.74754E-01 3.96516E-01 1.54437E+01-1.61261E-01-1.43743E-01
 -1      2257-1.73637E+02-2.54973E-01-1.25215E-01 2.80079E+01-2.95427E-01 1.20313E-01
 -1      2258-2.31801E+02 2.21691E-01-3.34530E-01 1.51339E+01 8.65975E-02-1.77645E-01
 -1      2259-2.15222E+02-2.42759E-02-7.33070E-02 1.55145E+01-9.10011E-02-4.11079E-01
 -1      2260-1.55520E+02 2.66553E-01-3.13241E-01 2.76204E+01 2.26818E-01 3.76437E-01
 -1      2261-2.06013E+02-3.75546E-02 7.70161E-02 1.52950E+01 6.26670E-02-5.33187E-01
 -1      2262-1.88654E+02 2.31080E-01 6.85369E-03 1.54791E+01-2.25763E-01-6.79923E-01
 -1      2263-1.38535E+02 7.05792E-02 5.28061E-02 2.79110E+01-2.42354E-01 1.02315E-01
 -1      2264-1.79908E+02-3.21332E-01 1.79542E-01 1.52718E+01-2.53784E-02-6.62892E-01
 -1      2265-1.62068E+02 2.47811E-01-2.04208E-02 1.51761E+01 1.09383E-02-6.14428E-01
 -1      2266-1.21208E+02 4.93529E-03 2.94193E-02 2.77963E+01-3.32919E-01-1.47781E-01
 -1      2267-1.52962E+02-2.50428E-01 1.05750E-01 1.56520E+01 1.43839E-01-6.67870E-01
 -1      2268-1.35658E+02 7.79323E-02 5.81084E-01 1.54578E+01-2.39318E-01 8.58269E-04
 -1      2269-1.03998E+02 9.03360E-02 1.46877E-02 2.78837E+01 2.04377E-01-2.52678E-01
 -1      2270-1.26746E+02 2.54353E-01-4.03062E-01 1.50787E+01 5.52951E-02-1.78975E-01
 -1      2271-1.10102E+02 8.11598E-02 1.51872E-02 1.54843E+01-8.05528E-02-4.99456E-01
 -1      2272-8.62916E+01 4.23915E-01-2.43838E-01 2.75950E+01 2.07766E-01 3.08179E-01
 -1      2273-1.00940E+02-1.24721E-01 1.42271E-01 1.52531E+01 7.45552E-02-5.90387E-01
 -1      2274-8.33257E+01 2.43245E-01-1.05182E-01 1.53181E+01-1.14077E-01-6.06991E-01
 -1      2275-6.94250E+01-8.44032E-02 8.80664E-02 2.78320E+01-2.65932E-01-3.47022E-02
 -1      2276-7.44681E+01-1.41202E-01 5.97044E-03 1.51297E+01 2.55689E-02-5.82412E-01
 -1      2277-5.72809E+01 1.54029E-02 4.73882E-02 1.50615E+01-2.30186E-01-3.72310E-01
 -1      2278-5.20266E+01-1.00823E-01-9.59483E-02 2.77217E+01-1.53074E-03-1.14453E-01
 -1      2279-4.64569E+01-7.84056E-01 1.72194E-01 1.50322E+01 7.66693E-02-3.16956E-01
 -1      2280-3.08677E+01-7.01586E-01 4.22641E-01 1.40600E+01 7.50602E-02 2.88257E-02
 -1      2281-3.36018E+01-8.14077E-01-3.82513E-02 2.76030E+01-1.26968E-01-2.77769E-02
 -1      2282-1.82138E+01-1.85528E+00-4.34428E-01 2.29946E+01 5.43218E-02-4.14055E-01
 -1      2283 9.94231E+01-1.44822E-01-1.46321E-01 3.20357E+01-8.03817E-02-2.67757E-01
 -1      2284 1.07774E+02-1.92767E-01 2.66951E-01 3.19194E+01-7.23787E-02-5.13896E-01
 -1      2285 9.11868E+01-1.67167E-01-3.02988E-02 3.20098E+01 5.04844E-02-4.05786E-01
 -1      2286 9.92997E+01 1.56866E-02 6.76921E-02 3.17556E+01-8.75126E-02-3.79262E-01
 -1      2287-5.29942E-02-7.80506E-02 2.04414E-01 3.51440E+01-5.85057E-02-2.41035E-02
 -1      2288 5.64237E+01 1.54320E-01-2.38778E-01 3.15652E+01 3.11930E-03-2.98766E-01
 -1      2289 6.47712E+01 3.98104E-01 1.58075E-01 3.17607E+01-2.99558E-02-1.28451E-01
 -1      2290 6.47207E+01 4.90636E-02-4.63547E-02 3.16300E+01 3.32810E-01-2.48344E-01
 -1      2291 7.29602E+01 3.45438E-02-6.78736E-02 3.11719E+01 8.28350E-02 1.69177E-01
 -1      2292 1.38270E-01 4.35128E-02 2.31012E-01 3.52580E+01 3.27498E-02-2.16865E-01
 -1      2293-4.77081E+01 9.05421E-02 5.07433E-03 3.16500E+01 9.40658E-02 2.49049E-01
 -1      2294-3.87048E+01 1.36611E-02 2.64499E-01 3.21161E+01 1.83809E-01 1.84452E-01
 -1      2295-5.58740E+01 2.22839E-01-8.05424E-02 3.16142E+01-1.05437E-01 3.95209E-01
 -1      2296-4.75025E+01 4.05989E-01 9.51963E-02 3.19844E+01-3.27935E-02 2.57048E-01
 -1      2297-4.75185E-01-1.05302E-01-4.89313E-03 3.52013E+01-1.04731E-01 4.68402E-02
 -1      2298 2.20655E+01-1.93340E-01-8.58638E-02 3.18587E+01 2.53907E-01-8.94857E-02
 -1      2299 2.99795E+01-6.62838E-02 1.50270E-01 3.16427E+01 4.02287E-02 6.90999E-03
 -1      2300 6.67131E-02-2.93247E-01 2.54179E-01 3.54071E+01-6.31917E-04-8.10161E-02
 -1      2301 2.22949E+01 3.36420E-01 2.85872E-01 3.18472E+01-1.68021E-01 1.57561E-01
 -1      2302 1.24832E+01 5.80876E-01-9.03167E-02 3.16127E+01 8.18129E-02-5.13442E-02
 -1      2303 1.18559E+02 6.07598E-01 1.63091E-01 3.15747E+01 4.21796E-02 8.82948E-02
 -1      2304 1.24012E+02-5.55652E-01-2.54196E-01 3.15033E+01-5.60129E-02 2.67938E-02
 -1      2305-9.52045E-01-2.09112E-01-6.98910E-02 3.52906E+01 2.18230E-02-1.05077E-01
 -1      2306 1.26806E+02-7.48684E-01 2.99154E-01 3.19979E+01-4.62350E-02-1.51514E-01
 -1      2307 1.34455E+02-8.42257E-02 3.06399E-01 3.15995E+01 1.91549E-01-4.68470E-01
 -1      2308-9.08846E+01-1.38596E-01-1.99082E-01 3.21910E+01-1.06888E-01 5.36064E-01
 -1      2309-8.17281E+01 2.65670E-01 1.25657E-01 3.16427E+01 8.88767E-02 2.85838E-01
 -1      2310-8.28314E+01-5.02022E-01-2.06054E-01 3.13731E+01 3.67794E-02 7.10106E-02
 -1      2311-7.33795E+01-1.46735E-02 4.56128E-01 3.17880E+01 1.10323E-01 2.24346E-01
 -1      2312 1.97484E-01-7.45765E-02-3.00588E-01 3.52316E+01-1.49183E-03 4.76616E-02
 -1      2313 1.42563E+02-5.91751E-01-1.55317E-01 3.17818E+01-9.05378E-02-3.54296E-01
 -1      2314 1.52515E+02-1.03248E-01 1.28786E-01 3.20385E+01-2.75403E-01-6.56509E-01
 -1      2315 1.35236E+02 1.25767E-01-2.99424E-01 3.20590E+01 5.67745E-02-5.67846E-01
 -1      2316 1.43085E+02 1.44961E-02 1.53172E-01 3.20823E+01 8.21835E-02-2.57195E-01
 -1      2317-1.29236E-01 1.44000E-01-2.05336E-01 3.49970E+01 3.99974E-02 2.07765E-01
 -1      2318-2.57395E+02 2.26875E-02-1.03290E-01 3.16867E+01 4.93146E-02 2.46991E-01
 -1      2319-2.46493E+02 1.06410E-01 2.06742E-01 3.19225E+01 2.45107E-01 3.45681E-01
 -1      2320-2.46533E+02-5.95980E-01-8.18080E-02 3.21152E+01 2.99906E-03 2.11481E-01
 -1      2321-2.38938E+02-2.60356E-02 2.07829E-01 3.15295E+01-4.12438E-01 2.38412E-01
 -1      2322 2.48471E-01 4.65159E-01 4.45593E-02 3.52726E+01 1.12878E-01-3.40527E-02
 -1      2323 2.21169E+02 3.75014E-02-1.50040E-01 3.18521E+01-4.10091E-01-2.23739E-01
 -1      2324 2.29393E+02 3.87334E-01 1.09813E-02 3.23775E+01-7.45366E-02-2.23976E-01
 -1      2325 2.28909E+02-1.89233E-02-2.58963E-01 3.21540E+01 8.79579E-02-1.68446E-01
 -1      2326 2.38276E+02-1.83891E-01 1.99113E-01 3.17245E+01 1.17386E-02-4.31855E-01
 -1      2327 1.18479E-01 5.69098E-02-1.84852E-01 3.51828E+01 9.31184E-02 2.51504E-01
 -1      2328 2.57557E+02-7.75718E-01 1.03273E-01 3.14622E+01-7.90741E-02-1.00578E-01
 -1      2329 2.65952E+02-4.89796E-02 2.33053E-01 3.02575E+01 3.90147E-01-2.21892E-01
 -1      2330 2.74392E+02-1.06185E+00 8.90763E-01 2.60572E+01 1.63439E+00 8.76329E-01
 -1      2331 2.66416E+02 2.05877E-01-2.54804E-01 2.92290E+01 8.28884E-01-3.67516E-01
 -1      2332 8.75264E-01-1.38553E-01 3.58512E-02 3.22616E+01 6.63001E-01 8.98395E-02
 -1      2333-1.95735E+02-3.84821E-01-4.55032E-01 3.17834E+01-1.51915E-01-1.70308E-02
 -1      2334-1.86957E+02-2.74164E-01-1.29354E-01 3.09460E+01 9.87680E-02-1.53497E-01
 -1      2335-2.03558E+02-6.89015E-02-1.88193E-01 3.18376E+01-1.65663E-01 3.16505E-01
 -1      2336-1.94318E+02 2.39117E-01 6.06187E-02 3.17814E+01 1.44450E-01 1.51809E-01
 -1      2337 4.75141E-01 3.19395E-02-1.77631E-01 3.52308E+01-1.04345E-03 1.57704E-01
 -1      2338-1.77180E+02-1.26227E-01-2.77324E-01 3.17643E+01 5.28338E-02 2.93612E-01
 -1      2339-1.67489E+02 5.71256E-02 1.67513E-01 3.17840E+01 2.52126E-01 3.68301E-01
 -1      2340 3.33598E+00-1.04842E-01 2.31677E-01 3.53574E+01 4.52180E-02 1.04412E-01
 -1      2341-1.67612E+02-1.03659E-01 7.02828E-03 3.20347E+01-3.35810E-02 4.35154E-01
 -1      2342-1.60500E+02 5.73371E-02 1.96061E-01 3.17877E+01 6.61768E-02 3.69142E-01
 -1      2343-2.20357E+02 2.60936E-02-1.26550E-01 3.19339E+01 4.42910E-01 2.62357E-01
 -1      2344-2.11816E+02 4.25282E-01 2.66229E-01 3.22447E+01-8.68238E-02 1.74679E-01
 -1      2345-2.12064E+02-2.69451E-02-1.76911E-01 3.18276E+01-1.85993E-02 3.77263E-01
 -1      2346-2.03835E+02 1.14759E-01 5.23587E-02 3.20837E+01 6.37599E-02 4.94371E-01
 -1      2347 4.78865E-01 2.35348E-03-2.33727E-01 3.52351E+01 2.38215E-02-2.11646E-01
 -1      2348-2.64651E+02 3.04913E+00 5.04609E-01 9.33876E+00 5.38853E+00-1.83830E+00
 -1      2349-2.64223E+02 1.49410E+00-6.66766E-01 1.93558E+01 4.23699E+00-2.29982E+00
 -1      2350-2.65987E+02 3.64950E+00 6.38474E+00 9.78600E-01 8.68041E+00-4.54747E+00
 -1      2351 1.86589E+00 1.86710E-01-1.87557E-01 1.08940E+01 9.32701E+00 1.60970E+00
 -1      2352-1.44250E+02-8.08627E+00 8.99281E-02-1.34536E+01 1.50784E+01 5.27605E-01
 -1      2353-3.95865E+02 1.78549E+01 1.09520E+01-1.95048E+01 1.66266E+01-4.36589E+00
 -1      2354-1.08059E+02 1.80297E-01-3.00779E-01 3.15732E+01-1.22920E-02 3.52955E-01
 -1      2355-9.89939E+01 2.02559E-01 2.60682E-01 3.19157E+01 1.94570E-02-3.92751E-02
 -1      2356-1.18936E+02-6.74466E-01 1.44976E-02 3.19519E+01-3.60588E-03 2.21232E-01
 -1      2357-1.08487E+02 1.04912E-01 2.19944E-01 3.15980E+01-2.05755E-01 3.12538E-01
 -1      2358 6.91557E-02 3.88520E-01 4.48973E-02 3.43102E+01 2.23680E-01 9.39290E-02
 -1      2359 3.04618E+01 7.14184E-02-7.40477E-02 3.20091E+01-1.72366E-01-3.57140E-01
 -1      2360 3.86717E+01 2.33542E-01-2.17497E-01 3.22198E+01 2.59633E-02-2.35479E-01
 -1      2361 3.84069E+01 1.26617E-01-4.38944E-01 3.17889E+01 1.84058E-01-4.25223E-01
 -1      2362 4.70549E+01-3.67422E-01-2.93077E-01 3.12024E+01 4.00920E-02 2.73358E-02
 -1      2363 4.87340E-01 2.39230E-01-5.65260E-02 3.51280E+01 1.31524E-01 5.69051E-02
 -1      2364-2.14757E+01-4.32074E-01-9.57162E-03 3.22650E+01 2.83693E-01 2.92493E-01
 -1      2365-1.20801E+01-9.17664E-01-6.00143E-02 3.23642E+01-1.81646E-01 3.24256E-01
 -1      2366 5.20177E-01 3.84406E-01-4.58602E-01 3.60857E+01-1.40881E-02-2.09139E-01
 -1      2367-1.20003E+01-7.71290E-01-1.16054E-01 3.24542E+01-1.17695E-01 3.24533E-01
 -1      2368-1.19015E+01-1.51681E+00-3.48693E-03 3.08535E+01-2.92694E-01-9.25763E-02
 -1      2369-3.31290E+00-5.58289E-01-3.16467E-01 3.52510E+01-3.10290E-01 3.46219E-01
 -1      2370-1.61196E+02 1.13219E-01-1.86368E-01 3.20345E+01-1.20437E-01 2.62733E-01
 -1      2371-1.51350E+02 5.09218E-01 1.80306E-01 3.19198E+01-6.55623E-01 2.67744E-01
 -1      2372-1.50904E+02 2.02620E-03 6.48205E-02 3.11534E+01 8.50209E-02-1.47788E-01
 -1      2373-1.42780E+02-2.43633E-02 1.00277E-01 3.16352E+01 3.04353E-01 2.10253E-01
 -1      2374 1.07567E+00 3.36495E-01-3.62838E-01 3.48749E+01-1.99802E-01-1.69154E-02
 -1      2375-3.03740E+01 1.89920E-01-1.69925E-01 3.18748E+01 1.55668E-02 6.34519E-01
 -1      2376-2.18183E+01 2.67190E-01 4.11200E-02 3.18436E+01-6.49788E-02 3.64648E-01
 -1      2377-3.86894E+01-2.05022E-01-1.11747E-01 3.20167E+01-2.87927E-01 3.61402E-01
 -1      2378-3.06043E+01 2.09182E-02 1.56180E-01 3.15552E+01 5.82824E-02 3.05645E-01
 -1      2379-5.12800E-02-2.26399E-01 5.27081E-01 3.49569E+01-1.48684E-01 1.04784E-01
 -1      2380-1.43273E+02-5.02572E-03-2.27927E-01 3.15685E+01-1.82205E-01 1.88121E-02
 -1      2381-1.34964E+02 6.32107E-02-2.00310E-01 3.13387E+01 1.15579E-01-2.21401E-01
 -1      2382-1.33980E+02-2.79954E-01-4.78799E-01 3.13076E+01 3.97209E-01 2.31286E-01
 -1      2383-1.27858E+02 6.14378E-01 5.16114E-03 3.20909E+01-8.58728E-03 1.80936E-02
 -1      2384-3.67492E-01-3.39703E-01-1.29143E-01 3.41564E+01-2.11925E-01 3.37715E-03
 -1      2385 1.86539E+02 3.82446E-02-1.29634E-01 3.18723E+01-4.47368E-01-2.70269E-01
 -1      2386 1.95039E+02 4.28266E-01 2.59218E-01 3.22377E+01 9.37474E-02-1.96824E-01
 -1      2387 1.80569E+02-4.45858E-01-2.90168E-01 3.15002E+01 2.08821E-01-8.61317E-02
 -1      2388 1.85328E+02-2.84869E-01-1.37458E-01 3.11743E+01-1.20435E-01 2.06299E-01
 -1      2389-1.01516E+00-6.37010E-01 1.40776E-01 3.41933E+01-5.66847E-04 3.51546E-03
 -1      2390 1.53252E+02 1.99903E-02-3.82362E-01 3.15808E+01 2.09196E-01-2.84429E-01
 -1      2391 1.64123E+02 6.16089E-01 3.54998E-01 3.14763E+01 4.40995E-02-3.56955E-02
 -1      2392 1.84454E+00 1.74545E-01 2.65860E-01 3.52240E+01-3.73791E-02-1.07306E-01
 -1      2393 1.63648E+02-2.66752E-01-2.40128E-01 3.16032E+01 1.33814E-01-3.41210E-01
 -1      2394 1.73998E+02 1.42093E-01 1.74895E-01 3.19982E+01-1.21895E-01-4.75441E-01
 -1      2395 1.94868E+02-1.39960E-02-1.68647E-01 3.18317E+01 3.78108E-02-3.59596E-01
 -1      2396 2.03243E+02 1.82497E-01 4.98906E-02 3.21644E+01-2.46610E-01-5.24591E-01
 -1      2397 2.03162E+02-1.74829E-02-2.34142E-01 3.19928E+01 6.70625E-02-2.50857E-01
 -1      2398 2.12250E+02 6.03720E-02-7.68354E-02 3.15684E+01 2.76452E-03-1.84006E-01
 -1      2399-2.45428E-01 1.52366E-01-4.50170E-01 3.52642E+01 2.98383E-02 3.26331E-02
 -1      2400 1.23261E+02 1.23064E+00 3.37292E-01-1.29279E+01 1.36531E+01 1.59006E+00
 -1      2401 2.64175E+02-3.14209E+00-3.57145E+00 9.88484E-01 8.37214E+00 7.17662E+00
 -1      2402 3.84809E+02-1.96724E+01-1.42705E+01-1.75522E+01 1.79692E+01 6.16892E+00
 -1      2403 3.16628E+00 4.06153E-01 5.78431E-01 3.59626E+01-5.81946E-01 2.14852E-01
 -1      2404 1.13075E+01 1.39231E+00-3.87600E-01 3.08792E+01-4.15299E-01 6.17802E-01
 -1      2405 1.20268E+01 1.21561E+00 5.11495E-01 3.29327E+01 2.00312E-01-5.54835E-01
 -1      2406-6.49603E+01-3.02491E-01-1.04905E-01 3.22250E+01 9.57186E-02 2.57769E-01
 -1      2407-5.63749E+01-7.71197E-02 9.51203E-02 3.19154E+01-2.71354E-01 2.84297E-01
 -1      2408-7.35497E+01 1.21725E-01-1.18028E-01 3.21499E+01-4.56734E-01 7.08111E-01
 -1      2409-6.45444E+01 6.04847E-01 2.15515E-01 3.18020E+01-1.17100E-01 3.47700E-01
 -1      2410 7.40516E+01-4.59823E-01-1.80669E-01 3.19177E+01-6.53885E-01-2.72840E-01
 -1      2411 8.24649E+01-1.92173E-02 2.63283E-01 3.21131E+01-1.51985E-01-3.27202E-01
 -1      2412 8.18389E+01-1.09393E-01-2.45389E-01 3.17728E+01-4.64164E-02-2.83725E-01
 -1      2413 9.09053E+01 2.24442E-02 1.69077E-01 3.18278E+01-2.31223E-01-3.87135E-01
 -1      2414-2.29609E+02-3.73907E-01-2.25351E-01 3.17156E+01-3.39857E-01 1.02882E-01
 -1      2415-2.21537E+02-2.82653E-01-1.72079E-01 3.11544E+01 1.30011E-01-2.26200E-01
 -1      2416-2.37182E+02 2.16661E-01 3.10096E-01 3.11014E+01-3.38514E-02-1.96222E-01
 -1      2417-2.28997E+02-1.96231E-01 1.72935E-01 3.18887E+01 7.86643E-02-1.17188E-01
 -1      2418 2.38218E+02 2.31027E-01-1.87062E-01 3.16935E+01-4.64889E-02-2.79096E-01
 -1      2419 2.46246E+02 7.12250E-01-2.98294E-01 3.22208E+01-1.73734E-02-3.14030E-01
 -1      2420 2.46138E+02 1.53241E-01-3.84311E-01 3.17683E+01 2.17840E-01-4.13324E-01
 -1      2421 2.56419E+02-3.89639E-01-3.46956E-01 3.10091E+01 8.53810E-02 9.17776E-02
 -1      2422-2.69419E+02 7.91559E-01-8.97170E-01 2.56549E+01 1.45018E+00-1.00816E+00
 -1      2423-2.64823E+02 3.09823E-02 3.69261E-01 2.90674E+01 8.08738E-01 1.26727E-01
 -1      2424-2.66247E+02 3.65161E-02-1.44392E-01 3.01763E+01 5.96663E-01 1.32466E-01
 -1      2425-2.56825E+02 4.90236E-01-7.79570E-03 3.15383E+01 1.98599E-01 3.03154E-01
 -1      2426 3.90822E+00-4.48278E-01-3.35485E-01 2.64811E+01 4.64271E+00 2.11540E-01
 -1      2427 2.74617E+02-2.09377E+00 5.68730E-01 1.96854E+01 4.15038E+00 1.86392E+00
 -1      2428 2.71429E+02-3.56170E+00-4.25213E-02 9.93869E+00 5.15703E+00 2.53441E+00
 -1      2429 1.08330E+02 1.58718E-01-2.79472E-01 3.16711E+01-6.86071E-02-3.55668E-01
 -1      2430 1.17393E+02 8.74647E-01-1.72118E-01 3.20535E+01 1.59513E-01-1.29491E-01
 -1      2431-4.78717E-03 1.44832E-01 5.01445E-02 3.52943E+01 4.65159E-02 2.01531E-02
 -1      2432-1.19076E+02-3.35071E-02 1.07919E-01 3.16670E+01-6.30471E-02 3.05896E-01
 -1      2433-1.28927E+02 8.53517E-03-2.61561E-01 3.19822E+01-2.88324E-01 1.37589E-01
 -1      2434 4.78634E+01-5.47144E-01 1.25450E-01 3.20073E+01-2.81085E-01-8.65133E-02
 -1      2435 5.62786E+01-1.18282E-01 2.14142E-01 3.20021E+01 1.10359E-01-4.44117E-01
 -1      2436 4.09872E-01 3.36698E-01-2.69727E-01 3.44358E+01 2.32216E-03-1.07000E-01
 -1      2437-9.96508E+01-2.06722E-01 8.01208E-03 3.17336E+01-1.95200E-01 3.44310E-01
 -1      2438-9.09021E+01 1.53584E-01 1.36573E-01 3.21095E+01 1.19655E-01 4.60740E-01
 -1      2439-2.94630E-03-1.24829E-01 1.85669E-01 3.53395E+01-2.35446E-02-1.14529E-01
 -1      2440-1.85561E+02-2.18297E-02-1.75581E-01 3.18245E+01 4.68034E-01 2.48165E-01
 -1      2441-1.78252E+02 5.08833E-01 3.33643E-01 3.22168E+01-7.55680E-02 2.48848E-01
 -1      2442 2.56579E+00 1.03430E-01-1.89961E-01 3.52638E+01-2.74649E-02-1.19057E-01
 -1      2443 1.74594E+02-1.30856E-01-9.90367E-02 3.20374E+01 9.59015E-02-5.08960E-01
 -1      2444 1.83136E+02 8.86222E-02-6.18640E-02 3.16140E+01-3.21127E-02-2.58155E-01
 -1      2445 2.11339E+02-5.35206E-01-3.87042E-01 3.15624E+01 2.70408E-01-7.01235E-02
 -1      2446 2.19875E+02-2.66956E-01-1.93728E-01 3.12119E+01-8.82089E-02 2.34880E-01
 -1      2447-1.05764E+00-5.58156E-01 1.29294E-01 3.42007E+01 1.76160E-02-1.59830E-02
 -1      2448 4.24976E-01 8.34860E-02 4.46575E-02 3.41648E+01 2.37077E-01-2.29662E-02
 -1      2449-2.26382E-01-2.50056E-01-3.29779E-02 3.48532E+01 6.68737E-02-4.91258E-02
 -1      2450-4.83475E-01-3.74936E-01 3.59201E-01 3.48607E+01-1.89787E-01-9.07238E-03
 -1      2451-4.35201E+01-3.13049E-02 2.26727E-01 6.35047E+01 8.78405E-01-1.43605E-01
 -1      2452-2.11773E+00-1.83574E-01-8.69407E-02 3.16714E+01 1.89646E-01 1.12327E-01
 -1      2453 1.20844E-01-2.79511E-01 1.38592E-01 2.97481E+01-1.24370E-01 8.19587E-02
 -1      2454 2.13468E-01 8.98222E-02-1.02094E-01 3.20273E+01-2.11368E-01-1.17912E-02
 -1      2455 5.96949E-02 1.05331E-02 8.86891E-03 2.99770E+01 1.50257E-03-8.40846E-03
 -1      2456 7.43166E-03 4.20076E-02-2.09348E-02 2.96956E+01 1.30069E-02-1.07780E-01
 -1      2457 2.14338E-02 1.50550E-02 1.66994E-02 2.98520E+01 1.06395E-02-2.18560E-01
 -1      2458-5.29261E-01-1.13052E-01-1.12895E-01 2.81036E+01-5.81253E-02-2.34031E-01
 -1      2459-5.64517E-01-3.12452E-01 1.02654E-01 2.97010E+01-5.19702E-02 1.06076E-01
 -1      2460-6.23959E-03-2.96237E-02-1.18824E-01 2.98692E+01-5.37322E-02 2.36548E-01
 -1      2461 4.52526E-02-1.30573E-02-8.98794E-03 2.99627E+01 2.49818E-03 3.15674E-03
 -1      2462-4.19907E-01-2.20329E-01 7.43115E-02 3.00127E+01 3.61427E-02 2.21540E-01
 -1      2463-1.03633E-01-4.90321E-03-1.78117E-02 2.98852E+01 2.55721E-02 1.87053E-01
 -1      2464 2.69261E-01-1.56513E-03 3.12087E-04 2.82476E+01 4.66397E-03 9.27650E-03
 -1      2465 6.94835E-02 2.28009E-01 4.51112E-02 2.99245E+01-4.83978E-02 1.90930E-01
 -1      2466 5.49549E+01 1.98649E-01 1.66569E-02 2.87374E+01 6.82087E-02 1.12727E-01
 -1      2467 1.94312E+01-3.07449E-01 1.23113E-01 2.88614E+01-5.06833E-02 9.55026E-04
 -1      2468 1.11900E+02-3.07792E-01 7.66263E-02 2.89763E+01 1.50968E-03 1.31950E-01
 -1      2469 1.03188E+01 1.33415E+00-2.69730E-01 2.69939E+01 3.98801E-01-5.15762E-01
 -1      2470 4.83065E+02 2.05152E+00 2.58945E+01 5.39078E+01-1.30421E+01 7.68123E+00
 -1      2471 1.18156E+01 1.77454E+00-1.29354E-01 2.64198E+01-3.65936E-01 5.22660E-01
 -1      2472-4.83068E+02-2.85533E+00-2.69553E+01 5.48493E+01-1.54193E+01-9.10750E+00
 -1      2473-2.57795E+02 5.32815E-02 4.17297E-03 2.73988E+01-1.29334E-01 5.40487E-01
 -1      2474 2.80601E+02 3.22073E-02-4.55240E-02 2.75731E+01 5.30889E-03-8.23149E-01
 -1      2475-7.96157E+01 1.51413E-01-1.31916E-02 2.73426E+01 2.59093E-02 6.46672E-01
 -1      2476 7.97257E+01 7.06770E-02 9.33028E-02 2.73542E+01-3.23523E-02 5.01228E-01
 -1      2477-1.20998E+02 8.18924E-02-9.96734E-02 2.72777E+01 1.08167E-01-2.45054E-01
 -1      2478-1.01095E+02 1.10958E-01 1.20255E-01 2.73316E+01-6.32934E-02-2.41360E-01
 -1      2479 1.00733E+02-6.00365E-02-6.54240E-02 2.73450E+01-9.64475E-03-2.56203E-01
 -1      2480 1.22037E+02 1.15490E-01 7.09198E-02 2.74703E+01-8.55568E-04-5.23272E-01
 -1      2481-2.80588E+02 5.81932E-02 1.01728E-01 2.71295E+01-7.36301E-02-6.81254E-01
 -1      2482 1.74900E+02-1.05790E-01-1.66270E-02 2.73274E+01 2.24072E-02-6.83453E-01
 -1      2483-1.95316E+02 1.84827E-01 3.05478E-02 2.74124E+01-1.63336E-02 2.75094E-01
 -1      2484 2.18036E+02 2.40743E-01 8.94115E-02 2.72731E+01 1.45516E-01 5.09170E-01
 -1      2485-1.74922E+02 8.03896E-02-4.66106E-02 2.73387E+01-6.67147E-03-6.47108E-01
 -1      2486-2.38600E+02-6.11079E-02 1.31660E-02 2.73162E+01-1.30287E-01-5.64294E-01
 -1      2487 2.59188E+02-2.68923E-02 6.83527E-02 2.73999E+01 1.44896E-01 4.91853E-01
 -1      2488 1.96343E+02-1.17408E-01-6.47417E-02 2.74029E+01-4.09819E-02 3.89616E-01
 -1      2489 2.38193E+02 5.56943E-03-8.70749E-02 2.73805E+01 1.56185E-01-5.19542E-01
 -1      2490-2.17161E+02-3.38234E-01-1.84217E-02 2.70899E+01-6.61106E-02 3.83317E-01
 -1      2491 4.82791E+02 6.49338E+00 2.86235E+01 5.26043E+01 1.38996E+01-8.88558E+00
 -1      2492-1.05746E+01-1.27040E+00 3.44817E-01 2.63822E+01 4.84739E-01 5.83207E-01
 -1      2493-5.06835E+01 1.46517E-01 6.42764E-02 2.68352E+01 2.50836E-01 3.02859E-01
 -1      2494-3.22795E+02-2.94052E-02 7.45013E-02 2.68510E+01 1.54907E-02 4.06646E-01
 -1      2495 3.44414E+02-9.75817E-02-4.00645E-01 3.19324E+01-3.78941E+00-3.04999E+00
 -1      2496 2.75335E+01 1.92447E-01-4.56970E-02 2.70776E+01-2.95621E-04-6.15250E-01
 -1      2497-5.01400E+02-8.67371E+00-3.37098E+01 5.45359E+01 1.63747E+01 1.04584E+01
 -1      2498-6.37638E+01-2.22940E-01 1.27242E-02 2.68659E+01-3.18954E-02 6.39053E-01
 -1      2499-3.37363E+02-1.94275E-01 2.50307E-01 2.72292E+01-4.06895E-01 7.50789E-01
 -1      2500-1.13142E+01-1.41701E+00 2.09502E-01 2.57657E+01-5.15628E-01-6.71425E-01
 -1      2501-1.64203E+02-2.78746E-02-4.28687E-02 2.70299E+01-1.12182E-01 4.05986E-01
 -1      2502-1.58481E+02 2.26701E-02-6.47453E-02 2.64433E+01 1.52414E-02 3.47342E-01
 -1      2503-3.62849E+02 9.75942E-02 8.14442E-01 3.11068E+01 3.71391E+00-3.17295E+00
 -1      2504-3.50438E+01-1.83005E-01 3.37317E-03 2.48972E+01-4.87502E-02 3.97047E-01
 -1      2505 1.73035E+01 2.33896E-02-2.82606E-02 3.00615E+01 8.15254E-02 3.84395E-01
 -1      2506 1.65485E+02-2.43782E-01 3.85616E-02 2.63077E+01 4.21118E-02-5.24145E-01
 -1      2507 1.83211E+02 3.53264E-01 2.11807E-02 2.59892E+01-6.59671E-02-5.72769E-01
 -1      2508 5.29040E+01-2.24900E-01 4.73124E-02 2.58989E+01 6.67913E-02-5.70036E-01
 -1      2509-5.28114E+01-1.78499E-01-7.71262E-02 2.64041E+01-2.63332E-02-4.93705E-01
 -1      2510-7.10956E+01 1.20467E-01-7.02750E-02 2.65360E+01 9.07712E-02-4.78379E-01
 -1      2511 7.02461E+01-6.56655E-02-3.20692E-02 2.65103E+01 6.40424E-03-3.96044E-01
 -1      2512 3.52527E+02-2.20826E-01-1.10484E-01 2.63430E+01-3.36441E-02-6.62651E-01
 -1      2513 3.70265E+02 3.39859E-01-3.46061E-01 2.61937E+01-3.34127E-01-9.67476E-01
 -1      2514-2.60725E+02-3.29120E-01-4.87485E-02 2.59333E+01 1.31606E-01-6.94297E-01
 -1      2515 1.47126E+02 5.50963E-02 1.19356E-01 2.64025E+01 1.03529E-02 4.85154E-01
 -1      2516-9.18891E+01 8.56396E-02 1.73694E-01 2.61176E+01-5.38175E-02-3.92626E-01
 -1      2517 9.19044E+01-4.93061E-02-1.33198E-01 2.60624E+01 4.28066E-02-3.54701E-01
 -1      2518 1.16514E+02-1.73298E-01-7.41115E-02 2.62147E+01 5.11084E-02 5.49165E-01
 -1      2519-1.16578E+02 1.88505E-01 3.72243E-02 2.61409E+01-8.36366E-02 5.71661E-01
 -1      2520-1.41955E+02-5.51176E-02 1.53337E-01 2.63533E+01-1.65760E-01 3.53296E-01
 -1      2521 3.29554E+02-2.06402E-01 2.36958E-02 2.59329E+01-8.51826E-02 6.83719E-01
 -1      2522-2.04769E+02 7.14858E-02 9.90295E-02 2.61358E+01 8.41795E-02 4.33225E-01
 -1      2523-3.10173E+02-2.58959E-01-4.39062E-02 2.59538E+01 1.10813E-01-6.19251E-01
 -1      2524 2.79939E+02-2.89560E-01-3.57515E-02 2.59498E+01-1.12523E-01 6.10099E-01
 -1      2525-3.30459E+02 3.16146E-01 5.71186E-02 2.58717E+01 6.01314E-02 6.79127E-01
 -1      2526 2.04802E+02-1.24692E-02-1.27172E-01 2.63944E+01 9.17915E-03 5.22131E-01
 -1      2527 2.60347E+02 2.80041E-01 6.26592E-02 2.59656E+01-1.26592E-01-6.44189E-01
 -1      2528 3.10850E+02 2.59972E-01 3.59735E-02 2.59419E+01-1.14187E-01-6.16834E-01
 -1      2529-2.80248E+02 2.73531E-01 4.18446E-02 2.59216E+01 9.96074E-02 6.17240E-01
 -1      2530 2.30320E+02-1.88408E-01-1.01966E-01 2.60309E+01-1.10713E-01-5.95925E-01
 -1      2531-2.30279E+02 2.30849E-01 9.88060E-02 2.60503E+01 8.69343E-02-6.25943E-01
 -1      2532-1.85110E+02-2.37803E-01 5.16901E-02 2.58515E+01 1.38622E-01-7.13400E-01
 -1      2533-3.51391E+02 1.13920E-01-3.68536E-02 2.60760E+01 4.44075E-02-6.36615E-01
 -1      2534-3.69284E+02-8.23227E-03 2.37870E-01 2.65502E+01 4.63298E-01-8.16467E-01
 -1      2535 3.87815E+02 7.56767E-02-1.36160E+00 2.93223E+01 3.30477E+00 3.64882E+00
 -1      2536-3.97102E+02 1.53571E-01 9.59693E-01 2.86871E+01-3.07980E+00 3.30880E+00
 -1      2537 1.80822E+02 1.44980E-01 9.92594E-02 2.52991E+01-5.50790E-02 5.82001E-01
 -1      2538 2.37044E+02-2.57434E-01-6.50927E-03 2.40590E+01 9.06788E-02 5.21327E-01
 -1      2539 5.55409E+01 3.50798E-01 6.16240E-03 2.56176E+01-8.89723E-02 5.66327E-01
 -1      2540 8.13627E+01-3.10596E-02-9.45224E-02 2.53325E+01 2.06105E-02 5.63757E-01
 -1      2541-1.71253E+02 4.21058E-02 1.97807E-02 2.60324E+01 4.84889E-02-3.75505E-01
 -1      2542 4.09947E+02-1.44241E-01-3.18315E-01 2.56573E+01 5.45524E-01 1.14366E+00
 -1      2543 3.84742E+02 3.22403E-01 5.36287E-03 2.55404E+01-1.20060E-01 6.06621E-01
 -1      2544-4.49688E+01-1.35844E-02 1.56538E-01 2.49882E+01 1.80961E-01-3.97058E-01
 -1      2545-3.40528E+02-2.65376E-01-1.56158E-02 2.51603E+01 4.69270E-02 5.35664E-01
 -1      2546-1.21213E+02-2.06245E-01 1.63137E-02 2.46330E+01 3.36965E-02-6.61176E-01
 -1      2547 1.57530E+02-7.75910E-02 4.03522E-02 2.53920E+01 7.50802E-02 4.50253E-01
 -1      2548 1.21225E+02 2.02127E-01-1.08438E-02 2.46166E+01-3.63383E-02-6.55150E-01
 -1      2549-1.80900E+02 8.46607E-02-4.76546E-02 2.47357E+01-7.12438E-02 4.33720E-01
 -1      2550-4.00374E+02-1.12690E-01-3.82908E-03 2.46812E+01-1.16094E-01 6.43350E-01
 -1      2551 3.49311E+02-2.34291E-01 4.24005E-02 2.52011E+01-1.08004E-01-4.84255E-01
 -1      2552-3.49144E+02 2.22544E-01-4.83540E-02 2.51976E+01 8.99152E-02-4.69231E-01
 -1      2553 3.41424E+02 2.66255E-01 1.40629E-02 2.51332E+01-6.49716E-02 5.43118E-01
 -1      2554-2.83953E+02-4.46949E-02 1.61952E-02 2.50954E+01-3.66687E-02-6.18996E-01
 -1      2555 2.83334E+02 2.55303E-02-2.04184E-02 2.49298E+01 8.73049E-02-3.90717E-01
 -1      2556 2.53447E+02 1.66232E-01-3.65460E-02 2.47025E+01-1.56214E-03 6.14697E-01
 -1      2557-2.53415E+02-2.23168E-01 2.52570E-02 2.45712E+01-2.68086E-02 6.97868E-01
 -1      2558-2.42777E+01-4.58670E-01 5.71587E-02 2.71378E+01-1.28439E-01-3.92180E-01
 -1      2559-1.53529E+02-1.46049E-01-4.02481E-02 2.51342E+01-1.38040E-02 4.70373E-01
 -1      2560 1.53820E+02-6.29063E-03-2.08284E-02 2.54779E+01 7.50612E-02-4.89152E-01
 -1      2561-1.54982E+02-3.62215E-02 2.78555E-02 2.50422E+01 5.25015E-03-5.29157E-01
 -1      2562 2.87602E+02 2.70869E-02 4.82704E-03 2.51857E+01 1.80287E-03 5.58543E-01
 -1      2563-1.72672E+02 1.11070E-01 2.48544E-01 2.85841E+01 3.03981E-04 5.42818E-01
 -1      2564-3.44346E+02 6.12293E-02-6.24011E-02 1.95578E+01-5.97636E-02 7.07502E-01
 -1      2565-5.17990E+02-2.37043E-01-2.83960E-01 1.42453E+01 7.42424E-02 8.63811E-01
 -1      2566-2.82155E+02 2.27841E-01-2.85444E-01 2.56959E+01 1.43344E-01 5.26873E-01
 -1      2567-4.57288E+02-6.53583E-01-4.05883E-01 1.51463E+01 2.34024E-01 5.54525E-01
 -1      2568-1.06665E+02 6.74887E-01 7.77714E-01 2.85938E+01-2.53328E-01-2.74491E-01
 -1      2569-4.36797E+02 6.93134E-01 8.08195E-01 1.55101E+01-3.09454E-01 4.21503E-01
 -1      2570-2.69110E+02 1.24103E-01 2.56532E-01 2.62552E+01-2.81409E-02 5.25953E-01
 -1      2571-9.96894E+01-4.65707E-01-5.46178E-01 2.89292E+01 4.84662E-02 7.40273E-02
 -1      2572 2.71677E+01-3.07237E-01-8.61093E-01 1.36724E+01-4.48142E-02-3.52884E-01
 -1      2573 3.85227E+01 5.23183E-01-1.31273E-01 1.46128E+01 2.71495E-01 2.60129E-01
 -1      2574 2.78141E+01-6.29375E-02-7.39527E-01 1.30332E+01 1.27723E-01 3.45880E-01
 -1      2575 3.89571E+01 5.78330E-01-2.94409E-01 1.42395E+01-3.43020E-01-2.13092E-01
 -1      2576 9.06969E+00 1.81757E+00-7.77588E-01 2.57189E+01 2.23554E-02-1.57129E-02
 -1      2577 8.31230E+00 9.95556E-01 3.20851E-01 3.05032E+01 3.54572E-01-1.27847E-01
 -1      2578 7.32821E+00 1.47046E-01 4.10422E-01 3.16759E+01 4.69472E-01-1.31931E-01
 -1      2579-7.29438E+00-2.51034E-01-9.69316E-02 3.13967E+01 4.37610E-01 2.92299E-01
 -1      2580-3.87577E-02 9.88302E-02-8.57060E-02 2.95944E+01 8.80465E-01-1.86181E-01
 -1      2581-7.85626E+00-8.70896E-01-3.65613E-01 3.03901E+01 4.21386E-01 1.61412E-01
 -1      2582 2.32033E+02 7.12026E+00 1.06642E+01 2.55258E+01-1.20096E+01 1.74972E+00
 -1      2583 2.11890E+02 3.30020E+00 1.07333E+01 5.88664E+01-1.07839E+01 7.01884E-01
 -1      2584-2.07951E+01 1.11826E+00-7.97361E-02 3.58565E+01-1.12652E+01-7.72728E-01
 -1      2585-2.31889E+02-8.99094E+00-1.24143E+01 2.65502E+01-1.39708E+01-4.95382E+00
 -1      2586-2.60846E+02-4.25960E+00-1.26985E+01 5.61408E+01-1.05014E+01-8.31618E-01
 -1      2587 3.29088E+00 6.78027E-01-2.21742E+00 5.34436E+01-1.38722E+01 3.42473E+00
 -1      2588 5.71084E+02 7.57678E-01 3.29769E+01 3.25992E+01 6.87470E-01-5.32040E-01
 -1      2589 8.29549E+02 3.71771E-01 5.81826E+01 2.29849E+01-6.04643E+00 5.67699E+00
 -1      2590 8.32079E+02 3.26804E+00 5.57938E+01 2.57219E+01 6.26145E+00-7.69997E+00
 -1      2591 4.88533E+02 1.00909E+00 4.34958E+01 5.69135E+01 3.74866E-01 1.44202E+00
 -1      2592 2.11118E+02 8.56333E-01 9.76958E+00 5.73307E+01 1.22932E+01-7.04454E-01
 -1      2593-1.69529E+02 4.29955E-01 4.64992E-01 1.40903E+01-9.80728E-02 1.14855E+00
 -1      2594-1.58145E+02-1.03687E+00-7.66637E-01 1.50555E+01 8.23106E-02 6.90742E-02
 -1      2595-9.69181E+01 5.64790E-01 3.59748E-02 2.64038E+01 2.67047E-01 6.42695E-01
 -1      2596-8.83934E+01-1.38702E+00-4.73012E-01 2.63040E+01-2.79383E-01 4.77982E-01
 -1      2597-7.20792E+01 2.37345E-01 3.08033E-01 2.70326E+01 2.56652E-01 9.63467E-01
 -1      2598-1.43804E+02 3.43481E-01 4.80397E-01 1.51374E+01 8.64712E-02 3.22003E-01
 -1      2599-3.80851E+01 9.49707E-01 5.39133E-01 2.88857E+01 6.38568E-02 7.45347E-01
 -1      2600-1.14473E+02 6.27273E-02 5.01311E-02 1.86432E+01 8.63477E-02 5.00913E-01
 -1      2601-3.38716E+01-9.40103E-01-5.42401E-01 2.89226E+01 7.13193E-02 8.84868E-01
 -1      2602-5.62192E+01-1.60220E-01-2.72710E-01 2.70652E+01-5.25715E-02-1.41994E-01
 -1      2603 5.57177E+02-1.07350E+00 7.35312E+00 3.20500E+01 3.67064E-01-2.34480E-01
 -1      2604 8.10677E+02-1.56542E+00 2.72691E+01 2.13824E+01 4.46319E+00-3.86727E+00
 -1      2605-1.74849E+01 3.79482E-01 4.33987E-02 3.65456E+01-9.76032E+00 1.24491E-01
 -1      2606-2.23690E+02 4.41974E+00-7.34151E+00 2.97448E+01-1.10883E+01-1.32477E+00
 -1      2607-8.99912E+01-9.83116E-01-4.26491E-01 1.47564E+01 3.14054E-01 3.48347E-01
 -1      2608-5.60951E+01 5.68626E-01 5.42558E-02 2.63791E+01 3.51918E-01 5.84952E-01
 -1      2609-9.06100E+01 1.94083E-01 2.72188E-01 1.38033E+01-1.98062E-01 1.08151E+00
 -1      2610-7.66569E+01 2.82269E-01 1.61117E-02 1.35930E+01-7.40487E-02 9.40718E-01
 -1      2611-4.77449E+01-9.09373E-01-2.51519E-01 2.54112E+01-3.97941E-01 5.20370E-01
 -1      2612-4.29646E+01 4.37672E-01 1.72694E-01 2.58697E+01 1.89008E-01 1.88544E-01
 -1      2613-2.43925E+01 5.91955E-01 3.66655E-01 2.80760E+01 2.73999E-02 1.17308E+00
 -1      2614-3.01676E+01-2.09289E-02-1.18180E-01 2.69171E+01-2.67700E-02 7.18081E-02
 -1      2615-1.96949E+01-1.07914E+00-9.69065E-01 2.70416E+01-8.74016E-02 6.24696E-01
 -1      2616 6.39619E+02-1.05868E+00-1.29544E-01 1.40481E+01-2.53611E-01 7.63613E-02
 -1      2617 1.67497E+02 9.97453E-01 3.27984E-01 2.78687E+01 2.61867E-02 8.90171E-01
 -1      2618 4.78580E+02-1.59081E-01 2.36853E-03 1.82043E+01-7.08361E-02 2.08232E-01
 -1      2619 6.72615E+02 4.87763E-01-2.63736E-01 1.40091E+01 4.08498E-01-6.35775E-01
 -1      2620 1.91400E+02-9.09853E-01 1.91336E-01 2.80850E+01-1.38930E-01 8.80521E-01
 -1      2621 3.57030E+02-1.26230E-01-2.09948E-01 2.55598E+01 2.46960E-03 3.64797E-01
 -1      2622 1.65189E+02 8.25635E-01 1.21174E-01 2.98067E+01 1.37699E-01 3.46094E-01
 -1      2623 6.79146E-01 2.43504E-01 4.34784E-01 3.01985E+01-3.37794E-01 6.77764E-02
 -1      2624 1.91284E+02-8.84555E-01-2.57984E-01 2.96266E+01-1.13275E-01 2.36723E-01
 -1      2625 6.46011E+02-6.75701E-01 2.72546E-02 1.39935E+01 1.54215E-01 1.17552E+00
 -1      2626 6.78624E+02 9.91665E-01 9.77918E-02 1.36352E+01-9.99671E-02 1.04153E+00
 -1      2627 4.01877E+02-3.40103E-01-2.77057E-01 2.60198E+01 4.12134E-01 5.06239E-01
 -1      2628 4.31177E+02 3.83306E-01 1.15632E-01 2.60362E+01-2.29971E-01 6.99802E-01
 -1      2629 8.11350E+02-1.39876E+00 2.79168E+01 2.16513E+01-4.74379E+00 3.30793E+00
 -1      2630 2.30416E+02-5.25416E+00 5.34467E+00 2.93588E+01-1.03486E+01 1.09039E+00
 -1      2631-1.08318E+02 1.32433E-01 6.19548E-02 1.85519E+01 3.35523E-01-2.20826E-01
 -1      2632-1.20756E+02 1.20495E-03 1.15214E-01 1.84645E+01 2.94883E-01-2.22262E-01
 -1      2633-2.60751E-01 1.10432E-01-1.29724E-01 3.01285E+01 3.67090E-02-1.65259E-01
 -1      2634 7.38614E-01 2.04714E-01 5.79683E-02 3.00843E+01-6.78993E-02-2.17057E-01
 -1      2635-5.08863E-01 6.92388E-02 3.54085E-02 3.03930E+01 2.71726E-01 8.97820E-02
 -1      2636-1.80516E+01-2.76411E-01 2.27964E-01 2.93709E+01 1.53619E-01 3.52985E-01
 -1      2637 1.04095E+00 8.80775E-02 2.63958E-01 3.02365E+01 3.45549E-02 6.37450E-02
 -1      2638-2.25733E+02 6.56849E-01 3.92623E-01 2.71262E+01 4.46892E-02-4.65674E-02
 -1      2639-7.62038E-01 1.35093E-01 3.25867E-01 3.03623E+01 6.11033E-02-1.07870E-01
 -1      2640-3.53542E+02-8.06123E-01 9.23248E-02 2.62005E+01-5.53193E-02 4.74357E-01
 -1      2641-1.30063E+02-4.49719E-01-1.61442E-01 3.04928E+01-1.21854E-01 1.17757E-01
 -1      2642-1.31468E+02-5.00051E-01-3.88171E-01 2.89552E+01-3.00705E-01 8.28716E-01
 -1      2643-1.62652E+02-2.60468E-02-7.54894E-02 2.95972E+01-5.97956E-02 3.65000E-01
 -1      2644-3.90512E+02 3.77403E-01-1.41276E-01 2.58309E+01 2.16604E-01 5.55794E-01
 -1      2645-1.63632E+02 9.62974E-01 6.37967E-01 2.78212E+01 3.03252E-02 9.87003E-01
 -1      2646-1.50561E+00-2.36135E-01-2.52378E-01 3.09803E+01 2.13717E-01 5.84842E-02
 -1      2647 2.40378E+02-7.47688E-01-3.88779E-01 2.74551E+01 2.14579E-01-4.26182E-02
 -1      2648 1.39475E+02 3.93383E-01 3.45787E-02 3.05247E+01-6.50462E-02-7.24243E-02
 -1      2649 3.79292E+02 6.67810E-01-1.81336E-01 2.61348E+01-1.96723E-01-5.96273E-01
 -1      2650 1.41974E+02 8.70811E-01 3.54465E-01 2.88375E+01 1.95734E-01-9.09031E-01
 -1      2651 2.21913E+02 7.90649E-01 5.99252E-01 2.73040E+01-1.04673E-01-5.37658E-03
 -1      2652-1.19587E+00 2.41568E-01 3.65367E-01 3.03362E+01-1.26672E-01 8.40974E-02
 -1      2653 3.63682E+02-1.80455E-01 2.76947E-01 2.62136E+01 1.24668E-01-5.97521E-01
 -1      2654 1.38705E+02-6.12695E-01-1.41067E-01 3.04103E+01 7.05011E-02-2.19233E-01
 -1      2655 1.38160E+02-7.03944E-01-5.36085E-01 2.89591E+01 2.99930E-01-8.96814E-01
 -1      2656-2.56335E+00-1.04086E-03-2.96078E-02 3.08392E+01 1.70263E-01-2.71626E-01
 -1      2657-1.43094E+00 2.77405E-02 1.80372E-01 3.06919E+01-1.95141E-01-1.93766E-01
 -1      2658-2.93217E+02 5.07325E-01 3.15567E-01 2.64115E+01 2.57584E-01 9.30128E-01
 -1      2659-1.10824E+02-6.23326E-01-4.20534E-01 2.88659E+01-3.42567E-01 7.49895E-01
 -1      2660-2.97238E+02-2.39344E-01 2.08644E-01 2.60947E+01-9.73295E-02 5.13643E-01
 -1      2661-1.90046E+02 7.53944E-01 5.90834E-01 2.72184E+01 9.77453E-02-2.11888E-02
 -1      2662-1.38567E+02 8.21196E-01 6.12911E-01 2.78483E+01 3.01105E-02 9.69047E-01
 -1      2663-3.29918E+02 4.21194E-01 1.80513E-03 2.57811E+01 2.33258E-01 4.09203E-01
 -1      2664-2.47790E+02 2.13834E-01-3.36828E-02 2.61683E+01 8.89330E-02 8.01654E-01
 -1      2665 1.57431E+02-1.00856E-01-9.61485E-02 2.96395E+01 6.73322E-02-2.96546E-01
 -1      2666 3.77604E+02 4.18456E-01-3.87972E-04 2.58991E+01-2.41370E-01-4.05868E-01
 -1      2667 1.57007E+02 8.03706E-01 6.08901E-01 2.78673E+01-3.73789E-02-9.82934E-01
 -1      2668-1.32392E+00 1.87138E-01 3.77996E-01 3.03554E+01 1.12139E-01-7.77495E-02
 -1      2669-1.38299E+02-1.35604E-01-9.48035E-02 2.96210E+01-7.47795E-02 3.09074E-01
 -1      2670 1.34181E+02 6.74704E-01 4.98723E-01 2.73838E+01-2.07336E-01 3.78562E-02
 -1      2671-8.12050E-02 3.68803E-02 1.91114E-01 3.03077E+01-2.80603E-01 1.00006E-01
 -1      2672 2.23181E+02-1.44917E-01 3.15683E-01 2.62369E+01 1.42574E-01-5.38436E-01
 -1      2673 8.67126E+01-6.96302E-01-2.00539E-01 3.03924E+01 4.58894E-02-2.05781E-01
 -1      2674 8.52211E+01-9.23521E-01-6.75171E-01 2.88227E+01 4.36447E-02-7.29910E-01
 -1      2675 4.84762E+02 4.25701E-01 3.46767E-01 1.87108E+01-2.54510E-01-7.26910E-01
 -1      2676 6.21731E+02-3.21557E-01-7.28211E-03 1.52164E+01-1.84074E-01-3.37478E-01
 -1      2677 6.14820E+02-7.99527E-01-1.70171E-01 1.47648E+01 1.61034E-02-4.06297E-01
 -1      2678-1.10191E+02-5.93781E-01-1.55973E-01 3.03664E+01-9.24802E-02 1.75732E-01
 -1      2679 2.96776E+02 2.12061E-01-5.34944E-02 2.61848E+01-6.97443E-02-8.55826E-01
 -1      2680-4.55690E+02-1.97410E-01 1.33422E-01 1.80869E+01-7.22760E-01-1.92944E-01
 -1      2681-4.50223E+02 4.30429E-01 2.52514E-01 1.86594E+01-4.79833E-01-7.75893E-01
 -1      2682-6.00826E+02-9.88763E-01-6.38794E-01 1.48733E+01 9.00099E-02-4.44332E-01
 -1      2683-5.94103E+02-4.42777E-01-2.00335E-02 1.52711E+01-2.40447E-01-2.43228E-01
 -1      2684-1.38352E+02 7.22494E-01 4.66442E-01 2.88983E+01-3.12867E-01-8.07207E-01
 -1      2685-2.20176E+02-7.81673E-01-5.96729E-01 2.73184E+01 1.05352E-01 1.89504E-02
 -1      2686 4.56792E-01-1.68013E-01-3.42079E-01 3.02975E+01 1.12041E-01 1.00435E-01
 -1      2687-3.62167E+02 1.58120E-01-2.40522E-01 2.62510E+01-1.24963E-01-5.74769E-01
 -1      2688-1.39791E+02 7.02789E-01 1.83824E-01 3.03377E+01-6.88254E-02-1.99257E-01
 -1      2689-4.44139E+02 2.38290E-01-1.32935E-01 1.80996E+01-7.45089E-01 1.49255E-01
 -1      2690-4.49559E+02-4.23284E-01-2.91760E-01 1.85908E+01-4.82880E-01 7.84697E-01
 -1      2691-5.75440E+02 1.29742E-01-2.19734E-02 1.54768E+01-3.32781E-02 3.72313E-01
 -1      2692-5.68287E+02 8.62161E-01 7.43995E-01 1.52127E+01-3.06956E-02 2.87974E-01
 -1      2693-7.41866E+01 8.31083E-01 4.29728E-01 2.75625E+01 2.06164E-01 8.32469E-02
 -1      2694 4.29430E-01 2.27023E-01 3.75939E-01 3.09709E+01 2.17529E-01-4.51864E-02
 -1      2695-4.00016E+01-4.25848E-01-5.73845E-02 3.04338E+01-1.48029E-01 1.08763E-01
 -1      2696-4.19435E+01-1.04186E+00-6.07444E-01 2.85930E+01 1.11825E-01 4.52766E-01
 -1      2697-1.12685E+02-8.23006E-01 5.78564E-02 2.60805E+01-2.36720E-01 6.12682E-01
 -1      2698 7.40781E+01-8.09098E-01-5.49323E-01 2.76409E+01-2.54186E-01 1.36496E-01
 -1      2699-4.46024E-01-2.59015E-01-4.08789E-01 3.09689E+01-2.44869E-01 1.79371E-03
 -1      2700 1.12251E+02 2.70899E-01-2.13374E-01 2.62997E+01 1.97243E-01 5.72395E-01
 -1      2701 4.00336E+01 3.43472E-01-7.89323E-02 3.03874E+01-3.53543E-03 5.68382E-02
 -1      2702 4.20262E+01 1.03034E+00 7.21969E-01 2.86541E+01-2.10289E-02 4.89212E-01
 -1      2703-1.64939E+02-4.72482E-01-2.12453E-01 1.52065E+01 1.17466E-01 6.44347E-01
 -1      2704-1.44273E+02-6.85432E-02-4.28270E-02 1.82791E+01-1.16718E-01-2.67041E-01
 -1      2705-1.49692E+02-7.81378E-01-5.14344E-01 1.86323E+01-4.24913E-01 5.04286E-01
 -1      2706-1.78900E+02 1.00964E+00 5.19333E-01 1.49624E+01 2.76219E-01 3.84040E-01
 -1      2707-1.86021E+02 4.87544E-01 4.90868E-02 1.51272E+01-7.70567E-02 2.90366E-01
 -1      2708-3.89975E+01 3.68754E-01-1.19835E-01 3.05823E+01-5.22878E-02 2.88883E-01
 -1      2709 1.44285E+02 5.89901E-02-2.64774E-02 1.82843E+01 1.06434E-01-2.36395E-01
 -1      2710 1.49703E+02 6.75516E-01 3.89547E-01 1.86827E+01 3.61370E-01 4.46182E-01
 -1      2711 1.85741E+02-3.43350E-01-1.81616E-01 1.53678E+01 1.74895E-01 1.46685E-01
 -1      2712 1.78751E+02-7.66220E-01-4.49239E-01 1.51317E+01-2.40557E-01 4.46141E-01
 -1      2713 2.19945E+02 2.51035E-01 2.72280E-01 1.87254E+01-1.95962E-01-6.12252E-01
 -1      2714 2.13820E+02-3.00409E-01-1.45247E-01 1.82958E+01-1.29002E-01 2.53227E-01
 -1      2715 2.70487E+02-6.09029E-01-4.83375E-01 1.51302E+01 9.70136E-02-4.88953E-01
 -1      2716 6.27304E+01 6.72086E-01 4.19383E-01 2.89039E+01 1.06818E-02-8.34571E-01
 -1      2717 2.77635E+02-1.77280E-01-1.20424E-01 1.56363E+01-2.49632E-01-2.30968E-01
 -1      2718-6.68632E-01-3.16048E-01-3.01598E-01 3.08682E+01 1.52442E-01 1.22971E-01
 -1      2719 1.08616E+02-7.23801E-01-4.36767E-01 2.75269E+01 2.23630E-01 5.40599E-03
 -1      2720 6.14152E+01 1.28671E-01-1.06307E-01 3.04315E+01-3.69451E-02 7.61918E-02
 -1      2721 1.68162E+02 1.17265E-01-2.63344E-01 2.64892E+01-1.18546E-01-4.20417E-01
 -1      2722-2.38737E+02 8.98433E-01 2.58109E-01 2.73892E+01-1.79227E-01 3.67834E-02
 -1      2723-3.77794E+02-8.85556E-01 1.43512E-01 2.61814E+01 2.00681E-01-6.54102E-01
 -1      2724-1.42649E+02-1.12157E+00-9.41760E-01 2.84982E+01-2.16803E-02-3.59813E-01
 -1      2725-1.40777E+02-8.15376E-01-1.62424E-01 3.02302E+01-1.01728E-01-3.02103E-01
 -1      2726-4.84992E+02-7.62569E-01-4.30362E-01 1.86580E+01 4.01518E-01-5.04155E-01
 -1      2727-4.79519E+02-2.96871E-02-5.24996E-02 1.83050E+01 1.22486E-01 3.00896E-01
 -1      2728-6.21923E+02 3.69245E-01 9.90419E-02 1.51724E+01 6.72122E-02-2.64270E-01
 -1      2729-6.14653E+02 8.73590E-01 5.70192E-01 1.49590E+01-1.84114E-01-4.51160E-01
 -1      2730 4.55711E+02 1.94731E-01-1.14286E-01 1.80608E+01 7.41208E-01-1.53934E-01
 -1      2731 4.50271E+02-4.33690E-01-2.12867E-01 1.86768E+01 4.86584E-01-8.02870E-01
 -1      2732 6.00872E+02 1.04125E+00 6.06086E-01 1.49438E+01-1.03338E-01-4.71914E-01
 -1      2733 5.93912E+02 3.99060E-01-1.29521E-02 1.52929E+01 2.49455E-01-2.79123E-01
 -1      2734-1.00058E+02 1.11859E-02 2.95572E-01 3.04752E+01 8.69893E-02-2.03649E-01
 -1      2735 2.80114E+02 2.43220E-01 1.62182E-02 1.81917E+01 2.22541E-01 2.68411E-01
 -1      2736 2.73830E+02-4.11255E-01-2.91312E-01 1.87294E+01 2.96452E-01-6.91944E-01
 -1      2737 3.71603E+02 8.52995E-01 3.94296E-01 1.47754E+01-1.40530E-01-5.56013E-01
 -1      2738 3.64757E+02 4.60644E-01 1.14809E-01 1.53086E+01 2.71231E-01-1.68033E-01
 -1      2739-2.79718E+02-1.54085E-01 1.98485E-01 1.82342E+01-5.15582E-01 1.26783E-01
 -1      2740-2.73970E+02 3.76938E-01 2.10429E-01 1.87391E+01-3.45684E-01-6.20332E-01
 -1      2741-3.71544E+02-1.01161E+00-7.61657E-01 1.49340E+01 6.61254E-02-4.54058E-01
 -1      2742-3.64960E+02-7.60255E-01-4.20056E-01 1.52744E+01-1.96894E-01-1.06959E-01
 -1      2743-8.55328E+01 1.05486E+00 7.43725E-01 2.87954E+01-1.50783E-01-7.16196E-01
 -1      2744-1.33849E+02-8.42020E-01-4.64291E-01 2.73543E+01 1.76048E-01 7.44012E-03
 -1      2745-2.83924E-01-6.13187E-01-4.99797E-01 3.03031E+01 2.39248E-01 1.28940E-01
 -1      2746-8.68297E+01 8.18160E-01 1.70942E-01 3.03997E+01-9.10451E-02-2.96366E-01
 -1      2747-2.22728E+02 8.50255E-02-2.51856E-01 2.64106E+01-2.56192E-01-6.78677E-01
 -1      2748 2.21500E+02-7.37405E-01-5.55176E-01 2.73117E+01-1.16851E-01 2.69689E-02
 -1      2749 3.85522E-01-1.41785E-01-3.51127E-01 3.03484E+01-7.83045E-02-8.02134E-02
 -1      2750 3.49575E+02 1.99355E-01-2.41519E-01 2.65085E+01 8.70986E-02 4.46002E-01
 -1      2751 1.30471E+02 5.27812E-01 1.50477E-01 3.04050E+01 6.90538E-02 7.68869E-02
 -1      2752 1.32201E+02 5.79837E-01 5.21384E-01 2.89339E+01 3.59646E-01 8.45855E-01
 -1      2753-3.85287E+02-2.36816E-01 1.21851E-01 1.80899E+01-7.50826E-01-1.52371E-01
 -1      2754-3.79862E+02 4.23415E-01 2.78441E-01 1.86038E+01-4.87602E-01-8.02456E-01
 -1      2755-5.09305E+02-8.52548E-01-7.24198E-01 1.51637E+01-3.69307E-02-3.05393E-01
 -1      2756-5.02136E+02-1.31038E-01 3.87769E-02 1.54364E+01-2.67659E-02-3.82884E-01
 -1      2757-1.16690E+02 4.93303E-01 3.72085E-01 2.89147E+01-2.88139E-01-8.48536E-01
 -1      2758-1.85347E+02-6.56938E-01-4.12715E-01 2.71967E+01 4.51710E-02 6.39964E-02
 -1      2759 4.01520E-01-1.41020E-01-3.50845E-01 3.03265E+01 7.14112E-02 9.50933E-02
 -1      2760-3.05684E+02 7.73705E-01-9.66224E-02 2.62734E+01-4.47839E-02-4.62891E-01
 -1      2761-1.18470E+02 4.45296E-01 1.74209E-01 3.04215E+01-1.26072E-01-1.49386E-01
 -1      2762 4.44200E+02-2.58238E-01 8.15166E-02 1.80850E+01 6.95414E-01 1.66086E-01
 -1      2763 4.49651E+02 3.18325E-01 1.53328E-01 1.85813E+01 4.20449E-01 7.18144E-01
 -1      2764 5.68891E+02-8.84937E-01-7.76632E-01 1.52229E+01-2.52833E-02 3.88418E-01
 -1      2765 5.75911E+02-2.57846E-01-9.29038E-02 1.55657E+01 1.89965E-01 2.22043E-01
 -1      2766 3.85259E+02 2.35562E-01-7.60901E-02 1.80967E+01 7.31540E-01-1.59909E-01
 -1      2767 3.79810E+02-3.39216E-01-1.92548E-01 1.86488E+01 4.46970E-01-7.45916E-01
 -1      2768 5.09173E+02 8.67849E-01 7.66859E-01 1.52263E+01-1.46583E-02-3.99598E-01
 -1      2769 5.02151E+02 2.04371E-01 6.02307E-02 1.55805E+01 2.08587E-01-2.49784E-01
 -1      2770 1.16555E+02-6.03767E-01-5.14237E-01 2.89155E+01 3.72650E-01-8.47531E-01
 -1      2771-5.03319E-01-2.07894E-01-3.64165E-01 3.10014E+01 2.25755E-01 5.14910E-02
 -1      2772 1.52075E+02-7.86498E-01-4.04146E-01 2.75691E+01 1.99611E-01-8.31877E-02
 -1      2773 2.38218E+02 7.99726E-01-1.24288E-01 2.61055E+01-2.18370E-01-6.38593E-01
 -1      2774 8.95038E+01 1.02674E+00 6.13360E-01 2.86744E+01 1.12875E-01-4.95200E-01
 -1      2775 8.76190E+01 3.84660E-01-1.65167E-02 3.04621E+01-8.62971E-02-1.19714E-01
 -1      2776-1.09911E+02-4.32858E-01-4.52506E-01 3.02097E+01-4.43443E-02 7.11598E-02
 -1      2777 3.73569E+02-2.16877E-01 9.88599E-02 1.80928E+01 7.33003E-01 1.77716E-01
 -1      2778 3.79048E+02 3.91521E-01 2.32585E-01 1.86495E+01 4.59664E-01 7.55295E-01
 -1      2779 4.84930E+02-2.12406E-01-6.95341E-02 1.54808E+01 1.93340E-01 2.07446E-01
 -1      2780 1.11828E+02 7.77171E-01 5.70932E-01 2.88995E+01 3.47870E-01 8.35946E-01
 -1      2781 4.77923E+02-8.87606E-01-7.83973E-01 1.51448E+01-8.53905E-02 3.89475E-01
 -1      2782 1.86786E+02-7.48356E-01-5.91494E-01 2.73004E+01-1.25594E-01-1.80557E-02
 -1      2783 3.94796E-01-2.10310E-01-3.64378E-01 3.03202E+01-8.75984E-02-8.37207E-02
 -1      2784 1.10052E+02 6.44911E-01 2.56863E-01 3.03918E+01 1.08836E-01 1.01956E-01
 -1      2785 2.94569E+02 2.72788E-01-1.82850E-01 2.64456E+01 9.28071E-02 4.35925E-01
 -1      2786 4.16859E+02-4.92571E-01-6.04912E-03 2.59842E+01 7.43649E-02-5.49592E-01
 -1      2787 1.72101E+02 1.07255E-01-2.45133E-01 3.04188E+01-9.68481E-02-3.24237E-01
 -1      2788 1.74375E+02-1.08164E+00-5.05115E-01 2.84637E+01 6.06345E-02-7.96951E-01
 -1      2789-3.73727E+02 1.89457E-01-1.53432E-01 1.80910E+01-7.17751E-01 2.17297E-01
 -1      2790-3.79186E+02-4.22684E-01-2.62764E-01 1.86447E+01-4.77213E-01 7.66192E-01
 -1      2791-4.77901E+02 8.34286E-01 6.48634E-01 1.48460E+01 9.83664E-02 4.81596E-01
 -1      2792-4.84528E+02 3.42128E-01 2.91772E-02 1.52898E+01-1.93604E-01 2.28291E-01
 -1      2793-3.08677E+02-7.06096E-01-4.20540E-01 1.86672E+01 3.67727E-01-4.74953E-01
 -1      2794-3.03196E+02-7.88302E-02 8.50780E-03 1.82353E+01 9.88653E-02 2.37013E-01
 -1      2795-3.92313E+02 4.86356E-01 1.75180E-01 1.52377E+01 2.28172E-01-1.40376E-01
 -1      2796-3.85207E+02 9.38737E-01 5.43464E-01 1.49897E+01-2.60422E-01-5.04324E-01
 -1      2797-8.96060E+01-1.07377E+00-7.18519E-01 2.86270E+01-3.62719E-02-5.13978E-01
 -1      2798-3.50456E+02 3.99866E-01 5.27412E-02 1.91187E+01-4.71487E-02-2.58643E-01
 -1      2799-3.37931E+02-4.43931E-01-5.54086E-01 1.90548E+01-1.22517E-01-2.12727E-01
 -1      2800 5.39373E+02-9.82631E-01-8.82150E-01 1.99167E+01-2.78130E-01-1.70299E+00
 -1      2801 5.47797E+02-1.79626E-01 2.46412E-01 1.98107E+01 7.83769E-02 2.29186E-01
 -1      2802 7.27891E+02-8.35772E-01-6.92970E-02 1.49570E+01-2.30530E-01-7.69550E-01
 -1      2803 1.87133E+02 1.10633E+00 3.90963E-01 2.91434E+01-5.59596E-01-8.98077E-01
 -1      2804 7.21980E+02-7.53022E-01-9.21226E-01 1.45796E+01-2.04722E-01-1.21701E+00
 -1      2805 6.03819E+02-4.85911E-01-5.92058E-01 1.47655E+01-6.31109E-03-4.46760E-01
 -1      2806 6.08215E+02-7.58635E-01-5.08801E-01 1.44195E+01-4.07987E-02-6.59017E-01
 -1      2807 3.86194E+02-3.82167E-01 8.87535E-02 2.58258E+01-3.15527E-01 5.01690E-01
 -1      2808 1.63793E+02-1.02777E+00-5.92652E-01 2.77858E+01 2.47450E-02 1.00331E+00
 -1      2809 1.62287E+02 2.55268E-02 8.86679E-02 2.95877E+01 7.10827E-02 3.59704E-01
 -1      2810 3.09171E+01-4.94464E-01-1.10841E-01 2.71792E+01 2.91118E-01 1.83308E-01
 -1      2811 5.76413E+01-4.52926E-01 1.95273E-01 2.59868E+01 1.50181E-01-5.47516E-01
 -1      2812 2.35476E+01-3.00098E-01-8.15753E-02 2.97555E+01-1.27440E-01-4.74219E-01
 -1      2813 2.50100E+01-7.42310E-01-4.14190E-01 2.80941E+01 2.09873E-01-4.41015E-01
 -1      2814-6.07880E+02 7.75856E-01 5.16411E-01 1.44536E+01 5.45679E-02-6.61880E-01
 -1      2815-1.56590E+02-7.71089E-01-5.87287E-01 2.78736E+01 3.49704E-02-9.66809E-01
 -1      2816-6.03455E+02 4.99596E-01 6.00405E-01 1.47745E+01 1.68944E-03-4.45221E-01
 -1      2817-3.75593E+02-4.25678E-01-9.42055E-03 2.59534E+01 2.40997E-01-4.07867E-01
 -1      2818-1.57923E+02 1.37163E-01 7.74027E-02 2.96202E+01-7.55305E-02-3.12883E-01
 -1      2819-6.12303E+02-8.05662E-01-4.34466E-01 1.43835E+01 7.54771E-02 6.63551E-01
 -1      2820-6.16779E+02-6.19171E-01-6.49263E-01 1.45322E+01-3.77451E-03 3.89509E-01
 -1      2821-5.46164E+01 1.51525E-02 3.07698E-01 3.03211E+01-8.80610E-02 3.52243E-01
 -1      2822-1.32277E+02 5.29473E-01-1.59866E-02 2.59789E+01 1.39266E-01 5.00089E-01
 -1      2823-5.57397E+01 1.06234E+00 9.67762E-01 2.80049E+01-6.25464E-02 3.21784E-01
 -1      2824 5.46564E+01 2.92381E-02-3.03674E-01 3.03196E+01 9.01012E-02 3.35936E-01
 -1      2825 1.32173E+02-5.53430E-01-1.00714E-01 2.58934E+01-1.51737E-01 3.88459E-01
 -1      2826 5.58216E+01-1.00528E+00-9.23919E-01 2.79691E+01 6.36320E-02 3.18050E-01
 -1      2827-2.10158E+02-5.79429E-01-5.88296E-01 1.46647E+01-1.76604E-01 3.80986E-01
 -1      2828-2.06107E+02-9.79194E-01-8.35333E-01 1.47359E+01-1.63219E-01 1.02729E+00
 -1      2829 2.06125E+02 9.50495E-01 8.54222E-01 1.47703E+01 1.51663E-01 1.00040E+00
 -1      2830 2.09960E+02 3.90779E-01 4.32630E-01 1.48034E+01 1.06174E-01 4.21080E-01
 -1      2831 6.16585E+02 8.25144E-01 6.18434E-01 1.45334E+01-8.08904E-02 4.14993E-01
 -1      2832 6.12272E+02 9.01702E-01 5.54483E-01 1.42920E+01-4.58854E-02 5.67841E-01
 -1      2833 5.16584E+02 8.35943E-01 5.44925E-01 1.44694E+01-6.75539E-02 6.44239E-01
 -1      2834 1.38441E+02-8.53707E-01-6.17798E-01 2.78622E+01-3.15431E-02 9.81760E-01
 -1      2835 5.20916E+02 4.84335E-01 5.90942E-01 1.47327E+01-1.79028E-02 4.22588E-01
 -1      2836 1.37167E+02 1.12958E-01 1.16075E-01 2.96314E+01 7.68921E-02 2.99681E-01
 -1      2837 3.26351E+02-4.42473E-01-2.90386E-03 2.59593E+01-2.52220E-01 4.13904E-01
 -1      2838-5.21183E+02-4.82473E-01-6.00467E-01 1.47558E+01-3.71767E-04 4.43326E-01
 -1      2839-5.16743E+02-7.63366E-01-5.00854E-01 1.44529E+01 5.12127E-02 6.66880E-01
 -1      2840 9.40075E+01-8.17143E-02-4.24361E-02 2.96342E+01 1.47734E-01-2.80214E-01
 -1      2841 2.25568E+02 5.04490E-01-1.33726E-02 2.59549E+01-1.72457E-01-4.35808E-01
 -1      2842 9.33166E+01 9.99036E-01 6.82737E-01 2.80009E+01-3.22006E-02-6.20314E-01
 -1      2843-5.12626E+02 7.94405E-01 4.23656E-01 1.44069E+01 8.90171E-02-6.54738E-01
 -1      2844-1.31952E+02-9.39486E-01-6.45855E-01 2.78348E+01 5.64241E-02-9.74982E-01
 -1      2845-5.08226E+02 5.87238E-01 6.23700E-01 1.45621E+01-1.95029E-02-3.65035E-01
 -1      2846 5.08054E+02-4.56438E-01-5.46495E-01 1.47139E+01-1.43334E-02-4.37482E-01
 -1      2847 5.12313E+02-8.15957E-01-5.18489E-01 1.44516E+01-7.37319E-02-6.43054E-01
 -1      2848 1.31653E+02 8.55562E-01 5.78956E-01 2.78507E+01-5.39000E-02-9.65632E-01
 -1      2849-1.33239E+02 6.41665E-02 1.08750E-01 2.95925E+01-6.84213E-02-3.23351E-01
 -1      2850-3.16139E+02-3.68763E-01 1.38047E-01 2.59650E+01 1.88435E-01-4.95270E-01
 -1      2851-1.36098E+02 4.03780E-02-1.28217E-01 1.49552E+01-2.42526E-01 5.06467E-01
 -1      2852-3.26854E+01-2.22830E-01 1.71455E-01 3.05903E+01 1.88514E-01 3.12577E-01
 -1      2853 6.59042E+02 8.12321E-01 1.83601E-01 1.45393E+01 3.00991E-02-5.26836E-01
 -1      2854 6.63445E+02 4.71011E-01 4.34848E-01 1.45798E+01-2.15653E-01-2.90915E-01
 -1      2855 2.67063E+02-5.24055E-01 1.58275E-02 2.59475E+01 1.26863E-01-5.11005E-01
 -1      2856 1.11438E+02-3.15739E-02-3.27748E-01 3.03121E+01-9.12515E-02-3.63830E-01
 -1      2857 1.12665E+02-1.02405E+00-9.39406E-01 2.79833E+01-6.09130E-02-3.36032E-01
 -1      2858 1.91335E+02-4.96052E-01-3.61913E-02 2.58776E+01 2.25363E-01-4.25720E-01
 -1      2859 7.92398E+01-5.59951E-02-3.14582E-01 3.03460E+01-7.80188E-02-2.82797E-01
 -1      2860 8.08179E+01-1.21910E+00-4.73055E-01 2.83295E+01-7.31951E-02-6.64924E-01
 -1      2861 3.67516E+02-8.24756E-01-2.28039E-01 1.45648E+01-1.04172E-02-4.85481E-01
 -1      2862 3.63228E+02-5.53130E-01-4.30988E-01 1.47350E+01 1.19931E-01-3.19702E-01
 -1      2863 3.00653E+02 8.67823E-01 2.83312E-01 1.45284E+01 2.66750E-02-4.71733E-01
 -1      2864 3.04805E+02 4.76972E-01 4.49932E-01 1.45788E+01-8.92654E-02-3.16992E-01
 -1      2865 5.49053E+01-3.31808E-01-2.26329E-01 1.82925E+01-3.41381E-02 1.24866E-01
 -1      2866 6.12212E+01 5.02782E-01 3.30305E-01 1.86960E+01-1.69213E-01-6.22119E-01
 -1      2867 8.59425E+01 7.77389E-01 8.31933E-02 1.45983E+01 2.42575E-02-4.68151E-01
 -1      2868 9.02270E+01 7.10099E-01 4.27447E-01 1.45520E+01-1.28964E-01-2.09772E-01
 -1      2869 3.08473E+02 7.81931E-01 4.93605E-01 1.86478E+01-4.09727E-01-5.10868E-01
 -1      2870 3.03029E+02 9.73770E-02 3.99929E-02 1.82830E+01-1.07468E-01 2.57098E-01
 -1      2871 3.92490E+02-3.93634E-01-4.29027E-02 1.51566E+01-9.61607E-02-3.08690E-01
 -1      2872 3.85235E+02-8.94716E-01-5.33110E-01 1.49401E+01 2.23589E-01-4.61399E-01
 -1      2873 1.85468E+02 7.08524E-01 5.72804E-01 2.73018E+01-1.08061E-01 2.03666E-02
 -1      2874-1.57821E+00 1.71486E-01 3.65509E-01 3.03265E+01-8.43863E-02 8.52697E-02
 -1      2875 3.05993E+02-1.79878E-01 2.62359E-01 2.64661E+01 8.37181E-02-4.23057E-01
 -1      2876 1.16986E+02-5.05636E-01-1.53700E-01 3.03881E+01 7.75987E-02-9.23137E-02
 -1      2877 3.96598E-01-5.48342E-01-3.42309E-02 2.96562E+01-1.93346E+00 7.21560E-02
 -1      2878 2.65850E+02 5.78552E-02 1.12375E-01 2.71085E+01-1.28474E+00-4.49252E-01
 -1      2879 1.88288E+02 9.05016E-02-1.35115E-01 2.85623E+01-8.65580E-01-4.85446E-01
 -1      2880 4.50453E+02 2.91638E-02-3.85783E-01 2.50672E+01-6.14324E-01-1.08261E+00
 -1      2881-2.96627E+02-2.36278E-01 5.98470E-02 2.61764E+01 6.76290E-02-8.19695E-01
 -1      2882-9.65606E+01 6.29316E-01 4.26102E-01 2.61087E+01 2.41178E-01 1.00504E+00
 -1      2883 9.68484E+01-2.85673E-01 3.17277E-02 2.60963E+01-8.86356E-02 9.58032E-01
 -1      2884-4.63468E+02-1.61477E-01 1.14034E-01 1.49281E+01-1.14683E-01 4.57575E-01
 -1      2885-4.21683E+02-9.51898E-01-8.55399E-01 1.46874E+01 1.38536E-01-1.02836E+00
 -1      2886-4.25627E+02-4.03653E-01-4.60901E-01 1.47662E+01 8.84127E-02-4.27448E-01
 -1      2887-1.12667E+02 1.04876E+00 9.60477E-01 2.79499E+01 9.99628E-02-4.02235E-01
 -1      2888-4.30949E+02 1.29791E-01 5.28431E-02 1.51884E+01-4.32191E-02 3.95717E-01
 -1      2889 2.94205E+02-1.74219E-01 1.91883E-01 2.62289E+01-9.25842E-02 8.71729E-01
 -1      2890 3.79723E-01 2.96353E-01 4.07681E-01 3.09728E+01-2.36616E-01 3.71081E-03
 -1      2891-1.52027E+02 8.36114E-01 5.54687E-01 2.76475E+01-2.48469E-01-1.68116E-01
 -1      2892-8.77192E+01-4.06217E-01 1.88952E-02 3.04136E+01 5.36414E-02-9.02487E-02
 -1      2893-2.37818E+02-2.14350E-01 1.89442E-01 2.62307E+01 2.78491E-01-6.26037E-01
 -1      2894 2.48503E+02-1.62722E-01 1.32179E-01 2.62969E+01-7.05812E-02 8.40101E-01
 -1      2895-2.45426E+01 7.43674E-02-2.95132E-01 3.02521E+01-8.87459E-02 2.23442E-01
 -1      2896 5.93248E+00 1.72602E+00-3.42971E-02 2.95462E+01 1.51890E-01-5.76063E-01
 -1      2897 3.32530E+01 4.16819E-01-1.88251E-01 1.89415E+01-3.05278E-02-1.09524E-01
 -1      2898 6.76615E+00 1.31037E+00-3.52636E-02 2.97229E+01-3.82320E-01 8.50028E-01
 -1      2899-2.50522E+02-4.97304E-01-2.96485E-01 2.63729E+01 2.61284E-01-8.85287E-01
 -1      2900-9.64423E-01-4.11974E-03-1.66166E-01 3.04901E+01-3.50546E-01 4.07522E-02
 -1      2901-7.47629E+00-1.62688E+00 1.11574E-01 2.95692E+01 3.25417E-01 8.89422E-01
 -1      2902 3.15208E+02-7.38093E-01-5.14640E-01 2.63601E+01 2.26341E-01-9.64333E-01
 -1      2903 2.49895E+02 1.80077E-01-1.53205E-01 2.63263E+01-6.86741E-02-8.50535E-01
 -1      2904-2.01144E+02 3.30112E-01-7.66743E-03 2.59907E+01-7.52071E-02-9.88546E-01
 -1      2905 2.01044E+02-6.27897E-01-4.43669E-01 2.61285E+01 2.44614E-01-1.02335E+00
 -1      2906 1.31837E+02-7.39172E-02-4.37251E-02 2.96457E+01 8.04467E-02-3.14788E-01
 -1      2907 3.16046E+02 4.70699E-01 5.53762E-02 2.59182E+01-2.24019E-01-4.06372E-01
 -1      2908 4.21779E+02 9.89035E-01 8.37031E-01 1.46848E+01-1.61953E-01-1.02615E+00
 -1      2909 4.25828E+02 5.64157E-01 5.51790E-01 1.46154E+01-1.70846E-01-3.79898E-01
 -1      2910 1.79883E+02 3.59805E-01 1.02419E-01 2.62360E+01-8.95479E-02-8.16407E-01
 -1      2911-3.63621E+02 7.10850E-01 5.47232E-01 1.45228E+01-1.20082E-01-2.50950E-01
 -1      2912-3.67936E+02 8.48818E-01 6.34712E-01 1.44378E+01 1.17922E-01-6.41370E-01
 -1      2913-9.35696E+01-1.03219E+00-5.07068E-01 2.81410E+01-7.87284E-03-8.08030E-01
 -1      2914 1.42702E+02-4.50674E-01 1.78209E-02 2.63670E+01 1.08176E-01-8.74041E-01
 -1      2915-9.47530E+01-6.29235E-01-7.29271E-02 2.97929E+01-1.22383E-01-2.90993E-01
 -1      2916-2.26587E+02-1.09535E+00-1.23118E-01 2.55512E+01 2.97472E-01-6.26266E-01
 -1      2917-4.14589E+02 6.59451E-01-1.60719E-01 2.60079E+01-1.67073E-01-6.39385E-01
 -1      2918-1.72948E+02 4.87728E-01 1.27947E-01 2.97235E+01 1.85445E-01-4.33452E-01
 -1      2919-1.73852E+02 1.02091E+00 8.73889E-01 2.79608E+01 2.50868E-02-2.51522E-01
 -1      2920-2.66846E+02 5.75069E-01 6.96815E-02 2.58722E+01-1.75420E-01-4.17962E-01
 -1      2921-1.11421E+02-3.43850E-04 2.92485E-01 3.02817E+01 9.56981E-02-3.49393E-01
 -1      2922-6.59317E+02-1.02348E+00-7.89108E-01 1.46643E+01 1.95740E-01-9.65132E-01
 -1      2923-6.63281E+02-8.57318E-01-5.75790E-01 1.45667E+01 8.71546E-02-3.40885E-01
 -1      2924 7.13741E+02-1.01634E-01-2.69959E-01 1.64274E+01-1.57761E+00-1.87513E+00
 -1      2925 1.69428E+02-7.14097E-01-2.88666E-01 3.21398E+01-1.93955E+00-1.58424E+00
 -1      2926 7.24317E+02 8.55734E-01 2.11109E+00 1.71550E+01-1.67862E+00-1.34222E+00
 -1      2927-1.01409E+02-2.38287E+01-2.31480E+01 3.60412E+01-2.17063E+00 2.51724E+00
 -1      2928-1.34548E+02-2.30187E+01-3.33992E+01 4.00285E+01 8.27429E-01-2.33514E+00
 -1      2929-3.51588E+02-4.15178E+01-7.26076E+01 3.18091E+01 9.03337E+00 2.72622E+00
 -1      2930-2.66748E+02-4.25466E-02-1.22100E+01 5.64698E+01 1.23816E+01 1.32674E+00
 -1      2931-3.18653E+02-3.76302E+01-5.70905E+01 2.29014E+01 9.21969E+00 1.16393E+01
 -1      2932 7.21868E+02 3.23790E-01-2.54510E-01 1.37665E+01-2.93609E-02 1.03728E+00
 -1      2933 1.40750E+01 6.15097E-01 1.81587E-01 3.01871E+01 1.74363E-02-3.16369E-01
 -1      2934 4.34685E+01 5.70568E-01-2.80010E-01 2.61866E+01-1.06910E-01-5.72938E-01
 -1      2935 1.55795E+01 8.80285E-01 5.55156E-01 2.88063E+01 8.55941E-02-9.85123E-01
 -1      2936 9.48734E+01 3.27930E+01 4.57588E+01 4.03453E+01-2.02764E-03 3.45284E-02
 -1      2937 4.37493E+02-8.39109E-01-2.24713E-01 2.61911E+01-1.85844E+00-1.87957E+00
 -1      2938 1.70602E+02-1.41915E+00-6.77350E-01 3.02108E+01-2.72396E+00-8.22132E-01
 -1      2939-1.80300E+02 1.34978E-01 4.02979E-01 2.61563E+01-3.88544E-02-8.42587E-01
 -1      2940 7.19407E+01-2.07561E-01-1.27011E-01 1.52547E+01-1.53208E-01-2.69755E-01
 -1      2941 6.48768E+01-7.71816E-01-3.28923E-01 1.49346E+01 6.69928E-02-2.43116E-01
 -1      2942-2.38708E+00 2.40648E+00 4.43459E-01 2.82208E+01-1.79375E-01 4.18555E-02
 -1      2943 1.20424E+00-1.80160E+00-1.67032E-01 2.89233E+01-1.02501E-01 4.03537E-01
 -1      2944-4.50512E-01-3.67228E-01-4.53520E-03 2.89596E+01 1.03832E-01 5.53830E-02
 -1      2945-3.15221E+02 4.85110E-01 2.90554E-01 2.61878E+01-2.99040E-01-9.50683E-01
 -1      2946-2.53263E+00-4.38098E-01 1.13398E-01 2.72028E+01-5.33543E-01-9.65837E-01
 -1      2947-8.31988E+00-1.10511E+00 5.28194E-02 2.96096E+01-3.77221E-01-8.50934E-01
 -1      2948-5.38329E+00 3.88358E+00 1.06474E+00 2.53193E+01-8.30058E-01-4.52714E-01
 -1      2949 3.57008E+02 7.92940E-01 9.68474E-02 2.75687E+01-1.71937E+00-1.62646E+00
 -1      2950 3.93056E+01-6.57883E-01-4.06794E-01 2.63315E+01 3.38880E-01-8.24000E-01
 -1      2951 1.42639E+02 4.68408E-01-3.21883E-01 1.40309E+01-4.58446E-02 9.62541E-01
 -1      2952 7.54512E+01 7.39320E-01-2.64779E-02 2.53643E+01 2.33907E-01 5.57137E-01
 -1      2953 1.20180E+02-4.94004E-01-3.47019E-01 1.37587E+01-8.32457E-02 5.12602E-01
 -1      2954 1.37392E+02 6.48637E-01 3.13758E-01 1.38192E+01 2.32711E-01 7.40438E-01
 -1      2955 6.91337E+01 1.20088E-01-2.31516E-01 2.49440E+01-8.43346E-02 7.59798E-01
 -1      2956 8.86535E+01-5.40419E-01-2.00049E-01 2.58354E+01-3.42340E-01 6.74484E-01
 -1      2957 3.81003E+02 3.91058E-01-1.76350E-01 1.38062E+01-1.04960E-02 1.25539E+00
 -1      2958 3.70755E+02 1.91097E-02-3.51669E-01 1.32286E+01 1.53725E-02 1.10483E+00
 -1      2959 3.74603E+02 1.79301E-01 2.95848E-01 1.28597E+01 1.83827E-01 1.02898E+00
 -1      2960 2.36629E+02-5.79147E-01-2.34736E-01 2.47260E+01-2.88041E-01 2.21675E-01
 -1      2961 2.44689E+02-6.33912E-01-6.26374E-02 2.56079E+01-1.62573E-01 6.40164E-01
 -1      2962 1.33248E+02 1.37497E-01 5.33710E-01 1.38206E+01-2.12651E-01 1.07548E+00
 -1      2963 6.55640E+01-1.14571E-01 9.51417E-02 2.61845E+01 2.25399E-01 5.14701E-01
 -1      2964 1.18677E+02-4.16852E-01 1.54553E-01 1.37675E+01 1.36075E-01 1.13256E+00
 -1      2965 1.06321E+02-2.84000E-01-3.48080E-01 1.39190E+01-1.55818E-01 1.13604E+00
 -1      2966-1.60126E+01 1.01210E+00 9.38019E-01 2.74782E+01-5.31158E-02 3.72160E-01
 -1      2967-1.70495E+01 5.76525E-01 7.88282E-03 2.92831E+01-1.01013E-01 2.07374E-01
 -1      2968-2.41680E+01-9.21932E-01 1.26687E-01 2.51678E+01 2.12868E-01 2.70704E-01
 -1      2969-1.92806E+02 1.92461E+00 9.91875E-01 2.58665E+01-6.04483E+00 1.89222E+00
 -1      2970-2.25296E+02-3.34712E+00-9.91950E-01 4.02034E+01-3.02805E+00 2.73216E+00
 -1      2971-4.32509E+02 2.01919E+00-8.81466E+00 3.48196E+01-7.60770E+00 3.98741E-01
 -1      2972 1.51397E+02-8.16302E-01-2.03208E+00 2.01618E+01 1.76008E+00-2.33866E+00
 -1      2973 3.36823E+02 4.30227E+01 6.39246E+01 2.94559E+01 6.60029E+00-5.86975E+00
 -1      2974-5.26269E+00 4.64001E+00 1.24649E+00 2.52582E+01 9.93220E-02 2.02435E-01
 -1      2975-3.79793E+00 2.23762E-01 1.36455E-01 2.65917E+01 5.98055E-01 5.55900E-01
 -1      2976 1.77312E+02 2.80541E+00-1.53657E-01 4.04995E+01 3.87421E+00 2.68609E+00
 -1      2977 7.61792E+02-1.95658E+00 3.89569E+00 1.64985E+01 1.43235E+00 1.86850E+00
 -1      2978 4.26254E+02-1.89070E+00 7.15282E+00 3.46737E+01 7.93814E+00-1.62972E-01
 -1      2979-1.71347E+02-7.43316E-01-9.16389E-02 2.94576E+01-6.99739E-01 8.62081E-01
 -1      2980-1.68318E+02-2.81230E-01 1.41994E-01 2.97806E+01-3.00481E-01 1.98205E-01
 -1      2981-6.92891E-01-4.28358E-01-2.36280E-01 2.98203E+01-9.28628E-01 1.12793E-01
 -1      2982-1.97367E+02 6.12078E-01-1.82344E-01 3.01856E+01-1.84336E+00 1.79854E+00
 -1      2983-1.94637E+02 3.75389E-01 4.52235E-02 2.88729E+01-1.35105E+00 8.32419E-01
 -1      2984-3.65974E+02 1.09438E-01 2.79334E-01 2.69311E+01-1.23002E+00 1.06404E+00
 -1      2985-6.07853E+01-7.80329E-01 5.13843E-02 3.02623E+01 5.15056E-02-5.69563E-02
 -1      2986-6.40818E+01-9.22034E-01-9.18387E-01 2.79527E+01 8.61270E-02-1.79064E-01
 -1      2987-3.38773E-01 1.31798E-01 1.52547E-01 2.98948E+01-2.39813E-01-1.12734E-01
 -1      2988-8.36602E+01 8.40822E-01 1.17547E-01 2.96849E+01-5.33330E-02-9.79987E-02
 -1      2989-8.35715E+01 9.30308E-01 6.95367E-01 2.75797E+01 5.79191E-03-2.98809E-01
 -1      2990-1.45590E+02 2.33092E-01 4.79387E-02 2.63329E+01-1.11381E-01-8.52191E-02
 -1      2991 4.66636E+01 6.96764E-01-2.42149E-01 1.69316E+01 6.95578E-02 2.52207E-01
 -1      2992 5.80584E+00-8.58436E-01-5.38115E-01 2.98854E+01 5.08501E-01 7.95752E-01
 -1      2993 1.79439E+01 8.91333E-01 3.46618E-01 2.83777E+01-1.43707E-01 3.35871E-01
 -1      2994-2.14403E+02-2.55367E-03 2.47779E-01 1.86338E+01 9.90986E-02 1.97714E-01
 -1      2995-2.71246E+02 4.94928E-01 2.36203E-01 1.55058E+01-8.12844E-02-1.92800E-01
 -1      2996-3.02375E+02-7.13855E-01-5.27249E-01 1.48938E+01 3.53060E-01-4.70416E-02
 -1      2997-4.23961E+00 4.30720E-01-4.45009E+00 5.24965E+01 1.51787E+01-2.40290E+00
 -1      2998-3.46753E+02 5.44302E-01 1.46405E-01 1.51215E+01-4.94307E-02 9.91467E-02
 -1      2999-8.44263E+01-7.37944E-01-2.45393E-01 2.83300E+01-2.64163E-01 7.77966E-01
 -1      3000-2.67801E+02 2.45813E-01 1.39913E-01 1.84872E+01-7.03137E-01 1.96596E-01
 -1      3001-3.71016E+02-3.67521E-01-2.04141E-01 1.46368E+01-1.06812E-01-4.63621E-01
 -1      3002-1.01506E+02 6.20327E-01-4.96567E-03 2.76570E+01 6.48012E-03 1.17221E+00
 -1      3003-1.84101E+02 6.66097E-02-7.92360E-03 2.62982E+01 9.19230E-02 2.46141E-01
 -1      3004-7.31684E+02-5.62535E-01-1.59554E+00 1.69420E+01 1.49755E+00-1.13303E+00
 -1      3005-1.78117E+02 1.27656E+00 3.57349E-01 3.14102E+01 1.82267E+00-1.26915E+00
 -1      3006-5.47090E+02 4.17627E-01-1.47865E-01 1.99836E+01-5.16821E-01-3.76057E-02
 -1      3007-7.29400E+02 2.74354E-01 1.70617E-01 1.52178E+01 2.42892E-02 2.01751E-01
 -1      3008-1.86034E+02-7.89363E-01 9.00590E-02 2.91776E+01 5.48814E-01-1.24574E+00
 -1      3009-3.65497E+02-2.97745E-01 1.09449E-01 2.75367E+01 1.63701E+00-1.28069E+00
 -1      3010-8.22450E+01-4.04958E-01 6.63176E-02 3.01913E+01-7.34901E-02 1.08161E-01
 -1      3011-8.17002E-01-4.51416E-01-6.11228E-02 2.98492E+01-4.04800E-02 5.66506E-02
 -1      3012-1.00371E+02 4.96930E-02-1.34851E-01 2.94178E+01 1.62948E-01 2.06061E-01
 -1      3013-1.67983E+02 1.60596E-01 3.02680E-01 2.66351E+01 2.25923E-01-3.81105E-01
 -1      3014-1.94171E+02-6.12079E-02-6.81429E-02 2.61442E+01-5.75705E-02-5.88494E-01
 -1      3015-2.78053E+02 3.12490E-01-1.37590E-01 1.51180E+01 3.07940E-03-9.24377E-01
 -1      3016-3.07697E+02-3.94330E-01-1.62742E-02 1.40773E+01-1.04783E-01-8.89096E-01
 -1      3017-1.79011E+02 1.71787E+00 6.23015E-01 2.99471E+01 2.69643E+00-7.61762E-01
 -1      3018 1.18348E+00 1.36693E-01-1.01213E-01 2.91550E+01 1.86888E+00 5.55197E-03
 -1      3019-1.84454E+02 1.35389E-01 3.50611E-01 2.84308E+01 1.08018E+00-2.68082E-01
 -1      3020 6.70250E+01 2.12426E-01 4.43076E-01 1.86747E+01-2.05488E-01 3.92689E-01
 -1      3021 9.88980E+01 4.45951E-01 3.84549E-01 1.48182E+01 3.12651E-01-7.51628E-01
 -1      3022 3.29108E+02 6.25203E-01 2.56208E-01 1.40452E+01-1.10163E-01-9.83397E-01
 -1      3023 4.07857E+02-6.93079E-01-2.72531E-01 1.40149E+01 7.54924E-02-9.71383E-01
 -1      3024 2.53051E+01-4.38566E-01 4.34437E-02 3.01967E+01-3.45288E-01-4.10446E-01
 -1      3025-4.34662E+02 2.10835E-01 2.40779E-01 2.59340E+01-5.03236E-01 9.11240E-01
 -1      3026-4.64237E+02 1.25474E-01 6.32894E-01 2.53561E+01-1.44840E+00 1.74982E+00
 -1      3027 2.25752E+02 4.64774E-02 3.65207E-01 1.87322E+01-3.42017E-01 4.94102E-01
 -1      3028 3.13710E+02 3.74920E-01 3.79356E-01 1.47935E+01 1.91579E-01-7.78192E-01
 -1      3029 7.23593E+02 3.54798E-01-1.80011E-01 1.39814E+01-1.45631E-01-8.26891E-01
 -1      3030 2.68551E+02-1.05830E-02-5.01786E-01 1.85853E+01 3.11314E-01 5.55976E-01
 -1      3031 3.54580E+02-3.18517E-01-3.96476E-01 1.47969E+01-3.84140E-01-7.47701E-01
 -1      3032-2.01940E+02-2.83850E-01-2.48164E-01 2.94106E+01 1.45023E-01 3.64205E-01
 -1      3033-2.00084E+02-2.09750E-01-2.33201E-01 2.72972E+01 3.53886E-01 7.36252E-01
 -1      3034-2.69861E+01 5.36931E-01-1.50514E-01 2.74893E+01-1.26881E-01-1.48062E-02
 -1      3035-1.03192E+01-1.73240E+00 5.02053E-01 2.48459E+01-1.58874E-01 6.21707E-02
 -1      3036-9.12116E+01-1.57708E-01-3.11245E-01 2.94293E+01 1.14586E-01 2.75042E-01
 -1      3037-9.02619E+01 4.69763E-02-1.68890E-01 2.69967E+01 3.66418E-01 5.30495E-01
 -1      3038-1.08764E+01 2.49668E-01-2.14411E-01 2.73844E+01-1.34626E-01 2.75694E-02
 -1      3039 9.30722E+01 6.72710E-01 4.32324E-02 3.03950E+01 4.00256E-01-3.47154E-01
 -1      3040 4.33966E-01-2.06877E-01-2.04869E-01 3.03433E+01 3.55531E-01-1.87780E-02
 -1      3041-9.40956E+01-5.76928E-01-9.89269E-02 3.04765E+01-1.77677E-01-4.32020E-01
 -1      3042 5.34797E+02-1.09079E-01-5.09704E-01 1.97811E+01 2.59830E-01 4.09032E-01
 -1      3043 7.13865E+02-4.05171E-01-6.46024E-01 1.48734E+01-3.93116E-01-1.01339E+00
 -1      3044 1.75223E+02-8.25533E-02 1.80504E-01 3.06564E+01-2.31180E-01-1.94282E-01
 -1      3045-2.00945E+02-1.50534E-02 2.94939E-01 2.96376E+01-2.31972E-01 3.70155E-01
 -1      3046 4.90497E+02 7.24947E-02 3.95752E-01 1.86853E+01-2.90829E-01 4.52521E-01
 -1      3047 6.72191E+02 1.87079E-01 3.58373E-01 1.48320E+01 2.68713E-01-7.31723E-01
 -1      3048-6.98797E+02 9.69529E-02 4.92169E-01 1.53746E+01-1.66396E-01 3.31153E-01
 -1      3049-5.33754E+02 4.22294E-01 4.53915E-01 1.96974E+01-4.51438E-01-1.35656E-01
 -1      3050-7.32944E+02-3.18316E-01-2.44327E-01 1.55444E+01-8.16502E-01 1.70908E-01
 -1      3051 8.16591E+01-3.13230E-01 1.63149E-01 3.05583E+01-1.08249E-01-2.17160E-01
 -1      3052-9.10647E+01 2.05451E-01 3.04381E-01 2.95992E+01-2.24652E-01 3.11404E-01
 -1      3053-4.06394E+02 7.47225E-01 4.87645E-01 1.43193E+01-1.02224E-01-1.13077E+00
 -1      3054-3.53359E+02 2.20342E-01-1.25471E-01 1.47533E+01-5.22689E-02 1.06971E+00
 -1      3055-3.77444E+02-4.06280E-01-9.17818E-02 1.42825E+01 1.52539E-01 8.07438E-01
 -1      3056 1.86617E+02 1.15535E+00-1.00896E-01 2.99688E+01-1.00112E-03-6.34122E-01
 -1      3057 7.75859E+02 4.92928E-01-4.00014E-01 1.39288E+01 2.86655E-02 1.21039E+00
 -1      3058 7.64669E+02 1.47324E-01 4.47642E-01 1.38674E+01-2.03774E-01 1.22355E+00
 -1      3059 7.08398E+02-4.45773E-01-4.27943E-01 1.38430E+01-3.98785E-02 6.84105E-01
 -1      3060 4.37740E+02-8.27047E-02 1.37611E-01 2.62537E+01 2.65445E-01 5.32703E-01
 -1      3061 4.49338E+02 6.91200E-01-7.07822E-02 2.52606E+01 2.88192E-01 6.13670E-01
 -1      3062-4.95021E+02-3.63468E-01-6.60480E-01 1.33334E+01-1.40784E-01 9.66676E-02
 -1      3063-4.76015E+02 2.42315E-01 5.81510E-01 1.32065E+01 9.72115E-02-2.03448E-01
 -1      3064-1.42344E+02-1.28901E-01-1.82532E-01 2.83701E+01-8.05758E-02-3.32905E-01
 -1      3065-2.15976E+02 2.00026E-02 2.16394E-01 2.64540E+01-2.51885E-01 4.10335E-01
 -1      3066-2.36775E+02-1.64359E-01-4.47074E-02 2.62471E+01 1.48115E-01 5.57700E-01
 -1      3067-7.21758E+02-2.52573E-01 2.44773E-01 1.40842E+01 6.15668E-02-8.42099E-01
 -1      3068-1.32046E+02-5.50085E-01 1.28033E-02 3.02299E+01-3.31027E-01-4.60601E-01
 -1      3069-7.21775E+02-1.10368E-01 4.53783E-01 1.57007E+01 1.33262E+00-2.93425E+00
 -1      3070-7.21472E+02 2.56727E-01 5.26439E-01 1.45424E+01 3.78880E-01-1.67814E+00
 -1      3071-4.43616E-01-1.14128E-01 3.99516E-02 3.05415E+01-2.82192E-01-2.69755E-02
 -1      3072-1.73945E+02 5.63272E-01 6.17759E-02 3.03980E+01 2.41377E-01-4.96654E-01
 -1      3073-7.13643E+02 5.38087E-01 3.15463E-01 1.49586E+01 4.21131E-01-4.13448E-01
 -1      3074-6.76684E+02 4.47404E-01 1.66207E-01 1.32735E+01-2.49199E-01 3.12450E-02
 -1      3075-3.77637E+02-6.94783E-01-3.61993E-01 2.44616E+01 3.05653E-01-7.72874E-02
 -1      3076-4.99676E+02 4.45540E-01-1.97681E-01 1.44308E+01 4.27463E-01-4.08082E-01
 -1      3077 1.63585E+02-7.82051E-01-2.75685E-02 3.01737E+01 2.83656E-01 5.91485E-01
 -1      3078-1.56002E+02-5.82770E-01-1.61005E-01 1.46245E+01 4.43664E-02 3.93901E-01
 -1      3079-4.49588E+01 5.39573E-01-3.10976E-02 2.76805E+01-7.15485E-02-9.51348E-01
 -1      3080-1.70491E+02-4.51077E-01 6.07155E-02 1.47567E+01-3.05837E-01-1.09753E-01
 -1      3081 1.20863E+02 6.59011E-02-2.46544E-02 1.84863E+01-6.18964E-01 5.58838E-02
 -1      3082 1.08985E+02 1.52876E-01 1.45086E-01 1.86405E+01-4.89576E-01 1.45758E-01
 -1      3083 1.70558E+02 5.57590E-01-1.02165E-01 1.48182E+01 3.03423E-01-7.43590E-02
 -1      3084 1.56022E+02 4.10783E-01 1.79886E-01 1.48130E+01-1.01116E-01 4.10030E-01
 -1      3085 4.44633E+01-3.88132E-01-3.79887E-02 2.74263E+01 4.33280E-04-9.90586E-01
 -1      3086-5.15970E-01-6.69664E-01-2.03645E-01 3.00855E+01-4.61069E-02 1.53550E-02
 -1      3087-9.47778E-01-5.29317E-01-2.64620E-01 2.98986E+01 2.08356E-01 6.74096E-02
 -1      3088-4.44260E+01 6.25187E-01 1.88065E-01 3.00116E+01 3.37349E-01-3.16863E-01
 -1      3089-4.38613E+01 7.67722E-02-3.32197E-02 2.94515E+01-1.32681E-01-1.76549E-01
 -1      3090 4.34757E+01-3.12192E-01-7.34595E-02 2.95074E+01 9.26952E-02-2.63890E-01
 -1      3091 4.46095E+01-3.40579E-01-1.81254E-01 2.98896E+01-3.16656E-01-3.47062E-01
 -1      3092 6.16828E+01 1.45625E-01 3.28146E-01 2.93486E+01 1.17236E-01-3.82075E-01
 -1      3093 5.75531E+00-4.53328E-01 8.00627E-02 2.74550E+01-1.61862E-01 1.85074E-01
 -1      3094 6.08312E+01 1.85039E-01 2.28556E-01 2.73437E+01 3.52219E-01-7.06245E-01
 -1      3095-6.16824E+01-1.43086E-01-3.32271E-01 2.93585E+01-1.25652E-01-3.64080E-01
 -1      3096-5.72745E+00 4.81122E-01-5.19150E-02 2.74534E+01 1.68031E-01 1.65858E-01
 -1      3097-6.08135E+01-1.75645E-01-2.15011E-01 2.73838E+01-3.54326E-01-7.14673E-01
 -1      3098-2.02118E+02 1.89831E-01 2.00278E-01 1.32820E+01 1.81128E-01-2.85875E-02
 -1      3099-1.20591E+02-6.27715E-01-3.07253E-01 2.45324E+01-3.56271E-01 2.16821E-01
 -1      3100 2.02105E+02-2.30456E-01-2.34383E-01 1.32917E+01-2.04186E-01-3.31001E-02
 -1      3101 1.20611E+02 5.81045E-01 3.11738E-01 2.45252E+01 3.45671E-01 2.17618E-01
 -1      3102 6.24876E+02 7.21522E-01-8.19960E-02 1.43359E+01-3.49866E-01 5.21320E-01
 -1      3103-1.56792E+02-4.88371E-01-1.39542E-02 3.02649E+01-3.34942E-01-4.56519E-01
 -1      3104-5.94965E+02 3.67231E-01-1.66851E-01 1.44162E+01 3.67679E-01-4.86636E-01
 -1      3105-3.85561E+02-6.51729E-01 1.49641E-01 1.46404E+01 3.77738E-01 9.20665E-03
 -1      3106-1.00862E+02 5.68974E-01 1.00326E-01 3.00890E+01-3.15916E-01 4.10649E-01
 -1      3107 5.29474E+02 3.61604E-01-1.38155E-01 1.44395E+01-3.86521E-01 4.65062E-01
 -1      3108 1.38276E+02-4.64712E-01 9.21171E-03 3.02436E+01 3.27277E-01 4.31991E-01
 -1      3109 3.80155E+01 9.23136E-01 4.78355E-01 2.77879E+01-1.29558E-02-5.91126E-01
 -1      3110 1.41678E+02-2.51362E-01-6.73236E-02 1.48113E+01 8.62827E-02-1.34379E-01
 -1      3111 8.11221E+01-7.50974E-02-2.22449E-02 2.58167E+01 1.20226E-01-9.54140E-02
 -1      3112-3.70539E+01-6.74606E-01 8.59310E-02 2.82180E+01 1.97593E-01-7.43304E-01
 -1      3113-1.41694E+02 2.18298E-01-8.05604E-02 1.45264E+01-4.52513E-02-2.41514E-02
 -1      3114-8.09292E+01 5.18656E-02 3.73247E-02 2.59838E+01-8.48008E-02-1.62408E-01
 -1      3115-3.55601E+01-5.42823E-01-4.31094E-02 3.02199E+01 1.90730E-02-1.30660E-01
 -1      3116 3.53072E+01 6.37065E-01 1.00974E-01 3.00076E+01 5.64127E-02-1.82425E-01
 -1      3117 7.25697E+02 5.80181E-01 1.00717E-01 1.40427E+01 4.31757E-01 1.24471E+00
 -1      3118 4.62330E+02-6.57164E-01-2.66096E-01 2.57847E+01-4.55489E-02 9.80839E-01
 -1      3119 3.97861E+02 2.06925E-01-2.58658E-01 2.51449E+01 6.72108E-02 9.41681E-01
 -1      3120 4.99427E+02-3.97424E-01 1.26120E-01 1.44287E+01-4.09198E-01-4.82093E-01
 -1      3121-6.25223E+02-4.29894E-01 2.04647E-01 1.44304E+01 3.72480E-01 4.14876E-01
 -1      3122-1.64439E+02 5.12283E-01-5.32666E-02 3.01194E+01-3.55080E-01 5.15741E-01
 -1      3123 1.68089E-01 9.87110E-02-1.28695E-01 3.03966E+01 1.03627E+00-7.93912E-02
 -1      3124-1.86153E+02-7.74083E-01-2.58886E-01 3.00063E+01 1.83523E-01-4.34692E-01
 -1      3125-5.29672E+02-3.59381E-01 1.81279E-01 1.44082E+01 3.58264E-01 4.78891E-01
 -1      3126 1.30733E+02 4.45040E-01-6.25970E-03 3.02046E+01 3.55923E-01-4.60719E-01
 -1      3127-6.71917E+02-2.37857E-01-1.92874E-01 1.43677E+01-8.04288E-02-6.68707E-01
 -1      3128-6.92904E+02-5.28183E-01-1.61019E-01 1.31968E+01 3.07393E-01 4.20924E-01
 -1      3129 1.56757E+02 4.56030E-01-5.15871E-03 3.02580E+01 3.26779E-01-4.36222E-01
 -1      3130 5.95343E+02-3.80275E-01 1.14428E-01 1.44086E+01-3.87748E-01-4.78055E-01
 -1      3131 1.40417E+02 9.23350E-03 4.24996E-01 2.94675E+01 3.20701E-01-2.38903E-01
 -1      3132 1.41528E+02 3.89906E-01-8.92286E-02 2.96246E+01-1.14157E-01-2.59252E-01
 -1      3133 1.42665E+02 3.36946E-01 3.97639E-01 2.67812E+01 2.65411E-02 1.53546E-02
 -1      3134-5.67108E+02 2.79804E-01-2.11610E-01 1.40235E+01-4.32719E-02-9.39731E-01
 -1      3135-3.55514E+02 5.69594E-01-2.02534E-02 1.44068E+01 3.50004E-01-6.79708E-01
 -1      3136-1.27811E+02-1.33509E-01-3.09337E-01 2.93679E+01 1.10141E-01 4.16335E-01
 -1      3137-1.26986E+02-1.85400E-01-2.01983E-01 2.73717E+01 3.56636E-01 7.23043E-01
 -1      3138-1.48414E+01 5.24157E-01-2.33975E-03 2.74225E+01-1.74213E-01-1.80593E-01
 -1      3139 2.23829E+02 6.71884E-01 2.45715E-01 1.41195E+01 8.50645E-02 9.29513E-01
 -1      3140-2.22039E+02-3.13218E-01 2.29280E-01 1.40817E+01-1.12798E-01 8.19011E-01
 -1      3141-6.70493E+02 6.15358E-01 2.34102E-01 1.40350E+01-1.36081E-02-1.01916E+00
 -1      3142-1.94566E+02 1.41231E+00 9.87772E-01 2.95582E+01-2.63222E+00 1.18291E+00
 -1      3143 1.27854E+02 2.17262E-01 3.18445E-01 2.93727E+01-1.27578E-01 4.04208E-01
 -1      3144 1.26912E+02 1.85871E-01 2.20341E-01 2.74017E+01-3.50947E-01 6.80276E-01
 -1      3145 1.50595E+01-4.30131E-01 8.22384E-02 2.74397E+01 2.00162E-01-1.77214E-01
 -1      3146 6.70963E+02 5.79937E-01 1.94728E-01 1.40493E+01 1.85425E-02 1.04428E+00
 -1      3147-1.39665E+02 4.53412E-01-8.97803E-03 3.02271E+01-3.50006E-01 4.50182E-01
 -1      3148-4.27054E+02 2.01610E-01 2.40237E-01 1.32310E+01-2.09102E-01 4.10335E-02
 -1      3149-2.43623E+02-6.35039E-01-2.61930E-01 2.44184E+01 3.51718E-01-2.82164E-01
 -1      3150 4.27088E+02-2.24955E-01-1.61941E-01 1.32436E+01 2.06298E-01-1.43239E-02
 -1      3151 2.43608E+02 6.34896E-01 3.15094E-01 2.45100E+01-3.61429E-01-2.34647E-01
 -1      3152 9.01234E+02 6.84209E+01 1.93627E+02 4.59265E+01 5.02018E+00-2.12919E+00
 -1      3153 8.73140E+02 2.59441E+01 1.69339E+02 2.03465E+01-3.69574E+00-3.64721E+01
 -1      3154 8.42194E+02 1.57075E+00 9.32150E+01 3.56737E+01 4.68900E+00 3.39863E-02
 -1      3155 8.44617E+02 3.14670E+00 8.02560E+01 3.16888E+01 7.44607E+00-2.15203E+01
 -1      3156 5.53228E+02 1.05222E+02 1.24311E+02 4.81358E+01 3.72884E+00-2.10695E+01
 -1      3157-6.73349E+02-2.55851E-01 2.42017E-01 1.38318E+01-6.21004E-02 9.37804E-01
 -1      3158 5.65243E+02-6.20461E-01-2.44541E-01 1.40654E+01 2.56984E-02-1.03558E+00
 -1      3159-7.04682E+02-5.18561E-02 1.79782E-01 1.51005E+01-5.14645E-01 1.80583E+00
 -1      3160-7.38287E+02-4.21694E-01 5.23335E-02 1.50846E+01-1.27118E+00 2.56202E+00
 -1      3161 6.72182E+02-6.18668E-01-2.48052E-01 1.39625E+01 1.35704E-02-1.01287E+00
 -1      3162 3.86194E+01 1.19100E+00 3.35967E-01 2.74685E+01-1.46557E-01 6.85953E-01
 -1      3163 5.67951E+01-1.05462E+00-2.26709E-01 2.71219E+01-6.11860E-02-2.32587E-03
 -1      3164 4.95305E+01-1.36490E+00-3.90079E-01 2.76061E+01 9.87186E-02 5.54940E-01
 -1      3165 1.04075E+02 6.60414E-01 6.35543E-01 1.77784E+01 3.56285E-01 5.50461E-01
 -1      3166 3.28766E+02-4.13972E-01-2.76511E-01 1.39570E+01-1.75924E-01 8.13184E-01
 -1      3167 1.18788E+02 1.15032E+00 3.11345E-01 2.75374E+01-1.94367E-02 6.67767E-01
 -1      3168 2.67994E+02-6.60812E-01-5.75113E-01 1.77708E+01-1.90267E-01 7.21506E-01
 -1      3169 3.61274E+02 4.31227E-01 3.23633E-01 1.30576E+01-7.31992E-02 1.93879E-01
 -1      3170 1.45177E+02-9.56096E-01-2.91155E-02 2.68093E+01 1.02499E-01 6.77774E-01
 -1      3171 2.07774E+02-2.62101E-01-2.01953E-01 2.42909E+01-7.77862E-02 7.24726E-01
 -1      3172-4.47580E+02-4.78677E-01 3.26064E-01 2.60195E+01 1.77634E+00-1.99441E+00
 -1      3173-4.50668E+02 1.22680E-01-2.95322E-02 2.54551E+01 5.22505E-01-9.44682E-01
 -1      3174-4.60563E+02-6.33828E-01-2.22900E-01 1.41189E+01 7.87148E-02-9.26452E-01
 -1      3175 4.58769E+02 2.90994E-01-2.23700E-01 1.40785E+01-1.13861E-01-8.30942E-01
 -1      3176 5.72755E+01-1.04001E-01 2.16860E-01 3.04261E+01 1.20174E-01 1.34710E-01
 -1      3177-6.16913E+01-2.39133E-01 1.56781E-01 2.96020E+01 1.20638E-01-3.23335E-01
 -1      3178-5.73333E+01 9.95450E-02-2.40076E-01 3.03870E+01-1.23992E-01 1.65182E-01
 -1      3179 6.16634E+01 2.34554E-01-1.52566E-01 2.95680E+01-1.13785E-01-3.20122E-01
 -1      3180 2.19022E+02-1.29608E-01 1.43178E-01 1.43750E+01-1.33753E-01 6.73232E-01
 -1      3181 2.17871E+02 2.54865E-01 1.59867E-01 1.30812E+01 3.10987E-01-6.52203E-01
 -1      3182-2.19020E+02 1.62393E-01-1.41741E-01 1.43207E+01 1.21646E-01 6.84460E-01
 -1      3183-2.17882E+02-2.39339E-01-1.53248E-01 1.30635E+01-3.11143E-01-6.39489E-01
 -1      3184 5.65720E+02 6.12159E-01 2.10767E-01 1.40688E+01 3.45038E-02 1.03955E+00
 -1      3185 1.14383E+02-7.34600E-02 2.73241E-01 3.03084E+01-1.61611E-01-1.81803E-01
 -1      3186-1.27741E+02-1.97687E-01 1.61287E-01 2.95819E+01-1.52201E-01 3.71089E-01
 -1      3187-1.13509E+02 1.35180E-01-2.52212E-01 3.03714E+01 1.36603E-01-1.51743E-01
 -1      3188 1.28352E+02 2.17579E-01-2.12141E-01 2.95444E+01 5.07928E-02 2.75107E-01
 -1      3189 6.07537E+01-4.03903E-01 1.63656E-01 1.68315E+01 1.04211E-01 3.05825E-01
 -1      3190 9.59251E+00 4.72912E-01 2.67348E-01 2.94541E+01-1.88155E-01 5.90540E-01
 -1      3191 8.51682E+01 2.98016E-01-1.21680E-01 1.39321E+01 3.70739E-01-4.53717E-01
 -1      3192 2.69586E+01-7.22453E-01 2.15442E-01 2.81622E+01 4.25142E-02 8.44255E-01
 -1      3193 3.45712E+01-9.20596E-02-2.51653E-01 2.73857E+01-9.04419E-02 2.53588E-01
 -1      3194-5.69166E+02-6.05639E-01-2.22091E-01 1.38479E+01-2.58581E-02 1.01336E+00
 -1      3195-4.34613E+02 1.41262E-01-8.52853E-02 1.43253E+01-1.42796E-01-6.72656E-01
 -1      3196-4.42643E+02-2.60266E-01-1.27933E-01 1.30609E+01 3.09109E-01 6.86745E-01
 -1      3197-7.49768E+02-7.82830E-01-1.31694E+00 1.63239E+01-1.21518E+00 1.42437E+00
 -1      3198 4.34769E+02-1.58065E-01 1.10921E-01 1.42884E+01 8.78628E-02-7.03228E-01
 -1      3199 4.42806E+02 1.61726E-01 6.60765E-02 1.30827E+01-3.45929E-01 6.96879E-01
 -1      3200 7.49563E+02-3.78690E-01 1.15213E-01 1.38095E+01 1.69374E-01 1.15528E+00
 -1      3201 6.93871E+02-3.43653E-01-4.14369E-01 1.40446E+01-1.32856E-01 1.17061E+00
 -1      3202-1.75336E+01-9.98580E-01-6.92763E-02 2.58119E+01 1.60399E-01 6.44029E-01
 -1      3203-3.01663E+01-8.37135E-01-8.44227E-02 2.51807E+01 1.73475E-01 5.28779E-01
 -1      3204-8.12485E+02 1.44839E+00-2.79072E+01 2.18629E+01-4.74989E+00-2.52578E+00
 -1      3205-5.99266E+02 1.21954E+00-8.04901E+00 3.07733E+01 3.56225E-01-2.90058E-01
 -1      3206-7.67135E+02 1.77839E+00-3.87484E+00 1.61775E+01-9.42790E-01 1.71714E+00
 -1      3207 1.44066E-01 1.87551E+00-9.84750E-02 2.88251E+01 1.65852E+00-1.67895E-01
 -1      3208 1.18666E+00-6.31137E+00-5.72023E-01 2.83585E+01 2.02789E+00-1.46453E-01
 -1      3209 1.26149E+00 1.05651E+00-7.53219E-02 2.74653E+01 1.42730E+00-1.01235E-01
 -1      3210 4.64680E+00-4.40516E+00-4.14779E-01 2.60621E+01 1.32543E+00-7.61260E-03
 -1      3211 6.48422E+00 5.90115E-01-2.47620E-01 3.00809E+01 8.84069E-01-2.77824E-01
 -1      3212 2.60122E+02-1.22293E+00-3.12246E-01 2.78421E+01 3.07532E-01 8.04804E-01
 -1      3213 3.12428E+02-1.17898E+00-2.93859E-01 2.70046E+01 9.77505E-02 1.16029E-01
 -1      3214 2.49230E+02 1.26766E+00 2.26683E-01 2.75684E+01-9.77597E-02 7.57121E-01
 -1      3215-6.14133E+02-6.66556E-01-3.46437E+01 3.11995E+01 4.88966E-01 1.37712E-02
 -1      3216-8.41699E+02-2.91068E+00-5.75321E+01 2.48147E+01 6.20535E+00 7.98622E+00
 -1      3217-8.21486E+02 1.51194E+00-2.88594E+01 2.10063E+01 4.80587E+00 3.80247E+00
 -1      3218-1.21204E+00 4.26042E+00-7.06889E-02 2.82597E+01 1.96251E+00 1.95299E-01
 -1      3219-4.43712E+00 3.01135E+00 4.16204E-01 2.60133E+01 1.37034E+00-4.70580E-02
 -1      3220-2.38309E+00 1.45409E-01 5.15334E-01 3.16302E+01 8.02665E-01 1.60400E-01
 -1      3221-7.42380E+00-1.37027E+00 9.10345E-02 2.94287E+01 9.13904E-01 5.95427E-01
 -1      3222-8.30866E+02-3.44848E-01-5.78031E+01 2.33271E+01-6.13692E+00-5.48146E+00
 -1      3223-2.56909E+01-2.17954E-01 3.50143E-01 1.84888E+01 5.55731E-01-2.05749E-02
 -1      3224-3.45391E+01 5.30402E-01 4.45764E-01 1.85364E+01 3.17266E-01 1.16890E-01
 -1      3225-2.68904E+01 1.59603E-02 8.03544E-01 1.37609E+01-1.80028E-02 1.09141E-01
 -1      3226-4.00033E+01-4.99721E-01-1.08870E-01 1.40980E+01 2.93140E-01-5.65915E-01
 -1      3227 1.03185E+01-1.25585E+00-6.41172E-01 2.86333E+01-2.21772E-01-7.71144E-01
 -1      3228 5.13693E+01 8.99158E-01-2.08801E-01 1.49483E+01-2.51097E-02-1.76863E-01
 -1      3229 2.12580E+01 9.49246E-01 2.67721E-01 2.65099E+01 1.56376E-01-1.86852E-01
 -1      3230-3.00122E-01-2.18207E-01-2.65903E-02 3.03947E+01-2.25789E-01-1.70065E-01
 -1      3231-8.37883E+01 6.14343E-01 2.97162E-01 3.02372E+01 1.92941E-01-2.57597E-01
 -1      3232 2.47375E+01 3.75161E-01 1.32133E-01 2.85886E+01-4.70117E-02-6.15630E-02
 -1      3233 3.04769E+02-4.61849E-02-4.49173E-01 2.71115E+01-4.97245E-01 1.42841E-01
 -1      3234 2.30770E+02-4.62366E+00 5.48438E+00 2.88252E+01 1.02775E+01-1.03705E+00
 -1      3235-1.71866E+01 8.38591E-02 5.69446E-02 3.57460E+01 1.03937E+01-3.93821E-01
 -1      3236 1.95464E+02-1.92732E+00-1.30106E+00 2.57687E+01 5.68748E+00 2.48724E+00
 -1      3237-2.08050E+01 5.09005E-01-6.98070E-01 3.45690E+01 1.16746E+01 6.66059E-01
 -1      3238-2.32502E+02 4.41316E+00-6.94651E+00 2.88071E+01 1.09909E+01 1.28990E+00
 -1      3239-2.40710E+02-8.69874E+00-1.20015E+01 2.52096E+01 1.37489E+01 5.13013E+00
 -1      3240 9.96335E+01 1.04501E+00 5.70333E-01 1.41473E+01-4.44852E-01 4.12432E-01
 -1      3241 3.20358E+02 8.05276E-01 3.72590E-01 1.40382E+01-2.92980E-01 4.68480E-01
 -1      3242 8.92804E+01-8.13957E-01 3.63593E-01 2.79779E+01-2.34952E-01 6.52943E-01
 -1      3243 3.06192E+02 2.97731E-01-1.24807E-01 1.39041E+01 4.21993E-01-4.98180E-01
 -1      3244 3.96863E+02-2.32856E-01 1.42995E-01 1.30095E+01-3.99551E-01-5.14740E-01
 -1      3245 1.20147E+02 8.39966E-01-2.10380E-01 2.72246E+01 2.41932E-01 8.28497E-01
 -1      3246 3.81977E+02-1.09503E+00-5.98334E-01 1.32440E+01 3.05945E-01 4.02043E-01
 -1      3247 4.21565E+01 3.00403E-01 3.55192E-02 2.93926E+01 9.62220E-02 1.55320E-01
 -1      3248 4.19547E+01 9.00285E-01 4.84790E-01 3.02975E+01-1.95750E-01 3.29027E-01
 -1      3249 4.17503E+01 1.15297E+00-1.12051E-02 2.77826E+01-8.35741E-02 8.36798E-01
 -1      3250 1.45887E+02-7.36538E-01-1.85190E-01 1.40388E+01 2.26789E-01 3.22599E-01
 -1      3251 1.60805E+02-3.26978E-01-1.78451E-01 1.41425E+01-3.07466E-01-5.07865E-01
 -1      3252 1.20595E+02 4.14930E-01 1.82556E-01 2.91088E+01 3.73644E-02 3.73310E-01
 -1      3253 1.19807E+02 6.70623E-01 4.15908E-01 2.96308E+01-1.16661E-01 4.36974E-01
 -1      3254 8.91824E+01-5.66113E-01-4.18097E-01 3.00181E+01 1.21980E-01 3.54000E-01
 -1      3255 8.88010E+01-3.99697E-01-1.66142E-01 2.94903E+01-6.23338E-02 2.15603E-01
 -1      3256 1.43018E+01-5.70375E-01 6.31187E-02 3.01439E+01-1.51701E-01-1.41291E-01
 -1      3257 9.06242E+01 3.19505E-01-2.32513E-01 1.40513E+01-1.32374E-01-8.63018E-01
 -1      3258-3.01873E+02 4.43863E-01 2.00117E-01 1.36439E+01-2.59591E-01 4.12508E-03
 -1      3259-1.77651E+02-3.57511E-01-5.11995E-01 2.44538E+01 3.22584E-01-1.45944E-01
 -1      3260-6.77708E+01-3.46841E-01 7.01374E-02 1.84816E+01-7.04505E-01-1.86085E-01
 -1      3261-5.59980E+01-3.10566E-01-6.70349E-02 1.85980E+01-2.69236E-01-4.14554E-01
 -1      3262-7.51141E+01 3.62752E-01 1.25784E-02 1.38467E+01 3.56610E-01 1.78524E-02
 -1      3263-2.23223E+01-2.00123E-01 6.10503E-01 2.73338E+01-2.06012E-01-1.07307E+00
 -1      3264-9.01201E+01 5.34691E-02 1.51986E-01 1.39166E+01-1.73169E-01 3.05967E-01
 -1      3265 2.31690E+02 7.19863E+00 1.02988E+01 2.47565E+01 1.19226E+01-1.53907E+00
 -1      3266 3.99179E+01-4.83042E-01 1.78652E-02 3.03388E+01 2.12625E-02 1.55995E-01
 -1      3267 3.73712E+01-7.14917E-01-6.10875E-01 2.83108E+01-1.08752E-01 4.89835E-01
 -1      3268 8.17223E+01 8.94446E-02 1.13972E-01 2.58999E+01 2.02798E-03 2.09795E-01
 -1      3269 1.64233E+02 6.53769E-01 4.25458E-01 1.50969E+01-6.99770E-02 2.30740E-01
 -1      3270 5.74051E+02 5.88118E-01 4.41525E-01 1.79241E+01 4.39099E-01 8.27982E-01
 -1      3271 6.64712E+01-4.01265E-01 5.80361E-02 1.71242E+01 3.52034E-01 8.81186E-01
 -1      3272 9.08039E+01 6.75767E-01 9.13320E-02 1.36982E+01-2.10366E-02 1.01825E+00
 -1      3273 8.05748E+02 1.28881E-01 4.00580E-01 1.33214E+01-5.16714E-02-1.96568E+00
 -1      3274 2.06344E+02-2.59517E-01-2.36689E-01 2.81367E+01 1.20092E+00 5.55943E-01
 -1      3275 2.06032E+02 6.26548E-01 4.00710E-01 2.96603E+01 3.20304E-01 5.82430E-01
 -1      3276 2.06480E+02 7.43483E-01-6.07099E-01 2.91199E+01 7.88234E-01 9.36227E-01
 -1      3277 1.91449E+02-4.27074E-01-2.26300E-01 2.99916E+01 1.28439E-01 4.26374E-01
 -1      3278 7.50224E+02-4.77297E-01 8.45013E-02 1.43839E+01-4.47342E-02-3.06496E-02
 -1      3279 7.34809E+02-7.50569E-01-6.70226E-01 1.42568E+01 4.42385E-01 7.62121E-01
 -1      3280 6.87512E+02 9.61955E-01 4.21703E-01 1.42744E+01-4.33359E-01 4.39404E-01
 -1      3281-8.24438E+02-1.14587E+00-2.78256E+01 2.00231E+01-6.47412E+00-7.63111E+00
 -1      3282-5.10592E+02 5.71855E+00-9.72386E+00 2.26930E+01-1.20583E+01 2.97035E+00
 -1      3283-8.41956E+02 3.98418E+00-7.92210E+00 9.38128E-01-3.44292E+00 1.79399E+00
 -1      3284-7.72298E+02 2.20405E-01-7.47385E+00 1.43600E+01-3.32822E+00 2.45869E-01
 -1      3285-4.71773E+02 5.68787E-01-1.04729E+00 1.87853E+01-4.26980E+00 4.02228E+00
 -1      3286-2.84641E+01-4.55284E-01 5.50164E-01 1.30565E+01 4.92099E-02-2.64142E-01
 -1      3287-1.28044E+01-9.67750E-02-2.87446E-01 2.90626E+01 5.24149E-01-1.03597E+00
 -1      3288-3.73066E+01-6.81533E-01 1.65612E-01 1.46498E+01 3.12940E-02-5.90047E-02
 -1      3289-1.87441E+01-9.53327E-01 3.03784E-02 2.67182E+01-4.02130E-01-3.78059E-01
 -1      3290-3.09074E+01-2.00555E-01 6.76797E-01 1.35819E+01 8.06498E-02 8.80528E-01
 -1      3291-3.79251E+01-2.76648E-01 2.54261E-01 1.33867E+01-7.15831E-02 8.30029E-01
 -1      3292-4.69411E+01-4.59273E-01 1.84659E-01 1.31659E+01 1.77790E-01 8.09406E-01
 -1      3293 3.14150E+01 2.19523E-01-5.84828E-01 1.33839E+01-7.72393E-03 8.92612E-01
 -1      3294 3.94533E+01 4.83470E-01-4.30790E-02 1.67595E+01-1.40892E-01 8.10294E-01
 -1      3295 8.79381E+02 4.24627E+01 1.81066E+02 2.82998E+01-2.67756E+00 3.53116E+01
 -1      3296 5.52867E+02 1.09516E+02 1.18672E+02 4.60243E+01-7.74316E+00 1.97965E+01
 -1      3297 8.49614E+02-3.09999E+00 8.39226E+01 3.73849E+01-7.05798E+00 2.00453E+01
 -1      3298 5.57671E+02 9.89435E+01 1.19299E+02 5.09563E+01-1.45967E+00-6.31161E-01
 -1      3299 4.84874E+00-3.73846E+00-9.38264E-01 2.55085E+01 2.99406E-02-1.54089E-01
 -1      3300 5.03736E+00-2.58913E+00-9.53948E-01 2.58444E+01-9.20697E-01 6.50729E-01
 -1      3301-3.27438E+02-1.16712E-01 1.88668E-01 1.37440E+01-4.54044E-02-9.76319E-01
 -1      3302-3.41219E+02-3.75511E+01-6.00245E+01 2.74923E+01-6.64506E+00-1.17133E+01
 -1      3303-4.96498E+02 2.74428E-01-4.25488E+01 5.66128E+01-7.26226E-01-1.13053E+00
 -1      3304 7.41156E+02-1.85807E+00 4.85050E+00 1.79004E+01-1.56160E+00-1.76886E+00
 -1      3305 1.55212E+02 3.38009E+00 1.15124E+00 4.23995E+01-2.94150E+00-2.11716E+00
 -1      3306 4.03841E+02-3.03627E+00 8.06257E+00 3.67900E+01-8.06782E+00 4.25596E-01
 -1      3307 3.76094E+00-4.56437E-01-2.06946E-01 2.67382E+01 7.50229E-01-4.99185E-01
 -1      3308 1.48647E+02-1.42174E-01 1.30137E-01 1.42501E+01-7.91004E-02-1.14111E+00
 -1      3309 1.62237E+02 2.61520E-01 2.17260E-02 1.42668E+01 1.27605E-01-7.57357E-01
 -1      3310-1.48543E+02 1.33811E-01-1.42201E-01 1.42465E+01 8.85847E-02-1.24254E+00
 -1      3311-1.62213E+02-2.62035E-01 9.63316E-04 1.43094E+01-1.00257E-01-8.60566E-01
 -1      3312-9.08245E+01 1.36034E-01 2.41802E-01 2.64753E+01 1.45673E-01-4.04996E-01
 -1      3313-1.02394E+02-1.93758E-01-3.01484E-02 2.62201E+01-1.06987E-01-4.92198E-01
 -1      3314 9.09179E+01-1.67381E-01-2.06417E-01 2.64265E+01-1.51827E-01-3.55525E-01
 -1      3315 1.02367E+02 1.63932E-01 5.21493E-02 2.61244E+01 8.27372E-02-4.88886E-01
 -1      3316 1.72950E+02-1.81864E+00-1.26695E+00 2.68588E+01-6.36069E+00-2.17044E+00
 -1      3317-1.10970E+00 4.33904E+00 5.30877E-02 2.82092E+01-1.80196E+00-1.91250E-01
 -1      3318 6.60421E-02 1.77294E+00-3.36276E-02 2.87466E+01-1.62870E+00 1.57953E-01
 -1      3319-2.25984E+00 1.87432E-01 4.83247E-01 3.15502E+01-8.03621E-01-7.70205E-02
 -1      3320-4.48426E+00 3.31207E+00 4.83992E-01 2.58514E+01-1.10602E+00-4.79772E-02
 -1      3321-7.39541E+00-1.33146E+00-1.27796E-02 2.93989E+01-8.06820E-01-5.90276E-01
 -1      3322 8.25870E+02 3.92773E+00 2.84804E+01 2.05368E+01 7.28409E+00-8.54144E+00
 -1      3323 5.10731E+02-5.49424E+00 9.12056E+00 2.27332E+01 1.17480E+01 1.89411E+00
 -1      3324 8.43888E+02-4.63298E+00 7.35969E+00 8.54917E-01 3.91336E+00 1.27628E+00
 -1      3325 7.67052E+02 1.27269E-01 8.17982E+00 1.44254E+01 3.16563E+00-6.18989E-01
 -1      3326 4.66674E+02-8.68314E-01 1.04462E+00 1.94316E+01 3.92531E+00 4.54155E+00
 -1      3327 2.55654E+01-1.34619E-01-3.32804E-01 3.00290E+01-1.72763E-01 3.19506E-01
 -1      3328 3.43874E-01-6.67301E-03 2.03069E-01 3.03722E+01-1.76297E-01-1.39037E-01
 -1      3329-2.38410E+01-3.91382E-01-3.47932E-01 2.98064E+01-2.18961E-01-2.85819E-01
 -1      3330 1.87299E+00-1.82916E-01-2.46670E-01 2.74086E+01 1.38376E-01-7.68628E-03
 -1      3331 2.74669E+01-3.60503E-01 6.71790E-02 3.04417E+01-7.79338E-02 2.53735E-01
 -1      3332-2.40216E+01 2.01367E-01 1.58668E-01 2.97695E+01 2.85863E-01-2.45224E-01
 -1      3333-6.53805E+00 2.86335E-02 2.86543E-01 3.12609E+01-4.30554E-01-1.64250E-01
 -1      3334 1.21604E+00 3.48295E-01 9.28450E-02 2.95442E+01-7.32237E-01 1.07635E-01
 -1      3335 2.85562E+02-2.74300E-01 2.69826E-01 1.44388E+01 1.83025E-01 3.47499E-02
 -1      3336 7.54656E+01 7.36651E-01 2.93643E-01 2.77953E+01 1.61467E-03 7.62161E-01
 -1      3337 1.64176E+02-1.14942E-01-2.30533E-01 2.55582E+01-6.34518E-02 1.84736E-01
 -1      3338 1.00087E+02-6.43100E-01-4.71086E-01 2.75943E+01 3.04390E-03 9.56708E-01
 -1      3339 3.84368E+02 3.59406E-01-3.18626E-01 1.44759E+01-1.48790E-01-6.00517E-02
 -1      3340 2.21149E+02 1.76082E-01 2.60445E-01 2.47872E+01 6.21838E-02 2.23462E-01
 -1      3341 7.32838E+01 2.83052E-01-2.05374E-01 2.98397E+01-1.15229E-01 1.57197E-01
 -1      3342 1.02820E+02-3.23770E-01 2.57180E-01 2.97550E+01 1.33095E-01 2.97907E-01
 -1      3343-3.16221E+02-1.91331E-01-8.71381E-02 1.42744E+01-1.63409E-02-3.06815E-01
 -1      3344-3.18651E+02-5.37211E-01-1.92526E-01 1.33368E+01 2.54050E-01 2.92081E-01
 -1      3345-8.55072E+02-2.63399E+01-1.64735E+02 1.72584E+01-3.98563E+00 3.60327E+01
 -1      3346-8.83269E+02-7.20269E+01-1.90646E+02 4.02243E+01 3.26601E+00 2.09337E+00
 -1      3347-8.54114E+02-3.15129E+00-8.21448E+01 3.14582E+01 7.63613E+00 2.35060E+01
 -1      3348-8.51339E+02-3.15113E+00-9.63488E+01 3.63707E+01 5.36145E+00 4.73798E-01
 -1      3349-5.47482E+02-1.04754E+02-1.26305E+02 4.67325E+01 4.20036E+00 2.24863E+01
 -1      3350 1.77687E+01 1.11679E+00 3.58417E-02 2.60178E+01-1.20890E-01 7.33280E-01
 -1      3351 3.93454E+01 4.99559E-01 6.01792E-03 1.34405E+01-2.58142E-02 7.61612E-01
 -1      3352 2.25662E+01 4.63462E-01 1.63424E-01 2.81132E+01-2.88719E-01 4.21463E-01
 -1      3353 2.40234E+02 1.85288E+01 1.76029E+01-2.51773E+01 5.59534E+00-1.81309E+01
 -1      3354-2.17580E+01 2.36774E+01 2.10655E+01-3.00746E+01 1.00546E+00-8.02428E+00
 -1      3355-3.97057E+02-2.32479E+01-2.27059E+01 1.88605E+01 1.78384E+01 1.09567E+01
 -1      3356-1.29669E+02 6.34601E+00 5.75518E+00 1.24001E+01 1.48101E+01 6.37340E-01
 -1      3357-9.15370E+01 1.56730E+00-6.71013E+00 1.50501E+01 1.42455E+01 5.29291E+00
 -1      3358-7.49909E+02 1.72874E+00-4.58123E+00 1.74350E+01 1.52868E+00-1.79097E+00
 -1      3359-2.08106E+02-3.44838E+00-1.55183E+00 4.13033E+01 3.58823E+00-2.44253E+00
 -1      3360-4.24441E+02 2.06206E+00-9.23168E+00 3.57214E+01 8.15791E+00 3.86412E-02
 -1      3361 1.07689E+01-7.06607E+00-3.16061E+00 1.14268E+01 4.66424E-02 2.28184E-01
 -1      3362 1.14941E+01-7.34950E+00-2.80213E+00 1.10313E+01 3.09263E-01-6.07917E-01
 -1      3363 1.86056E+01 8.87709E-01-8.64125E-01 1.41379E+01 2.34267E-02 1.02115E-01
 -1      3364 1.94051E+01 6.60300E-01-8.48836E-01 1.35198E+01 3.99112E-02-8.57545E-01
 -1      3365 5.48078E+00-7.08335E+00-2.53648E+00 2.38400E+01 4.72330E-01-2.67695E-01
 -1      3366-1.74789E+02 1.76013E+00 1.33817E+00 2.66119E+01 5.93106E+00-1.86038E+00
 -1      3367-3.81302E+00-4.17892E-03-9.83587E-02 2.79526E+01-1.91307E-02 1.33081E-02
 -1      3368-1.61728E+02-1.69228E-02 3.71493E-01 2.99291E+01-1.05135E-01 8.61454E-02
 -1      3369 1.76320E+02 1.50278E-01 5.77633E-02 3.00513E+01-2.55747E-01-2.40613E-02
 -1      3370 1.22926E+01 1.37667E-01-6.17981E-01 2.80776E+01 1.62117E-02-1.75535E-01
 -1      3371 2.01151E+01-8.55009E-01-3.83565E-02 2.74043E+01-5.44677E-03-7.60241E-02
 -1      3372 3.61549E+02 2.97505E-01-5.81590E-02 2.59927E+01-2.33872E-01-5.51709E-01
 -1      3373 1.84408E+02-5.49303E-01-2.85514E-01 2.97901E+01 1.94861E-01-2.97523E-01
 -1      3374 7.47391E+00 3.10705E-01-4.86798E-01 3.11890E+01-2.78699E-02-2.69585E-01
 -1      3375-1.12346E+02 4.66606E-01-1.69692E-01 1.45559E+01 2.11716E-01 4.83342E-01
 -1      3376-5.05274E+01 7.57912E-02 4.02367E-01 2.61301E+01 2.31210E-02-8.26458E-02
 -1      3377-1.12938E+02 2.30636E-01-4.63346E-01 1.43252E+01-7.95901E-02-2.92725E-01
 -1      3378-1.25438E+02 5.66088E-02 1.40993E-01 1.43027E+01 1.38561E-01-7.43136E-02
 -1      3379-6.25844E+01-8.86540E-02-3.29762E-01 2.63629E+01 8.04647E-02-4.56904E-01
 -1      3380-6.06930E+01 2.05936E-01 1.45348E-02 2.62954E+01 2.70243E-01-3.81188E-01
 -1      3381-2.53829E+01-2.41420E-01 3.12408E-02 3.01268E+01-7.92812E-02 1.33728E-01
 -1      3382 2.67541E+01 3.26158E-01 2.10724E-01 2.98396E+01-1.10082E-01-1.27429E-01
 -1      3383-4.28637E-01-4.48119E-01-4.88766E-01 2.83066E+01 1.39668E-01 2.74751E-02
 -1      3384 6.74730E+00-8.55162E-01-5.43853E-02 2.74923E+01 3.76702E-02-1.25443E-01
 -1      3385 6.23118E+01 5.26271E-01 4.57370E-01 2.61236E+01-3.01324E-02-4.27765E-01
 -1      3386 3.45735E+01-3.74873E-01 5.19515E-02 2.99700E+01 2.74246E-01-2.46561E-01
 -1      3387-3.30448E+02 2.84203E-01-1.97823E-02 2.68234E+01-1.11837E-01 5.68689E-01
 -1      3388-1.68630E+02 1.68114E-01 1.43598E-01 3.00752E+01-3.93153E-01 2.11496E-01
 -1      3389 1.42759E+01-7.35742E-01-7.99581E-01 2.82070E+01-4.65709E-01-6.64737E-02
 -1      3390-5.75600E+01-2.14578E-01-5.17819E-02 2.77268E+01-1.73507E-01 2.62736E-02
 -1      3391-1.50740E+02 3.63110E-01-1.69368E-01 2.48462E+01-1.03175E-01 1.34909E-01
 -1      3392-9.95535E+01 6.98115E-01 2.79308E-01 2.48402E+01 3.41126E-01-2.11677E-01
 -1      3393 1.88663E+01 8.18711E-02 7.06297E-02 2.75867E+01-2.02797E-01-9.90266E-03
 -1      3394-1.88438E+01-3.50770E-01-1.02838E-01 2.76361E+01 1.29009E-01-4.62445E-02
 -1      3395 9.96235E+01-5.50449E-01-1.74141E-01 2.48490E+01-2.12386E-01-1.51643E-01
 -1      3396-2.73756E+01-6.66491E-01-1.98264E-01 2.75941E+01-2.78243E-01 7.61751E-03
 -1      3397-2.01113E+01 2.38304E+01 2.27071E+01-3.11048E+01-3.29448E-01 8.25710E+00
 -1      3398 2.41668E+02 1.85353E+01 1.72761E+01-2.62649E+01-5.36314E+00 1.89390E+01
 -1      3399-8.19919E+01 1.63064E+00-6.21434E+00 1.63391E+01-1.43828E+01-5.75585E+00
 -1      3400-1.19624E+02 9.02808E+00 9.28467E+00 1.30080E+01-1.39326E+01 1.37390E-01
 -1      3401-3.88727E+02-2.21804E+01-2.21885E+01 2.05116E+01-1.84102E+01-1.12659E+01
 -1      3402-1.21070E+02-1.10156E-01 7.72331E-01 1.42998E+01-7.07339E-02 3.50171E-01
 -1      3403-5.66673E+01 4.77618E-01 4.52571E-03 2.63490E+01 1.10826E-01 2.76693E-01
 -1      3404-6.86440E+01 2.97767E-01-1.23460E-01 2.61881E+01-1.21585E-01-8.71798E-02
 -1      3405-3.19497E+01 2.92279E-01 1.11658E-02 3.00745E+01 2.51412E-02 1.21456E-02
 -1      3406 9.35028E-01-1.34771E-01-9.33645E-01 2.81276E+01-3.15136E-01 1.61791E-01
 -1      3407-3.73368E+01-2.01919E-01-1.12316E-01 2.76413E+01-1.61842E-01 4.00487E-02
 -1      3408-2.70809E+01 1.15533E-01-7.62622E-02 3.16658E+01-2.84431E+00 6.28462E-01
 -1      3409 2.24633E+01-1.07357E-01 4.93014E-02 2.89430E+01 3.85293E-02-9.98782E-02
 -1      3410-3.39118E+02 6.09768E-01 2.08131E-01 2.49109E+01-2.63932E-01 4.08049E-02
 -1      3411 9.72991E+01 5.87655E-01 2.92943E-01 2.66300E+01-3.32316E-01 6.44430E-01
 -1      3412 9.65170E+01-2.89275E-01 1.24624E-01 2.58117E+01 2.12832E-01 5.39723E-01
 -1      3413 1.58042E+02 5.65883E-01 7.95454E-02 1.49557E+01-3.80319E-01 9.58302E-01
 -1      3414 1.55016E+02-4.50467E-01-4.88370E-03 1.35668E+01 4.47282E-02 9.69318E-01
 -1      3415 1.92381E+02-5.62821E-01 4.26864E-02 3.07028E+01 1.83123E+00 1.67768E+00
 -1      3416 7.43415E+02 3.29557E-01 1.01214E+00 1.59588E+01 1.47549E+00 1.17874E+00
 -1      3417 3.98245E+02 2.19065E-01-3.57606E-02 2.65117E+01 1.60134E+00 1.48690E+00
 -1      3418 2.13289E+02-6.20428E-01-1.81330E-01 2.48668E+01 3.11737E-01 1.67834E-01
 -1      3419-1.12342E+01 7.45620E+00 2.89110E+00 1.13475E+01 3.22627E-01 6.46346E-01
 -1      3420-1.06815E+01 7.21104E+00 3.21485E+00 1.17681E+01 1.95692E-02-2.04269E-01
 -1      3421-1.91168E+01-6.23651E-01 9.36322E-01 1.30181E+01 1.55523E-01 7.87131E-01
 -1      3422-1.81410E+01-5.88352E-01 1.10632E+00 1.36365E+01 4.87166E-02-1.13150E-02
 -1      3423-5.39243E+00 7.28998E+00 2.46496E+00 2.37887E+01 4.30149E-01 2.14990E-01
 -1      3424-6.81475E+02 1.57738E-01 1.05989E+00 1.46131E+01-1.79565E-01 3.67895E-01
 -1      3425-6.72226E+02-7.49929E-03-1.70064E-01 1.48267E+01-1.38698E-01 4.53277E-01
 -1      3426-6.98157E+02-2.82336E-01 2.22980E-01 1.42376E+01 3.82793E-01-2.86808E-01
 -1      3427-3.46922E+02-1.61596E-01-2.46741E-01 2.64165E+01 2.21125E-01-2.13876E-01
 -1      3428-3.54667E+02-3.49884E-02 3.13145E-03 2.63082E+01 1.39215E-01-3.65247E-02
 -1      3429-2.13172E+02 5.94526E-01 2.75020E-01 2.47956E+01-2.75682E-01 1.47984E-01
 -1      3430 3.74339E+01 2.13088E-01 1.24448E-01 2.76800E+01 1.55133E-01 1.42073E-03
 -1      3431 4.19382E+01 1.92808E-01 8.79890E-02 2.72527E+01-8.97119E-02-2.65763E-03
 -1      3432-2.39174E+02 2.62388E-01 2.39431E-01 2.48179E+01 1.83511E-01-1.39536E-01
 -1      3433 3.67639E+02 1.45321E+00 2.89117E+00 3.10307E+01 7.11865E-02 2.66254E-01
 -1      3434 1.93523E+02-1.21782E+00-7.86868E-01 2.93631E+01 2.48267E+00 1.08433E+00
 -1      3435 8.27605E+01 3.18686E-01 1.62998E-01 2.98922E+01-3.74991E-01-1.02135E-01
 -1      3436 4.04614E+00 5.66532E-01 1.72571E-03 2.73126E+01-1.54381E-01-1.06442E-01
 -1      3437-8.25960E+01-4.43042E-03-2.12855E-01 2.99297E+01 3.45945E-02 1.62396E-01
 -1      3438 9.08019E+01-2.46382E-01-2.04885E-01 3.01193E+01 1.65663E-01-3.63469E-02
 -1      3439 1.12819E+01 1.54508E-01 4.69733E-01 2.81120E+01-2.28339E-01-2.38083E-01
 -1      3440 1.73805E+02-7.40836E-01-3.81650E-01 2.59391E+01-1.50600E-02-3.32498E-01
 -1      3441-3.36128E+02-2.54231E-01 6.32624E-01 2.57905E+01-5.16585E-01 3.54925E-02
 -1      3442-6.85672E+02 8.76391E-01 5.41480E-02 1.40610E+01-3.44561E-01-5.30194E-01
 -1      3443-3.60653E+02-1.57039E-01-1.36765E-01 2.60942E+01 3.30085E-01-4.30346E-01
 -1      3444 1.66418E+00 1.11442E+00-1.38867E-01 2.70135E+01-1.25847E+00-1.26280E-01
 -1      3445 5.96327E+00-9.67466E-01-7.30276E-01 3.03441E+01-7.63863E-01 2.14030E-01
 -1      3446-2.77773E+02-5.71396E+01-2.93441E+01-3.08656E+01 1.48873E+00 2.10994E+01
 -1      3447-3.86065E+02-5.79374E+01-6.67750E+01 1.67841E+01 8.85106E+00 3.12436E+01
 -1      3448 2.33270E+02-5.59944E-01 4.09124E-02 1.40499E+01-3.53812E-01 2.17752E-01
 -1      3449 1.07864E+02 9.18533E-03-4.24462E-01 2.61107E+01-5.79196E-01 6.10014E-03
 -1      3450 2.25704E+02 1.31421E-01 2.92819E-01 1.51356E+01-1.00429E-01-5.72758E-02
 -1      3451 2.56490E+02 1.01339E-01-6.71895E-02 1.32086E+01 6.38576E-02 4.74580E-01
 -1      3452 1.27792E+02-3.43145E-02-1.10662E-01 2.56228E+01 1.23989E-02-6.02857E-02
 -1      3453 1.36086E+02 1.04864E-01-2.27358E-01 2.56580E+01 1.04775E-01 4.89979E-01
 -1      3454-5.09035E+01-1.11708E-01 1.75024E-01 3.02881E+01 1.19073E-01 5.94292E-02
 -1      3455 5.85016E+00 1.33319E-01-5.13538E-01 2.77682E+01-8.31752E-02 1.76411E-01
 -1      3456 5.83492E+01 9.82296E-02 3.08795E-02 2.99535E+01 3.83878E-01-3.17339E-02
 -1      3457 7.75154E+01-2.05807E-01 8.23259E-02 2.98927E+01-9.80969E-02 1.44122E-01
 -1      3458 2.41803E+01-2.90647E-01 1.25648E-01 2.73258E+01-3.68106E-01 4.10806E-02
 -1      3459-7.00075E+01 5.22194E-01 3.86109E-01 1.39852E+01 1.02215E-01-2.71940E-02
 -1      3460-4.01786E+01 1.76153E-01-3.78803E-01 2.43395E+01 3.89112E-01-3.10730E-01
 -1      3461 1.45511E+02 1.05740E+00 3.01599E-01 2.70509E+01 2.00739E-01 2.80366E-02
 -1      3462 2.70091E+01 3.03360E-03 2.20126E-02 3.03190E+01 4.72471E-02-2.71108E-01
 -1      3463 1.53784E+02-2.48051E-01 3.63194E-01 2.70670E+01 1.38387E-01-2.13288E-03
 -1      3464-2.25821E+01-1.44354E-01-3.83418E-01 2.81583E+01 3.18848E-01-3.01882E-01
 -1      3465-1.28319E+02 1.90626E-01 1.32381E-01 2.98261E+01-3.12730E-01-1.13629E-01
 -1      3466 1.10847E+02-1.50783E-01 1.02608E-01 3.03416E+01-1.42993E-01 1.39370E-01
 -1      3467-3.68689E+01-4.26122E-01 1.96525E-01 2.75179E+01 4.13813E-01-4.05422E-01
 -1      3468-1.41370E+02-1.22295E-01 5.19566E-02 2.98151E+01 1.46918E-01-1.90589E-01
 -1      3469-2.73151E+02 2.35993E-01-1.18072E-01 2.52600E+01-9.32474E-02-8.55928E-01
 -1      3470 4.84512E+02 4.36676E-01-1.22277E-01 1.39947E+01-3.92107E-01-1.74543E-01
 -1      3471 2.40768E+02 2.23368E-01 5.15011E-01 2.63826E+01-5.47172E-01-1.03128E-01
 -1      3472 4.63185E+02 2.12827E-02-2.31178E-01 1.48199E+01 6.94059E-04 2.60622E-01
 -1      3473 4.93472E+02-2.37170E-02 2.02959E-01 1.32541E+01 9.35780E-03-5.17700E-01
 -1      3474 2.52622E+02-1.54759E-01 1.53032E-01 2.54021E+01 1.23761E-01-4.13178E-03
 -1      3475 2.72975E+02-4.02609E-01 2.50150E-01 2.54188E+01 1.14844E-01-5.04989E-01
 -1      3476 2.29864E+01 3.16057E-02 3.35074E-01 2.83204E+01-2.22949E-01-1.43260E-01
 -1      3477 1.28496E+02-9.47724E-02-1.23408E-01 2.99297E+01 1.60269E-01-1.79247E-01
 -1      3478 3.72963E+01 3.82604E-01 8.55417E-02 2.76258E+01-7.43456E-02 2.47025E-01
 -1      3479 8.05421E+00 2.42037E-01 3.65915E-01 3.18550E+01-3.63296E-01-4.82050E-02
 -1      3480 8.69309E+00 4.14804E-01 3.54040E-02 3.11275E+01 8.71987E-02-1.49311E-02
 -1      3481-1.18360E+01-3.76295E-01-9.86549E-02 3.07857E+01 1.28256E-02-6.06351E-02
 -1      3482-2.83113E+00 3.31709E-02 2.12675E-01 2.84327E+01-4.22018E-01 1.96761E-01
 -1      3483-1.10291E+01-4.48193E-01-2.82304E-02 3.10097E+01-4.46184E-01-1.74615E-02
 -1      3484 7.11857E+02-8.61968E-02 3.80258E-01 1.37709E+01-1.42589E-01 9.94187E-01
 -1      3485 6.97472E+02-4.20130E-01 1.61455E-01 1.40092E+01 1.44014E-01 1.01321E+00
 -1      3486 6.32600E+02-4.67623E-01-1.50736E-01 1.44631E+01-1.61511E-01 1.04487E+00
 -1      3487 3.92600E+02-4.11342E-01 1.77828E-01 2.64919E+01 3.08354E-01 5.06788E-01
 -1      3488-1.43515E+01-4.25010E-01-2.12746E-01 2.77295E+01 2.33748E-01-2.67473E-01
 -1      3489 5.42306E+01-2.26503E-01-6.96524E-01 2.48920E+01 6.35567E-02-3.99193E-02
 -1      3490 7.67406E+01 1.85212E-01 1.36998E-01 2.50132E+01 2.85555E-01 1.09677E-02
 -1      3491 5.12049E+00 2.03025E-01-1.45468E-01 2.77925E+01 7.81724E-02 1.68657E-01
 -1      3492-5.34970E+02-9.27957E+01-1.12993E+02 4.89307E+01-5.75428E+00 5.61937E-01
 -1      3493-8.52468E+02-7.43164E+00-9.21879E+01 3.52191E+01-8.54337E+00-2.19504E+01
 -1      3494-4.98313E+01-7.37924E-01-1.54855E-01 1.48929E+01-2.20240E-01-2.30741E-01
 -1      3495 2.10252E+02 1.99738E-01 5.76350E-01 2.40729E+01-1.82382E-01 5.81370E-03
 -1      3496 1.72406E+02-3.10932E-01-5.35308E-01 2.49747E+01 9.44715E-03-4.47024E-03
 -1      3497-4.84675E+02-2.54970E-01 7.14277E-02 1.41751E+01 3.80758E-01-8.71975E-02
 -1      3498-2.40116E+02-4.55177E-01-5.10210E-01 2.62452E+01 6.27695E-01-2.16172E-01
 -1      3499-2.52328E+02-6.43688E-01-5.50153E-01 2.50193E+01-2.83382E-01-8.96061E-02
 -1      3500-7.99786E+01 6.21809E-02 1.87049E-01 3.01254E+01 1.50478E-01-5.26524E-02
 -1      3501-1.62417E+02-7.39753E-01-4.65807E-01 2.65564E+01 1.78474E-01 3.55798E-01
 -1      3502 4.02138E+00 7.51601E-01 4.18859E-01 2.81235E+01 5.60023E-03-1.47059E-02
 -1      3503-9.69123E+01-4.37538E-01-1.15342E-02 1.46289E+01-2.88656E-01-1.64715E-01
 -1      3504-2.47056E+01 7.69357E-01 3.47914E-01 2.80826E+01-1.58580E-01-1.11262E+00
 -1      3505-4.93624E+01 2.63221E-01-9.56532E-03 2.57684E+01 8.38459E-02-3.27359E-01
 -1      3506 5.50810E+00-3.81553E-01 1.26067E-01 2.78075E+01 9.35333E-02 9.36816E-02
 -1      3507 3.80514E+02 4.68125E+00 1.41725E+01 1.66523E+01 1.77278E+01-8.16891E+00
 -1      3508 3.44623E+02 3.49188E+01 6.13502E+01 1.48630E+01 7.98621E+00-2.08553E+01
 -1      3509-4.06487E+02-7.41767E-02 2.12862E-01 1.36811E+01 1.15142E-02 9.63413E-01
 -1      3510-1.42782E+02-2.01278E-01 3.64881E-01 1.39294E+01-1.18256E-01-9.85048E-01
 -1      3511-1.19245E+02 1.15874E-01 1.45949E-02 1.43531E+01 6.46091E-02-1.13583E+00
 -1      3512-7.33221E+01 1.66641E-02 2.70821E-01 2.60478E+01 9.22290E-02-4.51006E-01
 -1      3513-8.33929E+01-2.58378E-01-2.40626E-02 2.66912E+01-2.03132E-01-5.84625E-01
 -1      3514-1.31747E+02-3.73569E-02 1.99334E-01 1.43396E+01-5.35322E-02-9.47963E-01
 -1      3515 1.42862E+02 2.77689E-01-3.88784E-01 1.40530E+01 8.89254E-02-9.73266E-01
 -1      3516 1.19458E+02-3.28898E-01 7.43909E-03 1.39428E+01-4.40608E-02-1.16722E+00
 -1      3517 7.35300E+01 1.43657E-01 6.45899E-02 2.58005E+01-1.93012E-01-5.08152E-01
 -1      3518 8.30691E+01 2.00976E-01-1.23359E-01 2.68011E+01 2.15664E-01-5.33310E-01
 -1      3519 1.31446E+02-5.77557E-02-1.98545E-01 1.44745E+01-4.35311E-03-9.12008E-01
 -1      3520-1.33087E+02 1.50457E-02-3.80884E-01 1.38245E+01-2.77679E-01-1.00311E+00
 -1      3521-6.42009E+01 1.81615E-01 1.03811E-01 2.66675E+01 8.49971E-02-3.82319E-01
 -1      3522 1.33099E+02 7.80240E-02 3.36251E-01 1.38273E+01 2.44149E-01-1.02425E+00
 -1      3523 6.39430E+01-6.12249E-01 2.37535E-01 2.64188E+01-4.41984E-01-5.09719E-01
 -1      3524 1.18787E+02-4.04618E-01 1.71502E-01 1.38880E+01-1.40606E-01-1.04789E+00
 -1      3525 1.06311E+02-6.50907E-01-1.78725E-01 1.43430E+01 9.96147E-02-9.98834E-01
 -1      3526-1.18525E+02 3.24924E-01-1.88065E-01 1.38240E+01 8.09151E-02-1.10363E+00
 -1      3527-1.05081E+02 3.90967E-03 1.11656E-01 1.45271E+01-6.31212E-02-1.05708E+00
 -1      3528 2.52660E+01 3.24552E-01-3.29608E-01 2.77307E+01-1.20707E-01 1.58482E-02
 -1      3529 1.98576E+01 4.91512E-01-6.09994E-02 2.80834E+01 3.93125E-01 1.07246E-01
 -1      3530 3.67421E+02 1.44088E-01-1.81119E-01 1.37553E+01-4.46962E-02-8.83618E-01
 -1      3531 3.57505E+02-3.61876E-01 5.86181E-01 1.39273E+01 5.55603E-02-1.03542E+00
 -1      3532 2.07981E+02-2.34018E-01-1.19957E-01 2.61257E+01-2.97150E-02-5.87707E-01
 -1      3533 1.99432E+02-5.29278E-01 1.71073E-01 2.64748E+01-2.83055E-01-5.20125E-01
 -1      3534 3.22830E+02-4.78800E-01 2.60616E-01 1.43486E+01-2.71079E-02-9.75576E-01
 -1      3535-5.19232E+02 4.53838E+00-9.46538E+00 2.20348E+01 1.23200E+01-2.48687E+00
 -1      3536-8.36866E+02-4.35440E+00-2.95461E+01 2.04741E+01 7.09777E+00 8.91668E+00
 -1      3537-8.41970E+02 3.99515E+00-7.65677E+00 4.87075E-01 3.57995E+00-1.98164E+00
 -1      3538-4.54247E+02 7.54898E-02-1.41837E+00 1.95876E+01 4.54432E+00-4.02335E+00
 -1      3539-7.55959E+02 2.13240E-01-8.07838E+00 1.52733E+01 3.65930E+00 1.21463E-01
 -1      3540 3.68245E+02-2.49557E-01-6.48253E-01 2.49339E+01 1.14308E-01-5.60190E-03
 -1      3541 5.73775E+00-6.09663E+00-2.59417E+00 2.28371E+01-1.84723E-01 7.58820E-02
 -1      3542 1.88577E+01 7.02536E-01-5.98501E-01 1.30623E+01-1.79755E-01 7.27540E-01
 -1      3543-7.70918E+01 4.82541E-02-8.63758E-02 2.98301E+01 2.67414E-01-1.34883E-01
 -1      3544 9.23586E-03-2.06257E-01-1.73295E-01 2.79321E+01 1.48082E-01 6.81994E-02
 -1      3545-1.26859E+02 5.05785E-01 6.44039E-01 2.61709E+01-9.21942E-02-3.96683E-01
 -1      3546 2.54349E+02 2.52048E-01-4.28802E-01 1.32234E+01-6.83579E-02-3.77894E-01
 -1      3547 1.26125E+02-4.30088E-01-5.02491E-01 2.62323E+01 9.57856E-02-3.51282E-01
 -1      3548 1.55919E+02-3.64068E-02 4.90008E-02 2.47871E+01 5.06718E-02 3.73259E-02
 -1      3549 1.80004E+01-2.66488E-01 2.40136E-01 2.80458E+01 1.94193E-01-2.49984E-02
 -1      3550-8.05178E+02-4.08299E-01 6.55142E-02 1.30657E+01-2.76259E-01 1.99978E+00
 -1      3551-1.91565E+01-4.56215E-01 6.60067E-01 1.26291E+01-3.57775E-01-5.78500E-01
 -1      3552-5.73579E+00 6.34488E+00 2.67567E+00 2.26832E+01-2.59476E-01-1.22867E-01
 -1      3553 7.77271E+02 4.45719E-01-2.40569E-01 1.38062E+01 8.55983E-02-1.26438E+00
 -1      3554 7.62934E+02 7.62441E-03-3.66799E-01 1.36867E+01-2.07276E-01-1.11832E+00
 -1      3555 4.43826E+02 5.24860E-01-3.14075E-01 2.63303E+01 1.23764E-01-7.36766E-01
 -1      3556 6.92566E+02 6.56058E-01-1.67319E-01 1.41846E+01-4.07085E-03-1.40967E+00
 -1      3557 7.05749E+02 5.39913E-01-1.48584E-01 1.45366E+01-3.22377E-01-1.46402E+00
 -1      3558-2.85451E+02-1.21599E-01-5.61527E-01 2.64097E+01 4.26110E-01-8.42942E-02
 -1      3559 3.91336E+02 6.71369E-01 4.54343E-01 2.52984E+01 4.92330E-02 2.40050E-02
 -1      3560-3.04761E+02 5.37435E-01 5.11959E-01 2.63593E+01 5.00432E-01 1.34072E-01
 -1      3561-2.43355E+01-3.42832E-01 2.54990E-01 2.84747E+01-1.97056E-02-2.86375E-02
 -1      3562 1.34989E+01 5.31658E-01 5.30553E-01 2.77309E+01 2.71106E-01 1.86625E-01
 -1      3563-5.65317E+00-2.12301E-01 3.44857E-01 2.82211E+01 7.26750E-05 3.53110E-02
 -1      3564-8.53090E+01 5.67581E-01 3.85282E-01 2.63684E+01-3.29383E-01-1.90359E-01
 -1      3565 5.71598E+00-3.67346E-02-3.42947E-01 2.84367E+01-4.87212E-02 1.42113E-01
 -1      3566 8.54816E+01-4.71866E-01-2.43032E-01 2.62496E+01 4.34702E-01-1.92236E-01
 -1      3567 1.35327E+02-1.69032E-02 6.75728E-02 2.65262E+01 8.58380E-02 2.40644E-01
 -1      3568-1.44741E+01-8.12274E-02 3.15181E-01 2.84317E+01 1.95809E-02-1.02148E-01
 -1      3569 1.89395E+02-3.38252E-01-3.73351E-05 2.64426E+01-2.17285E-01 2.45621E-01
 -1      3570-1.89318E+02 4.75777E-01 3.10389E-01 2.63423E+01 4.03937E-01 1.64843E-01
 -1      3571 1.46120E+01-1.71339E-01-4.05255E-01 2.84118E+01-9.35142E-02-5.64502E-02
 -1      3572-2.66379E+01-3.48858E-01-4.58531E-01 2.80009E+01 2.51409E-01-1.48624E-01
 -1      3573 2.86461E+02 1.19682E-01 5.38205E-01 2.63837E+01-4.15499E-01-9.31804E-02
 -1      3574 1.95298E+01-2.92352E-01-4.30000E-01 2.79508E+01-2.60082E-01 1.38413E-01
 -1      3575-2.57961E+02 1.20733E-01 5.68169E-01 2.63621E+01 4.19106E-01 8.46873E-02
 -1      3576 2.57616E+02-1.45416E-01-5.47281E-01 2.63923E+01-4.08156E-01 8.60870E-02
 -1      3577 2.76284E+01 2.81894E-01 4.41272E-01 2.79666E+01-2.62147E-01-1.48384E-01
 -1      3578 4.95456E+02-1.71214E-01 3.69073E-01 1.31583E+01-1.73125E-02 4.45336E-01
 -1      3579 2.54547E+02 9.66361E-01 7.27409E-01 2.57691E+01 1.16908E-01 5.66462E-01
 -1      3580 2.85164E+02-2.20460E-01-1.14870E-01 2.46173E+01 6.31506E-02-6.71033E-02
 -1      3581 1.45719E+02-7.39932E-03-2.16600E-01 2.97842E+01-2.40217E-01 1.28004E-01
 -1      3582 1.14399E-01-2.38791E-01-2.58087E-01 2.78880E+01-9.59795E-02-5.17568E-01
 -1      3583-1.98708E+01 3.12494E-01 4.40112E-01 2.79729E+01 2.54743E-01 1.43520E-01
 -1      3584-2.88319E+02-6.14652E+01-3.27623E+01-2.66945E+01-1.51693E+00-2.16518E+01
 -1      3585-3.87646E+02-5.54384E+01-6.78644E+01 2.03707E+01-1.02723E+01-2.88762E+01
 -1      3586-6.46400E+01 1.88386E-02 3.66349E-01 1.39915E+01-3.31401E-02 1.15303E+00
 -1      3587-5.29709E+01-2.92241E-01 7.06410E-01 1.35946E+01 7.53103E-02 1.14074E+00
 -1      3588-6.14235E+01-2.90086E-01 2.25904E-01 1.36265E+01 3.33928E-02 6.28549E-01
 -1      3589-3.86697E+01-1.90197E-01 1.74310E-01 2.53492E+01-2.76791E-02 6.17554E-01
 -1      3590 7.81339E+01-2.35228E-01-1.72333E-01 2.75153E+01 2.39881E-01-5.10410E-04
 -1      3591-5.17779E+01-2.66783E-01 7.79745E-02 2.71350E+01-2.16717E-01-1.78842E-03
 -1      3592-7.72752E+01 2.15059E-01 1.19918E-01 2.75695E+01-9.19259E-02-3.63788E-01
 -1      3593 1.71093E+02-3.41308E-01-8.56910E-02 1.38281E+01 9.78626E-02 9.84381E-01
 -1      3594-1.22675E+01 7.08240E+00 2.39685E+00 1.07332E+01-1.08456E-01-4.34913E-01
 -1      3595-6.21842E+00 7.30298E+00 2.44977E+00 2.23032E+01-3.54376E-01-2.05067E-01
 -1      3596-5.49451E+01-5.18677E-01 1.37736E-01 1.34491E+01-1.37241E-01 1.60656E-01
 -1      3597 1.21251E+00-7.01012E+00-8.29535E-01 2.83789E+01-1.76150E+00 1.32911E-01
 -1      3598 5.06646E+00-5.05340E+00-5.36124E-01 2.55389E+01-1.15273E+00 1.46527E-01
 -1      3599-1.05869E+02-1.33627E-01 2.95404E-01 2.74332E+01 1.62241E-01 1.00334E-01
 -1      3600 2.31872E+02 1.07772E+00-5.25180E-01 2.79803E+01 2.63589E-01-6.33451E-01
 -1      3601 2.41145E+02-8.74369E-01 3.86806E-01 2.77915E+01-5.91685E-01-3.14680E-01
 -1      3602-8.03752E+02 3.77209E-01 4.41413E-01 1.27160E+01 3.06282E-01-2.15022E+00
 -1      3603-9.76437E+01-7.73597E-01-2.42011E-01 1.52051E+01 1.16455E-01 4.11415E-01
 -1      3604-1.12343E+02 1.46088E-01-1.89949E-01 2.78181E+01-4.40878E-01 6.74220E-01
 -1      3605-3.40805E+02-7.32709E-01 1.10576E-01 1.37731E+01 2.41196E-01-3.98745E-01
 -1      3606-1.72414E+02-1.32315E-01-2.91377E-01 2.59076E+01 8.44011E-02-1.54084E-02
 -1      3607-3.25216E+02-5.11357E-02-2.78748E-01 1.42849E+01-1.82714E-01 2.94528E-01
 -1      3608-3.30705E+02 3.97794E-01-2.46930E-01 1.40562E+01-3.59883E-01-1.75555E-01
 -1      3609-1.64028E+02-1.34629E-01 2.68225E-01 2.55338E+01-3.59493E-01-9.18632E-02
 -1      3610-1.77972E+02 1.79300E-02 9.45570E-02 2.59321E+01 1.34182E-01-2.51402E-01
 -1      3611-1.55956E+01-4.69087E-01 3.58601E-01 2.76168E+01 3.53348E-01 6.88335E-03
 -1      3612 3.59867E+01 1.13151E+00-5.21445E-01 2.78448E+01 1.90829E-01-5.45126E-01
 -1      3613 4.47736E+01-9.97959E-01 1.28759E-01 2.76958E+01-3.54764E-01-4.03637E-01
 -1      3614-1.79876E+01-3.98144E-01 7.69299E-02 2.73254E+01 4.04592E-02-3.09183E-01
 -1      3615-2.48848E+01 4.15066E-01 5.53681E-02 2.72267E+01 1.33359E-01-3.72440E-01
 -1      3616-1.28084E+02 5.97294E-01 1.13817E-01 2.72611E+01 2.77361E-01-4.46400E-01
 -1      3617 5.18558E+01 3.02520E-01 3.12438E-01 2.69361E+01-9.45046E-03-2.54383E-01
 -1      3618 7.73767E+01-6.58037E-02 2.76019E-01 2.79010E+01 2.99096E-03-4.20172E-01
 -1      3619-3.83765E+02-2.16290E-01 9.15715E-02 1.40521E+01 4.89551E-02-1.12931E+00
 -1      3620-3.69240E+02-2.04014E-01 2.03733E-01 1.35071E+01 2.62015E-01-1.01340E+00
 -1      3621-2.20662E+02-4.64816E-01 3.93586E-01 2.58244E+01-1.07122E-01-7.60533E-01
 -1      3622-3.34791E+02-6.16874E-01 1.38300E-01 1.38895E+01-1.47778E-02-1.12213E+00
 -1      3623-3.48394E+02-6.10711E-01 1.20615E-01 1.45493E+01 4.98310E-02-1.04540E+00
 -1      3624 1.07393E+02-3.41633E-01-3.45817E-01 2.70414E+01 2.60646E-01 5.71720E-01
 -1      3625 1.43992E+02 7.78005E-02-2.28605E-01 2.79092E+01 1.78047E-01 1.09967E+00
 -1      3626-8.94075E+02-4.00790E+01-1.90123E+02 2.76606E+01-7.35777E+00-3.42069E+01
 -1      3627-5.68526E+02-1.01106E+02-1.26041E+02 4.84423E+01-7.15149E+00-2.34774E+01
 -1      3628-7.50793E+02 2.59465E-01-3.97700E-01 1.39933E+01 1.75824E-01-1.15811E+00
 -1      3629-7.62986E+02-3.98071E-02-2.67283E-01 1.34657E+01-3.86562E-02-1.19157E+00
 -1      3630-6.78854E+02 6.50036E-01 1.73451E-01 1.43938E+01-5.68929E-02-1.14291E+00
 -1      3631-4.31613E+02 3.90244E-01 4.95036E-02 2.59572E+01 2.07237E-01-5.67916E-01
 -1      3632-4.21471E+02 4.00282E-01-2.47920E-01 2.65406E+01 3.78326E-01-6.39988E-01
 -1      3633-2.17507E+01 6.49821E-01-1.44525E-01 2.77537E+01-4.30783E-01 4.98473E-01
 -1      3634-1.20606E+02-1.14183E+00 5.42011E-02 2.74860E+01 1.13932E-01-2.94266E-01
 -1      3635 6.05714E+01 6.03170E-01 1.89276E-01 2.70026E+01-1.86956E-03 3.42192E-01
 -1      3636 1.17118E+01-7.36603E+00-2.42517E+00 1.11709E+01-1.36249E-01 4.26553E-01
 -1      3637 6.16854E+00-7.02261E+00-2.19391E+00 2.29470E+01-4.35198E-01 2.58653E-01
 -1      3638 1.27885E+02-2.45647E-01-1.14004E-01 2.68777E+01-1.25973E-01-6.76235E-01
 -1      3639-1.75829E+02 1.86910E-01-5.50610E-01 2.63297E+01 3.57149E-01 3.47752E-02
 -1      3640-1.28503E+02 9.36394E-01-2.02025E-02 2.75106E+01-1.67735E-01-1.79463E-01
 -1      3641-7.77482E+02-4.73624E-01 1.32905E-01 1.38289E+01-8.51603E-02-1.37365E+00
 -1      3642-6.91936E+02 4.45022E-01 1.93226E-01 1.42011E+01 3.49659E-01-1.29541E+00
 -1      3643-4.42105E+02-1.66641E-01 3.99953E-01 2.64241E+01-1.30438E-01-7.89452E-01
 -1      3644-7.04619E+02-4.19533E-01 3.41383E-01 1.44792E+01 2.64205E-01-1.42597E+00
 -1      3645 1.10350E+02 9.07234E-01-4.60192E-01 2.77390E+01 5.35267E-01-2.50334E-01
 -1      3646-5.41103E+01 4.64015E-01-4.56295E-01 2.77462E+01-4.78119E-01 1.76153E-01
 -1      3647 1.19009E+02-1.16964E+00 3.26610E-01 2.77540E+01-3.45191E-01-4.85765E-01
 -1      3648-8.38732E+02 2.12572E+00-4.68447E+00 8.42127E+00-2.15126E+00-6.21374E-01
 -1      3649-4.68139E+02 2.27410E+00-6.80457E-01 2.42815E+01-3.08667E+00 3.98242E+00
 -1      3650 3.36616E+02 3.98246E+01 5.54050E+01 3.12948E+01-4.06860E+00 5.83714E+00
 -1      3651 9.22388E+01 3.64886E-01 1.01524E-01 1.38373E+01-8.27864E-02 8.95902E-01
 -1      3652 3.69986E+01-6.75588E-01-5.37988E-01 2.82246E+01 1.91461E-01 5.05987E-01
 -1      3653 5.87289E+01 4.89550E-01-2.33729E-02 2.57626E+01-2.42008E-01 6.03811E-01
 -1      3654-3.58692E+02 2.56128E-01-2.56844E-01 1.37602E+01 1.19780E-01-1.07354E+00
 -1      3655-2.12528E+02-1.30205E-01-2.71752E-01 2.57814E+01-1.50938E-01-4.49156E-01
 -1      3656-3.24606E+02 4.01579E-01-6.83912E-02 1.40600E+01-2.92409E-02-1.07643E+00
 -1      3657-2.03926E+02 3.24211E-01-1.68622E-01 2.62283E+01 3.38285E-01-6.43302E-01
 -1      3658 6.74320E+01 2.93908E-01 2.00009E-01 1.39520E+01-7.72825E-02 9.45869E-01
 -1      3659 5.11578E+01 2.37746E-01-2.97797E-01 1.35897E+01 2.49909E-01 7.05892E-01
 -1      3660 5.34141E+01 1.27953E-01-3.71510E-02 1.74181E+01 2.16257E-02 7.81955E-01
 -1      3661 3.17559E+01 3.31724E-01-2.17795E-02 2.82907E+01-1.91700E-01 4.01374E-01
 -1      3662-3.81802E+02-1.14931E+00-2.44639E+00 3.01647E+01 2.06547E-01 3.28231E-01
 -1      3663 3.50005E+02 3.66699E+01 6.31477E+01 1.71538E+01-9.57414E+00 1.95636E+01
 -1      3664 3.81248E+02 4.16979E+00 1.40903E+01 1.76854E+01-1.84551E+01 7.75398E+00
 -1      3665-3.29966E+02 1.20820E-01 9.23239E-01 1.48843E+01-7.76336E-02 2.70593E-01
 -1      3666 1.35096E+01 1.61043E-01 5.44982E-02 3.11918E+01 2.62738E+00 6.68064E-01
 -1      3667 1.01736E+01 1.03839E-01 3.12514E-01 3.13856E+01-8.69037E-02-2.20633E-01
 -1      3668-3.48576E+00-3.19853E-02 2.05059E-01 2.82096E+01 1.17267E-01-3.76184E-02
 -1      3669-8.24396E+02 1.66534E+00-1.14131E+00 1.00301E+01-8.00721E-01 3.17102E+00
 -1      3670-7.56432E+02 2.06603E-01-3.95570E-01 1.55548E+01-1.33654E+00 3.84346E+00
 -1      3671 8.28175E+02-3.27287E+00 1.82697E+00 5.86256E+00 1.70202E+00 3.40253E+00
 -1      3672 7.52318E+02-1.56887E-01 1.28464E+00 1.60422E+01 1.56054E+00 3.71570E+00
 -1      3673-5.23684E+01-3.25842E-01-8.37628E-02 2.71829E+01-6.35773E-03 2.82649E-01
 -1      3674 2.07716E+02 7.25135E-01 2.88968E-01 2.57337E+01 3.27909E-01 5.36214E-01
 -1      3675 9.20361E+01 2.42832E-01 5.99240E-01 2.99181E+01-1.21886E-01 1.64598E-01
 -1      3676 1.14986E+02-5.40468E-01-8.82746E-01 2.96617E+01 1.32401E-01 2.05047E-01
 -1      3677 8.30879E+02-6.84467E-01 1.87270E+00 1.10915E+01 6.47181E-01 2.31466E+00
 -1      3678 4.68317E+02-1.54867E+00-3.08590E-02 2.46019E+01 2.96056E+00 3.58153E+00
 -1      3679-1.44169E+02-1.90380E-01 5.16985E-02 1.42182E+01-1.79905E-02 1.09605E+00
 -1      3680-1.29796E+02-2.39013E-01-6.57421E-01 1.36900E+01-3.13228E-02 9.20482E-01
 -1      3681-1.04169E+02 3.69269E-01 4.26021E-02 1.48883E+01 7.86844E-02 7.29202E-01
 -1      3682-7.16516E+01 2.95129E-01-8.44269E-02 2.62996E+01-1.65018E-01 5.88671E-01
 -1      3683-1.17728E+02 7.62270E-01 2.33134E-01 1.50586E+01-3.94146E-01 8.86598E-01
 -1      3684-1.18300E+02 1.14844E-01 2.95252E-02 1.41731E+01-3.68716E-02 1.22719E+00
 -1      3685-6.37609E+01 2.11538E-01-1.34092E-02 2.65601E+01 4.18129E-03 6.11545E-01
 -1      3686-7.81119E+01-3.62976E-01 4.57819E-01 2.62527E+01 2.23513E-01 6.48191E-01
 -1      3687-1.26612E+02-8.91836E-02 8.42678E-01 1.48861E+01 2.33741E-01 9.12172E-01
 -1      3688 2.73925E+02-1.35563E-01-2.78092E-01 1.72798E+01 1.09550E-01 9.39506E-02
 -1      3689 3.34139E+02-6.48553E-01 2.17511E-01 1.38518E+01-3.20823E-01 3.33564E-01
 -1      3690 9.83303E+01-7.08454E-02 2.77725E-01 1.73275E+01-1.23702E-02 2.04687E-02
 -1      3691 1.32221E+02 7.83903E-01-1.61068E-01 1.37396E+01 2.82994E-01 4.08249E-01
 -1      3692 9.33123E+00-3.31427E-01-1.73206E-01 3.02757E+01-5.64236E-02-3.08532E-01
 -1      3693 3.85476E+01-3.19661E-01-6.69312E-01 2.99673E+01 5.03015E-02 2.17039E-01
 -1      3694 5.54459E+01-2.74509E-01-1.87392E-01 3.01618E+01 5.14931E-02-2.74972E-01
 -1      3695 2.02667E+02-4.17014E-01-7.29212E-01 2.99192E+01 3.55634E-01 3.63057E-01
 -1      3696 5.68188E+02-3.30527E-02 8.71572E-02 1.74405E+01-1.60755E-02 4.49401E-02
 -1      3697 7.20439E+02 7.54669E-01-4.45576E-01 1.40107E+01 4.75763E-01 5.61258E-01
 -1      3698 3.07491E+01 1.37326E-01-6.55245E-01 1.40258E+01-7.25062E-02-9.03950E-01
 -1      3699 1.73280E+01 1.05020E+00 1.08355E-01 2.62122E+01 1.30694E-01-6.01811E-01
 -1      3700 3.81171E+01 4.00233E-01-1.45579E-01 1.32907E+01-5.35165E-02-8.62652E-01
 -1      3701 4.34418E+01 5.63630E-01-2.77878E-02 1.46865E+01 3.08111E-01-7.41583E-01
 -1      3702 2.68670E+01 9.74643E-01 2.33135E-01 2.64339E+01 1.41255E-01-5.50365E-01
 -1      3703-7.78160E+02-1.86513E-01-1.47870E-01 1.39834E+01 4.59972E-02 1.38888E+00
 -1      3704-4.17688E+02 1.38358E-01 1.31212E-02 2.64304E+01-1.43400E-01 6.75524E-01
 -1      3705-6.78053E+02 3.69972E-01 2.66875E-01 1.51472E+01-4.49921E-01 1.05060E+00
 -1      3706-6.88459E+02-4.48456E-02 6.71606E-01 1.51195E+01-3.35691E-02 1.25331E+00
 -1      3707-4.25254E+02-2.27753E-01 3.41394E-01 2.63515E+01 4.54254E-02 7.81201E-01
 -1      3708-7.63184E+02-6.77320E-02-6.04383E-01 1.37312E+01-7.43151E-02 1.38560E+00
 -1      3709-6.63836E+02-1.32054E-01 9.47134E-02 1.51164E+01-2.29914E-02 9.26069E-01
 -1      3710-7.50724E+02-1.23210E-01-2.34576E-01 1.40401E+01 3.27524E-02 1.25732E+00
 -1      3711-4.08589E+02-2.71510E-01 6.59672E-03 2.66669E+01 1.75875E-01 5.00757E-01
 -1      3712-7.12159E+02 9.31734E-02-2.48749E-01 1.45404E+01-8.68750E-02-1.01187E+00
 -1      3713-3.68568E+02 1.74065E-01 2.89956E-01 2.67480E+01 7.31780E-02-8.32182E-01
 -1      3714-6.95900E+02 1.09918E-01 2.19639E-01 1.44897E+01 3.15140E-02-1.13487E+00
 -1      3715-6.07568E+02-5.14464E-02-1.06328E-01 1.54188E+01-2.13943E-02-8.74071E-01
 -1      3716 1.85710E+02-1.85139E-01-5.76420E-01 1.38355E+01 2.81097E-02 9.03821E-01
 -1      3717 1.71626E+02 5.16027E-03-1.71914E-01 1.52686E+01-1.28271E-01 7.80395E-01
 -1      3718 1.97189E+02-1.80534E-02-5.65185E-02 1.44158E+01 5.28466E-02 1.18870E+00
 -1      3719 1.04643E+02 1.45727E-01-3.97717E-02 2.67619E+01-7.30384E-02 6.86875E-01
 -1      3720-1.85310E+02 9.58328E-02 7.73602E-01 1.41849E+01 2.04728E-01 1.14489E+00
 -1      3721-1.71956E+02 1.25802E-01-1.81582E-01 1.53891E+01 4.70481E-02 7.84683E-01
 -1      3722 2.08862E+02 1.98694E-01 6.26938E-01 1.37513E+01 1.24661E-01 9.07654E-01
 -1      3723-1.96126E+02 1.66034E-01 2.58399E-01 1.44117E+01-5.89503E-02 1.07020E+00
 -1      3724-1.03316E+02 3.02186E-01 2.44653E-01 2.67129E+01-1.21128E-01 8.27823E-01
 -1      3725-2.12363E+02 8.25651E-02-2.22276E-01 1.45133E+01 6.57210E-02 9.99838E-01
 -1      3726-3.17234E+02 1.84709E-01-1.76462E-01 1.39337E+01-2.16132E-01-1.00967E+00
 -1      3727-1.59328E+02-2.36552E-02 1.43368E-01 2.69199E+01 6.31006E-03-5.38024E-01
 -1      3728-3.01650E+02 1.81773E-01 1.93203E-01 1.40580E+01 8.60387E-02-1.01293E+00
 -1      3729-2.61817E+02 4.96691E-01 5.16061E-01 1.54531E+01-5.76540E-02-7.17824E-01
 -1      3730 3.14285E+02 2.28907E-01 6.58886E-01 1.36949E+01-9.30808E-02-1.02392E+00
 -1      3731 2.62145E+02-3.87463E-02-7.12163E-01 1.53468E+01 2.10869E-01-7.91729E-01
 -1      3732 3.02434E+02-1.16380E-01-6.29690E-02 1.43034E+01-8.14163E-02-1.03000E+00
 -1      3733 1.60235E+02 4.38238E-01-4.79181E-04 2.68130E+01 3.08486E-01-6.16382E-01
 -1      3734-6.85187E+02 2.14432E-01 6.32590E-01 1.40007E+01-8.48453E-02-1.10000E+00
 -1      3735-5.92150E+02 2.09610E-01-4.71824E-02 1.42723E+01 1.16944E-02-1.19854E+00
 -1      3736-5.76586E+02-7.64431E-02 1.66996E-01 1.42860E+01 1.70188E-01-1.04812E+00
 -1      3737-3.15231E+02 4.94523E-02-3.77105E-01 2.68159E+01 9.12092E-02-6.15563E-01
 -1      3738-5.18544E+02-2.82777E-01-7.15664E-01 1.56131E+01 1.68430E-01-8.17548E-01
 -1      3739-4.22307E+02 1.25159E-01 6.82676E-01 1.40242E+01-1.01691E-01-9.56866E-01
 -1      3740-3.78425E+02 5.76243E-02-8.11516E-02 1.53225E+01 3.80458E-03-7.83851E-01
 -1      3741-4.33965E+02 3.35981E-02-1.49848E-02 1.45797E+01 4.01396E-02-1.19544E+00
 -1      3742-2.30142E+02 9.62015E-02 9.44979E-02 2.68326E+01-2.49946E-02-8.45180E-01
 -1      3743 4.22631E+02-2.23972E-01-6.38012E-01 1.39774E+01 1.15165E-01-1.06791E+00
 -1      3744 3.78209E+02-1.83148E-02 1.23107E-01 1.54247E+01 2.11066E-02-8.77172E-01
 -1      3745 6.56292E+02 3.46718E-01 7.53810E-01 1.36133E+01 6.00596E-02 1.08182E+00
 -1      3746 5.60444E+02-1.02272E-01-7.06210E-01 1.54498E+01-1.41546E-01 7.58470E-01
 -1      3747 6.43608E+02 5.43626E-02-1.67361E-01 1.44487E+01-5.87952E-03 1.08832E+00
 -1      3748 3.41782E+02 3.51062E-01 6.82389E-03 2.69296E+01-1.57328E-01 6.50319E-01
 -1      3749 4.32906E+02-1.28258E-01-2.22355E-01 1.44990E+01-4.83856E-02-1.09540E+00
 -1      3750 2.28982E+02-2.99389E-01-3.01126E-01 2.67533E+01-9.99448E-02-8.29990E-01
 -1      3751 6.86900E+02-2.09344E-01-6.27773E-01 1.39202E+01 9.63423E-02-1.10579E+00
 -1      3752 6.07542E+02 8.20304E-02 1.56503E-01 1.54679E+01 3.50860E-02-9.50594E-01
 -1      3753 6.97388E+02-1.17171E-01-2.01846E-01 1.44237E+01-3.28443E-02-1.12107E+00
 -1      3754 3.69797E+02-2.60859E-01-2.39932E-01 2.67405E+01-6.16047E-02-8.01201E-01
 -1      3755 7.13603E+02-9.59079E-02 2.64783E-01 1.44749E+01 3.01043E-02-1.00714E+00
 -1      3756 4.49143E+02-1.07709E-01 2.59548E-01 1.45358E+01 6.22956E-02-9.93622E-01
 -1      3757-4.45558E+02-2.01902E-01-7.03746E-01 1.38472E+01 9.26199E-02-8.39571E-01
 -1      3758 5.79923E+02-3.76554E-01-7.82911E-01 1.36923E+01 5.42200E-02-1.16915E+00
 -1      3759 5.17603E+02 1.17383E-01 6.44397E-01 1.55473E+01-1.43397E-01-7.84164E-01
 -1      3760-6.47979E+02-3.23162E-02 3.37386E-01 1.40756E+01-2.43710E-02 1.05121E+00
 -1      3761-6.64908E+02-3.49014E-03-2.25161E-01 1.41495E+01 1.22274E-01 1.13337E+00
 -1      3762-3.44983E+02-5.45686E-02 2.78192E-01 2.67110E+01 6.31864E-02 6.84239E-01
 -1      3763-5.59080E+02 2.40302E-01 7.59251E-01 1.55804E+01 1.61063E-01 8.20322E-01
 -1      3764 5.51022E+02 2.35086E-01 5.86138E-01 1.37175E+01 4.96232E-02 1.05756E+00
 -1      3765 5.43091E+02-1.60005E-01-1.23264E-01 1.40970E+01 8.57692E-02 1.05322E+00
 -1      3766 4.69618E+02-3.35493E-01-8.39146E-01 1.54388E+01-1.27952E-01 8.40104E-01
 -1      3767 2.90429E+02 3.81442E-01 9.16127E-02 2.67428E+01-1.13475E-01 6.79951E-01
 -1      3768 5.93294E+02-2.53033E-01-1.02174E-01 1.42617E+01-3.91819E-02-1.19896E+00
 -1      3769 3.15759E+02-3.04078E-01 1.33911E-01 2.68500E+01-1.84239E-01-5.99494E-01
 -1      3770-5.27231E+02-1.06587E-01 6.91370E-02 1.42501E+01-2.94434E-01 1.07551E+00
 -1      3771-2.90115E+02-4.40065E-01-3.22293E-01 2.64275E+01 1.13512E-01 7.07390E-01
 -1      3772-5.54495E+02-2.09088E-01-5.88440E-01 1.37635E+01-8.61110E-02 1.09742E+00
 -1      3773-4.71098E+02-1.15872E-01 2.37969E-01 1.52438E+01 5.36659E-02 8.30302E-01
 -1      3774-6.42952E+01 1.03974E+00 1.63777E-01 2.74495E+01-1.66100E-02-3.55417E-01
 -1      3775-5.91791E+01-9.19004E-01-8.73236E-02 2.71718E+01 4.57388E-03-2.58258E-01
 -1      3776-5.43227E+02-1.26843E-01-1.95041E-01 1.42145E+01 4.93711E-02 1.14394E+00
 -1      3777 1.40126E+02-3.99132E-01 4.61934E-01 2.64232E+01 5.15660E-01 4.09609E-01
 -1      3778 2.27940E+02-5.17812E-01 1.45935E-01 1.43174E+01-1.86971E-02 1.05247E+00
 -1      3779 2.50389E+02-4.57851E-01 6.31540E-02 1.39776E+01 9.13491E-02 1.12461E+00
 -1      3780 1.61382E+02 2.12812E-01 4.46047E-02 2.56311E+01-1.15179E-01 5.32963E-01
 -1      3781 2.50478E+02 3.71015E-01 3.09121E-02 1.34543E+01-2.33829E-01 1.15573E+00
 -1      3782-5.02096E+02-2.77289E-01-8.24384E-01 1.35425E+01-8.35893E-02 1.19528E+00
 -1      3783-4.22289E+02 2.56770E-01 5.12228E-01 1.52564E+01 1.01328E-01 6.70067E-01
 -1      3784-8.03599E+01 2.95454E-01-2.46834E-02 1.40438E+01 2.04605E-01 1.22456E+00
 -1      3785-4.89130E+02-1.06242E-01 7.89681E-02 1.41129E+01 9.28754E-03 1.06892E+00
 -1      3786-2.61056E+02-1.41221E-01 1.05211E-01 2.67039E+01 1.82229E-01 5.42219E-01
 -1      3787-8.38967E+02 2.60442E+00-4.72394E+00 8.54611E+00 1.99421E+00 4.40442E-01
 -1      3788-4.51451E+02 2.47167E+00-1.91123E-01 2.48006E+01 3.32190E+00-4.25769E+00
 -1      3789 5.11486E+02-6.72397E+00 9.18690E+00 2.28507E+01-1.14862E+01-1.70717E+00
 -1      3790 8.23672E+02 1.03045E+00 2.76875E+01 1.94987E+01-6.47804E+00 8.84207E+00
 -1      3791 8.44277E+02-4.60570E+00 7.76503E+00 7.56473E-01-3.90386E+00-8.44687E-01
 -1      3792 4.45237E+02-1.25687E+00 1.52733E+00 2.01414E+01-4.68853E+00-4.22807E+00
 -1      3793 7.46049E+02 7.69585E-03 9.59346E+00 1.58379E+01-3.58525E+00 1.09757E+00
 -1      3794-3.09583E+02-4.19699E-01 4.96872E-01 2.63700E+01-5.24419E-01-4.84779E-01
 -1      3795-4.90294E+02-4.51778E-01 2.00936E-01 1.42705E+01 3.27345E-02-1.01323E+00
 -1      3796-5.40029E+02-4.49944E-01 7.95041E-02 1.39480E+01-1.16285E-01-1.11271E+00
 -1      3797-3.20233E+02 2.17308E-01 5.26991E-02 2.55270E+01 6.85305E-02-5.30983E-01
 -1      3798-4.99671E+02 3.39777E-01 9.06996E-02 1.33950E+01 1.86028E-01-1.07886E+00
 -1      3799 3.09867E+02 4.42543E-01-4.18792E-01 2.63024E+01 4.67828E-01-5.03109E-01
 -1      3800 4.90087E+02 4.62361E-01-2.16336E-01 1.42498E+01-1.35780E-02-1.01469E+00
 -1      3801 5.40470E+02 4.27264E-01-7.39101E-02 1.38464E+01 4.74521E-02-1.13403E+00
 -1      3802 3.20533E+02-4.30547E-01-6.23556E-02 2.54883E+01-6.89861E-02-5.01689E-01
 -1      3803 4.99551E+02-2.62495E-01-2.01106E-02 1.35147E+01-1.60140E-01-1.12651E+00
 -1      3804 7.77758E+01 2.43151E-01 5.25225E-01 1.39784E+01 9.43531E-04 9.14208E-01
 -1      3805 1.32359E+02-1.30507E-01-1.94620E-01 2.70863E+01 2.34108E-02-4.72866E-01
 -1      3806 2.17546E+02 1.21488E-01 1.84179E-01 1.56428E+01-2.70134E-02-6.90457E-01
 -1      3807 2.48926E+02 1.43152E-01-3.93092E-02 1.40958E+01 5.02042E-02-9.89979E-01
 -1      3808 1.42880E+02 1.95938E-01-9.11112E-02 2.51683E+01-1.69331E-01-6.92431E-01
 -1      3809 2.24235E+02-3.85961E-01-2.77825E-01 1.32230E+01-7.59678E-02-1.22671E+00
 -1      3810 1.12020E+02 1.11104E-01 4.90582E-01 2.62249E+01 2.76574E-01-5.76179E-01
 -1      3811-1.32460E+02-2.18244E-02 1.56484E-01 2.71029E+01-1.04421E-01-4.31766E-01
 -1      3812-2.17709E+02-2.63189E-01-1.55759E-01 1.57495E+01-2.29637E-02-6.50460E-01
 -1      3813-2.48975E+02-1.20300E-01 6.09020E-02 1.41131E+01-6.86167E-02-9.93764E-01
 -1      3814-1.42892E+02-1.91785E-01 7.87183E-02 2.51612E+01 1.69407E-01-7.03173E-01
 -1      3815-2.24207E+02 4.26022E-01 3.14918E-01 1.32175E+01 7.63025E-02-1.22863E+00
 -1      3816-1.11931E+02-1.08343E-01-4.58212E-01 2.61875E+01-2.85417E-01-5.75411E-01
 -1      3817 2.18857E+02 5.55322E-01-2.08568E-01 2.61605E+01 5.25272E-01-5.14314E-01
 -1      3818 3.28198E+02-5.17375E-01 2.24072E-01 1.42742E+01 3.07111E-01-5.85189E-02
 -1      3819 3.40364E+02 7.50286E-01-9.01173E-02 1.38497E+01-2.13459E-01-2.14988E-01
 -1      3820 3.34382E+02 6.06386E-01-2.02348E-01 1.40731E+01 3.04283E-02-1.13724E+00
 -1      3821 3.46931E+02 7.32229E-01 1.49880E-01 1.42528E+01-8.73444E-02-9.97122E-01
 -1      3822-8.23822E+02 1.46637E+00-7.82242E-01 1.04602E+01 8.60922E-01-3.66416E+00
 -1      3823-7.38670E+02 3.82600E-02-6.39550E-01 1.63987E+01 1.94363E+00-3.74836E+00
 -1      3824 5.98996E+02-3.42716E-01-4.42262E-01 1.33953E+01 4.23255E-02 1.06535E+00
 -1      3825 3.82892E+02 2.62278E-01-3.79390E-02 2.52833E+01 3.26127E-02 6.91014E-01
 -1      3826 3.02513E+02 5.47171E-01 7.29124E-01 2.60618E+01-7.44349E-02 5.43438E-01
 -1      3827-5.76085E+02-4.13942E-01-6.39552E-01 1.37336E+01-1.95160E-01-9.57788E-01
 -1      3828-3.69615E+02 1.49545E-01 1.06974E-01 2.53922E+01 2.09116E-02-4.64494E-01
 -1      3829-2.91834E+02 4.97166E-01 7.57033E-01 2.60490E+01-6.40992E-02-5.47785E-01
 -1      3830 1.13089E+02-6.59630E-01 1.58541E-01 1.38537E+01 2.70055E-01-2.36546E-01
 -1      3831 1.25413E+02 7.50447E-02-3.03287E-01 1.44423E+01-1.58615E-02-5.27821E-02
 -1      3832-2.69928E+01-2.97768E-01 1.46811E-01 2.98646E+01-1.34444E-01-1.39659E-01
 -1      3833-3.50120E+01 5.59715E-01-5.16233E-02 2.98695E+01 1.21764E-01-2.11179E-01
 -1      3834 4.22623E+02-5.41066E-01 2.83398E-01 2.64260E+01-5.08167E-01-6.81126E-01
 -1      3835 4.32588E+02 2.13613E-01 4.72836E-02 2.59333E+01 1.18940E-01-6.85038E-01
 -1      3836 6.86751E+02-5.98100E-01 9.65489E-02 1.39587E+01 2.35333E-01-5.31049E-02
 -1      3837 6.81412E+02-6.03141E-01 1.39396E-01 1.40762E+01-3.22230E-02-9.92370E-01
 -1      3838 6.99199E+02 8.16471E-01-2.77433E-01 1.41994E+01-3.54984E-01-4.56531E-01
 -1      3839 2.64501E+02 1.50332E-02-2.69091E-01 1.34553E+01 7.71299E-02 1.17675E+00
 -1      3840 2.75010E+02 1.80311E-01-3.45089E-01 1.38435E+01-8.79849E-02 1.16824E+00
 -1      3841 1.70143E+02-1.36549E-03 2.21568E-02 2.61300E+01-6.33287E-02 4.29717E-01
 -1      3842 2.64455E+02 5.99121E-03 1.92545E-01 1.33768E+01 9.21971E-02 1.09121E+00
 -1      3843-2.23691E+02 2.38713E-01-8.74389E-02 1.37956E+01 1.35833E-01-1.08776E+00
 -1      3844-2.38410E+02-4.47273E-02-2.91009E-01 1.38251E+01-3.03779E-01-1.08037E+00
 -1      3845-2.09971E+02-1.01097E-02 3.08688E-01 1.32884E+01 3.84253E-02-1.12180E+00
 -1      3846-1.33259E+02 1.81143E-02 1.29333E-01 2.59585E+01 2.21460E-01-4.20377E-01
 -1      3847 2.38421E+02 5.11977E-02 3.17998E-01 1.38321E+01 2.89908E-01-1.08050E+00
 -1      3848 1.33257E+02-2.70561E-02-1.31954E-01 2.59600E+01-2.18194E-01-4.27815E-01
 -1      3849 2.23691E+02-2.37015E-01 8.65910E-02 1.37966E+01-1.34934E-01-1.08788E+00
 -1      3850 2.09982E+02 1.39407E-02-3.08061E-01 1.32924E+01-3.68625E-02-1.11332E+00
 -1      3851-6.16925E+02-1.48989E-01 3.04072E-01 1.38390E+01-1.10283E-01-1.17637E+00
 -1      3852-6.06549E+02-9.48548E-03 3.67594E-01 1.35255E+01 1.05208E-02-1.16855E+00
 -1      3853-5.89447E+02-8.18702E-02-3.25835E-01 1.32746E+01 5.16857E-02-1.08616E+00
 -1      3854-3.78151E+02 2.52760E-02-4.39375E-02 2.60845E+01-1.07590E-01-4.77540E-01
 -1      3855 6.33242E+02 1.07398E-01 2.88443E-01 1.38975E+01-2.94124E-01 1.04628E+00
 -1      3856 6.18294E+02-2.61633E-01 9.12729E-02 1.38218E+01 1.15028E-01 1.08829E+00
 -1      3857 5.84802E+02-9.27082E-03-3.13790E-01 1.33569E+01-2.94391E-02 1.19435E+00
 -1      3858 3.73194E+02-1.57939E-01-5.12862E-02 2.59475E+01 1.49242E-01 4.27631E-01
 -1      3859-5.98532E+02 3.07252E-01 4.19953E-01 1.36004E+01 1.14386E-03 1.18295E+00
 -1      3860-3.87618E+02-3.86314E-01-9.83792E-04 2.49237E+01-2.85514E-02 5.76085E-01
 -1      3861-3.01280E+02-4.93499E-01-7.18816E-01 2.61056E+01-3.98147E-03 5.28108E-01
 -1      3862 5.76265E+02 4.95653E-01 6.80889E-01 1.35969E+01 2.38682E-01-8.17110E-01
 -1      3863 3.71647E+02-6.00956E-02-8.28883E-02 2.54639E+01-1.68447E-04-6.17465E-01
 -1      3864 2.91590E+02-5.76474E-01-7.80136E-01 2.60562E+01-1.39516E-02-5.75884E-01
 -1      3865-6.37722E+02-1.49484E-01-2.39481E-01 1.38043E+01 3.07160E-01 1.16810E+00
 -1      3866-3.77409E+02 1.42887E-01 3.56284E-02 2.57347E+01-1.66143E-01 4.16800E-01
 -1      3867 6.08212E+02 2.85096E-02-2.97148E-01 1.35243E+01-1.70289E-02-1.27828E+00
 -1      3868 5.89585E+02 9.82052E-02 3.28788E-01 1.32630E+01-6.54758E-02-1.06205E+00
 -1      3869-4.49022E+02 4.14332E-01 3.58662E-01 1.33091E+01-7.89021E-02 1.06396E+00
 -1      3870-2.90096E+02-2.00616E-01 9.24941E-02 2.50591E+01-1.26370E-01 7.65072E-01
 -1      3871-2.25989E+02-3.18624E-01-6.33916E-01 2.60626E+01 3.39954E-01 7.49098E-01
 -1      3872-4.60497E+02 2.13242E-01-1.28451E-01 1.38138E+01-1.25796E-01 1.06750E+00
 -1      3873-4.75456E+02-1.00173E-01-3.60515E-01 1.38703E+01 2.91690E-01 1.01187E+00
 -1      3874-2.77204E+02 3.17479E-02 1.49061E-01 2.59449E+01-1.90922E-01 4.59326E-01
 -1      3875-4.34771E+02-8.18919E-03 3.07964E-01 1.32672E+01-3.17899E-02 1.09121E+00
 -1      3876-6.22833E+02 2.61638E-01-5.21835E-02 1.35590E+01-1.15528E-01 1.10809E+00
 -1      3877-5.84373E+02 2.17773E-03 3.19875E-01 1.33781E+01 1.98419E-02 1.21925E+00
 -1      3878 4.24366E+02 9.44836E-02 2.03941E-01 1.57757E+01-1.55367E-02 7.04713E-01
 -1      3879 2.60663E+02-1.33225E-01-2.21547E-01 2.69961E+01-6.18942E-02 4.14682E-01
 -1      3880 4.89600E+02 2.80211E-01 1.70678E-01 1.39065E+01-8.80511E-02 1.11043E+00
 -1      3881 4.48885E+02-4.96470E-01-4.64028E-01 1.33826E+01 2.55141E-01 1.01455E+00
 -1      3882 2.89064E+02-4.11878E-02 1.81363E-02 2.53144E+01 1.51790E-01 6.11440E-01
 -1      3883 2.25782E+02 1.14004E-01 5.58503E-01 2.62335E+01-2.39227E-01 6.50085E-01
 -1      3884-5.25917E+02 3.05536E-02-2.53776E-01 1.33957E+01-1.06587E-01-1.15368E+00
 -1      3885-4.85677E+02 7.61375E-03 1.96096E-01 1.32914E+01-1.37408E-01-9.95687E-01
 -1      3886-1.76119E+02-7.15856E-01-2.66755E-01 2.97840E+01 7.86245E-02-1.64881E-01
 -1      3887-9.23560E+01 8.49107E-01 2.68697E-01 2.99891E+01-5.00747E-02-1.74126E-01
 -1      3888-8.64887E+01-7.45280E-01-1.49883E-01 2.98483E+01 4.64562E-02-1.69622E-01
 -1      3889-5.14778E+02 1.79222E-01-3.44010E-01 1.38081E+01 6.95033E-02-1.14790E+00
 -1      3890-3.10815E+02 1.33223E-02 7.26232E-03 2.60572E+01 5.23812E-02-4.16666E-01
 -1      3891 5.26362E+02-8.68509E-02 2.48571E-01 1.33056E+01 6.76428E-02-1.18707E+00
 -1      3892 4.85541E+02 1.51580E-01-2.15337E-01 1.34042E+01 1.70340E-01-1.06154E+00
 -1      3893 4.62840E+02-9.67925E-02 3.40925E-01 1.37722E+01 1.25379E-01 1.14929E+00
 -1      3894 4.74611E+02-4.08913E-02 3.68815E-01 1.33259E+01-4.32179E-03 1.25460E+00
 -1      3895 4.35264E+02-9.15649E-02-2.99662E-01 1.32488E+01 2.26235E-02 1.02706E+00
 -1      3896 2.79216E+02 1.49357E-01-1.47836E-01 2.60753E+01 1.50707E-01 4.71334E-01
 -1      3897 6.18022E+02 1.21216E-01-3.20162E-01 1.37814E+01 1.07058E-01-1.14389E+00
 -1      3898 3.79519E+02-2.37539E-02 5.35564E-02 2.60672E+01 9.87400E-02-4.77110E-01
 -1      3899-1.08046E+02 9.60869E-02 4.44093E-01 2.60279E+01 5.72706E-01-3.24860E-02
 -1      3900-2.09974E+02-1.05218E-01-1.15104E-01 1.53065E+01-1.42381E-02-6.94232E-02
 -1      3901-5.06698E+01 2.15128E-02-2.23253E-01 3.05075E+01-2.32614E-01 1.32226E-01
 -1      3902 2.09899E+02 7.00426E-03 1.37713E-01 1.53263E+01 1.20316E-02-8.41190E-02
 -1      3903-6.31024E+00-4.68504E-02 4.74208E-01 2.77047E+01-2.57794E-03 1.50685E-01
 -1      3904 5.06678E+01 5.80157E-02 3.08609E-01 3.05353E+01 1.86688E-01 1.42242E-01
 -1      3905-1.84154E+02 8.49935E-01 1.98305E-01 2.97768E+01 1.33995E-01-3.29255E-01
 -1      3906-3.71870E+02 2.48379E-01 9.36095E-02 1.37502E+01 8.29332E-02 9.03739E-01
 -1      3907-3.82996E+02-3.61522E-02 3.66457E-01 1.38836E+01-1.26587E-01 1.17512E+00
 -1      3908-2.09876E+02-4.42660E-02-9.44448E-03 2.65816E+01-7.45442E-02 5.79328E-01
 -1      3909-3.36357E+02 4.17887E-01 6.11376E-01 1.52533E+01 2.21711E-01 9.78487E-01
 -1      3910-2.02113E+02-3.21285E-02-1.49867E-01 2.61960E+01-1.94344E-01 5.49821E-01
 -1      3911 2.92449E+02-1.77818E-02 9.50659E-02 1.43377E+01 1.18597E-01 1.14895E+00
 -1      3912 3.11475E+02 3.54885E-01-1.94929E-01 1.33573E+01 1.66976E-03 1.07510E+00
 -1      3913-1.61902E+02-2.31656E-01-3.44628E-01 3.01572E+01 1.57439E-01 2.17098E-04
 -1      3914-3.61937E+02 1.41727E-01-4.70663E-02 2.58848E+01 1.81318E-01 5.69478E-01
 -1      3915 3.77399E+02 1.31742E-01-1.02012E-01 1.43008E+01-1.54774E-01 1.15815E+00
 -1      3916 3.90838E+02-6.50902E-01-7.76936E-03 1.23517E+01 9.10474E-02 1.13000E+00
 -1      3917 1.59716E+01 2.51743E-01-4.75774E-01 2.79581E+01-1.38770E-01-5.05861E-02
 -1      3918-9.84425E+01-3.06910E-01-5.04084E-01 3.05552E+01 1.31819E-01-6.52823E-03
 -1      3919 1.81047E+02-1.39026E-01-2.43221E-01 2.65829E+01 1.26650E-01 3.08533E-01
 -1      3920 1.99282E+02 2.62437E-01 4.33547E-02 2.57678E+01-1.63183E-01 5.84764E-01
 -1      3921-1.55738E+01-6.05907E-02 5.84765E-01 2.77205E+01 3.89365E-02-1.59908E-01
 -1      3922 9.90070E+01 2.96126E-02 3.47054E-01 3.05656E+01-1.93626E-01-1.48609E-01
 -1      3923 2.37801E+02 2.75035E-01 2.99386E-01 2.66381E+01-1.90726E-01 3.68224E-01
 -1      3924 2.52629E+02-3.71718E-01-4.19478E-02 2.51139E+01 1.69438E-01 6.90428E-01
 -1      3925 5.14677E+02-2.18340E-01 3.28028E-01 1.38104E+01-5.11348E-02-1.12796E+00
 -1      3926 3.10593E+02-8.72465E-02-9.01420E-02 2.61326E+01 4.88524E-02-2.86520E-01
 -1      3927-2.12685E+02 1.98935E-01 4.94517E-01 2.59501E+01-5.10632E-01-9.95353E-02
 -1      3928-4.15879E+02-9.64314E-02-1.18673E-01 1.49683E+01 1.16452E-01 2.02187E-01
 -1      3929-6.55700E+02-3.57899E-01 1.50750E-01 1.47301E+01 6.78726E-02 3.48990E-01
 -1      3930-7.98741E+01-1.08102E-01-4.75418E-01 3.01505E+01 5.08557E-02-1.25816E-01
 -1      3931-1.69971E+02 3.11199E-01-7.52211E-02 2.58327E+01 1.66261E-01 4.41867E-01
 -1      3932 2.12639E+02-1.18166E-01-5.05125E-01 2.60061E+01 4.60181E-01 6.39361E-02
 -1      3933 4.16647E+02 8.34960E-03 1.26009E-01 1.53161E+01-6.98717E-02 9.73663E-02
 -1      3934 8.28323E+02-3.36480E+00 2.33936E+00 6.07996E+00-1.89310E+00-3.64486E+00
 -1      3935 7.32324E+02 1.70818E-01 2.22914E+00 1.75986E+01-2.01409E+00-3.50566E+00
 -1      3936 5.29663E+01 2.32653E-01-6.93290E-01 1.37525E+01 4.96786E-02-9.95137E-01
 -1      3937 5.72158E+01 9.34390E-02-3.25540E-01 1.53168E+01 1.51397E-01-7.85811E-01
 -1      3938 8.31623E+02-2.05634E-01 1.70135E+00 1.17407E+01-5.93533E-01-2.70875E+00
 -1      3939 4.47758E+02-1.95411E+00 2.27402E-01 2.51097E+01-3.22696E+00-3.53986E+00
 -1      3940 7.33338E+02 1.90867E-02-4.90308E-01 1.50005E+01 1.47763E+00 3.13525E+00
 -1      3941 7.43127E+02-3.20554E-01-1.55288E-01 1.35984E+01 3.27002E-01 2.00233E+00
 -1      3942 6.51871E+01-1.79569E-02-3.29670E-01 1.40179E+01-4.47353E-02-1.01970E+00
 -1      3943 3.48099E+01 1.80010E-01-2.20459E-01 2.65028E+01-2.08702E-03-6.10836E-01
 -1      3944-5.91901E+02 1.50545E-02-2.29885E-01 1.31700E+01 1.87283E-01 5.22455E-01
 -1      3945-5.53613E+02-9.10871E-02 3.61967E-01 1.49553E+01-6.98711E-02 2.39752E-01
 -1      3946-3.05006E+02-7.10957E-02-2.03469E-01 2.51971E+01-1.07164E-01 6.22532E-02
 -1      3947-5.97969E+02 1.51493E-01-1.61648E-01 1.31366E+01 8.12493E-02-3.58945E-01
 -1      3948-3.44823E+02 4.29513E-03-1.02793E-02 2.46182E+01 3.50049E-01 1.90995E-02
 -1      3949 1.70893E+02 7.70608E-02-3.18445E-02 1.34859E+01-6.40972E-02-8.91132E-01
 -1      3950-1.70921E+02-8.73893E-02 4.98366E-02 1.35264E+01 7.52301E-02-9.23159E-01
 -1      3951-5.76181E+02-1.69948E-01 2.05015E-01 1.31707E+01 1.01612E-01 3.79747E-01
 -1      3952-2.87984E+02 7.42626E-02 2.20861E-01 2.51769E+01-1.23365E-01-5.06608E-02
 -1      3953-5.24000E+02 1.09779E-01-3.24993E-01 1.49076E+01-4.72366E-02-2.48377E-01
 -1      3954-5.82402E+02-1.12258E-01 1.35495E-01 1.31566E+01 2.27200E-01-6.01478E-01
 -1      3955 5.82508E+02 1.07457E-01-8.36506E-02 1.31462E+01-2.32177E-01-5.98052E-01
 -1      3956 5.23714E+02-1.93078E-01 1.60464E-01 1.49269E+01 4.97767E-02-2.14620E-01
 -1      3957 2.88161E+02-9.06548E-02-2.32069E-01 2.51696E+01 1.12208E-01-3.15046E-02
 -1      3958 5.76628E+02 1.70882E-01-2.30100E-01 1.31444E+01-8.90516E-02 3.75660E-01
 -1      3959 3.45350E+02-1.03172E-02 1.15745E-02 2.45976E+01-3.63049E-01 1.47795E-02
 -1      3960 1.29998E+02-3.14085E-01 1.58144E-01 3.04072E+01-6.69418E-02-2.46303E-02
 -1      3961-4.62911E+01-2.27673E-01 3.80172E-01 2.74533E+01 3.88225E-01 9.86589E-03
 -1      3962-1.73924E+02 2.11345E-01 3.09975E-01 2.98847E+01 6.37573E-02-1.45837E-01
 -1      3963 1.71649E+02 8.05536E-03-1.59291E-01 2.99110E+01-1.64344E-02 1.32441E-01
 -1      3964-3.38527E+00-5.07059E-01-3.30742E-01 2.77930E+01-5.18827E-03 1.81511E-02
 -1      3965-1.73628E+02 2.49047E-02-2.31115E-01 2.98595E+01 7.76558E-02-8.20576E-02
 -1      3966-1.18923E+02-4.38515E-01 1.71796E-01 3.03868E+01 6.90215E-02 3.38086E-02
 -1      3967 1.71326E+02 9.45759E-02 3.47704E-01 2.98583E+01-3.73142E-02 1.39080E-01
 -1      3968 4.99966E+01-1.96724E-01 4.24275E-01 2.74113E+01-4.01269E-01-2.40395E-03
 -1      3969 5.98050E+02-1.63139E-01 1.92843E-01 1.31306E+01-6.67703E-02-3.52259E-01
 -1      3970 3.05812E+02 6.95030E-02 2.09506E-01 2.51638E+01 1.01228E-01 3.52907E-02
 -1      3971 5.54376E+02 1.72663E-01-2.01062E-01 1.49165E+01 7.52869E-02 2.09700E-01
 -1      3972 5.92336E+02-2.04074E-02 1.88301E-01 1.31284E+01-1.91659E-01 5.24118E-01
 -1      3973 4.59703E+02-4.22373E-02-5.75065E-01 2.59442E+01 1.40082E+00 1.72721E+00
 -1      3974 4.70214E+02-3.99448E-01-4.58296E-02 2.50456E+01 6.56168E-01 1.09951E+00
 -1      3975 1.17025E+02 2.94729E-01-1.65394E-01 3.04104E+01-5.69163E-02 8.97958E-03
 -1      3976-4.98036E+01 2.05728E-01-4.08978E-01 2.74333E+01 3.89770E-01-1.33519E-02
 -1      3977-1.72550E+02-1.39525E-01-3.55620E-01 2.98560E+01 5.62889E-02 1.24798E-01
 -1      3978 1.72077E+02-2.86813E-03 2.31081E-01 2.98840E+01-8.36719E-02-9.16998E-02
 -1      3979 3.90836E+00 5.04130E-01 3.31643E-01 2.77938E+01-7.01364E-04-3.19058E-04
 -1      3980 3.68627E+02 7.84907E-01 2.86790E-01 1.29587E+01 4.93091E-01 3.68050E-01
 -1      3981 1.12910E+02-7.19076E-01-1.30213E-01 1.37736E+01-4.31407E-01 3.23410E-01
 -1      3982 2.99003E+01 7.47480E-01 4.80243E-01 2.98953E+01-5.33791E-03 1.72645E-01
 -1      3983 8.55842E-01-3.24451E-01-1.79645E-01 2.79298E+01 2.27676E-01 9.20304E-02
 -1      3984-1.73460E+02-5.11449E-02 1.68069E-01 2.98902E+01 7.79872E-03 1.12851E-01
 -1      3985-1.31536E+02 4.31186E-01-1.70520E-01 3.04232E+01 7.06130E-02-5.81493E-02
 -1      3986 1.71776E+02-1.91575E-01-3.13895E-01 2.99037E+01-5.45773E-02-1.52360E-01
 -1      3987 4.70827E+01 1.94587E-01-3.90102E-01 2.74464E+01-4.05091E-01 4.36571E-03
 -1      3988 8.15066E+01 1.80496E-02 1.94494E-01 1.42590E+01 7.20005E-02-1.00067E+00
 -1      3989 8.15730E+02-2.52710E-02 3.94362E-01 1.19351E+01-6.72259E-01-3.01729E+00
 -1      3990-1.06835E+02 8.39357E-02 6.49174E-01 1.38685E+01 8.58262E-02 9.99781E-01
 -1      3991 7.00974E+02-6.44849E-01-2.44392E-01 1.38493E+01-4.53207E-01 3.48348E-01
 -1      3992-7.35123E+02-1.46636E-01 5.42586E-02 1.40091E+01-2.37477E-01 1.07555E+00
 -1      3993-6.49398E+02-1.79305E-01 1.95842E-01 1.46179E+01 8.30617E-02 1.07725E+00
 -1      3994-7.29282E+02-2.43586E-02-2.85708E-01 1.36740E+01-3.21785E-02 9.88966E-01
 -1      3995-4.04172E+02 6.95589E-02-6.87268E-02 2.62348E+01 1.68363E-01 4.31187E-01
 -1      3996-1.59809E+02 1.91551E-01 1.02422E-01 1.42510E+01 2.11010E-01 1.06213E+00
 -1      3997-3.08807E+02-6.44309E-02 2.32743E-01 1.45046E+01 1.23806E-01 3.86048E-01
 -1      3998-2.85547E+01 1.77851E-01 3.04388E-01 2.55906E+01-4.74068E-01-5.05733E-01
 -1      3999 1.94337E+02 1.05659E+00 6.35422E-01 2.98253E+01 2.21602E-02 2.49977E-01
 -1      4000-3.30361E+02-2.10926E-02-2.31242E-01 1.38600E+01-1.26308E-02 1.02259E+00
 -1      4001-3.02500E+02 4.60476E-02 1.70792E-01 1.44157E+01-7.39210E-03 1.03728E+00
 -1      4002-1.88107E+02 2.07260E-01-1.20327E-01 2.61392E+01 6.90914E-02 3.45910E-01
 -1      4003-1.98777E+02 5.58920E-02 1.01218E-01 2.59867E+01-2.43915E-01 5.92938E-01
 -1      4004-3.11978E+02-1.72474E-01-1.59309E-01 1.31702E+01-4.15288E-02 9.35178E-01
 -1      4005-7.90480E+02-7.26583E-02-5.65228E-01 1.31026E+01-3.08843E-01 1.79170E+00
 -1      4006-1.59973E+02 8.26945E-01 6.80225E-01 2.77311E+01 7.53120E-03 7.44913E-01
 -1      4007 1.17466E+02-7.24373E+00-1.24642E+01 2.32286E+01-1.29945E+00-5.68061E-01
 -1      4008-7.77641E+01 1.16325E-01 5.07408E-02 2.99044E+01 8.48043E-02 4.79210E-02
 -1      4009-1.47980E+02-2.83821E-01-1.33333E-01 2.58165E+01-6.88975E-02 3.74819E-01
 -1      4010-7.14615E+01-6.79332E-02-2.69767E-01 2.98519E+01 3.65170E-02-5.48657E-02
 -1      4011 7.71932E+01-3.64620E-02-2.29903E-01 2.99942E+01-4.69059E-02-3.28074E-02
 -1      4012 8.00124E+00-1.07454E-02-3.24419E-01 2.73944E+01-3.34976E-01 7.72969E-02
 -1      4013 9.98859E-01 4.70854E-01 3.66545E-01 2.76771E+01 1.47790E-01 7.28187E-02
 -1      4014-3.14893E+01-5.14596E-01 4.27587E-01 1.28026E+01-1.80594E-01-9.77665E-01
 -1      4015-3.93254E+01-2.14920E-01 1.23223E-01 1.44963E+01-7.93530E-02-8.42416E-01
 -1      4016-4.81353E+01 6.75324E-01 6.51120E-01 2.80324E+01-1.41011E-01-6.90833E-01
 -1      4017 4.81314E+01-5.88262E-01-6.21477E-01 2.81182E+01 1.52929E-01-6.50119E-01
 -1      4018-7.75146E+01 5.83147E-01 7.39095E-01 2.74436E+01 2.97319E-02 7.05405E-01
 -1      4019 9.58953E+01-6.06581E-01-6.18387E-01 2.81269E+01-1.49271E-01 7.73619E-01
 -1      4020-9.59198E+01 5.69503E-01 5.57159E-01 2.83183E+01 1.16421E-01 7.10182E-01
 -1      4021-3.42127E+02-2.51076E-01 1.67064E-01 1.36178E+01-1.73324E-01 1.07650E+00
 -1      4022-1.98542E+02-1.37475E-01-6.46415E-02 2.60828E+01-6.76609E-02 4.59138E-01
 -1      4023-6.86346E+02-1.55096E-01-1.60686E-01 1.30639E+01-1.02158E-01 1.04850E+00
 -1      4024-4.42605E+02-1.34446E-02 9.44622E-02 2.58651E+01-2.75030E-01 6.56606E-01
 -1      4025-2.64569E+02 1.29222E-01 5.25044E-01 1.44467E+01-1.01054E-01 1.72841E-01
 -1      4026-2.69203E+02-2.27750E-01-2.79279E-01 1.32131E+01 1.16753E-01 3.83405E-01
 -1      4027-2.70303E+02 3.10038E-02-6.38434E-02 1.32000E+01-1.62195E-02-3.91612E-01
 -1      4028-1.53835E+02-6.44488E-02 1.12704E-02 2.42674E+01 1.99183E-01 1.28393E-01
 -1      4029-1.48971E+02-4.31771E-01-1.88051E-02 2.48097E+01-1.18716E-01 3.07853E-02
 -1      4030-3.56776E+02 7.96860E-02 1.32050E-01 1.37488E+01 6.11320E-02 1.26812E+00
 -1      4031-3.16912E+02 1.46271E-01 5.39545E-02 1.48127E+01-2.37238E-02 8.94725E-01
 -1      4032-2.75181E+01-9.63324E-02-4.56132E-01 3.00782E+01-1.40574E-01-1.72120E-03
 -1      4033-3.98677E+02 2.52857E-01-9.04683E-02 1.38975E+01 2.24868E-01 1.03164E+00
 -1      4034-8.18018E+02 5.74824E-01 8.34719E-02 1.26390E+01 1.86155E-01-2.68260E+00
 -1      4035-2.52920E+02 1.62442E-01 2.34747E-01 1.30402E+01-3.76975E-02 3.91094E-01
 -1      4036-1.26006E+02 1.73470E-01 3.67822E-02 2.52775E+01 1.09299E-01-9.18435E-02
 -1      4037-2.25591E+02-2.28806E-01-2.59723E-01 1.53149E+01 9.48828E-02-5.95679E-02
 -1      4038-2.55173E+02-1.66956E-02 2.69575E-01 1.31425E+01 1.50391E-01-4.51729E-01
 -1      4039-1.70759E+02-5.86136E-01-1.17664E-01 2.76328E+01 9.73810E-03 1.63653E-01
 -1      4040-1.27782E+02 8.36691E-01 2.48634E-01 2.73197E+01-2.66888E-01 3.14667E-01
 -1      4041-1.73784E+02 5.82510E-01 1.12283E-01 2.76550E+01 1.06941E-02-1.31287E-01
 -1      4042 1.74121E+02-5.72741E-01-9.76941E-02 2.76496E+01-1.23918E-02-1.39450E-01
 -1      4043 1.20183E+02 8.37893E-01 2.37972E-01 2.73220E+01 2.82236E-01-2.97244E-01
 -1      4044 1.71465E+02 5.60202E-01 9.69494E-02 2.76272E+01-9.83938E-03 1.72205E-01
 -1      4045-1.20173E+02-8.34473E-01-2.30078E-01 2.73008E+01-2.64433E-01-3.18941E-01
 -1      4046 1.28796E+02-8.59584E-01-2.50741E-01 2.73165E+01 2.87005E-01 2.95392E-01
 -1      4047 1.41217E+02 9.02815E-02 1.79275E-01 2.49978E+01-1.27484E-01 9.33776E-02
 -1      4048 2.73295E+02-1.06282E-01 2.63632E-01 1.31445E+01 3.02607E-02 3.53161E-01
 -1      4049 2.56159E+02 2.74363E-01-1.61704E-01 1.47097E+01-2.64383E-02-2.25748E-01
 -1      4050 1.39317E+02 2.89902E-01 4.85982E-01 2.61633E+01 1.17797E-01-5.64879E-01
 -1      4051 2.69258E+02-2.71190E-01 8.72578E-02 1.33288E+01 9.60731E-02-4.80047E-01
 -1      4052 3.82091E+02 4.14504E-01-6.63728E-02 1.37670E+01 4.58887E-02-1.09417E+00
 -1      4053 3.56335E+02-6.64681E-01-6.10019E-02 1.38976E+01-4.07492E-02 1.14361E+00
 -1      4054-1.40529E+02 1.70251E-01-2.41371E-01 2.98379E+01-4.37073E-02-7.59558E-02
 -1      4055-4.16872E+01 2.47458E-01 4.14426E-02 2.72416E+01-4.17278E-01-5.26941E-01
 -1      4056 9.95065E+01 3.87275E-02-2.66256E-01 3.04326E+01 6.88385E-02-2.31511E-01
 -1      4057 1.44912E+02-1.73431E-01 1.90828E-01 2.99007E+01 1.24376E-01 1.17876E-01
 -1      4058 2.40844E+02-5.93678E-01-5.88169E-01 2.64073E+01-5.03409E-02 4.63909E-01
 -1      4059 2.38640E+02-3.44072E-01-2.25179E-01 2.51309E+01-9.30655E-02 1.36362E-02
 -1      4060 4.76487E+02 1.59676E-01-1.64700E-01 1.30738E+01 1.66229E-03-4.97328E-01
 -1      4061 4.32224E+02 9.18786E-02 2.29415E-01 1.52001E+01 7.85812E-02 1.04235E-01
 -1      4062 4.80586E+02 2.06966E-01-1.66482E-01 1.32022E+01 1.77760E-01 4.65743E-01
 -1      4063 7.51553E+02-3.05536E-01 3.74520E-01 1.40255E+01-9.33665E-02-1.08577E+00
 -1      4064-7.68559E+01-8.85440E-02-2.16920E-01 2.99080E+01 6.52673E-02 3.10411E-02
 -1      4065 7.67481E+01 1.81908E-02 2.99949E-01 2.98400E+01-4.23853E-02-1.33196E-01
 -1      4066 5.03719E+01 7.66297E-02-3.36019E-01 3.04374E+01-6.22405E-02 2.05786E-01
 -1      4067-2.44684E+01-2.28752E-01-5.59142E-01 2.72732E+01 3.99168E-01-5.99561E-02
 -1      4068-8.96258E+00-1.62044E-02 6.15003E-01 2.78471E+01-2.00787E-01-6.17950E-02
 -1      4069 6.15168E+01 8.60685E-02 4.56707E-01 3.03871E+01 1.34461E-01-8.87082E-02
 -1      4070-3.31371E+02 1.31008E-01-4.82556E-01 1.47412E+01 8.06490E-03 9.45006E-01
 -1      4071 7.86422E+01 7.04972E-02-2.60563E-01 2.98283E+01 8.31052E-02 1.02530E-01
 -1      4072 2.02346E+01 4.21756E-01-3.54210E-02 2.74659E+01 3.12435E-01 6.58116E-02
 -1      4073-6.09189E+01 1.78586E-01-2.22986E-01 3.04087E+01-4.21407E-02 4.83739E-02
 -1      4074-7.75345E+01-1.49290E-01 2.60142E-01 2.98341E+01-8.75519E-02-1.52632E-01
 -1      4075-1.39616E+02-7.11060E-01-7.72009E-01 2.61314E+01-5.50954E-02-5.28767E-01
 -1      4076-1.60295E+02 1.70977E-01 2.67757E-03 2.56923E+01 5.95549E-02-5.33831E-01
 -1      4077-2.48692E+02-4.60884E-01-4.86023E-01 1.31737E+01-1.16214E-01-1.27192E+00
 -1      4078-2.56040E+02-3.59441E-01-1.84312E-01 1.43306E+01-2.09513E-02-8.70785E-01
 -1      4079 2.75994E+02-5.20469E-01-4.77830E-01 1.34839E+01-1.61905E-01-1.11319E+00
 -1      4080 1.75598E+02 8.46535E-02-7.79722E-02 2.58589E+01 7.69604E-02-5.42331E-01
 -1      4081 2.68713E+02-3.40258E-01-2.23776E-01 1.43617E+01 4.46045E-02-8.24430E-01
 -1      4082-9.00501E+01-1.86367E-01 8.43487E-02 1.41204E+01-1.48950E-01-1.11214E+00
 -1      4083-8.38768E+01-9.73343E-02-3.15729E-03 1.32258E+01 9.63863E-02-9.64758E-01
 -1      4084-5.77048E+01-1.54259E-01-2.19751E-01 2.63900E+01-1.69691E-01-3.97836E-01
 -1      4085-5.27592E+01 6.62832E-02 4.21664E-02 2.58916E+01 2.28612E-01-5.75491E-01
 -1      4086-2.62822E+02 5.95962E-03-5.19208E-02 1.32422E+01-2.97220E-02-1.22872E+00
 -1      4087-1.68350E+02 6.43016E-04-3.01722E-02 2.60941E+01-6.60093E-03-3.94846E-01
 -1      4088 2.61759E+02 5.85904E-02-1.11312E-01 1.33246E+01 4.75249E-02-1.21008E+00
 -1      4089 1.67632E+02 3.81194E-02-8.37793E-03 2.61544E+01 7.04970E-02-3.51779E-01
 -1      4090 3.13992E+02-1.63065E-02 3.11499E-01 1.51471E+01 1.09268E-01-6.73929E-01
 -1      4091 1.40142E+02-2.62117E-01 4.04373E-02 1.53325E+01-4.67371E-04-8.63709E-01
 -1      4092-1.40097E+02 2.74507E-01-7.36755E-03 1.53484E+01-2.53321E-02-8.76632E-01
 -1      4093 3.54200E+02-2.50507E-01-4.82352E-01 1.51323E+01 5.66437E-02-6.78664E-01
 -1      4094 9.89450E+01 2.88768E-01 5.00184E-01 1.51209E+01-9.11859E-02-6.75892E-01
 -1      4095-9.25563E+01 2.02711E-02-7.17792E-02 1.36240E+01-5.06659E-02-8.59978E-01
 -1      4096-9.82027E+01-5.66293E-01-9.70697E-02 1.53427E+01 7.04862E-02-8.78346E-01
 -1      4097 6.72357E+02-7.64753E-02 2.94985E-01 1.51024E+01-8.94691E-02-7.54699E-01
 -1      4098 4.73916E+02 5.49404E-01 5.24552E-01 1.32902E+01-1.74118E-01 1.35458E+00
 -1      4099 3.07174E+02-1.60488E-01-2.73875E-03 2.55102E+01-1.89571E-02 4.27049E-01
 -1      4100 4.81347E+02 3.92277E-01 2.25926E-01 1.43335E+01-8.45783E-02 8.56202E-01
 -1      4101-5.80420E+02-3.76751E-01 9.55182E-02 1.39872E+01 3.96028E-01-2.44053E-01
 -1      4102-3.30154E+02 2.39684E-01-1.65607E-01 2.53949E+01-1.32386E-01-5.11696E-01
 -1      4103 4.88024E+02 7.45996E-02 6.61490E-02 1.33080E+01-3.47970E-02 1.24533E+00
 -1      4104 3.16390E+02 2.61299E-02 2.14856E-02 2.59332E+01-5.88345E-02 3.95537E-01
 -1      4105-6.71808E+02-1.66355E-01-3.85242E-01 1.51892E+01-3.62103E-02-6.96565E-01
 -1      4106 7.12222E+02-5.26905E-01-6.16470E-01 1.51370E+01-1.07186E-01-1.06464E+00
 -1      4107-6.39704E+02 5.45593E-01 3.73105E-02 1.40676E+01 4.39107E-01 1.95683E-01
 -1      4108-3.64377E+02 7.27290E-02 3.09106E-01 2.51264E+01-3.31150E-01 6.29876E-01
 -1      4109-7.11453E+01 2.88023E-01 2.02350E-01 2.97953E+01-1.80667E-02 2.40161E-01
 -1      4110-1.60803E+02 8.96966E-02 2.93269E-01 2.54790E+01-2.91009E-01 5.17001E-01
 -1      4111-1.85096E+02 2.59294E-01 1.50688E-02 1.42975E+01-3.73296E-01-1.09026E-01
 -1      4112-1.06047E+02-1.39273E-02 3.85602E-01 2.52538E+01 2.90849E-01-6.35733E-01
 -1      4113-4.58547E+01 9.29554E-02 3.80764E-02 2.97275E+01 7.18513E-02-2.86905E-01
 -1      4114 1.85206E+02-2.50538E-01 2.23935E-02 1.43177E+01 3.43981E-01-6.89703E-02
 -1      4115 1.06043E+02 4.30768E-02-3.53237E-01 2.52526E+01-3.10814E-01-6.17528E-01
 -1      4116 4.59089E+01 9.41082E-03 1.20386E-02 2.97558E+01-9.29587E-02-2.75387E-01
 -1      4117 2.69677E+02-3.42078E-02-1.37255E-01 1.42408E+01 1.57511E-01 2.30326E-01
 -1      4118 1.52937E+02-1.99844E-01 3.49832E-01 2.56184E+01-1.23346E-01 6.31450E-01
 -1      4119-2.80499E+02 1.10718E-02 1.74054E-02 1.46513E+01 7.44087E-02 3.42450E-01
 -1      4120-1.31869E+02 2.16962E-01 9.62562E-02 2.60534E+01 1.60482E-01 1.95816E-01
 -1      4121 7.29414E+01-9.18792E-03 9.42268E-03 2.98336E+01-8.54984E-02 1.29356E-01
 -1      4122 5.44065E+02-3.78889E-01 7.82632E-02 1.40010E+01-3.92143E-01 2.42124E-01
 -1      4123 3.10072E+02 2.21562E-01-1.67914E-01 2.54006E+01 1.30171E-01 5.12080E-01
 -1      4124-5.44211E+02 3.68241E-01-1.16935E-01 1.39820E+01 4.07350E-01 2.53450E-01
 -1      4125-3.09771E+02-2.33789E-01 1.65697E-01 2.53932E+01-1.42279E-01 5.12684E-01
 -1      4126-7.71109E+01-6.29093E-01-1.36695E-01 2.74546E+01-8.95096E-02 2.06941E-01
 -1      4127-7.02715E+01 3.08116E-01-1.10822E-01 2.68120E+01-2.42637E-01 2.52840E-01
 -1      4128 5.80768E+02 3.80240E-01-5.12459E-02 1.39784E+01-3.79244E-01-2.31940E-01
 -1      4129 3.30537E+02-2.34467E-01 1.69084E-01 2.53887E+01 1.23654E-01-5.12505E-01
 -1      4130-1.54618E+02 3.10205E-01 2.46730E-01 2.97600E+01-2.28129E-01-1.68380E-01
 -1      4131 1.40460E+02 2.59073E-01 2.53341E-01 2.97650E+01 2.46268E-01 1.59048E-01
 -1      4132-2.32835E+02 5.08564E-01 6.93574E-02 1.40533E+01 3.78658E-01 3.32016E-01
 -1      4133-1.34174E+02-1.06129E-02 1.51874E-01 2.54422E+01-1.73541E-01 4.08440E-01
 -1      4134-5.88168E+01-1.21866E-01-1.89247E-01 2.98948E+01-3.54793E-01 5.82057E-02
 -1      4135-1.02398E+02 5.37358E-03 1.45819E-02 2.97729E+01-8.75469E-02 2.95679E-01
 -1      4136-2.28596E+02-5.57927E-02 3.59735E-01 2.52186E+01-3.09149E-01 6.62001E-01
 -1      4137 1.02428E+02-1.17181E-01-1.57276E-01 2.97524E+01-5.18137E-02 3.38659E-01
 -1      4138 2.28894E+02 1.38288E-01-3.33052E-01 2.53852E+01 2.95953E-01 7.63942E-01
 -1      4139-7.43121E+02-9.12373E-02-4.39689E-01 1.46261E+01-1.33191E+00 2.55534E+00
 -1      4140-4.00404E+02 3.24861E-01 2.65750E-02 1.42796E+01 3.53208E-01 7.81367E-02
 -1      4141 4.00160E+02-6.13259E-02 1.09346E-01 1.43481E+01-1.94655E-01 1.13506E-01
 -1      4142 8.04489E+02 7.24155E-02-6.91042E-02 1.28677E+01 2.21085E-01 1.87677E+00
 -1      4143 7.38036E+02-4.36584E-02-2.62649E-01 1.49359E+01 1.31465E+00 2.69958E+00
 -1      4144-1.66250E+02-9.20461E-02-1.06359E-01 2.97583E+01-1.32523E-01 3.28570E-01
 -1      4145-4.99285E+02 5.21546E-02 4.43312E-01 1.50631E+01-6.65930E-02-6.82430E-01
 -1      4146 1.70474E+02 5.63187E-02 1.01988E-01 1.52712E+01 2.23495E-02-8.63596E-01
 -1      4147-1.70464E+02-5.79290E-02-9.69563E-02 1.53079E+01-1.41054E-02-8.67076E-01
 -1      4148-2.18936E+02 9.58550E-03-4.34340E-01 1.51468E+01-4.15749E-02 7.15638E-01
 -1      4149-2.76797E+02-7.25584E-02-1.46930E-01 1.36087E+01 2.21913E-02 9.62456E-01
 -1      4150-2.65894E+02-1.98838E-01 9.98397E-02 1.54323E+01-1.43352E-02 8.86355E-01
 -1      4151-2.57884E+02-3.78126E-02 1.74318E-01 1.43528E+01 9.75122E-02 1.15873E+00
 -1      4152-1.62363E+02-1.22799E-01-9.68434E-02 2.66029E+01 9.70793E-02 2.91800E-01
 -1      4153 2.19027E+02-6.36923E-03 3.80826E-01 1.51289E+01 2.99587E-02 6.89705E-01
 -1      4154 3.28435E+02 6.66498E-02-7.53431E-02 1.35771E+01 6.87320E-02 9.03886E-01
 -1      4155 2.84298E+02-1.79151E-01 2.34905E-02 1.54261E+01-3.94159E-02 8.79420E-01
 -1      4156 6.25562E+02 4.68862E-01 5.38289E-01 1.50980E+01-4.92064E-02 6.61690E-01
 -1      4157-3.85720E+02-5.61087E-02-1.01245E-01 1.52480E+01 7.18271E-03 8.28884E-01
 -1      4158-5.94413E+02-2.25923E-03 4.20313E-01 1.51298E+01 4.21206E-02-7.03473E-01
 -1      4159 5.30056E+02-6.65363E-04 4.29610E-01 1.51419E+01-4.91385E-02 6.98594E-01
 -1      4160-1.14202E+02-6.57270E-02-1.69987E-01 2.98852E+01 3.88476E-01-4.44532E-02
 -1      4161-2.56026E+02 1.49145E-01 4.07911E-01 2.50978E+01 2.66677E-01-7.67721E-01
 -1      4162 4.08335E+02 1.10791E-02 9.70188E-03 1.34831E+01-8.37234E-02 9.64925E-01
 -1      4163 3.85583E+02 2.03235E-01-6.15247E-02 1.54612E+01-1.27682E-02 9.26223E-01
 -1      4164 5.16719E+02 2.23919E-02 1.33411E-02 1.35503E+01-3.73204E-02 9.51077E-01
 -1      4165-1.42247E+02-3.13900E-01-2.55841E-01 2.97451E+01-2.33134E-01 1.51078E-01
 -1      4166 4.98920E+02-2.36191E-02-3.91660E-01 1.50609E+01 1.93373E-02-6.92770E-01
 -1      4167-4.48310E+02 4.34348E-01 1.59997E-01 1.42034E+01-3.82592E-01-3.08017E-01
 -1      4168 4.48488E+02-5.24345E-01-7.56010E-02 1.39879E+01 3.60926E-01-3.68141E-01
 -1      4169 2.55564E+02-3.45494E-01-5.93632E-01 2.51051E+01-2.34909E-01-4.88070E-01
 -1      4170-7.12037E+02 1.40704E-01 1.71084E-01 1.51836E+01 1.46054E-01-1.23204E+00
 -1      4171 1.52700E+02-2.65385E-01-2.40406E-01 2.97841E+01 2.41626E-01-1.72654E-01
 -1      4172 1.13765E+02 3.73714E-02 1.74722E-01 2.99318E+01-2.34510E-01-1.77821E-01
 -1      4173-5.30228E+02-4.70036E-03-4.30727E-01 1.51111E+01 3.82147E-02 7.02395E-01
 -1      4174-6.25688E+02-5.23438E-02-4.60568E-01 1.51083E+01 4.83773E-03 7.15851E-01
 -1      4175 4.34608E+02 1.13847E-04 4.15323E-01 1.51069E+01-3.55353E-02-7.21894E-01
 -1      4176 5.94757E+02-8.85166E-04-4.19509E-01 1.51235E+01-4.49908E-02-7.03471E-01
 -1      4177-4.34698E+02 1.67468E-02-4.14911E-01 1.51285E+01-4.97323E-02-6.90893E-01
 -1      4178 1.79098E+02 3.11487E-02 1.86146E-01 1.42975E+01 8.69254E-02-8.54245E-01
 -1      4179 1.10518E+02-1.04611E-01 3.45340E-01 2.64861E+01-2.91388E-01-4.21885E-01
 -1      4180-1.10512E+02 1.60494E-01-3.14946E-01 2.64923E+01 2.79433E-01-4.19048E-01
 -1      4181-2.74301E+02-3.25440E-01-2.10972E-01 1.44915E+01-4.92521E-02 9.89143E-01
 -1      4182-1.79067E+02-1.44560E-02-1.78315E-01 1.43176E+01-7.26289E-02-8.73360E-01
 -1      4183-1.70474E+02 1.54158E-02-1.56107E-01 2.66306E+01-1.56899E-01 3.51780E-01
 -1      4184-1.40071E+02 4.15008E-01-3.38202E-01 2.63511E+01-4.47176E-01 4.79118E-01
 -1      4185-2.27654E+02 2.87872E-01-3.19435E-01 1.42164E+01 2.63331E-02 1.05736E+00
 -1      4186 2.75984E+02-2.03833E-01-3.56748E-01 1.43689E+01-4.70892E-02 1.00352E+00
 -1      4187 1.73245E+02 2.13236E-01-1.06098E-01 2.66092E+01-2.36816E-01 4.21524E-01
 -1      4188-3.94349E+02 2.14652E-02-2.08381E-01 1.43062E+01 6.95770E-02 9.07367E-01
 -1      4189-2.44852E+02 1.63632E-01-3.13666E-01 2.64818E+01-2.94207E-01 4.43865E-01
 -1      4190-5.85950E+02-2.27872E-01 4.15927E-01 1.41739E+01 4.29270E-02-9.79491E-01
 -1      4191-3.67817E+02-4.50646E-01 3.17910E-01 2.63540E+01-4.23649E-01-5.13483E-01
 -1      4192 3.34159E+02-4.62431E-01 3.22176E-01 2.63722E+01 4.28952E-01 5.01623E-01
 -1      4193 5.38536E+02-2.29687E-01 4.15833E-01 1.41955E+01-3.96881E-02 9.62482E-01
 -1      4194 3.93931E+02 2.30234E-01 3.05899E-01 1.44535E+01 3.19795E-02 9.98761E-01
 -1      4195-6.34369E+02 1.93869E-01-3.69752E-01 1.42358E+01 3.73676E-02 9.93392E-01
 -1      4196-5.38675E+02 2.30844E-01-4.15300E-01 1.41713E+01 2.43357E-02 9.84226E-01
 -1      4197 2.45083E+02-1.66918E-01 1.38818E-01 2.66481E+01 1.92439E-01 4.50423E-01
 -1      4198 2.75984E+02-3.76048E-01 3.22865E-01 2.62947E+01-4.15144E-01-5.21117E-01
 -1      4199-2.76113E+02-3.11451E-02-5.85633E-03 1.37316E+01-4.68269E-03-9.77681E-01
 -1      4200 2.76201E+02-3.01818E-02-4.75488E-02 1.37615E+01-9.96258E-03-9.35791E-01
 -1      4201-2.55432E+02 1.07245E-01 2.40684E-01 1.50031E+01 4.67977E-02-2.65773E-01
 -1      4202-4.43318E+02 2.73673E-01-3.44890E-01 1.42280E+01-7.89170E-02-1.00719E+00
 -1      4203 5.86303E+02 2.30733E-01-4.14056E-01 1.41643E+01-4.68050E-02-9.68612E-01
 -1      4204-3.37471E+02 4.39456E-01-3.31495E-01 2.62078E+01-4.38423E-01 5.15742E-01
 -1      4205 3.69508E+02 4.52006E-01-3.17875E-01 2.63235E+01 4.16430E-01-5.16599E-01
 -1      4206-3.98653E+02 4.24771E-01-3.79412E-01 2.62247E+01-4.08169E-01 5.46073E-01
 -1      4207-2.76489E+02 3.97954E-01-4.01369E-01 2.62905E+01 4.19206E-01-4.62061E-01
 -1      4208 4.43399E+02-2.81951E-01 2.95377E-01 1.41796E+01 3.56789E-02-1.05068E+00
 -1      4209 7.30956E-01-2.49149E-02 2.03000E-03 2.87236E+01 1.37353E-02 6.64267E-01
 -1      4210 1.53252E+02-9.39455E-01-2.07226E-01 2.71407E+01-1.90057E-02-2.73409E-01
 -1      4211-1.30044E-01 1.74073E-01-5.53731E-02 2.96967E+01-4.75341E-02-8.83017E-01
 -1      4212 2.95895E-01-8.53840E-02 8.15601E-02 2.93788E+01 4.58431E-02 6.40659E-01
 -1      4213-4.85764E+01-6.19842E-01-1.33015E-01 2.72539E+01 1.58012E-01-5.08520E-01
 -1      4214 4.86719E+01 6.66910E-01 2.29457E-01 2.72922E+01-1.60424E-01-5.09201E-01
 -1      4215 4.00175E-01-4.03160E-01-3.89181E-02 2.83818E+01 1.00787E-02-3.68915E-01
 -1      4216 5.93172E+01-4.76419E-01-4.56421E-01 2.73285E+01-2.97843E-02-3.55918E-01
 -1      4217-5.99096E+01 7.53899E-01-2.26528E-01 2.74554E+01 1.86059E-01-4.41061E-01
 -1      4218 7.08171E+01-3.48299E-01-3.18255E-01 2.71343E+01 1.43984E-01 3.01209E-01
 -1      4219-7.42528E+01-1.45841E-01-3.28851E-01 2.71340E+01-1.13722E-01 3.05585E-01
 -1      4220-1.18021E-01 4.14818E-02-5.89799E-03 2.77063E+01 3.45036E-02-2.76584E-01
 -1      4221-6.06379E+01-8.79808E-01-1.42423E-01 2.71409E+01-1.98561E-01 2.38529E-01
 -1      4222-1.67712E+02-5.12504E-01-1.10517E-01 2.72737E+01-1.09141E-01 4.20331E-01
 -1      4223-1.52672E+02 9.25387E-01 1.87034E-01 2.71482E+01 2.02594E-02-2.74106E-01
 -1      4224-2.80550E-02 1.41691E-02 2.67452E-02 2.95859E+01 2.95814E-03-7.27835E-01
 -1      4225-1.05138E+02-6.71458E-01-2.20893E-01 2.73180E+01-1.34390E-01 5.42055E-01
 -1      4226 1.05013E+02 5.54373E-01 1.30022E-01 2.73859E+01 1.29924E-01 6.26149E-01
 -1      4227 1.97999E+02 2.57405E-02 2.75107E-01 1.38065E+01 3.36869E-02-9.06810E-01
 -1      4228-3.03041E+02-4.71870E-03-2.75330E-01 1.37466E+01 6.74562E-02 9.24711E-01
 -1      4229-1.97991E+02-8.20650E-03-2.75992E-01 1.38027E+01-3.07555E-02-9.13436E-01
 -1      4230-2.50774E+02 3.69773E-02-2.91912E-01 1.38796E+01-2.29962E-02 9.14144E-01
 -1      4231 3.01916E+02 2.90152E-02-2.59141E-01 1.37753E+01 4.95419E-03 9.28960E-01
 -1      4232-3.99548E+02 3.09067E-01 5.60621E-02 1.41517E+01-1.69876E-01-9.21177E-01
 -1      4233-6.43689E+02-4.46449E-02 2.81794E-01 1.38812E+01 4.44255E-03-9.11956E-01
 -1      4234-4.34746E+02-1.62379E-02-2.69970E-01 1.38308E+01 1.16731E-02 9.04718E-01
 -1      4235 5.92662E+02-4.18312E-02 2.83320E-01 1.38887E+01 1.74273E-02 9.08292E-01
 -1      4236-2.30008E-01-8.45445E-04-4.54168E-03 2.86908E+01 1.81565E-02-6.80672E-01
 -1      4237 1.42389E+02 9.44744E-01 2.09608E-01 2.71468E+01-1.46533E-02 2.79692E-01
 -1      4238 2.83981E-01 5.72068E-02-1.04596E-02 2.80726E+01-6.67255E-02 3.97320E-01
 -1      4239 1.00144E+02 5.00967E-01 7.95638E-02 2.71871E+01-1.47984E-02 8.45474E-01
 -1      4240 1.18589E+02 7.03565E-01 5.86838E-01 2.69436E+01-2.17558E-02-3.23416E-01
 -1      4241-1.42253E+02-9.36324E-01-1.89553E-01 2.71345E+01 1.88648E-02 2.83208E-01
 -1      4242 4.34597E+02-2.39220E-02 2.92882E-01 1.38284E+01-4.90628E-02 9.22977E-01
 -1      4243-5.95851E+02 3.20277E-02-2.88426E-01 1.37155E+01-2.09260E-02 9.17782E-01
 -1      4244-7.02557E+02 3.84101E-02-3.17657E-01 1.37160E+01 5.16110E-03 9.00701E-01
 -1      4245-1.18035E+02-1.09307E+00-5.17530E-01 2.75636E+01 2.67499E-01 2.09669E-01
 -1      4246 6.28657E-01 5.98556E-02 7.39176E-02 2.90932E+01 5.26888E-02 6.30369E-01
 -1      4247 4.88728E+02-6.79270E-02 2.82731E-01 1.38481E+01 3.32597E-03-9.17835E-01
 -1      4248-4.89215E+02 7.41641E-02-2.67381E-01 1.38104E+01-5.64180E-03-8.89242E-01
 -1      4249 6.45047E+02 4.82754E-02-2.80301E-01 1.38203E+01-1.05317E-02-9.05266E-01
 -1      4250 2.47838E+02 5.65617E-01 5.38398E-01 1.31177E+01 1.96248E-01-1.25695E+00
 -1      4251 2.55132E+02 3.92726E-01 1.96043E-01 1.43097E+01 6.95627E-02-8.41312E-01
 -1      4252 1.59751E+02-7.38364E-02 8.79039E-02 2.56641E+01 8.39745E-03-5.12925E-01
 -1      4253-1.76366E+02-3.05088E-01-3.76698E-03 2.55759E+01-7.27387E-02-3.88136E-01
 -1      4254-2.69494E+02 3.68506E-01 1.98076E-01 1.43070E+01 2.21854E-02-8.61418E-01
 -1      4255-2.77059E+02 3.55262E-01 3.08005E-01 1.34320E+01 7.70638E-02-1.25618E+00
 -1      4256 5.02071E+02-3.05122E-01-4.78930E-01 1.33556E+01 1.42863E-01 1.12435E+00
 -1      4257 4.94734E+02-3.84281E-01-2.60140E-01 1.42845E+01-3.59988E-02 8.16217E-01
 -1      4258 3.24183E+02 2.67081E-01-7.24730E-02 2.55477E+01-1.29782E-01 5.47046E-01
 -1      4259-6.13665E+01-2.29799E-01 1.80402E-01 1.32845E+01 2.43977E-01-2.51803E-01
 -1      4260-3.39377E+01 1.12904E-01 5.50998E-01 2.58804E+01-8.71314E-02-1.97042E-01
 -1      4261-3.15984E+02 2.53899E-03-9.50240E-02 1.49230E+01 6.13382E-02-8.26911E-01
 -1      4262 1.91602E+01 1.43627E+00 3.22872E-01 8.57039E+00 2.51201E-01-1.14573E+00
 -1      4263 2.65809E+01 7.78914E-01 3.55763E-01 1.29988E+01-2.19597E-01-7.13730E-01
 -1      4264 1.87679E+01-4.88287E-02-6.68187E-01 1.37609E+01 7.57257E-02-1.09114E+00
 -1      4265 1.17015E+01-6.91755E-02-7.69051E-02 2.25133E+01 1.09864E-01-6.39628E-01
 -1      4266 1.95810E+00-9.15447E+00-1.54933E+00 2.64017E+01 8.53819E-01-4.90819E-01
 -1      4267 5.55816E+00-5.96321E+00-1.13733E+00 2.28359E+01 6.67786E-01-5.13381E-01
 -1      4268-8.46932E+02 8.65928E+00-1.88585E+01-6.34553E+00-1.97387E+00-1.97169E+01
 -1      4269-9.80847E+02 2.26484E+01-1.43108E+01-1.07860E+01-1.79567E+01-3.77818E+01
 -1      4270-6.37551E+02-1.01825E+01-2.25195E+01 2.31479E+01-1.03216E+01-1.56422E+01
 -1      4271-8.54064E+02 2.23908E+00-5.75356E+01 2.69255E+01-4.20302E+00-3.90946E+01
 -1      4272 5.73312E+01-6.50784E-01 8.47511E-02 2.94519E+01 2.23885E-01 2.83104E-01
 -1      4273 1.17769E+01-7.06690E-01 6.13301E-01 2.84861E+01 1.57701E-01-4.75158E-02
 -1      4274 7.91821E+00-1.42138E-01-6.68426E-01 2.88659E+01-2.44692E-01-2.68920E-02
 -1      4275 5.39675E+01-1.59102E-01-5.71710E-01 2.92013E+01-5.31040E-02 2.10767E-01
 -1      4276-3.14036E+01-4.51666E-01 1.65715E-01 8.93781E+00-1.28035E-01 1.18413E+00
 -1      4277-1.96284E+01-1.42289E+00-3.58820E-01 8.68389E+00 3.38907E-01 1.07702E+00
 -1      4278-1.81130E+01 1.30211E-01 8.18565E-01 1.36863E+01 2.53058E-01 1.26502E+00
 -1      4279-1.06162E+01 8.40361E-02 4.29671E-01 2.21560E+01 1.27590E-01 8.11923E-01
 -1      4280-6.70183E+01-1.35864E-01 2.68297E-01 1.31242E+01 1.11250E-01-9.95654E-01
 -1      4281-5.58392E+01-2.31676E-01-1.30411E-02 1.47185E+01 1.09874E-01-1.10700E+00
 -1      4282 2.92219E+01-8.15926E-02 6.88862E-01 2.89418E+01 9.31809E-02 2.78261E-01
 -1      4283 1.13139E+01-7.82671E+00-1.38915E+00 1.04227E+01 2.17838E-01-1.07532E+00
 -1      4284 1.16461E+01-6.13078E+00-1.40744E+00 9.91603E+00 4.29729E-01-8.29409E-01
 -1      4285 2.60116E+01 3.18412E-03-1.26635E-01 2.87982E+01-1.27355E-01 2.46019E-01
 -1      4286-9.57051E+00 2.96600E-01 1.12134E-01 3.34569E+01 9.97393E-02-1.58096E+00
 -1      4287 1.83181E+01 1.92243E+00 1.91016E-01 8.63078E+00-1.53293E-01 1.05982E+00
 -1      4288 2.67327E+01 8.87754E-01 4.32839E-01 1.28735E+01 2.40064E-01 6.75078E-01
 -1      4289 1.81141E+01 8.25055E-01-6.63412E-01 1.31456E+01-2.76541E-02 1.02513E+00
 -1      4290 1.18317E+01 1.66347E+00 1.27727E-01 2.26821E+01-2.93048E-01 8.13481E-01
 -1      4291 9.75552E+02-1.24243E+01 1.69522E+01-1.33276E+01 2.12224E+01-3.62080E+01
 -1      4292 8.45562E+02-8.00058E+00 1.88870E+01-4.64486E+00 2.54911E+00-1.81965E+01
 -1      4293 8.53954E+02 1.34816E+01 6.50342E+01 2.54114E+01 8.80756E+00-3.49857E+01
 -1      4294 6.40822E+02 2.63343E+01 3.03378E+01 1.28209E+01 1.15222E+01-1.53507E+01
 -1      4295 2.08164E+00-9.04473E+00-1.58731E+00 2.05544E+01 1.89481E-01-2.06696E-01
 -1      4296-9.80623E+02 1.52424E+01-1.43874E+01-1.49786E+01 1.93626E+01 3.71067E+01
 -1      4297-8.46797E+02 6.89445E+00-1.90056E+01-5.21278E+00 3.05326E+00 1.86054E+01
 -1      4298-8.65112E+02-1.40516E+01-6.61481E+01 2.44585E+01 7.84347E+00 3.54272E+01
 -1      4299-6.44125E+02-1.16376E+01-2.04604E+01 2.10018E+01 9.95000E+00 1.63159E+01
 -1      4300-2.68052E+01-1.04077E+00-3.43921E-01 1.26929E+01 2.62159E-01-6.39637E-01
 -1      4301-1.85811E+01-1.93710E+00-3.12937E-01 8.69153E+00-1.78119E-01-1.09355E+00
 -1      4302-1.19179E+01 2.71828E-01 1.92508E-01 2.23343E+01-3.72009E-01-8.77147E-01
 -1      4303-1.84958E+01-7.79835E-01 4.96231E-01 1.28195E+01-8.14497E-02-9.51681E-01
 -1      4304-1.72994E+01-9.01476E-01 1.64311E-01 2.56987E+01-1.58638E-01-6.06809E-01
 -1      4305 9.37940E+02 5.31603E+01 1.91695E+02 2.76671E+01 4.09006E+00-6.49839E+01
 -1      4306 5.76408E+02 9.61487E+01 1.14889E+02 4.24309E+01 8.94593E+00-4.84019E+01
 -1      4307-2.10841E+00 8.39175E+00 1.34394E+00 2.66462E+01 7.89516E-01 4.12989E-01
 -1      4308-5.45384E+00 6.28546E+00 1.29434E+00 2.25226E+01 5.29416E-01 6.13751E-01
 -1      4309 9.75647E+02-1.19656E+01 1.77712E+01-1.30610E+01-2.12954E+01 3.68361E+01
 -1      4310 8.45986E+02-7.78352E+00 1.90580E+01-4.42973E+00-2.76219E+00 1.87954E+01
 -1      4311 8.52947E+02 9.24816E+00 6.26781E+01 2.48620E+01-6.90567E+00 3.57402E+01
 -1      4312 6.42634E+02 2.49762E+01 3.08525E+01 1.35033E+01-1.06895E+01 1.38496E+01
 -1      4313-1.67830E+02 1.57430E-01 8.95654E-02 2.57736E+01-2.00422E-01 5.59117E-01
 -1      4314-2.63019E+02-3.55307E-01-2.43317E-01 1.30039E+01-8.99433E-02 1.23952E+00
 -1      4315 9.06014E+02 4.10136E+01 1.41211E+02 1.50606E+01 2.25808E+00-9.72009E+01
 -1      4316 9.34607E+02 5.23620E+01 1.95445E+02 3.46379E+01-8.01837E+00 6.36576E+01
 -1      4317 5.80444E+02 9.58935E+01 1.16653E+02 4.20891E+01-8.31472E+00 4.57450E+01
 -1      4318-1.12968E+01 8.00890E+00 1.47683E+00 1.04750E+01 2.07559E-01 1.16978E+00
 -1      4319-1.16183E+01 6.26481E+00 1.40853E+00 9.94939E+00 4.08219E-01 8.85845E-01
 -1      4320-2.29818E+00 8.58421E+00 1.40677E+00 2.03836E+01 5.03417E-02 1.94496E-01
 -1      4321-5.16382E+02-5.50441E+01-1.60860E+01-1.15012E+01 1.04546E+01-3.41385E+01
 -1      4322 4.90700E+02 9.66160E+01 8.33070E+01-4.13588E+00-1.90729E+00-5.53690E+01
 -1      4323 6.94755E+02 7.93281E+01 5.75036E+01 7.10825E+00 5.06668E+00-5.55067E+01
 -1      4324 9.87323E+00-7.43212E+00-2.20368E+00 1.13450E+01-1.87262E-01 7.25651E-01
 -1      4325-7.12158E+02-1.14267E+02-7.62120E+01 7.18270E+00-8.26309E+00-5.89442E+01
 -1      4326-5.89063E+02-1.15496E+02-1.33092E+02 3.93222E+01-1.46894E+01-5.03111E+01
 -1      4327 9.05364E+02 4.11760E+01 1.43392E+02 1.48391E+01-2.93285E+00 9.80498E+01
 -1      4328 4.89532E+02 9.65314E+01 8.34532E+01-4.46505E+00 1.35164E+00 5.55696E+01
 -1      4329 6.94261E+02 7.95692E+01 5.81199E+01 6.84440E+00-4.83712E+00 5.55214E+01
 -1      4330 2.02888E+02 6.05862E-01 2.86922E-02 1.41714E+01-1.64529E-01-8.46244E-01
 -1      4331 1.26142E+02 8.98948E-02 4.49967E-02 2.56886E+01-2.09184E-02-4.43648E-01
 -1      4332 1.94845E+02 2.09685E-01-5.19273E-02 1.30324E+01-1.48629E-03-1.27403E+00
 -1      4333-1.26135E+02-8.39306E-02-3.98036E-02 2.56855E+01 1.43039E-02-4.48196E-01
 -1      4334-1.94842E+02-2.12308E-01 5.78296E-02 1.30338E+01 8.61526E-03-1.28492E+00
 -1      4335-2.02882E+02-6.05963E-01-2.33816E-02 1.41712E+01 1.64087E-01-8.45175E-01
 -1      4336 1.77898E+02 3.23424E-02-8.70718E-02 2.57429E+01 5.70463E-02 4.29474E-01
 -1      4337 2.79986E+02-2.70238E-01-1.84968E-02 1.31154E+01 1.13436E-01 1.29526E+00
 -1      4338 2.71842E+02-3.88175E-01 9.16110E-02 1.42875E+01 4.94720E-02 8.27247E-01
 -1      4339-3.03087E+02-1.37435E-01 1.53816E-01 1.41933E+01-1.12729E-01 8.94487E-01
 -1      4340-2.94782E+02 1.27275E-01 1.19961E-01 1.30405E+01-5.34472E-02 1.17961E+00
 -1      4341-1.90187E+02 7.90000E-02 1.07822E-01 2.57592E+01 9.26218E-03 3.44978E-01
 -1      4342-3.85933E+02 4.37878E-02 8.33064E-02 2.57443E+01 2.49231E-02-5.14166E-01
 -1      4343-5.96766E+02 3.93490E-01-1.49171E-01 1.42424E+01 1.06078E-02-7.98572E-01
 -1      4344-6.04708E+02 2.71831E-01-8.01169E-04 1.31439E+01 1.30219E-01-1.30380E+00
 -1      4345-4.27810E+02-6.30270E-01-4.73204E-02 1.41667E+01-1.61197E-01 8.37535E-01
 -1      4346-4.19788E+02-2.46428E-01 2.48442E-02 1.30155E+01-1.38440E-02 1.27551E+00
 -1      4347-2.70169E+02-1.16470E-01-6.07566E-02 2.56874E+01-2.90998E-02 4.76811E-01
 -1      4348 5.77860E+02 6.39684E-01 1.20601E-01 1.42186E+01 1.20754E-01 8.22151E-01
 -1      4349 5.69916E+02 3.00504E-01 5.26812E-03 1.31785E+01-9.20301E-02 1.32400E+00
 -1      4350 3.66195E+02 4.60196E-02 1.49277E-01 2.57140E+01 1.97734E-02 4.71288E-01
 -1      4351 2.70253E+02 3.89447E-02-6.57826E-03 2.57402E+01-2.21298E-02 5.03066E-01
 -1      4352 4.27908E+02 3.73304E-01-2.00861E-01 1.42231E+01 3.25543E-02 8.18836E-01
 -1      4353 4.19785E+02 2.05053E-01 7.40790E-03 1.30106E+01-1.66744E-02 1.26593E+00
 -1      4354 3.87346E+02-5.57275E-02-9.26175E-02 2.56992E+01-3.39892E-02-5.27981E-01
 -1      4355 5.96816E+02-4.07414E-01 1.34896E-01 1.42509E+01-1.76681E-02-7.98359E-01
 -1      4356 6.04787E+02-2.81455E-01-3.64292E-04 1.31399E+01-1.34654E-01-1.30899E+00
 -1      4357 1.10939E+01-8.14945E+00-1.06771E+00 1.07450E+01-1.05844E-01 7.46446E-01
 -1      4358 6.48383E+00-6.15345E+00-1.20288E+00 2.24117E+01-4.90011E-01 6.18349E-01
 -1      4359-3.68934E+02-5.37325E-02-1.53330E-01 2.55931E+01-2.05330E-02 4.77322E-01
 -1      4360-5.77384E+02-6.40317E-01-1.22183E-01 1.42339E+01-1.34033E-01 8.27262E-01
 -1      4361-5.69486E+02-3.03286E-01-5.94013E-03 1.32022E+01 8.21235E-02 1.33016E+00
 -1      4362 3.03239E+02 6.50308E-02 1.61843E-02 2.56706E+01 1.85210E-01-4.03443E-01
 -1      4363 4.70075E+02 3.45762E-01-8.57306E-02 1.31637E+01 1.60739E-01-1.26671E+00
 -1      4364 4.77985E+02 4.20238E-01-1.32295E-01 1.42763E+01 1.02332E-01-7.84235E-01
 -1      4365 9.95549E+01 7.05137E-01 1.95770E-01 1.45332E+01 1.16291E-02 7.90222E-01
 -1      4366-6.69579E+02 1.04509E-01 1.17148E-01 1.30872E+01-1.08795E-01 1.28197E+00
 -1      4367-4.34487E+02 3.66211E-02 1.12224E-01 2.55793E+01-7.79603E-02 4.43657E-01
 -1      4368-6.77643E+02-1.68933E-01 1.43390E-01 1.41588E+01-1.47634E-01 8.64270E-01
 -1      4369 3.19908E+02 2.47962E-01-1.05834E-01 1.43681E+01 7.59912E-02 8.55317E-01
 -1      4370 1.46295E+02-1.20695E-01 1.93811E-01 1.43551E+01 2.95347E-03 7.88470E-01
 -1      4371 3.82050E+02-5.01781E-01 2.61106E-02 1.35105E+01 1.39577E-01 8.61356E-01
 -1      4372 6.87231E+02 6.04121E-01 1.85524E-01 1.46180E+01 4.42123E-02 8.18214E-01
 -1      4373-9.39915E+02-5.62639E+01-1.93775E+02 2.87778E+01 3.54224E+00 6.55952E+01
 -1      4374-9.04629E+02-4.13166E+01-1.43104E+02 1.52495E+01 2.68629E+00 9.89951E+01
 -1      4375-5.93865E+02-1.01393E+02-1.31942E+02 4.06157E+01 1.44152E+01 5.19814E+01
 -1      4376-2.21974E+00 8.25640E+00 1.10357E+00 2.64453E+01-7.11099E-01-2.65366E-01
 -1      4377-2.78454E+00 9.40267E+00 1.46538E+00 2.05658E+01-7.73048E-02-2.00443E-01
 -1      4378-6.27678E+00 7.16622E+00 1.46354E+00 2.21732E+01-5.67747E-01-7.00899E-01
 -1      4379-5.09632E+02-5.22464E+01-1.21672E+01-1.64135E+01-1.12227E+01 3.54838E+01
 -1      4380-4.78220E+02-3.91753E-01 1.08315E-01 1.42260E+01-4.37629E-02-8.01169E-01
 -1      4381-3.03993E+02 5.94465E-02-8.52461E-02 2.56173E+01-6.62775E-02-4.20515E-01
 -1      4382-4.70230E+02-2.49450E-01 2.73989E-02 1.31295E+01-1.40387E-01-1.19020E+00
 -1      4383-9.10688E+02-5.58633E+01-1.82289E+02 3.47121E+01 5.18867E-01-7.05741E+01
 -1      4384-9.17680E+02-5.86458E+01-1.61768E+02 2.26564E+01-8.04878E+00-9.91399E+01
 -1      4385 7.33380E+02-2.56303E-01 1.45015E-01 1.43647E+01 2.08537E-01 1.30463E+00
 -1      4386 2.95325E+00-8.46302E+00-1.28316E+00 2.32708E+01-1.52377E+00 5.09937E-01
 -1      4387-7.14139E+02-1.07527E+02-7.43641E+01 7.63424E+00 7.61044E+00 6.01650E+01
 -1      4388-2.46375E+02 3.39627E-02 1.13345E-01 1.30584E+01-5.28474E-03 1.33952E+00
 -1      4389-1.59382E+02 1.14836E-01 2.85973E-02 2.56883E+01-1.70195E-02 3.80329E-01
 -1      4390-2.54306E+02-1.68187E-01 9.50292E-02 1.41054E+01-1.06080E-01 9.31158E-01
 -1      4391 2.81885E+00-1.07301E+01-1.49736E+00 2.09783E+01 3.13308E-02 1.76122E-01
 -1      4392-9.43839E+00-1.04941E-01-1.38392E-01 2.81826E+01 2.51460E-02 3.94674E-01
 -1      4393-1.03279E+01 7.01219E+00 2.16965E+00 1.07951E+01-1.67466E-01-8.45696E-01
 -1      4394-1.10761E+01 8.19375E+00 1.16453E+00 1.05528E+01 1.70628E-02-1.05368E+00
 -1      4395-1.34857E+01 2.27351E-01-2.27287E-01 3.03699E+01-4.56794E-02-3.48180E-02
 -1      4396-3.78913E+01-6.38827E-01 6.96000E-02 1.31683E+01 4.90994E-02-7.96797E-01
 -1      4397-2.41874E+01-1.08035E+00 1.43880E-01 2.69699E+01-2.05493E-01-3.88180E-01
 -1      4398-4.41982E+01-3.14274E-01 1.66169E-01 2.58503E+01-2.87894E-01-4.09097E-01
 -1      4399-3.36400E+01-4.34308E-02-1.05695E-01 2.68502E+01 1.30489E-01-3.25899E-01
 -1      4400-7.50907E+01-1.02443E-01 1.79812E-01 1.41795E+01 3.79595E-02-8.90653E-01
 -1      4401-4.75880E+01-2.42945E-01 9.62423E-02 1.57040E+01-7.28461E-03-7.36088E-01
 -1      4402-6.60643E+01-1.41691E-01 1.26326E-03 1.35587E+01-3.48575E-02-8.57930E-01
 -1      4403-8.34899E+01-4.36768E-01 1.40011E-01 1.51969E+01-1.09371E-01-7.24252E-01
 -3
    1PSTEP                         3           1           1          
  100CL  101 1.000000000        4403                     0    1           1
 -4  ERROR       1    1
 -5  STR(%)      1    1    0    0
 -1         1 1.20350E+01
 -1         2 1.20384E+01
 -1         3 1.16393E+01
 -1         4 1.15734E+01
 -1         5 3.13169E+01
 -1         6 2.96992E+01
 -1         7 3.13124E+01
 -1         8 2.97558E+01
 -1         9 1.03037E+01
 -1        10 1.04624E+01
 -1        11 1.00604E+01
 -1        12 1.11711E+01
 -1        13 1.03830E+01
 -1        14 1.02614E+01
 -1        15 1.10477E+01
 -1        16 1.57584E+01
 -1        17 3.09833E+01
 -1        18 1.62948E+01
 -1        19 1.38967E+01
 -1        20 2.33708E+01
 -1        21 2.36391E+01
 -1        22 1.39671E+01
 -1        23 9.33037E+00
 -1        24 1.05024E+01
 -1        25 1.06944E+01
 -1        26 1.04519E+01
 -1        27 9.91640E+00
 -1        28 1.05984E+01
 -1        29 1.11669E+01
 -1        30 1.57378E+01
 -1        31 3.07190E+01
 -1        32 1.61804E+01
 -1        33 1.38881E+01
 -1        34 2.32284E+01
 -1        35 2.34497E+01
 -1        36 1.38769E+01
 -1        37 3.07527E+01
 -1        38 3.15953E+01
 -1        39 3.15953E+01
 -1        40 3.02260E+01
 -1        41 3.11740E+01
 -1        42 3.15953E+01
 -1        43 3.14561E+01
 -1        44 1.49289E+01
 -1        45 8.92501E+00
 -1        46 1.49417E+01
 -1        47 2.31229E+01
 -1        48 1.19270E+01
 -1        49 1.19334E+01
 -1        50 2.31270E+01
 -1        51 3.06911E+01
 -1        52 3.25629E+01
 -1        53 3.17579E+01
 -1        54 3.02235E+01
 -1        55 3.16270E+01
 -1        56 3.21604E+01
 -1        57 3.15351E+01
 -1        58 1.48796E+01
 -1        59 9.00555E+00
 -1        60 1.50247E+01
 -1        61 2.22894E+01
 -1        62 1.19426E+01
 -1        63 1.20151E+01
 -1        64 2.23903E+01
 -1        65 8.75373E+00
 -1        66 8.51654E+00
 -1        67 7.95556E+00
 -1        68 1.12601E+01
 -1        69 8.08103E+00
 -1        70 1.11650E+01
 -1        71 8.14424E+00
 -1        72 8.15359E+00
 -1        73 1.11983E+01
 -1        74 1.00995E+01
 -1        75 8.16997E+00
 -1        76 8.26710E+00
 -1        77 1.12013E+01
 -1        78 8.09479E+00
 -1        79 9.85606E+00
 -1        80 1.10195E+01
 -1        81 8.31962E+00
 -1        82 8.33179E+00
 -1        83 1.12600E+01
 -1        84 8.10364E+00
 -1        85 1.10006E+01
 -1        86 8.20804E+00
 -1        87 1.02303E+01
 -1        88 9.44770E+00
 -1        89 8.55607E+00
 -1        90 9.46633E+00
 -1        91 1.03791E+01
 -1        92 1.10854E+01
 -1        93 8.77239E+00
 -1        94 1.02890E+01
 -1        95 9.53982E+00
 -1        96 1.02175E+01
 -1        97 1.31552E+01
 -1        98 1.03961E+01
 -1        99 8.63513E+00
 -1       100 8.23605E+00
 -1       101 9.60785E+00
 -1       102 9.67059E+00
 -1       103 9.62300E+00
 -1       104 9.65461E+00
 -1       105 8.14892E+00
 -1       106 9.67596E+00
 -1       107 1.06489E+01
 -1       108 9.13471E+00
 -1       109 8.21853E+00
 -1       110 9.73421E+00
 -1       111 9.64806E+00
 -1       112 8.97543E+00
 -1       113 1.04378E+01
 -1       114 9.66955E+00
 -1       115 8.32570E+00
 -1       116 9.79590E+00
 -1       117 9.68183E+00
 -1       118 9.55212E+00
 -1       119 9.60432E+00
 -1       120 9.21917E+00
 -1       121 9.83900E+00
 -1       122 9.00189E+00
 -1       123 9.01120E+00
 -1       124 9.92273E+00
 -1       125 1.07323E+01
 -1       126 9.92890E+00
 -1       127 9.53068E+00
 -1       128 9.91440E+00
 -1       129 9.87864E+00
 -1       130 1.16863E+01
 -1       131 2.14272E+01
 -1       132 8.74332E+00
 -1       133 8.51677E+00
 -1       134 1.11095E+01
 -1       135 1.05819E+01
 -1       136 8.19609E+00
 -1       137 1.05144E+01
 -1       138 8.21157E+00
 -1       139 1.11180E+01
 -1       140 8.09541E+00
 -1       141 8.24940E+00
 -1       142 9.89148E+00
 -1       143 1.10959E+01
 -1       144 7.95186E+00
 -1       145 1.01318E+01
 -1       146 9.71836E+00
 -1       147 8.06263E+00
 -1       148 9.82649E+00
 -1       149 1.09389E+01
 -1       150 9.39392E+00
 -1       151 8.36698E+00
 -1       152 1.02541E+01
 -1       153 1.11880E+01
 -1       154 1.00534E+01
 -1       155 8.58085E+00
 -1       156 1.06942E+01
 -1       157 8.19627E+00
 -1       158 8.75692E+00
 -1       159 1.04204E+01
 -1       160 8.85384E+00
 -1       161 1.00343E+01
 -1       162 8.35203E+00
 -1       163 7.75143E+00
 -1       164 1.32329E+01
 -1       165 1.03892E+01
 -1       166 8.63005E+00
 -1       167 9.81315E+00
 -1       168 1.08457E+01
 -1       169 9.38898E+00
 -1       170 9.35527E+00
 -1       171 9.36301E+00
 -1       172 9.66480E+00
 -1       173 9.60672E+00
 -1       174 8.17240E+00
 -1       175 9.07044E+00
 -1       176 1.04937E+01
 -1       177 9.52387E+00
 -1       178 9.04184E+00
 -1       179 9.92509E+00
 -1       180 8.89049E+00
 -1       181 8.94456E+00
 -1       182 1.03827E+01
 -1       183 1.01664E+01
 -1       184 8.88045E+00
 -1       185 9.31052E+00
 -1       186 1.07211E+01
 -1       187 1.06207E+01
 -1       188 9.31713E+00
 -1       189 9.63751E+00
 -1       190 9.44522E+00
 -1       191 8.47659E+00
 -1       192 9.58865E+00
 -1       193 9.63711E+00
 -1       194 9.44409E+00
 -1       195 9.19319E+00
 -1       196 8.05173E+00
 -1       197 1.04922E+01
 -1       198 2.22749E+01
 -1       199 8.79962E+00
 -1       200 8.51454E+00
 -1       201 1.09633E+01
 -1       202 8.01295E+00
 -1       203 8.08046E+00
 -1       204 7.94350E+00
 -1       205 9.91255E+00
 -1       206 1.10788E+01
 -1       207 8.01232E+00
 -1       208 8.03150E+00
 -1       209 9.88012E+00
 -1       210 1.10542E+01
 -1       211 7.98324E+00
 -1       212 7.93749E+00
 -1       213 7.94985E+00
 -1       214 8.32073E+00
 -1       215 9.81714E+00
 -1       216 1.09772E+01
 -1       217 8.18875E+00
 -1       218 8.24998E+00
 -1       219 8.18099E+00
 -1       220 9.67081E+00
 -1       221 1.07582E+01
 -1       222 9.41468E+00
 -1       223 1.06908E+01
 -1       224 8.57639E+00
 -1       225 8.61095E+00
 -1       226 8.81919E+00
 -1       227 8.04738E+00
 -1       228 9.17146E+00
 -1       229 9.55660E+00
 -1       230 1.02629E+01
 -1       231 1.33274E+01
 -1       232 1.01865E+01
 -1       233 8.65708E+00
 -1       234 9.73890E+00
 -1       235 9.48811E+00
 -1       236 8.04670E+00
 -1       237 8.01198E+00
 -1       238 8.92803E+00
 -1       239 1.04957E+01
 -1       240 9.54555E+00
 -1       241 8.02191E+00
 -1       242 8.95581E+00
 -1       243 1.04672E+01
 -1       244 9.51871E+00
 -1       245 7.96036E+00
 -1       246 7.94367E+00
 -1       247 8.13529E+00
 -1       248 9.06893E+00
 -1       249 1.03972E+01
 -1       250 9.58296E+00
 -1       251 8.21936E+00
 -1       252 8.21549E+00
 -1       253 8.92590E+00
 -1       254 1.02145E+01
 -1       255 1.00864E+01
 -1       256 1.00527E+01
 -1       257 9.63359E+00
 -1       258 8.59367E+00
 -1       259 8.71507E+00
 -1       260 8.43328E+00
 -1       261 8.60942E+00
 -1       262 9.36403E+00
 -1       263 9.90974E+00
 -1       264 1.17951E+01
 -1       265 2.15416E+01
 -1       266 8.80751E+00
 -1       267 8.51470E+00
 -1       268 8.14256E+00
 -1       269 1.12900E+01
 -1       270 8.07488E+00
 -1       271 1.12035E+01
 -1       272 8.20306E+00
 -1       273 8.21930E+00
 -1       274 1.12252E+01
 -1       275 1.01152E+01
 -1       276 8.26836E+00
 -1       277 8.11316E+00
 -1       278 1.11962E+01
 -1       279 8.09357E+00
 -1       280 9.83867E+00
 -1       281 1.10249E+01
 -1       282 8.13132E+00
 -1       283 8.37192E+00
 -1       284 8.22629E+00
 -1       285 8.04250E+00
 -1       286 1.07001E+01
 -1       287 8.43995E+00
 -1       288 1.01601E+01
 -1       289 9.37645E+00
 -1       290 8.55421E+00
 -1       291 9.46759E+00
 -1       292 1.03758E+01
 -1       293 1.11047E+01
 -1       294 8.77743E+00
 -1       295 1.01877E+01
 -1       296 9.61947E+00
 -1       297 9.55684E+00
 -1       298 1.33576E+01
 -1       299 1.02234E+01
 -1       300 8.66111E+00
 -1       301 8.32863E+00
 -1       302 9.71628E+00
 -1       303 9.68244E+00
 -1       304 9.63921E+00
 -1       305 9.70330E+00
 -1       306 8.21118E+00
 -1       307 9.72225E+00
 -1       308 1.06702E+01
 -1       309 9.19178E+00
 -1       310 8.19076E+00
 -1       311 9.65466E+00
 -1       312 9.64487E+00
 -1       313 8.96612E+00
 -1       314 1.04318E+01
 -1       315 9.57812E+00
 -1       316 8.25162E+00
 -1       317 8.29911E+00
 -1       318 8.13440E+00
 -1       319 9.37129E+00
 -1       320 9.57001E+00
 -1       321 9.30001E+00
 -1       322 9.76826E+00
 -1       323 8.96533E+00
 -1       324 9.01090E+00
 -1       325 9.92171E+00
 -1       326 1.07403E+01
 -1       327 9.94108E+00
 -1       328 9.48256E+00
 -1       329 9.90358E+00
 -1       330 9.58815E+00
 -1       331 1.14572E+01
 -1       332 2.23350E+01
 -1       333 1.41249E+01
 -1       334 1.29544E+01
 -1       335 3.07190E+01
 -1       336 1.25664E+01
 -1       337 3.72889E+01
 -1       338 3.38176E+01
 -1       339 1.24771E+01
 -1       340 3.37987E+01
 -1       341 3.09833E+01
 -1       342 3.72889E+01
 -1       343 1.31851E+01
 -1       344 1.17162E+01
 -1       345 1.32257E+01
 -1       346 1.18983E+01
 -1       347 3.72889E+01
 -1       348 1.26100E+01
 -1       349 1.16227E+01
 -1       350 1.44717E+01
 -1       351 1.17647E+01
 -1       352 1.26321E+01
 -1       353 1.44817E+01
 -1       354 1.17688E+01
 -1       355 1.40966E+01
 -1       356 1.12964E+01
 -1       357 1.16448E+01
 -1       358 1.05233E+01
 -1       359 1.39483E+01
 -1       360 1.15144E+01
 -1       361 1.14350E+01
 -1       362 1.28961E+01
 -1       363 1.15074E+01
 -1       364 1.17084E+01
 -1       365 1.27604E+01
 -1       366 1.30698E+01
 -1       367 3.24004E+01
 -1       368 2.47880E+01
 -1       369 2.35013E+01
 -1       370 2.36391E+01
 -1       371 3.09833E+01
 -1       372 3.24004E+01
 -1       373 2.14408E+01
 -1       374 1.09038E+01
 -1       375 1.14898E+01
 -1       376 1.20967E+01
 -1       377 1.23137E+01
 -1       378 1.24097E+01
 -1       379 1.33010E+01
 -1       380 1.30116E+01
 -1       381 2.47682E+01
 -1       382 3.22588E+01
 -1       383 2.35122E+01
 -1       384 3.07190E+01
 -1       385 2.34497E+01
 -1       386 3.22588E+01
 -1       387 2.12176E+01
 -1       388 2.48830E+01
 -1       389 2.57069E+01
 -1       390 2.25541E+01
 -1       391 2.57069E+01
 -1       392 3.41361E+01
 -1       393 3.72889E+01
 -1       394 2.51216E+01
 -1       395 2.49276E+01
 -1       396 2.33860E+01
 -1       397 3.55532E+01
 -1       398 2.15980E+01
 -1       399 3.40039E+01
 -1       400 3.55438E+01
 -1       401 3.55438E+01
 -1       402 2.31825E+01
 -1       403 3.55532E+01
 -1       404 3.72889E+01
 -1       405 3.72889E+01
 -1       406 1.26964E+01
 -1       407 1.21017E+01
 -1       408 3.15953E+01
 -1       409 1.18507E+01
 -1       410 9.43555E+00
 -1       411 3.25629E+01
 -1       412 1.33474E+01
 -1       413 3.07527E+01
 -1       414 3.17579E+01
 -1       415 1.26964E+01
 -1       416 3.13169E+01
 -1       417 2.97558E+01
 -1       418 2.96992E+01
 -1       419 3.13124E+01
 -1       420 1.21538E+01
 -1       421 3.14561E+01
 -1       422 3.13169E+01
 -1       423 2.31229E+01
 -1       424 2.96992E+01
 -1       425 3.02260E+01
 -1       426 2.22894E+01
 -1       427 2.31270E+01
 -1       428 3.13124E+01
 -1       429 3.15351E+01
 -1       430 3.02235E+01
 -1       431 2.97558E+01
 -1       432 2.23903E+01
 -1       433 3.07527E+01
 -1       434 3.11740E+01
 -1       435 3.02260E+01
 -1       436 3.15953E+01
 -1       437 3.15953E+01
 -1       438 3.11740E+01
 -1       439 3.14561E+01
 -1       440 1.41382E+01
 -1       441 1.11362E+01
 -1       442 2.23321E+01
 -1       443 1.08107E+01
 -1       444 1.38190E+01
 -1       445 1.30219E+01
 -1       446 2.20044E+01
 -1       447 3.25629E+01
 -1       448 3.16270E+01
 -1       449 3.11594E+01
 -1       450 3.17579E+01
 -1       451 3.21604E+01
 -1       452 3.21604E+01
 -1       453 3.15351E+01
 -1       454 1.04281E+01
 -1       455 1.33651E+01
 -1       456 2.07750E+01
 -1       457 1.35632E+01
 -1       458 1.05536E+01
 -1       459 1.19762E+01
 -1       460 2.09288E+01
 -1       461 1.27506E+01
 -1       462 1.24251E+01
 -1       463 1.26964E+01
 -1       464 2.22272E+01
 -1       465 2.22272E+01
 -1       466 1.24251E+01
 -1       467 1.07686E+01
 -1       468 1.06431E+01
 -1       469 2.23323E+01
 -1       470 2.09992E+01
 -1       471 2.24714E+01
 -1       472 2.18746E+01
 -1       473 2.14533E+01
 -1       474 2.00941E+01
 -1       475 2.13017E+01
 -1       476 2.26296E+01
 -1       477 1.10660E+01
 -1       478 1.07947E+01
 -1       479 9.56724E+00
 -1       480 1.15248E+01
 -1       481 1.28988E+01
 -1       482 1.03601E+01
 -1       483 1.15835E+01
 -1       484 1.82651E+01
 -1       485 1.22576E+01
 -1       486 1.13611E+01
 -1       487 1.16121E+01
 -1       488 1.21957E+01
 -1       489 1.13526E+01
 -1       490 1.25186E+01
 -1       491 1.01024E+01
 -1       492 1.11924E+01
 -1       493 1.18031E+01
 -1       494 1.20223E+01
 -1       495 1.21847E+01
 -1       496 1.94215E+01
 -1       497 1.63193E+01
 -1       498 1.17014E+01
 -1       499 1.95352E+01
 -1       500 1.24426E+01
 -1       501 1.96228E+01
 -1       502 9.83651E+00
 -1       503 1.04624E+01
 -1       504 3.15953E+01
 -1       505 9.54561E+00
 -1       506 1.09214E+01
 -1       507 9.08755E+00
 -1       508 1.90708E+01
 -1       509 1.06775E+01
 -1       510 1.12518E+01
 -1       511 1.96620E+01
 -1       512 1.03538E+01
 -1       513 1.70187E+01
 -1       514 1.29002E+01
 -1       515 1.22671E+01
 -1       516 1.13210E+01
 -1       517 1.01093E+01
 -1       518 1.20783E+01
 -1       519 1.60854E+01
 -1       520 1.15097E+01
 -1       521 1.96747E+01
 -1       522 1.96091E+01
 -1       523 1.11353E+01
 -1       524 1.24238E+01
 -1       525 1.14297E+01
 -1       526 1.24578E+01
 -1       527 1.10740E+01
 -1       528 1.14030E+01
 -1       529 1.28988E+01
 -1       530 1.22682E+01
 -1       531 1.23118E+01
 -1       532 1.07858E+01
 -1       533 1.22682E+01
 -1       534 1.96729E+01
 -1       535 1.50097E+01
 -1       536 1.93930E+01
 -1       537 9.87294E+00
 -1       538 1.08286E+01
 -1       539 1.21475E+01
 -1       540 1.09330E+01
 -1       541 2.01017E+01
 -1       542 1.99395E+01
 -1       543 1.02875E+01
 -1       544 1.07724E+01
 -1       545 1.22128E+01
 -1       546 1.28772E+01
 -1       547 1.23952E+01
 -1       548 1.68544E+01
 -1       549 1.63193E+01
 -1       550 1.96367E+01
 -1       551 1.89749E+01
 -1       552 1.91758E+01
 -1       553 1.87546E+01
 -1       554 1.74701E+01
 -1       555 1.83741E+01
 -1       556 1.20927E+01
 -1       557 1.94840E+01
 -1       558 1.67266E+01
 -1       559 1.67825E+01
 -1       560 1.52520E+01
 -1       561 1.19770E+01
 -1       562 1.99206E+01
 -1       563 1.25027E+01
 -1       564 1.94703E+01
 -1       565 1.99279E+01
 -1       566 1.25284E+01
 -1       567 1.29590E+01
 -1       568 1.93933E+01
 -1       569 1.99308E+01
 -1       570 1.28498E+01
 -1       571 1.95639E+01
 -1       572 1.92652E+01
 -1       573 9.35543E+00
 -1       574 1.91270E+01
 -1       575 3.07527E+01
 -1       576 1.25743E+01
 -1       577 1.22511E+01
 -1       578 2.03462E+01
 -1       579 1.01539E+01
 -1       580 1.01609E+01
 -1       581 2.96992E+01
 -1       582 3.13169E+01
 -1       583 1.22511E+01
 -1       584 1.01071E+01
 -1       585 1.10945E+01
 -1       586 9.44862E+00
 -1       587 1.10997E+01
 -1       588 1.02323E+01
 -1       589 9.45730E+00
 -1       590 3.13169E+01
 -1       591 3.14561E+01
 -1       592 2.22749E+01
 -1       593 3.02260E+01
 -1       594 2.96992E+01
 -1       595 2.14272E+01
 -1       596 1.03830E+01
 -1       597 1.04624E+01
 -1       598 1.03116E+01
 -1       599 1.06174E+01
 -1       600 1.04164E+01
 -1       601 1.06174E+01
 -1       602 1.04632E+01
 -1       603 3.11740E+01
 -1       604 3.07527E+01
 -1       605 3.02260E+01
 -1       606 3.15953E+01
 -1       607 3.15953E+01
 -1       608 3.11740E+01
 -1       609 3.14561E+01
 -1       610 1.05454E+01
 -1       611 1.06640E+01
 -1       612 1.13676E+01
 -1       613 9.98895E+00
 -1       614 1.02694E+01
 -1       615 1.22983E+01
 -1       616 1.54611E+01
 -1       617 1.38088E+01
 -1       618 1.58421E+01
 -1       619 9.21744E+00
 -1       620 1.08070E+01
 -1       621 1.50079E+01
 -1       622 1.13886E+01
 -1       623 9.84658E+00
 -1       624 1.09830E+01
 -1       625 1.39086E+01
 -1       626 1.54190E+01
 -1       627 1.56425E+01
 -1       628 1.01747E+01
 -1       629 1.01700E+01
 -1       630 1.59343E+01
 -1       631 1.54365E+01
 -1       632 1.39141E+01
 -1       633 1.59352E+01
 -1       634 1.06459E+01
 -1       635 1.11954E+01
 -1       636 1.54335E+01
 -1       637 9.02145E+00
 -1       638 9.98620E+00
 -1       639 1.05327E+01
 -1       640 1.03928E+01
 -1       641 1.03443E+01
 -1       642 1.11958E+01
 -1       643 1.54052E+01
 -1       644 1.39381E+01
 -1       645 1.60639E+01
 -1       646 9.61505E+00
 -1       647 1.11683E+01
 -1       648 1.53722E+01
 -1       649 9.97925E+00
 -1       650 9.09862E+00
 -1       651 1.06189E+01
 -1       652 1.12112E+01
 -1       653 1.06295E+01
 -1       654 1.07527E+01
 -1       655 1.38706E+01
 -1       656 1.52205E+01
 -1       657 1.54122E+01
 -1       658 1.02050E+01
 -1       659 1.01989E+01
 -1       660 1.57499E+01
 -1       661 1.53265E+01
 -1       662 1.38624E+01
 -1       663 1.57357E+01
 -1       664 9.23185E+00
 -1       665 1.08100E+01
 -1       666 1.48765E+01
 -1       667 1.12552E+01
 -1       668 9.80669E+00
 -1       669 1.09349E+01
 -1       670 1.36394E+01
 -1       671 1.50357E+01
 -1       672 1.52902E+01
 -1       673 1.11889E+01
 -1       674 1.01778E+01
 -1       675 1.56091E+01
 -1       676 9.50747E+00
 -1       677 9.89876E+00
 -1       678 1.08574E+01
 -1       679 1.04116E+01
 -1       680 1.08574E+01
 -1       681 1.09172E+01
 -1       682 1.00719E+01
 -1       683 9.61679E+00
 -1       684 1.14723E+01
 -1       685 1.07266E+01
 -1       686 1.02702E+01
 -1       687 1.08758E+01
 -1       688 1.13051E+01
 -1       689 1.09520E+01
 -1       690 1.12994E+01
 -1       691 1.05203E+01
 -1       692 1.16768E+01
 -1       693 1.18965E+01
 -1       694 1.12786E+01
 -1       695 1.05203E+01
 -1       696 1.22682E+01
 -1       697 1.29296E+01
 -1       698 1.33041E+01
 -1       699 1.42937E+01
 -1       700 1.15588E+01
 -1       701 1.12200E+01
 -1       702 1.46097E+01
 -1       703 1.26700E+01
 -1       704 1.12011E+01
 -1       705 1.25425E+01
 -1       706 2.09420E+01
 -1       707 1.02732E+01
 -1       708 1.01599E+01
 -1       709 1.09785E+01
 -1       710 9.88428E+00
 -1       711 1.11807E+01
 -1       712 1.15274E+01
 -1       713 1.12310E+01
 -1       714 1.09672E+01
 -1       715 1.13022E+01
 -1       716 1.37181E+01
 -1       717 1.25253E+01
 -1       718 1.41035E+01
 -1       719 9.24181E+00
 -1       720 1.04010E+01
 -1       721 1.35710E+01
 -1       722 1.11079E+01
 -1       723 9.95650E+00
 -1       724 1.09945E+01
 -1       725 9.49867E+00
 -1       726 1.09519E+01
 -1       727 1.12436E+01
 -1       728 1.53704E+01
 -1       729 1.38591E+01
 -1       730 1.52043E+01
 -1       731 1.02036E+01
 -1       732 1.02806E+01
 -1       733 1.59673E+01
 -1       734 9.04295E+00
 -1       735 9.86399E+00
 -1       736 1.10742E+01
 -1       737 1.06606E+01
 -1       738 1.12628E+01
 -1       739 1.06331E+01
 -1       740 1.53156E+01
 -1       741 1.37436E+01
 -1       742 1.54825E+01
 -1       743 1.00823E+01
 -1       744 1.11723E+01
 -1       745 1.58740E+01
 -1       746 9.74363E+00
 -1       747 9.53689E+00
 -1       748 1.07841E+01
 -1       749 1.10805E+01
 -1       750 1.02526E+01
 -1       751 1.08990E+01
 -1       752 9.08596E+00
 -1       753 9.96789E+00
 -1       754 1.12759E+01
 -1       755 1.05938E+01
 -1       756 1.11500E+01
 -1       757 1.07352E+01
 -1       758 1.08838E+01
 -1       759 1.01113E+01
 -1       760 1.10949E+01
 -1       761 9.24073E+00
 -1       762 8.72727E+00
 -1       763 9.95810E+00
 -1       764 1.22262E+01
 -1       765 1.31697E+01
 -1       766 1.25865E+01
 -1       767 1.09188E+01
 -1       768 1.13858E+01
 -1       769 1.38344E+01
 -1       770 1.10605E+01
 -1       771 1.04932E+01
 -1       772 1.12582E+01
 -1       773 9.79951E+00
 -1       774 9.06323E+00
 -1       775 1.02393E+01
 -1       776 9.95093E+00
 -1       777 1.10076E+01
 -1       778 1.04333E+01
 -1       779 1.44796E+01
 -1       780 1.32307E+01
 -1       781 1.47931E+01
 -1       782 1.03270E+01
 -1       783 1.06074E+01
 -1       784 1.53615E+01
 -1       785 9.83916E+00
 -1       786 1.06709E+01
 -1       787 1.16896E+01
 -1       788 1.27150E+01
 -1       789 1.19318E+01
 -1       790 1.29656E+01
 -1       791 1.05557E+01
 -1       792 1.11460E+01
 -1       793 1.36337E+01
 -1       794 1.14666E+01
 -1       795 1.06254E+01
 -1       796 1.25782E+01
 -1       797 1.06254E+01
 -1       798 1.03251E+01
 -1       799 1.28988E+01
 -1       800 1.00012E+01
 -1       801 1.27420E+01
 -1       802 1.25749E+01
 -1       803 2.17840E+01
 -1       804 1.25585E+01
 -1       805 1.12085E+01
 -1       806 1.08300E+01
 -1       807 1.21201E+01
 -1       808 1.24713E+01
 -1       809 1.52498E+01
 -1       810 1.50244E+01
 -1       811 1.48692E+01
 -1       812 1.44975E+01
 -1       813 1.82225E+01
 -1       814 1.46090E+01
 -1       815 1.46090E+01
 -1       816 1.26470E+01
 -1       817 1.43572E+01
 -1       818 1.23231E+01
 -1       819 1.41181E+01
 -1       820 1.35433E+01
 -1       821 1.43671E+01
 -1       822 1.88836E+01
 -1       823 1.75503E+01
 -1       824 1.77847E+01
 -1       825 1.55337E+01
 -1       826 1.51691E+01
 -1       827 1.48438E+01
 -1       828 1.91193E+01
 -1       829 1.16490E+01
 -1       830 1.51210E+01
 -1       831 1.87204E+01
 -1       832 1.58168E+01
 -1       833 1.55764E+01
 -1       834 1.45200E+01
 -1       835 1.48407E+01
 -1       836 1.51309E+01
 -1       837 1.37548E+01
 -1       838 1.60173E+01
 -1       839 1.48366E+01
 -1       840 1.54625E+01
 -1       841 1.56408E+01
 -1       842 1.53746E+01
 -1       843 1.97423E+01
 -1       844 1.43154E+01
 -1       845 1.36863E+01
 -1       846 1.56244E+01
 -1       847 1.83277E+01
 -1       848 1.96548E+01
 -1       849 1.98013E+01
 -1       850 1.60618E+01
 -1       851 1.58330E+01
 -1       852 1.95716E+01
 -1       853 1.96991E+01
 -1       854 1.55956E+01
 -1       855 1.56460E+01
 -1       856 1.95332E+01
 -1       857 1.52398E+01
 -1       858 1.79907E+01
 -1       859 1.97700E+01
 -1       860 1.62247E+01
 -1       861 1.27388E+01
 -1       862 1.14160E+01
 -1       863 1.64449E+01
 -1       864 1.12631E+01
 -1       865 1.17796E+01
 -1       866 1.14898E+01
 -1       867 1.26505E+01
 -1       868 1.21401E+01
 -1       869 1.52928E+01
 -1       870 1.95340E+01
 -1       871 1.12007E+01
 -1       872 1.18604E+01
 -1       873 1.59608E+01
 -1       874 1.59524E+01
 -1       875 1.56768E+01
 -1       876 1.60746E+01
 -1       877 2.02239E+01
 -1       878 1.12878E+01
 -1       879 1.55593E+01
 -1       880 1.98007E+01
 -1       881 1.59809E+01
 -1       882 1.60620E+01
 -1       883 2.00206E+01
 -1       884 1.63380E+01
 -1       885 1.22900E+01
 -1       886 1.26477E+01
 -1       887 1.22179E+01
 -1       888 1.23231E+01
 -1       889 2.14687E+01
 -1       890 2.15019E+01
 -1       891 1.58211E+01
 -1       892 1.94927E+01
 -1       893 1.59621E+01
 -1       894 1.19529E+01
 -1       895 1.60333E+01
 -1       896 1.46097E+01
 -1       897 1.63193E+01
 -1       898 1.65509E+01
 -1       899 1.45254E+01
 -1       900 1.65509E+01
 -1       901 1.55859E+01
 -1       902 1.51280E+01
 -1       903 1.49621E+01
 -1       904 1.56691E+01
 -1       905 1.95535E+01
 -1       906 1.56803E+01
 -1       907 1.97330E+01
 -1       908 1.94002E+01
 -1       909 1.57390E+01
 -1       910 1.95980E+01
 -1       911 1.24727E+01
 -1       912 1.13060E+01
 -1       913 1.26599E+01
 -1       914 1.26900E+01
 -1       915 1.11163E+01
 -1       916 1.95080E+01
 -1       917 1.58526E+01
 -1       918 1.53569E+01
 -1       919 1.97754E+01
 -1       920 1.96606E+01
 -1       921 1.13977E+01
 -1       922 1.21944E+01
 -1       923 1.24201E+01
 -1       924 1.11824E+01
 -1       925 1.27437E+01
 -1       926 1.54043E+01
 -1       927 1.15183E+01
 -1       928 1.64602E+01
 -1       929 2.19232E+01
 -1       930 2.19232E+01
 -1       931 1.22511E+01
 -1       932 1.11977E+01
 -1       933 1.20854E+01
 -1       934 1.15128E+01
 -1       935 1.08192E+01
 -1       936 1.57163E+01
 -1       937 1.49481E+01
 -1       938 1.41958E+01
 -1       939 1.62399E+01
 -1       940 1.29071E+01
 -1       941 1.64060E+01
 -1       942 1.46014E+01
 -1       943 1.37308E+01
 -1       944 1.92774E+01
 -1       945 1.54969E+01
 -1       946 1.54511E+01
 -1       947 1.89127E+01
 -1       948 1.13272E+01
 -1       949 1.21220E+01
 -1       950 1.51249E+01
 -1       951 1.49266E+01
 -1       952 1.47404E+01
 -1       953 1.93945E+01
 -1       954 1.80729E+01
 -1       955 1.36531E+01
 -1       956 1.69366E+01
 -1       957 1.24134E+01
 -1       958 1.96568E+01
 -1       959 1.59995E+01
 -1       960 1.81053E+01
 -1       961 1.52002E+01
 -1       962 1.94371E+01
 -1       963 1.58445E+01
 -1       964 1.23183E+01
 -1       965 1.08896E+01
 -1       966 1.90753E+01
 -1       967 1.37601E+01
 -1       968 1.37601E+01
 -1       969 1.63611E+01
 -1       970 1.91474E+01
 -1       971 1.54237E+01
 -1       972 1.06672E+01
 -1       973 1.75103E+01
 -1       974 9.55684E+00
 -1       975 1.22347E+01
 -1       976 1.11720E+01
 -1       977 1.82887E+01
 -1       978 1.22933E+01
 -1       979 1.22486E+01
 -1       980 1.19079E+01
 -1       981 1.14000E+01
 -1       982 1.18746E+01
 -1       983 1.14083E+01
 -1       984 1.91653E+01
 -1       985 1.23126E+01
 -1       986 1.22162E+01
 -1       987 1.04928E+01
 -1       988 1.15015E+01
 -1       989 1.22396E+01
 -1       990 1.00252E+01
 -1       991 1.14401E+01
 -1       992 1.13385E+01
 -1       993 1.10729E+01
 -1       994 1.20627E+01
 -1       995 1.96653E+01
 -1       996 1.95971E+01
 -1       997 1.13916E+01
 -1       998 1.96762E+01
 -1       999 9.90088E+00
 -1      1000 1.03646E+01
 -1      1001 3.25629E+01
 -1      1002 1.16858E+01
 -1      1003 1.22921E+01
 -1      1004 1.23751E+01
 -1      1005 1.26272E+01
 -1      1006 1.14401E+01
 -1      1007 1.12869E+01
 -1      1008 1.15624E+01
 -1      1009 1.09785E+01
 -1      1010 1.94117E+01
 -1      1011 1.13815E+01
 -1      1012 1.13932E+01
 -1      1013 1.93775E+01
 -1      1014 1.96391E+01
 -1      1015 1.95531E+01
 -1      1016 1.22670E+01
 -1      1017 1.99651E+01
 -1      1018 1.25278E+01
 -1      1019 1.28605E+01
 -1      1020 1.25209E+01
 -1      1021 1.22453E+01
 -1      1022 1.02694E+01
 -1      1023 1.22637E+01
 -1      1024 1.12131E+01
 -1      1025 1.22017E+01
 -1      1026 1.23104E+01
 -1      1027 9.49240E+00
 -1      1028 1.17978E+01
 -1      1029 1.24379E+01
 -1      1030 9.84348E+00
 -1      1031 1.22933E+01
 -1      1032 1.12568E+01
 -1      1033 1.06774E+01
 -1      1034 1.83458E+01
 -1      1035 1.98545E+01
 -1      1036 1.13511E+01
 -1      1037 1.06944E+01
 -1      1038 1.11339E+01
 -1      1039 1.88801E+01
 -1      1040 1.18900E+01
 -1      1041 1.17997E+01
 -1      1042 1.54206E+01
 -1      1043 1.22006E+01
 -1      1044 1.87069E+01
 -1      1045 1.73957E+01
 -1      1046 1.19924E+01
 -1      1047 1.69456E+01
 -1      1048 1.16113E+01
 -1      1049 1.98523E+01
 -1      1050 1.95101E+01
 -1      1051 1.21133E+01
 -1      1052 1.21491E+01
 -1      1053 1.91813E+01
 -1      1054 1.24824E+01
 -1      1055 1.95771E+01
 -1      1056 1.99300E+01
 -1      1057 1.92370E+01
 -1      1058 1.25639E+01
 -1      1059 1.29485E+01
 -1      1060 1.94049E+01
 -1      1061 1.23212E+01
 -1      1062 1.27778E+01
 -1      1063 1.99307E+01
 -1      1064 1.95558E+01
 -1      1065 1.92896E+01
 -1      1066 1.01069E+01
 -1      1067 1.95665E+01
 -1      1068 3.25629E+01
 -1      1069 1.16052E+01
 -1      1070 9.29050E+00
 -1      1071 1.85602E+01
 -1      1072 1.02396E+01
 -1      1073 1.03012E+01
 -1      1074 2.97558E+01
 -1      1075 3.13124E+01
 -1      1076 1.15015E+01
 -1      1077 1.09394E+01
 -1      1078 1.04670E+01
 -1      1079 9.52353E+00
 -1      1080 9.81578E+00
 -1      1081 1.09373E+01
 -1      1082 9.55041E+00
 -1      1083 3.15351E+01
 -1      1084 3.13124E+01
 -1      1085 2.23350E+01
 -1      1086 2.97558E+01
 -1      1087 3.02235E+01
 -1      1088 2.15416E+01
 -1      1089 1.04335E+01
 -1      1090 9.84751E+00
 -1      1091 1.03329E+01
 -1      1092 1.06944E+01
 -1      1093 1.05984E+01
 -1      1094 1.05295E+01
 -1      1095 1.04670E+01
 -1      1096 3.16270E+01
 -1      1097 3.25629E+01
 -1      1098 3.11594E+01
 -1      1099 3.25629E+01
 -1      1100 3.21604E+01
 -1      1101 3.25629E+01
 -1      1102 3.19376E+01
 -1      1103 1.02024E+01
 -1      1104 1.00599E+01
 -1      1105 1.09532E+01
 -1      1106 9.50365E+00
 -1      1107 1.07280E+01
 -1      1108 1.10490E+01
 -1      1109 1.16277E+01
 -1      1110 1.01525E+01
 -1      1111 1.13924E+01
 -1      1112 1.01940E+01
 -1      1113 1.02278E+01
 -1      1114 1.23336E+01
 -1      1115 9.99419E+00
 -1      1116 9.92572E+00
 -1      1117 1.21415E+01
 -1      1118 9.87063E+00
 -1      1119 1.08552E+01
 -1      1120 1.18528E+01
 -1      1121 1.06563E+01
 -1      1122 1.12394E+01
 -1      1123 1.15989E+01
 -1      1124 1.53590E+01
 -1      1125 1.38257E+01
 -1      1126 1.55196E+01
 -1      1127 1.01625E+01
 -1      1128 1.01721E+01
 -1      1129 1.59759E+01
 -1      1130 8.93749E+00
 -1      1131 9.86180E+00
 -1      1132 1.10780E+01
 -1      1133 1.06442E+01
 -1      1134 1.12313E+01
 -1      1135 1.06259E+01
 -1      1136 1.53036E+01
 -1      1137 1.37682E+01
 -1      1138 1.54807E+01
 -1      1139 1.01251E+01
 -1      1140 1.01022E+01
 -1      1141 1.59100E+01
 -1      1142 1.35514E+01
 -1      1143 1.35576E+01
 -1      1144 1.57162E+01
 -1      1145 1.00976E+01
 -1      1146 1.02830E+01
 -1      1147 1.57053E+01
 -1      1148 9.17298E+00
 -1      1149 9.92118E+00
 -1      1150 1.11352E+01
 -1      1151 1.05993E+01
 -1      1152 1.11793E+01
 -1      1153 1.07033E+01
 -1      1154 1.17075E+01
 -1      1155 1.03133E+01
 -1      1156 1.19097E+01
 -1      1157 1.02117E+01
 -1      1158 1.02424E+01
 -1      1159 1.23363E+01
 -1      1160 9.82157E+00
 -1      1161 9.78708E+00
 -1      1162 1.18139E+01
 -1      1163 9.67651E+00
 -1      1164 1.04214E+01
 -1      1165 1.12826E+01
 -1      1166 1.04638E+01
 -1      1167 1.10075E+01
 -1      1168 1.12144E+01
 -1      1169 1.07127E+01
 -1      1170 1.00409E+01
 -1      1171 1.09620E+01
 -1      1172 1.03508E+01
 -1      1173 1.09888E+01
 -1      1174 1.09770E+01
 -1      1175 1.44897E+01
 -1      1176 1.34325E+01
 -1      1177 1.47878E+01
 -1      1178 1.05487E+01
 -1      1179 1.05659E+01
 -1      1180 1.54048E+01
 -1      1181 1.30606E+01
 -1      1182 1.31648E+01
 -1      1183 1.50156E+01
 -1      1184 1.05648E+01
 -1      1185 1.01789E+01
 -1      1186 1.49103E+01
 -1      1187 1.01555E+01
 -1      1188 1.07176E+01
 -1      1189 1.22870E+01
 -1      1190 1.03058E+01
 -1      1191 1.04984E+01
 -1      1192 1.18519E+01
 -1      1193 1.04984E+01
 -1      1194 1.08515E+01
 -1      1195 1.14401E+01
 -1      1196 1.08822E+01
 -1      1197 1.24144E+01
 -1      1198 1.14708E+01
 -1      1199 2.06287E+01
 -1      1200 1.03655E+01
 -1      1201 1.05119E+01
 -1      1202 1.12279E+01
 -1      1203 9.91419E+00
 -1      1204 1.01003E+01
 -1      1205 1.19510E+01
 -1      1206 1.15823E+01
 -1      1207 1.00086E+01
 -1      1208 1.17802E+01
 -1      1209 9.93730E+00
 -1      1210 1.15449E+01
 -1      1211 1.18372E+01
 -1      1212 1.12773E+01
 -1      1213 9.71301E+00
 -1      1214 1.15754E+01
 -1      1215 1.39342E+01
 -1      1216 1.54344E+01
 -1      1217 1.55082E+01
 -1      1218 1.02105E+01
 -1      1219 1.02024E+01
 -1      1220 1.59335E+01
 -1      1221 1.54507E+01
 -1      1222 1.39477E+01
 -1      1223 1.59389E+01
 -1      1224 1.06641E+01
 -1      1225 1.12191E+01
 -1      1226 1.54446E+01
 -1      1227 9.08462E+00
 -1      1228 1.00080E+01
 -1      1229 1.05570E+01
 -1      1230 1.03205E+01
 -1      1231 1.03981E+01
 -1      1232 1.12143E+01
 -1      1233 1.53966E+01
 -1      1234 1.38551E+01
 -1      1235 1.60624E+01
 -1      1236 9.61371E+00
 -1      1237 1.11650E+01
 -1      1238 1.53655E+01
 -1      1239 9.97277E+00
 -1      1240 9.10022E+00
 -1      1241 1.06204E+01
 -1      1242 1.12082E+01
 -1      1243 1.06151E+01
 -1      1244 1.07492E+01
 -1      1245 1.37715E+01
 -1      1246 1.52183E+01
 -1      1247 1.54016E+01
 -1      1248 1.03102E+01
 -1      1249 1.01899E+01
 -1      1250 1.58301E+01
 -1      1251 1.38019E+01
 -1      1252 1.38747E+01
 -1      1253 1.58131E+01
 -1      1254 9.51050E+00
 -1      1255 9.60239E+00
 -1      1256 1.51780E+01
 -1      1257 1.10193E+01
 -1      1258 9.69052E+00
 -1      1259 1.11585E+01
 -1      1260 1.06502E+01
 -1      1261 1.17803E+01
 -1      1262 1.20995E+01
 -1      1263 1.11114E+01
 -1      1264 1.02513E+01
 -1      1265 1.24616E+01
 -1      1266 9.43442E+00
 -1      1267 9.82623E+00
 -1      1268 1.07775E+01
 -1      1269 1.03969E+01
 -1      1270 1.08080E+01
 -1      1271 1.08660E+01
 -1      1272 1.00725E+01
 -1      1273 9.61579E+00
 -1      1274 1.14585E+01
 -1      1275 1.07244E+01
 -1      1276 1.02703E+01
 -1      1277 1.08752E+01
 -1      1278 1.13335E+01
 -1      1279 1.09691E+01
 -1      1280 1.13176E+01
 -1      1281 1.05353E+01
 -1      1282 1.16990E+01
 -1      1283 1.19278E+01
 -1      1284 1.12405E+01
 -1      1285 1.05353E+01
 -1      1286 1.22933E+01
 -1      1287 9.94442E+00
 -1      1288 1.02285E+01
 -1      1289 1.12813E+01
 -1      1290 9.55684E+00
 -1      1291 9.58815E+00
 -1      1292 9.91311E+00
 -1      1293 1.13240E+01
 -1      1294 9.42367E+00
 -1      1295 9.42367E+00
 -1      1296 2.03014E+01
 -1      1297 1.17225E+01
 -1      1298 1.20323E+01
 -1      1299 1.16851E+01
 -1      1300 1.13903E+01
 -1      1301 1.24456E+01
 -1      1302 1.56139E+01
 -1      1303 1.81086E+01
 -1      1304 1.74530E+01
 -1      1305 1.48530E+01
 -1      1306 1.80513E+01
 -1      1307 1.24887E+01
 -1      1308 1.28450E+01
 -1      1309 1.36553E+01
 -1      1310 1.07234E+01
 -1      1311 1.05902E+01
 -1      1312 1.22780E+01
 -1      1313 1.18572E+01
 -1      1314 1.58375E+01
 -1      1315 1.57359E+01
 -1      1316 1.57791E+01
 -1      1317 1.15022E+01
 -1      1318 1.13917E+01
 -1      1319 1.53411E+01
 -1      1320 1.53835E+01
 -1      1321 1.55607E+01
 -1      1322 1.16396E+01
 -1      1323 1.51405E+01
 -1      1324 1.87350E+01
 -1      1325 1.58511E+01
 -1      1326 1.55868E+01
 -1      1327 1.36075E+01
 -1      1328 1.46194E+01
 -1      1329 1.22212E+01
 -1      1330 1.22212E+01
 -1      1331 1.45473E+01
 -1      1332 1.59022E+01
 -1      1333 1.94837E+01
 -1      1334 1.96149E+01
 -1      1335 1.60504E+01
 -1      1336 1.97041E+01
 -1      1337 1.25012E+01
 -1      1338 1.22676E+01
 -1      1339 1.24139E+01
 -1      1340 1.20543E+01
 -1      1341 1.19992E+01
 -1      1342 1.56650E+01
 -1      1343 1.97846E+01
 -1      1344 1.56874E+01
 -1      1345 1.54886E+01
 -1      1346 1.97536E+01
 -1      1347 1.58646E+01
 -1      1348 1.57702E+01
 -1      1349 1.57205E+01
 -1      1350 1.97105E+01
 -1      1351 1.56831E+01
 -1      1352 1.56695E+01
 -1      1353 1.97419E+01
 -1      1354 1.13960E+01
 -1      1355 1.21784E+01
 -1      1356 1.64396E+01
 -1      1357 1.61161E+01
 -1      1358 1.95652E+01
 -1      1359 1.94226E+01
 -1      1360 1.90227E+01
 -1      1361 1.55627E+01
 -1      1362 1.95220E+01
 -1      1363 1.58588E+01
 -1      1364 1.24383E+01
 -1      1365 1.12037E+01
 -1      1366 1.59844E+01
 -1      1367 1.50158E+01
 -1      1368 1.52810E+01
 -1      1369 1.84530E+01
 -1      1370 1.53882E+01
 -1      1371 1.46273E+01
 -1      1372 1.14553E+01
 -1      1373 1.51737E+01
 -1      1374 1.60733E+01
 -1      1375 1.91002E+01
 -1      1376 1.44193E+01
 -1      1377 1.49755E+01
 -1      1378 1.16651E+01
 -1      1379 1.16957E+01
 -1      1380 1.16957E+01
 -1      1381 1.15015E+01
 -1      1382 2.20322E+01
 -1      1383 2.20322E+01
 -1      1384 1.25087E+01
 -1      1385 1.11351E+01
 -1      1386 1.13349E+01
 -1      1387 1.21160E+01
 -1      1388 1.23851E+01
 -1      1389 1.47905E+01
 -1      1390 1.54686E+01
 -1      1391 1.23639E+01
 -1      1392 1.12538E+01
 -1      1393 1.60191E+01
 -1      1394 1.34304E+01
 -1      1395 1.34304E+01
 -1      1396 1.46046E+01
 -1      1397 1.41929E+01
 -1      1398 1.61831E+01
 -1      1399 1.18299E+01
 -1      1400 1.16498E+01
 -1      1401 1.22359E+01
 -1      1402 1.14749E+01
 -1      1403 1.19662E+01
 -1      1404 1.51346E+01
 -1      1405 1.48899E+01
 -1      1406 1.51271E+01
 -1      1407 1.49293E+01
 -1      1408 1.89441E+01
 -1      1409 1.57864E+01
 -1      1410 1.61853E+01
 -1      1411 1.08029E+01
 -1      1412 1.20880E+01
 -1      1413 1.58117E+01
 -1      1414 1.58894E+01
 -1      1415 1.96212E+01
 -1      1416 1.59330E+01
 -1      1417 1.17759E+01
 -1      1418 1.58889E+01
 -1      1419 1.97639E+01
 -1      1420 1.62292E+01
 -1      1421 1.52117E+01
 -1      1422 1.94433E+01
 -1      1423 1.96101E+01
 -1      1424 1.59471E+01
 -1      1425 1.19370E+01
 -1      1426 1.56813E+01
 -1      1427 1.51359E+01
 -1      1428 1.44935E+01
 -1      1429 1.53090E+01
 -1      1430 1.95405E+01
 -1      1431 1.98031E+01
 -1      1432 1.60659E+01
 -1      1433 1.96674E+01
 -1      1434 1.27381E+01
 -1      1435 1.14247E+01
 -1      1436 1.12324E+01
 -1      1437 1.18885E+01
 -1      1438 1.27562E+01
 -1      1439 1.44624E+01
 -1      1440 1.50827E+01
 -1      1441 1.09849E+01
 -1      1442 2.20322E+01
 -1      1443 2.09267E+01
 -1      1444 1.03960E+01
 -1      1445 1.59293E+01
 -1      1446 1.59708E+01
 -1      1447 1.60968E+01
 -1      1448 1.22135E+01
 -1      1449 1.19892E+01
 -1      1450 1.48445E+01
 -1      1451 1.44790E+01
 -1      1452 1.51078E+01
 -1      1453 1.93073E+01
 -1      1454 1.56169E+01
 -1      1455 1.61451E+01
 -1      1456 1.95447E+01
 -1      1457 1.94213E+01
 -1      1458 1.57783E+01
 -1      1459 1.96273E+01
 -1      1460 1.55495E+01
 -1      1461 1.50360E+01
 -1      1462 1.22297E+01
 -1      1463 1.22064E+01
 -1      1464 1.47724E+01
 -1      1465 1.66141E+01
 -1      1466 1.41061E+01
 -1      1467 1.27768E+01
 -1      1468 1.29002E+01
 -1      1469 1.74379E+01
 -1      1470 1.55059E+01
 -1      1471 1.81918E+01
 -1      1472 1.91418E+01
 -1      1473 1.93323E+01
 -1      1474 1.95322E+01
 -1      1475 1.83877E+01
 -1      1476 1.81773E+01
 -1      1477 1.89054E+01
 -1      1478 1.91528E+01
 -1      1479 1.65938E+01
 -1      1480 1.22682E+01
 -1      1481 1.02629E+01
 -1      1482 1.76540E+01
 -1      1483 1.12143E+01
 -1      1484 1.76000E+01
 -1      1485 1.91230E+01
 -1      1486 1.94368E+01
 -1      1487 1.85993E+01
 -1      1488 3.01627E+01
 -1      1489 1.16409E+01
 -1      1490 1.42394E+01
 -1      1491 1.56608E+01
 -1      1492 1.89161E+01
 -1      1493 1.91523E+01
 -1      1494 1.94571E+01
 -1      1495 2.88561E+01
 -1      1496 1.14401E+01
 -1      1497 1.78751E+01
 -1      1498 1.72464E+01
 -1      1499 2.70583E+01
 -1      1500 1.32007E+01
 -1      1501 1.58093E+01
 -1      1502 1.87922E+01
 -1      1503 1.83491E+01
 -1      1504 2.78976E+01
 -1      1505 1.16649E+01
 -1      1506 1.91571E+01
 -1      1507 1.53883E+01
 -1      1508 1.92001E+01
 -1      1509 1.93691E+01
 -1      1510 1.84669E+01
 -1      1511 2.91132E+01
 -1      1512 1.15438E+01
 -1      1513 1.77967E+01
 -1      1514 1.95167E+01
 -1      1515 2.92292E+01
 -1      1516 1.91693E+01
 -1      1517 1.89967E+01
 -1      1518 1.85196E+01
 -1      1519 1.47860E+01
 -1      1520 1.58004E+01
 -1      1521 1.84162E+01
 -1      1522 1.25569E+01
 -1      1523 1.61973E+01
 -1      1524 1.65179E+01
 -1      1525 2.87031E+01
 -1      1526 1.94507E+01
 -1      1527 3.07190E+01
 -1      1528 1.76215E+01
 -1      1529 1.73376E+01
 -1      1530 1.87808E+01
 -1      1531 1.85077E+01
 -1      1532 1.90292E+01
 -1      1533 2.89905E+01
 -1      1534 1.84762E+01
 -1      1535 2.89557E+01
 -1      1536 1.06869E+01
 -1      1537 1.34150E+01
 -1      1538 2.42153E+01
 -1      1539 2.42153E+01
 -1      1540 2.61335E+01
 -1      1541 1.69320E+01
 -1      1542 2.01203E+01
 -1      1543 2.72229E+01
 -1      1544 2.66336E+01
 -1      1545 2.89896E+01
 -1      1546 2.91596E+01
 -1      1547 2.14332E+01
 -1      1548 2.61471E+01
 -1      1549 2.82417E+01
 -1      1550 1.86727E+01
 -1      1551 2.84730E+01
 -1      1552 2.81686E+01
 -1      1553 2.71731E+01
 -1      1554 2.66336E+01
 -1      1555 2.09499E+01
 -1      1556 2.81686E+01
 -1      1557 2.92292E+01
 -1      1558 1.81247E+01
 -1      1559 2.86987E+01
 -1      1560 2.88377E+01
 -1      1561 1.11442E+01
 -1      1562 1.89452E+01
 -1      1563 1.02175E+01
 -1      1564 2.88678E+01
 -1      1565 1.27680E+01
 -1      1566 1.20384E+01
 -1      1567 2.82011E+01
 -1      1568 2.86498E+01
 -1      1569 9.06959E+00
 -1      1570 1.38881E+01
 -1      1571 1.20384E+01
 -1      1572 1.03961E+01
 -1      1573 1.21707E+01
 -1      1574 1.44742E+01
 -1      1575 1.07838E+01
 -1      1576 2.91745E+01
 -1      1577 2.17647E+01
 -1      1578 2.09025E+01
 -1      1579 2.16129E+01
 -1      1580 2.89784E+01
 -1      1581 2.07642E+01
 -1      1582 3.04408E+01
 -1      1583 2.29502E+01
 -1      1584 2.11006E+01
 -1      1585 2.34497E+01
 -1      1586 3.07190E+01
 -1      1587 3.04408E+01
 -1      1588 2.17435E+01
 -1      1589 1.32602E+01
 -1      1590 1.03232E+01
 -1      1591 2.01453E+01
 -1      1592 1.00749E+01
 -1      1593 1.30845E+01
 -1      1594 1.13925E+01
 -1      1595 1.96726E+01
 -1      1596 1.38495E+01
 -1      1597 1.37309E+01
 -1      1598 1.54918E+01
 -1      1599 1.39836E+01
 -1      1600 1.37031E+01
 -1      1601 1.91980E+01
 -1      1602 1.37439E+01
 -1      1603 1.53962E+01
 -1      1604 1.94914E+01
 -1      1605 1.51284E+01
 -1      1606 1.35389E+01
 -1      1607 1.92644E+01
 -1      1608 1.34986E+01
 -1      1609 1.50405E+01
 -1      1610 1.89564E+01
 -1      1611 1.53408E+01
 -1      1612 1.38305E+01
 -1      1613 1.92164E+01
 -1      1614 1.37383E+01
 -1      1615 1.37429E+01
 -1      1616 1.94245E+01
 -1      1617 1.37613E+01
 -1      1618 1.52837E+01
 -1      1619 1.93507E+01
 -1      1620 1.50519E+01
 -1      1621 1.45024E+01
 -1      1622 1.91372E+01
 -1      1623 1.42832E+01
 -1      1624 1.33184E+01
 -1      1625 1.86861E+01
 -1      1626 1.36636E+01
 -1      1627 1.37121E+01
 -1      1628 1.88120E+01
 -1      1629 1.36950E+01
 -1      1630 1.51622E+01
 -1      1631 1.91401E+01
 -1      1632 1.48604E+01
 -1      1633 1.33072E+01
 -1      1634 1.88213E+01
 -1      1635 1.31360E+01
 -1      1636 1.40167E+01
 -1      1637 1.83484E+01
 -1      1638 1.41026E+01
 -1      1639 1.46843E+01
 -1      1640 1.82632E+01
 -1      1641 1.49058E+01
 -1      1642 1.35559E+01
 -1      1643 1.85706E+01
 -1      1644 1.32557E+01
 -1      1645 1.32618E+01
 -1      1646 1.84920E+01
 -1      1647 1.33740E+01
 -1      1648 1.48381E+01
 -1      1649 1.83040E+01
 -1      1650 1.43490E+01
 -1      1651 1.27708E+01
 -1      1652 1.79271E+01
 -1      1653 1.26750E+01
 -1      1654 1.41235E+01
 -1      1655 1.73421E+01
 -1      1656 1.44379E+01
 -1      1657 1.30416E+01
 -1      1658 1.75608E+01
 -1      1659 1.24111E+01
 -1      1660 1.34222E+01
 -1      1661 1.72446E+01
 -1      1662 1.30153E+01
 -1      1663 1.26240E+01
 -1      1664 1.62072E+01
 -1      1665 1.25542E+01
 -1      1666 1.21084E+01
 -1      1667 1.57306E+01
 -1      1668 1.16711E+01
 -1      1669 1.21262E+01
 -1      1670 1.52234E+01
 -1      1671 1.17862E+01
 -1      1672 1.22426E+01
 -1      1673 1.44461E+01
 -1      1674 1.17899E+01
 -1      1675 1.21430E+01
 -1      1676 1.36534E+01
 -1      1677 1.18211E+01
 -1      1678 1.06646E+01
 -1      1679 1.28788E+01
 -1      1680 1.05203E+01
 -1      1681 1.12786E+01
 -1      1682 1.24125E+01
 -1      1683 1.09164E+01
 -1      1684 1.05418E+01
 -1      1685 1.19060E+01
 -1      1686 1.12200E+01
 -1      1687 1.15588E+01
 -1      1688 1.22220E+01
 -1      1689 1.02175E+01
 -1      1690 1.16863E+01
 -1      1691 1.15588E+01
 -1      1692 1.94336E+01
 -1      1693 1.38337E+01
 -1      1694 1.39762E+01
 -1      1695 1.59604E+01
 -1      1696 1.52102E+01
 -1      1697 1.39858E+01
 -1      1698 1.93050E+01
 -1      1699 1.35826E+01
 -1      1700 1.50578E+01
 -1      1701 1.93047E+01
 -1      1702 1.36249E+01
 -1      1703 1.35911E+01
 -1      1704 1.91608E+01
 -1      1705 1.35426E+01
 -1      1706 1.36111E+01
 -1      1707 1.91555E+01
 -1      1708 1.42101E+01
 -1      1709 1.32256E+01
 -1      1710 1.88247E+01
 -1      1711 1.49298E+01
 -1      1712 1.43467E+01
 -1      1713 1.86443E+01
 -1      1714 1.37246E+01
 -1      1715 1.52578E+01
 -1      1716 1.91088E+01
 -1      1717 1.35304E+01
 -1      1718 1.35208E+01
 -1      1719 1.92330E+01
 -1      1720 1.40024E+01
 -1      1721 1.30781E+01
 -1      1722 1.85770E+01
 -1      1723 1.47209E+01
 -1      1724 1.41339E+01
 -1      1725 1.82562E+01
 -1      1726 1.35917E+01
 -1      1727 1.51271E+01
 -1      1728 1.87939E+01
 -1      1729 1.32684E+01
 -1      1730 1.32913E+01
 -1      1731 1.88997E+01
 -1      1732 1.44499E+01
 -1      1733 1.44437E+01
 -1      1734 1.97746E+01
 -1      1735 1.33985E+01
 -1      1736 1.32130E+01
 -1      1737 1.97131E+01
 -1      1738 1.37356E+01
 -1      1739 1.29873E+01
 -1      1740 1.80651E+01
 -1      1741 1.43869E+01
 -1      1742 1.38069E+01
 -1      1743 1.77253E+01
 -1      1744 1.28944E+01
 -1      1745 1.42886E+01
 -1      1746 1.76984E+01
 -1      1747 1.29357E+01
 -1      1748 1.29051E+01
 -1      1749 1.76107E+01
 -1      1750 1.27593E+01
 -1      1751 1.27938E+01
 -1      1752 1.74795E+01
 -1      1753 1.31323E+01
 -1      1754 1.23874E+01
 -1      1755 1.69657E+01
 -1      1756 1.36380E+01
 -1      1757 1.30944E+01
 -1      1758 1.65558E+01
 -1      1759 1.26120E+01
 -1      1760 1.32837E+01
 -1      1761 1.61636E+01
 -1      1762 1.30984E+01
 -1      1763 1.24603E+01
 -1      1764 1.56576E+01
 -1      1765 1.23868E+01
 -1      1766 1.34440E+01
 -1      1767 1.58516E+01
 -1      1768 1.14252E+01
 -1      1769 1.14079E+01
 -1      1770 1.52184E+01
 -1      1771 1.21037E+01
 -1      1772 1.19996E+01
 -1      1773 1.48138E+01
 -1      1774 1.04121E+01
 -1      1775 1.07980E+01
 -1      1776 1.40825E+01
 -1      1777 1.04182E+01
 -1      1778 9.85613E+00
 -1      1779 1.22209E+01
 -1      1780 1.03854E+01
 -1      1781 1.01929E+01
 -1      1782 1.14396E+01
 -1      1783 1.08515E+01
 -1      1784 1.04984E+01
 -1      1785 1.13272E+01
 -1      1786 1.17951E+01
 -1      1787 1.02629E+01
 -1      1788 1.08515E+01
 -1      1789 1.92320E+01
 -1      1790 2.22544E+01
 -1      1791 2.16239E+01
 -1      1792 2.13806E+01
 -1      1793 2.09737E+01
 -1      1794 2.63904E+01
 -1      1795 1.77697E+01
 -1      1796 1.73169E+01
 -1      1797 1.95007E+01
 -1      1798 1.91607E+01
 -1      1799 2.28242E+01
 -1      1800 1.51688E+01
 -1      1801 1.57248E+01
 -1      1802 1.64485E+01
 -1      1803 1.77543E+01
 -1      1804 1.93965E+01
 -1      1805 1.24794E+01
 -1      1806 1.31576E+01
 -1      1807 1.17936E+01
 -1      1808 1.20509E+01
 -1      1809 1.04522E+01
 -1      1810 2.22481E+01
 -1      1811 2.21523E+01
 -1      1812 2.23055E+01
 -1      1813 2.71157E+01
 -1      1814 2.27947E+01
 -1      1815 2.08197E+01
 -1      1816 2.09714E+01
 -1      1817 2.02063E+01
 -1      1818 1.98606E+01
 -1      1819 2.51744E+01
 -1      1820 2.34804E+01
 -1      1821 2.31802E+01
 -1      1822 2.27074E+01
 -1      1823 2.28196E+01
 -1      1824 2.76957E+01
 -1      1825 2.40657E+01
 -1      1826 2.40794E+01
 -1      1827 2.38684E+01
 -1      1828 2.41855E+01
 -1      1829 2.91094E+01
 -1      1830 2.40850E+01
 -1      1831 2.41034E+01
 -1      1832 2.43729E+01
 -1      1833 2.42807E+01
 -1      1834 2.90334E+01
 -1      1835 2.43459E+01
 -1      1836 2.40781E+01
 -1      1837 2.41177E+01
 -1      1838 2.40769E+01
 -1      1839 2.89314E+01
 -1      1840 2.38366E+01
 -1      1841 2.34303E+01
 -1      1842 2.36717E+01
 -1      1843 2.87144E+01
 -1      1844 2.35402E+01
 -1      1845 2.30374E+01
 -1      1846 2.31233E+01
 -1      1847 2.35839E+01
 -1      1848 2.84440E+01
 -1      1849 2.37550E+01
 -1      1850 2.40339E+01
 -1      1851 2.38020E+01
 -1      1852 2.40093E+01
 -1      1853 2.37901E+01
 -1      1854 2.89060E+01
 -1      1855 2.41566E+01
 -1      1856 2.40045E+01
 -1      1857 2.88620E+01
 -1      1858 2.40103E+01
 -1      1859 2.49359E+01
 -1      1860 2.97934E+01
 -1      1861 2.15757E+01
 -1      1862 2.16137E+01
 -1      1863 2.16137E+01
 -1      1864 2.19856E+01
 -1      1865 2.66336E+01
 -1      1866 1.46001E+01
 -1      1867 1.42379E+01
 -1      1868 1.56148E+01
 -1      1869 1.54704E+01
 -1      1870 1.78024E+01
 -1      1871 1.04749E+01
 -1      1872 1.10635E+01
 -1      1873 9.66624E+00
 -1      1874 9.87825E+00
 -1      1875 1.07035E+01
 -1      1876 1.01069E+01
 -1      1877 2.29826E+01
 -1      1878 2.29113E+01
 -1      1879 2.29113E+01
 -1      1880 2.33224E+01
 -1      1881 2.81686E+01
 -1      1882 1.24276E+01
 -1      1883 1.23146E+01
 -1      1884 1.40732E+01
 -1      1885 1.42985E+01
 -1      1886 1.51735E+01
 -1      1887 2.24115E+01
 -1      1888 2.25098E+01
 -1      1889 2.23973E+01
 -1      1890 2.23866E+01
 -1      1891 2.71980E+01
 -1      1892 2.38151E+01
 -1      1893 2.37980E+01
 -1      1894 2.36824E+01
 -1      1895 2.33807E+01
 -1      1896 2.83574E+01
 -1      1897 2.41373E+01
 -1      1898 2.38093E+01
 -1      1899 2.38640E+01
 -1      1900 2.40678E+01
 -1      1901 2.87682E+01
 -1      1902 2.34205E+01
 -1      1903 2.37209E+01
 -1      1904 2.37949E+01
 -1      1905 2.86161E+01
 -1      1906 2.49702E+01
 -1      1907 2.95152E+01
 -1      1908 2.45539E+01
 -1      1909 2.39065E+01
 -1      1910 1.03552E+01
 -1      1911 1.09292E+01
 -1      1912 9.64353E+00
 -1      1913 1.84107E+01
 -1      1914 1.78363E+01
 -1      1915 1.92273E+01
 -1      1916 2.02063E+01
 -1      1917 1.99380E+01
 -1      1918 1.95007E+01
 -1      1919 2.09669E+01
 -1      1920 2.08971E+01
 -1      1921 2.40726E+01
 -1      1922 2.43729E+01
 -1      1923 2.39931E+01
 -1      1924 2.39529E+01
 -1      1925 2.39277E+01
 -1      1926 2.40801E+01
 -1      1927 2.41644E+01
 -1      1928 2.41559E+01
 -1      1929 2.87796E+01
 -1      1930 2.41534E+01
 -1      1931 2.39007E+01
 -1      1932 2.19400E+01
 -1      1933 2.22544E+01
 -1      1934 2.68459E+01
 -1      1935 2.23399E+01
 -1      1936 2.21979E+01
 -1      1937 1.66605E+01
 -1      1938 1.63386E+01
 -1      1939 2.07767E+01
 -1      1940 2.09782E+01
 -1      1941 2.13325E+01
 -1      1942 2.61403E+01
 -1      1943 2.32588E+01
 -1      1944 2.34804E+01
 -1      1945 2.80331E+01
 -1      1946 2.44238E+01
 -1      1947 2.31869E+01
 -1      1948 2.37113E+01
 -1      1949 2.40564E+01
 -1      1950 2.90345E+01
 -1      1951 2.40712E+01
 -1      1952 2.36190E+01
 -1      1953 2.92292E+01
 -1      1954 2.40050E+01
 -1      1955 2.38684E+01
 -1      1956 2.90746E+01
 -1      1957 2.42153E+01
 -1      1958 1.64249E+01
 -1      1959 1.42776E+01
 -1      1960 1.25600E+01
 -1      1961 1.01744E+01
 -1      1962 1.70485E+01
 -1      1963 1.56656E+01
 -1      1964 1.78319E+01
 -1      1965 1.89388E+01
 -1      1966 1.88023E+01
 -1      1967 1.88066E+01
 -1      1968 1.89559E+01
 -1      1969 1.81446E+01
 -1      1970 1.86752E+01
 -1      1971 1.90471E+01
 -1      1972 1.68234E+01
 -1      1973 1.22576E+01
 -1      1974 8.50827E+00
 -1      1975 1.87945E+01
 -1      1976 1.03816E+01
 -1      1977 1.83669E+01
 -1      1978 1.91313E+01
 -1      1979 1.83886E+01
 -1      1980 1.82466E+01
 -1      1981 3.01619E+01
 -1      1982 8.92501E+00
 -1      1983 1.41263E+01
 -1      1984 1.55140E+01
 -1      1985 1.92131E+01
 -1      1986 1.86642E+01
 -1      1987 1.92029E+01
 -1      1988 1.97180E+01
 -1      1989 2.88503E+01
 -1      1990 9.55684E+00
 -1      1991 1.67002E+01
 -1      1992 1.70592E+01
 -1      1993 2.73398E+01
 -1      1994 1.33903E+01
 -1      1995 1.76134E+01
 -1      1996 1.58377E+01
 -1      1997 1.22933E+01
 -1      1998 1.31665E+01
 -1      1999 1.85137E+01
 -1      2000 1.91134E+01
 -1      2001 1.85701E+01
 -1      2002 2.88735E+01
 -1      2003 1.93809E+01
 -1      2004 1.90044E+01
 -1      2005 1.28388E+01
 -1      2006 1.83186E+01
 -1      2007 1.93304E+01
 -1      2008 1.81778E+01
 -1      2009 1.85980E+01
 -1      2010 1.89769E+01
 -1      2011 1.87421E+01
 -1      2012 1.94981E+01
 -1      2013 1.62203E+01
 -1      2014 1.81940E+01
 -1      2015 1.58197E+01
 -1      2016 1.72122E+01
 -1      2017 1.26027E+01
 -1      2018 1.47856E+01
 -1      2019 1.66818E+01
 -1      2020 2.86891E+01
 -1      2021 1.90833E+01
 -1      2022 3.09833E+01
 -1      2023 1.74514E+01
 -1      2024 1.71566E+01
 -1      2025 2.85064E+01
 -1      2026 1.86772E+01
 -1      2027 9.44656E+00
 -1      2028 1.62659E+01
 -1      2029 2.42259E+01
 -1      2030 2.42259E+01
 -1      2031 2.59904E+01
 -1      2032 1.74053E+01
 -1      2033 2.20619E+01
 -1      2034 2.71971E+01
 -1      2035 2.55626E+01
 -1      2036 2.81811E+01
 -1      2037 2.88673E+01
 -1      2038 2.93505E+01
 -1      2039 2.93505E+01
 -1      2040 2.94434E+01
 -1      2041 2.11860E+01
 -1      2042 2.88192E+01
 -1      2043 2.66078E+01
 -1      2044 2.89532E+01
 -1      2045 2.91166E+01
 -1      2046 2.86934E+01
 -1      2047 1.95578E+01
 -1      2048 2.84680E+01
 -1      2049 2.81811E+01
 -1      2050 2.81107E+01
 -1      2051 2.71102E+01
 -1      2052 1.77571E+01
 -1      2053 2.83113E+01
 -1      2054 1.03248E+01
 -1      2055 1.89686E+01
 -1      2056 8.25770E+00
 -1      2057 2.89417E+01
 -1      2058 1.31561E+01
 -1      2059 1.20350E+01
 -1      2060 2.90950E+01
 -1      2061 2.91086E+01
 -1      2062 8.87535E+00
 -1      2063 1.20350E+01
 -1      2064 1.38967E+01
 -1      2065 1.03892E+01
 -1      2066 1.47255E+01
 -1      2067 1.23977E+01
 -1      2068 1.09818E+01
 -1      2069 2.20188E+01
 -1      2070 3.02127E+01
 -1      2071 2.11708E+01
 -1      2072 3.02037E+01
 -1      2073 2.20183E+01
 -1      2074 2.12263E+01
 -1      2075 2.29601E+01
 -1      2076 3.05726E+01
 -1      2077 2.10984E+01
 -1      2078 3.09833E+01
 -1      2079 2.36391E+01
 -1      2080 3.05726E+01
 -1      2081 2.20697E+01
 -1      2082 8.92501E+00
 -1      2083 1.19270E+01
 -1      2084 1.90168E+01
 -1      2085 1.26333E+01
 -1      2086 9.62493E+00
 -1      2087 9.62493E+00
 -1      2088 1.97099E+01
 -1      2089 1.37427E+01
 -1      2090 1.38560E+01
 -1      2091 1.55018E+01
 -1      2092 1.50964E+01
 -1      2093 1.38001E+01
 -1      2094 1.90260E+01
 -1      2095 1.46942E+01
 -1      2096 1.49581E+01
 -1      2097 1.89450E+01
 -1      2098 1.34691E+01
 -1      2099 1.46620E+01
 -1      2100 1.87743E+01
 -1      2101 1.45893E+01
 -1      2102 1.34302E+01
 -1      2103 1.87032E+01
 -1      2104 1.34048E+01
 -1      2105 1.45562E+01
 -1      2106 1.86311E+01
 -1      2107 1.49602E+01
 -1      2108 1.35070E+01
 -1      2109 1.87002E+01
 -1      2110 1.37382E+01
 -1      2111 1.52495E+01
 -1      2112 1.90916E+01
 -1      2113 1.36269E+01
 -1      2114 1.35499E+01
 -1      2115 1.91927E+01
 -1      2116 1.40690E+01
 -1      2117 1.32480E+01
 -1      2118 1.86255E+01
 -1      2119 1.48048E+01
 -1      2120 1.42026E+01
 -1      2121 1.83801E+01
 -1      2122 1.35416E+01
 -1      2123 1.51136E+01
 -1      2124 1.88225E+01
 -1      2125 1.44045E+01
 -1      2126 1.33145E+01
 -1      2127 1.89043E+01
 -1      2128 1.37377E+01
 -1      2129 1.39445E+01
 -1      2130 1.82172E+01
 -1      2131 1.32256E+01
 -1      2132 1.40535E+01
 -1      2133 1.80729E+01
 -1      2134 1.37199E+01
 -1      2135 1.28380E+01
 -1      2136 1.80010E+01
 -1      2137 1.43854E+01
 -1      2138 1.38292E+01
 -1      2139 1.77226E+01
 -1      2140 1.33031E+01
 -1      2141 1.40755E+01
 -1      2142 1.75220E+01
 -1      2143 1.27078E+01
 -1      2144 1.32212E+01
 -1      2145 1.71304E+01
 -1      2146 1.36566E+01
 -1      2147 1.27131E+01
 -1      2148 1.70539E+01
 -1      2149 1.39441E+01
 -1      2150 1.34771E+01
 -1      2151 1.68797E+01
 -1      2152 1.32392E+01
 -1      2153 1.38065E+01
 -1      2154 1.65626E+01
 -1      2155 1.22003E+01
 -1      2156 1.29366E+01
 -1      2157 1.61223E+01
 -1      2158 1.31041E+01
 -1      2159 1.20474E+01
 -1      2160 1.56669E+01
 -1      2161 1.22083E+01
 -1      2162 1.34572E+01
 -1      2163 1.58672E+01
 -1      2164 1.15173E+01
 -1      2165 1.12369E+01
 -1      2166 1.52490E+01
 -1      2167 1.19053E+01
 -1      2168 1.10736E+01
 -1      2169 1.38339E+01
 -1      2170 1.07283E+01
 -1      2171 1.15115E+01
 -1      2172 1.29965E+01
 -1      2173 1.11460E+01
 -1      2174 1.05557E+01
 -1      2175 1.24302E+01
 -1      2176 1.05954E+01
 -1      2177 1.14366E+01
 -1      2178 1.25482E+01
 -1      2179 8.96292E+00
 -1      2180 9.26323E+00
 -1      2181 1.15066E+01
 -1      2182 1.07453E+01
 -1      2183 8.00456E+00
 -1      2184 9.21606E+00
 -1      2185 1.86832E+01
 -1      2186 1.39273E+01
 -1      2187 1.37809E+01
 -1      2188 1.61016E+01
 -1      2189 1.41163E+01
 -1      2190 1.39303E+01
 -1      2191 1.93825E+01
 -1      2192 1.36727E+01
 -1      2193 1.52464E+01
 -1      2194 1.94604E+01
 -1      2195 1.51334E+01
 -1      2196 1.35259E+01
 -1      2197 1.90899E+01
 -1      2198 1.35069E+01
 -1      2199 1.50712E+01
 -1      2200 1.89579E+01
 -1      2201 1.53508E+01
 -1      2202 1.38506E+01
 -1      2203 1.92185E+01
 -1      2204 1.37081E+01
 -1      2205 1.37162E+01
 -1      2206 1.93556E+01
 -1      2207 1.37749E+01
 -1      2208 1.52778E+01
 -1      2209 1.92718E+01
 -1      2210 1.49502E+01
 -1      2211 1.43952E+01
 -1      2212 1.90028E+01
 -1      2213 1.41546E+01
 -1      2214 1.32312E+01
 -1      2215 1.84346E+01
 -1      2216 1.36121E+01
 -1      2217 1.35345E+01
 -1      2218 1.85749E+01
 -1      2219 1.36133E+01
 -1      2220 1.51548E+01
 -1      2221 1.90346E+01
 -1      2222 1.48831E+01
 -1      2223 1.33318E+01
 -1      2224 1.88418E+01
 -1      2225 1.31191E+01
 -1      2226 1.39917E+01
 -1      2227 1.83574E+01
 -1      2228 1.40786E+01
 -1      2229 1.46717E+01
 -1      2230 1.82316E+01
 -1      2231 1.49097E+01
 -1      2232 1.34629E+01
 -1      2233 1.85566E+01
 -1      2234 1.31546E+01
 -1      2235 1.32749E+01
 -1      2236 1.84862E+01
 -1      2237 1.33694E+01
 -1      2238 1.32966E+01
 -1      2239 1.82724E+01
 -1      2240 1.28388E+01
 -1      2241 1.27469E+01
 -1      2242 1.79091E+01
 -1      2243 1.25995E+01
 -1      2244 1.39283E+01
 -1      2245 1.73040E+01
 -1      2246 1.37617E+01
 -1      2247 1.26317E+01
 -1      2248 1.69900E+01
 -1      2249 1.25609E+01
 -1      2250 1.34210E+01
 -1      2251 1.67526E+01
 -1      2252 1.29989E+01
 -1      2253 1.26071E+01
 -1      2254 1.62598E+01
 -1      2255 1.25210E+01
 -1      2256 1.21099E+01
 -1      2257 1.57517E+01
 -1      2258 1.16699E+01
 -1      2259 1.21266E+01
 -1      2260 1.52256E+01
 -1      2261 1.17970E+01
 -1      2262 1.22511E+01
 -1      2263 1.44560E+01
 -1      2264 1.17712E+01
 -1      2265 1.21356E+01
 -1      2266 1.36464E+01
 -1      2267 1.18323E+01
 -1      2268 1.06687E+01
 -1      2269 1.28633E+01
 -1      2270 1.05353E+01
 -1      2271 1.12405E+01
 -1      2272 1.24266E+01
 -1      2273 1.02846E+01
 -1      2274 1.00005E+01
 -1      2275 1.13374E+01
 -1      2276 9.58815E+00
 -1      2277 9.55684E+00
 -1      2278 9.96920E+00
 -1      2279 9.03255E+00
 -1      2280 1.09329E+01
 -1      2281 9.03255E+00
 -1      2282 1.88016E+01
 -1      2283 2.09938E+01
 -1      2284 2.11314E+01
 -1      2285 2.12137E+01
 -1      2286 2.15164E+01
 -1      2287 2.60852E+01
 -1      2288 1.72881E+01
 -1      2289 1.77318E+01
 -1      2290 1.92518E+01
 -1      2291 2.02231E+01
 -1      2292 2.27059E+01
 -1      2293 1.60589E+01
 -1      2294 1.59256E+01
 -1      2295 1.76142E+01
 -1      2296 1.73109E+01
 -1      2297 2.08099E+01
 -1      2298 1.32202E+01
 -1      2299 1.45524E+01
 -1      2300 1.28563E+01
 -1      2301 9.81049E+00
 -1      2302 8.85213E+00
 -1      2303 2.21995E+01
 -1      2304 2.21942E+01
 -1      2305 2.77253E+01
 -1      2306 2.25796E+01
 -1      2307 2.26614E+01
 -1      2308 2.09141E+01
 -1      2309 2.08280E+01
 -1      2310 1.99458E+01
 -1      2311 1.95058E+01
 -1      2312 2.51082E+01
 -1      2313 2.30065E+01
 -1      2314 2.28972E+01
 -1      2315 2.22046E+01
 -1      2316 2.25145E+01
 -1      2317 2.76891E+01
 -1      2318 2.41637E+01
 -1      2319 2.41446E+01
 -1      2320 2.41446E+01
 -1      2321 2.44243E+01
 -1      2322 2.93505E+01
 -1      2323 2.41000E+01
 -1      2324 2.38107E+01
 -1      2325 2.38348E+01
 -1      2326 2.37326E+01
 -1      2327 2.88432E+01
 -1      2328 2.40927E+01
 -1      2329 2.41250E+01
 -1      2330 2.38862E+01
 -1      2331 2.37479E+01
 -1      2332 2.90662E+01
 -1      2333 2.37119E+01
 -1      2334 2.37907E+01
 -1      2335 2.35736E+01
 -1      2336 2.39545E+01
 -1      2337 2.87106E+01
 -1      2338 2.37218E+01
 -1      2339 2.35091E+01
 -1      2340 2.86899E+01
 -1      2341 2.33255E+01
 -1      2342 2.34125E+01
 -1      2343 2.40119E+01
 -1      2344 2.36843E+01
 -1      2345 2.38959E+01
 -1      2346 2.36553E+01
 -1      2347 2.89050E+01
 -1      2348 2.39487E+01
 -1      2349 2.42841E+01
 -1      2350 2.39944E+01
 -1      2351 2.88960E+01
 -1      2352 2.99625E+01
 -1      2353 2.50152E+01
 -1      2354 2.11930E+01
 -1      2355 2.11222E+01
 -1      2356 2.21334E+01
 -1      2357 2.19668E+01
 -1      2358 2.63364E+01
 -1      2359 1.51220E+01
 -1      2360 1.48314E+01
 -1      2361 1.59077E+01
 -1      2362 1.60803E+01
 -1      2363 1.84816E+01
 -1      2364 9.50170E+00
 -1      2365 8.97741E+00
 -1      2366 9.16095E+00
 -1      2367 8.69181E+00
 -1      2368 9.41656E+00
 -1      2369 9.60010E+00
 -1      2370 2.32499E+01
 -1      2371 2.34878E+01
 -1      2372 2.34878E+01
 -1      2373 2.31795E+01
 -1      2374 2.81811E+01
 -1      2375 1.33238E+01
 -1      2376 1.29114E+01
 -1      2377 1.48493E+01
 -1      2378 1.38934E+01
 -1      2379 1.68356E+01
 -1      2380 2.26874E+01
 -1      2381 2.27820E+01
 -1      2382 2.32388E+01
 -1      2383 2.27810E+01
 -1      2384 2.76539E+01
 -1      2385 2.37996E+01
 -1      2386 2.34908E+01
 -1      2387 2.34943E+01
 -1      2388 2.37213E+01
 -1      2389 2.83896E+01
 -1      2390 2.28972E+01
 -1      2391 2.32849E+01
 -1      2392 2.83438E+01
 -1      2393 2.34475E+01
 -1      2394 2.31318E+01
 -1      2395 2.37334E+01
 -1      2396 2.35999E+01
 -1      2397 2.36816E+01
 -1      2398 2.40605E+01
 -1      2399 2.90349E+01
 -1      2400 2.95518E+01
 -1      2401 2.39552E+01
 -1      2402 2.45653E+01
 -1      2403 8.90018E+00
 -1      2404 8.59135E+00
 -1      2405 8.56652E+00
 -1      2406 1.76561E+01
 -1      2407 1.71763E+01
 -1      2408 1.95058E+01
 -1      2409 1.91761E+01
 -1      2410 2.02231E+01
 -1      2411 1.98700E+01
 -1      2412 2.07522E+01
 -1      2413 2.09051E+01
 -1      2414 2.40161E+01
 -1      2415 2.40748E+01
 -1      2416 2.41827E+01
 -1      2417 2.40402E+01
 -1      2418 2.39742E+01
 -1      2419 2.40074E+01
 -1      2420 2.40074E+01
 -1      2421 2.40463E+01
 -1      2422 2.42036E+01
 -1      2423 2.39460E+01
 -1      2424 2.43231E+01
 -1      2425 2.42101E+01
 -1      2426 2.87697E+01
 -1      2427 2.39668E+01
 -1      2428 2.39095E+01
 -1      2429 2.19052E+01
 -1      2430 2.20847E+01
 -1      2431 2.72250E+01
 -1      2432 2.22482E+01
 -1      2433 2.23956E+01
 -1      2434 1.73323E+01
 -1      2435 1.77261E+01
 -1      2436 2.16239E+01
 -1      2437 2.16448E+01
 -1      2438 2.12227E+01
 -1      2439 2.62991E+01
 -1      2440 2.37123E+01
 -1      2441 2.34407E+01
 -1      2442 2.85924E+01
 -1      2443 2.33153E+01
 -1      2444 2.37753E+01
 -1      2445 2.38489E+01
 -1      2446 2.40371E+01
 -1      2447 2.87563E+01
 -1      2448 2.91089E+01
 -1      2449 2.93969E+01
 -1      2450 2.42259E+01
 -1      2451 3.72889E+01
 -1      2452 1.23952E+01
 -1      2453 1.73802E+01
 -1      2454 2.94434E+01
 -1      2455 2.86987E+01
 -1      2456 2.20619E+01
 -1      2457 2.42300E+01
 -1      2458 2.67817E+01
 -1      2459 2.69825E+01
 -1      2460 2.81107E+01
 -1      2461 2.83113E+01
 -1      2462 2.91454E+01
 -1      2463 2.81066E+01
 -1      2464 2.91656E+01
 -1      2465 2.89905E+01
 -1      2466 2.74951E+01
 -1      2467 2.02047E+01
 -1      2468 2.93504E+01
 -1      2469 1.21847E+01
 -1      2470 3.37987E+01
 -1      2471 1.33474E+01
 -1      2472 3.37987E+01
 -1      2473 2.91636E+01
 -1      2474 2.88833E+01
 -1      2475 2.27056E+01
 -1      2476 2.26127E+01
 -1      2477 2.67817E+01
 -1      2478 2.53577E+01
 -1      2479 2.59066E+01
 -1      2480 2.58571E+01
 -1      2481 2.88673E+01
 -1      2482 2.74981E+01
 -1      2483 2.81066E+01
 -1      2484 2.89151E+01
 -1      2485 2.74964E+01
 -1      2486 2.89128E+01
 -1      2487 2.91656E+01
 -1      2488 2.83385E+01
 -1      2489 2.89091E+01
 -1      2490 2.89905E+01
 -1      2491 3.38176E+01
 -1      2492 1.21017E+01
 -1      2493 1.87535E+01
 -1      2494 2.90799E+01
 -1      2495 2.89800E+01
 -1      2496 1.41593E+01
 -1      2497 3.38176E+01
 -1      2498 2.01203E+01
 -1      2499 2.91596E+01
 -1      2500 1.26964E+01
 -1      2501 2.73065E+01
 -1      2502 2.73065E+01
 -1      2503 2.89800E+01
 -1      2504 1.41593E+01
 -1      2505 1.41593E+01
 -1      2506 2.73065E+01
 -1      2507 2.71731E+01
 -1      2508 1.87535E+01
 -1      2509 1.84863E+01
 -1      2510 2.20619E+01
 -1      2511 2.01203E+01
 -1      2512 2.92292E+01
 -1      2513 2.91596E+01
 -1      2514 2.83113E+01
 -1      2515 2.55626E+01
 -1      2516 2.23875E+01
 -1      2517 2.25107E+01
 -1      2518 2.47295E+01
 -1      2519 2.45551E+01
 -1      2520 2.63574E+01
 -1      2521 2.88673E+01
 -1      2522 2.72333E+01
 -1      2523 2.86934E+01
 -1      2524 2.84750E+01
 -1      2525 2.88377E+01
 -1      2526 2.72312E+01
 -1      2527 2.82417E+01
 -1      2528 2.86987E+01
 -1      2529 2.84730E+01
 -1      2530 2.81686E+01
 -1      2531 2.81811E+01
 -1      2532 2.81107E+01
 -1      2533 2.93505E+01
 -1      2534 2.94434E+01
 -1      2535 2.89800E+01
 -1      2536 2.89108E+01
 -1      2537 2.73398E+01
 -1      2538 2.81107E+01
 -1      2539 1.84863E+01
 -1      2540 2.20619E+01
 -1      2541 2.73398E+01
 -1      2542 2.94434E+01
 -1      2543 2.93505E+01
 -1      2544 1.62659E+01
 -1      2545 2.91636E+01
 -1      2546 2.42300E+01
 -1      2547 2.67817E+01
 -1      2548 2.42153E+01
 -1      2549 2.66336E+01
 -1      2550 2.92292E+01
 -1      2551 2.91636E+01
 -1      2552 2.91656E+01
 -1      2553 2.91656E+01
 -1      2554 2.89151E+01
 -1      2555 2.89905E+01
 -1      2556 2.81811E+01
 -1      2557 2.81686E+01
 -1      2558 1.18900E+01
 -1      2559 2.63574E+01
 -1      2560 2.63574E+01
 -1      2561 2.67817E+01
 -1      2562 2.89151E+01
 -1      2563 2.49702E+01
 -1      2564 2.40779E+01
 -1      2565 2.00576E+01
 -1      2566 2.49702E+01
 -1      2567 2.40779E+01
 -1      2568 2.89905E+01
 -1      2569 2.36359E+01
 -1      2570 2.45282E+01
 -1      2571 2.85485E+01
 -1      2572 1.22179E+01
 -1      2573 1.22900E+01
 -1      2574 1.27992E+01
 -1      2575 1.28713E+01
 -1      2576 1.27661E+01
 -1      2577 1.14358E+01
 -1      2578 1.06272E+01
 -1      2579 1.05857E+01
 -1      2580 1.21432E+01
 -1      2581 1.13943E+01
 -1      2582 3.13333E+01
 -1      2583 3.55438E+01
 -1      2584 3.30784E+01
 -1      2585 3.13333E+01
 -1      2586 3.55438E+01
 -1      2587 3.37987E+01
 -1      2588 2.88175E+01
 -1      2589 2.70724E+01
 -1      2590 2.70819E+01
 -1      2591 3.38081E+01
 -1      2592 3.55532E+01
 -1      2593 1.64493E+01
 -1      2594 2.01080E+01
 -1      2595 1.90469E+01
 -1      2596 1.77543E+01
 -1      2597 2.14129E+01
 -1      2598 1.88153E+01
 -1      2599 2.23838E+01
 -1      2600 1.97861E+01
 -1      2601 2.10911E+01
 -1      2602 1.87251E+01
 -1      2603 2.86953E+01
 -1      2604 2.69597E+01
 -1      2605 3.30725E+01
 -1      2606 3.13274E+01
 -1      2607 1.50968E+01
 -1      2608 1.49839E+01
 -1      2609 1.13272E+01
 -1      2610 1.27997E+01
 -1      2611 1.26868E+01
 -1      2612 1.64564E+01
 -1      2613 1.80668E+01
 -1      2614 1.42972E+01
 -1      2615 1.57697E+01
 -1      2616 2.41688E+01
 -1      2617 2.90063E+01
 -1      2618 2.43078E+01
 -1      2619 2.44104E+01
 -1      2620 2.92479E+01
 -1      2621 2.91089E+01
 -1      2622 2.88673E+01
 -1      2623 2.90063E+01
 -1      2624 2.91089E+01
 -1      2625 2.02843E+01
 -1      2626 2.05259E+01
 -1      2627 2.37326E+01
 -1      2628 2.39742E+01
 -1      2629 2.69502E+01
 -1      2630 3.13274E+01
 -1      2631 1.97288E+01
 -1      2632 2.03844E+01
 -1      2633 2.10911E+01
 -1      2634 2.17476E+01
 -1      2635 1.53976E+01
 -1      2636 1.37871E+01
 -1      2637 1.71561E+01
 -1      2638 2.40678E+01
 -1      2639 2.86987E+01
 -1      2640 2.43002E+01
 -1      2641 2.89311E+01
 -1      2642 2.89311E+01
 -1      2643 2.87682E+01
 -1      2644 2.41373E+01
 -1      2645 2.87682E+01
 -1      2646 2.91873E+01
 -1      2647 2.43310E+01
 -1      2648 2.90562E+01
 -1      2649 2.42000E+01
 -1      2650 2.90144E+01
 -1      2651 2.40339E+01
 -1      2652 2.87682E+01
 -1      2653 2.41262E+01
 -1      2654 2.88605E+01
 -1      2655 2.87910E+01
 -1      2656 2.84440E+01
 -1      2657 2.89905E+01
 -1      2658 2.90007E+01
 -1      2659 2.86509E+01
 -1      2660 2.40953E+01
 -1      2661 2.37557E+01
 -1      2662 2.83921E+01
 -1      2663 2.38366E+01
 -1      2664 2.87317E+01
 -1      2665 2.87682E+01
 -1      2666 2.40339E+01
 -1      2667 2.86987E+01
 -1      2668 2.82765E+01
 -1      2669 2.83574E+01
 -1      2670 2.32634E+01
 -1      2671 2.76668E+01
 -1      2672 2.29572E+01
 -1      2673 2.73605E+01
 -1      2674 2.78044E+01
 -1      2675 2.44092E+01
 -1      2676 2.42781E+01
 -1      2677 2.41768E+01
 -1      2678 2.86161E+01
 -1      2679 2.87910E+01
 -1      2680 2.43144E+01
 -1      2681 2.41874E+01
 -1      2682 2.43986E+01
 -1      2683 2.42717E+01
 -1      2684 2.87830E+01
 -1      2685 2.40146E+01
 -1      2686 2.87589E+01
 -1      2687 2.40988E+01
 -1      2688 2.88432E+01
 -1      2689 2.40518E+01
 -1      2690 2.41689E+01
 -1      2691 2.44013E+01
 -1      2692 2.42842E+01
 -1      2693 2.02136E+01
 -1      2694 2.42226E+01
 -1      2695 2.34604E+01
 -1      2696 2.34678E+01
 -1      2697 1.94514E+01
 -1      2698 2.02252E+01
 -1      2699 2.42280E+01
 -1      2700 1.94165E+01
 -1      2701 2.34193E+01
 -1      2702 2.34214E+01
 -1      2703 2.07062E+01
 -1      2704 2.17056E+01
 -1      2705 2.12593E+01
 -1      2706 2.09434E+01
 -1      2707 2.04971E+01
 -1      2708 2.20694E+01
 -1      2709 2.17029E+01
 -1      2710 2.12476E+01
 -1      2711 2.04389E+01
 -1      2712 2.08942E+01
 -1      2713 2.30266E+01
 -1      2714 2.28686E+01
 -1      2715 2.23059E+01
 -1      2716 2.64198E+01
 -1      2717 2.24639E+01
 -1      2718 2.68080E+01
 -1      2719 2.24288E+01
 -1      2720 2.62454E+01
 -1      2721 2.18661E+01
 -1      2722 2.43218E+01
 -1      2723 2.41827E+01
 -1      2724 2.90063E+01
 -1      2725 2.88673E+01
 -1      2726 2.44054E+01
 -1      2727 2.43613E+01
 -1      2728 2.42663E+01
 -1      2729 2.42222E+01
 -1      2730 2.43133E+01
 -1      2731 2.41867E+01
 -1      2732 2.44056E+01
 -1      2733 2.42790E+01
 -1      2734 2.80021E+01
 -1      2735 2.40156E+01
 -1      2736 2.37518E+01
 -1      2737 2.37094E+01
 -1      2738 2.34456E+01
 -1      2739 2.39815E+01
 -1      2740 2.37441E+01
 -1      2741 2.36744E+01
 -1      2742 2.34370E+01
 -1      2743 2.78035E+01
 -1      2744 2.32388E+01
 -1      2745 2.76539E+01
 -1      2746 2.73467E+01
 -1      2747 2.29317E+01
 -1      2748 2.40398E+01
 -1      2749 2.86960E+01
 -1      2750 2.42732E+01
 -1      2751 2.89295E+01
 -1      2752 2.89321E+01
 -1      2753 2.41210E+01
 -1      2754 2.39542E+01
 -1      2755 2.44218E+01
 -1      2756 2.42550E+01
 -1      2757 2.86121E+01
 -1      2758 2.37123E+01
 -1      2759 2.83896E+01
 -1      2760 2.40131E+01
 -1      2761 2.86904E+01
 -1      2762 2.40460E+01
 -1      2763 2.41607E+01
 -1      2764 2.42794E+01
 -1      2765 2.43942E+01
 -1      2766 2.41211E+01
 -1      2767 2.39602E+01
 -1      2768 2.44199E+01
 -1      2769 2.42591E+01
 -1      2770 2.86102E+01
 -1      2771 2.81376E+01
 -1      2772 2.34494E+01
 -1      2773 2.31451E+01
 -1      2774 2.78023E+01
 -1      2775 2.78333E+01
 -1      2776 2.89905E+01
 -1      2777 2.37882E+01
 -1      2778 2.39233E+01
 -1      2779 2.42252E+01
 -1      2780 2.86132E+01
 -1      2781 2.40901E+01
 -1      2782 2.37213E+01
 -1      2783 2.83113E+01
 -1      2784 2.86132E+01
 -1      2785 2.40232E+01
 -1      2786 2.43729E+01
 -1      2787 2.92292E+01
 -1      2788 2.91873E+01
 -1      2789 2.38004E+01
 -1      2790 2.39322E+01
 -1      2791 2.41400E+01
 -1      2792 2.42718E+01
 -1      2793 2.37591E+01
 -1      2794 2.38312E+01
 -1      2795 2.34541E+01
 -1      2796 2.35261E+01
 -1      2797 2.78015E+01
 -1      2798 2.44778E+01
 -1      2799 2.39353E+01
 -1      2800 2.45527E+01
 -1      2801 2.46914E+01
 -1      2802 2.45495E+01
 -1      2803 2.93015E+01
 -1      2804 2.44108E+01
 -1      2805 2.41867E+01
 -1      2806 2.43133E+01
 -1      2807 2.41241E+01
 -1      2808 2.87830E+01
 -1      2809 2.87803E+01
 -1      2810 1.44620E+01
 -1      2811 1.51486E+01
 -1      2812 1.60842E+01
 -1      2813 1.80668E+01
 -1      2814 2.43117E+01
 -1      2815 2.86960E+01
 -1      2816 2.41848E+01
 -1      2817 2.40119E+01
 -1      2818 2.87563E+01
 -1      2819 2.41213E+01
 -1      2820 2.42384E+01
 -1      2821 2.43852E+01
 -1      2822 2.03762E+01
 -1      2823 2.43925E+01
 -1      2824 2.44777E+01
 -1      2825 2.04749E+01
 -1      2826 2.44798E+01
 -1      2827 2.14219E+01
 -1      2828 2.18682E+01
 -1      2829 2.19526E+01
 -1      2830 2.14973E+01
 -1      2831 2.42450E+01
 -1      2832 2.41303E+01
 -1      2833 2.38701E+01
 -1      2834 2.83931E+01
 -1      2835 2.40051E+01
 -1      2836 2.83931E+01
 -1      2837 2.38031E+01
 -1      2838 2.40130E+01
 -1      2839 2.38813E+01
 -1      2840 2.71980E+01
 -1      2841 2.27947E+01
 -1      2842 2.76419E+01
 -1      2843 2.41210E+01
 -1      2844 2.83113E+01
 -1      2845 2.39542E+01
 -1      2846 2.39254E+01
 -1      2847 2.40863E+01
 -1      2848 2.82765E+01
 -1      2849 2.83896E+01
 -1      2850 2.37123E+01
 -1      2851 1.87580E+01
 -1      2852 2.01203E+01
 -1      2853 2.43497E+01
 -1      2854 2.44510E+01
 -1      2855 2.34804E+01
 -1      2856 2.81686E+01
 -1      2857 2.81376E+01
 -1      2858 2.25908E+01
 -1      2859 2.69701E+01
 -1      2860 2.71445E+01
 -1      2861 2.35468E+01
 -1      2862 2.32831E+01
 -1      2863 2.30306E+01
 -1      2864 2.31886E+01
 -1      2865 1.68497E+01
 -1      2866 1.68497E+01
 -1      2867 1.75364E+01
 -1      2868 1.75364E+01
 -1      2869 2.37640E+01
 -1      2870 2.38352E+01
 -1      2871 2.34598E+01
 -1      2872 2.35310E+01
 -1      2873 2.37171E+01
 -1      2874 2.83921E+01
 -1      2875 2.40160E+01
 -1      2876 2.86910E+01
 -1      2877 2.90733E+01
 -1      2878 2.44878E+01
 -1      2879 2.89314E+01
 -1      2880 2.43459E+01
 -1      2881 2.87803E+01
 -1      2882 2.36303E+01
 -1      2883 2.36711E+01
 -1      2884 2.44778E+01
 -1      2885 2.38685E+01
 -1      2886 2.37964E+01
 -1      2887 2.81438E+01
 -1      2888 2.34934E+01
 -1      2889 2.90164E+01
 -1      2890 2.81438E+01
 -1      2891 2.34505E+01
 -1      2892 2.78388E+01
 -1      2893 2.31455E+01
 -1      2894 2.86951E+01
 -1      2895 1.78428E+01
 -1      2896 1.22900E+01
 -1      2897 1.23952E+01
 -1      2898 1.28713E+01
 -1      2899 2.86121E+01
 -1      2900 1.15411E+01
 -1      2901 1.22485E+01
 -1      2902 2.90562E+01
 -1      2903 2.85754E+01
 -1      2904 2.78388E+01
 -1      2905 2.78333E+01
 -1      2906 2.83574E+01
 -1      2907 2.36824E+01
 -1      2908 2.38662E+01
 -1      2909 2.37950E+01
 -1      2910 2.73356E+01
 -1      2911 2.37441E+01
 -1      2912 2.39815E+01
 -1      2913 2.81107E+01
 -1      2914 2.65818E+01
 -1      2915 2.76539E+01
 -1      2916 2.32388E+01
 -1      2917 2.44243E+01
 -1      2918 2.91089E+01
 -1      2919 2.92479E+01
 -1      2920 2.34878E+01
 -1      2921 2.81811E+01
 -1      2922 2.44638E+01
 -1      2923 2.45079E+01
 -1      2924 2.43210E+01
 -1      2925 2.92117E+01
 -1      2926 2.44598E+01
 -1      2927 3.72889E+01
 -1      2928 3.72889E+01
 -1      2929 3.55532E+01
 -1      2930 3.55532E+01
 -1      2931 3.55532E+01
 -1      2932 1.51497E+01
 -1      2933 1.37871E+01
 -1      2934 1.28515E+01
 -1      2935 1.57697E+01
 -1      2936 3.72889E+01
 -1      2937 2.42561E+01
 -1      2938 2.88416E+01
 -1      2939 2.78035E+01
 -1      2940 1.52393E+01
 -1      2941 1.52393E+01
 -1      2942 1.25458E+01
 -1      2943 1.22745E+01
 -1      2944 1.09154E+01
 -1      2945 2.91089E+01
 -1      2946 1.24251E+01
 -1      2947 1.25458E+01
 -1      2948 1.26964E+01
 -1      2949 2.90698E+01
 -1      2950 1.64564E+01
 -1      2951 1.38062E+01
 -1      2952 1.55445E+01
 -1      2953 1.67480E+01
 -1      2954 1.85358E+01
 -1      2955 2.02741E+01
 -1      2956 1.73323E+01
 -1      2957 1.30680E+01
 -1      2958 1.30734E+01
 -1      2959 1.85991E+01
 -1      2960 2.25849E+01
 -1      2961 2.25796E+01
 -1      2962 1.36337E+01
 -1      2963 1.53719E+01
 -1      2964 1.22576E+01
 -1      2965 1.53719E+01
 -1      2966 1.32773E+01
 -1      2967 1.24231E+01
 -1      2968 1.31305E+01
 -1      2969 2.88835E+01
 -1      2970 3.30998E+01
 -1      2971 3.13547E+01
 -1      2972 3.55532E+01
 -1      2973 3.55532E+01
 -1      2974 1.23990E+01
 -1      2975 1.07686E+01
 -1      2976 3.31345E+01
 -1      2977 2.45409E+01
 -1      2978 3.13988E+01
 -1      2979 2.93015E+01
 -1      2980 2.91596E+01
 -1      2981 2.93015E+01
 -1      2982 2.91771E+01
 -1      2983 2.90352E+01
 -1      2984 2.90352E+01
 -1      2985 2.61722E+01
 -1      2986 2.68821E+01
 -1      2987 2.62725E+01
 -1      2988 2.64512E+01
 -1      2989 2.71612E+01
 -1      2990 2.70608E+01
 -1      2991 1.32773E+01
 -1      2992 1.32773E+01
 -1      2993 1.37534E+01
 -1      2994 2.32463E+01
 -1      2995 2.31459E+01
 -1      2996 2.34250E+01
 -1      2997 3.38176E+01
 -1      2998 2.32718E+01
 -1      2999 2.77086E+01
 -1      3000 2.36738E+01
 -1      3001 2.32352E+01
 -1      3002 2.76720E+01
 -1      3003 2.72699E+01
 -1      3004 2.44173E+01
 -1      3005 2.92117E+01
 -1      3006 2.46490E+01
 -1      3007 2.46490E+01
 -1      3008 2.94434E+01
 -1      3009 2.92117E+01
 -1      3010 2.72398E+01
 -1      3011 2.76419E+01
 -1      3012 2.72032E+01
 -1      3013 2.18026E+01
 -1      3014 2.20816E+01
 -1      3015 1.98211E+01
 -1      3016 2.01002E+01
 -1      3017 2.88346E+01
 -1      3018 2.90662E+01
 -1      3019 2.90662E+01
 -1      3020 1.70813E+01
 -1      3021 1.77680E+01
 -1      3022 1.84729E+01
 -1      3023 1.89046E+01
 -1      3024 1.78428E+01
 -1      3025 2.41559E+01
 -1      3026 2.40315E+01
 -1      3027 2.32332E+01
 -1      3028 2.33953E+01
 -1      3029 1.95948E+01
 -1      3030 2.32424E+01
 -1      3031 2.27736E+01
 -1      3032 2.92292E+01
 -1      3033 2.91873E+01
 -1      3034 2.92292E+01
 -1      3035 1.23990E+01
 -1      3036 2.66336E+01
 -1      3037 2.68080E+01
 -1      3038 2.69701E+01
 -1      3039 2.71731E+01
 -1      3040 2.81107E+01
 -1      3041 2.81107E+01
 -1      3042 2.42852E+01
 -1      3043 2.41433E+01
 -1      3044 2.92292E+01
 -1      3045 2.92292E+01
 -1      3046 2.43911E+01
 -1      3047 2.44330E+01
 -1      3048 2.43630E+01
 -1      3049 2.45049E+01
 -1      3050 2.42386E+01
 -1      3051 2.69701E+01
 -1      3052 2.66336E+01
 -1      3053 1.88722E+01
 -1      3054 1.98722E+01
 -1      3055 1.98356E+01
 -1      3056 2.91596E+01
 -1      3057 1.77983E+01
 -1      3058 1.77593E+01
 -1      3059 2.31024E+01
 -1      3060 2.40074E+01
 -1      3061 2.40463E+01
 -1      3062 2.44401E+01
 -1      3063 2.38976E+01
 -1      3064 2.89528E+01
 -1      3065 2.24533E+01
 -1      3066 2.24167E+01
 -1      3067 1.95817E+01
 -1      3068 2.83113E+01
 -1      3069 2.04273E+01
 -1      3070 2.06590E+01
 -1      3071 2.92479E+01
 -1      3072 2.93505E+01
 -1      3073 2.45049E+01
 -1      3074 2.44031E+01
 -1      3075 2.92898E+01
 -1      3076 2.38004E+01
 -1      3077 2.88432E+01
 -1      3078 1.98916E+01
 -1      3079 2.22247E+01
 -1      3080 2.05472E+01
 -1      3081 2.05184E+01
 -1      3082 1.97660E+01
 -1      3083 2.07428E+01
 -1      3084 1.99904E+01
 -1      3085 2.22863E+01
 -1      3086 2.20619E+01
 -1      3087 2.16239E+01
 -1      3088 2.17867E+01
 -1      3089 2.22247E+01
 -1      3090 2.13155E+01
 -1      3091 2.19719E+01
 -1      3092 2.42153E+01
 -1      3093 2.43852E+01
 -1      3094 2.42226E+01
 -1      3095 2.42280E+01
 -1      3096 2.44798E+01
 -1      3097 2.42300E+01
 -1      3098 2.17056E+01
 -1      3099 2.43925E+01
 -1      3100 2.16955E+01
 -1      3101 2.44724E+01
 -1      3102 2.43976E+01
 -1      3103 2.86934E+01
 -1      3104 2.40491E+01
 -1      3105 2.35428E+01
 -1      3106 2.72281E+01
 -1      3107 2.42029E+01
 -1      3108 2.84715E+01
 -1      3109 2.10911E+01
 -1      3110 1.87952E+01
 -1      3111 2.13155E+01
 -1      3112 2.20619E+01
 -1      3113 1.97288E+01
 -1      3114 2.22247E+01
 -1      3115 2.20619E+01
 -1      3116 2.01203E+01
 -1      3117 2.31489E+01
 -1      3118 2.40927E+01
 -1      3119 2.93969E+01
 -1      3120 2.37535E+01
 -1      3121 2.43839E+01
 -1      3122 2.88377E+01
 -1      3123 2.94434E+01
 -1      3124 2.94434E+01
 -1      3125 2.42019E+01
 -1      3126 2.82417E+01
 -1      3127 2.07755E+01
 -1      3128 2.07149E+01
 -1      3129 2.86987E+01
 -1      3130 2.40460E+01
 -1      3131 2.84440E+01
 -1      3132 2.89905E+01
 -1      3133 2.89905E+01
 -1      3134 1.93553E+01
 -1      3135 2.36738E+01
 -1      3136 2.81686E+01
 -1      3137 2.81376E+01
 -1      3138 2.81686E+01
 -1      3139 1.72427E+01
 -1      3140 1.72430E+01
 -1      3141 1.95033E+01
 -1      3142 2.88070E+01
 -1      3143 2.81811E+01
 -1      3144 2.81438E+01
 -1      3145 2.81811E+01
 -1      3146 1.95019E+01
 -1      3147 2.84730E+01
 -1      3148 2.38622E+01
 -1      3149 2.81749E+01
 -1      3150 2.38725E+01
 -1      3151 2.81749E+01
 -1      3152 1.17084E+01
 -1      3153 1.18634E+01
 -1      3154 2.21400E+01
 -1      3155 2.22950E+01
 -1      3156 2.33860E+01
 -1      3157 1.95380E+01
 -1      3158 1.93661E+01
 -1      3159 2.07258E+01
 -1      3160 2.06014E+01
 -1      3161 1.95219E+01
 -1      3162 1.93455E+01
 -1      3163 1.64037E+01
 -1      3164 2.11333E+01
 -1      3165 1.76072E+01
 -1      3166 2.17126E+01
 -1      3167 2.74175E+01
 -1      3168 2.17903E+01
 -1      3169 2.20980E+01
 -1      3170 2.78029E+01
 -1      3171 2.77253E+01
 -1      3172 2.40915E+01
 -1      3173 2.43231E+01
 -1      3174 1.91031E+01
 -1      3175 1.91068E+01
 -1      3176 2.44777E+01
 -1      3177 2.42280E+01
 -1      3178 2.43852E+01
 -1      3179 2.42153E+01
 -1      3180 1.83532E+01
 -1      3181 1.80961E+01
 -1      3182 1.82737E+01
 -1      3183 1.81112E+01
 -1      3184 1.93333E+01
 -1      3185 2.81686E+01
 -1      3186 2.81686E+01
 -1      3187 2.81811E+01
 -1      3188 2.81811E+01
 -1      3189 1.52393E+01
 -1      3190 1.57697E+01
 -1      3191 1.74028E+01
 -1      3192 1.79332E+01
 -1      3193 1.63228E+01
 -1      3194 1.93766E+01
 -1      3195 2.03318E+01
 -1      3196 2.03255E+01
 -1      3197 2.43827E+01
 -1      3198 2.03357E+01
 -1      3199 2.03419E+01
 -1      3200 1.44759E+01
 -1      3201 1.98190E+01
 -1      3202 1.11823E+01
 -1      3203 1.22111E+01
 -1      3204 2.60722E+01
 -1      3205 2.78173E+01
 -1      3206 2.36283E+01
 -1      3207 1.18713E+01
 -1      3208 1.17458E+01
 -1      3209 1.21432E+01
 -1      3210 1.20177E+01
 -1      3211 1.19128E+01
 -1      3212 2.93969E+01
 -1      3213 2.40462E+01
 -1      3214 2.93504E+01
 -1      3215 2.79245E+01
 -1      3216 2.61889E+01
 -1      3217 2.60817E+01
 -1      3218 1.16230E+01
 -1      3219 1.21017E+01
 -1      3220 1.18713E+01
 -1      3221 1.16230E+01
 -1      3222 2.61794E+01
 -1      3223 1.19483E+01
 -1      3224 1.21426E+01
 -1      3225 1.18016E+01
 -1      3226 1.19959E+01
 -1      3227 1.32773E+01
 -1      3228 1.32773E+01
 -1      3229 1.31720E+01
 -1      3230 2.70464E+01
 -1      3231 2.72250E+01
 -1      3232 2.88673E+01
 -1      3233 2.88753E+01
 -1      3234 3.13339E+01
 -1      3235 3.30696E+01
 -1      3236 2.89152E+01
 -1      3237 3.31153E+01
 -1      3238 3.13339E+01
 -1      3239 3.13797E+01
 -1      3240 1.76344E+01
 -1      3241 2.34119E+01
 -1      3242 2.71612E+01
 -1      3243 2.30472E+01
 -1      3244 2.40156E+01
 -1      3245 2.81107E+01
 -1      3246 2.32424E+01
 -1      3247 2.16239E+01
 -1      3248 2.20619E+01
 -1      3249 2.20619E+01
 -1      3250 1.97660E+01
 -1      3251 2.05184E+01
 -1      3252 2.76539E+01
 -1      3253 2.81107E+01
 -1      3254 2.72250E+01
 -1      3255 2.64512E+01
 -1      3256 1.24231E+01
 -1      3257 1.39315E+01
 -1      3258 2.30719E+01
 -1      3259 2.69867E+01
 -1      3260 1.71629E+01
 -1      3261 1.64004E+01
 -1      3262 1.58433E+01
 -1      3263 1.68231E+01
 -1      3264 1.66058E+01
 -1      3265 3.13797E+01
 -1      3266 2.18993E+01
 -1      3267 2.23373E+01
 -1      3268 2.23373E+01
 -1      3269 2.07938E+01
 -1      3270 2.31024E+01
 -1      3271 1.35291E+01
 -1      3272 1.56925E+01
 -1      3273 1.95971E+01
 -1      3274 2.90662E+01
 -1      3275 2.94434E+01
 -1      3276 2.94434E+01
 -1      3277 2.93505E+01
 -1      3278 2.46914E+01
 -1      3279 2.42852E+01
 -1      3280 2.44936E+01
 -1      3281 2.27020E+01
 -1      3282 2.64757E+01
 -1      3283 1.53790E+01
 -1      3284 2.02580E+01
 -1      3285 2.40318E+01
 -1      3286 1.20989E+01
 -1      3287 1.21426E+01
 -1      3288 1.16957E+01
 -1      3289 1.22932E+01
 -1      3290 1.18016E+01
 -1      3291 1.08822E+01
 -1      3292 1.28304E+01
 -1      3293 1.27992E+01
 -1      3294 1.32052E+01
 -1      3295 1.15144E+01
 -1      3296 2.31825E+01
 -1      3297 2.21305E+01
 -1      3298 2.33765E+01
 -1      3299 1.21693E+01
 -1      3300 1.27506E+01
 -1      3301 1.48420E+01
 -1      3302 3.55438E+01
 -1      3303 3.38081E+01
 -1      3304 2.45409E+01
 -1      3305 3.31345E+01
 -1      3306 3.13894E+01
 -1      3307 1.08101E+01
 -1      3308 1.58225E+01
 -1      3309 1.70177E+01
 -1      3310 1.68121E+01
 -1      3311 1.69749E+01
 -1      3312 1.76142E+01
 -1      3313 1.77770E+01
 -1      3314 1.66605E+01
 -1      3315 1.78557E+01
 -1      3316 2.89181E+01
 -1      3317 1.15106E+01
 -1      3318 1.08107E+01
 -1      3319 1.08107E+01
 -1      3320 1.26964E+01
 -1      3321 1.15106E+01
 -1      3322 2.28104E+01
 -1      3323 2.63931E+01
 -1      3324 1.53859E+01
 -1      3325 2.03916E+01
 -1      3326 2.39743E+01
 -1      3327 1.73761E+01
 -1      3328 1.68231E+01
 -1      3329 1.62659E+01
 -1      3330 1.73761E+01
 -1      3331 1.79458E+01
 -1      3332 1.68356E+01
 -1      3333 1.07859E+01
 -1      3334 1.30219E+01
 -1      3335 2.21586E+01
 -1      3336 2.62725E+01
 -1      3337 2.64512E+01
 -1      3338 2.76709E+01
 -1      3339 2.35759E+01
 -1      3340 2.76709E+01
 -1      3341 2.55626E+01
 -1      3342 2.72141E+01
 -1      3343 1.94756E+01
 -1      3344 1.91224E+01
 -1      3345 1.24097E+01
 -1      3346 1.22448E+01
 -1      3347 2.22560E+01
 -1      3348 2.20911E+01
 -1      3349 2.39713E+01
 -1      3350 1.08026E+01
 -1      3351 1.02544E+01
 -1      3352 1.12085E+01
 -1      3353 3.19898E+01
 -1      3354 3.24004E+01
 -1      3355 3.24004E+01
 -1      3356 3.38176E+01
 -1      3357 3.19898E+01
 -1      3358 2.36629E+01
 -1      3359 3.31345E+01
 -1      3360 3.13988E+01
 -1      3361 3.11740E+01
 -1      3362 3.07527E+01
 -1      3363 2.18900E+01
 -1      3364 2.14687E+01
 -1      3365 2.14687E+01
 -1      3366 2.89152E+01
 -1      3367 1.41593E+01
 -1      3368 2.90348E+01
 -1      3369 2.91094E+01
 -1      3370 2.91545E+01
 -1      3371 2.91198E+01
 -1      3372 2.91944E+01
 -1      3373 2.90746E+01
 -1      3374 1.52126E+01
 -1      3375 1.54513E+01
 -1      3376 1.86199E+01
 -1      3377 1.53177E+01
 -1      3378 1.71055E+01
 -1      3379 2.02741E+01
 -1      3380 2.04077E+01
 -1      3381 1.87131E+01
 -1      3382 1.87131E+01
 -1      3383 1.87535E+01
 -1      3384 1.94369E+01
 -1      3385 1.94369E+01
 -1      3386 1.93965E+01
 -1      3387 2.91198E+01
 -1      3388 2.90746E+01
 -1      3389 2.91596E+01
 -1      3390 2.90562E+01
 -1      3391 2.67077E+01
 -1      3392 2.34678E+01
 -1      3393 2.34604E+01
 -1      3394 2.34214E+01
 -1      3395 2.34140E+01
 -1      3396 2.62454E+01
 -1      3397 3.22588E+01
 -1      3398 3.19807E+01
 -1      3399 3.19807E+01
 -1      3400 3.37987E+01
 -1      3401 3.22588E+01
 -1      3402 1.61347E+01
 -1      3403 1.94369E+01
 -1      3404 2.10911E+01
 -1      3405 1.93965E+01
 -1      3406 2.01203E+01
 -1      3407 2.78333E+01
 -1      3408 2.89454E+01
 -1      3409 1.41593E+01
 -1      3410 2.90482E+01
 -1      3411 1.80015E+01
 -1      3412 1.77261E+01
 -1      3413 1.67671E+01
 -1      3414 1.64916E+01
 -1      3415 2.92117E+01
 -1      3416 2.44598E+01
 -1      3417 2.92117E+01
 -1      3418 2.78396E+01
 -1      3419 3.25629E+01
 -1      3420 3.25629E+01
 -1      3421 2.23323E+01
 -1      3422 2.23323E+01
 -1      3423 2.23323E+01
 -1      3424 2.08934E+01
 -1      3425 2.08536E+01
 -1      3426 2.10353E+01
 -1      3427 2.92616E+01
 -1      3428 2.93015E+01
 -1      3429 2.78325E+01
 -1      3430 2.78388E+01
 -1      3431 2.85485E+01
 -1      3432 2.85108E+01
 -1      3433 2.89800E+01
 -1      3434 2.88346E+01
 -1      3435 2.71824E+01
 -1      3436 2.73065E+01
 -1      3437 2.71824E+01
 -1      3438 2.71157E+01
 -1      3439 2.72398E+01
 -1      3440 2.72398E+01
 -1      3441 2.92152E+01
 -1      3442 2.09889E+01
 -1      3443 2.93969E+01
 -1      3444 1.30219E+01
 -1      3445 1.11362E+01
 -1      3446 3.09833E+01
 -1      3447 3.24004E+01
 -1      3448 1.87896E+01
 -1      3449 2.53181E+01
 -1      3450 1.93782E+01
 -1      3451 1.98158E+01
 -1      3452 2.63442E+01
 -1      3453 2.57556E+01
 -1      3454 2.56741E+01
 -1      3455 2.50436E+01
 -1      3456 2.53600E+01
 -1      3457 2.63861E+01
 -1      3458 2.60697E+01
 -1      3459 1.47900E+01
 -1      3460 1.52126E+01
 -1      3461 2.22772E+01
 -1      3462 2.74175E+01
 -1      3463 2.22718E+01
 -1      3464 2.86132E+01
 -1      3465 2.85924E+01
 -1      3466 2.88943E+01
 -1      3467 2.89151E+01
 -1      3468 2.88943E+01
 -1      3469 2.86132E+01
 -1      3470 2.03328E+01
 -1      3471 2.85784E+01
 -1      3472 2.06695E+01
 -1      3473 2.07072E+01
 -1      3474 2.89528E+01
 -1      3475 2.86161E+01
 -1      3476 2.86161E+01
 -1      3477 2.86161E+01
 -1      3478 2.89905E+01
 -1      3479 1.11114E+01
 -1      3480 1.13970E+01
 -1      3481 1.06683E+01
 -1      3482 1.26187E+01
 -1      3483 1.03827E+01
 -1      3484 1.52519E+01
 -1      3485 1.47941E+01
 -1      3486 1.98265E+01
 -1      3487 2.38348E+01
 -1      3488 1.52126E+01
 -1      3489 1.86199E+01
 -1      3490 2.10911E+01
 -1      3491 2.20619E+01
 -1      3492 2.39618E+01
 -1      3493 2.20817E+01
 -1      3494 1.18900E+01
 -1      3495 2.76419E+01
 -1      3496 2.73232E+01
 -1      3497 2.41382E+01
 -1      3498 2.86509E+01
 -1      3499 2.89528E+01
 -1      3500 2.71824E+01
 -1      3501 2.73065E+01
 -1      3502 2.73065E+01
 -1      3503 1.77159E+01
 -1      3504 1.79332E+01
 -1      3505 1.73761E+01
 -1      3506 2.73398E+01
 -1      3507 3.19898E+01
 -1      3508 3.38176E+01
 -1      3509 1.50190E+01
 -1      3510 1.24266E+01
 -1      3511 1.53898E+01
 -1      3512 1.55231E+01
 -1      3513 1.73109E+01
 -1      3514 1.71776E+01
 -1      3515 1.24125E+01
 -1      3516 1.55108E+01
 -1      3517 1.56552E+01
 -1      3518 1.63386E+01
 -1      3519 1.61942E+01
 -1      3520 1.22933E+01
 -1      3521 1.53898E+01
 -1      3522 1.22682E+01
 -1      3523 1.55108E+01
 -1      3524 1.22682E+01
 -1      3525 1.55108E+01
 -1      3526 1.22933E+01
 -1      3527 1.53898E+01
 -1      3528 2.81107E+01
 -1      3529 2.94434E+01
 -1      3530 1.44738E+01
 -1      3531 1.43781E+01
 -1      3532 2.23722E+01
 -1      3533 2.22765E+01
 -1      3534 1.94081E+01
 -1      3535 2.64324E+01
 -1      3536 2.30169E+01
 -1      3537 1.56317E+01
 -1      3538 2.40136E+01
 -1      3539 2.05981E+01
 -1      3540 2.92898E+01
 -1      3541 2.20501E+01
 -1      3542 2.24714E+01
 -1      3543 2.63861E+01
 -1      3544 2.67817E+01
 -1      3545 2.60697E+01
 -1      3546 1.96036E+01
 -1      3547 2.61320E+01
 -1      3548 2.65696E+01
 -1      3549 2.93505E+01
 -1      3550 1.57222E+01
 -1      3551 2.26296E+01
 -1      3552 2.26296E+01
 -1      3553 1.46753E+01
 -1      3554 1.53044E+01
 -1      3555 2.40781E+01
 -1      3556 2.03859E+01
 -1      3557 1.97567E+01
 -1      3558 2.89285E+01
 -1      3559 2.93015E+01
 -1      3560 2.88525E+01
 -1      3561 2.88605E+01
 -1      3562 2.61722E+01
 -1      3563 2.25001E+01
 -1      3564 2.25466E+01
 -1      3565 2.26081E+01
 -1      3566 2.25617E+01
 -1      3567 2.57099E+01
 -1      3568 2.73657E+01
 -1      3569 2.73646E+01
 -1      3570 2.73649E+01
 -1      3571 2.73638E+01
 -1      3572 2.89295E+01
 -1      3573 2.89321E+01
 -1      3574 2.86939E+01
 -1      3575 2.86929E+01
 -1      3576 2.86920E+01
 -1      3577 2.89311E+01
 -1      3578 2.06695E+01
 -1      3579 2.89151E+01
 -1      3580 2.89528E+01
 -1      3581 2.88943E+01
 -1      3582 2.89151E+01
 -1      3583 2.86910E+01
 -1      3584 3.07190E+01
 -1      3585 3.22588E+01
 -1      3586 1.14401E+01
 -1      3587 1.08515E+01
 -1      3588 1.27997E+01
 -1      3589 1.27997E+01
 -1      3590 2.67817E+01
 -1      3591 2.60697E+01
 -1      3592 2.67817E+01
 -1      3593 1.21558E+01
 -1      3594 3.21604E+01
 -1      3595 2.22272E+01
 -1      3596 1.30246E+01
 -1      3597 1.11362E+01
 -1      3598 1.33474E+01
 -1      3599 2.92152E+01
 -1      3600 2.92898E+01
 -1      3601 2.92550E+01
 -1      3602 1.55387E+01
 -1      3603 1.78495E+01
 -1      3604 2.92550E+01
 -1      3605 2.02159E+01
 -1      3606 2.77086E+01
 -1      3607 1.98139E+01
 -1      3608 1.98305E+01
 -1      3609 2.73232E+01
 -1      3610 2.77253E+01
 -1      3611 1.94791E+01
 -1      3612 1.94791E+01
 -1      3613 2.01625E+01
 -1      3614 1.93455E+01
 -1      3615 2.11333E+01
 -1      3616 2.93969E+01
 -1      3617 2.63442E+01
 -1      3618 2.65696E+01
 -1      3619 1.42149E+01
 -1      3620 1.43949E+01
 -1      3621 2.27810E+01
 -1      3622 1.97246E+01
 -1      3623 1.95446E+01
 -1      3624 2.89528E+01
 -1      3625 2.89528E+01
 -1      3626 1.14209E+01
 -1      3627 2.31379E+01
 -1      3628 1.51450E+01
 -1      3629 1.51640E+01
 -1      3630 2.03508E+01
 -1      3631 2.41637E+01
 -1      3632 2.41446E+01
 -1      3633 2.01625E+01
 -1      3634 2.93504E+01
 -1      3635 2.57556E+01
 -1      3636 3.15953E+01
 -1      3637 2.24714E+01
 -1      3638 2.86161E+01
 -1      3639 2.77086E+01
 -1      3640 2.86509E+01
 -1      3641 1.53883E+01
 -1      3642 2.05751E+01
 -1      3643 2.42101E+01
 -1      3644 2.06215E+01
 -1      3645 2.74008E+01
 -1      3646 2.74008E+01
 -1      3647 2.73341E+01
 -1      3648 1.55312E+01
 -1      3649 2.41839E+01
 -1      3650 3.55438E+01
 -1      3651 1.28688E+01
 -1      3652 1.34990E+01
 -1      3653 1.56625E+01
 -1      3654 1.42476E+01
 -1      3655 2.26336E+01
 -1      3656 1.93392E+01
 -1      3657 2.22482E+01
 -1      3658 1.15366E+01
 -1      3659 1.12127E+01
 -1      3660 1.35291E+01
 -1      3661 1.21669E+01
 -1      3662 2.89454E+01
 -1      3663 3.37987E+01
 -1      3664 3.19807E+01
 -1      3665 1.98139E+01
 -1      3666 2.89800E+01
 -1      3667 1.18029E+01
 -1      3668 1.30246E+01
 -1      3669 1.49749E+01
 -1      3670 1.97018E+01
 -1      3671 1.51102E+01
 -1      3672 2.01159E+01
 -1      3673 2.74008E+01
 -1      3674 2.21995E+01
 -1      3675 2.73398E+01
 -1      3676 2.77253E+01
 -1      3677 1.51676E+01
 -1      3678 2.40317E+01
 -1      3679 1.25436E+01
 -1      3680 1.25203E+01
 -1      3681 1.55086E+01
 -1      3682 1.57652E+01
 -1      3683 1.55319E+01
 -1      3684 1.19643E+01
 -1      3685 1.52092E+01
 -1      3686 1.64485E+01
 -1      3687 1.62153E+01
 -1      3688 2.21108E+01
 -1      3689 2.20332E+01
 -1      3690 1.77284E+01
 -1      3691 1.86570E+01
 -1      3692 1.98813E+01
 -1      3693 2.08099E+01
 -1      3694 2.93504E+01
 -1      3695 2.93969E+01
 -1      3696 2.31846E+01
 -1      3697 2.32310E+01
 -1      3698 1.21847E+01
 -1      3699 1.12011E+01
 -1      3700 1.12011E+01
 -1      3701 1.31720E+01
 -1      3702 1.21884E+01
 -1      3703 1.57722E+01
 -1      3704 2.41246E+01
 -1      3705 2.07275E+01
 -1      3706 2.07673E+01
 -1      3707 2.41644E+01
 -1      3708 1.55386E+01
 -1      3709 2.04939E+01
 -1      3710 1.55249E+01
 -1      3711 2.41108E+01
 -1      3712 1.94392E+01
 -1      3713 2.40402E+01
 -1      3714 1.57074E+01
 -1      3715 2.05345E+01
 -1      3716 1.29240E+01
 -1      3717 1.75353E+01
 -1      3718 1.33677E+01
 -1      3719 1.84452E+01
 -1      3720 1.39546E+01
 -1      3721 1.76133E+01
 -1      3722 1.43391E+01
 -1      3723 1.33802E+01
 -1      3724 1.84725E+01
 -1      3725 1.62640E+01
 -1      3726 1.47712E+01
 -1      3727 2.17318E+01
 -1      3728 1.43723E+01
 -1      3729 1.94222E+01
 -1      3730 1.50113E+01
 -1      3731 1.90023E+01
 -1      3732 1.43808E+01
 -1      3733 2.12356E+01
 -1      3734 1.57661E+01
 -1      3735 1.57418E+01
 -1      3736 1.92765E+01
 -1      3737 2.39344E+01
 -1      3738 2.07203E+01
 -1      3739 1.53078E+01
 -1      3740 1.98725E+01
 -1      3741 1.52132E+01
 -1      3742 2.28371E+01
 -1      3743 1.52473E+01
 -1      3744 1.97882E+01
 -1      3745 1.58464E+01
 -1      3746 2.07387E+01
 -1      3747 1.56581E+01
 -1      3748 2.40850E+01
 -1      3749 1.51350E+01
 -1      3750 2.28450E+01
 -1      3751 1.57824E+01
 -1      3752 2.05395E+01
 -1      3753 1.57640E+01
 -1      3754 2.41078E+01
 -1      3755 1.95026E+01
 -1      3756 1.88067E+01
 -1      3757 1.55215E+01
 -1      3758 1.58208E+01
 -1      3759 2.07138E+01
 -1      3760 1.56709E+01
 -1      3761 1.93342E+01
 -1      3762 2.40964E+01
 -1      3763 2.07381E+01
 -1      3764 1.56721E+01
 -1      3765 1.54450E+01
 -1      3766 2.05640E+01
 -1      3767 2.37962E+01
 -1      3768 1.58379E+01
 -1      3769 2.40331E+01
 -1      3770 1.88823E+01
 -1      3771 2.37949E+01
 -1      3772 1.57336E+01
 -1      3773 2.06287E+01
 -1      3774 2.78029E+01
 -1      3775 2.74175E+01
 -1      3776 1.54332E+01
 -1      3777 2.01218E+01
 -1      3778 1.80253E+01
 -1      3779 1.34175E+01
 -1      3780 2.11479E+01
 -1      3781 1.90514E+01
 -1      3782 1.65976E+01
 -1      3783 2.01759E+01
 -1      3784 1.14401E+01
 -1      3785 1.53607E+01
 -1      3786 2.32914E+01
 -1      3787 1.59671E+01
 -1      3788 2.43490E+01
 -1      3789 2.63720E+01
 -1      3790 2.31865E+01
 -1      3791 1.57598E+01
 -1      3792 2.39626E+01
 -1      3793 2.07772E+01
 -1      3794 2.34407E+01
 -1      3795 1.97226E+01
 -1      3796 1.48520E+01
 -1      3797 2.37426E+01
 -1      3798 2.00245E+01
 -1      3799 2.33807E+01
 -1      3800 1.96885E+01
 -1      3801 1.48274E+01
 -1      3802 2.37550E+01
 -1      3803 2.00629E+01
 -1      3804 1.28688E+01
 -1      3805 2.07837E+01
 -1      3806 1.90869E+01
 -1      3807 1.39640E+01
 -1      3808 1.99380E+01
 -1      3809 1.82412E+01
 -1      3810 2.50609E+01
 -1      3811 2.05117E+01
 -1      3812 1.87987E+01
 -1      3813 1.39526E+01
 -1      3814 1.99478E+01
 -1      3815 1.82348E+01
 -1      3816 2.47939E+01
 -1      3817 2.23055E+01
 -1      3818 2.20165E+01
 -1      3819 2.19498E+01
 -1      3820 1.93414E+01
 -1      3821 1.87666E+01
 -1      3822 1.57019E+01
 -1      3823 2.03329E+01
 -1      3824 2.07387E+01
 -1      3825 2.40850E+01
 -1      3826 2.91656E+01
 -1      3827 2.08467E+01
 -1      3828 2.40607E+01
 -1      3829 2.90392E+01
 -1      3830 1.70027E+01
 -1      3831 1.76861E+01
 -1      3832 1.90221E+01
 -1      3833 2.08099E+01
 -1      3834 2.40726E+01
 -1      3835 2.40379E+01
 -1      3836 2.31239E+01
 -1      3837 2.04206E+01
 -1      3838 2.30892E+01
 -1      3839 1.25298E+01
 -1      3840 1.26827E+01
 -1      3841 2.13007E+01
 -1      3842 1.81637E+01
 -1      3843 1.27315E+01
 -1      3844 1.35126E+01
 -1      3845 1.74537E+01
 -1      3846 1.95078E+01
 -1      3847 1.35266E+01
 -1      3848 1.95007E+01
 -1      3849 1.27318E+01
 -1      3850 1.74464E+01
 -1      3851 1.40474E+01
 -1      3852 1.44284E+01
 -1      3853 1.95332E+01
 -1      3854 2.36798E+01
 -1      3855 1.52792E+01
 -1      3856 1.40416E+01
 -1      3857 1.95010E+01
 -1      3858 2.37061E+01
 -1      3859 2.07381E+01
 -1      3860 2.40964E+01
 -1      3861 2.91636E+01
 -1      3862 2.08411E+01
 -1      3863 2.41604E+01
 -1      3864 2.90363E+01
 -1      3865 1.52187E+01
 -1      3866 2.36441E+01
 -1      3867 1.45150E+01
 -1      3868 1.95183E+01
 -1      3869 2.02069E+01
 -1      3870 2.33224E+01
 -1      3871 2.81376E+01
 -1      3872 1.38396E+01
 -1      3873 1.49496E+01
 -1      3874 2.29113E+01
 -1      3875 1.90969E+01
 -1      3876 1.39841E+01
 -1      3877 1.95035E+01
 -1      3878 2.03905E+01
 -1      3879 2.33635E+01
 -1      3880 1.54156E+01
 -1      3881 2.03119E+01
 -1      3882 2.32849E+01
 -1      3883 2.82598E+01
 -1      3884 1.43385E+01
 -1      3885 1.95110E+01
 -1      3886 2.93505E+01
 -1      3887 2.77253E+01
 -1      3888 2.73398E+01
 -1      3889 1.41258E+01
 -1      3890 2.35299E+01
 -1      3891 1.43110E+01
 -1      3892 1.95465E+01
 -1      3893 1.38613E+01
 -1      3894 1.42490E+01
 -1      3895 1.91452E+01
 -1      3896 2.28972E+01
 -1      3897 1.41699E+01
 -1      3898 2.38152E+01
 -1      3899 2.49564E+01
 -1      3900 1.86751E+01
 -1      3901 2.47918E+01
 -1      3902 1.89418E+01
 -1      3903 2.52309E+01
 -1      3904 2.50609E+01
 -1      3905 2.93969E+01
 -1      3906 1.47862E+01
 -1      3907 1.49281E+01
 -1      3908 2.24640E+01
 -1      3909 1.97706E+01
 -1      3910 2.23221E+01
 -1      3911 1.85730E+01
 -1      3912 1.94617E+01
 -1      3913 2.91545E+01
 -1      3914 2.91545E+01
 -1      3915 1.90299E+01
 -1      3916 1.94697E+01
 -1      3917 2.81376E+01
 -1      3918 2.81376E+01
 -1      3919 2.11314E+01
 -1      3920 2.20200E+01
 -1      3921 2.82598E+01
 -1      3922 2.82598E+01
 -1      3923 2.22217E+01
 -1      3924 2.26614E+01
 -1      3925 1.41399E+01
 -1      3926 2.35839E+01
 -1      3927 2.81438E+01
 -1      3928 2.02945E+01
 -1      3929 2.06403E+01
 -1      3930 2.69701E+01
 -1      3931 2.69701E+01
 -1      3932 2.82535E+01
 -1      3933 2.04206E+01
 -1      3934 1.54838E+01
 -1      3935 2.05012E+01
 -1      3936 1.15588E+01
 -1      3937 1.35298E+01
 -1      3938 1.57365E+01
 -1      3939 2.42154E+01
 -1      3940 2.01663E+01
 -1      3941 2.03980E+01
 -1      3942 1.29002E+01
 -1      3943 1.35298E+01
 -1      3944 2.08638E+01
 -1      3945 2.08638E+01
 -1      3946 2.91646E+01
 -1      3947 2.08648E+01
 -1      3948 2.91646E+01
 -1      3949 1.23627E+01
 -1      3950 1.23645E+01
 -1      3951 2.10560E+01
 -1      3952 2.90382E+01
 -1      3953 2.09307E+01
 -1      3954 2.10570E+01
 -1      3955 2.10613E+01
 -1      3956 2.09340E+01
 -1      3957 2.90373E+01
 -1      3958 2.10623E+01
 -1      3959 2.91646E+01
 -1      3960 2.91411E+01
 -1      3961 2.91656E+01
 -1      3962 2.91411E+01
 -1      3963 2.91411E+01
 -1      3964 2.91656E+01
 -1      3965 2.90594E+01
 -1      3966 2.89330E+01
 -1      3967 2.90594E+01
 -1      3968 2.90392E+01
 -1      3969 2.08460E+01
 -1      3970 2.91646E+01
 -1      3971 2.08470E+01
 -1      3972 2.08470E+01
 -1      3973 2.38933E+01
 -1      3974 2.41250E+01
 -1      3975 2.89324E+01
 -1      3976 2.90363E+01
 -1      3977 2.90596E+01
 -1      3978 2.90596E+01
 -1      3979 2.91636E+01
 -1      3980 2.24186E+01
 -1      3981 1.68691E+01
 -1      3982 1.90221E+01
 -1      3983 1.84863E+01
 -1      3984 2.91384E+01
 -1      3985 2.91384E+01
 -1      3986 2.91384E+01
 -1      3987 2.91636E+01
 -1      3988 1.46097E+01
 -1      3989 1.95563E+01
 -1      3990 1.17390E+01
 -1      3991 2.31846E+01
 -1      3992 1.54698E+01
 -1      3993 2.04388E+01
 -1      3994 1.51527E+01
 -1      3995 2.37938E+01
 -1      3996 1.51436E+01
 -1      3997 1.94589E+01
 -1      3998 1.30246E+01
 -1      3999 2.93505E+01
 -1      4000 1.38829E+01
 -1      4001 1.92393E+01
 -1      4002 2.19501E+01
 -1      4003 2.16137E+01
 -1      4004 1.89028E+01
 -1      4005 1.57637E+01
 -1      4006 2.91127E+01
 -1      4007 3.55438E+01
 -1      4008 2.62523E+01
 -1      4009 2.63574E+01
 -1      4010 2.62523E+01
 -1      4011 2.62523E+01
 -1      4012 2.63574E+01
 -1      4013 2.63574E+01
 -1      4014 1.09934E+01
 -1      4015 1.05902E+01
 -1      4016 2.47939E+01
 -1      4017 2.50683E+01
 -1      4018 2.71445E+01
 -1      4019 2.82225E+01
 -1      4020 2.81066E+01
 -1      4021 1.42548E+01
 -1      4022 2.23221E+01
 -1      4023 2.05135E+01
 -1      4024 2.38684E+01
 -1      4025 1.92354E+01
 -1      4026 1.92354E+01
 -1      4027 1.94475E+01
 -1      4028 2.65696E+01
 -1      4029 2.65696E+01
 -1      4030 1.43654E+01
 -1      4031 1.93498E+01
 -1      4032 1.79458E+01
 -1      4033 1.50297E+01
 -1      4034 1.54443E+01
 -1      4035 1.95676E+01
 -1      4036 2.58576E+01
 -1      4037 1.90678E+01
 -1      4038 1.97798E+01
 -1      4039 2.91646E+01
 -1      4040 2.91646E+01
 -1      4041 2.91656E+01
 -1      4042 2.91646E+01
 -1      4043 2.90373E+01
 -1      4044 2.91656E+01
 -1      4045 2.90392E+01
 -1      4046 2.91656E+01
 -1      4047 2.63194E+01
 -1      4048 1.94372E+01
 -1      4049 1.89749E+01
 -1      4050 2.61073E+01
 -1      4051 1.92251E+01
 -1      4052 1.38990E+01
 -1      4053 1.65723E+01
 -1      4054 2.87107E+01
 -1      4055 2.86268E+01
 -1      4056 2.84224E+01
 -1      4057 2.87107E+01
 -1      4058 2.86268E+01
 -1      4059 2.86645E+01
 -1      4060 2.09339E+01
 -1      4061 2.06078E+01
 -1      4062 2.08962E+01
 -1      4063 1.52641E+01
 -1      4064 2.62455E+01
 -1      4065 2.62455E+01
 -1      4066 2.60201E+01
 -1      4067 2.61320E+01
 -1      4068 2.61073E+01
 -1      4069 2.60021E+01
 -1      4070 1.97706E+01
 -1      4071 2.66948E+01
 -1      4072 2.67817E+01
 -1      4073 2.66948E+01
 -1      4074 2.66948E+01
 -1      4075 2.67817E+01
 -1      4076 2.12237E+01
 -1      4077 1.95107E+01
 -1      4078 1.80791E+01
 -1      4079 1.92525E+01
 -1      4080 2.14858E+01
 -1      4081 1.82939E+01
 -1      4082 1.43778E+01
 -1      4083 1.32677E+01
 -1      4084 1.44339E+01
 -1      4085 1.33238E+01
 -1      4086 1.81371E+01
 -1      4087 2.13097E+01
 -1      4088 1.79623E+01
 -1      4089 2.10789E+01
 -1      4090 1.91536E+01
 -1      4091 1.56028E+01
 -1      4092 1.65833E+01
 -1      4093 1.92165E+01
 -1      4094 1.45212E+01
 -1      4095 1.03255E+01
 -1      4096 1.43370E+01
 -1      4097 2.01971E+01
 -1      4098 2.06789E+01
 -1      4099 2.36519E+01
 -1      4100 1.93167E+01
 -1      4101 2.06287E+01
 -1      4102 2.89295E+01
 -1      4103 1.91353E+01
 -1      4104 2.33361E+01
 -1      4105 2.02770E+01
 -1      4106 2.02099E+01
 -1      4107 2.42074E+01
 -1      4108 2.90334E+01
 -1      4109 2.64955E+01
 -1      4110 2.64955E+01
 -1      4111 2.07844E+01
 -1      4112 2.33088E+01
 -1      4113 2.33067E+01
 -1      4114 2.08432E+01
 -1      4115 2.33630E+01
 -1      4116 2.33630E+01
 -1      4117 1.88277E+01
 -1      4118 2.61722E+01
 -1      4119 2.29338E+01
 -1      4120 2.65696E+01
 -1      4121 2.60852E+01
 -1      4122 2.07170E+01
 -1      4123 2.88203E+01
 -1      4124 2.07108E+01
 -1      4125 2.88183E+01
 -1      4126 2.65696E+01
 -1      4127 2.65696E+01
 -1      4128 2.06135E+01
 -1      4129 2.89311E+01
 -1      4130 2.89050E+01
 -1      4131 2.87141E+01
 -1      4132 1.86665E+01
 -1      4133 2.54562E+01
 -1      4134 2.53443E+01
 -1      4135 2.77009E+01
 -1      4136 2.77009E+01
 -1      4137 2.77062E+01
 -1      4138 2.77062E+01
 -1      4139 1.99370E+01
 -1      4140 2.33946E+01
 -1      4141 2.33975E+01
 -1      4142 1.50796E+01
 -1      4143 2.00448E+01
 -1      4144 2.90334E+01
 -1      4145 1.97537E+01
 -1      4146 1.64449E+01
 -1      4147 1.63817E+01
 -1      4148 1.76229E+01
 -1      4149 1.32382E+01
 -1      4150 1.85578E+01
 -1      4151 1.85123E+01
 -1      4152 2.10834E+01
 -1      4153 1.77118E+01
 -1      4154 1.41418E+01
 -1      4155 1.83753E+01
 -1      4156 1.99927E+01
 -1      4157 1.91052E+01
 -1      4158 1.99593E+01
 -1      4159 1.97854E+01
 -1      4160 2.83438E+01
 -1      4161 2.85481E+01
 -1      4162 1.40204E+01
 -1      4163 1.90850E+01
 -1      4164 1.35563E+01
 -1      4165 2.87144E+01
 -1      4166 1.97215E+01
 -1      4167 2.35306E+01
 -1      4168 2.05229E+01
 -1      4169 2.85795E+01
 -1      4170 2.03667E+01
 -1      4171 2.89060E+01
 -1      4172 2.80331E+01
 -1      4173 1.97636E+01
 -1      4174 1.99583E+01
 -1      4175 1.95940E+01
 -1      4176 1.99485E+01
 -1      4177 1.96030E+01
 -1      4178 1.67923E+01
 -1      4179 1.83084E+01
 -1      4180 1.82569E+01
 -1      4181 1.88071E+01
 -1      4182 1.67302E+01
 -1      4183 2.14377E+01
 -1      4184 2.00305E+01
 -1      4185 1.79210E+01
 -1      4186 1.82478E+01
 -1      4187 2.09938E+01
 -1      4188 1.93074E+01
 -1      4189 2.25150E+01
 -1      4190 1.99532E+01
 -1      4191 2.36843E+01
 -1      4192 2.34943E+01
 -1      4193 1.99524E+01
 -1      4194 1.92961E+01
 -1      4195 2.01189E+01
 -1      4196 1.99407E+01
 -1      4197 2.25315E+01
 -1      4198 2.32588E+01
 -1      4199 1.26650E+01
 -1      4200 1.26838E+01
 -1      4201 1.94475E+01
 -1      4202 1.97864E+01
 -1      4203 1.99455E+01
 -1      4204 2.34303E+01
 -1      4205 2.38020E+01
 -1      4206 2.38093E+01
 -1      4207 2.32499E+01
 -1      4208 1.97858E+01
 -1      4209 2.91646E+01
 -1      4210 2.89321E+01
 -1      4211 2.88753E+01
 -1      4212 2.26592E+01
 -1      4213 2.33088E+01
 -1      4214 2.33704E+01
 -1      4215 2.63194E+01
 -1      4216 2.63194E+01
 -1      4217 2.67817E+01
 -1      4218 2.61722E+01
 -1      4219 2.66699E+01
 -1      4220 2.56322E+01
 -1      4221 2.56684E+01
 -1      4222 2.89916E+01
 -1      4223 2.89295E+01
 -1      4224 2.74973E+01
 -1      4225 2.76699E+01
 -1      4226 2.76689E+01
 -1      4227 1.25901E+01
 -1      4228 1.38873E+01
 -1      4229 1.25996E+01
 -1      4230 1.33964E+01
 -1      4231 1.36789E+01
 -1      4232 1.84144E+01
 -1      4233 1.49441E+01
 -1      4234 1.45891E+01
 -1      4235 1.49717E+01
 -1      4236 2.89109E+01
 -1      4237 2.88203E+01
 -1      4238 2.82225E+01
 -1      4239 2.86645E+01
 -1      4240 2.85795E+01
 -1      4241 2.88193E+01
 -1      4242 1.45965E+01
 -1      4243 1.48980E+01
 -1      4244 1.50904E+01
 -1      4245 2.85858E+01
 -1      4246 2.89528E+01
 -1      4247 1.48760E+01
 -1      4248 1.48551E+01
 -1      4249 1.50489E+01
 -1      4250 1.93123E+01
 -1      4251 1.79026E+01
 -1      4252 2.10091E+01
 -1      4253 2.17318E+01
 -1      4254 1.84709E+01
 -1      4255 1.94222E+01
 -1      4256 2.05640E+01
 -1      4257 1.95235E+01
 -1      4258 2.37962E+01
 -1      4259 1.40780E+01
 -1      4260 1.40780E+01
 -1      4261 1.90200E+01
 -1      4262 2.91745E+01
 -1      4263 1.99584E+01
 -1      4264 2.09420E+01
 -1      4265 2.04173E+01
 -1      4266 2.06700E+01
 -1      4267 2.09420E+01
 -1      4268 1.47270E+01
 -1      4269 1.15346E+01
 -1      4270 2.32833E+01
 -1      4271 2.20499E+01
 -1      4272 2.93969E+01
 -1      4273 2.11333E+01
 -1      4274 1.87925E+01
 -1      4275 2.92479E+01
 -1      4276 1.98513E+01
 -1      4277 2.89784E+01
 -1      4278 2.09288E+01
 -1      4279 2.01514E+01
 -1      4280 1.29114E+01
 -1      4281 1.07234E+01
 -1      4282 2.78029E+01
 -1      4283 2.96992E+01
 -1      4284 3.02260E+01
 -1      4285 2.72388E+01
 -1      4286 2.89800E+01
 -1      4287 3.02127E+01
 -1      4288 1.97873E+01
 -1      4289 2.23321E+01
 -1      4290 2.12280E+01
 -1      4291 1.10945E+01
 -1      4292 1.45613E+01
 -1      4293 2.19858E+01
 -1      4294 2.29263E+01
 -1      4295 2.91745E+01
 -1      4296 1.16978E+01
 -1      4297 1.46433E+01
 -1      4298 2.20286E+01
 -1      4299 2.34869E+01
 -1      4300 1.99103E+01
 -1      4301 3.02037E+01
 -1      4302 2.08957E+01
 -1      4303 2.20044E+01
 -1      4304 1.06023E+01
 -1      4305 1.19788E+01
 -1      4306 2.35013E+01
 -1      4307 2.04500E+01
 -1      4308 2.09288E+01
 -1      4309 1.10997E+01
 -1      4310 1.45531E+01
 -1      4311 2.19798E+01
 -1      4312 2.29186E+01
 -1      4313 2.10834E+01
 -1      4314 1.85123E+01
 -1      4315 1.16695E+01
 -1      4316 1.18440E+01
 -1      4317 2.35122E+01
 -1      4318 2.97558E+01
 -1      4319 3.11594E+01
 -1      4320 2.89784E+01
 -1      4321 2.17435E+01
 -1      4322 2.16735E+01
 -1      4323 1.26100E+01
 -1      4324 3.14561E+01
 -1      4325 1.22421E+01
 -1      4326 2.27575E+01
 -1      4327 1.16933E+01
 -1      4328 2.16942E+01
 -1      4329 1.26321E+01
 -1      4330 1.68408E+01
 -1      4331 1.91607E+01
 -1      4332 1.76446E+01
 -1      4333 1.91782E+01
 -1      4334 1.76515E+01
 -1      4335 1.68488E+01
 -1      4336 2.16033E+01
 -1      4337 1.88573E+01
 -1      4338 1.84176E+01
 -1      4339 1.81522E+01
 -1      4340 1.89452E+01
 -1      4341 2.15757E+01
 -1      4342 2.39204E+01
 -1      4343 1.96404E+01
 -1      4344 2.01893E+01
 -1      4345 1.89929E+01
 -1      4346 1.97750E+01
 -1      4347 2.29826E+01
 -1      4348 1.95285E+01
 -1      4349 2.02977E+01
 -1      4350 2.38396E+01
 -1      4351 2.30065E+01
 -1      4352 1.90038E+01
 -1      4353 1.97711E+01
 -1      4354 2.40345E+01
 -1      4355 1.96315E+01
 -1      4356 2.01780E+01
 -1      4357 3.13169E+01
 -1      4358 2.23321E+01
 -1      4359 2.37756E+01
 -1      4360 1.95218E+01
 -1      4361 2.02860E+01
 -1      4362 2.36698E+01
 -1      4363 2.01967E+01
 -1      4364 1.94233E+01
 -1      4365 1.42603E+01
 -1      4366 2.03146E+01
 -1      4367 2.40050E+01
 -1      4368 1.95709E+01
 -1      4369 1.87970E+01
 -1      4370 1.62411E+01
 -1      4371 1.87523E+01
 -1      4372 1.99325E+01
 -1      4373 1.12964E+01
 -1      4374 1.10689E+01
 -1      4375 2.28580E+01
 -1      4376 2.08186E+01
 -1      4377 3.02037E+01
 -1      4378 2.20044E+01
 -1      4379 2.20697E+01
 -1      4380 1.93769E+01
 -1      4381 2.36168E+01
 -1      4382 2.01533E+01
 -1      4383 1.13892E+01
 -1      4384 1.10087E+01
 -1      4385 2.00126E+01
 -1      4386 2.12280E+01
 -1      4387 1.25272E+01
 -1      4388 1.88221E+01
 -1      4389 2.09317E+01
 -1      4390 1.78860E+01
 -1      4391 3.02127E+01
 -1      4392 1.41593E+01
 -1      4393 3.15351E+01
 -1      4394 3.13124E+01
 -1      4395 1.40780E+01
 -1      4396 8.89938E+00
 -1      4397 1.01991E+01
 -1      4398 1.29114E+01
 -1      4399 1.07234E+01
 -1      4400 1.29427E+01
 -1      4401 1.07234E+01
 -1      4402 9.55684E+00
 -1      4403 1.70870E+01
 -3
    1PSTEP                         4           1           2          
  100CL  102 0.00000E+00        4403                     4    2           1
 -4  DISP        4    1
 -5  D1          1    2    1    0
 -5  D2          1    2    2    0
 -5  D3          1    2    3    0
 -5  ALL         1    2    0    0    1ALL
 -1         1 0.00000E+00 0.00000E+00 0.00000E+00
 -1         2 0.00000E+00 0.00000E+00 0.00000E+00
 -1         3 0.00000E+00 0.00000E+00 0.00000E+00
 -1         4 0.00000E+00 0.00000E+00 0.00000E+00
 -1         5-3.98339E-02 1.74313E+00 1.39767E-03
 -1         6-3.98338E-02 1.74313E+00-1.40935E-03
 -1         7-3.10946E-01 1.73055E+00 1.43061E-03
 -1         8-3.10949E-01 1.73055E+00-1.44251E-03
 -1         9 0.00000E+00 0.00000E+00 0.00000E+00
 -1        10 0.00000E+00 0.00000E+00 0.00000E+00
 -1        11 0.00000E+00 0.00000E+00 0.00000E+00
 -1        12 0.00000E+00 0.00000E+00 0.00000E+00
 -1        13 0.00000E+00 0.00000E+00 0.00000E+00
 -1        14 0.00000E+00 0.00000E+00 0.00000E+00
 -1        15 0.00000E+00 0.00000E+00 0.00000E+00
 -1        16 0.00000E+00 0.00000E+00 0.00000E+00
 -1        17 0.00000E+00 0.00000E+00 0.00000E+00
 -1        18 0.00000E+00 0.00000E+00 0.00000E+00
 -1        19 0.00000E+00 0.00000E+00 0.00000E+00
 -1        20 0.00000E+00 0.00000E+00 0.00000E+00
 -1        21 0.00000E+00 0.00000E+00 0.00000E+00
 -1        22 0.00000E+00 0.00000E+00 0.00000E+00
 -1        23 0.00000E+00 0.00000E+00 0.00000E+00
 -1        24 0.00000E+00 0.00000E+00 0.00000E+00
 -1        25 0.00000E+00 0.00000E+00 0.00000E+00
 -1        26 0.00000E+00 0.00000E+00 0.00000E+00
 -1        27 0.00000E+00 0.00000E+00 0.00000E+00
 -1        28 0.00000E+00 0.00000E+00 0.00000E+00
 -1        29 0.00000E+00 0.00000E+00 0.00000E+00
 -1        30 0.00000E+00 0.00000E+00 0.00000E+00
 -1        31 0.00000E+00 0.00000E+00 0.00000E+00
 -1        32 0.00000E+00 0.00000E+00 0.00000E+00
 -1        33 0.00000E+00 0.00000E+00 0.00000E+00
 -1        34 0.00000E+00 0.00000E+00 0.00000E+00
 -1        35 0.00000E+00 0.00000E+00 0.00000E+00
 -1        36 0.00000E+00 0.00000E+00 0.00000E+00
 -1        37-3.97716E-02 1.74318E+00-6.94096E-04
 -1        38-3.97626E-02 1.74319E+00-3.39496E-06
 -1        39-3.97695E-02 1.74318E+00 6.85680E-04
 -1        40-3.97849E-02 1.74316E+00-1.05046E-03
 -1        41-3.97635E-02 1.74319E+00-3.48222E-04
 -1        42-3.97631E-02 1.74319E+00 3.38176E-04
 -1        43-3.97874E-02 1.74317E+00 1.03848E-03
 -1        44-1.07798E-01 1.73982E+00 1.45345E-03
 -1        45-1.75369E-01 1.73662E+00 1.41412E-03
 -1        46-2.42955E-01 1.73357E+00 1.37810E-03
 -1        47-7.38978E-02 1.74148E+00 1.43861E-03
 -1        48-1.41602E-01 1.73820E+00 1.43948E-03
 -1        49-2.09138E-01 1.73508E+00 1.39074E-03
 -1        50-2.76871E-01 1.73208E+00 1.39049E-03
 -1        51-3.11019E-01 1.73058E+00-7.37726E-04
 -1        52-3.11030E-01 1.73059E+00-8.75366E-06
 -1        53-3.11020E-01 1.73058E+00 7.22932E-04
 -1        54-3.11004E-01 1.73057E+00-1.09146E-03
 -1        55-3.11028E-01 1.73059E+00-3.73915E-04
 -1        56-3.11029E-01 1.73059E+00 3.60117E-04
 -1        57-3.11000E-01 1.73057E+00 1.08006E-03
 -1        58-1.07796E-01 1.73982E+00-1.46068E-03
 -1        59-1.75369E-01 1.73662E+00-1.42584E-03
 -1        60-2.42956E-01 1.73357E+00-1.39067E-03
 -1        61-7.38960E-02 1.74148E+00-1.44810E-03
 -1        62-1.41602E-01 1.73820E+00-1.45005E-03
 -1        63-2.09139E-01 1.73508E+00-1.40229E-03
 -1        64-2.76874E-01 1.73208E+00-1.40372E-03
 -1        65 3.24888E-03 8.45198E-04 1.41497E-03
 -1        66 6.82490E-03 5.86447E-03 1.71786E-03
 -1        67 1.03243E-02 1.49903E-02 1.77111E-03
 -1        68 1.36744E-02 2.79704E-02 1.75938E-03
 -1        69 1.68694E-02 4.47004E-02 1.72725E-03
 -1        70 1.98731E-02 6.51309E-02 1.68333E-03
 -1        71 2.26638E-02 8.92031E-02 1.63565E-03
 -1        72 2.52065E-02 1.16860E-01 1.57811E-03
 -1        73 2.74730E-02 1.48028E-01 1.51782E-03
 -1        74 2.94419E-02 1.82636E-01 1.44835E-03
 -1        75 3.10894E-02 2.20598E-01 1.37185E-03
 -1        76 3.23933E-02 2.61822E-01 1.29059E-03
 -1        77 3.33345E-02 3.06204E-01 1.20781E-03
 -1        78 3.39049E-02 3.53652E-01 1.11563E-03
 -1        79 3.40799E-02 4.04052E-01 1.01784E-03
 -1        80 3.38531E-02 4.57287E-01 9.14794E-04
 -1        81 3.32215E-02 5.13234E-01 8.12989E-04
 -1        82 3.21698E-02 5.71772E-01 7.01026E-04
 -1        83 3.06920E-02 6.32762E-01 5.91945E-04
 -1        84 2.87970E-02 6.96080E-01 4.71983E-04
 -1        85 2.64642E-02 7.61587E-01 3.47221E-04
 -1        86 2.37180E-02 8.29127E-01 2.27753E-04
 -1        87 2.05422E-02 8.98568E-01 1.01416E-04
 -1        88 1.69502E-02 9.69755E-01-3.19923E-05
 -1        89 1.29495E-02 1.04254E+00-1.62070E-04
 -1        90 8.54008E-03 1.11675E+00-2.97953E-04
 -1        91 3.73733E-03 1.19225E+00-4.34948E-04
 -1        92-1.44863E-03 1.26886E+00-5.71098E-04
 -1        93-7.00255E-03 1.34645E+00-7.12325E-04
 -1        94-1.29266E-02 1.42482E+00-8.56632E-04
 -1        95-1.91842E-02 1.50382E+00-9.92405E-04
 -1        96-2.57761E-02 1.58330E+00-1.13382E-03
 -1        97-3.26729E-02 1.66307E+00-1.26292E-03
 -1        98 1.58139E-03 6.01484E-05 1.00414E-03
 -1        99 5.03464E-03 2.82830E-03 1.62121E-03
 -1       100 8.59188E-03 9.93677E-03 1.75674E-03
 -1       101 1.20177E-02 2.10089E-02 1.76870E-03
 -1       102 1.52930E-02 3.58702E-02 1.74492E-03
 -1       103 1.83963E-02 5.44575E-02 1.70721E-03
 -1       104 2.12973E-02 7.67152E-02 1.66046E-03
 -1       105 2.39670E-02 1.02587E-01 1.60791E-03
 -1       106 2.63757E-02 1.32010E-01 1.54845E-03
 -1       107 2.84965E-02 1.64908E-01 1.48358E-03
 -1       108 3.03062E-02 2.01204E-01 1.41070E-03
 -1       109 3.17846E-02 2.40808E-01 1.33237E-03
 -1       110 3.29101E-02 2.83624E-01 1.24944E-03
 -1       111 3.36675E-02 3.29553E-01 1.16139E-03
 -1       112 3.40405E-02 3.78491E-01 1.06788E-03
 -1       113 3.40176E-02 4.30323E-01 9.68074E-04
 -1       114 3.35886E-02 4.84928E-01 8.64428E-04
 -1       115 3.27466E-02 5.42186E-01 7.57564E-04
 -1       116 3.14841E-02 6.01968E-01 6.46383E-04
 -1       117 2.97966E-02 6.64140E-01 5.31769E-04
 -1       118 2.76828E-02 7.28571E-01 4.11276E-04
 -1       119 2.51444E-02 7.95111E-01 2.88589E-04
 -1       120 2.21814E-02 8.63620E-01 1.64295E-04
 -1       121 1.87972E-02 9.33953E-01 3.50680E-05
 -1       122 1.50000E-02 1.00595E+00-9.68609E-05
 -1       123 1.07931E-02 1.07947E+00-2.29376E-04
 -1       124 6.18709E-03 1.15435E+00-3.65541E-04
 -1       125 1.19159E-03 1.23043E+00-5.02896E-04
 -1       126-4.18067E-03 1.30754E+00-6.42603E-04
 -1       127-9.92176E-03 1.38554E+00-7.83278E-04
 -1       128-1.60137E-02 1.46425E+00-9.24360E-04
 -1       129-2.24421E-02 1.54351E+00-1.06374E-03
 -1       130-2.91894E-02 1.62315E+00-1.19893E-03
 -1       131-3.62179E-02 1.70304E+00-1.32869E-03
 -1       132 3.24864E-03 8.45534E-04-1.41457E-03
 -1       133 6.82469E-03 5.86458E-03-1.71751E-03
 -1       134 1.03250E-02 1.49911E-02-1.77058E-03
 -1       135 1.36756E-02 2.79699E-02-1.75954E-03
 -1       136 1.68691E-02 4.47009E-02-1.72829E-03
 -1       137 1.98745E-02 6.51286E-02-1.68624E-03
 -1       138 2.26651E-02 8.92027E-02-1.63727E-03
 -1       139 2.52052E-02 1.16859E-01-1.57961E-03
 -1       140 2.74752E-02 1.48026E-01-1.51991E-03
 -1       141 2.94440E-02 1.82637E-01-1.45068E-03
 -1       142 3.10897E-02 2.20596E-01-1.37535E-03
 -1       143 3.23916E-02 2.61820E-01-1.29344E-03
 -1       144 3.33377E-02 3.06203E-01-1.21110E-03
 -1       145 3.39030E-02 3.53652E-01-1.12071E-03
 -1       146 3.40803E-02 4.04051E-01-1.02204E-03
 -1       147 3.38577E-02 4.57283E-01-9.24054E-04
 -1       148 3.32200E-02 5.13232E-01-8.16930E-04
 -1       149 3.21676E-02 5.71769E-01-7.07915E-04
 -1       150 3.06934E-02 6.32763E-01-5.95842E-04
 -1       151 2.87951E-02 6.96084E-01-4.76564E-04
 -1       152 2.64668E-02 7.61583E-01-3.58491E-04
 -1       153 2.37163E-02 8.29128E-01-2.34568E-04
 -1       154 2.05425E-02 8.98568E-01-1.08018E-04
 -1       155 1.69539E-02 9.69757E-01 2.39193E-05
 -1       156 1.29458E-02 1.04254E+00 1.57855E-04
 -1       157 8.54260E-03 1.11675E+00 2.86246E-04
 -1       158 3.74105E-03 1.19225E+00 4.25788E-04
 -1       159-1.44839E-03 1.26886E+00 5.63569E-04
 -1       160-7.00222E-03 1.34644E+00 7.01181E-04
 -1       161-1.29228E-02 1.42482E+00 8.43321E-04
 -1       162-1.91826E-02 1.50382E+00 9.82307E-04
 -1       163-2.57763E-02 1.58329E+00 1.12203E-03
 -1       164-3.26741E-02 1.66307E+00 1.25261E-03
 -1       165 1.58172E-03 6.08328E-05-1.00406E-03
 -1       166 5.03454E-03 2.82858E-03-1.62091E-03
 -1       167 8.59177E-03 9.93626E-03-1.75635E-03
 -1       168 1.20183E-02 2.10076E-02-1.76947E-03
 -1       169 1.52935E-02 3.58700E-02-1.74518E-03
 -1       170 1.83966E-02 5.44555E-02-1.70877E-03
 -1       171 2.12984E-02 7.67137E-02-1.66248E-03
 -1       172 2.39676E-02 1.02587E-01-1.61009E-03
 -1       173 2.63761E-02 1.32009E-01-1.55092E-03
 -1       174 2.84975E-02 1.64907E-01-1.48581E-03
 -1       175 3.03077E-02 2.01202E-01-1.41408E-03
 -1       176 3.17848E-02 2.40807E-01-1.33606E-03
 -1       177 3.29107E-02 2.83623E-01-1.25349E-03
 -1       178 3.36675E-02 3.29552E-01-1.16619E-03
 -1       179 3.40406E-02 3.78490E-01-1.07199E-03
 -1       180 3.40197E-02 4.30320E-01-9.73927E-04
 -1       181 3.35891E-02 4.84926E-01-8.71522E-04
 -1       182 3.27462E-02 5.42185E-01-7.63168E-04
 -1       183 3.14833E-02 6.01967E-01-6.52800E-04
 -1       184 2.97958E-02 6.64142E-01-5.35839E-04
 -1       185 2.76841E-02 7.28568E-01-4.18730E-04
 -1       186 2.51445E-02 7.95110E-01-2.96261E-04
 -1       187 2.21816E-02 8.63620E-01-1.71454E-04
 -1       188 1.87981E-02 9.33953E-01-4.17900E-05
 -1       189 1.50010E-02 1.00596E+00 8.87801E-05
 -1       190 1.07943E-02 1.07947E+00 2.21155E-04
 -1       191 6.18790E-03 1.15435E+00 3.55627E-04
 -1       192 1.19379E-03 1.23043E+00 4.93890E-04
 -1       193-4.18041E-03 1.30754E+00 6.33629E-04
 -1       194-9.92014E-03 1.38554E+00 7.71300E-04
 -1       195-1.60107E-02 1.46425E+00 9.13273E-04
 -1       196-2.24420E-02 1.54351E+00 1.05287E-03
 -1       197-2.91905E-02 1.62315E+00 1.18738E-03
 -1       198-3.62179E-02 1.70304E+00 1.31843E-03
 -1       199-9.21397E-03 3.18012E-03-3.87737E-03
 -1       200-1.78688E-02 8.48045E-03-4.56987E-03
 -1       201-2.69447E-02 1.74635E-02-4.65777E-03
 -1       202-3.61810E-02 3.01683E-02-4.63383E-03
 -1       203-4.54862E-02 4.65582E-02-4.59454E-03
 -1       204-5.48267E-02 6.65873E-02-4.54927E-03
 -1       205-6.41995E-02 9.02055E-02-4.49871E-03
 -1       206-7.36071E-02 1.17356E-01-4.44084E-03
 -1       207-8.30553E-02 1.47974E-01-4.37871E-03
 -1       208-9.25394E-02 1.81991E-01-4.30846E-03
 -1       209-1.02057E-01 2.19326E-01-4.23231E-03
 -1       210-1.11608E-01 2.59897E-01-4.14973E-03
 -1       211-1.21192E-01 3.03607E-01-4.06597E-03
 -1       212-1.30799E-01 3.50366E-01-3.97195E-03
 -1       213-1.40423E-01 4.00065E-01-3.87659E-03
 -1       214-1.50059E-01 4.52600E-01-3.77370E-03
 -1       215-1.59694E-01 5.07846E-01-3.66689E-03
 -1       216-1.69323E-01 5.65690E-01-3.55654E-03
 -1       217-1.78937E-01 6.26006E-01-3.44265E-03
 -1       218-1.88519E-01 6.88664E-01-3.32403E-03
 -1       219-1.98056E-01 7.53524E-01-3.20339E-03
 -1       220-2.07532E-01 8.20459E-01-3.07794E-03
 -1       221-2.16940E-01 8.89319E-01-2.95113E-03
 -1       222-2.26261E-01 9.59962E-01-2.82024E-03
 -1       223-2.35473E-01 1.03224E+00-2.68494E-03
 -1       224-2.44572E-01 1.10599E+00-2.55498E-03
 -1       225-2.53529E-01 1.18108E+00-2.41563E-03
 -1       226-2.62332E-01 1.25733E+00-2.27897E-03
 -1       227-2.70960E-01 1.33460E+00-2.13979E-03
 -1       228-2.79395E-01 1.41272E+00-1.99569E-03
 -1       229-2.87623E-01 1.49152E+00-1.85588E-03
 -1       230-2.95622E-01 1.57085E+00-1.71743E-03
 -1       231-3.03384E-01 1.65053E+00-1.58808E-03
 -1       232-5.06715E-03 1.86376E-03-2.87014E-03
 -1       233-1.34852E-02 5.39970E-03-4.36406E-03
 -1       234-2.23773E-02 1.25082E-02-4.64125E-03
 -1       235-3.15509E-02 2.33538E-02-4.65048E-03
 -1       236-4.08286E-02 3.79062E-02-4.61483E-03
 -1       237-5.01516E-02 5.61215E-02-4.57266E-03
 -1       238-5.95084E-02 7.79520E-02-4.52471E-03
 -1       239-6.88991E-02 1.03344E-01-4.47068E-03
 -1       240-7.83262E-02 1.32235E-01-4.41023E-03
 -1       241-8.77916E-02 1.64561E-01-4.34379E-03
 -1       242-9.72931E-02 2.00248E-01-4.27118E-03
 -1       243-1.06829E-01 2.39213E-01-4.19209E-03
 -1       244-1.16396E-01 2.81366E-01-4.10877E-03
 -1       245-1.25991E-01 3.26613E-01-4.01963E-03
 -1       246-1.35608E-01 3.74856E-01-3.92517E-03
 -1       247-1.45238E-01 4.25985E-01-3.82496E-03
 -1       248-1.54875E-01 4.79890E-01-3.72099E-03
 -1       249-1.64510E-01 5.36452E-01-3.61252E-03
 -1       250-1.74132E-01 5.95547E-01-3.49975E-03
 -1       251-1.83730E-01 6.57049E-01-3.38331E-03
 -1       252-1.93291E-01 7.20826E-01-3.26438E-03
 -1       253-2.02801E-01 7.86743E-01-3.14170E-03
 -1       254-2.12246E-01 8.54658E-01-3.01510E-03
 -1       255-2.21612E-01 9.24427E-01-2.88652E-03
 -1       256-2.30881E-01 9.95907E-01-2.75408E-03
 -1       257-2.40038E-01 1.06894E+00-2.62008E-03
 -1       258-2.49066E-01 1.14338E+00-2.48549E-03
 -1       259-2.57950E-01 1.21907E+00-2.34729E-03
 -1       260-2.66668E-01 1.29585E+00-2.20902E-03
 -1       261-2.75200E-01 1.37356E+00-2.06789E-03
 -1       262-2.83535E-01 1.45204E+00-1.92523E-03
 -1       263-2.91650E-01 1.53113E+00-1.78625E-03
 -1       264-2.99531E-01 1.61065E+00-1.65210E-03
 -1       265-3.07189E-01 1.69047E+00-1.52305E-03
 -1       266-9.21633E-03 3.17423E-03 3.87823E-03
 -1       267-1.78671E-02 8.47872E-03 4.57403E-03
 -1       268-2.69378E-02 1.74619E-02 4.66018E-03
 -1       269-3.61809E-02 3.01667E-02 4.63579E-03
 -1       270-4.54857E-02 4.65578E-02 4.59500E-03
 -1       271-5.48236E-02 6.65871E-02 4.54917E-03
 -1       272-6.41993E-02 9.02050E-02 4.49915E-03
 -1       273-7.36089E-02 1.17356E-01 4.44051E-03
 -1       274-8.30533E-02 1.47971E-01 4.37991E-03
 -1       275-9.25371E-02 1.81988E-01 4.30837E-03
 -1       276-1.02057E-01 2.19326E-01 4.23030E-03
 -1       277-1.11609E-01 2.59895E-01 4.14854E-03
 -1       278-1.21188E-01 3.03606E-01 4.06489E-03
 -1       279-1.30798E-01 3.50365E-01 3.97022E-03
 -1       280-1.40421E-01 4.00067E-01 3.87145E-03
 -1       281-1.50055E-01 4.52599E-01 3.76760E-03
 -1       282-1.59695E-01 5.07843E-01 3.66507E-03
 -1       283-1.69324E-01 5.65691E-01 3.55127E-03
 -1       284-1.78937E-01 6.26005E-01 3.43916E-03
 -1       285-1.88518E-01 6.88659E-01 3.31996E-03
 -1       286-1.98051E-01 7.53525E-01 3.19724E-03
 -1       287-2.07535E-01 8.20460E-01 3.07270E-03
 -1       288-2.16939E-01 8.89318E-01 2.94699E-03
 -1       289-2.26259E-01 9.59962E-01 2.81250E-03
 -1       290-2.35477E-01 1.03224E+00 2.68172E-03
 -1       291-2.44569E-01 1.10599E+00 2.54515E-03
 -1       292-2.53526E-01 1.18108E+00 2.40732E-03
 -1       293-2.62327E-01 1.25733E+00 2.27011E-03
 -1       294-2.70960E-01 1.33460E+00 2.12883E-03
 -1       295-2.79392E-01 1.41271E+00 1.98697E-03
 -1       296-2.87620E-01 1.49152E+00 1.84679E-03
 -1       297-2.95618E-01 1.57085E+00 1.70739E-03
 -1       298-3.03383E-01 1.65053E+00 1.57602E-03
 -1       299-5.06411E-03 1.85931E-03 2.87679E-03
 -1       300-1.34843E-02 5.39668E-03 4.36839E-03
 -1       301-2.23736E-02 1.25070E-02 4.64358E-03
 -1       302-3.15486E-02 2.33525E-02 4.65187E-03
 -1       303-4.08280E-02 3.79053E-02 4.61594E-03
 -1       304-5.01504E-02 5.61213E-02 4.57288E-03
 -1       305-5.95069E-02 7.79507E-02 4.52459E-03
 -1       306-6.88985E-02 1.03342E-01 4.47050E-03
 -1       307-7.83265E-02 1.32234E-01 4.41049E-03
 -1       308-8.77907E-02 1.64560E-01 4.34384E-03
 -1       309-9.72917E-02 2.00248E-01 4.26955E-03
 -1       310-1.06829E-01 2.39213E-01 4.19048E-03
 -1       311-1.16395E-01 2.81365E-01 4.10711E-03
 -1       312-1.25990E-01 3.26612E-01 4.01675E-03
 -1       313-1.35606E-01 3.74856E-01 3.92175E-03
 -1       314-1.45238E-01 4.25987E-01 3.82083E-03
 -1       315-1.54875E-01 4.79889E-01 3.71737E-03
 -1       316-1.64509E-01 5.36451E-01 3.60852E-03
 -1       317-1.74133E-01 5.95546E-01 3.49544E-03
 -1       318-1.83731E-01 6.57047E-01 3.37972E-03
 -1       319-1.93290E-01 7.20826E-01 3.25998E-03
 -1       320-2.02800E-01 7.86742E-01 3.13486E-03
 -1       321-2.12246E-01 8.54656E-01 3.00954E-03
 -1       322-2.21610E-01 9.24427E-01 2.87991E-03
 -1       323-2.30881E-01 9.95905E-01 2.74729E-03
 -1       324-2.40037E-01 1.06894E+00 2.61400E-03
 -1       325-2.49066E-01 1.14338E+00 2.47712E-03
 -1       326-2.57947E-01 1.21907E+00 2.33867E-03
 -1       327-2.66665E-01 1.29585E+00 2.19837E-03
 -1       328-2.75199E-01 1.37356E+00 2.05823E-03
 -1       329-2.83533E-01 1.45204E+00 1.91733E-03
 -1       330-2.91648E-01 1.53113E+00 1.77633E-03
 -1       331-2.99529E-01 1.61065E+00 1.64062E-03
 -1       332-3.07187E-01 1.69047E+00 1.51024E-03
 -1       333 0.00000E+00 0.00000E+00 0.00000E+00
 -1       334 0.00000E+00 0.00000E+00 0.00000E+00
 -1       335 0.00000E+00 0.00000E+00 0.00000E+00
 -1       336 0.00000E+00 0.00000E+00 0.00000E+00
 -1       337 0.00000E+00 0.00000E+00 0.00000E+00
 -1       338 0.00000E+00 0.00000E+00 0.00000E+00
 -1       339 0.00000E+00 0.00000E+00 0.00000E+00
 -1       340 0.00000E+00 0.00000E+00 0.00000E+00
 -1       341 0.00000E+00 0.00000E+00 0.00000E+00
 -1       342 0.00000E+00 0.00000E+00 0.00000E+00
 -1       343 0.00000E+00 0.00000E+00 0.00000E+00
 -1       344 0.00000E+00 0.00000E+00 0.00000E+00
 -1       345 0.00000E+00 0.00000E+00 0.00000E+00
 -1       346 0.00000E+00 0.00000E+00 0.00000E+00
 -1       347 0.00000E+00 0.00000E+00 0.00000E+00
 -1       348 0.00000E+00 0.00000E+00 0.00000E+00
 -1       349 0.00000E+00 0.00000E+00 0.00000E+00
 -1       350 0.00000E+00 0.00000E+00 0.00000E+00
 -1       351 0.00000E+00 0.00000E+00 0.00000E+00
 -1       352 0.00000E+00 0.00000E+00 0.00000E+00
 -1       353 0.00000E+00 0.00000E+00 0.00000E+00
 -1       354 0.00000E+00 0.00000E+00 0.00000E+00
 -1       355 0.00000E+00 0.00000E+00 0.00000E+00
 -1       356 0.00000E+00 0.00000E+00 0.00000E+00
 -1       357 0.00000E+00 0.00000E+00 0.00000E+00
 -1       358 0.00000E+00 0.00000E+00 0.00000E+00
 -1       359 0.00000E+00 0.00000E+00 0.00000E+00
 -1       360 0.00000E+00 0.00000E+00 0.00000E+00
 -1       361 0.00000E+00 0.00000E+00 0.00000E+00
 -1       362 0.00000E+00 0.00000E+00 0.00000E+00
 -1       363 0.00000E+00 0.00000E+00 0.00000E+00
 -1       364 0.00000E+00 0.00000E+00 0.00000E+00
 -1       365 0.00000E+00 0.00000E+00 0.00000E+00
 -1       366 0.00000E+00 0.00000E+00 0.00000E+00
 -1       367 0.00000E+00 0.00000E+00 0.00000E+00
 -1       368 0.00000E+00 0.00000E+00 0.00000E+00
 -1       369 0.00000E+00 0.00000E+00 0.00000E+00
 -1       370 0.00000E+00 0.00000E+00 0.00000E+00
 -1       371 0.00000E+00 0.00000E+00 0.00000E+00
 -1       372 0.00000E+00 0.00000E+00 0.00000E+00
 -1       373 0.00000E+00 0.00000E+00 0.00000E+00
 -1       374 0.00000E+00 0.00000E+00 0.00000E+00
 -1       375 0.00000E+00 0.00000E+00 0.00000E+00
 -1       376 0.00000E+00 0.00000E+00 0.00000E+00
 -1       377 0.00000E+00 0.00000E+00 0.00000E+00
 -1       378 0.00000E+00 0.00000E+00 0.00000E+00
 -1       379 0.00000E+00 0.00000E+00 0.00000E+00
 -1       380 0.00000E+00 0.00000E+00 0.00000E+00
 -1       381 0.00000E+00 0.00000E+00 0.00000E+00
 -1       382 0.00000E+00 0.00000E+00 0.00000E+00
 -1       383 0.00000E+00 0.00000E+00 0.00000E+00
 -1       384 0.00000E+00 0.00000E+00 0.00000E+00
 -1       385 0.00000E+00 0.00000E+00 0.00000E+00
 -1       386 0.00000E+00 0.00000E+00 0.00000E+00
 -1       387 0.00000E+00 0.00000E+00 0.00000E+00
 -1       388 0.00000E+00 0.00000E+00 0.00000E+00
 -1       389 0.00000E+00 0.00000E+00 0.00000E+00
 -1       390 0.00000E+00 0.00000E+00 0.00000E+00
 -1       391 0.00000E+00 0.00000E+00 0.00000E+00
 -1       392 0.00000E+00 0.00000E+00 0.00000E+00
 -1       393 0.00000E+00 0.00000E+00 0.00000E+00
 -1       394 0.00000E+00 0.00000E+00 0.00000E+00
 -1       395 0.00000E+00 0.00000E+00 0.00000E+00
 -1       396 0.00000E+00 0.00000E+00 0.00000E+00
 -1       397 0.00000E+00 0.00000E+00 0.00000E+00
 -1       398 0.00000E+00 0.00000E+00 0.00000E+00
 -1       399 0.00000E+00 0.00000E+00 0.00000E+00
 -1       400 0.00000E+00 0.00000E+00 0.00000E+00
 -1       401 0.00000E+00 0.00000E+00 0.00000E+00
 -1       402 0.00000E+00 0.00000E+00 0.00000E+00
 -1       403 0.00000E+00 0.00000E+00 0.00000E+00
 -1       404 0.00000E+00 0.00000E+00 0.00000E+00
 -1       405 0.00000E+00 0.00000E+00 0.00000E+00
 -1       406-2.07031E-01 1.73520E+00 7.68113E-04
 -1       407-2.06553E-01 1.73522E+00-8.21773E-04
 -1       408-9.35541E-02 1.74058E+00 3.92343E-04
 -1       409-1.41702E-01 1.73823E+00-8.31858E-04
 -1       410-1.74545E-01 1.73672E+00-2.76041E-04
 -1       411-2.48325E-01 1.73339E+00-3.07109E-04
 -1       412-1.37254E-01 1.73844E+00 8.71726E-04
 -1       413-1.00563E-01 1.74024E+00-3.08645E-04
 -1       414-2.61607E-01 1.73281E+00 3.68682E-04
 -1       415-2.08545E-01 1.73517E+00 1.84965E-04
 -1       416-8.95927E-02 1.74074E+00 8.99425E-04
 -1       417-2.61170E-01 1.73280E+00-9.00410E-04
 -1       418-8.95982E-02 1.74075E+00-9.11713E-04
 -1       419-2.61581E-01 1.73278E+00 8.91150E-04
 -1       420-1.50051E-01 1.73787E+00 2.81031E-04
 -1       421-6.47198E-02 1.74197E+00 7.90760E-04
 -1       422-6.47545E-02 1.74195E+00 1.15980E-03
 -1       423-9.86905E-02 1.74028E+00 1.17452E-03
 -1       424-6.47531E-02 1.74195E+00-1.17066E-03
 -1       425-6.47199E-02 1.74197E+00-8.00878E-04
 -1       426-9.86950E-02 1.74028E+00-1.18430E-03
 -1       427-2.52268E-01 1.73317E+00 1.13630E-03
 -1       428-2.86228E-01 1.73168E+00 1.15081E-03
 -1       429-2.86265E-01 1.73170E+00 8.09716E-04
 -1       430-2.86062E-01 1.73170E+00-8.21348E-04
 -1       431-2.86026E-01 1.73169E+00-1.16143E-03
 -1       432-2.52064E-01 1.73318E+00-1.14741E-03
 -1       433-7.02180E-02 1.74171E+00-5.05609E-04
 -1       434-7.02128E-02 1.74172E+00-1.53954E-04
 -1       435-9.50789E-02 1.74049E+00-6.08918E-04
 -1       436-6.66963E-02 1.74189E+00 1.90552E-04
 -1       437-6.67075E-02 1.74188E+00 5.41318E-04
 -1       438-9.70559E-02 1.74041E+00 4.15461E-05
 -1       439-9.15709E-02 1.74066E+00 6.45225E-04
 -1       440-1.22521E-01 1.73912E+00 1.16070E-03
 -1       441-1.56320E-01 1.73751E+00 1.14685E-03
 -1       442-1.13442E-01 1.73959E+00 8.89567E-04
 -1       443-1.91190E-01 1.73590E+00 1.08796E-03
 -1       444-2.24999E-01 1.73438E+00 1.07531E-03
 -1       445-1.72147E-01 1.73680E+00 8.18990E-04
 -1       446-2.34286E-01 1.73399E+00 8.26050E-04
 -1       447-2.79626E-01 1.73201E+00-1.59636E-04
 -1       448-2.79621E-01 1.73200E+00-5.18263E-04
 -1       449-2.54750E-01 1.73310E+00-6.04996E-04
 -1       450-2.86275E-01 1.73171E+00 5.43521E-04
 -1       451-2.86288E-01 1.73171E+00 1.83656E-04
 -1       452-2.54969E-01 1.73310E+00 3.04319E-05
 -1       453-2.61597E-01 1.73279E+00 6.31342E-04
 -1       454-1.58543E-01 1.73741E+00-1.13310E-03
 -1       455-1.24744E-01 1.73902E+00-1.14433E-03
 -1       456-1.15668E-01 1.73948E+00-8.75476E-04
 -1       457-2.24759E-01 1.73439E+00-1.10750E-03
 -1       458-1.90951E-01 1.73591E+00-1.12043E-03
 -1       459-1.74132E-01 1.73671E+00-8.26606E-04
 -1       460-2.33843E-01 1.73401E+00-8.56755E-04
 -1       461-1.43649E-01 1.73815E+00 5.74327E-04
 -1       462-1.78544E-01 1.73652E+00 5.23928E-04
 -1       463-2.07792E-01 1.73519E+00 4.77419E-04
 -1       464-2.35059E-01 1.73398E+00 2.76103E-04
 -1       465-2.34301E-01 1.73400E+00 5.67070E-04
 -1       466-1.79293E-01 1.73651E+00 2.31781E-04
 -1       467-1.90550E-01 1.73597E+00-5.48880E-04
 -1       468-1.58122E-01 1.73747E+00-5.52579E-04
 -1       469-2.27434E-01 1.73431E+00-5.63858E-04
 -1       470-2.11413E-01 1.73504E+00-2.89621E-04
 -1       471-1.15415E-01 1.73950E+00 6.32461E-04
 -1       472-1.21818E-01 1.73921E+00 3.37218E-04
 -1       473-1.25318E-01 1.73905E+00-1.55721E-05
 -1       474-1.37573E-01 1.73846E+00-2.93892E-04
 -1       475-1.21139E-01 1.73923E+00-5.70268E-04
 -1       476-2.28428E-01 1.73428E+00-5.96790E-05
 -1       477-1.91543E-01 1.73594E+00-4.57526E-05
 -1       478-1.62298E-01 1.73730E+00 2.85210E-06
 -1       479 1.87971E-02 9.34512E-01 1.43921E-05
 -1       480 1.20977E-03 1.23078E+00-2.49055E-04
 -1       481-2.23367E-02 1.54284E+00 5.24029E-04
 -1       482 2.97775E-02 6.64886E-01 2.57933E-04
 -1       483 2.51335E-02 7.95764E-01-1.46836E-04
 -1       484 1.07880E-02 1.07993E+00 1.06683E-04
 -1       485-9.89274E-03 1.38579E+00 3.75557E-04
 -1       486 3.27219E-02 5.43020E-01-3.74353E-04
 -1       487 1.83702E-02 5.56266E-02 8.38273E-04
 -1       488 2.39376E-02 1.03746E-01 7.85329E-04
 -1       489 1.19961E-02 2.22267E-02-8.59179E-04
 -1       490 3.17499E-02 2.41862E-01 6.50985E-04
 -1       491 3.40091E-02 3.79213E-01 5.21779E-04
 -1       492 2.84667E-02 1.66018E-01 7.23996E-04
 -1       493 4.81921E-03 3.66019E-03-7.13610E-04
 -1       494 8.56121E-03 1.11349E-02 8.37279E-04
 -1       495-2.94677E-02 1.62698E+00-5.86680E-04
 -1       496 3.35540E-02 4.85799E-01 4.22394E-04
 -1       497-1.59882E-02 1.46444E+00-4.53182E-04
 -1       498 2.12730E-02 7.78923E-02-8.13031E-04
 -1       499 3.28693E-02 2.84643E-01-6.13809E-04
 -1       500 3.39883E-02 4.31053E-01-4.84786E-04
 -1       501 2.63401E-02 1.33144E-01-7.58454E-04
 -1       502 3.02742E-02 2.02286E-01-6.91150E-04
 -1       503 2.20477E-03 1.10849E-03 2.17350E-04
 -1       504-3.46877E-02 1.68665E+00 2.99831E-04
 -1       505 1.87967E-02 9.34511E-01-2.22698E-05
 -1       506 1.20946E-03 1.23078E+00 2.40673E-04
 -1       507 2.97780E-02 6.64889E-01-2.63784E-04
 -1       508 2.51213E-02 7.95763E-01 1.39466E-04
 -1       509 1.07988E-02 1.07993E+00-1.15259E-04
 -1       510 8.54709E-03 1.10919E-02-8.42195E-04
 -1       511 1.19770E-02 2.21643E-02 8.61448E-04
 -1       512 1.52629E-02 3.70297E-02 8.58018E-04
 -1       513 1.68275E-02 4.62423E-02-2.95990E-06
 -1       514-2.24316E-02 1.54398E+00-5.26291E-04
 -1       515 1.50013E-02 1.00646E+00-4.88745E-05
 -1       516 1.50026E-02 1.00647E+00 4.18969E-05
 -1       517 3.35626E-02 4.85782E-01-4.29676E-04
 -1       518 3.27189E-02 5.43018E-01 3.69422E-04
 -1       519 2.76621E-02 7.29272E-01-2.06291E-04
 -1       520 2.76715E-02 7.29277E-01 1.98973E-04
 -1       521 2.63388E-02 1.33145E-01 7.55574E-04
 -1       522 3.28681E-02 2.84646E-01 6.09133E-04
 -1       523 3.36356E-02 3.30498E-01 5.69821E-04
 -1       524 3.38471E-02 3.54441E-01-8.70066E-06
 -1       525 3.17535E-02 2.41862E-01-6.53535E-04
 -1       526 6.20016E-03 1.15475E+00 1.72036E-04
 -1       527 6.20162E-03 1.15476E+00-1.81877E-04
 -1       528 3.39918E-02 4.30950E-01 4.76575E-04
 -1       529-1.59791E-02 1.46445E+00 4.44556E-04
 -1       530-9.89163E-03 1.38579E+00-3.87291E-04
 -1       531 2.84652E-02 1.66016E-01-7.26624E-04
 -1       532 2.39393E-02 1.03746E-01-7.86641E-04
 -1       533-4.15445E-03 1.30784E+00-3.17531E-04
 -1       534 2.12686E-02 7.78886E-02 8.14707E-04
 -1       535-4.15983E-03 1.30784E+00 3.07470E-04
 -1       536 3.14499E-02 6.02759E-01 3.13464E-04
 -1       537 3.02756E-02 2.02287E-01 6.89266E-04
 -1       538 3.14604E-02 6.02759E-01-3.19365E-04
 -1       539 2.21729E-02 8.64226E-01 7.71376E-05
 -1       540 2.21753E-02 8.64227E-01-8.49180E-05
 -1       541 6.97531E-03 7.73720E-03 6.55647E-06
 -1       542 1.02963E-02 1.65774E-02-8.10358E-07
 -1       543 1.84286E-02 5.60217E-02-8.49527E-04
 -1       544 2.30580E-03 1.17152E-03-2.35449E-04
 -1       545 3.36336E-02 3.30447E-01-5.82220E-04
 -1       546 3.40295E-02 4.05079E-01-6.61293E-06
 -1       547-2.53799E-02 1.57923E+00 3.23575E-07
 -1       548 1.52069E-02 3.67296E-02-8.68240E-04
 -1       549-1.91325E-02 1.50387E+00-5.43328E-06
 -1       550 1.98349E-02 6.66931E-02-8.43133E-07
 -1       551 3.73907E-03 1.19275E+00-5.48865E-06
 -1       552 8.53803E-03 1.11732E+00-7.80080E-07
 -1       553 2.36933E-02 8.29961E-01-4.88444E-06
 -1       554-1.43907E-03 1.26930E+00-6.95777E-06
 -1       555 3.06472E-02 6.33773E-01-2.59803E-06
 -1       556 2.05222E-02 8.99336E-01-2.55100E-06
 -1       557 2.64300E-02 7.62477E-01-4.00826E-06
 -1       558 2.87589E-02 6.97033E-01-3.74831E-06
 -1       559-1.29027E-02 1.42511E+00-4.94838E-06
 -1       560-6.98487E-03 1.34681E+00-5.33625E-06
 -1       561 1.29370E-02 1.04317E+00-4.06263E-06
 -1       562 3.21285E-02 5.72836E-01-1.73524E-06
 -1       563 3.38058E-02 4.58347E-01-4.18830E-06
 -1       564 2.26236E-02 9.07406E-02-1.31404E-06
 -1       565 2.51628E-02 1.18367E-01 3.31965E-07
 -1       566 2.93929E-02 1.84079E-01-1.84344E-06
 -1       567 3.10381E-02 2.22002E-01-2.12641E-06
 -1       568 2.74266E-02 1.49507E-01-3.56386E-08
 -1       569 3.23418E-02 2.63184E-01 9.92204E-09
 -1       570 1.69358E-02 9.70456E-01-3.95298E-06
 -1       571 3.31741E-02 5.14357E-01-5.74797E-06
 -1       572 3.32840E-02 3.07527E-01-2.98540E-07
 -1       573 3.40110E-02 3.79272E-01-5.36649E-04
 -1       574 1.36199E-02 2.94637E-02 2.60247E-07
 -1       575-3.44683E-02 1.68424E+00-3.28253E-04
 -1       576 4.82813E-03 3.67871E-03 7.11648E-04
 -1       577-2.94319E-02 1.62660E+00 5.76996E-04
 -1       578 4.22817E-03 3.10905E-03-3.78677E-06
 -1       579 1.89764E-03 7.00096E-04-6.19127E-04
 -1       580 1.87900E-03 6.93814E-04 6.13427E-04
 -1       581-3.51890E-02 1.69206E+00-8.50443E-04
 -1       582-3.52196E-02 1.69247E+00 8.37473E-04
 -1       583-3.06542E-02 1.64072E+00-7.49383E-06
 -1       584 8.50819E-04 3.69439E-04-3.00249E-04
 -1       585 8.35769E-04 1.91278E-04-4.74046E-04
 -1       586 2.53620E-03 8.02405E-04-1.00813E-03
 -1       587 8.27441E-04 1.91045E-04 4.68829E-04
 -1       588 8.43308E-04 3.66911E-04 2.96548E-04
 -1       589 2.52620E-03 7.98966E-04 1.00468E-03
 -1       590-3.74994E-02 1.71777E+00 1.10300E-03
 -1       591-3.74812E-02 1.71780E+00 7.67340E-04
 -1       592-3.39399E-02 1.67777E+00 1.04917E-03
 -1       593-3.74628E-02 1.71759E+00-7.79304E-04
 -1       594-3.74821E-02 1.71756E+00-1.11538E-03
 -1       595-3.39228E-02 1.67757E+00-1.06067E-03
 -1       596 9.89229E-04 4.51456E-04 1.91492E-04
 -1       597 1.00894E-03 4.73821E-04 6.94817E-05
 -1       598 2.04493E-03 9.24837E-04 4.08514E-04
 -1       599 1.06687E-03 5.41417E-04-6.68277E-05
 -1       600 1.03357E-03 4.72342E-04-2.04328E-04
 -1       601 2.26817E-03 1.18542E-03-8.01160E-06
 -1       602 2.10299E-03 9.55476E-04-4.21948E-04
 -1       603-3.70985E-02 1.71368E+00-1.72543E-04
 -1       604-3.71032E-02 1.71367E+00-5.08028E-04
 -1       605-3.48257E-02 1.68815E+00-5.87615E-04
 -1       606-3.72096E-02 1.71488E+00 4.88058E-04
 -1       607-3.72100E-02 1.71489E+00 1.53158E-04
 -1       608-3.45766E-02 1.68545E+00-1.43368E-05
 -1       609-3.49497E-02 1.68956E+00 5.67409E-04
 -1       610 5.81202E-03 4.76869E-03 1.20634E-03
 -1       611 3.98783E-03 2.24168E-03 1.07156E-03
 -1       612 3.33680E-03 1.83161E-03 7.06914E-04
 -1       613 9.44257E-03 1.30569E-02 1.30348E-03
 -1       614 7.68266E-03 8.47695E-03 1.27487E-03
 -1       615 6.70908E-03 6.87067E-03 7.87111E-04
 -1       616 1.28294E-02 2.50529E-02 1.31183E-03
 -1       617 1.11523E-02 1.85677E-02 1.31362E-03
 -1       618 1.02857E-02 1.61790E-02 8.54528E-04
 -1       619 1.60708E-02 4.08496E-02 1.29399E-03
 -1       620 1.44731E-02 3.24893E-02 1.30615E-03
 -1       621 1.36402E-02 2.91279E-02 8.61745E-04
 -1       622 1.91273E-02 6.03641E-02 1.26293E-03
 -1       623 1.76254E-02 5.01545E-02 1.27973E-03
 -1       624 1.68381E-02 4.58643E-02 8.48964E-04
 -1       625 2.19734E-02 8.35324E-02 1.22709E-03
 -1       626 2.05775E-02 7.15004E-02 1.24485E-03
 -1       627 1.98465E-02 6.63022E-02 8.26119E-04
 -1       628 2.45798E-02 1.10289E-01 1.18390E-03
 -1       629 2.33081E-02 9.64670E-02 1.20630E-03
 -1       630 2.26328E-02 9.03711E-02 8.00426E-04
 -1       631 2.69147E-02 1.40574E-01 1.14043E-03
 -1       632 2.57829E-02 1.24995E-01 1.16172E-03
 -1       633 2.51707E-02 1.18007E-01 7.69708E-04
 -1       634 2.89634E-02 1.74314E-01 1.09001E-03
 -1       635 2.79786E-02 1.57015E-01 1.11617E-03
 -1       636 2.74403E-02 1.49152E-01 7.40646E-04
 -1       637 3.06923E-02 2.11429E-01 1.03383E-03
 -1       638 2.98682E-02 1.92455E-01 1.06372E-03
 -1       639 2.94098E-02 1.83735E-01 7.06706E-04
 -1       640 3.20828E-02 2.51828E-01 9.74488E-04
 -1       641 3.14311E-02 2.31224E-01 1.00547E-03
 -1       642 3.10525E-02 2.21666E-01 6.69134E-04
 -1       643 3.31136E-02 2.95412E-01 9.13990E-04
 -1       644 3.26446E-02 2.73228E-01 9.43400E-04
 -1       645 3.23515E-02 2.62858E-01 6.28934E-04
 -1       646 3.37829E-02 3.42062E-01 8.48023E-04
 -1       647 3.34968E-02 3.18346E-01 8.82884E-04
 -1       648 3.32993E-02 3.07190E-01 5.90767E-04
 -1       649 3.40572E-02 3.91618E-01 7.75323E-04
 -1       650 3.39692E-02 3.66431E-01 8.13170E-04
 -1       651 3.38664E-02 3.54491E-01 5.47515E-04
 -1       652 3.39362E-02 4.44104E-01 7.01944E-04
 -1       653 3.40483E-02 4.17498E-01 7.40744E-04
 -1       654 3.40486E-02 4.04726E-01 4.99404E-04
 -1       655 3.34037E-02 4.99504E-01 6.23344E-04
 -1       656 3.37168E-02 4.71540E-01 6.61051E-04
 -1       657 3.38243E-02 4.58034E-01 4.48734E-04
 -1       658 3.24599E-02 5.57382E-01 5.40724E-04
 -1       659 3.29839E-02 5.28125E-01 5.84288E-04
 -1       660 3.31860E-02 5.14088E-01 3.96252E-04
 -1       661 3.10871E-02 6.17750E-01 4.60438E-04
 -1       662 3.18276E-02 5.87264E-01 4.99367E-04
 -1       663 3.21337E-02 5.72582E-01 3.39605E-04
 -1       664 2.93031E-02 6.80472E-01 3.71573E-04
 -1       665 3.02496E-02 6.48823E-01 4.17684E-04
 -1       666 3.06678E-02 6.33532E-01 2.87148E-04
 -1       667 2.70830E-02 7.45422E-01 2.80130E-04
 -1       668 2.82492E-02 7.12679E-01 3.28602E-04
 -1       669 2.87728E-02 6.96804E-01 2.28192E-04
 -1       670 2.44396E-02 8.12437E-01 1.91699E-04
 -1       671 2.58095E-02 7.78676E-01 2.34479E-04
 -1       672 2.64493E-02 7.62265E-01 1.68062E-04
 -1       673 2.13742E-02 8.81388E-01 9.71772E-05
 -1       674 2.29613E-02 8.46680E-01 1.45243E-04
 -1       675 2.36956E-02 8.29758E-01 1.10490E-04
 -1       676 1.78906E-02 9.52124E-01-1.01281E-06
 -1       677 1.96852E-02 9.16542E-01 5.01264E-05
 -1       678 2.05344E-02 8.99153E-01 4.64518E-05
 -1       679 1.39937E-02 1.02449E+00-9.81065E-05
 -1       680 1.59917E-02 9.88111E-01-4.88780E-05
 -1       681 1.69476E-02 9.70287E-01-1.75886E-05
 -1       682 9.68749E-03 1.09833E+00-1.98585E-04
 -1       683 1.18902E-02 1.06124E+00-1.46434E-04
 -1       684 1.29455E-02 1.04302E+00-8.19493E-05
 -1       685 4.98678E-03 1.17349E+00-3.00151E-04
 -1       686 7.38721E-03 1.13576E+00-2.48374E-04
 -1       687 8.54781E-03 1.11718E+00-1.48442E-04
 -1       688-1.01797E-04 1.24981E+00-4.01569E-04
 -1       689 2.48951E-03 1.21152E+00-3.50715E-04
 -1       690 3.75134E-03 1.19263E+00-2.16202E-04
 -1       691-5.55964E-03 1.32714E+00-5.07093E-04
 -1       692-2.78575E-03 1.28836E+00-4.52512E-04
 -1       693-1.42914E-03 1.26919E+00-2.82882E-04
 -1       694-1.13905E-02 1.40530E+00-6.13281E-04
 -1       695-8.43077E-03 1.36612E+00-5.57715E-04
 -1       696-6.98442E-03 1.34672E+00-3.52066E-04
 -1       697-1.75653E-02 1.48413E+00-7.14904E-04
 -1       698-1.44400E-02 1.44464E+00-6.64931E-04
 -1       699-1.28964E-02 1.42504E+00-4.22255E-04
 -1       700-2.40849E-02 1.56364E+00-8.22649E-04
 -1       701-2.07914E-02 1.52391E+00-7.67760E-04
 -1       702-1.91720E-02 1.50416E+00-4.89920E-04
 -1       703-3.10522E-02 1.64502E+00-9.17241E-04
 -1       704-2.76033E-02 1.60514E+00-8.69393E-04
 -1       705-2.59137E-02 1.58544E+00-5.59141E-04
 -1       706-3.23065E-02 1.65950E+00-7.13708E-04
 -1       707 3.98314E-03 2.23382E-03-1.07198E-03
 -1       708 5.80662E-03 4.75835E-03-1.20689E-03
 -1       709 3.34186E-03 1.83064E-03-7.10265E-04
 -1       710 7.67536E-03 8.45716E-03-1.27700E-03
 -1       711 9.43542E-03 1.30326E-02-1.30545E-03
 -1       712 6.69682E-03 6.84263E-03-7.89007E-04
 -1       713 1.11612E-02 1.85967E-02-1.31309E-03
 -1       714 1.28393E-02 2.50871E-02-1.31083E-03
 -1       715 1.02902E-02 1.61814E-02-8.55978E-04
 -1       716 1.44449E-02 3.23456E-02-1.31114E-03
 -1       717 1.60434E-02 4.06899E-02-1.29956E-03
 -1       718 1.36203E-02 2.90308E-02-8.65401E-04
 -1       719 1.76547E-02 5.03404E-02-1.28576E-03
 -1       720 1.91569E-02 6.05674E-02-1.26974E-03
 -1       721 1.68417E-02 4.58796E-02-8.59689E-04
 -1       722 2.05801E-02 7.15018E-02-1.24581E-03
 -1       723 2.19756E-02 8.35345E-02-1.22707E-03
 -1       724 1.98766E-02 6.65193E-02-8.31245E-04
 -1       725 2.33093E-02 9.64669E-02-1.20801E-03
 -1       726 2.45797E-02 1.10290E-01-1.18613E-03
 -1       727 2.26350E-02 9.03735E-02-8.00351E-04
 -1       728 2.57815E-02 1.24994E-01-1.16413E-03
 -1       729 2.69177E-02 1.40573E-01-1.14257E-03
 -1       730 2.51744E-02 1.18007E-01-7.72283E-04
 -1       731 2.79793E-02 1.57016E-01-1.11874E-03
 -1       732 2.89644E-02 1.74313E-01-1.09191E-03
 -1       733 2.74376E-02 1.49151E-01-7.43923E-04
 -1       734 2.98687E-02 1.92455E-01-1.06597E-03
 -1       735 3.06920E-02 2.11428E-01-1.03726E-03
 -1       736 2.94077E-02 1.83735E-01-7.09237E-04
 -1       737 3.14318E-02 2.31223E-01-1.00898E-03
 -1       738 3.20831E-02 2.51829E-01-9.78146E-04
 -1       739 3.10556E-02 2.21665E-01-6.72545E-04
 -1       740 3.26422E-02 2.73226E-01-9.47269E-04
 -1       741 3.31175E-02 2.95412E-01-9.17654E-04
 -1       742 3.23565E-02 2.62858E-01-6.33171E-04
 -1       743 3.34975E-02 3.18319E-01-8.91302E-04
 -1       744 3.37806E-02 3.42034E-01-8.56830E-04
 -1       745 3.32952E-02 3.07164E-01-6.00055E-04
 -1       746 3.39691E-02 3.66456E-01-8.22638E-04
 -1       747 3.40583E-02 3.91644E-01-7.84588E-04
 -1       748 3.38690E-02 3.54493E-01-5.60021E-04
 -1       749 3.40471E-02 4.17547E-01-7.46946E-04
 -1       750 3.39377E-02 4.44153E-01-7.10670E-04
 -1       751 3.40476E-02 4.04807E-01-5.10647E-04
 -1       752 3.37232E-02 4.71530E-01-6.71062E-04
 -1       753 3.34050E-02 4.99494E-01-6.29386E-04
 -1       754 3.38224E-02 4.58078E-01-4.58997E-04
 -1       755 3.29849E-02 5.28123E-01-5.88431E-04
 -1       756 3.24586E-02 5.57383E-01-5.47259E-04
 -1       757 3.31927E-02 5.14076E-01-4.02478E-04
 -1       758 3.18279E-02 5.87262E-01-5.06623E-04
 -1       759 3.10923E-02 6.17750E-01-4.64951E-04
 -1       760 3.21416E-02 5.72581E-01-3.46736E-04
 -1       761 3.02499E-02 6.48825E-01-4.22367E-04
 -1       762 2.93020E-02 6.80474E-01-3.76122E-04
 -1       763 3.06712E-02 6.33534E-01-2.92109E-04
 -1       764 2.82456E-02 7.12677E-01-3.33252E-04
 -1       765 2.70809E-02 7.45417E-01-2.89813E-04
 -1       766 2.87685E-02 6.96806E-01-2.32996E-04
 -1       767 2.58154E-02 7.78674E-01-2.44431E-04
 -1       768 2.44407E-02 8.12436E-01-1.98047E-04
 -1       769 2.64505E-02 7.62262E-01-1.76218E-04
 -1       770 2.29607E-02 8.46679E-01-1.52283E-04
 -1       771 2.13758E-02 8.81388E-01-1.04406E-04
 -1       772 2.37042E-02 8.29761E-01-1.16475E-04
 -1       773 1.96850E-02 9.16541E-01-5.72236E-05
 -1       774 1.78928E-02 9.52123E-01-5.97306E-06
 -1       775 2.05356E-02 8.99153E-01-5.37450E-05
 -1       776 1.59954E-02 9.88114E-01 4.14193E-05
 -1       777 1.39922E-02 1.02449E+00 9.15358E-05
 -1       778 1.69455E-02 9.70287E-01 1.18804E-05
 -1       779 1.18843E-02 1.06123E+00 1.41462E-04
 -1       780 9.68725E-03 1.09833E+00 1.87302E-04
 -1       781 1.29464E-02 1.04302E+00 7.50539E-05
 -1       782 7.38828E-03 1.13575E+00 2.36662E-04
 -1       783 4.98949E-03 1.17349E+00 2.91545E-04
 -1       784 8.53891E-03 1.11718E+00 1.36837E-04
 -1       785 2.49317E-03 1.21152E+00 3.42047E-04
 -1       786-1.00561E-04 1.24982E+00 3.92998E-04
 -1       787 3.74701E-03 1.19263E+00 2.07881E-04
 -1       788-2.78744E-03 1.28836E+00 4.44314E-04
 -1       789-5.56153E-03 1.32714E+00 4.96477E-04
 -1       790-1.42928E-03 1.26919E+00 2.73594E-04
 -1       791-8.43132E-03 1.36612E+00 5.46256E-04
 -1       792-1.13890E-02 1.40530E+00 6.01068E-04
 -1       793-6.98676E-03 1.34672E+00 3.40831E-04
 -1       794-1.44332E-02 1.44464E+00 6.53199E-04
 -1       795-1.75614E-02 1.48413E+00 7.04524E-04
 -1       796-1.28931E-02 1.42504E+00 4.10936E-04
 -1       797-2.07424E-02 1.52334E+00 7.60384E-04
 -1       798-2.40378E-02 1.56306E+00 8.14567E-04
 -1       799-1.91234E-02 1.50358E+00 4.82092E-04
 -1       800-2.75866E-02 1.60495E+00 8.57237E-04
 -1       801-3.10352E-02 1.64483E+00 9.06706E-04
 -1       802-2.58471E-02 1.58467E+00 5.51114E-04
 -1       803-3.23047E-02 1.65951E+00 7.02285E-04
 -1       804 1.59784E-02 9.88451E-01-1.92199E-05
 -1       805 1.78761E-02 9.52478E-01-1.99141E-06
 -1       806 1.96691E-02 9.16914E-01 1.24417E-05
 -1       807 2.13576E-02 8.81773E-01 3.03759E-05
 -1       808 1.87767E-02 9.34686E-01-3.84115E-06
 -1       809 2.48526E-03 1.21175E+00-1.18969E-04
 -1       810 4.98113E-03 1.17375E+00-1.01499E-04
 -1       811-2.78590E-03 1.28856E+00-1.53766E-04
 -1       812-1.04378E-04 1.25004E+00-1.34376E-04
 -1       813 1.18959E-03 1.23089E+00-2.97357E-06
 -1       814-1.75476E-02 1.48416E+00 2.25822E-04
 -1       815-2.07253E-02 1.52335E+00 2.51843E-04
 -1       816-2.38494E-02 1.56104E+00 2.68913E-04
 -1       817-2.22256E-02 1.54150E+00-2.12287E-06
 -1       818-2.73927E-02 1.60291E+00 2.81142E-04
 -1       819 2.82239E-02 7.13142E-01 1.02947E-04
 -1       820 2.92771E-02 6.80950E-01 1.20969E-04
 -1       821 3.02247E-02 6.49317E-01 1.34817E-04
 -1       822 3.10620E-02 6.18257E-01 1.48334E-04
 -1       823 2.97534E-02 6.65121E-01-2.70306E-06
 -1       824 2.70589E-02 7.45865E-01-9.75361E-05
 -1       825 2.57932E-02 7.79108E-01-8.24727E-05
 -1       826 2.44213E-02 8.12855E-01-6.98311E-05
 -1       827 2.29425E-02 8.47083E-01-5.13776E-05
 -1       828 2.51073E-02 7.95971E-01-3.98360E-06
 -1       829 1.39811E-02 1.02481E+00 2.73849E-05
 -1       830 1.18760E-02 1.06154E+00 4.27610E-05
 -1       831 9.67169E-03 1.09862E+00 5.79074E-05
 -1       832 7.37902E-03 1.13603E+00 7.71240E-05
 -1       833 1.07823E-02 1.08007E+00-5.43294E-06
 -1       834-1.13842E-02 1.40545E+00 1.93445E-04
 -1       835-1.44276E-02 1.44477E+00 2.11414E-04
 -1       836-5.56415E-03 1.32732E+00 1.57138E-04
 -1       837-8.42929E-03 1.36629E+00 1.77496E-04
 -1       838-9.90354E-03 1.38587E+00-5.57400E-06
 -1       839 3.33770E-02 5.00058E-01-2.11009E-04
 -1       840 3.29567E-02 5.28672E-01-1.95109E-04
 -1       841 3.24319E-02 5.57917E-01-1.82141E-04
 -1       842 3.18019E-02 5.87783E-01-1.65771E-04
 -1       843 3.26992E-02 5.43282E-01-2.50592E-06
 -1       844 1.76017E-02 5.09151E-02 4.18936E-04
 -1       845 1.60485E-02 4.16181E-02 4.25216E-04
 -1       846 1.91072E-02 6.11410E-02 4.15377E-04
 -1       847 1.83556E-02 5.60082E-02-2.20622E-06
 -1       848 2.05567E-02 7.22717E-02 4.09210E-04
 -1       849 2.57552E-02 1.25737E-01 3.79952E-04
 -1       850 2.45550E-02 1.11039E-01 3.88805E-04
 -1       851 2.32848E-02 9.72233E-02 3.94615E-04
 -1       852 2.19496E-02 8.42965E-02 4.04508E-04
 -1       853 2.39237E-02 1.04111E-01-5.56127E-07
 -1       854 9.42795E-03 1.38060E-02-4.22776E-04
 -1       855 1.11486E-02 1.93819E-02-4.27637E-04
 -1       856 1.19743E-02 2.25609E-02-4.40371E-07
 -1       857 1.28117E-02 2.58279E-02-4.27914E-04
 -1       858 1.44161E-02 3.30862E-02-4.34371E-04
 -1       859 3.26109E-02 2.73897E-01 3.07476E-04
 -1       860 3.20523E-02 2.52507E-01 3.20153E-04
 -1       861 3.14006E-02 2.31914E-01 3.28117E-04
 -1       862 3.06629E-02 2.12128E-01 3.38981E-04
 -1       863 3.17308E-02 2.42193E-01-9.98799E-07
 -1       864 3.39357E-02 3.66811E-01 2.61627E-04
 -1       865 3.37482E-02 3.42461E-01 2.76024E-04
 -1       866 3.40272E-02 3.92134E-01 2.51646E-04
 -1       867 3.39851E-02 3.79394E-01-7.97416E-06
 -1       868 3.40185E-02 4.18001E-01 2.39738E-04
 -1       869 2.79520E-02 1.57742E-01 3.65168E-04
 -1       870 2.68893E-02 1.41308E-01 3.73265E-04
 -1       871 2.98401E-02 1.93164E-01 3.47245E-04
 -1       872 2.89358E-02 1.75032E-01 3.57183E-04
 -1       873 2.84461E-02 1.66368E-01-7.23804E-07
 -1       874 5.90810E-03 5.59201E-03-3.58207E-04
 -1       875 7.76741E-03 9.42054E-03-4.05972E-04
 -1       876 4.52695E-03 3.44700E-03-3.34912E-04
 -1       877 5.60913E-03 5.13226E-03 8.71546E-07
 -1       878 3.54517E-03 2.20303E-03-4.59608E-04
 -1       879 3.26282E-03 2.00584E-03-1.41113E-04
 -1       880 1.11385E-02 1.93532E-02 4.28483E-04
 -1       881 9.43396E-03 1.38273E-02 4.19856E-04
 -1       882 7.77373E-03 9.43550E-03 4.10417E-04
 -1       883 8.65107E-03 1.17316E-02 2.74500E-06
 -1       884 5.91220E-03 5.60055E-03 3.64537E-04
 -1       885-2.74093E-02 1.60310E+00-2.85122E-04
 -1       886-2.38967E-02 1.56161E+00-2.70083E-04
 -1       887-3.00584E-02 1.63386E+00-2.99841E-04
 -1       888-2.79984E-02 1.60996E+00-3.12634E-06
 -1       889-3.19535E-02 1.65560E+00-4.62244E-04
 -1       890-3.25519E-02 1.66247E+00-1.63945E-04
 -1       891 3.29555E-02 5.28673E-01 1.88284E-04
 -1       892 3.33712E-02 5.00066E-01 2.04163E-04
 -1       893 3.36903E-02 4.72058E-01 2.15255E-04
 -1       894 3.39079E-02 4.44637E-01 2.29596E-04
 -1       895 3.35378E-02 4.86018E-01-2.57840E-06
 -1       896-2.07725E-02 1.52392E+00-2.58492E-04
 -1       897-1.75520E-02 1.48415E+00-2.35023E-04
 -1       898-1.44307E-02 1.44477E+00-2.21115E-04
 -1       899-1.13834E-02 1.40545E+00-2.04969E-04
 -1       900-1.59838E-02 1.46442E+00-4.80621E-06
 -1       901 2.19519E-02 8.42982E-02-4.04292E-04
 -1       902 2.32853E-02 9.72236E-02-3.96194E-04
 -1       903 1.91361E-02 6.13498E-02-4.22223E-04
 -1       904 2.05582E-02 7.22722E-02-4.09141E-04
 -1       905 2.12550E-02 7.82657E-02-8.61103E-07
 -1       906 3.20539E-02 2.52508E-01-3.22090E-04
 -1       907 3.26135E-02 2.73896E-01-3.12201E-04
 -1       908 3.30827E-02 2.96070E-01-3.03738E-04
 -1       909 3.34652E-02 3.18974E-01-2.96250E-04
 -1       910 3.28536E-02 2.84967E-01-2.46379E-06
 -1       911 3.39053E-02 4.44688E-01-2.39391E-04
 -1       912 3.36925E-02 4.72049E-01-2.22543E-04
 -1       913 3.40169E-02 4.18051E-01-2.51024E-04
 -1       914 3.39650E-02 4.31366E-01-6.22518E-06
 -1       915 3.40275E-02 3.92164E-01-2.66153E-04
 -1       916 2.68880E-02 1.41307E-01-3.76695E-04
 -1       917 2.79508E-02 1.57743E-01-3.66657E-04
 -1       918 2.45562E-02 1.11039E-01-3.89666E-04
 -1       919 2.57571E-02 1.25737E-01-3.82707E-04
 -1       920 2.63266E-02 1.33504E-01-1.48765E-06
 -1       921 3.06630E-02 2.12127E-01-3.41844E-04
 -1       922 3.14023E-02 2.31913E-01-3.31508E-04
 -1       923 2.89350E-02 1.75030E-01-3.60248E-04
 -1       924 2.98394E-02 1.93164E-01-3.49808E-04
 -1       925 3.02544E-02 2.02627E-01-1.32163E-06
 -1       926 3.21105E-03 1.95686E-03 1.25361E-04
 -1       927 3.49587E-03 2.16246E-03 4.47642E-04
 -1       928 4.53027E-03 3.45996E-03 3.29335E-04
 -1       929-3.26597E-02 1.66368E+00 1.41879E-04
 -1       930-3.20430E-02 1.65661E+00 4.44153E-04
 -1       931-3.00414E-02 1.63367E+00 2.87513E-04
 -1       932 1.78759E-02 9.52477E-01-5.45943E-06
 -1       933 1.59789E-02 9.88452E-01 1.31123E-05
 -1       934 2.13585E-02 8.81775E-01-3.70273E-05
 -1       935 1.96693E-02 9.16913E-01-1.96060E-05
 -1       936 4.98106E-03 1.17375E+00 9.12047E-05
 -1       937 2.48509E-03 1.21175E+00 1.11664E-04
 -1       938-1.03168E-04 1.25004E+00 1.26032E-04
 -1       939-2.78721E-03 1.28856E+00 1.42726E-04
 -1       940 2.92765E-02 6.80951E-01-1.26838E-04
 -1       941 2.82186E-02 7.13141E-01-1.09933E-04
 -1       942 3.10642E-02 6.18257E-01-1.54077E-04
 -1       943 3.02243E-02 6.49318E-01-1.39698E-04
 -1       944 2.57898E-02 7.79109E-01 7.52176E-05
 -1       945 2.70619E-02 7.45868E-01 8.98695E-05
 -1       946 2.29416E-02 8.47083E-01 4.30238E-05
 -1       947 2.44154E-02 8.12854E-01 6.25036E-05
 -1       948 1.18785E-02 1.06154E+00-5.27480E-05
 -1       949 1.39791E-02 1.02481E+00-3.30009E-05
 -1       950 7.38036E-03 1.13603E+00-8.49404E-05
 -1       951 9.67980E-03 1.09862E+00-6.65992E-05
 -1       952 1.44448E-02 3.32251E-02 4.29804E-04
 -1       953 1.28029E-02 2.57945E-02 4.29028E-04
 -1       954 1.52442E-02 3.73847E-02-1.58189E-06
 -1       955 1.76313E-02 5.11050E-02-4.28003E-04
 -1       956 1.60200E-02 4.14608E-02-4.33788E-04
 -1       957 1.49830E-02 1.00662E+00-2.67343E-06
 -1       958 3.17973E-02 5.87784E-01 1.60204E-04
 -1       959 3.24320E-02 5.57917E-01 1.77330E-04
 -1       960 2.76443E-02 7.29493E-01-3.71015E-06
 -1       961 3.34669E-02 3.18997E-01 2.89477E-04
 -1       962 3.30847E-02 2.96071E-01 2.98373E-04
 -1       963 3.36095E-02 3.30615E-01-4.40137E-06
 -1       964 3.37478E-02 3.42434E-01-2.90119E-04
 -1       965 3.39369E-02 3.66839E-01-2.77614E-04
 -1       966 6.18302E-03 1.15488E+00-4.73612E-06
 -1       967-8.42800E-03 1.36629E+00-1.89065E-04
 -1       968-5.56026E-03 1.32732E+00-1.68427E-04
 -1       969-4.17036E-03 1.30794E+00-5.81192E-06
 -1       970 3.14341E-02 6.03007E-01-2.51763E-06
 -1       971 2.21553E-02 8.64419E-01-4.16770E-06
 -1       972-2.21716E-01 9.24975E-01-1.41770E-03
 -1       973-2.58027E-01 1.21941E+00-1.15527E-03
 -1       974-2.91636E-01 1.53044E+00 8.87449E-04
 -1       975-1.83840E-01 6.57781E-01-1.66114E-03
 -1       976-2.02910E-01 7.87388E-01-1.54218E-03
 -1       977-2.40125E-01 1.06939E+00-1.28927E-03
 -1       978-2.75277E-01 1.37380E+00 1.00764E-03
 -1       979-1.64621E-01 5.37273E-01 1.77125E-03
 -1       980-5.01956E-02 5.72796E-02-2.26029E-03
 -1       981-6.89731E-02 1.04492E-01-2.19591E-03
 -1       982-3.15650E-02 2.45629E-02 2.29221E-03
 -1       983-1.06926E-01 2.40256E-01-2.05902E-03
 -1       984-1.35665E-01 3.75570E-01-1.93317E-03
 -1       985-8.78751E-02 1.65659E-01-2.13378E-03
 -1       986-1.26965E-02 6.29979E-03 2.05927E-03
 -1       987-2.22967E-02 1.37177E-02-2.29367E-03
 -1       988-2.99958E-01 1.61446E+00-8.02485E-04
 -1       989-2.30981E-01 9.96401E-01 1.34744E-03
 -1       990-1.54984E-01 4.80753E-01-1.82773E-03
 -1       991-2.83605E-01 1.45222E+00-9.49144E-04
 -1       992-1.93402E-01 7.21519E-01 1.59807E-03
 -1       993-2.49162E-01 1.14378E+00 1.21359E-03
 -1       994-2.12348E-01 8.55251E-01 1.47546E-03
 -1       995-5.95695E-02 7.91173E-02 2.22310E-03
 -1       996-1.16488E-01 2.82377E-01 2.01490E-03
 -1       997-1.45317E-01 4.26711E-01 1.90505E-03
 -1       998-7.83989E-02 1.33360E-01 2.16554E-03
 -1       999-9.73841E-02 2.01320E-01 2.09744E-03
 -1      1000-6.06146E-03 3.33879E-03-6.28104E-04
 -1      1001-3.05702E-01 1.67408E+00 3.58639E-04
 -1      1002-2.22618E-02 1.36771E-02 2.30852E-03
 -1      1003-3.15238E-02 2.45010E-02-2.29827E-03
 -1      1004-4.08475E-02 3.90550E-02-2.28797E-03
 -1      1005-4.55265E-02 4.80896E-02 8.18582E-06
 -1      1006-2.91749E-01 1.53159E+00-8.85137E-04
 -1      1007-2.30985E-01 9.96406E-01-1.35308E-03
 -1      1008-2.58036E-01 1.21941E+00 1.14526E-03
 -1      1009-1.83837E-01 6.57783E-01 1.65764E-03
 -1      1010-1.54972E-01 4.80733E-01 1.83817E-03
 -1      1011-1.64623E-01 5.37275E-01-1.77450E-03
 -1      1012-1.93395E-01 7.21518E-01-1.60376E-03
 -1      1013-1.74232E-01 5.96327E-01 1.71472E-03
 -1      1014-7.84012E-02 1.33358E-01-2.16710E-03
 -1      1015-1.16488E-01 2.82375E-01-2.01828E-03
 -1      1016-1.26084E-01 3.27551E-01-1.98761E-03
 -1      1017-1.30828E-01 3.51152E-01 1.95330E-05
 -1      1018-1.06921E-01 2.40257E-01 2.05806E-03
 -1      1019-2.02908E-01 7.87384E-01 1.53792E-03
 -1      1020-2.49158E-01 1.14377E+00-1.22306E-03
 -1      1021-1.45294E-01 4.26603E-01-1.89827E-03
 -1      1022-2.83609E-01 1.45223E+00 9.37401E-04
 -1      1023-2.75281E-01 1.37380E+00-1.01753E-03
 -1      1024-8.78776E-02 1.65659E-01 2.13307E-03
 -1      1025-6.89701E-02 1.04490E-01 2.19677E-03
 -1      1026-2.66747E-01 1.29613E+00-1.08513E-03
 -1      1027-2.21716E-01 9.24974E-01 1.41191E-03
 -1      1028-5.95727E-02 7.91164E-02-2.23004E-03
 -1      1029-1.74243E-01 5.96325E-01-1.72009E-03
 -1      1030-9.73829E-02 2.01320E-01-2.09795E-03
 -1      1031-2.66751E-01 1.29614E+00 1.07627E-03
 -1      1032-2.12352E-01 8.55254E-01-1.48137E-03
 -1      1033-2.40133E-01 1.06939E+00 1.28074E-03
 -1      1034-1.81084E-02 1.04291E-02-1.52213E-05
 -1      1035-2.69069E-02 1.90614E-02 7.02967E-07
 -1      1036-5.03828E-02 5.76691E-02 2.28736E-03
 -1      1037-6.37967E-03 3.45029E-03 6.87790E-04
 -1      1038-1.26077E-01 3.27496E-01 2.01263E-03
 -1      1039-1.40514E-01 4.01084E-01 1.55666E-05
 -1      1040-2.95276E-01 1.56678E+00 1.11934E-06
 -1      1041-4.06857E-02 3.87614E-02 2.31139E-03
 -1      1042-2.87679E-01 1.49155E+00-1.81100E-06
 -1      1043-5.49004E-02 6.81398E-02-4.94667E-07
 -1      1044-2.53629E-01 1.18157E+00-3.06233E-06
 -1      1045-2.62428E-01 1.25775E+00-8.34788E-06
 -1      1046-2.35589E-01 1.03286E+00-3.69507E-06
 -1      1047-2.79474E-01 1.41299E+00-5.37625E-06
 -1      1048-1.98181E-01 7.54405E-01-2.75919E-06
 -1      1049-1.69459E-01 5.66745E-01-7.08468E-08
 -1      1050-2.07653E-01 8.21278E-01-5.54847E-06
 -1      1051-2.17063E-01 8.90072E-01-3.80401E-06
 -1      1052-2.71050E-01 1.33495E+00-3.90140E-06
 -1      1053-2.44681E-01 1.10655E+00-2.10195E-07
 -1      1054-1.50168E-01 4.53650E-01 4.57050E-06
 -1      1055-6.42836E-02 9.17330E-02-1.07704E-06
 -1      1056-7.37034E-02 1.18853E-01 1.72896E-06
 -1      1057-1.79066E-01 6.27006E-01-7.52510E-07
 -1      1058-9.26459E-02 1.83422E-01-1.05668E-06
 -1      1059-1.02172E-01 2.20720E-01-1.14302E-06
 -1      1060-8.31557E-02 1.49441E-01 5.04454E-07
 -1      1061-1.88648E-01 6.89602E-01-8.57535E-07
 -1      1062-2.26380E-01 9.60651E-01-3.32453E-06
 -1      1063-1.11730E-01 2.61249E-01 1.29307E-06
 -1      1064-1.59828E-01 5.08959E-01-4.78860E-06
 -1      1065-1.21315E-01 3.04920E-01 5.73041E-07
 -1      1066-1.35683E-01 3.75629E-01 1.96754E-03
 -1      1067-3.61527E-02 3.16556E-02-1.02500E-06
 -1      1068-3.05481E-01 1.67166E+00-3.93557E-04
 -1      1069-1.27251E-02 6.31905E-03-2.05150E-03
 -1      1070-2.99921E-01 1.61408E+00 7.91230E-04
 -1      1071-1.10649E-02 5.75797E-03 7.40364E-06
 -1      1072-5.54144E-03 2.78296E-03 1.80555E-03
 -1      1073-5.50231E-03 2.81792E-03-1.77810E-03
 -1      1074-3.06199E-01 1.67949E+00-9.97790E-04
 -1      1075-3.06241E-01 1.67989E+00 9.80790E-04
 -1      1076-3.01293E-01 1.62819E+00-7.58365E-06
 -1      1077-2.75896E-03 1.55967E-03 1.34074E-03
 -1      1078-2.67914E-03 1.80224E-03 8.49435E-04
 -1      1079-7.36108E-03 3.02551E-03 2.88709E-03
 -1      1080-2.59974E-03 1.69701E-03-8.41230E-04
 -1      1081-2.74331E-03 1.54623E-03-1.31841E-03
 -1      1082-7.33559E-03 3.03826E-03-2.87482E-03
 -1      1083-3.08638E-01 1.70521E+00 8.45906E-04
 -1      1084-3.08615E-01 1.70519E+00 1.22026E-03
 -1      1085-3.04819E-01 1.66521E+00 1.27427E-03
 -1      1086-3.08597E-01 1.70498E+00-1.23499E-03
 -1      1087-3.08621E-01 1.70501E+00-8.60833E-04
 -1      1088-3.04800E-01 1.66501E+00-1.28879E-03
 -1      1089-2.89044E-03 1.93104E-03-1.86909E-04
 -1      1090-2.98553E-03 1.99751E-03-5.58107E-04
 -1      1091-5.79434E-03 3.13439E-03-1.18260E-03
 -1      1092-3.02335E-03 1.98502E-03 6.03234E-04
 -1      1093-3.10745E-03 2.10020E-03 1.89986E-04
 -1      1094-6.22167E-03 3.46075E-03 1.53423E-05
 -1      1095-5.93588E-03 3.15335E-03 1.24452E-03
 -1      1096-3.08259E-01 1.70108E+00-5.68647E-04
 -1      1097-3.08265E-01 1.70109E+00-1.94406E-04
 -1      1098-3.05844E-01 1.67558E+00-6.97513E-04
 -1      1099-3.08375E-01 1.70230E+00 1.70016E-04
 -1      1100-3.08374E-01 1.70229E+00 5.45514E-04
 -1      1101-3.05594E-01 1.67288E+00-1.75148E-05
 -1      1102-3.05976E-01 1.67699E+00 6.70905E-04
 -1      1103-1.08441E-02 4.75798E-03-3.02803E-03
 -1      1104-1.53224E-02 7.38698E-03-3.32787E-03
 -1      1105-9.08032E-03 4.31238E-03-2.06906E-03
 -1      1106-2.00559E-02 1.10851E-02-3.45135E-03
 -1      1107-2.46383E-02 1.55778E-02-3.48270E-03
 -1      1108-1.74965E-02 9.52406E-03-2.21731E-03
 -1      1109-2.92290E-02 2.09712E-02-3.48347E-03
 -1      1110-3.38631E-02 2.73189E-02-3.47071E-03
 -1      1111-2.69047E-02 1.86509E-02-2.30232E-03
 -1      1112-3.85181E-02 3.45996E-02-3.46089E-03
 -1      1113-4.31740E-02 4.27900E-02-3.44491E-03
 -1      1114-3.61806E-02 3.13155E-02-2.29396E-03
 -1      1115-4.78456E-02 5.19074E-02-3.42628E-03
 -1      1116-5.25179E-02 6.19169E-02-3.40850E-03
 -1      1117-4.55162E-02 4.77109E-02-2.27462E-03
 -1      1118-5.72048E-02 7.28408E-02-3.38805E-03
 -1      1119-6.18930E-02 8.46455E-02-3.36856E-03
 -1      1120-5.48785E-02 6.77469E-02-2.24543E-03
 -1      1121-6.65917E-02 9.73384E-02-3.34478E-03
 -1      1122-7.12980E-02 1.10910E-01-3.32305E-03
 -1      1123-6.42672E-02 9.13613E-02-2.21359E-03
 -1      1124-7.60107E-02 1.25348E-01-3.30063E-03
 -1      1125-8.07378E-02 1.40651E-01-3.27754E-03
 -1      1126-7.36825E-02 1.18493E-01-2.18134E-03
 -1      1127-8.54725E-02 1.56809E-01-3.25317E-03
 -1      1128-9.02172E-02 1.73809E-01-3.22607E-03
 -1      1129-8.31321E-02 1.49086E-01-2.15104E-03
 -1      1130-9.49693E-02 1.91647E-01-3.19982E-03
 -1      1131-9.97302E-02 2.10308E-01-3.17050E-03
 -1      1132-9.26224E-02 1.83077E-01-2.11628E-03
 -1      1133-1.04501E-01 2.29782E-01-3.14141E-03
 -1      1134-1.09277E-01 2.50062E-01-3.11028E-03
 -1      1135-1.02149E-01 2.20382E-01-2.07874E-03
 -1      1136-1.14058E-01 2.71129E-01-3.07889E-03
 -1      1137-1.18853E-01 2.92977E-01-3.04882E-03
 -1      1138-1.11704E-01 2.60924E-01-2.03834E-03
 -1      1139-1.23649E-01 3.15572E-01-3.02272E-03
 -1      1140-1.28453E-01 3.38942E-01-2.98586E-03
 -1      1141-1.21280E-01 3.04583E-01-2.00504E-03
 -1      1142-1.33245E-01 3.62963E-01-2.94777E-03
 -1      1143-1.38058E-01 3.87801E-01-2.91238E-03
 -1      1144-1.30870E-01 3.51194E-01-1.96037E-03
 -1      1145-1.42871E-01 4.13330E-01-2.88254E-03
 -1      1146-1.47689E-01 4.39582E-01-2.84232E-03
 -1      1147-1.40475E-01 4.00734E-01-1.91767E-03
 -1      1148-1.52534E-01 4.66672E-01-2.79519E-03
 -1      1149-1.57352E-01 4.94285E-01-2.75415E-03
 -1      1150-1.50136E-01 4.53338E-01-1.86319E-03
 -1      1151-1.62171E-01 5.22555E-01-2.71435E-03
 -1      1152-1.66986E-01 5.51469E-01-2.67272E-03
 -1      1153-1.59803E-01 5.08688E-01-1.80143E-03
 -1      1154-1.71796E-01 5.81004E-01-2.63154E-03
 -1      1155-1.76604E-01 6.11150E-01-2.58819E-03
 -1      1156-1.69433E-01 5.66491E-01-1.74664E-03
 -1      1157-1.81402E-01 6.41892E-01-2.54552E-03
 -1      1158-1.86194E-01 6.73208E-01-2.49954E-03
 -1      1159-1.79042E-01 6.26764E-01-1.69125E-03
 -1      1160-1.90973E-01 7.05088E-01-2.45699E-03
 -1      1161-1.95741E-01 7.37506E-01-2.41133E-03
 -1      1162-1.88619E-01 6.89378E-01-1.63313E-03
 -1      1163-2.00498E-01 7.70454E-01-2.36651E-03
 -1      1164-2.05236E-01 8.03910E-01-2.31804E-03
 -1      1165-1.98155E-01 7.54192E-01-1.57310E-03
 -1      1166-2.09958E-01 8.37854E-01-2.27198E-03
 -1      1167-2.14661E-01 8.72274E-01-2.22400E-03
 -1      1168-2.07638E-01 8.21078E-01-1.51214E-03
 -1      1169-2.19343E-01 9.07145E-01-2.17680E-03
 -1      1170-2.24004E-01 9.42456E-01-2.12718E-03
 -1      1171-2.17042E-01 8.89891E-01-1.44951E-03
 -1      1172-2.28638E-01 9.78182E-01-2.07865E-03
 -1      1173-2.33245E-01 1.01431E+00-2.02776E-03
 -1      1174-2.26360E-01 9.60484E-01-1.38525E-03
 -1      1175-2.37816E-01 1.05081E+00-1.97801E-03
 -1      1176-2.42367E-01 1.08768E+00-1.93004E-03
 -1      1177-2.35570E-01 1.03271E+00-1.32024E-03
 -1      1178-2.46882E-01 1.12489E+00-1.88099E-03
 -1      1179-2.51361E-01 1.16241E+00-1.82668E-03
 -1      1180-2.44656E-01 1.10642E+00-1.25632E-03
 -1      1181-2.55800E-01 1.20025E+00-1.77615E-03
 -1      1182-2.60199E-01 1.23836E+00-1.72515E-03
 -1      1183-2.53608E-01 1.18145E+00-1.18651E-03
 -1      1184-2.64558E-01 1.27674E+00-1.67396E-03
 -1      1185-2.68873E-01 1.31536E+00-1.62183E-03
 -1      1186-2.62406E-01 1.25765E+00-1.12077E-03
 -1      1187-2.73139E-01 1.35420E+00-1.57109E-03
 -1      1188-2.77355E-01 1.39325E+00-1.51433E-03
 -1      1189-2.71032E-01 1.33486E+00-1.05353E-03
 -1      1190-2.81520E-01 1.43247E+00-1.46268E-03
 -1      1191-2.85632E-01 1.47186E+00-1.41004E-03
 -1      1192-2.79465E-01 1.41293E+00-9.81183E-04
 -1      1193-2.89704E-01 1.51156E+00-1.36221E-03
 -1      1194-2.93703E-01 1.55121E+00-1.30888E-03
 -1      1195-2.87702E-01 1.49184E+00-9.16803E-04
 -1      1196-2.97809E-01 1.59265E+00-1.25082E-03
 -1      1197-3.01687E-01 1.63249E+00-1.20224E-03
 -1      1198-2.95880E-01 1.57297E+00-8.41414E-04
 -1      1199-3.03096E-01 1.64695E+00-9.05210E-04
 -1      1200-1.53087E-02 7.37433E-03 3.33487E-03
 -1      1201-1.08304E-02 4.74511E-03 3.03468E-03
 -1      1202-9.08517E-03 4.30104E-03 2.08574E-03
 -1      1203-2.46187E-02 1.55544E-02 3.49069E-03
 -1      1204-2.00372E-02 1.10654E-02 3.46117E-03
 -1      1205-1.74647E-02 9.49541E-03 2.22929E-03
 -1      1206-3.38832E-02 2.73508E-02 3.46829E-03
 -1      1207-2.92508E-02 2.10011E-02 3.48099E-03
 -1      1208-2.69072E-02 1.86535E-02 2.30585E-03
 -1      1209-4.30924E-02 4.26330E-02 3.45692E-03
 -1      1210-3.84358E-02 3.44584E-02 3.47379E-03
 -1      1211-3.61222E-02 3.12212E-02 2.30262E-03
 -1      1212-5.26096E-02 6.21190E-02 3.42188E-03
 -1      1213-4.79382E-02 5.20905E-02 3.43996E-03
 -1      1214-4.55280E-02 4.77244E-02 2.29983E-03
 -1      1215-6.18923E-02 8.46459E-02 3.36515E-03
 -1      1216-5.72014E-02 7.28422E-02 3.38381E-03
 -1      1217-5.49723E-02 6.79626E-02 2.25506E-03
 -1      1218-7.12975E-02 1.10907E-01 3.32265E-03
 -1      1219-6.65905E-02 9.73382E-02 3.34564E-03
 -1      1220-6.42641E-02 9.13636E-02 2.21044E-03
 -1      1221-8.07354E-02 1.40651E-01 3.27826E-03
 -1      1222-7.60124E-02 1.25348E-01 3.29993E-03
 -1      1223-7.36780E-02 1.18492E-01 2.18036E-03
 -1      1224-9.02166E-02 1.73809E-01 3.22604E-03
 -1      1225-8.54726E-02 1.56806E-01 3.25305E-03
 -1      1226-8.31338E-02 1.49085E-01 2.15056E-03
 -1      1227-9.97306E-02 2.10307E-01 3.16865E-03
 -1      1228-9.49685E-02 1.91646E-01 3.19913E-03
 -1      1229-9.26252E-02 1.83076E-01 2.11553E-03
 -1      1230-1.09276E-01 2.50060E-01 3.10908E-03
 -1      1231-1.04500E-01 2.29783E-01 3.13967E-03
 -1      1232-1.02145E-01 2.20382E-01 2.07661E-03
 -1      1233-1.18849E-01 2.92977E-01 3.04683E-03
 -1      1234-1.14060E-01 2.71129E-01 3.07766E-03
 -1      1235-1.11699E-01 2.60922E-01 2.03670E-03
 -1      1236-1.28449E-01 3.38913E-01 2.99794E-03
 -1      1237-1.23643E-01 3.15541E-01 3.03380E-03
 -1      1238-1.21280E-01 3.04557E-01 2.01576E-03
 -1      1239-1.38063E-01 3.87828E-01 2.92581E-03
 -1      1240-1.33251E-01 3.62989E-01 2.96448E-03
 -1      1241-1.30874E-01 3.51198E-01 1.99179E-03
 -1      1242-1.47698E-01 4.39638E-01 2.84331E-03
 -1      1243-1.42880E-01 4.13381E-01 2.88259E-03
 -1      1244-1.40496E-01 4.00814E-01 1.93639E-03
 -1      1245-1.57350E-01 4.94273E-01 2.75959E-03
 -1      1246-1.52526E-01 4.66660E-01 2.79640E-03
 -1      1247-1.50145E-01 4.53382E-01 1.87146E-03
 -1      1248-1.66986E-01 5.51467E-01 2.66749E-03
 -1      1249-1.62171E-01 5.22554E-01 2.71255E-03
 -1      1250-1.59794E-01 5.08679E-01 1.80674E-03
 -1      1251-1.76602E-01 6.11150E-01 2.58436E-03
 -1      1252-1.71796E-01 5.81004E-01 2.62586E-03
 -1      1253-1.69425E-01 5.66492E-01 1.74132E-03
 -1      1254-1.86193E-01 6.73206E-01 2.49623E-03
 -1      1255-1.81402E-01 6.41891E-01 2.54174E-03
 -1      1256-1.79037E-01 6.26764E-01 1.68672E-03
 -1      1257-1.95741E-01 7.37509E-01 2.40555E-03
 -1      1258-1.90975E-01 7.05086E-01 2.45282E-03
 -1      1259-1.88620E-01 6.89372E-01 1.62772E-03
 -1      1260-2.05236E-01 8.03907E-01 2.31249E-03
 -1      1261-2.00494E-01 7.70452E-01 2.36003E-03
 -1      1262-1.98160E-01 7.54193E-01 1.56785E-03
 -1      1263-2.14660E-01 8.72272E-01 2.21956E-03
 -1      1264-2.09958E-01 8.37855E-01 2.26659E-03
 -1      1265-2.07634E-01 8.21081E-01 1.50708E-03
 -1      1266-2.24002E-01 9.42455E-01 2.12008E-03
 -1      1267-2.19343E-01 9.07145E-01 2.17189E-03
 -1      1268-2.17041E-01 8.89892E-01 1.44430E-03
 -1      1269-2.33245E-01 1.01431E+00 2.02232E-03
 -1      1270-2.28636E-01 9.78181E-01 2.07180E-03
 -1      1271-2.26358E-01 9.60482E-01 1.37917E-03
 -1      1272-2.42368E-01 1.08768E+00 1.92118E-03
 -1      1273-2.37822E-01 1.05081E+00 1.97368E-03
 -1      1274-2.35568E-01 1.03271E+00 1.31425E-03
 -1      1275-2.51359E-01 1.16242E+00 1.81891E-03
 -1      1276-2.46882E-01 1.12488E+00 1.87102E-03
 -1      1277-2.44663E-01 1.10641E+00 1.24728E-03
 -1      1278-2.60198E-01 1.23836E+00 1.71633E-03
 -1      1279-2.55798E-01 1.20025E+00 1.76773E-03
 -1      1280-2.53616E-01 1.18145E+00 1.17906E-03
 -1      1281-2.68872E-01 1.31536E+00 1.61049E-03
 -1      1282-2.64556E-01 1.27674E+00 1.66507E-03
 -1      1283-2.62413E-01 1.25765E+00 1.11099E-03
 -1      1284-2.77351E-01 1.39325E+00 1.50536E-03
 -1      1285-2.73136E-01 1.35420E+00 1.56019E-03
 -1      1286-2.71033E-01 1.33487E+00 1.04241E-03
 -1      1287-2.85631E-01 1.47186E+00 1.40110E-03
 -1      1288-2.81518E-01 1.43247E+00 1.45368E-03
 -1      1289-2.79466E-01 1.41292E+00 9.71889E-04
 -1      1290-2.93644E-01 1.55063E+00 1.30591E-03
 -1      1291-2.89645E-01 1.51098E+00 1.35885E-03
 -1      1292-2.87648E-01 1.49127E+00 9.13269E-04
 -1      1293-3.01669E-01 1.63230E+00 1.19092E-03
 -1      1294-2.97788E-01 1.59246E+00 1.24031E-03
 -1      1295-2.95808E-01 1.57221E+00 8.38328E-04
 -1      1296-3.03098E-01 1.64696E+00 8.90514E-04
 -1      1297-2.24056E-01 9.42805E-01-7.02972E-04
 -1      1298-2.28690E-01 9.78516E-01-6.84938E-04
 -1      1299-2.14715E-01 8.72655E-01-7.35387E-04
 -1      1300-2.19397E-01 9.07512E-01-7.17282E-04
 -1      1301-2.21729E-01 9.25150E-01-2.68513E-06
 -1      1302-2.51405E-01 1.16267E+00-6.05350E-04
 -1      1303-2.55838E-01 1.20048E+00-5.86206E-04
 -1      1304-2.60238E-01 1.23857E+00-5.73895E-04
 -1      1305-2.64597E-01 1.27694E+00-5.53496E-04
 -1      1306-2.58042E-01 1.21952E+00-3.34632E-06
 -1      1307-2.89667E-01 1.51099E+00 4.50592E-04
 -1      1308-2.85654E-01 1.47188E+00 4.59200E-04
 -1      1309-2.91500E-01 1.52911E+00 8.35083E-07
 -1      1310-2.93465E-01 1.54861E+00 4.38352E-04
 -1      1311-2.97611E-01 1.59042E+00 4.06343E-04
 -1      1312-1.86251E-01 6.73682E-01-8.25824E-04
 -1      1313-1.91029E-01 7.05548E-01-8.09279E-04
 -1      1314-1.76662E-01 6.11655E-01-8.55198E-04
 -1      1315-1.81460E-01 6.42380E-01-8.37928E-04
 -1      1316-1.83858E-01 6.58018E-01-1.67228E-06
 -1      1317-1.95797E-01 7.37951E-01-7.96522E-04
 -1      1318-2.00553E-01 7.70883E-01-7.78610E-04
 -1      1319-2.05291E-01 8.04323E-01-7.65798E-04
 -1      1320-2.10012E-01 8.38252E-01-7.49878E-04
 -1      1321-2.02921E-01 7.87591E-01-1.32967E-06
 -1      1322-2.33297E-01 1.01463E+00-6.70269E-04
 -1      1323-2.37868E-01 1.05111E+00-6.54742E-04
 -1      1324-2.42411E-01 1.08796E+00-6.39525E-04
 -1      1325-2.46928E-01 1.12515E+00-6.19714E-04
 -1      1326-2.40146E-01 1.06953E+00-4.97596E-06
 -1      1327-2.81551E-01 1.43260E+00 4.72666E-04
 -1      1328-2.77387E-01 1.39339E+00 4.93164E-04
 -1      1329-2.73173E-01 1.35437E+00 5.09408E-04
 -1      1330-2.68910E-01 1.31554E+00 5.28878E-04
 -1      1331-2.75283E-01 1.37388E+00-4.70824E-06
 -1      1332-1.62231E-01 5.23101E-01 8.90286E-04
 -1      1333-1.57406E-01 4.94834E-01 9.12713E-04
 -1      1334-1.71852E-01 5.81522E-01 8.61908E-04
 -1      1335-1.67046E-01 5.51998E-01 8.79200E-04
 -1      1336-1.64641E-01 5.37537E-01-1.56844E-06
 -1      1337-4.31882E-02 4.35553E-02-1.13819E-03
 -1      1338-4.78644E-02 5.26673E-02-1.12937E-03
 -1      1339-5.02086E-02 5.76613E-02 3.74007E-06
 -1      1340-5.25506E-02 6.26923E-02-1.12808E-03
 -1      1341-5.72397E-02 7.36089E-02-1.11814E-03
 -1      1342-7.13409E-02 1.11656E-01-1.09453E-03
 -1      1343-7.60562E-02 1.26088E-01-1.08697E-03
 -1      1344-6.19313E-02 8.54075E-02-1.11268E-03
 -1      1345-6.66319E-02 9.80924E-02-1.10161E-03
 -1      1346-6.89870E-02 1.04856E-01 5.82547E-07
 -1      1347-2.92363E-02 2.17919E-02 1.15037E-03
 -1      1348-2.45684E-02 1.63483E-02 1.15786E-03
 -1      1349-3.38576E-02 2.80943E-02 1.14380E-03
 -1      1350-3.15280E-02 2.49028E-02-7.79360E-07
 -1      1351-3.84223E-02 3.51998E-02 1.15899E-03
 -1      1352-1.09332E-01 2.50738E-01-1.02493E-03
 -1      1353-1.14115E-01 2.71795E-01-1.01441E-03
 -1      1354-9.97821E-02 2.11004E-01-1.04534E-03
 -1      1355-1.04554E-01 2.30469E-01-1.03454E-03
 -1      1356-1.06944E-01 2.40587E-01-9.08407E-08
 -1      1357-1.28463E-01 3.39342E-01-9.78904E-04
 -1      1358-1.33253E-01 3.63345E-01-9.62175E-04
 -1      1359-1.35666E-01 3.75754E-01 1.73078E-05
 -1      1360-1.38095E-01 3.88314E-01-9.54405E-04
 -1      1361-1.42911E-01 4.13833E-01-9.47533E-04
 -1      1362-8.07810E-02 1.41383E-01-1.08097E-03
 -1      1363-8.55194E-02 1.57533E-01-1.07076E-03
 -1      1364-9.02647E-02 1.74524E-01-1.06394E-03
 -1      1365-9.50189E-02 1.92353E-01-1.05358E-03
 -1      1366-8.78938E-02 1.66010E-01 2.66774E-08
 -1      1367-2.01707E-02 1.20588E-02 1.14126E-03
 -1      1368-1.53634E-02 8.28602E-03 1.05900E-03
 -1      1369-1.45678E-02 7.84613E-03-1.14841E-06
 -1      1370-1.18494E-02 6.08948E-03 9.86383E-04
 -1      1371-8.68739E-03 4.50985E-03 4.32412E-04
 -1      1372-9.46591E-03 4.73553E-03 1.35293E-03
 -1      1373-2.45870E-02 1.63696E-02-1.14939E-03
 -1      1374-2.92147E-02 2.17656E-02-1.15294E-03
 -1      1375-2.25029E-02 1.43302E-02-8.18603E-06
 -1      1376-2.01896E-02 1.20737E-02-1.15097E-03
 -1      1377-1.53761E-02 8.29365E-03-1.07041E-03
 -1      1378-2.93522E-01 1.54918E+00-4.33886E-04
 -1      1379-2.97628E-01 1.59061E+00-4.07749E-04
 -1      1380-2.98298E-01 1.59746E+00-1.99567E-06
 -1      1381-3.00630E-01 1.62133E+00-4.02196E-04
 -1      1382-3.02731E-01 1.64305E+00-5.93279E-04
 -1      1383-3.03395E-01 1.64992E+00-2.04963E-04
 -1      1384-2.28689E-01 9.78516E-01 6.79198E-04
 -1      1385-2.24056E-01 9.42805E-01 6.97309E-04
 -1      1386-2.37870E-01 1.05112E+00 6.45644E-04
 -1      1387-2.33294E-01 1.01462E+00 6.65383E-04
 -1      1388-2.30994E-01 9.96563E-01-2.28074E-06
 -1      1389-1.57414E-01 4.94843E-01-9.09686E-04
 -1      1390-1.62232E-01 5.23100E-01-8.95141E-04
 -1      1391-1.47737E-01 4.40114E-01-9.42042E-04
 -1      1392-1.52583E-01 4.67186E-01-9.17253E-04
 -1      1393-1.54994E-01 4.80970E-01 2.35888E-06
 -1      1394-2.85652E-01 1.47188E+00-4.69667E-04
 -1      1395-2.89725E-01 1.51156E+00-4.52039E-04
 -1      1396-2.77389E-01 1.39339E+00-5.03372E-04
 -1      1397-2.81550E-01 1.43260E+00-4.85228E-04
 -1      1398-2.83595E-01 1.45219E+00-6.46669E-06
 -1      1399-1.91032E-01 7.05546E-01 8.04607E-04
 -1      1400-1.86251E-01 6.73681E-01 8.22057E-04
 -1      1401-2.00552E-01 7.70882E-01 7.75048E-04
 -1      1402-1.95799E-01 7.37952E-01 7.90982E-04
 -1      1403-1.93417E-01 7.21738E-01-2.70402E-06
 -1      1404-2.55841E-01 1.20048E+00 5.79134E-04
 -1      1405-2.51405E-01 1.16267E+00 5.97082E-04
 -1      1406-2.46930E-01 1.12515E+00 6.13199E-04
 -1      1407-2.42417E-01 1.08796E+00 6.31721E-04
 -1      1408-2.49169E-01 1.14390E+00-4.13134E-06
 -1      1409-2.10011E-01 8.38253E-01 7.43198E-04
 -1      1410-2.05289E-01 8.04323E-01 7.60480E-04
 -1      1411-2.19398E-01 9.07512E-01 7.11541E-04
 -1      1412-2.14715E-01 8.72653E-01 7.29390E-04
 -1      1413-2.12364E-01 8.55444E-01-2.66971E-06
 -1      1414-6.66305E-02 9.80931E-02 1.10159E-03
 -1      1415-6.19288E-02 8.54072E-02 1.10909E-03
 -1      1416-5.72389E-02 7.36101E-02 1.11481E-03
 -1      1417-5.26446E-02 6.28988E-02 1.14122E-03
 -1      1418-5.95858E-02 7.94906E-02 5.86977E-07
 -1      1419-1.14113E-01 2.71795E-01 1.01164E-03
 -1      1420-1.09330E-01 2.50737E-01 1.02507E-03
 -1      1421-1.23702E-01 3.16195E-01 1.01222E-03
 -1      1422-1.18908E-01 2.93633E-01 1.00221E-03
 -1      1423-1.16514E-01 2.82698E-01-1.49451E-06
 -1      1424-1.52579E-01 4.67176E-01 9.28524E-04
 -1      1425-1.47749E-01 4.40170E-01 9.48837E-04
 -1      1426-1.45337E-01 4.27021E-01 9.00616E-06
 -1      1427-1.42922E-01 4.13881E-01 9.65508E-04
 -1      1428-1.38105E-01 3.88346E-01 9.85914E-04
 -1      1429-8.55207E-02 1.57532E-01 1.07101E-03
 -1      1430-8.07822E-02 1.41384E-01 1.07907E-03
 -1      1431-7.60545E-02 1.26087E-01 1.08624E-03
 -1      1432-7.13396E-02 1.11655E-01 1.09596E-03
 -1      1433-7.84210E-02 1.33718E-01-6.23233E-07
 -1      1434-1.04552E-01 2.30471E-01 1.03298E-03
 -1      1435-9.97817E-02 2.11003E-01 1.04431E-03
 -1      1436-9.50196E-02 1.92353E-01 1.05263E-03
 -1      1437-9.02659E-02 1.74524E-01 1.06267E-03
 -1      1438-9.74019E-02 2.01661E-01-4.01216E-07
 -1      1439-8.53696E-03 4.46843E-03-3.82714E-04
 -1      1440-1.18604E-02 6.10199E-03-9.71941E-04
 -1      1441-9.32766E-03 4.68701E-03-1.32024E-03
 -1      1442-3.03507E-01 1.65112E+00 1.79741E-04
 -1      1443-3.02826E-01 1.64406E+00 5.68327E-04
 -1      1444-3.00612E-01 1.62114E+00 3.89312E-04
 -1      1445-3.38346E-02 2.80599E-02-1.14916E-03
 -1      1446-3.85028E-02 3.53362E-02-1.14827E-03
 -1      1447-4.08362E-02 3.94104E-02 3.36979E-06
 -1      1448-4.31071E-02 4.34013E-02 1.15796E-03
 -1      1449-4.79576E-02 5.28535E-02 1.15085E-03
 -1      1450-2.64599E-01 1.27694E+00 5.42389E-04
 -1      1451-2.60241E-01 1.23858E+00 5.62177E-04
 -1      1452-1.81461E-01 6.42380E-01 8.34945E-04
 -1      1453-1.76660E-01 6.11655E-01 8.49544E-04
 -1      1454-1.67047E-01 5.51999E-01-8.81703E-04
 -1      1455-1.71856E-01 5.81521E-01-8.67023E-04
 -1      1456-1.74258E-01 5.96575E-01-3.20562E-06
 -1      1457-1.18906E-01 2.93633E-01-1.00573E-03
 -1      1458-1.23706E-01 3.16220E-01-9.99138E-04
 -1      1459-1.26066E-01 3.27668E-01 1.06670E-05
 -1      1460-1.28458E-01 3.39314E-01 1.01212E-03
 -1      1461-1.33262E-01 3.63373E-01 9.99563E-04
 -1      1462-2.68909E-01 1.31554E+00-5.37892E-04
 -1      1463-2.73175E-01 1.35437E+00-5.18236E-04
 -1      1464-2.66757E-01 1.29623E+00-5.49887E-06
 -1      1465-3.75855E-02 8.60726E-01-6.48721E-04
 -1      1466-5.89115E-02 1.15114E+00-9.06816E-04
 -1      1467-1.99649E-01 1.29854E+00-1.81048E-03
 -1      1468-8.97371E-02 1.53945E+00-1.24501E-03
 -1      1469-2.42976E-02 6.61599E-01-4.63547E-04
 -1      1470-1.68082E-01 9.97975E-01-2.07844E-03
 -1      1471-1.75261E-02 5.39890E-01-3.62268E-04
 -1      1472-3.26125E-02 5.45091E-02-2.98681E-03
 -1      1473 4.59351E-04 1.01630E-01 5.59319E-05
 -1      1474 1.06241E-03 2.03382E-02 1.37696E-04
 -1      1475-7.19069E-02 2.38450E-01-2.81558E-03
 -1      1476-9.06774E-03 3.76845E-01-2.08817E-04
 -1      1477-9.44420E-04 1.63718E-01-3.04527E-06
 -1      1478-8.30125E-03 3.26409E-03-2.87536E-03
 -1      1479-1.44568E-01 7.88234E-01-2.27054E-03
 -1      1480-7.75942E-02 1.38223E+00-1.11364E-03
 -1      1481-2.30094E-01 1.61754E+00-1.52684E-03
 -1      1482-1.06705E-01 4.80312E-01-2.55726E-03
 -1      1483-2.15247E-01 1.45498E+00-1.67038E-03
 -1      1484-1.21590E-01 5.96408E-01-2.44954E-03
 -1      1485-5.12992E-03 2.82029E-01-1.25493E-04
 -1      1486-5.20372E-02 1.31067E-01-2.93246E-03
 -1      1487-8.58245E-02 3.26538E-01-2.72872E-03
 -1      1488-8.73085E-04-3.71469E-04-5.83719E-04
 -1      1489-1.38359E-01 1.68172E+00-1.40873E-03
 -1      1490-1.83888E-01 1.14578E+00-1.94505E-03
 -1      1491-4.76975E-02 1.00288E+00-7.75444E-04
 -1      1492 9.37902E-04 5.36901E-02 9.31476E-05
 -1      1493-2.05084E-02 2.14874E-02-3.05519E-03
 -1      1494-1.44192E-02 1.05397E-02-3.05565E-03
 -1      1495-5.42266E-03 5.87796E-03-1.46289E-03
 -1      1496-2.23344E-01 1.53448E+00-1.60283E-03
 -1      1497-3.29669E-02 7.92323E-01-5.88032E-04
 -1      1498-2.82436E-02 7.25909E-01-5.23123E-04
 -1      1499-7.99880E-02 6.91420E-01-1.43771E-03
 -1      1500-6.49031E-02 1.22717E+00-9.73582E-04
 -1      1501-1.60204E-01 9.26312E-01-2.14436E-03
 -1      1502-1.44383E-02 4.82773E-01-3.09936E-04
 -1      1503-1.13606E-02 4.28355E-01-2.51901E-04
 -1      1504-5.36021E-02 4.01341E-01-1.45201E-03
 -1      1505-2.07480E-01 1.37638E+00-1.74064E-03
 -1      1506-3.19882E-03 2.39175E-01-7.23597E-05
 -1      1507-1.91783E-01 1.22162E+00-1.87819E-03
 -1      1508-7.88864E-02 2.80934E-01-2.77688E-03
 -1      1509-9.87373E-05 1.30941E-01 2.86640E-05
 -1      1510-2.01141E-03 1.99686E-01-3.83236E-05
 -1      1511-3.17502E-02 1.80518E-01-1.46208E-03
 -1      1512-8.42581E-02 1.46094E+00-1.17982E-03
 -1      1513-1.14098E-01 5.37093E-01-2.50467E-03
 -1      1514 8.65494E-04 7.58627E-02 8.23685E-05
 -1      1515-2.07885E-02 8.81754E-02-1.45733E-03
 -1      1516-2.65705E-02 3.61861E-02-3.02214E-03
 -1      1517 1.10471E-03 3.51797E-02 1.22936E-04
 -1      1518-6.63179E-03 3.28083E-01-1.53277E-04
 -1      1519-5.31733E-02 1.07632E+00-8.42580E-04
 -1      1520-4.25019E-02 9.30963E-01-7.11608E-04
 -1      1521-2.07420E-02 5.99545E-01-4.12118E-04
 -1      1522-7.11342E-02 1.30426E+00-1.04162E-03
 -1      1523-1.75985E-01 1.07119E+00-2.01319E-03
 -1      1524-1.52362E-01 8.56350E-01-2.20842E-03
 -1      1525-8.19678E-03 1.45616E-02-1.46937E-03
 -1      1526 9.47747E-04 9.38430E-03 1.47280E-04
 -1      1527-3.16473E-03 9.07701E-05-1.79897E-03
 -1      1528-1.29949E-01 6.56390E-01-2.40986E-03
 -1      1529-1.38066E-01 7.23859E-01-2.34776E-03
 -1      1530-4.55642E-02 1.01896E-01-2.96369E-03
 -1      1531-3.91264E-02 7.62863E-02-2.98844E-03
 -1      1532-5.87294E-02 1.63508E-01-2.90478E-03
 -1      1533-4.87246E-02 3.50924E-01-1.45225E-03
 -1      1534-1.00359E-01 4.26268E-01-2.63563E-03
 -1      1535-3.56542E-02 2.18412E-01-1.45680E-03
 -1      1536-1.59537E-01 1.57275E+00-1.42382E-03
 -1      1537-1.53304E-01 1.49728E+00-1.42715E-03
 -1      1538-1.17956E-01 1.11081E+00-1.42580E-03
 -1      1539-1.11202E-01 1.03676E+00-1.42856E-03
 -1      1540-1.04585E-01 9.64166E-01-1.42901E-03
 -1      1541-1.46127E-01 1.41849E+00-1.42617E-03
 -1      1542-1.31844E-01 1.26267E+00-1.42822E-03
 -1      1543-6.84914E-02 5.67671E-01-1.43403E-03
 -1      1544-9.18323E-02 8.23970E-01-1.43223E-03
 -1      1545-1.42591E-02 4.40524E-02-1.45447E-03
 -1      1546-1.11949E-02 2.74349E-02-1.45753E-03
 -1      1547-1.24842E-01 1.18617E+00-1.42612E-03
 -1      1548-9.81252E-02 8.93184E-01-1.43089E-03
 -1      1549-4.40512E-02 3.03683E-01-1.44784E-03
 -1      1550-1.38944E-01 1.34016E+00-1.42550E-03
 -1      1551-3.97417E-02 2.59433E-01-1.45085E-03
 -1      1552-6.31470E-02 5.09423E-01-1.43781E-03
 -1      1553-7.40314E-02 6.28378E-01-1.43249E-03
 -1      1554-8.57096E-02 7.56673E-01-1.43133E-03
 -1      1555-9.31915E-02 3.74992E-01-2.68835E-03
 -1      1556-5.80073E-02 4.53774E-01-1.43738E-03
 -1      1557-1.74179E-02 6.43059E-02-1.45203E-03
 -1      1558-6.53495E-02 1.99312E-01-2.86437E-03
 -1      1559-2.77578E-02 1.46514E-01-1.44938E-03
 -1      1560-2.42181E-02 1.15591E-01-1.45371E-03
 -1      1561-2.03716E-01 1.67628E+00-1.44567E-03
 -1      1562 4.62751E-04 2.03915E-03 5.43312E-05
 -1      1563-9.92429E-02 1.62319E+00-1.32449E-03
 -1      1564-3.39937E-03 1.46428E-03-1.40199E-03
 -1      1565-4.48909E-03 8.12815E-04-2.57290E-03
 -1      1566 8.14270E-04-3.10115E-04 3.90269E-04
 -1      1567-2.58151E-01 1.68166E+00-1.47877E-03
 -1      1568-8.36418E-02 1.69014E+00-1.37392E-03
 -1      1569-1.66185E-01 1.63426E+00-1.42623E-03
 -1      1570 2.55978E-04-4.94719E-04 1.62593E-04
 -1      1571 7.11890E-04-2.78069E-04 4.86995E-04
 -1      1572 1.89245E-03 1.60199E-04 8.63575E-04
 -1      1573-2.66624E-03 5.46973E-04-1.89356E-03
 -1      1574-2.04573E-03 4.97027E-05-1.57845E-03
 -1      1575-6.72465E-03 1.95858E-03-3.20705E-03
 -1      1576-6.17826E-02 1.71659E+00-1.38825E-03
 -1      1577-9.57246E-02 1.71499E+00-1.41893E-03
 -1      1578-5.81648E-02 1.67659E+00-1.32070E-03
 -1      1579-2.50550E-01 1.70763E+00-1.43322E-03
 -1      1580-2.84498E-01 1.70607E+00-1.46409E-03
 -1      1581-2.80758E-01 1.66608E+00-1.53214E-03
 -1      1582-7.04775E-04-5.75996E-04-5.90386E-04
 -1      1583-1.95377E-04-5.55383E-04-1.86051E-04
 -1      1584 1.14145E-05-3.95611E-04-6.73707E-05
 -1      1585-1.89642E-03-2.22112E-04-1.44805E-03
 -1      1586-1.29392E-03-4.34434E-04-9.98982E-04
 -1      1587-1.99895E-03-2.29634E-04-1.18304E-03
 -1      1588-3.89247E-03 3.85030E-04-2.23372E-03
 -1      1589-1.23091E-01 1.71077E+00-1.42833E-03
 -1      1590-1.56865E-01 1.70919E+00-1.42534E-03
 -1      1591-1.11028E-01 1.68592E+00-1.39325E-03
 -1      1592-1.89545E-01 1.70647E+00-1.42434E-03
 -1      1593-2.23322E-01 1.70492E+00-1.42496E-03
 -1      1594-1.71032E-01 1.67900E+00-1.42592E-03
 -1      1595-2.30905E-01 1.67897E+00-1.46022E-03
 -1      1596 2.28385E-03 1.23348E-03 8.01526E-04
 -1      1597 3.20834E-03 3.69291E-03 8.79942E-04
 -1      1598 8.38336E-04 4.72712E-04 2.63880E-04
 -1      1599 4.29912E-03 7.40063E-03 9.42338E-04
 -1      1600 5.23585E-03 1.19613E-02 9.61219E-04
 -1      1601 6.87909E-04 5.16296E-03 1.03583E-04
 -1      1602 6.08650E-03 1.74510E-02 9.55441E-04
 -1      1603 6.96388E-03 2.39249E-02 9.51345E-04
 -1      1604 1.02580E-03 1.43914E-02 1.44800E-04
 -1      1605 7.78211E-03 3.13647E-02 9.39806E-04
 -1      1606 8.58641E-03 3.97127E-02 9.27464E-04
 -1      1607 1.10165E-03 2.72880E-02 1.32364E-04
 -1      1608 9.29126E-03 4.89886E-02 9.08116E-04
 -1      1609 1.00085E-02 5.91838E-02 8.91851E-04
 -1      1610 1.04554E-03 4.39741E-02 1.08093E-04
 -1      1611 1.07501E-02 7.02949E-02 8.80408E-04
 -1      1612 1.13731E-02 8.23078E-02 8.62903E-04
 -1      1613 9.16818E-04 6.43215E-02 8.85460E-05
 -1      1614 1.19333E-02 9.52192E-02 8.43326E-04
 -1      1615 1.24466E-02 1.09023E-01 8.21475E-04
 -1      1616 6.87938E-04 8.82981E-02 7.05480E-05
 -1      1617 1.29172E-02 1.23709E-01 8.00800E-04
 -1      1618 1.33114E-02 1.39266E-01 7.77471E-04
 -1      1619 2.06265E-04 1.15847E-01 4.31686E-05
 -1      1620 1.36202E-02 1.55686E-01 7.53404E-04
 -1      1621 1.38788E-02 1.72962E-01 7.26898E-04
 -1      1622-4.91749E-04 1.46900E-01 1.45926E-05
 -1      1623 1.40561E-02 1.90982E-01 7.00313E-04
 -1      1624 1.41702E-02 2.09928E-01 6.71801E-04
 -1      1625-1.44665E-03 1.81288E-01-2.03523E-05
 -1      1626 1.42742E-02 2.29712E-01 6.45867E-04
 -1      1627 1.42395E-02 2.50290E-01 6.15540E-04
 -1      1628-2.57405E-03 2.19021E-01-5.45799E-05
 -1      1629 1.39555E-02 2.71755E-01 5.78528E-04
 -1      1630 1.37578E-02 2.93915E-01 5.46688E-04
 -1      1631-4.12257E-03 2.60203E-01-9.83413E-05
 -1      1632 1.36660E-02 3.16979E-01 5.21325E-04
 -1      1633 1.33050E-02 3.40675E-01 4.86342E-04
 -1      1634-5.85110E-03 3.04668E-01-1.37572E-04
 -1      1635 1.27175E-02 3.65090E-01 4.47683E-04
 -1      1636 1.21831E-02 3.90261E-01 4.11273E-04
 -1      1637-7.80740E-03 3.52097E-01-1.81429E-04
 -1      1638 1.16451E-02 4.16053E-01 3.77570E-04
 -1      1639 1.09356E-02 4.42639E-01 3.38391E-04
 -1      1640-1.01793E-02 4.02248E-01-2.29582E-04
 -1      1641 9.98131E-03 4.69885E-01 2.96461E-04
 -1      1642 9.08499E-03 4.97826E-01 2.58451E-04
 -1      1643-1.28583E-02 4.55224E-01-2.81207E-04
 -1      1644 8.10253E-03 5.26423E-01 2.19964E-04
 -1      1645 7.02749E-03 5.55662E-01 1.77350E-04
 -1      1646-1.59425E-02 5.11005E-01-3.34006E-04
 -1      1647 5.95373E-03 5.85528E-01 1.38733E-04
 -1      1648 4.70115E-03 6.15995E-01 9.68509E-05
 -1      1649-1.90965E-02 5.69409E-01-3.86193E-04
 -1      1650 3.42385E-03 6.47057E-01 5.66321E-05
 -1      1651 1.98391E-03 6.78689E-01 1.03933E-05
 -1      1652-2.24827E-02 6.30280E-01-4.35956E-04
 -1      1653 4.81160E-04 7.10880E-01-3.28084E-05
 -1      1654-1.13775E-03 7.43608E-01-7.93617E-05
 -1      1655-2.62319E-02 6.93481E-01-4.92968E-04
 -1      1656-3.05451E-03 7.76846E-01-1.27594E-04
 -1      1657-4.86383E-03 8.10592E-01-1.73101E-04
 -1      1658-3.05651E-02 7.58860E-01-5.56644E-04
 -1      1659-6.76099E-03 8.44824E-01-2.18909E-04
 -1      1660-8.74453E-03 8.79524E-01-2.66268E-04
 -1      1661-3.52377E-02 8.26287E-01-6.18450E-04
 -1      1662-1.08217E-02 9.14671E-01-3.13061E-04
 -1      1663-1.29844E-02 9.50246E-01-3.63523E-04
 -1      1664-4.00079E-02 8.95625E-01-6.79656E-04
 -1      1665-1.52322E-02 9.86231E-01-4.11336E-04
 -1      1666-1.75714E-02 1.02260E+00-4.60457E-04
 -1      1667-4.50649E-02 9.66721E-01-7.43692E-04
 -1      1668-1.99914E-02 1.05935E+00-5.08632E-04
 -1      1669-2.24942E-02 1.09644E+00-5.60969E-04
 -1      1670-5.04001E-02 1.03942E+00-8.07303E-04
 -1      1671-2.50804E-02 1.13387E+00-6.10164E-04
 -1      1672-2.77483E-02 1.17161E+00-6.62300E-04
 -1      1673-5.60099E-02 1.11357E+00-8.73705E-04
 -1      1674-3.04944E-02 1.20965E+00-7.12431E-04
 -1      1675-3.33201E-02 1.24795E+00-7.64348E-04
 -1      1676-6.18772E-02 1.18901E+00-9.40593E-04
 -1      1677-3.62230E-02 1.28650E+00-8.15495E-04
 -1      1678-3.92033E-02 1.32529E+00-8.68360E-04
 -1      1679-6.79897E-02 1.26559E+00-1.00735E-03
 -1      1680-4.22528E-02 1.36429E+00-9.19465E-04
 -1      1681-4.53722E-02 1.40348E+00-9.75416E-04
 -1      1682-7.43355E-02 1.34314E+00-1.07540E-03
 -1      1683-4.85598E-02 1.44284E+00-1.02664E-03
 -1      1684-5.18233E-02 1.48235E+00-1.07767E-03
 -1      1685-8.09017E-02 1.42151E+00-1.14760E-03
 -1      1686-5.44533E-02 1.52160E+00-1.12576E-03
 -1      1687-5.78399E-02 1.56135E+00-1.18068E-03
 -1      1688-8.69750E-02 1.50013E+00-1.21013E-03
 -1      1689-6.25133E-02 1.60321E+00-1.23643E-03
 -1      1690-6.60296E-02 1.64311E+00-1.28963E-03
 -1      1691-9.44615E-02 1.58128E+00-1.28367E-03
 -1      1692-9.14412E-02 1.65665E+00-1.34429E-03
 -1      1693-1.26745E-02 5.64448E-03-3.69851E-03
 -1      1694-9.09518E-03 3.05989E-03-3.45203E-03
 -1      1695-6.59135E-03 1.77401E-03-2.88416E-03
 -1      1696-2.02695E-02 1.37838E-02-3.85301E-03
 -1      1697-1.65272E-02 9.30139E-03-3.82352E-03
 -1      1698-1.13276E-02 6.40637E-03-3.00296E-03
 -1      1699-2.79298E-02 2.56176E-02-3.84553E-03
 -1      1700-2.41076E-02 1.92535E-02-3.85765E-03
 -1      1701-1.74453E-02 1.55355E-02-3.06006E-03
 -1      1702-3.56144E-02 4.11688E-02-3.80981E-03
 -1      1703-3.17575E-02 3.29486E-02-3.82502E-03
 -1      1704-2.35353E-02 2.83677E-02-3.03776E-03
 -1      1705-4.33043E-02 6.03488E-02-3.77018E-03
 -1      1706-3.94254E-02 5.03031E-02-3.78737E-03
 -1      1707-2.95885E-02 4.48902E-02-3.00396E-03
 -1      1708-5.12531E-02 8.30519E-02-3.74622E-03
 -1      1709-4.73313E-02 7.12153E-02-3.76548E-03
 -1      1710-3.58470E-02 6.49555E-02-2.98734E-03
 -1      1711-5.91849E-02 1.09440E-01-3.70528E-03
 -1      1712-5.52310E-02 9.58295E-02-3.72779E-03
 -1      1713-4.23323E-02 8.86445E-02-2.97633E-03
 -1      1714-6.71503E-02 1.39341E-01-3.65874E-03
 -1      1715-6.31656E-02 1.23990E-01-3.68250E-03
 -1      1716-4.87884E-02 1.16042E-01-2.94720E-03
 -1      1717-7.52452E-02 1.72577E-01-3.61064E-03
 -1      1718-7.12200E-02 1.55524E-01-3.63829E-03
 -1      1719-5.53672E-02 1.46862E-01-2.91979E-03
 -1      1720-8.33225E-02 2.09152E-01-3.55287E-03
 -1      1721-7.92609E-02 1.90439E-01-3.58299E-03
 -1      1722-6.20279E-02 1.80995E-01-2.88595E-03
 -1      1723-9.13825E-02 2.49013E-01-3.48745E-03
 -1      1724-8.72900E-02 2.28679E-01-3.51933E-03
 -1      1725-6.86189E-02 2.18475E-01-2.84057E-03
 -1      1726-9.96734E-02 2.92118E-01-3.42567E-03
 -1      1727-9.55460E-02 2.70209E-01-3.45804E-03
 -1      1728-7.53806E-02 2.59296E-01-2.79514E-03
 -1      1729-1.07956E-01 3.38308E-01-3.35471E-03
 -1      1730-1.03792E-01 3.14871E-01-3.39088E-03
 -1      1731-8.23430E-02 3.03352E-01-2.75244E-03
 -1      1732-1.16464E-01 3.87393E-01-3.28723E-03
 -1      1733-1.12264E-01 3.62484E-01-3.32361E-03
 -1      1734-8.94908E-02 3.50398E-01-2.70716E-03
 -1      1735-1.24873E-01 4.39303E-01-3.21063E-03
 -1      1736-1.20645E-01 4.12978E-01-3.24895E-03
 -1      1737-9.67627E-02 4.00277E-01-2.66164E-03
 -1      1738-1.32872E-01 4.93953E-01-3.11896E-03
 -1      1739-1.28627E-01 4.66272E-01-3.16056E-03
 -1      1740-1.03532E-01 4.52950E-01-2.59771E-03
 -1      1741-1.41397E-01 5.51274E-01-3.03711E-03
 -1      1742-1.37129E-01 5.22293E-01-3.07947E-03
 -1      1743-1.10389E-01 5.08378E-01-2.53184E-03
 -1      1744-1.49958E-01 6.11096E-01-2.95291E-03
 -1      1745-1.45675E-01 5.80880E-01-2.99583E-03
 -1      1746-1.17831E-01 5.66442E-01-2.47658E-03
 -1      1747-1.58935E-01 6.72419E-01-2.87485E-03
 -1      1748-1.54627E-01 6.41049E-01-2.92067E-03
 -1      1749-1.25752E-01 6.26121E-01-2.43132E-03
 -1      1750-1.67803E-01 7.38604E-01-2.78100E-03
 -1      1751-1.63486E-01 7.06104E-01-2.82959E-03
 -1      1752-1.33998E-01 6.89817E-01-2.37878E-03
 -1      1753-1.75792E-01 8.04260E-01-2.68219E-03
 -1      1754-1.71479E-01 7.70738E-01-2.72930E-03
 -1      1755-1.41318E-01 7.55802E-01-2.30792E-03
 -1      1756-1.84409E-01 8.72755E-01-2.58728E-03
 -1      1757-1.80103E-01 8.38273E-01-2.63583E-03
 -1      1758-1.48458E-01 8.22053E-01-2.23966E-03
 -1      1759-1.93006E-01 9.43066E-01-2.49028E-03
 -1      1760-1.88712E-01 9.07694E-01-2.54026E-03
 -1      1761-1.56277E-01 8.91110E-01-2.17642E-03
 -1      1762-2.01570E-01 1.01504E+00-2.39027E-03
 -1      1763-1.97294E-01 9.78857E-01-2.44191E-03
 -1      1764-1.64140E-01 9.61941E-01-2.11143E-03
 -1      1765-2.10081E-01 1.08853E+00-2.29218E-03
 -1      1766-2.05837E-01 1.05161E+00-2.34117E-03
 -1      1767-1.72030E-01 1.03440E+00-2.04489E-03
 -1      1768-2.18529E-01 1.16339E+00-2.18969E-03
 -1      1769-2.14315E-01 1.12580E+00-2.24319E-03
 -1      1770-1.79937E-01 1.10832E+00-1.98152E-03
 -1      1771-2.26896E-01 1.23944E+00-2.08802E-03
 -1      1772-2.22725E-01 1.20127E+00-2.13931E-03
 -1      1773-1.87838E-01 1.18356E+00-1.91255E-03
 -1      1774-2.35163E-01 1.31654E+00-1.98239E-03
 -1      1775-2.31043E-01 1.27787E+00-2.03765E-03
 -1      1776-1.95722E-01 1.25996E+00-1.84617E-03
 -1      1777-2.43312E-01 1.39453E+00-1.87762E-03
 -1      1778-2.39252E-01 1.35543E+00-1.93100E-03
 -1      1779-2.03572E-01 1.33736E+00-1.77540E-03
 -1      1780-2.51328E-01 1.47323E+00-1.77272E-03
 -1      1781-2.47339E-01 1.43380E+00-1.82551E-03
 -1      1782-2.11373E-01 1.41559E+00-1.70618E-03
 -1      1783-2.59396E-01 1.55265E+00-1.66869E-03
 -1      1784-2.55485E-01 1.51296E+00-1.72240E-03
 -1      1785-2.19307E-01 1.49466E+00-1.63821E-03
 -1      1786-2.66666E-01 1.63403E+00-1.56256E-03
 -1      1787-2.62848E-01 1.59416E+00-1.61489E-03
 -1      1788-2.26736E-01 1.57596E+00-1.56603E-03
 -1      1789-2.44119E-01 1.64958E+00-1.50769E-03
 -1      1790-6.21944E-02 8.08049E-01-1.01499E-03
 -1      1791-6.49026E-02 8.42224E-01-1.03271E-03
 -1      1792-6.76708E-02 8.76867E-01-1.04588E-03
 -1      1793-7.04933E-02 9.11959E-01-1.06384E-03
 -1      1794-9.49570E-02 8.58348E-01-1.42973E-03
 -1      1795-9.17589E-02 1.16860E+00-1.17484E-03
 -1      1796-9.49950E-02 1.20660E+00-1.19209E-03
 -1      1797-8.54290E-02 1.09350E+00-1.14179E-03
 -1      1798-8.85704E-02 1.13089E+00-1.16057E-03
 -1      1799-1.21384E-01 1.14834E+00-1.42730E-03
 -1      1800-1.73115E-01 1.35824E+00-1.59125E-03
 -1      1801-1.69369E-01 1.31929E+00-1.61095E-03
 -1      1802-1.65632E-01 1.28057E+00-1.62686E-03
 -1      1803-1.61903E-01 1.24208E+00-1.64708E-03
 -1      1804-1.35383E-01 1.30131E+00-1.42649E-03
 -1      1805-1.18730E-01 1.47908E+00-1.30870E-03
 -1      1806-1.21577E-01 1.51833E+00-1.32737E-03
 -1      1807-1.24612E-01 1.55608E+00-1.34138E-03
 -1      1808-1.56417E-01 1.53496E+00-1.42498E-03
 -1      1809-1.29434E-01 1.59795E+00-1.36553E-03
 -1      1810-5.19090E-02 6.76399E-01-9.56899E-04
 -1      1811-5.43415E-02 7.08521E-01-9.73229E-04
 -1      1812-4.94044E-02 6.44836E-01-9.41241E-04
 -1      1813-7.69838E-02 6.59616E-01-1.43442E-03
 -1      1814-4.71397E-02 6.13844E-01-9.29239E-04
 -1      1815-1.36150E-01 9.80999E-01-1.76071E-03
 -1      1816-1.32546E-01 9.45127E-01-1.77908E-03
 -1      1817-1.43424E-01 1.05391E+00-1.72842E-03
 -1      1818-1.39777E-01 1.01727E+00-1.74517E-03
 -1      1819-1.07875E-01 1.00027E+00-1.42764E-03
 -1      1820-3.85150E-02 4.95965E-01-8.78174E-04
 -1      1821-4.05985E-02 5.24489E-01-8.93299E-04
 -1      1822-4.27449E-02 5.53656E-01-9.04955E-04
 -1      1823-4.48652E-02 5.83450E-01-9.18956E-04
 -1      1824-6.57930E-02 5.38231E-01-1.43532E-03
 -1      1825-2.30467E-02 4.90849E-02-2.22389E-03
 -1      1826-2.07897E-02 3.98962E-02-2.23753E-03
 -1      1827-2.78859E-02 7.01052E-02-2.22386E-03
 -1      1828-2.53812E-02 5.91873E-02-2.21795E-03
 -1      1829-1.58240E-02 5.37230E-02-1.45328E-03
 -1      1830-1.15073E-02 1.08423E-01-7.03397E-04
 -1      1831-1.25176E-02 1.23050E-01-7.11106E-04
 -1      1832-9.58198E-03 8.18253E-02-6.90431E-04
 -1      1833-1.05312E-02 9.46833E-02-6.97944E-04
 -1      1834-2.24845E-02 1.01443E-01-1.45511E-03
 -1      1835-4.67246E-03 2.36795E-02-6.63111E-04
 -1      1836-5.43033E-03 3.10826E-02-6.66716E-04
 -1      1837-3.95351E-03 1.72248E-02-6.65299E-04
 -1      1838-3.22790E-03 1.17613E-02-6.62103E-04
 -1      1839-9.68390E-03 2.05277E-02-1.46282E-03
 -1      1840-5.89635E-02 2.70025E-01-2.11939E-03
 -1      1841-5.61386E-02 2.48737E-01-2.12897E-03
 -1      1842-5.34241E-02 2.28267E-01-2.14100E-03
 -1      1843-3.76749E-02 2.38520E-01-1.45356E-03
 -1      1844-5.08284E-02 2.08653E-01-2.15702E-03
 -1      1845-3.10271E-02 3.88946E-01-8.36648E-04
 -1      1846-3.27696E-02 4.14668E-01-8.47466E-04
 -1      1847-2.91989E-02 3.63695E-01-8.25706E-04
 -1      1848-5.11349E-02 3.75767E-01-1.45187E-03
 -1      1849-2.73617E-02 3.39351E-01-8.08365E-04
 -1      1850-1.35658E-02 1.38546E-01-7.14835E-04
 -1      1851-1.47033E-02 1.54903E-01-7.23023E-04
 -1      1852-1.59963E-02 1.71944E-01-7.37235E-04
 -1      1853-1.72293E-02 1.89889E-01-7.46642E-04
 -1      1854-2.97264E-02 1.63102E-01-1.45549E-03
 -1      1855-9.55784E-03 8.02059E-03-2.25929E-03
 -1      1856-7.28240E-03 4.31406E-03-2.20695E-03
 -1      1857-4.40739E-03 3.38993E-03-1.45456E-03
 -1      1858-5.69174E-03 2.23815E-03-2.13127E-03
 -1      1859-5.45136E-03 1.39417E-03-2.37638E-03
 -1      1860-3.48067E-03 6.23190E-04-1.65717E-03
 -1      1861-1.21881E-01 8.40074E-01-1.82614E-03
 -1      1862-1.18380E-01 8.05973E-01-1.84431E-03
 -1      1863-1.14907E-01 7.72360E-01-1.85690E-03
 -1      1864-1.12076E-01 7.40132E-01-1.88314E-03
 -1      1865-8.87476E-02 7.90072E-01-1.42994E-03
 -1      1866-1.11796E-01 1.40032E+00-1.27857E-03
 -1      1867-1.15268E-01 1.43967E+00-1.29545E-03
 -1      1868-1.04958E-01 1.32217E+00-1.24073E-03
 -1      1869-1.08357E-01 1.36115E+00-1.26182E-03
 -1      1870-1.42526E-01 1.37923E+00-1.42687E-03
 -1      1871-1.94766E-01 1.59513E+00-1.48381E-03
 -1      1872-1.91461E-01 1.55359E+00-1.50692E-03
 -1      1873-1.98128E-01 1.62590E+00-1.47252E-03
 -1      1874-1.62859E-01 1.60349E+00-1.42517E-03
 -1      1875-2.16916E-01 1.64689E+00-1.48018E-03
 -1      1876-1.84941E-01 1.65527E+00-1.44195E-03
 -1      1877-8.83346E-02 5.23135E-01-1.97645E-03
 -1      1878-8.51772E-02 4.94696E-01-1.99218E-03
 -1      1879-8.20581E-02 4.66913E-01-2.00398E-03
 -1      1880-7.94503E-02 4.39839E-01-2.03234E-03
 -1      1881-6.05508E-02 4.81266E-01-1.43622E-03
 -1      1882-1.88261E-01 1.51586E+00-1.52232E-03
 -1      1883-1.84316E-01 1.47609E+00-1.54217E-03
 -1      1884-1.80607E-01 1.43671E+00-1.55475E-03
 -1      1885-1.76861E-01 1.39739E+00-1.57574E-03
 -1      1886-1.49706E-01 1.45781E+00-1.42577E-03
 -1      1887-9.47643E-02 5.81924E-01-1.94911E-03
 -1      1888-9.15313E-02 5.52217E-01-1.96361E-03
 -1      1889-1.01740E-01 6.42280E-01-1.92858E-03
 -1      1890-9.80353E-02 6.12236E-01-1.93618E-03
 -1      1891-7.12362E-02 5.97724E-01-1.43467E-03
 -1      1892-2.11274E-02 2.49137E-01-7.67239E-04
 -1      1893-2.27573E-02 2.70532E-01-7.85671E-04
 -1      1894-2.42653E-02 2.92698E-01-7.92367E-04
 -1      1895-2.56595E-02 3.15686E-01-7.95995E-04
 -1      1896-4.18721E-02 2.81167E-01-1.45037E-03
 -1      1897-3.77447E-02 1.23146E-01-2.19743E-03
 -1      1898-3.52490E-02 1.08522E-01-2.20605E-03
 -1      1899-4.28683E-02 1.54833E-01-2.18230E-03
 -1      1900-4.02459E-02 1.38573E-01-2.18974E-03
 -1      1901-2.59690E-02 1.30620E-01-1.45221E-03
 -1      1902-6.46012E-02 3.14959E-01-2.09411E-03
 -1      1903-6.17762E-02 2.92107E-01-2.10987E-03
 -1      1904-6.75662E-02 3.38538E-01-2.08521E-03
 -1      1905-4.63609E-02 3.26927E-01-1.44962E-03
 -1      1906-7.06312E-02 3.62813E-01-2.07506E-03
 -1      1907-1.91613E-03 3.27806E-04-9.92209E-04
 -1      1908-4.76453E-04 5.09377E-04-3.11171E-04
 -1      1909-1.59247E-03 1.64520E-03-6.83912E-04
 -1      1910-1.52279E-01 1.65799E+00-1.41220E-03
 -1      1911-1.18785E-01 1.65244E+00-1.37354E-03
 -1      1912-1.32724E-01 1.62872E+00-1.37945E-03
 -1      1913-1.58180E-01 1.20385E+00-1.65845E-03
 -1      1914-1.54471E-01 1.16590E+00-1.67844E-03
 -1      1915-1.50773E-01 1.12824E+00-1.69437E-03
 -1      1916-1.47093E-01 1.09090E+00-1.71485E-03
 -1      1917-7.92982E-02 1.01975E+00-1.10872E-03
 -1      1918-8.23368E-02 1.05645E+00-1.12790E-03
 -1      1919-7.33733E-02 9.47483E-01-1.07774E-03
 -1      1920-7.63090E-02 9.83418E-01-1.09551E-03
 -1      1921-7.86090E-03 5.88025E-02-6.83267E-04
 -1      1922-8.64998E-03 6.98635E-02-6.82731E-04
 -1      1923-6.18932E-03 3.94145E-02-6.69366E-04
 -1      1924-7.03684E-03 4.86511E-02-6.79752E-04
 -1      1925-1.39520E-02 1.78183E-02-2.26541E-03
 -1      1926-1.16857E-02 1.23214E-02-2.26831E-03
 -1      1927-1.84863E-02 3.16084E-02-2.24349E-03
 -1      1928-1.62343E-02 2.42358E-02-2.25715E-03
 -1      1929-6.79190E-03 9.78478E-03-1.46820E-03
 -1      1930-2.58232E-03 7.42249E-03-6.58905E-04
 -1      1931-2.02081E-03 3.68608E-03-6.91235E-04
 -1      1932-5.67590E-02 7.41188E-01-9.84919E-04
 -1      1933-5.95496E-02 7.74364E-01-1.00309E-03
 -1      1934-8.28272E-02 7.23780E-01-1.43409E-03
 -1      1935-1.05195E-01 6.73745E-01-1.91695E-03
 -1      1936-1.08764E-01 7.07531E-01-1.89904E-03
 -1      1937-9.82721E-02 1.24487E+00-1.20784E-03
 -1      1938-1.01594E-01 1.28340E+00-1.22638E-03
 -1      1939-1.28328E-01 1.22429E+00-1.42625E-03
 -1      1940-1.28965E-01 9.09670E-01-1.79422E-03
 -1      1941-1.25410E-01 8.74646E-01-1.81220E-03
 -1      1942-1.01335E-01 9.28464E-01-1.42877E-03
 -1      1943-3.43952E-02 4.40926E-01-8.51635E-04
 -1      1944-3.65003E-02 4.68099E-01-8.68074E-04
 -1      1945-5.57859E-02 4.27218E-01-1.44566E-03
 -1      1946-7.36804E-02 3.87977E-01-2.06631E-03
 -1      1947-7.66706E-02 4.13670E-01-2.04999E-03
 -1      1948-1.84828E-02 2.08877E-01-7.52473E-04
 -1      1949-1.97634E-02 2.28587E-01-7.61097E-04
 -1      1950-3.36806E-02 1.99048E-01-1.45851E-03
 -1      1951-4.55697E-02 1.71804E-01-2.18098E-03
 -1      1952-4.81801E-02 1.89742E-01-2.16831E-03
 -1      1953-1.90833E-02 7.57914E-02-1.45384E-03
 -1      1954-3.27921E-02 9.48487E-02-2.21418E-03
 -1      1955-3.03263E-02 8.20059E-02-2.22063E-03
 -1      1956-1.27148E-02 3.52789E-02-1.45615E-03
 -1      1957-1.14563E-01 1.07361E+00-1.42884E-03
 -1      1958-3.75875E-02 8.60726E-01 6.41756E-04
 -1      1959-5.89073E-02 1.15114E+00 8.97552E-04
 -1      1960-1.99651E-01 1.29855E+00 1.80145E-03
 -1      1961-8.97377E-02 1.53945E+00 1.23258E-03
 -1      1962-2.42939E-02 6.61602E-01 4.60767E-04
 -1      1963-1.68083E-01 9.97974E-01 2.07261E-03
 -1      1964-1.75270E-02 5.39889E-01 3.56121E-04
 -1      1965-3.26113E-02 5.45086E-02 2.98588E-03
 -1      1966 3.13129E-04 1.01625E-01-4.72902E-05
 -1      1967 1.06254E-03 2.03351E-02-1.38070E-04
 -1      1968-7.13822E-02 2.38577E-01 2.79195E-03
 -1      1969-9.23366E-02 3.74614E-01 2.66053E-03
 -1      1970-5.80481E-02 1.63549E-01 2.86981E-03
 -1      1971-8.30153E-03 3.26277E-03 2.87792E-03
 -1      1972-1.44568E-01 7.88237E-01 2.26521E-03
 -1      1973-7.75926E-02 1.38223E+00 1.10177E-03
 -1      1974-2.30093E-01 1.61754E+00 1.51617E-03
 -1      1975-1.06707E-01 4.80314E-01 2.55519E-03
 -1      1976-2.15244E-01 1.45497E+00 1.66151E-03
 -1      1977-1.21591E-01 5.96404E-01 2.44423E-03
 -1      1978-5.12949E-03 2.82030E-01 1.21121E-04
 -1      1979-1.09485E-02 4.28156E-01 2.35118E-04
 -1      1980-2.19932E-03 1.99878E-01 4.57710E-05
 -1      1981-8.74150E-04-3.71570E-04 5.85424E-04
 -1      1982-1.38359E-01 1.68172E+00 1.39850E-03
 -1      1983-1.83885E-01 1.14578E+00 1.93813E-03
 -1      1984-4.76999E-02 1.00288E+00 7.69809E-04
 -1      1985-4.51427E-02 1.02000E-01 2.93326E-03
 -1      1986 9.38218E-04 5.36884E-02-9.38536E-05
 -1      1987-2.05056E-02 2.14860E-02 3.05467E-03
 -1      1988-1.44193E-02 1.05378E-02 3.05668E-03
 -1      1989-5.42115E-03 5.87355E-03 1.46404E-03
 -1      1990-2.23340E-01 1.53448E+00 1.59253E-03
 -1      1991-3.29673E-02 7.92320E-01 5.81403E-04
 -1      1992-2.82415E-02 7.25906E-01 5.15699E-04
 -1      1993-7.99887E-02 6.91420E-01 1.43075E-03
 -1      1994-6.49030E-02 1.22717E+00 9.66214E-04
 -1      1995-1.40736E-02 4.82765E-01 2.96031E-04
 -1      1996-1.60203E-01 9.26313E-01 2.13796E-03
 -1      1997-2.07475E-01 1.37638E+00 1.72932E-03
 -1      1998-1.91780E-01 1.22163E+00 1.87019E-03
 -1      1999-3.52961E-03 2.39349E-01 8.21061E-05
 -1      2000-7.82213E-02 2.80928E-01 2.75034E-03
 -1      2001-8.54366E-02 3.26351E-01 2.71471E-03
 -1      2002-4.78595E-02 3.50266E-01 1.42247E-03
 -1      2003-2.93835E-04 1.30937E-01-1.99670E-05
 -1      2004-1.12428E-03 1.63712E-01 1.01218E-05
 -1      2005-8.42626E-02 1.46094E+00 1.16782E-03
 -1      2006-9.98208E-02 4.25906E-01 2.61828E-03
 -1      2007-5.15446E-02 1.31049E-01 2.90351E-03
 -1      2008-1.14101E-01 5.37092E-01 2.50022E-03
 -1      2009 7.17278E-04 7.58567E-02-7.29214E-05
 -1      2010-2.65696E-02 3.61856E-02 3.02256E-03
 -1      2011 1.10638E-03 3.51811E-02-1.22074E-04
 -1      2012-3.88354E-02 7.64655E-02 2.96237E-03
 -1      2013-5.31707E-02 1.07633E+00 8.32110E-04
 -1      2014-6.46607E-02 1.99420E-01 2.83278E-03
 -1      2015-4.24994E-02 9.30964E-01 7.03861E-04
 -1      2016-2.07422E-02 5.99545E-01 4.06196E-04
 -1      2017-7.11312E-02 1.30426E+00 1.03263E-03
 -1      2018-1.75979E-01 1.07118E+00 2.00377E-03
 -1      2019-1.52361E-01 8.56349E-01 2.20118E-03
 -1      2020-8.19449E-03 1.45606E-02 1.46982E-03
 -1      2021 9.47892E-04 9.38290E-03-1.47556E-04
 -1      2022-3.16221E-03 9.24463E-05 1.79429E-03
 -1      2023-1.29947E-01 6.56390E-01 2.40625E-03
 -1      2024-1.38065E-01 7.23857E-01 2.34109E-03
 -1      2025-5.26858E-02 4.00651E-01 1.42489E-03
 -1      2026-6.18488E-03 3.27767E-01 1.35708E-04
 -1      2027-1.59538E-01 1.57275E+00 1.41221E-03
 -1      2028-1.53302E-01 1.49728E+00 1.41657E-03
 -1      2029-1.17959E-01 1.11081E+00 1.42113E-03
 -1      2030-1.11199E-01 1.03676E+00 1.42004E-03
 -1      2031-1.04586E-01 9.64165E-01 1.42119E-03
 -1      2032-1.46127E-01 1.41848E+00 1.41708E-03
 -1      2033-1.31842E-01 1.26267E+00 1.41586E-03
 -1      2034-6.84856E-02 5.67669E-01 1.43038E-03
 -1      2035-9.18296E-02 8.23969E-01 1.42416E-03
 -1      2036-5.78285E-02 4.53663E-01 1.42948E-03
 -1      2037-2.07021E-02 8.81737E-02 1.44977E-03
 -1      2038-1.74179E-02 6.43062E-02 1.45145E-03
 -1      2039-1.42585E-02 4.40513E-02 1.45431E-03
 -1      2040-1.11953E-02 2.74343E-02 1.45961E-03
 -1      2041-1.24845E-01 1.18617E+00 1.41733E-03
 -1      2042-2.41285E-02 1.15607E-01 1.44829E-03
 -1      2043-9.81253E-02 8.93183E-01 1.42352E-03
 -1      2044-3.53989E-02 2.18565E-01 1.44229E-03
 -1      2045-3.14660E-02 1.80877E-01 1.44403E-03
 -1      2046-2.77153E-02 1.46530E-01 1.44658E-03
 -1      2047-1.38946E-01 1.34016E+00 1.41625E-03
 -1      2048-3.95176E-02 2.59503E-01 1.44104E-03
 -1      2049-6.31426E-02 5.09423E-01 1.43012E-03
 -1      2050-7.40316E-02 6.28377E-01 1.42871E-03
 -1      2051-8.57098E-02 7.56674E-01 1.42574E-03
 -1      2052-8.25493E-03 3.76489E-01 1.79994E-04
 -1      2053-4.38387E-02 3.03591E-01 1.43951E-03
 -1      2054-2.03716E-01 1.67628E+00 1.43407E-03
 -1      2055 4.62775E-04 2.03831E-03-5.46301E-05
 -1      2056-9.92404E-02 1.62319E+00 1.31197E-03
 -1      2057-3.40117E-03 1.46334E-03 1.40334E-03
 -1      2058-4.49969E-03 8.12532E-04 2.57710E-03
 -1      2059 8.14506E-04-3.09631E-04-3.90476E-04
 -1      2060-2.58149E-01 1.68166E+00 1.46640E-03
 -1      2061-8.36443E-02 1.69014E+00 1.36281E-03
 -1      2062-1.66183E-01 1.63426E+00 1.41560E-03
 -1      2063 7.11951E-04-2.77452E-04-4.87156E-04
 -1      2064 2.55838E-04-4.94653E-04-1.62627E-04
 -1      2065 1.89241E-03 1.60731E-04-8.63763E-04
 -1      2066-2.05167E-03 5.22688E-05 1.56913E-03
 -1      2067-2.67611E-03 5.51248E-04 1.89594E-03
 -1      2068-6.72737E-03 1.95267E-03 3.21116E-03
 -1      2069-9.57270E-02 1.71499E+00 1.41074E-03
 -1      2070-6.17839E-02 1.71659E+00 1.37795E-03
 -1      2071-5.81659E-02 1.67659E+00 1.31025E-03
 -1      2072-2.84495E-01 1.70607E+00 1.45114E-03
 -1      2073-2.50549E-01 1.70763E+00 1.42060E-03
 -1      2074-2.80756E-01 1.66608E+00 1.51905E-03
 -1      2075-1.95877E-04-5.55181E-04 1.86649E-04
 -1      2076-7.02774E-04-5.74727E-04 5.90620E-04
 -1      2077 1.14752E-05-3.95451E-04 6.83741E-05
 -1      2078-1.29667E-03-4.30812E-04 1.00200E-03
 -1      2079-1.91266E-03-2.18414E-04 1.45034E-03
 -1      2080-1.99869E-03-2.28780E-04 1.18276E-03
 -1      2081-3.89798E-03 3.85081E-04 2.23639E-03
 -1      2082-1.56865E-01 1.70919E+00 1.41445E-03
 -1      2083-1.23091E-01 1.71077E+00 1.41428E-03
 -1      2084-1.11028E-01 1.68593E+00 1.38168E-03
 -1      2085-2.23321E-01 1.70492E+00 1.41339E-03
 -1      2086-1.89545E-01 1.70647E+00 1.41295E-03
 -1      2087-1.71032E-01 1.67900E+00 1.41454E-03
 -1      2088-2.30904E-01 1.67897E+00 1.44867E-03
 -1      2089 3.20827E-03 3.69286E-03-8.79481E-04
 -1      2090 2.28369E-03 1.23328E-03-8.01763E-04
 -1      2091 8.38701E-04 4.72102E-04-2.64442E-04
 -1      2092 5.23732E-03 1.19604E-02-9.61502E-04
 -1      2093 4.29928E-03 7.40032E-03-9.42013E-04
 -1      2094 6.87878E-04 5.16181E-03-1.04086E-04
 -1      2095 6.96412E-03 2.39231E-02-9.52006E-04
 -1      2096 6.08794E-03 1.74497E-02-9.56688E-04
 -1      2097 1.02478E-03 1.43883E-02-1.45745E-04
 -1      2098 8.58684E-03 3.97132E-02-9.28292E-04
 -1      2099 7.78303E-03 3.13650E-02-9.39566E-04
 -1      2100 1.10227E-03 2.72872E-02-1.31961E-04
 -1      2101 1.00091E-02 5.91814E-02-8.93578E-04
 -1      2102 9.29230E-03 4.89874E-02-9.09559E-04
 -1      2103 1.04690E-03 4.39736E-02-1.09316E-04
 -1      2104 1.12967E-02 8.23034E-02-8.58766E-04
 -1      2105 1.06786E-02 7.02898E-02-8.76849E-04
 -1      2106 8.48855E-04 6.43181E-02-8.42953E-05
 -1      2107 1.23732E-02 1.09019E-01-8.18187E-04
 -1      2108 1.18633E-02 9.52157E-02-8.40010E-04
 -1      2109 5.40175E-04 8.82935E-02-6.10015E-05
 -1      2110 1.32091E-02 1.39261E-01-7.74061E-04
 -1      2111 1.28238E-02 1.23705E-01-7.96607E-04
 -1      2112 3.60748E-05 1.15842E-01-3.42781E-05
 -1      2113 1.37839E-02 1.72957E-01-7.25131E-04
 -1      2114 1.35305E-02 1.55681E-01-7.50294E-04
 -1      2115-6.78986E-04 1.46895E-01-5.34916E-06
 -1      2116 1.40804E-02 2.10025E-01-6.70376E-04
 -1      2117 1.39684E-02 1.91075E-01-6.99308E-04
 -1      2118-1.62969E-03 1.81377E-01 2.67778E-05
 -1      2119 1.40760E-02 2.50377E-01-6.11590E-04
 -1      2120 1.41168E-02 2.29797E-01-6.42388E-04
 -1      2121-2.83150E-03 2.19207E-01 6.29477E-05
 -1      2122 1.37557E-02 2.93914E-01-5.50341E-04
 -1      2123 1.39582E-02 2.71755E-01-5.81472E-04
 -1      2124-4.29547E-03 2.60294E-01 1.01657E-04
 -1      2125 1.35289E-02 3.40516E-01-4.98038E-04
 -1      2126 1.38798E-02 3.16825E-01-5.32041E-04
 -1      2127-5.63356E-03 3.04517E-01 1.27844E-04
 -1      2128 1.25922E-02 3.90083E-01-4.27328E-04
 -1      2129 1.31156E-02 3.64917E-01-4.64681E-04
 -1      2130-7.18368E-03 3.51760E-01 1.57150E-04
 -1      2131 1.11417E-02 4.42538E-01-3.50207E-04
 -1      2132 1.18470E-02 4.15955E-01-3.87839E-04
 -1      2133-9.56008E-03 4.01968E-01 2.07893E-04
 -1      2134 9.27194E-03 4.97824E-01-2.67934E-04
 -1      2135 1.01586E-02 4.69881E-01-3.07729E-04
 -1      2136-1.24667E-02 4.55121E-01 2.66003E-04
 -1      2137 7.03026E-03 5.55661E-01-1.82926E-04
 -1      2138 8.10429E-03 5.26423E-01-2.24290E-04
 -1      2139-1.57578E-02 5.11004E-01 3.25471E-04
 -1      2140 4.69893E-03 6.15995E-01-1.01650E-04
 -1      2141 5.95517E-03 5.85527E-01-1.44423E-04
 -1      2142-1.90981E-02 5.69409E-01 3.80723E-04
 -1      2143 1.98345E-03 6.78691E-01-1.61802E-05
 -1      2144 3.42349E-03 6.47059E-01-6.03611E-05
 -1      2145-2.24814E-02 6.30281E-01 4.32148E-04
 -1      2146-1.13494E-03 7.43604E-01 7.09626E-05
 -1      2147 4.83865E-04 7.10879E-01 2.58330E-05
 -1      2148-2.62294E-02 6.93480E-01 4.87442E-04
 -1      2149-4.86127E-03 8.10591E-01 1.66070E-04
 -1      2150-3.05557E-03 7.76842E-01 1.19273E-04
 -1      2151-3.05640E-02 7.58857E-01 5.48677E-04
 -1      2152-8.74466E-03 8.79524E-01 2.59630E-04
 -1      2153-6.75862E-03 8.44825E-01 2.11397E-04
 -1      2154-3.52404E-02 8.26284E-01 6.11134E-04
 -1      2155-1.29853E-02 9.50246E-01 3.55899E-04
 -1      2156-1.08206E-02 9.14671E-01 3.06641E-04
 -1      2157-4.00076E-02 8.95625E-01 6.72716E-04
 -1      2158-1.75683E-02 1.02261E+00 4.54503E-04
 -1      2159-1.52335E-02 9.86231E-01 4.03633E-04
 -1      2160-4.50630E-02 9.66720E-01 7.36174E-04
 -1      2161-2.24943E-02 1.09644E+00 5.51883E-04
 -1      2162-1.99860E-02 1.05935E+00 5.02760E-04
 -1      2163-5.04020E-02 1.03942E+00 8.01525E-04
 -1      2164-2.77510E-02 1.17161E+00 6.52581E-04
 -1      2165-2.50825E-02 1.13387E+00 6.01237E-04
 -1      2166-5.60055E-02 1.11357E+00 8.64969E-04
 -1      2167-3.33198E-02 1.24795E+00 7.55900E-04
 -1      2168-3.04967E-02 1.20964E+00 7.03180E-04
 -1      2169-6.18732E-02 1.18901E+00 9.31037E-04
 -1      2170-3.92017E-02 1.32529E+00 8.58457E-04
 -1      2171-3.62210E-02 1.28650E+00 8.06950E-04
 -1      2172-6.79884E-02 1.26559E+00 9.98435E-04
 -1      2173-4.53705E-02 1.40348E+00 9.63031E-04
 -1      2174-4.22513E-02 1.36429E+00 9.08204E-04
 -1      2175-7.43328E-02 1.34314E+00 1.06469E-03
 -1      2176-5.18215E-02 1.48235E+00 1.06766E-03
 -1      2177-4.85610E-02 1.44284E+00 1.01434E-03
 -1      2178-8.09020E-02 1.42150E+00 1.13535E-03
 -1      2179-5.78389E-02 1.56135E+00 1.17104E-03
 -1      2180-5.44538E-02 1.52161E+00 1.11642E-03
 -1      2181-8.69780E-02 1.50014E+00 1.20129E-03
 -1      2182-6.60299E-02 1.64312E+00 1.27813E-03
 -1      2183-6.25148E-02 1.60321E+00 1.22555E-03
 -1      2184-9.44612E-02 1.58128E+00 1.27455E-03
 -1      2185-9.14409E-02 1.65665E+00 1.33235E-03
 -1      2186-9.09476E-03 3.05682E-03 3.45720E-03
 -1      2187-1.26725E-02 5.64225E-03 3.70279E-03
 -1      2188-6.59431E-03 1.77052E-03 2.88623E-03
 -1      2189-1.65248E-02 9.30016E-03 3.82653E-03
 -1      2190-2.02667E-02 1.37821E-02 3.85558E-03
 -1      2191-1.13266E-02 6.40434E-03 3.00631E-03
 -1      2192-2.41062E-02 1.92520E-02 3.85819E-03
 -1      2193-2.79303E-02 2.56162E-02 3.84589E-03
 -1      2194-1.74462E-02 1.55347E-02 3.06197E-03
 -1      2195-3.17571E-02 3.29477E-02 3.82640E-03
 -1      2196-3.56136E-02 4.11682E-02 3.81030E-03
 -1      2197-2.35332E-02 2.83659E-02 3.03817E-03
 -1      2198-3.94246E-02 5.03029E-02 3.78751E-03
 -1      2199-4.33044E-02 6.03486E-02 3.76971E-03
 -1      2200-2.95875E-02 4.48896E-02 3.00398E-03
 -1      2201-4.71986E-02 7.12968E-02 3.75219E-03
 -1      2202-5.11046E-02 8.31410E-02 3.73311E-03
 -1      2203-3.57127E-02 6.50364E-02 2.97323E-03
 -1      2204-5.50285E-02 9.58747E-02 3.71342E-03
 -1      2205-5.89674E-02 1.09490E-01 3.69034E-03
 -1      2206-4.19781E-02 8.87886E-02 2.94879E-03
 -1      2207-6.29247E-02 1.23977E-01 3.66844E-03
 -1      2208-6.68994E-02 1.39329E-01 3.64467E-03
 -1      2209-4.83319E-02 1.16090E-01 2.91884E-03
 -1      2210-7.08888E-02 1.55538E-01 3.61979E-03
 -1      2211-7.48979E-02 1.72593E-01 3.59244E-03
 -1      2212-5.47829E-02 1.46873E-01 2.88716E-03
 -1      2213-7.89243E-02 1.90486E-01 3.56509E-03
 -1      2214-8.29684E-02 2.09204E-01 3.53567E-03
 -1      2215-6.13404E-02 1.81068E-01 2.85125E-03
 -1      2216-8.70330E-02 2.28737E-01 3.50679E-03
 -1      2217-9.11143E-02 2.49075E-01 3.47452E-03
 -1      2218-6.80083E-02 2.18592E-01 2.81287E-03
 -1      2219-9.52144E-02 2.70204E-01 3.44392E-03
 -1      2220-9.93352E-02 2.92113E-01 3.41213E-03
 -1      2221-7.47885E-02 2.59360E-01 2.77010E-03
 -1      2222-1.03600E-01 3.14776E-01 3.38307E-03
 -1      2223-1.07756E-01 3.38211E-01 3.34699E-03
 -1      2224-8.18095E-02 3.03259E-01 2.73300E-03
 -1      2225-1.11836E-01 3.62295E-01 3.30942E-03
 -1      2226-1.16026E-01 3.87199E-01 3.27210E-03
 -1      2227-8.88759E-02 3.50118E-01 2.68742E-03
 -1      2228-1.20378E-01 4.12799E-01 3.23920E-03
 -1      2229-1.24600E-01 4.39119E-01 3.19925E-03
 -1      2230-9.60607E-02 3.99907E-01 2.63970E-03
 -1      2231-1.28631E-01 4.66272E-01 3.15514E-03
 -1      2232-1.32871E-01 4.93953E-01 3.11554E-03
 -1      2233-1.03255E-01 4.52766E-01 2.58563E-03
 -1      2234-1.37126E-01 5.22292E-01 3.07502E-03
 -1      2235-1.41393E-01 5.51274E-01 3.03281E-03
 -1      2236-1.10392E-01 5.08379E-01 2.52765E-03
 -1      2237-1.45672E-01 5.80879E-01 2.99137E-03
 -1      2238-1.49959E-01 6.11094E-01 2.94899E-03
 -1      2239-1.17835E-01 5.66440E-01 2.47244E-03
 -1      2240-1.54627E-01 6.41048E-01 2.91731E-03
 -1      2241-1.58935E-01 6.72417E-01 2.86923E-03
 -1      2242-1.25751E-01 6.26120E-01 2.42729E-03
 -1      2243-1.63484E-01 7.06101E-01 2.82312E-03
 -1      2244-1.67804E-01 7.38604E-01 2.77635E-03
 -1      2245-1.33997E-01 6.89817E-01 2.37294E-03
 -1      2246-1.71482E-01 7.70739E-01 2.72335E-03
 -1      2247-1.75789E-01 8.04261E-01 2.67653E-03
 -1      2248-1.41316E-01 7.55802E-01 2.30239E-03
 -1      2249-1.80101E-01 8.38272E-01 2.63076E-03
 -1      2250-1.84409E-01 8.72755E-01 2.58121E-03
 -1      2251-1.48459E-01 8.22052E-01 2.23467E-03
 -1      2252-1.88709E-01 9.07693E-01 2.53421E-03
 -1      2253-1.93004E-01 9.43066E-01 2.48314E-03
 -1      2254-1.56277E-01 8.91109E-01 2.17068E-03
 -1      2255-1.97293E-01 9.78855E-01 2.43492E-03
 -1      2256-2.01566E-01 1.01504E+00 2.38518E-03
 -1      2257-1.64139E-01 9.61940E-01 2.10486E-03
 -1      2258-2.05831E-01 1.05161E+00 2.33642E-03
 -1      2259-2.10082E-01 1.08853E+00 2.28355E-03
 -1      2260-1.72031E-01 1.03439E+00 2.03981E-03
 -1      2261-2.14316E-01 1.12580E+00 2.23385E-03
 -1      2262-2.18531E-01 1.16338E+00 2.18119E-03
 -1      2263-1.79932E-01 1.10832E+00 1.97194E-03
 -1      2264-2.22727E-01 1.20127E+00 2.13052E-03
 -1      2265-2.26898E-01 1.23944E+00 2.07809E-03
 -1      2266-1.87834E-01 1.18356E+00 1.90359E-03
 -1      2267-2.31044E-01 1.27787E+00 2.02649E-03
 -1      2268-2.35161E-01 1.31654E+00 1.97347E-03
 -1      2269-1.95719E-01 1.25996E+00 1.83579E-03
 -1      2270-2.39252E-01 1.35543E+00 1.92250E-03
 -1      2271-2.43314E-01 1.39452E+00 1.86734E-03
 -1      2272-2.03571E-01 1.33736E+00 1.76732E-03
 -1      2273-2.47341E-01 1.43380E+00 1.81596E-03
 -1      2274-2.51330E-01 1.47323E+00 1.76276E-03
 -1      2275-2.11368E-01 1.41559E+00 1.69583E-03
 -1      2276-2.55485E-01 1.51296E+00 1.71125E-03
 -1      2277-2.59397E-01 1.55265E+00 1.65792E-03
 -1      2278-2.19303E-01 1.49466E+00 1.62771E-03
 -1      2279-2.62848E-01 1.59416E+00 1.60269E-03
 -1      2280-2.66664E-01 1.63403E+00 1.55013E-03
 -1      2281-2.26733E-01 1.57596E+00 1.55444E-03
 -1      2282-2.44119E-01 1.64958E+00 1.49647E-03
 -1      2283-6.49038E-02 8.42223E-01 1.02564E-03
 -1      2284-6.21960E-02 8.08048E-01 1.00996E-03
 -1      2285-7.04936E-02 9.11959E-01 1.05639E-03
 -1      2286-6.76706E-02 8.76866E-01 1.03922E-03
 -1      2287-9.49557E-02 8.58347E-01 1.42315E-03
 -1      2288-9.49939E-02 1.20660E+00 1.18435E-03
 -1      2289-9.17568E-02 1.16860E+00 1.16536E-03
 -1      2290-8.85677E-02 1.13089E+00 1.15114E-03
 -1      2291-8.54259E-02 1.09350E+00 1.13172E-03
 -1      2292-1.21386E-01 1.14834E+00 1.41819E-03
 -1      2293-1.69369E-01 1.31930E+00 1.60207E-03
 -1      2294-1.73114E-01 1.35824E+00 1.58135E-03
 -1      2295-1.61900E-01 1.24208E+00 1.63634E-03
 -1      2296-1.65631E-01 1.28057E+00 1.61715E-03
 -1      2297-1.35382E-01 1.30130E+00 1.41645E-03
 -1      2298-1.21576E-01 1.51833E+00 1.31618E-03
 -1      2299-1.18735E-01 1.47908E+00 1.29940E-03
 -1      2300-1.56416E-01 1.53497E+00 1.41268E-03
 -1      2301-1.24612E-01 1.55608E+00 1.32999E-03
 -1      2302-1.29434E-01 1.59795E+00 1.35469E-03
 -1      2303-5.43396E-02 7.08520E-01 9.67539E-04
 -1      2304-5.19046E-02 6.76399E-01 9.51644E-04
 -1      2305-7.69835E-02 6.59615E-01 1.42956E-03
 -1      2306-4.94028E-02 6.44837E-01 9.36976E-04
 -1      2307-4.71396E-02 6.13845E-01 9.24550E-04
 -1      2308-1.32546E-01 9.45127E-01 1.77276E-03
 -1      2309-1.36150E-01 9.80998E-01 1.75406E-03
 -1      2310-1.39775E-01 1.01726E+00 1.74004E-03
 -1      2311-1.43424E-01 1.05391E+00 1.71978E-03
 -1      2312-1.07874E-01 1.00027E+00 1.42184E-03
 -1      2313-4.05990E-02 5.24489E-01 8.88920E-04
 -1      2314-3.83315E-02 4.95963E-01 8.69827E-04
 -1      2315-4.48653E-02 5.83448E-01 9.12296E-04
 -1      2316-4.27449E-02 5.53655E-01 8.99959E-04
 -1      2317-6.57892E-02 5.38230E-01 1.43103E-03
 -1      2318-2.07886E-02 3.98956E-02 2.23763E-03
 -1      2319-2.30458E-02 4.90843E-02 2.22341E-03
 -1      2320-2.53804E-02 5.91870E-02 2.21685E-03
 -1      2321-2.77403E-02 7.01942E-02 2.21005E-03
 -1      2322-1.58235E-02 5.37226E-02 1.45270E-03
 -1      2323-1.25683E-02 1.23057E-01 7.11226E-04
 -1      2324-1.15405E-02 1.08430E-01 7.04706E-04
 -1      2325-1.05574E-02 9.46822E-02 6.99029E-04
 -1      2326-9.61866E-03 8.18243E-02 6.92609E-04
 -1      2327-2.23970E-02 1.01450E-01 1.44894E-03
 -1      2328-5.42971E-03 3.10828E-02 6.67383E-04
 -1      2329-4.67242E-03 2.36785E-02 6.63648E-04
 -1      2330-3.22704E-03 1.17599E-02 6.62200E-04
 -1      2331-3.95271E-03 1.72221E-02 6.65346E-04
 -1      2332-9.68314E-03 2.05280E-02 1.46340E-03
 -1      2333-5.57632E-02 2.48838E-01 2.11229E-03
 -1      2334-5.85278E-02 2.70061E-01 2.09951E-03
 -1      2335-5.03524E-02 2.08786E-01 2.13443E-03
 -1      2336-5.30373E-02 2.28408E-01 2.12206E-03
 -1      2337-3.74342E-02 2.38633E-01 1.44181E-03
 -1      2338-6.69359E-02 3.38117E-01 2.06483E-03
 -1      2339-6.97677E-02 3.62294E-01 2.04752E-03
 -1      2340-5.02451E-02 3.75093E-01 1.42339E-03
 -1      2341-7.27915E-02 3.87445E-01 2.03757E-03
 -1      2342-7.59360E-02 4.13140E-01 2.02751E-03
 -1      2343-3.99702E-02 1.38576E-01 2.17191E-03
 -1      2344-4.25122E-02 1.54864E-01 2.16297E-03
 -1      2345-4.50890E-02 1.72002E-01 2.15442E-03
 -1      2346-4.77021E-02 1.89979E-01 2.14340E-03
 -1      2347-2.95688E-02 1.63281E-01 1.44529E-03
 -1      2348-7.28108E-03 4.31225E-03 2.21023E-03
 -1      2349-9.55651E-03 8.01743E-03 2.26016E-03
 -1      2350-5.69317E-03 2.23788E-03 2.13304E-03
 -1      2351-4.40758E-03 3.38694E-03 1.45656E-03
 -1      2352-3.48106E-03 6.22938E-04 1.65659E-03
 -1      2353-5.45363E-03 1.39425E-03 2.37535E-03
 -1      2354-1.18380E-01 8.05972E-01 1.83872E-03
 -1      2355-1.21881E-01 8.40073E-01 1.82047E-03
 -1      2356-1.12074E-01 7.40131E-01 1.87677E-03
 -1      2357-1.14906E-01 7.72360E-01 1.85252E-03
 -1      2358-8.87468E-02 7.90070E-01 1.42505E-03
 -1      2359-1.15269E-01 1.43967E+00 1.28452E-03
 -1      2360-1.11796E-01 1.40032E+00 1.26732E-03
 -1      2361-1.08355E-01 1.36114E+00 1.25051E-03
 -1      2362-1.04955E-01 1.32217E+00 1.23062E-03
 -1      2363-1.42527E-01 1.37923E+00 1.41635E-03
 -1      2364-1.91457E-01 1.55359E+00 1.49477E-03
 -1      2365-1.94765E-01 1.59513E+00 1.47513E-03
 -1      2366-1.62858E-01 1.60348E+00 1.41591E-03
 -1      2367-1.98128E-01 1.62590E+00 1.46221E-03
 -1      2368-2.16916E-01 1.64689E+00 1.46894E-03
 -1      2369-1.84941E-01 1.65527E+00 1.43038E-03
 -1      2370-7.90933E-02 4.39602E-01 2.01776E-03
 -1      2371-8.19641E-02 4.66858E-01 1.99842E-03
 -1      2372-8.51781E-02 4.94695E-01 1.98922E-03
 -1      2373-8.83356E-02 5.23135E-01 1.97224E-03
 -1      2374-6.04580E-02 4.81209E-01 1.43116E-03
 -1      2375-1.84312E-01 1.47609E+00 1.53045E-03
 -1      2376-1.88258E-01 1.51586E+00 1.51158E-03
 -1      2377-1.76859E-01 1.39738E+00 1.56549E-03
 -1      2378-1.80605E-01 1.43670E+00 1.54583E-03
 -1      2379-1.49707E-01 1.45781E+00 1.41417E-03
 -1      2380-9.15323E-02 5.52216E-01 1.95939E-03
 -1      2381-9.47678E-02 5.81923E-01 1.94230E-03
 -1      2382-9.80340E-02 6.12235E-01 1.93065E-03
 -1      2383-1.01738E-01 6.42280E-01 1.92462E-03
 -1      2384-7.12337E-02 5.97726E-01 1.42952E-03
 -1      2385-2.26455E-02 2.70568E-01 7.76535E-04
 -1      2386-2.11906E-02 2.49263E-01 7.67283E-04
 -1      2387-2.53264E-02 3.15483E-01 7.82685E-04
 -1      2388-2.41582E-02 2.92653E-01 7.84238E-04
 -1      2389-4.16534E-02 2.81159E-01 1.43919E-03
 -1      2390-3.62277E-02 4.68039E-01 8.57710E-04
 -1      2391-3.40969E-02 4.40770E-01 8.38318E-04
 -1      2392-5.52284E-02 4.26809E-01 1.42622E-03
 -1      2393-3.21083E-02 4.14221E-01 8.25526E-04
 -1      2394-3.01657E-02 3.88424E-01 8.08438E-04
 -1      2395-1.97948E-02 2.28754E-01 7.59127E-04
 -1      2396-1.84551E-02 2.09052E-01 7.49129E-04
 -1      2397-1.71714E-02 1.90170E-01 7.41570E-04
 -1      2398-1.59436E-02 1.72120E-01 7.31763E-04
 -1      2399-3.34095E-02 1.99309E-01 1.44396E-03
 -1      2400-1.91744E-03 3.27214E-04 9.92836E-04
 -1      2401-1.59337E-03 1.64489E-03 6.84614E-04
 -1      2402-4.76517E-04 5.09004E-04 3.11540E-04
 -1      2403-1.52278E-01 1.65799E+00 1.40133E-03
 -1      2404-1.18784E-01 1.65244E+00 1.36184E-03
 -1      2405-1.32724E-01 1.62872E+00 1.36835E-03
 -1      2406-1.54468E-01 1.16590E+00 1.67005E-03
 -1      2407-1.58178E-01 1.20385E+00 1.65242E-03
 -1      2408-1.47089E-01 1.09090E+00 1.70508E-03
 -1      2409-1.50771E-01 1.12824E+00 1.68556E-03
 -1      2410-8.23376E-02 1.05645E+00 1.11875E-03
 -1      2411-7.92975E-02 1.01975E+00 1.10312E-03
 -1      2412-7.63100E-02 9.83418E-01 1.08893E-03
 -1      2413-7.33721E-02 9.47483E-01 1.06999E-03
 -1      2414-3.49869E-02 1.08587E-01 2.18855E-03
 -1      2415-3.74629E-02 1.23149E-01 2.17930E-03
 -1      2416-3.01286E-02 8.21000E-02 2.20515E-03
 -1      2417-3.25423E-02 9.49010E-02 2.19578E-03
 -1      2418-8.72093E-03 6.98620E-02 6.87590E-04
 -1      2419-7.86029E-03 5.88014E-02 6.82592E-04
 -1      2420-7.03517E-03 4.86494E-02 6.78727E-04
 -1      2421-6.18843E-03 3.94147E-02 6.69011E-04
 -1      2422-1.16852E-02 1.23205E-02 2.26948E-03
 -1      2423-1.39506E-02 1.78182E-02 2.26494E-03
 -1      2424-1.62332E-02 2.42341E-02 2.25694E-03
 -1      2425-1.84851E-02 3.16073E-02 2.24415E-03
 -1      2426-6.79013E-03 9.78270E-03 1.46899E-03
 -1      2427-2.58159E-03 7.41981E-03 6.58932E-04
 -1      2428-2.02093E-03 3.68528E-03 6.92555E-04
 -1      2429-5.95497E-02 7.74361E-01 9.96776E-04
 -1      2430-5.67573E-02 7.41186E-01 9.78651E-04
 -1      2431-8.28268E-02 7.23780E-01 1.42825E-03
 -1      2432-1.08763E-01 7.07529E-01 1.89274E-03
 -1      2433-1.05194E-01 6.73745E-01 1.91198E-03
 -1      2434-1.01594E-01 1.28340E+00 1.21626E-03
 -1      2435-9.82730E-02 1.24487E+00 1.19945E-03
 -1      2436-1.28330E-01 1.22429E+00 1.41842E-03
 -1      2437-1.25409E-01 8.74646E-01 1.80645E-03
 -1      2438-1.28965E-01 9.09669E-01 1.78804E-03
 -1      2439-1.01336E-01 9.28462E-01 1.42210E-03
 -1      2440-6.13284E-02 2.92063E-01 2.09014E-03
 -1      2441-6.43009E-02 3.14820E-01 2.08287E-03
 -1      2442-4.58310E-02 3.26560E-01 1.43106E-03
 -1      2443-2.83636E-02 3.63186E-01 7.96459E-04
 -1      2444-2.67133E-02 3.38867E-01 7.84711E-04
 -1      2445-1.47670E-02 1.54910E-01 7.25166E-04
 -1      2446-1.36421E-02 1.38552E-01 7.16686E-04
 -1      2447-2.59015E-02 1.30636E-01 1.44661E-03
 -1      2448-1.90435E-02 7.57902E-02 1.45041E-03
 -1      2449-1.27145E-02 3.52781E-02 1.45634E-03
 -1      2450-1.14561E-01 1.07361E+00 1.41868E-03
 -1      2451-4.50278E-03 4.58860E-03 5.95891E-05
 -1      2452-1.68373E-01 1.60644E+00 4.49995E-05
 -1      2453-1.49763E-01 1.45806E+00-4.71246E-06
 -1      2454-9.72090E-03 2.21096E-02-8.67184E-08
 -1      2455-2.59706E-02 1.32124E-01 2.00177E-06
 -1      2456-1.28380E-01 1.22475E+00-6.57009E-06
 -1      2457-1.14622E-01 1.07421E+00-2.68368E-08
 -1      2458-1.01407E-01 9.29190E-01-2.42525E-06
 -1      2459-8.88240E-02 7.90929E-01-4.95223E-06
 -1      2460-7.13233E-02 5.98757E-01 5.53965E-07
 -1      2461-4.17405E-02 2.82496E-01 2.34211E-06
 -1      2462-1.91038E-02 7.73357E-02-1.33082E-06
 -1      2463-6.06583E-02 4.82412E-01-5.03633E-06
 -1      2464-3.34700E-02 2.00727E-01-7.03484E-07
 -1      2465-5.07552E-02 3.76327E-01-3.97106E-07
 -1      2466-6.78461E-02 6.92782E-01 1.32657E-04
 -1      2467-1.24343E-01 1.34113E+00 1.43234E-04
 -1      2468-1.08990E-02 4.54875E-02 1.21181E-04
 -1      2469-1.17253E-01 1.65371E+00-5.24307E-04
 -1      2470-2.42437E-04 1.36548E-03-9.31846E-05
 -1      2471-1.14616E-01 1.65605E+00 5.30651E-04
 -1      2472-4.76132E-03 2.16213E-03-8.41086E-04
 -1      2473-4.69712E-02 1.64690E-01-7.02933E-04
 -1      2474-8.57601E-03 1.02853E-01-1.62496E-04
 -1      2475-1.59670E-01 1.14722E+00-5.27180E-04
 -1      2476-8.32065E-02 1.15050E+00 3.27604E-04
 -1      2477-1.30148E-01 8.57800E-01 5.68987E-04
 -1      2478-1.44776E-01 9.99430E-01 5.43111E-04
 -1      2479-7.11038E-02 1.00243E+00-3.12212E-04
 -1      2480-5.99166E-02 8.60484E-01-2.87737E-04
 -1      2481-3.63698E-02 1.03079E-01 7.07747E-04
 -1      2482-3.63413E-02 5.40167E-01-2.36133E-04
 -1      2483-8.23576E-02 4.27325E-01-6.51337E-04
 -1      2484-2.20656E-02 3.28366E-01 1.95782E-04
 -1      2485-9.54266E-02 5.38471E-01 6.24333E-04
 -1      2486-5.82805E-02 2.39770E-01 6.80066E-04
 -1      2487-1.22248E-02 1.64781E-01 1.70129E-04
 -1      2488-2.87229E-02 4.28621E-01 2.12928E-04
 -1      2489-1.68008E-02 2.40247E-01-1.87231E-04
 -1      2490-7.01021E-02 3.27480E-01-6.73364E-04
 -1      2491-2.42067E-04 1.32169E-03 9.58971E-05
 -1      2492-2.20142E-01 1.65158E+00-5.76795E-04
 -1      2493-1.85705E-01 1.38453E+00-5.26812E-04
 -1      2494-2.73531E-02 5.73982E-02-7.89484E-04
 -1      2495-2.11026E-03 1.09985E-02-1.59237E-04
 -1      2496-1.15739E-01 1.53699E+00-4.09076E-04
 -1      2497-4.75978E-03 2.11561E-03 8.89634E-04
 -1      2498-1.77044E-01 1.29202E+00-5.47751E-04
 -1      2499-2.13043E-02 3.55751E-02-8.04924E-04
 -1      2500-2.23557E-01 1.65323E+00 5.92371E-04
 -1      2501-1.10475E-01 6.53863E-01-6.66804E-04
 -1      2502-1.20419E-01 7.29430E-01-6.01881E-04
 -1      2503-1.22383E-02 1.25019E-02 8.21530E-04
 -1      2504-2.07976E-01 1.52910E+00-2.92415E-04
 -1      2505-1.31224E-01 1.53261E+00 5.12196E-04
 -1      2506-4.50120E-02 7.40864E-01-2.80283E-04
 -1      2507-3.84344E-02 6.47640E-01-2.63004E-04
 -1      2508-9.73857E-02 1.39932E+00-4.27426E-04
 -1      2509-1.90976E-01 1.39509E+00 5.71801E-04
 -1      2510-1.79905E-01 1.28214E+00 5.99320E-04
 -1      2511-8.77286E-02 1.28622E+00-4.03975E-04
 -1      2512-4.02294E-03 5.96778E-02-1.21440E-04
 -1      2513-2.68921E-03 3.28158E-02-1.18226E-04
 -1      2514-7.30889E-02 3.16485E-01 8.38474E-04
 -1      2515-5.21628E-02 8.44179E-01 2.98739E-04
 -1      2516-1.68597E-01 1.16499E+00 6.33573E-04
 -1      2517-7.75852E-02 1.16891E+00-3.78592E-04
 -1      2518-6.56430E-02 1.02016E+00 3.36642E-04
 -1      2519-1.53413E-01 1.01655E+00-6.76758E-04
 -1      2520-1.38442E-01 8.74158E-01-7.07601E-04
 -1      2521-6.29664E-03 1.09527E-01 1.30118E-04
 -1      2522-1.02559E-01 5.52296E-01-7.86529E-04
 -1      2523-4.89074E-02 1.56569E-01 8.83088E-04
 -1      2524-1.34419E-02 2.50216E-01 1.62570E-04
 -1      2525-4.03017E-02 1.09759E-01-8.98952E-04
 -1      2526-3.17733E-02 5.54390E-01 2.33841E-04
 -1      2527-1.71355E-02 3.17446E-01-1.83382E-04
 -1      2528-8.54565E-03 1.56511E-01-1.45268E-04
 -1      2529-6.36188E-02 2.49620E-01-8.61871E-04
 -1      2530-2.44669E-02 4.41726E-01-2.09787E-04
 -1      2531-8.90798E-02 4.39966E-01 8.10625E-04
 -1      2532-1.13228E-01 6.45287E-01 7.34127E-04
 -1      2533-2.91387E-02 6.02271E-02 9.01618E-04
 -1      2534-2.14108E-02 3.35225E-02 9.14247E-04
 -1      2535-1.59897E-03 1.28102E-02 1.31843E-04
 -1      2536-1.34124E-02 1.37437E-02-9.04179E-04
 -1      2537-4.14505E-02 7.52077E-01 2.82173E-04
 -1      2538-2.75380E-02 6.42244E-01 2.27903E-04
 -1      2539-9.33584E-02 1.41271E+00 4.59932E-04
 -1      2540-8.15683E-02 1.27351E+00 4.23238E-04
 -1      2541-1.25215E-01 7.41616E-01 7.56924E-04
 -1      2542-1.64619E-03 3.02022E-02 8.53628E-05
 -1      2543-2.89458E-03 6.31658E-02 9.16980E-05
 -1      2544-2.09054E-01 1.49404E+00 6.58799E-04
 -1      2545-6.13438E-02 2.09020E-01-1.09236E-03
 -1      2546-1.68471E-01 1.08866E+00 7.88940E-04
 -1      2547-5.02798E-02 9.15251E-01 3.31608E-04
 -1      2548-6.38117E-02 1.09307E+00-3.96017E-04
 -1      2549-1.37875E-01 8.04318E-01-8.86767E-04
 -1      2550-3.71665E-02 8.29994E-02-1.13927E-03
 -1      2551-6.61535E-03 1.92408E-01-1.06380E-04
 -1      2552-5.85951E-02 1.92179E-01 1.09469E-03
 -1      2553-7.34201E-03 2.09509E-01 1.09903E-04
 -1      2554-8.75925E-02 3.87013E-01 1.02395E-03
 -1      2555-1.61104E-02 3.88747E-01-1.70639E-04
 -1      2556-2.22080E-02 4.96026E-01 2.01954E-04
 -1      2557-1.01372E-01 4.93890E-01-9.90699E-04
 -1      2558-2.07564E-01 1.57392E+00 7.46856E-04
 -1      2559-1.54194E-01 9.44198E-01-8.64244E-04
 -1      2560-5.16602E-02 9.33896E-01-3.44458E-04
 -1      2561-1.51059E-01 9.24497E-01 8.43975E-04
 -1      2562-1.53808E-02 3.75450E-01 1.62251E-04
 -1      2563-7.19831E-02 3.75892E-01-1.03400E-03
 -1      2564-9.31117E-02 3.75717E-01-6.61980E-04
 -1      2565-1.14407E-01 3.75284E-01-2.46769E-03
 -1      2566-8.13945E-02 3.51014E-01-1.60205E-03
 -1      2567-1.01949E-01 3.51085E-01-1.22895E-03
 -1      2568-6.07776E-02 3.51514E-01-2.77448E-04
 -1      2569-1.09791E-01 4.00885E-01-1.20146E-03
 -1      2570-8.80147E-02 4.00935E-01-1.57310E-03
 -1      2571-6.61716E-02 4.01496E-01-2.73752E-04
 -1      2572-7.39977E-02 1.64720E+00-2.52329E-04
 -1      2573-7.12699E-02 1.61642E+00-2.42225E-04
 -1      2574-7.26720E-02 1.64837E+00 2.48316E-04
 -1      2575-6.99454E-02 1.61759E+00 2.47057E-04
 -1      2576-1.15929E-01 1.65490E+00 3.94577E-06
 -1      2577-1.38435E-01 1.61321E+00-9.55694E-04
 -1      2578-1.41738E-01 1.64399E+00-9.63916E-04
 -1      2579-1.93142E-01 1.64293E+00-1.01248E-03
 -1      2580-1.68695E-01 1.65263E+00-5.51128E-04
 -1      2581-1.89792E-01 1.61215E+00-1.02033E-03
 -1      2582-1.62281E-03 1.48994E-03-5.51515E-04
 -1      2583-1.96253E-03 2.75762E-03-1.51163E-04
 -1      2584-3.86304E-03 3.31304E-03-7.11552E-04
 -1      2585-4.24887E-03 1.89062E-03-1.30349E-03
 -1      2586-4.92208E-03 3.21938E-03-3.41318E-04
 -1      2587-2.49967E-03 1.53498E-03-4.71780E-04
 -1      2588 4.22563E-04 3.31417E-03 6.24263E-07
 -1      2589 1.75405E-03 2.09736E-03 1.10372E-04
 -1      2590 1.74672E-03 2.07053E-03-1.11738E-04
 -1      2591-2.29018E-04 1.45542E-03 1.03628E-06
 -1      2592-1.95687E-03 2.71628E-03 1.89208E-04
 -1      2593-2.24867E-01 1.22052E+00-1.57686E-03
 -1      2594-2.08456E-01 1.18317E+00-8.21172E-04
 -1      2595-1.75647E-01 1.18433E+00-1.18330E-03
 -1      2596-1.84491E-01 1.25677E+00-1.17816E-03
 -1      2597-1.68331E-01 1.21913E+00-5.38545E-04
 -1      2598-2.17739E-01 1.25553E+00-8.14151E-04
 -1      2599-1.44160E-01 1.18583E+00-2.38435E-04
 -1      2600-1.93087E-01 1.22200E+00-4.65867E-04
 -1      2601-1.52578E-01 1.25829E+00-2.60202E-04
 -1      2602-1.60095E-01 1.22327E+00-8.28973E-04
 -1      2603 5.02532E-04 5.63815E-03 7.97908E-07
 -1      2604 2.37464E-03 3.92552E-03-1.20306E-04
 -1      2605-4.98033E-03 5.58757E-03-7.34878E-04
 -1      2606-5.77372E-03 3.71723E-03-1.39859E-03
 -1      2607-2.34432E-01 1.41831E+00-7.31818E-04
 -1      2608-2.00448E-01 1.41971E+00-1.09496E-03
 -1      2609-2.49385E-01 1.45360E+00-1.34214E-03
 -1      2610-2.45871E-01 1.49057E+00-5.86669E-04
 -1      2611-2.11657E-01 1.49203E+00-9.59171E-04
 -1      2612-1.96838E-01 1.45657E+00-4.08668E-04
 -1      2613-1.67811E-01 1.42122E+00-2.46339E-04
 -1      2614-1.82517E-01 1.45656E+00-7.76751E-04
 -1      2615-1.78787E-01 1.49353E+00-1.45881E-04
 -1      2616 8.87606E-03 9.98052E-02-1.11900E-04
 -1      2617-1.33324E-02 9.27206E-02 1.60407E-04
 -1      2618 9.81949E-04 8.35154E-02-4.61104E-07
 -1      2619 8.84808E-03 7.62806E-02-1.38881E-04
 -1      2620-1.06324E-02 7.00975E-02 1.65721E-04
 -1      2621-4.42670E-03 8.48196E-02 1.13601E-04
 -1      2622-1.38891E-02 9.87071E-02 6.14767E-04
 -1      2623-1.99154E-02 8.30240E-02 7.26046E-04
 -1      2624-1.11290E-02 7.52183E-02 5.91331E-04
 -1      2625 8.71387E-03 9.29153E-02-2.68354E-04
 -1      2626 8.61443E-03 7.02015E-02-3.15709E-04
 -1      2627-2.50325E-03 9.21762E-02 1.02615E-04
 -1      2628-1.17865E-03 6.94777E-02 5.63926E-05
 -1      2629 2.38310E-03 3.95797E-03 1.21153E-04
 -1      2630-2.19117E-03 3.29055E-03-5.84794E-04
 -1      2631-1.95065E-01 1.24115E+00-4.36796E-06
 -1      2632-1.91118E-01 1.20298E+00-4.61852E-06
 -1      2633-1.30119E-01 1.24378E+00-7.15677E-04
 -1      2634-1.26622E-01 1.20555E+00-7.16015E-04
 -1      2635-1.51537E-01 1.47770E+00-7.14015E-04
 -1      2636-1.80601E-01 1.51322E+00-8.92504E-04
 -1      2637-1.47954E-01 1.43832E+00-7.15622E-04
 -1      2638-3.90188E-02 1.31873E-01-1.09692E-03
 -1      2639-2.68793E-02 1.39578E-01-7.26384E-04
 -1      2640-4.97919E-02 1.47604E-01-1.70942E-03
 -1      2641-3.71497E-02 1.55657E-01-1.23021E-03
 -1      2642-3.60197E-02 1.48000E-01-2.87557E-04
 -1      2643-3.46608E-02 1.27521E-01-1.34399E-03
 -1      2644-4.60110E-02 1.20314E-01-1.85020E-03
 -1      2645-3.35213E-02 1.20674E-01-3.52401E-04
 -1      2646-1.99545E-02 8.30254E-02-7.28160E-04
 -1      2647-9.12900E-03 7.68926E-02-3.44419E-04
 -1      2648-1.49104E-02 9.55496E-02-6.48467E-04
 -1      2649-3.54172E-03 8.91005E-02-1.49923E-04
 -1      2650-1.42721E-02 8.96304E-02-1.49629E-04
 -1      2651-1.30464E-02 1.31816E-01-3.56528E-04
 -1      2652-2.51059E-02 1.24126E-01-7.27325E-04
 -1      2653-4.60408E-03 1.16613E-01-1.64420E-04
 -1      2654-1.61770E-02 1.09268E-01-6.50801E-04
 -1      2655-1.68090E-02 1.17074E-01-1.51339E-04
 -1      2656-5.21902E-02 3.89042E-01-7.23946E-04
 -1      2657-4.97578E-02 3.63858E-01-7.25221E-04
 -1      2658-4.37375E-02 1.35886E-01-7.97221E-04
 -1      2659-5.55117E-02 3.04632E-01-2.80312E-04
 -1      2660-7.47494E-02 3.03964E-01-1.62554E-03
 -1      2661-6.03324E-02 2.81965E-01-1.05629E-03
 -1      2662-5.30226E-02 2.65813E-01-3.41982E-04
 -1      2663-7.11118E-02 2.65189E-01-1.76197E-03
 -1      2664-6.69358E-02 2.87353E-01-7.63184E-04
 -1      2665-1.70093E-02 1.35451E-01-6.26391E-04
 -1      2666-4.15916E-03 1.43637E-01-1.27379E-04
 -1      2667-1.76393E-02 1.44051E-01-1.64750E-04
 -1      2668-4.29130E-02 2.93320E-01-7.24674E-04
 -1      2669-5.43917E-02 2.76083E-01-1.30597E-03
 -1      2670-4.60452E-02 5.99349E-01-4.62737E-04
 -1      2671-6.99197E-02 5.83407E-01-7.19619E-04
 -1      2672-2.87077E-02 5.69645E-01-3.84846E-04
 -1      2673-5.22614E-02 5.53953E-01-7.24011E-04
 -1      2674-5.34905E-02 5.69183E-01-1.70764E-04
 -1      2675 1.05583E-03 7.73215E-02 2.33996E-05
 -1      2676 7.41262E-03 8.97871E-02 2.17362E-04
 -1      2677 7.53824E-03 9.65510E-02 8.08529E-05
 -1      2678-5.68886E-02 3.15639E-01-1.19818E-03
 -1      2679-8.62760E-03 1.28335E-01-1.54342E-04
 -1      2680-5.05012E-02 1.24970E-01-1.07289E-06
 -1      2681-5.21240E-02 1.32458E-01 7.19161E-04
 -1      2682-5.44797E-02 1.10731E-01 5.11285E-04
 -1      2683-5.63045E-02 1.17667E-01 1.34299E-03
 -1      2684-3.15960E-02 1.17147E-01 2.84661E-04
 -1      2685-3.87732E-02 1.31867E-01 1.08916E-03
 -1      2686-2.50635E-02 1.24134E-01 7.24494E-04
 -1      2687-4.36755E-02 1.16806E-01 1.71305E-03
 -1      2688-3.04738E-02 1.09371E-01 1.23726E-03
 -1      2689-5.37592E-02 1.40343E-01-7.06631E-07
 -1      2690-5.21236E-02 1.32460E-01-7.20140E-04
 -1      2691-6.36559E-02 1.48374E-01-1.33126E-03
 -1      2692-6.55293E-02 1.56783E-01-5.06636E-04
 -1      2693-1.45318E-01 1.07281E+00-8.61861E-04
 -1      2694-1.16303E-01 1.09260E+00-7.16300E-04
 -1      2695-1.38733E-01 1.12905E+00-1.03668E-03
 -1      2696-1.36967E-01 1.11057E+00-2.43651E-04
 -1      2697-1.67947E-01 1.10910E+00-1.22039E-03
 -1      2698-8.39026E-02 1.07538E+00 5.61817E-04
 -1      2699-1.16295E-01 1.09260E+00 7.07727E-04
 -1      2700-6.80511E-02 1.11334E+00 6.30669E-04
 -1      2701-1.00668E-01 1.13067E+00 8.14192E-04
 -1      2702-9.90604E-02 1.11217E+00 1.83869E-04
 -1      2703-2.06415E-01 1.16434E+00-3.17822E-04
 -1      2704-1.79244E-01 1.09024E+00-4.77681E-06
 -1      2705-1.77261E-01 1.07170E+00-4.99384E-04
 -1      2706-2.02302E-01 1.12677E+00-3.24421E-04
 -1      2707-2.00226E-01 1.10803E+00-8.56514E-04
 -1      2708-1.42329E-01 1.16669E+00-1.02871E-03
 -1      2709-5.34120E-02 1.09554E+00-5.18097E-06
 -1      2710-5.20047E-02 1.07695E+00 1.98493E-04
 -1      2711-3.58313E-02 1.11501E+00 2.67041E-04
 -1      2712-3.71869E-02 1.13382E+00 1.02118E-04
 -1      2713-3.19301E-02 7.93178E-01-1.43523E-04
 -1      2714-3.30546E-02 8.10133E-01-2.27929E-06
 -1      2715-1.78716E-02 8.45094E-01-5.95182E-05
 -1      2716-7.45891E-02 8.25440E-01-1.78851E-04
 -1      2717-1.68310E-02 8.27825E-01-1.41767E-04
 -1      2718-9.03378E-02 8.07590E-01-7.16933E-04
 -1      2719-6.09069E-02 7.91788E-01-5.07482E-04
 -1      2720-7.59993E-02 8.42245E-01-7.72867E-04
 -1      2721-4.62540E-02 8.26281E-01-5.05789E-04
 -1      2722-2.89819E-02 7.71912E-02 1.10444E-03
 -1      2723-3.78864E-02 8.94930E-02 1.72941E-03
 -1      2724-2.72686E-02 8.97796E-02 2.86945E-04
 -1      2725-2.83112E-02 9.56819E-02 1.24095E-03
 -1      2726-3.92868E-02 7.79328E-02 7.34021E-04
 -1      2727-4.08754E-02 8.40681E-02 1.72068E-07
 -1      2728-4.89883E-02 9.04338E-02 1.35838E-03
 -1      2729-5.08217E-02 9.71170E-02 5.14154E-04
 -1      2730 3.04555E-04 1.24794E-01-1.14411E-06
 -1      2731 1.51175E-04 1.32351E-01 1.01735E-05
 -1      2732 7.76096E-03 1.10330E-01 7.80969E-05
 -1      2733 7.85804E-03 1.17350E-01 2.02329E-04
 -1      2734-6.78096E-02 4.14391E-01-1.17770E-03
 -1      2735-1.91440E-02 5.85489E-01-3.27586E-06
 -1      2736-2.00038E-02 6.00554E-01-9.85028E-05
 -1      2737-2.50646E-03 5.56289E-01-6.72337E-06
 -1      2738-3.17008E-03 5.70983E-01-2.09347E-05
 -1      2739-1.20789E-01 5.82373E-01-3.34904E-06
 -1      2740-1.22676E-01 5.97351E-01 6.02930E-04
 -1      2741-1.32014E-01 5.52463E-01 4.23050E-04
 -1      2742-1.34036E-01 5.67046E-01 1.10985E-03
 -1      2743-8.36664E-02 5.68284E-01 2.59636E-04
 -1      2744-9.64767E-02 5.97777E-01 9.68577E-04
 -1      2745-6.99232E-02 5.83406E-01 7.14153E-04
 -1      2746-8.21150E-02 5.53079E-01 1.13982E-03
 -1      2747-1.08314E-01 5.67257E-01 1.47554E-03
 -1      2748-1.31438E-02 1.31815E-01 3.58095E-04
 -1      2749-2.68546E-02 1.39586E-01 7.23943E-04
 -1      2750-5.96013E-03 1.47617E-01 1.80546E-04
 -1      2751-2.01892E-02 1.55689E-01 6.54136E-04
 -1      2752-1.95089E-02 1.48001E-01 1.49907E-04
 -1      2753-7.73024E-02 2.71395E-01-1.78962E-06
 -1      2754-7.90323E-02 2.82183E-01 6.80205E-04
 -1      2755-8.44836E-02 2.50309E-01 4.82598E-04
 -1      2756-8.63901E-02 2.60595E-01 1.26649E-03
 -1      2757-5.03890E-02 2.60717E-01 2.76309E-04
 -1      2758-5.99996E-02 2.81965E-01 1.04823E-03
 -1      2759-4.06470E-02 2.71243E-01 7.19997E-04
 -1      2760-6.79958E-02 2.60119E-01 1.63328E-03
 -1      2761-4.91013E-02 2.49656E-01 1.20410E-03
 -1      2762-2.73257E-05 1.40305E-01-1.50728E-06
 -1      2763 1.50813E-04 1.32353E-01-1.19447E-05
 -1      2764 8.08987E-03 1.56911E-01-7.05483E-05
 -1      2765 8.08265E-03 1.48409E-01-1.89331E-04
 -1      2766-4.07658E-03 2.72440E-01-2.22869E-06
 -1      2767-4.48356E-03 2.83312E-01-2.61028E-05
 -1      2768 7.27907E-03 2.51454E-01 5.05555E-05
 -1      2769 7.10947E-03 2.61846E-01 1.29013E-04
 -1      2770-2.88441E-02 2.61005E-01-1.57993E-04
 -1      2771-6.19148E-02 4.96111E-01-7.19785E-04
 -1      2772-3.75627E-02 4.82809E-01-4.39134E-04
 -1      2773-2.51468E-02 5.11297E-01-3.57439E-04
 -1      2774-4.88011E-02 5.10937E-01-1.67013E-04
 -1      2775-4.99112E-02 5.24820E-01-7.18651E-04
 -1      2776-5.96019E-02 3.39215E-01-1.19403E-03
 -1      2777-4.92176E-03 2.94542E-01-2.45960E-06
 -1      2778-4.48389E-03 2.83315E-01 2.26624E-05
 -1      2779 6.31343E-03 3.06024E-01-1.13501E-04
 -1      2780-3.22648E-02 3.05023E-01 1.55581E-04
 -1      2781 6.03240E-03 3.17745E-01-4.17613E-05
 -1      2782-2.34488E-02 2.82519E-01 3.90857E-04
 -1      2783-4.28029E-02 2.93275E-01 7.19511E-04
 -1      2784-3.31493E-02 3.16008E-01 6.78906E-04
 -1      2785-1.33256E-02 3.04990E-01 2.54296E-04
 -1      2786-1.73707E-03 6.76471E-02-8.90146E-05
 -1      2787-1.16964E-02 7.33284E-02-6.13962E-04
 -1      2788-1.11371E-02 6.82526E-02-1.60643E-04
 -1      2789-8.07768E-02 2.93329E-01-1.70652E-06
 -1      2790-7.90323E-02 2.82186E-01-6.82587E-04
 -1      2791-9.61048E-02 3.15942E-01-4.74929E-04
 -1      2792-9.41405E-02 3.04333E-01-1.25058E-03
 -1      2793-1.07720E-01 4.81362E-01 6.35906E-04
 -1      2794-1.09575E-01 4.95374E-01-9.63790E-07
 -1      2795-1.25908E-01 5.09081E-01 1.14570E-03
 -1      2796-1.27952E-01 5.23490E-01 4.28821E-04
 -1      2797-7.76899E-02 5.10141E-01 2.63920E-04
 -1      2798-9.13090E-02 3.63286E-01 5.06758E-06
 -1      2799-9.49175E-02 3.88364E-01 4.01506E-06
 -1      2800 1.10740E-03 2.18296E-02 3.37705E-05
 -1      2801 1.05783E-03 1.88385E-02 2.71745E-07
 -1      2802 5.11752E-03 2.38490E-02 1.24246E-04
 -1      2803-6.63364E-03 2.71745E-02-1.60234E-04
 -1      2804 5.43679E-03 2.70636E-02 2.99911E-04
 -1      2805 9.60685E-03 1.44463E-01 2.38418E-04
 -1      2806 9.51790E-03 1.36695E-01 1.00551E-04
 -1      2807-3.43570E-03 1.20119E-01 1.18015E-04
 -1      2808-1.57255E-02 1.20594E-01 1.63574E-04
 -1      2809-1.63228E-02 1.27469E-01 6.20688E-04
 -1      2810-1.17013E-01 1.45955E+00-6.54476E-04
 -1      2811-9.08342E-02 1.43010E+00-8.09605E-04
 -1      2812-1.25218E-01 1.44819E+00-9.03712E-04
 -1      2813-1.23499E-01 1.42865E+00-2.39266E-04
 -1      2814-6.24475E-02 1.36854E-01 6.13505E-04
 -1      2815-3.70324E-02 1.44115E-01 3.51789E-04
 -1      2816-6.43306E-02 1.44530E-01 1.45705E-03
 -1      2817-5.03760E-02 1.43704E-01 1.82668E-03
 -1      2818-3.58354E-02 1.35551E-01 1.33898E-03
 -1      2819-6.04894E-02 1.28874E-01-6.17605E-04
 -1      2820-5.85941E-02 1.21200E-01-1.47121E-03
 -1      2821-1.35927E-01 1.06341E+00-1.11590E-03
 -1      2822-1.64645E-01 1.04383E+00-1.32451E-03
 -1      2823-1.34167E-01 1.04527E+00-2.94902E-04
 -1      2824-9.15103E-02 1.06526E+00 8.14498E-04
 -1      2825-5.94507E-02 1.04819E+00 6.05008E-04
 -1      2826-8.99623E-02 1.04710E+00 2.11736E-04
 -1      2827-1.96422E-01 1.04285E+00-9.62556E-04
 -1      2828-1.98519E-01 1.06130E+00-4.03646E-04
 -1      2829-2.90213E-02 1.06839E+00 1.02315E-04
 -1      2830-2.77442E-02 1.04986E+00 2.42016E-04
 -1      2831 9.30251E-03 1.20907E-01-2.52019E-04
 -1      2832 9.40254E-03 1.28674E-01-1.05406E-04
 -1      2833 8.88227E-03 2.78101E-01-7.16597E-05
 -1      2834-2.72202E-02 2.66155E-01 1.71200E-04
 -1      2835 9.06323E-03 2.67035E-01-1.71145E-04
 -1      2836-2.80163E-02 2.76408E-01 6.50944E-04
 -1      2837-9.40761E-03 2.66018E-01 1.97115E-04
 -1      2838-8.93576E-02 2.65689E-01-1.38580E-03
 -1      2839-9.13373E-02 2.76642E-01-5.81649E-04
 -1      2840-5.38800E-02 6.07224E-01-7.26398E-04
 -1      2841-2.94619E-02 6.23533E-01-3.89348E-04
 -1      2842-5.51374E-02 6.22996E-01-1.90281E-04
 -1      2843-9.34178E-02 2.88072E-01 5.73748E-04
 -1      2844-5.70439E-02 2.99287E-01 3.39781E-04
 -1      2845-9.53816E-02 2.99028E-01 1.36460E-03
 -1      2846 8.50619E-03 3.00722E-01 1.50225E-04
 -1      2847 8.70274E-03 2.89653E-01 6.29598E-05
 -1      2848-2.97784E-02 2.99722E-01-1.72279E-04
 -1      2849-5.56802E-02 2.87523E-01 1.29702E-03
 -1      2850-7.57902E-02 2.98610E-01 1.73363E-03
 -1      2851-2.19784E-01 1.27482E+00-3.22765E-04
 -1      2852-1.54387E-01 1.27738E+00-1.03500E-03
 -1      2853 8.07042E-03 7.43255E-02 1.14393E-04
 -1      2854 7.86084E-03 6.83349E-02 2.78261E-04
 -1      2855-1.95523E-02 4.62157E-01-3.05580E-04
 -1      2856-4.32638E-02 4.75153E-01-6.95842E-04
 -1      2857-4.22414E-02 4.61900E-01-1.85014E-04
 -1      2858-3.90626E-02 7.66515E-01-4.67756E-04
 -1      2859-6.80088E-02 7.82091E-01-7.62708E-04
 -1      2860-6.66723E-02 7.65768E-01-2.02120E-04
 -1      2861-2.28501E-03 6.09726E-01-9.81522E-06
 -1      2862-2.99619E-03 6.24949E-01-2.53640E-05
 -1      2863-1.13353E-02 7.84898E-01-4.79610E-05
 -1      2864-1.03883E-02 7.68045E-01-1.03722E-04
 -1      2865-8.46688E-02 1.48087E+00-4.35801E-06
 -1      2866-8.29785E-02 1.46119E+00-2.93024E-04
 -1      2867-5.84748E-02 1.45145E+00-1.93012E-04
 -1      2868-5.68526E-02 1.43180E+00-4.46782E-04
 -1      2869-1.36145E-02 4.83884E-01-7.30154E-05
 -1      2870-1.43520E-02 4.97974E-01-1.89603E-06
 -1      2871-6.15348E-04 5.12579E-01 7.38165E-06
 -1      2872-1.22869E-03 5.27092E-01-1.51944E-06
 -1      2873-2.34491E-02 2.82518E-01-3.93556E-04
 -1      2874-4.07560E-02 2.71208E-01-7.25335E-04
 -1      2875-1.11927E-02 2.60876E-01-2.39637E-04
 -1      2876-2.80734E-02 2.49883E-01-6.76265E-04
 -1      2877-8.96053E-03 1.86179E-02-7.41251E-04
 -1      2878-4.34244E-03 2.15298E-02-3.37943E-04
 -1      2879-6.12865E-03 2.30274E-02-6.09047E-04
 -1      2880-6.33353E-04 2.64607E-02-6.63632E-05
 -1      2881-4.24501E-02 1.28490E-01 7.95845E-04
 -1      2882-1.56584E-01 1.08136E+00-5.96653E-04
 -1      2883-7.42791E-02 1.08482E+00 3.36834E-04
 -1      2884-9.99799E-02 3.39135E-01-4.61239E-04
 -1      2885-1.23474E-01 4.73939E-01 5.30688E-04
 -1      2886-1.21415E-01 4.60096E-01 1.27759E-03
 -1      2887-7.51612E-02 4.60972E-01 3.26042E-04
 -1      2888-1.11798E-01 4.13963E-01-4.49142E-04
 -1      2889-9.03716E-03 1.35824E-01 1.54517E-04
 -1      2890-6.19211E-02 4.96110E-01 7.15738E-04
 -1      2891-8.37032E-02 4.81577E-01 9.96408E-04
 -1      2892-7.91236E-02 5.23998E-01 1.14594E-03
 -1      2893-1.01279E-01 5.09184E-01 1.50495E-03
 -1      2894-1.75307E-02 2.88106E-01 1.83951E-04
 -1      2895-1.65950E-01 1.40151E+00-1.00723E-03
 -1      2896-1.42835E-01 1.63006E+00-2.42984E-04
 -1      2897-9.69256E-02 1.59278E+00 2.21398E-05
 -1      2898-1.41520E-01 1.63123E+00 2.90668E-04
 -1      2899-6.54988E-02 2.76925E-01 7.60499E-04
 -1      2900-1.63956E-01 1.58963E+00-6.92313E-04
 -1      2901-1.94236E-01 1.62900E+00-2.62865E-04
 -1      2902-6.08768E-03 7.98598E-02-1.45636E-04
 -1      2903-1.70001E-02 2.77626E-01-1.84580E-04
 -1      2904-9.23150E-02 4.88186E-01 7.12648E-04
 -1      2905-3.01832E-02 4.89936E-01-2.27887E-04
 -1      2906-2.89979E-02 2.87889E-01-6.59354E-04
 -1      2907-1.09847E-02 2.99660E-01-2.16410E-04
 -1      2908 3.47058E-03 4.77374E-01 2.14192E-05
 -1      2909 3.98130E-03 4.63419E-01 6.07188E-05
 -1      2910-3.73704E-02 5.92944E-01-2.46906E-04
 -1      2911-1.44177E-01 6.20479E-01 1.17102E-03
 -1      2912-1.42115E-01 6.05368E-01 4.85347E-04
 -1      2913-9.19840E-02 6.21864E-01 3.09517E-04
 -1      2914-5.22823E-02 7.99909E-01-2.89326E-04
 -1      2915-9.03689E-02 6.06126E-01 1.20734E-03
 -1      2916-1.17521E-01 6.20768E-01 1.53901E-03
 -1      2917-3.38259E-02 6.82345E-02 1.86569E-03
 -1      2918-2.55837E-02 7.35547E-02 1.35094E-03
 -1      2919-2.45268E-02 6.84976E-02 3.52411E-04
 -1      2920-9.77815E-02 4.60062E-01 1.63822E-03
 -1      2921-7.65860E-02 4.74193E-01 1.24961E-03
 -1      2922-4.54143E-02 7.51935E-02 6.24252E-04
 -1      2923-4.35584E-02 6.92801E-02 1.49555E-03
 -1      2924 3.85567E-03 1.59398E-02 2.52071E-04
 -1      2925-5.43481E-03 1.61220E-02-1.55562E-04
 -1      2926 3.55143E-03 1.35105E-02 9.51573E-05
 -1      2927-2.22265E-03 9.36154E-04 1.54521E-04
 -1      2928-2.36724E-03 9.81941E-04-8.10405E-05
 -1      2929-1.84984E-03 4.94407E-04 1.27050E-04
 -1      2930-4.95104E-03 3.16880E-03 4.39745E-04
 -1      2931-1.79486E-03 3.93518E-04 3.49453E-04
 -1      2932 1.09797E-02 7.68754E-02-6.44812E-04
 -1      2933-1.34557E-01 1.51714E+00-8.94225E-04
 -1      2934-9.99362E-02 1.49894E+00-8.20467E-04
 -1      2935-1.32805E-01 1.49745E+00-2.11659E-04
 -1      2936-1.51367E-03 8.00163E-04 8.73532E-06
 -1      2937-8.20583E-04 1.54074E-02-1.19609E-04
 -1      2938-4.92621E-03 1.28412E-02-6.51578E-04
 -1      2939-1.04182E-01 5.90933E-01 6.82030E-04
 -1      2940-6.57492E-02 1.50063E+00-4.60087E-04
 -1      2941-6.74247E-02 1.52039E+00-1.84180E-04
 -1      2942-1.88443E-01 1.67078E+00 1.18704E-04
 -1      2943-1.59227E-01 1.67213E+00 1.61877E-04
 -1      2944-1.71462E-01 1.67157E+00-1.15262E-04
 -1      2945-3.28564E-02 8.02429E-02 8.01494E-04
 -1      2946-1.86822E-01 1.69554E+00 4.26032E-04
 -1      2947-1.95941E-01 1.62983E+00 3.18264E-04
 -1      2948-2.16060E-01 1.69420E+00 3.83348E-04
 -1      2949-2.50057E-03 2.04833E-02-1.37756E-04
 -1      2950-1.06482E-01 1.46794E+00-4.22592E-04
 -1      2951-3.76865E-02 1.30605E+00 6.21936E-04
 -1      2952-8.21453E-02 1.35834E+00 7.71408E-04
 -1      2953-4.84552E-02 1.36006E+00 4.10442E-04
 -1      2954-4.30001E-02 1.29061E+00 3.73813E-04
 -1      2955-8.73808E-02 1.34278E+00 4.42485E-04
 -1      2956-7.63577E-02 1.28890E+00 7.36084E-04
 -1      2957 2.70461E-03 6.63243E-01-2.76315E-05
 -1      2958 1.25086E-03 6.95142E-01 3.93311E-06
 -1      2959 9.22644E-04 6.53452E-01-6.90654E-06
 -1      2960-2.78743E-02 6.83656E-01 3.71613E-04
 -1      2961-2.59263E-02 6.51968E-01 3.53354E-04
 -1      2962-4.07023E-02 1.34493E+00 6.55905E-04
 -1      2963-8.54544E-02 1.39749E+00 7.95477E-04
 -1      2964-4.37817E-02 1.38400E+00 6.95306E-04
 -1      2965-5.15984E-02 1.39920E+00 4.32688E-04
 -1      2966-1.88219E-01 1.56772E+00-1.14076E-04
 -1      2967-1.83781E-01 1.55092E+00-8.82982E-04
 -1      2968-2.14088E-01 1.59024E+00-4.41832E-04
 -1      2969-9.00847E-03 9.69646E-03-1.38735E-03
 -1      2970-8.39360E-03 8.66684E-03-3.28232E-04
 -1      2971-9.17073E-03 6.70045E-03-9.66478E-04
 -1      2972-7.90911E-04 9.06583E-05 1.50056E-04
 -1      2973-3.57209E-04 1.07102E-04 4.46984E-05
 -1      2974-2.14354E-01 1.69338E+00-1.86530E-04
 -1      2975-1.97356E-01 1.69415E+00-4.19798E-04
 -1      2976-3.73105E-03 8.13761E-03 2.00474E-04
 -1      2977 3.39040E-03 9.93489E-03-1.19910E-04
 -1      2978-7.74636E-04 5.72198E-03 1.21617E-04
 -1      2979-1.50489E-02 2.84778E-02-3.22491E-04
 -1      2980-1.60474E-02 3.15785E-02-1.30867E-03
 -1      2981-1.04734E-02 2.50592E-02-7.37777E-04
 -1      2982-1.19927E-02 1.76314E-02-3.54522E-04
 -1      2983-1.30278E-02 1.99409E-02-1.37703E-03
 -1      2984-1.74323E-02 2.33498E-02-8.55664E-04
 -1      2985-1.10867E-01 8.40927E-01 1.08400E-03
 -1      2986-1.09226E-01 8.24147E-01 2.48263E-04
 -1      2987-9.03426E-02 8.07591E-01 7.10758E-04
 -1      2988-1.08871E-01 7.82429E-01 1.18661E-03
 -1      2989-1.07233E-01 7.66121E-01 3.14703E-04
 -1      2990-1.27744E-01 7.98973E-01 6.57320E-04
 -1      2991-7.84441E-02 1.55588E+00 2.31708E-04
 -1      2992-1.49759E-01 1.56949E+00 2.88661E-04
 -1      2993-1.22924E-01 1.59424E+00 5.14453E-04
 -1      2994-1.47713E-01 8.05884E-01-2.76262E-06
 -1      2995-1.69117E-01 8.39370E-01 3.69325E-04
 -1      2996-1.65727E-01 7.81099E-01 4.71471E-04
 -1      2997-2.50702E-03 1.47929E-03 4.91855E-04
 -1      2998-1.44985E-01 6.40270E-01-4.43629E-04
 -1      2999-9.05924E-02 6.26090E-01-2.85271E-04
 -1      3000-1.24579E-01 6.12607E-01-2.68880E-06
 -1      3001-1.39919E-01 5.89187E-01-5.10239E-04
 -1      3002-8.72055E-02 5.75330E-01-3.23598E-04
 -1      3003-1.06536E-01 6.02242E-01-7.23268E-04
 -1      3004-1.91236E-02 1.55750E-02 5.88420E-04
 -1      3005-1.14305E-02 1.69192E-02 3.26493E-04
 -1      3006-1.90640E-02 2.00515E-02-1.27425E-06
 -1      3007-2.54398E-02 2.53926E-02 6.44179E-04
 -1      3008-1.51344E-02 2.75527E-02 3.60311E-04
 -1      3009-1.67395E-02 2.17192E-02 8.71491E-04
 -1      3010-9.21228E-02 6.41180E-01-1.16017E-03
 -1      3011-7.26943E-02 6.13744E-01-7.18675E-04
 -1      3012-8.87201E-02 5.89881E-01-1.22590E-03
 -1      3013-1.37520E-01 8.22866E-01 1.34946E-03
 -1      3014-1.34824E-01 7.64878E-01 1.48408E-03
 -1      3015-1.67021E-01 8.22200E-01 9.85659E-04
 -1      3016-1.63609E-01 7.64333E-01 1.11947E-03
 -1      3017-1.04364E-02 1.36002E-02 1.33215E-03
 -1      3018-8.96084E-03 1.86191E-02 7.40459E-04
 -1      3019-1.40785E-02 2.34197E-02 1.37627E-03
 -1      3020-8.12946E-02 1.44149E+00-5.59687E-06
 -1      3021-5.52403E-02 1.41218E+00-1.86825E-04
 -1      3022-3.95446E-03 7.94041E-01-1.14482E-04
 -1      3023 5.32566E-03 6.01150E-01 8.74557E-05
 -1      3024-1.21740E-01 1.40891E+00-8.97140E-04
 -1      3025-2.11488E-02 2.83144E-02-1.83625E-03
 -1      3026-1.68078E-02 1.75099E-02-1.91463E-03
 -1      3027-3.08327E-02 7.76446E-01-3.26885E-06
 -1      3028-9.48071E-03 7.51573E-01-4.24814E-05
 -1      3029 1.10531E-02 7.68772E-02 6.48009E-04
 -1      3030-2.08937E-02 6.15894E-01-2.54506E-06
 -1      3031-3.74863E-03 6.40617E-01-1.49568E-05
 -1      3032-2.91472E-02 8.56109E-02-1.48379E-03
 -1      3033-2.79904E-02 8.01509E-02-4.37675E-04
 -1      3034-1.93991E-02 7.07066E-02-5.97920E-04
 -1      3035-2.21857E-01 1.65242E+00 6.86317E-06
 -1      3036-1.14939E-01 8.14150E-01-1.26015E-03
 -1      3037-1.13265E-01 7.97618E-01-3.74230E-04
 -1      3038-9.07492E-02 7.72273E-01-5.75279E-04
 -1      3039-5.63403E-02 6.38056E-01-7.31232E-04
 -1      3040-7.26931E-02 6.13743E-01 7.13836E-04
 -1      3041-9.35319E-02 6.36899E-01 1.20122E-03
 -1      3042 1.14771E-03 2.52546E-02-4.88665E-08
 -1      3043 5.73922E-03 3.09908E-02 1.24969E-04
 -1      3044-1.05785E-02 6.20765E-02-6.10132E-04
 -1      3045-2.68237E-02 7.35027E-02-1.48543E-03
 -1      3046 1.11173E-03 7.15392E-02-7.39557E-07
 -1      3047 7.62378E-03 6.30295E-02 1.16566E-04
 -1      3048-2.91439E-02 3.33832E-02-5.77092E-04
 -1      3049-2.21213E-02 2.63911E-02-1.69241E-06
 -1      3050-2.34660E-02 2.18629E-02-6.28897E-04
 -1      3051-6.52894E-02 7.48818E-01-7.56698E-04
 -1      3052-1.11520E-01 7.80434E-01-1.26826E-03
 -1      3053-1.47881E-01 5.96368E-01 2.21404E-03
 -1      3054-1.42902E-01 6.24684E-01-1.12512E-03
 -1      3055-1.37832E-01 5.74084E-01-1.21442E-03
 -1      3056-7.09631E-03 3.02046E-02-6.07064E-04
 -1      3057 8.16109E-03 3.59546E-02-6.97877E-04
 -1      3058 8.88884E-03 4.47450E-02-6.85574E-04
 -1      3059 7.52256E-03 4.89270E-02-3.32135E-04
 -1      3060-9.15893E-04 5.85051E-02 5.02470E-05
 -1      3061-6.32665E-04 4.84394E-02 3.96299E-05
 -1      3062-1.09697E-01 3.68791E-01 6.74261E-04
 -1      3063-1.13823E-01 3.93988E-01 6.65066E-04
 -1      3064-6.90480E-02 3.81661E-01 4.04573E-04
 -1      3065-1.16192E-01 6.24995E-01-1.48988E-03
 -1      3066-1.11976E-01 5.74280E-01-1.57986E-03
 -1      3067-4.91879E-02 7.77900E-02 2.79074E-03
 -1      3068-5.83409E-02 3.10118E-01 1.29251E-03
 -1      3069-2.09277E-02 1.80085E-02 1.47274E-03
 -1      3070-2.72539E-02 2.85874E-02 1.53178E-03
 -1      3071-1.82706E-02 7.10975E-02 7.26525E-04
 -1      3072-2.34271E-02 6.23415E-02 1.35424E-03
 -1      3073-2.90480E-02 3.24261E-02 6.40323E-04
 -1      3074-5.04603E-02 8.72780E-02-7.56177E-04
 -1      3075-3.30550E-02 7.13985E-02-8.63239E-05
 -1      3076-9.73795E-02 3.10564E-01 5.70825E-04
 -1      3077-1.50838E-02 1.12650E-01 6.18713E-04
 -1      3078-2.15096E-01 1.21118E+00 3.63319E-04
 -1      3079-1.48608E-01 1.19478E+00 2.78494E-04
 -1      3080-2.10977E-01 1.17325E+00 3.69351E-04
 -1      3081-6.21689E-02 1.20860E+00-3.98835E-06
 -1      3082-6.52139E-02 1.24685E+00-4.42577E-06
 -1      3083-3.70497E-02 1.18077E+00-1.37308E-04
 -1      3084-3.98807E-02 1.21884E+00-1.42209E-04
 -1      3085-1.02846E-01 1.19676E+00-2.27663E-04
 -1      3086-1.30119E-01 1.24378E+00 7.06593E-04
 -1      3087-1.26618E-01 1.20555E+00 7.07063E-04
 -1      3088-1.46758E-01 1.17560E+00 1.08064E-03
 -1      3089-1.50406E-01 1.21361E+00 1.07369E-03
 -1      3090-1.04489E-01 1.21561E+00-8.54818E-04
 -1      3091-1.01181E-01 1.17757E+00-8.47923E-04
 -1      3092-9.08307E-02 1.10195E+00-8.42904E-04
 -1      3093-1.09046E-01 1.05451E+00-5.38417E-04
 -1      3094-8.92764E-02 1.08362E+00-2.47976E-04
 -1      3095-1.43270E-01 1.09974E+00 1.17334E-03
 -1      3096-1.16572E-01 1.05419E+00 5.61074E-04
 -1      3097-1.41485E-01 1.08143E+00 3.44689E-04
 -1      3098-2.06440E-01 1.09758E+00 4.61753E-04
 -1      3099-1.60915E-01 1.05253E+00 5.43461E-05
 -1      3100-2.77658E-02 1.10515E+00-1.30672E-04
 -1      3101-6.47396E-02 1.05653E+00-3.18622E-05
 -1      3102 9.16949E-03 1.13800E-01-1.07317E-04
 -1      3103-3.81761E-02 1.51636E-01 1.33542E-03
 -1      3104-6.62433E-02 1.52855E-01 6.11116E-04
 -1      3105-1.35784E-01 5.59445E-01-5.13611E-04
 -1      3106-8.56181E-02 5.60029E-01-1.23143E-03
 -1      3107 9.20235E-03 2.56563E-01-7.41690E-05
 -1      3108-2.63669E-02 2.54935E-01 6.47890E-04
 -1      3109-1.08161E-01 1.25540E+00-2.27499E-04
 -1      3110-4.45583E-02 1.27772E+00-1.55984E-04
 -1      3111-8.25931E-02 1.22726E+00-3.93574E-04
 -1      3112-1.54020E-01 1.25338E+00 2.74076E-04
 -1      3113-2.21181E-01 1.26990E+00 3.45335E-04
 -1      3114-1.74253E-01 1.22325E+00 6.13902E-04
 -1      3115-1.55829E-01 1.27244E+00 1.05752E-03
 -1      3116-1.09838E-01 1.27447E+00-8.65887E-04
 -1      3117 6.41358E-03 3.32489E-02-3.40377E-04
 -1      3118-3.35923E-04 3.27604E-02 3.29295E-05
 -1      3119-2.21472E-03 4.52187E-02 8.79203E-05
 -1      3120 8.26750E-03 3.12373E-01 6.04545E-05
 -1      3121-5.67256E-02 1.14181E-01-6.19393E-04
 -1      3122-3.23955E-02 1.12748E-01-1.34821E-03
 -1      3123-1.04724E-02 2.50595E-02 7.35700E-04
 -1      3124-1.61543E-02 3.05671E-02 1.37114E-03
 -1      3125-8.74114E-02 2.55329E-01-5.84204E-04
 -1      3126-3.07248E-02 3.10627E-01-6.62451E-04
 -1      3127-4.17248E-02 6.40447E-02 6.26507E-04
 -1      3128-4.66585E-02 7.52411E-02-7.59618E-04
 -1      3129-1.82929E-02 1.51584E-01-6.28012E-04
 -1      3130 9.66125E-03 1.52883E-01 9.86370E-05
 -1      3131-3.47218E-02 3.95072E-01-6.61160E-04
 -1      3132-3.27894E-02 3.69677E-01-6.54199E-04
 -1      3133-3.35499E-02 3.82509E-01-1.92581E-04
 -1      3134-9.73308E-02 2.81653E-01 2.55659E-03
 -1      3135-1.46274E-01 6.36033E-01 4.80975E-04
 -1      3136-8.23798E-02 5.01667E-01-1.35048E-03
 -1      3137-8.09040E-02 4.88142E-01-4.00409E-04
 -1      3138-6.20144E-02 4.67380E-01-5.83800E-04
 -1      3139-2.12254E-02 1.07812E+00 3.93351E-04
 -1      3140-2.08017E-01 1.07029E+00-1.72639E-03
 -1      3141-6.49561E-02 1.32203E-01 2.72732E-03
 -1      3142-1.09713E-02 1.42415E-02-1.38358E-03
 -1      3143-4.25585E-02 5.02753E-01 6.80735E-04
 -1      3144-4.15415E-02 4.89193E-01 1.96633E-04
 -1      3145-5.64738E-02 4.67433E-01 5.24579E-04
 -1      3146 1.30070E-02 1.32041E-01-5.83440E-04
 -1      3147-5.18007E-02 2.54590E-01-1.31071E-03
 -1      3148-1.30383E-01 5.01371E-01-6.32433E-04
 -1      3149-9.51597E-02 4.66779E-01-7.33487E-05
 -1      3150 5.27723E-03 5.05105E-01-3.77489E-05
 -1      3151-2.33799E-02 4.68719E-01 1.31669E-05
 -1      3152 6.25228E-04 1.89128E-04 2.31114E-06
 -1      3153 6.54227E-04 1.67644E-04-8.45657E-05
 -1      3154 1.27698E-03 1.09087E-03-2.99270E-05
 -1      3155 1.29673E-03 1.06031E-03-1.50251E-04
 -1      3156 1.38831E-04 9.72581E-05-3.26662E-07
 -1      3157-6.52022E-02 1.32215E-01-2.73684E-03
 -1      3158 1.38475E-02 2.83336E-01 4.18363E-04
 -1      3159-2.73543E-02 2.94619E-02-1.45890E-03
 -1      3160-2.16697E-02 1.87072E-02-1.52912E-03
 -1      3161 1.31045E-02 1.32045E-01 5.86836E-04
 -1      3162-1.08921E-01 1.37683E+00 3.09230E-04
 -1      3163-9.76664E-02 1.32274E+00 6.60085E-04
 -1      3164-1.02850E-01 1.30724E+00 3.05088E-04
 -1      3165-6.41754E-02 1.32440E+00 2.97898E-04
 -1      3166-6.70819E-03 7.40560E-01 6.84943E-05
 -1      3167-5.48530E-02 7.22194E-01 2.38491E-04
 -1      3168-2.05597E-02 7.10769E-01 1.13975E-04
 -1      3169-5.70303E-04 6.85161E-01 1.46698E-05
 -1      3170-4.74105E-02 6.67347E-01 2.39528E-04
 -1      3171-3.42867E-02 6.96369E-01 2.57633E-04
 -1      3172-1.61498E-02 1.68034E-02 1.85677E-03
 -1      3173-2.11324E-02 2.73781E-02 1.91058E-03
 -1      3174-1.30812E-01 4.80524E-01 2.34230E-03
 -1      3175 9.52808E-03 4.84284E-01 2.04178E-04
 -1      3176-8.83763E-02 1.02849E+00 8.07662E-04
 -1      3177-1.39641E-01 1.06267E+00 1.18233E-03
 -1      3178-1.32358E-01 1.02668E+00-1.12361E-03
 -1      3179-8.76904E-02 1.06484E+00-8.34400E-04
 -1      3180-2.65020E-02 1.03160E+00 9.68032E-05
 -1      3181-2.52029E-02 1.06801E+00-1.22018E-04
 -1      3182-1.94341E-01 1.02467E+00-4.09401E-04
 -1      3183-2.02239E-01 1.06061E+00 4.70515E-04
 -1      3184 1.38479E-02 2.83336E-01-4.20280E-04
 -1      3185-4.11424E-02 4.47817E-01-6.90394E-04
 -1      3186-7.93314E-02 4.73741E-01-1.35790E-03
 -1      3187-7.35590E-02 4.46867E-01 1.25475E-03
 -1      3188-4.03563E-02 4.74699E-01 6.73328E-04
 -1      3189-7.51852E-02 1.51819E+00 2.20146E-04
 -1      3190-1.40520E-01 1.49528E+00 2.58305E-04
 -1      3191-5.64268E-02 1.45818E+00 2.03234E-04
 -1      3192-1.21497E-01 1.43536E+00 2.52629E-04
 -1      3193-1.12176E-01 1.47250E+00 4.93118E-04
 -1      3194-9.76661E-02 2.81658E-01-2.56596E-03
 -1      3195-1.19384E-01 4.46722E-01 5.38186E-04
 -1      3196-1.26210E-01 4.73501E-01-6.36302E-04
 -1      3197-1.98574E-02 1.62537E-02-6.29095E-04
 -1      3198 4.44766E-03 4.49917E-01 2.59212E-05
 -1      3199 6.27396E-03 4.76987E-01-4.47515E-05
 -1      3200 9.65667E-03 5.48522E-02-6.74607E-04
 -1      3201 8.10738E-03 5.93979E-02-3.25805E-04
 -1      3202-2.25133E-01 1.63456E+00-1.04441E-03
 -1      3203-2.19050E-01 1.57327E+00-9.22650E-04
 -1      3204-1.04178E-02 5.75402E-03-6.56133E-04
 -1      3205-1.05842E-02 7.05243E-03 5.12730E-05
 -1      3206-1.64081E-02 1.17443E-02-6.34832E-04
 -1      3207-1.72437E-01 1.70848E+00-1.12537E-03
 -1      3208-1.40030E-01 1.70998E+00-1.12533E-03
 -1      3209-1.61888E-01 1.69447E+00-6.83883E-04
 -1      3210-1.29472E-01 1.69598E+00-6.76926E-04
 -1      3211-1.27802E-01 1.66771E+00-9.63149E-04
 -1      3212-5.87281E-03 3.74896E-02 1.67885E-04
 -1      3213-4.60088E-03 4.04885E-02 2.76503E-04
 -1      3214-7.26973E-03 5.39512E-02 1.67573E-04
 -1      3215-8.16528E-03 4.70098E-03 5.73095E-05
 -1      3216-7.58695E-03 3.79178E-03 6.11932E-04
 -1      3217-1.04284E-02 5.72782E-03 6.79747E-04
 -1      3218-2.05139E-01 1.70577E+00-1.12726E-03
 -1      3219-2.13354E-01 1.69341E+00-6.98388E-04
 -1      3220-1.79236E-01 1.66664E+00-9.95850E-04
 -1      3221-2.11934E-01 1.66393E+00-1.01556E-03
 -1      3222-7.58951E-03 3.80489E-03-5.78528E-04
 -1      3223-2.34685E-01 1.61731E+00 2.09956E-05
 -1      3224-2.31765E-01 1.58657E+00 2.81830E-05
 -1      3225-2.60679E-01 1.63987E+00-3.06522E-04
 -1      3226-2.57747E-01 1.60911E+00-3.06292E-04
 -1      3227-1.42004E-01 1.57168E+00-1.94830E-04
 -1      3228-7.06660E-02 1.55808E+00-1.87563E-04
 -1      3229-1.16467E-01 1.59527E+00-4.61830E-04
 -1      3230-8.72831E-02 7.73960E-01 7.11635E-04
 -1      3231-1.05528E-01 7.49183E-01 1.19319E-03
 -1      3232-2.15612E-02 1.06107E-01 4.47377E-04
 -1      3233-7.46221E-03 1.06326E-01 1.12783E-05
 -1      3234-2.18452E-03 3.25584E-03 5.88577E-04
 -1      3235-4.98639E-03 5.53835E-03 7.92807E-04
 -1      3236-3.84720E-03 9.21928E-03 6.28476E-04
 -1      3237-3.87241E-03 3.26964E-03 7.68017E-04
 -1      3238-5.81548E-03 3.66608E-03 1.43597E-03
 -1      3239-4.27211E-03 1.85398E-03 1.33435E-03
 -1      3240-5.31919E-02 1.41889E+00 1.94599E-04
 -1      3241-7.60127E-03 7.57218E-01 3.34840E-05
 -1      3242-6.49266E-02 7.71428E-01 2.10474E-04
 -1      3243-9.43690E-03 7.90628E-01 4.11523E-05
 -1      3244 2.98249E-03 6.07133E-01-1.73900E-05
 -1      3245-4.97281E-02 6.20334E-01 2.09010E-04
 -1      3246 1.62750E-03 6.37975E-01-9.76001E-06
 -1      3247-1.03390E-01 1.22970E+00 8.60572E-04
 -1      3248-1.06736E-01 1.26811E+00 8.67220E-04
 -1      3249-1.05074E-01 1.24907E+00 2.38326E-04
 -1      3250-4.15175E-02 1.27137E+00 1.57062E-04
 -1      3251-3.86093E-02 1.23295E+00 1.50476E-04
 -1      3252-4.85240E-02 6.04541E-01 6.90281E-04
 -1      3253-5.08799E-02 6.35325E-01 6.97237E-04
 -1      3254-6.35575E-02 7.54419E-01 7.50446E-04
 -1      3255-6.62525E-02 7.87780E-01 7.56453E-04
 -1      3256-1.37620E-01 1.55486E+00-9.01656E-04
 -1      3257-5.01631E-02 1.46269E+00-7.86534E-04
 -1      3258-1.72592E-01 8.12764E-01-5.45986E-04
 -1      3259-1.31513E-01 7.72877E-01-5.95578E-05
 -1      3260-2.14638E-01 1.43543E+00-5.35930E-06
 -1      3261-2.18494E-01 1.47476E+00-5.69680E-06
 -1      3262-2.48321E-01 1.49279E+00 3.54742E-04
 -1      3263-1.79355E-01 1.47604E+00 3.10547E-04
 -1      3264-2.44374E-01 1.45341E+00 3.62868E-04
 -1      3265-1.61620E-03 1.46522E-03 5.54721E-04
 -1      3266-1.03954E-01 1.16835E+00 8.20999E-04
 -1      3267-1.05627E-01 1.18750E+00 1.87257E-04
 -1      3268-8.23845E-02 1.21165E+00 3.72303E-04
 -1      3269-3.99532E-02 1.17152E+00 1.08785E-04
 -1      3270 2.85689E-03 4.07524E-02-9.39576E-05
 -1      3271-7.35017E-02 1.49843E+00 5.01067E-04
 -1      3272-5.48076E-02 1.43852E+00 4.54867E-04
 -1      3273 6.51057E-03 2.12536E-02 7.08141E-04
 -1      3274-5.58158E-03 2.18763E-02 5.87446E-04
 -1      3275-6.48904E-03 2.88991E-02 5.85768E-04
 -1      3276-6.05530E-03 2.59770E-02 1.66047E-04
 -1      3277-1.00978E-02 6.38165E-02 5.89336E-04
 -1      3278 5.40186E-03 2.27508E-02-1.50157E-04
 -1      3279 6.08469E-03 2.97404E-02-1.50180E-04
 -1      3280 8.35543E-03 6.48349E-02-1.41732E-04
 -1      3281-8.32238E-03 4.03932E-03-1.39214E-03
 -1      3282-6.44162E-03 2.82392E-03-1.80502E-03
 -1      3283-1.04886E-02 4.77502E-03-2.65623E-03
 -1      3284-1.42833E-02 9.12530E-03-1.50039E-03
 -1      3285-1.09973E-02 7.88584E-03-1.90486E-03
 -1      3286-2.62391E-01 1.64070E+00 3.04075E-04
 -1      3287-1.87980E-01 1.59018E+00 3.83334E-04
 -1      3288-2.54321E-01 1.60106E+00 3.86128E-04
 -1      3289-2.15565E-01 1.61355E+00 6.69652E-04
 -1      3290-2.60018E-01 1.63300E+00-6.81851E-04
 -1      3291-2.64984E-01 1.61600E+00-1.18070E-03
 -1      3292-2.53835E-01 1.57174E+00-5.48097E-04
 -1      3293-7.20481E-02 1.64130E+00 5.60448E-04
 -1      3294-8.05199E-02 1.57952E+00 5.34774E-04
 -1      3295 6.27913E-04 1.25187E-04 8.53997E-05
 -1      3296 1.19805E-04 1.00694E-04 8.23963E-06
 -1      3297 1.27842E-03 1.05121E-03 1.38521E-04
 -1      3298 1.43389E-04 1.52792E-04-3.25635E-06
 -1      3299-1.33643E-01 1.69580E+00-1.31888E-04
 -1      3300-1.32326E-01 1.69696E+00 4.10524E-04
 -1      3301-1.73701E-01 7.87813E-01 2.01102E-03
 -1      3302-1.88070E-03 4.53283E-04-3.15048E-04
 -1      3303-4.70641E-03 2.24798E-03 2.50921E-05
 -1      3304 2.96004E-03 9.09299E-03 9.60135E-05
 -1      3305-3.80327E-03 7.42754E-03-1.48639E-04
 -1      3306-9.48382E-04 5.13983E-03-1.34472E-04
 -1      3307-1.45888E-01 1.69522E+00-4.06721E-04
 -1      3308-4.30814E-02 1.25839E+00-3.55658E-04
 -1      3309-3.84564E-02 1.19970E+00-3.26394E-04
 -1      3310-2.19123E-01 1.25063E+00 8.42873E-04
 -1      3311-2.13024E-01 1.19211E+00 8.77163E-04
 -1      3312-1.85904E-01 1.25185E+00 1.20465E-03
 -1      3313-1.80152E-01 1.19327E+00 1.23972E-03
 -1      3314-7.62507E-02 1.25668E+00-7.18581E-04
 -1      3315-7.12726E-02 1.19799E+00-6.88636E-04
 -1      3316-3.96785E-03 8.46107E-03-6.53090E-04
 -1      3317-2.05378E-01 1.70576E+00 1.09514E-03
 -1      3318-1.72675E-01 1.70847E+00 1.09321E-03
 -1      3319-1.80942E-01 1.66747E+00 9.97385E-04
 -1      3320-2.15301E-01 1.69422E+00 6.78437E-04
 -1      3321-2.13641E-01 1.66475E+00 1.01738E-03
 -1      3322 1.88512E-03 2.27504E-03-2.63690E-04
 -1      3323 2.76614E-05 1.78857E-03 7.95975E-05
 -1      3324 2.64300E-03 2.85398E-03-6.04366E-04
 -1      3325 2.96640E-03 7.27623E-03-2.71041E-04
 -1      3326-2.79675E-04 6.75589E-03 1.02363E-04
 -1      3327-1.23217E-01 1.45491E+00 9.13948E-04
 -1      3328-1.51532E-01 1.47770E+00 7.04753E-04
 -1      3329-1.81168E-01 1.49567E+00 1.06523E-03
 -1      3330-1.50968E-01 1.45327E+00 5.71703E-04
 -1      3331-1.19744E-01 1.41561E+00 9.06132E-04
 -1      3332-1.77478E-01 1.45623E+00 1.07372E-03
 -1      3333-1.94849E-01 1.64375E+00 1.01402E-03
 -1      3334-1.69084E-01 1.65463E+00 5.62044E-04
 -1      3335-1.41433E-02 8.36998E-01 5.26054E-05
 -1      3336-7.07020E-02 8.17393E-01 1.96704E-04
 -1      3337-4.67013E-02 7.97673E-01 2.93992E-04
 -1      3338-5.12537E-02 5.76421E-01 1.86994E-04
 -1      3339-3.55277E-05 5.63501E-01-6.81693E-06
 -1      3340-2.97211E-02 5.97680E-01 2.29815E-04
 -1      3341-7.20838E-02 8.34115E-01 7.65888E-04
 -1      3342-5.00451E-02 5.61089E-01 7.11219E-04
 -1      3343-1.61526E-01 7.47957E-01 4.77422E-04
 -1      3344-1.68343E-01 7.79154E-01-5.54054E-04
 -1      3345-2.27804E-03 1.09878E-03 3.30682E-04
 -1      3346-2.21545E-03 1.12094E-03 2.65796E-06
 -1      3347-5.61229E-03 2.59539E-03 8.45516E-04
 -1      3348-5.47610E-03 2.61668E-03 2.04131E-04
 -1      3349-2.32877E-03 7.21627E-04 4.25578E-04
 -1      3350-1.06916E-01 1.63963E+00 9.28495E-04
 -1      3351-6.43805E-02 1.62489E+00 9.28077E-04
 -1      3352-1.15251E-01 1.57785E+00 9.08243E-04
 -1      3353-3.80536E-04-3.04530E-04 2.53623E-04
 -1      3354-8.85569E-04-2.45247E-04 5.34410E-04
 -1      3355-3.78388E-03 1.13298E-03 1.39691E-03
 -1      3356-1.35066E-03 1.34732E-04 4.00268E-04
 -1      3357-2.51322E-03 6.98637E-04 9.48917E-04
 -1      3358-1.57221E-02 1.11711E-02 5.78703E-04
 -1      3359-7.92270E-03 8.13850E-03 3.77727E-04
 -1      3360-8.69634E-03 6.20272E-03 9.53706E-04
 -1      3361-6.76403E-02 1.71345E+00 9.08970E-06
 -1      3362-6.75346E-02 1.71224E+00-3.22111E-04
 -1      3363-7.60536E-02 1.67017E+00-1.01094E-04
 -1      3364-7.59500E-02 1.66896E+00-4.23386E-04
 -1      3365-1.08909E-01 1.69695E+00-4.17485E-04
 -1      3366-8.52363E-03 9.16424E-03 1.33377E-03
 -1      3367-1.61856E-01 1.53302E+00-3.58736E-04
 -1      3368-2.05095E-02 5.07192E-02-1.29570E-03
 -1      3369-9.53321E-03 5.17321E-02-6.07843E-04
 -1      3370-1.58215E-02 5.83483E-02-4.73491E-04
 -1      3371-1.36092E-02 4.41691E-02-4.75078E-04
 -1      3372-3.32045E-03 4.52751E-02-1.19041E-04
 -1      3373-8.07250E-03 3.83137E-02-6.07325E-04
 -1      3374-1.42283E-01 1.51495E+00 9.51172E-04
 -1      3375-2.28451E-01 1.35966E+00-3.05119E-04
 -1      3376-1.88345E-01 1.38984E+00 2.08890E-05
 -1      3377-2.31111E-01 1.36492E+00 3.25178E-04
 -1      3378-2.25250E-01 1.30849E+00 3.36744E-04
 -1      3379-1.85447E-01 1.33839E+00 5.84715E-04
 -1      3380-1.82832E-01 1.33319E+00 2.15088E-05
 -1      3381-1.62258E-01 1.36236E+00-1.01578E-03
 -1      3382-1.18252E-01 1.36972E+00-8.87070E-04
 -1      3383-1.41572E-01 1.39188E+00-4.80318E-04
 -1      3384-1.36383E-01 1.33518E+00-4.79817E-04
 -1      3385-9.25088E-02 1.34256E+00-4.17469E-04
 -1      3386-1.13243E-01 1.31316E+00-8.75539E-04
 -1      3387-2.43172E-02 4.58357E-02-7.96870E-04
 -1      3388-1.80844E-02 3.97773E-02-1.30367E-03
 -1      3389-1.18552E-02 3.40107E-02-4.79401E-04
 -1      3390-2.36824E-02 9.24356E-02-5.85790E-04
 -1      3391-1.34088E-01 8.31009E-01-1.19879E-04
 -1      3392-1.64126E-01 1.11791E+00 1.01154E-04
 -1      3393-1.11430E-01 1.12001E+00-4.91506E-04
 -1      3394-1.26117E-01 1.11938E+00 5.28339E-04
 -1      3395-7.34481E-02 1.12176E+00-6.39619E-05
 -1      3396-9.93127E-02 8.32113E-01-5.48132E-04
 -1      3397-8.87365E-04-2.54013E-04-5.37773E-04
 -1      3398-3.80393E-04-3.12018E-04-2.55378E-04
 -1      3399-2.49796E-03 7.25901E-04-9.25204E-04
 -1      3400-1.35495E-03 1.39396E-04-3.93290E-04
 -1      3401-3.77789E-03 1.15502E-03-1.37149E-03
 -1      3402-2.23836E-01 1.31344E+00-3.14846E-04
 -1      3403-1.81377E-01 1.33812E+00-5.36509E-04
 -1      3404-1.78482E-01 1.28712E+00 2.04778E-05
 -1      3405-1.58060E-01 1.31607E+00-1.02536E-03
 -1      3406-1.32351E-01 1.28908E+00-4.81415E-04
 -1      3407-6.94292E-02 5.16648E-01-5.62091E-04
 -1      3408-7.53723E-03 1.21792E-02-5.15569E-04
 -1      3409-1.23487E-01 1.53482E+00 4.42067E-05
 -1      3410-3.69034E-02 9.29576E-02-1.49865E-04
 -1      3411-7.41121E-02 1.18873E+00 6.64081E-04
 -1      3412-7.31956E-02 1.25034E+00 7.15103E-04
 -1      3413-4.13639E-02 1.19042E+00 3.03694E-04
 -1      3414-4.00538E-02 1.25206E+00 3.51675E-04
 -1      3415-5.22381E-03 1.71856E-02 1.65594E-04
 -1      3416 4.04246E-03 1.45230E-02-1.22043E-04
 -1      3417-1.69143E-03 2.06070E-02 1.07553E-04
 -1      3418-2.91643E-02 5.18047E-01 3.47481E-05
 -1      3419-2.76881E-01 1.70253E+00-3.46448E-04
 -1      3420-2.76998E-01 1.70374E+00 1.18908E-05
 -1      3421-2.62726E-01 1.66162E+00-4.88188E-04
 -1      3422-2.62846E-01 1.66284E+00-1.20927E-04
 -1      3423-2.34231E-01 1.69247E+00-4.40426E-04
 -1      3424-3.27588E-02 4.15471E-02-5.70559E-04
 -1      3425-3.70397E-02 5.24201E-02-5.63181E-04
 -1      3426-3.27077E-02 4.04675E-02 6.39654E-04
 -1      3427-2.44335E-02 4.48361E-02 4.15285E-05
 -1      3428-2.13674E-02 3.47209E-02 3.85959E-05
 -1      3429-9.85010E-02 5.16115E-01-1.31267E-04
 -1      3430-5.81903E-02 5.16963E-01 4.65763E-04
 -1      3431-4.85511E-02 4.07721E-01-4.65996E-04
 -1      3432-8.50852E-02 4.07099E-01 1.30364E-04
 -1      3433-1.86816E-03 1.20474E-02 1.05047E-05
 -1      3434-4.74394E-03 1.37751E-02 6.26005E-04
 -1      3435-6.27336E-02 7.16059E-01-7.49664E-04
 -1      3436-7.85103E-02 6.96715E-01-4.74999E-04
 -1      3437-9.54020E-02 6.72607E-01-1.15377E-03
 -1      3438-5.89630E-02 6.69461E-01-7.40840E-04
 -1      3439-7.43564E-02 6.50641E-01-4.75363E-04
 -1      3440-4.16493E-02 6.93672E-01-2.71747E-04
 -1      3441-2.82463E-02 5.89813E-02 4.04876E-05
 -1      3442-3.80411E-02 5.37731E-02 6.33551E-04
 -1      3443-2.52549E-02 4.59037E-02 9.07233E-04
 -1      3444-1.60808E-01 1.69563E+00 6.61501E-04
 -1      3445-1.26485E-01 1.66888E+00 9.61476E-04
 -1      3446-1.35318E-03-9.67823E-05 8.35988E-04
 -1      3447-1.97731E-03 3.90768E-04 6.47726E-04
 -1      3448-2.40653E-02 9.95168E-01 8.75346E-05
 -1      3449-6.83856E-02 1.01136E+00 2.32021E-05
 -1      3450-2.68955E-02 9.86336E-01-8.33578E-05
 -1      3451-1.69896E-02 9.42694E-01 8.04822E-05
 -1      3452-6.05521E-02 9.58638E-01 4.98504E-05
 -1      3453-5.78346E-02 9.67286E-01 3.37859E-04
 -1      3454-1.24577E-01 9.81833E-01 1.05669E-03
 -1      3455-1.05304E-01 1.00970E+00 4.51373E-04
 -1      3456-8.52883E-02 9.92100E-01 8.00077E-04
 -1      3457-7.72211E-02 9.39637E-01 7.93689E-04
 -1      3458-9.68831E-02 9.57006E-01 4.77495E-04
 -1      3459-2.47832E-01 1.51029E+00-1.60058E-04
 -1      3460-2.08523E-01 1.51158E+00 1.77357E-04
 -1      3461-4.82200E-02 7.09408E-01 4.77248E-04
 -1      3462-7.39338E-02 6.92285E-01 7.34565E-04
 -1      3463-4.58910E-02 6.77299E-01 4.67683E-04
 -1      3464-4.77589E-02 3.22251E-01 4.94804E-04
 -1      3465-6.07973E-02 3.33238E-01 1.28063E-03
 -1      3466-3.47843E-02 3.39360E-01 6.78989E-04
 -1      3467-5.36840E-02 3.57055E-01 5.66954E-04
 -1      3468-6.73286E-02 3.68533E-01 1.38211E-03
 -1      3469-8.01945E-02 3.50970E-01 9.30954E-04
 -1      3470 7.75282E-03 3.35618E-01 5.27027E-05
 -1      3471-1.95917E-02 3.23022E-01-1.76073E-05
 -1      3472 5.43311E-03 3.41158E-01-3.75764E-05
 -1      3473 9.39146E-03 3.71373E-01 6.81925E-05
 -1      3474-1.92197E-02 3.58147E-01-3.15666E-05
 -1      3475-1.66602E-02 3.52297E-01-1.77568E-04
 -1      3476-4.34154E-02 3.22315E-01-4.51804E-04
 -1      3477-3.25883E-02 3.34084E-01-6.70110E-04
 -1      3478-4.41544E-02 3.57324E-01-4.65882E-04
 -1      3479-1.40421E-01 1.64516E+00 9.60806E-04
 -1      3480-1.37120E-01 1.61438E+00 9.53747E-04
 -1      3481-1.83537E-01 1.57334E+00 1.09280E-03
 -1      3482-1.61158E-01 1.61494E+00 6.22007E-04
 -1      3483-1.86890E-01 1.60407E+00 1.08786E-03
 -1      3484 1.15713E-02 8.93341E-02-6.31769E-04
 -1      3485 1.21103E-02 1.02686E-01-6.17112E-04
 -1      3486 9.03577E-03 1.06468E-01-2.60659E-04
 -1      3487-2.94462E-03 1.05708E-01 1.10354E-04
 -1      3488-1.70178E-01 1.51329E+00 5.80072E-04
 -1      3489-9.53741E-02 1.40605E+00 1.78902E-05
 -1      3490-8.46487E-02 1.27992E+00 1.78317E-05
 -1      3491-1.30682E-01 1.27777E+00 5.18667E-04
 -1      3492-2.33554E-03 7.86319E-04-9.10936E-05
 -1      3493-5.52821E-03 2.57089E-03-7.79258E-04
 -1      3494-2.51364E-01 1.57035E+00 3.99307E-04
 -1      3495-3.29862E-02 6.45090E-01 2.30273E-05
 -1      3496-4.32440E-02 7.46589E-01 1.16496E-05
 -1      3497-1.01316E-01 3.33576E-01 5.72361E-04
 -1      3498-7.16216E-02 3.22098E-01 5.81508E-05
 -1      3499-7.86572E-02 3.56867E-01 1.30864E-04
 -1      3500-1.00018E-01 7.10446E-01-1.13112E-03
 -1      3501-1.15411E-01 6.91266E-01-6.34253E-04
 -1      3502-8.27868E-02 7.35028E-01-4.60336E-04
 -1      3503-2.35118E-01 1.40403E+00 3.16382E-04
 -1      3504-1.70440E-01 1.42652E+00 2.62167E-04
 -1      3505-2.00002E-01 1.44444E+00 6.19015E-04
 -1      3506-8.33965E-02 7.46708E-01 5.28377E-04
 -1      3507-5.85208E-04 4.88346E-04 2.90673E-04
 -1      3508-3.35098E-04 7.42739E-06 1.20487E-04
 -1      3509-1.47882E-01 5.96369E-01-2.21735E-03
 -1      3510-2.33158E-01 1.29734E+00 1.48750E-03
 -1      3511-2.29085E-01 1.34539E+00 7.93056E-04
 -1      3512-1.95391E-01 1.34671E+00 1.15553E-03
 -1      3513-1.89778E-01 1.29037E+00 1.18539E-03
 -1      3514-2.23204E-01 1.28911E+00 8.22648E-04
 -1      3515-3.76867E-02 1.30604E+00-6.30715E-04
 -1      3516-5.05070E-02 1.35341E+00-4.05307E-04
 -1      3517-8.41602E-02 1.35170E+00-7.66789E-04
 -1      3518-7.94380E-02 1.29527E+00-7.38238E-04
 -1      3519-4.60580E-02 1.29698E+00-3.75989E-04
 -1      3520-2.37260E-01 1.33612E+00 1.45138E-03
 -1      3521-1.99249E-01 1.38577E+00 1.13342E-03
 -1      3522-4.07022E-02 1.34493E+00-6.66769E-04
 -1      3523-8.74731E-02 1.39081E+00-7.88874E-04
 -1      3524-4.37822E-02 1.38401E+00-7.06623E-04
 -1      3525-5.36494E-02 1.39251E+00-4.25471E-04
 -1      3526-2.41337E-01 1.37509E+00 1.41167E-03
 -1      3527-2.33105E-01 1.38441E+00 7.72870E-04
 -1      3528-7.03005E-02 6.43610E-01 5.19418E-04
 -1      3529-1.13309E-02 3.16381E-02 5.25867E-04
 -1      3530 1.22240E-03 6.95140E-01-9.71764E-06
 -1      3531-3.23440E-04 7.27590E-01-4.16264E-05
 -1      3532-3.44414E-02 7.00946E-01-4.30603E-04
 -1      3533-3.65978E-02 7.33472E-01-4.47305E-04
 -1      3534-8.58242E-03 7.34970E-01-8.48737E-05
 -1      3535-6.45880E-03 2.78631E-03 1.84498E-03
 -1      3536-8.30024E-03 4.00389E-03 1.43243E-03
 -1      3537-1.04749E-02 4.76245E-03 2.66238E-03
 -1      3538-1.04446E-02 7.40718E-03 1.84185E-03
 -1      3539-1.36188E-02 8.61152E-03 1.44491E-03
 -1      3540-3.47364E-03 6.16262E-02 5.28087E-06
 -1      3541-1.07584E-01 1.69813E+00 1.19201E-04
 -1      3542-7.47307E-02 1.67134E+00 4.12136E-04
 -1      3543-1.27966E-01 9.44278E-01 1.21604E-03
 -1      3544-1.00547E-01 9.19752E-01 5.90199E-04
 -1      3545-1.47991E-01 9.61735E-01 6.86052E-04
 -1      3546-1.75837E-02 9.52088E-01-9.05611E-05
 -1      3547-6.12775E-02 9.67986E-01-3.35193E-04
 -1      3548-5.09736E-02 9.24686E-01-3.62122E-06
 -1      3549-1.61959E-02 6.14656E-02 5.20061E-04
 -1      3550-2.60140E-02 2.29938E-02-2.88166E-03
 -1      3551-2.64555E-01 1.66365E+00 4.78192E-04
 -1      3552-2.35947E-01 1.69330E+00 1.34277E-04
 -1      3553 8.17527E-03 3.61061E-02 6.95753E-04
 -1      3554 8.96058E-03 4.49275E-02 6.85505E-04
 -1      3555-8.44410E-04 3.41323E-02-7.11300E-05
 -1      3556 6.62048E-03 4.33351E-02 2.93688E-04
 -1      3557 6.04631E-03 3.47353E-02 2.98328E-04
 -1      3558-4.79666E-02 1.60759E-01 6.21638E-05
 -1      3559-2.16309E-03 3.17154E-02 5.06496E-06
 -1      3560-3.83221E-02 1.06557E-01-6.84244E-05
 -1      3561-2.41930E-02 1.06130E-01-5.04821E-04
 -1      3562-9.10265E-02 8.50901E-01 4.50110E-04
 -1      3563-1.25807E-01 1.15769E+00 4.71986E-04
 -1      3564-1.64134E-01 1.15615E+00 4.45318E-05
 -1      3565-1.18709E-01 1.15799E+00-4.61383E-04
 -1      3566-8.04055E-02 1.15975E+00-3.43029E-05
 -1      3567-5.60350E-02 8.52402E-01 2.09600E-05
 -1      3568-6.92655E-02 5.46113E-01-4.92670E-04
 -1      3569-3.40787E-02 5.47376E-01 1.80314E-05
 -1      3570-9.89883E-02 5.45484E-01-6.20519E-05
 -1      3571-6.37627E-02 5.46284E-01 4.48080E-04
 -1      3572-3.07792E-02 1.60483E-01 5.00533E-04
 -1      3573-1.03721E-02 1.60776E-01-1.51793E-05
 -1      3574-3.60656E-02 2.44812E-01 4.46905E-04
 -1      3575-6.09393E-02 2.44822E-01-6.63891E-05
 -1      3576-1.51467E-02 2.45357E-01 1.27174E-05
 -1      3577-2.75220E-02 1.60431E-01-4.51341E-04
 -1      3578 9.55453E-03 3.64827E-01-7.70050E-05
 -1      3579-1.88295E-02 3.51557E-01 1.85833E-04
 -1      3580-1.57550E-02 3.82287E-01-1.57241E-06
 -1      3581-3.18652E-02 3.62820E-01 6.39135E-04
 -1      3582-5.12020E-02 3.81010E-01 5.97104E-04
 -1      3583-3.99837E-02 2.44779E-01-5.01290E-04
 -1      3584-1.35820E-03-7.44740E-05-8.17129E-04
 -1      3585-2.01288E-03 4.22378E-04-6.16872E-04
 -1      3586-2.57504E-01 1.53304E+00-1.26713E-03
 -1      3587-2.60977E-01 1.57448E+00-1.22557E-03
 -1      3588-2.49799E-01 1.53034E+00-5.73287E-04
 -1      3589-2.15674E-01 1.53182E+00-9.41445E-04
 -1      3590-7.57776E-02 9.22216E-01 2.29319E-04
 -1      3591-1.22869E-01 9.64129E-01 2.41365E-04
 -1      3592-1.26242E-01 9.26843E-01 3.56598E-04
 -1      3593-3.18852E-02 1.22897E+00 5.41531E-04
 -1      3594-2.83648E-01 1.70343E+00 3.61698E-04
 -1      3595-2.42572E-01 1.69299E+00 4.80023E-04
 -1      3596-2.51528E-01 1.54793E+00-1.53414E-04
 -1      3597-1.37808E-01 1.71009E+00 1.13726E-03
 -1      3598-1.25928E-01 1.69725E+00 6.97076E-04
 -1      3599-1.87256E-02 5.12946E-02-1.89318E-04
 -1      3600-7.72888E-03 5.23927E-02-8.81002E-05
 -1      3601-6.51304E-03 3.89771E-02-8.87083E-05
 -1      3602-2.60317E-02 2.30245E-02 2.87990E-03
 -1      3603-2.32454E-01 1.39874E+00-2.94172E-04
 -1      3604-1.65004E-02 4.03546E-02-1.92264E-04
 -1      3605-1.50440E-01 6.67277E-01 4.71771E-04
 -1      3606-1.16837E-01 6.86974E-01 5.18278E-05
 -1      3607-1.54833E-01 7.09303E-01-3.94903E-04
 -1      3608-1.57325E-01 7.15335E-01 4.87069E-04
 -1      3609-1.22823E-01 7.35611E-01 6.95663E-05
 -1      3610-1.19180E-01 6.92832E-01 7.47504E-04
 -1      3611-1.54938E-01 1.36280E+00-1.61815E-04
 -1      3612-1.10916E-01 1.37018E+00-1.57166E-04
 -1      3613-1.05966E-01 1.31364E+00-1.55298E-04
 -1      3614-1.57546E-01 1.36806E+00 3.42854E-04
 -1      3615-1.52243E-01 1.31155E+00 3.46706E-04
 -1      3616-1.66705E-02 3.91842E-02 4.27662E-04
 -1      3617-8.64374E-02 9.65594E-01-1.86607E-04
 -1      3618-7.65456E-02 9.31542E-01-2.37134E-04
 -1      3619-1.56850E-01 6.57091E-01 2.15636E-03
 -1      3620-1.61158E-01 6.88730E-01 2.12181E-03
 -1      3621-1.21576E-01 6.50925E-01 1.52746E-03
 -1      3622-1.52507E-01 6.82972E-01 1.13669E-03
 -1      3623-1.48337E-01 6.51441E-01 1.15409E-03
 -1      3624-3.60056E-02 3.52005E-01 1.57338E-04
 -1      3625-3.30504E-02 3.75889E-01 1.89645E-04
 -1      3626-2.25265E-03 1.12712E-03-3.55902E-04
 -1      3627-2.41387E-03 7.95893E-04-4.81360E-04
 -1      3628-4.14694E-02 5.60832E-02 2.83530E-03
 -1      3629-3.76520E-02 4.64801E-02 2.85282E-03
 -1      3630-3.99438E-02 5.87633E-02 1.51841E-03
 -1      3631-2.81155E-02 4.76720E-02 1.88547E-03
 -1      3632-3.09309E-02 5.74992E-02 1.87417E-03
 -1      3633-1.50790E-01 1.31652E+00-1.64015E-04
 -1      3634-1.94914E-02 5.25726E-02 4.24715E-04
 -1      3635-8.37836E-02 9.74344E-01 2.06322E-04
 -1      3636-6.41317E-02 1.71361E+00 3.47733E-04
 -1      3637-1.04087E-01 1.69829E+00 4.62402E-04
 -1      3638-3.33485E-02 3.46361E-01-1.76300E-04
 -1      3639-1.11867E-01 6.49677E-01 2.13634E-05
 -1      3640-6.24348E-02 3.45806E-01 3.35037E-04
 -1      3641-3.36345E-02 3.74687E-02 2.86635E-03
 -1      3642-3.61354E-02 4.85874E-02 1.52660E-03
 -1      3643-2.39473E-02 3.49865E-02 1.89855E-03
 -1      3644-3.08137E-02 3.59679E-02 1.53928E-03
 -1      3645-5.65780E-02 7.16704E-01-1.23026E-04
 -1      3646-8.93933E-02 6.73205E-01-1.75461E-04
 -1      3647-5.29621E-02 6.70114E-01-1.22971E-04
 -1      3648-1.44201E-02 7.95549E-03-2.81207E-03
 -1      3649-1.39567E-02 1.22778E-02-1.92435E-03
 -1      3650-3.59128E-04 1.02425E-04-4.51089E-05
 -1      3651-5.01600E-02 1.46269E+00 7.75745E-04
 -1      3652-1.07665E-01 1.49675E+00 8.75727E-04
 -1      3653-8.88116E-02 1.43681E+00 8.15842E-04
 -1      3654-1.65711E-01 7.22691E-01 2.08804E-03
 -1      3655-1.25477E-01 6.84235E-01 1.50873E-03
 -1      3656-1.59406E-01 7.31445E-01 1.13757E-03
 -1      3657-1.31685E-01 7.32808E-01 1.50753E-03
 -1      3658-5.60769E-02 1.54114E+00 8.55830E-04
 -1      3659-5.96738E-02 1.58299E+00 8.88072E-04
 -1      3660-7.68752E-02 1.53768E+00 5.25757E-04
 -1      3661-1.10481E-01 1.53604E+00 8.88198E-04
 -1      3662-1.27973E-02 1.32826E-02-2.37021E-05
 -1      3663-3.33003E-04 1.19415E-05-1.22415E-04
 -1      3664-5.87487E-04 5.05619E-04-2.88999E-04
 -1      3665-1.49118E-01 6.71595E-01-4.37481E-04
 -1      3666-7.03332E-03 1.24633E-02 4.95414E-04
 -1      3667-1.45366E-01 1.55267E+00 9.52641E-04
 -1      3668-1.69339E-01 1.55324E+00 6.30372E-04
 -1      3669-1.83538E-02 1.21249E-02-2.88227E-03
 -1      3670-1.80646E-02 1.35514E-02-1.52845E-03
 -1      3671 3.63966E-03 5.98978E-03-6.53089E-04
 -1      3672 3.70058E-03 1.17587E-02-2.91986E-04
 -1      3673-9.38822E-02 7.11026E-01-1.52853E-04
 -1      3674-3.48059E-02 7.39042E-01 4.31704E-04
 -1      3675-6.10263E-02 7.21569E-01 7.41978E-04
 -1      3676-5.34013E-02 6.66689E-01 7.09660E-04
 -1      3677 4.74655E-03 1.02421E-02-7.03367E-04
 -1      3678-2.80495E-04 1.12367E-02 7.60916E-05
 -1      3679-2.33161E-01 1.29734E+00-1.49801E-03
 -1      3680-2.37263E-01 1.33611E+00-1.46081E-03
 -1      3681-2.30443E-01 1.37913E+00-7.51698E-04
 -1      3682-1.92761E-01 1.34146E+00-1.13162E-03
 -1      3683-2.26428E-01 1.34014E+00-7.71309E-04
 -1      3684-2.41335E-01 1.37509E+00-1.42052E-03
 -1      3685-1.96610E-01 1.38049E+00-1.11348E-03
 -1      3686-1.88352E-01 1.29532E+00-1.15864E-03
 -1      3687-2.21801E-01 1.29404E+00-7.96358E-04
 -1      3688-1.96116E-02 6.94716E-01 1.81620E-05
 -1      3689-5.85459E-03 7.24319E-01 2.47500E-05
 -1      3690-6.57567E-02 1.34389E+00 5.13455E-05
 -1      3691-4.45033E-02 1.31004E+00 1.67640E-04
 -1      3692-1.31652E-01 1.34072E+00 7.63002E-04
 -1      3693-1.10120E-01 1.30677E+00 8.78698E-04
 -1      3694-1.25886E-02 4.50788E-02 7.12558E-04
 -1      3695-7.40494E-03 3.68554E-02 5.85113E-04
 -1      3696 2.94480E-03 4.55574E-02-1.74098E-05
 -1      3697 6.74075E-03 3.77462E-02-1.49268E-04
 -1      3698-7.33915E-02 1.64032E+00-5.62806E-04
 -1      3699-1.08235E-01 1.63846E+00-9.32438E-04
 -1      3700-6.43965E-02 1.62508E+00-9.39017E-04
 -1      3701-7.27475E-02 1.58192E+00-4.93811E-04
 -1      3702-1.07484E-01 1.58004E+00-8.58583E-04
 -1      3703-3.37024E-02 3.76182E-02-2.85635E-03
 -1      3704-2.72479E-02 4.64113E-02-1.81029E-03
 -1      3705-3.52229E-02 4.74718E-02-1.44191E-03
 -1      3706-3.09511E-02 3.71417E-02-1.45498E-03
 -1      3707-2.39188E-02 3.60449E-02-1.82452E-03
 -1      3708-3.75757E-02 4.63057E-02-2.84141E-03
 -1      3709-3.88447E-02 5.71605E-02-1.43245E-03
 -1      3710-4.13928E-02 5.58906E-02-2.82404E-03
 -1      3711-3.00146E-02 5.61165E-02-1.79988E-03
 -1      3712-5.31047E-02 9.00742E-02 2.77696E-03
 -1      3713-4.07679E-02 1.02710E-01 1.72095E-03
 -1      3714-5.70396E-02 1.03243E-01 2.76044E-03
 -1      3715-5.26368E-02 1.03611E-01 1.35150E-03
 -1      3716-2.91022E-02 1.19082E+00 5.05283E-04
 -1      3717-3.85610E-02 1.15256E+00 2.86027E-04
 -1      3718-2.63975E-02 1.15294E+00 4.66085E-04
 -1      3719-7.10526E-02 1.15088E+00 6.47546E-04
 -1      3720-2.20687E-01 1.18251E+00-1.61360E-03
 -1      3721-2.04347E-01 1.14545E+00-8.40418E-04
 -1      3722-2.37693E-02 1.11537E+00 4.27667E-04
 -1      3723-2.16483E-01 1.14478E+00-1.65279E-03
 -1      3724-1.71795E-01 1.14656E+00-1.20037E-03
 -1      3725-2.12256E-01 1.10737E+00-1.69220E-03
 -1      3726-1.78009E-01 8.21569E-01 1.97773E-03
 -1      3727-1.41271E-01 8.57164E-01 1.33228E-03
 -1      3728-1.82319E-01 8.55803E-01 1.94154E-03
 -1      3729-1.71177E-01 8.56441E-01 9.69566E-04
 -1      3730-5.80395E-03 8.28018E-01-1.46548E-04
 -1      3731-1.89249E-02 8.62258E-01-1.59071E-04
 -1      3732-7.74567E-03 8.62473E-01-1.82249E-04
 -1      3733-4.87511E-02 8.60694E-01-5.21007E-04
 -1      3734-6.09894E-02 1.17290E-01 2.74335E-03
 -1      3735-8.91304E-02 2.39416E-01 2.60351E-03
 -1      3736-9.32197E-02 2.60141E-01 2.57866E-03
 -1      3737-6.48461E-02 2.39328E-01 1.64533E-03
 -1      3738-8.25525E-02 2.39858E-01 1.27704E-03
 -1      3739-1.43599E-01 5.66468E-01 2.24397E-03
 -1      3740-1.29964E-01 5.37752E-01 1.12481E-03
 -1      3741-1.39325E-01 5.37185E-01 2.27627E-03
 -1      3742-1.04782E-01 5.37903E-01 1.49022E-03
 -1      3743 6.53442E-03 5.70997E-01 1.16429E-04
 -1      3744-1.85036E-03 5.41465E-01-5.41302E-06
 -1      3745 1.33617E-02 1.48023E-01-5.67341E-04
 -1      3746 8.09477E-03 1.65232E-01-1.80259E-04
 -1      3747 1.36485E-02 1.64864E-01-5.48312E-04
 -1      3748-6.67949E-03 1.64413E-01 1.88306E-04
 -1      3749 7.56455E-03 5.41452E-01 1.46423E-04
 -1      3750-2.69360E-02 5.40155E-01-3.72972E-04
 -1      3751 1.26807E-02 1.16930E-01 6.02555E-04
 -1      3752 7.66254E-03 1.03127E-01 2.10699E-04
 -1      3753 1.21822E-02 1.02689E-01 6.18580E-04
 -1      3754-4.06175E-03 1.02416E-01-1.58115E-04
 -1      3755 1.16389E-02 8.93345E-02 6.34759E-04
 -1      3756 8.58965E-03 5.12544E-01 1.77505E-04
 -1      3757-1.35064E-01 5.08534E-01 2.30811E-03
 -1      3758 1.40071E-02 2.61576E-01 4.40142E-04
 -1      3759 7.44495E-03 2.40896E-01 1.40368E-04
 -1      3760-7.32825E-02 1.64587E-01-2.70219E-03
 -1      3761-6.92615E-02 1.47965E-01-2.72266E-03
 -1      3762-5.28633E-02 1.64259E-01-1.70188E-03
 -1      3763-6.73808E-02 1.65008E-01-1.32313E-03
 -1      3764 1.36083E-02 3.05825E-01-4.00992E-04
 -1      3765 1.36971E-02 3.29106E-01-3.85981E-04
 -1      3766 5.74807E-03 3.29258E-01-1.02407E-04
 -1      3767-1.41302E-02 3.28212E-01 2.56308E-04
 -1      3768 1.42488E-02 2.40519E-01 4.69063E-04
 -1      3769-1.00029E-02 2.39868E-01-2.25755E-04
 -1      3770-1.10087E-01 3.50755E-01-2.49073E-03
 -1      3771-7.79780E-02 3.27151E-01-1.61320E-03
 -1      3772-1.01802E-01 3.03922E-01-2.54854E-03
 -1      3773-9.80393E-02 3.27371E-01-1.24272E-03
 -1      3774-9.08425E-02 6.68819E-01 3.78612E-04
 -1      3775-9.61776E-02 7.17029E-01 3.92204E-04
 -1      3776-1.05932E-01 3.27046E-01-2.52129E-03
 -1      3777-5.66470E-02 1.01158E+00 5.85357E-04
 -1      3778-2.52708E-02 1.01324E+00 2.21968E-04
 -1      3779-1.63861E-02 1.00467E+00 3.16806E-04
 -1      3780-4.89973E-02 9.58803E-01 5.52282E-04
 -1      3781-1.81159E-02 9.60459E-01 1.90476E-04
 -1      3782-1.18612E-01 4.00515E-01-2.44645E-03
 -1      3783-1.13767E-01 4.26831E-01-1.19300E-03
 -1      3784-2.53555E-01 1.49325E+00-1.30456E-03
 -1      3785-1.22800E-01 4.26437E-01-2.41597E-03
 -1      3786-9.13727E-02 4.26928E-01-1.56041E-03
 -1      3787-1.44068E-02 7.94224E-03 2.81863E-03
 -1      3788-1.33504E-02 1.16841E-02 1.86341E-03
 -1      3789 2.95215E-05 1.81721E-03-7.87222E-05
 -1      3790 1.89722E-03 2.31104E-03 2.61711E-04
 -1      3791 2.64540E-03 2.86264E-03 6.03567E-04
 -1      3792-5.11620E-04 6.08830E-03-1.45248E-04
 -1      3793 2.57659E-03 6.57791E-03 2.26395E-04
 -1      3794-7.92354E-02 3.21523E-01 1.72244E-03
 -1      3795-9.93390E-02 3.21858E-01 1.36760E-03
 -1      3796-1.05731E-01 3.26922E-01 2.52455E-03
 -1      3797-8.66223E-02 3.56241E-01 1.83154E-03
 -1      3798-1.07666E-01 3.56532E-01 1.47849E-03
 -1      3799-1.19277E-02 3.22866E-01-2.25357E-04
 -1      3800 8.02513E-03 3.23808E-01 1.37535E-04
 -1      3801 1.34800E-02 3.29290E-01 3.73373E-04
 -1      3802-1.11994E-02 3.57994E-01-2.01473E-04
 -1      3803 9.68603E-03 3.59016E-01 1.62512E-04
 -1      3804-5.34175E-02 1.50184E+00 8.17323E-04
 -1      3805-5.94019E-02 1.00273E+00-5.88201E-04
 -1      3806-2.81139E-02 1.00437E+00-2.24619E-04
 -1      3807-1.63882E-02 1.00467E+00-3.26834E-04
 -1      3808-5.56489E-02 1.04778E+00-6.11391E-04
 -1      3809-2.39498E-02 1.04947E+00-2.48954E-04
 -1      3810-6.75017E-02 1.04747E+00-3.54290E-04
 -1      3811-1.56443E-01 9.98776E-01 1.26408E-03
 -1      3812-1.87801E-01 9.97847E-01 9.01364E-04
 -1      3813-1.99492E-01 9.97191E-01 1.79494E-03
 -1      3814-1.68343E-01 1.04310E+00 1.40500E-03
 -1      3815-2.00116E-01 1.04215E+00 1.04169E-03
 -1      3816-1.56527E-01 1.04378E+00 6.65894E-04
 -1      3817-3.13956E-02 6.54696E-01-4.05276E-04
 -1      3818-7.71723E-03 7.18764E-01-3.42344E-05
 -1      3819-5.30362E-03 6.72084E-01-2.30879E-05
 -1      3820-6.10857E-03 6.87887E-01-5.99977E-05
 -1      3821-4.51052E-03 6.56136E-01-4.30025E-05
 -1      3822-1.83390E-02 1.21037E-02 2.88865E-03
 -1      3823-1.73442E-02 1.29149E-02 1.47892E-03
 -1      3824 1.16030E-02 1.87063E-01-2.70177E-04
 -1      3825-4.06105E-03 1.86121E-01 9.82905E-05
 -1      3826-9.94031E-03 1.86508E-01 1.47691E-04
 -1      3827-8.17191E-02 2.15557E-01 1.55300E-03
 -1      3828-6.48543E-02 2.14883E-01 1.92221E-03
 -1      3829-5.86094E-02 2.15354E-01 8.76276E-04
 -1      3830-5.20671E-02 1.37299E+00-1.76846E-04
 -1      3831-4.75705E-02 1.31642E+00-1.63883E-04
 -1      3832-1.64869E-01 1.36762E+00 1.03566E-03
 -1      3833-1.59511E-01 1.31110E+00 1.04756E-03
 -1      3834-1.49613E-03 5.68233E-02-8.64701E-05
 -1      3835-1.11566E-03 4.27052E-02-7.93249E-05
 -1      3836 7.12847E-03 5.26220E-02 1.19003E-04
 -1      3837 7.38703E-03 5.74796E-02 2.85292E-04
 -1      3838 6.33278E-03 3.91507E-02 1.22581E-04
 -1      3839-1.40961E-02 9.68501E-01 2.83139E-04
 -1      3840-1.18918E-02 9.32734E-01 2.47355E-04
 -1      3841-4.63980E-02 9.23156E-01 5.31981E-04
 -1      3842-1.58788E-02 9.24799E-01 1.67570E-04
 -1      3843-2.08019E-01 1.07029E+00 1.72124E-03
 -1      3844-2.03759E-01 1.03356E+00 1.75943E-03
 -1      3845-2.04323E-01 1.07896E+00 1.01979E-03
 -1      3846-1.72249E-01 1.07996E+00 1.38143E-03
 -1      3847-1.87676E-02 1.04122E+00-3.61704E-04
 -1      3848-5.84782E-02 1.08474E+00-6.34461E-04
 -1      3849-2.12250E-02 1.07812E+00-3.99422E-04
 -1      3850-2.64734E-02 1.08644E+00-2.70585E-04
 -1      3851-8.09986E-02 2.00369E-01 2.64676E-03
 -1      3852-8.50551E-02 2.19487E-01 2.62498E-03
 -1      3853-7.77699E-02 1.96623E-01 1.56674E-03
 -1      3854-6.16154E-02 1.95896E-01 1.93494E-03
 -1      3855 1.38666E-02 1.82556E-01-5.30014E-04
 -1      3856 1.40163E-02 2.01082E-01-5.09700E-04
 -1      3857 1.16293E-02 2.05764E-01-2.58850E-04
 -1      3858-4.74811E-03 2.04797E-01 1.10705E-04
 -1      3859-7.55736E-02 1.86536E-01-1.57514E-03
 -1      3860-6.01752E-02 1.85757E-01-1.95637E-03
 -1      3861-5.39322E-02 1.86243E-01-8.90265E-04
 -1      3862 1.16121E-02 2.16352E-01 2.49168E-04
 -1      3863-4.99449E-03 2.15283E-01-1.13985E-04
 -1      3864-1.14643E-02 2.15725E-01-1.58058E-04
 -1      3865-7.72890E-02 1.82026E-01-2.68226E-03
 -1      3866-6.33846E-02 2.04262E-01-1.94224E-03
 -1      3867 1.42442E-02 2.20353E-01 4.89816E-04
 -1      3868 1.16240E-02 1.97198E-01 2.62473E-04
 -1      3869-1.24100E-01 4.59566E-01-1.40720E-03
 -1      3870-1.00976E-01 4.59671E-01-1.77505E-03
 -1      3871-9.16749E-02 4.60109E-01-8.16427E-04
 -1      3872-1.30815E-01 4.80533E-01-2.34157E-03
 -1      3873-1.26551E-01 4.53051E-01-2.37947E-03
 -1      3874-1.04071E-01 4.87181E-01-1.74797E-03
 -1      3875-1.28278E-01 4.87196E-01-1.38255E-03
 -1      3876-8.13445E-02 2.00319E-01-2.66090E-03
 -1      3877-7.95101E-02 2.05017E-01-1.56320E-03
 -1      3878 2.58953E-03 4.29699E-01-5.26930E-05
 -1      3879-1.98411E-02 4.28525E-01 3.08081E-04
 -1      3880 1.14918E-02 4.29603E-01-2.75745E-04
 -1      3881 6.74798E-03 4.62982E-01-1.04674E-04
 -1      3882-1.64072E-02 4.61701E-01 2.57547E-04
 -1      3883-2.55766E-02 4.61800E-01 2.12414E-04
 -1      3884-1.09891E-01 3.50683E-01 2.50065E-03
 -1      3885-1.11752E-01 3.81187E-01 1.46210E-03
 -1      3886-2.12978E-02 5.20321E-02 1.35885E-03
 -1      3887-9.68402E-02 6.68247E-01 1.19241E-03
 -1      3888-1.02331E-01 7.16453E-01 1.20456E-03
 -1      3889-1.13979E-01 3.75119E-01 2.47209E-03
 -1      3890-8.99976E-02 3.80899E-01 1.81418E-03
 -1      3891 1.30785E-02 3.53260E-01 3.48988E-04
 -1      3892 9.08485E-03 3.83862E-01 1.45548E-04
 -1      3893 9.71194E-03 4.84272E-01-2.15847E-04
 -1      3894 1.07412E-02 4.56603E-01-2.48017E-04
 -1      3895 5.79433E-03 4.90797E-01-8.57239E-05
 -1      3896-1.81206E-02 4.89480E-01 2.76916E-04
 -1      3897 1.41047E-02 2.00987E-01 5.09208E-04
 -1      3898-4.33809E-03 1.96145E-01-1.04228E-04
 -1      3899-1.49094E-01 1.00805E+00-5.60576E-05
 -1      3900-1.89891E-01 1.01607E+00 3.36779E-04
 -1      3901-1.28079E-01 1.01809E+00 1.04887E-03
 -1      3902-2.93542E-02 1.02267E+00-9.06213E-05
 -1      3903-1.12147E-01 1.00942E+00-4.83192E-04
 -1      3904-9.10634E-02 1.01961E+00-8.03415E-04
 -1      3905-1.82340E-02 3.86437E-02 1.36527E-03
 -1      3906-1.61394E-01 6.90472E-01-2.12558E-03
 -1      3907-1.56847E-01 6.57092E-01-2.16042E-03
 -1      3908-1.20218E-01 6.55230E-01-1.48000E-03
 -1      3909-1.47034E-01 6.55724E-01-1.10914E-03
 -1      3910-1.24084E-01 6.88622E-01-1.46317E-03
 -1      3911-1.31382E-02 8.19773E-01 1.21199E-04
 -1      3912-8.50182E-03 7.73723E-01 8.83075E-05
 -1      3913-2.25888E-02 6.09065E-02-1.29246E-03
 -1      3914-3.20825E-02 6.96262E-02-9.59165E-04
 -1      3915-6.83334E-04 5.78256E-01-4.93180E-06
 -1      3916 2.32510E-03 6.22311E-01-2.58854E-05
 -1      3917-5.35906E-02 4.34364E-01-4.51762E-04
 -1      3918-7.03577E-02 4.40561E-01-1.16831E-03
 -1      3919-4.24615E-02 8.18210E-01 4.85602E-04
 -1      3920-3.72463E-02 7.72172E-01 4.52375E-04
 -1      3921-5.87036E-02 4.34161E-01 4.91062E-04
 -1      3922-4.31079E-02 4.41180E-01 6.98905E-04
 -1      3923-2.63449E-02 5.76881E-01 3.58721E-04
 -1      3924-2.40964E-02 6.20851E-01 3.34093E-04
 -1      3925 1.24467E-02 3.78028E-01 3.19958E-04
 -1      3926-1.25694E-02 3.82888E-01-2.19108E-04
 -1      3927-8.57124E-02 4.33755E-01 5.81016E-05
 -1      3928-1.15795E-01 4.40323E-01-4.47360E-04
 -1      3929-4.06720E-02 6.25685E-02-5.63110E-04
 -1      3930-1.03183E-01 7.43077E-01-1.12283E-03
 -1      3931-1.29053E-01 7.66555E-01-7.44381E-04
 -1      3932-2.66177E-02 4.35280E-01-1.98211E-05
 -1      3933 2.10277E-03 4.43251E-01-1.94256E-05
 -1      3934 3.64376E-03 6.00590E-03 6.52379E-04
 -1      3935 3.24330E-03 1.08788E-02 2.46029E-04
 -1      3936-6.07664E-02 1.58352E+00-9.06449E-04
 -1      3937-6.91533E-02 1.54046E+00-4.78498E-04
 -1      3938 4.75048E-03 1.02651E-02 7.02072E-04
 -1      3939-5.86489E-04 1.03744E-02-1.19796E-04
 -1      3940 4.37977E-03 1.70526E-02-2.95151E-04
 -1      3941 5.75451E-03 2.59085E-02-3.39280E-04
 -1      3942-5.61254E-02 1.54171E+00-8.62777E-04
 -1      3943-1.02732E-01 1.53824E+00-8.38821E-04
 -1      3944-7.75567E-02 1.95905E-01-7.21783E-04
 -1      3945-6.92656E-02 1.73838E-01-5.03798E-04
 -1      3946-5.26567E-02 1.78371E-01 1.39314E-04
 -1      3947-7.58193E-02 1.87695E-01 7.21456E-04
 -1      3948-5.99850E-02 2.00763E-01-2.77280E-06
 -1      3949-3.18870E-02 1.22897E+00-5.51734E-04
 -1      3950-2.24868E-01 1.22052E+00 1.56704E-03
 -1      3951-8.15035E-02 2.14795E-01-7.16385E-04
 -1      3952-5.99373E-02 2.24319E-01-1.44387E-04
 -1      3953-8.06572E-02 2.29973E-01 4.86366E-04
 -1      3954-7.97595E-02 2.06216E-01 7.15527E-04
 -1      3955 1.16181E-02 2.06900E-01 1.16515E-04
 -1      3956 7.57862E-03 2.30906E-01 5.45061E-05
 -1      3957-1.19368E-02 2.24817E-01 2.42616E-05
 -1      3958 1.16063E-02 2.15653E-01-1.16713E-04
 -1      3959-6.98237E-03 2.01120E-01-1.34206E-06
 -1      3960-2.16367E-02 1.72875E-01 6.57082E-04
 -1      3961-3.45989E-02 1.78089E-01 5.77567E-04
 -1      3962-4.48646E-02 1.86569E-01 1.44546E-03
 -1      3963-1.98222E-02 1.95018E-01 6.01858E-04
 -1      3964-3.34713E-02 2.00487E-01 6.00823E-04
 -1      3965-4.74024E-02 2.05186E-01 1.43903E-03
 -1      3966-4.66349E-02 2.29223E-01 1.20926E-03
 -1      3967-2.12210E-02 2.14070E-01 6.07288E-04
 -1      3968-3.20269E-02 2.24268E-01 4.58474E-04
 -1      3969 1.15944E-02 1.88162E-01 1.22069E-04
 -1      3970-9.53744E-03 1.78517E-01-2.48155E-05
 -1      3971 8.06951E-03 1.74157E-01-6.72671E-05
 -1      3972 1.16161E-02 1.96542E-01-1.21905E-04
 -1      3973-4.52747E-04 1.64524E-02 7.60120E-05
 -1      3974-1.85827E-04 2.52444E-02 2.89694E-05
 -1      3975-2.64404E-02 2.29357E-01-6.73275E-04
 -1      3976-3.98062E-02 2.24174E-01-5.78690E-04
 -1      3977-4.86489E-02 2.13735E-01-1.44235E-03
 -1      3978-2.07095E-02 2.05270E-01-6.11106E-04
 -1      3979-3.34366E-02 2.00415E-01-6.02909E-04
 -1      3980 1.80737E-04 6.69398E-01 4.64432E-07
 -1      3981-5.00159E-02 1.37966E+00 1.84244E-04
 -1      3982-1.16264E-01 1.37638E+00 8.94130E-04
 -1      3983-1.42198E-01 1.40385E+00 5.18226E-04
 -1      3984-4.61110E-02 1.94638E-01-1.45041E-03
 -1      3985-3.95658E-02 1.72633E-01-1.22993E-03
 -1      3986-1.93575E-02 1.86482E-01-6.06980E-04
 -1      3987-2.75517E-02 1.78078E-01-4.60330E-04
 -1      3988-5.27627E-02 1.50187E+00-8.20469E-04
 -1      3989 5.67579E-03 1.52937E-02 7.13036E-04
 -1      3990-2.45378E-01 1.41427E+00-1.38003E-03
 -1      3991 7.81420E-03 5.42745E-02-1.45401E-04
 -1      3992-4.52853E-02 6.63957E-02-2.80819E-03
 -1      3993-4.24797E-02 6.77529E-02-1.42407E-03
 -1      3994-4.93289E-02 7.77024E-02-2.80473E-03
 -1      3995-3.29969E-02 6.66464E-02-1.80145E-03
 -1      3996-2.29025E-01 1.25881E+00-1.53905E-03
 -1      3997-1.59000E-01 7.41825E-01-3.89331E-04
 -1      3998-2.07779E-01 1.55151E+00 2.33881E-04
 -1      3999-9.10169E-03 5.33199E-02 5.86173E-04
 -1      4000-1.73701E-01 7.87814E-01-2.01889E-03
 -1      4001-1.61070E-01 7.58168E-01-1.02599E-03
 -1      4002-1.32379E-01 7.58725E-01-1.39898E-03
 -1      4003-1.41249E-01 7.96336E-01-1.55881E-03
 -1      4004-1.70447E-01 7.95761E-01-1.19512E-03
 -1      4005-2.98658E-02 2.98275E-02-2.87313E-03
 -1      4006-2.36635E-02 6.69775E-02-3.14236E-04
 -1      4007-8.81488E-04 1.15279E-04-1.49943E-04
 -1      4008-1.25916E-01 9.18637E-01-1.24277E-03
 -1      4009-1.46260E-01 9.08966E-01-7.87445E-04
 -1      4010-1.18348E-01 8.83702E-01-1.15628E-03
 -1      4011-7.50636E-02 9.13501E-01-7.93213E-04
 -1      4012-9.54796E-02 9.03733E-01-5.36169E-04
 -1      4013-1.02793E-01 9.38923E-01-6.05054E-04
 -1      4014-2.61712E-01 1.63363E+00 6.84595E-04
 -1      4015-2.53633E-01 1.59399E+00 7.73681E-04
 -1      4016-1.29870E-01 1.03662E+00 2.39404E-04
 -1      4017-9.26556E-02 1.03816E+00-1.88239E-04
 -1      4018-1.04869E-01 7.59937E-01-2.57683E-04
 -1      4019-4.43153E-02 4.55200E-01 1.59738E-04
 -1      4020-7.18308E-02 4.54500E-01-2.72053E-04
 -1      4021-1.70027E-01 7.55443E-01-2.05701E-03
 -1      4022-1.29268E-01 7.26750E-01-1.42081E-03
 -1      4023-4.85443E-02 8.08959E-02-1.65065E-03
 -1      4024-3.81828E-02 7.97455E-02-2.02671E-03
 -1      4025-1.77568E-01 8.82065E-01-4.42322E-04
 -1      4026-1.85892E-01 9.16953E-01-5.28842E-04
 -1      4027-1.84214E-01 9.07186E-01 5.14011E-04
 -1      4028-1.52644E-01 9.34459E-01-1.18946E-05
 -1      4029-1.44729E-01 8.99327E-01 5.76087E-05
 -1      4030-1.65712E-01 7.22690E-01-2.09208E-03
 -1      4031-1.56899E-01 7.25377E-01-1.04182E-03
 -1      4032-1.68572E-01 1.40679E+00 1.02696E-03
 -1      4033-1.52540E-01 6.26023E-01-2.19429E-03
 -1      4034-2.21905E-02 1.71026E-02 2.89450E-03
 -1      4035-1.90138E-01 9.52401E-01-5.18499E-04
 -1      4036-1.49555E-01 9.71778E-01-1.23311E-04
 -1      4037-1.85741E-01 9.79898E-01 3.43617E-04
 -1      4038-1.88454E-01 9.42517E-01 5.03723E-04
 -1      4039-4.72750E-02 2.04861E-01-4.25308E-04
 -1      4040-4.06225E-02 1.82269E-01-2.85102E-04
 -1      4041-4.61609E-02 1.96425E-01 4.22959E-04
 -1      4042-1.99100E-02 1.96554E-01-1.78536E-04
 -1      4043-2.55201E-02 2.20060E-01-1.55743E-04
 -1      4044-2.05361E-02 2.05090E-01 1.76515E-04
 -1      4045-4.54418E-02 2.19869E-01 2.78665E-04
 -1      4046-2.23988E-02 1.82357E-01 1.50990E-04
 -1      4047-5.51516E-02 8.87823E-01 4.68211E-05
 -1      4048-1.47967E-02 9.07249E-01 7.05423E-05
 -1      4049-2.00062E-02 8.79752E-01-6.59134E-05
 -1      4050-5.58439E-02 8.96942E-01-3.18550E-04
 -1      4051-1.53658E-02 9.16531E-01-8.01963E-05
 -1      4052 2.70728E-03 6.63242E-01 2.30780E-05
 -1      4053-3.22047E-04 7.27587E-01 3.36044E-05
 -1      4054-7.02718E-02 3.93842E-01 1.37444E-03
 -1      4055-5.87948E-02 4.07404E-01 5.63920E-04
 -1      4056-4.08869E-02 4.14662E-01 6.92245E-04
 -1      4057-3.37694E-02 3.88012E-01 6.48053E-04
 -1      4058-2.18701E-02 4.01666E-01 1.97815E-04
 -1      4059-2.22991E-02 4.08631E-01-3.43670E-05
 -1      4060 8.74106E-03 3.96821E-01 6.10240E-05
 -1      4061 3.04082E-03 4.16662E-01-2.43196E-05
 -1      4062 8.92778E-03 3.90086E-01-6.92523E-05
 -1      4063 9.64202E-03 5.46585E-02 6.71083E-04
 -1      4064-1.29455E-01 9.54184E-01-1.23111E-03
 -1      4065-7.79978E-02 9.49020E-01-8.03537E-04
 -1      4066-8.79525E-02 9.83315E-01-7.96919E-04
 -1      4067-1.13001E-01 9.73079E-01-5.51401E-04
 -1      4068-9.90427E-02 8.67234E-01-4.85092E-04
 -1      4069-7.89107E-02 8.76856E-01-7.78497E-04
 -1      4070-1.52733E-01 6.93119E-01-1.05783E-03
 -1      4071-7.43005E-02 9.04229E-01 7.83551E-04
 -1      4072-9.06117E-02 8.86256E-01 4.75733E-04
 -1      4073-1.14248E-01 8.75496E-01 1.07591E-03
 -1      4074-1.24440E-01 9.08848E-01 1.22788E-03
 -1      4075-1.40511E-01 8.90952E-01 7.03764E-04
 -1      4076-1.59526E-01 9.61066E-01 1.45405E-03
 -1      4077-1.90555E-01 9.60228E-01 1.09130E-03
 -1      4078-1.88401E-01 9.42193E-01 1.72278E-03
 -1      4079-1.42835E-02 8.98788E-01-1.61159E-04
 -1      4080-4.45268E-02 8.97157E-01-5.23775E-04
 -1      4081-1.53549E-02 9.16188E-01-2.65234E-04
 -1      4082-2.37097E-01 1.42361E+00 7.52073E-04
 -1      4083-2.46344E-01 1.47309E+00 7.89009E-04
 -1      4084-2.03095E-01 1.42500E+00 1.11441E-03
 -1      4085-2.12170E-01 1.47452E+00 1.15053E-03
 -1      4086-1.86315E-01 9.24681E-01 1.11239E-03
 -1      4087-1.55644E-01 9.25464E-01 1.47579E-03
 -1      4088-1.64608E-02 9.34138E-01-1.81428E-04
 -1      4089-4.70754E-02 9.32492E-01-5.44594E-04
 -1      4090-9.46780E-03 7.51191E-01-1.47771E-04
 -1      4091-4.45628E-02 1.27754E+00-5.84927E-04
 -1      4092-2.21141E-01 1.26972E+00 1.33760E-03
 -1      4093-3.73221E-03 6.40189E-01-5.38007E-05
 -1      4094-5.52524E-02 1.41205E+00-6.95508E-04
 -1      4095-2.49384E-01 1.45360E+00 1.33291E-03
 -1      4096-2.35082E-01 1.40391E+00 1.22660E-03
 -1      4097 7.63967E-03 6.23652E-02 4.52820E-04
 -1      4098 8.59401E-03 4.02723E-01-1.40969E-04
 -1      4099-1.32276E-02 4.01508E-01 2.20227E-04
 -1      4100 8.95088E-03 3.89618E-01-2.29670E-04
 -1      4101-7.00552E-02 1.69702E-01 6.05652E-04
 -1      4102-5.36479E-02 1.73947E-01 9.87515E-04
 -1      4103 9.25862E-03 3.77252E-01-1.56904E-04
 -1      4104-1.18221E-02 3.76074E-01 2.02337E-04
 -1      4105-4.16935E-02 6.33809E-02 2.40431E-03
 -1      4106 5.75705E-03 3.03677E-02 4.80532E-04
 -1      4107-5.29769E-02 1.00359E-01-6.24072E-04
 -1      4108-3.88112E-02 9.59190E-02-1.01585E-03
 -1      4109-1.14917E-01 8.49026E-01-1.16472E-03
 -1      4110-1.38196E-01 8.38990E-01-7.95332E-04
 -1      4111-2.06834E-01 1.13561E+00 3.79095E-04
 -1      4112-1.68563E-01 1.12665E+00 7.08695E-04
 -1      4113-1.43129E-01 1.13788E+00 1.09119E-03
 -1      4114-3.43010E-02 1.14300E+00-1.27218E-04
 -1      4115-7.06372E-02 1.13083E+00-3.89889E-04
 -1      4116-9.79128E-02 1.13981E+00-8.38386E-04
 -1      4117-1.62133E-02 8.71549E-01 6.03752E-05
 -1      4118-5.12348E-02 8.79481E-01 3.15498E-04
 -1      4119-1.73366E-01 8.47489E-01-4.50313E-04
 -1      4120-1.34294E-01 8.66050E-01-5.60078E-05
 -1      4121-7.49398E-02 8.68620E-01 7.73954E-04
 -1      4122 9.44181E-03 2.35820E-01-8.03408E-05
 -1      4123-1.02760E-02 2.29452E-01 1.40043E-04
 -1      4124-8.35018E-02 2.34806E-01-5.90774E-04
 -1      4125-6.25464E-02 2.28900E-01-9.73615E-04
 -1      4126-1.27725E-01 9.36689E-01-3.71368E-04
 -1      4127-1.20112E-01 9.01528E-01-3.04362E-04
 -1      4128 9.73634E-03 1.69926E-01 9.33467E-05
 -1      4129-7.63739E-03 1.74021E-01-1.27446E-04
 -1      4130-4.05535E-02 1.68571E-01 1.32993E-03
 -1      4131-2.47735E-02 2.34257E-01 6.43037E-04
 -1      4132-1.90153E-01 9.88412E-01-4.19119E-04
 -1      4133-1.53842E-01 9.80175E-01-7.67420E-04
 -1      4134-1.28816E-01 9.90333E-01-1.13183E-03
 -1      4135-8.25573E-02 5.30799E-01-1.23992E-03
 -1      4136-1.02016E-01 5.22756E-01-8.85305E-04
 -1      4137-4.77400E-02 5.31798E-01 7.03953E-04
 -1      4138-2.68875E-02 5.24882E-01 2.20848E-04
 -1      4139-1.98968E-02 1.55887E-02-2.45536E-03
 -1      4140-1.31654E-01 5.30325E-01-5.21977E-04
 -1      4141 1.20091E-03 5.34148E-01-1.36792E-05
 -1      4142 6.51520E-03 2.12848E-02-7.08250E-04
 -1      4143 4.05203E-03 1.38612E-02-4.76351E-04
 -1      4144-3.01447E-02 9.88587E-02-1.35309E-03
 -1      4145-9.73254E-02 3.10004E-01 2.17570E-03
 -1      4146-3.70530E-02 1.18056E+00-5.03941E-04
 -1      4147-2.10931E-01 1.17304E+00 1.42403E-03
 -1      4148-1.94294E-01 1.02440E+00-1.55680E-03
 -1      4149-1.90922E-01 9.25647E-01-1.87637E-03
 -1      4150-1.77517E-01 8.81739E-01-1.67797E-03
 -1      4151-1.79649E-01 8.99413E-01-1.03929E-03
 -1      4152-1.49258E-01 9.00180E-01-1.40311E-03
 -1      4153-2.64962E-02 1.03132E+00 3.72160E-04
 -1      4154-3.95371E-03 7.94039E-01 1.06217E-04
 -1      4155-1.41313E-02 8.36646E-01 2.10735E-04
 -1      4156 9.18815E-03 1.13155E-01-4.11586E-04
 -1      4157-1.35725E-01 5.58990E-01-1.95671E-03
 -1      4158-6.61991E-02 1.52227E-01 2.32508E-03
 -1      4159 9.22443E-03 2.55979E-01-2.84189E-04
 -1      4160-7.05553E-02 4.20238E-01 1.25940E-03
 -1      4161-8.83916E-02 4.13122E-01 9.13991E-04
 -1      4162 5.32533E-03 6.01150E-01-9.20988E-05
 -1      4163-1.64340E-05 5.63042E-01-1.96498E-05
 -1      4164 1.28507E-02 3.77879E-01-3.34638E-04
 -1      4165-4.92701E-02 2.33925E-01-1.31789E-03
 -1      4166 8.28954E-03 3.11812E-01 2.31327E-04
 -1      4167-1.15309E-01 4.20200E-01 5.49792E-04
 -1      4168 5.33649E-03 4.23156E-01 3.31719E-05
 -1      4169-2.01808E-02 4.14880E-01-1.93575E-04
 -1      4170-2.90586E-02 3.18017E-02 2.44475E-03
 -1      4171-1.97667E-02 1.68402E-01-6.36716E-04
 -1      4172-3.93443E-02 4.21421E-01-6.88857E-04
 -1      4173-8.73604E-02 2.54748E-01-2.22971E-03
 -1      4174-5.66861E-02 1.13539E-01-2.36341E-03
 -1      4175 4.46775E-03 4.49470E-01 1.12515E-04
 -1      4176 9.68134E-03 1.52253E-01 3.74958E-04
 -1      4177-1.19336E-01 4.46278E-01 2.05241E-03
 -1      4178-3.56682E-02 1.16177E+00-3.06727E-04
 -1      4179-6.82272E-02 1.16008E+00-6.68563E-04
 -1      4180-1.76272E-01 1.15543E+00 1.26028E-03
 -1      4181-1.75449E-01 8.64605E-01-1.05760E-03
 -1      4182-2.08890E-01 1.15432E+00 8.97118E-04
 -1      4183-1.45442E-01 8.65319E-01-1.42199E-03
 -1      4184-1.60783E-01 1.00732E+00-1.34574E-03
 -1      4185-1.92232E-01 1.00640E+00-9.82340E-04
 -1      4186-1.51648E-02 8.54097E-01 1.38989E-04
 -1      4187-4.48979E-02 8.52514E-01 5.02896E-04
 -1      4188-1.33696E-01 5.44647E-01-1.23028E-03
 -1      4189-1.08379E-01 5.44784E-01-1.59651E-03
 -1      4190-6.81308E-02 1.60958E-01 1.44691E-03
 -1      4191-5.34430E-02 1.60178E-01 1.81620E-03
 -1      4192-8.44331E-03 2.44904E-01 1.85434E-04
 -1      4193 9.33867E-03 2.45889E-01-1.83057E-04
 -1      4194 5.99323E-04 5.48586E-01-2.06330E-05
 -1      4195-5.48356E-02 1.06938E-01-1.47994E-03
 -1      4196-8.54363E-02 2.44766E-01-1.39822E-03
 -1      4197-2.46157E-02 5.47236E-01 3.44804E-04
 -1      4198-1.78759E-02 4.35147E-01-2.86957E-04
 -1      4199-1.90921E-01 9.25646E-01 1.86932E-03
 -1      4200-1.18907E-02 9.32734E-01-2.53388E-04
 -1      4201-1.73272E-01 8.73840E-01 3.62856E-04
 -1      4202-1.17324E-01 4.33189E-01 1.29977E-03
 -1      4203 9.71357E-03 1.61083E-01 2.28679E-04
 -1      4204-6.78225E-02 2.44146E-01-1.77439E-03
 -1      4205-4.79461E-03 1.60230E-01-1.38056E-04
 -1      4206-4.29950E-02 1.05949E-01-1.86065E-03
 -1      4207-9.45046E-02 4.33034E-01 1.65900E-03
 -1      4208 4.91303E-03 4.36209E-01 7.64574E-05
 -1      4209-2.95974E-02 1.64736E-01-3.32403E-06
 -1      4210-2.03418E-02 1.78003E-01-1.67053E-04
 -1      4211-2.24727E-02 1.02967E-01-1.18453E-06
 -1      4212-1.21438E-01 1.14886E+00-4.60472E-06
 -1      4213-1.41349E-01 1.11937E+00 2.82986E-04
 -1      4214-9.63147E-02 1.12129E+00-2.23440E-04
 -1      4215-9.50302E-02 8.59140E-01-2.67535E-06
 -1      4216-8.04101E-02 8.94634E-01-1.81935E-04
 -1      4217-1.15984E-01 8.93253E-01 2.45952E-04
 -1      4218-7.64125E-02 8.86372E-01 2.00967E-04
 -1      4219-1.13250E-01 8.32210E-01-3.07928E-04
 -1      4220-1.07939E-01 1.00093E+00-4.20481E-06
 -1      4221-1.27091E-01 9.72598E-01-3.00389E-04
 -1      4222-2.90140E-02 9.28921E-02-3.54687E-04
 -1      4223-4.17837E-02 1.77970E-01 3.48447E-04
 -1      4224-6.58834E-02 5.39318E-01-2.14590E-06
 -1      4225-8.10919E-02 5.16896E-01-3.26741E-04
 -1      4226-4.66548E-02 5.17865E-01 1.83515E-04
 -1      4227-2.63956E-02 1.15294E+00-4.74561E-04
 -1      4228-1.82320E-01 8.55805E-01-1.94826E-03
 -1      4229-2.16482E-01 1.14478E+00 1.64524E-03
 -1      4230-1.99494E-01 9.97193E-01-1.80284E-03
 -1      4231-7.74387E-03 8.62473E-01 1.75513E-04
 -1      4232-1.52540E-01 6.26022E-01 2.19034E-03
 -1      4233-7.29421E-02 1.64603E-01 2.68847E-03
 -1      4234-1.39328E-01 5.37185E-01-2.28127E-03
 -1      4235 1.40878E-02 2.40605E-01-4.67167E-04
 -1      4236-3.75403E-02 2.40011E-01-2.49209E-06
 -1      4237-2.40183E-02 2.24817E-01 1.67869E-04
 -1      4238-5.55418E-02 4.27973E-01-3.05663E-06
 -1      4239-4.00704E-02 4.02093E-01 1.59115E-04
 -1      4240-3.80937E-02 4.08443E-01-1.80676E-04
 -1      4241-4.79074E-02 2.24589E-01-3.45439E-04
 -1      4242 7.56449E-03 5.41452E-01-1.52345E-04
 -1      4243-8.93912E-02 2.39355E-01-2.61311E-03
 -1      4244-5.72491E-02 1.03196E-01-2.77200E-03
 -1      4245-6.93496E-02 4.07643E-01 3.29859E-04
 -1      4246-4.60847E-02 3.27923E-01-2.55585E-06
 -1      4247 1.12895E-02 4.29651E-01 2.67236E-04
 -1      4248-1.22538E-01 4.26308E-01 2.41322E-03
 -1      4249 1.37406E-02 1.64869E-01 5.49636E-04
 -1      4250-1.87182E-02 9.69907E-01-2.01530E-04
 -1      4251-1.75730E-02 9.51760E-01-2.96449E-04
 -1      4252-4.96932E-02 9.68245E-01-5.65296E-04
 -1      4253-1.51773E-01 8.90288E-01 1.49693E-03
 -1      4254-1.84160E-01 9.06846E-01 1.75468E-03
 -1      4255-1.82073E-01 8.89558E-01 1.13305E-03
 -1      4256 9.84112E-03 3.52540E-01-1.71153E-04
 -1      4257 9.57492E-03 3.64496E-01-2.52491E-04
 -1      4258-1.06502E-02 3.51390E-01 1.87899E-04
 -1      4259-2.52035E-01 1.53038E+00 3.49054E-04
 -1      4260-2.08330E-01 1.53392E+00 7.03844E-04
 -1      4261-1.61471E-01 7.47574E-01 1.80364E-03
 -1      4262-5.94392E-02 1.69110E+00-1.10748E-03
 -1      4263-6.72908E-02 1.65761E+00-1.07860E-03
 -1      4264-7.63088E-02 1.67287E+00-6.89469E-04
 -1      4265-1.00449E-01 1.67192E+00-9.45290E-04
 -1      4266-1.14009E-01 1.71121E+00-1.16088E-03
 -1      4267-1.03427E-01 1.69720E+00-7.07250E-04
 -1      4268-7.52053E-03 2.76755E-03-2.66064E-03
 -1      4269-4.88115E-03 1.76521E-03-2.22854E-03
 -1      4270-4.54164E-03 1.47831E-03-1.65503E-03
 -1      4271-5.32761E-03 2.28838E-03-1.32700E-03
 -1      4272-1.05468E-02 3.27524E-02 7.03680E-05
 -1      4273-1.26400E-01 1.28267E+00 7.26256E-05
 -1      4274-1.36983E-01 1.39940E+00 7.16738E-05
 -1      4275-1.47148E-02 6.03962E-02 7.01982E-05
 -1      4276-2.79084E-01 1.64802E+00-1.15902E-03
 -1      4277-2.82152E-01 1.68057E+00-1.24389E-03
 -1      4278-2.63086E-01 1.66553E+00-7.86288E-04
 -1      4279-2.39145E-01 1.66661E+00-1.03071E-03
 -1      4280-2.50237E-01 1.51223E+00 7.74429E-04
 -1      4281-2.49585E-01 1.55214E+00 8.11453E-04
 -1      4282-6.96888E-02 6.45109E-01 7.03906E-05
 -1      4283-6.23996E-02 1.71640E+00-8.86140E-04
 -1      4284-6.20320E-02 1.71249E+00-6.09083E-04
 -1      4285-7.81355E-02 7.41281E-01 7.11193E-05
 -1      4286-7.07726E-03 1.17361E-02 1.16418E-05
 -1      4287-5.94580E-02 1.69130E+00 1.09590E-03
 -1      4288-6.73085E-02 1.65781E+00 1.06555E-03
 -1      4289-7.50012E-02 1.67424E+00 6.86342E-04
 -1      4290-9.91281E-02 1.67309E+00 9.41881E-04
 -1      4291 1.36925E-03 1.93082E-04-5.88771E-04
 -1      4292 1.87710E-03 1.03060E-03-5.92294E-04
 -1      4293 1.21155E-03 7.92868E-04-2.47707E-04
 -1      4294 3.87934E-04 4.56428E-04-7.49799E-05
 -1      4295-8.66125E-02 1.71544E+00-1.14970E-03
 -1      4296-4.90967E-03 1.75667E-03 2.24435E-03
 -1      4297-7.54138E-03 2.76791E-03 2.67441E-03
 -1      4298-5.31538E-03 2.26353E-03 1.36282E-03
 -1      4299-4.54342E-03 1.46017E-03 1.68034E-03
 -1      4300-2.68087E-01 1.64872E+00 1.25729E-03
 -1      4301-2.82169E-01 1.68078E+00 1.22801E-03
 -1      4302-2.40854E-01 1.66744E+00 1.03288E-03
 -1      4303-2.64818E-01 1.66656E+00 7.83956E-04
 -1      4304-2.26840E-01 1.63539E+00 1.04689E-03
 -1      4305 7.00212E-04 1.68892E-04-1.71111E-04
 -1      4306 2.15623E-04 2.23214E-05-3.00468E-05
 -1      4307-2.32409E-01 1.70452E+00-1.17194E-03
 -1      4308-2.40649E-01 1.69216E+00-7.48900E-04
 -1      4309 1.36228E-03 1.90697E-04 5.85951E-04
 -1      4310 1.87142E-03 1.02517E-03 5.89647E-04
 -1      4311 1.21573E-03 8.06323E-04 2.43179E-04
 -1      4312 3.90469E-04 4.74532E-04 7.55689E-05
 -1      4313-1.57223E-01 9.35303E-01-1.48871E-03
 -1      4314-1.87997E-01 9.34508E-01-1.12554E-03
 -1      4315 5.85323E-04 4.56394E-05-2.43909E-04
 -1      4316 6.67647E-04 1.54193E-04 1.62696E-04
 -1      4317 2.15053E-04 2.83016E-05 3.51214E-05
 -1      4318-2.83678E-01 1.70614E+00-9.44342E-04
 -1      4319-2.83326E-01 1.70223E+00-6.58058E-04
 -1      4320-2.59668E-01 1.70722E+00-1.18272E-03
 -1      4321-1.54168E-03 1.08387E-04-9.45241E-04
 -1      4322-1.69501E-05-3.34773E-04 4.56430E-05
 -1      4323 3.24932E-04-2.35415E-04-1.55772E-04
 -1      4324-6.44024E-02 1.71653E+00 6.29855E-04
 -1      4325-1.82366E-03 3.75079E-04-1.07217E-03
 -1      4326-2.51443E-03 7.32694E-04-7.74331E-04
 -1      4327 5.79305E-04 4.44432E-05 2.40506E-04
 -1      4328-1.60740E-05-3.34771E-04-4.53595E-05
 -1      4329 3.25219E-04-2.35457E-04 1.55493E-04
 -1      4330-2.77635E-02 1.10488E+00-4.35979E-04
 -1      4331-6.13695E-02 1.12204E+00-6.54576E-04
 -1      4332-2.90773E-02 1.12375E+00-2.92044E-04
 -1      4333-1.76159E-01 1.11716E+00 1.36075E-03
 -1      4334-2.08517E-01 1.11611E+00 9.98047E-04
 -1      4335-2.06390E-01 1.09732E+00 1.57871E-03
 -1      4336-4.38683E-02 8.87935E-01 5.11562E-04
 -1      4337-1.37273E-02 8.89562E-01 1.47959E-04
 -1      4338-1.47857E-02 9.06902E-01 2.49353E-04
 -1      4339-1.72535E-01 8.12385E-01-1.84973E-03
 -1      4340-1.74695E-01 8.29620E-01-1.17486E-03
 -1      4341-1.45082E-01 8.30253E-01-1.53900E-03
 -1      4342-5.84051E-02 1.77734E-01 1.94720E-03
 -1      4343-7.57703E-02 1.87040E-01 2.45464E-03
 -1      4344-7.38399E-02 1.78509E-01 1.57806E-03
 -1      4345-1.30323E-01 5.00858E-01-2.14511E-03
 -1      4346-1.32448E-01 5.15344E-01-1.36541E-03
 -1      4347-1.07678E-01 5.15386E-01-1.73138E-03
 -1      4348 1.16311E-02 2.15009E-01-3.95436E-04
 -1      4349 1.15830E-02 2.25291E-01-2.46867E-04
 -1      4350-5.49758E-03 2.24293E-01 1.21983E-04
 -1      4351-1.99079E-02 5.17844E-01 2.96314E-04
 -1      4352 5.29958E-03 5.04588E-01-1.21217E-04
 -1      4353 4.75395E-03 5.19200E-01-6.94734E-05
 -1      4354-3.67871E-03 1.77946E-01-9.26508E-05
 -1      4355 1.16185E-02 1.87505E-01 4.19122E-04
 -1      4356 1.15650E-02 1.78871E-01 2.73158E-04
 -1      4357-6.24221E-02 1.71661E+00 8.73153E-04
 -1      4358-1.02106E-01 1.69837E+00 7.07327E-04
 -1      4359-6.65410E-02 2.23607E-01-1.92638E-03
 -1      4360-8.14531E-02 2.14153E-01-2.42980E-03
 -1      4361-8.34665E-02 2.24319E-01-1.55076E-03
 -1      4362-1.37867E-02 4.08427E-01-2.32829E-04
 -1      4363 8.39597E-03 4.09500E-01 1.30921E-04
 -1      4364 8.76287E-03 3.96356E-01 2.18169E-04
 -1      4365-5.32022E-02 1.41876E+00 7.02189E-04
 -1      4366-5.23534E-02 9.33811E-02-1.63868E-03
 -1      4367-4.12701E-02 9.23095E-02-2.01895E-03
 -1      4368-5.04228E-02 8.65751E-02-2.56393E-03
 -1      4369-7.58535E-03 7.56818E-01 1.25361E-04
 -1      4370-4.15224E-02 1.27118E+00 5.75152E-04
 -1      4371 1.64658E-03 6.37506E-01-2.28681E-05
 -1      4372 8.37251E-03 6.41390E-02-5.04446E-04
 -1      4373-2.44506E-03 1.23230E-03 6.38055E-04
 -1      4374-2.11318E-03 9.65610E-04 8.92287E-04
 -1      4375-2.50898E-03 7.23396E-04 7.82922E-04
 -1      4376-2.32612E-01 1.70451E+00 1.16269E-03
 -1      4377-2.59871E-01 1.70722E+00 1.17170E-03
 -1      4378-2.42563E-01 1.69298E+00 7.51581E-04
 -1      4379-1.54472E-03 8.48938E-05 9.67357E-04
 -1      4380-1.13780E-01 3.93527E-01 2.24596E-03
 -1      4381-9.36392E-02 4.06346E-01 1.80042E-03
 -1      4382-1.15861E-01 4.06596E-01 1.44137E-03
 -1      4383-2.05479E-03 1.01368E-03-5.92270E-04
 -1      4384-2.05843E-03 8.98415E-04-8.77141E-04
 -1      4385 6.10401E-03 2.90844E-02-5.35840E-04
 -1      4386-1.10458E-01 1.71431E+00 1.13435E-03
 -1      4387-1.82491E-03 3.88806E-04 1.06517E-03
 -1      4388-1.92240E-01 9.70170E-01-1.10394E-03
 -1      4389-1.61114E-01 9.71019E-01-1.46697E-03
 -1      4390-1.90085E-01 9.52079E-01-1.73401E-03
 -1      4391-8.66123E-02 1.71544E+00 1.14037E-03
 -1      4392-1.69591E-01 1.53086E+00 1.39080E-04
 -1      4393-2.83914E-01 1.70635E+00 6.60243E-04
 -1      4394-2.83896E-01 1.70634E+00 9.32262E-04
 -1      4395-1.80364E-01 1.53558E+00 1.10244E-03
 -1      4396-2.64963E-01 1.61581E+00 1.16787E-03
 -1      4397-2.18829E-01 1.59572E+00 1.13362E-03
 -1      4398-2.16202E-01 1.51425E+00 1.12807E-03
 -1      4399-2.15473E-01 1.55420E+00 1.15813E-03
 -1      4400-2.48292E-01 1.49278E+00 1.21744E-03
 -1      4401-2.51531E-01 1.57238E+00 1.20282E-03
 -1      4402-2.57448E-01 1.53246E+00 1.26288E-03
 -1      4403-2.36414E-01 1.43791E+00-2.90211E-04
 -3
    1PSTEP                         5           1           2          
  100CL  102 0.00000E+00        4403                     4    2           1
 -4  STRESS      6    1
 -5  SXX         1    4    1    1
 -5  SYY         1    4    2    2
 -5  SZZ         1    4    3    3
 -5  SXY         1    4    1    2
 -5  SYZ         1    4    2    3
 -5  SZX         1    4    3    1
 -1         1 2.49944E+02 7.41164E+01 8.15350E+01-1.16754E+01-1.07697E+01-5.43290E+01
 -1         2 2.49888E+02 7.40892E+01 8.15617E+01-1.16740E+01 1.07698E+01 5.43699E+01
 -1         3-8.43166E+02-2.64390E+02-2.71599E+02 1.02345E+02-3.02111E+01 1.69312E+02
 -1         4-8.43453E+02-2.64680E+02-2.71798E+02 1.00318E+02 2.91689E+01-1.69400E+02
 -1         5-1.94927E+02-5.98296E+00 2.32831E-01 4.19535E+00 6.96906E-01 6.49611E-01
 -1         6-1.94427E+02-5.57600E+00 4.06167E-01 4.39350E+00-8.39527E-01-5.28893E-01
 -1         7-2.02802E+02 5.91945E+00-3.67407E-01 4.21800E+00 7.54456E-01-6.31764E-01
 -1         8-2.03164E+02 5.55748E+00-4.24712E-01 4.39270E+00-8.71569E-01 5.20925E-01
 -1         9 2.33150E+02 9.74354E+01 9.69275E+01 3.00390E+01-1.89111E+00 2.35671E+01
 -1        10 2.50986E+02 1.04594E+02 1.04659E+02 3.27886E+01 1.83403E+00 1.46985E+00
 -1        11 2.33169E+02 9.72865E+01 9.68868E+01 2.97671E+01 2.03564E+00-2.39088E+01
 -1        12 2.23790E+02 9.58431E+01 9.58796E+01 1.83240E+01 5.95703E-03 3.98284E+01
 -1        13 2.45326E+02 1.05066E+02 1.05114E+02 2.88703E+01 8.81208E-04 1.18479E+01
 -1        14 2.48940E+02 1.06607E+02 1.06659E+02 3.19332E+01-5.32459E-03-1.14469E+01
 -1        15 2.23863E+02 9.58737E+01 9.59104E+01 1.81355E+01-5.96758E-03-4.00115E+01
 -1        16 1.81475E+01 6.70501E+00 3.35899E+00-7.36199E+01 4.25031E+00-3.12931E-01
 -1        17-2.63732E+02-1.09640E+02-1.15492E+02-7.05073E+01 2.15138E+00 7.76100E+01
 -1        18-5.64538E+02-2.36066E+02-2.44580E+02-2.75075E+01 8.24001E-01 1.54659E+02
 -1        19 1.71748E+02 7.35499E+01 7.35714E+01-5.36553E+01 8.91846E-03-3.94737E+01
 -1        20-1.25870E+02-5.39942E+01-5.39643E+01-7.35839E+01-3.17462E-03 3.77892E+01
 -1        21-4.23872E+02-1.81736E+02-1.81711E+02-5.18729E+01-2.20382E-02 1.16076E+02
 -1        22-7.41948E+02-3.18078E+02-3.18079E+02 1.70187E+01-2.99388E-02 1.87597E+02
 -1        23-7.53878E+02-3.18595E+02-3.17632E+02 1.73211E+02 2.98604E+00-7.05619E+01
 -1        24-7.54048E+02-3.17444E+02-3.17290E+02 1.74614E+02 3.92004E+00-4.42789E+00
 -1        25-7.48933E+02-3.13849E+02-3.16044E+02 1.75843E+02 6.37539E+00 6.35928E+01
 -1        26-7.81699E+02-3.35175E+02-3.35083E+02 1.59330E+02-5.92148E-04-1.10342E+02
 -1        27-7.69083E+02-3.29791E+02-3.29673E+02 1.75813E+02 1.02443E-02-3.35350E+01
 -1        28-7.62395E+02-3.26919E+02-3.26809E+02 1.76136E+02 1.12760E-02 3.35220E+01
 -1        29-7.97369E+02-3.41900E+02-3.41805E+02 1.69716E+02 9.60055E-03 1.10844E+02
 -1        30 1.82606E+01 6.72366E+00 3.40397E+00-7.36366E+01-4.24855E+00 3.30166E-01
 -1        31-2.63169E+02-1.09562E+02-1.15271E+02-7.06946E+01-2.00621E+00-7.71422E+01
 -1        32-5.60250E+02-2.34256E+02-2.42926E+02-2.84738E+01-1.67892E+00-1.56117E+02
 -1        33 1.71809E+02 7.35759E+01 7.35973E+01-5.36937E+01-8.89197E-03 3.94656E+01
 -1        34-1.26423E+02-5.42316E+01-5.42015E+01-7.37023E+01 3.19671E-03-3.77909E+01
 -1        35-4.18607E+02-1.79478E+02-1.79453E+02-5.23583E+01 2.12050E-02-1.15506E+02
 -1        36-7.38789E+02-3.16722E+02-3.16722E+02 1.64162E+01 2.88060E-02-1.88374E+02
 -1        37-1.93538E+02-6.35806E+00-1.13028E+00 5.21990E+00-1.83660E-01-5.73306E-01
 -1        38-1.93762E+02-6.49419E+00-2.48203E+00 5.03487E+00 5.92755E-02 3.41818E-02
 -1        39-1.93668E+02-6.38090E+00-1.13002E+00 4.74335E+00 2.83168E-01 5.63705E-01
 -1        40-1.94219E+02-5.84953E+00 6.05828E-02 4.92904E+00-5.85650E-01-6.94663E-01
 -1        41-1.93928E+02-6.73231E+00-2.18055E+00 5.10721E+00-2.36082E-01-1.35978E-01
 -1        42-1.93922E+02-6.34686E+00-2.19986E+00 4.84020E+00 1.74698E-01 3.44263E-01
 -1        43-1.94233E+02-5.90724E+00-2.34538E-01 4.89957E+00 7.06383E-01 5.76575E-01
 -1        44-1.99292E+02-1.28077E+01-9.17471E-02 1.32349E+01-6.12103E-01-4.45988E-02
 -1        45-1.98823E+02 1.56233E-01-4.68708E-02 1.37650E+01-1.51025E+00 1.36136E-02
 -1        46-1.98384E+02 1.25853E+01 1.92313E-01 1.32578E+01-9.05779E-01-1.88368E-02
 -1        47-1.98223E+02-1.21644E+01-4.04616E-01 9.24653E+00-3.59586E-01 3.44322E-01
 -1        48-1.99108E+02-6.71511E+00-4.71700E-02 1.34956E+01-1.31363E+00 2.81137E-01
 -1        49-1.98753E+02 6.96021E+00 1.75065E-01 1.36634E+01-1.39943E+00 3.95379E-02
 -1        50-1.99717E+02 1.17702E+01 3.53150E-01 9.46914E+00-2.98013E-01-8.21637E-01
 -1        51-2.03990E+02 6.44925E+00 1.16533E+00 5.26144E+00-1.91892E-01 5.97554E-01
 -1        52-2.03953E+02 6.35946E+00 2.44416E+00 4.95625E+00 9.49593E-03-3.80574E-02
 -1        53-2.03944E+02 6.23396E+00 1.11841E+00 4.63975E+00 2.75991E-01-5.62520E-01
 -1        54-2.03332E+02 5.87174E+00-3.65480E-02 4.95774E+00-5.96649E-01 7.30775E-01
 -1        55-2.03632E+02 6.87802E+00 2.20764E+00 5.13985E+00-2.79480E-01 1.09955E-01
 -1        56-2.03799E+02 5.98819E+00 2.11858E+00 4.67136E+00 1.92783E-01-3.30955E-01
 -1        57-2.03341E+02 5.90116E+00 2.13072E-01 4.90142E+00 6.85101E-01-5.65585E-01
 -1        58-1.99275E+02-1.26720E+01-1.25329E-01 1.32124E+01 7.81891E-01 5.53794E-03
 -1        59-1.98896E+02 1.49486E-01-7.37744E-02 1.38181E+01 1.49843E+00-1.01201E-01
 -1        60-1.98374E+02 1.25704E+01 1.72656E-01 1.32653E+01 8.43572E-01-4.96756E-03
 -1        61-1.98019E+02-1.18631E+01-4.33046E-01 9.55339E+00 2.68622E-01-7.01725E-01
 -1        62-1.99040E+02-6.93778E+00-1.61589E-01 1.35498E+01 1.34739E+00-7.39824E-03
 -1        63-1.98697E+02 6.97675E+00 2.37172E-01 1.36947E+01 1.34220E+00-8.31973E-02
 -1        64-1.99618E+02 1.18705E+01 4.43178E-01 9.53257E+00 2.84497E-01 6.98516E-01
 -1        65 2.47255E+02-4.36505E+00-4.34768E+00-9.77594E+00-1.63279E+00 2.67926E+00
 -1        66 2.58590E+02-8.22220E-02-8.50107E-01-4.28218E-01 3.43499E-01 6.25476E-01
 -1        67 2.53304E+02-1.54571E-01-2.97600E-01 2.41913E-01 1.62715E-01-1.37861E-01
 -1        68 2.48394E+02-1.15539E-01 1.16082E-01 4.39220E-01-5.04082E-02-1.83569E-01
 -1        69 2.43322E+02-2.34137E-02-2.07649E-03 3.78326E-01-2.57918E-02-2.35667E-01
 -1        70 2.37262E+02 3.62502E-03 8.39208E-02 7.32419E-01-2.25958E-02-2.99129E-01
 -1        71 2.30414E+02-6.63856E-02 2.11149E-03 4.88269E-01 3.57378E-02-3.63518E-01
 -1        72 2.22660E+02-2.48728E-02-5.30189E-02 5.84890E-01 6.60501E-03-4.00425E-01
 -1        73 2.13638E+02-1.64090E-03 1.61454E-01 9.40720E-01-1.20647E-01-4.04707E-01
 -1        74 2.03791E+02 7.21185E-03 1.25347E-01 9.50022E-01-3.64940E-02-3.76726E-01
 -1        75 1.93638E+02-5.77436E-02-4.27644E-02 7.22228E-01-1.09340E-02-4.71400E-01
 -1        76 1.82275E+02-5.25214E-02-9.85039E-02 7.70275E-01 1.45100E-02-5.73217E-01
 -1        77 1.70047E+02-3.47648E-03 1.67281E-01 1.27256E+00-1.27308E-01-5.59475E-01
 -1        78 1.57151E+02 4.66244E-02 7.46142E-02 8.58877E-01 5.47290E-04-5.31287E-01
 -1        79 1.43960E+02-4.08742E-02-1.64421E-02 1.29445E+00-3.34363E-02-5.68981E-01
 -1        80 1.29459E+02 1.07993E-02 1.13267E-02 1.55026E+00 6.72685E-02-6.57783E-01
 -1        81 1.14783E+02-9.05509E-02-4.71318E-03 1.00213E+00 7.89587E-02-7.19428E-01
 -1        82 9.96295E+01-9.05069E-03-9.70051E-02 1.06990E+00 2.14609E-02-7.26405E-01
 -1        83 8.33470E+01-1.48759E-02 1.63294E-01 1.71972E+00-1.30007E-01-7.05194E-01
 -1        84 6.69746E+01 5.78107E-02 5.85638E-02 1.12073E+00-8.63883E-02-6.91642E-01
 -1        85 5.02017E+01-9.36237E-03-1.26183E-01 1.83527E+00 9.37490E-02-7.49749E-01
 -1        86 3.25022E+01 4.11270E-02 1.34457E-01 1.15475E+00-1.87851E-02-8.30260E-01
 -1        87 1.45845E+01 1.22697E-02 8.20995E-02 1.62046E+00-6.46094E-03-7.65305E-01
 -1        88-3.18269E+00-1.94575E-02-1.43190E-02 1.66418E+00 1.37795E-03-7.66815E-01
 -1        89-2.20182E+01-4.09178E-02-2.78993E-02 1.24881E+00 8.81828E-02-8.40832E-01
 -1        90-4.06196E+01 2.54341E-02-3.67405E-02 1.80272E+00 2.68957E-03-7.63712E-01
 -1        91-5.98314E+01 1.88324E-02-7.78052E-02 1.92536E+00 2.39371E-02-8.36567E-01
 -1        92-7.94535E+01-7.97508E-03 1.29535E-01 1.89756E+00-2.38172E-02-8.31834E-01
 -1        93-9.90016E+01-1.53727E-02-2.16225E-02 1.33726E+00 9.75969E-02-8.37193E-01
 -1        94-1.18655E+02 4.43712E-02-1.18678E-01 2.11463E+00 9.04778E-02-8.54869E-01
 -1        95-1.38595E+02-1.20853E-01-2.33323E-02 1.31521E+00 1.08490E-01-9.49050E-01
 -1        96-1.58241E+02-3.27994E-02-1.31503E-01 1.18939E+00 4.42463E-02-7.55529E-01
 -1        97-1.76385E+02 6.56132E-01-5.73821E-02-1.61716E-01 1.38635E-01-3.03308E-01
 -1        98 2.36599E+02 4.52139E+00 5.39606E+00-1.46509E+01 1.83412E+00 2.09767E+01
 -1        99 2.58814E+02 5.99326E-01 7.92744E-01-2.63144E+00 1.83767E+00 3.09683E+00
 -1       100 2.56198E+02-3.92129E-01-3.15242E-01-1.74134E-01-1.05617E-01 6.09729E-02
 -1       101 2.50630E+02-3.00584E-01-1.15203E-01 4.00570E-01-3.55147E-02-2.23528E-01
 -1       102 2.46120E+02-6.13813E-02 6.33290E-02 4.13074E-01-9.30345E-02-2.48225E-01
 -1       103 2.40224E+02-9.19211E-02-3.86395E-02 5.80051E-01-2.15605E-02-3.21608E-01
 -1       104 2.34134E+02-3.07654E-02 7.79907E-02 6.34348E-01-7.72567E-02-3.43452E-01
 -1       105 2.26613E+02-4.61069E-02-6.61238E-03 6.28102E-01 1.97559E-02-4.30375E-01
 -1       106 2.18077E+02-1.33018E-01-1.59994E-02 8.30465E-01-3.23168E-02-4.42835E-01
 -1       107 2.09057E+02 1.52061E-02 1.30767E-01 9.84771E-01-1.01594E-01-4.77850E-01
 -1       108 1.98979E+02 2.18333E-02 8.07645E-02 8.93594E-01-9.03119E-02-5.20400E-01
 -1       109 1.87845E+02-1.95410E-01-1.56293E-01 8.85850E-01-1.54702E-02-5.42542E-01
 -1       110 1.75990E+02-1.66663E-01-4.34539E-02 1.11391E+00-2.06412E-02-5.96165E-01
 -1       111 1.64192E+02 2.47850E-01 3.08244E-01 1.10919E+00-6.90767E-02-6.23678E-01
 -1       112 1.50460E+02-3.51216E-02-2.28498E-02 1.15759E+00 1.56016E-02-6.82219E-01
 -1       113 1.36553E+02-6.41411E-02-6.84770E-02 1.46836E+00 1.30253E-02-7.19802E-01
 -1       114 1.22511E+02 9.20560E-03 7.06255E-02 1.35683E+00-6.88771E-02-7.45139E-01
 -1       115 1.07207E+02-3.49931E-02-2.79924E-02 1.19618E+00 8.96518E-02-8.22170E-01
 -1       116 9.11634E+01-1.83409E-01-8.18725E-02 1.47882E+00 2.02157E-02-7.80250E-01
 -1       117 7.57247E+01 1.15521E-01 1.60479E-01 1.43475E+00-1.93795E-01-8.52910E-01
 -1       118 5.80625E+01-7.38129E-02-1.55760E-01 1.54558E+00 8.27036E-02-8.60981E-01
 -1       119 4.18226E+01 2.12016E-01 1.49130E-01 1.58222E+00-3.31907E-02-8.24154E-01
 -1       120 2.36756E+01 2.07399E-02 1.03955E-01 1.60500E+00 5.92386E-03-8.81053E-01
 -1       121 5.75009E+00 8.13533E-03 2.75039E-02 1.68731E+00-1.73780E-04-9.59942E-01
 -1       122-1.23407E+01 1.58951E-01 1.33830E-01 1.58774E+00-1.55109E-02-8.55189E-01
 -1       123-3.15685E+01-9.06738E-02-8.33300E-02 1.59172E+00 1.73476E-01-9.94975E-01
 -1       124-5.04400E+01-3.03926E-02-9.56824E-02 1.90681E+00 3.74658E-03-9.78772E-01
 -1       125-6.96141E+01 8.40381E-03 7.27724E-03 2.04341E+00-1.08975E-02-1.01234E+00
 -1       126-8.85775E+01 2.46897E-01 3.16818E-01 1.71501E+00-4.25162E-02-9.77438E-01
 -1       127-1.09321E+02-1.04330E-01-1.52873E-01 1.75485E+00 2.36964E-01-1.05570E+00
 -1       128-1.28206E+02 7.70954E-02 3.96689E-02 1.81897E+00-7.73570E-02-9.76210E-01
 -1       129-1.48490E+02-1.21929E-02-6.59512E-02 1.41035E+00 1.20771E-01-1.00102E+00
 -1       130-1.67975E+02-1.58966E-01-2.55795E-01 9.40261E-01-9.57712E-02-5.57348E-01
 -1       131-1.84766E+02-1.44108E+00 2.49694E-01 1.20379E+00-4.06552E-01-2.43504E-02
 -1       132 2.47217E+02-4.39962E+00-4.32412E+00-9.81392E+00 1.58152E+00-2.69761E+00
 -1       133 2.58582E+02-8.75615E-02-8.96908E-01-4.50770E-01-3.76374E-01-5.98874E-01
 -1       134 2.53335E+02-4.34409E-01-7.18508E-02 2.33092E-01-2.32253E-01 1.33722E-01
 -1       135 2.48330E+02-1.26490E-01 7.86986E-02 4.61179E-01-1.66213E-02 2.40049E-01
 -1       136 2.43293E+02-5.74310E-02-1.12948E-02 3.57538E-01-3.87589E-02 2.50388E-01
 -1       137 2.37304E+02 1.01473E-03 8.43820E-02 6.55890E-01 4.20474E-02 2.79029E-01
 -1       138 2.30440E+02-3.82389E-02 2.41283E-03 4.95734E-01-1.94200E-02 3.33388E-01
 -1       139 2.22480E+02-2.95629E-02 3.26844E-02 9.45779E-01-1.07502E-02 3.75304E-01
 -1       140 2.13633E+02 1.59603E-02 9.12864E-02 5.69227E-01 1.17730E-02 4.19514E-01
 -1       141 2.04066E+02-3.11406E-02-6.46400E-03 6.64886E-01-4.90568E-02 4.34301E-01
 -1       142 1.93567E+02 6.31971E-03 2.14992E-02 1.05780E+00 2.58446E-02 4.38750E-01
 -1       143 1.82129E+02-1.79577E-02 9.83647E-04 1.26687E+00-5.05706E-02 5.30027E-01
 -1       144 1.70001E+02 1.92044E-02 9.34068E-02 8.09059E-01 1.39780E-02 5.79785E-01
 -1       145 1.57130E+02 1.14517E-02 7.83111E-02 1.18038E+00 2.44744E-02 5.35534E-01
 -1       146 1.44005E+02-2.26730E-02-1.23452E-02 1.24896E+00 5.60719E-03 5.84229E-01
 -1       147 1.29359E+02 6.77882E-02 8.65832E-02 9.50003E-01 1.83084E-02 6.34315E-01
 -1       148 1.15008E+02-1.11823E-02-9.57788E-03 1.44666E+00 5.50417E-03 5.94322E-01
 -1       149 9.94686E+01 4.70620E-02-4.57258E-02 1.53525E+00 4.53952E-03 6.53344E-01
 -1       150 8.32547E+01 3.71131E-02 9.64790E-02 1.51485E+00 3.80083E-02 6.89699E-01
 -1       151 6.72178E+01-8.71698E-02-1.21699E-01 1.05974E+00-2.54126E-02 7.12542E-01
 -1       152 5.01199E+01 7.30389E-02-1.28683E-02 1.78780E+00 5.75216E-02 7.63524E-01
 -1       153 3.24886E+01-2.82516E-02 1.14147E-01 1.71390E+00 2.74817E-02 7.46453E-01
 -1       154 1.45390E+01 5.80112E-02 1.03779E-01 1.66808E+00 1.90229E-02 7.34142E-01
 -1       155-3.11511E+00-8.96493E-02-1.04796E-01 1.22672E+00 8.49215E-03 7.56909E-01
 -1       156-2.19851E+01 3.69984E-02-8.99736E-02 1.96422E+00-1.05688E-01 8.65612E-01
 -1       157-4.10675E+01 5.20971E-02 1.50409E-01 1.19509E+00 3.31882E-02 8.17073E-01
 -1       158-5.96481E+01-8.53998E-02-1.30583E-01 1.25402E+00-5.06898E-02 8.41849E-01
 -1       159-7.95184E+01-5.55179E-03 1.16388E-01 2.02179E+00 1.37588E-02 8.21258E-01
 -1       160-9.89620E+01-4.59967E-02 1.53575E-02 1.29311E+00-9.51832E-02 8.52504E-01
 -1       161-1.18486E+02-2.20263E-02-8.14311E-02 2.00993E+00-3.92615E-02 8.04511E-01
 -1       162-1.38848E+02 3.06283E-02 9.10141E-02 1.33140E+00 3.12307E-02 8.72991E-01
 -1       163-1.58407E+02 4.40941E-02 1.17312E-02 1.13440E+00 8.28705E-02 7.47621E-01
 -1       164-1.76292E+02 6.42164E-01-4.33009E-02-1.78651E-01-1.31128E-01 3.49482E-01
 -1       165 2.36547E+02 4.50370E+00 5.29833E+00-1.46752E+01-1.89675E+00-2.07995E+01
 -1       166 2.58757E+02 5.11766E-01 6.82262E-01-2.63989E+00-1.87235E+00-3.08194E+00
 -1       167 2.56248E+02-4.23638E-01-3.33184E-01-5.37323E-02 6.80869E-02-1.58515E-02
 -1       168 2.50681E+02-3.17242E-01-4.15860E-02 3.93998E-01-3.62742E-02 1.89876E-01
 -1       169 2.46031E+02-3.44998E-02 1.02227E-01 4.34567E-01 3.62996E-02 2.51239E-01
 -1       170 2.40368E+02-5.85892E-02 2.80408E-03 5.55435E-01-2.59541E-02 3.33130E-01
 -1       171 2.34163E+02 3.02810E-02 1.22933E-01 5.99251E-01 7.88963E-02 3.29668E-01
 -1       172 2.26405E+02-8.65693E-02-2.88716E-02 7.57942E-01-6.55249E-02 4.50967E-01
 -1       173 2.18431E+02 8.99216E-02 1.17397E-01 7.75858E-01 5.85215E-02 4.07945E-01
 -1       174 2.09063E+02 5.18017E-02 1.15436E-01 7.24264E-01 1.94848E-02 4.50535E-01
 -1       175 1.98788E+02-7.97959E-02-2.27111E-02 9.05653E-01-7.13353E-02 5.56108E-01
 -1       176 1.87776E+02-5.41398E-02-3.33800E-02 1.18118E+00 1.27677E-02 5.97425E-01
 -1       177 1.76483E+02 1.27771E-01 1.28321E-01 1.07985E+00 4.31319E-02 5.88307E-01
 -1       178 1.63690E+02-2.25452E-03 8.86952E-02 1.14388E+00 8.78817E-03 6.28633E-01
 -1       179 1.50646E+02 1.56854E-03 2.13820E-02 1.23305E+00 3.28585E-02 7.10038E-01
 -1       180 1.36994E+02 2.10961E-01 1.93006E-01 1.19952E+00 1.78115E-02 6.44679E-01
 -1       181 1.22045E+02-5.08574E-02-3.57085E-02 1.28099E+00-4.37281E-02 7.56450E-01
 -1       182 1.07142E+02-1.84179E-02-5.89293E-02 1.54839E+00 1.94303E-02 7.79998E-01
 -1       183 9.15547E+01 3.71934E-02 5.33927E-02 1.60160E+00 4.59614E-02 7.87888E-01
 -1       184 7.54272E+01-3.20933E-02 4.61956E-02 1.41405E+00 6.51555E-02 8.40810E-01
 -1       185 5.82398E+01-2.44185E-01-2.76351E-01 1.48674E+00-1.89499E-02 8.42356E-01
 -1       186 4.14795E+01 3.23243E-02 6.16919E-02 1.83282E+00 7.75784E-02 9.16834E-01
 -1       187 2.38249E+01 5.71814E-02 1.37397E-01 1.77281E+00 4.75331E-02 9.03766E-01
 -1       188 6.03496E+00 4.67367E-02 8.36930E-02 1.54473E+00 8.87394E-02 9.06130E-01
 -1       189-1.31978E+01-3.76532E-01-3.84655E-01 1.68054E+00-5.97455E-02 9.26511E-01
 -1       190-3.09911E+01 2.20308E-01 1.44546E-01 1.67119E+00 4.33379E-02 9.02025E-01
 -1       191-5.02740E+01 1.19223E-02 1.08309E-02 1.45320E+00 2.53359E-02 9.09189E-01
 -1       192-7.00133E+01-2.92905E-01-2.24079E-01 1.73740E+00-8.83492E-02 9.36157E-01
 -1       193-8.86267E+01 1.71061E-01 3.02382E-01 1.71705E+00 7.31236E-02 9.66490E-01
 -1       194-1.09045E+02-5.27407E-02-1.01796E-01 1.71665E+00-2.19800E-01 1.06996E+00
 -1       195-1.28224E+02 2.92833E-01 2.40664E-01 1.75405E+00 8.25225E-02 9.49376E-01
 -1       196-1.48602E+02 1.76235E-02 2.30990E-02 1.39146E+00 1.23061E-01 9.01863E-01
 -1       197-1.67945E+02-5.04355E-02-1.18072E-01 9.41549E-01 1.05547E-01 5.54057E-01
 -1       198-1.84603E+02-1.31437E+00 3.85468E-01 1.14535E+00 2.96341E-01 4.08763E-02
 -1       199-5.68467E+02 1.77443E+01 1.85754E+01-2.20179E+01-3.67392E+00 7.61236E+00
 -1       200-6.29500E+02 6.79062E-01 1.69668E+00-2.05942E+00-5.43135E-01 9.47436E-01
 -1       201-6.44444E+02-2.72965E-01-2.21627E-01-4.45189E-01 4.64215E-02 8.83628E-01
 -1       202-6.46326E+02-1.42280E-01-6.54433E-02 2.26865E-01-6.15769E-03 1.82407E-01
 -1       203-6.42246E+02-9.10473E-02-2.85013E-02 3.29262E-01 8.22380E-03 1.97216E-01
 -1       204-6.36378E+02-7.91804E-02-7.77644E-03 4.23309E-01-1.60408E-02 2.76724E-01
 -1       205-6.29364E+02-1.20113E-01 7.10592E-02 6.94811E-01 1.93527E-02 2.93199E-01
 -1       206-6.21235E+02-1.07585E-01 9.57453E-02 8.63724E-01 8.72500E-02 3.51051E-01
 -1       207-6.12442E+02-4.21647E-03 1.31481E-02 5.98223E-01 8.40212E-02 4.59335E-01
 -1       208-6.02736E+02-5.42231E-02-5.75624E-04 6.71668E-01 4.79968E-02 4.42574E-01
 -1       209-5.92179E+02-1.15304E-01 8.13893E-02 1.02210E+00 3.41524E-03 4.28586E-01
 -1       210-5.80694E+02-7.66848E-02 1.20283E-01 1.19610E+00 1.08692E-01 5.10942E-01
 -1       211-5.68422E+02-4.82729E-02-7.05284E-02 7.98741E-01-6.92237E-03 5.44279E-01
 -1       212-5.55775E+02-8.88290E-02 9.54034E-03 8.16728E-01-6.25999E-02 5.85953E-01
 -1       213-5.41922E+02-9.79038E-02-1.13612E-01 8.07367E-01-2.43907E-02 6.13052E-01
 -1       214-5.27866E+02 1.01102E-02 2.62441E-02 9.27446E-01 8.56219E-02 6.12745E-01
 -1       215-5.13135E+02-7.59501E-02 5.85210E-02 1.43488E+00 9.20024E-03 5.91913E-01
 -1       216-4.97537E+02-7.28248E-02 8.87773E-02 1.54994E+00 3.99561E-02 6.52689E-01
 -1       217-4.81532E+02 5.04765E-02 4.38864E-02 1.07466E+00 1.01463E-01 7.74582E-01
 -1       218-4.65077E+02 2.18422E-02 9.39218E-02 1.08098E+00 1.09584E-01 6.62920E-01
 -1       219-4.48024E+02-1.08967E-01-9.54949E-02 1.13113E+00-1.04710E-01 7.12442E-01
 -1       220-4.30720E+02-4.27111E-02 4.14197E-02 1.63125E+00 2.77407E-02 7.26256E-01
 -1       221-4.12846E+02-3.82115E-02 9.14979E-02 1.72598E+00 7.61874E-03 7.71225E-01
 -1       222-3.94580E+02-4.34244E-02 4.96844E-02 1.70676E+00 1.43956E-02 7.58297E-01
 -1       223-3.75722E+02-3.35680E-02 6.73591E-02 1.96154E+00 1.25103E-01 8.45938E-01
 -1       224-3.56907E+02 1.03329E-01 1.31432E-02 1.25462E+00 1.01718E-01 8.86590E-01
 -1       225-3.37981E+02 3.07857E-02 1.42145E-01 1.29115E+00 6.35087E-02 8.51346E-01
 -1       226-3.18441E+02 7.40754E-02 2.42694E-02 1.24839E+00 1.28840E-01 9.18223E-01
 -1       227-2.98467E+02-1.55046E-01-1.78722E-01 1.25242E+00-6.15096E-02 7.58459E-01
 -1       228-2.79126E+02 9.81073E-02 1.36805E-01 1.27214E+00 1.06155E-01 8.68913E-01
 -1       229-2.59010E+02 7.31393E-02 4.26972E-02 1.28836E+00 9.23812E-02 8.73781E-01
 -1       230-2.39308E+02 4.95127E-02 9.22305E-02 1.17059E+00 5.99995E-02 7.61024E-01
 -1       231-2.21371E+02-6.94686E-01 9.09001E-02-1.26610E-01 1.62687E-01 3.90913E-01
 -1       232-6.63630E+02-1.82130E+01-1.72238E+01 1.01231E+01 8.40145E-01-4.80405E+01
 -1       233-6.12518E+02 5.40486E-01 6.91397E-01-4.13804E+00 2.22953E+00-2.32221E+00
 -1       234-6.39606E+02-4.03850E-01-7.49177E-02-6.21678E-01 1.98619E-01 5.69702E-01
 -1       235-6.46062E+02-1.60796E-01-1.11083E-01-3.28804E-02 1.30667E-01 5.38086E-01
 -1       236-6.44701E+02-2.76670E-01-1.52917E-01 3.19753E-01-1.39508E-02 2.21053E-01
 -1       237-6.39502E+02-1.89972E-01-7.46867E-02 4.12780E-01-2.21338E-02 2.82918E-01
 -1       238-6.32817E+02-6.31051E-02 4.50367E-02 5.88154E-01 2.37247E-03 3.35270E-01
 -1       239-6.25269E+02-1.21836E-01 6.01101E-02 8.03470E-01 5.00157E-02 3.95694E-01
 -1       240-6.17140E+02-1.66293E-01-4.25014E-02 7.96240E-01-2.28622E-02 4.50922E-01
 -1       241-6.07756E+02-1.66915E-01-9.42835E-02 7.01211E-01 1.00394E-01 4.81662E-01
 -1       242-5.97396E+02-9.86083E-02 9.05125E-03 8.80239E-01 1.19499E-01 5.35345E-01
 -1       243-5.86311E+02-7.77528E-02 8.60560E-02 1.13588E+00 5.46711E-02 5.79063E-01
 -1       244-5.74981E+02-2.72308E-01-1.07220E-01 1.05204E+00 1.60385E-02 5.96166E-01
 -1       245-5.62242E+02-1.32034E-01-4.68271E-02 9.25961E-01-8.17562E-02 6.65850E-01
 -1       246-5.48960E+02-2.06971E-01-9.81640E-02 8.97930E-01-1.52915E-02 5.55358E-01
 -1       247-5.35111E+02-1.23431E-01-1.39754E-01 1.01226E+00-1.01297E-03 6.39990E-01
 -1       248-5.20334E+02-4.63789E-04 4.92955E-02 1.23060E+00 1.53204E-01 7.59061E-01
 -1       249-5.05203E+02-5.39994E-02 8.33203E-02 1.52834E+00 2.15627E-02 7.62600E-01
 -1       250-4.89846E+02-1.64874E-01-9.53031E-02 1.42642E+00-5.03797E-02 7.97188E-01
 -1       251-4.73393E+02-4.62245E-02 1.57358E-02 1.21708E+00 1.40829E-01 7.74220E-01
 -1       252-4.56638E+02-1.13279E-01-5.76234E-02 1.15260E+00 2.05808E-02 7.63374E-01
 -1       253-4.39041E+02 1.17743E-01 1.26642E-01 1.47584E+00 1.52926E-02 8.47617E-01
 -1       254-4.21643E+02-2.37731E-04 1.00569E-01 1.74670E+00 9.71106E-03 9.19831E-01
 -1       255-4.03649E+02-1.44854E-02 6.28927E-02 1.80579E+00-1.06409E-02 9.52101E-01
 -1       256-3.84874E+02 3.35749E-02 1.36611E-01 1.89200E+00 7.06580E-02 9.56099E-01
 -1       257-3.66736E+02-5.30308E-02-4.72841E-02 1.72062E+00-5.00960E-02 9.43888E-01
 -1       258-3.47397E+02 1.25732E-02 4.97003E-02 1.45364E+00 1.17947E-01 9.95350E-01
 -1       259-3.28117E+02 1.14806E-01 1.29916E-01 1.39950E+00 5.96611E-02 8.03465E-01
 -1       260-3.08708E+02-2.34435E-01-2.30864E-01 1.37637E+00 1.30676E-01 9.14602E-01
 -1       261-2.88807E+02-3.45715E-02-4.16753E-02 1.47351E+00-5.51852E-03 8.80234E-01
 -1       262-2.69017E+02 1.25011E-01 1.42218E-01 1.41059E+00 9.17927E-02 8.80643E-01
 -1       263-2.49075E+02 5.59528E-02 4.09911E-02 1.39487E+00 1.14309E-01 8.96621E-01
 -1       264-2.29659E+02 7.63960E-02 1.98426E-01 9.79144E-01-3.08311E-02 6.52348E-01
 -1       265-2.12962E+02 1.32835E+00-2.33515E-01 1.20857E+00-4.30386E-01 5.67066E-02
 -1       266-5.68406E+02 1.78130E+01 1.84851E+01-2.19066E+01 3.52384E+00-7.46117E+00
 -1       267-6.29334E+02 7.23803E-01 1.68103E+00-2.08260E+00 4.81742E-01-9.47575E-01
 -1       268-6.45053E+02-1.29296E-01 1.25313E-01 9.61422E-02-2.68860E-02-4.03894E-01
 -1       269-6.46148E+02-2.27430E-01-6.18727E-02 3.23297E-01 2.11274E-02-3.07600E-01
 -1       270-6.42270E+02-9.46430E-02-2.27706E-02 3.40926E-01-1.17158E-02-1.99951E-01
 -1       271-6.36323E+02-1.43217E-01 8.52918E-02 6.94881E-01-5.33815E-02-2.54182E-01
 -1       272-6.29287E+02-1.37643E-02 1.70651E-02 5.02828E-01-5.48672E-02-3.45969E-01
 -1       273-6.21454E+02-4.15121E-02 7.26627E-02 5.83811E-01-3.28724E-02-3.99314E-01
 -1       274-6.12389E+02-1.45219E-01-5.45919E-03 9.70911E-01 5.20685E-02-4.30535E-01
 -1       275-6.02496E+02-1.22626E-01-9.74138E-03 9.35425E-01 1.02968E-04-3.88091E-01
 -1       276-5.92235E+02 3.73996E-02 9.39225E-02 7.18319E-01-2.23976E-02-4.45483E-01
 -1       277-5.80647E+02-1.18975E-01-1.57432E-02 7.62858E-01 6.98430E-02-5.74642E-01
 -1       278-5.68613E+02-8.51306E-02-2.63708E-02 1.28082E+00 6.09647E-02-5.73369E-01
 -1       279-5.55550E+02-1.03357E-01-7.13623E-02 8.53313E-01-6.79749E-03-5.15469E-01
 -1       280-5.42321E+02-5.36709E-02 9.76818E-02 1.28060E+00 7.32686E-03-5.48050E-01
 -1       281-5.27832E+02-5.87053E-02 1.18446E-01 1.50667E+00-1.16464E-01-6.44842E-01
 -1       282-5.12751E+02-6.85623E-02-1.26689E-01 9.43066E-01 2.64793E-02-6.36892E-01
 -1       283-4.97752E+02 1.34089E-02 1.38149E-01 9.67354E-01-4.19437E-02-6.65398E-01
 -1       284-4.81574E+02 6.52068E-02 2.82727E-02 1.07723E+00-8.41609E-02-7.23547E-01
 -1       285-4.65044E+02-7.18835E-02-4.38711E-02 1.05660E+00 9.02715E-02-6.72029E-01
 -1       286-4.48028E+02-6.82232E-02 7.35086E-02 1.69555E+00-4.24910E-02-7.23778E-01
 -1       287-4.30622E+02 6.44514E-02 5.91467E-02 1.18141E+00-9.70165E-02-8.26197E-01
 -1       288-4.12407E+02-9.90266E-02-6.93593E-02 1.66623E+00 3.34428E-02-7.33471E-01
 -1       289-3.94695E+02-1.15848E-02 6.63923E-02 1.63500E+00 1.09664E-03-7.87304E-01
 -1       290-3.75763E+02 3.17468E-02 3.21414E-02 1.24123E+00-8.72602E-02-8.43311E-01
 -1       291-3.57137E+02-4.11393E-02 5.09456E-02 1.79246E+00-6.83108E-03-7.59565E-01
 -1       292-3.37882E+02-2.47207E-02 8.36233E-02 1.92885E+00-3.12897E-02-8.48067E-01
 -1       293-3.18212E+02 5.40183E-03-1.06194E-01 1.92528E+00 2.43684E-02-8.13371E-01
 -1       294-2.98686E+02 2.66456E-02 1.11256E-02 1.32230E+00-9.44431E-02-8.35827E-01
 -1       295-2.79233E+02-2.96366E-02 1.09473E-01 1.95864E+00 1.94292E-02-8.25645E-01
 -1       296-2.59055E+02 1.77772E-02-8.18286E-03 1.86522E+00-1.40948E-02-8.14550E-01
 -1       297-2.39104E+02-7.68339E-02 6.83234E-02 1.74722E+00-1.75292E-02-6.28422E-01
 -1       298-2.21277E+02-6.30224E-01 5.40165E-02-1.52250E-01-1.66906E-01-3.12946E-01
 -1       299-6.64027E+02-1.93721E+01-1.68294E+01 1.08273E+01-2.31022E+00 4.74328E+01
 -1       300-6.12368E+02 4.21620E-01 3.54973E-01-4.14003E+00-2.35855E+00 2.40997E+00
 -1       301-6.39148E+02-2.45480E-01 4.55010E-02-5.87455E-01-3.62017E-01-4.52514E-01
 -1       302-6.46659E+02-3.85206E-01-2.57359E-01 2.60957E-01-7.14866E-02-3.37043E-01
 -1       303-6.44668E+02-2.85391E-01-1.46897E-01 3.49788E-01-2.58757E-02-3.11361E-01
 -1       304-6.39273E+02-1.33898E-01 1.21784E-02 5.46989E-01-3.10880E-02-2.72891E-01
 -1       305-6.33094E+02-1.77559E-01-4.67620E-02 6.53901E-01 3.68640E-02-3.47210E-01
 -1       306-6.25425E+02-1.23161E-01-1.76699E-02 6.25228E-01-7.50338E-02-4.09757E-01
 -1       307-6.16838E+02-7.03449E-02 2.26805E-02 8.05795E-01-5.17563E-02-4.08217E-01
 -1       308-6.07730E+02-1.80518E-01-7.27727E-02 9.76604E-01 2.40867E-02-4.95857E-01
 -1       309-5.97591E+02-1.46144E-01-4.32320E-02 8.92946E-01 5.55468E-02-5.19329E-01
 -1       310-5.86415E+02 1.16685E-02 8.87255E-02 8.15893E-01 4.51020E-02-5.53962E-01
 -1       311-5.74472E+02-8.15435E-02-1.20941E-02 1.07598E+00-1.55902E-02-5.92084E-01
 -1       312-5.62641E+02-3.85663E-01-2.90162E-01 1.12089E+00 1.62809E-02-6.40963E-01
 -1       313-5.48797E+02-5.71032E-02 3.77423E-02 1.13725E+00-3.44761E-02-6.55958E-01
 -1       314-5.34878E+02-2.86074E-02 1.09938E-01 1.43990E+00-6.30172E-02-7.13323E-01
 -1       315-5.20757E+02-2.75553E-01-1.31834E-01 1.29618E+00 6.16257E-04-7.07260E-01
 -1       316-5.05287E+02-7.49164E-02-1.12508E-02 1.18476E+00 2.61672E-02-7.39586E-01
 -1       317-4.89672E+02 4.02769E-02 7.31177E-02 1.12346E+00-5.44327E-03-6.12595E-01
 -1       318-4.73351E+02 2.79516E-02 2.87686E-02 1.14243E+00-8.10566E-03-8.25262E-01
 -1       319-4.56106E+02 1.91780E-01 2.19065E-01 1.45762E+00-4.87419E-02-8.03996E-01
 -1       320-4.39694E+02-1.46097E-01-1.15824E-01 1.55870E+00 6.62870E-02-8.73757E-01
 -1       321-4.21479E+02 7.71054E-03-1.79594E-02 1.52898E+00-1.21227E-01-8.63885E-01
 -1       322-4.03589E+02-6.17435E-02-8.06140E-03 1.68372E+00 2.21110E-02-9.69823E-01
 -1       323-3.85441E+02-1.59021E-01-1.02413E-01 1.58481E+00 9.08083E-03-8.60778E-01
 -1       324-3.66200E+02 6.69982E-02 8.21059E-02 1.58118E+00-1.81796E-01-9.89815E-01
 -1       325-3.47297E+02 1.17572E-02 9.67951E-02 1.90248E+00-1.24630E-02-9.78289E-01
 -1       326-3.28047E+02-5.07672E-03 4.03176E-03 2.05329E+00-1.00242E-02-1.01621E+00
 -1       327-3.09073E+02-2.39624E-01-3.08958E-01 1.71152E+00 5.83994E-02-9.68869E-01
 -1       328-2.88539E+02 1.00893E-01 1.35825E-01 1.68322E+00-1.92391E-01-1.05612E+00
 -1       329-2.69128E+02-4.81399E-02 1.05656E-02 2.01124E+00 1.93048E-02-1.01031E+00
 -1       330-2.49024E+02-9.37059E-03 4.17627E-02 1.86930E+00-4.29031E-02-9.31168E-01
 -1       331-2.29943E+02-1.55300E-01-2.33297E-02 1.19565E+00 1.77929E-01-6.00312E-01
 -1       332-2.12969E+02 1.22760E+00-3.97282E-01 1.10563E+00 2.78492E-01-7.03989E-02
 -1       333-4.00050E+02-1.60224E+02-1.65471E+02 3.30981E+01-1.01647E+00 2.18913E+01
 -1       334 5.76112E+01 2.05209E+01 2.34692E+01-1.78814E+01-3.35258E-01-3.00715E+00
 -1       335-2.90650E+02-1.23400E+02-1.17718E+02-1.16621E+01 1.32532E+00-4.95841E+01
 -1       336 5.47650E+01 2.26234E+01 2.32679E+01-2.31211E+01-2.68188E-01 3.86112E+00
 -1       337-1.01742E+02-4.19343E+01-4.01048E+01-2.24797E+01 4.02995E-01-3.16082E-01
 -1       338-8.61229E+01-4.21679E+01-3.68934E+01-3.35288E+01 8.28227E-01 1.56381E+01
 -1       339-4.26219E+02-1.71157E+02-1.81866E+02 4.08320E+01-1.36874E+00-2.80191E+01
 -1       340-8.52552E+01-4.17425E+01-3.63247E+01-3.41504E+01-6.29428E-01-1.57751E+01
 -1       341-2.86135E+02-1.21672E+02-1.15539E+02-1.47168E+01-1.47011E+00 5.22551E+01
 -1       342-2.42306E+02-9.52182E+01-9.72326E+01-1.31139E+01-7.91346E-01 1.39563E+01
 -1       343 7.85550E+01 2.25083E+01 2.96158E+01-2.47481E+01 2.00474E-02-1.12757E+01
 -1       344-4.37217E+02-1.79819E+02-1.80514E+02 3.10881E+01-3.02379E+00-7.23128E+01
 -1       345 7.82859E+01 2.26721E+01 2.97479E+01-2.49755E+01-1.01786E-01 1.12821E+01
 -1       346-4.42687E+02-1.69881E+02-1.78315E+02 3.76583E+01 4.52209E-01 7.19145E+01
 -1       347-2.66886E+02-1.03021E+02-1.07545E+02-6.25956E+00 6.86546E-01-1.09476E+01
 -1       348 1.61120E+02 5.76873E+01 6.39284E+01-1.78929E+01-4.39926E+00-3.45257E+01
 -1       349 1.48938E+02 6.29146E+01 6.26800E+01 5.13450E+00 6.18376E-01-2.02128E+01
 -1       350 5.32985E+01 1.76147E+01 1.93984E+01-5.14619E+01 2.54095E+00-8.20799E+00
 -1       351 1.48613E+02 6.27935E+01 6.26506E+01 5.04857E+00-6.22562E-01 1.99688E+01
 -1       352 1.61077E+02 5.76909E+01 6.38545E+01-1.79105E+01 4.40841E+00 3.44178E+01
 -1       353 5.34836E+01 1.76670E+01 1.94760E+01-5.14586E+01-2.53799E+00 8.20128E+00
 -1       354-6.30452E+02-2.39718E+02-2.47463E+02 7.40691E+01-1.44282E+01 1.27064E+02
 -1       355-4.88721E+02-2.09529E+02-2.09540E+02 2.96644E+00-2.05261E-02 1.15960E+02
 -1       356-5.95228E+02-2.51121E+02-2.49203E+02 1.14598E+02 3.16612E+00 6.84002E+01
 -1       357-6.26100E+02-2.40943E+02-2.45886E+02 6.97592E+01 1.35201E+01-1.26471E+02
 -1       358-5.76646E+02-2.47288E+02-2.47199E+02 1.02994E+02-7.34880E-03-7.20152E+01
 -1       359-4.88135E+02-2.09275E+02-2.09285E+02 1.55035E+00 1.95374E-02-1.17549E+02
 -1       360 1.46020E+02 6.25080E+01 6.25553E+01 3.52512E+00 2.31730E-03 3.59320E+00
 -1       361 1.40649E+02 6.02051E+01 6.02537E+01 1.78591E+00 2.00088E-04 1.30853E+01
 -1       362 6.79143E+01 2.39600E+01 2.81373E+01-2.35534E+01-1.24139E+00 6.92815E+00
 -1       363 1.40165E+02 5.99928E+01 6.00436E+01 4.08860E+00-3.23610E-03-1.27666E+01
 -1       364 1.47080E+02 6.26742E+01 6.31924E+01 8.71926E+00 1.57593E-01-2.38806E+00
 -1       365 5.66074E+01 2.14924E+01 2.34325E+01-1.86995E+01 1.08995E+00 9.13733E-01
 -1       366 6.93335E+01 2.26167E+01 2.81448E+01-2.17424E+01 1.21598E+00-6.36336E+00
 -1       367-1.67604E+02-7.23046E+01-7.36178E+01-5.23774E+01 1.33703E+00 4.46270E+01
 -1       368-3.80577E+01-1.63535E+01-1.63290E+01-5.25351E+01-2.00621E-03 1.15180E+01
 -1       369 3.64264E+00 8.13228E-01 2.61792E-01-3.39313E+01-5.95847E-01 2.27343E+00
 -1       370-4.20033E+02-1.77149E+02-1.81477E+02-2.16501E+01 4.53125E-01 1.03575E+02
 -1       371-2.78804E+02-1.19546E+02-1.19527E+02-4.28306E+01-1.47380E-02 7.02162E+01
 -1       372-1.75564E+02-7.47386E+01-7.33758E+01-2.91242E+01-1.62054E-01 3.45338E+01
 -1       373-3.68942E+02-1.55986E+02-1.50765E+02 4.18214E+00 6.61939E-01 6.24369E+01
 -1       374-5.85585E+02-2.50947E+02-2.50467E+02 1.11910E+02 1.66775E-01-4.90820E+01
 -1       375-5.72493E+02-2.45519E+02-2.45414E+02 1.08002E+02 7.87752E-04-1.77960E+01
 -1       376-4.41127E+02-1.75380E+02-1.85220E+02 3.64954E+01-1.12484E+00-4.67538E+01
 -1       377-5.64673E+02-2.40437E+02-2.39207E+02 1.08346E+02 1.16749E+00 1.09662E+01
 -1       378-5.48872E+02-2.35401E+02-2.35294E+02 1.01317E+02 5.98811E-03 4.40296E+01
 -1       379-4.12532E+02-1.63770E+02-1.72509E+02 3.80650E+01 1.80540E+00-5.50410E+00
 -1       380-4.30370E+02-1.67631E+02-1.80148E+02 3.55485E+01-4.26611E-02 4.25440E+01
 -1       381-3.80256E+01-1.63401E+01-1.63154E+01-5.31385E+01 1.98836E-03-1.16749E+01
 -1       382-1.67690E+02-7.24707E+01-7.36428E+01-5.30493E+01-1.26348E+00-4.45654E+01
 -1       383 4.03835E+00 1.04000E+00 6.27185E-01-3.43533E+01 6.54290E-01-2.26236E+00
 -1       384-2.79068E+02-1.19659E+02-1.19640E+02-4.13737E+01 1.44113E-02-6.84089E+01
 -1       385-4.17783E+02-1.75867E+02-1.80473E+02-2.02281E+01-8.08064E-01-1.02718E+02
 -1       386-1.78624E+02-7.60548E+01-7.47198E+01-2.79206E+01 1.30700E-01-3.33447E+01
 -1       387-3.69177E+02-1.56091E+02-1.50401E+02 4.67043E+00-4.20932E-01-6.09273E+01
 -1       388-3.56610E+02-1.52900E+02-1.52861E+02 8.92117E+00 7.69024E-04-2.00419E+01
 -1       389-3.39913E+02-1.44768E+02-1.41977E+02 8.40500E+00-1.56179E+00 3.44275E+00
 -1       390-3.65545E+02-1.56734E+02-1.56693E+02 2.92437E+00-2.55088E-03 3.41322E+01
 -1       391-3.31029E+02-1.41933E+02-1.41894E+02 3.07394E+00-7.59026E-04 1.79346E+01
 -1       392-2.64567E+02-1.13450E+02-1.13412E+02-1.48980E+01-1.14542E-03 3.00006E+01
 -1       393-2.59024E+02-1.05935E+02-1.09441E+02-5.95006E+00 3.99148E-01 2.37239E+00
 -1       394-1.83239E+01-8.76201E+00-8.19135E+00-2.32591E+01-4.77564E-01-1.97101E-01
 -1       395-2.17161E+01-9.35865E+00-9.32269E+00-2.49846E+01 8.90099E-04 5.00963E-01
 -1       396-1.40373E+01-6.07411E+00-6.03420E+00-2.92826E+01 5.41721E-04 3.81167E+00
 -1       397-1.05585E+02-4.53056E+01-4.52672E+01-2.87561E+01-3.72355E-04 6.18367E+00
 -1       398-3.81139E+02-1.63419E+02-1.63377E+02 7.27563E+00 3.23945E-03-3.61336E+01
 -1       399-2.82203E+02-1.21010E+02-1.20970E+02-1.09959E+01 1.69833E-03-2.72682E+01
 -1       400-1.77563E+02-7.30868E+01-7.24249E+01-2.45529E+01-1.80641E+00-1.69191E+01
 -1       401-1.04421E+02-4.48051E+01-4.47677E+01-2.96053E+01 1.68488E-04-6.31088E+00
 -1       402-1.69558E+01-7.32263E+00-7.28429E+00-2.97012E+01-1.56825E-03-3.53027E+00
 -1       403-1.64267E+02-6.86428E+01-6.61681E+01-2.64137E+01 1.46145E+00 1.73795E+01
 -1       404-1.77365E+02-7.13506E+01-7.19209E+01-1.99249E+01-2.58034E+00 4.43218E+00
 -1       405-1.93228E+02-7.82821E+01-7.74029E+01-1.94083E+01 3.24391E+00-3.88127E+00
 -1       406-1.98796E+02 5.90599E+00 9.50997E-01 1.31562E+01-1.92705E+00 3.76403E-02
 -1       407-1.98757E+02 5.93464E+00 8.76054E-01 1.31570E+01 2.00639E+00-5.36471E-02
 -1       408-2.02710E+02-1.48795E+01-5.15112E+00 1.34644E+01-3.43632E-01-1.02803E-01
 -1       409-1.99354E+02-8.30624E+00-1.25619E+00 1.33418E+01 2.04681E+00 4.13526E-02
 -1       410-1.98597E+02-6.48595E-02-5.63561E-02 1.45788E+01 6.65536E-01 1.57896E-02
 -1       411-1.95264E+02 1.36853E+01 5.02356E+00 1.36851E+01 3.16251E-01 1.78649E-02
 -1       412-1.99567E+02-9.15490E+00-1.31312E+00 1.34230E+01-2.12695E+00 1.56974E-01
 -1       413-2.02166E+02-1.37017E+01-5.04134E+00 1.33842E+01 3.27837E-01-5.25931E-02
 -1       414-1.95105E+02 1.47212E+01 5.25612E+00 1.30490E+01-2.87684E-01 6.92920E-02
 -1       415-1.98288E+02 6.83234E+00 1.78324E+00 1.44355E+01-4.92063E-01-2.16296E-01
 -1       416-2.01674E+02-1.54552E+01-3.12651E+00 1.26899E+01-3.72066E-01 7.54936E-02
 -1       417-1.95714E+02 1.34944E+01 2.94808E+00 1.22081E+01 3.95155E-01 2.40459E-01
 -1       418-2.01957E+02-1.35219E+01-3.00982E+00 1.22340E+01 5.22594E-01-2.20796E-01
 -1       419-1.96533E+02 1.43955E+01 2.88934E+00 1.20934E+01-4.27798E-01-2.27183E-01
 -1       420-1.98722E+02-4.61557E+00-1.28093E+00 1.44910E+01-6.82702E-01 1.51335E-01
 -1       421-1.99348E+02-1.34754E+01-3.19589E+00 1.01250E+01 1.93863E-01 1.65221E-01
 -1       422-1.99452E+02-1.27022E+01-1.66314E+00 9.18616E+00 2.92669E-01 3.98412E-01
 -1       423-2.00580E+02-1.66622E+01-1.98155E+00 1.30388E+01-7.70142E-01-5.59151E-02
 -1       424-1.99803E+02-1.19200E+01-1.81574E+00 9.09262E+00-3.96606E-01-3.92413E-01
 -1       425-2.00022E+02-1.27048E+01-3.10121E+00 9.91041E+00 2.39180E-02-1.75528E-01
 -1       426-1.99834E+02-1.39488E+01-1.47830E+00 1.22230E+01 1.19046E+00-4.33411E-01
 -1       427-1.97841E+02 1.37924E+01 1.39628E+00 1.21099E+01-1.02603E+00-3.04752E-01
 -1       428-1.97960E+02 1.27819E+01 1.91266E+00 9.01309E+00 4.23762E-01-4.49193E-01
 -1       429-1.98284E+02 1.35265E+01 3.18723E+00 1.00679E+01 2.71764E-01-2.40222E-01
 -1       430-1.97599E+02 1.26911E+01 3.05902E+00 9.90890E+00-2.03340E-02 1.88081E-01
 -1       431-1.97805E+02 1.18682E+01 1.78499E+00 9.07610E+00-4.51176E-01 3.91167E-01
 -1       432-1.97847E+02 1.38339E+01 1.42715E+00 1.21911E+01 1.13927E+00 4.45634E-01
 -1       433-2.00028E+02-1.31040E+01-4.80377E+00 1.06386E+01-2.34548E-02-2.96003E-02
 -1       434-2.00614E+02-1.30075E+01-5.23604E+00 1.03218E+01 4.38164E-02 3.39934E-02
 -1       435-2.02405E+02-1.41722E+01-4.38283E+00 1.29542E+01 2.54172E-01-9.80416E-02
 -1       436-1.99532E+02-1.23094E+01-5.09532E+00 1.02439E+01 4.81942E-02-2.40714E-01
 -1       437-2.00684E+02-1.29607E+01-4.47708E+00 1.00573E+01-9.26873E-02 1.42589E-02
 -1       438-2.02254E+02-1.38671E+01-5.42729E+00 1.33339E+01 1.31393E-01-6.16562E-02
 -1       439-2.02434E+02-1.50241E+01-4.64901E+00 1.28282E+01-6.41144E-01 1.25827E-01
 -1       440-1.98667E+02-1.06233E+01-6.18877E-01 1.25499E+01-1.79157E+00 3.96811E-01
 -1       441-1.99374E+02-4.58183E+00-5.82861E-01 1.25880E+01-2.31908E+00 9.11867E-03
 -1       442-2.00103E+02-1.29708E+01-2.30279E+00 1.29416E+01-1.40226E+00 1.73038E-01
 -1       443-1.98366E+02 3.10463E+00 7.21679E-02 1.24853E+01-2.32982E+00 1.67181E-01
 -1       444-1.98429E+02 1.14786E+01 1.19119E+00 1.20184E+01-1.73947E+00-2.48637E-01
 -1       445-1.99711E+02-1.30544E+00 1.15639E-02 1.31242E+01-2.15037E+00 4.98098E-02
 -1       446-1.98011E+02 1.23312E+01 2.35611E+00 1.23636E+01-1.16669E+00-1.17231E-01
 -1       447-1.96863E+02 1.30060E+01 5.25712E+00 1.04843E+01 1.55823E-02-3.86800E-02
 -1       448-1.97517E+02 1.31108E+01 4.82310E+00 1.08077E+01-7.23249E-03 3.82019E-02
 -1       449-1.95203E+02 1.42191E+01 4.34144E+00 1.31293E+01 2.39879E-01 9.45152E-02
 -1       450-1.97132E+02 1.26920E+01 4.46170E+00 9.71907E+00-3.64196E-02-1.91492E-02
 -1       451-1.98226E+02 1.20111E+01 5.03993E+00 9.93540E+00 7.06655E-02 2.81571E-01
 -1       452-1.95281E+02 1.38168E+01 5.45612E+00 1.33129E+01 1.78880E-01 3.30259E-02
 -1       453-1.95377E+02 1.50879E+01 4.49576E+00 1.27116E+01-7.00380E-01-2.14594E-01
 -1       454-1.99461E+02-4.26185E+00-5.12108E-01 1.27102E+01 2.29988E+00 7.05184E-02
 -1       455-1.98984E+02-1.14942E+01-9.90292E-01 1.22755E+01 1.80363E+00-1.74669E-01
 -1       456-1.99627E+02-1.26746E+01-2.51190E+00 1.27591E+01 1.29449E+00-1.24416E-01
 -1       457-1.98388E+02 1.13938E+01 1.06507E+00 1.21004E+01 1.80477E+00 2.11983E-01
 -1       458-1.98323E+02 3.21833E+00 5.35016E-02 1.25380E+01 2.38475E+00-1.61231E-01
 -1       459-1.99433E+02-6.40662E-01 1.50873E-01 1.31697E+01 2.07677E+00-1.02316E-02
 -1       460-1.97771E+02 1.27687E+01 2.56473E+00 1.26179E+01 1.17429E+00 1.23383E-01
 -1       461-1.99637E+02-7.21264E+00-1.76646E+00 1.41910E+01-1.59310E+00 2.93289E-01
 -1       462-1.98876E+02 4.25493E-01-1.98489E-02 1.38142E+01-1.71014E+00-7.15098E-02
 -1       463-1.97931E+02 7.21301E+00 2.16401E+00 1.41943E+01-1.45762E+00 1.20334E-01
 -1       464-1.97278E+02 1.25422E+01 4.03757E+00 1.35892E+01-6.08701E-01-2.19697E-01
 -1       465-1.97344E+02 1.31214E+01 3.47469E+00 1.33468E+01-1.20094E+00 1.48014E-01
 -1       466-1.98254E+02 1.27292E+00 2.60975E-01 1.45952E+01-4.87511E-01-2.31423E-01
 -1       467-1.98738E+02 2.58019E+00 5.75917E-01 1.39582E+01 1.51241E+00 1.14494E-01
 -1       468-1.99451E+02-4.00832E+00-1.05389E+00 1.40623E+01 1.59307E+00-1.25379E-01
 -1       469-1.97477E+02 1.19593E+01 3.25173E+00 1.37278E+01 1.14258E+00-2.36374E-01
 -1       470-1.96968E+02 7.94418E+00 2.55175E+00 1.40576E+01 8.90294E-01 1.93901E-01
 -1       471-2.00343E+02-1.34271E+01-3.11834E+00 1.35985E+01-1.14485E+00-5.92423E-02
 -1       472-2.00312E+02-1.17535E+01-3.61806E+00 1.38255E+01-7.80291E-01 1.48659E-01
 -1       473-2.00315E+02-1.05738E+01-3.42827E+00 1.39213E+01 1.01498E-02 1.93251E-02
 -1       474-2.00330E+02-8.17023E+00-2.71866E+00 1.39589E+01 9.56640E-01-1.81171E-01
 -1       475-1.99979E+02-1.21843E+01-3.09249E+00 1.36262E+01 1.01410E+00 9.93628E-02
 -1       476-1.97249E+02 1.09609E+01 3.49310E+00 1.39744E+01 9.28039E-02-7.30844E-02
 -1       477-1.97918E+02 4.10269E+00 1.05256E+00 1.47070E+01 5.69850E-02-1.60157E-01
 -1       478-1.99205E+02-3.31324E+00-7.98481E-01 1.48753E+01-8.31312E-02 1.82766E-01
 -1       479 5.74972E+00-5.23023E-02 5.81054E-02 2.74906E-01-2.74115E-02-1.30350E+00
 -1       480-6.96493E+01 3.81657E-02 1.47917E-01 6.01383E-01-5.66379E-02-1.25023E+00
 -1       481-1.47814E+02-6.94351E-02-9.90141E-02 7.74264E-01-3.91057E-02 1.31938E+00
 -1       482 7.49306E+01 3.00133E-01 2.77164E-01 5.18221E-01-5.77883E-02-1.18594E+00
 -1       483 4.11550E+01 1.23025E-01 2.91120E-01 5.30195E-01 9.70503E-02 1.11578E+00
 -1       484-3.18611E+01 4.65980E-01 3.76100E-01 1.54284E+00 2.25532E-01 7.09677E-01
 -1       485-1.08069E+02-4.80762E-01-4.91118E-02 5.05636E-01 2.35827E-02 1.44311E+00
 -1       486 1.07379E+02-4.03194E-02 3.21094E-01 4.60213E-01 3.13756E-02 1.04156E+00
 -1       487 2.40679E+02-2.08222E-01 4.20850E-01 1.94071E-01-1.37865E-01-4.29127E-01
 -1       488 2.26128E+02-1.02073E-01 4.68333E-01 3.28124E-01-7.75254E-02-5.78584E-01
 -1       489 2.51441E+02-6.28119E-02 1.05128E+00 3.08957E-01 2.03859E-01-1.15910E-01
 -1       490 1.87743E+02-1.35243E-01 3.86811E-01 4.40212E-01-3.49947E-02-7.47391E-01
 -1       491 1.51192E+02-2.47764E-01 2.38848E-01 1.06884E-01-3.18899E-02-1.03006E+00
 -1       492 2.08602E+02 7.93973E-03 3.98988E-01 3.27132E-01-1.08656E-01-6.33653E-01
 -1       493 2.65834E+02 1.26105E+00 1.10227E+01 1.79202E+00 1.41361E+00-6.37802E+00
 -1       494 2.58380E+02 3.55055E-02 3.65740E+00 1.86902E+00-4.59211E-01 1.96496E+00
 -1       495-1.67896E+02 2.54989E-02-1.48633E-01 3.56709E-01 1.42847E-02-1.01495E+00
 -1       496 1.21486E+02 2.69592E-01 5.22680E-01 9.69551E-01-2.08085E-01-6.05561E-01
 -1       497-1.29365E+02 4.67817E-01 3.71026E-01 1.29864E+00-2.54687E-01-7.60530E-01
 -1       498 2.33375E+02 4.10468E-02 5.33057E-01 8.53712E-02 1.26971E-01 4.79814E-01
 -1       499 1.75627E+02 2.59995E-01 5.86020E-01 9.46893E-01 1.95313E-01 4.78013E-01
 -1       500 1.36530E+02 9.58485E-02 3.38422E-01 5.40738E-01 8.26624E-02 8.61888E-01
 -1       501 2.17634E+02 1.42530E-01 6.04992E-01 6.85455E-01 1.90889E-01 3.40983E-01
 -1       502 1.99092E+02-2.30824E-01 3.94938E-01 1.75199E-01 7.43867E-02 7.51682E-01
 -1       503 2.60301E+02-1.42986E+01 3.54872E+01 1.10398E+00-1.25955E+00 6.70240E+00
 -1       504-1.80872E+02 3.46184E+00 1.35987E+00-5.81105E-01-9.61634E-02 5.74541E-01
 -1       505 4.96804E+00 2.47453E-01 1.41063E-01 1.17552E-01 3.63888E-02 1.39859E+00
 -1       506-6.89378E+01-2.62151E-01-1.10766E-01 7.71559E-01-4.13094E-02 1.26173E+00
 -1       507 7.43477E+01 2.84139E-01 2.08551E-01 1.57664E-01 1.83518E-02 1.24380E+00
 -1       508 4.08504E+01 4.48926E-01 4.87686E-01 1.34050E+00-2.67458E-01-6.30139E-01
 -1       509-3.07739E+01-2.89739E-01 3.44950E-02 3.30934E-01-1.53634E-02-1.33211E+00
 -1       510 2.58453E+02-6.75288E-02 3.60450E+00 1.67540E+00 4.65628E-01-2.10429E+00
 -1       511 2.51560E+02-2.48369E-01 1.05421E+00 5.68720E-01-2.30669E-01 2.03678E-01
 -1       512 2.45907E+02 2.08125E-02 6.29061E-01 2.30371E-01-1.02913E-01-2.96294E-01
 -1       513 2.43117E+02-9.08326E-02 8.55603E-01 3.38347E-01 2.73168E-02-1.61803E-02
 -1       514-1.48999E+02 1.81404E-02-1.50768E-01 7.21605E-01-8.30141E-03-1.33005E+00
 -1       515-1.32305E+01 1.56167E-01 2.62081E-01 5.11879E-01 4.45955E-02-1.17855E+00
 -1       516-1.16547E+01-3.64019E-01 4.27119E-03 6.53130E-01-4.58779E-02 1.23722E+00
 -1       517 1.22951E+02-2.69532E-01 2.03875E-01 1.27930E-01 6.40168E-02 1.10335E+00
 -1       518 1.06651E+02 5.23260E-03 2.45078E-01 7.02325E-01-1.68755E-02-1.10022E+00
 -1       519 5.95753E+01-4.49001E-01 1.47303E-02 9.80754E-01-1.38968E-01 8.01621E-01
 -1       520 5.96657E+01-3.85133E-01 1.69618E-02 5.40374E-01-3.05195E-02-1.13269E+00
 -1       521 2.18135E+02-3.08475E-01 2.75444E-01 7.05886E-01-3.44875E-02-3.38995E-01
 -1       522 1.76327E+02-3.76757E-01 1.08726E-01 9.68360E-01 2.01029E-02-4.82440E-01
 -1       523 1.63075E+02 2.44448E-01 3.69015E-01 4.29360E-01-1.18668E-01-8.63934E-01
 -1       524 1.57157E+02 1.78250E-03 4.97813E-01 6.70538E-01-2.75215E-02-1.88879E-02
 -1       525 1.88088E+02-1.04626E-01 3.84868E-01 4.16997E-01 6.81784E-02 7.48872E-01
 -1       526-5.01746E+01-1.50857E-02 5.99394E-02 5.64333E-01 6.51816E-02 1.39365E+00
 -1       527-4.98656E+01-6.05168E-02 9.71520E-02 5.69780E-01 1.19460E-02-1.28782E+00
 -1       528 1.37167E+02-1.12054E-01 2.61020E-01 5.16153E-01-5.03985E-02-9.27471E-01
 -1       529-1.29219E+02 1.42989E-01 1.11852E-01 8.75491E-01 1.26977E-01 1.22486E+00
 -1       530-1.08238E+02-4.01938E-01-1.11729E-01 6.50932E-01 8.06117E-05-1.37136E+00
 -1       531 2.08553E+02-1.71727E-02 4.04175E-01 2.65154E-01 1.09122E-01 6.58128E-01
 -1       532 2.26705E+02-2.56736E-01 4.37358E-01 2.68138E-01 8.46494E-02 5.62873E-01
 -1       533-9.02665E+01 3.91989E-01 1.16012E-01 4.74518E-01 1.83336E-02-1.32279E+00
 -1       534 2.33337E+02 2.79675E-02 6.08294E-01 4.25828E-01-2.19737E-01-2.75815E-01
 -1       535-9.06276E+01 5.15658E-01 2.79093E-01 8.84101E-01 1.03089E-01 1.00153E+00
 -1       536 9.17721E+01-4.32300E-01-9.25474E-02 1.28477E+00 1.64509E-01-5.55530E-01
 -1       537 1.98192E+02 5.50063E-02 4.13744E-01 5.07137E-02-8.56737E-02-7.76792E-01
 -1       538 9.16410E+01-3.32737E-02 6.56173E-02 3.57962E-01-3.00190E-02 1.05589E+00
 -1       539 2.38981E+01-3.86717E-02 5.11930E-02 6.57427E-01-8.15890E-02-1.14768E+00
 -1       540 2.34397E+01 2.99325E-02 2.78813E-02 4.84901E-01 5.19745E-02 1.19247E+00
 -1       541 2.61559E+02 9.61282E-01 1.23450E+01 2.97042E+00-5.42471E-02 5.02666E-02
 -1       542 2.53711E+02 4.83292E-02 3.36500E+00 1.19860E+00-2.46867E-02 1.56380E-02
 -1       543 2.40468E+02-2.45182E-01 4.84328E-01 1.07223E-01 1.00372E-01 4.46002E-01
 -1       544 2.59589E+02-1.98897E+01 3.21445E+01-1.44749E+00 5.34079E-01-8.50842E+00
 -1       545 1.63808E+02-8.98807E-02 2.04819E-01 4.89582E-01 1.27070E-01 8.44673E-01
 -1       546 1.43516E+02-1.43492E-02 4.99567E-01 6.54199E-01 2.19923E-02-5.96814E-02
 -1       547-1.58097E+02 3.95809E-01-5.01548E-02 1.49266E+00-2.19431E-02 3.48674E-02
 -1       548 2.45453E+02 4.94562E-02 6.17833E-01 2.19388E-01 1.92470E-01 2.46366E-01
 -1       549-1.37122E+02-1.93931E-01-1.86480E-01 1.57570E+00 4.51192E-02-6.59420E-02
 -1       550 2.36945E+02-6.18277E-02 8.01264E-01 5.92513E-01-3.48937E-02 2.50339E-03
 -1       551-6.06493E+01 2.09708E-01 1.45960E-01 1.61627E+00-4.97390E-02 7.29606E-02
 -1       552-4.00042E+01-3.30868E-02 1.10149E-01 1.55174E+00-7.09322E-02 1.79133E-01
 -1       553 3.37670E+01-7.86958E-02 1.12677E-01 1.27310E+00 8.60515E-02-1.10987E-01
 -1       554-7.84265E+01-2.15828E-01 8.26871E-02 1.67403E+00 3.05771E-02 6.78627E-02
 -1       555 8.37365E+01-1.24465E-01 2.60008E-01 1.37613E+00-3.83566E-03-2.96640E-02
 -1       556 1.49376E+01 5.27240E-02 2.11024E-01 9.20282E-01-1.93285E-03 8.25915E-03
 -1       557 4.97039E+01 1.57402E-01 2.85060E-01 1.48152E+00-8.46919E-02-4.29173E-02
 -1       558 6.66166E+01-8.15924E-02 2.94172E-01 1.05477E+00 6.56851E-02-3.40790E-02
 -1       559-1.19050E+02 1.56223E-01 8.75714E-02 1.72602E+00-9.40602E-02-4.70154E-04
 -1       560-9.85619E+01 9.23086E-02 1.07998E-01 1.21562E+00-5.89164E-03 1.89637E-02
 -1       561-2.20680E+01 3.56590E-02 1.24907E-01 1.02194E+00 4.92362E-02-1.14323E-01
 -1       562 9.81243E+01 7.42737E-02 3.70769E-01 1.10730E+00-6.75385E-02-1.44045E-01
 -1       563 1.29441E+02-2.60262E-02 3.97079E-01 7.84043E-01-6.23454E-02 5.53676E-02
 -1       564 2.30511E+02-9.98362E-02 6.83079E-01 5.31463E-01 2.97143E-02-6.02891E-02
 -1       565 2.21600E+02-3.76333E-02 6.47454E-01 6.29979E-01 5.30643E-04-2.60927E-02
 -1       566 2.03806E+02-1.30100E-02 6.43891E-01 5.37189E-01 3.08598E-02-2.26973E-02
 -1       567 1.93285E+02-5.05368E-02 6.57354E-01 5.67339E-01 3.92565E-03 2.41572E-02
 -1       568 2.13935E+02-9.72805E-02 6.93737E-01 6.90634E-01 2.21860E-02 5.73643E-02
 -1       569 1.81186E+02-4.13537E-02 4.81292E-01 8.56923E-01 1.05559E-02-5.46228E-02
 -1       570-3.43707E+00 1.79342E-02 2.22225E-01 8.56297E-01-4.16102E-02 5.94629E-02
 -1       571 1.15295E+02-2.25273E-02 3.76676E-01 1.18158E+00 4.46272E-02-1.77170E-01
 -1       572 1.70622E+02-7.46032E-02 5.76111E-01 9.22830E-01 1.83000E-02 7.44441E-02
 -1       573 1.50600E+02-3.23212E-02 3.26601E-01 2.21098E-01 4.05761E-02 9.79512E-01
 -1       574 2.48591E+02-2.48195E-01 1.40061E+00 4.75069E-01 1.74496E-02 1.33150E-03
 -1       575-1.79936E+02 4.44333E+00 1.70222E+00-1.29085E+00 1.45585E-02-7.13768E-01
 -1       576 2.65912E+02 1.02291E+00 1.10426E+01 1.70792E+00-1.22635E+00 6.32905E+00
 -1       577-1.67527E+02-3.62197E-02-2.69482E-01 2.68086E-01 1.03871E-02 1.05535E+00
 -1       578 2.65764E+02-8.50378E-01 2.42557E+01 1.26830E+00-1.54095E-01 3.02722E-01
 -1       579 2.53999E+02-1.09378E+01 1.54291E+01-4.13723E+00 2.38858E+00-1.87821E+01
 -1       580 2.53861E+02-1.08111E+01 1.59065E+01-4.04151E+00-2.62460E+00 1.89935E+01
 -1       581-1.81275E+02 1.85962E+00 7.64398E-01-7.93756E-01-3.39936E-03-1.12566E+00
 -1       582-1.81888E+02 3.06686E+00 1.20312E+00-8.73939E-01 1.09557E-01 9.81413E-01
 -1       583-1.70315E+02-1.09550E-01 2.90454E-01-5.33434E-03 3.56312E-02-3.86320E-02
 -1       584 2.35290E+02 1.84841E+01 4.66583E+01 1.03651E+01 7.43832E-01-2.41517E+01
 -1       585 2.43329E+02 1.75351E+01 3.82778E+01-3.22341E+00-6.18254E+00-3.58896E+01
 -1       586 2.48487E+02-4.58735E+00 3.17106E+00-5.32892E+00 3.16652E+00-1.11700E+01
 -1       587 2.43168E+02 1.76104E+01 3.86188E+01-3.18713E+00 6.15965E+00 3.60816E+01
 -1       588 2.35346E+02 1.88477E+01 4.72278E+01 1.04202E+01-7.89645E-01 2.43392E+01
 -1       589 2.48457E+02-4.61014E+00 3.44702E+00-5.20205E+00-3.19355E+00 1.11997E+01
 -1       590-1.87187E+02 5.70393E-03 8.55367E-01 1.08630E+00 4.92762E-01 8.62583E-01
 -1       591-1.85805E+02 1.69477E+00 1.52887E+00 1.14091E+00 1.37765E-01 9.35274E-01
 -1       592-1.78514E+02 6.02193E-01 2.97827E-01-8.26313E-01 1.72560E-01 5.17897E-01
 -1       593-1.85559E+02 4.96707E-01 1.13665E+00 1.14382E+00 1.60947E-04-1.25074E+00
 -1       594-1.86493E+02-3.23176E-01 8.57361E-01 1.17540E+00-4.64457E-01-8.88193E-01
 -1       595-1.78697E+02 5.72987E-01 2.14399E-01-7.27555E-01-1.05829E-02-6.94131E-01
 -1       596 2.48573E+02 2.62486E+01 6.25411E+01 1.40929E+01-3.65536E+00 1.48158E+01
 -1       597 2.55186E+02 3.18132E+01 6.65248E+01 1.56259E+01 1.94083E+00 5.06069E+00
 -1       598 2.56053E+02-1.47614E+01 2.82131E+01-3.73835E+00-2.51301E+00 1.52886E+01
 -1       599 2.51052E+02 2.20365E+01 5.86871E+01 1.36260E+01 1.24830E+00-4.78191E+00
 -1       600 2.48320E+02 2.50855E+01 6.07657E+01 1.22860E+01 2.25602E+00-1.51765E+01
 -1       601 2.59065E+02-1.51068E+01 3.42153E+01-1.54010E+00-5.20837E-01-1.72960E+00
 -1       602 2.56125E+02-1.62408E+01 2.66552E+01-4.05015E+00 2.03605E+00-1.51678E+01
 -1       603-1.85901E+02 1.04540E+00 8.47977E-01 9.54614E-01 6.75384E-02-3.61318E-01
 -1       604-1.85489E+02 2.10696E+00 1.52053E+00 1.16423E+00 9.64072E-03-5.43423E-01
 -1       605-1.80709E+02 3.35087E+00 1.36286E+00-7.95146E-01-1.62651E-01-7.98119E-01
 -1       606-1.85508E+02 1.18043E+00 1.52600E+00 8.34369E-01-5.81266E-02 7.39063E-01
 -1       607-1.85645E+02 1.48164E+00 9.09966E-01 1.43035E+00-3.19739E-03 3.17159E-01
 -1       608-1.80674E+02 3.38817E+00 1.12638E+00-7.77106E-01-9.30768E-02-2.32437E-01
 -1       609-1.81272E+02 3.48759E+00 1.50547E+00-6.08379E-01-9.47737E-02 1.09048E+00
 -1       610 2.65068E+02 1.52296E+00 5.10465E+00 1.63763E+00-2.65008E-01 3.84091E+00
 -1       611 2.65150E+02 2.66636E+00 9.17463E+00-1.01984E+00 1.02960E+00 8.25124E+00
 -1       612 2.61602E+02 2.53957E-01 1.59154E+01-3.28731E-01-1.11530E+00 1.25283E+01
 -1       613 2.56506E+02 5.12373E-01 1.59770E+00 1.03126E+00 4.76773E-02 7.24835E-01
 -1       614 2.58715E+02-2.23705E-01 1.55502E+00 1.06273E+00-2.45455E-01 1.81924E+00
 -1       615 2.61808E+02-2.51826E-02 6.12076E+00 1.44362E+00-1.40176E+00 3.45710E+00
 -1       616 2.50026E+02-8.56742E-02 4.85724E-01 3.82660E-01-3.70461E-02-8.52001E-02
 -1       617 2.52552E+02-3.21222E-01 4.91392E-01 2.79487E-01-8.11702E-02-4.47722E-02
 -1       618 2.54361E+02-3.27544E-01 2.07935E+00 9.21756E-01-3.20643E-01 7.21156E-01
 -1       619 2.44744E+02 1.01426E-02 3.00551E-01 2.29545E-01-3.26710E-02-3.23875E-01
 -1       620 2.47255E+02-2.82953E-02 3.48043E-01 3.06872E-01-9.53590E-02-2.56185E-01
 -1       621 2.48937E+02 3.84988E-02 9.28434E-01 3.49216E-01-1.35327E-01-1.07478E-01
 -1       622 2.38811E+02-1.48535E-01 2.12793E-01 4.28984E-01-1.37195E-02-3.90034E-01
 -1       623 2.41989E+02-1.67010E-01 2.38106E-01 1.35827E-01-9.61952E-02-3.88667E-01
 -1       624 2.43221E+02-1.41595E-01 4.84983E-01 2.19639E-01-1.25227E-01-3.51060E-01
 -1       625 2.32033E+02 1.17296E-02 3.24109E-01 1.77227E-01-7.07071E-02-5.58139E-01
 -1       626 2.35371E+02 1.81978E-03 3.27607E-01 5.15022E-01-2.00191E-01-3.64830E-01
 -1       627 2.36868E+02-1.65459E-01 4.93044E-01 4.84217E-01-1.80239E-01-4.19608E-01
 -1       628 2.24279E+02 1.86952E-02 1.80809E-01 2.23171E-01-4.58791E-04-6.87822E-01
 -1       629 2.28618E+02-9.77306E-02 3.34093E-01 1.36504E-01-9.88020E-02-5.61768E-01
 -1       630 2.30510E+02 9.46438E-02 8.12957E-01 2.40780E-01-1.24931E-01-4.35584E-01
 -1       631 2.16236E+02-5.05720E-02 3.33751E-01 6.87868E-01 2.94027E-02-5.52523E-01
 -1       632 2.20182E+02-2.91625E-01 6.95846E-02 3.01298E-01-5.18302E-02-6.54458E-01
 -1       633 2.21895E+02-2.40916E-01 3.91760E-01 5.33971E-01-1.01024E-01-5.53291E-01
 -1       634 2.06415E+02 3.10153E-02 2.32583E-01 5.71684E-01 9.35484E-03-5.13726E-01
 -1       635 2.11281E+02 1.38024E-02 2.35233E-01 5.62327E-01-1.72224E-01-5.34755E-01
 -1       636 2.14258E+02 9.99030E-02 6.42559E-01 5.65697E-01-3.12773E-02-6.31162E-01
 -1       637 1.95900E+02 9.33354E-02 1.90173E-01 1.53253E-01-3.58733E-02-7.59679E-01
 -1       638 2.01170E+02 9.66210E-02 3.08379E-01 4.59408E-01-1.13256E-01-5.71103E-01
 -1       639 2.04011E+02 1.96938E-01 5.32639E-01 3.20435E-01-5.12105E-02-7.21190E-01
 -1       640 1.84662E+02 9.84137E-02 1.13136E-01 2.50113E-01 8.87169E-02-9.63688E-01
 -1       641 1.90902E+02-7.57885E-02 3.13099E-01 2.54468E-01-6.82703E-02-7.27414E-01
 -1       642 1.93169E+02-1.71223E-01 4.80097E-01 1.71294E-01-1.08439E-01-7.13374E-01
 -1       643 1.73576E+02-4.84005E-02 2.96195E-01 9.50974E-01 9.40991E-02-7.53684E-01
 -1       644 1.78943E+02-3.41810E-01-3.74507E-02 4.39831E-01-3.62024E-02-9.00424E-01
 -1       645 1.81365E+02-3.56351E-01 1.83841E-01 6.24953E-01-1.08355E-01-8.35945E-01
 -1       646 1.60480E+02 1.63605E-01 2.27844E-01 4.91554E-01-3.36756E-02-7.59646E-01
 -1       647 1.66972E+02 1.30458E-01 2.54618E-01 7.63333E-01-2.26690E-01-7.94613E-01
 -1       648 1.70867E+02 2.12279E-01 5.82909E-01 7.92863E-01 2.32513E-02-8.80961E-01
 -1       649 1.47502E+02-2.04880E-01 8.16980E-02 6.62124E-01 4.87429E-02-8.01385E-01
 -1       650 1.54060E+02-2.80908E-01 1.08679E-01 2.31477E-01-4.68892E-02-9.28793E-01
 -1       651 1.57259E+02 1.17343E-01 3.00119E-01 1.71119E-01-2.88420E-02-9.76599E-01
 -1       652 1.33171E+02-1.14788E-01 1.32307E-01 9.57621E-01 1.18872E-01-8.16198E-01
 -1       653 1.40367E+02-1.22726E-01 9.68944E-02 7.87099E-01-1.39206E-01-7.44057E-01
 -1       654 1.43802E+02-2.85786E-01 2.44920E-01 5.09738E-01-9.92081E-02-1.01548E+00
 -1       655 1.18386E+02 1.91785E-01 2.59110E-01 3.70616E-01-2.13087E-02-1.15733E+00
 -1       656 1.25368E+02 8.14904E-02 1.76721E-01 1.07201E+00-2.54709E-01-8.27179E-01
 -1       657 1.28774E+02-2.18158E-01 1.58786E-01 9.98171E-01-1.80864E-01-9.44284E-01
 -1       658 1.02947E+02 1.85945E-01 2.62583E-02 4.34293E-01 7.88709E-02-1.28928E+00
 -1       659 1.11240E+02-8.46892E-02 2.44798E-01 3.39779E-01-1.06858E-01-1.10552E+00
 -1       660 1.15413E+02 3.44120E-01 8.29452E-01 6.68081E-01-6.05628E-02-8.59993E-01
 -1       661 8.80284E+01-3.17141E-02 2.21711E-01 1.27069E+00 1.91316E-01-9.59742E-01
 -1       662 9.51170E+01-4.16421E-01-2.43221E-01 6.15241E-01-1.03999E-02-1.17144E+00
 -1       663 9.85981E+01-3.16556E-01 2.45877E-02 9.99041E-01-2.94458E-02-1.04670E+00
 -1       664 7.12914E+01 2.31306E-01 1.81575E-01 4.78097E-01-3.19800E-03-1.09593E+00
 -1       665 7.92751E+01 2.34887E-01 1.60943E-01 1.10888E+00-1.75564E-01-1.01146E+00
 -1       666 8.44228E+01 3.45121E-01 4.56020E-01 1.15954E+00 1.20755E-01-1.04853E+00
 -1       667 5.43021E+01-3.27722E-01-5.80223E-02 1.01870E+00 2.10591E-01-9.66129E-01
 -1       668 6.31011E+01-2.71229E-01 9.85243E-02 4.76196E-01-5.14859E-02-1.06514E+00
 -1       669 6.71339E+01-2.38995E-01-6.94941E-02 4.12916E-01-8.55925E-02-1.16489E+00
 -1       670 3.74361E+01 3.84870E-01 4.64119E-01 6.84977E-01-4.34035E-02-1.27800E+00
 -1       671 4.51839E+01 2.38420E-02-2.54410E-03 1.36827E+00-2.83812E-01-1.00909E+00
 -1       672 4.87245E+01-3.74566E-01-8.54731E-02 1.12843E+00-2.05928E-01-1.12706E+00
 -1       673 1.92701E+01 6.33129E-02-1.19608E-02 8.69680E-01 1.03048E-01-1.03436E+00
 -1       674 2.85113E+01-3.59082E-01 1.26539E-01 4.01572E-01-1.80595E-01-1.35022E+00
 -1       675 3.36334E+01 4.82417E-01 5.39123E-01 8.77031E-01-7.25298E-03-1.25728E+00
 -1       676 1.44815E+00-9.30225E-02 8.28498E-02 9.13934E-01 5.11828E-02-1.05038E+00
 -1       677 1.00186E+01 1.03782E-02-1.08443E-02 8.49321E-01-6.93808E-02-1.05484E+00
 -1       678 1.51998E+01 3.46258E-01 2.64254E-01 4.75094E-01-7.15802E-02-1.31823E+00
 -1       679-1.77963E+01 1.80594E-01 1.65275E-02 4.23226E-01 1.24206E-01-1.29035E+00
 -1       680-7.81588E+00-9.32544E-03 2.28973E-01 8.46475E-01-2.26347E-01-1.05960E+00
 -1       681-3.66671E+00-3.47141E-01 3.16954E-02 4.95748E-01 1.02303E-02-1.33321E+00
 -1       682-3.55986E+01-2.14779E-01 5.14875E-02 1.05818E+00 9.70509E-02-1.13626E+00
 -1       683-2.66729E+01-2.65540E-01-9.25511E-02 4.91540E-01-4.57080E-02-1.25515E+00
 -1       684-2.19159E+01 1.39607E-01 2.76445E-01 1.71413E-01 1.10420E-02-1.29732E+00
 -1       685-5.49160E+01-6.51539E-02 3.54156E-02 1.10884E+00 1.56655E-01-1.08380E+00
 -1       686-4.55386E+01-7.13344E-02-5.94276E-03 1.04504E+00-1.47337E-01-1.02643E+00
 -1       687-4.06720E+01-4.02850E-01 8.64283E-03 7.36654E-01-4.59644E-02-1.37956E+00
 -1       688-7.43589E+01 1.20816E-02 1.13528E-01 1.15740E+00 1.58177E-01-1.03115E+00
 -1       689-6.48723E+01 3.56791E-02-2.46360E-02 1.15117E+00-2.23930E-01-1.01285E+00
 -1       690-6.00942E+01-5.69902E-02 6.81994E-02 7.89194E-01-9.44974E-02-1.40846E+00
 -1       691-9.45652E+01 2.26535E-01-1.88286E-02 5.21412E-01 8.23521E-02-1.29697E+00
 -1       692-8.41366E+01 2.82070E-01 2.28098E-01 9.82674E-01-2.23112E-01-1.13395E+00
 -1       693-7.88945E+01 2.88438E-01 2.59631E-01 7.07494E-01 6.49603E-02-1.43279E+00
 -1       694-1.13573E+02-3.25063E-01-1.03549E-01 1.38104E+00 1.55977E-01-1.19648E+00
 -1       695-1.03976E+02-3.29026E-01-1.55699E-01 5.88799E-01-2.96402E-02-1.28177E+00
 -1       696-9.89336E+01 2.83193E-01 2.20768E-01 3.89855E-01 6.74019E-02-1.31241E+00
 -1       697-1.33695E+02 3.27126E-01 2.28193E-01 5.13454E-01 9.59396E-03-1.54032E+00
 -1       698-1.24264E+02 1.75487E-01 7.19648E-02 1.43655E+00-3.20041E-01-1.04716E+00
 -1       699-1.19622E+02-4.15725E-01-2.10883E-01 1.41184E+00-1.92392E-01-1.19997E+00
 -1       700-1.53842E+02 1.78898E-01-1.55684E-01 4.38925E-01 7.49553E-02-1.43240E+00
 -1       701-1.43310E+02-1.09678E-01 6.29013E-02 4.70068E-01-1.31092E-01-1.38237E+00
 -1       702-1.37648E+02 4.94311E-01 6.37360E-01 8.65078E-01-5.70928E-02-1.14475E+00
 -1       703-1.72651E+02 4.79034E-02-1.71956E-01 8.87765E-02 4.18304E-02-8.88706E-01
 -1       704-1.63286E+02-1.78570E-01-1.87106E-01 4.55778E-01-8.31773E-02-1.07456E+00
 -1       705-1.58729E+02-1.35528E-01-1.36100E-01 6.76738E-01-1.02807E-01-1.10707E+00
 -1       706-1.74866E+02 2.94988E-01 1.83048E-01 3.78187E-02-8.44462E-03-9.60328E-01
 -1       707 2.65152E+02 2.68967E+00 9.23992E+00-9.67325E-01-9.85960E-01-8.34023E+00
 -1       708 2.64939E+02 1.57290E+00 5.05242E+00 1.66422E+00 2.82019E-01-3.85506E+00
 -1       709 2.61836E+02 3.62936E-01 1.58590E+01-3.75495E-01 1.06787E+00-1.26261E+01
 -1       710 2.58756E+02-1.72250E-01 1.57258E+00 9.48833E-01 2.58807E-01-1.85703E+00
 -1       711 2.56007E+02-1.92464E-01 1.45733E+00 8.51657E-01-9.66219E-02-7.54552E-01
 -1       712 2.61687E+02 1.92630E-01 5.96496E+00 1.28106E+00 1.52602E+00-3.48946E+00
 -1       713 2.52672E+02-1.60098E-01 5.87360E-01 2.10888E-01 3.95559E-02-6.92561E-02
 -1       714 2.49874E+02-1.19623E-01 3.95580E-01 3.61568E-01 5.38788E-03 9.19649E-02
 -1       715 2.54768E+02-2.08696E-01 2.33713E+00 7.43330E-01 2.18353E-01-8.75100E-01
 -1       716 2.47162E+02-2.90185E-02 3.82899E-01 2.75476E-01 1.62576E-01 2.55307E-01
 -1       717 2.44512E+02-3.08306E-02 2.79588E-01 1.57100E-01 6.71066E-02 3.59291E-01
 -1       718 2.48647E+02-6.80363E-02 8.49936E-01 3.10053E-01 1.75123E-01 1.15837E-01
 -1       719 2.41812E+02-1.82679E-01 2.02168E-01 1.09327E-01 6.57635E-02 3.94998E-01
 -1       720 2.38926E+02-1.98120E-01 2.30490E-01 4.22017E-01 2.32026E-02 3.81893E-01
 -1       721 2.43192E+02-1.96156E-02 6.29979E-01-3.25169E-02 1.14151E-01 4.06798E-01
 -1       722 2.35609E+02 2.81875E-02 3.33079E-01 3.43055E-01 1.85244E-01 3.57121E-01
 -1       723 2.31930E+02 5.56009E-04 2.49259E-01 1.64610E-01 4.56360E-02 4.85172E-01
 -1       724 2.37287E+02-1.66427E-01 5.88049E-01 3.30459E-01 1.42060E-01 4.58419E-01
 -1       725 2.28487E+02-2.15114E-01 1.79905E-01 1.98917E-01 6.34919E-02 4.99988E-01
 -1       726 2.24565E+02-2.24330E-01 1.98093E-01 6.32260E-01-2.10570E-02 4.95197E-01
 -1       727 2.30216E+02-2.37724E-02 5.79393E-01 2.34207E-02 8.38418E-02 5.21001E-01
 -1       728 2.19972E+02-5.95122E-02 1.85378E-01 7.05281E-01 1.92212E-01 5.12844E-01
 -1       729 2.16161E+02 1.37529E-01 4.18540E-01 3.87483E-01 6.37400E-02 6.37711E-01
 -1       730 2.21897E+02-2.53140E-01 4.27365E-01 7.01528E-01 1.43671E-01 5.55243E-01
 -1       731 2.11492E+02-1.97959E-01 3.25715E-01 1.53726E-01 1.68110E-01 7.31847E-01
 -1       732 2.06188E+02-1.47390E-02 1.34812E-01 1.90471E-01 1.53729E-02 7.01028E-01
 -1       733 2.14075E+02 2.25466E-01 6.59006E-01 4.05012E-01 8.08616E-02 6.79907E-01
 -1       734 2.01421E+02-2.16029E-01 1.16759E-01 2.37708E-01 6.38719E-02 6.79298E-01
 -1       735 1.96408E+02-1.76440E-01 2.00528E-01 6.32352E-01-9.85697E-03 6.38628E-01
 -1       736 2.03928E+02 4.47440E-02 5.31459E-01 4.74878E-02 8.21982E-02 6.95803E-01
 -1       737 1.90680E+02-9.84070E-02 1.53291E-01 6.29659E-01 1.27073E-01 5.86937E-01
 -1       738 1.85026E+02-1.07789E-01 1.89765E-01 7.83502E-01-8.08515E-02 6.65586E-01
 -1       739 1.93524E+02-2.52993E-01 4.28063E-01 4.76056E-01 9.16926E-02 7.87104E-01
 -1       740 1.78700E+02-3.19076E-02 1.13829E-01 9.50879E-01 2.12023E-01 7.25873E-01
 -1       741 1.73440E+02 2.31587E-01 4.40396E-01 5.04098E-01 5.37954E-02 9.01192E-01
 -1       742 1.81278E+02-1.97143E-01 2.79864E-01 8.42120E-01 1.45283E-01 8.03528E-01
 -1       743 1.67101E+02-2.91895E-01 1.73394E-01 2.88299E-01 1.54444E-01 9.64402E-01
 -1       744 1.60546E+02 3.81433E-02 1.01595E-01 6.53469E-01-3.96130E-02 7.42863E-01
 -1       745 1.70679E+02 2.90825E-01 6.04434E-01 6.01982E-01 5.87718E-02 9.32523E-01
 -1       746 1.53769E+02 1.14274E-03 1.15152E-01 6.25061E-01 7.45951E-02 7.73929E-01
 -1       747 1.47417E+02-5.92779E-02 1.90606E-01 6.96526E-01-2.27985E-02 7.93621E-01
 -1       748 1.57563E+02 2.75578E-01 4.64003E-01 3.83517E-01 8.78620E-02 9.72118E-01
 -1       749 1.40436E+02-9.18609E-02 1.78294E-01 7.14711E-01 2.18746E-01 8.46094E-01
 -1       750 1.33101E+02 1.51972E-01 2.02916E-01 4.83517E-01-3.04844E-02 8.95678E-01
 -1       751 1.43478E+02-2.54152E-01 2.79459E-01 3.98213E-01 3.64723E-02 1.03941E+00
 -1       752 1.26064E+02-2.63500E-01 8.98192E-02 2.49867E-01 7.22547E-02 1.03971E+00
 -1       753 1.18885E+02-2.09447E-01 5.92704E-02 7.57407E-01-4.93625E-02 8.38207E-01
 -1       754 1.29722E+02 1.26799E-01 2.19984E-01 1.76163E-01 1.15291E-02 1.07933E+00
 -1       755 1.10979E+02-5.80320E-02 1.25760E-01 8.50745E-01 1.43057E-01 8.19944E-01
 -1       756 1.03436E+02-3.04655E-02 1.48407E-01 8.95920E-01-1.03692E-01 8.61327E-01
 -1       757 1.14701E+02-3.13568E-01 2.47762E-01 5.71908E-01 1.22744E-01 1.08568E+00
 -1       758 9.54589E+01 2.90662E-02 6.00539E-07 8.70480E-01 1.49746E-01 8.55083E-01
 -1       759 8.76769E+01 3.74282E-04 1.26554E-01 8.45974E-01-1.45676E-01 8.61337E-01
 -1       760 9.92464E+01-6.89204E-02 1.48642E-01 5.95094E-01 6.46707E-02 1.18581E+00
 -1       761 7.90087E+01 2.54672E-01 2.04083E-01 7.90221E-01 1.19135E-01 9.43728E-01
 -1       762 7.08422E+01 2.38942E-01 5.50602E-02 2.72849E-01-4.62792E-02 1.18036E+00
 -1       763 8.36545E+01 2.72182E-01 2.68812E-01 6.24459E-01-1.02591E-01 1.14636E+00
 -1       764 6.27720E+01-2.93751E-01-7.22125E-02 5.79572E-01-1.05160E-02 1.07240E+00
 -1       765 5.49203E+01-7.03788E-02 1.80064E-01 1.24610E+00-2.04497E-01 1.04008E+00
 -1       766 6.64452E+01-2.26369E-01 1.06985E-01 2.64778E-01-7.80130E-04 1.25727E+00
 -1       767 4.56416E+01 1.21917E-01 6.70424E-02 1.07963E+00 2.52071E-01 9.29334E-01
 -1       768 3.70058E+01 2.84119E-02 1.91819E-01 1.00680E+00-1.05873E-01 9.47558E-01
 -1       769 5.05425E+01 3.47798E-02 3.25738E-01 1.06883E+00 6.01259E-02 1.19501E+00
 -1       770 2.80408E+01 4.69035E-02 4.40308E-02 9.69713E-01 1.67276E-01 1.00386E+00
 -1       771 1.93079E+01 9.55587E-02 8.57555E-02 9.71429E-01-1.10229E-01 9.79380E-01
 -1       772 3.27779E+01 1.61385E-01 2.97077E-01 6.33995E-01 1.82268E-03 1.32470E+00
 -1       773 9.98917E+00 2.56199E-01 1.87182E-01 8.30015E-01 1.26140E-01 1.06031E+00
 -1       774 1.00785E+00 2.95362E-01 6.59392E-02 3.09363E-01-1.39884E-02 1.29884E+00
 -1       775 1.49842E+01 3.55068E-01 2.22236E-01 5.80416E-01-4.34444E-02 1.31696E+00
 -1       776-7.79851E+00-3.03255E-01-5.09831E-02 6.56420E-01 1.26872E-02 1.09167E+00
 -1       777-1.73088E+01-2.00812E-01-3.08020E-02 1.20460E+00-2.36616E-01 1.18125E+00
 -1       778-3.43827E+00-2.04805E-01 1.18845E-01 2.69279E-01 5.44348E-02 1.32676E+00
 -1       779-2.73461E+01 2.20119E-02-1.12032E-01 1.49454E+00 2.77258E-01 1.14608E+00
 -1       780-3.55815E+01 4.31565E-01 4.08289E-01 7.27211E-01 2.96374E-02 1.33938E+00
 -1       781-2.31023E+01-3.42061E-01-1.53502E-01 1.31842E+00 1.99876E-01 1.28186E+00
 -1       782-4.51502E+01-2.36314E-01 2.40721E-01 3.31089E-01 1.55067E-01 1.45253E+00
 -1       783-5.53773E+01 1.96807E-01-1.04423E-01 2.93930E-01-7.83885E-02 1.46267E+00
 -1       784-3.96201E+01 4.89142E-01 4.48210E-01 1.03145E+00-1.32328E-02 1.30035E+00
 -1       785-6.46073E+01-3.34501E-01-1.33169E-01 6.16475E-01 6.53135E-02 1.22047E+00
 -1       786-7.43501E+01-1.55032E-01 4.21376E-02 1.30812E+00-2.24987E-01 1.09651E+00
 -1       787-6.00574E+01-2.20524E-01-2.02790E-02 7.14659E-01 1.83464E-01 1.24347E+00
 -1       788-8.47777E+01 2.09892E-01 1.10907E-01 1.27728E+00 2.83337E-01 1.11444E+00
 -1       789-9.44403E+01 2.49616E-01 1.00292E-01 5.11425E-01-3.69278E-02 1.34467E+00
 -1       790-7.94139E+01 6.53061E-02-1.54457E-02 1.23092E+00-9.49852E-03 1.37165E+00
 -1       791-1.03832E+02-2.99023E-01-9.63881E-02 5.56469E-01 5.61247E-02 1.33155E+00
 -1       792-1.13246E+02-3.69798E-01-3.89588E-02 1.27045E+00-1.30232E-01 1.21184E+00
 -1       793-9.86635E+01 1.41751E-01 3.34977E-01 2.62622E-01-2.80631E-03 1.39229E+00
 -1       794-1.23836E+02 1.81011E-02-3.93608E-02 1.29801E+00 2.50052E-01 1.10289E+00
 -1       795-1.33737E+02 3.52129E-01 1.78077E-01 6.68229E-01-6.63475E-02 1.24771E+00
 -1       796-1.18833E+02-5.08866E-01-8.61466E-02 1.13906E+00 1.50409E-01 1.41855E+00
 -1       797-1.43182E+02-2.68173E-01 2.44476E-02 4.74565E-01 8.72642E-02 1.53588E+00
 -1       798-1.53639E+02 4.68326E-02-2.17301E-01 3.63205E-01-7.66887E-02 1.25268E+00
 -1       799-1.38538E+02 9.07779E-02-1.39208E-01 9.24802E-01-1.13782E-01 1.21654E+00
 -1       800-1.62821E+02-1.28784E-01-6.77137E-02 2.53538E-01 1.05253E-01 1.15396E+00
 -1       801-1.72723E+02-3.51546E-02-3.94857E-01-7.91992E-02-3.40917E-02 8.42277E-01
 -1       802-1.58534E+02-3.21085E-01-5.78321E-01 5.95881E-01 8.85503E-03 9.84681E-01
 -1       803-1.74605E+02 3.91059E-01 2.08998E-01-2.67913E-01-8.66165E-03 8.91951E-01
 -1       804-7.60602E+00 9.68753E-02 2.67214E-01 7.48401E-01 2.64312E-01-6.92431E-01
 -1       805 1.13170E+00-2.17097E-01 5.02530E-02 4.79893E-01-1.30373E-01-8.58577E-01
 -1       806 1.03929E+01 2.38494E-01 3.01568E-01 4.37302E-01 5.32738E-02-9.01193E-01
 -1       807 1.88522E+01 3.26931E-02 1.88525E-01 9.50067E-01-2.52263E-01-6.17919E-01
 -1       808 5.73928E+00 5.57072E-02 2.03027E-01 9.11043E-01-9.07624E-02-2.00248E-02
 -1       809-6.52499E+01-9.97793E-02 4.72632E-03 9.22875E-01 1.25652E-01-9.51474E-01
 -1       810-5.52777E+01-1.28254E-01-1.06537E-01 9.51295E-01-2.25035E-01-1.02055E+00
 -1       811-8.39381E+01 2.63290E-01 1.88779E-02 7.70528E-01 1.81840E-01-1.03973E+00
 -1       812-7.35877E+01-1.00045E-01 2.61154E-01 7.96350E-01-1.73428E-01-1.26982E+00
 -1       813-6.94943E+01 1.53794E-02 1.84599E-01 1.73611E+00 2.21803E-01 1.21678E-01
 -1       814-1.32807E+02-5.30952E-03 1.77041E-01 1.04736E+00 2.17610E-01 8.27905E-01
 -1       815-1.43500E+02 6.77555E-02-1.70664E-01 1.30719E+00-1.43217E-01 7.70719E-01
 -1       816-1.52893E+02-1.49863E-01-1.06818E-01 1.24983E+00 1.38293E-01 8.06337E-01
 -1       817-1.48457E+02-8.07063E-02-3.23201E-01 1.37981E+00-5.34223E-02 9.60909E-03
 -1       818-1.62913E+02 9.46451E-02-2.09070E-01 8.41380E-01-1.64455E-01 9.89643E-01
 -1       819 6.33415E+01-1.81118E-01 1.93018E-01 7.83266E-01 1.24453E-01-7.95880E-01
 -1       820 7.11365E+01-7.13787E-02 3.29120E-01 6.51253E-01-2.21592E-02-7.92594E-01
 -1       821 7.96330E+01 3.49790E-01 4.96326E-01 9.68908E-01 1.19717E-01-9.05886E-01
 -1       822 8.85484E+01 2.90549E-01 6.24636E-01 1.11647E+00-3.18804E-02-6.35811E-01
 -1       823 7.58237E+01 1.81388E-01 1.91765E-01 1.20257E+00 7.33505E-02-9.66762E-02
 -1       824 5.47151E+01-2.52929E-02 2.84798E-01 1.02867E+00 6.63771E-02 8.02135E-01
 -1       825 4.55485E+01 1.30045E-01 2.95273E-01 7.94317E-01-1.61059E-01 9.75038E-01
 -1       826 3.77297E+01 4.66542E-02 5.44129E-01 6.34571E-01 1.94444E-01 8.42098E-01
 -1       827 2.81684E+01 1.31235E-01 2.33749E-01 5.81442E-01-1.01597E-01 7.83405E-01
 -1       828 4.18494E+01-1.37561E-01-2.97595E-01 1.48458E+00 8.48517E-03 3.04308E-02
 -1       829-1.72939E+01-2.15570E-01-7.48897E-02 8.76562E-01 3.12285E-01 8.51057E-01
 -1       830-2.77818E+01-2.38822E-01-7.25700E-02 1.20480E+00 5.39650E-03 5.44528E-01
 -1       831-3.47487E+01 4.78156E-01 3.25229E-01 1.99597E+00 1.06913E-01 6.71818E-01
 -1       832-4.49557E+01 2.93638E-01-7.28332E-02 1.38938E+00-2.35096E-01 7.45077E-01
 -1       833-3.13284E+01-2.11687E-01-7.96821E-02 1.03646E+00-1.12186E-01-9.77787E-02
 -1       834-1.13633E+02-3.72301E-01-1.24151E-01 9.80666E-01 9.54809E-02 1.10661E+00
 -1       835-1.24250E+02-1.06758E-01-1.87936E-01 1.00507E+00-1.14622E-01 1.08579E+00
 -1       836-9.40266E+01 5.70705E-01 2.62462E-01 1.36596E+00 2.02902E-01 7.02180E-01
 -1       837-1.03605E+02-4.33407E-02-5.72236E-02 5.48891E-01-3.70371E-02 7.79253E-01
 -1       838-1.09263E+02-1.21981E-01 3.10998E-01 1.39737E+00-5.01096E-02-7.25923E-02
 -1       839 1.18760E+02-2.58481E-01 5.17505E-01 5.43997E-01 1.27872E-01 6.17904E-01
 -1       840 1.10807E+02-8.14629E-03 4.11332E-01 5.48260E-01-1.33117E-01 8.27632E-01
 -1       841 1.03416E+02-6.28433E-02 3.41193E-01 5.52227E-01 1.51680E-01 6.51605E-01
 -1       842 9.46059E+01 6.72218E-02-2.39233E-03 4.84187E-01-1.38627E-01 7.59616E-01
 -1       843 1.07486E+02 2.02504E-01 5.79425E-01 9.45543E-01 2.90737E-02-7.42643E-02
 -1       844 2.41962E+02-1.74648E-02 8.28225E-01 2.49136E-01-2.23268E-02-2.82175E-01
 -1       845 2.44677E+02-1.96496E-02 9.56412E-01 2.66354E-01-4.28079E-02-1.89316E-01
 -1       846 2.38763E+02-1.11628E-01 7.23179E-01 3.47227E-01-1.40278E-01-3.63599E-01
 -1       847 2.40144E+02-8.78759E-02 1.01263E+00 3.83355E-01-1.33485E-02-4.51874E-02
 -1       848 2.35176E+02-1.32311E-01 6.48544E-01 5.53401E-01-3.07936E-02-2.53188E-01
 -1       849 2.19272E+02-3.06866E-01 4.14755E-01 8.20870E-01-2.79565E-03-2.92865E-01
 -1       850 2.24325E+02-8.02544E-02 8.17601E-01 5.83508E-01-9.62787E-02-2.62091E-01
 -1       851 2.28522E+02 8.24998E-02 7.00491E-01 4.83461E-01 4.75508E-02-2.50212E-01
 -1       852 2.32399E+02 1.61663E-01 7.91102E-01 6.70342E-01-1.29274E-01-2.57605E-01
 -1       853 2.26457E+02 4.54041E-03 9.37147E-01 5.22414E-01 4.03956E-02 5.23669E-02
 -1       854 2.56450E+02 1.13296E-01 4.32252E+00 1.03786E+00 8.59389E-02-9.96529E-01
 -1       855 2.52507E+02-1.72903E-02 2.45305E+00 6.95243E-01 6.97576E-02-9.96678E-02
 -1       856 2.50988E+02-1.20214E-02 2.26002E+00 7.42308E-01-1.51564E-02 3.77187E-02
 -1       857 2.50034E+02-3.11802E-02 1.56758E+00 3.03061E-01 1.25448E-01 4.38951E-02
 -1       858 2.47251E+02-1.23846E-01 1.07949E+00 3.63934E-01 1.53543E-02 1.88995E-01
 -1       859 1.77985E+02-3.90221E-01 2.07203E-01 1.12803E+00 2.80989E-02-4.24188E-01
 -1       860 1.84690E+02-1.87020E-01 6.18796E-01 6.47441E-01-1.51794E-01-4.01254E-01
 -1       861 1.90967E+02-7.89422E-02 6.03160E-01 6.33280E-01 1.03410E-01-3.09837E-01
 -1       862 1.96038E+02-4.52977E-02 5.69745E-01 3.15139E-01-3.78585E-02-5.31493E-01
 -1       863 1.87937E+02 9.69987E-02 8.62724E-01 7.16148E-01 7.30717E-02 6.88033E-02
 -1       864 1.54155E+02 8.62760E-02 4.35127E-01 3.19704E-01-3.42944E-02-6.50650E-01
 -1       865 1.60107E+02 1.62779E-01 4.56233E-01 4.81663E-01-1.64240E-01-5.25165E-01
 -1       866 1.47357E+02-2.39177E-01 4.78549E-01 3.81743E-01-1.37818E-01-6.51798E-01
 -1       867 1.50675E+02-2.86624E-02 6.13513E-01 6.48225E-01-5.59369E-02 1.84285E-02
 -1       868 1.40336E+02 5.50486E-02 4.07215E-01 5.36677E-01 8.35542E-02-7.39995E-01
 -1       869 2.11411E+02 1.05940E-01 8.36379E-01 4.41910E-01 9.15286E-02-4.29887E-01
 -1       870 2.16626E+02 1.81590E-01 9.65803E-01 5.08698E-01-6.65639E-02-2.16070E-01
 -1       871 2.01375E+02 1.81849E-01 6.22753E-01 3.19823E-01 5.68818E-02-4.76170E-01
 -1       872 2.06323E+02-6.82360E-03 6.39391E-01 3.99297E-01-1.33522E-01-4.97243E-01
 -1       873 2.08734E+02-9.62032E-02 5.80348E-01 6.64647E-01 7.45144E-02-6.25151E-02
 -1       874 2.63305E+02 1.33254E+00 1.32371E+01 1.93697E+00 6.95605E-01-3.06012E+00
 -1       875 2.60714E+02 2.71909E-01 8.33721E+00 1.97594E+00-7.91002E-03-1.37638E+00
 -1       876 2.65784E+02 5.48536E-01 1.96010E+01 1.15892E+00 4.43582E-01-3.67281E+00
 -1       877 2.64225E+02 3.75404E-01 2.03068E+01 1.92856E+00-1.70182E-01 1.58965E-01
 -1       878 2.62979E+02 1.11608E+00 2.40191E+01-5.16687E-01-3.78951E-02-8.58467E+00
 -1       879 2.61757E+02 9.39476E-01 3.10115E+01 1.00305E-01-5.57659E-01-3.58429E+00
 -1       880 2.52320E+02-9.35953E-02 2.26068E+00 1.02253E+00-1.34788E-01 2.00985E-01
 -1       881 2.56139E+02 1.02430E-01 4.11723E+00 1.03589E+00-1.48287E-01 1.03780E+00
 -1       882 2.60688E+02 3.68957E-01 8.24934E+00 2.14303E+00-8.09635E-02 1.28195E+00
 -1       883 2.58640E+02-1.69575E-03 6.67214E+00 1.71683E+00 9.45392E-03-7.12945E-03
 -1       884 2.63426E+02 1.28432E+00 1.31330E+01 1.81192E+00-5.76443E-01 3.17452E+00
 -1       885-1.63132E+02 3.05478E-02-3.07632E-01 7.42186E-01 1.08761E-01-8.08728E-01
 -1       886-1.53066E+02-1.09299E-01-2.51111E-01 1.27225E+00-9.57687E-02-8.82784E-01
 -1       887-1.69137E+02 1.12673E-01 7.98530E-02 1.90141E-01-3.73491E-02-6.14478E-01
 -1       888-1.63736E+02 4.47409E-01 7.86987E-01 4.02506E-01 7.92350E-03 3.48983E-02
 -1       889-1.73157E+02 6.56152E-01 4.57082E-01-2.71918E-01-1.39977E-01-7.29230E-01
 -1       890-1.74126E+02 4.64283E-01 6.57038E-01-5.55353E-01-1.67001E-02-4.15594E-01
 -1       891 1.11294E+02 2.73001E-01 2.70522E-01 1.13074E+00 1.96270E-01-4.99724E-01
 -1       892 1.19407E+02 3.32261E-01 4.87215E-01 1.53901E+00-1.30771E-01-6.26487E-01
 -1       893 1.25118E+02-2.18427E-01 2.30483E-01 9.24394E-01-2.09363E-02-4.57716E-01
 -1       894 1.33108E+02-1.53726E-01 3.12294E-01 6.79586E-01-2.49900E-01-6.89618E-01
 -1       895 1.22239E+02-1.64123E-01 2.61921E-01 8.27424E-01 7.41362E-02 3.78479E-02
 -1       896-1.43412E+02 1.84681E-01-2.40216E-01 1.18833E+00 2.48119E-01-6.52276E-01
 -1       897-1.32005E+02 5.20587E-01 3.78484E-01 1.95427E+00-2.06708E-01-6.94697E-01
 -1       898-1.24829E+02-3.19132E-01-3.70055E-01 1.36769E+00 3.84867E-03-7.74019E-01
 -1       899-1.13895E+02-3.95560E-01-1.20905E-01 1.18357E+00-2.06664E-01-1.05033E+00
 -1       900-1.28036E+02-2.41154E-01-6.03472E-01 1.72260E+00-2.71443E-02 4.30541E-02
 -1       901 2.32141E+02 1.34945E-01 8.39558E-01 1.88529E-01 1.43314E-01 3.30249E-01
 -1       902 2.28507E+02 1.03611E-02 7.73364E-01 2.55121E-01 3.16333E-02 3.22547E-01
 -1       903 2.38874E+02-1.31094E-01 7.90412E-01 2.91261E-01 6.88214E-02 3.41267E-01
 -1       904 2.35479E+02-1.32388E-02 7.49745E-01 3.38768E-01-2.66933E-02 3.87365E-01
 -1       905 2.33849E+02-1.08050E-01 5.52115E-01 6.54875E-01-2.18410E-02 1.65827E-02
 -1       906 1.84903E+02-1.35377E-01 3.90442E-01 5.59811E-01 2.23786E-01 5.23605E-01
 -1       907 1.78173E+02-2.56706E-01 2.22218E-01 8.41947E-01-1.01339E-02 2.43443E-01
 -1       908 1.73803E+02 3.32626E-01 7.35815E-01 1.13572E+00 1.04809E-01 4.33456E-01
 -1       909 1.67335E+02 2.43099E-01 4.82097E-01 6.73761E-01-6.08162E-02 4.97306E-01
 -1       910 1.75954E+02-2.00606E-02 5.36883E-01 8.66910E-01-1.07660E-01 3.35974E-02
 -1       911 1.32657E+02 9.56446E-02 3.12265E-01 6.03304E-01 1.86481E-01 5.35989E-01
 -1       912 1.26128E+02 7.29787E-02 3.43424E-01 3.55521E-01-9.21305E-03 7.74782E-01
 -1       913 1.40477E+02 4.60167E-02 5.00273E-01 5.96643E-01-1.46330E-01 5.19013E-01
 -1       914 1.36694E+02 1.36837E-01 6.71909E-01 8.39602E-01-1.15197E-01-7.42104E-02
 -1       915 1.47188E+02-1.66024E-01 4.25400E-01 3.54925E-01 9.42763E-02 6.63196E-01
 -1       916 2.16251E+02 1.94711E-01 7.75559E-01 8.35519E-01 1.02058E-01 3.15107E-01
 -1       917 2.11606E+02 2.27117E-01 6.55521E-01 4.72306E-01-4.27228E-02 3.64522E-01
 -1       918 2.24522E+02-1.39198E-01 6.26002E-01 4.62149E-01 1.64694E-01 3.39184E-01
 -1       919 2.19563E+02-1.52208E-01 4.78644E-01 6.50050E-01 1.48971E-02 1.65375E-01
 -1       920 2.17833E+02-3.01107E-02 6.71376E-01 6.34269E-01-7.69139E-02 4.23127E-02
 -1       921 1.96346E+02-1.92737E-01 6.77181E-01 3.49708E-01 7.45278E-02 4.64852E-01
 -1       922 1.90664E+02 4.30657E-02 5.96540E-01 4.53730E-01-5.99548E-02 5.77190E-01
 -1       923 2.05963E+02 6.52574E-02 5.81802E-01 5.28513E-01 2.15065E-01 3.32167E-01
 -1       924 2.01441E+02 2.66291E-02 6.72967E-01 2.15510E-01 2.15198E-02 4.53411E-01
 -1       925 1.98778E+02 1.47220E-03 7.53178E-01 5.14179E-01 6.29586E-02-1.66190E-02
 -1       926 2.61107E+02 1.10251E+00 2.94303E+01-5.02631E-01-1.03222E+00 3.63804E+00
 -1       927 2.62833E+02 2.54397E+00 2.44426E+01-6.41473E-01-2.90806E-01 8.21433E+00
 -1       928 2.65766E+02 3.69210E-01 1.95332E+01 1.06552E+00-2.93009E-01 3.83066E+00
 -1       929-1.74993E+02 2.91236E-01 4.61849E-01-2.11183E-01 3.18745E-02 2.43833E-01
 -1       930-1.73979E+02 4.22635E-01 3.69329E-01-3.92969E-02 4.91053E-02 9.38504E-01
 -1       931-1.69212E+02 8.82566E-02 1.36093E-01 2.49132E-01 7.44769E-02 6.79919E-01
 -1       932 1.04168E+00-1.18655E-01 2.24474E-01 5.04916E-01 8.10945E-03 9.14294E-01
 -1       933-7.47909E+00-1.27220E-01 1.86353E-01 6.61916E-01-1.38727E-01 7.88750E-01
 -1       934 1.93888E+01 4.29906E-02 2.13855E-01 6.32696E-01 1.71995E-01 8.78920E-01
 -1       935 1.02783E+01 3.44377E-01 1.69033E-01 5.21336E-01-1.54361E-01 8.43818E-01
 -1       936-5.54058E+01-2.34840E-01 1.13158E-01 1.25805E+00 1.13925E-01 1.04945E+00
 -1       937-6.51912E+01-1.88642E-02-9.19578E-02 8.98592E-01-1.65150E-01 1.16267E+00
 -1       938-7.37900E+01-8.75506E-02 2.00642E-01 1.08800E+00 2.14209E-01 9.15366E-01
 -1       939-8.44889E+01 9.83305E-02 2.28694E-01 1.18648E+00-1.31664E-01 9.34147E-01
 -1       940 7.08533E+01 5.21505E-02 3.68302E-01 4.45087E-01 7.12968E-02 7.04011E-01
 -1       941 6.26016E+01-4.97547E-01 5.78892E-02 1.17376E+00-1.19424E-01 5.05338E-01
 -1       942 8.79041E+01-1.14308E-02 3.79568E-01 5.09959E-01 1.03236E-01 9.32527E-01
 -1       943 7.95445E+01 3.04806E-01 4.05053E-01 6.68299E-01-1.38967E-01 9.39845E-01
 -1       944 4.46161E+01-2.63911E-01-6.92727E-02 1.24693E+00-6.49678E-03-6.76653E-01
 -1       945 5.39280E+01-3.36636E-01-4.41662E-02 9.34437E-01-2.85337E-01-1.02440E+00
 -1       946 2.86616E+01 3.01915E-01 1.84929E-01 9.59421E-01 1.74128E-01-6.43833E-01
 -1       947 3.82715E+01 5.39961E-01 5.96808E-01 1.66633E+00-1.55500E-01-4.99409E-01
 -1       948-2.65359E+01 7.65788E-02 7.18239E-03 4.66572E-01 2.72141E-02-9.19949E-01
 -1       949-1.79456E+01 3.09494E-02 3.57620E-02 7.90927E-01-2.21007E-01-8.27412E-01
 -1       950-4.56257E+01-6.49195E-03 1.52916E-01 7.17661E-01 2.02364E-01-1.07479E+00
 -1       951-3.57014E+01-3.48067E-01 2.26158E-01 7.14870E-01-6.09612E-02-7.66006E-01
 -1       952 2.47391E+02 9.18851E-03 1.18305E+00 3.58439E-01 1.57963E-02-2.14786E-01
 -1       953 2.50315E+02 8.79983E-02 1.65498E+00 3.74183E-01-1.15744E-01 2.15831E-02
 -1       954 2.46030E+02-1.89741E-01 1.05182E+00 4.50774E-01 5.32577E-02-4.32539E-02
 -1       955 2.41861E+02-9.79882E-03 7.92783E-01 1.04066E-01 3.85294E-02 2.01629E-01
 -1       956 2.44521E+02 1.80864E-01 8.85457E-01 3.51132E-01 1.61914E-01 1.74819E-01
 -1       957-1.26165E+01 1.43820E-01 4.10960E-01 1.12927E+00 1.67871E-01 5.22860E-02
 -1       958 9.40020E+01-5.08853E-01-9.11240E-02 1.54832E+00 1.10205E-01-4.59031E-01
 -1       959 1.03131E+02-1.25204E-01 4.86778E-01 1.09746E+00-1.25318E-01-5.55678E-01
 -1       960 5.81697E+01 1.97848E-02 6.86793E-01 1.24411E+00-5.97866E-02-1.39954E-01
 -1       961 1.67045E+02 1.85808E-01 7.98436E-01 5.86380E-01 1.67844E-01-5.66642E-01
 -1       962 1.74119E+02 2.24748E-01 8.92443E-01 7.48495E-01-8.37674E-02-2.85040E-01
 -1       963 1.63619E+02-7.89810E-02 4.00506E-01 8.63500E-01 9.94442E-02-6.05408E-02
 -1       964 1.60163E+02 6.40048E-03 4.11605E-01 6.96265E-01 2.33905E-01 4.44314E-01
 -1       965 1.54079E+02 1.57535E-01 5.96710E-01 3.35656E-01-4.45766E-02 6.46328E-01
 -1       966-5.05741E+01 6.78042E-02 1.96230E-01 1.48280E+00-1.28267E-01-1.96628E-02
 -1       967-1.03712E+02 5.84779E-02-5.04442E-04 7.29800E-01 2.92755E-02-8.82504E-01
 -1       968-9.43793E+01 2.49602E-01 8.96261E-02 8.22015E-01-1.98807E-01-8.81907E-01
 -1       969-8.88006E+01-2.64459E-02-2.92738E-01 1.34294E+00 1.03871E-03 1.39930E-02
 -1       970 9.08515E+01 1.25832E-01 7.16288E-01 1.28690E+00-3.79676E-02 8.56950E-03
 -1       971 2.34873E+01-1.20058E-01 7.00942E-02 1.04018E+00-1.72421E-02-2.25750E-02
 -1       972-4.04228E+02-7.60102E-02 3.47921E-03 4.22324E-01 5.01906E-02 1.26005E+00
 -1       973-3.27920E+02-2.10528E-02-5.44411E-02 1.08716E+00-2.70518E-03 8.00870E-01
 -1       974-2.49237E+02-1.13070E-02 5.22160E-02 5.20666E-01 5.48377E-02-1.31389E+00
 -1       975-4.72671E+02-2.30518E-01 2.43591E-02 5.19421E-01 4.83311E-02 1.09841E+00
 -1       976-4.40484E+02 6.45978E-02 1.47405E-01 3.89043E-01 5.25789E-02 1.17314E+00
 -1       977-3.65761E+02-4.76856E-01-3.46536E-01 1.23894E+00-1.68956E-01 7.83451E-01
 -1       978-2.89283E+02 3.21187E-01 2.76987E-02 4.98933E-01-4.46743E-02-1.42599E+00
 -1       979-5.05574E+02-8.77155E-02 4.45557E-02 5.49855E-01-8.05954E-03-1.10051E+00
 -1       980-6.40308E+02-1.68050E-01 2.97833E-01 2.07944E-01 7.42743E-02 5.23354E-01
 -1       981-6.26179E+02-8.98688E-02 2.79265E-01 3.34535E-01 8.06267E-02 5.31803E-01
 -1       982-6.49827E+02-4.32303E-01 9.68210E-01 1.26943E-01-1.26682E-01-1.49748E+00
 -1       983-5.87200E+02-3.94942E-02 2.02020E-01 4.22503E-01 7.67643E-02 7.61892E-01
 -1       984-5.49594E+02-1.97013E-01 1.56146E-01 9.15964E-01 2.18244E-02 6.85992E-01
 -1       985-6.07714E+02-3.01329E-01 2.19901E-01 2.79482E-01 9.04139E-02 6.74302E-01
 -1       986-6.47669E+02 1.72555E+00-4.48180E+00-3.26197E+00-6.71636E-03 3.83510E+00
 -1       987-6.51152E+02-6.23509E-01 8.35069E-01-5.59000E-01 3.19258E-01 2.50507E+00
 -1       988-2.29519E+02-1.65952E-02 1.56355E-01 1.56686E-01-1.35493E-02 1.02438E+00
 -1       989-3.84731E+02-1.79177E-01-1.16806E-01 5.15232E-01-8.12582E-02-1.18026E+00
 -1       990-5.21240E+02 1.64737E-01 1.38784E-01 2.59788E-01 2.92735E-02 1.04003E+00
 -1       991-2.68442E+02-8.39637E-02-2.25105E-01 5.09553E-01-1.84908E-02 1.32806E+00
 -1       992-4.57819E+02 2.10504E-01 1.70062E-01 4.46936E-01 8.43306E-03-1.17477E+00
 -1       993-3.47942E+02 3.81847E-02-3.26897E-02 5.63464E-01-2.09657E-02-1.28751E+00
 -1       994-4.21487E+02-6.34116E-02 1.03706E-01 6.99299E-01 1.04800E-02-1.13774E+00
 -1       995-6.33209E+02-5.25933E-01 1.37057E-01 3.64182E-01-5.47791E-02-2.72191E-01
 -1       996-5.75629E+02 4.74132E-02 4.36291E-01 8.51183E-01-1.53131E-01-5.48200E-01
 -1       997-5.35809E+02 4.00934E-03 1.48650E-01 5.35081E-01-5.22552E-02-9.32624E-01
 -1       998-6.17746E+02-8.73415E-02 4.24032E-01 7.44812E-01-1.75089E-01-3.61985E-01
 -1       999-5.97455E+02-2.99893E-01 1.67844E-01 2.90592E-02-6.27145E-02-8.18101E-01
 -1      1000-6.42378E+02 5.17154E+01-6.04617E+01 1.97304E+00-1.38308E+00-1.62636E+01
 -1      1001-2.16951E+02-3.45329E+00-1.39072E+00-5.86183E-01-8.31957E-02-5.55527E-01
 -1      1002-6.50917E+02-4.64100E-01 8.89208E-01-7.56108E-01-1.51484E-01-2.71446E+00
 -1      1003-6.49779E+02-4.85261E-01 8.77023E-01 1.48080E-01 6.95636E-02 1.44803E+00
 -1      1004-6.45562E+02-2.96057E-01 4.62447E-01 2.05256E-01 6.89575E-02 6.95971E-01
 -1      1005-6.43342E+02-3.01222E-01 6.76260E-01 3.39053E-01-1.04452E-02-1.27718E-02
 -1      1006-2.48548E+02-1.15948E-01 1.32521E-01 5.11955E-01-2.60439E-02 1.34413E+00
 -1      1007-3.85839E+02 8.94630E-02 5.21788E-02 6.54805E-01 2.53992E-02 1.23560E+00
 -1      1008-3.28100E+02-4.93545E-02-7.93930E-02 6.00402E-01 6.15500E-02-1.29803E+00
 -1      1009-4.73692E+02-1.41627E-01-1.76731E-02 7.54867E-01-5.86827E-02-1.11563E+00
 -1      1010-5.20416E+02-5.29033E-01-1.08570E-01 1.15575E+00 1.12085E-01-5.56917E-01
 -1      1011-5.05957E+02-1.25968E-02 7.34038E-02 4.80383E-01 4.28516E-02 1.04346E+00
 -1      1012-4.56859E+02 3.14497E-02 8.31454E-02 5.22508E-01 4.25908E-02 1.22739E+00
 -1      1013-4.89754E+02 1.24701E-01 2.43703E-01 1.05659E+00-1.93150E-01-7.25840E-01
 -1      1014-6.17135E+02-5.33748E-01 2.92963E-02 4.81713E-01 3.30227E-02 3.95767E-01
 -1      1015-5.74821E+02-5.43075E-01-5.44056E-02 9.06761E-01-3.91080E-02 4.89438E-01
 -1      1016-5.63100E+02-8.72984E-02 1.76076E-01 5.59030E-01 1.60149E-02 9.49233E-01
 -1      1017-5.56396E+02-1.92127E-01 1.16851E-01 9.94338E-01-3.56218E-03 1.30434E-01
 -1      1018-5.87227E+02 1.61286E-02 1.71730E-01 6.02937E-01-1.09347E-01-6.97272E-01
 -1      1019-4.38716E+02-2.63297E-01-1.00460E-01 4.25750E-01-4.67774E-02-1.18450E+00
 -1      1020-3.47003E+02-7.15024E-02 2.00810E-02 8.45787E-01 3.22272E-02 1.33616E+00
 -1      1021-5.35069E+02-2.38244E-01 3.48412E-02 3.18086E-01 5.23174E-02 9.69118E-01
 -1      1022-2.69418E+02 3.21855E-02 1.08137E-01 5.45840E-01-5.10523E-02-1.27638E+00
 -1      1023-2.88886E+02 9.20546E-02 3.72557E-02 3.78511E-01 1.18383E-02 1.41926E+00
 -1      1024-6.07935E+02-1.82915E-01 2.78750E-01 2.93628E-01-5.55875E-02-6.67521E-01
 -1      1025-6.25732E+02-2.22724E-01 2.36253E-01 3.06490E-01-8.48173E-02-5.79932E-01
 -1      1026-3.08122E+02-2.07510E-01 3.42726E-02 9.82667E-01-3.41791E-02 1.23226E+00
 -1      1027-4.03754E+02-3.31965E-02 1.60630E-02 2.45928E-01-1.87440E-02-1.33873E+00
 -1      1028-6.33900E+02-1.59723E-01 2.90487E-01 2.37818E-01 9.63080E-02 4.62271E-01
 -1      1029-4.89234E+02-2.38742E-01-4.22552E-02 3.31936E-01 3.08840E-02 1.05703E+00
 -1      1030-5.98315E+02 6.46343E-02 2.53412E-01 1.88645E-01 5.75665E-02 7.84842E-01
 -1      1031-3.07368E+02-3.50834E-01-4.96262E-02 4.16529E-01-5.49202E-02-1.29502E+00
 -1      1032-4.22179E+02-3.74039E-02-3.92711E-02 5.01644E-01 2.65594E-02 1.22615E+00
 -1      1033-3.67082E+02 2.62058E-01 6.42755E-02 3.27404E-01-3.37919E-03-1.34247E+00
 -1      1034-6.55541E+02 2.76735E+00-2.10455E+00-3.04579E+00 7.60723E-02-1.75684E-01
 -1      1035-6.53506E+02-3.65349E-01 1.71405E+00-4.37842E-01-8.59260E-02-4.43710E-02
 -1      1036-6.40337E+02-5.70949E-02 3.36810E-01 2.41474E-01-6.10536E-02-5.04254E-01
 -1      1037-6.41267E+02 6.62509E+01-4.84706E+01-7.52005E+00-3.20113E-01 1.92994E+01
 -1      1038-5.61997E+02-3.95319E-01 1.11241E-01 3.85301E-01 6.27014E-03-9.02692E-01
 -1      1039-5.42246E+02-2.53340E-01 2.25390E-01 9.92527E-01-2.28508E-02-2.77961E-02
 -1      1040-2.40501E+02-1.21729E-01 1.39261E-01 1.19333E+00-2.98192E-02-9.40372E-02
 -1      1041-6.45455E+02-3.59765E-01 4.86697E-01 8.35788E-02-6.74028E-02-6.81830E-01
 -1      1042-2.60128E+02 2.87463E-01 1.55106E-01 1.68937E+00 4.12491E-02-1.88171E-01
 -1      1043-6.36965E+02-2.19929E-01 5.09017E-01 3.51121E-01 5.61867E-02 4.07181E-02
 -1      1044-3.37700E+02-1.40004E-01 4.85834E-02 1.62255E+00 4.58788E-02 2.35482E-01
 -1      1045-3.19016E+02 7.36613E-02-2.79231E-02 1.46576E+00-9.76236E-02 1.91021E-01
 -1      1046-3.75844E+02-2.51239E-02 6.51786E-02 9.74762E-01-5.50996E-02-9.27226E-02
 -1      1047-2.78163E+02-2.24507E-01 4.07307E-02 1.63138E+00-1.58129E-01-5.07759E-02
 -1      1048-4.47932E+02-2.27514E-01 1.11156E-01 9.35944E-01 1.24027E-01 1.74024E-01
 -1      1049-4.96854E+02-2.88158E-01 2.57650E-01 1.19767E+00 1.80889E-02-1.74609E-01
 -1      1050-4.31090E+02-3.73101E-02 9.94829E-02 1.48961E+00-4.06732E-04-1.43987E-02
 -1      1051-4.12662E+02-1.61732E-01 5.63591E-02 9.66747E-01 3.96649E-02-2.11813E-02
 -1      1052-2.98896E+02 1.18899E-01 9.42646E-02 1.13872E+00 4.94947E-02 1.20520E-01
 -1      1053-3.57858E+02-2.29858E-02-2.08431E-02 1.50513E+00 5.17899E-02 1.94139E-01
 -1      1054-5.28134E+02-1.27626E-01 2.27476E-01 8.22594E-01 3.26699E-02 8.50195E-02
 -1      1055-6.30276E+02-2.75948E-01 3.87642E-01 6.22541E-01-8.18800E-04-6.07528E-02
 -1      1056-6.21454E+02-3.17849E-01 4.38170E-01 5.11487E-01-1.46435E-02-5.95701E-02
 -1      1057-4.82523E+02 8.67635E-02 1.11739E-01 1.27682E+00-4.30495E-02-1.38436E-01
 -1      1058-6.03280E+02-2.07665E-01 3.85807E-01 5.57660E-01-1.70726E-02-2.71189E-02
 -1      1059-5.92639E+02-1.62082E-01 3.05115E-01 5.23179E-01 6.05660E-03 1.58891E-02
 -1      1060-6.13614E+02-2.14275E-01 3.16835E-01 7.46796E-01-2.28418E-02 5.78248E-02
 -1      1061-4.65172E+02-2.03622E-01 1.62411E-01 8.59485E-01-1.27389E-01-4.91179E-02
 -1      1062-3.94431E+02-5.22079E-02 8.35724E-03 8.68944E-01 2.19833E-02 5.58308E-02
 -1      1063-5.80542E+02-2.37548E-01 3.61557E-01 7.46529E-01-4.13220E-02-5.86226E-02
 -1      1064-5.14007E+02-1.10880E-01 1.47863E-01 1.21383E+00-6.12804E-02-1.41541E-01
 -1      1065-5.69846E+02-1.07897E-01 1.94578E-01 9.85620E-01-6.00374E-03 1.15147E-01
 -1      1066-5.50000E+02 9.77714E-02 1.72925E-01 1.28510E-01-7.31883E-02-1.04634E+00
 -1      1067-6.48982E+02-4.42632E-01 1.20016E+00 3.45619E-01 6.70458E-02-4.95233E-02
 -1      1068-2.17611E+02-4.42206E+00-1.68050E+00-1.31256E+00 4.06612E-02 7.77725E-01
 -1      1069-6.47403E+02 1.56750E+00-4.77748E+00-3.02318E+00-8.21759E-02-3.56759E+00
 -1      1070-2.29192E+02-8.36978E-02 5.91189E-02 1.35688E-01 1.30791E-02-1.09841E+00
 -1      1071-6.44779E+02 4.92975E+00-2.95446E+01-5.88377E+00 4.35672E-03-3.24504E-01
 -1      1072-6.46234E+02 3.96403E+01-2.00150E+01-5.35121E+00 1.75538E-01 4.20840E+01
 -1      1073-6.55818E+02 4.33758E+01-2.65990E+01 1.61736E+00 1.45733E+00-4.63721E+01
 -1      1074-2.16832E+02-2.29765E+00-1.00422E+00-7.81482E-01 1.44691E-01 1.17517E+00
 -1      1075-2.15805E+02-3.07968E+00-1.22782E+00-9.55966E-01 9.72113E-02-1.05781E+00
 -1      1076-2.26572E+02-3.31416E-01 1.25392E-02 7.32343E-01 6.88166E-02-8.70408E-02
 -1      1077-7.23575E+02-6.60202E+01-1.13638E+02 5.12440E+01-1.87598E+01 1.00368E+02
 -1      1078-6.66399E+02-5.45134E+01-1.36151E+02 7.09771E+01-2.52119E-01 5.90754E+01
 -1      1079-6.03484E+02 1.33555E+01 5.44296E+00-1.32102E+01 4.81317E+00 1.53774E+01
 -1      1080-6.87698E+02-8.16852E+01-1.54902E+02 7.94435E+01 7.23352E+00-6.57579E+01
 -1      1081-7.29703E+02-6.82144E+01-1.17492E+02 5.47987E+01 1.67273E+01-9.91323E+01
 -1      1082-6.02930E+02 1.32888E+01 5.69750E+00-1.35489E+01-3.48911E+00-1.62212E+01
 -1      1083-2.11862E+02-1.83275E+00-1.56364E+00 1.02378E+00 9.80445E-02-1.00274E+00
 -1      1084-2.10393E+02-2.52122E-02-8.83585E-01 1.05987E+00 4.97877E-01-8.71334E-01
 -1      1085-2.19054E+02-5.26359E-01-2.65692E-01-7.92804E-01 1.48439E-01-5.09813E-01
 -1      1086-2.11133E+02 2.97467E-01-8.14578E-01 1.24285E+00-3.95088E-01 9.03208E-01
 -1      1087-2.12074E+02-5.12851E-01-1.16472E+00 1.17620E+00 1.05522E-02 1.26942E+00
 -1      1088-2.19803E+02-1.09513E+00-3.99884E-01-9.34444E-01 1.44973E-01 6.93727E-01
 -1      1089-6.88847E+02-8.87836E+01-1.72004E+02 8.03698E+01 2.39802E+00-1.21538E+01
 -1      1090-6.74744E+02-5.96916E+01-1.56520E+02 6.98873E+01-2.19927E+00-3.94503E+01
 -1      1091-6.39652E+02 5.84785E+01-4.56986E+01-2.86333E+00-1.40115E+00-3.27064E+01
 -1      1092-6.88554E+02-7.92771E+01-1.64561E+02 7.49248E+01 4.15607E+00 3.97618E+01
 -1      1093-6.81926E+02-6.82562E+01-1.56969E+02 7.17927E+01 8.63768E-01 1.03762E+01
 -1      1094-6.40602E+02 5.16573E+01-6.29777E+01-2.54413E+00-1.24548E+00 2.30044E-01
 -1      1095-6.42552E+02 5.62972E+01-4.32772E+01-7.27358E+00-5.99931E-01 3.52064E+01
 -1      1096-2.12007E+02-2.00456E+00-1.47410E+00 1.20908E+00 1.96178E-02 5.82946E-01
 -1      1097-2.11706E+02-1.03005E+00-8.38769E-01 9.45443E-01 1.21423E-02 3.61535E-01
 -1      1098-2.16921E+02-3.30407E+00-1.45198E+00-7.69501E-01-1.29895E-01 8.25380E-01
 -1      1099-2.12205E+02-1.52344E+00-9.26246E-01 1.35636E+00-2.83986E-02-2.79494E-01
 -1      1100-2.12339E+02-1.20386E+00-1.61051E+00 7.12024E-01-2.02256E-02-7.42815E-01
 -1      1101-2.17016E+02-3.40646E+00-1.09059E+00-7.77025E-01-6.87600E-02 3.33866E-01
 -1      1102-2.16530E+02-3.45259E+00-1.56152E+00-7.29581E-01-8.86829E-02-1.17270E+00
 -1      1103-6.29343E+02-5.17342E+00-9.86199E+00-3.48576E+00 4.87991E+00-7.43251E+00
 -1      1104-6.40745E+02-7.86523E-01-1.41690E+00-1.89855E+00-8.84645E-01-1.36334E+00
 -1      1105-6.33267E+02 5.00427E+00-1.22209E+01-3.61106E+00 1.96485E+00-2.04167E+01
 -1      1106-6.42554E+02-7.47283E-01-3.65244E-02-9.25295E-01 7.46767E-01 1.12620E+00
 -1      1107-6.47878E+02-6.39892E-01 1.75013E-01-5.12148E-01 1.56499E-01 1.68938E+00
 -1      1108-6.48325E+02 1.66485E-02-1.23390E+00-1.11065E+00-2.93866E-02 5.62079E-01
 -1      1109-6.47717E+02-5.14741E-01 3.44162E-01-1.62755E-01 1.71492E-01 1.15575E+00
 -1      1110-6.48285E+02-4.53689E-01 2.95582E-01 1.67827E-01 3.98906E-02 8.42002E-01
 -1      1111-6.50960E+02-6.06356E-01 9.81505E-01-2.64642E-01 3.49525E-01 2.03361E+00
 -1      1112-6.45984E+02-9.51783E-02 2.15067E-01 1.79505E-01-2.10233E-02 5.48001E-01
 -1      1113-6.43970E+02-2.75694E-01 1.72609E-01 1.36454E-01 7.93191E-02 5.06440E-01
 -1      1114-6.47985E+02-4.38246E-01 5.71791E-01 1.46593E-01 1.13561E-01 1.13437E+00
 -1      1115-6.41282E+02-8.24447E-02 1.18568E-01 1.75804E-01 5.24135E-03 4.62847E-01
 -1      1116-6.38346E+02-2.20918E-01 1.03754E-01 1.17279E-01 8.78646E-02 4.99302E-01
 -1      1117-6.43030E+02-2.61560E-01 3.87969E-01 1.69676E-01 8.53996E-02 5.90754E-01
 -1      1118-6.35113E+02-7.21510E-02 1.42877E-01 2.19847E-01 8.16719E-03 4.55431E-01
 -1      1119-6.31650E+02-1.93041E-01 1.13111E-01 3.59600E-01 1.34065E-01 4.00935E-01
 -1      1120-6.37015E+02-1.02773E-01 3.76895E-01 2.11084E-01 6.44222E-02 4.59864E-01
 -1      1121-6.27757E+02-1.29734E-01 1.48052E-01 4.62885E-01-1.00559E-02 3.90912E-01
 -1      1122-6.23716E+02-1.24947E-01 1.35289E-01 5.36347E-01 1.45637E-01 4.39659E-01
 -1      1123-6.29877E+02-6.86814E-02 3.26663E-01 2.75135E-01 9.73966E-02 5.33129E-01
 -1      1124-6.19222E+02-3.28318E-01 8.26736E-02 5.73620E-01-6.35110E-02 4.68371E-01
 -1      1125-6.14904E+02-2.76128E-01 4.91829E-02 1.67595E-01 3.88295E-02 7.17758E-01
 -1      1126-6.21365E+02-1.21329E-01 3.83539E-01 5.38725E-01 6.98331E-02 5.79252E-01
 -1      1127-6.10609E+02-1.58291E-01 2.64215E-02 1.84343E-01-3.68836E-02 6.93236E-01
 -1      1128-6.05218E+02-1.92547E-01 1.60531E-01 1.99684E-01 7.80337E-02 7.54839E-01
 -1      1129-6.13440E+02-5.61241E-01-1.63651E-01 2.95865E-01 7.16379E-02 6.04342E-01
 -1      1130-6.00427E+02 2.74652E-02 1.44494E-01 2.87202E-01 2.06966E-02 6.88805E-01
 -1      1131-5.95359E+02-7.94770E-03 9.18590E-02 5.88752E-01 9.16608E-02 6.68229E-01
 -1      1132-6.03308E+02-2.13191E-01 1.18742E-01 1.07591E-01 6.44205E-02 7.34186E-01
 -1      1133-5.89586E+02-6.96513E-02 1.37775E-01 6.38345E-01-4.57019E-02 5.80718E-01
 -1      1134-5.83892E+02-6.77514E-02 9.93828E-02 7.27580E-01 1.76551E-01 6.55394E-01
 -1      1135-5.92616E+02 1.38753E-01 2.69954E-01 4.37823E-01 4.86000E-02 8.20955E-01
 -1      1136-5.77575E+02-1.94737E-01 1.74136E-01 8.95529E-01-1.11707E-01 7.17542E-01
 -1      1137-5.72214E+02-4.23431E-01-1.67538E-01 4.48270E-01 2.03433E-02 8.98012E-01
 -1      1138-5.80316E+02-8.68472E-03 3.60758E-01 7.72954E-01 1.97044E-02 8.26429E-01
 -1      1139-5.65882E+02 7.69876E-02 1.25178E-02 3.59193E-01-5.52335E-02 1.03532E+00
 -1      1140-5.59192E+02-2.01462E-01 1.05870E-01 2.81704E-01 1.02599E-01 9.68719E-01
 -1      1141-5.69527E+02-4.01405E-01 3.75326E-02 7.33134E-01 4.32910E-02 8.99382E-01
 -1      1142-5.52928E+02 4.16864E-03 4.96908E-02 3.05980E-01-1.05813E-01 1.04408E+00
 -1      1143-5.45634E+02-1.78687E-01 1.36552E-01 3.09979E-01 1.01843E-01 9.60786E-01
 -1      1144-5.55687E+02 2.73917E-01 5.47848E-01 5.78243E-01 1.59665E-02 7.53568E-01
 -1      1145-5.39074E+02 2.04013E-02-1.25736E-01 1.80646E-01-1.27439E-01 1.06450E+00
 -1      1146-5.31270E+02-1.53494E-01 1.48285E-01 2.12479E-01 9.24878E-02 1.01331E+00
 -1      1147-5.42983E+02-5.35432E-01 1.55263E-02 4.59384E-01 1.60890E-01 9.30200E-01
 -1      1148-5.24349E+02 1.32342E-01 1.34454E-01 3.76768E-01-9.89462E-03 9.54458E-01
 -1      1149-5.17309E+02 8.81613E-02 2.40797E-02 8.30702E-01 1.00433E-01 8.87735E-01
 -1      1150-5.28251E+02-1.88237E-01-5.71777E-02 1.38779E-01 3.69998E-02 9.93497E-01
 -1      1151-5.09357E+02-2.28000E-02 8.05742E-02 8.49081E-01-9.65898E-02 8.03380E-01
 -1      1152-5.01746E+02-3.13737E-02 5.85132E-02 9.00293E-01 1.56444E-01 8.54811E-01
 -1      1153-5.13340E+02 2.78888E-01 1.69805E-01 5.83962E-01 2.73560E-03 1.09631E+00
 -1      1154-4.93733E+02-2.75637E-01-6.39459E-02 8.57346E-01-1.70943E-01 8.25201E-01
 -1      1155-4.85329E+02-2.35906E-01 4.37136E-02 3.17034E-01 9.65979E-02 1.10984E+00
 -1      1156-4.97655E+02-3.62663E-02 1.16647E-01 6.49549E-01-8.35913E-03 1.16668E+00
 -1      1157-4.77869E+02-5.87873E-02-4.33892E-02 2.44136E-01-9.38774E-02 1.13069E+00
 -1      1158-4.68925E+02-1.92451E-01 1.85323E-01 3.73069E-01 8.91137E-02 1.18648E+00
 -1      1159-4.82026E+02-4.95830E-01-3.35492E-01 2.72627E-01 7.90697E-02 1.02192E+00
 -1      1160-4.60960E+02 6.87907E-02 4.94859E-02 4.15982E-01-1.78021E-02 1.20139E+00
 -1      1161-4.52523E+02-1.62473E-01-5.37988E-02 4.65781E-01 7.71528E-02 1.25634E+00
 -1      1162-4.65082E+02-2.90549E-01-2.91925E-01 5.28246E-01 5.62214E-02 1.14003E+00
 -1      1163-4.44219E+02 1.01481E-01 1.81150E-02 4.10696E-01-7.82354E-02 1.17990E+00
 -1      1164-4.35284E+02 2.27579E-02 7.58389E-02 8.18505E-01 2.11051E-01 9.96984E-01
 -1      1165-4.48528E+02 1.78335E-01 3.15102E-01 5.76052E-01 6.62886E-03 1.17280E+00
 -1      1166-4.26220E+02-1.41303E-02 2.92289E-02 9.64968E-01-1.06336E-01 9.77644E-01
 -1      1167-4.17542E+02-2.28871E-02-2.66948E-02 9.72759E-01 1.49081E-01 1.02131E+00
 -1      1168-4.30582E+02 1.63118E-01 1.65533E-01 5.34209E-01 4.31674E-02 1.27768E+00
 -1      1169-4.08394E+02-7.57568E-02 6.63089E-02 9.98646E-01-1.23224E-01 1.01309E+00
 -1      1170-3.99511E+02-8.73324E-02-7.66013E-02 9.22573E-01 1.69290E-01 1.05108E+00
 -1      1171-4.12823E+02 9.85027E-02 1.12429E-01 6.31523E-01-7.14021E-03 1.37510E+00
 -1      1172-3.89935E+02 7.26580E-02 8.53231E-02 1.02238E+00-1.09602E-01 1.00877E+00
 -1      1173-3.80582E+02 9.75780E-02 2.79327E-02 1.19892E+00 2.03666E-01 1.07295E+00
 -1      1174-3.94600E+02 1.49030E-01 1.24617E-01 5.85016E-01 3.67800E-02 1.39341E+00
 -1      1175-3.70519E+02-1.62284E-01-1.76064E-02 1.34327E+00-2.58047E-01 1.06306E+00
 -1      1176-3.61623E+02-3.21664E-01-1.60964E-01 4.61143E-01 2.27091E-02 1.45808E+00
 -1      1177-3.74898E+02 2.39208E-01 2.29311E-01 1.22487E+00-1.48079E-01 1.23490E+00
 -1      1178-3.52539E+02 5.17044E-02-1.44423E-01 4.36274E-01-9.64767E-02 1.35319E+00
 -1      1179-3.42236E+02-2.25752E-01 1.30896E-01 4.92633E-01 1.34671E-01 1.55318E+00
 -1      1180-3.57984E+02-5.35638E-01-6.77598E-01 8.95512E-01 6.47304E-05 1.07802E+00
 -1      1181-3.33133E+02 5.07355E-02-4.94377E-02 4.47707E-01-9.54718E-02 1.43136E+00
 -1      1182-3.22924E+02-1.61572E-01 3.94603E-02 3.90795E-01 1.59143E-01 1.66045E+00
 -1      1183-3.37251E+02 2.00691E-01 3.23604E-02 1.01003E+00-7.16988E-02 1.17315E+00
 -1      1184-3.13797E+02 2.12066E-01 8.59144E-02 5.87002E-01-2.14687E-01 1.42428E+00
 -1      1185-3.03577E+02-1.77395E-01-1.12169E-02 7.17114E-01 1.38751E-02 1.26219E+00
 -1      1186-3.19300E+02-5.03692E-01-6.61187E-01 8.31849E-01-6.37627E-02 1.26783E+00
 -1      1187-2.94101E+02 1.75130E-01-1.99426E-01 2.33198E-01-1.09485E-01 1.43164E+00
 -1      1188-2.83504E+02-1.26046E-01 1.98166E-01 2.60475E-01 1.27883E-01 1.45880E+00
 -1      1189-2.99221E+02-4.28332E-01-1.35277E-02 7.10750E-01 1.56168E-01 1.32472E+00
 -1      1190-2.74236E+02 4.57584E-02-1.89605E-01 4.01063E-01-1.42893E-01 1.28427E+00
 -1      1191-2.63413E+02-1.39371E-01 2.00571E-02 3.95776E-01 1.27845E-01 1.48103E+00
 -1      1192-2.78720E+02 4.40451E-02-2.02690E-01 5.91280E-01-2.37320E-01 1.16363E+00
 -1      1193-2.54160E+02 9.41096E-02-6.34667E-02 4.26425E-01-1.25824E-01 1.30388E+00
 -1      1194-2.43722E+02-1.98318E-01 1.52046E-01 3.90270E-01 8.40115E-02 1.40441E+00
 -1      1195-2.59321E+02-3.09578E-01-5.17439E-01 5.40630E-01 4.33651E-02 1.19358E+00
 -1      1196-2.34337E+02 1.69549E-01 7.35615E-02 4.42309E-01-8.78017E-02 1.04741E+00
 -1      1197-2.24700E+02 7.93848E-02 2.27926E-01-3.18790E-02 3.24353E-02 9.36895E-01
 -1      1198-2.39012E+02 6.17242E-02 1.47108E-01 4.82364E-01-1.73482E-01 1.12064E+00
 -1      1199-2.22940E+02-3.93993E-01-5.75327E-01-1.51753E-01-4.34623E-02 8.34345E-01
 -1      1200-6.40634E+02-6.43090E-01-1.14772E+00-1.97869E+00 7.85148E-01 1.34400E+00
 -1      1201-6.29335E+02-5.29281E+00-9.97564E+00-3.54923E+00-5.07429E+00 7.40739E+00
 -1      1202-6.35374E+02 3.98102E+00-1.28779E+01-2.50290E+00-1.51950E+00 1.93673E+01
 -1      1203-6.47872E+02-4.30225E-01 5.10433E-01-3.30698E-01-1.25410E-02-1.56437E+00
 -1      1204-6.42554E+02-8.94523E-01-1.16316E-01-9.31469E-01-6.89545E-01-1.13219E+00
 -1      1205-6.48476E+02 5.90799E-04-1.25452E+00-1.35379E+00-2.54567E-02-5.36770E-01
 -1      1206-6.48019E+02-3.35115E-01 3.67782E-01 2.10384E-01-8.55355E-02-9.30180E-01
 -1      1207-6.47723E+02-2.39872E-01 5.22946E-01 3.07320E-02-1.79019E-01-1.05144E+00
 -1      1208-6.50752E+02-6.02726E-01 8.21578E-01-3.72083E-01-1.84559E-01-2.10133E+00
 -1      1209-6.44048E+02-2.77155E-01 1.93254E-01 1.48087E-01-5.42911E-02-4.77635E-01
 -1      1210-6.46062E+02-3.30295E-01 1.81750E-01 1.95638E-01-2.00413E-02-5.42475E-01
 -1      1211-6.48191E+02-3.46205E-01 6.60289E-01 1.29644E-01-2.28431E-01-9.95759E-01
 -1      1212-6.38278E+02-9.73813E-02 1.71240E-01 4.30304E-01-9.47031E-02-3.78556E-01
 -1      1213-6.41238E+02-3.56875E-02 1.47588E-01 1.98708E-01-1.12449E-02-4.05303E-01
 -1      1214-6.43060E+02-2.95130E-01 3.85309E-01 1.04665E-01-6.17398E-02-6.10146E-01
 -1      1215-6.31347E+02-2.81184E-01 8.06688E-02 1.22157E-01-4.04941E-02-5.54304E-01
 -1      1216-6.34843E+02-3.74076E-01 8.99760E-02 4.57572E-01 4.61482E-02-3.40707E-01
 -1      1217-6.36549E+02-1.29579E-01 3.84507E-01 4.48092E-01-4.34531E-02-4.49537E-01
 -1      1218-6.23489E+02-2.60335E-01 1.56305E-01 1.77126E-01-9.13086E-02-7.03827E-01
 -1      1219-6.27852E+02-1.59795E-01 1.80382E-02 1.73692E-01-1.94378E-02-5.37808E-01
 -1      1220-6.30192E+02-4.34179E-01-1.98817E-02 3.17016E-01-8.09532E-02-4.14076E-01
 -1      1221-6.15425E+02-2.71766E-01 5.27873E-02 7.14458E-01-1.48638E-01-5.79908E-01
 -1      1222-6.19345E+02 3.44379E-02 3.11417E-01 3.51539E-01-4.29803E-02-6.41060E-01
 -1      1223-6.21439E+02-8.99774E-02 3.42358E-01 5.02754E-01-5.34976E-02-5.63278E-01
 -1      1224-6.05483E+02-2.22796E-01 9.47420E-02 5.24853E-01-1.00222E-01-5.41885E-01
 -1      1225-6.10360E+02-2.49593E-01 1.05014E-01 5.78148E-01 5.76519E-02-5.79608E-01
 -1      1226-6.13607E+02-4.04937E-01 1.45628E-01 6.00064E-01-1.70509E-01-6.52029E-01
 -1      1227-5.94902E+02-2.76067E-01 7.59000E-02 1.21333E-01-5.15602E-02-7.88044E-01
 -1      1228-6.00178E+02-3.27364E-01-1.08939E-02 4.69854E-01 1.44006E-02-5.91271E-01
 -1      1229-6.03209E+02-3.74299E-01 2.04067E-01 3.40260E-01-1.12269E-01-7.41643E-01
 -1      1230-5.83722E+02-2.57979E-01 1.13730E-02 3.22278E-01-1.82742E-01-8.86699E-01
 -1      1231-5.89648E+02-4.69568E-02 9.24290E-02 4.35594E-01-4.23940E-02-7.28973E-01
 -1      1232-5.92232E+02 1.01129E-01 1.89539E-01 2.72627E-01-1.27281E-02-7.95416E-01
 -1      1233-5.72403E+02-1.40436E-01 8.40602E-02 8.91108E-01-1.91081E-01-7.17349E-01
 -1      1234-5.77948E+02 7.36187E-02 2.20158E-01 3.61265E-01 8.46587E-03-9.50564E-01
 -1      1235-5.80591E+02 1.76957E-01 6.12179E-01 5.13617E-01-7.44480E-02-7.93374E-01
 -1      1236-5.59142E+02-3.12473E-01 5.29097E-03 4.35413E-01-2.55480E-02-7.77750E-01
 -1      1237-5.65735E+02-3.20083E-01-5.58168E-03 7.73974E-01 1.28943E-01-8.19920E-01
 -1      1238-5.69694E+02-4.43075E-01 1.88983E-02 7.89557E-01-1.67189E-01-8.85073E-01
 -1      1239-5.46102E+02 4.97113E-02 1.16510E-01 6.40017E-01-1.06785E-01-8.08384E-01
 -1      1240-5.52698E+02 1.34914E-01 7.52537E-02 2.65776E-01-1.09861E-03-9.20686E-01
 -1      1241-5.56133E+02-2.54897E-01 1.56805E-01 1.60065E-01-6.43049E-02-9.92816E-01
 -1      1242-5.31692E+02-1.07600E-02 6.42750E-02 9.21457E-01-1.92990E-01-8.14783E-01
 -1      1243-5.38897E+02-1.04691E-02 1.09453E-01 8.05581E-01 8.01298E-02-7.28704E-01
 -1      1244-5.42465E+02 2.01122E-01 2.39685E-01 4.85455E-01-4.24450E-03-1.04336E+00
 -1      1245-5.17310E+02-4.36880E-01-2.25571E-01 5.48961E-01-3.82509E-03-1.05420E+00
 -1      1246-5.23841E+02-1.38695E-01 1.93911E-01 1.13337E+00 1.75512E-01-8.81586E-01
 -1      1247-5.27210E+02 9.55821E-02 3.12778E-01 9.88238E-01 6.91008E-02-9.91618E-01
 -1      1248-5.01247E+02-2.52086E-01 1.61887E-01 2.12880E-01-9.50570E-02-1.21090E+00
 -1      1249-5.09565E+02 1.17425E-01-1.44666E-01 2.90371E-01 1.00396E-01-1.15417E+00
 -1      1250-5.14182E+02-5.37053E-01-2.08302E-01 8.62838E-01-7.32888E-02-1.01347E+00
 -1      1251-4.85542E+02-2.02291E-01 1.24487E-01 2.83041E-01-1.78166E-01-1.40133E+00
 -1      1252-4.93828E+02-1.72183E-02 6.69757E-02 3.68011E-01-8.04162E-03-1.21615E+00
 -1      1253-4.96915E+02 2.39086E-01 3.03318E-01 8.23830E-01 6.64482E-02-1.01280E+00
 -1      1254-4.69391E+02-1.73354E-01-9.84013E-03 4.92409E-01-7.71242E-02-1.19130E+00
 -1      1255-4.77659E+02 1.32356E-01 1.10805E-01 5.78249E-01 5.39045E-02-1.19995E+00
 -1      1256-4.82544E+02-3.60402E-01-3.65897E-01 8.97605E-01-9.90036E-02-8.84502E-01
 -1      1257-4.52462E+02 1.17327E-01 1.89824E-01 9.12586E-01-1.96364E-01-9.80326E-01
 -1      1258-4.61383E+02 1.25789E-01 2.66699E-02 4.06725E-01 6.63837E-02-1.11060E+00
 -1      1259-4.65492E+02 1.98839E-01 2.78078E-01 5.62683E-01-2.26135E-02-1.12164E+00
 -1      1260-4.34654E+02-2.45248E-01 1.51511E-02 3.89828E-01-1.11132E-01-1.21190E+00
 -1      1261-4.43782E+02-2.91014E-01-1.18095E-01 9.70138E-01 1.90935E-01-9.28286E-01
 -1      1262-4.48045E+02 3.81808E-02 5.57953E-02 7.37075E-01 2.14587E-02-1.27396E+00
 -1      1263-4.17309E+02-1.76676E-01 5.04391E-04 9.93652E-01-1.25501E-01-1.09096E+00
 -1      1264-4.26217E+02 1.80763E-01 1.11306E-01 4.73982E-01 1.04505E-01-1.21005E+00
 -1      1265-4.30736E+02-3.65452E-01-3.66515E-01 4.46133E-01-9.50826E-02-1.13003E+00
 -1      1266-3.99407E+02 1.49538E-02-4.06047E-02 8.71922E-01-5.32553E-02-1.08848E+00
 -1      1267-4.07935E+02-1.01174E-01 5.83729E-02 8.82328E-01 6.03310E-02-1.06906E+00
 -1      1268-4.13348E+02-4.30158E-01-1.50109E-01 5.43855E-01-6.50172E-03-1.35718E+00
 -1      1269-3.80055E+02-2.19251E-01 5.62015E-02 4.07636E-01-1.51342E-01-1.29453E+00
 -1      1270-3.90137E+02-1.86091E-02-1.53772E-01 8.42771E-01 2.11540E-01-1.06380E+00
 -1      1271-3.94303E+02 3.18928E-01 9.62990E-02 4.34606E-01-3.33299E-02-1.35922E+00
 -1      1272-3.62214E+02 1.89520E-01-8.04204E-03 1.04720E+00-1.08320E-01-1.14245E+00
 -1      1273-3.71155E+02 2.35280E-01 1.36814E-01 4.94526E-01 3.11215E-02-1.25985E+00
 -1      1274-3.75968E+02-1.74099E-01-1.52631E-01 1.70208E-01-3.64788E-02-1.30325E+00
 -1      1275-3.42846E+02 4.54483E-02-1.40305E-02 1.10456E+00-1.65842E-01-1.09188E+00
 -1      1276-3.52249E+02 4.59682E-02 3.89998E-02 1.04072E+00 1.37618E-01-1.02766E+00
 -1      1277-3.57146E+02 3.91033E-01 8.82639E-02 7.26588E-01 3.11853E-02-1.39059E+00
 -1      1278-3.23349E+02-1.78793E-02-6.38253E-02 1.17056E+00-1.60869E-01-1.04090E+00
 -1      1279-3.32856E+02-4.70986E-02 5.43242E-02 1.15172E+00 2.17282E-01-1.04663E+00
 -1      1280-3.37659E+02 5.53362E-02-5.19841E-03 7.75886E-01 1.00658E-01-1.43071E+00
 -1      1281-3.03105E+02-2.21834E-01 5.08519E-02 4.93376E-01-8.79853E-02-1.28285E+00
 -1      1282-3.13494E+02-3.25861E-01-1.86559E-01 9.95069E-01 2.02677E-01-1.13015E+00
 -1      1283-3.18774E+02-3.34119E-01-1.44835E-01 7.18967E-01-9.24393E-02-1.44326E+00
 -1      1284-2.84286E+02 2.66333E-01 4.43545E-02 1.20307E+00-1.26100E-01-1.21157E+00
 -1      1285-2.93632E+02 2.75703E-01 1.15614E-01 5.69819E-01 1.96023E-02-1.30943E+00
 -1      1286-2.98615E+02-1.81646E-01-2.15777E-01 3.22512E-01-8.46700E-02-1.31356E+00
 -1      1287-2.64349E+02-1.87341E-02-5.19579E-02 1.08763E+00-2.28780E-01-1.03621E+00
 -1      1288-2.74150E+02-2.23076E-03 1.08076E-01 1.14557E+00 1.72968E-01-1.04618E+00
 -1      1289-2.79054E+02 3.77139E-01 1.67512E-01 8.62725E-01 4.49144E-02-1.46990E+00
 -1      1290-2.44365E+02-1.03232E-01-3.97160E-04 1.05476E+00-1.44231E-01-9.79786E-01
 -1      1291-2.53977E+02-6.09723E-03 1.06602E-01 1.08715E+00 1.73240E-01-1.07901E+00
 -1      1292-2.59175E+02 1.28377E-02 7.73035E-02 7.43182E-01-8.01409E-03-1.45047E+00
 -1      1293-2.25083E+02-7.21110E-02 8.14273E-02 6.21099E-02 3.93465E-02-8.39336E-01
 -1      1294-2.33935E+02-5.41383E-02 1.04337E-01 8.53209E-01 1.86982E-01-9.09866E-01
 -1      1295-2.39025E+02-3.16610E-02 1.06349E-01 6.02839E-01 2.39812E-02-1.27595E+00
 -1      1296-2.22975E+02-3.16793E-01-3.04313E-01-3.36797E-01 3.23697E-02-1.04381E+00
 -1      1297-3.99400E+02 1.02847E-01 1.05184E-02 4.82185E-01-1.02648E-01 8.78720E-01
 -1      1298-3.90095E+02-1.11062E-01 8.96006E-02 6.95948E-01 1.59413E-01 9.72956E-01
 -1      1299-4.17574E+02 4.30669E-03-9.27372E-03 6.66942E-01-1.83780E-01 8.59354E-01
 -1      1300-4.08128E+02-5.07075E-02 1.29934E-01 6.16580E-01 1.45214E-01 9.86331E-01
 -1      1301-4.03973E+02-2.15343E-01-1.37274E-01 8.84426E-01-6.58758E-03-4.04535E-02
 -1      1302-3.42187E+02 2.61030E-01 2.53236E-01 1.53169E+00-2.31955E-02 9.59773E-01
 -1      1303-3.33308E+02 4.58852E-02 7.32645E-02 1.79414E+00 2.73638E-01 5.44507E-01
 -1      1304-3.23132E+02-7.66916E-02-7.17366E-02 1.84082E+00-3.26581E-01 3.91443E-01
 -1      1305-3.13938E+02-3.88386E-01-4.91547E-01 1.12340E+00 1.78031E-01 8.26171E-01
 -1      1306-3.28392E+02 4.98122E-02 2.68146E-01 1.63371E+00-1.91014E-01 4.00544E-01
 -1      1307-2.54290E+02 5.75944E-03-1.11656E-01 7.85473E-01-1.56292E-01-9.69273E-01
 -1      1308-2.64700E+02 3.27421E-02-1.05528E-01 8.90641E-01 1.75175E-01-9.21891E-01
 -1      1309-2.49821E+02 1.10548E-01 3.61606E-01 1.28684E+00-1.18354E-01 3.25359E-03
 -1      1310-2.45266E+02 2.05928E-01 1.91977E-01 6.35961E-01 1.11126E-01-1.10827E+00
 -1      1311-2.34534E+02-1.33578E-02 4.20273E-01 4.86529E-01-1.66842E-01-7.10797E-01
 -1      1312-4.68798E+02-1.74333E-01 3.01872E-01 9.00664E-01-1.48494E-01 5.69042E-01
 -1      1313-4.60974E+02-1.31186E-01 2.41078E-01 8.14042E-01 4.65797E-02 5.77120E-01
 -1      1314-4.86265E+02 3.90617E-02 6.56668E-02 6.29801E-01-1.22965E-01 9.82311E-01
 -1      1315-4.77995E+02-3.83162E-01-5.88003E-03 7.46609E-01 1.85474E-01 7.78365E-01
 -1      1316-4.73818E+02-2.07800E-01 2.07172E-01 1.10296E+00-1.19677E-01-1.53411E-01
 -1      1317-4.52662E+02 4.82290E-02 2.94962E-02 7.93701E-01-2.98104E-02 7.08238E-01
 -1      1318-4.43937E+02-4.10432E-02 1.45060E-01 7.06936E-01 2.21470E-01 9.58216E-01
 -1      1319-4.35159E+02 7.72065E-02 2.07051E-02 7.05243E-01-6.15807E-02 9.01980E-01
 -1      1320-4.26181E+02-9.42048E-02 2.62095E-02 6.73851E-01 1.64601E-01 1.17260E+00
 -1      1321-4.39088E+02 8.41340E-02 2.86864E-01 1.00168E+00-1.02530E-01 9.87101E-02
 -1      1322-3.80502E+02 1.70596E-01 2.00241E-01 8.61659E-01-2.76886E-01 8.84260E-01
 -1      1323-3.70196E+02 2.69302E-01 2.80663E-01 1.11215E+00 1.58369E-02 6.00544E-01
 -1      1324-3.63099E+02-4.84796E-01-1.83567E-01 1.96914E+00-1.16692E-01 8.00192E-01
 -1      1325-3.52704E+02-3.79603E-01 1.71833E-01 1.42453E+00 2.71102E-01 6.41707E-01
 -1      1326-3.66575E+02 2.06060E-01 2.27014E-01 1.00535E+00 1.26631E-01-7.12568E-02
 -1      1327-2.73387E+02-2.71570E-02 3.46386E-01 7.11253E-01-2.18358E-01-1.31841E+00
 -1      1328-2.83847E+02 3.21026E-01 9.15117E-02 8.81740E-01-4.34703E-03-1.06207E+00
 -1      1329-2.93762E+02 8.07711E-02 6.99164E-02 6.46861E-01-8.89012E-02-8.51482E-01
 -1      1330-3.03120E+02-1.41769E-01 3.98138E-02 7.82826E-01 1.78860E-01-7.83617E-01
 -1      1331-2.88466E+02 9.94257E-02 5.30601E-03 1.44831E+00-7.22782E-02 1.56744E-01
 -1      1332-5.09970E+02-3.42160E-01 2.72766E-01 1.17928E+00-2.10392E-01-5.84484E-01
 -1      1333-5.18076E+02-5.30498E-01-2.52153E-02 1.56059E+00 5.75048E-02-4.98470E-01
 -1      1334-4.92585E+02 1.90437E-01 4.99196E-01 1.54144E+00-1.45509E-01-6.40622E-01
 -1      1335-5.01382E+02 1.50552E-01 8.18132E-02 1.05494E+00 1.65051E-01-6.47414E-01
 -1      1336-5.05897E+02-3.51525E-01-5.39295E-02 1.06457E+00-8.25957E-02 1.99596E-02
 -1      1337-6.44294E+02-2.14549E-01 7.56642E-01 2.46922E-01-1.96429E-02 2.51667E-01
 -1      1338-6.41859E+02-2.14891E-01 5.73560E-01 3.20636E-01 4.60249E-02 2.68302E-01
 -1      1339-6.40414E+02-3.73988E-01 4.30581E-01 3.94963E-01 3.51265E-02-4.88222E-02
 -1      1340-6.38668E+02-8.42003E-02 4.62125E-01 2.87558E-01-1.61609E-02 2.78522E-01
 -1      1341-6.35221E+02-9.54634E-02 4.79719E-01 2.91812E-01 1.18365E-01 4.14135E-01
 -1      1342-6.23939E+02-5.55403E-02 5.81245E-01 4.24260E-01-1.02826E-01 3.51411E-01
 -1      1343-6.19088E+02 4.13122E-02 7.13942E-01 4.90381E-01 9.10101E-02 2.14042E-01
 -1      1344-6.31906E+02-1.21525E-01 3.55731E-01 2.79019E-01 1.57523E-02 2.95062E-01
 -1      1345-6.27961E+02-1.18768E-01 4.14581E-01 2.97026E-01 1.22233E-01 4.84916E-01
 -1      1346-6.26395E+02-4.53186E-01 2.01947E-01 5.06648E-01-1.31627E-02 4.19557E-02
 -1      1347-6.52009E+02-5.33364E-01 1.27536E+00-1.76775E-01-1.06487E-01-8.17992E-01
 -1      1348-6.53055E+02-5.57979E-01 1.27608E+00-5.90608E-01-1.93997E-01-9.31659E-01
 -1      1349-6.49787E+02-2.28691E-01 1.05565E+00 1.25480E-01-5.70450E-02-6.16283E-01
 -1      1350-6.51166E+02-3.83661E-01 1.58762E+00-3.34576E-02 4.41095E-03-4.99073E-02
 -1      1351-6.47531E+02-3.12718E-01 7.27070E-01 1.51187E-01-1.01222E-01-5.06080E-01
 -1      1352-5.84008E+02 1.44496E-02 5.12573E-01 5.39016E-01-1.56281E-01 5.17323E-01
 -1      1353-5.77230E+02 1.52108E-01 6.79702E-01 7.23587E-01 7.36294E-02 2.66163E-01
 -1      1354-5.95519E+02 8.51093E-02 3.26154E-01 3.22808E-01-3.35739E-02 4.58855E-01
 -1      1355-5.89793E+02-1.09342E-01 3.38038E-01 4.15159E-01 1.33474E-01 6.04620E-01
 -1      1356-5.87257E+02-3.66277E-01 7.74752E-02 6.64841E-01-6.88480E-02 7.95029E-02
 -1      1357-5.59388E+02 9.27018E-02 2.74369E-01 9.98239E-01-1.71682E-01 4.86024E-01
 -1      1358-5.53104E+02-1.10399E-01-5.28171E-02 1.29270E+00 2.41167E-01 3.96287E-01
 -1      1359-5.49600E+02-3.34028E-01 5.94459E-02 1.05013E+00 1.00637E-01 1.32134E-01
 -1      1360-5.45553E+02-3.97810E-01 3.10843E-01 1.17112E+00-1.73359E-01 3.05936E-01
 -1      1361-5.39439E+02-4.80110E-01 3.24886E-02 8.40914E-01 1.22834E-01 5.96538E-01
 -1      1362-6.15870E+02-5.22395E-01 1.34734E-01 8.86432E-01-2.61775E-02 3.45013E-01
 -1      1363-6.10915E+02-3.75168E-01 3.38818E-01 4.37498E-01 1.39113E-01 3.74320E-01
 -1      1364-6.05321E+02-1.88041E-01 3.75338E-01 5.21847E-01-7.49234E-02 2.90201E-01
 -1      1365-6.00704E+02-7.07188E-02 3.55266E-01 2.32321E-01 1.44707E-02 4.68305E-01
 -1      1366-6.08280E+02-2.22412E-01 4.60896E-01 6.28693E-01-9.66547E-02-6.62433E-02
 -1      1367-6.53045E+02 3.02820E-01-1.30542E-01-1.35622E+00-3.26965E-01-7.78974E-01
 -1      1368-6.52958E+02 9.09319E-01-6.44216E+00-2.94823E+00-6.05695E-01 2.52785E+00
 -1      1369-6.50434E+02 4.84758E+00-1.70821E+01-5.10274E+00-1.10322E-02-3.33522E-02
 -1      1370-6.41982E+02 4.89534E+00-1.57551E+01-5.62455E+00-1.12511E-01 3.88349E+00
 -1      1371-6.21088E+02 7.54727E+00-3.90657E+01-7.87083E+00-1.06249E+00 8.00330E+00
 -1      1372-6.24471E+02 1.00988E+01-2.42555E+01-8.06071E+00-7.20631E-01 1.53743E+01
 -1      1373-6.53181E+02-7.40252E-01 1.14860E+00-4.51140E-01 1.51703E-01 8.62015E-01
 -1      1374-6.52232E+02-4.92380E-01 1.12818E+00-4.73647E-03 7.52814E-02 7.88779E-01
 -1      1375-6.53050E+02 5.74097E-01 1.08228E+00-1.41219E+00-2.69004E-02 1.73790E-02
 -1      1376-6.53195E+02 3.20205E-02-7.24645E-03-1.14582E+00 3.86154E-01 5.99275E-01
 -1      1377-6.52873E+02 9.09926E-01-5.98244E+00-2.78314E+00 6.80446E-01-2.46623E+00
 -1      1378-2.44592E+02 4.51637E-02-2.07837E-03 1.15397E+00-6.88160E-02 6.97284E-01
 -1      1379-2.34433E+02 2.08623E-01 2.70597E-01 5.60116E-01 1.36513E-01 8.19892E-01
 -1      1380-2.33043E+02-3.25204E-01 1.80199E-01 9.59370E-01-1.59885E-01-5.17735E-02
 -1      1381-2.28477E+02-2.35042E-01 9.40095E-02 2.95918E-01-1.86383E-01 7.31935E-01
 -1      1382-2.24368E+02-6.44128E-01-3.78906E-01-4.21740E-01-1.21165E-01 7.85017E-01
 -1      1383-2.23773E+02-7.92098E-01-7.31128E-01-3.96578E-01-9.77012E-02 5.31585E-01
 -1      1384-3.90312E+02-7.09850E-02-3.48602E-02 7.59752E-01-2.71515E-01-7.15016E-01
 -1      1385-3.99139E+02 2.45805E-01 1.14866E-01 4.16177E-01 8.38310E-02-8.99070E-01
 -1      1386-3.71346E+02-9.42374E-02 1.60228E-01 4.51166E-01-2.98183E-02-9.12096E-01
 -1      1387-3.79947E+02-1.51672E-02 1.64547E-01 7.65239E-01 2.08268E-01-8.15121E-01
 -1      1388-3.85328E+02-2.37458E-01-2.19246E-01 1.10171E+00-1.48679E-01 8.63508E-02
 -1      1389-5.17344E+02 2.25835E-01 9.80201E-02 5.56455E-01-3.61439E-02 5.97688E-01
 -1      1390-5.09400E+02-3.35236E-02 1.27631E-01 5.56273E-01 1.75662E-01 8.70758E-01
 -1      1391-5.31240E+02-9.24745E-02 2.48457E-01 7.15308E-01-1.54129E-01 5.83736E-01
 -1      1392-5.24623E+02-1.06713E-01 2.52020E-01 3.58717E-01 2.38266E-02 7.41298E-01
 -1      1393-5.20899E+02 6.53925E-02 3.21433E-01 8.22994E-01-1.30193E-01 6.05825E-02
 -1      1394-2.64944E+02 9.87333E-02-1.07730E-02 1.01781E+00-1.47161E-01 1.13157E+00
 -1      1395-2.54319E+02-1.52498E-01 3.12005E-01 1.11011E+00 1.75610E-01 8.08843E-01
 -1      1396-2.83440E+02 1.85024E-01 1.87900E-01 1.31610E+00-2.53857E-01 1.04615E+00
 -1      1397-2.73562E+02 1.55837E-01 2.31665E-03 1.04280E+00 5.91493E-02 8.97747E-01
 -1      1398-2.69352E+02 2.29347E-02-3.38322E-02 1.78441E+00 2.04637E-01-2.39055E-01
 -1      1399-4.61264E+02 8.16898E-02 3.45913E-02 6.42996E-01-1.83921E-01-8.46330E-01
 -1      1400-4.69483E+02 2.65438E-02-1.09108E-02 9.19623E-01 1.39804E-02-6.26815E-01
 -1      1401-4.43562E+02-4.37775E-02 8.76619E-02 7.64166E-01-1.12476E-01-8.24665E-01
 -1      1402-4.52503E+02-5.41935E-03 1.59289E-01 7.52569E-01 2.48566E-01-8.35784E-01
 -1      1403-4.56855E+02-3.19576E-01-1.58546E-01 9.82139E-01 6.57082E-02-4.98645E-02
 -1      1404-3.32654E+02 8.49177E-02-4.73834E-02 8.23429E-01-1.09257E-01-9.84492E-01
 -1      1405-3.42556E+02 7.42313E-02 8.83162E-02 9.01792E-01 2.01826E-01-9.54308E-01
 -1      1406-3.52196E+02-6.69862E-03-2.55302E-02 6.82700E-01-2.16122E-01-1.06678E+00
 -1      1407-3.62143E+02 3.38438E-01-8.31284E-02 7.00673E-01 5.15341E-02-7.47512E-01
 -1      1408-3.47301E+02-1.55674E-01-1.37903E-01 1.47031E+00 1.26928E-01 6.94946E-02
 -1      1409-4.26636E+02-4.20950E-01 1.59333E-02 1.03034E+00-1.56930E-01-8.21095E-01
 -1      1410-4.35256E+02 3.17017E-02 1.84340E-01 8.37275E-01 1.49024E-01-1.12709E+00
 -1      1411-4.08409E+02-3.36093E-01 1.05358E-02 5.24837E-01-5.91141E-02-8.84148E-01
 -1      1412-4.17122E+02-1.74464E-01 4.69193E-02 9.21564E-01 1.99818E-01-7.26579E-01
 -1      1413-4.22529E+02-4.56431E-01-2.64264E-01 1.14570E+00-4.41480E-02-9.65040E-02
 -1      1414-6.28185E+02-2.85878E-01 4.57819E-01 5.56841E-01-1.31524E-01-2.76103E-01
 -1      1415-6.32095E+02-4.70063E-01 3.36842E-01 7.62635E-01 1.04755E-02-2.36756E-01
 -1      1416-6.34975E+02-1.12920E-01 5.62846E-01 3.97332E-01-4.74484E-02-2.39378E-01
 -1      1417-6.38547E+02-3.18260E-02 5.95032E-01 3.66929E-01 9.57870E-02-3.24814E-01
 -1      1418-6.33615E+02-1.38465E-01 5.11297E-01 4.20819E-01-6.60132E-02-3.39342E-03
 -1      1419-5.77235E+02 9.36374E-02 4.93410E-01 1.05650E+00-1.10142E-01-5.35871E-01
 -1      1420-5.83941E+02 1.12864E-01 2.42324E-01 5.62236E-01 1.04688E-01-3.28791E-01
 -1      1421-5.65964E+02-2.82180E-01-5.61089E-03 5.64484E-01-2.47327E-01-5.94189E-01
 -1      1422-5.73035E+02-3.33499E-01-6.05304E-02 8.08974E-01 2.36239E-02-2.76309E-01
 -1      1423-5.75229E+02-1.96271E-01 2.75539E-01 8.34723E-01 1.11316E-01 5.02578E-02
 -1      1424-5.23656E+02 1.42986E-01 3.87581E-01 8.98207E-01-4.75388E-03-4.65685E-01
 -1      1425-5.31745E+02 7.58923E-02 3.73945E-01 7.05946E-01 2.06608E-01-6.98572E-01
 -1      1426-5.35671E+02-4.51854E-01-7.87304E-02 1.00794E+00 8.41004E-02-3.49042E-02
 -1      1427-5.39034E+02-1.53553E-01 2.06291E-01 5.74944E-01-9.04526E-02-8.47552E-01
 -1      1428-5.46114E+02 1.40371E-01 1.78422E-01 4.24436E-01 1.32393E-01-7.26124E-01
 -1      1429-6.10745E+02-2.32935E-01 2.59644E-01 3.99073E-01-1.80973E-01-4.67909E-01
 -1      1430-6.16029E+02-3.52510E-01 1.59613E-01 6.17108E-01-2.93970E-02-1.89953E-01
 -1      1431-6.18980E+02-7.07548E-02 5.09272E-01 7.39945E-01-9.73064E-02-3.59814E-01
 -1      1432-6.23887E+02-3.54782E-02 2.99421E-01 5.19296E-01 2.93820E-02-2.72813E-01
 -1      1433-6.17635E+02-3.00192E-01 3.95770E-01 6.06420E-01 8.46057E-02 5.03804E-02
 -1      1434-5.90106E+02 2.13683E-02 3.16239E-01 6.80448E-01-1.52525E-01-3.10801E-01
 -1      1435-5.95207E+02-1.76883E-03 4.00345E-01 2.88744E-01-5.61285E-03-5.18883E-01
 -1      1436-6.00594E+02-3.38278E-01 3.69964E-01 3.14330E-01-1.02870E-01-4.99914E-01
 -1      1437-6.05613E+02-6.45697E-02 3.95675E-01 4.22303E-01 6.30598E-02-4.84788E-01
 -1      1438-5.98145E+02-2.28275E-01 2.82416E-01 4.98424E-01-6.05660E-02-1.41342E-02
 -1      1439-6.28457E+02 6.23142E+00-4.44793E+01-4.63392E+00 3.07133E-01-8.30721E+00
 -1      1440-6.42246E+02 6.31136E+00-1.60232E+01-6.49130E+00 2.29607E-01-3.91024E+00
 -1      1441-6.29821E+02 3.75453E+00-2.94474E+01-4.75936E+00-6.17853E-01-1.28427E+01
 -1      1442-2.22959E+02-8.76100E-01-7.30469E-01 2.91933E-02 1.87618E-01-2.63224E-01
 -1      1443-2.23360E+02-2.86141E-01-2.68079E-01-1.48680E-01 4.96654E-02-9.97869E-01
 -1      1444-2.28062E+02-1.42125E-01-8.44189E-02 2.26510E-01 1.32289E-01-9.83892E-01
 -1      1445-6.49415E+02-3.64830E-01 1.02377E+00 2.09970E-01 9.79962E-02 6.55186E-01
 -1      1446-6.47687E+02-4.04094E-01 7.24245E-01 2.66860E-01 6.93230E-02 4.38160E-01
 -1      1447-6.46283E+02-3.74610E-01 9.01132E-01 3.54274E-01-1.95811E-02-4.14319E-02
 -1      1448-6.44301E+02-2.70432E-01 6.54851E-01 1.70930E-01-1.52392E-03-3.01940E-01
 -1      1449-6.41863E+02-1.28727E-01 5.47647E-01 2.22814E-01-2.88057E-02-3.39257E-01
 -1      1450-3.13515E+02-1.83268E-01 1.84512E-01 6.60434E-01-2.28014E-01-8.80959E-01
 -1      1451-3.24115E+02 1.00994E-01-1.00396E-01 7.13572E-01 1.67674E-01-1.14392E+00
 -1      1452-4.77922E+02-2.12956E-01-1.14252E-01 1.08727E+00-2.22561E-01-6.75731E-01
 -1      1453-4.86787E+02-2.60087E-01-1.43571E-01 1.20072E+00 3.22747E-02-4.73302E-01
 -1      1454-5.01681E+02-1.36751E-02 3.38401E-01 7.09968E-01-1.97239E-01 7.19595E-01
 -1      1455-4.93297E+02 8.20934E-02 3.99556E-01 6.93675E-01 1.43084E-01 6.45269E-01
 -1      1456-4.89681E+02-1.15478E-01 2.46545E-01 1.25541E+00 1.94783E-01-7.51222E-02
 -1      1457-5.73025E+02-5.61766E-01-3.38005E-02 1.18369E+00-3.93216E-02 4.22520E-01
 -1      1458-5.66210E+02-2.43471E-01 3.73390E-01 8.40507E-01 5.70505E-02 4.87070E-01
 -1      1459-5.62575E+02 2.47264E-03 4.41579E-01 9.34621E-01-1.24004E-01 8.21753E-03
 -1      1460-5.59029E+02-2.19756E-01 2.96005E-01 4.81985E-01 7.18900E-02-5.52582E-01
 -1      1461-5.52901E+02-1.28973E-01 3.51376E-01 3.70802E-01-1.62692E-02-6.97950E-01
 -1      1462-3.03419E+02-9.17521E-02 1.05872E-01 1.22716E+00-1.13910E-01 6.91473E-01
 -1      1463-2.94023E+02-6.21718E-02 1.45559E-01 1.11394E+00 2.06892E-01 9.44979E-01
 -1      1464-3.08533E+02 1.16887E-01 1.66082E-01 1.24515E+00-4.58978E-02 1.32668E-01
 -1      1465-9.03333E+01-1.27688E-01 1.80044E-02 1.40266E+01-6.01176E-02 8.55844E-03
 -1      1466-1.26334E+02-1.64496E-01 5.22822E-02 1.48953E+01-1.87352E-02 3.56402E-02
 -1      1467-2.52534E+02-1.19833E-01-2.83303E-03 1.51613E+01-1.95284E-04-1.59238E-01
 -1      1468-1.74235E+02 6.11629E-02-5.20065E-03 1.55980E+01 5.10870E-02 1.73532E-01
 -1      1469-6.41030E+01-1.42254E-01-1.26026E-01 1.27200E+01 1.28896E-03 6.24530E-02
 -1      1470-2.90311E+02-1.73262E-01-9.85878E-02 1.43891E+01-2.14841E-03-2.19839E-02
 -1      1471-5.01372E+01-4.80634E-01-4.36150E-02 1.22561E+01-7.24896E-02 1.30058E-01
 -1      1472-4.16508E+02-1.55955E+00-4.06031E-02 4.70167E+00 8.92715E-02-5.79207E-02
 -1      1473 8.89314E+00-1.03107E+00-8.05966E-02 6.27468E+00-1.32146E-01 6.90932E-02
 -1      1474 2.14178E+01-9.17014E-01-1.41226E-01 3.05616E+00-4.26690E-01-8.40298E-02
 -1      1475-3.92981E+02-9.86450E-01-5.85353E-02 8.66936E+00 5.77835E-02 3.28551E-02
 -1      1476-2.83517E+01-6.13330E-01 7.42826E-02 1.07236E+01-1.07474E-01 1.26743E-01
 -1      1477 7.19335E-01-7.95105E-01-9.44077E-02 7.54931E+00-1.12206E-01-1.10344E-02
 -1      1478-4.02231E+02 6.19946E+00 5.19621E+00-1.08935E+01-9.28835E-01 8.85196E+00
 -1      1479-3.17119E+02-3.63705E-01-6.59691E-02 1.35474E+01 4.06325E-02-4.18002E-02
 -1      1480-1.55183E+02-1.89930E-01 2.04341E-01 1.54484E+01-9.86318E-02 1.20935E-01
 -1      1481-2.11740E+02-7.76540E-01-1.04294E-01 1.52830E+01 1.02270E-03-1.04836E-01
 -1      1482-3.56768E+02-6.45679E-01-1.12060E-01 1.15977E+01 2.53170E-02-1.66112E-01
 -1      1483-2.33010E+02-3.66966E-02 4.02128E-02 1.53366E+01-8.51327E-02-4.40469E-02
 -1      1484-3.42007E+02-5.13858E-01 1.44538E-01 1.22691E+01 1.04387E-01-1.80912E-02
 -1      1485-1.66340E+01-6.98443E-01 9.05860E-02 9.21019E+00-2.42523E-01 3.01500E-02
 -1      1486-4.09187E+02-1.28280E+00 1.34457E-01 6.65109E+00 2.10808E-01 2.11951E-02
 -1      1487-3.80981E+02-9.85509E-01-2.34868E-02 1.00390E+01 7.80325E-02-9.97583E-02
 -1      1488-8.56303E+01-2.09369E+01 6.33508E+00-2.46977E+01-5.37648E+00-8.10609E-01
 -1      1489-1.97032E+02 3.47572E-01 8.66288E-02 1.96624E+01-1.06674E-02-1.32955E-01
 -1      1490-2.71222E+02-1.28134E-01 1.69308E-02 1.51501E+01-9.66675E-03-1.35805E-01
 -1      1491-1.07879E+02-1.04432E-01-1.15427E-01 1.44154E+01-3.25045E-02 1.12952E-02
 -1      1492 1.44019E+01-1.09529E+00 8.43118E-04 4.70376E+00-1.45587E-01-9.42108E-03
 -1      1493-4.22703E+02-1.07884E+00 6.90002E-02 1.76170E+00 6.99195E-02 2.78803E-01
 -1      1494-4.15681E+02 1.22230E+00-3.75267E-02-3.15958E+00 1.23820E-01 2.32627E+00
 -1      1495-1.95655E+02 2.24104E+00 2.19299E+00-3.58543E+00-3.26996E+00 3.00716E+00
 -1      1496-2.23034E+02-2.36539E-02-3.41894E-02 1.56480E+01 1.69500E-02-1.28302E-01
 -1      1497-8.12070E+01-2.70347E-01-1.79976E-01 1.32677E+01 3.56293E-02 3.43028E-02
 -1      1498-7.23796E+01-3.15010E-01 1.70982E-01 1.33533E+01-1.19160E-01 1.76650E-02
 -1      1499-2.00108E+02-4.00910E-01 5.81165E-02 1.64835E+01-3.27260E-02 5.81333E-02
 -1      1500-1.35564E+02-5.05924E-02-7.98010E-02 1.48171E+01 1.02075E-02-1.83732E-02
 -1      1501-2.99436E+02-2.38754E-01-1.28715E-02 1.40999E+01 2.52055E-02-2.90399E-02
 -1      1502-4.22781E+01-5.15414E-01-1.82367E-01 1.13352E+01-1.65642E-02-1.16060E-02
 -1      1503-3.42884E+01-5.77349E-01 1.67752E-02 1.10147E+01-8.47922E-02 2.79365E-03
 -1      1504-2.02126E+02-8.60004E-01 4.54150E-02 1.36936E+01 5.42623E-02 1.26387E-02
 -1      1505-2.43070E+02-7.74716E-02 2.56929E-02 1.57352E+01-2.40291E-02-5.39278E-02
 -1      1506-9.07118E+00-7.57288E-01-5.97103E-02 8.84986E+00-1.35564E-01 4.20331E-02
 -1      1507-2.62017E+02-1.43022E-01 3.37442E-02 1.48750E+01-3.00327E-02-7.74503E-02
 -1      1508-3.87729E+02-1.00749E+00 1.07453E-01 9.07862E+00 1.99225E-01-1.67302E-02
 -1      1509 5.16972E+00-9.67857E-01 4.63867E-02 6.68800E+00-2.49910E-01 1.29850E-02
 -1      1510-4.19729E+00-7.20321E-01-1.44974E-01 8.38564E+00-3.37902E-02 8.60710E-02
 -1      1511-2.03076E+02-1.20592E+00 6.66598E-02 9.98899E+00-5.34451E-03 9.70581E-03
 -1      1512-1.64250E+02-8.64998E-02-2.99106E-01 1.52244E+01 1.17086E-01-9.47829E-02
 -1      1513-3.49621E+02-5.25932E-01-4.81057E-02 1.19373E+01 4.19489E-02-6.30089E-03
 -1      1514 1.29785E+01-1.09947E+00-9.46225E-02 5.32860E+00-1.44878E-01-5.71527E-03
 -1      1515-2.02284E+02-1.41539E+00-3.71295E-03 7.27130E+00-2.60319E-04 1.37425E-02
 -1      1516-4.20711E+02-1.45819E+00-3.55929E-02 3.62157E+00 1.16485E-01 3.44548E-02
 -1      1517 1.85569E+01-1.01672E+00-1.48236E-01 4.04510E+00-1.31988E-01 4.07725E-03
 -1      1518-2.02812E+01-5.50907E-01-1.01647E-01 9.93625E+00-7.68660E-02 4.23113E-02
 -1      1519-1.17525E+02-1.72417E-01 1.15304E-01 1.48249E+01-5.11955E-02 2.27505E-01
 -1      1520-9.89294E+01-1.15906E-01-2.13975E-02 1.44235E+01-3.11620E-02 1.91198E-01
 -1      1521-5.71212E+01-3.54751E-01 1.37777E-01 1.21193E+01-1.84600E-01 3.17040E-02
 -1      1522-1.45228E+02 5.68302E-02-2.32876E-01 1.53728E+01 2.28379E-02 4.87135E-02
 -1      1523-2.81324E+02-1.74096E-01 2.41706E-01 1.43928E+01 1.12392E-01 2.39808E-02
 -1      1524-3.08260E+02-1.95777E-01-7.48795E-02 1.38005E+01 5.08364E-02-4.58527E-02
 -1      1525-2.00596E+02-1.27978E-02 1.86881E-01 1.91867E+00-6.80980E-01 8.26850E-01
 -1      1526 2.48474E+01-8.49994E-01-1.61580E-01 1.36933E+00-8.74943E-01-1.48028E-01
 -1      1527-3.01145E+02-1.06195E+01 3.15135E+01-1.45155E+01-4.94260E+00 1.87588E+00
 -1      1528-3.36219E+02-4.07620E-01-3.85209E-02 1.28643E+01 4.39075E-02-8.04631E-02
 -1      1529-3.27761E+02-4.91008E-01 4.40237E-02 1.28976E+01 4.33990E-02-1.33371E-01
 -1      1530-4.13477E+02-1.25207E+00-6.09308E-02 6.02937E+00 9.65482E-02 2.90265E-02
 -1      1531-4.16855E+02-1.37063E+00-4.97598E-02 5.33239E+00 1.07930E-01-1.06142E-02
 -1      1532-4.05126E+02-1.18095E+00 1.56371E-02 7.44075E+00 9.37571E-02-5.23579E-02
 -1      1533-2.01740E+02-7.42208E-01 4.64194E-04 1.29636E+01-6.76998E-02 2.79763E-02
 -1      1534-3.67749E+02-7.82413E-01 7.60577E-02 1.10300E+01 4.22932E-02-3.02149E-02
 -1      1535-2.02448E+02-1.13447E+00 6.91004E-02 1.08199E+01-1.61527E-02 2.18330E-02
 -1      1536-1.98539E+02-1.58019E-02-6.28748E-02 1.96607E+01-7.98728E-03 2.00905E-03
 -1      1537-1.99541E+02-5.63842E-02 1.74321E-02 1.94976E+01 5.77906E-02-3.60400E-02
 -1      1538-1.98607E+02-2.12428E-01 4.24552E-02 1.85213E+01 3.08464E-02-2.77250E-02
 -1      1539-1.99057E+02 6.99973E-02-5.88305E-02 1.85565E+01 6.36114E-02-1.33981E-02
 -1      1540-1.99397E+02-2.50019E-01 6.09262E-03 1.82288E+01-4.49453E-02 1.26129E-02
 -1      1541-1.98699E+02-1.42976E-01-1.01322E-01 1.95043E+01-1.50091E-01 6.23030E-03
 -1      1542-1.99448E+02-1.27149E-01 1.07468E-01 1.91952E+01 7.71986E-02 6.18971E-02
 -1      1543-1.99470E+02-5.14341E-01 5.72514E-02 1.53857E+01-8.02243E-02 6.39444E-02
 -1      1544-1.99843E+02-3.07255E-01-1.13744E-01 1.71978E+01 2.75497E-03 1.28148E-02
 -1      1545-2.01570E+02-1.53898E+00 3.10256E-02 5.33433E+00-2.85756E-02 2.08239E-02
 -1      1546-2.01348E+02-9.35929E-01-2.63911E-01 3.82677E+00-1.30824E-01 8.10172E-02
 -1      1547-1.98834E+02-1.61255E-01-1.25549E-01 1.89440E+01-1.11480E-01 4.37775E-03
 -1      1548-1.99412E+02-2.18195E-01 3.18123E-02 1.78283E+01-1.85833E-02-1.49834E-02
 -1      1549-2.01152E+02-8.77169E-01 8.04710E-03 1.22373E+01 3.75580E-02 7.64319E-03
 -1      1550-1.98852E+02-1.91454E-01-5.62898E-02 1.93552E+01 1.79042E-02-3.43319E-02
 -1      1551-2.01499E+02-9.60603E-01 1.49900E-02 1.15278E+01-5.65709E-02 2.52759E-02
 -1      1552-2.00336E+02-5.97643E-01-1.46981E-02 1.47293E+01 1.35377E-02 3.66388E-02
 -1      1553-1.99493E+02-4.89337E-01-5.17880E-02 1.59216E+01 6.82961E-02 1.81221E-02
 -1      1554-1.99493E+02-5.23081E-01-1.58060E-02 1.70910E+01 3.09757E-03-2.42361E-02
 -1      1555-3.75400E+02-8.50334E-01-9.03429E-03 1.02719E+01 1.13157E-01 2.90505E-02
 -1      1556-2.00078E+02-8.91620E-01 5.94184E-02 1.43716E+01-1.14707E-02 5.08521E-02
 -1      1557-2.01354E+02-1.51495E+00 1.05920E-02 6.43602E+00-4.44273E-02 2.57720E-02
 -1      1558-3.99536E+02-1.08815E+00-1.20445E-01 8.07789E+00 4.59273E-02-1.20591E-01
 -1      1559-2.01091E+02-1.19811E+00-7.07016E-03 9.08964E+00-1.89304E-03 6.09968E-03
 -1      1560-2.01672E+02-1.27441E+00 4.79733E-03 8.22856E+00-5.82990E-02 2.29093E-02
 -1      1561-2.00807E+02-1.29591E+00-2.82115E-01 1.95329E+01 1.55376E-02 4.90776E-02
 -1      1562 1.85332E+01-5.43192E+00-1.09490E+00-8.55750E+00-3.25637E+00-1.66133E+00
 -1      1563-1.85747E+02 8.64893E-01 9.91085E-02 1.52593E+01-2.02346E-02 7.58663E-02
 -1      1564-1.92173E+02-6.02058E+00 2.07262E+00-9.07940E+00-4.88059E+00 2.52651E+00
 -1      1565-4.92733E+02 7.48969E+00 4.31004E+01-1.19261E+00-2.51923E+00-3.63994E+00
 -1      1566 9.09703E+01-1.84240E+01-9.32406E+00-3.07294E+01-4.77529E+00-1.16937E+00
 -1      1567-2.04213E+02-1.15413E+00-2.42844E-01 1.10241E+01-2.07859E-01 5.97588E-02
 -1      1568-1.93549E+02 1.27042E+00 3.10312E-01 1.13338E+01-1.38471E-01-6.82825E-02
 -1      1569-1.98786E+02-6.75670E-02 1.56669E-01 2.08819E+01 1.50882E-02 3.71991E-02
 -1      1570 5.07227E+01-1.65679E+01-1.36615E+01-4.99724E+01-4.48151E+00 2.14171E+00
 -1      1571 1.72197E+02 1.47350E+01 2.59520E+01-2.41334E+01 1.82995E+00 2.50695E+01
 -1      1572 1.63306E+02-1.35931E+01-9.99479E+00-2.34767E+01-6.92444E+00-3.96782E+00
 -1      1573-6.61339E+02-9.65281E+01-7.88821E+01 3.60784E+01 1.07487E+01-8.23555E+01
 -1      1574-5.15380E+02-9.59470E+01-6.23811E+01-8.46850E+00 2.69818E+00-7.61727E+01
 -1      1575-5.01242E+02 3.20301E+01 3.16190E+01-2.35183E+01-1.32470E+01 1.66550E+01
 -1      1576-1.94347E+02-1.00435E+00 6.64869E-01 7.65981E+00-3.60463E-01-1.79491E-01
 -1      1577-1.97284E+02-4.38425E+00 5.92399E-01 1.34650E+01-3.34263E-01 3.50191E-01
 -1      1578-1.84908E+02 1.51409E+00-8.26996E-04 4.85626E+00 4.47067E-01-2.56642E-01
 -1      1579-2.00451E+02 4.18510E+00-6.44043E-01 1.33896E+01-3.15158E-01-3.76173E-01
 -1      1580-2.03285E+02 9.85149E-01-7.16274E-01 7.60105E+00-4.03466E-01 1.42816E-01
 -1      1581-2.12813E+02-9.50689E-01 1.66637E-01 5.00591E+00 1.46407E-01 2.72593E-01
 -1      1582-1.67745E+02-5.77497E+01-3.65966E+01-4.80391E+01-5.95381E+00-3.03282E+01
 -1      1583-3.63192E+01-1.18214E+01 2.38801E+00-4.73854E+01-5.28618E+00-2.31159E+00
 -1      1584 7.70903E+00-1.45306E+01-2.86295E+00-3.04250E+01-3.13951E+00-1.38758E+00
 -1      1585-4.10563E+02-9.82440E+01-5.83886E+01-2.53807E+01-6.81804E+00-6.04849E+01
 -1      1586-2.79424E+02-5.50126E+01-2.87894E+01-3.96177E+01-3.53569E+00-3.70516E+01
 -1      1587-1.88092E+02-1.60004E+01 1.71675E+01-2.14290E+01-3.89198E+00 3.89975E-01
 -1      1588-3.91173E+02-4.22597E+00 3.90081E+01-1.14166E+01-2.85125E+00-1.32958E+00
 -1      1589-1.97495E+02-4.47804E+00 5.15502E-01 1.60602E+01 9.73356E-02-5.40868E-03
 -1      1590-1.98675E+02-3.95956E-02 2.45434E-01 1.72348E+01 1.43093E-01-1.00866E-01
 -1      1591-1.95495E+02 7.35486E-02-3.18737E-01 1.59093E+01-2.70372E-01-1.93831E-01
 -1      1592-1.99533E+02-3.77470E-01-4.00243E-01 1.71931E+01 1.94027E-01-5.25801E-02
 -1      1593-2.00237E+02 4.07579E+00-5.38575E-01 1.62652E+01 1.67426E-01-1.36874E-02
 -1      1594-1.98644E+02 4.37983E-02 1.68316E-01 2.02683E+01-2.96549E-01-2.03394E-01
 -1      1595-2.02279E+02-1.93033E-01 2.69347E-01 1.58741E+01-2.66074E-01 8.37337E-02
 -1      1596 1.34604E+02-1.90161E+00-1.27464E-03-1.07279E+01-4.89574E-01-5.96847E-01
 -1      1597 1.36036E+02-2.68252E+00-2.15182E+00-4.00332E+00-1.17891E+00-1.16185E+00
 -1      1598 5.52359E+01-8.55684E+00-1.09827E-01-2.13108E+01-3.44585E+00-2.39157E+00
 -1      1599 1.39941E+02-1.19174E+00-7.45231E-01-1.43218E-01-5.91531E-01 2.23171E-01
 -1      1600 1.38773E+02-5.67504E-01-4.33947E-01 1.05657E+00-2.72660E-01-5.21948E-02
 -1      1601 2.17864E+01-2.16283E+00-9.42305E-03-2.45910E+00-1.76574E+00-2.20595E-01
 -1      1602 1.36995E+02-4.53769E-01-1.57293E-01 1.73187E+00-2.09983E-01-3.92751E-02
 -1      1603 1.34808E+02-5.15868E-01 7.99752E-02 1.81793E+00-2.55814E-01-1.07402E-01
 -1      1604 2.33298E+01-6.47867E-01-1.14675E-01 2.48622E+00-5.76200E-01-1.62619E-01
 -1      1605 1.33246E+02-5.84419E-01-6.39327E-03 2.17667E+00-1.33925E-01-7.31196E-02
 -1      1606 1.30823E+02-5.59970E-01-1.67071E-01 2.27720E+00-5.80579E-02-2.94215E-02
 -1      1607 2.00061E+01-8.79194E-01 6.15793E-02 3.53244E+00-4.10337E-01-3.42598E-02
 -1      1608 1.28793E+02-5.54341E-01 4.41981E-02 2.57852E+00-1.10078E-01-1.48844E-02
 -1      1609 1.25827E+02-6.35626E-01 4.49224E-02 2.76204E+00-6.69780E-02-1.26884E-01
 -1      1610 1.65372E+01-1.00388E+00-8.93873E-02 4.40809E+00-9.51601E-02 1.98749E-02
 -1      1611 1.24987E+02-3.88151E-01-8.98831E-02 3.04981E+00-9.87957E-02-1.46988E-01
 -1      1612 1.21480E+02-4.86011E-01-2.10191E-01 3.06961E+00-3.25641E-02 2.16454E-02
 -1      1613 1.38922E+01-9.48273E-01-3.64162E-02 5.16829E+00-8.46737E-02-8.92937E-02
 -1      1614 1.19403E+02-6.07210E-01-1.10057E-01 3.41067E+00-5.63510E-02-4.34091E-02
 -1      1615 1.15819E+02-5.08363E-01-9.72119E-02 3.59057E+00-5.52634E-02-2.28534E-02
 -1      1616 1.10745E+01-1.08639E+00 4.17223E-02 5.75476E+00-1.88975E-01 9.84445E-02
 -1      1617 1.13872E+02-4.82813E-01-5.12239E-03 3.70534E+00-1.05649E-01 1.17506E-02
 -1      1618 1.09450E+02-4.69375E-01 2.18357E-01 3.81721E+00-1.97022E-01-1.17223E-01
 -1      1619 7.39343E+00-7.69335E-01 5.78677E-02 6.53954E+00-1.24453E-01 9.96436E-02
 -1      1620 1.06988E+02-4.20245E-01-2.53694E-02 4.20883E+00-1.76427E-01-1.90679E-01
 -1      1621 1.02214E+02-4.63576E-01 1.67977E-03 4.26146E+00-5.45957E-02-1.23439E-01
 -1      1622 3.10653E+00-8.10695E-01 7.63875E-02 7.21194E+00-2.64469E-01-6.74065E-02
 -1      1623 9.95149E+01-4.04872E-01-7.18020E-02 4.64608E+00-9.69530E-02-1.55955E-01
 -1      1624 9.45250E+01-4.79230E-01-2.37122E-01 4.66838E+00 2.97207E-02-8.79403E-02
 -1      1625-1.60600E+00-7.02230E-01-2.42540E-02 8.04400E+00-1.32797E-01-8.86196E-03
 -1      1626 9.19587E+01-4.91378E-01-6.82753E-02 4.92409E+00-8.37732E-02 1.66276E-02
 -1      1627 8.67046E+01-3.77644E-01-2.08592E-02 5.03495E+00-2.66038E-02-7.74441E-02
 -1      1628-6.51584E+00-6.41570E-01-4.00966E-02 8.56382E+00-3.50120E-02 1.27903E-01
 -1      1629 8.28008E+01-4.00070E-01 3.57954E-02 5.12902E+00-1.08975E-01 4.11016E-02
 -1      1630 7.67919E+01-3.72342E-01 2.72677E-01 5.24241E+00-1.91587E-01-1.69271E-01
 -1      1631-1.24562E+01-4.90536E-01 1.38654E-01 9.13253E+00-1.28423E-01 1.36440E-01
 -1      1632 7.44365E+01-3.20883E-01-1.43676E-01 5.59336E+00-1.62621E-01-2.21827E-01
 -1      1633 6.84469E+01-2.01685E-01-1.74576E-01 5.57038E+00 9.05576E-03 5.39589E-02
 -1      1634-1.84577E+01-5.83420E-01 8.81475E-02 9.73364E+00-2.82954E-01-8.14160E-02
 -1      1635 6.43942E+01-2.46020E-01 1.61201E-01 5.84335E+00-1.38551E-01-8.97517E-02
 -1      1636 5.79485E+01-3.60174E-01 6.05153E-02 6.03366E+00-2.24527E-02-2.26923E-01
 -1      1637-2.42530E+01-6.59121E-01 1.37480E-02 1.02800E+01-1.46426E-01 1.42916E-01
 -1      1638 5.47256E+01-2.70389E-01-2.56770E-02 6.09801E+00-1.05836E-01-2.11129E-01
 -1      1639 4.76562E+01-3.75873E-01 4.05615E-02 6.28499E+00 7.83691E-02-2.76897E-01
 -1      1640-3.12368E+01-5.62358E-01-2.56334E-02 1.09939E+01-3.27046E-02 5.09777E-04
 -1      1641 4.34243E+01-2.79863E-02-2.51753E-01 6.50975E+00 1.49213E-02-2.92342E-01
 -1      1642 3.58863E+01-2.73431E-01-3.32522E-01 6.44623E+00 5.97058E-02 4.86535E-03
 -1      1643-3.80285E+01-3.65362E-01-8.65817E-02 1.14313E+01 1.06968E-01-1.47045E-01
 -1      1644 3.20020E+01-3.63723E-01-5.22194E-02 6.76583E+00-1.50273E-02-6.46594E-02
 -1      1645 2.49895E+01-2.39718E-01-9.88163E-02 6.88860E+00-2.53127E-02-3.37030E-02
 -1      1646-4.61198E+01-6.22083E-01 1.05733E-01 1.17940E+01-1.42623E-01 1.51048E-01
 -1      1647 2.12441E+01-2.70977E-01 1.15906E-01 6.75941E+00-6.23529E-02 6.74218E-02
 -1      1648 1.33073E+01-2.70842E-01 3.49565E-01 6.90433E+00-1.68811E-01-2.26744E-01
 -1      1649-5.31123E+01-4.29401E-02 1.53876E-01 1.22384E+01-1.02238E-02 1.97333E-01
 -1      1650 9.25610E+00-1.33795E-01-3.03528E-02 7.22440E+00-1.55666E-01-2.84716E-01
 -1      1651 1.44879E+00-4.33873E-02-2.28811E-01 7.09037E+00-2.01851E-02 2.06757E-02
 -1      1652-6.05206E+01-3.03424E-01 1.91171E-01 1.26562E+01-3.00153E-01-1.50439E-01
 -1      1653-2.64237E+00 6.20551E-04 3.39624E-01 7.33751E+00-1.80790E-01-1.10119E-01
 -1      1654-1.07126E+01-1.93821E-01 1.19631E-01 7.58888E+00 7.50013E-02-3.31045E-01
 -1      1655-6.82455E+01-1.79687E-01-2.23315E-02 1.30332E+01-1.03911E-01 1.30441E-01
 -1      1656-1.57841E+01 4.15715E-02-3.46252E-01 7.52766E+00 7.02452E-02-2.48111E-01
 -1      1657-2.44436E+01 4.57221E-02-2.04335E-01 7.47223E+00 1.84210E-02 8.18254E-02
 -1      1658-7.68473E+01-1.93410E-01-1.46661E-01 1.35005E+01 1.47187E-01-1.51658E-01
 -1      1659-2.87676E+01 1.17997E-01 1.48092E-01 7.79579E+00-1.05883E-01-2.42393E-01
 -1      1660-3.76337E+01-8.77040E-02 1.14067E-01 7.87245E+00-3.32457E-02-2.97621E-01
 -1      1661-8.58902E+01-4.55053E-01-1.06134E-01 1.37738E+01-1.10997E-01 1.17134E-01
 -1      1662-4.22566E+01-3.95511E-02 9.85181E-02 7.95334E+00-1.25385E-01-2.62494E-01
 -1      1663-5.10178E+01-1.38629E-01-1.02184E-01 7.98922E+00 7.74238E-02-2.46986E-01
 -1      1664-9.47699E+01-1.67812E-01-5.61083E-02 1.43125E+01-1.66602E-01 6.75431E-02
 -1      1665-5.58012E+01 1.55241E-02-2.04484E-01 8.12035E+00-1.90331E-02-2.88849E-01
 -1      1666-6.50566E+01-1.46571E-01-2.41939E-01 8.14588E+00 7.51430E-02-6.53072E-02
 -1      1667-1.03112E+02 4.15863E-02 5.24379E-02 1.46070E+01 9.90214E-02 6.08651E-02
 -1      1668-6.98209E+01-1.65178E-01 1.54041E-01 8.06876E+00-5.28200E-02-9.87167E-02
 -1      1669-7.86805E+01-2.47565E-02 3.61672E-02 8.31434E+00 3.51968E-02-2.27957E-01
 -1      1670-1.12576E+02-2.25050E-01 1.57997E-01 1.46368E+01-1.36034E-01 2.11532E-01
 -1      1671-8.36010E+01-4.54390E-03-4.54999E-02 8.28376E+00-4.90913E-02-2.89189E-01
 -1      1672-9.30081E+01-1.37800E-01-6.84055E-03 8.40140E+00 1.11580E-01-3.64685E-01
 -1      1673-1.21571E+02-7.34319E-02-2.51004E-02 1.50332E+01 1.12770E-01 5.72590E-02
 -1      1674-9.77592E+01 1.54859E-01-1.09141E-01 8.34518E+00-4.86619E-03-3.56566E-01
 -1      1675-1.07568E+02-1.51601E-01 2.49842E-02 8.31446E+00-1.73037E-02-3.45765E-01
 -1      1676-1.30931E+02-3.49863E-02-2.98863E-02 1.51376E+01 1.38897E-01-7.56781E-02
 -1      1677-1.12569E+02 9.67503E-02-9.55127E-02 8.66457E+00-9.71693E-02-3.79349E-01
 -1      1678-1.22177E+02-6.34528E-02-3.50815E-01 8.63241E+00 1.32043E-01 5.46341E-03
 -1      1679-1.40347E+02-4.88716E-02-2.77306E-02 1.53738E+01-1.34575E-01-1.52485E-01
 -1      1680-1.27099E+02-1.53642E-01 2.38536E-01 8.42381E+00-5.77484E-02-9.63132E-02
 -1      1681-1.36388E+02-5.87107E-02 7.58457E-02 8.75070E+00 9.22570E-02-2.97391E-01
 -1      1682-1.50121E+02-1.80554E-01 1.19256E-01 1.53846E+01-1.01579E-01 1.82684E-01
 -1      1683-1.41648E+02 2.34463E-01-4.00738E-01 8.71646E+00 9.35437E-02-3.66744E-01
 -1      1684-1.51855E+02-1.33922E-01-4.04241E-01 8.59463E+00 1.50368E-01-2.56271E-02
 -1      1685-1.59166E+02 1.44501E-01-1.21919E-01 1.56089E+01 2.73303E-01-1.71826E-01
 -1      1686-1.56669E+02-1.24417E-01-1.23057E-02 8.63389E+00 4.95177E-02-9.86632E-02
 -1      1687-1.65756E+02 1.04456E-01-3.24520E-02 8.53615E+00 4.78538E-02-8.81670E-03
 -1      1688-1.69194E+02-2.38554E-01 1.07816E-01 1.55021E+01-3.12159E-02 1.36812E-01
 -1      1689-1.72457E+02 1.60833E-01 6.99890E-03 8.41668E+00 3.99539E-02 9.49375E-02
 -1      1690-1.81025E+02 3.66279E-01-5.28311E-02 8.01621E+00-1.18117E-01 1.04318E-01
 -1      1691-1.79543E+02 6.88914E-01 1.56219E-01 1.53954E+01 1.59773E-01 2.24947E-01
 -1      1692-1.88388E+02 1.13212E+00 3.17477E-01 1.30869E+01-3.60826E-02-1.41180E-01
 -1      1693-5.12380E+02 4.89384E+00 3.80143E+00-6.36212E+00-1.28595E+00 5.04733E+00
 -1      1694-5.04634E+02-4.50410E+00-6.69330E+00-1.20575E+01 4.01643E+00 5.04211E+00
 -1      1695-4.23900E+02 1.01377E+01 1.07801E+01-1.00874E+01-1.88387E+00 9.34227E+00
 -1      1696-5.29974E+02 3.16789E-01-2.41089E-01-1.31644E+00-1.54806E-01 1.51146E+00
 -1      1697-5.23025E+02 2.14539E-01-1.84576E-01-2.67997E+00 5.25951E-01 1.39307E+00
 -1      1698-4.08086E+02 2.50149E+00 1.55280E+00-5.48872E+00 5.21649E-01 3.23510E+00
 -1      1699-5.34377E+02-7.15920E-01 2.86451E-02 1.11864E+00 3.58278E-02 1.66973E-01
 -1      1700-5.33258E+02-4.72725E-01-3.12939E-02 5.16409E-01 1.41068E-01 5.86414E-01
 -1      1701-4.20167E+02 1.17321E-01-2.90209E-01-3.57998E-01 3.28215E-02 1.21754E+00
 -1      1702-5.31477E+02-8.37817E-01-1.29716E-02 2.07075E+00 1.07598E-01-1.91158E-02
 -1      1703-5.33254E+02-7.06795E-01 1.33244E-02 1.93463E+00 2.89277E-02 6.15471E-03
 -1      1704-4.21905E+02-1.31250E+00 2.35782E-02 2.73471E+00 8.37041E-02 1.61773E-01
 -1      1705-5.26501E+02-8.80223E-01-8.94237E-03 2.63198E+00 6.71192E-02 5.77647E-03
 -1      1706-5.29135E+02-7.76362E-01-9.23665E-03 2.54225E+00 1.52987E-02-2.04155E-02
 -1      1707-4.18630E+02-1.48045E+00-5.23967E-04 4.15620E+00 8.68003E-02-2.37489E-02
 -1      1708-5.23057E+02-6.91250E-01 9.97708E-03 3.05459E+00 1.07687E-01 1.42737E-01
 -1      1709-5.26539E+02-7.47279E-01-1.04642E-01 2.93627E+00 1.23963E-02 1.36402E-02
 -1      1710-4.16736E+02-1.53657E+00-1.83781E-02 4.97955E+00 1.40182E-01-2.84189E-02
 -1      1711-5.17355E+02-6.45588E-01 1.09107E-02 3.45545E+00 1.43420E-01 1.73688E-01
 -1      1712-5.21332E+02-7.48842E-01 1.28983E-02 3.30836E+00 4.16373E-02 1.13991E-01
 -1      1713-4.15138E+02-1.26510E+00 6.82132E-04 5.77380E+00 1.39812E-01 5.77992E-02
 -1      1714-5.10467E+02-5.03575E-01 2.04174E-01 3.79628E+00 1.29987E-01 2.88600E-02
 -1      1715-5.15006E+02-7.26360E-01 2.39084E-01 3.74142E+00 1.45712E-01 1.34334E-01
 -1      1716-4.11433E+02-1.29853E+00 4.96202E-02 6.43369E+00 2.37143E-01 1.02225E-01
 -1      1717-5.04013E+02-5.86920E-01 7.28348E-02 4.23705E+00 4.33722E-02-3.02934E-02
 -1      1718-5.08599E+02-5.75792E-01 1.93936E-02 4.13048E+00 1.10854E-01 6.27405E-02
 -1      1719-4.07212E+02-1.13150E+00-9.29308E-02 7.14834E+00 1.02596E-01-5.23493E-02
 -1      1720-4.96013E+02-6.12122E-01 9.77396E-04 4.55281E+00 5.60987E-02 1.45582E-01
 -1      1721-5.01104E+02-5.85341E-01-1.15222E-01 4.36794E+00 2.48687E-02 5.14811E-02
 -1      1722-4.02587E+02-1.13588E+00-1.74012E-01 7.76881E+00 1.12109E-02-1.69806E-01
 -1      1723-4.86886E+02-4.86941E-01-8.56537E-03 4.92735E+00 1.51776E-01 2.45779E-01
 -1      1724-4.92475E+02-5.92436E-01 4.25697E-02 4.79348E+00 5.43068E-03 1.63011E-01
 -1      1725-3.96473E+02-1.04707E+00-2.82729E-02 8.51552E+00 1.50111E-01 1.43955E-03
 -1      1726-4.77980E+02-5.71095E-01 1.13333E-01 5.09978E+00 9.33242E-02-5.99299E-02
 -1      1727-4.83956E+02-5.69740E-01 2.89358E-01 5.08001E+00 1.46305E-01 1.58905E-01
 -1      1728-3.90331E+02-1.01902E+00 7.15476E-02 9.00309E+00 2.32622E-01 1.14159E-01
 -1      1729-4.68547E+02-6.24536E-01 9.10432E-03 5.57060E+00 4.89569E-02 2.96675E-02
 -1      1730-4.74353E+02-4.85470E-01-3.71346E-02 5.53839E+00 1.40484E-02 2.44672E-03
 -1      1731-3.84037E+02-7.50157E-01 7.90076E-02 9.58759E+00 5.11124E-02-1.30743E-01
 -1      1732-4.58832E+02-5.15907E-01-4.78188E-02 5.85748E+00 7.08931E-02-7.81237E-02
 -1      1733-4.65236E+02-3.79524E-01 4.63563E-02 5.79008E+00 4.60371E-03-8.25521E-02
 -1      1734-3.78063E+02-1.01005E+00 1.51000E-01 1.01359E+01 1.82859E-01-8.93353E-02
 -1      1735-4.47948E+02-4.07824E-01 8.47403E-02 6.24013E+00 1.14540E-01 1.37795E-02
 -1      1736-4.54648E+02-5.15016E-01 3.34457E-02 6.13874E+00-2.14930E-02 1.12271E-01
 -1      1737-3.71464E+02-6.74680E-01 1.22780E-01 1.07421E+01 3.72161E-02-1.57773E-02
 -1      1738-4.35233E+02-3.86055E-01-1.23770E-02 6.52459E+00 6.14606E-02 1.85051E-01
 -1      1739-4.42305E+02-3.05617E-01-1.37656E-01 6.29369E+00 5.40611E-03 6.48438E-02
 -1      1740-3.62341E+02-6.26924E-01-1.02199E-01 1.13078E+01-3.10032E-02-1.41413E-01
 -1      1741-4.23603E+02-2.30714E-01 3.52399E-02 6.74510E+00 1.26115E-01 2.99123E-01
 -1      1742-4.31253E+02-3.71788E-01 4.61985E-02 6.62820E+00-8.50685E-03 2.29957E-01
 -1      1743-3.53474E+02-6.21893E-01 1.23624E-02 1.19032E+01 1.48743E-01-2.32665E-02
 -1      1744-4.11520E+02-1.61194E-01 2.62451E-01 6.90826E+00 1.09699E-01 9.69275E-02
 -1      1745-4.19470E+02-4.31595E-01 2.31001E-01 6.95390E+00 6.46845E-02 2.65794E-01
 -1      1746-3.45936E+02-6.41023E-01-2.21934E-02 1.23129E+01 2.16018E-01 9.32011E-02
 -1      1747-4.00974E+02-1.76469E-01 9.00079E-02 7.12680E+00 2.92813E-02 6.41579E-02
 -1      1748-4.08625E+02-1.40371E-01-1.68042E-02 7.09398E+00 6.55705E-02 1.28347E-01
 -1      1749-3.39308E+02-3.80647E-01-1.51725E-01 1.25972E+01-3.01335E-02-1.17467E-01
 -1      1750-3.88057E+02-3.58181E-01 4.11129E-02 7.23088E+00-3.16428E-02 1.05654E-02
 -1      1751-3.95979E+02-9.32052E-02-2.76675E-03 7.15998E+00 1.12873E-01-8.76031E-02
 -1      1752-3.32280E+02-5.25122E-01-1.78447E-01 1.28761E+01 1.00420E-01-2.00062E-01
 -1      1753-3.73997E+02-8.59785E-02-4.59972E-02 7.69512E+00 1.01588E-01 3.23513E-01
 -1      1754-3.82518E+02-2.49158E-01-2.50434E-01 7.57130E+00-8.44803E-02 3.42469E-02
 -1      1755-3.22464E+02-5.93081E-01 1.31240E-01 1.32853E+01 1.49148E-01-8.71892E-02
 -1      1756-3.60553E+02-5.18562E-02 2.95768E-02 7.76983E+00 1.18732E-01 3.47087E-01
 -1      1757-3.69408E+02-2.38051E-01-5.09021E-03 7.65390E+00 1.54679E-02 2.71351E-01
 -1      1758-3.12604E+02-2.27067E-01 5.06404E-02 1.38853E+01 1.01352E-01 6.68272E-02
 -1      1759-3.46940E+02-3.31126E-02 4.19133E-02 7.91722E+00 8.58316E-02 3.40743E-01
 -1      1760-3.55976E+02-2.31812E-01 5.86113E-02 7.83432E+00-4.39933E-03 2.98750E-01
 -1      1761-3.03897E+02-3.16284E-01-6.20521E-02 1.41754E+01 1.40065E-01 6.42814E-02
 -1      1762-3.33185E+02-1.02433E-02-5.87088E-02 8.17895E+00 1.66489E-01 3.58798E-01
 -1      1763-3.42359E+02-1.89321E-01-1.33805E-02 8.00631E+00-4.23631E-02 2.65938E-01
 -1      1764-2.94923E+02-2.57950E-01-4.10049E-02 1.45116E+01 6.95187E-02 1.47982E-02
 -1      1765-3.18677E+02 2.34469E-03 3.80860E-01 8.14034E+00 1.31750E-01 1.38742E-02
 -1      1766-3.28349E+02-3.51660E-01 3.50312E-01 8.25665E+00 1.16571E-01 3.63633E-01
 -1      1767-2.86072E+02-3.10111E-01 1.20170E-01 1.46922E+01 2.44736E-01 1.84897E-01
 -1      1768-3.04949E+02-2.32545E-02 1.18568E-01 8.44049E+00-1.74005E-02 5.59473E-02
 -1      1769-3.13748E+02 7.18067E-02 5.63587E-04 8.41509E+00 2.43180E-02 8.29359E-02
 -1      1770-2.76324E+02 2.29066E-02-1.32825E-01 1.48191E+01-6.75477E-02-1.52164E-01
 -1      1771-2.90554E+02-8.61982E-02-8.37081E-02 8.44907E+00 5.92322E-02-9.00778E-02
 -1      1772-2.99534E+02 8.12363E-02 7.66262E-02 8.44782E+00 4.83152E-02-1.33288E-01
 -1      1773-2.67241E+02-6.11058E-01-2.08645E-01 1.50085E+01 1.32458E-01-2.40156E-01
 -1      1774-2.75991E+02-2.92639E-01 1.98210E-02 8.49744E+00-4.06205E-02-1.79161E-01
 -1      1775-2.84983E+02 1.40367E-01 8.39795E-02 8.46692E+00 5.06587E-02-1.62352E-04
 -1      1776-2.57306E+02 7.56814E-02-2.47912E-01 1.51562E+01-1.87755E-01-2.58900E-01
 -1      1777-2.61311E+02 5.93301E-02 6.84852E-02 8.75475E+00 8.25627E-02 1.83620E-01
 -1      1778-2.70529E+02-1.22490E-01-5.93846E-02 8.73958E+00-1.16902E-01 1.56930E-01
 -1      1779-2.48078E+02 1.25827E-02 8.99548E-02 1.54406E+01-6.24696E-02-1.03348E-01
 -1      1780-2.46410E+02-8.68197E-02-8.44388E-06 8.68826E+00 1.66799E-02-6.86157E-02
 -1      1781-2.55607E+02 1.04833E-01 9.48477E-02 8.70887E+00 3.23064E-02-7.66653E-02
 -1      1782-2.38187E+02-3.20867E-01-1.10226E-01 1.55835E+01 8.85601E-02-8.19774E-02
 -1      1783-2.31593E+02-7.92080E-02 3.39238E-02 8.57965E+00 5.66815E-02 4.59340E-02
 -1      1784-2.40710E+02 1.30379E-01 1.13998E-02 8.68165E+00 1.89716E-02 8.57486E-02
 -1      1785-2.28455E+02 1.45944E-01-2.55506E-01 1.54857E+01-2.30185E-01-1.89746E-01
 -1      1786-2.16550E+02-4.25970E-01-1.25561E-01 8.12175E+00-1.97148E-02-1.07294E-01
 -1      1787-2.25086E+02-5.91935E-02 2.53135E-02 8.44269E+00 3.72299E-02-7.04352E-02
 -1      1788-2.17917E+02-6.68985E-01-2.43437E-01 1.53946E+01 1.70989E-01-1.88553E-01
 -1      1789-2.09063E+02-9.19166E-01-4.22528E-01 1.28874E+01-1.07838E-01 8.76546E-02
 -1      1790-1.40808E+02-2.93846E-01-9.48024E-02 1.54838E+01-8.91752E-02-9.79640E-02
 -1      1791-1.45109E+02-2.93506E-01-1.44126E-01 1.58626E+01-1.99352E-01 1.34122E-01
 -1      1792-1.44746E+02-6.95091E-02 1.07927E-01 1.60705E+01-8.34139E-02 1.19506E-01
 -1      1793-1.49041E+02-1.43988E-01-7.02604E-02 1.64678E+01-1.48608E-01 3.27071E-01
 -1      1794-1.99144E+02-3.07386E-01 1.43507E-01 1.76614E+01-4.39651E-02 6.46639E-02
 -1      1795-1.62646E+02 1.78773E-01 3.22319E-02 1.75234E+01-1.48143E-02 1.51381E-01
 -1      1796-1.67133E+02 6.15637E-02-5.25542E-02 1.73882E+01 1.45147E-01 1.44407E-01
 -1      1797-1.58042E+02-1.47790E-01 6.41670E-02 1.72309E+01 2.31757E-01 3.77095E-01
 -1      1798-1.62841E+02-3.81764E-01-1.08891E-01 1.71756E+01 3.78990E-02 1.89109E-01
 -1      1799-1.99135E+02-1.32086E-01-1.99824E-01 1.91036E+01-9.64654E-03-8.12227E-02
 -1      1800-2.20991E+02-7.54438E-03 9.01822E-02 1.77725E+01-1.25885E-01-1.15655E-01
 -1      1801-2.25872E+02-2.12577E-01-1.13404E-01 1.76594E+01-2.11990E-02-6.00763E-02
 -1      1802-2.25360E+02 1.02203E-01 2.20345E-01 1.77211E+01 3.28203E-02 8.22948E-02
 -1      1803-2.31033E+02-4.06771E-01-1.05870E-01 1.71802E+01-8.61467E-03 5.31134E-02
 -1      1804-1.98968E+02-2.87945E-01 3.09590E-02 1.95477E+01 3.99699E-02 7.45535E-02
 -1      1805-1.82205E+02-1.29206E-01-1.65514E-01 1.75277E+01-2.04539E-03-2.13633E-01
 -1      1806-1.86631E+02 4.72398E-02-9.55376E-02 1.79247E+01-3.73937E-02-4.78390E-02
 -1      1807-1.86149E+02 2.07211E-01 2.69866E-02 1.80698E+01 1.84085E-01 6.43578E-02
 -1      1808-1.98509E+02 4.12429E-02 6.34552E-02 1.99033E+01 2.41827E-02 3.41328E-02
 -1      1809-1.91856E+02 3.41159E-01-1.33148E-01 1.81184E+01-1.56028E-03 1.29479E-01
 -1      1810-1.32181E+02-2.29256E-01 1.39343E-01 1.49799E+01-1.07920E-01 9.44896E-02
 -1      1811-1.36225E+02-2.48901E-01-5.91414E-02 1.51736E+01-1.81253E-01 1.32488E-01
 -1      1812-1.32155E+02-5.22869E-01-6.16891E-02 1.48705E+01-1.58292E-02 8.36401E-02
 -1      1813-2.00041E+02-5.36413E-01 3.78734E-02 1.64999E+01-4.12182E-03 2.80406E-02
 -1      1814-1.28475E+02-4.72792E-01 4.48417E-02 1.44711E+01-2.25340E-01 1.55324E-01
 -1      1815-2.44820E+02-2.07165E-01 7.65102E-02 1.66179E+01-1.77715E-02-2.02118E-01
 -1      1816-2.49316E+02-3.42857E-01-4.14346E-02 1.65629E+01-1.27278E-02-2.18451E-01
 -1      1817-2.40470E+02 9.89745E-02 9.69198E-02 1.69263E+01 3.69091E-01-1.17964E-01
 -1      1818-2.44765E+02-1.71514E-01-1.08794E-01 1.69116E+01 6.99572E-02-1.43741E-01
 -1      1819-1.99268E+02-1.32173E-01 1.47392E-01 1.84813E+01 1.29731E-02 5.58453E-02
 -1      1820-1.21454E+02-5.57525E-01-1.58108E-03 1.31071E+01-1.01590E-01-2.20175E-02
 -1      1821-1.24873E+02-3.61744E-01-3.74897E-03 1.37725E+01-1.02185E-01 2.98052E-02
 -1      1822-1.24633E+02-3.01943E-01 1.04222E-01 1.39378E+01 1.23266E-01 5.41259E-02
 -1      1823-1.27950E+02-3.42630E-01 1.28737E-01 1.39563E+01-7.98395E-02-6.66807E-02
 -1      1824-1.99939E+02-6.23897E-01 1.06665E-01 1.53301E+01-2.16053E-02 1.38082E-01
 -1      1825-3.08850E+02-1.30215E+00 6.99940E-02 5.07879E+00-6.73741E-02-4.04101E-02
 -1      1826-3.11065E+02-1.33680E+00 5.96234E-03 4.58462E+00 1.68954E-03 3.59391E-02
 -1      1827-3.09119E+02-1.31748E+00 4.03716E-02 5.90265E+00 7.82590E-03-3.05344E-02
 -1      1828-3.08749E+02-1.34870E+00-2.13778E-02 5.65127E+00 1.87494E-03-1.52339E-03
 -1      1829-2.01389E+02-1.50345E+00-7.91188E-03 5.96188E+00-3.81466E-02 9.25160E-03
 -1      1830-9.62323E+01-9.05412E-01 8.31092E-02 7.31006E+00 1.32682E-02 3.20133E-02
 -1      1831-9.80506E+01-1.02680E+00 7.45876E-02 7.61417E+00-1.41294E-01-4.61993E-02
 -1      1832-9.47191E+01-1.23033E+00 2.41430E-02 6.30223E+00-1.33084E-01-7.00563E-03
 -1      1833-9.64126E+01-9.89192E-01 2.69612E-02 6.96739E+00-9.71350E-02 1.91479E-02
 -1      1834-2.01946E+02-1.32852E+00 8.41223E-02 7.88955E+00-1.84363E-02 6.62601E-02
 -1      1835-9.01608E+01-8.05664E-01-5.66448E-03 3.47053E+00-3.25739E-01 1.45428E-01
 -1      1836-9.16230E+01-9.88704E-01-7.25155E-02 4.24500E+00-9.42787E-02 4.87445E-02
 -1      1837-9.00172E+01-5.14587E-01-1.30891E-01 2.62292E+00-5.53852E-01 4.25050E-01
 -1      1838-8.75550E+01 1.12021E-01 2.00404E-01 1.39086E+00-8.04759E-01 3.85621E-01
 -1      1839-2.00919E+02-4.14363E-01-7.26532E-02 2.91755E+00-4.21306E-01 3.72238E-01
 -1      1840-2.94681E+02-9.31918E-01 8.22725E-02 1.06510E+01 1.83818E-01-7.14206E-02
 -1      1841-2.97406E+02-1.05139E+00-6.59989E-02 1.04908E+01-1.69613E-02-2.79205E-02
 -1      1842-2.97627E+02-9.57778E-01 9.80831E-02 9.95838E+00 1.63862E-02-1.01478E-01
 -1      1843-2.02168E+02-1.07080E+00 9.28568E-02 1.12941E+01-1.28937E-02 7.70718E-02
 -1      1844-3.00908E+02-9.98177E-01 2.77090E-02 9.73234E+00 6.76770E-02-1.51557E-01
 -1      1845-1.15352E+02-7.02619E-01 4.18297E-02 1.24367E+01 7.21013E-02 1.74679E-01
 -1      1846-1.18167E+02-7.62543E-01-6.72623E-02 1.26948E+01-1.21251E-02 1.12924E-01
 -1      1847-1.14910E+02-4.46259E-01-4.61795E-02 1.20378E+01-1.78371E-01 1.13885E-01
 -1      1848-2.01957E+02-7.11951E-01-3.12515E-02 1.34286E+01-6.63668E-03 9.37529E-02
 -1      1849-1.10976E+02-3.80008E-01 1.68757E-01 1.17318E+01-1.39591E-01 5.87577E-02
 -1      1850-9.80321E+01-1.01394E+00 4.66934E-02 8.10932E+00-1.91028E-01 8.70077E-02
 -1      1851-1.00325E+02-9.97498E-01-6.84488E-02 8.66512E+00-3.85094E-02 3.87276E-02
 -1      1852-1.01122E+02-8.67778E-01 6.20010E-02 8.92299E+00-3.91368E-02 1.16733E-01
 -1      1853-1.03429E+02-8.39362E-01 1.99948E-02 9.38374E+00-3.28498E-02 1.62926E-01
 -1      1854-2.02224E+02-1.21777E+00 6.87861E-02 9.65209E+00-2.00199E-02-2.88655E-02
 -1      1855-3.04994E+02 1.96942E+00-1.90824E-01-3.47255E+00-1.46174E+00 2.46348E+00
 -1      1856-3.01796E+02 1.69590E+00 1.67306E+00-6.78156E+00-1.51463E+00 3.49821E+00
 -1      1857-1.93912E+02-1.46302E+00 2.60048E+00-6.20006E+00-3.95783E+00 2.98023E+00
 -1      1858-2.94913E+02 8.13584E-01 5.49762E+00-1.02069E+01-3.33493E+00 5.64812E+00
 -1      1859-3.38615E+02 5.13816E+00 9.86559E+00-1.49149E+01-6.76051E+00 5.97206E+00
 -1      1860-2.37724E+02-8.40837E+00 4.35082E+00-1.35187E+01-6.28136E+00 3.89780E+00
 -1      1861-2.53685E+02 1.73322E-02 8.22792E-02 1.58885E+01 4.86592E-02-1.71271E-01
 -1      1862-2.58352E+02-3.33968E-01-1.03175E-01 1.58682E+01 1.07849E-01-2.92496E-01
 -1      1863-2.58397E+02-3.51328E-01 4.04107E-02 1.53339E+01 5.57884E-03-1.01119E-01
 -1      1864-2.63713E+02-5.34438E-01-1.38584E-01 1.53690E+01 7.21290E-02-4.04177E-03
 -1      1865-1.99684E+02-4.97853E-01 1.31676E-01 1.71760E+01 4.55497E-02-4.41882E-02
 -1      1866-1.76743E+02 3.40463E-01 7.93238E-02 1.80930E+01 6.68535E-02 1.28318E-01
 -1      1867-1.81061E+02 1.22085E-01-5.32790E-02 1.78025E+01 2.30970E-01 9.40084E-02
 -1      1868-1.72029E+02-1.18164E-01-1.39590E-01 1.75745E+01 4.59277E-02 1.60465E-01
 -1      1869-1.76951E+02-8.95751E-02-1.97992E-01 1.78870E+01-6.85152E-02 8.93700E-02
 -1      1870-1.98785E+02-1.95009E-02-1.32282E-01 1.97476E+01-4.17398E-02-6.06715E-02
 -1      1871-2.05660E+02-4.59555E-01-3.77617E-02 1.81117E+01 4.62803E-03-1.99973E-01
 -1      1872-2.11075E+02-2.26275E-01-2.19439E-01 1.81196E+01 1.71660E-01-1.19647E-01
 -1      1873-2.05592E+02-6.74398E-01-6.18739E-02 1.86438E+01-1.37775E-01-2.16047E-01
 -1      1874-1.98777E+02-7.98037E-02 3.68922E-02 2.03744E+01-1.99407E-02 2.57785E-02
 -1      1875-2.05605E+02-1.02213E+00-7.30837E-02 1.75507E+01 2.70510E-01 5.53586E-02
 -1      1876-2.00626E+02-3.61538E-01-2.71046E-01 2.01037E+01 2.06013E-01-1.36743E-01
 -1      1877-2.74638E+02-3.20637E-01 1.30535E-01 1.37172E+01 5.41844E-02-1.41364E-01
 -1      1878-2.78477E+02-5.21974E-01-1.66995E-02 1.36098E+01 1.88888E-01-2.84416E-01
 -1      1879-2.78465E+02-6.33090E-01 1.84896E-01 1.31262E+01-7.15699E-02-8.01729E-02
 -1      1880-2.84019E+02-8.42654E-01-3.64008E-02 1.27060E+01-2.94213E-02-1.46931E-02
 -1      1881-2.00188E+02-8.38695E-01 1.56937E-01 1.45730E+01 3.43030E-02 3.50278E-02
 -1      1882-2.10982E+02 1.28486E-01 1.58611E-01 1.80388E+01 6.36088E-02 4.35645E-03
 -1      1883-2.16566E+02-2.60462E-01-5.94488E-02 1.75930E+01-3.63195E-02 3.56499E-02
 -1      1884-2.15844E+02 1.92533E-01 6.86418E-02 1.74632E+01-3.42618E-02 9.18515E-02
 -1      1885-2.21065E+02-4.61255E-01-1.72464E-01 1.77482E+01 7.42860E-03-3.38078E-02
 -1      1886-1.99197E+02-2.52435E-01 4.54391E-03 1.93194E+01-9.64974E-02 6.04381E-02
 -1      1887-2.70844E+02-4.78735E-01 8.00135E-02 1.42828E+01 1.49975E-01-9.51639E-02
 -1      1888-2.74748E+02-6.88523E-01-4.07360E-02 1.42026E+01-3.74174E-02-8.59943E-02
 -1      1889-2.68027E+02-2.55203E-01 3.95242E-02 1.47477E+01 2.03906E-02 4.94691E-02
 -1      1890-2.70668E+02-3.37528E-01-3.18329E-02 1.42697E+01 2.85598E-02-1.09933E-01
 -1      1891-1.99421E+02-3.18783E-01-8.53200E-02 1.54540E+01-3.02782E-03 4.61896E-02
 -1      1892-1.05028E+02-6.01135E-01 1.52271E-01 1.03042E+01 1.87029E-02 6.63707E-02
 -1      1893-1.08786E+02-7.53619E-01 8.29453E-02 1.05456E+01-1.16939E-01-6.75220E-02
 -1      1894-1.09013E+02-7.78634E-01 4.58235E-02 1.10638E+01-2.03517E-01 1.18299E-01
 -1      1895-1.11119E+02-8.32095E-01-1.13959E-01 1.15778E+01-3.36268E-02 7.30298E-02
 -1      1896-2.01248E+02-7.81334E-01-5.95424E-02 1.17313E+01-6.35752E-03 9.69699E-03
 -1      1897-3.05514E+02-1.18622E+00 7.54688E-02 7.64868E+00 1.66332E-01-4.15665E-02
 -1      1898-3.07639E+02-1.26831E+00-4.27176E-02 7.43042E+00 5.45517E-03-1.97443E-02
 -1      1899-3.02984E+02-9.37427E-01 1.42802E-01 8.41533E+00-2.33043E-03 3.38973E-02
 -1      1900-3.05004E+02-1.17339E+00 7.05425E-02 7.90525E+00 8.47778E-02 5.19648E-02
 -1      1901-2.01335E+02-1.14192E+00-4.47062E-02 8.55758E+00-2.36925E-02 5.07171E-03
 -1      1902-2.90859E+02-6.97658E-01 9.08365E-02 1.12740E+01-1.20230E-01-8.02303E-03
 -1      1903-2.94174E+02-8.65124E-01 8.07267E-02 1.07959E+01 8.98919E-02 9.31269E-02
 -1      1904-2.91249E+02-8.25437E-01-1.41192E-02 1.17483E+01 5.55159E-02 5.40833E-02
 -1      1905-2.01703E+02-9.17560E-01 7.78377E-02 1.28483E+01-2.02976E-04-9.23647E-03
 -1      1906-2.88246E+02-6.14764E-01 1.45483E-01 1.16748E+01 8.45018E-02 1.42860E-01
 -1      1907-1.36022E+02-1.00598E+01 3.49178E+00-1.79025E+01-6.24890E+00 1.08388E+00
 -1      1908-3.19432E+01-1.17761E+01-1.87523E+00-1.88422E+01-7.10990E+00-4.13467E-01
 -1      1909-8.40094E+01-2.61949E+00 2.11254E+00-9.75546E+00-3.70032E+00 1.09781E+00
 -1      1910-1.96870E+02 2.17629E-01 2.57876E-01 2.04345E+01 2.81479E-01-3.52537E-02
 -1      1911-1.92281E+02 8.91191E-01-1.59979E-01 1.76133E+01 3.28379E-01-2.29561E-01
 -1      1912-1.91995E+02 6.92222E-01 2.53297E-01 1.86523E+01-6.39777E-02 2.25654E-01
 -1      1913-2.30356E+02 9.86103E-02 1.34266E-01 1.69533E+01 2.34277E-02 1.07075E-01
 -1      1914-2.35494E+02-5.05434E-01-1.77239E-01 1.72665E+01 1.35245E-01-7.16537E-03
 -1      1915-2.35227E+02-2.31726E-01 7.51419E-02 1.71712E+01-7.87577E-02-1.86396E-02
 -1      1916-2.39780E+02-1.65159E-01 4.68233E-02 1.65917E+01-3.94476E-02 4.54606E-02
 -1      1917-1.53214E+02 1.44083E-01 1.22201E-01 1.65444E+01-3.84723E-02 5.73173E-02
 -1      1918-1.58188E+02-9.08063E-02-2.39780E-01 1.69031E+01-6.37925E-02 1.28686E-01
 -1      1919-1.49107E+02-5.75855E-02 8.19148E-02 1.66453E+01 5.46834E-02 2.32615E-01
 -1      1920-1.53764E+02-3.38440E-01-1.12847E-01 1.65489E+01-7.37509E-02 1.38202E-01
 -1      1921-9.34035E+01-1.03240E+00 4.74888E-02 5.68091E+00-7.28672E-02 6.18409E-02
 -1      1922-9.40299E+01-1.21953E+00-1.01059E-02 6.10992E+00 2.14840E-02 5.61594E-02
 -1      1923-9.14529E+01-1.08528E+00 5.60147E-02 4.74690E+00-4.21137E-03 3.43249E-02
 -1      1924-9.36221E+01-1.18850E+00-1.67198E-02 5.16899E+00-3.25519E-02 3.88710E-02
 -1      1925-3.11844E+02-5.03846E-01-1.05657E-01 1.90810E+00-1.27985E-01 2.67361E-01
 -1      1926-3.09174E+02 7.35447E-01-3.91972E-01-3.62006E-01-4.36257E-01 1.25629E+00
 -1      1927-3.11043E+02-1.01102E+00-9.05231E-03 3.82866E+00-1.09966E-01 6.73527E-03
 -1      1928-3.12068E+02-8.72114E-01-2.07954E-01 2.91102E+00 2.66234E-02 5.05642E-02
 -1      1929-1.96788E+02 1.27525E+00 6.55708E-01-5.65983E-01-1.80476E+00 1.70787E+00
 -1      1930-8.50214E+01 1.33129E+00 7.37234E-01-1.35595E+00-1.97777E+00 8.99646E-01
 -1      1931-8.78177E+01-3.75345E-01 1.29757E+00-6.10098E+00-2.95470E+00 1.57332E+00
 -1      1932-1.35968E+02-2.61091E-01-2.30148E-03 1.55601E+01 2.06807E-02 7.65430E-02
 -1      1933-1.40251E+02-4.28790E-01-6.79717E-02 1.56116E+01 2.47039E-01 1.27947E-01
 -1      1934-1.99689E+02-4.82652E-01-9.50829E-02 1.69275E+01-3.17704E-02-2.64308E-02
 -1      1935-2.68256E+02-3.94355E-01-2.98661E-03 1.49525E+01 2.20817E-01-3.93660E-02
 -1      1936-2.63897E+02-2.64962E-01 2.25492E-01 1.50721E+01 6.62102E-02 7.88198E-03
 -1      1937-1.67656E+02-2.19854E-01 5.30450E-02 1.74612E+01 3.83427E-02 1.86596E-01
 -1      1938-1.72208E+02-1.58067E-01-6.02950E-02 1.77493E+01-1.22761E-02 1.19318E-01
 -1      1939-1.99204E+02-2.80382E-01 4.97651E-02 1.89299E+01-5.17535E-02 7.08655E-02
 -1      1940-2.49577E+02-1.43903E-01 4.68087E-02 1.63106E+01 3.64552E-02-2.04540E-01
 -1      1941-2.53766E+02-2.23571E-01-6.28730E-02 1.62220E+01 5.74668E-02-2.05136E-01
 -1      1942-1.99162E+02-2.11428E-01 1.13287E-01 1.81859E+01-3.53119E-02-4.99065E-02
 -1      1943-1.17114E+02-5.36238E-01 8.36492E-02 1.30173E+01 3.54339E-03 1.43222E-01
 -1      1944-1.20932E+02-7.46464E-01-4.70156E-02 1.32442E+01 2.27482E-01 1.11040E-01
 -1      1945-2.00956E+02-7.78835E-01-4.59646E-02 1.41883E+01 6.03749E-03-1.61846E-02
 -1      1946-2.88849E+02-9.71926E-01-5.50244E-02 1.20869E+01-1.25137E-02 2.14261E-01
 -1      1947-2.84583E+02-4.26162E-01 2.13959E-01 1.25154E+01-7.91477E-02-3.21942E-02
 -1      1948-1.03245E+02-7.88948E-01 6.88110E-02 9.66522E+00 3.37350E-02 1.13059E-01
 -1      1949-1.05651E+02-8.76484E-01 9.27740E-03 1.00272E+01-4.92897E-02 5.58655E-02
 -1      1950-2.02508E+02-1.16974E+00 1.70087E-01 1.04812E+01-1.89062E-02 2.31591E-02
 -1      1951-3.04180E+02-1.13206E+00 6.52586E-02 8.82526E+00 6.25056E-02-5.12427E-02
 -1      1952-3.01233E+02-9.85279E-01 9.16824E-02 9.24141E+00-2.76092E-02-7.18019E-02
 -1      1953-2.01810E+02-1.53988E+00 6.28566E-02 6.82844E+00-1.92388E-02 1.30909E-02
 -1      1954-3.07659E+02-1.08140E+00 9.94849E-02 6.86644E+00 6.42419E-02-6.74507E-02
 -1      1955-3.09315E+02-1.17447E+00 1.83270E-02 6.54387E+00 6.46965E-02-1.03374E-01
 -1      1956-2.01646E+02-1.35728E+00-5.55875E-02 4.76888E+00-8.53755E-02-2.03469E-02
 -1      1957-1.98853E+02 5.35436E-02-1.76935E-01 1.85984E+01 9.60749E-02-6.12257E-03
 -1      1958-9.01465E+01-9.84252E-02-7.62753E-02 1.38944E+01 1.27795E-02-3.45634E-02
 -1      1959-1.26350E+02-1.66234E-02 1.01220E-02 1.53360E+01 1.78803E-02-9.71860E-02
 -1      1960-2.52639E+02-1.25154E-01 1.65951E-01 1.53040E+01-1.54062E-02 3.10085E-02
 -1      1961-1.73322E+02 2.80894E-01 1.05452E-02 1.55328E+01-1.46965E-02-1.75554E-01
 -1      1962-6.43750E+01-4.92809E-01-5.48631E-02 1.29712E+01 2.32727E-02 1.13327E-01
 -1      1963-2.90366E+02-2.53897E-01 9.98343E-02 1.43761E+01-2.39524E-02 4.09035E-03
 -1      1964-4.97325E+01-5.05049E-01 2.48287E-02 1.20102E+01 6.17894E-02-3.67047E-02
 -1      1965-4.16337E+02-1.44731E+00-1.19215E-01 4.66642E+00-3.78754E-02-4.25751E-03
 -1      1966 7.53739E+00-1.05444E+00-2.01007E-02 6.19047E+00 1.55589E-01-7.66713E-02
 -1      1967 2.13635E+01-7.80277E-01-2.23555E-01 3.13369E+00 2.98535E-01 1.18851E-01
 -1      1968-3.90031E+02-1.11704E+00-2.84282E-02 8.76672E+00-5.61857E-02 7.52611E-02
 -1      1969-3.71721E+02-7.59872E-01-1.33385E-01 1.06539E+01 1.57079E-02 9.17941E-02
 -1      1970-4.00531E+02-1.19447E+00 1.49633E-02 7.50021E+00-1.05647E-01 8.08519E-03
 -1      1971-4.01617E+02 6.20655E+00 5.19706E+00-1.08812E+01 9.68490E-01-8.72991E+00
 -1      1972-3.17152E+02-3.29089E-01 1.24933E-01 1.34161E+01-5.42174E-02 1.34955E-02
 -1      1973-1.55385E+02-1.41672E-01 1.62119E-01 1.54300E+01 7.49684E-02-1.40471E-01
 -1      1974-2.12175E+02-1.00325E+00-1.98990E-02 1.53729E+01 2.73293E-03 4.24546E-02
 -1      1975-3.57545E+02-7.13577E-01 1.30239E-01 1.12580E+01-1.29550E-01 2.16169E-02
 -1      1976-2.33282E+02 3.52008E-03-1.91657E-02 1.53566E+01 2.48087E-02 1.09778E-02
 -1      1977-3.41665E+02-6.71750E-01-7.97253E-02 1.22467E+01 2.58393E-02 3.70468E-02
 -1      1978-1.61418E+01-7.51462E-01-1.20274E-01 9.25881E+00 1.54292E-02-3.20951E-02
 -1      1979-3.24527E+01-4.81304E-01-3.04665E-02 1.08907E+01 5.05183E-02-3.68481E-02
 -1      1980-5.82723E+00-8.63556E-01-2.82848E-03 8.28497E+00 1.07856E-01-1.20478E-01
 -1      1981-8.56920E+01-2.08999E+01 6.35840E+00-2.47339E+01 5.29735E+00 8.41481E-01
 -1      1982-1.97212E+02-1.26741E-01-2.81034E-02 1.98593E+01 4.10559E-02 9.38259E-02
 -1      1983-2.71675E+02-2.50955E-02-5.43212E-02 1.48598E+01-1.18109E-02 2.49068E-02
 -1      1984-1.08351E+02-1.92949E-01 8.78955E-02 1.43730E+01 9.63536E-02-9.18745E-02
 -1      1985-4.09172E+02-1.36859E+00-4.58072E-02 6.24501E+00-9.11578E-02 3.49141E-02
 -1      1986 1.41095E+01-1.13827E+00-4.68364E-02 4.68195E+00 1.42091E-01-3.18193E-02
 -1      1987-4.22098E+02-1.06585E+00-1.09747E-01 1.44337E+00-5.53462E-02-3.09143E-01
 -1      1988-4.16095E+02 1.30522E+00 9.19975E-02-3.13219E+00-1.10520E-01-2.50886E+00
 -1      1989-1.95317E+02 2.28251E+00 2.33476E+00-3.68700E+00 3.06944E+00-2.93745E+00
 -1      1990-2.23453E+02-9.00975E-02-2.84531E-02 1.53728E+01-3.64025E-02 3.10987E-02
 -1      1991-8.15502E+01-2.34490E-01-6.30696E-02 1.34245E+01 4.25841E-02-3.47208E-04
 -1      1992-7.26551E+01-1.98853E-01 5.60665E-03 1.29036E+01 1.18468E-01 2.43617E-03
 -1      1993-2.00124E+02-4.63794E-01-1.04218E-02 1.63307E+01 6.03795E-03-2.89142E-02
 -1      1994-1.36077E+02-5.19990E-02 5.26082E-02 1.49113E+01 7.10083E-02-1.01423E-01
 -1      1995-4.13091E+01-4.36844E-01 8.57495E-02 1.17216E+01 9.76680E-02-1.18935E-01
 -1      1996-2.99400E+02-2.81046E-01-5.31112E-03 1.43548E+01-1.89028E-02 1.73759E-01
 -1      1997-2.42542E+02 9.95877E-02-1.52594E-01 1.54768E+01 3.24756E-02 1.62977E-01
 -1      1998-2.62377E+02-1.30190E-01 8.86870E-02 1.48321E+01-4.13160E-02-2.58373E-02
 -1      1999-1.07419E+01-7.48186E-01-5.56048E-03 8.82197E+00 1.26537E-01-9.85285E-03
 -1      2000-3.84092E+02-1.03753E+00-1.19871E-01 9.18973E+00 1.33415E-02-4.09462E-02
 -1      2001-3.79458E+02-9.48167E-01 5.70930E-02 9.90427E+00-1.33609E-01 6.40565E-02
 -1      2002-1.98351E+02-9.04305E-01-1.97959E-02 1.30211E+01-3.22259E-03-2.20458E-02
 -1      2003 3.95334E+00-1.00746E+00-1.01493E-01 6.76619E+00 8.81329E-02-1.40313E-02
 -1      2004-6.75659E-01-8.58267E-01-9.29651E-02 7.70107E+00 1.22739E-01-2.03937E-02
 -1      2005-1.63984E+02 7.53377E-02-5.23438E-02 1.52731E+01-6.36227E-02-7.97260E-02
 -1      2006-3.66064E+02-6.76651E-01-7.81281E-02 1.09167E+01-4.07775E-02-8.37918E-03
 -1      2007-4.05065E+02-1.34867E+00-6.18988E-02 6.63610E+00-5.73492E-02-2.16111E-03
 -1      2008-3.49753E+02-6.43375E-01 5.58365E-03 1.23512E+01-2.60448E-02 2.06157E-02
 -1      2009 1.13928E+01-9.88705E-01-1.25147E-01 5.45144E+00 1.32763E-01-4.92878E-03
 -1      2010-4.20735E+02-1.47751E+00-9.69643E-03 3.64541E+00-1.39912E-01-8.65746E-03
 -1      2011 1.85399E+01-1.12216E+00-8.73864E-02 3.94355E+00 1.83742E-01 5.52776E-02
 -1      2012-4.13290E+02-1.42655E+00 1.30174E-01 5.32731E+00-1.79379E-01-1.65605E-02
 -1      2013-1.16609E+02-9.41479E-02-1.58556E-01 1.43710E+01-6.48630E-02-4.40699E-02
 -1      2014-3.95499E+02-1.13161E+00 6.65392E-02 8.33253E+00-9.11814E-02 6.78204E-02
 -1      2015-9.87629E+01-6.48461E-02-1.68233E-01 1.44704E+01-5.71634E-02-1.39761E-01
 -1      2016-5.68531E+01-2.79684E-01 1.32787E-02 1.23196E+01 3.26940E-02-4.58387E-03
 -1      2017-1.45185E+02-1.86976E-01-2.64035E-01 1.51008E+01-5.64378E-02 1.15796E-01
 -1      2018-2.80614E+02-1.22055E-01-1.38220E-01 1.47907E+01 2.79323E-02 2.26486E-01
 -1      2019-3.08004E+02-3.04053E-01-4.66861E-02 1.38386E+01 2.42145E-03 9.74132E-02
 -1      2020-2.00599E+02 4.97955E-02 1.45689E-01 1.94198E+00 6.35678E-01-7.69061E-01
 -1      2021 2.45711E+01-9.53503E-01-3.53653E-01 1.10460E+00 8.64890E-01 1.70036E-01
 -1      2022-2.99413E+02-9.55481E+00 3.25204E+01-1.49657E+01 4.90972E+00-3.03850E+00
 -1      2023-3.36493E+02-6.50711E-01 3.66356E-02 1.26529E+01-2.63094E-02 1.72545E-01
 -1      2024-3.27701E+02-3.83723E-01-1.44708E-01 1.30732E+01-3.08965E-02-2.30093E-02
 -1      2025-1.98874E+02-7.94803E-01 3.93111E-02 1.37451E+01 4.97000E-02-3.27590E-02
 -1      2026-1.86624E+01-5.86881E-01 9.46637E-03 9.98320E+00 1.09138E-01 1.65692E-02
 -1      2027-1.98428E+02-1.26241E-01 2.33467E-03 2.01139E+01 6.35218E-02-4.81450E-02
 -1      2028-1.99344E+02-2.51318E-02-1.23833E-01 1.95933E+01-8.89854E-02 8.59713E-03
 -1      2029-1.99538E+02-8.01958E-02-5.16540E-02 1.85322E+01-4.49683E-02-2.43616E-02
 -1      2030-1.99258E+02-4.35995E-01 6.65294E-02 1.85745E+01-5.21791E-02-3.56334E-02
 -1      2031-1.99170E+02-2.99021E-01-1.14317E-02 1.81854E+01 6.34548E-02 1.12284E-03
 -1      2032-1.99002E+02-8.28273E-02 7.60474E-03 1.97490E+01 1.07090E-02 5.87398E-02
 -1      2033-1.98702E+02-9.66858E-02 7.92331E-03 1.92260E+01-1.05394E-01 6.43084E-03
 -1      2034-1.99899E+02-6.14819E-01-8.01964E-02 1.53604E+01 3.00850E-02-1.00351E-02
 -1      2035-1.99442E+02-3.48157E-01 1.41697E-02 1.72347E+01-5.66119E-03 1.89892E-03
 -1      2036-1.99353E+02-5.14076E-01-3.60590E-02 1.43977E+01-6.20152E-02 5.39726E-04
 -1      2037-2.01121E+02-1.41899E+00 4.38390E-02 7.22936E+00 1.58813E-02-2.17078E-02
 -1      2038-2.01357E+02-1.45264E+00-2.93903E-02 6.42909E+00 5.80827E-02 2.71800E-03
 -1      2039-2.01617E+02-1.47316E+00-3.48293E-02 5.27342E+00 3.34613E-02-7.34721E-03
 -1      2040-2.01536E+02-1.18000E+00-9.85946E-02 3.97561E+00 8.79087E-02-1.46912E-01
 -1      2041-1.98848E+02-1.13508E-01-4.18228E-02 1.89196E+01 1.17340E-01-8.59173E-02
 -1      2042-2.01271E+02-1.37206E+00-4.25391E-02 8.20769E+00 5.38966E-02 7.50850E-03
 -1      2043-1.99472E+02-3.15742E-01 3.86586E-02 1.78246E+01-3.66704E-02 1.02638E-02
 -1      2044-2.00546E+02-1.07252E+00-9.07946E-03 1.08081E+01 2.50104E-02 1.31970E-02
 -1      2045-2.00717E+02-1.15175E+00-7.64353E-03 9.99579E+00 1.58688E-02-2.72500E-02
 -1      2046-2.01186E+02-1.29940E+00-3.75987E-02 9.08473E+00 4.35740E-03-4.08637E-02
 -1      2047-1.99058E+02-4.36132E-02-9.44903E-02 1.91872E+01 3.39223E-02-7.96333E-02
 -1      2048-2.00856E+02-1.07765E+00-3.54389E-02 1.15075E+01 4.74973E-02 2.64020E-03
 -1      2049-1.99587E+02-6.97003E-01 4.81985E-02 1.47158E+01-2.12898E-02 1.67690E-02
 -1      2050-1.99822E+02-5.83528E-01 2.62192E-02 1.59864E+01-3.51181E-02-2.59231E-02
 -1      2051-1.99487E+02-2.87494E-01-3.25947E-02 1.69904E+01 1.09679E-01 2.64762E-02
 -1      2052-2.48707E+01-5.14860E-01-3.45272E-02 1.05680E+01 5.51280E-02-1.30980E-01
 -1      2053-2.00713E+02-1.02209E+00-2.88768E-02 1.22327E+01-1.31858E-02-3.60399E-02
 -1      2054-2.00653E+02-1.23447E+00-3.24131E-01 1.96139E+01 4.03013E-02-6.42848E-03
 -1      2055 1.84138E+01-5.35146E+00-1.16141E+00-8.50603E+00 3.05340E+00 1.75815E+00
 -1      2056-1.85435E+02 8.70991E-01 1.43413E-01 1.54553E+01 1.31436E-02 5.49484E-03
 -1      2057-1.91835E+02-5.74656E+00 2.34240E+00-9.29093E+00 4.55556E+00-2.48891E+00
 -1      2058-4.92318E+02 7.96184E+00 4.52960E+01-2.47347E+00 2.29316E+00 3.83439E+00
 -1      2059 9.10673E+01-1.85397E+01-9.25832E+00-3.07367E+01 4.84888E+00 1.15294E+00
 -1      2060-2.04136E+02-1.33551E+00-2.87802E-01 1.14148E+01 5.72689E-02-1.34360E-01
 -1      2061-1.93876E+02 1.23978E+00 2.69801E-01 1.17298E+01 1.07500E-01 2.33077E-01
 -1      2062-1.98731E+02 9.19139E-02 1.17260E-01 2.07656E+01-1.19425E-01-6.57878E-02
 -1      2063 1.72200E+02 1.46681E+01 2.59573E+01-2.40849E+01-1.83050E+00-2.49955E+01
 -1      2064 5.07443E+01-1.65944E+01-1.36432E+01-4.99600E+01 4.52714E+00-2.12172E+00
 -1      2065 1.63300E+02-1.36160E+01-9.85931E+00-2.35139E+01 6.87045E+00 3.95393E+00
 -1      2066-5.16057E+02-9.55734E+01-6.11384E+01-8.53294E+00-3.53726E+00 7.52020E+01
 -1      2067-6.61295E+02-9.63866E+01-7.75999E+01 3.62970E+01-1.13149E+01 8.20059E+01
 -1      2068-5.00299E+02 3.22100E+01 3.20946E+01-2.35909E+01 1.32647E+01-1.64312E+01
 -1      2069-1.97428E+02-5.21645E+00 5.16366E-01 1.32409E+01 3.92816E-01-2.83533E-01
 -1      2070-1.94443E+02-1.00403E+00 5.20362E-01 7.51531E+00 3.07960E-01 3.45320E-01
 -1      2071-1.84974E+02 1.55677E+00-5.59838E-02 4.85114E+00-4.97853E-01 3.81914E-01
 -1      2072-2.03320E+02 9.20671E-01-6.88128E-01 7.59015E+00 2.51215E-01-2.73549E-01
 -1      2073-2.00460E+02 4.23484E+00-5.46494E-01 1.34405E+01 1.80879E-01 3.36152E-01
 -1      2074-2.12708E+02-1.48015E+00 6.55118E-02 4.87679E+00-4.71732E-01-3.60404E-01
 -1      2075-3.65485E+01-1.18663E+01 2.30413E+00-4.73515E+01 5.31147E+00 2.45618E+00
 -1      2076-1.68104E+02-5.76994E+01-3.70503E+01-4.80661E+01 6.18181E+00 3.06837E+01
 -1      2077 7.97239E+00-1.44545E+01-2.67898E+00-3.04889E+01 3.19977E+00 1.38518E+00
 -1      2078-2.78356E+02-5.40359E+01-2.82106E+01-3.99028E+01 3.53950E+00 3.64195E+01
 -1      2079-4.09576E+02-9.75433E+01-5.64241E+01-2.53995E+01 6.02542E+00 5.82085E+01
 -1      2080-1.88105E+02-1.59278E+01 1.68913E+01-2.13879E+01 3.67935E+00-5.68651E-01
 -1      2081-3.88741E+02-3.09002E+00 4.14806E+01-1.22260E+01 2.69468E+00 5.00642E-01
 -1      2082-1.98623E+02-7.22352E-02 2.32315E-01 1.71984E+01-8.47719E-02-4.82241E-02
 -1      2083-1.97430E+02-4.15387E+00 3.15392E-01 1.62607E+01 5.98463E-02 1.96197E-01
 -1      2084-1.95901E+02-1.13442E-01-1.99485E-01 1.62519E+01 5.19354E-02 2.58358E-01
 -1      2085-2.00199E+02 4.14728E+00-5.60960E-01 1.63103E+01-1.94303E-01-4.44045E-03
 -1      2086-1.99490E+02-4.02949E-01-4.63196E-01 1.71776E+01-2.57213E-01 5.37282E-02
 -1      2087-1.98623E+02 8.16189E-02 1.21908E-01 2.02420E+01 2.63119E-01 2.50603E-01
 -1      2088-2.02066E+02-3.73347E-02 2.95690E-01 1.60259E+01 2.79813E-01-7.98080E-02
 -1      2089 1.35971E+02-2.80384E+00-2.22580E+00-3.99977E+00 1.06162E+00 1.21769E+00
 -1      2090 1.34539E+02-2.01774E+00 4.37627E-02-1.07000E+01 4.22578E-01 6.21568E-01
 -1      2091 5.52191E+01-8.60409E+00-8.83870E-02-2.13594E+01 3.48147E+00 2.38890E+00
 -1      2092 1.38540E+02-9.43228E-01-4.46129E-01 8.99538E-01 3.24962E-01 1.77205E-01
 -1      2093 1.40041E+02-1.20128E+00-7.07863E-01-2.02502E-01 5.87094E-01-1.77487E-01
 -1      2094 2.17972E+01-2.02795E+00-1.00489E-01-2.44854E+00 1.47078E+00 2.19770E-01
 -1      2095 1.34722E+02-6.34089E-01-8.50127E-02 1.89107E+00 1.56515E-01 1.90834E-01
 -1      2096 1.36984E+02-6.46808E-01-1.31358E-01 1.61943E+00 1.38055E-01 1.91671E-01
 -1      2097 2.33274E+01-6.86487E-01-2.05148E-01 2.41015E+00 5.51152E-01 1.20591E-01
 -1      2098 1.30802E+02-5.02490E-01-1.74440E-01 2.29498E+00 4.69604E-02-3.81490E-03
 -1      2099 1.33316E+02-4.82393E-01 1.62932E-05 2.24157E+00 1.56534E-01 1.73151E-01
 -1      2100 2.01396E+01-7.90996E-01 1.22943E-02 3.66637E+00 3.22143E-01 1.14162E-01
 -1      2101 1.25780E+02-5.88390E-01 5.99990E-03 2.72657E+00 8.48987E-02 9.93675E-02
 -1      2102 1.28579E+02-6.58908E-01-5.45062E-02 2.47921E+00 6.95453E-02 5.21479E-02
 -1      2103 1.64104E+01-1.11557E+00-1.06389E-02 4.26397E+00 1.60536E-01-5.78276E-02
 -1      2104 1.20793E+02-5.20200E-01-1.76534E-01 3.12270E+00 2.02145E-02 4.87862E-03
 -1      2105 1.24123E+02-4.75123E-01-8.99667E-02 3.04404E+00 1.19787E-01 1.30436E-01
 -1      2106 1.30758E+01-8.81626E-01 1.56974E-02 5.19135E+00 1.04630E-01 2.95530E-02
 -1      2107 1.15167E+02-5.44371E-01 3.90983E-02 3.60418E+00 3.90890E-02 1.20813E-01
 -1      2108 1.18881E+02-6.08389E-01-9.14240E-03 3.32177E+00 9.58401E-02 4.12319E-02
 -1      2109 9.56913E+00-1.08644E+00-1.80670E-02 5.78501E+00 1.80427E-01-8.55160E-02
 -1      2110 1.08692E+02-3.76587E-01-1.80209E-01 3.83868E+00 5.09142E-02-7.54355E-02
 -1      2111 1.13012E+02-4.01734E-01-1.53888E-01 3.82139E+00 7.20838E-02 1.43274E-01
 -1      2112 6.01339E+00-8.12090E-01-3.73638E-02 6.62847E+00 1.64421E-02 4.50335E-02
 -1      2113 1.01766E+02-4.01320E-01-1.07497E-01 4.41665E+00-8.52496E-03-1.22919E-02
 -1      2114 1.06246E+02-3.73803E-01-9.28092E-02 4.26617E+00 9.18107E-02 8.27907E-02
 -1      2115 1.68649E+00-1.01478E+00-8.38366E-02 7.28833E+00 1.53290E-01-3.73132E-02
 -1      2116 9.40400E+01-4.15042E-01 5.18084E-03 4.71019E+00 3.96092E-02 1.32367E-01
 -1      2117 9.89999E+01-5.20211E-01 8.33150E-03 4.46080E+00 6.72829E-02 4.80121E-02
 -1      2118-3.14593E+00-9.23985E-01 1.77944E-03 7.95069E+00 1.51887E-01-1.06608E-01
 -1      2119 8.57322E+01-4.64806E-01 3.05642E-02 5.05748E+00-2.05345E-02 2.21444E-01
 -1      2120 9.12761E+01-3.78202E-01-3.74375E-02 4.88843E+00 1.13408E-01 1.66224E-01
 -1      2121-7.97214E+00-6.77999E-01-1.88753E-02 8.70593E+00 2.06919E-02-3.60316E-02
 -1      2122 7.68370E+01-2.39383E-01-1.94785E-01 5.24093E+00 2.65245E-02-8.08008E-02
 -1      2123 8.27687E+01-2.55283E-01-2.15366E-01 5.23162E+00 9.78696E-03 1.90231E-01
 -1      2124-1.33540E+01-5.99508E-01-5.45086E-02 9.22185E+00-2.64394E-02 8.98961E-02
 -1      2125 6.93503E+01-3.17547E-01 7.78055E-02 5.62150E+00 5.51647E-02 2.04762E-01
 -1      2126 7.57132E+01-1.79627E-01 8.65581E-02 5.49704E+00 1.01255E-01 1.78309E-01
 -1      2127-1.74053E+01-8.27207E-01-6.51778E-02 9.69401E+00 1.29854E-01-6.73226E-02
 -1      2128 5.95433E+01-3.27605E-01-9.92871E-02 5.86438E+00-3.11076E-02 2.01316E-01
 -1      2129 6.60132E+01-2.68102E-01 4.62929E-02 5.79845E+00 1.28543E-01 1.70280E-01
 -1      2130-2.17948E+01-5.57263E-01-3.57520E-02 1.03527E+01 1.68394E-01-2.85570E-02
 -1      2131 4.84892E+01-1.67210E-01-1.24613E-01 6.14499E+00 9.02146E-03-2.06654E-03
 -1      2132 5.54170E+01-2.71017E-01-1.91895E-01 6.05910E+00 1.68008E-02 1.90414E-01
 -1      2133-2.86315E+01-4.01743E-01 7.85197E-03 1.08759E+01-4.70682E-02-6.51989E-02
 -1      2134 3.70480E+01-2.51358E-01 8.16528E-02 6.60902E+00-1.06053E-02 2.35096E-01
 -1      2135 4.40673E+01-1.55015E-01 1.94914E-01 6.39336E+00 1.43269E-01 1.29002E-01
 -1      2136-3.68468E+01-5.54988E-01 1.60704E-02 1.12892E+01 1.20056E-01-1.46256E-01
 -1      2137 2.48601E+01-3.10023E-01-3.15738E-02 6.79353E+00-4.54594E-02 2.87601E-01
 -1      2138 3.25033E+01-1.96530E-01-3.31368E-02 6.67342E+00 6.60815E-02 2.25912E-01
 -1      2139-4.54582E+01-4.23602E-01-1.75392E-02 1.19657E+01 4.12387E-03 2.65219E-03
 -1      2140 1.31954E+01-2.90348E-01 5.53881E-02 6.93587E+00 1.00808E-02 2.76854E-01
 -1      2141 2.11825E+01-7.36704E-02-4.01789E-02 6.85444E+00 3.73732E-02 2.74249E-01
 -1      2142-5.31192E+01-2.47319E-01 8.35849E-02 1.23980E+01-7.12368E-02 4.31274E-02
 -1      2143 1.33152E+00-1.76506E-01-2.52564E-01 7.22894E+00-6.98805E-02 1.56310E-01
 -1      2144 9.38994E+00 2.58382E-02 2.47842E-02 7.35679E+00 1.56141E-01 3.92998E-01
 -1      2145-6.02000E+01-1.74512E-01 1.11776E-01 1.29010E+01 1.10613E-01 1.84429E-01
 -1      2146-1.11389E+01-2.48313E-01 9.77552E-02 7.44868E+00 1.04952E-02 3.52861E-01
 -1      2147-2.78670E+00-3.08604E-01 1.23115E-01 7.16269E+00 7.00222E-02-6.62859E-02
 -1      2148-6.85348E+01-5.17948E-01-9.70788E-02 1.27585E+01-1.94619E-03-4.14308E-02
 -1      2149-2.45359E+01-2.11745E-01 2.54226E-02 7.53120E+00 2.45105E-02 2.98355E-01
 -1      2150-1.58696E+01 4.88346E-02-9.30706E-02 7.57567E+00 9.77249E-02 3.13663E-01
 -1      2151-7.70092E+01-2.53700E-01-4.47777E-02 1.35316E+01 2.00324E-03 1.53234E-01
 -1      2152-3.77657E+01-1.21323E-01 2.58127E-02 7.76083E+00-1.56380E-02 2.61903E-01
 -1      2153-2.89332E+01-2.58884E-03 2.37557E-02 7.78085E+00 1.08154E-01 3.35002E-01
 -1      2154-8.58935E+01-2.40004E-01-7.24701E-02 1.39218E+01 1.57836E-01 6.74611E-02
 -1      2155-5.10781E+01-1.65626E-01-2.89433E-01 7.98199E+00-1.29850E-01 1.30718E-01
 -1      2156-4.24601E+01-1.51963E-02-1.00054E-01 8.06567E+00 6.09135E-02 2.99400E-01
 -1      2157-9.44133E+01-1.10267E-01-2.43295E-02 1.43157E+01 7.16094E-02 4.88704E-03
 -1      2158-6.46527E+01-6.32837E-02 2.28301E-01 8.20513E+00-9.15231E-02 3.22330E-01
 -1      2159-5.58814E+01-2.13492E-01 1.54671E-01 8.00725E+00 9.58867E-02-5.77855E-02
 -1      2160-1.03527E+02 8.43842E-03-4.45984E-02 1.43645E+01-5.96383E-02-2.16464E-01
 -1      2161-7.89389E+01 1.45191E-01-1.93074E-01 8.05363E+00-1.63583E-02-1.18909E-01
 -1      2162-6.95422E+01 1.40842E-01-3.50405E-01 8.16208E+00-9.53609E-02 2.99160E-01
 -1      2163-1.12211E+02-5.88956E-02-1.23038E-01 1.46912E+01-1.90866E-01 1.11637E-01
 -1      2164-9.27975E+01-6.37938E-02-6.74574E-02 8.54464E+00-1.05195E-01 1.44567E-01
 -1      2165-8.39272E+01 9.25681E-02 3.45694E-02 8.51730E+00 1.01035E-01 1.62567E-01
 -1      2166-1.21561E+02-2.62439E-01-5.80121E-02 1.49077E+01 9.12222E-02-1.15240E-01
 -1      2167-1.07301E+02-1.01353E-01 2.55789E-01 8.48412E+00 3.18410E-02 2.44965E-01
 -1      2168-9.79767E+01-1.49723E-01 1.05014E-01 8.32315E+00 3.82492E-02-4.67094E-02
 -1      2169-1.31137E+02 1.56636E-01 1.04766E-01 1.51405E+01-7.07741E-02-1.31800E-01
 -1      2170-1.22228E+02-6.58676E-03-3.93626E-01 8.54889E+00-1.42906E-01-4.87710E-02
 -1      2171-1.12420E+02 2.23025E-01-1.38593E-01 8.68648E+00 6.15305E-02 4.33316E-01
 -1      2172-1.40079E+02 1.52349E-02 1.94288E-03 1.53621E+01 8.44896E-02 2.17092E-01
 -1      2173-1.36457E+02-7.48745E-02 3.51964E-02 8.70306E+00-2.89408E-02 2.73302E-01
 -1      2174-1.27181E+02-1.59626E-01 1.92714E-01 8.39622E+00 4.25298E-02 1.19705E-01
 -1      2175-1.50299E+02-2.63343E-01 8.14070E-02 1.52778E+01 8.73541E-02-1.80349E-01
 -1      2176-1.51264E+02 1.26122E-01-1.13906E-01 8.52237E+00-3.41902E-02-6.27390E-02
 -1      2177-1.41697E+02 2.72195E-02-3.03899E-01 8.62960E+00-3.66213E-02 2.59235E-01
 -1      2178-1.59553E+02 1.82229E-01-4.60908E-04 1.56407E+01-1.31248E-01 4.39422E-02
 -1      2179-1.65600E+02 2.77168E-01 5.24876E-02 8.38952E+00 1.23874E-02 6.39348E-02
 -1      2180-1.56360E+02 1.35746E-01 7.00898E-02 8.56850E+00 1.93617E-02 6.33147E-02
 -1      2181-1.68929E+02-1.70277E-01-8.44206E-02 1.54477E+01 8.03166E-02-2.35169E-01
 -1      2182-1.80977E+02 2.88374E-01-6.54533E-02 8.16159E+00 4.85447E-02-4.15463E-02
 -1      2183-1.72189E+02 3.66826E-01 1.36736E-01 8.53134E+00 1.10699E-02-1.41621E-02
 -1      2184-1.79485E+02 5.97369E-01-1.86236E-01 1.54713E+01-4.40137E-02-1.13494E-01
 -1      2185-1.88757E+02 9.62600E-01 2.31861E-01 1.32967E+01-6.36085E-02 2.08012E-01
 -1      2186-5.04076E+02-4.69452E+00-6.73594E+00-1.19787E+01-4.22617E+00-4.83858E+00
 -1      2187-5.12228E+02 4.89516E+00 3.86135E+00-6.31639E+00 1.44231E+00-5.13885E+00
 -1      2188-4.22392E+02 1.08017E+01 1.18559E+01-1.00421E+01 1.79269E+00-9.17289E+00
 -1      2189-5.23050E+02 2.89892E-01-1.94303E-01-2.58686E+00-5.78874E-01-1.42356E+00
 -1      2190-5.30258E+02 5.25072E-01 3.68326E-01-1.02187E+00 1.78492E-01-1.10315E+00
 -1      2191-4.08053E+02 2.55533E+00 1.53485E+00-5.56781E+00-3.60428E-01-3.59671E+00
 -1      2192-5.33179E+02-4.66525E-01-1.33078E-01 7.27542E-01-1.58788E-01-2.45503E-01
 -1      2193-5.34232E+02-6.71224E-01-7.60872E-02 1.00110E+00 9.22888E-02-2.85471E-01
 -1      2194-4.20164E+02-3.19490E-01-4.03094E-01-4.42807E-01-9.20513E-02-1.13469E+00
 -1      2195-5.33199E+02-7.52170E-01 3.82288E-02 1.93016E+00-6.85412E-02-1.18753E-01
 -1      2196-5.31453E+02-8.28158E-01 2.73815E-02 2.07157E+00-1.11875E-01 1.12172E-03
 -1      2197-4.21979E+02-1.22177E+00 8.43013E-03 2.74306E+00-2.29042E-02-1.48798E-01
 -1      2198-5.29293E+02-8.26596E-01-1.29422E-01 2.51487E+00 2.30973E-02-2.95513E-02
 -1      2199-5.26398E+02-7.94028E-01-3.96816E-02 2.67885E+00-9.72271E-02-1.21700E-01
 -1      2200-4.18652E+02-1.52784E+00-4.97525E-02 4.16632E+00-9.11978E-02 1.94770E-02
 -1      2201-5.24596E+02-8.10217E-01 2.04692E-01 2.99651E+00-1.33018E-01-8.87272E-02
 -1      2202-5.20946E+02-5.90447E-01 1.71178E-01 3.06966E+00-1.23112E-01-2.46272E-02
 -1      2203-4.14935E+02-1.44440E+00 1.91142E-02 5.03647E+00-1.93808E-01-7.97208E-02
 -1      2204-5.19088E+02-6.93401E-01-2.39304E-02 3.44399E+00-8.65750E-02-5.49617E-02
 -1      2205-5.15355E+02-6.53588E-01 4.83677E-02 3.53128E+00-2.70238E-02-5.87890E-02
 -1      2206-4.11282E+02-1.31681E+00-8.62327E-02 5.86838E+00-1.01566E-01 4.33169E-02
 -1      2207-5.13204E+02-6.23792E-01-8.80504E-02 3.69478E+00-8.66030E-02 3.72775E-02
 -1      2208-5.08676E+02-6.01095E-01-1.08197E-01 3.83744E+00-9.54089E-03-1.70351E-01
 -1      2209-4.07421E+02-1.58888E+00-1.40811E-01 6.44396E+00-1.45058E-01 9.30641E-02
 -1      2210-5.06295E+02-7.11967E-01 5.39099E-02 4.21770E+00 1.83044E-02-1.75396E-01
 -1      2211-5.01487E+02-6.22848E-01 3.67937E-03 4.22680E+00-8.20748E-02-1.36016E-01
 -1      2212-4.02805E+02-1.17033E+00-4.26557E-02 7.23057E+00-5.13829E-03-7.46489E-02
 -1      2213-4.98755E+02-6.42880E-01 7.40628E-02 4.63808E+00-1.06452E-02-1.55036E-01
 -1      2214-4.93720E+02-5.05230E-01 1.74227E-01 4.61588E+00-1.04305E-01-8.83782E-02
 -1      2215-3.98074E+02-1.14790E+00-2.70881E-02 8.01038E+00-6.03028E-02-6.45941E-03
 -1      2216-4.90797E+02-4.70903E-01-2.33665E-02 4.88224E+00-6.73460E-02 8.46127E-02
 -1      2217-4.85561E+02-6.94403E-01-5.70948E-02 4.93137E+00 6.06250E-05-3.68091E-02
 -1      2218-3.92725E+02-1.23868E+00-3.50903E-02 8.49098E+00-1.14454E-01 1.15331E-01
 -1      2219-4.82482E+02-5.47717E-01-1.99243E-01 5.14443E+00 4.33561E-02-4.43519E-03
 -1      2220-4.76292E+02-3.72387E-01-1.74139E-01 5.29895E+00 1.30992E-02-2.48635E-01
 -1      2221-3.87328E+02-1.26153E+00-7.01467E-04 9.06143E+00-1.24710E-01 9.34517E-02
 -1      2222-4.73595E+02-4.96578E-01 1.76391E-01 5.58999E+00 1.55539E-02-2.01308E-01
 -1      2223-4.67553E+02-5.87593E-01 1.18673E-01 5.54268E+00-1.17690E-01 5.34156E-02
 -1      2224-3.81442E+02-8.76210E-01-5.02659E-02 9.73176E+00 6.28334E-02-1.05137E-01
 -1      2225-4.63665E+02-5.14205E-01-2.03488E-01 5.81958E+00 8.49560E-02-8.55836E-02
 -1      2226-4.57194E+02-4.03679E-01-5.38980E-02 5.97642E+00-5.64174E-02-2.36689E-01
 -1      2227-3.75646E+02-8.19450E-01-6.01087E-02 1.02405E+01-2.35452E-02 1.48208E-01
 -1      2228-4.54108E+02-4.41039E-01 2.68419E-02 6.04811E+00 1.99934E-02-1.90227E-01
 -1      2229-4.47038E+02-3.09142E-01-2.70597E-02 6.20379E+00-1.72201E-01-2.94571E-01
 -1      2230-3.68953E+02-7.30591E-01-4.29842E-02 1.08983E+01-8.87644E-02-2.35932E-02
 -1      2231-4.42416E+02-4.90846E-01 3.10509E-01 6.36336E+00-1.32062E-01-2.15816E-01
 -1      2232-4.35023E+02-4.86896E-01 1.34547E-01 6.31802E+00-6.23674E-02 8.63876E-02
 -1      2233-3.61755E+02-7.29023E-01 1.12752E-01 1.12872E+01-2.32424E-01-1.34459E-01
 -1      2234-4.31018E+02-4.09337E-01-3.36982E-02 6.86541E+00 6.75250E-02-1.46542E-01
 -1      2235-4.23787E+02-2.47066E-01 1.12757E-01 6.90458E+00-9.09740E-02-1.58960E-01
 -1      2236-3.53570E+02-5.30659E-01 5.86262E-02 1.18581E+01-2.63938E-03 4.72071E-02
 -1      2237-4.19393E+02-1.43842E-01 4.92014E-02 6.91050E+00-6.07593E-02 1.27520E-01
 -1      2238-4.11857E+02-2.16402E-01-1.13273E-01 7.02772E+00-8.30672E-02 9.64236E-02
 -1      2239-3.45976E+02-9.71076E-01-1.52432E-01 1.23365E+01-1.07087E-01 5.08314E-02
 -1      2240-4.08666E+02-2.12641E-01-3.00650E-02 7.03019E+00-3.88585E-02 3.30273E-02
 -1      2241-4.01117E+02-5.20273E-01 2.76134E-02 6.94557E+00 3.77624E-02 1.08697E-02
 -1      2242-3.39084E+02-4.04418E-01-2.37786E-01 1.25254E+01 1.48786E-01 2.13427E-01
 -1      2243-3.96367E+02-2.36503E-01-2.82208E-01 7.26038E+00 8.54847E-02-2.48598E-02
 -1      2244-3.87974E+02-8.52750E-02-4.28811E-02 7.39835E+00-1.23569E-01-3.36220E-01
 -1      2245-3.32386E+02-7.08292E-01-1.52548E-02 1.28468E+01-1.68830E-01 1.24924E-01
 -1      2246-3.82328E+02-3.92351E-01 1.93318E-01 7.60340E+00-3.97103E-02-2.93597E-01
 -1      2247-3.73667E+02-9.38153E-02 2.69450E-01 7.55797E+00-1.14874E-01-7.77992E-02
 -1      2248-3.22425E+02-3.64134E-01 6.11929E-02 1.34701E+01-1.64222E-01-1.54240E-01
 -1      2249-3.69253E+02-1.00055E-01-1.02106E-01 7.64337E+00-2.56186E-02-1.38626E-01
 -1      2250-3.60513E+02-1.93165E-01-1.28106E-01 7.75881E+00 4.91282E-02-2.10119E-01
 -1      2251-3.12633E+02-1.45625E-01-1.14467E-01 1.37270E+01 9.72377E-02 1.29110E-01
 -1      2252-3.55789E+02-2.26424E-01-7.69534E-02 7.93267E+00 1.01350E-01-2.40907E-01
 -1      2253-3.47067E+02-1.11687E-01 1.24229E-01 7.93813E+00-9.68076E-02-2.79050E-01
 -1      2254-3.03788E+02-2.61580E-01 1.15728E-02 1.42502E+01 8.38938E-02 9.14264E-02
 -1      2255-3.42260E+02-2.09836E-01 2.11251E-01 8.09354E+00-2.38401E-02-2.93055E-01
 -1      2256-3.32948E+02-1.65099E-02 2.19789E-01 8.11892E+00-9.24778E-02-8.15130E-02
 -1      2257-2.95197E+02-4.03665E-01-7.52122E-02 1.45465E+01-1.68851E-01 5.42832E-02
 -1      2258-3.28163E+02-6.67981E-03-1.75717E-01 8.05124E+00 3.80994E-02-1.00523E-01
 -1      2259-3.19259E+02-1.26723E-01-3.52846E-02 8.28781E+00-4.96008E-02-2.27807E-01
 -1      2260-2.85620E+02-1.00813E-01-1.78378E-01 1.46103E+01 1.05815E-01 2.04118E-01
 -1      2261-3.14287E+02-1.15633E-01 4.79104E-02 8.26361E+00 3.06608E-02-2.89737E-01
 -1      2262-3.04856E+02 4.08490E-02 8.72834E-03 8.39032E+00-1.26345E-01-3.75429E-01
 -1      2263-2.76481E+02-1.45317E-01 2.30596E-02 1.49938E+01-1.40420E-01 5.05926E-02
 -1      2264-3.00064E+02-2.50630E-01 1.03347E-01 8.36203E+00-1.59909E-02-3.63693E-01
 -1      2265-2.90253E+02 6.75962E-02-5.86024E-03 8.32911E+00 4.25727E-03-3.40311E-01
 -1      2266-2.67043E+02-1.45689E-01 1.21817E-02 1.51418E+01-1.87373E-01-8.52665E-02
 -1      2267-2.85208E+02-1.92926E-01 6.41416E-02 8.66645E+00 7.64410E-02-3.68723E-01
 -1      2268-2.75599E+02-2.30821E-03 3.27393E-01 8.57932E+00-1.35441E-01 1.99443E-04
 -1      2269-2.57557E+02-6.83981E-02 4.00710E-03 1.53716E+01 1.05372E-01-1.41387E-01
 -1      2270-2.70619E+02 9.73654E-02-2.22387E-01 8.41885E+00 2.87054E-02-1.03289E-01
 -1      2271-2.61278E+02 4.64400E-03 1.03813E-02 8.66498E+00-4.37746E-02-2.84708E-01
 -1      2272-2.47695E+02 1.43885E-01-1.39978E-01 1.53590E+01 1.11891E-01 1.73191E-01
 -1      2273-2.56124E+02-9.98084E-02 8.26435E-02 8.58253E+00 4.23040E-02-3.33163E-01
 -1      2274-2.46183E+02 1.12849E-01-5.74126E-02 8.63138E+00-6.37731E-02-3.44170E-01
 -1      2275-2.38228E+02-1.09607E-01 4.64757E-02 1.56142E+01-1.51531E-01-2.19620E-02
 -1      2276-2.41170E+02-9.79918E-02 4.74150E-03 8.56092E+00 1.48095E-02-3.30115E-01
 -1      2277-2.31420E+02-6.19149E-03 2.76692E-02 8.53064E+00-1.30287E-01-2.12236E-01
 -1      2278-2.28399E+02-9.71059E-02-5.54376E-02 1.56513E+01-1.71924E-03-6.64012E-02
 -1      2279-2.25266E+02-4.56150E-01 9.83453E-02 8.53791E+00 4.41501E-02-1.79621E-01
 -1      2280-2.16393E+02-4.07490E-01 2.41510E-01 7.98886E+00 4.21902E-02 1.68924E-02
 -1      2281-2.17941E+02-4.84867E-01-2.23912E-02 1.56549E+01-7.20028E-02-1.64870E-02
 -1      2282-2.09174E+02-1.07504E+00-2.47268E-01 1.30740E+01 3.14362E-02-2.36303E-01
 -1      2283-1.44838E+02-2.77705E-01-6.63500E-02 1.60804E+01-2.32966E-02-1.39483E-01
 -1      2284-1.40723E+02-3.38929E-01 1.33225E-01 1.58272E+01-1.68333E-02-2.61125E-01
 -1      2285-1.48963E+02-2.54929E-01-8.36920E-03 1.64188E+01 3.18100E-02-2.15775E-01
 -1      2286-1.44868E+02-1.92293E-01 3.46164E-02 1.61173E+01-3.08217E-02-1.99254E-01
 -1      2287-1.99370E+02-3.47990E-01 1.15244E-01 1.77198E+01-2.16595E-02-2.40842E-02
 -1      2288-1.67247E+02 2.10292E-02-1.29912E-01 1.72718E+01 9.19784E-03-1.66536E-01
 -1      2289-1.62723E+02 1.42707E-01 9.08467E-02 1.72704E+01-4.69991E-03-7.17859E-02
 -1      2290-1.62777E+02-6.21717E-02-1.95185E-02 1.70811E+01 1.91574E-01-1.37799E-01
 -1      2291-1.58369E+02-1.02333E-01-3.21053E-02 1.67089E+01 6.28421E-02 8.53657E-02
 -1      2292-1.98976E+02-1.11264E-01 1.28310E-01 1.90963E+01 2.21714E-02-1.21930E-01
 -1      2293-2.25851E+02-1.95305E-02 5.97550E-03 1.75849E+01 5.32043E-02 1.35963E-01
 -1      2294-2.20811E+02-5.11740E-02 1.47853E-01 1.79163E+01 1.04436E-01 9.99188E-02
 -1      2295-2.30400E+02 2.26307E-02-4.13460E-02 1.73864E+01-5.73456E-02 2.13514E-01
 -1      2296-2.25750E+02 1.43928E-01 5.60257E-02 1.76774E+01-1.40508E-02 1.38846E-01
 -1      2297-1.99205E+02-1.31206E-01-3.32377E-03 1.95091E+01-5.34586E-02 2.10744E-02
 -1      2298-1.86303E+02-1.10818E-01-4.78507E-02 1.80173E+01 1.47052E-01-5.20481E-02
 -1      2299-1.81838E+02-4.52245E-02 8.40541E-02 1.78496E+01 2.59471E-02 2.47989E-03
 -1      2300-1.98805E+02-1.79122E-01 1.44742E-01 2.00393E+01 7.92472E-04-4.89204E-02
 -1      2301-1.86162E+02 1.89366E-01 1.61389E-01 1.80507E+01-9.30416E-02 8.87251E-02
 -1      2302-1.91724E+02 3.33849E-01-5.18803E-02 1.79489E+01 4.85861E-02-2.96033E-02
 -1      2303-1.35583E+02-2.08366E-02 1.03347E-01 1.50652E+01 5.04957E-02 3.42146E-02
 -1      2304-1.33082E+02-6.08336E-01-1.00566E-01 1.48038E+01 1.00950E-02 1.59425E-03
 -1      2305-2.00115E+02-5.69649E-01-2.89988E-02 1.64355E+01 2.38285E-02-6.77432E-02
 -1      2306-1.31757E+02-6.87382E-01 1.47598E-01 1.48182E+01 8.43526E-03-8.19181E-02
 -1      2307-1.28327E+02-4.02910E-01 1.23292E-01 1.43842E+01 1.05408E-01-2.27196E-01
 -1      2308-2.49306E+02-3.00993E-01-9.86507E-02 1.66659E+01-5.20396E-02 2.69854E-01
 -1      2309-2.44519E+02-7.88719E-02 8.09789E-02 1.65189E+01 4.30510E-02 1.43999E-01
 -1      2310-2.45068E+02-4.66990E-01-1.00776E-01 1.65427E+01 2.13627E-02 3.29733E-02
 -1      2311-2.40018E+02-1.83571E-01 2.42622E-01 1.68844E+01 6.46028E-02 1.17352E-01
 -1      2312-1.99082E+02-2.58455E-01-1.52931E-01 1.84963E+01 4.95052E-03 2.03726E-02
 -1      2313-1.24919E+02-6.92188E-01-5.59725E-02 1.37329E+01-9.76943E-03-1.61078E-01
 -1      2314-1.20583E+02-4.87788E-01 7.37265E-02 1.35731E+01-1.04166E-01-2.83415E-01
 -1      2315-1.28038E+02-3.47855E-01-1.32405E-01 1.43803E+01 4.99413E-02-2.63094E-01
 -1      2316-1.24627E+02-3.98641E-01 7.69847E-02 1.41157E+01 6.50090E-02-1.24565E-01
 -1      2317-1.99893E+02-5.30406E-01-7.36504E-02 1.52481E+01 2.69146E-02 8.35904E-02
 -1      2318-3.11095E+02-1.28303E+00 1.61637E-02 4.60798E+00-3.45130E-02 3.26691E-02
 -1      2319-3.08840E+02-1.26978E+00 5.45678E-02 5.09973E+00 4.63930E-02 6.64588E-02
 -1      2320-3.08780E+02-1.42479E+00-8.06401E-03 5.67958E+00-6.70609E-03 1.50811E-02
 -1      2321-3.07359E+02-1.37511E+00 8.02049E-02 5.93902E+00-1.26068E-01 3.29038E-02
 -1      2322-2.01378E+02-1.36100E+00 4.11255E-02 5.99248E+00 5.21497E-02 1.33233E-02
 -1      2323-9.84955E+01-1.01519E+00-2.00191E-02 7.81840E+00-2.41066E-02-5.82065E-02
 -1      2324-9.65749E+01-8.77626E-01 1.54211E-02 7.46849E+00 3.44366E-02-7.46871E-02
 -1      2325-9.67359E+01-1.00539E+00-2.65912E-02 7.02644E+00 4.57323E-02-4.88417E-02
 -1      2326-9.49062E+01-1.16162E+00 4.45297E-02 6.44438E+00 5.93628E-02-9.32196E-02
 -1      2327-2.01049E+02-1.29399E+00-1.64187E-02 7.89193E+00 3.66081E-02 4.90657E-02
 -1      2328-9.15512E+01-1.07904E+00-4.98741E-02 4.22232E+00 1.14097E-01-6.96061E-02
 -1      2329-9.01495E+01-6.75527E-01-6.15515E-02 3.50926E+00 2.29753E-01-1.48067E-01
 -1      2330-8.76305E+01 1.60282E-01 1.37682E-01 1.43857E+00 7.46019E-01-3.51482E-01
 -1      2331-8.99866E+01-2.08903E-01-1.61025E-01 2.75722E+00 3.67256E-01-3.99073E-01
 -1      2332-2.01090E+02-5.85339E-01 1.48667E-01 3.02676E+00 3.04769E-01-4.23336E-01
 -1      2333-2.95486E+02-1.02335E+00-1.21498E-01 1.03931E+01-7.44069E-02-2.29754E-02
 -1      2334-2.92651E+02-1.07560E+00-1.58903E-02 1.03875E+01-6.79701E-03-6.32015E-02
 -1      2335-2.98007E+02-9.82690E-01-4.30715E-02 9.68731E+00-3.43206E-02 7.64283E-02
 -1      2336-2.95143E+02-9.04160E-01 6.10516E-02 9.96422E+00 2.20877E-02 3.26229E-02
 -1      2337-2.00441E+02-1.03948E+00-3.64591E-02 1.12980E+01 1.48264E-02 4.62846E-02
 -1      2338-2.88866E+02-8.53184E-01-7.62670E-02 1.16911E+01 2.52527E-03 1.02504E-01
 -1      2339-2.85057E+02-7.17256E-01 7.25980E-02 1.19582E+01 1.13615E-01 1.40561E-01
 -1      2340-1.98513E+02-8.51983E-01 1.11028E-01 1.35120E+01 3.27678E-02 2.85642E-02
 -1      2341-2.85087E+02-7.39066E-01 2.46009E-02 1.24122E+01 7.10766E-05 1.61369E-01
 -1      2342-2.82417E+02-6.74929E-01 1.04460E-01 1.25822E+01 1.15271E-02 1.38261E-01
 -1      2343-3.02866E+02-1.14351E+00 1.32818E-02 8.19975E+00 6.62492E-02 6.28684E-02
 -1      2344-3.00568E+02-9.49990E-01 9.37240E-02 8.59237E+00-4.50979E-02 5.29919E-02
 -1      2345-3.00598E+02-1.06017E+00-7.00900E-03 8.91927E+00-3.36162E-02 9.43037E-02
 -1      2346-2.98126E+02-9.42983E-01 5.82939E-02 9.32737E+00 3.16602E-02 1.31100E-01
 -1      2347-2.00744E+02-1.21362E+00-4.21763E-02 9.66020E+00 2.34458E-02-7.05730E-02
 -1      2348-3.01472E+02 1.62232E+00 1.39431E+00-6.91610E+00 1.34659E+00-3.38590E+00
 -1      2349-3.04982E+02 2.19046E+00 7.84441E-02-3.43253E+00 1.47586E+00-2.73880E+00
 -1      2350-2.94409E+02 9.53976E-01 5.46534E+00-1.02534E+01 3.09602E+00-5.43941E+00
 -1      2351-1.93424E+02-1.11377E+00 2.88713E+00-6.44095E+00 3.66560E+00-2.90563E+00
 -1      2352-2.38316E+02-8.45315E+00 4.29570E+00-1.36005E+01 5.81410E+00-3.71810E+00
 -1      2353-3.38917E+02 4.56071E+00 9.73230E+00-1.50650E+01 6.81359E+00-5.95843E+00
 -1      2354-2.58159E+02-2.47565E-01-1.33930E-01 1.56519E+01-1.23970E-02 1.69257E-01
 -1      2355-2.53560E+02-1.87391E-01 1.45403E-01 1.59820E+01 1.04786E-02-2.81163E-02
 -1      2356-2.63620E+02-6.95076E-01 2.16395E-02 1.54501E+01-7.12365E-03 9.30979E-02
 -1      2357-2.58389E+02-2.96147E-01 1.17632E-01 1.54460E+01-1.08415E-01 1.45023E-01
 -1      2358-1.99420E+02-1.80457E-01 2.93006E-02 1.68940E+01 1.16719E-01 3.95294E-02
 -1      2359-1.81585E+02 3.01168E-02-4.28839E-02 1.80031E+01-9.48062E-02-2.01771E-01
 -1      2360-1.76988E+02 1.13641E-01-1.22905E-01 1.80598E+01 1.74401E-02-1.33970E-01
 -1      2361-1.77154E+02 4.74211E-02-2.43633E-01 1.77464E+01 1.05934E-01-2.40537E-01
 -1      2362-1.72351E+02-2.44260E-01-1.63235E-01 1.73437E+01 2.94893E-02 1.04305E-02
 -1      2363-1.98628E+02 8.87893E-02-3.10881E-02 1.96431E+01 7.78915E-02 3.00113E-02
 -1      2364-2.11040E+02-2.60427E-01-4.10596E-03 1.82822E+01 1.61970E-01 1.64764E-01
 -1      2365-2.05697E+02-5.33609E-01-3.28293E-02 1.83711E+01-1.03113E-01 1.83195E-01
 -1      2366-1.98531E+02 2.13204E-01-2.61017E-01 2.04927E+01-7.05994E-03-1.19061E-01
 -1      2367-2.05646E+02-4.47383E-01-6.57877E-02 1.84465E+01-6.56264E-02 1.83943E-01
 -1      2368-2.05579E+02-8.75258E-01-7.16955E-04 1.75493E+01-1.65437E-01-5.22568E-02
 -1      2369-2.00696E+02-3.22915E-01-1.79667E-01 2.00557E+01-1.74269E-01 1.97476E-01
 -1      2370-2.82708E+02-5.95517E-01-5.56690E-02 1.30099E+01-6.74052E-02 8.73811E-02
 -1      2371-2.78465E+02-4.32595E-01 1.04918E-01 1.31973E+01-2.99447E-01 9.42853E-02
 -1      2372-2.78339E+02-6.64821E-01 6.00150E-02 1.31888E+01 6.15450E-03-7.06520E-02
 -1      2373-2.74729E+02-5.66187E-01 5.96076E-02 1.36225E+01 1.30169E-01 8.51193E-02
 -1      2374-1.99485E+02-5.33010E-01-1.38776E-01 1.46215E+01-9.33682E-02-1.12343E-02
 -1      2375-2.16087E+02 7.97206E-02-9.36788E-02 1.79758E+01 1.04420E-02 3.56440E-01
 -1      2376-2.11246E+02 1.26277E-01 2.36980E-02 1.80027E+01-3.65546E-02 2.04563E-01
 -1      2377-2.20784E+02-1.62157E-01-6.15539E-02 1.79376E+01-1.59091E-01 2.01014E-01
 -1      2378-2.16234E+02-3.02010E-02 8.91785E-02 1.77376E+01 3.37574E-02 1.69682E-01
 -1      2379-1.98897E+02-1.56818E-01 2.96542E-01 1.96817E+01-8.29165E-02 5.60205E-02
 -1      2380-2.74902E+02-5.18766E-01-8.96609E-02 1.38823E+01-8.31978E-02-2.18908E-03
 -1      2381-2.71236E+02-5.35057E-01-6.44690E-02 1.39993E+01 2.92820E-02-1.11113E-01
 -1      2382-2.70683E+02-6.27790E-01-1.94918E-01 1.42609E+01 1.74455E-01 1.06792E-01
 -1      2383-2.67996E+02-1.75384E-01 1.12961E-02 1.48114E+01-8.98437E-03 4.57909E-03
 -1      2384-1.99933E+02-7.00916E-01-4.83602E-02 1.54247E+01-8.25773E-02-1.04572E-02
 -1      2385-1.08295E+02-7.65163E-01-3.16814E-02 1.07959E+01-9.16869E-02-9.23013E-02
 -1      2386-1.05515E+02-5.98805E-01 8.64219E-02 1.05218E+01 8.39987E-02-8.95497E-02
 -1      2387-1.09711E+02-8.24008E-01-8.16754E-02 1.12957E+01 1.35722E-01-3.28331E-02
 -1      2388-1.08675E+02-8.98975E-01-1.92666E-02 1.08281E+01 4.23748E-02 5.69620E-02
 -1      2389-2.00861E+02-1.20640E+00 4.10394E-02 1.16784E+01 1.54716E-02-1.65259E-02
 -1      2390-1.20305E+02-4.85994E-01-1.54475E-01 1.31185E+01 9.42160E-02-1.20468E-01
 -1      2391-1.15755E+02-3.06967E-01 1.54689E-01 1.27839E+01 5.71419E-02-2.06733E-02
 -1      2392-1.99144E+02-6.97520E-01 1.23689E-01 1.41315E+01-1.00760E-02-5.35268E-02
 -1      2393-1.15918E+02-6.79083E-01-8.11608E-02 1.25603E+01 9.67109E-02-1.41271E-01
 -1      2394-1.11763E+02-4.99481E-01 8.14260E-02 1.24070E+01-3.48445E-02-1.96821E-01
 -1      2395-1.05644E+02-7.88261E-01-3.43694E-02 1.00514E+01 5.18335E-02-1.20306E-01
 -1      2396-1.03074E+02-7.25245E-01 4.61822E-02 9.78057E+00-6.02187E-02-1.67552E-01
 -1      2397-1.03166E+02-8.35974E-01-4.94203E-02 9.38124E+00 3.48971E-02-7.89928E-02
 -1      2398-1.00655E+02-9.06514E-01 3.35475E-03 8.85047E+00 5.59599E-02-6.11390E-02
 -1      2399-2.00791E+02-1.06885E+00-1.02405E-01 1.05226E+01 2.38965E-02 5.76142E-03
 -1      2400-1.35870E+02-9.96053E+00 3.66140E+00-1.80322E+01 5.98135E+00-1.18130E+00
 -1      2401-8.40407E+01-2.67639E+00 2.02598E+00-9.83698E+00 3.55076E+00-1.03508E+00
 -1      2402-3.19199E+01-1.17001E+01-1.83593E+00-1.89350E+01 6.98947E+00 3.95760E-01
 -1      2403-1.97021E+02 2.35055E-01 3.27518E-01 2.04624E+01-3.29687E-01 1.22940E-01
 -1      2404-1.92392E+02 8.05142E-01-2.22980E-01 1.75693E+01-2.34162E-01 3.51376E-01
 -1      2405-1.91980E+02 6.95210E-01 2.89816E-01 1.87222E+01 1.15464E-01-3.16559E-01
 -1      2406-2.35399E+02-2.88373E-01-5.07796E-02 1.75134E+01 5.26646E-02 1.33933E-01
 -1      2407-2.30694E+02-1.53515E-01 5.77880E-02 1.74448E+01-1.49701E-01 1.49983E-01
 -1      2408-2.40068E+02-8.50295E-02-5.73525E-02 1.72258E+01-2.42694E-01 3.75222E-01
 -1      2409-2.35210E+02 1.83226E-01 1.22483E-01 1.71551E+01-6.39015E-02 1.82182E-01
 -1      2410-1.57821E+02-3.67409E-01-9.59674E-02 1.69840E+01-3.34197E-01-1.47394E-01
 -1      2411-1.53397E+02-1.37747E-01 1.36353E-01 1.69427E+01-6.56817E-02-1.81150E-01
 -1      2412-1.53755E+02-2.07091E-01-1.24041E-01 1.66188E+01-1.52483E-02-1.53302E-01
 -1      2413-1.49078E+02-1.48476E-01 9.16989E-02 1.64887E+01-1.14638E-01-2.06152E-01
 -1      2414-3.05169E+02-1.25361E+00-3.02502E-02 7.32009E+00-9.79832E-02 1.34946E-02
 -1      2415-3.03353E+02-1.34866E+00-2.29778E-03 7.53362E+00-3.31413E-02-7.08790E-02
 -1      2416-3.07043E+02-1.35148E+00 1.38106E-01 6.35095E+00-7.03361E-02-4.31229E-02
 -1      2417-3.05074E+02-1.22024E+00 8.04403E-02 6.87394E+00-1.28217E-02-3.06211E-02
 -1      2418-9.49234E+01-1.00757E+00-3.53816E-02 6.09421E+00 5.99636E-02-3.77423E-02
 -1      2419-9.34954E+01-9.35191E-01-3.12629E-02 5.71779E+00 4.89106E-02-4.76060E-02
 -1      2420-9.36465E+01-1.08020E+00-3.00072E-02 5.20341E+00 7.75399E-02-5.49995E-02
 -1      2421-9.15982E+01-1.22400E+00-6.10471E-03 4.61088E+00 1.18870E-01 8.89058E-04
 -1      2422-3.09345E+02 7.36143E-01-4.68804E-01-3.76074E-01 4.58807E-01-1.30008E+00
 -1      2423-3.11566E+02-4.00027E-01-4.14051E-02 1.80425E+00 2.18073E-01-4.23814E-01
 -1      2424-3.12272E+02-8.80251E-01 2.03998E-02 2.94331E+00 8.01513E-02-1.71524E-01
 -1      2425-3.11069E+02-1.10696E+00-2.48916E-02 3.92632E+00 3.38642E-02 1.44212E-02
 -1      2426-1.96822E+02 1.09642E+00 5.29422E-01-3.29049E-01 1.76331E+00-1.50035E+00
 -1      2427-8.51464E+01 9.64779E-01 4.98737E-01-1.29071E+00 1.73364E+00-7.19447E-01
 -1      2428-8.80123E+01-8.33599E-01 1.16357E+00-6.03235E+00 2.66833E+00-1.47562E+00
 -1      2429-1.40485E+02-1.75718E-01-1.41195E-01 1.55252E+01-1.64043E-02-1.74433E-01
 -1      2430-1.36061E+02 1.44448E-01-7.56613E-02 1.54973E+01 1.04153E-01-6.96339E-02
 -1      2431-1.99569E+02-3.55038E-01 2.98588E-02 1.69426E+01 3.22354E-02 7.11461E-03
 -1      2432-2.63797E+02-4.20114E-01 7.00624E-02 1.50687E+01-3.80778E-02 1.34412E-01
 -1      2433-2.68476E+02-4.16636E-01-1.10700E-01 1.50220E+01-1.40679E-01 5.68978E-02
 -1      2434-1.71926E+02-3.45438E-01 6.85829E-02 1.77064E+01-1.47733E-01-5.04725E-02
 -1      2435-1.67305E+02-1.18691E-01 1.13092E-01 1.76064E+01 6.74040E-02-2.49932E-01
 -1      2436-1.98769E+02 8.35429E-02-1.45011E-01 1.88860E+01 5.57121E-03-6.24119E-02
 -1      2437-2.53871E+02-3.89870E-01 1.46556E-02 1.60930E+01-1.04762E-01 1.68918E-01
 -1      2438-2.49351E+02-1.73228E-01 7.44560E-02 1.64421E+01 6.63788E-02 2.31995E-01
 -1      2439-1.99262E+02-3.23426E-01 1.02612E-01 1.82023E+01-5.68414E-03-6.80683E-02
 -1      2440-2.92003E+02-8.77422E-01-2.38973E-02 1.10800E+01 1.29068E-01 8.00041E-02
 -1      2441-2.89550E+02-6.27995E-01 1.35932E-01 1.14774E+01-4.63359E-02 9.49663E-02
 -1      2442-1.99151E+02-8.69381E-01-5.31510E-02 1.27968E+01 5.33748E-03-5.19965E-02
 -1      2443-1.11535E+02-6.19992E-01-1.94735E-02 1.21204E+01 5.04626E-02-1.97802E-01
 -1      2444-1.08450E+02-6.20365E-01-4.16714E-03 1.16449E+01 3.40304E-02-1.01506E-01
 -1      2445-1.00943E+02-1.05121E+00-7.65957E-02 8.49186E+00 1.52367E-01-1.96520E-02
 -1      2446-9.87954E+01-1.13467E+00-8.24801E-03 7.97042E+00 8.67681E-02 4.18464E-02
 -1      2447-2.01299E+02-1.44167E+00 2.49824E-02 8.50146E+00 2.10079E-02-2.57846E-02
 -1      2448-2.01232E+02-1.46924E+00 2.54753E-02 6.71167E+00 6.50163E-02-2.86218E-03
 -1      2449-2.01605E+02-1.40667E+00-7.16109E-02 4.77073E+00 6.73760E-02-6.84786E-02
 -1      2450-1.99375E+02-3.73175E-01 1.88938E-01 1.85984E+01-9.09889E-02-1.38574E-02
 -1      2451-2.35221E+02-5.64209E+00-3.11538E+00 1.46530E+01 2.37463E-01-9.70824E-02
 -1      2452-2.00032E+02-1.16264E-01-5.26577E-02 1.79860E+01 1.07867E-01 6.40348E-02
 -1      2453-1.98822E+02-2.08744E-01 6.78236E-02 1.67469E+01-7.13475E-02 4.61044E-02
 -1      2454-2.04793E+02-2.04813E+00 4.75442E-01 4.24317E+00-5.40533E-02-2.00533E-02
 -1      2455-2.02135E+02-2.39146E+00-3.47705E-01 7.46728E+00 1.17999E-03-9.70541E-03
 -1      2456-1.99067E+02-1.57482E-01-4.00431E-02 1.62826E+01 7.53524E-03-5.60505E-02
 -1      2457-1.99237E+02-2.91431E-01-3.46052E-02 1.59395E+01 6.92161E-03-1.14439E-01
 -1      2458-1.99703E+02-4.79841E-01-1.08952E-01 1.44776E+01-2.89382E-02-1.20341E-01
 -1      2459-2.00026E+02-7.80425E-01-4.26719E-02 1.46308E+01-2.82419E-02 5.36734E-02
 -1      2460-2.00221E+02-9.97576E-01-2.01544E-01 1.34776E+01-2.83145E-02 1.03523E-01
 -1      2461-2.01340E+02-1.81764E+00-2.67433E-01 1.02475E+01-1.79933E-04-4.91863E-03
 -1      2462-2.02539E+02-2.61828E+00-3.61980E-01 5.92102E+00-1.89412E-03 3.81182E-02
 -1      2463-2.00583E+02-1.20206E+00-1.74246E-01 1.25358E+01 8.01557E-03 7.31353E-02
 -1      2464-2.01365E+02-1.82764E+00-2.18688E-01 8.41271E+00 1.21454E-03-5.51477E-03
 -1      2465-2.00812E+02-1.38497E+00-1.84420E-01 1.14334E+01-2.52021E-02 7.26932E-02
 -1      2466-1.70386E+02-6.19227E-01-9.05047E-02 1.36079E+01 5.03666E-02 4.37871E-02
 -1      2467-1.87974E+02-2.55703E-01 5.44062E-02 1.60718E+01-2.41021E-02-3.47223E-04
 -1      2468-1.54209E+02-2.44049E+00-2.00398E-01 4.54147E+00 5.82454E-02 1.43348E-03
 -1      2469-1.92946E+02 7.74513E-01-1.55608E-01 1.53539E+01 2.23921E-01-2.93521E-01
 -1      2470-2.46695E+01-1.35443E+01-1.89652E+00 8.32289E+00-5.77391E+00-8.59403E-01
 -1      2471-1.92093E+02 1.02678E+00-7.57740E-02 1.50274E+01-2.05097E-01 2.97476E-01
 -1      2472-4.05255E+02-1.43295E+01-2.25040E+01 1.62953E+01-4.68580E+00-8.17037E+00
 -1      2473-3.23140E+02-1.97443E+00-2.07234E-01 7.45565E+00 2.25093E-02 1.45086E-01
 -1      2474-7.43198E+01-1.94581E+00-2.79108E-01 6.19011E+00-1.16073E-01-1.74092E-01
 -1      2475-2.43732E+02-1.60007E-01-3.20399E-02 1.48016E+01 1.70221E-02 3.57842E-01
 -1      2476-1.54440E+02-1.25416E-01 2.11795E-02 1.48268E+01-7.34944E-04 2.65269E-01
 -1      2477-2.65866E+02-4.96870E-01-1.08909E-01 1.37338E+01 4.63965E-02-1.32626E-01
 -1      2478-2.55380E+02-3.19917E-01 2.14835E-02 1.43402E+01-3.63928E-02-1.35030E-01
 -1      2479-1.43405E+02-3.08716E-01-7.56515E-02 1.43673E+01-2.89152E-02-1.27199E-01
 -1      2480-1.32641E+02-3.53914E-01-2.71072E-02 1.38614E+01-3.16153E-02-2.53234E-01
 -1      2481-3.29464E+02-2.20462E+00-2.17585E-01 6.06354E+00-9.19506E-02-1.72274E-01
 -1      2482-1.08347E+02-8.87014E-01-1.29982E-01 1.19245E+01-4.98206E-02-2.89522E-01
 -1      2483-3.00849E+02-1.19909E+00-1.26819E-01 1.09642E+01 2.89942E-02 1.19205E-01
 -1      2484-9.15196E+01-1.17645E+00-1.36876E-01 9.91179E+00 1.35176E-01 1.72211E-01
 -1      2485-2.92042E+02-9.82830E-01-1.31437E-01 1.18964E+01-3.30151E-02-2.97315E-01
 -1      2486-3.17304E+02-1.75098E+00-1.77470E-01 8.76239E+00-9.03325E-02-2.08562E-01
 -1      2487-7.92497E+01-1.73680E+00-2.08591E-01 7.52700E+00 1.42305E-01 1.21782E-01
 -1      2488-9.96730E+01-1.10696E+00-1.60073E-01 1.10104E+01 5.09009E-02 1.42028E-01
 -1      2489-8.52594E+01-1.49193E+00-2.24910E-01 8.80553E+00-4.09647E-02-1.55899E-01
 -1      2490-3.09681E+02-1.61162E+00-1.63244E-01 9.79102E+00 2.66830E-02 1.39846E-01
 -1      2491-2.52946E+01-1.31312E+01-1.97246E+00 7.31374E+00 6.09018E+00 4.45730E-01
 -1      2492-2.04834E+02-7.43734E-01 1.93386E-01 1.50016E+01 2.73142E-01 3.33118E-01
 -1      2493-2.27623E+02-1.26214E-02 2.58205E-02 1.50146E+01 1.40794E-01 1.73912E-01
 -1      2494-3.43334E+02-2.45347E+00-2.22194E-01 4.58399E+00 9.39683E-02 1.00778E-01
 -1      2495-6.67772E+01-1.35634E+00 6.74929E-01 5.56189E+00-1.71994E+00 5.61784E-01
 -1      2496-1.83190E+02 1.00746E-01-3.27224E-02 1.53309E+01-4.22665E-03-3.45997E-01
 -1      2497-4.12275E+02-1.74401E+01-2.58919E+01 1.70171E+01 5.22554E+00 9.15734E+00
 -1      2498-2.34972E+02-2.66632E-01-7.34165E-03 1.48666E+01-1.81740E-02 3.56404E-01
 -1      2499-3.46284E+02-2.40821E+00 7.89018E-02 3.57776E+00-7.61416E-03 3.62864E-01
 -1      2500-2.05255E+02-8.28805E-01 1.16577E-01 1.46510E+01-2.90846E-01-3.83421E-01
 -1      2501-2.87775E+02-8.34321E-01-9.81947E-02 1.25347E+01-2.72441E-02 1.96222E-01
 -1      2502-2.85363E+02-7.01562E-01-1.08305E-01 1.26982E+01 2.82819E-02 1.77331E-01
 -1      2503-3.54572E+02-1.49772E+00 1.27613E+00 2.15144E+00 1.14804E+00-2.71245E+00
 -1      2504-2.18774E+02-1.41125E-01-1.57961E-03 1.40859E+01-2.88555E-02 2.26107E-01
 -1      2505-1.89015E+02-5.11362E-04-2.27081E-02 1.70141E+01 5.08186E-02 2.15096E-01
 -1      2506-1.10227E+02-6.29064E-01-5.77142E-02 1.27257E+01-3.16457E-02-2.46739E-01
 -1      2507-1.02034E+02-4.57677E-01-8.74789E-02 1.20530E+01-9.12873E-02-2.52662E-01
 -1      2508-1.68930E+02-1.62740E-01 1.55183E-02 1.45160E+01 2.80486E-02-3.17694E-01
 -1      2509-2.28836E+02-1.92257E-01-5.08350E-02 1.47838E+01-1.46731E-02-2.80991E-01
 -1      2510-2.39103E+02-8.17490E-02-5.07086E-02 1.46668E+01 4.85429E-02-2.69325E-01
 -1      2511-1.59341E+02-1.18460E-01-3.42095E-02 1.46693E+01-1.00470E-02-2.15052E-01
 -1      2512-4.73560E+01-2.02803E+00-2.84064E-01 4.67101E+00-1.62801E-01-1.18823E-01
 -1      2513-4.49186E+01-1.78862E+00-1.20280E-01 3.77687E+00-3.22272E-01-2.35149E-02
 -1      2514-3.31027E+02-1.54845E+00-1.69278E-01 9.24677E+00-7.46371E-03-2.47655E-01
 -1      2515-1.19013E+02-3.71482E-01 4.19962E-03 1.32572E+01 4.92987E-02 2.35370E-01
 -1      2516-2.50618E+02-1.78175E-01 7.35572E-02 1.41878E+01-3.23459E-02-2.19529E-01
 -1      2517-1.47544E+02-1.64869E-01-9.51850E-02 1.41761E+01 2.77889E-03-1.87064E-01
 -1      2518-1.34524E+02-3.28520E-01-7.90459E-02 1.38371E+01 5.53304E-02 2.84913E-01
 -1      2519-2.64016E+02-2.42280E-01-1.50980E-02 1.37744E+01-3.88314E-02 3.11451E-01
 -1      2520-2.77359E+02-5.31483E-01 2.70667E-02 1.33498E+01-7.16149E-02 1.85469E-01
 -1      2521-5.11112E+01-1.83434E+00-2.36880E-01 5.98116E+00 1.40129E-01 1.51810E-01
 -1      2522-3.07835E+02-9.31306E-01-5.16190E-02 1.14861E+01 7.35594E-02 2.04250E-01
 -1      2523-3.47177E+02-1.96902E+00-2.18949E-01 6.91043E+00-4.81276E-02-1.58428E-01
 -1      2524-6.43373E+01-1.45162E+00-1.98224E-01 8.47826E+00 7.89222E-02 1.88693E-01
 -1      2525-3.52522E+02-2.00296E+00-2.08411E-01 5.95958E+00 9.83361E-02 1.81734E-01
 -1      2526-9.23530E+01-7.74217E-01-1.52024E-01 1.16266E+01 7.92686E-02 2.16858E-01
 -1      2527-7.07462E+01-1.10684E+00-1.46950E-01 9.31972E+00-1.47758E-01-2.16789E-01
 -1      2528-5.54394E+01-1.55296E+00-2.14540E-01 6.98639E+00-1.67577E-01-1.53222E-01
 -1      2529-3.37904E+02-1.51220E+00-1.59019E-01 8.44809E+00 9.65686E-02 2.31998E-01
 -1      2530-8.18005E+01-1.01789E+00-1.74747E-01 1.05893E+01-1.29804E-01-2.33961E-01
 -1      2531-3.18968E+02-1.06028E+00-8.43395E-02 1.05558E+01-3.61228E-03-2.64999E-01
 -1      2532-2.98749E+02-9.03746E-01-6.21525E-02 1.19509E+01 3.71022E-02-3.33879E-01
 -1      2533-3.56263E+02-2.29344E+00-2.33592E-01 4.56114E+00-9.28979E-02-1.32646E-01
 -1      2534-3.59357E+02-2.26342E+00 1.05134E-01 3.36094E+00 2.75192E-02-4.36079E-01
 -1      2535-4.69964E+01-9.75335E-01 5.96347E-01 5.01474E+00 1.63481E+00-4.49821E-01
 -1      2536-3.68006E+02-1.28830E+00 1.49941E+00 1.60403E+00-9.04571E-01 2.75229E+00
 -1      2537-1.01710E+02-4.03285E-01-2.06857E-02 1.22904E+01 2.75927E-02 2.72966E-01
 -1      2538-7.33107E+01-6.68922E-01-7.07227E-02 1.11293E+01 1.17302E-01 2.35404E-01
 -1      2539-1.67405E+02 1.67547E-01-5.67532E-03 1.43760E+01-4.05014E-02 3.14089E-01
 -1      2540-1.53103E+02-9.77059E-02-6.99265E-02 1.39968E+01 2.70081E-02 3.07738E-01
 -1      2541-2.92316E+02-6.36089E-01-5.32430E-02 1.25736E+01 3.21268E-03-1.90971E-01
 -1      2542-2.87053E+01-1.79060E+00-5.17522E-02 3.68706E+00 4.06904E-01-7.33203E-03
 -1      2543-3.22358E+01-1.85088E+00-2.24494E-01 4.62507E+00 1.80278E-01 1.00496E-01
 -1      2544-2.24405E+02-5.67262E-02 8.41998E-02 1.41070E+01 1.03764E-01-2.26880E-01
 -1      2545-3.65064E+02-1.78709E+00-1.56968E-01 7.58689E+00 1.16572E-01 1.77455E-01
 -1      2546-2.66861E+02-3.92767E-01-1.26107E-02 1.31768E+01 7.90756E-03-3.62834E-01
 -1      2547-1.12591E+02-3.34230E-01-1.81975E-02 1.30419E+01 8.41149E-02 2.23586E-01
 -1      2548-1.31440E+02-5.76618E-02-3.07813E-02 1.31962E+01-5.07582E-02-3.45926E-01
 -1      2549-2.98120E+02-5.18428E-01-6.96817E-02 1.22327E+01-1.00092E-02 2.24573E-01
 -1      2550-3.80989E+02-2.16963E+00-1.76732E-01 4.98306E+00 1.04912E-01 1.41995E-01
 -1      2551-3.44835E+01-1.47886E+00-1.51478E-01 7.39699E+00-2.02889E-01-1.29488E-01
 -1      2552-3.67841E+02-1.68505E+00-1.70142E-01 7.35830E+00-8.05600E-02-1.54326E-01
 -1      2553-3.67606E+01-1.28655E+00-1.55126E-01 7.64809E+00 1.48061E-01 1.50856E-01
 -1      2554-3.45009E+02-1.26201E+00-9.61967E-02 9.68094E+00-9.36140E-02-2.47974E-01
 -1      2555-5.62502E+01-9.49804E-01-1.18116E-01 9.66720E+00-8.51451E-02-1.36066E-01
 -1      2556-6.81127E+01-7.23118E-01-1.07412E-01 1.04634E+01 1.03742E-01 2.49382E-01
 -1      2557-3.32249E+02-1.13204E+00-7.12662E-02 1.03549E+01 4.90408E-02 3.08361E-01
 -1      2558-2.12646E+02-2.86763E-01 3.00843E-02 1.53888E+01-7.03067E-02-2.24381E-01
 -1      2559-2.84153E+02-4.86032E-01-5.61380E-02 1.29952E+01 7.64728E-03 2.53054E-01
 -1      2560-1.14490E+02-2.81311E-01-4.91834E-02 1.31511E+01-8.40929E-03-2.43220E-01
 -1      2561-2.84824E+02-4.53278E-01-2.02052E-02 1.28760E+01-1.49061E-02-2.82150E-01
 -1      2562-5.46694E+01-9.87568E-01-1.12111E-01 9.64467E+00 1.34204E-01 1.99479E-01
 -1      2563-2.88127E+02-1.20553E+00-2.07261E-02 1.09220E+01 2.71721E-02 2.15761E-01
 -1      2564-3.75143E+02-9.28667E-01-9.60004E-02 7.46907E+00 2.06486E-02 2.73330E-01
 -1      2565-4.62713E+02-6.42046E-01-4.76953E-02 5.45373E+00 8.60785E-02 3.37659E-01
 -1      2566-3.42864E+02-1.07899E+00-1.66141E-01 9.57322E+00 1.17211E-01 2.17924E-01
 -1      2567-4.31172E+02-1.07145E+00-1.64881E-01 5.58804E+00 1.53670E-01 2.19153E-01
 -1      2568-2.54592E+02-1.22164E+00 1.03265E-01 1.06329E+01-7.13028E-02-1.09748E-01
 -1      2569-4.23089E+02-4.59507E-01 3.09841E-01 6.10896E+00-7.37894E-02 1.65448E-01
 -1      2570-3.37594E+02-1.01575E+00 5.54815E-02 1.02700E+01 5.37640E-02 2.00070E-01
 -1      2571-2.51676E+02-1.55546E+00-3.86937E-01 1.13068E+01 2.29604E-02 4.30764E-02
 -1      2572-1.83326E+02-1.69525E-01-4.87760E-01 7.77457E+00-2.74925E-02-2.01532E-01
 -1      2573-1.76866E+02 3.07164E-01-7.04187E-02 8.30667E+00 1.54204E-01 1.47794E-01
 -1      2574-1.82955E+02-2.90935E-02-4.17569E-01 7.41011E+00 7.51403E-02 1.98120E-01
 -1      2575-1.76620E+02 3.38856E-01-1.63588E-01 8.09499E+00-1.94908E-01-1.20311E-01
 -1      2576-1.93659E+02 1.05246E+00-4.43018E-01 1.46277E+01 1.30166E-02-8.67455E-03
 -1      2577-1.94092E+02 5.68089E-01 1.81698E-01 1.73251E+01 1.98891E-01-7.16905E-02
 -1      2578-1.94648E+02 8.69390E-02 2.31992E-01 1.80133E+01 2.64683E-01-7.45237E-02
 -1      2579-2.02969E+02-1.52458E-01-5.56676E-02 1.78528E+01 2.46347E-01 1.67716E-01
 -1      2580-1.98838E+02 5.35219E-02-5.11331E-02 1.68333E+01 4.98994E-01-1.05864E-01
 -1      2581-2.03297E+02-5.09106E-01-2.09786E-01 1.72580E+01 2.37244E-01 9.33186E-02
 -1      2582-1.13449E+02-1.07963E+01-2.03122E+00-9.58466E-01-5.13881E+00 2.30105E-01
 -1      2583-1.32743E+02-1.00044E+01-5.39952E+00 1.22602E+01-4.47774E+00-3.68434E-01
 -1      2584-2.16570E+02-8.12575E+00-4.28158E+00 4.40283E+00-4.43569E+00 6.80633E-01
 -1      2585-2.98592E+02-1.72556E+01-1.19667E+01 2.00963E+00-4.50008E+00-3.32787E+00
 -1      2586-3.19602E+02-1.42830E+01-1.55598E+01 1.30032E+01-3.62475E+00-1.42238E+00
 -1      2587-2.12875E+02-1.91648E+01-1.25703E+01 1.16390E+01-4.40768E+00-3.53834E+00
 -1      2588 1.84510E+01-5.37782E+00 6.47580E+00 7.13517E+00 2.52587E-01-4.20437E-02
 -1      2589 1.21309E+02-7.53674E+00 1.07390E+01 3.23230E+00-3.13866E+00 1.21693E+00
 -1      2590 1.20980E+02-7.47447E+00 9.79737E+00 3.36406E+00 3.24809E+00-1.55741E+00
 -1      2591-2.28512E+01-1.41635E+01-9.76549E-01 8.63457E+00-5.73722E-02 1.36184E-01
 -1      2592-1.32864E+02-1.09327E+01-5.48552E+00 1.18114E+01 5.09100E+00 2.89742E-01
 -1      2593-2.94415E+02 1.47849E-01 2.61438E-01 7.71802E+00-5.24896E-02 6.34984E-01
 -1      2594-2.87905E+02-7.01233E-01-4.28142E-01 8.18131E+00 5.06802E-02 4.54769E-02
 -1      2595-2.53471E+02 1.18931E-01 9.64089E-03 1.43863E+01 1.54048E-01 3.58724E-01
 -1      2596-2.48789E+02-9.08119E-01-2.70673E-01 1.44840E+01-1.48395E-01 2.66021E-01
 -1      2597-2.39589E+02-5.73427E-02 1.47432E-01 1.48070E+01 1.43017E-01 5.34176E-01
 -1      2598-2.80020E+02 9.57956E-02 2.61524E-01 8.35781E+00 5.19329E-02 1.80295E-01
 -1      2599-2.20467E+02 2.98305E-01 2.66789E-01 1.57426E+01 3.10064E-02 4.10923E-01
 -1      2600-2.63460E+02-1.01925E-01 1.00943E-02 1.02163E+01 5.33824E-02 2.74827E-01
 -1      2601-2.18128E+02-6.91409E-01-3.23312E-01 1.59282E+01 3.41941E-02 4.90424E-01
 -1      2602-2.30655E+02-2.44101E-01-1.63377E-01 1.48347E+01-2.92679E-02-7.31847E-02
 -1      2603 1.61250E+01-2.78206E+00 3.77948E+00 7.87875E+00 1.31401E-01-3.11127E-02
 -1      2604 1.17534E+02-5.31403E+00 6.10286E+00 4.38378E+00 2.80398E+00-9.68963E-01
 -1      2605-2.14958E+02-1.24240E+00-7.77975E-01 4.68342E+00-3.87186E+00 1.74970E+00
 -1      2606-2.94370E+02-5.20066E+00-6.16769E+00 2.10263E+00-3.09029E+00 5.23573E-01
 -1      2607-2.49946E+02-6.08127E-01-2.45705E-01 8.27095E+00 1.79279E-01 2.00067E-01
 -1      2608-2.30693E+02 2.49722E-01 2.70713E-02 1.48059E+01 2.00205E-01 3.33220E-01
 -1      2609-2.50320E+02 7.54126E-02 1.54139E-01 7.76854E+00-1.12088E-01 6.12200E-01
 -1      2610-2.42417E+02 1.31427E-01 8.80558E-03 7.68079E+00-4.24278E-02 5.32754E-01
 -1      2611-2.25983E+02-5.60612E-01-1.46451E-01 1.43385E+01-2.25153E-01 2.95987E-01
 -1      2612-2.23271E+02 1.82169E-01 8.80573E-02 1.45599E+01 1.05003E-01 1.11284E-01
 -1      2613-2.12722E+02 2.59408E-01 1.95696E-01 1.57620E+01 1.10765E-02 6.60286E-01
 -1      2614-2.15997E+02-6.20069E-02-7.09772E-02 1.51512E+01-1.61499E-02 4.31987E-02
 -1      2615-2.10062E+02-6.57426E-01-5.55461E-01 1.52602E+01-5.06879E-02 3.53458E-01
 -1      2616 8.89649E+01-1.18027E+00 1.00549E-01 3.14899E+00 1.51887E-02-1.34992E-02
 -1      2617-1.26107E+02-1.87835E+00-1.86955E-01 5.97542E+00 5.35829E-02 1.70147E-01
 -1      2618 1.38539E+01-1.50098E+00-2.46999E-02 3.68610E+00-3.50217E-02 5.18794E-02
 -1      2619 9.95864E+01-9.00513E-01 1.22708E-01 2.70001E+00 1.86857E-01-9.70601E-02
 -1      2620-1.17484E+02-2.36362E+00-2.21481E-01 5.28095E+00 4.31136E-02 1.81716E-01
 -1      2621-4.15824E+01-1.86841E+00-2.32769E-01 5.25970E+00 1.75622E-01 8.21576E-02
 -1      2622-1.26121E+02-1.54330E+00-7.23998E-02 6.59692E+00 1.20990E-01 7.46508E-02
 -1      2623-2.01664E+02-1.95665E+00-8.29683E-02 6.14845E+00-2.74235E-02 4.38866E-04
 -1      2624-1.16974E+02-1.97544E+00-1.43545E-01 5.79955E+00 8.84751E-02 2.26217E-02
 -1      2625 9.03588E+01-1.08664E+00 8.11417E-02 3.06345E+00 1.84002E-01 2.47965E-01
 -1      2626 1.00860E+02-7.64438E-01 1.09612E-01 2.57330E+00 1.56927E-01 1.89647E-01
 -1      2627-2.00017E+01-1.52702E+00-1.34685E-01 5.52624E+00 2.72623E-01 1.21291E-01
 -1      2628-1.02506E+01-1.39198E+00-8.02014E-02 4.97941E+00 1.43539E-01 1.23881E-01
 -1      2629 1.17840E+02-5.25270E+00 6.23868E+00 4.45437E+00-2.77522E+00 8.67508E-01
 -1      2630-1.14881E+02-8.85084E+00-1.43510E+00 1.39041E+00-4.92909E+00 1.48000E+00
 -1      2631-2.60063E+02-4.76460E-02 2.43888E-02 1.01859E+01 1.82589E-01-1.17545E-01
 -1      2632-2.66915E+02-1.32842E-01 5.66466E-02 1.01018E+01 1.60814E-01-1.21576E-01
 -1      2633-1.99164E+02-7.31162E-02-8.54559E-02 1.65722E+01 1.43817E-02-8.54436E-02
 -1      2634-1.98645E+02-4.05147E-02 1.48144E-02 1.64392E+01-4.26381E-02-1.11863E-01
 -1      2635-1.99160E+02 2.08077E-03 1.37920E-02 1.71373E+01 1.50426E-01 5.38797E-02
 -1      2636-2.09114E+02-1.88044E-01 1.26217E-01 1.65996E+01 8.42619E-02 2.02703E-01
 -1      2637-1.98300E+02 1.26453E-03 1.41559E-01 1.69918E+01 1.71741E-02 3.97906E-02
 -1      2638-3.05833E+02-1.69920E+00-4.77625E-02 6.77538E+00 6.30241E-02-1.42395E-03
 -1      2639-2.01774E+02-1.80690E+00-1.04223E-01 7.77249E+00-1.44364E-02-2.72593E-03
 -1      2640-3.66173E+02-1.92557E+00-8.35956E-02 6.81265E+00 9.12189E-02 1.20606E-01
 -1      2641-2.62486E+02-1.79845E+00-1.75990E-01 8.11641E+00-1.39978E-02 6.29323E-02
 -1      2642-2.63299E+02-2.32457E+00-3.54130E-01 7.54813E+00-7.67457E-02 2.22457E-01
 -1      2643-2.76241E+02-1.70950E+00-1.29219E-01 7.30500E+00 2.47680E-02 9.16099E-02
 -1      2644-3.80969E+02-1.60656E+00-1.17474E-01 6.18583E+00 1.75874E-01 1.48678E-01
 -1      2645-2.76923E+02-1.96761E+00-1.22239E-01 6.68959E+00 1.86866E-02 2.46370E-01
 -1      2646-2.02419E+02-2.17836E+00-2.82323E-01 6.32515E+00 3.31452E-02 1.99139E-02
 -1      2647-9.46793E+01-2.06088E+00-2.59412E-01 5.37125E+00-6.07725E-02 6.72056E-03
 -1      2648-1.38221E+02-1.69165E+00-1.33215E-01 6.64573E+00-7.85689E-02-1.46640E-02
 -1      2649-3.08392E+01-1.44780E+00-1.45611E-01 5.52884E+00-2.03405E-01-1.45680E-01
 -1      2650-1.37975E+02-1.99711E+00-1.92510E-01 6.07499E+00-1.44146E-02-1.66314E-01
 -1      2651-9.85011E+01-1.50748E+00-3.89641E-03 6.86117E+00-1.20116E-01 2.48030E-04
 -1      2652-2.02098E+02-1.84672E+00-1.08296E-01 7.36308E+00-4.86132E-02 2.75452E-02
 -1      2653-3.42459E+01-1.56114E+00-5.18906E-02 6.21116E+00-1.32090E-01-1.20579E-01
 -1      2654-1.38321E+02-1.90182E+00-1.85783E-01 6.98768E+00-5.30798E-02-3.65506E-02
 -1      2655-1.38656E+02-2.23652E+00-3.56658E-01 6.88169E+00 3.04277E-02-2.21084E-01
 -1      2656-2.01767E+02-1.19758E+00-1.34303E-01 1.19631E+01 4.60111E-02-8.74362E-02
 -1      2657-2.01348E+02-1.24644E+00-5.00342E-02 1.15750E+01-9.57638E-02-6.85598E-02
 -1      2658-3.37659E+02-1.80110E+00-1.08697E-01 6.64535E+00 1.47474E-01 2.43083E-01
 -1      2659-2.56292E+02-1.87235E+00-3.35527E-01 1.01495E+01-1.24264E-01 2.69079E-01
 -1      2660-3.48347E+02-1.39318E+00-4.54200E-03 9.16645E+00 5.17467E-02 1.79151E-01
 -1      2661-2.94615E+02-1.15280E+00 9.22184E-02 9.31909E+00 7.27904E-02 5.40316E-03
 -1      2662-2.69090E+02-1.40535E+00-5.85944E-03 9.31623E+00 1.52892E-02 3.38849E-01
 -1      2663-3.62853E+02-1.16851E+00-7.05694E-02 8.59778E+00 1.71618E-01 1.54260E-01
 -1      2664-3.23526E+02-1.40004E+00-1.62570E-01 8.98976E+00 8.58557E-02 2.85650E-01
 -1      2665-1.27898E+02-1.54389E+00-1.28016E-01 7.47701E+00-8.45132E-02-6.58328E-02
 -1      2666-2.50310E+01-1.20016E+00-7.33338E-02 6.73974E+00-2.21223E-01-9.48818E-02
 -1      2667-1.28329E+02-1.70822E+00-1.10660E-01 7.20353E+00-8.46411E-02-2.43896E-01
 -1      2668-2.01457E+02-1.31959E+00-8.95868E-03 1.05577E+01 1.47435E-02-4.24444E-03
 -1      2669-2.68740E+02-1.34894E+00-1.19395E-01 1.00693E+01 2.82501E-03 1.10502E-01
 -1      2670-1.28724E+02-3.96897E-01 1.57357E-01 1.23876E+01-1.35781E-01 2.25121E-02
 -1      2671-2.00070E+02-7.86767E-01 4.39604E-03 1.35563E+01-1.37147E-01 5.60367E-02
 -1      2672-8.20815E+01-6.93722E-01 8.86757E-02 1.16530E+01-9.96381E-03-2.24488E-01
 -1      2673-1.54433E+02-1.07744E+00-1.58299E-01 1.33636E+01-1.47995E-02-7.51205E-02
 -1      2674-1.55242E+02-1.27945E+00-4.05079E-01 1.28069E+01-8.73866E-03-3.25545E-01
 -1      2675 1.51026E+01-1.36032E+00 1.73892E-02 3.72606E+00-1.59321E-01-1.61846E-01
 -1      2676 7.87004E+01-1.10624E+00 2.93624E-02 3.27766E+00-1.79403E-01-4.81942E-02
 -1      2677 7.72551E+01-1.18173E+00 5.71143E-02 3.26383E+00-6.00725E-02-7.14514E-02
 -1      2678-2.55809E+02-1.47082E+00-1.50222E-01 1.08177E+01-1.94136E-02 8.79725E-02
 -1      2679-6.43762E+01-1.54649E+00-1.59102E-01 6.46396E+00-1.61364E-01-1.93205E-01
 -1      2680-4.11287E+02-1.56021E+00-3.08808E-02 4.39592E+00-1.92015E-01-6.21062E-02
 -1      2681-4.09881E+02-1.42108E+00-2.89614E-02 4.66011E+00-1.92210E-01-1.95539E-01
 -1      2682-4.75994E+02-1.41749E+00-9.26459E-02 3.33605E+00-5.46908E-03-1.04191E-01
 -1      2683-4.74323E+02-1.33411E+00-2.87686E-03 3.54304E+00-1.56609E-01-7.04369E-02
 -1      2684-2.65310E+02-2.14441E+00-1.56075E-01 6.83770E+00-7.68437E-02-1.98073E-01
 -1      2685-3.03538E+02-2.05778E+00-2.94876E-01 6.76500E+00-2.71927E-02-5.79789E-03
 -1      2686-2.01457E+02-1.93569E+00-2.74843E-01 7.34124E+00 5.47631E-02 1.76079E-02
 -1      2687-3.67666E+02-1.80763E+00-1.73443E-01 6.20937E+00-1.51333E-01-1.63263E-01
 -1      2688-2.65214E+02-1.68845E+00-9.09738E-02 7.02941E+00-3.69865E-02-4.96828E-02
 -1      2689-4.08341E+02-1.40894E+00-9.95069E-02 4.59189E+00-1.77384E-01 2.17108E-02
 -1      2690-4.09697E+02-1.63193E+00-1.66883E-01 4.58679E+00-5.14813E-02 2.04363E-01
 -1      2691-4.69397E+02-1.11643E+00 2.12173E-03 4.09995E+00 7.66115E-02 1.07263E-01
 -1      2692-4.67515E+02-8.32522E-01 2.64056E-01 4.14405E+00 5.05078E-03 6.76408E-02
 -1      2693-2.40533E+02 1.86670E-01 2.10765E-01 1.47072E+01 1.13150E-01 5.01162E-02
 -1      2694-1.98914E+02-1.12896E-01 1.81901E-01 1.65963E+01 1.06704E-01-1.45509E-02
 -1      2695-2.21522E+02-4.37799E-01-4.67226E-02 1.64145E+01-8.39627E-02 6.80005E-02
 -1      2696-2.22644E+02-8.38686E-01-3.64289E-01 1.53638E+01 5.83595E-02 2.48842E-01
 -1      2697-2.62095E+02-6.80218E-01 1.59897E-02 1.40076E+01-1.20149E-01 3.34687E-01
 -1      2698-1.57858E+02-6.45663E-01-3.18033E-01 1.47520E+01-1.20536E-01 6.47778E-02
 -1      2699-1.99421E+02-3.83299E-01-2.48926E-01 1.65931E+01-1.25062E-01-6.09068E-03
 -1      2700-1.36353E+02 9.35811E-03-1.27236E-01 1.41606E+01 1.29268E-01 3.04305E-01
 -1      2701-1.76674E+02 1.66664E-02-5.99949E-02 1.64029E+01 9.73670E-03 2.56685E-02
 -1      2702-1.75670E+02 3.37324E-01 3.62057E-01 1.54102E+01-1.46509E-03 2.57956E-01
 -1      2703-2.91635E+02-3.88040E-01-1.15232E-01 8.24476E+00 6.24973E-02 3.53137E-01
 -1      2704-2.79792E+02-2.54281E-01-4.57891E-02 9.77876E+00-6.03685E-02-1.41694E-01
 -1      2705-2.82701E+02-6.47286E-01-3.04510E-01 9.93099E+00-2.18937E-01 2.76169E-01
 -1      2706-2.99236E+02 4.05688E-01 2.80413E-01 8.08567E+00 1.46147E-01 2.10469E-01
 -1      2707-3.03079E+02 1.05773E-01 2.28753E-02 8.14489E+00-3.25143E-02 1.62039E-01
 -1      2708-2.20939E+02 1.68710E-02-7.95371E-02 1.66216E+01-3.06678E-02 1.63329E-01
 -1      2709-1.18424E+02-1.06296E-01-7.86060E-03 9.79712E+00 6.00732E-02-1.26967E-01
 -1      2710-1.15541E+02 2.15307E-01 2.10407E-01 9.98297E+00 2.07663E-01 2.39631E-01
 -1      2711-9.51621E+01-2.73438E-01-9.16114E-02 8.29254E+00 1.10138E-01 6.92160E-02
 -1      2712-9.89041E+01-4.93555E-01-2.23602E-01 8.19311E+00-1.18250E-01 2.39190E-01
 -1      2713-7.96677E+01-2.17933E-01 1.31093E-01 9.24027E+00-1.25865E-01-3.01281E-01
 -1      2714-8.26820E+01-4.89648E-01-7.30248E-02 9.06295E+00-6.96713E-02 1.25483E-01
 -1      2715-5.12534E+01-5.15201E-01-2.08952E-01 7.63070E+00 2.77092E-02-2.40577E-01
 -1      2716-1.65305E+02-1.60475E-01 1.54145E-01 1.44105E+01-1.44256E-02-4.07788E-01
 -1      2717-4.77099E+01-3.07487E-01-5.06938E-02 7.83928E+00-1.58459E-01-9.98504E-02
 -1      2718-1.99922E+02-6.81464E-01-2.08234E-01 1.52986E+01 6.59060E-02 6.97050E-02
 -1      2719-1.40484E+02-8.23458E-01-2.62963E-01 1.35546E+01 7.99327E-02 1.45356E-02
 -1      2720-1.65830E+02-3.30619E-01-8.78152E-02 1.52658E+01-3.84002E-02 4.64257E-02
 -1      2721-1.07653E+02-2.80881E-01-1.57206E-01 1.32328E+01-1.03235E-01-2.03428E-01
 -1      2722-3.07989E+02-1.86679E+00-1.03941E-01 5.41188E+00-8.74981E-02 5.08361E-03
 -1      2723-3.71365E+02-2.10965E+00-8.79895E-02 5.45935E+00-6.88534E-02-1.28802E-01
 -1      2724-2.66444E+02-2.62177E+00-4.95853E-01 5.99016E+00-2.32861E-02-9.43518E-02
 -1      2725-2.65510E+02-2.06202E+00-1.52699E-01 6.52439E+00-4.59022E-02-8.41131E-02
 -1      2726-4.17953E+02-1.85442E+00-2.27174E-01 3.63458E+00-7.45192E-04-1.16864E-01
 -1      2727-4.16863E+02-1.68560E+00-1.15202E-01 3.70429E+00 9.80142E-03 5.08269E-02
 -1      2728-4.80703E+02-1.21026E+00 1.52219E-02 3.24111E+00-9.45010E-02-6.96349E-02
 -1      2729-4.79158E+02-1.02970E+00 1.72929E-01 3.29959E+00-5.35084E-02-1.23580E-01
 -1      2730 8.90120E+00-1.27980E+00-2.16805E-02 4.45485E+00 1.69230E-01-4.50546E-02
 -1      2731 7.61730E+00-1.39709E+00-8.94369E-02 4.65823E+00 3.26354E-02-1.85487E-01
 -1      2732 7.41640E+01-7.59409E-01 2.46917E-01 3.42941E+00-9.24364E-02-1.09416E-01
 -1      2733 7.25350E+01-8.87216E-01 2.28802E-02 3.59160E+00-7.11786E-02-8.34651E-02
 -1      2734-2.51725E+02-1.06708E+00 4.05140E-02 1.20482E+01 4.53810E-02-6.11909E-02
 -1      2735-5.16564E+01-4.37378E-01 8.64543E-03 8.18001E+00 9.12174E-02 1.22862E-01
 -1      2736-5.44616E+01-7.03925E-01-1.39625E-01 8.46113E+00 9.46679E-02-3.01505E-01
 -1      2737-3.83219E+00-4.70191E-02 2.21746E-01 6.48908E+00-9.74865E-02-2.46780E-01
 -1      2738-6.85971E+00-1.99385E-01 6.24879E-02 6.77859E+00 6.08523E-02-7.90509E-02
 -1      2739-3.47840E+02-7.36675E-01 4.93010E-02 8.15974E+00-2.41651E-01 5.25029E-02
 -1      2740-3.45205E+02-4.91690E-01 4.77172E-02 8.45312E+00-1.87002E-01-2.82380E-01
 -1      2741-3.95627E+02-9.86631E-01-3.17940E-01 6.50981E+00 2.15743E-02-2.02573E-01
 -1      2742-3.92655E+02-8.96079E-01-1.99489E-01 6.72481E+00-1.25991E-01-5.97686E-02
 -1      2743-2.45271E+02-5.43368E-01 2.09692E-01 1.27708E+01-6.57743E-02-3.24301E-01
 -1      2744-2.70944E+02-1.17769E+00-2.75484E-01 1.23212E+01 6.12990E-02-9.13162E-03
 -1      2745-2.00130E+02-1.05743E+00-2.94049E-01 1.35542E+01 1.27404E-01 4.69905E-02
 -1      2746-2.45675E+02-4.69143E-01 2.15505E-02 1.33815E+01-4.72709E-02-1.38088E-01
 -1      2747-3.17499E+02-7.90195E-01-1.58382E-01 1.17015E+01-1.63960E-01-3.20299E-01
 -1      2748-9.89712E+01-1.88588E+00-2.94962E-01 6.78593E+00 6.46806E-02-1.84275E-02
 -1      2749-2.01455E+02-1.88855E+00-2.85073E-01 7.76084E+00-1.57069E-03-4.51551E-02
 -1      2750-3.79227E+01-1.36582E+00-1.64851E-01 6.99118E+00 1.72915E-01 1.10972E-01
 -1      2751-1.39911E+02-1.43660E+00-9.46131E-02 8.17781E+00 8.49450E-02-1.85667E-03
 -1      2752-1.39913E+02-1.79798E+00-7.46809E-02 7.56795E+00 1.32979E-01 2.02211E-01
 -1      2753-3.90275E+02-1.23520E+00-7.20819E-03 6.08776E+00-2.67433E-01-6.48967E-02
 -1      2754-3.88372E+02-1.01316E+00 2.14127E-02 6.36875E+00-2.19977E-01-2.79143E-01
 -1      2755-4.49743E+02-1.20331E+00-1.89892E-01 4.85339E+00-2.53850E-02-1.13160E-01
 -1      2756-4.47305E+02-1.00028E+00 1.61462E-02 5.04429E+00-7.76036E-02-1.41336E-01
 -1      2757-2.58451E+02-1.61735E+00-8.26122E-02 9.57546E+00-9.73126E-02-2.94092E-01
 -1      2758-2.92497E+02-1.65045E+00-2.53554E-01 9.26903E+00-2.02578E-02 7.86770E-03
 -1      2759-2.00786E+02-1.49134E+00-2.65060E-01 1.01988E+01 4.94950E-02 2.40073E-02
 -1      2760-3.50909E+02-1.14887E+00-1.22032E-01 8.70594E+00-9.67613E-02-1.76917E-01
 -1      2761-2.58702E+02-1.27596E+00-5.46780E-02 9.94822E+00-5.67189E-02-5.14251E-02
 -1      2762 6.06411E+00-1.35963E+00 2.49044E-02 4.59983E+00 1.88664E-01 3.50779E-02
 -1      2763 7.45564E+00-1.20991E+00 7.32701E-03 4.67183E+00 1.98336E-01 1.81062E-01
 -1      2764 6.63970E+01-1.14235E+00-1.00419E-01 4.14905E+00 5.48425E-02 1.01013E-01
 -1      2765 6.82135E+01-9.87495E-01 6.01293E-03 4.15595E+00 1.69620E-01 2.50532E-02
 -1      2766-1.10100E+01-9.24759E-01-1.31509E-02 6.15073E+00 2.37556E-01-5.98857E-02
 -1      2767-1.28179E+01-1.08398E+00-9.09356E-02 6.38626E+00 8.52544E-02-2.44114E-01
 -1      2768 4.87955E+01-4.94334E-01 3.38238E-01 4.94502E+00-6.22406E-02-1.28685E-01
 -1      2769 4.64850E+01-6.81897E-01 3.88159E-02 5.13157E+00-3.12128E-02-9.49644E-02
 -1      2770-1.44061E+02-1.76636E+00-3.39072E-01 9.61655E+00 9.03274E-02-2.81349E-01
 -1      2771-2.00489E+02-1.07995E+00-2.60007E-01 1.31229E+01 8.65718E-02 3.57662E-02
 -1      2772-1.21249E+02-1.21602E+00-2.52638E-01 1.15345E+01 3.22229E-02-1.76458E-02
 -1      2773-7.56647E+01-3.62856E-01-1.03655E-01 1.11785E+01-1.73257E-01-2.77872E-01
 -1      2774-1.53545E+02-5.44835E-01 1.42122E-01 1.22571E+01 2.01910E-02-1.97001E-01
 -1      2775-1.54093E+02-6.25973E-01-7.28031E-02 1.31572E+01-7.16833E-02-4.53201E-02
 -1      2776-2.55761E+02-1.37514E+00-2.45661E-01 1.11203E+01-1.01903E-02 4.36181E-02
 -1      2777-1.49720E+01-1.04478E+00 4.14211E-02 6.26931E+00 2.62892E-01 5.40710E-02
 -1      2778-1.30738E+01-8.34289E-01 5.85274E-02 6.41209E+00 2.28353E-01 2.56829E-01
 -1      2779 4.08791E+01-7.55149E-01-1.65296E-03 5.52598E+00 1.58668E-01 4.53120E-02
 -1      2780-1.45363E+02-1.18133E+00 4.25844E-02 1.01835E+01 1.52787E-01 2.77162E-01
 -1      2781 3.84359E+01-9.81212E-01-1.94690E-01 5.47741E+00 1.87869E-02 1.36508E-01
 -1      2782-1.08616E+02-1.54337E+00-3.22322E-01 9.32561E+00 2.81504E-02-2.70359E-02
 -1      2783-2.00760E+02-1.47386E+00-2.74760E-01 1.05369E+01-1.38020E-02-5.14706E-02
 -1      2784-1.45636E+02-9.41318E-01-8.15584E-03 1.08929E+01 9.27135E-02 1.77279E-02
 -1      2785-5.41318E+01-9.52438E-01-1.39763E-01 9.36438E+00 1.47718E-01 1.46803E-01
 -1      2786-1.69956E+01-1.64226E+00-9.12271E-02 4.87401E+00-1.57622E-01-1.04315E-01
 -1      2787-1.25362E+02-1.79620E+00-1.81646E-01 5.91041E+00-1.06763E-01-6.41773E-02
 -1      2788-1.25228E+02-2.41312E+00-3.95916E-01 5.33500E+00-6.92577E-02-1.63577E-01
 -1      2789-3.86261E+02-1.05062E+00-1.06779E-01 6.24921E+00-2.41036E-01 6.33759E-02
 -1      2790-3.88149E+02-1.31532E+00-1.61574E-01 6.33906E+00-1.09886E-01 2.72881E-01
 -1      2791-4.38811E+02-5.04960E-01 2.73415E-01 5.35650E+00 4.80690E-02 1.71447E-01
 -1      2792-4.41150E+02-7.54960E-01 1.33310E-02 5.42363E+00 4.50506E-04 8.85521E-02
 -1      2793-3.60612E+02-1.12937E+00-2.56559E-01 7.79089E+00 1.14128E-01-2.11253E-01
 -1      2794-3.58290E+02-8.42479E-01-5.53214E-02 7.69188E+00 3.34040E-02 9.57736E-02
 -1      2795-4.04681E+02-3.90283E-01 7.32514E-02 6.53814E+00 5.12010E-02-6.97447E-02
 -1      2796-4.01642E+02-1.53435E-01 2.53724E-01 6.49295E+00-1.13449E-01-2.33816E-01
 -1      2797-2.47210E+02-1.57106E+00-4.47816E-01 1.22140E+01-1.82773E-02-2.36264E-01
 -1      2798-3.77505E+02-7.94581E-01-1.27360E-03 7.24992E+00-1.24742E-02-1.20734E-01
 -1      2799-3.72641E+02-1.07526E+00-2.34437E-01 7.31892E+00-4.19507E-02-7.46423E-02
 -1      2800 2.30326E+01-1.43677E+00 5.39140E-01 2.95277E+00-3.02950E-01 8.91731E-02
 -1      2801 2.39421E+01-1.27821E+00 1.35871E+00 3.26836E+00-3.48169E-02 4.86619E-02
 -1      2802 1.03257E+02-1.02604E+00 1.07252E+00 2.39479E+00-2.16685E-01 5.20081E-02
 -1      2803-1.24424E+02-1.73902E+00 3.01169E-01 4.12203E+00-3.15918E-01 6.88258E-02
 -1      2804 1.02768E+02-1.06292E+00 2.68583E-01 2.08524E+00-3.27614E-01 1.91486E-01
 -1      2805 8.07318E+01-9.72924E-01-9.13370E-02 3.89375E+00-1.36256E-01-8.78867E-02
 -1      2806 8.17594E+01-1.06563E+00-6.16144E-03 3.74977E+00-6.37176E-02-1.67029E-01
 -1      2807-2.34409E+01-1.47975E+00-6.65219E-02 6.21693E+00 8.97423E-02 1.05736E-01
 -1      2808-1.26842E+02-2.24464E+00-4.25804E-01 6.69958E+00 8.38244E-02 2.38371E-01
 -1      2809-1.26627E+02-1.53817E+00-8.40230E-02 7.30932E+00 1.22238E-01 6.55520E-02
 -1      2810-1.81328E+02-3.05878E-01-6.77592E-02 1.53039E+01 1.59410E-01 1.07255E-01
 -1      2811-1.66185E+02-2.74545E-01 1.06104E-01 1.46051E+01 7.81166E-02-3.05821E-01
 -1      2812-1.85520E+02-1.97940E-01-5.02274E-02 1.67449E+01-7.76463E-02-2.63183E-01
 -1      2813-1.84718E+02-4.56417E-01-2.40811E-01 1.57864E+01 1.12616E-01-2.45621E-01
 -1      2814-4.83138E+02-9.60104E-01 1.37569E-01 3.67739E+00-1.12231E-02-1.73666E-01
 -1      2815-2.75027E+02-2.32163E+00-4.23988E-01 7.15378E+00 1.13407E-03-2.54508E-01
 -1      2816-4.81870E+02-9.33862E-01 1.80968E-01 3.90836E+00-1.13591E-01-1.13505E-01
 -1      2817-3.76212E+02-1.73200E+00-8.98384E-02 6.67651E+00-5.86913E-02-1.08976E-01
 -1      2818-2.74912E+02-1.64305E+00-9.15147E-02 7.43483E+00-5.80680E-02-1.04156E-01
 -1      2819-4.84318E+02-1.40329E+00-1.15448E-01 3.47833E+00 3.92015E-02 1.66786E-01
 -1      2820-4.85325E+02-1.29100E+00-1.47233E-01 3.36173E+00 1.10248E-01 1.13804E-01
 -1      2821-2.29608E+02-2.45847E-01 1.47066E-01 1.61535E+01-4.98222E-02 1.93455E-01
 -1      2822-2.72819E+02 9.18463E-03-2.28690E-02 1.37721E+01 8.61364E-02 2.75620E-01
 -1      2823-2.30278E+02 2.57733E-01 4.77527E-01 1.48620E+01-2.93699E-02 1.79311E-01
 -1      2824-1.68712E+02-1.90887E-01-1.80088E-01 1.61617E+01 6.48453E-02 1.73354E-01
 -1      2825-1.25553E+02-4.60064E-01-6.54932E-02 1.37532E+01-5.55665E-02 2.02965E-01
 -1      2826-1.68174E+02-7.91985E-01-5.31590E-01 1.48572E+01 5.00356E-02 1.67860E-01
 -1      2827-3.16238E+02-5.00380E-01-3.17204E-01 7.73779E+00-8.12749E-02 2.10429E-01
 -1      2828-3.14073E+02-7.24120E-01-4.61983E-01 7.81417E+00-8.87854E-02 5.49802E-01
 -1      2829-8.40835E+01 4.16339E-01 4.83317E-01 7.85405E+00 9.64416E-02 5.32635E-01
 -1      2830-8.20520E+01 9.92963E-02 2.39264E-01 7.84049E+00 7.98091E-02 2.22568E-01
 -1      2831 8.37456E+01-7.04938E-01 2.07970E-01 3.46174E+00 1.29108E-01 1.11209E-01
 -1      2832 8.26455E+01-6.86449E-01 2.47835E-01 3.46405E+00 4.29970E-02 1.35921E-01
 -1      2833 5.47928E+01-3.99115E-01 2.73021E-01 4.86526E+00 1.88870E-02 2.11730E-01
 -1      2834-1.33309E+02-1.79371E+00-4.15460E-01 9.34544E+00 5.24891E-02 3.21315E-01
 -1      2835 5.62832E+01-5.24750E-01 2.44905E-01 4.89562E+00 1.03502E-01 1.47767E-01
 -1      2836-1.33295E+02-1.12898E+00-3.85629E-02 1.00845E+01 1.07895E-01 8.54302E-02
 -1      2837-4.01987E+01-1.19639E+00-6.25725E-02 8.69805E+00 3.73936E-02 1.30545E-01
 -1      2838-4.57009E+02-1.04162E+00-1.90176E-01 4.82810E+00 9.08334E-02 1.71521E-01
 -1      2839-4.55567E+02-1.18481E+00-1.81727E-01 4.84434E+00 3.45072E-02 2.30554E-01
 -1      2840-1.49826E+02-6.62487E-01-6.35789E-02 1.34323E+01 2.18680E-02-1.20534E-01
 -1      2841-7.96954E+01-2.74606E-01-4.05809E-02 1.18902E+01-1.45915E-01-1.91777E-01
 -1      2842-1.50322E+02-3.12396E-01 2.03286E-01 1.28017E+01-4.75748E-02-2.74472E-01
 -1      2843-4.54140E+02-6.10579E-01 1.50840E-01 4.98600E+00 1.65445E-02-2.33035E-01
 -1      2844-2.66735E+02-1.93390E+00-4.30690E-01 9.69434E+00 1.62928E-02-3.48056E-01
 -1      2845-4.52494E+02-5.95195E-01 2.32293E-01 5.17095E+00-8.50533E-02-1.28660E-01
 -1      2846 5.20045E+01-7.82996E-01-1.42292E-01 5.21828E+00-1.04966E-01-1.29709E-01
 -1      2847 5.34143E+01-9.23843E-01-7.60116E-02 5.07385E+00-6.44976E-02-2.20818E-01
 -1      2848-1.35497E+02-1.13849E+00-2.42041E-03 9.74512E+00-7.80723E-02-3.25133E-01
 -1      2849-2.66845E+02-1.24770E+00-4.55578E-02 1.01656E+01-4.87494E-02-1.32997E-01
 -1      2850-3.57537E+02-1.35982E+00-1.33930E-02 9.05486E+00-2.32357E-02-1.79818E-01
 -1      2851-2.75758E+02-5.54019E-02-6.95961E-02 8.27378E+00-1.36272E-01 2.77182E-01
 -1      2852-2.17421E+02-2.43131E-01 8.50288E-02 1.68990E+01 1.01160E-01 1.79841E-01
 -1      2853 9.25982E+01-8.35423E-01 1.73666E-01 2.74375E+00-5.43165E-02-1.09896E-01
 -1      2854 9.34448E+01-9.08102E-01 1.60447E-01 2.68090E+00-2.01949E-01-7.30681E-02
 -1      2855-6.18763E+01-9.35122E-01-3.42364E-02 1.07267E+01-3.52991E-02-2.04871E-01
 -1      2856-1.42414E+02-8.62562E-01-2.00095E-01 1.26546E+01-8.65663E-02-1.43091E-01
 -1      2857-1.42183E+02-1.45432E+00-5.32853E-01 1.15773E+01-7.23971E-02-1.38762E-01
 -1      2858-9.56932E+01-6.16432E-01-4.29779E-02 1.26437E+01 5.89542E-02-2.00146E-01
 -1      2859-1.56526E+02-4.75142E-01-1.91461E-01 1.49127E+01-6.70722E-02-1.30595E-01
 -1      2860-1.55920E+02-1.15399E+00-3.11975E-01 1.38356E+01-6.19469E-02-3.22426E-01
 -1      2861-4.32019E+00-6.96252E-01-3.24934E-02 6.66701E+00-2.83666E-02-2.14028E-01
 -1      2862-6.25282E+00-5.70941E-01-1.66847E-01 6.78502E+00-2.99367E-03-1.26465E-01
 -1      2863-3.57705E+01 2.01854E-01 1.85629E-01 7.11701E+00-4.97344E-03-2.31108E-01
 -1      2864-3.37628E+01-1.59646E-02 2.37375E-01 7.09676E+00-8.85239E-02-1.55521E-01
 -1      2865-1.67641E+02-2.02784E-01-1.27717E-01 1.03153E+01-1.97415E-02 7.00912E-02
 -1      2866-1.64082E+02 2.70032E-01 1.89866E-01 1.05311E+01-9.94702E-02-3.50147E-01
 -1      2867-1.50046E+02 4.33098E-01 5.42716E-02 8.21068E+00 1.01375E-02-2.63479E-01
 -1      2868-1.47644E+02 3.90077E-01 2.43985E-01 8.17027E+00-7.94036E-02-1.18708E-01
 -1      2869-3.95910E+01-3.28566E-01 1.92918E-01 7.83826E+00-2.22730E-01-2.22152E-01
 -1      2870-4.18595E+01-6.00087E-01 2.13768E-02 7.72920E+00-5.46676E-02 1.09084E-01
 -1      2871 5.16225E+00-6.20788E-01 2.96623E-03 6.52926E+00-1.09691E-01-1.14437E-01
 -1      2872 2.07436E+00-8.17754E-01-1.76819E-01 6.49169E+00 6.24352E-02-1.90214E-01
 -1      2873-1.09068E+02-1.04504E+00 7.73532E-02 9.38326E+00-1.08814E-01 1.15060E-02
 -1      2874-2.01690E+02-1.39028E+00-2.76502E-02 1.02076E+01-4.56626E-02 3.79952E-02
 -1      2875-5.05368E+01-1.21671E+00-2.36329E-03 8.77869E+00-9.31094E-02-1.26347E-01
 -1      2876-1.43831E+02-1.49577E+00-1.62910E-01 9.90322E+00-3.23123E-02-2.19799E-02
 -1      2877-2.03055E+02-1.28448E+00 3.98056E-01 2.97495E+00-6.98517E-01 7.43355E-01
 -1      2878-9.13310E+01-1.49212E+00 2.98577E-01 3.54435E+00-5.70018E-01 2.46441E-01
 -1      2879-1.22927E+02-1.13614E+00 2.23243E-02 3.20229E+00-5.31159E-01 3.73651E-01
 -1      2880-1.16744E+01-1.43732E+00-8.59348E-02 3.43673E+00-4.19438E-01-4.70980E-02
 -1      2881-3.38664E+02-2.01657E+00-1.82642E-01 6.42722E+00-5.87784E-02-2.13586E-01
 -1      2882-2.53081E+02 5.45793E-02 1.99363E-01 1.39465E+01 1.32462E-01 5.45602E-01
 -1      2883-1.45101E+02-3.18897E-01 4.27100E-03 1.39674E+01-2.11527E-02 5.11602E-01
 -1      2884-4.33500E+02-8.71825E-01 7.47412E-02 5.42407E+00-2.58125E-02 1.50096E-01
 -1      2885-4.18874E+02-1.06799E+00-3.75324E-01 6.05306E+00 5.09914E-02-4.28133E-01
 -1      2886-4.20507E+02-8.00289E-01-1.78103E-01 5.99896E+00-2.56718E-02-1.86885E-01
 -1      2887-2.58728E+02-6.98557E-01 2.60644E-01 1.15385E+01 1.72557E-02-1.78537E-01
 -1      2888-4.20802E+02-6.39285E-01 5.55572E-02 6.05881E+00-1.67713E-02 1.67067E-01
 -1      2889-6.49950E+01-1.61901E+00-9.49131E-02 6.65835E+00 1.20192E-01 2.19637E-01
 -1      2890-2.00034E+02-8.44518E-01 8.79472E-02 1.31162E+01-7.59368E-02-1.90186E-02
 -1      2891-2.79140E+02-6.29758E-01 1.57189E-01 1.15896E+01-1.29108E-01-8.27404E-02
 -1      2892-2.46136E+02-1.05066E+00-5.01032E-02 1.30974E+01 2.11073E-02-5.57421E-02
 -1      2893-3.24195E+02-9.94201E-01 3.08956E-02 1.11833E+01 6.83869E-02-2.70489E-01
 -1      2894-7.78781E+01-1.22917E+00-5.80154E-02 9.09488E+00 8.64707E-02 2.88175E-01
 -1      2895-2.12805E+02-2.50801E-02-1.71090E-01 1.69573E+01-5.22953E-02 1.29214E-01
 -1      2896-1.95445E+02 9.85323E-01-2.14541E-02 1.67931E+01 8.52324E-02-3.26782E-01
 -1      2897-1.79884E+02 2.34870E-01-1.08444E-01 1.07532E+01-1.69136E-02-6.13317E-02
 -1      2898-1.94972E+02 7.47435E-01-2.20976E-02 1.68937E+01-2.16004E-01 4.81835E-01
 -1      2899-3.24506E+02-1.66910E+00-2.45825E-01 8.92325E+00 2.87443E-02-3.12328E-01
 -1      2900-1.99379E+02-1.23023E-02-9.63191E-02 1.73001E+01-2.02804E-01 2.42481E-02
 -1      2901-2.03077E+02-9.43516E-01 5.94656E-02 1.68031E+01 1.83651E-01 5.06032E-01
 -1      2902-6.08604E+01-1.92190E+00-2.79392E-01 5.30674E+00-1.03542E-01-1.98171E-01
 -1      2903-7.75738E+01-1.13592E+00-1.57449E-01 8.95245E+00-1.35134E-01-2.71819E-01
 -1      2904-3.04933E+02-8.93832E-01-1.08171E-01 1.09137E+01-5.86803E-02-4.29181E-01
 -1      2905-9.55857E+01-1.06027E+00-2.63340E-01 1.10253E+01 2.77459E-02-4.27751E-01
 -1      2906-1.35237E+02-1.16687E+00-9.33571E-02 1.02182E+01-5.17998E-02-1.00799E-01
 -1      2907-4.35900E+01-8.04046E-01-3.62106E-02 9.10445E+00-1.97331E-01-1.31340E-01
 -1      2908 1.92047E+01-2.69796E-02 4.28814E-01 6.08263E+00-1.09670E-01-4.30845E-01
 -1      2909 2.08842E+01-2.29441E-01 2.69812E-01 6.00116E+00-1.53710E-01-1.55401E-01
 -1      2910-1.04693E+02-4.81645E-01-1.29246E-02 1.18106E+01-1.07896E-01-3.55300E-01
 -1      2911-3.93142E+02-1.38724E-01 2.48533E-01 6.67375E+00-1.05210E-01-1.21808E-01
 -1      2912-3.95171E+02-1.25364E-01 2.77577E-01 6.55973E+00 4.17867E-02-2.93081E-01
 -1      2913-2.49927E+02-1.36846E+00-3.51334E-01 1.28279E+01-3.07670E-03-3.76512E-01
 -1      2914-1.21854E+02-6.20667E-01-2.33643E-02 1.30449E+01 6.53463E-03-4.29166E-01
 -1      2915-2.50295E+02-1.00533E+00-7.17309E-02 1.34766E+01-6.65769E-02-1.48159E-01
 -1      2916-3.20319E+02-1.19248E+00-8.87947E-02 1.16500E+01 9.67930E-02-2.92030E-01
 -1      2917-3.84956E+02-1.76454E+00-1.18423E-01 4.84904E+00-1.57431E-01-1.43150E-01
 -1      2918-2.78220E+02-1.80172E+00-5.46088E-02 5.77239E+00 5.82737E-04-9.08879E-02
 -1      2919-2.78948E+02-2.18959E+00-1.13076E-01 5.23838E+00-3.67189E-02-6.02982E-02
 -1      2920-3.38240E+02-7.00562E-01-2.32258E-02 1.06500E+01-1.30144E-01-1.89852E-01
 -1      2921-2.57959E+02-9.50592E-01 5.75905E-02 1.26292E+01 3.16788E-02-1.51757E-01
 -1      2922-4.94493E+02-1.53847E+00-1.49445E-01 2.74725E+00 1.53550E-02-1.85286E-01
 -1      2923-4.95210E+02-1.41389E+00-7.20655E-02 2.57752E+00-1.13148E-01-6.97745E-02
 -1      2924 9.34792E+01-6.11118E-01 1.05253E+00 2.69169E+00-9.32354E-01 3.67237E-01
 -1      2925-1.35769E+02-1.65223E+00 8.24475E-01 4.69758E+00-8.75750E-01 2.62283E-01
 -1      2926 9.42439E+01-4.91234E-01 2.12242E+00 3.32988E+00-8.02824E-01 9.71101E-02
 -1      2927-2.41076E+02-4.37616E+01-4.08548E+01 6.89954E+00-6.96067E-01 5.46724E+00
 -1      2928-2.54108E+02-4.30317E+01-4.57672E+01 9.85147E+00-4.77219E-01-3.82920E+00
 -1      2929-3.31360E+02-5.27725E+01-6.89634E+01 1.19612E+01 3.65818E+00 2.32870E+00
 -1      2930-3.21391E+02-1.19857E+01-1.41810E+01 1.31319E+01 4.31509E+00 2.08368E+00
 -1      2931-3.18664E+02-5.37515E+01-5.96576E+01 6.51907E+00 4.24696E+00 1.30843E+01
 -1      2932 1.22129E+02-5.68651E-01 6.15470E-02 2.74257E+00 1.28959E-01 2.01636E-01
 -1      2933-1.90848E+02 3.31882E-01 9.87954E-02 1.70673E+01 5.83862E-03-1.77917E-01
 -1      2934-1.74155E+02 3.15984E-01-1.60117E-01 1.47900E+01-6.63410E-02-3.23000E-01
 -1      2935-1.90012E+02 4.76451E-01 3.08621E-01 1.62628E+01 4.47456E-02-5.54331E-01
 -1      2936-1.63637E+02-2.05251E+01-1.50344E+01 3.57315E+00 3.73119E-02 1.94065E-01
 -1      2937-2.16180E+01-1.15017E+00 4.79855E-01 3.48124E+00-1.00761E+00 3.79143E-01
 -1      2938-1.34100E+02-1.36050E+00 3.02607E-01 3.18568E+00-1.21080E+00 9.99969E-01
 -1      2939-2.95538E+02-7.98826E-01 9.22846E-02 1.17408E+01-4.66206E-02-3.89986E-01
 -1      2940-1.57944E+02-1.21468E-01-7.04775E-02 8.62550E+00-9.02530E-02-1.51057E-01
 -1      2941-1.61933E+02-4.39865E-01-1.82650E-01 8.45646E+00 3.59648E-02-1.35763E-01
 -1      2942-2.00178E+02 1.36594E+00 2.46247E-01 1.60497E+01-1.01867E-01 2.33727E-02
 -1      2943-1.98130E+02-1.02475E+00-9.45111E-02 1.64499E+01-5.78417E-02 2.29364E-01
 -1      2944-1.99074E+02-2.10639E-01-4.70640E-03 1.64694E+01 5.94924E-02 3.16791E-02
 -1      2945-3.42745E+02-2.05132E+00-1.51809E-01 5.22361E+00-1.41989E-01-2.03536E-01
 -1      2946-2.00253E+02-2.51826E-01 6.36272E-02 1.54774E+01-3.02234E-01-5.50133E-01
 -1      2947-2.03556E+02-6.45803E-01 2.78377E-02 1.68285E+01-2.14291E-01-4.84632E-01
 -1      2948-2.01879E+02 2.20510E+00 5.99970E-01 1.44056E+01-4.71464E-01-2.58438E-01
 -1      2949-5.48884E+01-1.18209E+00 5.42639E-01 3.97780E+00-8.50921E-01 2.73843E-01
 -1      2950-1.76555E+02-3.86014E-01-2.33780E-01 1.48397E+01 1.84433E-01-4.64086E-01
 -1      2951-1.18263E+02 2.53168E-01-1.68575E-01 7.78752E+00-1.53749E-02 5.32700E-01
 -1      2952-1.56223E+02 3.82812E-01-1.74052E-02 1.41524E+01 1.41985E-01 3.09521E-01
 -1      2953-1.30850E+02-2.92252E-01-1.86365E-01 7.69592E+00-3.78190E-02 2.82561E-01
 -1      2954-1.21303E+02 3.27777E-01 1.81007E-01 7.64531E+00 1.41623E-01 4.11009E-01
 -1      2955-1.59836E+02 2.97700E-02-1.32018E-01 1.38903E+01-3.27168E-02 4.17736E-01
 -1      2956-1.48920E+02-3.54694E-01-1.17384E-01 1.43068E+01-1.76883E-01 3.70401E-01
 -1      2957 4.84504E+00-6.99090E-03-3.00799E-02 6.47072E+00 4.58740E-02 5.85660E-01
 -1      2958 3.63781E-02-1.80660E-01-1.26713E-01 6.30991E+00 5.63076E-02 5.15267E-01
 -1      2959 1.05810E+00-1.93559E-01 1.88049E-01 5.97356E+00 1.43196E-01 4.70498E-01
 -1      2960-7.26019E+01-6.97233E-01-1.43732E-01 1.16591E+01-7.55655E-02 9.72661E-02
 -1      2961-6.88440E+01-7.15830E-01-4.09150E-02 1.19052E+01-1.74084E-03 2.91426E-01
 -1      2962-1.23486E+02 6.83808E-02 3.05056E-01 7.71343E+00-1.10252E-01 5.98187E-01
 -1      2963-1.61735E+02-8.23872E-02 5.12785E-02 1.46732E+01 1.36958E-01 2.85101E-01
 -1      2964-1.31604E+02-2.41798E-01 9.20830E-02 7.70228E+00 8.32636E-02 6.34973E-01
 -1      2965-1.38572E+02-1.73048E-01-1.89259E-01 7.80796E+00-7.99890E-02 6.35136E-01
 -1      2966-2.07950E+02 5.48839E-01 5.27047E-01 1.55737E+01-3.19811E-02 2.11636E-01
 -1      2967-2.08536E+02 3.04709E-01 2.61190E-03 1.65888E+01-5.89094E-02 1.18802E-01
 -1      2968-2.12586E+02-5.51530E-01 6.69456E-02 1.42784E+01 1.18647E-01 1.53303E-01
 -1      2969-2.82183E+02 1.03982E+00 1.55993E+00-2.15944E-01-2.34619E+00 2.97290E+00
 -1      2970-3.00575E+02-3.06127E+00 9.35102E-02 5.73678E+00-1.50478E+00 1.73226E+00
 -1      2971-3.81413E+02-4.06643E+00-6.29252E+00 4.39153E+00-1.63454E+00 5.94534E-01
 -1      2972-1.34887E+02-4.19545E+01-3.83579E+01-2.50676E+00-1.89264E-01 7.63254E+00
 -1      2973-6.15970E+01-2.26941E+01-1.43736E+01-3.99536E+00 2.03875E+00 1.30637E+00
 -1      2974-2.01809E+02 2.63883E+00 7.04031E-01 1.43711E+01 5.50281E-02 1.15508E-01
 -1      2975-2.00975E+02 1.21765E-01 7.38642E-02 1.51281E+01 3.38814E-01 3.16544E-01
 -1      2976-1.37451E+02-1.11852E+00 1.30408E-01 7.70072E+00 1.14468E+00-2.10918E-01
 -1      2977 1.06129E+02-6.07238E-01 4.05888E+00 4.08738E+00 6.03876E-01-3.49298E-01
 -1      2978-3.72863E+01-5.73611E+00-1.38734E-01 5.57551E+00 4.31557E+00-7.75353E-01
 -1      2979-2.75845E+02-2.32153E+00 2.86770E-01 3.73993E+00-1.91564E-01 3.39868E-01
 -1      2980-2.73823E+02-1.81531E+00-5.99724E-02 3.62475E+00-8.82253E-02 2.75609E-01
 -1      2981-2.03056E+02-1.51490E+00 1.69395E-01 3.56253E+00-3.90000E-01 4.02201E-01
 -1      2982-2.85863E+02-1.87782E+00 4.67257E-01 3.12555E+00-5.26097E-01 1.01689E+00
 -1      2983-2.82762E+02-1.21215E+00 4.70293E-01 2.51202E+00-3.83286E-01 9.69835E-01
 -1      2984-3.56000E+02-1.95616E+00 4.83002E-01 2.59063E+00-3.30608E-01 1.02104E+00
 -1      2985-2.32796E+02-8.48510E-01-6.09574E-03 1.51524E+01 2.99234E-02-4.37654E-02
 -1      2986-2.34591E+02-1.04194E+00-5.34108E-01 1.39288E+01 4.70304E-02-9.51689E-02
 -1      2987-1.99729E+02-4.06602E-01 3.60076E-02 1.48168E+01-1.05132E-01-6.51498E-02
 -1      2988-2.44910E+02-9.57851E-02 3.59861E-02 1.45915E+01-3.12497E-02-5.71231E-02
 -1      2989-2.45001E+02-1.64811E-01 2.72546E-01 1.34667E+01-2.24069E-03-1.50309E-01
 -1      2990-2.78888E+02-4.89466E-01-4.55573E-02 1.29978E+01-7.34652E-02-5.81083E-02
 -1      2991-1.72269E+02 3.93194E-01-1.36484E-01 9.59125E+00 4.20784E-02 1.42666E-01
 -1      2992-1.95534E+02-4.98441E-01-3.08961E-01 1.69400E+01 2.92253E-01 4.49856E-01
 -1      2993-1.88618E+02 5.09266E-01 1.95357E-01 1.61042E+01-7.82012E-02 1.87949E-01
 -1      2994-3.16528E+02-4.38889E-01 8.47809E-02 9.21023E+00 4.27650E-02 1.00255E-01
 -1      2995-3.47759E+02-6.92659E-02 1.22788E-01 7.79370E+00-3.78280E-02-1.02183E-01
 -1      2996-3.63977E+02-7.36185E-01-2.70909E-01 7.26228E+00 1.57652E-01-2.48387E-02
 -1      2997-2.15470E+02-1.93108E+01-1.33093E+01 1.15573E+01 4.93714E+00 4.12855E+00
 -1      2998-3.84718E+02-2.05666E-01 8.23611E-02 7.01987E+00-2.37089E-02 4.58865E-02
 -1      2999-2.45056E+02-1.24772E+00-2.19277E-01 1.29528E+01-1.23889E-01 3.67010E-01
 -1      3000-3.42385E+02-5.17357E-01 2.72604E-02 8.38060E+00-3.15654E-01 7.33288E-02
 -1      3001-3.96608E+02-7.08586E-01-9.63703E-02 6.51583E+00-1.98887E-02-2.10956E-01
 -1      3002-2.53630E+02-6.87555E-01-1.27255E-01 1.23316E+01-7.07455E-03 5.25359E-01
 -1      3003-2.97715E+02-8.70887E-01-1.01889E-01 1.18822E+01 7.61456E-02 1.29190E-01
 -1      3004-5.03705E+02-8.87496E-01 8.85995E-01 7.90950E-01 4.52841E-01-9.16456E-01
 -1      3005-2.78633E+02-1.61482E+00 6.08582E-01 3.33676E+00 5.96522E-01-9.69081E-01
 -1      3006-4.29310E+02-1.15650E+00 1.14926E+00 1.73377E+00-6.83134E-02-1.55948E-01
 -1      3007-5.06170E+02-1.28086E+00 1.02289E+00 1.40769E+00-3.04574E-02-3.67171E-01
 -1      3008-2.82198E+02-2.22546E+00 2.66370E-01 3.56553E+00 1.97389E-01-4.81457E-01
 -1      3009-3.55521E+02-1.93284E+00 5.49520E-01 2.61861E+00 3.60000E-01-1.14736E+00
 -1      3010-2.43830E+02-8.84263E-01-1.46054E-02 1.39101E+01-3.06557E-02 6.88826E-02
 -1      3011-2.00313E+02-9.30569E-01-8.86389E-02 1.35854E+01-3.27988E-02 4.06686E-02
 -1      3012-2.52903E+02-7.32736E-01-1.04698E-01 1.32341E+01 8.61129E-02 9.76181E-02
 -1      3013-2.91171E+02-4.12910E-01 1.15676E-01 1.32548E+01 8.75651E-02-1.95193E-01
 -1      3014-3.04887E+02-5.53072E-01-6.05120E-02 1.27447E+01-5.74861E-02-3.00939E-01
 -1      3015-3.51156E+02-1.66900E-01-6.73042E-02 7.56103E+00-1.46238E-02-4.64950E-01
 -1      3016-3.66596E+02-5.46735E-01-6.29178E-03 6.81097E+00-7.92015E-02-4.46925E-01
 -1      3017-2.76498E+02-6.37061E-01 8.77256E-01 2.14484E+00 8.67785E-01-1.38970E+00
 -1      3018-2.02730E+02-1.01073E+00 4.07111E-01 2.81022E+00 6.86885E-01-7.75844E-01
 -1      3019-2.80011E+02-1.12242E+00 2.22614E-01 2.56966E+00 3.50325E-01-6.31488E-01
 -1      3020-1.60824E+02 9.62590E-02 2.49559E-01 1.05096E+01-1.16561E-01 2.21533E-01
 -1      3021-1.42767E+02 2.35520E-01 2.23782E-01 8.31484E+00 1.70534E-01-4.23839E-01
 -1      3022-2.00228E+01 1.83386E-01 1.73021E-01 6.94207E+00-1.00736E-01-4.76849E-01
 -1      3023 1.71022E+01-5.18303E-01-5.46116E-02 6.33646E+00-3.31962E-02-4.40174E-01
 -1      3024-1.84549E+02-2.85801E-01 1.93964E-02 1.69374E+01-2.00411E-01-2.27227E-01
 -1      3025-3.84523E+02-1.78665E+00 9.44084E-02 2.69024E+00 3.05895E-02 3.98600E-01
 -1      3026-3.94006E+02-1.10013E+00 9.94819E-01 1.34203E+00-3.79307E-01 1.29743E+00
 -1      3027-7.68565E+01-3.49898E-01 1.72491E-01 9.20208E+00-1.73633E-01 2.44578E-01
 -1      3028-2.94169E+01-8.60318E-02 2.33147E-01 7.17615E+00 7.31936E-02-3.85557E-01
 -1      3029 1.22882E+02-5.56983E-01 1.22243E-01 2.77746E+00-1.92092E-01-1.52664E-01
 -1      3030-5.68834E+01-5.32272E-01-2.42874E-01 8.44748E+00 1.33254E-01 2.53496E-01
 -1      3031-1.01951E+01-4.64077E-01-1.17253E-01 6.84726E+00-1.97786E-01-3.30140E-01
 -1      3032-2.91717E+02-1.90571E+00-1.33668E-01 6.10136E+00 7.67962E-02 8.26071E-02
 -1      3033-2.91674E+02-2.37783E+00-2.99186E-01 5.44442E+00 1.16404E-01 1.66594E-01
 -1      3034-2.14825E+02-2.02692E+00-2.44503E-01 5.20268E+00-1.98657E-02 6.20712E-03
 -1      3035-2.04686E+02-1.00750E+00 2.82033E-01 1.41273E+01-9.08385E-02 3.56355E-02
 -1      3036-2.49142E+02-5.41069E-01-1.75608E-01 1.46242E+01 6.26332E-02 1.45862E-01
 -1      3037-2.48843E+02-5.69450E-01-1.50592E-01 1.33222E+01 1.84693E-01 2.71893E-01
 -1      3038-2.05734E+02-4.26227E-01-1.64015E-01 1.33899E+01-7.09584E-02 2.45380E-02
 -1      3039-1.50198E+02-2.97874E-01-3.18605E-02 1.40104E+01 1.45845E-01-1.47732E-01
 -1      3040-1.99764E+02-8.49086E-01-1.69257E-01 1.38178E+01 1.78978E-01-2.06812E-02
 -1      3041-2.49948E+02-9.72078E-01-9.85727E-02 1.40275E+01-9.03994E-02-2.11260E-01
 -1      3042 2.22200E+01-1.39621E+00 5.52226E-01 2.97128E+00 1.74911E-02 5.79361E-02
 -1      3043 1.01450E+02-1.07053E+00 4.62565E-01 2.16071E+00-1.56971E-01-5.05900E-02
 -1      3044-1.24560E+02-1.81881E+00-8.05300E-02 5.52635E+00-1.37487E-01-2.40329E-02
 -1      3045-2.91401E+02-1.91040E+00-4.47322E-02 5.66622E+00-4.79292E-03 7.72049E-02
 -1      3046 1.61226E+01-1.47361E+00 4.89634E-02 3.61553E+00-7.68153E-02 9.18504E-02
 -1      3047 9.50624E+01-1.01036E+00 2.36506E-01 2.66912E+00-1.83443E-03-1.47208E-01
 -1      3048-4.97464E+02-1.40506E+00 6.42093E-01 1.96678E+00-9.49931E-03 1.82407E-01
 -1      3049-4.27290E+02-1.43144E+00 8.45552E-01 2.20256E+00-2.32041E-02-6.36879E-02
 -1      3050-5.07733E+02-1.01567E+00 9.74174E-01 1.09395E+00-7.96946E-02 6.88635E-01
 -1      3051-1.55392E+02-6.27908E-01 4.44202E-02 1.48196E+01-8.59149E-02-9.28062E-02
 -1      3052-2.49131E+02-4.01542E-01 1.21367E-01 1.45006E+01-1.05269E-01 1.63680E-01
 -1      3053-4.15270E+02-3.88284E-02 2.65040E-01 6.44155E+00-8.01210E-02-5.20647E-01
 -1      3054-3.87738E+02-3.66846E-01-3.81936E-02 6.78943E+00 1.84533E-03 4.90469E-01
 -1      3055-3.99485E+02-7.04864E-01-3.65032E-02 6.29039E+00 1.12608E-01 3.79884E-01
 -1      3056-1.23192E+02-1.43077E+00-1.60253E-01 3.90330E+00-2.06827E-01 4.90366E-02
 -1      3057 1.31831E+02-5.54473E-01 1.35622E-01 2.07555E+00 1.81117E-01 1.39618E-01
 -1      3058 1.29520E+02-7.00481E-01 1.83600E-01 2.25186E+00 1.07944E-01 1.66116E-01
 -1      3059 1.05986E+02-1.03634E+00 6.26685E-02 2.33150E+00 1.86990E-01 5.50978E-02
 -1      3060-9.10347E+00-1.53290E+00-5.91856E-02 4.60841E+00 2.55194E-01 1.01655E-01
 -1      3061-6.76360E+00-1.45746E+00-9.51412E-02 4.12348E+00 2.47975E-01 1.18565E-01
 -1      3062-4.50552E+02-8.13237E-01-2.05084E-01 5.12456E+00-9.70468E-02 1.71898E-02
 -1      3063-4.43189E+02-5.61544E-01 2.73107E-01 5.08754E+00 1.37646E-02-6.83103E-02
 -1      3064-2.73106E+02-1.41818E+00-2.45535E-01 1.08787E+01-6.10657E-02-1.35008E-01
 -1      3065-3.14782E+02-7.23249E-01 5.37339E-02 1.20931E+01-7.09107E-02 1.93893E-01
 -1      3066-3.25008E+02-8.37384E-01-5.79560E-02 1.16751E+01 1.13579E-01 2.62274E-01
 -1      3067-5.22988E+02-1.00177E+00 1.70863E-01 2.73410E+00-9.58155E-02-1.72645E-01
 -1      3068-2.66349E+02-1.43788E+00-7.57268E-02 1.07081E+01-1.38880E-01-1.80835E-01
 -1      3069-5.00552E+02-6.14669E-01 1.18551E+00 8.90574E-01 4.32996E-01-1.85498E+00
 -1      3070-5.04260E+02-1.22115E+00 5.89833E-01 1.73804E+00-7.86199E-02-9.18418E-01
 -1      3071-2.02009E+02-2.13651E+00-2.01554E-01 5.79622E+00-2.49781E-02-1.27839E-02
 -1      3072-2.78527E+02-1.92697E+00-1.15126E-01 5.49273E+00 9.85430E-03-1.11659E-01
 -1      3073-5.03833E+02-1.25687E+00 6.42268E-01 1.85049E+00 6.32468E-02-2.27105E-01
 -1      3074-5.05425E+02-1.08723E+00 1.27711E-01 2.68938E+00-8.90176E-03-3.58692E-03
 -1      3075-3.68924E+02-2.26596E+00-2.93469E-01 4.61322E+00 1.02365E-01 2.85327E-02
 -1      3076-4.49523E+02-6.12508E-01-1.70181E-02 5.14888E+00 1.50964E-01-1.34534E-01
 -1      3077-1.26414E+02-1.83353E+00-1.32934E-01 7.05160E+00 1.56788E-01 1.24990E-01
 -1      3078-2.86822E+02-4.44240E-01-9.89256E-02 7.98086E+00 2.00588E-02 2.12406E-01
 -1      3079-2.24307E+02 9.17128E-02-4.55890E-02 1.51122E+01-3.34574E-02-5.19757E-01
 -1      3080-2.94778E+02-3.75256E-01 3.24029E-02 8.01909E+00-1.63896E-01-6.46654E-02
 -1      3081-1.31036E+02-5.85745E-02-1.45421E-02 1.01263E+01-3.36886E-01 3.39676E-02
 -1      3082-1.37540E+02 3.13945E-03 7.80895E-02 1.02506E+01-2.67647E-01 8.47611E-02
 -1      3083-1.03172E+02 2.35083E-01-3.88484E-02 8.07131E+00 1.55655E-01-4.19562E-02
 -1      3084-1.11123E+02 1.69655E-01 1.14563E-01 8.10285E+00-6.37146E-02 2.26497E-01
 -1      3085-1.74114E+02-3.55830E-01-3.88761E-02 1.49812E+01-1.11392E-02-5.37032E-01
 -1      3086-1.99296E+02-4.92752E-01-1.24448E-01 1.65450E+01-1.83937E-02 2.63998E-03
 -1      3087-1.99570E+02-4.42407E-01-1.59878E-01 1.63442E+01 1.20659E-01 3.20485E-02
 -1      3088-2.23992E+02 1.65880E-01 9.69223E-02 1.63346E+01 1.84227E-01-1.78095E-01
 -1      3089-2.23660E+02-1.10028E-01-2.70542E-02 1.61289E+01-7.14306E-02-1.00279E-01
 -1      3090-1.74602E+02-2.93802E-01-5.03209E-02 1.61665E+01 3.79396E-02-1.37440E-01
 -1      3091-1.74014E+02-3.19207E-01-1.09580E-01 1.62744E+01-1.85929E-01-1.82383E-01
 -1      3092-1.64693E+02-9.75003E-02 1.62910E-01 1.57547E+01 4.59085E-02-1.99134E-01
 -1      3093-1.95917E+02-5.05879E-01 1.61113E-02 1.45932E+01-9.97297E-02 1.01776E-01
 -1      3094-1.65200E+02-1.21034E-01 1.01467E-01 1.46302E+01 1.69824E-01-3.75021E-01
 -1      3095-2.33547E+02-2.97476E-01-1.87248E-01 1.57555E+01-6.84152E-02-2.03240E-01
 -1      3096-2.02494E+02-6.12195E-03-5.66451E-02 1.45875E+01 9.31018E-02 7.82632E-02
 -1      3097-2.33177E+02-3.88716E-01-1.50664E-01 1.46310E+01-1.89688E-01-3.91027E-01
 -1      3098-3.12115E+02-5.60989E-02 1.07189E-01 7.11319E+00 9.45671E-02-1.59145E-02
 -1      3099-2.66335E+02-6.35172E-01-1.94798E-01 1.30222E+01-1.98726E-01 1.03875E-01
 -1      3100-8.59802E+01-2.00652E-01-1.00807E-01 7.14135E+00-1.22166E-01-1.75618E-02
 -1      3101-1.32048E+02 1.24371E-01 1.36622E-01 1.30456E+01 1.85049E-01 1.08947E-01
 -1      3102 8.57442E+01-7.49610E-01 1.09366E-01 3.37254E+00-2.75603E-02 1.41861E-01
 -1      3103-2.74539E+02-1.78576E+00-1.11424E-01 7.98350E+00-1.17966E-01-1.40115E-01
 -1      3104-4.79712E+02-9.32794E-01 2.27334E-02 3.84836E+00 8.89937E-02-1.11288E-01
 -1      3105-4.03159E+02-8.21346E-01 9.41626E-02 6.42952E+00 1.72520E-01 1.39911E-02
 -1      3106-2.53158E+02-5.48391E-01 5.68076E-03 1.32935E+01-1.25714E-01 1.90663E-01
 -1      3107 5.91386E+01-5.95116E-01 5.59440E-02 4.75758E+00-8.65685E-02 1.61229E-01
 -1      3108-1.33018E+02-1.39831E+00-8.71006E-02 9.95368E+00 1.80404E-01 1.35321E-01
 -1      3109-1.77593E+02 4.00265E-01 2.52045E-01 1.53113E+01-1.07888E-02-3.21821E-01
 -1      3110-1.18979E+02-1.79469E-01-2.27719E-02 8.19984E+00 4.08267E-02-7.17853E-02
 -1      3111-1.53374E+02-1.42732E-01-2.41198E-02 1.41682E+01 4.74745E-02-5.09981E-02
 -1      3112-2.19921E+02-5.45536E-01 2.45858E-02 1.55327E+01 1.10674E-01-4.14363E-01
 -1      3113-2.78894E+02 3.67249E-02-4.51051E-02 8.03166E+00-2.26530E-02-1.45770E-02
 -1      3114-2.44582E+02-1.60794E-01-2.11662E-03 1.42399E+01-4.97683E-02-9.76600E-02
 -1      3115-2.19046E+02-4.21759E-01-3.12922E-02 1.66817E+01 1.33519E-02-8.00472E-02
 -1      3116-1.79047E+02 2.64151E-01 4.92442E-02 1.65763E+01 2.09008E-02-9.69135E-02
 -1      3117 1.08557E+02-8.14447E-01 2.74713E-01 2.05615E+00 2.86854E-01 1.00390E-01
 -1      3118-4.91858E+00-1.52577E+00-8.47012E-03 3.69116E+00 2.56032E-01 5.97000E-02
 -1      3119-3.00956E+01-1.64082E+00-7.79048E-02 3.97330E+00 2.43645E-01 9.43931E-02
 -1      3120 4.90119E+01-7.61115E-01 1.46913E-01 5.16332E+00-1.80308E-01-1.57101E-01
 -1      3121-4.87454E+02-1.23910E+00 1.12741E-01 3.30709E+00 9.85722E-02 1.20524E-01
 -1      3122-2.76826E+02-1.65929E+00-1.18027E-01 7.05429E+00-4.66220E-02 1.29409E-01
 -1      3123-2.03024E+02-1.67297E+00 9.55327E-02 3.63519E+00 3.68335E-01-4.10029E-01
 -1      3124-2.80656E+02-1.95978E+00-6.52402E-02 3.66438E+00 4.19721E-02-3.01093E-01
 -1      3125-4.59940E+02-9.98304E-01 1.08153E-01 4.67822E+00 1.26519E-01 1.80571E-01
 -1      3126-1.35547E+02-9.66146E-01-9.03304E-02 1.07402E+01 6.27668E-02-1.47110E-01
 -1      3127-4.97007E+02-1.31830E+00 3.65231E-02 2.54080E+00-3.22973E-02-1.32115E-01
 -1      3128-5.08673E+02-1.25226E+00 1.16565E-01 2.59683E+00 1.27746E-01 1.04995E-01
 -1      3129-1.27938E+02-1.39404E+00-1.18560E-01 8.02729E+00 2.71052E-03-9.51566E-02
 -1      3130 7.85538E+01-9.46229E-01 1.59871E-01 3.85638E+00-1.49539E-01-1.10729E-01
 -1      3131-1.28964E+02-9.37461E-01 1.10398E-01 1.14882E+01 5.79425E-02-7.50454E-02
 -1      3132-1.28539E+02-8.52481E-01-8.86213E-02 1.12620E+01-1.04636E-01-8.79683E-02
 -1      3133-1.28062E+02-1.03328E+00 4.60275E-02 1.03191E+01-4.56253E-02 1.68171E-02
 -1      3134-4.80131E+02-5.57938E-01 1.31959E-02 4.80343E+00-8.69472E-02-3.28643E-01
 -1      3135-3.89437E+02-1.74542E-01 7.69681E-03 6.65212E+00 1.57170E-01-3.08034E-01
 -1      3136-2.66565E+02-9.30381E-01-1.67976E-01 1.24885E+01 6.54063E-02 1.90484E-01
 -1      3137-2.66520E+02-1.19784E+00-2.06773E-01 1.14991E+01 1.67140E-01 3.22366E-01
 -1      3138-2.08421E+02-7.95276E-01-1.03780E-01 1.13554E+01-7.10318E-02-6.05108E-02
 -1      3139-7.40568E+01 3.14239E-01 1.54562E-01 7.55233E+00 6.99404E-02 4.91653E-01
 -1      3140-3.22995E+02-3.10032E-01 1.33554E-01 7.50287E+00-5.22408E-02 4.41779E-01
 -1      3141-5.11271E+02-6.65472E-01 1.82854E-01 3.47906E+00-8.44660E-02-2.62821E-01
 -1      3142-2.83224E+02-7.36173E-01 9.83743E-01 2.00712E+00-8.26274E-01 1.48835E+00
 -1      3143-1.33564E+02-6.82280E-01 8.96037E-02 1.24872E+01-5.99915E-04 1.59463E-01
 -1      3144-1.34177E+02-8.84938E-01-7.78988E-04 1.15535E+01-9.13928E-02 2.80289E-01
 -1      3145-1.92153E+02-1.19638E+00-6.67567E-02 1.13726E+01 1.18940E-01-7.38465E-02
 -1      3146 1.10829E+02-4.04866E-01 2.02965E-01 3.54075E+00 1.50770E-01 2.45359E-01
 -1      3147-2.69291E+02-1.22040E+00-8.77998E-02 9.95115E+00-9.12556E-02 1.59367E-01
 -1      3148-4.22894E+02-4.86037E-01 1.33238E-01 5.59004E+00-6.91127E-02 1.15161E-02
 -1      3149-3.26319E+02-1.31323E+00-2.19184E-01 1.00866E+01 1.71805E-01-8.62690E-02
 -1      3150 2.33435E+01-4.99316E-01 1.35824E-02 5.64019E+00 1.28290E-01-1.91927E-03
 -1      3151-7.42125E+01-5.50455E-01 2.24842E-02 1.01727E+01-1.43639E-01-8.79266E-02
 -1      3152 1.56963E+02 1.36323E+00 3.02003E+01-5.44835E+00 1.12653E+00 2.43381E-01
 -1      3153 1.54716E+02-6.03447E+00 2.75512E+01-9.37793E+00-8.32230E-01-6.21179E+00
 -1      3154 1.19196E+02-8.15449E+00 1.39812E+01 2.34160E+00 2.18516E+00 5.51224E-01
 -1      3155 1.19338E+02-8.01190E+00 1.33055E+01 2.48243E+00 3.22561E+00-3.92874E+00
 -1      3156 2.06481E+01 5.80110E-01 8.25833E+00-5.01484E+00 1.68197E+00-4.80382E-01
 -1      3157-5.12850E+02-9.00016E-01 1.73783E-01 3.40886E+00 7.87372E-02 2.44898E-01
 -1      3158 7.96516E+01-6.12607E-01 3.47716E-02 4.82250E+00-1.04481E-01-3.58973E-01
 -1      3159-4.97486E+02-1.29236E+00 5.88609E-01 1.81342E+00 1.03231E-02 8.23678E-01
 -1      3160-5.07624E+02-5.80936E-01 1.12678E+00 8.48540E-01-2.90442E-01 1.77505E+00
 -1      3161 1.11499E+02-7.00837E-01 9.46874E-02 3.48968E+00-1.42317E-01-2.60712E-01
 -1      3162-1.77047E+02 6.14341E-01 1.78283E-01 1.53505E+01-7.59435E-02 3.77993E-01
 -1      3163-1.66861E+02-6.53444E-01-1.36418E-01 1.50712E+01-2.45033E-02-6.24115E-03
 -1      3164-1.71008E+02-8.38107E-01-2.29581E-01 1.53172E+01 6.52029E-02 3.07269E-01
 -1      3165-1.40070E+02 3.25936E-01 3.58727E-01 9.89157E+00 2.06401E-01 3.07622E-01
 -1      3166-2.15820E+01-4.31275E-01-1.04273E-01 6.76777E+00-3.93034E-02 3.76707E-01
 -1      3167-1.35584E+02-2.65678E-02 7.93349E-02 1.32045E+01 2.45120E-02 3.03213E-01
 -1      3168-5.49672E+01-6.99526E-01-2.73175E-01 8.45983E+00-5.87854E-02 3.22095E-01
 -1      3169-5.24610E+00-4.43732E-02 1.90248E-01 6.12405E+00 2.31783E-02 9.25847E-02
 -1      3170-1.22206E+02-1.06293E+00-8.30008E-02 1.25573E+01 9.77742E-02 3.18827E-01
 -1      3171-8.79483E+01-5.72459E-01-1.22164E-01 1.15372E+01 3.33249E-02 3.42757E-01
 -1      3172-3.87002E+02-1.16973E+00 9.43681E-01 1.38562E+00 4.87486E-01-1.36953E+00
 -1      3173-3.91117E+02-1.69271E+00 2.22202E-03 2.45344E+00 4.35874E-03-4.17912E-01
 -1      3174-4.39097E+02-7.24627E-01-3.14839E-02 5.90600E+00-3.03354E-03-3.94742E-01
 -1      3175 3.91368E+01-1.46577E-01-1.45521E-02 5.91690E+00-1.28588E-01-3.36337E-01
 -1      3176-1.67357E+02-2.75633E-01 9.90098E-02 1.60847E+01 8.18668E-02 6.48984E-02
 -1      3177-2.33593E+02-3.70180E-01 6.87618E-02 1.57466E+01 6.47486E-02-1.82592E-01
 -1      3178-2.31080E+02-2.24864E-01-1.41633E-01 1.60568E+01-6.75050E-02 9.76579E-02
 -1      3179-1.64742E+02-6.61573E-02-9.33958E-02 1.57499E+01-7.89216E-02-1.68332E-01
 -1      3180-7.72293E+01-1.95801E-01 1.03869E-01 7.60289E+00-5.65237E-02 3.57470E-01
 -1      3181-7.75591E+01 4.40243E-02 1.16837E-01 6.99850E+00 1.52656E-01-3.41279E-01
 -1      3182-3.20995E+02-1.06811E-01-7.66481E-02 7.55166E+00 6.20699E-02 3.66453E-01
 -1      3183-3.20576E+02-2.82986E-01-7.23618E-02 6.97075E+00-1.66795E-01-3.44456E-01
 -1      3184 7.98141E+01-1.94128E-01 1.91581E-01 4.84685E+00 1.21296E-01 3.41223E-01
 -1      3185-1.41253E+02-8.95164E-01 5.79714E-02 1.23823E+01-1.16134E-01-5.80683E-02
 -1      3186-2.66617E+02-9.88550E-01 1.61305E-02 1.22780E+01-4.64084E-02 1.73330E-01
 -1      3187-2.58796E+02-9.23452E-01-1.55133E-01 1.23939E+01 4.50669E-02-8.05211E-02
 -1      3188-1.33378E+02-7.12604E-01-1.36463E-01 1.23182E+01 7.66346E-02 1.11342E-01
 -1      3189-1.64287E+02-2.35112E-01 9.48385E-02 9.52629E+00 6.08642E-02 1.71956E-01
 -1      3190-1.93418E+02 2.41196E-01 1.44581E-01 1.66273E+01-1.02819E-01 3.31898E-01
 -1      3191-1.50473E+02 1.62138E-01-6.17626E-02 7.84059E+00 2.11412E-01-2.56628E-01
 -1      3192-1.83604E+02-4.44742E-01 1.14627E-01 1.58297E+01 2.91004E-02 4.72922E-01
 -1      3193-1.79246E+02-7.07592E-02-1.45826E-01 1.54398E+01-4.30162E-02 1.42736E-01
 -1      3194-4.81372E+02-8.35232E-01 1.83853E-02 4.72769E+00 4.71847E-02 3.54136E-01
 -1      3195-4.24331E+02-5.92006E-01-1.63797E-02 5.82030E+00-5.96995E-02-2.80139E-01
 -1      3196-4.29492E+02-6.68998E-01 2.13847E-04 5.47376E+00 1.46057E-01 2.95950E-01
 -1      3197-5.10653E+02-7.28493E-01 1.01280E+00 7.25101E-01-4.53316E-01 1.02443E+00
 -1      3198 2.45703E+01-5.80559E-01 1.24800E-01 5.83822E+00 1.91195E-03-2.89504E-01
 -1      3199 2.99464E+01-3.58477E-01 1.29258E-01 5.50474E+00-1.02497E-01 2.75357E-01
 -1      3200 1.27176E+02-7.51598E-01 1.36695E-01 2.31667E+00 1.42824E-01 2.06955E-01
 -1      3201 1.03691E+02-1.06164E+00 2.12013E-02 2.48535E+00 1.45145E-01 2.03026E-01
 -1      3202-2.08799E+02-5.85395E-01-4.09048E-02 1.46707E+01 8.85520E-02 3.66784E-01
 -1      3203-2.15994E+02-5.04110E-01-5.07414E-02 1.42772E+01 9.79768E-02 3.01172E-01
 -1      3204-5.28859E+02-3.54652E+00-1.50446E+01 2.27826E+00-7.33159E-01-9.54871E-01
 -1      3205-4.47656E+02-1.77740E+00-1.79326E+00 3.99234E+00 2.45234E-01-2.89575E-01
 -1      3206-5.13184E+02 3.41655E-02 1.16903E+00-3.71284E-01-4.29503E-01 1.58707E+00
 -1      3207-1.98735E+02 1.07696E+00-5.91131E-02 1.64048E+01 9.44096E-01-9.55287E-02
 -1      3208-1.98143E+02-3.58923E+00-3.24385E-01 1.61412E+01 1.15609E+00-8.58294E-02
 -1      3209-1.98099E+02 6.10036E-01-4.50699E-02 1.56259E+01 8.11332E-01-5.66810E-02
 -1      3210-1.96168E+02-2.50066E+00-2.34247E-01 1.48286E+01 7.53876E-01-5.49522E-03
 -1      3211-1.95130E+02 3.51830E-01-1.41806E-01 1.71183E+01 5.01510E-01-1.58500E-01
 -1      3212-9.15000E+01-2.22209E+00-1.12678E-01 4.12726E+00 2.21097E-01 7.40993E-02
 -1      3213-6.78909E+01-1.95917E+00-1.04603E-01 4.03088E+00 1.75386E-01-1.82716E-02
 -1      3214-9.30365E+01-1.87853E+00-1.67305E-01 4.64427E+00 1.04529E-01 8.50436E-02
 -1      3215-4.50131E+02-5.37515E+00-1.91248E+01 4.48742E+00 2.66314E-01-9.57586E-02
 -1      3216-5.36185E+02-8.34190E+00-3.31340E+01 5.56083E+00 1.68355E+00 5.02648E+00
 -1      3217-5.32081E+02-3.68543E+00-1.55546E+01 2.05012E+00 5.62455E-01 1.72025E+00
 -1      3218-1.99499E+02 2.42568E+00-4.44743E-02 1.60831E+01 1.11823E+00 1.12744E-01
 -1      3219-2.01340E+02 1.70708E+00 2.31195E-01 1.47977E+01 7.78850E-01-2.52488E-02
 -1      3220-2.00172E+02 8.05223E-02 2.92257E-01 1.79981E+01 4.55276E-01 9.29566E-02
 -1      3221-2.03036E+02-7.97315E-01 5.02111E-02 1.67447E+01 5.18648E-01 3.40165E-01
 -1      3222-5.31011E+02-6.38098E+00-3.32421E+01 4.03996E+00-1.86260E+00-3.38386E+00
 -1      3223-2.13459E+02-1.35391E-01 1.96433E-01 1.04995E+01 3.16755E-01-1.18176E-02
 -1      3224-2.18497E+02 2.87181E-01 2.50485E-01 1.05192E+01 1.81017E-01 6.66792E-02
 -1      3225-2.14143E+02-2.70799E-03 4.53170E-01 7.82216E+00-1.13325E-02 6.24879E-02
 -1      3226-2.21608E+02-2.98767E-01-6.53688E-02 8.00983E+00 1.67763E-01-3.20449E-01
 -1      3227-1.92966E+02-7.21413E-01-3.67858E-01 1.62319E+01-1.29656E-01-4.36778E-01
 -1      3228-1.69586E+02 5.10672E-01-1.16561E-01 8.47051E+00-1.67365E-02-9.92127E-02
 -1      3229-1.86730E+02 5.44768E-01 1.51238E-01 1.50469E+01 8.51221E-02-1.03267E-01
 -1      3230-1.99770E+02-6.41532E-01-6.48080E-02 1.48682E+01-1.00149E-01-9.14906E-02
 -1      3231-2.45022E+02-2.60240E-01 1.13142E-01 1.46633E+01 8.81125E-02-1.36244E-01
 -1      3232-1.90274E+02-2.01842E+00-1.84793E-01 6.50689E+00 2.26350E-02-1.76866E-02
 -1      3233-6.27279E+01-1.76144E+00-3.52307E-01 6.18075E+00-9.23605E-02 2.68233E-02
 -1      3234-1.14661E+02-8.56637E+00-1.21279E+00 1.18964E+00 4.93531E+00-1.47923E+00
 -1      3235-2.14441E+02-1.12593E+00-6.08973E-01 4.08395E+00 4.22957E+00-1.94447E+00
 -1      3236-1.23168E+02-7.18474E-01 5.89256E-01 1.77610E+00 2.23861E+00-1.38528E+00
 -1      3237-2.15856E+02-8.08571E+00-4.08936E+00 3.69523E+00 4.64933E+00-8.03589E-01
 -1      3238-2.97638E+02-5.28255E+00-5.98835E+00 1.84578E+00 3.05359E+00-3.97519E-01
 -1      3239-3.01814E+02-1.71856E+01-1.16860E+01 1.59205E+00 4.39783E+00 3.51285E+00
 -1      3240-1.42332E+02 5.74769E-01 3.28874E-01 7.94541E+00-2.45460E-01 2.31794E-01
 -1      3241-2.56580E+01 1.41697E-01 2.35445E-01 6.83012E+00-1.19013E-01 2.26631E-01
 -1      3242-1.51274E+02-9.47594E-01 1.04010E-01 1.36777E+01-8.75074E-02 3.19349E-01
 -1      3243-3.25903E+01-7.84171E-02-1.14588E-02 6.82525E+00 2.32073E-01-2.47314E-01
 -1      3244 1.11268E+01-4.09716E-01 1.58928E-01 5.94677E+00-1.45042E-01-2.41706E-01
 -1      3245-1.36027E+02-3.54551E-01-1.88262E-01 1.24464E+01 1.40433E-01 3.66854E-01
 -1      3246 4.40069E+00-7.90691E-01-1.93351E-01 6.11782E+00 1.66718E-01 1.79377E-01
 -1      3247-1.75250E+02 5.80691E-02 1.42036E-02 1.61283E+01 6.49999E-02 8.23861E-02
 -1      3248-1.75336E+02 4.09035E-01 2.58133E-01 1.67211E+01-9.71463E-02 1.76955E-01
 -1      3249-1.75495E+02 5.21188E-01-2.49330E-02 1.52942E+01-3.67595E-02 4.55782E-01
 -1      3250-1.16597E+02-4.43940E-01-8.54292E-02 7.76069E+00 1.30971E-01 1.75749E-01
 -1      3251-1.08414E+02-2.23676E-01-7.71026E-02 7.78567E+00-1.63499E-01-2.81367E-01
 -1      3252-1.35647E+02-4.26010E-01 5.54625E-02 1.31794E+01 6.75861E-02 1.63184E-01
 -1      3253-1.35954E+02-2.65160E-01 1.50528E-01 1.36409E+01-5.42187E-03 1.88858E-01
 -1      3254-1.51216E+02-7.41479E-01-2.39640E-01 1.45885E+01 9.13577E-02 1.64720E-01
 -1      3255-1.51347E+02-6.26667E-01-1.04992E-01 1.45206E+01 8.29357E-04 9.30050E-02
 -1      3256-1.90707E+02-3.36307E-01 3.18653E-02 1.70800E+01-8.87323E-02-7.71803E-02
 -1      3257-1.47357E+02 1.85310E-01-1.26124E-01 7.91826E+00-8.10387E-02-4.85227E-01
 -1      3258-3.64234E+02-9.56426E-02 1.11179E-01 6.75161E+00-1.20969E-01 2.71657E-03
 -1      3259-2.95985E+02-7.59965E-01-3.15461E-01 1.19537E+01 1.76283E-01-5.77170E-02
 -1      3260-2.37340E+02-2.44173E-01 3.43386E-02 1.03915E+01-3.98025E-01-1.06931E-01
 -1      3261-2.30689E+02-2.14590E-01-4.40406E-02 1.04802E+01-1.50320E-01-2.36643E-01
 -1      3262-2.41557E+02 1.77658E-01 5.47098E-03 7.81981E+00 2.02016E-01 9.33224E-03
 -1      3263-2.11554E+02-1.67472E-01 3.34816E-01 1.54059E+01-1.13756E-01-6.06745E-01
 -1      3264-2.50035E+02-8.21735E-03 8.13994E-02 7.84163E+00-1.00733E-01 1.68819E-01
 -1      3265-1.13377E+02-1.07598E+01-2.03596E+00-1.14963E+00 5.07605E+00-1.26832E-01
 -1      3266-1.76704E+02-4.20383E-01-6.49343E-03 1.64917E+01 2.27241E-02 7.59300E-02
 -1      3267-1.78104E+02-5.48025E-01-3.54636E-01 1.54337E+01-5.30540E-02 2.66085E-01
 -1      3268-1.53098E+02-6.26461E-02 4.81548E-02 1.41765E+01 1.89627E-02 1.05873E-01
 -1      3269-1.06766E+02 2.76309E-01 2.45680E-01 8.20334E+00-2.68283E-02 1.26139E-01
 -1      3270 4.50531E+01-1.27145E+00 1.88813E-01 2.79742E+00 2.16538E-01 1.31020E-01
 -1      3271-1.61063E+02-2.34115E-01 3.24567E-02 9.67941E+00 2.04294E-01 4.96418E-01
 -1      3272-1.47299E+02 3.71593E-01 5.41363E-02 7.69748E+00-5.76822E-03 5.72144E-01
 -1      3273 1.36592E+02-4.19668E-01 4.76508E-01 1.78076E+00-2.98331E-01-4.73528E-02
 -1      3274-1.15114E+02-1.29613E+00-2.20785E-02 3.12386E+00 5.26068E-01-4.19070E-01
 -1      3275-1.15139E+02-1.45746E+00 2.35636E-03 3.82766E+00 2.83942E-01-1.03464E-01
 -1      3276-1.16505E+02-1.83846E+00 1.24154E-01 4.13535E+00 3.60175E-01-1.15202E-01
 -1      3277-1.17035E+02-1.89696E+00-1.56673E-01 5.48065E+00 1.40792E-01 7.45418E-02
 -1      3278 1.11796E+02-1.04430E+00 1.18934E+00 2.38085E+00 1.88749E-01-2.22848E-01
 -1      3279 1.09728E+02-1.09267E+00 5.06940E-01 2.09571E+00 1.82111E-01 1.28104E-02
 -1      3280 1.02445E+02-8.42040E-01 2.46398E-01 2.61680E+00-2.09497E-02 8.83659E-02
 -1      3281-5.30333E+02-5.21933E+00-1.55564E+01 2.85110E+00-1.55503E+00-3.94711E+00
 -1      3282-4.08477E+02-5.13645E+00-8.55017E+00 6.56266E-01-3.57549E+00 4.64178E-01
 -1      3283-5.29186E+02 9.78772E-01-2.82607E+00-6.11924E+00-2.25974E-01 2.01156E+00
 -1      3284-5.11789E+02-1.47657E+00-2.54672E+00-1.05894E+00-4.26558E-01 1.49009E+00
 -1      3285-3.91933E+02-1.66242E+00-1.80857E-01-2.72481E+00-4.36025E-01 3.52893E+00
 -1      3286-2.15039E+02-2.72204E-01 3.08513E-01 7.42219E+00 2.92358E-02-1.51446E-01
 -1      3287-2.06116E+02-7.31633E-02-1.65743E-01 1.64910E+01 3.01874E-01-5.88013E-01
 -1      3288-2.20076E+02-4.03775E-01 9.06520E-02 8.31175E+00 1.81874E-02-3.44997E-02
 -1      3289-2.09497E+02-5.65148E-01 1.33838E-02 1.51721E+01-2.26267E-01-2.16034E-01
 -1      3290-2.16428E+02-1.25481E-01 3.84191E-01 7.72127E+00 4.52747E-02 5.02135E-01
 -1      3291-2.20424E+02-1.67918E-01 1.44637E-01 7.60423E+00-4.19182E-02 4.72111E-01
 -1      3292-2.25556E+02-2.80355E-01 1.02479E-01 7.45954E+00 9.95808E-02 4.61305E-01
 -1      3293-1.80910E+02 1.32112E-01-3.33244E-01 7.61375E+00-2.67822E-03 5.08644E-01
 -1      3294-1.76360E+02 2.75502E-01-2.62710E-02 9.50103E+00-7.69325E-02 4.58067E-01
 -1      3295 1.54814E+02-3.20523E+00 2.94310E+01-9.25265E+00-1.00632E+00 5.78045E+00
 -1      3296 2.02324E+01 1.49889E+00 7.46055E+00-5.13978E+00-2.94523E+00 1.24627E-01
 -1      3297 1.20191E+02-8.87488E+00 1.47084E+01 3.36988E+00-3.13259E+00 3.11172E+00
 -1      3298 2.13960E+01-1.01644E+00 5.22640E+00-2.81192E+00-7.20970E-01-6.20321E-01
 -1      3299-1.96054E+02-2.12156E+00-5.33017E-01 1.45147E+01 1.56288E-02-8.74516E-02
 -1      3300-1.95946E+02-1.46380E+00-5.43013E-01 1.47052E+01-5.23025E-01 3.70771E-01
 -1      3301-3.77599E+02-3.20905E-01 1.15848E-01 6.75275E+00-4.35367E-02-4.89223E-01
 -1      3302-3.27102E+02-5.20083E+01-6.06344E+01 9.31377E+00-3.31866E+00-1.15169E+01
 -1      3303-4.08658E+02-1.20706E+01-3.43158E+01 1.82839E+01 2.46379E-01-4.51791E-01
 -1      3304 9.63269E+01-8.22607E-01 4.09475E+00 4.44635E+00-6.24450E-01 3.18630E-01
 -1      3305-1.47594E+02-1.28735E+00 2.58131E-01 8.27600E+00-9.79127E-01 1.73151E-01
 -1      3306-4.74708E+01-6.61480E+00-3.48242E-01 6.20545E+00-4.41987E+00 7.42891E-01
 -1      3307-1.96674E+02-2.49827E-01-1.18442E-01 1.52130E+01 4.25813E-01-2.83684E-01
 -1      3308-1.15146E+02-1.22421E-01 7.89568E-02 7.87138E+00-5.84072E-02-6.24515E-01
 -1      3309-1.07716E+02 8.23389E-02 1.88905E-02 7.78173E+00 5.44126E-02-4.10329E-01
 -1      3310-2.82670E+02-1.25679E-02-7.50091E-02 7.85944E+00 4.82085E-02-6.86771E-01
 -1      3311-2.90230E+02-2.66318E-01-3.78729E-03 7.78648E+00-6.11837E-02-4.78371E-01
 -1      3312-2.50161E+02-7.47904E-02 1.22777E-01 1.45706E+01 7.43538E-02-2.27312E-01
 -1      3313-2.56561E+02-2.82877E-01-2.60246E-02 1.43066E+01-6.42394E-02-2.74870E-01
 -1      3314-1.47740E+02-1.52625E-01-1.20333E-01 1.45616E+01-9.79347E-02-1.91826E-01
 -1      3315-1.41494E+02 6.80239E-03 2.19916E-02 1.42786E+01 2.79331E-02-2.63523E-01
 -1      3316-1.33343E+02-1.03969E+00 4.71599E-01 2.01816E+00-2.51922E+00 1.49212E+00
 -1      3317-1.99440E+02 2.47038E+00 2.59944E-02 1.60544E+01-1.02641E+00-1.10429E-01
 -1      3318-1.98780E+02 1.01797E+00-2.18529E-02 1.63601E+01-9.26684E-01 8.93460E-02
 -1      3319-2.00101E+02 1.04445E-01 2.74585E-01 1.79530E+01-4.55902E-01-4.55470E-02
 -1      3320-2.01367E+02 1.87831E+00 2.69472E-01 1.47057E+01-6.28137E-01-2.90347E-02
 -1      3321-2.03019E+02-7.75032E-01-8.24571E-03 1.67281E+01-4.57533E-01-3.37316E-01
 -1      3322 1.20828E+02-4.93092E+00 5.35927E+00 2.50529E+00 3.79902E+00-2.98077E+00
 -1      3323-3.54824E+00-1.04634E+01-1.16853E+00-1.07070E+00 5.50340E+00 6.08586E-01
 -1      3324 1.40474E+02-2.61939E+00 3.08646E+00-2.79829E+00 2.53297E+00-1.65102E+00
 -1      3325 1.06746E+02-9.13018E-01 3.33791E+00 3.05620E+00 1.97132E+00-2.21181E+00
 -1      3326-1.39530E+01-1.86457E+00 7.14662E-01 8.74487E-01 2.41085E+00-6.21937E-01
 -1      3327-1.84368E+02-1.05524E-01-1.90287E-01 1.69059E+01-9.22632E-02 1.76075E-01
 -1      3328-1.98681E+02-4.18124E-02 1.07540E-01 1.71262E+01-9.72415E-02-8.04854E-02
 -1      3329-2.12395E+02-2.55679E-01-1.97279E-01 1.68305E+01-1.22005E-01-1.64229E-01
 -1      3330-1.97830E+02-1.45454E-01-1.44523E-01 1.54241E+01 8.17538E-02-9.30256E-03
 -1      3331-1.83318E+02-2.40341E-01 3.21267E-02 1.70848E+01-3.85246E-02 1.39152E-01
 -1      3332-2.12512E+02 6.74985E-02 8.66696E-02 1.67543E+01 1.63103E-01-1.42298E-01
 -1      3333-2.02538E+02 6.94222E-03 1.62282E-01 1.77752E+01-2.42308E-01-9.52223E-02
 -1      3334-1.98125E+02 1.94706E-01 4.99558E-02 1.68046E+01-4.14170E-01 6.08231E-02
 -1      3335-4.31520E+01-3.43793E-01 1.76505E-01 7.25337E+00 1.10859E-01 1.07109E-02
 -1      3336-1.58388E+02-1.11735E-01 8.56573E-02 1.38293E+01 2.56508E-02 3.73900E-01
 -1      3337-1.10202E+02-4.81061E-01-1.60228E-01 1.26328E+01 2.49563E-02 8.98925E-02
 -1      3338-1.47260E+02-1.09609E+00-3.04270E-01 1.23007E+01 3.31439E-02 4.18327E-01
 -1      3339 3.21812E+00-2.46143E-01-8.17672E-02 6.39583E+00-3.13805E-02-2.33780E-02
 -1      3340-8.26552E+01-5.69547E-01 5.66615E-02 1.11822E+01 1.11706E-01 8.36171E-02
 -1      3341-1.59344E+02-2.48015E-01-1.25541E-01 1.49288E+01-3.13186E-02 6.83715E-02
 -1      3342-1.45903E+02-8.57893E-01 6.81057E-02 1.31462E+01 1.01018E-01 1.17617E-01
 -1      3343-3.70830E+02-4.54948E-01-2.88127E-02 6.90151E+00-8.18293E-03-1.52362E-01
 -1      3344-3.72547E+02-5.72406E-01-6.46811E-02 6.56337E+00 1.41180E-01 1.52325E-01
 -1      3345-5.14322E+02-2.73580E+01-1.01178E+02 1.48149E+01-2.12054E+00 2.22016E+01
 -1      3346-5.30741E+02-5.22549E+01-1.16481E+02 2.80125E+01 1.73230E+00 1.84235E+00
 -1      3347-5.40516E+02-9.36558E+00-4.83408E+01 1.11427E+01 2.63864E+00 1.45747E+01
 -1      3348-5.38949E+02-9.38884E+00-5.81627E+01 1.46448E+01 1.80010E+00 7.57577E-01
 -1      3349-4.08809E+02-7.84093E+01-8.85614E+01 2.50709E+01 1.25938E+00 1.71486E+01
 -1      3350-1.88706E+02 6.47262E-01 1.85849E-02 1.47938E+01-6.57000E-02 4.15899E-01
 -1      3351-1.76398E+02 2.91594E-01 4.32804E-03 7.64202E+00-1.23522E-02 4.32354E-01
 -1      3352-1.85989E+02 2.66925E-01 9.26628E-02 1.59484E+01-1.60672E-01 2.37881E-01
 -1      3353-9.14263E+01-3.61440E+01-1.37106E+01-2.58158E+01 2.73484E+00 7.57084E+00
 -1      3354-1.99292E+02-3.39094E+01-1.51036E+01-2.07013E+01-4.19037E-01 1.27504E+01
 -1      3355-3.67441E+02-2.87520E+01-1.72709E+01 3.98886E+00 6.63143E+00 9.36018E+00
 -1      3356-2.45713E+02-4.01512E+01-3.56341E+01-3.09454E+00 5.72081E+00 1.56859E+01
 -1      3357-2.46011E+02-2.40606E+01-1.08071E+01-2.42310E+00 5.42968E+00 8.90170E+00
 -1      3358-5.06187E+02 3.76271E-02 8.25876E-01-1.22406E-01 6.05942E-01-1.66162E+00
 -1      3359-2.93662E+02-3.09925E+00-7.21788E-02 6.12229E+00 1.57178E+00-1.71668E+00
 -1      3360-3.78258E+02-4.50833E+00-6.72954E+00 4.80105E+00 1.75685E+00-2.91602E-01
 -1      3361-1.92658E+02-4.02164E+00-1.78909E+00 6.50841E+00 2.58140E-02 1.30214E-01
 -1      3362-1.92245E+02-4.18531E+00-1.58577E+00 6.28270E+00 1.76321E-01-3.49252E-01
 -1      3363-1.88202E+02 5.16933E-01-4.86261E-01 8.04262E+00 1.25962E-02 5.87517E-02
 -1      3364-1.87747E+02 3.84432E-01-4.80946E-01 7.68835E+00 2.09294E-02-4.90836E-01
 -1      3365-1.95692E+02-4.02545E+00-1.44151E+00 1.35696E+01 2.67467E-01-1.53748E-01
 -1      3366-2.75018E+02 8.17390E-01 1.51340E+00-2.96521E-03 2.35872E+00-2.97371E+00
 -1      3367-2.01014E+02-2.74794E-02-5.97367E-02 1.58188E+01-1.18209E-02 8.94005E-03
 -1      3368-2.72507E+02-2.00774E+00-2.39508E-02 4.82479E+00-4.92287E-05 3.62527E-02
 -1      3369-1.24495E+02-1.88460E+00-9.04686E-02 4.97237E+00-1.55810E-01-9.24006E-03
 -1      3370-1.95800E+02-2.25800E+00-3.36405E-01 4.94005E+00-4.03283E-02-1.37877E-02
 -1      3371-1.94657E+02-2.20621E+00-7.92058E-02 4.22258E+00-8.72799E-02 5.29486E-02
 -1      3372-4.59982E+01-1.88401E+00-1.35142E-01 4.15013E+00-2.31265E-01-5.03811E-02
 -1      3373-1.23390E+02-1.86155E+00-4.94433E-02 4.36933E+00-1.16841E-01 3.11358E-02
 -1      3374-1.94599E+02 1.58003E-01-2.77979E-01 1.76307E+01-1.18745E-02-1.54072E-01
 -1      3375-2.62511E+02 2.04836E-01-9.76695E-02 8.13511E+00 1.18476E-01 2.72084E-01
 -1      3376-2.27539E+02-4.38685E-02 2.15626E-01 1.46224E+01 1.37126E-02-4.82044E-02
 -1      3377-2.62859E+02 7.08424E-02-2.61101E-01 8.01217E+00-4.35649E-02-1.66523E-01
 -1      3378-2.69856E+02-5.12763E-02 7.65873E-02 7.92281E+00 7.55764E-02-4.03733E-02
 -1      3379-2.34342E+02-1.77303E-01-1.99421E-01 1.46664E+01 4.43368E-02-2.60330E-01
 -1      3380-2.33266E+02-8.57370E-03-9.67052E-03 1.46237E+01 1.51154E-01-2.10468E-01
 -1      3381-2.13297E+02-2.14920E-01 1.29981E-02 1.68114E+01-4.78763E-02 7.98312E-02
 -1      3382-1.83757E+02 1.30483E-01 1.15731E-01 1.66669E+01-7.01823E-02-6.96020E-02
 -1      3383-1.99133E+02-3.17593E-01-2.81609E-01 1.58529E+01 7.48514E-02 1.77426E-02
 -1      3384-1.95168E+02-5.64546E-01-4.09616E-02 1.52966E+01 1.42752E-02-6.47465E-02
 -1      3385-1.63702E+02 2.43075E-01 2.49284E-01 1.45456E+01-2.91513E-02-2.35625E-01
 -1      3386-1.79436E+02-2.86813E-01 2.16416E-02 1.66400E+01 1.46256E-01-1.32351E-01
 -1      3387-3.44925E+02-2.35889E+00-1.42698E-01 4.06782E+00 3.27583E-02 2.16380E-01
 -1      3388-2.73871E+02-1.98789E+00 1.29670E-02 4.33987E+00-4.61203E-02 1.56679E-01
 -1      3389-1.95954E+02-2.25249E+00-1.24542E-01 3.87905E+00-1.63721E-01 1.68814E-01
 -1      3390-2.27192E+02-2.14391E+00-2.06167E-01 5.92468E+00-4.48333E-02 1.90715E-02
 -1      3391-2.81911E+02-3.44361E-01-1.49213E-01 1.23985E+01-5.24873E-02 6.47772E-02
 -1      3392-2.54843E+02 1.19111E-01 1.17394E-01 1.33634E+01 1.87141E-01-1.11511E-01
 -1      3393-1.88638E+02-1.70143E-01 1.61978E-02 1.48584E+01-1.21782E-01 4.62267E-03
 -1      3394-2.09626E+02-4.13743E-01-7.57787E-02 1.48846E+01 7.75752E-02-3.04205E-02
 -1      3395-1.43373E+02-4.44092E-01-1.08400E-01 1.33921E+01-1.19483E-01-8.15799E-02
 -1      3396-2.14352E+02-8.28110E-01-1.41535E-01 1.37931E+01-1.49749E-01 1.02817E-02
 -1      3397-1.99330E+02-3.41673E+01-1.45804E+01-2.11560E+01 6.75365E-01-1.31664E+01
 -1      3398-9.08455E+01-3.59653E+01-1.33189E+01-2.62791E+01-2.60833E+00-7.50659E+00
 -1      3399-2.42821E+02-2.41811E+01-1.09554E+01-2.00176E+00-5.52118E+00-8.93278E+00
 -1      3400-2.42003E+02-3.87334E+01-3.40400E+01-3.09229E+00-5.31225E+00-1.54097E+01
 -1      3401-3.64279E+02-2.81999E+01-1.70138E+01 4.51088E+00-6.77273E+00-9.43484E+00
 -1      3402-2.67396E+02-1.40791E-01 4.25807E-01 7.92845E+00-3.59313E-02 1.93925E-01
 -1      3403-2.30997E+02 1.41421E-01-1.46911E-02 1.46591E+01 6.05371E-02 1.59422E-01
 -1      3404-2.37695E+02 2.96467E-02-8.06142E-02 1.44876E+01-6.80001E-02-4.66313E-02
 -1      3405-2.16986E+02 5.74159E-02-5.90657E-04 1.67004E+01 1.32124E-02 1.15810E-02
 -1      3406-1.98442E+02-1.95174E-01-5.35188E-01 1.55674E+01-1.80619E-01 9.40790E-02
 -1      3407-2.19483E+02-1.04472E+00-1.34048E-01 1.18673E+01-7.97237E-02 2.74472E-02
 -1      3408-2.17929E+02-2.02868E+00 7.36154E-01 3.56580E+00-1.00081E+00 1.62297E+00
 -1      3409-1.86084E+02-7.22684E-02 2.22887E-02 1.63824E+01 2.16974E-02-5.74359E-02
 -1      3410-3.54935E+02-1.96610E+00-1.94260E-01 5.28786E+00-6.39411E-02-2.30124E-02
 -1      3411-1.44395E+02 2.24225E-01 1.47930E-01 1.45296E+01-1.62589E-01 3.47343E-01
 -1      3412-1.44604E+02-2.18210E-01 6.18852E-02 1.42109E+01 1.33226E-01 2.93151E-01
 -1      3413-1.10138E+02 2.40939E-01 4.32381E-02 8.14658E+00-1.92626E-01 5.21574E-01
 -1      3414-1.11570E+02-2.88601E-01 6.80221E-03 7.48705E+00 3.69577E-02 5.31049E-01
 -1      3415-1.25831E+02-1.62667E+00 7.04940E-01 4.44048E+00 9.30865E-01-2.34582E-01
 -1      3416 1.03594E+02-5.94869E-01 1.85704E+00 3.02796E+00 7.64312E-01-1.12620E-01
 -1      3417-3.72008E+01-1.39012E+00 4.49906E-01 3.87037E+00 9.51601E-01-2.63473E-01
 -1      3418-8.85469E+01-1.01648E+00-1.57792E-01 1.06847E+01 1.46431E-01 7.78869E-02
 -1      3419-2.05220E+02 4.24314E+00 1.63351E+00 6.46126E+00 1.84217E-01 3.71433E-01
 -1      3420-2.04906E+02 4.10232E+00 1.81688E+00 6.70136E+00 1.05059E-02-1.16870E-01
 -1      3421-2.09711E+02-3.68276E-01 5.28684E-01 7.39975E+00 8.74446E-02 4.50935E-01
 -1      3422-2.09155E+02-3.49701E-01 6.22417E-01 7.75391E+00 2.71832E-02-6.60061E-03
 -1      3423-2.01883E+02 4.14263E+00 1.39560E+00 1.35371E+01 2.43529E-01 1.24160E-01
 -1      3424-4.94752E+02-1.27875E+00 4.99624E-01 1.98228E+00 2.27719E-02 1.41841E-01
 -1      3425-4.93074E+02-1.37358E+00 1.08134E-01 2.50796E+00 9.46176E-03 1.02166E-01
 -1      3426-5.01507E+02-1.35610E+00 3.65811E-01 1.91273E+00 1.40708E-02-1.36559E-01
 -1      3427-3.51642E+02-2.39106E+00-2.12452E-01 3.97981E+00 4.57249E-02-6.16684E-02
 -1      3428-3.52904E+02-2.15046E+00 1.25218E-01 3.45057E+00 2.23600E-02-1.68534E-02
 -1      3429-3.11720E+02-7.32760E-01 8.28229E-04 1.06136E+01-1.22517E-01 5.02915E-02
 -1      3430-1.80892E+02-8.44715E-01-3.46588E-02 1.18813E+01 9.78844E-02-2.13970E-02
 -1      3431-1.79399E+02-1.03234E+00-5.67361E-02 1.07326E+01-5.72504E-02 1.84595E-02
 -1      3432-3.22753E+02-1.10540E+00-5.27150E-02 9.74569E+00 6.11688E-02-3.77088E-02
 -1      3433-5.62882E+01-7.00435E-01 1.50761E+00 5.13513E+00 1.47410E-01-2.55819E-02
 -1      3434-1.24164E+02-1.26124E+00 2.31278E-01 3.08868E+00 1.07647E+00-8.50357E-01
 -1      3435-1.54947E+02-3.63348E-01 5.18041E-02 1.42930E+01-2.11738E-01-4.46125E-02
 -1      3436-1.97370E+02-3.65963E-01-5.28676E-02 1.29491E+01-8.73776E-02-3.90330E-02
 -1      3437-2.43962E+02-6.56265E-01-1.30961E-01 1.40393E+01 2.31257E-02 8.95403E-02
 -1      3438-1.51239E+02-7.12724E-01-1.30548E-01 1.41117E+01 3.99210E-02 9.04389E-04
 -1      3439-1.94070E+02-6.84364E-01 1.36713E-01 1.30256E+01-1.16044E-01-9.62921E-02
 -1      3440-1.06339E+02-9.01602E-01-2.36341E-01 1.22997E+01-6.58592E-02-1.45262E-01
 -1      3441-3.49547E+02-2.27823E+00-1.08662E-01 4.42329E+00-1.04457E-01-1.88211E-03
 -1      3442-4.99429E+02-1.15866E+00 1.50298E-01 2.41261E+00-9.82135E-02-1.08768E-01
 -1      3443-3.57940E+02-2.39997E+00-1.45249E-01 3.93951E+00 2.06117E-03-1.77258E-01
 -1      3444-1.97869E+02 6.43031E-01-8.17916E-02 1.53679E+01-7.14574E-01-7.33284E-02
 -1      3445-1.95427E+02-5.38382E-01-4.16798E-01 1.72686E+01-4.32623E-01 1.21790E-01
 -1      3446-2.95116E+02-6.21604E+01-2.75380E+01-1.37024E+01 9.26747E-01 2.32023E+01
 -1      3447-3.45993E+02-6.17421E+01-6.24881E+01 6.06905E+00 2.69792E+00 3.01007E+01
 -1      3448-6.97740E+01-4.21498E-01 5.58362E-02 7.38376E+00-1.72011E-01 1.09361E-01
 -1      3449-1.39359E+02-2.29093E-01-2.64629E-01 1.37497E+01-3.01216E-01 3.07548E-04
 -1      3450-7.40564E+01-8.00957E-02 1.79537E-01 7.93966E+00-6.66009E-02-2.80789E-02
 -1      3451-5.73691E+01-8.53425E-02 6.05763E-03 6.81762E+00 5.52573E-02 2.45818E-01
 -1      3452-1.28656E+02-2.81777E-01-8.97681E-02 1.33228E+01 1.15379E-02-3.20668E-02
 -1      3453-1.24008E+02-2.02564E-01-1.46229E-01 1.33677E+01 8.83453E-02 2.45312E-01
 -1      3454-2.27494E+02-3.78555E-01 7.41597E-02 1.58140E+01 6.54512E-02 2.37210E-02
 -1      3455-1.95930E+02-2.42714E-01-3.05404E-01 1.46193E+01-3.43618E-02 8.49210E-02
 -1      3456-1.66840E+02-2.09634E-01 3.68462E-03 1.56874E+01 2.20597E-01-2.13546E-02
 -1      3457-1.56563E+02-3.98506E-01 2.64857E-02 1.54522E+01-2.67205E-02 6.53210E-02
 -1      3458-1.86072E+02-4.87864E-01 3.95886E-02 1.41794E+01-1.75295E-01 6.26317E-03
 -1      3459-2.38654E+02 2.73352E-01 2.16314E-01 7.91297E+00 5.62911E-02-1.56717E-02
 -1      3460-2.21682E+02 6.12916E-02-2.18491E-01 1.37558E+01 2.22207E-01-1.74556E-01
 -1      3461-1.21203E+02-4.20115E-03 9.68274E-02 1.29160E+01 1.35089E-01 4.30723E-03
 -1      3462-1.85265E+02-6.06969E-01-4.10842E-02 1.43445E+01 4.11913E-02-1.42290E-01
 -1      3463-1.17364E+02-6.53097E-01 1.19945E-01 1.27166E+01 1.09876E-01-1.12623E-02
 -1      3464-2.11749E+02-1.48284E+00-2.88669E-01 1.01597E+01 1.33612E-01-1.12325E-01
 -1      3465-2.64677E+02-1.15417E+00-1.22092E-02 1.09131E+01-1.37251E-01-5.45982E-02
 -1      3466-1.45007E+02-1.17954E+00-3.80784E-02 1.11765E+01-1.49954E-02 2.58406E-02
 -1      3467-2.19764E+02-1.42614E+00-4.93446E-02 1.02991E+01 1.70839E-01-1.64498E-01
 -1      3468-2.72221E+02-1.14943E+00-2.54557E-02 1.12818E+01 3.29937E-02-8.65213E-02
 -1      3469-3.38381E+02-1.26012E+00-1.74993E-01 9.38686E+00-9.21480E-02-3.42507E-01
 -1      3470 4.36084E+01-4.58516E-01 5.58913E-02 5.11620E+00-2.00881E-01-7.04715E-02
 -1      3471-8.05182E+01-1.07446E+00 2.20357E-02 9.51612E+00-2.12865E-01-4.26806E-02
 -1      3472 3.30997E+01-6.52053E-01-1.51649E-02 5.44779E+00 4.60857E-02 9.49729E-02
 -1      3473 4.99091E+01-5.11277E-01 1.96813E-01 5.08477E+00-5.16254E-02-1.83534E-01
 -1      3474-7.30976E+01-1.10707E+00-7.06339E-02 9.53101E+00 3.30651E-02 7.06635E-03
 -1      3475-6.30007E+01-1.21667E+00-9.61615E-03 9.47405E+00-5.97725E-02-1.76550E-01
 -1      3476-1.89737E+02-1.39539E+00-2.51643E-02 1.01822E+01-9.64225E-02-3.74539E-02
 -1      3477-1.36389E+02-1.16456E+00-1.04550E-01 1.09601E+01-7.08547E-03-4.81631E-02
 -1      3478-1.81400E+02-1.07222E+00-6.31182E-02 1.03610E+01-5.42052E-02 1.04988E-01
 -1      3479-1.94235E+02 1.41689E-01 2.06153E-01 1.81154E+01-2.04342E-01-2.76456E-02
 -1      3480-1.93875E+02 2.38055E-01 1.91886E-02 1.76805E+01 5.24930E-02-8.80294E-03
 -1      3481-2.05565E+02-2.31106E-01-5.63596E-02 1.74586E+01 9.77247E-03-3.58972E-02
 -1      3482-2.00431E+02 1.53900E-02 1.19709E-01 1.61506E+01-2.36575E-01 1.10973E-01
 -1      3483-2.05101E+02-2.66895E-01-1.72093E-02 1.76091E+01-2.51041E-01-1.12351E-02
 -1      3484 1.20040E+02-6.75461E-01 1.74865E-01 2.97137E+00 1.06761E-01 2.01188E-01
 -1      3485 1.17064E+02-7.19950E-01 1.41716E-01 3.12147E+00 1.46311E-01 2.27109E-01
 -1      3486 8.75961E+01-1.04075E+00 4.60162E-02 3.30770E+00 1.17943E-01 2.37016E-01
 -1      3487-2.19910E+01-1.49972E+00-5.41403E-02 6.01714E+00 2.56070E-01 9.42045E-02
 -1      3488-2.07005E+02-2.71306E-01-1.24399E-01 1.56741E+01 1.35579E-01-1.53460E-01
 -1      3489-1.68174E+02-1.52374E-01-4.01054E-01 1.39577E+01 3.67232E-02-2.14146E-02
 -1      3490-1.55704E+02 3.45805E-02 6.21187E-02 1.38343E+01 1.60533E-01 6.24285E-03
 -1      3491-1.96113E+02-6.35421E-03-9.61290E-02 1.53589E+01 4.75597E-02 8.56110E-02
 -1      3492-4.03523E+02-7.24556E+01-8.42867E+01 2.49946E+01-2.14194E+00-3.19887E-03
 -1      3493-5.41349E+02-1.18728E+01-5.44870E+01 1.33154E+01-3.16955E+00-1.43157E+01
 -1      3494-2.27199E+02-4.36744E-01-8.95177E-02 8.44598E+00-1.24105E-01-1.32281E-01
 -1      3495-8.76056E+01-4.15213E-01 2.05685E-01 1.11445E+01-7.80701E-02 4.26544E-03
 -1      3496-1.06328E+02-5.83257E-01-3.21309E-01 1.20976E+01 1.04391E-02-1.44881E-03
 -1      3497-4.44029E+02-9.07234E-01 4.85437E-02 5.09619E+00 8.85191E-02-1.48014E-02
 -1      3498-3.20690E+02-1.56021E+00-3.35397E-01 9.44819E+00 2.19940E-01-6.59575E-02
 -1      3499-3.28055E+02-1.56822E+00-3.70195E-01 9.36034E+00-1.22627E-01-4.90884E-02
 -1      3500-2.42885E+02-5.85844E-01 5.10062E-02 1.43518E+01 7.94865E-02-1.31190E-02
 -1      3501-2.87117E+02-1.12048E+00-3.14982E-01 1.25321E+01 1.03983E-01 1.81646E-01
 -1      3502-1.97574E+02-2.75286E-01 1.19917E-01 1.35598E+01-1.29499E-02 2.41189E-03
 -1      3503-2.53856E+02-2.99244E-01-1.09330E-02 8.19247E+00-1.61870E-01-9.37951E-02
 -1      3504-2.12908E+02 3.59177E-01 1.86620E-01 1.57684E+01-8.71189E-02-6.25416E-01
 -1      3505-2.26898E+02 7.58958E-02-1.50871E-02 1.44886E+01 4.91034E-02-1.85719E-01
 -1      3506-1.96690E+02-7.91808E-01-3.84819E-03 1.34687E+01 5.89647E-02 3.79578E-02
 -1      3507-5.98933E+01-1.91405E+01-2.77258E+00-7.24787E+00 7.03136E+00 2.50734E+00
 -1      3508-6.07471E+01-2.78652E+01-1.51688E+01-9.47460E+00 3.24681E+00 6.63589E+00
 -1      3509-4.15300E+02-4.08735E-01 1.31381E-01 6.15164E+00 3.73577E-02 4.44024E-01
 -1      3510-2.79597E+02-1.76217E-01 2.03752E-01 7.71779E+00-6.77467E-02-5.51724E-01
 -1      3511-2.66376E+02 4.06568E-03 7.01877E-03 8.01316E+00 3.61379E-02-6.36952E-01
 -1      3512-2.40394E+02-9.05848E-02 1.43162E-01 1.45055E+01 4.91568E-02-2.55491E-01
 -1      3513-2.46028E+02-2.68073E-01-1.92981E-02 1.47717E+01-1.15851E-01-3.28885E-01
 -1      3514-2.73369E+02-1.04705E-01 1.09686E-01 7.92463E+00-3.41314E-02-5.30562E-01
 -1      3515-1.18141E+02 1.42817E-01-2.08567E-01 7.80143E+00 4.04631E-02-5.39782E-01
 -1      3516-1.31287E+02-2.04369E-01 9.99356E-03 7.79161E+00-3.49468E-02-6.48767E-01
 -1      3517-1.57326E+02 4.84709E-02 3.39806E-02 1.43810E+01-1.19609E-01-2.81361E-01
 -1      3518-1.52056E+02 6.14779E-02-7.67283E-02 1.48538E+01 1.06396E-01-2.92719E-01
 -1      3519-1.24640E+02-6.65795E-02-1.04825E-01 8.01581E+00-1.40300E-02-5.01870E-01
 -1      3520-2.74184E+02-4.71557E-02-2.13053E-01 7.70696E+00-1.56145E-01-5.61772E-01
 -1      3521-2.35268E+02 1.65531E-02 5.24021E-02 1.49172E+01 4.68787E-02-2.16542E-01
 -1      3522-1.23565E+02 3.60492E-02 1.95224E-01 7.71875E+00 1.27355E-01-5.69674E-01
 -1      3523-1.62671E+02-3.65493E-01 1.30393E-01 1.47932E+01-2.58907E-01-2.82611E-01
 -1      3524-1.31540E+02-2.35817E-01 1.01727E-01 7.77104E+00-8.65826E-02-5.87231E-01
 -1      3525-1.38605E+02-3.84644E-01-9.64895E-02 8.03920E+00 4.85780E-02-5.58756E-01
 -1      3526-2.66039E+02 1.38529E-01-1.05070E-01 7.72414E+00 4.56589E-02-6.22756E-01
 -1      3527-2.58450E+02-5.07966E-02 6.18544E-02 8.13101E+00-3.83414E-02-5.96542E-01
 -1      3528-1.86410E+02-5.86916E-01-2.33509E-01 1.28239E+01-3.82105E-02-5.32960E-03
 -1      3529-1.94242E+02-1.96330E+00 2.24895E-02 3.75663E+00 1.96410E-01-2.29310E-01
 -1      3530-1.55408E+00-1.21595E-01-5.64824E-02 6.48603E+00-7.05159E-02-4.16028E-01
 -1      3531-6.21438E+00-3.31072E-01 3.23478E-01 6.69255E+00-1.89383E-02-4.88550E-01
 -1      3532-8.77292E+01-5.24907E-01-7.67441E-02 1.24281E+01-7.67720E-02-2.78451E-01
 -1      3533-9.17692E+01-6.45975E-01 5.29595E-02 1.27601E+01-1.96159E-01-2.41610E-01
 -1      3534-2.49989E+01-4.90470E-01 1.49993E-01 6.92998E+00-6.56584E-02-4.65202E-01
 -1      3535-4.11457E+02-5.74481E+00-8.46484E+00 6.35326E-01 3.68697E+00-7.85224E-02
 -1      3536-5.35728E+02-6.93752E+00-1.64334E+01 3.52934E+00 1.75550E+00 4.72500E+00
 -1      3537-5.29098E+02 9.38851E-01-2.68071E+00-6.28854E+00 2.39545E-01-2.11734E+00
 -1      3538-3.84963E+02-2.12143E+00-5.62316E-01-2.51491E+00 5.65832E-01-3.51733E+00
 -1      3539-5.05292E+02-1.60805E+00-2.94221E+00-9.36922E-01 4.90739E-01-1.33735E+00
 -1      3540-3.97804E+01-1.73020E+00-2.97432E-01 4.46471E+00 3.03448E-02-2.08685E-03
 -1      3541-1.95546E+02-3.46203E+00-1.47428E+00 1.29982E+01-1.04621E-01 4.26738E-02
 -1      3542-1.88059E+02 4.10145E-01-3.36256E-01 7.42815E+00-1.00578E-01 4.16841E-01
 -1      3543-2.41827E+02-3.15644E-01-5.69001E-02 1.54378E+01 1.31976E-01-7.68386E-02
 -1      3544-1.99401E+02-5.02762E-01-1.33710E-01 1.43529E+01 8.65026E-02 2.48670E-02
 -1      3545-2.69508E+02-1.33258E-01 2.93096E-01 1.35989E+01-5.34327E-02-2.13487E-01
 -1      3546-5.84662E+01-1.23632E-03-1.85210E-01 6.84898E+00-5.57725E-02-1.95740E-01
 -1      3547-1.29520E+02-4.92237E-01-2.94821E-01 1.36727E+01 1.70478E-02-1.73261E-01
 -1      3548-1.13397E+02-2.90595E-01-1.13229E-02 1.27646E+01 2.50351E-02 1.78559E-02
 -1      3549-1.94102E+02-2.28685E+00-1.77356E-01 4.99176E+00 6.50055E-02-1.23748E-02
 -1      3550-5.36044E+02-8.83215E-01 4.42485E-01 9.48228E-01-1.70830E-02 8.89166E-01
 -1      3551-2.09734E+02-2.73854E-01 3.68972E-01 7.17882E+00-2.02767E-01-3.31825E-01
 -1      3552-2.02078E+02 3.60369E+00 1.51590E+00 1.29073E+01-1.47262E-01-6.94969E-02
 -1      3553 1.32048E+02-6.02677E-01 1.26348E-01 2.07431E+00-1.10877E-01-1.39911E-01
 -1      3554 1.29771E+02-7.01800E-01 4.72153E-02 2.11592E+00-1.79596E-01-1.86290E-01
 -1      3555-1.29108E+01-1.41625E+00-5.22181E-02 3.84799E+00-2.33461E-01-6.76150E-02
 -1      3556 9.83518E+01-9.06442E-01 1.23788E-01 2.15541E+00-1.90486E-01-1.95802E-01
 -1      3557 1.00424E+02-9.07409E-01 2.12444E-01 2.14982E+00-2.54432E-01-1.05414E-01
 -1      3558-3.35453E+02-1.88888E+00-3.61069E-01 7.13868E+00 1.08633E-01-2.21111E-03
 -1      3559-3.64440E+01-1.38599E+00 2.42471E-01 3.65574E+00 1.69038E-02 1.62315E-02
 -1      3560-3.40703E+02-1.93724E+00-1.24237E-01 5.96692E+00 1.17976E-01 5.00669E-02
 -1      3561-2.13305E+02-2.19978E+00-1.61546E-01 6.43547E+00-1.75189E-02 1.40768E-02
 -1      3562-1.92220E+02-2.16353E-01 2.14179E-01 1.39445E+01 1.47667E-01 8.51298E-02
 -1      3563-2.02300E+02-3.20880E-01 1.62806E-01 1.53061E+01 5.14792E-03 1.13901E-02
 -1      3564-2.46919E+02 8.23930E-02 1.83495E-01 1.42971E+01-1.78612E-01-1.07078E-01
 -1      3565-1.95877E+02-2.18901E-01-2.07360E-01 1.54294E+01-3.19901E-02 8.26542E-02
 -1      3566-1.51177E+02-3.93598E-01-1.57450E-01 1.42475E+01 2.33991E-01-1.02830E-01
 -1      3567-1.25441E+02-3.84798E-01-2.14297E-02 1.33548E+01 4.78483E-02 1.19031E-01
 -1      3568-2.07899E+02-9.75600E-01 3.98277E-02 1.24351E+01-5.28269E-05-2.82521E-02
 -1      3569-1.00535E+02-8.93033E-01-1.05453E-01 1.15850E+01-8.75343E-02 1.03399E-01
 -1      3570-2.99652E+02-7.33777E-01 2.20835E-02 1.15139E+01 1.76838E-01 8.43787E-02
 -1      3571-1.92361E+02-1.01113E+00-2.73336E-01 1.24413E+01-2.84168E-02-3.50032E-02
 -1      3572-2.13552E+02-2.00473E+00-3.20038E-01 7.60148E+00 8.75981E-02-4.24116E-02
 -1      3573-6.69050E+01-1.52797E+00-7.25331E-02 7.16689E+00-1.31971E-01-3.52131E-02
 -1      3574-1.91209E+02-1.69198E+00-3.01991E-01 9.06198E+00-6.55118E-02 2.84396E-02
 -1      3575-3.27055E+02-1.55758E+00-1.10061E-03 8.50152E+00 1.43310E-01 4.70110E-02
 -1      3576-7.52455E+01-1.37748E+00-3.73638E-01 8.55843E+00-1.17337E-01 1.67204E-02
 -1      3577-1.89012E+02-1.79859E+00-7.20536E-02 7.54964E+00-9.20612E-02-2.61748E-02
 -1      3578 5.06575E+01-5.72371E-01 2.59744E-01 5.00940E+00 4.63443E-02 1.58003E-01
 -1      3579-7.24168E+01-7.34917E-01 1.47064E-01 9.59303E+00 1.45355E-01 2.03583E-01
 -1      3580-5.55354E+01-1.01028E+00-1.55004E-01 9.48742E+00 2.91953E-02-2.66963E-02
 -1      3581-1.26553E+02-1.00441E+00-1.36705E-01 1.12476E+01-1.86666E-02 3.34341E-02
 -1      3582-2.00490E+02-1.28589E+00-1.93489E-01 1.07134E+01-7.72756E-03-2.13765E-01
 -1      3583-2.11235E+02-1.53149E+00-2.58698E-02 9.03441E+00 6.43350E-02 7.23078E-02
 -1      3584-2.98560E+02-6.37596E+01-2.94112E+01-1.16096E+01-9.31465E-01-2.29177E+01
 -1      3585-3.46645E+02-6.00182E+01-6.33443E+01 7.73689E+00-3.31412E+00-2.80955E+01
 -1      3586-2.35610E+02-7.66312E-03 2.06839E-01 7.91833E+00-2.03757E-02 6.56309E-01
 -1      3587-2.28978E+02-1.77908E-01 4.01344E-01 7.71554E+00 4.22990E-02 6.48681E-01
 -1      3588-2.33789E+02-1.86046E-01 1.26894E-01 7.71094E+00 1.90846E-02 3.58175E-01
 -1      3589-2.20830E+02-1.41510E-01 9.64921E-02 1.43424E+01-1.69999E-02 3.51499E-01
 -1      3590-1.56313E+02-4.81982E-01-1.27515E-01 1.41524E+01 1.49026E-01-4.71107E-03
 -1      3591-2.28058E+02-5.32948E-01-5.97245E-03 1.41052E+01-1.15309E-01-7.99740E-03
 -1      3592-2.42037E+02-3.21207E-01 7.03534E-03 1.41915E+01-5.19272E-02-1.91876E-01
 -1      3593-1.02569E+02-2.08591E-01-3.75081E-02 7.59164E+00 6.82089E-02 5.40614E-01
 -1      3594-2.05812E+02 4.03025E+00 1.34949E+00 6.11494E+00-6.12997E-02-2.51041E-01
 -1      3595-2.02353E+02 4.14934E+00 1.38563E+00 1.26940E+01-2.00042E-01-1.19276E-01
 -1      3596-2.30107E+02-3.15564E-01 7.52506E-02 7.61312E+00-7.93166E-02 9.11256E-02
 -1      3597-1.98129E+02-3.98818E+00-4.71272E-01 1.61534E+01-1.00402E+00 7.84055E-02
 -1      3598-1.95929E+02-2.86914E+00-3.02815E-01 1.45311E+01-6.55710E-01 8.54489E-02
 -1      3599-2.48837E+02-2.36556E+00-1.57860E-01 4.48846E+00 7.02135E-02 4.57718E-02
 -1      3600-1.00831E+02-2.01862E+00-3.80048E-01 4.72060E+00-1.01750E-03-7.85101E-02
 -1      3601-9.94252E+01-2.12284E+00-3.62062E-02 4.10306E+00-2.07646E-01-4.21064E-02
 -1      3602-5.35506E+02-7.80852E-01 4.50847E-01 7.50677E-01-4.42047E-02-9.78693E-01
 -1      3603-2.54260E+02-4.88493E-01-1.40275E-01 8.51322E+00 6.41684E-02 2.33598E-01
 -1      3604-2.50067E+02-2.29438E+00-4.48962E-02 4.06744E+00-3.13110E-02 1.43787E-01
 -1      3605-3.82527E+02-7.78946E-01 6.60529E-02 6.39674E+00 1.00928E-01-1.86068E-01
 -1      3606-2.92402E+02-8.21988E-01-2.40811E-01 1.22142E+01 3.55483E-02-4.07255E-03
 -1      3607-3.74768E+02-4.32840E-01-1.17441E-01 6.84001E+00-7.79221E-02 1.47613E-01
 -1      3608-3.77829E+02-2.01599E-01-1.07098E-01 6.74926E+00-1.94673E-01-9.01306E-02
 -1      3609-2.88421E+02-7.14074E-01 5.48030E-02 1.22832E+01-1.74982E-01-5.23968E-02
 -1      3610-2.95481E+02-7.43472E-01-3.82523E-02 1.22612E+01 4.28468E-02-1.21721E-01
 -1      3611-2.07782E+02-3.53642E-01 1.86720E-01 1.54168E+01 2.00239E-01 5.83212E-03
 -1      3612-1.78547E+02 5.76807E-01-3.04456E-01 1.55555E+01 1.05045E-01-3.02193E-01
 -1      3613-1.73685E+02-6.36198E-01 5.86685E-02 1.53748E+01-2.04381E-01-2.22655E-01
 -1      3614-2.09131E+02-3.07091E-01 3.27082E-02 1.52605E+01 2.53018E-02-1.76960E-01
 -1      3615-2.13015E+02 1.17849E-01 1.90189E-02 1.51063E+01 7.67107E-02-2.07798E-01
 -1      3616-2.56703E+02-2.17428E+00-2.36267E-02 3.92019E+00 5.50798E-02-1.60522E-01
 -1      3617-1.70636E+02-1.79715E-01 1.22170E-01 1.40120E+01-1.43164E-02-1.28345E-01
 -1      3618-1.56688E+02-3.84343E-01 1.13105E-01 1.43849E+01-2.07817E-02-2.08934E-01
 -1      3619-4.04972E+02-4.16814E-01 7.37734E-02 6.52664E+00 2.24778E-03-5.38417E-01
 -1      3620-3.98082E+02-4.28406E-01 1.08130E-01 6.34230E+00 9.86607E-02-4.86045E-01
 -1      3621-3.17663E+02-8.64213E-01 1.44210E-01 1.19702E+01-8.60893E-02-3.60906E-01
 -1      3622-3.79622E+02-7.11760E-01 6.86602E-02 6.49677E+00-3.69795E-02-5.39479E-01
 -1      3623-3.86086E+02-7.05486E-01 6.86930E-02 6.72697E+00-1.72824E-02-4.96220E-01
 -1      3624-1.46757E+02-1.40794E+00-2.74464E-01 1.00741E+01 1.37395E-01 2.24119E-01
 -1      3625-1.27574E+02-1.16378E+00-2.01712E-01 1.06753E+01 1.14739E-01 4.13021E-01
 -1      3626-5.29371E+02-3.27248E+01-1.12915E+02 2.15654E+01-3.19136E+00-2.14980E+01
 -1      3627-4.16590E+02-7.53614E+01-8.67203E+01 2.66355E+01-2.24517E+00-1.78858E+01
 -1      3628-5.28388E+02-8.42626E-01 2.00941E-02 2.38527E+00-3.80521E-02-2.18618E-01
 -1      3629-5.30865E+02-9.34373E-01 5.30459E-02 1.96879E+00-9.62600E-02-2.62456E-01
 -1      3630-4.98176E+02-1.14041E+00 8.60699E-02 2.52255E+00-1.42249E-01-2.13479E-01
 -1      3631-3.88346E+02-1.91741E+00-9.56018E-02 4.00049E+00-1.15002E-01-9.93581E-02
 -1      3632-3.86218E+02-1.88153E+00-1.62368E-01 4.55619E+00-4.21397E-02-1.43822E-01
 -1      3633-2.11237E+02 2.49920E-01-9.28825E-02 1.54087E+01-2.40005E-01 2.76888E-01
 -1      3634-2.55349E+02-2.52582E+00-1.53806E-01 4.53341E+00 3.24993E-02-8.64517E-02
 -1      3635-1.65766E+02-9.41797E-03 5.26824E-02 1.40813E+01 1.13641E-02 1.74965E-01
 -1      3636-1.92119E+02-4.19428E+00-1.36873E+00 6.36538E+00-7.65949E-02 2.45559E-01
 -1      3637-1.95300E+02-3.99112E+00-1.24528E+00 1.30632E+01-2.46128E-01 1.49376E-01
 -1      3638-1.36605E+02-1.36882E+00-2.05612E-01 9.94812E+00-7.41538E-02-2.42981E-01
 -1      3639-2.93731E+02-6.54567E-01-3.26889E-01 1.22049E+01 1.62495E-01 1.34881E-02
 -1      3640-2.65234E+02-1.04467E+00-1.68697E-01 1.01787E+01-7.47570E-02-5.02369E-02
 -1      3641-5.33015E+02-9.76467E-01 1.90463E-01 1.84492E+00-8.32548E-02-3.64616E-01
 -1      3642-5.00184E+02-1.19563E+00 1.59295E-01 2.30487E+00-4.53987E-02-3.09412E-01
 -1      3643-3.90065E+02-1.91066E+00 5.87894E-02 3.40092E+00-1.02245E-01-2.94422E-01
 -1      3644-5.02232E+02-1.29770E+00 3.50631E-01 1.80299E+00-6.96271E-02-5.31560E-01
 -1      3645-1.40230E+02-1.58851E-01-3.11849E-01 1.32811E+01 2.33800E-01-1.06241E-01
 -1      3646-2.28812E+02-5.23178E-01-2.96250E-01 1.30069E+01-2.12518E-01 7.40001E-02
 -1      3647-1.36218E+02-1.20297E+00 5.98346E-02 1.29974E+01-1.81450E-01-2.35433E-01
 -1      3648-5.32117E+02 2.59934E-01-1.19542E+00-2.84197E+00-1.87306E-01 5.11729E-01
 -1      3649-3.93804E+02-1.60382E-01 1.92163E-01-6.92115E-01-5.85525E-01 3.00337E+00
 -1      3650-6.20861E+01-2.36954E+01-1.72735E+01-3.32567E+00-1.06445E+00-1.50957E+00
 -1      3651-1.46441E+02 2.06973E-01 6.01992E-02 7.80025E+00-4.12929E-02 5.04950E-01
 -1      3652-1.77843E+02-3.87998E-01-3.06577E-01 1.59406E+01 1.13928E-01 2.83388E-01
 -1      3653-1.65558E+02 2.64453E-01-1.68421E-02 1.44900E+01-1.29461E-01 3.37341E-01
 -1      3654-3.93014E+02-1.65094E-01-1.00657E-01 6.60429E+00 3.05363E-02-5.16136E-01
 -1      3655-3.13832E+02-6.92813E-01-1.72715E-01 1.21579E+01-1.10043E-01-2.20868E-01
 -1      3656-3.74854E+02-1.64478E-01-2.40808E-02 6.78959E+00-4.50544E-02-5.20172E-01
 -1      3657-3.09782E+02-4.03126E-01-1.07895E-01 1.26205E+01 1.32526E-01-3.20669E-01
 -1      3658-1.60452E+02 1.68430E-01 1.15995E-01 7.90678E+00-4.10138E-02 5.35121E-01
 -1      3659-1.69690E+02 1.42133E-01-1.67774E-01 7.70819E+00 1.43596E-01 4.00489E-01
 -1      3660-1.68441E+02 6.64069E-02-2.38224E-02 9.86349E+00 1.48037E-02 4.41096E-01
 -1      3661-1.80788E+02 1.86490E-01-1.42484E-02 1.60203E+01-1.04248E-01 2.26037E-01
 -1      3662-3.61990E+02-2.01683E+00-7.00999E-01 2.13629E+00 1.61431E-02 9.62883E-02
 -1      3663-5.91109E+01-2.68703E+01-1.39446E+01-8.88814E+00-3.69347E+00-6.88973E+00
 -1      3664-5.99104E+01-1.92456E+01-2.86092E+00-6.86472E+00-7.17942E+00-2.46424E+00
 -1      3665-3.76834E+02-3.87142E-01 4.48676E-01 6.93214E+00-1.53593E-02 1.17686E-01
 -1      3666-2.00793E+02-2.00657E+00 6.90428E-01 3.55578E+00 1.04413E+00-1.18159E+00
 -1      3667-1.93058E+02 4.54959E-02 1.74324E-01 1.77820E+01-4.65048E-02-1.27562E-01
 -1      3668-2.00827E+02-4.13704E-02 1.11743E-01 1.59792E+01 6.97831E-02-2.36216E-02
 -1      3669-5.33149E+02 9.96975E-03 1.20100E-01-1.74910E+00 2.49411E-01 2.32861E+00
 -1      3670-5.10352E+02-8.57501E-01 1.29313E+00 1.86481E-01-1.69124E-01 3.16300E+00
 -1      3671 1.38483E+02-1.55342E+00 1.52309E+00-1.19941E+00 1.49729E+00-8.53936E-01
 -1      3672 1.05325E+02-7.37058E-01 1.98039E+00 3.39746E+00 1.14874E+00-9.29626E-01
 -1      3673-2.28158E+02-8.45201E-01-1.12896E-01 1.29570E+01 4.81373E-03 1.37824E-01
 -1      3674-8.71937E+01-1.99444E-02 1.17439E-01 1.24383E+01 2.13368E-01 2.54081E-01
 -1      3675-1.49920E+02-3.82499E-01 2.55954E-01 1.43318E+01-2.62727E-02 7.09329E-02
 -1      3676-1.38170E+02-7.95333E-01-4.44237E-01 1.38881E+01 1.06654E-01 8.51007E-02
 -1      3677 1.41266E+02-6.60576E-01 1.29228E+00 1.45057E+00 7.47190E-01-9.44256E-01
 -1      3678-1.06533E+01-1.07455E+00 4.88721E-01 3.45514E+00 1.55207E+00-2.96215E-01
 -1      3679-2.80374E+02-1.70290E-01 3.25904E-02 7.87594E+00-9.20771E-03 6.15426E-01
 -1      3680-2.72348E+02-1.92732E-01-3.69958E-01 7.60704E+00-1.77130E-02 5.18370E-01
 -1      3681-2.57931E+02 1.53842E-01 2.00527E-02 8.32810E+00 4.77526E-02 4.12369E-01
 -1      3682-2.39433E+02 6.16993E-02-5.42153E-02 1.46435E+01-9.13526E-02 3.29244E-01
 -1      3683-2.65507E+02 3.68355E-01 1.30892E-01 8.39825E+00-2.18596E-01 4.97932E-01
 -1      3684-2.65907E+02 2.15171E-02 1.64221E-02 7.92621E+00-2.13759E-02 6.90433E-01
 -1      3685-2.35019E+02 3.08448E-02-1.45234E-02 1.48527E+01 1.81686E-03 3.46830E-01
 -1      3686-2.43063E+02-3.22416E-01 2.46157E-01 1.45342E+01 1.25367E-01 3.63334E-01
 -1      3687-2.70491E+02-1.31655E-01 4.66213E-01 8.23474E+00 1.33554E-01 5.10595E-01
 -1      3688-5.21635E+01-4.67013E-01-1.21433E-01 8.19682E+00 6.29675E-02 3.88022E-02
 -1      3689-1.90490E+01-5.43009E-01 1.72104E-01 6.68086E+00-1.25966E-01 1.57811E-01
 -1      3690-1.43257E+02-7.62494E-02 1.60874E-01 9.65655E+00-3.84076E-03 1.12287E-02
 -1      3691-1.24171E+02 4.07898E-01-7.76387E-02 7.61877E+00 1.64461E-01 2.24506E-01
 -1      3692-1.93667E+02-2.62810E-01-1.05348E-01 1.68581E+01-2.54588E-02-1.75980E-01
 -1      3693-1.77192E+02-2.51221E-01-3.77105E-01 1.66267E+01 3.75464E-02 1.15701E-01
 -1      3694-1.78002E+02-2.03874E+00-1.24508E-01 4.66931E+00 7.28254E-02-6.83794E-02
 -1      3695-1.15525E+02-1.78688E+00-1.20359E-01 4.37394E+00 2.35313E-01-3.05315E-02
 -1      3696 4.41097E+01-1.44442E+00 1.09916E-01 2.75197E+00 3.25700E-02 4.11182E-03
 -1      3697 1.07713E+02-7.90802E-01 3.41506E-01 2.10120E+00 2.07926E-01 2.86174E-02
 -1      3698-1.81289E+02 8.45389E-02-3.73392E-01 7.97738E+00-4.30940E-02-5.15337E-01
 -1      3699-1.88956E+02 6.09139E-01 6.07155E-02 1.49039E+01 7.10739E-02-3.41484E-01
 -1      3700-1.77094E+02 2.34255E-01-8.20430E-02 7.55446E+00-3.29611E-02-4.90488E-01
 -1      3701-1.74086E+02 3.22039E-01-1.68522E-02 8.32774E+00 1.72367E-01-4.20097E-01
 -1      3702-1.83546E+02 5.59040E-01 1.31020E-01 1.49968E+01 7.67955E-02-3.11150E-01
 -1      3703-5.33053E+02-9.34124E-01 1.48954E-01 1.88498E+00 8.20957E-02 3.66823E-01
 -1      3704-3.81913E+02-1.96146E+00-8.15556E-02 4.03259E+00 1.11980E-01 1.26528E-01
 -1      3705-4.93751E+02-1.25821E+00 1.65383E-01 2.44149E+00 2.12698E-02 2.83593E-01
 -1      3706-4.95754E+02-1.34013E+00 3.43868E-01 1.97624E+00 1.16579E-01 4.48755E-01
 -1      3707-3.83502E+02-1.99965E+00 8.92168E-03 3.46884E+00 8.45500E-02 2.89300E-01
 -1      3708-5.30865E+02-9.30296E-01 2.85917E-02 1.98785E+00 8.69205E-02 2.89854E-01
 -1      3709-4.91544E+02-1.37274E+00 5.76147E-02 2.57756E+00 1.36116E-01 1.91957E-01
 -1      3710-5.28390E+02-9.42838E-01 5.29402E-02 2.40082E+00 7.57880E-02 2.32605E-01
 -1      3711-3.79961E+02-2.04183E+00-1.04842E-01 4.54249E+00 1.46635E-01 1.01236E-01
 -1      3712-5.20975E+02-9.35121E-01 1.82840E-03 3.12941E+00-1.28843E-01-2.17052E-01
 -1      3713-3.69193E+02-1.77734E+00-4.68809E-02 5.93332E+00-9.02009E-02-1.92453E-01
 -1      3714-5.17401E+02-8.20493E-01 1.22272E-01 3.19235E+00-6.69338E-02-2.73740E-01
 -1      3715-4.77578E+02-1.23525E+00-2.09231E-02 3.43292E+00-1.10986E-01-2.18837E-01
 -1      3716-9.45962E+01-1.33131E-01-2.99325E-01 7.57252E+00 3.14504E-02 4.90615E-01
 -1      3717-1.02728E+02-7.74339E-02-8.75549E-02 8.28253E+00-5.37899E-02 4.19594E-01
 -1      3718-8.83705E+01-5.37218E-02-1.42416E-02 7.81898E+00 4.39683E-02 6.43138E-01
 -1      3719-1.40407E+02-3.01636E-02-2.98146E-02 1.45111E+01-1.82299E-02 3.66977E-01
 -1      3720-3.03068E+02-3.50669E-02 4.28251E-01 7.74329E+00 1.19344E-01 6.26921E-01
 -1      3721-2.95479E+02-6.93529E-02-1.03043E-01 8.32665E+00 3.37801E-02 4.33213E-01
 -1      3722-8.20872E+01 5.59596E-02 3.57577E-01 7.38005E+00 8.99368E-02 4.86930E-01
 -1      3723-3.08985E+02-1.22875E-02 1.43185E-01 7.79159E+00-2.89646E-02 5.87883E-01
 -1      3724-2.56988E+02-4.25439E-02 1.18497E-01 1.44512E+01-6.12727E-02 4.54136E-01
 -1      3725-3.17773E+02-8.10033E-02-1.16791E-01 7.81905E+00 4.45500E-02 5.41394E-01
 -1      3726-3.72499E+02-1.53322E-01-7.73699E-02 6.96708E+00-1.32922E-01-5.04967E-01
 -1      3727-2.86750E+02-4.54147E-01 4.45637E-02 1.35458E+01-1.38813E-02-2.78884E-01
 -1      3728-3.64655E+02-1.26347E-01 1.11690E-01 7.07143E+00 2.72301E-02-5.25769E-01
 -1      3729-3.42977E+02-4.85513E-02 2.59480E-01 7.76920E+00-5.74007E-02-3.74805E-01
 -1      3730-2.73825E+01-1.69897E-02 3.67785E-01 6.80330E+00-8.87124E-02-5.07064E-01
 -1      3731-5.54076E+01-2.22625E-01-3.49160E-01 7.76044E+00 7.35165E-02-3.91341E-01
 -1      3732-3.32878E+01-1.77200E-01 5.17780E-04 7.23084E+00-7.33950E-02-5.18707E-01
 -1      3733-1.11549E+02-7.64635E-02-2.09637E-02 1.35511E+01 1.13452E-01-3.04526E-01
 -1      3734-5.14851E+02-7.72044E-01 2.31416E-01 3.33454E+00-1.29002E-01-2.44209E-01
 -1      3735-4.88542E+02-5.78244E-01 5.52771E-02 4.57015E+00-5.72074E-02-3.72944E-01
 -1      3736-4.83385E+02-7.33874E-01 8.78907E-02 4.65707E+00-2.28278E-02-3.64283E-01
 -1      3737-3.54006E+02-1.39207E+00-2.00002E-01 8.61109E+00-5.23796E-02-2.13337E-01
 -1      3738-4.52738E+02-1.05683E+00-2.17148E-01 5.02418E+00-3.09178E-02-2.82805E-01
 -1      3739-4.22425E+02-3.23527E-01 3.26441E-01 6.23944E+00-8.60176E-02-4.23850E-01
 -1      3740-3.98705E+02-5.41876E-01-4.82879E-02 6.65831E+00-4.66066E-02-3.55247E-01
 -1      3741-4.27598E+02-3.79946E-01 1.77506E-02 6.34209E+00-1.26717E-02-5.30401E-01
 -1      3742-3.20844E+02-8.11797E-01-1.32102E-02 1.16711E+01-5.08591E-02-3.78805E-01
 -1      3743 2.36679E+01-3.46629E-01-2.28788E-01 6.27323E+00-1.45101E-02-4.71589E-01
 -1      3744-8.73551E-01-4.44536E-01 7.31755E-02 6.73469E+00-5.22955E-02-3.75225E-01
 -1      3745 1.07053E+02-4.77258E-01 3.26881E-01 3.48176E+00 1.64109E-01 2.67061E-01
 -1      3746 6.42264E+01-9.23310E-01-1.58938E-01 4.27883E+00 8.58192E-02 1.96163E-01
 -1      3747 1.03719E+02-5.37934E-01 5.86022E-02 3.98787E+00 1.14876E-01 2.93571E-01
 -1      3748-3.98333E+01-1.22049E+00-8.21597E-02 7.44357E+00 1.02533E-01 1.66608E-01
 -1      3749 2.81362E+01-3.21528E-01-3.90755E-02 6.32755E+00-7.64963E-02-4.76863E-01
 -1      3750-7.95781E+01-7.69176E-01-1.80263E-01 1.16738E+01-1.23602E-01-3.51913E-01
 -1      3751 1.15008E+02-6.65169E-01-3.07264E-02 3.41327E+00-1.24485E-01-2.68706E-01
 -1      3752 7.58128E+01-1.00244E+00 7.03713E-02 3.47272E+00-1.23488E-01-2.06006E-01
 -1      3753 1.17369E+02-6.60882E-01 7.66112E-02 3.23687E+00-1.23874E-01-2.56570E-01
 -1      3754-3.28550E+01-1.54904E+00-1.58919E-01 6.00209E+00-1.80032E-01-1.72158E-01
 -1      3755 1.20765E+02-7.07801E-01 1.65128E-01 3.11680E+00-1.37095E-01-2.01679E-01
 -1      3756 3.50663E+01-3.37473E-01 1.68979E-01 6.26560E+00-4.22702E-02-4.14343E-01
 -1      3757-4.32661E+02-5.20881E-01-2.79117E-01 5.86904E+00-6.61100E-03-3.80433E-01
 -1      3758 8.45358E+01-5.66351E-01-1.60721E-01 4.65125E+00-9.86871E-02-3.88133E-01
 -1      3759 5.16177E+01-7.40648E-01 2.40930E-01 4.99055E+00-1.54220E-01-2.44059E-01
 -1      3760-5.06303E+02-7.77316E-01 1.61825E-01 3.81035E+00 7.42726E-02 3.15642E-01
 -1      3761-5.10880E+02-8.30489E-01-1.80183E-03 3.76112E+00 1.33428E-01 2.98083E-01
 -1      3762-3.63933E+02-1.61849E+00-1.10000E-02 7.24852E+00 1.14438E-01 1.93651E-01
 -1      3763-4.64961E+02-1.04341E+00 2.16970E-01 4.20872E+00 1.37951E-01 2.28635E-01
 -1      3764 7.46910E+01-3.38823E-01 2.98513E-01 4.77899E+00 1.27036E-01 3.61517E-01
 -1      3765 7.24648E+01-4.48415E-01 3.83812E-02 5.13530E+00 1.15830E-01 3.78407E-01
 -1      3766 3.55394E+01-7.74137E-01-2.77735E-01 5.63954E+00 4.84216E-02 2.94435E-01
 -1      3767-5.49250E+01-8.12485E-01-2.33321E-02 9.75714E+00 7.01822E-02 2.37207E-01
 -1      3768 8.92112E+01-5.38501E-01 6.17592E-02 4.58041E+00-1.13480E-01-3.83882E-01
 -1      3769-4.69952E+01-1.23004E+00-1.89375E-02 8.60609E+00-1.89685E-01-1.81014E-01
 -1      3770-4.66102E+02-6.32362E-01 5.96137E-02 5.24387E+00-4.93736E-02 4.05024E-01
 -1      3771-3.45661E+02-1.38057E+00-1.92265E-01 9.57873E+00 1.10497E-01 2.71488E-01
 -1      3772-4.76182E+02-6.69568E-01-1.49808E-01 4.80147E+00 4.50119E-02 4.16320E-01
 -1      3773-4.36364E+02-8.71391E-01 8.22336E-02 5.50268E+00 9.62378E-02 3.03574E-01
 -1      3774-2.34193E+02-2.61400E-01 3.14289E-03 1.28435E+01-4.08475E-03-1.70640E-01
 -1      3775-2.31838E+02-1.11280E+00-1.08332E-01 1.29834E+01 7.63763E-03-1.37930E-01
 -1      3776-4.72059E+02-6.10509E-01-2.26433E-02 5.16458E+00 6.44102E-02 4.17766E-01
 -1      3777-1.21384E+02-3.90613E-01 2.30328E-01 1.39091E+01 3.04844E-01 2.09202E-01
 -1      3778-7.25295E+01-3.93571E-01 9.26236E-02 7.55011E+00 1.66944E-02 5.50013E-01
 -1      3779-6.00094E+01-3.12553E-01 5.15017E-02 7.34213E+00 7.29311E-02 5.89040E-01
 -1      3780-1.10007E+02-7.96034E-02 9.65916E-03 1.33239E+01-2.11075E-02 2.75590E-01
 -1      3781-6.04871E+01 6.69006E-02 3.05655E-02 6.96522E+00-9.17966E-02 5.99865E-01
 -1      3782-4.56473E+02-6.28603E-01-2.93049E-01 5.24875E+00 2.78430E-02 4.91904E-01
 -1      3783-4.17330E+02-6.20692E-01 1.84629E-01 6.08831E+00 1.04385E-01 2.78418E-01
 -1      3784-2.44518E+02 1.42768E-01-1.37304E-02 7.93828E+00 1.16237E-01 6.94043E-01
 -1      3785-4.51250E+02-5.34087E-01 6.96606E-02 5.65212E+00 4.98162E-02 4.43882E-01
 -1      3786-3.34350E+02-1.09302E+00-2.00129E-02 1.06825E+01 1.30485E-01 2.26095E-01
 -1      3787-5.32324E+02 4.16368E-01-1.26040E+00-2.89811E+00 5.92894E-02-6.79389E-01
 -1      3788-3.87135E+02-9.59039E-02 2.91879E-01-5.88604E-01 7.65978E-01-3.12644E+00
 -1      3789-3.39017E+00-1.07744E+01-1.11693E+00-9.00992E-01-5.42846E+00-5.08771E-01
 -1      3790 1.21014E+02-5.46164E+00 5.29347E+00 2.42006E+00-3.41838E+00 2.93264E+00
 -1      3791 1.40578E+02-2.72980E+00 3.15255E+00-2.88842E+00-2.56386E+00 1.69320E+00
 -1      3792-2.38741E+01-2.35496E+00 6.69892E-01 9.97788E-01-2.72201E+00 6.82606E-01
 -1      3793 9.69268E+01-1.27607E+00 3.49293E+00 3.30856E+00-2.05163E+00 2.25059E+00
 -1      3794-3.55295E+02-1.35529E+00 1.00350E-01 9.46487E+00-2.63176E-01-1.77621E-01
 -1      3795-4.46067E+02-9.30611E-01 9.13535E-02 5.06090E+00-6.26094E-02-3.80766E-01
 -1      3796-4.70683E+02-7.07134E-01 8.54366E-02 5.04811E+00-8.26674E-02-4.29585E-01
 -1      3797-3.61941E+02-1.03291E+00-3.84559E-02 9.54707E+00-6.83845E-02-1.90575E-01
 -1      3798-4.52225E+02-5.31300E-01 7.75172E-02 5.08039E+00 2.90492E-03-4.15568E-01
 -1      3799-4.54715E+01-7.71630E-01-2.20397E-01 9.54341E+00 4.92809E-02-1.80898E-01
 -1      3800 4.57076E+01-4.39349E-01-2.20608E-02 5.16059E+00-1.06327E-01-3.52515E-01
 -1      3801 7.12720E+01-2.22807E-01 4.63496E-02 5.07115E+00-6.55511E-02-4.04220E-01
 -1      3802-3.85122E+01-9.54046E-01-7.45172E-02 9.57861E+00-1.50690E-01-1.70541E-01
 -1      3803 5.21811E+01-5.89361E-01 4.86578E-02 5.14242E+00-1.53647E-01-4.06334E-01
 -1      3804-1.54612E+02 1.37451E-01 3.00023E-01 7.89203E+00 4.71388E-03 5.18140E-01
 -1      3805-1.25744E+02-2.65364E-01-1.14132E-01 1.42372E+01-1.98408E-02-2.42248E-01
 -1      3806-7.83012E+01-6.52570E-02 1.10870E-01 8.22607E+00-4.05011E-02-3.57672E-01
 -1      3807-6.07886E+01 1.04482E-02 1.19894E-03 7.41474E+00 2.40709E-03-5.16830E-01
 -1      3808-1.19614E+02-4.16327E-02-5.55271E-02 1.33529E+01-1.21596E-01-3.64906E-01
 -1      3809-7.41933E+01-2.83739E-01-1.28735E-01 7.05162E+00-6.64997E-02-6.45198E-01
 -1      3810-1.36844E+02-1.56634E-01 2.34574E-01 1.39075E+01 1.21763E-01-3.02664E-01
 -1      3811-2.72718E+02-3.26848E-01 6.40783E-02 1.42174E+01-6.50192E-02-2.34801E-01
 -1      3812-3.20052E+02-3.65788E-01-9.39525E-02 8.25811E+00-2.91008E-02-3.49953E-01
 -1      3813-3.37344E+02-2.28921E-01 3.97821E-02 7.40021E+00-4.94946E-02-5.27804E-01
 -1      3814-2.78682E+02-3.70462E-01 2.70905E-02 1.33218E+01 7.55187E-02-3.80301E-01
 -1      3815-3.23930E+02 5.44061E-02 1.70427E-01 7.02710E+00 2.88203E-02-6.59552E-01
 -1      3816-2.61553E+02-3.92972E-01-2.76253E-01 1.38683E+01-1.57980E-01-3.17697E-01
 -1      3817-8.27260E+01-2.05789E-01-1.35422E-01 1.22000E+01 1.74307E-01-2.34491E-01
 -1      3818-2.24988E+01-5.20548E-01 1.62427E-01 6.86022E+00 1.29955E-01-1.80380E-02
 -1      3819-1.68207E+01 3.20364E-02 8.82832E-03 6.47383E+00-1.26230E-01-1.03337E-01
 -1      3820-1.96079E+01 8.65005E-04-6.58489E-02 6.61315E+00-4.24337E-02-5.34688E-01
 -1      3821-1.36958E+01 1.97010E-02 9.78203E-02 6.63581E+00-9.45443E-02-4.54011E-01
 -1      3822-5.33558E+02 1.08268E-02 1.99017E-01-1.70792E+00-1.11002E-01-2.50928E+00
 -1      3823-5.03096E+02-8.36046E-01 1.30512E+00 2.85174E-01 4.18011E-01-3.12085E+00
 -1      3824 8.47854E+01-7.92328E-01-3.59939E-02 3.97434E+00 1.54116E-01 2.92289E-01
 -1      3825-1.85651E+01-1.05280E+00-6.45737E-02 7.29855E+00 1.69447E-01 1.96315E-01
 -1      3826-5.73062E+01-1.36907E+00 4.36031E-02 7.50954E+00 1.02884E-01 1.49325E-01
 -1      3827-4.78705E+02-1.03625E+00-1.68122E-01 4.13755E+00-1.53349E-01-3.15179E-01
 -1      3828-3.79025E+02-1.38867E+00-4.20562E-02 7.76344E+00-1.15600E-01-1.80620E-01
 -1      3829-3.42003E+02-1.59520E+00 5.24705E-02 7.97596E+00-8.08801E-02-1.85735E-01
 -1      3830-1.34830E+02-3.86533E-01 9.90501E-02 7.75647E+00 1.48884E-01-1.30539E-01
 -1      3831-1.27992E+02 1.12638E-02-1.57043E-01 8.01416E+00-1.33887E-02-2.78716E-02
 -1      3832-2.14213E+02-2.42746E-01 7.68391E-02 1.66735E+01-7.27444E-02-8.42452E-02
 -1      3833-2.18717E+02 2.07397E-01-3.37903E-02 1.65775E+01 6.77844E-02-1.22437E-01
 -1      3834-1.64969E+01-1.67035E+00-6.59156E-02 4.55767E+00-2.72756E-01-1.15746E-01
 -1      3835-1.50103E+01-1.47698E+00-1.65777E-02 4.07828E+00-2.01825E-01-7.09037E-02
 -1      3836 9.74493E+01-1.18687E+00 1.97299E-01 2.38696E+00-4.52032E-02 1.81429E-02
 -1      3837 9.67532E+01-1.11709E+00 1.16341E-01 2.43769E+00-1.75315E-01-1.80886E-01
 -1      3838 9.92990E+01-8.95326E-01 2.70538E-01 2.14119E+00-1.47880E-01-4.57474E-02
 -1      3839-5.26785E+01-8.33149E-02-1.23559E-01 7.03995E+00 6.51058E-02 6.07018E-01
 -1      3840-4.72439E+01 1.39283E-04-1.54871E-01 7.14943E+00-2.05055E-02 6.01523E-01
 -1      3841-1.05498E+02-2.11263E-01-2.78419E-03 1.34498E+01 9.12765E-03 2.16826E-01
 -1      3842-5.32314E+01-1.44451E-01 1.23589E-01 6.88084E+00 8.51097E-02 5.55742E-01
 -1      3843-3.23886E+02 1.44825E-03-4.05149E-02 7.35004E+00 6.65725E-02-5.87668E-01
 -1      3844-3.31730E+02-1.71712E-01-1.47543E-01 7.33283E+00-1.69551E-01-5.75763E-01
 -1      3845-3.16341E+02-1.62957E-01 1.68719E-01 7.10297E+00 5.17828E-03-6.05599E-01
 -1      3846-2.73502E+02-2.40171E-01 5.43181E-02 1.38624E+01 1.05930E-01-2.27543E-01
 -1      3847-6.63280E+01-3.15565E-02 1.87395E-01 7.35687E+00 1.30492E-01-5.68940E-01
 -1      3848-1.24711E+02-1.35442E-01-8.01203E-02 1.38947E+01-1.46043E-01-2.22305E-01
 -1      3849-7.41270E+01-1.83679E-01 6.27919E-02 7.36785E+00-9.09126E-02-5.81112E-01
 -1      3850-8.17355E+01-7.64886E-02-1.49723E-01 7.12541E+00-4.11975E-02-5.89376E-01
 -1      3851-4.96295E+02-7.21567E-01 1.42867E-01 4.08883E+00-9.28079E-02-3.62151E-01
 -1      3852-4.93100E+02-6.76239E-01 1.62522E-01 4.21427E+00-6.60917E-02-3.52592E-01
 -1      3853-4.82874E+02-9.62221E-01-5.74477E-02 3.87358E+00-9.50839E-02-3.37868E-01
 -1      3854-3.81689E+02-1.43812E+00-8.55917E-02 7.67450E+00-1.34437E-01-1.56732E-01
 -1      3855 1.00803E+02-4.99779E-01 1.68388E-01 4.05684E+00 3.35091E-02 2.91114E-01
 -1      3856 9.65454E+01-5.83697E-01 1.13735E-01 4.10858E+00 1.32413E-01 3.25369E-01
 -1      3857 8.07505E+01-7.05353E-01-9.67629E-03 4.05070E+00 1.27067E-01 3.49338E-01
 -1      3858-2.13556E+01-1.11681E+00-8.38513E-02 7.82268E+00 2.07093E-01 1.12960E-01
 -1      3859-4.85421E+02-8.35659E-01 1.67358E-01 3.97204E+00 9.02053E-02 3.56689E-01
 -1      3860-3.85353E+02-1.57077E+00-7.40759E-02 7.13825E+00 1.03040E-01 1.70637E-01
 -1      3861-3.44769E+02-1.99853E+00-3.98077E-01 7.49975E+00 6.66430E-02 1.60410E-01
 -1      3862 7.80437E+01-5.31998E-01 2.82063E-01 4.10531E+00-5.32556E-02-2.46875E-01
 -1      3863-2.15024E+01-1.08566E+00-9.06545E-02 7.83697E+00-1.61376E-01-1.86758E-01
 -1      3864-6.04802E+01-1.60801E+00-3.97053E-01 8.04580E+00-1.21772E-01-1.60418E-01
 -1      3865-5.03291E+02-7.96941E-01-1.62558E-02 3.98265E+00 1.63174E-01 3.43441E-01
 -1      3866-3.82174E+02-1.38371E+00-6.58130E-02 7.68617E+00 5.89574E-02 1.25836E-01
 -1      3867 9.38164E+01-4.93440E-01-2.31049E-02 4.27982E+00-1.06893E-01-3.88652E-01
 -1      3868 8.21490E+01-6.91395E-01 1.86418E-01 3.91567E+00-1.68161E-01-3.01794E-01
 -1      3869-4.32094E+02-4.05652E-01 1.76444E-01 5.52392E+00 1.39647E-02 4.51537E-01
 -1      3870-3.50094E+02-9.89583E-01-7.32553E-03 1.02780E+01 1.79810E-02 3.23231E-01
 -1      3871-3.17251E+02-1.29426E+00-3.72244E-01 1.07017E+01 1.85094E-01 3.27916E-01
 -1      3872-4.39062E+02-3.41691E-01-1.67657E-02 5.76501E+00-2.04714E-02 4.55671E-01
 -1      3873-4.45293E+02-5.23975E-01-1.23509E-01 5.71883E+00 1.56515E-01 4.24920E-01
 -1      3874-3.44297E+02-8.71350E-01 1.32571E-02 1.08840E+01-1.60470E-02 1.92548E-01
 -1      3875-4.26155E+02-5.65424E-01 1.59998E-01 5.58397E+00 5.30277E-02 4.65120E-01
 -1      3876-4.98921E+02-6.04880E-01 4.63645E-02 4.00922E+00 2.26643E-02 3.43417E-01
 -1      3877-4.81251E+02-9.12920E-01 1.42328E-01 4.02204E+00 1.12062E-01 3.78299E-01
 -1      3878 1.82861E+01-5.00557E-01 1.11665E-01 6.35036E+00 7.72786E-02 2.75026E-01
 -1      3879-6.62338E+01-8.43886E-01-1.30210E-01 1.08587E+01 7.32820E-02 1.57581E-01
 -1      3880 5.20525E+01-1.89105E-01 1.38692E-01 5.61012E+00 3.94445E-02 4.36956E-01
 -1      3881 3.24357E+01-6.00675E-01-1.40311E-01 5.59169E+00 1.84933E-01 4.04461E-01
 -1      3882-5.05523E+01-6.67408E-01-2.91520E-02 1.04573E+01 1.68279E-01 2.38243E-01
 -1      3883-8.34692E+01-8.68254E-01 1.34251E-01 1.07991E+01-1.98918E-02 2.60320E-01
 -1      3884-4.65403E+02-5.29947E-01-5.32811E-02 4.94154E+00-9.55516E-02-4.51357E-01
 -1      3885-4.46953E+02-6.74131E-01 1.12052E-01 5.11690E+00-1.45926E-01-3.94832E-01
 -1      3886-2.79040E+02-2.13542E+00-1.62706E-01 4.85378E+00-2.10888E-02-5.22793E-02
 -1      3887-2.49138E+02-2.60508E-01 7.90137E-02 1.40451E+01-3.36361E-02-9.11024E-02
 -1      3888-2.46427E+02-9.50231E-01-1.06074E-01 1.42506E+01 1.33506E-02-9.47518E-02
 -1      3889-4.61061E+02-4.34994E-01-9.55049E-02 5.28424E+00-1.74875E-02-4.44769E-01
 -1      3890-3.58237E+02-1.04489E+00-4.80339E-02 1.00002E+01-5.47181E-02-1.68496E-01
 -1      3891 6.60234E+01-4.28329E-01 1.52766E-01 4.91821E+00-5.80689E-02-4.44386E-01
 -1      3892 4.69839E+01-4.49319E-01-1.76331E-02 5.19215E+00-4.29280E-02-4.00471E-01
 -1      3893 4.09836E+01-3.32688E-01 2.01462E-01 5.77967E+00 1.12474E-01 4.74452E-01
 -1      3894 4.59260E+01-3.32295E-01 2.02662E-01 5.42715E+00 6.66549E-02 5.11431E-01
 -1      3895 2.68840E+01-4.49826E-01-7.24537E-02 5.61126E+00 9.70801E-02 4.21744E-01
 -1      3896-5.46856E+01-5.45651E-01-1.00587E-01 1.10085E+01 1.58263E-01 1.86836E-01
 -1      3897 9.66667E+01-4.63303E-01-9.25216E-03 4.14023E+00-6.38719E-02-3.39735E-01
 -1      3898-1.92781E+01-1.08625E+00-5.09039E-02 7.71871E+00-1.25402E-01-1.35297E-01
 -1      3899-2.59275E+02-2.99776E-01 1.94341E-01 1.36815E+01 3.05394E-01-1.30025E-02
 -1      3900-3.15966E+02-2.58628E-01-6.09800E-02 8.04300E+00-1.16769E-02-3.68036E-02
 -1      3901-2.27328E+02-2.85150E-01-1.40027E-01 1.60894E+01-1.20882E-01 6.11800E-02
 -1      3902-8.23416E+01-1.37091E-01 9.67095E-02 8.08007E+00-1.11324E-02-4.31423E-02
 -1      3903-2.02870E+02-3.55312E-01 2.11826E-01 1.45718E+01-1.08079E-02 8.99596E-02
 -1      3904-1.71129E+02-2.22702E-01 1.41368E-01 1.61062E+01 8.30150E-02 8.30256E-02
 -1      3905-2.80375E+02-1.80845E+00 3.31749E-02 4.23620E+00 1.30807E-02-1.78925E-01
 -1      3906-3.99314E+02-1.82277E-01 6.71218E-02 6.53396E+00 7.39720E-02 4.32860E-01
 -1      3907-4.04600E+02-3.41113E-01 1.91485E-01 6.43399E+00-3.24478E-02 5.60967E-01
 -1      3908-3.12041E+02-6.77001E-01-3.91380E-02 1.23324E+01-4.18804E-03 2.78181E-01
 -1      3909-3.79851E+02-2.62995E-01 2.92469E-01 7.06340E+00 1.42681E-01 4.68542E-01
 -1      3910-3.08367E+02-6.69474E-01-1.18896E-01 1.23491E+01-5.87972E-02 2.61551E-01
 -1      3911-3.97285E+01-2.16441E-01 7.26110E-02 7.17001E+00 1.03074E-01 5.65093E-01
 -1      3912-2.99774E+01-5.29104E-02-7.22120E-02 6.52394E+00 4.56830E-02 5.18542E-01
 -1      3913-2.72445E+02-2.08613E+00-1.81139E-01 5.37763E+00 5.49913E-02 2.06774E-02
 -1      3914-3.62316E+02-2.32933E+00-2.38738E-01 4.82794E+00 1.45086E-01 1.28630E-01
 -1      3915 1.51890E-01-3.15922E-01-7.16721E-03 6.35307E+00-3.92438E-04 5.09198E-01
 -1      3916 8.45216E+00-5.80351E-01 4.85417E-02 5.67237E+00 1.07065E-01 5.12335E-01
 -1      3917-1.91966E+02-1.02893E+00-3.10733E-01 1.13014E+01-7.07399E-02-9.91102E-03
 -1      3918-2.50777E+02-1.16433E+00-2.68814E-01 1.24105E+01 6.62828E-02 1.66972E-02
 -1      3919-1.00649E+02-3.82963E-01-1.45554E-01 1.32258E+01 1.09993E-01 1.44216E-01
 -1      3920-9.13154E+01-2.08164E-01-9.31723E-03 1.26295E+01-3.16675E-02 2.81397E-01
 -1      3921-2.08775E+02-1.18480E+00 1.13010E-01 1.11676E+01 3.32567E-02-8.16971E-02
 -1      3922-1.49486E+02-9.37759E-01 6.84644E-02 1.24066E+01-3.54667E-02-7.50040E-02
 -1      3923-7.41872E+01-4.34479E-01 9.73776E-02 1.19093E+01-8.64865E-03 1.57199E-01
 -1      3924-6.52859E+01-6.19825E-01-5.50248E-02 1.14711E+01 1.47116E-01 3.07987E-01
 -1      3925 6.15297E+01-4.41756E-01 1.93779E-01 5.29158E+00-9.08495E-02-4.24419E-01
 -1      3926-4.23366E+01-7.84098E-01-7.83075E-02 1.00888E+01-9.40106E-02-9.63496E-02
 -1      3927-3.09824E+02-1.08675E+00 6.00473E-02 1.04400E+01-2.20375E-01-5.13339E-02
 -1      3928-4.14709E+02-7.30653E-01-3.49741E-02 6.02087E+00 7.28673E-02 7.67596E-02
 -1      3929-4.90135E+02-1.36600E+00 1.14334E-01 2.51291E+00 3.94961E-02 6.78867E-02
 -1      3930-2.42743E+02-6.19998E-01-2.71490E-01 1.45849E+01 2.86910E-02-4.89803E-02
 -1      3931-2.91918E+02-4.99850E-01-1.08058E-01 1.25910E+01 1.04230E-01 2.26910E-01
 -1      3932-9.09989E+01-9.80070E-01-3.44616E-01 1.05111E+01 1.72245E-01 3.54342E-02
 -1      3933 1.51263E+01-5.56951E-01 1.23093E-01 6.20896E+00 2.18477E-02 3.67124E-02
 -1      3934 1.38478E+02-1.72905E+00 1.63108E+00-1.08133E+00-1.63249E+00 8.21382E-01
 -1      3935 9.57218E+01-7.25511E-01 2.14172E+00 3.75365E+00-1.21370E+00 9.23554E-01
 -1      3936-1.68660E+02 1.35570E-01-3.92647E-01 7.81028E+00 2.59446E-02-5.64544E-01
 -1      3937-1.66265E+02 5.15110E-02-1.84834E-01 8.67575E+00 8.32655E-02-4.44194E-01
 -1      3938 1.41346E+02-5.31676E-01 1.34541E+00 1.66528E+00-6.76480E-01 8.32901E-01
 -1      3939-2.02664E+01-1.30058E+00 5.77406E-01 3.53000E+00-1.64214E+00 3.36517E-01
 -1      3940 1.02854E+02-4.53809E-01 9.19671E-01 2.36001E+00 8.99938E-01-2.01000E-01
 -1      3941 1.11116E+02-9.27439E-01 4.16915E-01 1.94217E+00 3.55699E-01-7.73253E-02
 -1      3942-1.61726E+02-7.31268E-03-1.84059E-01 7.93969E+00-2.88609E-02-5.78776E-01
 -1      3943-1.79045E+02 1.00662E-01-1.27538E-01 1.50070E+01-6.09391E-03-3.44328E-01
 -1      3944-4.83552E+02-9.24991E-01 1.55960E-02 3.94374E+00 1.03173E-01 1.67964E-01
 -1      3945-4.63469E+02-1.13309E+00 1.40102E-01 4.13340E+00 1.84208E-02 4.51823E-02
 -1      3946-3.45974E+02-1.84527E+00-2.96714E-01 7.10835E+00-4.67961E-02-1.85046E-03
 -1      3947-4.85439E+02-8.90091E-01 2.90497E-02 3.84738E+00-1.08170E-02-1.15094E-01
 -1      3948-3.66392E+02-1.64433E+00-1.75766E-01 7.30569E+00 1.05132E-01 2.70289E-02
 -1      3949-1.02688E+02 2.15990E-02-7.47790E-03 7.40507E+00-4.69268E-02-4.87767E-01
 -1      3950-2.95179E+02-1.33900E-01 3.20758E-02 7.41376E+00 3.85454E-02-5.11717E-01
 -1      3951-4.78787E+02-9.65647E-01 1.28616E-01 3.95801E+00 6.79655E-02 1.16048E-01
 -1      3952-3.40745E+02-1.66170E+00-1.51240E-01 7.82861E+00-2.25777E-02-3.04947E-02
 -1      3953-4.54551E+02-9.55502E-01-6.55638E-02 4.71595E+00-4.56811E-02-1.05724E-01
 -1      3954-4.80757E+02-9.55994E-01 1.15662E-01 3.86466E+00 2.40600E-02-1.78990E-01
 -1      3955 7.99542E+01-6.72870E-01 1.29336E-01 3.93547E+00-1.47612E-01-1.84705E-01
 -1      3956 5.34231E+01-8.67969E-01 1.40412E-01 4.74993E+00-3.74204E-02-5.62616E-02
 -1      3957-6.14834E+01-1.37568E+00-2.50192E-01 7.87855E+00 6.34403E-02-1.87297E-03
 -1      3958 7.81707E+01-6.46672E-01 6.68591E-02 4.03774E+00 4.68077E-02 1.19320E-01
 -1      3959-3.55639E+01-1.32612E+00-1.55192E-01 7.35329E+00-1.08544E-01 5.66884E-03
 -1      3960-1.39967E+02-1.63519E+00-5.92926E-02 8.52497E+00 3.68780E-02-3.80768E-02
 -1      3961-2.23958E+02-1.81808E+00-5.09698E-02 7.74613E+00 1.23910E-01-7.92492E-03
 -1      3962-2.84189E+02-1.47161E+00 3.42651E-02 8.60708E+00-1.64214E-02-6.07761E-02
 -1      3963-1.18558E+02-1.37036E+00-1.16443E-01 8.83168E+00 9.17285E-02 2.71040E-02
 -1      3964-2.02227E+02-1.78781E+00-2.32440E-01 8.30657E+00 2.14535E-02-2.45125E-03
 -1      3965-2.84032E+02-1.47340E+00-1.34411E-01 9.02120E+00-2.25816E-02-2.87570E-02
 -1      3966-2.58906E+02-1.63470E+00-3.13011E-02 9.53371E+00 8.56786E-03 2.71560E-03
 -1      3967-1.18586E+02-1.28824E+00 3.55828E-02 9.14183E+00 6.61206E-02 2.98480E-02
 -1      3968-1.77488E+02-1.61904E+00 4.95531E-03 8.53119E+00-8.04492E-02-3.24574E-02
 -1      3969 8.44956E+01-7.79617E-01 2.05561E-01 3.83244E+00-9.26676E-02-8.65781E-02
 -1      3970-5.63749E+01-1.45577E+00-1.35333E-01 7.14760E+00 1.86952E-03 2.22438E-02
 -1      3971 6.24375E+01-8.54818E-01 3.79786E-02 4.16927E+00 8.41309E-02 6.65363E-02
 -1      3972 8.28744E+01-7.08894E-01 2.17236E-01 3.93731E+00 2.17445E-02 1.36609E-01
 -1      3973-1.18504E+01-9.20702E-01 4.20652E-01 3.49444E+00 8.82517E-01-2.47783E-01
 -1      3974-3.58884E+00-1.31304E+00 1.60102E-02 3.36035E+00 4.33946E-01 2.83958E-02
 -1      3975-1.43948E+02-1.28844E+00-1.42294E-01 9.58454E+00-6.90307E-02 1.92302E-03
 -1      3976-2.24774E+02-1.54113E+00-2.70959E-01 8.57214E+00 1.09154E-01 1.66425E-02
 -1      3977-2.83910E+02-1.50556E+00-1.65172E-01 9.15488E+00 5.17457E-02 4.92348E-02
 -1      3978-1.18709E+02-1.35953E+00-5.96745E-04 8.99470E+00-1.21948E-01-1.37716E-02
 -1      3979-1.99990E+02-1.48699E+00-3.83025E-02 8.24799E+00-2.38759E-02 2.41420E-02
 -1      3980-1.76828E+00 1.04531E-01 2.13414E-01 6.04706E+00 2.67349E-01 1.76126E-01
 -1      3981-1.34895E+02-4.11401E-01-5.88907E-02 7.71963E+00-2.37254E-01 1.78383E-01
 -1      3982-1.81970E+02 3.71064E-01 2.65996E-01 1.67098E+01 4.92849E-03 9.40828E-02
 -1      3983-1.98409E+02-2.42871E-01-1.09214E-01 1.56567E+01 1.31635E-01 4.94597E-02
 -1      3984-2.84346E+02-1.52250E+00-1.97010E-02 8.74574E+00 4.67868E-02 5.84745E-02
 -1      3985-2.63183E+02-1.54448E+00-1.39968E-01 8.53345E+00 3.64217E-02 8.59961E-03
 -1      3986-1.18957E+02-1.43764E+00-1.61043E-01 8.66826E+00-9.66843E-02-2.94803E-02
 -1      3987-1.78451E+02-1.64391E+00-2.50701E-01 7.79686E+00-1.59868E-01 1.02271E-03
 -1      3988-1.52496E+02 1.22227E-02 1.14790E-01 8.06493E+00 3.66071E-02-5.64911E-01
 -1      3989 1.38651E+02-5.79119E-01 5.41123E-01 1.37269E+00-5.33290E-01 2.64210E-02
 -1      3990-2.59462E+02 1.28905E-02 3.64087E-01 7.79374E+00 4.88578E-02 5.63480E-01
 -1      3991 1.04752E+02-1.11775E+00 1.59928E-01 2.40636E+00 1.66505E-03 3.13343E-02
 -1      3992-5.25589E+02-1.00101E+00 7.47757E-02 2.48124E+00 6.31922E-02 2.07647E-01
 -1      3993-4.88842E+02-1.32158E+00 8.78433E-02 2.61562E+00 1.12267E-01 2.17140E-01
 -1      3994-5.25478E+02-8.89470E-01 2.79681E-02 2.71479E+00 9.08313E-02 1.81679E-01
 -1      3995-3.80308E+02-1.96830E+00-1.39048E-01 4.81907E+00 1.61516E-01 9.45997E-02
 -1      3996-2.89038E+02 2.76503E-02 5.67467E-02 7.87219E+00 1.21597E-01 5.89213E-01
 -1      3997-3.66828E+02-4.11011E-01 1.21081E-01 6.97168E+00 6.63214E-02 1.87431E-01
 -1      3998-2.15085E+02 6.91719E-02 1.67378E-01 1.44954E+01-2.68444E-01-2.87751E-01
 -1      3999-1.16603E+02-1.61142E+00 1.82992E-02 5.00167E+00 1.29809E-01 4.11266E-02
 -1      4000-3.79044E+02-2.59574E-01-9.58451E-02 6.82801E+00 1.68555E-02 5.04109E-01
 -1      4001-3.63700E+02-3.49605E-01 8.48408E-02 6.97628E+00 1.72235E-02 5.14523E-01
 -1      4002-3.01587E+02-4.61826E-01-1.02215E-01 1.27137E+01 6.43847E-02 1.78284E-01
 -1      4003-3.07662E+02-4.52020E-01 2.85412E-02 1.28246E+01-9.17267E-02 2.98329E-01
 -1      4004-3.69226E+02-3.84492E-01-6.34206E-02 6.51957E+00 1.24437E-02 4.65105E-01
 -1      4005-5.34611E+02-8.84807E-01 1.02532E-01 1.19102E+00 3.37766E-02 5.77846E-01
 -1      4006-2.72486E+02-2.23536E+00-8.40498E-02 5.13810E+00-8.36006E-03 1.19806E-01
 -1      4007-1.48401E+02-4.44835E+01-4.22267E+01-4.34481E-01-5.07386E-04-7.50133E+00
 -1      4008-2.42258E+02-3.06124E-01 1.22593E-02 1.53486E+01 4.95844E-02 3.41555E-02
 -1      4009-2.80916E+02-6.13143E-01-1.22237E-01 1.32118E+01-2.39073E-02 1.95663E-01
 -1      4010-2.38585E+02-4.36198E-01-1.53634E-01 1.51807E+01 2.00453E-02-1.99457E-02
 -1      4011-1.56762E+02-3.25247E-01-1.35679E-01 1.53861E+01-4.81994E-02-1.02961E-02
 -1      4012-1.94858E+02-3.88860E-01-1.93161E-01 1.40138E+01-1.88313E-01 4.53471E-02
 -1      4013-1.98896E+02-1.25603E-01 1.54829E-01 1.42919E+01 6.65917E-02 4.92503E-02
 -1      4014-2.16757E+02-3.03011E-01 2.43640E-01 7.27808E+00-1.01228E-01-5.56962E-01
 -1      4015-2.21222E+02-1.36094E-01 6.92477E-02 8.22313E+00-4.45663E-02-4.79924E-01
 -1      4016-2.26025E+02 2.78118E-02 3.12601E-01 1.48376E+01-6.94560E-02-3.64614E-01
 -1      4017-1.72493E+02-5.95026E-01-3.63062E-01 1.48911E+01 7.80974E-02-3.37302E-01
 -1      4018-2.41675E+02-3.50246E-01 3.03331E-01 1.33561E+01 5.47854E-03 3.38991E-01
 -1      4019-1.50985E+02-1.34768E+00-3.70431E-01 1.15453E+01-5.64940E-02 3.02202E-01
 -1      4020-2.49934E+02-9.55602E-01 1.14256E-01 1.16041E+01 3.76633E-02 2.82842E-01
 -1      4021-3.84953E+02-4.12374E-01 9.21174E-02 6.58611E+00-5.79914E-02 5.34112E-01
 -1      4022-3.06764E+02-6.48228E-01-6.27889E-02 1.25196E+01 9.72280E-04 2.26776E-01
 -1      4023-5.07283E+02-1.16086E+00 4.49049E-02 2.67167E+00 1.16097E-01 2.01352E-01
 -1      4024-3.98952E+02-1.77936E+00-6.44483E-02 5.16790E+00 8.06188E-02 1.28980E-01
 -1      4025-3.44809E+02-2.08381E-01 2.74383E-01 7.31699E+00-5.27738E-02 8.86720E-02
 -1      4026-3.47618E+02-3.48532E-01-1.28216E-01 6.80522E+00 7.33772E-02 2.04361E-01
 -1      4027-3.48142E+02-2.19176E-01-1.93983E-02 6.77430E+00-1.25824E-02-2.06252E-01
 -1      4028-2.84266E+02-4.34660E-01-3.71310E-02 1.25096E+01 1.02646E-01 7.04900E-02
 -1      4029-2.81388E+02-6.84804E-01-7.63646E-02 1.26542E+01-6.27296E-02 1.20358E-02
 -1      4030-3.92110E+02-2.42373E-01 8.91714E-02 6.58781E+00 4.89609E-02 6.14306E-01
 -1      4031-3.70743E+02-3.16399E-01 3.09793E-02 7.10537E+00 2.56926E-02 4.41423E-01
 -1      4032-2.14483E+02-1.17003E-01-2.59338E-01 1.68667E+01-7.75603E-02-3.98397E-03
 -1      4033-4.11890E+02-2.40729E-01-2.49896E-02 6.39984E+00 1.38778E-01 4.74151E-01
 -1      4034-5.35851E+02-7.22735E-01 3.67232E-01 1.09816E-01-1.76551E-01-1.63335E+00
 -1      4035-3.39175E+02-1.34850E-01 1.30361E-01 6.73653E+00-1.73822E-02 2.08308E-01
 -1      4036-2.69117E+02-3.01543E-01-3.37752E-02 1.31640E+01 6.07271E-02-5.04821E-02
 -1      4037-3.24211E+02-3.40024E-01-1.33472E-01 8.01316E+00 4.88037E-02-3.41852E-02
 -1      4038-3.40302E+02-2.42082E-01 1.45042E-01 6.76644E+00 7.18288E-02-2.36801E-01
 -1      4039-2.83429E+02-1.94711E+00-2.38260E-01 8.27126E+00 4.49954E-02 5.01782E-02
 -1      4040-2.61982E+02-1.63694E+00-1.23602E-01 7.79900E+00-5.95994E-02 6.99643E-02
 -1      4041-2.84441E+02-1.62732E+00-1.77507E-01 8.16822E+00-4.23729E-02-5.39916E-02
 -1      4042-1.18056E+02-1.80199E+00-2.00012E-01 8.16500E+00-8.98300E-02-3.47011E-02
 -1      4043-1.43019E+02-1.37873E+00-1.13600E-01 8.46935E+00 5.59951E-02-7.34685E-02
 -1      4044-1.18807E+02-1.43868E+00-1.36126E-01 8.32445E+00 7.95465E-02 4.27272E-02
 -1      4045-2.59654E+02-2.01161E+00-2.51105E-01 8.43554E+00-9.52038E-02-1.28094E-01
 -1      4046-1.40579E+02-2.00288E+00-2.73901E-01 7.80283E+00 1.18331E-01 9.35399E-02
 -1      4047-1.21862E+02-2.79794E-01 4.83951E-02 1.27249E+01-6.07048E-02 4.32788E-02
 -1      4048-4.87353E+01-2.08119E-01 1.78146E-01 6.74704E+00 3.59889E-02 1.75625E-01
 -1      4049-5.84696E+01-6.40080E-02-5.41779E-02 7.45839E+00-3.23978E-02-1.12429E-01
 -1      4050-1.22834E+02-1.90970E-01 2.05203E-01 1.33459E+01 2.23634E-02-2.80068E-01
 -1      4051-5.07949E+01-2.76596E-01 9.08806E-02 6.86946E+00 2.94506E-02-2.39694E-01
 -1      4052 5.37815E+00-6.44917E-03 1.03480E-02 6.45633E+00-2.60690E-02-5.06585E-01
 -1      4053-6.76723E+00-4.72929E-01 1.61213E-02 6.67077E+00 2.81534E-02 5.47492E-01
 -1      4054-2.71872E+02-1.00264E+00-1.36922E-01 1.16289E+01-4.40062E-02-4.24832E-02
 -1      4055-2.21526E+02-1.06771E+00-1.00133E-01 1.07337E+01-1.43705E-01-2.19087E-01
 -1      4056-1.49246E+02-9.52076E-01-1.69698E-01 1.20771E+01 7.02902E-02-1.01264E-01
 -1      4057-1.26843E+02-1.03943E+00 2.14988E-02 1.15743E+01 1.19587E-01 2.73156E-02
 -1      4058-7.75554E+01-1.23224E+00-3.35055E-01 1.03872E+01 6.88151E-02 1.65482E-01
 -1      4059-7.83946E+01-1.07150E+00-2.06675E-01 9.93360E+00-5.12850E-02 4.20773E-03
 -1      4060 4.34012E+01-4.34582E-01 3.65935E-02 5.10117E+00-4.66875E-02-2.00275E-01
 -1      4061 2.13422E+01-5.31096E-01 1.66847E-01 6.07816E+00 7.28792E-02 3.45756E-02
 -1      4062 4.49976E+01-4.15653E-01 4.35457E-02 5.10050E+00 1.25317E-01 1.83529E-01
 -1      4063 1.27545E+02-7.36301E-01 1.73416E-01 2.37030E+00-1.54280E-01-1.90682E-01
 -1      4064-2.41746E+02-3.79292E-01-1.27106E-01 1.55202E+01 3.69230E-02 2.31890E-02
 -1      4065-1.56950E+02-2.78664E-01 1.35331E-01 1.54597E+01-4.81993E-02-6.01630E-02
 -1      4066-1.71317E+02-2.27796E-01-1.94751E-01 1.59079E+01-4.81900E-02 1.14438E-01
 -1      4067-2.12784E+02-4.65113E-01-3.25771E-01 1.42164E+01 1.99040E-01-2.21547E-02
 -1      4068-2.04496E+02-4.79405E-01 2.59568E-01 1.40693E+01-1.09689E-01-2.18041E-02
 -1      4069-1.65743E+02-3.40371E-01 1.96361E-01 1.54167E+01 4.84218E-02-3.26659E-02
 -1      4070-3.77648E+02-3.29711E-01-2.17905E-01 7.01599E+00 3.11770E-02 4.64704E-01
 -1      4071-1.56029E+02-2.75393E-01-1.51096E-01 1.52593E+01 6.90219E-02 4.50893E-02
 -1      4072-1.88222E+02-1.92186E-01-4.95038E-02 1.39712E+01 1.78292E-01 2.94338E-02
 -1      4073-2.32801E+02-3.34784E-01-1.37677E-01 1.54246E+01-2.07395E-02 1.42079E-02
 -1      4074-2.42101E+02-4.49619E-01 1.18877E-01 1.52679E+01-5.04189E-02-9.06783E-02
 -1      4075-2.76186E+02-8.50274E-01-4.45156E-01 1.32968E+01-3.65701E-02-2.81258E-01
 -1      4076-2.87918E+02-2.46637E-01-1.26779E-02 1.33525E+01 9.30407E-03-2.87474E-01
 -1      4077-3.36887E+02-4.72144E-01-2.55538E-01 6.80965E+00-7.49865E-02-6.72226E-01
 -1      4078-3.40674E+02-4.12174E-01-9.62522E-02 7.39731E+00-2.65068E-02-4.57826E-01
 -1      4079-4.73696E+01-4.04170E-01-2.11965E-01 6.92831E+00-1.23989E-01-5.61116E-01
 -1      4080-1.02739E+02-1.88528E-01-5.57247E-02 1.31998E+01-4.36821E-03-2.69616E-01
 -1      4081-5.10660E+01-3.00116E-01-1.15993E-01 7.39073E+00-1.05209E-02-4.17785E-01
 -1      4082-2.49983E+02-1.52078E-01 4.56638E-02 7.91933E+00-8.32962E-02-6.30498E-01
 -1      4083-2.46508E+02-8.39788E-02-2.95291E-03 7.46376E+00 5.36213E-02-5.47614E-01
 -1      4084-2.31612E+02-1.58395E-01-1.29026E-01 1.48199E+01-9.76189E-02-2.27115E-01
 -1      4085-2.28816E+02-1.15068E-02 2.17914E-02 1.45971E+01 1.29902E-01-3.27278E-01
 -1      4086-3.44282E+02-2.34298E-01-1.99542E-02 6.80843E+00-3.43393E-02-6.42952E-01
 -1      4087-2.92113E+02-3.68660E-01-3.15854E-02 1.34234E+01-2.14531E-02-2.10601E-01
 -1      4088-5.46112E+01-1.06448E-01-3.30177E-02 6.88289E+00-1.25358E-02-6.18348E-01
 -1      4089-1.06795E+02-1.82889E-01-2.01468E-02 1.34988E+01-5.85810E-03-1.74983E-01
 -1      4090-2.92596E+01-2.52579E-01 1.36646E-01 7.33686E+00 9.99465E-03-3.22088E-01
 -1      4091-1.19838E+02-1.83231E-01 1.77539E-02 8.47911E+00-1.09803E-02-4.74296E-01
 -1      4092-2.77978E+02 7.20449E-02-3.94497E-03 8.47440E+00-1.73256E-02-4.86514E-01
 -1      4093-1.03409E+01-4.21618E-01-2.37478E-01 7.00425E+00-2.25303E-02-3.07900E-01
 -1      4094-1.42747E+02 1.50385E-01 2.79984E-01 8.48310E+00-5.78119E-02-3.78505E-01
 -1      4095-2.51417E+02-1.85826E-02-3.98567E-02 7.67192E+00-2.84696E-02-4.86417E-01
 -1      4096-2.54564E+02-3.70424E-01-5.56044E-02 8.59909E+00 3.87006E-02-4.95930E-01
 -1      4097 9.52156E+01-9.96555E-01 1.85151E-02 2.69819E+00-1.49799E-01-1.37135E-01
 -1      4098 4.24099E+01-2.59263E-01 2.71701E-01 5.15683E+00 3.18771E-02 5.27848E-01
 -1      4099-4.33816E+01-8.01138E-01-4.00085E-02 1.00327E+01 1.08641E-01 1.56174E-01
 -1      4100 4.53864E+01-2.98263E-01 9.13525E-02 5.54262E+00 5.90790E-02 3.28222E-01
 -1      4101-4.75663E+02-1.15178E+00 8.64859E-02 3.80597E+00 3.62643E-02-5.83620E-02
 -1      4102-3.57700E+02-1.78418E+00-2.46041E-01 7.09624E+00-1.12305E-01-1.62755E-01
 -1      4103 4.79257E+01-4.76385E-01 9.20368E-02 5.10690E+00 9.28921E-02 4.67606E-01
 -1      4104-3.97450E+01-7.50049E-01-4.00935E-02 9.94052E+00 9.72032E-02 1.41274E-01
 -1      4105-4.96532E+02-1.18660E+00-7.35207E-02 2.71650E+00-1.10922E-01-1.37149E-01
 -1      4106 1.01433E+02-1.04214E+00-1.58235E-02 2.19395E+00-1.94842E-01-6.51974E-02
 -1      4107-4.90776E+02-1.06140E+00 7.50441E-02 3.16560E+00 1.79361E-01 7.04013E-02
 -1      4108-3.66605E+02-2.12520E+00-1.50571E-01 5.41014E+00 1.29758E-02 1.32950E-01
 -1      4109-2.38470E+02-2.88243E-01 8.26691E-02 1.49643E+01-6.61158E-03 1.30926E-01
 -1      4110-2.87460E+02-4.94230E-01 8.85125E-02 1.27557E+01-1.34422E-01 2.61119E-01
 -1      4111-3.02729E+02 1.76532E-03 8.22738E-03 7.74394E+00-2.09725E-01-6.50334E-02
 -1      4112-2.58486E+02-2.63371E-01 1.79901E-01 1.36142E+01 1.54643E-01-3.45672E-01
 -1      4113-2.24804E+02-1.45025E-01 1.19832E-02 1.60594E+01 4.05408E-02-1.62304E-01
 -1      4114-9.52449E+01-2.03012E-01 3.71253E-02 7.76899E+00 1.76892E-01-3.62845E-02
 -1      4115-1.39754E+02-1.20737E-01-2.04973E-01 1.36379E+01-1.90677E-01-3.24888E-01
 -1      4116-1.73346E+02-1.54253E-01-3.32194E-03 1.60854E+01-6.51987E-02-1.42617E-01
 -1      4117-5.11330E+01-2.06289E-01-3.04503E-02 7.19627E+00 9.95718E-02 1.15310E-01
 -1      4118-1.15453E+02-4.29685E-01 1.48201E-01 1.30040E+01-2.06587E-02 3.14561E-01
 -1      4119-3.52903E+02-2.94506E-01 1.69224E-02 7.39196E+00 5.72375E-02 1.79192E-01
 -1      4120-2.71796E+02-3.84212E-01-1.03944E-02 1.31590E+01 8.42004E-02 1.06699E-01
 -1      4121-1.59488E+02-3.74892E-01-1.82572E-02 1.51028E+01-2.02484E-02 5.62842E-02
 -1      4122 6.37637E+01-8.49240E-01 1.46152E-01 4.49830E+00-6.52746E-02 6.01798E-02
 -1      4123-5.06927E+01-1.26881E+00-1.90560E-01 8.01327E+00 1.68055E-01 1.38695E-01
 -1      4124-4.64666E+02-7.96189E-01 2.00684E-02 4.47539E+00 1.94020E-01 9.94753E-02
 -1      4125-3.51339E+02-1.74852E+00-1.28856E-01 7.96025E+00 1.92842E-02 1.70715E-01
 -1      4126-2.41989E+02-7.44225E-01-1.20440E-01 1.41672E+01-4.20814E-02 1.09517E-01
 -1      4127-2.38044E+02-2.90557E-01-1.05970E-01 1.36991E+01-1.23899E-01 1.30277E-01
 -1      4128 7.45597E+01-7.33644E-01 1.15007E-01 3.86325E+00-1.75996E-01-7.15704E-02
 -1      4129-4.47800E+01-1.55696E+00-1.02245E-01 7.14122E+00-1.07227E-01-1.40586E-01
 -1      4130-2.73897E+02-1.54336E+00-7.66623E-03 8.25833E+00-9.28733E-02-6.00779E-02
 -1      4131-1.32419E+02-1.24911E+00 1.28897E-02 9.44428E+00 1.46583E-01 4.15492E-02
 -1      4132-3.28278E+02 6.16162E-02 4.09019E-02 7.36954E+00 2.12201E-01 1.78522E-01
 -1      4133-2.73647E+02-3.89516E-01 3.61298E-02 1.32761E+01-8.46159E-02 2.17611E-01
 -1      4134-2.31898E+02-3.72035E-01-1.15157E-01 1.56429E+01-1.88118E-01 3.98574E-02
 -1      4135-2.53909E+02-8.35772E-01-2.88280E-02 1.28850E+01-2.62565E-02 1.41367E-01
 -1      4136-3.19867E+02-1.02704E+00 5.35655E-02 1.08527E+01-9.94054E-02 2.88432E-01
 -1      4137-1.46159E+02-8.10909E-01-1.12013E-01 1.28971E+01 2.36506E-02 1.32949E-01
 -1      4138-8.02807E+01-6.97025E-01-2.13215E-01 1.09759E+01 2.05255E-01 3.16380E-01
 -1      4139-5.05137E+02-3.38593E-01 8.57258E-01 1.78839E-01-2.72916E-01 1.75524E+00
 -1      4140-4.09703E+02-4.11508E-01 3.70174E-02 6.22693E+00 1.88547E-01 4.80033E-02
 -1      4141 1.01019E+01-4.21006E-01 1.28364E-01 6.27483E+00-4.29748E-02 4.62796E-02
 -1      4142 1.36419E+02-4.50821E-01 3.25046E-01 1.67597E+00 2.77622E-01 5.58438E-02
 -1      4143 1.04121E+02-3.69244E-01 8.64805E-01 2.14746E+00 8.19740E-01-2.26098E-01
 -1      4144-2.77358E+02-1.86436E+00-1.10166E-01 6.52389E+00 3.44823E-03 8.58218E-02
 -1      4145-4.49130E+02-7.16066E-01 1.39307E-01 5.33943E+00-8.78702E-02-2.48460E-01
 -1      4146-1.03226E+02-3.07601E-02 5.22667E-02 8.31698E+00-2.90830E-03-4.68715E-01
 -1      4147-2.94715E+02-1.48012E-01-5.52305E-02 8.32220E+00-1.35651E-02-4.76807E-01
 -1      4148-3.20863E+02-1.70035E-01-2.34940E-01 7.99015E+00-1.06853E-02 3.84661E-01
 -1      4149-3.51892E+02-2.14359E-01-6.38970E-02 7.00433E+00 2.45120E-02 4.96443E-01
 -1      4150-3.45391E+02-3.65153E-01 4.67854E-02 7.83073E+00 1.01597E-02 4.59687E-01
 -1      4151-3.41334E+02-2.71073E-01 9.49195E-02 7.29729E+00 6.35324E-02 6.05145E-01
 -1      4152-2.88685E+02-4.74405E-01-7.97381E-02 1.35831E+01 7.19542E-02 1.57125E-01
 -1      4153-7.72392E+01-1.17697E-01 1.94830E-01 7.99583E+00 3.71288E-02 3.62619E-01
 -1      4154-2.03601E+01-9.81237E-02-6.19353E-03 6.70268E+00 6.90228E-02 4.43797E-01
 -1      4155-4.37669E+01-2.81343E-01 3.80225E-03 7.73542E+00 1.57892E-02 4.34261E-01
 -1      4156 8.60414E+01-7.52413E-01 1.03996E-01 3.50566E+00 1.20965E-01 1.51449E-01
 -1      4157-4.03061E+02-5.10435E-01-5.16278E-02 6.71498E+00 4.20226E-02 3.73599E-01
 -1      4158-4.79242E+02-9.80198E-01 8.66879E-02 3.99148E+00-7.75423E-02-1.90676E-01
 -1      4159 5.94308E+01-6.72815E-01 1.18839E-01 4.96628E+00 7.85681E-02 2.22054E-01
 -1      4160-2.59052E+02-1.06697E+00-1.18904E-01 1.18931E+01 1.42102E-01-3.19650E-02
 -1      4161-3.31584E+02-1.14567E+00 3.66618E-02 9.91538E+00 6.24436E-02-2.95291E-01
 -1      4162 1.73161E+01-1.99718E-01 5.30233E-02 6.10784E+00 1.37781E-02 4.31379E-01
 -1      4163 3.81867E+00-2.79197E-01-3.69532E-02 6.83733E+00 5.56109E-02 4.04943E-01
 -1      4164 6.27529E+01-3.45011E-01 6.80898E-02 5.20520E+00 6.05720E-02 3.61857E-01
 -1      4165-2.70276E+02-1.54044E+00-1.48044E-01 9.41718E+00-5.00929E-02 6.45212E-02
 -1      4166 4.88978E+01-6.09592E-01-1.62894E-01 5.39941E+00-7.81194E-02-2.42518E-01
 -1      4167-4.29878E+02-4.95519E-01 8.79515E-02 5.70157E+00-1.91375E-01-1.28293E-01
 -1      4168 3.00210E+01-7.17342E-01 6.12962E-02 5.62332E+00 1.02935E-01-1.37201E-01
 -1      4169-6.94915E+01-1.07075E+00-3.31966E-01 9.98824E+00-1.84085E-01-1.79449E-01
 -1      4170-5.02384E+02-1.09142E+00 1.52852E-01 1.81017E+00-3.15170E-02-4.23030E-01
 -1      4171-1.29393E+02-1.59191E+00-1.46849E-01 8.27827E+00-9.17095E-03-2.90957E-02
 -1      4172-1.41789E+02-9.30559E-01 1.66922E-02 1.19415E+01-1.52877E-01-5.65474E-02
 -1      4173-4.59847E+02-8.23193E-01-1.63413E-01 4.95011E+00 8.58894E-02 2.42856E-01
 -1      4174-4.87226E+02-1.07473E+00-1.34338E-01 3.51303E+00 9.58896E-02 1.76125E-01
 -1      4175 2.45526E+01-4.66104E-01 1.54311E-01 6.15859E+00-8.46720E-02-2.89154E-01
 -1      4176 7.85122E+01-8.14425E-01-1.42358E-01 4.06720E+00-1.24998E-01-1.83434E-01
 -1      4177-4.24124E+02-5.82944E-01-1.84147E-01 6.15245E+00-6.98806E-02-2.92359E-01
 -1      4178-9.85348E+01-5.35148E-02 1.12287E-01 7.77243E+00 2.83867E-02-4.59769E-01
 -1      4179-1.37086E+02-1.55460E-01 1.79761E-01 1.43808E+01-1.81829E-01-2.23008E-01
 -1      4180-2.61007E+02-1.12586E-01-1.80436E-01 1.43633E+01 1.47062E-01-2.33356E-01
 -1      4181-3.49743E+02-4.43116E-01-1.02437E-01 7.33794E+00-3.68906E-04 5.05944E-01
 -1      4182-2.99442E+02-1.33630E-01-9.69473E-02 7.77430E+00-4.67137E-02-4.77904E-01
 -1      4183-2.92842E+02-4.22087E-01-1.01594E-01 1.34562E+01-6.07662E-02 1.85684E-01
 -1      4184-2.76960E+02-8.56414E-02-1.97506E-01 1.38523E+01-2.27215E-01 2.62578E-01
 -1      4185-3.25542E+02-3.68599E-02-1.64918E-01 7.48688E+00 2.90332E-02 5.61776E-01
 -1      4186-4.79390E+01-2.98665E-01-1.60114E-01 7.23090E+00 1.69077E-02 4.97788E-01
 -1      4187-1.04513E+02-1.80090E-01-7.80011E-02 1.34082E+01-7.44006E-02 2.07243E-01
 -1      4188-4.07005E+02-5.09121E-01-7.60704E-02 6.28488E+00 7.76818E-02 4.02090E-01
 -1      4189-3.28627E+02-7.41958E-01-1.78578E-01 1.15769E+01-8.42911E-02 2.06923E-01
 -1      4190-4.77181E+02-1.06371E+00 1.47286E-01 3.75335E+00-9.34579E-02-2.79497E-01
 -1      4191-3.74044E+02-1.71362E+00-1.75075E-02 7.09706E+00-2.10132E-01-1.35688E-01
 -1      4192-3.77002E+01-1.22198E+00 3.00913E-02 8.52061E+00 2.73310E-01 1.41460E-01
 -1      4193 6.21211E+01-7.80694E-01 1.99433E-01 4.60346E+00 1.07950E-01 3.08119E-01
 -1      4194 7.44795E+00-2.97461E-01 1.72364E-01 6.35462E+00 8.82458E-02 4.31017E-01
 -1      4195-4.89505E+02-1.06745E+00-4.45357E-02 3.29708E+00 1.19613E-01 2.28152E-01
 -1      4196-4.62835E+02-7.84877E-01-1.05041E-01 4.62712E+00 9.85296E-02 3.29707E-01
 -1      4197-7.10779E+01-6.59860E-01 1.98904E-02 1.16794E+01 1.68346E-01 1.83156E-01
 -1      4198-5.81834E+01-8.93534E-01 7.84175E-02 1.06172E+01-2.68351E-01-1.95752E-01
 -1      4199-3.51547E+02-1.86268E-01 4.39375E-03 7.06489E+00-1.14576E-02-5.08136E-01
 -1      4200-4.66162E+01-1.13354E-01-1.61812E-03 7.10459E+00-3.27121E-02-4.80969E-01
 -1      4201-3.39734E+02-2.40899E-01 1.26538E-01 7.57120E+00 8.54816E-03-1.35511E-01
 -1      4202-4.27810E+02-5.10893E-01-1.18348E-01 5.76851E+00-9.19462E-02-4.06850E-01
 -1      4203 7.61763E+01-7.62831E-01-4.02465E-02 3.86991E+00-1.52405E-01-2.47077E-01
 -1      4204-3.65297E+02-1.21808E+00-1.90547E-01 8.46647E+00-6.36705E-02 1.92177E-01
 -1      4205-2.71923E+01-1.14030E+00-1.81158E-01 7.20654E+00-4.10172E-02-1.43304E-01
 -1      4206-3.82924E+02-1.65435E+00-1.88741E-01 5.95431E+00 1.22491E-02 1.51947E-01
 -1      4207-3.42367E+02-8.29233E-01-2.22880E-01 1.05929E+01 1.17823E-01-2.04610E-01
 -1      4208 2.80800E+01-6.03503E-01 1.66920E-01 5.73783E+00-7.46893E-02-4.19906E-01
 -1      4209-2.01149E+02-1.91346E+00-1.85313E-01 7.85221E+00 4.46359E-02 1.79497E-01
 -1      4210-1.29051E+02-1.99516E+00-2.78722E-01 7.69055E+00-5.77580E-02-6.98723E-02
 -1      4211-2.01857E+02-2.10890E+00-2.27240E-01 6.65465E+00-5.94265E-02-2.01127E-01
 -1      4212-1.98950E+02-2.56902E-01 2.19565E-02 1.59136E+01 2.97913E-02 3.47263E-01
 -1      4213-2.26352E+02-5.80288E-01-9.80794E-02 1.46777E+01 8.31730E-02-2.81934E-01
 -1      4214-1.71915E+02 1.50592E-01 9.42161E-02 1.47071E+01-9.59714E-02-2.75916E-01
 -1      4215-1.99302E+02-6.88599E-01-6.88927E-02 1.43030E+01-4.91025E-03-1.83661E-01
 -1      4216-1.66908E+02-6.66336E-01-2.90429E-01 1.39332E+01-2.61487E-02-1.78453E-01
 -1      4217-2.32345E+02-7.56526E-02-1.62631E-01 1.39904E+01 9.58254E-02-2.23087E-01
 -1      4218-1.60612E+02-5.88012E-01-2.19319E-01 1.38020E+01 8.81125E-02 1.43520E-01
 -1      4219-2.40172E+02-6.12441E-01-2.23520E-01 1.35624E+01-5.41940E-02 1.59311E-01
 -1      4220-1.99357E+02-3.11776E-01-3.82964E-02 1.45464E+01 1.11763E-02-1.43483E-01
 -1      4221-2.32960E+02-8.40874E-01-1.20580E-01 1.41397E+01-1.01430E-01 1.27507E-01
 -1      4222-2.77940E+02-2.34262E+00-2.59177E-01 5.84243E+00 1.24976E-02 1.10830E-01
 -1      4223-2.73648E+02-1.60139E+00-1.69166E-01 7.66794E+00-2.60033E-02-7.55837E-02
 -1      4224-2.00172E+02-9.53573E-01-8.57606E-02 1.28981E+01-2.14181E-02-3.19690E-01
 -1      4225-2.55349E+02-1.31385E+00-2.02105E-01 1.17307E+01-4.30525E-02 2.49696E-01
 -1      4226-1.45268E+02-7.04927E-01-5.51114E-02 1.17699E+01 8.41913E-02 2.77624E-01
 -1      4227-8.79226E+01-2.62654E-02 1.61300E-01 7.48641E+00 1.74911E-03-4.88575E-01
 -1      4228-3.65350E+02-2.10003E-01-1.23289E-01 6.92366E+00 4.97149E-02 4.68330E-01
 -1      4229-3.09997E+02-1.04574E-01-1.44042E-01 7.47000E+00-2.11338E-02-4.97148E-01
 -1      4230-3.38292E+02-1.30039E-01-1.43522E-01 7.28092E+00-3.42843E-03 4.82047E-01
 -1      4231-3.35453E+01-9.88568E-02-1.05436E-01 6.96707E+00 3.41228E-02 4.66908E-01
 -1      4232-4.12300E+02-2.38381E-01 3.52507E-02 6.52531E+00-1.17702E-01-4.28539E-01
 -1      4233-5.04111E+02-7.39406E-01 1.45931E-01 3.78400E+00-6.96513E-02-2.67999E-01
 -1      4234-4.27954E+02-3.92273E-01-8.36611E-02 6.01363E+00 3.78516E-02 3.94720E-01
 -1      4235 8.86972E+01-4.74329E-01 1.71008E-01 4.46145E+00 1.03336E-01 2.84349E-01
 -1      4236-2.01263E+02-1.65834E+00-1.67024E-01 9.21674E+00-2.73311E-02-2.21466E-01
 -1      4237-1.32130E+02-1.29580E+00-1.37255E-01 8.47454E+00 4.23936E-02 8.12111E-02
 -1      4238-2.00356E+02-1.15309E+00-1.21026E-01 1.12571E+01-8.43369E-04 1.53650E-01
 -1      4239-1.49440E+02-9.83044E-01-9.18091E-02 1.06581E+01 1.26308E-02 3.09388E-01
 -1      4240-1.39933E+02-8.59854E-01 8.37695E-02 1.06279E+01-4.94633E-02-1.27413E-01
 -1      4241-2.70360E+02-2.00495E+00-2.61737E-01 8.45946E+00 3.36201E-02 1.02733E-01
 -1      4242 2.88730E+01-2.63893E-01 1.75720E-01 6.03646E+00 3.91202E-02 3.96849E-01
 -1      4243-4.90237E+02-6.20151E-01-3.18332E-02 4.38808E+00 5.45839E-02 2.94065E-01
 -1      4244-5.19934E+02-7.98241E-01 1.11484E-02 3.06481E+00 7.88468E-02 1.95131E-01
 -1      4245-2.61039E+02-1.69186E+00-3.50783E-01 1.08457E+01 8.06242E-02 6.73805E-02
 -1      4246-2.00515E+02-1.39442E+00-1.13906E-01 1.05417E+01 4.79969E-02 2.27363E-01
 -1      4247 5.15293E+01-3.41347E-01 1.72465E-01 5.56879E+00-7.16419E-02-3.61177E-01
 -1      4248-4.51099E+02-4.33414E-01-6.56649E-02 5.53202E+00-4.25228E-02-3.56069E-01
 -1      4249 1.04409E+02-5.14793E-01 1.36588E-02 3.82335E+00-1.13339E-01-2.45498E-01
 -1      4250-6.18524E+01 1.72008E-01 3.04152E-01 6.80515E+00 6.70072E-02-6.52202E-01
 -1      4251-5.80464E+01 8.83058E-02 1.02171E-01 7.41329E+00 4.61366E-03-4.34356E-01
 -1      4252-1.10834E+02-2.28127E-01 3.20934E-02 1.33793E+01-3.35155E-02-2.62763E-01
 -1      4253-2.96288E+02-5.57818E-01-2.80844E-02 1.30084E+01-6.19730E-02-2.02101E-01
 -1      4254-3.47645E+02-4.53842E-02 1.01951E-01 7.33043E+00-4.08238E-03-4.44659E-01
 -1      4255-3.51576E+02-4.87310E-02 1.69846E-01 6.86748E+00 2.16588E-02-6.47021E-01
 -1      4256 5.31167E+01-6.12571E-01-1.00139E-01 5.05957E+00 1.64423E-01 4.06919E-01
 -1      4257 5.04681E+01-6.09698E-01-9.81136E-02 5.43206E+00 8.05013E-02 3.00166E-01
 -1      4258-3.68824E+01-7.11598E-01-7.91079E-02 9.52783E+00 7.33543E-02 1.92667E-01
 -1      4259-2.33758E+02-1.56831E-01 9.81082E-02 7.50991E+00 1.38793E-01-1.43638E-01
 -1      4260-2.18146E+02 2.53498E-02 3.06429E-01 1.46450E+01-4.75821E-02-1.14915E-01
 -1      4261-3.70560E+02-3.22666E-01-5.01182E-02 7.21794E+00 5.87188E-03-4.09986E-01
 -1      4262-1.87886E+02 8.31778E-01 1.84004E-01 4.87568E+00 1.42401E-01-6.54101E-01
 -1      4263-1.83664E+02 4.50943E-01 2.03189E-01 7.38959E+00-1.26569E-01-4.07265E-01
 -1      4264-1.88110E+02-1.82596E-02-3.79514E-01 7.82666E+00 4.12997E-02-6.23251E-01
 -1      4265-1.92154E+02-2.18450E-02-4.30055E-02 1.28090E+01 6.05147E-02-3.64123E-01
 -1      4266-1.97702E+02-5.20995E+00-8.80874E-01 1.50369E+01 4.85214E-01-2.83594E-01
 -1      4267-1.95650E+02-3.38576E+00-6.44116E-01 1.29985E+01 3.78525E-01-2.95373E-01
 -1      4268-5.26648E+02 1.93293E+00-8.27921E+00-7.59085E+00 1.10888E+00-1.03086E+01
 -1      4269-5.85437E+02 9.10234E+00-5.51190E+00-2.34322E+00-8.23981E+00-2.21692E+01
 -1      4270-4.62628E+02-1.77410E+01-1.54397E+01 9.16666E+00-1.91458E+00-1.24200E+01
 -1      4271-5.45101E+02-6.47714E+00-3.45644E+01 9.62729E+00 5.90994E-01-2.44070E+01
 -1      4272-1.78880E+02-2.35447E+00 1.99991E-01 4.17784E+00 3.87406E-02 1.37547E-02
 -1      4273-1.92369E+02-5.22568E-01 3.24888E-01 1.57450E+01 8.91555E-02-2.56014E-02
 -1      4274-1.94424E+02-1.49148E-01-3.80173E-01 1.61694E+01-1.37457E-01-1.62913E-02
 -1      4275-1.78491E+02-2.51501E+00-3.16219E-01 5.18795E+00-3.06354E-03 1.78924E-02
 -1      4276-2.16710E+02-2.69115E-01 9.26497E-02 5.08250E+00-7.35777E-02 6.74189E-01
 -1      4277-2.09999E+02-8.26101E-01-2.03881E-01 4.93853E+00 1.93237E-01 6.15137E-01
 -1      4278-2.09136E+02 6.15539E-02 4.63697E-01 7.78158E+00 1.42568E-01 7.23429E-01
 -1      4279-2.04851E+02 2.95724E-02 2.42904E-01 1.26013E+01 7.07896E-02 4.63102E-01
 -1      4280-2.36960E+02-1.02197E-01 1.49342E-01 7.41270E+00 6.35586E-02-5.66789E-01
 -1      4281-2.30609E+02-1.48024E-01-8.28926E-03 8.34359E+00 6.35000E-02-6.29542E-01
 -1      4282-1.84416E+02-8.74715E-01 2.40490E-01 1.33803E+01 4.28111E-02 1.26525E-01
 -1      4283-1.92344E+02-4.45790E+00-7.84697E-01 5.93850E+00 1.23302E-01-6.19960E-01
 -1      4284-1.92158E+02-3.48923E+00-7.90154E-01 5.64850E+00 2.44526E-01-4.77956E-01
 -1      4285-1.85716E+02-6.72756E-01-1.30870E-01 1.39143E+01-6.45765E-02 1.13891E-01
 -1      4286-2.10356E+02-1.75032E+00 5.52256E-01 4.03278E+00-1.43174E-01-5.01067E-01
 -1      4287-1.88368E+02 1.10947E+00 1.07846E-01 4.91015E+00-8.63260E-02 6.05367E-01
 -1      4288-1.83578E+02 5.13028E-01 2.46561E-01 7.31723E+00 1.38060E-01 3.84964E-01
 -1      4289-1.88484E+02 4.81506E-01-3.77771E-01 7.47652E+00-1.41198E-02 5.86481E-01
 -1      4290-1.92080E+02 9.69790E-01 7.37177E-02 1.29072E+01-1.64973E-01 4.63844E-01
 -1      4291 1.74939E+02-7.93553E+00 4.85682E+00-1.65884E+01 5.82801E+00-7.81435E+00
 -1      4292 1.36337E+02-4.81706E+00 5.98212E+00-7.98069E+00 2.70505E+00-5.49314E+00
 -1      4293 1.18593E+02-6.28425E+00 8.97499E+00-1.03113E+00 4.95728E+00-6.71378E+00
 -1      4294 3.95364E+01-9.63335E+00 2.00812E+00-1.14527E+01 5.34630E+00-2.56918E-01
 -1      4295-1.97636E+02-5.14358E+00-9.00979E-01 1.17095E+01 1.06950E-01-1.20571E-01
 -1      4296-5.84786E+02 4.91097E+00-5.33465E+00-4.62036E+00 9.11774E+00 2.17246E+01
 -1      4297-5.26648E+02 9.06927E-01-8.57219E+00-6.86249E+00-4.38596E-01 9.58661E+00
 -1      4298-5.49651E+02-1.60359E+01-4.04087E+01 8.89995E+00 1.41777E+00 2.18081E+01
 -1      4299-4.64702E+02-1.83879E+01-1.40141E+01 8.44213E+00 1.58169E+00 1.29297E+01
 -1      4300-2.14087E+02-6.04188E-01-1.96684E-01 7.21132E+00 1.50107E-01-3.64681E-01
 -1      4301-2.09397E+02-1.12067E+00-1.78163E-01 4.94458E+00-1.01141E-01-6.23561E-01
 -1      4302-2.05595E+02 1.34029E-01 1.07127E-01 1.27054E+01-2.10813E-01-5.00220E-01
 -1      4303-2.09355E+02-4.59728E-01 2.80014E-01 7.28851E+00-4.50183E-02-5.44406E-01
 -1      4304-2.08663E+02-5.31297E-01 9.26682E-02 1.46064E+01-8.81470E-02-3.45499E-01
 -1      4305 1.68720E+02-1.20329E+00 3.34272E+01-1.01401E+01 1.79101E+00-9.62248E+00
 -1      4306 2.92423E+01-1.58606E+00 7.88556E+00-8.07853E+00 4.59642E+00-2.33633E+00
 -1      4307-2.00007E+02 4.77684E+00 7.61435E-01 1.51745E+01 4.48449E-01 2.39041E-01
 -1      4308-2.01916E+02 3.56748E+00 7.29094E-01 1.28171E+01 2.99351E-01 3.53373E-01
 -1      4309 1.74881E+02-7.78647E+00 4.98546E+00-1.65436E+01-5.87727E+00 7.89128E+00
 -1      4310 1.36327E+02-4.80815E+00 5.99048E+00-7.91267E+00-2.77765E+00 5.55817E+00
 -1      4311 1.18587E+02-7.04169E+00 8.48389E+00-8.15862E-01-4.46044E+00 6.60466E+00
 -1      4312 3.98884E+01-9.84740E+00 2.16067E+00-1.10846E+01-5.14091E+00 4.91532E-02
 -1      4313-2.91896E+02-2.71288E-01 3.01302E-02 1.32975E+01-8.66301E-02 2.95830E-01
 -1      4314-3.44403E+02-4.04705E-01-1.17056E-01 6.72281E+00-2.58474E-02 6.49397E-01
 -1      4315 1.61828E+02-1.32572E+00 2.17179E+01-1.37121E+01 1.79070E+00-1.62073E+01
 -1      4316 1.67506E+02-1.30515E+00 3.39209E+01-9.32929E+00-2.83640E+00 9.73208E+00
 -1      4317 2.99982E+01-1.67618E+00 8.26784E+00-7.73519E+00-4.39335E+00 1.72930E+00
 -1      4318-2.05258E+02 4.55908E+00 8.32895E-01 5.96619E+00 1.18240E-01 6.74334E-01
 -1      4319-2.05438E+02 3.56304E+00 7.88372E-01 5.66617E+00 2.32615E-01 5.10798E-01
 -1      4320-2.00107E+02 4.87942E+00 7.95313E-01 1.16103E+01 2.73620E-02 1.14049E-01
 -1      4321-3.93264E+02-6.04854E+01-2.76249E+01 2.26960E+00 6.17877E+00-3.17577E+01
 -1      4322-3.16372E+00-5.61618E+00 9.54475E+00-2.53136E+01-5.02924E-01-2.79058E+00
 -1      4323 8.09947E+01-5.55979E+00 4.53748E+00-2.59066E+01 2.49212E+00-6.07782E+00
 -1      4324-1.93168E+02-4.22959E+00-1.24570E+00 6.46494E+00-1.05910E-01 4.17971E-01
 -1      4325-4.69315E+02-8.14068E+01-5.08765E+01 1.64813E+01-3.12292E+00-4.05435E+01
 -1      4326-4.27179E+02-8.38903E+01-9.12850E+01 2.28171E+01-4.59182E+00-3.64370E+01
 -1      4327 1.61581E+02-1.23228E+00 2.20435E+01-1.38023E+01-2.05473E+00 1.63287E+01
 -1      4328-3.24388E+00-5.55791E+00 9.64797E+00-2.53490E+01 4.08681E-01 2.85988E+00
 -1      4329 8.08887E+01-5.44814E+00 4.62096E+00-2.59535E+01-2.44161E+00 6.04882E+00
 -1      4330-8.55526E+01 2.58270E-01 1.45544E-02 7.61264E+00-1.09023E-01-4.54531E-01
 -1      4331-1.28501E+02-5.71247E-02 1.50911E-02 1.38585E+01-3.57783E-02-2.35531E-01
 -1      4332-8.98870E+01 3.57739E-02-1.54418E-02 7.00870E+00-2.37309E-02-6.83589E-01
 -1      4333-2.69653E+02-2.74018E-01-3.66161E-02 1.38274E+01-5.33787E-03-2.49210E-01
 -1      4334-3.08153E+02-2.50436E-01 3.34035E-02 6.99300E+00-2.38463E-03-7.00273E-01
 -1      4335-3.12463E+02-4.73339E-01-1.26371E-02 7.59573E+00 7.89293E-02-4.60278E-01
 -1      4336-1.01575E+02-2.19680E-01-6.35421E-02 1.31037E+01 7.30913E-02 2.11372E-01
 -1      4337-4.53444E+01-2.92894E-01 1.79337E-02 6.70888E+00 9.88252E-02 6.52253E-01
 -1      4338-4.94719E+01-3.33820E-01 4.28893E-02 7.32636E+00 5.92713E-02 4.18969E-01
 -1      4339-3.64715E+02-3.51350E-01 7.78159E-02 7.03318E+00-3.43345E-02 4.55595E-01
 -1      4340-3.60614E+02-2.06662E-01 7.32885E-02 6.47363E+00-6.63121E-03 6.02606E-01
 -1      4341-3.03361E+02-4.24232E-01 1.90566E-02 1.28608E+01 3.59728E-02 1.82170E-01
 -1      4342-3.84029E+02-1.49312E+00-7.43027E-02 7.25665E+00-1.11865E-01-1.51287E-01
 -1      4343-4.84774E+02-7.50092E-01-3.24484E-02 4.11632E+00-8.10022E-02-2.30804E-01
 -1      4344-4.87272E+02-7.87263E-01 7.09229E-02 3.77837E+00-4.73440E-02-3.70498E-01
 -1      4345-4.23012E+02-7.95472E-01-1.84371E-02 6.00276E+00-2.06959E-02 3.67448E-01
 -1      4346-4.19668E+02-6.12632E-01 3.93586E-02 5.52688E+00 3.93833E-02 5.61352E-01
 -1      4347-3.41279E+02-9.03018E-01-8.26054E-02 1.10106E+01 5.27798E-02 2.19441E-01
 -1      4348 7.86827E+01-4.32750E-01 3.50947E-02 4.36055E+00 1.56915E-01 2.52220E-01
 -1      4349 7.61320E+01-5.68296E-01 8.28094E-02 4.07426E+00 1.07339E-01 4.07948E-01
 -1      4350-2.34630E+01-1.02301E+00-3.05348E-02 8.06730E+00 1.55835E-01 1.37438E-01
 -1      4351-5.85731E+01-5.72811E-01-4.57695E-02 1.10911E+01 8.13681E-02 2.07062E-01
 -1      4352 2.37762E+01-2.02785E-01-8.90834E-02 6.05151E+00 8.68179E-02 3.45716E-01
 -1      4353 2.02467E+01-2.98561E-01 5.27307E-02 5.55725E+00 7.29758E-02 5.34982E-01
 -1      4354-1.70752E+01-1.14541E+00-1.09402E-01 7.29565E+00-1.72124E-01-1.40308E-01
 -1      4355 8.42669E+01-7.76450E-01 3.37288E-02 4.16118E+00-1.29778E-01-2.23988E-01
 -1      4356 8.64266E+01-7.86550E-01 9.47526E-02 3.79732E+00-1.81932E-01-3.61978E-01
 -1      4357-1.92469E+02-4.64232E+00-5.98380E-01 6.12312E+00-5.89230E-02 4.32271E-01
 -1      4358-1.95120E+02-3.49455E+00-6.80656E-01 1.27573E+01-2.77129E-01 3.55079E-01
 -1      4359-3.79320E+02-1.40827E+00-1.36183E-01 7.96509E+00 1.03869E-01 1.66613E-01
 -1      4360-4.78860E+02-1.05234E+00-3.55003E-02 4.33447E+00 4.04006E-02 2.65200E-01
 -1      4361-4.76569E+02-9.31532E-01 5.03242E-02 4.04258E+00 1.06011E-01 4.37674E-01
 -1      4362-4.50883E+01-7.05057E-01-4.56794E-02 1.01632E+01-3.87267E-02-1.52125E-01
 -1      4363 4.09088E+01-3.40001E-01 2.41157E-02 5.16048E+00-3.61000E-02-4.96029E-01
 -1      4364 4.40762E+01-2.83592E-01-5.55739E-02 5.56386E+00-4.97015E-02-3.02835E-01
 -1      4365-1.42384E+02 3.86946E-01 1.08625E-01 8.16063E+00 1.32162E-02 4.43423E-01
 -1      4366-5.03724E+02-1.02762E+00 1.05650E-01 2.69764E+00 7.77848E-02 2.91317E-01
 -1      4367-3.97394E+02-1.77473E+00-1.01509E-01 5.43513E+00 1.24751E-01 1.12463E-01
 -1      4368-5.05212E+02-1.10609E+00 3.25723E-02 2.88873E+00 6.74341E-02 1.98850E-01
 -1      4369-2.58588E+01-1.05368E-01-6.51635E-02 6.99475E+00 7.50189E-02 4.14592E-01
 -1      4370-1.16389E+02-1.06053E-01 1.02516E-01 7.93028E+00 1.21293E-02 4.33425E-01
 -1      4371 4.46658E+00-4.95122E-01 8.65693E-03 6.23380E+00 1.14279E-01 3.89977E-01
 -1      4372 1.02546E+02-7.86527E-01 1.88194E-02 2.66077E+00 1.61544E-01 1.58416E-01
 -1      4373-5.55829E+02-4.20061E+01-1.14094E+02 2.32079E+01 1.07579E+00 4.15637E+01
 -1      4374-5.36599E+02-3.27275E+01-8.86754E+01 1.67500E+01 2.66005E-01 6.08590E+01
 -1      4375-4.27834E+02-7.51312E+01-8.97503E+01 2.38996E+01 4.44843E+00 3.76955E+01
 -1      4376-2.00070E+02 4.69984E+00 6.24132E-01 1.50597E+01-4.03580E-01-1.54754E-01
 -1      4377-2.00385E+02 5.34783E+00 8.28802E-01 1.17143E+01-4.27532E-02-1.17469E-01
 -1      4378-2.02386E+02 4.07129E+00 8.26698E-01 1.26187E+01-3.21286E-01-4.03055E-01
 -1      4379-3.92117E+02-5.96163E+01-2.56846E+01-2.51656E-01-6.57959E+00 3.32576E+01
 -1      4380-4.43821E+02-7.69440E-01 5.35226E-02 5.51471E+00-7.77542E-02-3.26199E-01
 -1      4381-3.55672E+02-9.97376E-01-9.50433E-02 1.00773E+01-1.07779E-01-1.81123E-01
 -1      4382-4.40799E+02-6.98967E-01 5.73576E-02 5.10512E+00-1.13167E-01-4.84818E-01
 -1      4383-5.41709E+02-4.18702E+01-1.09249E+02 2.69389E+01 1.99509E+00-4.34230E+01
 -1      4384-5.44823E+02-4.25857E+01-9.94783E+01 2.10488E+01-2.61214E+00-6.13266E+01
 -1      4385 1.09840E+02-9.06572E-01 1.29204E-01 2.00511E+00 2.09120E-01 8.33170E-02
 -1      4386-1.97136E+02-4.81440E+00-7.30300E-01 1.32481E+01-8.69161E-01 2.94108E-01
 -1      4387-4.70422E+02-7.72398E+01-4.95005E+01 1.65110E+01 2.73664E+00 4.12118E+01
 -1      4388-3.35715E+02-1.79087E-01 6.78464E-02 6.77194E+00 7.98927E-03 7.12126E-01
 -1      4389-2.87480E+02-2.75154E-01-7.83478E-03 1.33810E+01 1.09325E-02 2.07963E-01
 -1      4390-3.39814E+02-2.94746E-01 4.97980E-02 7.30243E+00-4.16773E-02 4.92167E-01
 -1      4391-1.97214E+02-6.10744E+00-8.48554E-01 1.19520E+01 1.97039E-02 1.03458E-01
 -1      4392-2.04213E+02-8.69984E-02-8.31480E-02 1.59468E+01 1.57130E-02 2.22295E-01
 -1      4393-2.04704E+02 3.98829E+00 1.22317E+00 6.15065E+00-9.49524E-02-4.86968E-01
 -1      4394-2.05132E+02 4.66417E+00 6.52274E-01 6.01149E+00 1.07260E-02-6.08353E-01
 -1      4395-2.06513E+02 1.04830E-01-1.30308E-01 1.71845E+01-2.36410E-02-2.18648E-02
 -1      4396-2.20402E+02-3.74226E-01 3.96991E-02 7.48149E+00 2.91639E-02-4.52757E-01
 -1      4397-2.12590E+02-6.36775E-01 7.95197E-02 1.53077E+01-1.15503E-01-2.21724E-01
 -1      4398-2.23970E+02-2.19606E-01 8.99946E-02 1.46136E+01-1.63186E-01-2.34202E-01
 -1      4399-2.17966E+02-5.23625E-02-6.15731E-02 1.52118E+01 7.58603E-02-1.85671E-01
 -1      4400-2.41525E+02-8.42329E-02 1.00711E-01 8.00570E+00 2.16571E-02-5.05574E-01
 -1      4401-2.25914E+02-1.53115E-01 5.38257E-02 8.90575E+00-3.84577E-03-4.18574E-01
 -1      4402-2.36417E+02-9.81520E-02 8.53137E-04 7.67480E+00-1.91778E-02-4.88151E-01
 -1      4403-2.46279E+02-2.94934E-01 7.21261E-02 8.53147E+00-6.12700E-02-4.06095E-01
 -3
    1PSTEP                         6           1           2          
  100CL  102 0.00000E+00        4403                     4    2           1
 -4  ERROR       1    1
 -5  STR(%)      1    1    0    0
 -1         1 1.56991E+01
 -1         2 1.57026E+01
 -1         3 1.01977E+01
 -1         4 1.01239E+01
 -1         5 1.96423E+00
 -1         6 2.11322E+00
 -1         7 1.71308E+00
 -1         8 1.86527E+00
 -1         9 1.44125E+01
 -1        10 1.48806E+01
 -1        11 1.46786E+01
 -1        12 1.50575E+01
 -1        13 1.46465E+01
 -1        14 1.47796E+01
 -1        15 1.51888E+01
 -1        16 2.50454E+01
 -1        17 1.60370E+01
 -1        18 1.10249E+01
 -1        19 2.03722E+01
 -1        20 2.05412E+01
 -1        21 1.35309E+01
 -1        22 1.06113E+01
 -1        23 8.01458E+00
 -1        24 8.74656E+00
 -1        25 8.74656E+00
 -1        26 9.06924E+00
 -1        27 8.38057E+00
 -1        28 8.74656E+00
 -1        29 9.47212E+00
 -1        30 2.50843E+01
 -1        31 1.60545E+01
 -1        32 1.07056E+01
 -1        33 2.03934E+01
 -1        34 2.05694E+01
 -1        35 1.33800E+01
 -1        36 1.04147E+01
 -1        37 2.11322E+00
 -1        38 2.07653E+00
 -1        39 2.16750E+00
 -1        40 2.11322E+00
 -1        41 2.09488E+00
 -1        42 2.12201E+00
 -1        43 2.06586E+00
 -1        44 6.74070E-01
 -1        45 3.83273E-01
 -1        46 7.65310E-01
 -1        47 1.31915E+00
 -1        48 5.28672E-01
 -1        49 5.74291E-01
 -1        50 1.23919E+00
 -1        51 1.86527E+00
 -1        52 1.87009E+00
 -1        53 1.88865E+00
 -1        54 1.86527E+00
 -1        55 1.86768E+00
 -1        56 1.87937E+00
 -1        57 1.80086E+00
 -1        58 7.50346E-01
 -1        59 3.91338E-01
 -1        60 7.55707E-01
 -1        61 1.43178E+00
 -1        62 5.70842E-01
 -1        63 5.73522E-01
 -1        64 1.31049E+00
 -1        65 1.56544E+01
 -1        66 1.66101E+01
 -1        67 1.64057E+01
 -1        68 2.70345E+01
 -1        69 1.70056E+01
 -1        70 2.76982E+01
 -1        71 1.74808E+01
 -1        72 1.78455E+01
 -1        73 2.87982E+01
 -1        74 2.71033E+01
 -1        75 1.95103E+01
 -1        76 2.05376E+01
 -1        77 2.93010E+01
 -1        78 2.27674E+01
 -1        79 2.88021E+01
 -1        80 2.91060E+01
 -1        81 2.68286E+01
 -1        82 2.76528E+01
 -1        83 2.98585E+01
 -1        84 2.94847E+01
 -1        85 3.01201E+01
 -1        86 3.01201E+01
 -1        87 2.94775E+01
 -1        88 2.66224E+01
 -1        89 2.05566E+01
 -1        90 1.55580E+01
 -1        91 1.21831E+01
 -1        92 9.65288E+00
 -1        93 7.54654E+00
 -1        94 5.66063E+00
 -1        95 4.40718E+00
 -1        96 2.95858E+00
 -1        97 2.10541E+00
 -1        98 1.56785E+01
 -1        99 1.61323E+01
 -1       100 1.65079E+01
 -1       101 2.17201E+01
 -1       102 2.20201E+01
 -1       103 2.23519E+01
 -1       104 2.25895E+01
 -1       105 1.76632E+01
 -1       106 2.33219E+01
 -1       107 2.79508E+01
 -1       108 2.33068E+01
 -1       109 2.00239E+01
 -1       110 2.49193E+01
 -1       111 2.60342E+01
 -1       112 2.57847E+01
 -1       113 2.89540E+01
 -1       114 2.79673E+01
 -1       115 2.72407E+01
 -1       116 2.87557E+01
 -1       117 2.96716E+01
 -1       118 2.98024E+01
 -1       119 3.01201E+01
 -1       120 2.97988E+01
 -1       121 2.80500E+01
 -1       122 2.35895E+01
 -1       123 1.80573E+01
 -1       124 1.38705E+01
 -1       125 1.09180E+01
 -1       126 8.59971E+00
 -1       127 6.60358E+00
 -1       128 5.03390E+00
 -1       129 3.68288E+00
 -1       130 2.53199E+00
 -1       131 2.10932E+00
 -1       132 1.56550E+01
 -1       133 1.66282E+01
 -1       134 2.68049E+01
 -1       135 2.52062E+01
 -1       136 1.70408E+01
 -1       137 2.59688E+01
 -1       138 1.76454E+01
 -1       139 2.84482E+01
 -1       140 1.85083E+01
 -1       141 1.90968E+01
 -1       142 2.75776E+01
 -1       143 2.92675E+01
 -1       144 2.11589E+01
 -1       145 2.88109E+01
 -1       146 2.87371E+01
 -1       147 2.55961E+01
 -1       148 2.86420E+01
 -1       149 2.93089E+01
 -1       150 2.89906E+01
 -1       151 2.95819E+01
 -1       152 2.99890E+01
 -1       153 2.98435E+01
 -1       154 2.95474E+01
 -1       155 2.66953E+01
 -1       156 2.02550E+01
 -1       157 1.59150E+01
 -1       158 1.21528E+01
 -1       159 9.32368E+00
 -1       160 7.55248E+00
 -1       161 5.53616E+00
 -1       162 4.31310E+00
 -1       163 2.83904E+00
 -1       164 2.08284E+00
 -1       165 1.56770E+01
 -1       166 1.61416E+01
 -1       167 2.17165E+01
 -1       168 2.60055E+01
 -1       169 2.11235E+01
 -1       170 2.15048E+01
 -1       171 2.18071E+01
 -1       172 2.30468E+01
 -1       173 2.34783E+01
 -1       174 1.88025E+01
 -1       175 2.33372E+01
 -1       176 2.84225E+01
 -1       177 2.52132E+01
 -1       178 2.49849E+01
 -1       179 2.87740E+01
 -1       180 2.71666E+01
 -1       181 2.71191E+01
 -1       182 2.89755E+01
 -1       183 2.91497E+01
 -1       184 2.92863E+01
 -1       185 2.97854E+01
 -1       186 2.99162E+01
 -1       187 2.96954E+01
 -1       188 2.81213E+01
 -1       189 2.34752E+01
 -1       190 1.80850E+01
 -1       191 1.40339E+01
 -1       192 1.07382E+01
 -1       193 8.43808E+00
 -1       194 6.54432E+00
 -1       195 4.92463E+00
 -1       196 3.57607E+00
 -1       197 2.46094E+00
 -1       198 2.02354E+00
 -1       199 7.90928E+00
 -1       200 5.80138E+00
 -1       201 6.83171E+00
 -1       202 5.16979E+00
 -1       203 5.21044E+00
 -1       204 5.11217E+00
 -1       205 6.20210E+00
 -1       206 6.84701E+00
 -1       207 5.05377E+00
 -1       208 5.03311E+00
 -1       209 5.98345E+00
 -1       210 6.58266E+00
 -1       211 4.86045E+00
 -1       212 4.77291E+00
 -1       213 4.71111E+00
 -1       214 4.86187E+00
 -1       215 5.42496E+00
 -1       216 5.90590E+00
 -1       217 4.51136E+00
 -1       218 4.43532E+00
 -1       219 4.23877E+00
 -1       220 4.76744E+00
 -1       221 5.06791E+00
 -1       222 4.35028E+00
 -1       223 4.64042E+00
 -1       224 3.70768E+00
 -1       225 3.47888E+00
 -1       226 3.29293E+00
 -1       227 2.85731E+00
 -1       228 2.70805E+00
 -1       229 2.40488E+00
 -1       230 2.08483E+00
 -1       231 1.53607E+00
 -1       232 9.01659E+00
 -1       233 6.85533E+00
 -1       234 6.31655E+00
 -1       235 6.00075E+00
 -1       236 5.19012E+00
 -1       237 5.16130E+00
 -1       238 5.65714E+00
 -1       239 6.52455E+00
 -1       240 5.95039E+00
 -1       241 5.04344E+00
 -1       242 5.50828E+00
 -1       243 6.28306E+00
 -1       244 5.72156E+00
 -1       245 4.81668E+00
 -1       246 4.74201E+00
 -1       247 4.78649E+00
 -1       248 5.14341E+00
 -1       249 5.66543E+00
 -1       250 5.20863E+00
 -1       251 4.47334E+00
 -1       252 4.33705E+00
 -1       253 4.50310E+00
 -1       254 4.91768E+00
 -1       255 4.70910E+00
 -1       256 4.49535E+00
 -1       257 4.17405E+00
 -1       258 3.59328E+00
 -1       259 3.38590E+00
 -1       260 3.07512E+00
 -1       261 2.78268E+00
 -1       262 2.55646E+00
 -1       263 2.24485E+00
 -1       264 1.81045E+00
 -1       265 1.70067E+00
 -1       266 7.88457E+00
 -1       267 5.80494E+00
 -1       268 5.28778E+00
 -1       269 7.04305E+00
 -1       270 5.21159E+00
 -1       271 6.99716E+00
 -1       272 5.22578E+00
 -1       273 5.21368E+00
 -1       274 6.84348E+00
 -1       275 6.12618E+00
 -1       276 5.13293E+00
 -1       277 4.99442E+00
 -1       278 6.54897E+00
 -1       279 4.86467E+00
 -1       280 5.64400E+00
 -1       281 6.18313E+00
 -1       282 4.65120E+00
 -1       283 4.71471E+00
 -1       284 4.53112E+00
 -1       285 4.29453E+00
 -1       286 5.36413E+00
 -1       287 4.26454E+00
 -1       288 4.83314E+00
 -1       289 4.28974E+00
 -1       290 3.80458E+00
 -1       291 3.99455E+00
 -1       292 4.07986E+00
 -1       293 3.99546E+00
 -1       294 2.95183E+00
 -1       295 3.01021E+00
 -1       296 2.44018E+00
 -1       297 2.13079E+00
 -1       298 1.60927E+00
 -1       299 9.04113E+00
 -1       300 6.84475E+00
 -1       301 5.54636E+00
 -1       302 6.16542E+00
 -1       303 6.12732E+00
 -1       304 6.10438E+00
 -1       305 6.11147E+00
 -1       306 5.21973E+00
 -1       307 6.02858E+00
 -1       308 6.48483E+00
 -1       309 5.62956E+00
 -1       310 5.06367E+00
 -1       311 5.77169E+00
 -1       312 5.70682E+00
 -1       313 5.25434E+00
 -1       314 5.91357E+00
 -1       315 5.41716E+00
 -1       316 4.68296E+00
 -1       317 4.62291E+00
 -1       318 4.41282E+00
 -1       319 4.82933E+00
 -1       320 4.81433E+00
 -1       321 4.54884E+00
 -1       322 4.56144E+00
 -1       323 4.04716E+00
 -1       324 3.89956E+00
 -1       325 4.03721E+00
 -1       326 4.03766E+00
 -1       327 3.47365E+00
 -1       328 2.98102E+00
 -1       329 2.72520E+00
 -1       330 2.28549E+00
 -1       331 1.87003E+00
 -1       332 1.66117E+00
 -1       333 8.74656E+00
 -1       334 3.25902E+01
 -1       335 1.36551E+01
 -1       336 3.20448E+01
 -1       337 3.20448E+01
 -1       338 3.25902E+01
 -1       339 8.20159E+00
 -1       340 3.15791E+01
 -1       341 1.39182E+01
 -1       342 1.90019E+01
 -1       343 3.25902E+01
 -1       344 1.01239E+01
 -1       345 3.15791E+01
 -1       346 1.01977E+01
 -1       347 1.94801E+01
 -1       348 2.41446E+01
 -1       349 2.36344E+01
 -1       350 2.88178E+01
 -1       351 2.29958E+01
 -1       352 2.36408E+01
 -1       353 2.83317E+01
 -1       354 1.01977E+01
 -1       355 1.06113E+01
 -1       356 9.47212E+00
 -1       357 1.01239E+01
 -1       358 9.06924E+00
 -1       359 1.04147E+01
 -1       360 2.34627E+01
 -1       361 2.32286E+01
 -1       362 3.18119E+01
 -1       363 2.36344E+01
 -1       364 2.37354E+01
 -1       365 3.23175E+01
 -1       366 3.25902E+01
 -1       367 2.43136E+01
 -1       368 2.88178E+01
 -1       369 3.25902E+01
 -1       370 1.24715E+01
 -1       371 1.49776E+01
 -1       372 2.32542E+01
 -1       373 1.20579E+01
 -1       374 8.10808E+00
 -1       375 8.47407E+00
 -1       376 9.16274E+00
 -1       377 8.74656E+00
 -1       378 8.74656E+00
 -1       379 8.47407E+00
 -1       380 9.47212E+00
 -1       381 2.83317E+01
 -1       382 2.38168E+01
 -1       383 3.15791E+01
 -1       384 1.48548E+01
 -1       385 1.21803E+01
 -1       386 2.26171E+01
 -1       387 1.18895E+01
 -1       388 1.38408E+01
 -1       389 1.41133E+01
 -1       390 1.13324E+01
 -1       391 1.38742E+01
 -1       392 1.64600E+01
 -1       393 1.92410E+01
 -1       394 3.23175E+01
 -1       395 3.20448E+01
 -1       396 3.25902E+01
 -1       397 3.23175E+01
 -1       398 1.09283E+01
 -1       399 1.65676E+01
 -1       400 2.55296E+01
 -1       401 3.18119E+01
 -1       402 3.18119E+01
 -1       403 2.57961E+01
 -1       404 2.55233E+01
 -1       405 2.57624E+01
 -1       406 7.38963E-01
 -1       407 7.28554E-01
 -1       408 2.16750E+00
 -1       409 7.03693E-01
 -1       410 6.80660E-01
 -1       411 1.87009E+00
 -1       412 7.78964E-01
 -1       413 2.07653E+00
 -1       414 1.88865E+00
 -1       415 7.38963E-01
 -1       416 2.05820E+00
 -1       417 1.86527E+00
 -1       418 2.11322E+00
 -1       419 1.81084E+00
 -1       420 7.10310E-01
 -1       421 2.11285E+00
 -1       422 2.01122E+00
 -1       423 1.36614E+00
 -1       424 2.11322E+00
 -1       425 2.11322E+00
 -1       426 1.43178E+00
 -1       427 1.28808E+00
 -1       428 1.76196E+00
 -1       429 1.84975E+00
 -1       430 1.86527E+00
 -1       431 1.86527E+00
 -1       432 1.31049E+00
 -1       433 2.09488E+00
 -1       434 2.07653E+00
 -1       435 2.09488E+00
 -1       436 2.12201E+00
 -1       437 2.16750E+00
 -1       438 2.12201E+00
 -1       439 2.11285E+00
 -1       440 7.26517E-01
 -1       441 5.81119E-01
 -1       442 1.41858E+00
 -1       443 5.61118E-01
 -1       444 7.52137E-01
 -1       445 7.58964E-01
 -1       446 1.27490E+00
 -1       447 1.87009E+00
 -1       448 1.86768E+00
 -1       449 1.86768E+00
 -1       450 1.88865E+00
 -1       451 1.87937E+00
 -1       452 1.87937E+00
 -1       453 1.84975E+00
 -1       454 5.47515E-01
 -1       455 7.27020E-01
 -1       456 1.40846E+00
 -1       457 7.42130E-01
 -1       458 5.59946E-01
 -1       459 7.16123E-01
 -1       460 1.29691E+00
 -1       461 7.44637E-01
 -1       462 7.24637E-01
 -1       463 7.38963E-01
 -1       464 1.31381E+00
 -1       465 1.31381E+00
 -1       466 7.24637E-01
 -1       467 7.04607E-01
 -1       468 6.92176E-01
 -1       469 1.29932E+00
 -1       470 1.27538E+00
 -1       471 1.47323E+00
 -1       472 1.43890E+00
 -1       473 1.39342E+00
 -1       474 1.37860E+00
 -1       475 1.39011E+00
 -1       476 1.30453E+00
 -1       477 7.09812E-01
 -1       478 6.95485E-01
 -1       479 2.90329E+01
 -1       480 1.15631E+01
 -1       481 5.03505E+00
 -1       482 2.96767E+01
 -1       483 2.99890E+01
 -1       484 1.82385E+01
 -1       485 7.93026E+00
 -1       486 2.95146E+01
 -1       487 2.90394E+01
 -1       488 2.96502E+01
 -1       489 2.82183E+01
 -1       490 2.97938E+01
 -1       491 2.88099E+01
 -1       492 2.92287E+01
 -1       493 2.82859E+01
 -1       494 2.88349E+01
 -1       495 2.95858E+00
 -1       496 3.01081E+01
 -1       497 6.28596E+00
 -1       498 2.91284E+01
 -1       499 3.02252E+01
 -1       500 2.95146E+01
 -1       501 3.01474E+01
 -1       502 2.30102E+01
 -1       503 2.35876E+01
 -1       504 2.16750E+00
 -1       505 2.90076E+01
 -1       506 1.17738E+01
 -1       507 2.96741E+01
 -1       508 3.01201E+01
 -1       509 1.85398E+01
 -1       510 2.69203E+01
 -1       511 2.98980E+01
 -1       512 2.23612E+01
 -1       513 3.00841E+01
 -1       514 4.89154E+00
 -1       515 2.32279E+01
 -1       516 2.32937E+01
 -1       517 2.88086E+01
 -1       518 2.96804E+01
 -1       519 2.99890E+01
 -1       520 2.97740E+01
 -1       521 3.01208E+01
 -1       522 3.01788E+01
 -1       523 2.93011E+01
 -1       524 2.98131E+01
 -1       525 2.94900E+01
 -1       526 1.57769E+01
 -1       527 1.42186E+01
 -1       528 2.94114E+01
 -1       529 5.24222E+00
 -1       530 7.91087E+00
 -1       531 2.97220E+01
 -1       532 2.36705E+01
 -1       533 9.71597E+00
 -1       534 3.01348E+01
 -1       535 9.14931E+00
 -1       536 2.98585E+01
 -1       537 2.73123E+01
 -1       538 2.93391E+01
 -1       539 3.01033E+01
 -1       540 2.98230E+01
 -1       541 3.04297E+01
 -1       542 2.99208E+01
 -1       543 2.14793E+01
 -1       544 2.25230E+01
 -1       545 2.95703E+01
 -1       546 2.95820E+01
 -1       547 3.77515E+00
 -1       548 3.00482E+01
 -1       549 6.28596E+00
 -1       550 3.01030E+01
 -1       551 1.35714E+01
 -1       552 1.62975E+01
 -1       553 2.98739E+01
 -1       554 1.18213E+01
 -1       555 2.97781E+01
 -1       556 2.95404E+01
 -1       557 2.99191E+01
 -1       558 2.97740E+01
 -1       559 6.56906E+00
 -1       560 8.92072E+00
 -1       561 2.08476E+01
 -1       562 2.98478E+01
 -1       563 2.95349E+01
 -1       564 3.01348E+01
 -1       565 3.01267E+01
 -1       566 2.99808E+01
 -1       567 2.99429E+01
 -1       568 3.01474E+01
 -1       569 3.01788E+01
 -1       570 2.64000E+01
 -1       571 3.01081E+01
 -1       572 3.02252E+01
 -1       573 2.67664E+01
 -1       574 2.99508E+01
 -1       575 2.13760E+00
 -1       576 2.92945E+01
 -1       577 2.89174E+00
 -1       578 3.09853E+01
 -1       579 2.24290E+01
 -1       580 2.24096E+01
 -1       581 2.11322E+00
 -1       582 2.16750E+00
 -1       583 2.91452E+00
 -1       584 1.85538E+01
 -1       585 1.90640E+01
 -1       586 1.90420E+01
 -1       587 1.90561E+01
 -1       588 1.84110E+01
 -1       589 1.90320E+01
 -1       590 2.06586E+00
 -1       591 2.16750E+00
 -1       592 2.12517E+00
 -1       593 2.11322E+00
 -1       594 2.11322E+00
 -1       595 2.10932E+00
 -1       596 1.90000E+01
 -1       597 1.92341E+01
 -1       598 2.29986E+01
 -1       599 1.87018E+01
 -1       600 1.86008E+01
 -1       601 2.30553E+01
 -1       602 2.24760E+01
 -1       603 2.10707E+00
 -1       604 2.12541E+00
 -1       605 2.12541E+00
 -1       606 2.16750E+00
 -1       607 2.12201E+00
 -1       608 2.15255E+00
 -1       609 2.16750E+00
 -1       610 2.29523E+01
 -1       611 2.24745E+01
 -1       612 2.58521E+01
 -1       613 2.26203E+01
 -1       614 2.27225E+01
 -1       615 2.90647E+01
 -1       616 2.84663E+01
 -1       617 2.31518E+01
 -1       618 2.93664E+01
 -1       619 1.96834E+01
 -1       620 2.46979E+01
 -1       621 2.61296E+01
 -1       622 2.83688E+01
 -1       623 2.30225E+01
 -1       624 2.57003E+01
 -1       625 2.38078E+01
 -1       626 2.89165E+01
 -1       627 2.95871E+01
 -1       628 2.37479E+01
 -1       629 2.35655E+01
 -1       630 2.98925E+01
 -1       631 2.94595E+01
 -1       632 2.39832E+01
 -1       633 2.98855E+01
 -1       634 2.81660E+01
 -1       635 2.90134E+01
 -1       636 2.96747E+01
 -1       637 2.34113E+01
 -1       638 2.72078E+01
 -1       639 2.82705E+01
 -1       640 2.51657E+01
 -1       641 2.46520E+01
 -1       642 2.85531E+01
 -1       643 2.97399E+01
 -1       644 2.53582E+01
 -1       645 2.99863E+01
 -1       646 2.60342E+01
 -1       647 2.93010E+01
 -1       648 2.97400E+01
 -1       649 2.88060E+01
 -1       650 2.57886E+01
 -1       651 2.90555E+01
 -1       652 2.92587E+01
 -1       653 2.91067E+01
 -1       654 2.91106E+01
 -1       655 2.84683E+01
 -1       656 2.96070E+01
 -1       657 2.97598E+01
 -1       658 2.86666E+01
 -1       659 2.82545E+01
 -1       660 2.98942E+01
 -1       661 2.98585E+01
 -1       662 2.87557E+01
 -1       663 2.97695E+01
 -1       664 2.95807E+01
 -1       665 2.97676E+01
 -1       666 2.97676E+01
 -1       667 2.99471E+01
 -1       668 2.96294E+01
 -1       669 2.97253E+01
 -1       670 3.01201E+01
 -1       671 3.01201E+01
 -1       672 2.99471E+01
 -1       673 2.97904E+01
 -1       674 3.01117E+01
 -1       675 3.01117E+01
 -1       676 2.78277E+01
 -1       677 2.92552E+01
 -1       678 2.95681E+01
 -1       679 2.18922E+01
 -1       680 2.49252E+01
 -1       681 2.61304E+01
 -1       682 1.70489E+01
 -1       683 1.95482E+01
 -1       684 2.08839E+01
 -1       685 1.32009E+01
 -1       686 1.48883E+01
 -1       687 1.63792E+01
 -1       688 1.06080E+01
 -1       689 1.18731E+01
 -1       690 1.28909E+01
 -1       691 8.63125E+00
 -1       692 9.68443E+00
 -1       693 1.06396E+01
 -1       694 6.78575E+00
 -1       695 7.72870E+00
 -1       696 8.81342E+00
 -1       697 5.34657E+00
 -1       698 5.97329E+00
 -1       699 7.09841E+00
 -1       700 3.92506E+00
 -1       701 4.64936E+00
 -1       702 5.58875E+00
 -1       703 2.53199E+00
 -1       704 2.95858E+00
 -1       705 3.92506E+00
 -1       706 2.53590E+00
 -1       707 2.19704E+01
 -1       708 2.24570E+01
 -1       709 2.53574E+01
 -1       710 2.17742E+01
 -1       711 2.68626E+01
 -1       712 2.76031E+01
 -1       713 2.75116E+01
 -1       714 2.67122E+01
 -1       715 2.75693E+01
 -1       716 2.76272E+01
 -1       717 2.35445E+01
 -1       718 2.91332E+01
 -1       719 1.92601E+01
 -1       720 2.37240E+01
 -1       721 2.57637E+01
 -1       722 2.75486E+01
 -1       723 2.33869E+01
 -1       724 2.53039E+01
 -1       725 2.06579E+01
 -1       726 2.60593E+01
 -1       727 2.63994E+01
 -1       728 2.92978E+01
 -1       729 2.43279E+01
 -1       730 2.69089E+01
 -1       731 2.41152E+01
 -1       732 2.44094E+01
 -1       733 2.99347E+01
 -1       734 2.10535E+01
 -1       735 2.52939E+01
 -1       736 2.63661E+01
 -1       737 2.85338E+01
 -1       738 2.93787E+01
 -1       739 2.62501E+01
 -1       740 2.97463E+01
 -1       741 2.56921E+01
 -1       742 2.98576E+01
 -1       743 2.53646E+01
 -1       744 2.91906E+01
 -1       745 2.98977E+01
 -1       746 2.77886E+01
 -1       747 2.77517E+01
 -1       748 2.81683E+01
 -1       749 2.91259E+01
 -1       750 2.75554E+01
 -1       751 2.81405E+01
 -1       752 2.72023E+01
 -1       753 2.87253E+01
 -1       754 2.91616E+01
 -1       755 2.90783E+01
 -1       756 2.94118E+01
 -1       757 2.91616E+01
 -1       758 2.93240E+01
 -1       759 2.91648E+01
 -1       760 2.94269E+01
 -1       761 2.93323E+01
 -1       762 2.96280E+01
 -1       763 2.95066E+01
 -1       764 2.97854E+01
 -1       765 2.99890E+01
 -1       766 2.98315E+01
 -1       767 2.99890E+01
 -1       768 2.99162E+01
 -1       769 2.99890E+01
 -1       770 2.98332E+01
 -1       771 2.96852E+01
 -1       772 2.99060E+01
 -1       773 2.92775E+01
 -1       774 2.78515E+01
 -1       775 2.94153E+01
 -1       776 2.49945E+01
 -1       777 2.17744E+01
 -1       778 2.61507E+01
 -1       779 1.92467E+01
 -1       780 1.70768E+01
 -1       781 2.07661E+01
 -1       782 1.58460E+01
 -1       783 1.39648E+01
 -1       784 1.70077E+01
 -1       785 1.19633E+01
 -1       786 1.05488E+01
 -1       787 1.37754E+01
 -1       788 9.23650E+00
 -1       789 8.35089E+00
 -1       790 1.04616E+01
 -1       791 7.74137E+00
 -1       792 6.73321E+00
 -1       793 8.53979E+00
 -1       794 5.38919E+00
 -1       795 4.77766E+00
 -1       796 6.58624E+00
 -1       797 4.67408E+00
 -1       798 3.93705E+00
 -1       799 5.13864E+00
 -1       800 2.86539E+00
 -1       801 2.48729E+00
 -1       802 3.96340E+00
 -1       803 2.52962E+00
 -1       804 2.48139E+01
 -1       805 2.77164E+01
 -1       806 2.92866E+01
 -1       807 2.98218E+01
 -1       808 2.79702E+01
 -1       809 1.25672E+01
 -1       810 1.38950E+01
 -1       811 1.07686E+01
 -1       812 1.16922E+01
 -1       813 1.26963E+01
 -1       814 5.76409E+00
 -1       815 5.66051E+00
 -1       816 4.40510E+00
 -1       817 5.03056E+00
 -1       818 3.33345E+00
 -1       819 2.97740E+01
 -1       820 2.97253E+01
 -1       821 2.97274E+01
 -1       822 2.98183E+01
 -1       823 2.97760E+01
 -1       824 2.99540E+01
 -1       825 2.99540E+01
 -1       826 2.99314E+01
 -1       827 2.98484E+01
 -1       828 2.98965E+01
 -1       829 2.20706E+01
 -1       830 1.95430E+01
 -1       831 1.72680E+01
 -1       832 1.60372E+01
 -1       833 1.85725E+01
 -1       834 7.24966E+00
 -1       835 5.90564E+00
 -1       836 9.03502E+00
 -1       837 8.42549E+00
 -1       838 7.74489E+00
 -1       839 2.94583E+01
 -1       840 2.98114E+01
 -1       841 2.96812E+01
 -1       842 2.95934E+01
 -1       843 2.99779E+01
 -1       844 2.95617E+01
 -1       845 2.62226E+01
 -1       846 2.95712E+01
 -1       847 3.00935E+01
 -1       848 3.01189E+01
 -1       849 3.01237E+01
 -1       850 2.98884E+01
 -1       851 2.98925E+01
 -1       852 3.01348E+01
 -1       853 3.01307E+01
 -1       854 2.84205E+01
 -1       855 2.90695E+01
 -1       856 2.99358E+01
 -1       857 2.90845E+01
 -1       858 2.99995E+01
 -1       859 3.01788E+01
 -1       860 2.99863E+01
 -1       861 2.98683E+01
 -1       862 2.86276E+01
 -1       863 3.00609E+01
 -1       864 2.93115E+01
 -1       865 2.95571E+01
 -1       866 2.91960E+01
 -1       867 2.96976E+01
 -1       868 2.94967E+01
 -1       869 2.96880E+01
 -1       870 3.01341E+01
 -1       871 2.86466E+01
 -1       872 2.96048E+01
 -1       873 3.00641E+01
 -1       874 2.93578E+01
 -1       875 2.86750E+01
 -1       876 2.96356E+01
 -1       877 3.07075E+01
 -1       878 2.54044E+01
 -1       879 2.67542E+01
 -1       880 2.99094E+01
 -1       881 2.93778E+01
 -1       882 2.96323E+01
 -1       883 3.01752E+01
 -1       884 2.98621E+01
 -1       885 3.36686E+00
 -1       886 4.33335E+00
 -1       887 2.93655E+00
 -1       888 3.34484E+00
 -1       889 2.54809E+00
 -1       890 2.52606E+00
 -1       891 2.98942E+01
 -1       892 3.01081E+01
 -1       893 2.98215E+01
 -1       894 2.94731E+01
 -1       895 2.98215E+01
 -1       896 5.58875E+00
 -1       897 6.28596E+00
 -1       898 6.42751E+00
 -1       899 7.23997E+00
 -1       900 6.42751E+00
 -1       901 2.96316E+01
 -1       902 2.69026E+01
 -1       903 2.57912E+01
 -1       904 2.96157E+01
 -1       905 3.01189E+01
 -1       906 2.98344E+01
 -1       907 3.02020E+01
 -1       908 3.02252E+01
 -1       909 2.98977E+01
 -1       910 3.02020E+01
 -1       911 2.95248E+01
 -1       912 2.91717E+01
 -1       913 2.95483E+01
 -1       914 2.95584E+01
 -1       915 2.81742E+01
 -1       916 3.01474E+01
 -1       917 2.99347E+01
 -1       918 2.68986E+01
 -1       919 3.01370E+01
 -1       920 3.01370E+01
 -1       921 2.64765E+01
 -1       922 2.97164E+01
 -1       923 2.98514E+01
 -1       924 2.64955E+01
 -1       925 2.99619E+01
 -1       926 2.72865E+01
 -1       927 2.64411E+01
 -1       928 3.01399E+01
 -1       929 2.54101E+00
 -1       930 2.52962E+00
 -1       931 2.90313E+00
 -1       932 2.77038E+01
 -1       933 2.48469E+01
 -1       934 2.96817E+01
 -1       935 2.92740E+01
 -1       936 1.46741E+01
 -1       937 1.26726E+01
 -1       938 1.17976E+01
 -1       939 1.04853E+01
 -1       940 2.97240E+01
 -1       941 2.98815E+01
 -1       942 2.95586E+01
 -1       943 2.97261E+01
 -1       944 3.00196E+01
 -1       945 2.98465E+01
 -1       946 2.99886E+01
 -1       947 2.99970E+01
 -1       948 1.96937E+01
 -1       949 2.20377E+01
 -1       950 1.52580E+01
 -1       951 1.74186E+01
 -1       952 2.61560E+01
 -1       953 2.99244E+01
 -1       954 3.00174E+01
 -1       955 2.57817E+01
 -1       956 3.00661E+01
 -1       957 2.36238E+01
 -1       958 2.98531E+01
 -1       959 2.97641E+01
 -1       960 2.98465E+01
 -1       961 2.97631E+01
 -1       962 3.02020E+01
 -1       963 3.00192E+01
 -1       964 2.96917E+01
 -1       965 2.82897E+01
 -1       966 1.49344E+01
 -1       967 8.41580E+00
 -1       968 9.31835E+00
 -1       969 1.03710E+01
 -1       970 2.98129E+01
 -1       971 2.97071E+01
 -1       972 4.79264E+00
 -1       973 6.27173E+00
 -1       974 2.27037E+00
 -1       975 6.23271E+00
 -1       976 5.45639E+00
 -1       977 7.18058E+00
 -1       978 3.90241E+00
 -1       979 6.74078E+00
 -1       980 7.41359E+00
 -1       981 7.00517E+00
 -1       982 7.43533E+00
 -1       983 6.77631E+00
 -1       984 1.06245E+01
 -1       985 7.45719E+00
 -1       986 7.36847E+00
 -1       987 6.50507E+00
 -1       988 2.08834E+00
 -1       989 5.23786E+00
 -1       990 5.77265E+00
 -1       991 2.76787E+00
 -1       992 5.66242E+00
 -1       993 4.28075E+00
 -1       994 5.98118E+00
 -1       995 1.16873E+01
 -1       996 1.10344E+01
 -1       997 6.40581E+00
 -1       998 1.15349E+01
 -1       999 6.02254E+00
 -1      1000 8.20159E+00
 -1      1001 1.88865E+00
 -1      1002 7.30295E+00
 -1      1003 7.55926E+00
 -1      1004 7.60062E+00
 -1      1005 7.69964E+00
 -1      1006 2.75601E+00
 -1      1007 4.82572E+00
 -1      1008 3.99546E+00
 -1      1009 5.97232E+00
 -1      1010 1.02317E+01
 -1      1011 6.15745E+00
 -1      1012 6.02186E+00
 -1      1013 9.79131E+00
 -1      1014 1.15140E+01
 -1      1015 1.10029E+01
 -1      1016 7.14003E+00
 -1      1017 1.09592E+01
 -1      1018 7.42104E+00
 -1      1019 6.12905E+00
 -1      1020 5.13314E+00
 -1      1021 6.92581E+00
 -1      1022 2.75664E+00
 -1      1023 3.93815E+00
 -1      1024 6.82249E+00
 -1      1025 7.53420E+00
 -1      1026 4.34299E+00
 -1      1027 4.74243E+00
 -1      1028 7.36192E+00
 -1      1029 6.48457E+00
 -1      1030 6.06625E+00
 -1      1031 3.90241E+00
 -1      1032 5.26193E+00
 -1      1033 4.65450E+00
 -1      1034 1.10584E+01
 -1      1035 1.18238E+01
 -1      1036 7.06751E+00
 -1      1037 8.74656E+00
 -1      1038 6.46294E+00
 -1      1039 1.03117E+01
 -1      1040 2.80492E+00
 -1      1041 7.23302E+00
 -1      1042 4.09652E+00
 -1      1043 7.52803E+00
 -1      1044 6.54146E+00
 -1      1045 6.03773E+00
 -1      1046 5.22602E+00
 -1      1047 4.60870E+00
 -1      1048 5.83365E+00
 -1      1049 1.00889E+01
 -1      1050 9.05256E+00
 -1      1051 5.77773E+00
 -1      1052 3.87155E+00
 -1      1053 7.37374E+00
 -1      1054 6.86783E+00
 -1      1055 1.16374E+01
 -1      1056 1.16450E+01
 -1      1057 9.63096E+00
 -1      1058 7.53861E+00
 -1      1059 7.57862E+00
 -1      1060 1.13769E+01
 -1      1061 6.10177E+00
 -1      1062 5.41748E+00
 -1      1063 1.12173E+01
 -1      1064 1.03416E+01
 -1      1065 1.08110E+01
 -1      1066 5.84566E+00
 -1      1067 1.17509E+01
 -1      1068 1.82032E+00
 -1      1069 6.98669E+00
 -1      1070 1.93677E+00
 -1      1071 1.10835E+01
 -1      1072 7.88457E+00
 -1      1073 7.99242E+00
 -1      1074 1.86527E+00
 -1      1075 1.88865E+00
 -1      1076 2.32375E+00
 -1      1077 9.04113E+00
 -1      1078 8.31556E+00
 -1      1079 7.88457E+00
 -1      1080 8.00350E+00
 -1      1081 9.05816E+00
 -1      1082 7.95085E+00
 -1      1083 1.88865E+00
 -1      1084 1.80086E+00
 -1      1085 1.74896E+00
 -1      1086 1.86527E+00
 -1      1087 1.86527E+00
 -1      1088 1.70067E+00
 -1      1089 8.47407E+00
 -1      1090 8.10808E+00
 -1      1091 8.09700E+00
 -1      1092 8.74656E+00
 -1      1093 8.74656E+00
 -1      1094 8.47407E+00
 -1      1095 8.31556E+00
 -1      1096 1.84280E+00
 -1      1097 1.84521E+00
 -1      1098 1.84280E+00
 -1      1099 1.87937E+00
 -1      1100 1.88865E+00
 -1      1101 1.85449E+00
 -1      1102 1.88865E+00
 -1      1103 7.44799E+00
 -1      1104 6.39404E+00
 -1      1105 7.48956E+00
 -1      1106 6.15323E+00
 -1      1107 6.66839E+00
 -1      1108 6.74588E+00
 -1      1109 7.19548E+00
 -1      1110 6.36453E+00
 -1      1111 7.03217E+00
 -1      1112 6.38520E+00
 -1      1113 6.40553E+00
 -1      1114 7.57994E+00
 -1      1115 6.31201E+00
 -1      1116 6.26288E+00
 -1      1117 7.50710E+00
 -1      1118 6.23705E+00
 -1      1119 6.78201E+00
 -1      1120 7.38775E+00
 -1      1121 6.60364E+00
 -1      1122 6.92609E+00
 -1      1123 7.18355E+00
 -1      1124 9.18049E+00
 -1      1125 8.28387E+00
 -1      1126 9.25957E+00
 -1      1127 6.25548E+00
 -1      1128 6.24515E+00
 -1      1129 9.48558E+00
 -1      1130 5.54968E+00
 -1      1131 6.02485E+00
 -1      1132 6.76172E+00
 -1      1133 6.37988E+00
 -1      1134 6.67949E+00
 -1      1135 6.42128E+00
 -1      1136 8.79279E+00
 -1      1137 7.93169E+00
 -1      1138 8.88962E+00
 -1      1139 6.00024E+00
 -1      1140 5.95647E+00
 -1      1141 9.07148E+00
 -1      1142 7.69871E+00
 -1      1143 7.66781E+00
 -1      1144 8.88226E+00
 -1      1145 5.81846E+00
 -1      1146 5.89384E+00
 -1      1147 8.77516E+00
 -1      1148 5.31726E+00
 -1      1149 5.59880E+00
 -1      1150 6.34923E+00
 -1      1151 5.79121E+00
 -1      1152 6.03168E+00
 -1      1153 5.96505E+00
 -1      1154 6.19523E+00
 -1      1155 5.49796E+00
 -1      1156 6.32101E+00
 -1      1157 5.37203E+00
 -1      1158 5.33401E+00
 -1      1159 6.35864E+00
 -1      1160 5.22859E+00
 -1      1161 5.13032E+00
 -1      1162 6.12728E+00
 -1      1163 4.84758E+00
 -1      1164 5.11191E+00
 -1      1165 5.73912E+00
 -1      1166 5.01468E+00
 -1      1167 5.16492E+00
 -1      1168 5.35916E+00
 -1      1169 4.93028E+00
 -1      1170 4.57146E+00
 -1      1171 5.02728E+00
 -1      1172 4.58800E+00
 -1      1173 4.73307E+00
 -1      1174 4.80918E+00
 -1      1175 5.91050E+00
 -1      1176 5.44413E+00
 -1      1177 6.00315E+00
 -1      1178 4.42041E+00
 -1      1179 4.30601E+00
 -1      1180 6.15686E+00
 -1      1181 4.87530E+00
 -1      1182 4.78233E+00
 -1      1183 5.70243E+00
 -1      1184 3.81796E+00
 -1      1185 3.60015E+00
 -1      1186 5.30736E+00
 -1      1187 3.39773E+00
 -1      1188 3.32310E+00
 -1      1189 4.14057E+00
 -1      1190 2.73796E+00
 -1      1191 2.58637E+00
 -1      1192 3.35301E+00
 -1      1193 2.58044E+00
 -1      1194 2.42042E+00
 -1      1195 2.76194E+00
 -1      1196 2.08658E+00
 -1      1197 1.81220E+00
 -1      1198 2.42217E+00
 -1      1199 1.97681E+00
 -1      1200 6.58670E+00
 -1      1201 7.62652E+00
 -1      1202 7.62652E+00
 -1      1203 6.29537E+00
 -1      1204 6.55394E+00
 -1      1205 7.33571E+00
 -1      1206 7.23919E+00
 -1      1207 6.36156E+00
 -1      1208 7.36914E+00
 -1      1209 6.22231E+00
 -1      1210 7.13803E+00
 -1      1211 7.33417E+00
 -1      1212 7.03233E+00
 -1      1213 6.13955E+00
 -1      1214 7.15026E+00
 -1      1215 8.45656E+00
 -1      1216 9.34225E+00
 -1      1217 9.37742E+00
 -1      1218 6.37394E+00
 -1      1219 6.37999E+00
 -1      1220 9.61076E+00
 -1      1221 9.18919E+00
 -1      1222 8.37429E+00
 -1      1223 9.53455E+00
 -1      1224 6.47434E+00
 -1      1225 6.83298E+00
 -1      1226 9.17870E+00
 -1      1227 5.57774E+00
 -1      1228 6.07436E+00
 -1      1229 6.42252E+00
 -1      1230 6.20773E+00
 -1      1231 6.27699E+00
 -1      1232 6.72179E+00
 -1      1233 8.79169E+00
 -1      1234 8.01441E+00
 -1      1235 9.22773E+00
 -1      1236 5.66381E+00
 -1      1237 6.50596E+00
 -1      1238 8.74868E+00
 -1      1239 5.74483E+00
 -1      1240 5.35517E+00
 -1      1241 6.15430E+00
 -1      1242 6.29447E+00
 -1      1243 6.02491E+00
 -1      1244 6.12574E+00
 -1      1245 7.44143E+00
 -1      1246 8.20740E+00
 -1      1247 8.31874E+00
 -1      1248 5.72775E+00
 -1      1249 5.69599E+00
 -1      1250 8.48622E+00
 -1      1251 7.16121E+00
 -1      1252 7.25301E+00
 -1      1253 8.26604E+00
 -1      1254 5.13343E+00
 -1      1255 5.25172E+00
 -1      1256 7.88181E+00
 -1      1257 5.51328E+00
 -1      1258 4.97848E+00
 -1      1259 5.81737E+00
 -1      1260 5.19680E+00
 -1      1261 5.74659E+00
 -1      1262 5.89574E+00
 -1      1263 5.40716E+00
 -1      1264 5.12286E+00
 -1      1265 6.05512E+00
 -1      1266 4.51609E+00
 -1      1267 4.78779E+00
 -1      1268 5.36181E+00
 -1      1269 4.52122E+00
 -1      1270 4.76380E+00
 -1      1271 4.99015E+00
 -1      1272 4.32452E+00
 -1      1273 4.22954E+00
 -1      1274 4.94618E+00
 -1      1275 4.18031E+00
 -1      1276 4.13765E+00
 -1      1277 4.46762E+00
 -1      1278 3.99546E+00
 -1      1279 4.03766E+00
 -1      1280 4.13810E+00
 -1      1281 3.42712E+00
 -1      1282 3.94894E+00
 -1      1283 3.94894E+00
 -1      1284 3.45631E+00
 -1      1285 3.42712E+00
 -1      1286 3.90241E+00
 -1      1287 2.59841E+00
 -1      1288 2.88342E+00
 -1      1289 3.32953E+00
 -1      1290 2.20058E+00
 -1      1291 2.35528E+00
 -1      1292 2.51350E+00
 -1      1293 1.77302E+00
 -1      1294 2.03378E+00
 -1      1295 2.10357E+00
 -1      1296 1.91271E+00
 -1      1297 5.10506E+00
 -1      1298 5.12160E+00
 -1      1299 5.51983E+00
 -1      1300 5.28519E+00
 -1      1301 5.59761E+00
 -1      1302 5.83730E+00
 -1      1303 6.40660E+00
 -1      1304 6.15473E+00
 -1      1305 5.19036E+00
 -1      1306 6.28960E+00
 -1      1307 3.18344E+00
 -1      1308 3.42658E+00
 -1      1309 3.45072E+00
 -1      1310 2.53764E+00
 -1      1311 2.37084E+00
 -1      1312 6.16724E+00
 -1      1313 6.06182E+00
 -1      1314 8.05776E+00
 -1      1315 7.93183E+00
 -1      1316 7.86637E+00
 -1      1317 5.92775E+00
 -1      1318 5.64502E+00
 -1      1319 7.25447E+00
 -1      1320 7.15724E+00
 -1      1321 7.44310E+00
 -1      1322 5.02587E+00
 -1      1323 6.20330E+00
 -1      1324 7.27716E+00
 -1      1325 6.25344E+00
 -1      1326 6.29988E+00
 -1      1327 3.68267E+00
 -1      1328 4.25556E+00
 -1      1329 3.88698E+00
 -1      1330 3.88698E+00
 -1      1331 4.24013E+00
 -1      1332 8.54117E+00
 -1      1333 1.02866E+01
 -1      1334 9.94012E+00
 -1      1335 8.41486E+00
 -1      1336 1.02152E+01
 -1      1337 7.65013E+00
 -1      1338 7.55661E+00
 -1      1339 7.61384E+00
 -1      1340 7.47081E+00
 -1      1341 7.44498E+00
 -1      1342 9.32511E+00
 -1      1343 1.15795E+01
 -1      1344 9.49966E+00
 -1      1345 9.32128E+00
 -1      1346 1.16412E+01
 -1      1347 9.62955E+00
 -1      1348 9.56336E+00
 -1      1349 9.59309E+00
 -1      1350 1.17873E+01
 -1      1351 9.49194E+00
 -1      1352 8.99682E+00
 -1      1353 1.11101E+01
 -1      1354 6.82244E+00
 -1      1355 7.17747E+00
 -1      1356 9.39798E+00
 -1      1357 9.04961E+00
 -1      1358 1.07918E+01
 -1      1359 1.06354E+01
 -1      1360 1.04681E+01
 -1      1361 8.61875E+00
 -1      1362 1.14454E+01
 -1      1363 9.41704E+00
 -1      1364 7.49790E+00
 -1      1365 6.80243E+00
 -1      1366 9.45775E+00
 -1      1367 9.18070E+00
 -1      1368 9.21346E+00
 -1      1369 1.10710E+01
 -1      1370 9.22596E+00
 -1      1371 9.91501E+00
 -1      1372 8.05751E+00
 -1      1373 9.16442E+00
 -1      1374 9.69151E+00
 -1      1375 1.14411E+01
 -1      1376 8.78176E+00
 -1      1377 9.02257E+00
 -1      1378 2.78046E+00
 -1      1379 2.44663E+00
 -1      1380 2.56433E+00
 -1      1381 2.20604E+00
 -1      1382 1.95433E+00
 -1      1383 2.07204E+00
 -1      1384 5.32767E+00
 -1      1385 5.07996E+00
 -1      1386 4.94026E+00
 -1      1387 5.23194E+00
 -1      1388 5.32175E+00
 -1      1389 8.05711E+00
 -1      1390 8.24951E+00
 -1      1391 6.89682E+00
 -1      1392 6.32024E+00
 -1      1393 8.60470E+00
 -1      1394 3.43220E+00
 -1      1395 3.42626E+00
 -1      1396 4.27343E+00
 -1      1397 3.68829E+00
 -1      1398 4.35261E+00
 -1      1399 5.88210E+00
 -1      1400 6.03705E+00
 -1      1401 5.98135E+00
 -1      1402 5.74804E+00
 -1      1403 5.96771E+00
 -1      1404 5.26846E+00
 -1      1405 5.41111E+00
 -1      1406 5.82724E+00
 -1      1407 6.01412E+00
 -1      1408 6.95760E+00
 -1      1409 7.51687E+00
 -1      1410 7.59081E+00
 -1      1411 5.26008E+00
 -1      1412 5.87946E+00
 -1      1413 7.41515E+00
 -1      1414 9.58579E+00
 -1      1415 1.16624E+01
 -1      1416 9.60768E+00
 -1      1417 7.29777E+00
 -1      1418 9.58271E+00
 -1      1419 1.11259E+01
 -1      1420 9.31919E+00
 -1      1421 8.63697E+00
 -1      1422 1.09227E+01
 -1      1423 1.10142E+01
 -1      1424 8.54975E+00
 -1      1425 6.63682E+00
 -1      1426 8.58976E+00
 -1      1427 8.35875E+00
 -1      1428 8.07868E+00
 -1      1429 9.09969E+00
 -1      1430 1.14559E+01
 -1      1431 1.15900E+01
 -1      1432 9.58962E+00
 -1      1433 1.15110E+01
 -1      1434 7.49983E+00
 -1      1435 6.80058E+00
 -1      1436 6.78058E+00
 -1      1437 7.18055E+00
 -1      1438 7.55862E+00
 -1      1439 9.64252E+00
 -1      1440 9.03508E+00
 -1      1441 7.59414E+00
 -1      1442 2.10620E+00
 -1      1443 1.91271E+00
 -1      1444 2.13026E+00
 -1      1445 9.65506E+00
 -1      1446 9.67574E+00
 -1      1447 9.72525E+00
 -1      1448 7.46633E+00
 -1      1449 7.38357E+00
 -1      1450 4.97007E+00
 -1      1451 5.01660E+00
 -1      1452 7.80164E+00
 -1      1453 9.71113E+00
 -1      1454 8.12319E+00
 -1      1455 8.28675E+00
 -1      1456 9.85994E+00
 -1      1457 1.09070E+01
 -1      1458 8.97552E+00
 -1      1459 1.08851E+01
 -1      1460 8.71107E+00
 -1      1461 8.40243E+00
 -1      1462 4.10727E+00
 -1      1463 3.90485E+00
 -1      1464 4.95464E+00
 -1      1465 2.94775E+01
 -1      1466 1.21831E+01
 -1      1467 4.34299E+00
 -1      1468 4.77883E+00
 -1      1469 2.96767E+01
 -1      1470 4.82018E+00
 -1      1471 2.96804E+01
 -1      1472 8.30613E+00
 -1      1473 2.96982E+01
 -1      1474 2.96867E+01
 -1      1475 7.67282E+00
 -1      1476 2.88099E+01
 -1      1477 2.92287E+01
 -1      1478 8.97266E+00
 -1      1479 5.65599E+00
 -1      1480 7.51568E+00
 -1      1481 2.08834E+00
 -1      1482 6.74439E+00
 -1      1483 2.90033E+00
 -1      1484 6.48457E+00
 -1      1485 2.98261E+01
 -1      1486 8.18279E+00
 -1      1487 7.44192E+00
 -1      1488 2.77856E+01
 -1      1489 1.03862E+00
 -1      1490 5.13314E+00
 -1      1491 2.05566E+01
 -1      1492 2.90394E+01
 -1      1493 8.44349E+00
 -1      1494 8.57415E+00
 -1      1495 2.51612E+01
 -1      1496 2.75601E+00
 -1      1497 3.01201E+01
 -1      1498 2.95137E+01
 -1      1499 1.18316E+01
 -1      1500 9.50233E+00
 -1      1501 5.03929E+00
 -1      1502 2.96162E+01
 -1      1503 2.94114E+01
 -1      1504 1.69669E+01
 -1      1505 3.17027E+00
 -1      1506 2.97938E+01
 -1      1507 4.26401E+00
 -1      1508 7.67941E+00
 -1      1509 2.99669E+01
 -1      1510 2.73123E+01
 -1      1511 2.16237E+01
 -1      1512 4.40718E+00
 -1      1513 6.60432E+00
 -1      1514 2.99930E+01
 -1      1515 2.27306E+01
 -1      1516 8.39081E+00
 -1      1517 2.72701E+01
 -1      1518 2.93011E+01
 -1      1519 1.79732E+01
 -1      1520 2.66224E+01
 -1      1521 2.98585E+01
 -1      1522 7.71548E+00
 -1      1523 5.07928E+00
 -1      1524 5.30095E+00
 -1      1525 2.52736E+01
 -1      1526 2.89318E+01
 -1      1527 1.41681E+01
 -1      1528 6.37815E+00
 -1      1529 6.15537E+00
 -1      1530 8.17398E+00
 -1      1531 8.18672E+00
 -1      1532 8.06242E+00
 -1      1533 1.80100E+01
 -1      1534 7.14676E+00
 -1      1535 2.08880E+01
 -1      1536 2.21419E+00
 -1      1537 2.76320E+00
 -1      1538 7.76184E+00
 -1      1539 8.02645E+00
 -1      1540 9.62922E+00
 -1      1541 3.78412E+00
 -1      1542 5.20859E+00
 -1      1543 1.35090E+01
 -1      1544 1.01025E+01
 -1      1545 2.45339E+01
 -1      1546 2.50758E+01
 -1      1547 5.88518E+00
 -1      1548 9.67664E+00
 -1      1549 1.83640E+01
 -1      1550 4.74273E+00
 -1      1551 1.91073E+01
 -1      1552 1.43463E+01
 -1      1553 1.27552E+01
 -1      1554 1.09459E+01
 -1      1555 1.06245E+01
 -1      1556 1.57092E+01
 -1      1557 2.37712E+01
 -1      1558 7.75651E+00
 -1      1559 2.19104E+01
 -1      1560 2.21390E+01
 -1      1561 8.73564E-01
 -1      1562 2.92945E+01
 -1      1563 2.95858E+00
 -1      1564 2.19718E+01
 -1      1565 1.01239E+01
 -1      1566 2.77856E+01
 -1      1567 1.69858E+00
 -1      1568 1.75702E+00
 -1      1569 1.16918E+00
 -1      1570 2.64349E+01
 -1      1571 2.17441E+01
 -1      1572 2.17200E+01
 -1      1573 1.01239E+01
 -1      1574 1.04147E+01
 -1      1575 9.01659E+00
 -1      1576 1.93512E+00
 -1      1577 1.25368E+00
 -1      1578 1.93121E+00
 -1      1579 1.22714E+00
 -1      1580 1.78193E+00
 -1      1581 1.61733E+00
 -1      1582 2.19201E+01
 -1      1583 2.64349E+01
 -1      1584 2.77856E+01
 -1      1585 1.24368E+01
 -1      1586 1.51113E+01
 -1      1587 2.09768E+01
 -1      1588 1.21460E+01
 -1      1589 8.94485E-01
 -1      1590 7.14980E-01
 -1      1591 1.39782E+00
 -1      1592 6.32451E-01
 -1      1593 8.14636E-01
 -1      1594 9.56094E-01
 -1      1595 1.28607E+00
 -1      1596 2.24745E+01
 -1      1597 2.29523E+01
 -1      1598 2.85401E+01
 -1      1599 2.27710E+01
 -1      1600 2.26688E+01
 -1      1601 2.91132E+01
 -1      1602 2.30462E+01
 -1      1603 2.83606E+01
 -1      1604 2.93092E+01
 -1      1605 2.71523E+01
 -1      1606 2.21378E+01
 -1      1607 2.84784E+01
 -1      1608 2.30225E+01
 -1      1609 2.83688E+01
 -1      1610 2.81547E+01
 -1      1611 2.88456E+01
 -1      1612 2.37369E+01
 -1      1613 2.95162E+01
 -1      1614 2.35895E+01
 -1      1615 2.37719E+01
 -1      1616 2.98456E+01
 -1      1617 2.39062E+01
 -1      1618 2.93825E+01
 -1      1619 2.98325E+01
 -1      1620 2.90134E+01
 -1      1621 2.81660E+01
 -1      1622 2.95978E+01
 -1      1623 2.72078E+01
 -1      1624 2.34113E+01
 -1      1625 2.82705E+01
 -1      1626 2.46520E+01
 -1      1627 2.51657E+01
 -1      1628 2.85531E+01
 -1      1629 2.51819E+01
 -1      1630 2.95636E+01
 -1      1631 2.98100E+01
 -1      1632 2.93010E+01
 -1      1633 2.60342E+01
 -1      1634 2.95636E+01
 -1      1635 2.57886E+01
 -1      1636 2.88060E+01
 -1      1637 2.90555E+01
 -1      1638 2.91067E+01
 -1      1639 2.92587E+01
 -1      1640 2.91106E+01
 -1      1641 2.93611E+01
 -1      1642 2.82224E+01
 -1      1643 2.95138E+01
 -1      1644 2.82545E+01
 -1      1645 2.86666E+01
 -1      1646 2.96483E+01
 -1      1647 2.87557E+01
 -1      1648 2.98585E+01
 -1      1649 2.97695E+01
 -1      1650 2.97676E+01
 -1      1651 2.95807E+01
 -1      1652 2.97676E+01
 -1      1653 2.94992E+01
 -1      1654 2.98169E+01
 -1      1655 2.95952E+01
 -1      1656 3.01201E+01
 -1      1657 3.01201E+01
 -1      1658 2.98169E+01
 -1      1659 2.97988E+01
 -1      1660 2.94775E+01
 -1      1661 2.97988E+01
 -1      1662 2.80500E+01
 -1      1663 2.66224E+01
 -1      1664 2.80500E+01
 -1      1665 2.35895E+01
 -1      1666 2.05566E+01
 -1      1667 2.35895E+01
 -1      1668 1.92649E+01
 -1      1669 1.67656E+01
 -1      1670 1.92649E+01
 -1      1671 1.38705E+01
 -1      1672 1.21831E+01
 -1      1673 1.50781E+01
 -1      1674 1.08427E+01
 -1      1675 9.57761E+00
 -1      1676 1.08427E+01
 -1      1677 8.68418E+00
 -1      1678 7.63101E+00
 -1      1679 8.60890E+00
 -1      1680 7.53111E+00
 -1      1681 6.58815E+00
 -1      1682 7.61558E+00
 -1      1683 5.03390E+00
 -1      1684 4.40718E+00
 -1      1685 5.96143E+00
 -1      1686 4.59300E+00
 -1      1687 3.86870E+00
 -1      1688 4.59300E+00
 -1      1689 2.95858E+00
 -1      1690 2.53199E+00
 -1      1691 3.86870E+00
 -1      1692 2.35780E+00
 -1      1693 7.38702E+00
 -1      1694 8.44097E+00
 -1      1695 9.54828E+00
 -1      1696 7.70293E+00
 -1      1697 7.18777E+00
 -1      1698 8.77341E+00
 -1      1699 6.80664E+00
 -1      1700 7.63760E+00
 -1      1701 8.50882E+00
 -1      1702 6.80062E+00
 -1      1703 6.78030E+00
 -1      1704 8.41715E+00
 -1      1705 6.70915E+00
 -1      1706 6.75829E+00
 -1      1707 8.34847E+00
 -1      1708 7.19441E+00
 -1      1709 6.64944E+00
 -1      1710 8.24643E+00
 -1      1711 7.51049E+00
 -1      1712 7.18804E+00
 -1      1713 8.18035E+00
 -1      1714 6.61828E+00
 -1      1715 7.51490E+00
 -1      1716 8.17839E+00
 -1      1717 6.54777E+00
 -1      1718 6.55810E+00
 -1      1719 8.12261E+00
 -1      1720 6.86998E+00
 -1      1721 6.39481E+00
 -1      1722 7.90946E+00
 -1      1723 7.12774E+00
 -1      1724 6.82813E+00
 -1      1725 7.71466E+00
 -1      1726 6.26993E+00
 -1      1727 7.13104E+00
 -1      1728 7.67611E+00
 -1      1729 6.10742E+00
 -1      1730 6.15119E+00
 -1      1731 7.56066E+00
 -1      1732 7.66781E+00
 -1      1733 7.69871E+00
 -1      1734 9.03321E+00
 -1      1735 6.00432E+00
 -1      1736 5.92894E+00
 -1      1737 8.88563E+00
 -1      1738 6.08468E+00
 -1      1739 5.80313E+00
 -1      1740 6.94558E+00
 -1      1741 6.25511E+00
 -1      1742 6.01464E+00
 -1      1743 6.67436E+00
 -1      1744 5.49796E+00
 -1      1745 6.19523E+00
 -1      1746 6.54444E+00
 -1      1747 5.40674E+00
 -1      1748 5.44476E+00
 -1      1749 6.43136E+00
 -1      1750 5.19707E+00
 -1      1751 5.29535E+00
 -1      1752 6.26676E+00
 -1      1753 5.21171E+00
 -1      1754 4.94738E+00
 -1      1755 5.90568E+00
 -1      1756 5.18443E+00
 -1      1757 5.03419E+00
 -1      1758 5.47847E+00
 -1      1759 4.69478E+00
 -1      1760 5.05360E+00
 -1      1761 5.17012E+00
 -1      1762 4.73030E+00
 -1      1763 4.58523E+00
 -1      1764 4.92973E+00
 -1      1765 4.39348E+00
 -1      1766 4.85985E+00
 -1      1767 4.94973E+00
 -1      1768 4.30601E+00
 -1      1769 4.42041E+00
 -1      1770 5.10621E+00
 -1      1771 3.77847E+00
 -1      1772 3.87145E+00
 -1      1773 4.69857E+00
 -1      1774 3.60015E+00
 -1      1775 3.81796E+00
 -1      1776 4.30350E+00
 -1      1777 2.93916E+00
 -1      1778 3.01379E+00
 -1      1779 3.75663E+00
 -1      1780 2.65260E+00
 -1      1781 2.80419E+00
 -1      1782 3.03530E+00
 -1      1783 2.42042E+00
 -1      1784 2.58044E+00
 -1      1785 2.82817E+00
 -1      1786 1.81220E+00
 -1      1787 2.08658E+00
 -1      1788 2.42217E+00
 -1      1789 1.89346E+00
 -1      1790 2.01113E+01
 -1      1791 1.97900E+01
 -1      1792 1.95771E+01
 -1      1793 1.81495E+01
 -1      1794 9.88957E+00
 -1      1795 9.03414E+00
 -1      1796 7.69375E+00
 -1      1797 1.28675E+01
 -1      1798 9.97248E+00
 -1      1799 6.82351E+00
 -1      1800 3.95650E+00
 -1      1801 4.54286E+00
 -1      1802 4.77579E+00
 -1      1803 4.73630E+00
 -1      1804 4.97566E+00
 -1      1805 3.58519E+00
 -1      1806 3.77101E+00
 -1      1807 3.49651E+00
 -1      1808 2.48869E+00
 -1      1809 2.58638E+00
 -1      1810 2.07541E+01
 -1      1811 2.06727E+01
 -1      1812 2.12159E+01
 -1      1813 1.22934E+01
 -1      1814 2.13068E+01
 -1      1815 7.22470E+00
 -1      1816 7.33426E+00
 -1      1817 6.55287E+00
 -1      1818 6.42332E+00
 -1      1819 8.82784E+00
 -1      1820 2.19813E+01
 -1      1821 2.20134E+01
 -1      1822 2.15947E+01
 -1      1823 2.16838E+01
 -1      1824 1.39277E+01
 -1      1825 1.64200E+01
 -1      1826 1.64623E+01
 -1      1827 1.59790E+01
 -1      1828 1.60387E+01
 -1      1829 2.41526E+01
 -1      1830 2.59186E+01
 -1      1831 2.60529E+01
 -1      1832 2.63618E+01
 -1      1833 2.62144E+01
 -1      1834 2.24348E+01
 -1      1835 2.73812E+01
 -1      1836 2.61729E+01
 -1      1837 2.74801E+01
 -1      1838 2.71027E+01
 -1      1839 2.51747E+01
 -1      1840 1.33933E+01
 -1      1841 1.33901E+01
 -1      1842 1.42804E+01
 -1      1843 1.99977E+01
 -1      1844 1.43223E+01
 -1      1845 2.28884E+01
 -1      1846 2.31891E+01
 -1      1847 2.34099E+01
 -1      1848 1.74884E+01
 -1      1849 2.36555E+01
 -1      1850 2.59386E+01
 -1      1851 2.55695E+01
 -1      1852 2.54262E+01
 -1      1853 2.44680E+01
 -1      1854 2.17670E+01
 -1      1855 1.68677E+01
 -1      1856 1.70669E+01
 -1      1857 2.35665E+01
 -1      1858 1.54722E+01
 -1      1859 1.15704E+01
 -1      1860 1.80699E+01
 -1      1861 7.70172E+00
 -1      1862 7.87924E+00
 -1      1863 8.30092E+00
 -1      1864 8.55061E+00
 -1      1865 1.05242E+01
 -1      1866 5.64990E+00
 -1      1867 4.09565E+00
 -1      1868 6.22910E+00
 -1      1869 6.12920E+00
 -1      1870 4.26342E+00
 -1      1871 2.15126E+00
 -1      1872 2.48510E+00
 -1      1873 1.62876E+00
 -1      1874 1.69168E+00
 -1      1875 1.48095E+00
 -1      1876 1.02137E+00
 -1      1877 1.04753E+01
 -1      1878 1.05454E+01
 -1      1879 1.12268E+01
 -1      1880 1.14280E+01
 -1      1881 1.50278E+01
 -1      1882 2.75960E+00
 -1      1883 2.83176E+00
 -1      1884 3.34222E+00
 -1      1885 3.47720E+00
 -1      1886 3.27366E+00
 -1      1887 9.99679E+00
 -1      1888 1.00567E+01
 -1      1889 9.56666E+00
 -1      1890 9.61986E+00
 -1      1891 1.31321E+01
 -1      1892 2.44506E+01
 -1      1893 2.44667E+01
 -1      1894 2.40951E+01
 -1      1895 2.38325E+01
 -1      1896 1.87356E+01
 -1      1897 1.51609E+01
 -1      1898 1.51565E+01
 -1      1899 1.49864E+01
 -1      1900 1.50466E+01
 -1      1901 2.20247E+01
 -1      1902 1.29029E+01
 -1      1903 1.30217E+01
 -1      1904 1.27259E+01
 -1      1905 1.81870E+01
 -1      1906 1.43172E+01
 -1      1907 2.48787E+01
 -1      1908 2.85401E+01
 -1      1909 2.56332E+01
 -1      1910 1.10390E+00
 -1      1911 1.99860E+00
 -1      1912 2.06388E+00
 -1      1913 5.07459E+00
 -1      1914 5.50916E+00
 -1      1915 6.44749E+00
 -1      1916 6.42056E+00
 -1      1917 1.42915E+01
 -1      1918 1.29998E+01
 -1      1919 1.81258E+01
 -1      1920 1.50929E+01
 -1      1921 2.64053E+01
 -1      1922 2.68821E+01
 -1      1923 2.59020E+01
 -1      1924 2.67866E+01
 -1      1925 1.68586E+01
 -1      1926 1.69239E+01
 -1      1927 1.67333E+01
 -1      1928 1.67596E+01
 -1      1929 2.52174E+01
 -1      1930 2.70465E+01
 -1      1931 2.72279E+01
 -1      1932 2.02298E+01
 -1      1933 2.05330E+01
 -1      1934 1.13887E+01
 -1      1935 9.10488E+00
 -1      1936 8.99349E+00
 -1      1937 7.35546E+00
 -1      1938 6.46203E+00
 -1      1939 5.54688E+00
 -1      1940 7.35796E+00
 -1      1941 7.48879E+00
 -1      1942 9.65293E+00
 -1      1943 2.25603E+01
 -1      1944 2.26627E+01
 -1      1945 1.63381E+01
 -1      1946 1.37957E+01
 -1      1947 1.20568E+01
 -1      1948 2.41002E+01
 -1      1949 2.53409E+01
 -1      1950 2.12559E+01
 -1      1951 1.48431E+01
 -1      1952 1.46901E+01
 -1      1953 2.32509E+01
 -1      1954 1.54523E+01
 -1      1955 1.54587E+01
 -1      1956 2.48048E+01
 -1      1957 7.89415E+00
 -1      1958 2.95474E+01
 -1      1959 1.21528E+01
 -1      1960 3.67391E+00
 -1      1961 3.55873E+00
 -1      1962 2.95819E+01
 -1      1963 5.23786E+00
 -1      1964 2.95146E+01
 -1      1965 8.26041E+00
 -1      1966 2.84482E+01
 -1      1967 2.82183E+01
 -1      1968 7.75453E+00
 -1      1969 7.22780E+00
 -1      1970 7.91130E+00
 -1      1971 9.10107E+00
 -1      1972 6.12905E+00
 -1      1973 7.54311E+00
 -1      1974 1.60927E+00
 -1      1975 6.99408E+00
 -1      1976 2.49089E+00
 -1      1977 6.54263E+00
 -1      1978 2.96933E+01
 -1      1979 2.95146E+01
 -1      1980 2.75776E+01
 -1      1981 2.81138E+01
 -1      1982 9.99075E-01
 -1      1983 4.19618E+00
 -1      1984 2.32937E+01
 -1      1985 8.19040E+00
 -1      1986 2.59688E+01
 -1      1987 8.44487E+00
 -1      1988 8.63686E+00
 -1      1989 2.57371E+01
 -1      1990 2.13079E+00
 -1      1991 2.98435E+01
 -1      1992 2.96741E+01
 -1      1993 1.23531E+01
 -1      1994 1.10659E+01
 -1      1995 2.88086E+01
 -1      1996 5.00374E+00
 -1      1997 3.90241E+00
 -1      1998 3.99546E+00
 -1      1999 2.94900E+01
 -1      2000 7.59359E+00
 -1      2001 7.48096E+00
 -1      2002 1.81793E+01
 -1      2003 2.98801E+01
 -1      2004 2.97220E+01
 -1      2005 4.95645E+00
 -1      2006 7.11994E+00
 -1      2007 8.09879E+00
 -1      2008 6.65818E+00
 -1      2009 2.91284E+01
 -1      2010 8.35063E+00
 -1      2011 2.68765E+01
 -1      2012 8.27441E+00
 -1      2013 1.59150E+01
 -1      2014 7.71190E+00
 -1      2015 2.66953E+01
 -1      2016 2.93391E+01
 -1      2017 7.55248E+00
 -1      2018 4.65450E+00
 -1      2019 6.04161E+00
 -1      2020 2.57797E+01
 -1      2021 2.69203E+01
 -1      2022 1.42559E+01
 -1      2023 6.21153E+00
 -1      2024 5.93781E+00
 -1      2025 1.73465E+01
 -1      2026 2.95703E+01
 -1      2027 1.79604E+00
 -1      2028 3.61678E+00
 -1      2029 7.56825E+00
 -1      2030 7.56825E+00
 -1      2031 9.55906E+00
 -1      2032 4.05282E+00
 -1      2033 5.90777E+00
 -1      2034 1.36813E+01
 -1      2035 9.95264E+00
 -1      2036 1.61018E+01
 -1      2037 2.30643E+01
 -1      2038 2.41297E+01
 -1      2039 2.48217E+01
 -1      2040 2.55464E+01
 -1      2041 5.70638E+00
 -1      2042 2.24618E+01
 -1      2043 9.55906E+00
 -1      2044 2.06099E+01
 -1      2045 2.13754E+01
 -1      2046 2.11630E+01
 -1      2047 5.13199E+00
 -1      2048 1.92392E+01
 -1      2049 1.50207E+01
 -1      2050 1.31006E+01
 -1      2051 1.10280E+01
 -1      2052 2.88109E+01
 -1      2053 1.80240E+01
 -1      2054 8.23996E-01
 -1      2055 2.82859E+01
 -1      2056 2.12723E+00
 -1      2057 2.19494E+01
 -1      2058 1.01977E+01
 -1      2059 2.81138E+01
 -1      2060 1.37744E+00
 -1      2061 1.59424E+00
 -1      2062 1.58710E+00
 -1      2063 2.19064E+01
 -1      2064 2.65796E+01
 -1      2065 2.18844E+01
 -1      2066 1.06113E+01
 -1      2067 1.01977E+01
 -1      2068 9.04113E+00
 -1      2069 1.13416E+00
 -1      2070 1.77924E+00
 -1      2071 1.83854E+00
 -1      2072 1.54526E+00
 -1      2073 1.07137E+00
 -1      2074 1.49335E+00
 -1      2075 2.65796E+01
 -1      2076 2.20754E+01
 -1      2077 2.81138E+01
 -1      2078 1.51464E+01
 -1      2079 1.26404E+01
 -1      2080 2.11848E+01
 -1      2081 1.22268E+01
 -1      2082 6.91174E-01
 -1      2083 8.36572E-01
 -1      2084 1.29666E+00
 -1      2085 7.94653E-01
 -1      2086 6.03635E-01
 -1      2087 9.11535E-01
 -1      2088 1.10072E+00
 -1      2089 2.24570E+01
 -1      2090 2.19704E+01
 -1      2091 2.81998E+01
 -1      2092 2.68626E+01
 -1      2093 2.17742E+01
 -1      2094 2.76031E+01
 -1      2095 2.67122E+01
 -1      2096 2.75116E+01
 -1      2097 2.75693E+01
 -1      2098 2.19586E+01
 -1      2099 2.60413E+01
 -1      2100 2.75474E+01
 -1      2101 2.59688E+01
 -1      2102 2.15048E+01
 -1      2103 2.64226E+01
 -1      2104 2.33869E+01
 -1      2105 2.75486E+01
 -1      2106 2.75486E+01
 -1      2107 2.84482E+01
 -1      2108 2.30468E+01
 -1      2109 2.87883E+01
 -1      2110 2.41942E+01
 -1      2111 2.91642E+01
 -1      2112 2.91642E+01
 -1      2113 2.44094E+01
 -1      2114 2.41152E+01
 -1      2115 2.98011E+01
 -1      2116 2.75776E+01
 -1      2117 2.33372E+01
 -1      2118 2.86498E+01
 -1      2119 2.93787E+01
 -1      2120 2.85338E+01
 -1      2121 2.85338E+01
 -1      2122 2.54261E+01
 -1      2123 2.94804E+01
 -1      2124 2.95916E+01
 -1      2125 2.91906E+01
 -1      2126 2.53646E+01
 -1      2127 2.96318E+01
 -1      2128 2.87740E+01
 -1      2129 2.88109E+01
 -1      2130 2.91906E+01
 -1      2131 2.75554E+01
 -1      2132 2.91259E+01
 -1      2133 2.91628E+01
 -1      2134 2.87253E+01
 -1      2135 2.72023E+01
 -1      2136 2.91616E+01
 -1      2137 2.94118E+01
 -1      2138 2.90783E+01
 -1      2139 2.91616E+01
 -1      2140 2.91648E+01
 -1      2141 2.93240E+01
 -1      2142 2.94269E+01
 -1      2143 2.95819E+01
 -1      2144 2.92863E+01
 -1      2145 2.94605E+01
 -1      2146 2.98315E+01
 -1      2147 2.96280E+01
 -1      2148 2.96280E+01
 -1      2149 2.98435E+01
 -1      2150 2.99162E+01
 -1      2151 2.97588E+01
 -1      2152 2.95474E+01
 -1      2153 2.96954E+01
 -1      2154 2.96954E+01
 -1      2155 2.66953E+01
 -1      2156 2.81213E+01
 -1      2157 2.81213E+01
 -1      2158 2.17744E+01
 -1      2159 2.49945E+01
 -1      2160 2.49945E+01
 -1      2161 1.59150E+01
 -1      2162 1.80850E+01
 -1      2163 1.96044E+01
 -1      2164 1.21528E+01
 -1      2165 1.40339E+01
 -1      2166 1.40339E+01
 -1      2167 1.01948E+01
 -1      2168 1.16093E+01
 -1      2169 1.16093E+01
 -1      2170 7.55248E+00
 -1      2171 8.43808E+00
 -1      2172 9.30919E+00
 -1      2173 6.53964E+00
 -1      2174 7.54779E+00
 -1      2175 7.54779E+00
 -1      2176 4.63478E+00
 -1      2177 5.24631E+00
 -1      2178 6.24978E+00
 -1      2179 3.19889E+00
 -1      2180 3.93592E+00
 -1      2181 4.25759E+00
 -1      2182 2.10503E+00
 -1      2183 2.48313E+00
 -1      2184 2.84298E+00
 -1      2185 1.86073E+00
 -1      2186 8.49282E+00
 -1      2187 7.45300E+00
 -1      2188 9.64938E+00
 -1      2189 7.22090E+00
 -1      2190 6.96232E+00
 -1      2191 8.86896E+00
 -1      2192 6.86632E+00
 -1      2193 7.74396E+00
 -1      2194 8.54086E+00
 -1      2195 7.69684E+00
 -1      2196 6.78111E+00
 -1      2197 8.39775E+00
 -1      2198 6.73600E+00
 -1      2199 7.62878E+00
 -1      2200 8.30552E+00
 -1      2201 7.63578E+00
 -1      2202 6.75010E+00
 -1      2203 8.26741E+00
 -1      2204 6.70809E+00
 -1      2205 6.70204E+00
 -1      2206 8.23240E+00
 -1      2207 6.65624E+00
 -1      2208 7.47114E+00
 -1      2209 8.14460E+00
 -1      2210 7.37739E+00
 -1      2211 7.01874E+00
 -1      2212 8.00505E+00
 -1      2213 6.91904E+00
 -1      2214 6.42242E+00
 -1      2215 7.81160E+00
 -1      2216 6.44373E+00
 -1      2217 6.37447E+00
 -1      2218 7.73321E+00
 -1      2219 6.29400E+00
 -1      2220 7.07128E+00
 -1      2221 7.67406E+00
 -1      2222 7.01497E+00
 -1      2223 6.17282E+00
 -1      2224 7.53728E+00
 -1      2225 6.04624E+00
 -1      2226 6.43590E+00
 -1      2227 7.35438E+00
 -1      2228 6.38197E+00
 -1      2229 6.65153E+00
 -1      2230 7.17387E+00
 -1      2231 6.58861E+00
 -1      2232 5.82264E+00
 -1      2233 7.05701E+00
 -1      2234 5.65469E+00
 -1      2235 5.68645E+00
 -1      2236 6.82613E+00
 -1      2237 5.62867E+00
 -1      2238 5.53687E+00
 -1      2239 6.60040E+00
 -1      2240 5.37133E+00
 -1      2241 5.25303E+00
 -1      2242 6.37708E+00
 -1      2243 5.11617E+00
 -1      2244 5.65097E+00
 -1      2245 6.07467E+00
 -1      2246 5.74659E+00
 -1      2247 5.19680E+00
 -1      2248 6.03343E+00
 -1      2249 5.15307E+00
 -1      2250 5.43737E+00
 -1      2251 6.08533E+00
 -1      2252 4.91844E+00
 -1      2253 4.64674E+00
 -1      2254 5.52267E+00
 -1      2255 4.76380E+00
 -1      2256 4.52122E+00
 -1      2257 5.12080E+00
 -1      2258 4.22954E+00
 -1      2259 4.32452E+00
 -1      2260 4.94618E+00
 -1      2261 4.09536E+00
 -1      2262 4.13802E+00
 -1      2263 4.42534E+00
 -1      2264 4.03766E+00
 -1      2265 3.99546E+00
 -1      2266 4.09582E+00
 -1      2267 3.83469E+00
 -1      2268 3.31287E+00
 -1      2269 3.83469E+00
 -1      2270 3.42712E+00
 -1      2271 3.45631E+00
 -1      2272 3.78816E+00
 -1      2273 2.75055E+00
 -1      2274 2.46554E+00
 -1      2275 3.19665E+00
 -1      2276 2.28549E+00
 -1      2277 2.13079E+00
 -1      2278 2.31084E+00
 -1      2279 1.87003E+00
 -1      2280 1.60927E+00
 -1      2281 1.87003E+00
 -1      2282 1.49335E+00
 -1      2283 1.97500E+01
 -1      2284 1.98981E+01
 -1      2285 1.81272E+01
 -1      2286 1.95532E+01
 -1      2287 9.75585E+00
 -1      2288 8.38614E+00
 -1      2289 8.92957E+00
 -1      2290 9.86051E+00
 -1      2291 1.17416E+01
 -1      2292 6.63731E+00
 -1      2293 4.40295E+00
 -1      2294 4.51720E+00
 -1      2295 4.95161E+00
 -1      2296 4.79084E+00
 -1      2297 5.51988E+00
 -1      2298 3.58775E+00
 -1      2299 4.28662E+00
 -1      2300 2.70641E+00
 -1      2301 2.67739E+00
 -1      2302 1.96164E+00
 -1      2303 2.10136E+01
 -1      2304 2.09675E+01
 -1      2305 1.27269E+01
 -1      2306 2.13413E+01
 -1      2307 2.12199E+01
 -1      2308 7.28140E+00
 -1      2309 7.39846E+00
 -1      2310 6.40306E+00
 -1      2311 6.11137E+00
 -1      2312 8.56366E+00
 -1      2313 2.22677E+01
 -1      2314 2.19147E+01
 -1      2315 2.15102E+01
 -1      2316 2.15980E+01
 -1      2317 1.43510E+01
 -1      2318 1.65862E+01
 -1      2319 1.65411E+01
 -1      2320 1.61950E+01
 -1      2321 1.62020E+01
 -1      2322 2.44757E+01
 -1      2323 2.61710E+01
 -1      2324 2.54550E+01
 -1      2325 2.57563E+01
 -1      2326 2.60963E+01
 -1      2327 2.27630E+01
 -1      2328 2.62114E+01
 -1      2329 2.68824E+01
 -1      2330 2.63500E+01
 -1      2331 2.69990E+01
 -1      2332 2.56631E+01
 -1      2333 1.34969E+01
 -1      2334 1.34164E+01
 -1      2335 1.41609E+01
 -1      2336 1.41822E+01
 -1      2337 1.99245E+01
 -1      2338 1.28301E+01
 -1      2339 1.27036E+01
 -1      2340 1.77629E+01
 -1      2341 1.22872E+01
 -1      2342 1.22332E+01
 -1      2343 1.46309E+01
 -1      2344 1.45371E+01
 -1      2345 1.46434E+01
 -1      2346 1.45437E+01
 -1      2347 2.12692E+01
 -1      2348 1.74191E+01
 -1      2349 1.71870E+01
 -1      2350 1.55252E+01
 -1      2351 2.38432E+01
 -1      2352 1.81026E+01
 -1      2353 1.16785E+01
 -1      2354 8.04085E+00
 -1      2355 7.99713E+00
 -1      2356 8.48290E+00
 -1      2357 8.57852E+00
 -1      2358 1.04903E+01
 -1      2359 4.50464E+00
 -1      2360 5.79796E+00
 -1      2361 6.33755E+00
 -1      2362 6.34223E+00
 -1      2363 4.59241E+00
 -1      2364 1.96341E+00
 -1      2365 1.70265E+00
 -1      2366 1.69157E+00
 -1      2367 1.59818E+00
 -1      2368 1.21663E+00
 -1      2369 1.20555E+00
 -1      2370 1.16109E+01
 -1      2371 1.15480E+01
 -1      2372 1.10074E+01
 -1      2373 1.08395E+01
 -1      2374 1.55613E+01
 -1      2375 3.05383E+00
 -1      2376 2.87378E+00
 -1      2377 3.97762E+00
 -1      2378 3.27185E+00
 -1      2379 3.83480E+00
 -1      2380 1.01698E+01
 -1      2381 1.01120E+01
 -1      2382 9.82162E+00
 -1      2383 9.65608E+00
 -1      2384 1.33910E+01
 -1      2385 2.44662E+01
 -1      2386 2.43646E+01
 -1      2387 2.37972E+01
 -1      2388 2.38587E+01
 -1      2389 1.86316E+01
 -1      2390 2.24552E+01
 -1      2391 2.28082E+01
 -1      2392 1.67242E+01
 -1      2393 2.34306E+01
 -1      2394 2.30787E+01
 -1      2395 2.50499E+01
 -1      2396 2.40938E+01
 -1      2397 2.44765E+01
 -1      2398 2.55487E+01
 -1      2399 2.09927E+01
 -1      2400 2.50316E+01
 -1      2401 2.51176E+01
 -1      2402 2.81998E+01
 -1      2403 1.29309E+00
 -1      2404 1.56315E+00
 -1      2405 1.85716E+00
 -1      2406 4.95128E+00
 -1      2407 4.85092E+00
 -1      2408 6.11137E+00
 -1      2409 5.88221E+00
 -1      2410 1.17416E+01
 -1      2411 1.54310E+01
 -1      2412 1.64264E+01
 -1      2413 1.81272E+01
 -1      2414 1.53261E+01
 -1      2415 1.52803E+01
 -1      2416 1.56693E+01
 -1      2417 1.56273E+01
 -1      2418 2.66290E+01
 -1      2419 2.50492E+01
 -1      2420 2.53952E+01
 -1      2421 2.58491E+01
 -1      2422 1.72083E+01
 -1      2423 1.71123E+01
 -1      2424 1.69957E+01
 -1      2425 1.69485E+01
 -1      2426 2.57584E+01
 -1      2427 2.63287E+01
 -1      2428 2.70115E+01
 -1      2429 2.04357E+01
 -1      2430 2.03510E+01
 -1      2431 1.16906E+01
 -1      2432 9.14547E+00
 -1      2433 9.28233E+00
 -1      2434 6.73012E+00
 -1      2435 8.48684E+00
 -1      2436 5.80707E+00
 -1      2437 7.80033E+00
 -1      2438 7.28140E+00
 -1      2439 9.55906E+00
 -1      2440 1.28088E+01
 -1      2441 1.27525E+01
 -1      2442 1.81017E+01
 -1      2443 2.34951E+01
 -1      2444 2.38748E+01
 -1      2445 2.54425E+01
 -1      2446 2.55215E+01
 -1      2447 2.18124E+01
 -1      2448 2.35970E+01
 -1      2449 2.51841E+01
 -1      2450 7.56825E+00
 -1      2451 3.09853E+01
 -1      2452 3.76796E+00
 -1      2453 6.56906E+00
 -1      2454 2.99508E+01
 -1      2455 3.01474E+01
 -1      2456 1.18213E+01
 -1      2457 1.62975E+01
 -1      2458 9.71957E+00
 -1      2459 2.72785E+01
 -1      2460 2.98478E+01
 -1      2461 3.02252E+01
 -1      2462 3.01348E+01
 -1      2463 3.01081E+01
 -1      2464 1.71399E+01
 -1      2465 1.56132E+01
 -1      2466 2.96844E+01
 -1      2467 8.92072E+00
 -1      2468 3.00841E+01
 -1      2469 3.10891E+00
 -1      2470 3.20448E+01
 -1      2471 3.02910E+00
 -1      2472 1.84227E+01
 -1      2473 1.67762E+01
 -1      2474 3.01208E+01
 -1      2475 7.26416E+00
 -1      2476 1.57769E+01
 -1      2477 9.52187E+00
 -1      2478 9.11515E+00
 -1      2479 2.08476E+01
 -1      2480 2.98739E+01
 -1      2481 1.57700E+01
 -1      2482 2.98478E+01
 -1      2483 1.46324E+01
 -1      2484 2.98768E+01
 -1      2485 1.35878E+01
 -1      2486 1.65256E+01
 -1      2487 2.99808E+01
 -1      2488 2.95820E+01
 -1      2489 3.01788E+01
 -1      2490 1.49212E+01
 -1      2491 3.25902E+01
 -1      2492 2.40036E+00
 -1      2493 4.76318E+00
 -1      2494 1.70650E+01
 -1      2495 2.98980E+01
 -1      2496 5.19247E+00
 -1      2497 1.84844E+01
 -1      2498 5.99121E+00
 -1      2499 1.56801E+01
 -1      2500 1.64947E+00
 -1      2501 1.10352E+01
 -1      2502 9.91184E+00
 -1      2503 1.63206E+01
 -1      2504 3.27465E+00
 -1      2505 5.03611E+00
 -1      2506 2.97740E+01
 -1      2507 2.98585E+01
 -1      2508 7.91087E+00
 -1      2509 4.60870E+00
 -1      2510 5.90777E+00
 -1      2511 9.81972E+00
 -1      2512 3.01348E+01
 -1      2513 3.00841E+01
 -1      2514 1.24449E+01
 -1      2515 2.98230E+01
 -1      2516 6.54146E+00
 -1      2517 1.33002E+01
 -1      2518 2.07923E+01
 -1      2519 8.02645E+00
 -1      2520 9.67664E+00
 -1      2521 3.01474E+01
 -1      2522 1.07547E+01
 -1      2523 1.34399E+01
 -1      2524 3.02252E+01
 -1      2525 1.36763E+01
 -1      2526 2.95146E+01
 -1      2527 3.01149E+01
 -1      2528 3.01267E+01
 -1      2529 1.27226E+01
 -1      2530 3.01081E+01
 -1      2531 1.41118E+01
 -1      2532 1.29605E+01
 -1      2533 1.66562E+01
 -1      2534 1.67980E+01
 -1      2535 3.04297E+01
 -1      2536 1.43121E+01
 -1      2537 2.99890E+01
 -1      2538 2.97781E+01
 -1      2539 7.93026E+00
 -1      2540 1.18213E+01
 -1      2541 1.10000E+01
 -1      2542 3.00588E+01
 -1      2543 3.01030E+01
 -1      2544 4.11695E+00
 -1      2545 1.70718E+01
 -1      2546 7.56825E+00
 -1      2547 2.90076E+01
 -1      2548 1.85398E+01
 -1      2549 1.01025E+01
 -1      2550 1.56300E+01
 -1      2551 2.99808E+01
 -1      2552 1.71605E+01
 -1      2553 2.99637E+01
 -1      2554 1.56682E+01
 -1      2555 2.98131E+01
 -1      2556 2.96982E+01
 -1      2557 1.27191E+01
 -1      2558 2.80492E+00
 -1      2559 9.71957E+00
 -1      2560 2.90329E+01
 -1      2561 9.55906E+00
 -1      2562 2.98131E+01
 -1      2563 1.31188E+01
 -1      2564 1.31188E+01
 -1      2565 1.06245E+01
 -1      2566 1.27728E+01
 -1      2567 1.27728E+01
 -1      2568 1.52672E+01
 -1      2569 1.26284E+01
 -1      2570 1.26284E+01
 -1      2571 1.51228E+01
 -1      2572 3.01171E+00
 -1      2573 3.44203E+00
 -1      2574 2.97181E+00
 -1      2575 3.40212E+00
 -1      2576 3.06900E+00
 -1      2577 2.66155E+00
 -1      2578 2.13904E+00
 -1      2579 1.78477E+00
 -1      2580 2.75463E+00
 -1      2581 2.30728E+00
 -1      2582 2.70083E+01
 -1      2583 3.15151E+01
 -1      2584 2.64786E+01
 -1      2585 2.01973E+01
 -1      2586 2.47040E+01
 -1      2587 2.52337E+01
 -1      2588 3.09853E+01
 -1      2589 3.15151E+01
 -1      2590 3.17878E+01
 -1      2591 3.23175E+01
 -1      2592 3.17878E+01
 -1      2593 5.26787E+00
 -1      2594 6.76794E+00
 -1      2595 5.76408E+00
 -1      2596 5.12761E+00
 -1      2597 6.62769E+00
 -1      2598 6.13147E+00
 -1      2599 9.54271E+00
 -1      2600 9.04650E+00
 -1      2601 8.90624E+00
 -1      2602 8.04264E+00
 -1      2603 3.07075E+01
 -1      2604 3.15099E+01
 -1      2605 2.80733E+01
 -1      2606 2.17919E+01
 -1      2607 3.76553E+00
 -1      2608 3.83175E+00
 -1      2609 2.83410E+00
 -1      2610 3.02126E+00
 -1      2611 3.08749E+00
 -1      2612 4.01892E+00
 -1      2613 5.66612E+00
 -1      2614 4.73470E+00
 -1      2615 4.92186E+00
 -1      2616 3.01411E+01
 -1      2617 3.01411E+01
 -1      2618 3.01348E+01
 -1      2619 3.01189E+01
 -1      2620 3.01189E+01
 -1      2621 3.01252E+01
 -1      2622 2.66059E+01
 -1      2623 2.65995E+01
 -1      2624 2.65836E+01
 -1      2625 2.96379E+01
 -1      2626 2.96157E+01
 -1      2627 2.96379E+01
 -1      2628 2.96157E+01
 -1      2629 3.12372E+01
 -1      2630 2.86030E+01
 -1      2631 8.92950E+00
 -1      2632 9.18137E+00
 -1      2633 8.51493E+00
 -1      2634 8.85322E+00
 -1      2635 4.66613E+00
 -1      2636 3.01893E+00
 -1      2637 5.17659E+00
 -1      2638 1.91651E+01
 -1      2639 2.60289E+01
 -1      2640 1.24795E+01
 -1      2641 1.93433E+01
 -1      2642 2.34618E+01
 -1      2643 1.77934E+01
 -1      2644 1.09296E+01
 -1      2645 2.19119E+01
 -1      2646 2.64327E+01
 -1      2647 3.00639E+01
 -1      2648 2.64257E+01
 -1      2649 3.00569E+01
 -1      2650 3.01278E+01
 -1      2651 3.00572E+01
 -1      2652 2.61432E+01
 -1      2653 3.00438E+01
 -1      2654 2.61299E+01
 -1      2655 3.01341E+01
 -1      2656 1.62900E+01
 -1      2657 1.68116E+01
 -1      2658 1.52262E+01
 -1      2659 2.25732E+01
 -1      2660 1.13003E+01
 -1      2661 1.89523E+01
 -1      2662 2.14739E+01
 -1      2663 1.02010E+01
 -1      2664 1.38219E+01
 -1      2665 2.61328E+01
 -1      2666 3.00468E+01
 -1      2667 3.01370E+01
 -1      2668 2.42946E+01
 -1      2669 1.55433E+01
 -1      2670 2.98531E+01
 -1      2671 2.16784E+01
 -1      2672 2.98531E+01
 -1      2673 2.16784E+01
 -1      2674 2.98478E+01
 -1      2675 3.01348E+01
 -1      2676 3.01278E+01
 -1      2677 3.01278E+01
 -1      2678 1.66426E+01
 -1      2679 3.01237E+01
 -1      2680 2.08962E+01
 -1      2681 2.08412E+01
 -1      2682 1.37075E+01
 -1      2683 1.36524E+01
 -1      2684 2.29587E+01
 -1      2685 1.91231E+01
 -1      2686 2.63046E+01
 -1      2687 1.19344E+01
 -1      2688 1.91159E+01
 -1      2689 2.07622E+01
 -1      2690 2.08307E+01
 -1      2691 1.41451E+01
 -1      2692 1.40765E+01
 -1      2693 1.06884E+01
 -1      2694 1.20296E+01
 -1      2695 7.51300E+00
 -1      2696 1.17808E+01
 -1      2697 6.17172E+00
 -1      2698 1.61062E+01
 -1      2699 1.19329E+01
 -1      2700 1.58460E+01
 -1      2701 1.16726E+01
 -1      2702 1.60372E+01
 -1      2703 6.90281E+00
 -1      2704 1.18356E+01
 -1      2705 1.17390E+01
 -1      2706 7.31895E+00
 -1      2707 7.22237E+00
 -1      2708 6.57467E+00
 -1      2709 1.62975E+01
 -1      2710 1.72680E+01
 -1      2711 1.70077E+01
 -1      2712 1.60372E+01
 -1      2713 2.86993E+01
 -1      2714 2.85762E+01
 -1      2715 2.98739E+01
 -1      2716 2.85762E+01
 -1      2717 2.99970E+01
 -1      2718 1.86905E+01
 -1      2719 2.86993E+01
 -1      2720 1.99882E+01
 -1      2721 2.99970E+01
 -1      2722 1.92046E+01
 -1      2723 1.20222E+01
 -1      2724 2.29524E+01
 -1      2725 1.94171E+01
 -1      2726 2.09110E+01
 -1      2727 2.08861E+01
 -1      2728 1.37287E+01
 -1      2729 1.37037E+01
 -1      2730 3.01370E+01
 -1      2731 3.01341E+01
 -1      2732 3.01237E+01
 -1      2733 3.01208E+01
 -1      2734 1.57996E+01
 -1      2735 2.98478E+01
 -1      2736 2.98531E+01
 -1      2737 2.98478E+01
 -1      2738 2.98531E+01
 -1      2739 1.99684E+01
 -1      2740 1.98195E+01
 -1      2741 1.18384E+01
 -1      2742 1.16896E+01
 -1      2743 2.17178E+01
 -1      2744 1.81952E+01
 -1      2745 2.17646E+01
 -1      2746 1.36346E+01
 -1      2747 1.00652E+01
 -1      2748 3.00138E+01
 -1      2749 2.56552E+01
 -1      2750 2.99305E+01
 -1      2751 2.55719E+01
 -1      2752 3.00641E+01
 -1      2753 2.07213E+01
 -1      2754 2.06298E+01
 -1      2755 1.38715E+01
 -1      2756 1.37800E+01
 -1      2757 2.33754E+01
 -1      2758 1.89094E+01
 -1      2759 2.47322E+01
 -1      2760 1.20596E+01
 -1      2761 1.78824E+01
 -1      2762 3.01474E+01
 -1      2763 3.01474E+01
 -1      2764 3.00641E+01
 -1      2765 3.00641E+01
 -1      2766 3.02020E+01
 -1      2767 3.02020E+01
 -1      2768 3.01788E+01
 -1      2769 3.01788E+01
 -1      2770 3.02020E+01
 -1      2771 2.22272E+01
 -1      2772 2.98622E+01
 -1      2773 2.97320E+01
 -1      2774 2.99779E+01
 -1      2775 2.20971E+01
 -1      2776 1.64656E+01
 -1      2777 3.02252E+01
 -1      2778 3.02252E+01
 -1      2779 3.00510E+01
 -1      2780 3.00510E+01
 -1      2781 3.00510E+01
 -1      2782 2.99592E+01
 -1      2783 2.41246E+01
 -1      2784 2.39504E+01
 -1      2785 2.97850E+01
 -1      2786 3.00639E+01
 -1      2787 2.64327E+01
 -1      2788 3.01348E+01
 -1      2789 2.05181E+01
 -1      2790 2.06141E+01
 -1      2791 1.28661E+01
 -1      2792 1.29620E+01
 -1      2793 2.01699E+01
 -1      2794 2.02248E+01
 -1      2795 1.19097E+01
 -1      2796 1.19647E+01
 -1      2797 2.18480E+01
 -1      2798 1.32862E+01
 -1      2799 1.29624E+01
 -1      2800 2.99244E+01
 -1      2801 2.99358E+01
 -1      2802 3.00024E+01
 -1      2803 3.00174E+01
 -1      2804 2.99910E+01
 -1      2805 3.01237E+01
 -1      2806 3.01267E+01
 -1      2807 3.00138E+01
 -1      2808 3.01474E+01
 -1      2809 2.56552E+01
 -1      2810 5.48812E+00
 -1      2811 6.15902E+00
 -1      2812 5.33703E+00
 -1      2813 7.23997E+00
 -1      2814 1.25425E+01
 -1      2815 2.17937E+01
 -1      2816 1.24874E+01
 -1      2817 1.07693E+01
 -1      2818 1.79509E+01
 -1      2819 1.25266E+01
 -1      2820 1.25952E+01
 -1      2821 7.89415E+00
 -1      2822 6.55287E+00
 -1      2823 1.21620E+01
 -1      2824 1.41803E+01
 -1      2825 1.83537E+01
 -1      2826 1.85449E+01
 -1      2827 7.60352E+00
 -1      2828 7.70010E+00
 -1      2829 1.85449E+01
 -1      2830 1.95154E+01
 -1      2831 3.01474E+01
 -1      2832 3.01474E+01
 -1      2833 3.02252E+01
 -1      2834 3.02252E+01
 -1      2835 3.02252E+01
 -1      2836 2.41246E+01
 -1      2837 2.99592E+01
 -1      2838 1.18628E+01
 -1      2839 1.17668E+01
 -1      2840 2.16838E+01
 -1      2841 2.98585E+01
 -1      2842 2.98531E+01
 -1      2843 1.18311E+01
 -1      2844 2.13350E+01
 -1      2845 1.17396E+01
 -1      2846 3.01469E+01
 -1      2847 3.01469E+01
 -1      2848 3.01700E+01
 -1      2849 1.58420E+01
 -1      2850 1.00192E+01
 -1      2851 6.01447E+00
 -1      2852 5.59990E+00
 -1      2853 3.01348E+01
 -1      2854 3.01348E+01
 -1      2855 2.98622E+01
 -1      2856 2.22272E+01
 -1      2857 3.01081E+01
 -1      2858 2.99471E+01
 -1      2859 1.99382E+01
 -1      2860 2.85262E+01
 -1      2861 2.98531E+01
 -1      2862 2.98585E+01
 -1      2863 2.98239E+01
 -1      2864 2.99471E+01
 -1      2865 6.42751E+00
 -1      2866 6.42751E+00
 -1      2867 7.09841E+00
 -1      2868 7.09841E+00
 -1      2869 3.01081E+01
 -1      2870 3.01081E+01
 -1      2871 2.99779E+01
 -1      2872 2.99779E+01
 -1      2873 3.00257E+01
 -1      2874 2.46662E+01
 -1      2875 3.00025E+01
 -1      2876 2.46431E+01
 -1      2877 2.76122E+01
 -1      2878 2.98187E+01
 -1      2879 2.76788E+01
 -1      2880 2.98854E+01
 -1      2881 1.46049E+01
 -1      2882 7.64531E+00
 -1      2883 1.82846E+01
 -1      2884 1.29402E+01
 -1      2885 1.22267E+01
 -1      2886 1.21717E+01
 -1      2887 2.21099E+01
 -1      2888 1.24720E+01
 -1      2889 3.00641E+01
 -1      2890 2.25644E+01
 -1      2891 1.85511E+01
 -1      2892 1.43043E+01
 -1      2893 1.02910E+01
 -1      2894 3.00510E+01
 -1      2895 4.27365E+00
 -1      2896 3.43843E+00
 -1      2897 3.77155E+00
 -1      2898 3.39853E+00
 -1      2899 1.44853E+01
 -1      2900 2.99107E+00
 -1      2901 3.08416E+00
 -1      2902 3.01278E+01
 -1      2903 3.01469E+01
 -1      2904 1.38498E+01
 -1      2905 2.99779E+01
 -1      2906 2.46111E+01
 -1      2907 2.99705E+01
 -1      2908 3.01081E+01
 -1      2909 3.01081E+01
 -1      2910 2.98531E+01
 -1      2911 1.13759E+01
 -1      2912 1.15247E+01
 -1      2913 2.14041E+01
 -1      2914 2.98239E+01
 -1      2915 1.33209E+01
 -1      2916 9.75157E+00
 -1      2917 1.24653E+01
 -1      2918 1.98603E+01
 -1      2919 2.33955E+01
 -1      2920 1.05529E+01
 -1      2921 1.45663E+01
 -1      2922 1.41468E+01
 -1      2923 1.41718E+01
 -1      2924 2.98980E+01
 -1      2925 2.99244E+01
 -1      2926 2.99094E+01
 -1      2927 2.49936E+01
 -1      2928 2.52327E+01
 -1      2929 1.89822E+01
 -1      2930 2.47349E+01
 -1      2931 1.87431E+01
 -1      2932 2.91284E+01
 -1      2933 3.97784E+00
 -1      2934 4.79983E+00
 -1      2935 5.88077E+00
 -1      2936 3.15151E+01
 -1      2937 2.97923E+01
 -1      2938 2.75858E+01
 -1      2939 1.32742E+01
 -1      2940 5.73922E+00
 -1      2941 5.73922E+00
 -1      2942 2.25346E+00
 -1      2943 2.23913E+00
 -1      2944 2.22431E+00
 -1      2945 1.62131E+01
 -1      2946 1.17989E+00
 -1      2947 2.70871E+00
 -1      2948 1.19422E+00
 -1      2949 2.99910E+01
 -1      2950 6.55167E+00
 -1      2951 8.35089E+00
 -1      2952 7.74137E+00
 -1      2953 8.53979E+00
 -1      2954 1.04853E+01
 -1      2955 9.87576E+00
 -1      2956 9.68687E+00
 -1      2957 2.96280E+01
 -1      2958 2.96741E+01
 -1      2959 2.97261E+01
 -1      2960 2.97261E+01
 -1      2961 2.96800E+01
 -1      2962 8.34621E+00
 -1      2963 7.73668E+00
 -1      2964 7.73668E+00
 -1      2965 7.93026E+00
 -1      2966 3.52130E+00
 -1      2967 2.74442E+00
 -1      2968 2.83751E+00
 -1      2969 1.97366E+01
 -1      2970 2.26487E+01
 -1      2971 1.63674E+01
 -1      2972 2.57961E+01
 -1      2973 3.23175E+01
 -1      2974 1.56966E+00
 -1      2975 1.54051E+00
 -1      2976 3.07075E+01
 -1      2977 3.04297E+01
 -1      2978 3.15099E+01
 -1      2979 2.28154E+01
 -1      2980 2.03779E+01
 -1      2981 2.75133E+01
 -1      2982 2.21314E+01
 -1      2983 1.96939E+01
 -1      2984 1.49961E+01
 -1      2985 9.73726E+00
 -1      2986 1.84002E+01
 -1      2987 1.86156E+01
 -1      2988 1.04763E+01
 -1      2989 1.91393E+01
 -1      2990 1.02609E+01
 -1      2991 4.40563E+00
 -1      2992 4.40204E+00
 -1      2993 4.03261E+00
 -1      2994 1.81655E+01
 -1      2995 9.28722E+00
 -1      2996 1.00263E+01
 -1      2997 2.55373E+01
 -1      2998 1.03331E+01
 -1      2999 2.04415E+01
 -1      3000 1.97394E+01
 -1      3001 1.01928E+01
 -1      3002 2.03012E+01
 -1      3003 1.08949E+01
 -1      3004 1.40722E+01
 -1      3005 2.31357E+01
 -1      3006 2.08873E+01
 -1      3007 1.43109E+01
 -1      3008 2.33744E+01
 -1      3009 1.65593E+01
 -1      3010 1.18952E+01
 -1      3011 2.13015E+01
 -1      3012 1.17549E+01
 -1      3013 7.82546E+00
 -1      3014 8.56453E+00
 -1      3015 7.82546E+00
 -1      3016 8.56453E+00
 -1      3017 2.10501E+01
 -1      3018 2.78652E+01
 -1      3019 2.12889E+01
 -1      3020 6.56906E+00
 -1      3021 7.23997E+00
 -1      3022 3.01201E+01
 -1      3023 2.98585E+01
 -1      3024 5.84749E+00
 -1      3025 1.20618E+01
 -1      3026 1.13778E+01
 -1      3027 2.85988E+01
 -1      3028 2.98465E+01
 -1      3029 3.00639E+01
 -1      3030 2.98129E+01
 -1      3031 2.98183E+01
 -1      3032 1.91803E+01
 -1      3033 2.28824E+01
 -1      3034 2.28824E+01
 -1      3035 2.02492E+00
 -1      3036 1.01025E+01
 -1      3037 1.86905E+01
 -1      3038 1.99382E+01
 -1      3039 2.13068E+01
 -1      3040 2.14742E+01
 -1      3041 1.30306E+01
 -1      3042 2.99508E+01
 -1      3043 3.00174E+01
 -1      3044 2.69530E+01
 -1      3045 1.97006E+01
 -1      3046 3.01189E+01
 -1      3047 3.01189E+01
 -1      3048 1.37155E+01
 -1      3049 2.08508E+01
 -1      3050 1.30315E+01
 -1      3051 2.03599E+01
 -1      3052 1.05242E+01
 -1      3053 8.16697E+00
 -1      3054 8.75987E+00
 -1      3055 8.61963E+00
 -1      3056 2.75799E+01
 -1      3057 2.84623E+01
 -1      3058 2.80085E+01
 -1      3059 3.00756E+01
 -1      3060 2.80359E+01
 -1      3061 2.84897E+01
 -1      3062 1.33137E+01
 -1      3063 1.29899E+01
 -1      3064 1.56407E+01
 -1      3065 8.75987E+00
 -1      3066 8.61963E+00
 -1      3067 9.98087E+00
 -1      3068 1.52345E+01
 -1      3069 1.18780E+01
 -1      3070 1.21167E+01
 -1      3071 2.71322E+01
 -1      3072 2.03930E+01
 -1      3073 1.42744E+01
 -1      3074 1.36337E+01
 -1      3075 1.61431E+01
 -1      3076 1.16279E+01
 -1      3077 2.63046E+01
 -1      3078 6.28960E+00
 -1      3079 9.18137E+00
 -1      3080 6.54146E+00
 -1      3081 1.26963E+01
 -1      3082 1.18213E+01
 -1      3083 1.34358E+01
 -1      3084 1.25607E+01
 -1      3085 1.25607E+01
 -1      3086 8.86452E+00
 -1      3087 8.76382E+00
 -1      3088 6.12392E+00
 -1      3089 6.22462E+00
 -1      3090 9.25440E+00
 -1      3091 9.59269E+00
 -1      3092 1.31508E+01
 -1      3093 1.32831E+01
 -1      3094 1.74186E+01
 -1      3095 7.56825E+00
 -1      3096 1.41803E+01
 -1      3097 1.19329E+01
 -1      3098 7.47100E+00
 -1      3099 7.79735E+00
 -1      3100 1.74186E+01
 -1      3101 1.96661E+01
 -1      3102 3.01370E+01
 -1      3103 1.73014E+01
 -1      3104 1.24084E+01
 -1      3105 1.04218E+01
 -1      3106 1.21319E+01
 -1      3107 3.02020E+01
 -1      3108 2.47322E+01
 -1      3109 1.08205E+01
 -1      3110 1.08205E+01
 -1      3111 1.15600E+01
 -1      3112 8.86452E+00
 -1      3113 5.97275E+00
 -1      3114 6.22462E+00
 -1      3115 5.90777E+00
 -1      3116 7.51415E+00
 -1      3117 3.00535E+01
 -1      3118 2.84676E+01
 -1      3119 3.00809E+01
 -1      3120 3.01700E+01
 -1      3121 1.26607E+01
 -1      3122 1.79077E+01
 -1      3123 2.77486E+01
 -1      3124 2.11722E+01
 -1      3125 1.19700E+01
 -1      3126 2.42394E+01
 -1      3127 1.20921E+01
 -1      3128 1.15790E+01
 -1      3129 2.60185E+01
 -1      3130 3.01370E+01
 -1      3131 2.33900E+01
 -1      3132 2.39116E+01
 -1      3133 2.27132E+01
 -1      3134 9.31400E+00
 -1      3135 1.12957E+01
 -1      3136 1.35327E+01
 -1      3137 2.14136E+01
 -1      3138 2.14136E+01
 -1      3139 1.70768E+01
 -1      3140 6.12993E+00
 -1      3141 9.81685E+00
 -1      3142 1.97929E+01
 -1      3143 2.23595E+01
 -1      3144 2.99031E+01
 -1      3145 2.19050E+01
 -1      3146 3.00138E+01
 -1      3147 1.59149E+01
 -1      3148 1.15303E+01
 -1      3149 1.34154E+01
 -1      3150 2.99031E+01
 -1      3151 2.99031E+01
 -1      3152 2.80889E+01
 -1      3153 2.75566E+01
 -1      3154 2.80889E+01
 -1      3155 2.75566E+01
 -1      3156 3.25902E+01
 -1      3157 9.84838E+00
 -1      3158 3.00025E+01
 -1      3159 1.16197E+01
 -1      3160 1.09357E+01
 -1      3161 3.00438E+01
 -1      3162 8.42549E+00
 -1      3163 8.23660E+00
 -1      3164 1.03710E+01
 -1      3165 9.03502E+00
 -1      3166 2.99890E+01
 -1      3167 2.98367E+01
 -1      3168 2.98367E+01
 -1      3169 2.98835E+01
 -1      3170 2.97312E+01
 -1      3171 2.98835E+01
 -1      3172 1.23827E+01
 -1      3173 1.26215E+01
 -1      3174 8.61287E+00
 -1      3175 2.98622E+01
 -1      3176 1.41803E+01
 -1      3177 7.56825E+00
 -1      3178 8.02645E+00
 -1      3179 1.32831E+01
 -1      3180 2.08199E+01
 -1      3181 1.96937E+01
 -1      3182 6.62624E+00
 -1      3183 6.39713E+00
 -1      3184 2.99592E+01
 -1      3185 2.29087E+01
 -1      3186 1.42141E+01
 -1      3187 1.51068E+01
 -1      3188 2.29000E+01
 -1      3189 5.66104E+00
 -1      3190 5.80259E+00
 -1      3191 7.10811E+00
 -1      3192 7.24966E+00
 -1      3193 6.48319E+00
 -1      3194 9.34117E+00
 -1      3195 1.04898E+01
 -1      3196 9.79345E+00
 -1      3197 1.30679E+01
 -1      3198 2.98215E+01
 -1      3199 2.96165E+01
 -1      3200 2.37240E+01
 -1      3201 2.57912E+01
 -1      3202 2.24435E+00
 -1      3203 2.68149E+00
 -1      3204 1.47406E+01
 -1      3205 2.10219E+01
 -1      3206 1.26853E+01
 -1      3207 8.83588E-01
 -1      3208 8.71158E-01
 -1      3209 1.91873E+00
 -1      3210 1.90630E+00
 -1      3211 2.07376E+00
 -1      3212 3.00714E+01
 -1      3213 2.84803E+01
 -1      3214 3.00935E+01
 -1      3215 2.10344E+01
 -1      3216 1.47839E+01
 -1      3217 1.47714E+01
 -1      3218 8.01059E-01
 -1      3219 1.56446E+00
 -1      3220 1.71949E+00
 -1      3221 1.63696E+00
 -1      3222 1.47531E+01
 -1      3223 3.04585E+00
 -1      3224 3.28644E+00
 -1      3225 2.36206E+00
 -1      3226 2.60264E+00
 -1      3227 4.48022E+00
 -1      3228 4.48381E+00
 -1      3229 4.15069E+00
 -1      3230 1.91533E+01
 -1      3231 1.10140E+01
 -1      3232 2.29587E+01
 -1      3233 3.01341E+01
 -1      3234 2.91637E+01
 -1      3235 2.83612E+01
 -1      3236 2.80834E+01
 -1      3237 2.64673E+01
 -1      3238 2.21107E+01
 -1      3239 2.02169E+01
 -1      3240 7.24966E+00
 -1      3241 2.99540E+01
 -1      3242 2.86337E+01
 -1      3243 2.99314E+01
 -1      3244 2.98129E+01
 -1      3245 2.98129E+01
 -1      3246 2.97781E+01
 -1      3247 8.76382E+00
 -1      3248 8.86452E+00
 -1      3249 1.18213E+01
 -1      3250 1.18213E+01
 -1      3251 1.26963E+01
 -1      3252 2.17297E+01
 -1      3253 2.14394E+01
 -1      3254 2.05085E+01
 -1      3255 1.99708E+01
 -1      3256 3.70333E+00
 -1      3257 5.34657E+00
 -1      3258 9.57753E+00
 -1      3259 1.05513E+01
 -1      3260 5.58888E+00
 -1      3261 5.33279E+00
 -1      3262 4.10674E+00
 -1      3263 5.34301E+00
 -1      3264 4.36283E+00
 -1      3265 2.72698E+01
 -1      3266 1.07416E+01
 -1      3267 1.37991E+01
 -1      3268 1.37991E+01
 -1      3269 1.46741E+01
 -1      3270 3.00661E+01
 -1      3271 5.13917E+00
 -1      3272 6.58624E+00
 -1      3273 2.97923E+01
 -1      3274 2.79192E+01
 -1      3275 2.78026E+01
 -1      3276 3.00048E+01
 -1      3277 2.71163E+01
 -1      3278 2.99898E+01
 -1      3279 3.00048E+01
 -1      3280 3.01030E+01
 -1      3281 1.27047E+01
 -1      3282 1.36977E+01
 -1      3283 7.97968E+00
 -1      3284 1.06494E+01
 -1      3285 1.16424E+01
 -1      3286 1.98661E+00
 -1      3287 3.28644E+00
 -1      3288 2.56433E+00
 -1      3289 2.22719E+00
 -1      3290 2.24435E+00
 -1      3291 2.08834E+00
 -1      3292 2.68149E+00
 -1      3293 2.96042E+00
 -1      3294 3.96393E+00
 -1      3295 2.78162E+01
 -1      3296 3.20448E+01
 -1      3297 2.78162E+01
 -1      3298 3.23175E+01
 -1      3299 1.90961E+00
 -1      3300 1.86970E+00
 -1      3301 6.12905E+00
 -1      3302 1.89514E+01
 -1      3303 1.84535E+01
 -1      3304 3.01638E+01
 -1      3305 3.04416E+01
 -1      3306 3.09714E+01
 -1      3307 1.89478E+00
 -1      3308 1.06914E+01
 -1      3309 1.24317E+01
 -1      3310 4.95161E+00
 -1      3311 5.26846E+00
 -1      3312 4.95161E+00
 -1      3313 5.26846E+00
 -1      3314 9.66102E+00
 -1      3315 1.14013E+01
 -1      3316 2.75296E+01
 -1      3317 7.81480E-01
 -1      3318 8.69019E-01
 -1      3319 1.32427E+00
 -1      3320 1.19422E+00
 -1      3321 1.23673E+00
 -1      3322 3.04380E+01
 -1      3323 3.04380E+01
 -1      3324 2.82859E+01
 -1      3325 2.93578E+01
 -1      3326 2.93578E+01
 -1      3327 5.77352E+00
 -1      3328 5.09292E+00
 -1      3329 3.86686E+00
 -1      3330 6.02361E+00
 -1      3331 5.99154E+00
 -1      3332 4.08489E+00
 -1      3333 1.61828E+00
 -1      3334 2.33928E+00
 -1      3335 2.98484E+01
 -1      3336 2.85507E+01
 -1      3337 2.99060E+01
 -1      3338 2.96812E+01
 -1      3339 2.96812E+01
 -1      3340 2.96464E+01
 -1      3341 1.98878E+01
 -1      3342 2.15980E+01
 -1      3343 8.41683E+00
 -1      3344 7.96807E+00
 -1      3345 8.74656E+00
 -1      3346 8.47407E+00
 -1      3347 1.36155E+01
 -1      3348 1.33430E+01
 -1      3349 1.36155E+01
 -1      3350 2.57816E+00
 -1      3351 2.50949E+00
 -1      3352 3.58167E+00
 -1      3353 3.03520E+01
 -1      3354 2.34230E+01
 -1      3355 1.63701E+01
 -1      3356 2.55373E+01
 -1      3357 2.32991E+01
 -1      3358 1.36895E+01
 -1      3359 2.36530E+01
 -1      3360 1.74025E+01
 -1      3361 2.12201E+00
 -1      3362 2.10707E+00
 -1      3363 2.63820E+00
 -1      3364 2.62325E+00
 -1      3365 2.59272E+00
 -1      3366 2.10288E+01
 -1      3367 4.23356E+00
 -1      3368 2.07994E+01
 -1      3369 2.73343E+01
 -1      3370 2.35999E+01
 -1      3371 2.35745E+01
 -1      3372 3.01094E+01
 -1      3373 2.73090E+01
 -1      3374 4.32644E+00
 -1      3375 4.31737E+00
 -1      3376 4.68594E+00
 -1      3377 4.24013E+00
 -1      3378 4.88966E+00
 -1      3379 5.25823E+00
 -1      3380 5.33547E+00
 -1      3381 4.75295E+00
 -1      3382 6.32680E+00
 -1      3383 6.33702E+00
 -1      3384 7.29145E+00
 -1      3385 8.86529E+00
 -1      3386 7.28122E+00
 -1      3387 1.63725E+01
 -1      3388 2.01070E+01
 -1      3389 2.28821E+01
 -1      3390 2.28754E+01
 -1      3391 9.81219E+00
 -1      3392 7.41621E+00
 -1      3393 1.29020E+01
 -1      3394 1.16726E+01
 -1      3395 1.71584E+01
 -1      3396 1.99882E+01
 -1      3397 2.28736E+01
 -1      3398 2.96823E+01
 -1      3399 2.31041E+01
 -1      3400 2.50009E+01
 -1      3401 1.62954E+01
 -1      3402 4.93138E+00
 -1      3403 5.37720E+00
 -1      3404 5.94949E+00
 -1      3405 5.36697E+00
 -1      3406 7.90546E+00
 -1      3407 2.12834E+01
 -1      3408 2.21050E+01
 -1      3409 5.11429E+00
 -1      3410 1.57000E+01
 -1      3411 1.34214E+01
 -1      3412 1.14436E+01
 -1      3413 1.37754E+01
 -1      3414 1.17976E+01
 -1      3415 3.01902E+01
 -1      3416 3.01752E+01
 -1      3417 3.02442E+01
 -1      3418 2.97730E+01
 -1      3419 1.84521E+00
 -1      3420 1.87937E+00
 -1      3421 2.11034E+00
 -1      3422 2.14451E+00
 -1      3423 2.13523E+00
 -1      3424 1.16899E+01
 -1      3425 1.23823E+01
 -1      3426 1.22488E+01
 -1      3427 1.69315E+01
 -1      3428 1.62391E+01
 -1      3429 1.31534E+01
 -1      3430 2.16430E+01
 -1      3431 2.22228E+01
 -1      3432 1.51503E+01
 -1      3433 3.01638E+01
 -1      3434 2.81047E+01
 -1      3435 2.08028E+01
 -1      3436 2.04046E+01
 -1      3437 1.14334E+01
 -1      3438 2.08451E+01
 -1      3439 2.04468E+01
 -1      3440 2.98162E+01
 -1      3441 1.68606E+01
 -1      3442 1.21779E+01
 -1      3443 1.67271E+01
 -1      3444 1.88403E+00
 -1      3445 2.01409E+00
 -1      3446 1.40870E+01
 -1      3447 1.62013E+01
 -1      3448 2.35961E+01
 -1      3449 2.08199E+01
 -1      3450 2.36238E+01
 -1      3451 2.77038E+01
 -1      3452 2.49276E+01
 -1      3453 2.49000E+01
 -1      3454 9.33710E+00
 -1      3455 1.49537E+01
 -1      3456 1.51757E+01
 -1      3457 1.92833E+01
 -1      3458 1.90614E+01
 -1      3459 3.68558E+00
 -1      3460 3.69580E+00
 -1      3461 2.96792E+01
 -1      3462 2.10188E+01
 -1      3463 2.96332E+01
 -1      3464 2.11608E+01
 -1      3465 1.53121E+01
 -1      3466 2.40281E+01
 -1      3467 2.27725E+01
 -1      3468 1.69238E+01
 -1      3469 1.40565E+01
 -1      3470 2.99640E+01
 -1      3471 2.99958E+01
 -1      3472 2.98450E+01
 -1      3473 2.98131E+01
 -1      3474 2.98450E+01
 -1      3475 2.99640E+01
 -1      3476 2.25180E+01
 -1      3477 2.40624E+01
 -1      3478 2.23671E+01
 -1      3479 2.30810E+00
 -1      3480 2.41257E+00
 -1      3481 2.30048E+00
 -1      3482 2.91701E+00
 -1      3483 2.19601E+00
 -1      3484 2.87883E+01
 -1      3485 2.60593E+01
 -1      3486 2.69089E+01
 -1      3487 2.92978E+01
 -1      3488 4.57653E+00
 -1      3489 7.92056E+00
 -1      3490 1.08205E+01
 -1      3491 8.86452E+00
 -1      3492 1.35846E+01
 -1      3493 1.33121E+01
 -1      3494 2.80492E+00
 -1      3495 2.98183E+01
 -1      3496 2.98815E+01
 -1      3497 1.17020E+01
 -1      3498 1.36830E+01
 -1      3499 1.52947E+01
 -1      3500 1.08717E+01
 -1      3501 1.04735E+01
 -1      3502 1.98429E+01
 -1      3503 4.60870E+00
 -1      3504 5.58888E+00
 -1      3505 4.36283E+00
 -1      3506 2.04945E+01
 -1      3507 3.03520E+01
 -1      3508 3.25902E+01
 -1      3509 6.48457E+00
 -1      3510 3.78816E+00
 -1      3511 4.25556E+00
 -1      3512 4.14131E+00
 -1      3513 4.79084E+00
 -1      3514 4.90509E+00
 -1      3515 8.71572E+00
 -1      3516 8.81342E+00
 -1      3517 7.81317E+00
 -1      3518 8.76760E+00
 -1      3519 9.76785E+00
 -1      3520 3.90241E+00
 -1      3521 4.25556E+00
 -1      3522 8.61582E+00
 -1      3523 7.71327E+00
 -1      3524 7.71327E+00
 -1      3525 7.91087E+00
 -1      3526 3.90241E+00
 -1      3527 4.25556E+00
 -1      3528 2.13693E+01
 -1      3529 2.34284E+01
 -1      3530 2.97253E+01
 -1      3531 2.96438E+01
 -1      3532 2.97253E+01
 -1      3533 2.96438E+01
 -1      3534 2.97740E+01
 -1      3535 1.37927E+01
 -1      3536 1.29264E+01
 -1      3537 8.23477E+00
 -1      3538 1.27108E+01
 -1      3539 1.18445E+01
 -1      3540 3.01189E+01
 -1      3541 2.55282E+00
 -1      3542 2.59830E+00
 -1      3543 9.55906E+00
 -1      3544 1.92833E+01
 -1      3545 9.33710E+00
 -1      3546 2.77164E+01
 -1      3547 2.49402E+01
 -1      3548 2.90202E+01
 -1      3549 2.33796E+01
 -1      3550 8.00138E+00
 -1      3551 1.76906E+00
 -1      3552 1.75978E+00
 -1      3553 2.48156E+01
 -1      3554 2.81547E+01
 -1      3555 2.86771E+01
 -1      3556 2.95617E+01
 -1      3557 2.62226E+01
 -1      3558 1.51080E+01
 -1      3559 3.00714E+01
 -1      3560 1.47232E+01
 -1      3561 2.18986E+01
 -1      3562 1.96724E+01
 -1      3563 1.11592E+01
 -1      3564 6.90281E+00
 -1      3565 1.02822E+01
 -1      3566 1.45386E+01
 -1      3567 2.98484E+01
 -1      3568 2.03012E+01
 -1      3569 2.96812E+01
 -1      3570 1.21713E+01
 -1      3571 2.15512E+01
 -1      3572 2.17104E+01
 -1      3573 3.00538E+01
 -1      3574 2.33754E+01
 -1      3575 1.46241E+01
 -1      3576 3.02020E+01
 -1      3577 2.34514E+01
 -1      3578 2.98131E+01
 -1      3579 2.98450E+01
 -1      3580 2.98131E+01
 -1      3581 2.39962E+01
 -1      3582 2.27407E+01
 -1      3583 2.14507E+01
 -1      3584 1.39116E+01
 -1      3585 1.60389E+01
 -1      3586 2.75601E+00
 -1      3587 2.42217E+00
 -1      3588 3.01533E+00
 -1      3589 3.01533E+00
 -1      3590 1.93636E+01
 -1      3591 9.41736E+00
 -1      3592 9.63932E+00
 -1      3593 1.14199E+01
 -1      3594 1.88865E+00
 -1      3595 1.76906E+00
 -1      3596 3.03978E+00
 -1      3597 8.89019E-01
 -1      3598 1.90403E+00
 -1      3599 2.35745E+01
 -1      3600 3.01094E+01
 -1      3601 3.00841E+01
 -1      3602 7.94010E+00
 -1      3603 4.68594E+00
 -1      3604 2.28821E+01
 -1      3605 9.53114E+00
 -1      3606 1.14362E+01
 -1      3607 8.00681E+00
 -1      3608 8.55089E+00
 -1      3609 1.04559E+01
 -1      3610 1.19803E+01
 -1      3611 6.84195E+00
 -1      3612 8.41580E+00
 -1      3613 9.37022E+00
 -1      3614 6.76471E+00
 -1      3615 7.41425E+00
 -1      3616 2.34410E+01
 -1      3617 1.52836E+01
 -1      3618 1.93762E+01
 -1      3619 6.09193E+00
 -1      3620 5.93698E+00
 -1      3621 9.58603E+00
 -1      3622 9.31147E+00
 -1      3623 9.46642E+00
 -1      3624 2.27450E+01
 -1      3625 2.27132E+01
 -1      3626 8.20159E+00
 -1      3627 1.33121E+01
 -1      3628 7.66396E+00
 -1      3629 7.70907E+00
 -1      3630 1.18619E+01
 -1      3631 1.25034E+01
 -1      3632 1.24583E+01
 -1      3633 7.45597E+00
 -1      3634 2.33701E+01
 -1      3635 1.52559E+01
 -1      3636 2.16750E+00
 -1      3637 2.59830E+00
 -1      3638 2.28640E+01
 -1      3639 1.19978E+01
 -1      3640 1.40290E+01
 -1      3641 7.79183E+00
 -1      3642 1.19446E+01
 -1      3643 1.25743E+01
 -1      3644 1.20155E+01
 -1      3645 2.97292E+01
 -1      3646 2.03598E+01
 -1      3647 2.97714E+01
 -1      3648 7.78042E+00
 -1      3649 1.14431E+01
 -1      3650 3.20448E+01
 -1      3651 5.09934E+00
 -1      3652 4.99628E+00
 -1      3653 6.44336E+00
 -1      3654 5.80012E+00
 -1      3655 9.44916E+00
 -1      3656 8.33121E+00
 -1      3657 8.46891E+00
 -1      3658 4.29689E+00
 -1      3659 3.22524E+00
 -1      3660 5.03558E+00
 -1      3661 4.29742E+00
 -1      3662 1.53163E+01
 -1      3663 3.18119E+01
 -1      3664 2.99152E+01
 -1      3665 8.56847E+00
 -1      3666 2.33751E+01
 -1      3667 3.41608E+00
 -1      3668 3.92051E+00
 -1      3669 7.53961E+00
 -1      3670 1.04086E+01
 -1      3671 2.76031E+01
 -1      3672 2.86750E+01
 -1      3673 1.97981E+01
 -1      3674 2.98315E+01
 -1      3675 2.11710E+01
 -1      3676 2.10656E+01
 -1      3677 2.69203E+01
 -1      3678 2.86750E+01
 -1      3679 4.34299E+00
 -1      3680 4.14057E+00
 -1      3681 4.35067E+00
 -1      3682 4.55309E+00
 -1      3683 4.55309E+00
 -1      3684 3.55421E+00
 -1      3685 3.96673E+00
 -1      3686 5.16710E+00
 -1      3687 5.16710E+00
 -1      3688 2.97292E+01
 -1      3689 2.98815E+01
 -1      3690 8.92072E+00
 -1      3691 1.03710E+01
 -1      3692 7.02636E+00
 -1      3693 8.47663E+00
 -1      3694 2.74529E+01
 -1      3695 2.74402E+01
 -1      3696 3.00841E+01
 -1      3697 3.00714E+01
 -1      3698 3.03374E+00
 -1      3699 3.03374E+00
 -1      3700 2.95858E+00
 -1      3701 4.07553E+00
 -1      3702 4.07553E+00
 -1      3703 7.99571E+00
 -1      3704 1.27279E+01
 -1      3705 1.23328E+01
 -1      3706 1.16404E+01
 -1      3707 1.20354E+01
 -1      3708 7.90220E+00
 -1      3709 1.22393E+01
 -1      3710 7.85986E+00
 -1      3711 1.26855E+01
 -1      3712 9.93887E+00
 -1      3713 1.19802E+01
 -1      3714 7.86230E+00
 -1      3715 1.16521E+01
 -1      3716 1.34214E+01
 -1      3717 1.57769E+01
 -1      3718 1.39648E+01
 -1      3719 1.39648E+01
 -1      3720 4.69857E+00
 -1      3721 6.19865E+00
 -1      3722 1.58460E+01
 -1      3723 5.13314E+00
 -1      3724 6.19865E+00
 -1      3725 6.15686E+00
 -1      3726 6.08533E+00
 -1      3727 7.78174E+00
 -1      3728 6.01140E+00
 -1      3729 7.75153E+00
 -1      3730 3.01117E+01
 -1      3731 2.99886E+01
 -1      3732 2.97904E+01
 -1      3733 2.96757E+01
 -1      3734 7.81649E+00
 -1      3735 7.58778E+00
 -1      3736 9.39447E+00
 -1      3737 1.21401E+01
 -1      3738 1.19733E+01
 -1      3739 6.64170E+00
 -1      3740 1.01643E+01
 -1      3741 6.69948E+00
 -1      3742 1.01230E+01
 -1      3743 2.97695E+01
 -1      3744 2.97641E+01
 -1      3745 2.98011E+01
 -1      3746 2.98514E+01
 -1      3747 2.97220E+01
 -1      3748 2.98514E+01
 -1      3749 2.96804E+01
 -1      3750 2.97641E+01
 -1      3751 2.98085E+01
 -1      3752 2.98855E+01
 -1      3753 2.96742E+01
 -1      3754 2.99095E+01
 -1      3755 2.99165E+01
 -1      3756 2.98942E+01
 -1      3757 6.86743E+00
 -1      3758 2.98100E+01
 -1      3759 2.99863E+01
 -1      3760 7.75981E+00
 -1      3761 9.78820E+00
 -1      3762 1.24193E+01
 -1      3763 1.21167E+01
 -1      3764 2.96318E+01
 -1      3765 2.95703E+01
 -1      3766 2.97235E+01
 -1      3767 2.97235E+01
 -1      3768 2.97938E+01
 -1      3769 2.99863E+01
 -1      3770 9.03321E+00
 -1      3771 1.11815E+01
 -1      3772 7.40972E+00
 -1      3773 1.10306E+01
 -1      3774 2.13224E+01
 -1      3775 2.03422E+01
 -1      3776 7.29097E+00
 -1      3777 2.20430E+01
 -1      3778 2.20430E+01
 -1      3779 2.32937E+01
 -1      3780 2.61507E+01
 -1      3781 2.61507E+01
 -1      3782 8.77516E+00
 -1      3783 1.07791E+01
 -1      3784 2.76194E+00
 -1      3785 7.03629E+00
 -1      3786 1.08896E+01
 -1      3787 8.00266E+00
 -1      3788 1.24787E+01
 -1      3789 3.06697E+01
 -1      3790 3.06697E+01
 -1      3791 2.92945E+01
 -1      3792 2.95963E+01
 -1      3793 2.95963E+01
 -1      3794 9.96291E+00
 -1      3795 9.45390E+00
 -1      3796 6.97195E+00
 -1      3797 1.15746E+01
 -1      3798 1.10656E+01
 -1      3799 2.97080E+01
 -1      3800 2.97080E+01
 -1      3801 2.93011E+01
 -1      3802 2.95571E+01
 -1      3803 2.95571E+01
 -1      3804 4.99575E+00
 -1      3805 2.07021E+01
 -1      3806 2.20377E+01
 -1      3807 2.18922E+01
 -1      3808 1.95482E+01
 -1      3809 2.08839E+01
 -1      3810 1.96937E+01
 -1      3811 7.17650E+00
 -1      3812 7.17650E+00
 -1      3813 5.23786E+00
 -1      3814 6.40306E+00
 -1      3815 6.40306E+00
 -1      3816 8.34170E+00
 -1      3817 2.97676E+01
 -1      3818 2.97740E+01
 -1      3819 2.98162E+01
 -1      3820 2.98162E+01
 -1      3821 2.97676E+01
 -1      3822 7.96990E+00
 -1      3823 1.18118E+01
 -1      3824 2.98429E+01
 -1      3825 2.98429E+01
 -1      3826 2.99723E+01
 -1      3827 1.22908E+01
 -1      3828 1.24575E+01
 -1      3829 1.68431E+01
 -1      3830 8.41580E+00
 -1      3831 9.37022E+00
 -1      3832 4.87035E+00
 -1      3833 5.51988E+00
 -1      3834 2.95871E+01
 -1      3835 2.95617E+01
 -1      3836 3.01094E+01
 -1      3837 2.95871E+01
 -1      3838 3.00841E+01
 -1      3839 2.61507E+01
 -1      3840 2.78515E+01
 -1      3841 2.78515E+01
 -1      3842 2.90076E+01
 -1      3843 4.65450E+00
 -1      3844 4.94618E+00
 -1      3845 6.11137E+00
 -1      3846 6.11137E+00
 -1      3847 2.06005E+01
 -1      3848 1.82565E+01
 -1      3849 1.82565E+01
 -1      3850 1.85398E+01
 -1      3851 6.86722E+00
 -1      3852 6.88854E+00
 -1      3853 1.15915E+01
 -1      3854 1.24362E+01
 -1      3855 2.86498E+01
 -1      3856 2.52939E+01
 -1      3857 2.64869E+01
 -1      3858 2.87707E+01
 -1      3859 1.22645E+01
 -1      3860 1.25671E+01
 -1      3861 1.69240E+01
 -1      3862 2.98873E+01
 -1      3863 2.98873E+01
 -1      3864 3.00798E+01
 -1      3865 7.60685E+00
 -1      3866 1.24142E+01
 -1      3867 2.85531E+01
 -1      3868 2.86466E+01
 -1      3869 9.82244E+00
 -1      3870 9.93292E+00
 -1      3871 1.36757E+01
 -1      3872 6.25852E+00
 -1      3873 6.83510E+00
 -1      3874 9.73173E+00
 -1      3875 9.24586E+00
 -1      3876 6.91138E+00
 -1      3877 1.15690E+01
 -1      3878 2.95483E+01
 -1      3879 2.95483E+01
 -1      3880 2.95146E+01
 -1      3881 2.96064E+01
 -1      3882 2.96064E+01
 -1      3883 2.96401E+01
 -1      3884 6.66331E+00
 -1      3885 1.07569E+01
 -1      3886 2.07390E+01
 -1      3887 1.26568E+01
 -1      3888 1.16766E+01
 -1      3889 6.53673E+00
 -1      3890 1.14480E+01
 -1      3891 2.90555E+01
 -1      3892 2.93115E+01
 -1      3893 2.88086E+01
 -1      3894 2.91616E+01
 -1      3895 2.92534E+01
 -1      3896 2.92534E+01
 -1      3897 2.73123E+01
 -1      3898 2.86466E+01
 -1      3899 8.57080E+00
 -1      3900 7.17058E+00
 -1      3901 8.34170E+00
 -1      3902 2.08476E+01
 -1      3903 1.44370E+01
 -1      3904 1.44370E+01
 -1      3905 2.08099E+01
 -1      3906 6.19404E+00
 -1      3907 6.30543E+00
 -1      3908 8.70666E+00
 -1      3909 8.63394E+00
 -1      3910 8.59527E+00
 -1      3911 2.99060E+01
 -1      3912 2.99890E+01
 -1      3913 2.04181E+01
 -1      3914 1.63475E+01
 -1      3915 2.94269E+01
 -1      3916 2.95586E+01
 -1      3917 2.23702E+01
 -1      3918 1.51708E+01
 -1      3919 2.98332E+01
 -1      3920 2.99162E+01
 -1      3921 2.18469E+01
 -1      3922 2.28419E+01
 -1      3923 2.94269E+01
 -1      3924 2.95586E+01
 -1      3925 2.88099E+01
 -1      3926 2.93115E+01
 -1      3927 1.43721E+01
 -1      3928 1.07501E+01
 -1      3929 1.22965E+01
 -1      3930 1.04288E+01
 -1      3931 1.00072E+01
 -1      3932 2.98451E+01
 -1      3933 2.95584E+01
 -1      3934 2.90647E+01
 -1      3935 2.93664E+01
 -1      3936 3.92506E+00
 -1      3937 5.04201E+00
 -1      3938 2.88834E+01
 -1      3939 2.94149E+01
 -1      3940 2.93240E+01
 -1      3941 2.91385E+01
 -1      3942 4.83518E+00
 -1      3943 4.98565E+00
 -1      3944 1.23052E+01
 -1      3945 1.21574E+01
 -1      3946 1.69683E+01
 -1      3947 1.23496E+01
 -1      3948 1.71162E+01
 -1      3949 1.05327E+01
 -1      3950 3.99546E+00
 -1      3951 1.23252E+01
 -1      3952 1.67987E+01
 -1      3953 1.20521E+01
 -1      3954 1.23696E+01
 -1      3955 2.99619E+01
 -1      3956 3.00609E+01
 -1      3957 3.00713E+01
 -1      3958 2.99533E+01
 -1      3959 2.99723E+01
 -1      3960 2.56781E+01
 -1      3961 2.35707E+01
 -1      3962 1.92680E+01
 -1      3963 2.56696E+01
 -1      3964 2.35621E+01
 -1      3965 1.88852E+01
 -1      3966 1.85678E+01
 -1      3967 2.52868E+01
 -1      3968 2.32447E+01
 -1      3969 2.99808E+01
 -1      3970 2.99808E+01
 -1      3971 2.99808E+01
 -1      3972 2.99723E+01
 -1      3973 2.93240E+01
 -1      3974 2.91385E+01
 -1      3975 2.55334E+01
 -1      3976 2.36253E+01
 -1      3977 1.89799E+01
 -1      3978 2.54344E+01
 -1      3979 2.35263E+01
 -1      3980 2.97760E+01
 -1      3981 8.42549E+00
 -1      3982 6.53113E+00
 -1      3983 6.26948E+00
 -1      3984 1.93478E+01
 -1      3985 1.91999E+01
 -1      3986 2.58023E+01
 -1      3987 2.33785E+01
 -1      3988 5.53239E+00
 -1      3989 2.94149E+01
 -1      3990 3.41924E+00
 -1      3991 3.00935E+01
 -1      3992 7.83403E+00
 -1      3993 1.22134E+01
 -1      3994 7.77432E+00
 -1      3995 1.26258E+01
 -1      3996 5.30736E+00
 -1      3997 7.87275E+00
 -1      3998 3.03978E+00
 -1      3999 2.74624E+01
 -1      4000 5.55619E+00
 -1      4001 7.68412E+00
 -1      4002 7.78392E+00
 -1      4003 7.87924E+00
 -1      4004 7.77945E+00
 -1      4005 8.02205E+00
 -1      4006 2.35999E+01
 -1      4007 2.57624E+01
 -1      4008 9.69811E+00
 -1      4009 9.69811E+00
 -1      4010 9.67664E+00
 -1      4011 1.93548E+01
 -1      4012 1.93548E+01
 -1      4013 1.93762E+01
 -1      4014 1.79312E+00
 -1      4015 2.37084E+00
 -1      4016 1.27063E+01
 -1      4017 1.85725E+01
 -1      4018 1.85952E+01
 -1      4019 2.98451E+01
 -1      4020 2.23702E+01
 -1      4021 5.80588E+00
 -1      4022 8.03361E+00
 -1      4023 1.14960E+01
 -1      4024 1.19084E+01
 -1      4025 7.72719E+00
 -1      4026 7.74865E+00
 -1      4027 7.66840E+00
 -1      4028 9.63932E+00
 -1      4029 9.61785E+00
 -1      4030 6.08862E+00
 -1      4031 7.96685E+00
 -1      4032 4.33076E+00
 -1      4033 6.43136E+00
 -1      4034 7.87391E+00
 -1      4035 7.56853E+00
 -1      4036 9.41736E+00
 -1      4037 7.26631E+00
 -1      4038 7.48827E+00
 -1      4039 1.71059E+01
 -1      4040 1.69580E+01
 -1      4041 1.71502E+01
 -1      4042 2.35604E+01
 -1      4043 2.36594E+01
 -1      4044 2.35518E+01
 -1      4045 1.68328E+01
 -1      4046 2.35604E+01
 -1      4047 2.94408E+01
 -1      4048 2.92740E+01
 -1      4049 2.97071E+01
 -1      4050 2.94534E+01
 -1      4051 2.92866E+01
 -1      4052 2.96767E+01
 -1      4053 2.98315E+01
 -1      4054 1.65074E+01
 -1      4055 2.26251E+01
 -1      4056 2.34643E+01
 -1      4057 2.35798E+01
 -1      4058 2.96976E+01
 -1      4059 2.96976E+01
 -1      4060 2.96976E+01
 -1      4061 2.95820E+01
 -1      4062 2.96976E+01
 -1      4063 2.90394E+01
 -1      4064 9.67440E+00
 -1      4065 1.93311E+01
 -1      4066 1.52384E+01
 -1      4067 1.52836E+01
 -1      4068 1.97753E+01
 -1      4069 1.97753E+01
 -1      4070 8.07228E+00
 -1      4071 1.92833E+01
 -1      4072 1.92647E+01
 -1      4073 9.54047E+00
 -1      4074 9.55906E+00
 -1      4075 9.54047E+00
 -1      4076 7.39846E+00
 -1      4077 7.39846E+00
 -1      4078 6.92440E+00
 -1      4079 2.95681E+01
 -1      4080 2.92552E+01
 -1      4081 2.92552E+01
 -1      4082 3.68267E+00
 -1      4083 3.43680E+00
 -1      4084 3.54979E+00
 -1      4085 3.30392E+00
 -1      4086 7.15075E+00
 -1      4087 7.28140E+00
 -1      4088 2.90329E+01
 -1      4089 2.78277E+01
 -1      4090 2.99471E+01
 -1      4091 9.73630E+00
 -1      4092 4.95161E+00
 -1      4093 2.98585E+01
 -1      4094 6.78575E+00
 -1      4095 2.62376E+00
 -1      4096 3.80946E+00
 -1      4097 2.89165E+01
 -1      4098 2.96639E+01
 -1      4099 2.96639E+01
 -1      4100 2.92751E+01
 -1      4101 1.04893E+01
 -1      4102 1.53002E+01
 -1      4103 2.82897E+01
 -1      4104 2.93120E+01
 -1      4105 1.18267E+01
 -1      4106 2.85593E+01
 -1      4107 1.26569E+01
 -1      4108 1.46532E+01
 -1      4109 9.88957E+00
 -1      4110 9.88957E+00
 -1      4111 6.95760E+00
 -1      4112 7.05486E+00
 -1      4113 7.05486E+00
 -1      4114 1.47988E+01
 -1      4115 1.59200E+01
 -1      4116 1.05310E+01
 -1      4117 2.96817E+01
 -1      4118 2.94153E+01
 -1      4119 9.36460E+00
 -1      4120 9.59926E+00
 -1      4121 1.96910E+01
 -1      4122 3.00840E+01
 -1      4123 3.00944E+01
 -1      4124 1.01506E+01
 -1      4125 1.48972E+01
 -1      4126 9.71957E+00
 -1      4127 9.69811E+00
 -1      4128 3.00538E+01
 -1      4129 3.00538E+01
 -1      4130 1.74077E+01
 -1      4131 2.54175E+01
 -1      4132 6.72197E+00
 -1      4133 8.87301E+00
 -1      4134 8.82784E+00
 -1      4135 1.25505E+01
 -1      4136 1.17369E+01
 -1      4137 2.22677E+01
 -1      4138 2.96064E+01
 -1      4139 1.05719E+01
 -1      4140 1.05481E+01
 -1      4141 2.98114E+01
 -1      4142 2.82183E+01
 -1      4143 2.86173E+01
 -1      4144 1.82035E+01
 -1      4145 9.49691E+00
 -1      4146 1.27417E+01
 -1      4147 5.31066E+00
 -1      4148 6.33344E+00
 -1      4149 4.91596E+00
 -1      4150 7.37228E+00
 -1      4151 7.23464E+00
 -1      4152 7.35796E+00
 -1      4153 2.05237E+01
 -1      4154 2.99162E+01
 -1      4155 2.98332E+01
 -1      4156 2.92978E+01
 -1      4157 8.33030E+00
 -1      4158 1.01417E+01
 -1      4159 2.97463E+01
 -1      4160 1.57292E+01
 -1      4161 1.48900E+01
 -1      4162 2.93391E+01
 -1      4163 2.94118E+01
 -1      4164 2.77886E+01
 -1      4165 1.68053E+01
 -1      4166 2.97079E+01
 -1      4167 1.22117E+01
 -1      4168 2.98451E+01
 -1      4169 2.99606E+01
 -1      4170 1.19205E+01
 -1      4171 2.58752E+01
 -1      4172 2.35375E+01
 -1      4173 9.65263E+00
 -1      4174 1.02617E+01
 -1      4175 2.96070E+01
 -1      4176 2.94624E+01
 -1      4177 1.01475E+01
 -1      4178 1.37594E+01
 -1      4179 1.27417E+01
 -1      4180 5.36882E+00
 -1      4181 7.46928E+00
 -1      4182 5.41111E+00
 -1      4183 7.48879E+00
 -1      4184 6.42332E+00
 -1      4185 6.42609E+00
 -1      4186 2.98230E+01
 -1      4187 2.96852E+01
 -1      4188 8.45607E+00
 -1      4189 8.67951E+00
 -1      4190 1.01312E+01
 -1      4191 1.06756E+01
 -1      4192 2.98576E+01
 -1      4193 2.98576E+01
 -1      4194 2.95146E+01
 -1      4195 1.03408E+01
 -1      4196 9.74945E+00
 -1      4197 2.95146E+01
 -1      4198 2.97598E+01
 -1      4199 4.87309E+00
 -1      4200 2.78277E+01
 -1      4201 7.64980E+00
 -1      4202 1.02588E+01
 -1      4203 2.96777E+01
 -1      4204 1.01977E+01
 -1      4205 2.96777E+01
 -1      4206 1.09252E+01
 -1      4207 1.06159E+01
 -1      4208 2.97598E+01
 -1      4209 2.33785E+01
 -1      4210 2.36333E+01
 -1      4211 2.29454E+01
 -1      4212 1.15205E+01
 -1      4213 1.14195E+01
 -1      4214 1.47988E+01
 -1      4215 1.96979E+01
 -1      4216 1.97967E+01
 -1      4217 9.62072E+00
 -1      4218 1.97713E+01
 -1      4219 1.84776E+01
 -1      4220 1.49814E+01
 -1      4221 8.87301E+00
 -1      4222 2.19056E+01
 -1      4223 1.52899E+01
 -1      4224 2.17178E+01
 -1      4225 2.04314E+01
 -1      4226 2.98114E+01
 -1      4227 1.32009E+01
 -1      4228 5.28144E+00
 -1      4229 4.23846E+00
 -1      4230 4.82295E+00
 -1      4231 2.96852E+01
 -1      4232 8.00142E+00
 -1      4233 7.36690E+00
 -1      4234 6.38089E+00
 -1      4235 2.94900E+01
 -1      4236 2.33522E+01
 -1      4237 2.36825E+01
 -1      4238 2.21072E+01
 -1      4239 2.25976E+01
 -1      4240 2.28606E+01
 -1      4241 1.49312E+01
 -1      4242 2.95146E+01
 -1      4243 7.22457E+00
 -1      4244 7.58957E+00
 -1      4245 1.48625E+01
 -1      4246 2.23990E+01
 -1      4247 2.94114E+01
 -1      4248 6.76287E+00
 -1      4249 2.92287E+01
 -1      4250 2.61304E+01
 -1      4251 2.78277E+01
 -1      4252 2.47947E+01
 -1      4253 7.80033E+00
 -1      4254 7.19610E+00
 -1      4255 7.77012E+00
 -1      4256 2.96917E+01
 -1      4257 2.93120E+01
 -1      4258 2.96917E+01
 -1      4259 3.46093E+00
 -1      4260 3.46093E+00
 -1      4261 8.18207E+00
 -1      4262 1.93512E+00
 -1      4263 2.53590E+00
 -1      4264 2.61106E+00
 -1      4265 2.43296E+00
 -1      4266 1.57592E+00
 -1      4267 2.61106E+00
 -1      4268 8.48254E+00
 -1      4269 9.05816E+00
 -1      4270 1.42733E+01
 -1      4271 1.32076E+01
 -1      4272 3.00174E+01
 -1      4273 1.03710E+01
 -1      4274 7.74489E+00
 -1      4275 3.01094E+01
 -1      4276 1.89346E+00
 -1      4277 1.78193E+00
 -1      4278 2.13282E+00
 -1      4279 2.04947E+00
 -1      4280 3.19366E+00
 -1      4281 2.53764E+00
 -1      4282 2.97661E+01
 -1      4283 2.11322E+00
 -1      4284 2.12541E+00
 -1      4285 2.84814E+01
 -1      4286 2.31093E+01
 -1      4287 1.88087E+00
 -1      4288 2.14736E+00
 -1      4289 2.59830E+00
 -1      4290 2.31167E+00
 -1      4291 2.52714E+01
 -1      4292 2.53574E+01
 -1      4293 2.75096E+01
 -1      4294 3.03520E+01
 -1      4295 1.93512E+00
 -1      4296 9.04113E+00
 -1      4297 8.49282E+00
 -1      4298 1.31845E+01
 -1      4299 1.43410E+01
 -1      4300 1.74896E+00
 -1      4301 1.63304E+00
 -1      4302 1.51345E+00
 -1      4303 1.76906E+00
 -1      4304 1.62937E+00
 -1      4305 2.75566E+01
 -1      4306 3.25902E+01
 -1      4307 1.36942E+00
 -1      4308 2.13282E+00
 -1      4309 2.50976E+01
 -1      4310 2.58521E+01
 -1      4311 2.72272E+01
 -1      4312 2.99152E+01
 -1      4313 7.37943E+00
 -1      4314 7.25611E+00
 -1      4315 2.75096E+01
 -1      4316 2.75833E+01
 -1      4317 3.18119E+01
 -1      4318 1.86527E+00
 -1      4319 1.84280E+00
 -1      4320 1.78193E+00
 -1      4321 1.18895E+01
 -1      4322 3.03520E+01
 -1      4323 3.03520E+01
 -1      4324 2.16750E+00
 -1      4325 1.01239E+01
 -1      4326 1.42733E+01
 -1      4327 2.69944E+01
 -1      4328 2.96823E+01
 -1      4329 2.96823E+01
 -1      4330 1.70489E+01
 -1      4331 1.53615E+01
 -1      4332 1.63792E+01
 -1      4333 5.88221E+00
 -1      4334 5.92450E+00
 -1      4335 5.78140E+00
 -1      4336 2.92775E+01
 -1      4337 2.94153E+01
 -1      4338 2.92775E+01
 -1      4339 7.43497E+00
 -1      4340 7.68221E+00
 -1      4341 7.70172E+00
 -1      4342 1.25359E+01
 -1      4343 1.16434E+01
 -1      4344 1.19915E+01
 -1      4345 9.07201E+00
 -1      4346 9.43826E+00
 -1      4347 9.66169E+00
 -1      4348 2.87707E+01
 -1      4349 2.97268E+01
 -1      4350 2.97268E+01
 -1      4351 2.96064E+01
 -1      4352 2.91701E+01
 -1      4353 2.96064E+01
 -1      4354 2.96048E+01
 -1      4355 2.85421E+01
 -1      4356 2.96048E+01
 -1      4357 2.11285E+00
 -1      4358 2.54365E+00
 -1      4359 1.23723E+01
 -1      4360 1.15276E+01
 -1      4361 1.19241E+01
 -1      4362 2.96123E+01
 -1      4363 2.96123E+01
 -1      4364 2.93076E+01
 -1      4365 6.73321E+00
 -1      4366 1.13176E+01
 -1      4367 1.19020E+01
 -1      4368 1.09161E+01
 -1      4369 2.99890E+01
 -1      4370 1.05725E+01
 -1      4371 2.93843E+01
 -1      4372 2.80359E+01
 -1      4373 9.47212E+00
 -1      4374 9.04113E+00
 -1      4375 1.43410E+01
 -1      4376 1.31742E+00
 -1      4377 1.59414E+00
 -1      4378 1.73015E+00
 -1      4379 1.20579E+01
 -1      4380 1.06561E+01
 -1      4381 1.13941E+01
 -1      4382 1.10370E+01
 -1      4383 8.09700E+00
 -1      4384 9.05816E+00
 -1      4385 2.76325E+01
 -1      4386 1.18660E+00
 -1      4387 1.01977E+01
 -1      4388 7.27265E+00
 -1      4389 7.26988E+00
 -1      4390 7.03493E+00
 -1      4391 1.82622E+00
 -1      4392 4.15538E+00
 -1      4393 1.88865E+00
 -1      4394 1.84975E+00
 -1      4395 3.21085E+00
 -1      4396 1.77302E+00
 -1      4397 2.20709E+00
 -1      4398 3.12387E+00
 -1      4399 2.46785E+00
 -1      4400 3.27857E+00
 -1      4401 2.46785E+00
 -1      4402 2.20058E+00
 -1      4403 4.42985E+00
 -3
    1PSTEP                         7           1           2          
  100CL  103 2.152079725        4403                     4    3           1
 -4  DISP        4    1
 -5  D1          1    2    1    0
 -5  D2          1    2    2    0
 -5  D3          1    2    3    0
 -5  ALL         1    2    0    0    1ALL
 -1         1 0.00000E+00 0.00000E+00 0.00000E+00
 -1         2 0.00000E+00 0.00000E+00 0.00000E+00
 -1         3 0.00000E+00 0.00000E+00 0.00000E+00
 -1         4 0.00000E+00 0.00000E+00 0.00000E+00
 -1         5 3.20099E-03-5.27097E-03-4.31845E-02
 -1         6-3.53396E-03-5.25347E-03-4.31847E-02
 -1         7 4.02082E-03-5.22516E-03-4.27831E-02
 -1         8-2.71438E-03-5.20599E-03-4.27831E-02
 -1         9 0.00000E+00 0.00000E+00 0.00000E+00
 -1        10 0.00000E+00 0.00000E+00 0.00000E+00
 -1        11 0.00000E+00 0.00000E+00 0.00000E+00
 -1        12 0.00000E+00 0.00000E+00 0.00000E+00
 -1        13 0.00000E+00 0.00000E+00 0.00000E+00
 -1        14 0.00000E+00 0.00000E+00 0.00000E+00
 -1        15 0.00000E+00 0.00000E+00 0.00000E+00
 -1        16 0.00000E+00 0.00000E+00 0.00000E+00
 -1        17 0.00000E+00 0.00000E+00 0.00000E+00
 -1        18 0.00000E+00 0.00000E+00 0.00000E+00
 -1        19 0.00000E+00 0.00000E+00 0.00000E+00
 -1        20 0.00000E+00 0.00000E+00 0.00000E+00
 -1        21 0.00000E+00 0.00000E+00 0.00000E+00
 -1        22 0.00000E+00 0.00000E+00 0.00000E+00
 -1        23 0.00000E+00 0.00000E+00 0.00000E+00
 -1        24 0.00000E+00 0.00000E+00 0.00000E+00
 -1        25 0.00000E+00 0.00000E+00 0.00000E+00
 -1        26 0.00000E+00 0.00000E+00 0.00000E+00
 -1        27 0.00000E+00 0.00000E+00 0.00000E+00
 -1        28 0.00000E+00 0.00000E+00 0.00000E+00
 -1        29 0.00000E+00 0.00000E+00 0.00000E+00
 -1        30 0.00000E+00 0.00000E+00 0.00000E+00
 -1        31 0.00000E+00 0.00000E+00 0.00000E+00
 -1        32 0.00000E+00 0.00000E+00 0.00000E+00
 -1        33 0.00000E+00 0.00000E+00 0.00000E+00
 -1        34 0.00000E+00 0.00000E+00 0.00000E+00
 -1        35 0.00000E+00 0.00000E+00 0.00000E+00
 -1        36 0.00000E+00 0.00000E+00 0.00000E+00
 -1        37-1.84538E-03-5.25661E-03-4.31811E-02
 -1        38-1.66731E-04-5.26242E-03-4.31789E-02
 -1        39 1.51196E-03-5.26828E-03-4.31808E-02
 -1        40-2.68770E-03-5.25462E-03-4.31831E-02
 -1        41-1.00551E-03-5.25934E-03-4.31796E-02
 -1        42 6.72081E-04-5.26555E-03-4.31795E-02
 -1        43 2.35437E-03-5.27011E-03-4.31829E-02
 -1        44 3.40829E-03-5.25864E-03-4.30852E-02
 -1        45 3.61275E-03-5.24733E-03-4.29851E-02
 -1        46 3.81685E-03-5.23648E-03-4.28846E-02
 -1        47 3.30531E-03-5.26469E-03-4.31351E-02
 -1        48 3.51067E-03-5.25284E-03-4.30353E-02
 -1        49 3.71482E-03-5.24187E-03-4.29350E-02
 -1        50 3.91905E-03-5.23088E-03-4.28341E-02
 -1        51-1.02524E-03-5.21169E-03-4.27793E-02
 -1        52 6.53451E-04-5.21570E-03-4.27773E-02
 -1        53 2.33206E-03-5.21957E-03-4.27793E-02
 -1        54-1.86768E-03-5.20907E-03-4.27814E-02
 -1        55-1.85307E-04-5.21382E-03-4.27779E-02
 -1        56 1.49224E-03-5.21752E-03-4.27779E-02
 -1        57 3.17441E-03-5.22219E-03-4.27814E-02
 -1        58-3.33026E-03-5.24156E-03-4.30850E-02
 -1        59-3.12621E-03-5.22907E-03-4.29852E-02
 -1        60-2.92165E-03-5.21723E-03-4.28849E-02
 -1        61-3.43234E-03-5.24757E-03-4.31349E-02
 -1        62-3.22821E-03-5.23531E-03-4.30353E-02
 -1        63-3.02411E-03-5.22310E-03-4.29352E-02
 -1        64-2.81872E-03-5.21166E-03-4.28343E-02
 -1        65-1.69595E-04-6.11522E-05-6.79474E-05
 -1        66-3.35402E-04-7.96580E-05-2.05953E-04
 -1        67-5.06287E-04-1.00247E-04-4.37488E-04
 -1        68-6.77601E-04-1.31472E-04-7.60545E-04
 -1        69-8.47768E-04-1.74271E-04-1.17454E-03
 -1        70-1.01588E-03-2.29019E-04-1.67799E-03
 -1        71-1.18153E-03-2.95772E-04-2.26970E-03
 -1        72-1.34421E-03-3.73791E-04-2.94889E-03
 -1        73-1.50350E-03-4.63363E-04-3.71364E-03
 -1        74-1.65915E-03-5.63804E-04-4.56263E-03
 -1        75-1.81067E-03-6.74981E-04-5.49390E-03
 -1        76-1.95764E-03-7.96580E-04-6.50551E-03
 -1        77-2.09971E-03-9.28435E-04-7.59515E-03
 -1        78-2.23685E-03-1.06984E-03-8.76081E-03
 -1        79-2.36833E-03-1.22061E-03-9.99970E-03
 -1        80-2.49401E-03-1.38033E-03-1.13093E-02
 -1        81-2.61375E-03-1.54876E-03-1.26866E-02
 -1        82-2.72706E-03-1.72509E-03-1.41291E-02
 -1        83-2.83367E-03-1.90925E-03-1.56333E-02
 -1        84-2.93379E-03-2.10041E-03-1.71964E-02
 -1        85-3.02655E-03-2.29832E-03-1.88145E-02
 -1        86-3.11234E-03-2.50263E-03-2.04846E-02
 -1        87-3.19057E-03-2.71258E-03-2.22028E-02
 -1        88-3.26130E-03-2.92763E-03-2.39658E-02
 -1        89-3.32438E-03-3.14759E-03-2.57695E-02
 -1        90-3.37952E-03-3.37159E-03-2.76103E-02
 -1        91-3.42683E-03-3.59933E-03-2.94840E-02
 -1        92-3.46615E-03-3.83027E-03-3.13868E-02
 -1        93-3.49753E-03-4.06384E-03-3.33145E-02
 -1        94-3.52052E-03-4.29936E-03-3.52630E-02
 -1        95-3.53568E-03-4.53676E-03-3.72280E-02
 -1        96-3.54258E-03-4.77507E-03-3.92056E-02
 -1        97-3.54159E-03-5.01416E-03-4.11914E-02
 -1        98-9.02025E-05-4.58069E-05-3.40946E-05
 -1        99-2.51699E-04-7.12229E-05-1.25585E-04
 -1       100-4.20663E-04-8.88437E-05-3.10165E-04
 -1       101-5.92040E-04-1.14391E-04-5.87674E-04
 -1       102-7.62885E-04-1.51390E-04-9.56272E-04
 -1       103-9.32109E-04-2.00156E-04-1.41515E-03
 -1       104-1.09905E-03-2.60992E-04-1.96284E-03
 -1       105-1.26324E-03-3.33364E-04-2.59850E-03
 -1       106-1.42429E-03-4.17175E-04-3.32068E-03
 -1       107-1.58182E-03-5.12211E-04-4.12772E-03
 -1       108-1.73542E-03-6.18074E-04-5.01811E-03
 -1       109-1.88470E-03-7.34515E-04-5.98983E-03
 -1       110-2.02929E-03-8.61267E-04-7.04074E-03
 -1       111-2.16894E-03-9.97919E-04-8.16862E-03
 -1       112-2.30326E-03-1.14409E-03-9.37124E-03
 -1       113-2.43191E-03-1.29940E-03-1.06458E-02
 -1       114-2.55465E-03-1.46353E-03-1.19897E-02
 -1       115-2.67117E-03-1.63594E-03-1.34000E-02
 -1       116-2.78120E-03-1.81624E-03-1.48737E-02
 -1       117-2.88457E-03-2.00394E-03-1.64077E-02
 -1       118-2.98104E-03-2.19858E-03-1.79987E-02
 -1       119-3.07034E-03-2.39974E-03-1.96433E-02
 -1       120-3.15237E-03-2.60690E-03-2.13379E-02
 -1       121-3.22686E-03-2.81949E-03-2.30790E-02
 -1       122-3.29380E-03-3.03705E-03-2.48628E-02
 -1       123-3.35287E-03-3.25910E-03-2.66856E-02
 -1       124-3.40417E-03-3.48505E-03-2.85433E-02
 -1       125-3.44749E-03-3.71443E-03-3.04320E-02
 -1       126-3.48284E-03-3.94673E-03-3.23477E-02
 -1       127-3.50999E-03-4.18139E-03-3.42864E-02
 -1       128-3.52913E-03-4.41792E-03-3.62437E-02
 -1       129-3.54008E-03-4.65580E-03-3.82156E-02
 -1       130-3.54299E-03-4.89455E-03-4.01977E-02
 -1       131-3.53862E-03-5.13386E-03-4.21863E-02
 -1       132 1.32892E-04 4.89407E-05-5.23474E-05
 -1       133 2.62709E-04 3.63096E-05-1.87396E-04
 -1       134 3.96919E-04 2.47415E-06-4.18378E-04
 -1       135 5.31748E-04-4.36618E-05-7.41640E-04
 -1       136 6.66180E-04-1.00367E-04-1.15557E-03
 -1       137 7.99651E-04-1.67423E-04-1.65929E-03
 -1       138 9.31890E-04-2.44467E-04-2.25139E-03
 -1       139 1.06252E-03-3.31624E-04-2.93088E-03
 -1       140 1.19149E-03-4.28327E-04-3.69593E-03
 -1       141 1.31840E-03-5.34970E-04-4.54527E-03
 -1       142 1.44302E-03-6.51119E-04-5.47703E-03
 -1       143 1.56516E-03-7.76567E-04-6.48909E-03
 -1       144 1.68466E-03-9.10924E-04-7.57922E-03
 -1       145 1.80114E-03-1.05430E-03-8.74527E-03
 -1       146 1.91445E-03-1.20639E-03-9.98478E-03
 -1       147 2.02441E-03-1.36666E-03-1.12950E-02
 -1       148 2.13066E-03-1.53510E-03-1.26730E-02
 -1       149 2.23309E-03-1.71123E-03-1.41161E-02
 -1       150 2.33148E-03-1.89476E-03-1.56210E-02
 -1       151 2.42569E-03-2.08543E-03-1.71846E-02
 -1       152 2.51528E-03-2.28277E-03-1.88035E-02
 -1       153 2.60034E-03-2.48649E-03-2.04743E-02
 -1       154 2.68055E-03-2.69617E-03-2.21934E-02
 -1       155 2.75580E-03-2.91145E-03-2.39571E-02
 -1       156 2.82566E-03-3.13193E-03-2.57618E-02
 -1       157 2.89043E-03-3.35686E-03-2.76033E-02
 -1       158 2.94963E-03-3.58626E-03-2.94778E-02
 -1       159 3.00306E-03-3.81945E-03-3.13815E-02
 -1       160 3.05089E-03-4.05585E-03-3.33100E-02
 -1       161 3.09267E-03-4.29523E-03-3.52594E-02
 -1       162 3.12865E-03-4.53688E-03-3.72254E-02
 -1       163 3.15844E-03-4.78031E-03-3.92038E-02
 -1       164 3.18221E-03-5.02485E-03-4.11903E-02
 -1       165 7.06990E-05 3.99966E-05-2.26408E-05
 -1       166 1.97152E-04 4.63013E-05-1.07927E-04
 -1       167 3.29612E-04 2.11701E-05-2.91208E-04
 -1       168 4.64321E-04-1.91894E-05-5.68574E-04
 -1       169 5.99069E-04-7.06845E-05-9.37320E-04
 -1       170 7.33044E-04-1.32627E-04-1.39631E-03
 -1       171 8.65950E-04-2.04668E-04-1.94434E-03
 -1       172 9.97394E-04-2.86795E-04-2.58033E-03
 -1       173 1.12723E-03-3.78725E-04-3.30273E-03
 -1       174 1.25521E-03-4.80447E-04-4.11018E-03
 -1       175 1.38098E-03-5.91859E-04-5.00099E-03
 -1       176 1.50442E-03-7.12672E-04-5.97315E-03
 -1       177 1.62525E-03-8.42604E-04-7.02448E-03
 -1       178 1.74327E-03-9.81540E-04-8.15290E-03
 -1       179 1.85819E-03-1.12929E-03-9.35602E-03
 -1       180 1.96985E-03-1.28550E-03-1.06312E-02
 -1       181 2.07798E-03-1.44988E-03-1.19757E-02
 -1       182 2.18236E-03-1.62221E-03-1.33866E-02
 -1       183 2.28280E-03-1.80207E-03-1.48610E-02
 -1       184 2.37911E-03-1.98925E-03-1.63957E-02
 -1       185 2.47102E-03-2.18326E-03-1.79874E-02
 -1       186 2.55841E-03-2.38388E-03-1.96327E-02
 -1       187 2.64105E-03-2.59061E-03-2.13281E-02
 -1       188 2.71878E-03-2.80315E-03-2.30700E-02
 -1       189 2.79137E-03-3.02103E-03-2.48546E-02
 -1       190 2.85870E-03-3.24384E-03-2.66781E-02
 -1       191 2.92068E-03-3.47105E-03-2.85366E-02
 -1       192 2.97703E-03-3.70238E-03-3.04263E-02
 -1       193 3.02771E-03-3.93728E-03-3.23429E-02
 -1       194 3.07248E-03-4.17519E-03-3.42823E-02
 -1       195 3.11140E-03-4.41583E-03-3.62406E-02
 -1       196 3.14426E-03-4.65842E-03-3.82133E-02
 -1       197 3.17103E-03-4.90246E-03-4.01962E-02
 -1       198 3.19222E-03-5.14748E-03-4.21857E-02
 -1       199-1.32917E-04 6.78427E-05-2.99468E-05
 -1       200-2.63966E-04 7.45317E-05-1.41978E-04
 -1       201-3.98602E-04 5.82048E-05-3.51142E-04
 -1       202-5.33404E-04 2.72279E-05-6.53533E-04
 -1       203-6.67163E-04-1.61342E-05-1.04707E-03
 -1       204-7.99226E-04-7.15996E-05-1.53075E-03
 -1       205-9.29178E-04-1.38985E-04-2.10358E-03
 -1       206-1.05664E-03-2.18127E-04-2.76430E-03
 -1       207-1.18142E-03-3.08785E-04-3.51149E-03
 -1       208-1.30305E-03-4.10584E-04-4.34342E-03
 -1       209-1.42125E-03-5.23352E-04-5.25841E-03
 -1       210-1.53573E-03-6.46811E-04-6.25453E-03
 -1       211-1.64635E-03-7.80564E-04-7.32955E-03
 -1       212-1.75268E-03-9.24277E-04-8.48112E-03
 -1       213-1.85453E-03-1.07756E-03-9.70684E-03
 -1       214-1.95163E-03-1.24004E-03-1.10039E-02
 -1       215-2.04373E-03-1.41135E-03-1.23698E-02
 -1       216-2.13073E-03-1.59102E-03-1.38014E-02
 -1       217-2.21245E-03-1.77856E-03-1.52955E-02
 -1       218-2.28856E-03-1.97360E-03-1.68491E-02
 -1       219-2.35899E-03-2.17562E-03-1.84589E-02
 -1       220-2.42358E-03-2.38414E-03-2.01212E-02
 -1       221-2.48224E-03-2.59864E-03-2.18325E-02
 -1       222-2.53484E-03-2.81868E-03-2.35891E-02
 -1       223-2.58119E-03-3.04374E-03-2.53873E-02
 -1       224-2.62144E-03-3.27306E-03-2.72230E-02
 -1       225-2.65525E-03-3.50651E-03-2.90926E-02
 -1       226-2.68271E-03-3.74326E-03-3.09919E-02
 -1       227-2.70381E-03-3.98300E-03-3.29170E-02
 -1       228-2.71844E-03-4.22505E-03-3.48633E-02
 -1       229-2.72661E-03-4.46881E-03-3.68270E-02
 -1       230-2.72840E-03-4.71385E-03-3.88037E-02
 -1       231-2.72406E-03-4.95935E-03-4.07893E-02
 -1       232-7.05925E-05 4.84134E-05-1.23979E-05
 -1       233-1.97805E-04 7.50981E-05-7.37963E-05
 -1       234-3.31164E-04 6.84493E-05-2.34774E-04
 -1       235-4.66065E-04 4.42942E-05-4.90910E-04
 -1       236-6.00458E-04 7.07226E-06-8.38966E-04
 -1       237-7.33419E-04-4.23794E-05-1.27771E-03
 -1       238-8.64485E-04-1.03808E-04-1.80611E-03
 -1       239-9.93249E-04-1.77107E-04-2.42306E-03
 -1       240-1.11939E-03-2.62071E-04-3.12723E-03
 -1       241-1.24263E-03-3.58307E-04-3.91697E-03
 -1       242-1.36258E-03-4.65616E-04-4.79067E-03
 -1       243-1.47898E-03-5.83765E-04-5.74649E-03
 -1       244-1.59154E-03-7.12445E-04-6.78233E-03
 -1       245-1.70003E-03-8.51196E-04-7.89589E-03
 -1       246-1.80417E-03-9.99753E-04-9.08487E-03
 -1       247-1.90366E-03-1.15769E-03-1.03466E-02
 -1       248-1.99829E-03-1.32461E-03-1.16785E-02
 -1       249-2.08789E-03-1.50016E-03-1.30776E-02
 -1       250-2.17226E-03-1.68384E-03-1.45409E-02
 -1       251-2.25116E-03-1.87517E-03-1.60652E-02
 -1       252-2.32445E-03-2.07375E-03-1.76472E-02
 -1       253-2.39202E-03-2.27910E-03-1.92837E-02
 -1       254-2.45365E-03-2.49067E-03-2.09709E-02
 -1       255-2.50929E-03-2.70799E-03-2.27054E-02
 -1       256-2.55879E-03-2.93059E-03-2.44833E-02
 -1       257-2.60210E-03-3.15787E-03-2.63007E-02
 -1       258-2.63909E-03-3.38932E-03-2.81539E-02
 -1       259-2.66975E-03-3.62448E-03-3.00388E-02
 -1       260-2.69401E-03-3.86282E-03-3.19515E-02
 -1       261-2.71188E-03-4.10377E-03-3.38877E-02
 -1       262-2.72329E-03-4.34673E-03-3.58433E-02
 -1       263-2.72825E-03-4.59122E-03-3.78141E-02
 -1       264-2.72694E-03-4.83654E-03-3.97957E-02
 -1       265-2.71991E-03-5.08230E-03-4.17844E-02
 -1       266 1.70172E-04-7.93998E-05-4.58948E-05
 -1       267 3.37809E-04-1.16412E-04-1.60907E-04
 -1       268 5.10475E-04-1.53426E-04-3.70423E-04
 -1       269 6.83881E-04-1.98201E-04-6.72664E-04
 -1       270 8.56491E-04-2.52466E-04-1.06605E-03
 -1       271 1.02759E-03-3.16530E-04-1.54944E-03
 -1       272 1.19696E-03-3.89978E-04-2.12213E-03
 -1       273 1.36410E-03-4.73083E-04-2.78244E-03
 -1       274 1.52870E-03-5.65476E-04-3.52928E-03
 -1       275 1.69055E-03-6.67147E-04-4.36086E-03
 -1       276 1.84930E-03-7.77923E-04-5.27541E-03
 -1       277 2.00456E-03-8.97617E-04-6.27107E-03
 -1       278 2.15605E-03-1.02610E-03-7.34554E-03
 -1       279 2.30366E-03-1.16303E-03-8.49663E-03
 -1       280 2.44682E-03-1.30835E-03-9.72172E-03
 -1       281 2.58532E-03-1.46167E-03-1.10183E-02
 -1       282 2.71910E-03-1.62286E-03-1.23836E-02
 -1       283 2.84762E-03-1.79158E-03-1.38144E-02
 -1       284 2.97070E-03-1.96756E-03-1.53079E-02
 -1       285 3.08813E-03-2.15033E-03-1.68609E-02
 -1       286 3.19952E-03-2.33979E-03-1.84698E-02
 -1       287 3.30494E-03-2.53549E-03-2.01313E-02
 -1       288 3.40380E-03-2.73709E-03-2.18418E-02
 -1       289 3.49613E-03-2.94409E-03-2.35977E-02
 -1       290 3.58172E-03-3.15637E-03-2.53950E-02
 -1       291 3.66016E-03-3.37321E-03-2.72301E-02
 -1       292 3.73153E-03-3.59438E-03-2.90988E-02
 -1       293 3.79558E-03-3.81944E-03-3.09972E-02
 -1       294 3.85225E-03-4.04786E-03-3.29213E-02
 -1       295 3.90106E-03-4.27918E-03-3.48668E-02
 -1       296 3.94235E-03-4.51306E-03-3.68297E-02
 -1       297 3.97576E-03-4.74895E-03-3.88056E-02
 -1       298 4.00155E-03-4.98655E-03-4.07902E-02
 -1       299 9.05105E-05-5.39240E-05-2.39945E-05
 -1       300 2.53135E-04-9.89865E-05-9.18358E-05
 -1       301 4.23944E-04-1.34156E-04-2.54016E-04
 -1       302 5.97225E-04-1.74664E-04-5.10101E-04
 -1       303 7.70326E-04-2.24084E-04-8.58079E-04
 -1       304 9.42242E-04-2.83310E-04-1.29655E-03
 -1       305 1.11252E-03-3.52008E-04-1.82478E-03
 -1       306 1.28080E-03-4.30344E-04-2.44141E-03
 -1       307 1.44673E-03-5.18112E-04-3.14516E-03
 -1       308 1.60999E-03-6.15145E-04-3.93460E-03
 -1       309 1.77030E-03-7.21394E-04-4.80791E-03
 -1       310 1.92735E-03-8.36676E-04-5.76326E-03
 -1       311 2.08079E-03-9.60772E-04-6.79859E-03
 -1       312 2.23035E-03-1.09347E-03-7.91166E-03
 -1       313 2.37576E-03-1.23468E-03-9.10007E-03
 -1       314 2.51667E-03-1.38404E-03-1.03613E-02
 -1       315 2.65282E-03-1.54129E-03-1.16926E-02
 -1       316 2.78398E-03-1.70630E-03-1.30910E-02
 -1       317 2.90982E-03-1.87870E-03-1.45535E-02
 -1       318 3.03007E-03-2.05809E-03-1.60772E-02
 -1       319 3.14458E-03-2.24429E-03-1.76586E-02
 -1       320 3.25300E-03-2.43687E-03-1.92942E-02
 -1       321 3.35514E-03-2.63557E-03-2.09807E-02
 -1       322 3.45077E-03-2.83993E-03-2.27143E-02
 -1       323 3.53978E-03-3.04962E-03-2.44914E-02
 -1       324 3.62177E-03-3.26424E-03-2.63081E-02
 -1       325 3.69675E-03-3.48330E-03-2.81605E-02
 -1       326 3.76448E-03-3.70645E-03-3.00446E-02
 -1       327 3.82485E-03-3.93322E-03-3.19563E-02
 -1       328 3.87755E-03-4.16319E-03-3.38917E-02
 -1       329 3.92268E-03-4.39585E-03-3.58464E-02
 -1       330 3.96001E-03-4.63076E-03-3.78163E-02
 -1       331 3.98954E-03-4.86755E-03-3.97970E-02
 -1       332 4.01201E-03-5.10579E-03-4.17849E-02
 -1       333 0.00000E+00 0.00000E+00 0.00000E+00
 -1       334 0.00000E+00 0.00000E+00 0.00000E+00
 -1       335 0.00000E+00 0.00000E+00 0.00000E+00
 -1       336 0.00000E+00 0.00000E+00 0.00000E+00
 -1       337 0.00000E+00 0.00000E+00 0.00000E+00
 -1       338 0.00000E+00 0.00000E+00 0.00000E+00
 -1       339 0.00000E+00 0.00000E+00 0.00000E+00
 -1       340 0.00000E+00 0.00000E+00 0.00000E+00
 -1       341 0.00000E+00 0.00000E+00 0.00000E+00
 -1       342 0.00000E+00 0.00000E+00 0.00000E+00
 -1       343 0.00000E+00 0.00000E+00 0.00000E+00
 -1       344 0.00000E+00 0.00000E+00 0.00000E+00
 -1       345 0.00000E+00 0.00000E+00 0.00000E+00
 -1       346 0.00000E+00 0.00000E+00 0.00000E+00
 -1       347 0.00000E+00 0.00000E+00 0.00000E+00
 -1       348 0.00000E+00 0.00000E+00 0.00000E+00
 -1       349 0.00000E+00 0.00000E+00 0.00000E+00
 -1       350 0.00000E+00 0.00000E+00 0.00000E+00
 -1       351 0.00000E+00 0.00000E+00 0.00000E+00
 -1       352 0.00000E+00 0.00000E+00 0.00000E+00
 -1       353 0.00000E+00 0.00000E+00 0.00000E+00
 -1       354 0.00000E+00 0.00000E+00 0.00000E+00
 -1       355 0.00000E+00 0.00000E+00 0.00000E+00
 -1       356 0.00000E+00 0.00000E+00 0.00000E+00
 -1       357 0.00000E+00 0.00000E+00 0.00000E+00
 -1       358 0.00000E+00 0.00000E+00 0.00000E+00
 -1       359 0.00000E+00 0.00000E+00 0.00000E+00
 -1       360 0.00000E+00 0.00000E+00 0.00000E+00
 -1       361 0.00000E+00 0.00000E+00 0.00000E+00
 -1       362 0.00000E+00 0.00000E+00 0.00000E+00
 -1       363 0.00000E+00 0.00000E+00 0.00000E+00
 -1       364 0.00000E+00 0.00000E+00 0.00000E+00
 -1       365 0.00000E+00 0.00000E+00 0.00000E+00
 -1       366 0.00000E+00 0.00000E+00 0.00000E+00
 -1       367 0.00000E+00 0.00000E+00 0.00000E+00
 -1       368 0.00000E+00 0.00000E+00 0.00000E+00
 -1       369 0.00000E+00 0.00000E+00 0.00000E+00
 -1       370 0.00000E+00 0.00000E+00 0.00000E+00
 -1       371 0.00000E+00 0.00000E+00 0.00000E+00
 -1       372 0.00000E+00 0.00000E+00 0.00000E+00
 -1       373 0.00000E+00 0.00000E+00 0.00000E+00
 -1       374 0.00000E+00 0.00000E+00 0.00000E+00
 -1       375 0.00000E+00 0.00000E+00 0.00000E+00
 -1       376 0.00000E+00 0.00000E+00 0.00000E+00
 -1       377 0.00000E+00 0.00000E+00 0.00000E+00
 -1       378 0.00000E+00 0.00000E+00 0.00000E+00
 -1       379 0.00000E+00 0.00000E+00 0.00000E+00
 -1       380 0.00000E+00 0.00000E+00 0.00000E+00
 -1       381 0.00000E+00 0.00000E+00 0.00000E+00
 -1       382 0.00000E+00 0.00000E+00 0.00000E+00
 -1       383 0.00000E+00 0.00000E+00 0.00000E+00
 -1       384 0.00000E+00 0.00000E+00 0.00000E+00
 -1       385 0.00000E+00 0.00000E+00 0.00000E+00
 -1       386 0.00000E+00 0.00000E+00 0.00000E+00
 -1       387 0.00000E+00 0.00000E+00 0.00000E+00
 -1       388 0.00000E+00 0.00000E+00 0.00000E+00
 -1       389 0.00000E+00 0.00000E+00 0.00000E+00
 -1       390 0.00000E+00 0.00000E+00 0.00000E+00
 -1       391 0.00000E+00 0.00000E+00 0.00000E+00
 -1       392 0.00000E+00 0.00000E+00 0.00000E+00
 -1       393 0.00000E+00 0.00000E+00 0.00000E+00
 -1       394 0.00000E+00 0.00000E+00 0.00000E+00
 -1       395 0.00000E+00 0.00000E+00 0.00000E+00
 -1       396 0.00000E+00 0.00000E+00 0.00000E+00
 -1       397 0.00000E+00 0.00000E+00 0.00000E+00
 -1       398 0.00000E+00 0.00000E+00 0.00000E+00
 -1       399 0.00000E+00 0.00000E+00 0.00000E+00
 -1       400 0.00000E+00 0.00000E+00 0.00000E+00
 -1       401 0.00000E+00 0.00000E+00 0.00000E+00
 -1       402 0.00000E+00 0.00000E+00 0.00000E+00
 -1       403 0.00000E+00 0.00000E+00 0.00000E+00
 -1       404 0.00000E+00 0.00000E+00 0.00000E+00
 -1       405 0.00000E+00 0.00000E+00 0.00000E+00
 -1       406 2.18296E-03-5.23818E-03-4.29351E-02
 -1       407-1.60593E-03-5.22746E-03-4.29362E-02
 -1       408 9.41726E-04-5.25581E-03-4.31008E-02
 -1       409-1.79923E-03-5.23871E-03-4.30321E-02
 -1       410-3.99031E-04-5.23669E-03-4.29815E-02
 -1       411-2.46415E-04-5.22418E-03-4.28713E-02
 -1       412 2.18127E-03-5.25068E-03-4.30391E-02
 -1       413-7.01260E-04-5.24936E-03-4.30902E-02
 -1       414 1.38522E-03-5.22623E-03-4.28517E-02
 -1       415 8.00865E-04-5.23404E-03-4.29308E-02
 -1       416 2.11509E-03-5.25958E-03-4.31091E-02
 -1       417-1.62829E-03-5.21806E-03-4.28551E-02
 -1       418-2.14701E-03-5.24724E-03-4.31092E-02
 -1       419 2.64509E-03-5.22984E-03-4.28545E-02
 -1       420 8.38848E-04-5.24480E-03-4.30177E-02
 -1       421 1.81375E-03-5.26390E-03-4.31449E-02
 -1       422 2.65719E-03-5.26566E-03-4.31473E-02
 -1       423 2.76072E-03-5.25911E-03-4.30975E-02
 -1       424-2.83950E-03-5.25008E-03-4.31473E-02
 -1       425-1.99612E-03-5.25199E-03-4.31450E-02
 -1       426-2.73772E-03-5.24438E-03-4.30974E-02
 -1       427 3.23011E-03-5.23324E-03-4.28698E-02
 -1       428 3.33189E-03-5.22734E-03-4.28192E-02
 -1       429 2.48862E-03-5.22480E-03-4.28168E-02
 -1       430-1.32691E-03-5.21487E-03-4.28172E-02
 -1       431-2.17051E-03-5.21229E-03-4.28196E-02
 -1       432-2.27408E-03-5.21754E-03-4.28702E-02
 -1       433-1.27330E-03-5.25305E-03-4.31354E-02
 -1       434-4.33638E-04-5.25582E-03-4.31342E-02
 -1       435-1.42365E-03-5.24818E-03-4.30996E-02
 -1       436 3.87364E-04-5.25926E-03-4.31394E-02
 -1       437 1.22710E-03-5.26200E-03-4.31406E-02
 -1       438 1.20061E-04-5.25260E-03-4.30951E-02
 -1       439 1.52792E-03-5.25784E-03-4.31049E-02
 -1       440 2.79365E-03-5.25475E-03-4.30623E-02
 -1       441 2.89613E-03-5.24890E-03-4.30124E-02
 -1       442 2.14831E-03-5.25509E-03-4.30742E-02
 -1       443 2.89655E-03-5.24285E-03-4.29604E-02
 -1       444 2.99862E-03-5.23728E-03-4.29101E-02
 -1       445 2.18222E-03-5.24436E-03-4.29872E-02
 -1       446 2.41400E-03-5.23402E-03-4.28949E-02
 -1       447 2.03559E-04-5.22005E-03-4.28240E-02
 -1       448-6.36121E-04-5.21795E-03-4.28252E-02
 -1       449-9.36842E-04-5.22120E-03-4.28630E-02
 -1       450 1.85859E-03-5.22297E-03-4.28153E-02
 -1       451 1.01902E-03-5.22092E-03-4.28142E-02
 -1       452 5.69296E-04-5.22526E-03-4.28611E-02
 -1       453 2.01465E-03-5.22794E-03-4.28530E-02
 -1       454-2.46149E-03-5.23387E-03-4.30090E-02
 -1       455-2.56347E-03-5.23993E-03-4.30589E-02
 -1       456-1.97312E-03-5.24298E-03-4.30707E-02
 -1       457-2.26262E-03-5.22236E-03-4.29108E-02
 -1       458-2.36496E-03-5.22811E-03-4.29610E-02
 -1       459-1.70264E-03-5.23306E-03-4.29843E-02
 -1       460-1.61723E-03-5.22272E-03-4.28957E-02
 -1       461 1.50964E-03-5.24778E-03-4.30281E-02
 -1       462 1.51065E-03-5.24143E-03-4.29764E-02
 -1       463 1.49157E-03-5.23612E-03-4.29326E-02
 -1       464 1.09306E-03-5.23016E-03-4.28912E-02
 -1       465 1.78390E-03-5.23222E-03-4.28934E-02
 -1       466 8.19876E-04-5.23939E-03-4.29743E-02
 -1       467-1.00210E-03-5.23209E-03-4.29587E-02
 -1       468-1.09877E-03-5.23765E-03-4.30066E-02
 -1       469-9.25890E-04-5.22581E-03-4.29036E-02
 -1       470-3.22898E-04-5.23038E-03-4.29266E-02
 -1       471 1.56124E-03-5.25326E-03-4.30698E-02
 -1       472 8.90423E-04-5.25022E-03-4.30592E-02
 -1       473 6.87187E-05-5.24708E-03-4.30537E-02
 -1       474-5.50202E-04-5.24300E-03-4.30359E-02
 -1       475-1.24986E-03-5.24399E-03-4.30611E-02
 -1       476 2.77144E-04-5.22912E-03-4.29009E-02
 -1       477 2.00961E-04-5.23537E-03-4.29560E-02
 -1       478 2.19959E-04-5.24073E-03-4.29994E-02
 -1       479-1.70933E-03-2.81694E-03-2.30626E-02
 -1       480-1.80795E-03-3.71233E-03-3.04217E-02
 -1       481 1.47080E-03-4.65589E-03-3.81901E-02
 -1       482-1.54087E-03-2.00248E-03-1.63858E-02
 -1       483 1.12174E-03-2.39001E-03-1.96189E-02
 -1       484 1.27352E-03-3.24924E-03-2.66686E-02
 -1       485 1.39256E-03-4.17774E-03-3.42771E-02
 -1       486 9.43326E-04-1.62827E-03-1.33690E-02
 -1       487-5.07433E-04-1.86775E-04-1.38036E-03
 -1       488-6.84681E-04-3.25173E-04-2.56521E-03
 -1       489 1.92710E-04-4.68041E-05-5.43451E-04
 -1       490-1.01866E-03-7.32238E-04-5.95931E-03
 -1       491-1.24322E-03-1.14255E-03-9.33792E-03
 -1       492-8.56343E-04-5.07635E-04-4.09572E-03
 -1       493 7.79856E-05 1.43671E-05-7.63619E-05
 -1       494-2.27154E-04-6.47955E-05-2.75292E-04
 -1       495-1.80971E-03-4.90781E-03-4.02882E-02
 -1       496-1.37179E-03-1.46275E-03-1.19642E-02
 -1       497-1.83455E-03-4.41780E-03-3.62381E-02
 -1       498 3.62832E-04-2.22330E-04-1.91997E-03
 -1       499 6.91949E-04-8.50344E-04-7.00318E-03
 -1       500 8.63178E-04-1.29119E-03-1.06079E-02
 -1       501 4.74974E-04-3.91749E-04-3.27918E-03
 -1       502 5.84581E-04-6.01708E-04-4.97840E-03
 -1       503-3.66583E-05-1.93003E-05-4.71056E-06
 -1       504 6.14384E-04-5.09296E-03-4.17749E-02
 -1       505 1.20125E-03-2.80910E-03-2.30582E-02
 -1       506 1.33738E-03-3.70674E-03-3.04188E-02
 -1       507 1.03549E-03-1.99530E-03-1.63800E-02
 -1       508-1.63369E-03-2.39765E-03-1.96241E-02
 -1       509-1.76764E-03-3.25646E-03-2.66721E-02
 -1       510 1.37155E-04-9.80615E-06-2.65227E-04
 -1       511-3.20913E-04-9.39402E-05-5.51422E-04
 -1       512-4.15741E-04-1.34771E-04-9.20730E-04
 -1       513-8.94465E-05-1.41891E-04-1.12490E-03
 -1       514-1.84364E-03-4.65772E-03-3.82199E-02
 -1       515-1.74070E-03-3.03445E-03-2.48479E-02
 -1       516 1.23831E-03-3.02685E-03-2.48438E-02
 -1       517 9.04169E-04-1.45599E-03-1.19570E-02
 -1       518-1.43201E-03-1.63500E-03-1.33756E-02
 -1       519 1.07953E-03-2.18941E-03-1.79725E-02
 -1       520-1.58931E-03-2.19677E-03-1.79781E-02
 -1       521-7.71788E-04-4.10951E-04-3.28794E-03
 -1       522-1.09574E-03-8.59681E-04-7.01107E-03
 -1       523-1.17619E-03-9.96767E-04-8.13923E-03
 -1       524-2.06559E-04-1.06446E-03-8.70898E-03
 -1       525 6.38500E-04-7.21343E-04-5.95113E-03
 -1       526 1.30643E-03-3.47605E-03-2.85281E-02
 -1       527-1.79003E-03-3.48261E-03-2.85314E-02
 -1       528-1.31831E-03-1.29785E-03-1.06124E-02
 -1       529 1.41665E-03-4.41710E-03-3.62366E-02
 -1       530-1.83022E-03-4.18038E-03-3.42792E-02
 -1       531 5.29965E-04-4.91737E-04-4.08711E-03
 -1       532 4.18962E-04-3.01998E-04-2.55629E-03
 -1       533-1.82133E-03-3.94512E-03-3.23390E-02
 -1       534-5.97662E-04-2.50446E-04-1.92909E-03
 -1       535 1.36612E-03-3.94076E-03-3.23366E-02
 -1       536-1.48848E-03-1.81502E-03-1.48505E-02
 -1       537-9.38747E-04-6.14819E-04-4.98683E-03
 -1       538 9.90123E-04-1.80814E-03-1.48443E-02
 -1       539-1.67365E-03-2.60450E-03-2.13201E-02
 -1       540 1.16239E-03-2.59672E-03-2.13153E-02
 -1       541-3.81040E-05-2.76160E-05-1.67098E-04
 -1       542-5.44315E-05-5.36665E-05-3.88275E-04
 -1       543 3.14773E-04-1.54093E-04-1.38131E-03
 -1       544 1.49042E-05 6.84102E-06-3.59291E-06
 -1       545 7.64233E-04-9.88314E-04-8.13057E-03
 -1       546-2.17565E-04-1.21661E-03-9.95650E-03
 -1       547-1.73988E-04-4.76537E-03-3.90961E-02
 -1       548 2.54611E-04-9.31204E-05-9.04327E-04
 -1       549-2.02073E-04-4.53690E-03-3.72168E-02
 -1       550-1.07968E-04-2.02943E-04-1.63002E-03
 -1       551-2.38708E-04-3.59434E-03-2.94684E-02
 -1       552-2.44630E-04-3.36607E-03-2.75924E-02
 -1       553-2.55842E-04-2.49711E-03-2.04584E-02
 -1       554-2.31544E-04-3.82614E-03-3.13732E-02
 -1       555-2.50987E-04-1.90509E-03-1.56016E-02
 -1       556-2.54956E-04-2.70674E-03-2.21787E-02
 -1       557-2.55526E-04-2.29333E-03-1.87866E-02
 -1       558-2.53959E-04-2.09585E-03-1.71664E-02
 -1       559-2.14000E-04-4.29823E-03-3.52541E-02
 -1       560-2.23410E-04-4.06096E-03-3.33032E-02
 -1       561-2.49230E-04-3.14164E-03-2.57496E-02
 -1       562-2.46779E-04-1.72145E-03-1.40957E-02
 -1       563-2.30517E-04-1.37680E-03-1.12696E-02
 -1       564-1.24619E-04-2.74728E-04-2.22250E-03
 -1       565-1.40572E-04-3.57250E-04-2.90244E-03
 -1       566-1.70229E-04-5.53743E-04-4.51799E-03
 -1       567-1.83640E-04-6.67278E-04-5.45043E-03
 -1       568-1.55976E-04-4.50325E-04-3.66804E-03
 -1       569-1.95960E-04-7.90714E-04-6.46324E-03
 -1       570-2.52757E-04-2.92172E-03-2.39438E-02
 -1       571-2.41298E-04-1.54531E-03-1.26515E-02
 -1       572-2.07493E-04-9.23713E-04-7.55408E-03
 -1       573 8.18057E-04-1.13533E-03-9.33247E-03
 -1       574-7.28906E-05-9.20202E-05-7.09068E-04
 -1       575-1.01481E-03-5.08171E-03-4.17150E-02
 -1       576-1.29518E-04-4.43237E-05-8.48285E-05
 -1       577 1.43899E-03-4.91126E-03-4.02780E-02
 -1       578-2.22357E-05-1.32145E-05-4.98491E-05
 -1       579 5.16696E-05 2.70845E-05-9.28171E-06
 -1       580-7.26395E-05-3.72150E-05-1.60103E-05
 -1       581-2.34760E-03-5.10248E-03-4.19110E-02
 -1       582 1.98779E-03-5.11356E-03-4.19207E-02
 -1       583-1.89089E-04-4.95178E-03-4.06296E-02
 -1       584 2.22602E-05 1.70701E-05 4.14814E-06
 -1       585 3.45312E-05 2.42847E-05-3.61808E-06
 -1       586 8.81566E-05 3.80161E-05-2.86890E-05
 -1       587-4.46720E-05-2.93157E-05-8.76903E-06
 -1       588-3.22988E-05-2.34335E-05 7.56105E-07
 -1       589-1.16706E-04-4.94571E-05-3.98543E-05
 -1       590 2.59303E-03-5.19219E-03-4.25516E-02
 -1       591 1.74973E-03-5.19091E-03-4.25512E-02
 -1       592 2.58480E-03-5.06926E-03-4.15552E-02
 -1       593-2.09644E-03-5.17941E-03-4.25464E-02
 -1       594-2.93962E-03-5.17789E-03-4.25470E-02
 -1       595-2.94442E-03-5.05828E-03-4.15509E-02
 -1       596-2.34132E-05-1.64227E-05 4.00468E-06
 -1       597-1.23436E-05-8.46397E-06 7.14151E-06
 -1       598-5.52806E-05-2.91655E-05-8.96337E-06
 -1       599 9.84602E-07 4.46279E-07 8.96367E-06
 -1       600 1.30371E-05 9.80861E-06 6.32711E-06
 -1       601-1.15663E-05-6.50148E-06-2.21825E-06
 -1       602 3.41898E-05 1.77098E-05-5.17429E-06
 -1       603-5.90842E-04-5.17169E-03-4.24477E-02
 -1       604-1.42978E-03-5.16919E-03-4.24480E-02
 -1       605-1.68049E-03-5.09201E-03-4.18130E-02
 -1       606 1.06276E-03-5.18024E-03-4.24778E-02
 -1       607 2.23823E-04-5.17781E-03-4.24776E-02
 -1       608-2.00086E-04-5.08730E-03-4.17449E-02
 -1       609 1.30040E-03-5.10335E-03-4.18477E-02
 -1       610-2.21208E-04-6.22566E-05-1.39418E-04
 -1       611-1.57628E-04-5.39195E-05-7.18934E-05
 -1       612-1.05719E-04-4.17685E-05-4.24190E-05
 -1       613-3.55981E-04-8.30855E-05-3.51005E-04
 -1       614-2.90149E-04-7.19906E-05-2.35276E-04
 -1       615-1.77943E-04-5.34838E-05-1.67357E-04
 -1       616-4.88562E-04-1.13146E-04-6.50581E-04
 -1       617-4.22229E-04-9.67153E-05-4.89153E-04
 -1       618-2.73955E-04-7.80269E-05-4.01960E-04
 -1       619-6.21073E-04-1.54951E-04-1.04235E-03
 -1       620-5.55392E-04-1.32698E-04-8.35353E-04
 -1       621-3.68300E-04-1.12927E-04-7.24667E-04
 -1       622-7.51287E-04-2.08278E-04-1.52400E-03
 -1       623-6.86149E-04-1.80158E-04-1.27219E-03
 -1       624-4.61812E-04-1.59318E-04-1.13929E-03
 -1       625-8.79135E-04-2.73392E-04-2.09428E-03
 -1       626-8.15390E-04-2.39466E-04-1.79830E-03
 -1       627-5.52771E-04-2.17155E-04-1.64363E-03
 -1       628-1.00412E-03-3.49731E-04-2.75203E-03
 -1       629-9.41456E-04-3.10172E-04-2.41226E-03
 -1       630-6.41452E-04-2.86407E-04-2.23623E-03
 -1       631-1.12763E-03-4.37341E-04-3.49585E-03
 -1       632-1.06616E-03-3.92167E-04-3.11333E-03
 -1       633-7.28490E-04-3.66668E-04-2.91588E-03
 -1       634-1.24792E-03-5.35851E-04-4.32434E-03
 -1       635-1.18813E-03-4.85313E-04-3.89964E-03
 -1       636-8.14319E-04-4.57982E-04-3.68130E-03
 -1       637-1.36500E-03-6.44987E-04-5.23568E-03
 -1       638-1.30691E-03-5.89161E-04-4.76980E-03
 -1       639-8.97880E-04-5.59911E-04-4.53097E-03
 -1       640-1.47865E-03-7.64466E-04-6.22787E-03
 -1       641-1.42226E-03-7.03484E-04-5.72180E-03
 -1       642-9.79063E-04-6.72228E-04-5.46301E-03
 -1       643-1.58861E-03-8.94082E-04-7.29870E-03
 -1       644-1.53406E-03-8.28056E-04-6.75363E-03
 -1       645-1.05757E-03-7.94700E-04-6.47545E-03
 -1       646-1.69756E-03-1.03330E-03-8.44575E-03
 -1       647-1.64518E-03-9.62515E-04-7.86264E-03
 -1       648-1.13620E-03-9.27056E-04-7.56567E-03
 -1       649-1.79712E-03-1.18158E-03-9.66469E-03
 -1       650-1.74685E-03-1.10618E-03-9.04501E-03
 -1       651-1.21019E-03-1.06855E-03-8.72946E-03
 -1       652-1.89790E-03-1.33906E-03-1.09569E-02
 -1       653-1.84988E-03-1.25923E-03-1.03019E-02
 -1       654-1.28111E-03-1.21910E-03-9.96634E-03
 -1       655-1.98468E-03-1.50567E-03-1.23217E-02
 -1       656-1.93935E-03-1.42155E-03-1.16326E-02
 -1       657-1.34563E-03-1.37921E-03-1.12797E-02
 -1       658-2.07175E-03-1.67994E-03-1.37488E-02
 -1       659-2.02882E-03-1.59185E-03-1.30272E-02
 -1       660-1.40237E-03-1.54786E-03-1.26618E-02
 -1       661-2.15378E-03-1.86205E-03-1.52386E-02
 -1       662-2.11337E-03-1.77006E-03-1.44861E-02
 -1       663-1.46074E-03-1.72402E-03-1.41054E-02
 -1       664-2.23020E-03-2.05135E-03-1.67879E-02
 -1       665-2.19266E-03-1.95585E-03-1.60060E-02
 -1       666-1.51514E-03-1.90788E-03-1.56108E-02
 -1       667-2.30133E-03-2.24748E-03-1.83934E-02
 -1       668-2.26646E-03-2.14863E-03-1.75839E-02
 -1       669-1.56561E-03-2.09877E-03-1.71750E-02
 -1       670-2.36662E-03-2.45005E-03-2.00515E-02
 -1       671-2.33478E-03-2.34800E-03-1.92161E-02
 -1       672-1.61199E-03-2.29640E-03-1.87946E-02
 -1       673-2.42624E-03-2.65844E-03-2.17589E-02
 -1       674-2.39714E-03-2.55359E-03-2.08993E-02
 -1       675-1.65422E-03-2.50040E-03-2.04660E-02
 -1       676-2.47981E-03-2.87222E-03-2.35119E-02
 -1       677-2.45374E-03-2.76473E-03-2.26300E-02
 -1       678-1.69203E-03-2.71009E-03-2.21858E-02
 -1       679-2.52739E-03-3.09092E-03-2.53067E-02
 -1       680-2.50440E-03-2.98101E-03-2.44043E-02
 -1       681-1.72557E-03-2.92506E-03-2.39502E-02
 -1       682-2.56887E-03-3.31400E-03-2.71394E-02
 -1       683-2.54885E-03-3.20197E-03-2.62185E-02
 -1       684-1.75475E-03-3.14490E-03-2.57554E-02
 -1       685-2.60419E-03-3.54095E-03-2.90061E-02
 -1       686-2.58732E-03-3.42704E-03-2.80688E-02
 -1       687-1.77939E-03-3.36906E-03-2.75976E-02
 -1       688-2.63326E-03-3.77128E-03-3.09029E-02
 -1       689-2.61952E-03-3.65574E-03-2.99510E-02
 -1       690-1.79954E-03-3.59704E-03-2.94729E-02
 -1       691-2.65597E-03-4.00445E-03-3.28256E-02
 -1       692-2.64540E-03-3.88756E-03-3.18613E-02
 -1       693-1.81519E-03-3.82837E-03-3.13772E-02
 -1       694-2.67242E-03-4.23994E-03-3.47703E-02
 -1       695-2.66493E-03-4.12197E-03-3.37955E-02
 -1       696-1.82636E-03-4.06247E-03-3.33065E-02
 -1       697-2.68255E-03-4.47730E-03-3.67325E-02
 -1       698-2.67836E-03-4.35843E-03-3.57494E-02
 -1       699-1.83292E-03-4.29883E-03-3.52566E-02
 -1       700-2.69098E-03-4.71642E-03-3.87124E-02
 -1       701-2.68985E-03-4.59702E-03-3.77231E-02
 -1       702-1.83967E-03-4.53759E-03-3.72275E-02
 -1       703-2.67382E-03-4.96100E-03-4.07397E-02
 -1       704-2.67599E-03-4.84121E-03-3.97462E-02
 -1       705-1.82736E-03-4.78262E-03-3.92530E-02
 -1       706-2.07867E-03-5.00520E-03-4.10993E-02
 -1       707 1.13962E-04 3.28461E-05-5.97127E-05
 -1       708 1.59074E-04 2.56264E-05-1.25877E-04
 -1       709 6.96123E-05 2.35088E-05-3.44380E-05
 -1       710 2.08875E-04 1.31641E-05-2.20989E-04
 -1       711 2.56384E-04-3.05813E-06-3.36376E-04
 -1       712 1.07112E-04 4.27570E-06-1.57977E-04
 -1       713 3.03708E-04-2.24287E-05-4.75540E-04
 -1       714 3.51556E-04-4.46911E-05-6.37179E-04
 -1       715 1.64975E-04-2.68520E-05-3.92709E-04
 -1       716 4.01458E-04-6.87083E-05-8.17956E-04
 -1       717 4.49440E-04-9.62114E-05-1.02452E-03
 -1       718 2.23308E-04-6.86810E-05-7.12990E-04
 -1       719 4.99271E-04-1.27530E-04-1.26303E-03
 -1       720 5.47244E-04-1.60341E-04-1.51538E-03
 -1       721 2.84734E-04-1.22185E-04-1.13072E-03
 -1       722 5.89831E-04-1.95107E-04-1.78440E-03
 -1       723 6.36860E-04-2.33026E-04-2.08055E-03
 -1       724 3.39179E-04-1.86977E-04-1.63999E-03
 -1       725 6.83749E-04-2.73453E-04-2.39869E-03
 -1       726 7.30535E-04-3.16447E-04-2.73855E-03
 -1       727 3.90982E-04-2.60863E-04-2.22723E-03
 -1       728 7.77042E-04-3.61830E-04-3.09995E-03
 -1       729 8.22977E-04-4.09780E-04-3.48258E-03
 -1       730 4.46992E-04-3.45633E-04-2.90702E-03
 -1       731 8.68732E-04-4.60188E-04-3.88650E-03
 -1       732 9.14182E-04-5.13138E-04-4.31137E-03
 -1       733 5.02544E-04-4.40481E-04-3.67258E-03
 -1       734 9.59284E-04-5.68453E-04-4.75696E-03
 -1       735 1.00410E-03-6.26200E-04-5.22301E-03
 -1       736 5.57388E-04-5.45507E-04-4.52248E-03
 -1       737 1.04845E-03-6.86269E-04-5.70931E-03
 -1       738 1.09242E-03-7.48787E-04-6.21553E-03
 -1       739 6.11647E-04-6.60315E-04-5.45474E-03
 -1       740 1.13602E-03-8.13487E-04-6.74147E-03
 -1       741 1.17893E-03-8.80534E-04-7.28672E-03
 -1       742 6.65299E-04-7.84713E-04-6.46738E-03
 -1       743 1.23140E-03-9.49637E-04-7.85046E-03
 -1       744 1.27391E-03-1.02124E-03-8.43369E-03
 -1       745 7.27887E-04-9.18167E-04-7.55737E-03
 -1       746 1.31633E-03-1.09483E-03-9.03460E-03
 -1       747 1.35773E-03-1.17077E-03-9.65456E-03
 -1       748 7.91272E-04-1.06071E-03-8.72237E-03
 -1       749 1.39528E-03-1.24877E-03-1.02922E-02
 -1       750 1.43536E-03-1.32889E-03-1.09475E-02
 -1       751 8.40859E-04-1.21221E-03-9.96135E-03
 -1       752 1.47047E-03-1.41129E-03-1.16219E-02
 -1       753 1.50939E-03-1.49550E-03-1.23112E-02
 -1       754 8.83977E-04-1.37254E-03-1.12739E-02
 -1       755 1.54297E-03-1.58165E-03-1.30172E-02
 -1       756 1.58046E-03-1.66975E-03-1.37390E-02
 -1       757 9.24030E-04-1.54113E-03-1.26549E-02
 -1       758 1.61727E-03-1.75965E-03-1.44765E-02
 -1       759 1.65337E-03-1.85147E-03-1.52292E-02
 -1       760 9.66900E-04-1.71727E-03-1.40990E-02
 -1       761 1.68878E-03-1.94503E-03-1.59969E-02
 -1       762 1.72342E-03-2.04042E-03-1.67791E-02
 -1       763 1.01299E-03-1.90084E-03-1.56048E-02
 -1       764 1.75738E-03-2.13741E-03-1.75752E-02
 -1       765 1.79068E-03-2.23611E-03-1.83850E-02
 -1       766 1.05776E-03-2.09155E-03-1.71693E-02
 -1       767 1.82306E-03-2.33639E-03-1.92081E-02
 -1       768 1.85471E-03-2.43829E-03-2.00438E-02
 -1       769 1.10082E-03-2.28892E-03-1.87892E-02
 -1       770 1.88550E-03-2.54162E-03-2.08919E-02
 -1       771 1.91549E-03-2.64648E-03-2.17518E-02
 -1       772 1.14228E-03-2.49263E-03-2.04610E-02
 -1       773 1.94461E-03-2.75269E-03-2.26231E-02
 -1       774 1.97284E-03-2.86034E-03-2.35053E-02
 -1       775 1.18206E-03-2.70224E-03-2.21811E-02
 -1       776 2.00022E-03-2.96920E-03-2.43980E-02
 -1       777 2.02682E-03-3.07937E-03-2.53007E-02
 -1       778 1.22008E-03-2.91737E-03-2.39459E-02
 -1       779 2.05251E-03-3.19065E-03-2.62129E-02
 -1       780 2.07704E-03-3.30307E-03-2.71340E-02
 -1       781 1.25613E-03-3.13750E-03-2.57516E-02
 -1       782 2.10078E-03-3.41652E-03-2.80636E-02
 -1       783 2.12357E-03-3.53116E-03-2.90013E-02
 -1       784 1.29028E-03-3.36209E-03-2.75941E-02
 -1       785 2.14536E-03-3.64662E-03-2.99465E-02
 -1       786 2.16630E-03-3.76304E-03-3.08987E-02
 -1       787 1.32223E-03-3.59095E-03-2.94698E-02
 -1       788 2.18617E-03-3.88025E-03-3.18575E-02
 -1       789 2.20493E-03-3.99828E-03-3.28222E-02
 -1       790 1.35202E-03-3.82336E-03-3.13746E-02
 -1       791 2.22269E-03-4.11698E-03-3.37923E-02
 -1       792 2.23953E-03-4.23639E-03-3.47674E-02
 -1       793 1.37968E-03-4.05892E-03-3.33043E-02
 -1       794 2.25530E-03-4.35637E-03-3.57469E-02
 -1       795 2.26990E-03-4.47690E-03-3.67304E-02
 -1       796 1.40487E-03-4.29716E-03-3.52548E-02
 -1       797 2.29979E-03-4.59658E-03-3.77070E-02
 -1       798 2.31237E-03-4.71798E-03-3.86965E-02
 -1       799 1.44403E-03-4.53626E-03-3.72118E-02
 -1       800 2.29850E-03-4.84600E-03-3.97402E-02
 -1       801 2.30869E-03-4.96801E-03-4.07340E-02
 -1       802 1.45539E-03-4.78337E-03-3.92329E-02
 -1       803 1.71330E-03-5.01223E-03-4.10990E-02
 -1       804-9.92270E-04-2.97803E-03-2.43936E-02
 -1       805-9.85172E-04-2.86932E-03-2.35007E-02
 -1       806-9.77345E-04-2.76178E-03-2.26182E-02
 -1       807-9.68782E-04-2.65563E-03-2.17467E-02
 -1       808-2.54003E-04-2.81357E-03-2.30559E-02
 -1       809-1.02006E-03-3.65336E-03-2.99435E-02
 -1       810-1.01724E-03-3.53842E-03-2.89981E-02
 -1       811-1.02366E-03-3.88567E-03-3.18548E-02
 -1       812-1.02223E-03-3.76918E-03-3.08959E-02
 -1       813-2.35243E-04-3.70988E-03-3.04174E-02
 -1       814 6.08370E-04-4.47713E-03-3.67259E-02
 -1       815 6.32752E-04-4.59627E-03-3.77028E-02
 -1       816 6.48992E-04-4.71077E-03-3.86426E-02
 -1       817-1.88138E-04-4.65100E-03-3.81552E-02
 -1       818 6.31252E-04-4.83815E-03-3.96867E-02
 -1       819-9.15668E-04-2.14623E-03-1.75692E-02
 -1       820-9.03037E-04-2.04916E-03-1.67728E-02
 -1       821-8.89652E-04-1.95372E-03-1.59904E-02
 -1       822-8.75655E-04-1.86007E-03-1.52226E-02
 -1       823-2.52621E-04-1.99960E-03-1.63768E-02
 -1       824 4.17152E-04-2.24133E-03-1.83765E-02
 -1       825 4.27447E-04-2.34166E-03-1.91998E-02
 -1       826 4.37777E-04-2.44351E-03-2.00358E-02
 -1       827 4.48008E-04-2.54690E-03-2.08841E-02
 -1       828-2.55823E-04-2.39446E-03-1.96161E-02
 -1       829 4.98152E-04-3.08427E-03-2.52945E-02
 -1       830 5.07976E-04-3.19542E-03-2.62070E-02
 -1       831 5.17752E-04-3.30760E-03-2.71284E-02
 -1       832 5.27272E-04-3.42100E-03-2.80584E-02
 -1       833-2.47057E-04-3.25328E-03-2.66666E-02
 -1       834 5.90789E-04-4.23811E-03-3.47645E-02
 -1       835 5.99259E-04-4.35755E-03-3.57444E-02
 -1       836 5.73353E-04-4.00091E-03-3.28186E-02
 -1       837 5.82209E-04-4.11927E-03-3.37890E-02
 -1       838-2.18819E-04-4.17933E-03-3.42763E-02
 -1       839 3.38048E-04-1.50059E-03-1.23004E-02
 -1       840 3.44014E-04-1.58679E-03-1.30066E-02
 -1       841 3.54519E-04-1.67480E-03-1.37287E-02
 -1       842 3.65019E-04-1.76478E-03-1.44665E-02
 -1       843-2.44194E-04-1.63244E-03-1.33657E-02
 -1       844-2.88825E-04-1.64709E-04-1.24744E-03
 -1       845-2.61797E-04-1.37864E-04-1.01756E-03
 -1       846-3.16800E-04-1.94468E-04-1.49998E-03
 -1       847-9.87022E-05-1.71043E-04-1.36624E-03
 -1       848-3.43343E-04-2.26963E-04-1.77444E-03
 -1       849-4.47109E-04-3.84263E-04-3.09032E-03
 -1       850-4.21402E-04-3.40906E-04-2.72882E-03
 -1       851-3.95424E-04-3.00194E-04-2.38887E-03
 -1       852-3.70067E-04-2.62260E-04-2.07070E-03
 -1       853-1.32703E-04-3.14662E-04-2.55162E-03
 -1       854 5.06177E-05-3.20433E-05-3.21327E-04
 -1       855 5.95173E-05-4.96574E-05-4.60630E-04
 -1       856-6.36929E-05-7.14689E-05-5.37458E-04
 -1       857 6.89483E-05-6.97681E-05-6.21100E-04
 -1       858 8.12982E-05-9.20732E-05-8.01543E-04
 -1       859-6.37589E-04-8.25194E-04-6.73275E-03
 -1       860-6.15318E-04-7.61327E-04-6.20668E-03
 -1       861-5.92597E-04-6.99818E-04-5.70030E-03
 -1       862-5.69424E-04-6.40869E-04-5.21392E-03
 -1       863-1.89923E-04-7.27792E-04-5.94689E-03
 -1       864-7.16932E-04-1.10352E-03-9.01921E-03
 -1       865-6.98810E-04-1.03057E-03-8.41982E-03
 -1       866-7.37716E-04-1.17954E-03-9.64299E-03
 -1       867-2.12163E-04-1.13941E-03-9.32361E-03
 -1       868-7.60283E-04-1.25720E-03-1.02804E-02
 -1       869-4.97209E-04-4.79148E-04-3.87708E-03
 -1       870-4.72356E-04-4.30418E-04-3.47310E-03
 -1       871-5.45778E-04-5.84394E-04-4.74774E-03
 -1       872-5.21683E-04-5.30495E-04-4.30204E-03
 -1       873-1.63202E-04-5.00757E-04-4.08260E-03
 -1       874 3.07286E-05-6.38143E-06-1.15085E-04
 -1       875 4.09611E-05-1.82067E-05-2.11381E-04
 -1       876 2.45861E-05 3.55288E-07-6.03806E-05
 -1       877-2.99554E-05-1.96027E-05-1.01483E-04
 -1       878 3.99980E-05 1.12530E-05-3.28850E-05
 -1       879 1.17370E-06-2.38479E-06-2.22960E-05
 -1       880-1.78132E-04-7.42525E-05-4.64662E-04
 -1       881-1.49910E-04-5.87460E-05-3.26464E-04
 -1       882-1.24077E-04-4.66726E-05-2.16409E-04
 -1       883-4.64471E-05-3.93607E-05-2.67150E-04
 -1       884-9.42770E-05-3.56421E-05-1.19531E-04
 -1       885-9.90650E-04-4.83672E-03-3.96918E-02
 -1       886-1.00942E-03-4.71141E-03-3.86574E-02
 -1       887-9.99140E-04-4.92969E-03-4.04588E-02
 -1       888-1.81584E-04-4.85853E-03-3.98624E-02
 -1       889-1.41263E-03-4.99458E-03-4.10013E-02
 -1       890-6.01752E-04-5.01687E-03-4.11722E-02
 -1       891-8.29768E-04-1.59010E-03-1.30099E-02
 -1       892-8.13202E-04-1.50406E-03-1.23040E-02
 -1       893-7.93819E-04-1.41972E-03-1.16131E-02
 -1       894-7.81451E-04-1.33727E-03-1.09370E-02
 -1       895-2.36007E-04-1.46006E-03-1.19522E-02
 -1       896-1.02138E-03-4.59741E-03-3.77177E-02
 -1       897-1.01957E-03-4.47727E-03-3.67265E-02
 -1       898-1.02232E-03-4.35808E-03-3.57452E-02
 -1       899-1.02371E-03-4.23917E-03-3.47655E-02
 -1       900-2.08156E-04-4.41734E-03-3.62335E-02
 -1       901 1.27937E-04-2.48766E-04-2.06619E-03
 -1       902 1.37908E-04-2.87980E-04-2.38439E-03
 -1       903 1.12196E-04-1.78815E-04-1.50063E-03
 -1       904 1.18030E-04-2.12231E-04-1.76990E-03
 -1       905-1.16366E-04-2.37478E-04-1.91522E-03
 -1       906 2.29182E-04-7.56077E-04-6.20262E-03
 -1       907 2.39553E-04-8.20391E-04-6.72872E-03
 -1       908 2.49950E-04-8.86997E-04-7.27418E-03
 -1       909 2.70164E-04-9.55886E-04-7.83795E-03
 -1       910-2.01854E-04-8.56012E-04-6.99900E-03
 -1       911 3.23260E-04-1.33393E-03-1.09348E-02
 -1       912 3.29539E-04-1.41634E-03-1.16094E-02
 -1       913 3.15126E-04-1.25386E-03-1.02782E-02
 -1       914-2.24118E-04-1.29562E-03-1.06044E-02
 -1       915 3.07517E-04-1.17595E-03-9.64030E-03
 -1       916 1.68060E-04-4.21147E-04-3.46871E-03
 -1       917 1.78085E-04-4.70762E-04-3.87277E-03
 -1       918 1.47883E-04-3.29798E-04-2.72438E-03
 -1       919 1.57968E-04-3.74207E-04-3.08587E-03
 -1       920-1.48372E-04-4.02467E-04-3.27459E-03
 -1       921 2.08637E-04-6.34559E-04-5.20973E-03
 -1       922 2.18873E-04-6.94131E-04-5.69621E-03
 -1       923 1.88208E-04-5.22828E-04-4.29778E-03
 -1       924 1.98433E-04-5.77500E-04-4.74350E-03
 -1       925-1.77042E-04-6.09277E-04-4.97402E-03
 -1       926-3.45027E-05-1.63496E-05-2.27182E-05
 -1       927-7.58802E-05-3.14360E-05-3.67676E-05
 -1       928-7.23113E-05-2.88800E-05-6.42970E-05
 -1       929 2.12404E-04-5.02222E-03-4.12022E-02
 -1       930 1.02701E-03-5.00223E-03-4.10261E-02
 -1       931 6.24650E-04-4.93167E-03-4.04537E-02
 -1       932 4.78341E-04-2.86540E-03-2.34986E-02
 -1       933 4.88262E-04-2.97429E-03-2.43916E-02
 -1       934 4.58153E-04-2.65167E-03-2.17444E-02
 -1       935 4.68278E-04-2.75791E-03-2.26160E-02
 -1       936 5.36736E-04-3.53524E-03-2.89965E-02
 -1       937 5.46064E-04-3.65050E-03-2.99420E-02
 -1       938 5.55265E-04-3.76652E-03-3.08945E-02
 -1       939 5.64374E-04-3.88338E-03-3.18536E-02
 -1       940 3.96397E-04-2.04553E-03-1.67699E-02
 -1       941 4.06826E-04-2.14267E-03-1.75664E-02
 -1       942 3.75453E-04-1.85656E-03-1.52195E-02
 -1       943 3.85918E-04-1.95017E-03-1.59875E-02
 -1       944-9.38994E-04-2.34540E-03-1.92024E-02
 -1       945-9.27669E-04-2.24503E-03-1.83792E-02
 -1       946-9.59592E-04-2.55076E-03-2.08866E-02
 -1       947-9.49717E-04-2.44744E-03-2.00383E-02
 -1       948-1.00444E-03-3.19901E-03-2.62088E-02
 -1       949-9.98649E-04-3.08803E-03-2.52965E-02
 -1       950-1.01368E-03-3.42429E-03-2.80601E-02
 -1       951-1.00941E-03-3.31121E-03-2.71302E-02
 -1       952-2.34598E-04-1.13809E-04-8.09622E-04
 -1       953-2.05978E-04-9.25338E-05-6.25019E-04
 -1       954-8.13014E-05-1.15561E-04-9.05574E-04
 -1       955 1.02659E-04-1.47476E-04-1.24765E-03
 -1       956 9.21327E-05-1.17826E-04-1.00916E-03
 -1       957-2.51126E-04-3.03113E-03-2.48418E-02
 -1       958-8.61097E-04-1.76812E-03-1.44697E-02
 -1       959-8.45721E-04-1.67820E-03-1.37320E-02
 -1       960-2.54877E-04-2.19378E-03-1.79698E-02
 -1       961-6.83684E-04-9.60266E-04-7.84234E-03
 -1       962-6.59263E-04-8.91604E-04-7.27814E-03
 -1       963-2.07320E-04-9.92975E-04-8.12238E-03
 -1       964 2.86190E-04-1.02637E-03-8.41554E-03
 -1       965 2.97729E-04-1.09979E-03-9.01646E-03
 -1       966-2.41795E-04-3.47972E-03-2.85265E-02
 -1       967-1.02446E-03-4.12073E-03-3.37901E-02
 -1       968-1.02437E-03-4.00296E-03-3.28198E-02
 -1       969-2.27597E-04-3.94321E-03-3.23353E-02
 -1       970-2.49018E-04-1.81236E-03-1.48411E-02
 -1       971-2.55541E-04-2.60120E-03-2.13128E-02
 -1       972-9.88039E-04-2.74321E-03-2.26935E-02
 -1       973-1.02753E-03-3.64628E-03-3.00313E-02
 -1       974 2.28583E-03-4.61901E-03-3.77918E-02
 -1       975-9.03371E-04-1.92402E-03-1.60495E-02
 -1       976-9.51228E-04-2.32125E-03-1.92699E-02
 -1       977-1.01355E-03-3.18619E-03-2.62911E-02
 -1       978 2.19620E-03-4.14893E-03-3.38843E-02
 -1       979 1.54144E-03-1.65626E-03-1.30668E-02
 -1       980-3.09914E-04-1.07165E-04-1.25307E-03
 -1       981-4.14331E-04-2.45330E-04-2.39956E-03
 -1       982 3.28180E-04-1.22237E-04-4.75795E-04
 -1       983-6.10464E-04-6.51533E-04-5.72488E-03
 -1       984-7.40837E-04-1.06170E-03-9.05966E-03
 -1       985-5.15647E-04-4.27263E-04-3.89428E-03
 -1       986 1.35226E-04-5.67691E-05-5.21548E-05
 -1       987-1.41366E-04 1.31537E-05-2.10274E-04
 -1       988-9.92523E-04-4.85610E-03-3.98868E-02
 -1       989 1.98377E-03-3.02096E-03-2.44765E-02
 -1       990-8.11543E-04-1.38254E-03-1.16603E-02
 -1       991-1.02699E-03-4.35960E-03-3.58392E-02
 -1       992 1.74939E-03-2.20297E-03-1.76380E-02
 -1       993 2.08017E-03-3.46074E-03-2.81485E-02
 -1       994 1.87322E-03-2.60055E-03-2.09629E-02
 -1       995 6.09742E-04-2.91993E-04-1.79148E-03
 -1       996 1.14473E-03-9.00411E-04-6.76925E-03
 -1       997 1.40669E-03-1.32940E-03-1.03309E-02
 -1       998 7.93361E-04-4.56040E-04-3.11287E-03
 -1       999 9.72273E-04-6.59296E-04-4.77700E-03
 -1      1000-1.36131E-05 8.64846E-06 1.39064E-05
 -1      1001 1.43394E-03-5.04709E-03-4.13737E-02
 -1      1002 2.34585E-04-8.61144E-05-2.18996E-04
 -1      1003-1.97475E-04-1.50023E-05-4.65036E-04
 -1      1004-2.55200E-04-5.50890E-05-8.13615E-04
 -1      1005 9.60620E-05-1.39083E-04-1.01733E-03
 -1      1006-1.03047E-03-4.60246E-03-3.78194E-02
 -1      1007-1.00218E-03-2.96235E-03-2.44725E-02
 -1      1008 2.12275E-03-3.68681E-03-3.00342E-02
 -1      1009 1.68296E-03-2.01378E-03-1.60554E-02
 -1      1010 1.47566E-03-1.48904E-03-1.16671E-02
 -1      1011-8.44695E-04-1.55523E-03-1.30602E-02
 -1      1012-9.28711E-04-2.11930E-03-1.76325E-02
 -1      1013 1.61352E-03-1.83143E-03-1.45305E-02
 -1      1014-4.65603E-04-3.30913E-04-3.10413E-03
 -1      1015-6.54945E-04-7.78915E-04-6.76135E-03
 -1      1016-7.04157E-04-9.15503E-04-7.87473E-03
 -1      1017 2.86698E-04-1.04669E-03-8.44557E-03
 -1      1018 1.05934E-03-7.75240E-04-5.73313E-03
 -1      1019 1.81287E-03-2.39874E-03-1.92751E-02
 -1      1020-1.02195E-03-3.41434E-03-2.81453E-02
 -1      1021-7.86557E-04-1.21676E-03-1.03209E-02
 -1      1022 2.22685E-03-4.38407E-03-3.58406E-02
 -1      1023-1.02992E-03-4.11947E-03-3.38824E-02
 -1      1024 8.83612E-04-5.52795E-04-3.90294E-03
 -1      1025 7.02237E-04-3.69029E-04-2.40856E-03
 -1      1026-1.03020E-03-3.88148E-03-3.19451E-02
 -1      1027 1.93018E-03-2.80811E-03-2.26980E-02
 -1      1028-3.63260E-04-1.70614E-04-1.78226E-03
 -1      1029-8.75309E-04-1.73583E-03-1.45243E-02
 -1      1030-5.63993E-04-5.34222E-04-4.76849E-03
 -1      1031 2.16144E-03-3.91638E-03-3.19475E-02
 -1      1032-9.71064E-04-2.52934E-03-2.09581E-02
 -1      1033 2.03383E-03-3.23861E-03-2.62946E-02
 -1      1034 3.63079E-05-2.62560E-05-1.21278E-04
 -1      1035 5.60075E-05-5.23408E-05-3.22157E-04
 -1      1036 5.26030E-04-2.27373E-04-1.27231E-03
 -1      1037 4.30663E-05-2.38294E-05 1.05626E-05
 -1      1038 1.24861E-03-1.03556E-03-7.88177E-03
 -1      1039 3.05646E-04-1.19657E-03-9.67904E-03
 -1      1040 6.41952E-04-4.71913E-03-3.86960E-02
 -1      1041 4.26926E-04-1.68425E-04-8.16462E-04
 -1      1042 6.09680E-04-4.49109E-03-3.68182E-02
 -1      1043 1.14404E-04-1.98687E-04-1.50240E-03
 -1      1044 5.38536E-04-3.55199E-03-2.90832E-02
 -1      1045 5.56749E-04-3.78263E-03-3.09836E-02
 -1      1046 5.00534E-04-3.10191E-03-2.53751E-02
 -1      1047 5.91603E-04-4.25300E-03-3.48579E-02
 -1      1048 4.20699E-04-2.26041E-03-1.84420E-02
 -1      1049 3.58768E-04-1.69454E-03-1.37813E-02
 -1      1050 4.40980E-04-2.46229E-03-2.01053E-02
 -1      1051 4.61162E-04-2.67015E-03-2.18178E-02
 -1      1052 5.74524E-04-4.01653E-03-3.29099E-02
 -1      1053 5.19818E-04-3.32494E-03-2.72122E-02
 -1      1054 3.21443E-04-1.35432E-03-1.09792E-02
 -1      1055 1.34206E-04-2.69057E-04-2.07552E-03
 -1      1056 1.54020E-04-3.50107E-04-2.73672E-03
 -1      1057 3.79557E-04-1.87613E-03-1.52764E-02
 -1      1058 1.94068E-04-5.43173E-04-4.31689E-03
 -1      1059 2.14363E-04-6.54850E-04-5.23252E-03
 -1      1060 1.73936E-04-4.41550E-04-3.48433E-03
 -1      1061 4.00159E-04-2.06490E-03-1.68312E-02
 -1      1062 4.81045E-04-2.88352E-03-2.35757E-02
 -1      1063 2.34740E-04-7.76327E-04-6.22929E-03
 -1      1064 3.38034E-04-1.52047E-03-1.23487E-02
 -1      1065 2.55264E-04-9.07312E-04-7.30495E-03
 -1      1066 1.33269E-03-1.17834E-03-9.06920E-03
 -1      1067 7.49537E-05-8.98921E-05-6.22090E-04
 -1      1068-1.95575E-04-5.03402E-03-4.13135E-02
 -1      1069-8.27390E-05 2.74168E-05-4.39928E-05
 -1      1070 2.25736E-03-4.86998E-03-3.98780E-02
 -1      1071 2.31801E-05-1.32174E-05-2.10582E-05
 -1      1072 7.81108E-05-4.45537E-05-2.80221E-06
 -1      1073-5.50921E-05 3.41542E-05 4.98115E-06
 -1      1074-1.52857E-03-5.05314E-03-4.15092E-02
 -1      1075 2.80759E-03-5.06957E-03-4.15197E-02
 -1      1076 6.29093E-04-4.90516E-03-4.02286E-02
 -1      1077 4.74982E-05-3.36059E-05-2.89509E-06
 -1      1078 3.53132E-05-2.66802E-05 7.68832E-06
 -1      1079 1.21459E-04-6.14919E-05-2.25440E-05
 -1      1080-2.38802E-05 1.98068E-05 1.04668E-05
 -1      1081-3.64242E-05 2.81811E-05 2.57098E-06
 -1      1082-9.14233E-05 5.02746E-05-1.05344E-05
 -1      1083 2.56972E-03-5.14442E-03-4.21498E-02
 -1      1084 3.41305E-03-5.14741E-03-4.21504E-02
 -1      1085 3.40438E-03-5.02803E-03-4.11546E-02
 -1      1086-2.12020E-03-5.12928E-03-4.21451E-02
 -1      1087-1.27674E-03-5.13236E-03-4.21446E-02
 -1      1088-2.12606E-03-5.00629E-03-4.11489E-02
 -1      1089-1.22515E-06 2.03716E-06 1.65903E-05
 -1      1090-1.46024E-05 1.26058E-05 1.52924E-05
 -1      1091-3.57630E-05 2.20828E-05 1.10662E-05
 -1      1092 2.66611E-05-1.93602E-05 1.24778E-05
 -1      1093 1.41501E-05-9.17959E-06 1.71244E-05
 -1      1094 1.39136E-05-7.52123E-06 1.43043E-05
 -1      1095 6.17231E-05-3.54016E-05 5.20293E-06
 -1      1096-6.10037E-04-5.12255E-03-4.20463E-02
 -1      1097 2.29000E-04-5.12505E-03-4.20460E-02
 -1      1098-8.61335E-04-5.04360E-03-4.14113E-02
 -1      1099 1.04373E-03-5.13109E-03-4.20761E-02
 -1      1100 1.88272E-03-5.13354E-03-4.20764E-02
 -1      1101 6.19315E-04-5.04061E-03-4.13435E-02
 -1      1102 2.12010E-03-5.05834E-03-4.14466E-02
 -1      1103-1.18926E-04 4.98854E-05-3.21766E-05
 -1      1104-1.64096E-04 5.00951E-05-8.69376E-05
 -1      1105-7.40199E-05 3.41695E-05-1.08625E-05
 -1      1106-2.13786E-04 4.46193E-05-1.70600E-04
 -1      1107-2.60825E-04 3.50785E-05-2.75190E-04
 -1      1108-1.11644E-04 2.22786E-05-1.14108E-04
 -1      1109-3.08473E-04 2.20255E-05-4.02644E-04
 -1      1110-3.56195E-04 5.68632E-06-5.53794E-04
 -1      1111-1.69312E-04 5.92524E-07-3.26104E-04
 -1      1112-4.04654E-04-1.35597E-05-7.28180E-04
 -1      1113-4.52004E-04-3.59564E-05-9.24969E-04
 -1      1114-2.26317E-04-3.35810E-05-6.27847E-04
 -1      1115-4.98700E-04-6.13694E-05-1.14469E-03
 -1      1116-5.45368E-04-8.96629E-05-1.38661E-03
 -1      1117-2.82723E-04-7.96789E-05-1.02202E-03
 -1      1118-5.91209E-04-1.20912E-04-1.65116E-03
 -1      1119-6.36973E-04-1.54991E-04-1.93772E-03
 -1      1120-3.36764E-04-1.37453E-04-1.50648E-03
 -1      1121-6.81430E-04-1.92093E-04-2.24629E-03
 -1      1122-7.26247E-04-2.31854E-04-2.57681E-03
 -1      1123-3.88991E-04-2.06567E-04-2.07992E-03
 -1      1124-7.70552E-04-2.74521E-04-2.92900E-03
 -1      1125-8.14430E-04-3.19889E-04-3.30278E-03
 -1      1126-4.40149E-04-2.86749E-04-2.74102E-03
 -1      1127-8.57691E-04-3.68051E-04-3.69778E-03
 -1      1128-9.00339E-04-4.18909E-04-4.11394E-03
 -1      1129-4.90860E-04-3.77751E-04-3.48860E-03
 -1      1130-9.42359E-04-4.72485E-04-4.55096E-03
 -1      1131-9.83690E-04-5.28714E-04-5.00866E-03
 -1      1132-5.40059E-04-4.79450E-04-4.32103E-03
 -1      1133-1.02437E-03-5.87587E-04-5.48677E-03
 -1      1134-1.06431E-03-6.49034E-04-5.98504E-03
 -1      1135-5.87444E-04-5.91594E-04-5.23654E-03
 -1      1136-1.10355E-03-7.13055E-04-6.50316E-03
 -1      1137-1.14203E-03-7.79542E-04-7.04090E-03
 -1      1138-6.32946E-04-7.13991E-04-6.23323E-03
 -1      1139-1.18303E-03-8.48200E-04-7.59754E-03
 -1      1140-1.22001E-03-9.19634E-04-8.17356E-03
 -1      1141-6.79745E-04-8.45978E-04-7.30844E-03
 -1      1142-1.25416E-03-9.93212E-04-8.76594E-03
 -1      1143-1.28939E-03-1.06932E-03-9.37899E-03
 -1      1144-7.22850E-04-9.87427E-04-8.45797E-03
 -1      1145-1.32750E-03-1.14740E-03-1.00096E-02
 -1      1146-1.36110E-03-1.22807E-03-1.06584E-02
 -1      1147-7.63927E-04-1.13809E-03-9.68133E-03
 -1      1148-1.38826E-03-1.31160E-03-1.13280E-02
 -1      1149-1.41988E-03-1.39657E-03-1.20112E-02
 -1      1150-7.99535E-04-1.29860E-03-1.09819E-02
 -1      1151-1.45056E-03-1.48362E-03-1.27110E-02
 -1      1152-1.48025E-03-1.57273E-03-1.34271E-02
 -1      1153-8.28422E-04-1.46785E-03-1.23520E-02
 -1      1154-1.50899E-03-1.66379E-03-1.41591E-02
 -1      1155-1.53667E-03-1.75679E-03-1.49065E-02
 -1      1156-8.60318E-04-1.64458E-03-1.37844E-02
 -1      1157-1.56335E-03-1.85166E-03-1.56689E-02
 -1      1158-1.58901E-03-1.94838E-03-1.64461E-02
 -1      1159-8.89711E-04-1.82904E-03-1.52795E-02
 -1      1160-1.61363E-03-2.04683E-03-1.72374E-02
 -1      1161-1.63719E-03-2.14698E-03-1.80426E-02
 -1      1162-9.16407E-04-2.02081E-03-1.68340E-02
 -1      1163-1.65974E-03-2.24878E-03-1.88612E-02
 -1      1164-1.68120E-03-2.35222E-03-1.96927E-02
 -1      1165-9.40351E-04-2.21945E-03-1.84446E-02
 -1      1166-1.70156E-03-2.45711E-03-2.05367E-02
 -1      1167-1.72080E-03-2.56352E-03-2.13926E-02
 -1      1168-9.61508E-04-2.42453E-03-2.01079E-02
 -1      1169-1.73895E-03-2.67129E-03-2.22602E-02
 -1      1170-1.75595E-03-2.78046E-03-2.31389E-02
 -1      1171-9.79901E-04-2.63559E-03-2.18202E-02
 -1      1172-1.77185E-03-2.89086E-03-2.40283E-02
 -1      1173-1.78661E-03-3.00256E-03-2.49278E-02
 -1      1174-9.95474E-04-2.85215E-03-2.35778E-02
 -1      1175-1.80033E-03-3.11532E-03-2.58369E-02
 -1      1176-1.81272E-03-3.22917E-03-2.67551E-02
 -1      1177-1.00820E-03-3.07374E-03-2.53771E-02
 -1      1178-1.82402E-03-3.34406E-03-2.76821E-02
 -1      1179-1.83420E-03-3.45999E-03-2.86173E-02
 -1      1180-1.01814E-03-3.29979E-03-2.72140E-02
 -1      1181-1.84323E-03-3.57674E-03-2.95601E-02
 -1      1182-1.85114E-03-3.69433E-03-3.05102E-02
 -1      1183-1.02513E-03-3.52994E-03-2.90847E-02
 -1      1184-1.85784E-03-3.81271E-03-3.14669E-02
 -1      1185-1.86338E-03-3.93179E-03-3.24298E-02
 -1      1186-1.02926E-03-3.76352E-03-3.09850E-02
 -1      1187-1.86782E-03-4.05147E-03-3.33983E-02
 -1      1188-1.87108E-03-4.17188E-03-3.43719E-02
 -1      1189-1.03046E-03-4.00014E-03-3.29111E-02
 -1      1190-1.87318E-03-4.29262E-03-3.53501E-02
 -1      1191-1.87415E-03-4.41384E-03-3.63324E-02
 -1      1192-1.02886E-03-4.23935E-03-3.48587E-02
 -1      1193-1.87858E-03-4.53590E-03-3.73223E-02
 -1      1194-1.87724E-03-4.65785E-03-3.83111E-02
 -1      1195-1.02910E-03-4.48090E-03-3.68277E-02
 -1      1196-1.86015E-03-4.78519E-03-3.93445E-02
 -1      1197-1.85638E-03-4.90751E-03-4.03378E-02
 -1      1198-1.01196E-03-4.72922E-03-3.88519E-02
 -1      1199-1.26048E-03-4.95442E-03-4.06976E-02
 -1      1200 2.27293E-04-8.56277E-05-1.00498E-04
 -1      1201 1.63184E-04-7.02780E-05-4.45076E-05
 -1      1202 1.11603E-04-5.23506E-05-1.94907E-05
 -1      1203 3.63530E-04-1.19147E-04-2.89205E-04
 -1      1204 2.97073E-04-1.01970E-04-1.84580E-04
 -1      1205 1.84411E-04-7.03956E-05-1.22744E-04
 -1      1206 4.96796E-04-1.59717E-04-5.68831E-04
 -1      1207 4.30044E-04-1.38190E-04-4.17624E-04
 -1      1208 2.81460E-04-1.02940E-04-3.35753E-04
 -1      1209 6.32293E-04-2.09969E-04-9.35772E-04
 -1      1210 5.65148E-04-1.83556E-04-7.39429E-04
 -1      1211 3.77256E-04-1.44086E-04-6.35167E-04
 -1      1212 7.68020E-04-2.71607E-04-1.40589E-03
 -1      1213 7.01679E-04-2.40105E-04-1.16363E-03
 -1      1214 4.76555E-04-1.96511E-04-1.03222E-03
 -1      1215 8.94211E-04-3.40714E-04-1.95161E-03
 -1      1216 8.28620E-04-3.04315E-04-1.66508E-03
 -1      1217 5.68314E-04-2.58481E-04-1.52113E-03
 -1      1218 1.02404E-03-4.20834E-04-2.59039E-03
 -1      1219 9.59350E-04-3.79552E-04-2.26006E-03
 -1      1220 6.56140E-04-3.29256E-04-2.08903E-03
 -1      1221 1.15196E-03-5.10628E-04-3.31610E-03
 -1      1222 1.08826E-03-4.64516E-04-2.94244E-03
 -1      1223 7.47954E-04-4.11276E-04-2.74992E-03
 -1      1224 1.27809E-03-6.09909E-04-4.12702E-03
 -1      1225 1.21528E-03-5.59045E-04-3.71100E-03
 -1      1226 8.38656E-04-5.03201E-04-3.49730E-03
 -1      1227 1.40191E-03-7.18578E-04-5.02143E-03
 -1      1228 1.34026E-03-6.63073E-04-4.56392E-03
 -1      1229 9.28101E-04-6.04856E-04-4.32958E-03
 -1      1230 1.52322E-03-8.36470E-04-5.99746E-03
 -1      1231 1.46289E-03-7.76396E-04-5.49936E-03
 -1      1232 1.01601E-03-7.16072E-04-5.24493E-03
 -1      1233 1.64188E-03-9.63364E-04-7.05293E-03
 -1      1234 1.58293E-03-8.98815E-04-6.51536E-03
 -1      1235 1.10228E-03-8.36669E-04-6.24132E-03
 -1      1236 1.76788E-03-1.09944E-03-8.18491E-03
 -1      1237 1.71003E-03-1.03055E-03-7.60911E-03
 -1      1238 1.19658E-03-9.66910E-04-7.31596E-03
 -1      1239 1.88173E-03-1.24353E-03-9.39135E-03
 -1      1240 1.82551E-03-1.17044E-03-8.77853E-03
 -1      1241 1.29090E-03-1.10590E-03-8.46625E-03
 -1      1242 1.98819E-03-1.39577E-03-1.06707E-02
 -1      1243 1.93378E-03-1.31855E-03-1.00221E-02
 -1      1244 1.37004E-03-1.25283E-03-9.69114E-03
 -1      1245 2.08973E-03-1.55623E-03-1.20215E-02
 -1      1246 2.03728E-03-1.47501E-03-1.13385E-02
 -1      1247 1.44157E-03-1.40820E-03-1.09903E-02
 -1      1248 2.18709E-03-1.72421E-03-1.34369E-02
 -1      1249 2.13665E-03-1.63925E-03-1.27211E-02
 -1      1250 1.50900E-03-1.57171E-03-1.23586E-02
 -1      1251 2.28497E-03-1.89982E-03-1.49158E-02
 -1      1252 2.23653E-03-1.81112E-03-1.41686E-02
 -1      1253 1.57783E-03-1.74289E-03-1.37908E-02
 -1      1254 2.37864E-03-2.08241E-03-1.64549E-02
 -1      1255 2.33235E-03-1.99027E-03-1.56780E-02
 -1      1256 1.64862E-03-1.92172E-03-1.52856E-02
 -1      1257 2.46802E-03-2.27177E-03-1.80509E-02
 -1      1258 2.42392E-03-2.17630E-03-1.72460E-02
 -1      1259 1.71655E-03-2.10754E-03-1.68397E-02
 -1      1260 2.55274E-03-2.46748E-03-1.97004E-02
 -1      1261 2.51099E-03-2.36885E-03-1.88692E-02
 -1      1262 1.78151E-03-2.30006E-03-1.84500E-02
 -1      1263 2.63275E-03-2.66921E-03-2.13998E-02
 -1      1264 2.59331E-03-2.56764E-03-2.05441E-02
 -1      1265 1.84347E-03-2.49890E-03-2.01129E-02
 -1      1266 2.70774E-03-2.87650E-03-2.31455E-02
 -1      1267 2.67085E-03-2.77222E-03-2.22671E-02
 -1      1268 1.90211E-03-2.70366E-03-2.18248E-02
 -1      1269 2.77769E-03-3.08904E-03-2.49337E-02
 -1      1270 2.74341E-03-2.98216E-03-2.40345E-02
 -1      1271 1.95740E-03-2.91388E-03-2.35820E-02
 -1      1272 2.84236E-03-3.30633E-03-2.67605E-02
 -1      1273 2.81065E-03-3.19714E-03-2.58425E-02
 -1      1274 2.00927E-03-3.12920E-03-2.53809E-02
 -1      1275 2.90166E-03-3.52795E-03-2.86220E-02
 -1      1276 2.87272E-03-3.41664E-03-2.76872E-02
 -1      1277 2.05745E-03-3.34915E-03-2.72174E-02
 -1      1278 2.95543E-03-3.75349E-03-3.05143E-02
 -1      1279 2.92927E-03-3.64027E-03-2.95646E-02
 -1      1280 2.10191E-03-3.57329E-03-2.90876E-02
 -1      1281 3.00344E-03-3.98246E-03-3.24332E-02
 -1      1282 2.98015E-03-3.86759E-03-3.14707E-02
 -1      1283 2.14258E-03-3.80119E-03-3.09876E-02
 -1      1284 3.04571E-03-4.21442E-03-3.43747E-02
 -1      1285 3.02526E-03-4.09813E-03-3.34014E-02
 -1      1286 2.17935E-03-4.03231E-03-3.29133E-02
 -1      1287 3.08214E-03-4.44889E-03-3.63345E-02
 -1      1288 3.06469E-03-4.33138E-03-3.53526E-02
 -1      1289 2.21201E-03-4.26621E-03-3.48604E-02
 -1      1290 3.12880E-03-4.68426E-03-3.82983E-02
 -1      1291 3.11431E-03-4.56582E-03-3.73099E-02
 -1      1292 2.25679E-03-4.50134E-03-3.68146E-02
 -1      1293 3.12767E-03-4.92846E-03-4.03339E-02
 -1      1294 3.11644E-03-4.80926E-03-3.93410E-02
 -1      1295 2.27228E-03-4.74431E-03-3.88337E-02
 -1      1296 2.53253E-03-4.96982E-03-4.06984E-02
 -1      1297-2.57541E-04-2.81372E-03-2.31322E-02
 -1      1298-2.56113E-04-2.92253E-03-2.40218E-02
 -1      1299-2.59391E-04-2.60010E-03-2.13853E-02
 -1      1300-2.58609E-04-2.70628E-03-2.22532E-02
 -1      1301 4.71129E-04-2.77621E-03-2.26914E-02
 -1      1302-2.44523E-04-3.48349E-03-2.86125E-02
 -1      1303-2.41281E-04-3.59880E-03-2.95557E-02
 -1      1304-2.37771E-04-3.71473E-03-3.05059E-02
 -1      1305-2.33905E-04-3.83169E-03-3.14630E-02
 -1      1306 5.47731E-04-3.66690E-03-3.00299E-02
 -1      1307 1.44621E-03-4.55532E-03-3.73044E-02
 -1      1308 1.41934E-03-4.43728E-03-3.63286E-02
 -1      1309 6.25886E-04-4.60498E-03-3.77558E-02
 -1      1310 1.46447E-03-4.66889E-03-3.82433E-02
 -1      1311 1.44852E-03-4.79487E-03-3.92866E-02
 -1      1312-2.57169E-04-1.99476E-03-1.64371E-02
 -1      1313-2.58387E-04-2.09168E-03-1.72287E-02
 -1      1314-2.53845E-04-1.80628E-03-1.48969E-02
 -1      1315-2.55689E-04-1.89967E-03-1.56597E-02
 -1      1316 3.89854E-04-1.96962E-03-1.60466E-02
 -1      1317-2.59229E-04-2.19018E-03-1.80342E-02
 -1      1318-2.59698E-04-2.29043E-03-1.88530E-02
 -1      1319-2.59944E-04-2.39211E-03-1.96848E-02
 -1      1320-2.59821E-04-2.49543E-03-2.05290E-02
 -1      1321 4.30868E-04-2.36063E-03-1.92673E-02
 -1      1322-2.54416E-04-3.03250E-03-2.49216E-02
 -1      1323-2.52419E-04-3.14365E-03-2.58311E-02
 -1      1324-2.50170E-04-3.25583E-03-2.67496E-02
 -1      1325-2.47482E-04-3.36923E-03-2.76769E-02
 -1      1326 5.10186E-04-3.21283E-03-2.62892E-02
 -1      1327 1.40732E-03-4.31879E-03-3.53484E-02
 -1      1328 1.39550E-03-4.20066E-03-3.43700E-02
 -1      1329 1.38307E-03-4.08302E-03-3.33961E-02
 -1      1330 1.36995E-03-3.96615E-03-3.24274E-02
 -1      1331 5.83150E-04-4.13445E-03-3.38815E-02
 -1      1332 9.32943E-04-1.58865E-03-1.27041E-02
 -1      1333 9.13626E-04-1.50447E-03-1.20040E-02
 -1      1334 9.79686E-04-1.76323E-03-1.41525E-02
 -1      1335 9.56491E-04-1.67503E-03-1.34204E-02
 -1      1336 3.48407E-04-1.60656E-03-1.30570E-02
 -1      1337-8.91324E-05-9.67341E-05-9.10280E-04
 -1      1338-9.76111E-05-1.23384E-04-1.13006E-03
 -1      1339 1.05273E-04-1.67530E-04-1.24860E-03
 -1      1340-1.07126E-04-1.52641E-04-1.37262E-03
 -1      1341-1.15240E-04-1.84853E-04-1.63728E-03
 -1      1342-1.39114E-04-2.97589E-04-2.56322E-03
 -1      1343-1.46952E-04-3.40541E-04-2.91557E-03
 -1      1344-1.23698E-04-2.19651E-04-1.92390E-03
 -1      1345-1.31034E-04-2.57327E-04-2.23259E-03
 -1      1346 1.44083E-04-3.08282E-04-2.39524E-03
 -1      1347 1.82823E-04-8.67671E-05-3.93815E-04
 -1      1348 1.54906E-04-6.96986E-05-2.65256E-04
 -1      1349 2.10973E-04-1.06334E-04-5.43851E-04
 -1      1350 6.54852E-05-6.97549E-05-4.60839E-04
 -1      1351 2.41753E-04-1.28740E-04-7.14202E-04
 -1      1352-1.95934E-04-7.14028E-04-5.97257E-03
 -1      1353-2.01934E-04-7.77432E-04-6.49090E-03
 -1      1354-1.83143E-04-5.94582E-04-4.99588E-03
 -1      1355-1.89646E-04-6.53078E-04-5.47414E-03
 -1      1356 2.24528E-04-7.14390E-04-5.72091E-03
 -1      1357-2.16284E-04-9.81281E-04-8.15591E-03
 -1      1358-2.19171E-04-1.05394E-03-8.74835E-03
 -1      1359 2.96208E-04-1.12053E-03-9.05309E-03
 -1      1360-2.24967E-04-1.12932E-03-9.36519E-03
 -1      1361-2.32903E-04-1.20637E-03-9.99592E-03
 -1      1362-1.54669E-04-3.86123E-04-3.28936E-03
 -1      1363-1.62138E-04-4.34392E-04-3.68454E-03
 -1      1364-1.69354E-04-4.85202E-04-4.10084E-03
 -1      1365-1.76388E-04-5.38651E-04-4.53804E-03
 -1      1366 1.83982E-04-4.91093E-04-3.89012E-03
 -1      1367 1.27176E-04-5.56715E-05-1.65406E-04
 -1      1368 9.69534E-05-4.25410E-05-8.01604E-05
 -1      1369 2.99249E-05-1.89652E-05-6.41831E-05
 -1      1370 7.61022E-05-3.47099E-05-3.37303E-05
 -1      1371 3.79956E-05-1.92600E-05-1.14670E-06
 -1      1372 8.25476E-05-3.90886E-05-1.36999E-05
 -1      1373-5.21975E-05-1.90351E-05-2.60936E-04
 -1      1374-6.15358E-05-3.40782E-05-3.88449E-04
 -1      1375 4.60100E-05-3.80430E-05-2.11176E-04
 -1      1376-4.43595E-05-7.09120E-06-1.61137E-04
 -1      1377-3.41982E-05 2.08027E-06-7.60832E-05
 -1      1378-1.94782E-04-4.66104E-03-3.82572E-02
 -1      1379-1.74064E-04-4.78731E-03-3.92909E-02
 -1      1380 6.35601E-04-4.81211E-03-3.94618E-02
 -1      1381-1.81401E-04-4.88075E-03-4.00576E-02
 -1      1382-5.94321E-04-4.94519E-03-4.05998E-02
 -1      1383 2.16993E-04-4.96941E-03-4.07709E-02
 -1      1384 1.22799E-03-2.95258E-03-2.40239E-02
 -1      1385 1.20972E-03-2.84543E-03-2.31344E-02
 -1      1386 1.26323E-03-3.17059E-03-2.58329E-02
 -1      1387 1.24582E-03-3.06107E-03-2.49236E-02
 -1      1388 4.90815E-04-2.99215E-03-2.44705E-02
 -1      1389-2.43360E-04-1.45178E-03-1.20007E-02
 -1      1390-2.46430E-04-1.53752E-03-1.27008E-02
 -1      1391-2.39641E-04-1.28577E-03-1.06460E-02
 -1      1392-2.37841E-04-1.36811E-03-1.13159E-02
 -1      1393 3.29795E-04-1.43641E-03-1.16555E-02
 -1      1394-2.09758E-04-4.42559E-03-3.63278E-02
 -1      1395-2.08884E-04-4.54646E-03-3.73181E-02
 -1      1396-2.20656E-04-4.18652E-03-3.43691E-02
 -1      1397-2.15681E-04-4.30598E-03-3.53476E-02
 -1      1398 6.00670E-04-4.37176E-03-3.58361E-02
 -1      1399 1.06889E-03-2.13424E-03-1.72315E-02
 -1      1400 1.04720E-03-2.03894E-03-1.64400E-02
 -1      1401 1.11124E-03-2.32991E-03-1.88557E-02
 -1      1402 1.09029E-03-2.23129E-03-1.80369E-02
 -1      1403 4.10426E-04-2.16181E-03-1.76298E-02
 -1      1404 1.32742E-03-3.61973E-03-2.95571E-02
 -1      1405 1.31219E-03-3.50599E-03-2.86140E-02
 -1      1406 1.29637E-03-3.39313E-03-2.76786E-02
 -1      1407 1.28007E-03-3.28140E-03-2.67514E-02
 -1      1408 5.29201E-04-3.43794E-03-2.81437E-02
 -1      1409 1.15199E-03-2.53179E-03-2.05315E-02
 -1      1410 1.13183E-03-2.43014E-03-1.96873E-02
 -1      1411 1.19092E-03-2.73949E-03-2.22555E-02
 -1      1412 1.17166E-03-2.63499E-03-2.13877E-02
 -1      1413 4.51102E-04-2.56555E-03-2.09557E-02
 -1      1414 4.09226E-04-3.18822E-04-2.23712E-03
 -1      1415 3.81159E-04-2.80648E-04-1.92846E-03
 -1      1416 3.53002E-04-2.45053E-04-1.64194E-03
 -1      1417 3.29314E-04-2.13210E-04-1.38240E-03
 -1      1418 1.24288E-04-2.32566E-04-1.77790E-03
 -1      1419 6.81629E-04-8.38406E-04-6.49489E-03
 -1      1420 6.55190E-04-7.75595E-04-5.97667E-03
 -1      1421 7.43851E-04-9.71566E-04-7.58903E-03
 -1      1422 7.07860E-04-9.03612E-04-7.03268E-03
 -1      1423 2.44967E-04-8.40621E-04-6.75740E-03
 -1      1424 8.91348E-04-1.42192E-03-1.13193E-02
 -1      1425 8.71128E-04-1.34152E-03-1.06510E-02
 -1      1426 3.13599E-04-1.27436E-03-1.03203E-02
 -1      1427 8.48675E-04-1.26317E-03-1.00010E-02
 -1      1428 8.26533E-04-1.18716E-03-9.36995E-03
 -1      1429 5.20041E-04-4.97065E-04-3.68889E-03
 -1      1430 4.92489E-04-4.48729E-04-3.29374E-03
 -1      1431 4.64852E-04-4.02891E-04-2.91996E-03
 -1      1432 4.37125E-04-3.59603E-04-2.56771E-03
 -1      1433 1.63944E-04-3.94518E-04-3.09982E-03
 -1      1434 6.28487E-04-7.15054E-04-5.47829E-03
 -1      1435 6.01675E-04-6.56952E-04-5.00011E-03
 -1      1436 5.74613E-04-6.01194E-04-4.54230E-03
 -1      1437 5.47418E-04-5.47914E-04-4.10516E-03
 -1      1438 2.04194E-04-5.97797E-04-4.76445E-03
 -1      1439-5.60129E-07-8.01107E-07 1.35437E-06
 -1      1440-2.64770E-05 6.42896E-06-2.98007E-05
 -1      1441-4.15110E-05 1.81475E-05-7.25436E-06
 -1      1442 1.03138E-03-4.97626E-03-4.08011E-02
 -1      1443 1.84605E-03-4.95830E-03-4.06254E-02
 -1      1444 1.44297E-03-4.88752E-03-4.00532E-02
 -1      1445-7.07843E-05-5.19972E-05-5.38398E-04
 -1      1446-8.07082E-05-7.28064E-05-7.12624E-04
 -1      1447 8.54160E-05-1.13083E-04-8.08271E-04
 -1      1448 2.71413E-04-1.53993E-04-9.11483E-04
 -1      1449 3.01293E-04-1.82802E-04-1.13944E-03
 -1      1450 1.35635E-03-3.84984E-03-3.14642E-02
 -1      1451 1.34219E-03-3.73441E-03-3.05073E-02
 -1      1452 1.02503E-03-1.94527E-03-1.56627E-02
 -1      1453 1.00251E-03-1.85338E-03-1.49000E-02
 -1      1454-2.49228E-04-1.62518E-03-1.34171E-02
 -1      1455-2.51670E-04-1.71480E-03-1.41493E-02
 -1      1456 3.69151E-04-1.78438E-03-1.45212E-02
 -1      1457-2.07740E-04-8.43200E-04-7.02871E-03
 -1      1458-2.16471E-04-9.11178E-04-7.58552E-03
 -1      1459 2.70792E-04-9.75898E-04-7.86603E-03
 -1      1460 7.75170E-04-1.04090E-03-8.15942E-03
 -1      1461 8.01827E-04-1.11268E-03-8.75316E-03
 -1      1462-2.29739E-04-3.94927E-03-3.24262E-02
 -1      1463-2.25342E-04-4.06765E-03-3.33951E-02
 -1      1464 5.65685E-04-3.89921E-03-3.19439E-02
 -1      1465-2.97551E-03-2.57541E-03-2.12596E-02
 -1      1466-3.21047E-03-3.45945E-03-2.84543E-02
 -1      1467-2.89682E-03-3.88340E-03-3.20601E-02
 -1      1468-3.33819E-03-4.63679E-03-3.80982E-02
 -1      1469-2.72565E-03-1.96905E-03-1.63395E-02
 -1      1470-2.74779E-03-2.95623E-03-2.45930E-02
 -1      1471-2.52393E-03-1.59877E-03-1.33388E-02
 -1      1472-7.82748E-04-7.87680E-05-1.34172E-03
 -1      1473-1.19692E-03-2.90235E-04-2.58260E-03
 -1      1474-5.61435E-04-7.05878E-05-5.91727E-04
 -1      1475-1.58042E-03-6.17925E-04-5.82999E-03
 -1      1476-2.17862E-03-1.10517E-03-9.32783E-03
 -1      1477-1.49795E-03-4.69797E-04-4.10173E-03
 -1      1478-1.96952E-04 4.00667E-05-1.08065E-04
 -1      1479-2.56629E-03-2.30785E-03-1.93919E-02
 -1      1480-3.30786E-03-4.16087E-03-3.41910E-02
 -1      1481-2.93890E-03-4.86281E-03-3.99945E-02
 -1      1482-2.14096E-03-1.35731E-03-1.17796E-02
 -1      1483-2.93016E-03-4.36441E-03-3.59504E-02
 -1      1484-2.32853E-03-1.71515E-03-1.46455E-02
 -1      1485-1.91924E-03-8.20149E-04-7.00038E-03
 -1      1486-1.19512E-03-2.97360E-04-3.20298E-03
 -1      1487-1.81844E-03-8.85380E-04-7.99225E-03
 -1      1488-1.04009E-04-2.59455E-06-5.68913E-05
 -1      1489-3.22894E-03-5.06431E-03-4.16243E-02
 -1      1490-2.83569E-03-3.41256E-03-2.82635E-02
 -1      1491-3.10767E-03-3.00838E-03-2.47789E-02
 -1      1492-8.83742E-04-1.56269E-04-1.40962E-03
 -1      1493-4.94648E-04 8.43343E-06-5.42413E-04
 -1      1494-3.47803E-04 3.27556E-05-2.79686E-04
 -1      1495-3.03246E-04 1.50468E-06-2.19125E-04
 -1      1496-2.93570E-03-4.60831E-03-3.79277E-02
 -1      1497-2.89855E-03-2.36705E-03-1.95680E-02
 -1      1498-2.81629E-03-2.16488E-03-1.79274E-02
 -1      1499-2.61195E-03-2.03394E-03-1.70464E-02
 -1      1500-3.25049E-03-3.69048E-03-3.03407E-02
 -1      1501-2.69376E-03-2.73476E-03-2.28147E-02
 -1      1502-2.41408E-03-1.42547E-03-1.19323E-02
 -1      1503-2.29991E-03-1.26087E-03-1.05939E-02
 -1      1504-2.11231E-03-1.14646E-03-9.89566E-03
 -1      1505-2.91688E-03-4.12287E-03-3.39957E-02
 -1      1506-1.78336E-03-6.92673E-04-5.94993E-03
 -1      1507-2.86943E-03-3.64643E-03-3.01481E-02
 -1      1508-1.70134E-03-7.46532E-04-6.87190E-03
 -1      1509-1.34895E-03-3.74423E-04-3.29973E-03
 -1      1510-1.64207E-03-5.75530E-04-4.98237E-03
 -1      1511-1.47967E-03-4.81186E-04-4.47930E-03
 -1      1512-3.32459E-03-4.39926E-03-3.61464E-02
 -1      1513-2.23759E-03-1.53219E-03-1.31806E-02
 -1      1514-1.04158E-03-2.17652E-04-1.95209E-03
 -1      1515-1.05586E-03-2.12329E-04-2.22426E-03
 -1      1516-6.39903E-04-2.91113E-05-8.97529E-04
 -1      1517-7.24202E-04-1.07555E-04-9.56028E-04
 -1      1518-2.05303E-03-9.58623E-04-8.13037E-03
 -1      1519-3.16282E-03-3.23189E-03-2.65990E-02
 -1      1520-3.04533E-03-2.78939E-03-2.29978E-02
 -1      1521-2.62775E-03-1.78013E-03-1.48091E-02
 -1      1522-3.28300E-03-3.92444E-03-3.22542E-02
 -1      1523-2.79476E-03-3.18233E-03-2.64104E-02
 -1      1524-2.63323E-03-2.51846E-03-2.10798E-02
 -1      1525-4.51015E-04-1.59547E-05-4.31654E-04
 -1      1526-3.99810E-04-4.59155E-05-3.21035E-04
 -1      1527-1.00678E-04 1.91378E-05-5.22250E-05
 -1      1528-2.40859E-03-1.89987E-03-1.61271E-02
 -1      1529-2.49219E-03-2.10833E-03-1.77966E-02
 -1      1530-1.05927E-03-2.12215E-04-2.49179E-03
 -1      1531-9.21043E-04-1.38921E-04-1.86891E-03
 -1      1532-1.32644E-03-3.92971E-04-3.99480E-03
 -1      1533-1.99530E-03-9.93301E-04-8.65669E-03
 -1      1534-2.03639E-03-1.19053E-03-1.04459E-02
 -1      1535-1.61563E-03-5.93987E-04-5.40677E-03
 -1      1536-3.13919E-03-4.73141E-03-3.89046E-02
 -1      1537-3.13290E-03-4.50157E-03-3.70287E-02
 -1      1538-3.00201E-03-3.32075E-03-2.74311E-02
 -1      1539-2.95427E-03-3.09369E-03-2.55945E-02
 -1      1540-2.89960E-03-2.87105E-03-2.37952E-02
 -1      1541-3.12097E-03-4.26147E-03-3.50705E-02
 -1      1542-3.07600E-03-3.78543E-03-3.12003E-02
 -1      1543-2.43030E-03-1.65480E-03-1.39920E-02
 -1      1544-2.76943E-03-2.44074E-03-2.03238E-02
 -1      1545-7.57906E-04-9.02166E-05-1.14938E-03
 -1      1546-6.05202E-04-4.69622E-05-7.45059E-04
 -1      1547-3.04250E-03-3.55150E-03-2.93011E-02
 -1      1548-2.83792E-03-2.65324E-03-2.20370E-02
 -1      1549-1.87380E-03-8.50447E-04-7.49720E-03
 -1      1550-3.10215E-03-4.02237E-03-3.31249E-02
 -1      1551-1.74696E-03-7.17043E-04-6.41178E-03
 -1      1552-2.33009E-03-1.47646E-03-1.25564E-02
 -1      1553-2.52443E-03-1.84078E-03-1.54899E-02
 -1      1554-2.69424E-03-2.23427E-03-1.86592E-02
 -1      1555-1.92948E-03-1.03325E-03-9.18334E-03
 -1      1556-2.22406E-03-1.30656E-03-1.11861E-02
 -1      1557-9.08108E-04-1.45427E-04-1.64261E-03
 -1      1558-1.45489E-03-4.99911E-04-4.87073E-03
 -1      1559-1.34304E-03-3.81297E-04-3.64852E-03
 -1      1560-1.20096E-03-2.91086E-04-2.89308E-03
 -1      1561-3.03110E-03-5.04418E-03-4.14671E-02
 -1      1562-2.27811E-04-2.77970E-05-1.33645E-04
 -1      1563-3.33384E-03-4.88951E-03-4.01796E-02
 -1      1564-1.85026E-04 8.21463E-06-1.07160E-04
 -1      1565-8.06774E-05 3.45112E-05-3.35064E-05
 -1      1566-9.94004E-05-2.40742E-05-5.03181E-05
 -1      1567-2.86745E-03-5.05771E-03-4.15822E-02
 -1      1568-3.39473E-03-5.09262E-03-4.18513E-02
 -1      1569-3.13519E-03-4.91838E-03-4.04335E-02
 -1      1570-4.71177E-05-1.01972E-05-3.06717E-05
 -1      1571-4.92554E-05-1.97051E-05-2.70614E-05
 -1      1572-1.33718E-04-4.29620E-05-6.02555E-05
 -1      1573-3.73425E-05 2.41758E-05-1.48303E-05
 -1      1574-3.74224E-05 1.76326E-05-1.99372E-05
 -1      1575-1.05046E-04 5.18784E-05-3.35618E-05
 -1      1576-3.46484E-03-5.17333E-03-4.25171E-02
 -1      1577-3.36284E-03-5.16698E-03-4.24674E-02
 -1      1578-3.46836E-03-5.05325E-03-4.15213E-02
 -1      1579-2.89491E-03-5.13772E-03-4.22329E-02
 -1      1580-2.79176E-03-5.13141E-03-4.21818E-02
 -1      1581-2.79599E-03-5.00861E-03-4.11858E-02
 -1      1582-4.93886E-05 2.21608E-06-3.20687E-05
 -1      1583-4.97644E-05-4.57483E-06-3.16177E-05
 -1      1584-1.01761E-04-1.29887E-05-5.49508E-05
 -1      1585-4.68120E-05 1.46468E-05-2.72907E-05
 -1      1586-4.81287E-05 8.60100E-06-2.90249E-05
 -1      1587-1.02653E-04 8.12998E-06-5.60111E-05
 -1      1588-9.02497E-05 2.68133E-05-4.34754E-05
 -1      1589-3.27986E-03-5.15303E-03-4.23538E-02
 -1      1590-3.17787E-03-5.14665E-03-4.23040E-02
 -1      1591-3.31184E-03-5.07848E-03-4.17379E-02
 -1      1592-3.07899E-03-5.13691E-03-4.22254E-02
 -1      1593-2.97677E-03-5.13063E-03-4.21750E-02
 -1      1594-3.13007E-03-5.05425E-03-4.15459E-02
 -1      1595-2.94946E-03-5.05090E-03-4.15248E-02
 -1      1596-1.98482E-04-4.47763E-05-1.00974E-04
 -1      1597-2.81570E-04-5.31496E-05-1.68786E-04
 -1      1598-1.63610E-04-2.75495E-05-8.56914E-05
 -1      1599-3.69285E-04-6.23679E-05-2.63775E-04
 -1      1600-4.53029E-04-7.24886E-05-3.78352E-04
 -1      1601-3.13733E-04-3.59049E-05-2.14770E-04
 -1      1602-5.35988E-04-8.47904E-05-5.15023E-04
 -1      1603-6.19248E-04-1.00437E-04-6.75199E-04
 -1      1604-4.80791E-04-5.68352E-05-4.45151E-04
 -1      1605-7.02788E-04-1.18862E-04-8.58727E-04
 -1      1606-7.85686E-04-1.40306E-04-1.06436E-03
 -1      1607-6.43054E-04-8.75710E-05-7.62453E-04
 -1      1608-8.67805E-04-1.64590E-04-1.29252E-03
 -1      1609-9.49372E-04-1.92031E-04-1.54293E-03
 -1      1610-8.04182E-04-1.30424E-04-1.17162E-03
 -1      1611-1.03061E-03-2.22637E-04-1.81540E-03
 -1      1612-1.11130E-03-2.56145E-04-2.11003E-03
 -1      1613-9.62985E-04-1.85470E-04-1.66978E-03
 -1      1614-1.19115E-03-2.92364E-04-2.42657E-03
 -1      1615-1.27020E-03-3.31440E-04-2.76484E-03
 -1      1616-1.11958E-03-2.52534E-04-2.25643E-03
 -1      1617-1.34849E-03-3.73454E-04-3.12469E-03
 -1      1618-1.42576E-03-4.18365E-04-3.50585E-03
 -1      1619-1.27331E-03-3.30912E-04-2.93040E-03
 -1      1620-1.50241E-03-4.65922E-04-3.90804E-03
 -1      1621-1.57807E-03-5.16277E-04-4.33138E-03
 -1      1622-1.42391E-03-4.20752E-04-3.69017E-03
 -1      1623-1.65227E-03-5.69034E-04-4.77290E-03
 -1      1624-1.72593E-03-6.24730E-04-5.23724E-03
 -1      1625-1.57045E-03-5.21345E-04-4.53189E-03
 -1      1626-1.79870E-03-6.83215E-04-5.72229E-03
 -1      1627-1.87006E-03-7.44132E-04-6.22681E-03
 -1      1628-1.71318E-03-6.32790E-04-5.45601E-03
 -1      1629-1.94011E-03-8.07748E-04-6.75331E-03
 -1      1630-2.00901E-03-8.73852E-04-7.29702E-03
 -1      1631-1.85186E-03-7.55131E-04-6.46523E-03
 -1      1632-2.07786E-03-9.42904E-04-7.86300E-03
 -1      1633-2.14451E-03-1.01379E-03-8.44484E-03
 -1      1634-1.98674E-03-8.88182E-04-7.55575E-03
 -1      1635-2.20922E-03-1.08691E-03-9.04459E-03
 -1      1636-2.27302E-03-1.16248E-03-9.66306E-03
 -1      1637-2.11641E-03-1.03073E-03-8.72001E-03
 -1      1638-2.33550E-03-1.24014E-03-1.02970E-02
 -1      1639-2.39650E-03-1.32021E-03-1.09509E-02
 -1      1640-2.23989E-03-1.18190E-03-9.95202E-03
 -1      1641-2.45542E-03-1.40229E-03-1.16211E-02
 -1      1642-2.51359E-03-1.48678E-03-1.23088E-02
 -1      1643-2.35774E-03-1.34208E-03-1.12546E-02
 -1      1644-2.57017E-03-1.57322E-03-1.30130E-02
 -1      1645-2.62510E-03-1.66159E-03-1.37333E-02
 -1      1646-2.46968E-03-1.51115E-03-1.26274E-02
 -1      1647-2.67871E-03-1.75207E-03-1.44693E-02
 -1      1648-2.73035E-03-1.84443E-03-1.52206E-02
 -1      1649-2.57656E-03-1.68849E-03-1.40661E-02
 -1      1650-2.78081E-03-1.93862E-03-1.59866E-02
 -1      1651-2.82937E-03-2.03445E-03-1.67673E-02
 -1      1652-2.67749E-03-1.87373E-03-1.55670E-02
 -1      1653-2.87615E-03-2.13213E-03-1.75621E-02
 -1      1654-2.92110E-03-2.23137E-03-1.83704E-02
 -1      1655-2.77168E-03-2.06613E-03-1.71266E-02
 -1      1656-2.96362E-03-2.33215E-03-1.91915E-02
 -1      1657-3.00521E-03-2.43463E-03-2.00257E-02
 -1      1658-2.85830E-03-2.26514E-03-1.87413E-02
 -1      1659-3.04493E-03-2.53854E-03-2.08723E-02
 -1      1660-3.08281E-03-2.64385E-03-2.17307E-02
 -1      1661-2.93784E-03-2.47051E-03-2.04078E-02
 -1      1662-3.11889E-03-2.75052E-03-2.26005E-02
 -1      1663-3.15309E-03-2.85838E-03-2.34813E-02
 -1      1664-3.01126E-03-2.68176E-03-2.21232E-02
 -1      1665-3.18539E-03-2.96755E-03-2.43725E-02
 -1      1666-3.21589E-03-3.07791E-03-2.52737E-02
 -1      1667-3.07735E-03-2.89827E-03-2.38832E-02
 -1      1668-3.24443E-03-3.18934E-03-2.61845E-02
 -1      1669-3.27103E-03-3.30169E-03-2.71042E-02
 -1      1670-3.13603E-03-3.11965E-03-2.56844E-02
 -1      1671-3.29578E-03-3.41511E-03-2.80324E-02
 -1      1672-3.31856E-03-3.52938E-03-2.89688E-02
 -1      1673-3.18752E-03-3.34522E-03-2.75224E-02
 -1      1674-3.33938E-03-3.64451E-03-2.99125E-02
 -1      1675-3.35829E-03-3.76040E-03-3.08634E-02
 -1      1676-3.23137E-03-3.57455E-03-2.93938E-02
 -1      1677-3.37524E-03-3.87700E-03-3.18206E-02
 -1      1678-3.39030E-03-3.99421E-03-3.27840E-02
 -1      1679-3.26763E-03-3.80713E-03-3.12944E-02
 -1      1680-3.40330E-03-4.11204E-03-3.37529E-02
 -1      1681-3.41425E-03-4.23022E-03-3.47267E-02
 -1      1682-3.29621E-03-4.04244E-03-3.32201E-02
 -1      1683-3.42317E-03-4.34896E-03-3.57048E-02
 -1      1684-3.43035E-03-4.46816E-03-3.66870E-02
 -1      1685-3.31720E-03-4.27983E-03-3.51666E-02
 -1      1686-3.43743E-03-4.58652E-03-3.76633E-02
 -1      1687-3.44057E-03-4.70610E-03-3.86516E-02
 -1      1688-3.33221E-03-4.51794E-03-3.71208E-02
 -1      1689-3.43867E-03-4.83202E-03-3.96927E-02
 -1      1690-3.43788E-03-4.95199E-03-4.06853E-02
 -1      1691-3.33694E-03-4.76303E-03-3.91377E-02
 -1      1692-3.36477E-03-4.99118E-03-4.10149E-02
 -1      1693-2.30599E-04 5.80951E-05-1.25457E-04
 -1      1694-1.60212E-04 5.53055E-05-6.72379E-05
 -1      1695-1.37501E-04 4.08647E-05-6.29843E-05
 -1      1696-3.73896E-04 4.62406E-05-3.15585E-04
 -1      1697-3.03236E-04 5.45414E-05-2.09567E-04
 -1      1698-2.72468E-04 3.87335E-05-1.81474E-04
 -1      1699-5.14547E-04 1.85215E-05-5.98110E-04
 -1      1700-4.44669E-04 3.40842E-05-4.45798E-04
 -1      1701-4.21433E-04 2.22939E-05-3.99423E-04
 -1      1702-6.54062E-04-2.19502E-05-9.72497E-04
 -1      1703-5.84729E-04-2.58275E-07-7.74540E-04
 -1      1704-5.67440E-04-8.79403E-06-7.08514E-04
 -1      1705-7.91592E-04-7.45177E-05-1.43646E-03
 -1      1706-7.23145E-04-4.67959E-05-1.19345E-03
 -1      1707-7.11520E-04-5.24578E-05-1.10839E-03
 -1      1708-9.25887E-04-1.38283E-04-1.98628E-03
 -1      1709-8.58485E-04-1.04632E-04-1.69897E-03
 -1      1710-8.52170E-04-1.07426E-04-1.59440E-03
 -1      1711-1.05883E-03-2.14506E-04-2.62810E-03
 -1      1712-9.92753E-04-1.74964E-04-2.29681E-03
 -1      1713-9.90476E-04-1.74114E-04-2.16932E-03
 -1      1714-1.18908E-03-3.02430E-04-3.35733E-03
 -1      1715-1.12450E-03-2.57111E-04-2.98276E-03
 -1      1716-1.12754E-03-2.53343E-04-2.83654E-03
 -1      1717-1.31562E-03-4.01148E-04-4.16916E-03
 -1      1718-1.25259E-03-3.50290E-04-3.75228E-03
 -1      1719-1.26113E-03-3.43763E-04-3.58837E-03
 -1      1720-1.43906E-03-5.11006E-04-5.06457E-03
 -1      1721-1.37774E-03-4.54673E-04-4.60627E-03
 -1      1722-1.39105E-03-4.45082E-04-4.42246E-03
 -1      1723-1.55913E-03-6.31743E-04-6.04229E-03
 -1      1724-1.49974E-03-5.70086E-04-5.54347E-03
 -1      1725-1.51812E-03-5.57604E-04-5.34022E-03
 -1      1726-1.67488E-03-7.62962E-04-7.10073E-03
 -1      1727-1.61753E-03-6.96142E-04-6.56250E-03
 -1      1728-1.64140E-03-6.80952E-04-6.34109E-03
 -1      1729-1.78662E-03-9.04266E-04-8.23671E-03
 -1      1730-1.73144E-03-8.32467E-04-7.66021E-03
 -1      1731-1.76038E-03-8.14713E-04-7.42252E-03
 -1      1732-1.89309E-03-1.05486E-03-9.44507E-03
 -1      1733-1.84026E-03-9.78315E-04-8.83157E-03
 -1      1734-1.87448E-03-9.58187E-04-8.57857E-03
 -1      1735-1.99515E-03-1.21473E-03-1.07249E-02
 -1      1736-1.94471E-03-1.13360E-03-1.00758E-02
 -1      1737-1.98349E-03-1.11076E-03-9.80580E-03
 -1      1738-2.09349E-03-1.38379E-03-1.20748E-02
 -1      1739-2.04562E-03-1.29824E-03-1.13913E-02
 -1      1740-2.08919E-03-1.27281E-03-1.11043E-02
 -1      1741-2.18532E-03-1.56108E-03-1.34910E-02
 -1      1742-2.14009E-03-1.47139E-03-1.27748E-02
 -1      1743-2.18992E-03-1.44371E-03-1.24719E-02
 -1      1744-2.27167E-03-1.74634E-03-1.49705E-02
 -1      1745-2.22915E-03-1.65273E-03-1.42231E-02
 -1      1746-2.28373E-03-1.62271E-03-1.39053E-02
 -1      1747-2.34980E-03-1.93623E-03-1.64879E-02
 -1      1748-2.31016E-03-1.83891E-03-1.57111E-02
 -1      1749-2.36918E-03-1.80659E-03-1.53793E-02
 -1      1750-2.42666E-03-2.14157E-03-1.81278E-02
 -1      1751-2.39005E-03-2.04066E-03-1.73223E-02
 -1      1752-2.45111E-03-2.00315E-03-1.69540E-02
 -1      1753-2.49607E-03-2.34555E-03-1.97565E-02
 -1      1754-2.46243E-03-2.24151E-03-1.89251E-02
 -1      1755-2.52981E-03-2.20738E-03-1.85880E-02
 -1      1756-2.55883E-03-2.55813E-03-2.14561E-02
 -1      1757-2.52823E-03-2.45110E-03-2.06003E-02
 -1      1758-2.60050E-03-2.41242E-03-2.02297E-02
 -1      1759-2.61538E-03-2.77631E-03-2.32019E-02
 -1      1760-2.58789E-03-2.66653E-03-2.23234E-02
 -1      1761-2.66423E-03-2.62594E-03-2.19416E-02
 -1      1762-2.66554E-03-2.99959E-03-2.49901E-02
 -1      1763-2.64128E-03-2.88733E-03-2.40909E-02
 -1      1764-2.72152E-03-2.84489E-03-2.36986E-02
 -1      1765-2.70924E-03-3.22731E-03-2.68167E-02
 -1      1766-2.68804E-03-3.11296E-03-2.58988E-02
 -1      1767-2.77212E-03-3.06874E-03-2.54970E-02
 -1      1768-2.74647E-03-3.45921E-03-2.86780E-02
 -1      1769-2.72871E-03-3.34273E-03-2.77433E-02
 -1      1770-2.81596E-03-3.29687E-03-2.73328E-02
 -1      1771-2.77712E-03-3.69451E-03-3.05699E-02
 -1      1772-2.76260E-03-3.57645E-03-2.96204E-02
 -1      1773-2.85332E-03-3.52908E-03-2.92021E-02
 -1      1774-2.80124E-03-3.93293E-03-3.24884E-02
 -1      1775-2.79001E-03-3.81333E-03-3.15261E-02
 -1      1776-2.88387E-03-3.76450E-03-3.11009E-02
 -1      1777-2.81855E-03-4.17371E-03-3.44294E-02
 -1      1778-2.81071E-03-4.05300E-03-3.34564E-02
 -1      1779-2.90758E-03-4.00283E-03-3.30253E-02
 -1      1780-2.82927E-03-4.41635E-03-3.63886E-02
 -1      1781-2.82474E-03-4.29482E-03-3.54070E-02
 -1      1782-2.92429E-03-4.24343E-03-3.49708E-02
 -1      1783-2.83279E-03-4.66087E-03-3.83656E-02
 -1      1784-2.83160E-03-4.53867E-03-3.73775E-02
 -1      1785-2.93367E-03-4.48613E-03-3.69374E-02
 -1      1786-2.83215E-03-4.91091E-03-4.03918E-02
 -1      1787-2.83413E-03-4.78847E-03-3.93993E-02
 -1      1788-2.93805E-03-4.73546E-03-3.89598E-02
 -1      1789-2.90369E-03-4.96011E-03-4.07878E-02
 -1      1790-2.83482E-03-2.40347E-03-1.99460E-02
 -1      1791-2.87210E-03-2.50789E-03-2.07912E-02
 -1      1792-2.90755E-03-2.61389E-03-2.16483E-02
 -1      1793-2.94129E-03-2.72114E-03-2.25170E-02
 -1      1794-2.80440E-03-2.54634E-03-2.11746E-02
 -1      1795-3.12713E-03-3.50510E-03-2.88777E-02
 -1      1796-3.14635E-03-3.62097E-03-2.98205E-02
 -1      1797-3.08310E-03-3.27592E-03-2.70151E-02
 -1      1798-3.10605E-03-3.39002E-03-2.79423E-02
 -1      1799-3.02304E-03-3.43562E-03-2.83622E-02
 -1      1800-3.01012E-03-4.07233E-03-3.35602E-02
 -1      1801-2.99948E-03-3.95288E-03-3.25923E-02
 -1      1802-2.98700E-03-3.83413E-03-3.16301E-02
 -1      1803-2.97267E-03-3.71591E-03-3.06739E-02
 -1      1804-3.08985E-03-3.90360E-03-3.21596E-02
 -1      1805-3.22914E-03-4.45019E-03-3.65876E-02
 -1      1806-3.23558E-03-4.56931E-03-3.75633E-02
 -1      1807-3.23904E-03-4.68388E-03-3.85015E-02
 -1      1808-3.13672E-03-4.61641E-03-3.79655E-02
 -1      1809-3.23668E-03-4.81062E-03-3.95418E-02
 -1      1810-2.66973E-03-2.00101E-03-1.66930E-02
 -1      1811-2.71365E-03-2.09912E-03-1.74863E-02
 -1      1812-2.62454E-03-1.90460E-03-1.59141E-02
 -1      1813-2.56889E-03-1.93648E-03-1.62610E-02
 -1      1814-2.57715E-03-1.80990E-03-1.51495E-02
 -1      1815-2.82449E-03-2.91326E-03-2.41940E-02
 -1      1816-2.79641E-03-2.80275E-03-2.33046E-02
 -1      1817-2.87537E-03-3.13760E-03-2.60024E-02
 -1      1818-2.85085E-03-3.02486E-03-2.50935E-02
 -1      1819-2.92769E-03-2.98182E-03-2.46900E-02
 -1      1820-2.37312E-03-1.45046E-03-1.22444E-02
 -1      1821-2.42645E-03-1.53727E-03-1.29469E-02
 -1      1822-2.47814E-03-1.62624E-03-1.36655E-02
 -1      1823-2.52847E-03-1.71709E-03-1.43999E-02
 -1      1824-2.38083E-03-1.56465E-03-1.32663E-02
 -1      1825-7.71353E-04-8.38086E-05-1.24566E-03
 -1      1826-6.97691E-04-5.89926E-05-1.02236E-03
 -1      1827-9.15631E-04-1.41513E-04-1.75600E-03
 -1      1828-8.44310E-04-1.11450E-04-1.49107E-03
 -1      1829-8.33254E-04-1.16327E-04-1.38485E-03
 -1      1830-1.20022E-03-2.89982E-04-2.73805E-03
 -1      1831-1.27411E-03-3.32139E-04-3.09545E-03
 -1      1832-1.05003E-03-2.14341E-04-2.08839E-03
 -1      1833-1.12554E-03-2.50656E-04-2.40245E-03
 -1      1834-1.12870E-03-2.50282E-04-2.54786E-03
 -1      1835-5.84728E-04-5.80388E-05-6.68579E-04
 -1      1836-6.63793E-04-7.65581E-05-8.49458E-04
 -1      1837-5.05326E-04-4.25933E-05-5.10615E-04
 -1      1838-4.26519E-04-3.03381E-05-3.76665E-04
 -1      1839-5.28296E-04-2.99373E-05-5.76943E-04
 -1      1840-1.72521E-03-7.31148E-04-6.64189E-03
 -1      1841-1.66279E-03-6.66927E-04-6.12005E-03
 -1      1842-1.59913E-03-6.05326E-04-5.61840E-03
 -1      1843-1.68175E-03-6.54214E-04-5.89932E-03
 -1      1844-1.53435E-03-5.46384E-04-5.13789E-03
 -1      1845-2.14663E-03-1.12520E-03-9.61184E-03
 -1      1846-2.20547E-03-1.20321E-03-1.02441E-02
 -1      1847-2.08628E-03-1.04876E-03-8.99150E-03
 -1      1848-2.05437E-03-1.06870E-03-9.26705E-03
 -1      1849-2.02532E-03-9.75375E-04-8.39371E-03
 -1      1850-1.34735E-03-3.77170E-04-3.47428E-03
 -1      1851-1.41969E-03-4.24948E-04-3.87417E-03
 -1      1852-1.49004E-03-4.74859E-04-4.29083E-03
 -1      1853-1.56006E-03-5.27769E-04-4.72993E-03
 -1      1854-1.41176E-03-4.29906E-04-4.05365E-03
 -1      1855-3.26289E-04 1.75573E-05-2.50174E-04
 -1      1856-2.48255E-04 2.21758E-05-1.60490E-04
 -1      1857-2.43973E-04 5.77892E-06-1.56675E-04
 -1      1858-1.90883E-04 2.36659E-05-1.09391E-04
 -1      1859-1.48450E-04 3.01028E-05-7.63169E-05
 -1      1860-1.41744E-04 1.54934E-05-7.64289E-05
 -1      1861-2.70220E-03-2.47919E-03-2.07017E-02
 -1      1862-2.66752E-03-2.37410E-03-1.98574E-02
 -1      1863-2.63119E-03-2.27062E-03-1.90255E-02
 -1      1864-2.59279E-03-2.17104E-03-1.82276E-02
 -1      1865-2.73253E-03-2.33681E-03-1.94852E-02
 -1      1866-3.21492E-03-4.21087E-03-3.46308E-02
 -1      1867-3.22287E-03-4.33046E-03-3.56083E-02
 -1      1868-3.19310E-03-3.97310E-03-3.26895E-02
 -1      1869-3.20495E-03-4.09166E-03-3.36577E-02
 -1      1870-3.11237E-03-4.14164E-03-3.40953E-02
 -1      1871-3.03955E-03-4.79689E-03-3.94493E-02
 -1      1872-3.03758E-03-4.66995E-03-3.84162E-02
 -1      1873-3.03712E-03-4.89065E-03-4.02142E-02
 -1      1874-3.13763E-03-4.82486E-03-3.96686E-02
 -1      1875-2.98528E-03-4.95357E-03-4.07305E-02
 -1      1876-3.08340E-03-4.98118E-03-4.09501E-02
 -1      1877-2.28486E-03-1.50381E-03-1.28685E-02
 -1      1878-2.23492E-03-1.41650E-03-1.21674E-02
 -1      1879-2.18356E-03-1.33138E-03-1.14828E-02
 -1      1880-2.12956E-03-1.24809E-03-1.08153E-02
 -1      1881-2.27768E-03-1.39052E-03-1.18629E-02
 -1      1882-3.03476E-03-4.55471E-03-3.74781E-02
 -1      1883-3.03164E-03-4.43307E-03-3.64894E-02
 -1      1884-3.02609E-03-4.31268E-03-3.55104E-02
 -1      1885-3.01903E-03-4.19222E-03-3.45330E-02
 -1      1886-3.12766E-03-4.38137E-03-3.60477E-02
 -1      1887-2.38039E-03-1.68444E-03-1.43187E-02
 -1      1888-2.33336E-03-1.59311E-03-1.35857E-02
 -1      1889-2.46747E-03-1.86983E-03-1.58087E-02
 -1      1890-2.42596E-03-1.77760E-03-1.50672E-02
 -1      1891-2.47796E-03-1.74678E-03-1.47334E-02
 -1      1892-1.76637E-03-7.04214E-04-6.18098E-03
 -1      1893-1.83234E-03-7.68057E-04-6.70520E-03
 -1      1894-1.89777E-03-8.34650E-04-7.24885E-03
 -1      1895-1.96269E-03-9.04023E-04-7.81296E-03
 -1      1896-1.81083E-03-7.82449E-04-6.94475E-03
 -1      1897-1.19906E-03-2.93543E-04-3.04815E-03
 -1      1898-1.12901E-03-2.51002E-04-2.69144E-03
 -1      1899-1.33584E-03-3.86463E-04-3.82183E-03
 -1      1900-1.26801E-03-3.38691E-04-3.42482E-03
 -1      1901-1.27232E-03-3.34779E-04-3.26014E-03
 -1      1902-1.84721E-03-8.67308E-04-7.74475E-03
 -1      1903-1.78669E-03-7.97932E-04-7.18372E-03
 -1      1904-1.90612E-03-9.38868E-04-8.32369E-03
 -1      1905-1.93509E-03-9.20673E-04-8.06752E-03
 -1      1906-1.96347E-03-1.01270E-03-8.92008E-03
 -1      1907-1.44780E-04 2.23500E-06-7.97823E-05
 -1      1908-1.64161E-04-1.38957E-05-9.02822E-05
 -1      1909-2.05828E-04-8.54104E-06-1.21653E-04
 -1      1910-3.18228E-03-4.99145E-03-4.10287E-02
 -1      1911-3.28181E-03-4.97676E-03-4.09016E-02
 -1      1912-3.23454E-03-4.90386E-03-4.03067E-02
 -1      1913-2.95665E-03-3.59864E-03-2.97245E-02
 -1      1914-2.93904E-03-3.48197E-03-2.87821E-02
 -1      1915-2.91958E-03-3.36627E-03-2.78472E-02
 -1      1916-2.89820E-03-3.25138E-03-2.69205E-02
 -1      1917-3.03170E-03-3.05065E-03-2.51867E-02
 -1      1918-3.05831E-03-3.16269E-03-2.60964E-02
 -1      1919-2.97322E-03-2.82979E-03-2.33965E-02
 -1      1920-3.00336E-03-2.93958E-03-2.42866E-02
 -1      1921-8.97249E-04-1.50157E-04-1.52628E-03
 -1      1922-9.74070E-04-1.80902E-04-1.79637E-03
 -1      1923-7.42330E-04-9.81926E-05-1.05295E-03
 -1      1924-8.19968E-04-1.22599E-04-1.27842E-03
 -1      1925-4.73757E-04-3.08443E-06-4.87256E-04
 -1      1926-3.98019E-04 9.19222E-06-3.54324E-04
 -1      1927-6.23558E-04-3.73279E-05-8.21431E-04
 -1      1928-5.48618E-04-1.85573E-05-6.42555E-04
 -1      1929-3.77270E-04-5.80502E-06-3.15071E-04
 -1      1930-3.50604E-04-2.13281E-05-2.69450E-04
 -1      1931-2.66620E-04-1.28577E-05-1.75078E-04
 -1      1932-2.75621E-03-2.19907E-03-1.82934E-02
 -1      1933-2.79603E-03-2.30043E-03-1.91131E-02
 -1      1934-2.65380E-03-2.13328E-03-1.78461E-02
 -1      1935-2.50977E-03-1.96657E-03-1.65860E-02
 -1      1936-2.55306E-03-2.07066E-03-1.74213E-02
 -1      1937-3.16380E-03-3.73764E-03-3.07705E-02
 -1      1938-3.17941E-03-3.85497E-03-3.17270E-02
 -1      1939-3.05998E-03-3.66813E-03-3.02472E-02
 -1      1940-2.76667E-03-2.69359E-03-2.24258E-02
 -1      1941-2.73525E-03-2.58566E-03-2.15580E-02
 -1      1942-2.86951E-03-2.76152E-03-2.29107E-02
 -1      1943-2.26309E-03-1.28312E-03-1.08901E-02
 -1      1944-2.31854E-03-1.36563E-03-1.15584E-02
 -1      1945-2.16876E-03-1.22540E-03-1.05323E-02
 -1      1946-2.02015E-03-1.08938E-03-9.53872E-03
 -1      1947-2.07541E-03-1.16792E-03-1.01709E-02
 -1      1948-1.63007E-03-5.84115E-04-5.19474E-03
 -1      1949-1.69874E-03-6.42782E-04-5.67752E-03
 -1      1950-1.54808E-03-5.36249E-04-4.93271E-03
 -1      1951-1.40208E-03-4.36493E-04-4.23624E-03
 -1      1952-1.46841E-03-4.89888E-04-4.67505E-03
 -1      1953-9.82251E-04-1.77455E-04-1.92242E-03
 -1      1954-1.05863E-03-2.11605E-04-2.35818E-03
 -1      1955-9.87313E-04-1.74973E-04-2.04549E-03
 -1      1956-6.81769E-04-6.70646E-05-9.35862E-04
 -1      1957-2.97890E-03-3.20663E-03-2.65084E-02
 -1      1958 2.82452E-03-2.60016E-03-2.12548E-02
 -1      1959 3.11982E-03-3.47286E-03-2.84510E-02
 -1      1960 3.62267E-03-3.93329E-03-3.20624E-02
 -1      1961 3.34939E-03-4.64845E-03-3.80970E-02
 -1      1962 2.54532E-03-2.00439E-03-1.63338E-02
 -1      1963 3.34977E-03-3.04079E-03-2.45969E-02
 -1      1964 2.33719E-03-1.64108E-03-1.33323E-02
 -1      1965 8.87185E-04-2.41565E-04-1.35108E-03
 -1      1966 1.07173E-03-3.20019E-04-2.57366E-03
 -1      1967 4.99258E-04-5.46886E-05-5.82349E-04
 -1      1968 1.81891E-03-8.02077E-04-5.84279E-03
 -1      1969 2.24340E-03-1.20448E-03-9.18317E-03
 -1      1970 1.51855E-03-5.77703E-04-4.00663E-03
 -1      1971 2.23322E-04-5.53800E-05-1.16965E-04
 -1      1972 3.07651E-03-2.42140E-03-1.93970E-02
 -1      1973 3.27930E-03-4.17128E-03-3.41890E-02
 -1      1974 3.78086E-03-4.88752E-03-3.99950E-02
 -1      1975 2.50625E-03-1.51547E-03-1.17865E-02
 -1      1976 3.71700E-03-4.40029E-03-3.59518E-02
 -1      1977 2.75010E-03-1.85678E-03-1.46518E-02
 -1      1978 1.74276E-03-8.69635E-04-6.99238E-03
 -1      1979 2.10818E-03-1.30696E-03-1.05819E-02
 -1      1980 1.48204E-03-6.21699E-04-4.97876E-03
 -1      1981 9.79926E-05 3.63418E-06-5.36724E-05
 -1      1982 3.50357E-03-5.08128E-03-4.16243E-02
 -1      1983 3.49992E-03-3.47893E-03-2.82667E-02
 -1      1984 2.98366E-03-3.02670E-03-2.47750E-02
 -1      1985 1.20722E-03-3.90504E-04-2.50514E-03
 -1      1986 7.88615E-04-1.67589E-04-1.40047E-03
 -1      1987 5.60314E-04-1.31944E-04-5.52119E-04
 -1      1988 3.94024E-04-9.09495E-05-2.89429E-04
 -1      1989 3.03293E-04-3.64861E-05-2.19240E-04
 -1      1990 3.75447E-03-4.63833E-03-3.79288E-02
 -1      1991 2.73689E-03-2.39532E-03-1.95629E-02
 -1      1992 2.64283E-03-2.19657E-03-1.79218E-02
 -1      1993 2.75851E-03-2.11509E-03-1.70464E-02
 -1      1994 3.17929E-03-3.70229E-03-3.03379E-02
 -1      1995 2.22479E-03-1.47033E-03-1.19255E-02
 -1      1996 3.26499E-03-2.82886E-03-2.28191E-02
 -1      1997 3.67343E-03-4.16544E-03-3.39976E-02
 -1      1998 3.56474E-03-3.70433E-03-3.01508E-02
 -1      1999 1.61400E-03-7.41141E-04-5.94596E-03
 -1      2000 1.96412E-03-9.27704E-04-6.88144E-03
 -1      2001 2.10660E-03-1.06223E-03-7.99622E-03
 -1      2002 2.05032E-03-1.10322E-03-8.64159E-03
 -1      2003 1.21033E-03-4.10887E-04-3.29073E-03
 -1      2004 1.34732E-03-5.11597E-04-4.09301E-03
 -1      2005 3.31981E-03-4.40998E-03-3.61448E-02
 -1      2006 2.37792E-03-1.35569E-03-1.04452E-02
 -1      2007 1.36415E-03-4.79363E-04-3.21315E-03
 -1      2008 2.63073E-03-1.68243E-03-1.31872E-02
 -1      2009 9.30836E-04-2.38838E-04-1.94301E-03
 -1      2010 7.24922E-04-1.81953E-04-9.07141E-04
 -1      2011 6.44380E-04-1.06059E-04-9.46822E-04
 -1      2012 1.04830E-03-3.11131E-04-1.88398E-03
 -1      2013 3.05441E-03-3.24752E-03-2.65953E-02
 -1      2014 1.67023E-03-6.85312E-04-4.88381E-03
 -1      2015 2.90676E-03-2.81076E-03-2.29934E-02
 -1      2016 2.44351E-03-1.81913E-03-1.48028E-02
 -1      2017 3.23228E-03-3.93525E-03-3.22518E-02
 -1      2018 3.42818E-03-3.25759E-03-2.64141E-02
 -1      2019 3.17378E-03-2.62226E-03-2.10846E-02
 -1      2020 4.51750E-04-7.05783E-05-4.31878E-04
 -1      2021 3.54379E-04-1.42632E-05-3.11638E-04
 -1      2022 1.07593E-04-1.82467E-05-5.59078E-05
 -1      2023 2.86455E-03-2.03365E-03-1.61331E-02
 -1      2024 2.97941E-03-2.23217E-03-1.78023E-02
 -1      2025 2.17969E-03-1.25295E-03-9.87965E-03
 -1      2026 1.86620E-03-1.00640E-03-8.11510E-03
 -1      2027 3.56474E-03-4.75140E-03-3.89046E-02
 -1      2028 3.53635E-03-4.52369E-03-3.70286E-02
 -1      2029 3.27650E-03-3.36338E-03-2.74311E-02
 -1      2030 3.20479E-03-3.14211E-03-2.55945E-02
 -1      2031 3.12704E-03-2.92562E-03-2.37952E-02
 -1      2032 3.49824E-03-4.28627E-03-3.50704E-02
 -1      2033 3.40051E-03-3.81799E-03-3.12003E-02
 -1      2034 2.54125E-03-1.74823E-03-1.39921E-02
 -1      2035 2.95360E-03-2.50845E-03-2.03238E-02
 -1      2036 2.30480E-03-1.41030E-03-1.11836E-02
 -1      2037 1.06465E-03-3.12889E-04-2.22462E-03
 -1      2038 9.13839E-04-2.37540E-04-1.64280E-03
 -1      2039 7.61524E-04-1.71993E-04-1.14961E-03
 -1      2040 6.07239E-04-1.16270E-04-7.45256E-04
 -1      2041 3.34169E-03-3.58873E-03-2.93010E-02
 -1      2042 1.21361E-03-3.98071E-04-2.89389E-03
 -1      2043 3.04324E-03-2.71430E-03-2.20371E-02
 -1      2044 1.64663E-03-7.10470E-04-5.41110E-03
 -1      2045 1.50489E-03-5.96906E-04-4.48883E-03
 -1      2046 1.36053E-03-4.92729E-04-3.64916E-03
 -1      2047 3.45285E-03-4.05070E-03-3.31248E-02
 -1      2048 1.78538E-03-8.33172E-04-6.41400E-03
 -1      2049 2.42558E-03-1.57557E-03-1.25565E-02
 -1      2050 2.65180E-03-1.92812E-03-1.54899E-02
 -1      2051 2.85820E-03-2.30860E-03-1.86592E-02
 -1      2052 1.98854E-03-1.15227E-03-9.31185E-03
 -1      2053 1.92099E-03-9.64708E-04-7.49534E-03
 -1      2054 3.70147E-03-5.06430E-03-4.14672E-02
 -1      2055 2.02090E-04 1.17660E-05-1.25102E-04
 -1      2056 3.38466E-03-4.90326E-03-4.01789E-02
 -1      2057 1.85427E-04-1.68683E-05-1.07336E-04
 -1      2058 9.67234E-05-3.58389E-05-4.25345E-05
 -1      2059 8.40032E-05 2.25025E-05-4.17764E-05
 -1      2060 3.86531E-03-5.07994E-03-4.15825E-02
 -1      2061 3.33748E-03-5.10747E-03-4.18508E-02
 -1      2062 3.58786E-03-4.93744E-03-4.04335E-02
 -1      2063 3.94332E-05 1.88877E-05-2.00602E-05
 -1      2064 4.02983E-05 1.15906E-05-2.54598E-05
 -1      2065 1.08497E-04 3.65545E-05-4.83190E-05
 -1      2066 4.44132E-05-1.63020E-05-2.50862E-05
 -1      2067 4.76105E-05-2.49301E-05-2.19509E-05
 -1      2068 1.30949E-04-5.78869E-05-4.58230E-05
 -1      2069 3.37318E-03-5.18323E-03-4.24673E-02
 -1      2070 3.26997E-03-5.18867E-03-4.25168E-02
 -1      2071 3.26004E-03-5.06621E-03-4.15206E-02
 -1      2072 3.94358E-03-5.15279E-03-4.21820E-02
 -1      2073 3.84143E-03-5.15806E-03-4.22328E-02
 -1      2074 3.93359E-03-5.03309E-03-4.11864E-02
 -1      2075 4.53800E-05 6.82703E-06-2.82968E-05
 -1      2076 4.78080E-05 8.73024E-07-3.10111E-05
 -1      2077 9.08406E-05 1.30630E-05-4.88082E-05
 -1      2078 5.01353E-05-5.72044E-06-3.05733E-05
 -1      2079 5.22037E-05-1.22529E-05-3.11598E-05
 -1      2080 1.03024E-04-6.72036E-06-5.61357E-05
 -1      2081 1.02151E-04-2.66711E-05-5.00845E-05
 -1      2082 3.55848E-03-5.16448E-03-4.23039E-02
 -1      2083 3.45634E-03-5.16981E-03-4.23538E-02
 -1      2084 3.42071E-03-5.09431E-03-4.17376E-02
 -1      2085 3.75946E-03-5.15044E-03-4.21749E-02
 -1      2086 3.65744E-03-5.15570E-03-4.22253E-02
 -1      2087 3.60255E-03-5.07277E-03-4.15459E-02
 -1      2088 3.78339E-03-5.07216E-03-4.15249E-02
 -1      2089 2.34848E-04 2.49284E-05-1.55290E-04
 -1      2090 1.65003E-04 3.17375E-05-8.84850E-05
 -1      2091 1.41891E-04 2.07252E-05-7.65491E-05
 -1      2092 3.77778E-04-5.15261E-06-3.64102E-04
 -1      2093 3.07793E-04 1.18555E-05-2.49707E-04
 -1      2094 2.78297E-04 9.50462E-07-2.05703E-04
 -1      2095 5.17563E-04-4.84117E-05-6.61041E-04
 -1      2096 4.47584E-04-2.54573E-05-5.00729E-04
 -1      2097 4.26876E-04-3.30386E-05-4.35701E-04
 -1      2098 6.57455E-04-1.02434E-04-1.05029E-03
 -1      2099 5.87662E-04-7.42799E-05-8.44646E-04
 -1      2100 5.71945E-04-7.90564E-05-7.53204E-04
 -1      2101 7.96069E-04-1.66762E-04-1.52901E-03
 -1      2102 7.27088E-04-1.33400E-04-1.27851E-03
 -1      2103 7.16583E-04-1.35517E-04-1.16245E-03
 -1      2104 9.33385E-04-2.40873E-04-2.09633E-03
 -1      2105 8.64842E-04-2.02607E-04-1.80158E-03
 -1      2106 8.59881E-04-2.01960E-04-1.66066E-03
 -1      2107 1.06894E-03-3.25064E-04-2.75141E-03
 -1      2108 1.00146E-03-2.81709E-04-2.41299E-03
 -1      2109 1.00142E-03-2.78160E-04-2.24742E-03
 -1      2110 1.20284E-03-4.18844E-04-3.49247E-03
 -1      2111 1.13599E-03-3.70794E-04-3.11120E-03
 -1      2112 1.14128E-03-3.64260E-04-2.92149E-03
 -1      2113 1.33477E-03-5.22485E-04-4.31830E-03
 -1      2114 1.26907E-03-4.69473E-04-3.89492E-03
 -1      2115 1.27908E-03-4.60025E-04-3.68139E-03
 -1      2116 1.46423E-03-6.35649E-04-5.22706E-03
 -1      2117 1.39986E-03-5.77862E-04-4.76244E-03
 -1      2118 1.41491E-03-5.65421E-04-4.52560E-03
 -1      2119 1.59121E-03-7.58093E-04-6.21672E-03
 -1      2120 1.52809E-03-6.95719E-04-5.71185E-03
 -1      2121 1.54831E-03-6.80259E-04-5.45225E-03
 -1      2122 1.71542E-03-8.89528E-04-7.28500E-03
 -1      2123 1.65354E-03-8.22733E-04-6.74110E-03
 -1      2124 1.67876E-03-8.04289E-04-6.45941E-03
 -1      2125 1.83523E-03-1.02960E-03-8.42933E-03
 -1      2126 1.77509E-03-9.58284E-04-7.84747E-03
 -1      2127 1.80487E-03-9.36904E-04-7.54431E-03
 -1      2128 1.95296E-03-1.17861E-03-9.64744E-03
 -1      2129 1.89447E-03-1.10294E-03-9.02884E-03
 -1      2130 1.92776E-03-1.07825E-03-8.70434E-03
 -1      2131 2.06779E-03-1.33609E-03-1.09376E-02
 -1      2132 2.01097E-03-1.25637E-03-1.02836E-02
 -1      2133 2.04874E-03-1.22859E-03-9.93801E-03
 -1      2134 2.17914E-03-1.50201E-03-1.22985E-02
 -1      2135 2.12431E-03-1.41819E-03-1.16106E-02
 -1      2136 2.16688E-03-1.38764E-03-1.12453E-02
 -1      2137 2.28647E-03-1.67547E-03-1.37235E-02
 -1      2138 2.23363E-03-1.58783E-03-1.30029E-02
 -1      2139 2.28146E-03-1.55474E-03-1.26207E-02
 -1      2140 2.38881E-03-1.85625E-03-1.52112E-02
 -1      2141 2.33802E-03-1.76493E-03-1.44597E-02
 -1      2142 2.39084E-03-1.72919E-03-1.40597E-02
 -1      2143 2.48679E-03-2.04426E-03-1.67585E-02
 -1      2144 2.43821E-03-1.94936E-03-1.59776E-02
 -1      2145 2.49499E-03-1.91085E-03-1.55610E-02
 -1      2146 2.58024E-03-2.23903E-03-1.83620E-02
 -1      2147 2.53412E-03-2.14078E-03-1.75535E-02
 -1      2148 2.59451E-03-2.09962E-03-1.71208E-02
 -1      2149 2.66976E-03-2.44029E-03-2.00180E-02
 -1      2150 2.62595E-03-2.33890E-03-1.91834E-02
 -1      2151 2.69045E-03-2.29516E-03-1.87358E-02
 -1      2152 2.75365E-03-2.64756E-03-2.17236E-02
 -1      2153 2.71232E-03-2.54318E-03-2.08648E-02
 -1      2154 2.78128E-03-2.49698E-03-2.04028E-02
 -1      2155 2.83237E-03-2.86054E-03-2.34747E-02
 -1      2156 2.79364E-03-2.75335E-03-2.25937E-02
 -1      2157 2.86627E-03-2.70475E-03-2.21186E-02
 -1      2158 2.90567E-03-3.07876E-03-2.52679E-02
 -1      2159 2.86977E-03-2.96896E-03-2.43663E-02
 -1      2160 2.94579E-03-2.91809E-03-2.38790E-02
 -1      2161 2.97347E-03-3.30169E-03-2.70988E-02
 -1      2162 2.94012E-03-3.18969E-03-2.61788E-02
 -1      2163 3.01976E-03-3.13654E-03-2.56805E-02
 -1      2164 3.03571E-03-3.52907E-03-2.89639E-02
 -1      2165 3.00530E-03-3.41482E-03-2.80274E-02
 -1      2166 3.08777E-03-3.35965E-03-2.75191E-02
 -1      2167 3.09204E-03-3.76039E-03-3.08593E-02
 -1      2168 3.06468E-03-3.64423E-03-2.99081E-02
 -1      2169 3.15019E-03-3.58710E-03-2.93907E-02
 -1      2170 3.14248E-03-3.99510E-03-3.27805E-02
 -1      2171 3.11794E-03-3.87737E-03-3.18168E-02
 -1      2172 3.20655E-03-3.81832E-03-3.12918E-02
 -1      2173 3.18676E-03-4.23287E-03-3.47238E-02
 -1      2174 3.16541E-03-4.11358E-03-3.37497E-02
 -1      2175 3.25640E-03-4.05285E-03-3.32178E-02
 -1      2176 3.22497E-03-4.47311E-03-3.66848E-02
 -1      2177 3.20662E-03-4.35269E-03-3.57023E-02
 -1      2178 3.30033E-03-4.29036E-03-3.51648E-02
 -1      2179 3.25462E-03-4.71408E-03-3.86501E-02
 -1      2180 3.23947E-03-4.59275E-03-3.76614E-02
 -1      2181 3.33528E-03-4.52899E-03-3.71195E-02
 -1      2182 3.28407E-03-4.96380E-03-4.06843E-02
 -1      2183 3.27205E-03-4.84190E-03-3.96914E-02
 -1      2184 3.36775E-03-4.77574E-03-3.91368E-02
 -1      2185 3.36155E-03-5.00516E-03-4.10143E-02
 -1      2186 1.94292E-04-6.76485E-05-8.00866E-05
 -1      2187 2.78187E-04-8.52796E-05-1.39283E-04
 -1      2188 1.59818E-04-4.72622E-05-7.25828E-05
 -1      2189 3.65558E-04-1.03271E-04-2.23958E-04
 -1      2190 4.50273E-04-1.21617E-04-3.30151E-04
 -1      2191 3.08588E-04-7.24713E-05-1.90918E-04
 -1      2192 5.35633E-04-1.42075E-04-4.60241E-04
 -1      2193 6.20276E-04-1.64502E-04-6.12498E-04
 -1      2194 4.77241E-04-1.10304E-04-4.09127E-04
 -1      2195 7.04945E-04-1.89385E-04-7.88903E-04
 -1      2196 7.88795E-04-2.16642E-04-9.86805E-04
 -1      2197 6.42795E-04-1.55688E-04-7.18183E-04
 -1      2198 8.72285E-04-2.46318E-04-1.20761E-03
 -1      2199 9.55662E-04-2.78529E-04-1.45053E-03
 -1      2200 8.06237E-04-2.10514E-04-1.11789E-03
 -1      2201 1.03855E-03-3.13125E-04-1.71583E-03
 -1      2202 1.12083E-03-3.50044E-04-2.00329E-03
 -1      2203 9.67933E-04-2.75128E-04-1.60644E-03
 -1      2204 1.20265E-03-3.89508E-04-2.31273E-03
 -1      2205 1.28397E-03-4.31316E-04-2.64401E-03
 -1      2206 1.12796E-03-3.49612E-04-2.18361E-03
 -1      2207 1.36473E-03-4.75499E-04-2.99695E-03
 -1      2208 1.44494E-03-5.21972E-04-3.37137E-03
 -1      2209 1.28593E-03-4.33743E-04-2.84834E-03
 -1      2210 1.52439E-03-5.70856E-04-3.76713E-03
 -1      2211 1.60313E-03-6.21995E-04-4.18390E-03
 -1      2212 1.44166E-03-5.27367E-04-3.59935E-03
 -1      2213 1.68115E-03-6.75495E-04-4.62156E-03
 -1      2214 1.75837E-03-7.31213E-04-5.07977E-03
 -1      2215 1.59475E-03-6.30343E-04-4.43490E-03
 -1      2216 1.83484E-03-7.89263E-04-5.55837E-03
 -1      2217 1.91042E-03-8.49468E-04-6.05705E-03
 -1      2218 1.74492E-03-7.42548E-04-5.35313E-03
 -1      2219 1.98513E-03-9.11926E-04-6.57557E-03
 -1      2220 2.05894E-03-9.76573E-04-7.11361E-03
 -1      2221 1.89187E-03-8.63756E-04-6.35227E-03
 -1      2222 2.13217E-03-1.04343E-03-7.67021E-03
 -1      2223 2.20402E-03-1.11230E-03-8.24649E-03
 -1      2224 2.03581E-03-9.93905E-04-7.42934E-03
 -1      2225 2.27431E-03-1.18305E-03-8.83934E-03
 -1      2226 2.34410E-03-1.25613E-03-9.45249E-03
 -1      2227 2.17545E-03-1.13231E-03-8.58061E-03
 -1      2228 2.41320E-03-1.33132E-03-1.00829E-02
 -1      2229 2.48073E-03-1.40843E-03-1.07318E-02
 -1      2230 2.31115E-03-1.27906E-03-9.80527E-03
 -1      2231 2.54666E-03-1.48785E-03-1.14019E-02
 -1      2232 2.61185E-03-1.56892E-03-1.20851E-02
 -1      2233 2.44267E-03-1.43456E-03-1.11073E-02
 -1      2234 2.67576E-03-1.65196E-03-1.27849E-02
 -1      2235 2.73841E-03-1.73680E-03-1.35008E-02
 -1      2236 2.56903E-03-1.59801E-03-1.24787E-02
 -1      2237 2.79975E-03-1.82351E-03-1.42327E-02
 -1      2238 2.85978E-03-1.91203E-03-1.49799E-02
 -1      2239 2.69099E-03-1.76869E-03-1.39117E-02
 -1      2240 2.91839E-03-2.00000E-03-1.57203E-02
 -1      2241 2.97571E-03-2.09181E-03-1.64968E-02
 -1      2242 2.80788E-03-1.94444E-03-1.53854E-02
 -1      2243 3.03464E-03-2.19057E-03-1.73309E-02
 -1      2244 3.08898E-03-2.28587E-03-1.81362E-02
 -1      2245 2.92260E-03-2.13194E-03-1.69599E-02
 -1      2246 3.13883E-03-2.37995E-03-1.89331E-02
 -1      2247 3.19028E-03-2.47836E-03-1.97642E-02
 -1      2248 3.02863E-03-2.32602E-03-1.85934E-02
 -1      2249 3.24015E-03-2.57828E-03-2.06077E-02
 -1      2250 3.28841E-03-2.67962E-03-2.14632E-02
 -1      2251 3.12577E-03-2.52113E-03-2.02347E-02
 -1      2252 3.33515E-03-2.78239E-03-2.23303E-02
 -1      2253 3.38024E-03-2.88643E-03-2.32084E-02
 -1      2254 3.22010E-03-2.72488E-03-2.19463E-02
 -1      2255 3.42369E-03-2.99187E-03-2.40971E-02
 -1      2256 3.46553E-03-3.09858E-03-2.49959E-02
 -1      2257 3.30810E-03-2.93417E-03-2.37028E-02
 -1      2258 3.50564E-03-3.20648E-03-2.59044E-02
 -1      2259 3.54400E-03-3.31542E-03-2.68220E-02
 -1      2260 3.38966E-03-3.14866E-03-2.55008E-02
 -1      2261 3.58071E-03-3.42556E-03-2.77483E-02
 -1      2262 3.61562E-03-3.53670E-03-2.86827E-02
 -1      2263 3.46483E-03-3.36774E-03-2.73361E-02
 -1      2264 3.64875E-03-3.64887E-03-2.96248E-02
 -1      2265 3.68012E-03-3.76195E-03-3.05740E-02
 -1      2266 3.53313E-03-3.59113E-03-2.92051E-02
 -1      2267 3.70970E-03-3.87592E-03-3.15298E-02
 -1      2268 3.73750E-03-3.99068E-03-3.24918E-02
 -1      2269 3.59452E-03-3.81840E-03-3.11035E-02
 -1      2270 3.76337E-03-4.10627E-03-3.34595E-02
 -1      2271 3.78732E-03-4.22243E-03-3.44322E-02
 -1      2272 3.64878E-03-4.04907E-03-3.30274E-02
 -1      2273 3.80952E-03-4.33935E-03-3.54094E-02
 -1      2274 3.82981E-03-4.45683E-03-3.63907E-02
 -1      2275 3.69605E-03-4.28256E-03-3.49725E-02
 -1      2276 3.84885E-03-4.57534E-03-3.73793E-02
 -1      2277 3.86530E-03-4.69380E-03-3.83671E-02
 -1      2278 3.73661E-03-4.51908E-03-3.69387E-02
 -1      2279 3.87871E-03-4.81788E-03-3.94004E-02
 -1      2280 3.89141E-03-4.93718E-03-4.03926E-02
 -1      2281 3.76860E-03-4.76270E-03-3.89607E-02
 -1      2282 3.82358E-03-4.98379E-03-4.07882E-02
 -1      2283 2.88988E-03-2.55375E-03-2.07888E-02
 -1      2284 2.84485E-03-2.45174E-03-1.99435E-02
 -1      2285 2.97580E-03-2.76198E-03-2.25147E-02
 -1      2286 2.93355E-03-2.65712E-03-2.16460E-02
 -1      2287 2.99901E-03-2.61064E-03-2.11746E-02
 -1      2288 3.26109E-03-3.64512E-03-2.98190E-02
 -1      2289 3.23072E-03-3.53080E-03-2.88760E-02
 -1      2290 3.19882E-03-3.41763E-03-2.79406E-02
 -1      2291 3.16524E-03-3.30536E-03-2.70132E-02
 -1      2292 3.30978E-03-3.47551E-03-2.83621E-02
 -1      2293 3.53820E-03-3.99163E-03-3.25934E-02
 -1      2294 3.56309E-03-4.10816E-03-3.35612E-02
 -1      2295 3.48314E-03-3.76077E-03-3.06754E-02
 -1      2296 3.51153E-03-3.87573E-03-3.16313E-02
 -1      2297 3.42740E-03-3.93397E-03-3.21596E-02
 -1      2298 3.44336E-03-4.58574E-03-3.75627E-02
 -1      2299 3.42823E-03-4.46690E-03-3.65868E-02
 -1      2300 3.55125E-03-4.63734E-03-3.79654E-02
 -1      2301 3.45723E-03-4.70005E-03-3.85009E-02
 -1      2302 3.47512E-03-4.82707E-03-3.95414E-02
 -1      2303 2.70154E-03-2.15526E-03-1.74835E-02
 -1      2304 2.65137E-03-2.05952E-03-1.66902E-02
 -1      2305 2.70570E-03-2.02074E-03-1.62610E-02
 -1      2306 2.59961E-03-1.96562E-03-1.59112E-02
 -1      2307 2.54716E-03-1.87345E-03-1.51465E-02
 -1      2308 3.19669E-03-2.87672E-03-2.33068E-02
 -1      2309 3.23808E-03-2.98317E-03-2.41960E-02
 -1      2310 3.27792E-03-3.09097E-03-2.50953E-02
 -1      2311 3.31623E-03-3.19983E-03-2.60043E-02
 -1      2312 3.16657E-03-3.03329E-03-2.46900E-02
 -1      2313 2.38242E-03-1.60770E-03-1.29436E-02
 -1      2314 2.32458E-03-1.52273E-03-1.22411E-02
 -1      2315 2.49333E-03-1.78307E-03-1.43967E-02
 -1      2316 2.43858E-03-1.69443E-03-1.36623E-02
 -1      2317 2.48389E-03-1.66100E-03-1.32664E-02
 -1      2318 7.44255E-04-1.76314E-04-1.02726E-03
 -1      2319 8.23052E-04-2.06286E-04-1.25049E-03
 -1      2320 9.01599E-04-2.38882E-04-1.49586E-03
 -1      2321 9.79784E-04-2.73868E-04-1.76347E-03
 -1      2322 8.37833E-04-2.03528E-04-1.38505E-03
 -1      2323 1.21335E-03-4.03778E-04-3.09135E-03
 -1      2324 1.14174E-03-3.58592E-04-2.73396E-03
 -1      2325 1.06950E-03-3.15788E-04-2.39811E-03
 -1      2326 9.96816E-04-2.75381E-04-2.08401E-03
 -1      2327 1.13935E-03-3.54263E-04-2.54842E-03
 -1      2328 6.27280E-04-1.10509E-04-8.44995E-04
 -1      2329 5.52200E-04-8.49446E-05-6.64065E-04
 -1      2330 4.01915E-04-4.17685E-05-3.72055E-04
 -1      2331 4.76906E-04-6.19867E-05-5.06036E-04
 -1      2332 5.29609E-04-9.21227E-05-5.77169E-04
 -1      2333 1.80316E-03-8.16924E-04-6.12749E-03
 -1      2334 1.87373E-03-8.80060E-04-6.64773E-03
 -1      2335 1.65948E-03-6.97214E-04-5.14650E-03
 -1      2336 1.73172E-03-7.55902E-04-5.62698E-03
 -1      2337 1.71633E-03-7.70682E-04-5.90264E-03
 -1      2338 2.07944E-03-1.08206E-03-8.31824E-03
 -1      2339 2.14596E-03-1.15355E-03-8.91244E-03
 -1      2340 2.11541E-03-1.17702E-03-9.25148E-03
 -1      2341 2.21254E-03-1.22803E-03-9.53066E-03
 -1      2342 2.27795E-03-1.30404E-03-1.01625E-02
 -1      2343 1.36335E-03-4.85370E-04-3.43018E-03
 -1      2344 1.43840E-03-5.34820E-04-3.82796E-03
 -1      2345 1.51277E-03-5.86618E-04-4.24676E-03
 -1      2346 1.58650E-03-6.40747E-04-4.68638E-03
 -1      2347 1.43297E-03-5.43644E-04-4.05854E-03
 -1      2348 2.64101E-04-4.57303E-05-1.65133E-04
 -1      2349 3.47273E-04-6.29837E-05-2.55081E-04
 -1      2350 2.03416E-04-3.49685E-05-1.13902E-04
 -1      2351 2.44217E-04-2.59189E-05-1.56844E-04
 -1      2352 1.46646E-04-1.82873E-05-7.86133E-05
 -1      2353 1.63589E-04-3.56635E-05-8.26720E-05
 -1      2354 3.01579E-03-2.46439E-03-1.98600E-02
 -1      2355 3.06325E-03-2.56527E-03-2.07042E-02
 -1      2356 2.91962E-03-2.26980E-03-1.82304E-02
 -1      2357 2.96690E-03-2.36489E-03-1.90281E-02
 -1      2358 2.90641E-03-2.40776E-03-1.94852E-02
 -1      2359 3.40949E-03-4.34777E-03-3.56074E-02
 -1      2360 3.38886E-03-4.22885E-03-3.46298E-02
 -1      2361 3.36654E-03-4.11062E-03-3.36566E-02
 -1      2362 3.34253E-03-3.99298E-03-3.26883E-02
 -1      2363 3.47628E-03-4.16816E-03-3.40953E-02
 -1      2364 3.65982E-03-4.69461E-03-3.84167E-02
 -1      2365 3.67303E-03-4.81967E-03-3.94497E-02
 -1      2366 3.57672E-03-4.84438E-03-3.96685E-02
 -1      2367 3.68442E-03-4.91240E-03-4.02144E-02
 -1      2368 3.74151E-03-4.97572E-03-4.07308E-02
 -1      2369 3.64486E-03-5.00094E-03-4.09502E-02
 -1      2370 2.34234E-03-1.38231E-03-1.08137E-02
 -1      2371 2.40476E-03-1.46266E-03-1.14851E-02
 -1      2372 2.46681E-03-1.54490E-03-1.21708E-02
 -1      2373 2.52746E-03-1.62881E-03-1.28719E-02
 -1      2374 2.36564E-03-1.49201E-03-1.18616E-02
 -1      2375 3.62710E-03-4.46164E-03-3.64902E-02
 -1      2376 3.64555E-03-4.58114E-03-3.74786E-02
 -1      2377 3.58625E-03-4.22549E-03-3.45339E-02
 -1      2378 3.60765E-03-4.34336E-03-3.55111E-02
 -1      2379 3.51802E-03-4.40464E-03-3.60477E-02
 -1      2380 2.58687E-03-1.71470E-03-1.35890E-02
 -1      2381 2.64498E-03-1.80228E-03-1.43219E-02
 -1      2382 2.70190E-03-1.89182E-03-1.50703E-02
 -1      2383 2.75763E-03-1.98074E-03-1.58118E-02
 -1      2384 2.59696E-03-1.83728E-03-1.47335E-02
 -1      2385 1.76533E-03-8.50697E-04-6.70233E-03
 -1      2386 1.69887E-03-7.86794E-04-6.18013E-03
 -1      2387 1.89478E-03-9.84860E-04-7.80446E-03
 -1      2388 1.83106E-03-9.16791E-04-7.24399E-03
 -1      2389 1.85348E-03-8.97759E-04-6.94500E-03
 -1      2390 2.26587E-03-1.43966E-03-1.15538E-02
 -1      2391 2.20581E-03-1.35834E-03-1.08829E-02
 -1      2392 2.24267E-03-1.33059E-03-1.05229E-02
 -1      2393 2.14505E-03-1.27929E-03-1.02300E-02
 -1      2394 2.08336E-03-1.20231E-03-9.59593E-03
 -1      2395 1.63154E-03-7.25129E-04-5.67759E-03
 -1      2396 1.56346E-03-6.65702E-04-5.19507E-03
 -1      2397 1.49469E-03-6.08629E-04-4.73284E-03
 -1      2398 1.42526E-03-5.53839E-04-4.29106E-03
 -1      2399 1.57605E-03-6.52548E-04-4.93976E-03
 -1      2400 1.40713E-04-4.89251E-06-7.80488E-05
 -1      2401 1.93987E-04-3.10402E-06-1.17552E-04
 -1      2402 1.50008E-04 8.33307E-06-8.44210E-05
 -1      2403 3.54598E-03-5.00921E-03-4.10286E-02
 -1      2404 3.44449E-03-4.99236E-03-4.09013E-02
 -1      2405 3.48638E-03-4.92041E-03-4.03063E-02
 -1      2406 3.42137E-03-3.53338E-03-2.87836E-02
 -1      2407 3.45307E-03-3.64658E-03-2.97259E-02
 -1      2408 3.35294E-03-3.30999E-03-2.69222E-02
 -1      2409 3.38799E-03-3.42113E-03-2.78489E-02
 -1      2410 3.13037E-03-3.19430E-03-2.60945E-02
 -1      2411 3.09403E-03-3.08437E-03-2.51848E-02
 -1      2412 3.05607E-03-2.97568E-03-2.42846E-02
 -1      2413 3.01663E-03-2.86812E-03-2.33943E-02
 -1      2414 1.21148E-03-3.93603E-04-2.69847E-03
 -1      2415 1.28769E-03-4.38252E-04-3.05357E-03
 -1      2416 1.05749E-03-3.11349E-04-2.05323E-03
 -1      2417 1.13473E-03-3.51260E-04-2.36497E-03
 -1      2418 9.23705E-04-2.37518E-04-1.79188E-03
 -1      2419 8.50246E-04-2.02079E-04-1.52184E-03
 -1      2420 7.76388E-04-1.69132E-04-1.27397E-03
 -1      2421 7.01965E-04-1.38497E-04-1.04845E-03
 -1      2422 4.23791E-04-8.02061E-05-3.59309E-04
 -1      2423 5.04636E-04-1.00685E-04-4.92232E-04
 -1      2424 5.84824E-04-1.23452E-04-6.47571E-04
 -1      2425 6.64773E-04-1.48622E-04-8.26349E-04
 -1      2426 3.77580E-04-5.23327E-05-3.15233E-04
 -1      2427 3.30009E-04-2.50006E-05-2.64824E-04
 -1      2428 2.51197E-04-1.11327E-05-1.70738E-04
 -1      2429 2.79847E-03-2.35137E-03-1.91104E-02
 -1      2430 2.75016E-03-2.25244E-03-1.82906E-02
 -1      2431 2.80893E-03-2.21104E-03-1.78461E-02
 -1      2432 2.86834E-03-2.17345E-03-1.74242E-02
 -1      2433 2.81240E-03-2.07372E-03-1.65890E-02
 -1      2434 3.31702E-03-3.87621E-03-3.17257E-02
 -1      2435 3.28988E-03-3.76019E-03-3.07692E-02
 -1      2436 3.37173E-03-3.70300E-03-3.02472E-02
 -1      2437 3.10923E-03-2.66773E-03-2.15604E-02
 -1      2438 3.15372E-03-2.77150E-03-2.24281E-02
 -1      2439 3.08577E-03-2.81929E-03-2.29107E-02
 -1      2440 1.94354E-03-9.45516E-04-7.18755E-03
 -1      2441 2.01283E-03-1.01316E-03-7.74585E-03
 -1      2442 1.98604E-03-1.03291E-03-8.05925E-03
 -1      2443 2.02058E-03-1.12707E-03-8.97585E-03
 -1      2444 1.95755E-03-1.05450E-03-8.37855E-03
 -1      2445 1.35522E-03-5.01472E-04-3.87013E-03
 -1      2446 1.28451E-03-4.51349E-04-3.47011E-03
 -1      2447 1.28726E-03-4.44135E-04-3.26086E-03
 -1      2448 9.89392E-04-2.73958E-04-1.92269E-03
 -1      2449 6.84516E-04-1.42869E-04-9.36101E-04
 -1      2450 3.24129E-03-3.25211E-03-2.65084E-02
 -1      2451 9.87697E-06-1.41577E-05-1.09264E-04
 -1      2452 3.58359E-04-4.84376E-03-3.97344E-02
 -1      2453 1.95286E-04-4.39385E-03-3.60413E-02
 -1      2454 3.19196E-07-6.57414E-05-5.37567E-04
 -1      2455 7.49126E-06-3.94076E-04-3.22401E-03
 -1      2456 1.55998E-04-3.68691E-03-3.02354E-02
 -1      2457 1.31396E-04-3.23135E-03-2.64932E-02
 -1      2458 1.08314E-04-2.79267E-03-2.28922E-02
 -1      2459 8.71553E-05-2.37486E-03-1.94635E-02
 -1      2460 5.97668E-05-1.79526E-03-1.47073E-02
 -1      2461 2.13055E-05-8.44354E-04-6.91159E-03
 -1      2462 3.72197E-06-2.30381E-04-1.88460E-03
 -1      2463 4.49365E-05-1.44479E-03-1.18342E-02
 -1      2464 1.37672E-05-5.99262E-04-4.90450E-03
 -1      2465 3.14605E-05-1.12593E-03-9.21956E-03
 -1      2466 3.34052E-04-2.08307E-03-1.70413E-02
 -1      2467 4.94459E-04-4.04131E-03-3.31363E-02
 -1      2468 7.47932E-05-1.39341E-04-1.11568E-03
 -1      2469-1.19667E-03-4.98522E-03-4.09301E-02
 -1      2470-6.28313E-05-1.09944E-05-4.95251E-05
 -1      2471 1.38782E-03-4.99896E-03-4.09892E-02
 -1      2472-4.77014E-05 7.88360E-06-3.54489E-05
 -1      2473-3.68925E-04-4.66688E-04-3.99303E-03
 -1      2474-3.76174E-04-2.99277E-04-2.53536E-03
 -1      2475-6.89409E-04-3.44243E-03-2.82909E-02
 -1      2476 9.76023E-04-3.46710E-03-2.84057E-02
 -1      2477 1.07267E-03-2.58893E-03-2.11014E-02
 -1      2478 1.14367E-03-3.01454E-03-2.46177E-02
 -1      2479-9.03804E-04-3.01065E-03-2.47291E-02
 -1      2480-8.76888E-04-2.58024E-03-2.12085E-02
 -1      2481 3.86755E-04-3.27988E-04-2.48805E-03
 -1      2482-7.64684E-04-1.61055E-03-1.32856E-02
 -1      2483-5.45845E-04-1.25653E-03-1.04486E-02
 -1      2484 5.45074E-04-9.94234E-04-8.06652E-03
 -1      2485 8.69362E-04-1.63164E-03-1.31933E-02
 -1      2486 5.88402E-04-7.38260E-04-5.83487E-03
 -1      2487 3.84052E-04-5.03183E-04-4.05054E-03
 -1      2488 6.17909E-04-1.29482E-03-1.05339E-02
 -1      2489-5.55516E-04-7.07823E-04-5.90296E-03
 -1      2490-4.94433E-04-9.55059E-04-7.98891E-03
 -1      2491 4.99423E-05 2.28926E-07-4.65823E-05
 -1      2492-9.13491E-04-4.97442E-03-4.08428E-02
 -1      2493-7.43977E-04-4.16362E-03-3.41952E-02
 -1      2494-2.36305E-04-1.47750E-04-1.37100E-03
 -1      2495-1.30467E-04-3.44572E-05-2.86696E-04
 -1      2496-9.44334E-04-4.63184E-03-3.80206E-02
 -1      2497 6.32905E-05-1.83815E-05-3.64512E-05
 -1      2498-7.55339E-04-3.88213E-03-3.18923E-02
 -1      2499-1.87940E-04-8.45705E-05-8.40815E-04
 -1      2500 1.75525E-03-4.98824E-03-4.08830E-02
 -1      2501-6.75211E-04-1.94119E-03-1.60443E-02
 -1      2502-6.13832E-04-2.17200E-03-1.79136E-02
 -1      2503 1.42193E-04-5.14675E-05-2.84977E-04
 -1      2504-2.51311E-04-4.60482E-03-3.77915E-02
 -1      2505 1.40901E-03-4.62405E-03-3.79071E-02
 -1      2506-1.00759E-03-2.21760E-03-1.82500E-02
 -1      2507-9.66652E-04-1.93516E-03-1.59444E-02
 -1      2508-1.11784E-03-4.21463E-03-3.45963E-02
 -1      2509 1.48847E-03-4.20807E-03-3.44571E-02
 -1      2510 1.44925E-03-3.86750E-03-3.16453E-02
 -1      2511-1.11669E-03-3.87162E-03-3.17829E-02
 -1      2512-3.40051E-04-1.73408E-04-1.48322E-03
 -1      2513-2.54774E-04-9.64014E-05-8.25317E-04
 -1      2514 7.93381E-04-9.72945E-04-7.71482E-03
 -1      2515 9.93350E-04-2.54380E-03-2.08072E-02
 -1      2516 1.41289E-03-3.51481E-03-2.87304E-02
 -1      2517-1.11918E-03-3.51579E-03-2.88668E-02
 -1      2518 1.07699E-03-3.07399E-03-2.51716E-02
 -1      2519-8.33013E-04-3.04211E-03-2.50390E-02
 -1      2520-8.11081E-04-2.60860E-03-2.15025E-02
 -1      2521 3.69923E-04-3.36966E-04-2.70173E-03
 -1      2522-7.13285E-04-1.62997E-03-1.35288E-02
 -1      2523 5.63249E-04-4.94435E-04-3.79071E-03
 -1      2524 5.57274E-04-7.60733E-04-6.15111E-03
 -1      2525-3.58745E-04-2.97783E-04-2.64412E-03
 -1      2526 8.19478E-04-1.67302E-03-1.36398E-02
 -1      2527-7.41477E-04-9.38836E-04-7.80467E-03
 -1      2528-5.45271E-04-4.57883E-04-3.85501E-03
 -1      2529-5.21721E-04-7.15142E-04-6.06954E-03
 -1      2530-8.50001E-04-1.31298E-03-1.08633E-02
 -1      2531 9.28935E-04-1.34183E-03-1.07567E-02
 -1      2532 1.08342E-03-1.95481E-03-1.58303E-02
 -1      2533 3.46419E-04-2.02833E-04-1.43963E-03
 -1      2534 2.58061E-04-1.20501E-04-7.91266E-04
 -1      2535 1.27615E-04-3.84974E-05-3.31994E-04
 -1      2536-1.21884E-04-2.13884E-05-3.09805E-04
 -1      2537 1.03132E-03-2.26705E-03-1.85288E-02
 -1      2538 1.05277E-03-1.93705E-03-1.58162E-02
 -1      2539 1.32156E-03-4.26078E-03-3.49309E-02
 -1      2540 1.27642E-03-3.83942E-03-3.14680E-02
 -1      2541 1.20328E-03-2.24431E-03-1.82156E-02
 -1      2542 2.15447E-04-9.30816E-05-7.61487E-04
 -1      2543 3.09726E-04-1.95545E-04-1.56921E-03
 -1      2544 1.75527E-03-4.50769E-03-3.69181E-02
 -1      2545-5.70199E-04-5.86302E-04-5.06751E-03
 -1      2546 1.58981E-03-3.28758E-03-2.68289E-02
 -1      2547 1.18544E-03-2.75812E-03-2.25726E-02
 -1      2548-1.32061E-03-3.28591E-03-2.69864E-02
 -1      2549-9.46602E-04-2.39175E-03-1.97652E-02
 -1      2550-3.69956E-04-2.12181E-04-1.98599E-03
 -1      2551-6.99996E-04-5.64797E-04-4.74087E-03
 -1      2552 7.27110E-04-6.07763E-04-4.65752E-03
 -1      2553 5.94957E-04-6.38962E-04-5.15742E-03
 -1      2554 1.01768E-03-1.18956E-03-9.44614E-03
 -1      2555-9.49177E-04-1.15314E-03-9.56432E-03
 -1      2556 9.01781E-04-1.49859E-03-1.22048E-02
 -1      2557-8.10823E-04-1.44694E-03-1.20803E-02
 -1      2558 2.01172E-03-4.74991E-03-3.89115E-02
 -1      2559-1.00397E-03-2.81771E-03-2.32368E-02
 -1      2560-1.27924E-03-2.80303E-03-2.30364E-02
 -1      2561 1.49460E-03-2.79524E-03-2.27497E-02
 -1      2562 7.90837E-04-1.13706E-03-9.23463E-03
 -1      2563-9.46532E-04-1.08827E-03-9.19655E-03
 -1      2564-3.54084E-04-1.10080E-03-9.14635E-03
 -1      2565-1.33477E-03-1.04359E-03-9.12086E-03
 -1      2566-1.19025E-03-9.95299E-04-8.57399E-03
 -1      2567-6.14590E-04-1.00880E-03-8.51986E-03
 -1      2568-2.39721E-04-1.04090E-03-8.59475E-03
 -1      2569-6.46708E-04-1.15974E-03-9.74786E-03
 -1      2570-1.25715E-03-1.14703E-03-9.80346E-03
 -1      2571-2.49212E-04-1.19139E-03-9.82574E-03
 -1      2572-6.92206E-04-4.96869E-03-4.07800E-02
 -1      2573-6.84300E-04-4.87558E-03-4.00129E-02
 -1      2574 5.98902E-04-4.97505E-03-4.08095E-02
 -1      2575 6.05569E-04-4.88158E-03-4.00423E-02
 -1      2576 9.54844E-05-4.99217E-03-4.09594E-02
 -1      2577-2.16882E-03-4.85881E-03-3.99158E-02
 -1      2578-2.16473E-03-4.95208E-03-4.06814E-02
 -1      2579-2.02341E-03-4.94600E-03-4.06378E-02
 -1      2580-1.05532E-03-4.97978E-03-4.08868E-02
 -1      2581-2.02772E-03-4.85245E-03-3.98722E-02
 -1      2582-1.18339E-04-5.93217E-06-7.56235E-05
 -1      2583-3.68524E-05-8.90770E-06-7.51477E-05
 -1      2584-9.95113E-05-2.58323E-06-9.50850E-05
 -1      2585-1.08518E-04 1.11680E-05-6.68293E-05
 -1      2586-2.74412E-05-3.96459E-06-6.66532E-05
 -1      2587-5.47465E-05-6.53914E-07-4.51614E-05
 -1      2588-8.02792E-06-1.14066E-05-8.78263E-05
 -1      2589-4.57826E-05-1.60569E-05-5.17155E-05
 -1      2590 1.88739E-05-1.55869E-06-4.93190E-05
 -1      2591-6.28414E-06-5.56387E-06-4.22793E-05
 -1      2592 3.66205E-05-8.83630E-06-7.46399E-05
 -1      2593-1.94778E-03-3.64480E-03-3.00895E-02
 -1      2594-8.57858E-04-3.54434E-03-2.91592E-02
 -1      2595-1.77006E-03-3.54415E-03-2.92149E-02
 -1      2596-1.81769E-03-3.76532E-03-3.10160E-02
 -1      2597-7.23054E-04-3.66076E-03-3.00791E-02
 -1      2598-8.92810E-04-3.76466E-03-3.09604E-02
 -1      2599-2.70006E-04-3.56512E-03-2.92596E-02
 -1      2600-4.35928E-04-3.66929E-03-3.01361E-02
 -1      2601-2.96902E-04-3.78450E-03-3.10613E-02
 -1      2602-1.35365E-03-3.66972E-03-3.01899E-02
 -1      2603-1.11406E-05-1.85023E-05-1.45796E-04
 -1      2604 2.50848E-05-7.30079E-06-9.66722E-05
 -1      2605-1.28496E-04-7.82022E-06-1.51349E-04
 -1      2606-1.48705E-04 9.05129E-06-1.11559E-04
 -1      2607-8.85574E-04-4.26154E-03-3.50162E-02
 -1      2608-1.83174E-03-4.26366E-03-3.50706E-02
 -1      2609-1.97780E-03-4.36115E-03-3.58947E-02
 -1      2610-6.40768E-04-4.48295E-03-3.68145E-02
 -1      2611-1.59307E-03-4.48529E-03-3.68682E-02
 -1      2612-4.99986E-04-4.38364E-03-3.59869E-02
 -1      2613-2.76093E-04-4.27911E-03-3.51166E-02
 -1      2614-1.36432E-03-4.38067E-03-3.59948E-02
 -1      2615-2.74446E-05-4.49921E-03-3.69151E-02
 -1      2616 1.10390E-04-3.00309E-04-2.45978E-03
 -1      2617 1.72602E-04-2.83523E-04-2.27563E-03
 -1      2618-5.82224E-05-2.51003E-04-2.05935E-03
 -1      2619 1.11288E-04-2.29101E-04-1.88221E-03
 -1      2620 1.64662E-04-2.15684E-04-1.72373E-03
 -1      2621 3.42175E-04-2.61971E-04-2.09814E-03
 -1      2622 7.35724E-04-3.20442E-04-2.45327E-03
 -1      2623 5.14828E-04-2.71577E-04-2.04245E-03
 -1      2624 6.59849E-04-2.47637E-04-1.88192E-03
 -1      2625 3.69699E-04-2.79289E-04-2.30024E-03
 -1      2626 3.36365E-04-2.09011E-04-1.74326E-03
 -1      2627 6.78424E-04-2.88806E-04-2.30237E-03
 -1      2628 6.05912E-04-2.17719E-04-1.74864E-03
 -1      2629-6.31439E-05-2.20124E-05-9.97111E-05
 -1      2630-1.61425E-04-9.99940E-06-1.22611E-04
 -1      2631 3.55343E-04-3.73450E-03-3.06117E-02
 -1      2632 3.47585E-04-3.61892E-03-2.96615E-02
 -1      2633-1.45168E-03-3.73605E-03-3.07144E-02
 -1      2634-1.44656E-03-3.61967E-03-2.97641E-02
 -1      2635-1.46291E-03-4.44754E-03-3.65332E-02
 -1      2636-1.69205E-03-4.55244E-03-3.74089E-02
 -1      2637-1.46338E-03-4.32781E-03-3.55535E-02
 -1      2638-5.92789E-04-3.56004E-04-3.20768E-03
 -1      2639-6.48729E-04-3.89015E-04-3.42450E-03
 -1      2640-8.05960E-04-3.83641E-04-3.58306E-03
 -1      2641-8.68533E-04-4.20388E-04-3.81425E-03
 -1      2642-1.71202E-04-4.30875E-04-3.59871E-03
 -1      2643-8.19432E-04-3.34028E-04-3.12538E-03
 -1      2644-7.59441E-04-2.99299E-04-2.91422E-03
 -1      2645-1.84127E-04-3.47354E-04-2.92759E-03
 -1      2646-5.06471E-04-2.23092E-04-2.04225E-03
 -1      2647-5.17826E-04-2.15801E-04-1.91008E-03
 -1      2648-7.27759E-04-2.59793E-04-2.37340E-03
 -1      2649-7.35101E-04-2.54451E-04-2.22857E-03
 -1      2650-1.73894E-04-2.62041E-04-2.19810E-03
 -1      2651-6.69559E-04-3.76293E-04-3.25378E-03
 -1      2652-6.13680E-04-3.43403E-04-3.04656E-03
 -1      2653-8.35712E-04-3.34192E-04-2.90200E-03
 -1      2654-7.75866E-04-2.99670E-04-2.70872E-03
 -1      2655-1.96804E-04-3.43475E-04-2.86944E-03
 -1      2656-1.02291E-03-1.13682E-03-9.54767E-03
 -1      2657-9.95208E-04-1.06075E-03-8.92789E-03
 -1      2658-3.67236E-04-3.78126E-04-3.28535E-03
 -1      2659-2.28067E-04-8.99949E-04-7.44143E-03
 -1      2660-1.11909E-03-8.52769E-04-7.41695E-03
 -1      2661-8.38232E-04-8.04695E-04-6.88648E-03
 -1      2662-2.57895E-04-7.81241E-04-6.48474E-03
 -1      2663-1.09532E-03-7.32008E-04-6.46229E-03
 -1      2664-5.11441E-04-8.31508E-04-6.99931E-03
 -1      2665-9.00175E-04-3.76580E-04-3.35390E-03
 -1      2666-9.64440E-04-4.14045E-04-3.56756E-03
 -1      2667-2.58151E-04-4.23053E-04-3.53253E-03
 -1      2668-9.08320E-04-8.48187E-04-7.19375E-03
 -1      2669-1.16920E-03-7.77205E-04-6.76449E-03
 -1      2670-1.28227E-03-1.78192E-03-1.47524E-02
 -1      2671-1.19602E-03-1.72599E-03-1.43410E-02
 -1      2672-1.67663E-03-1.69269E-03-1.40363E-02
 -1      2673-1.58738E-03-1.63538E-03-1.36348E-02
 -1      2674-3.61573E-04-1.70094E-03-1.39890E-02
 -1      2675-2.97945E-04-2.30228E-04-1.91319E-03
 -1      2676-4.97890E-04-2.70258E-04-2.22718E-03
 -1      2677-2.46059E-04-2.90380E-04-2.38157E-03
 -1      2678-1.19508E-03-8.99712E-04-7.73718E-03
 -1      2679-4.57321E-04-3.74479E-04-3.16198E-03
 -1      2680 8.27115E-05-3.70497E-04-2.98557E-03
 -1      2681 3.99311E-04-4.15084E-04-3.17412E-03
 -1      2682 2.74503E-04-3.42355E-04-2.61441E-03
 -1      2683 5.79633E-04-3.87911E-04-2.79497E-03
 -1      2684 2.09284E-04-3.58144E-04-2.84440E-03
 -1      2685 6.84914E-04-4.28179E-04-3.21044E-03
 -1      2686 6.27707E-04-3.96778E-04-3.04695E-03
 -1      2687 8.48944E-04-3.99980E-04-2.83587E-03
 -1      2688 7.87555E-04-3.66563E-04-2.68470E-03
 -1      2689 8.83324E-05-4.16438E-04-3.36141E-03
 -1      2690-2.28301E-04-3.70664E-04-3.17190E-03
 -1      2691-4.20806E-04-3.99231E-04-3.54084E-03
 -1      2692-9.09783E-05-4.49446E-04-3.73836E-03
 -1      2693-1.32879E-03-3.21077E-03-2.64494E-02
 -1      2694-1.42541E-03-3.27577E-03-2.69575E-02
 -1      2695-1.84962E-03-3.38034E-03-2.78583E-02
 -1      2696-2.75365E-04-3.33674E-03-2.73881E-02
 -1      2697-1.75065E-03-3.31379E-03-2.73445E-02
 -1      2698 1.59074E-03-3.24357E-03-2.65419E-02
 -1      2699 1.69407E-03-3.29799E-03-2.69575E-02
 -1      2700 2.02388E-03-3.35792E-03-2.74947E-02
 -1      2701 2.12986E-03-3.41355E-03-2.79155E-02
 -1      2702 5.50068E-04-3.34937E-03-2.74451E-02
 -1      2703-7.81471E-05-3.49581E-03-2.86872E-02
 -1      2704 3.24203E-04-3.27762E-03-2.68555E-02
 -1      2705-4.41142E-04-3.21217E-03-2.63955E-02
 -1      2706-8.24766E-05-3.38170E-03-2.77518E-02
 -1      2707-8.53581E-04-3.31491E-03-2.72884E-02
 -1      2708-1.86008E-03-3.49533E-03-2.87937E-02
 -1      2709-5.53526E-05-3.29795E-03-2.70448E-02
 -1      2710 7.03210E-04-3.24360E-03-2.65841E-02
 -1      2711 1.12699E-03-3.35863E-03-2.75354E-02
 -1      2712 3.62964E-04-3.41488E-03-2.79997E-02
 -1      2713-7.73627E-04-2.38045E-03-1.95472E-02
 -1      2714-8.28852E-05-2.43506E-03-1.99640E-02
 -1      2715-5.63743E-04-2.54036E-03-2.08348E-02
 -1      2716-3.88175E-04-2.47566E-03-2.03294E-02
 -1      2717-1.26161E-03-2.48654E-03-2.04133E-02
 -1      2718-1.32821E-03-2.40788E-03-1.98869E-02
 -1      2719-1.40373E-03-2.36611E-03-1.95111E-02
 -1      2720-1.82839E-03-2.51306E-03-2.07625E-02
 -1      2721-1.90192E-03-2.47211E-03-2.03795E-02
 -1      2722 5.25497E-04-2.61946E-04-1.87590E-03
 -1      2723 7.44393E-04-3.16642E-04-2.16986E-03
 -1      2724 1.82673E-04-2.75962E-04-2.17585E-03
 -1      2725 7.37519E-04-3.24692E-04-2.35056E-03
 -1      2726 3.05606E-04-2.50936E-04-1.84385E-03
 -1      2727 6.64713E-05-2.48357E-04-1.98761E-03
 -1      2728 5.08031E-04-3.05606E-04-2.13099E-03
 -1      2729 2.56718E-04-3.01509E-04-2.28236E-03
 -1      2730-6.88123E-05-3.74261E-04-3.07129E-03
 -1      2731-3.83069E-04-3.92700E-04-3.26209E-03
 -1      2732-2.61938E-04-3.31206E-04-2.71967E-03
 -1      2733-5.64716E-04-3.50930E-04-2.90328E-03
 -1      2734-1.33895E-03-1.19878E-03-1.01667E-02
 -1      2735-9.49879E-05-1.75738E-03-1.44071E-02
 -1      2736-7.14913E-04-1.79814E-03-1.47832E-02
 -1      2737-5.08167E-04-1.66826E-03-1.36911E-02
 -1      2738-1.12006E-03-1.70965E-03-1.40620E-02
 -1      2739 2.10555E-04-1.74368E-03-1.42484E-02
 -1      2740 8.35744E-04-1.80630E-03-1.46231E-02
 -1      2741 6.16981E-04-1.66535E-03-1.34886E-02
 -1      2742 1.23426E-03-1.72906E-03-1.38577E-02
 -1      2743 4.73310E-04-1.71090E-03-1.39420E-02
 -1      2744 1.40252E-03-1.82016E-03-1.46737E-02
 -1      2745 1.31134E-03-1.77184E-03-1.43410E-02
 -1      2746 1.69558E-03-1.69300E-03-1.35883E-02
 -1      2747 1.78997E-03-1.74267E-03-1.39120E-02
 -1      2748 6.07782E-04-4.12095E-04-3.25158E-03
 -1      2749 6.64859E-04-4.43565E-04-3.42482E-03
 -1      2750 8.20652E-04-4.59168E-04-3.65658E-03
 -1      2751 8.84694E-04-4.94222E-04-3.84272E-03
 -1      2752 1.86417E-04-4.48702E-04-3.62621E-03
 -1      2753 1.29747E-04-8.08841E-04-6.57535E-03
 -1      2754 5.81941E-04-8.63352E-04-6.84563E-03
 -1      2755 4.15286E-04-7.60232E-04-6.03388E-03
 -1      2756 8.57182E-04-8.15868E-04-6.29696E-03
 -1      2757 3.15904E-04-7.88411E-04-6.36269E-03
 -1      2758 9.91060E-04-8.78345E-04-6.88911E-03
 -1      2759 9.18350E-04-8.39113E-04-6.65184E-03
 -1      2760 1.25177E-03-8.30215E-04-6.34479E-03
 -1      2761 1.17513E-03-7.89213E-04-6.11878E-03
 -1      2762-7.18766E-05-4.20625E-04-3.45165E-03
 -1      2763 2.42310E-04-4.01026E-04-3.25996E-03
 -1      2764 1.06869E-04-4.72157E-04-3.86090E-03
 -1      2765 4.33888E-04-4.48472E-04-3.66058E-03
 -1      2766-8.93452E-05-8.16264E-04-6.69464E-03
 -1      2767-5.38023E-04-8.43084E-04-6.96682E-03
 -1      2768-3.78913E-04-7.52042E-04-6.18377E-03
 -1      2769-8.17235E-04-7.79846E-04-6.44944E-03
 -1      2770-2.78544E-04-7.73381E-04-6.39791E-03
 -1      2771-1.12655E-03-1.46109E-03-1.21862E-02
 -1      2772-1.18302E-03-1.42885E-03-1.18769E-02
 -1      2773-1.60886E-03-1.51585E-03-1.25973E-02
 -1      2774-3.50838E-04-1.52523E-03-1.25511E-02
 -1      2775-1.55525E-03-1.54687E-03-1.29162E-02
 -1      2776-1.23252E-03-9.70965E-04-8.31665E-03
 -1      2777-9.09068E-05-8.82550E-04-7.23788E-03
 -1      2778 3.57683E-04-8.54686E-04-6.96489E-03
 -1      2779 6.22464E-04-9.23143E-04-7.53095E-03
 -1      2780 2.74745E-04-9.19530E-04-7.47915E-03
 -1      2781 1.62329E-04-9.54933E-04-7.81171E-03
 -1      2782 8.80740E-04-8.65758E-04-6.94674E-03
 -1      2783 9.53264E-04-9.05049E-04-7.19286E-03
 -1      2784 1.24369E-03-9.75901E-04-7.77455E-03
 -1      2785 1.16485E-03-9.33495E-04-7.51675E-03
 -1      2786-6.71011E-04-1.94101E-04-1.70690E-03
 -1      2787-6.69084E-04-1.96377E-04-1.83485E-03
 -1      2788-1.79703E-04-1.98432E-04-1.67769E-03
 -1      2789 1.35996E-04-8.74612E-04-7.11477E-03
 -1      2790-3.16233E-04-8.19038E-04-6.84363E-03
 -1      2791-1.13850E-04-9.26880E-04-7.64682E-03
 -1      2792-5.78132E-04-8.67541E-04-7.36839E-03
 -1      2793 7.59320E-04-1.45917E-03-1.17551E-02
 -1      2794 1.89540E-04-1.48174E-03-1.20970E-02
 -1      2795 1.18018E-03-1.55649E-03-1.24239E-02
 -1      2796 6.00849E-04-1.57845E-03-1.27717E-02
 -1      2797 4.47763E-04-1.53633E-03-1.25058E-02
 -1      2798 1.60790E-04-1.08482E-03-8.83720E-03
 -1      2799 1.66359E-04-1.16012E-03-9.45533E-03
 -1      2800-1.61221E-04-6.94391E-05-5.51145E-04
 -1      2801-2.94783E-05-5.82213E-05-4.71645E-04
 -1      2802-1.40963E-04-7.78064E-05-5.94196E-04
 -1      2803-1.15556E-04-7.82927E-05-6.73700E-04
 -1      2804-2.94817E-04-9.19899E-05-6.86680E-04
 -1      2805-6.64772E-04-4.31663E-04-3.57012E-03
 -1      2806-3.30030E-04-4.09840E-04-3.36724E-03
 -1      2807 7.72202E-04-3.74760E-04-2.98651E-03
 -1      2808 1.97362E-04-3.67367E-04-2.95764E-03
 -1      2809 8.33577E-04-4.08450E-04-3.15659E-03
 -1      2810-1.56205E-03-4.39493E-03-3.60925E-02
 -1      2811-2.21682E-03-4.30646E-03-3.53698E-02
 -1      2812-2.11988E-03-4.35806E-03-3.58097E-02
 -1      2813-4.63388E-04-4.30364E-03-3.53177E-02
 -1      2814 3.46345E-04-4.23712E-04-3.24815E-03
 -1      2815 2.74294E-04-4.41131E-04-3.50150E-03
 -1      2816 6.83791E-04-4.72312E-04-3.44795E-03
 -1      2817 9.81604E-04-4.85055E-04-3.49160E-03
 -1      2818 9.15453E-04-4.49240E-04-3.32397E-03
 -1      2819-1.12753E-04-3.63008E-04-3.05089E-03
 -1      2820-4.10489E-04-3.14809E-04-2.87267E-03
 -1      2821-1.90425E-03-3.17831E-03-2.62269E-02
 -1      2822-1.80558E-03-3.11221E-03-2.57210E-02
 -1      2823-3.54312E-04-3.13768E-03-2.57635E-02
 -1      2824 2.16301E-03-3.21693E-03-2.62938E-02
 -1      2825 2.05744E-03-3.16150E-03-2.58796E-02
 -1      2826 6.07846E-04-3.15331E-03-2.58302E-02
 -1      2827-9.23052E-04-3.11425E-03-2.56643E-02
 -1      2828-1.65186E-04-3.18143E-03-2.61196E-02
 -1      2829 4.24233E-04-3.21699E-03-2.63748E-02
 -1      2830 1.17505E-03-3.16164E-03-2.59185E-02
 -1      2831 4.21399E-04-3.64594E-04-2.98709E-03
 -1      2832 1.26251E-04-3.87241E-04-3.16823E-03
 -1      2833 1.92350E-04-8.36087E-04-6.83749E-03
 -1      2834 2.97176E-04-8.04082E-04-6.52658E-03
 -1      2835 6.23671E-04-8.05750E-04-6.57408E-03
 -1      2836 1.21015E-03-8.57516E-04-6.80619E-03
 -1      2837 1.13359E-03-8.16250E-04-6.56298E-03
 -1      2838-5.86966E-04-7.47404E-04-6.41404E-03
 -1      2839-1.51749E-04-8.05596E-04-6.67496E-03
 -1      2840-1.71768E-03-1.79734E-03-1.49534E-02
 -1      2841-1.80951E-03-1.85656E-03-1.53694E-02
 -1      2842-4.45878E-04-1.86290E-03-1.53208E-02
 -1      2843 5.02917E-04-8.76181E-04-6.95812E-03
 -1      2844 3.97263E-04-9.06042E-04-7.30783E-03
 -1      2845 9.74121E-04-9.33890E-04-7.23864E-03
 -1      2846-9.24380E-04-8.96781E-04-7.40651E-03
 -1      2847-4.57122E-04-8.66551E-04-7.12339E-03
 -1      2848-3.50401E-04-8.88773E-04-7.35176E-03
 -1      2849 1.31393E-03-9.05303E-04-7.04756E-03
 -1      2850 1.39469E-03-9.48323E-04-7.28867E-03
 -1      2851-9.77694E-05-3.83089E-03-3.14384E-02
 -1      2852-1.91739E-03-3.83281E-03-3.15446E-02
 -1      2853-2.44986E-04-2.25184E-04-1.83633E-03
 -1      2854-4.63068E-04-2.08970E-04-1.70203E-03
 -1      2855-1.61706E-03-1.36753E-03-1.13900E-02
 -1      2856-1.56812E-03-1.39620E-03-1.16960E-02
 -1      2857-4.11320E-04-1.37661E-03-1.13441E-02
 -1      2858-1.94119E-03-2.29080E-03-1.89031E-02
 -1      2859-1.87153E-03-2.32986E-03-1.92763E-02
 -1      2860-4.66972E-04-2.29457E-03-1.88531E-02
 -1      2861-5.97690E-04-1.82948E-03-1.50117E-02
 -1      2862-1.23223E-03-1.87315E-03-1.53963E-02
 -1      2863-6.39078E-04-2.35849E-03-1.93445E-02
 -1      2864-1.31739E-03-2.30586E-03-1.89346E-02
 -1      2865-2.72833E-06-4.46510E-03-3.66296E-02
 -1      2866-8.19533E-04-4.40404E-03-3.61406E-02
 -1      2867-6.62200E-04-4.37608E-03-3.59032E-02
 -1      2868-1.47534E-03-4.31581E-03-3.54163E-02
 -1      2869-6.64100E-04-1.44609E-03-1.19038E-02
 -1      2870-9.64559E-05-1.49385E-03-1.22471E-02
 -1      2871-1.07660E-03-1.53341E-03-1.26209E-02
 -1      2872-4.99678E-04-1.58028E-03-1.29704E-02
 -1      2873-9.47621E-04-8.25019E-04-6.94860E-03
 -1      2874-8.77696E-04-7.81714E-04-6.65074E-03
 -1      2875-1.21286E-03-7.61159E-04-6.43763E-03
 -1      2876-1.13923E-03-7.16263E-04-6.15239E-03
 -1      2877-2.44043E-04-4.11621E-05-4.71876E-04
 -1      2878-2.79400E-04-5.97617E-05-5.56105E-04
 -1      2879-3.82856E-04-5.73384E-05-6.06364E-04
 -1      2880-4.27309E-04-8.05956E-05-6.97759E-04
 -1      2881 4.71259E-04-4.07232E-04-3.10641E-03
 -1      2882-7.63460E-04-3.24086E-03-2.66515E-02
 -1      2883 1.02843E-03-3.26896E-03-2.67753E-02
 -1      2884-1.10342E-04-9.96964E-04-8.21811E-03
 -1      2885 6.43568E-04-1.43250E-03-1.15426E-02
 -1      2886 1.19745E-03-1.41355E-03-1.12103E-02
 -1      2887 4.95355E-04-1.39055E-03-1.12899E-02
 -1      2888-1.14659E-04-1.22244E-03-1.00637E-02
 -1      2889 3.80214E-04-4.16339E-04-3.34348E-03
 -1      2890 1.21941E-03-1.51108E-03-1.21862E-02
 -1      2891 1.27338E-03-1.47365E-03-1.18040E-02
 -1      2892 1.65577E-03-1.60645E-03-1.28705E-02
 -1      2893 1.70711E-03-1.57029E-03-1.24777E-02
 -1      2894 5.54098E-04-8.74060E-04-7.07936E-03
 -1      2895-1.92896E-03-4.21154E-03-3.46318E-02
 -1      2896-4.18477E-04-4.91433E-03-4.03320E-02
 -1      2897 9.23562E-05-4.80436E-03-3.94161E-02
 -1      2898 8.72743E-04-4.92145E-03-4.03616E-02
 -1      2899 6.87687E-04-8.52057E-04-6.74480E-03
 -1      2900-1.38896E-03-4.78759E-03-3.93183E-02
 -1      2901-2.76972E-04-4.90909E-03-4.02884E-02
 -1      2902-3.62432E-04-2.31817E-04-1.97493E-03
 -1      2903-6.45841E-04-8.19571E-04-6.82350E-03
 -1      2904 9.02772E-04-1.48344E-03-1.19490E-02
 -1      2905-8.11479E-04-1.45858E-03-1.20489E-02
 -1      2906-1.26876E-03-8.30382E-04-7.08972E-03
 -1      2907-1.34611E-03-8.77890E-04-7.39345E-03
 -1      2908-5.55336E-04-1.43058E-03-1.17451E-02
 -1      2909-1.10672E-03-1.38560E-03-1.14108E-02
 -1      2910-8.64109E-04-1.76988E-03-1.45908E-02
 -1      2911 1.35277E-03-1.89068E-03-1.51777E-02
 -1      2912 7.12602E-04-1.82604E-03-1.47950E-02
 -1      2913 5.63790E-04-1.87329E-03-1.52645E-02
 -1      2914-9.45640E-04-2.39651E-03-1.97097E-02
 -1      2915 1.83194E-03-1.85292E-03-1.48975E-02
 -1      2916 1.92913E-03-1.90390E-03-1.52334E-02
 -1      2917 6.78059E-04-2.54340E-04-1.65145E-03
 -1      2918 6.76465E-04-2.59303E-04-1.81097E-03
 -1      2919 1.86406E-04-2.13621E-04-1.65455E-03
 -1      2920 1.70251E-03-1.42755E-03-1.12640E-02
 -1      2921 1.65548E-03-1.46091E-03-1.16413E-02
 -1      2922 2.53608E-04-2.38411E-04-1.74466E-03
 -1      2923 4.71382E-04-2.44526E-04-1.61353E-03
 -1      2924-2.16564E-04-6.02520E-05-4.11069E-04
 -1      2925-7.81122E-05-4.63739E-05-4.01909E-04
 -1      2926-9.65063E-05-4.72521E-05-3.38736E-04
 -1      2927 1.60429E-05-3.95499E-06-2.04925E-05
 -1      2928-6.43406E-06-1.71440E-06-1.94034E-05
 -1      2929 8.99473E-06-2.68989E-06-1.83091E-06
 -1      2930 4.60630E-05-1.45569E-05-6.68706E-05
 -1      2931 2.24366E-05-5.29308E-06-5.14607E-06
 -1      2932 6.46392E-04-2.25517E-04-1.93106E-03
 -1      2933-2.03863E-03-4.56737E-03-3.75236E-02
 -1      2934-2.13745E-03-4.51494E-03-3.70810E-02
 -1      2935-3.72795E-04-4.51241E-03-3.70292E-02
 -1      2936 7.16102E-07-2.60135E-06-2.13963E-05
 -1      2937-3.18656E-04-5.06784E-05-4.23530E-04
 -1      2938-2.78656E-04-3.04219E-05-3.53776E-04
 -1      2939 9.74642E-04-1.79048E-03-1.44878E-02
 -1      2940-1.39140E-03-4.52395E-03-3.71288E-02
 -1      2941-5.72334E-04-4.58480E-03-3.76192E-02
 -1      2942 5.79515E-04-5.03891E-03-4.13322E-02
 -1      2943 5.98469E-04-5.04419E-03-4.13755E-02
 -1      2944-1.98338E-05-5.04018E-03-4.13574E-02
 -1      2945 3.70668E-04-2.61326E-04-1.92894E-03
 -1      2946 1.29734E-03-5.11619E-03-4.19505E-02
 -1      2947 1.05631E-03-4.91597E-03-4.03085E-02
 -1      2948 1.27828E-03-5.11101E-03-4.19070E-02
 -1      2949-1.89699E-04-6.12441E-05-5.21249E-04
 -1      2950-1.03284E-03-4.42257E-03-3.63030E-02
 -1      2951 2.29822E-03-3.93681E-03-3.22940E-02
 -1      2952 2.28382E-03-4.09784E-03-3.35853E-02
 -1      2953 1.34515E-03-4.10067E-03-3.36304E-02
 -1      2954 1.32156E-03-3.89011E-03-3.19025E-02
 -1      2955 1.30000E-03-4.04905E-03-3.31911E-02
 -1      2956 2.25082E-03-3.88777E-03-3.18587E-02
 -1      2957 1.78948E-03-1.99668E-03-1.63565E-02
 -1      2958 1.82508E-03-2.09250E-03-1.71447E-02
 -1      2959 1.04460E-03-1.96614E-03-1.60989E-02
 -1      2960 1.82994E-03-2.06612E-03-1.68553E-02
 -1      2961 1.79382E-03-1.97125E-03-1.60725E-02
 -1      2962 2.31707E-03-4.05474E-03-3.32608E-02
 -1      2963 2.30096E-03-4.21648E-03-3.45587E-02
 -1      2964 2.33482E-03-4.17344E-03-3.42329E-02
 -1      2965 1.35761E-03-4.21943E-03-3.46046E-02
 -1      2966 5.28026E-05-4.72442E-03-3.87620E-02
 -1      2967-1.69157E-03-4.66726E-03-3.83474E-02
 -1      2968-5.82088E-04-4.78909E-03-3.93148E-02
 -1      2969-2.30430E-04-4.10867E-06-2.56039E-04
 -1      2970-4.12962E-05-1.95359E-05-1.97436E-04
 -1      2971-8.76831E-05-1.58668E-06-1.40379E-04
 -1      2972 1.95060E-05-3.61241E-07-8.51382E-06
 -1      2973 1.03103E-05 5.53160E-07-6.31779E-06
 -1      2974-5.67024E-05-5.10448E-03-4.18868E-02
 -1      2975-6.56460E-04-5.10577E-03-4.19123E-02
 -1      2976 5.71424E-05-2.63514E-05-2.07347E-04
 -1      2977 3.33177E-05-2.69331E-05-2.47534E-04
 -1      2978 9.13765E-05-1.44444E-05-1.57963E-04
 -1      2979-8.39791E-05-7.65723E-05-6.80965E-04
 -1      2980-4.07264E-04-6.14534E-05-7.87354E-04
 -1      2981-2.82634E-04-5.84724E-05-6.28724E-04
 -1      2982-6.96523E-05-4.45782E-05-4.16409E-04
 -1      2983-3.28696E-04-2.91997E-05-5.04110E-04
 -1      2984-1.56190E-04-4.88389E-05-5.43061E-04
 -1      2985 2.01875E-03-2.55072E-03-2.07092E-02
 -1      2986 5.72969E-04-2.48062E-03-2.02765E-02
 -1      2987 1.50767E-03-2.44255E-03-1.98870E-02
 -1      2988 2.06264E-03-2.37837E-03-1.92591E-02
 -1      2989 6.51417E-04-2.30733E-03-1.88358E-02
 -1      2990 1.14129E-03-2.41411E-03-1.96399E-02
 -1      2991 6.18488E-04-4.69396E-03-3.85013E-02
 -1      2992 8.84926E-04-4.73398E-03-3.88197E-02
 -1      2993 1.39939E-03-4.81100E-03-3.94457E-02
 -1      2994 2.62605E-04-2.41795E-03-1.97885E-02
 -1      2995 7.54604E-04-2.52743E-03-2.06040E-02
 -1      2996 8.29699E-04-2.35428E-03-1.91532E-02
 -1      2997 5.61526E-05-8.46342E-06-4.42817E-05
 -1      2998-1.44066E-04-1.90526E-03-1.56609E-02
 -1      2999-3.01306E-04-1.86854E-03-1.53701E-02
 -1      3000 2.17749E-04-1.83481E-03-1.49969E-02
 -1      3001-1.81449E-04-1.74903E-03-1.43927E-02
 -1      3002-3.32812E-04-1.71397E-03-1.41135E-02
 -1      3003-6.96336E-04-1.78311E-03-1.47654E-02
 -1      3004 1.03310E-04-5.59065E-05-3.06339E-04
 -1      3005 8.38864E-05-5.59629E-05-4.00966E-04
 -1      3006 3.03902E-05-5.74188E-05-4.35129E-04
 -1      3007 1.43992E-04-8.74964E-05-5.39392E-04
 -1      3008 1.17298E-04-8.94249E-05-6.58062E-04
 -1      3009 1.98199E-04-8.22443E-05-5.06485E-04
 -1      3010-1.60620E-03-1.88865E-03-1.57633E-02
 -1      3011-1.21754E-03-1.81818E-03-1.50904E-02
 -1      3012-1.59643E-03-1.73041E-03-1.44948E-02
 -1      3013 2.08836E-03-2.50243E-03-2.02400E-02
 -1      3014 2.12868E-03-2.33240E-03-1.88010E-02
 -1      3015 1.44851E-03-2.49071E-03-2.01838E-02
 -1      3016 1.50493E-03-2.32036E-03-1.87444E-02
 -1      3017 2.86760E-04-6.48227E-05-3.53279E-04
 -1      3018 2.44952E-04-6.95459E-05-4.71936E-04
 -1      3019 3.84304E-04-9.95937E-05-5.91824E-04
 -1      3020-9.44565E-06-4.34572E-03-3.56491E-02
 -1      3021-6.66037E-04-4.25712E-03-3.49254E-02
 -1      3022-2.26490E-03-2.38511E-03-1.95964E-02
 -1      3023-2.05695E-03-1.80103E-03-1.48302E-02
 -1      3024-2.11680E-03-4.23868E-03-3.48330E-02
 -1      3025-3.64572E-04-3.88473E-05-6.77885E-04
 -1      3026-2.89529E-04-8.99408E-06-4.15769E-04
 -1      3027-8.52679E-05-2.33334E-03-1.91296E-02
 -1      3028-6.32674E-04-2.25774E-03-1.85195E-02
 -1      3029-8.19145E-04-2.39057E-04-1.94134E-03
 -1      3030-9.39228E-05-1.84901E-03-1.51583E-02
 -1      3031-6.06409E-04-1.92273E-03-1.57750E-02
 -1      3032-7.05994E-04-2.08089E-04-2.10185E-03
 -1      3033-1.79869E-04-2.24645E-04-1.93533E-03
 -1      3034-3.56157E-04-1.91768E-04-1.73114E-03
 -1      3035 4.20835E-04-4.98133E-03-4.08626E-02
 -1      3036-1.85365E-03-2.41359E-03-2.00428E-02
 -1      3037-4.27684E-04-2.38503E-03-1.96143E-02
 -1      3038-9.78235E-04-2.30386E-03-1.90053E-02
 -1      3039-1.74843E-03-1.89123E-03-1.57148E-02
 -1      3040 1.34119E-03-1.86253E-03-1.50905E-02
 -1      3041 1.87105E-03-1.94451E-03-1.56580E-02
 -1      3042-3.39761E-05-7.73086E-05-6.29525E-04
 -1      3043-1.60514E-04-9.84272E-05-7.70435E-04
 -1      3044-6.17575E-04-1.64451E-04-1.56007E-03
 -1      3045-6.55892E-04-1.73380E-04-1.80694E-03
 -1      3046-5.43798E-05-2.15256E-04-1.76568E-03
 -1      3047-2.26340E-04-1.91921E-04-1.55886E-03
 -1      3048-5.05222E-05-8.24623E-05-7.31598E-04
 -1      3049 3.52049E-05-7.62724E-05-5.87796E-04
 -1      3050-4.47502E-05-4.79020E-05-4.51921E-04
 -1      3051-1.84591E-03-2.22843E-03-1.84530E-02
 -1      3052-1.82987E-03-2.31040E-03-1.92076E-02
 -1      3053 2.18127E-03-1.84749E-03-1.45915E-02
 -1      3054-7.77601E-04-1.83910E-03-1.52805E-02
 -1      3055-7.93498E-04-1.68311E-03-1.40253E-02
 -1      3056-4.36256E-04-7.63191E-05-7.81686E-04
 -1      3057 4.48816E-04-9.44954E-05-9.25244E-04
 -1      3058 4.99487E-04-1.23224E-04-1.14182E-03
 -1      3059 2.84549E-04-1.42989E-04-1.22060E-03
 -1      3060 5.57093E-04-1.83219E-04-1.47988E-03
 -1      3061 5.07900E-04-1.51105E-04-1.23335E-03
 -1      3062 6.44643E-04-1.12118E-03-8.94212E-03
 -1      3063 6.64548E-04-1.19648E-03-9.56381E-03
 -1      3064 5.21054E-04-1.15508E-03-9.33221E-03
 -1      3065-1.51589E-03-1.82993E-03-1.53357E-02
 -1      3066-1.50752E-03-1.67297E-03-1.40805E-02
 -1      3067 8.28860E-04-3.06352E-04-1.83813E-03
 -1      3068 1.36163E-03-9.72743E-04-7.60258E-03
 -1      3069 2.25988E-04-8.29294E-05-3.76716E-04
 -1      3070 2.98816E-04-1.18439E-04-6.29048E-04
 -1      3071 4.76803E-04-2.34953E-04-1.75134E-03
 -1      3072 6.23484E-04-2.24384E-04-1.53784E-03
 -1      3073 1.63949E-04-1.09008E-04-7.08587E-04
 -1      3074-1.23327E-04-2.35643E-04-2.03118E-03
 -1      3075 1.67583E-05-2.08549E-04-1.69647E-03
 -1      3076 5.22116E-04-9.43486E-04-7.51170E-03
 -1      3077 7.84821E-04-3.63246E-04-2.79416E-03
 -1      3078 9.88909E-04-3.64912E-03-2.98525E-02
 -1      3079 7.87993E-04-3.59952E-03-2.94806E-02
 -1      3080 9.76326E-04-3.53466E-03-2.89076E-02
 -1      3081-4.17338E-05-3.64021E-03-2.98545E-02
 -1      3082-3.68395E-05-3.75605E-03-3.08058E-02
 -1      3083-6.79291E-04-3.55635E-03-2.91682E-02
 -1      3084-6.79338E-04-3.67165E-03-3.01146E-02
 -1      3085-4.85347E-04-3.60042E-03-2.95492E-02
 -1      3086 1.77018E-03-3.75313E-03-3.07144E-02
 -1      3087 1.75232E-03-3.63796E-03-2.97641E-02
 -1      3088 2.37421E-03-3.55338E-03-2.90148E-02
 -1      3089 2.39742E-03-3.66751E-03-2.99594E-02
 -1      3090-2.08811E-03-3.65082E-03-3.00281E-02
 -1      3091-2.07745E-03-3.53494E-03-2.90831E-02
 -1      3092-2.15795E-03-3.30494E-03-2.72082E-02
 -1      3093-1.07499E-03-3.16299E-03-2.60101E-02
 -1      3094-5.93017E-04-3.25724E-03-2.67393E-02
 -1      3095 2.43013E-03-3.32736E-03-2.71293E-02
 -1      3096 1.33139E-03-3.18009E-03-2.59988E-02
 -1      3097 8.58740E-04-3.25826E-03-2.66607E-02
 -1      3098 1.05595E-03-3.30786E-03-2.70211E-02
 -1      3099 3.66632E-04-3.16511E-03-2.59273E-02
 -1      3100-7.83414E-04-3.32765E-03-2.72897E-02
 -1      3101-1.10113E-04-3.17909E-03-2.60723E-02
 -1      3102 1.18309E-04-3.42513E-04-2.80325E-03
 -1      3103 9.66938E-04-4.97971E-04-3.71722E-03
 -1      3104 3.66252E-04-4.71662E-04-3.63947E-03
 -1      3105-1.80492E-04-1.65904E-03-1.36562E-02
 -1      3106-1.56626E-03-1.63940E-03-1.37576E-02
 -1      3107 1.83928E-04-7.71468E-04-6.30821E-03
 -1      3108 1.16460E-03-7.93222E-04-6.27925E-03
 -1      3109-4.77146E-04-3.77827E-03-3.10070E-02
 -1      3110-6.72855E-04-3.84996E-03-3.15790E-02
 -1      3111-1.11898E-03-3.69273E-03-3.03170E-02
 -1      3112 7.99266E-04-3.77659E-03-3.09385E-02
 -1      3113 1.00194E-03-3.82626E-03-3.13153E-02
 -1      3114 1.43190E-03-3.69009E-03-3.01798E-02
 -1      3115 2.42541E-03-3.84407E-03-3.14219E-02
 -1      3116-2.09654E-03-3.82990E-03-3.14906E-02
 -1      3117 2.35136E-04-9.36583E-05-8.34572E-04
 -1      3118 4.20306E-04-1.00498E-04-8.49027E-04
 -1      3119 2.62786E-04-1.40125E-04-1.12959E-03
 -1      3120-4.71549E-04-9.34700E-04-7.68204E-03
 -1      3121-1.06902E-04-3.19265E-04-2.69205E-03
 -1      3122-7.72813E-04-2.90704E-04-2.76447E-03
 -1      3123 2.83997E-04-9.05868E-05-6.28822E-04
 -1      3124 4.38550E-04-1.23225E-04-7.65278E-04
 -1      3125-1.47612E-04-7.41566E-04-6.15090E-03
 -1      3126-1.31175E-03-8.98825E-04-7.64810E-03
 -1      3127 2.33532E-04-2.04796E-04-1.47373E-03
 -1      3128-1.14971E-04-2.00088E-04-1.73830E-03
 -1      3129-9.49087E-04-4.24102E-04-3.74868E-03
 -1      3130-3.47486E-04-4.58000E-04-3.76452E-03
 -1      3131-1.52521E-03-1.15363E-03-9.72871E-03
 -1      3132-1.48339E-03-1.07690E-03-9.10427E-03
 -1      3133-4.55568E-04-1.13674E-03-9.39099E-03
 -1      3134 1.55412E-03-9.18319E-04-6.82577E-03
 -1      3135 7.29634E-04-1.91808E-03-1.55549E-02
 -1      3136-1.56502E-03-1.45828E-03-1.23160E-02
 -1      3137-3.80327E-04-1.44825E-03-1.19572E-02
 -1      3138-8.31704E-04-1.37905E-03-1.14692E-02
 -1      3139 2.16294E-03-3.24649E-03-2.66317E-02
 -1      3140-1.90361E-03-3.18232E-03-2.63505E-02
 -1      3141 1.07859E-03-4.72338E-04-3.16344E-03
 -1      3142-2.78401E-04-1.48677E-05-3.65947E-04
 -1      3143 1.65785E-03-1.53382E-03-1.23786E-02
 -1      3144 4.71142E-04-1.47411E-03-1.20192E-02
 -1      3145 9.16528E-04-1.41899E-03-1.14758E-02
 -1      3146 8.42026E-04-3.96470E-04-3.28453E-03
 -1      3147-1.12781E-03-7.12556E-04-6.23695E-03
 -1      3148-2.40398E-04-1.48020E-03-1.22148E-02
 -1      3149 8.06439E-05-1.39391E-03-1.14062E-02
 -1      3150 3.33481E-04-1.51821E-03-1.24280E-02
 -1      3151 4.37086E-06-1.40619E-03-1.15215E-02
 -1      3152-4.32313E-06-2.86190E-06 3.49895E-06
 -1      3153 6.46985E-06 3.35603E-06 2.21099E-06
 -1      3154-7.57537E-07-3.11343E-06-2.28151E-05
 -1      3155 2.93572E-05 5.35315E-06-2.64269E-05
 -1      3156 1.67598E-05 2.91066E-06-6.99405E-06
 -1      3157-8.30269E-04-3.09578E-04-3.15274E-03
 -1      3158-1.50656E-03-8.44386E-04-7.00634E-03
 -1      3159-1.95110E-04-5.00169E-05-6.46290E-04
 -1      3160-1.57151E-04-1.89181E-05-3.85906E-04
 -1      3161-1.05966E-03-3.97612E-04-3.29451E-03
 -1      3162 9.06251E-04-4.15108E-03-3.40315E-02
 -1      3163 1.86507E-03-3.99016E-03-3.26921E-02
 -1      3164 8.87659E-04-3.94055E-03-3.23002E-02
 -1      3165 9.32187E-04-3.99252E-03-3.27378E-02
 -1      3166 1.05603E-03-2.22861E-03-1.82522E-02
 -1      3167 6.77716E-04-2.17533E-03-1.77794E-02
 -1      3168 7.04392E-04-2.13937E-03-1.75088E-02
 -1      3169 1.06714E-03-2.06157E-03-1.68829E-02
 -1      3170 6.99042E-04-2.01083E-03-1.64246E-02
 -1      3171 1.04413E-03-2.09964E-03-1.71524E-02
 -1      3172 3.27602E-04-8.75766E-05-4.05443E-04
 -1      3173 4.29439E-04-1.24732E-04-6.60391E-04
 -1      3174 1.99048E-03-1.50588E-03-1.17272E-02
 -1      3175-1.89192E-03-1.44785E-03-1.19487E-02
 -1      3176 2.13668E-03-3.10656E-03-2.53816E-02
 -1      3177 2.40255E-03-3.21643E-03-2.62089E-02
 -1      3178-1.88974E-03-3.06606E-03-2.53152E-02
 -1      3179-2.14235E-03-3.19185E-03-2.62871E-02
 -1      3180 4.15367E-04-3.10575E-03-2.54610E-02
 -1      3181-7.80645E-04-3.21518E-03-2.63671E-02
 -1      3182-1.68137E-04-3.07015E-03-2.52078E-02
 -1      3183 1.04123E-03-3.19648E-03-2.61005E-02
 -1      3184 1.21655E-03-8.55625E-04-6.99736E-03
 -1      3185-1.53138E-03-1.31328E-03-1.10226E-02
 -1      3186-1.53022E-03-1.37318E-03-1.16273E-02
 -1      3187 1.61157E-03-1.37959E-03-1.09678E-02
 -1      3188 1.61562E-03-1.45010E-03-1.16874E-02
 -1      3189 6.02312E-04-4.57954E-03-3.75624E-02
 -1      3190 8.00350E-04-4.50898E-03-3.69726E-02
 -1      3191 5.62893E-04-4.39776E-03-3.60711E-02
 -1      3192 7.59809E-04-4.32774E-03-3.54855E-02
 -1      3193 1.36594E-03-4.44203E-03-3.64151E-02
 -1      3194-1.17795E-03-7.58578E-04-6.81592E-03
 -1      3195 6.27298E-04-1.35106E-03-1.08700E-02
 -1      3196-2.34916E-04-1.39601E-03-1.15256E-02
 -1      3197-3.81113E-05-3.18401E-05-3.17845E-04
 -1      3198-5.41715E-04-1.34793E-03-1.10682E-02
 -1      3199 3.25091E-04-1.43369E-03-1.17345E-02
 -1      3200 5.51676E-04-1.55740E-04-1.39049E-03
 -1      3201 3.13403E-04-1.75557E-04-1.47814E-03
 -1      3202-1.92542E-03-4.91877E-03-4.04181E-02
 -1      3203-1.59005E-03-4.73313E-03-3.88914E-02
 -1      3204-2.52341E-05-1.40651E-06-7.12318E-05
 -1      3205 2.17946E-05-1.96427E-05-1.23575E-04
 -1      3206-3.24903E-05-1.89121E-05-2.10903E-04
 -1      3207-2.41722E-03-5.14556E-03-4.22804E-02
 -1      3208-2.51350E-03-5.15143E-03-4.23284E-02
 -1      3209-1.40139E-03-5.10617E-03-4.19326E-02
 -1      3210-1.49784E-03-5.11197E-03-4.19805E-02
 -1      3211-2.21062E-03-5.02471E-03-4.12770E-02
 -1      3212 1.53614E-04-1.17117E-04-9.30431E-04
 -1      3213 3.74518E-04-1.30213E-04-1.02357E-03
 -1      3214 1.83938E-04-1.67479E-04-1.33310E-03
 -1      3215 1.75119E-05-1.28261E-05-6.99854E-05
 -1      3216 4.78736E-05-2.03756E-05-3.10556E-05
 -1      3217 6.47974E-05-2.72530E-05-7.21158E-05
 -1      3218-2.31813E-03-5.13592E-03-4.22015E-02
 -1      3219-1.25961E-03-5.10099E-03-4.18889E-02
 -1      3220-2.06927E-03-5.01894E-03-4.12337E-02
 -1      3221-1.97013E-03-5.00908E-03-4.11547E-02
 -1      3222-1.81082E-05 2.55501E-06-2.98385E-05
 -1      3223 4.93357E-04-4.87455E-03-3.99822E-02
 -1      3224 4.99944E-04-4.78143E-03-3.92161E-02
 -1      3225-1.41851E-04-4.93942E-03-4.05359E-02
 -1      3226-1.34538E-04-4.84601E-03-3.97690E-02
 -1      3227-2.94382E-04-4.73746E-03-3.88766E-02
 -1      3228-5.59251E-04-4.69894E-03-3.85582E-02
 -1      3229-1.07108E-03-4.80844E-03-3.94733E-02
 -1      3230 1.48146E-03-2.34183E-03-1.90540E-02
 -1      3231 2.02706E-03-2.27928E-03-1.84359E-02
 -1      3232 3.78592E-04-3.32549E-04-2.59800E-03
 -1      3233-8.85253E-06-3.19080E-04-2.61397E-03
 -1      3234 1.51116E-04-1.09890E-05-1.19746E-04
 -1      3235 1.39985E-04-2.57467E-05-1.53157E-04
 -1      3236 2.33319E-04-3.35601E-05-2.66028E-04
 -1      3237 1.08627E-04-1.73313E-05-9.69649E-05
 -1      3238 1.61036E-04-2.99206E-05-1.13291E-04
 -1      3239 1.17508E-04-2.12184E-05-6.87157E-05
 -1      3240 5.53904E-04-4.27863E-03-3.50926E-02
 -1      3241 3.88575E-04-2.27736E-03-1.86584E-02
 -1      3242 5.63916E-04-2.32234E-03-1.89943E-02
 -1      3243 3.98375E-04-2.37807E-03-1.94856E-02
 -1      3244 3.87382E-04-1.82513E-03-1.49471E-02
 -1      3245 5.49906E-04-1.86826E-03-1.52583E-02
 -1      3246 3.98090E-04-1.91794E-03-1.57092E-02
 -1      3247 2.31673E-03-3.71178E-03-3.03788E-02
 -1      3248 2.33801E-03-3.82749E-03-3.13333E-02
 -1      3249 7.13935E-04-3.76388E-03-3.08505E-02
 -1      3250 5.21614E-04-3.83139E-03-3.14211E-02
 -1      3251 5.12772E-04-3.71507E-03-3.04653E-02
 -1      3252 1.81519E-03-1.83735E-03-1.48914E-02
 -1      3253 1.85416E-03-1.92923E-03-1.56515E-02
 -1      3254 1.94213E-03-2.28535E-03-1.85925E-02
 -1      3255 1.97624E-03-2.38510E-03-1.94180E-02
 -1      3256-2.03902E-03-4.68188E-03-3.84623E-02
 -1      3257-2.57844E-03-4.40924E-03-3.61924E-02
 -1      3258-2.55733E-04-2.42446E-03-1.99354E-02
 -1      3259 1.44234E-04-2.31730E-03-1.89814E-02
 -1      3260 3.93552E-04-4.32308E-03-3.54509E-02
 -1      3261 4.01738E-04-4.44226E-03-3.64309E-02
 -1      3262 1.18203E-03-4.50007E-03-3.68686E-02
 -1      3263 9.73697E-04-4.45033E-03-3.64793E-02
 -1      3264 1.17111E-03-4.38107E-03-3.58868E-02
 -1      3265 1.10809E-04-4.20707E-06-7.31486E-05
 -1      3266 2.15270E-03-3.52689E-03-2.88512E-02
 -1      3267 5.69440E-04-3.57709E-03-2.93172E-02
 -1      3268 1.12535E-03-3.65212E-03-2.99277E-02
 -1      3269 3.71020E-04-3.52901E-03-2.89367E-02
 -1      3270 1.71248E-04-1.22237E-04-1.01557E-03
 -1      3271 1.41379E-03-4.52081E-03-3.70718E-02
 -1      3272 1.36948E-03-4.33879E-03-3.55832E-02
 -1      3273-4.41019E-04-8.75491E-05-5.72285E-04
 -1      3274 3.61792E-04-7.68091E-05-5.78755E-04
 -1      3275 4.14041E-04-1.00218E-04-7.50399E-04
 -1      3276 9.98201E-05-8.14325E-05-6.45108E-04
 -1      3277 6.08888E-04-2.12012E-04-1.60336E-03
 -1      3278 6.02358E-05-6.59522E-05-5.64516E-04
 -1      3279 6.88249E-05-8.74683E-05-7.37111E-04
 -1      3280 1.02295E-04-1.94471E-04-1.60101E-03
 -1      3281-6.37231E-05 1.67427E-05-4.29978E-05
 -1      3282-1.13095E-04 2.15498E-05-6.69270E-05
 -1      3283-1.39940E-04 3.87024E-05-7.49008E-05
 -1      3284-1.03505E-04 5.68161E-06-1.58670E-04
 -1      3285-1.91528E-04 1.32067E-05-1.85432E-04
 -1      3286 1.19159E-03-4.94702E-03-4.05561E-02
 -1      3287 1.18542E-03-4.79651E-03-3.93227E-02
 -1      3288 1.32076E-03-4.82792E-03-3.95696E-02
 -1      3289 1.88418E-03-4.86895E-03-3.98964E-02
 -1      3290-9.53431E-04-4.91541E-03-4.03651E-02
 -1      3291-1.96475E-03-4.85899E-03-3.99406E-02
 -1      3292-6.21732E-04-4.73020E-03-3.88380E-02
 -1      3293 1.41386E-03-4.95520E-03-4.06338E-02
 -1      3294 1.42505E-03-4.76707E-03-3.90912E-02
 -1      3295-1.46478E-05-7.16103E-06 1.10550E-06
 -1      3296-2.46833E-05-5.86913E-06-8.82996E-06
 -1      3297-4.79109E-05-1.57577E-05-2.78994E-05
 -1      3298-9.02053E-06-2.56668E-06-5.44980E-06
 -1      3299-1.79523E-04-5.11484E-03-4.19737E-02
 -1      3300 1.11353E-03-5.12200E-03-4.20035E-02
 -1      3301 2.44398E-03-2.41285E-03-1.93364E-02
 -1      3302-1.58839E-05 3.53344E-06-3.83172E-06
 -1      3303 8.13653E-06-5.60858E-06-3.00407E-05
 -1      3304-8.00812E-05-3.47802E-05-2.29204E-04
 -1      3305-4.65226E-05-2.14865E-05-1.88056E-04
 -1      3306-1.02054E-04-2.02598E-05-1.44315E-04
 -1      3307-7.98165E-04-5.11083E-03-4.19559E-02
 -1      3308-1.46458E-03-3.79095E-03-3.11019E-02
 -1      3309-1.46195E-03-3.61325E-03-2.96428E-02
 -1      3310 1.78799E-03-3.77586E-03-3.08389E-02
 -1      3311 1.76604E-03-3.60026E-03-2.93815E-02
 -1      3312 2.51133E-03-3.78485E-03-3.08946E-02
 -1      3313 2.48153E-03-3.60949E-03-2.94376E-02
 -1      3314-2.18809E-03-3.78048E-03-3.10585E-02
 -1      3315-2.17763E-03-3.60232E-03-2.96007E-02
 -1      3316-2.28858E-04-2.00436E-05-2.46232E-04
 -1      3317 2.94171E-03-5.15122E-03-4.22011E-02
 -1      3318 2.84284E-03-5.16013E-03-4.22799E-02
 -1      3319 2.62746E-03-5.03513E-03-4.12537E-02
 -1      3320 1.96913E-03-5.11317E-03-4.19086E-02
 -1      3321 2.72629E-03-5.02645E-03-4.11749E-02
 -1      3322 6.38837E-05 6.78830E-06-6.36757E-05
 -1      3323 1.15819E-04 5.09439E-06-8.08380E-05
 -1      3324 1.39787E-04 1.82696E-05-9.99238E-05
 -1      3325 1.04649E-04-1.04137E-05-1.90926E-04
 -1      3326 1.94542E-04-1.31581E-05-2.06490E-04
 -1      3327 2.42387E-03-4.39162E-03-3.59776E-02
 -1      3328 1.86042E-03-4.45913E-03-3.65332E-02
 -1      3329 2.64480E-03-4.51652E-03-3.69733E-02
 -1      3330 1.53813E-03-4.38419E-03-3.59236E-02
 -1      3331 2.40816E-03-4.27284E-03-3.50002E-02
 -1      3332 2.62954E-03-4.39764E-03-3.59920E-02
 -1      3333 2.67050E-03-4.96325E-03-4.06580E-02
 -1      3334 1.57172E-03-4.99356E-03-4.09365E-02
 -1      3335 3.66098E-04-2.51790E-03-2.06339E-02
 -1      3336 5.35441E-04-2.46031E-03-2.01317E-02
 -1      3337 1.01364E-03-2.40406E-03-1.96564E-02
 -1      3338 4.45922E-04-1.73522E-03-1.41697E-02
 -1      3339 2.88920E-04-1.69378E-03-1.38685E-02
 -1      3340 9.33976E-04-1.80316E-03-1.47121E-02
 -1      3341 1.97574E-03-2.52373E-03-2.05631E-02
 -1      3342 1.67437E-03-1.70781E-03-1.38133E-02
 -1      3343 8.13265E-04-2.25469E-03-1.83304E-02
 -1      3344-2.55582E-04-2.32242E-03-1.91006E-02
 -1      3345 1.56086E-05-8.46604E-06 7.60299E-06
 -1      3346 4.13542E-06-1.31309E-06 1.00099E-05
 -1      3347 5.08553E-05-2.15795E-05-1.37585E-05
 -1      3348 2.00406E-05-9.37598E-06-7.95907E-06
 -1      3349 2.40952E-05-7.99712E-06-2.07376E-06
 -1      3350 2.38549E-03-4.95138E-03-4.05835E-02
 -1      3351 2.41085E-03-4.90689E-03-4.02283E-02
 -1      3352 2.39363E-03-4.76367E-03-3.90416E-02
 -1      3353 3.24384E-05 2.20813E-06-1.43583E-05
 -1      3354 3.56141E-05-2.37298E-06-1.61250E-05
 -1      3355 8.84384E-05-2.03430E-05-4.23285E-05
 -1      3356 3.03115E-05-3.74672E-06-1.03522E-05
 -1      3357 8.33797E-05-1.06020E-05-4.39755E-05
 -1      3358 8.44747E-05-4.19673E-05-2.01924E-04
 -1      3359 6.36977E-05-2.93714E-05-1.87498E-04
 -1      3360 1.08646E-04-3.30245E-05-1.32189E-04
 -1      3361-4.28756E-05-5.17139E-03-4.24327E-02
 -1      3362-8.58083E-04-5.16536E-03-4.24030E-02
 -1      3363-2.90579E-04-5.03912E-03-4.13522E-02
 -1      3364-1.10562E-03-5.03355E-03-4.13224E-02
 -1      3365-9.49138E-04-5.11721E-03-4.20104E-02
 -1      3366 2.35867E-04-4.88770E-05-2.45878E-04
 -1      3367-5.97787E-04-4.61807E-03-3.79065E-02
 -1      3368-5.12812E-04-1.14390E-04-1.25268E-03
 -1      3369-5.65470E-04-1.35400E-04-1.30741E-03
 -1      3370-2.87647E-04-1.59610E-04-1.43100E-03
 -1      3371-2.51512E-04-1.18628E-04-1.08513E-03
 -1      3372-2.97755E-04-1.31882E-04-1.13052E-03
 -1      3373-4.89394E-04-9.82499E-05-9.79758E-04
 -1      3374 2.47294E-03-4.57359E-03-3.74669E-02
 -1      3375-8.28635E-05-4.08870E-03-3.35525E-02
 -1      3376 3.71524E-04-4.18595E-03-3.43252E-02
 -1      3377 1.02965E-03-4.11315E-03-3.36832E-02
 -1      3378 1.01356E-03-3.94273E-03-3.22769E-02
 -1      3379 1.46955E-03-4.03704E-03-3.30456E-02
 -1      3380 3.60650E-04-4.01431E-03-3.29145E-02
 -1      3381-1.92541E-03-4.09215E-03-3.36581E-02
 -1      3382-2.11241E-03-4.11963E-03-3.38583E-02
 -1      3383-9.30852E-04-4.18895E-03-3.43966E-02
 -1      3384-9.32412E-04-4.01671E-03-3.29858E-02
 -1      3385-1.11818E-03-4.04246E-03-3.31841E-02
 -1      3386-2.10400E-03-3.94761E-03-3.24522E-02
 -1      3387-2.12361E-04-1.14148E-04-1.08992E-03
 -1      3388-4.56103E-04-8.38656E-05-9.86592E-04
 -1      3389-2.21929E-04-8.95321E-05-8.37444E-04
 -1      3390-3.73968E-04-2.55784E-04-2.25763E-03
 -1      3391 5.21923E-05-2.49163E-03-2.04270E-02
 -1      3392 4.57796E-04-3.36378E-03-2.75555E-02
 -1      3393-1.00754E-03-3.36306E-03-2.76381E-02
 -1      3394 1.28517E-03-3.37591E-03-2.76161E-02
 -1      3395-1.80075E-04-3.37603E-03-2.76917E-02
 -1      3396-9.12384E-04-2.48619E-03-2.04853E-02
 -1      3397-3.56335E-05 3.90108E-06-1.62367E-05
 -1      3398-3.52159E-05-1.02916E-06-1.59269E-05
 -1      3399-8.04521E-05 6.57420E-06-4.34412E-05
 -1      3400-2.91278E-05 3.22701E-06-1.04194E-05
 -1      3401-7.83049E-05 1.52320E-05-3.92454E-05
 -1      3402-9.29169E-05-3.94828E-03-3.24007E-02
 -1      3403-7.50099E-04-4.02243E-03-3.30398E-02
 -1      3404 3.47740E-04-3.87476E-03-3.17676E-02
 -1      3405-1.92343E-03-3.95092E-03-3.25067E-02
 -1      3406-9.36232E-04-3.87661E-03-3.18387E-02
 -1      3407-7.88546E-04-1.52894E-03-1.26808E-02
 -1      3408-1.26236E-04-2.77958E-05-3.02163E-04
 -1      3409 2.32354E-04-4.62782E-03-3.79633E-02
 -1      3410-1.16952E-05-2.70978E-04-2.22572E-03
 -1      3411 2.06804E-03-3.58533E-03-2.93670E-02
 -1      3412 2.23072E-03-3.77121E-03-3.09006E-02
 -1      3413 1.15616E-03-3.58679E-03-2.94094E-02
 -1      3414 1.30758E-03-3.77328E-03-3.09437E-02
 -1      3415 7.33550E-05-5.42404E-05-4.28808E-04
 -1      3416 4.11231E-05-4.12028E-05-3.61440E-04
 -1      3417 1.69830E-04-6.30752E-05-5.24799E-04
 -1      3418 8.33696E-05-1.55535E-03-1.27370E-02
 -1      3419-2.21145E-04-5.12930E-03-4.20928E-02
 -1      3420 5.94157E-04-5.13539E-03-4.21226E-02
 -1      3421-5.54968E-04-5.00411E-03-4.10782E-02
 -1      3422 2.60271E-04-5.01068E-03-4.11081E-02
 -1      3423-5.80115E-04-5.09930E-03-4.18573E-02
 -1      3424-5.56303E-05-1.06414E-04-9.28711E-04
 -1      3425-6.13958E-05-1.38466E-04-1.19197E-03
 -1      3426 1.84940E-04-1.33563E-04-9.02664E-04
 -1      3427 4.49212E-05-1.33084E-04-1.05693E-03
 -1      3428 3.84622E-05-1.02809E-04-8.11381E-04
 -1      3429 1.45867E-05-1.54076E-03-1.26284E-02
 -1      3430 8.86412E-04-1.56548E-03-1.26986E-02
 -1      3431-7.52425E-04-1.20256E-03-1.00057E-02
 -1      3432 2.52676E-04-1.22116E-03-9.93786E-03
 -1      3433-6.39170E-06-3.71966E-05-3.04563E-04
 -1      3434 2.82193E-04-4.98276E-05-3.77836E-04
 -1      3435-1.81875E-03-2.12866E-03-1.76427E-02
 -1      3436-8.38650E-04-2.07732E-03-1.71368E-02
 -1      3437-1.63261E-03-1.98459E-03-1.65404E-02
 -1      3438-1.77764E-03-1.98673E-03-1.64907E-02
 -1      3439-8.21422E-04-1.93756E-03-1.59971E-02
 -1      3440-9.87990E-04-2.07457E-03-1.70825E-02
 -1      3441 5.16082E-05-1.75287E-04-1.40077E-03
 -1      3442 2.14047E-04-1.73872E-04-1.22463E-03
 -1      3443 3.02390E-04-1.58870E-04-1.09159E-03
 -1      3444 1.78548E-03-5.11878E-03-4.19619E-02
 -1      3445 2.44361E-03-5.04014E-03-4.13065E-02
 -1      3446 3.90108E-05-7.99629E-06-1.70153E-05
 -1      3447 3.46657E-05-9.11022E-06-9.78610E-06
 -1      3448 4.06495E-04-2.99563E-03-2.45567E-02
 -1      3449 8.40478E-05-3.04291E-03-2.49483E-02
 -1      3450-5.75962E-04-2.96762E-03-2.43376E-02
 -1      3451 4.72253E-04-2.83709E-03-2.32553E-02
 -1      3452 1.55899E-04-2.88407E-03-2.36411E-02
 -1      3453 1.13300E-03-2.91477E-03-2.38613E-02
 -1      3454 2.13971E-03-2.97184E-03-2.42036E-02
 -1      3455 1.11049E-03-3.04427E-03-2.48961E-02
 -1      3456 2.10931E-03-2.99727E-03-2.44787E-02
 -1      3457 2.14701E-03-2.83989E-03-2.31806E-02
 -1      3458 1.16568E-03-2.88619E-03-2.35905E-02
 -1      3459 1.79609E-04-4.54748E-03-3.73052E-02
 -1      3460 7.52960E-04-4.55607E-03-3.73540E-02
 -1      3461 1.47689E-03-2.14419E-03-1.74764E-02
 -1      3462 1.54407E-03-2.09841E-03-1.70391E-02
 -1      3463 1.44805E-03-2.04802E-03-1.66825E-02
 -1      3464 6.70137E-04-9.82475E-04-7.89325E-03
 -1      3465 1.40747E-03-1.04147E-03-8.17111E-03
 -1      3466 1.28525E-03-1.04560E-03-8.34858E-03
 -1      3467 7.73836E-04-1.08895E-03-8.74789E-03
 -1      3468 1.54558E-03-1.14977E-03-9.03851E-03
 -1      3469 9.02737E-04-1.07895E-03-8.56091E-03
 -1      3470-4.80015E-04-1.00444E-03-8.25367E-03
 -1      3471-1.03074E-04-9.66359E-04-7.93152E-03
 -1      3472 1.74843E-04-1.02529E-03-8.38767E-03
 -1      3473-5.69387E-04-1.11195E-03-9.13456E-03
 -1      3474-1.74410E-04-1.07101E-03-8.79721E-03
 -1      3475-8.42873E-04-1.04347E-03-8.66458E-03
 -1      3476-6.19038E-04-9.45939E-04-7.89991E-03
 -1      3477-1.35345E-03-9.69409E-04-8.22434E-03
 -1      3478-7.14766E-04-1.05052E-03-8.76506E-03
 -1      3479 2.48682E-03-4.96791E-03-4.07109E-02
 -1      3480 2.47746E-03-4.87461E-03-3.99452E-02
 -1      3481 2.78737E-03-4.75110E-03-3.89080E-02
 -1      3482 1.70079E-03-4.87380E-03-3.99497E-02
 -1      3483 2.79804E-03-4.84388E-03-3.96722E-02
 -1      3484 6.95712E-04-2.64465E-04-2.23686E-03
 -1      3485 7.44760E-04-3.05969E-04-2.56451E-03
 -1      3486 3.95648E-04-3.20642E-04-2.63286E-03
 -1      3487 7.25391E-04-3.30553E-04-2.63361E-03
 -1      3488 1.58246E-03-4.56562E-03-3.74127E-02
 -1      3489 1.00869E-04-4.23792E-03-3.47625E-02
 -1      3490 8.11214E-05-3.85581E-03-3.16240E-02
 -1      3491 1.36282E-03-3.85349E-03-3.15581E-02
 -1      3492-1.27967E-06 1.73119E-07 1.13725E-06
 -1      3493-2.77718E-05 9.83425E-06-1.02180E-05
 -1      3494 1.32615E-03-4.73516E-03-3.88041E-02
 -1      3495 4.48269E-05-1.93753E-03-1.58765E-02
 -1      3496 9.12996E-06-2.24305E-03-1.83861E-02
 -1      3497 5.46398E-04-1.01258E-03-8.07855E-03
 -1      3498 1.54315E-04-9.63689E-04-7.84777E-03
 -1      3499 2.33575E-04-1.07034E-03-8.69985E-03
 -1      3500-1.62202E-03-2.10057E-03-1.74749E-02
 -1      3501-6.45742E-04-2.05543E-03-1.69692E-02
 -1      3502-8.10414E-04-2.19397E-03-1.80842E-02
 -1      3503 1.04029E-03-4.23127E-03-3.46579E-02
 -1      3504 8.44033E-04-4.30012E-03-3.52478E-02
 -1      3505 1.62187E-03-4.35757E-03-3.56845E-02
 -1      3506 1.11755E-03-2.25547E-03-1.83754E-02
 -1      3507 7.94067E-05 3.33342E-06-4.54015E-05
 -1      3508 2.76923E-05 2.08775E-06-1.10975E-05
 -1      3509-1.60154E-03-1.72216E-03-1.45845E-02
 -1      3510 2.89105E-03-3.92614E-03-3.20052E-02
 -1      3511 1.82785E-03-4.06059E-03-3.31993E-02
 -1      3512 2.56194E-03-4.06924E-03-3.32544E-02
 -1      3513 2.53287E-03-3.90026E-03-3.18528E-02
 -1      3514 1.80485E-03-3.89146E-03-3.17973E-02
 -1      3515-2.55090E-03-3.93596E-03-3.22967E-02
 -1      3516-1.47282E-03-4.07859E-03-3.34653E-02
 -1      3517-2.20707E-03-4.06880E-03-3.34201E-02
 -1      3518-2.19682E-03-3.89759E-03-3.20175E-02
 -1      3519-1.46864E-03-3.90782E-03-3.20616E-02
 -1      3520 2.91306E-03-4.04194E-03-3.29705E-02
 -1      3521 2.58053E-03-4.18640E-03-3.42262E-02
 -1      3522-2.56002E-03-4.05358E-03-3.32634E-02
 -1      3523-2.21256E-03-4.18736E-03-3.43926E-02
 -1      3524-2.56770E-03-4.17168E-03-3.42352E-02
 -1      3525-1.47456E-03-4.19695E-03-3.44384E-02
 -1      3526 2.93371E-03-4.15836E-03-3.39411E-02
 -1      3527 1.84273E-03-4.17792E-03-3.41714E-02
 -1      3528 1.06823E-03-1.94638E-03-1.58274E-02
 -1      3529 2.36408E-04-1.06715E-04-7.81768E-04
 -1      3530-2.16737E-03-2.08554E-03-1.71512E-02
 -1      3531-2.20157E-03-2.18385E-03-1.79531E-02
 -1      3532-1.88521E-03-2.09163E-03-1.72818E-02
 -1      3533-1.91409E-03-2.19046E-03-1.80859E-02
 -1      3534-1.29982E-03-2.20580E-03-1.81162E-02
 -1      3535 1.33562E-04-3.53582E-05-7.15933E-05
 -1      3536 9.55860E-05-3.58091E-05-4.69770E-05
 -1      3537 1.79186E-04-6.09285E-05-8.46741E-05
 -1      3538 2.13779E-04-5.32152E-05-1.80423E-04
 -1      3539 1.47424E-04-5.10679E-05-1.54036E-04
 -1      3540-1.96964E-05-1.85423E-04-1.52067E-03
 -1      3541 3.43645E-04-5.12440E-03-4.20397E-02
 -1      3542 1.00136E-03-5.04584E-03-4.13819E-02
 -1      3543 2.30490E-03-2.86266E-03-2.32704E-02
 -1      3544 1.33980E-03-2.77635E-03-2.26643E-02
 -1      3545 1.32175E-03-2.90391E-03-2.36780E-02
 -1      3546-7.68218E-04-2.86435E-03-2.34896E-02
 -1      3547-1.09405E-03-2.90620E-03-2.38781E-02
 -1      3548-4.29346E-05-2.78082E-03-2.28010E-02
 -1      3549 3.28424E-04-1.99045E-04-1.50918E-03
 -1      3550-3.46187E-04 1.61600E-06-5.02846E-04
 -1      3551 1.59438E-03-5.01774E-03-4.11284E-02
 -1      3552 7.54736E-04-5.10585E-03-4.18772E-02
 -1      3553-5.69504E-04-1.26300E-04-9.39225E-04
 -1      3554-6.32457E-04-1.50105E-04-1.15639E-03
 -1      3555-4.82739E-04-1.01058E-04-8.85922E-04
 -1      3556-3.71811E-04-1.37505E-04-1.08763E-03
 -1      3557-3.34109E-04-1.13334E-04-8.75910E-04
 -1      3558 1.02774E-04-4.80313E-04-3.88727E-03
 -1      3559-1.49556E-05-9.61010E-05-7.87733E-04
 -1      3560 1.97992E-05-3.14128E-04-2.56162E-03
 -1      3561-3.67662E-04-2.98653E-04-2.59356E-03
 -1      3562 1.03294E-03-2.56647E-03-2.09563E-02
 -1      3563 1.19401E-03-3.49057E-03-2.85693E-02
 -1      3564 3.59481E-04-3.47867E-03-2.85090E-02
 -1      3565-9.03949E-04-3.47866E-03-2.85800E-02
 -1      3566-6.93330E-05-3.49126E-03-2.86346E-02
 -1      3567 6.12723E-05-2.56252E-03-2.10054E-02
 -1      3568-7.39168E-04-1.62037E-03-1.34100E-02
 -1      3569 2.31307E-05-1.64265E-03-1.34594E-02
 -1      3570 8.24116E-05-1.63149E-03-1.33578E-02
 -1      3571 8.44630E-04-1.65237E-03-1.34189E-02
 -1      3572 4.74725E-04-4.97559E-04-3.92342E-03
 -1      3573-8.62821E-05-4.80197E-04-3.94819E-03
 -1      3574 5.73074E-04-7.49570E-04-5.99590E-03
 -1      3575 3.86842E-05-7.27715E-04-5.94813E-03
 -1      3576-4.35300E-06-7.35274E-04-6.02289E-03
 -1      3577-4.58335E-04-4.61123E-04-3.92747E-03
 -1      3578 2.84604E-04-1.09664E-03-8.97138E-03
 -1      3579 6.65039E-04-1.06481E-03-8.64187E-03
 -1      3580-7.24126E-05-1.14564E-03-9.39342E-03
 -1      3581 1.42900E-03-1.11600E-03-8.93379E-03
 -1      3582 9.03498E-04-1.16271E-03-9.34555E-03
 -1      3583-5.38820E-04-7.11597E-04-5.98976E-03
 -1      3584-3.49504E-05 9.30558E-06-1.41695E-05
 -1      3585-2.82322E-05 7.83798E-06-7.77176E-06
 -1      3586-1.98224E-03-4.60476E-03-3.78735E-02
 -1      3587-1.98219E-03-4.73183E-03-3.89063E-02
 -1      3588-6.41090E-04-4.60401E-03-3.78058E-02
 -1      3589-1.59096E-03-4.60670E-03-3.78589E-02
 -1      3590 6.48473E-04-2.77694E-03-2.27324E-02
 -1      3591 6.20124E-04-2.90254E-03-2.37500E-02
 -1      3592 8.01599E-04-2.79231E-03-2.28207E-02
 -1      3593 2.25724E-03-3.70297E-03-3.03781E-02
 -1      3594 1.40955E-03-5.13658E-03-4.21129E-02
 -1      3595 1.57039E-03-5.10721E-03-4.18675E-02
 -1      3596 1.94652E-04-4.66177E-03-3.82436E-02
 -1      3597 2.84216E-03-5.16605E-03-4.23316E-02
 -1      3598 1.78436E-03-5.12487E-03-4.20133E-02
 -1      3599-7.21645E-05-1.47026E-04-1.24049E-03
 -1      3600-1.19226E-04-1.54074E-04-1.29137E-03
 -1      3601-1.03732E-04-1.14629E-04-9.63207E-04
 -1      3602 4.44441E-04-1.31960E-04-5.14320E-04
 -1      3603-7.74391E-05-4.20755E-03-3.45267E-02
 -1      3604-6.51473E-05-1.14690E-04-9.73994E-04
 -1      3605 7.46454E-04-2.01181E-03-1.63294E-02
 -1      3606 2.54722E-04-2.06119E-03-1.68572E-02
 -1      3607-1.02012E-04-2.11528E-03-1.73715E-02
 -1      3608 7.96609E-04-2.15676E-03-1.75209E-02
 -1      3609 2.91936E-04-2.20831E-03-1.80619E-02
 -1      3610 1.14324E-03-2.09775E-03-1.70073E-02
 -1      3611-1.22790E-04-4.10304E-03-3.36651E-02
 -1      3612-3.08880E-04-4.12728E-03-3.38646E-02
 -1      3613-3.14634E-04-3.95590E-03-3.24577E-02
 -1      3614 9.89669E-04-4.12424E-03-3.37958E-02
 -1      3615 9.73844E-04-3.95341E-03-3.23895E-02
 -1      3616 1.74712E-04-1.27009E-04-9.47859E-04
 -1      3617-3.92097E-04-2.90001E-03-2.38052E-02
 -1      3618-5.85218E-04-2.79622E-03-2.29641E-02
 -1      3619 2.27332E-03-2.02684E-03-1.60945E-02
 -1      3620 2.31772E-03-2.12022E-03-1.68785E-02
 -1      3621 1.96959E-03-1.99348E-03-1.59788E-02
 -1      3622 1.41030E-03-2.07698E-03-1.67265E-02
 -1      3623 1.38182E-03-1.98296E-03-1.59449E-02
 -1      3624 2.96604E-04-1.06043E-03-8.63457E-03
 -1      3625 4.11730E-04-1.13419E-03-9.22744E-03
 -1      3626-7.65809E-06 5.91517E-06 9.47556E-06
 -1      3627-1.76792E-05 6.42669E-06-8.43853E-07
 -1      3628 7.06729E-04-2.39212E-04-1.31221E-03
 -1      3629 6.42572E-04-2.08876E-04-1.07964E-03
 -1      3630 4.37301E-04-2.12732E-04-1.35863E-03
 -1      3631 5.67113E-04-1.89950E-04-1.15186E-03
 -1      3632 6.22676E-04-2.20842E-04-1.39058E-03
 -1      3633-1.32614E-04-3.96267E-03-3.25132E-02
 -1      3634 2.02280E-04-1.67862E-04-1.27378E-03
 -1      3635 5.86244E-04-2.93364E-03-2.40239E-02
 -1      3636 7.78076E-04-5.17443E-03-4.24381E-02
 -1      3637 1.16496E-03-5.12718E-03-4.20451E-02
 -1      3638-3.70649E-04-1.02884E-03-8.49858E-03
 -1      3639 2.06281E-04-1.94797E-03-1.59344E-02
 -1      3640 4.27684E-04-1.04538E-03-8.45209E-03
 -1      3641 5.75535E-04-1.79942E-04-8.62216E-04
 -1      3642 3.96818E-04-1.81348E-04-1.11209E-03
 -1      3643 4.85884E-04-1.49417E-04-8.44568E-04
 -1      3644 3.40012E-04-1.42080E-04-8.07204E-04
 -1      3645-3.28717E-04-2.14842E-03-1.76408E-02
 -1      3646-1.75791E-04-2.01429E-03-1.65403E-02
 -1      3647-3.25148E-04-2.00766E-03-1.64881E-02
 -1      3648-1.91631E-04 3.55514E-05-1.46162E-04
 -1      3649-2.41301E-04 3.81623E-06-2.90110E-04
 -1      3650-1.53601E-05-2.13888E-06-7.32730E-06
 -1      3651 2.36716E-03-4.41281E-03-3.61906E-02
 -1      3652 2.36644E-03-4.51771E-03-3.70241E-02
 -1      3653 2.31700E-03-4.33561E-03-3.55367E-02
 -1      3654 2.36344E-03-2.22059E-03-1.77204E-02
 -1      3655 2.01096E-03-2.09235E-03-1.68032E-02
 -1      3656 1.47749E-03-2.22223E-03-1.79283E-02
 -1      3657 2.09383E-03-2.23728E-03-1.80060E-02
 -1      3658 2.40912E-03-4.65164E-03-3.81434E-02
 -1      3659 2.39608E-03-4.77918E-03-3.91855E-02
 -1      3660 1.44050E-03-4.64002E-03-3.80492E-02
 -1      3661 2.37767E-03-4.63679E-03-3.80018E-02
 -1      3662 1.33170E-05-3.75149E-05-2.92867E-04
 -1      3663-3.28817E-05-3.43929E-06-1.27278E-05
 -1      3664-8.85829E-05-8.17848E-06-4.86558E-05
 -1      3665-1.43582E-04-2.00014E-03-1.64374E-02
 -1      3666 1.34906E-04-4.48189E-05-3.12210E-04
 -1      3667 2.48427E-03-4.68766E-03-3.84053E-02
 -1      3668 1.71012E-03-4.68693E-03-3.84093E-02
 -1      3669-2.45195E-04 2.78993E-05-2.44052E-04
 -1      3670-1.31268E-04-5.20132E-06-2.62976E-04
 -1      3671 1.93271E-04 7.75108E-06-1.81279E-04
 -1      3672 1.33526E-04-2.52722E-05-3.02804E-04
 -1      3673-1.34970E-04-2.12917E-03-1.74758E-02
 -1      3674 1.84135E-03-2.23257E-03-1.82222E-02
 -1      3675 1.90741E-03-2.18717E-03-1.77799E-02
 -1      3676 1.89261E-03-2.02295E-03-1.64263E-02
 -1      3677 2.45620E-04-6.77730E-06-2.87831E-04
 -1      3678 2.45322E-04-2.86786E-05-3.17687E-04
 -1      3679-1.96263E-03-3.88112E-03-3.20025E-02
 -1      3680-1.96821E-03-4.00026E-03-3.29681E-02
 -1      3681-8.87376E-04-4.14198E-03-3.40398E-02
 -1      3682-1.82557E-03-4.02448E-03-3.31233E-02
 -1      3683-8.88628E-04-4.02297E-03-3.30682E-02
 -1      3684-1.97273E-03-4.12008E-03-3.39390E-02
 -1      3685-1.82922E-03-4.14381E-03-3.40945E-02
 -1      3686-1.82368E-03-3.88331E-03-3.19751E-02
 -1      3687-8.93035E-04-3.88221E-03-3.19198E-02
 -1      3688 4.01104E-05-2.08768E-03-1.71084E-02
 -1      3689 3.78792E-04-2.17813E-03-1.78441E-02
 -1      3690 1.35741E-04-4.05047E-03-3.32214E-02
 -1      3691 5.30382E-04-3.94860E-03-3.23831E-02
 -1      3692 1.97109E-03-4.04588E-03-3.31287E-02
 -1      3693 2.35808E-03-3.94411E-03-3.22940E-02
 -1      3694 4.17435E-04-1.54305E-04-1.12486E-03
 -1      3695 4.66022E-04-1.26212E-04-9.44815E-04
 -1      3696-7.29999E-06-1.37846E-04-1.12797E-03
 -1      3697 7.84041E-05-1.11993E-04-9.34517E-04
 -1      3698-1.50346E-03-4.94627E-03-4.06093E-02
 -1      3699-2.26448E-03-4.93715E-03-4.05543E-02
 -1      3700-2.57046E-03-4.89899E-03-4.02339E-02
 -1      3701-1.37663E-03-4.76981E-03-3.91532E-02
 -1      3702-2.13524E-03-4.76046E-03-3.90988E-02
 -1      3703-4.47473E-04-3.72660E-05-8.54775E-04
 -1      3704-4.65812E-04-8.87359E-05-1.11641E-03
 -1      3705-2.49093E-04-1.01182E-04-1.08130E-03
 -1      3706-2.20680E-04-7.15743E-05-8.31546E-04
 -1      3707-4.11562E-04-5.99042E-05-8.65154E-04
 -1      3708-4.96731E-04-6.12353E-05-1.06440E-03
 -1      3709-2.72851E-04-1.29159E-04-1.31603E-03
 -1      3710-5.46223E-04-8.81417E-05-1.29661E-03
 -1      3711-5.11863E-04-1.16112E-04-1.35226E-03
 -1      3712 8.91878E-04-3.44184E-04-2.13674E-03
 -1      3713 7.96846E-04-3.57064E-04-2.49199E-03
 -1      3714 9.54550E-04-3.84478E-04-2.45726E-03
 -1      3715 5.43893E-04-3.45491E-04-2.45209E-03
 -1      3716 2.23516E-03-3.58741E-03-2.94301E-02
 -1      3717 1.14175E-03-3.47225E-03-2.84685E-02
 -1      3718 2.21219E-03-3.47272E-03-2.84893E-02
 -1      3719 2.04643E-03-3.47113E-03-2.84269E-02
 -1      3720-1.93850E-03-3.52785E-03-2.91432E-02
 -1      3721-8.56030E-04-3.42913E-03-2.82198E-02
 -1      3722 2.18797E-03-3.35902E-03-2.75563E-02
 -1      3723-1.92814E-03-3.41168E-03-2.82042E-02
 -1      3724-1.76088E-03-3.42857E-03-2.82758E-02
 -1      3725-1.91649E-03-3.29646E-03-2.72731E-02
 -1      3726 2.48390E-03-2.51275E-03-2.01741E-02
 -1      3727 2.12161E-03-2.60455E-03-2.10905E-02
 -1      3728 2.52267E-03-2.61405E-03-2.10240E-02
 -1      3729 1.47276E-03-2.59313E-03-2.10343E-02
 -1      3730-2.29475E-03-2.48817E-03-2.04372E-02
 -1      3731-1.27548E-03-2.59075E-03-2.12664E-02
 -1      3732-2.32335E-03-2.59257E-03-2.12901E-02
 -1      3733-1.92476E-03-2.57675E-03-2.12316E-02
 -1      3734 1.01678E-03-4.27191E-04-2.79955E-03
 -1      3735 1.43880E-03-7.93012E-04-5.78836E-03
 -1      3736 1.49678E-03-8.54513E-04-6.29721E-03
 -1      3737 1.20297E-03-7.68208E-04-5.83463E-03
 -1      3738 8.23399E-04-7.53975E-04-5.78751E-03
 -1      3739 2.13385E-03-1.75924E-03-1.38516E-02
 -1      3740 1.20511E-03-1.64175E-03-1.31329E-02
 -1      3741 2.08558E-03-1.67288E-03-1.31274E-02
 -1      3742 1.74893E-03-1.65553E-03-1.31868E-02
 -1      3743-2.01759E-03-1.70978E-03-1.40863E-02
 -1      3744-1.09871E-03-1.62058E-03-1.33335E-02
 -1      3745 8.90172E-04-4.45386E-04-3.67653E-03
 -1      3746 4.57700E-04-4.99346E-04-4.07337E-03
 -1      3747 9.38095E-04-4.96858E-04-4.08961E-03
 -1      3748 8.64700E-04-5.10127E-04-4.06799E-03
 -1      3749-1.97681E-03-1.62048E-03-1.33577E-02
 -1      3750-1.64313E-03-1.60322E-03-1.33088E-02
 -1      3751-1.00023E-03-3.53727E-04-2.92384E-03
 -1      3752-5.31057E-04-3.09251E-04-2.55438E-03
 -1      3753-9.40171E-04-3.12682E-04-2.57462E-03
 -1      3754-7.85613E-04-2.92886E-04-2.55444E-03
 -1      3755-8.80443E-04-2.74465E-04-2.24704E-03
 -1      3756-1.93497E-03-1.53319E-03-1.26450E-02
 -1      3757 2.03619E-03-1.58838E-03-1.24191E-02
 -1      3758-1.45369E-03-7.79459E-04-6.47206E-03
 -1      3759-7.87559E-04-7.17306E-04-5.93487E-03
 -1      3760-9.20940E-04-4.05689E-04-3.94374E-03
 -1      3761-8.75781E-04-3.56181E-04-3.53725E-03
 -1      3762-8.47198E-04-4.33051E-04-3.99017E-03
 -1      3763-4.41986E-04-4.48831E-04-3.94792E-03
 -1      3764 1.27107E-03-9.23353E-04-7.55034E-03
 -1      3765 1.31447E-03-9.93222E-04-8.12241E-03
 -1      3766 6.55289E-04-9.93049E-04-8.10254E-03
 -1      3767 1.20449E-03-1.00289E-03-8.08746E-03
 -1      3768-1.40020E-03-7.16991E-04-5.95522E-03
 -1      3769-1.16847E-03-6.98496E-04-5.92230E-03
 -1      3770-1.29751E-03-9.68814E-04-8.51668E-03
 -1      3771-1.15538E-03-9.22986E-04-7.98719E-03
 -1      3772-1.22126E-03-8.26003E-04-7.36368E-03
 -1      3773-5.99176E-04-9.37001E-04-7.93568E-03
 -1      3774 7.13668E-04-2.01673E-03-1.64325E-02
 -1      3775 7.62992E-04-2.16203E-03-1.76255E-02
 -1      3776-1.26097E-03-8.96415E-04-7.93284E-03
 -1      3777 2.03137E-03-3.05129E-03-2.49714E-02
 -1      3778 1.15836E-03-3.05096E-03-2.50094E-02
 -1      3779 2.10987E-03-3.02453E-03-2.48091E-02
 -1      3780 2.07155E-03-2.89225E-03-2.36648E-02
 -1      3781 1.21253E-03-2.89136E-03-2.37010E-02
 -1      3782-1.37508E-03-1.12055E-03-9.74318E-03
 -1      3783-6.66177E-04-1.23829E-03-1.03883E-02
 -1      3784-1.97804E-03-4.48275E-03-3.68823E-02
 -1      3785-1.41108E-03-1.19994E-03-1.03828E-02
 -1      3786-1.28983E-03-1.22612E-03-1.04441E-02
 -1      3787 2.45988E-04-7.63820E-05-1.56479E-04
 -1      3788 2.71623E-04-6.95593E-05-2.82495E-04
 -1      3789-1.34765E-04-1.90738E-05-8.62973E-05
 -1      3790-9.37028E-05-2.58096E-05-6.91704E-05
 -1      3791-1.78367E-04-4.12851E-05-1.09638E-04
 -1      3792-2.07144E-04-2.75868E-05-1.92530E-04
 -1      3793-1.39943E-04-3.53385E-05-1.77939E-04
 -1      3794 1.44424E-03-1.01648E-03-7.85167E-03
 -1      3795 1.01896E-03-1.00239E-03-7.80091E-03
 -1      3796 1.67719E-03-1.05287E-03-7.93943E-03
 -1      3797 1.58455E-03-1.12333E-03-8.70425E-03
 -1      3798 1.13911E-03-1.10938E-03-8.65157E-03
 -1      3799-1.39102E-03-9.47681E-04-7.96355E-03
 -1      3800-9.57590E-04-9.65916E-04-7.97416E-03
 -1      3801-1.61349E-03-9.81853E-04-8.13539E-03
 -1      3802-1.52329E-03-1.05393E-03-8.83093E-03
 -1      3803-1.06923E-03-1.07217E-03-8.84211E-03
 -1      3804 2.39779E-03-4.53194E-03-3.71650E-02
 -1      3805-2.00407E-03-3.00858E-03-2.47520E-02
 -1      3806-1.32237E-03-3.02119E-03-2.47903E-02
 -1      3807-2.42291E-03-3.02354E-03-2.48136E-02
 -1      3808-2.22529E-03-3.14643E-03-2.58740E-02
 -1      3809-1.53435E-03-3.15867E-03-2.59124E-02
 -1      3810-1.11028E-03-3.14732E-03-2.58507E-02
 -1      3811 2.24493E-03-3.02683E-03-2.46052E-02
 -1      3812 1.56352E-03-3.01640E-03-2.45489E-02
 -1      3813 2.66591E-03-3.03307E-03-2.45370E-02
 -1      3814 2.48075E-03-3.16237E-03-2.57041E-02
 -1      3815 1.79011E-03-3.15232E-03-2.56468E-02
 -1      3816 1.36465E-03-3.15032E-03-2.57164E-02
 -1      3817-1.84125E-03-1.95118E-03-1.61390E-02
 -1      3818-6.25767E-04-2.15868E-03-1.77075E-02
 -1      3819-6.14639E-04-2.01766E-03-1.65529E-02
 -1      3820-1.27261E-03-2.06340E-03-1.69517E-02
 -1      3821-1.25287E-03-1.96740E-03-1.61668E-02
 -1      3822 3.14710E-04-9.34744E-05-2.54552E-04
 -1      3823 1.88372E-04-6.61915E-05-2.55505E-04
 -1      3824 5.63217E-04-5.64261E-04-4.61175E-03
 -1      3825 9.95170E-04-5.74863E-04-4.60695E-03
 -1      3826 4.85258E-04-5.69361E-04-4.58823E-03
 -1      3827 8.87101E-04-6.88963E-04-5.18416E-03
 -1      3828 1.24807E-03-7.02751E-04-5.23230E-03
 -1      3829 6.63365E-04-6.70922E-04-5.23070E-03
 -1      3830-6.68629E-04-4.13848E-03-3.39497E-02
 -1      3831-6.71577E-04-3.96712E-03-3.25419E-02
 -1      3832 2.47323E-03-4.13025E-03-3.37889E-02
 -1      3833 2.44578E-03-3.96028E-03-3.23832E-02
 -1      3834-6.16681E-04-1.63507E-04-1.44184E-03
 -1      3835-5.37662E-04-1.24292E-04-1.09604E-03
 -1      3836-2.06753E-04-1.61436E-04-1.30300E-03
 -1      3837-4.26285E-04-1.77781E-04-1.43541E-03
 -1      3838-1.79319E-04-1.22068E-04-9.71492E-04
 -1      3839 2.08182E-03-2.91545E-03-2.39122E-02
 -1      3840 2.05298E-03-2.80757E-03-2.30255E-02
 -1      3841 2.04251E-03-2.78507E-03-2.27813E-02
 -1      3842 1.19374E-03-2.78370E-03-2.28165E-02
 -1      3843 2.73004E-03-3.25016E-03-2.63546E-02
 -1      3844 2.69860E-03-3.14106E-03-2.54411E-02
 -1      3845 1.81230E-03-3.26249E-03-2.65628E-02
 -1      3846 2.50973E-03-3.27227E-03-2.66198E-02
 -1      3847-2.44411E-03-3.13433E-03-2.57201E-02
 -1      3848-2.24247E-03-3.25870E-03-2.67910E-02
 -1      3849-2.46385E-03-3.24615E-03-2.66358E-02
 -1      3850-1.54476E-03-3.27065E-03-2.68304E-02
 -1      3851 1.32095E-03-6.76751E-04-4.83080E-03
 -1      3852 1.38014E-03-7.33703E-04-5.29943E-03
 -1      3853 8.48198E-04-6.32417E-04-4.71976E-03
 -1      3854 1.19374E-03-6.45947E-04-4.76714E-03
 -1      3855 9.85523E-04-5.50711E-04-4.52358E-03
 -1      3856 1.03255E-03-6.06983E-04-4.97814E-03
 -1      3857 5.90331E-04-6.20696E-04-5.07087E-03
 -1      3858 1.04204E-03-6.31382E-04-5.06470E-03
 -1      3859-5.43169E-04-5.05172E-04-4.46706E-03
 -1      3860-9.73015E-04-4.89007E-04-4.51237E-03
 -1      3861-4.65569E-04-5.24815E-04-4.51511E-03
 -1      3862-8.54010E-04-6.45528E-04-5.33617E-03
 -1      3863-1.21656E-03-6.26675E-04-5.32727E-03
 -1      3864-6.33549E-04-6.34149E-04-5.30698E-03
 -1      3865-9.65471E-04-4.57836E-04-4.37066E-03
 -1      3866-1.01668E-03-5.44407E-04-4.96564E-03
 -1      3867-1.34543E-03-6.57152E-04-5.46036E-03
 -1      3868-8.18661E-04-5.88632E-04-4.86595E-03
 -1      3869-7.99522E-04-1.33071E-03-1.11894E-02
 -1      3870-1.44368E-03-1.31887E-03-1.12476E-02
 -1      3871-6.75175E-04-1.35023E-03-1.12518E-02
 -1      3872-1.47586E-03-1.36621E-03-1.17194E-02
 -1      3873-1.44740E-03-1.28171E-03-1.10408E-02
 -1      3874-1.47866E-03-1.40317E-03-1.19271E-02
 -1      3875-8.11311E-04-1.41502E-03-1.18722E-02
 -1      3876-1.00934E-03-5.12702E-04-4.81883E-03
 -1      3877-5.66947E-04-5.60575E-04-4.92021E-03
 -1      3878 7.41114E-04-1.29465E-03-1.05746E-02
 -1      3879 1.36175E-03-1.30332E-03-1.05548E-02
 -1      3880 1.48474E-03-1.29526E-03-1.05945E-02
 -1      3881 8.83524E-04-1.39408E-03-1.13976E-02
 -1      3882 1.52469E-03-1.40210E-03-1.13781E-02
 -1      3883 7.56419E-04-1.39533E-03-1.13563E-02
 -1      3884 1.73322E-03-1.12316E-03-8.52449E-03
 -1      3885 1.17599E-03-1.18271E-03-9.25949E-03
 -1      3886 5.70221E-04-1.91980E-04-1.28695E-03
 -1      3887 1.90957E-03-2.03777E-03-1.64330E-02
 -1      3888 1.99081E-03-2.18184E-03-1.76257E-02
 -1      3889 1.78762E-03-1.19530E-03-9.12665E-03
 -1      3890 1.63395E-03-1.19643E-03-9.31134E-03
 -1      3891-1.66134E-03-1.05375E-03-8.72446E-03
 -1      3892-1.09756E-03-1.14678E-03-9.45352E-03
 -1      3893 1.56360E-03-1.45939E-03-1.19408E-02
 -1      3894 1.52193E-03-1.37625E-03-1.12592E-02
 -1      3895 9.03491E-04-1.47763E-03-1.20833E-02
 -1      3896 1.56589E-03-1.48530E-03-1.20624E-02
 -1      3897-1.28969E-03-5.99820E-04-4.98526E-03
 -1      3898-1.16554E-03-5.69827E-04-4.85810E-03
 -1      3899 1.57969E-04-3.02869E-03-2.48264E-02
 -1      3900 8.23690E-04-3.05958E-03-2.49972E-02
 -1      3901 2.16755E-03-3.08035E-03-2.51036E-02
 -1      3902-5.77801E-04-3.07755E-03-2.52395E-02
 -1      3903-8.68557E-04-3.02643E-03-2.48858E-02
 -1      3904-1.92200E-03-3.05363E-03-2.51595E-02
 -1      3905 4.92528E-04-1.49348E-04-9.61446E-04
 -1      3906-1.68399E-03-2.01164E-03-1.69151E-02
 -1      3907-1.65590E-03-1.90884E-03-1.60878E-02
 -1      3908-1.53950E-03-1.92233E-03-1.60832E-02
 -1      3909-7.89252E-04-1.93367E-03-1.60497E-02
 -1      3910-1.56553E-03-2.02456E-03-1.69098E-02
 -1      3911 1.05905E-03-2.46733E-03-2.02124E-02
 -1      3912 1.07671E-03-2.32847E-03-1.90729E-02
 -1      3913-5.60667E-04-1.43119E-04-1.50066E-03
 -1      3914-2.99644E-04-1.78450E-04-1.66450E-03
 -1      3915 9.04291E-04-1.74063E-03-1.42396E-02
 -1      3916 1.02170E-03-1.87249E-03-1.53295E-02
 -1      3917-6.97070E-04-1.28375E-03-1.06583E-02
 -1      3918-1.37331E-03-1.27837E-03-1.08117E-02
 -1      3919 1.87387E-03-2.47019E-03-2.01794E-02
 -1      3920 1.87519E-03-2.33196E-03-1.90417E-02
 -1      3921 7.72428E-04-1.31741E-03-1.06482E-02
 -1      3922 1.44932E-03-1.34971E-03-1.08536E-02
 -1      3923 1.61793E-03-1.74714E-03-1.42144E-02
 -1      3924 1.75692E-03-1.87805E-03-1.53039E-02
 -1      3925-1.70980E-03-1.12800E-03-9.33345E-03
 -1      3926-1.56686E-03-1.12882E-03-9.44287E-03
 -1      3927 1.86791E-04-1.29905E-03-1.05989E-02
 -1      3928-1.18289E-04-1.30186E-03-1.07146E-02
 -1      3929-6.75463E-05-1.68283E-04-1.43815E-03
 -1      3930-1.64606E-03-2.20030E-03-1.82827E-02
 -1      3931-7.77811E-04-2.28076E-03-1.88311E-02
 -1      3932-1.11311E-04-1.30360E-03-1.06948E-02
 -1      3933 1.99000E-04-1.33194E-03-1.09016E-02
 -1      3934-2.46040E-04-4.97255E-05-1.91753E-04
 -1      3935-1.79612E-04-4.67630E-05-2.85478E-04
 -1      3936-2.58652E-03-4.77370E-03-3.91994E-02
 -1      3937-1.39403E-03-4.64444E-03-3.81206E-02
 -1      3938-3.13353E-04-6.06206E-05-2.98822E-04
 -1      3939-2.64746E-04-3.84189E-05-2.99269E-04
 -1      3940 1.59436E-04-4.27553E-05-4.33973E-04
 -1      3941 2.05257E-04-7.03215E-05-6.53185E-04
 -1      3942-2.58969E-03-4.64776E-03-3.81591E-02
 -1      3943-2.13960E-03-4.63396E-03-3.80589E-02
 -1      3944-1.76216E-04-5.59487E-04-4.68689E-03
 -1      3945-9.46701E-05-5.00434E-04-4.15597E-03
 -1      3946 1.59085E-04-5.35423E-04-4.31457E-03
 -1      3947 4.57515E-04-5.79444E-04-4.48804E-03
 -1      3948 9.14246E-05-5.97512E-04-4.85436E-03
 -1      3949-2.52792E-03-3.70286E-03-3.03813E-02
 -1      3950 2.84276E-03-3.69713E-03-3.00927E-02
 -1      3951-1.82918E-04-6.16109E-04-5.15035E-03
 -1      3952-9.32793E-06-6.63543E-04-5.44084E-03
 -1      3953 3.97895E-04-6.99387E-04-5.53436E-03
 -1      3954 4.79560E-04-6.34857E-04-4.94226E-03
 -1      3955-4.49869E-04-6.19266E-04-5.09134E-03
 -1      3956-3.65492E-04-6.90581E-04-5.67907E-03
 -1      3957 3.82774E-05-6.74797E-04-5.52022E-03
 -1      3958 2.09706E-04-6.48619E-04-5.30382E-03
 -1      3959-6.54981E-05-6.02228E-04-4.94095E-03
 -1      3960 9.30754E-04-5.46162E-04-4.26347E-03
 -1      3961 5.50029E-04-5.52888E-04-4.35326E-03
 -1      3962 1.12063E-03-6.06718E-04-4.57161E-03
 -1      3963 1.06544E-03-6.13048E-04-4.81495E-03
 -1      3964 6.62686E-04-6.22224E-04-4.91073E-03
 -1      3965 1.17314E-03-6.62626E-04-5.02750E-03
 -1      3966 1.12813E-03-7.28058E-04-5.61764E-03
 -1      3967 1.11419E-03-6.70450E-04-5.28181E-03
 -1      3968 5.92613E-04-6.89062E-04-5.49577E-03
 -1      3969-4.31204E-04-5.63410E-04-4.63124E-03
 -1      3970-1.38318E-04-5.32540E-04-4.38467E-03
 -1      3971 1.13345E-04-5.23962E-04-4.28413E-03
 -1      3972 1.99571E-04-5.91180E-04-4.83447E-03
 -1      3973 2.93785E-04-4.69355E-05-4.46440E-04
 -1      3974 3.70470E-04-7.56113E-05-6.64506E-04
 -1      3975-1.09600E-03-6.54845E-04-5.64893E-03
 -1      3976-5.63780E-04-6.47178E-04-5.48255E-03
 -1      3977-1.08652E-03-5.86184E-04-5.23417E-03
 -1      3978-1.14401E-03-5.83399E-04-5.06836E-03
 -1      3979-6.36823E-04-5.74579E-04-4.90896E-03
 -1      3980 4.08818E-04-2.01264E-03-1.64861E-02
 -1      3981 5.45532E-04-4.15962E-03-3.41160E-02
 -1      3982 2.39112E-03-4.15427E-03-3.40247E-02
 -1      3983 1.40518E-03-4.23432E-03-3.46949E-02
 -1      3984-1.04077E-03-5.29075E-04-4.76628E-03
 -1      3985-9.11081E-04-4.70658E-04-4.22940E-03
 -1      3986-1.09450E-03-5.27552E-04-4.60806E-03
 -1      3987-5.29357E-04-5.12974E-04-4.36388E-03
 -1      3988-2.58346E-03-4.52761E-03-3.71674E-02
 -1      3989-3.77552E-04-7.28067E-05-4.24384E-04
 -1      3990-1.97579E-03-4.24041E-03-3.49147E-02
 -1      3991 9.40361E-05-1.62370E-04-1.34139E-03
 -1      3992-5.94656E-04-1.17977E-04-1.55117E-03
 -1      3993-2.96335E-04-1.59926E-04-1.57309E-03
 -1      3994-6.42226E-04-1.50073E-04-1.82478E-03
 -1      3995-5.56451E-04-1.45824E-04-1.60751E-03
 -1      3996-1.95587E-03-3.76257E-03-3.10428E-02
 -1      3997-1.00259E-04-2.21379E-03-1.81786E-02
 -1      3998 8.78218E-04-4.67765E-03-3.83507E-02
 -1      3999 5.57645E-04-1.78908E-04-1.34694E-03
 -1      4000-1.75827E-03-2.31171E-03-1.93305E-02
 -1      4001-7.80663E-04-2.24690E-03-1.85892E-02
 -1      4002-1.57508E-03-2.24000E-03-1.86452E-02
 -1      4003-1.75800E-03-2.35058E-03-1.95763E-02
 -1      4004-9.49192E-04-2.35674E-03-1.95190E-02
 -1      4005-3.97108E-04-1.61848E-05-6.66950E-04
 -1      4006-1.25872E-04-1.89542E-04-1.61815E-03
 -1      4007-1.91957E-05-2.51135E-07-8.53644E-06
 -1      4008-1.92897E-03-2.73323E-03-2.26329E-02
 -1      4009-9.06741E-04-2.71242E-03-2.23642E-02
 -1      4010-1.82000E-03-2.62866E-03-2.17677E-02
 -1      4011-2.06279E-03-2.73065E-03-2.25342E-02
 -1      4012-1.04327E-03-2.70462E-03-2.22682E-02
 -1      4013-1.14217E-03-2.80997E-03-2.31398E-02
 -1      4014 2.00658E-03-4.92884E-03-4.03807E-02
 -1      4015 2.13462E-03-4.81008E-03-3.93948E-02
 -1      4016 6.42785E-04-3.12128E-03-2.55505E-02
 -1      4017-3.91730E-04-3.11990E-03-2.56066E-02
 -1      4018-2.68344E-04-2.27405E-03-1.86831E-02
 -1      4019 3.39132E-04-1.37007E-03-1.11761E-02
 -1      4020-2.58165E-04-1.35111E-03-1.11324E-02
 -1      4021-1.73395E-03-2.21182E-03-1.85266E-02
 -1      4022-1.55237E-03-2.14190E-03-1.78524E-02
 -1      4023-3.66279E-04-1.91731E-04-1.88645E-03
 -1      4024-6.50460E-04-1.76807E-04-1.92371E-03
 -1      4025-1.77310E-04-2.63708E-03-2.16610E-02
 -1      4026-2.64865E-04-2.74069E-03-2.25247E-02
 -1      4027 9.74784E-04-2.73494E-03-2.22836E-02
 -1      4028 2.49611E-04-2.80660E-03-2.29896E-02
 -1      4029 3.31260E-04-2.70210E-03-2.21203E-02
 -1      4030-1.70948E-03-2.11086E-03-1.77141E-02
 -1      4031-7.71632E-04-2.14690E-03-1.77755E-02
 -1      4032 2.49077E-03-4.24815E-03-3.47632E-02
 -1      4033-1.62814E-03-1.81318E-03-1.53181E-02
 -1      4034 3.80088E-04-1.11659E-04-3.73043E-04
 -1      4035-2.63794E-04-2.84847E-03-2.34064E-02
 -1      4036 6.07063E-05-2.91738E-03-2.39222E-02
 -1      4037 8.10381E-04-2.95058E-03-2.40974E-02
 -1      4038 9.90950E-04-2.84116E-03-2.31622E-02
 -1      4039-2.75182E-04-5.95789E-04-4.98604E-03
 -1      4040-1.86934E-04-5.33197E-04-4.43794E-03
 -1      4041 3.73856E-04-6.00351E-04-4.77993E-03
 -1      4042-3.46947E-04-5.78892E-04-4.82198E-03
 -1      4043-2.59600E-04-6.50737E-04-5.39289E-03
 -1      4044 3.01686E-04-6.22021E-04-5.03063E-03
 -1      4045 2.89534E-04-6.66066E-04-5.36007E-03
 -1      4046 2.08180E-04-5.51763E-04-4.46799E-03
 -1      4047 1.43848E-04-2.67013E-03-2.18847E-02
 -1      4048 4.62298E-04-2.73001E-03-2.23761E-02
 -1      4049-5.67563E-04-2.64514E-03-2.16939E-02
 -1      4050-1.07591E-03-2.69071E-03-2.21163E-02
 -1      4051-7.63068E-04-2.75682E-03-2.26076E-02
 -1      4052-2.13197E-03-1.98893E-03-1.63631E-02
 -1      4053 1.86010E-03-2.18992E-03-1.79468E-02
 -1      4054 1.59362E-03-1.22504E-03-9.66124E-03
 -1      4055 8.22460E-04-1.23952E-03-9.98738E-03
 -1      4056 1.40854E-03-1.27050E-03-1.02007E-02
 -1      4057 1.47413E-03-1.19129E-03-9.55333E-03
 -1      4058 7.07678E-04-1.21503E-03-9.87496E-03
 -1      4059-1.82589E-04-1.22271E-03-1.00400E-02
 -1      4060-5.85540E-04-1.18836E-03-9.76117E-03
 -1      4061 1.94188E-04-1.25205E-03-1.02464E-02
 -1      4062 2.93961E-04-1.17255E-03-9.59323E-03
 -1      4063-6.95177E-04-1.76703E-04-1.39578E-03
 -1      4064-1.94810E-03-2.84209E-03-2.35147E-02
 -1      4065-2.08385E-03-2.83889E-03-2.34145E-02
 -1      4066-1.90567E-03-2.94302E-03-2.42591E-02
 -1      4067-9.54563E-04-2.91447E-03-2.39819E-02
 -1      4068-8.44163E-04-2.59449E-03-2.13574E-02
 -1      4069-1.84942E-03-2.61855E-03-2.16199E-02
 -1      4070-7.61989E-04-2.04856E-03-1.69753E-02
 -1      4071 2.11641E-03-2.73375E-03-2.23031E-02
 -1      4072 1.12889E-03-2.67339E-03-2.18356E-02
 -1      4073 2.05035E-03-2.65394E-03-2.15661E-02
 -1      4074 2.27273E-03-2.75695E-03-2.23917E-02
 -1      4075 1.28148E-03-2.69149E-03-2.19203E-02
 -1      4076 2.41090E-03-2.91789E-03-2.36666E-02
 -1      4077 1.73698E-03-2.90734E-03-2.36092E-02
 -1      4078 2.48790E-03-2.86714E-03-2.31721E-02
 -1      4079-1.48001E-03-2.70233E-03-2.21746E-02
 -1      4080-2.13865E-03-2.68854E-03-2.21401E-02
 -1      4081-2.24092E-03-2.75427E-03-2.26179E-02
 -1      4082 1.85678E-03-4.29588E-03-3.51483E-02
 -1      4083 1.99156E-03-4.44546E-03-3.63796E-02
 -1      4084 2.59789E-03-4.30428E-03-3.52028E-02
 -1      4085 2.73659E-03-4.45376E-03-3.64338E-02
 -1      4086 1.71228E-03-2.80111E-03-2.27254E-02
 -1      4087 2.37814E-03-2.81189E-03-2.27828E-02
 -1      4088-1.49457E-03-2.80938E-03-2.30510E-02
 -1      4089-2.16143E-03-2.79597E-03-2.30155E-02
 -1      4090-2.01200E-03-2.25313E-03-1.85310E-02
 -1      4091-2.29242E-03-3.84849E-03-3.15843E-02
 -1      4092 2.62288E-03-3.84092E-03-3.13207E-02
 -1      4093-1.90457E-03-1.91683E-03-1.57878E-02
 -1      4094-2.31657E-03-4.25546E-03-3.49292E-02
 -1      4095 2.97081E-03-4.39310E-03-3.58964E-02
 -1      4096 2.69177E-03-4.24241E-03-3.46617E-02
 -1      4097-6.70433E-04-1.93455E-04-1.57842E-03
 -1      4098 8.27249E-04-1.21310E-03-9.91318E-03
 -1      4099 1.43099E-03-1.22192E-03-9.89635E-03
 -1      4100 1.34412E-03-1.17642E-03-9.60718E-03
 -1      4101 3.86105E-04-5.22100E-04-4.05190E-03
 -1      4102 6.42854E-04-5.49780E-04-4.21352E-03
 -1      4103 8.04971E-04-1.13661E-03-9.28624E-03
 -1      4104 1.38798E-03-1.14570E-03-9.27073E-03
 -1      4105 6.78863E-04-2.51257E-04-1.49315E-03
 -1      4106-4.73684E-04-1.05470E-04-7.91688E-04
 -1      4107-1.00921E-04-2.78177E-04-2.35488E-03
 -1      4108-3.66573E-04-2.53579E-04-2.30364E-03
 -1      4109-1.79960E-03-2.52258E-03-2.09081E-02
 -1      4110-8.80229E-04-2.49951E-03-2.06275E-02
 -1      4111 9.63417E-04-3.42120E-03-2.79703E-02
 -1      4112 1.50258E-03-3.40056E-03-2.77754E-02
 -1      4113 2.34972E-03-3.44034E-03-2.80776E-02
 -1      4114-6.78716E-04-3.44202E-03-2.82292E-02
 -1      4115-1.22124E-03-3.40034E-03-2.79224E-02
 -1      4116-2.06533E-03-3.42000E-03-2.81455E-02
 -1      4117 3.75172E-04-2.62220E-03-2.14902E-02
 -1      4118 1.08854E-03-2.65029E-03-2.16840E-02
 -1      4119-1.78893E-04-2.53212E-03-2.08017E-02
 -1      4120 1.34039E-04-2.59918E-03-2.12995E-02
 -1      4121 2.00712E-03-2.62705E-03-2.14178E-02
 -1      4122 1.75547E-04-7.09169E-04-5.79861E-03
 -1      4123 5.78026E-04-6.98731E-04-5.64410E-03
 -1      4124-1.43285E-04-6.79933E-04-5.64665E-03
 -1      4125-5.48076E-04-6.49498E-04-5.55805E-03
 -1      4126-4.46031E-04-2.80667E-03-2.30645E-02
 -1      4127-3.55750E-04-2.70169E-03-2.21940E-02
 -1      4128-3.64587E-04-5.08719E-04-4.18278E-03
 -1      4129-6.20522E-04-5.09967E-04-4.28708E-03
 -1      4130 1.01791E-03-5.49030E-04-4.13151E-03
 -1      4131 1.11848E-03-7.31112E-04-5.77201E-03
 -1      4132-1.70866E-04-2.96002E-03-2.43056E-02
 -1      4133-9.19822E-04-2.92943E-03-2.41329E-02
 -1      4134-1.87399E-03-2.95484E-03-2.44129E-02
 -1      4135-1.53490E-03-1.55022E-03-1.30360E-02
 -1      4136-7.63812E-04-1.53754E-03-1.27961E-02
 -1      4137 1.63529E-03-1.62038E-03-1.30907E-02
 -1      4138 8.62234E-04-1.58485E-03-1.29141E-02
 -1      4139-2.53727E-04 9.77254E-06-3.30994E-04
 -1      4140-1.79296E-04-1.57091E-03-1.29355E-02
 -1      4141 2.79961E-04-1.60543E-03-1.31439E-02
 -1      4142 3.45861E-04-4.54992E-05-5.62386E-04
 -1      4143 2.56169E-04-2.55713E-05-3.75177E-04
 -1      4144-7.25667E-04-2.50188E-04-2.42545E-03
 -1      4145 1.47959E-03-9.92372E-04-7.52828E-03
 -1      4146-2.26956E-03-3.55487E-03-2.91748E-02
 -1      4147 2.56825E-03-3.55230E-03-2.89142E-02
 -1      4148-1.70347E-03-3.04595E-03-2.52135E-02
 -1      4149-1.84029E-03-2.73655E-03-2.27539E-02
 -1      4150-1.64246E-03-2.60732E-03-2.16677E-02
 -1      4151-8.99256E-04-2.67595E-03-2.20970E-02
 -1      4152-1.74217E-03-2.67168E-03-2.21538E-02
 -1      4153 1.94834E-03-3.10622E-03-2.54667E-02
 -1      4154 1.92825E-03-2.38986E-03-1.95905E-02
 -1      4155 1.79929E-03-2.51951E-03-2.06410E-02
 -1      4156 7.10854E-04-3.41614E-04-2.81620E-03
 -1      4157-1.41685E-03-1.61582E-03-1.36655E-02
 -1      4158 1.05175E-03-5.22177E-04-3.65789E-03
 -1      4159 1.05621E-03-7.75423E-04-6.32004E-03
 -1      4160 1.56689E-03-1.30040E-03-1.03119E-02
 -1      4161 9.75514E-04-1.26448E-03-1.00922E-02
 -1      4162 1.71580E-03-1.81020E-03-1.48232E-02
 -1      4163 1.52202E-03-1.69756E-03-1.38779E-02
 -1      4164 1.40245E-03-1.13985E-03-9.32176E-03
 -1      4165-1.08555E-03-6.50449E-04-5.72997E-03
 -1      4166-1.42640E-03-9.26742E-04-7.69869E-03
 -1      4167 6.11417E-04-1.27178E-03-1.02151E-02
 -1      4168-5.27113E-04-1.26743E-03-1.04087E-02
 -1      4169-9.01931E-04-1.23190E-03-1.02048E-02
 -1      4170 4.78006E-04-1.51177E-04-7.29639E-04
 -1      4171-9.96409E-04-4.73646E-04-4.16020E-03
 -1      4172-1.49323E-03-1.23325E-03-1.03725E-02
 -1      4173-1.02285E-03-6.87935E-04-6.16253E-03
 -1      4174-7.01606E-04-2.65767E-04-2.70475E-03
 -1      4175-1.66613E-03-1.34050E-03-1.10848E-02
 -1      4176-1.03083E-03-4.52960E-04-3.78310E-03
 -1      4177 1.75024E-03-1.39581E-03-1.08865E-02
 -1      4178-1.45542E-03-3.49839E-03-2.87003E-02
 -1      4179-2.16539E-03-3.48714E-03-2.86589E-02
 -1      4180 2.45690E-03-3.49630E-03-2.84968E-02
 -1      4181-8.91607E-04-2.56962E-03-2.12320E-02
 -1      4182 1.74714E-03-3.48688E-03-2.84405E-02
 -1      4183-1.72356E-03-2.56477E-03-2.12888E-02
 -1      4184-1.79129E-03-3.00025E-03-2.48141E-02
 -1      4185-9.18148E-04-3.00283E-03-2.47573E-02
 -1      4186 1.07809E-03-2.57076E-03-2.10627E-02
 -1      4187 1.90451E-03-2.57314E-03-2.10288E-02
 -1      4188-7.79474E-04-1.59345E-03-1.32968E-02
 -1      4189-1.47827E-03-1.58276E-03-1.33516E-02
 -1      4190 7.21120E-04-5.21596E-04-3.84981E-03
 -1      4191 1.03494E-03-5.34682E-04-3.89435E-03
 -1      4192 1.08964E-03-7.52757E-04-6.04480E-03
 -1      4193 5.98964E-04-7.42106E-04-6.05464E-03
 -1      4194 8.82310E-04-1.65147E-03-1.35072E-02
 -1      4195-3.86655E-04-2.72623E-04-2.52466E-03
 -1      4196-5.66400E-04-6.84353E-04-5.89988E-03
 -1      4197 1.58111E-03-1.65846E-03-1.34830E-02
 -1      4198-1.57843E-03-1.28599E-03-1.07250E-02
 -1      4199 2.59675E-03-2.82091E-03-2.27588E-02
 -1      4200-2.37603E-03-2.80554E-03-2.30305E-02
 -1      4201 7.68919E-04-2.63117E-03-2.14605E-02
 -1      4202 1.16908E-03-1.33369E-03-1.05459E-02
 -1      4203-6.99524E-04-4.80745E-04-3.97784E-03
 -1      4204-1.05559E-03-6.68607E-04-5.94585E-03
 -1      4205-1.01491E-03-4.62843E-04-3.97394E-03
 -1      4206-7.14503E-04-2.57167E-04-2.56368E-03
 -1      4207 1.65720E-03-1.34749E-03-1.05972E-02
 -1      4208-1.08609E-03-1.30365E-03-1.07405E-02
 -1      4209 7.92945E-06-4.91451E-04-4.02251E-03
 -1      4210-2.83550E-04-5.24240E-04-4.36432E-03
 -1      4211 4.97768E-06-3.06885E-04-2.51086E-03
 -1      4212 1.43546E-04-3.45719E-03-2.83486E-02
 -1      4213 7.65242E-04-3.37182E-03-2.76056E-02
 -1      4214-4.87321E-04-3.37157E-03-2.76733E-02
 -1      4215 9.75613E-05-2.58095E-03-2.11544E-02
 -1      4216-3.90926E-04-2.68513E-03-2.20449E-02
 -1      4217 5.96880E-04-2.68887E-03-2.19907E-02
 -1      4218 5.58440E-04-2.66825E-03-2.18415E-02
 -1      4219-3.54107E-04-2.49158E-03-2.04742E-02
 -1      4220 1.19642E-04-3.00956E-03-2.46731E-02
 -1      4221-3.55865E-04-2.91721E-03-2.39584E-02
 -1      4222-1.63230E-04-2.64852E-04-2.24888E-03
 -1      4223 3.05705E-04-5.42654E-04-4.33042E-03
 -1      4224 5.19192E-05-1.61616E-03-1.32388E-02
 -1      4225-3.23588E-04-1.53743E-03-1.26698E-02
 -1      4226 4.21691E-04-1.55929E-03-1.27240E-02
 -1      4227-2.49892E-03-3.47275E-03-2.84930E-02
 -1      4228-1.80158E-03-2.52127E-03-2.10186E-02
 -1      4229 2.78907E-03-3.47165E-03-2.82079E-02
 -1      4230-1.87434E-03-2.95706E-03-2.45325E-02
 -1      4231 1.99238E-03-2.59584E-03-2.12847E-02
 -1      4232 2.22792E-03-1.93517E-03-1.53250E-02
 -1      4233 1.20081E-03-5.69795E-04-3.95519E-03
 -1      4234-1.54074E-03-1.54017E-03-1.31199E-02
 -1      4235 1.12548E-03-7.26660E-04-5.94810E-03
 -1      4236 1.60586E-05-7.16863E-04-5.86819E-03
 -1      4237 2.72505E-04-6.80152E-04-5.51180E-03
 -1      4238 3.64296E-05-1.28109E-03-1.04918E-02
 -1      4239 3.16855E-04-1.21068E-03-9.86748E-03
 -1      4240-3.94748E-04-1.21556E-03-1.00268E-02
 -1      4241-2.40886E-04-6.57594E-04-5.47276E-03
 -1      4242 1.63926E-03-1.63105E-03-1.33503E-02
 -1      4243-1.09530E-03-6.30434E-04-5.77671E-03
 -1      4244-7.36800E-04-2.24138E-04-2.44484E-03
 -1      4245 4.65324E-04-1.23069E-03-9.97503E-03
 -1      4246 2.57114E-05-9.80545E-04-8.02841E-03
 -1      4247-1.80794E-03-1.28327E-03-1.06037E-02
 -1      4248 1.89184E-03-1.34630E-03-1.03885E-02
 -1      4249-1.17637E-03-4.93487E-04-4.09940E-03
 -1      4250-1.50812E-03-2.91772E-03-2.39381E-02
 -1      4251-2.26424E-03-2.86215E-03-2.34994E-02
 -1      4252-2.18299E-03-2.90467E-03-2.39017E-02
 -1      4253 2.34440E-03-2.70722E-03-2.19098E-02
 -1      4254 2.45354E-03-2.76221E-03-2.22939E-02
 -1      4255 1.68683E-03-2.69619E-03-2.18524E-02
 -1      4256 7.78518E-04-1.06237E-03-8.67813E-03
 -1      4257 1.30315E-03-1.10100E-03-8.98921E-03
 -1      4258 1.34506E-03-1.07178E-03-8.66378E-03
 -1      4259 1.19986E-03-4.61370E-03-3.78058E-02
 -1      4260 1.88360E-03-4.62865E-03-3.79135E-02
 -1      4261 2.19641E-03-2.28777E-03-1.83421E-02
 -1      4262-2.87049E-03-5.09764E-03-4.18811E-02
 -1      4263-2.84126E-03-4.99647E-03-4.10444E-02
 -1      4264-1.77182E-03-5.04388E-03-4.14204E-02
 -1      4265-2.29348E-03-5.03878E-03-4.13905E-02
 -1      4266-2.68783E-03-5.15597E-03-4.23667E-02
 -1      4267-1.67170E-03-5.11639E-03-4.20189E-02
 -1      4268-1.10595E-04 4.13964E-05-4.07681E-05
 -1      4269-6.62538E-05 3.59804E-05-1.39158E-05
 -1      4270-7.14609E-05 2.20231E-05-2.94566E-05
 -1      4271-5.03424E-05 2.04232E-05-1.38695E-05
 -1      4272 3.19035E-05-9.93775E-05-8.00833E-04
 -1      4273 3.23692E-04-3.86346E-03-3.16790E-02
 -1      4274 3.46010E-04-4.21695E-03-3.45838E-02
 -1      4275 4.46184E-05-1.82257E-04-1.47548E-03
 -1      4276-1.92796E-03-4.95647E-03-4.07342E-02
 -1      4277-2.19748E-03-5.05527E-03-4.15457E-02
 -1      4278-1.22130E-03-5.01367E-03-4.11760E-02
 -1      4279-1.88835E-03-5.01599E-03-4.12123E-02
 -1      4280 2.02032E-03-4.56333E-03-3.73550E-02
 -1      4281 2.14907E-03-4.68418E-03-3.83520E-02
 -1      4282 1.93182E-04-1.93736E-03-1.58577E-02
 -1      4283-2.24750E-03-5.17468E-03-4.25100E-02
 -1      4284-1.58010E-03-5.16438E-03-4.24116E-02
 -1      4285 2.13809E-04-2.22724E-03-1.82377E-02
 -1      4286 3.73412E-06-3.50122E-05-2.84470E-04
 -1      4287 2.66207E-03-5.11040E-03-4.18857E-02
 -1      4288 2.68732E-03-5.00784E-03-4.10488E-02
 -1      4289 1.68807E-03-5.05611E-03-4.14548E-02
 -1      4290 2.36046E-03-5.05335E-03-4.14198E-02
 -1      4291 6.65583E-05 2.65826E-05-2.51272E-05
 -1      4292 1.12050E-04 2.52980E-05-5.89340E-05
 -1      4293 5.05891E-05 1.25788E-05-2.83935E-05
 -1      4294 7.32148E-05 1.10303E-05-3.97191E-05
 -1      4295-2.77073E-03-5.16980E-03-4.24801E-02
 -1      4296 8.56621E-05-4.17089E-05-2.26311E-05
 -1      4297 1.39332E-04-5.24957E-05-5.09812E-05
 -1      4298 7.04187E-05-2.97287E-05-1.87741E-05
 -1      4299 8.67025E-05-2.79431E-05-3.44347E-05
 -1      4300 3.29485E-03-4.97895E-03-4.07567E-02
 -1      4301 3.33579E-03-5.07493E-03-4.15511E-02
 -1      4302 2.80820E-03-5.03416E-03-4.12325E-02
 -1      4303 2.28121E-03-5.02899E-03-4.12014E-02
 -1      4304 2.76734E-03-4.93773E-03-4.04384E-02
 -1      4305 1.61124E-05 8.88225E-06 5.91391E-07
 -1      4306 2.99942E-05 6.35021E-06-1.09660E-05
 -1      4307-2.32985E-03-5.13078E-03-4.21610E-02
 -1      4308-1.27086E-03-5.09587E-03-4.18481E-02
 -1      4309-8.43690E-05-3.23036E-05-3.31129E-05
 -1      4310-1.39104E-04-3.67254E-05-6.81066E-05
 -1      4311-6.95885E-05-2.17619E-05-3.29401E-05
 -1      4312-8.78065E-05-1.69485E-05-4.49786E-05
 -1      4313-1.85006E-03-2.77685E-03-2.30239E-02
 -1      4314-9.96293E-04-2.78064E-03-2.29664E-02
 -1      4315 2.22945E-05 1.21486E-05-2.79874E-06
 -1      4316-2.38325E-05-1.25118E-05-1.33283E-06
 -1      4317-3.83227E-05-8.74049E-06-1.36480E-05
 -1      4318-1.57863E-03-5.13578E-03-4.21821E-02
 -1      4319-9.11132E-04-5.12601E-03-4.20837E-02
 -1      4320-2.24766E-03-5.13799E-03-4.22185E-02
 -1      4321-2.92006E-05 1.18486E-05-1.03219E-05
 -1      4322 3.43413E-05 6.89124E-06-1.62777E-05
 -1      4323 2.96420E-05 1.11306E-05-1.19806E-05
 -1      4324 1.46468E-03-5.18515E-03-4.25113E-02
 -1      4325-2.88526E-05 1.58329E-05-7.17521E-06
 -1      4326-2.88505E-05 1.10703E-05-4.67944E-06
 -1      4327-2.98645E-05-1.49902E-05-6.03491E-06
 -1      4328-3.90945E-05-6.12583E-06-1.90582E-05
 -1      4329-3.60034E-05-1.15773E-05-1.56158E-05
 -1      4330-2.34664E-03-3.32626E-03-2.72976E-02
 -1      4331-2.25825E-03-3.37205E-03-2.77168E-02
 -1      4332-1.55416E-03-3.38367E-03-2.77570E-02
 -1      4333 2.53754E-03-3.38334E-03-2.75444E-02
 -1      4334 1.83370E-03-3.37377E-03-2.74875E-02
 -1      4335 2.62110E-03-3.32829E-03-2.70290E-02
 -1      4336 2.01255E-03-2.67924E-03-2.19086E-02
 -1      4337 1.17451E-03-2.67742E-03-2.19429E-02
 -1      4338 1.93514E-03-2.73048E-03-2.23832E-02
 -1      4339-1.68107E-03-2.39116E-03-1.99433E-02
 -1      4340-9.59291E-04-2.46023E-03-2.03600E-02
 -1      4341-1.77994E-03-2.45469E-03-2.04174E-02
 -1      4342 1.13888E-03-5.91505E-04-4.32247E-03
 -1      4343 1.21427E-03-6.31131E-04-4.50729E-03
 -1      4344 8.09003E-04-5.78215E-04-4.27594E-03
 -1      4345-1.42234E-03-1.43368E-03-1.22252E-02
 -1      4346-8.28040E-04-1.50073E-03-1.25682E-02
 -1      4347-1.51126E-03-1.48939E-03-1.26235E-02
 -1      4348 1.01407E-03-6.50674E-04-5.31687E-03
 -1      4349 6.17231E-04-6.79588E-04-5.55026E-03
 -1      4350 1.08851E-03-6.90190E-04-5.54282E-03
 -1      4351 1.60634E-03-1.57022E-03-1.27614E-02
 -1      4352 1.51202E-03-1.52146E-03-1.24386E-02
 -1      4353 9.23013E-04-1.56291E-03-1.27836E-02
 -1      4354-1.11431E-03-5.15974E-04-4.41208E-03
 -1      4355-1.18560E-03-5.58099E-04-4.65062E-03
 -1      4356-7.82720E-04-5.34280E-04-4.41622E-03
 -1      4357 2.05166E-03-5.18680E-03-4.25149E-02
 -1      4358 1.75130E-03-5.12900E-03-4.20484E-02
 -1      4359-1.05993E-03-6.02549E-04-5.44013E-03
 -1      4360-9.90097E-04-5.60682E-04-5.16320E-03
 -1      4361-5.90325E-04-6.18548E-04-5.39382E-03
 -1      4362-1.60996E-03-1.20588E-03-1.00712E-02
 -1      4363-1.13075E-03-1.22384E-03-1.00847E-02
 -1      4364-1.65290E-03-1.18159E-03-9.78040E-03
 -1      4365 2.20588E-03-4.27936E-03-3.50952E-02
 -1      4366-3.91883E-04-2.28388E-04-2.19032E-03
 -1      4367-6.98297E-04-2.13125E-04-2.22954E-03
 -1      4368-6.43772E-04-1.82096E-04-2.04507E-03
 -1      4369 1.77162E-03-2.27906E-03-1.86665E-02
 -1      4370 2.13963E-03-3.83151E-03-3.14250E-02
 -1      4371 1.69406E-03-1.91987E-03-1.57189E-02
 -1      4372 5.52493E-04-1.88408E-04-1.61493E-03
 -1      4373 2.63719E-05-1.57903E-05 5.18452E-06
 -1      4374 3.10603E-05-1.86055E-05-4.40822E-07
 -1      4375 3.73738E-05-1.33801E-05-6.76112E-06
 -1      4376 3.17321E-03-5.14728E-03-4.21607E-02
 -1      4377 3.25505E-03-5.15476E-03-4.22183E-02
 -1      4378 2.20008E-03-5.10913E-03-4.18680E-02
 -1      4379 3.47283E-05-1.11674E-05-1.40627E-05
 -1      4380 1.72554E-03-1.24386E-03-9.58285E-03
 -1      4381 1.68344E-03-1.27192E-03-9.93793E-03
 -1      4382 1.20854E-03-1.25813E-03-9.88619E-03
 -1      4383-1.56176E-05 1.10616E-05 6.71001E-06
 -1      4384-2.21570E-05 1.52343E-05 2.92972E-06
 -1      4385 3.75751E-04-7.56303E-05-7.52654E-04
 -1      4386 2.75909E-03-5.17953E-03-4.24451E-02
 -1      4387 3.53022E-05-1.63014E-05-1.08011E-05
 -1      4388-1.00367E-03-2.88972E-03-2.38533E-02
 -1      4389-1.86749E-03-2.88651E-03-2.39107E-02
 -1      4390-1.76600E-03-2.82080E-03-2.34131E-02
 -1      4391 2.72589E-03-5.18366E-03-4.24801E-02
 -1      4392 5.78622E-04-4.61521E-03-3.78494E-02
 -1      4393 2.09610E-03-5.14747E-03-4.21863E-02
 -1      4394 2.72645E-03-5.14948E-03-4.21870E-02
 -1      4395 2.77598E-03-4.63718E-03-3.79683E-02
 -1      4396 3.01787E-03-4.87917E-03-3.99366E-02
 -1      4397 2.89446E-03-4.81881E-03-3.94529E-02
 -1      4398 2.75212E-03-4.57320E-03-3.74228E-02
 -1      4399 2.88320E-03-4.69383E-03-3.84194E-02
 -1      4400 2.84741E-03-4.50954E-03-3.68738E-02
 -1      4401 2.99270E-03-4.74886E-03-3.88587E-02
 -1      4402 3.01900E-03-4.62932E-03-3.78604E-02
 -1      4403-7.11728E-05-4.32652E-03-3.55031E-02
 -3
    1PSTEP                         8           1           2          
  100CL  103 2.152079725        4403                     4    3           1
 -4  STRESS      6    1
 -5  SXX         1    4    1    1
 -5  SYY         1    4    2    2
 -5  SZZ         1    4    3    3
 -5  SXY         1    4    1    2
 -5  SYZ         1    4    2    3
 -5  SZX         1    4    3    1
 -1         1 1.16610E+01 3.82306E+00 3.57893E+00 2.45154E+00-4.37666E-01-9.34347E-01
 -1         2-1.48860E+01-4.81944E+00-4.62461E+00-2.72226E+00-5.62425E-01-1.60200E+00
 -1         3 1.48251E+01 4.77030E+00 4.64586E+00-2.99107E+00 5.44028E-01-1.20272E+00
 -1         4-1.15552E+01-3.76293E+00-3.61298E+00 2.71718E+00 4.14474E-01-5.52526E-01
 -1         5 1.11123E+00 1.04691E+00 4.67426E-01-3.52650E-02 1.66074E+00-2.63344E-01
 -1         6 8.40046E-01 9.79057E-01 7.17828E-01-1.26070E-02 1.66752E+00-2.63667E-01
 -1         7 1.08598E+00 9.62704E-01 4.35088E-01-3.50695E-03 1.61988E+00-2.55496E-01
 -1         8 9.27779E-01 9.94857E-01 7.65567E-01-3.80471E-02 1.62523E+00-2.60291E-01
 -1         9-8.02686E+00-3.27801E+00-3.40424E+00-2.04652E+00 1.57024E-01 8.72804E-01
 -1        10-1.63058E+00-7.94331E-01-6.26890E-01-4.35239E-01 6.14519E-02 1.37933E+00
 -1        11 5.10820E+00 2.04457E+00 2.16981E+00 1.41306E+00 1.42533E-01 1.14899E+00
 -1        12-1.23672E+01-5.29989E+00-5.30011E+00-2.96478E+00 7.36343E-05-7.98625E-04
 -1        13-4.75041E+00-2.03571E+00-2.03584E+00-1.18541E+00 1.21912E-04 1.05034E+00
 -1        14 1.71715E+00 7.35918E-01 7.35954E-01 5.09926E-01 1.42735E-04 1.27480E+00
 -1        15 9.33716E+00 4.00145E+00 4.00159E+00 2.39461E+00 8.85409E-05 4.45090E-01
 -1        16 1.14520E+01 4.80631E+00 4.81014E+00 9.44715E-01 8.13164E-02-2.42839E+00
 -1        17 1.22427E+01 5.12025E+00 5.14029E+00-1.46169E-01 7.49683E-02-2.56022E+00
 -1        18 1.24567E+01 5.24196E+00 5.27831E+00-1.29834E+00 3.91064E-02-2.46805E+00
 -1        19 1.14833E+01 4.92144E+00 4.92135E+00 1.67105E+00 1.64459E-04-2.14069E+00
 -1        20 1.20460E+01 5.16275E+00 5.16286E+00 4.58581E-01 2.31141E-04-2.53127E+00
 -1        21 1.26474E+01 5.42070E+00 5.42116E+00-6.60267E-01 3.07579E-04-2.52067E+00
 -1        22 1.31138E+01 5.62076E+00 5.62132E+00-2.00846E+00 2.18723E-04-2.22075E+00
 -1        23-6.08648E+00-2.68936E+00-2.48235E+00 1.84488E+00-4.83959E-02 1.68637E+00
 -1        24 1.35923E+00 4.55957E-01 6.13031E-01-1.73353E-01-8.67420E-02 2.12172E+00
 -1        25 8.64291E+00 3.51168E+00 3.63068E+00-2.23692E+00-1.76600E-01 1.54736E+00
 -1        26-9.91628E+00-4.25059E+00-4.25025E+00 2.68474E+00 2.62284E-04 9.15904E-01
 -1        27-2.44667E+00-1.04879E+00-1.04874E+00 8.02972E-01 3.46075E-04 1.93951E+00
 -1        28 5.01486E+00 2.14971E+00 2.14936E+00-1.24057E+00 2.92333E-04 1.81462E+00
 -1        29 1.31296E+01 5.62809E+00 5.62750E+00-3.27328E+00 2.09237E-04 5.33325E-01
 -1        30-1.31002E+01-5.50158E+00-5.48005E+00-6.17728E-01 1.16108E-01-2.87230E+00
 -1        31-1.21604E+01-5.09964E+00-5.07034E+00 5.71063E-01 1.00005E-01-2.51022E+00
 -1        32-1.06302E+01-4.48114E+00-4.48539E+00 1.58943E+00 4.56412E-02-2.00236E+00
 -1        33-1.42065E+01-6.08839E+00-6.08836E+00-1.55269E+00 1.83796E-04-2.83087E+00
 -1        34-1.28529E+01-5.50845E+00-5.50863E+00-8.27785E-02 2.25616E-04-2.74706E+00
 -1        35-1.16220E+01-4.98105E+00-4.98154E+00 1.02052E+00 2.48748E-04-2.25374E+00
 -1        36-1.03410E+01-4.43220E+00-4.43274E+00 2.11525E+00 1.45163E-04-1.55240E+00
 -1        37 9.74986E-01 1.00827E+00 9.14461E-01-2.55473E-02 1.60536E+00-4.85681E-01
 -1        38 9.78763E-01 1.01599E+00 6.11086E-01-2.48586E-02 1.58327E+00-5.00290E-01
 -1        39 9.81170E-01 1.02798E+00 2.84081E-01-2.30710E-02 1.61095E+00-4.89522E-01
 -1        40 9.37766E-01 1.00872E+00 8.87218E-01-7.94904E-03 1.62887E+00-3.92427E-01
 -1        41 9.74972E-01 1.01725E+00 7.79641E-01-2.59409E-02 1.58912E+00-4.96587E-01
 -1        42 9.79568E-01 1.02190E+00 4.39530E-01-3.14490E-02 1.58990E+00-4.94603E-01
 -1        43 1.01762E+00 1.02398E+00 3.03129E-01-3.13052E-02 1.62393E+00-3.89598E-01
 -1        44 1.12988E+00 1.00161E+00 4.39822E-01-6.20864E-02 1.64210E+00-2.70083E-01
 -1        45 1.10905E+00 9.14093E-01 4.22399E-01-5.04508E-02 1.63422E+00-2.77926E-01
 -1        46 1.10573E+00 9.08613E-01 4.17968E-01-3.02080E-02 1.62706E+00-2.81267E-01
 -1        47 1.12437E+00 1.03673E+00 4.60427E-01-5.02908E-02 1.65784E+00-2.78995E-01
 -1        48 1.11472E+00 9.49150E-01 4.34308E-01-5.71923E-02 1.63853E+00-2.73282E-01
 -1        49 1.09937E+00 8.99627E-01 4.11353E-01-4.39450E-02 1.62734E+00-2.79210E-01
 -1        50 1.09053E+00 9.39582E-01 4.28912E-01-1.55201E-02 1.62192E+00-2.70636E-01
 -1        51 1.03568E+00 9.95237E-01 9.25203E-01-2.39119E-02 1.64922E+00-4.85808E-01
 -1        52 1.00918E+00 9.73136E-01 5.97000E-01-2.21726E-02 1.65980E+00-4.98342E-01
 -1        53 9.83423E-01 9.61178E-01 2.61929E-01-2.32868E-02 1.63930E+00-4.82997E-01
 -1        54 1.01097E+00 1.00955E+00 9.18145E-01-4.29712E-02 1.64424E+00-3.92463E-01
 -1        55 1.01747E+00 9.86748E-01 7.74349E-01-2.29106E-02 1.66040E+00-4.95102E-01
 -1        56 9.93823E-01 9.67346E-01 4.18378E-01-1.27967E-02 1.65515E+00-4.90676E-01
 -1        57 9.96329E-01 9.46856E-01 2.69010E-01-1.70820E-02 1.64036E+00-3.83111E-01
 -1        58 8.47328E-01 1.04591E+00 7.52229E-01-3.45194E-02 1.63065E+00-2.75523E-01
 -1        59 8.61054E-01 1.04670E+00 7.62765E-01-5.60242E-02 1.62697E+00-2.70844E-01
 -1        60 8.56595E-01 9.77410E-01 7.59912E-01-6.50840E-02 1.62376E+00-2.79231E-01
 -1        61 8.46561E-01 1.00679E+00 7.31733E-01-2.55847E-02 1.65197E+00-2.73333E-01
 -1        62 8.63753E-01 1.07301E+00 7.63879E-01-4.70109E-02 1.63010E+00-2.80724E-01
 -1        63 8.59976E-01 1.01584E+00 7.61348E-01-5.56191E-02 1.62005E+00-2.74457E-01
 -1        64 8.94781E-01 9.65645E-01 7.59101E-01-5.61628E-02 1.62110E+00-2.74663E-01
 -1        65-1.11490E+01 3.67308E-01 3.73583E-01 1.83428E-01 3.07518E-02 2.77806E-01
 -1        66-1.20753E+01 8.36544E-02 6.93465E-02 5.14846E-02 1.32842E-02-6.43061E-02
 -1        67-1.22334E+01 6.47573E-02 5.02784E-02 2.32649E-02 3.45699E-02-1.12156E-01
 -1        68-1.21819E+01 7.39606E-02 5.69993E-02 2.04640E-02 6.90607E-02-1.38027E-01
 -1        69-1.20696E+01 9.61334E-02 7.11607E-02-1.03047E-02 1.09651E-01-1.29734E-01
 -1        70-1.19008E+01 1.23307E-01 8.42764E-02-1.47521E-02 1.53127E-01-1.53576E-01
 -1        71-1.17022E+01 1.48088E-01 1.02239E-01-4.08315E-02 2.09028E-01-1.40351E-01
 -1        72-1.14781E+01 1.83171E-01 1.18510E-01-5.34356E-02 2.67156E-01-1.45240E-01
 -1        73-1.12234E+01 2.17886E-01 1.40474E-01-5.46149E-02 3.27416E-01-1.68565E-01
 -1        74-1.09367E+01 2.55203E-01 1.62257E-01-7.00082E-02 3.91635E-01-1.66916E-01
 -1        75-1.06302E+01 2.95571E-01 1.84643E-01-8.37837E-02 4.63765E-01-1.58745E-01
 -1        76-1.02965E+01 3.36506E-01 2.07649E-01-8.87794E-02 5.35839E-01-1.62693E-01
 -1        77-9.93851E+00 3.76681E-01 2.32336E-01-8.96402E-02 6.07296E-01-1.84485E-01
 -1        78-9.55793E+00 4.21296E-01 2.58572E-01-1.00235E-01 6.79298E-01-1.71557E-01
 -1        79-9.15698E+00 4.66045E-01 2.83733E-01-1.02063E-01 7.53861E-01-1.86887E-01
 -1        80-8.73086E+00 5.10446E-01 3.08950E-01-1.01965E-01 8.24537E-01-1.96328E-01
 -1        81-8.28360E+00 5.48281E-01 3.33694E-01-1.05373E-01 9.03363E-01-1.82404E-01
 -1        82-7.82854E+00 5.93172E-01 3.56375E-01-1.04094E-01 9.76956E-01-1.86226E-01
 -1        83-7.34748E+00 6.31251E-01 3.81003E-01-1.04280E-01 1.04667E+00-2.07968E-01
 -1        84-6.85944E+00 6.75137E-01 4.06685E-01-1.02172E-01 1.11248E+00-1.93238E-01
 -1        85-6.34727E+00 7.13647E-01 4.27242E-01-9.84405E-02 1.17486E+00-2.14584E-01
 -1        86-5.83037E+00 7.49575E-01 4.51743E-01-9.02153E-02 1.23873E+00-1.98744E-01
 -1        87-5.28842E+00 7.79421E-01 4.66102E-01-8.89645E-02 1.30008E+00-2.12796E-01
 -1        88-4.76192E+00 8.15738E-01 4.87834E-01-8.33066E-02 1.35351E+00-2.13964E-01
 -1        89-4.19398E+00 8.41585E-01 5.02350E-01-7.44217E-02 1.40634E+00-2.02897E-01
 -1        90-3.65174E+00 8.71822E-01 5.20065E-01-7.08838E-02 1.45086E+00-2.17520E-01
 -1        91-3.08018E+00 8.96072E-01 5.33395E-01-6.04216E-02 1.49162E+00-2.20397E-01
 -1        92-2.50392E+00 9.13077E-01 5.46658E-01-5.21989E-02 1.52903E+00-2.18701E-01
 -1        93-1.92249E+00 9.31081E-01 5.53512E-01-4.15274E-02 1.56126E+00-2.01198E-01
 -1        94-1.35920E+00 9.51369E-01 5.66052E-01-3.46304E-02 1.58241E+00-2.18283E-01
 -1        95-7.66053E-01 9.57467E-01 5.71483E-01-2.02971E-02 1.60737E+00-1.95186E-01
 -1        96-1.94596E-01 9.67595E-01 5.75202E-01-1.27445E-02 1.62290E+00-1.87050E-01
 -1        97 3.17932E-01 9.73830E-01 5.61149E-01-1.00902E-02 1.62674E+00-1.50248E-01
 -1        98-1.23127E+01-3.52449E-01-2.72393E-01-7.19460E-01-1.48470E-01-1.59126E-01
 -1        99-1.18139E+01 6.44395E-02 7.56282E-02 1.25069E-02-7.55541E-03-1.50454E-02
 -1       100-1.21873E+01 5.77441E-02 5.24060E-02 3.31208E-02 1.57725E-02-9.77503E-02
 -1       101-1.22181E+01 6.56019E-02 5.84172E-02 1.96103E-02 5.37446E-02-1.23053E-01
 -1       102-1.21346E+01 8.65122E-02 6.45915E-02 6.90927E-03 9.05482E-02-1.35917E-01
 -1       103-1.19846E+01 1.10349E-01 8.11887E-02-1.03139E-02 1.32906E-01-1.42388E-01
 -1       104-1.18085E+01 1.38337E-01 8.93306E-02-2.91644E-02 1.82586E-01-1.45139E-01
 -1       105-1.15946E+01 1.64171E-01 1.08575E-01-4.52396E-02 2.39685E-01-1.45793E-01
 -1       106-1.13484E+01 1.99728E-01 1.33480E-01-5.51569E-02 2.95490E-01-1.56969E-01
 -1       107-1.10877E+01 2.37219E-01 1.50681E-01-5.98933E-02 3.60669E-01-1.69337E-01
 -1       108-1.07906E+01 2.75825E-01 1.71588E-01-7.35944E-02 4.30440E-01-1.63875E-01
 -1       109-1.04640E+01 3.16396E-01 1.97206E-01-8.53418E-02 5.01024E-01-1.61816E-01
 -1       110-1.01125E+01 3.57558E-01 2.23495E-01-8.96570E-02 5.68696E-01-1.74999E-01
 -1       111-9.76328E+00 3.94582E-01 2.40100E-01-9.31581E-02 6.45290E-01-1.79485E-01
 -1       112-9.35418E+00 4.45061E-01 2.72784E-01-9.76476E-02 7.15407E-01-1.79816E-01
 -1       113-8.93961E+00 4.89913E-01 2.98272E-01-9.86455E-02 7.89973E-01-1.92318E-01
 -1       114-8.51890E+00 5.28489E-01 3.16691E-01-1.03408E-01 8.66660E-01-1.90075E-01
 -1       115-8.06046E+00 5.69983E-01 3.43845E-01-1.02373E-01 9.41668E-01-1.88095E-01
 -1       116-7.58017E+00 6.14791E-01 3.72368E-01-1.03539E-01 1.00831E+00-1.98917E-01
 -1       117-7.12124E+00 6.49412E-01 3.90614E-01-1.00356E-01 1.08278E+00-2.02053E-01
 -1       118-6.59224E+00 6.96773E-01 4.19943E-01-9.66186E-02 1.14142E+00-2.04384E-01
 -1       119-6.10047E+00 7.28979E-01 4.36591E-01-9.32205E-02 1.21151E+00-2.08239E-01
 -1       120-5.56096E+00 7.64899E-01 4.59570E-01-8.74225E-02 1.26800E+00-2.08706E-01
 -1       121-5.02668E+00 7.98283E-01 4.77358E-01-8.07727E-02 1.32683E+00-2.13533E-01
 -1       122-4.48761E+00 8.23249E-01 4.87737E-01-7.81112E-02 1.38051E+00-2.11445E-01
 -1       123-3.91642E+00 8.59200E-01 5.13829E-01-6.83071E-02 1.42620E+00-2.12267E-01
 -1       124-3.35977E+00 8.85392E-01 5.28306E-01-6.14443E-02 1.47169E+00-2.19676E-01
 -1       125-2.79136E+00 9.05659E-01 5.40670E-01-5.17833E-02 1.51056E+00-2.21968E-01
 -1       126-2.23360E+00 9.13622E-01 5.40346E-01-4.35720E-02 1.54640E+00-2.11945E-01
 -1       127-1.62742E+00 9.44072E-01 5.62588E-01-3.30149E-02 1.56866E+00-2.10833E-01
 -1       128-1.07551E+00 9.50959E-01 5.62110E-01-2.64575E-02 1.59795E+00-2.08907E-01
 -1       129-4.83342E-01 9.63056E-01 5.72358E-01-1.49757E-02 1.61706E+00-1.96312E-01
 -1       130 7.88178E-02 9.73604E-01 5.76812E-01-1.05709E-02 1.62782E+00-1.80788E-01
 -1       131 5.59595E-01 9.70669E-01 6.10436E-01-1.89639E-02 1.64895E+00-1.84277E-01
 -1       132 8.73895E+00-2.82301E-01-2.87228E-01-9.50768E-02 1.52670E-02 2.61380E-01
 -1       133 9.46957E+00-4.81074E-02-3.82364E-02-5.55589E-02 1.39973E-02-6.90366E-02
 -1       134 9.61399E+00 3.72054E-03-1.44737E-02-6.18386E-02 3.22930E-02-1.21791E-01
 -1       135 9.62266E+00 2.54213E-02 2.00337E-03-4.49078E-02 6.71882E-02-1.42190E-01
 -1       136 9.56955E+00 5.45383E-02 2.12626E-02-1.72498E-02 1.09905E-01-1.34728E-01
 -1       137 9.49662E+00 7.89168E-02 3.92257E-02-1.54268E-02 1.53402E-01-1.55436E-01
 -1       138 9.39452E+00 1.18700E-01 6.18826E-02 3.27803E-03 2.09185E-01-1.49393E-01
 -1       139 9.28117E+00 1.50927E-01 8.28532E-02 1.12478E-03 2.62901E-01-1.72746E-01
 -1       140 9.15285E+00 1.92807E-01 1.06975E-01 1.84596E-02 3.26833E-01-1.60513E-01
 -1       141 8.99681E+00 2.38017E-01 1.36575E-01 2.87686E-02 3.95188E-01-1.64540E-01
 -1       142 8.83447E+00 2.75971E-01 1.60243E-01 2.82931E-02 4.60555E-01-1.82697E-01
 -1       143 8.64421E+00 3.20721E-01 1.89071E-01 2.90189E-02 5.30367E-01-1.92951E-01
 -1       144 8.44853E+00 3.68464E-01 2.15046E-01 3.95260E-02 6.05311E-01-1.80250E-01
 -1       145 8.22254E+00 4.16604E-01 2.46807E-01 4.23638E-02 6.80294E-01-1.95189E-01
 -1       146 7.99486E+00 4.60108E-01 2.74097E-01 4.39392E-02 7.53740E-01-1.98106E-01
 -1       147 7.74108E+00 5.07410E-01 3.01502E-01 4.85482E-02 8.28149E-01-1.91359E-01
 -1       148 7.47516E+00 5.52602E-01 3.31155E-01 4.70310E-02 9.01652E-01-2.08007E-01
 -1       149 7.19213E+00 5.95396E-01 3.59228E-01 4.56351E-02 9.73427E-01-2.13580E-01
 -1       150 6.88970E+00 6.43705E-01 3.84120E-01 4.56745E-02 1.04408E+00-2.16638E-01
 -1       151 6.57861E+00 6.85650E-01 4.13101E-01 4.60089E-02 1.11623E+00-2.05279E-01
 -1       152 6.25669E+00 7.22851E-01 4.37047E-01 4.01490E-02 1.17866E+00-2.25166E-01
 -1       153 5.90895E+00 7.66146E-01 4.58703E-01 3.74748E-02 1.24125E+00-2.24679E-01
 -1       154 5.55588E+00 8.02277E-01 4.82873E-01 3.42562E-02 1.30016E+00-2.24370E-01
 -1       155 5.19283E+00 8.35136E-01 5.04505E-01 3.22083E-02 1.35839E+00-2.13707E-01
 -1       156 4.81371E+00 8.63691E-01 5.23443E-01 2.24253E-02 1.40253E+00-2.32604E-01
 -1       157 4.42802E+00 8.93296E-01 5.36602E-01 1.98276E-02 1.45020E+00-2.13868E-01
 -1       158 4.02768E+00 9.23502E-01 5.60017E-01 1.45046E-02 1.49727E+00-2.13865E-01
 -1       159 3.61897E+00 9.44778E-01 5.67973E-01 5.97810E-03 1.52901E+00-2.30096E-01
 -1       160 3.19348E+00 9.66195E-01 5.84063E-01 1.90006E-03 1.56219E+00-2.08814E-01
 -1       161 2.78050E+00 9.77812E-01 5.92637E-01-5.73587E-03 1.58714E+00-2.23282E-01
 -1       162 2.34383E+00 9.90106E-01 5.97272E-01-1.26920E-02 1.60547E+00-2.01646E-01
 -1       163 1.90939E+00 9.97885E-01 6.03483E-01-1.60860E-02 1.62034E+00-1.92848E-01
 -1       164 1.51081E+00 1.00229E+00 6.26610E-01-1.04981E-02 1.62745E+00-1.55181E-01
 -1       165 9.65314E+00 2.97669E-01 2.09594E-01 7.26524E-01-1.29274E-01 5.10883E-02
 -1       166 9.25086E+00-3.76756E-02-5.68870E-02-7.45751E-04 6.55843E-03-2.16939E-03
 -1       167 9.57776E+00-8.95863E-03-2.05321E-02-5.58523E-02 1.58750E-02-1.08562E-01
 -1       168 9.62381E+00 1.19958E-02-8.99043E-03-5.30413E-02 5.05339E-02-1.34131E-01
 -1       169 9.60144E+00 3.82016E-02 1.55779E-02-3.03412E-02 8.92470E-02-1.38075E-01
 -1       170 9.53509E+00 6.78197E-02 3.05094E-02-1.88202E-02 1.31085E-01-1.48528E-01
 -1       171 9.45079E+00 9.93308E-02 5.38775E-02-6.13551E-03 1.82569E-01-1.52421E-01
 -1       172 9.33709E+00 1.35154E-01 7.15677E-02-5.64406E-04 2.34833E-01-1.64211E-01
 -1       173 9.22152E+00 1.70247E-01 9.79333E-02 1.10148E-02 2.97906E-01-1.66324E-01
 -1       174 9.07926E+00 2.16871E-01 1.25359E-01 2.24433E-02 3.60520E-01-1.63455E-01
 -1       175 8.91480E+00 2.56749E-01 1.46694E-01 2.55135E-02 4.26788E-01-1.76785E-01
 -1       176 8.73809E+00 2.97558E-01 1.73182E-01 2.56928E-02 4.96273E-01-1.89583E-01
 -1       177 8.55250E+00 3.43622E-01 2.04041E-01 3.43801E-02 5.71096E-01-1.87069E-01
 -1       178 8.33688E+00 3.92163E-01 2.30019E-01 3.82431E-02 6.42298E-01-1.89510E-01
 -1       179 8.11099E+00 4.37452E-01 2.59753E-01 3.82626E-02 7.17696E-01-1.98537E-01
 -1       180 7.87309E+00 4.85704E-01 2.91021E-01 4.57797E-02 7.92361E-01-1.96462E-01
 -1       181 7.60521E+00 5.28747E-01 3.14670E-01 4.34138E-02 8.63315E-01-2.01474E-01
 -1       182 7.33170E+00 5.72844E-01 3.43579E-01 4.19733E-02 9.38221E-01-2.12550E-01
 -1       183 7.04276E+00 6.19059E-01 3.71253E-01 4.25586E-02 1.00903E+00-2.16852E-01
 -1       184 6.74442E+00 6.66369E-01 4.01211E-01 4.07695E-02 1.08354E+00-2.12595E-01
 -1       185 6.41009E+00 7.01109E-01 4.21303E-01 3.97410E-02 1.14507E+00-2.17214E-01
 -1       186 6.08607E+00 7.44689E-01 4.48033E-01 3.47722E-02 1.21110E+00-2.27698E-01
 -1       187 5.73917E+00 7.84543E-01 4.71781E-01 3.14632E-02 1.27134E+00-2.26977E-01
 -1       188 5.38315E+00 8.19804E-01 4.95257E-01 2.82949E-02 1.33212E+00-2.20886E-01
 -1       189 4.99161E+00 8.44770E-01 5.08855E-01 2.43289E-02 1.37899E+00-2.25599E-01
 -1       190 4.62951E+00 8.79344E-01 5.30928E-01 1.91219E-02 1.43069E+00-2.26422E-01
 -1       191 4.23059E+00 9.08954E-01 5.49672E-01 1.31398E-02 1.47348E+00-2.16508E-01
 -1       192 3.81591E+00 9.31062E-01 5.60955E-01 7.14753E-03 1.51014E+00-2.24850E-01
 -1       193 3.42090E+00 9.61965E-01 5.83486E-01 8.03214E-04 1.54628E+00-2.21934E-01
 -1       194 2.98187E+00 9.69741E-01 5.88078E-01-7.01647E-03 1.57214E+00-2.20352E-01
 -1       195 2.56975E+00 9.88053E-01 5.99364E-01-1.20608E-02 1.59950E+00-2.15793E-01
 -1       196 2.12445E+00 9.94749E-01 6.01933E-01-1.68118E-02 1.61143E+00-2.01414E-01
 -1       197 1.69524E+00 9.98929E-01 6.05368E-01-1.65927E-02 1.62771E+00-1.85172E-01
 -1       198 1.33538E+00 1.02802E+00 5.84493E-01-8.53525E-03 1.64469E+00-1.84492E-01
 -1       199-8.80969E+00 2.12781E-01 2.25753E-01 3.48624E-02-8.93885E-03 4.41514E-01
 -1       200-9.51847E+00 2.60840E-02-5.04917E-03 4.14937E-02 1.27619E-02 1.21015E-01
 -1       201-9.60808E+00 4.52519E-03 8.56494E-04 3.62900E-02 3.59787E-02 1.13247E-01
 -1       202-9.56994E+00 3.10039E-02 1.44592E-02 1.42328E-02 6.94267E-02 9.53534E-02
 -1       203-9.46151E+00 5.56747E-02 2.88124E-02-1.18266E-03 1.07957E-01 9.49843E-02
 -1       204-9.32380E+00 8.49948E-02 4.78790E-02-1.41662E-02 1.53825E-01 9.67167E-02
 -1       205-9.15765E+00 1.16967E-01 6.59333E-02-1.87949E-02 2.03109E-01 1.00174E-01
 -1       206-8.96444E+00 1.53587E-01 8.89753E-02-2.79405E-02 2.61464E-01 9.84462E-02
 -1       207-8.75343E+00 1.92420E-01 1.14543E-01-4.93058E-02 3.25488E-01 9.22569E-02
 -1       208-8.51918E+00 2.34496E-01 1.39713E-01-5.96724E-02 3.91342E-01 8.62252E-02
 -1       209-8.26839E+00 2.78944E-01 1.65430E-01-6.23208E-02 4.57683E-01 7.84320E-02
 -1       210-7.98820E+00 3.23883E-01 1.94382E-01-6.92203E-02 5.31263E-01 6.97456E-02
 -1       211-7.69680E+00 3.70212E-01 2.25148E-01-8.26673E-02 6.06802E-01 6.48687E-02
 -1       212-7.38948E+00 4.18551E-01 2.53870E-01-8.88382E-02 6.81057E-01 5.44509E-02
 -1       213-7.05694E+00 4.63925E-01 2.82360E-01-9.45044E-02 7.56224E-01 4.54581E-02
 -1       214-6.70944E+00 5.07300E-01 3.06942E-01-9.55234E-02 8.28069E-01 3.37666E-02
 -1       215-6.35897E+00 5.56770E-01 3.36141E-01-9.66051E-02 9.00456E-01 1.38994E-02
 -1       216-5.98321E+00 6.02670E-01 3.63958E-01-9.94825E-02 9.73837E-01-6.32598E-04
 -1       217-5.59105E+00 6.44140E-01 3.91310E-01-1.01760E-01 1.04496E+00-4.32222E-03
 -1       218-5.19628E+00 6.86757E-01 4.16108E-01-1.00124E-01 1.11120E+00-1.61847E-02
 -1       219-4.79461E+00 7.32326E-01 4.45586E-01-1.01694E-01 1.18060E+00-3.13415E-02
 -1       220-4.37372E+00 7.67505E-01 4.64116E-01-9.91292E-02 1.24065E+00-5.65342E-02
 -1       221-3.94879E+00 8.06354E-01 4.87147E-01-9.75913E-02 1.29981E+00-7.17193E-02
 -1       222-3.51465E+00 8.39706E-01 5.08094E-01-9.40083E-02 1.35542E+00-8.50507E-02
 -1       223-3.07184E+00 8.72321E-01 5.27815E-01-9.29165E-02 1.40864E+00-1.04960E-01
 -1       224-2.61957E+00 8.95107E-01 5.44865E-01-8.55906E-02 1.45231E+00-1.00531E-01
 -1       225-2.17635E+00 9.24430E-01 5.58463E-01-8.13426E-02 1.49194E+00-1.12552E-01
 -1       226-1.71863E+00 9.42189E-01 5.71648E-01-7.56962E-02 1.52982E+00-1.23974E-01
 -1       227-1.26793E+00 9.68580E-01 5.88514E-01-6.69666E-02 1.56591E+00-1.36697E-01
 -1       228-8.11053E-01 9.79265E-01 5.91935E-01-6.27656E-02 1.58437E+00-1.48610E-01
 -1       229-3.47810E-01 9.90154E-01 6.01295E-01-5.58772E-02 1.60634E+00-1.58528E-01
 -1       230 9.91310E-02 1.00106E+00 6.04705E-01-4.58128E-02 1.62034E+00-1.63501E-01
 -1       231 5.02187E-01 1.01084E+00 5.92845E-01-2.44469E-02 1.63472E+00-1.35573E-01
 -1       232-9.62338E+00-2.92146E-01-2.79113E-01 8.73062E-01 1.15645E-01 2.87272E-01
 -1       233-9.32428E+00 4.32503E-03 4.32810E-03 1.00224E-01 2.03204E-02 1.90887E-01
 -1       234-9.58668E+00 4.94608E-03-5.28637E-03 4.01202E-02 1.22613E-02 1.16967E-01
 -1       235-9.59673E+00 1.52045E-02 1.03311E-02 2.41001E-02 5.14140E-02 1.02661E-01
 -1       236-9.51965E+00 4.06252E-02 2.01390E-02 6.07101E-03 8.90613E-02 9.27644E-02
 -1       237-9.39514E+00 6.91638E-02 3.68517E-02-7.43952E-03 1.31103E-01 9.45656E-02
 -1       238-9.24046E+00 1.02802E-01 5.70062E-02-1.65648E-02 1.80706E-01 9.78716E-02
 -1       239-9.06169E+00 1.34985E-01 7.64313E-02-2.40050E-02 2.32735E-01 9.98158E-02
 -1       240-8.86852E+00 1.67274E-01 1.00343E-01-4.15107E-02 2.93862E-01 9.29135E-02
 -1       241-8.64118E+00 2.11612E-01 1.25160E-01-5.62124E-02 3.58653E-01 8.79170E-02
 -1       242-8.39283E+00 2.57152E-01 1.52567E-01-6.30112E-02 4.24328E-01 8.21977E-02
 -1       243-8.12701E+00 3.01162E-01 1.79618E-01-6.75406E-02 4.94795E-01 7.38094E-02
 -1       244-7.85101E+00 3.43111E-01 2.08650E-01-7.87325E-02 5.66574E-01 6.44423E-02
 -1       245-7.54372E+00 3.93178E-01 2.37998E-01-8.68512E-02 6.44322E-01 5.67350E-02
 -1       246-7.22222E+00 4.42832E-01 2.69798E-01-9.12302E-02 7.18163E-01 4.70800E-02
 -1       247-6.88931E+00 4.81585E-01 2.90512E-01-9.62308E-02 7.95656E-01 3.71752E-02
 -1       248-6.53088E+00 5.33218E-01 3.22817E-01-9.96265E-02 8.64862E-01 2.20650E-02
 -1       249-6.16860E+00 5.79420E-01 3.49939E-01-1.01314E-01 9.37468E-01 5.46675E-03
 -1       250-5.79698E+00 6.17946E-01 3.72573E-01-1.03834E-01 1.00890E+00-5.22092E-03
 -1       251-5.39675E+00 6.66571E-01 4.04447E-01-1.03339E-01 1.07768E+00-1.27825E-02
 -1       252-4.99297E+00 7.10416E-01 4.31305E-01-1.01786E-01 1.14456E+00-2.78564E-02
 -1       253-4.57625E+00 7.54065E-01 4.60463E-01-1.03301E-01 1.21146E+00-4.67845E-02
 -1       254-4.15921E+00 7.87520E-01 4.76653E-01-1.02906E-01 1.27038E+00-6.60954E-02
 -1       255-3.73052E+00 8.22404E-01 4.98175E-01-1.00696E-01 1.32738E+00-8.12762E-02
 -1       256-3.28656E+00 8.57326E-01 5.19378E-01-9.76236E-02 1.38231E+00-9.68626E-02
 -1       257-2.85884E+00 8.79483E-01 5.30660E-01-9.16579E-02 1.42897E+00-1.05165E-01
 -1       258-2.40004E+00 9.10544E-01 5.51184E-01-8.75759E-02 1.47048E+00-1.11503E-01
 -1       259-1.95017E+00 9.32799E-01 5.62771E-01-7.65252E-02 1.51179E+00-1.21854E-01
 -1       260-1.49910E+00 9.53539E-01 5.77857E-01-7.34939E-02 1.54696E+00-1.35820E-01
 -1       261-1.03805E+00 9.73497E-01 5.89905E-01-6.89690E-02 1.57552E+00-1.44921E-01
 -1       262-5.81252E-01 9.83738E-01 5.94404E-01-5.84842E-02 1.59590E+00-1.57209E-01
 -1       263-1.26255E-01 9.96520E-01 6.04290E-01-5.41919E-02 1.61176E+00-1.66232E-01
 -1       264 3.13161E-01 1.00725E+00 6.08476E-01-3.70361E-02 1.62437E+00-1.61688E-01
 -1       265 6.99953E-01 1.00407E+00 6.52277E-01-1.85814E-02 1.62940E+00-1.73331E-01
 -1       266 1.12438E+01-2.62814E-01-2.76845E-01 6.12607E-02-2.74761E-02 4.53033E-01
 -1       267 1.21936E+01 2.90674E-03 1.63005E-02-2.59901E-02 1.32415E-02 1.19825E-01
 -1       268 1.23570E+01 4.32831E-02 3.52284E-02-1.45115E-02 3.85985E-02 9.35990E-02
 -1       269 1.23386E+01 6.80550E-02 4.84884E-02-1.28335E-02 6.47754E-02 1.04668E-01
 -1       270 1.22567E+01 8.92501E-02 5.89862E-02 1.58360E-02 1.07563E-01 9.39197E-02
 -1       271 1.21402E+01 1.15670E-01 7.59066E-02 1.99003E-02 1.51237E-01 9.94835E-02
 -1       272 1.19988E+01 1.45448E-01 9.13144E-02 4.70758E-02 2.05928E-01 9.26308E-02
 -1       273 1.18378E+01 1.79443E-01 1.09226E-01 6.24324E-02 2.62420E-01 8.90455E-02
 -1       274 1.16478E+01 2.16489E-01 1.31976E-01 6.17788E-02 3.20759E-01 8.90828E-02
 -1       275 1.14370E+01 2.53951E-01 1.53556E-01 7.60065E-02 3.88169E-01 8.01201E-02
 -1       276 1.12105E+01 2.92107E-01 1.74552E-01 9.26514E-02 4.58701E-01 7.43519E-02
 -1       277 1.09586E+01 3.30845E-01 1.97207E-01 1.02612E-01 5.31500E-01 6.79174E-02
 -1       278 1.06790E+01 3.77018E-01 2.24292E-01 9.99847E-02 6.00244E-01 5.57490E-02
 -1       279 1.03853E+01 4.17649E-01 2.47641E-01 1.11863E-01 6.80276E-01 4.97837E-02
 -1       280 1.00715E+01 4.58924E-01 2.73730E-01 1.12374E-01 7.51104E-01 3.40083E-02
 -1       281 9.72573E+00 5.01907E-01 2.98887E-01 1.13946E-01 8.28473E-01 1.94202E-02
 -1       282 9.37010E+00 5.44826E-01 3.21367E-01 1.21039E-01 9.03798E-01 1.67252E-02
 -1       283 8.99562E+00 5.88105E-01 3.50203E-01 1.21086E-01 9.71929E-01 4.75483E-03
 -1       284 8.59242E+00 6.31550E-01 3.73815E-01 1.19830E-01 1.04356E+00-7.97448E-03
 -1       285 8.19030E+00 6.65323E-01 3.93197E-01 1.16914E-01 1.11355E+00-2.12261E-02
 -1       286 7.75235E+00 7.04528E-01 4.20272E-01 1.11603E-01 1.17801E+00-4.79835E-02
 -1       287 7.30005E+00 7.44788E-01 4.41514E-01 1.11451E-01 1.24118E+00-4.78897E-02
 -1       288 6.83299E+00 7.77842E-01 4.60942E-01 1.02451E-01 1.29876E+00-7.20138E-02
 -1       289 6.36910E+00 8.06898E-01 4.78059E-01 9.80545E-02 1.35438E+00-8.51211E-02
 -1       290 5.85956E+00 8.41220E-01 4.99636E-01 9.32699E-02 1.40598E+00-8.80632E-02
 -1       291 5.36945E+00 8.63544E-01 5.12690E-01 8.17830E-02 1.45158E+00-1.14364E-01
 -1       292 4.84594E+00 8.87675E-01 5.27895E-01 7.55782E-02 1.49342E+00-1.29207E-01
 -1       293 4.31149E+00 9.13199E-01 5.39247E-01 6.72608E-02 1.52904E+00-1.40351E-01
 -1       294 3.76642E+00 9.32916E-01 5.54781E-01 5.91547E-02 1.56193E+00-1.36614E-01
 -1       295 3.23640E+00 9.41125E-01 5.61186E-01 4.66460E-02 1.58546E+00-1.62106E-01
 -1       296 2.67099E+00 9.57188E-01 5.69160E-01 3.87787E-02 1.60598E+00-1.69407E-01
 -1       297 2.11045E+00 9.65237E-01 5.74856E-01 2.72527E-02 1.62097E+00-1.70243E-01
 -1       298 1.60945E+00 9.73380E-01 5.96258E-01 1.29645E-02 1.63528E+00-1.35943E-01
 -1       299 1.23122E+01 3.75289E-01 3.28705E-01-8.59605E-01 1.31120E-01 9.17397E-02
 -1       300 1.19373E+01 2.18550E-02 1.06401E-02-7.70590E-02 3.16687E-02 1.71655E-01
 -1       301 1.23023E+01 3.83155E-02 2.97490E-02-2.00180E-02 2.19208E-02 1.07703E-01
 -1       302 1.23602E+01 5.92673E-02 4.59800E-02-1.22383E-02 4.80338E-02 9.85239E-02
 -1       303 1.23052E+01 8.26146E-02 5.43369E-02 1.76072E-03 8.59346E-02 9.92271E-02
 -1       304 1.21991E+01 1.03874E-01 7.00330E-02 1.66931E-02 1.32096E-01 9.69560E-02
 -1       305 1.20795E+01 1.37084E-01 8.44641E-02 3.64437E-02 1.78551E-01 9.36077E-02
 -1       306 1.19209E+01 1.62836E-01 1.00795E-01 5.53089E-02 2.34108E-01 9.12076E-02
 -1       307 1.17434E+01 1.96681E-01 1.23418E-01 6.42794E-02 2.91768E-01 8.69069E-02
 -1       308 1.15507E+01 2.37953E-01 1.44017E-01 7.00647E-02 3.54977E-01 8.53452E-02
 -1       309 1.13319E+01 2.75345E-01 1.65881E-01 8.62611E-02 4.22701E-01 7.78897E-02
 -1       310 1.10818E+01 3.09763E-01 1.84982E-01 9.86883E-02 4.93382E-01 6.88624E-02
 -1       311 1.08163E+01 3.53250E-01 2.10997E-01 1.01713E-01 5.68824E-01 5.85083E-02
 -1       312 1.05449E+01 4.03102E-01 2.40133E-01 1.07412E-01 6.39131E-01 5.22353E-02
 -1       313 1.02261E+01 4.38997E-01 2.61411E-01 1.14658E-01 7.18738E-01 4.09030E-02
 -1       314 9.89396E+00 4.80180E-01 2.86054E-01 1.15123E-01 7.90287E-01 2.62556E-02
 -1       315 9.56020E+00 5.27731E-01 3.12497E-01 1.19800E-01 8.62740E-01 1.55548E-02
 -1       316 9.18487E+00 5.67625E-01 3.37091E-01 1.23511E-01 9.39189E-01 8.81272E-03
 -1       317 8.79759E+00 6.11460E-01 3.64161E-01 1.18774E-01 1.00791E+00-3.88242E-03
 -1       318 8.39287E+00 6.47597E-01 3.83197E-01 1.20194E-01 1.07820E+00-1.83233E-02
 -1       319 7.95743E+00 6.78658E-01 3.98728E-01 1.16167E-01 1.14661E+00-3.64370E-02
 -1       320 7.53978E+00 7.30994E-01 4.36590E-01 1.13959E-01 1.20832E+00-5.02841E-02
 -1       321 7.06785E+00 7.61248E-01 4.50641E-01 1.08590E-01 1.27120E+00-6.36997E-02
 -1       322 6.60156E+00 7.93417E-01 4.70593E-01 1.04983E-01 1.32661E+00-7.87223E-02
 -1       323 6.12323E+00 8.30132E-01 4.96395E-01 9.64920E-02 1.38069E+00-9.01902E-02
 -1       324 5.60756E+00 8.50231E-01 5.03838E-01 9.16735E-02 1.43122E+00-1.03207E-01
 -1       325 5.10187E+00 8.75423E-01 5.19653E-01 8.27569E-02 1.47273E+00-1.22680E-01
 -1       326 4.57991E+00 9.01322E-01 5.34788E-01 7.56567E-02 1.51115E+00-1.37340E-01
 -1       327 4.05896E+00 9.32300E-01 5.57454E-01 6.67757E-02 1.54512E+00-1.40571E-01
 -1       328 3.49007E+00 9.34548E-01 5.55179E-01 5.75430E-02 1.57693E+00-1.50999E-01
 -1       329 2.95469E+00 9.51548E-01 5.66345E-01 4.70526E-02 1.59547E+00-1.68214E-01
 -1       330 2.39189E+00 9.62341E-01 5.73898E-01 3.73071E-02 1.61242E+00-1.72265E-01
 -1       331 1.84855E+00 9.70569E-01 5.79610E-01 2.13389E-02 1.62369E+00-1.64629E-01
 -1       332 1.37132E+00 9.74451E-01 5.43826E-01-2.78677E-03 1.62384E+00-1.74062E-01
 -1       333 3.17270E+00 1.23906E+00 1.13462E+00-3.91029E-01-1.63840E-03 7.67142E-01
 -1       334 1.75670E+00 6.47541E-01 5.43129E-01 2.47341E-01 3.77235E-02 4.84881E-01
 -1       335-5.59556E+00-2.40646E+00-2.21861E+00 6.02570E-01-3.18379E-02-1.10463E-01
 -1       336-3.13894E+00-1.32496E+00-1.33970E+00-3.57573E-01 2.49595E-03 3.64686E-01
 -1       337-3.11767E-01-1.23795E-01-1.12342E-01 4.48482E-02-4.52225E-02 4.26162E-01
 -1       338 5.04748E+00 2.12060E+00 2.01874E+00 1.94497E-01-3.03193E-02-1.55970E-01
 -1       339-1.98387E+00-7.97861E-01-8.37681E-01 5.03401E-01 4.76436E-02 8.32949E-01
 -1       340-5.75343E+00-2.36589E+00-2.27412E+00-4.26311E-02-2.97887E-02-2.45062E-01
 -1       341 6.65016E+00 2.84755E+00 2.61213E+00-4.69627E-01-1.83476E-02-3.39904E-01
 -1       342 2.72174E+00 1.11311E+00 1.09439E+00-7.52603E-02 9.30331E-03 3.51308E-01
 -1       343 5.64929E+00 2.18077E+00 2.02695E+00 8.72896E-01-2.26296E-02-1.69319E-01
 -1       344-5.45257E+00-2.24851E+00-2.20476E+00 1.17548E+00-5.71833E-02 2.76999E-01
 -1       345-7.20809E+00-2.73816E+00-2.63392E+00-9.06263E-01-3.05615E-02-4.23341E-01
 -1       346 7.17367E+00 2.76878E+00 2.71135E+00-1.22721E+00-1.30157E-03 1.96388E-02
 -1       347-1.73744E+00-7.04824E-01-6.12195E-01 1.67900E-01 4.60889E-02 4.62543E-01
 -1       348 8.48988E+00 3.34494E+00 3.17760E+00 1.74626E+00-2.02888E-01-6.15455E-01
 -1       349 5.54665E+00 2.26163E+00 2.22224E+00 1.25216E+00 8.94641E-02 5.76039E-01
 -1       350 8.40145E+00 3.53070E+00 3.56238E+00 9.54466E-01 2.66700E-02-1.40891E+00
 -1       351-7.75303E+00-3.20409E+00-3.15636E+00-1.62031E+00 9.03934E-02 3.05657E-01
 -1       352-1.08342E+01-4.22571E+00-4.09593E+00-1.91261E+00-2.59422E-01-1.09629E+00
 -1       353-1.00415E+01-4.18751E+00-4.23665E+00-7.84044E-01 4.74312E-02-1.78484E+00
 -1       354 1.07535E+01 4.19659E+00 4.10668E+00-2.21780E+00 2.47075E-01-6.52895E-01
 -1       355 9.43253E+00 4.04300E+00 4.04355E+00-1.26481E+00 1.35715E-04-1.25945E+00
 -1       356 8.06500E+00 3.31303E+00 3.25326E+00-1.86522E+00-1.08078E-01 8.29132E-01
 -1       357-8.30992E+00-3.29043E+00-3.15473E+00 2.04129E+00 1.83210E-01-1.78265E-01
 -1       358-5.60562E+00-2.40307E+00-2.40272E+00 1.55990E+00 1.89830E-04 9.47332E-01
 -1       359-7.80313E+00-3.34450E+00-3.34501E+00 1.39636E+00 8.28103E-05-8.92335E-01
 -1       360-2.35932E+00-1.01098E+00-1.01109E+00-4.64978E-01 1.10317E-04 8.24705E-01
 -1       361-5.37618E+00-2.30390E+00-2.30403E+00-1.08410E+00 1.18267E-04 5.80649E-01
 -1       362-5.53480E+00-2.15712E+00-2.30322E+00-6.21401E-01-2.21281E-02 1.41127E-01
 -1       363 3.15001E+00 1.34998E+00 1.35002E+00 7.26999E-01 1.32614E-04 7.70876E-01
 -1       364 1.70278E-01-9.98950E-03 1.53408E-02-3.06715E-02 5.33272E-02 9.51629E-01
 -1       365-3.64277E-01-2.45405E-01-1.82920E-01-1.20093E-01 1.41997E-03 5.44227E-01
 -1       366 3.91955E+00 1.55045E+00 1.63534E+00 5.60846E-01-2.17198E-02 3.07553E-01
 -1       367 8.40825E+00 3.58057E+00 3.58117E+00 7.30466E-02 1.65668E-02-1.41471E+00
 -1       368 7.86127E+00 3.36925E+00 3.36935E+00 5.62859E-01 1.95962E-04-1.23300E+00
 -1       369 5.43584E+00 2.27574E+00 2.08978E+00 4.72982E-01 1.17473E-02-1.61709E-01
 -1       370 9.50509E+00 4.08753E+00 4.09755E+00-8.73797E-01-1.23229E-02-1.49433E+00
 -1       371 9.21934E+00 3.95144E+00 3.95182E+00-3.42463E-01 2.24139E-04-1.46487E+00
 -1       372 5.81209E+00 2.41178E+00 2.27623E+00-1.37478E-01 4.30248E-02-2.96370E-01
 -1       373 7.02994E+00 2.92884E+00 2.73212E+00-7.64935E-01-2.44957E-02-1.60277E-01
 -1       374-3.85679E+00-1.67110E+00-1.56473E+00 1.12501E+00-9.76810E-03 1.27301E+00
 -1       375-5.65356E-01-2.42394E-01-2.42360E-01 2.82229E-01 2.80086E-04 1.48723E+00
 -1       376-3.72031E+00-1.54052E+00-1.57962E+00 8.33936E-01-5.73137E-03 6.43406E-01
 -1       377 2.32514E+00 9.13867E-01 9.12905E-01-3.75067E-01-5.42696E-02 1.44878E+00
 -1       378 5.40011E+00 2.31486E+00 2.31452E+00-1.18715E+00 2.67915E-04 1.10446E+00
 -1       379 8.58564E-01 2.82786E-01 3.43553E-01 8.85634E-02 3.42520E-04 9.67031E-01
 -1       380 5.42374E+00 2.13809E+00 2.26158E+00-7.90652E-01 2.70241E-02 5.35958E-01
 -1       381-8.99441E+00-3.85479E+00-3.85495E+00-3.35914E-01 1.92475E-04-1.48864E+00
 -1       382-8.77206E+00-3.72733E+00-3.71590E+00 2.19591E-01 3.14115E-02-1.46976E+00
 -1       383-6.63204E+00-2.76894E+00-2.55460E+00-3.77532E-01 6.54884E-03-3.39101E-01
 -1       384-8.53919E+00-3.65981E+00-3.66022E+00 6.21863E-01 1.87901E-04-1.27435E+00
 -1       385-8.05584E+00-3.47534E+00-3.46943E+00 1.08966E+00-9.91777E-03-1.13974E+00
 -1       386-5.71510E+00-2.37618E+00-2.23079E+00 3.25439E-01 3.58984E-02-2.22200E-01
 -1       387-5.70240E+00-2.37691E+00-2.20258E+00 8.35389E-01-1.75222E-02 7.40580E-02
 -1       388-1.81002E+00-7.75723E-01-7.75780E-01 3.20672E-01 1.84413E-04 6.95884E-01
 -1       389 7.67117E-01 3.85156E-01 3.29748E-01 3.92416E-02-1.01074E-02 7.17328E-01
 -1       390 5.14696E+00 2.20605E+00 2.20603E+00-4.29618E-01 1.92930E-04 3.45907E-01
 -1       391 2.82647E+00 1.21150E+00 1.21147E+00-2.22355E-01 1.76675E-04 5.97835E-01
 -1       392 4.83353E+00 2.07166E+00 2.07166E+00-2.82800E-01 1.78436E-04 1.79113E-01
 -1       393 3.40002E-01 1.81132E-01 1.79629E-01-3.44058E-02 6.23830E-02 5.30259E-01
 -1       394 7.87532E-01 3.77277E-01 2.81818E-01 7.40271E-02 1.98895E-02 5.03383E-01
 -1       395-1.57407E+00-6.74553E-01-6.74613E-01-1.31099E-01 1.72930E-04 4.48558E-01
 -1       396 3.59123E+00 1.53915E+00 1.53913E+00 2.57425E-01 1.84521E-04 2.73876E-01
 -1       397 2.40182E+00 1.02942E+00 1.02940E+00 1.33237E-01 1.79578E-04 3.09485E-01
 -1       398-4.11073E+00-1.76179E+00-1.76187E+00 5.50143E-01 1.93178E-04 4.85839E-01
 -1       399-3.77718E+00-1.61879E+00-1.61887E+00 3.95910E-01 1.78467E-04 3.26599E-01
 -1       400-3.83345E+00-1.60136E+00-1.63277E+00 1.07796E-01-1.57023E-02 1.99172E-01
 -1       401-3.06837E+00-1.31496E+00-1.31503E+00-4.41270E-03 1.75293E-04 2.45357E-01
 -1       402-4.76987E+00-2.04415E+00-2.04422E+00-1.98856E-01 1.85294E-04 1.67038E-01
 -1       403 4.00602E+00 1.65079E+00 1.66208E+00 4.25764E-02-3.37611E-02 1.64971E-01
 -1       404 1.21752E+00 5.35823E-01 5.39284E-01 4.80017E-02-7.75030E-03 3.89978E-01
 -1       405-1.00528E+00-4.62864E-01-4.38046E-01 8.69662E-02-2.39787E-02 3.94689E-01
 -1       406 8.89600E-01 8.32428E-01 2.32377E-01-4.79003E-02 1.63287E+00-4.93962E-01
 -1       407 1.07256E+00 1.09726E+00 9.37864E-01-4.90139E-02 1.62066E+00-4.82131E-01
 -1       408 9.85325E-01 1.00347E+00 3.78915E-01-5.44438E-02 1.56538E+00-4.89700E-01
 -1       409 1.05327E+00 1.13728E+00 9.86418E-01-5.22628E-02 1.60170E+00-4.90542E-01
 -1       410 9.95937E-01 1.02083E+00 7.38350E-01-5.16727E-02 1.61065E+00-5.17471E-01
 -1       411 9.81566E-01 9.68697E-01 7.21319E-01-4.90981E-02 1.66556E+00-4.84363E-01
 -1       412 8.91478E-01 8.81853E-01 2.17716E-01-4.77151E-02 1.61852E+00-4.90889E-01
 -1       413 9.96041E-01 1.04714E+00 7.48853E-01-5.23245E-02 1.56603E+00-4.86717E-01
 -1       414 9.51322E-01 9.07516E-01 3.50345E-01-4.33634E-02 1.67538E+00-4.93616E-01
 -1       415 9.81604E-01 9.40849E-01 5.10661E-01-4.99566E-02 1.63545E+00-5.12404E-01
 -1       416 9.34673E-01 9.63572E-01 2.15016E-01-5.06421E-02 1.61642E+00-4.72899E-01
 -1       417 1.07207E+00 1.03123E+00 9.38512E-01-5.14280E-02 1.63486E+00-4.62486E-01
 -1       418 1.06807E+00 1.10025E+00 9.42752E-01-4.16188E-02 1.60997E+00-4.61266E-01
 -1       419 8.74588E-01 8.53148E-01 2.10523E-01-4.16457E-02 1.63273E+00-4.72663E-01
 -1       420 9.78680E-01 9.62825E-01 4.65178E-01-5.57999E-02 1.60061E+00-5.17268E-01
 -1       421 9.61490E-01 9.95028E-01 1.88238E-01-3.94330E-02 1.60544E+00-4.82505E-01
 -1       422 9.98418E-01 1.00746E+00 2.92653E-01-4.66696E-02 1.64076E+00-3.86819E-01
 -1       423 9.87998E-01 9.62593E-01 2.63190E-01-5.38315E-02 1.63647E+00-4.07557E-01
 -1       424 1.00250E+00 1.06057E+00 8.92258E-01-2.73212E-02 1.64543E+00-3.82633E-01
 -1       425 1.00862E+00 1.05867E+00 9.51725E-01-2.93501E-02 1.59509E+00-4.59317E-01
 -1       426 1.01639E+00 1.10326E+00 9.18613E-01-4.15766E-02 1.62312E+00-4.00159E-01
 -1       427 9.40730E-01 8.54480E-01 2.56997E-01-3.89412E-02 1.63037E+00-4.00646E-01
 -1       428 9.49603E-01 8.98286E-01 2.74879E-01-2.45664E-02 1.62376E+00-3.81506E-01
 -1       429 9.31675E-01 8.87799E-01 1.48363E-01-3.51349E-02 1.64812E+00-4.82902E-01
 -1       430 1.02693E+00 1.00166E+00 9.50607E-01-4.98874E-02 1.65585E+00-4.59273E-01
 -1       431 1.03844E+00 1.02071E+00 9.11780E-01-4.73456E-02 1.62488E+00-3.81615E-01
 -1       432 1.02699E+00 1.02949E+00 9.21700E-01-5.08371E-02 1.62441E+00-4.02519E-01
 -1       433 9.98199E-01 1.05384E+00 8.94115E-01-3.79503E-02 1.57577E+00-4.56538E-01
 -1       434 1.00633E+00 1.03074E+00 6.87238E-01-4.53854E-02 1.55823E+00-4.67693E-01
 -1       435 1.01661E+00 1.08898E+00 9.23326E-01-4.80777E-02 1.58864E+00-4.70644E-01
 -1       436 9.82718E-01 1.01789E+00 4.97407E-01-4.13152E-02 1.56085E+00-4.67946E-01
 -1       437 1.01022E+00 1.02413E+00 3.44661E-01-5.01032E-02 1.57726E+00-4.68470E-01
 -1       438 9.77599E-01 1.02985E+00 5.74075E-01-5.21451E-02 1.56184E+00-4.83465E-01
 -1       439 9.73532E-01 9.80345E-01 2.80786E-01-5.28177E-02 1.58771E+00-4.79644E-01
 -1       440 9.44335E-01 9.06682E-01 2.68868E-01-4.75224E-02 1.62991E+00-4.05733E-01
 -1       441 9.69059E-01 8.66750E-01 2.80212E-01-4.06490E-02 1.63263E+00-4.08923E-01
 -1       442 9.03402E-01 9.10338E-01 2.19125E-01-5.21765E-02 1.61120E+00-4.76024E-01
 -1       443 9.31845E-01 8.35337E-01 2.54102E-01-4.72430E-02 1.63234E+00-4.15054E-01
 -1       444 9.42872E-01 8.19670E-01 2.45746E-01-4.30176E-02 1.62873E+00-4.21484E-01
 -1       445 8.98185E-01 8.46960E-01 2.35929E-01-4.62806E-02 1.62955E+00-4.88893E-01
 -1       446 8.78647E-01 8.23303E-01 2.11792E-01-4.56404E-02 1.62582E+00-4.81169E-01
 -1       447 9.98318E-01 9.54274E-01 6.57261E-01-3.56557E-02 1.67945E+00-4.67346E-01
 -1       448 1.00640E+00 9.88279E-01 8.75944E-01-4.64372E-02 1.66774E+00-4.54894E-01
 -1       449 1.00948E+00 1.01211E+00 9.06904E-01-5.15619E-02 1.64881E+00-4.71408E-01
 -1       450 9.81543E-01 9.31275E-01 3.14241E-01-2.61698E-02 1.66972E+00-4.70100E-01
 -1       451 9.70726E-01 9.36997E-01 4.66765E-01-3.68866E-02 1.67942E+00-4.71687E-01
 -1       452 9.55497E-01 9.43429E-01 5.43612E-01-4.75198E-02 1.67119E+00-4.81997E-01
 -1       453 9.24935E-01 8.69092E-01 2.31516E-01-3.92270E-02 1.66005E+00-4.88333E-01
 -1       454 1.00188E+00 1.13023E+00 9.30476E-01-5.39149E-02 1.61635E+00-4.09796E-01
 -1       455 1.00355E+00 1.13665E+00 9.39826E-01-4.65233E-02 1.61520E+00-4.13804E-01
 -1       456 1.05856E+00 1.12665E+00 9.68443E-01-5.31830E-02 1.61017E+00-4.78620E-01
 -1       457 1.01874E+00 1.07326E+00 9.25668E-01-4.75528E-02 1.61916E+00-4.14828E-01
 -1       458 1.02575E+00 1.10571E+00 9.21676E-01-4.79585E-02 1.61844E+00-4.02776E-01
 -1       459 1.05459E+00 1.11849E+00 9.45720E-01-4.58781E-02 1.60750E+00-4.80871E-01
 -1       460 1.08176E+00 1.06176E+00 9.53624E-01-4.85278E-02 1.62506E+00-4.77513E-01
 -1       461 9.50428E-01 9.13275E-01 2.93039E-01-5.62932E-02 1.60282E+00-5.00821E-01
 -1       462 9.38235E-01 8.90744E-01 3.12769E-01-5.15968E-02 1.62281E+00-5.04674E-01
 -1       463 9.41710E-01 8.80281E-01 3.34296E-01-4.57941E-02 1.64375E+00-5.02837E-01
 -1       464 9.61800E-01 9.12449E-01 4.30152E-01-4.32642E-02 1.66018E+00-5.06556E-01
 -1       465 9.33092E-01 8.61290E-01 2.52343E-01-5.04439E-02 1.64707E+00-5.01706E-01
 -1       466 9.67599E-01 9.47445E-01 4.56800E-01-5.42354E-02 1.61949E+00-5.25347E-01
 -1       467 1.02695E+00 1.06784E+00 8.67834E-01-5.19435E-02 1.61901E+00-5.02148E-01
 -1       468 1.01649E+00 1.08265E+00 8.71091E-01-4.84261E-02 1.59654E+00-4.92214E-01
 -1       469 1.01926E+00 1.03369E+00 8.89897E-01-4.60208E-02 1.64315E+00-4.89494E-01
 -1       470 1.00417E+00 1.00833E+00 7.53330E-01-4.78892E-02 1.64231E+00-5.13739E-01
 -1       471 9.56422E-01 9.50096E-01 2.61272E-01-4.87088E-02 1.59428E+00-4.95018E-01
 -1       472 9.69924E-01 9.76412E-01 4.15199E-01-5.88003E-02 1.57900E+00-5.10538E-01
 -1       473 9.85196E-01 1.01140E+00 5.99677E-01-5.20218E-02 1.57439E+00-5.00705E-01
 -1       474 1.00879E+00 1.05485E+00 7.56306E-01-5.54830E-02 1.58177E+00-5.11907E-01
 -1       475 1.01886E+00 1.09866E+00 9.06252E-01-5.89950E-02 1.58689E+00-4.89232E-01
 -1       476 9.77583E-01 9.48987E-01 5.94660E-01-5.13049E-02 1.65570E+00-4.97623E-01
 -1       477 9.83216E-01 9.76808E-01 6.21699E-01-5.56217E-02 1.62356E+00-5.13801E-01
 -1       478 9.91973E-01 9.97573E-01 6.06699E-01-4.89346E-02 1.60666E+00-5.16489E-01
 -1       479-2.37585E+00 8.01309E-01 4.83865E-01-6.86415E-02 1.32215E+00-5.42434E-01
 -1       480-1.10668E+00 9.13327E-01 5.46471E-01-4.58393E-02 1.50357E+00-5.48785E-01
 -1       481 1.46136E+00 9.90168E-01 5.95058E-01-6.13620E-05 1.60458E+00-5.63218E-01
 -1       482-3.57830E+00 6.57531E-01 3.98215E-01-7.80729E-02 1.07339E+00-5.14341E-01
 -1       483 2.98057E+00 7.40839E-01 4.39455E-01 2.07499E-02 1.20612E+00-5.30697E-01
 -1       484 2.44496E+00 8.66568E-01 5.22214E-01 8.73179E-03 1.41903E+00-5.48810E-01
 -1       485 1.79836E+00 9.70658E-01 5.77977E-01 3.96898E-03 1.56846E+00-5.74157E-01
 -1       486 3.40609E+00 5.78126E-01 3.32042E-01 2.80435E-02 9.36920E-01-5.04814E-01
 -1       487-6.52793E+00 8.74127E-02 8.40521E-02-5.86367E-02 1.40972E-01-3.95362E-01
 -1       488-6.26437E+00 1.51425E-01 1.12749E-01-7.02527E-02 2.44116E-01-4.21084E-01
 -1       489 4.04171E+00 2.98911E-02-1.39340E-02 1.10251E-02 6.50508E-02-3.68374E-01
 -1       490-5.57917E+00 3.04172E-01 2.00070E-01-8.18050E-02 5.01379E-01-4.48208E-01
 -1       491-4.91189E+00 4.33529E-01 2.79911E-01-9.09380E-02 7.17986E-01-4.72141E-01
 -1       492-5.94825E+00 2.26024E-01 1.53834E-01-7.17356E-02 3.64231E-01-4.31333E-01
 -1       493 3.73147E+00-7.43940E-02-1.80196E-01-7.58642E-02 7.80565E-02-9.95257E-02
 -1       494-6.60153E+00 3.98091E-02 7.56411E-02-1.15898E-02 4.87959E-02-2.94385E-01
 -1       495 5.39434E-01 9.72571E-01 5.64831E-01-1.83824E-02 1.61660E+00-5.49287E-01
 -1       496-4.40666E+00 5.30052E-01 3.25796E-01-8.03377E-02 8.64166E-01-4.77487E-01
 -1       497-1.47155E-01 9.65132E-01 5.76469E-01-3.19735E-02 1.58569E+00-5.50233E-01
 -1       498 4.03631E+00 1.10691E-01 4.36078E-02 2.91843E-02 1.88992E-01-4.11548E-01
 -1       499 3.79151E+00 3.43439E-01 1.91530E-01 1.90645E-02 5.68412E-01-4.55310E-01
 -1       500 3.64844E+00 4.84092E-01 2.79242E-01 2.80844E-02 7.91607E-01-4.83602E-01
 -1       501 3.97533E+00 1.75430E-01 8.49901E-02 1.18459E-02 2.98728E-01-4.22953E-01
 -1       502 3.88495E+00 2.70084E-01 1.35942E-01 3.67993E-02 4.30947E-01-4.55753E-01
 -1       503-3.91629E+00 3.21962E-01-9.00900E-02-1.57066E-02 1.15540E-01 1.12455E-01
 -1       504 9.81949E-01 9.85180E-01 5.92559E-01-8.70040E-03 1.62017E+00-6.61359E-01
 -1       505 2.73871E+00 8.10916E-01 4.90226E-01 2.44720E-02 1.32173E+00-5.52347E-01
 -1       506 2.13251E+00 9.29623E-01 5.55767E-01 7.23036E-03 1.50520E+00-5.63200E-01
 -1       507 3.22578E+00 6.58794E-01 3.94256E-01 3.25900E-02 1.07502E+00-5.22751E-01
 -1       508-2.98702E+00 7.38180E-01 4.46630E-01-7.05615E-02 1.20356E+00-5.19000E-01
 -1       509-1.74221E+00 8.58598E-01 5.19247E-01-5.92860E-02 1.42358E+00-5.54988E-01
 -1       510 3.95925E+00 8.37033E-03-5.91465E-02 4.88190E-05 4.74840E-02-2.91021E-01
 -1       511-6.65333E+00 4.30621E-02 5.83558E-02-2.06476E-02 7.06835E-02-3.49472E-01
 -1       512-6.64421E+00 7.20274E-02 6.58900E-02-5.06635E-02 9.61070E-02-3.90865E-01
 -1       513-1.23279E+00 6.96936E-02 4.27122E-02-1.13986E-02 1.22145E-01-4.66047E-01
 -1       514 1.73597E-01 9.70028E-01 5.73484E-01-2.85173E-02 1.60423E+00-5.59237E-01
 -1       515-2.06805E+00 8.32964E-01 5.00849E-01-6.12537E-02 1.37329E+00-5.39549E-01
 -1       516 2.58141E+00 8.53416E-01 5.03923E-01 1.52805E-02 1.37521E+00-5.55597E-01
 -1       517 3.51634E+00 5.38142E-01 3.06839E-01 3.82113E-02 8.65135E-01-4.98544E-01
 -1       518-4.14652E+00 5.68464E-01 3.48595E-01-8.54174E-02 9.37515E-01-5.00464E-01
 -1       519 3.09164E+00 7.09760E-01 4.20391E-01 1.67254E-02 1.14428E+00-5.24219E-01
 -1       520-3.28213E+00 6.91616E-01 4.25936E-01-7.72159E-02 1.14514E+00-5.15270E-01
 -1       521-6.10622E+00 1.82215E-01 1.31999E-01-5.55107E-02 3.05632E-01-4.18044E-01
 -1       522-5.35804E+00 3.45145E-01 2.25079E-01-7.18208E-02 5.75671E-01-4.48532E-01
 -1       523-5.17152E+00 3.98621E-01 2.49843E-01-8.14459E-02 6.44122E-01-4.61455E-01
 -1       524-6.16233E-01 4.16005E-01 2.47873E-01-2.62890E-02 6.80416E-01-5.55638E-01
 -1       525 3.84100E+00 3.09454E-01 1.64269E-01 2.89167E-02 5.01027E-01-4.55685E-01
 -1       526 2.28934E+00 9.03453E-01 5.44240E-01 1.61689E-02 1.46575E+00-5.65946E-01
 -1       527-1.42469E+00 8.86330E-01 5.36592E-01-5.20409E-02 1.46540E+00-5.51726E-01
 -1       528-4.70124E+00 4.80935E-01 3.04151E-01-8.25930E-02 7.91953E-01-4.75731E-01
 -1       529 1.64183E+00 9.73857E-01 5.84796E-01-5.37793E-04 1.58847E+00-5.63266E-01
 -1       530-4.60008E-01 9.42255E-01 5.69443E-01-3.70327E-02 1.56817E+00-5.62841E-01
 -1       531 3.93520E+00 2.23491E-01 1.14305E-01 3.64900E-02 3.64434E-01-4.36850E-01
 -1       532 3.99736E+00 1.53208E-01 6.07961E-02 3.00607E-02 2.42562E-01-4.29008E-01
 -1       533-7.89441E-01 9.31827E-01 5.55253E-01-4.30209E-02 1.53561E+00-5.55208E-01
 -1       534-6.40830E+00 1.26775E-01 9.72268E-02-4.81960E-02 1.89032E-01-3.98119E-01
 -1       535 1.98752E+00 9.41558E-01 5.64351E-01 2.69307E-03 1.53478E+00-5.58978E-01
 -1       536-3.85605E+00 6.07930E-01 3.73603E-01-7.63109E-02 1.00983E+00-4.98131E-01
 -1       537-5.77790E+00 2.66739E-01 1.75247E-01-8.61853E-02 4.32454E-01-4.41372E-01
 -1       538 3.30892E+00 6.21537E-01 3.64650E-01 2.63445E-02 1.00771E+00-5.09683E-01
 -1       539-2.67192E+00 7.66902E-01 4.64186E-01-7.08040E-02 1.26626E+00-5.31155E-01
 -1       540 2.85599E+00 7.78179E-01 4.65710E-01 2.03110E-02 1.26510E+00-5.41494E-01
 -1       541-1.38138E+00 2.03117E-02-2.03466E-02-5.18437E-03 1.16039E-01-2.83573E-01
 -1       542-1.32076E+00 2.89180E-02 1.21112E-02-1.28302E-02 6.68630E-02-4.08997E-01
 -1       543 4.13419E+00 8.99958E-02 2.18187E-02 2.94882E-02 1.39761E-01-4.09533E-01
 -1       544 1.35627E+00-3.04254E-01-3.32253E-01-6.17392E-02 1.06871E-01 1.70912E-01
 -1       545 3.81199E+00 3.98667E-01 2.24036E-01 3.38047E-02 6.44322E-01-4.66715E-01
 -1       546-5.49032E-01 4.62527E-01 2.76668E-01-2.58699E-02 7.54503E-01-5.65732E-01
 -1       547 8.56904E-01 9.82247E-01 5.89193E-01-1.56348E-02 1.60817E+00-6.62663E-01
 -1       548 4.15984E+00 4.85666E-02 4.49229E-03 1.08612E-02 9.53682E-02-3.81856E-01
 -1       549 7.88124E-01 9.77140E-01 5.87006E-01-1.72350E-02 1.59428E+00-6.62089E-01
 -1       550-1.20071E+00 9.99782E-02 6.01993E-02-1.77365E-02 1.66857E-01-4.78152E-01
 -1       551 4.82581E-01 9.05729E-01 5.44337E-01-2.08578E-02 1.48530E+00-6.58572E-01
 -1       552 3.76095E-01 8.80896E-01 5.31247E-01-2.41401E-02 1.44169E+00-6.51782E-01
 -1       553 4.05626E-02 7.57938E-01 4.53546E-01-2.66452E-02 1.23538E+00-6.25888E-01
 -1       554 5.58658E-01 9.28008E-01 5.55200E-01-2.21905E-02 1.51550E+00-6.65287E-01
 -1       555-2.34109E-01 6.39049E-01 3.79790E-01-2.93894E-02 1.04001E+00-6.01971E-01
 -1       556 1.23819E-01 7.91056E-01 4.72533E-01-2.62031E-02 1.29137E+00-6.38237E-01
 -1       557-4.63843E-02 7.14462E-01 4.33469E-01-2.81273E-02 1.17548E+00-6.19527E-01
 -1       558-1.33980E-01 6.80754E-01 4.05039E-01-2.70817E-02 1.10818E+00-6.07349E-01
 -1       559 7.12919E-01 9.61245E-01 5.79524E-01-1.83580E-02 1.57700E+00-6.65832E-01
 -1       560 6.30214E-01 9.44530E-01 5.70087E-01-1.84638E-02 1.54911E+00-6.61386E-01
 -1       561 3.00450E-01 8.54699E-01 5.05189E-01-2.27931E-02 1.39380E+00-6.53989E-01
 -1       562-3.19149E-01 5.92829E-01 3.54855E-01-2.85893E-02 9.72963E-01-5.88637E-01
 -1       563-4.76923E-01 5.04993E-01 3.08744E-01-2.67039E-02 8.25915E-01-5.76203E-01
 -1       564-1.14953E+00 1.34279E-01 7.85777E-02-1.93288E-02 2.19255E-01-4.87605E-01
 -1       565-1.10585E+00 1.66409E-01 9.73781E-02-2.38021E-02 2.75710E-01-4.97885E-01
 -1       566-9.66125E-01 2.43113E-01 1.46133E-01-2.28170E-02 3.97870E-01-5.19351E-01
 -1       567-8.96044E-01 2.84602E-01 1.69831E-01-2.52039E-02 4.66373E-01-5.27506E-01
 -1       568-1.04745E+00 2.02252E-01 1.18606E-01-1.94829E-02 3.36768E-01-5.09574E-01
 -1       569-8.32819E-01 3.27873E-01 1.94534E-01-2.80246E-02 5.38657E-01-5.34037E-01
 -1       570 2.20093E-01 8.23852E-01 4.92499E-01-2.43447E-02 1.34776E+00-6.45772E-01
 -1       571-4.01010E-01 5.53287E-01 3.28715E-01-3.01245E-02 9.00735E-01-5.77814E-01
 -1       572-7.57161E-01 3.71151E-01 2.19372E-01-2.52395E-02 6.09752E-01-5.45725E-01
 -1       573 3.75452E+00 4.42888E-01 2.50789E-01 3.73391E-02 7.17101E-01-4.80762E-01
 -1       574-1.29313E+00 5.18113E-02 2.64858E-02-1.30297E-02 8.73414E-02-4.46623E-01
 -1       575 8.71650E-01 9.63622E-01 5.53552E-01-4.45673E-03 1.61997E+00-6.49067E-01
 -1       576-6.40771E+00 9.10463E-02 1.41051E-01 7.13869E-02 8.69231E-02-1.30071E-01
 -1       577 1.22760E+00 1.00022E+00 6.20985E-01-2.63077E-03 1.61814E+00-5.50710E-01
 -1       578-1.29683E+00 1.60305E-02-8.47082E-02 8.08420E-04 1.38783E-01-1.31123E-01
 -1       579 5.57627E+00-4.74286E-01-3.73185E-01-1.59764E-02 8.23008E-02 2.14524E-01
 -1       580-8.20477E+00 6.33818E-01 2.42206E-01 3.37769E-02 1.02392E-01 3.86606E-02
 -1       581 7.77325E-01 9.65290E-01 5.52498E-01-7.44347E-03 1.63256E+00-4.32387E-01
 -1       582 1.07982E+00 1.00330E+00 6.33739E-01-8.84265E-03 1.63226E+00-4.49974E-01
 -1       583 8.98011E-01 9.92005E-01 5.92444E-01-1.02279E-02 1.61408E+00-6.90417E-01
 -1       584 5.02418E+00-2.93969E-02 4.29966E-01 6.28313E-01 1.01077E-01 6.32414E-01
 -1       585 8.48522E+00 1.06110E+00 1.03769E+00 1.14633E+00-1.52633E-01-2.16063E-01
 -1       586 7.11071E+00-2.49886E-01-3.22235E-01-1.04413E-01 7.61419E-02 2.84654E-01
 -1       587-1.13290E+01-1.30564E+00-1.51265E+00-1.29512E+00-2.27407E-01-6.20568E-01
 -1       588-7.69536E+00-1.97082E-01-1.01636E+00-8.84048E-01 9.48730E-02 3.80963E-01
 -1       589-9.61371E+00 3.15135E-01 3.26185E-01 1.51283E-01 1.05455E-01 2.09299E-01
 -1       590 1.08943E+00 1.03065E+00 5.85413E-01-1.78055E-02 1.64471E+00-3.47717E-01
 -1       591 1.00467E+00 1.01980E+00 4.72068E-01-4.74537E-03 1.63802E+00-4.93625E-01
 -1       592 1.29269E+00 1.00001E+00 6.32978E-01-9.57091E-03 1.62488E+00-2.86288E-01
 -1       593 8.92176E-01 9.61665E-01 6.89741E-01-2.32194E-02 1.63582E+00-4.89642E-01
 -1       594 8.15252E-01 9.57402E-01 6.03332E-01-1.18624E-02 1.64684E+00-3.45039E-01
 -1       595 5.45615E-01 9.76870E-01 5.56188E-01-6.92891E-03 1.62523E+00-2.80610E-01
 -1       596-5.72343E+00-8.33838E-01-1.41190E+00-8.34076E-01 1.74819E-01 4.89210E-01
 -1       597-2.78493E+00-2.75995E-01-3.85681E-01-2.81059E-01 8.92468E-02 6.95928E-01
 -1       598-6.16502E+00 6.69343E-01-5.96521E-02 6.22859E-02 5.18626E-02 1.38414E-01
 -1       599-7.69099E-02-4.22719E-01-3.74754E-01-1.44548E-01 1.39224E-01 7.72314E-01
 -1       600 3.07992E+00 5.23892E-01 6.79615E-01 5.59275E-01 1.45605E-01 6.23916E-01
 -1       601-1.24555E+00-4.46743E-02-1.45894E-01-6.83683E-02 1.00853E-01 2.12851E-01
 -1       602 3.58185E+00-4.60312E-01-2.23196E-01-5.41512E-02 1.27175E-02 2.37368E-01
 -1       603 9.28614E-01 9.75987E-01 5.81804E-01-1.23350E-02 1.61490E+00-5.88354E-01
 -1       604 9.02644E-01 9.63713E-01 6.89765E-01-1.32527E-02 1.61965E+00-5.64249E-01
 -1       605 8.30687E-01 9.77163E-01 5.78249E-01-6.25245E-03 1.63107E+00-5.55742E-01
 -1       606 9.96218E-01 1.00849E+00 4.94172E-01-1.59327E-02 1.62526E+00-5.69045E-01
 -1       607 9.59728E-01 9.99656E-01 5.95363E-01-1.25055E-02 1.61899E+00-5.91443E-01
 -1       608 9.36724E-01 9.83278E-01 5.93796E-01-1.23967E-02 1.62560E+00-6.69974E-01
 -1       609 1.02228E+00 9.85448E-01 5.98020E-01-1.16330E-02 1.62373E+00-5.71461E-01
 -1       610-9.16238E+00 1.10715E-01 1.33134E-01 6.61953E-02 5.55099E-02-9.81608E-02
 -1       611-8.91111E+00 3.34730E-02 8.21731E-02 1.07090E-02-1.49130E-02-4.86722E-03
 -1       612-7.13978E+00 4.31557E-02 1.48846E-01 5.91689E-02 7.90801E-02 4.20950E-02
 -1       613-9.41849E+00 5.00041E-02 6.69445E-02-1.98038E-02 4.47934E-02-2.22588E-01
 -1       614-9.33939E+00 4.59803E-02 6.50763E-02-6.73438E-03 2.23052E-02-1.88230E-01
 -1       615-6.50745E+00 4.83536E-02 7.53364E-02 1.57928E-02 5.21972E-02-2.26847E-01
 -1       616-9.39894E+00 5.67328E-02 6.18005E-02-1.06370E-02 6.95870E-02-2.47439E-01
 -1       617-9.45618E+00 4.31424E-02 5.05537E-02-3.41734E-02 5.31634E-02-2.44978E-01
 -1       618-6.66342E+00 3.21725E-02 5.73795E-02-2.43915E-02 5.82600E-02-3.33300E-01
 -1       619-9.34249E+00 8.82004E-02 7.75733E-02-4.95926E-02 1.00761E-01-2.65054E-01
 -1       620-9.41593E+00 7.30529E-02 5.91217E-02-1.93810E-02 8.25134E-02-2.59150E-01
 -1       621-6.62890E+00 6.92871E-02 6.94025E-02-2.02827E-02 8.11921E-02-3.82682E-01
 -1       622-9.21032E+00 1.04128E-01 8.97019E-02-3.98494E-02 1.46234E-01-2.72302E-01
 -1       623-9.31004E+00 8.35620E-02 7.58647E-02-5.70319E-02 1.27900E-01-2.68436E-01
 -1       624-6.58526E+00 8.16281E-02 7.64216E-02-5.97615E-02 1.17811E-01-3.94576E-01
 -1       625-9.04084E+00 1.40655E-01 1.04954E-01-7.15255E-02 1.98324E-01-2.81016E-01
 -1       626-9.17080E+00 1.23056E-01 8.70405E-02-4.11671E-02 1.72150E-01-2.75925E-01
 -1       627-6.49126E+00 1.03905E-01 9.01580E-02-3.85169E-02 1.61580E-01-4.09626E-01
 -1       628-8.87432E+00 1.65390E-01 1.16874E-01-7.90882E-02 2.56297E-01-2.91657E-01
 -1       629-8.98061E+00 1.46018E-01 1.06082E-01-7.44791E-02 2.26644E-01-2.90877E-01
 -1       630-6.32373E+00 1.40064E-01 1.06858E-01-6.26659E-02 2.17391E-01-4.12020E-01
 -1       631-8.65483E+00 1.98252E-01 1.43798E-01-6.34443E-02 3.15252E-01-2.95479E-01
 -1       632-8.81540E+00 1.70884E-01 1.19179E-01-7.87699E-02 2.87882E-01-2.93279E-01
 -1       633-6.20108E+00 1.64914E-01 1.15854E-01-6.69063E-02 2.75184E-01-4.22521E-01
 -1       634-8.43425E+00 2.40967E-01 1.62802E-01-7.66041E-02 3.76312E-01-2.97172E-01
 -1       635-8.59359E+00 2.19024E-01 1.40818E-01-6.73293E-02 3.47816E-01-2.95747E-01
 -1       636-6.00825E+00 2.13806E-01 1.51790E-01-5.60246E-02 3.34771E-01-4.33852E-01
 -1       637-8.19933E+00 2.81469E-01 1.82256E-01-9.56706E-02 4.47264E-01-3.02325E-01
 -1       638-8.35912E+00 2.58124E-01 1.66457E-01-8.00535E-02 4.12992E-01-3.01479E-01
 -1       639-5.85558E+00 2.49007E-01 1.68060E-01-7.15624E-02 3.98722E-01-4.46809E-01
 -1       640-7.94160E+00 3.17883E-01 2.05481E-01-9.97307E-02 5.19242E-01-3.13759E-01
 -1       641-8.10057E+00 2.96609E-01 1.94790E-01-1.00516E-01 4.83165E-01-3.12904E-01
 -1       642-5.67972E+00 2.85897E-01 1.84254E-01-8.76776E-02 4.65963E-01-4.46199E-01
 -1       643-7.64323E+00 3.57938E-01 2.35612E-01-8.65659E-02 5.90167E-01-3.18162E-01
 -1       644-7.84459E+00 3.30758E-01 2.12115E-01-9.91007E-02 5.56629E-01-3.15208E-01
 -1       645-5.47713E+00 3.25993E-01 2.06270E-01-8.05023E-02 5.37620E-01-4.52141E-01
 -1       646-7.35861E+00 4.13453E-01 2.57911E-01-1.04853E-01 6.59652E-01-3.23376E-01
 -1       647-7.55528E+00 3.87641E-01 2.36788E-01-8.81170E-02 6.27426E-01-3.22342E-01
 -1       648-5.25763E+00 3.74120E-01 2.41795E-01-6.90321E-02 6.10479E-01-4.62595E-01
 -1       649-7.03802E+00 4.49732E-01 2.82781E-01-9.76520E-02 7.34856E-01-3.28696E-01
 -1       650-7.23740E+00 4.23170E-01 2.69783E-01-1.04287E-01 7.00885E-01-3.22753E-01
 -1       651-5.04086E+00 4.14727E-01 2.68427E-01-8.87985E-02 6.82281E-01-4.66655E-01
 -1       652-6.71621E+00 4.94243E-01 3.10152E-01-9.42969E-02 8.05622E-01-3.34277E-01
 -1       653-6.93310E+00 4.72076E-01 2.92382E-01-9.63533E-02 7.75393E-01-3.28581E-01
 -1       654-4.81412E+00 4.60187E-01 2.91481E-01-8.26152E-02 7.52032E-01-4.81519E-01
 -1       655-6.34087E+00 5.41795E-01 3.29133E-01-1.07676E-01 8.84049E-01-3.36317E-01
 -1       656-6.56996E+00 5.23078E-01 3.13651E-01-9.55012E-02 8.45048E-01-3.36547E-01
 -1       657-4.55837E+00 5.07045E-01 3.14495E-01-7.61321E-02 8.23080E-01-4.85050E-01
 -1       658-5.99289E+00 5.79341E-01 3.51917E-01-1.03684E-01 9.56942E-01-3.48477E-01
 -1       659-6.20873E+00 5.56619E-01 3.40702E-01-1.04619E-01 9.21003E-01-3.47597E-01
 -1       660-4.26785E+00 5.50667E-01 3.43199E-01-8.56152E-02 9.03539E-01-4.89996E-01
 -1       661-5.60260E+00 6.15864E-01 3.84526E-01-9.36858E-02 1.02728E+00-3.53670E-01
 -1       662-5.85461E+00 5.92926E-01 3.63997E-01-1.02996E-01 9.94975E-01-3.48833E-01
 -1       663-4.00535E+00 5.91467E-01 3.55631E-01-8.35793E-02 9.72095E-01-5.00546E-01
 -1       664-5.21544E+00 6.71021E-01 4.07298E-01-9.74665E-02 1.09081E+00-3.57279E-01
 -1       665-5.45455E+00 6.45638E-01 3.88338E-01-9.26055E-02 1.06259E+00-3.59721E-01
 -1       666-3.71270E+00 6.31866E-01 3.88682E-01-7.21989E-02 1.04472E+00-5.10932E-01
 -1       667-4.82105E+00 7.01290E-01 4.26257E-01-8.88113E-02 1.15720E+00-3.65378E-01
 -1       668-5.07026E+00 6.77659E-01 4.15767E-01-9.92147E-02 1.13000E+00-3.57932E-01
 -1       669-3.43150E+00 6.73998E-01 4.14019E-01-8.02710E-02 1.10845E+00-5.14946E-01
 -1       670-4.40009E+00 7.47656E-01 4.50711E-01-9.24418E-02 1.22027E+00-3.66006E-01
 -1       671-4.66478E+00 7.30345E-01 4.32195E-01-8.71345E-02 1.19041E+00-3.67016E-01
 -1       672-3.14144E+00 7.19361E-01 4.34883E-01-6.83436E-02 1.16812E+00-5.23533E-01
 -1       673-3.98866E+00 7.70763E-01 4.65878E-01-8.28481E-02 1.28395E+00-3.72128E-01
 -1       674-4.25135E+00 7.55718E-01 4.58531E-01-8.71453E-02 1.25374E+00-3.68731E-01
 -1       675-2.82916E+00 7.46809E-01 4.61396E-01-7.32522E-02 1.23713E+00-5.28344E-01
 -1       676-3.57028E+00 8.09883E-01 4.86611E-01-7.71465E-02 1.33532E+00-3.76539E-01
 -1       677-3.83142E+00 7.87842E-01 4.73841E-01-7.93216E-02 1.31364E+00-3.74671E-01
 -1       678-2.52586E+00 7.85556E-01 4.75363E-01-6.77606E-02 1.29655E+00-5.40946E-01
 -1       679-3.13390E+00 8.39809E-01 5.01203E-01-7.67908E-02 1.38924E+00-3.77425E-01
 -1       680-3.40636E+00 8.29408E-01 4.94658E-01-7.50375E-02 1.36406E+00-3.77504E-01
 -1       681-2.22138E+00 8.17630E-01 4.91391E-01-6.47769E-02 1.34433E+00-5.46687E-01
 -1       682-2.70527E+00 8.63335E-01 5.19755E-01-6.51113E-02 1.43473E+00-3.86480E-01
 -1       683-2.97114E+00 8.45501E-01 5.09208E-01-7.06795E-02 1.41808E+00-3.81130E-01
 -1       684-1.90644E+00 8.45315E-01 5.12502E-01-6.19069E-02 1.40050E+00-5.46435E-01
 -1       685-2.25496E+00 8.90792E-01 5.36360E-01-5.67506E-02 1.47541E+00-3.85884E-01
 -1       686-2.53516E+00 8.79730E-01 5.25940E-01-6.32635E-02 1.46000E+00-3.82910E-01
 -1       687-1.58286E+00 8.76408E-01 5.28245E-01-5.39989E-02 1.44216E+00-5.56339E-01
 -1       688-1.80502E+00 9.12381E-01 5.49135E-01-5.07173E-02 1.51612E+00-3.82388E-01
 -1       689-2.09184E+00 9.04905E-01 5.35824E-01-5.47175E-02 1.49887E+00-3.83994E-01
 -1       690-1.26562E+00 9.00181E-01 5.40362E-01-4.73738E-02 1.48024E+00-5.57481E-01
 -1       691-1.35964E+00 9.35195E-01 5.53895E-01-5.18603E-02 1.54763E+00-3.83100E-01
 -1       692-1.63928E+00 9.24472E-01 5.50533E-01-4.84529E-02 1.53465E+00-3.86817E-01
 -1       693-9.42777E-01 9.22148E-01 5.54233E-01-4.24462E-02 1.52326E+00-5.59821E-01
 -1       694-9.21610E-01 9.43419E-01 5.67639E-01-3.67229E-02 1.57195E+00-3.89674E-01
 -1       695-1.19456E+00 9.31286E-01 5.59340E-01-4.42636E-02 1.56805E+00-3.84386E-01
 -1       696-6.24470E-01 9.37504E-01 5.65723E-01-4.23164E-02 1.55399E+00-5.57806E-01
 -1       697-4.56298E-01 9.63328E-01 5.70236E-01-3.73071E-02 1.59636E+00-3.77330E-01
 -1       698-7.45606E-01 9.63810E-01 5.67184E-01-3.63353E-02 1.58497E+00-3.82560E-01
 -1       699-2.99392E-01 9.59440E-01 5.72298E-01-3.11646E-02 1.57189E+00-5.60680E-01
 -1       700-1.72356E-02 9.67891E-01 5.71884E-01-2.53656E-02 1.61267E+00-3.75409E-01
 -1       701-2.90269E-01 9.62128E-01 5.71768E-01-2.94455E-02 1.60683E+00-3.82176E-01
 -1       702 2.16652E-02 9.68977E-01 5.84162E-01-3.31781E-02 1.59842E+00-5.57328E-01
 -1       703 4.31287E-01 9.71099E-01 5.73552E-01-2.00375E-02 1.62324E+00-3.63595E-01
 -1       704 1.78794E-01 9.69517E-01 5.74288E-01-2.33451E-02 1.62013E+00-3.73727E-01
 -1       705 3.57825E-01 9.77516E-01 5.67138E-01-2.49099E-02 1.60801E+00-5.52997E-01
 -1       706 6.38356E-01 9.67598E-01 5.63278E-01-9.20566E-03 1.62403E+00-4.84466E-01
 -1       707 6.28049E+00-3.90687E-02-1.30752E-01-4.51438E-03-1.59589E-03 4.30789E-02
 -1       708 6.50798E+00-8.98232E-02-1.36873E-01-7.36476E-02 4.98866E-02-8.35191E-02
 -1       709 4.50937E+00-3.10211E-02-2.45565E-01-6.43610E-02 7.05815E-02 1.34890E-01
 -1       710 6.72399E+00-3.16602E-03-4.02275E-02-7.80030E-03 2.51126E-02-1.76736E-01
 -1       711 6.77816E+00 6.10384E-03-4.07614E-02-2.82517E-02 4.42220E-02-2.12801E-01
 -1       712 3.85388E+00-1.45730E-02-7.80950E-02-1.35923E-02 4.04809E-02-2.18271E-01
 -1       713 6.84061E+00 2.21813E-02-1.21669E-02-1.82356E-02 5.07132E-02-2.37905E-01
 -1       714 6.81809E+00 2.76019E-02-1.43695E-02-1.10129E-02 6.59615E-02-2.53130E-01
 -1       715 4.02826E+00 2.29826E-02-3.62577E-02-5.18150E-03 5.47637E-02-3.51896E-01
 -1       716 6.91473E+00 4.36774E-02 1.19662E-02-8.74101E-03 8.22365E-02-2.61464E-01
 -1       717 6.84859E+00 4.83445E-02 6.69385E-03 2.49427E-02 1.02231E-01-2.69994E-01
 -1       718 4.11731E+00 4.36844E-02-2.98113E-03-2.29170E-03 7.84107E-02-3.91594E-01
 -1       719 6.86856E+00 8.20252E-02 2.82313E-02 2.36856E-02 1.27705E-01-2.76213E-01
 -1       720 6.81332E+00 8.55200E-02 2.69190E-02 1.04183E-02 1.45807E-01-2.79525E-01
 -1       721 4.14212E+00 7.05882E-02 1.45587E-02 2.88665E-02 1.19522E-01-3.97534E-01
 -1       722 6.77319E+00 9.61977E-02 4.33515E-02 1.31010E-02 1.71933E-01-2.81872E-01
 -1       723 6.70689E+00 1.11995E-01 4.73934E-02 3.59746E-02 1.98816E-01-2.87683E-01
 -1       724 4.08942E+00 9.99239E-02 3.04102E-02 1.51222E-02 1.62158E-01-4.20857E-01
 -1       725 6.71129E+00 1.46353E-01 6.66522E-02 3.34673E-02 2.29164E-01-2.93146E-01
 -1       726 6.64132E+00 1.53735E-01 6.77481E-02 1.88891E-02 2.52022E-01-2.98576E-01
 -1       727 4.01690E+00 1.32320E-01 5.34329E-02 3.28844E-02 2.17543E-01-4.20075E-01
 -1       728 6.64255E+00 1.65491E-01 8.94499E-02 1.61590E-02 2.81718E-01-3.00288E-01
 -1       729 6.54341E+00 1.78837E-01 8.73246E-02 4.06968E-02 3.12071E-01-3.05650E-01
 -1       730 4.01145E+00 1.69075E-01 7.65089E-02 1.17398E-02 2.67219E-01-4.34602E-01
 -1       731 6.53876E+00 2.11403E-01 1.08737E-01 4.69147E-02 3.45361E-01-3.09207E-01
 -1       732 6.47011E+00 2.32425E-01 1.25142E-01 5.17022E-02 3.80387E-01-3.10650E-01
 -1       733 3.93588E+00 1.96873E-01 9.28077E-02 2.87825E-02 3.32264E-01-4.35979E-01
 -1       734 6.45335E+00 2.62228E-01 1.40345E-01 4.48505E-02 4.15514E-01-3.13464E-01
 -1       735 6.35924E+00 2.73571E-01 1.45300E-01 3.44561E-02 4.44796E-01-3.17903E-01
 -1       736 3.91615E+00 2.46417E-01 1.25242E-01 3.81749E-02 3.98799E-01-4.45590E-01
 -1       737 6.34640E+00 2.95882E-01 1.64956E-01 3.46468E-02 4.83208E-01-3.15959E-01
 -1       738 6.24033E+00 3.15342E-01 1.70879E-01 3.21365E-02 5.14210E-01-3.22411E-01
 -1       739 3.86686E+00 2.87739E-01 1.49002E-01 2.66870E-02 4.63965E-01-4.63228E-01
 -1       740 6.22578E+00 3.32057E-01 1.95519E-01 3.11876E-02 5.49987E-01-3.26364E-01
 -1       741 6.10364E+00 3.51454E-01 1.97009E-01 5.05158E-02 5.86521E-01-3.30162E-01
 -1       742 3.83632E+00 3.30832E-01 1.81619E-01 1.75249E-02 5.30371E-01-4.64911E-01
 -1       743 6.13233E+00 3.89802E-01 2.20006E-01 5.11375E-02 6.25599E-01-3.29668E-01
 -1       744 6.02083E+00 4.10698E-01 2.34553E-01 4.37060E-02 6.62891E-01-3.31145E-01
 -1       745 3.79014E+00 3.70955E-01 2.00452E-01 3.09949E-02 6.08058E-01-4.66346E-01
 -1       746 5.99422E+00 4.33629E-01 2.52605E-01 4.23799E-02 7.00735E-01-3.33289E-01
 -1       747 5.86926E+00 4.48581E-01 2.58730E-01 4.26522E-02 7.34181E-01-3.36702E-01
 -1       748 3.77985E+00 4.14919E-01 2.33432E-01 3.00758E-02 6.81012E-01-4.81415E-01
 -1       749 5.82042E+00 4.71376E-01 2.77191E-01 4.14531E-02 7.72691E-01-3.42970E-01
 -1       750 5.69020E+00 4.93905E-01 2.86518E-01 5.22439E-02 8.09074E-01-3.45896E-01
 -1       751 3.71357E+00 4.68413E-01 2.67713E-01 3.12647E-02 7.51825E-01-4.89989E-01
 -1       752 5.63130E+00 5.28268E-01 3.03595E-01 5.27185E-02 8.48931E-01-3.46922E-01
 -1       753 5.50187E+00 5.45890E-01 3.19023E-01 4.39574E-02 8.82532E-01-3.52474E-01
 -1       754 3.58190E+00 5.12662E-01 2.90298E-01 3.65093E-02 8.30202E-01-4.92208E-01
 -1       755 5.44328E+00 5.66168E-01 3.33681E-01 4.09251E-02 9.20510E-01-3.53910E-01
 -1       756 5.29735E+00 5.86680E-01 3.42468E-01 3.85093E-02 9.53473E-01-3.58513E-01
 -1       757 3.47086E+00 5.55156E-01 3.19879E-01 2.79901E-02 8.97085E-01-5.07479E-01
 -1       758 5.25176E+00 6.09263E-01 3.64162E-01 3.91399E-02 9.90986E-01-3.58901E-01
 -1       759 5.09821E+00 6.34046E-01 3.69591E-01 3.91311E-02 1.02529E+00-3.62709E-01
 -1       760 3.36227E+00 6.00226E-01 3.50656E-01 2.31903E-02 9.68226E-01-5.15220E-01
 -1       761 5.05027E+00 6.51407E-01 3.89800E-01 4.04203E-02 1.06094E+00-3.68084E-01
 -1       762 4.89978E+00 6.69748E-01 4.03918E-01 4.85903E-02 1.09479E+00-3.66340E-01
 -1       763 3.25684E+00 6.38838E-01 3.74962E-01 2.30903E-02 1.04382E+00-5.24086E-01
 -1       764 4.84397E+00 7.06789E-01 4.15234E-01 4.59030E-02 1.13166E+00-3.73542E-01
 -1       765 4.67266E+00 7.16737E-01 4.19169E-01 3.04561E-02 1.15975E+00-3.78661E-01
 -1       766 3.16581E+00 6.85094E-01 4.10528E-01 3.02845E-02 1.10817E+00-5.25251E-01
 -1       767 4.61771E+00 7.32219E-01 4.43273E-01 3.31446E-02 1.19320E+00-3.76840E-01
 -1       768 4.44343E+00 7.53835E-01 4.46222E-01 3.17738E-02 1.22386E+00-3.76370E-01
 -1       769 3.02768E+00 7.19403E-01 4.23158E-01 1.31431E-02 1.17290E+00-5.37293E-01
 -1       770 4.38222E+00 7.73186E-01 4.65067E-01 3.03013E-02 1.25513E+00-3.81979E-01
 -1       771 4.20557E+00 7.91173E-01 4.71753E-01 2.99686E-02 1.28230E+00-3.82231E-01
 -1       772 2.91496E+00 7.57773E-01 4.49096E-01 1.72745E-02 1.23862E+00-5.43981E-01
 -1       773 4.13755E+00 8.07070E-01 4.85649E-01 3.05787E-02 1.31214E+00-3.87494E-01
 -1       774 3.96604E+00 8.20919E-01 4.98066E-01 3.52077E-02 1.33887E+00-3.84936E-01
 -1       775 2.78722E+00 7.94723E-01 4.73476E-01 1.88083E-02 1.29668E+00-5.52791E-01
 -1       776 3.89071E+00 8.51336E-01 5.05056E-01 3.46323E-02 1.36914E+00-3.91243E-01
 -1       777 3.70798E+00 8.61946E-01 5.10722E-01 2.04919E-02 1.38685E+00-3.96015E-01
 -1       778 2.65902E+00 8.30244E-01 5.00561E-01 2.27627E-02 1.34630E+00-5.53461E-01
 -1       779 3.62790E+00 8.61664E-01 5.30066E-01 1.87591E-02 1.41012E+00-3.93785E-01
 -1       780 3.42394E+00 8.75122E-01 5.28580E-01 2.82103E-02 1.43410E+00-3.91990E-01
 -1       781 2.52219E+00 8.56464E-01 5.14947E-01 5.74726E-03 1.39115E+00-5.61097E-01
 -1       782 3.34801E+00 9.01833E-01 5.37255E-01 2.83151E-02 1.45779E+00-3.94907E-01
 -1       783 3.16937E+00 9.12080E-01 5.54839E-01 2.64405E-02 1.48230E+00-3.95083E-01
 -1       784 2.35468E+00 8.88921E-01 5.23296E-01 1.48720E-02 1.44729E+00-5.60760E-01
 -1       785 3.08488E+00 9.33457E-01 5.58621E-01 2.09914E-02 1.50218E+00-3.95593E-01
 -1       786 2.88461E+00 9.41273E-01 5.57466E-01 9.11624E-03 1.51669E+00-3.98347E-01
 -1       787 2.21892E+00 9.14267E-01 5.57539E-01 1.36319E-02 1.48027E+00-5.65528E-01
 -1       788 2.79781E+00 9.40594E-01 5.72699E-01 6.31993E-03 1.53313E+00-3.97623E-01
 -1       789 2.59147E+00 9.49526E-01 5.79577E-01 1.80130E-02 1.54789E+00-3.92611E-01
 -1       790 2.05539E+00 9.33603E-01 5.59999E-01-1.35479E-03 1.52252E+00-5.71709E-01
 -1       791 2.50180E+00 9.73817E-01 5.84043E-01 8.91791E-03 1.56789E+00-3.95220E-01
 -1       792 2.29958E+00 9.76447E-01 5.83971E-01-3.75189E-04 1.57565E+00-3.99099E-01
 -1       793 1.88952E+00 9.56736E-01 5.67688E-01 8.65681E-03 1.55371E+00-5.66249E-01
 -1       794 2.20295E+00 9.73524E-01 5.94832E-01-9.18877E-04 1.58812E+00-3.96134E-01
 -1       795 1.98850E+00 9.76143E-01 5.91361E-01 3.36475E-03 1.59565E+00-3.90469E-01
 -1       796 1.72329E+00 9.73807E-01 5.83755E-01-3.55422E-03 1.57522E+00-5.74870E-01
 -1       797 1.89624E+00 9.92400E-01 5.94257E-01 1.87946E-03 1.60571E+00-3.88708E-01
 -1       798 1.69765E+00 9.94465E-01 6.02077E-01 6.32812E-04 1.61212E+00-3.82422E-01
 -1       799 1.55732E+00 9.86421E-01 5.87029E-01 1.10480E-03 1.60123E+00-5.63191E-01
 -1       800 1.55741E+00 9.99619E-01 6.03920E-01 2.28644E-03 1.61891E+00-3.78626E-01
 -1       801 1.37336E+00 1.00707E+00 6.17529E-01 8.95130E-04 1.62544E+00-3.67168E-01
 -1       802 1.35843E+00 9.99198E-01 6.15688E-01 4.78461E-04 1.60692E+00-5.54781E-01
 -1       803 1.18201E+00 1.01202E+00 6.26357E-01-5.90944E-03 1.62490E+00-4.92282E-01
 -1       804-9.14427E-01 8.30627E-01 5.01605E-01-4.70664E-02 1.36069E+00-6.01137E-01
 -1       805-1.07803E+00 8.11562E-01 4.87690E-01-5.09346E-02 1.33290E+00-6.05016E-01
 -1       806-1.12270E+00 7.97910E-01 4.80747E-01-5.09609E-02 1.30865E+00-5.99746E-01
 -1       807-1.27702E+00 7.79391E-01 4.66392E-01-5.13512E-02 1.27697E+00-5.92071E-01
 -1       808 1.72825E-01 8.09603E-01 4.80667E-01-2.36715E-02 1.31914E+00-6.47217E-01
 -1       809-3.14423E-01 9.10731E-01 5.44764E-01-3.81580E-02 1.48873E+00-6.17557E-01
 -1       810-4.75268E-01 8.96060E-01 5.34958E-01-4.01930E-02 1.47545E+00-6.20664E-01
 -1       811-1.10697E-01 9.30091E-01 5.62237E-01-3.52196E-02 1.52692E+00-6.21578E-01
 -1       812-2.72032E-01 9.18300E-01 5.54879E-01-3.84505E-02 1.51040E+00-6.14363E-01
 -1       813 5.20346E-01 9.13691E-01 5.54328E-01-2.09772E-02 1.49989E+00-6.57328E-01
 -1       814 1.20775E+00 9.80400E-01 5.83104E-01-3.67241E-03 1.59065E+00-6.24623E-01
 -1       815 1.12694E+00 9.80148E-01 5.89623E-01-1.05724E-02 1.59827E+00-6.25846E-01
 -1       816 1.16362E+00 9.89731E-01 5.95929E-01-7.14761E-03 1.60090E+00-6.24088E-01
 -1       817 8.17062E-01 9.78819E-01 5.86343E-01-1.73755E-02 1.60089E+00-6.70186E-01
 -1       818 1.05331E+00 9.89208E-01 6.05338E-01-5.66478E-03 1.61314E+00-6.22498E-01
 -1       819-1.71183E+00 6.88049E-01 4.14073E-01-5.48236E-02 1.12469E+00-5.76000E-01
 -1       820-1.86032E+00 6.64313E-01 4.01353E-01-5.56055E-02 1.08953E+00-5.72628E-01
 -1       821-1.90534E+00 6.45398E-01 3.97252E-01-5.63394E-02 1.05793E+00-5.67808E-01
 -1       822-2.03752E+00 6.22395E-01 3.77849E-01-5.58747E-02 1.02839E+00-5.56713E-01
 -1       823-1.90927E-01 6.56598E-01 3.89969E-01-2.81325E-02 1.07415E+00-6.12595E-01
 -1       824 1.51560E+00 7.06969E-01 4.32611E-01-2.10065E-03 1.15934E+00-5.85892E-01
 -1       825 1.46711E+00 7.24967E-01 4.36512E-01 2.06987E-03 1.18848E+00-5.86462E-01
 -1       826 1.50299E+00 7.52281E-01 4.44349E-01 3.84958E-03 1.21901E+00-5.94907E-01
 -1       827 1.44409E+00 7.64660E-01 4.55832E-01 6.58998E-04 1.24926E+00-5.99091E-01
 -1       828-9.08946E-04 7.37427E-01 4.46993E-01-2.82512E-02 1.20719E+00-6.15887E-01
 -1       829 1.44575E+00 8.53971E-01 5.09502E-01-1.06204E-03 1.38165E+00-6.16068E-01
 -1       830 1.38328E+00 8.61713E-01 5.09959E-01-3.04536E-03 1.39916E+00-6.13980E-01
 -1       831 1.40191E+00 8.75076E-01 5.25236E-01-1.08113E-02 1.43286E+00-6.05053E-01
 -1       832 1.33403E+00 8.89740E-01 5.37579E-01-7.64234E-03 1.45870E+00-6.20364E-01
 -1       833 3.40959E-01 8.73676E-01 5.16906E-01-2.31597E-02 1.41676E+00-6.53776E-01
 -1       834 1.25103E+00 9.60738E-01 5.87529E-01-3.55590E-03 1.57156E+00-6.31739E-01
 -1       835 1.17726E+00 9.66257E-01 5.81666E-01-4.16518E-03 1.58010E+00-6.24288E-01
 -1       836 1.29941E+00 9.42589E-01 5.63817E-01-1.00878E-02 1.54300E+00-6.19652E-01
 -1       837 1.21633E+00 9.51914E-01 5.75525E-01-5.09416E-04 1.56150E+00-6.24500E-01
 -1       838 6.79075E-01 9.55240E-01 5.76860E-01-1.84428E-02 1.56266E+00-6.72695E-01
 -1       839 1.56129E+00 5.44812E-01 3.18482E-01 9.84569E-03 8.76321E-01-5.55965E-01
 -1       840 1.49556E+00 5.62155E-01 3.26710E-01 5.29998E-03 9.17868E-01-5.55722E-01
 -1       841 1.54717E+00 5.88547E-01 3.47187E-01 3.15708E-03 9.53841E-01-5.63810E-01
 -1       842 1.50447E+00 6.03941E-01 3.62525E-01 7.43523E-03 9.90718E-01-5.66742E-01
 -1       843-3.66549E-01 5.71299E-01 3.44730E-01-3.04178E-02 9.36768E-01-5.89160E-01
 -1       844-3.87828E+00 8.21627E-02 6.23460E-02-3.79729E-02 1.28607E-01-4.56189E-01
 -1       845-3.93709E+00 7.20041E-02 5.28612E-02-3.41270E-02 1.08533E-01-4.51254E-01
 -1       846-3.87553E+00 9.32603E-02 6.30348E-02-3.64531E-02 1.50097E-01-4.59180E-01
 -1       847-1.21090E+00 8.67148E-02 5.41335E-02-1.57238E-02 1.43505E-01-4.77608E-01
 -1       848-3.81541E+00 1.12589E-01 7.15661E-02-3.66170E-02 1.74479E-01-4.55424E-01
 -1       849-3.61345E+00 1.76355E-01 1.13507E-01-3.38836E-02 2.89262E-01-4.65543E-01
 -1       850-3.68256E+00 1.59782E-01 1.04541E-01-3.85120E-02 2.57911E-01-4.72312E-01
 -1       851-3.70192E+00 1.46139E-01 9.87412E-02-3.95307E-02 2.31958E-01-4.66663E-01
 -1       852-3.76652E+00 1.35221E-01 9.09238E-02-2.47676E-02 2.06138E-01-4.58582E-01
 -1       853-1.12353E+00 1.50700E-01 8.85879E-02-2.17291E-02 2.46497E-01-4.97142E-01
 -1       854 1.35261E+00 3.03088E-02-1.37801E-02-6.32626E-04 5.47932E-02-3.79841E-01
 -1       855 1.35641E+00 2.64491E-02 5.17708E-04 9.60411E-03 6.35432E-02-4.15198E-01
 -1       856-1.30821E+00 4.07401E-02 2.05237E-02-1.31357E-02 7.70794E-02-4.26291E-01
 -1       857 1.38314E+00 4.53248E-02 1.14787E-02 5.66892E-03 7.32216E-02-4.28706E-01
 -1       858 1.43600E+00 5.22193E-02 1.61514E-02 3.46385E-03 8.91984E-02-4.37772E-01
 -1       859-3.10084E+00 3.39027E-01 2.08878E-01-4.60994E-02 5.55856E-01-4.96335E-01
 -1       860-3.20615E+00 3.14566E-01 1.93416E-01-4.85644E-02 5.17333E-01-5.02600E-01
 -1       861-3.23080E+00 2.97684E-01 1.87609E-01-5.32326E-02 4.83643E-01-4.97660E-01
 -1       862-3.33601E+00 2.75993E-01 1.73046E-01-5.66751E-02 4.47729E-01-5.00331E-01
 -1       863-8.56685E-01 3.06054E-01 1.82831E-01-2.72892E-02 5.01820E-01-5.34902E-01
 -1       864-2.76795E+00 4.28737E-01 2.64336E-01-6.05108E-02 6.99234E-01-5.26308E-01
 -1       865-2.89424E+00 4.06200E-01 2.51274E-01-5.72133E-02 6.64018E-01-5.17996E-01
 -1       866-2.73340E+00 4.49848E-01 2.74395E-01-6.15746E-02 7.32583E-01-5.33013E-01
 -1       867-5.82719E-01 4.40772E-01 2.60286E-01-2.72397E-02 7.17543E-01-5.65054E-01
 -1       868-2.62212E+00 4.75188E-01 2.90198E-01-5.98702E-02 7.72507E-01-5.31751E-01
 -1       869-3.48534E+00 2.20267E-01 1.45151E-01-5.03372E-02 3.49640E-01-4.90216E-01
 -1       870-3.56601E+00 1.97046E-01 1.30829E-01-4.15308E-02 3.21885E-01-4.78794E-01
 -1       871-3.36625E+00 2.58185E-01 1.66096E-01-5.86770E-02 4.15985E-01-4.97441E-01
 -1       872-3.46102E+00 2.34584E-01 1.51417E-01-5.32959E-02 3.81508E-01-4.90972E-01
 -1       873-9.97467E-01 2.24285E-01 1.34390E-01-2.13484E-02 3.67309E-01-5.15940E-01
 -1       874 1.20671E+00-1.09148E-02-7.91327E-02-1.83124E-02 8.67995E-02-2.13443E-01
 -1       875 1.29033E+00 2.30510E-02-3.05703E-02-7.13322E-03 7.13797E-02-3.08007E-01
 -1       876 1.22891E+00-2.72742E-02-9.68346E-02-4.42894E-02 1.10440E-01-1.20962E-01
 -1       877-1.34104E+00 2.22360E-02-6.17918E-02-5.64553E-04 1.25284E-01-2.10455E-01
 -1       878 2.34841E+00-1.65552E-01-3.10531E-01-7.60090E-02 1.48338E-01 4.61333E-02
 -1       879-1.00827E-01-8.53186E-02-1.14812E-01-6.54317E-02 1.53546E-01 5.64888E-02
 -1       880-3.99344E+00 3.97514E-02 3.80184E-02-5.92435E-03 6.59003E-02-3.99267E-01
 -1       881-3.98261E+00 2.44724E-02 3.53684E-02-9.39959E-03 5.57578E-02-3.70893E-01
 -1       882-3.98771E+00 2.07156E-02 2.15807E-02 4.70041E-03 7.37462E-02-3.08149E-01
 -1       883-1.34198E+00 2.52294E-02 3.25524E-03-9.49054E-03 8.60413E-02-3.55745E-01
 -1       884-3.93088E+00 3.29728E-02 2.68921E-02 1.03043E-02 8.88677E-02-2.30278E-01
 -1       885 6.89689E-01 9.80559E-01 5.78523E-01-2.11073E-02 1.61229E+00-6.16928E-01
 -1       886 5.17841E-01 9.76270E-01 5.82671E-01-2.13120E-02 1.60615E+00-6.23502E-01
 -1       887 7.16618E-01 9.80047E-01 5.71132E-01-1.79946E-02 1.61911E+00-6.30591E-01
 -1       888 8.75731E-01 9.84924E-01 5.88510E-01-1.11149E-02 1.61189E+00-6.78806E-01
 -1       889 7.26504E-01 9.77132E-01 5.60590E-01-8.68060E-03 1.61189E+00-6.01296E-01
 -1       890 8.60163E-01 9.77330E-01 5.81208E-01-1.28747E-02 1.61158E+00-6.66870E-01
 -1       891-2.27149E+00 5.61355E-01 3.40821E-01-5.71323E-02 9.22996E-01-5.46990E-01
 -1       892-2.39658E+00 5.42331E-01 3.28957E-01-5.14994E-02 8.84935E-01-5.36808E-01
 -1       893-2.44483E+00 5.19480E-01 3.20961E-01-5.71090E-02 8.38047E-01-5.41046E-01
 -1       894-2.59278E+00 4.91374E-01 3.02954E-01-5.81344E-02 8.07112E-01-5.38867E-01
 -1       895-4.36729E-01 5.27133E-01 3.22920E-01-2.75511E-02 8.61832E-01-5.79682E-01
 -1       896 4.90504E-01 9.74676E-01 5.82255E-01-2.28675E-02 1.60370E+00-6.17115E-01
 -1       897 3.31650E-01 9.71316E-01 5.80782E-01-2.17281E-02 1.59099E+00-6.15305E-01
 -1       898 2.79127E-01 9.65769E-01 5.76396E-01-2.91561E-02 1.57563E+00-6.15939E-01
 -1       899 1.27510E-01 9.54825E-01 5.64491E-01-3.07164E-02 1.56993E+00-6.23747E-01
 -1       900 7.51846E-01 9.71049E-01 5.84971E-01-1.79735E-02 1.58842E+00-6.56965E-01
 -1       901 1.43555E+00 1.18018E-01 5.79909E-02 7.11229E-03 2.03867E-01-4.72257E-01
 -1       902 1.42142E+00 1.39125E-01 6.85502E-02 9.18829E-03 2.28579E-01-4.76316E-01
 -1       903 1.47238E+00 9.28717E-02 4.68737E-02 8.41916E-03 1.51210E-01-4.63482E-01
 -1       904 1.41230E+00 1.01833E-01 5.39728E-02 9.30957E-03 1.76799E-01-4.65238E-01
 -1       905-1.17572E+00 1.17454E-01 7.01945E-02-1.96856E-02 1.93808E-01-4.78214E-01
 -1       906 1.51613E+00 3.23344E-01 1.89558E-01 3.88326E-03 5.16791E-01-5.15362E-01
 -1       907 1.49202E+00 3.39400E-01 1.98809E-01 1.14758E-03 5.49387E-01-5.10418E-01
 -1       908 1.50421E+00 3.54612E-01 2.01804E-01-8.72353E-03 5.90340E-01-5.06817E-01
 -1       909 1.52697E+00 3.78619E-01 2.17343E-01 3.01625E-04 6.26946E-01-5.19150E-01
 -1       910-8.01043E-01 3.49138E-01 2.02042E-01-2.65338E-02 5.74962E-01-5.34587E-01
 -1       911 1.59190E+00 4.97734E-01 2.97024E-01 9.68798E-04 8.09233E-01-5.34986E-01
 -1       912 1.52150E+00 5.14384E-01 3.04506E-01 6.56901E-03 8.46241E-01-5.46990E-01
 -1       913 1.54295E+00 4.70418E-01 2.73629E-01 4.46218E-03 7.73829E-01-5.33724E-01
 -1       914-5.15839E-01 4.85727E-01 2.90968E-01-2.62034E-02 7.90913E-01-5.71769E-01
 -1       915 1.60599E+00 4.54695E-01 2.65953E-01 1.06101E-02 7.32668E-01-5.37956E-01
 -1       916 1.44942E+00 1.85066E-01 9.77313E-02-1.12073E-02 3.19121E-01-4.74922E-01
 -1       917 1.43920E+00 2.06706E-01 1.11971E-01 1.52415E-03 3.50547E-01-4.87007E-01
 -1       918 1.45778E+00 1.61149E-01 8.80248E-02 5.22881E-03 2.55323E-01-4.83994E-01
 -1       919 1.44810E+00 1.75252E-01 9.85646E-02 4.43744E-04 2.83658E-01-4.77462E-01
 -1       920-1.08484E+00 1.82657E-01 1.04010E-01-2.14326E-02 3.06800E-01-4.99184E-01
 -1       921 1.49567E+00 2.77967E-01 1.55560E-01 1.08507E-02 4.45867E-01-5.05984E-01
 -1       922 1.46822E+00 2.93369E-01 1.66354E-01 8.61523E-03 4.83057E-01-5.06411E-01
 -1       923 1.49049E+00 2.31386E-01 1.29731E-01 1.96966E-03 3.79937E-01-4.91694E-01
 -1       924 1.46068E+00 2.53556E-01 1.39441E-01 1.14858E-02 4.14099E-01-4.98801E-01
 -1       925-9.36167E-01 2.61712E-01 1.59450E-01-2.32281E-02 4.31258E-01-5.26962E-01
 -1       926-2.48522E+00 2.82406E-02-1.23562E-01 7.29531E-03 1.68045E-01-6.15447E-04
 -1       927-4.97332E+00 1.73361E-01 1.11738E-01 5.80320E-02 1.81863E-01 3.03205E-03
 -1       928-3.85265E+00 6.09809E-02 2.83483E-03 4.38136E-02 1.13943E-01-1.47259E-01
 -1       929 9.66548E-01 9.96861E-01 6.01947E-01-1.17344E-02 1.60923E+00-6.77694E-01
 -1       930 1.08614E+00 9.92251E-01 6.22549E-01-1.35564E-02 1.61198E+00-6.06650E-01
 -1       931 1.07270E+00 9.99563E-01 6.15856E-01-1.40035E-03 1.61865E+00-6.35194E-01
 -1       932 1.47285E+00 8.21984E-01 4.89042E-01 1.63704E-03 1.33218E+00-6.08616E-01
 -1       933 1.39795E+00 8.34732E-01 4.99900E-01-2.54944E-04 1.35986E+00-6.06257E-01
 -1       934 1.48864E+00 7.86052E-01 4.68194E-01 2.25985E-03 1.27715E+00-5.99083E-01
 -1       935 1.42695E+00 8.00443E-01 4.76080E-01 3.31366E-03 1.31012E+00-6.06869E-01
 -1       936 1.38310E+00 9.05106E-01 5.45805E-01-7.63606E-03 1.47115E+00-6.24802E-01
 -1       937 1.30973E+00 9.13142E-01 5.53668E-01-2.13339E-03 1.49361E+00-6.17692E-01
 -1       938 1.34219E+00 9.30307E-01 5.54511E-01-1.84283E-03 1.51204E+00-6.27346E-01
 -1       939 1.26765E+00 9.38227E-01 5.53236E-01-6.29962E-03 1.52404E+00-6.29247E-01
 -1       940 1.54128E+00 6.72796E-01 3.95259E-01 6.37456E-03 1.08947E+00-5.76758E-01
 -1       941 1.48629E+00 6.95261E-01 4.16077E-01-5.18305E-03 1.12482E+00-5.71891E-01
 -1       942 1.53755E+00 6.32621E-01 3.70785E-01 4.65714E-03 1.02538E+00-5.66346E-01
 -1       943 1.48999E+00 6.50420E-01 3.76468E-01 4.14599E-03 1.06030E+00-5.77408E-01
 -1       944-1.52545E+00 7.28605E-01 4.38516E-01-5.35648E-02 1.18353E+00-5.76528E-01
 -1       945-1.66983E+00 7.05517E-01 4.20440E-01-5.38215E-02 1.15712E+00-5.79338E-01
 -1       946-1.31025E+00 7.66069E-01 4.59307E-01-4.57424E-02 1.25080E+00-5.88296E-01
 -1       947-1.46395E+00 7.47010E-01 4.49723E-01-4.74044E-02 1.22030E+00-5.77601E-01
 -1       948-7.20185E-01 8.62663E-01 5.15791E-01-4.30335E-02 1.41159E+00-6.05229E-01
 -1       949-8.87040E-01 8.39104E-01 4.99816E-01-4.19378E-02 1.38649E+00-6.01844E-01
 -1       950-5.13061E-01 8.87033E-01 5.39435E-01-4.18663E-02 1.45157E+00-6.12116E-01
 -1       951-6.76037E-01 8.70576E-01 5.25245E-01-4.80632E-02 1.42822E+00-6.14552E-01
 -1       952-3.95909E+00 6.42433E-02 5.08430E-02-3.45358E-02 9.29299E-02-4.37776E-01
 -1       953-3.96610E+00 5.35142E-02 4.97362E-02-1.80326E-02 7.82846E-02-4.15848E-01
 -1       954-1.26838E+00 5.92333E-02 2.99081E-02-1.21069E-02 1.03170E-01-4.62276E-01
 -1       955 1.45539E+00 7.72738E-02 3.32239E-02 1.33011E-02 1.29269E-01-4.52448E-01
 -1       956 1.44609E+00 5.12321E-02 1.81374E-02-6.15291E-03 1.10312E-01-4.43659E-01
 -1       957 2.64097E-01 8.34623E-01 5.01341E-01-2.45748E-02 1.37053E+00-6.52785E-01
 -1       958-2.09529E+00 6.03104E-01 3.66134E-01-5.15847E-02 9.90079E-01-5.49064E-01
 -1       959-2.23447E+00 5.80372E-01 3.54565E-01-5.26696E-02 9.53502E-01-5.52877E-01
 -1       960-9.07099E-02 6.96676E-01 4.19405E-01-2.76679E-02 1.14160E+00-6.21116E-01
 -1       961-2.95417E+00 3.87716E-01 2.42723E-01-5.62085E-02 6.25597E-01-5.19633E-01
 -1       962-3.04776E+00 3.60696E-01 2.25340E-01-5.20722E-02 5.94436E-01-5.10507E-01
 -1       963-6.74113E-01 3.94391E-01 2.38025E-01-2.60784E-02 6.44812E-01-5.53866E-01
 -1       964 1.60683E+00 4.05491E-01 2.37164E-01 4.00754E-03 6.59809E-01-5.22941E-01
 -1       965 1.56553E+00 4.25956E-01 2.45547E-01 1.16855E-02 6.99396E-01-5.33226E-01
 -1       966 4.34404E-01 8.97076E-01 5.36224E-01-2.09839E-02 1.46318E+00-6.64320E-01
 -1       967 8.94107E-02 9.49296E-01 5.69326E-01-3.15517E-02 1.56008E+00-6.23050E-01
 -1       968-7.69599E-02 9.37088E-01 5.63108E-01-3.34864E-02 1.54401E+00-6.21233E-01
 -1       969 5.87767E-01 9.37653E-01 5.62365E-01-2.11624E-02 1.53209E+00-6.71195E-01
 -1       970-2.78498E-01 6.14298E-01 3.63558E-01-2.91316E-02 1.00500E+00-5.88459E-01
 -1       971 8.09199E-02 7.75057E-01 4.61283E-01-2.66424E-02 1.26332E+00-6.35514E-01
 -1       972-1.09111E+00 8.15209E-01 4.84466E-01-3.40528E-02 1.32287E+00-3.79064E-01
 -1       973-2.94156E-01 9.26933E-01 5.55082E-01-2.70227E-02 1.50478E+00-4.63284E-01
 -1       974 1.76542E+00 9.69347E-01 5.83849E-01 3.47153E-03 1.60497E+00-5.13266E-01
 -1       975-1.88249E+00 6.63989E-01 3.86446E-01-3.86021E-02 1.07791E+00-2.71939E-01
 -1       976-1.48078E+00 7.42968E-01 4.37967E-01-3.59840E-02 1.20545E+00-3.26227E-01
 -1       977-7.01449E-01 8.81702E-01 5.24154E-01-3.17459E-02 1.42581E+00-4.17862E-01
 -1       978 2.34030E+00 9.49088E-01 5.65303E-01 1.39671E-02 1.56292E+00-5.00645E-01
 -1       979 5.26217E+00 5.66381E-01 3.52442E-01 6.42542E-02 9.37773E-01-2.10060E-01
 -1       980-3.90495E+00 8.01561E-02 1.49692E-02-4.12092E-02 1.39136E-01 1.86975E-01
 -1       981-3.70640E+00 1.43493E-01 5.57452E-02-3.34311E-02 2.42545E-01 1.22839E-01
 -1       982 6.74521E+00 3.84059E-02 5.63825E-02 3.83948E-02 6.05755E-02 2.66459E-01
 -1       983-3.22307E+00 3.04263E-01 1.59360E-01-4.03807E-02 5.00390E-01-9.28981E-03
 -1       984-2.77606E+00 4.42778E-01 2.47391E-01-4.14220E-02 7.18592E-01-1.08088E-01
 -1       985-3.49009E+00 2.20673E-01 1.06647E-01-3.84294E-02 3.65905E-01 5.27461E-02
 -1       986 6.50219E+00-4.48102E-02-8.06963E-02 1.12045E-01-4.81889E-02 5.48252E-01
 -1       987-3.92525E+00 2.17971E-02 3.99015E-03-4.95533E-02 2.00061E-02 3.61627E-01
 -1       988 7.48658E-01 9.94006E-01 5.75999E-01-1.30871E-02 1.61839E+00-5.33411E-01
 -1       989 3.72106E+00 8.30457E-01 5.03163E-01 4.11479E-02 1.37638E+00-3.98351E-01
 -1       990-2.42383E+00 5.29335E-01 3.02083E-01-4.15933E-02 8.63613E-01-1.79246E-01
 -1       991 3.04635E-01 9.79332E-01 5.87195E-01-1.55782E-02 1.59061E+00-5.11280E-01
 -1       992 4.65384E+00 6.91710E-01 4.21583E-01 5.78893E-02 1.14215E+00-2.93711E-01
 -1       993 3.18667E+00 8.86743E-01 5.30438E-01 3.14410E-02 1.46639E+00-4.42656E-01
 -1       994 4.20201E+00 7.65619E-01 4.65398E-01 4.93627E-02 1.26511E+00-3.54032E-01
 -1       995 6.63481E+00 1.22730E-01 1.01581E-01 4.14068E-02 1.89525E-01 1.46245E-01
 -1       996 6.05159E+00 3.47980E-01 2.27375E-01 6.28431E-02 5.71614E-01-4.25519E-02
 -1       997 5.68253E+00 4.81154E-01 3.02663E-01 6.96412E-02 7.91742E-01-1.40145E-01
 -1       998 6.48561E+00 1.83858E-01 1.35846E-01 4.73211E-02 3.02265E-01 8.62640E-02
 -1       999 6.28824E+00 2.64157E-01 1.84134E-01 7.29785E-02 4.33324E-01 1.98899E-02
 -1      1000-1.23641E+00 2.31198E-02 1.19206E-01 4.00780E-02-9.53848E-02 9.01647E-01
 -1      1001 1.07842E+00 9.97044E-01 5.94943E-01-2.41370E-03 1.62051E+00-6.45924E-01
 -1      1002 6.71571E+00 2.64498E-02 2.60500E-02 6.41930E-02 2.22943E-02 3.50527E-01
 -1      1003-3.98869E+00 3.40249E-02-1.46207E-02-2.21142E-02 5.99053E-02 2.59896E-01
 -1      1004-3.98380E+00 5.34550E-02 3.98726E-05-3.17731E-02 9.61419E-02 2.17620E-01
 -1      1005 1.41796E+00 7.26364E-02 4.07531E-02 7.78308E-03 1.21358E-01 2.27092E-01
 -1      1006 5.06264E-01 9.90674E-01 5.86969E-01-1.16828E-02 1.60690E+00-5.31331E-01
 -1      1007-8.87706E-01 8.45041E-01 5.05567E-01-3.29015E-02 1.37480E+00-4.03434E-01
 -1      1008 2.91469E+00 9.07050E-01 5.46571E-01 2.75057E-02 1.50512E+00-4.55587E-01
 -1      1009 4.87054E+00 6.51023E-01 4.02717E-01 5.97354E-02 1.07784E+00-2.73688E-01
 -1      1010 5.47874E+00 5.23231E-01 3.28531E-01 6.11180E-02 8.66450E-01-1.72394E-01
 -1      1011-2.24686E+00 5.75469E-01 3.33775E-01-4.18040E-02 9.37729E-01-2.07466E-01
 -1      1012-1.68410E+00 7.02956E-01 4.10747E-01-3.98100E-02 1.14192E+00-3.06893E-01
 -1      1013 5.07849E+00 6.11666E-01 3.76794E-01 5.91163E-02 1.00707E+00-2.37283E-01
 -1      1014-3.60516E+00 1.81297E-01 8.20024E-02-2.61257E-02 3.03022E-01 8.52476E-02
 -1      1015-3.08289E+00 3.51802E-01 1.89281E-01-3.43260E-02 5.74470E-01-4.28230E-02
 -1      1016-2.94673E+00 3.94967E-01 2.18197E-01-4.47209E-02 6.44403E-01-7.91213E-02
 -1      1017 1.54933E+00 4.15804E-01 2.53147E-01 1.27043E-02 6.81544E-01-1.38700E-01
 -1      1018 6.18146E+00 3.05840E-01 2.06285E-01 6.66374E-02 5.01207E-01-1.20951E-02
 -1      1019 4.44593E+00 7.27518E-01 4.45412E-01 5.25602E-02 1.20837E+00-3.20981E-01
 -1      1020-4.96729E-01 9.05477E-01 5.37808E-01-2.59000E-02 1.46639E+00-4.56116E-01
 -1      1021-2.64348E+00 4.87082E-01 2.75870E-01-4.27810E-02 7.92744E-01-1.43655E-01
 -1      1022 2.04951E+00 9.60685E-01 5.75096E-01 9.97589E-03 1.58815E+00-5.04034E-01
 -1      1023 1.18907E-01 9.66012E-01 5.81367E-01-1.59436E-02 1.56621E+00-5.02660E-01
 -1      1024 6.39041E+00 2.24539E-01 1.59236E-01 6.36353E-02 3.65065E-01 5.51879E-02
 -1      1025 6.56310E+00 1.51359E-01 1.19330E-01 6.12922E-02 2.43964E-01 1.18117E-01
 -1      1026-7.64661E-02 9.48820E-01 5.67242E-01-2.55607E-02 1.53700E+00-4.89754E-01
 -1      1027 3.96121E+00 7.98099E-01 4.84510E-01 4.33622E-02 1.32262E+00-3.81573E-01
 -1      1028-3.81659E+00 1.11779E-01 3.34067E-02-3.88165E-02 1.88620E-01 1.55457E-01
 -1      1029-2.07621E+00 6.23132E-01 3.61253E-01-3.92660E-02 1.01035E+00-2.36607E-01
 -1      1030-3.35883E+00 2.61329E-01 1.29604E-01-4.24174E-02 4.29749E-01 2.45553E-02
 -1      1031 2.63712E+00 9.27583E-01 5.59539E-01 1.94879E-02 1.54025E+00-4.79915E-01
 -1      1032-1.28950E+00 7.78877E-01 4.64705E-01-3.55031E-02 1.26736E+00-3.53877E-01
 -1      1033 3.45128E+00 8.61388E-01 5.18320E-01 3.43900E-02 1.42082E+00-4.28544E-01
 -1      1034 1.34038E+00 8.94214E-03 2.16449E-02 7.84214E-03-4.16684E-02 4.80153E-01
 -1      1035 1.38129E+00 3.08043E-02 1.55884E-02 9.96938E-03 3.82571E-02 3.32889E-01
 -1      1036 6.78229E+00 8.86708E-02 8.72394E-02 6.03446E-02 1.39706E-01 1.84836E-01
 -1      1037 4.19554E+00-5.46437E-01-1.20771E-01 9.30114E-02-7.03998E-02 7.93297E-01
 -1      1038 6.00949E+00 3.91844E-01 2.55301E-01 6.98739E-02 6.44677E-01-7.69971E-02
 -1      1039 1.54114E+00 4.61046E-01 2.74718E-01 1.25418E-02 7.57877E-01-1.79273E-01
 -1      1040 1.10244E+00 9.85564E-01 5.89749E-01-8.93539E-03 1.60702E+00-6.38402E-01
 -1      1041 6.82291E+00 6.69661E-02 6.79841E-02 4.11866E-02 9.61564E-02 2.15724E-01
 -1      1042 1.17165E+00 9.71819E-01 5.80760E-01-8.16539E-03 1.59744E+00-6.21075E-01
 -1      1043 1.41293E+00 9.67203E-02 5.49637E-02 5.53519E-03 1.64422E-01 1.85678E-01
 -1      1044 1.33717E+00 9.04181E-01 5.42373E-01-2.77190E-03 1.48009E+00-5.55893E-01
 -1      1045 1.28376E+00 9.30200E-01 5.54794E-01-4.52309E-03 1.52132E+00-5.75004E-01
 -1      1046 1.39865E+00 8.51403E-01 5.17013E-01 2.90163E-03 1.39894E+00-5.11769E-01
 -1      1047 1.20796E+00 9.62003E-01 5.81315E-01-7.96672E-03 1.57316E+00-6.08703E-01
 -1      1048 1.48034E+00 7.17243E-01 4.27966E-01 6.42851E-03 1.17292E+00-3.99561E-01
 -1      1049 1.50995E+00 5.94365E-01 3.55634E-01 9.31416E-03 9.71737E-01-2.90410E-01
 -1      1050 1.45833E+00 7.53349E-01 4.51895E-01 3.20224E-03 1.23680E+00-4.21286E-01
 -1      1051 1.44222E+00 7.90683E-01 4.74184E-01 5.94987E-03 1.29251E+00-4.57077E-01
 -1      1052 1.25756E+00 9.44723E-01 5.64435E-01-3.77740E-03 1.54915E+00-5.93568E-01
 -1      1053 1.38106E+00 8.82526E-01 5.27313E-01 6.41523E-04 1.44331E+00-5.28141E-01
 -1      1054 1.52321E+00 5.05525E-01 2.97878E-01 1.01608E-02 8.28989E-01-2.18903E-01
 -1      1055 1.42085E+00 1.33150E-01 7.64567E-02 1.26984E-02 2.21227E-01 1.44965E-01
 -1      1056 1.43279E+00 1.66112E-01 9.84439E-02 1.46593E-02 2.74991E-01 1.04626E-01
 -1      1057 1.50835E+00 6.35559E-01 3.82585E-01 8.92744E-03 1.04485E+00-3.24653E-01
 -1      1058 1.45928E+00 2.43043E-01 1.43867E-01 1.29413E-02 3.99875E-01 2.34724E-02
 -1      1059 1.47026E+00 2.85278E-01 1.67344E-01 1.34798E-02 4.67361E-01-1.90658E-02
 -1      1060 1.45113E+00 2.01158E-01 1.20360E-01 9.49281E-03 3.38257E-01 6.65871E-02
 -1      1061 1.49113E+00 6.77870E-01 4.04030E-01 7.51053E-03 1.10903E+00-3.61130E-01
 -1      1062 1.41836E+00 8.23114E-01 4.92871E-01 3.87264E-03 1.34608E+00-4.85906E-01
 -1      1063 1.48413E+00 3.28044E-01 1.95959E-01 1.43589E-02 5.38385E-01-5.86881E-02
 -1      1064 1.50141E+00 5.50307E-01 3.29923E-01 1.00606E-02 9.03258E-01-2.50666E-01
 -1      1065 1.49965E+00 3.69426E-01 2.21627E-01 1.06586E-02 6.12310E-01-9.69101E-02
 -1      1066 5.86190E+00 4.37062E-01 2.77261E-01 7.37856E-02 7.18018E-01-1.07117E-01
 -1      1067 1.38975E+00 4.42179E-02 2.81577E-02 3.32072E-03 8.10080E-02 2.74626E-01
 -1      1068 1.00714E+00 1.00487E+00 5.73762E-01-6.20716E-03 1.61943E+00-6.43762E-01
 -1      1069-3.74551E+00 6.11395E-02 1.26505E-01-9.73666E-02-4.15268E-02 5.82017E-01
 -1      1070 1.40384E+00 9.77208E-01 6.06231E-01-1.99464E-03 1.61926E+00-5.24746E-01
 -1      1071 1.40160E+00-9.18853E-03 6.70680E-02 1.82849E-02-9.50295E-02 6.11482E-01
 -1      1072 8.49017E+00-5.65151E-01-3.21105E-01 4.55840E-02-7.07589E-02 6.51022E-01
 -1      1073-5.90013E+00 3.55726E-01 3.67672E-01 6.50144E-02-4.37423E-02 7.69205E-01
 -1      1074 9.25042E-01 1.00467E+00 5.74826E-01-8.90190E-03 1.62298E+00-4.32679E-01
 -1      1075 1.15134E+00 9.92688E-01 6.18343E-01 2.66789E-03 1.62160E+00-4.31096E-01
 -1      1076 1.06290E+00 9.91709E-01 5.89826E-01-8.52212E-03 1.62038E+00-6.60071E-01
 -1      1077 1.16047E+01 1.36968E+00 1.51274E+00-1.40776E+00 2.26274E-01-1.51790E-01
 -1      1078 8.18258E+00 3.10108E-01 1.02464E+00-9.69137E-01-8.94775E-02 1.01920E+00
 -1      1079 9.83039E+00-2.04021E-01-2.88003E-01 1.30805E-01-9.16898E-02 6.34270E-01
 -1      1080-5.91079E+00-7.17654E-01-8.09328E-01 9.46518E-01 1.34701E-02 1.13136E+00
 -1      1081-8.77269E+00-1.16791E+00-1.13430E+00 1.27438E+00 1.36441E-01 2.93566E-01
 -1      1082-7.27565E+00 1.62087E-01 3.09736E-01-7.88635E-02-6.39123E-02 7.20706E-01
 -1      1083 1.04973E+00 9.99382E-01 4.62478E-01-1.82430E-02 1.61352E+00-4.79952E-01
 -1      1084 1.11474E+00 9.88565E-01 5.56800E-01-1.11719E-03 1.62218E+00-3.34195E-01
 -1      1085 1.38341E+00 9.72118E-01 6.07449E-01 9.83924E-03 1.63357E+00-2.67166E-01
 -1      1086 9.37552E-01 9.96961E-01 6.39437E-01-1.83509E-02 1.62800E+00-3.41683E-01
 -1      1087 1.00754E+00 9.96179E-01 7.18110E-01-2.41678E-03 1.61898E+00-4.88933E-01
 -1      1088 7.13339E-01 1.00959E+00 5.69899E-01-1.74083E-02 1.64098E+00-2.65243E-01
 -1      1089 3.16693E-02 1.41239E-01 3.38147E-01-9.39362E-03-9.22259E-02 1.45701E+00
 -1      1090-3.40903E+00-8.60162E-01-8.97922E-01 7.16715E-01-1.31254E-01 1.35978E+00
 -1      1091-3.50729E+00 2.78250E-01 1.76417E-01 7.15729E-02-7.31864E-02 9.63307E-01
 -1      1092 6.22791E+00 9.48594E-01 1.41057E+00-9.20958E-01-1.41508E-01 1.13405E+00
 -1      1093 2.80814E+00-1.55372E-01 2.50621E-01-1.15173E-01-1.24247E-01 1.43574E+00
 -1      1094 1.45157E+00-2.49836E-01 1.61409E-01 1.33684E-01-4.45680E-02 9.07763E-01
 -1      1095 6.51775E+00-6.27437E-01-3.16594E-02 8.40282E-02 8.43714E-03 7.81903E-01
 -1      1096 1.00852E+00 9.96983E-01 7.13312E-01-1.22385E-02 1.62758E+00-5.61039E-01
 -1      1097 1.01790E+00 9.89037E-01 5.92032E-01-1.08873E-02 1.62813E+00-5.84523E-01
 -1      1098 9.72710E-01 1.01963E+00 6.06606E-01-9.32755E-03 1.61511E+00-5.50351E-01
 -1      1099 1.03422E+00 1.00110E+00 5.99641E-01-1.24918E-02 1.62348E+00-5.81832E-01
 -1      1100 1.05657E+00 9.95993E-01 4.92943E-01-3.80181E-03 1.62130E+00-5.57176E-01
 -1      1101 1.05148E+00 1.00649E+00 6.01522E-01 7.17284E-04 1.61451E+00-6.59926E-01
 -1      1102 1.10509E+00 9.88931E-01 5.95414E-01 2.05631E-03 1.62337E+00-5.53344E-01
 -1      1103-6.27772E+00 3.79582E-02 9.62047E-02-1.50662E-02 4.03379E-03 5.21174E-01
 -1      1104-6.58462E+00 5.51145E-02 5.10005E-02-7.07034E-02-4.52535E-03 3.64800E-01
 -1      1105-4.57492E+00-1.23329E-02 2.47678E-01-7.72302E-02-6.71965E-02 7.81141E-01
 -1      1106-6.66056E+00 3.21496E-02 1.90982E-02-1.90790E-02 1.57703E-02 2.59650E-01
 -1      1107-6.76037E+00 1.54572E-02-3.37365E-03-1.08623E-02 2.65715E-02 2.27207E-01
 -1      1108-3.83863E+00 8.38339E-03 3.19442E-02-5.35472E-02 1.06886E-02 4.53182E-01
 -1      1109-6.77657E+00 2.18895E-02-3.92552E-03-1.96754E-03 4.88121E-02 1.86340E-01
 -1      1110-6.78785E+00 2.87932E-02-9.44110E-03-2.58019E-02 6.30935E-02 1.81860E-01
 -1      1111-3.96374E+00 2.37265E-02-1.02640E-02-2.22663E-02 3.93496E-02 3.10081E-01
 -1      1112-6.76822E+00 4.50757E-02 5.57567E-03-3.11568E-02 8.41799E-02 1.67768E-01
 -1      1113-6.71713E+00 6.03889E-02 1.28441E-02-3.71294E-02 1.01339E-01 1.62583E-01
 -1      1114-3.99596E+00 3.84771E-02-8.54356E-03-2.77737E-02 7.52575E-02 2.38014E-01
 -1      1115-6.67814E+00 7.12114E-02 1.98307E-02-3.84797E-02 1.24903E-01 1.49236E-01
 -1      1116-6.60759E+00 8.76863E-02 3.02150E-02-4.31828E-02 1.46424E-01 1.45284E-01
 -1      1117-3.95729E+00 6.14107E-02 4.70378E-03-3.25712E-02 1.16894E-01 2.00826E-01
 -1      1118-6.55662E+00 1.04240E-01 4.26893E-02-4.25050E-02 1.73811E-01 1.30799E-01
 -1      1119-6.49624E+00 1.12784E-01 4.56387E-02-3.12586E-02 1.95643E-01 1.24455E-01
 -1      1120-3.86742E+00 9.15347E-02 1.93166E-02-3.70426E-02 1.65025E-01 1.70926E-01
 -1      1121-6.41400E+00 1.34768E-01 6.27996E-02-3.16970E-02 2.24978E-01 1.09856E-01
 -1      1122-6.34171E+00 1.47176E-01 6.74321E-02-3.36814E-02 2.52229E-01 1.06460E-01
 -1      1123-3.76468E+00 1.25416E-01 4.00802E-02-2.70305E-02 2.15821E-01 1.45782E-01
 -1      1124-6.26115E+00 1.73774E-01 8.66259E-02-3.32896E-02 2.83040E-01 9.40968E-02
 -1      1125-6.18726E+00 1.87296E-01 8.95149E-02-5.03203E-02 3.14967E-01 9.28533E-02
 -1      1126-3.63892E+00 1.68038E-01 6.78155E-02-2.42549E-02 2.72473E-01 1.09459E-01
 -1      1127-6.10821E+00 2.12208E-01 1.12104E-01-5.52226E-02 3.45478E-01 7.93514E-02
 -1      1128-6.00711E+00 2.31302E-01 1.19207E-01-5.67434E-02 3.80100E-01 7.07128E-02
 -1      1129-3.54751E+00 2.01881E-01 9.82943E-02-3.41667E-02 3.33824E-01 7.11132E-02
 -1      1130-5.92712E+00 2.51632E-01 1.36160E-01-5.81962E-02 4.10862E-01 5.70210E-02
 -1      1131-5.81777E+00 2.69409E-01 1.45863E-01-5.43336E-02 4.44653E-01 4.89664E-02
 -1      1132-3.42563E+00 2.41307E-01 1.19019E-01-4.08072E-02 3.98327E-01 3.87834E-02
 -1      1133-5.73165E+00 2.95456E-01 1.63181E-01-5.39734E-02 4.80378E-01 3.37098E-02
 -1      1134-5.61010E+00 3.13175E-01 1.74730E-01-5.61172E-02 5.16468E-01 2.75213E-02
 -1      1135-3.29177E+00 2.82396E-01 1.42022E-01-3.82003E-02 4.66495E-01 1.01507E-02
 -1      1136-5.51947E+00 3.43317E-01 1.89840E-01-5.56818E-02 5.53434E-01 1.37100E-02
 -1      1137-5.38788E+00 3.63636E-01 2.02753E-01-6.34209E-02 5.90248E-01 1.02562E-02
 -1      1138-3.14626E+00 3.30925E-01 1.71401E-01-3.64288E-02 5.38196E-01-2.57308E-02
 -1      1139-5.31445E+00 3.84279E-01 2.21229E-01-6.74132E-02 6.26491E-01-5.77318E-03
 -1      1140-5.16796E+00 4.10647E-01 2.34772E-01-6.92028E-02 6.61970E-01-1.38506E-02
 -1      1141-3.02492E+00 3.66991E-01 2.04565E-01-3.91951E-02 6.06810E-01-6.10329E-02
 -1      1142-5.07076E+00 4.32411E-01 2.50386E-01-6.56038E-02 7.01550E-01-2.80239E-02
 -1      1143-4.91698E+00 4.54812E-01 2.62046E-01-6.74023E-02 7.37307E-01-3.51711E-02
 -1      1144-2.87030E+00 4.14032E-01 2.24560E-01-4.12600E-02 6.83848E-01-9.36849E-02
 -1      1145-4.83753E+00 4.78755E-01 2.81263E-01-6.95419E-02 7.75380E-01-4.81490E-02
 -1      1146-4.68250E+00 5.02535E-01 2.87712E-01-6.61816E-02 8.10789E-01-5.85029E-02
 -1      1147-2.71417E+00 4.58304E-01 2.62021E-01-3.92449E-02 7.52371E-01-1.26714E-01
 -1      1148-4.56198E+00 5.18818E-01 3.04048E-01-6.94195E-02 8.44807E-01-7.34305E-02
 -1      1149-4.39609E+00 5.42019E-01 3.18690E-01-6.99433E-02 8.83379E-01-8.43927E-02
 -1      1150-2.53826E+00 5.08347E-01 2.90077E-01-4.02023E-02 8.28261E-01-1.61015E-01
 -1      1151-4.29499E+00 5.68649E-01 3.33781E-01-6.90255E-02 9.19544E-01-9.61968E-02
 -1      1152-4.11673E+00 5.89150E-01 3.48995E-01-7.06363E-02 9.57201E-01-1.05396E-01
 -1      1153-2.33737E+00 5.52744E-01 3.16173E-01-4.21479E-02 9.02326E-01-1.93877E-01
 -1      1154-4.01476E+00 6.18271E-01 3.61991E-01-6.85249E-02 9.93202E-01-1.17965E-01
 -1      1155-3.83555E+00 6.37543E-01 3.72322E-01-6.45080E-02 1.02822E+00-1.25452E-01
 -1      1156-2.15710E+00 5.98216E-01 3.43543E-01-4.14707E-02 9.76238E-01-2.25096E-01
 -1      1157-3.72389E+00 6.56429E-01 3.89393E-01-6.52955E-02 1.06133E+00-1.42062E-01
 -1      1158-3.54579E+00 6.79336E-01 3.97302E-01-6.26528E-02 1.09484E+00-1.50577E-01
 -1      1159-1.97208E+00 6.44979E-01 3.80900E-01-3.74016E-02 1.04130E+00-2.55616E-01
 -1      1160-3.43170E+00 6.95073E-01 4.10919E-01-6.64096E-02 1.12646E+00-1.65179E-01
 -1      1161-3.24115E+00 7.19009E-01 4.27891E-01-6.74259E-02 1.16243E+00-1.74469E-01
 -1      1162-1.78212E+00 6.85995E-01 3.99130E-01-3.90861E-02 1.10931E+00-2.89006E-01
 -1      1163-3.13141E+00 7.36276E-01 4.42831E-01-6.10101E-02 1.19319E+00-1.83489E-01
 -1      1164-2.93329E+00 7.53273E-01 4.51102E-01-6.60884E-02 1.22362E+00-1.92769E-01
 -1      1165-1.58513E+00 7.21575E-01 4.20636E-01-3.80262E-02 1.17510E+00-3.16178E-01
 -1      1166-2.82764E+00 7.75024E-01 4.62642E-01-6.59126E-02 1.25431E+00-2.03886E-01
 -1      1167-2.61881E+00 7.93277E-01 4.77470E-01-6.60214E-02 1.28523E+00-2.13315E-01
 -1      1168-1.39398E+00 7.60382E-01 4.49907E-01-3.70770E-02 1.23783E+00-3.44767E-01
 -1      1169-2.51449E+00 8.12146E-01 4.83875E-01-6.41990E-02 1.31166E+00-2.23802E-01
 -1      1170-2.30062E+00 8.28524E-01 4.99166E-01-6.31183E-02 1.34029E+00-2.32878E-01
 -1      1171-1.19293E+00 7.95420E-01 4.70844E-01-3.73917E-02 1.29730E+00-3.71709E-01
 -1      1172-2.19838E+00 8.43321E-01 5.04957E-01-6.07730E-02 1.36470E+00-2.43437E-01
 -1      1173-1.98373E+00 8.57525E-01 5.18833E-01-6.15015E-02 1.39400E+00-2.54581E-01
 -1      1174-9.92292E-01 8.29683E-01 4.92559E-01-3.43564E-02 1.35003E+00-3.97975E-01
 -1      1175-1.88013E+00 8.83031E-01 5.20955E-01-5.92182E-02 1.41833E+00-2.61830E-01
 -1      1176-1.65750E+00 8.94904E-01 5.29858E-01-4.41946E-02 1.43884E+00-2.66783E-01
 -1      1177-7.96479E-01 8.63851E-01 5.10523E-01-3.76709E-02 1.40440E+00-4.18429E-01
 -1      1178-1.54451E+00 9.01234E-01 5.42202E-01-4.60611E-02 1.45969E+00-2.83628E-01
 -1      1179-1.34408E+00 9.17111E-01 5.44771E-01-4.43425E-02 1.48026E+00-2.91415E-01
 -1      1180-5.81321E-01 8.96461E-01 5.42061E-01-2.50427E-02 1.44259E+00-4.36814E-01
 -1      1181-1.22310E+00 9.28361E-01 5.57811E-01-3.93306E-02 1.49855E+00-2.98149E-01
 -1      1182-1.01488E+00 9.38284E-01 5.60190E-01-3.64059E-02 1.51734E+00-3.07101E-01
 -1      1183-3.86792E-01 9.22626E-01 5.41967E-01-2.45511E-02 1.49015E+00-4.59213E-01
 -1      1184-8.91175E-01 9.47411E-01 5.65565E-01-4.19909E-02 1.53308E+00-3.16660E-01
 -1      1185-6.79222E-01 9.60997E-01 5.75109E-01-3.50390E-02 1.55249E+00-3.24182E-01
 -1      1186-1.77904E-01 9.42716E-01 5.68648E-01-2.46100E-02 1.51917E+00-4.80778E-01
 -1      1187-5.62524E-01 9.66201E-01 5.89560E-01-3.14299E-02 1.56674E+00-3.23775E-01
 -1      1188-3.57410E-01 9.76422E-01 5.83645E-01-2.82307E-02 1.57572E+00-3.31742E-01
 -1      1189 2.94436E-02 9.56652E-01 5.80920E-01-2.02274E-02 1.54673E+00-4.96599E-01
 -1      1190-2.38775E-01 9.82998E-01 5.92691E-01-2.51948E-02 1.58780E+00-3.39242E-01
 -1      1191-3.15600E-02 9.86046E-01 5.91072E-01-2.19894E-02 1.59804E+00-3.44936E-01
 -1      1192 2.14990E-01 9.79414E-01 5.77595E-01-1.28433E-02 1.58441E+00-5.06970E-01
 -1      1193 8.64218E-02 9.89314E-01 5.94092E-01-2.53614E-02 1.60724E+00-3.49782E-01
 -1      1194 2.96181E-01 9.96925E-01 5.92787E-01-2.14771E-02 1.61394E+00-3.51036E-01
 -1      1195 4.20329E-01 9.89945E-01 6.01700E-01-1.15575E-02 1.59539E+00-5.22471E-01
 -1      1196 4.30725E-01 9.95821E-01 5.92621E-01-1.88126E-02 1.62050E+00-3.54334E-01
 -1      1197 6.25908E-01 1.00538E+00 5.97150E-01-1.26721E-02 1.62283E+00-3.48290E-01
 -1      1198 6.29465E-01 9.98195E-01 5.81467E-01-1.21254E-02 1.61466E+00-5.31720E-01
 -1      1199 8.14198E-01 9.96146E-01 5.77991E-01-1.60412E-02 1.62250E+00-4.76075E-01
 -1      1200 9.30871E+00-2.82132E-02-2.42652E-02 8.33249E-02-7.83898E-03 3.52208E-01
 -1      1201 8.96202E+00 1.49237E-03-3.58472E-02 3.86751E-02 2.46361E-02 4.72477E-01
 -1      1202 7.28213E+00-5.19229E-03-1.55397E-01 1.08833E-01-4.97453E-02 7.02457E-01
 -1      1203 9.52599E+00 2.71947E-02 3.62064E-02 4.17629E-02 3.36938E-02 2.23991E-01
 -1      1204 9.41710E+00 1.53120E-02 1.04269E-02 3.44275E-02 1.62186E-02 2.59205E-01
 -1      1205 6.60926E+00 2.53059E-02-7.23239E-04 6.66126E-02 3.95932E-03 4.44600E-01
 -1      1206 9.54333E+00 5.00952E-02 5.38351E-02 1.97284E-02 6.08795E-02 1.81191E-01
 -1      1207 9.51975E+00 3.08226E-02 3.59972E-02 3.45001E-02 5.03829E-02 1.89578E-01
 -1      1208 6.73740E+00 3.68070E-02 4.40549E-02 5.33711E-02 4.57958E-02 3.02663E-01
 -1      1209 9.55185E+00 8.02243E-02 7.07871E-02 4.75963E-02 1.01135E-01 1.57628E-01
 -1      1210 9.56081E+00 6.23624E-02 5.16243E-02 1.95296E-02 7.96372E-02 1.57129E-01
 -1      1211 6.79793E+00 5.92224E-02 6.76808E-02 2.66989E-02 7.37201E-02 2.47162E-01
 -1      1212 9.46346E+00 1.00547E-01 8.52289E-02 4.23936E-02 1.46035E-01 1.37920E-01
 -1      1213 9.50687E+00 8.29823E-02 7.19346E-02 5.44865E-02 1.26005E-01 1.44103E-01
 -1      1214 6.81796E+00 8.38204E-02 8.16657E-02 5.25849E-02 1.17332E-01 2.01639E-01
 -1      1215 9.32815E+00 1.35099E-01 1.05584E-01 6.41374E-02 1.98232E-01 1.26921E-01
 -1      1216 9.36019E+00 1.12022E-01 8.67331E-02 3.91929E-02 1.70928E-01 1.25187E-01
 -1      1217 6.68599E+00 9.84835E-02 9.45093E-02 3.85404E-02 1.64990E-01 1.74171E-01
 -1      1218 9.19957E+00 1.63488E-01 1.18194E-01 7.37485E-02 2.55313E-01 1.07956E-01
 -1      1219 9.27244E+00 1.45032E-01 1.04388E-01 6.88979E-02 2.24436E-01 1.14291E-01
 -1      1220 6.60990E+00 1.38745E-01 1.08176E-01 5.36857E-02 2.16015E-01 1.34642E-01
 -1      1221 9.07651E+00 2.02599E-01 1.37796E-01 6.17108E-02 3.11338E-01 8.85374E-02
 -1      1222 9.14068E+00 1.74841E-01 1.18765E-01 7.24745E-02 2.83837E-01 9.62433E-02
 -1      1223 6.51186E+00 1.63105E-01 1.27319E-01 5.73113E-02 2.75909E-01 1.04366E-01
 -1      1224 8.92216E+00 2.40457E-01 1.59550E-01 7.35881E-02 3.76352E-01 6.50916E-02
 -1      1225 9.00418E+00 2.16072E-01 1.40164E-01 6.58755E-02 3.42095E-01 6.92504E-02
 -1      1226 6.45954E+00 2.15948E-01 1.55739E-01 5.09283E-02 3.30336E-01 7.56421E-02
 -1      1227 8.75353E+00 2.76334E-01 1.83985E-01 8.85237E-02 4.47241E-01 4.75242E-02
 -1      1228 8.84717E+00 2.56684E-01 1.64685E-01 7.51457E-02 4.09664E-01 4.92071E-02
 -1      1229 6.34594E+00 2.50657E-01 1.73918E-01 6.17340E-02 3.96626E-01 4.35292E-02
 -1      1230 8.56480E+00 3.17420E-01 2.03818E-01 9.32961E-02 5.18164E-01 2.82123E-02
 -1      1231 8.68316E+00 2.97588E-01 1.92026E-01 8.72169E-02 4.80401E-01 3.34485E-02
 -1      1232 6.23089E+00 2.81873E-01 1.95952E-01 7.25858E-02 4.69615E-01 5.80675E-03
 -1      1233 8.37297E+00 3.64789E-01 2.26699E-01 8.39866E-02 5.85597E-01 6.73305E-03
 -1      1234 8.49527E+00 3.38304E-01 2.11216E-01 9.06471E-02 5.53725E-01 1.66965E-02
 -1      1235 6.11470E+00 3.28220E-01 2.21482E-01 6.66974E-02 5.37781E-01-2.73279E-02
 -1      1236 8.20006E+00 4.01600E-01 2.54066E-01 9.32058E-02 6.63520E-01-1.58928E-02
 -1      1237 8.33178E+00 3.80467E-01 2.37799E-01 8.67269E-02 6.20606E-01-1.16935E-02
 -1      1238 6.04705E+00 3.79038E-01 2.46942E-01 6.26266E-02 6.03811E-01-5.87253E-02
 -1      1239 7.97224E+00 4.47048E-01 2.77173E-01 9.38437E-02 7.35538E-01-3.81790E-02
 -1      1240 8.11761E+00 4.25648E-01 2.62093E-01 9.67372E-02 6.99665E-01-2.64887E-02
 -1      1241 5.94435E+00 4.19322E-01 2.66954E-01 7.15138E-02 6.80349E-01-9.08050E-02
 -1      1242 7.70646E+00 4.92179E-01 3.01037E-01 9.23257E-02 8.12192E-01-6.16489E-02
 -1      1243 7.86706E+00 4.67231E-01 2.88649E-01 9.20343E-02 7.71358E-01-5.29003E-02
 -1      1244 5.77528E+00 4.57571E-01 2.92652E-01 6.88365E-02 7.56650E-01-1.23980E-01
 -1      1245 7.42164E+00 5.30469E-01 3.29169E-01 9.14014E-02 8.85896E-01-7.96515E-02
 -1      1246 7.58974E+00 5.06281E-01 3.17316E-01 8.99105E-02 8.47328E-01-7.58663E-02
 -1      1247 5.57483E+00 4.98265E-01 3.17892E-01 6.62389E-02 8.31345E-01-1.58027E-01
 -1      1248 7.13347E+00 5.75451E-01 3.55174E-01 9.06406E-02 9.55947E-01-1.04705E-01
 -1      1249 7.30697E+00 5.54381E-01 3.35758E-01 9.23455E-02 9.21508E-01-9.53360E-02
 -1      1250 5.37418E+00 5.51209E-01 3.36861E-01 6.13938E-02 8.99011E-01-1.90377E-01
 -1      1251 6.84114E+00 6.20376E-01 3.77953E-01 8.61649E-02 1.02700E+00-1.27167E-01
 -1      1252 7.02380E+00 5.96672E-01 3.61738E-01 8.68271E-02 9.90301E-01-1.17114E-01
 -1      1253 5.16780E+00 5.84725E-01 3.71786E-01 5.99776E-02 9.76412E-01-2.23465E-01
 -1      1254 6.53162E+00 6.56514E-01 3.99284E-01 8.80518E-02 1.09800E+00-1.51073E-01
 -1      1255 6.72322E+00 6.38289E-01 3.90428E-01 9.00035E-02 1.05998E+00-1.43634E-01
 -1      1256 4.97653E+00 6.30927E-01 3.86623E-01 5.91587E-02 1.04005E+00-2.57546E-01
 -1      1257 6.20894E+00 7.00196E-01 4.20756E-01 8.42818E-02 1.16159E+00-1.71982E-01
 -1      1258 6.41580E+00 6.79917E-01 4.06660E-01 8.18988E-02 1.12779E+00-1.60533E-01
 -1      1259 4.76409E+00 6.72712E-01 4.15649E-01 5.81265E-02 1.11169E+00-2.82726E-01
 -1      1260 5.87415E+00 7.32329E-01 4.46820E-01 7.54564E-02 1.22578E+00-1.89419E-01
 -1      1261 6.08724E+00 7.11048E-01 4.33926E-01 8.09281E-02 1.19324E+00-1.83917E-01
 -1      1262 4.55095E+00 7.10350E-01 4.36453E-01 5.53888E-02 1.17749E+00-3.12326E-01
 -1      1263 5.52424E+00 7.73882E-01 4.63087E-01 7.54071E-02 1.28255E+00-2.13789E-01
 -1      1264 5.75125E+00 7.54861E-01 4.56026E-01 7.90351E-02 1.25122E+00-2.03692E-01
 -1      1265 4.32429E+00 7.45331E-01 4.50614E-01 4.99210E-02 1.23457E+00-3.39508E-01
 -1      1266 5.16616E+00 8.00075E-01 4.80700E-01 7.06206E-02 1.34085E+00-2.31805E-01
 -1      1267 5.39188E+00 7.88321E-01 4.72282E-01 7.22118E-02 1.30806E+00-2.25524E-01
 -1      1268 4.08268E+00 7.83458E-01 4.75445E-01 4.65328E-02 1.29109E+00-3.69366E-01
 -1      1269 4.79196E+00 8.31314E-01 5.02682E-01 6.00625E-02 1.39227E+00-2.49058E-01
 -1      1270 5.03443E+00 8.12980E-01 4.91019E-01 6.77194E-02 1.36536E+00-2.41730E-01
 -1      1271 3.84111E+00 8.14561E-01 4.96492E-01 4.27250E-02 1.35223E+00-3.92944E-01
 -1      1272 4.41756E+00 8.63509E-01 5.15339E-01 5.84112E-02 1.43864E+00-2.71901E-01
 -1      1273 4.65584E+00 8.54005E-01 5.10473E-01 6.09072E-02 1.41074E+00-2.60159E-01
 -1      1274 3.58721E+00 8.46353E-01 5.08408E-01 3.63102E-02 1.39745E+00-4.12876E-01
 -1      1275 4.01729E+00 8.86456E-01 5.27433E-01 5.31675E-02 1.48309E+00-2.86045E-01
 -1      1276 4.27347E+00 8.73746E-01 5.24057E-01 5.49991E-02 1.45775E+00-2.77026E-01
 -1      1277 3.31902E+00 8.71182E-01 5.24959E-01 3.44086E-02 1.44566E+00-4.38150E-01
 -1      1278 3.61186E+00 9.10354E-01 5.40479E-01 4.56352E-02 1.51742E+00-2.96842E-01
 -1      1279 3.87763E+00 8.96027E-01 5.41230E-01 5.00983E-02 1.49828E+00-2.91757E-01
 -1      1280 3.05019E+00 8.96188E-01 5.40181E-01 3.09465E-02 1.48885E+00-4.55852E-01
 -1      1281 3.20516E+00 9.24289E-01 5.58265E-01 2.97023E-02 1.55223E+00-3.13442E-01
 -1      1282 3.46474E+00 9.15992E-01 5.48485E-01 4.29866E-02 1.53210E+00-3.09798E-01
 -1      1283 2.77059E+00 9.18096E-01 5.50779E-01 2.59383E-02 1.51847E+00-4.74823E-01
 -1      1284 2.79587E+00 9.45425E-01 5.62649E-01 3.03978E-02 1.57730E+00-3.30377E-01
 -1      1285 3.05515E+00 9.44883E-01 5.62427E-01 3.25220E-02 1.55972E+00-3.20399E-01
 -1      1286 2.48932E+00 9.39381E-01 5.59511E-01 1.47376E-02 1.55018E+00-4.88467E-01
 -1      1287 2.36039E+00 9.58931E-01 5.68469E-01 2.33833E-02 1.59917E+00-3.37691E-01
 -1      1288 2.63890E+00 9.49822E-01 5.70707E-01 2.65599E-02 1.58614E+00-3.31562E-01
 -1      1289 2.19461E+00 9.51799E-01 5.72467E-01 1.39857E-02 1.57918E+00-5.06374E-01
 -1      1290 1.93950E+00 9.67825E-01 5.77987E-01 1.52294E-02 1.61421E+00-3.41238E-01
 -1      1291 2.21384E+00 9.62708E-01 5.78543E-01 1.99360E-02 1.60336E+00-3.41433E-01
 -1      1292 1.90880E+00 9.64642E-01 5.79455E-01 7.48890E-03 1.59574E+00-5.16457E-01
 -1      1293 1.49803E+00 9.71926E-01 5.92071E-01 1.39367E-03 1.62511E+00-3.42236E-01
 -1      1294 1.74969E+00 9.68054E-01 5.89690E-01 1.13989E-02 1.61932E+00-3.48630E-01
 -1      1295 1.58520E+00 9.72751E-01 5.91630E-01 8.18077E-04 1.61369E+00-5.26105E-01
 -1      1296 1.30451E+00 9.85910E-01 6.07040E-01 1.38709E-03 1.62122E+00-4.69542E-01
 -1      1297 1.66569E-01 8.17482E-01 4.85613E-01-9.29614E-03 1.33447E+00-4.41906E-01
 -1      1298 2.66139E-01 8.37377E-01 4.98421E-01-9.81484E-03 1.36002E+00-4.52822E-01
 -1      1299 7.88454E-02 7.83000E-01 4.68187E-01-1.03768E-02 1.28092E+00-4.14337E-01
 -1      1300 1.71482E-01 8.03750E-01 4.80336E-01-1.02577E-02 1.30787E+00-4.26640E-01
 -1      1301 1.43794E+00 8.10351E-01 4.84484E-01 5.96168E-03 1.31933E+00-4.75120E-01
 -1      1302 4.19743E-01 8.99493E-01 5.34000E-01-1.88038E-02 1.47335E+00-5.13221E-01
 -1      1303 5.32504E-01 9.18642E-01 5.52682E-01-1.75916E-02 1.49217E+00-5.07198E-01
 -1      1304 4.94090E-01 9.24851E-01 5.46784E-01-2.04320E-02 1.51132E+00-5.23697E-01
 -1      1305 6.18511E-01 9.43732E-01 5.71662E-01-1.57513E-02 1.52676E+00-5.39468E-01
 -1      1306 1.30860E+00 9.17701E-01 5.43804E-01-5.19325E-03 1.50063E+00-5.62448E-01
 -1      1307 1.46082E+00 9.71352E-01 5.77714E-01-6.34456E-03 1.60503E+00-5.82621E-01
 -1      1308 1.60665E+00 9.68150E-01 5.78200E-01-3.55608E-03 1.59007E+00-5.77399E-01
 -1      1309 1.13267E+00 9.81555E-01 5.84973E-01-9.05604E-03 1.60301E+00-6.39534E-01
 -1      1310 1.43366E+00 9.77869E-01 5.90266E-01-7.77748E-03 1.60614E+00-5.87181E-01
 -1      1311 1.26427E+00 9.80493E-01 5.99326E-01-1.10341E-02 1.61659E+00-5.94644E-01
 -1      1312-1.92389E-01 6.66843E-01 3.93608E-01-1.64275E-02 1.09106E+00-3.20945E-01
 -1      1313-9.61754E-02 6.92493E-01 4.09438E-01-1.48180E-02 1.12106E+00-3.36348E-01
 -1      1314-2.79648E-01 6.25588E-01 3.73509E-01-1.28713E-02 1.02631E+00-2.85214E-01
 -1      1315-1.83314E-01 6.51192E-01 3.88897E-01-1.45484E-02 1.05737E+00-3.03979E-01
 -1      1316 1.49490E+00 6.58374E-01 3.93349E-01 9.15788E-03 1.07645E+00-3.49115E-01
 -1      1317-9.99340E-02 7.05733E-01 4.16730E-01-1.56418E-02 1.15868E+00-3.52535E-01
 -1      1318-6.81943E-03 7.30593E-01 4.33726E-01-1.52346E-02 1.18886E+00-3.66775E-01
 -1      1319-1.50481E-02 7.45618E-01 4.46540E-01-8.56036E-03 1.22322E+00-3.85725E-01
 -1      1320 8.97058E-02 7.69845E-01 4.64241E-01-1.17123E-02 1.25155E+00-3.97772E-01
 -1      1321 1.46865E+00 7.39663E-01 4.36498E-01 6.13848E-03 1.20690E+00-4.12478E-01
 -1      1322 2.52421E-01 8.47056E-01 5.07771E-01-1.21468E-02 1.38793E+00-4.68848E-01
 -1      1323 3.44560E-01 8.65544E-01 5.21788E-01-1.21611E-02 1.41788E+00-4.78092E-01
 -1      1324 3.50963E-01 8.80322E-01 5.26238E-01-1.99508E-02 1.43147E+00-4.80246E-01
 -1      1325 4.45695E-01 8.94496E-01 5.32853E-01-1.27214E-02 1.44676E+00-4.97998E-01
 -1      1326 1.38949E+00 8.62212E-01 5.24360E-01 1.84264E-03 1.42202E+00-5.20897E-01
 -1      1327 1.63149E+00 9.58486E-01 5.80780E-01-2.47279E-03 1.58096E+00-5.61666E-01
 -1      1328 1.76883E+00 9.53525E-01 5.78982E-01 1.50870E-03 1.56971E+00-5.63819E-01
 -1      1329 1.79840E+00 9.42440E-01 5.65926E-01 3.04722E-03 1.55446E+00-5.54310E-01
 -1      1330 1.94404E+00 9.37906E-01 5.62715E-01 5.66069E-03 1.54361E+00-5.45067E-01
 -1      1331 1.22514E+00 9.50902E-01 5.73024E-01-7.31456E-03 1.56192E+00-6.09699E-01
 -1      1332 3.38530E+00 5.60612E-01 3.42456E-01 3.64641E-02 9.16294E-01-2.35774E-01
 -1      1333 3.49383E+00 5.41263E-01 3.29269E-01 3.33719E-02 8.82921E-01-2.09616E-01
 -1      1334 3.29310E+00 6.02545E-01 3.67610E-01 3.33634E-02 9.89268E-01-2.62526E-01
 -1      1335 3.38561E+00 5.81778E-01 3.55117E-01 3.71306E-02 9.56494E-01-2.52558E-01
 -1      1336 1.50608E+00 5.74458E-01 3.41624E-01 7.71220E-03 9.37412E-01-2.77277E-01
 -1      1337-1.28701E+00 5.91512E-02 1.83125E-02-5.87607E-03 1.09450E-01 2.37158E-01
 -1      1338-1.24681E+00 7.37160E-02 2.65536E-02-1.11490E-02 1.28463E-01 2.18110E-01
 -1      1339 1.41194E+00 8.34104E-02 4.83630E-02 8.46489E-03 1.42210E-01 2.03779E-01
 -1      1340-1.24761E+00 8.56766E-02 3.26550E-02-9.03278E-03 1.51647E-01 1.98774E-01
 -1      1341-1.19764E+00 1.03953E-01 4.33617E-02-1.59188E-02 1.75982E-01 1.83629E-01
 -1      1342-1.12875E+00 1.57491E-01 8.09002E-02-1.05182E-02 2.56078E-01 1.24679E-01
 -1      1343-1.07984E+00 1.74613E-01 9.39315E-02-7.67035E-03 2.89157E-01 1.01966E-01
 -1      1344-1.19064E+00 1.20658E-01 5.79692E-02-1.20972E-02 2.03989E-01 1.64316E-01
 -1      1345-1.14853E+00 1.35827E-01 6.84465E-02-1.45087E-02 2.30914E-01 1.44583E-01
 -1      1346 1.42798E+00 1.50452E-01 8.65803E-02 1.21901E-02 2.46852E-01 1.22476E-01
 -1      1347 4.05691E+00 3.61049E-02 3.60056E-02 2.31703E-02 4.96904E-02 3.14133E-01
 -1      1348 4.06470E+00 3.92155E-02 2.54629E-02 2.75460E-02 2.70746E-02 3.61581E-01
 -1      1349 4.06385E+00 4.22666E-02 4.19344E-02 2.13360E-02 6.83498E-02 2.84419E-01
 -1      1350 1.37777E+00 3.35072E-02 2.23821E-02 8.07387E-03 6.10605E-02 3.01777E-01
 -1      1351 4.10906E+00 5.94465E-02 4.97726E-02 2.69823E-02 8.94264E-02 2.59705E-01
 -1      1352-8.66744E-01 3.16574E-01 1.77782E-01-1.26429E-02 5.17470E-01-3.16059E-02
 -1      1353-7.99946E-01 3.39265E-01 1.94512E-01-1.11287E-02 5.57605E-01-5.14463E-02
 -1      1354-9.36385E-01 2.73351E-01 1.49779E-01-1.39126E-02 4.48176E-01 8.37518E-03
 -1      1355-8.79725E-01 2.93781E-01 1.62603E-01-1.41053E-02 4.83466E-01-1.07697E-02
 -1      1356 1.47808E+00 3.08635E-01 1.82551E-01 1.23453E-02 5.03591E-01-4.11789E-02
 -1      1357-7.03712E-01 4.02727E-01 2.30995E-01-1.33918E-02 6.66362E-01-1.07245E-01
 -1      1358-6.15630E-01 4.29081E-01 2.51931E-01-1.59825E-02 7.01240E-01-1.23540E-01
 -1      1359 1.54515E+00 4.37239E-01 2.67302E-01 1.20018E-02 7.19689E-01-1.61753E-01
 -1      1360-6.24033E-01 4.48924E-01 2.57699E-01-1.32160E-02 7.36515E-01-1.41616E-01
 -1      1361-5.42877E-01 4.77359E-01 2.77361E-01-1.43900E-02 7.71518E-01-1.64752E-01
 -1      1362-1.08016E+00 1.87640E-01 9.90630E-02-2.41818E-03 3.20717E-01 8.43160E-02
 -1      1363-1.01194E+00 2.11696E-01 1.14206E-01-9.99854E-03 3.47818E-01 6.49461E-02
 -1      1364-1.01184E+00 2.28835E-01 1.22961E-01-9.88496E-03 3.83114E-01 4.47462E-02
 -1      1365-9.46199E-01 2.52818E-01 1.36387E-01-1.59873E-02 4.12919E-01 2.87922E-02
 -1      1366 1.45652E+00 2.25219E-01 1.33033E-01 1.26741E-02 3.68763E-01 4.18673E-02
 -1      1367 4.02204E+00 2.81072E-02 2.29995E-02 3.88399E-02-7.84577E-03 4.35503E-01
 -1      1368 3.96478E+00 1.25742E-02-4.36485E-05 4.08507E-02-3.20333E-02 5.38541E-01
 -1      1369 1.37593E+00 4.16459E-03 4.67041E-02 1.07616E-02-6.47727E-02 5.42434E-01
 -1      1370 3.95588E+00-2.72913E-02 4.34169E-03 7.70621E-02-6.97236E-02 6.13270E-01
 -1      1371 2.54896E+00-1.10711E-01 7.14574E-02 1.20348E-01-1.09290E-01 7.74059E-01
 -1      1372 5.05386E+00-1.84943E-01-1.74931E-01 1.05720E-01-1.17856E-01 6.97423E-01
 -1      1373-1.27393E+00 1.96138E-02 1.08653E-02-2.03537E-02 2.58463E-02 3.66894E-01
 -1      1374-1.30290E+00 2.97688E-02 1.57748E-03-7.58516E-03 5.20036E-02 3.10839E-01
 -1      1375 1.36795E+00 2.33374E-02 1.99831E-02 6.66185E-03-2.40956E-04 3.98077E-01
 -1      1376-1.28237E+00 9.03500E-03 1.72062E-02-3.13172E-02-9.13215E-03 4.38142E-01
 -1      1377-1.24125E+00 1.11873E-02 6.20104E-02-2.42349E-02-2.91850E-02 5.54004E-01
 -1      1378 8.11610E-01 9.86007E-01 5.88593E-01-1.53308E-02 1.60990E+00-5.96586E-01
 -1      1379 9.20414E-01 9.94348E-01 5.85204E-01-9.82549E-03 1.61299E+00-5.95947E-01
 -1      1380 1.08616E+00 9.93278E-01 5.85332E-01-9.93282E-03 1.61340E+00-6.45828E-01
 -1      1381 9.11457E-01 9.91706E-01 5.85072E-01-3.48241E-03 1.61533E+00-6.16370E-01
 -1      1382 9.05718E-01 1.00034E+00 5.78476E-01-1.23058E-02 1.62538E+00-5.89418E-01
 -1      1383 1.02664E+00 9.85873E-01 5.93130E-01-1.38626E-03 1.62487E+00-6.56604E-01
 -1      1384 2.56325E+00 8.23772E-01 4.94865E-01 1.87466E-02 1.35994E+00-4.47727E-01
 -1      1385 2.69199E+00 8.12867E-01 4.90597E-01 2.11316E-02 1.33606E+00-4.39540E-01
 -1      1386 2.42468E+00 8.51018E-01 5.15191E-01 1.73865E-02 1.40682E+00-4.70230E-01
 -1      1387 2.56300E+00 8.46312E-01 5.14344E-01 2.13511E-02 1.38469E+00-4.58748E-01
 -1      1388 1.40864E+00 8.42187E-01 5.05437E-01 1.15719E-03 1.37326E+00-5.01704E-01
 -1      1389-4.54485E-01 5.39274E-01 3.18617E-01-1.07121E-02 8.85377E-01-2.18576E-01
 -1      1390-3.68715E-01 5.65141E-01 3.36431E-01-1.32068E-02 9.20174E-01-2.35530E-01
 -1      1391-5.64616E-01 4.91635E-01 2.82096E-01-1.45600E-02 8.11309E-01-1.80780E-01
 -1      1392-4.49363E-01 5.21852E-01 3.01056E-01-1.43160E-02 8.43592E-01-1.97330E-01
 -1      1393 1.51403E+00 5.31462E-01 3.13077E-01 1.08207E-02 8.67271E-01-2.35000E-01
 -1      1394 7.47055E-01 9.73648E-01 5.85356E-01-1.35761E-02 1.59198E+00-5.75324E-01
 -1      1395 8.38692E-01 9.80717E-01 5.90828E-01-1.30800E-02 1.59716E+00-5.83674E-01
 -1      1396 6.58310E-01 9.62610E-01 5.70393E-01-1.74079E-02 1.57155E+00-5.71988E-01
 -1      1397 7.61988E-01 9.74291E-01 5.79712E-01-1.13208E-02 1.58597E+00-5.68947E-01
 -1      1398 1.19123E+00 9.64389E-01 5.87974E-01-7.36899E-03 1.58479E+00-6.09199E-01
 -1      1399 3.07324E+00 6.81044E-01 4.12398E-01 3.17809E-02 1.12812E+00-3.33847E-01
 -1      1400 3.18099E+00 6.67240E-01 4.03327E-01 3.10779E-02 1.09549E+00-3.18266E-01
 -1      1401 2.95997E+00 7.22955E-01 4.37170E-01 2.69740E-02 1.19428E+00-3.67182E-01
 -1      1402 3.07094E+00 7.03875E-01 4.28051E-01 2.97914E-02 1.15685E+00-3.54336E-01
 -1      1403 1.48869E+00 6.95089E-01 4.19517E-01 7.84720E-03 1.14072E+00-3.83017E-01
 -1      1404 2.12654E+00 9.05851E-01 5.48212E-01 9.71186E-03 1.49779E+00-5.16596E-01
 -1      1405 2.25937E+00 8.96092E-01 5.43606E-01 1.16484E-02 1.47348E+00-5.12778E-01
 -1      1406 2.27194E+00 8.80065E-01 5.22849E-01 1.24909E-02 1.45606E+00-4.95349E-01
 -1      1407 2.40891E+00 8.70258E-01 5.22030E-01 1.06541E-02 1.43550E+00-4.88616E-01
 -1      1408 1.34737E+00 8.90399E-01 5.37298E-01 1.24918E-03 1.46219E+00-5.50808E-01
 -1      1409 2.83224E+00 7.58111E-01 4.55730E-01 2.39949E-02 1.24755E+00-3.93766E-01
 -1      1410 2.95191E+00 7.44220E-01 4.48098E-01 2.71209E-02 1.21958E+00-3.76316E-01
 -1      1411 2.70685E+00 7.94361E-01 4.79967E-01 1.93525E-02 1.30460E+00-4.26124E-01
 -1      1412 2.82403E+00 7.79708E-01 4.72100E-01 2.44871E-02 1.27752E+00-4.07749E-01
 -1      1413 1.46075E+00 7.76288E-01 4.62176E-01 4.35206E-03 1.26378E+00-4.43816E-01
 -1      1414 3.99306E+00 1.44803E-01 9.74140E-02 3.11558E-02 2.28939E-01 1.38166E-01
 -1      1415 4.04044E+00 1.34682E-01 9.09227E-02 1.86236E-02 2.05982E-01 1.58168E-01
 -1      1416 4.01478E+00 1.07561E-01 7.58323E-02 2.61220E-02 1.77576E-01 1.76346E-01
 -1      1417 4.08767E+00 9.03709E-02 6.98209E-02 3.14623E-02 1.50201E-01 2.00082E-01
 -1      1418 1.42562E+00 1.19431E-01 7.00263E-02 8.88876E-03 1.93076E-01 1.67509E-01
 -1      1419 3.76827E+00 3.38124E-01 2.12402E-01 3.46618E-02 5.55549E-01-4.80468E-02
 -1      1420 3.83353E+00 3.18274E-01 2.01455E-01 3.74024E-02 5.19330E-01-3.08509E-02
 -1      1421 3.75206E+00 3.82229E-01 2.36618E-01 4.09413E-02 6.28969E-01-8.89514E-02
 -1      1422 3.77516E+00 3.61867E-01 2.27709E-01 3.40151E-02 5.88162E-01-7.11494E-02
 -1      1423 1.48920E+00 3.45327E-01 2.10982E-01 1.29237E-02 5.75546E-01-7.49119E-02
 -1      1424 3.50022E+00 5.12179E-01 3.09127E-01 3.58500E-02 8.52283E-01-2.00065E-01
 -1      1425 3.59891E+00 4.92485E-01 3.01280E-01 3.82835E-02 8.09122E-01-1.81374E-01
 -1      1426 1.53371E+00 4.80924E-01 2.88227E-01 1.21771E-02 7.92537E-01-2.02731E-01
 -1      1427 3.61398E+00 4.69673E-01 2.86582E-01 4.10326E-02 7.74552E-01-1.60735E-01
 -1      1428 3.69823E+00 4.47280E-01 2.74057E-01 4.14230E-02 7.39034E-01-1.42893E-01
 -1      1429 3.92430E+00 2.16994E-01 1.42850E-01 3.92273E-02 3.52470E-01 6.71567E-02
 -1      1430 3.96986E+00 1.97603E-01 1.33274E-01 2.94664E-02 3.17272E-01 8.13334E-02
 -1      1431 3.95352E+00 1.74489E-01 1.16713E-01 2.56851E-02 2.88299E-01 1.01520E-01
 -1      1432 3.99590E+00 1.60406E-01 1.08176E-01 3.15256E-02 2.58572E-01 1.20446E-01
 -1      1433 1.43656E+00 1.79763E-01 1.09664E-01 1.23971E-02 3.07062E-01 8.65536E-02
 -1      1434 3.82787E+00 2.96162E-01 1.85357E-01 3.86893E-02 4.83456E-01-1.12732E-02
 -1      1435 3.88156E+00 2.79512E-01 1.75052E-01 4.37179E-02 4.49798E-01 9.14568E-03
 -1      1436 3.87962E+00 2.58524E-01 1.65880E-01 4.26655E-02 4.14455E-01 2.84428E-02
 -1      1437 3.92223E+00 2.35904E-01 1.53396E-01 3.94951E-02 3.82775E-01 4.88474E-02
 -1      1438 1.47036E+00 2.66768E-01 1.56718E-01 1.27220E-02 4.33096E-01 1.33106E-03
 -1      1439 6.94748E-02-4.29041E-02 7.88012E-02 4.92643E-02-1.28733E-01 7.63915E-01
 -1      1440-1.19722E+00 3.05332E-02 9.82172E-02-4.99711E-02-7.40215E-02 6.32275E-01
 -1      1441-2.44913E+00 1.04603E-01 2.12798E-01-1.07741E-02-1.45894E-01 8.26651E-01
 -1      1442 1.10996E+00 9.94820E-01 6.00239E-01-3.16692E-03 1.62585E+00-6.59445E-01
 -1      1443 1.21671E+00 9.76347E-01 6.07341E-01 4.47900E-03 1.62438E+00-5.83182E-01
 -1      1444 1.23469E+00 9.88234E-01 5.96012E-01-1.31729E-02 1.61790E+00-6.03147E-01
 -1      1445-1.30662E+00 3.33767E-02 5.21313E-03-6.26863E-03 7.04118E-02 2.84693E-01
 -1      1446-1.29513E+00 4.99385E-02 1.47169E-02-8.87852E-03 8.63123E-02 2.56445E-01
 -1      1447 1.40516E+00 5.96339E-02 3.40871E-02 7.50284E-03 1.00789E-01 2.47533E-01
 -1      1448 4.12693E+00 7.40179E-02 5.73093E-02 2.54320E-02 1.10325E-01 2.38644E-01
 -1      1449 4.10149E+00 8.34942E-02 6.55584E-02 3.28629E-02 1.28915E-01 2.20662E-01
 -1      1450 1.95797E+00 9.26980E-01 5.54136E-01 6.53923E-03 1.52834E+00-5.39914E-01
 -1      1451 2.09716E+00 9.18948E-01 5.47201E-01 8.28193E-03 1.51235E+00-5.24737E-01
 -1      1452 3.18396E+00 6.44115E-01 3.85957E-01 3.29937E-02 1.06034E+00-3.04009E-01
 -1      1453 3.28862E+00 6.26531E-01 3.80226E-01 3.24850E-02 1.01930E+00-2.87380E-01
 -1      1454-3.70453E-01 5.84447E-01 3.41151E-01-1.37721E-02 9.53925E-01-2.57369E-01
 -1      1455-2.80742E-01 6.07148E-01 3.56676E-01-1.31306E-02 9.93053E-01-2.72020E-01
 -1      1456 1.50912E+00 6.11687E-01 3.72193E-01 8.91527E-03 1.00817E+00-3.03112E-01
 -1      1457-7.91292E-01 3.58505E-01 2.05095E-01-9.44410E-03 5.92935E-01-6.50792E-02
 -1      1458-7.28623E-01 3.82552E-01 2.19101E-01-1.51440E-02 6.25648E-01-8.84767E-02
 -1      1459 1.51909E+00 3.94024E-01 2.34182E-01 1.23755E-02 6.47049E-01-1.22805E-01
 -1      1460 3.78045E+00 4.08122E-01 2.55464E-01 4.13280E-02 6.61981E-01-1.03651E-01
 -1      1461 3.70820E+00 4.25343E-01 2.67246E-01 4.44188E-02 6.96614E-01-1.21852E-01
 -1      1462 5.88849E-01 9.44552E-01 5.67091E-01-1.37929E-02 1.54129E+00-5.45617E-01
 -1      1463 6.89565E-01 9.55532E-01 5.70875E-01-1.35229E-02 1.55192E+00-5.60770E-01
 -1      1464 1.27539E+00 9.38336E-01 5.56602E-01-4.86771E-03 1.53487E+00-5.90609E-01
 -1      1465-5.19741E+00 7.73332E-01 4.59886E-01-9.91382E-02 1.26792E+00-1.51472E-01
 -1      1466-3.12800E+00 8.85846E-01 5.31894E-01-8.42341E-02 1.46756E+00-1.61631E-01
 -1      1467-1.67161E+00 9.39318E-01 5.68071E-01-1.28844E-01 1.54141E+00-1.29644E-01
 -1      1468-4.17349E-01 9.70695E-01 5.81234E-01-4.59990E-02 1.60835E+00-1.73134E-01
 -1      1469-6.64392E+00 6.57427E-01 3.83868E-01-9.08261E-02 1.07780E+00-1.24031E-01
 -1      1470-3.61386E+00 8.39805E-01 5.14540E-01-1.42210E-01 1.37708E+00-9.77316E-02
 -1      1471-7.58366E+00 5.79200E-01 3.44565E-01-7.63594E-02 9.39161E-01-1.17670E-01
 -1      1472-1.00704E+01 7.03187E-02 5.23043E-02 1.50278E-01 1.36411E-01 2.70289E-03
 -1      1473-1.09463E+01 1.79164E-01 9.82940E-02 9.98578E-02 2.44842E-01-4.47940E-02
 -1      1474-1.15919E+01 8.26559E-02 4.42644E-02 2.24186E-01 6.44069E-02-4.43952E-02
 -1      1475-8.73485E+00 2.97769E-01 1.88843E-01-1.19277E-02 4.97611E-01 6.34437E-03
 -1      1476-8.81661E+00 4.54601E-01 2.71735E-01-4.24292E-02 7.17916E-01-8.44113E-02
 -1      1477-1.04448E+01 2.49492E-01 1.41167E-01 4.54587E-02 3.65326E-01-6.17098E-02
 -1      1478-1.04851E+01-2.51833E-01-1.22397E-03 4.85051E-01 2.40058E-02-1.63227E-02
 -1      1479-4.99011E+00 7.34426E-01 4.51481E-01-1.36999E-01 1.20832E+00-6.66491E-02
 -1      1480-1.51345E+00 9.46586E-01 5.73969E-01-6.13374E-02 1.56862E+00-1.64220E-01
 -1      1481 2.39998E-01 9.95863E-01 5.99234E-01-9.52864E-02 1.62025E+00-1.48777E-01
 -1      1482-7.06664E+00 5.24943E-01 3.31069E-01-1.00266E-01 8.64261E-01-1.79986E-02
 -1      1483-7.19990E-01 9.74019E-01 5.89509E-01-1.07209E-01 1.58994E+00-1.61206E-01
 -1      1484-6.25048E+00 6.10652E-01 3.71568E-01-1.18317E-01 1.00645E+00-3.87344E-02
 -1      1485-9.54111E+00 3.75253E-01 2.23759E-01-2.34922E-02 5.70624E-01-9.46201E-02
 -1      1486-9.49375E+00 1.70245E-01 1.07237E-01 6.05379E-02 2.98756E-01 2.06634E-02
 -1      1487-8.10257E+00 3.88126E-01 2.42467E-01-5.44189E-02 6.43049E-01-4.46257E-03
 -1      1488-1.13527E+01-1.08328E+00 8.13466E-01 6.97478E-02 3.19069E-02-2.79804E-02
 -1      1489 5.27361E-01 9.37049E-01 4.76890E-01-6.12912E-02 1.62316E+00-1.32603E-01
 -1      1490-2.66681E+00 8.96324E-01 5.47826E-01-1.41803E-01 1.46710E+00-1.22809E-01
 -1      1491-4.16850E+00 8.31785E-01 4.95235E-01-9.56998E-02 1.37668E+00-1.57831E-01
 -1      1492-1.13250E+01 1.17306E-01 7.10551E-02 1.57488E-01 1.38437E-01-3.82984E-02
 -1      1493-1.03193E+01 2.17437E-02 1.63627E-02 2.01161E-01 5.88848E-02 1.06603E-03
 -1      1494-1.04352E+01-3.76268E-02-1.55491E-03 2.67187E-01 3.60800E-02-3.87906E-02
 -1      1495-1.11607E+01-1.54903E-01 4.06774E-02 3.35928E-01 4.47728E-02-1.22965E-03
 -1      1496-2.33108E-01 9.83715E-01 5.96732E-01-1.09527E-01 1.60836E+00-1.59361E-01
 -1      1497-5.68575E+00 7.28689E-01 4.28953E-01-1.06848E-01 1.21103E+00-1.54577E-01
 -1      1498-6.20568E+00 7.01644E-01 4.25855E-01-9.35336E-02 1.14325E+00-1.33329E-01
 -1      1499-6.02721E+00 6.74396E-01 4.06469E-01-1.14719E-01 1.11233E+00-9.93970E-02
 -1      1500-2.57628E+00 9.07640E-01 5.44219E-01-7.74659E-02 1.50832E+00-1.65396E-01
 -1      1501-4.07835E+00 8.06108E-01 4.91117E-01-1.42851E-01 1.32474E+00-8.24383E-02
 -1      1502-7.99107E+00 5.31510E-01 3.10119E-01-8.08910E-02 8.69956E-01-1.29079E-01
 -1      1503-8.42801E+00 4.95086E-01 2.95294E-01-5.85892E-02 7.91968E-01-1.01904E-01
 -1      1504-8.09183E+00 4.65053E-01 2.78331E-01-5.81157E-02 7.54598E-01-6.57324E-02
 -1      1505-1.19140E+00 9.57236E-01 5.80304E-01-1.26628E-01 1.56793E+00-1.46054E-01
 -1      1506-9.87747E+00 3.26027E-01 1.93602E-01 4.49235E-03 5.01051E-01-7.34326E-02
 -1      1507-2.18152E+00 9.22856E-01 5.59752E-01-1.20904E-01 1.50563E+00-1.34225E-01
 -1      1508-8.41339E+00 3.36947E-01 2.07527E-01-3.11595E-02 5.69100E-01 2.68946E-03
 -1      1509-1.07168E+01 2.17410E-01 1.28206E-01 6.13326E-02 3.00468E-01-6.95301E-02
 -1      1510-1.01588E+01 2.88211E-01 1.60366E-01 2.91360E-02 4.30422E-01-5.87083E-02
 -1      1511-9.72740E+00 2.50768E-01 1.49969E-01 5.47494E-02 3.96948E-01-3.06449E-02
 -1      1512-9.28202E-01 9.52073E-01 5.62096E-01-6.95040E-02 1.59621E+00-1.92325E-01
 -1      1513-6.66815E+00 5.67720E-01 3.51313E-01-1.09567E-01 9.36868E-01-3.00342E-02
 -1      1514-1.11386E+01 1.42833E-01 7.17501E-02 1.14615E-01 1.92544E-01-6.60952E-02
 -1      1515-1.04348E+01 1.39070E-01 8.23997E-02 1.44349E-01 2.17548E-01-2.08263E-02
 -1      1516-1.01993E+01 4.48448E-02 3.29927E-02 1.76149E-01 9.43144E-02 6.19851E-03
 -1      1517-1.14551E+01 9.90348E-02 4.20029E-02 1.87775E-01 9.88877E-02-1.61308E-02
 -1      1518-9.16294E+00 4.08220E-01 2.33859E-01-3.30250E-02 6.45270E-01-8.21314E-02
 -1      1519-3.67353E+00 8.63315E-01 5.21059E-01-8.61090E-02 1.42512E+00-1.47413E-01
 -1      1520-4.69484E+00 8.04675E-01 4.81780E-01-9.28937E-02 1.32391E+00-1.41604E-01
 -1      1521-7.14256E+00 6.29688E-01 3.78629E-01-9.57203E-02 1.00561E+00-1.35266E-01
 -1      1522-2.01239E+00 9.29799E-01 5.46310E-01-7.27711E-02 1.54174E+00-1.68065E-01
 -1      1523-3.11580E+00 8.61131E-01 5.15104E-01-1.26302E-01 1.41847E+00-1.28273E-01
 -1      1524-4.53356E+00 7.70873E-01 4.71733E-01-1.41317E-01 1.26784E+00-7.51890E-02
 -1      1525-1.10280E+01 2.60023E-02 2.13552E-02 2.89681E-01 5.62722E-02-7.96874E-03
 -1      1526-1.16720E+01 3.95338E-02 2.55411E-02 2.71188E-01 3.95141E-02-2.45732E-03
 -1      1527-1.05679E+01-1.00785E+00 1.02073E+00 7.16534E-01-5.16737E-03 9.41290E-02
 -1      1528-5.85662E+00 6.54092E-01 4.03905E-01-1.30254E-01 1.07480E+00-4.68705E-02
 -1      1529-5.40407E+00 7.00113E-01 4.28675E-01-1.32415E-01 1.14519E+00-5.49583E-02
 -1      1530-9.71323E+00 1.37120E-01 9.15890E-02 8.90467E-02 2.38344E-01 1.33647E-02
 -1      1531-9.90234E+00 1.01908E-01 6.73677E-02 1.21935E-01 1.83677E-01 1.20584E-02
 -1      1532-9.25997E+00 2.11816E-01 1.36104E-01 3.27451E-02 3.60844E-01 9.50196E-03
 -1      1533-8.46902E+00 4.17922E-01 2.51707E-01-4.28328E-02 6.83007E-01-5.92141E-02
 -1      1534-7.39981E+00 4.78180E-01 2.91865E-01-8.39140E-02 7.88929E-01-1.57307E-02
 -1      1535-9.44604E+00 2.90475E-01 1.75011E-01 2.66731E-02 4.65346E-01-3.39747E-02
 -1      1536-6.00314E-02 9.79008E-01 5.77637E-01-8.72840E-02 1.61125E+00-1.82403E-01
 -1      1537-5.88257E-01 9.69056E-01 5.85044E-01-9.68099E-02 1.59630E+00-1.82657E-01
 -1      1538-3.15924E+00 8.76497E-01 5.30144E-01-1.28618E-01 1.44672E+00-1.59144E-01
 -1      1539-3.63902E+00 8.49147E-01 5.12243E-01-1.24925E-01 1.39658E+00-1.38417E-01
 -1      1540-4.13028E+00 8.18910E-01 4.94984E-01-1.29160E-01 1.34996E+00-1.29053E-01
 -1      1541-1.08056E+00 9.57576E-01 5.76088E-01-1.05578E-01 1.58407E+00-1.81260E-01
 -1      1542-2.13232E+00 9.21415E-01 5.58231E-01-1.20757E-01 1.52002E+00-1.68647E-01
 -1      1543-6.88287E+00 5.97429E-01 3.55786E-01-9.43888E-02 9.73784E-01-9.12298E-02
 -1      1544-5.11649E+00 7.51356E-01 4.54448E-01-1.20601E-01 1.23612E+00-1.25407E-01
 -1      1545-1.07703E+01 8.41146E-02 4.78128E-02 2.14317E-01 1.19756E-01-1.43119E-02
 -1      1546-1.09126E+01 5.58346E-02 3.62923E-02 2.52305E-01 8.54136E-02-1.72339E-02
 -1      1547-2.62598E+00 9.02697E-01 5.42575E-01-1.25811E-01 1.48765E+00-1.67356E-01
 -1      1548-4.61624E+00 7.86925E-01 4.72656E-01-1.26752E-01 1.29560E+00-1.22976E-01
 -1      1549-8.83195E+00 3.73639E-01 2.29932E-01-2.03647E-02 6.09132E-01-5.58842E-02
 -1      1550-1.60539E+00 9.42190E-01 5.70080E-01-1.11028E-01 1.55120E+00-1.63295E-01
 -1      1551-9.12288E+00 3.36417E-01 1.99793E-01 3.11207E-03 5.38335E-01-4.28933E-02
 -1      1552-7.33809E+00 5.50868E-01 3.33158E-01-8.28175E-02 9.00340E-01-8.42355E-02
 -1      1553-6.49276E+00 6.36002E-01 3.90164E-01-1.05606E-01 1.04081E+00-1.02644E-01
 -1      1554-5.56545E+00 7.17107E-01 4.31451E-01-1.23640E-01 1.17781E+00-1.09436E-01
 -1      1555-7.75531E+00 4.31979E-01 2.65565E-01-6.64257E-02 7.17195E-01-1.33438E-02
 -1      1556-7.72241E+00 5.09826E-01 3.07966E-01-7.52979E-02 8.29803E-01-7.12919E-02
 -1      1557-1.06138E+01 1.09377E-01 6.69184E-02 1.77312E-01 1.66747E-01-2.16123E-02
 -1      1558-9.01502E+00 2.54706E-01 1.66958E-01 9.22428E-03 4.28920E-01 6.40740E-03
 -1      1559-9.99695E+00 2.08783E-01 1.28997E-01 8.27638E-02 3.34807E-01-3.42885E-02
 -1      1560-1.02031E+01 1.78123E-01 1.04240E-01 1.11537E-01 2.76038E-01-2.17640E-02
 -1      1561 5.12501E-01 9.47356E-01 4.83332E-01-9.55405E-02 1.62626E+00-1.11964E-01
 -1      1562-1.17210E+01-1.27298E-01 5.68839E-02 1.84365E-01 2.73740E-02 3.16812E-02
 -1      1563 1.43117E-01 9.77207E-01 5.81395E-01-4.45568E-02 1.62142E+00-1.52784E-01
 -1      1564-1.10628E+01-6.33540E-01 7.85331E-02 3.60570E-01 2.70779E-02 5.14333E-02
 -1      1565-1.00294E+01-6.13651E-01 7.18199E-01 1.16371E+00-3.66542E-02 7.35006E-02
 -1      1566-1.17905E+01-3.46652E-01 8.67474E-01-4.76425E-01 9.01509E-02 7.13717E-02
 -1      1567 5.70143E-01 9.81063E-01 5.59273E-01-7.76589E-02 1.63156E+00-1.24405E-01
 -1      1568 4.96843E-01 9.45318E-01 5.19310E-01-2.28736E-02 1.62720E+00-1.29832E-01
 -1      1569 2.55346E-01 9.73332E-01 5.93262E-01-8.51828E-02 1.62046E+00-1.46170E-01
 -1      1570-1.20512E+01-2.37866E+00-9.63592E-01-6.32170E-01-1.47251E-03-1.17389E+00
 -1      1571-1.31052E+01-2.03408E+00-1.18465E+00-1.51180E+00-2.96987E-01-8.49344E-01
 -1      1572-1.12327E+01 2.93767E-01 5.02290E-01-3.48814E-02 2.06786E-01 2.29066E-01
 -1      1573-1.04052E+01-1.70432E+00-8.88464E-01 1.84347E+00 2.09319E-01-3.73484E-01
 -1      1574-1.01619E+01-2.35064E+00-1.14246E+00 1.43360E+00 9.47327E-02-8.38646E-01
 -1      1575-9.17333E+00 1.04886E-01 3.44554E-01 5.57927E-01-9.99800E-02 2.77875E-01
 -1      1576 6.40436E-01 9.56506E-01 5.83721E-01-1.63621E-02 1.64848E+00-1.82534E-01
 -1      1577 6.22515E-01 9.53222E-01 5.62317E-01-2.73526E-02 1.63318E+00-1.77068E-01
 -1      1578 3.90215E-01 9.60299E-01 5.51676E-01-1.69169E-02 1.62542E+00-1.27736E-01
 -1      1579 6.64256E-01 9.49871E-01 5.92764E-01-8.54640E-02 1.63208E+00-1.74269E-01
 -1      1580 7.12881E-01 9.84352E-01 6.24411E-01-5.95412E-02 1.62717E+00-1.76230E-01
 -1      1581 5.32141E-01 9.99438E-01 5.92238E-01-4.92269E-02 1.63087E+00-1.23516E-01
 -1      1582-1.14961E+01-2.68284E+00-1.12231E+00 2.61641E-01 4.61140E-02-1.09303E+00
 -1      1583-1.20717E+01-2.95126E+00-1.48823E+00-2.49205E-01 9.64977E-02-1.26208E+00
 -1      1584-1.16643E+01-8.84509E-01 8.90096E-01-2.08991E-01 3.75588E-02 5.38085E-02
 -1      1585-1.04032E+01-2.34557E+00-7.46894E-01 1.11704E+00-2.47189E-02-7.68616E-01
 -1      1586-1.12395E+01-2.79379E+00-1.36455E+00 6.57858E-01 6.43436E-02-1.08884E+00
 -1      1587-1.09557E+01-1.18767E+00 7.87053E-01 4.02087E-01 2.31107E-02 4.29919E-02
 -1      1588-1.02264E+01-8.98297E-01 9.05444E-01 9.57765E-01 3.61597E-03 1.63180E-01
 -1      1589 6.39022E-01 9.49780E-01 5.23812E-01-4.36141E-02 1.62622E+00-1.78342E-01
 -1      1590 6.54695E-01 9.54028E-01 5.40352E-01-6.30675E-02 1.62662E+00-1.81993E-01
 -1      1591 5.09363E-01 9.36205E-01 4.99352E-01-4.35215E-02 1.63531E+00-1.33084E-01
 -1      1592 6.53905E-01 9.59961E-01 5.65183E-01-7.53976E-02 1.63027E+00-1.68284E-01
 -1      1593 6.53158E-01 9.35605E-01 5.44223E-01-7.73168E-02 1.62881E+00-1.74670E-01
 -1      1594 5.22714E-01 9.51796E-01 5.06735E-01-8.22874E-02 1.62019E+00-1.26445E-01
 -1      1595 5.44678E-01 9.58289E-01 5.14712E-01-8.61242E-02 1.62516E+00-1.24976E-01
 -1      1596-1.17683E+01-1.87747E-01-8.04203E-02 4.16965E-02-6.79114E-02 4.40566E-02
 -1      1597-1.19313E+01-4.13948E-03 1.82275E-02 1.28812E-01 2.39488E-02-1.24358E-02
 -1      1598-1.15433E+01-2.98358E-01 1.34198E-01-9.82282E-02 3.91726E-02 6.85289E-02
 -1      1599-1.19242E+01 3.70064E-02 2.56889E-02 1.58041E-01 1.72764E-02-1.62887E-02
 -1      1600-1.19490E+01 5.86175E-02 3.28604E-02 1.56588E-01 3.78139E-02-3.59005E-02
 -1      1601-1.16842E+01-2.29781E-02 3.14596E-02 2.47061E-01 4.31515E-02 9.87134E-03
 -1      1602-1.18853E+01 8.29076E-02 5.52658E-02 1.39552E-01 4.72791E-02-4.48285E-02
 -1      1603-1.19053E+01 7.37121E-02 4.62569E-02 1.24750E-01 6.68035E-02-7.90566E-02
 -1      1604-1.16141E+01 6.02366E-02 3.76676E-02 2.50861E-01 4.84010E-02-1.68386E-02
 -1      1605-1.18158E+01 9.19317E-02 4.75804E-02 1.02702E-01 8.52756E-02-7.42557E-02
 -1      1606-1.17710E+01 9.53646E-02 4.83861E-02 9.18045E-02 1.06228E-01-5.31281E-02
 -1      1607-1.15674E+01 8.49337E-02 3.34384E-02 2.17419E-01 8.00524E-02-4.49424E-02
 -1      1608-1.16752E+01 1.16447E-01 7.48812E-02 8.15112E-02 1.23929E-01-6.15178E-02
 -1      1609-1.16173E+01 1.17028E-01 7.54214E-02 6.75486E-02 1.44788E-01-8.98328E-02
 -1      1610-1.13818E+01 1.09611E-01 6.12407E-02 1.74011E-01 1.17216E-01-2.27098E-02
 -1      1611-1.14999E+01 1.39516E-01 8.11338E-02 5.52405E-02 1.74449E-01-9.78392E-02
 -1      1612-1.14459E+01 1.37268E-01 7.64153E-02 5.13215E-02 2.02242E-01-7.40033E-02
 -1      1613-1.12058E+01 1.39506E-01 8.25716E-02 1.44349E-01 1.63928E-01-6.26821E-02
 -1      1614-1.13249E+01 1.65356E-01 1.01334E-01 4.20661E-02 2.28635E-01-7.18614E-02
 -1      1615-1.12033E+01 1.83339E-01 1.06713E-01 3.17893E-02 2.55293E-01-7.31288E-02
 -1      1616-1.10699E+01 1.55197E-01 7.80764E-02 1.12635E-01 2.19536E-01-5.23422E-02
 -1      1617-1.10813E+01 2.05465E-01 1.26370E-01 1.98842E-02 2.83975E-01-7.93571E-02
 -1      1618-1.09863E+01 2.14067E-01 1.30259E-01 5.49640E-03 3.13264E-01-1.09471E-01
 -1      1619-1.08117E+01 1.99964E-01 1.14335E-01 8.06782E-02 2.72333E-01-5.43511E-02
 -1      1620-1.08275E+01 2.40060E-01 1.41079E-01-5.89246E-03 3.48312E-01-1.10720E-01
 -1      1621-1.07040E+01 2.50424E-01 1.47624E-01-1.61865E-02 3.78739E-01-1.07469E-01
 -1      1622-1.06127E+01 2.26223E-01 1.23784E-01 6.30125E-02 3.31862E-01-7.63021E-02
 -1      1623-1.05401E+01 2.75576E-01 1.60944E-01-2.02899E-02 4.12969E-01-1.10385E-01
 -1      1624-1.04058E+01 2.88856E-01 1.65864E-01-2.47675E-02 4.47940E-01-9.61509E-02
 -1      1625-1.03118E+01 2.69576E-01 1.48476E-01 4.39542E-02 3.96809E-01-6.83721E-02
 -1      1626-1.02504E+01 3.12432E-01 1.87558E-01-2.92151E-02 4.83089E-01-9.85351E-02
 -1      1627-1.00744E+01 3.34466E-01 1.96761E-01-3.42021E-02 5.15783E-01-9.90906E-02
 -1      1628-1.00156E+01 3.07811E-01 1.79041E-01 1.59216E-02 4.65153E-01-6.18138E-02
 -1      1629-9.90618E+00 3.59412E-01 2.17322E-01-4.07634E-02 5.53763E-01-1.04979E-01
 -1      1630-9.75225E+00 3.73850E-01 2.24723E-01-5.36050E-02 5.86679E-01-1.31686E-01
 -1      1631-9.68414E+00 3.55463E-01 2.09877E-01-7.72104E-03 5.35982E-01-7.91548E-02
 -1      1632-9.55778E+00 3.93919E-01 2.30486E-01-6.01498E-02 6.29869E-01-1.29990E-01
 -1      1633-9.36662E+00 4.15646E-01 2.41834E-01-6.29471E-02 6.62996E-01-1.13911E-01
 -1      1634-9.38680E+00 3.85630E-01 2.19969E-01-2.03557E-02 6.06908E-01-9.98668E-02
 -1      1635-9.17626E+00 4.43105E-01 2.66447E-01-6.66436E-02 7.00739E-01-1.17557E-01
 -1      1636-8.99169E+00 4.58553E-01 2.77574E-01-7.28890E-02 7.34290E-01-1.33917E-01
 -1      1637-8.99351E+00 4.30191E-01 2.52460E-01-3.74685E-02 6.81359E-01-7.91487E-02
 -1      1638-8.78074E+00 4.83440E-01 2.91274E-01-8.02982E-02 7.75312E-01-1.39174E-01
 -1      1639-8.57927E+00 4.99821E-01 3.00829E-01-8.21263E-02 8.06036E-01-1.45297E-01
 -1      1640-8.61629E+00 4.76955E-01 2.89060E-01-4.64721E-02 7.54054E-01-1.00022E-01
 -1      1641-8.34637E+00 5.27464E-01 3.14696E-01-8.34137E-02 8.51548E-01-1.54524E-01
 -1      1642-8.15806E+00 5.35129E-01 3.14917E-01-8.01571E-02 8.85537E-01-1.36989E-01
 -1      1643-8.18048E+00 5.23664E-01 3.15841E-01-6.25907E-02 8.30916E-01-1.21279E-01
 -1      1644-7.93654E+00 5.64180E-01 3.43037E-01-7.97275E-02 9.23626E-01-1.35264E-01
 -1      1645-7.69477E+00 5.89330E-01 3.48141E-01-8.40251E-02 9.55243E-01-1.35742E-01
 -1      1646-7.81181E+00 5.52040E-01 3.21261E-01-7.31990E-02 9.03093E-01-1.22375E-01
 -1      1647-7.47619E+00 6.13916E-01 3.69935E-01-8.44185E-02 9.92844E-01-1.40672E-01
 -1      1648-7.25490E+00 6.29554E-01 3.77373E-01-9.55778E-02 1.02220E+00-1.65128E-01
 -1      1649-7.33379E+00 6.11810E-01 3.64697E-01-8.55782E-02 9.72991E-01-1.23717E-01
 -1      1650-7.00919E+00 6.44111E-01 3.77210E-01-9.70432E-02 1.06660E+00-1.62039E-01
 -1      1651-6.75829E+00 6.67402E-01 3.91304E-01-9.29232E-02 1.09576E+00-1.48316E-01
 -1      1652-6.93111E+00 6.37028E-01 3.72132E-01-8.80700E-02 1.04040E+00-1.37874E-01
 -1      1653-6.52334E+00 6.90031E-01 4.16942E-01-9.36316E-02 1.13002E+00-1.52689E-01
 -1      1654-6.27521E+00 7.07207E-01 4.29336E-01-9.54715E-02 1.15642E+00-1.73796E-01
 -1      1655-6.43113E+00 6.74198E-01 4.01208E-01-9.21272E-02 1.11010E+00-1.24400E-01
 -1      1656-6.00813E+00 7.23919E-01 4.30585E-01-9.65811E-02 1.19854E+00-1.78113E-01
 -1      1657-5.76705E+00 7.37533E-01 4.36015E-01-8.40781E-02 1.22400E+00-1.58447E-01
 -1      1658-5.92703E+00 7.23194E-01 4.38923E-01-9.64096E-02 1.17752E+00-1.55020E-01
 -1      1659-5.51902E+00 7.64341E-01 4.60751E-01-8.74334E-02 1.25869E+00-1.61517E-01
 -1      1660-5.25168E+00 7.77745E-01 4.60376E-01-9.04000E-02 1.28096E+00-1.76618E-01
 -1      1661-5.47747E+00 7.38291E-01 4.37786E-01-9.79689E-02 1.23753E+00-1.46412E-01
 -1      1662-4.98649E+00 7.94682E-01 4.72889E-01-8.95989E-02 1.31371E+00-1.74779E-01
 -1      1663-4.73415E+00 8.07266E-01 4.84631E-01-8.80854E-02 1.33728E+00-1.76314E-01
 -1      1664-4.96552E+00 7.83892E-01 4.60539E-01-9.29055E-02 1.29607E+00-1.46147E-01
 -1      1665-4.46700E+00 8.24162E-01 4.96082E-01-8.52425E-02 1.37099E+00-1.79717E-01
 -1      1666-4.18463E+00 8.38103E-01 4.95961E-01-8.12959E-02 1.38920E+00-1.71141E-01
 -1      1667-4.42668E+00 8.21782E-01 4.99154E-01-9.04966E-02 1.34853E+00-1.51177E-01
 -1      1668-3.93115E+00 8.54378E-01 5.15551E-01-7.43691E-02 1.41700E+00-1.66048E-01
 -1      1669-3.66010E+00 8.68287E-01 5.22707E-01-7.90635E-02 1.43518E+00-1.81295E-01
 -1      1670-3.92017E+00 8.50440E-01 5.01058E-01-8.84992E-02 1.39972E+00-1.48093E-01
 -1      1671-3.38123E+00 8.79203E-01 5.27051E-01-7.70302E-02 1.46332E+00-1.86358E-01
 -1      1672-3.10331E+00 8.90074E-01 5.33277E-01-7.21444E-02 1.47574E+00-1.87429E-01
 -1      1673-3.38263E+00 8.77181E-01 5.34123E-01-8.49732E-02 1.44771E+00-1.62879E-01
 -1      1674-2.82411E+00 9.03022E-01 5.38779E-01-6.93545E-02 1.50525E+00-1.90135E-01
 -1      1675-2.54466E+00 9.10944E-01 5.44919E-01-6.51560E-02 1.51360E+00-1.89698E-01
 -1      1676-2.84338E+00 8.98251E-01 5.40137E-01-7.81614E-02 1.48929E+00-1.68562E-01
 -1      1677-2.26862E+00 9.20489E-01 5.45917E-01-5.90410E-02 1.54019E+00-1.89250E-01
 -1      1678-1.97833E+00 9.30701E-01 5.49719E-01-5.46543E-02 1.54998E+00-1.78477E-01
 -1      1679-2.31258E+00 9.16554E-01 5.44310E-01-7.14530E-02 1.52148E+00-1.70520E-01
 -1      1680-1.71568E+00 9.40406E-01 5.68301E-01-4.52858E-02 1.56614E+00-1.71734E-01
 -1      1681-1.42686E+00 9.50935E-01 5.74237E-01-4.77506E-02 1.57242E+00-1.90647E-01
 -1      1682-1.76789E+00 9.38280E-01 5.52189E-01-6.72173E-02 1.55313E+00-1.63819E-01
 -1      1683-1.13023E+00 9.55566E-01 5.69905E-01-4.27782E-02 1.59492E+00-1.98927E-01
 -1      1684-8.66114E-01 9.50125E-01 5.61679E-01-3.00721E-02 1.59854E+00-1.78444E-01
 -1      1685-1.18250E+00 9.57634E-01 5.82177E-01-6.13109E-02 1.58395E+00-1.88196E-01
 -1      1686-5.95263E-01 9.63532E-01 5.81980E-01-2.27742E-02 1.61101E+00-1.71225E-01
 -1      1687-2.94138E-01 9.73510E-01 5.75920E-01-2.46370E-02 1.61299E+00-1.66237E-01
 -1      1688-6.94766E-01 9.59131E-01 5.66286E-01-5.07647E-02 1.59945E+00-1.82749E-01
 -1      1689-3.05999E-02 9.71161E-01 5.81586E-01-2.30319E-02 1.62385E+00-1.61628E-01
 -1      1690 2.52264E-01 9.81562E-01 5.83284E-01-2.44724E-02 1.62550E+00-1.49387E-01
 -1      1691-1.20125E-01 9.83826E-01 5.86804E-01-4.98711E-02 1.61541E+00-1.65689E-01
 -1      1692 3.30513E-01 9.58727E-01 5.72788E-01-4.03778E-02 1.62511E+00-1.45842E-01
 -1      1693-1.01293E+01-1.29507E-01-6.49499E-02 2.70817E-01 2.70065E-02-1.95848E-02
 -1      1694-9.89954E+00-2.55505E-01-1.35727E-01 4.37267E-01 8.09980E-02 3.14299E-02
 -1      1695-1.00336E+01-4.03117E-01 8.79652E-02 8.01133E-01 8.46759E-03 1.01518E-01
 -1      1696-1.00225E+01-1.12369E-02-5.00862E-03 1.37931E-01 3.96452E-02 3.43783E-02
 -1      1697-1.00123E+01-3.00054E-02-1.90016E-02 1.80647E-01 2.30152E-02 5.07659E-03
 -1      1698-1.04357E+01-9.63399E-02 2.26899E-02 3.42164E-01 1.11911E-02-1.27745E-02
 -1      1699-9.93292E+00 3.08551E-02 2.38268E-02 1.12684E-01 6.43796E-02 2.73440E-02
 -1      1700-9.99338E+00 5.69310E-03 4.24901E-03 1.20255E-01 4.77129E-02 4.99927E-02
 -1      1701-1.04005E+01-9.24413E-03-1.06449E-03 2.39652E-01 4.85716E-02 8.59242E-03
 -1      1702-9.83016E+00 4.84638E-02 3.37746E-02 9.44694E-02 1.00903E-01 3.11722E-02
 -1      1703-9.89820E+00 2.97843E-02 2.46210E-02 1.07725E-01 8.20427E-02 2.95086E-02
 -1      1704-1.02739E+01 2.47589E-02 2.04160E-02 1.92766E-01 7.65786E-02 5.18763E-03
 -1      1705-9.69616E+00 7.58711E-02 5.07876E-02 7.08991E-02 1.45001E-01 3.70199E-02
 -1      1706-9.77599E+00 5.62306E-02 4.16251E-02 8.38348E-02 1.23007E-01 3.41326E-02
 -1      1707-1.01403E+01 5.54185E-02 4.15831E-02 1.65325E-01 1.14678E-01 6.80129E-03
 -1      1708-9.52233E+00 1.10814E-01 6.89793E-02 4.60335E-02 1.95212E-01 5.25592E-02
 -1      1709-9.63098E+00 8.45916E-02 5.53538E-02 5.92783E-02 1.68164E-01 4.06849E-02
 -1      1710-9.99323E+00 8.39182E-02 5.85423E-02 1.36645E-01 1.57608E-01 6.54795E-03
 -1      1711-9.33155E+00 1.49750E-01 9.35862E-02 2.45933E-02 2.52679E-01 5.22608E-02
 -1      1712-9.45051E+00 1.22561E-01 7.70613E-02 3.43052E-02 2.18467E-01 5.21437E-02
 -1      1713-9.80894E+00 1.17311E-01 7.75056E-02 1.10865E-01 2.08887E-01 1.92845E-02
 -1      1714-9.12279E+00 1.85021E-01 1.17816E-01 7.89528E-03 3.14050E-01 4.13348E-02
 -1      1715-9.24587E+00 1.59608E-01 9.82670E-02 1.53478E-02 2.77332E-01 5.29403E-02
 -1      1716-9.61890E+00 1.48855E-01 9.28084E-02 7.73485E-02 2.68284E-01 2.04179E-02
 -1      1717-8.89555E+00 2.19299E-01 1.37716E-01-1.12579E-02 3.78251E-01 3.82050E-02
 -1      1718-9.01426E+00 1.98268E-01 1.31284E-01-4.15256E-03 3.41492E-01 4.10266E-02
 -1      1719-9.38170E+00 1.90730E-01 1.23464E-01 4.59026E-02 3.33075E-01 1.33274E-02
 -1      1720-8.63853E+00 2.67834E-01 1.67604E-01-3.04332E-02 4.45117E-01 4.16590E-02
 -1      1721-8.77132E+00 2.42577E-01 1.56153E-01-2.38588E-02 4.08984E-01 4.07918E-02
 -1      1722-9.13277E+00 2.35733E-01 1.50786E-01 2.02557E-02 3.95536E-01 1.04405E-02
 -1      1723-8.35567E+00 3.13560E-01 1.94626E-01-4.51457E-02 5.17118E-01 3.66279E-02
 -1      1724-8.51103E+00 2.85327E-01 1.75998E-01-3.70917E-02 4.75236E-01 4.01957E-02
 -1      1725-8.87566E+00 2.73566E-01 1.75535E-01 3.52014E-03 4.60200E-01 9.76595E-03
 -1      1726-8.05281E+00 3.56918E-01 2.19938E-01-6.18716E-02 5.88533E-01 3.31348E-02
 -1      1727-8.21358E+00 3.29082E-01 2.00265E-01-5.20221E-02 5.46605E-01 3.44705E-02
 -1      1728-8.57976E+00 3.17277E-01 1.96271E-01-2.15580E-02 5.32212E-01 4.98192E-03
 -1      1729-7.74211E+00 4.03163E-01 2.46727E-01-7.63770E-02 6.62853E-01 2.73046E-02
 -1      1730-7.91308E+00 3.72481E-01 2.34887E-01-6.68600E-02 6.23771E-01 3.10751E-02
 -1      1731-8.27847E+00 3.54363E-01 2.22144E-01-4.10226E-02 6.07019E-01 2.65731E-04
 -1      1732-7.40087E+00 4.48103E-01 2.74334E-01-8.74098E-02 7.37532E-01 2.16022E-02
 -1      1733-7.58768E+00 4.19236E-01 2.61445E-01-7.86122E-02 6.96458E-01 2.36015E-02
 -1      1734-7.93875E+00 4.08945E-01 2.56805E-01-5.83346E-02 6.75817E-01-9.18812E-03
 -1      1735-7.06431E+00 4.90341E-01 3.00514E-01-9.30360E-02 8.09737E-01 8.77334E-03
 -1      1736-7.24294E+00 4.68348E-01 2.92078E-01-9.09960E-02 7.68930E-01 1.68805E-02
 -1      1737-7.59815E+00 4.43827E-01 2.71083E-01-7.71883E-02 7.54050E-01-9.21225E-03
 -1      1738-6.70955E+00 5.41442E-01 3.35124E-01-1.00313E-01 8.84513E-01-1.52389E-03
 -1      1739-6.88811E+00 5.15943E-01 3.24089E-01-1.00216E-01 8.45381E-01 1.03735E-02
 -1      1740-7.23622E+00 5.01891E-01 3.07353E-01-9.47665E-02 8.28160E-01-1.47511E-02
 -1      1741-6.32314E+00 5.85687E-01 3.59415E-01-1.06844E-01 9.58468E-01-1.38638E-02
 -1      1742-6.51486E+00 5.61138E-01 3.43844E-01-1.02559E-01 9.15812E-01-7.21595E-03
 -1      1743-6.85882E+00 5.45633E-01 3.42443E-01-1.03408E-01 8.97194E-01-2.66349E-02
 -1      1744-5.92888E+00 6.25043E-01 3.78290E-01-1.13811E-01 1.02836E+00-1.79458E-02
 -1      1745-6.12364E+00 6.06294E-01 3.67229E-01-1.10006E-01 9.85769E-01-1.93106E-02
 -1      1746-6.45688E+00 5.89085E-01 3.62041E-01-1.16649E-01 9.70079E-01-3.72386E-02
 -1      1747-5.52148E+00 6.72380E-01 4.08879E-01-1.20116E-01 1.09657E+00-2.23753E-02
 -1      1748-5.72833E+00 6.48061E-01 4.03106E-01-1.22206E-01 1.05841E+00-1.90856E-02
 -1      1749-6.05253E+00 6.34036E-01 3.88069E-01-1.23547E-01 1.04455E+00-4.41167E-02
 -1      1750-5.08316E+00 7.15940E-01 4.33437E-01-1.25029E-01 1.16619E+00-2.95299E-02
 -1      1751-5.30764E+00 6.86941E-01 4.26731E-01-1.20441E-01 1.12750E+00-2.71980E-02
 -1      1752-5.62188E+00 6.87102E-01 4.23852E-01-1.28536E-01 1.10868E+00-5.06431E-02
 -1      1753-4.67901E+00 7.48844E-01 4.57612E-01-1.22137E-01 1.22794E+00-5.85462E-02
 -1      1754-4.88983E+00 7.31925E-01 4.52854E-01-1.22492E-01 1.19302E+00-4.28072E-02
 -1      1755-5.18021E+00 7.17513E-01 4.44090E-01-1.35580E-01 1.17252E+00-5.85692E-02
 -1      1756-4.24074E+00 7.87650E-01 4.80548E-01-1.21007E-01 1.28702E+00-7.04192E-02
 -1      1757-4.45060E+00 7.70098E-01 4.69146E-01-1.20080E-01 1.25113E+00-6.37634E-02
 -1      1758-4.75301E+00 7.53372E-01 4.61936E-01-1.42586E-01 1.23646E+00-7.30763E-02
 -1      1759-3.79841E+00 8.20612E-01 4.99756E-01-1.20398E-01 1.34361E+00-8.06808E-02
 -1      1760-4.01196E+00 8.06727E-01 4.88855E-01-1.19760E-01 1.30875E+00-7.54816E-02
 -1      1761-4.29735E+00 7.90870E-01 4.84116E-01-1.45269E-01 1.29437E+00-8.24734E-02
 -1      1762-3.33635E+00 8.55098E-01 5.23480E-01-1.19116E-01 1.39597E+00-9.86277E-02
 -1      1763-3.55917E+00 8.40612E-01 5.12772E-01-1.18082E-01 1.36335E+00-8.76156E-02
 -1      1764-3.83658E+00 8.24264E-01 5.05372E-01-1.46668E-01 1.35038E+00-9.11102E-02
 -1      1765-2.89133E+00 8.72423E-01 5.24449E-01-1.21562E-01 1.43852E+00-9.77744E-02
 -1      1766-3.08505E+00 8.72900E-01 5.26496E-01-1.19181E-01 1.40843E+00-1.10116E-01
 -1      1767-3.33440E+00 8.59160E-01 5.25703E-01-1.42259E-01 1.39518E+00-1.17870E-01
 -1      1768-2.40846E+00 9.11438E-01 5.49988E-01-1.18936E-01 1.48465E+00-1.01807E-01
 -1      1769-2.64956E+00 8.93309E-01 5.53483E-01-1.25392E-01 1.45784E+00-9.78864E-02
 -1      1770-2.91294E+00 8.75632E-01 5.28508E-01-1.40375E-01 1.44674E+00-1.24837E-01
 -1      1771-1.94535E+00 9.33177E-01 5.65273E-01-1.14441E-01 1.52153E+00-1.10260E-01
 -1      1772-2.18611E+00 9.19094E-01 5.64278E-01-1.21340E-01 1.49695E+00-1.02862E-01
 -1      1773-2.38858E+00 9.26499E-01 5.65886E-01-1.31678E-01 1.48719E+00-1.25453E-01
 -1      1774-1.45942E+00 9.57881E-01 5.77578E-01-1.06366E-01 1.55502E+00-1.17500E-01
 -1      1775-1.71753E+00 9.36670E-01 5.78008E-01-1.12890E-01 1.53100E+00-1.10809E-01
 -1      1776-1.95130E+00 9.26145E-01 5.56000E-01-1.31343E-01 1.52580E+00-1.30086E-01
 -1      1777-1.00072E+00 9.66278E-01 5.82630E-01-1.04203E-01 1.58011E+00-1.35276E-01
 -1      1778-1.23020E+00 9.61813E-01 5.87342E-01-1.06017E-01 1.56463E+00-1.29171E-01
 -1      1779-1.43230E+00 9.40136E-01 5.67032E-01-1.25286E-01 1.55543E+00-1.38642E-01
 -1      1780-5.23296E-01 9.84477E-01 5.93563E-01-9.62718E-02 1.60279E+00-1.38391E-01
 -1      1781-7.71672E-01 9.73674E-01 5.95871E-01-1.05033E-01 1.58579E+00-1.33092E-01
 -1      1782-9.37325E-01 9.78326E-01 5.95657E-01-1.19809E-01 1.58008E+00-1.52998E-01
 -1      1783-5.21402E-02 9.96775E-01 5.99251E-01-8.42146E-02 1.61732E+00-1.44296E-01
 -1      1784-2.96738E-01 9.84688E-01 6.05059E-01-9.54935E-02 1.60527E+00-1.42415E-01
 -1      1785-4.73130E-01 9.79489E-01 5.87454E-01-1.08585E-01 1.60266E+00-1.61125E-01
 -1      1786 3.90907E-01 1.00788E+00 6.06061E-01-6.53264E-02 1.62703E+00-1.38526E-01
 -1      1787 1.65108E-01 9.95893E-01 6.06503E-01-7.82923E-02 1.61898E+00-1.43384E-01
 -1      1788 2.80306E-02 1.00105E+00 6.06097E-01-9.70175E-02 1.61365E+00-1.56113E-01
 -1      1789 4.21139E-01 9.91576E-01 5.96299E-01-7.97454E-02 1.62617E+00-1.42139E-01
 -1      1790-5.42933E+00 7.41107E-01 4.36874E-01-1.06589E-01 1.22517E+00-1.54337E-01
 -1      1791-5.16419E+00 7.62154E-01 4.47824E-01-1.11160E-01 1.24569E+00-1.38315E-01
 -1      1792-4.90671E+00 7.78725E-01 4.64121E-01-1.10015E-01 1.28550E+00-1.40160E-01
 -1      1793-4.66224E+00 7.94963E-01 4.71131E-01-1.04961E-01 1.30807E+00-1.29935E-01
 -1      1794-4.86966E+00 7.64708E-01 4.57930E-01-1.25157E-01 1.26416E+00-1.21880E-01
 -1      1795-2.87019E+00 8.94701E-01 5.40054E-01-9.59876E-02 1.48183E+00-1.60074E-01
 -1      1796-2.59547E+00 9.03326E-01 5.47068E-01-9.18624E-02 1.49277E+00-1.59726E-01
 -1      1797-3.39981E+00 8.66634E-01 5.31448E-01-1.03546E-01 1.43683E+00-1.50049E-01
 -1      1798-3.12589E+00 8.81636E-01 5.30206E-01-9.39988E-02 1.45107E+00-1.51902E-01
 -1      1799-2.87947E+00 8.86578E-01 5.35913E-01-1.25156E-01 1.46939E+00-1.60649E-01
 -1      1800-1.39658E+00 9.49742E-01 5.70384E-01-1.20442E-01 1.56289E+00-1.58971E-01
 -1      1801-1.62940E+00 9.45052E-01 5.70934E-01-1.24220E-01 1.54025E+00-1.54705E-01
 -1      1802-1.91693E+00 9.17989E-01 5.52929E-01-1.31720E-01 1.53484E+00-1.52592E-01
 -1      1803-2.14022E+00 9.18385E-01 5.54437E-01-1.17414E-01 1.50582E+00-1.63976E-01
 -1      1804-1.85749E+00 9.36525E-01 5.66330E-01-1.16788E-01 1.53511E+00-1.65673E-01
 -1      1805-7.89391E-01 9.58114E-01 5.66040E-01-7.77474E-02 1.59803E+00-1.94596E-01
 -1      1806-4.88343E-01 9.77445E-01 5.79522E-01-7.29027E-02 1.59794E+00-1.80910E-01
 -1      1807-2.39622E-01 9.77938E-01 5.87376E-01-6.37303E-02 1.61340E+00-1.80144E-01
 -1      1808-3.10161E-01 9.82213E-01 5.87757E-01-9.40702E-02 1.60389E+00-1.80138E-01
 -1      1809 4.08627E-02 9.83445E-01 5.83475E-01-5.65315E-02 1.61253E+00-1.66617E-01
 -1      1810-6.33680E+00 6.68900E-01 3.94917E-01-9.59690E-02 1.09738E+00-1.12212E-01
 -1      1811-6.11525E+00 6.89406E-01 4.11740E-01-9.89946E-02 1.12669E+00-1.14554E-01
 -1      1812-6.58210E+00 6.39397E-01 3.81434E-01-8.96191E-02 1.05156E+00-1.11949E-01
 -1      1813-6.25934E+00 6.60159E-01 3.96325E-01-1.10451E-01 1.07392E+00-1.01833E-01
 -1      1814-6.82906E+00 6.19123E-01 3.73483E-01-9.57803E-02 1.02684E+00-1.17016E-01
 -1      1815-3.87156E+00 8.29498E-01 5.00915E-01-1.44109E-01 1.36650E+00-1.11347E-01
 -1      1816-4.10803E+00 8.11476E-01 4.96778E-01-1.42179E-01 1.33360E+00-1.01314E-01
 -1      1817-3.35587E+00 8.62322E-01 5.26925E-01-1.32730E-01 1.40944E+00-1.30604E-01
 -1      1818-3.61901E+00 8.46632E-01 5.16279E-01-1.41936E-01 1.38012E+00-1.18671E-01
 -1      1819-3.88925E+00 8.27742E-01 4.98236E-01-1.29950E-01 1.36993E+00-1.38236E-01
 -1      1820-7.68930E+00 5.40661E-01 3.16200E-01-7.51140E-02 8.85550E-01-1.16724E-01
 -1      1821-7.45831E+00 5.69341E-01 3.34046E-01-8.02824E-02 9.16522E-01-1.08611E-01
 -1      1822-7.23511E+00 5.84434E-01 3.57443E-01-8.55804E-02 9.59275E-01-1.08617E-01
 -1      1823-6.98597E+00 6.16548E-01 3.73373E-01-8.62490E-02 9.88115E-01-1.24816E-01
 -1      1824-7.12141E+00 5.67833E-01 3.40982E-01-9.39960E-02 9.35013E-01-8.45004E-02
 -1      1825-1.04259E+01 7.71236E-02 4.75643E-02 1.97564E-01 1.27796E-01-2.09444E-03
 -1      1826-1.04873E+01 6.36136E-02 3.83651E-02 2.11620E-01 1.04440E-01-6.32962E-04
 -1      1827-1.02668E+01 1.01702E-01 6.24927E-02 1.60484E-01 1.76304E-01-5.02380E-03
 -1      1828-1.03478E+01 8.86913E-02 5.76282E-02 1.75415E-01 1.50359E-01-3.07544E-03
 -1      1829-1.06927E+01 9.47718E-02 5.70512E-02 1.96275E-01 1.43496E-01-1.66591E-02
 -1      1830-1.05779E+01 1.76513E-01 1.05652E-01 1.12559E-01 2.61086E-01-4.23004E-02
 -1      1831-1.04379E+01 2.00983E-01 1.22417E-01 9.84072E-02 2.88110E-01-5.86436E-02
 -1      1832-1.08049E+01 1.41875E-01 7.41931E-02 1.41982E-01 2.04175E-01-5.25964E-02
 -1      1833-1.06913E+01 1.63153E-01 8.96613E-02 1.30055E-01 2.29114E-01-4.12627E-02
 -1      1834-1.03321E+01 1.51607E-01 8.92404E-02 1.26153E-01 2.45774E-01-1.99588E-02
 -1      1835-1.12674E+01 5.77031E-02 3.47724E-02 2.52238E-01 7.23815E-02-2.33279E-02
 -1      1836-1.11992E+01 6.96868E-02 3.61544E-02 2.43026E-01 8.48189E-02-1.58609E-02
 -1      1837-1.12958E+01 5.71624E-02 3.55333E-02 2.66863E-01 6.22627E-02-3.61491E-02
 -1      1838-1.13663E+01 2.31190E-02 2.19031E-02 2.88457E-01 4.43806E-02-1.51288E-02
 -1      1839-1.09569E+01 4.83781E-02 3.47225E-02 2.68440E-01 7.17284E-02-1.04216E-02
 -1      1840-8.77134E+00 3.41020E-01 2.10334E-01-8.79772E-03 5.54262E-01-2.11879E-02
 -1      1841-8.94077E+00 3.14780E-01 1.93463E-01 1.05187E-03 5.13821E-01-1.80380E-02
 -1      1842-9.08666E+00 2.91763E-01 1.80108E-01 1.15972E-02 4.83258E-01-1.55944E-02
 -1      1843-9.30420E+00 3.05852E-01 1.82610E-01 1.25478E-02 5.00346E-01-3.88740E-02
 -1      1844-9.23676E+00 2.67391E-01 1.69011E-01 2.59080E-02 4.44528E-01-1.35195E-02
 -1      1845-8.45668E+00 4.57405E-01 2.81174E-01-4.10283E-02 7.38550E-01-7.04013E-02
 -1      1846-8.26210E+00 4.79664E-01 2.85674E-01-4.48374E-02 7.71638E-01-7.80910E-02
 -1      1847-8.63619E+00 4.38511E-01 2.59928E-01-3.21357E-02 7.00618E-01-6.44718E-02
 -1      1848-8.28690E+00 4.37675E-01 2.63126E-01-5.34236E-02 7.21800E-01-6.33349E-02
 -1      1849-8.81434E+00 4.16372E-01 2.45080E-01-2.41258E-02 6.65654E-01-6.70117E-02
 -1      1850-1.03685E+01 2.01932E-01 1.20100E-01 8.51516E-02 3.17845E-01-4.85007E-02
 -1      1851-1.02300E+01 2.21796E-01 1.29640E-01 7.92518E-02 3.44184E-01-4.24374E-02
 -1      1852-1.00825E+01 2.49855E-01 1.48780E-01 6.51670E-02 3.82019E-01-4.19632E-02
 -1      1853-9.95057E+00 2.67377E-01 1.51868E-01 5.23674E-02 4.11752E-01-4.09363E-02
 -1      1854-9.86405E+00 2.31845E-01 1.38116E-01 6.85569E-02 3.64333E-01-3.20906E-02
 -1      1855-1.08038E+01-8.68524E-02 9.34626E-03 3.42458E-01 4.11926E-02-2.08772E-02
 -1      1856-1.08325E+01-2.31497E-01 5.71447E-03 4.24237E-01 2.34457E-02 5.58649E-03
 -1      1857-1.11204E+01-4.40844E-01 6.60635E-02 3.50718E-01 3.85074E-02 3.66046E-02
 -1      1858-1.06985E+01-4.19235E-01 6.31224E-02 4.57464E-01 1.23765E-02 4.60297E-02
 -1      1859-1.02805E+01-6.30550E-01 9.11875E-02 6.51515E-01 6.99509E-03 1.36855E-01
 -1      1860-1.05276E+01-7.92833E-01 1.08127E-01 5.38415E-01 2.52889E-02 9.37170E-02
 -1      1861-4.80922E+00 7.59707E-01 4.63118E-01-1.42181E-01 1.25621E+00-9.21560E-02
 -1      1862-5.04775E+00 7.38610E-01 4.53603E-01-1.34324E-01 1.21946E+00-8.81514E-02
 -1      1863-5.27613E+00 7.26440E-01 4.40342E-01-1.34564E-01 1.19514E+00-8.65475E-02
 -1      1864-5.47919E+00 7.10496E-01 4.34148E-01-1.33891E-01 1.15533E+00-8.29153E-02
 -1      1865-5.34034E+00 7.37305E-01 4.45294E-01-1.24696E-01 1.20338E+00-1.13278E-01
 -1      1866-1.28206E+00 9.52910E-01 5.80403E-01-7.82308E-02 1.58071E+00-1.74347E-01
 -1      1867-9.83085E-01 9.64869E-01 5.82062E-01-8.12696E-02 1.58438E+00-1.79862E-01
 -1      1868-1.80719E+00 9.34433E-01 5.54615E-01-8.96535E-02 1.55002E+00-1.64478E-01
 -1      1869-1.55249E+00 9.42929E-01 5.66638E-01-8.07307E-02 1.55851E+00-1.62855E-01
 -1      1870-1.33855E+00 9.46665E-01 5.75209E-01-1.08301E-01 1.56947E+00-1.73711E-01
 -1      1871 9.51657E-02 9.87610E-01 5.90195E-01-1.04580E-01 1.62015E+00-1.64508E-01
 -1      1872-1.46025E-01 9.81119E-01 5.96405E-01-1.03209E-01 1.60478E+00-1.75128E-01
 -1      1873 2.52526E-01 9.81516E-01 5.91843E-01-9.55095E-02 1.61905E+00-1.48373E-01
 -1      1874 8.67571E-02 9.60780E-01 5.79016E-01-8.64289E-02 1.61686E+00-1.55771E-01
 -1      1875 3.61993E-01 9.78027E-01 5.79015E-01-9.36084E-02 1.61869E+00-1.36854E-01
 -1      1876 3.63745E-01 9.67663E-01 5.81491E-01-9.12724E-02 1.62138E+00-1.31233E-01
 -1      1877-6.98897E+00 5.57369E-01 3.42035E-01-1.02822E-01 9.22185E-01-5.18231E-02
 -1      1878-7.19687E+00 5.32650E-01 3.33637E-01-9.13695E-02 8.79103E-01-4.77159E-02
 -1      1879-7.39380E+00 5.16375E-01 3.13718E-01-8.85692E-02 8.46324E-01-4.15382E-02
 -1      1880-7.55764E+00 4.92996E-01 2.97651E-01-7.62462E-02 8.06499E-01-4.31315E-02
 -1      1881-7.52978E+00 5.35454E-01 3.23354E-01-8.13028E-02 8.62076E-01-7.40725E-02
 -1      1882-3.95434E-01 9.70837E-01 5.83676E-01-1.06365E-01 1.60653E+00-1.77892E-01
 -1      1883-6.37902E-01 9.68421E-01 5.84528E-01-9.73772E-02 1.58571E+00-1.81153E-01
 -1      1884-9.07754E-01 9.61658E-01 5.83460E-01-1.08511E-01 1.59262E+00-1.82443E-01
 -1      1885-1.12855E+00 9.63622E-01 5.87090E-01-1.18357E-01 1.57199E+00-1.65334E-01
 -1      1886-8.34615E-01 9.68789E-01 5.83101E-01-1.07258E-01 1.58735E+00-1.82312E-01
 -1      1887-6.56870E+00 6.07134E-01 3.70624E-01-1.08588E-01 9.91474E-01-6.23706E-02
 -1      1888-6.78618E+00 5.83595E-01 3.54437E-01-1.05950E-01 9.49566E-01-5.76777E-02
 -1      1889-6.16732E+00 6.45403E-01 3.89574E-01-1.21133E-01 1.05922E+00-7.40596E-02
 -1      1890-6.37915E+00 6.21251E-01 3.81074E-01-1.19248E-01 1.02181E+00-6.36735E-02
 -1      1891-6.68513E+00 6.16601E-01 3.73400E-01-1.01274E-01 1.01197E+00-9.71040E-02
 -1      1892-9.50061E+00 3.28560E-01 2.01286E-01 7.82385E-03 5.22002E-01-6.13198E-02
 -1      1893-9.30765E+00 3.58849E-01 2.18362E-01-1.67733E-04 5.53716E-01-8.08577E-02
 -1      1894-9.19696E+00 3.61998E-01 2.17520E-01-1.34703E-02 5.91297E-01-7.23233E-02
 -1      1895-9.00670E+00 3.85884E-01 2.28909E-01-1.51627E-02 6.20342E-01-6.67525E-02
 -1      1896-8.97454E+00 3.54680E-01 2.15845E-01-9.68854E-03 5.77016E-01-4.86106E-02
 -1      1897-9.85519E+00 1.72121E-01 1.08290E-01 9.45809E-02 2.87250E-01-3.76455E-03
 -1      1898-9.97397E+00 1.51330E-01 9.39595E-02 1.13334E-01 2.54569E-01-6.15710E-03
 -1      1899-9.63422E+00 2.09629E-01 1.27070E-01 6.50255E-02 3.49677E-01-6.06945E-03
 -1      1900-9.74837E+00 1.88216E-01 1.14224E-01 7.84499E-02 3.16350E-01-5.02547E-03
 -1      1901-1.00951E+01 1.93772E-01 1.18003E-01 9.51663E-02 3.07706E-01-2.75259E-02
 -1      1902-8.47177E+00 3.82902E-01 2.30158E-01-3.19691E-02 6.28978E-01-2.83310E-02
 -1      1903-8.63744E+00 3.53396E-01 2.12830E-01-2.32504E-02 5.88134E-01-2.92439E-02
 -1      1904-8.29043E+00 4.02033E-01 2.49474E-01-4.45290E-02 6.58716E-01-3.67756E-02
 -1      1905-8.64270E+00 4.01068E-01 2.42997E-01-3.06029E-02 6.42563E-01-5.66284E-02
 -1      1906-8.12070E+00 4.19078E-01 2.59882E-01-4.84312E-02 7.04062E-01-4.10257E-02
 -1      1907-1.09758E+01-8.88754E-01 4.79038E-02 2.25638E-01 1.83461E-02 2.70536E-02
 -1      1908-1.13261E+01-5.54108E-01 6.37615E-02 1.06692E-01 4.76229E-02 2.96532E-02
 -1      1909-1.13545E+01-4.04079E-01 8.73985E-02 2.70920E-01 3.83382E-02 7.22310E-02
 -1      1910 3.59712E-01 9.63544E-01 5.77172E-01-7.44094E-02 1.62064E+00-1.37178E-01
 -1      1911 3.20925E-01 9.64626E-01 5.74675E-01-5.28115E-02 1.62621E+00-1.42458E-01
 -1      1912 2.05971E-01 9.74711E-01 5.85179E-01-6.28279E-02 1.62303E+00-1.54724E-01
 -1      1913-2.40884E+00 9.10378E-01 5.50898E-01-1.26246E-01 1.50228E+00-1.63585E-01
 -1      1914-2.62878E+00 9.05526E-01 5.53971E-01-1.36800E-01 1.47223E+00-1.49332E-01
 -1      1915-2.90808E+00 8.89759E-01 5.29240E-01-1.33427E-01 1.45998E+00-1.48591E-01
 -1      1916-3.16716E+00 8.66963E-01 5.16257E-01-1.32847E-01 1.43132E+00-1.55206E-01
 -1      1917-3.89338E+00 8.43526E-01 5.03071E-01-1.07551E-01 1.39232E+00-1.46966E-01
 -1      1918-3.65183E+00 8.57606E-01 5.12175E-01-9.92588E-02 1.41118E+00-1.40847E-01
 -1      1919-4.41499E+00 8.13887E-01 4.94787E-01-1.04931E-01 1.33847E+00-1.32659E-01
 -1      1920-4.16213E+00 8.25266E-01 4.95998E-01-1.08568E-01 1.35628E+00-1.43891E-01
 -1      1921-1.09598E+01 1.18066E-01 7.31910E-02 1.83251E-01 1.55838E-01-2.78406E-02
 -1      1922-1.08620E+01 1.36637E-01 7.92242E-02 1.56836E-01 1.76651E-01-3.95293E-02
 -1      1923-1.11172E+01 9.15494E-02 4.89753E-02 2.22214E-01 1.07262E-01-1.81063E-02
 -1      1924-1.10422E+01 1.03699E-01 6.26663E-02 2.03278E-01 1.29486E-01-2.33126E-02
 -1      1925-1.06833E+01 1.54392E-02 1.81492E-02 2.69416E-01 5.62435E-02-6.61539E-03
 -1      1926-1.07612E+01-2.44115E-02-2.08112E-03 3.07832E-01 4.60248E-02-1.38330E-02
 -1      1927-1.05681E+01 5.04165E-02 3.06768E-02 2.30603E-01 9.13623E-02-7.33082E-04
 -1      1928-1.06150E+01 3.94372E-02 2.67565E-02 2.48006E-01 7.16310E-02-4.34573E-03
 -1      1929-1.10991E+01-3.52493E-02 2.54562E-02 3.15965E-01 4.73782E-02-4.25333E-03
 -1      1930-1.14262E+01-5.29547E-02 2.63290E-02 3.15409E-01 3.25609E-02-1.23334E-02
 -1      1931-1.14550E+01-1.92266E-01 2.56229E-02 2.75950E-01 3.69852E-02 1.44337E-02
 -1      1932-5.88211E+00 7.10924E-01 4.32523E-01-1.02083E-01 1.16483E+00-1.24663E-01
 -1      1933-5.61178E+00 7.33999E-01 4.42836E-01-1.10302E-01 1.18948E+00-1.32910E-01
 -1      1934-5.80371E+00 6.87627E-01 4.16776E-01-1.15579E-01 1.14651E+00-1.06871E-01
 -1      1935-5.94036E+00 6.60895E-01 4.06407E-01-1.22286E-01 1.08714E+00-7.68824E-02
 -1      1936-5.72432E+00 6.81883E-01 4.15255E-01-1.25325E-01 1.13080E+00-8.28662E-02
 -1      1937-2.36824E+00 9.13864E-01 5.52734E-01-8.54496E-02 1.51866E+00-1.59077E-01
 -1      1938-2.07442E+00 9.30582E-01 5.52865E-01-9.02081E-02 1.52563E+00-1.59747E-01
 -1      1939-2.38003E+00 9.17962E-01 5.51276E-01-1.27770E-01 1.49971E+00-1.70182E-01
 -1      1940-4.34033E+00 7.97198E-01 4.82814E-01-1.43154E-01 1.31222E+00-1.00593E-01
 -1      1941-4.58052E+00 7.76854E-01 4.73613E-01-1.39830E-01 1.27601E+00-9.70321E-02
 -1      1942-4.38587E+00 7.98282E-01 4.81464E-01-1.27209E-01 1.32239E+00-1.25267E-01
 -1      1943-8.06626E+00 5.07780E-01 3.06875E-01-5.60189E-02 8.15695E-01-8.61586E-02
 -1      1944-7.83973E+00 5.30728E-01 3.21001E-01-7.15734E-02 8.46189E-01-9.69836E-02
 -1      1945-7.91819E+00 4.79666E-01 2.87338E-01-6.52589E-02 7.94445E-01-7.03115E-02
 -1      1946-7.92450E+00 4.51619E-01 2.67464E-01-5.98527E-02 7.31670E-01-4.24387E-02
 -1      1947-7.76341E+00 4.66069E-01 2.78563E-01-6.93525E-02 7.75903E-01-4.05540E-02
 -1      1948-9.80927E+00 2.90409E-01 1.70159E-01 3.77280E-02 4.46694E-01-4.29700E-02
 -1      1949-9.66655E+00 3.10499E-01 1.86122E-01 2.20773E-02 4.79438E-01-5.91747E-02
 -1      1950-9.59324E+00 2.68293E-01 1.61210E-01 4.11583E-02 4.29934E-01-3.17797E-02
 -1      1951-9.49185E+00 2.29483E-01 1.38250E-01 5.27017E-02 3.75130E-01-8.33741E-03
 -1      1952-9.37268E+00 2.50167E-01 1.54708E-01 3.97975E-02 4.12236E-01-1.07067E-02
 -1      1953-1.05332E+01 1.27181E-01 7.41464E-02 1.61290E-01 1.89689E-01-2.17793E-02
 -1      1954-1.00633E+01 1.36688E-01 8.77876E-02 1.27745E-01 2.28668E-01-5.67669E-03
 -1      1955-1.01764E+01 1.17111E-01 7.36940E-02 1.45140E-01 1.99502E-01-6.17935E-03
 -1      1956-1.08465E+01 7.01747E-02 4.12095E-02 2.33529E-01 1.01653E-01-1.49036E-02
 -1      1957-3.38996E+00 8.68273E-01 5.28377E-01-1.23798E-01 1.42435E+00-1.42996E-01
 -1      1958 6.06548E+00 7.64907E-01 4.65185E-01-1.70694E-02 1.26838E+00-1.49598E-01
 -1      1959 4.45566E+00 8.92130E-01 5.37324E-01-3.56858E-02 1.46759E+00-1.76622E-01
 -1      1960 3.85999E+00 9.27742E-01 5.61067E-01 2.65926E-02 1.53813E+00-1.36095E-01
 -1      1961 2.18022E+00 9.77931E-01 5.95494E-01-7.16052E-02 1.60983E+00-1.66985E-01
 -1      1962 7.13365E+00 6.55126E-01 4.02866E-01-1.43564E-02 1.07977E+00-1.47399E-01
 -1      1963 5.82969E+00 8.32964E-01 4.95217E-01 4.95789E-02 1.37559E+00-1.04514E-01
 -1      1964 7.80851E+00 5.63842E-01 3.39423E-01-2.43723E-02 9.37490E-01-1.20798E-01
 -1      1965 1.15403E+01 1.04200E-01 4.80821E-02-1.70551E-01 1.37020E-01 9.59274E-06
 -1      1966 1.00033E+01 1.23096E-01 7.38849E-02-1.53181E-01 2.43490E-01-4.44364E-02
 -1      1967 1.03516E+01 8.28905E-03 8.89338E-03-2.52721E-01 6.19479E-02-3.17732E-02
 -1      1968 1.05041E+01 3.15313E-01 1.74541E-01-2.59902E-02 4.97958E-01-7.68789E-03
 -1      1969 9.70720E+00 4.42196E-01 2.50000E-01 1.72006E-02 7.16440E-01-1.47041E-02
 -1      1970 1.09296E+01 2.37796E-01 1.29609E-01-6.58823E-02 3.62066E-01 5.02800E-03
 -1      1971 1.17603E+01 2.44859E-01-8.19472E-03-4.23443E-01 1.29305E-02 1.57759E-02
 -1      1972 7.15484E+00 7.34509E-01 4.35534E-01 5.84076E-02 1.20449E+00-7.53894E-02
 -1      1973 3.14965E+00 9.53797E-01 5.65608E-01-5.92141E-02 1.56943E+00-1.63712E-01
 -1      1974 1.78182E+00 9.76593E-01 5.84956E-01-1.49410E-02 1.61784E+00-1.40336E-01
 -1      1975 9.04902E+00 5.35923E-01 3.14445E-01 3.28738E-02 8.62094E-01-3.87684E-02
 -1      1976 2.85744E+00 9.54875E-01 5.69975E-01 8.90662E-03 1.59411E+00-1.46745E-01
 -1      1977 8.36877E+00 6.06241E-01 3.53475E-01 4.33548E-02 1.01098E+00-5.95909E-02
 -1      1978 9.10553E+00 3.39775E-01 2.12970E-01-5.57965E-02 5.75602E-01-1.03102E-01
 -1      1979 8.36149E+00 4.73022E-01 2.89176E-01-3.29201E-02 7.90518E-01-1.07709E-01
 -1      1980 9.54195E+00 2.43222E-01 1.47637E-01-1.01035E-01 4.32910E-01-6.02256E-02
 -1      1981 1.07387E+01 1.13915E+00-7.21179E-01 4.76982E-02 1.90310E-03-2.73008E-02
 -1      1982 1.44062E+00 1.01833E+00 6.82581E-01-7.83297E-02 1.62111E+00-1.31541E-01
 -1      1983 4.89238E+00 8.84458E-01 5.23813E-01 4.27830E-02 1.46875E+00-1.19069E-01
 -1      1984 5.31888E+00 8.31709E-01 4.96819E-01-2.34773E-02 1.37781E+00-1.57390E-01
 -1      1985 1.12808E+01 1.67961E-01 8.19175E-02-1.15483E-01 2.40918E-01-4.43034E-03
 -1      1986 1.02209E+01 5.58430E-02 3.37072E-02-2.00699E-01 1.41933E-01-2.63608E-02
 -1      1987 1.17314E+01 6.29630E-02 3.10775E-02-2.10710E-01 5.95705E-02-9.35330E-03
 -1      1988 1.17970E+01 8.28436E-02 1.91829E-02-2.55924E-01 3.34722E-02-3.31411E-02
 -1      1989 1.11778E+01 1.91078E-01-2.45852E-02-3.12252E-01 2.33874E-02-2.93108E-03
 -1      1990 2.31937E+00 9.64651E-01 5.76448E-01 2.37446E-03 1.60924E+00-1.48170E-01
 -1      1991 6.44220E+00 7.32437E-01 4.44117E-01-1.39777E-02 1.20864E+00-1.46091E-01
 -1      1992 6.83807E+00 6.85963E-01 4.10094E-01-4.84756E-03 1.14201E+00-1.47483E-01
 -1      1993 7.37862E+00 6.71219E-01 4.01828E-01 2.54170E-03 1.11045E+00-1.10499E-01
 -1      1994 4.04125E+00 9.10296E-01 5.48102E-01-3.95894E-02 1.50708E+00-1.68252E-01
 -1      1995 8.10819E+00 5.14053E-01 3.06834E-01-3.23024E-02 8.65066E-01-1.08105E-01
 -1      1996 6.29285E+00 7.99002E-01 4.71931E-01 5.78079E-02 1.32358E+00-8.66844E-02
 -1      1997 3.39074E+00 9.40584E-01 5.52626E-01 2.48490E-02 1.56795E+00-1.34217E-01
 -1      1998 4.38672E+00 9.09691E-01 5.40362E-01 3.51269E-02 1.50551E+00-1.27309E-01
 -1      1999 9.33936E+00 2.88082E-01 1.74448E-01-8.10475E-02 4.99485E-01-8.31959E-02
 -1      2000 1.02581E+01 3.54193E-01 2.01409E-01-1.47475E-02 5.71838E-01-1.05557E-02
 -1      2001 9.97345E+00 4.02852E-01 2.31854E-01 8.52755E-03 6.43511E-01-7.80313E-03
 -1      2002 9.30041E+00 4.11197E-01 2.41598E-01-4.56482E-02 6.78674E-01-6.29642E-02
 -1      2003 9.84156E+00 1.67663E-01 1.09166E-01-1.19144E-01 3.04840E-01-7.65442E-02
 -1      2004 9.69246E+00 1.99276E-01 1.28676E-01-1.13427E-01 3.64512E-01-7.26642E-02
 -1      2005 2.63003E+00 9.73486E-01 5.92116E-01-6.10770E-02 1.59235E+00-1.66487E-01
 -1      2006 9.40696E+00 4.84951E-01 2.78464E-01 2.87855E-02 7.89557E-01-2.43194E-02
 -1      2007 1.11200E+01 1.98660E-01 1.08281E-01-8.80892E-02 3.00167E-01 4.91687E-03
 -1      2008 8.72159E+00 5.74097E-01 3.32057E-01 4.36380E-02 9.35830E-01-4.90930E-02
 -1      2009 1.00968E+01 9.04694E-02 6.27522E-02-1.73150E-01 1.87941E-01-4.74788E-02
 -1      2010 1.16408E+01 8.47432E-02 3.60845E-02-1.86774E-01 9.45203E-02 1.81188E-03
 -1      2011 1.02716E+01 2.93594E-02 3.08122E-02-2.13959E-01 9.96813E-02-4.95756E-02
 -1      2012 1.14146E+01 1.35361E-01 6.88413E-02-1.37827E-01 1.85916E-01 1.68327E-02
 -1      2013 4.85029E+00 8.75244E-01 5.33804E-01-1.56966E-02 1.42897E+00-1.82758E-01
 -1      2014 1.07307E+01 2.79224E-01 1.51544E-01-4.91443E-02 4.28636E-01-1.30958E-03
 -1      2015 5.67723E+00 8.02658E-01 4.91872E-01-2.40139E-02 1.32445E+00-1.49035E-01
 -1      2016 7.48935E+00 6.00138E-01 3.64865E-01-1.90529E-02 1.00656E+00-1.26682E-01
 -1      2017 3.53482E+00 9.41789E-01 5.82410E-01-3.73445E-02 1.54563E+00-1.84457E-01
 -1      2018 5.38572E+00 8.55923E-01 5.00946E-01 5.12250E-02 1.42392E+00-1.01407E-01
 -1      2019 6.73641E+00 7.63675E-01 4.49871E-01 5.78548E-02 1.26652E+00-8.34471E-02
 -1      2020 1.10976E+01 4.51773E-02 1.11467E-02-2.97057E-01 5.25961E-02-1.73314E-02
 -1      2021 1.04242E+01 2.41771E-02-3.24703E-03-2.68992E-01 3.27349E-02-1.78907E-02
 -1      2022 1.12018E+01 9.98302E-01-1.10385E+00-5.90143E-01-2.77420E-02 1.14480E-01
 -1      2023 7.99058E+00 6.53921E-01 3.83577E-01 5.83798E-02 1.07388E+00-5.40051E-02
 -1      2024 7.59610E+00 6.92249E-01 4.02284E-01 5.86249E-02 1.14649E+00-6.59789E-02
 -1      2025 9.02413E+00 4.55582E-01 2.68929E-01-3.12909E-02 7.54780E-01-6.73263E-02
 -1      2026 8.87804E+00 3.72925E-01 2.29340E-01-5.37420E-02 6.44522E-01-1.01980E-01
 -1      2027 2.03523E+00 9.73269E-01 5.93624E-01-5.57380E-02 1.61413E+00-1.63853E-01
 -1      2028 2.52224E+00 9.65474E-01 5.83823E-01-4.21447E-02 1.59955E+00-1.90337E-01
 -1      2029 4.91309E+00 8.73938E-01 5.23158E-01-9.87759E-03 1.44402E+00-1.63979E-01
 -1      2030 5.33741E+00 8.44980E-01 5.06296E-01 1.15019E-03 1.40086E+00-1.45706E-01
 -1      2031 5.77702E+00 8.17190E-01 4.89322E-01 6.79689E-04 1.34729E+00-1.34760E-01
 -1      2032 2.98147E+00 9.53586E-01 5.75587E-01-3.13603E-02 1.57954E+00-1.71422E-01
 -1      2033 3.98475E+00 9.19671E-01 5.45257E-01-2.02114E-02 1.52254E+00-1.78497E-01
 -1      2034 8.06647E+00 5.89037E-01 3.53105E-01-1.12621E-03 9.72806E-01-9.79958E-02
 -1      2035 6.62923E+00 7.43118E-01 4.44177E-01 6.19421E-03 1.23759E+00-1.35412E-01
 -1      2036 8.73167E+00 4.98707E-01 2.97232E-01-2.37275E-02 8.27180E-01-7.54114E-02
 -1      2037 1.07069E+01 1.26538E-01 7.08107E-02-1.88282E-01 2.18699E-01-3.07052E-02
 -1      2038 1.08158E+01 9.58268E-02 5.36122E-02-2.13047E-01 1.69080E-01-2.69992E-02
 -1      2039 1.09237E+01 6.83329E-02 3.68373E-02-2.44377E-01 1.20508E-01-1.71675E-02
 -1      2040 1.10152E+01 4.40733E-02 1.85552E-02-2.73457E-01 8.38542E-02-1.87440E-02
 -1      2041 4.41772E+00 9.00837E-01 5.46472E-01-1.40608E-02 1.48306E+00-1.71186E-01
 -1      2042 1.05530E+01 1.63849E-01 9.31314E-02-1.59923E-01 2.76476E-01-3.51007E-02
 -1      2043 6.20506E+00 7.83566E-01 4.69120E-01 4.49118E-03 1.29501E+00-1.30754E-01
 -1      2044 1.00209E+01 2.80353E-01 1.62336E-01-9.60498E-02 4.66077E-01-4.37728E-02
 -1      2045 1.02210E+01 2.38496E-01 1.38896E-01-1.15924E-01 3.97518E-01-3.88115E-02
 -1      2046 1.04155E+01 1.98574E-01 1.15372E-01-1.41840E-01 3.36077E-01-3.62536E-02
 -1      2047 3.49463E+00 9.38981E-01 5.68032E-01-2.72969E-02 1.55224E+00-1.68996E-01
 -1      2048 9.78882E+00 3.22720E-01 1.89449E-01-7.44924E-02 5.39316E-01-5.53565E-02
 -1      2049 8.43646E+00 5.44129E-01 3.22300E-01-7.68400E-03 9.02319E-01-9.46883E-02
 -1      2050 7.75537E+00 6.28736E-01 3.71053E-01 1.64986E-03 1.04298E+00-1.12571E-01
 -1      2051 6.99433E+00 7.09885E-01 4.27625E-01 5.85413E-03 1.17431E+00-1.31322E-01
 -1      2052 8.63341E+00 4.23305E-01 2.59492E-01-4.76941E-02 7.18001E-01-9.39598E-02
 -1      2053 9.58356E+00 3.67107E-01 2.16424E-01-6.36214E-02 6.10417E-01-6.03694E-02
 -1      2054 1.46449E+00 1.02333E+00 6.97582E-01-4.23151E-02 1.62660E+00-1.09764E-01
 -1      2055 1.04886E+01 1.85110E-01-3.03783E-02-1.34756E-01 1.56328E-02 1.35360E-03
 -1      2056 1.73794E+00 9.79185E-01 5.96448E-01-7.02105E-02 1.62110E+00-1.56497E-01
 -1      2057 1.10843E+01 6.62892E-01-7.44051E-02-3.06077E-01-2.81350E-03 5.00868E-02
 -1      2058 1.17809E+01 5.36694E-01-9.15103E-01-1.05790E+00-5.01768E-02 5.32218E-02
 -1      2059 1.01153E+01 4.44580E-01-6.98525E-01 5.81686E-01 5.69019E-02 6.15702E-02
 -1      2060 1.44787E+00 1.00608E+00 6.38566E-01-6.28683E-03 1.63331E+00-1.22570E-01
 -1      2061 1.42805E+00 1.03074E+00 6.96706E-01-6.46422E-02 1.62955E+00-1.30517E-01
 -1      2062 1.69305E+00 9.80932E-01 5.90935E-01-5.47697E-02 1.61901E+00-1.46602E-01
 -1      2063 1.06689E+01 1.71927E+00 8.84757E-01 1.46273E+00-2.53482E-01-5.31420E-01
 -1      2064 1.04664E+01 2.20600E+00 9.29809E-01 8.26349E-01-2.15488E-02-9.75815E-01
 -1      2065 9.27375E+00-1.49613E-01-3.61876E-01 1.68884E-01 1.41794E-01 1.69032E-01
 -1      2066 1.18935E+01 2.60859E+00 1.29291E+00-1.26573E+00 9.69927E-02-1.07243E+00
 -1      2067 1.29067E+01 2.03673E+00 1.16796E+00-1.86700E+00 2.53490E-01-6.85626E-01
 -1      2068 1.11458E+01-2.34946E-01-4.70911E-01-4.08675E-01-1.58784E-01 3.30050E-01
 -1      2069 1.33060E+00 1.05061E+00 6.47882E-01-6.88497E-02 1.63458E+00-1.78011E-01
 -1      2070 1.29612E+00 1.03140E+00 6.10600E-01-4.91215E-02 1.64717E+00-1.83560E-01
 -1      2071 1.49978E+00 1.00762E+00 6.35343E-01-2.85730E-02 1.63369E+00-1.28748E-01
 -1      2072 1.29714E+00 9.92689E-01 5.72979E-01-3.39108E-03 1.62643E+00-1.76387E-01
 -1      2073 1.31535E+00 9.92937E-01 5.94723E-01-1.21155E-02 1.62891E+00-1.77567E-01
 -1      2074 1.54563E+00 9.89546E-01 6.07362E-01 3.35880E-03 1.63546E+00-1.16619E-01
 -1      2075 1.10121E+01 2.71982E+00 1.33783E+00 4.60576E-01 5.69101E-02-1.08128E+00
 -1      2076 1.12526E+01 2.73733E+00 1.25460E+00 7.18045E-03 6.48144E-03-1.10202E+00
 -1      2077 1.04743E+01 9.16728E-01-7.54213E-01 3.35125E-01 2.17991E-02 4.79578E-02
 -1      2078 1.15890E+01 2.79320E+00 1.34220E+00-3.94213E-01 4.52299E-02-1.11287E+00
 -1      2079 1.15204E+01 2.60609E+00 8.83656E-01-8.90289E-01-5.31111E-02-9.16049E-01
 -1      2080 1.09470E+01 1.20720E+00-7.65825E-01-2.73045E-01 1.00310E-02 4.94999E-02
 -1      2081 1.13822E+01 8.43551E-01-1.07558E+00-8.20015E-01-1.41792E-02 1.60305E-01
 -1      2082 1.31851E+00 1.00416E+00 6.28659E-01-6.59915E-02 1.62685E+00-1.84482E-01
 -1      2083 1.32670E+00 1.03946E+00 6.27308E-01-7.30664E-02 1.62740E+00-1.70342E-01
 -1      2084 1.43455E+00 1.03078E+00 6.87991E-01-8.01533E-02 1.62413E+00-1.34026E-01
 -1      2085 1.31868E+00 1.00217E+00 6.37053E-01-3.85183E-02 1.62894E+00-1.75939E-01
 -1      2086 1.30950E+00 9.99733E-01 6.13652E-01-4.79293E-02 1.62936E+00-1.71630E-01
 -1      2087 1.44372E+00 1.00771E+00 6.74142E-01-5.85089E-02 1.62078E+00-1.25197E-01
 -1      2088 1.44687E+00 1.01188E+00 6.63627E-01-2.83272E-02 1.62288E+00-1.22571E-01
 -1      2089 1.00231E+01 5.32968E-02 1.27206E-02-1.07623E-01 1.97569E-02-3.13410E-02
 -1      2090 9.88987E+00 2.02511E-01 7.94520E-02 2.05684E-02-5.60460E-02 2.71262E-02
 -1      2091 1.01347E+01 3.64536E-01-1.01751E-01 1.90049E-01 2.16944E-02 3.77087E-02
 -1      2092 1.00245E+01 1.18330E-02-6.91120E-03-1.60068E-01 3.14640E-02-6.53405E-02
 -1      2093 9.97710E+00 4.71228E-03-1.03226E-02-1.53379E-01 1.15288E-02-2.83251E-02
 -1      2094 1.04360E+01 7.16772E-02-1.43936E-02-2.28183E-01 3.70109E-02-1.37257E-03
 -1      2095 1.00005E+01 2.14217E-02 9.63464E-03-1.42095E-01 6.56055E-02-7.93405E-02
 -1      2096 9.97297E+00 2.41066E-04-3.77404E-03-1.52656E-01 4.51026E-02-6.78734E-02
 -1      2097 1.03793E+01 1.29501E-02-3.61749E-03-2.72265E-01 4.36768E-02-3.62124E-02
 -1      2098 9.94407E+00 4.63299E-02 3.59860E-02-1.27397E-01 1.07705E-01-6.22982E-02
 -1      2099 9.92533E+00 1.51921E-02 1.14066E-02-1.33683E-01 8.48469E-02-8.60674E-02
 -1      2100 1.02980E+01 7.74860E-03 8.39713E-03-2.46641E-01 7.96235E-02-5.21288E-02
 -1      2101 9.86195E+00 6.95598E-02 3.67876E-02-1.03249E-01 1.47653E-01-8.79421E-02
 -1      2102 9.88442E+00 5.00028E-02 2.53089E-02-1.15841E-01 1.25823E-01-6.19760E-02
 -1      2103 1.02694E+01 4.99997E-02 3.99179E-02-2.13853E-01 1.21656E-01-2.77554E-02
 -1      2104 9.75959E+00 1.06442E-01 7.02310E-02-8.99075E-02 2.00259E-01-7.72641E-02
 -1      2105 9.78786E+00 7.93074E-02 5.06348E-02-9.44713E-02 1.72749E-01-9.51150E-02
 -1      2106 1.01470E+01 6.74969E-02 3.92783E-02-1.96113E-01 1.64123E-01-5.60110E-02
 -1      2107 9.64117E+00 1.38723E-01 7.69612E-02-7.13826E-02 2.52544E-01-1.06036E-01
 -1      2108 9.68896E+00 1.16532E-01 6.54581E-02-8.13426E-02 2.26188E-01-7.92447E-02
 -1      2109 1.00627E+01 1.10025E-01 7.43935E-02-1.64428E-01 2.16050E-01-4.19359E-02
 -1      2110 9.51172E+00 1.83649E-01 1.15680E-01-6.53895E-02 3.16840E-01-8.99767E-02
 -1      2111 9.54381E+00 1.54384E-01 9.46238E-02-6.29404E-02 2.86310E-01-1.14680E-01
 -1      2112 9.89169E+00 1.34004E-01 7.61235E-02-1.44840E-01 2.72523E-01-7.82238E-02
 -1      2113 9.34780E+00 2.13601E-01 1.32972E-01-5.20812E-02 3.81066E-01-9.91869E-02
 -1      2114 9.42782E+00 1.88873E-01 1.15819E-01-6.12025E-02 3.49961E-01-9.51338E-02
 -1      2115 9.79058E+00 1.89005E-01 1.20843E-01-1.23058E-01 3.33332E-01-6.80365E-02
 -1      2116 9.19076E+00 2.61408E-01 1.54548E-01-3.27719E-02 4.46014E-01-1.19104E-01
 -1      2117 9.26107E+00 2.36962E-01 1.39748E-01-4.26024E-02 4.14160E-01-9.80451E-02
 -1      2118 9.62983E+00 2.24798E-01 1.46045E-01-1.09878E-01 3.97618E-01-6.27280E-02
 -1      2119 8.99525E+00 3.08395E-01 1.83379E-01-2.20294E-02 5.14015E-01-1.33494E-01
 -1      2120 9.07330E+00 2.78748E-01 1.65913E-01-2.55100E-02 4.81362E-01-1.26404E-01
 -1      2121 9.42713E+00 2.62162E-01 1.54081E-01-9.73127E-02 4.65381E-01-8.26679E-02
 -1      2122 8.78872E+00 3.55881E-01 2.20677E-01-2.30714E-02 5.90837E-01-1.16680E-01
 -1      2123 8.86257E+00 3.25188E-01 1.99642E-01-1.80652E-02 5.56719E-01-1.39343E-01
 -1      2124 9.19844E+00 3.01932E-01 1.80166E-01-7.63379E-02 5.37115E-01-1.03498E-01
 -1      2125 8.55780E+00 3.93729E-01 2.39988E-01-7.67671E-03 6.60814E-01-1.41726E-01
 -1      2126 8.66155E+00 3.63810E-01 2.17712E-01-1.64619E-02 6.28661E-01-1.23951E-01
 -1      2127 9.02000E+00 3.65483E-01 2.26170E-01-6.10698E-02 6.08084E-01-9.51456E-02
 -1      2128 8.32284E+00 4.46709E-01 2.69535E-01 1.55188E-03 7.35584E-01-1.43089E-01
 -1      2129 8.41887E+00 4.15590E-01 2.52481E-01-2.14654E-03 7.00281E-01-1.41861E-01
 -1      2130 8.77517E+00 4.02158E-01 2.53909E-01-5.64608E-02 6.80709E-01-1.00941E-01
 -1      2131 8.05004E+00 4.87716E-01 3.01315E-01 6.03966E-04 8.08927E-01-1.33432E-01
 -1      2132 8.18317E+00 4.67178E-01 2.80824E-01 2.50295E-03 7.76561E-01-1.45194E-01
 -1      2133 8.49417E+00 4.42557E-01 2.62690E-01-4.69192E-02 7.52221E-01-1.04599E-01
 -1      2134 7.79465E+00 5.35173E-01 3.18404E-01 7.25666E-03 8.81686E-01-1.57015E-01
 -1      2135 7.91477E+00 5.05791E-01 3.02043E-01 2.81464E-03 8.48338E-01-1.39634E-01
 -1      2136 8.23684E+00 4.96157E-01 3.02196E-01-3.37183E-02 8.27946E-01-1.01535E-01
 -1      2137 7.50348E+00 5.82025E-01 3.50567E-01 1.22826E-02 9.53395E-01-1.63181E-01
 -1      2138 7.63228E+00 5.55441E-01 3.34431E-01 1.13653E-02 9.22495E-01-1.59948E-01
 -1      2139 7.95096E+00 5.36351E-01 3.17283E-01-3.17002E-02 9.01234E-01-1.22935E-01
 -1      2140 7.19672E+00 6.24572E-01 3.76111E-01 1.52257E-02 1.02219E+00-1.68115E-01
 -1      2141 7.33559E+00 5.96365E-01 3.63112E-01 1.35637E-02 9.93883E-01-1.66486E-01
 -1      2142 7.63965E+00 5.78812E-01 3.49534E-01-2.77207E-02 9.73167E-01-1.29863E-01
 -1      2143 6.86527E+00 6.69839E-01 4.10519E-01 6.76619E-03 1.09607E+00-1.60367E-01
 -1      2144 7.00240E+00 6.40833E-01 3.91266E-01 1.05117E-02 1.06455E+00-1.78062E-01
 -1      2145 7.30993E+00 6.20305E-01 3.79881E-01-2.21191E-02 1.04209E+00-1.46572E-01
 -1      2146 6.54507E+00 7.06273E-01 4.24925E-01 1.29761E-02 1.15639E+00-1.81482E-01
 -1      2147 6.70322E+00 6.84820E-01 4.09898E-01 7.27658E-03 1.13155E+00-1.59619E-01
 -1      2148 6.98887E+00 6.77364E-01 4.08380E-01-3.22894E-03 1.11164E+00-1.46208E-01
 -1      2149 6.18126E+00 7.49835E-01 4.51793E-01 1.25858E-02 1.22125E+00-1.81532E-01
 -1      2150 6.34778E+00 7.25834E-01 4.42313E-01 1.35424E-02 1.19800E+00-1.82867E-01
 -1      2151 6.63657E+00 7.11574E-01 4.30319E-01-1.71357E-02 1.17510E+00-1.57487E-01
 -1      2152 5.81921E+00 7.85077E-01 4.76198E-01 8.96323E-03 1.28112E+00-1.83257E-01
 -1      2153 5.98829E+00 7.64074E-01 4.63337E-01 9.26217E-03 1.25795E+00-1.83592E-01
 -1      2154 6.26639E+00 7.51263E-01 4.56315E-01-2.10122E-02 1.23587E+00-1.52091E-01
 -1      2155 5.44435E+00 8.21268E-01 5.02143E-01-1.39993E-04 1.34015E+00-1.72658E-01
 -1      2156 5.61559E+00 8.01212E-01 4.89959E-01 3.01895E-03 1.31456E+00-1.85725E-01
 -1      2157 5.88104E+00 7.85267E-01 4.82680E-01-2.32472E-02 1.29479E+00-1.56683E-01
 -1      2158 5.04811E+00 8.45904E-01 5.06493E-01-1.75062E-03 1.38578E+00-1.91665E-01
 -1      2159 5.25262E+00 8.34364E-01 4.99107E-01-1.25033E-03 1.36843E+00-1.74175E-01
 -1      2160 5.49288E+00 8.14333E-01 4.92914E-01-2.28194E-02 1.35187E+00-1.48642E-01
 -1      2161 4.64830E+00 8.83435E-01 5.40283E-01-1.52542E-02 1.43881E+00-1.76419E-01
 -1      2162 4.82634E+00 8.65706E-01 5.27161E-01-2.88051E-03 1.42175E+00-2.00630E-01
 -1      2163 5.05009E+00 8.43366E-01 5.03976E-01-2.55836E-02 1.40509E+00-1.79806E-01
 -1      2164 4.24102E+00 9.07000E-01 5.51767E-01-2.02374E-02 1.48010E+00-1.81955E-01
 -1      2165 4.44419E+00 8.90777E-01 5.35804E-01-1.77394E-02 1.46255E+00-1.81679E-01
 -1      2166 4.67887E+00 8.94087E-01 5.39055E-01-2.97057E-02 1.44681E+00-1.76912E-01
 -1      2167 3.81839E+00 9.26845E-01 5.55482E-01-1.63746E-02 1.51220E+00-1.95658E-01
 -1      2168 4.03446E+00 9.17378E-01 5.50293E-01-2.04964E-02 1.50359E+00-1.77136E-01
 -1      2169 4.24178E+00 8.94992E-01 5.40915E-01-3.66477E-02 1.48829E+00-1.74099E-01
 -1      2170 3.38513E+00 9.54281E-01 5.84516E-01-2.76113E-02 1.55293E+00-1.82954E-01
 -1      2171 3.58069E+00 9.38766E-01 5.72192E-01-2.31722E-02 1.54223E+00-2.02480E-01
 -1      2172 3.78123E+00 9.23022E-01 5.59847E-01-4.59800E-02 1.52293E+00-1.86658E-01
 -1      2173 2.95817E+00 9.63259E-01 5.75447E-01-3.17345E-02 1.57511E+00-1.92824E-01
 -1      2174 3.16864E+00 9.59071E-01 5.70257E-01-3.48000E-02 1.56701E+00-1.74605E-01
 -1      2175 3.35849E+00 9.49650E-01 5.79730E-01-5.50110E-02 1.55552E+00-1.64522E-01
 -1      2176 2.48616E+00 9.80822E-01 5.99466E-01-4.36653E-02 1.59791E+00-1.71375E-01
 -1      2177 2.71562E+00 9.78533E-01 5.96740E-01-3.25038E-02 1.59627E+00-1.91864E-01
 -1      2178 2.88738E+00 9.61384E-01 5.75055E-01-6.09322E-02 1.58375E+00-1.81135E-01
 -1      2179 2.04008E+00 9.85790E-01 6.04585E-01-5.25073E-02 1.61387E+00-1.68093E-01
 -1      2180 2.27227E+00 9.87184E-01 5.94975E-01-4.72560E-02 1.61171E+00-1.71063E-01
 -1      2181 2.42446E+00 9.86960E-01 5.97132E-01-6.27287E-02 1.59967E+00-1.65969E-01
 -1      2182 1.60675E+00 9.89868E-01 6.00801E-01-4.71709E-02 1.62515E+00-1.54234E-01
 -1      2183 1.82211E+00 9.90282E-01 5.96852E-01-4.76617E-02 1.62375E+00-1.68203E-01
 -1      2184 1.95946E+00 9.78721E-01 5.94476E-01-6.93977E-02 1.61957E+00-1.65910E-01
 -1      2185 1.59433E+00 1.00865E+00 6.16295E-01-6.07501E-02 1.62807E+00-1.41834E-01
 -1      2186 1.18188E+01 2.82593E-01 1.69496E-01-3.63745E-01 9.18083E-02 4.93130E-02
 -1      2187 1.20800E+01 1.28872E-01 5.93303E-02-2.35344E-01 1.69503E-02 2.68716E-03
 -1      2188 1.14656E+01 3.57213E-01-1.36031E-01-6.99587E-01-1.17215E-03 1.31481E-01
 -1      2189 1.20166E+01 6.18029E-02 3.19721E-02-1.70795E-01 2.64255E-02 3.35314E-03
 -1      2190 1.21039E+01 6.90496E-02 4.18153E-02-1.40137E-01 3.92588E-02 6.38853E-04
 -1      2191 1.17583E+01 1.29513E-01-1.17194E-02-3.12796E-01 8.69726E-03 1.62074E-03
 -1      2192 1.20583E+01 6.22389E-02 3.36170E-02-1.21783E-01 4.66583E-02 1.76408E-02
 -1      2193 1.20317E+01 6.63496E-02 4.17618E-02-1.07710E-01 6.49244E-02 4.38797E-02
 -1      2194 1.17647E+01 6.73822E-02 2.01539E-02-2.24431E-01 4.50592E-02-1.41484E-02
 -1      2195 1.20146E+01 8.68800E-02 4.69677E-02-9.83717E-02 7.99480E-02 4.96196E-02
 -1      2196 1.19367E+01 8.41740E-02 3.89642E-02-8.86043E-02 1.02390E-01 2.91638E-02
 -1      2197 1.16932E+01 7.77660E-02 3.31446E-02-2.13496E-01 7.85388E-02 1.72224E-02
 -1      2198 1.19153E+01 1.05906E-01 5.78651E-02-8.22064E-02 1.21069E-01 3.25634E-02
 -1      2199 1.18391E+01 1.08047E-01 6.05743E-02-7.01169E-02 1.45364E-01 4.54510E-02
 -1      2200 1.15967E+01 9.84012E-02 4.48451E-02-1.80490E-01 1.14924E-01 6.55604E-04
 -1      2201 1.17980E+01 1.30131E-01 7.30992E-02-5.92978E-02 1.66539E-01 4.93968E-02
 -1      2202 1.16990E+01 1.35695E-01 7.09188E-02-5.13760E-02 1.98419E-01 3.30918E-02
 -1      2203 1.14995E+01 1.24962E-01 6.56022E-02-1.58893E-01 1.60233E-01 1.44887E-02
 -1      2204 1.16409E+01 1.58750E-01 8.31308E-02-3.94953E-02 2.22748E-01 3.14425E-02
 -1      2205 1.15637E+01 1.75939E-01 9.68713E-02-2.99495E-02 2.53835E-01 3.11243E-02
 -1      2206 1.13397E+01 1.48734E-01 7.19951E-02-1.26938E-01 2.15478E-01 3.20996E-03
 -1      2207 1.14900E+01 1.93284E-01 1.07021E-01-1.63700E-02 2.79015E-01 3.26859E-02
 -1      2208 1.13798E+01 2.07491E-01 1.20427E-01-1.01594E-02 3.14302E-01 4.33641E-02
 -1      2209 1.12000E+01 1.79238E-01 9.28795E-02-1.00631E-01 2.68823E-01-5.84790E-04
 -1      2210 1.13034E+01 2.34519E-01 1.33670E-01 4.46428E-04 3.40406E-01 4.52023E-02
 -1      2211 1.11808E+01 2.44887E-01 1.39976E-01 9.26635E-03 3.78782E-01 3.91333E-02
 -1      2212 1.10246E+01 2.21253E-01 1.18708E-01-8.25424E-02 3.32346E-01 1.22798E-02
 -1      2213 1.10908E+01 2.69813E-01 1.55061E-01 1.56753E-02 4.07924E-01 3.76609E-02
 -1      2214 1.09702E+01 2.85620E-01 1.60024E-01 2.36058E-02 4.46752E-01 3.05573E-02
 -1      2215 1.08346E+01 2.61159E-01 1.44251E-01-6.30240E-02 3.95031E-01 5.02694E-03
 -1      2216 1.08643E+01 3.08402E-01 1.71936E-01 3.01816E-02 4.77399E-01 2.73923E-02
 -1      2217 1.07217E+01 3.23073E-01 1.87749E-01 4.01207E-02 5.17078E-01 2.80466E-02
 -1      2218 1.06160E+01 2.92711E-01 1.57192E-01-3.85769E-02 4.62234E-01-5.10393E-03
 -1      2219 1.06152E+01 3.46981E-01 1.99070E-01 4.49769E-02 5.50097E-01 2.42801E-02
 -1      2220 1.04720E+01 3.67410E-01 2.15010E-01 4.74371E-02 5.90021E-01 2.14706E-02
 -1      2221 1.03719E+01 3.34760E-01 1.86719E-01-1.72266E-02 5.32239E-01-8.35042E-03
 -1      2222 1.03446E+01 3.96164E-01 2.31002E-01 5.48840E-02 6.19397E-01 2.39948E-02
 -1      2223 1.01767E+01 4.08962E-01 2.35967E-01 6.12528E-02 6.62540E-01 1.81645E-02
 -1      2224 1.01352E+01 3.84746E-01 2.21808E-01-4.92503E-03 6.08723E-01-7.08168E-03
 -1      2225 1.00491E+01 4.32881E-01 2.48488E-01 6.43377E-02 6.97027E-01 1.61018E-02
 -1      2226 9.89088E+00 4.51210E-01 2.59691E-01 6.85344E-02 7.35905E-01 8.62087E-03
 -1      2227 9.84733E+00 4.25243E-01 2.42386E-01 1.19140E-02 6.79713E-01-8.71592E-03
 -1      2228 9.74218E+00 4.73993E-01 2.75861E-01 7.05697E-02 7.67611E-01 4.88149E-03
 -1      2229 9.56097E+00 4.92146E-01 2.86407E-01 7.46939E-02 8.12429E-01-2.38575E-03
 -1      2230 9.55580E+00 4.64342E-01 2.62548E-01 2.17098E-02 7.51307E-01-2.01876E-02
 -1      2231 9.39272E+00 5.19284E-01 3.05345E-01 7.73187E-02 8.40988E-01-8.43377E-03
 -1      2232 9.21162E+00 5.39333E-01 3.16375E-01 8.59048E-02 8.83849E-01-4.68382E-03
 -1      2233 9.22253E+00 5.08095E-01 2.93548E-01 3.22794E-02 8.24570E-01-3.36035E-02
 -1      2234 9.05021E+00 5.61951E-01 3.25215E-01 8.59354E-02 9.17659E-01-1.14823E-02
 -1      2235 8.86089E+00 5.83271E-01 3.43141E-01 8.81718E-02 9.57190E-01-1.73666E-02
 -1      2236 8.90382E+00 5.62292E-01 3.26307E-01 3.98320E-02 8.99553E-01-4.27601E-02
 -1      2237 8.68383E+00 5.98466E-01 3.48359E-01 9.40780E-02 9.89252E-01-1.85174E-02
 -1      2238 8.48293E+00 6.19972E-01 3.66779E-01 9.07207E-02 1.03011E+00-2.36255E-02
 -1      2239 8.52748E+00 5.81410E-01 3.37536E-01 4.75513E-02 9.72431E-01-5.47786E-02
 -1      2240 8.30060E+00 6.45038E-01 3.72229E-01 9.32127E-02 1.05665E+00-2.51178E-02
 -1      2241 8.08264E+00 6.58643E-01 3.91278E-01 9.40808E-02 1.09549E+00-2.75764E-02
 -1      2242 8.19720E+00 6.34730E-01 3.76761E-01 4.96997E-02 1.04554E+00-5.82709E-02
 -1      2243 7.88954E+00 6.81848E-01 3.96575E-01 8.84663E-02 1.12866E+00-4.09952E-02
 -1      2244 7.66631E+00 6.98902E-01 4.11753E-01 8.86197E-02 1.16652E+00-5.42854E-02
 -1      2245 7.78591E+00 6.74073E-01 3.88984E-01 5.71111E-02 1.10736E+00-5.97044E-02
 -1      2246 7.45897E+00 7.19711E-01 4.27030E-01 8.58261E-02 1.18623E+00-6.07391E-02
 -1      2247 7.23464E+00 7.40466E-01 4.40461E-01 8.74637E-02 1.22566E+00-5.73710E-02
 -1      2248 7.36808E+00 7.12342E-01 4.18127E-01 6.10870E-02 1.17345E+00-7.33465E-02
 -1      2249 7.02495E+00 7.55550E-01 4.37236E-01 9.11596E-02 1.25150E+00-5.64533E-02
 -1      2250 6.78769E+00 7.70082E-01 4.57640E-01 8.23681E-02 1.28673E+00-7.26824E-02
 -1      2251 6.95576E+00 7.50013E-01 4.46426E-01 5.92825E-02 1.23998E+00-7.88312E-02
 -1      2252 6.56035E+00 7.87074E-01 4.67275E-01 8.07511E-02 1.30979E+00-7.77231E-02
 -1      2253 6.33391E+00 8.04116E-01 4.72785E-01 7.96083E-02 1.34083E+00-8.43845E-02
 -1      2254 6.52366E+00 7.86397E-01 4.70476E-01 5.88349E-02 1.29382E+00-8.64233E-02
 -1      2255 6.10414E+00 8.21631E-01 4.82012E-01 7.70534E-02 1.35939E+00-9.00916E-02
 -1      2256 5.84816E+00 8.37043E-01 4.99023E-01 7.54515E-02 1.39375E+00-8.91109E-02
 -1      2257 6.05728E+00 8.13703E-01 4.73205E-01 5.62106E-02 1.35037E+00-9.49131E-02
 -1      2258 5.62019E+00 8.47330E-01 4.94995E-01 7.72389E-02 1.41405E+00-8.70644E-02
 -1      2259 5.37518E+00 8.59115E-01 5.04542E-01 6.67630E-02 1.44066E+00-1.06654E-01
 -1      2260 5.60554E+00 8.41679E-01 5.04761E-01 5.33017E-02 1.40154E+00-9.84446E-02
 -1      2261 5.12410E+00 8.74560E-01 5.17133E-01 6.21291E-02 1.45627E+00-1.13972E-01
 -1      2262 4.86753E+00 8.86336E-01 5.24239E-01 5.98090E-02 1.48506E+00-1.20782E-01
 -1      2263 5.12325E+00 8.69403E-01 5.07055E-01 4.67084E-02 1.44398E+00-1.17274E-01
 -1      2264 4.61361E+00 8.97848E-01 5.34245E-01 5.46661E-02 1.49425E+00-1.25803E-01
 -1      2265 4.35386E+00 9.11280E-01 5.40126E-01 5.14599E-02 1.52240E+00-1.31754E-01
 -1      2266 4.63209E+00 8.96334E-01 5.31357E-01 4.14860E-02 1.48571E+00-1.27735E-01
 -1      2267 4.09694E+00 9.20685E-01 5.49839E-01 5.06415E-02 1.52855E+00-1.34012E-01
 -1      2268 3.82434E+00 9.29653E-01 5.57385E-01 4.54936E-02 1.55125E+00-1.30748E-01
 -1      2269 4.14307E+00 9.22477E-01 5.52519E-01 3.53526E-02 1.52469E+00-1.34684E-01
 -1      2270 3.57492E+00 9.35296E-01 5.47691E-01 4.80157E-02 1.56420E+00-1.25746E-01
 -1      2271 3.30760E+00 9.38390E-01 5.53048E-01 3.55890E-02 1.57968E+00-1.46832E-01
 -1      2272 3.62899E+00 9.34283E-01 5.63841E-01 2.61148E-02 1.55601E+00-1.33409E-01
 -1      2273 3.04255E+00 9.49653E-01 5.66108E-01 2.78837E-02 1.58422E+00-1.52577E-01
 -1      2274 2.76755E+00 9.58837E-01 5.70603E-01 2.40431E-02 1.60507E+00-1.55147E-01
 -1      2275 3.10953E+00 9.47262E-01 5.57567E-01 1.68214E-02 1.57726E+00-1.50325E-01
 -1      2276 2.48994E+00 9.60204E-01 5.72684E-01 2.09109E-02 1.60371E+00-1.55977E-01
 -1      2277 2.21767E+00 9.66256E-01 5.74040E-01 1.42243E-02 1.61837E+00-1.57246E-01
 -1      2278 2.58360E+00 9.57410E-01 5.72921E-01 7.98481E-03 1.60193E+00-1.52187E-01
 -1      2279 1.94380E+00 9.70468E-01 5.80092E-01 7.22369E-03 1.61575E+00-1.54862E-01
 -1      2280 1.68438E+00 9.70867E-01 5.76676E-01 8.37819E-04 1.62358E+00-1.39746E-01
 -1      2281 2.04835E+00 9.69949E-01 5.79579E-01-4.66978E-03 1.61477E+00-1.52536E-01
 -1      2282 1.61319E+00 9.90506E-01 5.88893E-01-1.56171E-02 1.62277E+00-1.35102E-01
 -1      2283 6.34354E+00 7.58118E-01 4.59672E-01-1.54888E-02 1.24939E+00-1.34016E-01
 -1      2284 6.54478E+00 7.44875E-01 4.44324E-01-1.72330E-02 1.22609E+00-1.32995E-01
 -1      2285 5.94061E+00 7.92237E-01 4.84981E-01-1.50684E-02 1.30666E+00-1.37298E-01
 -1      2286 6.13932E+00 7.75107E-01 4.66213E-01-1.55775E-02 1.28519E+00-1.37227E-01
 -1      2287 6.40751E+00 7.64807E-01 4.57454E-01 6.25456E-03 1.26501E+00-1.31947E-01
 -1      2288 4.21531E+00 9.03938E-01 5.48043E-01-4.28903E-02 1.49107E+00-1.64617E-01
 -1      2289 4.44204E+00 8.97440E-01 5.33599E-01-3.02321E-02 1.47668E+00-1.74296E-01
 -1      2290 4.67860E+00 8.77903E-01 5.35818E-01-1.90728E-02 1.45024E+00-1.74029E-01
 -1      2291 4.91497E+00 8.73678E-01 5.33748E-01-2.08158E-02 1.43711E+00-1.88538E-01
 -1      2292 4.65767E+00 8.88638E-01 5.33267E-01-8.67390E-03 1.46189E+00-1.63824E-01
 -1      2293 3.67212E+00 9.33484E-01 5.64513E-01 9.99418E-04 1.54145E+00-1.50229E-01
 -1      2294 3.43255E+00 9.41259E-01 5.64075E-01 1.93769E-03 1.55937E+00-1.48908E-01
 -1      2295 4.19664E+00 9.18842E-01 5.42573E-01 2.31993E-02 1.50970E+00-1.45024E-01
 -1      2296 3.92818E+00 9.24415E-01 5.58422E-01 1.25650E-02 1.53515E+00-1.48368E-01
 -1      2297 3.73361E+00 9.20850E-01 5.57710E-01-2.35893E-02 1.53728E+00-1.71261E-01
 -1      2298 2.36059E+00 9.72858E-01 5.92948E-01-6.50528E-02 1.60056E+00-1.81576E-01
 -1      2299 2.58684E+00 9.66317E-01 5.83182E-01-6.95151E-02 1.60063E+00-1.74588E-01
 -1      2300 2.29959E+00 9.82308E-01 5.98475E-01-5.14944E-02 1.60629E+00-1.73339E-01
 -1      2301 2.11628E+00 9.79982E-01 5.90980E-01-6.46381E-02 1.61496E+00-1.73855E-01
 -1      2302 1.88092E+00 9.74594E-01 5.92665E-01-6.73253E-02 1.61660E+00-1.61352E-01
 -1      2303 7.06645E+00 6.65197E-01 3.93971E-01-1.44082E-02 1.12089E+00-1.38402E-01
 -1      2304 7.29685E+00 6.74047E-01 4.16377E-01-1.11681E-02 1.09852E+00-1.33315E-01
 -1      2305 7.58400E+00 6.45885E-01 3.90845E-01 4.68227E-03 1.07782E+00-1.11741E-01
 -1      2306 7.44459E+00 6.40245E-01 3.86518E-01-1.73486E-02 1.05949E+00-1.23819E-01
 -1      2307 7.62297E+00 6.15869E-01 3.65128E-01-2.26205E-02 1.02781E+00-1.09317E-01
 -1      2308 6.03409E+00 8.05866E-01 4.75402E-01 3.30530E-02 1.33305E+00-1.08729E-01
 -1      2309 5.81501E+00 8.26477E-01 4.91146E-01 2.69218E-02 1.36870E+00-1.20573E-01
 -1      2310 5.57346E+00 8.36655E-01 5.02302E-01 2.69779E-02 1.38231E+00-1.23320E-01
 -1      2311 5.35872E+00 8.50379E-01 5.09153E-01 3.14361E-02 1.41171E+00-1.20532E-01
 -1      2312 5.55938E+00 8.37161E-01 5.01617E-01-1.50621E-03 1.37821E+00-1.45292E-01
 -1      2313 8.11093E+00 5.53576E-01 3.30754E-01-3.14820E-02 9.15321E-01-9.83598E-02
 -1      2314 8.26435E+00 5.30745E-01 3.09793E-01-2.88523E-02 8.84343E-01-9.52269E-02
 -1      2315 7.76793E+00 5.87129E-01 3.59204E-01-2.32661E-02 9.86427E-01-1.04123E-01
 -1      2316 7.95027E+00 5.73003E-01 3.42177E-01-2.28692E-02 9.58659E-01-1.02946E-01
 -1      2317 8.27326E+00 5.69896E-01 3.42110E-01-6.85692E-03 9.38139E-01-9.13510E-02
 -1      2318 1.12806E+01 7.44863E-02 3.47722E-02-2.38611E-01 1.03521E-01-9.18556E-03
 -1      2319 1.12321E+01 8.51891E-02 4.21138E-02-2.24712E-01 1.28946E-01-9.87346E-03
 -1      2320 1.11863E+01 1.02463E-01 5.13585E-02-2.04740E-01 1.52128E-01-1.45212E-02
 -1      2321 1.11233E+01 1.18881E-01 6.08413E-02-1.83215E-01 1.77542E-01-8.39981E-03
 -1      2322 1.08670E+01 8.14492E-02 4.22888E-02-2.30296E-01 1.44018E-01-2.13022E-02
 -1      2323 1.01853E+01 1.48786E-01 8.84151E-02-1.52074E-01 2.87057E-01-5.44590E-02
 -1      2324 1.02682E+01 1.32639E-01 7.49921E-02-1.75603E-01 2.62760E-01-4.26790E-02
 -1      2325 1.03524E+01 1.25429E-01 7.41641E-02-1.90420E-01 2.30096E-01-3.49717E-02
 -1      2326 1.04062E+01 1.10735E-01 6.72780E-02-1.97494E-01 2.02195E-01-3.28187E-02
 -1      2327 1.06353E+01 1.48367E-01 8.14846E-02-1.76846E-01 2.47727E-01-3.18446E-02
 -1      2328 1.06430E+01 3.51122E-02 1.75197E-02-2.63519E-01 9.02192E-02-2.87368E-02
 -1      2329 1.06812E+01 2.71537E-02 7.04365E-03-2.83794E-01 7.37980E-02-1.79444E-02
 -1      2330 1.07636E+01 4.10298E-02 4.06640E-03-3.00501E-01 4.12157E-02-1.31324E-02
 -1      2331 1.07260E+01 2.65163E-02 9.92118E-03-2.99141E-01 5.54695E-02-1.61881E-02
 -1      2332 1.10543E+01 4.44976E-02 1.66135E-02-2.81888E-01 6.84078E-02-1.78417E-02
 -1      2333 1.01493E+01 3.22690E-01 1.80035E-01-5.78966E-02 5.15026E-01-2.56768E-02
 -1      2334 1.00118E+01 3.37475E-01 1.93195E-01-4.49414E-02 5.56531E-01-3.31622E-02
 -1      2335 1.03769E+01 2.79202E-01 1.53342E-01-7.91856E-02 4.45126E-01-2.32386E-02
 -1      2336 1.02682E+01 3.00164E-01 1.71030E-01-6.98810E-02 4.84310E-01-2.73265E-02
 -1      2337 9.91674E+00 3.07049E-01 1.78753E-01-8.79127E-02 5.03880E-01-4.99645E-02
 -1      2338 9.63938E+00 4.04446E-01 2.36520E-01-2.40209E-02 6.56597E-01-3.62782E-02
 -1      2339 9.50541E+00 4.25111E-01 2.48994E-01-1.79642E-02 6.97035E-01-3.75247E-02
 -1      2340 9.17112E+00 4.36110E-01 2.54962E-01-4.05496E-02 7.15247E-01-6.50476E-02
 -1      2341 9.37163E+00 4.50839E-01 2.56772E-01-1.04310E-02 7.33032E-01-4.18282E-02
 -1      2342 9.21324E+00 4.71061E-01 2.75480E-01-1.42596E-03 7.73932E-01-4.67050E-02
 -1      2343 1.07713E+01 2.01512E-01 1.14833E-01-1.26721E-01 3.14890E-01-1.36362E-02
 -1      2344 1.06652E+01 2.15798E-01 1.19941E-01-1.13904E-01 3.49242E-01-1.73869E-02
 -1      2345 1.05811E+01 2.37695E-01 1.34090E-01-1.00138E-01 3.76294E-01-2.07594E-02
 -1      2346 1.04739E+01 2.57127E-01 1.46935E-01-9.11261E-02 4.12301E-01-2.29472E-02
 -1      2347 1.03096E+01 2.16687E-01 1.25861E-01-1.25972E-01 3.68005E-01-3.82412E-02
 -1      2348 1.14883E+01 2.66812E-01 8.25850E-03-3.86059E-01 1.41010E-02 9.66687E-03
 -1      2349 1.14881E+01 1.32582E-01 8.58040E-03-3.16990E-01 3.01441E-02-9.86153E-03
 -1      2350 1.13477E+01 4.41602E-01-7.14922E-02-3.97187E-01-9.09126E-03 5.57869E-02
 -1      2351 1.11369E+01 4.66792E-01-5.81539E-02-3.12539E-01 1.36101E-02 3.46087E-02
 -1      2352 1.08944E+01 8.36911E-01-9.67845E-02-4.46499E-01-1.01042E-02 9.61464E-02
 -1      2353 1.12366E+01 6.06007E-01-1.12742E-01-5.44281E-01-3.23149E-02 1.48019E-01
 -1      2354 6.89944E+00 7.44300E-01 4.42039E-01 3.72779E-02 1.21757E+00-1.00874E-01
 -1      2355 6.67966E+00 7.57772E-01 4.55900E-01 3.57107E-02 1.25390E+00-1.07277E-01
 -1      2356 7.28609E+00 7.00100E-01 4.13404E-01 4.03114E-02 1.15619E+00-9.39788E-02
 -1      2357 7.07371E+00 7.20379E-01 4.24025E-01 4.10954E-02 1.19336E+00-1.00211E-01
 -1      2358 6.81366E+00 7.12851E-01 4.31469E-01 6.22410E-03 1.20625E+00-1.37711E-01
 -1      2359 2.81482E+00 9.59050E-01 5.80877E-01-5.59204E-02 1.58230E+00-1.71148E-01
 -1      2360 3.06308E+00 9.51257E-01 5.67530E-01-5.44805E-02 1.58143E+00-1.73420E-01
 -1      2361 3.31454E+00 9.44089E-01 5.71149E-01-4.62341E-02 1.56070E+00-1.60774E-01
 -1      2362 3.52745E+00 9.43501E-01 5.82974E-01-3.55172E-02 1.55126E+00-1.82314E-01
 -1      2363 3.24282E+00 9.54850E-01 5.70658E-01-3.19376E-02 1.56668E+00-1.68702E-01
 -1      2364 2.18490E+00 9.63886E-01 5.81707E-01-2.17275E-02 1.60444E+00-1.56598E-01
 -1      2365 1.91279E+00 9.70422E-01 5.83803E-01-3.31126E-02 1.61847E+00-1.56113E-01
 -1      2366 1.86359E+00 9.78087E-01 5.97281E-01-5.37898E-02 1.62056E+00-1.56705E-01
 -1      2367 1.73658E+00 9.76890E-01 5.84471E-01-3.25719E-02 1.61688E+00-1.45214E-01
 -1      2368 1.63951E+00 9.86346E-01 5.98186E-01-3.15606E-02 1.61880E+00-1.29265E-01
 -1      2369 1.60696E+00 9.94470E-01 6.03839E-01-4.78726E-02 1.61961E+00-1.27177E-01
 -1      2370 9.06793E+00 4.92160E-01 2.87566E-01 2.37892E-03 8.03576E-01-5.22637E-02
 -1      2371 8.88548E+00 5.12735E-01 2.98193E-01 4.67750E-03 8.46457E-01-5.90379E-02
 -1      2372 8.76191E+00 5.39857E-01 3.23313E-01 1.23845E-02 8.79728E-01-7.57503E-02
 -1      2373 8.58027E+00 5.56912E-01 3.33105E-01 1.18024E-02 9.21217E-01-7.47095E-02
 -1      2374 8.57816E+00 5.20048E-01 3.05664E-01-1.81684E-02 8.67090E-01-8.04610E-02
 -1      2375 2.67955E+00 9.58330E-01 5.76785E-01-6.00085E-03 1.59362E+00-1.64187E-01
 -1      2376 2.40193E+00 9.59924E-01 5.84551E-01-3.37181E-03 1.60822E+00-1.60393E-01
 -1      2377 3.18779E+00 9.51824E-01 5.60888E-01-8.05720E-04 1.56750E+00-1.54104E-01
 -1      2378 2.91280E+00 9.50187E-01 5.72706E-01-5.34573E-04 1.58933E+00-1.56149E-01
 -1      2379 2.73484E+00 9.52683E-01 5.71432E-01-3.54075E-02 1.58477E+00-1.75221E-01
 -1      2380 8.40924E+00 5.83289E-01 3.37608E-01 1.60967E-02 9.51174E-01-7.42297E-02
 -1      2381 8.19765E+00 5.93500E-01 3.46555E-01 2.05424E-02 9.93763E-01-8.76928E-02
 -1      2382 8.07208E+00 6.28382E-01 3.75753E-01 2.46664E-02 1.02409E+00-8.34827E-02
 -1      2383 7.88317E+00 6.46246E-01 3.87361E-01 3.36788E-02 1.06179E+00-8.84650E-02
 -1      2384 7.90953E+00 6.20426E-01 3.66938E-01-9.65112E-04 1.00808E+00-1.06545E-01
 -1      2385 9.43565E+00 3.14193E-01 1.87012E-01-7.40337E-02 5.53266E-01-7.78703E-02
 -1      2386 9.56059E+00 2.95297E-01 1.75043E-01-9.30728E-02 5.23548E-01-6.65783E-02
 -1      2387 9.23114E+00 3.71798E-01 2.28957E-01-6.40608E-02 6.23252E-01-7.92146E-02
 -1      2388 9.36610E+00 3.55987E-01 2.19224E-01-7.14063E-02 5.92663E-01-9.40479E-02
 -1      2389 9.69267E+00 3.45260E-01 2.04944E-01-6.83191E-02 5.71953E-01-5.73903E-02
 -1      2390 8.41633E+00 5.04656E-01 3.05217E-01-3.55565E-02 8.45656E-01-8.68765E-02
 -1      2391 8.53748E+00 4.80256E-01 2.89541E-01-3.64317E-02 8.13448E-01-9.30540E-02
 -1      2392 8.88496E+00 4.82782E-01 2.87734E-01-2.53558E-02 7.88829E-01-7.47593E-02
 -1      2393 8.70874E+00 4.61984E-01 2.77749E-01-4.11416E-02 7.67524E-01-8.82646E-02
 -1      2394 8.82818E+00 4.34179E-01 2.57595E-01-5.15372E-02 7.37802E-01-7.63940E-02
 -1      2395 9.68039E+00 2.80768E-01 1.69319E-01-1.03294E-01 4.80327E-01-5.87185E-02
 -1      2396 9.77443E+00 2.58494E-01 1.48497E-01-1.10800E-01 4.50997E-01-5.13082E-02
 -1      2397 9.87815E+00 2.41216E-01 1.42924E-01-1.22110E-01 4.14209E-01-4.62713E-02
 -1      2398 9.94711E+00 2.18866E-01 1.32683E-01-1.19490E-01 3.81994E-01-5.78335E-02
 -1      2399 1.01262E+01 2.59550E-01 1.50681E-01-1.06448E-01 4.32848E-01-4.01730E-02
 -1      2400 1.07067E+01 9.11096E-01-4.47178E-02-1.32532E-01-1.38760E-02 2.96952E-02
 -1      2401 1.07451E+01 4.34517E-01-7.71468E-02-2.13429E-01 1.57093E-02 5.56269E-02
 -1      2402 1.04323E+01 6.18483E-01-3.17884E-02-9.70724E-03 2.28887E-03 1.72289E-02
 -1      2403 1.58060E+00 9.91063E-01 6.03141E-01-6.74263E-02 1.62119E+00-1.39565E-01
 -1      2404 1.60421E+00 9.87331E-01 6.04486E-01-7.57843E-02 1.62457E+00-1.47558E-01
 -1      2405 1.71745E+00 9.75633E-01 5.95773E-01-6.77775E-02 1.62279E+00-1.52622E-01
 -1      2406 4.65529E+00 8.87416E-01 5.29387E-01 2.27928E-02 1.47049E+00-1.41900E-01
 -1      2407 4.39962E+00 9.01805E-01 5.36865E-01 1.79189E-02 1.49923E+00-1.45303E-01
 -1      2408 5.13593E+00 8.69633E-01 5.07498E-01 2.31268E-02 1.43169E+00-1.29640E-01
 -1      2409 4.88324E+00 8.78939E-01 5.22902E-01 2.78685E-02 1.46190E+00-1.33742E-01
 -1      2410 5.07852E+00 8.49342E-01 5.08084E-01-1.49268E-02 1.41167E+00-1.64344E-01
 -1      2411 5.30966E+00 8.34857E-01 4.98504E-01-2.09927E-02 1.39574E+00-1.53919E-01
 -1      2412 5.54635E+00 8.26790E-01 4.95827E-01-1.90999E-02 1.35851E+00-1.45593E-01
 -1      2413 5.73221E+00 8.10980E-01 4.83658E-01-1.57906E-02 1.33656E+00-1.38928E-01
 -1      2414 1.09225E+01 1.69850E-01 8.67629E-02-1.48556E-01 2.55401E-01-1.24120E-02
 -1      2415 1.08305E+01 1.81655E-01 1.01405E-01-1.29202E-01 2.89107E-01-9.67587E-03
 -1      2416 1.10594E+01 1.32822E-01 7.32670E-02-1.74166E-01 1.99643E-01-4.72954E-03
 -1      2417 1.09923E+01 1.47914E-01 7.80169E-02-1.63458E-01 2.29154E-01-1.27032E-02
 -1      2418 1.04611E+01 9.20053E-02 5.49729E-02-2.10367E-01 1.75229E-01-3.31214E-02
 -1      2419 1.05096E+01 7.14408E-02 3.79001E-02-2.26807E-01 1.56706E-01-2.72431E-02
 -1      2420 1.05690E+01 5.95185E-02 3.40417E-02-2.39972E-01 1.29621E-01-1.88881E-02
 -1      2421 1.06104E+01 5.09339E-02 3.81960E-02-2.43697E-01 1.08270E-01-3.67881E-02
 -1      2422 1.14573E+01 7.14878E-02 1.88143E-02-3.02177E-01 4.24253E-02-8.01530E-03
 -1      2423 1.14200E+01 5.50487E-02 2.39695E-02-2.76877E-01 5.49975E-02-1.16097E-02
 -1      2424 1.13826E+01 5.45853E-02 2.75542E-02-2.63885E-01 7.09325E-02-8.30605E-03
 -1      2425 1.13296E+01 6.25086E-02 2.81545E-02-2.49676E-01 8.82965E-02-9.26455E-03
 -1      2426 1.11271E+01 8.40521E-02-5.24498E-03-3.11828E-01 3.70593E-02-9.34175E-03
 -1      2427 1.08014E+01 1.00838E-01-6.65690E-03-3.03001E-01 2.30582E-02-1.35404E-02
 -1      2428 1.08384E+01 2.30316E-01-1.39232E-02-2.40084E-01 2.15614E-02 6.93390E-03
 -1      2429 6.71970E+00 7.18548E-01 4.34413E-01-1.88509E-02 1.18677E+00-1.32149E-01
 -1      2430 6.90981E+00 6.98794E-01 4.19343E-01-1.58979E-02 1.15978E+00-1.36476E-01
 -1      2431 7.17669E+00 6.97151E-01 4.11733E-01 6.36429E-03 1.14074E+00-1.19288E-01
 -1      2432 7.48537E+00 6.81443E-01 3.98879E-01 3.03067E-02 1.13096E+00-8.64993E-02
 -1      2433 7.68719E+00 6.62853E-01 3.86768E-01 3.09498E-02 1.08933E+00-8.37643E-02
 -1      2434 3.75735E+00 9.32893E-01 5.60881E-01-4.13504E-02 1.52757E+00-1.76402E-01
 -1      2435 4.00266E+00 9.20436E-01 5.48683E-01-3.85990E-02 1.51977E+00-1.70912E-01
 -1      2436 4.20175E+00 9.11888E-01 5.46879E-01-1.77745E-02 1.50913E+00-1.77452E-01
 -1      2437 6.45991E+00 7.76038E-01 4.60585E-01 3.15076E-02 1.27478E+00-1.10879E-01
 -1      2438 6.24835E+00 7.94723E-01 4.75583E-01 3.52900E-02 1.31019E+00-1.06349E-01
 -1      2439 5.98955E+00 7.98907E-01 4.79371E-01 3.62381E-03 1.31966E+00-1.32628E-01
 -1      2440 9.92994E+00 3.68176E-01 2.15067E-01-4.53931E-02 5.87464E-01-3.40629E-02
 -1      2441 9.77893E+00 3.86062E-01 2.24126E-01-3.27337E-02 6.29321E-01-3.43023E-02
 -1      2442 9.43118E+00 3.85964E-01 2.28364E-01-5.17722E-02 6.47245E-01-6.29003E-02
 -1      2443 8.97210E+00 4.18596E-01 2.53629E-01-5.86734E-02 6.96300E-01-7.25284E-02
 -1      2444 9.08037E+00 3.91756E-01 2.34772E-01-5.52952E-02 6.64591E-01-8.38035E-02
 -1      2445 1.00555E+01 2.01793E-01 1.25513E-01-1.34239E-01 3.46371E-01-5.46291E-02
 -1      2446 1.01463E+01 1.85192E-01 1.15313E-01-1.44221E-01 3.20009E-01-6.97082E-02
 -1      2447 1.04932E+01 1.82197E-01 1.07341E-01-1.49846E-01 3.04124E-01-3.52206E-02
 -1      2448 1.07645E+01 1.10147E-01 6.32920E-02-1.98690E-01 1.94907E-01-3.03865E-02
 -1      2449 1.09754E+01 5.40238E-02 2.61496E-02-2.61067E-01 1.02166E-01-2.01802E-02
 -1      2450 5.11940E+00 8.54086E-01 5.08684E-01-1.22232E-03 1.41955E+00-1.49302E-01
 -1      2451 4.99045E-01 3.01410E-02-1.82827E-03-4.73723E-02 4.88875E-02-3.41226E-01
 -1      2452 1.02250E+00 9.79183E-01 5.89814E-01-6.33608E-02 1.60669E+00-5.84210E-01
 -1      2453 9.58156E-01 9.59508E-01 5.79203E-01-5.81174E-02 1.58187E+00-5.70770E-01
 -1      2454 3.12789E-02 4.53505E-02 2.00111E-02-1.01081E-02 1.26481E-01-9.52720E-02
 -1      2455 1.89388E-01 1.89532E-01 1.09170E-01-2.34283E-02 3.51088E-01-1.83325E-01
 -1      2456 9.13238E-01 9.10551E-01 5.47867E-01-5.63441E-02 1.49897E+00-5.42752E-01
 -1      2457 8.63244E-01 8.61353E-01 5.17345E-01-5.36932E-02 1.42001E+00-5.20490E-01
 -1      2458 7.97447E-01 8.01650E-01 4.80199E-01-4.83303E-02 1.32334E+00-4.67817E-01
 -1      2459 7.26555E-01 7.35915E-01 4.40938E-01-5.28822E-02 1.21209E+00-4.55297E-01
 -1      2460 6.14166E-01 6.12213E-01 3.66258E-01-4.87645E-02 1.02330E+00-3.99170E-01
 -1      2461 3.52811E-01 3.51835E-01 2.07687E-01-3.34392E-02 6.07728E-01-2.71356E-01
 -1      2462 1.17786E-01 1.20018E-01 6.56149E-02-1.91562E-02 2.42048E-01-1.39896E-01
 -1      2463 5.30608E-01 5.27289E-01 3.15152E-01-4.41273E-02 8.85510E-01-3.57870E-01
 -1      2464 2.70473E-01 2.67235E-01 1.56680E-01-2.70915E-02 4.63851E-01-2.15407E-01
 -1      2465 4.41289E-01 4.39760E-01 2.62419E-01-4.00117E-02 7.43071E-01-3.14859E-01
 -1      2466 1.32914E+00 6.71780E-01 4.03822E-01-4.23806E-02 1.11935E+00-4.34966E-01
 -1      2467 1.18888E+00 9.43117E-01 5.61069E-01-5.28766E-02 1.54552E+00-5.49405E-01
 -1      2468 1.12051E+00 7.94289E-02 4.20358E-02-3.24993E-02 1.70355E-01-1.33331E-01
 -1      2469 8.00793E-01 9.81479E-01 5.65165E-01-5.18058E-02 1.60674E+00-5.33991E-01
 -1      2470-5.14478E+00-2.84396E-01-6.74137E-02-2.39299E-02 2.00260E-01-4.17233E-01
 -1      2471 1.12769E+00 9.80833E-01 6.22193E-01-5.94794E-02 1.60942E+00-5.31120E-01
 -1      2472-4.03008E+00-2.48184E-01 4.57751E-02 1.47822E-01-8.50221E-02-1.59914E-01
 -1      2473-2.45766E+00 2.28317E-01 1.27969E-01-9.65246E-03 3.97309E-01-1.22875E-01
 -1      2474-3.37510E+00 1.56061E-01 9.10343E-02 4.91521E-03 2.81364E-01-2.17095E-01
 -1      2475-1.02478E-01 8.89366E-01 5.36043E-01-7.62620E-02 1.46333E+00-4.83233E-01
 -1      2476 1.88842E+00 8.89821E-01 5.35504E-01-4.66254E-02 1.46266E+00-5.16633E-01
 -1      2477 2.66255E+00 7.66692E-01 4.60935E-01-1.75484E-02 1.26935E+00-4.18744E-01
 -1      2478 2.42298E+00 8.31394E-01 5.00115E-01-2.30396E-02 1.37430E+00-4.52594E-01
 -1      2479-7.60773E-01 8.35321E-01 5.01917E-01-7.20239E-02 1.37410E+00-4.92633E-01
 -1      2480-1.11681E+00 7.67939E-01 4.61449E-01-7.01189E-02 1.27108E+00-4.66134E-01
 -1      2481 3.67735E+00 1.49255E-01 9.23903E-02-3.52873E-02 2.80574E-01-7.77772E-02
 -1      2482-2.01258E+00 5.71660E-01 3.43396E-01-5.73305E-02 9.51422E-01-3.90210E-01
 -1      2483-1.73708E+00 4.85610E-01 2.87287E-01-4.85080E-02 8.09810E-01-2.63488E-01
 -1      2484 2.78771E+00 3.93200E-01 2.35906E-01-3.66716E-02 6.69533E-01-3.24117E-01
 -1      2485 3.15655E+00 5.69278E-01 3.42808E-01-9.83716E-03 9.50847E-01-3.10751E-01
 -1      2486 3.54069E+00 3.06245E-01 1.86107E-01-2.05083E-02 5.30402E-01-1.71651E-01
 -1      2487 2.87935E+00 2.24284E-01 1.30687E-01-4.49737E-02 3.99807E-01-2.54805E-01
 -1      2488 2.69872E+00 4.81703E-01 2.87244E-01-3.28445E-02 8.10474E-01-3.60904E-01
 -1      2489-2.93204E+00 3.10369E-01 1.83643E-01-2.90507E-02 5.29290E-01-2.87778E-01
 -1      2490-2.00101E+00 3.98350E-01 2.27969E-01-3.70544E-02 6.66981E-01-2.14288E-01
 -1      2491 4.11922E+00 2.74937E-01-3.86412E-04-4.38684E-02 1.54893E-01-3.81945E-01
 -1      2492 8.51067E-01 9.94675E-01 5.76014E-01-6.68428E-02 1.61905E+00-5.32341E-01
 -1      2493 3.31382E-01 9.52969E-01 5.75288E-01-7.15272E-02 1.56294E+00-5.08642E-01
 -1      2494-2.93520E+00 9.62396E-02 4.47426E-02 2.83386E-02 1.85418E-01-2.68469E-02
 -1      2495-3.85587E+00 3.63960E-02 1.84741E-02 7.31073E-02 1.20001E-01-1.73872E-01
 -1      2496 5.24225E-01 9.70812E-01 5.81739E-01-5.53886E-02 1.59858E+00-5.39554E-01
 -1      2497 5.41967E+00 2.96486E-01 5.20377E-02-2.39686E-01-1.11988E-01-1.69582E-01
 -1      2498 1.30524E-01 9.32910E-01 5.56509E-01-7.35774E-02 1.52919E+00-5.01094E-01
 -1      2499-3.02923E+00 6.76226E-02 2.48334E-02 3.62030E-02 1.34160E-01-4.62804E-03
 -1      2500 1.14938E+00 9.76783E-01 6.09003E-01-4.09662E-02 1.62106E+00-5.26130E-01
 -1      2501-1.31165E+00 6.54250E-01 3.89039E-01-6.51973E-02 1.07818E+00-3.46752E-01
 -1      2502-9.41897E-01 7.00432E-01 4.17771E-01-6.37145E-02 1.15537E+00-3.75984E-01
 -1      2503 4.09589E+00 2.23283E-02 1.82790E-02-4.68819E-02 4.38394E-02 5.14055E-03
 -1      2504 7.91082E-01 9.74352E-01 5.85443E-01-6.11777E-02 1.59696E+00-5.74341E-01
 -1      2505 1.45323E+00 9.70372E-01 5.85711E-01-5.66018E-02 1.59681E+00-5.07704E-01
 -1      2506-1.82842E+00 7.02909E-01 4.23587E-01-7.01675E-02 1.16395E+00-4.30736E-01
 -1      2507-2.11951E+00 6.47045E-01 3.84768E-01-6.66134E-02 1.07183E+00-4.10204E-01
 -1      2508 9.65155E-02 9.52050E-01 5.74135E-01-5.96818E-02 1.56376E+00-5.22440E-01
 -1      2509 1.80400E+00 9.49663E-01 5.72334E-01-3.25187E-02 1.56617E+00-5.05302E-01
 -1      2510 2.05975E+00 9.24954E-01 5.55789E-01-2.80144E-02 1.52577E+00-4.91987E-01
 -1      2511-2.16397E-01 9.26312E-01 5.57912E-01-6.54548E-02 1.52760E+00-5.19092E-01
 -1      2512-4.14353E+00 9.95959E-02 5.91211E-02 2.46464E-02 1.91128E-01-1.91192E-01
 -1      2513-4.25839E+00 6.69542E-02 3.31839E-02 4.41592E-02 1.35429E-01-1.69485E-01
 -1      2514 4.00580E+00 3.83792E-01 2.32831E-01-9.05901E-03 6.46787E-01-1.94699E-01
 -1      2515 2.55019E+00 7.61674E-01 4.57728E-01-3.28037E-02 1.25492E+00-4.59895E-01
 -1      2516 2.36191E+00 8.90255E-01 5.35880E-01-2.20602E-02 1.47328E+00-4.66325E-01
 -1      2517-5.74417E-01 8.97138E-01 5.37663E-01-7.00601E-02 1.47194E+00-5.02628E-01
 -1      2518 2.28653E+00 8.41674E-01 5.05241E-01-3.80755E-02 1.38720E+00-4.88284E-01
 -1      2519-5.97343E-01 8.45231E-01 5.08808E-01-7.60350E-02 1.38543E+00-4.36682E-01
 -1      2520-9.52496E-01 7.81591E-01 4.66000E-01-7.25270E-02 1.28045E+00-4.03627E-01
 -1      2521 3.41292E+00 1.58854E-01 8.80134E-02-5.09192E-02 2.88872E-01-2.27604E-01
 -1      2522-1.79171E+00 5.85458E-01 3.46614E-01-6.11661E-02 9.66102E-01-2.96425E-01
 -1      2523 4.25476E+00 2.16272E-01 1.31613E-01-2.45315E-02 3.78321E-01-1.02830E-01
 -1      2524 3.29696E+00 3.17376E-01 1.84500E-01-3.73548E-02 5.41829E-01-2.93576E-01
 -1      2525-3.09402E+00 1.64306E-01 8.79167E-02 5.20336E-03 2.88431E-01-6.65044E-02
 -1      2526 2.95796E+00 5.78916E-01 3.48267E-01-3.01294E-02 9.65994E-01-3.95697E-01
 -1      2527-3.23100E+00 3.85674E-01 2.26647E-01-4.28582E-02 6.50754E-01-3.13309E-01
 -1      2528-3.83396E+00 2.19929E-01 1.26902E-01-1.34788E-02 3.81171E-01-2.47022E-01
 -1      2529-2.65581E+00 3.21784E-01 1.85519E-01-2.91470E-02 5.41792E-01-1.56629E-01
 -1      2530-2.82323E+00 4.96265E-01 2.98538E-01-5.51105E-02 8.27744E-01-3.56215E-01
 -1      2531 3.80906E+00 4.90184E-01 2.95213E-01-5.64690E-03 8.24244E-01-2.51736E-01
 -1      2532 3.36675E+00 6.43089E-01 3.90976E-01-3.85082E-03 1.06928E+00-3.31236E-01
 -1      2533 4.34334E+00 9.39967E-02 6.06272E-02-4.63975E-02 1.88385E-01-2.27422E-02
 -1      2534 4.38418E+00 5.80148E-02 3.76813E-02-5.46475E-02 1.25904E-01 5.21535E-03
 -1      2535 3.50062E+00 1.56507E-02 7.01302E-03-1.12790E-01 1.09035E-01-1.74728E-01
 -1      2536-3.30462E+00 4.09274E-02 3.90075E-03 2.76853E-02 5.44212E-02 1.94698E-02
 -1      2537 2.89208E+00 7.11525E-01 4.28145E-01-2.76037E-02 1.17296E+00-4.32293E-01
 -1      2538 3.31933E+00 6.41657E-01 3.81159E-01-2.52297E-02 1.06293E+00-4.04345E-01
 -1      2539 1.67383E+00 9.58646E-01 5.80083E-01-4.87430E-02 1.56919E+00-5.13647E-01
 -1      2540 1.95648E+00 9.25360E-01 5.57485E-01-4.33167E-02 1.52175E+00-5.06644E-01
 -1      2541 3.30337E+00 7.02153E-01 4.22138E-01-6.39054E-03 1.16559E+00-3.63715E-01
 -1      2542 3.82270E+00 4.76240E-02 2.49678E-02-7.83943E-02 1.25277E-01-1.72242E-01
 -1      2543 3.78307E+00 9.65289E-02 5.30930E-02-6.29011E-02 1.92809E-01-2.02926E-01
 -1      2544 1.68627E+00 9.65382E-01 5.77154E-01-3.39251E-02 1.59054E+00-4.85007E-01
 -1      2545-3.31109E+00 2.77468E-01 1.54139E-01-1.62152E-02 4.71893E-01-1.14622E-01
 -1      2546 2.79360E+00 8.66344E-01 5.23731E-01-9.01921E-03 1.43137E+00-4.29018E-01
 -1      2547 2.72763E+00 7.96005E-01 4.77934E-01-2.98400E-02 1.31219E+00-4.65264E-01
 -1      2548-1.05892E+00 8.69393E-01 5.19130E-01-7.08626E-02 1.43175E+00-4.76698E-01
 -1      2549-1.43994E+00 7.44892E-01 4.44657E-01-7.48002E-02 1.22219E+00-3.58657E-01
 -1      2550-3.76601E+00 1.28707E-01 6.27864E-02 2.36050E-02 2.30545E-01-2.45863E-02
 -1      2551-4.36209E+00 2.61131E-01 1.57117E-01-1.96021E-02 4.44257E-01-2.73498E-01
 -1      2552 4.88328E+00 2.55807E-01 1.56383E-01-2.17525E-02 4.41660E-01-1.06136E-01
 -1      2553 3.84881E+00 2.70926E-01 1.61515E-01-4.08468E-02 4.72280E-01-2.84341E-01
 -1      2554 4.48301E+00 4.47351E-01 2.72004E-01-4.04101E-03 7.51394E-01-2.08254E-01
 -1      2555-3.58078E+00 4.51022E-01 2.69264E-01-5.28002E-02 7.52366E-01-3.40096E-01
 -1      2556 3.44731E+00 5.36216E-01 3.22884E-01-2.69709E-02 8.94475E-01-3.69163E-01
 -1      2557-2.36620E+00 5.41918E-01 3.15956E-01-5.91392E-02 8.93249E-01-2.49573E-01
 -1      2558 1.51442E+00 9.72713E-01 5.89911E-01-3.89818E-02 1.60563E+00-4.61892E-01
 -1      2559-1.07216E+00 8.14053E-01 4.85807E-01-7.67635E-02 1.33570E+00-4.00856E-01
 -1      2560-1.60544E+00 8.04605E-01 4.81707E-01-7.59189E-02 1.32581E+00-4.59689E-01
 -1      2561 3.22833E+00 7.98376E-01 4.80906E-01-4.54576E-03 1.32176E+00-4.02167E-01
 -1      2562 3.63428E+00 4.35529E-01 2.59565E-01-3.10456E-02 7.32929E-01-3.42297E-01
 -1      2563-3.65607E+00 4.39427E-01 2.62563E-01-5.21904E-02 7.32257E-01-1.86477E-01
 -1      2564-1.17496E+00 4.40883E-01 2.58723E-01-3.85174E-02 7.32243E-01-2.14930E-01
 -1      2565-5.25885E+00 4.41603E-01 2.59469E-01-5.76097E-02 7.16909E-01-6.24451E-02
 -1      2566-4.91871E+00 4.12405E-01 2.41255E-01-4.58945E-02 6.94917E-01-1.15146E-01
 -1      2567-2.40121E+00 4.16012E-01 2.35627E-01-3.91175E-02 6.92872E-01-1.54152E-01
 -1      2568-7.65706E-01 4.22918E-01 2.50188E-01-3.33851E-02 7.04268E-01-2.63324E-01
 -1      2569-2.26229E+00 4.63178E-01 2.63086E-01-4.11591E-02 7.63506E-01-1.79020E-01
 -1      2570-4.70801E+00 4.65961E-01 2.79450E-01-5.73512E-02 7.63449E-01-1.37766E-01
 -1      2571-6.66755E-01 4.57929E-01 2.68427E-01-4.16178E-02 7.77856E-01-2.90901E-01
 -1      2572 8.28197E-01 9.83521E-01 5.88661E-01-3.12532E-02 1.60768E+00-6.08620E-01
 -1      2573 7.94199E-01 9.75581E-01 5.75089E-01-3.50283E-02 1.60440E+00-5.96611E-01
 -1      2574 1.04531E+00 9.94380E-01 5.97719E-01-3.35441E-02 1.60757E+00-6.12259E-01
 -1      2575 1.03672E+00 9.88950E-01 6.07163E-01-3.40286E-02 1.60668E+00-5.94565E-01
 -1      2576 9.69715E-01 9.77526E-01 5.91865E-01-5.35940E-02 1.60205E+00-5.77035E-01
 -1      2577 3.98717E-01 9.77385E-01 5.77950E-01-7.61771E-02 1.60826E+00-3.56569E-01
 -1      2578 5.60417E-01 9.86569E-01 5.86421E-01-6.86683E-02 1.61818E+00-3.40615E-01
 -1      2579 6.06606E-01 9.96293E-01 5.97625E-01-7.47984E-02 1.61415E+00-3.40374E-01
 -1      2580 8.52983E-01 9.91352E-01 5.66354E-01-6.37484E-02 1.61189E+00-5.21171E-01
 -1      2581 4.40544E-01 9.88308E-01 5.86371E-01-6.75908E-02 1.61621E+00-3.54175E-01
 -1      2582-8.20387E+00-5.21489E-01-5.02037E-03 1.51234E-01 9.58774E-02-1.37534E-01
 -1      2583-2.26499E+00-7.70880E-02-1.95166E-02-1.91790E-02 1.61058E-01-3.70461E-01
 -1      2584-5.45422E+00-2.85963E-01 7.18527E-03 1.40581E-01 4.75301E-02-1.35582E-01
 -1      2585-7.65343E+00-4.97706E-01 2.43503E-02 2.77079E-01-1.56590E-02-4.99463E-02
 -1      2586-1.72388E+00-7.23295E-02 2.28324E-03 1.61120E-02-4.74482E-02-2.21683E-01
 -1      2587-4.62430E+00-3.64645E-01 3.44833E-02 1.03304E-01 7.17272E-02-3.18064E-01
 -1      2588-4.34350E-01 9.53580E-03-5.23574E-02-2.16699E-02 1.50474E-01-2.61926E-01
 -1      2589-3.17503E+00-1.04990E-01-1.42626E-01-1.14462E-02 1.52043E-01-2.45830E-01
 -1      2590 1.34168E+00 1.23508E-01 1.95321E-02-8.56731E-03 1.38590E-01-2.06383E-01
 -1      2591-4.71999E-01-1.24019E-02-4.63578E-02-6.38918E-02 1.74820E-01-4.08625E-01
 -1      2592 2.28408E+00 1.23786E-01 5.29929E-03-7.43450E-02 1.29184E-01-3.56194E-01
 -1      2593-1.25095E+00 9.17334E-01 5.51294E-01-7.98643E-02 1.50629E+00-2.94014E-01
 -1      2594-1.92896E-01 9.15631E-01 5.64453E-01-5.70505E-02 1.48951E+00-4.57380E-01
 -1      2595-1.18119E+00 8.99483E-01 5.35511E-01-8.75966E-02 1.48500E+00-3.15956E-01
 -1      2596-9.75491E-01 9.41593E-01 5.69622E-01-8.26399E-02 1.51851E+00-3.26656E-01
 -1      2597 2.60976E-03 9.04011E-01 5.40375E-01-8.07320E-02 1.49578E+00-4.91829E-01
 -1      2598-7.61636E-02 9.27426E-01 5.47014E-01-5.58856E-02 1.51510E+00-4.73934E-01
 -1      2599 4.23785E-01 9.03795E-01 5.50286E-01-7.38523E-02 1.48039E+00-5.18886E-01
 -1      2600 3.15976E-01 9.16652E-01 5.48561E-01-4.57241E-02 1.50102E+00-4.82868E-01
 -1      2601 4.96282E-01 9.12827E-01 5.38471E-01-7.50782E-02 1.51359E+00-5.31418E-01
 -1      2602-6.24666E-01 9.18289E-01 5.55349E-01-8.40393E-02 1.50391E+00-3.76902E-01
 -1      2603-4.57689E-01 1.69909E-02-9.13275E-03-2.34277E-02 1.45805E-01-2.73645E-01
 -1      2604 1.25445E+00 6.76966E-02-6.60083E-02-3.44323E-02 1.30829E-01-2.60214E-01
 -1      2605-5.40530E+00-5.23864E-02 2.16032E-02 1.28378E-01 5.96224E-02-1.40114E-01
 -1      2606-7.57537E+00-2.59653E-01 4.30949E-02 2.14711E-01 1.17816E-02-2.81771E-02
 -1      2607 3.31221E-01 9.70104E-01 5.81061E-01-5.09838E-02 1.57773E+00-4.92210E-01
 -1      2608-2.28747E-01 9.55478E-01 5.71615E-01-7.99845E-02 1.57467E+00-3.44658E-01
 -1      2609-2.17284E-01 9.70899E-01 5.83091E-01-6.60001E-02 1.59209E+00-3.29268E-01
 -1      2610 5.75268E-01 9.80121E-01 5.93683E-01-4.69097E-02 1.58986E+00-5.32697E-01
 -1      2611 9.59801E-02 9.83194E-01 5.98898E-01-7.45656E-02 1.59231E+00-3.82353E-01
 -1      2612 5.87786E-01 9.60352E-01 5.78289E-01-6.86148E-02 1.57997E+00-5.33577E-01
 -1      2613 6.72158E-01 9.61010E-01 5.86959E-01-6.88961E-02 1.57091E+00-5.46304E-01
 -1      2614 1.38373E-01 9.72215E-01 5.85084E-01-7.73559E-02 1.58310E+00-4.04185E-01
 -1      2615 8.73296E-01 9.68947E-01 5.72974E-01-6.66997E-02 1.59296E+00-5.78338E-01
 -1      2616 1.13647E+00 1.47597E-01 8.67971E-02-3.23658E-02 2.56068E-01-3.45828E-01
 -1      2617 1.78116E+00 1.44763E-01 8.65999E-02-3.71938E-02 2.67159E-01-1.81671E-01
 -1      2618-5.17940E-01 1.26690E-01 7.19319E-02-2.17432E-02 2.29826E-01-2.95165E-01
 -1      2619 1.31010E+00 1.14269E-01 5.75207E-02-3.65744E-02 2.05854E-01-3.32676E-01
 -1      2620 1.95118E+00 1.15665E-01 6.13070E-02-4.17030E-02 2.18757E-01-1.72200E-01
 -1      2621 3.60021E+00 1.26746E-01 7.00758E-02-5.38008E-02 2.40705E-01-2.10671E-01
 -1      2622 7.04113E+00 1.37394E-01 7.25111E-02-1.07951E-01 2.52288E-01-1.23688E-01
 -1      2623 5.42001E+00 1.26133E-01 7.20961E-02-9.47457E-02 2.33366E-01-9.51947E-02
 -1      2624 7.25042E+00 1.04809E-01 6.08739E-02-1.13940E-01 2.06792E-01-1.14387E-01
 -1      2625 3.71732E+00 1.32375E-01 6.47929E-02-2.53906E-02 2.40723E-01-3.11137E-01
 -1      2626 3.91406E+00 1.05150E-01 5.06023E-02-3.03885E-02 1.89885E-01-3.02438E-01
 -1      2627 6.74099E+00 1.26514E-01 7.06801E-02-1.00160E-01 2.39666E-01-1.51150E-01
 -1      2628 6.94043E+00 9.09228E-02 5.54726E-02-1.14126E-01 1.87293E-01-1.38587E-01
 -1      2629-3.14285E+00-3.35626E-02 2.05560E-02 1.16181E-02 1.42373E-01-2.77460E-01
 -1      2630-8.12077E+00-2.28217E-01 2.36676E-02 1.56903E-01 8.69496E-02-1.29423E-01
 -1      2631 1.10402E+00 9.17109E-01 5.53679E-01-3.22061E-02 1.50910E+00-5.28553E-01
 -1      2632 1.12886E+00 9.09740E-01 5.49129E-01-3.10296E-02 1.48992E+00-5.19888E-01
 -1      2633-6.34660E-01 9.19092E-01 5.54072E-01-8.06984E-02 1.51526E+00-3.88683E-01
 -1      2634-8.19139E-01 9.09353E-01 5.46134E-01-8.15488E-02 1.49695E+00-3.83825E-01
 -1      2635 1.67378E-01 9.65211E-01 5.83335E-01-7.32607E-02 1.59034E+00-4.06346E-01
 -1      2636 1.37075E-01 9.70105E-01 5.90642E-01-8.08059E-02 1.59592E+00-3.83641E-01
 -1      2637-1.85039E-02 9.60557E-01 5.74655E-01-7.70321E-02 1.58294E+00-4.05676E-01
 -1      2638-4.64477E+00 1.85191E-01 1.06352E-01 1.44671E-02 3.24254E-01-7.94870E-02
 -1      2639-4.92098E+00 1.98640E-01 1.14946E-01 2.13345E-02 3.40980E-01-1.20249E-01
 -1      2640-5.95263E+00 2.04667E-01 1.22229E-01 2.09869E-02 3.48705E-01-4.51091E-02
 -1      2641-6.21204E+00 2.24402E-01 1.32016E-01 2.76071E-02 3.66121E-01-8.37950E-02
 -1      2642-1.14684E+00 2.10807E-01 1.17431E-01-1.55935E-02 3.71720E-01-1.51952E-01
 -1      2643-6.57281E+00 1.85212E-01 1.02513E-01 4.23354E-02 3.13330E-01-5.78868E-02
 -1      2644-6.30413E+00 1.65171E-01 9.48480E-02 3.32888E-02 2.93000E-01-1.96504E-02
 -1      2645-1.44317E+00 1.83494E-01 1.05722E-01-1.50529E-02 3.18675E-01-1.25474E-01
 -1      2646-5.15378E+00 1.34608E-01 7.76105E-02 5.22119E-02 2.32840E-01-8.84018E-02
 -1      2647-5.50916E+00 1.25853E-01 6.86579E-02 4.34235E-02 2.19331E-01-1.30275E-01
 -1      2648-6.88286E+00 1.52822E-01 9.32522E-02 6.62408E-02 2.49565E-01-1.11481E-01
 -1      2649-7.24140E+00 1.50470E-01 8.47582E-02 4.45631E-02 2.37864E-01-1.49711E-01
 -1      2650-1.64110E+00 1.30687E-01 6.97276E-02-9.46047E-04 2.61757E-01-1.82192E-01
 -1      2651-5.26312E+00 1.95171E-01 1.16202E-01 1.55655E-02 3.23763E-01-1.56503E-01
 -1      2652-5.00082E+00 1.82142E-01 1.01200E-01 3.36862E-02 3.10800E-01-1.11237E-01
 -1      2653-7.06148E+00 1.83814E-01 1.06636E-01 2.21803E-02 2.88874E-01-1.55514E-01
 -1      2654-6.80665E+00 1.63598E-01 9.08820E-02 5.10535E-02 2.78992E-01-1.15829E-01
 -1      2655-1.58318E+00 1.69554E-01 9.97659E-02-4.97841E-03 3.14760E-01-2.05637E-01
 -1      2656-3.84654E+00 4.48634E-01 2.66695E-01-4.91664E-02 7.49567E-01-2.16350E-01
 -1      2657-3.98829E+00 4.29364E-01 2.57477E-01-4.06013E-02 7.14998E-01-2.11548E-01
 -1      2658-2.77814E+00 1.94279E-01 1.05579E-01 2.55084E-03 3.40498E-01-8.63183E-02
 -1      2659-8.40501E-01 3.75247E-01 2.15982E-01-3.73471E-02 6.35086E-01-2.44303E-01
 -1      2660-5.18291E+00 3.72147E-01 2.25050E-01-3.39924E-02 6.19236E-01-1.02807E-01
 -1      2661-4.02808E+00 3.47876E-01 2.03687E-01-3.36019E-02 5.85681E-01-1.43465E-01
 -1      2662-1.13946E+00 3.43639E-01 2.03970E-01-3.80733E-02 5.73848E-01-2.14564E-01
 -1      2663-5.55345E+00 3.26518E-01 1.92520E-01-2.58699E-02 5.54343E-01-7.72043E-02
 -1      2664-2.32514E+00 3.60146E-01 2.09213E-01-3.21079E-02 6.04038E-01-1.79702E-01
 -1      2665-6.98893E+00 2.01469E-01 1.19859E-01 4.20155E-02 3.28565E-01-1.30011E-01
 -1      2666-7.26462E+00 2.20814E-01 1.28334E-01 1.49752E-02 3.40403E-01-1.67968E-01
 -1      2667-1.83584E+00 1.95627E-01 1.08944E-01-1.49127E-02 3.66095E-01-2.12436E-01
 -1      2668-4.25880E+00 3.62092E-01 2.15461E-01-3.10152E-02 6.04134E-01-1.78866E-01
 -1      2669-5.78457E+00 3.46087E-01 1.99728E-01-2.60204E-02 5.76721E-01-1.12655E-01
 -1      2670-3.25985E+00 6.18616E-01 3.72841E-01-7.18560E-02 1.01178E+00-2.99198E-01
 -1      2671-3.11512E+00 6.07443E-01 3.59813E-01-7.38431E-02 9.93860E-01-2.65242E-01
 -1      2672-4.61062E+00 5.96176E-01 3.52031E-01-8.54833E-02 9.77673E-01-2.70132E-01
 -1      2673-4.47517E+00 5.77349E-01 3.40056E-01-7.84442E-02 9.62837E-01-2.38592E-01
 -1      2674-6.75348E-01 5.99853E-01 3.64577E-01-4.73695E-02 9.86945E-01-3.97055E-01
 -1      2675-3.14430E+00 1.25076E-01 7.75756E-02-1.44038E-02 2.15553E-01-2.59728E-01
 -1      2676-4.88320E+00 1.43694E-01 9.13285E-02-1.19289E-02 2.35231E-01-2.93731E-01
 -1      2677-2.27059E+00 1.42529E-01 7.93868E-02-1.40083E-02 2.50036E-01-3.39721E-01
 -1      2678-5.39713E+00 3.93582E-01 2.36204E-01-3.42944E-02 6.38951E-01-1.36662E-01
 -1      2679-3.61582E+00 1.86107E-01 1.05295E-01 3.61542E-03 3.29672E-01-2.38190E-01
 -1      2680 8.14168E-01 1.82364E-01 1.04418E-01-5.58467E-03 3.14079E-01-4.08283E-02
 -1      2681 3.33517E+00 1.88291E-01 1.19853E-01-4.12462E-03 3.26975E-01-4.74450E-02
 -1      2682 2.55930E+00 1.60744E-01 9.42130E-02-6.06187E-03 2.79064E-01 8.64927E-03
 -1      2683 5.09143E+00 1.66935E-01 1.09377E-01-7.05387E-04 2.93082E-01-6.35013E-04
 -1      2684 1.91884E+00 1.61713E-01 9.48453E-02-2.86441E-02 3.16847E-01-1.27600E-01
 -1      2685 5.64274E+00 1.87169E-01 1.09431E-01-5.05413E-02 3.28283E-01-8.53874E-02
 -1      2686 5.34612E+00 1.74018E-01 1.00270E-01-7.76563E-02 3.18725E-01-1.18468E-01
 -1      2687 7.41115E+00 1.74350E-01 1.06942E-01-5.80753E-02 2.88698E-01-3.17682E-02
 -1      2688 7.11782E+00 1.59279E-01 9.53453E-02-9.09087E-02 2.77159E-01-6.23685E-02
 -1      2689 8.28724E-01 2.02247E-01 1.20024E-01-8.28423E-03 3.44379E-01-5.73734E-02
 -1      2690-1.70955E+00 1.89517E-01 1.09015E-01-9.93760E-03 3.26168E-01-4.62380E-02
 -1      2691-3.03027E+00 2.03281E-01 1.05371E-01-1.12213E-02 3.47621E-01-2.35603E-02
 -1      2692-5.06531E-01 2.15374E-01 1.21866E-01-3.54956E-03 3.67304E-01-3.27955E-02
 -1      2693-1.12840E+00 8.57521E-01 5.10200E-01-8.72770E-02 1.41630E+00-3.54656E-01
 -1      2694-1.17884E+00 8.69479E-01 5.21329E-01-8.54414E-02 1.43091E+00-3.66178E-01
 -1      2695-1.58911E+00 8.90922E-01 5.45253E-01-1.01421E-01 1.45869E+00-3.19716E-01
 -1      2696 3.53304E-01 8.67826E-01 5.11093E-01-6.79604E-02 1.44199E+00-5.01341E-01
 -1      2697-1.56253E+00 8.85124E-01 5.37974E-01-8.81372E-02 1.44239E+00-3.07211E-01
 -1      2698 2.85974E+00 8.70976E-01 5.30979E-01-3.14680E-02 1.42764E+00-3.86840E-01
 -1      2699 2.91925E+00 8.69170E-01 5.23431E-01-2.51085E-02 1.43463E+00-3.69405E-01
 -1      2700 3.32981E+00 8.77369E-01 5.26641E-01-2.05018E-02 1.44338E+00-3.54880E-01
 -1      2701 3.36042E+00 8.76037E-01 5.20796E-01-2.70611E-02 1.45142E+00-3.39520E-01
 -1      2702 1.40181E+00 8.81569E-01 5.37630E-01-5.45611E-02 1.44052E+00-5.20817E-01
 -1      2703 6.27717E-01 8.98425E-01 5.42331E-01-3.96986E-02 1.47296E+00-5.13861E-01
 -1      2704 1.12716E+00 8.77281E-01 5.27810E-01-3.14014E-02 1.43451E+00-5.07421E-01
 -1      2705 7.87941E-02 8.76742E-01 5.33169E-01-5.00078E-02 1.42511E+00-4.59782E-01
 -1      2706 6.24903E-01 8.84108E-01 5.23117E-01-3.47018E-02 1.45114E+00-4.99216E-01
 -1      2707-3.87642E-01 8.85049E-01 5.26200E-01-5.74541E-02 1.44082E+00-4.37521E-01
 -1      2708-1.38707E+00 8.91423E-01 5.32749E-01-1.00596E-01 1.47669E+00-3.26232E-01
 -1      2709 6.15782E-01 8.66055E-01 5.20842E-01-4.32395E-02 1.42836E+00-5.69721E-01
 -1      2710 1.65918E+00 8.59569E-01 5.09724E-01-2.88748E-02 1.41780E+00-5.22562E-01
 -1      2711 2.16134E+00 8.79946E-01 5.41836E-01-2.31531E-02 1.44474E+00-5.16368E-01
 -1      2712 1.14627E+00 8.86655E-01 5.37939E-01-3.24630E-02 1.45368E+00-5.77498E-01
 -1      2713-1.13367E+00 7.34509E-01 4.48209E-01-6.45606E-02 1.20764E+00-4.74928E-01
 -1      2714 3.85989E-01 7.47865E-01 4.51123E-01-4.45676E-02 1.22153E+00-5.17808E-01
 -1      2715-5.48456E-01 7.60779E-01 4.48196E-01-4.99048E-02 1.25431E+00-5.37081E-01
 -1      2716-2.30605E-01 7.39174E-01 4.38247E-01-5.86514E-02 1.24195E+00-4.62388E-01
 -1      2717-2.04468E+00 7.52976E-01 4.41656E-01-6.76008E-02 1.24034E+00-4.79887E-01
 -1      2718-2.21596E+00 7.43850E-01 4.47577E-01-9.09423E-02 1.22619E+00-3.18214E-01
 -1      2719-2.47917E+00 7.28756E-01 4.31118E-01-8.11981E-02 1.21417E+00-3.40369E-01
 -1      2720-3.08438E+00 7.67387E-01 4.66973E-01-9.56641E-02 1.25195E+00-2.98840E-01
 -1      2721-3.36636E+00 7.53817E-01 4.53255E-01-9.66636E-02 1.23903E+00-3.18260E-01
 -1      2722 5.75889E+00 1.21125E-01 6.91467E-02-7.08862E-02 2.16945E-01-5.37723E-02
 -1      2723 7.52655E+00 1.39425E-01 7.73456E-02-7.77633E-02 2.33446E-01-2.05796E-02
 -1      2724 1.90652E+00 1.33281E-01 8.21617E-02-3.00675E-02 2.61224E-01-1.05320E-01
 -1      2725 7.18168E+00 1.41004E-01 8.08347E-02-1.01062E-01 2.48711E-01-5.89401E-02
 -1      2726 3.37621E+00 1.18350E-01 7.28244E-02-9.49336E-03 2.17547E-01 2.94376E-03
 -1      2727 7.63761E-01 1.23938E-01 6.87344E-02-2.76238E-03 2.33364E-01-3.21569E-03
 -1      2728 5.15079E+00 1.37056E-01 9.58685E-02-6.02000E-03 2.32392E-01 2.77996E-02
 -1      2729 2.54554E+00 1.39753E-01 8.37838E-02-6.28138E-03 2.51079E-01 2.78833E-02
 -1      2730-4.41748E-01 1.78962E-01 1.03417E-01-2.57371E-02 3.14839E-01-3.17304E-01
 -1      2731-2.95231E+00 1.86018E-01 1.11161E-01-2.77945E-02 3.28093E-01-2.87876E-01
 -1      2732-2.23033E+00 1.63868E-01 9.91882E-02-1.52378E-02 2.77922E-01-3.46521E-01
 -1      2733-4.74531E+00 1.68620E-01 1.15247E-01-1.78578E-02 2.92133E-01-3.05282E-01
 -1      2734-4.89790E+00 4.75812E-01 2.83371E-01-5.72326E-02 7.81877E-01-1.68551E-01
 -1      2735 1.48659E-01 5.98789E-01 3.54780E-01-4.16321E-02 1.00109E+00-4.70248E-01
 -1      2736-1.61360E+00 6.11000E-01 3.60316E-01-6.24032E-02 1.01689E+00-4.34323E-01
 -1      2737-1.16277E+00 5.84042E-01 3.56898E-01-4.50683E-02 9.60694E-01-4.81785E-01
 -1      2738-2.94750E+00 5.89863E-01 3.66255E-01-6.34453E-02 9.77008E-01-4.33154E-01
 -1      2739 1.05554E+00 6.04727E-01 3.59332E-01-2.15461E-02 9.96580E-01-3.27236E-01
 -1      2740 2.84048E+00 6.14442E-01 3.75836E-01-1.28794E-03 1.01402E+00-3.05524E-01
 -1      2741 2.32732E+00 5.80690E-01 3.43469E-01 5.28375E-04 9.62830E-01-2.96749E-01
 -1      2742 4.13072E+00 5.91194E-01 3.51258E-01 2.39542E-02 9.81449E-01-2.65920E-01
 -1      2743 1.85929E+00 5.83084E-01 3.45448E-01-2.40578E-02 9.86493E-01-3.55971E-01
 -1      2744 4.48633E+00 6.09548E-01 3.61571E-01 6.53963E-04 1.01845E+00-2.53037E-01
 -1      2745 4.32630E+00 6.01430E-01 3.62558E-01-2.32344E-02 1.00174E+00-2.70350E-01
 -1      2746 5.63763E+00 5.80671E-01 3.54806E-01-3.05914E-03 9.61117E-01-2.05210E-01
 -1      2747 5.79548E+00 5.91444E-01 3.58667E-01 1.16990E-02 9.79483E-01-1.88922E-01
 -1      2748 5.01624E+00 1.82795E-01 1.10671E-01-6.74277E-02 3.30466E-01-1.60318E-01
 -1      2749 5.29773E+00 1.93153E-01 1.09114E-01-7.14606E-02 3.49291E-01-1.20772E-01
 -1      2750 6.34666E+00 1.95211E-01 1.17817E-01-6.86287E-02 3.51251E-01-1.76471E-01
 -1      2751 6.61996E+00 2.04441E-01 1.15304E-01-8.29386E-02 3.67708E-01-1.41823E-01
 -1      2752 1.55052E+00 2.13201E-01 1.27092E-01-4.21346E-02 3.75659E-01-2.24619E-01
 -1      2753 9.15353E-01 3.44198E-01 2.01941E-01-1.15969E-02 5.73819E-01-1.57522E-01
 -1      2754 3.20128E+00 3.53241E-01 2.17224E-01 1.67170E-03 5.89981E-01-1.51397E-01
 -1      2755 2.50962E+00 3.18351E-01 1.88088E-01-1.19736E-03 5.34303E-01-1.15188E-01
 -1      2756 4.80884E+00 3.28334E-01 2.04211E-01 1.66173E-02 5.51793E-01-1.07633E-01
 -1      2757 1.92446E+00 3.21404E-01 1.91445E-01-2.38375E-02 5.70673E-01-2.20521E-01
 -1      2758 5.29687E+00 3.49246E-01 2.06572E-01-1.94367E-02 5.92897E-01-1.49854E-01
 -1      2759 5.04527E+00 3.35853E-01 2.00028E-01-4.37855E-02 5.80051E-01-1.77385E-01
 -1      2760 6.91949E+00 3.30606E-01 1.99417E-01-1.69214E-02 5.49294E-01-9.16052E-02
 -1      2761 6.67794E+00 3.19159E-01 1.91206E-01-4.30585E-02 5.33469E-01-1.19227E-01
 -1      2762-4.14471E-01 1.98934E-01 1.18578E-01-2.23011E-02 3.43439E-01-3.24988E-01
 -1      2763 2.08708E+00 1.82535E-01 1.03201E-01-2.15459E-02 3.25767E-01-2.90697E-01
 -1      2764 9.34047E-01 2.17996E-01 1.30820E-01-2.81680E-02 3.69162E-01-3.71353E-01
 -1      2765 3.42864E+00 1.99650E-01 1.15616E-01-2.47899E-02 3.48202E-01-3.23172E-01
 -1      2766-2.24730E-01 3.38674E-01 2.00850E-01-3.32582E-02 5.74160E-01-3.78424E-01
 -1      2767-2.49511E+00 3.47854E-01 2.07005E-01-4.67790E-02 5.90871E-01-3.46049E-01
 -1      2768-1.87127E+00 3.21231E-01 1.93907E-01-3.33497E-02 5.33220E-01-4.00903E-01
 -1      2769-4.15016E+00 3.28298E-01 2.10736E-01-4.59276E-02 5.51158E-01-3.56986E-01
 -1      2770-1.26897E+00 3.30219E-01 1.97246E-01-2.60168E-02 5.66048E-01-2.83082E-01
 -1      2771-3.42181E+00 5.41599E-01 3.23387E-01-6.77723E-02 8.95658E-01-2.40859E-01
 -1      2772-3.73220E+00 5.27168E-01 3.09352E-01-6.34320E-02 8.79878E-01-2.72278E-01
 -1      2773-4.96490E+00 5.54245E-01 3.34956E-01-7.98120E-02 9.11412E-01-2.62149E-01
 -1      2774-7.66158E-01 5.40152E-01 3.16093E-01-4.65370E-02 9.18111E-01-3.75358E-01
 -1      2775-4.64109E+00 5.67069E-01 3.47397E-01-7.18191E-02 9.24442E-01-2.33896E-01
 -1      2776-5.24346E+00 4.13001E-01 2.41797E-01-4.31254E-02 6.74205E-01-1.41165E-01
 -1      2777-1.90607E-01 3.62027E-01 2.16635E-01-3.04342E-02 6.08009E-01-3.85890E-01
 -1      2778 2.07733E+00 3.46090E-01 2.01502E-01-1.81429E-02 5.88775E-01-3.49670E-01
 -1      2779 3.29225E+00 3.69670E-01 2.22148E-01-1.51627E-02 6.19183E-01-3.74954E-01
 -1      2780 1.59224E+00 3.78655E-01 2.28876E-01-4.29726E-02 6.39493E-01-3.03319E-01
 -1      2781 1.03528E+00 3.87642E-01 2.35042E-01-2.78978E-02 6.41243E-01-4.25814E-01
 -1      2782 4.72960E+00 3.49222E-01 2.11937E-01-4.17743E-02 5.94911E-01-2.18086E-01
 -1      2783 4.97191E+00 3.59191E-01 2.10037E-01-4.07331E-02 6.16237E-01-1.81392E-01
 -1      2784 6.15543E+00 3.71079E-01 2.16257E-01-4.26195E-02 6.39104E-01-1.90609E-01
 -1      2785 5.92719E+00 3.64690E-01 2.19570E-01-3.42322E-02 6.21139E-01-2.22951E-01
 -1      2786-7.64505E+00 1.22053E-01 6.77129E-02 6.39850E-02 1.88936E-01-1.37691E-01
 -1      2787-7.31971E+00 1.13178E-01 6.18764E-02 8.82662E-02 2.07504E-01-1.04176E-01
 -1      2788-2.00422E+00 1.11692E-01 6.34243E-02 2.88689E-03 2.15929E-01-1.68341E-01
 -1      2789 9.29784E-01 3.66861E-01 2.18880E-01-1.28090E-02 6.10188E-01-1.74459E-01
 -1      2790-1.37070E+00 3.55180E-01 2.10970E-01-2.59219E-02 5.89985E-01-1.50128E-01
 -1      2791-2.55622E-01 3.82993E-01 2.22615E-01-1.61401E-02 6.37905E-01-1.57957E-01
 -1      2792-2.54361E+00 3.71912E-01 2.04688E-01-3.41767E-02 6.17466E-01-1.27188E-01
 -1      2793 3.00972E+00 5.22824E-01 3.10055E-01 1.58807E-03 8.77287E-01-2.58105E-01
 -1      2794 1.01517E+00 5.34411E-01 3.18204E-01-1.84220E-02 8.96459E-01-2.95299E-01
 -1      2795 4.30573E+00 5.45942E-01 3.43001E-01 2.50711E-02 9.05254E-01-2.35680E-01
 -1      2796 2.32973E+00 5.57778E-01 3.39175E-01-6.07078E-05 9.26247E-01-2.79331E-01
 -1      2797 1.86881E+00 5.55464E-01 3.41027E-01-2.65523E-02 9.19135E-01-3.33229E-01
 -1      2798 9.94003E-01 4.29383E-01 2.56006E-01-1.40395E-02 7.13002E-01-2.18154E-01
 -1      2799 9.85628E-01 4.47984E-01 2.68094E-01-1.34768E-02 7.53199E-01-2.36869E-01
 -1      2800-3.31830E+00 4.43250E-02 2.90830E-02 9.24932E-03 1.09002E-01-2.10953E-01
 -1      2801-6.35770E-01 4.10202E-02 2.03859E-02-1.32802E-02 1.06207E-01-2.33875E-01
 -1      2802-2.79118E+00 4.92765E-02 2.67509E-02 9.86156E-03 1.01042E-01-2.86817E-01
 -1      2803-2.12238E+00 5.01528E-02 1.97906E-02 1.91384E-02 1.35189E-01-1.30630E-01
 -1      2804-5.45552E+00 5.70383E-02 4.59628E-02 2.42429E-02 1.01245E-01-2.52941E-01
 -1      2805-4.96395E+00 2.06649E-01 1.29459E-01-2.73089E-02 3.41326E-01-3.26005E-01
 -1      2806-2.48275E+00 1.95022E-01 1.17039E-01-2.04896E-02 3.28639E-01-3.63041E-01
 -1      2807 6.63890E+00 1.64181E-01 9.96719E-02-7.83579E-02 2.94086E-01-1.63109E-01
 -1      2808 1.79893E+00 1.75620E-01 9.92176E-02-3.84690E-02 3.20425E-01-2.04847E-01
 -1      2809 6.94522E+00 1.81096E-01 1.08376E-01-9.51489E-02 3.13200E-01-1.30381E-01
 -1      2810 1.92000E-02 9.57255E-01 5.72275E-01-6.20669E-02 1.58511E+00-4.18035E-01
 -1      2811-4.54585E-01 9.49357E-01 5.62278E-01-7.29754E-02 1.57793E+00-3.60100E-01
 -1      2812-3.24379E-01 9.56431E-01 5.64656E-01-7.59183E-02 1.58190E+00-3.52281E-01
 -1      2813 5.47183E-01 9.61821E-01 5.90752E-01-5.54161E-02 1.56932E+00-5.51340E-01
 -1      2814 2.85430E+00 1.90717E-01 1.15912E-01-2.17957E-03 3.28391E-01-2.65698E-03
 -1      2815 2.23001E+00 2.02508E-01 1.21858E-01-2.00895E-02 3.63676E-01-1.43678E-01
 -1      2816 5.37337E+00 2.01399E-01 1.35232E-01 5.19611E-03 3.38274E-01-1.09334E-02
 -1      2817 7.66825E+00 2.05729E-01 1.16172E-01-5.51675E-02 3.39194E-01-4.21391E-02
 -1      2818 7.38169E+00 1.87630E-01 1.07063E-01-8.11361E-02 3.27117E-01-7.05785E-02
 -1      2819-8.08714E-01 1.82351E-01 9.90496E-02 1.40624E-03 3.11227E-01 6.93301E-04
 -1      2820-3.34836E+00 1.71434E-01 8.62277E-02-5.08017E-03 2.95029E-01 9.82746E-03
 -1      2821-1.96146E+00 8.49669E-01 5.04574E-01-1.10265E-01 1.41391E+00-3.03628E-01
 -1      2822-1.88456E+00 8.50449E-01 5.11272E-01-9.40002E-02 1.40345E+00-2.87109E-01
 -1      2823 1.62448E-01 8.64187E-01 5.24344E-01-6.70169E-02 1.40245E+00-4.78424E-01
 -1      2824 3.68527E+00 8.69148E-01 5.29660E-01-3.06135E-02 1.41814E+00-3.29541E-01
 -1      2825 3.60200E+00 8.62360E-01 5.22032E-01-1.65409E-02 1.40762E+00-3.41093E-01
 -1      2826 1.54621E+00 8.40842E-01 5.00322E-01-4.76820E-02 1.40399E+00-5.04302E-01
 -1      2827-6.44651E-01 8.62602E-01 5.23563E-01-5.68428E-02 1.40718E+00-4.18104E-01
 -1      2828 4.44927E-01 8.69340E-01 5.19118E-01-3.92239E-02 1.41355E+00-4.82469E-01
 -1      2829 1.28011E+00 8.57127E-01 5.17191E-01-3.28301E-02 1.41555E+00-5.71048E-01
 -1      2830 2.36762E+00 8.57765E-01 5.08889E-01-1.78382E-02 1.40244E+00-5.09331E-01
 -1      2831 3.69847E+00 1.69947E-01 8.59264E-02-2.66995E-02 2.92626E-01-3.18514E-01
 -1      2832 1.16617E+00 1.81058E-01 1.01061E-01-3.04961E-02 3.12975E-01-3.59464E-01
 -1      2833 1.24549E+00 3.44899E-01 2.01887E-01-2.80701E-02 5.76560E-01-4.11187E-01
 -1      2834 1.81616E+00 3.33442E-01 1.94962E-01-3.88186E-02 5.74735E-01-2.82372E-01
 -1      2835 3.54659E+00 3.33424E-01 1.86539E-01-1.41654E-02 5.54371E-01-3.68052E-01
 -1      2836 6.48218E+00 3.45404E-01 2.09192E-01-5.09882E-02 5.76112E-01-1.77603E-01
 -1      2837 6.21752E+00 3.30291E-01 1.99229E-01-3.90125E-02 5.56737E-01-2.08297E-01
 -1      2838-2.87067E+00 3.34161E-01 1.89605E-01-3.02741E-02 5.57114E-01-9.75969E-02
 -1      2839-5.57244E-01 3.45527E-01 1.98852E-01-1.33242E-02 5.74810E-01-1.22619E-01
 -1      2840-4.44181E+00 6.27481E-01 3.79944E-01-8.06997E-02 1.02323E+00-2.49240E-01
 -1      2841-4.60017E+00 6.40891E-01 3.85751E-01-9.08117E-02 1.03886E+00-2.76906E-01
 -1      2842-7.73108E-01 6.21241E-01 3.62074E-01-5.19253E-02 1.04873E+00-4.06793E-01
 -1      2843 2.76025E+00 3.55018E-01 2.14687E-01 4.60027E-03 5.94749E-01-1.26547E-01
 -1      2844 2.19125E+00 3.70254E-01 2.24754E-01-1.60775E-02 6.26488E-01-2.32384E-01
 -1      2845 5.03220E+00 3.66538E-01 2.31820E-01 2.16561E-02 6.07882E-01-1.18796E-01
 -1      2846-4.28790E+00 3.70975E-01 2.25437E-01-5.23227E-02 6.11635E-01-3.74531E-01
 -1      2847-2.04851E+00 3.59281E-01 2.15578E-01-3.66675E-02 5.94397E-01-4.13740E-01
 -1      2848-1.45599E+00 3.59440E-01 2.06842E-01-3.29633E-02 6.29469E-01-2.89185E-01
 -1      2849 6.86226E+00 3.49690E-01 2.03859E-01-3.29702E-02 5.93190E-01-1.26025E-01
 -1      2850 7.11053E+00 3.66650E-01 2.13947E-01-1.30825E-02 6.08872E-01-1.00489E-01
 -1      2851 6.98438E-01 9.33499E-01 5.54973E-01-3.90727E-02 1.52812E+00-5.34428E-01
 -1      2852-9.65518E-01 9.27705E-01 5.59673E-01-9.80142E-02 1.52255E+00-3.37501E-01
 -1      2853-2.63506E+00 1.16281E-01 7.57255E-02-6.60062E-03 2.05000E-01-3.31405E-01
 -1      2854-5.28003E+00 1.12203E-01 8.18863E-02-4.11132E-03 1.88051E-01-2.88576E-01
 -1      2855-5.42748E+00 5.12381E-01 3.03726E-01-7.38270E-02 8.46205E-01-2.48126E-01
 -1      2856-5.13661E+00 5.13868E-01 3.03267E-01-6.27867E-02 8.66853E-01-2.22048E-01
 -1      2857-1.11928E+00 5.21934E-01 3.16795E-01-4.74984E-02 8.56827E-01-3.58183E-01
 -1      2858-3.79034E+00 7.13502E-01 4.20504E-01-9.61368E-02 1.18613E+00-2.98484E-01
 -1      2859-3.54621E+00 7.17640E-01 4.23788E-01-8.86427E-02 1.20344E+00-2.82380E-01
 -1      2860-5.25367E-01 7.30014E-01 4.44378E-01-6.21868E-02 1.18849E+00-4.43521E-01
 -1      2861-1.24043E+00 6.21604E-01 3.68304E-01-4.92840E-02 1.02088E+00-4.91825E-01
 -1      2862-2.97764E+00 6.32566E-01 3.73948E-01-6.76609E-02 1.04039E+00-4.47295E-01
 -1      2863-8.69767E-01 7.29152E-01 4.45211E-01-4.92224E-02 1.20120E+00-5.21612E-01
 -1      2864-2.41841E+00 7.15582E-01 4.40863E-01-6.71556E-02 1.18225E+00-4.68610E-01
 -1      2865 8.80691E-01 9.69175E-01 5.88054E-01-4.57194E-02 1.58476E+00-5.90884E-01
 -1      2866 4.09276E-01 9.63659E-01 5.86700E-01-5.25320E-02 1.57943E+00-5.46669E-01
 -1      2867 4.63991E-01 9.61436E-01 5.83799E-01-3.89040E-02 1.58267E+00-5.85536E-01
 -1      2868-3.68294E-02 9.54863E-01 5.81144E-01-4.38424E-02 1.57389E+00-5.29548E-01
 -1      2869-1.93841E+00 5.32631E-01 3.25496E-01-5.64884E-02 8.74237E-01-4.09243E-01
 -1      2870 6.10116E-02 5.42796E-01 3.24603E-01-3.88445E-02 8.92410E-01-4.53178E-01
 -1      2871-3.18933E+00 5.53933E-01 3.31715E-01-6.34901E-02 9.10261E-01-4.21378E-01
 -1      2872-1.21232E+00 5.62470E-01 3.30916E-01-4.82277E-02 9.26997E-01-4.76583E-01
 -1      2873-4.59149E+00 3.57081E-01 2.13742E-01-3.02080E-02 5.86259E-01-2.12771E-01
 -1      2874-4.37091E+00 3.43238E-01 1.98753E-01-2.02405E-02 5.68777E-01-1.70369E-01
 -1      2875-6.25795E+00 3.39158E-01 2.00700E-01-3.55950E-02 5.49649E-01-2.02415E-01
 -1      2876-6.04891E+00 3.17905E-01 1.84868E-01-1.63094E-02 5.34604E-01-1.64716E-01
 -1      2877-5.50246E+00 4.26777E-02 2.23203E-02 1.23627E-01 9.41037E-02-5.51407E-02
 -1      2878-5.78588E+00 5.87348E-02 3.30917E-02 1.01282E-01 1.01578E-01-9.66738E-02
 -1      2879-7.61927E+00 5.63938E-02 2.92608E-02 1.53409E-01 9.53829E-02-8.06432E-02
 -1      2880-7.92083E+00 7.92526E-02 3.76058E-02 1.24819E-01 1.00243E-01-1.14371E-01
 -1      2881 3.97766E+00 1.85698E-01 1.14055E-01-3.52138E-02 3.26087E-01-8.14392E-02
 -1      2882-3.35913E-01 8.67139E-01 5.23277E-01-7.89499E-02 1.42621E+00-4.50541E-01
 -1      2883 2.07131E+00 8.60000E-01 5.12131E-01-4.75045E-02 1.42171E+00-4.95711E-01
 -1      2884-2.25808E-01 4.02109E-01 2.36504E-01-1.41976E-02 6.73806E-01-1.73070E-01
 -1      2885 2.63268E+00 5.19923E-01 3.14073E-01 5.53386E-03 8.62978E-01-2.50315E-01
 -1      2886 4.65001E+00 5.10024E-01 3.07947E-01 2.79453E-02 8.45479E-01-2.08222E-01
 -1      2887 2.14208E+00 4.98399E-01 2.94175E-01-2.37918E-02 8.54418E-01-3.03195E-01
 -1      2888-1.04277E-01 4.74899E-01 2.81052E-01-1.80193E-02 7.83627E-01-2.19491E-01
 -1      2889 3.14485E+00 1.88176E-01 1.05606E-01-5.56193E-02 3.39496E-01-2.46009E-01
 -1      2890 4.50790E+00 5.37016E-01 3.22610E-01-2.51632E-02 8.93845E-01-2.47277E-01
 -1      2891 4.79080E+00 5.30737E-01 3.21283E-01-5.23954E-03 8.72104E-01-2.16912E-01
 -1      2892 5.76649E+00 5.52522E-01 3.25335E-01-5.87657E-03 9.28353E-01-2.03401E-01
 -1      2893 6.06762E+00 5.47658E-01 3.21817E-01 7.92061E-03 9.07898E-01-1.72955E-01
 -1      2894 3.03868E+00 3.51775E-01 2.05033E-01-4.28618E-02 6.01246E-01-3.11494E-01
 -1      2895-3.94893E-01 9.53083E-01 5.70578E-01-8.96309E-02 1.57501E+00-3.49198E-01
 -1      2896 8.89474E-01 9.82571E-01 5.73088E-01-5.70870E-02 1.60681E+00-5.75947E-01
 -1      2897 9.41008E-01 9.80908E-01 5.89145E-01-4.58687E-02 1.61276E+00-5.93047E-01
 -1      2898 1.08124E+00 9.74019E-01 6.03451E-01-6.54333E-02 1.60761E+00-5.62016E-01
 -1      2899 3.78365E+00 3.45246E-01 2.11742E-01-1.65682E-02 5.85326E-01-1.75711E-01
 -1      2900 4.93887E-01 9.80818E-01 5.80165E-01-6.84579E-02 1.60950E+00-4.20172E-01
 -1      2901 9.08801E-01 9.83682E-01 5.72902E-01-6.57291E-02 1.61346E+00-5.74663E-01
 -1      2902-3.75818E+00 1.25818E-01 7.72442E-02 2.16140E-02 2.32553E-01-2.08964E-01
 -1      2903-3.09130E+00 3.46010E-01 2.02262E-01-2.93935E-02 5.90217E-01-3.02945E-01
 -1      2904 3.46964E+00 5.26221E-01 3.16208E-01-4.71496E-03 8.89403E-01-2.73213E-01
 -1      2905-2.40385E+00 5.34874E-01 3.24462E-01-5.10407E-02 8.86680E-01-3.67116E-01
 -1      2906-6.13717E+00 3.64311E-01 2.20107E-01-2.35645E-02 5.95230E-01-1.75558E-01
 -1      2907-6.36920E+00 3.82569E-01 2.27204E-01-4.21933E-02 6.10505E-01-2.11690E-01
 -1      2908-1.58563E+00 5.25456E-01 3.12278E-01-4.55575E-02 8.65806E-01-4.65841E-01
 -1      2909-3.61784E+00 5.12418E-01 3.16520E-01-6.50900E-02 8.43307E-01-4.10661E-01
 -1      2910-2.07982E+00 6.06714E-01 3.57489E-01-5.80987E-02 1.01359E+00-3.97800E-01
 -1      2911 4.21565E+00 6.25559E-01 3.84479E-01 2.90208E-02 1.03560E+00-2.79485E-01
 -1      2912 2.45314E+00 6.17639E-01 3.73571E-01 3.93570E-03 1.02370E+00-3.06085E-01
 -1      2913 2.01038E+00 6.37546E-01 3.90701E-01-2.23135E-02 1.04688E+00-3.64500E-01
 -1      2914-1.46867E+00 7.41665E-01 4.49141E-01-6.41303E-02 1.21303E+00-4.44504E-01
 -1      2915 5.66174E+00 6.12992E-01 3.58025E-01 1.55315E-03 1.02255E+00-2.16508E-01
 -1      2916 5.83578E+00 6.22494E-01 3.63485E-01 1.19508E-02 1.03942E+00-1.96223E-01
 -1      2917 7.88856E+00 1.15911E-01 6.79115E-02-9.06374E-02 1.85725E-01 1.50786E-03
 -1      2918 7.54715E+00 1.12595E-01 7.15191E-02-1.14330E-01 2.03229E-01-3.74793E-02
 -1      2919 2.22180E+00 1.00860E-01 5.77269E-02-3.19622E-02 2.14557E-01-8.03148E-02
 -1      2920 6.45377E+00 5.14266E-01 3.08145E-01 9.00745E-03 8.43159E-01-1.47766E-01
 -1      2921 6.17540E+00 5.24765E-01 3.19046E-01-2.07919E-03 8.62284E-01-1.80733E-01
 -1      2922 2.88359E+00 1.16102E-01 7.06683E-02-9.24195E-03 2.04927E-01 5.84884E-02
 -1      2923 5.49273E+00 1.09299E-01 7.95003E-02-1.04396E-02 1.87869E-01 5.90863E-02
 -1      2924-5.24819E+00 3.97885E-02 3.61529E-02 3.91956E-02 9.51987E-02-2.36484E-01
 -1      2925-1.90220E+00 3.01362E-02 1.52897E-02 3.33278E-02 1.22941E-01-1.38017E-01
 -1      2926-2.55697E+00 4.19324E-02 3.14007E-02 1.70923E-02 9.31971E-02-2.72241E-01
 -1      2927 1.73173E+00 5.30245E-01 3.86214E-01-6.38506E-02-2.59087E-03-1.40165E-01
 -1      2928-6.47555E-01-2.55360E-01-1.93797E-01 2.82906E-02 4.31461E-02-9.35593E-02
 -1      2929 1.67460E+00-3.36977E-02-6.21186E-03-3.87643E-02 2.82721E-02 1.26097E-01
 -1      2930 2.89675E+00 1.39030E-01 5.12174E-02-9.39676E-02-7.20575E-02-2.40905E-01
 -1      2931 3.96422E+00 6.80641E-01 5.20812E-01-1.87523E-01-3.70237E-02 7.95339E-03
 -1      2932 7.06687E+00 1.02466E-01 5.54495E-02-5.99068E-02 1.89370E-01-2.14277E-01
 -1      2933 1.70828E-03 9.72183E-01 5.91693E-01-7.35354E-02 1.59605E+00-3.61273E-01
 -1      2934-1.53207E-01 9.68034E-01 5.84378E-01-7.07047E-02 1.59826E+00-3.71725E-01
 -1      2935 7.19027E-01 9.56773E-01 5.68281E-01-4.76688E-02 1.58993E+00-5.59866E-01
 -1      2936 7.19960E-02-2.39471E-02-7.45528E-02-2.36451E-02-1.89689E-02-1.31910E-01
 -1      2937-7.72301E+00 5.51334E-02 3.32149E-02 1.34698E-01 8.63569E-02-1.11805E-01
 -1      2938-7.45773E+00 2.22764E-02 1.45354E-02 1.70020E-01 8.67655E-02-8.35725E-02
 -1      2939 3.27585E+00 6.14040E-01 3.72820E-01-4.98738E-03 1.00674E+00-3.15034E-01
 -1      2940 2.13703E-01 9.72622E-01 5.78161E-01-4.10049E-02 1.59554E+00-5.35305E-01
 -1      2941 6.51828E-01 9.72616E-01 5.73111E-01-3.71936E-02 1.59582E+00-5.90479E-01
 -1      2942 1.01045E+00 9.70436E-01 5.62501E-01-5.19795E-02 1.61543E+00-5.62183E-01
 -1      2943 1.01604E+00 9.78725E-01 5.63508E-01-6.25897E-02 1.60813E+00-5.62235E-01
 -1      2944 9.75180E-01 9.81346E-01 6.18425E-01-5.92189E-02 1.61120E+00-5.59054E-01
 -1      2945 4.01094E+00 1.20223E-01 7.73734E-02-4.69825E-02 2.31420E-01-4.09236E-02
 -1      2946 1.05280E+00 9.64118E-01 5.30345E-01-5.24909E-02 1.61809E+00-5.13155E-01
 -1      2947 1.11609E+00 9.82937E-01 6.16670E-01-5.18692E-02 1.61718E+00-5.60359E-01
 -1      2948 1.05137E+00 9.61823E-01 5.55095E-01-4.21156E-02 1.62895E+00-5.27170E-01
 -1      2949-4.04297E+00 5.21119E-02 2.37081E-02 6.47031E-02 1.19008E-01-1.69985E-01
 -1      2950 3.17958E-01 9.62376E-01 5.84349E-01-5.45020E-02 1.57999E+00-5.24944E-01
 -1      2951 2.76826E+00 9.41683E-01 5.77741E-01-2.02977E-02 1.53931E+00-3.63648E-01
 -1      2952 2.54582E+00 9.41008E-01 5.65229E-01-2.98645E-02 1.55478E+00-3.53394E-01
 -1      2953 1.82217E+00 9.53459E-01 5.80398E-01-2.47544E-02 1.55728E+00-5.27985E-01
 -1      2954 1.96956E+00 9.30061E-01 5.53423E-01-2.46514E-02 1.52355E+00-5.26447E-01
 -1      2955 1.82116E+00 9.44208E-01 5.72708E-01-4.85485E-02 1.54772E+00-5.06104E-01
 -1      2956 2.75629E+00 9.37090E-01 5.70968E-01-3.49115E-02 1.53395E+00-3.49605E-01
 -1      2957 5.17196E+00 6.51303E-01 3.95632E-01 1.00101E-02 1.07666E+00-3.23443E-01
 -1      2958 5.04923E+00 6.73933E-01 4.06023E-01 1.00387E-02 1.11347E+00-3.24078E-01
 -1      2959 3.27972E+00 6.51261E-01 3.89660E-01-3.84214E-03 1.06510E+00-4.58956E-01
 -1      2960 5.10942E+00 6.72666E-01 4.06133E-01-2.70986E-03 1.10317E+00-2.76311E-01
 -1      2961 5.23817E+00 6.51155E-01 3.90762E-01-1.67360E-02 1.07159E+00-2.80943E-01
 -1      2962 2.59521E+00 9.56078E-01 5.71438E-01-2.35192E-02 1.55359E+00-3.55081E-01
 -1      2963 2.38561E+00 9.50566E-01 5.70673E-01-4.54583E-02 1.56610E+00-3.53662E-01
 -1      2964 2.48156E+00 9.66069E-01 5.74136E-01-2.50584E-02 1.56932E+00-3.63451E-01
 -1      2965 1.73384E+00 9.62805E-01 5.81461E-01-2.94701E-02 1.57059E+00-5.39911E-01
 -1      2966 9.12336E-01 9.76155E-01 5.95670E-01-6.38517E-02 1.59757E+00-5.72685E-01
 -1      2967 3.31037E-01 9.77335E-01 5.74555E-01-7.38016E-02 1.60370E+00-3.85368E-01
 -1      2968 7.70419E-01 9.75759E-01 5.76680E-01-5.81201E-02 1.60713E+00-5.44943E-01
 -1      2969-7.24284E+00-1.31649E-02 1.98529E-02 1.62078E-01 4.98191E-02-3.66169E-03
 -1      2970-1.42677E+00 3.31995E-02-8.11862E-03-1.02532E-02 4.07008E-02-1.07203E-01
 -1      2971-3.58905E+00-6.05206E-02 3.44611E-02 5.65687E-02-3.55446E-03-1.63104E-02
 -1      2972 3.38655E+00 7.01059E-01 4.57523E-01-4.64200E-02 9.48322E-02-1.38397E-01
 -1      2973 1.75921E+00 1.10234E-01-3.27842E-02-1.94164E-03 1.80211E-02-6.13734E-02
 -1      2974 9.56094E-01 9.82343E-01 5.94459E-01-6.57029E-02 1.62040E+00-5.41499E-01
 -1      2975 9.26588E-01 9.96917E-01 6.53425E-01-5.88084E-02 1.61788E+00-5.24539E-01
 -1      2976 2.02311E+00 2.52092E-02 2.89007E-02-8.03925E-02 9.93236E-02-2.02147E-01
 -1      2977 1.03810E+00 1.22262E-02-2.36132E-02-5.70422E-02 1.13263E-01-2.39556E-01
 -1      2978 3.75247E+00 9.24462E-02-2.16110E-02-8.60626E-02 1.14905E-01-2.12833E-01
 -1      2979-1.50290E+00 6.26105E-02 2.44175E-02 1.39412E-02 1.25572E-01-4.91095E-02
 -1      2980-6.97392E+00 6.34347E-02 2.82398E-02 1.33114E-01 1.09966E-01-1.71989E-02
 -1      2981-5.45558E+00 5.61339E-02 2.71647E-02 1.08610E-01 1.07870E-01-6.15748E-02
 -1      2982-1.63357E+00 4.02375E-02 1.77741E-02 9.09738E-03 8.80228E-02-4.12595E-02
 -1      2983-7.12254E+00 3.53267E-02 1.49030E-02 1.39610E-01 7.80515E-02-2.90292E-03
 -1      2984-3.16324E+00 4.83566E-02 1.68015E-02 3.79271E-02 9.59461E-02 1.12387E-02
 -1      2985 4.61873E+00 7.55499E-01 4.49557E-01-2.88562E-03 1.25281E+00-2.79829E-01
 -1      2986 1.73459E+00 7.56114E-01 4.60572E-01-2.74111E-02 1.24136E+00-4.33606E-01
 -1      2987 3.69319E+00 7.36155E-01 4.42060E-01-2.09611E-02 1.22451E+00-3.22117E-01
 -1      2988 5.00090E+00 7.22900E-01 4.38357E-01-8.81736E-03 1.19915E+00-2.53735E-01
 -1      2989 1.99570E+00 7.16737E-01 4.21775E-01-1.94238E-02 1.18831E+00-4.11042E-01
 -1      2990 2.97343E+00 7.33849E-01 4.39571E-01-1.21671E-02 1.21777E+00-3.87599E-01
 -1      2991 1.15215E+00 9.78688E-01 5.81378E-01-3.77736E-02 1.60466E+00-5.78298E-01
 -1      2992 1.20630E+00 9.62980E-01 5.69732E-01-5.95859E-02 1.60244E+00-5.32094E-01
 -1      2993 1.30209E+00 9.76719E-01 6.02684E-01-5.61046E-02 1.60261E+00-5.18350E-01
 -1      2994 1.10018E+00 7.42576E-01 4.47305E-01-2.49361E-02 1.22639E+00-4.19047E-01
 -1      2995 2.05890E+00 7.56792E-01 4.56221E-01-1.04047E-02 1.25259E+00-4.13513E-01
 -1      2996 2.36330E+00 7.26262E-01 4.35556E-01-2.03613E-03 1.20054E+00-3.88959E-01
 -1      2997 4.80174E+00 4.26914E-01-1.32421E-02-1.73145E-01 5.15256E-02-3.05655E-01
 -1      2998 9.80158E-02 6.46305E-01 3.80060E-01-2.85438E-02 1.06115E+00-3.31575E-01
 -1      2999-3.65141E-01 6.33937E-01 3.71677E-01-6.16511E-02 1.04765E+00-3.73440E-01
 -1      3000 1.05453E+00 6.24596E-01 3.70686E-01-2.25457E-02 1.03317E+00-3.37108E-01
 -1      3001-1.18250E-01 6.09868E-01 3.64210E-01-2.74643E-02 1.00555E+00-2.98962E-01
 -1      3002-5.79730E-01 5.99177E-01 3.63570E-01-6.44250E-02 9.94192E-01-3.45655E-01
 -1      3003-1.54369E+00 6.18622E-01 3.68421E-01-6.19802E-02 1.02257E+00-3.18634E-01
 -1      3004 2.73180E+00 2.59252E-02 1.25947E-02-2.13866E-02 4.18490E-02 1.61294E-01
 -1      3005 2.04709E+00 3.38633E-02 1.37626E-02-3.48213E-02 8.25998E-02-4.48301E-02
 -1      3006 7.05779E-01 3.68442E-02 1.31087E-02-2.09674E-03 7.20847E-02 1.08563E-01
 -1      3007 2.88318E+00 4.55286E-02 2.62746E-02-1.90764E-02 8.13399E-02 1.50987E-01
 -1      3008 2.21586E+00 4.78176E-02 2.73384E-02-3.26976E-02 1.20937E-01-4.56269E-02
 -1      3009 4.23479E+00 4.45145E-02 2.92363E-02-5.24767E-02 8.72470E-02 1.00475E-02
 -1      3010-3.88913E+00 6.48028E-01 3.90820E-01-8.69946E-02 1.05999E+00-2.26634E-01
 -1      3011-2.96195E+00 6.28527E-01 3.77396E-01-7.80266E-02 1.02593E+00-2.75570E-01
 -1      3012-4.17979E+00 6.07533E-01 3.61552E-01-7.73187E-02 1.00324E+00-2.04358E-01
 -1      3013 4.86709E+00 7.48142E-01 4.43777E-01 1.71674E-02 1.23470E+00-2.55720E-01
 -1      3014 5.25060E+00 7.17181E-01 4.29571E-01 2.07933E-02 1.18621E+00-2.23539E-01
 -1      3015 3.53121E+00 7.44762E-01 4.47099E-01 1.85243E-02 1.23605E+00-3.66567E-01
 -1      3016 3.87870E+00 7.15397E-01 4.36044E-01 2.56572E-02 1.18728E+00-3.36057E-01
 -1      3017 7.59504E+00 4.25888E-02 1.33902E-02-1.64844E-01 4.93438E-02-1.04619E-02
 -1      3018 5.56382E+00 3.90094E-02 1.26842E-02-1.38953E-01 8.99364E-02-6.11428E-02
 -1      3019 7.73315E+00 5.00562E-02 2.15524E-02-1.61022E-01 8.87048E-02-1.08750E-02
 -1      3020 8.41911E-01 9.62220E-01 5.83139E-01-4.71319E-02 1.57542E+00-5.92819E-01
 -1      3021 4.22216E-01 9.57584E-01 5.81533E-01-3.77022E-02 1.57222E+00-5.91573E-01
 -1      3022-4.32503E+00 7.36213E-01 4.37350E-01-8.80443E-02 1.20837E+00-3.27300E-01
 -1      3023-5.51001E+00 6.13982E-01 3.75350E-01-8.69164E-02 1.00857E+00-3.06351E-01
 -1      3024-5.20875E-01 9.51992E-01 5.65945E-01-7.68112E-02 1.56870E+00-3.52307E-01
 -1      3025-6.65832E+00 4.95536E-02 2.30546E-02 1.09542E-01 9.62961E-02 1.57365E-02
 -1      3026-6.81073E+00 2.81402E-02 9.87528E-03 1.19154E-01 5.67244E-02 2.92730E-02
 -1      3027 3.38813E-01 7.23730E-01 4.35281E-01-4.34711E-02 1.19009E+00-5.13309E-01
 -1      3028-9.16565E-01 7.10921E-01 4.36074E-01-4.83980E-02 1.17058E+00-5.22215E-01
 -1      3029-8.77816E+00 1.30791E-01 8.05539E-02 2.26212E-02 1.92112E-01-2.13422E-01
 -1      3030 1.93077E-01 6.22962E-01 3.71980E-01-4.06679E-02 1.03641E+00-4.77714E-01
 -1      3031-1.19659E+00 6.40408E-01 3.79950E-01-4.77576E-02 1.05463E+00-5.03738E-01
 -1      3032-7.09532E+00 1.34187E-01 7.54244E-02 7.72832E-02 2.23322E-01-2.42464E-02
 -1      3033-1.82160E+00 1.26527E-01 6.81603E-02 1.32150E-04 2.36445E-01-8.30459E-02
 -1      3034-3.95698E+00 1.13173E-01 5.88626E-02 3.25687E-02 2.13762E-01-1.03090E-01
 -1      3035 9.98801E-01 9.84336E-01 5.91305E-01-5.30348E-02 1.62329E+00-5.72679E-01
 -1      3036-3.26615E+00 7.51609E-01 4.56371E-01-9.68051E-02 1.22652E+00-2.37363E-01
 -1      3037-3.53557E-01 7.36549E-01 4.42076E-01-6.57339E-02 1.22138E+00-4.08912E-01
 -1      3038-1.64978E+00 7.19629E-01 4.25889E-01-7.31027E-02 1.19859E+00-3.83067E-01
 -1      3039-4.27542E+00 6.41690E-01 3.92073E-01-8.68092E-02 1.05962E+00-2.56848E-01
 -1      3040 4.21745E+00 6.16568E-01 3.71649E-01-2.41892E-02 1.03626E+00-2.80200E-01
 -1      3041 5.53991E+00 6.32058E-01 3.75940E-01 5.72818E-03 1.05304E+00-2.25193E-01
 -1      3042-6.20811E-01 5.11375E-02 2.68413E-02-1.26662E-02 1.15035E-01-2.49832E-01
 -1      3043-2.78841E+00 5.43802E-02 2.66611E-02 1.00465E-02 1.12491E-01-3.00296E-01
 -1      3044-7.38269E+00 1.05087E-01 6.41809E-02 9.68250E-02 1.80133E-01-9.95968E-02
 -1      3045-7.18636E+00 1.15795E-01 6.15759E-02 9.18528E-02 1.99992E-01-2.63759E-02
 -1      3046-5.45851E-01 1.08810E-01 6.12295E-02-1.87775E-02 2.06246E-01-2.89866E-01
 -1      3047-2.65446E+00 1.03795E-01 6.61470E-02-3.27241E-03 1.79737E-01-3.27253E-01
 -1      3048-8.15645E-01 5.69036E-02 2.54035E-02 1.48432E-02 1.06722E-01 1.24980E-01
 -1      3049 7.16278E-01 4.90755E-02 2.79845E-02-4.35116E-03 9.44836E-02 8.70730E-02
 -1      3050-9.36836E-01 4.04703E-02 1.56049E-02 1.82567E-02 6.86242E-02 1.48890E-01
 -1      3051-3.71969E+00 7.08831E-01 4.25560E-01-9.12754E-02 1.16880E+00-2.73046E-01
 -1      3052-3.48582E+00 7.30176E-01 4.33607E-01-1.00487E-01 1.20314E+00-2.31859E-01
 -1      3053 6.73022E+00 6.12605E-01 3.67078E-01 5.80361E-02 1.01050E+00-1.44073E-01
 -1      3054-1.68334E+00 6.38760E-01 3.79711E-01-5.45543E-02 1.04221E+00-2.86793E-01
 -1      3055-1.92870E+00 6.03269E-01 3.51941E-01-5.28597E-02 9.88036E-01-2.60647E-01
 -1      3056-7.56377E+00 6.68747E-02 3.85419E-02 1.36594E-01 1.09409E-01-8.56746E-02
 -1      3057 7.22004E+00 4.22586E-02 2.19709E-02-8.80279E-02 9.92360E-02-1.96563E-01
 -1      3058 7.18791E+00 5.49137E-02 2.11730E-02-7.80227E-02 1.18498E-01-1.95043E-01
 -1      3059 3.97134E+00 7.11360E-02 3.21854E-02-3.66896E-02 1.44992E-01-2.79797E-01
 -1      3060 6.99917E+00 7.62251E-02 4.34724E-02-1.24235E-01 1.65314E-01-1.31925E-01
 -1      3061 7.01213E+00 6.09905E-02 3.65718E-02-1.21204E-01 1.44833E-01-1.34679E-01
 -1      3062 3.02908E+00 4.32757E-01 2.66950E-01 6.98258E-03 7.15693E-01-1.77546E-01
 -1      3063 3.01492E+00 4.57476E-01 2.73591E-01 6.41182E-03 7.55611E-01-1.93046E-01
 -1      3064 2.47222E+00 4.47225E-01 2.67029E-01-2.42605E-02 7.47384E-01-2.55030E-01
 -1      3065-3.75082E+00 6.35410E-01 3.84242E-01-8.89573E-02 1.04133E+00-1.97041E-01
 -1      3066-4.03997E+00 5.97816E-01 3.56269E-01-8.37678E-02 9.87615E-01-1.74382E-01
 -1      3067 9.02020E+00 1.26294E-01 8.28628E-02-3.42734E-02 1.88442E-01 6.88283E-02
 -1      3068 6.77930E+00 3.76500E-01 2.20760E-01-2.93113E-02 6.25735E-01-1.30599E-01
 -1      3069 5.41892E+00 2.93667E-02 3.67580E-02-2.38679E-02 5.36573E-02 1.38897E-01
 -1      3070 5.57864E+00 5.34036E-02 4.84293E-02-2.23120E-02 8.96690E-02 1.30942E-01
 -1      3071 5.45509E+00 1.11219E-01 6.33160E-02-1.06152E-01 2.06302E-01-9.05231E-02
 -1      3072 7.57578E+00 9.35068E-02 5.60825E-02-1.22085E-01 1.79844E-01-3.19881E-02
 -1      3073 2.88507E+00 5.24313E-02 3.66881E-02-2.01507E-02 1.04924E-01 1.27362E-01
 -1      3074-1.17702E+00 1.28016E-01 6.49159E-02 1.47890E-02 2.26784E-01 5.36213E-02
 -1      3075 2.76588E-01 1.09581E-01 6.11119E-02-8.87393E-03 2.12880E-01-2.35289E-02
 -1      3076 2.75645E+00 3.75381E-01 2.30794E-01 3.45627E-03 6.31975E-01-1.49101E-01
 -1      3077 7.00002E+00 1.62158E-01 9.49371E-02-1.01037E-01 2.80348E-01-1.29353E-01
 -1      3078 1.79994E+00 9.08963E-01 5.41184E-01-1.23195E-02 1.49752E+00-5.07931E-01
 -1      3079 1.61609E+00 9.01358E-01 5.37861E-01-2.87521E-02 1.48606E+00-4.97269E-01
 -1      3080 1.83018E+00 8.97433E-01 5.34892E-01-1.08006E-02 1.47405E+00-5.03825E-01
 -1      3081 6.85701E-01 9.04959E-01 5.38673E-01-4.48461E-02 1.49514E+00-5.68234E-01
 -1      3082 7.21334E-01 9.15549E-01 5.41908E-01-4.42083E-02 1.50918E+00-5.73971E-01
 -1      3083-3.06290E-02 9.02082E-01 5.48898E-01-4.51863E-02 1.48169E+00-5.75423E-01
 -1      3084 1.04955E-02 9.08801E-01 5.46110E-01-4.68103E-02 1.49431E+00-5.70758E-01
 -1      3085 1.85965E-01 9.04079E-01 5.50184E-01-5.26268E-02 1.48525E+00-5.17929E-01
 -1      3086 2.48094E+00 9.18660E-01 5.52224E-01-3.62868E-02 1.50339E+00-3.92746E-01
 -1      3087 2.63746E+00 9.05499E-01 5.45639E-01-3.23386E-02 1.48328E+00-3.86926E-01
 -1      3088 3.41003E+00 8.92079E-01 5.45312E-01-1.71966E-02 1.48226E+00-3.23439E-01
 -1      3089 3.21649E+00 9.07526E-01 5.49035E-01-2.61099E-02 1.49626E+00-3.27488E-01
 -1      3090-1.40101E+00 9.06076E-01 5.37229E-01-1.00131E-01 1.49838E+00-3.38981E-01
 -1      3091-1.61329E+00 8.99472E-01 5.34278E-01-9.54259E-02 1.47593E+00-3.37131E-01
 -1      3092-2.10463E+00 8.74909E-01 5.27539E-01-1.01175E-01 1.44098E+00-3.11434E-01
 -1      3093-8.56904E-01 8.52954E-01 5.04580E-01-8.00047E-02 1.40461E+00-4.46326E-01
 -1      3094-1.01947E-01 8.62026E-01 5.16349E-01-5.84598E-02 1.42058E+00-4.99652E-01
 -1      3095 3.84879E+00 8.68058E-01 5.19802E-01-1.05574E-02 1.43596E+00-2.90138E-01
 -1      3096 2.56852E+00 8.57284E-01 5.21956E-01-2.99535E-02 1.41328E+00-4.45656E-01
 -1      3097 1.83320E+00 8.68113E-01 5.22642E-01-2.79054E-02 1.43075E+00-4.75909E-01
 -1      3098 2.09576E+00 8.77585E-01 5.27302E-01-2.58195E-03 1.43825E+00-4.76602E-01
 -1      3099 1.14677E+00 8.58078E-01 5.08086E-01-4.32631E-02 1.40709E+00-4.60217E-01
 -1      3100-3.50398E-01 8.71652E-01 5.23431E-01-4.59093E-02 1.43582E+00-5.61525E-01
 -1      3101 5.65751E-01 8.53805E-01 5.20266E-01-5.62401E-02 1.41062E+00-5.10539E-01
 -1      3102 1.14027E+00 1.60687E-01 8.63433E-02-3.50734E-02 2.84847E-01-3.55587E-01
 -1      3103 7.32850E+00 2.09380E-01 1.21525E-01-7.39820E-02 3.55196E-01-7.35068E-02
 -1      3104 2.85329E+00 2.07962E-01 1.28908E-01-4.20399E-03 3.59959E-01-2.40112E-02
 -1      3105-1.26041E-01 5.90856E-01 3.56004E-01-2.84926E-02 9.65757E-01-2.91959E-01
 -1      3106-4.35840E+00 5.91591E-01 3.45866E-01-7.96472E-02 9.73362E-01-1.97399E-01
 -1      3107 1.21626E+00 3.22031E-01 1.85494E-01-3.08834E-02 5.43564E-01-4.09070E-01
 -1      3108 6.56336E+00 3.19649E-01 1.90497E-01-5.47160E-02 5.37115E-01-1.74213E-01
 -1      3109 3.23486E-01 9.19988E-01 5.42440E-01-5.45713E-02 1.51533E+00-5.32250E-01
 -1      3110 1.66976E-01 9.26757E-01 5.48307E-01-4.55043E-02 1.52256E+00-5.85116E-01
 -1      3111-3.88790E-01 9.11825E-01 5.46729E-01-7.09107E-02 1.49857E+00-5.06727E-01
 -1      3112 1.53092E+00 9.27554E-01 5.66332E-01-3.71743E-02 1.51199E+00-5.12406E-01
 -1      3113 1.67924E+00 9.27074E-01 5.64335E-01-1.55012E-02 1.52324E+00-5.24546E-01
 -1      3114 2.21176E+00 9.08766E-01 5.45749E-01-2.83745E-02 1.50162E+00-4.73484E-01
 -1      3115 3.01978E+00 9.22224E-01 5.50008E-01-2.32797E-02 1.52474E+00-3.36312E-01
 -1      3116-1.17164E+00 9.22267E-01 5.58711E-01-9.28830E-02 1.52394E+00-3.42809E-01
 -1      3117 3.99620E+00 4.90946E-02 1.33894E-02-4.45558E-02 1.07961E-01-2.70812E-01
 -1      3118 7.04386E+00 3.80891E-02 2.48448E-02-1.41311E-01 1.10645E-01-1.21520E-01
 -1      3119 3.80644E+00 7.32250E-02 3.88190E-02-8.02591E-02 1.56877E-01-1.95046E-01
 -1      3120-2.00546E+00 3.79150E-01 2.22161E-01-3.52031E-02 6.27749E-01-4.24779E-01
 -1      3121-8.29352E-01 1.63498E-01 9.11235E-02 4.81235E-03 2.80332E-01 1.30686E-02
 -1      3122-6.65559E+00 1.72258E-01 9.42712E-02 5.16866E-02 2.83680E-01-4.92491E-02
 -1      3123 5.53490E+00 4.45128E-02 2.18546E-02-1.32054E-01 1.05195E-01-6.29336E-02
 -1      3124 7.70156E+00 5.15437E-02 3.07519E-02-1.52159E-01 1.04530E-01-1.30667E-02
 -1      3125-5.78804E-01 3.23566E-01 1.89801E-01-1.15790E-02 5.37525E-01-1.11565E-01
 -1      3126-6.00649E+00 3.80749E-01 2.33430E-01-3.45010E-02 6.32799E-01-1.82774E-01
 -1      3127 2.87831E+00 9.77272E-02 5.95901E-02-1.22707E-02 1.76219E-01 7.27108E-02
 -1      3128-1.17979E+00 1.12443E-01 5.81512E-02 9.29854E-03 1.98126E-01 7.19667E-02
 -1      3129-6.89289E+00 2.16663E-01 1.32197E-01 2.83682E-02 3.60150E-01-1.37201E-01
 -1      3130-2.45163E+00 2.11413E-01 1.23041E-01-1.84719E-02 3.57444E-01-3.71969E-01
 -1      3131-5.82337E+00 4.65982E-01 2.78333E-01-5.99893E-02 7.54950E-01-1.96086E-01
 -1      3132-6.02335E+00 4.32072E-01 2.57971E-01-5.45457E-02 7.16616E-01-1.92868E-01
 -1      3133-1.57628E+00 4.42367E-01 2.62012E-01-4.39559E-02 7.47168E-01-3.35642E-01
 -1      3134 8.15132E+00 3.47333E-01 2.12002E-01 3.42821E-02 5.72043E-01-2.83474E-02
 -1      3135 2.44501E+00 6.39855E-01 3.94594E-01 4.63072E-03 1.05986E+00-3.29813E-01
 -1      3136-4.84585E+00 5.47995E-01 3.28099E-01-7.19180E-02 8.95338E-01-1.63093E-01
 -1      3137-9.20838E-01 5.32638E-01 3.15750E-01-5.50752E-02 8.92095E-01-3.05765E-01
 -1      3138-2.60815E+00 5.13816E-01 3.00934E-01-5.41962E-02 8.64281E-01-2.92118E-01
 -1      3139 3.63523E+00 8.66940E-01 5.27905E-01-3.20933E-03 1.42479E+00-3.57610E-01
 -1      3140-1.91534E+00 8.70623E-01 5.15805E-01-8.27400E-02 1.42341E+00-2.63394E-01
 -1      3141 8.80274E+00 1.89859E-01 1.22805E-01-7.14553E-03 3.02744E-01 3.89455E-02
 -1      3142-7.17017E+00 2.58283E-02 1.44274E-02 1.49113E-01 5.48725E-02-1.11211E-03
 -1      3143 5.93409E+00 5.36665E-01 3.18891E-01-1.33807E-02 9.00117E-01-2.26910E-01
 -1      3144 1.99207E+00 5.35309E-01 3.21636E-01-3.84459E-02 8.86653E-01-3.64918E-01
 -1      3145 3.64132E+00 5.16679E-01 3.15222E-01-1.95778E-02 8.56025E-01-3.03630E-01
 -1      3146 6.90162E+00 1.71739E-01 9.92801E-02-4.14486E-02 3.03587E-01-2.36333E-01
 -1      3147-5.90380E+00 3.30351E-01 1.90020E-01-1.81804E-02 5.42623E-01-1.04210E-01
 -1      3148-4.41051E-01 5.42142E-01 3.19482E-01-2.56569E-02 8.99263E-01-2.50786E-01
 -1      3149 6.90231E-01 5.15792E-01 3.12174E-01-2.83659E-02 8.58481E-01-2.68323E-01
 -1      3150 1.52955E+00 5.47631E-01 3.25227E-01-2.73035E-02 8.96474E-01-4.68751E-01
 -1      3151 3.43224E-01 5.14848E-01 3.02561E-01-3.91287E-02 8.63982E-01-3.85976E-01
 -1      3152-1.11760E+00 1.84755E-01-9.08724E-03 7.83852E-02 3.82193E-02 2.78779E-01
 -1      3153 1.44555E+00 1.72449E-01 7.31386E-05 1.50384E-01 5.70358E-02 2.46604E-01
 -1      3154 7.08132E-02 1.35425E-01-4.31546E-02-1.07332E-02 1.52399E-01-1.44067E-01
 -1      3155 2.76305E+00 9.17960E-02-6.97749E-02-1.15103E-02 1.80503E-01-1.25473E-01
 -1      3156 2.75269E+00 3.93861E-01 1.29445E-01 1.25110E-01 1.30834E-01-7.71028E-02
 -1      3157-6.54765E+00 1.78676E-01 9.61193E-02 5.58247E-03 3.01155E-01 4.39979E-02
 -1      3158-7.45810E+00 3.54620E-01 2.23122E-01-5.35723E-02 5.74110E-01-2.59211E-01
 -1      3159-3.52317E+00 4.53751E-02 3.68263E-03 2.22217E-02 9.47240E-02 1.21219E-01
 -1      3160-3.63630E+00 4.13520E-02 1.40725E-03 2.11782E-02 5.69739E-02 1.47481E-01
 -1      3161-8.41885E+00 1.94364E-01 1.29039E-01-8.06144E-03 3.04439E-01-2.29635E-01
 -1      3162 1.43807E+00 9.53440E-01 5.88356E-01-5.67541E-02 1.55763E+00-5.37105E-01
 -1      3163 2.33936E+00 9.48136E-01 5.74257E-01-3.94442E-02 1.54698E+00-4.00190E-01
 -1      3164 1.56126E+00 9.30064E-01 5.41840E-01-5.37283E-02 1.53476E+00-5.35273E-01
 -1      3165 1.57749E+00 9.36803E-01 5.48776E-01-2.93771E-02 1.53916E+00-5.41704E-01
 -1      3166 2.98735E+00 7.09018E-01 4.28448E-01-1.02894E-02 1.16148E+00-4.71666E-01
 -1      3167 2.12165E+00 6.93537E-01 4.29102E-01-3.86320E-02 1.14591E+00-4.39501E-01
 -1      3168 2.21520E+00 6.90228E-01 4.23933E-01-1.60664E-02 1.13085E+00-4.64799E-01
 -1      3169 3.20153E+00 6.72969E-01 3.94090E-01-7.23550E-03 1.10115E+00-4.54791E-01
 -1      3170 2.31237E+00 6.53360E-01 3.79535E-01-3.88187E-02 1.09213E+00-4.30024E-01
 -1      3171 3.09940E+00 6.77529E-01 4.03339E-01-2.66506E-02 1.12019E+00-4.17477E-01
 -1      3172 7.90634E+00 3.78490E-02 2.29696E-02-1.23811E-01 5.17879E-02 2.34233E-02
 -1      3173 8.04119E+00 5.53678E-02 2.85554E-02-1.28734E-01 9.19347E-02 1.69518E-02
 -1      3174 7.25429E+00 5.25361E-01 3.20823E-01 5.35869E-02 8.64798E-01-1.03212E-01
 -1      3175-6.20315E+00 5.27932E-01 3.14204E-01-8.03767E-02 8.67684E-01-2.90488E-01
 -1      3176 3.84039E+00 8.45352E-01 5.04312E-01-2.40898E-02 1.39108E+00-3.20250E-01
 -1      3177 4.04543E+00 8.56524E-01 5.15069E-01 7.57613E-04 1.41991E+00-2.84125E-01
 -1      3178-2.14583E+00 8.45461E-01 5.12038E-01-1.07325E-01 1.39424E+00-2.92789E-01
 -1      3179-2.32976E+00 8.57866E-01 5.14779E-01-9.33043E-02 1.41129E+00-3.04739E-01
 -1      3180 1.27931E+00 8.51298E-01 5.07527E-01-2.95385E-02 1.39280E+00-5.69065E-01
 -1      3181-3.90023E-01 8.63267E-01 5.13066E-01-4.73799E-02 1.41446E+00-5.59703E-01
 -1      3182 4.15998E-01 8.45445E-01 5.09786E-01-3.58783E-02 1.38951E+00-4.72122E-01
 -1      3183 2.10520E+00 8.56806E-01 5.19037E-01-2.59095E-03 1.41412E+00-4.66736E-01
 -1      3184 6.43974E+00 3.40330E-01 2.03594E-01-1.05881E-02 5.74104E-01-2.68174E-01
 -1      3185-5.28934E+00 5.01367E-01 3.03698E-01-6.21562E-02 8.27689E-01-2.13882E-01
 -1      3186-5.02632E+00 5.24393E-01 3.11373E-01-7.32657E-02 8.64613E-01-1.58320E-01
 -1      3187 6.28851E+00 4.95871E-01 2.96215E-01-7.75977E-03 8.28211E-01-1.70760E-01
 -1      3188 6.07089E+00 5.18411E-01 3.10923E-01-2.40384E-02 8.58476E-01-2.18494E-01
 -1      3189 1.11838E+00 9.71086E-01 5.91864E-01-4.05425E-02 1.59451E+00-5.78423E-01
 -1      3190 1.25109E+00 9.81053E-01 5.91983E-01-6.22152E-02 1.59011E+00-5.36038E-01
 -1      3191 1.20707E+00 9.66260E-01 5.74215E-01-3.43364E-02 1.58103E+00-5.78479E-01
 -1      3192 1.29470E+00 9.51572E-01 5.61836E-01-5.60575E-02 1.57791E+00-5.39713E-01
 -1      3193 1.56553E+00 9.65586E-01 5.76895E-01-4.81264E-02 1.58205E+00-5.03618E-01
 -1      3194-5.73886E+00 3.49877E-01 2.00400E-01-4.09887E-02 5.71814E-01-2.26744E-02
 -1      3195 2.66088E+00 5.01342E-01 3.00452E-01 4.09319E-03 8.25190E-01-2.34937E-01
 -1      3196-4.31542E-01 5.25403E-01 3.07907E-01-2.57881E-02 8.59875E-01-2.35530E-01
 -1      3197-9.47623E-01 3.77105E-02 1.52846E-02 1.85386E-02 4.75314E-02 1.65251E-01
 -1      3198-1.64375E+00 4.98755E-01 3.02018E-01-4.57984E-02 8.28044E-01-4.61089E-01
 -1      3199 1.49897E+00 5.20130E-01 3.13906E-01-2.44560E-02 8.62914E-01-4.67539E-01
 -1      3200 7.17591E+00 7.44487E-02 2.91707E-02-7.11931E-02 1.42521E-01-2.03669E-01
 -1      3201 3.95607E+00 8.98192E-02 3.75761E-02-3.28790E-02 1.67008E-01-2.99423E-01
 -1      3202 5.77205E-01 9.99086E-01 5.95283E-01-7.57990E-02 1.61647E+00-3.42249E-01
 -1      3203 4.66361E-01 9.82059E-01 5.82145E-01-7.26659E-02 1.61066E+00-3.82106E-01
 -1      3204-1.22063E+00-5.86669E-02 6.83931E-02 3.85653E-02-5.62749E-02 2.03063E-01
 -1      3205 9.21288E-01 1.54402E-02 1.19162E-02-1.61736E-02-5.16104E-02 8.77732E-02
 -1      3206-9.58017E-01 3.20696E-02 2.82851E-02 6.37734E-03 5.15047E-03 2.13328E-01
 -1      3207 8.31997E-01 1.02434E+00 6.88972E-01-6.08721E-02 1.62187E+00-3.12048E-01
 -1      3208 8.11118E-01 1.02617E+00 6.98708E-01-5.41543E-02 1.61212E+00-3.16535E-01
 -1      3209 8.98413E-01 1.02080E+00 6.85632E-01-5.95365E-02 1.61270E+00-4.82694E-01
 -1      3210 8.77321E-01 1.02023E+00 6.91980E-01-5.40795E-02 1.60804E+00-4.84496E-01
 -1      3211 6.93553E-01 9.87103E-01 5.67980E-01-5.78185E-02 1.61757E+00-3.43348E-01
 -1      3212 2.47399E+00 6.77876E-02 3.22749E-02-5.96354E-02 1.49918E-01-1.57603E-01
 -1      3213 5.69371E+00 6.24286E-02 3.69314E-02-1.12855E-01 1.38805E-01-1.17088E-01
 -1      3214 2.45760E+00 9.11172E-02 5.50874E-02-5.34607E-02 1.83886E-01-1.73298E-01
 -1      3215 9.60080E-01 1.42872E-02 3.16543E-02-1.99908E-02-7.39074E-02 9.70060E-02
 -1      3216 3.39535E+00 1.47565E-01 1.51907E-01-9.69658E-02-9.43246E-02 2.52600E-01
 -1      3217 3.25156E+00 7.11065E-02 3.51217E-03-5.69346E-02-6.58989E-02 2.08963E-01
 -1      3218 8.19477E-01 1.01920E+00 7.00381E-01-7.11008E-02 1.62489E+00-3.03072E-01
 -1      3219 9.08866E-01 1.01387E+00 6.85997E-01-5.84103E-02 1.62049E+00-4.81767E-01
 -1      3220 7.16190E-01 9.91728E-01 5.75376E-01-6.68813E-02 1.61482E+00-3.44900E-01
 -1      3221 7.19254E-01 1.00079E+00 5.84629E-01-7.90287E-02 1.61801E+00-3.35374E-01
 -1      3222-1.25329E+00-1.31677E-01-1.73616E-02 5.96527E-02-7.98549E-02 2.41738E-01
 -1      3223 1.05589E+00 9.88378E-01 5.97958E-01-3.61030E-02 1.61064E+00-5.96042E-01
 -1      3224 1.07374E+00 9.86749E-01 6.00684E-01-3.78675E-02 1.60167E+00-5.85186E-01
 -1      3225 9.13524E-01 9.82723E-01 5.78403E-01-3.84436E-02 1.62411E+00-5.98187E-01
 -1      3226 9.40848E-01 9.86988E-01 5.78852E-01-3.75206E-02 1.61499E+00-5.79645E-01
 -1      3227 7.99729E-01 9.85256E-01 6.05433E-01-5.27050E-02 1.60574E+00-5.60961E-01
 -1      3228 6.82203E-01 9.73433E-01 5.93215E-01-3.73991E-02 1.60479E+00-5.91934E-01
 -1      3229 6.28349E-01 9.71167E-01 5.72139E-01-5.86653E-02 1.60420E+00-5.32458E-01
 -1      3230 3.82363E+00 7.24303E-01 4.32157E-01-2.19885E-02 1.19299E+00-3.19614E-01
 -1      3231 5.16367E+00 7.09133E-01 4.25775E-01 2.57589E-03 1.17345E+00-2.48936E-01
 -1      3232 3.54370E+00 1.52065E-01 9.09842E-02-5.08949E-02 2.83728E-01-1.55613E-01
 -1      3233 1.97146E-02 1.56945E-01 9.38950E-02-2.46669E-02 2.89649E-01-2.38345E-01
 -1      3234 7.64586E+00 2.77405E-01-2.54469E-02-1.71080E-01 6.18083E-02-1.24241E-01
 -1      3235 5.90378E+00 9.38892E-02-1.05723E-02-1.60958E-01 3.72503E-02-1.34754E-01
 -1      3236 7.33776E+00 5.21760E-02-9.70501E-03-2.00874E-01 6.16437E-02-8.70860E-02
 -1      3237 5.95303E+00 3.36286E-01 2.39600E-03-1.72861E-01 2.54203E-02-1.29505E-01
 -1      3238 8.25783E+00 2.96281E-01-1.37693E-02-2.29956E-01-1.87155E-02-2.75895E-02
 -1      3239 8.33776E+00 5.62799E-01 1.10503E-02-2.83678E-01-5.26480E-02-5.77371E-02
 -1      3240 1.17428E+00 9.54766E-01 5.67271E-01-3.58245E-02 1.57432E+00-5.86808E-01
 -1      3241 1.40695E+00 7.07867E-01 4.22013E-01-2.81682E-02 1.17576E+00-5.24627E-01
 -1      3242 1.79311E+00 7.25427E-01 4.23649E-01-4.59320E-02 1.19191E+00-4.46795E-01
 -1      3243 1.44112E+00 7.30336E-01 4.34259E-01-2.71011E-02 1.20405E+00-5.21788E-01
 -1      3244 1.52762E+00 6.20792E-01 3.74393E-01-2.54339E-02 1.01872E+00-4.91935E-01
 -1      3245 1.98191E+00 6.24310E-01 3.86444E-01-4.05242E-02 1.04574E+00-4.06153E-01
 -1      3246 1.56201E+00 6.45837E-01 3.90951E-01-2.72410E-02 1.05026E+00-5.04366E-01
 -1      3247 3.14671E+00 9.11642E-01 5.45875E-01-1.58868E-02 1.49920E+00-3.38708E-01
 -1      3248 2.94810E+00 9.19244E-01 5.43624E-01-3.20088E-02 1.52496E+00-3.40851E-01
 -1      3249 1.44720E+00 9.16361E-01 5.68817E-01-5.83885E-02 1.50939E+00-5.29866E-01
 -1      3250 1.27480E+00 9.35228E-01 5.69761E-01-3.28666E-02 1.51707E+00-5.88312E-01
 -1      3251 1.24337E+00 9.19032E-01 5.56913E-01-3.06806E-02 1.50464E+00-5.72416E-01
 -1      3252 5.65756E+00 6.13050E-01 3.65116E-01-2.64405E-03 1.01408E+00-2.48202E-01
 -1      3253 5.51747E+00 6.29848E-01 3.67796E-01-1.33029E-02 1.05599E+00-2.54260E-01
 -1      3254 4.95624E+00 7.15057E-01 4.34659E-01-1.21977E-02 1.17148E+00-2.79760E-01
 -1      3255 4.79803E+00 7.28454E-01 4.42819E-01 1.94370E-03 1.20934E+00-2.85719E-01
 -1      3256 2.03624E-01 9.76083E-01 5.70746E-01-7.31325E-02 1.60461E+00-3.62281E-01
 -1      3257-5.41757E-01 9.56186E-01 5.66067E-01-4.47016E-02 1.59036E+00-3.60112E-01
 -1      3258 3.21949E-03 7.45692E-01 4.44878E-01-3.47707E-02 1.23175E+00-3.87905E-01
 -1      3259 9.02094E-01 7.24603E-01 4.41953E-01-3.94934E-02 1.19260E+00-3.81715E-01
 -1      3260 1.06501E+00 9.59572E-01 5.73628E-01-3.43441E-02 1.57969E+00-5.57988E-01
 -1      3261 1.05753E+00 9.61660E-01 5.65661E-01-3.56724E-02 1.59264E+00-5.62840E-01
 -1      3262 1.42691E+00 9.66696E-01 5.83184E-01-1.82777E-02 1.59560E+00-5.54761E-01
 -1      3263 1.31267E+00 9.55760E-01 5.71105E-01-3.80604E-02 1.58806E+00-5.15801E-01
 -1      3264 1.45839E+00 9.58642E-01 5.75769E-01-1.75767E-02 1.58181E+00-5.39871E-01
 -1      3265 7.71129E+00 5.40102E-01-1.04878E-02-1.56010E-01 7.15580E-02-1.30825E-01
 -1      3266 3.17047E+00 8.98545E-01 5.46804E-01-2.75124E-02 1.47297E+00-3.43471E-01
 -1      3267 1.36857E+00 8.92428E-01 5.32048E-01-5.53995E-02 1.48018E+00-5.26981E-01
 -1      3268 1.93691E+00 9.11792E-01 5.49408E-01-3.85407E-02 1.49364E+00-5.06582E-01
 -1      3269 1.18237E+00 8.98765E-01 5.31932E-01-3.27030E-02 1.47291E+00-5.78453E-01
 -1      3270 2.63757E+00 5.92685E-02 2.26024E-02-3.39302E-02 1.35509E-01-2.47833E-01
 -1      3271 1.54301E+00 9.70635E-01 5.84395E-01-3.62571E-02 1.59454E+00-5.22744E-01
 -1      3272 1.66393E+00 9.67365E-01 5.85356E-01-3.09653E-02 1.57627E+00-5.31263E-01
 -1      3273-9.11299E+00 5.74026E-02 4.86051E-02 8.84164E-02 6.86430E-02-1.76905E-01
 -1      3274 7.44990E+00 3.35608E-02 1.56553E-02-1.72646E-01 8.87719E-02-8.80171E-02
 -1      3275 7.40980E+00 4.14938E-02 1.83150E-02-1.68139E-01 1.05968E-01-8.89440E-02
 -1      3276 1.93834E+00 5.11743E-02 3.23812E-02-4.59472E-02 1.29268E-01-1.32814E-01
 -1      3277 7.30902E+00 9.88320E-02 5.68920E-02-1.30146E-01 1.79137E-01-1.10261E-01
 -1      3278 1.24109E+00 3.33675E-02 8.88881E-03-4.22116E-02 9.66278E-02-2.79482E-01
 -1      3279 1.26931E+00 5.25112E-02 2.70122E-02-3.95135E-02 1.07241E-01-3.01279E-01
 -1      3280 1.27913E+00 9.57107E-02 5.07601E-02-3.54287E-02 1.83405E-01-3.29983E-01
 -1      3281-3.88947E+00-9.58064E-02 9.00053E-02 4.05924E-02-7.49628E-02 2.30248E-01
 -1      3282-7.36190E+00-3.12836E-01-6.44755E-03 2.69798E-01-1.80282E-02 2.16386E-03
 -1      3283-7.15255E+00-8.19591E-02 2.76500E-02 1.60508E-01-8.46499E-03 2.39666E-01
 -1      3284-3.60653E+00-8.70165E-04 2.89883E-04 8.73315E-03 1.11672E-02 2.39746E-01
 -1      3285-6.90214E+00-5.87972E-02 2.87230E-03 1.82023E-01 2.78756E-02 4.44077E-02
 -1      3286 1.12313E+00 9.84801E-01 5.94799E-01-2.46100E-02 1.62188E+00-5.91075E-01
 -1      3287 1.26464E+00 9.73204E-01 5.82851E-01-5.30093E-02 1.60581E+00-5.14502E-01
 -1      3288 1.27270E+00 9.82485E-01 5.93044E-01-2.41376E-02 1.61367E+00-5.57842E-01
 -1      3289 1.34138E+00 9.76718E-01 6.02009E-01-4.28465E-02 1.61234E+00-4.92312E-01
 -1      3290 7.88613E-01 9.93317E-01 5.79541E-01-4.75061E-02 1.61991E+00-5.21280E-01
 -1      3291 4.92085E-01 9.92910E-01 5.91112E-01-5.17508E-02 1.62009E+00-3.34659E-01
 -1      3292 7.35782E-01 9.78362E-01 5.82760E-01-4.09478E-02 1.61046E+00-5.42841E-01
 -1      3293 1.18899E+00 9.92915E-01 6.14635E-01-3.72444E-02 1.61551E+00-5.28616E-01
 -1      3294 1.35180E+00 9.84557E-01 6.05008E-01-3.89886E-02 1.60571E+00-5.21092E-01
 -1      3295-3.49579E+00-3.38126E-01-6.11098E-01-2.00423E-01 2.37568E-02 1.70751E-01
 -1      3296-4.15907E+00-7.48805E-01-6.48373E-01-1.86605E-01 1.60271E-01-1.37629E-01
 -1      3297-4.57044E+00-1.13607E-01-1.45475E-01-6.35533E-02 1.93981E-01-1.98853E-01
 -1      3298-1.63236E+00-8.95152E-02-5.93653E-03 9.10268E-03 1.91925E-01-2.66696E-02
 -1      3299 9.39839E-01 9.95670E-01 5.86900E-01-4.32013E-02 1.60372E+00-5.44366E-01
 -1      3300 1.04599E+00 9.73399E-01 5.52847E-01-5.93301E-02 1.60313E+00-5.24751E-01
 -1      3301 5.79940E+00 7.30318E-01 4.41052E-01 5.65246E-02 1.20737E+00-1.95153E-01
 -1      3302-2.74965E+00-4.85927E-01-2.23068E-01 1.83400E-01-3.22033E-02 7.54715E-02
 -1      3303 7.00168E-01 1.65084E-03 4.64370E-02-6.01551E-02-8.24302E-02-1.28896E-01
 -1      3304-2.59762E+00 3.57554E-02 2.86685E-02 3.13534E-02 1.17307E-01-2.37748E-01
 -1      3305-1.71561E+00 9.51920E-03-1.73798E-02 2.26383E-02 1.03855E-01-2.08467E-01
 -1      3306-4.42915E+00-5.32330E-02 2.22880E-02 4.61196E-02 1.37304E-01-2.27267E-01
 -1      3307 9.04645E-01 9.95859E-01 6.36254E-01-5.36384E-02 1.60506E+00-5.22036E-01
 -1      3308-6.44489E-01 9.23539E-01 5.53122E-01-5.42805E-02 1.51739E+00-5.29409E-01
 -1      3309-8.44993E-01 9.02067E-01 5.38443E-01-5.53153E-02 1.48654E+00-5.21858E-01
 -1      3310 2.47821E+00 9.14823E-01 5.49884E-01 4.96365E-04 1.51302E+00-4.70085E-01
 -1      3311 2.64264E+00 9.02058E-01 5.43987E-01 5.52012E-03 1.48993E+00-4.55933E-01
 -1      3312 3.20500E+00 9.17755E-01 5.45919E-01 9.50733E-04 1.51486E+00-3.15487E-01
 -1      3313 3.39635E+00 8.99684E-01 5.42012E-01-3.46028E-04 1.49142E+00-3.06104E-01
 -1      3314-1.37210E+00 9.17135E-01 5.52879E-01-7.32050E-02 1.51796E+00-3.47708E-01
 -1      3315-1.59759E+00 9.01915E-01 5.36802E-01-8.04480E-02 1.48798E+00-3.43703E-01
 -1      3316-7.50224E+00-4.48219E-03 3.43379E-02 1.88216E-01 7.93987E-02-8.59503E-02
 -1      3317 1.14779E+00 9.30192E-01 4.77184E-01-4.57622E-02 1.63052E+00-3.09196E-01
 -1      3318 1.14104E+00 9.33206E-01 4.87166E-01-5.98859E-02 1.62567E+00-3.15637E-01
 -1      3319 1.26071E+00 9.65045E-01 5.96236E-01-5.94748E-02 1.62104E+00-3.42283E-01
 -1      3320 1.06544E+00 9.37048E-01 4.81224E-01-4.68688E-02 1.62773E+00-4.88868E-01
 -1      3321 1.27981E+00 9.69337E-01 5.94073E-01-4.09963E-02 1.62498E+00-3.31345E-01
 -1      3322 3.97877E+00 8.92772E-02-8.06343E-02-6.18854E-02 1.32275E-01-1.97187E-01
 -1      3323 7.38877E+00 2.79473E-01-3.36283E-03-8.41031E-02 7.14982E-02-1.38962E-01
 -1      3324 7.15736E+00 6.68194E-02-5.19081E-02-1.00788E-01 3.82153E-02-6.61991E-02
 -1      3325 3.72011E+00 2.28184E-02-1.65761E-02-8.75312E-02 8.47121E-02-1.73225E-01
 -1      3326 6.99809E+00 6.74180E-02-1.62368E-02-1.57189E-01 7.24714E-02-9.67285E-02
 -1      3327 2.17518E+00 9.76677E-01 5.97085E-01-4.48764E-02 1.58913E+00-3.55631E-01
 -1      3328 1.76922E+00 9.61483E-01 5.80390E-01-4.54584E-02 1.59058E+00-4.10238E-01
 -1      3329 2.09459E+00 9.62099E-01 5.75191E-01-3.82160E-02 1.59050E+00-3.39281E-01
 -1      3330 1.71028E+00 9.64607E-01 5.80827E-01-4.46354E-02 1.58414E+00-4.85162E-01
 -1      3331 2.34601E+00 9.61789E-01 5.83553E-01-4.48314E-02 1.57268E+00-3.45371E-01
 -1      3332 2.31020E+00 9.58053E-01 5.75694E-01-3.33351E-02 1.58799E+00-3.30414E-01
 -1      3333 1.40305E+00 9.72320E-01 5.88520E-01-4.95089E-02 1.61768E+00-3.35905E-01
 -1      3334 1.13585E+00 9.76017E-01 6.20990E-01-5.71654E-02 1.61744E+00-5.17303E-01
 -1      3335 1.29208E+00 7.55680E-01 4.57908E-01-2.91568E-02 1.24364E+00-5.33618E-01
 -1      3336 1.67063E+00 7.52825E-01 4.56403E-01-4.83176E-02 1.23403E+00-4.51137E-01
 -1      3337 2.72308E+00 7.33495E-01 4.40678E-01-2.49974E-02 1.21366E+00-4.41432E-01
 -1      3338 1.76542E+00 5.94104E-01 3.52959E-01-4.33500E-02 9.94823E-01-3.91494E-01
 -1      3339 1.32395E+00 5.90028E-01 3.48505E-01-2.90797E-02 9.70842E-01-4.81658E-01
 -1      3340 3.14128E+00 6.13602E-01 3.68684E-01-2.10354E-02 1.01477E+00-3.95350E-01
 -1      3341 4.57938E+00 7.56845E-01 4.50484E-01-9.22524E-03 1.24807E+00-2.97574E-01
 -1      3342 5.51998E+00 5.80368E-01 3.52560E-01-1.07435E-02 9.68556E-01-2.46729E-01
 -1      3343 2.38343E+00 7.09743E-01 4.26314E-01-1.15297E-04 1.16808E+00-3.79681E-01
 -1      3344 1.11575E-02 7.36130E-01 4.39647E-01-3.53378E-02 1.19549E+00-3.77523E-01
 -1      3345 3.51031E+00 2.46914E-01 3.49676E-01-2.26901E-01-1.12261E-02 6.65559E-01
 -1      3346 9.53138E-01 3.56215E-01 4.50921E-01-1.73642E-01-1.52317E-02 7.73507E-01
 -1      3347 4.86985E+00 1.14975E-01 1.02766E-01-1.34622E-01-1.51036E-01 2.89160E-01
 -1      3348 2.09072E+00 1.24575E-01 1.77733E-01-9.15850E-02-1.08929E-01 3.28920E-01
 -1      3349 4.15704E+00 7.19528E-01 4.61786E-01-3.31781E-01-5.61248E-02 1.75135E-01
 -1      3350 1.41516E+00 9.75631E-01 6.00675E-01-6.11447E-02 1.61594E+00-3.48005E-01
 -1      3351 1.47796E+00 9.87674E-01 6.03582E-01-3.58136E-02 1.62069E+00-3.50456E-01
 -1      3352 1.62489E+00 9.74498E-01 5.94836E-01-6.02810E-02 1.60645E+00-3.45420E-01
 -1      3353 7.78490E+00 1.57014E+00 3.69577E-01 1.19120E-01-4.18055E-02-1.10855E-01
 -1      3354 8.25608E+00 1.70950E+00 5.17990E-01-2.11890E-01 4.34868E-02-1.90231E-01
 -1      3355 8.59953E+00 8.43052E-01 5.12819E-02-4.37238E-01-9.29848E-02-1.01093E-01
 -1      3356 5.27081E+00 1.10920E+00 8.47943E-01-1.21170E-01-6.70135E-02-2.18253E-01
 -1      3357 8.18650E+00 9.13153E-01 2.28852E-02-1.96313E-01-5.63506E-02-1.96829E-01
 -1      3358 2.69000E+00 8.29326E-03-4.77542E-03-7.60521E-03-2.54933E-03 2.10724E-01
 -1      3359 2.32552E+00 2.97631E-02 3.00447E-02-3.94288E-02 3.62884E-02-1.15568E-01
 -1      3360 4.66419E+00 9.91957E-02-7.36250E-03-9.11779E-02-2.47121E-02-2.50958E-02
 -1      3361 9.71962E-01 1.00081E+00 6.22823E-01-3.14294E-02 1.59377E+00-5.69384E-01
 -1      3362 9.46257E-01 9.97874E-01 6.56098E-01-2.61425E-02 1.59061E+00-5.59057E-01
 -1      3363 9.18968E-01 9.92697E-01 5.96709E-01-3.29276E-02 1.60300E+00-6.11987E-01
 -1      3364 8.35906E-01 9.83319E-01 5.70667E-01-2.56426E-02 1.60347E+00-5.78184E-01
 -1      3365 9.09036E-01 1.00021E+00 6.37180E-01-5.17995E-02 1.59556E+00-5.30493E-01
 -1      3366 7.64308E+00 6.17953E-02-9.39572E-04-1.65352E-01 3.62533E-02-1.15313E-02
 -1      3367 6.56267E-01 9.71759E-01 5.86729E-01-5.89624E-02 1.59681E+00-5.63719E-01
 -1      3368-6.84718E+00 8.84961E-02 4.51432E-02 1.08375E-01 1.52877E-01-2.76728E-02
 -1      3369-7.44734E+00 9.59307E-02 5.65821E-02 1.07633E-01 1.55298E-01-9.50087E-02
 -1      3370-3.53341E+00 1.01427E-01 5.00818E-02 3.17141E-02 1.86672E-01-1.06712E-01
 -1      3371-3.60125E+00 7.79943E-02 3.91745E-02 4.23224E-02 1.61960E-01-9.85247E-02
 -1      3372-4.20410E+00 8.32727E-02 4.57573E-02 3.22040E-02 1.64080E-01-1.78734E-01
 -1      3373-7.51834E+00 7.72106E-02 3.91120E-02 1.20105E-01 1.29518E-01-8.72226E-02
 -1      3374 1.96453E+00 9.63897E-01 5.77763E-01-4.67941E-02 1.59858E+00-3.50646E-01
 -1      3375 7.83896E-01 9.50470E-01 5.67137E-01-3.69575E-02 1.55328E+00-5.43065E-01
 -1      3376 1.04721E+00 9.44463E-01 5.60554E-01-5.36935E-02 1.56691E+00-5.30820E-01
 -1      3377 1.53091E+00 9.45127E-01 5.71181E-01-2.07544E-02 1.56011E+00-5.40814E-01
 -1      3378 1.65185E+00 9.35915E-01 5.55883E-01-1.58755E-02 1.54087E+00-5.32775E-01
 -1      3379 1.94805E+00 9.45985E-01 5.72508E-01-2.77499E-02 1.54535E+00-4.97469E-01
 -1      3380 1.14316E+00 9.39244E-01 5.53674E-01-4.84903E-02 1.54379E+00-5.10647E-01
 -1      3381-6.26826E-01 9.42386E-01 5.75097E-01-9.19025E-02 1.55839E+00-3.39141E-01
 -1      3382-7.28694E-01 9.43686E-01 5.78341E-01-8.08602E-02 1.55321E+00-3.42103E-01
 -1      3383 2.34306E-01 9.65067E-01 5.72099E-01-6.95054E-02 1.55858E+00-5.12890E-01
 -1      3384 5.43952E-02 9.40395E-01 5.67248E-01-6.60176E-02 1.54936E+00-5.09448E-01
 -1      3385-6.41416E-02 9.35350E-01 5.61888E-01-6.45418E-02 1.54818E+00-5.18229E-01
 -1      3386-9.31997E-01 9.33971E-01 5.61200E-01-8.82513E-02 1.54037E+00-3.41581E-01
 -1      3387-2.98451E+00 7.98978E-02 3.52861E-02 3.26884E-02 1.60066E-01-1.40542E-02
 -1      3388-6.90148E+00 7.65981E-02 3.54244E-02 1.16883E-01 1.27772E-01-1.74103E-02
 -1      3389-3.64448E+00 6.65872E-02 2.93717E-02 4.86136E-02 1.36211E-01-8.57450E-02
 -1      3390-3.56711E+00 1.44678E-01 7.98396E-02 1.98345E-02 2.56606E-01-1.16370E-01
 -1      3391 6.36682E-01 7.51262E-01 4.43687E-01-4.41030E-02 1.24437E+00-4.04028E-01
 -1      3392 1.31871E+00 8.78688E-01 5.29295E-01-4.05800E-02 1.44366E+00-4.77444E-01
 -1      3393-5.67301E-01 8.83017E-01 5.36122E-01-7.30207E-02 1.45199E+00-4.63131E-01
 -1      3394 2.32842E+00 8.76639E-01 5.20540E-01-2.97506E-02 1.44359E+00-4.58013E-01
 -1      3395 4.41966E-01 8.78488E-01 5.24023E-01-5.60287E-02 1.44929E+00-5.18769E-01
 -1      3396-1.28050E+00 7.56409E-01 4.60093E-01-7.49272E-02 1.24483E+00-4.02673E-01
 -1      3397-8.28502E+00-1.79714E+00-5.93252E-01 3.40031E-01 3.86726E-02-2.31371E-01
 -1      3398-8.39740E+00-1.61342E+00-4.02625E-01-9.50119E-03-2.95076E-02-1.66156E-01
 -1      3399-7.87217E+00-8.80505E-01-1.15834E-02 2.17390E-01-2.22099E-02-1.79327E-01
 -1      3400-4.92254E+00-1.10901E+00-8.74906E-01 1.51247E-01-4.14636E-02-2.29842E-01
 -1      3401-7.53637E+00-7.50423E-01 1.69988E-02 4.43340E-01-4.19978E-02-8.07102E-02
 -1      3402 6.94333E-01 9.41052E-01 5.65362E-01-3.50931E-02 1.54022E+00-5.35877E-01
 -1      3403 2.21229E-01 9.41785E-01 5.71377E-01-6.91852E-02 1.54874E+00-4.98197E-01
 -1      3404 1.06482E+00 9.16476E-01 5.57718E-01-5.11540E-02 1.52324E+00-5.16043E-01
 -1      3405-7.46868E-01 9.46584E-01 5.62926E-01-9.08943E-02 1.53909E+00-3.30000E-01
 -1      3406-5.53011E-02 9.28585E-01 5.63823E-01-7.03532E-02 1.52625E+00-5.02105E-01
 -1      3407-2.18346E+00 5.59270E-01 3.36100E-01-5.99664E-02 9.19993E-01-3.08285E-01
 -1      3408-3.59056E+00 6.25662E-03-1.18696E-03 5.90770E-02 8.43792E-02-8.06689E-02
 -1      3409 9.90576E-01 9.74193E-01 5.89831E-01-5.87377E-02 1.59801E+00-5.49701E-01
 -1      3410-3.11119E-02 1.41253E-01 7.80149E-02-7.02392E-03 2.57376E-01-5.19437E-02
 -1      3411 2.99495E+00 9.01102E-01 5.50835E-01-3.58006E-02 1.48459E+00-3.54020E-01
 -1      3412 2.97979E+00 9.22188E-01 5.48062E-01-3.33614E-02 1.51436E+00-3.41648E-01
 -1      3413 2.02421E+00 9.11339E-01 5.46799E-01-2.40856E-02 1.48123E+00-5.28883E-01
 -1      3414 2.03849E+00 9.26083E-01 5.51941E-01-2.34372E-02 1.51546E+00-5.27458E-01
 -1      3415 1.76390E+00 4.32725E-02 1.90989E-02-5.15443E-02 1.19605E-01-1.33983E-01
 -1      3416 1.06595E+00 1.84254E-02-2.27886E-03-4.95699E-02 8.84916E-02-2.75096E-01
 -1      3417 3.65319E+00 3.56525E-02 1.71600E-02-8.37139E-02 1.13666E-01-1.62854E-01
 -1      3418 6.98457E-01 5.57169E-01 3.34664E-01-4.04806E-02 9.24671E-01-3.99050E-01
 -1      3419 9.99235E-01 9.82092E-01 6.52772E-01-3.13829E-02 1.64589E+00-5.56583E-01
 -1      3420 1.00805E+00 9.75631E-01 6.11244E-01-2.62770E-02 1.64297E+00-5.62212E-01
 -1      3421 9.17742E-01 9.95912E-01 5.72635E-01-4.32873E-02 1.63008E+00-5.72115E-01
 -1      3422 9.89655E-01 1.00049E+00 5.95470E-01-3.68236E-02 1.62930E+00-6.01772E-01
 -1      3423 9.37127E-01 9.83578E-01 6.34654E-01-5.20648E-02 1.63443E+00-5.26349E-01
 -1      3424-8.06147E-01 6.57937E-02 3.18789E-02 1.64206E-02 1.28025E-01 1.05869E-01
 -1      3425-7.61472E-01 8.36849E-02 4.24206E-02 1.20282E-02 1.52376E-01 9.01330E-02
 -1      3426 2.89912E+00 6.66544E-02 3.85551E-02-1.74616E-02 1.24790E-01 1.09811E-01
 -1      3427 7.13772E-01 7.68657E-02 4.04275E-02-1.34487E-02 1.57280E-01-4.58775E-03
 -1      3428 6.69804E-01 5.89577E-02 2.91416E-02-8.47926E-03 1.34178E-01 5.83284E-03
 -1      3429 4.14167E-01 5.53718E-01 3.28763E-01-3.40115E-02 9.21432E-01-2.95843E-01
 -1      3430 3.29554E+00 5.51717E-01 3.26363E-01-2.44593E-02 9.26113E-01-3.27540E-01
 -1      3431-2.65208E+00 4.69377E-01 2.79339E-01-4.95247E-02 7.83518E-01-2.86912E-01
 -1      3432 1.35103E+00 4.66935E-01 2.79462E-01-2.36199E-02 7.79976E-01-2.43663E-01
 -1      3433-1.74597E-01 2.74365E-02 1.06119E-02-2.19507E-02 1.09514E-01-1.81155E-01
 -1      3434 7.30378E+00 3.66114E-02 8.35867E-03-1.87023E-01 7.94570E-02-8.94581E-02
 -1      3435-3.90610E+00 6.91377E-01 4.23295E-01-9.32281E-02 1.13559E+00-2.63732E-01
 -1      3436-1.57354E+00 6.79922E-01 4.07337E-01-6.91394E-02 1.12147E+00-3.84759E-01
 -1      3437-3.67772E+00 6.68775E-01 3.97398E-01-9.10717E-02 1.09519E+00-2.24730E-01
 -1      3438-4.08852E+00 6.66202E-01 3.90898E-01-9.31997E-02 1.09542E+00-2.55789E-01
 -1      3439-1.73464E+00 6.42744E-01 3.88432E-01-6.72294E-02 1.07933E+00-3.74878E-01
 -1      3440-1.97788E+00 6.75433E-01 4.03696E-01-7.21681E-02 1.11653E+00-4.19709E-01
 -1      3441 6.94962E-01 9.25586E-02 5.19126E-02-7.53974E-03 1.90792E-01-2.44268E-02
 -1      3442 2.88143E+00 8.62907E-02 5.37562E-02-1.34827E-02 1.55278E-01 9.08734E-02
 -1      3443 4.37003E+00 7.85303E-02 5.30387E-02-5.08947E-02 1.57859E-01-6.75485E-03
 -1      3444 1.06283E+00 9.44141E-01 5.02496E-01-5.50808E-02 1.61618E+00-4.82779E-01
 -1      3445 1.25507E+00 9.78830E-01 6.06735E-01-6.79195E-02 1.61656E+00-3.39160E-01
 -1      3446 8.84883E+00 1.83466E+00 3.55697E-01-5.23678E-01-5.26055E-02-1.42249E-01
 -1      3447 6.05993E+00 1.32846E+00 1.00702E+00-3.49612E-01-5.96218E-02-2.19252E-01
 -1      3448 1.25793E+00 8.35284E-01 5.03036E-01-2.68339E-02 1.37258E+00-5.57871E-01
 -1      3449 7.39843E-01 8.31452E-01 5.06860E-01-5.44282E-02 1.38029E+00-5.03942E-01
 -1      3450-2.75350E-01 8.30217E-01 4.95139E-01-5.18781E-02 1.36238E+00-5.57009E-01
 -1      3451 1.45499E+00 8.10922E-01 4.84377E-01-2.51648E-02 1.32707E+00-5.52619E-01
 -1      3452 9.31963E-01 8.16564E-01 4.86318E-01-4.91410E-02 1.33888E+00-4.91875E-01
 -1      3453 2.49674E+00 8.16478E-01 4.95240E-01-3.26780E-02 1.35137E+00-4.75330E-01
 -1      3454 4.08517E+00 8.27416E-01 4.95921E-01-1.00506E-02 1.36026E+00-3.02463E-01
 -1      3455 2.34748E+00 8.31234E-01 5.05014E-01-3.06573E-02 1.37273E+00-4.61377E-01
 -1      3456 4.01271E+00 8.30561E-01 4.91535E-01-1.58609E-02 1.36247E+00-3.11629E-01
 -1      3457 4.27015E+00 8.04261E-01 4.84884E-01-1.51766E-02 1.33144E+00-2.95915E-01
 -1      3458 2.56600E+00 8.13861E-01 4.90497E-01-2.62676E-02 1.34467E+00-4.48457E-01
 -1      3459 9.86973E-01 9.75216E-01 5.75333E-01-3.19572E-02 1.59555E+00-5.82566E-01
 -1      3460 1.24651E+00 9.75840E-01 5.91922E-01-4.61732E-02 1.59339E+00-5.37182E-01
 -1      3461 4.08740E+00 6.71731E-01 4.04793E-01-1.86741E-02 1.12897E+00-3.22407E-01
 -1      3462 4.34996E+00 6.72073E-01 4.03635E-01-1.57825E-02 1.11523E+00-2.90228E-01
 -1      3463 4.20708E+00 6.59755E-01 4.00018E-01-2.21256E-02 1.10047E+00-3.17170E-01
 -1      3464 3.41150E+00 3.92289E-01 2.35596E-01-2.78078E-02 6.54013E-01-2.56771E-01
 -1      3465 6.66502E+00 3.96805E-01 2.39998E-01-2.41114E-02 6.61934E-01-1.33707E-01
 -1      3466 6.05000E+00 3.97158E-01 2.35973E-01-3.67691E-02 6.74854E-01-1.93856E-01
 -1      3467 3.65831E+00 4.22536E-01 2.50628E-01-2.51297E-02 7.11738E-01-2.58624E-01
 -1      3468 6.88400E+00 4.31907E-01 2.57695E-01-1.84677E-02 7.15962E-01-1.36871E-01
 -1      3469 4.25785E+00 4.17401E-01 2.48705E-01-6.68958E-03 7.01547E-01-2.00061E-01
 -1      3470-1.92525E+00 4.03348E-01 2.41916E-01-3.90853E-02 6.62990E-01-4.25999E-01
 -1      3471-2.35596E-01 3.84929E-01 2.30077E-01-3.66431E-02 6.64116E-01-3.35371E-01
 -1      3472 1.08335E+00 4.05799E-01 2.39057E-01-2.75117E-02 6.73730E-01-4.30081E-01
 -1      3473-2.11213E+00 4.33604E-01 2.58471E-01-4.31102E-02 7.18609E-01-4.42589E-01
 -1      3474-4.35947E-01 4.23009E-01 2.47163E-01-3.88437E-02 7.15082E-01-3.48108E-01
 -1      3475-3.41738E+00 4.17837E-01 2.51885E-01-4.57034E-02 7.00105E-01-3.25685E-01
 -1      3476-2.62665E+00 3.87104E-01 2.27326E-01-3.78954E-02 6.64951E-01-2.62343E-01
 -1      3477-5.85558E+00 4.07113E-01 2.39088E-01-4.63149E-02 6.69599E-01-1.85001E-01
 -1      3478-2.81053E+00 4.19363E-01 2.45505E-01-4.33787E-02 7.07922E-01-2.69549E-01
 -1      3479 1.38037E+00 9.74308E-01 5.96567E-01-6.14556E-02 1.61723E+00-3.39212E-01
 -1      3480 1.54665E+00 9.74870E-01 5.98781E-01-5.64616E-02 1.61076E+00-3.46564E-01
 -1      3481 1.76956E+00 9.69101E-01 5.88313E-01-4.39925E-02 1.60903E+00-3.12221E-01
 -1      3482 1.31677E+00 9.78462E-01 6.03841E-01-5.25192E-02 1.60465E+00-4.93430E-01
 -1      3483 1.60649E+00 9.75852E-01 5.89416E-01-4.55814E-02 1.61103E+00-3.04551E-01
 -1      3484 7.02538E+00 1.19684E-01 6.11286E-02-5.16351E-02 2.16090E-01-2.16528E-01
 -1      3485 7.00069E+00 1.41373E-01 6.88910E-02-4.87266E-02 2.45122E-01-2.23647E-01
 -1      3486 3.69090E+00 1.51140E-01 7.13447E-02-2.52648E-02 2.66284E-01-3.21928E-01
 -1      3487 6.71410E+00 1.43157E-01 8.21359E-02-9.52261E-02 2.64978E-01-1.53922E-01
 -1      3488 1.58385E+00 9.75694E-01 5.83949E-01-4.21888E-02 1.58652E+00-4.88675E-01
 -1      3489 8.93028E-01 9.58407E-01 5.68620E-01-5.41482E-02 1.56986E+00-5.49382E-01
 -1      3490 8.68313E-01 9.24947E-01 5.60101E-01-5.47400E-02 1.52391E+00-5.38797E-01
 -1      3491 2.01991E+00 9.27098E-01 5.59690E-01-3.79255E-02 1.52722E+00-4.87361E-01
 -1      3492-2.95958E-01 2.28560E-01 3.02314E-01-2.91640E-02-9.59687E-02 2.93689E-01
 -1      3493-2.63844E+00-1.99540E-01-5.24202E-02 1.36926E-01-1.22546E-01 3.20855E-01
 -1      3494 1.30017E+00 9.70901E-01 5.81684E-01-2.26107E-02 1.60518E+00-5.53277E-01
 -1      3495 5.86629E-01 6.40118E-01 3.90222E-01-4.47604E-02 1.06698E+00-4.39036E-01
 -1      3496 5.41378E-01 7.10571E-01 4.21677E-01-4.67838E-02 1.17060E+00-4.60286E-01
 -1      3497 2.77487E+00 3.99797E-01 2.39176E-01 2.50479E-03 6.66440E-01-1.65191E-01
 -1      3498 1.01406E+00 3.92438E-01 2.31565E-01-2.37199E-02 6.57035E-01-2.16080E-01
 -1      3499 1.27889E+00 4.23513E-01 2.54786E-01-2.27803E-02 7.09002E-01-2.21598E-01
 -1      3500-3.46479E+00 6.80310E-01 4.12282E-01-9.14435E-02 1.13205E+00-2.46761E-01
 -1      3501-1.11805E+00 6.81615E-01 4.11877E-01-6.42321E-02 1.11403E+00-3.59719E-01
 -1      3502-1.37534E+00 7.05425E-01 4.14622E-01-7.03251E-02 1.15517E+00-3.96848E-01
 -1      3503 1.51223E+00 9.60648E-01 5.74835E-01-2.03428E-02 1.56960E+00-5.47467E-01
 -1      3504 1.36018E+00 9.52701E-01 5.75096E-01-4.46851E-02 1.57482E+00-5.23278E-01
 -1      3505 1.75949E+00 9.57063E-01 5.72892E-01-3.42320E-02 1.57931E+00-4.93558E-01
 -1      3506 3.09258E+00 7.03931E-01 4.20676E-01-2.07821E-02 1.17081E+00-3.85938E-01
 -1      3507 7.60114E+00 7.69259E-01 1.18161E-02 1.32181E-02 6.79150E-02-2.62237E-01
 -1      3508 4.72976E+00 1.12622E+00 8.96685E-01 6.19821E-02 3.01950E-02-2.85943E-01
 -1      3509-4.16420E+00 6.17400E-01 3.65346E-01-8.02881E-02 1.00938E+00-1.35990E-01
 -1      3510 3.24686E+00 9.26495E-01 5.59417E-01 2.38616E-02 1.54084E+00-3.04198E-01
 -1      3511 2.20223E+00 9.40297E-01 5.64284E-01-3.10467E-03 1.55115E+00-4.83480E-01
 -1      3512 2.78387E+00 9.37481E-01 5.61569E-01-6.04352E-03 1.55041E+00-3.27524E-01
 -1      3513 2.95929E+00 9.23807E-01 5.53054E-01-5.90111E-03 1.53349E+00-3.23312E-01
 -1      3514 2.34751E+00 9.24016E-01 5.58175E-01-8.25096E-04 1.53521E+00-4.82983E-01
 -1      3515-1.40019E+00 9.30489E-01 5.50394E-01-5.70899E-02 1.53702E+00-3.56977E-01
 -1      3516-3.18960E-01 9.43438E-01 5.69700E-01-4.81538E-02 1.55427E+00-5.28717E-01
 -1      3517-9.02717E-01 9.42136E-01 5.70864E-01-6.97226E-02 1.55769E+00-3.51664E-01
 -1      3518-1.11475E+00 9.29708E-01 5.55826E-01-7.40102E-02 1.53185E+00-3.51915E-01
 -1      3519-5.00454E-01 9.31562E-01 5.54246E-01-5.08387E-02 1.52802E+00-5.33628E-01
 -1      3520 3.03776E+00 9.39517E-01 5.59123E-01 2.16775E-02 1.55533E+00-3.01803E-01
 -1      3521 2.57902E+00 9.41339E-01 5.62579E-01-1.06887E-02 1.56740E+00-3.33150E-01
 -1      3522-1.17773E+00 9.32573E-01 5.59087E-01-5.33553E-02 1.55198E+00-3.52591E-01
 -1      3523-7.00373E-01 9.50401E-01 5.76616E-01-6.77529E-02 1.56625E+00-3.54836E-01
 -1      3524-9.97424E-01 9.39611E-01 5.68953E-01-5.03063E-02 1.56920E+00-3.58172E-01
 -1      3525-1.70393E-01 9.47760E-01 5.74955E-01-4.45501E-02 1.56955E+00-5.36235E-01
 -1      3526 2.87295E+00 9.47606E-01 5.60394E-01 1.92576E-02 1.56531E+00-3.12238E-01
 -1      3527 2.06711E+00 9.48159E-01 5.67923E-01-6.99386E-03 1.56347E+00-4.97494E-01
 -1      3528 3.34418E+00 6.47133E-01 3.88386E-01-1.96656E-02 1.06651E+00-3.58725E-01
 -1      3529 4.10891E+00 5.47756E-02 3.69766E-02-7.88972E-02 1.27142E-01-8.37443E-02
 -1      3530-4.94896E+00 6.73739E-01 4.08772E-01-8.89751E-02 1.11157E+00-3.13686E-01
 -1      3531-4.74431E+00 6.94330E-01 4.22248E-01-8.78548E-02 1.14523E+00-3.18497E-01
 -1      3532-4.19037E+00 6.79620E-01 4.18050E-01-8.51669E-02 1.12178E+00-2.86831E-01
 -1      3533-4.01607E+00 7.02312E-01 4.26025E-01-8.69934E-02 1.15241E+00-2.92515E-01
 -1      3534-2.54302E+00 6.97270E-01 4.28345E-01-6.85652E-02 1.15855E+00-4.69112E-01
 -1      3535 8.71015E+00 3.25207E-01 3.70505E-02-2.83722E-01-5.39917E-02 9.26867E-03
 -1      3536 6.02277E+00 1.19598E-01-3.04140E-03-7.11830E-02-9.66454E-02 2.17165E-01
 -1      3537 9.17565E+00 9.16287E-02-3.40323E-03-1.26642E-01-1.48962E-02 2.41151E-01
 -1      3538 7.95167E+00 1.10916E-01 1.42188E-02-1.75777E-01 1.75473E-02 4.24534E-02
 -1      3539 5.39129E+00 4.43613E-02 3.15909E-02-8.17455E-03 1.27587E-03 2.28215E-01
 -1      3540-1.73322E-01 1.01496E-01 5.60284E-02-2.01328E-02 1.97437E-01-2.15056E-01
 -1      3541 1.00249E+00 9.93969E-01 6.11202E-01-4.56985E-02 1.59818E+00-5.41201E-01
 -1      3542 1.04455E+00 9.80435E-01 5.82993E-01-3.22124E-02 1.60557E+00-5.92748E-01
 -1      3543 4.51631E+00 8.00681E-01 4.87493E-01 2.13527E-03 1.33334E+00-2.65488E-01
 -1      3544 2.98344E+00 7.98412E-01 4.79773E-01-2.25728E-02 1.31664E+00-4.25532E-01
 -1      3545 2.80864E+00 8.08354E-01 4.85082E-01-1.36997E-02 1.34942E+00-4.25604E-01
 -1      3546-6.94460E-01 8.11062E-01 4.89057E-01-5.18004E-02 1.33953E+00-5.49721E-01
 -1      3547-1.16895E+00 8.27705E-01 4.98670E-01-7.39579E-02 1.34913E+00-4.75660E-01
 -1      3548 5.39906E-01 7.97500E-01 4.77529E-01-5.31279E-02 1.32047E+00-4.98186E-01
 -1      3549 4.06085E+00 9.24968E-02 5.46169E-02-6.55151E-02 1.90974E-01-1.10297E-01
 -1      3550-7.14803E+00 3.11790E-02 1.65213E-03 7.06383E-02 5.92629E-02 1.14623E-01
 -1      3551 1.09240E+00 9.72728E-01 5.74333E-01-2.48041E-02 1.62806E+00-5.82765E-01
 -1      3552 1.01804E+00 9.70962E-01 6.00446E-01-5.00606E-02 1.63269E+00-5.37640E-01
 -1      3553-9.04793E+00 8.31239E-02 5.13072E-02 5.28143E-02 9.98612E-02-1.88378E-01
 -1      3554-8.98846E+00 9.08940E-02 6.37428E-02 4.58350E-02 1.22950E-01-1.91427E-01
 -1      3555-7.84617E+00 8.81904E-02 4.20478E-02 1.12128E-01 1.16990E-01-1.12828E-01
 -1      3556-5.39937E+00 7.84983E-02 5.53808E-02 8.49435E-03 1.37068E-01-2.74513E-01
 -1      3557-5.46475E+00 6.56472E-02 4.53075E-02 1.29356E-02 1.15285E-01-2.73524E-01
 -1      3558 9.03995E-01 2.23174E-01 1.31788E-01-1.77661E-02 3.89371E-01-1.15488E-01
 -1      3559-2.17109E-01 5.55571E-02 3.25129E-02-1.74277E-02 1.33615E-01-1.88427E-01
 -1      3560 2.97231E-01 1.59088E-01 8.89916E-02-1.53406E-02 2.87866E-01-7.50119E-02
 -1      3561-3.23060E+00 1.62723E-01 8.98787E-02 9.24724E-03 2.88732E-01-1.41169E-01
 -1      3562 2.61349E+00 7.62510E-01 4.57724E-01-2.93474E-02 1.26354E+00-4.33029E-01
 -1      3563 2.11994E+00 8.87881E-01 5.29228E-01-3.34223E-02 1.47338E+00-4.85513E-01
 -1      3564 1.12357E+00 8.86615E-01 5.36395E-01-4.83934E-02 1.46745E+00-4.97705E-01
 -1      3565-3.30585E-01 8.98714E-01 5.43855E-01-7.15569E-02 1.46258E+00-4.87904E-01
 -1      3566 6.64161E-01 8.98044E-01 5.33984E-01-5.70219E-02 1.46689E+00-5.29413E-01
 -1      3567 7.21900E-01 7.70818E-01 4.67032E-01-5.22583E-02 1.26567E+00-4.77014E-01
 -1      3568-1.89703E+00 5.81441E-01 3.47526E-01-6.28450E-02 9.62843E-01-3.39213E-01
 -1      3569 4.70733E-01 5.72808E-01 3.44277E-01-4.33742E-02 9.58778E-01-4.10812E-01
 -1      3570 6.87338E-01 5.79740E-01 3.43414E-01-3.53413E-02 9.59000E-01-3.20214E-01
 -1      3571 3.05149E+00 5.74410E-01 3.42105E-01-2.70044E-02 9.56135E-01-3.48946E-01
 -1      3572 3.57686E+00 2.22541E-01 1.32816E-01-4.09257E-02 3.87446E-01-1.76875E-01
 -1      3573-4.87881E-01 2.17440E-01 1.27570E-01-2.71605E-02 3.93972E-01-2.64530E-01
 -1      3574 3.40934E+00 3.07307E-01 1.85162E-01-3.42638E-02 5.33662E-01-2.31079E-01
 -1      3575 4.49222E-01 3.17852E-01 1.87655E-01-2.52321E-02 5.39197E-01-1.70398E-01
 -1      3576 1.75301E-01 3.11053E-01 1.85258E-01-3.39665E-02 5.36851E-01-3.04284E-01
 -1      3577-3.15359E+00 2.19944E-01 1.27873E-01-6.95413E-03 3.93161E-01-1.84041E-01
 -1      3578 1.51229E+00 4.24065E-01 2.53160E-01-2.35579E-02 7.05486E-01-4.42133E-01
 -1      3579 3.22452E+00 4.20168E-01 2.54750E-01-3.32334E-02 7.02932E-01-3.29176E-01
 -1      3580 1.26700E-02 4.40549E-01 2.63138E-01-3.57711E-02 7.43659E-01-3.69298E-01
 -1      3581 6.45218E+00 4.26174E-01 2.48433E-01-3.53490E-02 7.06807E-01-1.95758E-01
 -1      3582 4.05766E+00 4.39993E-01 2.63097E-01-2.25724E-02 7.44245E-01-2.69738E-01
 -1      3583-2.78197E+00 3.19596E-01 1.83643E-01-2.66927E-02 5.39388E-01-2.19636E-01
 -1      3584-7.99236E+00-1.63610E+00-2.61064E-01 6.45872E-01-5.98724E-02-4.40783E-02
 -1      3585-4.85543E+00-1.08613E+00-8.05965E-01 3.51788E-01-4.31215E-02-1.12481E-01
 -1      3586 1.34305E-01 9.84134E-01 5.89691E-01-5.90985E-02 1.60805E+00-3.39110E-01
 -1      3587 3.51348E-01 9.94870E-01 5.91922E-01-5.26783E-02 1.61013E+00-3.36263E-01
 -1      3588 6.37545E-01 9.79696E-01 5.81375E-01-4.42213E-02 1.60368E+00-5.41126E-01
 -1      3589 2.88041E-01 9.82741E-01 5.88623E-01-7.58167E-02 1.60282E+00-3.89580E-01
 -1      3590 1.75875E+00 7.97239E-01 4.77435E-01-3.89821E-02 1.32055E+00-4.76559E-01
 -1      3591 1.63467E+00 8.22021E-01 4.95341E-01-3.46266E-02 1.34964E+00-4.49776E-01
 -1      3592 2.01851E+00 8.04359E-01 4.79370E-01-2.72925E-02 1.32191E+00-4.48969E-01
 -1      3593 3.09436E+00 9.23940E-01 5.53065E-01-1.27915E-02 1.50647E+00-3.60112E-01
 -1      3594 1.01901E+00 9.62501E-01 4.91087E-01-2.33858E-02 1.64676E+00-5.58441E-01
 -1      3595 1.05821E+00 9.62427E-01 5.09706E-01-4.44946E-02 1.63527E+00-5.19634E-01
 -1      3596 9.41835E-01 9.77904E-01 5.94118E-01-2.89037E-02 1.60278E+00-5.89290E-01
 -1      3597 1.15787E+00 9.62238E-01 4.89359E-01-6.22691E-02 1.62395E+00-3.09353E-01
 -1      3598 1.06772E+00 9.62833E-01 4.93420E-01-5.52824E-02 1.61329E+00-4.83404E-01
 -1      3599-9.09408E-01 8.72024E-02 4.49698E-02 2.64781E-03 1.74643E-01-7.61421E-02
 -1      3600-1.51944E+00 8.46922E-02 4.25882E-02-3.07047E-03 1.80280E-01-1.66437E-01
 -1      3601-1.56780E+00 6.89007E-02 3.86172E-02 6.17177E-03 1.51726E-01-1.54468E-01
 -1      3602 9.23275E+00 4.99071E-02 4.60597E-02-6.83790E-02 6.18255E-02 1.13304E-01
 -1      3603 7.89496E-01 9.63091E-01 5.86758E-01-3.98874E-02 1.56727E+00-5.56969E-01
 -1      3604-9.52208E-01 7.50956E-02 3.44642E-02 6.27920E-03 1.49527E-01-6.24593E-02
 -1      3605 2.42405E+00 6.58747E-01 3.90909E-01 1.57671E-03 1.09293E+00-3.40906E-01
 -1      3606 1.18111E+00 6.72886E-01 3.97226E-01-3.43095E-02 1.11351E+00-3.57364E-01
 -1      3607 2.75579E-01 6.93883E-01 4.14518E-01-2.74353E-02 1.13127E+00-3.57859E-01
 -1      3608 2.39782E+00 6.90124E-01 4.15606E-01-4.41572E-04 1.13718E+00-3.60076E-01
 -1      3609 1.15885E+00 6.95083E-01 4.18317E-01-3.21283E-02 1.16184E+00-3.82535E-01
 -1      3610 3.34252E+00 6.73986E-01 4.09519E-01-5.87452E-03 1.11764E+00-3.46643E-01
 -1      3611 7.51292E-01 9.50841E-01 5.61169E-01-6.05406E-02 1.55960E+00-5.25882E-01
 -1      3612 6.29498E-01 9.47985E-01 5.57281E-01-5.59208E-02 1.55529E+00-5.35714E-01
 -1      3613 4.99571E-01 9.36190E-01 5.67118E-01-5.69121E-02 1.53899E+00-5.27464E-01
 -1      3614 1.50762E+00 9.44798E-01 5.84975E-01-3.69968E-02 1.55592E+00-5.33155E-01
 -1      3615 1.62244E+00 9.35099E-01 5.46998E-01-3.68431E-02 1.53092E+00-5.20828E-01
 -1      3616 2.75069E+00 6.79665E-02 3.81949E-02-4.81153E-02 1.48102E-01-6.25007E-02
 -1      3617 2.68307E-03 8.18919E-01 4.87397E-01-6.22967E-02 1.34688E+00-4.73390E-01
 -1      3618-4.01605E-01 8.05423E-01 4.83965E-01-6.40480E-02 1.32343E+00-4.77265E-01
 -1      3619 6.42721E+00 6.50265E-01 3.92149E-01 6.15506E-02 1.07631E+00-1.63045E-01
 -1      3620 6.29219E+00 6.64261E-01 3.99248E-01 5.89995E-02 1.10878E+00-1.68141E-01
 -1      3621 5.68031E+00 6.46294E-01 3.90859E-01 2.08893E-02 1.07181E+00-2.01469E-01
 -1      3622 4.03375E+00 6.70175E-01 4.12540E-01 2.76414E-02 1.11020E+00-3.07069E-01
 -1      3623 4.12570E+00 6.45782E-01 3.97350E-01 2.85530E-02 1.07436E+00-2.95924E-01
 -1      3624 1.60193E+00 4.14590E-01 2.46874E-01-3.94082E-02 7.05848E-01-3.07483E-01
 -1      3625 2.04059E+00 4.37740E-01 2.63305E-01-4.42667E-02 7.38479E-01-3.34839E-01
 -1      3626-1.67121E+00-2.60533E-01-3.47053E-01 2.23041E-01 1.13543E-02 8.28472E-01
 -1      3627-3.01837E+00-5.42829E-01-3.44563E-01 3.24252E-01-5.72888E-02 2.09947E-01
 -1      3628 9.15667E+00 9.34351E-02 6.51722E-02-4.22262E-02 1.39243E-01 7.98003E-02
 -1      3629 9.20230E+00 8.51913E-02 5.80165E-02-4.92167E-02 1.20492E-01 8.22553E-02
 -1      3630 5.57232E+00 9.65805E-02 7.40973E-02-9.14941E-03 1.61377E-01 7.75845E-02
 -1      3631 7.97541E+00 8.39299E-02 4.58993E-02-1.09239E-01 1.41198E-01 6.07537E-03
 -1      3632 7.92620E+00 9.44967E-02 5.09587E-02-1.05584E-01 1.62963E-01 1.00026E-04
 -1      3633 6.63959E-01 9.33572E-01 5.72468E-01-6.60344E-02 1.53195E+00-5.23795E-01
 -1      3634 2.73380E+00 8.36739E-02 5.47401E-02-4.18392E-02 1.80445E-01-8.00327E-02
 -1      3635 1.57095E+00 8.23363E-01 5.01838E-01-4.51836E-02 1.35509E+00-4.77288E-01
 -1      3636 9.91397E-01 9.96022E-01 5.01773E-01-3.01424E-02 1.59354E+00-5.62555E-01
 -1      3637 1.05141E+00 9.94757E-01 5.26721E-01-4.86041E-02 1.60091E+00-5.20468E-01
 -1      3638-1.37672E+00 4.12678E-01 2.54927E-01-4.01351E-02 6.94676E-01-3.10856E-01
 -1      3639 1.00829E+00 6.38265E-01 3.77962E-01-3.51485E-02 1.07294E+00-3.58455E-01
 -1      3640 2.20025E+00 4.06597E-01 2.44546E-01-2.13362E-02 6.94310E-01-2.43254E-01
 -1      3641 9.22581E+00 7.25407E-02 5.00254E-02-5.59942E-02 9.67062E-02 9.32636E-02
 -1      3642 5.58697E+00 8.24129E-02 6.56113E-02-1.59131E-02 1.41191E-01 9.22504E-02
 -1      3643 8.01808E+00 7.27958E-02 4.15658E-02-1.18853E-01 1.09320E-01 1.67462E-02
 -1      3644 5.59725E+00 5.94235E-02 4.82215E-02-1.84094E-02 1.10537E-01 1.08358E-01
 -1      3645-2.57072E-01 6.84909E-01 4.00366E-01-5.56387E-02 1.14173E+00-4.27449E-01
 -1      3646 1.24794E-02 6.63817E-01 4.02877E-01-5.54340E-02 1.09824E+00-3.83573E-01
 -1      3647-3.84249E-01 6.61932E-01 4.08958E-01-5.33207E-02 1.09572E+00-4.19701E-01
 -1      3648-7.11887E+00-1.81961E-02 1.24356E-02 9.17950E-02 8.71665E-03 2.10711E-01
 -1      3649-6.86483E+00 3.33087E-03 1.03229E-02 1.26940E-01 4.56942E-02 1.62843E-02
 -1      3650-2.62753E+00-3.25366E-01-1.90903E-01-1.46923E-02 9.09769E-02-9.10510E-02
 -1      3651 2.12597E+00 9.70204E-01 5.87913E-01-2.77424E-02 1.59084E+00-3.60205E-01
 -1      3652 2.01712E+00 9.72498E-01 5.83866E-01-5.34366E-02 1.59495E+00-3.45469E-01
 -1      3653 2.18006E+00 9.63021E-01 5.92694E-01-4.41671E-02 1.57788E+00-3.48012E-01
 -1      3654 6.12395E+00 6.90801E-01 4.10538E-01 6.04331E-02 1.14305E+00-1.78106E-01
 -1      3655 5.52248E+00 6.69046E-01 4.08818E-01 2.46649E-02 1.11178E+00-2.05524E-01
 -1      3656 3.98567E+00 7.01550E-01 4.20567E-01 2.69099E-02 1.14928E+00-3.24600E-01
 -1      3657 5.45216E+00 6.97558E-01 4.11588E-01 2.20308E-02 1.15530E+00-2.16068E-01
 -1      3658 1.81757E+00 9.80300E-01 5.94009E-01-3.60340E-02 1.60805E+00-3.60712E-01
 -1      3659 1.67480E+00 9.79697E-01 6.03361E-01-3.70849E-02 1.61245E+00-3.54943E-01
 -1      3660 1.45159E+00 9.76791E-01 5.90864E-01-3.91085E-02 1.60148E+00-5.22171E-01
 -1      3661 1.81550E+00 9.72902E-01 5.88848E-01-5.40672E-02 1.60249E+00-3.51210E-01
 -1      3662 3.91958E-01 3.11467E-02 1.39875E-02-1.50530E-02 6.12530E-02 2.00441E-02
 -1      3663-5.53125E+00-1.17426E+00-1.03710E+00-5.48024E-02 5.48189E-02-3.36571E-01
 -1      3664-8.43141E+00-7.43582E-01-3.31300E-02 2.73117E-03 1.07773E-01-2.71943E-01
 -1      3665 9.32892E-02 6.65180E-01 3.97098E-01-2.81189E-02 1.09177E+00-3.48435E-01
 -1      3666 3.81372E+00 5.65211E-02 2.47577E-02-8.67266E-02 8.13105E-02-8.56998E-02
 -1      3667 1.74738E+00 9.68066E-01 5.90091E-01-5.33150E-02 1.60854E+00-3.39607E-01
 -1      3668 1.48525E+00 9.69158E-01 5.90370E-01-4.26879E-02 1.60514E+00-4.78920E-01
 -1      3669-7.17720E+00-4.16380E-03-3.26710E-03 9.12778E-02 2.99031E-02 1.39935E-01
 -1      3670-3.64896E+00 1.89142E-02 8.16831E-05 6.41824E-03 2.96898E-02 1.75341E-01
 -1      3671 7.19851E+00 3.45974E-02-4.62761E-02-8.86999E-02 4.40084E-02-1.21311E-01
 -1      3672 3.74870E+00 2.03699E-02-3.09246E-02-7.88801E-02 8.30732E-02-2.35727E-01
 -1      3673 1.89396E-01 6.91641E-01 4.06687E-01-5.18944E-02 1.14099E+00-3.93596E-01
 -1      3674 4.85097E+00 6.96656E-01 4.18008E-01-1.18970E-02 1.15471E+00-2.95797E-01
 -1      3675 5.09450E+00 6.92441E-01 4.06567E-01-1.14500E-02 1.13707E+00-2.69136E-01
 -1      3676 5.38478E+00 6.55455E-01 3.99889E-01-1.04801E-02 1.09247E+00-2.55065E-01
 -1      3677 7.18375E+00 1.64310E-02-2.76438E-02-1.20679E-01 4.31922E-02-1.39679E-01
 -1      3678 6.96936E+00 1.70762E-02 1.73186E-03-1.95748E-01 6.95261E-02-1.10065E-01
 -1      3679-8.69743E-01 9.46021E-01 5.68531E-01-7.53373E-02 1.53991E+00-3.08062E-01
 -1      3680-7.37491E-01 9.53135E-01 5.80342E-01-7.10459E-02 1.55842E+00-3.08575E-01
 -1      3681 2.21228E-01 9.56814E-01 5.78944E-01-5.26807E-02 1.56249E+00-4.93960E-01
 -1      3682-6.26982E-01 9.47451E-01 5.80271E-01-9.09761E-02 1.55022E+00-3.33022E-01
 -1      3683 1.23053E-01 9.49270E-01 5.68942E-01-5.44539E-02 1.54912E+00-4.86373E-01
 -1      3684-5.38334E-01 9.61287E-01 5.82022E-01-7.28228E-02 1.56830E+00-3.19086E-01
 -1      3685-4.37497E-01 9.51031E-01 5.77722E-01-8.92981E-02 1.56350E+00-3.42417E-01
 -1      3686-7.54257E-01 9.50068E-01 5.60425E-01-9.03496E-02 1.53791E+00-3.26785E-01
 -1      3687 2.30581E-02 9.40482E-01 5.54908E-01-5.64549E-02 1.53782E+00-4.80949E-01
 -1      3688 6.04141E-01 6.79088E-01 4.08386E-01-3.25703E-02 1.11484E+00-5.00575E-01
 -1      3689 1.40961E+00 7.05818E-01 4.22805E-01-2.60654E-02 1.14068E+00-5.19797E-01
 -1      3690 9.05000E-01 9.41665E-01 5.63078E-01-3.54037E-02 1.54618E+00-5.84586E-01
 -1      3691 1.26056E+00 9.26657E-01 5.59967E-01-3.10368E-02 1.53571E+00-5.85399E-01
 -1      3692 2.34047E+00 9.43024E-01 5.64546E-01-3.81832E-02 1.54863E+00-3.84947E-01
 -1      3693 2.77208E+00 9.32254E-01 5.75135E-01-3.59082E-02 1.54088E+00-3.38528E-01
 -1      3694 6.01469E+00 7.27254E-02 3.74753E-02-1.24425E-01 1.50369E-01-7.93885E-02
 -1      3695 7.38367E+00 5.70806E-02 3.41307E-02-1.58710E-01 1.24352E-01-9.04834E-02
 -1      3696-5.39863E-02 7.39473E-02 4.25477E-02-1.99687E-02 1.48759E-01-2.81087E-01
 -1      3697 1.28360E+00 5.55002E-02 2.86090E-02-3.49238E-02 1.25315E-01-3.12693E-01
 -1      3698 6.65588E-01 9.79608E-01 5.72467E-01-2.77020E-02 1.61310E+00-5.28707E-01
 -1      3699 4.91268E-01 9.83240E-01 5.80065E-01-4.97467E-02 1.61617E+00-3.45078E-01
 -1      3700 3.37466E-01 9.75032E-01 5.77695E-01-3.24475E-02 1.61886E+00-3.48002E-01
 -1      3701 5.06031E-01 9.70307E-01 5.77002E-01-3.54951E-02 1.60448E+00-5.35304E-01
 -1      3702 2.93369E-01 9.73515E-01 5.75207E-01-5.55596E-02 1.60687E+00-3.59185E-01
 -1      3703-7.08690E+00 5.24399E-02 1.80149E-02 5.91639E-02 9.57030E-02 9.95546E-02
 -1      3704-6.55256E+00 7.49981E-02 3.97630E-02 9.21283E-02 1.39445E-01 6.08894E-03
 -1      3705-3.46581E+00 7.25459E-02 2.23532E-02 1.65042E-02 1.39779E-01 8.79454E-02
 -1      3706-3.50607E+00 5.95023E-02 1.54340E-02 1.86255E-02 1.13947E-01 1.00394E-01
 -1      3707-6.60755E+00 6.01936E-02 2.80252E-02 9.93522E-02 1.15101E-01 1.59222E-02
 -1      3708-7.04425E+00 6.37737E-02 2.63014E-02 5.45385E-02 1.18097E-01 8.75476E-02
 -1      3709-3.42007E+00 8.71867E-02 3.27871E-02 1.16996E-02 1.61079E-01 7.36206E-02
 -1      3710-6.98172E+00 7.88727E-02 3.65677E-02 4.41509E-02 1.38573E-01 8.47568E-02
 -1      3711-6.49763E+00 8.47897E-02 4.52241E-02 8.24722E-02 1.61850E-01 2.60156E-03
 -1      3712 8.97077E+00 1.47178E-01 9.21432E-02-2.39861E-02 2.14206E-01 6.34474E-02
 -1      3713 7.47218E+00 1.57558E-01 9.02787E-02-6.95586E-02 2.60680E-01-2.94959E-02
 -1      3714 8.92394E+00 1.60187E-01 1.01173E-01-1.79466E-02 2.43085E-01 4.96290E-02
 -1      3715 5.12326E+00 1.52472E-01 1.04423E-01-6.75934E-04 2.61494E-01 1.52507E-02
 -1      3716 3.19877E+00 9.09250E-01 5.55628E-01-9.85886E-03 1.48919E+00-3.60393E-01
 -1      3717 2.08417E+00 8.93480E-01 5.40129E-01-2.63790E-02 1.46380E+00-5.28957E-01
 -1      3718 3.37249E+00 8.98290E-01 5.42153E-01-1.07252E-02 1.46762E+00-3.65063E-01
 -1      3719 3.15638E+00 8.88306E-01 5.35651E-01-3.04445E-02 1.46361E+00-3.59965E-01
 -1      3720-1.36704E+00 9.13976E-01 5.46124E-01-8.05824E-02 1.48372E+00-2.89348E-01
 -1      3721-3.07018E-01 8.93884E-01 5.36721E-01-6.07553E-02 1.46592E+00-4.55487E-01
 -1      3722 3.54771E+00 8.88857E-01 5.31149E-01-4.76693E-03 1.44502E+00-3.62700E-01
 -1      3723-1.58304E+00 8.98118E-01 5.41547E-01-8.31662E-02 1.46788E+00-2.84760E-01
 -1      3724-1.38025E+00 8.93702E-01 5.41059E-01-9.73633E-02 1.46600E+00-3.16297E-01
 -1      3725-1.71623E+00 8.79049E-01 5.32522E-01-8.37675E-02 1.44404E+00-2.68917E-01
 -1      3726 5.61901E+00 7.52928E-01 4.48989E-01 5.62078E-02 1.23699E+00-2.00481E-01
 -1      3727 4.67949E+00 7.59621E-01 4.56038E-01 1.40320E-02 1.26958E+00-2.62084E-01
 -1      3728 5.46852E+00 7.63944E-01 4.55597E-01 5.42841E-02 1.26615E+00-2.17164E-01
 -1      3729 3.42750E+00 7.65446E-01 4.65080E-01 1.74766E-02 1.27048E+00-3.78364E-01
 -1      3730-4.16989E+00 7.47194E-01 4.49717E-01-8.47202E-02 1.23669E+00-3.33923E-01
 -1      3731-1.88451E+00 7.71686E-01 4.60978E-01-6.45270E-02 1.26686E+00-4.91161E-01
 -1      3732-3.93268E+00 7.71739E-01 4.62820E-01-8.54374E-02 1.26833E+00-3.35214E-01
 -1      3733-3.13044E+00 7.79295E-01 4.67512E-01-9.00883E-02 1.26573E+00-3.22830E-01
 -1      3734 8.85205E+00 1.74478E-01 1.13529E-01-7.41397E-03 2.70725E-01 4.74676E-02
 -1      3735 8.34308E+00 3.10422E-01 1.91198E-01 2.67248E-02 5.00553E-01-1.48267E-02
 -1      3736 8.24945E+00 3.24653E-01 1.99059E-01 2.97365E-02 5.37893E-01-2.22571E-02
 -1      3737 7.02844E+00 3.15252E-01 1.83981E-01-2.29023E-02 5.13427E-01-8.71592E-02
 -1      3738 4.86689E+00 3.08090E-01 1.94143E-01 1.62866E-02 5.12580E-01-9.23271E-02
 -1      3739 6.83119E+00 5.86964E-01 3.56658E-01 5.96501E-02 9.72505E-01-1.34582E-01
 -1      3740 4.20844E+00 5.67781E-01 3.45859E-01 2.80655E-02 9.43405E-01-2.54683E-01
 -1      3741 6.98972E+00 5.68553E-01 3.41074E-01 5.79081E-02 9.36992E-01-1.27835E-01
 -1      3742 5.93362E+00 5.70648E-01 3.39044E-01 1.49436E-02 9.43535E-01-1.83949E-01
 -1      3743-5.65543E+00 5.97175E-01 3.58731E-01-8.60506E-02 9.74217E-01-3.07083E-01
 -1      3744-3.08464E+00 5.70022E-01 3.44754E-01-6.20354E-02 9.42525E-01-4.33634E-01
 -1      3745 6.88410E+00 1.94986E-01 1.10477E-01-3.62017E-02 3.35092E-01-2.40751E-01
 -1      3746 3.40357E+00 2.20294E-01 1.26388E-01-2.02477E-02 3.81113E-01-3.35214E-01
 -1      3747 6.81631E+00 2.13394E-01 1.23662E-01-3.29832E-02 3.65294E-01-2.44209E-01
 -1      3748 6.26864E+00 2.06702E-01 1.24125E-01-6.73294E-02 3.79954E-01-1.81858E-01
 -1      3749-5.86422E+00 5.71268E-01 3.45609E-01-8.32392E-02 9.38453E-01-3.02325E-01
 -1      3750-4.79084E+00 5.76550E-01 3.44741E-01-7.60198E-02 9.44826E-01-2.67247E-01
 -1      3751-8.49212E+00 1.82609E-01 1.17326E-01-5.40874E-03 2.73590E-01-2.27330E-01
 -1      3752-4.82374E+00 1.53942E-01 9.99488E-02-1.53785E-02 2.60977E-01-3.06526E-01
 -1      3753-8.60088E+00 1.63983E-01 1.05481E-01 5.64239E-03 2.45109E-01-2.21538E-01
 -1      3754-7.15863E+00 1.67447E-01 9.47902E-02 3.99933E-02 2.62413E-01-1.51250E-01
 -1      3755-8.68242E+00 1.47894E-01 9.53712E-02 1.23631E-02 2.17169E-01-2.14589E-01
 -1      3756-6.01667E+00 5.45776E-01 3.31530E-01-8.25101E-02 9.03829E-01-2.93020E-01
 -1      3757 7.14044E+00 5.50236E-01 3.26599E-01 5.51296E-02 9.02654E-01-1.19288E-01
 -1      3758-7.56362E+00 3.38332E-01 2.08931E-01-5.12084E-02 5.38171E-01-2.57637E-01
 -1      3759-4.25971E+00 3.07531E-01 1.92417E-01-4.29842E-02 5.15649E-01-3.58237E-01
 -1      3760-6.37478E+00 2.16888E-01 1.21927E-01-1.12446E-02 3.64120E-01 2.44114E-02
 -1      3761-6.45443E+00 1.91443E-01 1.07931E-01-5.18681E-03 3.30837E-01 4.03469E-02
 -1      3762-5.84940E+00 2.24154E-01 1.30983E-01 9.18443E-03 3.80814E-01-5.27487E-02
 -1      3763-2.97225E+00 2.24811E-01 1.17983E-01-1.62221E-02 3.81559E-01-3.69218E-02
 -1      3764 6.45102E+00 3.68203E-01 2.15486E-01-8.50521E-03 6.10135E-01-2.71090E-01
 -1      3765 6.34493E+00 3.87277E-01 2.27737E-01-3.99452E-03 6.46015E-01-2.74076E-01
 -1      3766 3.29812E+00 3.93782E-01 2.33054E-01-1.28652E-02 6.55926E-01-3.86226E-01
 -1      3767 5.81314E+00 3.76077E-01 2.25822E-01-3.61222E-02 6.54645E-01-2.29117E-01
 -1      3768-7.72908E+00 3.12667E-01 1.96346E-01-4.44768E-02 5.02299E-01-2.52598E-01
 -1      3769-6.41709E+00 3.10998E-01 1.85002E-01-2.06086E-02 5.17085E-01-1.98773E-01
 -1      3770-5.41204E+00 4.23345E-01 2.46600E-01-5.52191E-02 6.82745E-01-5.54870E-02
 -1      3771-5.05461E+00 3.94983E-01 2.33994E-01-4.39291E-02 6.56078E-01-1.10300E-01
 -1      3772-5.66361E+00 3.68465E-01 2.19133E-01-4.58462E-02 6.09788E-01-3.86096E-02
 -1      3773-2.47248E+00 3.95668E-01 2.24325E-01-3.91430E-02 6.53669E-01-1.42823E-01
 -1      3774 2.34467E+00 6.62991E-01 3.83911E-01-2.64201E-02 1.08927E+00-3.85211E-01
 -1      3775 2.32030E+00 6.87020E-01 4.25899E-01-1.94547E-02 1.14644E+00-3.98214E-01
 -1      3776-5.51910E+00 3.95600E-01 2.33166E-01-5.37933E-02 6.43841E-01-4.37163E-02
 -1      3777 3.81351E+00 8.41807E-01 4.97902E-01-2.38331E-02 1.38028E+00-3.32282E-01
 -1      3778 2.42591E+00 8.48536E-01 4.99795E-01-1.68072E-02 1.38666E+00-5.15355E-01
 -1      3779 3.96028E+00 8.47050E-01 5.01901E-01-7.49416E-04 1.37767E+00-3.52923E-01
 -1      3780 4.05688E+00 8.14978E-01 4.95756E-01-2.27207E-02 1.34386E+00-3.16451E-01
 -1      3781 2.65123E+00 8.22363E-01 4.93215E-01-1.31914E-02 1.34114E+00-4.96837E-01
 -1      3782-5.17200E+00 4.62288E-01 2.75111E-01-6.25984E-02 7.57938E-01-7.38818E-02
 -1      3783-2.18019E+00 4.89309E-01 2.83666E-01-4.57352E-02 8.01048E-01-1.99650E-01
 -1      3784-4.06746E-04 9.72441E-01 5.90364E-01-6.19437E-02 1.59684E+00-3.33830E-01
 -1      3785-5.02207E+00 4.84575E-01 2.85313E-01-6.89584E-02 7.91125E-01-8.11321E-02
 -1      3786-4.54809E+00 4.87701E-01 2.92534E-01-6.32973E-02 8.01036E-01-1.44497E-01
 -1      3787 9.17304E+00 4.65374E-02 8.01423E-03-7.84298E-02 4.67402E-03 2.09033E-01
 -1      3788 7.95718E+00 5.41297E-02 1.85034E-02-1.26964E-01 3.74994E-02 1.93402E-02
 -1      3789-8.53423E+00-2.39235E-01-9.42257E-03 8.40818E-02 9.54957E-02-1.35016E-01
 -1      3790-5.83914E+00-8.08091E-02 4.30992E-02 4.19841E-02 1.47131E-01-2.32915E-01
 -1      3791-9.11612E+00-3.34645E-02 4.69593E-02 1.19187E-01 4.90403E-02-6.60472E-02
 -1      3792-7.81608E+00-3.27640E-02 2.81226E-02 1.46118E-01 8.63660E-02-9.10563E-02
 -1      3793-5.23459E+00 1.15139E-02 1.39055E-02 6.80365E-02 9.80743E-02-1.79419E-01
 -1      3794 6.98734E+00 3.92062E-01 2.35361E-01-3.82741E-03 6.45646E-01-1.02019E-01
 -1      3795 5.00534E+00 3.85109E-01 2.43335E-01 2.72350E-02 6.49077E-01-1.35174E-01
 -1      3796 7.98192E+00 3.93554E-01 2.41299E-01 4.44331E-02 6.45417E-01-4.68827E-02
 -1      3797 7.20153E+00 4.21226E-01 2.47582E-01 5.30774E-03 6.97011E-01-1.05773E-01
 -1      3798 5.24593E+00 4.19495E-01 2.60694E-01 3.12215E-02 6.96315E-01-1.38603E-01
 -1      3799-6.18330E+00 4.02460E-01 2.33543E-01-4.36384E-02 6.47092E-01-2.11033E-01
 -1      3800-4.21073E+00 3.92640E-01 2.33286E-01-5.59069E-02 6.42314E-01-3.84252E-01
 -1      3801-7.15988E+00 4.04522E-01 2.41025E-01-6.49939E-02 6.45279E-01-2.64388E-01
 -1      3802-6.34745E+00 4.30094E-01 2.57354E-01-4.85546E-02 6.99166E-01-2.17182E-01
 -1      3803-4.37148E+00 4.26012E-01 2.61340E-01-5.98961E-02 6.99747E-01-3.88166E-01
 -1      3804 2.01807E+00 9.81407E-01 5.87945E-01-3.13722E-02 1.59664E+00-3.59877E-01
 -1      3805-2.46046E+00 8.30815E-01 4.96301E-01-9.06016E-02 1.37483E+00-3.44562E-01
 -1      3806-1.40593E+00 8.37012E-01 5.00184E-01-6.43281E-02 1.37265E+00-5.13727E-01
 -1      3807-3.12031E+00 8.30790E-01 4.95882E-01-7.79893E-02 1.37453E+00-3.44712E-01
 -1      3808-2.55886E+00 8.56922E-01 5.17037E-01-8.66856E-02 1.40812E+00-3.21288E-01
 -1      3809-1.54905E+00 8.51702E-01 5.12278E-01-6.12076E-02 1.40561E+00-5.00243E-01
 -1      3810-9.21404E-01 8.44638E-01 5.08499E-01-6.95222E-02 1.40000E+00-4.86658E-01
 -1      3811 4.12249E+00 8.33433E-01 4.97800E-01 6.90857E-03 1.37485E+00-2.96026E-01
 -1      3812 3.06539E+00 8.28288E-01 4.99209E-01 1.02139E-02 1.37473E+00-4.23821E-01
 -1      3813 4.77603E+00 8.32118E-01 5.00164E-01 4.70795E-02 1.37691E+00-2.49288E-01
 -1      3814 4.25548E+00 8.41762E-01 5.00611E-01 1.70090E-02 1.40087E+00-2.69412E-01
 -1      3815 3.24311E+00 8.48601E-01 5.10724E-01 1.91712E-02 1.40157E+00-4.08061E-01
 -1      3816 2.62419E+00 8.57595E-01 5.14412E-01-1.39856E-02 1.40652E+00-4.43093E-01
 -1      3817-4.37376E+00 6.56225E-01 3.84122E-01-8.34810E-02 1.07244E+00-2.76601E-01
 -1      3818-9.89655E-01 6.87283E-01 4.03240E-01-5.11972E-02 1.13786E+00-5.13320E-01
 -1      3819-1.12782E+00 6.65231E-01 4.06252E-01-4.91691E-02 1.09002E+00-5.03534E-01
 -1      3820-2.72327E+00 6.68866E-01 4.02791E-01-6.61402E-02 1.10729E+00-4.56086E-01
 -1      3821-2.86153E+00 6.51161E-01 3.85815E-01-6.69748E-02 1.06863E+00-4.56152E-01
 -1      3822 9.25626E+00 5.11102E-02 2.79700E-02-8.19473E-02 2.81410E-02 1.41026E-01
 -1      3823 5.42397E+00 2.78503E-02 1.43462E-02-1.29458E-02 2.51924E-02 1.66592E-01
 -1      3824 3.89574E+00 2.47451E-01 1.40195E-01-1.42597E-02 4.18069E-01-3.47243E-01
 -1      3825 6.74254E+00 2.33630E-01 1.39398E-01-6.46704E-02 4.18823E-01-1.87252E-01
 -1      3826 3.37707E+00 2.53346E-01 1.48689E-01-4.35424E-02 4.37285E-01-2.68280E-01
 -1      3827 5.54107E+00 2.82410E-01 1.79907E-01 1.94584E-02 4.70049E-01-5.67146E-02
 -1      3828 7.71756E+00 2.86692E-01 1.71108E-01-2.29295E-02 4.69361E-01-5.39175E-02
 -1      3829 4.19598E+00 2.75387E-01 1.67308E-01-1.91967E-02 4.85849E-01-1.38081E-01
 -1      3830 3.60159E-01 9.46088E-01 5.59060E-01-4.14232E-02 1.55706E+00-5.84731E-01
 -1      3831 2.11408E-01 9.35357E-01 5.70862E-01-4.32637E-02 1.53924E+00-5.82203E-01
 -1      3832 2.61759E+00 9.46849E-01 5.61988E-01-2.77544E-02 1.55938E+00-3.35810E-01
 -1      3833 2.79718E+00 9.25319E-01 5.60804E-01-2.81311E-02 1.53902E+00-3.33032E-01
 -1      3834-7.75067E+00 1.02771E-01 6.02634E-02 8.53083E-02 1.65034E-01-1.27896E-01
 -1      3835-7.80664E+00 9.17219E-02 4.90653E-02 9.49928E-02 1.35424E-01-1.20383E-01
 -1      3836-2.69028E+00 8.54868E-02 4.87722E-02 4.84607E-04 1.58108E-01-3.18289E-01
 -1      3837-5.32074E+00 9.89356E-02 7.59469E-02-9.48873E-04 1.66301E-01-2.89490E-01
 -1      3838-2.73610E+00 7.31377E-02 4.75212E-02 9.59061E-03 1.28759E-01-3.05933E-01
 -1      3839 4.04901E+00 8.20953E-01 4.96622E-01 1.53386E-03 1.35332E+00-3.47904E-01
 -1      3840 4.20738E+00 8.07952E-01 4.91251E-01 1.21186E-03 1.32280E+00-3.44572E-01
 -1      3841 4.21516E+00 8.01446E-01 4.80537E-01-2.12162E-02 1.31851E+00-3.14641E-01
 -1      3842 2.74028E+00 8.04728E-01 4.85104E-01-8.64506E-03 1.31482E+00-5.00988E-01
 -1      3843 4.42503E+00 8.61187E-01 5.11132E-01 4.34563E-02 1.42184E+00-2.61210E-01
 -1      3844 4.57375E+00 8.47803E-01 5.03959E-01 4.71263E-02 1.40072E+00-2.47704E-01
 -1      3845 3.12147E+00 8.61314E-01 5.21776E-01 1.52238E-02 1.42456E+00-4.27103E-01
 -1      3846 4.07272E+00 8.57338E-01 5.13674E-01 1.33626E-02 1.42721E+00-2.74258E-01
 -1      3847-2.89279E+00 8.42161E-01 5.07885E-01-7.34292E-02 1.39962E+00-3.39245E-01
 -1      3848-2.34964E+00 8.69199E-01 5.19398E-01-8.61900E-02 1.42860E+00-3.21937E-01
 -1      3849-2.71596E+00 8.56785E-01 5.17290E-01-7.28531E-02 1.42564E+00-3.46476E-01
 -1      3850-1.39820E+00 8.67821E-01 5.18298E-01-6.16042E-02 1.42864E+00-5.13092E-01
 -1      3851 8.50624E+00 2.69634E-01 1.66203E-01 1.95796E-02 4.32383E-01 3.38761E-03
 -1      3852 8.41191E+00 2.88321E-01 1.79157E-01 2.65737E-02 4.63500E-01-1.08354E-03
 -1      3853 5.58964E+00 2.61437E-01 1.69545E-01 2.02336E-02 4.36738E-01-4.26729E-02
 -1      3854 7.81167E+00 2.69033E-01 1.56740E-01-3.39960E-02 4.35006E-01-4.91185E-02
 -1      3855 6.74903E+00 2.36321E-01 1.32408E-01-2.58358E-02 3.99646E-01-2.41063E-01
 -1      3856 6.71423E+00 2.59128E-01 1.44074E-01-2.32276E-02 4.33753E-01-2.48017E-01
 -1      3857 3.86627E+00 2.66291E-01 1.48578E-01-1.27859E-02 4.51119E-01-3.62100E-01
 -1      3858 6.68952E+00 2.56769E-01 1.55159E-01-6.32848E-02 4.51160E-01-1.83948E-01
 -1      3859-3.40056E+00 2.46883E-01 1.31518E-01-2.03449E-02 4.17417E-01-3.19212E-02
 -1      3860-6.25624E+00 2.51086E-01 1.48069E-01 3.72936E-03 4.14687E-01-4.23368E-02
 -1      3861-2.89741E+00 2.48524E-01 1.38687E-01-1.29295E-02 4.35207E-01-1.17339E-01
 -1      3862-4.96598E+00 2.84349E-01 1.80739E-01-4.16728E-02 4.70690E-01-3.46991E-01
 -1      3863-7.14619E+00 2.88513E-01 1.71632E-01-1.25736E-02 4.71064E-01-1.83826E-01
 -1      3864-3.63303E+00 2.89681E-01 1.72678E-01-2.60290E-02 4.87543E-01-2.78766E-01
 -1      3865-6.26680E+00 2.36383E-01 1.35677E-01-2.03234E-02 3.97411E-01 2.29571E-02
 -1      3866-6.15115E+00 2.69621E-01 1.59657E-01-3.46876E-03 4.50063E-01-4.90605E-02
 -1      3867-7.83322E+00 2.97003E-01 1.85833E-01-4.21575E-02 4.69627E-01-2.45974E-01
 -1      3868-5.07488E+00 2.63207E-01 1.63337E-01-4.33848E-02 4.35663E-01-3.51202E-01
 -1      3869-2.50653E+00 5.11978E-01 2.96075E-01-4.94643E-02 8.42060E-01-1.93347E-01
 -1      3870-4.84128E+00 5.17283E-01 3.10921E-01-6.93512E-02 8.40068E-01-1.32331E-01
 -1      3871-2.06443E+00 5.07162E-01 2.99647E-01-5.66011E-02 8.53705E-01-2.56898E-01
 -1      3872-4.74897E+00 5.26455E-01 3.16060E-01-7.36047E-02 8.64410E-01-9.90150E-02
 -1      3873-4.87720E+00 5.02945E-01 3.01601E-01-7.24123E-02 8.28381E-01-8.26992E-02
 -1      3874-4.70181E+00 5.36976E-01 3.21863E-01-7.44376E-02 8.78894E-01-1.37140E-01
 -1      3875-2.39948E+00 5.36585E-01 3.07435E-01-5.04059E-02 8.76735E-01-2.13980E-01
 -1      3876-6.18892E+00 2.58212E-01 1.48696E-01-2.38082E-02 4.30369E-01 1.01210E-02
 -1      3877-3.34076E+00 2.68259E-01 1.41563E-01-2.39305E-02 4.48749E-01-4.60535E-02
 -1      3878 3.17078E+00 4.81613E-01 2.84121E-01-1.12011E-02 8.00462E-01-4.16119E-01
 -1      3879 5.53157E+00 4.79110E-01 2.88705E-01-2.47379E-02 8.01031E-01-2.53879E-01
 -1      3880 6.00124E+00 4.78787E-01 2.85415E-01 3.73764E-03 7.92112E-01-2.90527E-01
 -1      3881 3.55504E+00 5.10843E-01 3.03820E-01-7.07210E-03 8.44128E-01-4.13614E-01
 -1      3882 5.87094E+00 5.01490E-01 2.99794E-01-2.37855E-02 8.43892E-01-2.45474E-01
 -1      3883 3.08286E+00 5.14618E-01 3.05058E-01-3.12802E-02 8.50230E-01-3.67768E-01
 -1      3884 7.90586E+00 4.20122E-01 2.52117E-01 4.69570E-02 6.84216E-01-5.72970E-02
 -1      3885 5.16842E+00 4.42828E-01 2.73948E-01 3.07045E-02 7.33168E-01-1.58491E-01
 -1      3886 7.63270E+00 8.69072E-02 4.95765E-02-1.34676E-01 1.56263E-01-2.36034E-02
 -1      3887 5.39236E+00 6.55024E-01 4.02837E-01 1.79813E-03 1.08766E+00-2.21719E-01
 -1      3888 5.32362E+00 6.91261E-01 4.07076E-01-1.74035E-03 1.14071E+00-2.33144E-01
 -1      3889 7.78273E+00 4.37825E-01 2.62463E-01 5.04465E-02 7.17372E-01-6.25646E-02
 -1      3890 7.07968E+00 4.41446E-01 2.65118E-01 6.73844E-03 7.34659E-01-1.13203E-01
 -1      3891-7.03043E+00 4.19034E-01 2.55469E-01-6.71153E-02 6.81086E-01-2.66781E-01
 -1      3892-4.23609E+00 4.45005E-01 2.74976E-01-6.50415E-02 7.34973E-01-4.00486E-01
 -1      3893 5.81336E+00 5.27888E-01 3.10007E-01 5.98567E-03 8.67294E-01-2.95469E-01
 -1      3894 5.92217E+00 5.06756E-01 2.99712E-01 5.20416E-03 8.26721E-01-2.92415E-01
 -1      3895 3.47743E+00 5.32751E-01 3.15105E-01-2.63406E-03 8.80873E-01-4.29278E-01
 -1      3896 5.76566E+00 5.22704E-01 3.17067E-01-2.30205E-02 8.79305E-01-2.49419E-01
 -1      3897-7.96584E+00 2.75620E-01 1.67961E-01-3.54074E-02 4.32533E-01-2.38820E-01
 -1      3898-7.26526E+00 2.73309E-01 1.62016E-01-1.64941E-04 4.36749E-01-1.76702E-01
 -1      3899 9.32932E-01 8.44891E-01 5.02449E-01-4.82209E-02 1.37919E+00-4.56584E-01
 -1      3900 1.91343E+00 8.45765E-01 5.05805E-01-1.48600E-02 1.38804E+00-4.73978E-01
 -1      3901 3.88966E+00 8.40084E-01 5.03185E-01-1.17042E-02 1.38727E+00-3.09427E-01
 -1      3902-2.32397E-01 8.39693E-01 5.04996E-01-5.23566E-02 1.38222E+00-5.63496E-01
 -1      3903-6.71160E-01 8.45004E-01 5.03373E-01-7.27726E-02 1.38808E+00-4.55567E-01
 -1      3904-2.20908E+00 8.39333E-01 5.03470E-01-9.94883E-02 1.38616E+00-3.25458E-01
 -1      3905 7.65684E+00 6.40273E-02 3.89610E-02-1.41980E-01 1.24897E-01-1.29270E-02
 -1      3906-3.67072E+00 6.81996E-01 4.04969E-01-8.25827E-02 1.11079E+00-1.64643E-01
 -1      3907-3.87406E+00 6.56831E-01 3.92370E-01-8.56066E-02 1.07660E+00-1.59334E-01
 -1      3908-3.58054E+00 6.55697E-01 3.92598E-01-9.04077E-02 1.07795E+00-2.05794E-01
 -1      3909-1.59867E+00 6.56829E-01 3.86193E-01-5.58604E-02 1.07991E+00-3.00667E-01
 -1      3910-3.39542E+00 6.82886E-01 4.02221E-01-9.25170E-02 1.11388E+00-2.10516E-01
 -1      3911 2.75737E+00 7.47838E-01 4.46950E-01-8.94741E-03 1.23155E+00-4.91622E-01
 -1      3912 2.94227E+00 7.26011E-01 4.37355E-01-8.30237E-03 1.18762E+00-4.75289E-01
 -1      3913-6.77272E+00 1.03134E-01 5.45112E-02 9.15691E-02 1.75846E-01-2.99625E-02
 -1      3914-3.35321E+00 1.11846E-01 5.49760E-02 2.56752E-02 2.09552E-01-2.64336E-02
 -1      3915 3.14150E+00 6.02767E-01 3.59237E-01-6.06137E-03 9.84765E-01-4.49987E-01
 -1      3916 3.30993E+00 6.30612E-01 3.69938E-01-4.36216E-03 1.03613E+00-4.50812E-01
 -1      3917-2.27584E+00 4.95250E-01 2.93515E-01-5.16169E-02 8.13387E-01-3.02185E-01
 -1      3918-4.73268E+00 4.97089E-01 2.96704E-01-6.36402E-02 8.20079E-01-1.72124E-01
 -1      3919 4.47878E+00 7.46718E-01 4.49646E-01-1.97182E-02 1.23218E+00-3.11026E-01
 -1      3920 4.67233E+00 7.16843E-01 4.36720E-01-1.50760E-02 1.18963E+00-2.93393E-01
 -1      3921 3.24559E+00 4.82162E-01 2.91260E-01-2.42395E-02 8.22611E-01-2.99528E-01
 -1      3922 5.72067E+00 4.90731E-01 2.91742E-01-2.32533E-02 8.19419E-01-2.23418E-01
 -1      3923 5.23468E+00 5.91161E-01 3.57762E-01-2.13750E-02 9.84718E-01-2.71995E-01
 -1      3924 5.39504E+00 6.25060E-01 3.70098E-01-1.67065E-02 1.03537E+00-2.66538E-01
 -1      3925-6.86630E+00 4.42297E-01 2.72402E-01-7.06334E-02 7.20250E-01-2.69733E-01
 -1      3926-6.18783E+00 4.54177E-01 2.67162E-01-5.43342E-02 7.34041E-01-2.21166E-01
 -1      3927 1.02019E+00 4.83312E-01 2.92958E-01-2.65351E-02 8.18173E-01-2.67323E-01
 -1      3928-1.12294E-01 4.89921E-01 2.93908E-01-1.88063E-02 8.20725E-01-2.38005E-01
 -1      3929-7.65169E-01 9.34429E-02 5.03534E-02 1.42728E-02 1.75557E-01 7.02223E-02
 -1      3930-3.25934E+00 7.09446E-01 4.23625E-01-9.56389E-02 1.16497E+00-2.50911E-01
 -1      3931-1.19345E+00 7.21320E-01 4.34362E-01-7.08976E-02 1.19165E+00-3.69291E-01
 -1      3932-4.88021E-02 4.93365E-01 2.91306E-01-4.31632E-02 8.19437E-01-3.70659E-01
 -1      3933 1.11116E+00 4.97013E-01 2.96439E-01-2.59169E-02 8.17644E-01-4.58802E-01
 -1      3934-9.13151E+00 1.04043E-02 6.85087E-02 9.92690E-02 4.74951E-02-1.16722E-01
 -1      3935-5.24718E+00 3.31314E-02 5.22305E-02 5.98759E-02 9.16234E-02-2.24577E-01
 -1      3936 1.36555E-01 9.74986E-01 5.76059E-01-3.58596E-02 1.61628E+00-3.52617E-01
 -1      3937 3.41771E-01 9.69985E-01 5.74487E-01-3.71060E-02 1.59888E+00-5.40550E-01
 -1      3938-9.13553E+00 3.76114E-02 4.81886E-02 1.16700E-01 4.63412E-02-1.40358E-01
 -1      3939-7.77479E+00 4.19485E-02 2.45435E-02 1.68143E-01 8.17925E-02-1.05782E-01
 -1      3940 3.76928E+00 2.54345E-02-1.60089E-04-5.61207E-02 8.65756E-02-2.57763E-01
 -1      3941 3.91963E+00 3.56964E-02 1.66337E-03-4.43776E-02 9.38012E-02-2.66783E-01
 -1      3942-1.23100E-01 9.66775E-01 5.76084E-01-3.67063E-02 1.60634E+00-3.60924E-01
 -1      3943 6.66333E-02 9.73965E-01 5.80964E-01-6.01287E-02 1.60120E+00-3.71184E-01
 -1      3944-9.31054E-01 2.59543E-01 1.49438E-01-5.85973E-03 4.36260E-01-5.16026E-02
 -1      3945-4.99870E-01 2.33366E-01 1.36507E-01-2.00346E-03 3.99949E-01-5.06816E-02
 -1      3946 1.22120E+00 2.39609E-01 1.43138E-01-1.56168E-02 4.18974E-01-1.16855E-01
 -1      3947 3.16611E+00 2.47046E-01 1.50605E-01 3.36776E-04 4.19857E-01-4.66412E-02
 -1      3948 7.82495E-01 2.68642E-01 1.60205E-01-1.85957E-02 4.58962E-01-1.21742E-01
 -1      3949-1.83978E+00 9.10872E-01 5.44162E-01-6.46788E-02 1.50692E+00-3.49460E-01
 -1      3950 3.64780E+00 9.06621E-01 5.43544E-01 2.87264E-02 1.50505E+00-2.84476E-01
 -1      3951-9.25647E-01 2.77348E-01 1.59140E-01-4.92320E-03 4.70170E-01-7.09513E-02
 -1      3952 1.20952E-01 2.88361E-01 1.71959E-01-1.82333E-02 5.04043E-01-1.46261E-01
 -1      3953 2.50265E+00 2.94916E-01 1.80163E-01-1.21104E-03 4.98220E-01-9.62365E-02
 -1      3954 3.17471E+00 2.73056E-01 1.63193E-01 7.19212E-04 4.53593E-01-6.46903E-02
 -1      3955-2.62489E+00 2.72837E-01 1.63871E-01-2.87019E-02 4.54717E-01-3.94436E-01
 -1      3956-1.91163E+00 2.99603E-01 1.73541E-01-3.38839E-02 4.99275E-01-3.95918E-01
 -1      3957 4.48563E-01 2.93697E-01 1.70696E-01-3.36400E-02 4.99375E-01-2.98939E-01
 -1      3958 1.47812E+00 2.79890E-01 1.64952E-01-2.75189E-02 4.69941E-01-3.99148E-01
 -1      3959-2.53531E-01 2.63967E-01 1.54206E-01-3.04035E-02 4.60539E-01-3.03131E-01
 -1      3960 6.55251E+00 2.28008E-01 1.33700E-01-7.38689E-02 3.99327E-01-1.44835E-01
 -1      3961 3.89537E+00 2.42912E-01 1.44826E-01-4.06716E-02 4.22277E-01-1.74055E-01
 -1      3962 7.55229E+00 2.49560E-01 1.48399E-01-6.22724E-02 4.20298E-01-7.54663E-02
 -1      3963 7.01609E+00 2.54935E-01 1.46949E-01-7.47286E-02 4.33793E-01-1.52744E-01
 -1      3964 4.36583E+00 2.64059E-01 1.58678E-01-4.03969E-02 4.57212E-01-1.91858E-01
 -1      3965 7.46338E+00 2.68205E-01 1.61925E-01-5.29498E-02 4.53262E-01-7.93810E-02
 -1      3966 6.77017E+00 2.96572E-01 1.74377E-01-5.24940E-02 4.98855E-01-1.13501E-01
 -1      3967 6.93425E+00 2.74191E-01 1.61176E-01-6.38095E-02 4.68967E-01-1.57242E-01
 -1      3968 3.68788E+00 2.89221E-01 1.73216E-01-3.57983E-02 5.03686E-01-2.19366E-01
 -1      3969-2.66348E+00 2.54689E-01 1.51421E-01-2.72336E-02 4.20929E-01-3.89004E-01
 -1      3970-7.54531E-01 2.44557E-01 1.40281E-01-3.10413E-02 4.25189E-01-2.77688E-01
 -1      3971 9.56450E-01 2.34167E-01 1.34696E-01-2.77620E-02 3.99086E-01-3.76748E-01
 -1      3972 1.44980E+00 2.55169E-01 1.51268E-01-2.52703E-02 4.35945E-01-3.94919E-01
 -1      3973 6.91170E+00 1.53454E-02 4.52314E-03-1.78309E-01 8.24485E-02-1.09899E-01
 -1      3974 7.09737E+00 3.12399E-02 1.97709E-02-1.61046E-01 9.37982E-02-1.10629E-01
 -1      3975-6.17542E+00 3.00639E-01 1.81774E-01-5.57734E-03 4.99002E-01-1.58314E-01
 -1      3976-3.11116E+00 2.95447E-01 1.70972E-01-1.92838E-02 5.01346E-01-1.93605E-01
 -1      3977-6.37553E+00 2.86088E-01 1.64275E-01-6.20070E-04 4.68735E-01-7.63867E-02
 -1      3978-6.91428E+00 2.80289E-01 1.66194E-01 2.19374E-03 4.56959E-01-1.47253E-01
 -1      3979-3.83601E+00 2.68763E-01 1.55364E-01-1.39479E-02 4.62059E-01-1.89997E-01
 -1      3980 1.56388E+00 6.51527E-01 3.83240E-01-2.46433E-02 1.08531E+00-5.09556E-01
 -1      3981 1.18659E+00 9.61767E-01 5.86794E-01-3.27309E-02 1.55976E+00-5.86087E-01
 -1      3982 2.52700E+00 9.44003E-01 5.58660E-01-4.07142E-02 1.55592E+00-3.42606E-01
 -1      3983 1.74225E+00 9.48516E-01 5.71851E-01-4.39631E-02 1.56327E+00-4.96190E-01
 -1      3984-6.50681E+00 2.62567E-01 1.52755E-01 1.00813E-02 4.35606E-01-7.43346E-02
 -1      3985-6.09783E+00 2.40348E-01 1.36880E-01 1.71144E-02 3.97442E-01-8.45868E-02
 -1      3986-7.03812E+00 2.56180E-01 1.56527E-01 1.19504E-02 4.22664E-01-1.44225E-01
 -1      3987-3.42073E+00 2.43389E-01 1.40277E-01-1.00720E-02 4.21721E-01-1.91475E-01
 -1      3988-3.10792E-01 9.55985E-01 5.73497E-01-4.03556E-02 1.59938E+00-3.57619E-01
 -1      3989-9.15195E+00 4.78250E-02 4.56469E-02 1.04747E-01 5.61187E-02-1.65308E-01
 -1      3990-3.33022E-01 9.69503E-01 5.81997E-01-6.73306E-02 1.57660E+00-3.23754E-01
 -1      3991 1.28961E+00 8.70066E-02 5.15232E-02-3.24421E-02 1.60148E-01-3.25173E-01
 -1      3992-6.92985E+00 9.57259E-02 4.51849E-02 4.02862E-02 1.64142E-01 7.31039E-02
 -1      3993-3.37826E+00 1.03662E-01 4.09191E-02 7.52987E-03 1.86941E-01 6.05499E-02
 -1      3994-6.85568E+00 1.10824E-01 5.46159E-02 3.00653E-02 1.86198E-01 7.23173E-02
 -1      3995-6.42138E+00 1.02311E-01 5.41178E-02 7.11231E-02 1.84804E-01 1.13499E-03
 -1      3996-1.03124E+00 9.24788E-01 5.61869E-01-7.79752E-02 1.51959E+00-2.94597E-01
 -1      3997 2.67939E-01 7.05029E-01 4.21339E-01-2.59896E-02 1.16536E+00-3.77720E-01
 -1      3998 1.17026E+00 9.73328E-01 5.85284E-01-4.79662E-02 1.60621E+00-5.32645E-01
 -1      3999 7.33198E+00 7.68672E-02 3.89395E-02-1.43234E-01 1.54725E-01-1.02294E-01
 -1      4000-3.23175E+00 7.41046E-01 4.47181E-01-8.69371E-02 1.20598E+00-1.93407E-01
 -1      4001-1.21716E+00 7.20996E-01 4.24924E-01-5.41844E-02 1.18288E+00-3.44972E-01
 -1      4002-2.98422E+00 7.19347E-01 4.33377E-01-9.64905E-02 1.18382E+00-2.32765E-01
 -1      4003-3.21406E+00 7.39368E-01 4.43519E-01-1.02009E-01 1.21424E+00-2.15995E-01
 -1      4004-1.46997E+00 7.42671E-01 4.40610E-01-5.87362E-02 1.21108E+00-3.40291E-01
 -1      4005-7.13522E+00 3.97134E-02 1.29245E-02 6.82098E-02 7.98095E-02 1.00196E-01
 -1      4006-1.39908E+00 1.17803E-01 6.18175E-02 4.90327E-03 2.10493E-01-7.77028E-02
 -1      4007-3.33906E+00-6.15642E-01-3.53107E-01 5.55378E-02 1.16043E-01-1.16813E-01
 -1      4008-2.82306E+00 7.97122E-01 4.79512E-01-1.03974E-01 1.31716E+00-2.57712E-01
 -1      4009-1.01462E+00 7.95868E-01 4.74548E-01-7.44102E-02 1.30845E+00-4.03290E-01
 -1      4010-2.77917E+00 7.90935E-01 4.73187E-01-9.93521E-02 1.28757E+00-2.67467E-01
 -1      4011-3.09474E+00 7.95032E-01 4.79469E-01-9.98935E-02 1.31030E+00-2.87458E-01
 -1      4012-1.29070E+00 7.91282E-01 4.69360E-01-7.78542E-02 1.30380E+00-4.21281E-01
 -1      4013-1.33491E+00 8.08281E-01 4.83426E-01-8.13896E-02 1.33317E+00-4.20020E-01
 -1      4014 1.27080E+00 9.75206E-01 5.99353E-01-1.72439E-02 1.61734E+00-5.11580E-01
 -1      4015 1.46408E+00 9.74130E-01 6.01039E-01-1.63411E-02 1.61516E+00-4.89506E-01
 -1      4016 1.61200E+00 8.39388E-01 5.02394E-01-3.25271E-02 1.39980E+00-4.79665E-01
 -1      4017 8.97801E-02 8.59002E-01 5.20860E-01-5.56248E-02 1.39546E+00-4.98120E-01
 -1      4018-9.04230E-02 7.22039E-01 4.39221E-01-6.08712E-02 1.18428E+00-4.07269E-01
 -1      4019 1.59545E+00 5.01391E-01 2.95676E-01-4.25313E-02 8.45588E-01-3.54926E-01
 -1      4020-5.86596E-01 5.13641E-01 3.05096E-01-4.99670E-02 8.47665E-01-3.07207E-01
 -1      4021-3.40088E+00 7.29668E-01 4.37559E-01-8.51122E-02 1.17725E+00-1.83469E-01
 -1      4022-3.17649E+00 6.94718E-01 4.16571E-01-9.38152E-02 1.14916E+00-2.31000E-01
 -1      4023-3.80219E+00 1.15849E-01 4.59331E-02 3.47384E-03 2.07268E-01 6.25291E-02
 -1      4024-6.82411E+00 1.18406E-01 6.64735E-02 7.05265E-02 2.06628E-01 1.70442E-03
 -1      4025 2.40137E-01 7.81047E-01 4.68239E-01-3.11449E-02 1.28771E+00-4.21100E-01
 -1      4026 1.73795E-01 8.04805E-01 4.83644E-01-3.35244E-02 1.31517E+00-4.28853E-01
 -1      4027 2.33378E+00 7.89903E-01 4.75690E-01-1.37742E-03 1.30662E+00-4.27718E-01
 -1      4028 1.08242E+00 8.10570E-01 4.89711E-01-4.05244E-02 1.32991E+00-4.31283E-01
 -1      4029 1.15926E+00 7.84960E-01 4.72682E-01-3.88725E-02 1.29751E+00-4.21081E-01
 -1      4030-3.53918E+00 7.00177E-01 4.21404E-01-8.79300E-02 1.14561E+00-1.78274E-01
 -1      4031-1.31007E+00 7.02665E-01 4.15403E-01-5.36920E-02 1.14914E+00-3.32832E-01
 -1      4032 2.40005E+00 9.49968E-01 5.73447E-01-3.10914E-02 1.57247E+00-3.42607E-01
 -1      4033-3.99176E+00 6.33644E-01 3.81446E-01-8.48333E-02 1.04109E+00-1.43950E-01
 -1      4034 9.23964E+00 4.87411E-02 3.59812E-02-6.48724E-02 4.15937E-02 1.39889E-01
 -1      4035 1.73391E-01 8.15762E-01 4.88633E-01-3.35075E-02 1.34240E+00-4.41515E-01
 -1      4036 6.96409E-01 8.15261E-01 4.90793E-01-4.58139E-02 1.36018E+00-4.38956E-01
 -1      4037 1.91964E+00 8.22831E-01 4.98187E-01-1.46104E-02 1.35968E+00-4.60308E-01
 -1      4038 2.32136E+00 8.13139E-01 4.85935E-01-9.93011E-04 1.33317E+00-4.38155E-01
 -1      4039-1.52515E+00 2.70764E-01 1.54141E-01-1.82759E-02 4.69001E-01-1.67964E-01
 -1      4040-1.08770E+00 2.49829E-01 1.47909E-01-1.70344E-02 4.29127E-01-1.63745E-01
 -1      4041 2.57323E+00 2.61416E-01 1.51934E-01-2.90699E-02 4.54329E-01-1.63679E-01
 -1      4042-2.04262E+00 2.65513E-01 1.58688E-01-2.17500E-02 4.55511E-01-2.54190E-01
 -1      4043-1.33929E+00 2.85772E-01 1.63326E-01-2.53151E-02 4.94550E-01-2.49942E-01
 -1      4044 2.06485E+00 2.69259E-01 1.63633E-01-3.75080E-02 4.69699E-01-2.59680E-01
 -1      4045 1.91285E+00 2.88734E-01 1.76387E-01-2.54505E-02 4.98505E-01-1.88470E-01
 -1      4046 1.56933E+00 2.45816E-01 1.38796E-01-3.73983E-02 4.32538E-01-2.34112E-01
 -1      4047 8.28614E-01 7.81642E-01 4.76992E-01-4.79693E-02 1.29482E+00-4.81124E-01
 -1      4048 1.42735E+00 7.90046E-01 4.78118E-01-2.44046E-02 1.30288E+00-5.46718E-01
 -1      4049-5.00475E-01 7.76926E-01 4.71765E-01-5.17606E-02 1.28009E+00-5.43008E-01
 -1      4050-1.38696E+00 7.75821E-01 4.60788E-01-7.14929E-02 1.29717E+00-4.61730E-01
 -1      4051-7.40854E-01 7.99709E-01 4.75316E-01-5.22314E-02 1.30806E+00-5.45647E-01
 -1      4052-5.10624E+00 6.62335E-01 3.90908E-01-8.76489E-02 1.07741E+00-3.11678E-01
 -1      4053 4.97178E+00 7.01805E-01 4.13556E-01 8.08481E-03 1.14474E+00-3.29256E-01
 -1      4054 6.74659E+00 4.48298E-01 2.72001E-01-1.18913E-02 7.53364E-01-1.39657E-01
 -1      4055 3.57711E+00 4.61924E-01 2.75700E-01-2.18236E-02 7.81751E-01-2.74449E-01
 -1      4056 5.84777E+00 4.69891E-01 2.79270E-01-2.79343E-02 7.84121E-01-2.17147E-01
 -1      4057 6.34325E+00 4.42841E-01 2.65533E-01-3.03709E-02 7.45628E-01-2.00649E-01
 -1      4058 3.15868E+00 4.55388E-01 2.69584E-01-3.11082E-02 7.71660E-01-3.52484E-01
 -1      4059-4.19701E-01 4.65527E-01 2.80856E-01-3.87461E-02 7.78608E-01-3.62044E-01
 -1      4060-2.05982E+00 4.54678E-01 2.77304E-01-4.46839E-02 7.53160E-01-4.46570E-01
 -1      4061 1.07736E+00 4.69062E-01 2.82522E-01-2.39885E-02 7.83277E-01-4.52202E-01
 -1      4062 1.53972E+00 4.50036E-01 2.66501E-01-2.41460E-02 7.44413E-01-4.48909E-01
 -1      4063-8.92706E+00 9.91900E-02 7.50784E-02 3.63961E-02 1.41670E-01-1.99936E-01
 -1      4064-2.59795E+00 8.20648E-01 4.94142E-01-1.04628E-01 1.34214E+00-2.60343E-01
 -1      4065-2.88322E+00 8.15738E-01 4.87405E-01-9.94633E-02 1.33938E+00-2.91575E-01
 -1      4066-2.42741E+00 8.23621E-01 4.95017E-01-9.94418E-02 1.36367E+00-3.21296E-01
 -1      4067-9.03191E-01 8.24742E-01 4.97289E-01-7.30492E-02 1.35676E+00-4.34701E-01
 -1      4068-1.04368E+00 7.73430E-01 4.65743E-01-7.47021E-02 1.27922E+00-4.26569E-01
 -1      4069-2.87975E+00 7.81154E-01 4.65891E-01-9.68038E-02 1.28203E+00-2.98772E-01
 -1      4070-1.40151E+00 6.82468E-01 4.04520E-01-5.64987E-02 1.11796E+00-3.18485E-01
 -1      4071 4.46939E+00 7.92991E-01 4.72810E-01-1.31359E-02 1.30411E+00-2.91933E-01
 -1      4072 2.71089E+00 7.82643E-01 4.72053E-01-2.62936E-02 1.28936E+00-4.24974E-01
 -1      4073 4.44222E+00 7.70615E-01 4.65945E-01-4.62330E-03 1.28177E+00-2.78270E-01
 -1      4074 4.69300E+00 7.91821E-01 4.70092E-01 3.71827E-03 1.30898E+00-2.62901E-01
 -1      4075 2.96421E+00 7.90336E-01 4.75636E-01-9.81535E-03 1.29655E+00-4.07183E-01
 -1      4076 4.57740E+00 8.20612E-01 4.93822E-01 2.41643E-02 1.35077E+00-2.51784E-01
 -1      4077 3.48462E+00 8.15708E-01 4.90963E-01 2.04820E-02 1.34856E+00-3.89543E-01
 -1      4078 4.82513E+00 8.07449E-01 4.86640E-01 4.37600E-02 1.33836E+00-2.44111E-01
 -1      4079-2.13028E+00 7.86769E-01 4.69025E-01-6.95787E-02 1.29505E+00-4.85420E-01
 -1      4080-3.35658E+00 7.91914E-01 4.77054E-01-8.78625E-02 1.29761E+00-3.07799E-01
 -1      4081-3.41555E+00 7.96643E-01 4.80174E-01-8.38183E-02 1.31253E+00-3.38550E-01
 -1      4082 1.94833E+00 9.60059E-01 5.76497E-01-8.66728E-03 1.57890E+00-4.99933E-01
 -1      4083 1.86710E+00 9.62709E-01 5.74217E-01-8.01478E-03 1.58723E+00-4.95283E-01
 -1      4084 2.35831E+00 9.52178E-01 5.73665E-01-1.30830E-02 1.58118E+00-3.34152E-01
 -1      4085 2.26486E+00 9.63286E-01 5.73990E-01-1.92655E-02 1.59179E+00-3.23898E-01
 -1      4086 3.59438E+00 7.99235E-01 4.83310E-01 2.17055E-02 1.32256E+00-3.85541E-01
 -1      4087 4.76000E+00 7.98848E-01 4.78802E-01 2.35354E-02 1.32292E+00-2.47492E-01
 -1      4088-1.98855E+00 8.03236E-01 4.83018E-01-6.83336E-02 1.32388E+00-4.96395E-01
 -1      4089-3.14424E+00 8.05283E-01 4.82999E-01-8.78915E-02 1.32439E+00-3.07032E-01
 -1      4090-4.11303E+00 6.99737E-01 4.19052E-01-8.76712E-02 1.17018E+00-3.27115E-01
 -1      4091-1.34216E+00 9.22060E-01 5.54860E-01-6.06440E-02 1.52597E+00-3.73414E-01
 -1      4092 3.17362E+00 9.18365E-01 5.44857E-01 1.74343E-02 1.52771E+00-3.21369E-01
 -1      4093-4.70988E+00 6.44627E-01 3.83163E-01-8.84046E-02 1.05615E+00-3.12142E-01
 -1      4094-6.61031E-01 9.44270E-01 5.64548E-01-5.27585E-02 1.57378E+00-3.74192E-01
 -1      4095 2.45363E+00 9.59162E-01 5.72239E-01 6.85087E-03 1.59138E+00-3.18877E-01
 -1      4096 2.53738E+00 9.47095E-01 5.71463E-01 5.09931E-03 1.57553E+00-3.40912E-01
 -1      4097-8.02618E+00 1.10266E-01 7.08012E-02 1.20916E-02 1.69882E-01-1.80829E-01
 -1      4098 3.64403E+00 4.60500E-01 2.67664E-01-6.01609E-03 7.61970E-01-4.07288E-01
 -1      4099 6.03706E+00 4.59138E-01 2.77835E-01-3.00124E-02 7.59041E-01-2.30711E-01
 -1      4100 5.82786E+00 4.49178E-01 2.69723E-01 4.15937E-03 7.41236E-01-2.75457E-01
 -1      4101 2.85492E+00 2.30654E-01 1.36274E-01-3.73719E-03 3.90529E-01-4.10429E-02
 -1      4102 4.57378E+00 2.37254E-01 1.43732E-01-2.37946E-02 4.12596E-01-1.03059E-01
 -1      4103 3.69361E+00 4.38048E-01 2.55216E-01-3.83968E-03 7.23984E-01-4.05744E-01
 -1      4104 6.13329E+00 4.29677E-01 2.58817E-01-3.49336E-02 7.24904E-01-2.26361E-01
 -1      4105 8.24854E+00 1.06486E-01 6.82656E-02-2.54483E-02 1.67217E-01 4.48685E-02
 -1      4106-8.21243E+00 7.20180E-02 4.53980E-02 4.04854E-02 1.00333E-01-1.62954E-01
 -1      4107-8.40364E-01 1.45077E-01 7.99296E-02 5.70253E-03 2.53804E-01 3.13865E-02
 -1      4108-3.42592E+00 1.48310E-01 7.52003E-02 1.53349E-02 2.59246E-01-4.40357E-02
 -1      4109-2.99588E+00 7.66181E-01 4.61794E-01-9.86597E-02 1.26189E+00-2.63832E-01
 -1      4110-1.19110E+00 7.65840E-01 4.54594E-01-7.51010E-02 1.24904E+00-3.81173E-01
 -1      4111 1.85816E+00 8.85399E-01 5.30783E-01-9.20376E-03 1.45703E+00-4.91359E-01
 -1      4112 2.57274E+00 8.75562E-01 5.29836E-01-1.33320E-02 1.44725E+00-4.45775E-01
 -1      4113 3.59826E+00 8.82674E-01 5.25895E-01-1.39108E-02 1.46407E+00-3.12293E-01
 -1      4114-8.94614E-02 8.88003E-01 5.32871E-01-4.57414E-02 1.45833E+00-5.68949E-01
 -1      4115-8.10658E-01 8.86973E-01 5.29326E-01-6.86659E-02 1.45683E+00-4.87440E-01
 -1      4116-1.82907E+00 8.85315E-01 5.35529E-01-9.73116E-02 1.45443E+00-3.27879E-01
 -1      4117 1.33032E+00 7.75877E-01 4.65846E-01-2.78856E-02 1.27250E+00-5.37901E-01
 -1      4118 2.64815E+00 7.82719E-01 4.64997E-01-3.28320E-02 1.28222E+00-4.59917E-01
 -1      4119 2.51618E-01 7.70362E-01 4.63271E-01-3.45847E-02 1.25840E+00-4.07613E-01
 -1      4120 8.68388E-01 7.80499E-01 4.65764E-01-4.41919E-02 1.27304E+00-4.21441E-01
 -1      4121 4.40007E+00 7.69430E-01 4.62664E-01-1.15580E-02 1.27726E+00-2.97372E-01
 -1      4122 1.20457E+00 3.03068E-01 1.79131E-01-2.74008E-02 5.08318E-01-3.98355E-01
 -1      4123 3.57184E+00 2.93887E-01 1.75941E-01-3.84843E-02 5.09531E-01-2.87739E-01
 -1      4124-5.96075E-01 2.99819E-01 1.73346E-01-9.09767E-03 5.03599E-01-9.05738E-02
 -1      4125-2.98079E+00 3.00446E-01 1.67623E-01-2.18549E-02 5.06316E-01-1.33760E-01
 -1      4126-1.39333E-01 8.07322E-01 4.76393E-01-6.45252E-02 1.32893E+00-4.44819E-01
 -1      4127-6.64777E-02 7.90075E-01 4.78985E-01-6.23386E-02 1.30080E+00-4.30494E-01
 -1      4128-2.40013E+00 2.35726E-01 1.40335E-01-2.26129E-02 3.88446E-01-3.72816E-01
 -1      4129-4.10462E+00 2.38495E-01 1.42815E-01-1.58621E-02 4.12400E-01-2.60170E-01
 -1      4130 7.25007E+00 2.29588E-01 1.37535E-01-6.38408E-02 3.87738E-01-7.64627E-02
 -1      4131 6.64175E+00 2.95422E-01 1.69600E-01-5.89080E-02 5.01165E-01-1.65135E-01
 -1      4132 4.04902E-01 8.31237E-01 4.98895E-01-3.34365E-02 1.36164E+00-4.53369E-01
 -1      4133-8.25790E-01 8.31022E-01 4.95683E-01-7.44320E-02 1.35919E+00-4.15933E-01
 -1      4134-2.33841E+00 8.34282E-01 5.08286E-01-1.01776E-01 1.37380E+00-2.83923E-01
 -1      4135-4.53427E+00 5.67384E-01 3.42756E-01-7.47123E-02 9.38018E-01-1.88419E-01
 -1      4136-2.07659E+00 5.66254E-01 3.30404E-01-6.11784E-02 9.26753E-01-2.71375E-01
 -1      4137 5.66578E+00 5.62436E-01 3.35353E-01-1.59361E-02 9.31963E-01-2.40790E-01
 -1      4138 3.20070E+00 5.55734E-01 3.36847E-01-2.96872E-02 9.33093E-01-3.81123E-01
 -1      4139-6.45278E+00 1.94747E-02 7.74668E-03 5.06080E-02 4.31103E-02 9.19738E-02
 -1      4140-1.43626E-01 5.67190E-01 3.37990E-01-2.67768E-02 9.32657E-01-2.72319E-01
 -1      4141 1.27938E+00 5.64727E-01 3.37706E-01-2.87654E-02 9.33816E-01-4.76229E-01
 -1      4142 7.19658E+00 2.24112E-02 2.05212E-03-1.01399E-01 6.62542E-02-1.79405E-01
 -1      4143 6.55518E+00 1.68300E-02-1.51406E-03-9.83481E-02 6.90990E-02-1.51183E-01
 -1      4144-6.74865E+00 1.48294E-01 8.53778E-02 6.58847E-02 2.56081E-01-4.46149E-02
 -1      4145 7.32275E+00 3.74982E-01 2.24749E-01 3.87547E-02 6.24225E-01-6.84119E-02
 -1      4146-1.83974E+00 8.93059E-01 5.34029E-01-6.72663E-02 1.48169E+00-3.68540E-01
 -1      4147 3.61703E+00 8.92621E-01 5.33244E-01 2.46749E-02 1.48226E+00-3.04306E-01
 -1      4148-1.85706E+00 8.51825E-01 5.18236E-01-7.96662E-02 1.39571E+00-2.72849E-01
 -1      4149-2.58459E+00 8.11013E-01 4.88199E-01-8.56435E-02 1.32414E+00-2.25141E-01
 -1      4150-2.45663E+00 7.93228E-01 4.74018E-01-8.45646E-02 1.29006E+00-2.43762E-01
 -1      4151-1.02731E+00 7.95310E-01 4.72728E-01-5.60873E-02 1.30326E+00-3.87255E-01
 -1      4152-2.52703E+00 7.96920E-01 4.79213E-01-1.04436E-01 1.30375E+00-2.52426E-01
 -1      4153 3.57277E+00 8.59489E-01 5.14662E-01-3.21146E-03 1.39579E+00-3.62632E-01
 -1      4154 4.70913E+00 7.35915E-01 4.42668E-01 8.85197E-03 1.20801E+00-3.29293E-01
 -1      4155 4.21805E+00 7.62211E-01 4.56223E-01 1.71679E-03 1.24659E+00-3.49584E-01
 -1      4156 6.35297E+00 1.56391E-01 8.77703E-02-3.12893E-02 2.73948E-01-2.08957E-01
 -1      4157-3.89592E+00 5.91283E-01 3.54852E-01-7.66284E-02 9.68516E-01-1.50691E-01
 -1      4158 7.93677E+00 2.12645E-01 1.28654E-01 1.11031E-02 3.49368E-01-2.81893E-03
 -1      4159 5.98074E+00 3.22445E-01 1.87742E-01-6.67791E-03 5.35694E-01-2.49774E-01
 -1      4160 6.39874E+00 4.73366E-01 2.78957E-01-1.38579E-02 7.93732E-01-1.62170E-01
 -1      4161 4.13240E+00 4.63864E-01 2.80959E-01-4.18482E-03 7.85895E-01-2.26426E-01
 -1      4162 5.40050E+00 6.14060E-01 3.66314E-01 1.01775E-02 1.00816E+00-3.08605E-01
 -1      4163 5.08021E+00 5.87512E-01 3.55365E-01 5.03200E-03 9.68616E-01-3.13081E-01
 -1      4164 6.19404E+00 4.36015E-01 2.57977E-01 2.60922E-03 7.19402E-01-2.76670E-01
 -1      4165-6.03702E+00 3.03563E-01 1.80103E-01-6.13515E-03 5.07318E-01-9.70446E-02
 -1      4166-6.56446E+00 3.86994E-01 2.31324E-01-6.71558E-02 6.25293E-01-2.55144E-01
 -1      4167 2.67638E+00 4.78165E-01 2.86679E-01 3.78827E-03 7.89146E-01-2.14723E-01
 -1      4168-1.68647E+00 4.78477E-01 2.86902E-01-4.55996E-02 7.94520E-01-4.50434E-01
 -1      4169-3.19000E+00 4.75973E-01 2.84615E-01-5.25654E-02 7.92836E-01-3.43569E-01
 -1      4170 8.35512E+00 6.10080E-02 3.97056E-02-4.41772E-02 9.34763E-02 6.71753E-02
 -1      4171-6.78476E+00 2.40353E-01 1.38684E-01 1.44129E-02 3.92142E-01-1.37607E-01
 -1      4172-5.43954E+00 4.82515E-01 2.92124E-01-5.96231E-02 7.88238E-01-2.07588E-01
 -1      4173-5.33266E+00 3.19006E-01 1.90334E-01-4.10324E-02 5.33953E-01-4.10244E-02
 -1      4174-6.03510E+00 1.56461E-01 8.89877E-02-1.17124E-03 2.72982E-01 2.15821E-02
 -1      4175-5.79612E+00 4.98156E-01 3.01276E-01-7.98747E-02 8.24992E-01-2.81841E-01
 -1      4176-7.51422E+00 2.23127E-01 1.34010E-01-3.14684E-02 3.50993E-01-2.15706E-01
 -1      4177 6.78747E+00 5.01351E-01 2.97633E-01 4.72179E-02 8.24178E-01-1.16809E-01
 -1      4178-9.95828E-01 8.87179E-01 5.36636E-01-5.82094E-02 1.47258E+00-5.23813E-01
 -1      4179-1.85461E+00 8.88485E-01 5.33141E-01-8.37006E-02 1.46963E+00-3.41648E-01
 -1      4180 3.63063E+00 8.89739E-01 5.31848E-01 3.89228E-03 1.47092E+00-3.02038E-01
 -1      4181-1.12242E+00 7.77402E-01 4.64095E-01-5.66667E-02 1.27186E+00-3.75476E-01
 -1      4182 2.77157E+00 8.93917E-01 5.33447E-01 6.81194E-03 1.46526E+00-4.51647E-01
 -1      4183-2.74119E+00 7.74863E-01 4.64865E-01-1.02208E-01 1.27484E+00-2.48993E-01
 -1      4184-2.12075E+00 8.37849E-01 5.12970E-01-1.03491E-01 1.38262E+00-2.74146E-01
 -1      4185-7.37005E-01 8.40047E-01 5.10729E-01-5.72278E-02 1.37440E+00-4.13703E-01
 -1      4186 2.70557E+00 7.68331E-01 4.63995E-01-1.06443E-02 1.25692E+00-4.95739E-01
 -1      4187 4.30298E+00 7.58807E-01 4.57700E-01-1.87350E-02 1.26063E+00-3.15164E-01
 -1      4188-2.01953E+00 5.75757E-01 3.40402E-01-5.15849E-02 9.47645E-01-2.49002E-01
 -1      4189-4.22965E+00 5.75653E-01 3.48760E-01-8.04296E-02 9.52254E-01-1.68028E-01
 -1      4190 5.31546E+00 2.16607E-01 1.42656E-01 1.34415E-02 3.73681E-01-2.43517E-02
 -1      4191 7.59342E+00 2.27944E-01 1.34255E-01-4.56352E-02 3.70838E-01-4.49571E-02
 -1      4192 6.33353E+00 3.08128E-01 1.80626E-01-5.33137E-02 5.20509E-01-1.98098E-01
 -1      4193 3.55538E+00 3.11989E-01 1.70160E-01-1.29628E-02 5.24399E-01-3.69640E-01
 -1      4194 3.17908E+00 5.78362E-01 3.39812E-01-7.38757E-03 9.53031E-01-4.45145E-01
 -1      4195-3.41097E+00 1.47837E-01 6.99937E-02-4.97260E-03 2.62258E-01 2.70034E-02
 -1      4196-2.94459E+00 3.07720E-01 1.73015E-01-2.98771E-02 5.16842E-01-8.18972E-02
 -1      4197 5.38424E+00 5.74802E-01 3.46623E-01-2.10961E-02 9.51991E-01-2.68680E-01
 -1      4198-5.64006E+00 4.90549E-01 2.95578E-01-6.19118E-02 8.09281E-01-2.36947E-01
 -1      4199 5.12450E+00 7.96501E-01 4.76381E-01 5.03156E-02 1.32372E+00-2.29256E-01
 -1      4200-3.53611E+00 8.01555E-01 4.81223E-01-8.27824E-02 1.32398E+00-3.35245E-01
 -1      4201 2.05973E+00 7.83501E-01 4.66983E-01-7.93962E-03 1.28227E+00-4.27313E-01
 -1      4202 4.74948E+00 4.91468E-01 2.98278E-01 2.93466E-02 8.03489E-01-1.93800E-01
 -1      4203-4.90321E+00 2.22790E-01 1.34991E-01-3.50477E-02 3.69463E-01-3.35599E-01
 -1      4204-5.69231E+00 3.09783E-01 1.89023E-01-1.80562E-02 5.20168E-01-7.31969E-02
 -1      4205-7.12098E+00 2.40856E-01 1.38140E-01 1.09331E-02 3.72235E-01-1.66201E-01
 -1      4206-6.39323E+00 1.52752E-01 9.20314E-02 4.75299E-02 2.64278E-01-2.02987E-02
 -1      4207 6.61207E+00 4.88861E-01 2.85733E-01 9.31492E-03 8.07502E-01-1.39684E-01
 -1      4208-3.75409E+00 4.87525E-01 3.03027E-01-6.40949E-02 8.12559E-01-4.11310E-01
 -1      4209 2.11322E-01 2.27197E-01 1.31062E-01-2.93128E-02 3.99896E-01-1.97351E-01
 -1      4210-1.76650E+00 2.44305E-01 1.49726E-01-1.87911E-02 4.23429E-01-2.33884E-01
 -1      4211 1.49831E-01 1.53432E-01 9.00173E-02-1.65343E-02 2.83783E-01-1.59849E-01
 -1      4212 8.94948E-01 8.90958E-01 5.33965E-01-6.59551E-02 1.46226E+00-5.27860E-01
 -1      4213 1.65469E+00 8.81654E-01 5.37166E-01-3.33407E-02 1.44419E+00-4.83814E-01
 -1      4214 1.04255E-01 8.76240E-01 5.18993E-01-5.82675E-02 1.44917E+00-5.02036E-01
 -1      4215 7.70301E-01 7.66736E-01 4.56793E-01-4.55365E-02 1.27026E+00-4.55691E-01
 -1      4216-1.45622E-01 7.84038E-01 4.83902E-01-5.69448E-02 1.29932E+00-4.63799E-01
 -1      4217 1.71003E+00 7.77411E-01 4.65796E-01-3.20451E-02 1.29662E+00-4.37492E-01
 -1      4218 1.64639E+00 7.77055E-01 4.64254E-01-4.25116E-02 1.29122E+00-4.62215E-01
 -1      4219-1.35446E-01 7.57146E-01 4.49701E-01-6.16321E-02 1.24421E+00-4.18217E-01
 -1      4220 8.32922E-01 8.33714E-01 5.01943E-01-4.80089E-02 1.37462E+00-4.77624E-01
 -1      4221 7.54987E-02 8.22492E-01 4.82315E-01-6.31397E-02 1.35285E+00-4.51814E-01
 -1      4222-1.49637E+00 1.40382E-01 7.63260E-02-1.81336E-03 2.62427E-01-9.82506E-02
 -1      4223 2.24541E+00 2.38047E-01 1.37888E-01-2.77535E-02 4.22697E-01-1.56416E-01
 -1      4224 5.71343E-01 5.71025E-01 3.41669E-01-3.57531E-02 9.51622E-01-3.74299E-01
 -1      4225-6.55661E-01 5.54144E-01 3.23871E-01-5.29914E-02 9.23593E-01-3.19635E-01
 -1      4226 1.76912E+00 5.53991E-01 3.37182E-01-4.07246E-02 9.26092E-01-3.70868E-01
 -1      4227-2.28139E+00 8.83244E-01 5.31125E-01-7.10360E-02 1.46660E+00-3.50522E-01
 -1      4228-2.91289E+00 7.74767E-01 4.67670E-01-8.60301E-02 1.26827E+00-2.09849E-01
 -1      4229 4.04335E+00 8.87112E-01 5.28848E-01 3.45655E-02 1.46821E+00-2.75520E-01
 -1      4230-2.25410E+00 8.41491E-01 5.09893E-01-8.44370E-02 1.37628E+00-2.44972E-01
 -1      4231 4.45724E+00 7.70999E-01 4.65504E-01 6.30097E-03 1.26734E+00-3.38170E-01
 -1      4232 6.56124E+00 6.37972E-01 3.79304E-01 5.88261E-02 1.04025E+00-1.49197E-01
 -1      4233 8.65366E+00 2.27665E-01 1.41174E-01 9.63874E-03 3.64795E-01 2.03065E-02
 -1      4234-4.45825E+00 5.72604E-01 3.43039E-01-7.59257E-02 9.38349E-01-1.17601E-01
 -1      4235 6.59351E+00 3.03177E-01 1.72651E-01-1.44808E-02 5.02205E-01-2.56275E-01
 -1      4236 3.03257E-01 3.08310E-01 1.82942E-01-2.50716E-02 5.30715E-01-2.39620E-01
 -1      4237 1.79899E+00 2.91506E-01 1.79185E-01-3.52279E-02 5.03950E-01-2.58094E-01
 -1      4238 4.78957E-01 4.82933E-01 2.87248E-01-4.19213E-02 8.09579E-01-3.18605E-01
 -1      4239 1.58660E+00 4.63093E-01 2.80683E-01-4.14825E-02 7.74785E-01-3.26285E-01
 -1      4240-1.22373E+00 4.62676E-01 2.67408E-01-4.80464E-02 7.86503E-01-3.34189E-01
 -1      4241-1.20669E+00 2.92722E-01 1.64982E-01-2.46384E-02 5.03795E-01-1.83844E-01
 -1      4242 5.61103E+00 5.74299E-01 3.39339E-01 8.79735E-03 9.38408E-01-3.03605E-01
 -1      4243-5.97847E+00 3.02858E-01 1.75856E-01-3.25487E-02 5.00158E-01-7.01008E-03
 -1      4244-6.70819E+00 1.42653E-01 7.56076E-02 1.57899E-02 2.42023E-01 5.66765E-02
 -1      4245 2.16133E+00 4.72670E-01 2.87893E-01-2.39921E-02 7.82946E-01-2.72715E-01
 -1      4246 3.94363E-01 3.96193E-01 2.33912E-01-4.06186E-02 6.69598E-01-2.85895E-01
 -1      4247-6.56975E+00 4.83892E-01 2.96302E-01-7.78519E-02 7.93446E-01-2.78824E-01
 -1      4248 7.54744E+00 4.83595E-01 2.90752E-01 5.24689E-02 7.91485E-01-8.34154E-02
 -1      4249-8.19300E+00 2.36919E-01 1.46285E-01-2.61887E-02 3.66527E-01-2.32229E-01
 -1      4250-1.84523E+00 8.19122E-01 4.94513E-01-6.60446E-02 1.35008E+00-4.93557E-01
 -1      4251-3.20647E+00 8.06147E-01 4.79361E-01-8.09918E-02 1.33886E+00-3.40845E-01
 -1      4252-2.93425E+00 8.12736E-01 4.84587E-01-8.50275E-02 1.34921E+00-3.10480E-01
 -1      4253 4.93490E+00 7.76466E-01 4.60261E-01 2.47649E-02 1.29246E+00-2.41790E-01
 -1      4254 5.00345E+00 7.84270E-01 4.66132E-01 4.64767E-02 1.31026E+00-2.36380E-01
 -1      4255 3.70264E+00 7.80621E-01 4.73418E-01 2.50638E-02 1.29423E+00-3.69838E-01
 -1      4256 3.72524E+00 4.16178E-01 2.46596E-01-4.93831E-03 6.86309E-01-3.94170E-01
 -1      4257 5.91196E+00 4.23450E-01 2.50155E-01 4.26507E-03 7.04753E-01-2.71613E-01
 -1      4258 6.22830E+00 4.03196E-01 2.42867E-01-3.75235E-02 6.89338E-01-2.25472E-01
 -1      4259 1.37426E+00 9.68396E-01 5.83737E-01-1.96108E-02 1.60044E+00-5.58729E-01
 -1      4260 1.61341E+00 9.77895E-01 5.85822E-01-4.14601E-02 1.59776E+00-4.74799E-01
 -1      4261 5.54157E+00 7.04518E-01 4.19956E-01 4.96644E-02 1.16974E+00-2.06451E-01
 -1      4262 6.51439E-01 9.68816E-01 5.60705E-01-1.41516E-02 1.62295E+00-2.76396E-01
 -1      4263 4.64986E-01 9.76611E-01 5.74742E-01-2.55312E-02 1.62542E+00-2.79772E-01
 -1      4264 7.85000E-01 9.86577E-01 5.88189E-01-2.34885E-02 1.61791E+00-4.72993E-01
 -1      4265 6.87260E-01 9.88991E-01 5.83558E-01-3.77995E-02 1.61800E+00-3.47839E-01
 -1      4266 8.20938E-01 1.01904E+00 6.80690E-01-4.15342E-02 1.61404E+00-3.01110E-01
 -1      4267 8.85329E-01 1.01067E+00 6.80056E-01-4.36289E-02 1.60943E+00-4.76872E-01
 -1      4268-8.07387E+00-2.10207E-01 1.19939E-01 2.92969E-01 8.81017E-03 3.55183E-01
 -1      4269-8.06359E+00-1.35252E-01 2.81364E-01 5.86747E-01-1.57907E-01 4.02041E-01
 -1      4270-7.20760E+00-5.42264E-01 6.22184E-02 5.59147E-01-3.58166E-02-2.77398E-03
 -1      4271-5.08688E+00-2.31472E-01 6.81483E-02 1.91441E-01-6.82565E-02 2.59630E-01
 -1      4272 5.81458E-01 6.53867E-02 2.87747E-02-2.19815E-02 1.43054E-01-1.08251E-01
 -1      4273 1.07664E+00 9.36285E-01 5.45372E-01-5.35566E-02 1.52524E+00-5.35616E-01
 -1      4274 1.04628E+00 9.37801E-01 5.87341E-01-5.17960E-02 1.56393E+00-5.52755E-01
 -1      4275 6.14496E-01 9.82382E-02 5.53440E-02-2.42354E-02 2.01248E-01-1.34952E-01
 -1      4276 6.67917E-01 9.94887E-01 5.92738E-01-4.11270E-02 1.62291E+00-3.33086E-01
 -1      4277 7.56912E-01 9.99127E-01 5.84985E-01-4.43737E-02 1.63269E+00-2.69418E-01
 -1      4278 8.55567E-01 9.99551E-01 6.02578E-01-4.69856E-02 1.62431E+00-4.68802E-01
 -1      4279 7.40524E-01 1.00209E+00 5.99122E-01-6.84250E-02 1.62386E+00-3.38660E-01
 -1      4280 1.72815E+00 9.64835E-01 5.83139E-01-1.14967E-02 1.60054E+00-4.96808E-01
 -1      4281 1.64181E+00 9.71417E-01 5.85387E-01-1.56280E-02 1.60274E+00-4.84337E-01
 -1      4282 9.91273E-01 6.50964E-01 3.80424E-01-4.60986E-02 1.07082E+00-4.09757E-01
 -1      4283 9.21355E-01 1.01354E+00 7.12392E-01-2.57217E-02 1.62427E+00-4.45390E-01
 -1      4284 9.28714E-01 1.01338E+00 7.14421E-01-2.17838E-02 1.60878E+00-5.35915E-01
 -1      4285 1.00648E+00 6.96054E-01 4.23418E-01-4.91895E-02 1.16547E+00-4.37270E-01
 -1      4286 1.18281E-01 2.89756E-02 1.21901E-02-2.93319E-03 8.34986E-02-9.05482E-02
 -1      4287 1.24737E+00 1.00333E+00 6.35720E-01-3.38290E-02 1.62650E+00-2.80146E-01
 -1      4288 1.40468E+00 9.92704E-01 6.10096E-01-4.06046E-02 1.62513E+00-2.86352E-01
 -1      4289 1.11803E+00 9.92150E-01 6.24645E-01-4.12797E-02 1.61921E+00-4.80641E-01
 -1      4290 1.22781E+00 9.78278E-01 6.10994E-01-6.14920E-02 1.62139E+00-3.48743E-01
 -1      4291 8.06404E+00 1.04176E-01-1.76237E-01 2.98205E-01 1.81590E-01 5.65438E-02
 -1      4292 8.04716E+00 1.69675E-01-9.85486E-02-1.06125E-02 1.35540E-02 8.40635E-02
 -1      4293 5.14935E+00 2.62798E-01 1.01677E-01 5.30203E-02 1.10514E-01-7.88275E-02
 -1      4294 7.32032E+00 5.71703E-01 4.68596E-02 2.16458E-01 9.10439E-02-2.05202E-01
 -1      4295 8.09951E-01 1.01699E+00 7.03045E-01-3.07922E-02 1.62320E+00-3.02661E-01
 -1      4296 1.03327E+01 1.09187E-01-2.43201E-01-5.03430E-01-2.02585E-01 3.00723E-01
 -1      4297 1.00828E+01 2.09100E-01-4.83261E-02-2.38836E-01 6.16521E-03 3.22275E-01
 -1      4298 7.29855E+00 3.35305E-01 2.18205E-01-2.23871E-01-9.05516E-02 2.64662E-01
 -1      4299 8.81200E+00 5.83514E-01-2.90334E-02-5.68338E-01-6.39556E-02-4.47234E-02
 -1      4300 1.47183E+00 9.77110E-01 5.91616E-01-6.07999E-03 1.62146E+00-2.70525E-01
 -1      4301 1.28758E+00 9.84027E-01 6.03864E-01-1.73510E-03 1.63444E+00-2.66785E-01
 -1      4302 1.26371E+00 9.64738E-01 5.79310E-01-2.04616E-02 1.62581E+00-3.39410E-01
 -1      4303 1.16467E+00 9.80867E-01 6.08413E-01-1.44677E-02 1.62145E+00-4.68243E-01
 -1      4304 1.45381E+00 9.70298E-01 5.89461E-01-2.69724E-02 1.61900E+00-3.33608E-01
 -1      4305 3.63191E+00 6.75911E-01 6.83361E-01 4.11569E-01-2.37896E-02 6.85615E-02
 -1      4306 4.85825E+00 9.76745E-01 7.52770E-01 3.25295E-01 1.09969E-01-2.93626E-01
 -1      4307 8.28755E-01 9.96865E-01 6.87212E-01-7.15209E-02 1.63007E+00-2.92236E-01
 -1      4308 9.22052E-01 1.00051E+00 6.87285E-01-5.89867E-02 1.62776E+00-4.74801E-01
 -1      4309-1.02788E+01-5.92586E-02 1.35160E-01-2.46491E-01 2.37008E-01-3.03134E-02
 -1      4310-9.97719E+00-1.31095E-01 6.25551E-02 4.50069E-02 2.72810E-02 3.88261E-02
 -1      4311-7.02772E+00-2.68546E-01-2.07530E-01-7.43352E-02 1.33469E-01-1.63251E-01
 -1      4312-8.75226E+00-6.03892E-01-1.05761E-01-1.92335E-01 1.10104E-01-2.30090E-01
 -1      4313-2.57916E+00 8.08123E-01 4.85090E-01-1.06853E-01 1.32917E+00-2.42043E-01
 -1      4314-1.08436E+00 8.15831E-01 4.87752E-01-5.92815E-02 1.32658E+00-3.83677E-01
 -1      4315 5.50696E+00 4.81469E-01 5.61082E-01 4.39951E-01 4.02119E-02-9.24732E-03
 -1      4316-5.66634E+00-8.02008E-01-1.15033E+00-4.66244E-01 8.77679E-04-5.06594E-02
 -1      4317-6.14507E+00-1.17846E+00-1.00719E+00-3.66310E-01 1.22073E-01-3.92481E-01
 -1      4318 9.92024E-01 1.00968E+00 7.28392E-01-3.05632E-02 1.62711E+00-4.45306E-01
 -1      4319 9.91271E-01 1.00647E+00 7.22832E-01-3.24502E-02 1.63329E+00-5.35025E-01
 -1      4320 8.41373E-01 1.00274E+00 7.16583E-01-6.31740E-02 1.63048E+00-2.99652E-01
 -1      4321-7.84079E+00-1.63009E+00-4.95427E-01 8.96177E-01-1.83592E-03-7.73511E-02
 -1      4322 8.30511E+00 1.72913E+00 5.05913E-01 4.24542E-01 3.34714E-02-2.18261E-01
 -1      4323 7.78011E+00 1.24083E+00 3.54129E-01 7.47535E-01 1.18986E-02-7.31047E-02
 -1      4324 1.02554E+00 9.93461E-01 4.84446E-01-3.48488E-02 1.60095E+00-4.89746E-01
 -1      4325-7.76224E+00-1.42385E+00-4.90447E-01 1.17359E+00-7.68310E-02 1.15371E-01
 -1      4326-4.86361E+00-1.12013E+00-8.57301E-01 5.99758E-01-1.10638E-01 6.55351E-02
 -1      4327-7.55638E+00-5.71334E-01-9.10402E-01-4.51515E-01 4.62789E-02-2.34109E-01
 -1      4328-9.41711E+00-1.93302E+00-6.86435E-01-3.64102E-01 3.47461E-02-3.45526E-01
 -1      4329-9.37181E+00-1.40720E+00-4.91031E-01-7.22474E-01 2.49496E-02-2.04965E-01
 -1      4330-2.36756E+00 8.71677E-01 5.15237E-01-7.32346E-02 1.44147E+00-3.50608E-01
 -1      4331-2.11464E+00 8.78660E-01 5.23837E-01-8.03073E-02 1.44922E+00-3.21523E-01
 -1      4332-1.25407E+00 8.78779E-01 5.26557E-01-5.88770E-02 1.44807E+00-5.10050E-01
 -1      4333 3.86413E+00 8.74233E-01 5.25822E-01 1.44563E-02 1.44982E+00-2.75710E-01
 -1      4334 3.00370E+00 8.76809E-01 5.28854E-01 1.40288E-02 1.44896E+00-4.31173E-01
 -1      4335 4.09443E+00 8.63808E-01 5.22423E-01 3.37360E-02 1.44008E+00-2.74500E-01
 -1      4336 4.38050E+00 7.81871E-01 4.68157E-01-2.07826E-02 1.29079E+00-3.07773E-01
 -1      4337 2.78871E+00 7.85945E-01 4.71857E-01-7.59046E-03 1.28860E+00-4.93605E-01
 -1      4338 4.13137E+00 7.97166E-01 4.73237E-01 3.40711E-03 1.30407E+00-3.44176E-01
 -1      4339-2.91327E+00 7.58434E-01 4.52840E-01-8.51384E-02 1.22948E+00-2.08527E-01
 -1      4340-1.36893E+00 7.63269E-01 4.53112E-01-5.68151E-02 1.24501E+00-3.51588E-01
 -1      4341-2.99808E+00 7.61608E-01 4.59308E-01-1.05166E-01 1.24358E+00-2.18836E-01
 -1      4342 7.88581E+00 2.42207E-01 1.38675E-01-4.09740E-02 4.01208E-01-4.48752E-02
 -1      4343 8.14950E+00 2.51649E-01 1.51237E-01 2.17690E-02 4.13913E-01-7.47120E-03
 -1      4344 5.63714E+00 2.41185E-01 1.59435E-01 1.70720E-02 4.01860E-01-2.41469E-02
 -1      4345-4.36895E+00 5.51495E-01 3.23620E-01-7.40343E-02 8.95231E-01-1.17814E-01
 -1      4346-2.31405E+00 5.58593E-01 3.23287E-01-5.17710E-02 9.15393E-01-2.25266E-01
 -1      4347-4.53031E+00 5.56756E-01 3.32212E-01-8.12821E-02 9.13759E-01-1.39927E-01
 -1      4348 6.34583E+00 2.72248E-01 1.63397E-01-1.05847E-02 4.63922E-01-2.38179E-01
 -1      4349 3.85147E+00 2.90692E-01 1.64246E-01-1.13981E-02 4.86078E-01-3.64393E-01
 -1      4350 6.60350E+00 2.80370E-01 1.68676E-01-5.89071E-02 4.83161E-01-1.88596E-01
 -1      4351 5.64005E+00 5.48903E-01 3.32217E-01-2.25936E-02 9.15004E-01-2.50577E-01
 -1      4352 5.46761E+00 5.44479E-01 3.32819E-01 9.19190E-03 8.98107E-01-2.93176E-01
 -1      4353 3.43235E+00 5.56824E-01 3.28887E-01-2.84098E-03 9.15323E-01-4.32786E-01
 -1      4354-7.39584E+00 2.51429E-01 1.49134E-01 9.65175E-03 4.04776E-01-1.70891E-01
 -1      4355-7.63912E+00 2.58887E-01 1.62652E-01-4.12524E-02 4.14483E-01-2.24645E-01
 -1      4356-5.14470E+00 2.45806E-01 1.56113E-01-3.92158E-02 4.02527E-01-3.45939E-01
 -1      4357 1.02505E+00 9.96200E-01 4.52176E-01-2.88650E-02 1.62731E+00-4.56520E-01
 -1      4358 1.07598E+00 9.87437E-01 5.13032E-01-5.44843E-02 1.61560E+00-4.77204E-01
 -1      4359-6.03248E+00 2.89929E-01 1.69831E-01-1.35710E-02 4.82526E-01-5.03731E-02
 -1      4360-5.79396E+00 2.79642E-01 1.59072E-01-3.34598E-02 4.62246E-01-1.37695E-02
 -1      4361-3.27236E+00 2.90977E-01 1.57553E-01-2.71430E-02 4.85706E-01-5.98161E-02
 -1      4362-6.01379E+00 4.73127E-01 2.79326E-01-5.80109E-02 7.70020E-01-2.24333E-01
 -1      4363-4.14431E+00 4.64860E-01 2.85900E-01-6.55170E-02 7.71237E-01-4.01792E-01
 -1      4364-6.37345E+00 4.56301E-01 2.70126E-01-7.63640E-02 7.52032E-01-2.67363E-01
 -1      4365 2.23056E+00 9.64405E-01 5.88691E-01-2.45543E-02 1.57599E+00-3.70907E-01
 -1      4366-3.73541E+00 1.37670E-01 6.02985E-02-5.89109E-04 2.36534E-01 4.90019E-02
 -1      4367-6.74587E+00 1.34245E-01 7.68439E-02 5.75191E-02 2.31557E-01-1.66038E-04
 -1      4368-6.46188E+00 1.24725E-01 6.61173E-02 9.91841E-03 2.14071E-01 4.32254E-02
 -1      4369 4.57291E+00 7.15120E-01 4.33501E-01 7.46438E-03 1.17457E+00-3.28283E-01
 -1      4370 2.78618E+00 9.37246E-01 5.61555E-01-1.54388E-02 1.52386E+00-3.65823E-01
 -1      4371 5.10353E+00 6.44017E-01 3.81238E-01 1.20601E-02 1.05103E+00-3.08868E-01
 -1      4372 6.63931E+00 8.64536E-02 4.76063E-02-4.81038E-02 1.69960E-01-1.87866E-01
 -1      4373 5.88355E+00 8.26934E-01 1.08297E+00-5.96357E-01 3.96334E-02 4.27366E-01
 -1      4374 7.67562E+00 6.03713E-01 8.56197E-01-6.14409E-01-3.80525E-02 2.40444E-01
 -1      4375 6.28213E+00 1.22010E+00 1.11129E+00-6.33886E-01-9.55857E-02-1.00885E-01
 -1      4376 1.15240E+00 9.40840E-01 4.92530E-01-3.92211E-02 1.63135E+00-2.90288E-01
 -1      4377 1.14608E+00 9.43631E-01 4.65629E-01-2.66114E-02 1.63086E+00-2.99452E-01
 -1      4378 1.07117E+00 9.52795E-01 5.02022E-01-3.54594E-02 1.62638E+00-4.72915E-01
 -1      4379 9.24224E+00 1.81215E+00 5.46939E-01-8.22078E-01 2.54976E-02-2.23822E-01
 -1      4380 7.28299E+00 4.54060E-01 2.77905E-01 4.96813E-02 7.49426E-01-8.68702E-02
 -1      4381 6.95491E+00 4.64123E-01 2.79434E-01 1.27902E-02 7.69998E-01-1.16002E-01
 -1      4382 5.08845E+00 4.65091E-01 2.88996E-01 3.24767E-02 7.72198E-01-1.71016E-01
 -1      4383-3.91998E+00-9.10821E-02-2.60374E-01 3.44364E-01 1.20355E-01 6.61925E-01
 -1      4384-5.69655E+00-6.37736E-01-7.70097E-01 6.35747E-01-4.36692E-02 4.73115E-01
 -1      4385 6.72037E+00 3.80139E-02 1.29088E-02-6.95956E-02 9.29821E-02-1.63933E-01
 -1      4386 1.13590E+00 9.75177E-01 4.93532E-01-5.83163E-02 1.62548E+00-3.15021E-01
 -1      4387 9.45321E+00 1.64761E+00 6.41447E-01-1.13725E+00-8.99661E-02-3.28383E-02
 -1      4388-9.84552E-01 8.30697E-01 4.96374E-01-5.69817E-02 1.35540E+00-3.94191E-01
 -1      4389-2.36021E+00 8.28999E-01 4.99743E-01-1.08010E-01 1.35591E+00-2.47909E-01
 -1      4390-2.30353E+00 8.27878E-01 4.95602E-01-8.45993E-02 1.34373E+00-2.41160E-01
 -1      4391 1.15679E+00 9.97165E-01 4.84717E-01-5.56627E-02 1.62492E+00-3.07505E-01
 -1      4392 1.12924E+00 9.73397E-01 5.85054E-01-6.00906E-02 1.59454E+00-5.52869E-01
 -1      4393 1.03672E+00 9.51295E-01 4.68522E-01-1.79893E-02 1.64564E+00-4.84824E-01
 -1      4394 1.02564E+00 9.40840E-01 4.33974E-01-2.07589E-02 1.62517E+00-4.49540E-01
 -1      4395 1.97307E+00 9.62287E-01 5.82151E-01-3.62724E-02 1.60577E+00-3.18492E-01
 -1      4396 1.58926E+00 9.74155E-01 5.91978E-01-8.29320E-03 1.61839E+00-3.29491E-01
 -1      4397 1.65567E+00 9.73423E-01 5.87608E-01-2.77534E-02 1.61230E+00-3.03535E-01
 -1      4398 2.00916E+00 9.67990E-01 5.76776E-01-2.07907E-02 1.60120E+00-3.24614E-01
 -1      4399 1.91234E+00 9.70840E-01 5.83237E-01-2.24673E-02 1.60672E+00-3.06067E-01
 -1      4400 2.17623E+00 9.60256E-01 5.72675E-01 2.21133E-03 1.59827E+00-3.33678E-01
 -1      4401 1.81555E+00 9.68867E-01 5.82549E-01-6.85398E-03 1.61312E+00-3.14083E-01
 -1      4402 2.04039E+00 9.67597E-01 5.78698E-01 5.55651E-04 1.60683E+00-3.24198E-01
 -1      4403 7.88191E-01 9.69212E-01 5.93254E-01-3.77865E-02 1.58212E+00-5.50447E-01
 -3
    1PSTEP                         9           1           2          
  100CL  103 2.152079725        4403                     4    3           1
 -4  ERROR       1    1
 -5  STR(%)      1    1    0    0
 -1         1 1.26823E+01
 -1         2 1.08731E+01
 -1         3 1.09256E+01
 -1         4 1.22059E+01
 -1         5 2.09560E+00
 -1         6 2.92111E+00
 -1         7 2.18739E+00
 -1         8 2.50978E+00
 -1         9 1.29757E+01
 -1        10 2.64957E+01
 -1        11 2.02216E+01
 -1        12 1.19244E+01
 -1        13 1.97357E+01
 -1        14 2.33587E+01
 -1        15 1.64520E+01
 -1        16 1.06896E+01
 -1        17 1.06896E+01
 -1        18 8.37557E+00
 -1        19 1.16860E+01
 -1        20 1.06896E+01
 -1        21 9.53260E+00
 -1        22 9.65061E+00
 -1        23 1.71980E+01
 -1        24 2.37627E+01
 -1        25 1.26182E+01
 -1        26 1.47019E+01
 -1        27 2.04803E+01
 -1        28 1.81904E+01
 -1        29 1.17719E+01
 -1        30 1.03481E+01
 -1        31 9.74994E+00
 -1        32 8.96397E+00
 -1        33 1.06106E+01
 -1        34 1.00490E+01
 -1        35 9.35696E+00
 -1        36 1.05849E+01
 -1        37 2.37969E+00
 -1        38 1.32353E+00
 -1        39 2.09560E+00
 -1        40 2.65040E+00
 -1        41 1.85161E+00
 -1        42 1.70957E+00
 -1        43 2.09560E+00
 -1        44 2.36749E+00
 -1        45 2.37944E+00
 -1        46 2.37944E+00
 -1        47 2.23154E+00
 -1        48 2.37346E+00
 -1        49 2.37944E+00
 -1        50 2.28341E+00
 -1        51 2.50978E+00
 -1        52 1.20626E+00
 -1        53 2.18739E+00
 -1        54 2.50978E+00
 -1        55 1.85802E+00
 -1        56 1.69683E+00
 -1        57 2.18739E+00
 -1        58 3.35448E+00
 -1        59 3.35448E+00
 -1        60 3.05570E+00
 -1        61 3.13779E+00
 -1        62 3.35448E+00
 -1        63 3.20509E+00
 -1        64 2.78274E+00
 -1        65 7.52434E+00
 -1        66 7.14973E+00
 -1        67 7.02359E+00
 -1        68 1.10037E+01
 -1        69 7.08157E+00
 -1        70 1.11903E+01
 -1        71 7.19071E+00
 -1        72 7.20506E+00
 -1        73 1.12210E+01
 -1        74 1.02165E+01
 -1        75 7.34841E+00
 -1        76 7.40577E+00
 -1        77 1.15587E+01
 -1        78 7.49851E+00
 -1        79 1.03262E+01
 -1        80 1.16485E+01
 -1        81 7.75745E+00
 -1        82 7.85544E+00
 -1        83 1.22580E+01
 -1        84 8.01511E+00
 -1        85 1.22343E+01
 -1        86 8.28722E+00
 -1        87 1.19039E+01
 -1        88 1.10945E+01
 -1        89 8.87477E+00
 -1        90 1.14788E+01
 -1        91 1.24161E+01
 -1        92 9.13519E+00
 -1        93 4.19994E-01
 -1        94 5.32038E-01
 -1        95 4.34566E-01
 -1        96 3.98443E-01
 -1        97 1.29818E+00
 -1        98 9.19873E+00
 -1        99 7.33704E+00
 -1       100 7.08666E+00
 -1       101 9.01367E+00
 -1       102 9.04266E+00
 -1       103 9.13593E+00
 -1       104 9.19050E+00
 -1       105 7.19789E+00
 -1       106 9.21301E+00
 -1       107 1.07187E+01
 -1       108 8.78244E+00
 -1       109 7.37709E+00
 -1       110 9.48225E+00
 -1       111 9.52862E+00
 -1       112 8.91234E+00
 -1       113 1.09873E+01
 -1       114 9.70298E+00
 -1       115 7.80644E+00
 -1       116 1.00567E+01
 -1       117 1.01366E+01
 -1       118 1.01247E+01
 -1       119 1.02608E+01
 -1       120 1.00956E+01
 -1       121 1.14992E+01
 -1       122 9.98462E+00
 -1       123 1.01768E+01
 -1       124 1.19474E+01
 -1       125 1.07756E+01
 -1       126 4.77759E+00
 -1       127 4.76016E-01
 -1       128 4.83302E-01
 -1       129 4.16505E-01
 -1       130 8.48309E-01
 -1       131 2.10964E+00
 -1       132 1.07513E+01
 -1       133 1.05779E+01
 -1       134 1.13229E+01
 -1       135 1.07037E+01
 -1       136 9.59926E+00
 -1       137 1.06107E+01
 -1       138 9.68509E+00
 -1       139 1.12809E+01
 -1       140 9.70091E+00
 -1       141 9.50752E+00
 -1       142 9.82165E+00
 -1       143 1.09098E+01
 -1       144 9.32919E+00
 -1       145 9.61419E+00
 -1       146 9.34979E+00
 -1       147 9.15547E+00
 -1       148 9.27962E+00
 -1       149 1.00677E+01
 -1       150 8.97128E+00
 -1       151 8.50063E+00
 -1       152 9.31908E+00
 -1       153 9.60287E+00
 -1       154 8.62478E+00
 -1       155 7.69281E+00
 -1       156 8.67635E+00
 -1       157 7.49384E+00
 -1       158 6.52870E+00
 -1       159 6.62108E+00
 -1       160 5.40806E+00
 -1       161 3.51206E+00
 -1       162 1.56009E+00
 -1       163 4.53164E-01
 -1       164 6.65109E-01
 -1       165 1.17168E+01
 -1       166 1.06646E+01
 -1       167 1.09504E+01
 -1       168 1.10133E+01
 -1       169 1.01515E+01
 -1       170 1.01050E+01
 -1       171 1.01479E+01
 -1       172 1.04830E+01
 -1       173 1.04909E+01
 -1       174 9.60422E+00
 -1       175 9.66459E+00
 -1       176 1.03657E+01
 -1       177 1.01195E+01
 -1       178 9.47169E+00
 -1       179 9.48199E+00
 -1       180 9.25263E+00
 -1       181 9.21755E+00
 -1       182 9.67367E+00
 -1       183 9.51949E+00
 -1       184 8.73596E+00
 -1       185 8.90986E+00
 -1       186 9.46098E+00
 -1       187 9.11383E+00
 -1       188 8.15880E+00
 -1       189 8.18458E+00
 -1       190 8.08510E+00
 -1       191 7.01127E+00
 -1       192 6.57489E+00
 -1       193 6.01457E+00
 -1       194 4.46006E+00
 -1       195 2.53607E+00
 -1       196 1.00663E+00
 -1       197 5.59137E-01
 -1       198 1.38035E+00
 -1       199 1.07399E+01
 -1       200 1.07399E+01
 -1       201 1.16730E+01
 -1       202 9.95907E+00
 -1       203 1.00207E+01
 -1       204 1.01139E+01
 -1       205 1.05113E+01
 -1       206 1.16973E+01
 -1       207 1.02081E+01
 -1       208 1.02684E+01
 -1       209 1.08627E+01
 -1       210 1.20412E+01
 -1       211 1.06595E+01
 -1       212 1.08314E+01
 -1       213 1.08699E+01
 -1       214 1.08178E+01
 -1       215 1.16632E+01
 -1       216 1.27987E+01
 -1       217 1.12688E+01
 -1       218 1.13696E+01
 -1       219 1.21203E+01
 -1       220 1.27192E+01
 -1       221 1.36687E+01
 -1       222 1.31019E+01
 -1       223 1.40417E+01
 -1       224 1.19714E+01
 -1       225 1.17125E+01
 -1       226 3.68158E-01
 -1       227 5.31582E-01
 -1       228 4.59297E-01
 -1       229 4.17470E-01
 -1       230 3.53392E-01
 -1       231 6.20156E-01
 -1       232 1.14729E+01
 -1       233 1.07399E+01
 -1       234 1.12065E+01
 -1       235 1.08161E+01
 -1       236 9.98991E+00
 -1       237 1.00673E+01
 -1       238 1.03126E+01
 -1       239 1.11043E+01
 -1       240 1.09527E+01
 -1       241 1.02382E+01
 -1       242 1.05656E+01
 -1       243 1.14519E+01
 -1       244 1.13503E+01
 -1       245 1.07454E+01
 -1       246 1.08506E+01
 -1       247 1.08438E+01
 -1       248 1.12405E+01
 -1       249 1.22309E+01
 -1       250 1.20338E+01
 -1       251 1.13192E+01
 -1       252 1.17450E+01
 -1       253 1.24198E+01
 -1       254 1.31939E+01
 -1       255 1.33853E+01
 -1       256 1.35718E+01
 -1       257 1.30066E+01
 -1       258 1.18419E+01
 -1       259 6.04031E+00
 -1       260 4.49870E-01
 -1       261 4.95440E-01
 -1       262 4.38384E-01
 -1       263 3.85431E-01
 -1       264 4.86774E-01
 -1       265 1.56497E+00
 -1       266 7.11190E+00
 -1       267 7.11190E+00
 -1       268 6.99242E+00
 -1       269 1.09648E+01
 -1       270 6.84051E+00
 -1       271 1.08282E+01
 -1       272 6.97966E+00
 -1       273 6.99488E+00
 -1       274 1.08266E+01
 -1       275 9.63814E+00
 -1       276 6.91975E+00
 -1       277 6.88650E+00
 -1       278 1.05702E+01
 -1       279 6.64640E+00
 -1       280 9.18523E+00
 -1       281 1.01549E+01
 -1       282 6.68528E+00
 -1       283 6.68003E+00
 -1       284 6.60332E+00
 -1       285 6.54713E+00
 -1       286 9.39074E+00
 -1       287 6.40520E+00
 -1       288 8.53572E+00
 -1       289 7.78944E+00
 -1       290 6.06958E+00
 -1       291 7.29030E+00
 -1       292 7.53251E+00
 -1       293 7.42037E+00
 -1       294 5.45273E+00
 -1       295 4.60987E+00
 -1       296 3.48119E+00
 -1       297 8.23371E-01
 -1       298 9.63795E-01
 -1       299 9.01877E+00
 -1       300 7.11190E+00
 -1       301 7.05216E+00
 -1       302 8.97861E+00
 -1       303 8.90265E+00
 -1       304 8.83437E+00
 -1       305 8.90394E+00
 -1       306 6.98727E+00
 -1       307 8.91074E+00
 -1       308 1.02324E+01
 -1       309 8.27895E+00
 -1       310 6.90313E+00
 -1       311 8.72833E+00
 -1       312 8.60828E+00
 -1       313 7.91581E+00
 -1       314 9.67008E+00
 -1       315 8.42010E+00
 -1       316 6.68265E+00
 -1       317 6.64167E+00
 -1       318 6.57523E+00
 -1       319 7.96894E+00
 -1       320 7.89797E+00
 -1       321 7.47046E+00
 -1       322 8.16258E+00
 -1       323 6.92951E+00
 -1       324 6.67994E+00
 -1       325 7.41141E+00
 -1       326 7.47644E+00
 -1       327 6.43655E+00
 -1       328 5.03130E+00
 -1       329 4.04553E+00
 -1       330 2.15228E+00
 -1       331 8.93583E-01
 -1       332 1.57559E+00
 -1       333 3.17182E+01
 -1       334 3.14721E+01
 -1       335 1.30228E+01
 -1       336 2.83407E+01
 -1       337 3.33802E+01
 -1       338 2.08860E+01
 -1       339 3.17182E+01
 -1       340 1.84504E+01
 -1       341 1.08383E+01
 -1       342 3.33802E+01
 -1       343 1.60994E+01
 -1       344 1.25509E+01
 -1       345 1.08731E+01
 -1       346 1.15672E+01
 -1       347 3.33802E+01
 -1       348 1.43909E+01
 -1       349 1.81605E+01
 -1       350 1.33945E+01
 -1       351 1.19244E+01
 -1       352 1.08731E+01
 -1       353 1.06106E+01
 -1       354 1.12464E+01
 -1       355 9.97140E+00
 -1       356 1.20927E+01
 -1       357 1.23784E+01
 -1       358 1.48744E+01
 -1       359 1.07574E+01
 -1       360 2.74182E+01
 -1       361 2.06582E+01
 -1       362 1.96069E+01
 -1       363 2.58468E+01
 -1       364 2.89839E+01
 -1       365 2.99064E+01
 -1       366 2.37857E+01
 -1       367 1.57878E+01
 -1       368 1.57878E+01
 -1       369 1.84927E+01
 -1       370 9.60694E+00
 -1       371 1.07640E+01
 -1       372 1.58621E+01
 -1       373 1.12028E+01
 -1       374 2.44581E+01
 -1       375 2.77404E+01
 -1       376 2.21345E+01
 -1       377 2.77404E+01
 -1       378 2.21682E+01
 -1       379 3.17182E+01
 -1       380 2.16427E+01
 -1       381 1.43993E+01
 -1       382 1.41002E+01
 -1       383 1.46618E+01
 -1       384 1.13864E+01
 -1       385 1.09934E+01
 -1       386 1.57366E+01
 -1       387 1.27868E+01
 -1       388 3.25492E+01
 -1       389 3.25492E+01
 -1       390 2.12783E+01
 -1       391 3.25492E+01
 -1       392 2.21092E+01
 -1       393 3.33802E+01
 -1       394 3.24261E+01
 -1       395 3.08604E+01
 -1       396 2.61790E+01
 -1       397 2.71331E+01
 -1       398 2.23705E+01
 -1       399 2.32015E+01
 -1       400 2.59153E+01
 -1       401 2.59153E+01
 -1       402 2.33956E+01
 -1       403 2.71331E+01
 -1       404 3.33802E+01
 -1       405 3.33802E+01
 -1       406 2.37944E+00
 -1       407 3.05570E+00
 -1       408 1.88689E+00
 -1       409 3.35448E+00
 -1       410 1.77293E+00
 -1       411 1.72145E+00
 -1       412 2.36749E+00
 -1       413 1.90459E+00
 -1       414 2.30555E+00
 -1       415 1.68153E+00
 -1       416 2.36749E+00
 -1       417 3.05570E+00
 -1       418 3.26287E+00
 -1       419 2.35457E+00
 -1       420 1.84536E+00
 -1       421 2.23154E+00
 -1       422 2.23154E+00
 -1       423 2.36749E+00
 -1       424 3.09199E+00
 -1       425 2.82128E+00
 -1       426 3.30868E+00
 -1       427 2.36700E+00
 -1       428 2.27098E+00
 -1       429 2.27098E+00
 -1       430 2.78274E+00
 -1       431 2.78274E+00
 -1       432 3.05570E+00
 -1       433 2.14214E+00
 -1       434 1.61406E+00
 -1       435 2.58373E+00
 -1       436 1.60521E+00
 -1       437 1.99125E+00
 -1       438 1.89574E+00
 -1       439 2.12719E+00
 -1       440 2.36749E+00
 -1       441 2.37346E+00
 -1       442 2.36749E+00
 -1       443 2.37944E+00
 -1       444 2.37944E+00
 -1       445 2.37346E+00
 -1       446 2.36700E+00
 -1       447 1.46386E+00
 -1       448 2.11562E+00
 -1       449 2.38858E+00
 -1       450 2.24647E+00
 -1       451 1.75590E+00
 -1       452 2.01350E+00
 -1       453 2.33006E+00
 -1       454 3.35448E+00
 -1       455 3.35448E+00
 -1       456 3.30868E+00
 -1       457 3.05570E+00
 -1       458 3.20509E+00
 -1       459 3.20509E+00
 -1       460 3.05570E+00
 -1       461 2.10642E+00
 -1       462 2.11240E+00
 -1       463 2.03048E+00
 -1       464 1.99354E+00
 -1       465 2.34249E+00
 -1       466 1.76344E+00
 -1       467 2.41432E+00
 -1       468 2.56370E+00
 -1       469 2.38858E+00
 -1       470 1.74719E+00
 -1       471 2.12719E+00
 -1       472 1.86613E+00
 -1       473 1.87498E+00
 -1       474 1.83876E+00
 -1       475 2.62954E+00
 -1       476 1.70149E+00
 -1       477 1.72723E+00
 -1       478 1.80914E+00
 -1       479 1.35823E+01
 -1       480 1.24161E+01
 -1       481 5.69615E-01
 -1       482 1.56691E+01
 -1       483 1.01015E+01
 -1       484 8.92992E+00
 -1       485 3.51206E+00
 -1       486 1.36523E+01
 -1       487 1.47316E+01
 -1       488 1.51380E+01
 -1       489 2.44397E+01
 -1       490 1.56141E+01
 -1       491 1.55490E+01
 -1       492 1.50276E+01
 -1       493 2.65580E+01
 -1       494 1.46910E+01
 -1       495 5.23627E-01
 -1       496 2.12380E+01
 -1       497 1.02818E+00
 -1       498 2.29460E+01
 -1       499 1.78476E+01
 -1       500 1.54895E+01
 -1       501 2.17694E+01
 -1       502 1.98533E+01
 -1       503 2.93482E+01
 -1       504 1.32353E+00
 -1       505 8.11407E+00
 -1       506 6.62108E+00
 -1       507 1.13230E+01
 -1       508 1.82790E+01
 -1       509 1.15603E+01
 -1       510 2.57549E+01
 -1       511 1.96388E+01
 -1       512 1.46637E+01
 -1       513 2.85535E+01
 -1       514 5.81446E-01
 -1       515 1.41572E+01
 -1       516 9.03079E+00
 -1       517 1.44832E+01
 -1       518 1.61960E+01
 -1       519 1.04200E+01
 -1       520 1.53290E+01
 -1       521 2.00953E+01
 -1       522 2.06843E+01
 -1       523 1.57640E+01
 -1       524 2.43122E+01
 -1       525 1.88127E+01
 -1       526 9.23375E+00
 -1       527 1.28658E+01
 -1       528 1.59232E+01
 -1       529 1.56009E+00
 -1       530 6.21593E-01
 -1       531 2.08596E+01
 -1       532 2.23921E+01
 -1       533 9.40406E-01
 -1       534 2.01058E+01
 -1       535 5.40806E+00
 -1       536 2.05826E+01
 -1       537 1.48276E+01
 -1       538 1.23503E+01
 -1       539 1.43506E+01
 -1       540 9.45366E+00
 -1       541 2.86062E+01
 -1       542 2.84996E+01
 -1       543 2.34263E+01
 -1       544 2.93482E+01
 -1       545 1.70927E+01
 -1       546 2.34364E+01
 -1       547 5.96274E-01
 -1       548 2.40147E+01
 -1       549 1.02818E+00
 -1       550 2.82147E+01
 -1       551 1.75162E+00
 -1       552 2.23230E+00
 -1       553 1.79277E+01
 -1       554 1.36297E+00
 -1       555 1.58839E+01
 -1       556 1.39971E+01
 -1       557 1.53290E+01
 -1       558 1.56691E+01
 -1       559 9.62146E-01
 -1       560 9.62146E-01
 -1       561 3.55203E+00
 -1       562 2.05826E+01
 -1       563 2.05420E+01
 -1       564 2.69343E+01
 -1       565 2.69036E+01
 -1       566 2.68899E+01
 -1       567 2.64909E+01
 -1       568 2.64357E+01
 -1       569 2.38493E+01
 -1       570 5.01227E+00
 -1       571 2.12380E+01
 -1       572 2.30712E+01
 -1       573 1.60673E+01
 -1       574 2.89275E+01
 -1       575 1.90459E+00
 -1       576 1.41582E+01
 -1       577 6.65109E-01
 -1       578 2.93482E+01
 -1       579 1.33355E+01
 -1       580 1.08731E+01
 -1       581 2.37969E+00
 -1       582 2.09560E+00
 -1       583 5.23627E-01
 -1       584 1.67786E+01
 -1       585 1.30089E+01
 -1       586 1.20434E+01
 -1       587 1.08731E+01
 -1       588 1.19244E+01
 -1       589 9.19873E+00
 -1       590 2.09560E+00
 -1       591 2.09560E+00
 -1       592 1.38035E+00
 -1       593 2.37969E+00
 -1       594 2.65040E+00
 -1       595 1.83893E+00
 -1       596 2.11620E+01
 -1       597 2.79220E+01
 -1       598 2.01107E+01
 -1       599 2.79220E+01
 -1       600 2.47849E+01
 -1       601 2.93482E+01
 -1       602 2.13419E+01
 -1       603 1.61406E+00
 -1       604 2.14214E+00
 -1       605 2.14214E+00
 -1       606 1.70957E+00
 -1       607 1.32353E+00
 -1       608 1.61406E+00
 -1       609 1.70957E+00
 -1       610 1.06540E+01
 -1       611 1.08413E+01
 -1       612 1.25157E+01
 -1       613 1.08573E+01
 -1       614 1.09204E+01
 -1       615 1.44246E+01
 -1       616 1.53213E+01
 -1       617 1.33312E+01
 -1       618 1.71649E+01
 -1       619 1.08726E+01
 -1       620 1.28337E+01
 -1       621 1.71512E+01
 -1       622 1.29609E+01
 -1       623 1.09066E+01
 -1       624 1.46976E+01
 -1       625 1.36483E+01
 -1       626 1.56480E+01
 -1       627 1.74187E+01
 -1       628 1.11715E+01
 -1       629 1.11644E+01
 -1       630 1.76219E+01
 -1       631 1.56581E+01
 -1       632 1.36502E+01
 -1       633 1.76167E+01
 -1       634 1.26220E+01
 -1       635 1.31243E+01
 -1       636 1.75615E+01
 -1       637 1.10880E+01
 -1       638 1.25220E+01
 -1       639 1.49276E+01
 -1       640 1.15099E+01
 -1       641 1.14812E+01
 -1       642 1.52208E+01
 -1       643 1.61215E+01
 -1       644 1.40450E+01
 -1       645 1.81492E+01
 -1       646 1.16313E+01
 -1       647 1.36614E+01
 -1       648 1.82242E+01
 -1       649 1.29376E+01
 -1       650 1.15238E+01
 -1       651 1.56565E+01
 -1       652 1.37859E+01
 -1       653 1.31247E+01
 -1       654 1.57361E+01
 -1       655 1.44977E+01
 -1       656 1.64432E+01
 -1       657 1.85806E+01
 -1       658 1.20257E+01
 -1       659 1.19767E+01
 -1       660 1.87170E+01
 -1       661 1.64203E+01
 -1       662 1.42190E+01
 -1       663 1.83893E+01
 -1       664 1.18421E+01
 -1       665 1.39636E+01
 -1       666 1.81258E+01
 -1       667 1.37816E+01
 -1       668 1.16720E+01
 -1       669 1.54990E+01
 -1       670 1.32831E+01
 -1       671 1.52566E+01
 -1       672 1.68040E+01
 -1       673 1.31273E+01
 -1       674 1.13189E+01
 -1       675 1.63148E+01
 -1       676 1.23384E+01
 -1       677 1.27431E+01
 -1       678 1.39665E+01
 -1       679 1.15160E+01
 -1       680 1.26259E+01
 -1       681 1.38698E+01
 -1       682 1.15196E+01
 -1       683 1.02176E+01
 -1       684 1.28588E+01
 -1       685 1.26410E+01
 -1       686 1.21723E+01
 -1       687 1.22131E+01
 -1       688 1.07756E+01
 -1       689 1.24161E+01
 -1       690 1.26410E+01
 -1       691 6.80200E-01
 -1       692 5.03780E+00
 -1       693 6.67825E+00
 -1       694 5.76815E-01
 -1       695 5.20793E-01
 -1       696 7.80999E-01
 -1       697 7.31371E-01
 -1       698 7.80107E-01
 -1       699 8.24885E-01
 -1       700 4.89945E-01
 -1       701 5.08006E-01
 -1       702 8.04811E-01
 -1       703 9.10901E-01
 -1       704 4.61035E-01
 -1       705 5.52537E-01
 -1       706 1.45166E+00
 -1       707 1.86546E+01
 -1       708 1.85680E+01
 -1       709 1.99468E+01
 -1       710 1.81664E+01
 -1       711 1.85389E+01
 -1       712 2.61565E+01
 -1       713 1.78813E+01
 -1       714 1.75717E+01
 -1       715 2.50973E+01
 -1       716 1.73592E+01
 -1       717 1.68070E+01
 -1       718 2.42272E+01
 -1       719 1.65128E+01
 -1       720 1.70185E+01
 -1       721 2.37205E+01
 -1       722 1.67784E+01
 -1       723 1.63156E+01
 -1       724 2.31862E+01
 -1       725 1.60386E+01
 -1       726 1.68365E+01
 -1       727 2.26691E+01
 -1       728 1.65251E+01
 -1       729 1.57351E+01
 -1       730 2.20808E+01
 -1       731 1.52802E+01
 -1       732 1.51835E+01
 -1       733 2.13145E+01
 -1       734 1.46804E+01
 -1       735 1.48375E+01
 -1       736 2.03564E+01
 -1       737 1.43172E+01
 -1       738 1.48612E+01
 -1       739 1.93330E+01
 -1       740 1.43787E+01
 -1       741 1.35884E+01
 -1       742 1.83302E+01
 -1       743 1.32110E+01
 -1       744 1.33535E+01
 -1       745 1.74702E+01
 -1       746 1.28407E+01
 -1       747 1.27085E+01
 -1       748 1.65800E+01
 -1       749 1.24197E+01
 -1       750 1.23225E+01
 -1       751 1.57784E+01
 -1       752 1.18193E+01
 -1       753 1.18814E+01
 -1       754 1.49864E+01
 -1       755 1.14660E+01
 -1       756 1.18600E+01
 -1       757 1.40677E+01
 -1       758 1.12090E+01
 -1       759 1.06608E+01
 -1       760 1.30013E+01
 -1       761 1.01472E+01
 -1       762 9.91184E+00
 -1       763 1.18367E+01
 -1       764 9.46032E+00
 -1       765 9.86954E+00
 -1       766 1.08715E+01
 -1       767 9.71027E+00
 -1       768 9.85217E+00
 -1       769 1.02607E+01
 -1       770 9.52826E+00
 -1       771 9.03922E+00
 -1       772 9.77756E+00
 -1       773 8.36942E+00
 -1       774 7.90344E+00
 -1       775 8.78386E+00
 -1       776 8.36180E+00
 -1       777 8.85357E+00
 -1       778 8.57243E+00
 -1       779 8.80314E+00
 -1       780 8.21188E+00
 -1       781 8.98036E+00
 -1       782 8.36380E+00
 -1       783 7.88123E+00
 -1       784 9.08184E+00
 -1       785 6.57489E+00
 -1       786 6.62108E+00
 -1       787 7.92742E+00
 -1       788 6.01457E+00
 -1       789 5.40806E+00
 -1       790 6.01457E+00
 -1       791 4.46006E+00
 -1       792 3.51206E+00
 -1       793 4.46006E+00
 -1       794 2.53607E+00
 -1       795 1.56009E+00
 -1       796 2.53607E+00
 -1       797 1.06485E+00
 -1       798 5.11390E-01
 -1       799 1.06485E+00
 -1       800 5.59137E-01
 -1       801 6.65109E-01
 -1       802 6.17362E-01
 -1       803 1.38035E+00
 -1       804 9.58475E+00
 -1       805 9.29731E+00
 -1       806 1.37897E+01
 -1       807 1.41739E+01
 -1       808 9.50467E+00
 -1       809 7.08385E+00
 -1       810 7.30873E+00
 -1       811 1.15169E+00
 -1       812 6.88953E+00
 -1       813 1.55729E+00
 -1       814 1.29413E+00
 -1       815 7.98896E-01
 -1       816 5.82944E-01
 -1       817 8.12225E-01
 -1       818 6.30691E-01
 -1       819 1.54990E+01
 -1       820 1.56691E+01
 -1       821 1.57765E+01
 -1       822 1.82333E+01
 -1       823 1.57765E+01
 -1       824 1.28745E+01
 -1       825 1.27152E+01
 -1       826 1.40146E+01
 -1       827 1.36907E+01
 -1       828 1.66283E+01
 -1       829 6.29141E+00
 -1       830 6.24098E+00
 -1       831 5.58111E+00
 -1       832 5.73303E+00
 -1       833 2.89217E+00
 -1       834 2.23710E+00
 -1       835 1.26112E+00
 -1       836 3.18510E+00
 -1       837 2.23710E+00
 -1       838 9.62146E-01
 -1       839 1.78606E+01
 -1       840 1.74451E+01
 -1       841 1.71174E+01
 -1       842 1.64665E+01
 -1       843 2.09103E+01
 -1       844 2.16426E+01
 -1       845 2.16086E+01
 -1       846 2.14731E+01
 -1       847 2.83841E+01
 -1       848 2.41602E+01
 -1       849 2.34995E+01
 -1       850 2.10208E+01
 -1       851 2.10361E+01
 -1       852 2.35200E+01
 -1       853 2.69190E+01
 -1       854 2.71272E+01
 -1       855 2.64696E+01
 -1       856 2.87136E+01
 -1       857 2.66836E+01
 -1       858 2.64711E+01
 -1       859 2.22668E+01
 -1       860 1.97317E+01
 -1       861 2.10525E+01
 -1       862 2.06593E+01
 -1       863 2.51701E+01
 -1       864 1.99306E+01
 -1       865 2.00381E+01
 -1       866 1.94927E+01
 -1       867 2.38743E+01
 -1       868 1.96798E+01
 -1       869 2.07317E+01
 -1       870 2.32655E+01
 -1       871 2.08587E+01
 -1       872 2.09587E+01
 -1       873 2.66628E+01
 -1       874 2.75821E+01
 -1       875 2.71806E+01
 -1       876 2.79531E+01
 -1       877 2.89772E+01
 -1       878 2.79531E+01
 -1       879 2.93482E+01
 -1       880 2.40692E+01
 -1       881 2.15953E+01
 -1       882 2.16486E+01
 -1       883 2.85529E+01
 -1       884 2.13822E+01
 -1       885 5.59950E-01
 -1       886 5.88860E-01
 -1       887 5.23627E-01
 -1       888 5.59950E-01
 -1       889 1.21411E+00
 -1       890 1.21411E+00
 -1       891 1.87170E+01
 -1       892 2.12380E+01
 -1       893 2.08900E+01
 -1       894 1.82326E+01
 -1       895 2.08900E+01
 -1       896 8.04811E-01
 -1       897 1.02818E+00
 -1       898 9.95161E-01
 -1       899 7.91869E-01
 -1       900 9.95161E-01
 -1       901 2.49402E+01
 -1       902 2.46632E+01
 -1       903 2.58205E+01
 -1       904 2.55803E+01
 -1       905 2.75745E+01
 -1       906 2.13310E+01
 -1       907 2.08485E+01
 -1       908 2.04594E+01
 -1       909 2.00819E+01
 -1       910 2.34602E+01
 -1       911 1.80158E+01
 -1       912 1.75126E+01
 -1       913 1.94629E+01
 -1       914 2.19892E+01
 -1       915 1.97518E+01
 -1       916 2.41026E+01
 -1       917 2.36476E+01
 -1       918 2.46479E+01
 -1       919 2.43365E+01
 -1       920 2.66697E+01
 -1       921 2.31721E+01
 -1       922 2.26518E+01
 -1       923 2.38747E+01
 -1       924 2.33716E+01
 -1       925 2.66904E+01
 -1       926 2.93482E+01
 -1       927 2.17532E+01
 -1       928 2.17532E+01
 -1       929 9.23581E-01
 -1       930 9.94321E-01
 -1       931 5.94368E-01
 -1       932 6.56317E+00
 -1       933 7.02153E+00
 -1       934 1.17254E+01
 -1       935 1.10556E+01
 -1       936 5.49269E+00
 -1       937 4.18635E+00
 -1       938 3.99202E+00
 -1       939 3.38551E+00
 -1       940 1.34961E+01
 -1       941 1.30445E+01
 -1       942 1.41171E+01
 -1       943 1.36035E+01
 -1       944 1.68040E+01
 -1       945 1.53290E+01
 -1       946 1.61392E+01
 -1       947 1.81033E+01
 -1       948 7.55619E+00
 -1       949 8.85463E+00
 -1       950 7.54907E+00
 -1       951 6.89632E+00
 -1       952 2.17956E+01
 -1       953 2.42832E+01
 -1       954 2.87405E+01
 -1       955 2.59899E+01
 -1       956 2.62841E+01
 -1       957 4.28215E+00
 -1       958 2.05826E+01
 -1       959 1.83893E+01
 -1       960 1.54990E+01
 -1       961 1.94176E+01
 -1       962 2.18777E+01
 -1       963 2.36917E+01
 -1       964 2.07024E+01
 -1       965 2.01897E+01
 -1       966 1.99196E+00
 -1       967 7.91869E-01
 -1       968 9.51276E-01
 -1       969 1.16256E+00
 -1       970 1.82333E+01
 -1       971 1.59624E+01
 -1       972 1.41272E+01
 -1       973 7.92865E-01
 -1       974 8.23371E-01
 -1       975 1.57468E+01
 -1       976 1.55319E+01
 -1       977 1.60887E+01
 -1       978 4.60987E+00
 -1       979 1.25456E+01
 -1       980 2.78134E+01
 -1       981 2.77920E+01
 -1       982 1.44650E+01
 -1       983 2.57156E+01
 -1       984 2.45322E+01
 -1       985 2.70571E+01
 -1       986 1.38223E+01
 -1       987 2.60432E+01
 -1       988 6.16636E-01
 -1       989 9.51430E+00
 -1       990 2.26272E+01
 -1       991 7.43118E-01
 -1       992 1.10455E+01
 -1       993 7.77668E+00
 -1       994 9.88503E+00
 -1       995 1.90134E+01
 -1       996 1.78298E+01
 -1       997 1.28936E+01
 -1       998 1.88169E+01
 -1       999 1.36048E+01
 -1      1000 3.05804E+01
 -1      1001 1.20626E+00
 -1      1002 1.45175E+01
 -1      1003 2.66965E+01
 -1      1004 2.75233E+01
 -1      1005 2.79487E+01
 -1      1006 7.43118E-01
 -1      1007 1.50561E+01
 -1      1008 7.53251E+00
 -1      1009 1.16434E+01
 -1      1010 1.60567E+01
 -1      1011 2.13323E+01
 -1      1012 1.56075E+01
 -1      1013 1.50005E+01
 -1      1014 2.76940E+01
 -1      1015 2.52991E+01
 -1      1016 2.52957E+01
 -1      1017 2.45322E+01
 -1      1018 1.39966E+01
 -1      1019 1.05289E+01
 -1      1020 1.17125E+01
 -1      1021 2.35479E+01
 -1      1022 3.48119E+00
 -1      1023 8.03364E-01
 -1      1024 1.40106E+01
 -1      1025 1.45231E+01
 -1      1026 6.34857E-01
 -1      1027 9.15681E+00
 -1      1028 2.76510E+01
 -1      1029 1.97060E+01
 -1      1030 2.66412E+01
 -1      1031 6.96642E+00
 -1      1032 1.46034E+01
 -1      1033 7.56956E+00
 -1      1034 2.90449E+01
 -1      1035 2.90449E+01
 -1      1036 1.44659E+01
 -1      1037 2.09735E+01
 -1      1038 1.34774E+01
 -1      1039 2.35479E+01
 -1      1040 5.85294E-01
 -1      1041 1.45269E+01
 -1      1042 7.34810E-01
 -1      1043 2.81684E+01
 -1      1044 4.75198E+00
 -1      1045 3.08652E+00
 -1      1046 7.56956E+00
 -1      1047 9.03588E-01
 -1      1048 1.10455E+01
 -1      1049 1.97060E+01
 -1      1050 1.04232E+01
 -1      1051 9.49961E+00
 -1      1052 1.71829E+00
 -1      1053 6.36477E+00
 -1      1054 2.26272E+01
 -1      1055 2.78666E+01
 -1      1056 2.77920E+01
 -1      1057 1.20304E+01
 -1      1058 2.70571E+01
 -1      1059 2.66412E+01
 -1      1060 2.76940E+01
 -1      1061 1.16434E+01
 -1      1062 8.57205E+00
 -1      1063 2.57156E+01
 -1      1064 2.13323E+01
 -1      1065 2.52957E+01
 -1      1066 1.28826E+01
 -1      1067 2.86478E+01
 -1      1068 1.47102E+00
 -1      1069 2.40980E+01
 -1      1070 7.73460E-01
 -1      1071 3.05804E+01
 -1      1072 1.09256E+01
 -1      1073 1.48015E+01
 -1      1074 2.50978E+00
 -1      1075 2.18739E+00
 -1      1076 6.58799E-01
 -1      1077 1.09256E+01
 -1      1078 1.17719E+01
 -1      1079 9.01877E+00
 -1      1080 1.59997E+01
 -1      1081 1.35037E+01
 -1      1082 1.27707E+01
 -1      1083 2.18739E+00
 -1      1084 2.18739E+00
 -1      1085 1.57559E+00
 -1      1086 2.50978E+00
 -1      1087 2.50978E+00
 -1      1088 1.56497E+00
 -1      1089 2.71715E+01
 -1      1090 2.38892E+01
 -1      1091 2.26910E+01
 -1      1092 1.67958E+01
 -1      1093 2.23681E+01
 -1      1094 2.57769E+01
 -1      1095 1.59496E+01
 -1      1096 1.99040E+00
 -1      1097 1.33864E+00
 -1      1098 1.99040E+00
 -1      1099 1.20626E+00
 -1      1100 1.69683E+00
 -1      1101 1.33864E+00
 -1      1102 1.69683E+00
 -1      1103 1.74189E+01
 -1      1104 1.74189E+01
 -1      1105 1.94498E+01
 -1      1106 1.83915E+01
 -1      1107 1.88581E+01
 -1      1108 2.50706E+01
 -1      1109 1.91848E+01
 -1      1110 1.83278E+01
 -1      1111 2.63699E+01
 -1      1112 1.87412E+01
 -1      1113 1.87720E+01
 -1      1114 2.71099E+01
 -1      1115 1.89171E+01
 -1      1116 1.89637E+01
 -1      1117 2.76683E+01
 -1      1118 1.88825E+01
 -1      1119 1.90812E+01
 -1      1120 2.77322E+01
 -1      1121 1.91516E+01
 -1      1122 1.97446E+01
 -1      1123 2.77215E+01
 -1      1124 1.96956E+01
 -1      1125 1.89510E+01
 -1      1126 2.77430E+01
 -1      1127 1.86326E+01
 -1      1128 1.86627E+01
 -1      1129 2.73755E+01
 -1      1130 1.84548E+01
 -1      1131 1.87520E+01
 -1      1132 2.68491E+01
 -1      1133 1.82892E+01
 -1      1134 1.88784E+01
 -1      1135 2.61784E+01
 -1      1136 1.86701E+01
 -1      1137 1.79793E+01
 -1      1138 2.55074E+01
 -1      1139 1.79776E+01
 -1      1140 1.80635E+01
 -1      1141 2.52974E+01
 -1      1142 1.76818E+01
 -1      1143 1.77010E+01
 -1      1144 2.49139E+01
 -1      1145 1.72089E+01
 -1      1146 1.71828E+01
 -1      1147 2.40400E+01
 -1      1148 1.67225E+01
 -1      1149 1.71452E+01
 -1      1150 2.30876E+01
 -1      1151 1.64977E+01
 -1      1152 1.70655E+01
 -1      1153 2.19798E+01
 -1      1154 1.62523E+01
 -1      1155 1.54874E+01
 -1      1156 2.05191E+01
 -1      1157 1.35078E+01
 -1      1158 1.35582E+01
 -1      1159 1.77264E+01
 -1      1160 1.34885E+01
 -1      1161 1.38639E+01
 -1      1162 1.56771E+01
 -1      1163 1.38261E+01
 -1      1164 1.41255E+01
 -1      1165 1.55697E+01
 -1      1166 1.36613E+01
 -1      1167 1.41360E+01
 -1      1168 1.50676E+01
 -1      1169 1.38979E+01
 -1      1170 1.36145E+01
 -1      1171 1.43653E+01
 -1      1172 1.40790E+01
 -1      1173 1.45489E+01
 -1      1174 1.45917E+01
 -1      1175 1.50652E+01
 -1      1176 1.40301E+01
 -1      1177 1.55724E+01
 -1      1178 1.18419E+01
 -1      1179 1.17125E+01
 -1      1180 1.39006E+01
 -1      1181 6.25266E+00
 -1      1182 5.80512E-01
 -1      1183 6.25266E+00
 -1      1184 5.01507E-01
 -1      1185 5.83219E-01
 -1      1186 7.13861E-01
 -1      1187 6.67473E-01
 -1      1188 6.31331E-01
 -1      1189 7.19111E-01
 -1      1190 6.01208E-01
 -1      1191 5.80294E-01
 -1      1192 7.73241E-01
 -1      1193 5.80294E-01
 -1      1194 5.48255E-01
 -1      1195 7.43118E-01
 -1      1196 4.85014E-01
 -1      1197 6.18396E-01
 -1      1198 6.79877E-01
 -1      1199 1.56321E+00
 -1      1200 1.04671E+01
 -1      1201 1.04671E+01
 -1      1202 1.23740E+01
 -1      1203 1.07550E+01
 -1      1204 1.08147E+01
 -1      1205 1.41699E+01
 -1      1206 1.27149E+01
 -1      1207 1.07287E+01
 -1      1208 1.44912E+01
 -1      1209 1.06837E+01
 -1      1210 1.27458E+01
 -1      1211 1.44959E+01
 -1      1212 1.26471E+01
 -1      1213 1.06532E+01
 -1      1214 1.44964E+01
 -1      1215 1.29965E+01
 -1      1216 1.49208E+01
 -1      1217 1.67396E+01
 -1      1218 1.07590E+01
 -1      1219 1.07514E+01
 -1      1220 1.67682E+01
 -1      1221 1.48218E+01
 -1      1222 1.29059E+01
 -1      1223 1.66700E+01
 -1      1224 1.18243E+01
 -1      1225 1.24186E+01
 -1      1226 1.64137E+01
 -1      1227 1.02623E+01
 -1      1228 1.16215E+01
 -1      1229 1.38077E+01
 -1      1230 1.04415E+01
 -1      1231 1.04582E+01
 -1      1232 1.38007E+01
 -1      1233 1.42000E+01
 -1      1234 1.23581E+01
 -1      1235 1.59132E+01
 -1      1236 1.00619E+01
 -1      1237 1.20238E+01
 -1      1238 1.56536E+01
 -1      1239 1.10339E+01
 -1      1240 9.76451E+00
 -1      1241 1.31800E+01
 -1      1242 1.15242E+01
 -1      1243 1.10394E+01
 -1      1244 1.28881E+01
 -1      1245 1.13710E+01
 -1      1246 1.31058E+01
 -1      1247 1.44751E+01
 -1      1248 9.61283E+00
 -1      1249 9.61545E+00
 -1      1250 1.43012E+01
 -1      1251 1.08019E+01
 -1      1252 1.08403E+01
 -1      1253 1.37731E+01
 -1      1254 9.09528E+00
 -1      1255 9.12337E+00
 -1      1256 1.33220E+01
 -1      1257 1.02181E+01
 -1      1258 8.79631E+00
 -1      1259 1.13445E+01
 -1      1260 8.46705E+00
 -1      1261 9.95982E+00
 -1      1262 1.07872E+01
 -1      1263 9.21038E+00
 -1      1264 8.14511E+00
 -1      1265 1.02070E+01
 -1      1266 8.47313E+00
 -1      1267 8.84627E+00
 -1      1268 9.52092E+00
 -1      1269 7.79194E+00
 -1      1270 8.65187E+00
 -1      1271 9.33556E+00
 -1      1272 7.42993E+00
 -1      1273 6.81957E+00
 -1      1274 8.54193E+00
 -1      1275 7.65460E+00
 -1      1276 7.53349E+00
 -1      1277 7.67312E+00
 -1      1278 7.47644E+00
 -1      1279 7.53251E+00
 -1      1280 7.65460E+00
 -1      1281 6.20958E+00
 -1      1282 7.19339E+00
 -1      1283 7.24947E+00
 -1      1284 4.60987E+00
 -1      1285 5.03130E+00
 -1      1286 5.78814E+00
 -1      1287 3.48119E+00
 -1      1288 4.04553E+00
 -1      1289 4.04553E+00
 -1      1290 8.23371E-01
 -1      1291 2.15228E+00
 -1      1292 2.15228E+00
 -1      1293 8.68628E-01
 -1      1294 7.98415E-01
 -1      1295 7.98415E-01
 -1      1296 1.48043E+00
 -1      1297 1.13496E+01
 -1      1298 1.18141E+01
 -1      1299 1.20515E+01
 -1      1300 1.18134E+01
 -1      1301 9.03583E+00
 -1      1302 8.23221E+00
 -1      1303 2.77242E+00
 -1      1304 1.93970E+00
 -1      1305 1.86069E+00
 -1      1306 3.91925E+00
 -1      1307 7.79090E-01
 -1      1308 2.10800E+00
 -1      1309 6.60052E-01
 -1      1310 7.04332E-01
 -1      1311 6.79377E-01
 -1      1312 1.36951E+01
 -1      1313 1.36254E+01
 -1      1314 1.58682E+01
 -1      1315 1.38886E+01
 -1      1316 1.18369E+01
 -1      1317 1.33265E+01
 -1      1318 1.32887E+01
 -1      1319 1.29775E+01
 -1      1320 1.25133E+01
 -1      1321 1.07343E+01
 -1      1322 1.13128E+01
 -1      1323 1.18291E+01
 -1      1324 1.12267E+01
 -1      1325 9.03861E+00
 -1      1326 6.96717E+00
 -1      1327 2.19239E+00
 -1      1328 2.75673E+00
 -1      1329 3.16408E+00
 -1      1330 4.34235E+00
 -1      1331 1.31094E+00
 -1      1332 1.69390E+01
 -1      1333 1.86945E+01
 -1      1334 1.73532E+01
 -1      1335 1.61258E+01
 -1      1336 2.05191E+01
 -1      1337 2.77360E+01
 -1      1338 2.78810E+01
 -1      1339 2.80585E+01
 -1      1340 2.79909E+01
 -1      1341 2.79097E+01
 -1      1342 2.77920E+01
 -1      1343 2.77430E+01
 -1      1344 2.77588E+01
 -1      1345 2.78293E+01
 -1      1346 2.78293E+01
 -1      1347 2.17549E+01
 -1      1348 2.17812E+01
 -1      1349 2.15564E+01
 -1      1350 2.88463E+01
 -1      1351 2.15874E+01
 -1      1352 2.57156E+01
 -1      1353 2.55074E+01
 -1      1354 2.66412E+01
 -1      1355 2.61784E+01
 -1      1356 2.61784E+01
 -1      1357 2.49139E+01
 -1      1358 2.45322E+01
 -1      1359 2.40400E+01
 -1      1360 2.40400E+01
 -1      1361 2.35479E+01
 -1      1362 2.76940E+01
 -1      1363 2.73755E+01
 -1      1364 2.70571E+01
 -1      1365 2.68491E+01
 -1      1366 2.73755E+01
 -1      1367 2.17812E+01
 -1      1368 2.14336E+01
 -1      1369 2.98126E+01
 -1      1370 2.22013E+01
 -1      1371 2.57769E+01
 -1      1372 1.73979E+01
 -1      1373 2.75440E+01
 -1      1374 2.78707E+01
 -1      1375 2.90449E+01
 -1      1376 2.75440E+01
 -1      1377 2.65714E+01
 -1      1378 6.64206E-01
 -1      1379 6.00965E-01
 -1      1380 6.22046E-01
 -1      1381 6.37717E-01
 -1      1382 1.04383E+00
 -1      1383 1.06491E+00
 -1      1384 9.04317E+00
 -1      1385 8.86443E+00
 -1      1386 7.56956E+00
 -1      1387 8.54193E+00
 -1      1388 8.07080E+00
 -1      1389 2.19798E+01
 -1      1390 2.13323E+01
 -1      1391 2.30876E+01
 -1      1392 2.26272E+01
 -1      1393 2.19798E+01
 -1      1394 7.38964E-01
 -1      1395 7.38964E-01
 -1      1396 8.53476E-01
 -1      1397 8.23353E-01
 -1      1398 8.19199E-01
 -1      1399 1.13445E+01
 -1      1400 1.16434E+01
 -1      1401 1.07872E+01
 -1      1402 1.10455E+01
 -1      1403 1.13445E+01
 -1      1404 6.14225E+00
 -1      1405 6.26433E+00
 -1      1406 7.07073E+00
 -1      1407 6.96717E+00
 -1      1408 5.55838E+00
 -1      1409 1.01541E+01
 -1      1410 1.04760E+01
 -1      1411 9.32821E+00
 -1      1412 9.69232E+00
 -1      1413 9.96138E+00
 -1      1414 2.11948E+01
 -1      1415 2.34400E+01
 -1      1416 2.35909E+01
 -1      1417 2.13171E+01
 -1      1418 2.80175E+01
 -1      1419 2.17727E+01
 -1      1420 1.98561E+01
 -1      1421 1.93866E+01
 -1      1422 2.15628E+01
 -1      1423 2.55057E+01
 -1      1424 1.93420E+01
 -1      1425 1.77604E+01
 -1      1426 2.30876E+01
 -1      1427 1.82207E+01
 -1      1428 1.82153E+01
 -1      1429 2.08523E+01
 -1      1430 2.32554E+01
 -1      1431 2.33044E+01
 -1      1432 2.11575E+01
 -1      1433 2.77430E+01
 -1      1434 2.03189E+01
 -1      1435 2.01230E+01
 -1      1436 2.03309E+01
 -1      1437 2.05338E+01
 -1      1438 2.68491E+01
 -1      1439 3.05804E+01
 -1      1440 2.73392E+01
 -1      1441 2.73392E+01
 -1      1442 9.32530E-01
 -1      1443 9.89861E-01
 -1      1444 7.16130E-01
 -1      1445 2.76722E+01
 -1      1446 2.80855E+01
 -1      1447 2.82982E+01
 -1      1448 2.12378E+01
 -1      1449 2.12073E+01
 -1      1450 5.02647E+00
 -1      1451 5.30952E+00
 -1      1452 1.18369E+01
 -1      1453 1.35155E+01
 -1      1454 2.05191E+01
 -1      1455 1.97060E+01
 -1      1456 1.58682E+01
 -1      1457 2.52974E+01
 -1      1458 2.52957E+01
 -1      1459 2.49139E+01
 -1      1460 1.90048E+01
 -1      1461 1.87074E+01
 -1      1462 1.17657E+00
 -1      1463 1.26083E+00
 -1      1464 2.40241E+00
 -1      1465 1.35670E+01
 -1      1466 1.28658E+01
 -1      1467 8.34740E-01
 -1      1468 9.00766E-01
 -1      1469 1.29434E+01
 -1      1470 1.50561E+01
 -1      1471 1.26590E+01
 -1      1472 1.29235E+01
 -1      1473 1.17562E+01
 -1      1474 1.96362E+01
 -1      1475 1.27787E+01
 -1      1476 9.76477E+00
 -1      1477 1.09125E+01
 -1      1478 1.25323E+01
 -1      1479 1.52635E+01
 -1      1480 9.40406E-01
 -1      1481 7.16219E-01
 -1      1482 1.21661E+01
 -1      1483 1.36214E+00
 -1      1484 1.49777E+01
 -1      1485 2.05723E+01
 -1      1486 2.05730E+01
 -1      1487 1.39261E+01
 -1      1488 1.13971E+01
 -1      1489 3.35448E+00
 -1      1490 1.60887E+01
 -1      1491 1.41572E+01
 -1      1492 1.10747E+01
 -1      1493 1.30526E+01
 -1      1494 1.23992E+01
 -1      1495 2.09268E+01
 -1      1496 8.40350E-01
 -1      1497 2.12581E+01
 -1      1498 1.19668E+01
 -1      1499 1.63272E+01
 -1      1500 1.20256E+01
 -1      1501 1.41272E+01
 -1      1502 2.11527E+01
 -1      1503 1.15881E+01
 -1      1504 2.05471E+01
 -1      1505 8.03364E-01
 -1      1506 1.23744E+01
 -1      1507 1.49390E+00
 -1      1508 2.11441E+01
 -1      1509 2.00797E+01
 -1      1510 9.54128E+00
 -1      1511 1.36615E+01
 -1      1512 1.21121E+00
 -1      1513 1.35792E+01
 -1      1514 1.99365E+01
 -1      1515 1.99100E+01
 -1      1516 1.32261E+01
 -1      1517 1.05798E+01
 -1      1518 1.11937E+01
 -1      1519 1.22319E+01
 -1      1520 1.12639E+01
 -1      1521 2.14433E+01
 -1      1522 9.40406E-01
 -1      1523 1.88938E+01
 -1      1524 1.46034E+01
 -1      1525 2.00133E+01
 -1      1526 1.14140E+01
 -1      1527 1.07901E+01
 -1      1528 1.45997E+01
 -1      1529 1.57468E+01
 -1      1530 1.24251E+01
 -1      1531 1.28760E+01
 -1      1532 1.35851E+01
 -1      1533 2.12358E+01
 -1      1534 1.41959E+01
 -1      1535 1.34528E+01
 -1      1536 1.06567E+00
 -1      1537 1.21121E+00
 -1      1538 1.88938E+01
 -1      1539 1.49724E+01
 -1      1540 1.59023E+01
 -1      1541 7.31132E-01
 -1      1542 1.03527E+01
 -1      1543 2.22567E+01
 -1      1544 2.21852E+01
 -1      1545 1.36009E+01
 -1      1546 2.02421E+01
 -1      1547 1.55282E+01
 -1      1548 1.46495E+01
 -1      1549 2.06709E+01
 -1      1550 7.37920E-01
 -1      1551 2.10866E+01
 -1      1552 2.15439E+01
 -1      1553 2.21896E+01
 -1      1554 1.56770E+01
 -1      1555 2.13349E+01
 -1      1556 1.45085E+01
 -1      1557 1.33163E+01
 -1      1558 1.14688E+01
 -1      1559 2.02040E+01
 -1      1560 2.05006E+01
 -1      1561 3.05570E+00
 -1      1562 1.17532E+01
 -1      1563 6.55220E-01
 -1      1564 2.05201E+01
 -1      1565 1.04683E+01
 -1      1566 9.48306E+00
 -1      1567 2.88603E+00
 -1      1568 2.92111E+00
 -1      1569 7.88324E-01
 -1      1570 9.91556E+00
 -1      1571 1.01781E+01
 -1      1572 8.50370E+00
 -1      1573 1.13371E+01
 -1      1574 9.71616E+00
 -1      1575 1.06041E+01
 -1      1576 2.92111E+00
 -1      1577 3.13779E+00
 -1      1578 2.10964E+00
 -1      1579 2.97086E+00
 -1      1580 2.69790E+00
 -1      1581 1.75309E+00
 -1      1582 1.05735E+01
 -1      1583 1.08726E+01
 -1      1584 1.04401E+01
 -1      1585 9.87703E+00
 -1      1586 1.02700E+01
 -1      1587 1.10936E+01
 -1      1588 1.06292E+01
 -1      1589 3.35448E+00
 -1      1590 3.35448E+00
 -1      1591 3.13779E+00
 -1      1592 3.20509E+00
 -1      1593 3.05570E+00
 -1      1594 3.20509E+00
 -1      1595 2.97086E+00
 -1      1596 9.63877E+00
 -1      1597 9.45146E+00
 -1      1598 1.06181E+01
 -1      1599 9.28186E+00
 -1      1600 9.21879E+00
 -1      1601 1.15836E+01
 -1      1602 1.33299E+01
 -1      1603 1.53200E+01
 -1      1604 1.55251E+01
 -1      1605 1.07918E+01
 -1      1606 8.83068E+00
 -1      1607 1.51080E+01
 -1      1608 9.07812E+00
 -1      1609 1.11325E+01
 -1      1610 1.08272E+01
 -1      1611 1.55634E+01
 -1      1612 1.35636E+01
 -1      1613 1.55056E+01
 -1      1614 9.47345E+00
 -1      1615 9.48063E+00
 -1      1616 1.58463E+01
 -1      1617 1.36424E+01
 -1      1618 1.56503E+01
 -1      1619 1.59180E+01
 -1      1620 1.10667E+01
 -1      1621 1.05645E+01
 -1      1622 1.54961E+01
 -1      1623 9.87888E+00
 -1      1624 8.44485E+00
 -1      1625 1.02269E+01
 -1      1626 9.86138E+00
 -1      1627 9.89006E+00
 -1      1628 1.09578E+01
 -1      1629 1.39890E+01
 -1      1630 1.60655E+01
 -1      1631 1.64733E+01
 -1      1632 1.13762E+01
 -1      1633 9.34612E+00
 -1      1634 1.58830E+01
 -1      1635 8.63164E+00
 -1      1636 1.00455E+01
 -1      1637 1.04793E+01
 -1      1638 1.09571E+01
 -1      1639 1.16183E+01
 -1      1640 1.06764E+01
 -1      1641 1.64006E+01
 -1      1642 1.44551E+01
 -1      1643 1.63704E+01
 -1      1644 1.02082E+01
 -1      1645 1.02572E+01
 -1      1646 1.69058E+01
 -1      1647 1.46494E+01
 -1      1648 1.68507E+01
 -1      1649 1.70511E+01
 -1      1650 1.26007E+01
 -1      1651 1.04793E+01
 -1      1652 1.71934E+01
 -1      1653 9.99097E+00
 -1      1654 1.21006E+01
 -1      1655 1.24551E+01
 -1      1656 1.67462E+01
 -1      1657 1.47727E+01
 -1      1658 1.66125E+01
 -1      1659 1.09271E+01
 -1      1660 1.27355E+01
 -1      1661 1.74126E+01
 -1      1662 1.15839E+01
 -1      1663 1.11792E+01
 -1      1664 1.24155E+01
 -1      1665 1.26259E+01
 -1      1666 1.15160E+01
 -1      1667 1.27106E+01
 -1      1668 1.05533E+01
 -1      1669 1.18553E+01
 -1      1670 1.31946E+01
 -1      1671 1.21723E+01
 -1      1672 1.26410E+01
 -1      1673 1.25489E+01
 -1      1674 1.22208E+01
 -1      1675 1.05804E+01
 -1      1676 1.24457E+01
 -1      1677 5.03780E+00
 -1      1678 6.80200E-01
 -1      1679 6.48301E+00
 -1      1680 6.80200E-01
 -1      1681 7.36222E-01
 -1      1682 9.40406E-01
 -1      1683 8.71622E-01
 -1      1684 8.22886E-01
 -1      1685 1.07581E+00
 -1      1686 6.67666E-01
 -1      1687 6.49604E-01
 -1      1688 1.05599E+00
 -1      1689 5.26831E-01
 -1      1690 9.76697E-01
 -1      1691 7.77993E-01
 -1      1692 1.78816E+00
 -1      1693 1.16361E+01
 -1      1694 1.16361E+01
 -1      1695 1.15003E+01
 -1      1696 1.20361E+01
 -1      1697 1.15695E+01
 -1      1698 1.24657E+01
 -1      1699 1.15058E+01
 -1      1700 1.23628E+01
 -1      1701 1.27259E+01
 -1      1702 1.16234E+01
 -1      1703 1.15926E+01
 -1      1704 1.31394E+01
 -1      1705 1.15187E+01
 -1      1706 1.14721E+01
 -1      1707 1.30748E+01
 -1      1708 1.16936E+01
 -1      1709 1.14950E+01
 -1      1710 1.28997E+01
 -1      1711 1.20612E+01
 -1      1712 1.14682E+01
 -1      1713 1.26506E+01
 -1      1714 1.53905E+01
 -1      1715 1.61351E+01
 -1      1716 1.64991E+01
 -1      1717 1.19268E+01
 -1      1718 1.18966E+01
 -1      1719 1.70791E+01
 -1      1720 1.11658E+01
 -1      1721 1.08686E+01
 -1      1722 1.25270E+01
 -1      1723 1.24099E+01
 -1      1724 1.18207E+01
 -1      1725 1.21237E+01
 -1      1726 1.59018E+01
 -1      1727 1.65926E+01
 -1      1728 1.69614E+01
 -1      1729 1.23787E+01
 -1      1730 1.22928E+01
 -1      1731 1.75351E+01
 -1      1732 1.61024E+01
 -1      1733 1.60831E+01
 -1      1734 1.76305E+01
 -1      1735 1.25068E+01
 -1      1736 1.25329E+01
 -1      1737 1.77654E+01
 -1      1738 1.19146E+01
 -1      1739 1.14919E+01
 -1      1740 1.31810E+01
 -1      1741 1.31890E+01
 -1      1742 1.26212E+01
 -1      1743 1.28726E+01
 -1      1744 1.31233E+01
 -1      1745 1.38882E+01
 -1      1746 1.42784E+01
 -1      1747 1.29846E+01
 -1      1748 1.29342E+01
 -1      1749 1.47887E+01
 -1      1750 1.39335E+01
 -1      1751 1.35582E+01
 -1      1752 1.51732E+01
 -1      1753 1.39914E+01
 -1      1754 1.36919E+01
 -1      1755 1.55052E+01
 -1      1756 1.41360E+01
 -1      1757 1.36613E+01
 -1      1758 1.49335E+01
 -1      1759 1.36145E+01
 -1      1760 1.38979E+01
 -1      1761 1.43653E+01
 -1      1762 1.45489E+01
 -1      1763 1.40790E+01
 -1      1764 1.45917E+01
 -1      1765 1.54326E+01
 -1      1766 1.64678E+01
 -1      1767 1.69750E+01
 -1      1768 1.39006E+01
 -1      1769 1.40301E+01
 -1      1770 1.74913E+01
 -1      1771 9.31028E-01
 -1      1772 6.60317E+00
 -1      1773 8.79129E+00
 -1      1774 6.83161E-01
 -1      1775 6.01449E-01
 -1      1776 1.16432E+00
 -1      1777 6.31331E-01
 -1      1778 6.67473E-01
 -1      1779 8.19052E-01
 -1      1780 8.89803E-01
 -1      1781 9.10716E-01
 -1      1782 1.08275E+00
 -1      1783 5.96871E-01
 -1      1784 6.28910E-01
 -1      1785 1.10124E+00
 -1      1786 6.68187E-01
 -1      1787 5.34806E-01
 -1      1788 7.78284E-01
 -1      1789 1.80112E+00
 -1      1790 2.17216E+01
 -1      1791 1.78761E+01
 -1      1792 1.41082E+01
 -1      1793 1.29567E+01
 -1      1794 1.84173E+01
 -1      1795 1.41970E+01
 -1      1796 1.37769E+01
 -1      1797 1.55629E+01
 -1      1798 1.58798E+01
 -1      1799 1.72110E+01
 -1      1800 7.70642E-01
 -1      1801 7.86330E-01
 -1      1802 5.59372E+00
 -1      1803 5.92330E+00
 -1      1804 5.54531E+00
 -1      1805 1.21121E+00
 -1      1806 1.05599E+00
 -1      1807 9.83219E-01
 -1      1808 1.13844E+00
 -1      1809 8.60446E-01
 -1      1810 1.46353E+01
 -1      1811 1.41470E+01
 -1      1812 1.75665E+01
 -1      1813 1.92584E+01
 -1      1814 2.18165E+01
 -1      1815 1.54792E+01
 -1      1816 1.50148E+01
 -1      1817 1.69331E+01
 -1      1818 1.50143E+01
 -1      1819 1.54374E+01
 -1      1820 2.13483E+01
 -1      1821 1.71014E+01
 -1      1822 1.74579E+01
 -1      1823 2.18500E+01
 -1      1824 2.19003E+01
 -1      1825 1.32622E+01
 -1      1826 1.34135E+01
 -1      1827 1.30962E+01
 -1      1828 1.31199E+01
 -1      1829 1.34586E+01
 -1      1830 1.61284E+01
 -1      1831 2.02902E+01
 -1      1832 1.99232E+01
 -1      1833 1.58331E+01
 -1      1834 2.02053E+01
 -1      1835 1.99392E+01
 -1      1836 1.54109E+01
 -1      1837 1.98247E+01
 -1      1838 1.57136E+01
 -1      1839 2.01277E+01
 -1      1840 2.11153E+01
 -1      1841 1.69326E+01
 -1      1842 1.31157E+01
 -1      1843 1.72697E+01
 -1      1844 1.24608E+01
 -1      1845 1.51559E+01
 -1      1846 1.60676E+01
 -1      1847 1.55003E+01
 -1      1848 2.08915E+01
 -1      1849 1.62148E+01
 -1      1850 2.01419E+01
 -1      1851 1.55582E+01
 -1      1852 1.22870E+01
 -1      1853 1.16014E+01
 -1      1854 1.69327E+01
 -1      1855 1.66630E+01
 -1      1856 1.67296E+01
 -1      1857 2.07235E+01
 -1      1858 1.65262E+01
 -1      1859 1.16612E+01
 -1      1860 1.56551E+01
 -1      1861 1.83943E+01
 -1      1862 1.87243E+01
 -1      1863 1.54703E+01
 -1      1864 1.57119E+01
 -1      1865 1.89311E+01
 -1      1866 8.35769E-01
 -1      1867 9.71169E-01
 -1      1868 8.39163E-01
 -1      1869 8.39163E-01
 -1      1870 7.34526E-01
 -1      1871 8.90945E-01
 -1      1872 9.53011E-01
 -1      1873 7.52272E-01
 -1      1874 9.26998E-01
 -1      1875 1.88596E+00
 -1      1876 1.92201E+00
 -1      1877 1.75615E+01
 -1      1878 1.68550E+01
 -1      1879 1.33373E+01
 -1      1880 1.43522E+01
 -1      1881 1.80262E+01
 -1      1882 1.02578E+00
 -1      1883 1.28667E+00
 -1      1884 1.04663E+00
 -1      1885 7.67248E-01
 -1      1886 9.71169E-01
 -1      1887 1.86172E+01
 -1      1888 1.79180E+01
 -1      1889 1.83947E+01
 -1      1890 1.85837E+01
 -1      1891 2.22232E+01
 -1      1892 1.67305E+01
 -1      1893 2.08294E+01
 -1      1894 2.06216E+01
 -1      1895 1.59323E+01
 -1      1896 2.08787E+01
 -1      1897 2.05368E+01
 -1      1898 1.64629E+01
 -1      1899 1.68946E+01
 -1      1900 2.03885E+01
 -1      1901 2.03523E+01
 -1      1902 1.72985E+01
 -1      1903 2.09075E+01
 -1      1904 1.75809E+01
 -1      1905 2.09533E+01
 -1      1906 2.12854E+01
 -1      1907 1.59586E+01
 -1      1908 1.15751E+01
 -1      1909 1.61367E+01
 -1      1910 2.07140E+00
 -1      1911 2.00485E+00
 -1      1912 7.21772E-01
 -1      1913 8.51107E+00
 -1      1914 1.58085E+01
 -1      1915 1.74913E+01
 -1      1916 1.88938E+01
 -1      1917 1.45648E+01
 -1      1918 1.36021E+01
 -1      1919 1.35831E+01
 -1      1920 1.50298E+01
 -1      1921 1.21955E+01
 -1      1922 1.66264E+01
 -1      1923 1.20904E+01
 -1      1924 1.23378E+01
 -1      1925 1.65329E+01
 -1      1926 1.62062E+01
 -1      1927 1.67341E+01
 -1      1928 1.66474E+01
 -1      1929 2.04700E+01
 -1      1930 1.61704E+01
 -1      1931 1.63400E+01
 -1      1932 1.38219E+01
 -1      1933 1.84676E+01
 -1      1934 1.60021E+01
 -1      1935 1.54634E+01
 -1      1936 1.60370E+01
 -1      1937 1.11892E+01
 -1      1938 5.64655E+00
 -1      1939 1.29405E+01
 -1      1940 1.43883E+01
 -1      1941 1.46264E+01
 -1      1942 1.52759E+01
 -1      1943 1.30483E+01
 -1      1944 1.78306E+01
 -1      1945 1.75278E+01
 -1      1946 2.09410E+01
 -1      1947 1.73715E+01
 -1      1948 1.14971E+01
 -1      1949 1.29136E+01
 -1      1950 1.35572E+01
 -1      1951 1.36233E+01
 -1      1952 1.25651E+01
 -1      1953 1.66132E+01
 -1      1954 1.61676E+01
 -1      1955 1.63930E+01
 -1      1956 1.69215E+01
 -1      1957 1.69331E+01
 -1      1958 9.45366E+00
 -1      1959 9.23375E+00
 -1      1960 7.36348E+00
 -1      1961 9.66603E-01
 -1      1962 1.38234E+01
 -1      1963 9.51430E+00
 -1      1964 1.08201E+01
 -1      1965 1.02380E+01
 -1      1966 1.18179E+01
 -1      1967 1.20656E+01
 -1      1968 1.15076E+01
 -1      1969 8.68337E+00
 -1      1970 1.04259E+01
 -1      1971 1.13171E+01
 -1      1972 1.05289E+01
 -1      1973 5.89434E+00
 -1      1974 7.73460E-01
 -1      1975 1.77732E+01
 -1      1976 4.33237E+00
 -1      1977 1.73201E+01
 -1      1978 1.86055E+01
 -1      1979 1.20820E+01
 -1      1980 1.04977E+01
 -1      1981 1.11959E+01
 -1      1982 2.30407E+00
 -1      1983 7.77668E+00
 -1      1984 9.34294E+00
 -1      1985 1.14754E+01
 -1      1986 1.11716E+01
 -1      1987 1.14307E+01
 -1      1988 1.09294E+01
 -1      1989 1.86265E+01
 -1      1990 1.55647E+00
 -1      1991 1.01015E+01
 -1      1992 1.39000E+01
 -1      1993 1.47543E+01
 -1      1994 7.77583E+00
 -1      1995 9.55612E+00
 -1      1996 8.09756E+00
 -1      1997 6.80318E+00
 -1      1998 7.42037E+00
 -1      1999 1.15697E+01
 -1      2000 1.86855E+01
 -1      2001 1.01025E+01
 -1      2002 1.24523E+01
 -1      2003 1.93152E+01
 -1      2004 1.26276E+01
 -1      2005 3.35090E+00
 -1      2006 1.01092E+01
 -1      2007 1.92374E+01
 -1      2008 1.04835E+01
 -1      2009 1.19828E+01
 -1      2010 1.08737E+01
 -1      2011 1.69474E+01
 -1      2012 1.93947E+01
 -1      2013 1.22859E+01
 -1      2014 9.02233E+00
 -1      2015 8.22008E+00
 -1      2016 1.04281E+01
 -1      2017 6.48651E+00
 -1      2018 8.10289E+00
 -1      2019 9.94547E+00
 -1      2020 1.97137E+01
 -1      2021 1.09747E+01
 -1      2022 1.04249E+01
 -1      2023 9.52108E+00
 -1      2024 9.50591E+00
 -1      2025 1.24201E+01
 -1      2026 1.20994E+01
 -1      2027 6.20814E-01
 -1      2028 2.34822E+00
 -1      2029 1.22859E+01
 -1      2030 9.40082E+00
 -1      2031 9.91617E+00
 -1      2032 5.06395E+00
 -1      2033 9.44729E+00
 -1      2034 1.75707E+01
 -1      2035 1.54047E+01
 -1      2036 1.23427E+01
 -1      2037 1.94097E+01
 -1      2038 1.92648E+01
 -1      2039 1.71409E+01
 -1      2040 1.93161E+01
 -1      2041 9.44729E+00
 -1      2042 1.94086E+01
 -1      2043 9.96961E+00
 -1      2044 1.21970E+01
 -1      2045 1.29159E+01
 -1      2046 1.90571E+01
 -1      2047 6.80318E+00
 -1      2048 1.88924E+01
 -1      2049 1.77657E+01
 -1      2050 1.63702E+01
 -1      2051 1.61798E+01
 -1      2052 9.34979E+00
 -1      2053 1.83669E+01
 -1      2054 2.37944E+00
 -1      2055 1.20908E+01
 -1      2056 6.65109E-01
 -1      2057 1.82923E+01
 -1      2058 9.51504E+00
 -1      2059 1.01967E+01
 -1      2060 1.94143E+00
 -1      2061 2.36749E+00
 -1      2062 6.42845E-01
 -1      2063 1.14395E+01
 -1      2064 1.04432E+01
 -1      2065 1.04740E+01
 -1      2066 8.94531E+00
 -1      2067 1.02203E+01
 -1      2068 8.31347E+00
 -1      2069 2.36749E+00
 -1      2070 2.23154E+00
 -1      2071 1.51630E+00
 -1      2072 2.06441E+00
 -1      2073 2.16043E+00
 -1      2074 1.45261E+00
 -1      2075 1.09428E+01
 -1      2076 1.09428E+01
 -1      2077 1.06963E+01
 -1      2078 1.05573E+01
 -1      2079 9.40025E+00
 -1      2080 1.08104E+01
 -1      2081 9.96998E+00
 -1      2082 2.34175E+00
 -1      2083 2.33578E+00
 -1      2084 2.33578E+00
 -1      2085 2.37944E+00
 -1      2086 2.37944E+00
 -1      2087 2.34175E+00
 -1      2088 2.16043E+00
 -1      2089 1.13344E+01
 -1      2090 1.14210E+01
 -1      2091 1.11438E+01
 -1      2092 1.11488E+01
 -1      2093 1.07763E+01
 -1      2094 1.15327E+01
 -1      2095 1.13846E+01
 -1      2096 1.16942E+01
 -1      2097 1.15201E+01
 -1      2098 1.32733E+01
 -1      2099 1.38255E+01
 -1      2100 1.45065E+01
 -1      2101 1.08911E+01
 -1      2102 1.03854E+01
 -1      2103 1.40595E+01
 -1      2104 1.08339E+01
 -1      2105 1.12968E+01
 -1      2106 1.15772E+01
 -1      2107 1.15494E+01
 -1      2108 1.07515E+01
 -1      2109 1.19003E+01
 -1      2110 1.45080E+01
 -1      2111 1.52980E+01
 -1      2112 1.55665E+01
 -1      2113 1.10676E+01
 -1      2114 1.11642E+01
 -1      2115 1.59714E+01
 -1      2116 1.01597E+01
 -1      2117 1.00026E+01
 -1      2118 1.15626E+01
 -1      2119 1.12397E+01
 -1      2120 1.06957E+01
 -1      2121 1.10337E+01
 -1      2122 1.39674E+01
 -1      2123 1.47576E+01
 -1      2124 1.50876E+01
 -1      2125 1.08568E+01
 -1      2126 1.07143E+01
 -1      2127 1.53525E+01
 -1      2128 9.34979E+00
 -1      2129 9.48199E+00
 -1      2130 1.07246E+01
 -1      2131 1.06187E+01
 -1      2132 1.07159E+01
 -1      2133 1.07159E+01
 -1      2134 9.41787E+00
 -1      2135 9.35580E+00
 -1      2136 1.08191E+01
 -1      2137 1.04439E+01
 -1      2138 1.00499E+01
 -1      2139 1.01881E+01
 -1      2140 9.69967E+00
 -1      2141 1.02479E+01
 -1      2142 1.06241E+01
 -1      2143 1.11620E+01
 -1      2144 1.13973E+01
 -1      2145 1.21257E+01
 -1      2146 1.16095E+01
 -1      2147 1.12003E+01
 -1      2148 1.38617E+01
 -1      2149 9.85217E+00
 -1      2150 9.71027E+00
 -1      2151 1.20007E+01
 -1      2152 9.03922E+00
 -1      2153 9.52826E+00
 -1      2154 9.77756E+00
 -1      2155 7.95645E+00
 -1      2156 8.42243E+00
 -1      2157 8.83687E+00
 -1      2158 9.00965E+00
 -1      2159 8.51788E+00
 -1      2160 8.78151E+00
 -1      2161 9.88989E+00
 -1      2162 1.04811E+01
 -1      2163 1.08144E+01
 -1      2164 7.88123E+00
 -1      2165 8.36380E+00
 -1      2166 1.07598E+01
 -1      2167 7.19846E+00
 -1      2168 7.15227E+00
 -1      2169 8.50479E+00
 -1      2170 5.94728E+00
 -1      2171 6.55380E+00
 -1      2172 7.13117E+00
 -1      2173 4.70320E+00
 -1      2174 5.65120E+00
 -1      2175 6.19043E+00
 -1      2176 2.45550E+00
 -1      2177 3.43148E+00
 -1      2178 4.62262E+00
 -1      2179 7.09884E-01
 -1      2180 1.26335E+00
 -1      2181 2.15875E+00
 -1      2182 6.65109E-01
 -1      2183 5.59137E-01
 -1      2184 8.15856E-01
 -1      2185 1.51630E+00
 -1      2186 9.21452E+00
 -1      2187 9.21452E+00
 -1      2188 1.04161E+01
 -1      2189 9.02064E+00
 -1      2190 8.96091E+00
 -1      2191 1.11233E+01
 -1      2192 9.21154E+00
 -1      2193 1.11977E+01
 -1      2194 1.11800E+01
 -1      2195 1.09192E+01
 -1      2196 8.85708E+00
 -1      2197 1.11522E+01
 -1      2198 8.53926E+00
 -1      2199 1.05331E+01
 -1      2200 1.05558E+01
 -1      2201 1.51115E+01
 -1      2202 1.31872E+01
 -1      2203 1.48164E+01
 -1      2204 9.22755E+00
 -1      2205 9.23516E+00
 -1      2206 1.54351E+01
 -1      2207 1.31162E+01
 -1      2208 1.50320E+01
 -1      2209 1.53564E+01
 -1      2210 1.06262E+01
 -1      2211 1.00320E+01
 -1      2212 1.48316E+01
 -1      2213 9.33023E+00
 -1      2214 7.97104E+00
 -1      2215 9.72410E+00
 -1      2216 9.21368E+00
 -1      2217 9.19705E+00
 -1      2218 1.02650E+01
 -1      2219 1.27860E+01
 -1      2220 1.46278E+01
 -1      2221 1.50966E+01
 -1      2222 1.03363E+01
 -1      2223 8.37444E+00
 -1      2224 1.43940E+01
 -1      2225 7.66488E+00
 -1      2226 8.93430E+00
 -1      2227 9.39292E+00
 -1      2228 9.64722E+00
 -1      2229 1.01321E+01
 -1      2230 9.39629E+00
 -1      2231 1.39641E+01
 -1      2232 1.22292E+01
 -1      2233 1.39412E+01
 -1      2234 8.58440E+00
 -1      2235 8.58178E+00
 -1      2236 1.41284E+01
 -1      2237 1.20001E+01
 -1      2238 1.19617E+01
 -1      2239 1.39018E+01
 -1      2240 8.06220E+00
 -1      2241 8.03411E+00
 -1      2242 1.34206E+01
 -1      2243 8.02652E+00
 -1      2244 9.44832E+00
 -1      2245 9.51349E+00
 -1      2246 9.95982E+00
 -1      2247 8.46705E+00
 -1      2248 1.00174E+01
 -1      2249 8.17533E+00
 -1      2250 9.24060E+00
 -1      2251 1.02372E+01
 -1      2252 8.31664E+00
 -1      2253 7.94350E+00
 -1      2254 9.02152E+00
 -1      2255 8.65187E+00
 -1      2256 7.79194E+00
 -1      2257 8.80593E+00
 -1      2258 7.08623E+00
 -1      2259 7.69660E+00
 -1      2260 8.80859E+00
 -1      2261 7.53349E+00
 -1      2262 7.65460E+00
 -1      2263 7.93979E+00
 -1      2264 7.47644E+00
 -1      2265 7.42037E+00
 -1      2266 7.59852E+00
 -1      2267 7.39192E+00
 -1      2268 6.40811E+00
 -1      2269 7.39192E+00
 -1      2270 6.12796E+00
 -1      2271 5.70652E+00
 -1      2272 7.08333E+00
 -1      2273 4.47112E+00
 -1      2274 3.90678E+00
 -1      2275 5.56778E+00
 -1      2276 2.51883E+00
 -1      2277 1.18992E+00
 -1      2278 2.94442E+00
 -1      2279 7.98415E-01
 -1      2280 8.68628E-01
 -1      2281 1.16497E+00
 -1      2282 1.35745E+00
 -1      2283 1.24292E+01
 -1      2284 1.27531E+01
 -1      2285 9.09484E+00
 -1      2286 9.71163E+00
 -1      2287 1.26871E+01
 -1      2288 8.61156E+00
 -1      2289 9.34052E+00
 -1      2290 1.07598E+01
 -1      2291 1.22859E+01
 -1      2292 1.08666E+01
 -1      2293 7.08333E+00
 -1      2294 6.80318E+00
 -1      2295 8.43383E+00
 -1      2296 8.40539E+00
 -1      2297 8.12523E+00
 -1      2298 1.65741E+00
 -1      2299 2.84956E+00
 -1      2300 1.48452E+00
 -1      2301 7.93709E-01
 -1      2302 6.42961E-01
 -1      2303 1.43271E+01
 -1      2304 1.42888E+01
 -1      2305 1.55623E+01
 -1      2306 1.50968E+01
 -1      2307 1.33991E+01
 -1      2308 9.00687E+00
 -1      2309 9.71523E+00
 -1      2310 9.45756E+00
 -1      2311 8.75185E+00
 -1      2312 9.65849E+00
 -1      2313 1.42929E+01
 -1      2314 1.36609E+01
 -1      2315 1.39994E+01
 -1      2316 1.41954E+01
 -1      2317 1.76682E+01
 -1      2318 1.40073E+01
 -1      2319 1.36895E+01
 -1      2320 1.47514E+01
 -1      2321 1.93298E+01
 -1      2322 1.82028E+01
 -1      2323 1.93619E+01
 -1      2324 1.56132E+01
 -1      2325 1.56138E+01
 -1      2326 1.56962E+01
 -1      2327 1.94092E+01
 -1      2328 1.81317E+01
 -1      2329 1.56908E+01
 -1      2330 1.53442E+01
 -1      2331 1.58896E+01
 -1      2332 1.95149E+01
 -1      2333 1.52000E+01
 -1      2334 1.87890E+01
 -1      2335 1.06097E+01
 -1      2336 1.18523E+01
 -1      2337 1.55447E+01
 -1      2338 1.12774E+01
 -1      2339 1.05678E+01
 -1      2340 1.24362E+01
 -1      2341 1.05518E+01
 -1      2342 1.12647E+01
 -1      2343 1.91473E+01
 -1      2344 1.47415E+01
 -1      2345 1.16709E+01
 -1      2346 1.09691E+01
 -1      2347 1.59865E+01
 -1      2348 1.49718E+01
 -1      2349 1.47779E+01
 -1      2350 1.48047E+01
 -1      2351 1.84594E+01
 -1      2352 1.43586E+01
 -1      2353 1.08710E+01
 -1      2354 1.29668E+01
 -1      2355 1.26751E+01
 -1      2356 1.28429E+01
 -1      2357 1.33544E+01
 -1      2358 1.57923E+01
 -1      2359 4.20743E+00
 -1      2360 5.47915E+00
 -1      2361 6.34876E+00
 -1      2362 6.64484E+00
 -1      2363 5.93356E+00
 -1      2364 1.08864E+00
 -1      2365 6.97137E-01
 -1      2366 6.31829E-01
 -1      2367 7.08153E-01
 -1      2368 1.57645E+00
 -1      2369 1.51114E+00
 -1      2370 1.12260E+01
 -1      2371 1.50580E+01
 -1      2372 1.77695E+01
 -1      2373 1.41246E+01
 -1      2374 1.50542E+01
 -1      2375 3.34030E+00
 -1      2376 1.95234E+00
 -1      2377 5.93356E+00
 -1      2378 4.69816E+00
 -1      2379 3.70608E+00
 -1      2380 1.40271E+01
 -1      2381 1.74454E+01
 -1      2382 1.68452E+01
 -1      2383 1.29456E+01
 -1      2384 1.69705E+01
 -1      2385 1.87490E+01
 -1      2386 1.52310E+01
 -1      2387 1.52332E+01
 -1      2388 1.84862E+01
 -1      2389 1.86297E+01
 -1      2390 1.09494E+01
 -1      2391 1.22124E+01
 -1      2392 1.23814E+01
 -1      2393 1.22511E+01
 -1      2394 1.08850E+01
 -1      2395 1.18833E+01
 -1      2396 1.13473E+01
 -1      2397 1.17068E+01
 -1      2398 1.27718E+01
 -1      2399 1.25565E+01
 -1      2400 1.47441E+01
 -1      2401 1.51915E+01
 -1      2402 1.16433E+01
 -1      2403 1.47346E+00
 -1      2404 1.48459E+00
 -1      2405 6.53977E-01
 -1      2406 8.61199E+00
 -1      2407 8.43383E+00
 -1      2408 1.01944E+01
 -1      2409 1.00313E+01
 -1      2410 1.08434E+01
 -1      2411 9.37188E+00
 -1      2412 9.62956E+00
 -1      2413 9.06813E+00
 -1      2414 1.54420E+01
 -1      2415 1.93230E+01
 -1      2416 1.94022E+01
 -1      2417 1.54426E+01
 -1      2418 1.56238E+01
 -1      2419 1.52182E+01
 -1      2420 1.41562E+01
 -1      2421 1.70441E+01
 -1      2422 1.53215E+01
 -1      2423 1.55722E+01
 -1      2424 1.53734E+01
 -1      2425 1.50949E+01
 -1      2426 1.91701E+01
 -1      2427 1.48006E+01
 -1      2428 1.53586E+01
 -1      2429 1.31406E+01
 -1      2430 1.50399E+01
 -1      2431 1.54671E+01
 -1      2432 1.21301E+01
 -1      2433 1.21377E+01
 -1      2434 7.96690E+00
 -1      2435 8.61156E+00
 -1      2436 9.44729E+00
 -1      2437 9.95754E+00
 -1      2438 9.03358E+00
 -1      2439 9.94289E+00
 -1      2440 1.85262E+01
 -1      2441 1.42347E+01
 -1      2442 1.54096E+01
 -1      2443 1.09010E+01
 -1      2444 1.22758E+01
 -1      2445 1.58424E+01
 -1      2446 1.91861E+01
 -1      2447 1.92329E+01
 -1      2448 1.93372E+01
 -1      2449 1.82285E+01
 -1      2450 1.08434E+01
 -1      2451 3.33802E+01
 -1      2452 1.06567E+00
 -1      2453 2.26561E+00
 -1      2454 2.92350E+01
 -1      2455 2.76940E+01
 -1      2456 9.44729E+00
 -1      2457 1.88938E+01
 -1      2458 7.44264E+00
 -1      2459 2.21852E+01
 -1      2460 2.22567E+01
 -1      2461 2.49815E+01
 -1      2462 2.81187E+01
 -1      2463 2.15439E+01
 -1      2464 2.68476E+01
 -1      2465 2.38753E+01
 -1      2466 1.47543E+01
 -1      2467 6.00043E+00
 -1      2468 2.82578E+01
 -1      2469 1.90459E+00
 -1      2470 3.14721E+01
 -1      2471 1.88689E+00
 -1      2472 3.17182E+01
 -1      2473 2.74230E+01
 -1      2474 2.74983E+01
 -1      2475 1.60887E+01
 -1      2476 1.08820E+01
 -1      2477 1.54047E+01
 -1      2478 9.91617E+00
 -1      2479 1.59023E+01
 -1      2480 2.12581E+01
 -1      2481 2.78666E+01
 -1      2482 2.22567E+01
 -1      2483 2.35479E+01
 -1      2484 2.43122E+01
 -1      2485 1.77732E+01
 -1      2486 2.51884E+01
 -1      2487 2.68899E+01
 -1      2488 2.34364E+01
 -1      2489 2.64909E+01
 -1      2490 2.52957E+01
 -1      2491 3.14721E+01
 -1      2492 1.72145E+00
 -1      2493 1.36214E+00
 -1      2494 2.81684E+01
 -1      2495 2.96732E+01
 -1      2496 1.06567E+00
 -1      2497 3.12140E+01
 -1      2498 1.49390E+00
 -1      2499 2.79487E+01
 -1      2500 2.30555E+00
 -1      2501 2.21896E+01
 -1      2502 1.63272E+01
 -1      2503 2.96732E+01
 -1      2504 1.36214E+00
 -1      2505 1.01464E+00
 -1      2506 2.21852E+01
 -1      2507 2.14433E+01
 -1      2508 1.21121E+00
 -1      2509 6.80318E+00
 -1      2510 7.42037E+00
 -1      2511 1.36297E+00
 -1      2512 2.82147E+01
 -1      2513 2.89275E+01
 -1      2514 1.99755E+01
 -1      2515 1.53458E+01
 -1      2516 9.44729E+00
 -1      2517 1.55282E+01
 -1      2518 1.22859E+01
 -1      2519 1.88938E+01
 -1      2520 1.53517E+01
 -1      2521 2.69343E+01
 -1      2522 2.22567E+01
 -1      2523 2.44785E+01
 -1      2524 2.38493E+01
 -1      2525 2.78666E+01
 -1      2526 1.75707E+01
 -1      2527 2.43122E+01
 -1      2528 2.68899E+01
 -1      2529 2.57156E+01
 -1      2530 2.34364E+01
 -1      2531 1.83002E+01
 -1      2532 1.73201E+01
 -1      2533 2.81684E+01
 -1      2534 2.79487E+01
 -1      2535 2.86562E+01
 -1      2536 2.96732E+01
 -1      2537 1.61798E+01
 -1      2538 1.70497E+01
 -1      2539 5.89434E+00
 -1      2540 9.12331E+00
 -1      2541 1.61798E+01
 -1      2542 2.89275E+01
 -1      2543 2.82147E+01
 -1      2544 2.34822E+00
 -1      2545 2.66412E+01
 -1      2546 1.19532E+01
 -1      2547 9.96961E+00
 -1      2548 1.49724E+01
 -1      2549 2.21852E+01
 -1      2550 2.81684E+01
 -1      2551 2.68899E+01
 -1      2552 2.44785E+01
 -1      2553 2.64909E+01
 -1      2554 1.99755E+01
 -1      2555 2.43122E+01
 -1      2556 1.77657E+01
 -1      2557 2.26272E+01
 -1      2558 7.10406E-01
 -1      2559 1.59023E+01
 -1      2560 1.46495E+01
 -1      2561 9.75482E+00
 -1      2562 2.29571E+01
 -1      2563 2.26051E+01
 -1      2564 2.42037E+01
 -1      2565 2.29335E+01
 -1      2566 2.33153E+01
 -1      2567 2.49139E+01
 -1      2568 2.45855E+01
 -1      2569 2.40400E+01
 -1      2570 2.24414E+01
 -1      2571 2.37116E+01
 -1      2572 1.21411E+00
 -1      2573 1.25043E+00
 -1      2574 1.20526E+00
 -1      2575 1.24158E+00
 -1      2576 1.89574E+00
 -1      2577 1.48513E+00
 -1      2578 1.34646E+00
 -1      2579 1.25489E+00
 -1      2580 1.81302E+00
 -1      2581 1.39356E+00
 -1      2582 2.59961E+01
 -1      2583 3.24261E+01
 -1      2584 2.69502E+01
 -1      2585 2.61192E+01
 -1      2586 3.25492E+01
 -1      2587 3.15951E+01
 -1      2588 3.13642E+01
 -1      2589 3.04101E+01
 -1      2590 3.04101E+01
 -1      2591 3.14721E+01
 -1      2592 3.24261E+01
 -1      2593 1.14338E+00
 -1      2594 8.44078E+00
 -1      2595 8.79129E+00
 -1      2596 1.49390E+00
 -1      2597 8.79129E+00
 -1      2598 1.14338E+00
 -1      2599 1.27680E+01
 -1      2600 5.12008E+00
 -1      2601 5.47059E+00
 -1      2602 5.47059E+00
 -1      2603 3.09932E+01
 -1      2604 3.00391E+01
 -1      2605 2.71535E+01
 -1      2606 2.63225E+01
 -1      2607 1.05263E+00
 -1      2608 1.36214E+00
 -1      2609 1.05263E+00
 -1      2610 1.05263E+00
 -1      2611 1.36214E+00
 -1      2612 1.36214E+00
 -1      2613 1.81387E+00
 -1      2614 1.81387E+00
 -1      2615 1.81387E+00
 -1      2616 2.69343E+01
 -1      2617 2.75265E+01
 -1      2618 2.75265E+01
 -1      2619 2.75745E+01
 -1      2620 2.81667E+01
 -1      2621 2.75745E+01
 -1      2622 2.31720E+01
 -1      2623 2.37642E+01
 -1      2624 2.38122E+01
 -1      2625 2.49402E+01
 -1      2626 2.55803E+01
 -1      2627 1.94585E+01
 -1      2628 2.00987E+01
 -1      2629 3.00391E+01
 -1      2630 2.61994E+01
 -1      2631 6.26691E+00
 -1      2632 7.09963E+00
 -1      2633 9.89999E+00
 -1      2634 1.24878E+01
 -1      2635 1.73841E+00
 -1      2636 1.28667E+00
 -1      2637 1.49837E+00
 -1      2638 2.41335E+01
 -1      2639 2.39490E+01
 -1      2640 2.39980E+01
 -1      2641 2.38135E+01
 -1      2642 2.75585E+01
 -1      2643 2.40353E+01
 -1      2644 2.42198E+01
 -1      2645 2.77803E+01
 -1      2646 2.40143E+01
 -1      2647 2.40276E+01
 -1      2648 2.37041E+01
 -1      2649 2.37174E+01
 -1      2650 2.78085E+01
 -1      2651 2.38868E+01
 -1      2652 2.40973E+01
 -1      2653 2.37890E+01
 -1      2654 2.39994E+01
 -1      2655 2.75961E+01
 -1      2656 2.22112E+01
 -1      2657 2.25555E+01
 -1      2658 2.76448E+01
 -1      2659 2.51386E+01
 -1      2660 2.32199E+01
 -1      2661 2.30628E+01
 -1      2662 2.53486E+01
 -1      2663 2.34298E+01
 -1      2664 2.55057E+01
 -1      2665 2.36952E+01
 -1      2666 2.34848E+01
 -1      2667 2.72919E+01
 -1      2668 2.28262E+01
 -1      2669 2.31933E+01
 -1      2670 2.18500E+01
 -1      2671 2.22567E+01
 -1      2672 2.18500E+01
 -1      2673 2.22567E+01
 -1      2674 2.22567E+01
 -1      2675 2.41122E+01
 -1      2676 2.38020E+01
 -1      2677 2.72163E+01
 -1      2678 2.29833E+01
 -1      2679 2.71941E+01
 -1      2680 2.77430E+01
 -1      2681 2.32554E+01
 -1      2682 2.78293E+01
 -1      2683 2.33417E+01
 -1      2684 2.77803E+01
 -1      2685 2.34657E+01
 -1      2686 2.35513E+01
 -1      2687 2.35520E+01
 -1      2688 2.36376E+01
 -1      2689 2.76940E+01
 -1      2690 2.76940E+01
 -1      2691 2.75585E+01
 -1      2692 2.75585E+01
 -1      2693 1.88938E+01
 -1      2694 1.88938E+01
 -1      2695 1.74913E+01
 -1      2696 1.74913E+01
 -1      2697 1.74913E+01
 -1      2698 1.55899E+01
 -1      2699 1.55899E+01
 -1      2700 1.15840E+01
 -1      2701 1.15840E+01
 -1      2702 1.48879E+01
 -1      2703 1.04203E+01
 -1      2704 1.26293E+01
 -1      2705 1.74913E+01
 -1      2706 1.12267E+01
 -1      2707 1.60887E+01
 -1      2708 1.58085E+01
 -1      2709 1.05631E+01
 -1      2710 1.39119E+01
 -1      2711 9.90598E+00
 -1      2712 6.55717E+00
 -1      2713 2.02321E+01
 -1      2714 2.00564E+01
 -1      2715 1.95929E+01
 -1      2716 2.17216E+01
 -1      2717 1.97685E+01
 -1      2718 2.21852E+01
 -1      2719 2.17216E+01
 -1      2720 2.17216E+01
 -1      2721 2.12581E+01
 -1      2722 2.37567E+01
 -1      2723 2.36307E+01
 -1      2724 2.79926E+01
 -1      2725 2.36381E+01
 -1      2726 2.35660E+01
 -1      2727 2.79926E+01
 -1      2728 2.34400E+01
 -1      2729 2.78666E+01
 -1      2730 2.72988E+01
 -1      2731 2.38946E+01
 -1      2732 2.72009E+01
 -1      2733 2.37968E+01
 -1      2734 2.20475E+01
 -1      2735 2.14197E+01
 -1      2736 2.14197E+01
 -1      2737 2.14197E+01
 -1      2738 2.14197E+01
 -1      2739 2.09813E+01
 -1      2740 1.86286E+01
 -1      2741 1.87396E+01
 -1      2742 1.63869E+01
 -1      2743 2.00150E+01
 -1      2744 1.97884E+01
 -1      2745 1.99137E+01
 -1      2746 1.76720E+01
 -1      2747 1.75466E+01
 -1      2748 2.35046E+01
 -1      2749 2.33755E+01
 -1      2750 2.31025E+01
 -1      2751 2.29735E+01
 -1      2752 2.72919E+01
 -1      2753 2.53486E+01
 -1      2754 2.14056E+01
 -1      2755 2.54520E+01
 -1      2756 2.15091E+01
 -1      2757 2.50849E+01
 -1      2758 2.18335E+01
 -1      2759 2.19370E+01
 -1      2760 2.19369E+01
 -1      2761 2.20404E+01
 -1      2762 2.70648E+01
 -1      2763 2.47317E+01
 -1      2764 2.66628E+01
 -1      2765 2.43296E+01
 -1      2766 2.44154E+01
 -1      2767 2.28329E+01
 -1      2768 2.51701E+01
 -1      2769 2.35876E+01
 -1      2770 2.57362E+01
 -1      2771 2.15439E+01
 -1      2772 2.13483E+01
 -1      2773 2.17047E+01
 -1      2774 2.19003E+01
 -1      2775 2.19003E+01
 -1      2776 2.32658E+01
 -1      2777 2.40263E+01
 -1      2778 2.14146E+01
 -1      2779 2.10799E+01
 -1      2780 2.46468E+01
 -1      2781 2.36917E+01
 -1      2782 2.17935E+01
 -1      2783 2.16742E+01
 -1      2784 2.13395E+01
 -1      2785 2.14588E+01
 -1      2786 2.40756E+01
 -1      2787 2.40623E+01
 -1      2788 2.81667E+01
 -1      2789 2.51386E+01
 -1      2790 2.51403E+01
 -1      2791 2.52957E+01
 -1      2792 2.52974E+01
 -1      2793 1.88003E+01
 -1      2794 2.14381E+01
 -1      2795 1.69150E+01
 -1      2796 1.95527E+01
 -1      2797 1.96585E+01
 -1      2798 2.42037E+01
 -1      2799 2.37116E+01
 -1      2800 2.44369E+01
 -1      2801 2.88673E+01
 -1      2802 2.87136E+01
 -1      2803 2.90813E+01
 -1      2804 2.42832E+01
 -1      2805 2.34926E+01
 -1      2806 2.68967E+01
 -1      2807 2.31247E+01
 -1      2808 2.73141E+01
 -1      2809 2.29957E+01
 -1      2810 1.73841E+00
 -1      2811 1.21121E+00
 -1      2812 1.21121E+00
 -1      2813 1.73841E+00
 -1      2814 2.61353E+01
 -1      2815 2.60862E+01
 -1      2816 2.16477E+01
 -1      2817 2.18580E+01
 -1      2818 2.19436E+01
 -1      2819 2.77803E+01
 -1      2820 2.77803E+01
 -1      2821 1.88938E+01
 -1      2822 1.88938E+01
 -1      2823 1.88938E+01
 -1      2824 1.22859E+01
 -1      2825 1.22859E+01
 -1      2826 1.55899E+01
 -1      2827 1.74913E+01
 -1      2828 1.26293E+01
 -1      2829 7.25912E+00
 -1      2830 1.06079E+01
 -1      2831 2.43518E+01
 -1      2832 2.66850E+01
 -1      2833 2.34602E+01
 -1      2834 2.44154E+01
 -1      2835 2.08485E+01
 -1      2836 2.11081E+01
 -1      2837 2.12274E+01
 -1      2838 2.55074E+01
 -1      2839 2.55057E+01
 -1      2840 2.18500E+01
 -1      2841 2.14433E+01
 -1      2842 2.18500E+01
 -1      2843 2.28456E+01
 -1      2844 2.24785E+01
 -1      2845 1.89026E+01
 -1      2846 2.24982E+01
 -1      2847 2.40807E+01
 -1      2848 2.46468E+01
 -1      2849 1.94340E+01
 -1      2850 1.93305E+01
 -1      2851 2.29021E+00
 -1      2852 5.92330E+00
 -1      2853 2.75745E+01
 -1      2854 2.41602E+01
 -1      2855 2.22945E+01
 -1      2856 2.24901E+01
 -1      2857 2.24901E+01
 -1      2858 2.17216E+01
 -1      2859 2.21852E+01
 -1      2860 2.21852E+01
 -1      2861 2.10129E+01
 -1      2862 2.10129E+01
 -1      2863 2.00564E+01
 -1      2864 2.02321E+01
 -1      2865 1.64689E+00
 -1      2866 1.64689E+00
 -1      2867 1.11969E+00
 -1      2868 1.11969E+00
 -1      2869 2.13909E+01
 -1      2870 2.13909E+01
 -1      2871 2.17474E+01
 -1      2872 2.17474E+01
 -1      2873 2.27769E+01
 -1      2874 2.30341E+01
 -1      2875 2.35316E+01
 -1      2876 2.37888E+01
 -1      2877 2.46241E+01
 -1      2878 2.44356E+01
 -1      2879 2.44704E+01
 -1      2880 2.42819E+01
 -1      2881 2.61726E+01
 -1      2882 1.74913E+01
 -1      2883 1.15840E+01
 -1      2884 2.49139E+01
 -1      2885 1.98162E+01
 -1      2886 1.71785E+01
 -1      2887 1.99221E+01
 -1      2888 2.35479E+01
 -1      2889 2.69121E+01
 -1      2890 1.96548E+01
 -1      2891 1.96585E+01
 -1      2892 1.77695E+01
 -1      2893 1.77732E+01
 -1      2894 2.40807E+01
 -1      2895 1.04663E+00
 -1      2896 1.48513E+00
 -1      2897 8.30973E-01
 -1      2898 1.47628E+00
 -1      2899 2.25819E+01
 -1      2900 1.06567E+00
 -1      2901 1.39356E+00
 -1      2902 2.78565E+01
 -1      2903 2.54015E+01
 -1      2904 1.80367E+01
 -1      2905 2.28466E+01
 -1      2906 2.26994E+01
 -1      2907 2.24422E+01
 -1      2908 2.23372E+01
 -1      2909 2.23372E+01
 -1      2910 2.18500E+01
 -1      2911 1.61603E+01
 -1      2912 1.85130E+01
 -1      2913 1.97884E+01
 -1      2914 2.17216E+01
 -1      2915 1.74454E+01
 -1      2916 1.73201E+01
 -1      2917 2.37816E+01
 -1      2918 2.37890E+01
 -1      2919 2.81435E+01
 -1      2920 1.80367E+01
 -1      2921 1.80330E+01
 -1      2922 2.80175E+01
 -1      2923 2.35909E+01
 -1      2924 2.46560E+01
 -1      2925 2.94541E+01
 -1      2926 2.90864E+01
 -1      2927 3.33802E+01
 -1      2928 3.33802E+01
 -1      2929 3.22971E+01
 -1      2930 3.22971E+01
 -1      2931 3.22971E+01
 -1      2932 1.74644E+01
 -1      2933 1.13844E+00
 -1      2934 1.13844E+00
 -1      2935 1.66564E+00
 -1      2936 3.33802E+01
 -1      2937 2.46547E+01
 -1      2938 2.48433E+01
 -1      2939 1.75466E+01
 -1      2940 1.04692E+00
 -1      2941 1.04692E+00
 -1      2942 1.37360E+00
 -1      2943 1.45551E+00
 -1      2944 1.41930E+00
 -1      2945 2.80175E+01
 -1      2946 2.07545E+00
 -1      2947 1.68561E+00
 -1      2948 1.99354E+00
 -1      2949 2.93004E+01
 -1      2950 1.13844E+00
 -1      2951 5.94728E+00
 -1      2952 6.19043E+00
 -1      2953 5.65120E+00
 -1      2954 7.26569E+00
 -1      2955 7.50883E+00
 -1      2956 7.80491E+00
 -1      2957 1.25732E+01
 -1      2958 1.26115E+01
 -1      2959 1.41864E+01
 -1      2960 1.54748E+01
 -1      2961 1.54365E+01
 -1      2962 5.65120E+00
 -1      2963 5.89434E+00
 -1      2964 4.70320E+00
 -1      2965 4.70320E+00
 -1      2966 1.21390E+00
 -1      2967 1.21390E+00
 -1      2968 1.54180E+00
 -1      2969 2.53000E+01
 -1      2970 3.15267E+01
 -1      2971 3.06957E+01
 -1      2972 3.24261E+01
 -1      2973 3.24261E+01
 -1      2974 1.70149E+00
 -1      2975 1.74719E+00
 -1      2976 3.10182E+01
 -1      2977 2.86312E+01
 -1      2978 3.00641E+01
 -1      2979 2.85919E+01
 -1      2980 2.40954E+01
 -1      2981 2.47386E+01
 -1      2982 2.94541E+01
 -1      2983 2.49577E+01
 -1      2984 2.88110E+01
 -1      2985 1.54047E+01
 -1      2986 1.87949E+01
 -1      2987 1.87949E+01
 -1      2988 1.57923E+01
 -1      2989 1.91825E+01
 -1      2990 1.57923E+01
 -1      2991 8.05458E-01
 -1      2992 1.04016E+00
 -1      2993 1.45077E+00
 -1      2994 1.63042E+01
 -1      2995 1.29139E+01
 -1      2996 1.33015E+01
 -1      2997 3.13430E+01
 -1      2998 1.71100E+01
 -1      2999 2.22232E+01
 -1      3000 1.71436E+01
 -1      3001 1.71436E+01
 -1      3002 2.22567E+01
 -1      3003 2.22232E+01
 -1      3004 2.93591E+01
 -1      3005 2.94541E+01
 -1      3006 2.91400E+01
 -1      3007 2.84968E+01
 -1      3008 2.85919E+01
 -1      3009 2.88110E+01
 -1      3010 2.21896E+01
 -1      3011 2.22232E+01
 -1      3012 2.22232E+01
 -1      3013 1.29668E+01
 -1      3014 1.33544E+01
 -1      3015 1.29668E+01
 -1      3016 1.33544E+01
 -1      3017 2.46935E+01
 -1      3018 2.44743E+01
 -1      3019 2.38312E+01
 -1      3020 1.61388E+00
 -1      3021 1.08668E+00
 -1      3022 1.97685E+01
 -1      3023 2.10129E+01
 -1      3024 9.71169E-01
 -1      3025 2.05007E+01
 -1      3026 2.13629E+01
 -1      3027 1.87571E+01
 -1      3028 1.87571E+01
 -1      3029 2.00211E+01
 -1      3030 1.90703E+01
 -1      3031 1.86636E+01
 -1      3032 2.40392E+01
 -1      3033 2.81435E+01
 -1      3034 2.81915E+01
 -1      3035 2.01350E+00
 -1      3036 2.21852E+01
 -1      3037 2.21852E+01
 -1      3038 2.21852E+01
 -1      3039 2.18165E+01
 -1      3040 1.93135E+01
 -1      3041 1.68452E+01
 -1      3042 2.90813E+01
 -1      3043 2.89275E+01
 -1      3044 2.07655E+01
 -1      3045 2.07423E+01
 -1      3046 2.81667E+01
 -1      3047 2.82147E+01
 -1      3048 2.82982E+01
 -1      3049 2.89414E+01
 -1      3050 2.91605E+01
 -1      3051 1.89311E+01
 -1      3052 1.89311E+01
 -1      3053 1.61603E+01
 -1      3054 2.09478E+01
 -1      3055 2.09813E+01
 -1      3056 2.45848E+01
 -1      3057 2.04810E+01
 -1      3058 1.75931E+01
 -1      3059 2.61147E+01
 -1      3060 1.96931E+01
 -1      3061 2.25810E+01
 -1      3062 2.22538E+01
 -1      3063 2.17617E+01
 -1      3064 2.19254E+01
 -1      3065 1.85837E+01
 -1      3066 1.86172E+01
 -1      3067 1.92041E+01
 -1      3068 1.91712E+01
 -1      3069 2.20691E+01
 -1      3070 2.12068E+01
 -1      3071 2.36917E+01
 -1      3072 2.37166E+01
 -1      3073 2.82982E+01
 -1      3074 2.80175E+01
 -1      3075 2.81684E+01
 -1      3076 2.26356E+01
 -1      3077 2.31715E+01
 -1      3078 6.26691E+00
 -1      3079 9.44729E+00
 -1      3080 7.09963E+00
 -1      3081 5.59945E+00
 -1      3082 5.40513E+00
 -1      3083 8.63993E+00
 -1      3084 8.44560E+00
 -1      3085 1.24878E+01
 -1      3086 9.44729E+00
 -1      3087 9.44729E+00
 -1      3088 9.44729E+00
 -1      3089 9.44729E+00
 -1      3090 1.29405E+01
 -1      3091 1.55282E+01
 -1      3092 1.69331E+01
 -1      3093 1.69331E+01
 -1      3094 1.69331E+01
 -1      3095 1.21195E+01
 -1      3096 1.21195E+01
 -1      3097 1.54235E+01
 -1      3098 9.15897E+00
 -1      3099 1.54235E+01
 -1      3100 8.60234E+00
 -1      3101 1.36292E+01
 -1      3102 2.69190E+01
 -1      3103 2.17678E+01
 -1      3104 2.60862E+01
 -1      3105 2.09813E+01
 -1      3106 2.22567E+01
 -1      3107 2.38493E+01
 -1      3108 2.13709E+01
 -1      3109 5.40513E+00
 -1      3110 1.36297E+00
 -1      3111 8.44560E+00
 -1      3112 8.43383E+00
 -1      3113 5.25345E+00
 -1      3114 8.43383E+00
 -1      3115 8.43383E+00
 -1      3116 5.85783E+00
 -1      3117 2.64711E+01
 -1      3118 2.29375E+01
 -1      3119 2.85711E+01
 -1      3120 2.36917E+01
 -1      3121 2.78293E+01
 -1      3122 2.41836E+01
 -1      3123 2.42756E+01
 -1      3124 2.36324E+01
 -1      3125 2.57156E+01
 -1      3126 2.24915E+01
 -1      3127 2.81684E+01
 -1      3128 2.81684E+01
 -1      3129 2.35469E+01
 -1      3130 2.66628E+01
 -1      3131 2.24296E+01
 -1      3132 2.27740E+01
 -1      3133 2.40937E+01
 -1      3134 1.82576E+01
 -1      3135 1.46753E+01
 -1      3136 2.20856E+01
 -1      3137 2.20856E+01
 -1      3138 2.30318E+01
 -1      3139 1.06079E+01
 -1      3140 1.74913E+01
 -1      3141 1.90272E+01
 -1      3142 2.48433E+01
 -1      3143 1.77657E+01
 -1      3144 1.96548E+01
 -1      3145 1.80330E+01
 -1      3146 2.05423E+01
 -1      3147 2.34011E+01
 -1      3148 2.19798E+01
 -1      3149 2.04637E+01
 -1      3150 1.95019E+01
 -1      3151 2.06011E+01
 -1      3152 3.04101E+01
 -1      3153 3.04101E+01
 -1      3154 3.04101E+01
 -1      3155 3.04101E+01
 -1      3156 3.14721E+01
 -1      3157 2.41335E+01
 -1      3158 2.06283E+01
 -1      3159 2.73226E+01
 -1      3160 2.81849E+01
 -1      3161 2.00875E+01
 -1      3162 5.94739E+00
 -1      3163 6.24347E+00
 -1      3164 7.56187E+00
 -1      3165 5.70424E+00
 -1      3166 1.32999E+01
 -1      3167 1.54671E+01
 -1      3168 1.25872E+01
 -1      3169 1.37348E+01
 -1      3170 1.59020E+01
 -1      3171 1.66147E+01
 -1      3172 2.05520E+01
 -1      3173 1.96897E+01
 -1      3174 1.69150E+01
 -1      3175 2.11953E+01
 -1      3176 1.08434E+01
 -1      3177 1.06770E+01
 -1      3178 1.69331E+01
 -1      3179 1.49724E+01
 -1      3180 7.91898E+00
 -1      3181 9.26221E+00
 -1      3182 1.32317E+01
 -1      3183 9.76136E+00
 -1      3184 1.82266E+01
 -1      3185 1.89724E+01
 -1      3186 1.85679E+01
 -1      3187 1.53215E+01
 -1      3188 1.50542E+01
 -1      3189 1.02141E+00
 -1      3190 1.64012E+00
 -1      3191 3.46126E+00
 -1      3192 4.07998E+00
 -1      3193 3.45449E+00
 -1      3194 2.32216E+01
 -1      3195 2.04637E+01
 -1      3196 2.26272E+01
 -1      3197 2.93591E+01
 -1      3198 2.19892E+01
 -1      3199 1.91539E+01
 -1      3200 1.72989E+01
 -1      3201 2.58205E+01
 -1      3202 1.21884E+00
 -1      3203 1.03918E+00
 -1      3204 3.03816E+01
 -1      3205 3.12125E+01
 -1      3206 2.93591E+01
 -1      3207 3.20509E+00
 -1      3208 3.35448E+00
 -1      3209 2.48015E+00
 -1      3210 2.62954E+00
 -1      3211 2.62954E+00
 -1      3212 2.85927E+01
 -1      3213 2.26026E+01
 -1      3214 2.82362E+01
 -1      3215 3.19803E+01
 -1      3216 3.08972E+01
 -1      3217 3.01295E+01
 -1      3218 3.05570E+00
 -1      3219 2.38858E+00
 -1      3220 2.53797E+00
 -1      3221 2.38858E+00
 -1      3222 3.11493E+01
 -1      3223 8.62235E-01
 -1      3224 8.25483E-01
 -1      3225 1.19013E+00
 -1      3226 1.15337E+00
 -1      3227 1.06567E+00
 -1      3228 8.30973E-01
 -1      3229 1.48513E+00
 -1      3230 1.91825E+01
 -1      3231 1.61798E+01
 -1      3232 2.74004E+01
 -1      3233 2.72163E+01
 -1      3234 2.50493E+01
 -1      3235 2.60033E+01
 -1      3236 2.36413E+01
 -1      3237 2.58362E+01
 -1      3238 2.49203E+01
 -1      3239 2.47531E+01
 -1      3240 3.42824E+00
 -1      3241 1.57544E+01
 -1      3242 1.91825E+01
 -1      3243 1.70538E+01
 -1      3244 1.88161E+01
 -1      3245 1.96532E+01
 -1      3246 1.64668E+01
 -1      3247 9.28530E+00
 -1      3248 9.28530E+00
 -1      3249 9.28530E+00
 -1      3250 5.24314E+00
 -1      3251 5.43747E+00
 -1      3252 1.73102E+01
 -1      3253 1.67099E+01
 -1      3254 1.61798E+01
 -1      3255 1.57923E+01
 -1      3256 1.06567E+00
 -1      3257 1.11969E+00
 -1      3258 1.63042E+01
 -1      3259 1.91825E+01
 -1      3260 1.58460E+00
 -1      3261 1.50021E+00
 -1      3262 1.54151E+00
 -1      3263 2.30691E+00
 -1      3264 1.62590E+00
 -1      3265 2.48822E+01
 -1      3266 1.01647E+01
 -1      3267 1.01647E+01
 -1      3268 1.00027E+01
 -1      3269 6.31683E+00
 -1      3270 2.61362E+01
 -1      3271 1.28737E+00
 -1      3272 3.72722E+00
 -1      3273 1.96375E+01
 -1      3274 2.43206E+01
 -1      3275 2.41218E+01
 -1      3276 2.90813E+01
 -1      3277 2.37397E+01
 -1      3278 2.87136E+01
 -1      3279 2.89275E+01
 -1      3280 2.82147E+01
 -1      3281 2.79081E+01
 -1      3282 2.21253E+01
 -1      3283 1.83152E+01
 -1      3284 2.68856E+01
 -1      3285 2.11028E+01
 -1      3286 1.48217E+00
 -1      3287 8.88039E-01
 -1      3288 6.84602E-01
 -1      3289 1.50798E+00
 -1      3290 1.16905E+00
 -1      3291 6.66427E-01
 -1      3292 9.89386E-01
 -1      3293 1.27600E+00
 -1      3294 8.39875E-01
 -1      3295 2.88444E+01
 -1      3296 2.99064E+01
 -1      3297 3.04101E+01
 -1      3298 3.14721E+01
 -1      3299 1.87498E+00
 -1      3300 1.86613E+00
 -1      3301 1.05289E+01
 -1      3302 3.25492E+01
 -1      3303 3.14661E+01
 -1      3304 2.91397E+01
 -1      3305 3.15267E+01
 -1      3306 3.05727E+01
 -1      3307 1.83876E+00
 -1      3308 6.88953E+00
 -1      3309 1.39722E+01
 -1      3310 7.47644E+00
 -1      3311 8.48990E+00
 -1      3312 7.42037E+00
 -1      3313 8.43383E+00
 -1      3314 6.69429E+00
 -1      3315 1.37769E+01
 -1      3316 2.53000E+01
 -1      3317 2.37944E+00
 -1      3318 2.34175E+00
 -1      3319 2.30481E+00
 -1      3320 2.34249E+00
 -1      3321 2.34249E+00
 -1      3322 2.90150E+01
 -1      3323 2.17814E+01
 -1      3324 1.93244E+01
 -1      3325 2.76071E+01
 -1      3326 2.03735E+01
 -1      3327 4.12128E+00
 -1      3328 2.30691E+00
 -1      3329 2.34822E+00
 -1      3330 4.12128E+00
 -1      3331 5.47915E+00
 -1      3332 3.70608E+00
 -1      3333 1.47420E+00
 -1      3334 2.09622E+00
 -1      3335 1.66367E+01
 -1      3336 1.87655E+01
 -1      3337 1.57628E+01
 -1      3338 1.99137E+01
 -1      3339 1.90767E+01
 -1      3340 1.73102E+01
 -1      3341 1.53752E+01
 -1      3342 1.75707E+01
 -1      3343 1.36127E+01
 -1      3344 1.66153E+01
 -1      3345 2.63459E+01
 -1      3346 3.11493E+01
 -1      3347 2.60938E+01
 -1      3348 3.08972E+01
 -1      3349 3.14661E+01
 -1      3350 1.27600E+00
 -1      3351 6.65109E-01
 -1      3352 8.39875E-01
 -1      3353 1.60409E+01
 -1      3354 1.56554E+01
 -1      3355 2.08195E+01
 -1      3356 2.60500E+01
 -1      3357 2.12050E+01
 -1      3358 2.93591E+01
 -1      3359 3.15267E+01
 -1      3360 3.04436E+01
 -1      3361 1.61406E+00
 -1      3362 1.90459E+00
 -1      3363 1.61406E+00
 -1      3364 1.90459E+00
 -1      3365 1.90459E+00
 -1      3366 2.41499E+01
 -1      3367 1.21390E+00
 -1      3368 2.08846E+01
 -1      3369 2.09078E+01
 -1      3370 2.81915E+01
 -1      3371 2.85479E+01
 -1      3372 2.85711E+01
 -1      3373 2.12642E+01
 -1      3374 1.68143E+00
 -1      3375 1.54021E+00
 -1      3376 4.08266E+00
 -1      3377 4.26073E+00
 -1      3378 4.56933E+00
 -1      3379 7.11177E+00
 -1      3380 4.39125E+00
 -1      3381 1.05003E+00
 -1      3382 9.74563E-01
 -1      3383 1.28667E+00
 -1      3384 1.36255E+00
 -1      3385 1.28709E+00
 -1      3386 1.05044E+00
 -1      3387 2.80585E+01
 -1      3388 2.07748E+01
 -1      3389 2.84381E+01
 -1      3390 2.78333E+01
 -1      3391 1.87949E+01
 -1      3392 1.40209E+01
 -1      3393 1.55305E+01
 -1      3394 1.14176E+01
 -1      3395 1.29272E+01
 -1      3396 2.17216E+01
 -1      3397 1.46203E+01
 -1      3398 1.49238E+01
 -1      3399 2.15577E+01
 -1      3400 2.50843E+01
 -1      3401 2.12541E+01
 -1      3402 1.60609E+00
 -1      3403 1.42802E+00
 -1      3404 4.45713E+00
 -1      3405 1.11591E+00
 -1      3406 1.42843E+00
 -1      3407 2.24420E+01
 -1      3408 2.96732E+01
 -1      3409 1.04016E+00
 -1      3410 2.80175E+01
 -1      3411 9.32893E+00
 -1      3412 8.44957E+00
 -1      3413 8.75156E+00
 -1      3414 7.87220E+00
 -1      3415 2.89456E+01
 -1      3416 2.85779E+01
 -1      3417 2.87918E+01
 -1      3418 2.00112E+01
 -1      3419 1.59624E+00
 -1      3420 1.46386E+00
 -1      3421 1.59624E+00
 -1      3422 1.46386E+00
 -1      3423 1.72145E+00
 -1      3424 2.79487E+01
 -1      3425 2.80585E+01
 -1      3426 2.79487E+01
 -1      3427 2.80585E+01
 -1      3428 2.79487E+01
 -1      3429 2.02002E+01
 -1      3430 1.77695E+01
 -1      3431 2.39300E+01
 -1      3432 2.17617E+01
 -1      3433 2.91647E+01
 -1      3434 2.41849E+01
 -1      3435 1.92562E+01
 -1      3436 2.21874E+01
 -1      3437 1.92584E+01
 -1      3438 1.88853E+01
 -1      3439 2.18165E+01
 -1      3440 2.18142E+01
 -1      3441 2.81684E+01
 -1      3442 2.80585E+01
 -1      3443 2.80585E+01
 -1      3444 2.13316E+00
 -1      3445 2.09548E+00
 -1      3446 1.06316E+01
 -1      3447 2.10262E+01
 -1      3448 8.64910E+00
 -1      3449 1.40941E+01
 -1      3450 1.04573E+01
 -1      3451 7.49094E+00
 -1      3452 1.29360E+01
 -1      3453 1.11278E+01
 -1      3454 9.91617E+00
 -1      3455 1.11011E+01
 -1      3456 1.11011E+01
 -1      3457 9.94289E+00
 -1      3458 9.94289E+00
 -1      3459 1.04847E+00
 -1      3460 1.85518E+00
 -1      3461 1.43271E+01
 -1      3462 1.47543E+01
 -1      3463 1.42888E+01
 -1      3464 2.21438E+01
 -1      3465 1.62139E+01
 -1      3466 1.83822E+01
 -1      3467 2.21438E+01
 -1      3468 1.62139E+01
 -1      3469 1.99755E+01
 -1      3470 2.43122E+01
 -1      3471 2.43122E+01
 -1      3472 2.43122E+01
 -1      3473 2.43122E+01
 -1      3474 2.43122E+01
 -1      3475 2.43122E+01
 -1      3476 2.48039E+01
 -1      3477 2.27740E+01
 -1      3478 2.48039E+01
 -1      3479 1.26487E+00
 -1      3480 1.25385E+00
 -1      3481 6.65610E-01
 -1      3482 1.29865E+00
 -1      3483 6.76625E-01
 -1      3484 1.73819E+01
 -1      3485 1.71050E+01
 -1      3486 2.46632E+01
 -1      3487 1.93761E+01
 -1      3488 1.68143E+00
 -1      3489 3.55277E+00
 -1      3490 5.24314E+00
 -1      3491 8.27184E+00
 -1      3492 3.17182E+01
 -1      3493 3.11493E+01
 -1      3494 6.47850E-01
 -1      3495 1.92465E+01
 -1      3496 1.91825E+01
 -1      3497 2.22538E+01
 -1      3498 2.26356E+01
 -1      3499 2.26356E+01
 -1      3500 1.63272E+01
 -1      3501 1.92584E+01
 -1      3502 1.92562E+01
 -1      3503 3.85338E+00
 -1      3504 4.53439E+00
 -1      3505 4.57570E+00
 -1      3506 1.61798E+01
 -1      3507 2.13340E+01
 -1      3508 2.61790E+01
 -1      3509 1.73418E+01
 -1      3510 7.16495E+00
 -1      3511 6.88480E+00
 -1      3512 7.08333E+00
 -1      3513 7.39192E+00
 -1      3514 7.19339E+00
 -1      3515 9.40406E-01
 -1      3516 1.07581E+00
 -1      3517 1.07581E+00
 -1      3518 1.15169E+00
 -1      3519 1.15169E+00
 -1      3520 6.88480E+00
 -1      3521 6.80318E+00
 -1      3522 9.40406E-01
 -1      3523 1.07581E+00
 -1      3524 7.80999E-01
 -1      3525 9.16399E-01
 -1      3526 5.70652E+00
 -1      3527 5.70652E+00
 -1      3528 1.71849E+01
 -1      3529 2.84381E+01
 -1      3530 1.41362E+01
 -1      3531 1.36479E+01
 -1      3532 1.75643E+01
 -1      3533 1.70760E+01
 -1      3534 1.87571E+01
 -1      3535 2.12656E+01
 -1      3536 2.25181E+01
 -1      3537 1.25697E+01
 -1      3538 2.04952E+01
 -1      3539 2.17478E+01
 -1      3540 2.82147E+01
 -1      3541 1.89574E+00
 -1      3542 1.60521E+00
 -1      3543 9.83550E+00
 -1      3544 9.86221E+00
 -1      3545 9.83550E+00
 -1      3546 9.83086E+00
 -1      3547 1.52759E+01
 -1      3548 1.23095E+01
 -1      3549 2.81915E+01
 -1      3550 1.98746E+01
 -1      3551 1.75590E+00
 -1      3552 2.01350E+00
 -1      3553 1.26217E+01
 -1      3554 1.26557E+01
 -1      3555 1.97537E+01
 -1      3556 2.18296E+01
 -1      3557 2.17956E+01
 -1      3558 2.59508E+01
 -1      3559 2.89275E+01
 -1      3560 2.78666E+01
 -1      3561 2.76824E+01
 -1      3562 1.53752E+01
 -1      3563 1.01647E+01
 -1      3564 1.27680E+01
 -1      3565 1.58085E+01
 -1      3566 1.32051E+01
 -1      3567 1.83019E+01
 -1      3568 2.22567E+01
 -1      3569 1.99137E+01
 -1      3570 2.00150E+01
 -1      3571 1.76720E+01
 -1      3572 2.56842E+01
 -1      3573 2.68899E+01
 -1      3574 2.45188E+01
 -1      3575 2.54520E+01
 -1      3576 2.51701E+01
 -1      3577 2.71565E+01
 -1      3578 2.36346E+01
 -1      3579 2.36346E+01
 -1      3580 2.36346E+01
 -1      3581 1.77047E+01
 -1      3582 2.14663E+01
 -1      3583 2.61033E+01
 -1      3584 1.19065E+01
 -1      3585 2.23705E+01
 -1      3586 7.91734E-01
 -1      3587 7.29669E-01
 -1      3588 1.05263E+00
 -1      3589 1.10124E+00
 -1      3590 8.70612E+00
 -1      3591 8.67941E+00
 -1      3592 8.59873E+00
 -1      3593 7.19846E+00
 -1      3594 1.75590E+00
 -1      3595 2.30555E+00
 -1      3596 9.73715E-01
 -1      3597 2.33578E+00
 -1      3598 2.12719E+00
 -1      3599 2.82131E+01
 -1      3600 2.82362E+01
 -1      3601 2.85927E+01
 -1      3602 1.29478E+01
 -1      3603 1.13286E+00
 -1      3604 2.81032E+01
 -1      3605 1.44818E+01
 -1      3606 1.68237E+01
 -1      3607 1.39853E+01
 -1      3608 1.39116E+01
 -1      3609 1.62535E+01
 -1      3610 1.67500E+01
 -1      3611 3.68128E+00
 -1      3612 3.60582E+00
 -1      3613 3.68170E+00
 -1      3614 6.40180E+00
 -1      3615 6.71040E+00
 -1      3616 2.81032E+01
 -1      3617 1.16725E+01
 -1      3618 1.10460E+01
 -1      3619 1.05822E+01
 -1      3620 1.02833E+01
 -1      3621 1.34206E+01
 -1      3622 1.41828E+01
 -1      3623 1.44818E+01
 -1      3624 2.40937E+01
 -1      3625 2.34162E+01
 -1      3626 3.11493E+01
 -1      3627 3.17182E+01
 -1      3628 1.23519E+01
 -1      3629 1.26698E+01
 -1      3630 2.13171E+01
 -1      3631 1.95210E+01
 -1      3632 1.92032E+01
 -1      3633 3.74716E+00
 -1      3634 2.82131E+01
 -1      3635 9.86429E+00
 -1      3636 1.60521E+00
 -1      3637 1.88689E+00
 -1      3638 2.40937E+01
 -1      3639 1.97549E+01
 -1      3640 2.19254E+01
 -1      3641 1.27003E+01
 -1      3642 2.13476E+01
 -1      3643 1.94112E+01
 -1      3644 2.12378E+01
 -1      3645 1.84697E+01
 -1      3646 1.84720E+01
 -1      3647 1.80988E+01
 -1      3648 1.82486E+01
 -1      3649 2.10362E+01
 -1      3650 3.24261E+01
 -1      3651 2.45550E+00
 -1      3652 2.18277E+00
 -1      3653 4.62262E+00
 -1      3654 1.02757E+01
 -1      3655 1.34130E+01
 -1      3656 1.36127E+01
 -1      3657 1.28429E+01
 -1      3658 7.68109E-01
 -1      3659 8.15856E-01
 -1      3660 7.92129E-01
 -1      3661 9.90623E-01
 -1      3662 2.96732E+01
 -1      3663 2.49612E+01
 -1      3664 2.14346E+01
 -1      3665 1.69165E+01
 -1      3666 2.91647E+01
 -1      3667 8.17728E-01
 -1      3668 8.62524E-01
 -1      3669 1.92212E+01
 -1      3670 2.78582E+01
 -1      3671 1.89228E+01
 -1      3672 2.72055E+01
 -1      3673 1.55408E+01
 -1      3674 1.50399E+01
 -1      3675 1.54671E+01
 -1      3676 1.59020E+01
 -1      3677 1.83648E+01
 -1      3678 1.98154E+01
 -1      3679 7.34798E-01
 -1      3680 8.19052E-01
 -1      3681 1.08275E+00
 -1      3682 1.09844E+00
 -1      3683 9.98496E-01
 -1      3684 8.03364E-01
 -1      3685 1.08275E+00
 -1      3686 1.16432E+00
 -1      3687 1.06438E+00
 -1      3688 1.52117E+01
 -1      3689 1.59245E+01
 -1      3690 3.48129E+00
 -1      3691 5.04273E+00
 -1      3692 6.40180E+00
 -1      3693 7.96325E+00
 -1      3694 2.26993E+01
 -1      3695 2.30342E+01
 -1      3696 2.84056E+01
 -1      3697 2.87405E+01
 -1      3698 1.21411E+00
 -1      3699 1.27991E+00
 -1      3700 5.89423E-01
 -1      3701 7.94649E-01
 -1      3702 8.60446E-01
 -1      3703 2.03747E+01
 -1      3704 2.06973E+01
 -1      3705 2.78458E+01
 -1      3706 2.77360E+01
 -1      3707 2.05874E+01
 -1      3708 2.05198E+01
 -1      3709 2.79909E+01
 -1      3710 2.03684E+01
 -1      3711 2.05459E+01
 -1      3712 1.52444E+01
 -1      3713 1.96710E+01
 -1      3714 1.29993E+01
 -1      3715 2.11948E+01
 -1      3716 8.50479E+00
 -1      3717 1.00579E+01
 -1      3718 9.23375E+00
 -1      3719 1.00579E+01
 -1      3720 6.60317E+00
 -1      3721 1.39006E+01
 -1      3722 1.07598E+01
 -1      3723 1.39006E+01
 -1      3724 1.60887E+01
 -1      3725 1.60887E+01
 -1      3726 1.02372E+01
 -1      3727 1.26751E+01
 -1      3728 9.91525E+00
 -1      3729 1.26449E+01
 -1      3730 1.78044E+01
 -1      3731 1.78044E+01
 -1      3732 1.39588E+01
 -1      3733 1.74126E+01
 -1      3734 1.68802E+01
 -1      3735 1.27521E+01
 -1      3736 1.46687E+01
 -1      3737 1.83480E+01
 -1      3738 1.95925E+01
 -1      3739 1.49329E+01
 -1      3740 1.51594E+01
 -1      3741 1.15146E+01
 -1      3742 1.41284E+01
 -1      3743 1.88197E+01
 -1      3744 1.92264E+01
 -1      3745 2.00874E+01
 -1      3746 2.38747E+01
 -1      3747 1.67436E+01
 -1      3748 1.97587E+01
 -1      3749 1.44275E+01
 -1      3750 1.74579E+01
 -1      3751 1.76089E+01
 -1      3752 2.13181E+01
 -1      3753 1.34471E+01
 -1      3754 1.96272E+01
 -1      3755 1.59310E+01
 -1      3756 1.69485E+01
 -1      3757 1.51594E+01
 -1      3758 1.80932E+01
 -1      3759 2.10525E+01
 -1      3760 2.03211E+01
 -1      3761 2.06395E+01
 -1      3762 2.05041E+01
 -1      3763 2.72401E+01
 -1      3764 1.78491E+01
 -1      3765 1.45961E+01
 -1      3766 2.07024E+01
 -1      3767 1.82058E+01
 -1      3768 1.39942E+01
 -1      3769 1.94326E+01
 -1      3770 1.92291E+01
 -1      3771 1.96109E+01
 -1      3772 2.32199E+01
 -1      3773 2.52957E+01
 -1      3774 1.60372E+01
 -1      3775 1.54671E+01
 -1      3776 1.96109E+01
 -1      3777 1.08144E+01
 -1      3778 1.06584E+01
 -1      3779 9.18687E+00
 -1      3780 9.65627E+00
 -1      3781 9.50020E+00
 -1      3782 2.24414E+01
 -1      3783 2.35479E+01
 -1      3784 7.91734E-01
 -1      3785 1.88719E+01
 -1      3786 1.88719E+01
 -1      3787 1.23758E+01
 -1      3788 2.03013E+01
 -1      3789 2.16126E+01
 -1      3790 2.28151E+01
 -1      3791 1.29557E+01
 -1      3792 2.07132E+01
 -1      3793 2.19157E+01
 -1      3794 1.50390E+01
 -1      3795 1.67264E+01
 -1      3796 1.17899E+01
 -1      3797 1.50390E+01
 -1      3798 1.67264E+01
 -1      3799 1.77529E+01
 -1      3800 2.00381E+01
 -1      3801 1.34789E+01
 -1      3802 1.77529E+01
 -1      3803 2.00381E+01
 -1      3804 1.96026E+00
 -1      3805 1.50298E+01
 -1      3806 1.50298E+01
 -1      3807 1.41572E+01
 -1      3808 1.45648E+01
 -1      3809 1.45648E+01
 -1      3810 1.54374E+01
 -1      3811 9.71523E+00
 -1      3812 9.71523E+00
 -1      3813 9.51430E+00
 -1      3814 1.07337E+01
 -1      3815 1.07337E+01
 -1      3816 1.09347E+01
 -1      3817 1.71934E+01
 -1      3818 1.89271E+01
 -1      3819 1.85562E+01
 -1      3820 1.83861E+01
 -1      3821 1.85562E+01
 -1      3822 1.27235E+01
 -1      3823 2.20954E+01
 -1      3824 2.36752E+01
 -1      3825 1.95592E+01
 -1      3826 2.66904E+01
 -1      3827 1.92375E+01
 -1      3828 1.79931E+01
 -1      3829 2.48334E+01
 -1      3830 1.08668E+00
 -1      3831 1.16256E+00
 -1      3832 6.80318E+00
 -1      3833 7.11177E+00
 -1      3834 1.96447E+01
 -1      3835 2.00011E+01
 -1      3836 2.83841E+01
 -1      3837 2.14731E+01
 -1      3838 2.87405E+01
 -1      3839 8.72851E+00
 -1      3840 8.16707E+00
 -1      3841 9.09484E+00
 -1      3842 9.04184E+00
 -1      3843 7.83623E+00
 -1      3844 8.80859E+00
 -1      3845 9.76136E+00
 -1      3846 1.00280E+01
 -1      3847 1.31946E+01
 -1      3848 1.36021E+01
 -1      3849 1.18961E+01
 -1      3850 1.32664E+01
 -1      3851 1.13135E+01
 -1      3852 1.25562E+01
 -1      3853 1.90416E+01
 -1      3854 1.67504E+01
 -1      3855 1.56786E+01
 -1      3856 1.51755E+01
 -1      3857 2.31721E+01
 -1      3858 1.84943E+01
 -1      3859 2.68491E+01
 -1      3860 2.01132E+01
 -1      3861 2.70321E+01
 -1      3862 2.12520E+01
 -1      3863 1.96321E+01
 -1      3864 2.66904E+01
 -1      3865 1.92629E+01
 -1      3866 1.90550E+01
 -1      3867 1.36010E+01
 -1      3868 2.08587E+01
 -1      3869 2.30876E+01
 -1      3870 1.84116E+01
 -1      3871 2.30876E+01
 -1      3872 1.73967E+01
 -1      3873 1.78570E+01
 -1      3874 1.73967E+01
 -1      3875 2.26272E+01
 -1      3876 1.90550E+01
 -1      3877 2.66412E+01
 -1      3878 1.94629E+01
 -1      3879 1.77592E+01
 -1      3880 1.37858E+01
 -1      3881 1.66276E+01
 -1      3882 1.49239E+01
 -1      3883 2.06011E+01
 -1      3884 1.14925E+01
 -1      3885 1.64291E+01
 -1      3886 2.26546E+01
 -1      3887 1.60372E+01
 -1      3888 1.54671E+01
 -1      3889 1.07830E+01
 -1      3890 1.43294E+01
 -1      3891 1.33714E+01
 -1      3892 1.99306E+01
 -1      3893 1.20197E+01
 -1      3894 1.32826E+01
 -1      3895 1.61245E+01
 -1      3896 1.36609E+01
 -1      3897 1.21844E+01
 -1      3898 1.82156E+01
 -1      3899 1.44050E+01
 -1      3900 8.74287E+00
 -1      3901 9.65849E+00
 -1      3902 9.72719E+00
 -1      3903 1.73981E+01
 -1      3904 1.54374E+01
 -1      3905 2.25448E+01
 -1      3906 1.57468E+01
 -1      3907 1.51732E+01
 -1      3908 1.83947E+01
 -1      3909 1.89682E+01
 -1      3910 1.89682E+01
 -1      3911 1.27236E+01
 -1      3912 1.31406E+01
 -1      3913 2.07423E+01
 -1      3914 2.81684E+01
 -1      3915 1.49605E+01
 -1      3916 1.47000E+01
 -1      3917 2.34921E+01
 -1      3918 1.90282E+01
 -1      3919 1.27236E+01
 -1      3920 1.31406E+01
 -1      3921 2.08683E+01
 -1      3922 1.78895E+01
 -1      3923 1.39994E+01
 -1      3924 1.37389E+01
 -1      3925 1.26569E+01
 -1      3926 1.70385E+01
 -1      3927 2.09241E+01
 -1      3928 2.30876E+01
 -1      3929 2.81684E+01
 -1      3930 1.60021E+01
 -1      3931 1.92562E+01
 -1      3932 2.34364E+01
 -1      3933 2.19892E+01
 -1      3934 1.32221E+01
 -1      3935 2.21821E+01
 -1      3936 6.18333E-01
 -1      3937 8.23559E-01
 -1      3938 1.30525E+01
 -1      3939 2.05436E+01
 -1      3940 2.65479E+01
 -1      3941 2.66836E+01
 -1      3942 7.41106E-01
 -1      3943 9.83219E-01
 -1      3944 2.68491E+01
 -1      3945 2.72401E+01
 -1      3946 2.59508E+01
 -1      3947 2.57678E+01
 -1      3948 2.55599E+01
 -1      3949 1.22208E+01
 -1      3950 7.47644E+00
 -1      3951 2.66412E+01
 -1      3952 2.59148E+01
 -1      3953 2.59148E+01
 -1      3954 2.55599E+01
 -1      3955 2.66904E+01
 -1      3956 2.64909E+01
 -1      3957 2.64909E+01
 -1      3958 2.64909E+01
 -1      3959 2.66904E+01
 -1      3960 1.99029E+01
 -1      3961 2.56842E+01
 -1      3962 1.86972E+01
 -1      3963 1.97034E+01
 -1      3964 2.54847E+01
 -1      3965 1.83378E+01
 -1      3966 1.86927E+01
 -1      3967 1.93440E+01
 -1      3968 2.58396E+01
 -1      3969 2.68899E+01
 -1      3970 2.68899E+01
 -1      3971 2.68899E+01
 -1      3972 2.66904E+01
 -1      3973 2.03609E+01
 -1      3974 2.04966E+01
 -1      3975 1.99719E+01
 -1      3976 2.65661E+01
 -1      3977 2.00470E+01
 -1      3978 2.01714E+01
 -1      3979 2.67655E+01
 -1      3980 1.63594E+01
 -1      3981 3.42824E+00
 -1      3982 6.34876E+00
 -1      3983 6.34876E+00
 -1      3984 2.01514E+01
 -1      3985 2.05423E+01
 -1      3986 2.02757E+01
 -1      3987 2.71565E+01
 -1      3988 9.64471E-01
 -1      3989 1.55264E+01
 -1      3990 1.08275E+00
 -1      3991 2.83841E+01
 -1      3992 2.02873E+01
 -1      3993 2.79097E+01
 -1      3994 2.02635E+01
 -1      3995 2.05222E+01
 -1      3996 8.13802E-01
 -1      3997 1.36864E+01
 -1      3998 1.03627E+00
 -1      3999 2.26778E+01
 -1      4000 1.53977E+01
 -1      4001 1.59295E+01
 -1      4002 1.57954E+01
 -1      4003 1.87243E+01
 -1      4004 1.88585E+01
 -1      4005 2.02879E+01
 -1      4006 2.81435E+01
 -1      4007 3.24261E+01
 -1      4008 1.52759E+01
 -1      4009 1.56270E+01
 -1      4010 1.50006E+01
 -1      4011 1.46495E+01
 -1      4012 1.50006E+01
 -1      4013 1.52759E+01
 -1      4014 1.53950E+00
 -1      4015 7.41933E-01
 -1      4016 1.44050E+01
 -1      4017 1.73981E+01
 -1      4018 1.92562E+01
 -1      4019 2.24901E+01
 -1      4020 2.25459E+01
 -1      4021 1.56393E+01
 -1      4022 1.60370E+01
 -1      4023 2.79097E+01
 -1      4024 2.05222E+01
 -1      4025 1.24257E+01
 -1      4026 1.27010E+01
 -1      4027 9.62722E+00
 -1      4028 1.28286E+01
 -1      4029 1.25533E+01
 -1      4030 1.56771E+01
 -1      4031 1.59674E+01
 -1      4032 5.93356E+00
 -1      4033 1.71528E+01
 -1      4034 1.29741E+01
 -1      4035 1.22372E+01
 -1      4036 1.29093E+01
 -1      4037 9.24411E+00
 -1      4038 9.16343E+00
 -1      4039 2.67444E+01
 -1      4040 2.71353E+01
 -1      4041 2.56631E+01
 -1      4042 2.68687E+01
 -1      4043 2.66692E+01
 -1      4044 2.66692E+01
 -1      4045 2.60180E+01
 -1      4046 2.68687E+01
 -1      4047 1.56138E+01
 -1      4048 1.19833E+01
 -1      4049 1.76276E+01
 -1      4050 1.79538E+01
 -1      4051 1.43233E+01
 -1      4052 1.43063E+01
 -1      4053 1.21600E+01
 -1      4054 1.61978E+01
 -1      4055 2.17059E+01
 -1      4056 1.79283E+01
 -1      4057 1.76886E+01
 -1      4058 2.31967E+01
 -1      4059 2.38743E+01
 -1      4060 2.38743E+01
 -1      4061 2.34364E+01
 -1      4062 2.31967E+01
 -1      4063 1.29031E+01
 -1      4064 1.59023E+01
 -1      4065 1.52759E+01
 -1      4066 1.59023E+01
 -1      4067 1.59023E+01
 -1      4068 1.83049E+01
 -1      4069 1.79538E+01
 -1      4070 1.60370E+01
 -1      4071 9.96961E+00
 -1      4072 1.26871E+01
 -1      4073 1.26871E+01
 -1      4074 9.86221E+00
 -1      4075 1.25798E+01
 -1      4076 9.63456E+00
 -1      4077 9.63456E+00
 -1      4078 8.77213E+00
 -1      4079 1.45000E+01
 -1      4080 1.41082E+01
 -1      4081 1.32767E+01
 -1      4082 5.14218E+00
 -1      4083 2.91470E+00
 -1      4084 5.56778E+00
 -1      4085 3.34030E+00
 -1      4086 9.45582E+00
 -1      4087 8.92619E+00
 -1      4088 1.41159E+01
 -1      4089 1.29567E+01
 -1      4090 1.72097E+01
 -1      4091 5.24908E+00
 -1      4092 7.42037E+00
 -1      4093 1.68507E+01
 -1      4094 8.71622E-01
 -1      4095 3.90678E+00
 -1      4096 5.70652E+00
 -1      4097 1.97025E+01
 -1      4098 1.92233E+01
 -1      4099 1.75196E+01
 -1      4100 1.61535E+01
 -1      4101 2.57678E+01
 -1      4102 2.44785E+01
 -1      4103 1.95122E+01
 -1      4104 1.61535E+01
 -1      4105 1.94983E+01
 -1      4106 1.99656E+01
 -1      4107 2.78666E+01
 -1      4108 2.80175E+01
 -1      4109 1.87684E+01
 -1      4110 1.87684E+01
 -1      4111 7.90603E+00
 -1      4112 1.07002E+01
 -1      4113 1.08666E+01
 -1      4114 8.88027E+00
 -1      4115 1.52503E+01
 -1      4116 1.72110E+01
 -1      4117 1.46714E+01
 -1      4118 1.26577E+01
 -1      4119 1.28874E+01
 -1      4120 1.53782E+01
 -1      4121 1.26577E+01
 -1      4122 2.51701E+01
 -1      4123 2.51701E+01
 -1      4124 2.61784E+01
 -1      4125 2.61784E+01
 -1      4126 1.16725E+01
 -1      4127 1.13972E+01
 -1      4128 2.68899E+01
 -1      4129 2.68899E+01
 -1      4130 1.86972E+01
 -1      4131 1.80232E+01
 -1      4132 1.37329E+01
 -1      4133 1.73981E+01
 -1      4134 1.73981E+01
 -1      4135 2.19003E+01
 -1      4136 2.24420E+01
 -1      4137 1.76682E+01
 -1      4138 1.76682E+01
 -1      4139 2.06731E+01
 -1      4140 2.17945E+01
 -1      4141 1.94044E+01
 -1      4142 1.82526E+01
 -1      4143 1.99895E+01
 -1      4144 2.38883E+01
 -1      4145 1.52728E+01
 -1      4146 1.39722E+01
 -1      4147 8.48990E+00
 -1      4148 1.64678E+01
 -1      4149 1.41272E+01
 -1      4150 1.45102E+01
 -1      4151 1.47395E+01
 -1      4152 1.47395E+01
 -1      4153 1.04811E+01
 -1      4154 1.01015E+01
 -1      4155 1.24743E+01
 -1      4156 1.91076E+01
 -1      4157 1.75277E+01
 -1      4158 1.76526E+01
 -1      4159 1.73795E+01
 -1      4160 1.53602E+01
 -1      4161 1.91379E+01
 -1      4162 1.13892E+01
 -1      4163 1.38192E+01
 -1      4164 1.27085E+01
 -1      4165 1.95842E+01
 -1      4166 1.79354E+01
 -1      4167 2.09241E+01
 -1      4168 2.34364E+01
 -1      4169 2.38743E+01
 -1      4170 1.94567E+01
 -1      4171 2.02757E+01
 -1      4172 2.19917E+01
 -1      4173 1.88784E+01
 -1      4174 1.97819E+01
 -1      4175 1.75424E+01
 -1      4176 1.90554E+01
 -1      4177 1.42276E+01
 -1      4178 1.41970E+01
 -1      4179 1.41970E+01
 -1      4180 8.61199E+00
 -1      4181 1.49776E+01
 -1      4182 8.61199E+00
 -1      4183 1.49776E+01
 -1      4184 1.69750E+01
 -1      4185 1.69750E+01
 -1      4186 1.23997E+01
 -1      4187 1.23997E+01
 -1      4188 2.17945E+01
 -1      4189 1.79180E+01
 -1      4190 1.92445E+01
 -1      4191 1.74522E+01
 -1      4192 1.77095E+01
 -1      4193 2.13310E+01
 -1      4194 1.56115E+01
 -1      4195 2.78293E+01
 -1      4196 2.57156E+01
 -1      4197 1.41954E+01
 -1      4198 1.75122E+01
 -1      4199 8.62719E+00
 -1      4200 1.24231E+01
 -1      4201 1.24522E+01
 -1      4202 1.55969E+01
 -1      4203 2.09587E+01
 -1      4204 1.92471E+01
 -1      4205 1.89012E+01
 -1      4206 2.01459E+01
 -1      4207 1.42047E+01
 -1      4208 1.96798E+01
 -1      4209 2.71565E+01
 -1      4210 2.68687E+01
 -1      4211 2.76824E+01
 -1      4212 1.34854E+01
 -1      4213 1.41706E+01
 -1      4214 1.72110E+01
 -1      4215 1.83314E+01
 -1      4216 1.43504E+01
 -1      4217 1.14237E+01
 -1      4218 1.13942E+01
 -1      4219 1.87684E+01
 -1      4220 1.29093E+01
 -1      4221 1.31682E+01
 -1      4222 2.79926E+01
 -1      4223 2.56631E+01
 -1      4224 2.00150E+01
 -1      4225 2.19003E+01
 -1      4226 1.95573E+01
 -1      4227 1.28658E+01
 -1      4228 1.46034E+01
 -1      4229 7.77668E+00
 -1      4230 1.50561E+01
 -1      4231 9.45366E+00
 -1      4232 1.22608E+01
 -1      4233 1.22182E+01
 -1      4234 1.74557E+01
 -1      4235 1.51912E+01
 -1      4236 2.58396E+01
 -1      4237 2.53485E+01
 -1      4238 2.34921E+01
 -1      4239 2.36558E+01
 -1      4240 2.36558E+01
 -1      4241 2.62816E+01
 -1      4242 1.22362E+01
 -1      4243 1.92471E+01
 -1      4244 2.01086E+01
 -1      4245 2.10877E+01
 -1      4246 2.48039E+01
 -1      4247 1.37557E+01
 -1      4248 1.15014E+01
 -1      4249 1.29701E+01
 -1      4250 1.44033E+01
 -1      4251 1.28720E+01
 -1      4252 1.44033E+01
 -1      4253 9.85015E+00
 -1      4254 9.14527E+00
 -1      4255 9.81993E+00
 -1      4256 2.00249E+01
 -1      4257 1.62857E+01
 -1      4258 1.75283E+01
 -1      4259 1.46676E+00
 -1      4260 1.52931E+00
 -1      4261 1.27853E+01
 -1      4262 2.65040E+00
 -1      4263 1.51745E+00
 -1      4264 2.14214E+00
 -1      4265 2.41285E+00
 -1      4266 3.30868E+00
 -1      4267 2.58373E+00
 -1      4268 1.36669E+01
 -1      4269 1.26349E+01
 -1      4270 2.10933E+01
 -1      4271 2.32599E+01
 -1      4272 2.87464E+01
 -1      4273 7.72386E+00
 -1      4274 4.13302E+00
 -1      4275 2.81882E+01
 -1      4276 1.75133E+00
 -1      4277 2.69790E+00
 -1      4278 2.11562E+00
 -1      4279 2.30374E+00
 -1      4280 1.58579E+00
 -1      4281 7.66888E-01
 -1      4282 1.85055E+01
 -1      4283 2.82128E+00
 -1      4284 2.58373E+00
 -1      4285 1.84697E+01
 -1      4286 2.96732E+01
 -1      4287 2.23154E+00
 -1      4288 1.38035E+00
 -1      4289 1.99125E+00
 -1      4290 2.12719E+00
 -1      4291 1.17661E+01
 -1      4292 1.27131E+01
 -1      4293 2.24038E+01
 -1      4294 2.08344E+01
 -1      4295 3.09199E+00
 -1      4296 1.02203E+01
 -1      4297 1.11214E+01
 -1      4298 2.10698E+01
 -1      4299 2.03645E+01
 -1      4300 1.48043E+00
 -1      4301 2.06441E+00
 -1      4302 2.12349E+00
 -1      4303 2.24647E+00
 -1      4304 1.53950E+00
 -1      4305 2.27238E+01
 -1      4306 2.37857E+01
 -1      4307 3.05570E+00
 -1      4308 2.38858E+00
 -1      4309 1.01781E+01
 -1      4310 1.13132E+01
 -1      4311 2.11726E+01
 -1      4312 2.04776E+01
 -1      4313 1.50148E+01
 -1      4314 1.50148E+01
 -1      4315 1.47175E+01
 -1      4316 2.01107E+01
 -1      4317 2.11726E+01
 -1      4318 2.78274E+00
 -1      4319 2.26336E+00
 -1      4320 2.97086E+00
 -1      4321 1.17456E+01
 -1      4322 1.36477E+01
 -1      4323 1.31481E+01
 -1      4324 1.99125E+00
 -1      4325 1.15096E+01
 -1      4326 2.21345E+01
 -1      4327 1.08731E+01
 -1      4328 1.11351E+01
 -1      4329 1.01781E+01
 -1      4330 1.32256E+01
 -1      4331 1.39191E+01
 -1      4332 1.39191E+01
 -1      4333 9.86492E+00
 -1      4334 9.86492E+00
 -1      4335 9.62173E+00
 -1      4336 9.71163E+00
 -1      4337 9.71163E+00
 -1      4338 9.29719E+00
 -1      4339 1.74522E+01
 -1      4340 1.83943E+01
 -1      4341 1.83943E+01
 -1      4342 1.74522E+01
 -1      4343 1.70583E+01
 -1      4344 1.92445E+01
 -1      4345 1.71452E+01
 -1      4346 2.19798E+01
 -1      4347 1.81032E+01
 -1      4348 1.81563E+01
 -1      4349 2.26518E+01
 -1      4350 1.90303E+01
 -1      4351 1.42929E+01
 -1      4352 1.35227E+01
 -1      4353 1.57090E+01
 -1      4354 1.89012E+01
 -1      4355 1.85532E+01
 -1      4356 2.09587E+01
 -1      4357 2.23154E+00
 -1      4358 2.12719E+00
 -1      4359 1.97099E+01
 -1      4360 1.87520E+01
 -1      4361 2.61784E+01
 -1      4362 1.79501E+01
 -1      4363 2.01177E+01
 -1      4364 1.73192E+01
 -1      4365 4.70320E+00
 -1      4366 2.79802E+01
 -1      4367 2.02967E+01
 -1      4368 1.93398E+01
 -1      4369 1.27495E+01
 -1      4370 7.87220E+00
 -1      4371 1.30105E+01
 -1      4372 1.94127E+01
 -1      4373 1.62704E+01
 -1      4374 1.12464E+01
 -1      4375 2.13906E+01
 -1      4376 2.36700E+00
 -1      4377 2.14800E+00
 -1      4378 2.33006E+00
 -1      4379 1.01767E+01
 -1      4380 1.45804E+01
 -1      4381 1.50424E+01
 -1      4382 1.64345E+01
 -1      4383 2.32599E+01
 -1      4384 1.36762E+01
 -1      4385 1.98156E+01
 -1      4386 2.36749E+00
 -1      4387 1.05411E+01
 -1      4388 1.54792E+01
 -1      4389 1.54792E+01
 -1      4390 1.45021E+01
 -1      4391 2.36749E+00
 -1      4392 1.18839E+00
 -1      4393 2.24647E+00
 -1      4394 2.27098E+00
 -1      4395 1.52931E+00
 -1      4396 7.73460E-01
 -1      4397 7.41933E-01
 -1      4398 1.95234E+00
 -1      4399 1.13344E+00
 -1      4400 2.91470E+00
 -1      4401 7.66888E-01
 -1      4402 1.18992E+00
 -1      4403 1.04847E+00
 -3
 9999
