    1C
    1USimple_beam_and_gap                                               
    1UUSER                                                              
    1UDATE              08.may.2024                                     
    1UTIME              23:13:27                                        
    1UHOST                                                              
    1UPGM               CalculiX                                        
    1UVERSION           Version 2.21                             
    1UCOMPILETIME       Sat Jul 29 17:18:34     2023                    
    1UDIR                                                               
    1UDBN                                                               
    1UMAT    1STEEL                                                     
    1UMAT    2GAP                                                       
    2C                          4405                                     1
 -1         1 0.00000E+00 0.00000E+00 1.00000E+01
 -1         2 0.00000E+00 0.00000E+00 0.00000E+00
 -1         3 0.00000E+00 1.00000E+01 1.00000E+01
 -1         4 0.00000E+00 1.00000E+01 0.00000E+00
 -1         5 1.00000E+02 0.00000E+00 1.00000E+01
 -1         6 1.00000E+02 0.00000E+00 0.00000E+00
 -1         7 1.00000E+02 1.00000E+01 1.00000E+01
 -1         8 1.00000E+02 1.00000E+01 0.00000E+00
 -1         9 0.00000E+00 0.00000E+00 2.50000E+00
 -1        10 0.00000E+00 0.00000E+00 5.00000E+00
 -1        11 0.00000E+00 0.00000E+00 7.50000E+00
 -1        12 0.00000E+00 0.00000E+00 1.25000E+00
 -1        13 0.00000E+00 0.00000E+00 3.75000E+00
 -1        14 0.00000E+00 0.00000E+00 6.25000E+00
 -1        15 0.00000E+00 0.00000E+00 8.75000E+00
 -1        16 0.00000E+00 2.50000E+00 1.00000E+01
 -1        17 0.00000E+00 5.00000E+00 1.00000E+01
 -1        18 0.00000E+00 7.50000E+00 1.00000E+01
 -1        19 0.00000E+00 1.25000E+00 1.00000E+01
 -1        20 0.00000E+00 3.75000E+00 1.00000E+01
 -1        21 0.00000E+00 6.25000E+00 1.00000E+01
 -1        22 0.00000E+00 8.75000E+00 1.00000E+01
 -1        23 0.00000E+00 1.00000E+01 2.50000E+00
 -1        24 0.00000E+00 1.00000E+01 5.00000E+00
 -1        25 0.00000E+00 1.00000E+01 7.50000E+00
 -1        26 0.00000E+00 1.00000E+01 1.25000E+00
 -1        27 0.00000E+00 1.00000E+01 3.75000E+00
 -1        28 0.00000E+00 1.00000E+01 6.25000E+00
 -1        29 0.00000E+00 1.00000E+01 8.75000E+00
 -1        30 0.00000E+00 2.50000E+00 0.00000E+00
 -1        31 0.00000E+00 5.00000E+00 0.00000E+00
 -1        32 0.00000E+00 7.50000E+00 0.00000E+00
 -1        33 0.00000E+00 1.25000E+00 0.00000E+00
 -1        34 0.00000E+00 3.75000E+00 0.00000E+00
 -1        35 0.00000E+00 6.25000E+00 0.00000E+00
 -1        36 0.00000E+00 8.75000E+00 0.00000E+00
 -1        37 1.00000E+02 0.00000E+00 2.50000E+00
 -1        38 1.00000E+02 0.00000E+00 5.00000E+00
 -1        39 1.00000E+02 0.00000E+00 7.50000E+00
 -1        40 1.00000E+02 0.00000E+00 1.25000E+00
 -1        41 1.00000E+02 0.00000E+00 3.75000E+00
 -1        42 1.00000E+02 0.00000E+00 6.25000E+00
 -1        43 1.00000E+02 0.00000E+00 8.75000E+00
 -1        44 1.00000E+02 2.50000E+00 1.00000E+01
 -1        45 1.00000E+02 5.00000E+00 1.00000E+01
 -1        46 1.00000E+02 7.50000E+00 1.00000E+01
 -1        47 1.00000E+02 1.25000E+00 1.00000E+01
 -1        48 1.00000E+02 3.75000E+00 1.00000E+01
 -1        49 1.00000E+02 6.25000E+00 1.00000E+01
 -1        50 1.00000E+02 8.75000E+00 1.00000E+01
 -1        51 1.00000E+02 1.00000E+01 2.50000E+00
 -1        52 1.00000E+02 1.00000E+01 5.00000E+00
 -1        53 1.00000E+02 1.00000E+01 7.50000E+00
 -1        54 1.00000E+02 1.00000E+01 1.25000E+00
 -1        55 1.00000E+02 1.00000E+01 3.75000E+00
 -1        56 1.00000E+02 1.00000E+01 6.25000E+00
 -1        57 1.00000E+02 1.00000E+01 8.75000E+00
 -1        58 1.00000E+02 2.50000E+00 0.00000E+00
 -1        59 1.00000E+02 5.00000E+00 0.00000E+00
 -1        60 1.00000E+02 7.50000E+00 0.00000E+00
 -1        61 1.00000E+02 1.25000E+00 0.00000E+00
 -1        62 1.00000E+02 3.75000E+00 0.00000E+00
 -1        63 1.00000E+02 6.25000E+00 0.00000E+00
 -1        64 1.00000E+02 8.75000E+00 0.00000E+00
 -1        65 2.94118E+00 0.00000E+00 0.00000E+00
 -1        66 5.88235E+00 0.00000E+00 0.00000E+00
 -1        67 8.82353E+00 0.00000E+00 0.00000E+00
 -1        68 1.17647E+01 0.00000E+00 0.00000E+00
 -1        69 1.47059E+01 0.00000E+00 0.00000E+00
 -1        70 1.76471E+01 0.00000E+00 0.00000E+00
 -1        71 2.05882E+01 0.00000E+00 0.00000E+00
 -1        72 2.35294E+01 0.00000E+00 0.00000E+00
 -1        73 2.64706E+01 0.00000E+00 0.00000E+00
 -1        74 2.94118E+01 0.00000E+00 0.00000E+00
 -1        75 3.23529E+01 0.00000E+00 0.00000E+00
 -1        76 3.52941E+01 0.00000E+00 0.00000E+00
 -1        77 3.82353E+01 0.00000E+00 0.00000E+00
 -1        78 4.11765E+01 0.00000E+00 0.00000E+00
 -1        79 4.41176E+01 0.00000E+00 0.00000E+00
 -1        80 4.70588E+01 0.00000E+00 0.00000E+00
 -1        81 5.00000E+01 0.00000E+00 0.00000E+00
 -1        82 5.29412E+01 0.00000E+00 0.00000E+00
 -1        83 5.58824E+01 0.00000E+00 0.00000E+00
 -1        84 5.88235E+01 0.00000E+00 0.00000E+00
 -1        85 6.17647E+01 0.00000E+00 0.00000E+00
 -1        86 6.47059E+01 0.00000E+00 0.00000E+00
 -1        87 6.76471E+01 0.00000E+00 0.00000E+00
 -1        88 7.05882E+01 0.00000E+00 0.00000E+00
 -1        89 7.35294E+01 0.00000E+00 0.00000E+00
 -1        90 7.64706E+01 0.00000E+00 0.00000E+00
 -1        91 7.94118E+01 0.00000E+00 0.00000E+00
 -1        92 8.23529E+01 0.00000E+00 0.00000E+00
 -1        93 8.52941E+01 0.00000E+00 0.00000E+00
 -1        94 8.82353E+01 0.00000E+00 0.00000E+00
 -1        95 9.11765E+01 0.00000E+00 0.00000E+00
 -1        96 9.41176E+01 0.00000E+00 0.00000E+00
 -1        97 9.70588E+01 0.00000E+00 0.00000E+00
 -1        98 1.47059E+00 0.00000E+00 0.00000E+00
 -1        99 4.41176E+00 0.00000E+00 0.00000E+00
 -1       100 7.35294E+00 0.00000E+00 0.00000E+00
 -1       101 1.02941E+01 0.00000E+00 0.00000E+00
 -1       102 1.32353E+01 0.00000E+00 0.00000E+00
 -1       103 1.61765E+01 0.00000E+00 0.00000E+00
 -1       104 1.91176E+01 0.00000E+00 0.00000E+00
 -1       105 2.20588E+01 0.00000E+00 0.00000E+00
 -1       106 2.50000E+01 0.00000E+00 0.00000E+00
 -1       107 2.79412E+01 0.00000E+00 0.00000E+00
 -1       108 3.08824E+01 0.00000E+00 0.00000E+00
 -1       109 3.38235E+01 0.00000E+00 0.00000E+00
 -1       110 3.67647E+01 0.00000E+00 0.00000E+00
 -1       111 3.97059E+01 0.00000E+00 0.00000E+00
 -1       112 4.26471E+01 0.00000E+00 0.00000E+00
 -1       113 4.55882E+01 0.00000E+00 0.00000E+00
 -1       114 4.85294E+01 0.00000E+00 0.00000E+00
 -1       115 5.14706E+01 0.00000E+00 0.00000E+00
 -1       116 5.44118E+01 0.00000E+00 0.00000E+00
 -1       117 5.73529E+01 0.00000E+00 0.00000E+00
 -1       118 6.02941E+01 0.00000E+00 0.00000E+00
 -1       119 6.32353E+01 0.00000E+00 0.00000E+00
 -1       120 6.61765E+01 0.00000E+00 0.00000E+00
 -1       121 6.91176E+01 0.00000E+00 0.00000E+00
 -1       122 7.20588E+01 0.00000E+00 0.00000E+00
 -1       123 7.50000E+01 0.00000E+00 0.00000E+00
 -1       124 7.79412E+01 0.00000E+00 0.00000E+00
 -1       125 8.08824E+01 0.00000E+00 0.00000E+00
 -1       126 8.38235E+01 0.00000E+00 0.00000E+00
 -1       127 8.67647E+01 0.00000E+00 0.00000E+00
 -1       128 8.97059E+01 0.00000E+00 0.00000E+00
 -1       129 9.26471E+01 0.00000E+00 0.00000E+00
 -1       130 9.55882E+01 0.00000E+00 0.00000E+00
 -1       131 9.85294E+01 0.00000E+00 0.00000E+00
 -1       132 2.94118E+00 0.00000E+00 1.00000E+01
 -1       133 5.88235E+00 0.00000E+00 1.00000E+01
 -1       134 8.82353E+00 0.00000E+00 1.00000E+01
 -1       135 1.17647E+01 0.00000E+00 1.00000E+01
 -1       136 1.47059E+01 0.00000E+00 1.00000E+01
 -1       137 1.76471E+01 0.00000E+00 1.00000E+01
 -1       138 2.05882E+01 0.00000E+00 1.00000E+01
 -1       139 2.35294E+01 0.00000E+00 1.00000E+01
 -1       140 2.64706E+01 0.00000E+00 1.00000E+01
 -1       141 2.94118E+01 0.00000E+00 1.00000E+01
 -1       142 3.23529E+01 0.00000E+00 1.00000E+01
 -1       143 3.52941E+01 0.00000E+00 1.00000E+01
 -1       144 3.82353E+01 0.00000E+00 1.00000E+01
 -1       145 4.11765E+01 0.00000E+00 1.00000E+01
 -1       146 4.41176E+01 0.00000E+00 1.00000E+01
 -1       147 4.70588E+01 0.00000E+00 1.00000E+01
 -1       148 5.00000E+01 0.00000E+00 1.00000E+01
 -1       149 5.29412E+01 0.00000E+00 1.00000E+01
 -1       150 5.58824E+01 0.00000E+00 1.00000E+01
 -1       151 5.88235E+01 0.00000E+00 1.00000E+01
 -1       152 6.17647E+01 0.00000E+00 1.00000E+01
 -1       153 6.47059E+01 0.00000E+00 1.00000E+01
 -1       154 6.76471E+01 0.00000E+00 1.00000E+01
 -1       155 7.05882E+01 0.00000E+00 1.00000E+01
 -1       156 7.35294E+01 0.00000E+00 1.00000E+01
 -1       157 7.64706E+01 0.00000E+00 1.00000E+01
 -1       158 7.94118E+01 0.00000E+00 1.00000E+01
 -1       159 8.23529E+01 0.00000E+00 1.00000E+01
 -1       160 8.52941E+01 0.00000E+00 1.00000E+01
 -1       161 8.82353E+01 0.00000E+00 1.00000E+01
 -1       162 9.11765E+01 0.00000E+00 1.00000E+01
 -1       163 9.41176E+01 0.00000E+00 1.00000E+01
 -1       164 9.70588E+01 0.00000E+00 1.00000E+01
 -1       165 1.47059E+00 0.00000E+00 1.00000E+01
 -1       166 4.41176E+00 0.00000E+00 1.00000E+01
 -1       167 7.35294E+00 0.00000E+00 1.00000E+01
 -1       168 1.02941E+01 0.00000E+00 1.00000E+01
 -1       169 1.32353E+01 0.00000E+00 1.00000E+01
 -1       170 1.61765E+01 0.00000E+00 1.00000E+01
 -1       171 1.91176E+01 0.00000E+00 1.00000E+01
 -1       172 2.20588E+01 0.00000E+00 1.00000E+01
 -1       173 2.50000E+01 0.00000E+00 1.00000E+01
 -1       174 2.79412E+01 0.00000E+00 1.00000E+01
 -1       175 3.08824E+01 0.00000E+00 1.00000E+01
 -1       176 3.38235E+01 0.00000E+00 1.00000E+01
 -1       177 3.67647E+01 0.00000E+00 1.00000E+01
 -1       178 3.97059E+01 0.00000E+00 1.00000E+01
 -1       179 4.26471E+01 0.00000E+00 1.00000E+01
 -1       180 4.55882E+01 0.00000E+00 1.00000E+01
 -1       181 4.85294E+01 0.00000E+00 1.00000E+01
 -1       182 5.14706E+01 0.00000E+00 1.00000E+01
 -1       183 5.44118E+01 0.00000E+00 1.00000E+01
 -1       184 5.73529E+01 0.00000E+00 1.00000E+01
 -1       185 6.02941E+01 0.00000E+00 1.00000E+01
 -1       186 6.32353E+01 0.00000E+00 1.00000E+01
 -1       187 6.61765E+01 0.00000E+00 1.00000E+01
 -1       188 6.91176E+01 0.00000E+00 1.00000E+01
 -1       189 7.20588E+01 0.00000E+00 1.00000E+01
 -1       190 7.50000E+01 0.00000E+00 1.00000E+01
 -1       191 7.79412E+01 0.00000E+00 1.00000E+01
 -1       192 8.08824E+01 0.00000E+00 1.00000E+01
 -1       193 8.38235E+01 0.00000E+00 1.00000E+01
 -1       194 8.67647E+01 0.00000E+00 1.00000E+01
 -1       195 8.97059E+01 0.00000E+00 1.00000E+01
 -1       196 9.26471E+01 0.00000E+00 1.00000E+01
 -1       197 9.55882E+01 0.00000E+00 1.00000E+01
 -1       198 9.85294E+01 0.00000E+00 1.00000E+01
 -1       199 2.94118E+00 1.00000E+01 0.00000E+00
 -1       200 5.88235E+00 1.00000E+01 0.00000E+00
 -1       201 8.82353E+00 1.00000E+01 0.00000E+00
 -1       202 1.17647E+01 1.00000E+01 0.00000E+00
 -1       203 1.47059E+01 1.00000E+01 0.00000E+00
 -1       204 1.76471E+01 1.00000E+01 0.00000E+00
 -1       205 2.05882E+01 1.00000E+01 0.00000E+00
 -1       206 2.35294E+01 1.00000E+01 0.00000E+00
 -1       207 2.64706E+01 1.00000E+01 0.00000E+00
 -1       208 2.94118E+01 1.00000E+01 0.00000E+00
 -1       209 3.23529E+01 1.00000E+01 0.00000E+00
 -1       210 3.52941E+01 1.00000E+01 0.00000E+00
 -1       211 3.82353E+01 1.00000E+01 0.00000E+00
 -1       212 4.11765E+01 1.00000E+01 0.00000E+00
 -1       213 4.41176E+01 1.00000E+01 0.00000E+00
 -1       214 4.70588E+01 1.00000E+01 0.00000E+00
 -1       215 5.00000E+01 1.00000E+01 0.00000E+00
 -1       216 5.29412E+01 1.00000E+01 0.00000E+00
 -1       217 5.58824E+01 1.00000E+01 0.00000E+00
 -1       218 5.88235E+01 1.00000E+01 0.00000E+00
 -1       219 6.17647E+01 1.00000E+01 0.00000E+00
 -1       220 6.47059E+01 1.00000E+01 0.00000E+00
 -1       221 6.76471E+01 1.00000E+01 0.00000E+00
 -1       222 7.05882E+01 1.00000E+01 0.00000E+00
 -1       223 7.35294E+01 1.00000E+01 0.00000E+00
 -1       224 7.64706E+01 1.00000E+01 0.00000E+00
 -1       225 7.94118E+01 1.00000E+01 0.00000E+00
 -1       226 8.23529E+01 1.00000E+01 0.00000E+00
 -1       227 8.52941E+01 1.00000E+01 0.00000E+00
 -1       228 8.82353E+01 1.00000E+01 0.00000E+00
 -1       229 9.11765E+01 1.00000E+01 0.00000E+00
 -1       230 9.41176E+01 1.00000E+01 0.00000E+00
 -1       231 9.70588E+01 1.00000E+01 0.00000E+00
 -1       232 1.47059E+00 1.00000E+01 0.00000E+00
 -1       233 4.41176E+00 1.00000E+01 0.00000E+00
 -1       234 7.35294E+00 1.00000E+01 0.00000E+00
 -1       235 1.02941E+01 1.00000E+01 0.00000E+00
 -1       236 1.32353E+01 1.00000E+01 0.00000E+00
 -1       237 1.61765E+01 1.00000E+01 0.00000E+00
 -1       238 1.91176E+01 1.00000E+01 0.00000E+00
 -1       239 2.20588E+01 1.00000E+01 0.00000E+00
 -1       240 2.50000E+01 1.00000E+01 0.00000E+00
 -1       241 2.79412E+01 1.00000E+01 0.00000E+00
 -1       242 3.08824E+01 1.00000E+01 0.00000E+00
 -1       243 3.38235E+01 1.00000E+01 0.00000E+00
 -1       244 3.67647E+01 1.00000E+01 0.00000E+00
 -1       245 3.97059E+01 1.00000E+01 0.00000E+00
 -1       246 4.26471E+01 1.00000E+01 0.00000E+00
 -1       247 4.55882E+01 1.00000E+01 0.00000E+00
 -1       248 4.85294E+01 1.00000E+01 0.00000E+00
 -1       249 5.14706E+01 1.00000E+01 0.00000E+00
 -1       250 5.44118E+01 1.00000E+01 0.00000E+00
 -1       251 5.73529E+01 1.00000E+01 0.00000E+00
 -1       252 6.02941E+01 1.00000E+01 0.00000E+00
 -1       253 6.32353E+01 1.00000E+01 0.00000E+00
 -1       254 6.61765E+01 1.00000E+01 0.00000E+00
 -1       255 6.91176E+01 1.00000E+01 0.00000E+00
 -1       256 7.20588E+01 1.00000E+01 0.00000E+00
 -1       257 7.50000E+01 1.00000E+01 0.00000E+00
 -1       258 7.79412E+01 1.00000E+01 0.00000E+00
 -1       259 8.08824E+01 1.00000E+01 0.00000E+00
 -1       260 8.38235E+01 1.00000E+01 0.00000E+00
 -1       261 8.67647E+01 1.00000E+01 0.00000E+00
 -1       262 8.97059E+01 1.00000E+01 0.00000E+00
 -1       263 9.26471E+01 1.00000E+01 0.00000E+00
 -1       264 9.55882E+01 1.00000E+01 0.00000E+00
 -1       265 9.85294E+01 1.00000E+01 0.00000E+00
 -1       266 2.94118E+00 1.00000E+01 1.00000E+01
 -1       267 5.88235E+00 1.00000E+01 1.00000E+01
 -1       268 8.82353E+00 1.00000E+01 1.00000E+01
 -1       269 1.17647E+01 1.00000E+01 1.00000E+01
 -1       270 1.47059E+01 1.00000E+01 1.00000E+01
 -1       271 1.76471E+01 1.00000E+01 1.00000E+01
 -1       272 2.05882E+01 1.00000E+01 1.00000E+01
 -1       273 2.35294E+01 1.00000E+01 1.00000E+01
 -1       274 2.64706E+01 1.00000E+01 1.00000E+01
 -1       275 2.94118E+01 1.00000E+01 1.00000E+01
 -1       276 3.23529E+01 1.00000E+01 1.00000E+01
 -1       277 3.52941E+01 1.00000E+01 1.00000E+01
 -1       278 3.82353E+01 1.00000E+01 1.00000E+01
 -1       279 4.11765E+01 1.00000E+01 1.00000E+01
 -1       280 4.41176E+01 1.00000E+01 1.00000E+01
 -1       281 4.70588E+01 1.00000E+01 1.00000E+01
 -1       282 5.00000E+01 1.00000E+01 1.00000E+01
 -1       283 5.29412E+01 1.00000E+01 1.00000E+01
 -1       284 5.58824E+01 1.00000E+01 1.00000E+01
 -1       285 5.88235E+01 1.00000E+01 1.00000E+01
 -1       286 6.17647E+01 1.00000E+01 1.00000E+01
 -1       287 6.47059E+01 1.00000E+01 1.00000E+01
 -1       288 6.76471E+01 1.00000E+01 1.00000E+01
 -1       289 7.05882E+01 1.00000E+01 1.00000E+01
 -1       290 7.35294E+01 1.00000E+01 1.00000E+01
 -1       291 7.64706E+01 1.00000E+01 1.00000E+01
 -1       292 7.94118E+01 1.00000E+01 1.00000E+01
 -1       293 8.23529E+01 1.00000E+01 1.00000E+01
 -1       294 8.52941E+01 1.00000E+01 1.00000E+01
 -1       295 8.82353E+01 1.00000E+01 1.00000E+01
 -1       296 9.11765E+01 1.00000E+01 1.00000E+01
 -1       297 9.41176E+01 1.00000E+01 1.00000E+01
 -1       298 9.70588E+01 1.00000E+01 1.00000E+01
 -1       299 1.47059E+00 1.00000E+01 1.00000E+01
 -1       300 4.41176E+00 1.00000E+01 1.00000E+01
 -1       301 7.35294E+00 1.00000E+01 1.00000E+01
 -1       302 1.02941E+01 1.00000E+01 1.00000E+01
 -1       303 1.32353E+01 1.00000E+01 1.00000E+01
 -1       304 1.61765E+01 1.00000E+01 1.00000E+01
 -1       305 1.91176E+01 1.00000E+01 1.00000E+01
 -1       306 2.20588E+01 1.00000E+01 1.00000E+01
 -1       307 2.50000E+01 1.00000E+01 1.00000E+01
 -1       308 2.79412E+01 1.00000E+01 1.00000E+01
 -1       309 3.08824E+01 1.00000E+01 1.00000E+01
 -1       310 3.38235E+01 1.00000E+01 1.00000E+01
 -1       311 3.67647E+01 1.00000E+01 1.00000E+01
 -1       312 3.97059E+01 1.00000E+01 1.00000E+01
 -1       313 4.26471E+01 1.00000E+01 1.00000E+01
 -1       314 4.55882E+01 1.00000E+01 1.00000E+01
 -1       315 4.85294E+01 1.00000E+01 1.00000E+01
 -1       316 5.14706E+01 1.00000E+01 1.00000E+01
 -1       317 5.44118E+01 1.00000E+01 1.00000E+01
 -1       318 5.73529E+01 1.00000E+01 1.00000E+01
 -1       319 6.02941E+01 1.00000E+01 1.00000E+01
 -1       320 6.32353E+01 1.00000E+01 1.00000E+01
 -1       321 6.61765E+01 1.00000E+01 1.00000E+01
 -1       322 6.91176E+01 1.00000E+01 1.00000E+01
 -1       323 7.20588E+01 1.00000E+01 1.00000E+01
 -1       324 7.50000E+01 1.00000E+01 1.00000E+01
 -1       325 7.79412E+01 1.00000E+01 1.00000E+01
 -1       326 8.08824E+01 1.00000E+01 1.00000E+01
 -1       327 8.38235E+01 1.00000E+01 1.00000E+01
 -1       328 8.67647E+01 1.00000E+01 1.00000E+01
 -1       329 8.97059E+01 1.00000E+01 1.00000E+01
 -1       330 9.26471E+01 1.00000E+01 1.00000E+01
 -1       331 9.55882E+01 1.00000E+01 1.00000E+01
 -1       332 9.85294E+01 1.00000E+01 1.00000E+01
 -1       333 0.00000E+00 7.74295E+00 6.17092E+00
 -1       334 0.00000E+00 2.10924E+00 6.15331E+00
 -1       335 0.00000E+00 6.40810E+00 1.97677E+00
 -1       336 0.00000E+00 2.11354E+00 3.75472E+00
 -1       337 0.00000E+00 4.04759E+00 4.96932E+00
 -1       338 0.00000E+00 3.94237E+00 7.69540E+00
 -1       339 0.00000E+00 8.05355E+00 3.59023E+00
 -1       340 0.00000E+00 3.93029E+00 2.23528E+00
 -1       341 0.00000E+00 6.31206E+00 8.18495E+00
 -1       342 0.00000E+00 5.68066E+00 6.22631E+00
 -1       343 0.00000E+00 1.83013E+00 8.16987E+00
 -1       344 0.00000E+00 8.16987E+00 1.83013E+00
 -1       345 0.00000E+00 1.83013E+00 1.83013E+00
 -1       346 0.00000E+00 8.18492E+00 8.18492E+00
 -1       347 0.00000E+00 6.00040E+00 4.06359E+00
 -1       348 0.00000E+00 9.15064E-01 9.08494E+00
 -1       349 0.00000E+00 9.15064E-01 7.83494E+00
 -1       350 0.00000E+00 2.16506E+00 9.08494E+00
 -1       351 0.00000E+00 9.15064E-01 2.16506E+00
 -1       352 0.00000E+00 9.15064E-01 9.15064E-01
 -1       353 0.00000E+00 2.16506E+00 9.15064E-01
 -1       354 0.00000E+00 9.09246E+00 9.09246E+00
 -1       355 0.00000E+00 7.84246E+00 9.09246E+00
 -1       356 0.00000E+00 9.09246E+00 7.84246E+00
 -1       357 0.00000E+00 9.08494E+00 9.15064E-01
 -1       358 0.00000E+00 9.08494E+00 2.16506E+00
 -1       359 0.00000E+00 7.83494E+00 9.15064E-01
 -1       360 0.00000E+00 1.05677E+00 4.37736E+00
 -1       361 0.00000E+00 1.05677E+00 3.12736E+00
 -1       362 0.00000E+00 1.97183E+00 2.79242E+00
 -1       363 0.00000E+00 1.05462E+00 6.82666E+00
 -1       364 0.00000E+00 1.05462E+00 5.57666E+00
 -1       365 0.00000E+00 2.11139E+00 4.95402E+00
 -1       366 0.00000E+00 1.96968E+00 7.16159E+00
 -1       367 0.00000E+00 4.47118E+00 8.84770E+00
 -1       368 0.00000E+00 3.22118E+00 8.84770E+00
 -1       369 0.00000E+00 2.88625E+00 7.93264E+00
 -1       370 0.00000E+00 6.90603E+00 9.09248E+00
 -1       371 0.00000E+00 5.65603E+00 9.09248E+00
 -1       372 0.00000E+00 5.12722E+00 7.94018E+00
 -1       373 0.00000E+00 7.24849E+00 8.18494E+00
 -1       374 0.00000E+00 9.02678E+00 3.04512E+00
 -1       375 0.00000E+00 9.02678E+00 4.29512E+00
 -1       376 0.00000E+00 8.11171E+00 2.71018E+00
 -1       377 0.00000E+00 8.87148E+00 5.58546E+00
 -1       378 0.00000E+00 8.87148E+00 6.83546E+00
 -1       379 0.00000E+00 7.89825E+00 4.88058E+00
 -1       380 0.00000E+00 7.96394E+00 7.17792E+00
 -1       381 0.00000E+00 3.21515E+00 1.11764E+00
 -1       382 0.00000E+00 4.46515E+00 1.11764E+00
 -1       383 0.00000E+00 2.88021E+00 2.03271E+00
 -1       384 0.00000E+00 5.70405E+00 9.88383E-01
 -1       385 0.00000E+00 6.95405E+00 9.88383E-01
 -1       386 0.00000E+00 5.16919E+00 2.10602E+00
 -1       387 0.00000E+00 7.28899E+00 1.90345E+00
 -1       388 0.00000E+00 7.02698E+00 3.82691E+00
 -1       389 0.00000E+00 6.87168E+00 5.11725E+00
 -1       390 0.00000E+00 7.02751E+00 7.17794E+00
 -1       391 0.00000E+00 6.71181E+00 6.19861E+00
 -1       392 0.00000E+00 5.99636E+00 7.20563E+00
 -1       393 0.00000E+00 5.84053E+00 5.14495E+00
 -1       394 0.00000E+00 3.07841E+00 5.56131E+00
 -1       395 0.00000E+00 3.08056E+00 4.36202E+00
 -1       396 0.00000E+00 3.02580E+00 6.92436E+00
 -1       397 0.00000E+00 3.99498E+00 6.33236E+00
 -1       398 0.00000E+00 7.23083E+00 2.78350E+00
 -1       399 0.00000E+00 6.20425E+00 3.02018E+00
 -1       400 0.00000E+00 4.96535E+00 3.14944E+00
 -1       401 0.00000E+00 3.98894E+00 3.60230E+00
 -1       402 0.00000E+00 3.02192E+00 2.99500E+00
 -1       403 0.00000E+00 4.81151E+00 6.96086E+00
 -1       404 0.00000E+00 4.86412E+00 5.59781E+00
 -1       405 0.00000E+00 5.02400E+00 4.51645E+00
 -1       406 1.00000E+02 6.17092E+00 7.74295E+00
 -1       407 1.00000E+02 6.15331E+00 2.10924E+00
 -1       408 1.00000E+02 1.97677E+00 6.40810E+00
 -1       409 1.00000E+02 3.75472E+00 2.11354E+00
 -1       410 1.00000E+02 4.96932E+00 4.04759E+00
 -1       411 1.00000E+02 7.69540E+00 3.94237E+00
 -1       412 1.00000E+02 3.59023E+00 8.05355E+00
 -1       413 1.00000E+02 2.23528E+00 3.93029E+00
 -1       414 1.00000E+02 8.18495E+00 6.31206E+00
 -1       415 1.00000E+02 6.22631E+00 5.68066E+00
 -1       416 1.00000E+02 1.83013E+00 8.16987E+00
 -1       417 1.00000E+02 8.16987E+00 1.83013E+00
 -1       418 1.00000E+02 1.83013E+00 1.83013E+00
 -1       419 1.00000E+02 8.18492E+00 8.18492E+00
 -1       420 1.00000E+02 4.06359E+00 6.00040E+00
 -1       421 1.00000E+02 9.15064E-01 7.83494E+00
 -1       422 1.00000E+02 9.15064E-01 9.08494E+00
 -1       423 1.00000E+02 2.16506E+00 9.08494E+00
 -1       424 1.00000E+02 9.15064E-01 9.15064E-01
 -1       425 1.00000E+02 9.15064E-01 2.16506E+00
 -1       426 1.00000E+02 2.16506E+00 9.15064E-01
 -1       427 1.00000E+02 7.84246E+00 9.09246E+00
 -1       428 1.00000E+02 9.09246E+00 9.09246E+00
 -1       429 1.00000E+02 9.09246E+00 7.84246E+00
 -1       430 1.00000E+02 9.08494E+00 2.16506E+00
 -1       431 1.00000E+02 9.08494E+00 9.15064E-01
 -1       432 1.00000E+02 7.83494E+00 9.15064E-01
 -1       433 1.00000E+02 1.11764E+00 3.21515E+00
 -1       434 1.00000E+02 1.11764E+00 4.46515E+00
 -1       435 1.00000E+02 2.03271E+00 2.88021E+00
 -1       436 1.00000E+02 9.88383E-01 5.70405E+00
 -1       437 1.00000E+02 9.88383E-01 6.95405E+00
 -1       438 1.00000E+02 2.10602E+00 5.16919E+00
 -1       439 1.00000E+02 1.90345E+00 7.28899E+00
 -1       440 1.00000E+02 3.04512E+00 9.02678E+00
 -1       441 1.00000E+02 4.29512E+00 9.02678E+00
 -1       442 1.00000E+02 2.71018E+00 8.11171E+00
 -1       443 1.00000E+02 5.58546E+00 8.87148E+00
 -1       444 1.00000E+02 6.83546E+00 8.87148E+00
 -1       445 1.00000E+02 4.88058E+00 7.89825E+00
 -1       446 1.00000E+02 7.17792E+00 7.96394E+00
 -1       447 1.00000E+02 8.84770E+00 4.47118E+00
 -1       448 1.00000E+02 8.84770E+00 3.22118E+00
 -1       449 1.00000E+02 7.93264E+00 2.88625E+00
 -1       450 1.00000E+02 9.09248E+00 6.90603E+00
 -1       451 1.00000E+02 9.09248E+00 5.65603E+00
 -1       452 1.00000E+02 7.94018E+00 5.12722E+00
 -1       453 1.00000E+02 8.18494E+00 7.24849E+00
 -1       454 1.00000E+02 4.37736E+00 1.05677E+00
 -1       455 1.00000E+02 3.12736E+00 1.05677E+00
 -1       456 1.00000E+02 2.79242E+00 1.97183E+00
 -1       457 1.00000E+02 6.82666E+00 1.05462E+00
 -1       458 1.00000E+02 5.57666E+00 1.05462E+00
 -1       459 1.00000E+02 4.95402E+00 2.11139E+00
 -1       460 1.00000E+02 7.16159E+00 1.96968E+00
 -1       461 1.00000E+02 3.82691E+00 7.02698E+00
 -1       462 1.00000E+02 5.11725E+00 6.87168E+00
 -1       463 1.00000E+02 6.19861E+00 6.71181E+00
 -1       464 1.00000E+02 7.20563E+00 5.99636E+00
 -1       465 1.00000E+02 7.17794E+00 7.02751E+00
 -1       466 1.00000E+02 5.14495E+00 5.84053E+00
 -1       467 1.00000E+02 5.56131E+00 3.07841E+00
 -1       468 1.00000E+02 4.36202E+00 3.08056E+00
 -1       469 1.00000E+02 6.92436E+00 3.02580E+00
 -1       470 1.00000E+02 6.33236E+00 3.99498E+00
 -1       471 1.00000E+02 2.78350E+00 7.23083E+00
 -1       472 1.00000E+02 3.02018E+00 6.20425E+00
 -1       473 1.00000E+02 3.14944E+00 4.96535E+00
 -1       474 1.00000E+02 3.60230E+00 3.98894E+00
 -1       475 1.00000E+02 2.99500E+00 3.02192E+00
 -1       476 1.00000E+02 6.96086E+00 4.81151E+00
 -1       477 1.00000E+02 5.59781E+00 4.86412E+00
 -1       478 1.00000E+02 4.51645E+00 5.02400E+00
 -1       479 6.91176E+01 0.00000E+00 2.54713E+00
 -1       480 8.08824E+01 0.00000E+00 2.54713E+00
 -1       481 9.26167E+01 0.00000E+00 7.50182E+00
 -1       482 5.73529E+01 0.00000E+00 2.54713E+00
 -1       483 6.32353E+01 0.00000E+00 7.45287E+00
 -1       484 7.50000E+01 0.00000E+00 7.45287E+00
 -1       485 8.67647E+01 0.00000E+00 7.45287E+00
 -1       486 5.14706E+01 0.00000E+00 7.45287E+00
 -1       487 1.61730E+01 0.00000E+00 2.53257E+00
 -1       488 2.20588E+01 0.00000E+00 2.54713E+00
 -1       489 1.02941E+01 0.00000E+00 7.45287E+00
 -1       490 3.38235E+01 0.00000E+00 2.54713E+00
 -1       491 4.26337E+01 0.00000E+00 2.53943E+00
 -1       492 2.79412E+01 0.00000E+00 2.54713E+00
 -1       493 4.27451E+00 0.00000E+00 7.42376E+00
 -1       494 7.35294E+00 0.00000E+00 2.54713E+00
 -1       495 9.57256E+01 0.00000E+00 2.57616E+00
 -1       496 4.85294E+01 0.00000E+00 2.54713E+00
 -1       497 8.97059E+01 0.00000E+00 2.54713E+00
 -1       498 1.91176E+01 0.00000E+00 7.45287E+00
 -1       499 3.67647E+01 0.00000E+00 7.45287E+00
 -1       500 4.55787E+01 0.00000E+00 7.49225E+00
 -1       501 2.50000E+01 0.00000E+00 7.45287E+00
 -1       502 3.08824E+01 0.00000E+00 7.45287E+00
 -1       503 2.07630E+00 0.00000E+00 3.82131E+00
 -1       504 9.79237E+01 0.00000E+00 6.17869E+00
 -1       505 6.91176E+01 0.00000E+00 7.45287E+00
 -1       506 8.08824E+01 0.00000E+00 7.45287E+00
 -1       507 5.73529E+01 0.00000E+00 7.45287E+00
 -1       508 6.32353E+01 0.00000E+00 2.54713E+00
 -1       509 7.50000E+01 0.00000E+00 2.54713E+00
 -1       510 7.34125E+00 0.00000E+00 7.46642E+00
 -1       511 1.02802E+01 0.00000E+00 2.53912E+00
 -1       512 1.32273E+01 0.00000E+00 2.52647E+00
 -1       513 1.46991E+01 0.00000E+00 5.00827E+00
 -1       514 9.26593E+01 0.00000E+00 2.53322E+00
 -1       515 7.20588E+01 0.00000E+00 2.54713E+00
 -1       516 7.20588E+01 0.00000E+00 7.45287E+00
 -1       517 4.85286E+01 0.00000E+00 7.47225E+00
 -1       518 5.14706E+01 0.00000E+00 2.54713E+00
 -1       519 6.02941E+01 0.00000E+00 7.45287E+00
 -1       520 6.02941E+01 0.00000E+00 2.54713E+00
 -1       521 2.50000E+01 0.00000E+00 2.54713E+00
 -1       522 3.67647E+01 0.00000E+00 2.54713E+00
 -1       523 3.97037E+01 0.00000E+00 2.53013E+00
 -1       524 4.11472E+01 0.00000E+00 5.02730E+00
 -1       525 3.38235E+01 0.00000E+00 7.45287E+00
 -1       526 7.79412E+01 0.00000E+00 7.45287E+00
 -1       527 7.79412E+01 0.00000E+00 2.54713E+00
 -1       528 4.55727E+01 0.00000E+00 2.52243E+00
 -1       529 8.97059E+01 0.00000E+00 7.45287E+00
 -1       530 8.67647E+01 0.00000E+00 2.54713E+00
 -1       531 2.79412E+01 0.00000E+00 7.45287E+00
 -1       532 2.20588E+01 0.00000E+00 7.45287E+00
 -1       533 8.38235E+01 0.00000E+00 2.54713E+00
 -1       534 1.91175E+01 0.00000E+00 2.53832E+00
 -1       535 8.38235E+01 0.00000E+00 7.45287E+00
 -1       536 5.44118E+01 0.00000E+00 2.54713E+00
 -1       537 3.08824E+01 0.00000E+00 2.54713E+00
 -1       538 5.44118E+01 0.00000E+00 7.45287E+00
 -1       539 6.61765E+01 0.00000E+00 2.54713E+00
 -1       540 6.61765E+01 0.00000E+00 7.45287E+00
 -1       541 6.03343E+00 0.00000E+00 4.97977E+00
 -1       542 8.82332E+00 0.00000E+00 5.00000E+00
 -1       543 1.62315E+01 0.00000E+00 7.49741E+00
 -1       544 2.16506E+00 0.00000E+00 6.25000E+00
 -1       545 3.97010E+01 0.00000E+00 7.50455E+00
 -1       546 4.41064E+01 0.00000E+00 5.02143E+00
 -1       547 9.39618E+01 0.00000E+00 5.02821E+00
 -1       548 1.31760E+01 0.00000E+00 7.49777E+00
 -1       549 9.11697E+01 0.00000E+00 5.00229E+00
 -1       550 1.76471E+01 0.00000E+00 4.99998E+00
 -1       551 7.94118E+01 0.00000E+00 5.00000E+00
 -1       552 7.64706E+01 0.00000E+00 5.00000E+00
 -1       553 6.47059E+01 0.00000E+00 5.00000E+00
 -1       554 8.23529E+01 0.00000E+00 5.00000E+00
 -1       555 5.58824E+01 0.00000E+00 5.00000E+00
 -1       556 6.76471E+01 0.00000E+00 5.00000E+00
 -1       557 6.17647E+01 0.00000E+00 5.00000E+00
 -1       558 5.88235E+01 0.00000E+00 5.00000E+00
 -1       559 8.82353E+01 0.00000E+00 5.00000E+00
 -1       560 8.52941E+01 0.00000E+00 5.00000E+00
 -1       561 7.35294E+01 0.00000E+00 5.00000E+00
 -1       562 5.29412E+01 0.00000E+00 5.00000E+00
 -1       563 4.70526E+01 0.00000E+00 5.00925E+00
 -1       564 2.05882E+01 0.00000E+00 5.00000E+00
 -1       565 2.35294E+01 0.00000E+00 5.00000E+00
 -1       566 2.94118E+01 0.00000E+00 5.00000E+00
 -1       567 3.23529E+01 0.00000E+00 5.00000E+00
 -1       568 2.64706E+01 0.00000E+00 5.00000E+00
 -1       569 3.52941E+01 0.00000E+00 5.00000E+00
 -1       570 7.05882E+01 0.00000E+00 5.00000E+00
 -1       571 5.00000E+01 0.00000E+00 5.00000E+00
 -1       572 3.82353E+01 0.00000E+00 4.99998E+00
 -1       573 4.26379E+01 0.00000E+00 7.50759E+00
 -1       574 1.17439E+01 0.00000E+00 4.99812E+00
 -1       575 9.78349E+01 0.00000E+00 3.75000E+00
 -1       576 4.28341E+00 0.00000E+00 2.58354E+00
 -1       577 9.57116E+01 0.00000E+00 7.42460E+00
 -1       578 3.76654E+00 0.00000E+00 5.01168E+00
 -1       579 1.87615E+00 0.00000E+00 8.23475E+00
 -1       580 1.86018E+00 0.00000E+00 1.78097E+00
 -1       581 9.81239E+01 0.00000E+00 1.76523E+00
 -1       582 9.81388E+01 0.00000E+00 8.22066E+00
 -1       583 9.62315E+01 0.00000E+00 4.99153E+00
 -1       584 9.38075E-01 0.00000E+00 7.86738E+00
 -1       585 9.38075E-01 0.00000E+00 9.11738E+00
 -1       586 2.40866E+00 0.00000E+00 9.11738E+00
 -1       587 9.30089E-01 0.00000E+00 8.90485E-01
 -1       588 9.30089E-01 0.00000E+00 2.14049E+00
 -1       589 2.40068E+00 0.00000E+00 8.90485E-01
 -1       590 9.90694E+01 0.00000E+00 9.11033E+00
 -1       591 9.90694E+01 0.00000E+00 7.86033E+00
 -1       592 9.75988E+01 0.00000E+00 9.11033E+00
 -1       593 9.90619E+01 0.00000E+00 2.13262E+00
 -1       594 9.90619E+01 0.00000E+00 8.82616E-01
 -1       595 9.75914E+01 0.00000E+00 8.82616E-01
 -1       596 1.03815E+00 0.00000E+00 3.16066E+00
 -1       597 1.03815E+00 0.00000E+00 4.41066E+00
 -1       598 1.96824E+00 0.00000E+00 2.80114E+00
 -1       599 1.08253E+00 0.00000E+00 5.62500E+00
 -1       600 1.08253E+00 0.00000E+00 6.87500E+00
 -1       601 2.12068E+00 0.00000E+00 5.03566E+00
 -1       602 2.02061E+00 0.00000E+00 7.24238E+00
 -1       603 9.89175E+01 0.00000E+00 4.37500E+00
 -1       604 9.89175E+01 0.00000E+00 3.12500E+00
 -1       605 9.79794E+01 0.00000E+00 2.75762E+00
 -1       606 9.89619E+01 0.00000E+00 6.83934E+00
 -1       607 9.89619E+01 0.00000E+00 5.58934E+00
 -1       608 9.78793E+01 0.00000E+00 4.96434E+00
 -1       609 9.80313E+01 0.00000E+00 7.19967E+00
 -1       610 5.08288E+00 0.00000E+00 1.29177E+00
 -1       611 3.61229E+00 0.00000E+00 1.29177E+00
 -1       612 3.07180E+00 0.00000E+00 2.18225E+00
 -1       613 8.08823E+00 0.00000E+00 1.27357E+00
 -1       614 6.61765E+00 0.00000E+00 1.27357E+00
 -1       615 5.81818E+00 0.00000E+00 2.56534E+00
 -1       616 1.10225E+01 0.00000E+00 1.26956E+00
 -1       617 9.55189E+00 0.00000E+00 1.26956E+00
 -1       618 8.81659E+00 0.00000E+00 2.54313E+00
 -1       619 1.39666E+01 0.00000E+00 1.26324E+00
 -1       620 1.24960E+01 0.00000E+00 1.26324E+00
 -1       621 1.17538E+01 0.00000E+00 2.53280E+00
 -1       622 1.69100E+01 0.00000E+00 1.26629E+00
 -1       623 1.54394E+01 0.00000E+00 1.26629E+00
 -1       624 1.47001E+01 0.00000E+00 2.52952E+00
 -1       625 1.98529E+01 0.00000E+00 1.26916E+00
 -1       626 1.83823E+01 0.00000E+00 1.26916E+00
 -1       627 1.76452E+01 0.00000E+00 2.53545E+00
 -1       628 2.27941E+01 0.00000E+00 1.27357E+00
 -1       629 2.13235E+01 0.00000E+00 1.27357E+00
 -1       630 2.05882E+01 0.00000E+00 2.54273E+00
 -1       631 2.57353E+01 0.00000E+00 1.27357E+00
 -1       632 2.42647E+01 0.00000E+00 1.27357E+00
 -1       633 2.35294E+01 0.00000E+00 2.54713E+00
 -1       634 2.86765E+01 0.00000E+00 1.27357E+00
 -1       635 2.72059E+01 0.00000E+00 1.27357E+00
 -1       636 2.64706E+01 0.00000E+00 2.54713E+00
 -1       637 3.16176E+01 0.00000E+00 1.27357E+00
 -1       638 3.01471E+01 0.00000E+00 1.27357E+00
 -1       639 2.94118E+01 0.00000E+00 2.54713E+00
 -1       640 3.45588E+01 0.00000E+00 1.27357E+00
 -1       641 3.30882E+01 0.00000E+00 1.27357E+00
 -1       642 3.23529E+01 0.00000E+00 2.54713E+00
 -1       643 3.75000E+01 0.00000E+00 1.27357E+00
 -1       644 3.60294E+01 0.00000E+00 1.27357E+00
 -1       645 3.52941E+01 0.00000E+00 2.54713E+00
 -1       646 4.04401E+01 0.00000E+00 1.26507E+00
 -1       647 3.89695E+01 0.00000E+00 1.26507E+00
 -1       648 3.82342E+01 0.00000E+00 2.53863E+00
 -1       649 4.33757E+01 0.00000E+00 1.26971E+00
 -1       650 4.19051E+01 0.00000E+00 1.26971E+00
 -1       651 4.11687E+01 0.00000E+00 2.53478E+00
 -1       652 4.63157E+01 0.00000E+00 1.26122E+00
 -1       653 4.48452E+01 0.00000E+00 1.26122E+00
 -1       654 4.41032E+01 0.00000E+00 2.53093E+00
 -1       655 4.92647E+01 0.00000E+00 1.27357E+00
 -1       656 4.77941E+01 0.00000E+00 1.27357E+00
 -1       657 4.70510E+01 0.00000E+00 2.53478E+00
 -1       658 5.22059E+01 0.00000E+00 1.27357E+00
 -1       659 5.07353E+01 0.00000E+00 1.27357E+00
 -1       660 5.00000E+01 0.00000E+00 2.54713E+00
 -1       661 5.51471E+01 0.00000E+00 1.27357E+00
 -1       662 5.36765E+01 0.00000E+00 1.27357E+00
 -1       663 5.29412E+01 0.00000E+00 2.54713E+00
 -1       664 5.80882E+01 0.00000E+00 1.27357E+00
 -1       665 5.66176E+01 0.00000E+00 1.27357E+00
 -1       666 5.58824E+01 0.00000E+00 2.54713E+00
 -1       667 6.10294E+01 0.00000E+00 1.27357E+00
 -1       668 5.95588E+01 0.00000E+00 1.27357E+00
 -1       669 5.88235E+01 0.00000E+00 2.54713E+00
 -1       670 6.39706E+01 0.00000E+00 1.27357E+00
 -1       671 6.25000E+01 0.00000E+00 1.27357E+00
 -1       672 6.17647E+01 0.00000E+00 2.54713E+00
 -1       673 6.69118E+01 0.00000E+00 1.27357E+00
 -1       674 6.54412E+01 0.00000E+00 1.27357E+00
 -1       675 6.47059E+01 0.00000E+00 2.54713E+00
 -1       676 6.98529E+01 0.00000E+00 1.27357E+00
 -1       677 6.83824E+01 0.00000E+00 1.27357E+00
 -1       678 6.76471E+01 0.00000E+00 2.54713E+00
 -1       679 7.27941E+01 0.00000E+00 1.27357E+00
 -1       680 7.13235E+01 0.00000E+00 1.27357E+00
 -1       681 7.05882E+01 0.00000E+00 2.54713E+00
 -1       682 7.57353E+01 0.00000E+00 1.27357E+00
 -1       683 7.42647E+01 0.00000E+00 1.27357E+00
 -1       684 7.35294E+01 0.00000E+00 2.54713E+00
 -1       685 7.86765E+01 0.00000E+00 1.27357E+00
 -1       686 7.72059E+01 0.00000E+00 1.27357E+00
 -1       687 7.64706E+01 0.00000E+00 2.54713E+00
 -1       688 8.16176E+01 0.00000E+00 1.27357E+00
 -1       689 8.01471E+01 0.00000E+00 1.27357E+00
 -1       690 7.94118E+01 0.00000E+00 2.54713E+00
 -1       691 8.45588E+01 0.00000E+00 1.27357E+00
 -1       692 8.30882E+01 0.00000E+00 1.27357E+00
 -1       693 8.23529E+01 0.00000E+00 2.54713E+00
 -1       694 8.75000E+01 0.00000E+00 1.27357E+00
 -1       695 8.60294E+01 0.00000E+00 1.27357E+00
 -1       696 8.52941E+01 0.00000E+00 2.54713E+00
 -1       697 9.04412E+01 0.00000E+00 1.27357E+00
 -1       698 8.89706E+01 0.00000E+00 1.27357E+00
 -1       699 8.82353E+01 0.00000E+00 2.54713E+00
 -1       700 9.33885E+01 0.00000E+00 1.26661E+00
 -1       701 9.19179E+01 0.00000E+00 1.26661E+00
 -1       702 9.11826E+01 0.00000E+00 2.54018E+00
 -1       703 9.63922E+01 0.00000E+00 1.28808E+00
 -1       704 9.49216E+01 0.00000E+00 1.28808E+00
 -1       705 9.41925E+01 0.00000E+00 2.55469E+00
 -1       706 9.69248E+01 0.00000E+00 2.17069E+00
 -1       707 3.60784E+00 0.00000E+00 8.71188E+00
 -1       708 5.07843E+00 0.00000E+00 8.71188E+00
 -1       709 3.07533E+00 0.00000E+00 7.82926E+00
 -1       710 6.61180E+00 0.00000E+00 8.73321E+00
 -1       711 8.08239E+00 0.00000E+00 8.73321E+00
 -1       712 5.80788E+00 0.00000E+00 7.44509E+00
 -1       713 9.55882E+00 0.00000E+00 8.72643E+00
 -1       714 1.10294E+01 0.00000E+00 8.72643E+00
 -1       715 8.81769E+00 0.00000E+00 7.45964E+00
 -1       716 1.24703E+01 0.00000E+00 8.74889E+00
 -1       717 1.39409E+01 0.00000E+00 8.74889E+00
 -1       718 1.17350E+01 0.00000E+00 7.47532E+00
 -1       719 1.54687E+01 0.00000E+00 8.74871E+00
 -1       720 1.69393E+01 0.00000E+00 8.74871E+00
 -1       721 1.47037E+01 0.00000E+00 7.49759E+00
 -1       722 1.83824E+01 0.00000E+00 8.72643E+00
 -1       723 1.98529E+01 0.00000E+00 8.72643E+00
 -1       724 1.76746E+01 0.00000E+00 7.47514E+00
 -1       725 2.13235E+01 0.00000E+00 8.72643E+00
 -1       726 2.27941E+01 0.00000E+00 8.72643E+00
 -1       727 2.05882E+01 0.00000E+00 7.45287E+00
 -1       728 2.42647E+01 0.00000E+00 8.72643E+00
 -1       729 2.57353E+01 0.00000E+00 8.72643E+00
 -1       730 2.35294E+01 0.00000E+00 7.45287E+00
 -1       731 2.72059E+01 0.00000E+00 8.72643E+00
 -1       732 2.86765E+01 0.00000E+00 8.72643E+00
 -1       733 2.64706E+01 0.00000E+00 7.45287E+00
 -1       734 3.01471E+01 0.00000E+00 8.72643E+00
 -1       735 3.16176E+01 0.00000E+00 8.72643E+00
 -1       736 2.94118E+01 0.00000E+00 7.45287E+00
 -1       737 3.30882E+01 0.00000E+00 8.72643E+00
 -1       738 3.45588E+01 0.00000E+00 8.72643E+00
 -1       739 3.23529E+01 0.00000E+00 7.45287E+00
 -1       740 3.60294E+01 0.00000E+00 8.72643E+00
 -1       741 3.75000E+01 0.00000E+00 8.72643E+00
 -1       742 3.52941E+01 0.00000E+00 7.45287E+00
 -1       743 3.89681E+01 0.00000E+00 8.75228E+00
 -1       744 4.04387E+01 0.00000E+00 8.75228E+00
 -1       745 3.82329E+01 0.00000E+00 7.47871E+00
 -1       746 4.19072E+01 0.00000E+00 8.75379E+00
 -1       747 4.33778E+01 0.00000E+00 8.75379E+00
 -1       748 4.11694E+01 0.00000E+00 7.50607E+00
 -1       749 4.48482E+01 0.00000E+00 8.74613E+00
 -1       750 4.63188E+01 0.00000E+00 8.74613E+00
 -1       751 4.41083E+01 0.00000E+00 7.49992E+00
 -1       752 4.77937E+01 0.00000E+00 8.73612E+00
 -1       753 4.92643E+01 0.00000E+00 8.73612E+00
 -1       754 4.70536E+01 0.00000E+00 7.48225E+00
 -1       755 5.07353E+01 0.00000E+00 8.72643E+00
 -1       756 5.22059E+01 0.00000E+00 8.72643E+00
 -1       757 4.99996E+01 0.00000E+00 7.46256E+00
 -1       758 5.36765E+01 0.00000E+00 8.72643E+00
 -1       759 5.51471E+01 0.00000E+00 8.72643E+00
 -1       760 5.29412E+01 0.00000E+00 7.45287E+00
 -1       761 5.66176E+01 0.00000E+00 8.72643E+00
 -1       762 5.80882E+01 0.00000E+00 8.72643E+00
 -1       763 5.58824E+01 0.00000E+00 7.45287E+00
 -1       764 5.95588E+01 0.00000E+00 8.72643E+00
 -1       765 6.10294E+01 0.00000E+00 8.72643E+00
 -1       766 5.88235E+01 0.00000E+00 7.45287E+00
 -1       767 6.25000E+01 0.00000E+00 8.72643E+00
 -1       768 6.39706E+01 0.00000E+00 8.72643E+00
 -1       769 6.17647E+01 0.00000E+00 7.45287E+00
 -1       770 6.54412E+01 0.00000E+00 8.72643E+00
 -1       771 6.69118E+01 0.00000E+00 8.72643E+00
 -1       772 6.47059E+01 0.00000E+00 7.45287E+00
 -1       773 6.83824E+01 0.00000E+00 8.72643E+00
 -1       774 6.98529E+01 0.00000E+00 8.72643E+00
 -1       775 6.76471E+01 0.00000E+00 7.45287E+00
 -1       776 7.13235E+01 0.00000E+00 8.72643E+00
 -1       777 7.27941E+01 0.00000E+00 8.72643E+00
 -1       778 7.05882E+01 0.00000E+00 7.45287E+00
 -1       779 7.42647E+01 0.00000E+00 8.72643E+00
 -1       780 7.57353E+01 0.00000E+00 8.72643E+00
 -1       781 7.35294E+01 0.00000E+00 7.45287E+00
 -1       782 7.72059E+01 0.00000E+00 8.72643E+00
 -1       783 7.86765E+01 0.00000E+00 8.72643E+00
 -1       784 7.64706E+01 0.00000E+00 7.45287E+00
 -1       785 8.01471E+01 0.00000E+00 8.72643E+00
 -1       786 8.16176E+01 0.00000E+00 8.72643E+00
 -1       787 7.94118E+01 0.00000E+00 7.45287E+00
 -1       788 8.30882E+01 0.00000E+00 8.72643E+00
 -1       789 8.45588E+01 0.00000E+00 8.72643E+00
 -1       790 8.23529E+01 0.00000E+00 7.45287E+00
 -1       791 8.60294E+01 0.00000E+00 8.72643E+00
 -1       792 8.75000E+01 0.00000E+00 8.72643E+00
 -1       793 8.52941E+01 0.00000E+00 7.45287E+00
 -1       794 8.89706E+01 0.00000E+00 8.72643E+00
 -1       795 9.04412E+01 0.00000E+00 8.72643E+00
 -1       796 8.82353E+01 0.00000E+00 7.45287E+00
 -1       797 9.18966E+01 0.00000E+00 8.75091E+00
 -1       798 9.33672E+01 0.00000E+00 8.75091E+00
 -1       799 9.11613E+01 0.00000E+00 7.47734E+00
 -1       800 9.49146E+01 0.00000E+00 8.71230E+00
 -1       801 9.63852E+01 0.00000E+00 8.71230E+00
 -1       802 9.41641E+01 0.00000E+00 7.46321E+00
 -1       803 9.69252E+01 0.00000E+00 7.82263E+00
 -1       804 7.13235E+01 0.00000E+00 3.77357E+00
 -1       805 6.98529E+01 0.00000E+00 3.77357E+00
 -1       806 6.83824E+01 0.00000E+00 3.77357E+00
 -1       807 6.69118E+01 0.00000E+00 3.77357E+00
 -1       808 6.91176E+01 0.00000E+00 5.00000E+00
 -1       809 8.01471E+01 0.00000E+00 3.77357E+00
 -1       810 7.86765E+01 0.00000E+00 3.77357E+00
 -1       811 8.30882E+01 0.00000E+00 3.77357E+00
 -1       812 8.16176E+01 0.00000E+00 3.77357E+00
 -1       813 8.08824E+01 0.00000E+00 5.00000E+00
 -1       814 9.04378E+01 0.00000E+00 6.22758E+00
 -1       815 9.18932E+01 0.00000E+00 6.25206E+00
 -1       816 9.32892E+01 0.00000E+00 6.26502E+00
 -1       817 9.25657E+01 0.00000E+00 5.01525E+00
 -1       818 9.48367E+01 0.00000E+00 6.22640E+00
 -1       819 5.95588E+01 0.00000E+00 3.77357E+00
 -1       820 5.80882E+01 0.00000E+00 3.77357E+00
 -1       821 5.66176E+01 0.00000E+00 3.77357E+00
 -1       822 5.51471E+01 0.00000E+00 3.77357E+00
 -1       823 5.73529E+01 0.00000E+00 5.00000E+00
 -1       824 6.10294E+01 0.00000E+00 6.22643E+00
 -1       825 6.25000E+01 0.00000E+00 6.22643E+00
 -1       826 6.39706E+01 0.00000E+00 6.22643E+00
 -1       827 6.54412E+01 0.00000E+00 6.22643E+00
 -1       828 6.32353E+01 0.00000E+00 5.00000E+00
 -1       829 7.27941E+01 0.00000E+00 6.22643E+00
 -1       830 7.42647E+01 0.00000E+00 6.22643E+00
 -1       831 7.57353E+01 0.00000E+00 6.22643E+00
 -1       832 7.72059E+01 0.00000E+00 6.22643E+00
 -1       833 7.50000E+01 0.00000E+00 5.00000E+00
 -1       834 8.75000E+01 0.00000E+00 6.22643E+00
 -1       835 8.89706E+01 0.00000E+00 6.22643E+00
 -1       836 8.45588E+01 0.00000E+00 6.22643E+00
 -1       837 8.60294E+01 0.00000E+00 6.22643E+00
 -1       838 8.67647E+01 0.00000E+00 5.00000E+00
 -1       839 4.92643E+01 0.00000E+00 6.23612E+00
 -1       840 5.07353E+01 0.00000E+00 6.22643E+00
 -1       841 5.22059E+01 0.00000E+00 6.22643E+00
 -1       842 5.36765E+01 0.00000E+00 6.22643E+00
 -1       843 5.14706E+01 0.00000E+00 5.00000E+00
 -1       844 1.54360E+01 0.00000E+00 3.77042E+00
 -1       845 1.39632E+01 0.00000E+00 3.76737E+00
 -1       846 1.69100E+01 0.00000E+00 3.76627E+00
 -1       847 1.61731E+01 0.00000E+00 5.00412E+00
 -1       848 1.83823E+01 0.00000E+00 3.76915E+00
 -1       849 2.42647E+01 0.00000E+00 3.77357E+00
 -1       850 2.27941E+01 0.00000E+00 3.77357E+00
 -1       851 2.13235E+01 0.00000E+00 3.77357E+00
 -1       852 1.98529E+01 0.00000E+00 3.76916E+00
 -1       853 2.20588E+01 0.00000E+00 5.00000E+00
 -1       854 8.08228E+00 0.00000E+00 6.23321E+00
 -1       855 9.55872E+00 0.00000E+00 6.22643E+00
 -1       856 1.02836E+01 0.00000E+00 4.99906E+00
 -1       857 1.10190E+01 0.00000E+00 6.22549E+00
 -1       858 1.24599E+01 0.00000E+00 6.24794E+00
 -1       859 3.60294E+01 0.00000E+00 3.77357E+00
 -1       860 3.45588E+01 0.00000E+00 3.77357E+00
 -1       861 3.30882E+01 0.00000E+00 3.77357E+00
 -1       862 3.16176E+01 0.00000E+00 3.77357E+00
 -1       863 3.38235E+01 0.00000E+00 5.00000E+00
 -1       864 4.18904E+01 0.00000E+00 3.78337E+00
 -1       865 4.04254E+01 0.00000E+00 3.77872E+00
 -1       866 4.33700E+01 0.00000E+00 3.78043E+00
 -1       867 4.26268E+01 0.00000E+00 5.02437E+00
 -1       868 4.48395E+01 0.00000E+00 3.77193E+00
 -1       869 2.72059E+01 0.00000E+00 3.77357E+00
 -1       870 2.57353E+01 0.00000E+00 3.77357E+00
 -1       871 3.01471E+01 0.00000E+00 3.77357E+00
 -1       872 2.86765E+01 0.00000E+00 3.77357E+00
 -1       873 2.79412E+01 0.00000E+00 5.00000E+00
 -1       874 5.15397E+00 0.00000E+00 6.20177E+00
 -1       875 6.68734E+00 0.00000E+00 6.22310E+00
 -1       876 4.02053E+00 0.00000E+00 6.21772E+00
 -1       877 4.89999E+00 0.00000E+00 4.99573E+00
 -1       878 3.21979E+00 0.00000E+00 6.83688E+00
 -1       879 2.96580E+00 0.00000E+00 5.63084E+00
 -1       880 9.55178E+00 0.00000E+00 3.76956E+00
 -1       881 8.08813E+00 0.00000E+00 3.77357E+00
 -1       882 6.69319E+00 0.00000E+00 3.76345E+00
 -1       883 7.42837E+00 0.00000E+00 4.98989E+00
 -1       884 5.15842E+00 0.00000E+00 3.78166E+00
 -1       885 9.48437E+01 0.00000E+00 3.80218E+00
 -1       886 9.33106E+01 0.00000E+00 3.78072E+00
 -1       887 9.59786E+01 0.00000E+00 3.78384E+00
 -1       888 9.50966E+01 0.00000E+00 5.00987E+00
 -1       889 9.67803E+01 0.00000E+00 3.16308E+00
 -1       890 9.70332E+01 0.00000E+00 4.37076E+00
 -1       891 5.07353E+01 0.00000E+00 3.77357E+00
 -1       892 4.92647E+01 0.00000E+00 3.77357E+00
 -1       893 4.77910E+01 0.00000E+00 3.77819E+00
 -1       894 4.63126E+01 0.00000E+00 3.76584E+00
 -1       895 4.85263E+01 0.00000E+00 5.00462E+00
 -1       896 9.19145E+01 0.00000E+00 3.76776E+00
 -1       897 9.04378E+01 0.00000E+00 3.77471E+00
 -1       898 8.89706E+01 0.00000E+00 3.77357E+00
 -1       899 8.75000E+01 0.00000E+00 3.77357E+00
 -1       900 8.97025E+01 0.00000E+00 5.00115E+00
 -1       901 1.98529E+01 0.00000E+00 6.22643E+00
 -1       902 2.13235E+01 0.00000E+00 6.22643E+00
 -1       903 1.69393E+01 0.00000E+00 6.24869E+00
 -1       904 1.83824E+01 0.00000E+00 6.22642E+00
 -1       905 1.91176E+01 0.00000E+00 4.99999E+00
 -1       906 3.45588E+01 0.00000E+00 6.22643E+00
 -1       907 3.60294E+01 0.00000E+00 6.22643E+00
 -1       908 3.75000E+01 0.00000E+00 6.22642E+00
 -1       909 3.89681E+01 0.00000E+00 6.25227E+00
 -1       910 3.67647E+01 0.00000E+00 4.99999E+00
 -1       911 4.63157E+01 0.00000E+00 6.25075E+00
 -1       912 4.77906E+01 0.00000E+00 6.24075E+00
 -1       913 4.48425E+01 0.00000E+00 6.25684E+00
 -1       914 4.55795E+01 0.00000E+00 5.01534E+00
 -1       915 4.33721E+01 0.00000E+00 6.26451E+00
 -1       916 2.57353E+01 0.00000E+00 6.22643E+00
 -1       917 2.72059E+01 0.00000E+00 6.22643E+00
 -1       918 2.27941E+01 0.00000E+00 6.22643E+00
 -1       919 2.42647E+01 0.00000E+00 6.22643E+00
 -1       920 2.50000E+01 0.00000E+00 5.00000E+00
 -1       921 3.16176E+01 0.00000E+00 6.22643E+00
 -1       922 3.30882E+01 0.00000E+00 6.22643E+00
 -1       923 2.86765E+01 0.00000E+00 6.22643E+00
 -1       924 3.01471E+01 0.00000E+00 6.22643E+00
 -1       925 3.08824E+01 0.00000E+00 5.00000E+00
 -1       926 2.92142E+00 0.00000E+00 4.41650E+00
 -1       927 3.17986E+00 0.00000E+00 3.20243E+00
 -1       928 4.02498E+00 0.00000E+00 3.79761E+00
 -1       929 9.70776E+01 0.00000E+00 5.58511E+00
 -1       930 9.68176E+01 0.00000E+00 6.80164E+00
 -1       931 9.59715E+01 0.00000E+00 6.20806E+00
 -1       932 6.98529E+01 0.00000E+00 6.22643E+00
 -1       933 7.13235E+01 0.00000E+00 6.22643E+00
 -1       934 6.69118E+01 0.00000E+00 6.22643E+00
 -1       935 6.83824E+01 0.00000E+00 6.22643E+00
 -1       936 7.86765E+01 0.00000E+00 6.22643E+00
 -1       937 8.01471E+01 0.00000E+00 6.22643E+00
 -1       938 8.16176E+01 0.00000E+00 6.22643E+00
 -1       939 8.30882E+01 0.00000E+00 6.22643E+00
 -1       940 5.80882E+01 0.00000E+00 6.22643E+00
 -1       941 5.95588E+01 0.00000E+00 6.22643E+00
 -1       942 5.51471E+01 0.00000E+00 6.22643E+00
 -1       943 5.66176E+01 0.00000E+00 6.22643E+00
 -1       944 6.25000E+01 0.00000E+00 3.77357E+00
 -1       945 6.10294E+01 0.00000E+00 3.77357E+00
 -1       946 6.54412E+01 0.00000E+00 3.77357E+00
 -1       947 6.39706E+01 0.00000E+00 3.77357E+00
 -1       948 7.42647E+01 0.00000E+00 3.77357E+00
 -1       949 7.27941E+01 0.00000E+00 3.77357E+00
 -1       950 7.72059E+01 0.00000E+00 3.77357E+00
 -1       951 7.57353E+01 0.00000E+00 3.77357E+00
 -1       952 1.24856E+01 0.00000E+00 3.76229E+00
 -1       953 1.10120E+01 0.00000E+00 3.76862E+00
 -1       954 1.32215E+01 0.00000E+00 5.00319E+00
 -1       955 1.54653E+01 0.00000E+00 6.25284E+00
 -1       956 1.39375E+01 0.00000E+00 6.25302E+00
 -1       957 7.20588E+01 0.00000E+00 5.00000E+00
 -1       958 5.36765E+01 0.00000E+00 3.77357E+00
 -1       959 5.22059E+01 0.00000E+00 3.77357E+00
 -1       960 6.02941E+01 0.00000E+00 5.00000E+00
 -1       961 3.89695E+01 0.00000E+00 3.76506E+00
 -1       962 3.75000E+01 0.00000E+00 3.77356E+00
 -1       963 3.96912E+01 0.00000E+00 5.01364E+00
 -1       964 4.04241E+01 0.00000E+00 6.26593E+00
 -1       965 4.18925E+01 0.00000E+00 6.26745E+00
 -1       966 7.79412E+01 0.00000E+00 5.00000E+00
 -1       967 8.60294E+01 0.00000E+00 3.77357E+00
 -1       968 8.45588E+01 0.00000E+00 3.77357E+00
 -1       969 8.38235E+01 0.00000E+00 5.00000E+00
 -1       970 5.44118E+01 0.00000E+00 5.00000E+00
 -1       971 6.61765E+01 0.00000E+00 5.00000E+00
 -1       972 6.91176E+01 1.00000E+01 2.54713E+00
 -1       973 8.08824E+01 1.00000E+01 2.54713E+00
 -1       974 9.26167E+01 1.00000E+01 7.50182E+00
 -1       975 5.73529E+01 1.00000E+01 2.54713E+00
 -1       976 6.32353E+01 1.00000E+01 2.54713E+00
 -1       977 7.50000E+01 1.00000E+01 2.54713E+00
 -1       978 8.67647E+01 1.00000E+01 7.45287E+00
 -1       979 5.14706E+01 1.00000E+01 7.45287E+00
 -1       980 1.61730E+01 1.00000E+01 2.53257E+00
 -1       981 2.20588E+01 1.00000E+01 2.54713E+00
 -1       982 1.02941E+01 1.00000E+01 7.45287E+00
 -1       983 3.38235E+01 1.00000E+01 2.54713E+00
 -1       984 4.26337E+01 1.00000E+01 2.53943E+00
 -1       985 2.79412E+01 1.00000E+01 2.54713E+00
 -1       986 4.27451E+00 1.00000E+01 7.42376E+00
 -1       987 7.35294E+00 1.00000E+01 2.54713E+00
 -1       988 9.57256E+01 1.00000E+01 2.57616E+00
 -1       989 7.20588E+01 1.00000E+01 7.45287E+00
 -1       990 4.85294E+01 1.00000E+01 2.54713E+00
 -1       991 8.97059E+01 1.00000E+01 2.54713E+00
 -1       992 6.02941E+01 1.00000E+01 7.45287E+00
 -1       993 7.79412E+01 1.00000E+01 7.45287E+00
 -1       994 6.61765E+01 1.00000E+01 7.45287E+00
 -1       995 1.91176E+01 1.00000E+01 7.45287E+00
 -1       996 3.67647E+01 1.00000E+01 7.45287E+00
 -1       997 4.55787E+01 1.00000E+01 7.49225E+00
 -1       998 2.50000E+01 1.00000E+01 7.45287E+00
 -1       999 3.08824E+01 1.00000E+01 7.45287E+00
 -1      1000 2.07630E+00 1.00000E+01 3.82131E+00
 -1      1001 9.79237E+01 1.00000E+01 6.17869E+00
 -1      1002 7.34125E+00 1.00000E+01 7.46642E+00
 -1      1003 1.02802E+01 1.00000E+01 2.53912E+00
 -1      1004 1.32273E+01 1.00000E+01 2.52647E+00
 -1      1005 1.46991E+01 1.00000E+01 5.00827E+00
 -1      1006 9.26593E+01 1.00000E+01 2.53322E+00
 -1      1007 7.20588E+01 1.00000E+01 2.54713E+00
 -1      1008 8.08824E+01 1.00000E+01 7.45287E+00
 -1      1009 5.73529E+01 1.00000E+01 7.45287E+00
 -1      1010 4.85286E+01 1.00000E+01 7.47225E+00
 -1      1011 5.14706E+01 1.00000E+01 2.54713E+00
 -1      1012 6.02941E+01 1.00000E+01 2.54713E+00
 -1      1013 5.44118E+01 1.00000E+01 7.45287E+00
 -1      1014 2.50000E+01 1.00000E+01 2.54713E+00
 -1      1015 3.67647E+01 1.00000E+01 2.54713E+00
 -1      1016 3.97037E+01 1.00000E+01 2.53013E+00
 -1      1017 4.11472E+01 1.00000E+01 5.02730E+00
 -1      1018 3.38235E+01 1.00000E+01 7.45287E+00
 -1      1019 6.32353E+01 1.00000E+01 7.45287E+00
 -1      1020 7.79412E+01 1.00000E+01 2.54713E+00
 -1      1021 4.55727E+01 1.00000E+01 2.52243E+00
 -1      1022 8.97059E+01 1.00000E+01 7.45287E+00
 -1      1023 8.67647E+01 1.00000E+01 2.54713E+00
 -1      1024 2.79412E+01 1.00000E+01 7.45287E+00
 -1      1025 2.20588E+01 1.00000E+01 7.45287E+00
 -1      1026 8.38235E+01 1.00000E+01 2.54713E+00
 -1      1027 6.91176E+01 1.00000E+01 7.45287E+00
 -1      1028 1.91175E+01 1.00000E+01 2.53832E+00
 -1      1029 5.44118E+01 1.00000E+01 2.54713E+00
 -1      1030 3.08824E+01 1.00000E+01 2.54713E+00
 -1      1031 8.38235E+01 1.00000E+01 7.45287E+00
 -1      1032 6.61765E+01 1.00000E+01 2.54713E+00
 -1      1033 7.50000E+01 1.00000E+01 7.45287E+00
 -1      1034 6.03343E+00 1.00000E+01 4.97977E+00
 -1      1035 8.82332E+00 1.00000E+01 5.00000E+00
 -1      1036 1.62315E+01 1.00000E+01 7.49741E+00
 -1      1037 2.16506E+00 1.00000E+01 6.25000E+00
 -1      1038 3.97010E+01 1.00000E+01 7.50455E+00
 -1      1039 4.41064E+01 1.00000E+01 5.02143E+00
 -1      1040 9.39618E+01 1.00000E+01 5.02821E+00
 -1      1041 1.31760E+01 1.00000E+01 7.49777E+00
 -1      1042 9.11697E+01 1.00000E+01 5.00229E+00
 -1      1043 1.76471E+01 1.00000E+01 4.99998E+00
 -1      1044 7.94118E+01 1.00000E+01 5.00000E+00
 -1      1045 8.23529E+01 1.00000E+01 5.00000E+00
 -1      1046 7.35294E+01 1.00000E+01 5.00000E+00
 -1      1047 8.82353E+01 1.00000E+01 5.00000E+00
 -1      1048 6.17647E+01 1.00000E+01 5.00000E+00
 -1      1049 5.29412E+01 1.00000E+01 5.00000E+00
 -1      1050 6.47059E+01 1.00000E+01 5.00000E+00
 -1      1051 6.76471E+01 1.00000E+01 5.00000E+00
 -1      1052 8.52941E+01 1.00000E+01 5.00000E+00
 -1      1053 7.64706E+01 1.00000E+01 5.00000E+00
 -1      1054 4.70526E+01 1.00000E+01 5.00925E+00
 -1      1055 2.05882E+01 1.00000E+01 5.00000E+00
 -1      1056 2.35294E+01 1.00000E+01 5.00000E+00
 -1      1057 5.58824E+01 1.00000E+01 5.00000E+00
 -1      1058 2.94118E+01 1.00000E+01 5.00000E+00
 -1      1059 3.23529E+01 1.00000E+01 5.00000E+00
 -1      1060 2.64706E+01 1.00000E+01 5.00000E+00
 -1      1061 5.88235E+01 1.00000E+01 5.00000E+00
 -1      1062 7.05882E+01 1.00000E+01 5.00000E+00
 -1      1063 3.52941E+01 1.00000E+01 5.00000E+00
 -1      1064 5.00000E+01 1.00000E+01 5.00000E+00
 -1      1065 3.82353E+01 1.00000E+01 4.99998E+00
 -1      1066 4.26379E+01 1.00000E+01 7.50759E+00
 -1      1067 1.17439E+01 1.00000E+01 4.99812E+00
 -1      1068 9.78349E+01 1.00000E+01 3.75000E+00
 -1      1069 4.28341E+00 1.00000E+01 2.58354E+00
 -1      1070 9.57116E+01 1.00000E+01 7.42460E+00
 -1      1071 3.76654E+00 1.00000E+01 5.01168E+00
 -1      1072 1.87615E+00 1.00000E+01 8.23475E+00
 -1      1073 1.86018E+00 1.00000E+01 1.78097E+00
 -1      1074 9.81239E+01 1.00000E+01 1.76523E+00
 -1      1075 9.81388E+01 1.00000E+01 8.22066E+00
 -1      1076 9.62315E+01 1.00000E+01 4.99153E+00
 -1      1077 9.38075E-01 1.00000E+01 9.11738E+00
 -1      1078 9.38075E-01 1.00000E+01 7.86738E+00
 -1      1079 2.40866E+00 1.00000E+01 9.11738E+00
 -1      1080 9.30089E-01 1.00000E+01 2.14049E+00
 -1      1081 9.30089E-01 1.00000E+01 8.90485E-01
 -1      1082 2.40068E+00 1.00000E+01 8.90485E-01
 -1      1083 9.90694E+01 1.00000E+01 7.86033E+00
 -1      1084 9.90694E+01 1.00000E+01 9.11033E+00
 -1      1085 9.75988E+01 1.00000E+01 9.11033E+00
 -1      1086 9.90619E+01 1.00000E+01 8.82616E-01
 -1      1087 9.90619E+01 1.00000E+01 2.13262E+00
 -1      1088 9.75914E+01 1.00000E+01 8.82616E-01
 -1      1089 1.03815E+00 1.00000E+01 4.41066E+00
 -1      1090 1.03815E+00 1.00000E+01 3.16066E+00
 -1      1091 1.96824E+00 1.00000E+01 2.80114E+00
 -1      1092 1.08253E+00 1.00000E+01 6.87500E+00
 -1      1093 1.08253E+00 1.00000E+01 5.62500E+00
 -1      1094 2.12068E+00 1.00000E+01 5.03566E+00
 -1      1095 2.02061E+00 1.00000E+01 7.24238E+00
 -1      1096 9.89175E+01 1.00000E+01 3.12500E+00
 -1      1097 9.89175E+01 1.00000E+01 4.37500E+00
 -1      1098 9.79794E+01 1.00000E+01 2.75762E+00
 -1      1099 9.89619E+01 1.00000E+01 5.58934E+00
 -1      1100 9.89619E+01 1.00000E+01 6.83934E+00
 -1      1101 9.78793E+01 1.00000E+01 4.96434E+00
 -1      1102 9.80313E+01 1.00000E+01 7.19967E+00
 -1      1103 3.61229E+00 1.00000E+01 1.29177E+00
 -1      1104 5.08288E+00 1.00000E+01 1.29177E+00
 -1      1105 3.07180E+00 1.00000E+01 2.18225E+00
 -1      1106 6.61765E+00 1.00000E+01 1.27357E+00
 -1      1107 8.08823E+00 1.00000E+01 1.27357E+00
 -1      1108 5.81818E+00 1.00000E+01 2.56534E+00
 -1      1109 9.55189E+00 1.00000E+01 1.26956E+00
 -1      1110 1.10225E+01 1.00000E+01 1.26956E+00
 -1      1111 8.81659E+00 1.00000E+01 2.54313E+00
 -1      1112 1.24960E+01 1.00000E+01 1.26324E+00
 -1      1113 1.39666E+01 1.00000E+01 1.26324E+00
 -1      1114 1.17538E+01 1.00000E+01 2.53280E+00
 -1      1115 1.54394E+01 1.00000E+01 1.26629E+00
 -1      1116 1.69100E+01 1.00000E+01 1.26629E+00
 -1      1117 1.47001E+01 1.00000E+01 2.52952E+00
 -1      1118 1.83823E+01 1.00000E+01 1.26916E+00
 -1      1119 1.98529E+01 1.00000E+01 1.26916E+00
 -1      1120 1.76452E+01 1.00000E+01 2.53545E+00
 -1      1121 2.13235E+01 1.00000E+01 1.27357E+00
 -1      1122 2.27941E+01 1.00000E+01 1.27357E+00
 -1      1123 2.05882E+01 1.00000E+01 2.54273E+00
 -1      1124 2.42647E+01 1.00000E+01 1.27357E+00
 -1      1125 2.57353E+01 1.00000E+01 1.27357E+00
 -1      1126 2.35294E+01 1.00000E+01 2.54713E+00
 -1      1127 2.72059E+01 1.00000E+01 1.27357E+00
 -1      1128 2.86765E+01 1.00000E+01 1.27357E+00
 -1      1129 2.64706E+01 1.00000E+01 2.54713E+00
 -1      1130 3.01471E+01 1.00000E+01 1.27357E+00
 -1      1131 3.16176E+01 1.00000E+01 1.27357E+00
 -1      1132 2.94118E+01 1.00000E+01 2.54713E+00
 -1      1133 3.30882E+01 1.00000E+01 1.27357E+00
 -1      1134 3.45588E+01 1.00000E+01 1.27357E+00
 -1      1135 3.23529E+01 1.00000E+01 2.54713E+00
 -1      1136 3.60294E+01 1.00000E+01 1.27357E+00
 -1      1137 3.75000E+01 1.00000E+01 1.27357E+00
 -1      1138 3.52941E+01 1.00000E+01 2.54713E+00
 -1      1139 3.89695E+01 1.00000E+01 1.26507E+00
 -1      1140 4.04401E+01 1.00000E+01 1.26507E+00
 -1      1141 3.82342E+01 1.00000E+01 2.53863E+00
 -1      1142 4.19051E+01 1.00000E+01 1.26971E+00
 -1      1143 4.33757E+01 1.00000E+01 1.26971E+00
 -1      1144 4.11687E+01 1.00000E+01 2.53478E+00
 -1      1145 4.48452E+01 1.00000E+01 1.26122E+00
 -1      1146 4.63157E+01 1.00000E+01 1.26122E+00
 -1      1147 4.41032E+01 1.00000E+01 2.53093E+00
 -1      1148 4.77941E+01 1.00000E+01 1.27357E+00
 -1      1149 4.92647E+01 1.00000E+01 1.27357E+00
 -1      1150 4.70510E+01 1.00000E+01 2.53478E+00
 -1      1151 5.07353E+01 1.00000E+01 1.27357E+00
 -1      1152 5.22059E+01 1.00000E+01 1.27357E+00
 -1      1153 5.00000E+01 1.00000E+01 2.54713E+00
 -1      1154 5.36765E+01 1.00000E+01 1.27357E+00
 -1      1155 5.51471E+01 1.00000E+01 1.27357E+00
 -1      1156 5.29412E+01 1.00000E+01 2.54713E+00
 -1      1157 5.66176E+01 1.00000E+01 1.27357E+00
 -1      1158 5.80882E+01 1.00000E+01 1.27357E+00
 -1      1159 5.58824E+01 1.00000E+01 2.54713E+00
 -1      1160 5.95588E+01 1.00000E+01 1.27357E+00
 -1      1161 6.10294E+01 1.00000E+01 1.27357E+00
 -1      1162 5.88235E+01 1.00000E+01 2.54713E+00
 -1      1163 6.25000E+01 1.00000E+01 1.27357E+00
 -1      1164 6.39706E+01 1.00000E+01 1.27357E+00
 -1      1165 6.17647E+01 1.00000E+01 2.54713E+00
 -1      1166 6.54412E+01 1.00000E+01 1.27357E+00
 -1      1167 6.69118E+01 1.00000E+01 1.27357E+00
 -1      1168 6.47059E+01 1.00000E+01 2.54713E+00
 -1      1169 6.83824E+01 1.00000E+01 1.27357E+00
 -1      1170 6.98529E+01 1.00000E+01 1.27357E+00
 -1      1171 6.76471E+01 1.00000E+01 2.54713E+00
 -1      1172 7.13235E+01 1.00000E+01 1.27357E+00
 -1      1173 7.27941E+01 1.00000E+01 1.27357E+00
 -1      1174 7.05882E+01 1.00000E+01 2.54713E+00
 -1      1175 7.42647E+01 1.00000E+01 1.27357E+00
 -1      1176 7.57353E+01 1.00000E+01 1.27357E+00
 -1      1177 7.35294E+01 1.00000E+01 2.54713E+00
 -1      1178 7.72059E+01 1.00000E+01 1.27357E+00
 -1      1179 7.86765E+01 1.00000E+01 1.27357E+00
 -1      1180 7.64706E+01 1.00000E+01 2.54713E+00
 -1      1181 8.01471E+01 1.00000E+01 1.27357E+00
 -1      1182 8.16176E+01 1.00000E+01 1.27357E+00
 -1      1183 7.94118E+01 1.00000E+01 2.54713E+00
 -1      1184 8.30882E+01 1.00000E+01 1.27357E+00
 -1      1185 8.45588E+01 1.00000E+01 1.27357E+00
 -1      1186 8.23529E+01 1.00000E+01 2.54713E+00
 -1      1187 8.60294E+01 1.00000E+01 1.27357E+00
 -1      1188 8.75000E+01 1.00000E+01 1.27357E+00
 -1      1189 8.52941E+01 1.00000E+01 2.54713E+00
 -1      1190 8.89706E+01 1.00000E+01 1.27357E+00
 -1      1191 9.04412E+01 1.00000E+01 1.27357E+00
 -1      1192 8.82353E+01 1.00000E+01 2.54713E+00
 -1      1193 9.19179E+01 1.00000E+01 1.26661E+00
 -1      1194 9.33885E+01 1.00000E+01 1.26661E+00
 -1      1195 9.11826E+01 1.00000E+01 2.54018E+00
 -1      1196 9.49216E+01 1.00000E+01 1.28808E+00
 -1      1197 9.63922E+01 1.00000E+01 1.28808E+00
 -1      1198 9.41925E+01 1.00000E+01 2.55469E+00
 -1      1199 9.69248E+01 1.00000E+01 2.17069E+00
 -1      1200 5.07843E+00 1.00000E+01 8.71188E+00
 -1      1201 3.60784E+00 1.00000E+01 8.71188E+00
 -1      1202 3.07533E+00 1.00000E+01 7.82926E+00
 -1      1203 8.08239E+00 1.00000E+01 8.73321E+00
 -1      1204 6.61180E+00 1.00000E+01 8.73321E+00
 -1      1205 5.80788E+00 1.00000E+01 7.44509E+00
 -1      1206 1.10294E+01 1.00000E+01 8.72643E+00
 -1      1207 9.55882E+00 1.00000E+01 8.72643E+00
 -1      1208 8.81769E+00 1.00000E+01 7.45964E+00
 -1      1209 1.39409E+01 1.00000E+01 8.74889E+00
 -1      1210 1.24703E+01 1.00000E+01 8.74889E+00
 -1      1211 1.17350E+01 1.00000E+01 7.47532E+00
 -1      1212 1.69393E+01 1.00000E+01 8.74871E+00
 -1      1213 1.54687E+01 1.00000E+01 8.74871E+00
 -1      1214 1.47037E+01 1.00000E+01 7.49759E+00
 -1      1215 1.98529E+01 1.00000E+01 8.72643E+00
 -1      1216 1.83824E+01 1.00000E+01 8.72643E+00
 -1      1217 1.76746E+01 1.00000E+01 7.47514E+00
 -1      1218 2.27941E+01 1.00000E+01 8.72643E+00
 -1      1219 2.13235E+01 1.00000E+01 8.72643E+00
 -1      1220 2.05882E+01 1.00000E+01 7.45287E+00
 -1      1221 2.57353E+01 1.00000E+01 8.72643E+00
 -1      1222 2.42647E+01 1.00000E+01 8.72643E+00
 -1      1223 2.35294E+01 1.00000E+01 7.45287E+00
 -1      1224 2.86765E+01 1.00000E+01 8.72643E+00
 -1      1225 2.72059E+01 1.00000E+01 8.72643E+00
 -1      1226 2.64706E+01 1.00000E+01 7.45287E+00
 -1      1227 3.16176E+01 1.00000E+01 8.72643E+00
 -1      1228 3.01471E+01 1.00000E+01 8.72643E+00
 -1      1229 2.94118E+01 1.00000E+01 7.45287E+00
 -1      1230 3.45588E+01 1.00000E+01 8.72643E+00
 -1      1231 3.30882E+01 1.00000E+01 8.72643E+00
 -1      1232 3.23529E+01 1.00000E+01 7.45287E+00
 -1      1233 3.75000E+01 1.00000E+01 8.72643E+00
 -1      1234 3.60294E+01 1.00000E+01 8.72643E+00
 -1      1235 3.52941E+01 1.00000E+01 7.45287E+00
 -1      1236 4.04387E+01 1.00000E+01 8.75228E+00
 -1      1237 3.89681E+01 1.00000E+01 8.75228E+00
 -1      1238 3.82329E+01 1.00000E+01 7.47871E+00
 -1      1239 4.33778E+01 1.00000E+01 8.75379E+00
 -1      1240 4.19072E+01 1.00000E+01 8.75379E+00
 -1      1241 4.11694E+01 1.00000E+01 7.50607E+00
 -1      1242 4.63188E+01 1.00000E+01 8.74613E+00
 -1      1243 4.48482E+01 1.00000E+01 8.74613E+00
 -1      1244 4.41083E+01 1.00000E+01 7.49992E+00
 -1      1245 4.92643E+01 1.00000E+01 8.73612E+00
 -1      1246 4.77937E+01 1.00000E+01 8.73612E+00
 -1      1247 4.70536E+01 1.00000E+01 7.48225E+00
 -1      1248 5.22059E+01 1.00000E+01 8.72643E+00
 -1      1249 5.07353E+01 1.00000E+01 8.72643E+00
 -1      1250 4.99996E+01 1.00000E+01 7.46256E+00
 -1      1251 5.51471E+01 1.00000E+01 8.72643E+00
 -1      1252 5.36765E+01 1.00000E+01 8.72643E+00
 -1      1253 5.29412E+01 1.00000E+01 7.45287E+00
 -1      1254 5.80882E+01 1.00000E+01 8.72643E+00
 -1      1255 5.66176E+01 1.00000E+01 8.72643E+00
 -1      1256 5.58824E+01 1.00000E+01 7.45287E+00
 -1      1257 6.10294E+01 1.00000E+01 8.72643E+00
 -1      1258 5.95588E+01 1.00000E+01 8.72643E+00
 -1      1259 5.88235E+01 1.00000E+01 7.45287E+00
 -1      1260 6.39706E+01 1.00000E+01 8.72643E+00
 -1      1261 6.25000E+01 1.00000E+01 8.72643E+00
 -1      1262 6.17647E+01 1.00000E+01 7.45287E+00
 -1      1263 6.69118E+01 1.00000E+01 8.72643E+00
 -1      1264 6.54412E+01 1.00000E+01 8.72643E+00
 -1      1265 6.47059E+01 1.00000E+01 7.45287E+00
 -1      1266 6.98529E+01 1.00000E+01 8.72643E+00
 -1      1267 6.83824E+01 1.00000E+01 8.72643E+00
 -1      1268 6.76471E+01 1.00000E+01 7.45287E+00
 -1      1269 7.27941E+01 1.00000E+01 8.72643E+00
 -1      1270 7.13235E+01 1.00000E+01 8.72643E+00
 -1      1271 7.05882E+01 1.00000E+01 7.45287E+00
 -1      1272 7.57353E+01 1.00000E+01 8.72643E+00
 -1      1273 7.42647E+01 1.00000E+01 8.72643E+00
 -1      1274 7.35294E+01 1.00000E+01 7.45287E+00
 -1      1275 7.86765E+01 1.00000E+01 8.72643E+00
 -1      1276 7.72059E+01 1.00000E+01 8.72643E+00
 -1      1277 7.64706E+01 1.00000E+01 7.45287E+00
 -1      1278 8.16176E+01 1.00000E+01 8.72643E+00
 -1      1279 8.01471E+01 1.00000E+01 8.72643E+00
 -1      1280 7.94118E+01 1.00000E+01 7.45287E+00
 -1      1281 8.45588E+01 1.00000E+01 8.72643E+00
 -1      1282 8.30882E+01 1.00000E+01 8.72643E+00
 -1      1283 8.23529E+01 1.00000E+01 7.45287E+00
 -1      1284 8.75000E+01 1.00000E+01 8.72643E+00
 -1      1285 8.60294E+01 1.00000E+01 8.72643E+00
 -1      1286 8.52941E+01 1.00000E+01 7.45287E+00
 -1      1287 9.04412E+01 1.00000E+01 8.72643E+00
 -1      1288 8.89706E+01 1.00000E+01 8.72643E+00
 -1      1289 8.82353E+01 1.00000E+01 7.45287E+00
 -1      1290 9.33672E+01 1.00000E+01 8.75091E+00
 -1      1291 9.18966E+01 1.00000E+01 8.75091E+00
 -1      1292 9.11613E+01 1.00000E+01 7.47734E+00
 -1      1293 9.63852E+01 1.00000E+01 8.71230E+00
 -1      1294 9.49146E+01 1.00000E+01 8.71230E+00
 -1      1295 9.41641E+01 1.00000E+01 7.46321E+00
 -1      1296 9.69252E+01 1.00000E+01 7.82263E+00
 -1      1297 6.98529E+01 1.00000E+01 3.77357E+00
 -1      1298 7.13235E+01 1.00000E+01 3.77357E+00
 -1      1299 6.69118E+01 1.00000E+01 3.77357E+00
 -1      1300 6.83824E+01 1.00000E+01 3.77357E+00
 -1      1301 6.91176E+01 1.00000E+01 5.00000E+00
 -1      1302 7.86765E+01 1.00000E+01 3.77357E+00
 -1      1303 8.01471E+01 1.00000E+01 3.77357E+00
 -1      1304 8.16176E+01 1.00000E+01 3.77357E+00
 -1      1305 8.30882E+01 1.00000E+01 3.77357E+00
 -1      1306 8.08824E+01 1.00000E+01 5.00000E+00
 -1      1307 9.18932E+01 1.00000E+01 6.25206E+00
 -1      1308 9.04378E+01 1.00000E+01 6.22758E+00
 -1      1309 9.25657E+01 1.00000E+01 5.01525E+00
 -1      1310 9.32892E+01 1.00000E+01 6.26502E+00
 -1      1311 9.48367E+01 1.00000E+01 6.22640E+00
 -1      1312 5.80882E+01 1.00000E+01 3.77357E+00
 -1      1313 5.95588E+01 1.00000E+01 3.77357E+00
 -1      1314 5.51471E+01 1.00000E+01 3.77357E+00
 -1      1315 5.66176E+01 1.00000E+01 3.77357E+00
 -1      1316 5.73529E+01 1.00000E+01 5.00000E+00
 -1      1317 6.10294E+01 1.00000E+01 3.77357E+00
 -1      1318 6.25000E+01 1.00000E+01 3.77357E+00
 -1      1319 6.39706E+01 1.00000E+01 3.77357E+00
 -1      1320 6.54412E+01 1.00000E+01 3.77357E+00
 -1      1321 6.32353E+01 1.00000E+01 5.00000E+00
 -1      1322 7.27941E+01 1.00000E+01 3.77357E+00
 -1      1323 7.42647E+01 1.00000E+01 3.77357E+00
 -1      1324 7.57353E+01 1.00000E+01 3.77357E+00
 -1      1325 7.72059E+01 1.00000E+01 3.77357E+00
 -1      1326 7.50000E+01 1.00000E+01 5.00000E+00
 -1      1327 8.89706E+01 1.00000E+01 6.22643E+00
 -1      1328 8.75000E+01 1.00000E+01 6.22643E+00
 -1      1329 8.60294E+01 1.00000E+01 6.22643E+00
 -1      1330 8.45588E+01 1.00000E+01 6.22643E+00
 -1      1331 8.67647E+01 1.00000E+01 5.00000E+00
 -1      1332 5.07353E+01 1.00000E+01 6.22643E+00
 -1      1333 4.92643E+01 1.00000E+01 6.23612E+00
 -1      1334 5.36765E+01 1.00000E+01 6.22643E+00
 -1      1335 5.22059E+01 1.00000E+01 6.22643E+00
 -1      1336 5.14706E+01 1.00000E+01 5.00000E+00
 -1      1337 1.39632E+01 1.00000E+01 3.76737E+00
 -1      1338 1.54360E+01 1.00000E+01 3.77042E+00
 -1      1339 1.61731E+01 1.00000E+01 5.00412E+00
 -1      1340 1.69100E+01 1.00000E+01 3.76627E+00
 -1      1341 1.83823E+01 1.00000E+01 3.76915E+00
 -1      1342 2.27941E+01 1.00000E+01 3.77357E+00
 -1      1343 2.42647E+01 1.00000E+01 3.77357E+00
 -1      1344 1.98529E+01 1.00000E+01 3.76916E+00
 -1      1345 2.13235E+01 1.00000E+01 3.77357E+00
 -1      1346 2.20588E+01 1.00000E+01 5.00000E+00
 -1      1347 9.55872E+00 1.00000E+01 6.22643E+00
 -1      1348 8.08228E+00 1.00000E+01 6.23321E+00
 -1      1349 1.10190E+01 1.00000E+01 6.22549E+00
 -1      1350 1.02836E+01 1.00000E+01 4.99906E+00
 -1      1351 1.24599E+01 1.00000E+01 6.24794E+00
 -1      1352 3.45588E+01 1.00000E+01 3.77357E+00
 -1      1353 3.60294E+01 1.00000E+01 3.77357E+00
 -1      1354 3.16176E+01 1.00000E+01 3.77357E+00
 -1      1355 3.30882E+01 1.00000E+01 3.77357E+00
 -1      1356 3.38235E+01 1.00000E+01 5.00000E+00
 -1      1357 4.04254E+01 1.00000E+01 3.77872E+00
 -1      1358 4.18904E+01 1.00000E+01 3.78337E+00
 -1      1359 4.26268E+01 1.00000E+01 5.02437E+00
 -1      1360 4.33700E+01 1.00000E+01 3.78043E+00
 -1      1361 4.48395E+01 1.00000E+01 3.77193E+00
 -1      1362 2.57353E+01 1.00000E+01 3.77357E+00
 -1      1363 2.72059E+01 1.00000E+01 3.77357E+00
 -1      1364 2.86765E+01 1.00000E+01 3.77357E+00
 -1      1365 3.01471E+01 1.00000E+01 3.77357E+00
 -1      1366 2.79412E+01 1.00000E+01 5.00000E+00
 -1      1367 6.68734E+00 1.00000E+01 6.22310E+00
 -1      1368 5.15397E+00 1.00000E+01 6.20177E+00
 -1      1369 4.89999E+00 1.00000E+01 4.99573E+00
 -1      1370 4.02053E+00 1.00000E+01 6.21772E+00
 -1      1371 2.96580E+00 1.00000E+01 5.63084E+00
 -1      1372 3.21979E+00 1.00000E+01 6.83688E+00
 -1      1373 8.08813E+00 1.00000E+01 3.77357E+00
 -1      1374 9.55178E+00 1.00000E+01 3.76956E+00
 -1      1375 7.42837E+00 1.00000E+01 4.98989E+00
 -1      1376 6.69319E+00 1.00000E+01 3.76345E+00
 -1      1377 5.15842E+00 1.00000E+01 3.78166E+00
 -1      1378 9.33106E+01 1.00000E+01 3.78072E+00
 -1      1379 9.48437E+01 1.00000E+01 3.80218E+00
 -1      1380 9.50966E+01 1.00000E+01 5.00987E+00
 -1      1381 9.59786E+01 1.00000E+01 3.78384E+00
 -1      1382 9.67803E+01 1.00000E+01 3.16308E+00
 -1      1383 9.70332E+01 1.00000E+01 4.37076E+00
 -1      1384 7.13235E+01 1.00000E+01 6.22643E+00
 -1      1385 6.98529E+01 1.00000E+01 6.22643E+00
 -1      1386 7.42647E+01 1.00000E+01 6.22643E+00
 -1      1387 7.27941E+01 1.00000E+01 6.22643E+00
 -1      1388 7.20588E+01 1.00000E+01 5.00000E+00
 -1      1389 4.92647E+01 1.00000E+01 3.77357E+00
 -1      1390 5.07353E+01 1.00000E+01 3.77357E+00
 -1      1391 4.63126E+01 1.00000E+01 3.76584E+00
 -1      1392 4.77910E+01 1.00000E+01 3.77819E+00
 -1      1393 4.85263E+01 1.00000E+01 5.00462E+00
 -1      1394 9.04378E+01 1.00000E+01 3.77471E+00
 -1      1395 9.19145E+01 1.00000E+01 3.76776E+00
 -1      1396 8.75000E+01 1.00000E+01 3.77357E+00
 -1      1397 8.89706E+01 1.00000E+01 3.77357E+00
 -1      1398 8.97025E+01 1.00000E+01 5.00115E+00
 -1      1399 5.95588E+01 1.00000E+01 6.22643E+00
 -1      1400 5.80882E+01 1.00000E+01 6.22643E+00
 -1      1401 6.25000E+01 1.00000E+01 6.22643E+00
 -1      1402 6.10294E+01 1.00000E+01 6.22643E+00
 -1      1403 6.02941E+01 1.00000E+01 5.00000E+00
 -1      1404 8.01471E+01 1.00000E+01 6.22643E+00
 -1      1405 7.86765E+01 1.00000E+01 6.22643E+00
 -1      1406 7.72059E+01 1.00000E+01 6.22643E+00
 -1      1407 7.57353E+01 1.00000E+01 6.22643E+00
 -1      1408 7.79412E+01 1.00000E+01 5.00000E+00
 -1      1409 6.54412E+01 1.00000E+01 6.22643E+00
 -1      1410 6.39706E+01 1.00000E+01 6.22643E+00
 -1      1411 6.83824E+01 1.00000E+01 6.22643E+00
 -1      1412 6.69118E+01 1.00000E+01 6.22643E+00
 -1      1413 6.61765E+01 1.00000E+01 5.00000E+00
 -1      1414 2.13235E+01 1.00000E+01 6.22643E+00
 -1      1415 1.98529E+01 1.00000E+01 6.22643E+00
 -1      1416 1.83824E+01 1.00000E+01 6.22642E+00
 -1      1417 1.69393E+01 1.00000E+01 6.24869E+00
 -1      1418 1.91176E+01 1.00000E+01 4.99999E+00
 -1      1419 3.60294E+01 1.00000E+01 6.22643E+00
 -1      1420 3.45588E+01 1.00000E+01 6.22643E+00
 -1      1421 3.89681E+01 1.00000E+01 6.25227E+00
 -1      1422 3.75000E+01 1.00000E+01 6.22642E+00
 -1      1423 3.67647E+01 1.00000E+01 4.99999E+00
 -1      1424 4.77906E+01 1.00000E+01 6.24075E+00
 -1      1425 4.63157E+01 1.00000E+01 6.25075E+00
 -1      1426 4.55795E+01 1.00000E+01 5.01534E+00
 -1      1427 4.48425E+01 1.00000E+01 6.25684E+00
 -1      1428 4.33721E+01 1.00000E+01 6.26451E+00
 -1      1429 2.72059E+01 1.00000E+01 6.22643E+00
 -1      1430 2.57353E+01 1.00000E+01 6.22643E+00
 -1      1431 2.42647E+01 1.00000E+01 6.22643E+00
 -1      1432 2.27941E+01 1.00000E+01 6.22643E+00
 -1      1433 2.50000E+01 1.00000E+01 5.00000E+00
 -1      1434 3.30882E+01 1.00000E+01 6.22643E+00
 -1      1435 3.16176E+01 1.00000E+01 6.22643E+00
 -1      1436 3.01471E+01 1.00000E+01 6.22643E+00
 -1      1437 2.86765E+01 1.00000E+01 6.22643E+00
 -1      1438 3.08824E+01 1.00000E+01 5.00000E+00
 -1      1439 2.92142E+00 1.00000E+01 4.41650E+00
 -1      1440 4.02498E+00 1.00000E+01 3.79761E+00
 -1      1441 3.17986E+00 1.00000E+01 3.20243E+00
 -1      1442 9.70776E+01 1.00000E+01 5.58511E+00
 -1      1443 9.68176E+01 1.00000E+01 6.80164E+00
 -1      1444 9.59715E+01 1.00000E+01 6.20806E+00
 -1      1445 1.10120E+01 1.00000E+01 3.76862E+00
 -1      1446 1.24856E+01 1.00000E+01 3.76229E+00
 -1      1447 1.32215E+01 1.00000E+01 5.00319E+00
 -1      1448 1.39375E+01 1.00000E+01 6.25302E+00
 -1      1449 1.54653E+01 1.00000E+01 6.25284E+00
 -1      1450 8.30882E+01 1.00000E+01 6.22643E+00
 -1      1451 8.16176E+01 1.00000E+01 6.22643E+00
 -1      1452 5.66176E+01 1.00000E+01 6.22643E+00
 -1      1453 5.51471E+01 1.00000E+01 6.22643E+00
 -1      1454 5.22059E+01 1.00000E+01 3.77357E+00
 -1      1455 5.36765E+01 1.00000E+01 3.77357E+00
 -1      1456 5.44118E+01 1.00000E+01 5.00000E+00
 -1      1457 3.75000E+01 1.00000E+01 3.77356E+00
 -1      1458 3.89695E+01 1.00000E+01 3.76506E+00
 -1      1459 3.96912E+01 1.00000E+01 5.01364E+00
 -1      1460 4.04241E+01 1.00000E+01 6.26593E+00
 -1      1461 4.18925E+01 1.00000E+01 6.26745E+00
 -1      1462 8.45588E+01 1.00000E+01 3.77357E+00
 -1      1463 8.60294E+01 1.00000E+01 3.77357E+00
 -1      1464 8.38235E+01 1.00000E+01 5.00000E+00
 -1      1465 6.61765E+01 2.54713E+00 0.00000E+00
 -1      1466 7.79412E+01 2.54713E+00 0.00000E+00
 -1      1467 8.38235E+01 7.45287E+00 0.00000E+00
 -1      1468 9.26167E+01 2.49818E+00 0.00000E+00
 -1      1469 5.73529E+01 2.53142E+00 0.00000E+00
 -1      1470 7.20588E+01 7.45287E+00 0.00000E+00
 -1      1471 5.14706E+01 2.54713E+00 0.00000E+00
 -1      1472 1.61765E+01 7.45287E+00 0.00000E+00
 -1      1473 2.20588E+01 2.53142E+00 0.00000E+00
 -1      1474 1.02820E+01 2.51769E+00 0.00000E+00
 -1      1475 3.38140E+01 7.49225E+00 0.00000E+00
 -1      1476 4.26604E+01 2.53943E+00 0.00000E+00
 -1      1477 2.79412E+01 2.53142E+00 0.00000E+00
 -1      1478 4.26854E+00 7.42569E+00 0.00000E+00
 -1      1479 6.32353E+01 7.45287E+00 0.00000E+00
 -1      1480 8.67647E+01 2.54713E+00 0.00000E+00
 -1      1481 9.57256E+01 7.42384E+00 0.00000E+00
 -1      1482 4.85294E+01 7.45287E+00 0.00000E+00
 -1      1483 8.97059E+01 7.45287E+00 0.00000E+00
 -1      1484 5.44118E+01 7.45287E+00 0.00000E+00
 -1      1485 3.67647E+01 2.54713E+00 0.00000E+00
 -1      1486 2.50000E+01 7.49970E+00 0.00000E+00
 -1      1487 3.97154E+01 7.49225E+00 0.00000E+00
 -1      1488 2.07239E+00 3.81746E+00 0.00000E+00
 -1      1489 9.79237E+01 3.82131E+00 0.00000E+00
 -1      1490 7.79412E+01 7.45287E+00 0.00000E+00
 -1      1491 7.20588E+01 2.54713E+00 0.00000E+00
 -1      1492 1.61765E+01 2.54713E+00 0.00000E+00
 -1      1493 1.02756E+01 7.48718E+00 0.00000E+00
 -1      1494 7.31158E+00 7.47675E+00 0.00000E+00
 -1      1495 6.00669E+00 4.96818E+00 0.00000E+00
 -1      1496 9.26593E+01 7.46678E+00 0.00000E+00
 -1      1497 6.32353E+01 2.54713E+00 0.00000E+00
 -1      1498 6.02941E+01 2.52880E+00 0.00000E+00
 -1      1499 5.88235E+01 5.00974E+00 0.00000E+00
 -1      1500 8.08824E+01 2.54713E+00 0.00000E+00
 -1      1501 6.91176E+01 7.45287E+00 0.00000E+00
 -1      1502 4.85294E+01 2.54713E+00 0.00000E+00
 -1      1503 4.55905E+01 2.53013E+00 0.00000E+00
 -1      1504 4.41469E+01 5.02730E+00 0.00000E+00
 -1      1505 8.67647E+01 7.45287E+00 0.00000E+00
 -1      1506 3.38102E+01 2.52371E+00 0.00000E+00
 -1      1507 8.08824E+01 7.45287E+00 0.00000E+00
 -1      1508 3.67647E+01 7.49742E+00 0.00000E+00
 -1      1509 2.50000E+01 2.52843E+00 0.00000E+00
 -1      1510 3.08668E+01 2.53290E+00 0.00000E+00
 -1      1511 2.93825E+01 5.02643E+00 0.00000E+00
 -1      1512 8.97059E+01 2.54713E+00 0.00000E+00
 -1      1513 5.14706E+01 7.45287E+00 0.00000E+00
 -1      1514 1.91176E+01 2.52880E+00 0.00000E+00
 -1      1515 2.05882E+01 5.00974E+00 0.00000E+00
 -1      1516 1.32337E+01 7.47182E+00 0.00000E+00
 -1      1517 1.32343E+01 2.52860E+00 0.00000E+00
 -1      1518 3.97215E+01 2.52243E+00 0.00000E+00
 -1      1519 7.50000E+01 2.54713E+00 0.00000E+00
 -1      1520 6.91176E+01 2.54713E+00 0.00000E+00
 -1      1521 5.44118E+01 2.53827E+00 0.00000E+00
 -1      1522 8.38235E+01 2.54713E+00 0.00000E+00
 -1      1523 7.50000E+01 7.45287E+00 0.00000E+00
 -1      1524 6.61765E+01 7.45287E+00 0.00000E+00
 -1      1525 8.80603E+00 4.99155E+00 0.00000E+00
 -1      1526 7.35907E+00 2.48863E+00 0.00000E+00
 -1      1527 2.16506E+00 6.25000E+00 0.00000E+00
 -1      1528 5.72728E+01 7.49911E+00 0.00000E+00
 -1      1529 6.03742E+01 7.49911E+00 0.00000E+00
 -1      1530 2.20455E+01 7.50142E+00 0.00000E+00
 -1      1531 1.90932E+01 7.49546E+00 0.00000E+00
 -1      1532 2.79363E+01 7.51221E+00 0.00000E+00
 -1      1533 4.11878E+01 5.02143E+00 0.00000E+00
 -1      1534 4.55931E+01 7.50455E+00 0.00000E+00
 -1      1535 3.23416E+01 5.02041E+00 0.00000E+00
 -1      1536 9.39618E+01 4.97179E+00 0.00000E+00
 -1      1537 9.11697E+01 4.99771E+00 0.00000E+00
 -1      1538 7.64706E+01 5.00000E+00 0.00000E+00
 -1      1539 7.35294E+01 5.00000E+00 0.00000E+00
 -1      1540 7.05882E+01 5.00000E+00 0.00000E+00
 -1      1541 8.82353E+01 5.00000E+00 0.00000E+00
 -1      1542 8.23529E+01 5.00000E+00 0.00000E+00
 -1      1543 5.29412E+01 5.00000E+00 0.00000E+00
 -1      1544 6.47059E+01 5.00000E+00 0.00000E+00
 -1      1545 1.47054E+01 5.00007E+00 0.00000E+00
 -1      1546 1.17562E+01 4.99949E+00 0.00000E+00
 -1      1547 7.94118E+01 5.00000E+00 0.00000E+00
 -1      1548 6.76471E+01 5.00000E+00 0.00000E+00
 -1      1549 3.82414E+01 5.01344E+00 0.00000E+00
 -1      1550 8.52941E+01 5.00000E+00 0.00000E+00
 -1      1551 3.52894E+01 5.01573E+00 0.00000E+00
 -1      1552 5.00000E+01 5.00000E+00 0.00000E+00
 -1      1553 5.58824E+01 4.99998E+00 0.00000E+00
 -1      1554 6.17647E+01 4.99998E+00 0.00000E+00
 -1      1555 4.26562E+01 7.50759E+00 0.00000E+00
 -1      1556 4.70588E+01 4.99998E+00 0.00000E+00
 -1      1557 1.76471E+01 4.99998E+00 0.00000E+00
 -1      1558 3.08732E+01 7.50855E+00 0.00000E+00
 -1      1559 2.64691E+01 5.00425E+00 0.00000E+00
 -1      1560 2.35276E+01 5.00892E+00 0.00000E+00
 -1      1561 9.78349E+01 6.25000E+00 0.00000E+00
 -1      1562 4.27989E+00 2.57297E+00 0.00000E+00
 -1      1563 9.57116E+01 2.57540E+00 0.00000E+00
 -1      1564 3.75851E+00 5.00686E+00 0.00000E+00
 -1      1565 1.87496E+00 8.23514E+00 0.00000E+00
 -1      1566 1.85869E+00 1.77809E+00 0.00000E+00
 -1      1567 9.81239E+01 8.23477E+00 0.00000E+00
 -1      1568 9.81388E+01 1.77934E+00 0.00000E+00
 -1      1569 9.62315E+01 5.00847E+00 0.00000E+00
 -1      1570 9.29345E-01 2.13904E+00 0.00000E+00
 -1      1571 9.29345E-01 8.89044E-01 0.00000E+00
 -1      1572 2.39993E+00 8.89044E-01 0.00000E+00
 -1      1573 9.37478E-01 9.11757E+00 0.00000E+00
 -1      1574 9.37478E-01 7.86757E+00 0.00000E+00
 -1      1575 2.40807E+00 9.11757E+00 0.00000E+00
 -1      1576 9.90694E+01 8.89672E-01 0.00000E+00
 -1      1577 9.90694E+01 2.13967E+00 0.00000E+00
 -1      1578 9.75988E+01 8.89672E-01 0.00000E+00
 -1      1579 9.90619E+01 7.86738E+00 0.00000E+00
 -1      1580 9.90619E+01 9.11738E+00 0.00000E+00
 -1      1581 9.75914E+01 9.11738E+00 0.00000E+00
 -1      1582 1.03619E+00 4.40873E+00 0.00000E+00
 -1      1583 1.03619E+00 3.15873E+00 0.00000E+00
 -1      1584 1.96554E+00 2.79778E+00 0.00000E+00
 -1      1585 1.08253E+00 6.87500E+00 0.00000E+00
 -1      1586 1.08253E+00 5.62500E+00 0.00000E+00
 -1      1587 2.11873E+00 5.03373E+00 0.00000E+00
 -1      1588 2.02001E+00 7.24257E+00 0.00000E+00
 -1      1589 9.89619E+01 3.16066E+00 0.00000E+00
 -1      1590 9.89619E+01 4.41066E+00 0.00000E+00
 -1      1591 9.80313E+01 2.80033E+00 0.00000E+00
 -1      1592 9.89175E+01 5.62500E+00 0.00000E+00
 -1      1593 9.89175E+01 6.87500E+00 0.00000E+00
 -1      1594 9.78793E+01 5.03566E+00 0.00000E+00
 -1      1595 9.79794E+01 7.24238E+00 0.00000E+00
 -1      1596 3.61053E+00 1.28649E+00 0.00000E+00
 -1      1597 5.08112E+00 1.28649E+00 0.00000E+00
 -1      1598 3.06929E+00 2.17553E+00 0.00000E+00
 -1      1599 6.62071E+00 1.24431E+00 0.00000E+00
 -1      1600 8.09130E+00 1.24431E+00 0.00000E+00
 -1      1601 5.81948E+00 2.53080E+00 0.00000E+00
 -1      1602 9.55278E+00 1.25885E+00 0.00000E+00
 -1      1603 1.10234E+01 1.25885E+00 0.00000E+00
 -1      1604 8.82055E+00 2.50316E+00 0.00000E+00
 -1      1605 1.24995E+01 1.26430E+00 0.00000E+00
 -1      1606 1.39701E+01 1.26430E+00 0.00000E+00
 -1      1607 1.17581E+01 2.52315E+00 0.00000E+00
 -1      1608 1.54412E+01 1.27357E+00 0.00000E+00
 -1      1609 1.69118E+01 1.27357E+00 0.00000E+00
 -1      1610 1.47054E+01 2.53787E+00 0.00000E+00
 -1      1611 1.83824E+01 1.26440E+00 0.00000E+00
 -1      1612 1.98529E+01 1.26440E+00 0.00000E+00
 -1      1613 1.76471E+01 2.53797E+00 0.00000E+00
 -1      1614 2.13235E+01 1.26571E+00 0.00000E+00
 -1      1615 2.27941E+01 1.26571E+00 0.00000E+00
 -1      1616 2.05882E+01 2.53011E+00 0.00000E+00
 -1      1617 2.42647E+01 1.26421E+00 0.00000E+00
 -1      1618 2.57353E+01 1.26421E+00 0.00000E+00
 -1      1619 2.35294E+01 2.52992E+00 0.00000E+00
 -1      1620 2.72059E+01 1.26571E+00 0.00000E+00
 -1      1621 2.86765E+01 1.26571E+00 0.00000E+00
 -1      1622 2.64706E+01 2.52992E+00 0.00000E+00
 -1      1623 3.01393E+01 1.26645E+00 0.00000E+00
 -1      1624 3.16099E+01 1.26645E+00 0.00000E+00
 -1      1625 2.94040E+01 2.53216E+00 0.00000E+00
 -1      1626 3.30816E+01 1.26186E+00 0.00000E+00
 -1      1627 3.45522E+01 1.26186E+00 0.00000E+00
 -1      1628 3.23385E+01 2.52831E+00 0.00000E+00
 -1      1629 3.60294E+01 1.27357E+00 0.00000E+00
 -1      1630 3.75000E+01 1.27357E+00 0.00000E+00
 -1      1631 3.52874E+01 2.53542E+00 0.00000E+00
 -1      1632 3.89784E+01 1.26122E+00 0.00000E+00
 -1      1633 4.04490E+01 1.26122E+00 0.00000E+00
 -1      1634 3.82431E+01 2.53478E+00 0.00000E+00
 -1      1635 4.19184E+01 1.26971E+00 0.00000E+00
 -1      1636 4.33890E+01 1.26971E+00 0.00000E+00
 -1      1637 4.11909E+01 2.53093E+00 0.00000E+00
 -1      1638 4.48541E+01 1.26507E+00 0.00000E+00
 -1      1639 4.63246E+01 1.26507E+00 0.00000E+00
 -1      1640 4.41254E+01 2.53478E+00 0.00000E+00
 -1      1641 4.77941E+01 1.27357E+00 0.00000E+00
 -1      1642 4.92647E+01 1.27357E+00 0.00000E+00
 -1      1643 4.70599E+01 2.53863E+00 0.00000E+00
 -1      1644 5.07353E+01 1.27357E+00 0.00000E+00
 -1      1645 5.22059E+01 1.27357E+00 0.00000E+00
 -1      1646 5.00000E+01 2.54713E+00 0.00000E+00
 -1      1647 5.36765E+01 1.26914E+00 0.00000E+00
 -1      1648 5.51471E+01 1.26914E+00 0.00000E+00
 -1      1649 5.29412E+01 2.54270E+00 0.00000E+00
 -1      1650 5.66176E+01 1.26571E+00 0.00000E+00
 -1      1651 5.80882E+01 1.26571E+00 0.00000E+00
 -1      1652 5.58824E+01 2.53485E+00 0.00000E+00
 -1      1653 5.95588E+01 1.26440E+00 0.00000E+00
 -1      1654 6.10294E+01 1.26440E+00 0.00000E+00
 -1      1655 5.88235E+01 2.53011E+00 0.00000E+00
 -1      1656 6.25000E+01 1.27357E+00 0.00000E+00
 -1      1657 6.39706E+01 1.27357E+00 0.00000E+00
 -1      1658 6.17647E+01 2.53797E+00 0.00000E+00
 -1      1659 6.54412E+01 1.27357E+00 0.00000E+00
 -1      1660 6.69118E+01 1.27357E+00 0.00000E+00
 -1      1661 6.47059E+01 2.54713E+00 0.00000E+00
 -1      1662 6.83824E+01 1.27357E+00 0.00000E+00
 -1      1663 6.98529E+01 1.27357E+00 0.00000E+00
 -1      1664 6.76471E+01 2.54713E+00 0.00000E+00
 -1      1665 7.13235E+01 1.27357E+00 0.00000E+00
 -1      1666 7.27941E+01 1.27357E+00 0.00000E+00
 -1      1667 7.05882E+01 2.54713E+00 0.00000E+00
 -1      1668 7.42647E+01 1.27357E+00 0.00000E+00
 -1      1669 7.57353E+01 1.27357E+00 0.00000E+00
 -1      1670 7.35294E+01 2.54713E+00 0.00000E+00
 -1      1671 7.72059E+01 1.27357E+00 0.00000E+00
 -1      1672 7.86765E+01 1.27357E+00 0.00000E+00
 -1      1673 7.64706E+01 2.54713E+00 0.00000E+00
 -1      1674 8.01471E+01 1.27357E+00 0.00000E+00
 -1      1675 8.16176E+01 1.27357E+00 0.00000E+00
 -1      1676 7.94118E+01 2.54713E+00 0.00000E+00
 -1      1677 8.30882E+01 1.27357E+00 0.00000E+00
 -1      1678 8.45588E+01 1.27357E+00 0.00000E+00
 -1      1679 8.23529E+01 2.54713E+00 0.00000E+00
 -1      1680 8.60294E+01 1.27357E+00 0.00000E+00
 -1      1681 8.75000E+01 1.27357E+00 0.00000E+00
 -1      1682 8.52941E+01 2.54713E+00 0.00000E+00
 -1      1683 8.89706E+01 1.27357E+00 0.00000E+00
 -1      1684 9.04412E+01 1.27357E+00 0.00000E+00
 -1      1685 8.82353E+01 2.54713E+00 0.00000E+00
 -1      1686 9.18966E+01 1.24909E+00 0.00000E+00
 -1      1687 9.33672E+01 1.24909E+00 0.00000E+00
 -1      1688 9.11613E+01 2.52266E+00 0.00000E+00
 -1      1689 9.49146E+01 1.28770E+00 0.00000E+00
 -1      1690 9.63852E+01 1.28770E+00 0.00000E+00
 -1      1691 9.41641E+01 2.53679E+00 0.00000E+00
 -1      1692 9.69252E+01 2.17737E+00 0.00000E+00
 -1      1693 5.07545E+00 8.71284E+00 0.00000E+00
 -1      1694 3.60486E+00 8.71284E+00 0.00000E+00
 -1      1695 3.07175E+00 7.83041E+00 0.00000E+00
 -1      1696 8.06756E+00 8.73837E+00 0.00000E+00
 -1      1697 6.59697E+00 8.73837E+00 0.00000E+00
 -1      1698 5.79006E+00 7.45122E+00 0.00000E+00
 -1      1699 1.10201E+01 8.74359E+00 0.00000E+00
 -1      1700 9.54956E+00 8.74359E+00 0.00000E+00
 -1      1701 8.79358E+00 7.48196E+00 0.00000E+00
 -1      1702 1.39698E+01 8.73591E+00 0.00000E+00
 -1      1703 1.24992E+01 8.73591E+00 0.00000E+00
 -1      1704 1.17547E+01 7.47950E+00 0.00000E+00
 -1      1705 1.69118E+01 8.72643E+00 0.00000E+00
 -1      1706 1.54412E+01 8.72643E+00 0.00000E+00
 -1      1707 1.47051E+01 7.46234E+00 0.00000E+00
 -1      1708 1.98407E+01 8.74773E+00 0.00000E+00
 -1      1709 1.83701E+01 8.74773E+00 0.00000E+00
 -1      1710 1.76348E+01 7.47416E+00 0.00000E+00
 -1      1711 2.27874E+01 8.75071E+00 0.00000E+00
 -1      1712 2.13169E+01 8.75071E+00 0.00000E+00
 -1      1713 2.05693E+01 7.49844E+00 0.00000E+00
 -1      1714 2.57353E+01 8.74985E+00 0.00000E+00
 -1      1715 2.42647E+01 8.74985E+00 0.00000E+00
 -1      1716 2.35227E+01 7.50056E+00 0.00000E+00
 -1      1717 2.86740E+01 8.75611E+00 0.00000E+00
 -1      1718 2.72034E+01 8.75611E+00 0.00000E+00
 -1      1719 2.64681E+01 7.50595E+00 0.00000E+00
 -1      1720 3.16131E+01 8.75428E+00 0.00000E+00
 -1      1721 3.01425E+01 8.75428E+00 0.00000E+00
 -1      1722 2.94047E+01 7.51038E+00 0.00000E+00
 -1      1723 3.45541E+01 8.74613E+00 0.00000E+00
 -1      1724 3.30835E+01 8.74613E+00 0.00000E+00
 -1      1725 3.23436E+01 7.50040E+00 0.00000E+00
 -1      1726 3.75000E+01 8.74871E+00 0.00000E+00
 -1      1727 3.60294E+01 8.74871E+00 0.00000E+00
 -1      1728 3.52893E+01 7.49483E+00 0.00000E+00
 -1      1729 4.04459E+01 8.74613E+00 0.00000E+00
 -1      1730 3.89754E+01 8.74613E+00 0.00000E+00
 -1      1731 3.82401E+01 7.49483E+00 0.00000E+00
 -1      1732 4.33869E+01 8.75379E+00 0.00000E+00
 -1      1733 4.19163E+01 8.75379E+00 0.00000E+00
 -1      1734 4.11858E+01 7.49992E+00 0.00000E+00
 -1      1735 4.63260E+01 8.75228E+00 0.00000E+00
 -1      1736 4.48554E+01 8.75228E+00 0.00000E+00
 -1      1737 4.41247E+01 7.50607E+00 0.00000E+00
 -1      1738 4.92647E+01 8.72643E+00 0.00000E+00
 -1      1739 4.77941E+01 8.72643E+00 0.00000E+00
 -1      1740 4.70613E+01 7.47871E+00 0.00000E+00
 -1      1741 5.22059E+01 8.72643E+00 0.00000E+00
 -1      1742 5.07353E+01 8.72643E+00 0.00000E+00
 -1      1743 5.00000E+01 7.45287E+00 0.00000E+00
 -1      1744 5.51471E+01 8.72643E+00 0.00000E+00
 -1      1745 5.36765E+01 8.72643E+00 0.00000E+00
 -1      1746 5.29412E+01 7.45287E+00 0.00000E+00
 -1      1747 5.80482E+01 8.74956E+00 0.00000E+00
 -1      1748 5.65776E+01 8.74956E+00 0.00000E+00
 -1      1749 5.58423E+01 7.47599E+00 0.00000E+00
 -1      1750 6.10695E+01 8.74956E+00 0.00000E+00
 -1      1751 5.95989E+01 8.74956E+00 0.00000E+00
 -1      1752 5.88235E+01 7.49911E+00 0.00000E+00
 -1      1753 6.39706E+01 8.72643E+00 0.00000E+00
 -1      1754 6.25000E+01 8.72643E+00 0.00000E+00
 -1      1755 6.18048E+01 7.47599E+00 0.00000E+00
 -1      1756 6.69118E+01 8.72643E+00 0.00000E+00
 -1      1757 6.54412E+01 8.72643E+00 0.00000E+00
 -1      1758 6.47059E+01 7.45287E+00 0.00000E+00
 -1      1759 6.98529E+01 8.72643E+00 0.00000E+00
 -1      1760 6.83824E+01 8.72643E+00 0.00000E+00
 -1      1761 6.76471E+01 7.45287E+00 0.00000E+00
 -1      1762 7.27941E+01 8.72643E+00 0.00000E+00
 -1      1763 7.13235E+01 8.72643E+00 0.00000E+00
 -1      1764 7.05882E+01 7.45287E+00 0.00000E+00
 -1      1765 7.57353E+01 8.72643E+00 0.00000E+00
 -1      1766 7.42647E+01 8.72643E+00 0.00000E+00
 -1      1767 7.35294E+01 7.45287E+00 0.00000E+00
 -1      1768 7.86765E+01 8.72643E+00 0.00000E+00
 -1      1769 7.72059E+01 8.72643E+00 0.00000E+00
 -1      1770 7.64706E+01 7.45287E+00 0.00000E+00
 -1      1771 8.16176E+01 8.72643E+00 0.00000E+00
 -1      1772 8.01471E+01 8.72643E+00 0.00000E+00
 -1      1773 7.94118E+01 7.45287E+00 0.00000E+00
 -1      1774 8.45588E+01 8.72643E+00 0.00000E+00
 -1      1775 8.30882E+01 8.72643E+00 0.00000E+00
 -1      1776 8.23529E+01 7.45287E+00 0.00000E+00
 -1      1777 8.75000E+01 8.72643E+00 0.00000E+00
 -1      1778 8.60294E+01 8.72643E+00 0.00000E+00
 -1      1779 8.52941E+01 7.45287E+00 0.00000E+00
 -1      1780 9.04412E+01 8.72643E+00 0.00000E+00
 -1      1781 8.89706E+01 8.72643E+00 0.00000E+00
 -1      1782 8.82353E+01 7.45287E+00 0.00000E+00
 -1      1783 9.33885E+01 8.73339E+00 0.00000E+00
 -1      1784 9.19179E+01 8.73339E+00 0.00000E+00
 -1      1785 9.11826E+01 7.45982E+00 0.00000E+00
 -1      1786 9.63922E+01 8.71192E+00 0.00000E+00
 -1      1787 9.49216E+01 8.71192E+00 0.00000E+00
 -1      1788 9.41925E+01 7.44531E+00 0.00000E+00
 -1      1789 9.69248E+01 7.82931E+00 0.00000E+00
 -1      1790 6.39706E+01 3.77357E+00 0.00000E+00
 -1      1791 6.54412E+01 3.77357E+00 0.00000E+00
 -1      1792 6.69118E+01 3.77357E+00 0.00000E+00
 -1      1793 6.83824E+01 3.77357E+00 0.00000E+00
 -1      1794 6.61765E+01 5.00000E+00 0.00000E+00
 -1      1795 7.86765E+01 3.77357E+00 0.00000E+00
 -1      1796 8.01471E+01 3.77357E+00 0.00000E+00
 -1      1797 7.57353E+01 3.77357E+00 0.00000E+00
 -1      1798 7.72059E+01 3.77357E+00 0.00000E+00
 -1      1799 7.79412E+01 5.00000E+00 0.00000E+00
 -1      1800 8.60294E+01 6.22643E+00 0.00000E+00
 -1      1801 8.45588E+01 6.22643E+00 0.00000E+00
 -1      1802 8.30882E+01 6.22643E+00 0.00000E+00
 -1      1803 8.16176E+01 6.22643E+00 0.00000E+00
 -1      1804 8.38235E+01 5.00000E+00 0.00000E+00
 -1      1805 9.04378E+01 3.77242E+00 0.00000E+00
 -1      1806 9.18932E+01 3.74794E+00 0.00000E+00
 -1      1807 9.32892E+01 3.73498E+00 0.00000E+00
 -1      1808 9.25657E+01 4.98475E+00 0.00000E+00
 -1      1809 9.48367E+01 3.77360E+00 0.00000E+00
 -1      1810 5.80882E+01 3.77058E+00 0.00000E+00
 -1      1811 5.95588E+01 3.76927E+00 0.00000E+00
 -1      1812 5.66176E+01 3.76570E+00 0.00000E+00
 -1      1813 5.73529E+01 5.00486E+00 0.00000E+00
 -1      1814 5.51471E+01 3.76913E+00 0.00000E+00
 -1      1815 7.13235E+01 6.22643E+00 0.00000E+00
 -1      1816 6.98529E+01 6.22643E+00 0.00000E+00
 -1      1817 7.42647E+01 6.22643E+00 0.00000E+00
 -1      1818 7.27941E+01 6.22643E+00 0.00000E+00
 -1      1819 7.20588E+01 5.00000E+00 0.00000E+00
 -1      1820 4.92647E+01 3.77357E+00 0.00000E+00
 -1      1821 5.07353E+01 3.77357E+00 0.00000E+00
 -1      1822 5.22059E+01 3.77357E+00 0.00000E+00
 -1      1823 5.36765E+01 3.76914E+00 0.00000E+00
 -1      1824 5.14706E+01 5.00000E+00 0.00000E+00
 -1      1825 1.54410E+01 6.22647E+00 0.00000E+00
 -1      1826 1.39696E+01 6.23594E+00 0.00000E+00
 -1      1827 1.83701E+01 6.24772E+00 0.00000E+00
 -1      1828 1.69118E+01 6.22642E+00 0.00000E+00
 -1      1829 1.61763E+01 5.00002E+00 0.00000E+00
 -1      1830 2.27932E+01 3.77017E+00 0.00000E+00
 -1      1831 2.42638E+01 3.76867E+00 0.00000E+00
 -1      1832 1.98529E+01 3.76927E+00 0.00000E+00
 -1      1833 2.13235E+01 3.77058E+00 0.00000E+00
 -1      1834 2.20579E+01 5.00933E+00 0.00000E+00
 -1      1835 1.10191E+01 3.75859E+00 0.00000E+00
 -1      1836 1.24952E+01 3.76404E+00 0.00000E+00
 -1      1837 9.54403E+00 3.75462E+00 0.00000E+00
 -1      1838 8.08255E+00 3.74009E+00 0.00000E+00
 -1      1839 1.02811E+01 4.99552E+00 0.00000E+00
 -1      1840 3.60271E+01 6.25657E+00 0.00000E+00
 -1      1841 3.45517E+01 6.25399E+00 0.00000E+00
 -1      1842 3.30778E+01 6.25633E+00 0.00000E+00
 -1      1843 3.38155E+01 5.01807E+00 0.00000E+00
 -1      1844 3.16074E+01 6.26448E+00 0.00000E+00
 -1      1845 4.34037E+01 3.78337E+00 0.00000E+00
 -1      1846 4.48687E+01 3.77872E+00 0.00000E+00
 -1      1847 4.19241E+01 3.78043E+00 0.00000E+00
 -1      1848 4.26674E+01 5.02437E+00 0.00000E+00
 -1      1849 4.04546E+01 3.77193E+00 0.00000E+00
 -1      1850 2.57346E+01 3.76634E+00 0.00000E+00
 -1      1851 2.72051E+01 3.76783E+00 0.00000E+00
 -1      1852 2.86618E+01 3.77893E+00 0.00000E+00
 -1      1853 3.01246E+01 3.77967E+00 0.00000E+00
 -1      1854 2.79258E+01 5.01534E+00 0.00000E+00
 -1      1855 6.65914E+00 6.22246E+00 0.00000E+00
 -1      1856 5.13762E+00 6.19693E+00 0.00000E+00
 -1      1857 4.88260E+00 4.98752E+00 0.00000E+00
 -1      1858 4.01353E+00 6.21627E+00 0.00000E+00
 -1      1859 3.21680E+00 6.83784E+00 0.00000E+00
 -1      1860 2.96179E+00 5.62843E+00 0.00000E+00
 -1      1861 6.54412E+01 6.22643E+00 0.00000E+00
 -1      1862 6.39706E+01 6.22643E+00 0.00000E+00
 -1      1863 6.25000E+01 6.22642E+00 0.00000E+00
 -1      1864 6.10695E+01 6.24955E+00 0.00000E+00
 -1      1865 6.32353E+01 4.99999E+00 0.00000E+00
 -1      1866 8.75000E+01 3.77357E+00 0.00000E+00
 -1      1867 8.89706E+01 3.77357E+00 0.00000E+00
 -1      1868 8.45588E+01 3.77357E+00 0.00000E+00
 -1      1869 8.60294E+01 3.77357E+00 0.00000E+00
 -1      1870 8.67647E+01 5.00000E+00 0.00000E+00
 -1      1871 9.48437E+01 6.19782E+00 0.00000E+00
 -1      1872 9.33106E+01 6.21928E+00 0.00000E+00
 -1      1873 9.59786E+01 6.21616E+00 0.00000E+00
 -1      1874 9.50966E+01 4.99013E+00 0.00000E+00
 -1      1875 9.67803E+01 6.83692E+00 0.00000E+00
 -1      1876 9.70332E+01 5.62924E+00 0.00000E+00
 -1      1877 5.07353E+01 6.22643E+00 0.00000E+00
 -1      1878 4.92647E+01 6.22643E+00 0.00000E+00
 -1      1879 4.77941E+01 6.22642E+00 0.00000E+00
 -1      1880 4.63260E+01 6.25227E+00 0.00000E+00
 -1      1881 4.85294E+01 4.99999E+00 0.00000E+00
 -1      1882 9.19145E+01 6.23224E+00 0.00000E+00
 -1      1883 9.04378E+01 6.22529E+00 0.00000E+00
 -1      1884 8.89706E+01 6.22643E+00 0.00000E+00
 -1      1885 8.75000E+01 6.22643E+00 0.00000E+00
 -1      1886 8.97025E+01 4.99885E+00 0.00000E+00
 -1      1887 5.36765E+01 6.22643E+00 0.00000E+00
 -1      1888 5.22059E+01 6.22643E+00 0.00000E+00
 -1      1889 5.65776E+01 6.24955E+00 0.00000E+00
 -1      1890 5.51471E+01 6.22642E+00 0.00000E+00
 -1      1891 5.44118E+01 4.99999E+00 0.00000E+00
 -1      1892 3.45498E+01 3.76972E+00 0.00000E+00
 -1      1893 3.60271E+01 3.78143E+00 0.00000E+00
 -1      1894 3.75030E+01 3.78029E+00 0.00000E+00
 -1      1895 3.89814E+01 3.76794E+00 0.00000E+00
 -1      1896 3.67654E+01 5.01459E+00 0.00000E+00
 -1      1897 2.42638E+01 6.25431E+00 0.00000E+00
 -1      1898 2.27866E+01 6.25517E+00 0.00000E+00
 -1      1899 2.72027E+01 6.25823E+00 0.00000E+00
 -1      1900 2.57346E+01 6.25197E+00 0.00000E+00
 -1      1901 2.49984E+01 5.00658E+00 0.00000E+00
 -1      1902 3.89784E+01 6.25285E+00 0.00000E+00
 -1      1903 3.75030E+01 6.25543E+00 0.00000E+00
 -1      1904 4.04516E+01 6.25684E+00 0.00000E+00
 -1      1905 3.97146E+01 5.01744E+00 0.00000E+00
 -1      1906 4.19220E+01 6.26451E+00 0.00000E+00
 -1      1907 2.91545E+00 4.41216E+00 0.00000E+00
 -1      1908 3.17614E+00 3.19522E+00 0.00000E+00
 -1      1909 4.01920E+00 3.78992E+00 0.00000E+00
 -1      1910 9.70776E+01 4.41489E+00 0.00000E+00
 -1      1911 9.68176E+01 3.19836E+00 0.00000E+00
 -1      1912 9.59715E+01 3.79194E+00 0.00000E+00
 -1      1913 8.01471E+01 6.22643E+00 0.00000E+00
 -1      1914 7.86765E+01 6.22643E+00 0.00000E+00
 -1      1915 7.72059E+01 6.22643E+00 0.00000E+00
 -1      1916 7.57353E+01 6.22643E+00 0.00000E+00
 -1      1917 7.27941E+01 3.77357E+00 0.00000E+00
 -1      1918 7.42647E+01 3.77357E+00 0.00000E+00
 -1      1919 6.98529E+01 3.77357E+00 0.00000E+00
 -1      1920 7.13235E+01 3.77357E+00 0.00000E+00
 -1      1921 1.69118E+01 3.77356E+00 0.00000E+00
 -1      1922 1.83824E+01 3.76439E+00 0.00000E+00
 -1      1923 1.39699E+01 3.76433E+00 0.00000E+00
 -1      1924 1.54410E+01 3.77360E+00 0.00000E+00
 -1      1925 9.54081E+00 6.23937E+00 0.00000E+00
 -1      1926 8.05881E+00 6.23415E+00 0.00000E+00
 -1      1927 1.24949E+01 6.23565E+00 0.00000E+00
 -1      1928 1.10159E+01 6.24333E+00 0.00000E+00
 -1      1929 7.40636E+00 4.97986E+00 0.00000E+00
 -1      1930 6.68288E+00 3.72840E+00 0.00000E+00
 -1      1931 5.14329E+00 3.77057E+00 0.00000E+00
 -1      1932 6.10294E+01 3.76439E+00 0.00000E+00
 -1      1933 6.25000E+01 3.77356E+00 0.00000E+00
 -1      1934 6.02941E+01 5.00486E+00 0.00000E+00
 -1      1935 5.80482E+01 6.25442E+00 0.00000E+00
 -1      1936 5.95989E+01 6.25442E+00 0.00000E+00
 -1      1937 8.16176E+01 3.77357E+00 0.00000E+00
 -1      1938 8.30882E+01 3.77357E+00 0.00000E+00
 -1      1939 8.08824E+01 5.00000E+00 0.00000E+00
 -1      1940 6.83824E+01 6.22643E+00 0.00000E+00
 -1      1941 6.69118E+01 6.22643E+00 0.00000E+00
 -1      1942 6.91176E+01 5.00000E+00 0.00000E+00
 -1      1943 4.63246E+01 3.76506E+00 0.00000E+00
 -1      1944 4.77941E+01 3.77356E+00 0.00000E+00
 -1      1945 4.56029E+01 5.01364E+00 0.00000E+00
 -1      1946 4.34016E+01 6.26745E+00 0.00000E+00
 -1      1947 4.48700E+01 6.26593E+00 0.00000E+00
 -1      1948 3.16042E+01 3.77666E+00 0.00000E+00
 -1      1949 3.30759E+01 3.77206E+00 0.00000E+00
 -1      1950 3.08621E+01 5.02342E+00 0.00000E+00
 -1      1951 2.86594E+01 6.26932E+00 0.00000E+00
 -1      1952 3.01278E+01 6.26749E+00 0.00000E+00
 -1      1953 1.91176E+01 5.00486E+00 0.00000E+00
 -1      1954 2.13169E+01 6.25558E+00 0.00000E+00
 -1      1955 1.98407E+01 6.25260E+00 0.00000E+00
 -1      1956 1.32308E+01 4.99978E+00 0.00000E+00
 -1      1957 7.50000E+01 5.00000E+00 0.00000E+00
 -1      1958 6.61765E+01 2.54713E+00 1.00000E+01
 -1      1959 7.79412E+01 2.54713E+00 1.00000E+01
 -1      1960 8.38235E+01 7.45287E+00 1.00000E+01
 -1      1961 9.26167E+01 2.49818E+00 1.00000E+01
 -1      1962 5.73529E+01 2.53142E+00 1.00000E+01
 -1      1963 7.20588E+01 7.45287E+00 1.00000E+01
 -1      1964 5.14706E+01 2.54713E+00 1.00000E+01
 -1      1965 1.61765E+01 7.45287E+00 1.00000E+01
 -1      1966 2.20588E+01 2.54713E+00 1.00000E+01
 -1      1967 1.02820E+01 2.51769E+00 1.00000E+01
 -1      1968 3.38235E+01 7.45287E+00 1.00000E+01
 -1      1969 4.26337E+01 7.46057E+00 1.00000E+01
 -1      1970 2.79412E+01 7.45287E+00 1.00000E+01
 -1      1971 4.26854E+00 7.42569E+00 1.00000E+01
 -1      1972 6.32353E+01 7.45287E+00 1.00000E+01
 -1      1973 8.67647E+01 2.54713E+00 1.00000E+01
 -1      1974 9.57256E+01 7.42384E+00 1.00000E+01
 -1      1975 4.85294E+01 7.45287E+00 1.00000E+01
 -1      1976 8.97059E+01 7.45287E+00 1.00000E+01
 -1      1977 5.44118E+01 7.45287E+00 1.00000E+01
 -1      1978 3.67647E+01 2.54713E+00 1.00000E+01
 -1      1979 4.55787E+01 2.50775E+00 1.00000E+01
 -1      1980 3.08824E+01 2.54713E+00 1.00000E+01
 -1      1981 2.07239E+00 3.81746E+00 1.00000E+01
 -1      1982 9.79237E+01 3.82131E+00 1.00000E+01
 -1      1983 7.79412E+01 7.45287E+00 1.00000E+01
 -1      1984 7.20588E+01 2.54713E+00 1.00000E+01
 -1      1985 2.20588E+01 7.45287E+00 1.00000E+01
 -1      1986 1.61765E+01 2.54713E+00 1.00000E+01
 -1      1987 1.02756E+01 7.48718E+00 1.00000E+01
 -1      1988 7.31158E+00 7.47675E+00 1.00000E+01
 -1      1989 6.00669E+00 4.96818E+00 1.00000E+01
 -1      1990 9.26593E+01 7.46678E+00 1.00000E+01
 -1      1991 6.32353E+01 2.54713E+00 1.00000E+01
 -1      1992 6.02941E+01 2.52880E+00 1.00000E+01
 -1      1993 5.88235E+01 5.00974E+00 1.00000E+01
 -1      1994 8.08824E+01 2.54713E+00 1.00000E+01
 -1      1995 4.85286E+01 2.52775E+00 1.00000E+01
 -1      1996 6.91176E+01 7.45287E+00 1.00000E+01
 -1      1997 8.67647E+01 7.45287E+00 1.00000E+01
 -1      1998 8.08824E+01 7.45287E+00 1.00000E+01
 -1      1999 3.38235E+01 2.54713E+00 1.00000E+01
 -1      2000 3.67647E+01 7.45287E+00 1.00000E+01
 -1      2001 3.97037E+01 7.46986E+00 1.00000E+01
 -1      2002 4.11472E+01 4.97270E+00 1.00000E+01
 -1      2003 2.50000E+01 2.54713E+00 1.00000E+01
 -1      2004 2.79412E+01 2.54713E+00 1.00000E+01
 -1      2005 8.97059E+01 2.54713E+00 1.00000E+01
 -1      2006 4.55727E+01 7.47757E+00 1.00000E+01
 -1      2007 2.50000E+01 7.45287E+00 1.00000E+01
 -1      2008 5.14706E+01 7.45287E+00 1.00000E+01
 -1      2009 1.91176E+01 2.54713E+00 1.00000E+01
 -1      2010 1.32337E+01 7.47182E+00 1.00000E+01
 -1      2011 1.32343E+01 2.52860E+00 1.00000E+01
 -1      2012 1.91176E+01 7.45287E+00 1.00000E+01
 -1      2013 7.50000E+01 2.54713E+00 1.00000E+01
 -1      2014 3.08824E+01 7.45287E+00 1.00000E+01
 -1      2015 6.91176E+01 2.54713E+00 1.00000E+01
 -1      2016 5.44118E+01 2.53827E+00 1.00000E+01
 -1      2017 8.38235E+01 2.54713E+00 1.00000E+01
 -1      2018 7.50000E+01 7.45287E+00 1.00000E+01
 -1      2019 6.61765E+01 7.45287E+00 1.00000E+01
 -1      2020 8.80603E+00 4.99155E+00 1.00000E+01
 -1      2021 7.35907E+00 2.48863E+00 1.00000E+01
 -1      2022 2.16506E+00 6.25000E+00 1.00000E+01
 -1      2023 5.72728E+01 7.49911E+00 1.00000E+01
 -1      2024 6.03742E+01 7.49911E+00 1.00000E+01
 -1      2025 4.41064E+01 4.97857E+00 1.00000E+01
 -1      2026 3.97010E+01 2.49545E+00 1.00000E+01
 -1      2027 9.39618E+01 4.97179E+00 1.00000E+01
 -1      2028 9.11697E+01 4.99771E+00 1.00000E+01
 -1      2029 7.64706E+01 5.00000E+00 1.00000E+01
 -1      2030 7.35294E+01 5.00000E+00 1.00000E+01
 -1      2031 7.05882E+01 5.00000E+00 1.00000E+01
 -1      2032 8.82353E+01 5.00000E+00 1.00000E+01
 -1      2033 8.23529E+01 5.00000E+00 1.00000E+01
 -1      2034 5.29412E+01 5.00000E+00 1.00000E+01
 -1      2035 6.47059E+01 5.00000E+00 1.00000E+01
 -1      2036 4.70526E+01 4.99075E+00 1.00000E+01
 -1      2037 2.05882E+01 5.00000E+00 1.00000E+01
 -1      2038 1.76471E+01 5.00000E+00 1.00000E+01
 -1      2039 1.47054E+01 5.00007E+00 1.00000E+01
 -1      2040 1.17562E+01 4.99949E+00 1.00000E+01
 -1      2041 7.94118E+01 5.00000E+00 1.00000E+01
 -1      2042 2.35294E+01 5.00000E+00 1.00000E+01
 -1      2043 6.76471E+01 5.00000E+00 1.00000E+01
 -1      2044 3.23529E+01 5.00000E+00 1.00000E+01
 -1      2045 2.94118E+01 5.00000E+00 1.00000E+01
 -1      2046 2.64706E+01 5.00000E+00 1.00000E+01
 -1      2047 8.52941E+01 5.00000E+00 1.00000E+01
 -1      2048 3.52941E+01 5.00000E+00 1.00000E+01
 -1      2049 5.00000E+01 5.00000E+00 1.00000E+01
 -1      2050 5.58824E+01 4.99998E+00 1.00000E+01
 -1      2051 6.17647E+01 4.99998E+00 1.00000E+01
 -1      2052 4.26379E+01 2.49241E+00 1.00000E+01
 -1      2053 3.82353E+01 5.00002E+00 1.00000E+01
 -1      2054 9.78349E+01 6.25000E+00 1.00000E+01
 -1      2055 4.27989E+00 2.57297E+00 1.00000E+01
 -1      2056 9.57116E+01 2.57540E+00 1.00000E+01
 -1      2057 3.75851E+00 5.00686E+00 1.00000E+01
 -1      2058 1.87496E+00 8.23514E+00 1.00000E+01
 -1      2059 1.85869E+00 1.77809E+00 1.00000E+01
 -1      2060 9.81239E+01 8.23477E+00 1.00000E+01
 -1      2061 9.81388E+01 1.77934E+00 1.00000E+01
 -1      2062 9.62315E+01 5.00847E+00 1.00000E+01
 -1      2063 9.29345E-01 8.89044E-01 1.00000E+01
 -1      2064 9.29345E-01 2.13904E+00 1.00000E+01
 -1      2065 2.39993E+00 8.89044E-01 1.00000E+01
 -1      2066 9.37478E-01 7.86757E+00 1.00000E+01
 -1      2067 9.37478E-01 9.11757E+00 1.00000E+01
 -1      2068 2.40807E+00 9.11757E+00 1.00000E+01
 -1      2069 9.90694E+01 2.13967E+00 1.00000E+01
 -1      2070 9.90694E+01 8.89672E-01 1.00000E+01
 -1      2071 9.75988E+01 8.89672E-01 1.00000E+01
 -1      2072 9.90619E+01 9.11738E+00 1.00000E+01
 -1      2073 9.90619E+01 7.86738E+00 1.00000E+01
 -1      2074 9.75914E+01 9.11738E+00 1.00000E+01
 -1      2075 1.03619E+00 3.15873E+00 1.00000E+01
 -1      2076 1.03619E+00 4.40873E+00 1.00000E+01
 -1      2077 1.96554E+00 2.79778E+00 1.00000E+01
 -1      2078 1.08253E+00 5.62500E+00 1.00000E+01
 -1      2079 1.08253E+00 6.87500E+00 1.00000E+01
 -1      2080 2.11873E+00 5.03373E+00 1.00000E+01
 -1      2081 2.02001E+00 7.24257E+00 1.00000E+01
 -1      2082 9.89619E+01 4.41066E+00 1.00000E+01
 -1      2083 9.89619E+01 3.16066E+00 1.00000E+01
 -1      2084 9.80313E+01 2.80033E+00 1.00000E+01
 -1      2085 9.89175E+01 6.87500E+00 1.00000E+01
 -1      2086 9.89175E+01 5.62500E+00 1.00000E+01
 -1      2087 9.78793E+01 5.03566E+00 1.00000E+01
 -1      2088 9.79794E+01 7.24238E+00 1.00000E+01
 -1      2089 5.08112E+00 1.28649E+00 1.00000E+01
 -1      2090 3.61053E+00 1.28649E+00 1.00000E+01
 -1      2091 3.06929E+00 2.17553E+00 1.00000E+01
 -1      2092 8.09130E+00 1.24431E+00 1.00000E+01
 -1      2093 6.62071E+00 1.24431E+00 1.00000E+01
 -1      2094 5.81948E+00 2.53080E+00 1.00000E+01
 -1      2095 1.10234E+01 1.25885E+00 1.00000E+01
 -1      2096 9.55278E+00 1.25885E+00 1.00000E+01
 -1      2097 8.82055E+00 2.50316E+00 1.00000E+01
 -1      2098 1.39701E+01 1.26430E+00 1.00000E+01
 -1      2099 1.24995E+01 1.26430E+00 1.00000E+01
 -1      2100 1.17581E+01 2.52315E+00 1.00000E+01
 -1      2101 1.69118E+01 1.27357E+00 1.00000E+01
 -1      2102 1.54412E+01 1.27357E+00 1.00000E+01
 -1      2103 1.47054E+01 2.53787E+00 1.00000E+01
 -1      2104 1.98529E+01 1.27357E+00 1.00000E+01
 -1      2105 1.83824E+01 1.27357E+00 1.00000E+01
 -1      2106 1.76471E+01 2.54713E+00 1.00000E+01
 -1      2107 2.27941E+01 1.27357E+00 1.00000E+01
 -1      2108 2.13235E+01 1.27357E+00 1.00000E+01
 -1      2109 2.05882E+01 2.54713E+00 1.00000E+01
 -1      2110 2.57353E+01 1.27357E+00 1.00000E+01
 -1      2111 2.42647E+01 1.27357E+00 1.00000E+01
 -1      2112 2.35294E+01 2.54713E+00 1.00000E+01
 -1      2113 2.86765E+01 1.27357E+00 1.00000E+01
 -1      2114 2.72059E+01 1.27357E+00 1.00000E+01
 -1      2115 2.64706E+01 2.54713E+00 1.00000E+01
 -1      2116 3.16176E+01 1.27357E+00 1.00000E+01
 -1      2117 3.01471E+01 1.27357E+00 1.00000E+01
 -1      2118 2.94118E+01 2.54713E+00 1.00000E+01
 -1      2119 3.45588E+01 1.27357E+00 1.00000E+01
 -1      2120 3.30882E+01 1.27357E+00 1.00000E+01
 -1      2121 3.23529E+01 2.54713E+00 1.00000E+01
 -1      2122 3.75000E+01 1.27357E+00 1.00000E+01
 -1      2123 3.60294E+01 1.27357E+00 1.00000E+01
 -1      2124 3.52941E+01 2.54713E+00 1.00000E+01
 -1      2125 4.04387E+01 1.24772E+00 1.00000E+01
 -1      2126 3.89681E+01 1.24772E+00 1.00000E+01
 -1      2127 3.82329E+01 2.52129E+00 1.00000E+01
 -1      2128 4.33778E+01 1.24621E+00 1.00000E+01
 -1      2129 4.19072E+01 1.24621E+00 1.00000E+01
 -1      2130 4.11694E+01 2.49393E+00 1.00000E+01
 -1      2131 4.63188E+01 1.25387E+00 1.00000E+01
 -1      2132 4.48482E+01 1.25387E+00 1.00000E+01
 -1      2133 4.41083E+01 2.50008E+00 1.00000E+01
 -1      2134 4.92643E+01 1.26388E+00 1.00000E+01
 -1      2135 4.77937E+01 1.26388E+00 1.00000E+01
 -1      2136 4.70536E+01 2.51775E+00 1.00000E+01
 -1      2137 5.22059E+01 1.27357E+00 1.00000E+01
 -1      2138 5.07353E+01 1.27357E+00 1.00000E+01
 -1      2139 4.99996E+01 2.53744E+00 1.00000E+01
 -1      2140 5.51471E+01 1.26914E+00 1.00000E+01
 -1      2141 5.36765E+01 1.26914E+00 1.00000E+01
 -1      2142 5.29412E+01 2.54270E+00 1.00000E+01
 -1      2143 5.80882E+01 1.26571E+00 1.00000E+01
 -1      2144 5.66176E+01 1.26571E+00 1.00000E+01
 -1      2145 5.58824E+01 2.53485E+00 1.00000E+01
 -1      2146 6.10294E+01 1.26440E+00 1.00000E+01
 -1      2147 5.95588E+01 1.26440E+00 1.00000E+01
 -1      2148 5.88235E+01 2.53011E+00 1.00000E+01
 -1      2149 6.39706E+01 1.27357E+00 1.00000E+01
 -1      2150 6.25000E+01 1.27357E+00 1.00000E+01
 -1      2151 6.17647E+01 2.53797E+00 1.00000E+01
 -1      2152 6.69118E+01 1.27357E+00 1.00000E+01
 -1      2153 6.54412E+01 1.27357E+00 1.00000E+01
 -1      2154 6.47059E+01 2.54713E+00 1.00000E+01
 -1      2155 6.98529E+01 1.27357E+00 1.00000E+01
 -1      2156 6.83824E+01 1.27357E+00 1.00000E+01
 -1      2157 6.76471E+01 2.54713E+00 1.00000E+01
 -1      2158 7.27941E+01 1.27357E+00 1.00000E+01
 -1      2159 7.13235E+01 1.27357E+00 1.00000E+01
 -1      2160 7.05882E+01 2.54713E+00 1.00000E+01
 -1      2161 7.57353E+01 1.27357E+00 1.00000E+01
 -1      2162 7.42647E+01 1.27357E+00 1.00000E+01
 -1      2163 7.35294E+01 2.54713E+00 1.00000E+01
 -1      2164 7.86765E+01 1.27357E+00 1.00000E+01
 -1      2165 7.72059E+01 1.27357E+00 1.00000E+01
 -1      2166 7.64706E+01 2.54713E+00 1.00000E+01
 -1      2167 8.16176E+01 1.27357E+00 1.00000E+01
 -1      2168 8.01471E+01 1.27357E+00 1.00000E+01
 -1      2169 7.94118E+01 2.54713E+00 1.00000E+01
 -1      2170 8.45588E+01 1.27357E+00 1.00000E+01
 -1      2171 8.30882E+01 1.27357E+00 1.00000E+01
 -1      2172 8.23529E+01 2.54713E+00 1.00000E+01
 -1      2173 8.75000E+01 1.27357E+00 1.00000E+01
 -1      2174 8.60294E+01 1.27357E+00 1.00000E+01
 -1      2175 8.52941E+01 2.54713E+00 1.00000E+01
 -1      2176 9.04412E+01 1.27357E+00 1.00000E+01
 -1      2177 8.89706E+01 1.27357E+00 1.00000E+01
 -1      2178 8.82353E+01 2.54713E+00 1.00000E+01
 -1      2179 9.33672E+01 1.24909E+00 1.00000E+01
 -1      2180 9.18966E+01 1.24909E+00 1.00000E+01
 -1      2181 9.11613E+01 2.52266E+00 1.00000E+01
 -1      2182 9.63852E+01 1.28770E+00 1.00000E+01
 -1      2183 9.49146E+01 1.28770E+00 1.00000E+01
 -1      2184 9.41641E+01 2.53679E+00 1.00000E+01
 -1      2185 9.69252E+01 2.17737E+00 1.00000E+01
 -1      2186 3.60486E+00 8.71284E+00 1.00000E+01
 -1      2187 5.07545E+00 8.71284E+00 1.00000E+01
 -1      2188 3.07175E+00 7.83041E+00 1.00000E+01
 -1      2189 6.59697E+00 8.73837E+00 1.00000E+01
 -1      2190 8.06756E+00 8.73837E+00 1.00000E+01
 -1      2191 5.79006E+00 7.45122E+00 1.00000E+01
 -1      2192 9.54956E+00 8.74359E+00 1.00000E+01
 -1      2193 1.10201E+01 8.74359E+00 1.00000E+01
 -1      2194 8.79358E+00 7.48196E+00 1.00000E+01
 -1      2195 1.24992E+01 8.73591E+00 1.00000E+01
 -1      2196 1.39698E+01 8.73591E+00 1.00000E+01
 -1      2197 1.17547E+01 7.47950E+00 1.00000E+01
 -1      2198 1.54412E+01 8.72643E+00 1.00000E+01
 -1      2199 1.69118E+01 8.72643E+00 1.00000E+01
 -1      2200 1.47051E+01 7.46234E+00 1.00000E+01
 -1      2201 1.83824E+01 8.72643E+00 1.00000E+01
 -1      2202 1.98529E+01 8.72643E+00 1.00000E+01
 -1      2203 1.76471E+01 7.45287E+00 1.00000E+01
 -1      2204 2.13235E+01 8.72643E+00 1.00000E+01
 -1      2205 2.27941E+01 8.72643E+00 1.00000E+01
 -1      2206 2.05882E+01 7.45287E+00 1.00000E+01
 -1      2207 2.42647E+01 8.72643E+00 1.00000E+01
 -1      2208 2.57353E+01 8.72643E+00 1.00000E+01
 -1      2209 2.35294E+01 7.45287E+00 1.00000E+01
 -1      2210 2.72059E+01 8.72643E+00 1.00000E+01
 -1      2211 2.86765E+01 8.72643E+00 1.00000E+01
 -1      2212 2.64706E+01 7.45287E+00 1.00000E+01
 -1      2213 3.01471E+01 8.72643E+00 1.00000E+01
 -1      2214 3.16176E+01 8.72643E+00 1.00000E+01
 -1      2215 2.94118E+01 7.45287E+00 1.00000E+01
 -1      2216 3.30882E+01 8.72643E+00 1.00000E+01
 -1      2217 3.45588E+01 8.72643E+00 1.00000E+01
 -1      2218 3.23529E+01 7.45287E+00 1.00000E+01
 -1      2219 3.60294E+01 8.72643E+00 1.00000E+01
 -1      2220 3.75000E+01 8.72643E+00 1.00000E+01
 -1      2221 3.52941E+01 7.45287E+00 1.00000E+01
 -1      2222 3.89695E+01 8.73493E+00 1.00000E+01
 -1      2223 4.04401E+01 8.73493E+00 1.00000E+01
 -1      2224 3.82342E+01 7.46137E+00 1.00000E+01
 -1      2225 4.19051E+01 8.73029E+00 1.00000E+01
 -1      2226 4.33757E+01 8.73029E+00 1.00000E+01
 -1      2227 4.11687E+01 7.46522E+00 1.00000E+01
 -1      2228 4.48452E+01 8.73878E+00 1.00000E+01
 -1      2229 4.63157E+01 8.73878E+00 1.00000E+01
 -1      2230 4.41032E+01 7.46907E+00 1.00000E+01
 -1      2231 4.77941E+01 8.72643E+00 1.00000E+01
 -1      2232 4.92647E+01 8.72643E+00 1.00000E+01
 -1      2233 4.70510E+01 7.46522E+00 1.00000E+01
 -1      2234 5.07353E+01 8.72643E+00 1.00000E+01
 -1      2235 5.22059E+01 8.72643E+00 1.00000E+01
 -1      2236 5.00000E+01 7.45287E+00 1.00000E+01
 -1      2237 5.36765E+01 8.72643E+00 1.00000E+01
 -1      2238 5.51471E+01 8.72643E+00 1.00000E+01
 -1      2239 5.29412E+01 7.45287E+00 1.00000E+01
 -1      2240 5.65776E+01 8.74956E+00 1.00000E+01
 -1      2241 5.80482E+01 8.74956E+00 1.00000E+01
 -1      2242 5.58423E+01 7.47599E+00 1.00000E+01
 -1      2243 5.95989E+01 8.74956E+00 1.00000E+01
 -1      2244 6.10695E+01 8.74956E+00 1.00000E+01
 -1      2245 5.88235E+01 7.49911E+00 1.00000E+01
 -1      2246 6.25000E+01 8.72643E+00 1.00000E+01
 -1      2247 6.39706E+01 8.72643E+00 1.00000E+01
 -1      2248 6.18048E+01 7.47599E+00 1.00000E+01
 -1      2249 6.54412E+01 8.72643E+00 1.00000E+01
 -1      2250 6.69118E+01 8.72643E+00 1.00000E+01
 -1      2251 6.47059E+01 7.45287E+00 1.00000E+01
 -1      2252 6.83824E+01 8.72643E+00 1.00000E+01
 -1      2253 6.98529E+01 8.72643E+00 1.00000E+01
 -1      2254 6.76471E+01 7.45287E+00 1.00000E+01
 -1      2255 7.13235E+01 8.72643E+00 1.00000E+01
 -1      2256 7.27941E+01 8.72643E+00 1.00000E+01
 -1      2257 7.05882E+01 7.45287E+00 1.00000E+01
 -1      2258 7.42647E+01 8.72643E+00 1.00000E+01
 -1      2259 7.57353E+01 8.72643E+00 1.00000E+01
 -1      2260 7.35294E+01 7.45287E+00 1.00000E+01
 -1      2261 7.72059E+01 8.72643E+00 1.00000E+01
 -1      2262 7.86765E+01 8.72643E+00 1.00000E+01
 -1      2263 7.64706E+01 7.45287E+00 1.00000E+01
 -1      2264 8.01471E+01 8.72643E+00 1.00000E+01
 -1      2265 8.16176E+01 8.72643E+00 1.00000E+01
 -1      2266 7.94118E+01 7.45287E+00 1.00000E+01
 -1      2267 8.30882E+01 8.72643E+00 1.00000E+01
 -1      2268 8.45588E+01 8.72643E+00 1.00000E+01
 -1      2269 8.23529E+01 7.45287E+00 1.00000E+01
 -1      2270 8.60294E+01 8.72643E+00 1.00000E+01
 -1      2271 8.75000E+01 8.72643E+00 1.00000E+01
 -1      2272 8.52941E+01 7.45287E+00 1.00000E+01
 -1      2273 8.89706E+01 8.72643E+00 1.00000E+01
 -1      2274 9.04412E+01 8.72643E+00 1.00000E+01
 -1      2275 8.82353E+01 7.45287E+00 1.00000E+01
 -1      2276 9.19179E+01 8.73339E+00 1.00000E+01
 -1      2277 9.33885E+01 8.73339E+00 1.00000E+01
 -1      2278 9.11826E+01 7.45982E+00 1.00000E+01
 -1      2279 9.49216E+01 8.71192E+00 1.00000E+01
 -1      2280 9.63922E+01 8.71192E+00 1.00000E+01
 -1      2281 9.41925E+01 7.44531E+00 1.00000E+01
 -1      2282 9.69248E+01 7.82931E+00 1.00000E+01
 -1      2283 6.54412E+01 3.77357E+00 1.00000E+01
 -1      2284 6.39706E+01 3.77357E+00 1.00000E+01
 -1      2285 6.83824E+01 3.77357E+00 1.00000E+01
 -1      2286 6.69118E+01 3.77357E+00 1.00000E+01
 -1      2287 6.61765E+01 5.00000E+00 1.00000E+01
 -1      2288 8.01471E+01 3.77357E+00 1.00000E+01
 -1      2289 7.86765E+01 3.77357E+00 1.00000E+01
 -1      2290 7.72059E+01 3.77357E+00 1.00000E+01
 -1      2291 7.57353E+01 3.77357E+00 1.00000E+01
 -1      2292 7.79412E+01 5.00000E+00 1.00000E+01
 -1      2293 8.45588E+01 6.22643E+00 1.00000E+01
 -1      2294 8.60294E+01 6.22643E+00 1.00000E+01
 -1      2295 8.16176E+01 6.22643E+00 1.00000E+01
 -1      2296 8.30882E+01 6.22643E+00 1.00000E+01
 -1      2297 8.38235E+01 5.00000E+00 1.00000E+01
 -1      2298 9.18932E+01 3.74794E+00 1.00000E+01
 -1      2299 9.04378E+01 3.77242E+00 1.00000E+01
 -1      2300 9.25657E+01 4.98475E+00 1.00000E+01
 -1      2301 9.32892E+01 3.73498E+00 1.00000E+01
 -1      2302 9.48367E+01 3.77360E+00 1.00000E+01
 -1      2303 5.95588E+01 3.76927E+00 1.00000E+01
 -1      2304 5.80882E+01 3.77058E+00 1.00000E+01
 -1      2305 5.73529E+01 5.00486E+00 1.00000E+01
 -1      2306 5.66176E+01 3.76570E+00 1.00000E+01
 -1      2307 5.51471E+01 3.76913E+00 1.00000E+01
 -1      2308 6.98529E+01 6.22643E+00 1.00000E+01
 -1      2309 7.13235E+01 6.22643E+00 1.00000E+01
 -1      2310 7.27941E+01 6.22643E+00 1.00000E+01
 -1      2311 7.42647E+01 6.22643E+00 1.00000E+01
 -1      2312 7.20588E+01 5.00000E+00 1.00000E+01
 -1      2313 5.07353E+01 3.77357E+00 1.00000E+01
 -1      2314 4.92643E+01 3.76388E+00 1.00000E+01
 -1      2315 5.36765E+01 3.76914E+00 1.00000E+01
 -1      2316 5.22059E+01 3.77357E+00 1.00000E+01
 -1      2317 5.14706E+01 5.00000E+00 1.00000E+01
 -1      2318 1.39696E+01 6.23594E+00 1.00000E+01
 -1      2319 1.54410E+01 6.22647E+00 1.00000E+01
 -1      2320 1.69118E+01 6.22643E+00 1.00000E+01
 -1      2321 1.83824E+01 6.22643E+00 1.00000E+01
 -1      2322 1.61763E+01 5.00003E+00 1.00000E+01
 -1      2323 2.42647E+01 3.77357E+00 1.00000E+01
 -1      2324 2.27941E+01 3.77357E+00 1.00000E+01
 -1      2325 2.13235E+01 3.77357E+00 1.00000E+01
 -1      2326 1.98529E+01 3.77357E+00 1.00000E+01
 -1      2327 2.20588E+01 5.00000E+00 1.00000E+01
 -1      2328 1.24952E+01 3.76404E+00 1.00000E+01
 -1      2329 1.10191E+01 3.75859E+00 1.00000E+01
 -1      2330 8.08255E+00 3.74009E+00 1.00000E+01
 -1      2331 9.54403E+00 3.75462E+00 1.00000E+01
 -1      2332 1.02811E+01 4.99552E+00 1.00000E+01
 -1      2333 3.45588E+01 6.22643E+00 1.00000E+01
 -1      2334 3.60294E+01 6.22643E+00 1.00000E+01
 -1      2335 3.16176E+01 6.22643E+00 1.00000E+01
 -1      2336 3.30882E+01 6.22643E+00 1.00000E+01
 -1      2337 3.38235E+01 5.00000E+00 1.00000E+01
 -1      2338 4.04254E+01 6.22128E+00 1.00000E+01
 -1      2339 4.18904E+01 6.21663E+00 1.00000E+01
 -1      2340 4.26268E+01 4.97563E+00 1.00000E+01
 -1      2341 4.33700E+01 6.21957E+00 1.00000E+01
 -1      2342 4.48395E+01 6.22807E+00 1.00000E+01
 -1      2343 2.57353E+01 6.22643E+00 1.00000E+01
 -1      2344 2.72059E+01 6.22643E+00 1.00000E+01
 -1      2345 2.86765E+01 6.22643E+00 1.00000E+01
 -1      2346 3.01471E+01 6.22643E+00 1.00000E+01
 -1      2347 2.79412E+01 5.00000E+00 1.00000E+01
 -1      2348 5.13762E+00 6.19693E+00 1.00000E+01
 -1      2349 6.65914E+00 6.22246E+00 1.00000E+01
 -1      2350 4.01353E+00 6.21627E+00 1.00000E+01
 -1      2351 4.88260E+00 4.98752E+00 1.00000E+01
 -1      2352 2.96179E+00 5.62843E+00 1.00000E+01
 -1      2353 3.21680E+00 6.83784E+00 1.00000E+01
 -1      2354 6.39706E+01 6.22643E+00 1.00000E+01
 -1      2355 6.54412E+01 6.22643E+00 1.00000E+01
 -1      2356 6.10695E+01 6.24955E+00 1.00000E+01
 -1      2357 6.25000E+01 6.22642E+00 1.00000E+01
 -1      2358 6.32353E+01 4.99999E+00 1.00000E+01
 -1      2359 8.89706E+01 3.77357E+00 1.00000E+01
 -1      2360 8.75000E+01 3.77357E+00 1.00000E+01
 -1      2361 8.60294E+01 3.77357E+00 1.00000E+01
 -1      2362 8.45588E+01 3.77357E+00 1.00000E+01
 -1      2363 8.67647E+01 5.00000E+00 1.00000E+01
 -1      2364 9.33106E+01 6.21928E+00 1.00000E+01
 -1      2365 9.48437E+01 6.19782E+00 1.00000E+01
 -1      2366 9.50966E+01 4.99013E+00 1.00000E+01
 -1      2367 9.59786E+01 6.21616E+00 1.00000E+01
 -1      2368 9.67803E+01 6.83692E+00 1.00000E+01
 -1      2369 9.70332E+01 5.62924E+00 1.00000E+01
 -1      2370 4.63126E+01 6.23416E+00 1.00000E+01
 -1      2371 4.77910E+01 6.22181E+00 1.00000E+01
 -1      2372 4.92647E+01 6.22643E+00 1.00000E+01
 -1      2373 5.07353E+01 6.22643E+00 1.00000E+01
 -1      2374 4.85263E+01 4.99538E+00 1.00000E+01
 -1      2375 9.04378E+01 6.22529E+00 1.00000E+01
 -1      2376 9.19145E+01 6.23224E+00 1.00000E+01
 -1      2377 8.75000E+01 6.22643E+00 1.00000E+01
 -1      2378 8.89706E+01 6.22643E+00 1.00000E+01
 -1      2379 8.97025E+01 4.99885E+00 1.00000E+01
 -1      2380 5.22059E+01 6.22643E+00 1.00000E+01
 -1      2381 5.36765E+01 6.22643E+00 1.00000E+01
 -1      2382 5.51471E+01 6.22642E+00 1.00000E+01
 -1      2383 5.65776E+01 6.24955E+00 1.00000E+01
 -1      2384 5.44118E+01 4.99999E+00 1.00000E+01
 -1      2385 3.60294E+01 3.77357E+00 1.00000E+01
 -1      2386 3.45588E+01 3.77357E+00 1.00000E+01
 -1      2387 3.89681E+01 3.74773E+00 1.00000E+01
 -1      2388 3.75000E+01 3.77358E+00 1.00000E+01
 -1      2389 3.67647E+01 5.00001E+00 1.00000E+01
 -1      2390 4.77906E+01 3.75925E+00 1.00000E+01
 -1      2391 4.63157E+01 3.74925E+00 1.00000E+01
 -1      2392 4.55795E+01 4.98466E+00 1.00000E+01
 -1      2393 4.48425E+01 3.74316E+00 1.00000E+01
 -1      2394 4.33721E+01 3.73549E+00 1.00000E+01
 -1      2395 3.30882E+01 3.77357E+00 1.00000E+01
 -1      2396 3.16176E+01 3.77357E+00 1.00000E+01
 -1      2397 3.01471E+01 3.77357E+00 1.00000E+01
 -1      2398 2.86765E+01 3.77357E+00 1.00000E+01
 -1      2399 3.08824E+01 5.00000E+00 1.00000E+01
 -1      2400 2.91545E+00 4.41216E+00 1.00000E+01
 -1      2401 4.01920E+00 3.78992E+00 1.00000E+01
 -1      2402 3.17614E+00 3.19522E+00 1.00000E+01
 -1      2403 9.70776E+01 4.41489E+00 1.00000E+01
 -1      2404 9.68176E+01 3.19836E+00 1.00000E+01
 -1      2405 9.59715E+01 3.79194E+00 1.00000E+01
 -1      2406 7.86765E+01 6.22643E+00 1.00000E+01
 -1      2407 8.01471E+01 6.22643E+00 1.00000E+01
 -1      2408 7.57353E+01 6.22643E+00 1.00000E+01
 -1      2409 7.72059E+01 6.22643E+00 1.00000E+01
 -1      2410 7.42647E+01 3.77357E+00 1.00000E+01
 -1      2411 7.27941E+01 3.77357E+00 1.00000E+01
 -1      2412 7.13235E+01 3.77357E+00 1.00000E+01
 -1      2413 6.98529E+01 3.77357E+00 1.00000E+01
 -1      2414 2.27941E+01 6.22643E+00 1.00000E+01
 -1      2415 2.42647E+01 6.22643E+00 1.00000E+01
 -1      2416 1.98529E+01 6.22643E+00 1.00000E+01
 -1      2417 2.13235E+01 6.22643E+00 1.00000E+01
 -1      2418 1.83824E+01 3.77357E+00 1.00000E+01
 -1      2419 1.69118E+01 3.77357E+00 1.00000E+01
 -1      2420 1.54410E+01 3.77360E+00 1.00000E+01
 -1      2421 1.39699E+01 3.76433E+00 1.00000E+01
 -1      2422 8.05881E+00 6.23415E+00 1.00000E+01
 -1      2423 9.54081E+00 6.23937E+00 1.00000E+01
 -1      2424 1.10159E+01 6.24333E+00 1.00000E+01
 -1      2425 1.24949E+01 6.23565E+00 1.00000E+01
 -1      2426 7.40636E+00 4.97986E+00 1.00000E+01
 -1      2427 6.68288E+00 3.72840E+00 1.00000E+01
 -1      2428 5.14329E+00 3.77057E+00 1.00000E+01
 -1      2429 6.25000E+01 3.77356E+00 1.00000E+01
 -1      2430 6.10294E+01 3.76439E+00 1.00000E+01
 -1      2431 6.02941E+01 5.00486E+00 1.00000E+01
 -1      2432 5.95989E+01 6.25442E+00 1.00000E+01
 -1      2433 5.80482E+01 6.25442E+00 1.00000E+01
 -1      2434 8.30882E+01 3.77357E+00 1.00000E+01
 -1      2435 8.16176E+01 3.77357E+00 1.00000E+01
 -1      2436 8.08824E+01 5.00000E+00 1.00000E+01
 -1      2437 6.69118E+01 6.22643E+00 1.00000E+01
 -1      2438 6.83824E+01 6.22643E+00 1.00000E+01
 -1      2439 6.91176E+01 5.00000E+00 1.00000E+01
 -1      2440 3.75000E+01 6.22644E+00 1.00000E+01
 -1      2441 3.89695E+01 6.23494E+00 1.00000E+01
 -1      2442 3.96912E+01 4.98636E+00 1.00000E+01
 -1      2443 4.18925E+01 3.73255E+00 1.00000E+01
 -1      2444 4.04241E+01 3.73407E+00 1.00000E+01
 -1      2445 2.72059E+01 3.77357E+00 1.00000E+01
 -1      2446 2.57353E+01 3.77357E+00 1.00000E+01
 -1      2447 2.50000E+01 5.00000E+00 1.00000E+01
 -1      2448 1.91176E+01 5.00000E+00 1.00000E+01
 -1      2449 1.32308E+01 4.99978E+00 1.00000E+01
 -1      2450 7.50000E+01 5.00000E+00 1.00000E+01
 -1      2451 4.79105E+00 5.18244E+00 5.18426E+00
 -1      2452 9.52101E+01 5.18358E+00 5.18296E+00
 -1      2453 8.97025E+01 5.00000E+00 5.00000E+00
 -1      2454 1.02811E+01 5.00000E+00 4.99492E+00
 -1      2455 2.50000E+01 4.99974E+00 4.99974E+00
 -1      2456 8.08824E+01 5.00000E+00 5.00000E+00
 -1      2457 7.50000E+01 5.00000E+00 5.00000E+00
 -1      2458 6.91176E+01 5.00000E+00 5.00000E+00
 -1      2459 6.32353E+01 5.00000E+00 5.00000E+00
 -1      2460 5.44118E+01 5.00000E+00 5.00000E+00
 -1      2461 3.67647E+01 5.00000E+00 5.00000E+00
 -1      2462 1.91176E+01 5.00000E+00 5.00000E+00
 -1      2463 4.85294E+01 5.00092E+00 5.00092E+00
 -1      2464 3.08824E+01 4.99837E+00 5.00163E+00
 -1      2465 4.26267E+01 5.00000E+00 5.00000E+00
 -1      2466 5.88235E+01 4.44637E+00 5.55472E+00
 -1      2467 8.52924E+01 4.44487E+00 5.55513E+00
 -1      2468 1.46991E+01 4.45330E+00 5.54761E+00
 -1      2469 9.68586E+01 3.13900E+00 3.10254E+00
 -1      2470 3.09889E+00 3.05820E+00 3.05792E+00
 -1      2471 9.69400E+01 3.03397E+00 6.96603E+00
 -1      2472 3.03047E+00 6.94754E+00 3.07241E+00
 -1      2473 2.79420E+01 6.49258E+00 3.48435E+00
 -1      2474 2.20587E+01 3.50140E+00 3.49547E+00
 -1      2475 7.79412E+01 6.50050E+00 3.49950E+00
 -1      2476 7.79412E+01 3.49950E+00 6.50050E+00
 -1      2477 6.61765E+01 6.50050E+00 6.50050E+00
 -1      2478 7.20588E+01 6.50050E+00 6.50050E+00
 -1      2479 7.20588E+01 3.49950E+00 3.49950E+00
 -1      2480 6.61765E+01 3.49950E+00 3.49950E+00
 -1      2481 2.20590E+01 6.50045E+00 6.50045E+00
 -1      2482 5.14701E+01 3.49969E+00 3.49969E+00
 -1      2483 4.55781E+01 6.49614E+00 3.49318E+00
 -1      2484 3.96957E+01 3.48878E+00 6.51122E+00
 -1      2485 5.14711E+01 6.50068E+00 6.50068E+00
 -1      2486 3.38235E+01 6.50050E+00 6.50050E+00
 -1      2487 2.79403E+01 3.49917E+00 6.50083E+00
 -1      2488 4.55781E+01 3.49839E+00 6.50161E+00
 -1      2489 3.38235E+01 3.50244E+00 3.49351E+00
 -1      2490 3.96957E+01 6.50381E+00 3.48748E+00
 -1      2491 3.06647E+00 3.05896E+00 6.97750E+00
 -1      2492 9.69547E+01 6.93831E+00 3.06169E+00
 -1      2493 8.70238E+01 6.60396E+00 3.39604E+00
 -1      2494 1.64427E+01 6.60911E+00 3.39616E+00
 -1      2495 7.42572E+00 3.47188E+00 3.45014E+00
 -1      2496 9.25646E+01 3.47035E+00 3.45838E+00
 -1      2497 2.97523E+00 7.02730E+00 7.02730E+00
 -1      2498 8.35271E+01 6.61749E+00 3.38251E+00
 -1      2499 1.29396E+01 6.61565E+00 3.38419E+00
 -1      2500 9.70212E+01 7.05844E+00 7.02275E+00
 -1      2501 5.70906E+01 6.60109E+00 3.39001E+00
 -1      2502 6.05649E+01 6.67514E+00 3.53086E+00
 -1      2503 7.63969E+00 6.61680E+00 6.62396E+00
 -1      2504 9.24292E+01 6.91557E+00 4.07827E+00
 -1      2505 9.24302E+01 4.05882E+00 6.91442E+00
 -1      2506 6.09587E+01 3.23888E+00 3.23384E+00
 -1      2507 5.66882E+01 3.23860E+00 3.23429E+00
 -1      2508 8.74276E+01 3.23687E+00 3.23687E+00
 -1      2509 8.74276E+01 6.76313E+00 6.76313E+00
 -1      2510 8.31573E+01 6.76343E+00 6.76343E+00
 -1      2511 8.31573E+01 3.23657E+00 3.23657E+00
 -1      2512 1.68408E+01 3.23402E+00 3.23893E+00
 -1      2513 1.25604E+01 3.23513E+00 3.23387E+00
 -1      2514 3.90069E+01 6.78375E+00 6.77471E+00
 -1      2515 6.54714E+01 3.22125E+00 6.77875E+00
 -1      2516 7.86463E+01 6.77875E+00 6.77875E+00
 -1      2517 7.86463E+01 3.22125E+00 3.22125E+00
 -1      2518 7.27639E+01 3.22125E+00 6.77875E+00
 -1      2519 7.27639E+01 6.77875E+00 3.22125E+00
 -1      2520 6.68816E+01 6.77875E+00 3.22125E+00
 -1      2521 2.27640E+01 3.22122E+00 6.77878E+00
 -1      2522 5.21757E+01 6.77878E+00 3.22122E+00
 -1      2523 2.72359E+01 6.77870E+00 6.77870E+00
 -1      2524 3.45286E+01 3.22125E+00 6.77875E+00
 -1      2525 2.27652E+01 6.78002E+00 3.22231E+00
 -1      2526 5.21757E+01 3.22122E+00 6.77878E+00
 -1      2527 3.90052E+01 3.21892E+00 3.22710E+00
 -1      2528 2.72242E+01 3.21782E+00 3.21363E+00
 -1      2529 3.45305E+01 6.78074E+00 3.22301E+00
 -1      2530 4.62941E+01 3.21570E+00 3.22216E+00
 -1      2531 4.62855E+01 6.78271E+00 6.77650E+00
 -1      2532 5.66925E+01 6.77589E+00 6.73112E+00
 -1      2533 1.68411E+01 6.76192E+00 6.76323E+00
 -1      2534 1.25545E+01 6.76060E+00 6.76810E+00
 -1      2535 7.99536E+00 3.26066E+00 6.77330E+00
 -1      2536 7.99869E+00 6.78216E+00 3.28364E+00
 -1      2537 6.14517E+01 3.04388E+00 6.95976E+00
 -1      2538 5.64178E+01 2.74063E+00 7.17463E+00
 -1      2539 8.79204E+01 3.04263E+00 6.95737E+00
 -1      2540 8.26643E+01 3.04204E+00 6.95796E+00
 -1      2541 6.11189E+01 6.83024E+00 6.81728E+00
 -1      2542 1.20719E+01 3.05759E+00 6.96311E+00
 -1      2543 1.73237E+01 3.05692E+00 6.95822E+00
 -1      2544 9.11363E+01 7.08019E+00 7.08019E+00
 -1      2545 3.15417E+01 7.07624E+00 2.91253E+00
 -1      2546 7.56607E+01 7.08085E+00 7.08085E+00
 -1      2547 6.84570E+01 2.91915E+00 7.08085E+00
 -1      2548 7.56607E+01 2.91915E+00 2.91915E+00
 -1      2549 6.38960E+01 7.08085E+00 2.91915E+00
 -1      2550 1.97769E+01 7.07742E+00 2.91080E+00
 -1      2551 3.02126E+01 2.91852E+00 2.92045E+00
 -1      2552 3.02215E+01 7.08085E+00 7.08085E+00
 -1      2553 3.15440E+01 2.91824E+00 7.08176E+00
 -1      2554 4.32966E+01 7.08491E+00 7.07849E+00
 -1      2555 4.33057E+01 2.91711E+00 2.92404E+00
 -1      2556 4.91891E+01 2.91809E+00 7.08191E+00
 -1      2557 4.91901E+01 7.08085E+00 2.91915E+00
 -1      2558 9.40816E+01 6.74307E+00 7.47119E+00
 -1      2559 6.98227E+01 7.12243E+00 2.87757E+00
 -1      2560 6.92306E+01 2.91915E+00 2.91915E+00
 -1      2561 6.90047E+01 7.08085E+00 7.08085E+00
 -1      2562 4.25309E+01 2.91609E+00 7.08391E+00
 -1      2563 4.26415E+01 6.25379E+00 2.50000E+00
 -1      2564 4.26302E+01 7.50000E+00 3.76971E+00
 -1      2565 4.26450E+01 8.75379E+00 1.26971E+00
 -1      2566 4.11760E+01 7.00570E+00 1.74374E+00
 -1      2567 4.11647E+01 8.25190E+00 3.01345E+00
 -1      2568 4.11612E+01 5.75190E+00 4.24374E+00
 -1      2569 4.41059E+01 8.24807E+00 3.01630E+00
 -1      2570 4.41171E+01 7.00186E+00 1.74659E+00
 -1      2571 4.41024E+01 5.74807E+00 4.24659E+00
 -1      2572 9.65450E+01 1.56950E+00 4.04703E+00
 -1      2573 9.54102E+01 1.56950E+00 4.06537E+00
 -1      2574 9.65858E+01 1.51699E+00 5.97878E+00
 -1      2575 9.54509E+01 1.51699E+00 5.99712E+00
 -1      2576 9.68993E+01 3.08649E+00 5.03428E+00
 -1      2577 9.54102E+01 4.05539E+00 1.55127E+00
 -1      2578 9.65450E+01 4.07373E+00 1.55127E+00
 -1      2579 9.65931E+01 5.97339E+00 1.53084E+00
 -1      2580 9.69066E+01 5.03866E+00 3.08211E+00
 -1      2581 9.54582E+01 5.95505E+00 1.53084E+00
 -1      2582 3.42870E+00 4.03253E+00 1.52896E+00
 -1      2583 3.94497E+00 4.12032E+00 4.12109E+00
 -1      2584 4.27478E+00 5.09465E+00 2.59213E+00
 -1      2585 3.39449E+00 5.97720E+00 1.53620E+00
 -1      2586 3.91076E+00 6.06499E+00 4.12833E+00
 -1      2587 3.06468E+00 5.00287E+00 3.06516E+00
 -1      2588 4.27880E+00 2.59122E+00 5.09797E+00
 -1      2589 3.43272E+00 1.52910E+00 4.03480E+00
 -1      2590 3.41651E+00 1.52948E+00 5.99459E+00
 -1      2591 3.08268E+00 3.05858E+00 5.01771E+00
 -1      2592 3.92876E+00 4.12070E+00 6.08088E+00
 -1      2593 8.08824E+01 8.72643E+00 1.27357E+00
 -1      2594 7.94118E+01 8.25025E+00 3.02332E+00
 -1      2595 7.94118E+01 6.97668E+00 1.74975E+00
 -1      2596 8.22047E+01 7.03518E+00 1.69126E+00
 -1      2597 8.07341E+01 6.55899E+00 3.44101E+00
 -1      2598 8.22047E+01 8.30874E+00 2.96482E+00
 -1      2599 7.94118E+01 5.75025E+00 4.24975E+00
 -1      2600 8.08824E+01 7.50000E+00 3.77357E+00
 -1      2601 8.22047E+01 5.80874E+00 4.19126E+00
 -1      2602 8.08824E+01 6.22643E+00 2.50000E+00
 -1      2603 5.41224E+00 2.59122E+00 5.08202E+00
 -1      2604 4.54995E+00 1.52948E+00 5.97864E+00
 -1      2605 5.39887E+00 5.07531E+00 2.59213E+00
 -1      2606 4.51858E+00 5.95786E+00 1.53620E+00
 -1      2607 8.83648E+01 8.30198E+00 2.97159E+00
 -1      2608 8.83648E+01 7.02841E+00 1.69802E+00
 -1      2609 8.97059E+01 8.72643E+00 1.27357E+00
 -1      2610 9.10675E+01 8.45779E+00 3.31270E+00
 -1      2611 9.10675E+01 7.18422E+00 2.03914E+00
 -1      2612 8.97265E+01 6.75976E+00 3.73716E+00
 -1      2613 8.83631E+01 5.80198E+00 4.19802E+00
 -1      2614 8.97042E+01 6.22643E+00 2.50000E+00
 -1      2615 9.10658E+01 5.95779E+00 4.53914E+00
 -1      2616 2.16761E+01 1.61061E+00 5.88939E+00
 -1      2617 2.09408E+01 4.11061E+00 5.88939E+00
 -1      2618 1.98529E+01 2.50000E+00 5.00000E+00
 -1      2619 1.89560E+01 1.52846E+00 5.97911E+00
 -1      2620 1.82207E+01 4.02846E+00 5.97911E+00
 -1      2621 2.00438E+01 3.13907E+00 6.86850E+00
 -1      2622 2.16761E+01 4.11061E+00 8.38939E+00
 -1      2623 1.98529E+01 5.00000E+00 7.50000E+00
 -1      2624 1.89560E+01 4.02846E+00 8.47911E+00
 -1      2625 2.09408E+01 1.61061E+00 7.11582E+00
 -1      2626 1.82207E+01 1.52846E+00 7.20554E+00
 -1      2627 2.09408E+01 2.88418E+00 8.38939E+00
 -1      2628 1.82207E+01 2.80203E+00 8.47911E+00
 -1      2629 4.56616E+00 1.52910E+00 4.01885E+00
 -1      2630 4.55279E+00 4.01319E+00 1.52896E+00
 -1      2631 8.16176E+01 7.50000E+00 5.00000E+00
 -1      2632 8.01471E+01 7.50000E+00 5.00000E+00
 -1      2633 8.16176E+01 5.00000E+00 2.50000E+00
 -1      2634 8.01471E+01 5.00000E+00 2.50000E+00
 -1      2635 9.04361E+01 4.99885E+00 2.50000E+00
 -1      2636 9.17994E+01 5.95664E+00 2.03914E+00
 -1      2637 8.89689E+01 5.00000E+00 2.50000E+00
 -1      2638 2.50000E+01 6.24972E+00 2.49987E+00
 -1      2639 2.57346E+01 5.00199E+00 2.49987E+00
 -1      2640 2.64710E+01 6.99614E+00 1.74218E+00
 -1      2641 2.72056E+01 5.74841E+00 1.74218E+00
 -1      2642 2.64710E+01 5.74616E+00 4.24204E+00
 -1      2643 2.46171E+01 5.89213E+00 1.61116E+00
 -1      2644 2.38826E+01 7.13986E+00 1.61116E+00
 -1      2645 2.38826E+01 5.88988E+00 4.11102E+00
 -1      2646 1.98529E+01 5.00487E+00 2.50000E+00
 -1      2647 1.91176E+01 3.76440E+00 2.50000E+00
 -1      2648 2.13235E+01 4.25557E+00 1.74773E+00
 -1      2649 2.05882E+01 3.01510E+00 1.74773E+00
 -1      2650 2.05882E+01 4.25070E+00 4.24773E+00
 -1      2651 2.50000E+01 3.76408E+00 2.49987E+00
 -1      2652 2.42638E+01 5.00433E+00 2.49987E+00
 -1      2653 2.35293E+01 3.01491E+00 1.74773E+00
 -1      2654 2.27932E+01 4.25516E+00 1.74773E+00
 -1      2655 2.35293E+01 4.25057E+00 4.24760E+00
 -1      2656 4.33868E+01 5.01365E+00 2.50000E+00
 -1      2657 4.19072E+01 5.01071E+00 2.50000E+00
 -1      2658 2.53536E+01 6.63630E+00 3.35333E+00
 -1      2659 3.82302E+01 5.75190E+00 4.24374E+00
 -1      2660 3.82302E+01 7.00061E+00 1.74374E+00
 -1      2661 3.67647E+01 6.24871E+00 2.50000E+00
 -1      2662 3.56476E+01 5.89037E+00 4.11151E+00
 -1      2663 3.56476E+01 7.13908E+00 1.61151E+00
 -1      2664 3.71131E+01 6.64227E+00 3.35525E+00
 -1      2665 2.53759E+01 4.11337E+00 1.60681E+00
 -1      2666 2.61121E+01 2.87312E+00 1.60681E+00
 -1      2667 2.61121E+01 4.10878E+00 4.10668E+00
 -1      2668 3.75030E+01 5.00672E+00 2.50000E+00
 -1      2669 3.63859E+01 5.89709E+00 1.61151E+00
 -1      2670 5.44118E+01 3.76914E+00 2.50000E+00
 -1      2671 5.36765E+01 5.00000E+00 2.50000E+00
 -1      2672 5.29409E+01 3.01898E+00 1.74984E+00
 -1      2673 5.22056E+01 4.24984E+00 1.74984E+00
 -1      2674 5.29409E+01 4.24984E+00 4.24984E+00
 -1      2675 1.91176E+01 2.50000E+00 3.76916E+00
 -1      2676 2.05881E+01 1.75070E+00 3.01689E+00
 -1      2677 2.13235E+01 1.75070E+00 4.24773E+00
 -1      2678 3.89685E+01 5.75863E+00 1.74374E+00
 -1      2679 2.46415E+01 3.35961E+00 3.35455E+00
 -1      2680 2.42647E+01 7.49987E+00 4.99987E+00
 -1      2681 2.50000E+01 7.49987E+00 6.22630E+00
 -1      2682 2.27942E+01 8.25022E+00 5.75022E+00
 -1      2683 2.35295E+01 8.25022E+00 6.97666E+00
 -1      2684 2.35295E+01 5.75009E+00 5.75009E+00
 -1      2685 2.50000E+01 6.22630E+00 7.49987E+00
 -1      2686 2.42647E+01 4.99987E+00 7.49987E+00
 -1      2687 2.35295E+01 6.97666E+00 8.25022E+00
 -1      2688 2.27942E+01 5.75022E+00 8.25022E+00
 -1      2689 2.57353E+01 7.49987E+00 4.99987E+00
 -1      2690 2.50000E+01 7.49987E+00 3.77343E+00
 -1      2691 2.64710E+01 8.24629E+00 3.01574E+00
 -1      2692 2.72063E+01 8.24629E+00 4.24218E+00
 -1      2693 7.50000E+01 6.22643E+00 2.50000E+00
 -1      2694 7.57353E+01 5.00000E+00 2.50000E+00
 -1      2695 7.72059E+01 5.75025E+00 1.74975E+00
 -1      2696 7.64706E+01 5.75025E+00 4.24975E+00
 -1      2697 7.64706E+01 6.97668E+00 1.74975E+00
 -1      2698 7.50000E+01 3.77357E+00 7.50000E+00
 -1      2699 7.57353E+01 5.00000E+00 7.50000E+00
 -1      2700 7.64706E+01 3.02332E+00 8.25025E+00
 -1      2701 7.72059E+01 4.24975E+00 8.25025E+00
 -1      2702 7.64706E+01 4.24975E+00 5.75025E+00
 -1      2703 7.86765E+01 8.25025E+00 4.24975E+00
 -1      2704 7.57353E+01 7.50000E+00 5.00000E+00
 -1      2705 7.50000E+01 7.50000E+00 3.77357E+00
 -1      2706 7.72059E+01 8.25025E+00 4.24975E+00
 -1      2707 7.64706E+01 8.25025E+00 3.02332E+00
 -1      2708 7.86765E+01 5.75025E+00 1.74975E+00
 -1      2709 7.57353E+01 2.50000E+00 5.00000E+00
 -1      2710 7.50000E+01 2.50000E+00 6.22643E+00
 -1      2711 7.64706E+01 1.74975E+00 6.97668E+00
 -1      2712 7.72059E+01 1.74975E+00 5.75025E+00
 -1      2713 6.32353E+01 2.50000E+00 3.77357E+00
 -1      2714 6.39706E+01 2.50000E+00 5.00000E+00
 -1      2715 6.54412E+01 1.74975E+00 4.24975E+00
 -1      2716 6.47059E+01 4.24975E+00 4.24975E+00
 -1      2717 6.47059E+01 1.74975E+00 3.02332E+00
 -1      2718 6.39706E+01 5.00000E+00 2.50000E+00
 -1      2719 6.32353E+01 3.77357E+00 2.50000E+00
 -1      2720 6.54412E+01 4.24975E+00 1.74975E+00
 -1      2721 6.47059E+01 3.02332E+00 1.74975E+00
 -1      2722 1.91176E+01 6.22643E+00 7.50000E+00
 -1      2723 2.05883E+01 6.97666E+00 8.25022E+00
 -1      2724 2.05883E+01 5.75022E+00 5.75022E+00
 -1      2725 2.13236E+01 5.75022E+00 8.25022E+00
 -1      2726 1.91176E+01 7.50000E+00 6.22643E+00
 -1      2727 1.98529E+01 7.50000E+00 5.00000E+00
 -1      2728 2.05883E+01 8.25022E+00 6.97666E+00
 -1      2729 2.13236E+01 8.25022E+00 5.75022E+00
 -1      2730 2.42647E+01 2.49987E+00 4.99987E+00
 -1      2731 2.50000E+01 2.49987E+00 3.77343E+00
 -1      2732 2.27941E+01 1.75070E+00 4.24773E+00
 -1      2733 2.35293E+01 1.75070E+00 3.02130E+00
 -1      2734 4.48625E+01 5.76172E+00 1.74659E+00
 -1      2735 5.36765E+01 2.50000E+00 5.00000E+00
 -1      2736 5.44118E+01 2.50000E+00 3.77357E+00
 -1      2737 5.22056E+01 1.74984E+00 4.24984E+00
 -1      2738 5.29409E+01 1.74984E+00 3.02341E+00
 -1      2739 5.36765E+01 7.50000E+00 5.00000E+00
 -1      2740 5.44118E+01 7.50000E+00 6.22643E+00
 -1      2741 5.22061E+01 8.25034E+00 5.75034E+00
 -1      2742 5.29414E+01 8.25034E+00 6.97678E+00
 -1      2743 5.29414E+01 5.75034E+00 5.75034E+00
 -1      2744 5.44118E+01 6.22643E+00 7.50000E+00
 -1      2745 5.36765E+01 5.00000E+00 7.50000E+00
 -1      2746 5.22061E+01 5.75034E+00 8.25034E+00
 -1      2747 5.29414E+01 6.97678E+00 8.25034E+00
 -1      2748 2.50000E+01 3.77343E+00 7.49987E+00
 -1      2749 2.57353E+01 4.99987E+00 7.49987E+00
 -1      2750 2.64702E+01 3.02315E+00 8.25041E+00
 -1      2751 2.72055E+01 4.24959E+00 8.25041E+00
 -1      2752 2.64702E+01 4.24945E+00 5.75028E+00
 -1      2753 3.60294E+01 7.50000E+00 5.00000E+00
 -1      2754 3.67647E+01 7.50000E+00 6.22643E+00
 -1      2755 3.45588E+01 8.25025E+00 5.75025E+00
 -1      2756 3.52941E+01 8.25025E+00 6.97668E+00
 -1      2757 3.52941E+01 5.75025E+00 5.75025E+00
 -1      2758 3.67647E+01 6.22643E+00 7.50000E+00
 -1      2759 3.60294E+01 5.00000E+00 7.50000E+00
 -1      2760 3.52941E+01 6.97668E+00 8.25025E+00
 -1      2761 3.45588E+01 5.75025E+00 8.25025E+00
 -1      2762 2.57353E+01 2.49987E+00 4.99987E+00
 -1      2763 2.50000E+01 2.49987E+00 6.22630E+00
 -1      2764 2.72055E+01 1.74959E+00 5.75041E+00
 -1      2765 2.64702E+01 1.74959E+00 6.97685E+00
 -1      2766 3.60294E+01 2.50000E+00 5.00000E+00
 -1      2767 3.67647E+01 2.50000E+00 3.77357E+00
 -1      2768 3.45588E+01 1.75122E+00 4.24676E+00
 -1      2769 3.52941E+01 1.75122E+00 3.02032E+00
 -1      2770 3.52941E+01 4.25122E+00 4.24676E+00
 -1      2771 4.92647E+01 5.00046E+00 2.50046E+00
 -1      2772 4.85294E+01 3.77403E+00 2.50046E+00
 -1      2773 4.99998E+01 3.02341E+00 1.74984E+00
 -1      2774 4.99998E+01 4.25030E+00 4.25030E+00
 -1      2775 5.07351E+01 4.24984E+00 1.74984E+00
 -1      2776 4.04417E+01 5.76262E+00 1.74374E+00
 -1      2777 3.75000E+01 2.50000E+00 4.99999E+00
 -1      2778 3.67647E+01 2.50000E+00 6.22643E+00
 -1      2779 3.82302E+01 1.74439E+00 6.98204E+00
 -1      2780 3.82302E+01 4.24439E+00 5.75561E+00
 -1      2781 3.89655E+01 1.74439E+00 5.75560E+00
 -1      2782 3.67647E+01 3.77357E+00 7.50000E+00
 -1      2783 3.75000E+01 5.00001E+00 7.50000E+00
 -1      2784 3.89655E+01 4.24440E+00 8.25561E+00
 -1      2785 3.82302E+01 3.01796E+00 8.25561E+00
 -1      2786 1.79792E+01 2.88141E+00 1.61947E+00
 -1      2787 1.87145E+01 4.12188E+00 1.61947E+00
 -1      2788 1.79792E+01 4.11701E+00 4.11947E+00
 -1      2789 3.75000E+01 7.50000E+00 4.99999E+00
 -1      2790 3.67647E+01 7.50000E+00 3.77357E+00
 -1      2791 3.89655E+01 8.25190E+00 4.24373E+00
 -1      2792 3.82302E+01 8.25190E+00 3.01731E+00
 -1      2793 4.85290E+01 7.50046E+00 6.23658E+00
 -1      2794 4.92647E+01 7.50046E+00 5.00046E+00
 -1      2795 4.99998E+01 8.25034E+00 6.98647E+00
 -1      2796 5.07355E+01 8.25034E+00 5.75034E+00
 -1      2797 5.00002E+01 5.75080E+00 5.75080E+00
 -1      2798 4.18869E+01 7.50000E+00 5.01365E+00
 -1      2799 4.33665E+01 7.50000E+00 5.01071E+00
 -1      2800 1.02807E+01 2.50000E+00 3.76702E+00
 -1      2801 9.55220E+00 2.50000E+00 4.99746E+00
 -1      2802 1.06918E+01 1.61757E+00 4.11694E+00
 -1      2803 1.14207E+01 4.11757E+00 4.11440E+00
 -1      2804 1.14203E+01 1.61757E+00 2.88650E+00
 -1      2805 2.61121E+01 1.60891E+00 2.88038E+00
 -1      2806 2.53768E+01 1.60891E+00 4.10681E+00
 -1      2807 2.38820E+01 2.88418E+00 8.38939E+00
 -1      2808 2.38820E+01 4.11048E+00 5.88926E+00
 -1      2809 2.46173E+01 4.11061E+00 8.38939E+00
 -1      2810 8.97042E+01 3.77357E+00 2.50000E+00
 -1      2811 8.85667E+01 2.89200E+00 1.61844E+00
 -1      2812 8.92986E+01 4.11729E+00 1.61844E+00
 -1      2813 8.85650E+01 4.11844E+00 4.11844E+00
 -1      2814 2.53827E+01 8.38935E+00 5.88935E+00
 -1      2815 2.61180E+01 5.88922E+00 5.88922E+00
 -1      2816 2.61180E+01 8.38935E+00 7.11578E+00
 -1      2817 2.61180E+01 7.11578E+00 8.38935E+00
 -1      2818 2.53827E+01 5.88935E+00 8.38935E+00
 -1      2819 2.46179E+01 8.39001E+00 4.11116E+00
 -1      2820 2.38826E+01 8.39001E+00 2.88472E+00
 -1      2821 7.46172E+01 5.88937E+00 1.61063E+00
 -1      2822 7.38820E+01 7.11581E+00 1.61063E+00
 -1      2823 7.38820E+01 5.88937E+00 4.11063E+00
 -1      2824 7.46172E+01 4.11063E+00 8.38937E+00
 -1      2825 7.38820E+01 2.88419E+00 8.38937E+00
 -1      2826 7.38820E+01 4.11063E+00 5.88937E+00
 -1      2827 7.38820E+01 8.38937E+00 2.88419E+00
 -1      2828 7.46172E+01 8.38937E+00 4.11063E+00
 -1      2829 7.46172E+01 1.61063E+00 5.88937E+00
 -1      2830 7.38820E+01 1.61063E+00 7.11581E+00
 -1      2831 2.38820E+01 1.61061E+00 7.11582E+00
 -1      2832 2.46173E+01 1.61061E+00 5.88939E+00
 -1      2833 3.63820E+01 1.61063E+00 5.88937E+00
 -1      2834 3.56467E+01 4.11063E+00 5.88937E+00
 -1      2835 3.56467E+01 1.61063E+00 7.11581E+00
 -1      2836 3.63820E+01 4.11063E+00 8.38937E+00
 -1      2837 3.56467E+01 2.88419E+00 8.38937E+00
 -1      2838 3.56476E+01 8.39037E+00 2.88507E+00
 -1      2839 3.63829E+01 8.39037E+00 4.11150E+00
 -1      2840 5.48147E+01 4.11930E+00 1.61714E+00
 -1      2841 5.55500E+01 2.88844E+00 1.61714E+00
 -1      2842 5.55500E+01 4.11930E+00 4.11714E+00
 -1      2843 3.71505E+01 8.39187E+00 5.88735E+00
 -1      2844 3.78858E+01 5.89187E+00 5.88736E+00
 -1      2845 3.78858E+01 8.39187E+00 7.11379E+00
 -1      2846 3.78849E+01 1.60946E+00 2.88712E+00
 -1      2847 3.71496E+01 1.60946E+00 4.11355E+00
 -1      2848 3.78849E+01 4.10946E+00 4.11355E+00
 -1      2849 3.71505E+01 5.89188E+00 8.38736E+00
 -1      2850 3.78858E+01 7.11831E+00 8.38736E+00
 -1      2851 8.29400E+01 8.30874E+00 4.19126E+00
 -1      2852 8.29400E+01 5.80874E+00 1.69126E+00
 -1      2853 1.87145E+01 1.61701E+00 4.11947E+00
 -1      2854 1.79792E+01 1.61701E+00 2.88863E+00
 -1      2855 4.74118E+01 2.88142E+00 1.61108E+00
 -1      2856 4.81471E+01 4.10785E+00 1.61108E+00
 -1      2857 4.74118E+01 4.10831E+00 4.11154E+00
 -1      2858 6.20970E+01 2.89301E+00 1.61692E+00
 -1      2859 6.28323E+01 4.11944E+00 1.61692E+00
 -1      2860 6.20970E+01 4.11944E+00 4.11692E+00
 -1      2861 5.48147E+01 1.61930E+00 4.11714E+00
 -1      2862 5.55500E+01 1.61930E+00 2.89071E+00
 -1      2863 6.28323E+01 1.61944E+00 4.11692E+00
 -1      2864 6.20970E+01 1.61944E+00 2.89048E+00
 -1      2865 9.04361E+01 2.50000E+00 5.00115E+00
 -1      2866 8.97042E+01 2.50000E+00 3.77357E+00
 -1      2867 8.92986E+01 1.61844E+00 4.11958E+00
 -1      2868 8.85667E+01 1.61844E+00 2.89200E+00
 -1      2869 4.85294E+01 2.50046E+00 3.77403E+00
 -1      2870 4.92647E+01 2.50046E+00 5.00046E+00
 -1      2871 4.99998E+01 1.74984E+00 3.02341E+00
 -1      2872 5.07351E+01 1.74984E+00 4.24984E+00
 -1      2873 3.67647E+01 3.77357E+00 2.50000E+00
 -1      2874 3.60271E+01 5.00786E+00 2.50000E+00
 -1      2875 3.52941E+01 3.02479E+00 1.74676E+00
 -1      2876 3.45565E+01 4.25908E+00 1.74676E+00
 -1      2877 9.54356E+00 4.99578E+00 2.49746E+00
 -1      2878 1.02816E+01 3.75885E+00 2.49746E+00
 -1      2879 1.06832E+01 4.11334E+00 1.61694E+00
 -1      2880 1.14212E+01 2.87641E+00 1.61694E+00
 -1      2881 2.46474E+01 6.63957E+00 6.63957E+00
 -1      2882 7.53525E+01 6.63962E+00 3.36038E+00
 -1      2883 7.53525E+01 3.36038E+00 6.63962E+00
 -1      2884 4.04214E+01 8.25190E+00 4.25739E+00
 -1      2885 4.81427E+01 8.39136E+00 5.88825E+00
 -1      2886 4.74070E+01 8.39136E+00 7.12437E+00
 -1      2887 4.74074E+01 5.89182E+00 5.88871E+00
 -1      2888 4.48422E+01 8.24807E+00 4.25730E+00
 -1      2889 2.53522E+01 3.36019E+00 6.63981E+00
 -1      2890 4.92647E+01 5.00046E+00 7.50046E+00
 -1      2891 4.85294E+01 6.22689E+00 7.50046E+00
 -1      2892 5.07355E+01 5.75034E+00 8.25034E+00
 -1      2893 5.00002E+01 6.97678E+00 8.25034E+00
 -1      2894 3.71122E+01 3.35502E+00 6.64498E+00
 -1      2895 8.76295E+01 5.80198E+00 1.69802E+00
 -1      2896 9.60344E+01 4.16129E+00 4.14275E+00
 -1      2897 9.45860E+01 2.59179E+00 5.10559E+00
 -1      2898 9.60751E+01 4.10878E+00 6.07450E+00
 -1      2899 3.64152E+01 6.64212E+00 6.63761E+00
 -1      2900 9.45860E+01 5.07769E+00 2.59148E+00
 -1      2901 9.60824E+01 6.06095E+00 4.12232E+00
 -1      2902 1.94498E+01 3.36771E+00 3.36720E+00
 -1      2903 3.64143E+01 3.36068E+00 3.36031E+00
 -1      2904 4.88783E+01 6.64170E+00 6.63859E+00
 -1      2905 4.88821E+01 3.35770E+00 3.36092E+00
 -1      2906 3.71473E+01 4.11733E+00 1.61355E+00
 -1      2907 3.78849E+01 2.88303E+00 1.61355E+00
 -1      2908 4.81471E+01 1.60785E+00 4.11108E+00
 -1      2909 4.74118E+01 1.60785E+00 2.88465E+00
 -1      2910 5.40792E+01 3.36914E+00 3.36699E+00
 -1      2911 5.55521E+01 8.38794E+00 7.09199E+00
 -1      2912 5.48168E+01 8.38794E+00 5.86556E+00
 -1      2913 5.55521E+01 5.88794E+00 5.86556E+00
 -1      2914 6.35676E+01 3.36919E+00 3.36667E+00
 -1      2915 5.48168E+01 5.88794E+00 8.36556E+00
 -1      2916 5.55521E+01 7.11438E+00 8.36556E+00
 -1      2917 1.79794E+01 7.10739E+00 8.38161E+00
 -1      2918 1.87147E+01 5.88096E+00 8.38161E+00
 -1      2919 1.79794E+01 5.88096E+00 5.88161E+00
 -1      2920 4.74074E+01 7.11779E+00 8.38825E+00
 -1      2921 4.81427E+01 5.89136E+00 8.38825E+00
 -1      2922 1.87147E+01 8.38096E+00 5.88161E+00
 -1      2923 1.79794E+01 8.38096E+00 7.10805E+00
 -1      2924 8.85298E+00 1.73594E+00 2.99463E+00
 -1      2925 8.85341E+00 4.23594E+00 4.22253E+00
 -1      2926 8.12452E+00 1.73594E+00 4.22507E+00
 -1      2927 2.39553E+00 5.43155E+00 5.70529E+00
 -1      2928 2.39553E+00 5.59142E+00 4.62393E+00
 -1      2929 1.48761E+00 6.51385E+00 5.54544E+00
 -1      2930 3.88314E+00 6.10487E+00 6.10578E+00
 -1      2931 1.48761E+00 6.35398E+00 6.62680E+00
 -1      2932 1.91176E+01 1.27357E+00 8.72643E+00
 -1      2933 9.18671E+01 4.23403E+00 1.72919E+00
 -1      2934 9.11352E+01 3.00874E+00 1.72919E+00
 -1      2935 9.11336E+01 4.23517E+00 4.22919E+00
 -1      2936 2.39553E+00 4.61501E+00 5.07679E+00
 -1      2937 8.85387E+00 2.99479E+00 1.72507E+00
 -1      2938 8.11587E+00 4.23172E+00 1.72507E+00
 -1      2939 5.40818E+01 6.63829E+00 6.61590E+00
 -1      2940 9.11352E+01 1.73517E+00 3.00276E+00
 -1      2941 9.18671E+01 1.73517E+00 4.23033E+00
 -1      2942 9.76051E+01 5.70495E+00 5.43181E+00
 -1      2943 9.76051E+01 4.62359E+00 5.59168E+00
 -1      2944 9.76051E+01 5.07645E+00 4.61528E+00
 -1      2945 1.94500E+01 6.63118E+00 6.63184E+00
 -1      2946 9.85106E+01 5.56101E+00 6.51158E+00
 -1      2947 9.61157E+01 6.12101E+00 6.10286E+00
 -1      2948 9.85106E+01 6.64238E+00 6.35171E+00
 -1      2949 9.99305E+00 3.35351E+00 3.34200E+00
 -1      2950 8.99961E+01 3.35361E+00 3.34762E+00
 -1      2951 8.38235E+01 1.27357E+00 8.72643E+00
 -1      2952 8.58719E+01 2.79488E+00 8.47869E+00
 -1      2953 8.58719E+01 1.52131E+00 7.20512E+00
 -1      2954 8.32439E+01 1.52102E+00 7.20541E+00
 -1      2955 8.52924E+01 3.04233E+00 6.95767E+00
 -1      2956 8.32439E+01 2.79459E+00 8.47898E+00
 -1      2957 5.73529E+01 1.26571E+00 8.72643E+00
 -1      2958 5.88235E+01 1.26440E+00 8.72643E+00
 -1      2959 5.68853E+01 1.37032E+00 7.31375E+00
 -1      2960 5.83559E+01 2.63472E+00 8.58732E+00
 -1      2961 5.68853E+01 2.63603E+00 8.58732E+00
 -1      2962 8.52941E+01 1.27357E+00 8.72643E+00
 -1      2963 8.73425E+01 2.79488E+00 8.47869E+00
 -1      2964 8.67647E+01 1.27357E+00 8.72643E+00
 -1      2965 8.73425E+01 1.52131E+00 7.20512E+00
 -1      2966 9.38197E+01 6.04958E+00 4.63062E+00
 -1      2967 9.31955E+01 5.94368E+00 2.03914E+00
 -1      2968 9.46920E+01 6.92694E+00 3.56998E+00
 -1      2969 7.00269E+00 5.87517E+00 1.64182E+00
 -1      2970 6.39487E+00 5.98230E+00 4.23395E+00
 -1      2971 5.51458E+00 6.86485E+00 3.17802E+00
 -1      2972 1.53324E+00 4.36981E+00 6.60190E+00
 -1      2973 1.53324E+00 3.55328E+00 5.97341E+00
 -1      2974 9.84774E+01 6.58231E+00 4.37117E+00
 -1      2975 9.84774E+01 5.95381E+00 3.55464E+00
 -1      2976 6.39321E+00 4.22155E+00 5.97878E+00
 -1      2977 7.01439E+00 1.63033E+00 5.87654E+00
 -1      2978 5.53091E+00 3.15981E+00 6.87540E+00
 -1      2979 1.16103E+01 5.80782E+00 4.18956E+00
 -1      2980 1.23479E+01 5.80757E+00 1.69210E+00
 -1      2981 1.10186E+01 4.99974E+00 2.49746E+00
 -1      2982 9.13989E+00 5.89108E+00 4.13928E+00
 -1      2983 9.87743E+00 5.89082E+00 1.64182E+00
 -1      2984 1.04691E+01 6.69890E+00 3.33391E+00
 -1      2985 6.54412E+01 5.75025E+00 8.25025E+00
 -1      2986 6.47059E+01 5.75025E+00 5.75025E+00
 -1      2987 6.39706E+01 5.00000E+00 7.50000E+00
 -1      2988 6.29124E+01 5.91512E+00 8.40864E+00
 -1      2989 6.21771E+01 5.91512E+00 5.90864E+00
 -1      2990 6.36477E+01 6.66537E+00 6.65889E+00
 -1      2991 9.31960E+01 2.02941E+00 5.97132E+00
 -1      2992 9.38202E+01 4.62120E+00 6.04869E+00
 -1      2993 9.46851E+01 3.54640E+00 6.94023E+00
 -1      2994 6.39706E+01 7.50000E+00 5.00000E+00
 -1      2995 6.54412E+01 8.25025E+00 5.75025E+00
 -1      2996 6.29124E+01 8.41512E+00 5.90864E+00
 -1      2997 3.02085E+00 5.04313E+00 7.00240E+00
 -1      2998 5.64865E+01 8.30055E+00 4.19501E+00
 -1      2999 5.57512E+01 5.80055E+00 4.19501E+00
 -1      3000 5.51471E+01 7.50000E+00 5.00000E+00
 -1      3001 5.40290E+01 8.38939E+00 4.11061E+00
 -1      3002 5.32938E+01 5.88939E+00 4.11061E+00
 -1      3003 5.46332E+01 6.68994E+00 3.30562E+00
 -1      3004 8.23150E+00 8.30840E+00 5.81198E+00
 -1      3005 8.96039E+00 5.80840E+00 5.80944E+00
 -1      3006 9.55220E+00 7.50000E+00 4.99746E+00
 -1      3007 1.06889E+01 8.38030E+00 5.88405E+00
 -1      3008 1.14178E+01 5.88030E+00 5.88151E+00
 -1      3009 1.00971E+01 6.68870E+00 6.69603E+00
 -1      3010 5.64865E+01 5.80054E+00 1.69501E+00
 -1      3011 5.51471E+01 4.99999E+00 2.50000E+00
 -1      3012 5.40290E+01 5.88938E+00 1.61061E+00
 -1      3013 6.47059E+01 6.97668E+00 8.25025E+00
 -1      3014 6.21771E+01 7.14155E+00 8.40864E+00
 -1      3015 6.47059E+01 8.25025E+00 6.97668E+00
 -1      3016 6.21771E+01 8.41512E+00 7.13508E+00
 -1      3017 8.22286E+00 5.80418E+00 8.31198E+00
 -1      3018 9.54356E+00 4.99578E+00 7.49746E+00
 -1      3019 1.06803E+01 5.87608E+00 8.38405E+00
 -1      3020 8.89689E+01 2.50000E+00 5.00000E+00
 -1      3021 8.78314E+01 1.61844E+00 4.11844E+00
 -1      3022 6.32353E+01 1.27357E+00 1.27357E+00
 -1      3023 5.44118E+01 1.26914E+00 1.27357E+00
 -1      3024 8.78314E+01 4.11844E+00 1.61844E+00
 -1      3025 1.16076E+01 7.05141E+00 1.69210E+00
 -1      3026 9.13714E+00 7.13467E+00 1.64182E+00
 -1      3027 6.25000E+01 2.50000E+00 5.00000E+00
 -1      3028 6.13617E+01 1.61944E+00 4.11692E+00
 -1      3029 1.91176E+01 1.26440E+00 1.26916E+00
 -1      3030 5.51471E+01 2.50000E+00 5.00000E+00
 -1      3031 5.62853E+01 1.61930E+00 4.11714E+00
 -1      3032 2.01826E+01 6.04358E+00 1.45540E+00
 -1      3033 1.94473E+01 6.03871E+00 3.95540E+00
 -1      3034 1.83089E+01 5.15572E+00 3.07487E+00
 -1      3035 9.69880E+01 6.99838E+00 5.04222E+00
 -1      3036 6.43009E+01 6.04042E+00 1.45958E+00
 -1      3037 6.35656E+01 6.04042E+00 3.95958E+00
 -1      3038 6.24273E+01 5.15986E+00 3.07649E+00
 -1      3039 5.62853E+01 4.11929E+00 1.61714E+00
 -1      3040 5.51471E+01 4.99999E+00 7.50000E+00
 -1      3041 5.62874E+01 5.88794E+00 8.36556E+00
 -1      3042 1.10125E+01 2.50000E+00 4.99652E+00
 -1      3043 1.21521E+01 1.61757E+00 4.11599E+00
 -1      3044 1.72439E+01 4.11700E+00 1.61947E+00
 -1      3045 1.87120E+01 6.03870E+00 1.45540E+00
 -1      3046 1.83824E+01 2.50000E+00 4.99999E+00
 -1      3047 1.72439E+01 1.61701E+00 4.11946E+00
 -1      3048 1.23417E+01 8.30782E+00 4.19115E+00
 -1      3049 1.10125E+01 7.50000E+00 4.99652E+00
 -1      3050 9.87127E+00 8.39108E+00 4.14088E+00
 -1      3051 6.13617E+01 4.11943E+00 1.61692E+00
 -1      3052 6.28303E+01 6.04042E+00 1.45958E+00
 -1      3053 5.44118E+01 8.72643E+00 8.72643E+00
 -1      3054 5.57512E+01 8.30055E+00 2.96857E+00
 -1      3055 5.32938E+01 8.38939E+00 2.88418E+00
 -1      3056 1.21583E+01 4.11731E+00 1.61694E+00
 -1      3057 1.32051E+01 1.26430E+00 8.74889E+00
 -1      3058 1.46762E+01 1.27357E+00 8.74889E+00
 -1      3059 1.52498E+01 1.52846E+00 7.22800E+00
 -1      3060 1.67501E+01 2.80203E+00 8.47911E+00
 -1      3061 1.52790E+01 2.79276E+00 8.47911E+00
 -1      3062 4.22219E+01 8.54246E+00 6.05290E+00
 -1      3063 4.37015E+01 8.54246E+00 6.04996E+00
 -1      3064 4.29617E+01 6.04246E+00 6.03925E+00
 -1      3065 5.57512E+01 7.02698E+00 1.69501E+00
 -1      3066 5.32938E+01 7.11582E+00 1.61061E+00
 -1      3067 1.91176E+01 8.72643E+00 8.72643E+00
 -1      3068 3.86211E+01 5.89188E+00 8.38736E+00
 -1      3069 8.96690E+00 8.30840E+00 7.03841E+00
 -1      3070 1.14243E+01 8.38030E+00 7.11048E+00
 -1      3071 1.83824E+01 5.00000E+00 7.50000E+00
 -1      3072 1.72441E+01 5.88096E+00 8.38161E+00
 -1      3073 1.21492E+01 8.38030E+00 5.88311E+00
 -1      3074 2.01826E+01 8.53871E+00 3.95540E+00
 -1      3075 1.83090E+01 6.91967E+00 4.83701E+00
 -1      3076 3.86211E+01 8.39187E+00 5.88735E+00
 -1      3077 2.31467E+01 4.11061E+00 8.38939E+00
 -1      3078 8.04996E+01 8.38937E+00 5.88937E+00
 -1      3079 7.97643E+01 5.88937E+00 5.88937E+00
 -1      3080 7.90290E+01 8.38937E+00 5.88937E+00
 -1      3081 8.01471E+01 2.50000E+00 5.00000E+00
 -1      3082 8.16176E+01 2.50000E+00 5.00000E+00
 -1      3083 7.90290E+01 1.61063E+00 4.11063E+00
 -1      3084 8.04996E+01 1.61063E+00 4.11063E+00
 -1      3085 7.97643E+01 4.11063E+00 4.11063E+00
 -1      3086 8.16176E+01 5.00000E+00 7.50000E+00
 -1      3087 8.01471E+01 5.00000E+00 7.50000E+00
 -1      3088 7.90290E+01 5.88937E+00 8.38937E+00
 -1      3089 8.04996E+01 5.88937E+00 8.38937E+00
 -1      3090 8.04996E+01 4.11063E+00 1.61063E+00
 -1      3091 7.90290E+01 4.11063E+00 1.61063E+00
 -1      3092 7.60656E+01 3.95958E+00 1.45958E+00
 -1      3093 7.42123E+01 4.84895E+00 3.07020E+00
 -1      3094 7.53303E+01 3.95958E+00 3.95958E+00
 -1      3095 7.60656E+01 6.04042E+00 8.54042E+00
 -1      3096 7.42123E+01 5.15105E+00 6.92980E+00
 -1      3097 7.53303E+01 6.04042E+00 6.04042E+00
 -1      3098 7.60656E+01 8.54042E+00 6.04042E+00
 -1      3099 7.42123E+01 6.92980E+00 5.15105E+00
 -1      3100 7.60656E+01 1.45958E+00 3.95958E+00
 -1      3101 7.42123E+01 3.07020E+00 4.84895E+00
 -1      3102 2.31467E+01 1.61061E+00 5.88939E+00
 -1      3103 2.68533E+01 5.88935E+00 8.38935E+00
 -1      3104 2.68533E+01 8.38935E+00 5.88935E+00
 -1      3105 5.25585E+01 8.38939E+00 4.11061E+00
 -1      3106 5.25585E+01 5.88939E+00 1.61061E+00
 -1      3107 3.49114E+01 1.61063E+00 5.88937E+00
 -1      3108 3.49114E+01 4.11063E+00 8.38937E+00
 -1      3109 8.20198E+01 4.11828E+00 4.11828E+00
 -1      3110 8.27551E+01 1.61828E+00 4.11828E+00
 -1      3111 8.09018E+01 3.22891E+00 3.22891E+00
 -1      3112 8.20198E+01 5.88172E+00 5.88172E+00
 -1      3113 8.27551E+01 8.38172E+00 5.88172E+00
 -1      3114 8.09018E+01 6.77109E+00 6.77109E+00
 -1      3115 8.27551E+01 5.88172E+00 8.38172E+00
 -1      3116 8.27551E+01 4.11828E+00 1.61828E+00
 -1      3117 1.26239E+01 1.52879E+00 7.23044E+00
 -1      3118 1.26531E+01 2.79309E+00 8.48155E+00
 -1      3119 1.46978E+01 3.05725E+00 6.96067E+00
 -1      3120 3.86202E+01 1.60946E+00 4.11354E+00
 -1      3121 2.31473E+01 8.39001E+00 4.11116E+00
 -1      3122 2.31464E+01 5.89447E+00 1.61116E+00
 -1      3123 1.10186E+01 4.99974E+00 7.49746E+00
 -1      3124 1.21553E+01 5.88004E+00 8.38405E+00
 -1      3125 3.49123E+01 8.39037E+00 4.11151E+00
 -1      3126 3.86233E+01 4.11618E+00 1.61355E+00
 -1      3127 1.72441E+01 8.38096E+00 5.88160E+00
 -1      3128 1.87120E+01 8.53871E+00 3.95539E+00
 -1      3129 2.68467E+01 4.11103E+00 1.60681E+00
 -1      3130 2.68474E+01 1.60891E+00 4.10681E+00
 -1      3131 4.37263E+01 3.97221E+00 1.46202E+00
 -1      3132 4.22467E+01 3.96927E+00 1.46202E+00
 -1      3133 4.29662E+01 3.95856E+00 3.96202E+00
 -1      3134 3.67647E+01 8.72643E+00 8.72643E+00
 -1      3135 5.62874E+01 8.38794E+00 5.86556E+00
 -1      3136 4.95951E+01 6.04042E+00 1.45958E+00
 -1      3137 4.88598E+01 6.04088E+00 3.96004E+00
 -1      3138 4.77421E+01 5.14828E+00 3.07066E+00
 -1      3139 7.50000E+01 1.27357E+00 8.72643E+00
 -1      3140 7.50000E+01 8.72643E+00 1.27357E+00
 -1      3141 2.50000E+01 8.72643E+00 8.72643E+00
 -1      3142 8.40236E+00 5.88686E+00 1.64182E+00
 -1      3143 4.95945E+01 3.95905E+00 8.54095E+00
 -1      3144 4.88593E+01 3.95950E+00 6.04141E+00
 -1      3145 4.77373E+01 4.85040E+00 6.92921E+00
 -1      3146 2.50000E+01 1.27357E+00 8.72643E+00
 -1      3147 3.49100E+01 5.89824E+00 1.61151E+00
 -1      3148 4.95951E+01 8.54042E+00 3.95958E+00
 -1      3149 4.77378E+01 6.93178E+00 4.84783E+00
 -1      3150 4.95945E+01 1.45905E+00 6.04095E+00
 -1      3151 4.77416E+01 3.06690E+00 5.15203E+00
 -1      3152 1.03815E+00 1.05462E+00 4.98731E+00
 -1      3153 1.08253E+00 1.05462E+00 6.20166E+00
 -1      3154 2.57138E+00 1.52948E+00 5.39941E+00
 -1      3155 2.61577E+00 1.52948E+00 6.61375E+00
 -1      3156 1.53324E+00 2.58410E+00 6.56541E+00
 -1      3157 2.50000E+01 8.74985E+00 1.27357E+00
 -1      3158 3.67647E+01 1.27357E+00 1.27357E+00
 -1      3159 1.16099E+01 8.30782E+00 2.96166E+00
 -1      3160 9.13947E+00 8.39108E+00 2.91138E+00
 -1      3161 2.50000E+01 1.26421E+00 1.27357E+00
 -1      3162 8.66064E+01 3.74375E+00 6.25625E+00
 -1      3163 8.45580E+01 3.49600E+00 7.77757E+00
 -1      3164 8.39784E+01 3.74346E+00 6.25654E+00
 -1      3165 8.45580E+01 2.22243E+00 6.50400E+00
 -1      3166 6.08729E+01 1.52194E+00 7.20631E+00
 -1      3167 6.01376E+01 3.74512E+00 6.25724E+00
 -1      3168 5.95588E+01 2.22318E+00 6.50379E+00
 -1      3169 5.83559E+01 1.37032E+00 7.31375E+00
 -1      3170 5.76206E+01 3.59350E+00 6.36468E+00
 -1      3171 5.89347E+01 2.89226E+00 7.06720E+00
 -1      3172 8.95763E+00 7.05199E+00 8.31198E+00
 -1      3173 1.14150E+01 7.12389E+00 8.38405E+00
 -1      3174 4.85290E+01 8.72643E+00 8.73612E+00
 -1      3175 4.85294E+01 1.27357E+00 1.27357E+00
 -1      3176 7.31467E+01 4.11063E+00 8.38937E+00
 -1      3177 7.45950E+01 6.04042E+00 8.54042E+00
 -1      3178 7.31467E+01 5.88937E+00 1.61063E+00
 -1      3179 7.45950E+01 3.95958E+00 1.45958E+00
 -1      3180 7.31467E+01 1.61063E+00 5.88937E+00
 -1      3181 7.45950E+01 1.45958E+00 3.95958E+00
 -1      3182 7.31467E+01 8.38937E+00 4.11063E+00
 -1      3183 7.45950E+01 8.54042E+00 6.04042E+00
 -1      3184 3.67647E+01 1.27357E+00 8.72643E+00
 -1      3185 4.66765E+01 4.10784E+00 1.61108E+00
 -1      3186 4.81245E+01 6.04042E+00 1.45958E+00
 -1      3187 4.66690E+01 5.88673E+00 8.38825E+00
 -1      3188 4.81209E+01 3.95442E+00 8.54095E+00
 -1      3189 9.17999E+01 2.02941E+00 5.95836E+00
 -1      3190 9.10663E+01 4.52941E+00 5.95721E+00
 -1      3191 8.95450E+01 1.52131E+00 5.97983E+00
 -1      3192 8.88114E+01 4.02131E+00 5.97869E+00
 -1      3193 9.01753E+01 3.55072E+00 6.93590E+00
 -1      3194 3.67647E+01 8.74871E+00 1.27357E+00
 -1      3195 4.66690E+01 8.39136E+00 5.89288E+00
 -1      3196 4.81214E+01 8.54042E+00 3.96420E+00
 -1      3197 8.41100E+00 8.39108E+00 4.14182E+00
 -1      3198 4.66734E+01 1.60785E+00 4.11570E+00
 -1      3199 4.81209E+01 1.45905E+00 6.04558E+00
 -1      3200 1.62040E+01 1.27357E+00 8.74871E+00
 -1      3201 1.67776E+01 1.52846E+00 7.22782E+00
 -1      3202 9.63402E+01 7.18108E+00 1.53084E+00
 -1      3203 9.40774E+01 7.16971E+00 2.03914E+00
 -1      3204 4.53195E+00 8.47377E+00 4.02609E+00
 -1      3205 5.41224E+00 7.59122E+00 5.08202E+00
 -1      3206 7.01606E+00 8.39108E+00 4.13171E+00
 -1      3207 9.89619E+01 4.98731E+00 1.05462E+00
 -1      3208 9.89619E+01 3.78802E+00 1.05677E+00
 -1      3209 9.84293E+01 4.64616E+00 2.60589E+00
 -1      3210 9.84293E+01 3.44686E+00 2.60804E+00
 -1      3211 9.73911E+01 3.48016E+00 1.55127E+00
 -1      3212 1.33855E+01 3.75544E+00 6.25536E+00
 -1      3213 1.39667E+01 3.49095E+00 7.77381E+00
 -1      3214 1.60114E+01 3.75511E+00 6.25292E+00
 -1      3215 4.27880E+00 7.59122E+00 5.09797E+00
 -1      3216 3.37088E+00 8.51365E+00 6.01949E+00
 -1      3217 4.50433E+00 8.51365E+00 6.00354E+00
 -1      3218 9.89175E+01 6.20166E+00 1.05462E+00
 -1      3219 9.84774E+01 6.54581E+00 2.58546E+00
 -1      3220 9.74392E+01 5.37981E+00 1.53084E+00
 -1      3221 9.73948E+01 6.59416E+00 1.53084E+00
 -1      3222 3.39851E+00 8.47377E+00 4.04204E+00
 -1      3223 9.57208E+01 7.59179E+00 5.08725E+00
 -1      3224 9.45860E+01 7.59179E+00 5.10559E+00
 -1      3225 9.65931E+01 8.46916E+00 4.02661E+00
 -1      3226 9.54582E+01 8.46916E+00 4.04495E+00
 -1      3227 9.38874E+01 4.32697E+00 4.32067E+00
 -1      3228 9.32632E+01 1.73517E+00 4.24329E+00
 -1      3229 9.47116E+01 3.30467E+00 3.28046E+00
 -1      3230 6.25000E+01 4.99999E+00 7.50000E+00
 -1      3231 6.14418E+01 5.91511E+00 8.40864E+00
 -1      3232 2.24115E+01 4.86083E+00 6.63961E+00
 -1      3233 2.24113E+01 3.36131E+00 5.13712E+00
 -1      3234 4.53658E+00 4.01357E+00 8.48875E+00
 -1      3235 5.39887E+00 5.07531E+00 7.59213E+00
 -1      3236 7.00102E+00 4.11442E+00 8.38665E+00
 -1      3237 4.27478E+00 5.09465E+00 7.59213E+00
 -1      3238 4.49096E+00 5.99774E+00 8.51365E+00
 -1      3239 3.36687E+00 6.01708E+00 8.51365E+00
 -1      3240 8.80778E+01 1.52131E+00 5.97869E+00
 -1      3241 6.16082E+01 1.52194E+00 5.97988E+00
 -1      3242 6.23435E+01 4.02194E+00 5.97988E+00
 -1      3243 6.30788E+01 1.52194E+00 5.97988E+00
 -1      3244 5.46795E+01 1.37032E+00 6.08732E+00
 -1      3245 5.54148E+01 3.87032E+00 6.08732E+00
 -1      3246 5.61501E+01 1.37032E+00 6.08732E+00
 -1      3247 8.10380E+01 4.02102E+00 8.47898E+00
 -1      3248 8.25086E+01 4.02102E+00 8.47898E+00
 -1      3249 8.17733E+01 4.02102E+00 5.97898E+00
 -1      3250 8.25086E+01 1.52102E+00 5.97898E+00
 -1      3251 8.10380E+01 1.52102E+00 5.97898E+00
 -1      3252 5.46795E+01 3.87032E+00 8.58732E+00
 -1      3253 5.61501E+01 3.87031E+00 8.58732E+00
 -1      3254 6.16082E+01 4.02193E+00 8.47988E+00
 -1      3255 6.30788E+01 4.02194E+00 8.47988E+00
 -1      3256 9.32632E+01 4.22107E+00 1.72919E+00
 -1      3257 8.97059E+01 1.27357E+00 1.27357E+00
 -1      3258 6.43009E+01 8.54042E+00 3.95958E+00
 -1      3259 6.25074E+01 6.95554E+00 4.86822E+00
 -1      3260 8.89689E+01 7.50000E+00 5.00000E+00
 -1      3261 9.04361E+01 7.50000E+00 5.00115E+00
 -1      3262 9.11530E+01 8.54010E+00 6.04124E+00
 -1      3263 9.04194E+01 6.04010E+00 6.04010E+00
 -1      3264 8.96858E+01 8.54010E+00 6.04010E+00
 -1      3265 3.41249E+00 4.03291E+00 8.48875E+00
 -1      3266 7.86765E+01 4.24975E+00 8.25025E+00
 -1      3267 7.94118E+01 4.24975E+00 5.75025E+00
 -1      3268 8.03028E+01 3.27077E+00 6.72923E+00
 -1      3269 7.86765E+01 1.74975E+00 5.75025E+00
 -1      3270 1.39375E+01 2.22665E+00 6.52269E+00
 -1      3271 9.10680E+01 2.02941E+00 7.18364E+00
 -1      3272 8.88131E+01 1.52131E+00 7.20512E+00
 -1      3273 1.02811E+01 1.25885E+00 1.26956E+00
 -1      3274 1.04390E+01 4.02457E+00 8.48155E+00
 -1      3275 1.19140E+01 4.02854E+00 8.48155E+00
 -1      3276 1.11765E+01 4.02879E+00 5.97902E+00
 -1      3277 1.74854E+01 4.02846E+00 8.47911E+00
 -1      3278 1.04476E+01 1.52879E+00 5.98155E+00
 -1      3279 1.19079E+01 1.52879E+00 5.98061E+00
 -1      3280 1.74854E+01 1.52846E+00 5.97910E+00
 -1      3281 3.65694E+00 8.47377E+00 2.82797E+00
 -1      3282 3.64950E+00 7.18661E+00 1.53620E+00
 -1      3283 4.27598E+00 8.71284E+00 1.29177E+00
 -1      3284 6.14105E+00 8.39108E+00 2.93359E+00
 -1      3285 6.13361E+00 7.10392E+00 1.64182E+00
 -1      3286 9.66264E+01 8.52922E+00 6.00714E+00
 -1      3287 9.46459E+01 5.96333E+00 6.32708E+00
 -1      3288 9.51566E+01 8.37153E+00 6.23136E+00
 -1      3289 9.55514E+01 6.90076E+00 7.24697E+00
 -1      3290 9.63402E+01 8.46916E+00 2.81892E+00
 -1      3291 9.57256E+01 8.71192E+00 1.28808E+00
 -1      3292 9.40774E+01 8.45779E+00 3.32721E+00
 -1      3293 9.63258E+01 1.51699E+00 7.19531E+00
 -1      3294 9.40709E+01 2.02941E+00 7.16951E+00
 -1      3295 1.03815E+00 1.05677E+00 3.78802E+00
 -1      3296 1.54945E+00 2.58587E+00 3.40632E+00
 -1      3297 2.58759E+00 1.52910E+00 3.43962E+00
 -1      3298 1.54945E+00 2.58372E+00 4.60561E+00
 -1      3299 9.84293E+01 3.60129E+00 4.55147E+00
 -1      3300 9.84700E+01 3.54878E+00 6.48322E+00
 -1      3301 6.32353E+01 8.72643E+00 8.72643E+00
 -1      3302 1.51523E+00 6.47397E+00 3.56800E+00
 -1      3303 3.00285E+00 6.98742E+00 5.04985E+00
 -1      3304 6.72958E+00 1.73594E+00 4.21496E+00
 -1      3305 6.10839E+00 4.32716E+00 4.31720E+00
 -1      3306 5.26231E+00 3.26504E+00 3.25403E+00
 -1      3307 9.84293E+01 4.05416E+00 3.57506E+00
 -1      3308 8.20198E+01 1.61828E+00 2.89185E+00
 -1      3309 7.97643E+01 1.61063E+00 2.88419E+00
 -1      3310 8.20198E+01 8.38172E+00 7.10815E+00
 -1      3311 7.97643E+01 8.38937E+00 7.11581E+00
 -1      3312 8.20198E+01 7.10815E+00 8.38172E+00
 -1      3313 7.97643E+01 7.11581E+00 8.38937E+00
 -1      3314 8.20198E+01 2.89185E+00 1.61828E+00
 -1      3315 7.97643E+01 2.88419E+00 1.61063E+00
 -1      3316 6.71621E+00 4.22003E+00 1.72507E+00
 -1      3317 9.89175E+01 6.21046E+00 8.87148E+00
 -1      3318 9.89619E+01 4.99612E+00 8.87148E+00
 -1      3319 9.74724E+01 5.43988E+00 8.51138E+00
 -1      3320 9.85106E+01 6.61468E+00 7.38285E+00
 -1      3321 9.74281E+01 6.65422E+00 8.51138E+00
 -1      3322 3.67049E+00 1.52948E+00 7.20063E+00
 -1      3323 3.67318E+00 2.81597E+00 8.48875E+00
 -1      3324 4.27720E+00 1.28649E+00 8.71188E+00
 -1      3325 6.13493E+00 1.63033E+00 7.09853E+00
 -1      3326 6.13762E+00 2.91682E+00 8.38665E+00
 -1      3327 8.95450E+01 4.02017E+00 8.47869E+00
 -1      3328 9.04361E+01 4.99885E+00 7.50000E+00
 -1      3329 9.11530E+01 6.03895E+00 8.54010E+00
 -1      3330 8.95283E+01 5.06141E+00 7.01878E+00
 -1      3331 8.80778E+01 4.02131E+00 8.47869E+00
 -1      3332 8.96858E+01 6.04010E+00 8.54010E+00
 -1      3333 9.66264E+01 6.03346E+00 8.51138E+00
 -1      3334 9.69806E+01 5.04621E+00 6.99439E+00
 -1      3335 6.50886E+01 1.61063E+00 5.88937E+00
 -1      3336 6.43533E+01 4.11063E+00 5.88937E+00
 -1      3337 6.34615E+01 3.13257E+00 6.86926E+00
 -1      3338 5.32938E+01 4.11061E+00 5.88939E+00
 -1      3339 5.25585E+01 1.61061E+00 5.88939E+00
 -1      3340 5.42967E+01 2.98093E+00 6.97671E+00
 -1      3341 6.50886E+01 4.11062E+00 8.38937E+00
 -1      3342 5.25585E+01 4.11061E+00 8.38939E+00
 -1      3343 6.14418E+01 8.41512E+00 5.90864E+00
 -1      3344 6.28303E+01 8.54042E+00 3.95958E+00
 -1      3345 1.08253E+00 8.87148E+00 6.21046E+00
 -1      3346 1.03815E+00 8.87148E+00 4.99612E+00
 -1      3347 2.57014E+00 8.51365E+00 6.63865E+00
 -1      3348 2.52576E+00 8.51365E+00 5.42431E+00
 -1      3349 1.48761E+00 7.38512E+00 6.59911E+00
 -1      3350 9.63258E+01 2.80469E+00 8.48301E+00
 -1      3351 9.57116E+01 1.28770E+00 8.71230E+00
 -1      3352 9.40709E+01 3.31711E+00 8.45721E+00
 -1      3353 1.03619E+00 3.87992E+00 8.84770E+00
 -1      3354 1.08253E+00 5.09618E+00 8.84770E+00
 -1      3355 2.57014E+00 6.63865E+00 8.51365E+00
 -1      3356 1.48761E+00 5.48483E+00 7.36135E+00
 -1      3357 2.52381E+00 5.42238E+00 8.51365E+00
 -1      3358 6.83656E+00 8.30840E+00 5.80187E+00
 -1      3359 6.21537E+00 5.89962E+00 5.90411E+00
 -1      3360 5.30746E+00 6.82205E+00 6.82563E+00
 -1      3361 9.89619E+01 1.11764E+00 5.05449E+00
 -1      3362 9.89175E+01 1.11764E+00 3.84015E+00
 -1      3363 9.73911E+01 1.56950E+00 4.64061E+00
 -1      3364 9.73468E+01 1.56950E+00 3.42627E+00
 -1      3365 9.84293E+01 2.68714E+00 3.51642E+00
 -1      3366 6.82319E+00 5.79249E+00 8.31198E+00
 -1      3367 9.24969E+01 5.19296E+00 3.76832E+00
 -1      3368 1.55741E+01 5.80459E+00 1.69808E+00
 -1      3369 1.57731E+01 4.11704E+00 1.61947E+00
 -1      3370 1.66418E+01 4.92156E+00 3.31754E+00
 -1      3371 1.45016E+01 4.92212E+00 3.31501E+00
 -1      3372 1.47006E+01 3.23458E+00 3.23640E+00
 -1      3373 1.36329E+01 4.11760E+00 1.61694E+00
 -1      3374 9.17999E+01 4.52827E+00 8.45721E+00
 -1      3375 8.61589E+01 8.30198E+00 4.19802E+00
 -1      3376 8.72257E+01 6.68354E+00 5.07959E+00
 -1      3377 8.63608E+01 8.38156E+00 5.88156E+00
 -1      3378 8.42257E+01 8.38172E+00 5.88172E+00
 -1      3379 8.52924E+01 6.76328E+00 6.76328E+00
 -1      3380 8.50905E+01 6.68369E+00 5.07974E+00
 -1      3381 8.61589E+01 5.80198E+00 1.69802E+00
 -1      3382 8.63608E+01 4.11844E+00 1.61844E+00
 -1      3383 8.72257E+01 4.92041E+00 3.31646E+00
 -1      3384 8.50905E+01 4.92026E+00 3.31631E+00
 -1      3385 8.52924E+01 3.23672E+00 3.23672E+00
 -1      3386 8.42257E+01 4.11828E+00 1.61828E+00
 -1      3387 1.46912E+01 6.61238E+00 3.39017E+00
 -1      3388 1.38225E+01 5.80786E+00 1.69210E+00
 -1      3389 1.27500E+01 4.92539E+00 3.30903E+00
 -1      3390 2.09178E+01 5.28941E+00 3.20314E+00
 -1      3391 6.50362E+01 6.79067E+00 4.70983E+00
 -1      3392 7.68009E+01 6.79067E+00 5.29017E+00
 -1      3393 7.68009E+01 4.70983E+00 3.20933E+00
 -1      3394 7.68009E+01 5.29017E+00 6.79067E+00
 -1      3395 7.68009E+01 3.20933E+00 4.70983E+00
 -1      3396 6.50362E+01 5.29017E+00 3.20933E+00
 -1      3397 1.08253E+00 5.09015E+00 1.11764E+00
 -1      3398 1.03619E+00 3.87388E+00 1.11764E+00
 -1      3399 2.55143E+00 5.38250E+00 1.53620E+00
 -1      3400 1.51523E+00 5.43891E+00 2.65385E+00
 -1      3401 2.59777E+00 6.59877E+00 1.53620E+00
 -1      3402 8.44106E+01 8.30874E+00 4.19126E+00
 -1      3403 8.52754E+01 6.61072E+00 3.38928E+00
 -1      3404 8.33422E+01 6.69046E+00 5.07297E+00
 -1      3405 8.44106E+01 5.80874E+00 1.69126E+00
 -1      3406 8.33422E+01 4.92703E+00 3.30954E+00
 -1      3407 5.03301E+01 5.29027E+00 3.20942E+00
 -1      3408 7.71220E+00 5.12702E+00 3.36689E+00
 -1      3409 9.24974E+01 3.76458E+00 5.18640E+00
 -1      3410 2.09179E+01 6.78893E+00 4.70563E+00
 -1      3411 7.94118E+01 3.02332E+00 8.25025E+00
 -1      3412 8.17733E+01 2.79459E+00 8.47898E+00
 -1      3413 7.94118E+01 1.74975E+00 6.97668E+00
 -1      3414 8.17733E+01 1.52102E+00 7.20541E+00
 -1      3415 9.13822E+00 4.13033E+00 5.88411E+00
 -1      3416 8.40934E+00 1.63033E+00 5.88665E+00
 -1      3417 1.00336E+01 3.15912E+00 6.86820E+00
 -1      3418 5.03296E+01 3.20889E+00 5.29080E+00
 -1      3419 9.89175E+01 8.84770E+00 3.84618E+00
 -1      3420 9.89619E+01 8.84770E+00 5.06053E+00
 -1      3421 9.73948E+01 8.46916E+00 3.40584E+00
 -1      3422 9.74392E+01 8.46916E+00 4.62019E+00
 -1      3423 9.84774E+01 7.31686E+00 3.50203E+00
 -1      3424 1.38193E+01 8.30782E+00 4.19623E+00
 -1      3425 1.55709E+01 8.30455E+00 4.20221E+00
 -1      3426 1.36268E+01 8.38030E+00 5.88818E+00
 -1      3427 1.44986E+01 6.68485E+00 5.08213E+00
 -1      3428 1.27470E+01 6.68812E+00 5.07615E+00
 -1      3429 5.03306E+01 6.79077E+00 4.70992E+00
 -1      3430 5.03301E+01 4.70939E+00 6.79130E+00
 -1      3431 4.44419E+01 4.70663E+00 3.20861E+00
 -1      3432 4.44373E+01 6.79053E+00 5.28584E+00
 -1      3433 7.71054E+00 3.36627E+00 5.11172E+00
 -1      3434 8.40069E+00 4.12611E+00 8.38665E+00
 -1      3435 5.98911E+01 4.12431E+00 1.61692E+00
 -1      3436 5.90247E+01 4.91999E+00 3.31192E+00
 -1      3437 5.79571E+01 5.80541E+00 1.69501E+00
 -1      3438 5.77559E+01 4.12417E+00 1.61714E+00
 -1      3439 5.68894E+01 4.91985E+00 3.31215E+00
 -1      3440 5.88235E+01 3.23874E+00 3.23406E+00
 -1      3441 1.66419E+01 6.68551E+00 5.07969E+00
 -1      3442 1.57701E+01 8.38096E+00 5.88575E+00
 -1      3443 1.46978E+01 6.76126E+00 6.76566E+00
 -1      3444 9.84700E+01 4.60244E+00 7.35449E+00
 -1      3445 9.74319E+01 3.42764E+00 8.48301E+00
 -1      3446 1.08253E+00 6.28103E+00 9.09248E+00
 -1      3447 1.48761E+00 6.66968E+00 7.60613E+00
 -1      3448 7.16761E+01 1.61063E+00 5.88937E+00
 -1      3449 7.24114E+01 3.36038E+00 5.13913E+00
 -1      3450 7.13235E+01 1.74975E+00 4.24975E+00
 -1      3451 6.95226E+01 1.45958E+00 6.04042E+00
 -1      3452 7.02579E+01 3.20933E+00 5.29017E+00
 -1      3453 7.06104E+01 3.07020E+00 6.92980E+00
 -1      3454 7.13235E+01 5.75025E+00 8.25025E+00
 -1      3455 7.24114E+01 4.86087E+00 6.63962E+00
 -1      3456 7.16761E+01 4.11063E+00 8.38937E+00
 -1      3457 6.95226E+01 3.95958E+00 8.54042E+00
 -1      3458 7.02579E+01 4.70983E+00 6.79067E+00
 -1      3459 9.17994E+01 8.45779E+00 4.54028E+00
 -1      3460 9.17827E+01 6.99788E+00 5.57923E+00
 -1      3461 5.95588E+01 3.48758E+00 7.77736E+00
 -1      3462 5.88235E+01 4.72805E+00 7.77736E+00
 -1      3463 5.80882E+01 3.48889E+00 7.77736E+00
 -1      3464 3.93513E+01 5.13627E+00 6.64296E+00
 -1      3465 4.00770E+01 5.87822E+00 8.38736E+00
 -1      3466 4.04214E+01 4.23074E+00 8.25561E+00
 -1      3467 4.14962E+01 5.28685E+00 6.79486E+00
 -1      3468 4.22219E+01 6.02880E+00 8.53925E+00
 -1      3469 4.11518E+01 6.93433E+00 6.92660E+00
 -1      3470 4.00762E+01 1.60946E+00 4.12720E+00
 -1      3471 3.93504E+01 3.35385E+00 4.86916E+00
 -1      3472 4.04214E+01 1.74439E+00 5.76926E+00
 -1      3473 4.22264E+01 1.45856E+00 3.97567E+00
 -1      3474 4.15007E+01 3.20295E+00 4.71763E+00
 -1      3475 4.11554E+01 3.06802E+00 3.07557E+00
 -1      3476 3.93504E+01 4.86137E+00 3.35729E+00
 -1      3477 4.00965E+01 4.12018E+00 1.61355E+00
 -1      3478 4.15007E+01 4.71046E+00 3.20576E+00
 -1      3479 9.65858E+01 4.02122E+00 8.48301E+00
 -1      3480 9.54509E+01 4.00288E+00 8.48301E+00
 -1      3481 9.40217E+01 5.85743E+00 8.73559E+00
 -1      3482 9.55108E+01 4.88852E+00 7.21861E+00
 -1      3483 9.51566E+01 5.87577E+00 8.73559E+00
 -1      3484 2.05882E+01 1.27357E+00 8.72643E+00
 -1      3485 2.20588E+01 1.27357E+00 8.72643E+00
 -1      3486 2.24114E+01 1.61061E+00 7.11582E+00
 -1      3487 2.24114E+01 2.88418E+00 8.38939E+00
 -1      3488 9.17832E+01 5.56951E+00 6.99731E+00
 -1      3489 8.76740E+01 3.13975E+00 5.09712E+00
 -1      3490 8.29108E+01 3.13931E+00 5.09726E+00
 -1      3491 8.29108E+01 4.90274E+00 6.86069E+00
 -1      3492 1.51523E+00 7.34524E+00 4.62166E+00
 -1      3493 2.55338E+00 8.47377E+00 3.44686E+00
 -1      3494 9.40217E+01 8.37153E+00 6.24970E+00
 -1      3495 5.65530E+01 2.98962E+00 5.20446E+00
 -1      3496 6.12052E+01 3.14138E+00 5.09680E+00
 -1      3497 4.00770E+01 8.39187E+00 5.90101E+00
 -1      3498 3.93513E+01 6.64378E+00 5.13110E+00
 -1      3499 4.14962E+01 6.79436E+00 5.28299E+00
 -1      3500 5.96942E+01 5.84244E+00 1.76543E+00
 -1      3501 5.88277E+01 6.63812E+00 3.46043E+00
 -1      3502 6.07618E+01 4.95701E+00 3.38235E+00
 -1      3503 8.78314E+01 8.38156E+00 5.88156E+00
 -1      3504 8.85650E+01 5.88156E+00 5.88156E+00
 -1      3505 8.92819E+01 6.92166E+00 6.92166E+00
 -1      3506 6.12853E+01 4.93706E+00 6.88852E+00
 -1      3507 2.56943E+00 3.43821E+00 8.48875E+00
 -1      3508 1.53324E+00 3.50067E+00 7.33645E+00
 -1      3509 5.44118E+01 8.72643E+00 1.27357E+00
 -1      3510 8.38235E+01 8.72643E+00 8.72643E+00
 -1      3511 8.56255E+01 8.38156E+00 7.10800E+00
 -1      3512 8.56255E+01 7.10800E+00 8.38156E+00
 -1      3513 8.34904E+01 7.10815E+00 8.38172E+00
 -1      3514 8.34904E+01 8.38172E+00 7.10815E+00
 -1      3515 8.38235E+01 1.27357E+00 1.27357E+00
 -1      3516 8.56255E+01 1.61844E+00 2.89200E+00
 -1      3517 8.56255E+01 2.89200E+00 1.61844E+00
 -1      3518 8.34904E+01 2.89185E+00 1.61828E+00
 -1      3519 8.34904E+01 1.61828E+00 2.89185E+00
 -1      3520 8.52941E+01 8.72643E+00 8.72643E+00
 -1      3521 8.70961E+01 7.10800E+00 8.38156E+00
 -1      3522 8.52941E+01 1.27357E+00 1.27357E+00
 -1      3523 8.70961E+01 2.89200E+00 1.61844E+00
 -1      3524 8.67647E+01 1.27357E+00 1.27357E+00
 -1      3525 8.70961E+01 1.61844E+00 2.89200E+00
 -1      3526 8.67647E+01 8.72643E+00 8.72643E+00
 -1      3527 8.70961E+01 8.38156E+00 7.10800E+00
 -1      3528 5.65551E+01 4.75826E+00 6.95287E+00
 -1      3529 1.23132E+01 4.90909E+00 6.86561E+00
 -1      3530 5.88235E+01 1.26571E+00 1.27357E+00
 -1      3531 6.02941E+01 1.26440E+00 1.27357E+00
 -1      3532 5.91558E+01 2.88515E+00 1.61692E+00
 -1      3533 6.06264E+01 2.88384E+00 1.61692E+00
 -1      3534 6.06264E+01 1.61944E+00 2.89048E+00
 -1      3535 3.62188E+00 7.22649E+00 8.51365E+00
 -1      3536 3.62487E+00 8.51365E+00 7.22553E+00
 -1      3537 4.27153E+00 8.71284E+00 8.71188E+00
 -1      3538 5.95411E+00 7.02125E+00 8.31198E+00
 -1      3539 5.95710E+00 8.30840E+00 7.02386E+00
 -1      3540 1.70823E+01 3.14547E+00 5.09858E+00
 -1      3541 9.84700E+01 2.63463E+00 5.44816E+00
 -1      3542 9.74319E+01 1.51699E+00 6.57236E+00
 -1      3543 6.97965E+01 6.04042E+00 8.54042E+00
 -1      3544 6.87309E+01 5.00000E+00 7.08085E+00
 -1      3545 7.05318E+01 6.79067E+00 6.79067E+00
 -1      3546 6.99094E+01 1.45958E+00 3.95958E+00
 -1      3547 7.06447E+01 3.20933E+00 3.20933E+00
 -1      3548 6.88438E+01 2.91915E+00 5.00000E+00
 -1      3549 1.70824E+01 4.90942E+00 6.86072E+00
 -1      3550 1.02779E+01 8.74359E+00 1.26956E+00
 -1      3551 9.74724E+01 8.52922E+00 6.60072E+00
 -1      3552 9.85106E+01 7.37692E+00 5.48256E+00
 -1      3553 1.32308E+01 1.26430E+00 1.26324E+00
 -1      3554 1.47036E+01 1.26430E+00 1.26629E+00
 -1      3555 1.28973E+01 2.88187E+00 1.61694E+00
 -1      3556 1.43667E+01 1.61757E+00 2.88322E+00
 -1      3557 1.28938E+01 1.61757E+00 2.88017E+00
 -1      3558 2.75890E+01 6.63564E+00 5.13152E+00
 -1      3559 1.23161E+01 3.14636E+00 5.09849E+00
 -1      3560 2.24121E+01 6.64023E+00 4.86138E+00
 -1      3561 2.24119E+01 5.14071E+00 3.35889E+00
 -1      3562 6.58239E+01 4.86087E+00 6.63962E+00
 -1      3563 7.82937E+01 5.13913E+00 6.63962E+00
 -1      3564 7.82937E+01 6.63962E+00 5.13913E+00
 -1      3565 7.82937E+01 4.86087E+00 3.36038E+00
 -1      3566 7.82937E+01 3.36038E+00 4.86087E+00
 -1      3567 6.58239E+01 3.36038E+00 5.13913E+00
 -1      3568 5.18229E+01 5.13923E+00 3.36045E+00
 -1      3569 5.18229E+01 3.36045E+00 5.13923E+00
 -1      3570 5.18234E+01 6.63973E+00 4.86095E+00
 -1      3571 5.18234E+01 4.86095E+00 6.63973E+00
 -1      3572 2.75881E+01 5.13893E+00 6.63976E+00
 -1      3573 2.75823E+01 3.35849E+00 4.85723E+00
 -1      3574 3.41761E+01 4.86087E+00 6.63962E+00
 -1      3575 3.41770E+01 6.64062E+00 4.86176E+00
 -1      3576 3.41761E+01 3.36185E+00 5.13613E+00
 -1      3577 2.75831E+01 4.85520E+00 3.34899E+00
 -1      3578 4.18391E+01 1.45805E+00 6.05561E+00
 -1      3579 4.11133E+01 3.20244E+00 6.79756E+00
 -1      3580 4.29183E+01 2.91660E+00 5.00397E+00
 -1      3581 4.18391E+01 3.94439E+00 8.54195E+00
 -1      3582 4.29138E+01 5.00050E+00 7.08120E+00
 -1      3583 3.41770E+01 5.14159E+00 3.35826E+00
 -1      3584 1.08253E+00 6.32905E+00 9.88383E-01
 -1      3585 1.51523E+00 6.67782E+00 2.52459E+00
 -1      3586 9.26593E+01 8.73339E+00 1.26661E+00
 -1      3587 9.41925E+01 8.71192E+00 1.26661E+00
 -1      3588 9.25443E+01 8.45779E+00 3.30575E+00
 -1      3589 9.25443E+01 7.19117E+00 2.03914E+00
 -1      3590 6.87873E+01 3.95958E+00 6.04042E+00
 -1      3591 7.05882E+01 5.75025E+00 5.75025E+00
 -1      3592 6.90612E+01 6.04042E+00 6.04042E+00
 -1      3593 8.08824E+01 1.27357E+00 8.72643E+00
 -1      3594 9.89619E+01 9.09248E+00 6.24538E+00
 -1      3595 9.85106E+01 7.62170E+00 6.66741E+00
 -1      3596 9.31955E+01 8.45779E+00 4.55324E+00
 -1      3597 9.89619E+01 3.70577E+00 9.02678E+00
 -1      3598 9.84700E+01 3.31210E+00 7.50979E+00
 -1      3599 1.55709E+01 5.53120E+00 4.47189E+00
 -1      3600 1.57699E+01 3.84366E+00 4.39327E+00
 -1      3601 1.36297E+01 3.84421E+00 4.39074E+00
 -1      3602 1.02849E+01 8.74359E+00 8.72643E+00
 -1      3603 8.76295E+01 8.30198E+00 4.19802E+00
 -1      3604 1.38193E+01 5.53447E+00 4.46590E+00
 -1      3605 5.77580E+01 8.38794E+00 5.86556E+00
 -1      3606 5.86287E+01 6.72551E+00 5.13099E+00
 -1      3607 5.96942E+01 8.33757E+00 4.26543E+00
 -1      3608 5.99712E+01 8.41512E+00 5.90864E+00
 -1      3609 6.08419E+01 6.75269E+00 5.17407E+00
 -1      3610 5.89057E+01 6.80306E+00 6.77420E+00
 -1      3611 8.61581E+01 5.52441E+00 4.47559E+00
 -1      3612 8.63600E+01 3.84087E+00 4.39600E+00
 -1      3613 8.42248E+01 3.84072E+00 4.39585E+00
 -1      3614 8.63600E+01 5.60400E+00 6.15913E+00
 -1      3615 8.42248E+01 5.60415E+00 6.15928E+00
 -1      3616 1.36268E+01 5.60695E+00 6.15786E+00
 -1      3617 7.05882E+01 4.24975E+00 4.24975E+00
 -1      3618 6.91741E+01 3.95958E+00 3.95958E+00
 -1      3619 5.73129E+01 8.74956E+00 8.72643E+00
 -1      3620 5.87835E+01 8.74956E+00 8.72643E+00
 -1      3621 5.69826E+01 7.13750E+00 8.36556E+00
 -1      3622 5.84933E+01 8.38794E+00 7.09199E+00
 -1      3623 5.70227E+01 8.38794E+00 7.09199E+00
 -1      3624 4.11612E+01 4.24439E+00 5.75561E+00
 -1      3625 4.25788E+01 3.95805E+00 6.04195E+00
 -1      3626 1.03815E+00 9.02678E+00 3.70577E+00
 -1      3627 1.51523E+00 7.50055E+00 3.33132E+00
 -1      3628 1.62040E+01 8.72643E+00 8.74871E+00
 -1      3629 1.47326E+01 8.73591E+00 8.74871E+00
 -1      3630 1.65363E+01 8.38096E+00 7.13032E+00
 -1      3631 1.50374E+01 7.11687E+00 8.38161E+00
 -1      3632 1.65088E+01 7.10739E+00 8.38161E+00
 -1      3633 8.44098E+01 5.53118E+00 4.46882E+00
 -1      3634 1.57701E+01 5.60761E+00 6.15542E+00
 -1      3635 7.09408E+01 4.11063E+00 5.88937E+00
 -1      3636 9.89619E+01 9.88383E-01 6.29339E+00
 -1      3637 9.84700E+01 2.50537E+00 6.68706E+00
 -1      3638 4.08159E+01 4.10946E+00 4.11355E+00
 -1      3639 5.68915E+01 6.68849E+00 5.06056E+00
 -1      3640 4.08168E+01 5.89187E+00 5.88736E+00
 -1      3641 1.32048E+01 8.73591E+00 8.74889E+00
 -1      3642 1.50085E+01 8.38096E+00 7.13050E+00
 -1      3643 1.28941E+01 7.11621E+00 8.38405E+00
 -1      3644 1.28652E+01 8.38030E+00 7.13294E+00
 -1      3645 5.98911E+01 3.84262E+00 4.39428E+00
 -1      3646 5.79571E+01 5.52373E+00 4.47237E+00
 -1      3647 5.77559E+01 3.84249E+00 4.39451E+00
 -1      3648 5.79750E+00 8.73837E+00 1.29177E+00
 -1      3649 7.65513E+00 7.12945E+00 1.64182E+00
 -1      3650 1.54945E+00 3.55289E+00 4.01362E+00
 -1      3651 8.97059E+01 1.27357E+00 8.72643E+00
 -1      3652 9.10680E+01 3.30298E+00 8.45721E+00
 -1      3653 8.88131E+01 2.79488E+00 8.47869E+00
 -1      3654 6.03342E+01 8.74956E+00 8.72643E+00
 -1      3655 5.85333E+01 7.13750E+00 8.36556E+00
 -1      3656 6.07065E+01 8.41512E+00 7.13508E+00
 -1      3657 6.07465E+01 7.16467E+00 8.40864E+00
 -1      3658 9.26167E+01 1.24909E+00 8.75091E+00
 -1      3659 9.41641E+01 1.24909E+00 8.71230E+00
 -1      3660 9.25234E+01 2.02941E+00 7.20812E+00
 -1      3661 9.25234E+01 3.27850E+00 8.45721E+00
 -1      3662 7.81919E+00 6.69948E+00 4.95380E+00
 -1      3663 1.54945E+00 3.49424E+00 2.64660E+00
 -1      3664 2.58564E+00 3.43783E+00 1.52896E+00
 -1      3665 5.79571E+01 8.30055E+00 4.19501E+00
 -1      3666 7.81752E+00 4.93873E+00 6.69863E+00
 -1      3667 9.31960E+01 4.51531E+00 8.45721E+00
 -1      3668 9.32559E+01 5.40095E+00 7.19281E+00
 -1      3669 7.33226E+00 8.73837E+00 1.27357E+00
 -1      3670 7.67582E+00 8.39108E+00 2.91539E+00
 -1      3671 5.81057E+00 1.28649E+00 8.73321E+00
 -1      3672 7.66830E+00 1.63033E+00 7.11986E+00
 -1      3673 5.96942E+01 5.56075E+00 4.54279E+00
 -1      3674 6.08729E+01 2.78634E+00 8.47988E+00
 -1      3675 6.01376E+01 4.02681E+00 8.47988E+00
 -1      3676 5.76206E+01 3.87518E+00 8.58732E+00
 -1      3677 7.35016E+00 1.24431E+00 8.73321E+00
 -1      3678 7.67721E+00 2.87464E+00 8.38665E+00
 -1      3679 8.38235E+01 8.72643E+00 1.27357E+00
 -1      3680 8.52941E+01 8.72643E+00 1.27357E+00
 -1      3681 8.68942E+01 8.30198E+00 2.97159E+00
 -1      3682 8.54237E+01 7.02841E+00 1.69802E+00
 -1      3683 8.54237E+01 8.30198E+00 2.97159E+00
 -1      3684 8.67647E+01 8.72643E+00 1.27357E+00
 -1      3685 8.68942E+01 7.02841E+00 1.69802E+00
 -1      3686 8.36753E+01 7.03518E+00 1.69126E+00
 -1      3687 8.36753E+01 8.30874E+00 2.96482E+00
 -1      3688 5.88235E+01 2.22318E+00 5.27736E+00
 -1      3689 6.01376E+01 1.52194E+00 5.97988E+00
 -1      3690 8.52933E+01 2.22243E+00 5.27757E+00
 -1      3691 8.39792E+01 1.52102E+00 5.97898E+00
 -1      3692 8.52933E+01 4.72243E+00 7.77757E+00
 -1      3693 8.39792E+01 4.02102E+00 8.47898E+00
 -1      3694 1.47023E+01 4.72668E+00 7.77381E+00
 -1      3695 1.33887E+01 4.02883E+00 8.48155E+00
 -1      3696 1.46991E+01 2.22665E+00 5.27794E+00
 -1      3697 1.33855E+01 1.52879E+00 5.98569E+00
 -1      3698 9.62921E+01 1.56950E+00 2.83935E+00
 -1      3699 9.62851E+01 2.85720E+00 1.55127E+00
 -1      3700 9.57186E+01 1.28770E+00 1.28808E+00
 -1      3701 9.41451E+01 1.73517E+00 3.01727E+00
 -1      3702 9.41381E+01 3.02288E+00 1.72919E+00
 -1      3703 1.32305E+01 8.73591E+00 1.26324E+00
 -1      3704 1.48382E+01 7.04046E+00 1.69808E+00
 -1      3705 1.48350E+01 8.30455E+00 2.96131E+00
 -1      3706 1.30834E+01 8.30782E+00 2.95533E+00
 -1      3707 1.30866E+01 7.04373E+00 1.69210E+00
 -1      3708 1.47033E+01 8.73591E+00 1.26629E+00
 -1      3709 1.63079E+01 8.30455E+00 2.96436E+00
 -1      3710 1.61747E+01 8.72643E+00 1.26629E+00
 -1      3711 1.63096E+01 7.03099E+00 1.69808E+00
 -1      3712 2.05882E+01 8.72643E+00 8.72643E+00
 -1      3713 2.20589E+01 6.97666E+00 8.25022E+00
 -1      3714 2.20588E+01 8.72643E+00 8.72643E+00
 -1      3715 2.20589E+01 8.25022E+00 6.97666E+00
 -1      3716 7.94118E+01 1.27357E+00 8.72643E+00
 -1      3717 7.79412E+01 1.74975E+00 6.97668E+00
 -1      3718 7.79412E+01 1.27357E+00 8.72643E+00
 -1      3719 7.79412E+01 3.02332E+00 8.25025E+00
 -1      3720 7.94118E+01 8.72643E+00 1.27357E+00
 -1      3721 7.79412E+01 8.25025E+00 3.02332E+00
 -1      3722 7.64706E+01 1.27357E+00 8.72643E+00
 -1      3723 7.79412E+01 8.72643E+00 1.27357E+00
 -1      3724 7.79412E+01 6.97668E+00 1.74975E+00
 -1      3725 7.64706E+01 8.72643E+00 1.27357E+00
 -1      3726 6.47059E+01 8.72643E+00 8.72643E+00
 -1      3727 6.61765E+01 6.97668E+00 8.25025E+00
 -1      3728 6.61765E+01 8.72643E+00 8.72643E+00
 -1      3729 6.61765E+01 8.25025E+00 6.97668E+00
 -1      3730 6.47059E+01 1.27357E+00 1.27357E+00
 -1      3731 6.61765E+01 1.74975E+00 3.02332E+00
 -1      3732 6.61765E+01 1.27357E+00 1.27357E+00
 -1      3733 6.61765E+01 3.02332E+00 1.74975E+00
 -1      3734 2.35294E+01 8.72643E+00 8.72643E+00
 -1      3735 3.38235E+01 8.72643E+00 8.72643E+00
 -1      3736 3.52941E+01 8.72643E+00 8.72643E+00
 -1      3737 3.38235E+01 6.97668E+00 8.25025E+00
 -1      3738 3.38235E+01 8.25025E+00 6.97668E+00
 -1      3739 5.29412E+01 8.72643E+00 8.72643E+00
 -1      3740 5.14708E+01 8.25034E+00 6.97678E+00
 -1      3741 5.14706E+01 8.72643E+00 8.72643E+00
 -1      3742 5.14708E+01 6.97678E+00 8.25034E+00
 -1      3743 5.29412E+01 1.26914E+00 1.27357E+00
 -1      3744 5.14704E+01 1.74984E+00 3.02341E+00
 -1      3745 2.64706E+01 1.27357E+00 8.72643E+00
 -1      3746 2.79408E+01 1.74959E+00 6.97685E+00
 -1      3747 2.79412E+01 1.27357E+00 8.72643E+00
 -1      3748 2.79408E+01 3.02315E+00 8.25041E+00
 -1      3749 5.14706E+01 1.27357E+00 1.27357E+00
 -1      3750 5.14704E+01 3.02341E+00 1.74984E+00
 -1      3751 2.35294E+01 1.26421E+00 1.27357E+00
 -1      3752 2.20588E+01 1.75070E+00 3.02130E+00
 -1      3753 2.20588E+01 1.26571E+00 1.27357E+00
 -1      3754 2.20588E+01 3.01641E+00 1.74773E+00
 -1      3755 2.05882E+01 1.26571E+00 1.26916E+00
 -1      3756 5.00000E+01 1.27357E+00 1.27357E+00
 -1      3757 5.00000E+01 8.72643E+00 8.72643E+00
 -1      3758 3.52941E+01 1.27357E+00 1.27357E+00
 -1      3759 3.38235E+01 1.75122E+00 3.02032E+00
 -1      3760 2.79387E+01 8.75611E+00 1.27357E+00
 -1      3761 2.64681E+01 8.75611E+00 1.27357E+00
 -1      3762 2.79392E+01 7.00239E+00 1.74218E+00
 -1      3763 2.79416E+01 8.24629E+00 3.01574E+00
 -1      3764 3.82329E+01 1.27357E+00 8.75228E+00
 -1      3765 3.97010E+01 1.24772E+00 8.75228E+00
 -1      3766 3.96984E+01 1.74439E+00 7.00788E+00
 -1      3767 3.96984E+01 2.99212E+00 8.25561E+00
 -1      3768 3.38169E+01 1.26186E+00 1.27357E+00
 -1      3769 3.38169E+01 3.01308E+00 1.74676E+00
 -1      3770 4.11746E+01 8.74613E+00 1.26971E+00
 -1      3771 3.97056E+01 6.99803E+00 1.74374E+00
 -1      3772 3.82342E+01 8.74871E+00 1.26507E+00
 -1      3773 3.96997E+01 8.25190E+00 3.00881E+00
 -1      3774 5.77580E+01 5.61113E+00 6.14292E+00
 -1      3775 5.99712E+01 5.63830E+00 6.18600E+00
 -1      3776 3.97095E+01 8.74613E+00 1.26507E+00
 -1      3777 7.24114E+01 2.88419E+00 8.38937E+00
 -1      3778 7.24114E+01 1.61063E+00 7.11581E+00
 -1      3779 7.20588E+01 1.27357E+00 8.72643E+00
 -1      3780 7.02579E+01 2.73314E+00 8.54042E+00
 -1      3781 7.02579E+01 1.45958E+00 7.26686E+00
 -1      3782 4.41144E+01 8.75379E+00 1.26122E+00
 -1      3783 4.55754E+01 8.24807E+00 3.00780E+00
 -1      3784 9.11826E+01 8.73339E+00 1.27357E+00
 -1      3785 4.55829E+01 8.75228E+00 1.26122E+00
 -1      3786 4.55856E+01 7.00035E+00 1.74659E+00
 -1      3787 5.79305E+00 8.73837E+00 8.71188E+00
 -1      3788 7.47563E+00 7.04678E+00 8.31198E+00
 -1      3789 3.68939E+00 2.81559E+00 1.52896E+00
 -1      3790 3.69115E+00 1.52910E+00 2.82073E+00
 -1      3791 4.28165E+00 1.28649E+00 1.29177E+00
 -1      3792 5.85280E+00 3.02243E+00 1.72507E+00
 -1      3793 5.85457E+00 1.73594E+00 3.01684E+00
 -1      3794 3.93553E+01 7.12681E+00 8.38736E+00
 -1      3795 3.93539E+01 8.39187E+00 7.13963E+00
 -1      3796 3.97023E+01 8.73493E+00 8.75228E+00
 -1      3797 4.15001E+01 7.27739E+00 8.53925E+00
 -1      3798 4.14988E+01 8.54246E+00 7.29152E+00
 -1      3799 3.93633E+01 2.87068E+00 1.61355E+00
 -1      3800 3.93544E+01 1.60946E+00 2.87862E+00
 -1      3801 3.97126E+01 1.26122E+00 1.26507E+00
 -1      3802 4.15136E+01 2.71977E+00 1.46202E+00
 -1      3803 4.15047E+01 1.45856E+00 2.72709E+00
 -1      3804 9.11613E+01 1.27357E+00 8.75091E+00
 -1      3805 7.20588E+01 3.02332E+00 1.74975E+00
 -1      3806 7.20588E+01 1.74975E+00 3.02332E+00
 -1      3807 7.20588E+01 1.27357E+00 1.27357E+00
 -1      3808 7.38597E+01 2.73314E+00 1.45958E+00
 -1      3809 7.38597E+01 1.45958E+00 2.73314E+00
 -1      3810 7.38597E+01 3.20933E+00 3.20933E+00
 -1      3811 7.20588E+01 6.97668E+00 8.25025E+00
 -1      3812 7.20588E+01 8.25025E+00 6.97668E+00
 -1      3813 7.20588E+01 8.72643E+00 8.72643E+00
 -1      3814 7.38597E+01 7.26686E+00 8.54042E+00
 -1      3815 7.38597E+01 8.54042E+00 7.26686E+00
 -1      3816 7.38597E+01 6.79067E+00 6.79067E+00
 -1      3817 5.70206E+01 2.88501E+00 1.61714E+00
 -1      3818 5.98911E+01 1.61944E+00 4.11692E+00
 -1      3819 5.77559E+01 1.61930E+00 4.11714E+00
 -1      3820 5.84912E+01 1.61930E+00 2.89071E+00
 -1      3821 5.70206E+01 1.61930E+00 2.89071E+00
 -1      3822 7.32642E+00 8.73837E+00 8.73321E+00
 -1      3823 7.49047E+00 8.30840E+00 7.04519E+00
 -1      3824 2.97426E+01 1.45912E+00 7.26731E+00
 -1      3825 2.97426E+01 2.73269E+00 8.54088E+00
 -1      3826 2.97422E+01 3.20871E+00 6.79129E+00
 -1      3827 3.20225E+01 8.54042E+00 7.26686E+00
 -1      3828 3.20225E+01 7.26686E+00 8.54042E+00
 -1      3829 3.20225E+01 6.79067E+00 6.79067E+00
 -1      3830 8.63608E+01 1.61844E+00 4.11844E+00
 -1      3831 8.42257E+01 1.61828E+00 4.11828E+00
 -1      3832 8.63608E+01 5.88156E+00 8.38156E+00
 -1      3833 8.42257E+01 5.88172E+00 8.38172E+00
 -1      3834 1.65087E+01 2.89058E+00 1.61947E+00
 -1      3835 1.43684E+01 2.89113E+00 1.61694E+00
 -1      3836 1.57700E+01 1.61701E+00 4.12360E+00
 -1      3837 1.65069E+01 1.61701E+00 2.88575E+00
 -1      3838 1.36297E+01 1.61757E+00 4.12107E+00
 -1      3839 7.05882E+01 1.27357E+00 8.72643E+00
 -1      3840 6.91176E+01 1.27357E+00 8.72643E+00
 -1      3841 6.87873E+01 2.73314E+00 8.54042E+00
 -1      3842 6.87873E+01 1.45958E+00 7.26686E+00
 -1      3843 7.50000E+01 8.72643E+00 8.72643E+00
 -1      3844 7.35294E+01 8.72643E+00 8.72643E+00
 -1      3845 7.53303E+01 8.54042E+00 7.26686E+00
 -1      3846 7.53303E+01 7.26686E+00 8.54042E+00
 -1      3847 7.35294E+01 1.27357E+00 1.27357E+00
 -1      3848 7.53303E+01 2.73314E+00 1.45958E+00
 -1      3849 7.50000E+01 1.27357E+00 1.27357E+00
 -1      3850 7.53303E+01 1.45958E+00 2.73314E+00
 -1      3851 3.08824E+01 8.72643E+00 8.72643E+00
 -1      3852 3.23529E+01 8.72643E+00 8.72643E+00
 -1      3853 3.05519E+01 8.54042E+00 7.26686E+00
 -1      3854 3.05519E+01 7.26686E+00 8.54042E+00
 -1      3855 2.94118E+01 1.27357E+00 8.72643E+00
 -1      3856 3.08824E+01 1.27357E+00 8.72643E+00
 -1      3857 3.12132E+01 1.45912E+00 7.26731E+00
 -1      3858 3.12132E+01 2.73269E+00 8.54088E+00
 -1      3859 2.97414E+01 8.53812E+00 2.72983E+00
 -1      3860 2.97390E+01 7.29423E+00 1.45626E+00
 -1      3861 2.97419E+01 6.78441E+00 3.19844E+00
 -1      3862 3.20180E+01 1.45926E+00 2.73379E+00
 -1      3863 3.20114E+01 2.72112E+00 1.46022E+00
 -1      3864 3.20180E+01 3.21048E+00 3.20698E+00
 -1      3865 2.94072E+01 8.75428E+00 1.27357E+00
 -1      3866 3.12075E+01 7.29240E+00 1.45626E+00
 -1      3867 3.23463E+01 1.26186E+00 1.27357E+00
 -1      3868 3.05475E+01 1.45926E+00 2.73379E+00
 -1      3869 4.73814E+01 8.54042E+00 2.72079E+00
 -1      3870 4.73916E+01 7.29270E+00 1.45958E+00
 -1      3871 4.73841E+01 6.78849E+00 3.20617E+00
 -1      3872 4.85294E+01 8.72643E+00 1.27357E+00
 -1      3873 4.70510E+01 8.72643E+00 1.26122E+00
 -1      3874 4.88598E+01 7.26686E+00 1.45958E+00
 -1      3875 4.88598E+01 8.54042E+00 2.73314E+00
 -1      3876 3.08778E+01 8.75428E+00 1.27357E+00
 -1      3877 3.12120E+01 8.53812E+00 2.72983E+00
 -1      3878 4.55784E+01 1.74920E+00 6.99693E+00
 -1      3879 4.55784E+01 3.00307E+00 8.25080E+00
 -1      3880 4.55787E+01 1.25387E+00 8.74613E+00
 -1      3881 4.73839E+01 1.45905E+00 7.28708E+00
 -1      3882 4.73839E+01 2.71292E+00 8.54095E+00
 -1      3883 4.73836E+01 3.20824E+00 6.79176E+00
 -1      3884 4.11708E+01 8.73493E+00 8.75379E+00
 -1      3885 4.29673E+01 8.54246E+00 7.29304E+00
 -1      3886 1.57733E+01 5.88099E+00 8.38161E+00
 -1      3887 5.77580E+01 5.89281E+00 8.36556E+00
 -1      3888 5.99712E+01 5.91998E+00 8.40864E+00
 -1      3889 4.26358E+01 8.73029E+00 8.75379E+00
 -1      3890 4.29652E+01 7.27274E+00 8.53925E+00
 -1      3891 4.11776E+01 1.26122E+00 1.26971E+00
 -1      3892 4.29697E+01 1.45856E+00 2.73173E+00
 -1      3893 4.85286E+01 1.26388E+00 8.73612E+00
 -1      3894 4.70536E+01 1.25387E+00 8.73612E+00
 -1      3895 4.88588E+01 1.45905E+00 7.27708E+00
 -1      3896 4.88588E+01 2.72292E+00 8.54095E+00
 -1      3897 3.08746E+01 1.26645E+00 1.27357E+00
 -1      3898 3.05397E+01 2.72571E+00 1.46022E+00
 -1      3899 7.24114E+01 6.63962E+00 4.86087E+00
 -1      3900 7.27941E+01 8.25025E+00 5.75025E+00
 -1      3901 7.27941E+01 5.75025E+00 8.25025E+00
 -1      3902 7.27941E+01 1.74975E+00 4.24975E+00
 -1      3903 7.24114E+01 5.13913E+00 3.36038E+00
 -1      3904 7.27941E+01 4.24975E+00 1.74975E+00
 -1      3905 1.36300E+01 5.88034E+00 8.38405E+00
 -1      3906 5.88636E+01 8.74956E+00 1.27357E+00
 -1      3907 5.73129E+01 8.74956E+00 1.27357E+00
 -1      3908 5.71817E+01 7.05010E+00 1.69501E+00
 -1      3909 5.72218E+01 8.30055E+00 2.96857E+00
 -1      3910 5.87324E+01 7.05010E+00 1.69501E+00
 -1      3911 6.43533E+01 1.61063E+00 7.11581E+00
 -1      3912 6.23435E+01 1.52194E+00 7.20631E+00
 -1      3913 1.70449E+01 5.80454E+00 1.69808E+00
 -1      3914 1.81098E+01 6.84326E+00 3.15348E+00
 -1      3915 5.32938E+01 1.61061E+00 7.11582E+00
 -1      3916 5.54148E+01 1.37032E+00 7.31375E+00
 -1      3917 4.59361E+01 4.85592E+00 3.35767E+00
 -1      3918 4.63184E+01 5.74806E+00 1.74659E+00
 -1      3919 6.43533E+01 2.88419E+00 8.38937E+00
 -1      3920 6.23435E+01 2.79551E+00 8.47988E+00
 -1      3921 4.59318E+01 5.14055E+00 6.63906E+00
 -1      3922 4.63153E+01 4.24457E+00 8.25080E+00
 -1      3923 5.32938E+01 2.87975E+00 8.38939E+00
 -1      3924 5.54148E+01 2.63945E+00 8.58732E+00
 -1      3925 4.26471E+01 1.26971E+00 1.26971E+00
 -1      3926 4.29830E+01 2.72827E+00 1.46202E+00
 -1      3927 4.59318E+01 6.63943E+00 5.13484E+00
 -1      3928 4.63153E+01 8.24807E+00 4.25121E+00
 -1      3929 1.70449E+01 8.30455E+00 4.19807E+00
 -1      3930 6.11648E+01 5.83756E+00 1.76543E+00
 -1      3931 6.22304E+01 6.87799E+00 3.22500E+00
 -1      3932 4.59361E+01 3.35705E+00 4.86188E+00
 -1      3933 4.63153E+01 1.74920E+00 5.75543E+00
 -1      3934 5.81642E+00 1.28649E+00 1.27357E+00
 -1      3935 7.38933E+00 1.73594E+00 2.99863E+00
 -1      3936 9.41855E+01 1.28770E+00 1.26661E+00
 -1      3937 9.26120E+01 1.73517E+00 2.99580E+00
 -1      3938 7.35600E+00 1.24431E+00 1.27357E+00
 -1      3939 7.39239E+00 2.98025E+00 1.72507E+00
 -1      3940 9.14474E+00 1.63033E+00 7.11308E+00
 -1      3941 1.11830E+01 1.52879E+00 7.20799E+00
 -1      3942 9.26380E+01 1.24909E+00 1.26661E+00
 -1      3943 9.25907E+01 2.98426E+00 1.72919E+00
 -1      3944 3.04767E+01 8.53812E+00 3.95626E+00
 -1      3945 2.86769E+01 8.24629E+00 4.24218E+00
 -1      3946 2.90818E+01 6.78671E+00 5.28260E+00
 -1      3947 2.98167E+01 8.54042E+00 6.04042E+00
 -1      3948 3.08816E+01 7.07854E+00 4.99669E+00
 -1      3949 8.08824E+01 1.27357E+00 1.27357E+00
 -1      3950 8.08824E+01 8.72643E+00 8.72643E+00
 -1      3951 3.19473E+01 8.53812E+00 3.95626E+00
 -1      3952 3.26826E+01 6.78837E+00 4.70651E+00
 -1      3953 3.30882E+01 8.25025E+00 5.75025E+00
 -1      3954 3.12872E+01 8.54042E+00 6.04042E+00
 -1      3955 3.12828E+01 1.45926E+00 3.96022E+00
 -1      3956 3.30882E+01 1.75122E+00 4.24676E+00
 -1      3957 3.26838E+01 3.21034E+00 5.28764E+00
 -1      3958 3.19485E+01 1.45912E+00 6.04088E+00
 -1      3959 3.08783E+01 2.91838E+00 5.00110E+00
 -1      3960 2.86761E+01 4.24959E+00 8.25041E+00
 -1      3961 2.90809E+01 5.29001E+00 6.79084E+00
 -1      3962 2.98167E+01 6.04042E+00 8.54042E+00
 -1      3963 3.04779E+01 3.95912E+00 8.54088E+00
 -1      3964 3.08828E+01 4.99954E+00 7.08130E+00
 -1      3965 3.12872E+01 6.04042E+00 8.54042E+00
 -1      3966 3.30882E+01 5.75025E+00 8.25025E+00
 -1      3967 3.19485E+01 3.95912E+00 8.54088E+00
 -1      3968 3.26838E+01 4.70937E+00 6.79113E+00
 -1      3969 2.98122E+01 1.45926E+00 3.96022E+00
 -1      3970 2.90765E+01 3.20884E+00 4.71064E+00
 -1      3971 2.86761E+01 1.74959E+00 5.75041E+00
 -1      3972 3.04779E+01 1.45912E+00 6.04088E+00
 -1      3973 9.13869E+00 2.88918E+00 8.38665E+00
 -1      3974 1.11770E+01 2.78764E+00 8.48155E+00
 -1      3975 3.30826E+01 4.26142E+00 1.74676E+00
 -1      3976 3.26826E+01 5.28934E+00 3.20302E+00
 -1      3977 3.19417E+01 6.04832E+00 1.45626E+00
 -1      3978 3.12771E+01 3.96946E+00 1.46022E+00
 -1      3979 3.08771E+01 4.99738E+00 2.91649E+00
 -1      3980 5.76206E+01 1.37032E+00 6.08732E+00
 -1      3981 8.66072E+01 1.52131E+00 5.97869E+00
 -1      3982 8.66072E+01 4.02131E+00 8.47869E+00
 -1      3983 8.76740E+01 4.90288E+00 6.86025E+00
 -1      3984 3.04621E+01 6.05134E+00 1.45626E+00
 -1      3985 2.86622E+01 5.75950E+00 1.74218E+00
 -1      3986 2.97975E+01 3.97247E+00 1.46022E+00
 -1      3987 2.90773E+01 4.70555E+00 3.20240E+00
 -1      3988 9.11613E+01 1.24909E+00 1.27357E+00
 -1      3989 8.81966E+00 1.24431E+00 1.26956E+00
 -1      3990 8.82353E+01 8.72643E+00 1.27357E+00
 -1      3991 1.60114E+01 1.52846E+00 5.98324E+00
 -1      3992 1.76470E+01 8.72643E+00 1.26916E+00
 -1      3993 1.77801E+01 8.30455E+00 2.96724E+00
 -1      3994 1.91053E+01 8.74773E+00 1.26916E+00
 -1      3995 1.77680E+01 7.05228E+00 1.69808E+00
 -1      3996 8.23529E+01 8.72643E+00 1.27357E+00
 -1      3997 6.11648E+01 8.33757E+00 4.26543E+00
 -1      3998 9.32554E+01 6.82932E+00 5.77473E+00
 -1      3999 1.60146E+01 4.02849E+00 8.47911E+00
 -1      4000 6.32353E+01 8.72643E+00 1.27357E+00
 -1      4001 6.19001E+01 8.33757E+00 3.03899E+00
 -1      4002 6.19001E+01 7.06400E+00 1.76543E+00
 -1      4003 6.35656E+01 7.26686E+00 1.45958E+00
 -1      4004 6.35656E+01 8.54042E+00 2.73314E+00
 -1      4005 1.17514E+01 8.74359E+00 1.26324E+00
 -1      4006 1.77802E+01 5.80455E+00 4.19808E+00
 -1      4007 1.54945E+00 4.52930E+00 3.56075E+00
 -1      4008 6.87349E+01 6.06121E+00 1.43879E+00
 -1      4009 6.83521E+01 6.95059E+00 3.04941E+00
 -1      4010 6.72643E+01 5.88937E+00 1.61063E+00
 -1      4011 6.84388E+01 3.95958E+00 1.45958E+00
 -1      4012 6.80561E+01 4.84895E+00 3.07020E+00
 -1      4013 6.95266E+01 5.02079E+00 2.89836E+00
 -1      4014 9.63664E+01 8.52922E+00 7.22368E+00
 -1      4015 9.48966E+01 8.37153E+00 7.44789E+00
 -1      4016 7.35294E+01 5.75025E+00 5.75025E+00
 -1      4017 7.35294E+01 4.24975E+00 4.24975E+00
 -1      4018 6.19001E+01 5.83757E+00 4.26543E+00
 -1      4019 4.70537E+01 4.24965E+00 5.75126E+00
 -1      4020 4.70537E+01 5.74853E+00 4.24705E+00
 -1      4021 6.18048E+01 8.74956E+00 1.27357E+00
 -1      4022 6.04695E+01 7.08713E+00 1.76543E+00
 -1      4023 1.94472E+01 8.53871E+00 2.72456E+00
 -1      4024 1.94351E+01 7.28644E+00 1.45540E+00
 -1      4025 6.72643E+01 8.38937E+00 4.11063E+00
 -1      4026 6.87349E+01 8.56121E+00 3.93879E+00
 -1      4027 6.83259E+01 8.54042E+00 6.04042E+00
 -1      4028 6.94137E+01 7.10164E+00 4.97921E+00
 -1      4029 6.79431E+01 6.92980E+00 5.15105E+00
 -1      4030 6.03342E+01 8.74956E+00 1.27357E+00
 -1      4031 6.04295E+01 8.33757E+00 3.03899E+00
 -1      4032 8.78314E+01 5.88156E+00 8.38156E+00
 -1      4033 5.58423E+01 8.74956E+00 1.27357E+00
 -1      4034 8.80842E+00 8.74359E+00 8.73321E+00
 -1      4035 7.02055E+01 8.56121E+00 3.93879E+00
 -1      4036 7.09408E+01 6.81146E+00 4.68904E+00
 -1      4037 7.13235E+01 8.25025E+00 5.75025E+00
 -1      4038 6.97965E+01 8.54042E+00 6.04042E+00
 -1      4039 3.12120E+01 6.03730E+00 3.95708E+00
 -1      4040 2.94122E+01 5.74547E+00 4.24299E+00
 -1      4041 3.05519E+01 6.03961E+00 6.04124E+00
 -1      4042 3.05475E+01 3.95844E+00 3.96104E+00
 -1      4043 3.23529E+01 4.25040E+00 4.24757E+00
 -1      4044 3.12132E+01 3.95831E+00 6.04169E+00
 -1      4045 3.23529E+01 5.74943E+00 5.75106E+00
 -1      4046 2.94113E+01 4.24877E+00 5.75123E+00
 -1      4047 6.73167E+01 3.20933E+00 5.29017E+00
 -1      4048 6.80520E+01 1.45958E+00 6.04042E+00
 -1      4049 6.69118E+01 1.74975E+00 4.24975E+00
 -1      4050 6.77035E+01 3.20933E+00 3.20933E+00
 -1      4051 6.84388E+01 1.45958E+00 3.95958E+00
 -1      4052 5.73529E+01 1.26571E+00 1.27357E+00
 -1      4053 6.02941E+01 1.26440E+00 8.72643E+00
 -1      4054 4.37015E+01 6.03174E+00 8.53925E+00
 -1      4055 4.44373E+01 5.29165E+00 6.79005E+00
 -1      4056 4.48422E+01 4.23848E+00 8.25080E+00
 -1      4057 4.33187E+01 3.94733E+00 8.54195E+00
 -1      4058 4.40545E+01 3.20724E+00 6.79276E+00
 -1      4059 4.44419E+01 3.20775E+00 4.71282E+00
 -1      4060 4.37060E+01 1.45856E+00 3.97273E+00
 -1      4061 4.48422E+01 1.74920E+00 5.76152E+00
 -1      4062 4.33187E+01 1.45805E+00 6.05267E+00
 -1      4063 1.61747E+01 1.27357E+00 1.26629E+00
 -1      4064 7.02055E+01 6.06121E+00 1.43879E+00
 -1      4065 6.99094E+01 3.95958E+00 1.45958E+00
 -1      4066 7.13235E+01 4.24975E+00 1.74975E+00
 -1      4067 7.09408E+01 5.31096E+00 3.18854E+00
 -1      4068 6.65290E+01 5.13913E+00 3.36038E+00
 -1      4069 6.69118E+01 4.24975E+00 1.74975E+00
 -1      4070 5.89589E+01 8.33757E+00 3.03899E+00
 -1      4071 6.80520E+01 3.95958E+00 8.54042E+00
 -1      4072 6.73167E+01 4.70983E+00 6.79067E+00
 -1      4073 6.69118E+01 5.75025E+00 8.25025E+00
 -1      4074 6.83259E+01 6.04042E+00 8.54042E+00
 -1      4075 6.75906E+01 6.79067E+00 6.79067E+00
 -1      4076 7.05318E+01 7.26686E+00 8.54042E+00
 -1      4077 7.05318E+01 8.54042E+00 7.26686E+00
 -1      4078 6.97965E+01 8.54042E+00 8.54042E+00
 -1      4079 6.77035E+01 1.45958E+00 2.73314E+00
 -1      4080 6.77035E+01 2.73314E+00 1.45958E+00
 -1      4081 6.84388E+01 1.45958E+00 1.45958E+00
 -1      4082 8.85667E+01 8.38156E+00 7.10800E+00
 -1      4083 9.04211E+01 8.54010E+00 7.26653E+00
 -1      4084 8.85667E+01 7.10800E+00 8.38156E+00
 -1      4085 9.04211E+01 7.26653E+00 8.54010E+00
 -1      4086 6.90612E+01 8.54042E+00 7.26686E+00
 -1      4087 6.90612E+01 7.26686E+00 8.54042E+00
 -1      4088 6.91741E+01 1.45958E+00 2.73314E+00
 -1      4089 6.91741E+01 2.73314E+00 1.45958E+00
 -1      4090 6.13617E+01 1.61944E+00 1.61692E+00
 -1      4091 8.27551E+01 1.61828E+00 1.61828E+00
 -1      4092 8.27551E+01 8.38172E+00 8.38172E+00
 -1      4093 5.62853E+01 1.61930E+00 1.61714E+00
 -1      4094 8.78314E+01 1.61844E+00 1.61844E+00
 -1      4095 8.97059E+01 8.72643E+00 8.72643E+00
 -1      4096 8.78314E+01 8.38156E+00 8.38156E+00
 -1      4097 1.72439E+01 1.61701E+00 1.61947E+00
 -1      4098 4.40548E+01 1.45805E+00 7.28808E+00
 -1      4099 4.40548E+01 2.71192E+00 8.54195E+00
 -1      4100 4.33243E+01 1.45805E+00 8.54195E+00
 -1      4101 2.83238E+01 8.38935E+00 5.88935E+00
 -1      4102 2.87287E+01 6.92977E+00 6.92977E+00
 -1      4103 4.25844E+01 1.45805E+00 7.29575E+00
 -1      4104 4.25844E+01 2.70425E+00 8.54195E+00
 -1      4105 1.72441E+01 8.38096E+00 8.38161E+00
 -1      4106 1.21625E+01 1.61757E+00 1.61694E+00
 -1      4107 2.16767E+01 8.39001E+00 4.11116E+00
 -1      4108 2.12711E+01 6.92872E+00 3.06656E+00
 -1      4109 6.57937E+01 5.88937E+00 1.61063E+00
 -1      4110 6.53887E+01 6.92980E+00 3.07020E+00
 -1      4111 7.75584E+01 8.38937E+00 5.88937E+00
 -1      4112 7.71535E+01 6.92980E+00 6.92980E+00
 -1      4113 7.75584E+01 5.88937E+00 8.38937E+00
 -1      4114 7.75584E+01 1.61063E+00 4.11063E+00
 -1      4115 7.71535E+01 3.07020E+00 3.07020E+00
 -1      4116 7.75584E+01 4.11063E+00 1.61063E+00
 -1      4117 6.65592E+01 1.61063E+00 5.88937E+00
 -1      4118 6.69642E+01 3.07020E+00 6.92980E+00
 -1      4119 6.57937E+01 8.38937E+00 4.11063E+00
 -1      4120 6.65290E+01 6.63962E+00 4.86087E+00
 -1      4121 6.65592E+01 4.11063E+00 8.38937E+00
 -1      4122 3.34408E+01 1.61063E+00 5.88937E+00
 -1      4123 3.30363E+01 3.06975E+00 6.93025E+00
 -1      4124 3.34417E+01 8.39037E+00 4.11151E+00
 -1      4125 3.30361E+01 6.92849E+00 3.06777E+00
 -1      4126 6.94702E+01 6.06121E+00 3.93879E+00
 -1      4127 6.79996E+01 5.88937E+00 4.11063E+00
 -1      4128 2.83180E+01 1.60891E+00 4.10681E+00
 -1      4129 2.87184E+01 3.06817E+00 3.06704E+00
 -1      4130 2.83238E+01 5.88935E+00 8.38935E+00
 -1      4131 3.34408E+01 4.11063E+00 8.38937E+00
 -1      4132 7.16761E+01 8.38937E+00 4.11063E+00
 -1      4133 7.12933E+01 6.95059E+00 3.04941E+00
 -1      4134 7.16761E+01 5.88937E+00 1.61063E+00
 -1      4135 5.10879E+01 5.88939E+00 1.61061E+00
 -1      4136 5.06829E+01 6.92981E+00 3.07019E+00
 -1      4137 5.10879E+01 4.11061E+00 8.38939E+00
 -1      4138 5.06824E+01 3.06966E+00 6.93034E+00
 -1      4139 8.41111E+00 8.39108E+00 1.64182E+00
 -1      4140 5.10879E+01 8.38939E+00 4.11061E+00
 -1      4141 5.10879E+01 1.61061E+00 5.88939E+00
 -1      4142 1.02881E+01 1.25885E+00 8.72643E+00
 -1      4143 8.40944E+00 1.63033E+00 8.38665E+00
 -1      4144 2.16767E+01 5.89488E+00 1.61116E+00
 -1      4145 3.86211E+01 8.39187E+00 8.38736E+00
 -1      4146 7.90290E+01 1.61063E+00 1.61063E+00
 -1      4147 7.90290E+01 8.38937E+00 8.38937E+00
 -1      4148 7.31467E+01 8.38937E+00 1.61063E+00
 -1      4149 6.91176E+01 8.72643E+00 1.27357E+00
 -1      4150 6.72643E+01 8.38937E+00 1.61063E+00
 -1      4151 6.79996E+01 8.38937E+00 2.88419E+00
 -1      4152 6.79996E+01 7.11581E+00 1.61063E+00
 -1      4153 7.31467E+01 1.61063E+00 8.38937E+00
 -1      4154 6.32353E+01 1.27357E+00 8.72643E+00
 -1      4155 6.50886E+01 1.61063E+00 8.38937E+00
 -1      4156 2.31467E+01 1.61061E+00 8.38939E+00
 -1      4157 5.25585E+01 8.38939E+00 1.61061E+00
 -1      4158 2.68533E+01 8.38935E+00 8.38935E+00
 -1      4159 3.49114E+01 1.61063E+00 8.38937E+00
 -1      4160 4.51959E+01 5.88064E+00 8.38825E+00
 -1      4161 4.47910E+01 6.93381E+00 6.92750E+00
 -1      4162 5.44118E+01 1.26914E+00 8.72643E+00
 -1      4163 5.25585E+01 1.61061E+00 8.38939E+00
 -1      4164 4.26379E+01 1.24621E+00 8.75379E+00
 -1      4165 3.34361E+01 5.90058E+00 1.61151E+00
 -1      4166 3.86202E+01 1.60946E+00 1.61355E+00
 -1      4167 4.51959E+01 8.39136E+00 5.89896E+00
 -1      4168 4.52002E+01 1.60785E+00 4.12179E+00
 -1      4169 4.47999E+01 3.06641E+00 3.07310E+00
 -1      4170 1.21596E+01 8.38030E+00 8.38405E+00
 -1      4171 2.83033E+01 4.12212E+00 1.60681E+00
 -1      4172 4.52205E+01 4.12150E+00 1.61108E+00
 -1      4173 3.49123E+01 8.39037E+00 1.61151E+00
 -1      4174 2.31473E+01 8.39001E+00 1.61116E+00
 -1      4175 4.66765E+01 1.60785E+00 1.61108E+00
 -1      4176 2.68474E+01 1.60891E+00 1.60681E+00
 -1      4177 4.66721E+01 8.39136E+00 8.38825E+00
 -1      4178 7.82937E+01 1.61063E+00 2.88419E+00
 -1      4179 7.82937E+01 2.88419E+00 1.61063E+00
 -1      4180 7.82937E+01 7.11581E+00 8.38937E+00
 -1      4181 6.65290E+01 8.38937E+00 2.88419E+00
 -1      4182 7.82937E+01 8.38937E+00 7.11581E+00
 -1      4183 6.65290E+01 7.11581E+00 1.61063E+00
 -1      4184 7.24114E+01 7.11581E+00 1.61063E+00
 -1      4185 7.24114E+01 8.38937E+00 2.88419E+00
 -1      4186 6.58239E+01 1.61063E+00 7.11581E+00
 -1      4187 6.58239E+01 2.88419E+00 8.38937E+00
 -1      4188 5.18232E+01 8.38939E+00 2.88418E+00
 -1      4189 5.18232E+01 7.11582E+00 1.61061E+00
 -1      4190 2.75885E+01 8.38935E+00 7.11578E+00
 -1      4191 2.75885E+01 7.11578E+00 8.38935E+00
 -1      4192 3.41761E+01 2.88419E+00 8.38937E+00
 -1      4193 3.41761E+01 1.61063E+00 7.11581E+00
 -1      4194 5.18232E+01 1.61061E+00 7.11582E+00
 -1      4195 2.24120E+01 8.39001E+00 2.88472E+00
 -1      4196 3.41770E+01 8.39037E+00 2.88507E+00
 -1      4197 5.18232E+01 2.88418E+00 8.38939E+00
 -1      4198 4.59423E+01 2.87292E+00 1.61108E+00
 -1      4199 6.91176E+01 8.72643E+00 8.72643E+00
 -1      4200 6.91176E+01 1.27357E+00 1.27357E+00
 -1      4201 6.69118E+01 8.25025E+00 5.75025E+00
 -1      4202 4.59321E+01 8.39136E+00 7.13438E+00
 -1      4203 2.75827E+01 1.60891E+00 2.88038E+00
 -1      4204 3.41723E+01 7.13650E+00 1.61151E+00
 -1      4205 2.75827E+01 2.87462E+00 1.60681E+00
 -1      4206 2.24053E+01 7.14072E+00 1.61116E+00
 -1      4207 4.59291E+01 7.13014E+00 8.38825E+00
 -1      4208 4.59334E+01 1.60785E+00 2.87229E+00
 -1      4209 2.79412E+01 4.99587E+00 4.99259E+00
 -1      4210 2.90533E+01 4.10809E+00 4.10763E+00
 -1      4211 2.20588E+01 5.00092E+00 4.99796E+00
 -1      4212 7.79412E+01 5.00000E+00 5.00000E+00
 -1      4213 7.68231E+01 5.88937E+00 5.88937E+00
 -1      4214 7.68231E+01 4.11063E+00 4.11063E+00
 -1      4215 6.61765E+01 5.00000E+00 5.00000E+00
 -1      4216 6.76471E+01 4.24975E+00 4.24975E+00
 -1      4217 6.76471E+01 5.75025E+00 5.75025E+00
 -1      4218 6.72945E+01 4.11063E+00 5.88937E+00
 -1      4219 6.50584E+01 5.88937E+00 4.11063E+00
 -1      4220 7.20588E+01 5.00000E+00 5.00000E+00
 -1      4221 7.09408E+01 5.88937E+00 4.11063E+00
 -1      4222 2.09414E+01 5.89001E+00 4.11116E+00
 -1      4223 2.90591E+01 5.88853E+00 5.89016E+00
 -1      4224 5.14706E+01 5.00018E+00 5.00018E+00
 -1      4225 5.03526E+01 5.88985E+00 4.11107E+00
 -1      4226 5.03526E+01 4.11107E+00 5.88985E+00
 -1      4227 7.79412E+01 1.27357E+00 1.27357E+00
 -1      4228 6.61765E+01 8.72643E+00 1.27357E+00
 -1      4229 7.79412E+01 8.72643E+00 8.72643E+00
 -1      4230 7.20588E+01 8.72643E+00 1.27357E+00
 -1      4231 6.61765E+01 1.27357E+00 8.72643E+00
 -1      4232 5.58423E+01 8.74956E+00 8.72643E+00
 -1      4233 2.79412E+01 8.72643E+00 8.72643E+00
 -1      4234 5.14706E+01 8.72643E+00 1.27357E+00
 -1      4235 3.38235E+01 1.27357E+00 8.72643E+00
 -1      4236 3.38235E+01 5.00147E+00 4.99701E+00
 -1      4237 3.27055E+01 4.10981E+00 5.89019E+00
 -1      4238 4.55781E+01 4.99727E+00 4.99739E+00
 -1      4239 4.41024E+01 4.24920E+00 5.75080E+00
 -1      4240 4.44604E+01 4.10785E+00 4.11108E+00
 -1      4241 3.27064E+01 5.88956E+00 4.11232E+00
 -1      4242 5.14706E+01 1.27357E+00 8.72643E+00
 -1      4243 3.38188E+01 8.74613E+00 1.27357E+00
 -1      4244 2.20521E+01 8.75071E+00 1.27357E+00
 -1      4245 4.44561E+01 5.89136E+00 5.88825E+00
 -1      4246 3.96957E+01 4.99629E+00 4.99935E+00
 -1      4247 4.55816E+01 1.26507E+00 1.26122E+00
 -1      4248 4.55757E+01 8.73878E+00 8.74613E+00
 -1      4249 2.79412E+01 1.26571E+00 1.27357E+00
 -1      4250 7.06447E+01 1.45958E+00 2.73314E+00
 -1      4251 6.99094E+01 1.45958E+00 1.45958E+00
 -1      4252 7.06447E+01 2.73314E+00 1.45958E+00
 -1      4253 6.75906E+01 7.26686E+00 8.54042E+00
 -1      4254 6.83259E+01 8.54042E+00 8.54042E+00
 -1      4255 6.75906E+01 8.54042E+00 7.26686E+00
 -1      4256 4.11160E+01 1.45805E+00 7.29423E+00
 -1      4257 4.18537E+01 1.45805E+00 8.54195E+00
 -1      4258 4.11160E+01 2.70577E+00 8.54195E+00
 -1      4259 9.25490E+01 8.54010E+00 6.05420E+00
 -1      4260 9.26090E+01 6.91163E+00 7.27569E+00
 -1      4261 6.14418E+01 8.41512E+00 8.40864E+00
 -1      4262 9.81313E+01 8.89672E-01 8.82616E-01
 -1      4263 9.69177E+01 1.28770E+00 8.82616E-01
 -1      4264 9.74912E+01 1.56950E+00 2.43389E+00
 -1      4265 9.74987E+01 2.45917E+00 1.55127E+00
 -1      4266 9.89619E+01 2.82572E+00 9.15064E-01
 -1      4267 9.84293E+01 2.48456E+00 2.46633E+00
 -1      4268 3.06436E+00 8.71284E+00 8.90485E-01
 -1      4269 1.86757E+00 9.11757E+00 8.90485E-01
 -1      4270 2.45271E+00 7.59134E+00 1.53620E+00
 -1      4271 2.44532E+00 8.47377E+00 2.42669E+00
 -1      4272 1.24901E+01 4.72665E+00 5.27127E+00
 -1      4273 8.30874E+01 4.72243E+00 5.27757E+00
 -1      4274 8.74975E+01 4.72243E+00 5.27757E+00
 -1      4275 1.69083E+01 4.72665E+00 5.27381E+00
 -1      4276 9.69248E+01 9.11738E+00 1.28808E+00
 -1      4277 9.81239E+01 9.11738E+00 8.82616E-01
 -1      4278 9.75393E+01 8.46916E+00 2.41346E+00
 -1      4279 9.75393E+01 7.58654E+00 1.53084E+00
 -1      4280 9.18765E+01 8.54010E+00 7.29101E+00
 -1      4281 9.33492E+01 8.37153E+00 7.48651E+00
 -1      4282 5.66176E+01 4.72318E+00 5.27736E+00
 -1      4283 9.90619E+01 9.15064E-01 1.79768E+00
 -1      4284 9.89175E+01 9.15064E-01 2.79006E+00
 -1      4285 6.10294E+01 4.72318E+00 5.27736E+00
 -1      4286 7.53270E+00 5.04434E+00 5.03705E+00
 -1      4287 9.81388E+01 8.89672E-01 9.11033E+00
 -1      4288 9.69252E+01 1.28770E+00 9.11033E+00
 -1      4289 9.75394E+01 1.51699E+00 7.59334E+00
 -1      4290 9.75394E+01 2.40666E+00 8.48301E+00
 -1      4291 1.86742E+00 8.89044E-01 9.11738E+00
 -1      4292 3.07802E+00 1.28649E+00 9.11738E+00
 -1      4293 2.47131E+00 1.52948E+00 7.60613E+00
 -1      4294 2.46258E+00 2.41852E+00 8.48875E+00
 -1      4295 9.90694E+01 1.80474E+00 9.15064E-01
 -1      4296 1.87555E+00 9.11757E+00 9.11738E+00
 -1      4297 3.07234E+00 8.71284E+00 9.11738E+00
 -1      4298 2.42569E+00 8.51365E+00 7.63102E+00
 -1      4299 2.42509E+00 7.63122E+00 8.51365E+00
 -1      4300 9.69322E+01 8.71192E+00 9.11033E+00
 -1      4301 9.81313E+01 9.11738E+00 9.11033E+00
 -1      4302 9.75725E+01 7.64661E+00 8.51138E+00
 -1      4303 9.75800E+01 8.52922E+00 7.62171E+00
 -1      4304 9.63734E+01 7.24114E+00 8.51138E+00
 -1      4305 1.08253E+00 9.15064E-01 7.20994E+00
 -1      4306 1.53324E+00 2.44454E+00 7.57369E+00
 -1      4307 9.89175E+01 7.20994E+00 9.15064E-01
 -1      4308 9.84774E+01 7.55409E+00 2.44591E+00
 -1      4309 1.85943E+00 8.89044E-01 8.90485E-01
 -1      4310 3.07003E+00 1.28649E+00 8.90485E-01
 -1      4311 2.47954E+00 1.52910E+00 2.41944E+00
 -1      4312 2.47879E+00 2.41814E+00 1.52896E+00
 -1      4313 6.94702E+01 7.28765E+00 1.43879E+00
 -1      4314 6.94702E+01 8.56121E+00 2.71235E+00
 -1      4315 9.38075E-01 9.15064E-01 8.20231E+00
 -1      4316 1.03815E+00 9.15064E-01 2.82572E+00
 -1      4317 1.54945E+00 2.44416E+00 2.44402E+00
 -1      4318 9.90619E+01 9.08494E+00 1.79768E+00
 -1      4319 9.89175E+01 9.08494E+00 2.79006E+00
 -1      4320 9.90619E+01 8.20232E+00 9.15064E-01
 -1      4321 9.37478E-01 7.32162E+00 9.88383E-01
 -1      4322 1.03619E+00 2.82380E+00 9.08494E+00
 -1      4323 9.29345E-01 1.80411E+00 9.08494E+00
 -1      4324 9.90694E+01 9.88383E-01 7.31438E+00
 -1      4325 9.37478E-01 8.20251E+00 9.15064E-01
 -1      4326 1.51523E+00 7.55870E+00 2.45127E+00
 -1      4327 9.30089E-01 9.15064E-01 1.80555E+00
 -1      4328 1.03619E+00 2.82380E+00 9.15064E-01
 -1      4329 9.29345E-01 1.80411E+00 9.15064E-01
 -1      4330 7.60656E+01 1.45958E+00 1.45958E+00
 -1      4331 7.68009E+01 2.73314E+00 1.45958E+00
 -1      4332 7.68009E+01 1.45958E+00 2.73314E+00
 -1      4333 7.68009E+01 7.26686E+00 8.54042E+00
 -1      4334 7.68009E+01 8.54042E+00 7.26686E+00
 -1      4335 7.60656E+01 8.54042E+00 8.54042E+00
 -1      4336 6.73167E+01 2.73314E+00 8.54042E+00
 -1      4337 6.73167E+01 1.45958E+00 7.26686E+00
 -1      4338 6.80520E+01 1.45958E+00 8.54042E+00
 -1      4339 6.43009E+01 8.54042E+00 1.45958E+00
 -1      4340 6.50362E+01 8.54042E+00 2.73314E+00
 -1      4341 6.50362E+01 7.26686E+00 1.45958E+00
 -1      4342 2.90814E+01 7.26686E+00 8.54042E+00
 -1      4343 2.98167E+01 8.54042E+00 8.54042E+00
 -1      4344 2.90814E+01 8.54042E+00 7.26686E+00
 -1      4345 4.95951E+01 8.54042E+00 1.45958E+00
 -1      4346 5.03304E+01 8.54042E+00 2.73314E+00
 -1      4347 5.03304E+01 7.26686E+00 1.45958E+00
 -1      4348 3.19485E+01 1.45912E+00 8.54088E+00
 -1      4349 3.26838E+01 1.45912E+00 7.26731E+00
 -1      4350 3.26838E+01 2.73269E+00 8.54088E+00
 -1      4351 5.03298E+01 2.73261E+00 8.54095E+00
 -1      4352 4.95945E+01 1.45905E+00 8.54095E+00
 -1      4353 5.03298E+01 1.45905E+00 7.26739E+00
 -1      4354 2.90769E+01 2.72497E+00 1.46022E+00
 -1      4355 2.98122E+01 1.45926E+00 1.46022E+00
 -1      4356 2.90769E+01 1.45926E+00 2.73379E+00
 -1      4357 9.90694E+01 9.15064E-01 8.19526E+00
 -1      4358 9.84700E+01 2.43205E+00 7.56795E+00
 -1      4359 3.26779E+01 7.28425E+00 1.45626E+00
 -1      4360 3.19473E+01 8.53812E+00 1.45626E+00
 -1      4361 3.26826E+01 8.53812E+00 2.72983E+00
 -1      4362 4.44481E+01 2.72362E+00 1.46202E+00
 -1      4363 4.44392E+01 1.45856E+00 2.72323E+00
 -1      4364 4.37117E+01 1.45856E+00 1.46202E+00
 -1      4365 8.80778E+01 1.52131E+00 8.47869E+00
 -1      4366 2.09179E+01 8.53871E+00 2.72897E+00
 -1      4367 2.09112E+01 7.28942E+00 1.45540E+00
 -1      4368 2.01826E+01 8.53871E+00 1.45540E+00
 -1      4369 6.16082E+01 1.52194E+00 8.47988E+00
 -1      4370 8.25086E+01 1.52102E+00 8.47898E+00
 -1      4371 5.61501E+01 1.37032E+00 8.58732E+00
 -1      4372 1.74854E+01 1.52846E+00 8.47911E+00
 -1      4373 1.08253E+00 9.09246E+00 7.21746E+00
 -1      4374 9.38075E-01 9.09246E+00 8.20984E+00
 -1      4375 1.48761E+00 7.60611E+00 7.60611E+00
 -1      4376 9.89175E+01 7.21746E+00 9.09246E+00
 -1      4377 9.90619E+01 8.20984E+00 9.09246E+00
 -1      4378 9.85106E+01 7.62168E+00 7.60384E+00
 -1      4379 9.37478E-01 7.27360E+00 9.09248E+00
 -1      4380 4.37071E+01 8.54246E+00 8.53925E+00
 -1      4381 4.44346E+01 7.28124E+00 8.53925E+00
 -1      4382 4.44377E+01 8.54246E+00 7.28537E+00
 -1      4383 9.30089E-01 9.02678E+00 2.68560E+00
 -1      4384 9.30089E-01 9.08494E+00 1.80555E+00
 -1      4385 1.19183E+01 1.52879E+00 8.48155E+00
 -1      4386 9.90694E+01 2.68479E+00 9.02678E+00
 -1      4387 9.37478E-01 8.21003E+00 9.09246E+00
 -1      4388 7.09408E+01 8.56121E+00 2.71235E+00
 -1      4389 7.09408E+01 7.28765E+00 1.43879E+00
 -1      4390 7.02055E+01 8.56121E+00 1.43879E+00
 -1      4391 9.90694E+01 1.80474E+00 9.08494E+00
 -1      4392 9.24297E+01 5.48720E+00 5.49635E+00
 -1      4393 9.90694E+01 9.09248E+00 7.26636E+00
 -1      4394 9.90694E+01 9.09246E+00 8.20279E+00
 -1      4395 9.26256E+01 5.87039E+00 8.73559E+00
 -1      4396 9.57186E+01 8.71192E+00 8.71230E+00
 -1      4397 9.49036E+01 7.08346E+00 8.73559E+00
 -1      4398 9.18978E+01 7.27349E+00 8.54010E+00
 -1      4399 9.33705E+01 7.10492E+00 8.73559E+00
 -1      4400 9.11564E+01 8.54010E+00 8.54010E+00
 -1      4401 9.40996E+01 8.37153E+00 8.73559E+00
 -1      4402 9.26380E+01 8.73339E+00 8.75091E+00
 -1      4403 8.90967E+01 8.30198E+00 4.19917E+00
 -1      4404 1.00000E+02 5.00000E+00 5.00000E+00
 -1      4405 1.00000E+02-1.50000E+01 5.00000E+00
 -3
    3C                          2341                                     1
 -1      1401    6    0    1
 -2      1555      2465       984      2490      2563      2564      2565      2566      2568      2567
 -1      1402    6    0    1
 -2       984      2465      1555      2483      2564      2563      2565      2569      2571      2570
 -1      1403    6    0    1
 -2       583      2469       547      2471      2572      2573       888      2574      2576      2575
 -1      1404    6    0    1
 -2      1569      1536      2469      2492      1874      2577      2578      2579      2581      2580
 -1      1405    6    0    1
 -2      1564      2470      2451      2472      2582      2583      2584      2585      2587      2586
 -1      1406    6    0    1
 -2       578      2451      2470      2491      2588      2583      2589      2590      2592      2591
 -1      1407    6    0    1
 -2      1507       973      2475      2498      2593      2594      2595      2596      2598      2597
 -1      1408    6    0    1
 -2      2456      2475       973      2498      2599      2594      2600      2601      2597      2598
 -1      1409    6    0    1
 -2      1507      2475      2456      2498      2595      2599      2602      2596      2597      2601
 -1      1410    6    0    1
 -2       541      2451       578      2491      2603      2588       877      2604      2592      2590
 -1      1411    6    0    1
 -2      1564      2451      1495      2472      2584      2605      1857      2585      2586      2606
 -1      1412    6    0    1
 -2       991      2493      1483      2504      2607      2608      2609      2610      2612      2611
 -1      1413    6    0    1
 -2      1483      2493      2453      2504      2608      2613      2614      2611      2612      2615
 -1      1414    6    0    1
 -2       564      2521      2462      2543      2616      2617      2618      2619      2621      2620
 -1      1415    6    0    1
 -2      2462      2521      2037      2543      2617      2622      2623      2620      2621      2624
 -1      1416    6    0    1
 -2       564       498      2521      2543       901      2625      2616      2619      2626      2621
 -1      1417    6    0    1
 -2      2009      2037      2521      2543      2326      2622      2627      2628      2624      2621
 -1      1418    6    0    1
 -2       578      2451       541      2470      2588      2603       877      2589      2583      2629
 -1      1419    6    0    1
 -2      1495      2451      1564      2470      2605      2584      1857      2630      2583      2582
 -1      1420    6    0    1
 -2      1045      1044       973      2456      1306      1303      1304      2631      2632      2600
 -1      1421    6    0    1
 -2      1542      1507      1547      2456      1803      1913      1939      2633      2602      2634
 -1      1422    6    0    1
 -2      1483      2453      1537      2504      2614      2635      1883      2611      2615      2636
 -1      1423    6    0    1
 -2      1483      1541      1537      2453      1884      1886      1883      2614      2637      2635
 -1      1424    6    0    1
 -2      1486      2455      1559      2473      2638      2639      1900      2640      2642      2641
 -1      1425    6    0    1
 -2      1559      2455      1486      2525      2639      2638      1900      2643      2645      2644
 -1      1426    6    0    1
 -2      1515      2462      1514      2474      2646      2647      1832      2648      2650      2649
 -1      1427    6    0    1
 -2      1509      2455      1560      2474      2651      2652      1831      2653      2655      2654
 -1      1428    6    0    1
 -2      1555      1533      1504      2465      1906      1848      1946      2563      2657      2656
 -1      1429    6    0    1
 -2      2455      2473      1486      2525      2642      2640      2638      2645      2658      2644
 -1      1430    6    0    1
 -2      2461      2490      1508      2529      2659      2660      2661      2662      2664      2663
 -1      1431    6    0    1
 -2      1560      2455      1509      2528      2652      2651      1831      2665      2667      2666
 -1      1432    6    0    1
 -2      1549      2461      1508      2529      2668      2661      1903      2669      2662      2663
 -1      1433    6    0    1
 -2      1521      2460      1543      2482      2670      2671      1823      2672      2674      2673
 -1      1434    6    0    1
 -2       534      2462       564      2474      2675      2618       852      2676      2650      2677
 -1      1435    6    0    1
 -2      1549      1508      2461      2490      1903      2661      2668      2678      2660      2659
 -1      1436    6    0    1
 -2      2455      2474      1509      2528      2655      2653      2651      2667      2679      2666
 -1      1437    6    0    1
 -2      1056      2455       998      2481      2680      2681      1431      2682      2684      2683
 -1      1438    6    0    1
 -2      2007      2455      2042      2481      2685      2686      2415      2687      2684      2688
 -1      1439    6    0    1
 -2      1014      1060      2455      2473      1362      2689      2690      2691      2692      2642
 -1      1440    6    0    1
 -2      1538      1523      2457      2475      1916      2693      2694      2695      2697      2696
 -1      1441    6    0    1
 -2      2013      2457      2029      2476      2698      2699      2291      2700      2702      2701
 -1      1442    6    0    1
 -2      1044       973      2456      2475      1303      2600      2632      2703      2594      2599
 -1      1443    6    0    1
 -2      1053      2457       977      2475      2704      2705      1324      2706      2696      2707
 -1      1444    6    0    1
 -2      1547      2456      1507      2475      2634      2602      1913      2708      2599      2595
 -1      1445    6    0    1
 -2       484       552      2457      2476       831      2709      2710      2711      2712      2702
 -1      1446    6    0    1
 -2       553       508      2459      2480       947      2713      2714      2715      2717      2716
 -1      1447    6    0    1
 -2      1544      2459      1497      2480      2718      2719      1790      2720      2716      2721
 -1      1448    6    0    1
 -2      2012      2037      2462      2481      2416      2623      2722      2723      2725      2724
 -1      1449    6    0    1
 -2       995      2462      1055      2481      2726      2727      1415      2728      2724      2729
 -1      1450    6    0    1
 -2       565      2455       521      2474      2730      2731       849      2732      2655      2733
 -1      1451    6    0    1
 -2      1555      2465      1504      2483      2563      2656      1946      2570      2571      2734
 -1      1452    6    0    1
 -2       562      2460       536      2482      2735      2736       958      2737      2674      2738
 -1      1453    6    0    1
 -2      1049      2460      1013      2485      2739      2740      1334      2741      2743      2742
 -1      1454    6    0    1
 -2      2034      1977      2460      2485      2381      2744      2745      2746      2747      2743
 -1      1455    6    0    1
 -2      2003      2455      2046      2487      2748      2749      2446      2750      2752      2751
 -1      1456    6    0    1
 -2      1063      2461       996      2486      2753      2754      1419      2755      2757      2756
 -1      1457    6    0    1
 -2      2000      2461      2048      2486      2758      2759      2334      2760      2757      2761
 -1      1458    6    0    1
 -2       568      2455       501      2487      2762      2763       916      2764      2752      2765
 -1      1459    6    0    1
 -2       569      2461       522      2489      2766      2767       859      2768      2770      2769
 -1      1460    6    0    1
 -2      1502      1552      2463      2482      1820      2771      2772      2773      2775      2774
 -1      1461    6    0    1
 -2      1533      2465      1555      2490      2657      2563      1906      2776      2568      2566
 -1      1462    6    0    1
 -2       499       572      2461      2484       908      2777      2778      2779      2781      2780
 -1      1463    6    0    1
 -2      2053      1978      2461      2484      2388      2782      2783      2784      2785      2780
 -1      1464    6    0    1
 -2      1514      2462      1515      2512      2647      2646      1832      2786      2788      2787
 -1      1465    6    0    1
 -2      1065      2461      1015      2490      2789      2790      1457      2791      2659      2792
 -1      1466    6    0    1
 -2      1010      2463      1064      2485      2793      2794      1333      2795      2797      2796
 -1      1467    6    0    1
 -2       984      1039      1017      2465      1360      1359      1358      2564      2799      2798
 -1      1468    6    0    1
 -2       542       511      2454      2513       880      2800      2801      2802      2804      2803
 -1      1469    6    0    1
 -2       521      2455       565      2528      2731      2730       849      2805      2667      2806
 -1      1470    6    0    1
 -2      2003      2046      2455      2521      2446      2749      2748      2807      2809      2808
 -1      1471    6    0    1
 -2      1512      2453      1537      2508      2810      2635      1805      2811      2813      2812
 -1      1472    6    0    1
 -2      1056       998      2455      2523      1431      2681      2680      2814      2816      2815
 -1      1473    6    0    1
 -2      2007      2042      2455      2523      2415      2686      2685      2817      2818      2815
 -1      1474    6    0    1
 -2      1060      1014      2455      2525      1362      2690      2689      2819      2820      2645
 -1      1475    6    0    1
 -2      1538      2457      1523      2519      2694      2693      1916      2821      2823      2822
 -1      1476    6    0    1
 -2      2029      2457      2013      2518      2699      2698      2291      2824      2826      2825
 -1      1477    6    0    1
 -2       977      2457      1053      2519      2705      2704      1324      2827      2823      2828
 -1      1478    6    0    1
 -2       552       484      2457      2518       831      2710      2709      2829      2830      2826
 -1      1479    6    0    1
 -2       501      2455       568      2521      2763      2762       916      2831      2808      2832
 -1      1480    6    0    1
 -2       572       499      2461      2524       908      2778      2777      2833      2835      2834
 -1      1481    6    0    1
 -2      2053      2461      1978      2524      2783      2782      2388      2836      2834      2837
 -1      1482    6    0    1
 -2      1015      2461      1065      2529      2790      2789      1457      2838      2662      2839
 -1      1483    6    0    1
 -2      1543      2460      1521      2507      2671      2670      1823      2840      2842      2841
 -1      1484    6    0    1
 -2      1063       996      2461      2514      1419      2754      2753      2843      2845      2844
 -1      1485    6    0    1
 -2       522      2461       569      2527      2767      2766       859      2846      2848      2847
 -1      1486    6    0    1
 -2      2048      2461      2000      2514      2759      2758      2334      2849      2844      2850
 -1      1487    6    0    1
 -2       973      1045      2456      2498      1304      2631      2600      2598      2851      2601
 -1      1488    6    0    1
 -2      1507      2456      1542      2498      2602      2633      1803      2596      2601      2852
 -1      1489    6    0    1
 -2       564      2462       534      2512      2618      2675       852      2853      2788      2854
 -1      1490    6    0    1
 -2       521      2474      2455      2528      2733      2655      2731      2805      2679      2667
 -1      1491    6    0    1
 -2      1502      2463      1552      2530      2772      2771      1820      2855      2857      2856
 -1      1492    6    0    1
 -2      1497      2459      1544      2506      2719      2718      1790      2858      2860      2859
 -1      1493    6    0    1
 -2       562       536      2460      2507       958      2736      2735      2861      2862      2842
 -1      1494    6    0    1
 -2       553      2459       508      2506      2714      2713       947      2863      2860      2864
 -1      1495    6    0    1
 -2       549      2453       497      2508      2865      2866       897      2867      2813      2868
 -1      1496    6    0    1
 -2       496      2463       571      2482      2869      2870       892      2871      2774      2872
 -1      1497    6    0    1
 -2      1485      2461      1551      2489      2873      2874      1893      2875      2770      2876
 -1      1498    6    0    1
 -2      1525      2454      1474      2513      2877      2878      1837      2879      2803      2880
 -1      1499    6    0    1
 -2       998      2481      2455      2523      2683      2684      2681      2816      2881      2815
 -1      1500    6    0    1
 -2      2455      2481      2007      2523      2684      2687      2685      2815      2881      2817
 -1      1501    6    0    1
 -2      1523      2457      2475      2519      2693      2696      2697      2822      2823      2882
 -1      1502    6    0    1
 -2      2013      2457      2476      2518      2698      2702      2700      2825      2826      2883
 -1      1503    6    0    1
 -2       977      2475      2457      2519      2707      2696      2705      2827      2882      2823
 -1      1504    6    0    1
 -2       484      2476      2457      2518      2711      2702      2710      2830      2883      2826
 -1      1505    6    0    1
 -2       984      2465      1017      2490      2564      2798      1358      2567      2568      2884
 -1      1506    6    0    1
 -2      1064      2463      1010      2531      2794      2793      1333      2885      2887      2886
 -1      1507    6    0    1
 -2      1014      2473      2455      2525      2691      2642      2690      2820      2658      2645
 -1      1508    6    0    1
 -2      1039      2465       984      2483      2799      2564      1360      2888      2571      2569
 -1      1509    6    0    1
 -2      2455      2487      2003      2521      2752      2750      2748      2808      2889      2807
 -1      1510    6    0    1
 -2      2049      2463      1975      2485      2890      2891      2372      2892      2797      2893
 -1      1511    6    0    1
 -2       501      2487      2455      2521      2765      2752      2763      2831      2889      2808
 -1      1512    6    0    1
 -2       499      2484      2461      2524      2779      2780      2778      2835      2894      2834
 -1      1513    6    0    1
 -2      2461      2484      1978      2524      2780      2785      2782      2834      2894      2837
 -1      1514    6    0    1
 -2      1541      2453      1483      2493      2637      2614      1884      2895      2613      2608
 -1      1515    6    0    1
 -2       547      2469      2452      2471      2573      2896      2897      2575      2576      2898
 -1      1516    6    0    1
 -2       996      2486      2461      2514      2756      2757      2754      2845      2899      2844
 -1      1517    6    0    1
 -2      1015      2490      2461      2529      2792      2659      2790      2838      2664      2662
 -1      1518    6    0    1
 -2      2452      2469      1536      2492      2896      2577      2900      2901      2580      2581
 -1      1519    6    0    1
 -2      1514      2474      2462      2512      2649      2650      2647      2786      2902      2788
 -1      1520    6    0    1
 -2       522      2489      2461      2527      2769      2770      2767      2846      2903      2848
 -1      1521    6    0    1
 -2      2000      2461      2486      2514      2758      2757      2760      2850      2844      2899
 -1      1522    6    0    1
 -2      2463      2485      1010      2531      2797      2795      2793      2887      2904      2886
 -1      1523    6    0    1
 -2      1502      2482      2463      2530      2773      2774      2772      2855      2905      2857
 -1      1524    6    0    1
 -2      1551      2461      1485      2527      2874      2873      1893      2906      2848      2907
 -1      1525    6    0    1
 -2       571      2463       496      2530      2870      2869       892      2908      2857      2909
 -1      1526    6    0    1
 -2      2460      2482      1521      2507      2674      2672      2670      2842      2910      2841
 -1      1527    6    0    1
 -2      2462      2474       534      2512      2650      2676      2675      2788      2902      2854
 -1      1528    6    0    1
 -2       496      2463      2482      2530      2869      2774      2871      2909      2857      2905
 -1      1529    6    0    1
 -2      1013      2460      1049      2532      2740      2739      1334      2911      2913      2912
 -1      1530    6    0    1
 -2      1497      2480      2459      2506      2721      2716      2719      2858      2914      2860
 -1      1531    6    0    1
 -2      2459      2480       508      2506      2716      2717      2713      2860      2914      2864
 -1      1532    6    0    1
 -2       536      2482      2460      2507      2738      2674      2736      2862      2910      2842
 -1      1533    6    0    1
 -2      2034      2460      1977      2532      2745      2744      2381      2915      2913      2916
 -1      1534    6    0    1
 -2      2461      2489      1485      2527      2770      2875      2873      2848      2903      2907
 -1      1535    6    0    1
 -2      2012      2462      2037      2533      2722      2623      2416      2917      2919      2918
 -1      1536    6    0    1
 -2      1975      2463      2049      2531      2891      2890      2372      2920      2887      2921
 -1      1537    6    0    1
 -2      1055      2462       995      2533      2727      2726      1415      2922      2919      2923
 -1      1538    6    0    1
 -2       511       542      2454      2495       880      2801      2800      2924      2926      2925
 -1      1539    6    0    1
 -2       347       342      2451      2497       393      2927      2928      2929      2931      2930
 -1      1540    6    0    1
 -2       498      2009      2521      2543      2932      2627      2625      2626      2628      2621
 -1      1541    6    0    1
 -2      1975      2485      2463      2531      2893      2797      2891      2920      2904      2887
 -1      1542    6    0    1
 -2      1537      2453      1512      2496      2635      2810      1805      2933      2935      2934
 -1      1543    6    0    1
 -2       342       337       347      2451       404       405       393      2927      2936      2928
 -1      1544    6    0    1
 -2      1474      2454      1525      2495      2878      2877      1837      2937      2925      2938
 -1      1545    6    0    1
 -2      1013      2485      2460      2532      2742      2743      2740      2911      2939      2913
 -1      1546    6    0    1
 -2       497      2453       549      2496      2866      2865       897      2940      2935      2941
 -1      1547    6    0    1
 -2       415       410       420      2452       477       478       466      2942      2944      2943
 -1      1548    6    0    1
 -2      2012      2481      2462      2533      2723      2724      2722      2917      2945      2919
 -1      1549    6    0    1
 -2      2462      2481       995      2533      2724      2728      2726      2919      2945      2923
 -1      1550    6    0    1
 -2       420       415      2452      2500       466      2942      2943      2946      2948      2947
 -1      1551    6    0    1
 -2      2454      2495      1474      2513      2925      2937      2878      2803      2949      2880
 -1      1552    6    0    1
 -2      2460      2485      1977      2532      2743      2747      2744      2913      2939      2916
 -1      1553    6    0    1
 -2      1512      2496      2453      2508      2934      2935      2810      2811      2950      2813
 -1      1554    6    0    1
 -2       535      2017      2539      2540      2951      2952      2953      2954      2956      2955
 -1      1555    6    0    1
 -2       507      1962      1992      2538      2957      2148      2958      2959      2961      2960
 -1      1556    6    0    1
 -2       511      2495      2454      2513      2924      2925      2800      2804      2949      2803
 -1      1557    6    0    1
 -2      1973       535      2017      2539      2962      2951      2175      2963      2953      2952
 -1      1558    6    0    1
 -2       485       535      1973      2539       793      2962      2964      2965      2953      2963
 -1      1559    6    0    1
 -2      2452      2492      1536      2504      2901      2581      2900      2966      2968      2967
 -1      1560    6    0    1
 -2      2453      2496       497      2508      2935      2940      2866      2813      2950      2868
 -1      1561    6    0    1
 -2      1495      2472      2451      2536      2606      2586      2605      2969      2971      2970
 -1      1562    6    0    1
 -2       342       337      2451      2491       404      2936      2927      2972      2973      2592
 -1      1563    6    0    1
 -2       415       410      2452      2492       477      2944      2942      2974      2975      2901
 -1      1564    6    0    1
 -2      2451      2491       541      2535      2592      2604      2603      2976      2978      2977
 -1      1565    6    0    1
 -2      2454      2499      1546      2536      2979      2980      2981      2982      2984      2983
 -1      1566    6    0    1
 -2      2035      2477      2459      2541      2985      2986      2987      2988      2990      2989
 -1      1567    6    0    1
 -2       547      2471      2452      2505      2575      2898      2897      2991      2993      2992
 -1      1568    6    0    1
 -2      1050      2459      2477      2541      2994      2986      2995      2996      2989      2990
 -1      1569    6    0    1
 -2       342      2491      2451      2497      2972      2592      2927      2931      2997      2930
 -1      1570    6    0    1
 -2      1057      2501      2460      2522      2998      2999      3000      3001      3003      3002
 -1      1571    6    0    1
 -2      1035      2503      2454      2534      3004      3005      3006      3007      3009      3008
 -1      1572    6    0    1
 -2      2460      2501      1553      2522      2999      3010      3011      3002      3003      3012
 -1      1573    6    0    1
 -2      1972      2477      2035      2541      3013      2985      2354      3014      2990      2988
 -1      1574    6    0    1
 -2      1050      2477      1019      2541      2995      3015      1410      2996      2990      3016
 -1      1575    6    0    1
 -2      2454      2503      2020      2534      3005      3017      3018      3008      3009      3019
 -1      1576    6    0    1
 -2       549       559      2453      2508       900      3020      2865      2867      3021      2813
 -1      1577    6    0    1
 -2      1497       508      2480      2506      3022      2717      2721      2858      2864      2914
 -1      1578    6    0    1
 -2       536      1521      2482      2507      3023      2672      2738      2862      2841      2910
 -1      1579    6    0    1
 -2      1541      1537      2453      2508      1886      2635      2637      3024      2812      2813
 -1      1580    6    0    1
 -2      1493      1546      2499      2536      1928      2980      3025      3026      2983      2984
 -1      1581    6    0    1
 -2       557      2459       553      2506      3027      2714       828      3028      2860      2863
 -1      1582    6    0    1
 -2      1514       534      2474      2512      3029      2676      2649      2786      2854      2902
 -1      1583    6    0    1
 -2       562      2460       555      2507      2735      3030       970      2861      2842      3031
 -1      1584    6    0    1
 -2      1515      2512      2462      2550      2787      2788      2646      3032      3034      3033
 -1      1585    6    0    1
 -2       415      2492      2452      2500      2974      2901      2942      2948      3035      2947
 -1      1586    6    0    1
 -2      1544      2506      2459      2549      2859      2860      2718      3036      3038      3037
 -1      1587    6    0    1
 -2      1543      1553      2460      2507      1891      3011      2671      2840      3039      2842
 -1      1588    6    0    1
 -2      2050      2460      2034      2532      3040      2745      2384      3041      2913      2915
 -1      1589    6    0    1
 -2       542      2454       574      2513      2801      3042       856      2802      2803      3043
 -1      1590    6    0    1
 -2      1515      1557      2512      2550      1953      3044      2787      3032      3045      3034
 -1      1591    6    0    1
 -2       550      2462       564      2512      3046      2618       905      3047      2788      2853
 -1      1592    6    0    1
 -2      1067      2499      2454      2536      3048      2979      3049      3050      2984      2982
 -1      1593    6    0    1
 -2      1544      1554      2506      2549      1865      3051      2859      3036      3052      3038
 -1      1594    6    0    1
 -2      1013      1977      2485      2532      3053      2747      2742      2911      2916      2939
 -1      1595    6    0    1
 -2      1057      1029      2501      2522      1314      3054      2998      3001      3055      3003
 -1      1596    6    0    1
 -2      1546      2454      1525      2513      2981      2877      1839      3056      2803      2879
 -1      1597    6    0    1
 -2       548      2011      1986      2543      3057      2103      3058      3059      3061      3060
 -1      1598    6    0    1
 -2      1017      2465      1039      2554      2798      2799      1359      3062      3064      3063
 -1      1599    6    0    1
 -2      1484      1553      2501      2522      1890      3010      3065      3066      3012      3003
 -1      1600    6    0    1
 -2      2012       995      2481      2533      3067      2728      2723      2917      2923      2945
 -1      1601    6    0    1
 -2      2053      2461      2048      2514      2783      2759      2389      3068      2844      2849
 -1      1602    6    0    1
 -2      1035       982      2503      2534      1347      3069      3004      3007      3070      3009
 -1      1603    6    0    1
 -2      2037      2462      2038      2533      2623      3071      2448      2918      2919      3072
 -1      1604    6    0    1
 -2      1035      2454      1067      2534      3006      3049      1350      3007      3008      3073
 -1      1605    6    0    1
 -2      2462      2533      1055      2550      2919      2922      2727      3033      3075      3074
 -1      1606    6    0    1
 -2      1063      2461      1065      2514      2753      2789      1423      2843      2844      3076
 -1      1607    6    0    1
 -2      2042      2455      2046      2521      2686      2749      2447      3077      2808      2809
 -1      1608    6    0    1
 -2      1045      1044      2456      2516      1306      2632      2631      3078      3080      3079
 -1      1609    6    0    1
 -2       551      2456       554      2517      3081      3082       813      3083      3085      3084
 -1      1610    6    0    1
 -2      2041      2033      2456      2516      2436      3086      3087      3088      3089      3079
 -1      1611    6    0    1
 -2      1542      2456      1547      2517      2633      2634      1939      3090      3085      3091
 -1      1612    6    0    1
 -2      1538      2457      2519      2548      2694      2823      2821      3092      3094      3093
 -1      1613    6    0    1
 -2      2029      2457      2518      2546      2699      2826      2824      3095      3097      3096
 -1      1614    6    0    1
 -2      1053      2519      2457      2546      2828      2823      2704      3098      3099      3097
 -1      1615    6    0    1
 -2       552      2518      2457      2548      2829      2826      2709      3100      3101      3094
 -1      1616    6    0    1
 -2       568      2455       565      2521      2762      2730       920      2832      2808      3102
 -1      1617    6    0    1
 -2      2046      2455      2042      2523      2749      2686      2447      3103      2815      2818
 -1      1618    6    0    1
 -2      1056      2455      1060      2523      2680      2689      1433      2814      2815      3104
 -1      1619    6    0    1
 -2      1057      2460      1049      2522      3000      2739      1456      3001      3002      3105
 -1      1620    6    0    1
 -2      1543      2460      1553      2522      2671      3011      1891      3106      3002      3012
 -1      1621    6    0    1
 -2       572      2461       569      2524      2777      2766       910      2833      2834      3107
 -1      1622    6    0    1
 -2      2053      2048      2461      2524      2389      2759      2783      2836      3108      2834
 -1      1623    6    0    1
 -2      2456      2511       554      2517      3109      3110      3082      3085      3111      3084
 -1      1624    6    0    1
 -2      1045      2456      2510      2516      2631      3112      3113      3078      3079      3114
 -1      1625    6    0    1
 -2      2033      2510      2456      2516      3115      3112      3086      3089      3114      3079
 -1      1626    6    0    1
 -2      1542      2511      2456      2517      3116      3109      2633      3090      3111      3085
 -1      1627    6    0    1
 -2       548      2542      2011      2543      3117      3118      3057      3059      3119      3061
 -1      1628    6    0    1
 -2       569      2461       572      2527      2766      2777       910      2847      2848      3120
 -1      1629    6    0    1
 -2      1060      2455      1056      2525      2689      2680      1433      2819      2645      3121
 -1      1630    6    0    1
 -2      1560      2455      1559      2525      2652      2639      1901      3122      2645      2643
 -1      1631    6    0    1
 -2      2040      2454      2020      2534      3123      3018      2332      3124      3008      3019
 -1      1632    6    0    1
 -2      1065      2461      1063      2529      2789      2753      1423      2839      2662      3125
 -1      1633    6    0    1
 -2      1551      1549      2461      2527      1896      2668      2874      2906      3126      2848
 -1      1634    6    0    1
 -2      1043      1055      2533      2550      1418      2922      3127      3128      3074      3075
 -1      1635    6    0    1
 -2      1560      1559      2455      2528      1901      2639      2652      2665      3129      2667
 -1      1636    6    0    1
 -2       565      2455       568      2528      2730      2762       920      2806      2667      3130
 -1      1637    6    0    1
 -2      1504      2465      1533      2555      2656      2657      1848      3131      3133      3132
 -1      1638    6    0    1
 -2      2000      2486       996      2514      2760      2756      3134      2850      2899      2845
 -1      1639    6    0    1
 -2      1057      1049      2460      2532      1456      2739      3000      3135      2912      2913
 -1      1640    6    0    1
 -2      1552      2530      2463      2557      2856      2857      2771      3136      3138      3137
 -1      1641    6    0    1
 -2      2013      2476       484      2518      2700      2711      3139      2825      2883      2830
 -1      1642    6    0    1
 -2      1523      2475       977      2519      2697      2707      3140      2822      2882      2827
 -1      1643    6    0    1
 -2       998      2007      2481      2523      3141      2687      2683      2816      2817      2881
 -1      1644    6    0    1
 -2      1525      2454      1546      2536      2877      2981      1839      3142      2982      2983
 -1      1645    6    0    1
 -2      2049      2531      2463      2556      2921      2887      2890      3143      3145      3144
 -1      1646    6    0    1
 -2       501      2003      2487      2521      3146      2750      2765      2831      2807      2889
 -1      1647    6    0    1
 -2      1551      2461      1549      2529      2874      2668      1896      3147      2662      2669
 -1      1648    6    0    1
 -2      2463      2531      1064      2557      2887      2885      2794      3137      3149      3148
 -1      1649    6    0    1
 -2      2463      2530       571      2556      2857      2908      2870      3144      3151      3150
 -1      1650    6    0    1
 -2       503       334       544      2491      3152      3153       601      3154      3156      3155
 -1      1651    6    0    1
 -2      1014      1486      2473      2525      3157      2640      2691      2820      2644      2658
 -1      1652    6    0    1
 -2       522      1485      2489      2527      3158      2875      2769      2846      2907      2903
 -1      1653    6    0    1
 -2      1003      2499      1067      2536      3159      3048      1445      3160      2984      3050
 -1      1654    6    0    1
 -2       521      1509      2474      2528      3161      2653      2733      2805      2666      2679
 -1      1655    6    0    1
 -2      2467      2539      2017      2540      3162      2952      3163      3164      2955      2956
 -1      1656    6    0    1
 -2       535      2539      2467      2540      2953      3162      3165      2954      2955      3164
 -1      1657    6    0    1
 -2       519      2537      2466      2538      3166      3167      3168      3169      3171      3170
 -1      1658    6    0    1
 -2      1987      2020      2503      2534      2423      3017      3172      3173      3019      3009
 -1      1659    6    0    1
 -2      1975      1010      2485      2531      3174      2795      2893      2920      2886      2904
 -1      1660    6    0    1
 -2       496      2482      1502      2530      2871      2773      3175      2909      2905      2855
 -1      1661    6    0    1
 -2      2029      2518      2030      2546      2824      3176      2450      3095      3096      3177
 -1      1662    6    0    1
 -2      1538      2519      1539      2548      2821      3178      1957      3092      3093      3179
 -1      1663    6    0    1
 -2       552       561      2518      2548       833      3180      2829      3100      3181      3101
 -1      1664    6    0    1
 -2      1046      2519      1053      2546      3182      2828      1326      3183      3099      3098
 -1      1665    6    0    1
 -2       499      1978      2484      2524      3184      2785      2779      2835      2837      2894
 -1      1666    6    0    1
 -2      1552      1556      2530      2557      1881      3185      2856      3136      3186      3138
 -1      1667    6    0    1
 -2      2049      2036      2531      2556      2374      3187      2921      3143      3188      3145
 -1      1668    6    0    1
 -2       549      2505      2453      2539      3189      3190      2865      3191      3193      3192
 -1      1669    6    0    1
 -2      1015      1508      2490      2529      3194      2660      2792      2838      2663      2664
 -1      1670    6    0    1
 -2      1054      1064      2531      2557      1393      2885      3195      3196      3148      3149
 -1      1671    6    0    1
 -2      1067      2454      1035      2536      3049      3006      1350      3050      2982      3197
 -1      1672    6    0    1
 -2       563       571      2530      2556       895      2908      3198      3199      3150      3151
 -1      1673    6    0    1
 -2       543       548      1986      2543       721      3058      3200      3201      3059      3060
 -1      1674    6    0    1
 -2      1481      1536      2492      2504      1871      2581      3202      3203      2967      2968
 -1      1675    6    0    1
 -2      2451      2472      1034      2536      2586      3204      3205      2970      2971      3206
 -1      1676    6    0    1
 -2       407      1489       409      2469      3207      3208       459      3209      3211      3210
 -1      1677    6    0    1
 -2      2011      2542      2468      2543      3118      3212      3213      3061      3119      3214
 -1      1678    6    0    1
 -2      1071      2451      1034      2497      3215      3205      1369      3216      2930      3217
 -1      1679    6    0    1
 -2       407      1561      1489      2492      3218      1594      3207      3219      3221      3220
 -1      1680    6    0    1
 -2      1034      2451      1071      2472      3205      3215      1369      3204      2586      3222
 -1      1681    6    0    1
 -2      1076      2452      1040      2492      3223      3224      1380      3225      2901      3226
 -1      1682    6    0    1
 -2      2452      2469       547      2496      2896      2573      2897      3227      3229      3228
 -1      1683    6    0    1
 -2      2035      2459      2051      2541      2987      3230      2358      2988      2989      3231
 -1      1684    6    0    1
 -2      2462      2481      2037      2521      2724      2725      2623      2617      3232      2622
 -1      1685    6    0    1
 -2       564      2474      2462      2521      2677      2650      2618      2616      3233      2617
 -1      1686    6    0    1
 -2      1989      2491      2451      2535      3234      2592      3235      3236      2978      2976
 -1      1687    6    0    1
 -2      1989      2451      2057      2497      3235      3237      2351      3238      2930      3239
 -1      1688    6    0    1
 -2       549      2453       559      2539      2865      3020       900      3191      3192      3240
 -1      1689    6    0    1
 -2      2050      2034      1977      2532      2384      2381      2382      3041      2915      2916
 -1      1690    6    0    1
 -2       557       553      2459      2537       828      2714      3027      3241      3243      3242
 -1      1691    6    0    1
 -2       562       555      2460      2538       970      3030      2735      3244      3246      3245
 -1      1692    6    0    1
 -2      2041      2456      2033      2540      3087      3086      2436      3247      3249      3248
 -1      1693    6    0    1
 -2       554      2456       551      2540      3082      3081       813      3250      3249      3251
 -1      1694    6    0    1
 -2      2034      2460      2050      2538      2745      3040      2384      3252      3245      3253
 -1      1695    6    0    1
 -2      2051      2459      2035      2537      3230      2987      2358      3254      3242      3255
 -1      1696    6    0    1
 -2      1536      2469      2452      2496      2577      2896      2900      3256      3229      3227
 -1      1697    6    0    1
 -2      1512       497      2496      2508      3257      2940      2934      2811      2868      2950
 -1      1698    6    0    1
 -2      2459      2541      1050      2549      2989      2996      2994      3037      3259      3258
 -1      1699    6    0    1
 -2      1042      1047      2453      2544      1398      3260      3261      3262      3264      3263
 -1      1700    6    0    1
 -2      2057      2451      1989      2491      3237      3235      2351      3265      2592      3234
 -1      1701    6    0    1
 -2      2041      2476      2456      2540      3266      3267      3087      3247      3268      3249
 -1      1702    6    0    1
 -2      2456      2476       551      2540      3267      3269      3081      3249      3268      3251
 -1      1703    6    0    1
 -2      2468      2542       548      2543      3212      3117      3270      3214      3119      3059
 -1      1704    6    0    1
 -2      1514      1515      1557      2512      1832      1953      1922      2786      2787      3044
 -1      1705    6    0    1
 -2       557       553       508      2506       828       947       944      3028      2863      2864
 -1      1706    6    0    1
 -2       562       555       536      2507       970       822       958      2861      3031      2862
 -1      1707    6    0    1
 -2       529      2505       549      2539      3271      3189       814      3272      3193      3191
 -1      1708    6    0    1
 -2       511      1474      2495      2513      3273      2937      2924      2804      2880      2949
 -1      1709    6    0    1
 -2      1541      1512      1537      2508      1867      1805      1886      3024      2811      2812
 -1      1710    6    0    1
 -2      2020      2454      2040      2542      3018      3123      2332      3274      3276      3275
 -1      1711    6    0    1
 -2      2038      2462      2037      2543      3071      2623      2448      3277      2620      2624
 -1      1712    6    0    1
 -2       542       574      2454      2542       856      3042      2801      3278      3279      3276
 -1      1713    6    0    1
 -2      1497      1544      1554      2506      1790      1865      1933      2858      2859      3051
 -1      1714    6    0    1
 -2       550       564      2462      2543       905      2618      3046      3280      2619      2620
 -1      1715    6    0    1
 -2      1069      2472      1478      2536      3281      3282      3283      3284      2971      3285
 -1      1716    6    0    1
 -2      1543      1521      1553      2507      1823      1814      1891      2840      2841      3039
 -1      1717    6    0    1
 -2       549       497       559      2508       897       898       900      2867      2868      3021
 -1      1718    6    0    1
 -2      2452      2500      1076      2558      2947      3286      3223      3287      3289      3288
 -1      1719    6    0    1
 -2       542       574       511      2513       856       953       880      2802      3043      2804
 -1      1720    6    0    1
 -2      1495      1478      2472      2536      1856      3282      2606      2969      3285      2971
 -1      1721    6    0    1
 -2      1481      2492       988      2504      3202      3290      3291      3203      2968      3292
 -1      1722    6    0    1
 -2       550       564       534      2512       905       852       848      3047      2853      2854
 -1      1723    6    0    1
 -2      1493      1525      1546      2536      1925      1839      1928      3026      3142      2983
 -1      1724    6    0    1
 -2       577      2471       547      2505      3293      2575       818      3294      2993      2991
 -1      1725    6    0    1
 -2       336       334       503      2470       365      3152      3295      3296      3298      3297
 -1      1726    6    0    1
 -2      2452      2469       420      2471      2896      3299      2943      2898      2576      3300
 -1      1727    6    0    1
 -2      2012      2037      2038      2533      2416      2448      2321      2917      2918      3072
 -1      1728    6    0    1
 -2      1043      1055       995      2533      1418      1415      1416      3127      2922      2923
 -1      1729    6    0    1
 -2      1546      1525      1474      2513      1839      1837      1835      3056      2879      2880
 -1      1730    6    0    1
 -2      1035      1067       982      2534      1350      1349      1347      3007      3073      3070
 -1      1731    6    0    1
 -2      1972      1019      2477      2541      3301      3015      3013      3014      3016      2990
 -1      1732    6    0    1
 -2       347      2451      2472      2497      2928      2586      3302      2929      2930      3303
 -1      1733    6    0    1
 -2      1057      1013      1049      2532      1453      1334      1456      3135      2911      2912
 -1      1734    6    0    1
 -2       541      2470      2451      2495      2629      2583      2603      3304      3306      3305
 -1      1735    6    0    1
 -2       410       420      2452      2469       478      2943      2944      3307      3299      2896
 -1      1736    6    0    1
 -2       554      2511       480      2517      3110      3308       812      3084      3111      3309
 -1      1737    6    0    1
 -2      1045      2510      1008      2516      3113      3310      1451      3078      3114      3311
 -1      1738    6    0    1
 -2      1998      2510      2033      2516      3312      3115      2295      3313      3114      3089
 -1      1739    6    0    1
 -2      1542      1500      2511      2517      1937      3314      3116      3090      3315      3111
 -1      1740    6    0    1
 -2      2053      2048      2000      2514      2389      2334      2440      3068      2849      2850
 -1      1741    6    0    1
 -2       407      1489      2469      2492      3207      3211      3209      3219      3220      2580
 -1      1742    6    0    1
 -2      2451      2470      1495      2495      2583      2630      2605      3305      3306      3316
 -1      1743    6    0    1
 -2      1987      2040      2020      2534      2424      2332      2423      3173      3124      3019
 -1      1744    6    0    1
 -2      1982      2054       406      2500      2087      3317      3318      3319      3321      3320
 -1      1745    6    0    1
 -2       493      2491      2055      2535      3322      3323      3324      3325      2978      3326
 -1      1746    6    0    1
 -2      1063      1065       996      2514      1423      1422      1419      2843      3076      2845
 -1      1747    6    0    1
 -2      1071      2472      2451      2497      3222      2586      3215      3216      3303      2930
 -1      1748    6    0    1
 -2      1502      1552      1556      2530      1820      1881      1944      2855      2856      3185
 -1      1749    6    0    1
 -2       551       554       480      2517       813       812       809      3083      3084      3309
 -1      1750    6    0    1
 -2      1045      1008      1044      2516      1451      1404      1306      3078      3311      3080
 -1      1751    6    0    1
 -2      2029      2013      2030      2518      2291      2410      2450      2824      2825      3176
 -1      1752    6    0    1
 -2      1542      1547      1500      2517      1939      1796      1937      3090      3091      3315
 -1      1753    6    0    1
 -2      2041      1998      2033      2516      2407      2295      2436      3088      3313      3089
 -1      1754    6    0    1
 -2      1538      1523      1539      2519      1916      1817      1957      2821      2822      3178
 -1      1755    6    0    1
 -2       552       561       484      2518       833       830       831      2829      3180      2830
 -1      1756    6    0    1
 -2      1046       977      1053      2519      1323      1324      1326      3182      2827      2828
 -1      1757    6    0    1
 -2      2003      2042      2046      2521      2323      2447      2446      2807      3077      2809
 -1      1758    6    0    1
 -2       501       568       565      2521       916       920       919      2831      2832      3102
 -1      1759    6    0    1
 -2       522       569       572      2527       859       910       962      2846      2847      3120
 -1      1760    6    0    1
 -2      1057      1049      1029      2522      1456      1455      1314      3001      3105      3055
 -1      1761    6    0    1
 -2      1543      1553      1484      2522      1891      1890      1887      3106      3012      3066
 -1      1762    6    0    1
 -2       572       569       499      2524       910       907       908      2833      3107      2835
 -1      1763    6    0    1
 -2      2053      1978      2048      2524      2388      2385      2389      2836      2837      3108
 -1      1764    6    0    1
 -2      1056      1060       998      2523      1433      1430      1431      2814      3104      2816
 -1      1765    6    0    1
 -2      2007      2046      2042      2523      2343      2447      2415      2817      3103      2818
 -1      1766    6    0    1
 -2      2451      2491      2057      2497      2592      3265      3237      2930      2997      3239
 -1      1767    6    0    1
 -2      1551      1485      1549      2527      1893      1894      1896      2906      2907      3126
 -1      1768    6    0    1
 -2      2453      2539      2028      2544      3192      3327      3328      3263      3330      3329
 -1      1769    6    0    1
 -2      1060      1056      1014      2525      1433      1343      1362      2819      3121      2820
 -1      1770    6    0    1
 -2      2032      2028      2539      2544      2379      3327      3331      3332      3329      3330
 -1      1771    6    0    1
 -2      1015      1065      1063      2529      1457      1423      1353      2838      2839      3125
 -1      1772    6    0    1
 -2      1982      2062      2054      2500      2403      2369      2087      3319      3333      3321
 -1      1773    6    0    1
 -2      1975      2049      2036      2531      2372      2374      2371      2920      2921      3187
 -1      1774    6    0    1
 -2       420      2452      2471      2500      2943      2898      3300      2946      2947      3334
 -1      1775    6    0    1
 -2       541      2491       493      2535      2604      3322       874      2977      2978      3325
 -1      1776    6    0    1
 -2      2452      2492      1076      2500      2901      3225      3223      2947      3035      3286
 -1      1777    6    0    1
 -2       553      2515      2459      2537      3335      3336      2714      3243      3337      3242
 -1      1778    6    0    1
 -2       521       565       568      2528       849       920       870      2805      2806      3130
 -1      1779    6    0    1
 -2      1003      1067      1035      2536      1445      1350      1374      3160      3050      3197
 -1      1780    6    0    1
 -2       562      2460      2526      2538      2735      3338      3339      3244      3245      3340
 -1      1781    6    0    1
 -2      2459      2515      2035      2537      3336      3341      2987      3242      3337      3255
 -1      1782    6    0    1
 -2      1054      1064      1010      2531      1393      1333      1424      3195      2885      2886
 -1      1783    6    0    1
 -2      2034      2526      2460      2538      3342      3338      2745      3252      3340      3245
 -1      1784    6    0    1
 -2      1048      1050      2541      2549      1321      2996      3343      3344      3258      3259
 -1      1785    6    0    1
 -2       578       503       544      2491       926       601       879      2590      3154      3155
 -1      1786    6    0    1
 -2      1560      1509      1559      2528      1831      1850      1901      2665      2666      3129
 -1      1787    6    0    1
 -2      1069      1034      2472      2536      1377      3204      3281      3284      3206      2971
 -1      1788    6    0    1
 -2      1560      1559      1486      2525      1901      1900      1897      3122      2643      2644
 -1      1789    6    0    1
 -2      1037       333      1000      2497      3345      3346      1094      3347      3349      3348
 -1      1790    6    0    1
 -2       563       571       496      2530       895       892       893      3198      2908      2909
 -1      1791    6    0    1
 -2      2056      2471       577      2505      3350      3293      3351      3352      2993      3294
 -1      1792    6    0    1
 -2      1551      1549      1508      2529      1896      1903      1840      3147      2669      2663
 -1      1793    6    0    1
 -2      2022      1981       338      2497      2080      3353      3354      3355      3357      3356
 -1      1794    6    0    1
 -2       503      2470       334      2491      3297      3298      3152      3154      2591      3156
 -1      1795    6    0    1
 -2      1034      2497      2451      2503      3217      2930      3205      3358      3360      3359
 -1      1796    6    0    1
 -2       504       413       575      2469      3361      3362       608      3363      3365      3364
 -1      1797    6    0    1
 -2      2451      2497      1989      2503      2930      3238      3235      3359      3360      3366
 -1      1798    6    0    1
 -2       583       504       575      2469       929       608       890      2572      3363      3364
 -1      1799    6    0    1
 -2      2022      2057      1981      2497      2352      2400      2080      3355      3239      3357
 -1      1800    6    0    1
 -2      1071      1037      1000      2497      1371      1094      1439      3216      3347      3348
 -1      1801    6    0    1
 -2      1536      2496      2452      2504      3256      3227      2900      2967      3367      2966
 -1      1802    6    0    1
 -2      2494      1545      2512      2513      3368      3369      3370      3371      3373      3372
 -1      1803    6    0    1
 -2      2453      2505      2028      2539      3190      3374      3328      3192      3193      3327
 -1      1804    6    0    1
 -2      1052      2493      2509      2510      3375      3376      3377      3378      3380      3379
 -1      1805    6    0    1
 -2      2493      1550      2508      2511      3381      3382      3383      3384      3386      3385
 -1      1806    6    0    1
 -2      2494      2499      1545      2513      3387      3388      3368      3371      3389      3373
 -1      1807    6    0    1
 -2      1515      2462      2474      2550      2646      2650      2648      3032      3033      3390
 -1      1808    6    0    1
 -2      1050      2477      2459      2549      2995      2986      2994      3258      3391      3037
 -1      1809    6    0    1
 -2      1053      2457      2475      2546      2704      2696      2706      3098      3097      3392
 -1      1810    6    0    1
 -2      1538      2475      2457      2548      2695      2696      2694      3092      3393      3094
 -1      1811    6    0    1
 -2      2029      2476      2457      2546      2701      2702      2699      3095      3394      3097
 -1      1812    6    0    1
 -2      2457      2476       552      2548      2702      2712      2709      3094      3395      3100
 -1      1813    6    0    1
 -2      1544      2459      2480      2549      2718      2716      2720      3036      3037      3396
 -1      1814    6    0    1
 -2      1488      1527       340      2472      1587      3397      3398      3399      3401      3400
 -1      1815    6    0    1
 -2      1052      2498      2493      2510      3402      3403      3375      3378      3404      3380
 -1      1816    6    0    1
 -2      2493      2498      1550      2511      3403      3405      3381      3384      3406      3386
 -1      1817    6    0    1
 -2      1564      1527      1488      2472      1860      1587      1907      2585      3401      3399
 -1      1818    6    0    1
 -2      1989      2055      2491      2535      2428      3323      3234      3236      3326      2978
 -1      1819    6    0    1
 -2      2463      2482      1552      2557      2774      2775      2771      3137      3407      3136
 -1      1820    6    0    1
 -2      2451      2495      1495      2536      3305      3316      2605      2970      3408      2969
 -1      1821    6    0    1
 -2       547      2452      2496      2505      2897      3227      3228      2991      2992      3409
 -1      1822    6    0    1
 -2      1055      2481      2462      2550      2729      2724      2727      3074      3410      3033
 -1      1823    6    0    1
 -2      2041      1994      2476      2540      2288      3411      3266      3247      3412      3268
 -1      1824    6    0    1
 -2       506       551      2476      2540       937      3269      3413      3414      3251      3268
 -1      1825    6    0    1
 -2       542      2454      2535      2542      2801      3415      3416      3278      3276      3417
 -1      1826    6    0    1
 -2       571      2482      2463      2556      2872      2774      2870      3150      3418      3144
 -1      1827    6    0    1
 -2      1068       411      1001      2492      3419      3420      1101      3421      3423      3422
 -1      1828    6    0    1
 -2      1005      2499      2494      2534      3424      3387      3425      3426      3428      3427
 -1      1829    6    0    1
 -2      1064      2485      2463      2557      2796      2797      2794      3148      3429      3137
 -1      1830    6    0    1
 -2      2049      2463      2485      2556      2890      2797      2892      3143      3144      3430
 -1      1831    6    0    1
 -2      1504      2483      2465      2555      2734      2571      2656      3131      3431      3133
 -1      1832    6    0    1
 -2      2465      2483      1039      2554      2571      2888      2799      3064      3432      3063
 -1      1833    6    0    1
 -2       541      2495      2451      2535      3304      3305      2603      2977      3433      2976
 -1      1834    6    0    1
 -2      2020      2535      2454      2542      3434      3415      3018      3274      3417      3276
 -1      1835    6    0    1
 -2      1499      2506      2501      2507      3435      3436      3437      3438      3440      3439
 -1      1836    6    0    1
 -2      1005      2494      2533      2534      3425      3441      3442      3426      3427      3443
 -1      1837    6    0    1
 -2      1982       406      2471      2500      3318      3444      3445      3319      3320      3334
 -1      1838    6    0    1
 -2      1569      1489      1561      2492      1910      1594      1876      2579      3220      3221
 -1      1839    6    0    1
 -2      1076      1068      1001      2492      1383      1101      1442      3225      3421      3422
 -1      1840    6    0    1
 -2      2022       338       341      2497      3354       372      3446      3355      3356      3447
 -1      1841    6    0    1
 -2       570      2518      2479      2547      3448      3449      3450      3451      3453      3452
 -1      1842    6    0    1
 -2      2031      2478      2518      2547      3454      3455      3456      3457      3458      3453
 -1      1843    6    0    1
 -2      2453      2504      1042      2544      2615      3459      3261      3263      3460      3262
 -1      1844    6    0    1
 -2      1992      1962      1993      2466      2148      2304      2303      3461      3463      3462
 -1      1845    6    0    1
 -2      2484      2514      2002      2554      3464      3465      3466      3467      3469      3468
 -1      1846    6    0    1
 -2       524      2527      2484      2555      3470      3471      3472      3473      3475      3474
 -1      1847    6    0    1
 -2      1533      2490      2527      2555      2776      3476      3477      3132      3478      3475
 -1      1848    6    0    1
 -2      2027      2062      2471      2558      2366      3479      3480      3481      3483      3482
 -1      1849    6    0    1
 -2       532       498      1966      2521       727      3484      3485      3486      2625      3487
 -1      1850    6    0    1
 -2      1966       498      2009      2521      3484      2932      2109      3487      2625      2627
 -1      1851    6    0    1
 -2      2028      2505      2453      2544      3374      3190      3328      3329      3488      3263
 -1      1852    6    0    1
 -2       559      2453      2508      2539      3020      2813      3021      3240      3192      3489
 -1      1853    6    0    1
 -2      2456       554      2511      2540      3082      3110      3109      3249      3250      3490
 -1      1854    6    0    1
 -2      2033      2456      2510      2540      3086      3112      3115      3248      3249      3491
 -1      1855    6    0    1
 -2       333      2472      1000      2497      3492      3493      3346      3349      3303      3348
 -1      1856    6    0    1
 -2      1040      2452      1076      2558      3224      3223      1380      3494      3287      3288
 -1      1857    6    0    1
 -2       555      2507      2460      2538      3031      2842      3030      3246      3495      3245
 -1      1858    6    0    1
 -2       557      2459      2506      2537      3027      2860      3028      3241      3242      3496
 -1      1859    6    0    1
 -2      1017      2514      2490      2554      3497      3498      2884      3062      3469      3499
 -1      1860    6    0    1
 -2      1499      2502      2501      2506      3500      3501      3437      3435      3502      3436
 -1      1861    6    0    1
 -2      1537      2453      2496      2504      2635      2935      2933      2636      2615      3367
 -1      1862    6    0    1
 -2      1047      2509      2453      2544      3503      3504      3260      3264      3505      3263
 -1      1863    6    0    1
 -2      2459      2537      2051      2541      3242      3254      3230      2989      3506      3231
 -1      1864    6    0    1
 -2      1982      2471      2062      2500      3445      3479      2403      3319      3334      3333
 -1      1865    6    0    1
 -2      1981      2491       338      2497      3507      3508      3353      3357      2997      3356
 -1      1866    6    0    1
 -2       549      2496      2453      2505      2941      2935      2865      3189      3409      3190
 -1      1867    6    0    1
 -2      1029      1484      2501      2522      3509      3065      3054      3055      3066      3003
 -1      1868    6    0    1
 -2      2062      2500      2471      2558      3333      3334      3479      3483      3289      3482
 -1      1869    6    0    1
 -2      1960      1031      2509      2510      3510      3511      3512      3513      3514      3379
 -1      1870    6    0    1
 -2      1522       533      2508      2511      3515      3516      3517      3518      3519      3385
 -1      1871    6    0    1
 -2      1960      1031      1997      2509      3510      3520      2272      3512      3511      3521
 -1      1872    6    0    1
 -2      1522       533      1480      2508      3515      3522      1682      3517      3516      3523
 -1      1873    6    0    1
 -2       533       530      1480      2508       696      3524      3522      3516      3525      3523
 -1      1874    6    0    1
 -2      1031       978      1997      2509      1286      3526      3520      3511      3527      3521
 -1      1875    6    0    1
 -2      2050      2460      2532      2538      3040      2913      3041      3253      3245      3528
 -1      1876    6    0    1
 -2      2040      2454      2534      2542      3123      3008      3124      3275      3276      3529
 -1      1877    6    0    1
 -2      1469       520      1498      2506      3530      3531      1655      3532      3534      3533
 -1      1878    6    0    1
 -2      1971      2497       986      2503      3535      3536      3537      3538      3360      3539
 -1      1879    6    0    1
 -2       550      2462      2512      2543      3046      2788      3047      3280      2620      3540
 -1      1880    6    0    1
 -2       413      2469       504      2471      3365      3363      3361      3541      2576      3542
 -1      1881    6    0    1
 -2      2031      2478      2547      2561      3454      3458      3457      3543      3545      3544
 -1      1882    6    0    1
 -2       570      2547      2479      2560      3451      3452      3450      3546      3548      3547
 -1      1883    6    0    1
 -2      2462      2038      2533      2543      3071      3072      2919      2620      3277      3549
 -1      1884    6    0    1
 -2      1003      1493      2499      2536      3550      3025      3159      3160      3026      2984
 -1      1885    6    0    1
 -2      1989      2497      1971      2503      3238      3535      2348      3366      3360      3538
 -1      1886    6    0    1
 -2      1001      2492       411      2500      3422      3423      3420      3551      3035      3552
 -1      1887    6    0    1
 -2      1517       512       487      2513      3553       624      3554      3555      3557      3556
 -1      1888    6    0    1
 -2      2455      2473      1060      2523      2642      2692      2689      2815      3558      3104
 -1      1889    6    0    1
 -2       574      2513      2454      2542      3043      2803      3042      3279      3559      3276
 -1      1890    6    0    1
 -2      2042      2481      2455      2521      2688      2684      2686      3077      3232      2808
 -1      1891    6    0    1
 -2      2455      2474       565      2521      2655      2732      2730      2808      3233      3102
 -1      1892    6    0    1
 -2      1056      2455      2481      2525      2680      2684      2682      3121      2645      3560
 -1      1893    6    0    1
 -2      1560      2474      2455      2525      2654      2655      2652      3122      3561      2645
 -1      1894    6    0    1
 -2      2035      2459      2477      2515      2987      2986      2985      3341      3336      3562
 -1      1895    6    0    1
 -2      2041      2456      2476      2516      3087      3267      3266      3088      3079      3563
 -1      1896    6    0    1
 -2      1044      2475      2456      2516      2703      2599      2632      3080      3564      3079
 -1      1897    6    0    1
 -2      2456      2475      1547      2517      2599      2708      2634      3085      3565      3091
 -1      1898    6    0    1
 -2       551      2476      2456      2517      3269      3267      3081      3083      3566      3085
 -1      1899    6    0    1
 -2       553      2480      2459      2515      2715      2716      2714      3335      3567      3336
 -1      1900    6    0    1
 -2      1543      2482      2460      2522      2673      2674      2671      3106      3568      3002
 -1      1901    6    0    1
 -2       562      2460      2482      2526      2735      2674      2737      3339      3338      3569
 -1      1902    6    0    1
 -2      1049      2460      2485      2522      2739      2743      2741      3105      3002      3570
 -1      1903    6    0    1
 -2      2034      2485      2460      2526      2746      2743      2745      3342      3571      3338
 -1      1904    6    0    1
 -2      2046      2487      2455      2523      2751      2752      2749      3103      3572      2815
 -1      1905    6    0    1
 -2      2455      2487       568      2528      2752      2764      2762      2667      3573      3130
 -1      1906    6    0    1
 -2      2048      2486      2461      2524      2761      2757      2759      3108      3574      2834
 -1      1907    6    0    1
 -2      2461      2486      1063      2529      2757      2755      2753      2662      3575      3125
 -1      1908    6    0    1
 -2      2461      2489       569      2524      2770      2768      2766      2834      3576      3107
 -1      1909    6    0    1
 -2      1559      2473      2455      2528      2641      2642      2639      3129      3577      2667
 -1      1910    6    0    1
 -2       572      2461      2484      2527      2777      2780      2781      3120      2848      3471
 -1      1911    6    0    1
 -2      2057      2491      1981      2497      3265      3507      2400      3239      2997      3357
 -1      1912    6    0    1
 -2      2461      2490      1065      2514      2659      2791      2789      2844      3498      3076
 -1      1913    6    0    1
 -2       524      2555      2484      2562      3473      3474      3472      3578      3580      3579
 -1      1914    6    0    1
 -2      2484      2554      2002      2562      3467      3468      3466      3579      3582      3581
 -1      1915    6    0    1
 -2       583       504      2469      2471       929      3363      2572      2574      3542      2576
 -1      1916    6    0    1
 -2      1071      1000      2472      2497      1439      3493      3222      3216      3348      3303
 -1      1917    6    0    1
 -2      2053      2484      2461      2514      2784      2780      2783      3068      3464      2844
 -1      1918    6    0    1
 -2       986      2497      1034      2503      3536      3217      1368      3539      3360      3358
 -1      1919    6    0    1
 -2      1551      2489      2461      2529      2876      2770      2874      3147      3583      2662
 -1      1920    6    0    1
 -2      1017      2490      2465      2554      2884      2568      2798      3062      3499      3064
 -1      1921    6    0    1
 -2      1533      2465      2490      2555      2657      2568      2776      3132      3133      3478
 -1      1922    6    0    1
 -2       410      2469      2452      2492      3307      2896      2944      2975      2580      2901
 -1      1923    6    0    1
 -2      1549      2490      2461      2527      2678      2659      2668      3126      3476      2848
 -1      1924    6    0    1
 -2       340      1527       335      2472      3397      3584       386      3400      3401      3585
 -1      1925    6    0    1
 -2      1006      1496      1481      2504      3586      1788      3587      3588      3589      3203
 -1      1926    6    0    1
 -2      1481       988      1006      2504      3291      1198      3587      3203      3292      3588
 -1      1927    6    0    1
 -2      2458      2547      2478      2561      3590      3458      3591      3592      3544      3545
 -1      1928    6    0    1
 -2      1994       506      2476      2540      3593      3413      3411      3412      3414      3268
 -1      1929    6    0    1
 -2      1001       411       414      2500      3420       452      3594      3551      3552      3595
 -1      1930    6    0    1
 -2      1040      2492      2452      2504      3226      2901      3224      3596      2968      2966
 -1      1931    6    0    1
 -2      1982       406       412      2471      3318       445      3597      3445      3444      3598
 -1      1932    6    0    1
 -2      2468      2494      2512      2513      3599      3370      3600      3601      3371      3372
 -1      1933    6    0    1
 -2       982      1987      2503      2534      3602      3172      3069      3070      3173      3009
 -1      1934    6    0    1
 -2      2035      2051      1972      2541      2358      2357      2354      2988      3231      3014
 -1      1935    6    0    1
 -2      1047      2493      2453      2509      3603      2613      3260      3503      3376      3504
 -1      1936    6    0    1
 -2      2453      2493      1541      2508      2613      2895      2637      2813      3383      3024
 -1      1937    6    0    1
 -2      1001      1076      2492      2500      1442      3225      3422      3551      3286      3035
 -1      1938    6    0    1
 -2      2456      2498      1045      2510      2601      2851      2631      3112      3404      3113
 -1      1939    6    0    1
 -2      1542      2498      2456      2511      2852      2601      2633      3116      3406      3109
 -1      1940    6    0    1
 -2      2468      2499      2494      2513      3604      3387      3599      3601      3389      3371
 -1      1941    6    0    1
 -2      1061      2532      2502      2541      3605      3606      3607      3608      3610      3609
 -1      1942    6    0    1
 -2      1546      2499      2454      2513      2980      2979      2981      3056      3389      2803
 -1      1943    6    0    1
 -2      2467      2493      2508      2511      3611      3383      3612      3613      3384      3385
 -1      1944    6    0    1
 -2      2493      2467      2509      2510      3611      3614      3376      3380      3615      3379
 -1      1945    6    0    1
 -2      1019      1048      1050      2541      1401      1321      1410      3016      3343      2996
 -1      1946    6    0    1
 -2      2494      2499      2468      2534      3387      3604      3599      3427      3428      3616
 -1      1947    6    0    1
 -2      2479      2547      2458      2560      3452      3590      3617      3547      3548      3618
 -1      1948    6    0    1
 -2      1569      2469      1489      2492      2578      3211      1910      2579      2580      3220
 -1      1949    6    0    1
 -2      2023      1009       992      2532      3619      1259      3620      3621      3623      3622
 -1      1950    6    0    1
 -2      1553      2501      2460      2507      3010      2999      3011      3039      3439      2842
 -1      1951    6    0    1
 -2      2484      2555      2465      2562      3474      3133      3624      3579      3580      3625
 -1      1952    6    0    1
 -2      2465      2554      2484      2562      3064      3467      3624      3625      3582      3579
 -1      1953    6    0    1
 -2      1000       333       339      2472      3346       379      3626      3493      3492      3627
 -1      1954    6    0    1
 -2      1036      1965      2010      2533      3628      2200      3629      3630      3632      3631
 -1      1955    6    0    1
 -2      2467      2498      2493      2511      3633      3403      3611      3613      3406      3384
 -1      1956    6    0    1
 -2      2493      2498      2467      2510      3403      3633      3611      3380      3404      3615
 -1      1957    6    0    1
 -2      2494      2468      2533      2534      3599      3634      3441      3427      3616      3443
 -1      1958    6    0    1
 -2      2479      2518      2458      2547      3449      3635      3617      3452      3453      3590
 -1      1959    6    0    1
 -2      2458      2518      2478      2547      3635      3455      3591      3590      3453      3458
 -1      1960    6    0    1
 -2       408       413       504      2471       438      3361      3636      3637      3541      3542
 -1      1961    6    0    1
 -2      1067      2454      2499      2534      3049      2979      3048      3073      3008      3428
 -1      1962    6    0    1
 -2      2484      2527      2465      2555      3471      3638      3624      3474      3475      3133
 -1      1963    6    0    1
 -2      2460      2501      1057      2532      2999      2998      3000      2913      3639      3135
 -1      1964    6    0    1
 -2      2465      2514      2484      2554      3640      3464      3624      3064      3469      3467
 -1      1965    6    0    1
 -2      2465      2527      2490      2555      3638      3476      2568      3133      3475      3478
 -1      1966    6    0    1
 -2      1481      1496      1536      2504      1788      1872      1871      3203      3589      2967
 -1      1967    6    0    1
 -2      2010      1041      2533      2534      3641      3642      3631      3643      3644      3443
 -1      1968    6    0    1
 -2      2490      2514      2465      2554      3498      3640      2568      3499      3469      3064
 -1      1969    6    0    1
 -2       578      2470       503      2491      2589      3297       926      2590      2591      3154
 -1      1970    6    0    1
 -2      2501      2506      2466      2507      3436      3645      3646      3439      3440      3647
 -1      1971    6    0    1
 -2      1069      1478      1494      2536      3283      1698      3648      3284      3285      3649
 -1      1972    6    0    1
 -2       337      2470      2451      2491      3650      2583      2936      2973      2591      2592
 -1      1973    6    0    1
 -2       529      2005      2505      2539      3651      3652      3271      3272      3653      3193
 -1      1974    6    0    1
 -2       992      2024      2532      2541      3654      3655      3622      3656      3657      3610
 -1      1975    6    0    1
 -2       481      1961       577      2505      3658      3659       802      3660      3661      3294
 -1      1976    6    0    1
 -2      2056       577      1961      2505      3351      3659      2184      3352      3294      3661
 -1      1977    6    0    1
 -2       542      2454      2495      2535      2801      2925      2926      3416      3415      3433
 -1      1978    6    0    1
 -2      1035      2454      2503      2536      3006      3005      3004      3197      2982      3662
 -1      1979    6    0    1
 -2      1488       340      2470      2472      3398      3663      3664      3399      3400      2587
 -1      1980    6    0    1
 -2      2501      2502      1061      2532      3501      3607      3665      3639      3606      3605
 -1      1981    6    0    1
 -2      2020      2503      2454      2535      3017      3005      3018      3434      3666      3415
 -1      1982    6    0    1
 -2      2471      2505      2027      2558      2993      3667      3480      3482      3668      3481
 -1      1983    6    0    1
 -2      1525      2495      2454      2536      2938      2925      2877      3142      3408      2982
 -1      1984    6    0    1
 -2      1564      1488      2470      2472      1907      3664      2582      2585      3399      2587
 -1      1985    6    0    1
 -2      2010      1041      1036      2533      3641      1214      3629      3631      3642      3630
 -1      1986    6    0    1
 -2      1069      1494       987      2536      3648      3669      1108      3284      3649      3670
 -1      1987    6    0    1
 -2       338      2491       342      2497      3508      2972       403      3356      2997      2931
 -1      1988    6    0    1
 -2       510       493      2055      2535       712      3324      3671      3672      3325      3326
 -1      1989    6    0    1
 -2      2501      2502      2466      2506      3501      3673      3646      3436      3502      3645
 -1      1990    6    0    1
 -2      1992      2466      1993      2537      3461      3462      2303      3674      3167      3675
 -1      1991    6    0    1
 -2       407       409       410      2469       459       468       467      3209      3210      3307
 -1      1992    6    0    1
 -2      1993      2466      1962      2538      3462      3463      2304      3676      3170      2961
 -1      1993    6    0    1
 -2      2021       510      2055      2535      3677      3671      2094      3678      3672      3326
 -1      1994    6    0    1
 -2       415       411      2492      2500       476      3423      2974      2948      3552      3035
 -1      1995    6    0    1
 -2      1023      1026      1467      2493      1189      3679      3680      3681      3683      3682
 -1      1996    6    0    1
 -2      1023      1467      1505      2493      3680      1779      3684      3681      3682      3685
 -1      1997    6    0    1
 -2      1467      2493      1026      2498      3682      3683      3679      3686      3403      3687
 -1      1998    6    0    1
 -2      2023       992      2024      2532      3620      3654      2245      3621      3622      3655
 -1      1999    6    0    1
 -2       558      2466       519      2537      3688      3168       941      3689      3167      3166
 -1      2000    6    0    1
 -2       560       535      2467      2540       836      3165      3690      3691      2954      3164
 -1      2001    6    0    1
 -2      2017      2047      2467      2540      2362      3692      3163      2956      3693      3164
 -1      2002    6    0    1
 -2      2039      2468      2011      2542      3694      3213      2421      3695      3212      3118
 -1      2003    6    0    1
 -2       548      2468       513      2542      3270      3696       956      3117      3212      3697
 -1      2004    6    0    1
 -2       495      2469      1563      2496      3698      3699      3700      3701      3229      3702
 -1      2005    6    0    1
 -2      1004      1516      2494      2499      3703      3704      3705      3706      3707      3387
 -1      2006    6    0    1
 -2       980      1004      1516      2494      1117      3703      3708      3709      3705      3704
 -1      2007    6    0    1
 -2      1472       980      1516      2494      3710      3708      1707      3711      3709      3704
 -1      2008    6    0    1
 -2      2452      2505      2471      2558      2992      2993      2898      3287      3668      3482
 -1      2009    6    0    1
 -2       481       577       547      2505       802       818       816      3660      3294      2991
 -1      2010    6    0    1
 -2       337       334       336      2470       394       365       395      3650      3298      3296
 -1      2011    6    0    1
 -2       341       338       342      2497       372       403       392      3447      3356      2931
 -1      2012    6    0    1
 -2      1985      2012       995      2481      2206      3067      3712      3713      2723      2728
 -1      2013    6    0    1
 -2       995      1025      1985      2481      1220      3714      3712      2728      3715      3713
 -1      2014    6    0    1
 -2      1994       506       526      2476      3593       787      3716      3411      3413      3717
 -1      2015    6    0    1
 -2      1959      1994       526      2476      2169      3716      3718      3719      3411      3717
 -1      2016    6    0    1
 -2      1020      1507       973      2475      3720      2593      1183      3721      2595      2594
 -1      2017    6    0    1
 -2       526      2013      1959      2476      3722      2166      3718      3717      2700      3719
 -1      2018    6    0    1
 -2      1490      1507      1020      2475      1773      3720      3723      3724      2595      3721
 -1      2019    6    0    1
 -2       977      1490      1020      2475      3725      3723      1180      2707      3724      3721
 -1      2020    6    0    1
 -2      2013       526       484      2476      3722       784      3139      2700      3717      2711
 -1      2021    6    0    1
 -2      1523      1490       977      2475      1770      3725      3140      2697      3724      2707
 -1      2022    6    0    1
 -2      1972      1019      2019      2477      3301      3726      2251      3013      3015      3727
 -1      2023    6    0    1
 -2      2019      1019       994      2477      3726      1265      3728      3727      3015      3729
 -1      2024    6    0    1
 -2      1497       508       539      2480      3022       675      3730      2721      2717      3731
 -1      2025    6    0    1
 -2      1497       539      1465      2480      3730      3732      1661      2721      3731      3733
 -1      2026    6    0    1
 -2      2007      1985      1025      2481      2209      3714      3734      2687      3713      3715
 -1      2027    6    0    1
 -2      1025       998      2007      2481      1223      3141      3734      3715      2683      2687
 -1      2028    6    0    1
 -2      1968      1018       996      2486      3735      1235      3736      3737      3738      2756
 -1      2029    6    0    1
 -2      2000      1968       996      2486      2221      3736      3134      2760      3737      2756
 -1      2030    6    0    1
 -2      1013      1977       979      2485      3053      3739      1253      2742      2747      3740
 -1      2031    6    0    1
 -2      2008       979      1977      2485      3741      3739      2239      3742      3740      2747
 -1      2032    6    0    1
 -2       518       536      1521      2482       663      3023      3743      3744      2738      2672
 -1      2033    6    0    1
 -2       501      2003       531      2487      3146      3745       733      2765      2750      3746
 -1      2034    6    0    1
 -2       531      2003      2004      2487      3745      2115      3747      3746      2750      3748
 -1      2035    6    0    1
 -2      1521      1471       518      2482      1649      3749      3743      2672      3750      3744
 -1      2036    6    0    1
 -2       488       521      1509      2474       633      3161      3751      3752      2733      2653
 -1      2037    6    0    1
 -2      1509      1473       488      2474      1619      3753      3751      2653      3754      3752
 -1      2038    6    0    1
 -2      1473      1514       534      2474      1616      3029      3755      3754      2649      2676
 -1      2039    6    0    1
 -2       534       488      1473      2474       630      3753      3755      2676      3752      3754
 -1      2040    6    0    1
 -2       496       518      1471      2482       660      3749      3756      2871      3744      3750
 -1      2041    6    0    1
 -2       496      1471      1502      2482      3756      1646      3175      2871      3750      2773
 -1      2042    6    0    1
 -2      2008      1975       979      2485      2236      3757      3741      3742      2893      3740
 -1      2043    6    0    1
 -2       986      1071      1034      2497      1370      1369      1368      3536      3216      3217
 -1      2044    6    0    1
 -2       522      1485       490      2489      3158      3758       645      2769      2875      3759
 -1      2045    6    0    1
 -2      1532       985      1014      2473      3760      1129      3761      3762      3763      2691
 -1      2046    6    0    1
 -2       415       414       411      2500       464       452       476      2948      3595      3552
 -1      2047    6    0    1
 -2      1975      1010       979      2485      3174      1250      3757      2893      2795      3740
 -1      2048    6    0    1
 -2       545      1978      2026      2484      3764      2127      3765      3766      2785      3767
 -1      2049    6    0    1
 -2      1014      1486      1532      2473      3157      1719      3761      2691      2640      3762
 -1      2050    6    0    1
 -2       499      1978       545      2484      3184      3764       745      2779      2785      3766
 -1      2051    6    0    1
 -2      1485      1506       490      2489      1631      3768      3758      2875      3769      3759
 -1      2052    6    0    1
 -2      1971      1989      2057      2497      2348      2351      2350      3535      3238      3239
 -1      2053    6    0    1
 -2      1555       984      1487      2490      2565      3770      1734      2566      2567      3771
 -1      2054    6    0    1
 -2       988      2492      1040      2504      3290      3226      1379      3292      2968      3596
 -1      2055    6    0    1
 -2      1015      1508      1016      2490      3194      3772      1141      2792      2660      3773
 -1      2056    6    0    1
 -2      2502      2532      2466      2541      3606      3774      3673      3609      3610      3775
 -1      2057    6    0    1
 -2      1016      1487       984      2490      3776      3770      1144      3773      3771      2567
 -1      2058    6    0    1
 -2      1984      2518       516      2547      3777      3778      3779      3780      3453      3781
 -1      2059    6    0    1
 -2       984      1555      1021      2483      2565      3782      1147      2569      2570      3783
 -1      2060    6    0    1
 -2      2005      2028      2505      2539      2299      3374      3652      3653      3327      3193
 -1      2061    6    0    1
 -2      1966      2009      2037      2521      2109      2326      2325      3487      2627      2622
 -1      2062    6    0    1
 -2       532       564       498      2521       902       901       727      3486      2616      2625
 -1      2063    6    0    1
 -2      1487      1016      1508      2490      3776      3772      1731      3771      3773      2660
 -1      2064    6    0    1
 -2      1483      1496       991      2504      1785      3784      2609      2611      3589      2610
 -1      2065    6    0    1
 -2      1534      1021      1555      2483      3785      3782      1737      3786      3783      2570
 -1      2066    6    0    1
 -2      2451      2503      1989      2535      3359      3366      3235      2976      3666      3236
 -1      2067    6    0    1
 -2      1034      2503      2451      2536      3358      3359      3205      3206      3662      2970
 -1      2068    6    0    1
 -2       547      2469       495      2496      2573      3698       885      3228      3229      3701
 -1      2069    6    0    1
 -2       410       407      2469      2492       467      3209      3307      2975      3219      2580
 -1      2070    6    0    1
 -2      1988      1971       986      2503      2191      3537      3787      3788      3538      3539
 -1      2071    6    0    1
 -2      1562      2470       576      2495      3789      3790      3791      3792      3306      3793
 -1      2072    6    0    1
 -2      2001      2514      1038      2554      3794      3795      3796      3797      3469      3798
 -1      2073    6    0    1
 -2      1518      2527       523      2555      3799      3800      3801      3802      3475      3803
 -1      2074    6    0    1
 -2      1478      1564      1495      2472      1858      1857      1856      3282      2585      2606
 -1      2075    6    0    1
 -2       529      2005       481      2505      3651      3804       799      3271      3652      3660
 -1      2076    6    0    1
 -2      1491      2479       515      2548      3805      3806      3807      3808      3810      3809
 -1      2077    6    0    1
 -2      1963      2478       989      2546      3811      3812      3813      3814      3816      3815
 -1      2078    6    0    1
 -2      1469      2506      1499      2507      3532      3435      1810      3817      3440      3438
 -1      2079    6    0    1
 -2      1469      1498      1499      2506      1655      1811      1810      3532      3533      3435
 -1      2080    6    0    1
 -2       337       334      2470      2491       394      3298      3650      2973      3156      2591
 -1      2081    6    0    1
 -2       558      2506       520      2507      3818      3534       819      3819      3440      3820
 -1      2082    6    0    1
 -2       558       520       482      2507       819       669       820      3819      3820      3821
 -1      2083    6    0    1
 -2      1002      1988       986      2503      3822      3787      1205      3823      3788      3539
 -1      2084    6    0    1
 -2       531      2487      2004      2553      3746      3748      3747      3824      3826      3825
 -1      2085    6    0    1
 -2      1018      2486      1968      2552      3738      3737      3735      3827      3829      3828
 -1      2086    6    0    1
 -2      1031      1052      2509      2510      1330      3377      3511      3514      3378      3379
 -1      2087    6    0    1
 -2       533       560      2508      2511       968      3830      3516      3519      3831      3385
 -1      2088    6    0    1
 -2      1960      2509      2047      2510      3512      3832      2293      3513      3379      3833
 -1      2089    6    0    1
 -2      1550      1522      2508      2511      1868      3517      3382      3386      3518      3385
 -1      2090    6    0    1
 -2      1492      2512      1545      2513      3834      3369      1924      3835      3372      3373
 -1      2091    6    0    1
 -2      1031      1052       978      2509      1330      1329      1286      3511      3377      3527
 -1      2092    6    0    1
 -2      1960      1997      2047      2509      2272      2294      2293      3512      3521      3832
 -1      2093    6    0    1
 -2       533       560       530      2508       968       967       696      3516      3830      3525
 -1      2094    6    0    1
 -2      1522      1480      1550      2508      1682      1869      1868      3517      3523      3382
 -1      2095    6    0    1
 -2       513      2512       487      2513      3836      3837       844      3838      3372      3556
 -1      2096    6    0    1
 -2      1984       505      2015      2547      3839      3840      2160      3780      3842      3841
 -1      2097    6    0    1
 -2      1984       516       505      2547      3779       778      3839      3780      3781      3842
 -1      2098    6    0    1
 -2      1033      2018       989      2546      3843      3844      1274      3845      3846      3815
 -1      2099    6    0    1
 -2      1491       515      1519      2548      3807      3847      1670      3808      3809      3848
 -1      2100    6    0    1
 -2       515       509      1519      2548       684      3849      3847      3809      3850      3848
 -1      2101    6    0    1
 -2      1963       989      2018      2546      3813      3844      2260      3814      3815      3846
 -1      2102    6    0    1
 -2      1968      2014       999      2552      2218      3851      3852      3828      3854      3853
 -1      2103    6    0    1
 -2      1018      1968       999      2552      3735      3852      1232      3827      3828      3853
 -1      2104    6    0    1
 -2       502       531      1980      2553       736      3855      3856      3857      3824      3858
 -1      2105    6    0    1
 -2       531      2004      1980      2553      3747      2118      3855      3824      3825      3858
 -1      2106    6    0    1
 -2       985      2473      1532      2545      3763      3762      3760      3859      3861      3860
 -1      2107    6    0    1
 -2       512       513       487      2513       845       844       624      3557      3838      3556
 -1      2108    6    0    1
 -2      1492      1545      1517      2513      1924      1923      1610      3835      3373      3555
 -1      2109    6    0    1
 -2      1061       992      2532      2541      1399      3622      3605      3608      3656      3610
 -1      2110    6    0    1
 -2       490      2489      1506      2551      3759      3769      3768      3862      3864      3863
 -1      2111    6    0    1
 -2      1558       985      1532      2545      3865      3760      1722      3866      3859      3860
 -1      2112    6    0    1
 -2      2027      2471      2056      2505      3480      3350      2302      3667      2993      3352
 -1      2113    6    0    1
 -2      1481      1536      1569      2492      1871      1874      1873      3202      2581      2579
 -1      2114    6    0    1
 -2       988      1076      1040      2492      1381      1380      1379      3290      3225      3226
 -1      2115    6    0    1
 -2       490      1506       537      2551      3768      3867       642      3862      3863      3868
 -1      2116    6    0    1
 -2      1021      2483      1534      2557      3783      3786      3785      3869      3871      3870
 -1      2117    6    0    1
 -2      1482       990      1021      2557      3872      1150      3873      3874      3875      3869
 -1      2118    6    0    1
 -2      1030       985      1558      2545      1132      3865      3876      3877      3859      3866
 -1      2119    6    0    1
 -2       500      2488      1979      2556      3878      3879      3880      3881      3883      3882
 -1      2120    6    0    1
 -2       493       541       578      2491       874       877       876      3322      2604      2590
 -1      2121    6    0    1
 -2      1482      1021      1534      2557      3873      3785      1740      3874      3869      3870
 -1      2122    6    0    1
 -2      2001      1038      1066      2554      3796      1241      3884      3797      3798      3885
 -1      2123    6    0    1
 -2      2010      1965      2039      2533      2200      2319      2318      3631      3632      3886
 -1      2124    6    0    1
 -2      1993      2466      2532      2541      3462      3774      3887      3888      3775      3610
 -1      2125    6    0    1
 -2       991      1496      1006      2504      3784      3586      1195      2610      3589      3588
 -1      2126    6    0    1
 -2      1066      1969      2001      2554      3889      2227      3884      3885      3890      3797
 -1      2127    6    0    1
 -2      1518       523       491      2555      3801       651      3891      3802      3803      3892
 -1      2128    6    0    1
 -2      1979      1995       517      2556      2136      3893      3894      3882      3896      3895
 -1      2129    6    0    1
 -2       500      1979       517      2556      3880      3894       754      3881      3882      3895
 -1      2130    6    0    1
 -2       537      1506      1510      2551      3867      1628      3897      3868      3863      3898
 -1      2131    6    0    1
 -2      1536      1563      2469      2496      1809      3699      2577      3256      3702      3229
 -1      2132    6    0    1
 -2      1009      1061       992      2532      1400      1399      1259      3623      3605      3622
 -1      2133    6    0    1
 -2      1993      2532      2024      2541      3887      3655      2432      3888      3610      3657
 -1      2134    6    0    1
 -2      1495      1494      1478      2536      1855      1698      1856      2969      3649      3285
 -1      2135    6    0    1
 -2       420      2471       406      2500      3300      3444       462      2946      3334      3320
 -1      2136    6    0    1
 -2      2466      2502      2501      2532      3673      3501      3646      3774      3606      3639
 -1      2137    6    0    1
 -2      2478      2519      1046      2546      3899      3182      3900      3816      3099      3183
 -1      2138    6    0    1
 -2      2030      2518      2478      2546      3176      3455      3901      3177      3096      3816
 -1      2139    6    0    1
 -2       561      2479      2518      2548      3902      3449      3180      3181      3810      3101
 -1      2140    6    0    1
 -2      1539      2519      2479      2548      3178      3903      3904      3179      3093      3810
 -1      2141    6    0    1
 -2      2010      2533      2039      2534      3631      3886      2318      3643      3443      3905
 -1      2142    6    0    1
 -2      1528      1529       975      2501      1752      3906      3907      3908      3910      3909
 -1      2143    6    0    1
 -2       483      2515       553      2537      3911      3335       826      3912      3337      3243
 -1      2144    6    0    1
 -2      1557      2494      2512      2550      3913      3370      3044      3045      3914      3034
 -1      2145    6    0    1
 -2       562      2526       538      2538      3339      3915       842      3244      3340      3916
 -1      2146    6    0    1
 -2      2483      2530      1556      2557      3917      3185      3918      3871      3138      3186
 -1      2147    6    0    1
 -2      2035      2515      1991      2537      3341      3919      2284      3255      3337      3920
 -1      2148    6    0    1
 -2      2488      2531      2036      2556      3921      3187      3922      3883      3145      3188
 -1      2149    6    0    1
 -2      2034      2016      2526      2538      2315      3923      3342      3252      3924      3340
 -1      2150    6    0    1
 -2      1518       491      1476      2555      3891      3925      1637      3802      3892      3926
 -1      2151    6    0    1
 -2      1054      2531      2483      2557      3195      3927      3928      3196      3149      3871
 -1      2152    6    0    1
 -2      1034      1071      1069      2472      1369      1440      1377      3204      3222      3281
 -1      2153    6    0    1
 -2      1043      2533      2494      2550      3127      3441      3929      3128      3075      3914
 -1      2154    6    0    1
 -2      2502      2506      1554      2549      3502      3051      3930      3931      3038      3052
 -1      2155    6    0    1
 -2       563      2530      2488      2556      3198      3932      3933      3199      3151      3883
 -1      2156    6    0    1
 -2      2471      2500      2452      2558      3334      2947      2898      3482      3289      3287
 -1      2157    6    0    1
 -2      1562       576       494      2495      3791       615      3934      3792      3793      3935
 -1      2158    6    0    1
 -2       541       576      2470      2495       884      3790      2629      3304      3793      3306
 -1      2159    6    0    1
 -2       514       495      1563      2496       705      3700      3936      3937      3701      3702
 -1      2160    6    0    1
 -2      1526      1562       494      2495      1601      3934      3938      3939      3792      3935
 -1      2161    6    0    1
 -2      1041      1005      2533      2534      1448      3442      3642      3644      3426      3443
 -1      2162    6    0    1
 -2       542      2535       489      2542      3416      3940       855      3278      3417      3941
 -1      2163    6    0    1
 -2       558      2466      2506      2507      3688      3645      3818      3819      3647      3440
 -1      2164    6    0    1
 -2      2467      2508       560      2511      3612      3830      3690      3613      3385      3831
 -1      2165    6    0    1
 -2      2047      2509      2467      2510      3832      3614      3692      3833      3379      3615
 -1      2166    6    0    1
 -2      2468      2512       513      2513      3600      3836      3696      3601      3372      3838
 -1      2167    6    0    1
 -2       481      2005      1961      2505      3804      2181      3658      3660      3652      3661
 -1      2168    6    0    1
 -2      1495      2470      1562      2495      2630      3789      1931      3316      3306      3792
 -1      2169    6    0    1
 -2       347      2472       333      2497      3302      3492       389      2929      3303      3349
 -1      2170    6    0    1
 -2       420       406       415      2500       462       463       466      2946      3320      2948
 -1      2171    6    0    1
 -2      1468       514      1563      2496      3942      3936      1691      3943      3937      3702
 -1      2172    6    0    1
 -2      2473      2545      1058      2552      3861      3944      3945      3946      3948      3947
 -1      2173    6    0    1
 -2       480      2511      1500      2517      3308      3314      3949      3309      3111      3315
 -1      2174    6    0    1
 -2      1998      1008      2510      2516      3950      3310      3312      3313      3311      3114
 -1      2175    6    0    1
 -2      1483      1537      1496      2504      1883      1882      1785      2611      2636      3589
 -1      2176    6    0    1
 -2      2031      2518      1984      2547      3456      3777      2412      3457      3453      3780
 -1      2177    6    0    1
 -2       516      2518       570      2547      3778      3448       933      3781      3453      3451
 -1      2178    6    0    1
 -2       420      2469       413      2471      3299      3365       473      3300      2576      3541
 -1      2179    6    0    1
 -2      1059      2545      2486      2552      3951      3952      3953      3954      3948      3829
 -1      2180    6    0    1
 -2       583       495       547      2469       887       885       888      2572      3698      2573
 -1      2181    6    0    1
 -2      2489      2551       567      2553      3864      3955      3956      3957      3959      3958
 -1      2182    6    0    1
 -2      2045      2487      2552      2553      3960      3961      3962      3963      3826      3964
 -1      2183    6    0    1
 -2      2044      2552      2486      2553      3965      3829      3966      3967      3964      3968
 -1      2184    6    0    1
 -2       510       541       493      2535       875       874       712      3672      2977      3325
 -1      2185    6    0    1
 -2       566      2551      2487      2553      3969      3970      3971      3972      3959      3826
 -1      2186    6    0    1
 -2       523      2527       524      2555      3800      3470       865      3803      3475      3473
 -1      2187    6    0    1
 -2      1993      2537      2466      2541      3675      3167      3462      3888      3506      3775
 -1      2188    6    0    1
 -2      2002      2514      2001      2554      3465      3794      2338      3468      3469      3797
 -1      2189    6    0    1
 -2      2039      2533      2468      2534      3886      3634      3694      3905      3443      3616
 -1      2190    6    0    1
 -2      1518      1533      2527      2555      1849      3477      3799      3802      3132      3475
 -1      2191    6    0    1
 -2      2027      2062      2056      2471      2366      2405      2302      3480      3479      3350
 -1      2192    6    0    1
 -2       577       583       547      2471       931       888       818      3293      2574      2575
 -1      2193    6    0    1
 -2      2020      1967      2535      2542      2331      3973      3434      3274      3974      3417
 -1      2194    6    0    1
 -2      1036      1041      1005      2533      1214      1448      1449      3630      3642      3442
 -1      2195    6    0    1
 -2      1535      2489      2545      2551      3975      3976      3977      3978      3864      3979
 -1      2196    6    0    1
 -2       558      2506      2466      2537      3818      3645      3688      3689      3496      3167
 -1      2197    6    0    1
 -2      2466      2507       558      2538      3647      3819      3688      3170      3495      3980
 -1      2198    6    0    1
 -2       560      2467      2511      2540      3690      3613      3831      3691      3164      3490
 -1      2199    6    0    1
 -2      2047      2510      2467      2540      3833      3615      3692      3693      3491      3164
 -1      2200    6    0    1
 -2       560      2508      2467      2539      3830      3612      3690      3981      3489      3162
 -1      2201    6    0    1
 -2      2047      2467      2509      2539      3692      3614      3832      3982      3162      3983
 -1      2202    6    0    1
 -2      1511      2545      2473      2551      3984      3861      3985      3986      3979      3987
 -1      2203    6    0    1
 -2      1038      2514      1017      2554      3795      3497      1460      3798      3469      3062
 -1      2204    6    0    1
 -2       529       481       549      2505       799       815       814      3271      3660      3189
 -1      2205    6    0    1
 -2      1993      2532      2466      2538      3887      3774      3462      3676      3528      3170
 -1      2206    6    0    1
 -2      1993      2023      2024      2532      2433      2245      2432      3887      3621      3655
 -1      2207    6    0    1
 -2       347       333       342      2497       389       391       393      2929      3349      2931
 -1      2208    6    0    1
 -2      1468      1512       497      2496      1688      3257      3988      3943      2934      2940
 -1      2209    6    0    1
 -2       511      1474      1526      2495      3273      1604      3989      2924      2937      3939
 -1      2210    6    0    1
 -2      1023      1505      1483      2493      3684      1782      3990      3681      3685      2608
 -1      2211    6    0    1
 -2      2468      2513       513      2542      3601      3838      3696      3212      3559      3697
 -1      2212    6    0    1
 -2       991      1023      1483      2493      1192      3990      2609      2607      3681      2608
 -1      2213    6    0    1
 -2       513      2512      2468      2543      3836      3600      3696      3991      3540      3214
 -1      2214    6    0    1
 -2      1472      1028       980      2494      3992      1120      3710      3711      3993      3709
 -1      2215    6    0    1
 -2      1028      1472      1531      2494      3992      1710      3994      3993      3711      3995
 -1      2216    6    0    1
 -2       550       498       564      2543       904       901       905      3280      2626      2619
 -1      2217    6    0    1
 -2       973      1507      1467      2498      2593      1776      3996      2598      2596      3686
 -1      2218    6    0    1
 -2      1467      1026       973      2498      3679      1186      3996      3686      3687      2598
 -1      2219    6    0    1
 -2      1048      2541      2502      2549      3343      3609      3997      3344      3259      3931
 -1      2220    6    0    1
 -2       557       483       553      2537       825       826       828      3241      3912      3243
 -1      2221    6    0    1
 -2       562       538       555      2538       842       942       970      3244      3916      3246
 -1      2222    6    0    1
 -2      1537      2496      1536      2504      2933      3256      1808      2636      3367      2967
 -1      2223    6    0    1
 -2      1069       987      1034      2536      1108      1376      1377      3284      3670      3206
 -1      2224    6    0    1
 -2       529       549       559      2539       814       900       835      3272      3191      3240
 -1      2225    6    0    1
 -2      2032      2028      2005      2539      2379      2299      2359      3331      3327      3653
 -1      2226    6    0    1
 -2      2041      2033      1994      2540      2436      2435      2288      3247      3248      3412
 -1      2227    6    0    1
 -2       506       554       551      2540       938       813       937      3414      3250      3251
 -1      2228    6    0    1
 -2      2057      1989      2055      2491      2351      2428      2401      3265      3234      3323
 -1      2229    6    0    1
 -2      1040      2504      2452      2558      3596      2966      3224      3494      3998      3287
 -1      2230    6    0    1
 -2      2051      2035      1991      2537      2358      2284      2429      3254      3255      3920
 -1      2231    6    0    1
 -2      2034      2050      2016      2538      2384      2307      2315      3252      3253      3924
 -1      2232    6    0    1
 -2      2039      2534      2468      2542      3905      3616      3694      3695      3529      3212
 -1      2233    6    0    1
 -2       542       489       574      2542       855       857       856      3278      3941      3279
 -1      2234    6    0    1
 -2      2468      2533      2039      2543      3634      3886      3694      3214      3549      3999
 -1      2235    6    0    1
 -2      2038      2037      2009      2543      2448      2326      2418      3277      2624      2628
 -1      2236    6    0    1
 -2       547      2496       549      2505      3228      2941       817      2991      3409      3189
 -1      2237    6    0    1
 -2      1479       976      2502      2549      4000      4001      4002      4003      4004      3931
 -1      2238    6    0    1
 -2      1989      2021      2055      2535      2427      2094      2428      3236      3678      3326
 -1      2239    6    0    1
 -2      1004      1003      1493      2499      1114      3550      4005      3706      3159      3025
 -1      2240    6    0    1
 -2      1493      1516      1004      2499      1704      3703      4005      3025      3707      3706
 -1      2241    6    0    1
 -2      2462      2512      2494      2550      2788      3370      4006      3033      3034      3914
 -1      2242    6    0    1
 -2      2494      2533      2462      2550      3441      2919      4006      3914      3075      3033
 -1      2243    6    0    1
 -2       523       524       491      2555       865       864       651      3803      3473      3892
 -1      2244    6    0    1
 -2       340       347      2470      2472       400      4007      3663      3400      3302      2587
 -1      2245    6    0    1
 -2      1548      2559      2520      2560      4008      4009      4010      4011      4013      4012
 -1      2246    6    0    1
 -2      1076      2500      1070      2558      3286      4014      1444      3288      3289      4015
 -1      2247    6    0    1
 -2      1526       494       511      2495      3938       618      3989      3939      3935      2924
 -1      2248    6    0    1
 -2      1969      2002      2001      2554      2339      2338      2227      3890      3468      3797
 -1      2249    6    0    1
 -2       412       406       420      2471       445       462       461      3598      3444      3300
 -1      2250    6    0    1
 -2      2031      1984      2015      2547      2412      2160      2413      3457      3780      3841
 -1      2251    6    0    1
 -2       516       570       505      2547       933       932       778      3781      3451      3842
 -1      2252    6    0    1
 -2      2478      2518      2457      2546      3455      2826      4016      3816      3096      3097
 -1      2253    6    0    1
 -2      2457      2519      2478      2546      2823      3899      4016      3097      3099      3816
 -1      2254    6    0    1
 -2      2457      2518      2479      2548      2826      3449      4017      3094      3101      3810
 -1      2255    6    0    1
 -2      2479      2519      2457      2548      3903      2823      4017      3810      3093      3094
 -1      2256    6    0    1
 -2      2020      2040      1967      2542      2332      2329      2331      3274      3275      3974
 -1      2257    6    0    1
 -2      2459      2506      2502      2549      2860      3502      4018      3037      3038      3931
 -1      2258    6    0    1
 -2      2463      2531      2488      2556      2887      3921      4019      3144      3145      3883
 -1      2259    6    0    1
 -2       514      1468       497      2496      3942      3988       702      3937      3943      2940
 -1      2260    6    0    1
 -2      2463      2530      2483      2557      2857      3917      4020      3137      3138      3871
 -1      2261    6    0    1
 -2      1569      1536      1563      2469      1874      1809      1912      2578      2577      3699
 -1      2262    6    0    1
 -2      2483      2531      2463      2557      3927      2887      4020      3871      3149      3137
 -1      2263    6    0    1
 -2       576       578       541      2470       928       877       884      3790      2589      2629
 -1      2264    6    0    1
 -2      2488      2530      2463      2556      3932      2857      4019      3883      3151      3144
 -1      2265    6    0    1
 -2      1518      1476      1533      2555      1637      1847      1849      3802      3926      3132
 -1      2266    6    0    1
 -2      1066      1038      1017      2554      1241      1460      1461      3885      3798      3062
 -1      2267    6    0    1
 -2       408       420       413      2471       472       473       438      3637      3300      3541
 -1      2268    6    0    1
 -2      1479       976      1529      2502      4000      4021      1755      4002      4001      4022
 -1      2269    6    0    1
 -2      1028      2494      1531      2550      3993      3995      3994      4023      3914      4024
 -1      2270    6    0    1
 -2      1051      2520      2559      2561      4025      4009      4026      4027      4029      4028
 -1      2271    6    0    1
 -2      1993      2051      2537      2541      2431      3254      3675      3888      3231      3506
 -1      2272    6    0    1
 -2      1012      1529       976      2502      4030      4021      1165      4031      4022      4001
 -1      2273    6    0    1
 -2      1495      1564      1562      2470      1857      1909      1931      2630      2582      3789
 -1      2274    6    0    1
 -2       557      2506       558      2537      3028      3818       960      3241      3496      3689
 -1      2275    6    0    1
 -2       347       339       333      2472       388       379       389      3302      3627      3492
 -1      2276    6    0    1
 -2      1537      1536      1496      2504      1808      1872      1882      2636      2967      3589
 -1      2277    6    0    1
 -2       555       558      2507      2538       823      3819      3031      3246      3980      3495
 -1      2278    6    0    1
 -2      1993      2050      2532      2538      2305      3041      3887      3676      3253      3528
 -1      2279    6    0    1
 -2       560      2511       554      2540      3831      3110       969      3691      3490      3250
 -1      2280    6    0    1
 -2      2033      2510      2047      2540      3115      3833      2297      3248      3491      3693
 -1      2281    6    0    1
 -2       559      2508       560      2539      3021      3830       838      3240      3489      3981
 -1      2282    6    0    1
 -2      2047      2509      2032      2539      3832      4032      2363      3982      3983      3331
 -1      2283    6    0    1
 -2       340       335       347      2472       386       399       400      3400      3585      3302
 -1      2284    6    0    1
 -2      1029      1484      1528      2501      3509      1749      4033      3054      3065      3908
 -1      2285    6    0    1
 -2       982      1987      1002      2503      3602      4034      1208      3069      3172      3823
 -1      2286    6    0    1
 -2       574       513      2513      2542       954      3838      3043      3279      3697      3559
 -1      2287    6    0    1
 -2      1029      1528       975      2501      4033      3907      1159      3054      3908      3909
 -1      2288    6    0    1
 -2       513       550      2512      2543       847      3047      3836      3991      3280      3540
 -1      2289    6    0    1
 -2      1062      2559      2478      2561      4035      4036      4037      4038      4028      3545
 -1      2290    6    0    1
 -2      2464      2545      2473      2552      4039      3861      4040      4041      3948      3946
 -1      2291    6    0    1
 -2      1059      1058      2545      2552      1438      3944      3951      3954      3947      3948
 -1      2292    6    0    1
 -2      2464      2551      2489      2553      4042      3864      4043      4044      3959      3957
 -1      2293    6    0    1
 -2      2486      2545      2464      2552      3952      4039      4045      3829      3948      4041
 -1      2294    6    0    1
 -2       566       567      2551      2553       925      3955      3969      3972      3958      3959
 -1      2295    6    0    1
 -2      2464      2552      2487      2553      4041      3961      4046      4044      3964      3826
 -1      2296    6    0    1
 -2      2044      2045      2552      2553      2399      3962      3965      3967      3963      3964
 -1      2297    6    0    1
 -2      2486      2552      2464      2553      3829      4041      4045      3968      3964      4044
 -1      2298    6    0    1
 -2      1005      1004      2494      2499      1337      3705      3425      3424      3706      3387
 -1      2299    6    0    1
 -2      2487      2551      2464      2553      3970      4042      4046      3826      3959      4044
 -1      2300    6    0    1
 -2      1467      1550      2493      2498      1801      3381      3682      3686      3405      3403
 -1      2301    6    0    1
 -2      1026      2493      1052      2498      3683      3375      1462      3687      3403      3402
 -1      2302    6    0    1
 -2       980      1005      1004      2494      1338      1337      1117      3709      3425      3705
 -1      2303    6    0    1
 -2      2480      2547       556      2560      4047      4048      4049      4050      3548      4051
 -1      2304    6    0    1
 -2      2464      2545      2489      2551      4039      3976      4043      4042      3979      3864
 -1      2305    6    0    1
 -2      1516      1545      2494      2499      1826      3368      3704      3707      3388      3387
 -1      2306    6    0    1
 -2      1467      1550      1505      2493      1801      1800      1779      3682      3381      3685
 -1      2307    6    0    1
 -2      1026      1023      1052      2493      1189      1463      1462      3683      3681      3375
 -1      2308    6    0    1
 -2      1472      1516      1545      2494      1707      1826      1825      3711      3704      3368
 -1      2309    6    0    1
 -2       155      2015      1984       505      2155      2160      2159       774      3840      3839
 -1      2310    6    0    1
 -2       273      1025       998      2007      1218      1223      1222      2207      3734      3141
 -1      2311    6    0    1
 -2       996      1968       277      1018      3736      2217      1234      1235      3735      1230
 -1      2312    6    0    1
 -2      2007       273      1025      1985      2207      1218      3734      2209      2205      3714
 -1      2313    6    0    1
 -2      1980       531       141      2004      3855       732      2117      2118      3747      2113
 -1      2314    6    0    1
 -2      1968       996       277      2000      3736      1234      2217      2221      3134      2219
 -1      2315    6    0    1
 -2       502       531       141      1980       736       732       734      3856      3855      2117
 -1      2316    6    0    1
 -2      1985       272       995      2012      2204      1215      3712      2206      2202      3067
 -1      2317    6    0    1
 -2       138      2009      1966       498      2104      2109      2108       723      2932      3484
 -1      2318    6    0    1
 -2       272       995      1025      1985      1215      1220      1219      2204      3712      3714
 -1      2319    6    0    1
 -2      1467      1023       227      1026      3680      1187      1774      3679      1189      1185
 -1      2320    6    0    1
 -2       532       138      1966       498       725      2108      3485       727       723      3484
 -1      2321    6    0    1
 -2       531       501       140      2003       733       729       731      3745      3146      2110
 -1      2322    6    0    1
 -2       140       531      2003      2004       731      3745      2110      2114      3747      2115
 -1      2323    6    0    1
 -2        89      1519      1491       515      1668      1670      1666       679      3847      3807
 -1      2324    6    0    1
 -2      1023      1467       227      1505      3680      1774      1187      3684      1779      1778
 -1      2325    6    0    1
 -2       999       276      2014      1968      1227      2214      3851      3852      2216      2218
 -1      2326    6    0    1
 -2       276       999      1018      1968      1227      1232      1231      2216      3852      3735
 -1      2327    6    0    1
 -2       505      1984       155       516      3839      2159       774       778      3779       776
 -1      2328    6    0    1
 -2       160       485       535      1973       791       793       789      2174      2964      2962
 -1      2329    6    0    1
 -2      1973       535       160      2017      2962       789      2174      2175      2951      2170
 -1      2330    6    0    1
 -2        93      1480       533       530      1680      3522       691       695      3524       696
 -1      2331    6    0    1
 -2        93      1480      1522       533      1680      1682      1678       691      3522      3515
 -1      2332    6    0    1
 -2      2018       290      1033       989      2258      1273      3843      3844      1269      1274
 -1      2333    6    0    1
 -2       158       506       526      1994       785       787       783      2168      3593      3716
 -1      2334    6    0    1
 -2        89      1519       515       509      1668      3847       679       683      3849       684
 -1      2335    6    0    1
 -2      1959       158       526      1994      2164       783      3718      2169      2168      3716
 -1      2336    6    0    1
 -2      1997       294       978      1031      2270      1285      3526      3520      1281      1286
 -1      2337    6    0    1
 -2       294      1997      1960      1031      2270      2272      2268      1281      3520      3510
 -1      2338    6    0    1
 -2       290      2018      1963       989      2258      2260      2256      1269      3844      3813
 -1      2339    6    0    1
 -2      1507      1020       225      1490      3720      1179      1772      1773      3723      1768
 -1      2340    6    0    1
 -2      1523       224       977      1490      1765      1176      3140      1770      1769      3725
 -1      2341    6    0    1
 -2       225       973      1020      1507      1181      1183      1179      1772      2593      3720
 -1      2342    6    0    1
 -2       224      1020       977      1490      1178      1180      1176      1769      3723      3725
 -1      2343    6    0    1
 -2       526      2013       157      1959      3722      2161       782      3718      2166      2165
 -1      2344    6    0    1
 -2      1026       973       226      1467      1186      1182      1184      3679      3996      1775
 -1      2345    6    0    1
 -2      2019      1972       287      1019      2251      2247      2249      3726      3301      1260
 -1      2346    6    0    1
 -2      1467       973       226      1507      3996      1182      1775      1776      2593      1771
 -1      2347    6    0    1
 -2      2013       526       157       484      3722       782      2161      3139       784       780
 -1      2348    6    0    1
 -2      1019       287      2019       994      1260      2249      3726      1265      1264      3728
 -1      2349    6    0    1
 -2       508        86      1497       539       670      1657      3022       675       674      3730
 -1      2350    6    0    1
 -2      1465      1497        86       539      1661      1657      1659      3732      3730       674
 -1      2351    6    0    1
 -2       283      1977      2008       979      2237      2239      2235      1248      3739      3741
 -1      2352    6    0    1
 -2      1977       283      1013       979      2237      1252      3053      3739      1248      1253
 -1      2353    6    0    1
 -2       547       549       481      2505       817       815       816      2991      3189      3660
 -1      2354    6    0    1
 -2      2038      2039      2533      2543      2322      3886      3072      3277      3999      3549
 -1      2355    6    0    1
 -2      2039      2040      2534      2542      2449      3124      3905      3695      3275      3529
 -1      2356    6    0    1
 -2      2473      2545      2464      2551      3861      4039      4040      3987      3979      4042
 -1      2357    6    0    1
 -2      1482      1021       214      1534      3873      1146      1739      1740      3785      1735
 -1      2358    6    0    1
 -2      2502      2541      2459      2549      3609      2989      4018      3931      3259      3037
 -1      2359    6    0    1
 -2        82      1521      1471       518      1647      1649      1645       658      3743      3749
 -1      2360    6    0    1
 -2        82      1521       518       536      1647      3743       658       662      3023       663
 -1      2361    6    0    1
 -2      1511      1535      2545      2551      1950      3977      3984      3986      3978      3979
 -1      2362    6    0    1
 -2      1505       228      1023      1483      1777      1188      3684      1782      1781      3990
 -1      2363    6    0    1
 -2        76       490       522      1485       640       645       644      1629      3758      3158
 -1      2364    6    0    1
 -2      1471       496        81       518      3756       655      1644      3749       660       659
 -1      2365    6    0    1
 -2      1502       496        81      1471      3175       655      1642      1646      3756      1644
 -1      2366    6    0    1
 -2      1975       979       282      2008      3757      1249      2232      2236      3741      2234
 -1      2367    6    0    1
 -2       520      1469        84       482      3530      1651       668       669      4052       664
 -1      2368    6    0    1
 -2      1469       520        84      1498      3530       668      1651      1655      3531      1653
 -1      2369    6    0    1
 -2      1472      1028       204       980      3992      1118      1705      3710      1120      1116
 -1      2370    6    0    1
 -2       507      1992       151       519      2958      2147       762       766      4053       764
 -1      2371    6    0    1
 -2      1962      1992       151       507      2148      2147      2143      2957      2958       762
 -1      2372    6    0    1
 -2        72       488      1509      1473       628      3751      1617      1615      3753      1619
 -1      2373    6    0    1
 -2       521        72       488      1509       632       628       633      3161      1617      3751
 -1      2374    6    0    1
 -2       991      1023       228      1483      1192      1188      1190      2609      3990      1781
 -1      2375    6    0    1
 -2       979      1975       282      1010      3757      2232      1249      1250      3174      1245
 -1      2376    6    0    1
 -2      1028      1472       204      1531      3992      1705      1118      3994      1710      1709
 -1      2377    6    0    1
 -2      1021      1482       214       990      3873      1739      1146      1150      3872      1148
 -1      2378    6    0    1
 -2       490        76      1506      1485       640      1627      3768      3758      1629      1631
 -1      2379    6    0    1
 -2      2025      2554      2488      2562      4054      4055      4056      4057      3582      4058
 -1      2380    6    0    1
 -2      1473        71       534      1514      1614       625      3755      1616      1612      3029
 -1      2381    6    0    1
 -2       534       488        71      1473       630       629       625      3755      3753      1614
 -1      2382    6    0    1
 -2      1002      1987      1988      2503      4034      2194      3822      3823      3172      3788
 -1      2383    6    0    1
 -2       992      2023       285      1009      3620      2241      1258      1259      3619      1254
 -1      2384    6    0    1
 -2       975      1529       218      1012      3906      1751      1158      1162      4030      1160
 -1      2385    6    0    1
 -2      2488      2555       546      2562      4059      4060      4061      4058      3580      4062
 -1      2386    6    0    1
 -2      1986       548       136      2011      3058       717      2102      2103      3057      2098
 -1      2387    6    0    1
 -2      1517       487        69      1492      3554       623      1606      1610      4063      1608
 -1      2388    6    0    1
 -2       545      1978       144      2026      3764      2122       743      3765      2127      2126
 -1      2389    6    0    1
 -2      1548      1540      2559      2560      1942      4064      4008      4011      4065      4013
 -1      2390    6    0    1
 -2      1051      2559      1062      2561      4026      4035      1301      4027      4028      4038
 -1      2391    6    0    1
 -2      1499      1529      2501      2502      1936      3910      3437      3500      4022      3501
 -1      2392    6    0    1
 -2      1978       545       144       499      3764       743      2122      3184       745       741
 -1      2393    6    0    1
 -2       512       487        69      1517       624       623       619      3553      3554      1606
 -1      2394    6    0    1
 -2       203      1516      1472       980      1702      1707      1706      1115      3708      3710
 -1      2395    6    0    1
 -2       490        75       537      1506       641       637       642      3768      1626      3867
 -1      2396    6    0    1
 -2      1506        75       537      1510      1626       637      3867      1628      1624      3897
 -1      2397    6    0    1
 -2      1516       203      1004       980      1702      1113      3703      3708      1115      1117
 -1      2398    6    0    1
 -2      1014      1532       207       985      3761      1718      1125      1129      3760      1127
 -1      2399    6    0    1
 -2       147       517       500      1979       752       754       750      2131      3894      3880
 -1      2400    6    0    1
 -2       517       147      1995      1979       752      2135      3893      3894      2131      2136
 -1      2401    6    0    1
 -2       202      1493      1004      1003      1699      4005      1112      1110      3550      1114
 -1      2402    6    0    1
 -2      1532      1558       208       985      1722      1721      1717      3760      3865      1128
 -1      2403    6    0    1
 -2      1988      1989      1971      2503      2349      2348      2191      3788      3366      3538
 -1      2404    6    0    1
 -2      1030       208      1558       985      1130      1721      3876      1132      1128      3865
 -1      2405    6    0    1
 -2      1540      2479      2559      2560      4066      4067      4064      4065      3547      4013
 -1      2406    6    0    1
 -2      1508       211      1015      1016      1726      1137      3194      3772      1139      1141
 -1      2407    6    0    1
 -2       207      1486      1532      1014      1714      1719      1718      1125      3157      3761
 -1      2408    6    0    1
 -2      1493      1516       202      1004      1704      1703      1699      4005      3703      1112
 -1      2409    6    0    1
 -2      2010      1036       270      1965      3629      1213      2196      2200      3628      2198
 -1      2410    6    0    1
 -2       279      1038      1066      2001      1236      1241      1240      2223      3796      3884
 -1      2411    6    0    1
 -2      1548      2520      2480      2560      4010      4068      4069      4011      4012      4050
 -1      2412    6    0    1
 -2       211      1508      1487      1016      1726      1731      1730      1139      3772      3776
 -1      2413    6    0    1
 -2      2001      1066       279      1969      3884      1240      2223      2227      3889      2225
 -1      2414    6    0    1
 -2       975      1012      1061      2502      1162      1313      1312      4070      4031      3607
 -1      2415    6    0    1
 -2      1487       212      1016       984      1729      1140      3776      3770      1142      1144
 -1      2416    6    0    1
 -2      2043      2547      2477      2561      4071      4072      4073      4074      3544      4075
 -1      2417    6    0    1
 -2       523       491        78      1518       651       650       646      3801      3891      1633
 -1      2418    6    0    1
 -2       212      1487      1555       984      1729      1734      1733      1142      3770      2565
 -1      2419    6    0    1
 -2      1476        78       491      1518      1635       650      3925      1637      1633      3891
 -1      2420    6    0    1
 -2       570       556      2547      2560       808      4048      3451      3546      4051      3548
 -1      2421    6    0    1
 -2      2031      2547      2043      2561      3457      4071      2439      3543      3544      4074
 -1      2422    6    0    1
 -2      1963       289       989      2561      2255      1270      3813      4076      4078      4077
 -1      2423    6    0    1
 -2       539        87      1465      2560       673      1660      3732      4079      4081      4080
 -1      2424    6    0    1
 -2      1022      2509      1047      2544      4082      3503      1327      4083      3505      3264
 -1      2425    6    0    1
 -2       975      1061      2501      2502      1312      3665      3909      4070      3607      3501
 -1      2426    6    0    1
 -2      1976      2032      2509      2544      2378      4032      4084      4085      3332      3505
 -1      2427    6    0    1
 -2      2002      2554      2025      2562      3468      4054      2340      3581      3582      4057
 -1      2428    6    0    1
 -2      1040      1076      1070      2558      1380      1444      1311      3494      3288      4015
 -1      2429    6    0    1
 -2      1002       986      1034      2503      1205      1368      1367      3823      3539      3358
 -1      2430    6    0    1
 -2      1496       991       229      1483      3784      1191      1784      1785      2609      1780
 -1      2431    6    0    1
 -2       524       546      2555      2562       867      4060      3473      3578      4062      3580
 -1      2432    6    0    1
 -2      1555      1534       213      1021      1737      1736      1732      3782      3785      1145
 -1      2433    6    0    1
 -2       548      1986       136       543      3058      2102       717       721      3200       719
 -1      2434    6    0    1
 -2       984      1555       213      1021      2565      1732      1143      1147      3782      1145
 -1      2435    6    0    1
 -2       289      1027       989      2561      1266      1271      1270      4078      4086      4077
 -1      2436    6    0    1
 -2       289      1963      1996      2561      2255      2257      2253      4078      4076      4087
 -1      2437    6    0    1
 -2       539       479        87      2560       678       677       673      4079      4088      4081
 -1      2438    6    0    1
 -2        87      1520      1465      2560      1662      1664      1660      4081      4089      4080
 -1      2439    6    0    1
 -2      1497        85       508      2506      1656       671      3022      2858      4090      2864
 -1      2440    6    0    1
 -2      1500       480        92      2511      3949       688      1675      3314      3308      4091
 -1      2441    6    0    1
 -2      1008       293      1998      2510      1278      2265      3950      3310      4092      3312
 -1      2442    6    0    1
 -2      1521       536        83      2507      3023       661      1648      2841      2862      4093
 -1      2443    6    0    1
 -2        94       497      1512      2508       698      3257      1683      4094      2868      2811
 -1      2444    6    0    1
 -2      1976       295      1022      2509      2273      1288      4095      4084      4096      4082
 -1      2445    6    0    1
 -2       534      1514        70      2512      3029      1611       626      2854      2786      4097
 -1      2446    6    0    1
 -2       500       146      1979      2562       749      2132      3880      4098      4100      4099
 -1      2447    6    0    1
 -2       494      1562        66       576      3934      1597       614       615      3791       610
 -1      2448    6    0    1
 -2      1058      2523      2473      2552      4101      3558      3945      3947      4102      3946
 -1      2449    6    0    1
 -2       500       573       146      2562       751       747       749      4098      4103      4100
 -1      2450    6    0    1
 -2      1979       146      2052      2562      2132      2128      2133      4099      4100      4104
 -1      2451    6    0    1
 -2      1006       230      1481      1496      1194      1787      3587      3586      1783      1788
 -1      2452    6    0    1
 -2       988      1006       230      1481      1198      1194      1196      3291      3587      1787
 -1      2453    6    0    1
 -2      1041      1036       270      2010      1214      1213      1209      3641      3629      2196
 -1      2454    6    0    1
 -2       995      2012       271      2533      3067      2201      1216      2923      2917      4105
 -1      2455    6    0    1
 -2      1562       494        66      1526      3934       614      1597      1601      3938      1599
 -1      2456    6    0    1
 -2        68      1474       511      2513      1603      3273       616      4106      2880      2804
 -1      2457    6    0    1
 -2      1512      1480        94      2508      1685      1681      1683      2811      3523      4094
 -1      2458    6    0    1
 -2       978      1022       295      2509      1289      1288      1284      3527      4082      4096
 -1      2459    6    0    1
 -2      1497      1498        85      2506      1658      1654      1656      2858      3533      4090
 -1      2460    6    0    1
 -2      2023       992       285      2024      3620      1258      2241      2245      3654      2243
 -1      2461    6    0    1
 -2      1529       975       218      1528      3906      1158      1751      1752      3907      1747
 -1      2462    6    0    1
 -2      1521        83      1469      2507      1648      1650      1652      2841      4093      3817
 -1      2463    6    0    1
 -2      1055      2525      2481      2550      4107      3560      2729      3074      4108      3410
 -1      2464    6    0    1
 -2       536       482        83      2507       666       665       661      2862      3821      4093
 -1      2465    6    0    1
 -2       520       508        85      2506       672       671       667      3534      2864      4090
 -1      2466    6    0    1
 -2      1522      1500        92      2511      1679      1675      1677      3518      3314      4091
 -1      2467    6    0    1
 -2        92       480       533      2511       688       693       692      4091      3308      3519
 -1      2468    6    0    1
 -2       293      1960      1998      2510      2267      2269      2265      4092      3513      3312
 -1      2469    6    0    1
 -2      1008      1031       293      2510      1283      1282      1278      3310      3514      4092
 -1      2470    6    0    1
 -2      1544      2480      2520      2549      2720      4068      4109      3036      3396      4110
 -1      2471    6    0    1
 -2      1053      2475      2516      2546      2706      3564      4111      3098      3392      4112
 -1      2472    6    0    1
 -2      2029      2516      2476      2546      4113      3563      2701      3095      4112      3394
 -1      2473    6    0    1
 -2      2476      2517       552      2548      3566      4114      2712      3395      4115      3100
 -1      2474    6    0    1
 -2      1538      2517      2475      2548      4116      3565      2695      3092      4115      3393
 -1      2475    6    0    1
 -2      2480      2515       556      2547      3567      4117      4049      4047      4118      4048
 -1      2476    6    0    1
 -2      1050      2520      2477      2549      4119      4120      2995      3258      4110      3391
 -1      2477    6    0    1
 -2      2043      2515      2477      2547      4121      3562      4073      4071      4118      4072
 -1      2478    6    0    1
 -2      1014       985      1060      2473      1129      1363      1362      2691      3763      2692
 -1      2479    6    0    1
 -2       567      2524      2489      2553      4122      3576      3956      3958      4123      3957
 -1      2480    6    0    1
 -2      1059      2529      2486      2545      4124      3575      3953      3951      4125      3952
 -1      2481    6    0    1
 -2      1509      1560      1473      2474      1831      1830      1619      2653      2654      3754
 -1      2482    6    0    1
 -2      1473      1515      1514      2474      1833      1832      1616      3754      2648      2649
 -1      2483    6    0    1
 -2      1492        70      1514      2512      1609      1611      1613      3834      4097      2786
 -1      2484    6    0    1
 -2      2520      2559      2458      2560      4009      4126      4127      4012      4013      3618
 -1      2485    6    0    1
 -2        94       530       497      2508       694       699       698      4094      3525      2868
 -1      2486    6    0    1
 -2      1976      1997       295      2509      2275      2271      2273      4084      3521      4096
 -1      2487    6    0    1
 -2       566      2528      2487      2551      4128      3573      3971      3969      4129      3970
 -1      2488    6    0    1
 -2       534        70       487      2512       626       622       627      2854      4097      3837
 -1      2489    6    0    1
 -2      2045      2487      2523      2552      3960      3572      4130      3962      3961      4102
 -1      2490    6    0    1
 -2       534       564       488      2474       852       851       630      2676      2677      3752
 -1      2491    6    0    1
 -2      1521      1543      1471      2482      1823      1822      1649      2672      2673      3750
 -1      2492    6    0    1
 -2      1554      2502      1499      2506      3930      3500      1934      3051      3502      3435
 -1      2493    6    0    1
 -2      2486      2524      2044      2553      3574      4131      3966      3968      4123      3967
 -1      2494    6    0    1
 -2      1062      2519      2478      2559      4132      3899      4037      4035      4133      4036
 -1      2495    6    0    1
 -2      1540      2479      2519      2559      4066      3903      4134      4064      4067      4133
 -1      2496    6    0    1
 -2      2482      2522      1552      2557      3568      4135      2775      3407      4136      3136
 -1      2497    6    0    1
 -2       488       565       521      2474       850       849       633      3752      2732      2733
 -1      2498    6    0    1
 -2      2012      1985      2037      2481      2206      2417      2416      2723      3713      2725
 -1      2499    6    0    1
 -2       995      1055      1025      2481      1415      1414      1220      2728      2729      3715
 -1      2500    6    0    1
 -2      1972      2019      2035      2477      2251      2355      2354      3013      3727      2985
 -1      2501    6    0    1
 -2      1538      1490      1523      2475      1915      1770      1916      2695      3724      2697
 -1      2502    6    0    1
 -2      1044      1020       973      2475      1302      1183      1303      2703      3721      2594
 -1      2503    6    0    1
 -2      1959      2013      2029      2476      2166      2291      2290      3719      2700      2701
 -1      2504    6    0    1
 -2       553       539       508      2480       946       675       947      2715      3731      2717
 -1      2505    6    0    1
 -2       506       551       526      2476       937       936       787      3413      3269      3717
 -1      2506    6    0    1
 -2      1959      2041      1994      2476      2289      2288      2169      3719      3266      3411
 -1      2507    6    0    1
 -2      1490      1547      1507      2475      1914      1913      1773      3724      2708      2595
 -1      2508    6    0    1
 -2      1020      1053       977      2475      1325      1324      1180      3721      2706      2707
 -1      2509    6    0    1
 -2       484       526       552      2476       784       832       831      2711      3717      2712
 -1      2510    6    0    1
 -2      1050       994      1019      2477      1409      1265      1410      2995      3729      3015
 -1      2511    6    0    1
 -2      1544      1497      1465      2480      1790      1661      1791      2720      2721      3733
 -1      2512    6    0    1
 -2      1056       998      1025      2481      1431      1223      1432      2682      2683      3715
 -1      2513    6    0    1
 -2      2007      2042      1985      2481      2415      2414      2209      2687      2688      3713
 -1      2514    6    0    1
 -2       510       133      2055       493       710      2089      3671       712       708      3324
 -1      2515    6    0    1
 -2       518       562       536      2482       959       958       663      3744      2737      2738
 -1      2516    6    0    1
 -2      1533      1555      1487      2490      1906      1734      1904      2776      2566      3771
 -1      2517    6    0    1
 -2       569       522       490      2489       859       645       860      2768      2769      3759
 -1      2518    6    0    1
 -2      1971       986       267      1988      3537      1200      2187      2191      3787      2189
 -1      2519    6    0    1
 -2      2049      2485      2526      2556      2892      3571      4137      3143      3430      4138
 -1      2520    6    0    1
 -2      1502      1471      1552      2482      1646      1821      1820      2773      3750      2775
 -1      2521    6    0    1
 -2       512        68       511      2513       620       616       621      3557      4106      2804
 -1      2522    6    0    1
 -2      1010      1064       979      2485      1333      1332      1250      2795      2796      3740
 -1      2523    6    0    1
 -2      1493      1003       201      2536      3550      1109      1700      3026      3160      4139
 -1      2524    6    0    1
 -2      1064      2522      2485      2557      4140      3570      2796      3148      4136      3429
 -1      2525    6    0    1
 -2       571      2526      2482      2556      4141      3569      2872      3150      4138      3418
 -1      2526    6    0    1
 -2      1063       996      1018      2486      1419      1235      1420      2755      2756      3738
 -1      2527    6    0    1
 -2      2000      2048      1968      2486      2334      2333      2221      2760      2761      3737
 -1      2528    6    0    1
 -2      1967       489       134      2535      4142       713      2096      3973      3940      4143
 -1      2529    6    0    1
 -2      2034      2008      1977      2485      2380      2239      2381      2746      3742      2747
 -1      2530    6    0    1
 -2      1515      2474      2525      2550      2648      3561      4144      3032      3390      4108
 -1      2531    6    0    1
 -2       979      1049      1013      2485      1335      1334      1253      3740      2741      2742
 -1      2532    6    0    1
 -2      2003      2046      2004      2487      2446      2445      2115      2750      2751      3748
 -1      2533    6    0    1
 -2       568       501       531      2487       916       733       917      2764      2765      3746
 -1      2534    6    0    1
 -2       268      1002       982      1987      1203      1208      1207      2192      4034      3602
 -1      2535    6    0    1
 -2      1532      1486      1559      2473      1719      1900      1899      3762      2640      2641
 -1      2536    6    0    1
 -2      2055      2021       133       510      2094      2093      2089      3671      3677       710
 -1      2537    6    0    1
 -2       200      1478      1494      1069      1693      1698      1697      1104      3283      3648
 -1      2538    6    0    1
 -2      1965       271      2012      2533      2199      2201      2203      3632      4105      2917
 -1      2539    6    0    1
 -2       984      1017      1016      2490      1358      1357      1144      2567      2884      3773
 -1      2540    6    0    1
 -2       278      2000       996      2514      2220      3134      1233      4145      2850      2845
 -1      2541    6    0    1
 -2      1021      1039       984      2483      1361      1360      1147      3783      2888      2569
 -1      2542    6    0    1
 -2       480      1500        91      2517      3949      1674       689      3309      3315      4146
 -1      2543    6    0    1
 -2      1998       292      1008      2516      2264      1279      3950      3313      4147      3311
 -1      2544    6    0    1
 -2       223      1523       977      2519      1766      3140      1175      4148      2822      2827
 -1      2545    6    0    1
 -2       221      1501       972      2520      1760      4149      1169      4150      4152      4151
 -1      2546    6    0    1
 -2      2013       484       156      2518      3139       779      2162      2825      2830      4153
 -1      2547    6    0    1
 -2       153       483      1991      2515       768      4154      2149      4155      3911      3919
 -1      2548    6    0    1
 -2       501       139      2003      2521       728      2111      3146      2831      4156      2807
 -1      2549    6    0    1
 -2       216      1484      1029      2522      1745      3509      1154      4157      3066      3055
 -1      2550    6    0    1
 -2       998       274      2007      2523      1221      2208      3141      2816      4158      2817
 -1      2551    6    0    1
 -2       499       143      1978      2524       740      2123      3184      2835      4159      2837
 -1      2552    6    0    1
 -2      2025      2531      2488      2554      4160      3921      4056      4054      4161      4055
 -1      2553    6    0    1
 -2      2016       538       149      2526      4162       758      2141      3923      3915      4163
 -1      2554    6    0    1
 -2      1528      1499      1529      2501      1935      1936      1752      3908      3437      3910
 -1      2555    6    0    1
 -2       573      2052       146      2562      4164      2128       747      4103      4104      4100
 -1      2556    6    0    1
 -2      1474        68      1517      2513      1603      1605      1607      2880      4106      3555
 -1      2557    6    0    1
 -2      2008      2049      1975      2485      2373      2372      2236      3742      2892      2893
 -1      2558    6    0    1
 -2       496       571       518      2482       892       891       660      2871      2872      3744
 -1      2559    6    0    1
 -2       986      1002       267      1988      1205      1204      1200      3787      3822      2189
 -1      2560    6    0    1
 -2       577       481       163      1961       802       798       800      3659      3658      2179
 -1      2561    6    0    1
 -2      2056       577       163      1961      3351       800      2183      2184      3659      2179
 -1      2562    6    0    1
 -2      1535      2489      2529      2545      3975      3583      4165      3977      3976      4125
 -1      2563    6    0    1
 -2        77      1485       522      2527      1630      3158       643      4166      2907      2846
 -1      2564    6    0    1
 -2      1016      1065      1015      2490      1458      1457      1141      3773      2791      2792
 -1      2565    6    0    1
 -2      2483      2531      1039      2554      3927      4167      2888      3432      4161      3063
 -1      2566    6    0    1
 -2       991      1496       229      1006      3784      1784      1191      1195      3586      1193
 -1      2567    6    0    1
 -2      2488      2530       546      2555      3932      4168      4061      4059      4169      4060
 -1      2568    6    0    1
 -2       982       269      1987      2534      1206      2193      3602      3070      4170      3173
 -1      2569    6    0    1
 -2       514        96      1563       495       700      1689      3936       705       704      3700
 -1      2570    6    0    1
 -2       989      2478      1963      2561      3812      3811      3813      4077      3545      4076
 -1      2571    6    0    1
 -2       539      1465      2480      2560      3732      3733      3731      4079      4080      4050
 -1      2572    6    0    1
 -2      1480       530        94      2508      3524       694      1681      3523      3525      4094
 -1      2573    6    0    1
 -2       978       295      1997      2509      1284      2271      3526      3527      4096      3521
 -1      2574    6    0    1
 -2       520        85      1498      2506       667      1654      3531      3534      4090      3533
 -1      2575    6    0    1
 -2        83       482      1469      2507       665      4052      1650      4093      3821      3817
 -1      2576    6    0    1
 -2       410       413       420      2469       474       473       478      3307      3365      3299
 -1      2577    6    0    1
 -2      1534      1555      1504      2483      1737      1946      1947      3786      2570      2734
 -1      2578    6    0    1
 -2       987       200      1494      1069      1106      1697      3669      1108      1104      3648
 -1      2579    6    0    1
 -2      2053      2026      1978      2484      2387      2127      2388      2784      3767      2785
 -1      2580    6    0    1
 -2       499       545       572      2484       745       909       908      2779      3766      2781
 -1      2581    6    0    1
 -2      1511      2473      2528      2551      3985      3577      4171      3986      3987      4129
 -1      2582    6    0    1
 -2       293      1031      1960      2510      1282      3510      2267      4092      3514      3513
 -1      2583    6    0    1
 -2        92       533      1522      2511       692      3515      1677      4091      3519      3518
 -1      2584    6    0    1
 -2      1504      2530      2483      2555      4172      3917      2734      3131      4169      3431
 -1      2585    6    0    1
 -2      1015       210      1508      2529      1136      1727      3194      2838      4173      2663
 -1      2586    6    0    1
 -2      1492       487        70      2512      4063       622      1609      3834      3837      4097
 -1      2587    6    0    1
 -2      1486      1014       206      2525      3157      1124      1715      2644      2820      4174
 -1      2588    6    0    1
 -2       496      1502        80      2530      3175      1641       656      2909      2855      4175
 -1      2589    6    0    1
 -2       521        73      1509      2528       631      1618      3161      2805      4176      2666
 -1      2590    6    0    1
 -2       481       529       162      2005       799       795       797      3804      3651      2176
 -1      2591    6    0    1
 -2       278       996      1038      2514      1233      1238      1237      4145      2845      3795
 -1      2592    6    0    1
 -2      1526       511        67      1474      3989       617      1600      1604      3273      1602
 -1      2593    6    0    1
 -2      1485      1551      1506      2489      1893      1892      1631      2875      2876      3769
 -1      2594    6    0    1
 -2      1549      1487      1508      2490      1902      1731      1903      2678      3771      2660
 -1      2595    6    0    1
 -2      1010      1975       281      2531      3174      2231      1246      2886      2920      4177
 -1      2596    6    0    1
 -2        77       522       523      2527       643       648       647      4166      2846      3800
 -1      2597    6    0    1
 -2      1563      1468        96       514      1691      1687      1689      3936      3942       700
 -1      2598    6    0    1
 -2      2000       278      2001      2514      2220      2222      2224      2850      4145      3794
 -1      2599    6    0    1
 -2      1468      1512        95       497      1688      1684      1686      3988      3257       697
 -1      2600    6    0    1
 -2       512      1517        68      2513      3553      1605       620      3557      3555      4106
 -1      2601    6    0    1
 -2       480        91       527      2517       689       685       690      3309      4146      4178
 -1      2602    6    0    1
 -2      1500      1466        91      2517      1676      1672      1674      3315      4179      4146
 -1      2603    6    0    1
 -2      1998      1983       292      2516      2266      2262      2264      3313      4180      4147
 -1      2604    6    0    1
 -2       221       972      1032      2520      1169      1171      1167      4150      4151      4181
 -1      2605    6    0    1
 -2       993      1008       292      2516      1280      1279      1275      4182      3311      4147
 -1      2606    6    0    1
 -2      1984      2013       156      2518      2163      2162      2158      3777      2825      4153
 -1      2607    6    0    1
 -2      1501       221      1524      2520      1760      1756      1761      4152      4150      4183
 -1      2608    6    0    1
 -2      1523       223      1470      2519      1766      1762      1767      2822      4148      4184
 -1      2609    6    0    1
 -2       223       977      1007      2519      1175      1177      1173      4148      2827      4185
 -1      2610    6    0    1
 -2       156       484       516      2518       779       781       777      4153      2830      3778
 -1      2611    6    0    1
 -2       153       540       483      2515       770       772       768      4155      4186      3911
 -1      2612    6    0    1
 -2       153      1991      1958      2515      2149      2154      2153      4155      3919      4187
 -1      2613    6    0    1
 -2      1966      2003       139      2521      2112      2111      2107      3487      2807      4156
 -1      2614    6    0    1
 -2       501       532       139      2521       730       726       728      2831      3486      4156
 -1      2615    6    0    1
 -2       216      1029      1011      2522      1154      1156      1152      4157      3055      4188
 -1      2616    6    0    1
 -2      1513      1484       216      2522      1746      1745      1741      4189      3066      4157
 -1      2617    6    0    1
 -2       274       998      1024      2523      1221      1226      1225      4158      2816      4190
 -1      2618    6    0    1
 -2       274      1970      2007      2523      2210      2212      2208      4158      4191      2817
 -1      2619    6    0    1
 -2       143      1999      1978      2524      2119      2124      2123      4159      4192      2837
 -1      2620    6    0    1
 -2       499       525       143      2524       742       738       740      2835      4193      4159
 -1      2621    6    0    1
 -2      2010      1987       269      2534      2197      2193      2195      3643      3173      4170
 -1      2622    6    0    1
 -2       486       149       538      2526       756       758       760      4194      4163      3915
 -1      2623    6    0    1
 -2       981       206      1014      2525      1122      1124      1126      4195      4174      2820
 -1      2624    6    0    1
 -2      1015       983       210      2529      1138      1134      1136      2838      4196      4173
 -1      2625    6    0    1
 -2      1964      2016       149      2526      2142      2141      2137      4197      3923      4163
 -1      2626    6    0    1
 -2      1503        80      1502      2530      1639      1641      1643      4198      4175      2855
 -1      2627    6    0    1
 -2       289      1996      1027      2561      2253      4199      1266      4078      4087      4086
 -1      2628    6    0    1
 -2        87       479      1520      2560       677      4200      1662      4081      4088      4089
 -1      2629    6    0    1
 -2      2477      2520      1051      2561      4120      4025      4201      4075      4029      4027
 -1      2630    6    0    1
 -2      1036       995       271      2533      1217      1216      1212      3630      2923      4105
 -1      2631    6    0    1
 -2      1518      1485        77      2527      1634      1630      1632      3799      2907      4166
 -1      2632    6    0    1
 -2       997      1010       281      2531      1247      1246      1242      4202      2886      4177
 -1      2633    6    0    1
 -2       268      1002      1987      1988      1203      4034      2192      2190      3822      2194
 -1      2634    6    0    1
 -2       521       492        73      2528       636       635       631      2805      4203      4176
 -1      2635    6    0    1
 -2       210      1475      1508      2529      1723      1728      1727      4173      4204      2663
 -1      2636    6    0    1
 -2       342       338       337      2491       403       397       404      2972      3508      2973
 -1      2637    6    0    1
 -2      1477      1509        73      2528      1622      1618      1620      4205      2666      4176
 -1      2638    6    0    1
 -2      1530      1486       206      2525      1716      1715      1711      4206      2644      4174
 -1      2639    6    0    1
 -2       281      1975      2006      2531      2231      2233      2229      4177      2920      4207
 -1      2640    6    0    1
 -2      1979      2488       500      2562      3879      3878      3880      4099      4058      4098
 -1      2641    6    0    1
 -2      1038      2001       278      2514      3796      2222      1237      3795      3794      4145
 -1      2642    6    0    1
 -2       528       496        80      2530       657       656       652      4208      2909      4175
 -1      2643    6    0    1
 -2       483      1991      2515      2537      4154      3919      3911      3912      3920      3337
 -1      2644    6    0    1
 -2       987       201      1003      2536      1107      1109      1111      3670      4139      3160
 -1      2645    6    0    1
 -2      2016       538      2526      2538      4162      3915      3923      3924      3916      3340
 -1      2646    6    0    1
 -2       982      1041       269      2534      1211      1210      1206      3070      3644      4170
 -1      2647    6    0    1
 -2      2464      2487      2473      2528      4046      4209      4040      4210      3573      3577
 -1      2648    6    0    1
 -2      2474      2481      2462      2521      4211      2724      2650      3233      3232      2617
 -1      2649    6    0    1
 -2       514       547       495      2496       886       885       705      3937      3228      3701
 -1      2650    6    0    1
 -2      2457      2476      2475      2516      2702      4212      2696      4213      3563      3564
 -1      2651    6    0    1
 -2      2475      2476      2457      2517      4212      2702      2696      3565      3566      4214
 -1      2652    6    0    1
 -2      2477      2480      2458      2515      4215      4216      4217      3562      3567      4218
 -1      2653    6    0    1
 -2      2477      2480      2459      2520      4215      2716      2986      4120      4068      4219
 -1      2654    6    0    1
 -2      2478      2479      2458      2519      4220      3617      3591      3899      3903      4221
 -1      2655    6    0    1
 -2      2458      2479      2478      2518      3617      4220      3591      3635      3449      3455
 -1      2656    6    0    1
 -2      2462      2481      2474      2525      2724      4211      2650      4222      3560      3561
 -1      2657    6    0    1
 -2       201      1494      1493      2536      1696      1701      1700      4139      3649      3026
 -1      2658    6    0    1
 -2      2473      2487      2464      2523      4209      4046      4040      3558      3572      4223
 -1      2659    6    0    1
 -2      2458      2559      2520      2561      4126      4009      4127      3592      4028      4029
 -1      2660    6    0    1
 -2       134       489       510      2535       713       715       711      4143      3940      3672
 -1      2661    6    0    1
 -2      2463      2485      2482      2522      2797      4224      2774      4225      3570      3568
 -1      2662    6    0    1
 -2      2482      2485      2463      2526      4224      2797      2774      3569      3571      4226
 -1      2663    6    0    1
 -2      1518        77       523      2527      1632       647      3801      3799      4166      3800
 -1      2664    6    0    1
 -2      1965      1036       271      2533      3628      1212      2199      3632      3630      4105
 -1      2665    6    0    1
 -2      1466       527        91      2517      4227       685      1672      4179      4178      4146
 -1      2666    6    0    1
 -2      1032      1524       221      2520      4228      1756      1167      4181      4183      4150
 -1      2667    6    0    1
 -2       993       292      1983      2516      1275      2262      4229      4182      4147      4180
 -1      2668    6    0    1
 -2      1984       156       516      2518      2158       777      3779      3777      4153      3778
 -1      2669    6    0    1
 -2      1007      1470       223      2519      4230      1762      1173      4185      4184      4148
 -1      2670    6    0    1
 -2       153      1958       540      2515      2153      4231       770      4155      4187      4186
 -1      2671    6    0    1
 -2      1966       139       532      2521      2107       726      3485      3487      4156      3486
 -1      2672    6    0    1
 -2      2023      1977      1013      2532      2242      3053      4232      3621      2916      2911
 -1      2673    6    0    1
 -2       274      1024      1970      2523      1225      4233      2210      4158      4190      4191
 -1      2674    6    0    1
 -2      1513       216      1011      2522      1741      1152      4234      4189      4157      4188
 -1      2675    6    0    1
 -2       525      1999       143      2524      4235      2119       738      4193      4192      4159
 -1      2676    6    0    1
 -2      2464      2489      2486      2524      4043      4236      4045      4237      3576      3574
 -1      2677    6    0    1
 -2      2483      2488      2465      2530      4238      4239      2571      3917      3932      4240
 -1      2678    6    0    1
 -2      2021      1967       134      2535      2097      2096      2092      3678      3973      4143
 -1      2679    6    0    1
 -2      2486      2489      2464      2529      4236      4043      4045      3575      3583      4241
 -1      2680    6    0    1
 -2      1964       149       486      2526      2137       756      4242      4197      4163      4194
 -1      2681    6    0    1
 -2      1058      1060      2473      2523      1366      2692      3945      4101      3104      3558
 -1      2682    6    0    1
 -2       340       347       337      2470       400       405       401      3663      4007      3650
 -1      2683    6    0    1
 -2      1967       489      2535      2542      4142      3940      3973      3974      3941      3417
 -1      2684    6    0    1
 -2       217       975      1029      1528      1157      1159      1155      1748      3907      4033
 -1      2685    6    0    1
 -2      1009      2023       284      1013      3619      2240      1255      1256      4232      1251
 -1      2686    6    0    1
 -2       219       976      1012      1529      1163      1165      1161      1750      4021      4030
 -1      2687    6    0    1
 -2       210       983      1475      2529      1134      4243      1723      4173      4196      4204
 -1      2688    6    0    1
 -2      1530       206       981      2525      1711      1122      4244      4206      4174      4195
 -1      2689    6    0    1
 -2      2465      2488      2483      2531      4239      4238      2571      4245      3921      3927
 -1      2690    6    0    1
 -2      1484       217      1029      1528      1744      1155      3509      1749      1748      4033
 -1      2691    6    0    1
 -2       976       219      1479      1529      1163      1754      4000      4021      1750      1755
 -1      2692    6    0    1
 -2      2023      1977       284      1013      2242      2238      2240      4232      3053      1251
 -1      2693    6    0    1
 -2      2465      2490      2484      2514      2568      4246      3624      3640      3498      3464
 -1      2694    6    0    1
 -2      1045      2498      1052      2510      2851      3402      1464      3113      3404      3378
 -1      2695    6    0    1
 -2      1550      2498      1542      2511      3405      2852      1804      3386      3406      3116
 -1      2696    6    0    1
 -2       568      2487       566      2528      2764      3971       873      3130      3573      4128
 -1      2697    6    0    1
 -2       564       565      2474      2521       853      2732      2677      2616      3102      3233
 -1      2698    6    0    1
 -2      1013      1009      2023      2532      1256      3619      4232      2911      3623      3621
 -1      2699    6    0    1
 -2       567       569      2489      2524       863      2768      3956      4122      3107      3576
 -1      2700    6    0    1
 -2      2484      2490      2465      2527      4246      2568      3624      3471      3476      3638
 -1      2701    6    0    1
 -2      1052      2493      1047      2509      3375      3603      1331      3377      3376      3503
 -1      2702    6    0    1
 -2      1550      1541      2493      2508      1870      2895      3381      3382      3024      3383
 -1      2703    6    0    1
 -2      1544      2480      1548      2520      2720      4069      1794      4109      4068      4010
 -1      2704    6    0    1
 -2       553       556      2480      2515       971      4049      2715      3335      4117      3567
 -1      2705    6    0    1
 -2      1053      2475      1044      2516      2706      2703      1408      4111      3564      3080
 -1      2706    6    0    1
 -2      2041      2476      2029      2516      3266      2701      2292      3088      3563      4113
 -1      2707    6    0    1
 -2       552      2476       551      2517      2712      3269       966      4114      3566      3083
 -1      2708    6    0    1
 -2      1547      2475      1538      2517      2708      2695      1799      3091      3565      4116
 -1      2709    6    0    1
 -2      1050      1051      2477      2520      1413      4201      2995      4119      4025      4120
 -1      2710    6    0    1
 -2      1046      2478      1062      2519      3900      4037      1388      3182      3899      4132
 -1      2711    6    0    1
 -2      1540      2479      1539      2519      4066      3904      1819      4134      3903      3178
 -1      2712    6    0    1
 -2       561      2479       570      2518      3902      3450       957      3180      3449      3448
 -1      2713    6    0    1
 -2      2030      2031      2478      2518      2312      3454      3901      3176      3456      3455
 -1      2714    6    0    1
 -2      2035      2477      2043      2515      2985      4073      2287      3341      3562      4121
 -1      2715    6    0    1
 -2      2042      2037      2481      2521      2327      2725      2688      3077      2622      3232
 -1      2716    6    0    1
 -2       528        80      1503      2530       652      1639      4247      4208      4175      4198
 -1      2717    6    0    1
 -2       281      2006       997      2531      2229      4248      1242      4177      4207      4202
 -1      2718    6    0    1
 -2      1557      2494      1545      2512      3913      3368      1829      3044      3370      3369
 -1      2719    6    0    1
 -2       494       511        67      1526       618       617       613      3938      3989      1600
 -1      2720    6    0    1
 -2      1552      2482      1543      2522      2775      2673      1824      4135      3568      3106
 -1      2721    6    0    1
 -2      1056      2481      1055      2525      2682      2729      1346      3121      3560      4107
 -1      2722    6    0    1
 -2      2045      2487      2046      2523      3960      2751      2347      4130      3572      3103
 -1      2723    6    0    1
 -2      2048      2044      2486      2524      2337      3966      2761      3108      4131      3574
 -1      2724    6    0    1
 -2      1515      2474      1560      2525      2648      2654      1834      4144      3561      3122
 -1      2725    6    0    1
 -2      1063      2486      1059      2529      2755      3953      1356      3125      3575      4124
 -1      2726    6    0    1
 -2      1477        73       492      2528      1620       635      4249      4205      4176      4203
 -1      2727    6    0    1
 -2      1049      2485      1064      2522      2741      2796      1336      3105      3570      4140
 -1      2728    6    0    1
 -2       562      2482       571      2526      2737      2872       843      3339      3569      4141
 -1      2729    6    0    1
 -2       515      1491        88      2560      3807      1665       680      4250      4252      4251
 -1      2730    6    0    1
 -2      2019       994       288      2561      3728      1263      2250      4253      4255      4254
 -1      2731    6    0    1
 -2      2049      2485      2034      2526      2892      2746      2317      4137      3571      3342
 -1      2732    6    0    1
 -2      2010       269      1041      2534      2195      1210      3641      3643      4170      3644
 -1      2733    6    0    1
 -2      1545      2499      1546      2513      3388      2980      1956      3373      3389      3056
 -1      2734    6    0    1
 -2       541       494       576      2495       882       615       884      3304      3935      3793
 -1      2735    6    0    1
 -2       415       411       410      2492       476       470       477      2974      3423      2975
 -1      2736    6    0    1
 -2       514      1468        95       497      3942      1686       701       702      3988       697
 -1      2737    6    0    1
 -2      1042      1022      1047      2544      1308      1327      1398      3262      4083      3264
 -1      2738    6    0    1
 -2      1533      2490      1549      2527      2776      2678      1905      3477      3476      3126
 -1      2739    6    0    1
 -2      2036      2488      2025      2531      3922      4056      2392      3187      3921      4160
 -1      2740    6    0    1
 -2      1535      2489      1551      2529      3975      2876      1843      4165      3583      3147
 -1      2741    6    0    1
 -2      1976      2028      2032      2544      2375      2379      2378      4085      3329      3332
 -1      2742    6    0    1
 -2      1039      2483      1054      2531      2888      3928      1426      4167      3927      3195
 -1      2743    6    0    1
 -2       563       546      2488      2530       914      4061      3933      3198      4168      3932
 -1      2744    6    0    1
 -2      2005       162       481      1961      2176       797      3804      2181      2180      3658
 -1      2745    6    0    1
 -2      2053      2002      2484      2514      2442      3466      2784      3068      3465      3464
 -1      2746    6    0    1
 -2      1067      2499      1005      2534      3048      3424      1447      3073      3428      3426
 -1      2747    6    0    1
 -2      1553      1499      2501      2507      1813      3437      3010      3039      3438      3439
 -1      2748    6    0    1
 -2      1005      2494      1043      2533      3425      3929      1339      3442      3441      3127
 -1      2749    6    0    1
 -2       545      2026       145      2562      3765      2125       744      4256      4258      4257
 -1      2750    6    0    1
 -2      1065      2490      1017      2514      2791      2884      1459      3076      3498      3497
 -1      2751    6    0    1
 -2       572      2484       524      2527      2781      3472       963      3120      3471      3470
 -1      2752    6    0    1
 -2      1504      1556      2483      2530      1945      3918      2734      4172      3185      3917
 -1      2753    6    0    1
 -2      1511      2473      1559      2528      3985      2641      1854      4171      3577      3129
 -1      2754    6    0    1
 -2      1526      1495      1562      2495      1930      1931      1601      3939      3316      3792
 -1      2755    6    0    1
 -2      1040      2544      2504      2558      4259      3460      3596      3494      4260      3998
 -1      2756    6    0    1
 -2      2478      2559      2458      2561      4036      4126      3591      3545      4028      3592
 -1      2757    6    0    1
 -2      1006       988      1040      2504      1198      1379      1378      3588      3292      3596
 -1      2758    6    0    1
 -2      1554      1479      2502      2549      1863      4002      3930      3052      4003      3931
 -1      2759    6    0    1
 -2      1536      1468      1563      2496      1807      1691      1809      3256      3943      3702
 -1      2760    6    0    1
 -2       201       987      1494      2536      1107      3669      1696      4139      3670      3649
 -1      2761    6    0    1
 -2      1061      1057      2501      2532      1316      2998      3665      3605      3135      3639
 -1      2762    6    0    1
 -2       134       510      2021      2535       711      3677      2092      4143      3672      3678
 -1      2763    6    0    1
 -2       286      1019      1972      2541      1261      3301      2246      4261      3016      3014
 -1      2764    6    0    1
 -2       581      1568      1563      2469      4262      1692      4263      4264      4265      3699
 -1      2765    6    0    1
 -2       409      1489       418      2469      3208      4266       456      3210      3211      4267
 -1      2766    6    0    1
 -2      2458      2547      2480      2560      3590      4047      4216      3618      3548      4050
 -1      2767    6    0    1
 -2      1565      1478      1073      2472      1695      4268      4269      4270      3282      4271
 -1      2768    6    0    1
 -2      2454      2499      2468      2513      2979      3604      4272      2803      3389      3601
 -1      2769    6    0    1
 -2      2456      2498      2467      2511      2601      3633      4273      3109      3406      3613
 -1      2770    6    0    1
 -2      2467      2498      2456      2510      3633      2601      4273      3615      3404      3112
 -1      2771    6    0    1
 -2      1491      1520        88      2560      1667      1663      1665      4252      4089      4251
 -1      2772    6    0    1
 -2       515        88       479      2560       680       676       681      4250      4251      4088
 -1      2773    6    0    1
 -2       288      1996      2019      2561      2252      2254      2250      4254      4087      4253
 -1      2774    6    0    1
 -2      1027       288       994      2561      1267      1263      1268      4086      4254      4255
 -1      2775    6    0    1
 -2      2453      2493      2467      2509      2613      3611      4274      3504      3376      3614
 -1      2776    6    0    1
 -2      2467      2493      2453      2508      3611      2613      4274      3612      3383      2813
 -1      2777    6    0    1
 -2      2468      2494      2462      2512      3599      4006      4275      3600      3370      2788
 -1      2778    6    0    1
 -2      2052       145      2026      2562      2129      2125      2130      4104      4257      4258
 -1      2779    6    0    1
 -2       145       573       545      2562       746       748       744      4257      4103      4256
 -1      2780    6    0    1
 -2      1961      2027      2056      2505      2301      2302      2184      3661      3667      3352
 -1      2781    6    0    1
 -2       511       494       542      2495       618       881       880      2924      3935      2926
 -1      2782    6    0    1
 -2      2488      2554      2465      2562      4055      3064      4239      4058      3582      3625
 -1      2783    6    0    1
 -2       515      2479      1491      2560      3806      3805      3807      4250      3547      4252
 -1      2784    6    0    1
 -2       994      2019      2477      2561      3728      3727      3729      4255      4253      4075
 -1      2785    6    0    1
 -2      2468      2499      2454      2534      3604      2979      4272      3616      3428      3008
 -1      2786    6    0    1
 -2      1074       988      1567      2492      1199      4276      4277      4278      3290      4279
 -1      2787    6    0    1
 -2       514       497       549      2496       702       897       896      3937      2940      2941
 -1      2788    6    0    1
 -2       503       336        10       334      3295       360       597      3152       365       364
 -1      2789    6    0    1
 -2      2465      2555      2488      2562      3133      4059      4239      3625      3580      4058
 -1      2790    6    0    1
 -2      2462      2494      2468      2533      4006      3599      4275      2919      3441      3634
 -1      2791    6    0    1
 -2       286       992      1019      2541      1257      1262      1261      4261      3656      3016
 -1      2792    6    0    1
 -2      1040       974      2544      2558      1310      4280      4259      3494      4281      4260
 -1      2793    6    0    1
 -2        59       407      1489       409       458      3207      1590       454       459      3208
 -1      2794    6    0    1
 -2      2460      2501      2466      2507      2999      3646      4282      2842      3439      3647
 -1      2795    6    0    1
 -2      1061      2502      1048      2541      3607      3997      1403      3608      3609      3343
 -1      2796    6    0    1
 -2       418       581       575      2469      4283       605      4284      4267      4264      3364
 -1      2797    6    0    1
 -2      1527        31       340       335      1586       382      3397      3584       384       386
 -1      2798    6    0    1
 -2      2466      2502      2459      2506      3673      4018      4285      3645      3502      2860
 -1      2799    6    0    1
 -2      2026       545      2484      2562      3765      3766      3767      4258      4256      3579
 -1      2800    6    0    1
 -2       544       503        10       334       601       597       599      3153      3152       364
 -1      2801    6    0    1
 -2      2458      2559      2479      2560      4126      4067      3617      3618      4013      3547
 -1      2802    6    0    1
 -2      1468      1537      1512      2496      1806      1805      1688      3943      2933      2934
 -1      2803    6    0    1
 -2      1561        59       407      1489      1592       458      3218      1594      1590      3207
 -1      2804    6    0    1
 -2      2466      2501      2460      2532      3646      2999      4282      3774      3639      2913
 -1      2805    6    0    1
 -2      1526      1474      1525      2495      1604      1837      1838      3939      2937      2938
 -1      2806    6    0    1
 -2      2495      2503      2451      2535      4286      3359      3305      3433      3666      2976
 -1      2807    6    0    1
 -2      2056      2061       582      2471      2185      4287      4288      3350      4290      4289
 -1      2808    6    0    1
 -2      2451      2503      2495      2536      3359      4286      3305      2970      3662      3408
 -1      2809    6    0    1
 -2      1028      1043      2494      2550      1341      3929      3993      4023      3128      3914
 -1      2810    6    0    1
 -2      1557      1531      2494      2550      1827      3995      3913      3045      4024      3914
 -1      2811    6    0    1
 -2       579      2059      2055      2491      4291      2091      4292      4293      4294      3323
 -1      2812    6    0    1
 -2      1488        31       340      1527      1582       382      3398      1587      1586      3397
 -1      2813    6    0    1
 -2      2459      2502      2466      2541      4018      3673      4285      2989      3609      3775
 -1      2814    6    0    1
 -2      1489      1568       418      2469      1591      4295      4266      3211      4265      4267
 -1      2815    6    0    1
 -2       541       542      2495      2535       883      2926      3304      2977      3416      3433
 -1      2816    6    0    1
 -2        24      1000      1037       333      1089      1094      1093       377      3346      3345
 -1      2817    6    0    1
 -2      2467      2508      2453      2539      3612      2813      4274      3162      3489      3192
 -1      2818    6    0    1
 -2      2453      2509      2467      2539      3504      3614      4274      3192      3983      3162
 -1      2819    6    0    1
 -2      2466      2506      2459      2537      3645      2860      4285      3167      3496      3242
 -1      2820    6    0    1
 -2      2460      2507      2466      2538      2842      3647      4282      3245      3495      3170
 -1      2821    6    0    1
 -2      2467      2510      2456      2540      3615      3112      4273      3164      3491      3249
 -1      2822    6    0    1
 -2      2456      2511      2467      2540      3109      3613      4273      3249      3490      3164
 -1      2823    6    0    1
 -2      2480      2520      2458      2560      4068      4127      4216      4050      4012      3618
 -1      2824    6    0    1
 -2      2458      2519      2479      2559      4221      3903      3617      4126      4133      4067
 -1      2825    6    0    1
 -2      2478      2519      2458      2559      3899      4221      3591      4036      4133      4126
 -1      2826    6    0    1
 -2      1022      1976      2509      2544      4095      4084      4082      4083      4085      3505
 -1      2827    6    0    1
 -2      2487      2528      2464      2551      3573      4210      4046      3970      4129      4042
 -1      2828    6    0    1
 -2      2054        45      1982       406      2086      2082      2087      3317       443      3318
 -1      2829    6    0    1
 -2      1495      2495      1525      2536      3316      2938      1929      2969      3408      3142
 -1      2830    6    0    1
 -2      2464      2528      2473      2551      4210      3577      4040      4042      4129      3987
 -1      2831    6    0    1
 -2      2457      2516      2475      2546      4213      3564      2696      3097      4112      3392
 -1      2832    6    0    1
 -2      2476      2516      2457      2546      3563      4213      2702      3394      4112      3097
 -1      2833    6    0    1
 -2      2458      2515      2480      2547      4218      3567      4216      3590      4118      4047
 -1      2834    6    0    1
 -2      2477      2515      2458      2547      3562      4218      4217      4072      4118      3590
 -1      2835    6    0    1
 -2      2457      2517      2476      2548      4214      3566      2702      3094      4115      3395
 -1      2836    6    0    1
 -2      2475      2517      2457      2548      3565      4214      2696      3393      4115      3094
 -1      2837    6    0    1
 -2      2477      2520      2459      2549      4120      4219      2986      3391      4110      3037
 -1      2838    6    0    1
 -2      2459      2520      2480      2549      4219      4068      2716      3037      4110      3396
 -1      2839    6    0    1
 -2      2473      2523      2464      2552      3558      4223      4040      3946      4102      4041
 -1      2840    6    0    1
 -2      2481      2525      2462      2550      3560      4222      2724      3410      4108      3033
 -1      2841    6    0    1
 -2      2462      2525      2474      2550      4222      3561      2650      3033      4108      3390
 -1      2842    6    0    1
 -2      2466      2537      2459      2541      3167      3242      4285      3775      3506      2989
 -1      2843    6    0    1
 -2      2483      2530      2465      2555      3917      4240      2571      3431      4169      3133
 -1      2844    6    0    1
 -2      2465      2530      2488      2555      4240      3932      4239      3133      4169      4059
 -1      2845    6    0    1
 -2      2454      2513      2468      2542      2803      3601      4272      3276      3559      3212
 -1      2846    6    0    1
 -2      2477      2547      2458      2561      4072      3590      4217      4075      3544      3592
 -1      2847    6    0    1
 -2      2486      2529      2464      2545      3575      4241      4045      3952      4125      4039
 -1      2848    6    0    1
 -2      2468      2512      2462      2543      3600      2788      4275      3214      3540      2620
 -1      2849    6    0    1
 -2      1971      2058      1072      2497      2188      4296      4297      3535      4299      4298
 -1      2850    6    0    1
 -2      2463      2522      2482      2557      4225      3568      2774      3137      4136      3407
 -1      2851    6    0    1
 -2      2482      2526      2463      2556      3569      4226      2774      3418      4138      3144
 -1      2852    6    0    1
 -2      2485      2522      2463      2557      3570      4225      2797      3429      4136      3137
 -1      2853    6    0    1
 -2      2463      2526      2485      2556      4226      3571      2797      3144      4138      3430
 -1      2854    6    0    1
 -2      2489      2524      2464      2553      3576      4237      4043      3957      4123      4044
 -1      2855    6    0    1
 -2      2464      2529      2489      2545      4241      3583      4043      4039      4125      3976
 -1      2856    6    0    1
 -2      2464      2523      2487      2552      4223      3572      4046      4041      4102      3961
 -1      2857    6    0    1
 -2      1042      2504      1040      2544      3459      3596      1309      3262      3460      4259
 -1      2858    6    0    1
 -2      2464      2524      2486      2553      4237      3574      4045      4044      4123      3968
 -1      2859    6    0    1
 -2      2465      2531      2483      2554      4245      3927      2571      3064      4161      3432
 -1      2860    6    0    1
 -2      2466      2532      2460      2538      3774      2913      4282      3170      3528      3245
 -1      2861    6    0    1
 -2      2488      2531      2465      2554      3921      4245      4239      4055      4161      3064
 -1      2862    6    0    1
 -2       989      1062      2478      2561      1384      4037      3812      4077      4038      3545
 -1      2863    6    0    1
 -2      2031      1963      2478      2561      2309      3811      3454      3543      4076      3545
 -1      2864    6    0    1
 -2       556       539      2480      2560       807      3731      4049      4051      4079      4050
 -1      2865    6    0    1
 -2      1465      1548      2480      2560      1792      4069      3733      4080      4011      4050
 -1      2866    6    0    1
 -2       286      1972      2024      2541      2246      2248      2244      4261      3014      3657
 -1      2867    6    0    1
 -2      2060      1974      1075      2500      2282      4300      4301      4302      4304      4303
 -1      2868    6    0    1
 -2      1529      1554      1479      2502      1864      1863      1755      4022      3930      4002
 -1      2869    6    0    1
 -2      2454      2503      2495      2535      3005      4286      2925      3415      3666      3433
 -1      2870    6    0    1
 -2      2468      2534      2454      2542      3616      3008      4272      3212      3529      3276
 -1      2871    6    0    1
 -2      2484      2490      2461      2514      4246      2659      2780      3464      3498      2844
 -1      2872    6    0    1
 -2      2495      2503      2454      2536      4286      3005      2925      3408      3662      2982
 -1      2873    6    0    1
 -2      2462      2533      2468      2543      2919      3634      4275      2620      3549      3214
 -1      2874    6    0    1
 -2      2461      2490      2484      2527      2659      4246      2780      2848      3476      3471
 -1      2875    6    0    1
 -2       544       334       343      2491      3153       366      4305      3155      3156      4306
 -1      2876    6    0    1
 -2      2455      2487      2473      2523      2752      4209      2642      2815      3572      3558
 -1      2877    6    0    1
 -2      2473      2487      2455      2528      4209      2752      2642      3577      3573      2667
 -1      2878    6    0    1
 -2      2455      2481      2474      2521      2684      4211      2655      2808      3232      3233
 -1      2879    6    0    1
 -2      1989      2503      2020      2535      3366      3017      2426      3236      3666      3434
 -1      2880    6    0    1
 -2      2474      2481      2455      2525      4211      2684      2655      3561      3560      2645
 -1      2881    6    0    1
 -2      2475      2476      2456      2516      4212      3267      2599      3564      3563      3079
 -1      2882    6    0    1
 -2      2456      2476      2475      2517      3267      4212      2599      3085      3566      3565
 -1      2883    6    0    1
 -2      2459      2480      2477      2515      2716      4215      2986      3336      3567      3562
 -1      2884    6    0    1
 -2      2478      2479      2457      2518      4220      4017      4016      3455      3449      2826
 -1      2885    6    0    1
 -2      2457      2479      2478      2519      4017      4220      4016      2823      3903      3899
 -1      2886    6    0    1
 -2      2458      2480      2477      2520      4216      4215      4217      4127      4068      4120
 -1      2887    6    0    1
 -2       407       417      1561      2492       460      4307      3218      3219      4308      3221
 -1      2888    6    0    1
 -2      1034      1035      2503      2536      1375      3004      3358      3206      3197      3662
 -1      2889    6    0    1
 -2      2486      2489      2461      2524      4236      2770      2757      3574      3576      2834
 -1      2890    6    0    1
 -2      2482      2485      2460      2522      4224      2743      2674      3568      3570      3002
 -1      2891    6    0    1
 -2      2460      2485      2482      2526      2743      4224      2674      3338      3571      3569
 -1      2892    6    0    1
 -2       557       558       519      2537       960       941       824      3241      3689      3166
 -1      2893    6    0    1
 -2       555       507       558      2538       943       940       823      3246      2959      3980
 -1      2894    6    0    1
 -2      1562      1566       580      2470      1598      4309      4310      3789      4312      4311
 -1      2895    6    0    1
 -2      2461      2489      2486      2529      2770      4236      2757      2662      3583      3575
 -1      2896    6    0    1
 -2      1048      2502       976      2549      3997      4001      1318      3344      3931      4004
 -1      2897    6    0    1
 -2       560       554       535      2540       969       939       836      3691      3250      2954
 -1      2898    6    0    1
 -2      2017      2033      2047      2540      2434      2297      2362      2956      3248      3693
 -1      2899    6    0    1
 -2      2050      1993      1962      2538      2305      2304      2306      3253      3676      2961
 -1      2900    6    0    1
 -2       500      2488       546      2562      3878      4061       913      4098      4058      4062
 -1      2901    6    0    1
 -2      2025      2488      1979      2562      4056      3879      2393      4057      4058      4099
 -1      2902    6    0    1
 -2       485       559       560      2539       834       838       837      2965      3240      3981
 -1      2903    6    0    1
 -2      2032      1973      2047      2539      2360      2361      2363      3331      2963      3982
 -1      2904    6    0    1
 -2      1992      1993      2051      2537      2303      2431      2430      3674      3675      3254
 -1      2905    6    0    1
 -2      2463      2488      2483      2530      4019      4238      4020      2857      3932      3917
 -1      2906    6    0    1
 -2      2483      2488      2463      2531      4238      4019      4020      3927      3921      2887
 -1      2907    6    0    1
 -2      1501       972      2520      2559      4149      4151      4152      4313      4314      4009
 -1      2908    6    0    1
 -2       418      1568       581      2469      4295      4262      4283      4267      4265      4264
 -1      2909    6    0    1
 -2      1023       991      1047      2493      1192      1397      1396      3681      2607      3603
 -1      2910    6    0    1
 -2      1505      1541      1483      2493      1885      1884      1782      3685      2895      2608
 -1      2911    6    0    1
 -2       413       418       575      2469       435      4284      3362      3365      4267      3364
 -1      2912    6    0    1
 -2      1000        24       339       333      1089       375      3626      3346       377       379
 -1      2913    6    0    1
 -2      1001        52       414       411      1099       451      3594      3420       447       452
 -1      2914    6    0    1
 -2        52      1001      1068       411      1099      1101      1097       447      3420      3419
 -1      2915    6    0    1
 -2      1557      1531      1472      2494      1827      1710      1828      3913      3995      3711
 -1      2916    6    0    1
 -2      1028      1043       980      2494      1341      1340      1120      3993      3929      3709
 -1      2917    6    0    1
 -2        45       412      1982       406       441      3597      2082       443       445      3318
 -1      2918    6    0    1
 -2      1057      1029       975      2501      1314      1159      1315      2998      3054      3909
 -1      2919    6    0    1
 -2      2024       992       286      2541      3654      1257      2244      3657      3656      4261
 -1      2920    6    0    1
 -2      1042      1040       974      2544      1309      1310      1307      3262      4259      4280
 -1      2921    6    0    1
 -2       579       544       343      2491       602      4305      4315      4293      3155      4306
 -1      2922    6    0    1
 -2       345       336       503      2470       362      3295      4316      4317      3296      3297
 -1      2923    6    0    1
 -2      2038      1986      2039      2543      2419      2420      2322      3277      3060      3999
 -1      2924    6    0    1
 -2      1068      1074       417      2492      1098      4318      4319      3421      4278      4308
 -1      2925    6    0    1
 -2      1567      1561       417      2492      1595      4307      4320      4279      3221      4308
 -1      2926    6    0    1
 -2       145      2052       573      2562      2129      4164       746      4257      4104      4103
 -1      2927    6    0    1
 -2      2039      2011      2040      2542      2421      2328      2449      3695      3118      3275
 -1      2928    6    0    1
 -2      1493      1546      1516      2499      1928      1927      1704      3025      2980      3707
 -1      2929    6    0    1
 -2      1507      1542      1467      2498      1803      1802      1776      2596      2852      3686
 -1      2930    6    0    1
 -2       973      1026      1045      2498      1186      1305      1304      2598      3687      2851
 -1      2931    6    0    1
 -2      1003      1004      1067      2499      1114      1446      1445      3159      3706      3048
 -1      2932    6    0    1
 -2      1565       335      1527      2472      4321      3584      1588      4270      3585      3401
 -1      2933    6    0    1
 -2       343      1981      2059      2491      4322      2077      4323      4306      3507      4294
 -1      2934    6    0    1
 -2       575       504        38       413       608       607       603      3362      3361       434
 -1      2935    6    0    1
 -2      1520       479        88      2560      4200       676      1663      4089      4088      4251
 -1      2936    6    0    1
 -2       288      1027      1996      2561      1267      4199      2252      4254      4086      4087
 -1      2937    6    0    1
 -2       574       548       513      2542       858       956       954      3279      3117      3697
 -1      2938    6    0    1
 -2       543       550       513      2543       903       847       955      3201      3280      3991
 -1      2939    6    0    1
 -2       408        38       504       413       436       607      3636       438       434      3361
 -1      2940    6    0    1
 -2      1048      1012       976      2502      1317      1165      1318      3997      4031      4001
 -1      2941    6    0    1
 -2       582       408       504      2471      4324      3636       609      4289      3637      3542
 -1      2942    6    0    1
 -2       335      1565       344      2472      4321      4325       387      3585      4270      4326
 -1      2943    6    0    1
 -2       345       503       580      2470      4316       598      4327      4317      3297      4311
 -1      2944    6    0    1
 -2      1566      1488       345      2470      1584      4328      4329      4312      3664      4317
 -1      2945    6    0    1
 -2      2043      2477      2019      2561      4073      3727      2437      4074      4075      4253
 -1      2946    6    0    1
 -2       994      2477      1051      2561      3729      4201      1412      4255      4075      4027
 -1      2947    6    0    1
 -2      1540      1491      2479      2560      1920      3805      4066      4065      4252      3547
 -1      2948    6    0    1
 -2       515       570      2479      2560       804      3450      3806      4250      3546      3547
 -1      2949    6    0    1
 -2      2458      2520      2477      2561      4127      4120      4217      3592      4029      4075
 -1      2950    6    0    1
 -2       411      1068       417      2492      3419      4319       449      3423      3421      4308
 -1      2951    6    0    1
 -2        90       527      1466      2548       686      4227      1671      4330      4332      4331
 -1      2952    6    0    1
 -2      1983       291       993      2546      2261      1276      4229      4333      4335      4334
 -1      2953    6    0    1
 -2      1958       154       540      2547      2152       771      4231      4336      4338      4337
 -1      2954    6    0    1
 -2       220      1524      1032      2549      1757      4228      1166      4339      4341      4340
 -1      2955    6    0    1
 -2      1970      1024       275      2552      4233      1224      2211      4342      4344      4343
 -1      2956    6    0    1
 -2       215      1513      1011      2557      1742      4234      1151      4345      4347      4346
 -1      2957    6    0    1
 -2       142      1999       525      2553      2120      4235       737      4348      4350      4349
 -1      2958    6    0    1
 -2      1964       486       148      2556      4242       755      2138      4351      4353      4352
 -1      2959    6    0    1
 -2      1484      1553      1528      2501      1890      1889      1749      3065      3010      3908
 -1      2960    6    0    1
 -2      1477       492        74      2551      4249       634      1621      4354      4356      4355
 -1      2961    6    0    1
 -2       989      1027      1062      2561      1271      1385      1384      4077      4086      4038
 -1      2962    6    0    1
 -2      2031      1996      1963      2561      2308      2257      2309      3543      4087      4076
 -1      2963    6    0    1
 -2       556       479       539      2560       806       678       807      4051      4088      4079
 -1      2964    6    0    1
 -2      1465      1520      1548      2560      1664      1793      1792      4080      4089      4011
 -1      2965    6    0    1
 -2      1499      1554      1529      2502      1934      1864      1936      3500      3930      4022
 -1      2966    6    0    1
 -2      1035       982      1002      2503      1347      1208      1348      3004      3069      3823
 -1      2967    6    0    1
 -2      2026      2484      2002      2562      3767      3466      2444      4258      3579      3581
 -1      2968    6    0    1
 -2       524      2484       545      2562      3472      3766       964      3578      3579      4256
 -1      2969    6    0    1
 -2       582       416       408      2471      4357       439      4324      4289      4358      3637
 -1      2970    6    0    1
 -2      1475       983       209      2545      4243      1133      1724      4359      4361      4360
 -1      2971    6    0    1
 -2      1503        79       528      2555      1638       653      4247      4362      4364      4363
 -1      2972    6    0    1
 -2      1987      2020      1988      2503      2423      2422      2194      3172      3017      3788
 -1      2973    6    0    1
 -2       529       161      2005      2539       794      2177      3651      3272      4365      3653
 -1      2974    6    0    1
 -2       981       205      1530      2550      1121      1712      4244      4366      4368      4367
 -1      2975    6    0    1
 -2       338      1981       343      2491      3353      4322       369      3508      3507      4306
 -1      2976    6    0    1
 -2      1563       495       581      2469      3700       706      4263      3699      3698      4264
 -1      2977    6    0    1
 -2       152      1991       483      2537      2150      4154       767      4369      3920      3912
 -1      2978    6    0    1
 -2      1060       985      1058      2473      1363      1364      1366      2692      3763      3945
 -1      2979    6    0    1
 -2      1994       159       506      2540      2167       786      3593      3412      4370      3414
 -1      2980    6    0    1
 -2      2016       150       538      2538      2140       759      4162      3924      4371      3916
 -1      2981    6    0    1
 -2       498       137      2009      2543       722      2105      2932      2626      4372      2628
 -1      2982    6    0    1
 -2       346      1037      1072      2497      4373      1095      4374      4375      3347      4298
 -1      2983    6    0    1
 -2       419      2054      2060      2500      4376      2088      4377      4378      3321      4302
 -1      2984    6    0    1
 -2      2058      2022       341      2497      2081      3446      4379      4299      3355      3447
 -1      2985    6    0    1
 -2       280       997      2006      2554      1243      4248      2228      4380      4382      4381
 -1      2986    6    0    1
 -2       564       565       488      2474       853       850       851      2677      2732      3752
 -1      2987    6    0    1
 -2       490       567       569      2489       861       863       860      3759      3956      2768
 -1      2988    6    0    1
 -2       573       500       546      2562       751       913       915      4103      4098      4062
 -1      2989    6    0    1
 -2      2052      2025      1979      2562      2394      2393      2133      4104      4057      4099
 -1      2990    6    0    1
 -2      1073      1478      1069      2472      4268      3283      1105      4271      3282      3281
 -1      2991    6    0    1
 -2      1473      1560      1515      2474      1830      1834      1833      3754      2654      2648
 -1      2992    6    0    1
 -2      1985      2042      2037      2481      2414      2327      2417      3713      2688      2725
 -1      2993    6    0    1
 -2      1025      1055      1056      2481      1414      1346      1432      3715      2729      2682
 -1      2994    6    0    1
 -2      2019      2043      2035      2477      2437      2287      2355      3727      4073      2985
 -1      2995    6    0    1
 -2       994      1050      1051      2477      1409      1413      1412      3729      2995      4201
 -1      2996    6    0    1
 -2      1490      1538      1547      2475      1915      1799      1914      3724      2695      2708
 -1      2997    6    0    1
 -2      1020      1044      1053      2475      1302      1408      1325      3721      2703      2706
 -1      2998    6    0    1
 -2       526       551       552      2476       936       966       832      3717      3269      2712
 -1      2999    6    0    1
 -2      1959      2029      2041      2476      2290      2292      2289      3719      2701      3266
 -1      3000    6    0    1
 -2      1062      1046       989      2478      1388      1387      1384      4037      3900      3812
 -1      3001    6    0    1
 -2      1539      1540      1491      2479      1819      1920      1917      3904      4066      3805
 -1      3002    6    0    1
 -2       553       556       539      2480       971       807       946      2715      4049      3731
 -1      3003    6    0    1
 -2       570       561       515      2479       957       949       804      3450      3902      3806
 -1      3004    6    0    1
 -2      1963      2030      2031      2478      2310      2312      2309      3811      3901      3454
 -1      3005    6    0    1
 -2      1465      1548      1544      2480      1792      1794      1791      3733      4069      2720
 -1      3006    6    0    1
 -2      1074      1567       417      2492      4277      4320      4318      4278      4279      4308
 -1      3007    6    0    1
 -2      1543      1552      1471      2482      1824      1821      1822      2673      2775      3750
 -1      3008    6    0    1
 -2      1063      1018      1059      2486      1420      1434      1356      2755      3738      3953
 -1      3009    6    0    1
 -2      2048      2044      1968      2486      2337      2336      2333      2761      3966      3737
 -1      3010    6    0    1
 -2      2004      2046      2045      2487      2445      2347      2398      3748      2751      3960
 -1      3011    6    0    1
 -2       566       568       531      2487       873       917       923      3971      2764      3746
 -1      3012    6    0    1
 -2       518       571       562      2482       891       843       959      3744      2872      2737
 -1      3013    6    0    1
 -2       339      1073      1000      2472      4383      1091      3626      3627      4271      3493
 -1      3014    6    0    1
 -2      1054      1039      1021      2483      1426      1361      1391      3928      2888      3783
 -1      3015    6    0    1
 -2      2008      2034      2049      2485      2380      2317      2373      3742      2746      2892
 -1      3016    6    0    1
 -2       979      1064      1049      2485      1332      1336      1335      3740      2796      2741
 -1      3017    6    0    1
 -2      1478      1073       199      1565      4268      1082      1694      1695      4269      1575
 -1      3018    6    0    1
 -2      1565      1073       344      2472      4269      4384      4325      4270      4271      4326
 -1      3019    6    0    1
 -2       135       489      1967      2542       714      4142      2095      4385      3941      3974
 -1      3020    6    0    1
 -2       492      2528       566      2551      4203      4128       872      4356      4129      3969
 -1      3021    6    0    1
 -2      2059       579       343      2491      4291      4315      4323      4294      4293      4306
 -1      3022    6    0    1
 -2      2061      1982       412      2471      2084      3597      4386      4290      3445      3598
 -1      3023    6    0    1
 -2       981      2525      1055      2550      4195      4107      1345      4366      4108      3074
 -1      3024    6    0    1
 -2      1544      2520      1524      2549      4109      4183      1861      3036      4110      4341
 -1      3025    6    0    1
 -2       540       556      2515      2547       934      4117      4186      4337      4048      4118
 -1      3026    6    0    1
 -2      1053      2516       993      2546      4111      4182      1406      3098      4112      4334
 -1      3027    6    0    1
 -2       552      2517       527      2548      4114      4178       950      3100      4115      4332
 -1      3028    6    0    1
 -2      1983      2516      2029      2546      4180      4113      2409      4333      4112      3095
 -1      3029    6    0    1
 -2      1538      1466      2517      2548      1798      4179      4116      3092      4331      4115
 -1      3030    6    0    1
 -2      1050      1032      2520      2549      1320      4181      4119      3258      4340      4110
 -1      3031    6    0    1
 -2      1958      2515      2043      2547      4187      4121      2286      4336      4118      4071
 -1      3032    6    0    1
 -2      1065      1016      1017      2490      1458      1357      1459      2791      3773      2884
 -1      3033    6    0    1
 -2      1974      1075       298      2060      4300      1085      2280      2282      4301      2074
 -1      3034    6    0    1
 -2       983      2529      1059      2545      4196      4124      1355      4361      4125      3951
 -1      3035    6    0    1
 -2      1506      1551      1535      2489      1892      1843      1949      3769      2876      3975
 -1      3036    6    0    1
 -2      1503      2530      1504      2555      4198      4172      1846      4362      4169      3131
 -1      3037    6    0    1
 -2      2045      2523      1970      2552      4130      4191      2345      3962      4102      4342
 -1      3038    6    0    1
 -2      1058      1024      2523      2552      1437      4190      4101      3947      4344      4102
 -1      3039    6    0    1
 -2      2044      2524      1999      2553      4131      4192      2395      3967      4123      4350
 -1      3040    6    0    1
 -2       567       525      2524      2553       922      4193      4122      3958      4349      4123
 -1      3041    6    0    1
 -2      1552      2522      1513      2557      4135      4189      1877      3136      4136      4347
 -1      3042    6    0    1
 -2      1511      2528      1477      2551      4171      4205      1852      3986      4129      4354
 -1      3043    6    0    1
 -2      2006      2531      2025      2554      4207      4160      2342      4381      4161      4054
 -1      3044    6    0    1
 -2      1481      1567       988      2492      1789      4276      3291      3202      4279      3290
 -1      3045    6    0    1
 -2      1064      1011      2522      2557      1390      4188      4140      3148      4346      4136
 -1      3046    6    0    1
 -2       486      2526       571      2556      4194      4141       840      4353      4138      3150
 -1      3047    6    0    1
 -2      2049      2526      1964      2556      4137      4197      2313      3143      4138      4351
 -1      3048    6    0    1
 -2      2025      2036      1979      2488      2392      2391      2393      4056      3922      3879
 -1      3049    6    0    1
 -2       563       546       500      2488       914       913       911      3933      4061      3878
 -1      3050    6    0    1
 -2       546      2530       528      2555      4168      4208       868      4060      4169      4363
 -1      3051    6    0    1
 -2       492       568       566      2528       869       873       872      4203      3130      4128
 -1      3052    6    0    1
 -2      1515      2525      1530      2550      4144      4206      1954      3032      4108      4367
 -1      3053    6    0    1
 -2       582      2056       164      2061      4288      2182       592      4287      2185      2071
 -1      3054    6    0    1
 -2       580        65      1566      1562       589      1572      4309      4310      1596      1598
 -1      3055    6    0    1
 -2       545       524       572      2484       964       963       909      3766      3472      2781
 -1      3056    6    0    1
 -2      2026      2053      2002      2484      2387      2442      2444      3767      2784      3466
 -1      3057    6    0    1
 -2      2042      1966      2037      2521      2324      2325      2327      3077      3487      2622
 -1      3058    6    0    1
 -2       564       532       565      2521       902       918       853      2616      3486      3102
 -1      3059    6    0    1
 -2      1544      1548      1524      2520      1794      1941      1861      4109      4010      4183
 -1      3060    6    0    1
 -2       553       540       556      2515       827       934       971      3335      4186      4117
 -1      3061    6    0    1
 -2      1053      1044       993      2516      1408      1405      1406      4111      3080      4182
 -1      3062    6    0    1
 -2       527       552       551      2517       950       966       810      4178      4114      3083
 -1      3063    6    0    1
 -2      2041      2029      1983      2516      2292      2409      2406      3088      4113      4180
 -1      3064    6    0    1
 -2      2030      1984      2031      2518      2411      2412      2312      3176      3777      3456
 -1      3065    6    0    1
 -2      1050      1032      1051      2520      1320      1299      1413      4119      4181      4025
 -1      3066    6    0    1
 -2      1007      1046      1062      2519      1322      1388      1298      4185      3182      4132
 -1      3067    6    0    1
 -2      1470      1540      1539      2519      1815      1819      1818      4184      4134      3178
 -1      3068    6    0    1
 -2      1466      1547      1538      2517      1795      1799      1798      4179      3091      4116
 -1      3069    6    0    1
 -2       561       570       516      2518       957       933       829      3180      3448      3778
 -1      3070    6    0    1
 -2      2035      2043      1958      2515      2287      2286      2283      3341      4121      4187
 -1      3071    6    0    1
 -2      1513      1552      1543      2522      1877      1824      1888      4189      4135      3106
 -1      3072    6    0    1
 -2      1058      1024      1060      2523      1437      1429      1366      4101      4190      3104
 -1      3073    6    0    1
 -2      2045      2046      1970      2523      2347      2344      2345      4130      3103      4191
 -1      3074    6    0    1
 -2       567       525       569      2524       922       906       863      4122      4193      3107
 -1      3075    6    0    1
 -2      2048      1999      2044      2524      2386      2395      2337      3108      4192      4131
 -1      3076    6    0    1
 -2      1533      1549      1518      2527      1905      1895      1849      3477      3126      3799
 -1      3077    6    0    1
 -2      1056      1055       981      2525      1346      1345      1342      3121      4107      4195
 -1      3078    6    0    1
 -2       346      2058       341      2497      4387      4379       373      4375      4299      3447
 -1      3079    6    0    1
 -2      1534      1504      1556      2483      1947      1945      1880      3786      2734      3918
 -1      3080    6    0    1
 -2       983      1063      1059      2529      1352      1356      1355      4196      3125      4124
 -1      3081    6    0    1
 -2      1049      1064      1011      2522      1336      1390      1454      3105      4140      4188
 -1      3082    6    0    1
 -2      1007       222      1470      2559      1172      1763      4230      4388      4390      4389
 -1      3083    6    0    1
 -2       562       571       486      2526       843       840       841      3339      4141      4194
 -1      3084    6    0    1
 -2      2049      2034      1964      2526      2317      2316      2313      4137      3342      4197
 -1      3085    6    0    1
 -2      1007      2519      1062      2559      4185      4132      1298      4388      4133      4035
 -1      3086    6    0    1
 -2      1540      2519      1470      2559      4134      4184      1815      4064      4133      4389
 -1      3087    6    0    1
 -2       557       520       558      2506       945       819       960      3028      3534      3818
 -1      3088    6    0    1
 -2       555       558       482      2507       823       820       821      3031      3819      3821
 -1      3089    6    0    1
 -2      1535      2529      1475      2545      4165      4204      1842      3977      4125      4359
 -1      3090    6    0    1
 -2      1549      1533      1487      2490      1905      1904      1902      2678      2776      3771
 -1      3091    6    0    1
 -2      2006      2036      2025      2531      2370      2392      2342      4207      3187      4160
 -1      3092    6    0    1
 -2      1031      1045      1052      2510      1450      1464      1330      3514      3113      3378
 -1      3093    6    0    1
 -2      2033      1960      2047      2510      2296      2293      2297      3115      3513      3833
 -1      3094    6    0    1
 -2       560       533       554      2511       968       811       969      3831      3519      3110
 -1      3095    6    0    1
 -2      1550      1542      1522      2511      1804      1938      1868      3386      3116      3518
 -1      3096    6    0    1
 -2      1553      1469      1499      2507      1812      1810      1813      3039      3817      3438
 -1      3097    6    0    1
 -2       559       530       560      2508       899       967       838      3021      3525      3830
 -1      3098    6    0    1
 -2       978      1052      1047      2509      1329      1331      1328      3527      3377      3503
 -1      3099    6    0    1
 -2      1550      1480      1541      2508      1869      1866      1870      3382      3523      3024
 -1      3100    6    0    1
 -2      2047      1997      2032      2509      2294      2377      2363      3832      3521      4032
 -1      3101    6    0    1
 -2      1498      1554      1499      2506      1932      1934      1811      3533      3051      3435
 -1      3102    6    0    1
 -2      1061      1048       992      2541      1403      1402      1399      3608      3343      3656
 -1      3103    6    0    1
 -2       582      2061       416      2471      4287      4391      4357      4289      4290      4358
 -1      3104    6    0    1
 -2      1532      1559      1511      2473      1899      1854      1951      3762      2641      3985
 -1      3105    6    0    1
 -2      1073       339       344      2472      4383       376      4384      4271      3627      4326
 -1      3106    6    0    1
 -2      1557      1545      1492      2512      1829      1924      1921      3044      3369      3834
 -1      3107    6    0    1
 -2      1515      1560      1530      2525      1834      1898      1954      4144      3122      4206
 -1      3108    6    0    1
 -2       563       528       546      2530       894       868       914      3198      4208      4168
 -1      3109    6    0    1
 -2       266      2058      1072      1971      2068      4296      1079      2186      2188      4297
 -1      3110    6    0    1
 -2      2053      2001      2002      2514      2441      2338      2442      3068      3794      3465
 -1      3111    6    0    1
 -2      2061       412       416      2471      4386       442      4391      4290      3598      4358
 -1      3112    6    0    1
 -2      2496      2504      2453      2505      3367      2615      2935      3409      4392      3190
 -1      3113    6    0    1
 -2      1504      1503      1556      2530      1846      1943      1945      4172      4198      3185
 -1      3114    6    0    1
 -2       988      1074      1567       231      1199      4277      4276      1197      1088      1581
 -1      3115    6    0    1
 -2      1039      2531       997      2554      4167      4202      1427      3063      4161      4382
 -1      3116    6    0    1
 -2       487       513       550      2512       844       847       846      3837      3836      3047
 -1      3117    6    0    1
 -2       574       513       512      2513       954       845       952      3043      3838      3557
 -1      3118    6    0    1
 -2      2005       161      1973      2539      2177      2173      2178      3653      4365      2963
 -1      3119    6    0    1
 -2       529       485       161      2539       796       792       794      3272      2965      4365
 -1      3120    6    0    1
 -2       493       579      2055      2491       709      4292      3324      3322      4293      3323
 -1      3121    6    0    1
 -2      1545      1546      1517      2513      1956      1836      1923      3373      3056      3555
 -1      3122    6    0    1
 -2      1511      1559      1477      2528      1854      1851      1852      4171      3129      4205
 -1      3123    6    0    1
 -2       507       538       150      2538       763       759       761      2959      3916      4371
 -1      3124    6    0    1
 -2      1535      1551      1475      2529      1843      1841      1842      4165      3147      4204
 -1      3125    6    0    1
 -2       483       519       152      2537       769       765       767      3912      3166      4369
 -1      3126    6    0    1
 -2      1047      1052      1023      2493      1331      1463      1396      3603      3375      3681
 -1      3127    6    0    1
 -2      1505      1550      1541      2493      1800      1870      1885      3685      3381      2895
 -1      3128    6    0    1
 -2       535       506       159      2540       790       786       788      2954      3414      4370
 -1      3129    6    0    1
 -2      1994      2017       159      2540      2172      2171      2167      3412      2956      4370
 -1      3130    6    0    1
 -2       152      1992      1991      2537      2146      2151      2150      4369      3674      3920
 -1      3131    6    0    1
 -2      2016      1962       150      2538      2145      2144      2140      3924      2961      4371
 -1      3132    6    0    1
 -2      1075      1001       414      2500      1102      3594      4393      4303      3551      3595
 -1      3133    6    0    1
 -2       137      1986      2009      2543      2101      2106      2105      4372      3060      2628
 -1      3134    6    0    1
 -2      1557      1472      1545      2494      1828      1825      1829      3913      3711      3368
 -1      3135    6    0    1
 -2      1052      1045      1026      2498      1464      1305      1462      3402      2851      3687
 -1      3136    6    0    1
 -2      1550      1467      1542      2498      1801      1802      1804      3405      3686      2852
 -1      3137    6    0    1
 -2       572       524       523      2527       963       865       961      3120      3470      3800
 -1      3138    6    0    1
 -2       340       345      1488      2470       383      4328      3398      3663      4317      3664
 -1      3139    6    0    1
 -2      2452      2504      2496      2505      2966      3367      3227      2992      4392      3409
 -1      3140    6    0    1
 -2       581        97      1563      1568       595      1690      4263      4262      1578      1692
 -1      3141    6    0    1
 -2      1965      2038      2039      2533      2320      2322      2319      3632      3072      3886
 -1      3142    6    0    1
 -2      2059      2055       132       579      2091      2090      2065      4291      4292       586
 -1      3143    6    0    1
 -2       980      1043      1005      2494      1340      1339      1338      3709      3929      3425
 -1      3144    6    0    1
 -2      1566       345       580      2470      4329      4327      4309      4312      4317      4311
 -1      3145    6    0    1
 -2       997      1039      1054      2531      1427      1426      1425      4202      4167      3195
 -1      3146    6    0    1
 -2      1004      1005      1067      2499      1337      1447      1446      3706      3424      3048
 -1      3147    6    0    1
 -2      1061      1057       975      2501      1316      1315      1312      3665      2998      3909
 -1      3148    6    0    1
 -2      1545      1516      1546      2499      1826      1927      1956      3388      3707      2980
 -1      3149    6    0    1
 -2       582       577      2056      2471       803      3351      4288      4289      3293      3350
 -1      3150    6    0    1
 -2       419      1075       414      2500      4394      4393       453      4378      4303      3595
 -1      3151    6    0    1
 -2       333      1037       346      2497      3345      4373       380      3349      3347      4375
 -1      3152    6    0    1
 -2       406      2054       419      2500      3317      4376       446      3320      3321      4378
 -1      3153    6    0    1
 -2      2505      2544      2028      2558      3488      3329      3374      3668      4260      4395
 -1      3154    6    0    1
 -2      2010      2039      2040      2534      2318      2449      2425      3643      3905      3124
 -1      3155    6    0    1
 -2      1967      2011       135      2542      2100      2099      2095      3974      3118      4385
 -1      3156    6    0    1
 -2      1042       991      1006      2504      1394      1195      1395      3459      2610      3588
 -1      3157    6    0    1
 -2      1548      1501      2520      2559      1940      4152      4010      4008      4313      4009
 -1      3158    6    0    1
 -2      1051      2520       972      2559      4025      4151      1300      4026      4009      4314
 -1      3159    6    0    1
 -2      1038      1065      1017      2514      1421      1459      1460      3795      3076      3497
 -1      3160    6    0    1
 -2      1072       986      1971      2497      1202      3537      4297      4298      3536      3535
 -1      3161    6    0    1
 -2       485      1973       161      2539      2964      2173       792      2965      2963      4365
 -1      3162    6    0    1
 -2      1061      1009      1057      2532      1400      1452      1316      3605      3623      3135
 -1      3163    6    0    1
 -2       535       159      2017      2540       788      2171      2951      2954      4370      2956
 -1      3164    6    0    1
 -2       507       150      1962      2538       761      2144      2957      2959      4371      2961
 -1      3165    6    0    1
 -2       152       519      1992      2537       765      4053      2146      4369      3166      3674
 -1      3166    6    0    1
 -2      2005      2028      1961      2505      2299      2298      2181      3652      3374      3661
 -1      3167    6    0    1
 -2      1503      1476        79      2555      1640      1636      1638      4362      3926      4364
 -1      3168    6    0    1
 -2      1983      2018       291      2546      2263      2259      2261      4333      3846      4335
 -1      3169    6    0    1
 -2        90      1466      1519      2548      1671      1673      1669      4330      4331      3848
 -1      3170    6    0    1
 -2       993       291      1033      2546      1276      1272      1277      4334      4335      3845
 -1      3171    6    0    1
 -2        90       509       527      2548       682       687       686      4330      3850      4332
 -1      3172    6    0    1
 -2       505       540       154      2547       775       771       773      3842      4337      4338
 -1      3173    6    0    1
 -2      1958      2015       154      2547      2157      2156      2152      4336      3841      4338
 -1      3174    6    0    1
 -2       220      1032       976      2549      1166      1168      1164      4339      4340      4004
 -1      3175    6    0    1
 -2      1524       220      1479      2549      1757      1753      1758      4341      4339      4003
 -1      3176    6    0    1
 -2      1030       209       983      2545      1131      1133      1135      3877      4360      4361
 -1      3177    6    0    1
 -2      1970       275      2014      2552      2211      2213      2215      4342      4343      3854
 -1      3178    6    0    1
 -2      1024       999       275      2552      1229      1228      1224      4344      3853      4343
 -1      3179    6    0    1
 -2      2023      1993      2050      2532      2433      2305      2383      3621      3887      3041
 -1      3180    6    0    1
 -2       215      1482      1513      2557      1738      1743      1742      4345      3874      4347
 -1      3181    6    0    1
 -2       142      1980      1999      2553      2116      2121      2120      4348      3858      4350
 -1      3182    6    0    1
 -2       142       525       502      2553       737       739       735      4348      4349      3857
 -1      3183    6    0    1
 -2      2504      2505      2452      2558      4392      2992      2966      3998      3668      3287
 -1      3184    6    0    1
 -2       981      1028       205      2550      1123      1119      1121      4366      4023      4368
 -1      3185    6    0    1
 -2       492       537        74      2551       639       638       634      4356      3868      4355
 -1      3186    6    0    1
 -2      2024      2051      1993      2541      2356      2431      2432      3657      3231      3888
 -1      3187    6    0    1
 -2      1477        74      1510      2551      1621      1623      1625      4354      4355      3898
 -1      3188    6    0    1
 -2       148       486       517      2556       755       757       753      4352      4353      3895
 -1      3189    6    0    1
 -2      1995      1964       148      2556      2139      2138      2134      3896      4351      4352
 -1      3190    6    0    1
 -2      1011       990       215      2557      1153      1149      1151      4346      3875      4345
 -1      3191    6    0    1
 -2       498       543       137      2543       724       720       722      2626      3201      4372
 -1      3192    6    0    1
 -2      1075      1974      1070      2500      4300      4396      1296      4303      4304      4014
 -1      3193    6    0    1
 -2       576      1562       580      2470      3791      4310       612      3790      3789      4311
 -1      3194    6    0    1
 -2       280      1066       997      2554      1239      1244      1243      4380      3885      4382
 -1      3195    6    0    1
 -2       209      1558      1475      2545      1720      1725      1724      4360      3866      4359
 -1      3196    6    0    1
 -2      1067      1005      1041      2534      1447      1448      1351      3073      3426      3644
 -1      3197    6    0    1
 -2      2006      1969       280      2554      2230      2226      2228      4381      3890      4380
 -1      3198    6    0    1
 -2        79       491       528      2555       649       654       653      4364      3892      4363
 -1      3199    6    0    1
 -2      1036      1005      1043      2533      1449      1339      1417      3630      3442      3127
 -1      3200    6    0    1
 -2       135       548       489      2542       716       718       714      4385      3117      3941
 -1      3201    6    0    1
 -2       409       413       410      2469       475       474       468      3210      3365      3307
 -1      3202    6    0    1
 -2      1983       993      2516      2546      4229      4182      4180      4333      4334      4112
 -1      3203    6    0    1
 -2       527      2517      1466      2548      4178      4179      4227      4332      4115      4331
 -1      3204    6    0    1
 -2       540      2515      1958      2547      4186      4187      4231      4337      4118      4336
 -1      3205    6    0    1
 -2      1524      2520      1032      2549      4183      4181      4228      4341      4110      4340
 -1      3206    6    0    1
 -2      1970      2523      1024      2552      4191      4190      4233      4342      4102      4344
 -1      3207    6    0    1
 -2      1999      2524       525      2553      4192      4193      4235      4350      4123      4349
 -1      3208    6    0    1
 -2      1011      1513      2522      2557      4234      4189      4188      4346      4347      4136
 -1      3209    6    0    1
 -2      1964      2526       486      2556      4197      4194      4242      4351      4138      4353
 -1      3210    6    0    1
 -2      1548      1540      1501      2559      1942      1816      1940      4008      4064      4313
 -1      3211    6    0    1
 -2      1051       972      1062      2559      1300      1297      1301      4026      4314      4035
 -1      3212    6    0    1
 -2      1531      1530       205      2550      1713      1712      1708      4024      4367      4368
 -1      3213    6    0    1
 -2      2002      1969      2025      2554      2339      2341      2340      3468      3890      4054
 -1      3214    6    0    1
 -2       338       334       337      2491       396       394       397      3508      3156      2973
 -1      3215    6    0    1
 -2       492      1477      2528      2551      4249      4205      4203      4356      4354      4129
 -1      3216    6    0    1
 -2      1059      1058      1030      2545      1438      1365      1354      3951      3944      3877
 -1      3217    6    0    1
 -2       524       546       491      2555       867       866       864      3473      4060      3892
 -1      3218    6    0    1
 -2      1974      2500      2062      2558      4304      3333      2367      4397      3289      3483
 -1      3219    6    0    1
 -2      1475      2529       983      2545      4204      4196      4243      4359      4125      4361
 -1      3220    6    0    1
 -2      1043      1028      1055      2550      1341      1344      1418      3128      4023      3074
 -1      3221    6    0    1
 -2       566       567       537      2551       925       862       871      3969      3955      3868
 -1      3222    6    0    1
 -2       505       570       556      2547       932       808       935      3842      3451      4048
 -1      3223    6    0    1
 -2      1050      1048       976      2549      1321      1318      1319      3258      3344      4004
 -1      3224    6    0    1
 -2      1046      1053      1033      2546      1326      1407      1386      3183      3098      3845
 -1      3225    6    0    1
 -2      2029      2030      2018      2546      2450      2311      2408      3095      3177      3846
 -1      3226    6    0    1
 -2      1539      1519      1538      2548      1918      1797      1957      3179      3848      3092
 -1      3227    6    0    1
 -2       561       552       509      2548       833       951       948      3181      3100      3850
 -1      3228    6    0    1
 -2      2031      2015      2043      2547      2413      2285      2439      3457      3841      4071
 -1      3229    6    0    1
 -2      1554      1544      1479      2549      1865      1862      1863      3052      3036      4003
 -1      3230    6    0    1
 -2      1476      1504      1533      2555      1845      1848      1847      3926      3131      3132
 -1      3231    6    0    1
 -2      2045      2044      1980      2553      2399      2396      2397      3963      3967      3858
 -1      3232    6    0    1
 -2       502       567       566      2553       921       925       924      3857      3958      3972
 -1      3233    6    0    1
 -2      1510      1535      1511      2551      1948      1950      1853      3898      3978      3986
 -1      3234    6    0    1
 -2      2044      2045      2014      2552      2399      2346      2335      3965      3962      3854
 -1      3235    6    0    1
 -2      1058      1059       999      2552      1438      1435      1436      3947      3954      3853
 -1      3236    6    0    1
 -2      1552      1482      1556      2557      1878      1879      1881      3136      3874      3186
 -1      3237    6    0    1
 -2      1530      2525       981      2550      4206      4195      4244      4367      4108      4366
 -1      3238    6    0    1
 -2       528      2530      1503      2555      4208      4198      4247      4363      4169      4362
 -1      3239    6    0    1
 -2      1054       990      1064      2557      1392      1389      1393      3196      3875      3148
 -1      3240    6    0    1
 -2       137       543      1986      2543       720      3200      2101      4372      3201      3060
 -1      3241    6    0    1
 -2      1528      1553      1499      2501      1889      1813      1935      3908      3010      3437
 -1      3242    6    0    1
 -2       997      2531      2006      2554      4202      4207      4248      4382      4161      4381
 -1      3243    6    0    1
 -2      2058       346      1072      2497      4387      4374      4296      4299      4375      4298
 -1      3244    6    0    1
 -2       517       571       563      2556       839       895       912      3895      3150      3199
 -1      3245    6    0    1
 -2      2036      2049      1995      2556      2374      2314      2390      3188      3143      3896
 -1      3246    6    0    1
 -2      2027      2505      2028      2558      3667      3374      2300      3481      3668      4395
 -1      3247    6    0    1
 -2      2011       548       135      2542      3057       716      2099      3118      3117      4385
 -1      3248    6    0    1
 -2      1515      1531      1557      2550      1955      1827      1953      3032      4024      3045
 -1      3249    6    0    1
 -2      2043      2019      1996      2561      2437      2254      2438      4074      4253      4087
 -1      3250    6    0    1
 -2      1540      1520      1491      2560      1919      1667      1920      4065      4089      4252
 -1      3251    6    0    1
 -2       515       479       570      2560       681       805       804      4250      4088      3546
 -1      3252    6    0    1
 -2       994      1051      1027      2561      1412      1411      1268      4255      4027      4086
 -1      3253    6    0    1
 -2      2504      2544      2505      2558      3460      3488      4392      3998      4260      3668
 -1      3254    6    0    1
 -2       407       410       411      2492       467       470       469      3219      2975      3423
 -1      3255    6    0    1
 -2      1511      1535      1558      2545      1950      1844      1952      3984      3977      3866
 -1      3256    6    0    1
 -2      1017      1039      1066      2554      1359      1428      1461      3062      3063      3885
 -1      3257    6    0    1
 -2      1007      1470      2519      2559      4230      4184      4185      4388      4389      4133
 -1      3258    6    0    1
 -2       419      2060      1075      2500      4377      4301      4394      4378      4302      4303
 -1      3259    6    0    1
 -2      2028      2544      1990      2558      3329      4398      2376      4395      4260      4399
 -1      3260    6    0    1
 -2      1494      1495      1525      2536      1855      1929      1926      3649      2969      3142
 -1      3261    6    0    1
 -2      2026      2002      2052      2562      2444      2443      2130      4258      3581      4104
 -1      3262    6    0    1
 -2       524       545       573      2562       964       748       965      3578      4256      4103
 -1      3263    6    0    1
 -2      1007       972       222      2559      1174      1170      1172      4388      4314      4390
 -1      3264    6    0    1
 -2      1470       222      1501      2559      1763      1759      1764      4389      4390      4313
 -1      3265    6    0    1
 -2      2453      2505      2504      2544      3190      4392      2615      3263      3488      3460
 -1      3266    6    0    1
 -2      1048      1061      1012      2502      1403      1313      1317      3997      3607      4031
 -1      3267    6    0    1
 -2       547       514       549      2496       886       896       817      3228      3937      2941
 -1      3268    6    0    1
 -2       494       541       542      2495       882       883       881      3935      3304      2926
 -1      3269    6    0    1
 -2       336       340       337      2470       402       401       395      3296      3663      3650
 -1      3270    6    0    1
 -2       541       510       542      2535       875       854       883      2977      3672      3416
 -1      3271    6    0    1
 -2      1514      1557      1492      2512      1922      1921      1613      2786      3044      3834
 -1      3272    6    0    1
 -2       557       508       520      2506       944       672       945      3028      2864      3534
 -1      3273    6    0    1
 -2       555       482       536      2507       821       666       822      3031      3821      2862
 -1      3274    6    0    1
 -2      1521      1469      1553      2507      1652      1812      1814      2841      3817      3039
 -1      3275    6    0    1
 -2      1480      1512      1541      2508      1685      1867      1866      3523      2811      3024
 -1      3276    6    0    1
 -2       978      1047      1022      2509      1328      1327      1289      3527      3503      4082
 -1      3277    6    0    1
 -2      2033      1998      1960      2510      2295      2269      2296      3115      3312      3513
 -1      3278    6    0    1
 -2       480       554       533      2511       812       811       693      3308      3110      3519
 -1      3279    6    0    1
 -2      1542      1500      1522      2511      1937      1679      1938      3116      3314      3518
 -1      3280    6    0    1
 -2      1031      1008      1045      2510      1283      1451      1450      3514      3310      3113
 -1      3281    6    0    1
 -2      2020      1989      1988      2503      2426      2349      2422      3017      3366      3788
 -1      3282    6    0    1
 -2      1498      1497      1554      2506      1658      1933      1932      3533      2858      3051
 -1      3283    6    0    1
 -2      1034      1035      1002      2503      1375      1348      1367      3358      3004      3823
 -1      3284    6    0    1
 -2       530       559       497      2508       899       898       699      3525      3021      2868
 -1      3285    6    0    1
 -2      1997      1976      2032      2509      2275      2378      2377      3521      4084      4032
 -1      3286    6    0    1
 -2       534       487       550      2512       627       846       848      2854      3837      3047
 -1      3287    6    0    1
 -2      1474      1517      1546      2513      1607      1836      1835      2880      3555      3056
 -1      3288    6    0    1
 -2      1468      1536      1537      2496      1807      1808      1806      3943      3256      2933
 -1      3289    6    0    1
 -2       511       574       512      2513       953       952       621      2804      3043      3557
 -1      3290    6    0    1
 -2      1525      1495      1526      2495      1929      1930      1838      2938      3316      3939
 -1      3291    6    0    1
 -2      2018      1033       291      2546      3843      1272      2259      3846      3845      4335
 -1      3292    6    0    1
 -2        90      1519       509      2548      1669      3849       682      4330      3848      3850
 -1      3293    6    0    1
 -2       505       154      2015      2547       773      2156      3840      3842      4338      3841
 -1      3294    6    0    1
 -2       976      1479       220      2549      4000      1753      1164      4004      4003      4339
 -1      3295    6    0    1
 -2        79      1476       491      2555      1636      3925       649      4364      3926      3892
 -1      3296    6    0    1
 -2       999      2014       275      2552      3851      2213      1228      3853      3854      4343
 -1      3297    6    0    1
 -2       280      1969      1066      2554      2226      3889      1239      4380      3890      3885
 -1      3298    6    0    1
 -2       209      1030      1558      2545      1131      3876      1720      4360      3877      3866
 -1      3299    6    0    1
 -2      2012      2038      1965      2533      2321      2320      2203      2917      3072      3632
 -1      3300    6    0    1
 -2       142       502      1980      2553       735      3856      2116      4348      3857      3858
 -1      3301    6    0    1
 -2       537      1510        74      2551      3897      1623       638      3868      3898      4355
 -1      3302    6    0    1
 -2      2000      2001      2053      2514      2224      2441      2440      2850      3794      3068
 -1      3303    6    0    1
 -2      1482       215       990      2557      1738      1149      3872      3874      4345      3875
 -1      3304    6    0    1
 -2      1525      1493      1494      2536      1925      1701      1926      3142      3026      3649
 -1      3305    6    0    1
 -2      1530      1560      1486      2525      1898      1897      1716      4206      3122      2644
 -1      3306    6    0    1
 -2      1013      1057      1009      2532      1453      1452      1256      2911      3135      3623
 -1      3307    6    0    1
 -2      1531       205      1028      2550      1708      1119      3994      4024      4368      4023
 -1      3308    6    0    1
 -2       148       517      1995      2556       753      3893      2134      4352      3895      3896
 -1      3309    6    0    1
 -2      1038       996      1065      2514      1238      1422      1421      3795      2845      3076
 -1      3310    6    0    1
 -2      2010      2040      1987      2534      2425      2424      2197      3643      3124      3173
 -1      3311    6    0    1
 -2      2016      1964      2034      2526      2142      2316      2315      3923      4197      3342
 -1      3312    6    0    1
 -2      2031      2043      1996      2561      2439      2438      2308      3543      4074      4087
 -1      3313    6    0    1
 -2      1027      1051      1062      2561      1411      1301      1385      4086      4027      4038
 -1      3314    6    0    1
 -2       570       479       556      2560       805       806       808      3546      4088      4051
 -1      3315    6    0    1
 -2      1520      1540      1548      2560      1919      1942      1793      4089      4065      4011
 -1      3316    6    0    1
 -2      1502      1556      1503      2530      1944      1943      1643      2855      3185      4198
 -1      3317    6    0    1
 -2       522       572       523      2527       962       961       648      2846      3120      3800
 -1      3318    6    0    1
 -2      1524      1548      1501      2520      1941      1940      1761      4183      4010      4152
 -1      3319    6    0    1
 -2       527       551       480      2517       810       809       690      4178      3083      3309
 -1      3320    6    0    1
 -2      2013      1984      2030      2518      2163      2411      2410      2825      3777      3176
 -1      3321    6    0    1
 -2      1032       972      1051      2520      1171      1300      1299      4181      4151      4025
 -1      3322    6    0    1
 -2      1547      1466      1500      2517      1795      1676      1796      3091      4179      3315
 -1      3323    6    0    1
 -2       993      1044      1008      2516      1405      1404      1280      4182      3080      3311
 -1      3324    6    0    1
 -2      1470      1539      1523      2519      1818      1817      1767      4184      3178      2822
 -1      3325    6    0    1
 -2      1983      1998      2041      2516      2266      2407      2406      4180      3313      3088
 -1      3326    6    0    1
 -2      1046      1007       977      2519      1322      1177      1323      3182      4185      2827
 -1      3327    6    0    1
 -2       484       561       516      2518       830       829       781      2830      3180      3778
 -1      3328    6    0    1
 -2       540       553       483      2515       827       826       772      4186      3335      3911
 -1      3329    6    0    1
 -2      1991      2035      1958      2515      2284      2283      2154      3919      3341      4187
 -1      3330    6    0    1
 -2       532       501       565      2521       730       919       918      3486      2831      3102
 -1      3331    6    0    1
 -2      2042      2003      1966      2521      2323      2112      2324      3077      2807      3487
 -1      3332    6    0    1
 -2      1049      1011      1029      2522      1454      1156      1455      3105      4188      3055
 -1      3333    6    0    1
 -2      1484      1513      1543      2522      1746      1888      1887      3066      4189      3106
 -1      3334    6    0    1
 -2       525       499       569      2524       742       907       906      4193      2835      3107
 -1      3335    6    0    1
 -2      1978      1999      2048      2524      2124      2386      2385      2837      4192      3108
 -1      3336    6    0    1
 -2      1060      1024       998      2523      1429      1226      1430      3104      4190      2816
 -1      3337    6    0    1
 -2      1970      2046      2007      2523      2344      2343      2212      4191      3103      2817
 -1      3338    6    0    1
 -2       538       562       486      2526       842       841       760      3915      3339      4194
 -1      3339    6    0    1
 -2      1551      1508      1475      2529      1840      1728      1841      3147      2663      4204
 -1      3340    6    0    1
 -2      1518      1549      1485      2527      1895      1894      1634      3799      3126      2907
 -1      3341    6    0    1
 -2      1056       981      1014      2525      1342      1126      1343      3121      4195      2820
 -1      3342    6    0    1
 -2      1073      1478       199      1069      4268      1694      1082      1105      3283      1103
 -1      3343    6    0    1
 -2      1509      1477      1559      2528      1622      1851      1850      2666      4205      3129
 -1      3344    6    0    1
 -2      1063       983      1015      2529      1352      1138      1353      3125      4196      2838
 -1      3345    6    0    1
 -2      1975      2036      2006      2531      2371      2370      2233      2920      3187      4207
 -1      3346    6    0    1
 -2       568       492       521      2528       869       636       870      3130      4203      2805
 -1      3347    6    0    1
 -2      1976      1022       296      2544      4095      1287      2274      4085      4083      4400
 -1      3348    6    0    1
 -2      1010       997      1054      2531      1247      1425      1424      2886      4202      3195
 -1      3349    6    0    1
 -2        65       580       576      1562       589       612       611      1596      4310      3791
 -1      3350    6    0    1
 -2       528       563       496      2530       894       893       657      4208      3198      2909
 -1      3351    6    0    1
 -2       542       510       489      2535       854       715       855      3416      3672      3940
 -1      3352    6    0    1
 -2       575       495       583      2469       889       887       890      3364      3698      2572
 -1      3353    6    0    1
 -2      1075      1974       298      1070      4300      2280      1085      1296      4396      1293
 -1      3354    6    0    1
 -2      2027      2028      1990      2558      2300      2376      2364      3481      4395      4399
 -1      3355    6    0    1
 -2      1072       986       266      1971      1202      1201      1079      4297      3537      2186
 -1      3356    6    0    1
 -2      2056       582       164       577      4288       592      2182      3351       803       801
 -1      3357    6    0    1
 -2       573       546       524      2562       915       867       965      4103      4062      3578
 -1      3358    6    0    1
 -2      2002      2025      2052      2562      2340      2394      2443      3581      4057      4104
 -1      3359    6    0    1
 -2       231      1567       988      1481      1581      4276      1197      1786      1789      3291
 -1      3360    6    0    1
 -2      1478      1527      1564      2472      1859      1860      1858      3282      3401      2585
 -1      3361    6    0    1
 -2      1977      2023      2050      2532      2242      2383      2382      2916      3621      3041
 -1      3362    6    0    1
 -2      2021      1989      2020      2535      2427      2426      2330      3678      3236      3434
 -1      3363    6    0    1
 -2       413       409       418      2469       475       456       435      3365      3210      4267
 -1      3364    6    0    1
 -2       495        97      1563       581       703      1690      3700       706       595      4263
 -1      3365    6    0    1
 -2       579      2055       132       493      4292      2090       586       709      3324       707
 -1      3366    6    0    1
 -2       974      1070       297      2558      1295      1294      1290      4281      4015      4401
 -1      3367    6    0    1
 -2      1034       987      1035      2536      1376      1373      1375      3206      3670      3197
 -1      3368    6    0    1
 -2       995      1036      1043      2533      1217      1417      1416      2923      3630      3127
 -1      3369    6    0    1
 -2       297      1070      1974      2558      1294      4396      2279      4401      4015      4397
 -1      3370    6    0    1
 -2       493       578       544      2491       876       879       878      3322      2590      3155
 -1      3371    6    0    1
 -2      1041       982      1067      2534      1211      1349      1351      3644      3070      3073
 -1      3372    6    0    1
 -2      1569      1561      1481      2492      1876      1875      1873      2579      3221      3202
 -1      3373    6    0    1
 -2      1076       988      1068      2492      1381      1382      1383      3225      3290      3421
 -1      3374    6    0    1
 -2       972      1501       222      2559      4149      1759      1170      4314      4313      4390
 -1      3375    6    0    1
 -2      1069      1071      1000      2472      1440      1439      1441      3281      3222      3493
 -1      3376    6    0    1
 -2      1003      1035       987      2536      1374      1373      1111      3160      3197      3670
 -1      3377    6    0    1
 -2      2021      2020      1967      2535      2330      2331      2097      3678      3434      3973
 -1      3378    6    0    1
 -2      1563      1489      1569      2469      1911      1910      1912      3699      3211      2578
 -1      3379    6    0    1
 -2      1974      2054      2062      2500      2368      2369      2367      4304      3321      3333
 -1      3380    6    0    1
 -2      1971      2057      2022      2497      2350      2352      2353      3535      3239      3355
 -1      3381    6    0    1
 -2      1070       974      1040      2558      1295      1310      1311      4015      4281      3494
 -1      3382    6    0    1
 -2       296      1990      1976      2544      2276      2278      2274      4400      4398      4085
 -1      3383    6    0    1
 -2      1071       986      1037      2497      1370      1372      1371      3216      3536      3347
 -1      3384    6    0    1
 -2       341       342       333      2497       392       391       390      3447      2931      3349
 -1      3385    6    0    1
 -2       414       415       406      2500       464       463       465      3595      2948      3320
 -1      3386    6    0    1
 -2      2056      2062      1982      2471      2405      2403      2404      3350      3479      3445
 -1      3387    6    0    1
 -2       577       504       583      2471       930       929       931      3293      3542      2574
 -1      3388    6    0    1
 -2       974       296      1022      2544      1291      1287      1292      4280      4400      4083
 -1      3389    6    0    1
 -2       581       495       575      2469       706       889       605      4264      3698      3364
 -1      3390    6    0    1
 -2       992      1048      1019      2541      1402      1401      1262      3656      3343      3016
 -1      3391    6    0    1
 -2      2057      2055      1981      2491      2401      2402      2400      3265      3323      3507
 -1      3392    6    0    1
 -2      1070      2500      1974      2558      4014      4304      4396      4015      3289      4397
 -1      3393    6    0    1
 -2       974       297      1990      2558      1290      2277      4402      4281      4401      4399
 -1      3394    6    0    1
 -2       296       974      1990      2544      1291      4402      2276      4400      4280      4398
 -1      3395    6    0    1
 -2       343       334       338      2491       366       396       369      4306      3156      3508
 -1      3396    6    0    1
 -2      1563      1568      1489      2469      1692      1591      1911      3699      4265      3211
 -1      3397    6    0    1
 -2       576       503       578      2470       927       926       928      3790      3297      2589
 -1      3398    6    0    1
 -2      1070      1076      1001      2500      1444      1442      1443      4014      3286      3551
 -1      3399    6    0    1
 -2       411       417       407      2492       449       460       469      3423      4308      3219
 -1      3400    6    0    1
 -2       417        60       407      1561       432       457       460      4307      1593      3218
 -1      3401    6    0    1
 -2        11       343       544       334       349      4305       600       363       366      3153
 -1      3402    6    0    1
 -2      1562      1564      1488      2470      1909      1907      1908      3789      2582      3664
 -1      3403    6    0    1
 -2       416       412       408      2471       442       471       439      4358      3598      3637
 -1      3404    6    0    1
 -2      2051      2024      1972      2541      2356      2248      2357      3231      3657      3014
 -1      3405    6    0    1
 -2       336         9       345       503       361       351       362      3295       596      4316
 -1      3406    6    0    1
 -2       409      1489        58       418      3208      1589       455       456      4266       426
 -1      3407    6    0    1
 -2       340       336       345      2470       402       362       383      3663      3296      4317
 -1      3408    6    0    1
 -2       344       339       335      2472       376       398       387      4326      3627      3585
 -1      3409    6    0    1
 -2      1565      1527      1478      2472      1588      1859      1695      4270      3401      3282
 -1      3410    6    0    1
 -2      1503      1504      1476      2555      1846      1845      1640      4362      3131      3926
 -1      3411    6    0    1
 -2       297      1974      1990      2558      2279      2281      2277      4401      4397      4399
 -1      3412    6    0    1
 -2      1069      1000      1073      2472      1441      1091      1105      3281      3493      4271
 -1      3413    6    0    1
 -2      1074      1068       988      2492      1098      1382      1199      4278      3421      3290
 -1      3414    6    0    1
 -2      1481      1561      1567      2492      1875      1595      1789      3202      3221      4279
 -1      3415    6    0    1
 -2      1511      1477      1510      2551      1852      1625      1853      3986      4354      3898
 -1      3416    6    0    1
 -2       983      1059      1030      2545      1355      1354      1135      4361      3951      3877
 -1      3417    6    0    1
 -2        60       417      1567      1561       432      4320      1579      1593      4307      1595
 -1      3418    6    0    1
 -2       343       579        11       544      4315       584       349      4305       602       600
 -1      3419    6    0    1
 -2       981      1055      1028      2550      1345      1344      1123      4366      3074      4023
 -1      3420    6    0    1
 -2      2006      2025      1969      2554      2342      2341      2230      4381      4054      3890
 -1      3421    6    0    1
 -2      1479      1544      1524      2549      1862      1861      1758      4003      3036      4341
 -1      3422    6    0    1
 -2      1983      2029      2018      2546      2409      2408      2263      4333      3095      3846
 -1      3423    6    0    1
 -2      1538      1519      1466      2548      1797      1673      1798      3092      3848      4331
 -1      3424    6    0    1
 -2      1033      1053       993      2546      1407      1406      1277      3845      3098      4334
 -1      3425    6    0    1
 -2       509       552       527      2548       951       950       687      3850      3100      4332
 -1      3426    6    0    1
 -2      1050       976      1032      2549      1319      1168      1320      3258      4004      4340
 -1      3427    6    0    1
 -2       540       505       556      2547       775       935       934      4337      3842      4048
 -1      3428    6    0    1
 -2      2015      1958      2043      2547      2157      2286      2285      3841      4336      4071
 -1      3429    6    0    1
 -2      2014      2045      1970      2552      2346      2345      2215      3854      3962      4342
 -1      3430    6    0    1
 -2      1058       999      1024      2552      1436      1229      1437      3947      3853      4344
 -1      3431    6    0    1
 -2       567       502       525      2553       921       739       922      3958      3857      4349
 -1      3432    6    0    1
 -2      1980      2044      1999      2553      2396      2395      2121      3858      3967      4350
 -1      3433    6    0    1
 -2      1552      1513      1482      2557      1877      1743      1878      3136      4347      3874
 -1      3434    6    0    1
 -2       493       544       579      2491       878       602       709      3322      3155      4293
 -1      3435    6    0    1
 -2       537       492       566      2551       639       872       871      3868      4356      3969
 -1      3436    6    0    1
 -2       491       546       528      2555       866       868       654      3892      4060      4363
 -1      3437    6    0    1
 -2       517       486       571      2556       757       840       839      3895      4353      3150
 -1      3438    6    0    1
 -2      1995      2049      1964      2556      2314      2313      2139      3896      3143      4351
 -1      3439    6    0    1
 -2      1515      1530      1531      2550      1954      1713      1955      3032      4367      4024
 -1      3440    6    0    1
 -2      1064       990      1011      2557      1389      1153      1390      3148      3875      4346
 -1      3441    6    0    1
 -2      1066      1039       997      2554      1428      1427      1244      3885      3063      4382
 -1      3442    6    0    1
 -2      1535      1475      1558      2545      1842      1725      1844      3977      4359      3866
 -1      3443    6    0    1
 -2       580       345         9       503      4327       351       588       598      4316       596
 -1      3444    6    0    1
 -2       418      1489        58      1568      4266      1589       426      4295      1591      1577
 -1      3445    6    0    1
 -2      2059      1981      2055      2491      2077      2402      2091      4294      3507      3323
 -1      3446    6    0    1
 -2       420       408       412      2471       472       471       461      3300      3637      3598
 -1      3447    6    0    1
 -2       341       333       346      2497       390       380       373      3447      3349      4375
 -1      3448    6    0    1
 -2      2056      1982      2061      2471      2404      2084      2185      3350      3445      4290
 -1      3449    6    0    1
 -2       582       504       577      2471       609       930       803      4289      3542      3293
 -1      3450    6    0    1
 -2      2060        46      2054       419      2073      2085      2088      4377       427      4376
 -1      3451    6    0    1
 -2      1072        25      1037       346      1078      1092      1095      4374       356      4373
 -1      3452    6    0    1
 -2      2050      1962      2016      2538      2306      2145      2307      3253      2961      3924
 -1      3453    6    0    1
 -2       414       406       419      2500       465       446       453      3595      3320      4378
 -1      3454    6    0    1
 -2       483       557       519      2537       825       824       769      3912      3241      3166
 -1      3455    6    0    1
 -2       507       555       538      2538       943       942       763      2959      3246      3916
 -1      3456    6    0    1
 -2       485       529       559      2539       796       835       834      2965      3272      3240
 -1      3457    6    0    1
 -2      1973      2032      2005      2539      2360      2359      2178      2963      3331      3653
 -1      3458    6    0    1
 -2      1992      2051      1991      2537      2430      2429      2151      3674      3254      3920
 -1      3459    6    0    1
 -2       535       554       506      2540       939       938       790      2954      3250      3414
 -1      3460    6    0    1
 -2      2033      2017      1994      2540      2434      2172      2435      3248      2956      3412
 -1      3461    6    0    1
 -2       972      1007      1062      2559      1174      1298      1297      4314      4388      4035
 -1      3462    6    0    1
 -2      1501      1540      1470      2559      1816      1815      1764      4313      4064      4389
 -1      3463    6    0    1
 -2      2009      1986      2038      2543      2106      2419      2418      2628      3060      3277
 -1      3464    6    0    1
 -2       503       576       580      2470       927       612       598      3297      3790      4311
 -1      3465    6    0    1
 -2       339       347       335      2472       388       399       398      3627      3302      3585
 -1      3466    6    0    1
 -2      2040      2011      1967      2542      2328      2100      2329      3275      3118      3974
 -1      3467    6    0    1
 -2      1562      1488      1566      2470      1908      1584      1598      3789      3664      4312
 -1      3468    6    0    1
 -2       575        37       581       418       604       593       605      4284       425      4283
 -1      3469    6    0    1
 -2       333      1037        25       346      3345      1092       378       380      4373       356
 -1      3470    6    0    1
 -2       406      2054        46       419      3317      2085       444       446      4376       427
 -1      3471    6    0    1
 -2      1990      2544       974      2558      4398      4280      4402      4399      4260      4281
 -1      3472    6    0    1
 -2       411      1068        51       417      3419      1096       448       449      4319       430
 -1      3473    6    0    1
 -2       550       543       498      2543       903       724       904      3280      3201      2626
 -1      3474    6    0    1
 -2      1074        51      1068       417      1087      1096      1098      4318       430      4319
 -1      3475    6    0    1
 -2      1971      2022      2058      2497      2353      2081      2188      3535      3355      4299
 -1      3476    6    0    1
 -2        37       575       413       418       604      3362       433       425      4284       435
 -1      3477    6    0    1
 -2       345      1566        30      1488      4329      1570       353      4328      1584      1583
 -1      3478    6    0    1
 -2       548       574       489      2542       858       857       718      3117      3279      3941
 -1      3479    6    0    1
 -2      1072      1037       986      2497      1095      1372      1202      4298      3347      3536
 -1      3480    6    0    1
 -2      2060      2054      1974      2500      2088      2368      2282      4302      3321      4304
 -1      3481    6    0    1
 -2       335      1527        32      1565      3584      1585       385      4321      1588      1574
 -1      3482    6    0    1
 -2      2059        16      1981       343      2064      2075      2077      4323       350      4322
 -1      3483    6    0    1
 -2      1070      1001      1075      2500      1443      1102      1296      4014      3551      4303
 -1      3484    6    0    1
 -2       338      1981        16       343      3353      2075       368       369      4322       350
 -1      3485    6    0    1
 -2       340       345        30      1488       383       353       381      3398      4328      1583
 -1      3486    6    0    1
 -2       408       504        39       582      3636       606       437      4324       609       591
 -1      3487    6    0    1
 -2       341      2058        18      2022      4379      2066       370      3446      2081      2079
 -1      3488    6    0    1
 -2      1006      1040      1042      2504      1378      1309      1395      3588      3596      3459
 -1      3489    6    0    1
 -2      1565        32       335       344      1574       385      4321      4325       359       387
 -1      3490    6    0    1
 -2      1974      2062      2027      2558      2367      2366      2365      4397      3483      3481
 -1      3491    6    0    1
 -2      2028      2027      1961      2505      2300      2301      2298      3374      3667      3661
 -1      3492    6    0    1
 -2      2028      1976      1990      2544      2375      2278      2376      3329      4085      4398
 -1      3493    6    0    1
 -2       414      1075        53      1001      4393      1083       450      3594      1102      1100
 -1      3494    6    0    1
 -2        18       346      2058       341       355      4387      2066       370       373      4379
 -1      3495    6    0    1
 -2       416       408        39       582       439       437       421      4357      4324       591
 -1      3496    6    0    1
 -2      1022      1042       974      2544      1308      1307      1292      4083      3262      4280
 -1      3497    6    0    1
 -2       339      1073        23      1000      4383      1080       374      3626      1091      1090
 -1      3498    6    0    1
 -2       412      2061        44      1982      4386      2069       440      3597      2084      2083
 -1      3499    6    0    1
 -2      1075        53       419       414      1083       429      4394      4393       450       453
 -1      3500    6    0    1
 -2       160       161       485      1973       194       792       791      2174      2173      2964
 -1      3501    6    0    1
 -2       159       160       535      2017       193       789       788      2171      2170      2951
 -1      3502    6    0    1
 -2       272       271       995      2012       305      1216      1215      2202      2201      3067
 -1      3503    6    0    1
 -2       531       140       141      2004       731       174       732      3747      2114      2113
 -1      3504    6    0    1
 -2      2009       138       137       498      2104       171      2105      2932       723       722
 -1      3505    6    0    1
 -2       274      1024       275      1970      1225      1224       308      2210      4233      2211
 -1      3506    6    0    1
 -2      1480        93        94       530      1680       127      1681      3524       695       694
 -1      3507    6    0    1
 -2      1011       215       216      1513      1151       249      1152      4234      1742      1741
 -1      3508    6    0    1
 -2      1966       139       138       532      2107       172      2108      3485       726       725
 -1      3509    6    0    1
 -2      1522        92        93       533      1677       126      1678      3515       692       691
 -1      3510    6    0    1
 -2      1018       277       276      1968      1230       310      1231      3735      2217      2216
 -1      3511    6    0    1
 -2       143       144       499      1978       177       741       740      2123      2122      3184
 -1      3512    6    0    1
 -2       273       272      1025      1985       306      1219      1218      2205      2204      3714
 -1      3513    6    0    1
 -2       274       273       998      2007       307      1222      1221      2208      2207      3141
 -1      3514    6    0    1
 -2       139       140       501      2003       173       729       728      2111      2110      3146
 -1      3515    6    0    1
 -2       278       277       996      2000       311      1234      1233      2220      2219      3134
 -1      3516    6    0    1
 -2       143       525       142      1999       738       737       176      2119      4235      2120
 -1      3517    6    0    1
 -2       502       141       142      1980       734       175       735      3856      2117      2116
 -1      3518    6    0    1
 -2        86        87      1465       539       120      1660      1659       674       673      3732
 -1      3519    6    0    1
 -2       276       275       999      2014       309      1228      1227      2214      2213      3851
 -1      3520    6    0    1
 -2       161       162       529      2005       195       795       794      2177      2176      3651
 -1      3521    6    0    1
 -2       227       228      1023      1505       261      1188      1187      1778      1777      3684
 -1      3522    6    0    1
 -2      1997       294       295       978      2270       328      2271      3526      1285      1284
 -1      3523    6    0    1
 -2      1972       286       287      1019      2246       320      2247      3301      1261      1260
 -1      3524    6    0    1
 -2      1520        87        88       479      1662       121      1663      4200       677       676
 -1      3525    6    0    1
 -2       219       220       976      1479       253      1164      1163      1754      1753      4000
 -1      3526    6    0    1
 -2      1029       216       217      1484      1154       250      1155      3509      1745      1744
 -1      3527    6    0    1
 -2        88        89      1491       515       122      1666      1665       680       679      3807
 -1      3528    6    0    1
 -2       283       284      1977      1013       317      2238      2237      1252      1251      3053
 -1      3529    6    0    1
 -2       154       153      1958       540       187      2153      2152       771       770      4231
 -1      3530    6    0    1
 -2      2015       155       154       505      2155       188      2156      3840       774       773
 -1      3531    6    0    1
 -2       220       221      1032      1524       254      1167      1166      1757      1756      4228
 -1      3532    6    0    1
 -2       293       294      1960      1031       327      2268      2267      1282      1281      3510
 -1      3533    6    0    1
 -2       225       226       973      1507       259      1182      1181      1772      1771      2593
 -1      3534    6    0    1
 -2      2019       287       288       994      2249       321      2250      3728      1264      1263
 -1      3535    6    0    1
 -2       156       155      1984       516       189      2159      2158       777       776      3779
 -1      3536    6    0    1
 -2       158       159       506      1994       192       786       785      2168      2167      3593
 -1      3537    6    0    1
 -2      1983       291       292       993      2261       325      2262      4229      1276      1275
 -1      3538    6    0    1
 -2      1026       226       227      1467      1184       260      1185      3679      1775      1774
 -1      3539    6    0    1
 -2        91        92      1500       480       125      1675      1674       689       688      3949
 -1      3540    6    0    1
 -2       289       290      1963       989       323      2256      2255      1270      1269      3813
 -1      3541    6    0    1
 -2       221       222       972      1501       255      1170      1169      1760      1759      4149
 -1      3542    6    0    1
 -2      1998       292       293      1008      2264       326      2265      3950      1279      1278
 -1      3543    6    0    1
 -2        90        91      1466       527       124      1672      1671       686       685      4227
 -1      3544    6    0    1
 -2      1996       288       289      1027      2252       322      2253      4199      1267      1266
 -1      3545    6    0    1
 -2       222       223      1007      1470       256      1173      1172      1763      1762      4230
 -1      3546    6    0    1
 -2       225      1020       224      1490      1179      1178       258      1768      3723      1769
 -1      3547    6    0    1
 -2       526       157       158      1959       782       191       783      3718      2165      2164
 -1      3548    6    0    1
 -2        89        90      1519       509       123      1669      1668       683       682      3849
 -1      3549    6    0    1
 -2      2018       290       291      1033      2258       324      2259      3843      1273      1272
 -1      3550    6    0    1
 -2      2013       156       484       157      2162       779      3139      2161       190       780
 -1      3551    6    0    1
 -2       223       224       977      1523       257      1176      1175      1766      1765      3140
 -1      3552    6    0    1
 -2      1471        81        82       518      1644       115      1645      3749       659       658
 -1      3553    6    0    1
 -2      1991       153       152       483      2149       186      2150      4154       768       767
 -1      3554    6    0    1
 -2        85        86      1497       508       119      1657      1656       671       670      3022
 -1      3555    6    0    1
 -2       282       283      2008       979       316      2235      2234      1249      1248      3741
 -1      3556    6    0    1
 -2       149       148      1964       486       182      2138      2137       756       755      4242
 -1      3557    6    0    1
 -2      1512        94        95       497      1683       128      1684      3257       698       697
 -1      3558    6    0    1
 -2      1976       295       296      1022      2273       329      2274      4095      1288      1287
 -1      3559    6    0    1
 -2        77        76       522      1485       110       644       643      1630      1629      3158
 -1      3560    6    0    1
 -2      1482       214       990       215      1739      1148      3872      1738       248      1149
 -1      3561    6    0    1
 -2       496        81        80      1502       655       114       656      3175      1642      1641
 -1      3562    6    0    1
 -2        82        83      1521       536       116      1648      1647       662       661      3023
 -1      3563    6    0    1
 -2      2016       150       149       538      2140       183      2141      4162       759       758
 -1      3564    6    0    1
 -2       228       229       991      1483       262      1191      1190      1781      1780      2609
 -1      3565    6    0    1
 -2        75        74       537      1510       108       638       637      1624      1623      3897
 -1      3566    6    0    1
 -2        79        78       491      1476       112       650       649      1636      1635      3925
 -1      3567    6    0    1
 -2        74        73       492      1477       107       635       634      1621      1620      4249
 -1      3568    6    0    1
 -2      1962       151       150       507      2143       184      2144      2957       762       761
 -1      3569    6    0    1
 -2        83        84      1469       482       117      1651      1650       665       664      4052
 -1      3570    6    0    1
 -2       488        72        71      1473       628       105       629      3753      1615      1614
 -1      3571    6    0    1
 -2       487        70        69      1492       622       103       623      4063      1609      1608
 -1      3572    6    0    1
 -2       204       203      1472       980       237      1706      1705      1116      1115      3710
 -1      3573    6    0    1
 -2        84        85      1498       520       118      1654      1653       668       667      3531
 -1      3574    6    0    1
 -2       152       151      1992       519       185      2147      2146       765       764      4053
 -1      3575    6    0    1
 -2       521        73        72      1509       631       106       632      3161      1618      1617
 -1      3576    6    0    1
 -2        44       416      2061       412       423      4391      2069       440       442      4386
 -1      3577    6    0    1
 -2        23       344      1073       339       358      4384      1080       374       376      4383
 -1      3578    6    0    1
 -2       534        71        70      1514       625       104       626      3029      1612      1611
 -1      3579    6    0    1
 -2       490        76        75      1506       640       109       641      3768      1627      1626
 -1      3580    6    0    1
 -2      1010       281      1975       282      1246      2231      3174      1245       315      2232
 -1      3581    6    0    1
 -2      1967       135       134       489      2095       168      2096      4142       714       713
 -1      3582    6    0    1
 -2      1475       210       209       983      1723       243      1724      4243      1134      1133
 -1      3583    6    0    1
 -2       511        68        67      1474       616       101       617      3273      1603      1602
 -1      3584    6    0    1
 -2      1995       147       517       148      2135       752      3893      2134       181       753
 -1      3585    6    0    1
 -2       512        69        68      1517       619       102       620      3553      1606      1605
 -1      3586    6    0    1
 -2        78        77       523      1518       111       647       646      1633      1632      3801
 -1      3587    6    0    1
 -2        80        79       528      1503       113       653       652      1639      1638      4247
 -1      3588    6    0    1
 -2      1508       211       210      1015      1726       244      1727      3194      1137      1136
 -1      3589    6    0    1
 -2      1516       203       202      1004      1702       236      1703      3703      1113      1112
 -1      3590    6    0    1
 -2       269       268       982      1987       302      1207      1206      2193      2192      3602
 -1      3591    6    0    1
 -2      1486       207       206      1014      1714       240      1715      3157      1125      1124
 -1      3592    6    0    1
 -2      1558       209       208      1030      1720       242      1721      3876      1131      1130
 -1      3593    6    0    1
 -2      1530       206       205       981      1711       239      1712      4244      1122      1121
 -1      3594    6    0    1
 -2       207      1532       208       985      1718      1717       241      1127      3760      1128
 -1      3595    6    0    1
 -2      1493       202       201      1003      1699       235      1700      3550      1110      1109
 -1      3596    6    0    1
 -2      1531       205       204      1028      1708       238      1709      3994      1119      1118
 -1      3597    6    0    1
 -2       212       211      1487      1016       245      1730      1729      1140      1139      3776
 -1      3598    6    0    1
 -2       279      1066       280      1969      1240      1239       313      2225      3889      2226
 -1      3599    6    0    1
 -2       213       212      1555       984       246      1733      1732      1143      1142      2565
 -1      3600    6    0    1
 -2       407        60        59      1561       457        63       458      3218      1593      1592
 -1      3601    6    0    1
 -2       544        10        11       334       599        14       600      3153       364       363
 -1      3602    6    0    1
 -2       279       278      1038      2001       312      1237      1236      2223      2222      3796
 -1      3603    6    0    1
 -2       997       281       280      2006      1242       314      1243      4248      2229      2228
 -1      3604    6    0    1
 -2       214       213      1534      1021       247      1736      1735      1146      1145      3785
 -1      3605    6    0    1
 -2       146       147       500      1979       180       750       749      2132      2131      3880
 -1      3606    6    0    1
 -2       144       145       545      2026       178       744       743      2126      2125      3765
 -1      3607    6    0    1
 -2      1478       200       199      1069      1693       233      1694      3283      1104      1103
 -1      3608    6    0    1
 -2      1986       137       136       543      2101       170      2102      3200       720       719
 -1      3609    6    0    1
 -2       271       270      1036      1965       304      1213      1212      2199      2198      3628
 -1      3610    6    0    1
 -2       267       266       986      1971       300      1201      1200      2187      2186      3537
 -1      3611    6    0    1
 -2       145       146       573      2052       179       747       746      2129      2128      4164
 -1      3612    6    0    1
 -2       230       231       988      1481       264      1197      1196      1787      1786      3291
 -1      3613    6    0    1
 -2        51        52      1068       411        55      1097      1096       448       447      3419
 -1      3614    6    0    1
 -2        66        65       576      1562        99       611       610      1597      1596      3791
 -1      3615    6    0    1
 -2      2055       133       132       493      2089       166      2090      3324       708       707
 -1      3616    6    0    1
 -2      2011       136       135       548      2098       169      2099      3057       717       716
 -1      3617    6    0    1
 -2       284       285      2023      1009       318      2241      2240      1255      1254      3619
 -1      3618    6    0    1
 -2       975       217       218      1528      1157       251      1158      3907      1748      1747
 -1      3619    6    0    1
 -2       218       219      1012      1529       252      1161      1160      1751      1750      4030
 -1      3620    6    0    1
 -2       286      2024       285       992      2244      2243       319      1257      3654      1258
 -1      3621    6    0    1
 -2      1974       297       298      1070      2279       331      2280      4396      1294      1293
 -1      3622    6    0    1
 -2      1563        96        97       495      1689       130      1690      3700       704       703
 -1      3623    6    0    1
 -2       270       269      1041      2010       303      1210      1209      2196      2195      3641
 -1      3624    6    0    1
 -2        25        24      1037       333        28      1093      1092       378       377      3345
 -1      3625    6    0    1
 -2      2054        46        45       406      2085        49      2086      3317       444       443
 -1      3626    6    0    1
 -2       163       164       577      2056       197       801       800      2183      2182      3351
 -1      3627    6    0    1
 -2       336        10         9       503       360        13       361      3295       597       596
 -1      3628    6    0    1
 -2      1489        58        59       409      1589        62      1590      3208       455       454
 -1      3629    6    0    1
 -2        38        37       575       413        41       604       603       434       433      3362
 -1      3630    6    0    1
 -2        32        31      1527       335        35      1586      1585       385       384      3584
 -1      3631    6    0    1
 -2       201       200      1494       987       234      1697      1696      1107      1106      3669
 -1      3632    6    0    1
 -2      1002       268       267      1988      1203       301      1204      3822      2190      2189
 -1      3633    6    0    1
 -2       230      1006       229      1496      1194      1193       263      1783      3586      1784
 -1      3634    6    0    1
 -2      1981        16        17       338      2075        20      2076      3353       368       367
 -1      3635    6    0    1
 -2       494        67        66      1526       613       100       614      3938      1600      1599
 -1      3636    6    0    1
 -2       296       297      1990       974       330      2277      2276      1291      1290      4402
 -1      3637    6    0    1
 -2      1468        95        96       514      1686       129      1687      3942       701       700
 -1      3638    6    0    1
 -2       134       133      2021       510       167      2093      2092       711       710      3677
 -1      3639    6    0    1
 -2       340        30        31      1488       381        34       382      3398      1583      1582
 -1      3640    6    0    1
 -2       162       163       481      1961       196       798       797      2180      2179      3658
 -1      3641    6    0    1
 -2        39        38       504       408        42       607       606       437       436      3636
 -1      3642    6    0    1
 -2      2027      1990      1974      2558      2364      2281      2365      3481      4399      4397
 -1      3643    6    0    1
 -2       341        18        17      2022       370        21       371      3446      2079      2078
 -1      3644    6    0    1
 -2       339        23        24      1000       374        27       375      3626      1090      1089
 -1      3645    6    0    1
 -2       412        44        45      1982       440        48       441      3597      2083      2082
 -1      3646    6    0    1
 -2        53        52       414      1001        56       451       450      1100      1099      3594
 -1      3647    6    0    1
 -2       417      1074         8      1567      4318      1086       431      4320      4277      1580
 -1      3648    6    0    1
 -2       418         6       581      1568       424       594      4283      4295      1576      4262
 -1      3649    6    0    1
 -2       344      1565         4      1073      4325      1573       357      4384      4269      1081
 -1      3650    6    0    1
 -2       579         1      2059       343       585      2063      4291      4315       348      4323
 -1      3651    6    0    1
 -2         5       416       582      2061       422      4357       590      2070      4391      4287
 -1      3652    6    0    1
 -2       345         2      1566       580       352      1571      4329      4327       587      4309
 -1      3653    6    0    1
 -2       346      1072         3      2058      4374      1077       354      4387      4296      2067
 -1      3654    6    0    1
 -2       419      2060         7      1075      4377      2072       428      4394      4301      1084
 -1      3655    6    0    1
 -2      1565         4        32       344      1573        36      1574      4325       357       359
 -1      3656    6    0    1
 -2        11         1       579       343        15       585       584       349       348      4315
 -1      3657    6    0    1
 -2       417         8        60      1567       431        64       432      4320      1580      1579
 -1      3658    6    0    1
 -2       416         5        44      2061       422        47       423      4391      2070      2069
 -1      3659    6    0    1
 -2        58         6       418      1568        61       424       426      1577      1576      4295
 -1      3660    6    0    1
 -2       416        39         5       582       421        43       422      4357       591       590
 -1      3661    6    0    1
 -2       344         4        23      1073       357        26       358      4384      1081      1080
 -1      3662    6    0    1
 -2         9         2       345       580        12       352       351       588       587      4327
 -1      3663    6    0    1
 -2       346         3        18      2058       354        22       355      4387      2067      2066
 -1      3664    6    0    1
 -2       419         7        53      1075       428        57       429      4394      1084      1083
 -1      3665    6    0    1
 -2      1566         2        65       580      1571        98      1572      4309       587       589
 -1      3666    6    0    1
 -2         5       582       164      2061       590       592       198      2070      4287      2071
 -1      3667    6    0    1
 -2      1072         3        25       346      1077        29      1078      4374       354       356
 -1      3668    6    0    1
 -2      2060         7        46       419      2072        50      2073      4377       428       427
 -1      3669    6    0    1
 -2      1565       199         4      1073      1575       232      1573      4269      1082      1081
 -1      3670    6    0    1
 -2      2059       132         1       579      2065       165      2063      4291       586       585
 -1      3671    6    0    1
 -2       581         6        97      1568       594       131       595      4262      1576      1578
 -1      3672    6    0    1
 -2      2060       298         7      1075      2074       332      2072      4301      1085      1084
 -1      3673    6    0    1
 -2       581        37         6       418       593        40       594      4283       425       424
 -1      3674    6    0    1
 -2      2058      1072         3       266      4296      1077      2067      2068      1079       299
 -1      3675    6    0    1
 -2      1567      1074         8       231      4277      1086      1580      1581      1088       265
 -1      3676    6    0    1
 -2      1566        30         2       345      1570        33      1571      4329       353       352
 -1      3677    6    0    1
 -2      1074         8        51       417      1086        54      1087      4318       431       430
 -1      3678    6    0    1
 -2         1        16      2059       343        19      2064      2063       348       350      4323
 -1      3679    6    0    1
 -2      2504      2493      1042       991      2612      4403      3459      2610      2607      1394
 -1      3680    6    0    1
 -2      2504      1042      2493      2453      3459      4403      2612      2615      3261      2613
 -1      3681    6    0    1
 -2      1047      1042      2493       991      1398      4403      3603      1397      1394      2607
 -1      3682    6    0    1
 -2      1047      2493      1042      2453      3603      4403      1398      3260      2613      3261
 -1      3683    6    0    1
 -2      2538      1992      2466      1962      2960      3461      3170      2961      2148      3463
 -1      3684    6    0    1
 -2      2538      2466      1992      2537      3170      3461      2960      3171      3167      3674
 -1      3685    6    0    1
 -2      2538       519      1992       507      3169      4053      2960      2959       766      2958
 -1      3686    6    0    1
 -2      2538      1992       519      2537      2960      4053      3169      3171      3674      3166
 -1      3687    6    0    1
 -2      2538       519       558      2466      3169       941      3980      3170      3168      3688
 -1      3688    6    0    1
 -2      2538       558       519       507      3980       941      3169      2959       940       766
 -1      3689    6    0    1
 -2      2539       535       560       485      2953       836      3981      2965       793       837
 -1      3690    6    0    1
 -2      2539       560       535      2467      3981       836      2953      3162      3690      3165
 -1      3691    6    0    1
 -2      2017      2539      2047      1973      2952      3982      2362      2175      2963      2361
 -1      3692    6    0    1
 -2      2047      2539      2017      2467      3982      2952      2362      3692      3162      3163
 -1      3693    6    0    1
 -2      2543      2011      2039      2468      3061      2421      3999      3214      3213      3694
 -1      3694    6    0    1
 -2      2543      2039      2011      1986      3999      2421      3061      3060      2420      2103
 -1      3695    6    0    1
 -2      2451       347      2470       337      2928      4007      2583      2936       405      3650
 -1      3696    6    0    1
 -2      2451      2470       347      2472      2583      4007      2928      2586      2587      3302
 -1      3697    6    0    1
 -2      2543       548       513       543      3059       956      3991      3201       721       955
 -1      3698    6    0    1
 -2      2543       513       548      2468      3991       956      3059      3214      3696      3270
 -1      3699    6    0    1
 -2      2539      2544      2509      2032      3330      3505      3983      3331      3332      4032
 -1      3700    6    0    1
 -2      2509      2544      2539      2453      3505      3330      3983      3504      3263      3192
 -1      3701    6    0    1
 -2      2513      1492       487      1517      3835      4063      3556      3555      1610      3554
 -1      3702    6    0    1
 -2      2513       487      1492      2512      3556      4063      3835      3372      3837      3834
 -1      3703    6    0    1
 -2      2507       520      1469      2506      3820      3530      3817      3440      3534      3532
 -1      3704    6    0    1
 -2      2507      1469       520       482      3817      3530      3820      3821      4052       669
 -1      3705    6    0    1
 -2      2022       338        17       341      3354       367      2078      3446       372       371
 -1      3706    6    0    1
 -2        17       338      2022      1981       367      3354      2078      2076      3353      2080
 -1      3707    6    0    1
 -2      1532      2545      1511      1558      3860      3984      1951      1722      3866      1952
 -1      3708    6    0    1
 -2      1511      2545      1532      2473      3984      3860      1951      3985      3861      3762
 -1      3709    6    0    1
 -2      2551       490       567       537      3862       861      3955      3868       642       862
 -1      3710    6    0    1
 -2      2551       567       490      2489      3955       861      3862      3864      3956      3759
 -1      3711    6    0    1
 -2       989      2546      1046      1033      3815      3183      1387      1274      3845      1386
 -1      3712    6    0    1
 -2      1046      2546       989      2478      3183      3815      1387      3900      3816      3812
 -1      3713    6    0    1
 -2      2548       515       561      2479      3809       949      3181      3810      3806      3902
 -1      3714    6    0    1
 -2      2548       561       515       509      3181       949      3809      3850       948       684
 -1      3715    6    0    1
 -2      2548      1491      1539      1519      3808      1917      3179      3848      1670      1918
 -1      3716    6    0    1
 -2      2548      1539      1491      2479      3179      1917      3808      3810      3904      3805
 -1      3717    6    0    1
 -2      2546      1963      2030      2018      3814      2310      3177      3846      2260      2311
 -1      3718    6    0    1
 -2      2546      2030      1963      2478      3177      2310      3814      3816      3901      3811
 -1      3719    6    0    1
 -2      2545       985      1058      1030      3859      1364      3944      3877      1132      1365
 -1      3720    6    0    1
 -2      2545      1058       985      2473      3944      1364      3859      3861      3945      3763
 -1      3721    6    0    1
 -2      2553       531       566       502      3824       923      3972      3857       736       924
 -1      3722    6    0    1
 -2      2553       566       531      2487      3972       923      3824      3826      3971      3746
 -1      3723    6    0    1
 -2      2553      2004      2045      2487      3825      2398      3963      3826      3748      3960
 -1      3724    6    0    1
 -2      2553      2045      2004      1980      3963      2398      3825      3858      2397      2118
 -1      3725    6    0    1
 -2      2557      1021      1054       990      3869      1391      3196      3875      1150      1392
 -1      3726    6    0    1
 -2      2557      1054      1021      2483      3196      1391      3869      3871      3928      3783
 -1      3727    6    0    1
 -2      2552      1018      1059       999      3827      1434      3954      3853      1232      1435
 -1      3728    6    0    1
 -2      2552      1059      1018      2486      3954      1434      3827      3829      3953      3738
 -1      3729    6    0    1
 -2      2552      1968      2044      2486      3828      2336      3965      3829      3737      3966
 -1      3730    6    0    1
 -2      2552      2044      1968      2014      3965      2336      3828      3854      2335      2218
 -1      3731    6    0    1
 -2      2556      1979      2036      2488      3882      2391      3188      3883      3879      3922
 -1      3732    6    0    1
 -2      2556      2036      1979      1995      3188      2391      3882      3896      2390      2136
 -1      3733    6    0    1
 -2      2556       500       563       517      3881       911      3199      3895       754       912
 -1      3734    6    0    1
 -2      2556       563       500      2488      3199       911      3881      3883      3933      3878
 -1      3735    6    0    1
 -2      1534      2557      1556      1482      3870      3186      1880      1740      3874      1879
 -1      3736    6    0    1
 -2      1556      2557      1534      2483      3186      3870      1880      3918      3871      3786
 -1      3737    6    0    1
 -2      2551      1506      1535      2489      3863      1949      3978      3864      3769      3975
 -1      3738    6    0    1
 -2      2551      1535      1506      1510      3978      1949      3863      3898      1948      1628
 -1      3739    6    0    1
 -2      2502       975      1529      2501      4070      3906      4022      3501      3909      3910
 -1      3740    6    0    1
 -2      2502      1529       975      1012      4022      3906      4070      4031      4030      1162
 -1      3741   11    0    2
 -2      4404      4405
 -3
    1PSTEP                         1           1           1          
  100CL  101 5.00000E-01        4405                     0    1           1
 -4  DISP        4    1
 -5  D1          1    2    1    0
 -5  D2          1    2    2    0
 -5  D3          1    2    3    0
 -5  ALL         1    2    0    0    1ALL
 -1         1 0.00000E+00 0.00000E+00 0.00000E+00
 -1         2 0.00000E+00 0.00000E+00 0.00000E+00
 -1         3 0.00000E+00 0.00000E+00 0.00000E+00
 -1         4 0.00000E+00 0.00000E+00 0.00000E+00
 -1         5-8.06264E-02-9.99443E-01-1.84558E-07
 -1         6-8.06263E-02-9.99443E-01-1.84558E-07
 -1         7 6.86168E-02-1.00056E+00 5.06508E-07
 -1         8 6.86169E-02-1.00056E+00 5.06508E-07
 -1         9 0.00000E+00 0.00000E+00 0.00000E+00
 -1        10 0.00000E+00 0.00000E+00 0.00000E+00
 -1        11 0.00000E+00 0.00000E+00 0.00000E+00
 -1        12 0.00000E+00 0.00000E+00 0.00000E+00
 -1        13 0.00000E+00 0.00000E+00 0.00000E+00
 -1        14 0.00000E+00 0.00000E+00 0.00000E+00
 -1        15 0.00000E+00 0.00000E+00 0.00000E+00
 -1        16 0.00000E+00 0.00000E+00 0.00000E+00
 -1        17 0.00000E+00 0.00000E+00 0.00000E+00
 -1        18 0.00000E+00 0.00000E+00 0.00000E+00
 -1        19 0.00000E+00 0.00000E+00 0.00000E+00
 -1        20 0.00000E+00 0.00000E+00 0.00000E+00
 -1        21 0.00000E+00 0.00000E+00 0.00000E+00
 -1        22 0.00000E+00 0.00000E+00 0.00000E+00
 -1        23 0.00000E+00 0.00000E+00 0.00000E+00
 -1        24 0.00000E+00 0.00000E+00 0.00000E+00
 -1        25 0.00000E+00 0.00000E+00 0.00000E+00
 -1        26 0.00000E+00 0.00000E+00 0.00000E+00
 -1        27 0.00000E+00 0.00000E+00 0.00000E+00
 -1        28 0.00000E+00 0.00000E+00 0.00000E+00
 -1        29 0.00000E+00 0.00000E+00 0.00000E+00
 -1        30 0.00000E+00 0.00000E+00 0.00000E+00
 -1        31 0.00000E+00 0.00000E+00 0.00000E+00
 -1        32 0.00000E+00 0.00000E+00 0.00000E+00
 -1        33 0.00000E+00 0.00000E+00 0.00000E+00
 -1        34 0.00000E+00 0.00000E+00 0.00000E+00
 -1        35 0.00000E+00 0.00000E+00 0.00000E+00
 -1        36 0.00000E+00 0.00000E+00 0.00000E+00
 -1        37-8.06263E-02-9.99443E-01-1.84558E-07
 -1        38-8.06263E-02-9.99443E-01-1.84558E-07
 -1        39-8.06264E-02-9.99443E-01-1.84558E-07
 -1        40-8.06263E-02-9.99443E-01-1.84558E-07
 -1        41-8.06263E-02-9.99443E-01-1.84558E-07
 -1        42-8.06264E-02-9.99443E-01-1.84558E-07
 -1        43-8.06264E-02-9.99443E-01-1.84558E-07
 -1        44-4.33156E-02-9.99722E-01-1.17911E-08
 -1        45-6.00481E-03-1.00000E+00 1.60975E-07
 -1        46 3.13060E-02-1.00028E+00 3.33742E-07
 -1        47-6.19710E-02-9.99583E-01-9.81744E-08
 -1        48-2.46602E-02-9.99861E-01 7.45922E-08
 -1        49 1.26506E-02-1.00014E+00 2.47359E-07
 -1        50 4.99614E-02-1.00042E+00 4.20125E-07
 -1        51 6.86169E-02-1.00056E+00 5.06508E-07
 -1        52 6.86168E-02-1.00056E+00 5.06508E-07
 -1        53 6.86168E-02-1.00056E+00 5.06508E-07
 -1        54 6.86169E-02-1.00056E+00 5.06508E-07
 -1        55 6.86168E-02-1.00056E+00 5.06508E-07
 -1        56 6.86168E-02-1.00056E+00 5.06508E-07
 -1        57 6.86168E-02-1.00056E+00 5.06508E-07
 -1        58-4.33155E-02-9.99721E-01-1.17913E-08
 -1        59-6.00470E-03-1.00000E+00 1.60975E-07
 -1        60 3.13061E-02-1.00028E+00 3.33742E-07
 -1        61-6.19709E-02-9.99582E-01-9.81746E-08
 -1        62-2.46601E-02-9.99860E-01 7.45919E-08
 -1        63 1.26507E-02-1.00014E+00 2.47358E-07
 -1        64 4.99615E-02-1.00042E+00 4.20125E-07
 -1        65-4.25586E-03-1.56282E-03-1.76451E-03
 -1        66-8.28468E-03-5.23156E-03-2.04729E-03
 -1        67-1.23253E-02-1.14203E-02-2.04551E-03
 -1        68-1.62832E-02-2.00052E-02-1.98881E-03
 -1        69-2.01346E-02-3.08849E-02-1.92104E-03
 -1        70-2.38608E-02-4.39798E-02-1.85253E-03
 -1        71-2.74732E-02-5.92071E-02-1.78839E-03
 -1        72-3.09652E-02-7.64958E-02-1.72053E-03
 -1        73-3.43374E-02-9.57645E-02-1.65695E-03
 -1        74-3.75954E-02-1.16944E-01-1.58963E-03
 -1        75-4.07374E-02-1.39956E-01-1.52202E-03
 -1        76-4.37627E-02-1.64723E-01-1.45542E-03
 -1        77-4.66707E-02-1.91164E-01-1.39173E-03
 -1        78-4.94682E-02-2.19212E-01-1.32453E-03
 -1        79-5.21470E-02-2.48788E-01-1.25720E-03
 -1        80-5.47106E-02-2.79814E-01-1.18982E-03
 -1        81-5.71625E-02-3.12213E-01-1.12588E-03
 -1        82-5.94975E-02-3.45912E-01-1.05821E-03
 -1        83-6.17144E-02-3.80829E-01-9.94656E-04
 -1        84-6.38200E-02-4.16895E-01-9.26863E-04
 -1        85-6.58030E-02-4.54034E-01-8.58503E-04
 -1        86-6.76745E-02-4.92160E-01-7.94805E-04
 -1        87-6.94248E-02-5.31208E-01-7.28928E-04
 -1        88-7.10574E-02-5.71096E-01-6.60872E-04
 -1        89-7.25721E-02-6.11750E-01-5.95837E-04
 -1        90-7.39638E-02-6.53090E-01-5.28959E-04
 -1        91-7.52352E-02-6.95044E-01-4.62578E-04
 -1        92-7.63847E-02-7.37532E-01-3.97443E-04
 -1        93-7.74135E-02-7.80484E-01-3.30600E-04
 -1        94-7.83126E-02-8.23816E-01-2.62725E-04
 -1        95-7.90919E-02-8.67455E-01-1.98779E-04
 -1        96-7.97433E-02-9.11328E-01-1.29913E-04
 -1        97-8.02660E-02-9.55357E-01-5.83897E-05
 -1        98-2.28875E-03-7.44263E-04-1.31271E-03
 -1        99-6.26284E-03-3.08412E-03-1.97254E-03
 -1       100-1.03124E-02-8.01992E-03-2.06080E-03
 -1       101-1.43171E-02-1.54218E-02-2.01925E-03
 -1       102-1.82232E-02-2.51639E-02-1.95470E-03
 -1       103-2.20123E-02-3.71616E-02-1.88762E-03
 -1       104-2.56816E-02-5.13307E-02-1.82045E-03
 -1       105-2.92329E-02-6.75979E-02-1.75438E-03
 -1       106-3.26660E-02-8.58869E-02-1.68840E-03
 -1       107-3.59811E-02-1.06121E-01-1.62271E-03
 -1       108-3.91799E-02-1.28226E-01-1.55556E-03
 -1       109-4.22639E-02-1.52124E-01-1.48896E-03
 -1       110-4.52311E-02-1.77738E-01-1.42323E-03
 -1       111-4.80839E-02-2.04993E-01-1.35724E-03
 -1       112-5.08209E-02-2.33814E-01-1.29119E-03
 -1       113-5.34434E-02-2.64124E-01-1.22417E-03
 -1       114-5.59506E-02-2.95846E-01-1.15783E-03
 -1       115-5.83434E-02-3.28904E-01-1.09198E-03
 -1       116-6.06205E-02-3.63222E-01-1.02609E-03
 -1       117-6.27811E-02-3.98724E-01-9.60310E-04
 -1       118-6.48256E-02-4.35336E-01-8.93328E-04
 -1       119-6.67536E-02-4.72978E-01-8.27039E-04
 -1       120-6.85638E-02-5.11574E-01-7.61507E-04
 -1       121-7.02556E-02-5.51052E-01-6.94888E-04
 -1       122-7.18292E-02-5.91332E-01-6.28286E-04
 -1       123-7.32821E-02-6.32338E-01-5.62565E-04
 -1       124-7.46145E-02-6.73995E-01-4.96095E-04
 -1       125-7.58252E-02-7.16226E-01-4.29973E-04
 -1       126-7.69141E-02-7.58954E-01-3.63523E-04
 -1       127-7.78780E-02-8.02106E-01-2.97186E-04
 -1       128-7.87177E-02-8.45601E-01-2.30890E-04
 -1       129-7.94323E-02-8.89366E-01-1.64522E-04
 -1       130-8.00207E-02-9.33327E-01-9.52008E-05
 -1       131-8.04702E-02-9.77407E-01-2.19556E-05
 -1       132-4.25526E-03-1.56340E-03 1.76382E-03
 -1       133-8.28425E-03-5.23201E-03 2.04679E-03
 -1       134-1.23253E-02-1.14215E-02 2.04529E-03
 -1       135-1.62834E-02-2.00071E-02 1.98620E-03
 -1       136-2.01339E-02-3.08872E-02 1.92057E-03
 -1       137-2.38618E-02-4.39783E-02 1.85321E-03
 -1       138-2.74741E-02-5.92081E-02 1.78712E-03
 -1       139-3.09630E-02-7.64956E-02 1.71926E-03
 -1       140-3.43390E-02-9.57640E-02 1.65574E-03
 -1       141-3.75967E-02-1.16946E-01 1.58852E-03
 -1       142-4.07369E-02-1.39956E-01 1.52155E-03
 -1       143-4.37609E-02-1.64722E-01 1.45422E-03
 -1       144-4.66726E-02-1.91164E-01 1.39054E-03
 -1       145-4.94665E-02-2.19213E-01 1.32447E-03
 -1       146-5.21469E-02-2.48788E-01 1.25626E-03
 -1       147-5.47128E-02-2.79812E-01 1.19179E-03
 -1       148-5.71611E-02-3.12213E-01 1.12425E-03
 -1       149-5.94957E-02-3.45911E-01 1.05826E-03
 -1       150-6.17149E-02-3.80830E-01 9.92739E-04
 -1       151-6.38189E-02-4.16898E-01 9.25336E-04
 -1       152-6.58039E-02-4.54032E-01 8.60358E-04
 -1       153-6.76734E-02-4.92161E-01 7.94052E-04
 -1       154-6.94247E-02-5.31208E-01 7.27905E-04
 -1       155-7.10591E-02-5.71098E-01 6.60495E-04
 -1       156-7.25700E-02-6.11751E-01 5.93304E-04
 -1       157-7.39645E-02-6.53089E-01 5.29990E-04
 -1       158-7.52368E-02-6.95045E-01 4.62183E-04
 -1       159-7.63847E-02-7.37534E-01 3.96063E-04
 -1       160-7.74134E-02-7.80483E-01 3.30783E-04
 -1       161-7.83141E-02-8.23815E-01 2.63765E-04
 -1       162-7.90926E-02-8.67455E-01 1.98096E-04
 -1       163-7.97433E-02-9.11327E-01 1.29874E-04
 -1       164-8.02654E-02-9.55358E-01 5.78647E-05
 -1       165-2.28886E-03-7.44712E-04 1.31240E-03
 -1       166-6.26232E-03-3.08458E-03 1.97225E-03
 -1       167-1.03120E-02-8.02004E-03 2.06073E-03
 -1       168-1.43172E-02-1.54220E-02 2.01832E-03
 -1       169-1.82229E-02-2.51652E-02 1.95283E-03
 -1       170-2.20120E-02-3.71603E-02 1.88723E-03
 -1       171-2.56823E-02-5.13306E-02 1.81969E-03
 -1       172-2.92328E-02-6.75986E-02 1.75378E-03
 -1       173-3.26657E-02-8.58868E-02 1.68784E-03
 -1       174-3.59814E-02-1.06121E-01 1.62177E-03
 -1       175-3.91805E-02-1.28226E-01 1.55517E-03
 -1       176-4.22634E-02-1.52124E-01 1.48847E-03
 -1       177-4.52312E-02-1.77738E-01 1.42279E-03
 -1       178-4.80833E-02-2.04993E-01 1.35715E-03
 -1       179-5.08206E-02-2.33814E-01 1.29026E-03
 -1       180-5.34442E-02-2.64124E-01 1.22416E-03
 -1       181-5.59504E-02-2.95846E-01 1.15828E-03
 -1       182-5.83428E-02-3.28904E-01 1.09134E-03
 -1       183-6.06197E-02-3.63222E-01 1.02570E-03
 -1       184-6.27805E-02-3.98726E-01 9.58548E-04
 -1       185-6.48259E-02-4.35335E-01 8.93235E-04
 -1       186-6.67533E-02-4.72977E-01 8.26813E-04
 -1       187-6.85637E-02-5.11575E-01 7.60853E-04
 -1       188-7.02557E-02-5.51052E-01 6.93885E-04
 -1       189-7.18295E-02-5.91333E-01 6.27779E-04
 -1       190-7.32824E-02-6.32339E-01 5.61962E-04
 -1       191-7.46145E-02-6.73995E-01 4.96153E-04
 -1       192-7.58261E-02-7.16227E-01 4.29396E-04
 -1       193-7.69140E-02-7.58955E-01 3.62760E-04
 -1       194-7.78784E-02-8.02105E-01 2.97676E-04
 -1       195-7.87190E-02-8.45602E-01 2.30787E-04
 -1       196-7.94324E-02-8.89367E-01 1.64047E-04
 -1       197-8.00201E-02-9.33328E-01 9.51262E-05
 -1       198-8.04699E-02-9.77408E-01 2.15408E-05
 -1       199 4.24624E-03-1.57131E-03 1.76545E-03
 -1       200 8.26648E-03-5.24902E-03 2.04826E-03
 -1       201 1.22931E-02-1.14561E-02 2.04413E-03
 -1       202 1.62228E-02-2.00622E-02 1.98695E-03
 -1       203 2.00271E-02-3.09699E-02 1.92079E-03
 -1       204 2.36949E-02-4.40944E-02 1.85378E-03
 -1       205 2.72222E-02-5.93604E-02 1.78656E-03
 -1       206 3.06082E-02-7.66885E-02 1.71929E-03
 -1       207 3.38559E-02-9.60015E-02 1.65539E-03
 -1       208 3.69594E-02-1.17226E-01 1.58880E-03
 -1       209 3.99175E-02-1.40284E-01 1.52187E-03
 -1       210 4.27313E-02-1.65099E-01 1.45465E-03
 -1       211 4.54042E-02-1.91590E-01 1.39127E-03
 -1       212 4.79308E-02-2.19689E-01 1.32383E-03
 -1       213 5.03121E-02-2.49314E-01 1.25876E-03
 -1       214 5.25494E-02-2.80391E-01 1.19184E-03
 -1       215 5.46409E-02-3.12840E-01 1.12514E-03
 -1       216 5.65885E-02-3.46586E-01 1.05899E-03
 -1       217 5.83944E-02-3.81554E-01 9.93295E-04
 -1       218 6.00558E-02-4.17667E-01 9.26770E-04
 -1       219 6.15738E-02-4.54844E-01 8.61080E-04
 -1       220 6.29477E-02-4.93017E-01 7.94363E-04
 -1       221 6.41815E-02-5.32102E-01 7.28609E-04
 -1       222 6.52747E-02-5.72027E-01 6.62133E-04
 -1       223 6.62254E-02-6.12715E-01 5.94675E-04
 -1       224 6.70406E-02-6.54086E-01 5.30990E-04
 -1       225 6.77155E-02-6.96067E-01 4.63573E-04
 -1       226 6.82535E-02-7.38580E-01 3.98273E-04
 -1       227 6.86544E-02-7.81549E-01 3.32446E-04
 -1       228 6.89193E-02-8.24901E-01 2.64702E-04
 -1       229 6.90510E-02-8.68555E-01 1.98797E-04
 -1       230 6.90493E-02-9.12436E-01 1.31366E-04
 -1       231 6.89147E-02-9.56473E-01 5.97822E-05
 -1       232 2.28511E-03-7.51019E-04 1.30850E-03
 -1       233 6.25128E-03-3.09457E-03 1.97208E-03
 -1       234 1.02881E-02-8.04489E-03 2.05939E-03
 -1       235 1.42722E-02-1.54667E-02 2.01795E-03
 -1       236 1.81412E-02-2.52343E-02 1.95368E-03
 -1       237 2.18771E-02-3.72604E-02 1.88737E-03
 -1       238 2.54755E-02-5.14651E-02 1.82058E-03
 -1       239 2.89332E-02-6.77713E-02 1.75361E-03
 -1       240 3.22495E-02-8.61009E-02 1.68738E-03
 -1       241 3.54246E-02-1.06379E-01 1.62168E-03
 -1       242 3.84556E-02-1.28530E-01 1.55555E-03
 -1       243 4.13425E-02-1.52476E-01 1.48888E-03
 -1       244 4.40858E-02-1.78139E-01 1.42328E-03
 -1       245 4.66844E-02-2.05445E-01 1.35760E-03
 -1       246 4.91391E-02-2.34316E-01 1.29152E-03
 -1       247 5.14478E-02-2.64675E-01 1.22489E-03
 -1       248 5.36123E-02-2.96448E-01 1.15865E-03
 -1       249 5.56326E-02-3.29556E-01 1.09239E-03
 -1       250 5.75089E-02-3.63922E-01 1.02609E-03
 -1       251 5.92419E-02-3.99471E-01 9.59781E-04
 -1       252 6.08315E-02-4.36127E-01 8.94040E-04
 -1       253 6.22778E-02-4.73812E-01 8.28130E-04
 -1       254 6.35820E-02-5.12450E-01 7.61672E-04
 -1       255 6.47453E-02-5.51965E-01 6.95694E-04
 -1       256 6.57676E-02-5.92281E-01 6.29043E-04
 -1       257 6.66500E-02-6.33319E-01 5.62810E-04
 -1       258 6.73942E-02-6.75004E-01 4.97255E-04
 -1       259 6.80009E-02-7.17261E-01 4.30834E-04
 -1       260 6.84705E-02-7.60012E-01 3.65108E-04
 -1       261 6.88024E-02-8.03183E-01 2.98619E-04
 -1       262 6.90012E-02-8.46694E-01 2.31566E-04
 -1       263 6.90656E-02-8.90471E-01 1.65313E-04
 -1       264 6.89982E-02-9.34439E-01 9.65734E-05
 -1       265 6.87903E-02-9.78521E-01 2.29387E-05
 -1       266 4.24693E-03-1.56968E-03-1.76497E-03
 -1       267 8.26566E-03-5.24854E-03-2.04916E-03
 -1       268 1.22914E-02-1.14565E-02-2.04503E-03
 -1       269 1.62215E-02-2.00635E-02-1.98669E-03
 -1       270 2.00276E-02-3.09706E-02-1.92042E-03
 -1       271 2.36921E-02-4.40969E-02-1.85159E-03
 -1       272 2.72231E-02-5.93603E-02-1.78802E-03
 -1       273 3.06108E-02-7.66889E-02-1.72025E-03
 -1       274 3.38543E-02-9.60005E-02-1.65668E-03
 -1       275 3.69577E-02-1.17226E-01-1.58944E-03
 -1       276 3.99182E-02-1.40285E-01-1.52199E-03
 -1       277 4.27331E-02-1.65098E-01-1.45587E-03
 -1       278 4.54016E-02-1.91591E-01-1.39184E-03
 -1       279 4.79309E-02-2.19689E-01-1.32466E-03
 -1       280 5.03114E-02-2.49315E-01-1.25726E-03
 -1       281 5.25475E-02-2.80392E-01-1.18993E-03
 -1       282 5.46416E-02-3.12838E-01-1.12655E-03
 -1       283 5.65896E-02-3.46587E-01-1.05853E-03
 -1       284 5.83949E-02-3.81554E-01-9.93812E-04
 -1       285 6.00561E-02-4.17664E-01-9.27258E-04
 -1       286 6.15715E-02-4.54846E-01-8.60417E-04
 -1       287 6.29492E-02-4.93017E-01-7.94679E-04
 -1       288 6.41815E-02-5.32102E-01-7.29557E-04
 -1       289 6.52740E-02-5.72027E-01-6.61475E-04
 -1       290 6.62278E-02-6.12715E-01-5.96453E-04
 -1       291 6.70397E-02-6.54086E-01-5.29566E-04
 -1       292 6.77141E-02-6.96067E-01-4.63087E-04
 -1       293 6.82512E-02-7.38581E-01-3.97692E-04
 -1       294 6.86543E-02-7.81552E-01-3.31075E-04
 -1       295 6.89181E-02-8.24901E-01-2.64548E-04
 -1       296 6.90501E-02-8.68554E-01-1.98653E-04
 -1       297 6.90480E-02-9.12436E-01-1.30651E-04
 -1       298 6.89145E-02-9.56472E-01-5.85325E-05
 -1       299 2.28376E-03-7.49846E-04-1.31141E-03
 -1       300 6.25060E-03-3.09403E-03-1.97291E-03
 -1       301 1.02870E-02-8.04508E-03-2.05974E-03
 -1       302 1.42712E-02-1.54672E-02-2.01798E-03
 -1       303 1.81411E-02-2.52350E-02-1.95336E-03
 -1       304 2.18766E-02-3.72617E-02-1.88663E-03
 -1       305 2.54750E-02-5.14653E-02-1.81989E-03
 -1       306 2.89335E-02-6.77707E-02-1.75407E-03
 -1       307 3.22504E-02-8.61011E-02-1.68813E-03
 -1       308 3.54240E-02-1.06379E-01-1.62253E-03
 -1       309 3.84550E-02-1.28531E-01-1.55550E-03
 -1       310 4.13431E-02-1.52477E-01-1.48918E-03
 -1       311 4.40850E-02-1.78140E-01-1.42385E-03
 -1       312 4.66845E-02-2.05444E-01-1.35738E-03
 -1       313 4.91382E-02-2.34316E-01-1.29126E-03
 -1       314 5.14477E-02-2.64677E-01-1.22424E-03
 -1       315 5.36127E-02-2.96448E-01-1.15863E-03
 -1       316 5.56324E-02-3.29556E-01-1.09251E-03
 -1       317 5.75096E-02-3.63922E-01-1.02605E-03
 -1       318 5.92425E-02-3.99471E-01-9.60356E-04
 -1       319 6.08312E-02-4.36127E-01-8.94438E-04
 -1       320 6.22776E-02-4.73812E-01-8.27387E-04
 -1       321 6.35825E-02-5.12450E-01-7.61800E-04
 -1       322 6.47448E-02-5.51965E-01-6.95469E-04
 -1       323 6.57679E-02-5.92280E-01-6.28938E-04
 -1       324 6.66502E-02-6.33319E-01-5.63169E-04
 -1       325 6.73940E-02-6.75005E-01-4.96674E-04
 -1       326 6.79998E-02-7.17262E-01-4.30313E-04
 -1       327 6.84692E-02-7.60013E-01-3.63820E-04
 -1       328 6.88021E-02-8.03183E-01-2.97932E-04
 -1       329 6.90007E-02-8.46694E-01-2.31900E-04
 -1       330 6.90654E-02-8.90471E-01-1.64798E-04
 -1       331 6.89979E-02-9.34440E-01-9.52789E-05
 -1       332 6.87892E-02-9.78522E-01-2.20602E-05
 -1       333 0.00000E+00 0.00000E+00 0.00000E+00
 -1       334 0.00000E+00 0.00000E+00 0.00000E+00
 -1       335 0.00000E+00 0.00000E+00 0.00000E+00
 -1       336 0.00000E+00 0.00000E+00 0.00000E+00
 -1       337 0.00000E+00 0.00000E+00 0.00000E+00
 -1       338 0.00000E+00 0.00000E+00 0.00000E+00
 -1       339 0.00000E+00 0.00000E+00 0.00000E+00
 -1       340 0.00000E+00 0.00000E+00 0.00000E+00
 -1       341 0.00000E+00 0.00000E+00 0.00000E+00
 -1       342 0.00000E+00 0.00000E+00 0.00000E+00
 -1       343 0.00000E+00 0.00000E+00 0.00000E+00
 -1       344 0.00000E+00 0.00000E+00 0.00000E+00
 -1       345 0.00000E+00 0.00000E+00 0.00000E+00
 -1       346 0.00000E+00 0.00000E+00 0.00000E+00
 -1       347 0.00000E+00 0.00000E+00 0.00000E+00
 -1       348 0.00000E+00 0.00000E+00 0.00000E+00
 -1       349 0.00000E+00 0.00000E+00 0.00000E+00
 -1       350 0.00000E+00 0.00000E+00 0.00000E+00
 -1       351 0.00000E+00 0.00000E+00 0.00000E+00
 -1       352 0.00000E+00 0.00000E+00 0.00000E+00
 -1       353 0.00000E+00 0.00000E+00 0.00000E+00
 -1       354 0.00000E+00 0.00000E+00 0.00000E+00
 -1       355 0.00000E+00 0.00000E+00 0.00000E+00
 -1       356 0.00000E+00 0.00000E+00 0.00000E+00
 -1       357 0.00000E+00 0.00000E+00 0.00000E+00
 -1       358 0.00000E+00 0.00000E+00 0.00000E+00
 -1       359 0.00000E+00 0.00000E+00 0.00000E+00
 -1       360 0.00000E+00 0.00000E+00 0.00000E+00
 -1       361 0.00000E+00 0.00000E+00 0.00000E+00
 -1       362 0.00000E+00 0.00000E+00 0.00000E+00
 -1       363 0.00000E+00 0.00000E+00 0.00000E+00
 -1       364 0.00000E+00 0.00000E+00 0.00000E+00
 -1       365 0.00000E+00 0.00000E+00 0.00000E+00
 -1       366 0.00000E+00 0.00000E+00 0.00000E+00
 -1       367 0.00000E+00 0.00000E+00 0.00000E+00
 -1       368 0.00000E+00 0.00000E+00 0.00000E+00
 -1       369 0.00000E+00 0.00000E+00 0.00000E+00
 -1       370 0.00000E+00 0.00000E+00 0.00000E+00
 -1       371 0.00000E+00 0.00000E+00 0.00000E+00
 -1       372 0.00000E+00 0.00000E+00 0.00000E+00
 -1       373 0.00000E+00 0.00000E+00 0.00000E+00
 -1       374 0.00000E+00 0.00000E+00 0.00000E+00
 -1       375 0.00000E+00 0.00000E+00 0.00000E+00
 -1       376 0.00000E+00 0.00000E+00 0.00000E+00
 -1       377 0.00000E+00 0.00000E+00 0.00000E+00
 -1       378 0.00000E+00 0.00000E+00 0.00000E+00
 -1       379 0.00000E+00 0.00000E+00 0.00000E+00
 -1       380 0.00000E+00 0.00000E+00 0.00000E+00
 -1       381 0.00000E+00 0.00000E+00 0.00000E+00
 -1       382 0.00000E+00 0.00000E+00 0.00000E+00
 -1       383 0.00000E+00 0.00000E+00 0.00000E+00
 -1       384 0.00000E+00 0.00000E+00 0.00000E+00
 -1       385 0.00000E+00 0.00000E+00 0.00000E+00
 -1       386 0.00000E+00 0.00000E+00 0.00000E+00
 -1       387 0.00000E+00 0.00000E+00 0.00000E+00
 -1       388 0.00000E+00 0.00000E+00 0.00000E+00
 -1       389 0.00000E+00 0.00000E+00 0.00000E+00
 -1       390 0.00000E+00 0.00000E+00 0.00000E+00
 -1       391 0.00000E+00 0.00000E+00 0.00000E+00
 -1       392 0.00000E+00 0.00000E+00 0.00000E+00
 -1       393 0.00000E+00 0.00000E+00 0.00000E+00
 -1       394 0.00000E+00 0.00000E+00 0.00000E+00
 -1       395 0.00000E+00 0.00000E+00 0.00000E+00
 -1       396 0.00000E+00 0.00000E+00 0.00000E+00
 -1       397 0.00000E+00 0.00000E+00 0.00000E+00
 -1       398 0.00000E+00 0.00000E+00 0.00000E+00
 -1       399 0.00000E+00 0.00000E+00 0.00000E+00
 -1       400 0.00000E+00 0.00000E+00 0.00000E+00
 -1       401 0.00000E+00 0.00000E+00 0.00000E+00
 -1       402 0.00000E+00 0.00000E+00 0.00000E+00
 -1       403 0.00000E+00 0.00000E+00 0.00000E+00
 -1       404 0.00000E+00 0.00000E+00 0.00000E+00
 -1       405 0.00000E+00 0.00000E+00 0.00000E+00
 -1       406 1.14704E-02-1.00013E+00 2.41894E-07
 -1       407 1.12077E-02-1.00013E+00 2.40677E-07
 -1       408-5.11245E-02-9.99663E-01-4.79501E-08
 -1       409-2.45897E-02-9.99861E-01 7.49182E-08
 -1       410-6.46266E-03-9.99997E-01 1.58855E-07
 -1       411 3.42223E-02-1.00030E+00 3.47245E-07
 -1       412-2.70446E-02-9.99843E-01 6.35512E-08
 -1       413-4.72662E-02-9.99692E-01-3.00848E-08
 -1       414 4.15285E-02-1.00035E+00 3.81077E-07
 -1       415 1.22971E-02-1.00014E+00 2.45722E-07
 -1       416-5.33130E-02-9.99647E-01-5.80838E-08
 -1       417 4.13035E-02-1.00035E+00 3.80034E-07
 -1       418-5.33129E-02-9.99647E-01-5.80839E-08
 -1       419 4.15280E-02-1.00036E+00 3.81074E-07
 -1       420-1.99801E-02-9.99896E-01 9.62631E-08
 -1       421-6.69697E-02-9.99545E-01-1.21321E-07
 -1       422-6.69697E-02-9.99545E-01-1.21321E-07
 -1       423-4.83143E-02-9.99685E-01-3.49375E-08
 -1       424-6.69696E-02-9.99545E-01-1.21321E-07
 -1       425-6.69696E-02-9.99545E-01-1.21321E-07
 -1       426-4.83142E-02-9.99684E-01-3.49376E-08
 -1       427 3.64170E-02-1.00032E+00 3.57408E-07
 -1       428 5.50724E-02-1.00046E+00 4.43791E-07
 -1       429 5.50724E-02-1.00046E+00 4.43791E-07
 -1       430 5.49602E-02-1.00045E+00 4.43271E-07
 -1       431 5.49602E-02-1.00045E+00 4.43271E-07
 -1       432 3.63048E-02-1.00032E+00 3.56888E-07
 -1       433-6.39463E-02-9.99568E-01-1.07321E-07
 -1       434-6.39463E-02-9.99568E-01-1.07321E-07
 -1       435-5.02896E-02-9.99669E-01-4.40844E-08
 -1       436-6.58754E-02-9.99553E-01-1.16254E-07
 -1       437-6.58754E-02-9.99553E-01-1.16254E-07
 -1       438-4.91954E-02-9.99678E-01-3.90175E-08
 -1       439-5.22187E-02-9.99655E-01-5.30170E-08
 -1       440-3.51801E-02-9.99783E-01 2.58800E-08
 -1       441-1.65247E-02-9.99922E-01 1.12263E-07
 -1       442-4.01788E-02-9.99745E-01 2.73367E-09
 -1       443 2.73277E-03-1.00007E+00 2.01434E-07
 -1       444 2.13882E-02-1.00020E+00 2.87818E-07
 -1       445-7.78712E-03-9.99987E-01 1.52722E-07
 -1       446 2.64992E-02-1.00024E+00 3.11484E-07
 -1       447 5.14196E-02-1.00043E+00 4.26877E-07
 -1       448 5.14196E-02-1.00043E+00 4.26877E-07
 -1       449 3.77629E-02-1.00033E+00 3.63640E-07
 -1       450 5.50727E-02-1.00046E+00 4.43793E-07
 -1       451 5.50727E-02-1.00046E+00 4.43793E-07
 -1       452 3.78754E-02-1.00033E+00 3.64161E-07
 -1       453 4.15282E-02-1.00035E+00 3.81076E-07
 -1       454-1.52972E-02-9.99930E-01 1.17947E-07
 -1       455-3.39526E-02-9.99791E-01 3.15634E-08
 -1       456-3.89513E-02-9.99754E-01 8.41714E-09
 -1       457 2.12569E-02-1.00020E+00 2.87209E-07
 -1       458 2.60148E-03-1.00006E+00 2.00826E-07
 -1       459-6.69100E-03-9.99995E-01 1.57797E-07
 -1       460 2.62556E-02-1.00024E+00 3.10356E-07
 -1       461-2.35123E-02-9.99870E-01 7.99071E-08
 -1       462-4.25486E-03-1.00001E+00 1.69078E-07
 -1       463 1.18837E-02-1.00013E+00 2.43808E-07
 -1       464 2.69128E-02-1.00025E+00 3.13399E-07
 -1       465 2.64994E-02-1.00024E+00 3.11485E-07
 -1       466-3.84149E-03-1.00002E+00 1.70992E-07
 -1       467 2.37250E-03-1.00006E+00 1.99766E-07
 -1       468-1.55262E-02-9.99929E-01 1.16887E-07
 -1       469 2.27150E-02-1.00021E+00 2.93961E-07
 -1       470 1.38798E-02-1.00015E+00 2.53050E-07
 -1       471-3.90845E-02-9.99753E-01 7.80050E-09
 -1       472-3.55523E-02-9.99780E-01 2.41565E-08
 -1       473-3.36232E-02-9.99794E-01 3.30891E-08
 -1       474-2.68644E-02-9.99844E-01 6.43850E-08
 -1       475-3.59280E-02-9.99777E-01 2.24167E-08
 -1       476 2.32597E-02-1.00022E+00 2.96484E-07
 -1       477 2.91722E-03-1.00007E+00 2.02288E-07
 -1       478-1.32214E-02-9.99946E-01 1.27559E-07
 -1       479-7.02862E-02-5.51315E-01-3.41036E-04
 -1       480-7.58533E-02-7.16389E-01-2.11229E-04
 -1       481-7.94508E-02-8.88977E-01 8.13987E-05
 -1       482-6.28113E-02-3.99088E-01-4.71347E-04
 -1       483-6.67836E-02-4.73290E-01 4.05906E-04
 -1       484-7.33045E-02-6.32551E-01 2.75672E-04
 -1       485-7.79051E-02-8.02218E-01 1.46115E-04
 -1       486-5.83741E-02-3.29319E-01 5.35466E-04
 -1       487-2.20386E-02-3.78609E-02-9.31788E-04
 -1       488-2.92610E-02-6.82629E-02-8.61529E-04
 -1       489-1.43364E-02-1.61856E-02 9.90735E-04
 -1       490-4.22928E-02-1.52690E-01-7.31453E-04
 -1       491-5.08401E-02-2.34169E-01-6.35444E-04
 -1       492-3.60129E-02-1.06735E-01-7.96437E-04
 -1       493-5.94566E-03-3.63943E-03 9.13227E-04
 -1       494-1.02945E-02-8.79545E-03-1.00815E-03
 -1       495-8.00677E-02-9.35420E-01-4.41058E-05
 -1       496-5.59764E-02-2.96284E-01-5.69083E-04
 -1       497-7.87403E-02-8.45688E-01-1.14667E-04
 -1       498-2.57121E-02-5.20199E-02 8.93303E-04
 -1       499-4.52550E-02-1.78277E-01 6.98258E-04
 -1       500-5.34645E-02-2.64483E-01 6.10214E-04
 -1       501-3.26894E-02-8.65265E-02 8.28257E-04
 -1       502-3.92104E-02-1.28816E-01 7.62798E-04
 -1       503-2.85796E-03-1.65215E-03-2.80966E-04
 -1       504-8.04060E-02-9.68340E-01 8.89744E-06
 -1       505-7.02858E-02-5.51315E-01 3.40571E-04
 -1       506-7.58532E-02-7.16390E-01 2.10366E-04
 -1       507-6.28115E-02-3.99089E-01 4.70470E-04
 -1       508-6.67772E-02-4.73290E-01-4.06260E-04
 -1       509-7.33101E-02-6.32551E-01-2.76115E-04
 -1       510-1.02790E-02-8.76711E-03 1.01432E-03
 -1       511-1.43126E-02-1.61448E-02-9.94402E-04
 -1       512-1.82400E-02-2.58709E-02-9.68145E-04
 -1       513-2.01546E-02-3.18181E-02 2.26217E-06
 -1       514-7.94607E-02-8.89611E-01-8.11937E-05
 -1       515-7.18577E-02-5.91570E-01-3.09020E-04
 -1       516-7.18586E-02-5.91573E-01 3.08011E-04
 -1       517-5.59811E-02-2.96274E-01 5.72190E-04
 -1       518-5.83723E-02-3.29317E-01-5.36389E-04
 -1       519-6.48529E-02-4.35675E-01 4.38264E-04
 -1       520-6.48583E-02-4.35677E-01-4.38436E-04
 -1       521-3.26893E-02-8.65279E-02-8.28330E-04
 -1       522-4.52551E-02-1.78279E-01-6.98199E-04
 -1       523-4.81125E-02-2.05482E-01-6.70415E-04
 -1       524-4.94728E-02-2.19587E-01 7.24144E-06
 -1       525-4.22954E-02-1.52690E-01 7.30247E-04
 -1       526-7.46429E-02-6.74183E-01 2.43525E-04
 -1       527-7.46439E-02-6.74184E-01-2.43580E-04
 -1       528-5.34619E-02-2.64423E-01-6.06966E-04
 -1       529-7.87446E-02-8.45689E-01 1.13425E-04
 -1       530-7.79059E-02-8.02219E-01-1.45753E-04
 -1       531-3.60112E-02-1.06735E-01 7.95542E-04
 -1       532-2.92629E-02-6.82643E-02 8.60389E-04
 -1       533-7.69428E-02-7.59091E-01-1.78649E-04
 -1       534-2.57064E-02-5.20175E-02-8.97958E-04
 -1       535-7.69401E-02-7.59091E-01 1.78397E-04
 -1       536-6.06443E-02-3.63612E-01-5.03179E-04
 -1       537-3.92116E-02-1.28816E-01-7.64249E-04
 -1       538-6.06501E-02-3.63612E-01 5.02575E-04
 -1       539-6.85928E-02-5.11862E-01-3.73334E-04
 -1       540-6.85939E-02-5.11863E-01 3.73072E-04
 -1       541-8.42665E-03-6.48853E-03-8.11373E-06
 -1       542-1.23276E-02-1.24325E-02-3.24824E-07
 -1       543-2.21099E-02-3.81125E-02 9.42410E-04
 -1       544-2.99671E-03-1.70453E-03 3.09123E-04
 -1       545-4.81085E-02-2.05454E-01 6.79256E-04
 -1       546-5.21701E-02-2.49299E-01 5.04619E-06
 -1       547-7.97360E-02-9.09062E-01 8.63758E-07
 -1       548-1.81707E-02-2.56767E-02 9.77203E-04
 -1       549-7.91198E-02-8.67455E-01 1.60435E-07
 -1       550-2.38904E-02-4.49055E-02-2.15004E-07
 -1       551-7.52633E-02-6.95275E-01 2.05633E-07
 -1       552-7.39941E-02-6.53355E-01-1.97847E-06
 -1       553-6.77075E-02-4.92559E-01 4.17437E-07
 -1       554-7.64130E-02-7.37732E-01 8.61555E-07
 -1       555-6.17445E-02-3.81326E-01-5.59209E-07
 -1       556-6.94568E-02-5.31572E-01-8.89318E-07
 -1       557-6.58333E-02-4.54463E-01 4.49585E-08
 -1       558-6.38512E-02-4.17359E-01-2.50947E-08
 -1       559-7.83398E-02-8.23948E-01-2.99002E-07
 -1       560-7.74416E-02-7.80649E-01-2.63198E-08
 -1       561-7.26007E-02-6.12047E-01-2.59111E-07
 -1       562-5.95313E-02-3.46438E-01-9.61491E-07
 -1       563-5.47387E-02-2.80342E-01 1.86700E-06
 -1       564-2.75064E-02-6.01010E-02 2.43420E-07
 -1       565-3.09978E-02-7.73541E-02-1.76952E-06
 -1       566-3.76289E-02-1.17739E-01 7.75186E-08
 -1       567-4.07700E-02-1.40716E-01 1.21770E-07
 -1       568-3.43716E-02-9.65932E-02-1.61176E-06
 -1       569-4.37957E-02-1.65448E-01-1.65370E-06
 -1       570-7.10886E-02-5.71427E-01-2.59108E-07
 -1       571-5.71950E-02-3.12775E-01 1.57726E-06
 -1       572-4.67057E-02-1.91860E-01-1.64788E-06
 -1       573-5.08439E-02-2.34205E-01 6.47233E-04
 -1       574-1.62777E-02-2.09279E-02-1.12470E-06
 -1       575-8.03971E-02-9.67009E-01-1.05273E-05
 -1       576-5.95727E-03-3.65250E-03-9.11164E-04
 -1       577-8.00670E-02-9.35211E-01 4.30194E-05
 -1       578-5.20241E-03-3.23824E-03 3.60492E-06
 -1       579-2.57531E-03-1.29874E-03 8.14695E-04
 -1       580-2.55302E-03-1.29204E-03-8.07146E-04
 -1       581-8.04348E-02-9.71334E-01-1.99081E-05
 -1       582-8.04359E-02-9.71559E-01 1.91160E-05
 -1       583-8.01510E-02-9.43001E-01-2.92033E-07
 -1       584-1.23242E-03-7.92887E-04 3.88475E-04
 -1       585-1.25295E-03-6.50021E-04 6.14751E-04
 -1       586-3.40217E-03-1.45662E-03 1.30333E-03
 -1       587-1.24188E-03-6.47232E-04-6.07978E-04
 -1       588-1.22274E-03-7.88974E-04-3.82659E-04
 -1       589-3.39058E-03-1.45316E-03-1.29939E-03
 -1       590-8.05400E-02-9.85504E-01 9.47555E-06
 -1       591-8.05411E-02-9.85506E-01 7.59420E-06
 -1       592-8.03583E-02-9.63460E-01 3.55444E-05
 -1       593-8.05430E-02-9.85392E-01-7.55282E-06
 -1       594-8.05392E-02-9.85391E-01-1.00972E-05
 -1       595-8.03577E-02-9.63347E-01-3.62919E-05
 -1       596-1.35414E-03-8.67963E-04-2.50750E-04
 -1       597-1.36047E-03-8.76432E-04-8.61906E-05
 -1       598-2.70254E-03-1.49326E-03-5.38956E-04
 -1       599-1.45863E-03-9.62992E-04 8.61092E-05
 -1       600-1.41301E-03-8.98891E-04 2.71439E-04
 -1       601-2.93046E-03-1.71421E-03 9.43072E-06
 -1       602-2.77865E-03-1.52143E-03 5.58443E-04
 -1       603-8.05262E-02-9.83230E-01-2.58893E-06
 -1       604-8.05233E-02-9.83231E-01-6.45291E-06
 -1       605-8.04161E-02-9.69171E-01-1.55750E-05
 -1       606-8.05312E-02-9.83894E-01 6.14252E-06
 -1       607-8.05274E-02-9.83897E-01 1.79527E-06
 -1       608-8.04016E-02-9.67675E-01-7.50263E-07
 -1       609-8.04225E-02-9.69949E-01 1.47386E-05
 -1       610-7.13196E-03-4.43551E-03-1.48579E-03
 -1       611-5.05254E-03-2.60820E-03-1.36006E-03
 -1       612-4.24734E-03-2.27689E-03-9.24897E-04
 -1       613-1.13229E-02-1.00997E-02-1.53252E-03
 -1       614-9.28097E-03-7.00034E-03-1.53214E-03
 -1       615-8.13823E-03-5.89128E-03-9.81208E-04
 -1       616-1.53080E-02-1.80634E-02-1.49672E-03
 -1       617-1.33258E-02-1.37779E-02-1.51821E-03
 -1       618-1.23175E-02-1.21744E-02-1.00555E-03
 -1       619-1.91958E-02-2.83659E-02-1.44856E-03
 -1       620-1.72695E-02-2.29330E-02-1.47491E-03
 -1       621-1.62920E-02-2.07196E-02-9.82382E-04
 -1       622-2.29579E-02-4.09097E-02-1.39639E-03
 -1       623-2.10949E-02-3.43689E-02-1.42295E-03
 -1       624-2.01518E-02-3.15863E-02-9.49862E-04
 -1       625-2.65992E-02-5.56022E-02-1.34695E-03
 -1       626-2.47919E-02-4.79946E-02-1.37063E-03
 -1       627-2.38873E-02-4.46718E-02-9.14056E-04
 -1       628-3.01219E-02-7.23693E-02-1.29459E-03
 -1       629-2.83754E-02-6.37321E-02-1.32106E-03
 -1       630-2.74970E-02-5.98843E-02-8.79744E-04
 -1       631-3.35222E-02-9.11372E-02-1.24729E-03
 -1       632-3.18374E-02-8.15080E-02-1.27007E-03
 -1       633-3.09877E-02-7.71476E-02-8.43637E-04
 -1       634-3.68124E-02-1.11832E-01-1.19728E-03
 -1       635-3.51832E-02-1.01247E-01-1.22261E-03
 -1       636-3.43658E-02-9.63928E-02-8.13006E-04
 -1       637-3.99827E-02-1.34377E-01-1.14663E-03
 -1       638-3.84114E-02-1.22877E-01-1.17296E-03
 -1       639-3.76255E-02-1.17548E-01-7.80199E-04
 -1       640-4.30363E-02-1.58697E-01-1.09703E-03
 -1       641-4.15242E-02-1.46320E-01-1.12242E-03
 -1       642-4.07640E-02-1.40532E-01-7.46758E-04
 -1       643-4.59717E-02-1.84713E-01-1.04958E-03
 -1       644-4.45191E-02-1.71498E-01-1.07241E-03
 -1       645-4.37862E-02-1.65274E-01-7.13639E-04
 -1       646-4.87989E-02-2.12339E-01-1.00170E-03
 -1       647-4.73999E-02-1.98321E-01-1.02700E-03
 -1       648-4.66985E-02-1.91680E-01-6.85095E-04
 -1       649-5.15015E-02-2.41470E-01-9.50397E-04
 -1       650-5.01624E-02-2.26690E-01-9.76535E-04
 -1       651-4.94876E-02-2.19638E-01-6.53953E-04
 -1       652-5.40945E-02-2.72109E-01-9.02683E-04
 -1       653-5.28124E-02-2.56603E-01-9.28079E-04
 -1       654-5.21639E-02-2.49113E-01-6.21206E-04
 -1       655-5.65789E-02-3.04241E-01-8.51307E-04
 -1       656-5.53518E-02-2.88047E-01-8.74926E-04
 -1       657-5.47335E-02-2.80180E-01-5.87435E-04
 -1       658-5.89436E-02-3.37607E-01-8.00833E-04
 -1       659-5.77757E-02-3.20764E-01-8.27195E-04
 -1       660-5.71873E-02-3.12640E-01-5.52799E-04
 -1       661-6.11881E-02-3.72214E-01-7.53562E-04
 -1       662-6.00811E-02-3.54760E-01-7.76345E-04
 -1       663-5.95207E-02-3.46312E-01-5.18538E-04
 -1       664-6.33239E-02-4.07985E-01-7.02987E-04
 -1       665-6.22712E-02-3.89957E-01-7.28990E-04
 -1       666-6.17428E-02-3.81206E-01-4.87978E-04
 -1       667-6.53383E-02-4.44849E-01-6.52414E-04
 -1       668-6.43473E-02-4.26286E-01-6.79030E-04
 -1       669-6.38465E-02-4.17246E-01-4.54648E-04
 -1       670-6.72360E-02-4.82720E-01-6.04973E-04
 -1       671-6.62991E-02-4.63662E-01-6.27731E-04
 -1       672-6.58323E-02-4.54359E-01-4.21658E-04
 -1       673-6.90169E-02-5.21530E-01-5.55315E-04
 -1       674-6.81420E-02-5.02012E-01-5.80426E-04
 -1       675-6.76976E-02-4.92462E-01-3.90854E-04
 -1       676-7.06798E-02-5.61200E-01-5.04971E-04
 -1       677-6.98636E-02-5.41262E-01-5.31058E-04
 -1       678-6.94530E-02-5.31485E-01-3.57476E-04
 -1       679-7.22234E-02-6.01654E-01-4.56163E-04
 -1       680-7.14657E-02-5.81334E-01-4.80764E-04
 -1       681-7.10853E-02-5.71347E-01-3.24789E-04
 -1       682-7.36452E-02-6.42816E-01-4.06505E-04
 -1       683-7.29492E-02-6.22152E-01-4.32197E-04
 -1       684-7.25966E-02-6.11976E-01-2.92571E-04
 -1       685-7.49474E-02-6.84609E-01-3.57099E-04
 -1       686-7.43119E-02-6.63637E-01-3.82185E-04
 -1       687-7.39912E-02-6.53290E-01-2.59845E-04
 -1       688-7.61270E-02-7.26956E-01-3.08417E-04
 -1       689-7.55521E-02-7.05717E-01-3.32740E-04
 -1       690-7.52627E-02-6.95219E-01-2.27001E-04
 -1       691-7.71866E-02-7.69782E-01-2.58348E-04
 -1       692-7.66715E-02-7.48313E-01-2.84165E-04
 -1       693-7.64120E-02-7.37683E-01-1.95093E-04
 -1       694-7.81176E-02-8.13014E-01-2.08329E-04
 -1       695-7.76676E-02-7.91354E-01-2.34476E-04
 -1       696-7.74371E-02-7.80609E-01-1.62345E-04
 -1       697-7.89255E-02-8.56567E-01-1.60425E-04
 -1       698-7.85349E-02-8.34754E-01-1.84021E-04
 -1       699-7.83390E-02-8.23916E-01-1.29293E-04
 -1       700-7.96111E-02-9.00465E-01-1.09101E-04
 -1       701-7.92846E-02-8.78536E-01-1.36033E-04
 -1       702-7.91149E-02-8.67622E-01-9.80555E-05
 -1       703-8.01760E-02-9.45385E-01-5.50844E-05
 -1       704-7.99166E-02-9.23376E-01-8.20915E-05
 -1       705-7.97789E-02-9.12494E-01-6.13027E-05
 -1       706-8.02619E-02-9.53369E-01-3.42080E-05
 -1       707-5.04669E-03-2.60219E-03 1.36050E-03
 -1       708-7.12572E-03-4.42843E-03 1.48656E-03
 -1       709-4.25265E-03-2.27623E-03 9.28608E-04
 -1       710-9.27279E-03-6.98724E-03 1.53466E-03
 -1       711-1.13143E-02-1.00843E-02 1.53516E-03
 -1       712-8.12449E-03-5.87194E-03 9.84067E-04
 -1       713-1.33356E-02-1.37977E-02 1.51623E-03
 -1       714-1.53200E-02-1.80869E-02 1.49346E-03
 -1       715-1.23227E-02-1.21765E-02 1.00640E-03
 -1       716-1.72344E-02-2.28409E-02 1.47821E-03
 -1       717-1.91617E-02-2.82637E-02 1.45284E-03
 -1       718-1.62680E-02-2.06573E-02 9.84624E-04
 -1       719-2.11299E-02-3.44890E-02 1.42782E-03
 -1       720-2.29941E-02-4.10389E-02 1.40167E-03
 -1       721-2.01542E-02-3.15985E-02 9.59993E-04
 -1       722-2.47950E-02-4.79953E-02 1.36909E-03
 -1       723-2.66016E-02-5.56040E-02 1.34396E-03
 -1       724-2.39250E-02-4.48095E-02 9.17351E-04
 -1       725-2.83763E-02-6.37330E-02 1.32011E-03
 -1       726-3.01213E-02-7.23712E-02 1.29399E-03
 -1       727-2.74996E-02-5.98863E-02 8.77079E-04
 -1       728-3.18350E-02-8.15076E-02 1.26927E-03
 -1       729-3.35245E-02-9.11369E-02 1.24656E-03
 -1       730-3.09914E-02-7.71481E-02 8.43667E-04
 -1       731-3.51834E-02-1.01247E-01 1.22211E-03
 -1       732-3.68128E-02-1.11831E-01 1.19587E-03
 -1       733-3.43626E-02-9.63928E-02 8.12944E-04
 -1       734-3.84117E-02-1.22878E-01 1.17190E-03
 -1       735-3.99820E-02-1.34377E-01 1.14617E-03
 -1       736-3.76232E-02-1.17549E-01 7.79234E-04
 -1       737-4.15242E-02-1.46320E-01 1.12183E-03
 -1       738-4.30362E-02-1.58698E-01 1.09643E-03
 -1       739-4.07664E-02-1.40532E-01 7.46409E-04
 -1       740-4.45167E-02-1.71497E-01 1.07173E-03
 -1       741-4.59741E-02-1.84713E-01 1.04895E-03
 -1       742-4.37898E-02-1.65274E-01 7.13662E-04
 -1       743-4.73987E-02-1.98306E-01 1.03145E-03
 -1       744-4.87956E-02-2.12324E-01 1.00607E-03
 -1       745-4.66939E-02-1.91666E-01 6.90046E-04
 -1       746-5.01632E-02-2.26706E-01 9.81939E-04
 -1       747-5.15033E-02-2.41486E-01 9.55604E-04
 -1       748-4.94893E-02-2.19640E-01 6.63496E-04
 -1       749-5.28139E-02-2.56633E-01 9.29223E-04
 -1       750-5.40976E-02-2.72139E-01 9.05388E-04
 -1       751-5.21672E-02-2.49162E-01 6.28509E-04
 -1       752-5.53550E-02-2.88042E-01 8.78618E-04
 -1       753-5.65790E-02-3.04236E-01 8.52242E-04
 -1       754-5.47344E-02-2.80207E-01 5.92184E-04
 -1       755-5.77759E-02-3.20764E-01 8.25675E-04
 -1       756-5.89426E-02-3.37608E-01 8.00721E-04
 -1       757-5.71908E-02-3.12633E-01 5.53989E-04
 -1       758-6.00809E-02-3.54760E-01 7.76467E-04
 -1       759-6.11908E-02-3.72215E-01 7.52086E-04
 -1       760-5.95251E-02-3.46312E-01 5.18825E-04
 -1       761-6.22712E-02-3.89959E-01 7.27543E-04
 -1       762-6.33233E-02-4.07986E-01 7.01435E-04
 -1       763-6.17447E-02-3.81207E-01 4.86755E-04
 -1       764-6.43451E-02-4.26285E-01 6.77485E-04
 -1       765-6.53367E-02-4.44847E-01 6.53468E-04
 -1       766-6.38440E-02-4.17248E-01 4.53160E-04
 -1       767-6.63019E-02-4.63661E-01 6.28813E-04
 -1       768-6.72363E-02-4.82720E-01 6.03974E-04
 -1       769-6.58325E-02-4.54358E-01 4.21821E-04
 -1       770-6.81415E-02-5.02012E-01 5.79731E-04
 -1       771-6.90175E-02-5.21530E-01 5.54689E-04
 -1       772-6.77020E-02-4.92463E-01 3.89720E-04
 -1       773-6.98632E-02-5.41262E-01 5.30254E-04
 -1       774-7.06807E-02-5.61200E-01 5.04069E-04
 -1       775-6.94535E-02-5.31485E-01 3.56833E-04
 -1       776-7.14675E-02-5.81335E-01 4.80049E-04
 -1       777-7.22227E-02-6.01656E-01 4.54847E-04
 -1       778-7.10841E-02-5.71347E-01 3.23184E-04
 -1       779-7.29459E-02-6.22151E-01 4.29980E-04
 -1       780-7.36448E-02-6.42815E-01 4.07384E-04
 -1       781-7.25969E-02-6.11976E-01 2.91389E-04
 -1       782-7.43122E-02-6.63637E-01 3.83152E-04
 -1       783-7.49484E-02-6.84608E-01 3.56461E-04
 -1       784-7.39867E-02-6.53290E-01 2.60773E-04
 -1       785-7.55538E-02-7.05718E-01 3.32073E-04
 -1       786-7.61275E-02-7.26957E-01 3.07579E-04
 -1       787-7.52605E-02-6.95219E-01 2.26163E-04
 -1       788-7.66706E-02-7.48314E-01 2.83067E-04
 -1       789-7.71855E-02-7.69783E-01 2.58321E-04
 -1       790-7.64119E-02-7.37684E-01 1.94566E-04
 -1       791-7.76671E-02-7.91353E-01 2.34762E-04
 -1       792-7.81180E-02-8.13013E-01 2.08880E-04
 -1       793-7.74359E-02-7.80609E-01 1.62563E-04
 -1       794-7.85379E-02-8.34754E-01 1.84274E-04
 -1       795-7.89273E-02-8.56568E-01 1.59933E-04
 -1       796-7.83403E-02-8.23915E-01 1.29383E-04
 -1       797-7.92803E-02-8.78219E-01 1.36374E-04
 -1       798-7.96056E-02-9.00147E-01 1.09546E-04
 -1       799-7.91105E-02-8.67305E-01 9.86398E-05
 -1       800-7.99152E-02-9.23271E-01 8.24611E-05
 -1       801-8.01747E-02-9.45280E-01 5.44479E-05
 -1       802-7.97740E-02-9.12070E-01 6.21989E-05
 -1       803-8.02625E-02-9.53376E-01 3.34085E-05
 -1       804-7.14777E-02-5.81494E-01-1.58311E-04
 -1       805-7.06920E-02-5.61368E-01-1.67021E-04
 -1       806-6.98758E-02-5.41439E-01-1.74379E-04
 -1       807-6.90296E-02-5.21713E-01-1.83565E-04
 -1       808-7.02855E-02-5.51399E-01-2.64151E-07
 -1       809-7.55631E-02-7.05827E-01-1.09525E-04
 -1       810-7.49586E-02-6.84727E-01-1.17912E-04
 -1       811-7.66828E-02-7.48408E-01-9.29531E-05
 -1       812-7.61379E-02-7.27059E-01-1.02151E-04
 -1       813-7.58498E-02-7.16440E-01-1.01568E-06
 -1       814-7.89361E-02-8.56572E-01 5.37693E-05
 -1       815-7.92893E-02-8.78213E-01 4.43752E-05
 -1       816-7.95979E-02-8.99020E-01 3.76380E-05
 -1       817-7.94397E-02-8.88237E-01 2.82114E-07
 -1       818-7.99070E-02-9.22132E-01 2.56837E-05
 -1       819-6.43589E-02-4.26511E-01-2.22306E-04
 -1       820-6.33357E-02-4.08218E-01-2.32334E-04
 -1       821-6.22843E-02-3.90200E-01-2.40137E-04
 -1       822-6.12015E-02-3.72464E-01-2.47863E-04
 -1       823-6.28108E-02-3.99203E-01-5.55421E-07
 -1       824-6.53495E-02-4.45064E-01 2.15091E-04
 -1       825-6.63139E-02-4.63870E-01 2.06873E-04
 -1       826-6.72494E-02-4.82921E-01 2.00006E-04
 -1       827-6.81544E-02-5.02205E-01 1.90215E-04
 -1       828-6.67812E-02-4.73391E-01-2.08659E-08
 -1       829-7.22349E-02-6.01807E-01 1.49687E-04
 -1       830-7.29588E-02-6.22295E-01 1.41973E-04
 -1       831-7.36533E-02-6.42951E-01 1.34405E-04
 -1       832-7.43229E-02-6.63765E-01 1.24961E-04
 -1       833-7.33099E-02-6.32619E-01 3.56137E-07
 -1       834-7.81287E-02-8.13082E-01 6.90748E-05
 -1       835-7.85480E-02-8.34815E-01 6.05301E-05
 -1       836-7.71946E-02-7.69869E-01 8.63084E-05
 -1       837-7.76775E-02-7.91431E-01 7.66514E-05
 -1       838-7.79045E-02-8.02255E-01 4.08067E-08
 -1       839-5.65927E-02-3.04519E-01 2.82868E-04
 -1       840-5.77890E-02-3.21039E-01 2.71743E-04
 -1       841-5.89562E-02-3.37874E-01 2.63821E-04
 -1       842-6.00943E-02-3.55018E-01 2.54003E-04
 -1       843-5.83749E-02-3.29450E-01-4.63022E-07
 -1       844-2.11010E-02-3.48276E-02-4.68085E-04
 -1       845-1.92016E-02-2.88346E-02-4.79384E-04
 -1       846-2.29703E-02-4.13730E-02-4.61861E-04
 -1       847-2.20359E-02-3.80895E-02 1.39337E-06
 -1       848-2.48050E-02-4.84503E-02-4.53037E-04
 -1       849-3.18474E-02-8.19298E-02-4.17527E-04
 -1       850-3.01339E-02-7.27995E-02-4.27633E-04
 -1       851-2.83880E-02-6.41705E-02-4.34365E-04
 -1       852-2.66102E-02-5.60498E-02-4.46206E-04
 -1       853-2.92644E-02-6.84749E-02-8.70482E-07
 -1       854-1.13034E-02-1.05846E-02 5.05974E-04
 -1       855-1.33356E-02-1.42959E-02 4.98171E-04
 -1       856-1.43151E-02-1.63951E-02-5.21490E-07
 -1       857-1.53113E-02-1.85481E-02 4.91165E-04
 -1       858-1.72301E-02-2.32964E-02 4.92095E-04
 -1       859-4.45292E-02-1.71854E-01-3.52387E-04
 -1       860-4.30485E-02-1.59061E-01-3.62580E-04
 -1       861-4.15361E-02-1.46694E-01-3.69055E-04
 -1       862-3.99950E-02-1.34758E-01-3.78474E-04
 -1       863-4.22949E-02-1.52869E-01-9.04834E-07
 -1       864-5.01610E-02-2.26870E-01-3.17937E-04
 -1       865-4.87971E-02-2.12531E-01-3.28509E-04
 -1       866-5.15097E-02-2.41728E-01-3.11364E-04
 -1       867-5.08338E-02-2.34255E-01 6.36948E-06
 -1       868-5.28206E-02-2.56854E-01-3.04325E-04
 -1       869-3.51966E-02-1.01653E-01-4.02620E-04
 -1       870-3.35360E-02-9.15512E-02-4.10666E-04
 -1       871-3.84247E-02-1.23267E-01-3.85748E-04
 -1       872-3.68255E-02-1.12229E-01-3.94823E-04
 -1       873-3.60124E-02-1.06931E-01-8.82366E-07
 -1       874-7.18097E-03-5.00476E-03 4.63606E-04
 -1       875-9.35371E-03-7.63066E-03 5.00575E-04
 -1       876-5.56726E-03-3.47874E-03 4.35921E-04
 -1       877-6.81677E-03-4.68673E-03-1.48670E-06
 -1       878-4.44986E-03-2.55558E-03 6.01049E-04
 -1       879-4.09234E-03-2.39616E-03 1.90190E-04
 -1       880-1.33233E-02-1.42775E-02-4.99959E-04
 -1       881-1.13106E-02-1.05986E-02-5.03540E-04
 -1       882-9.36162E-03-7.64048E-03-5.05639E-04
 -1       883-1.03899E-02-9.19175E-03-4.05311E-06
 -1       884-7.18639E-03-5.01054E-03-4.71890E-04
 -1       885-7.99081E-02-9.22237E-01-2.55428E-05
 -1       886-7.96030E-02-8.99339E-01-3.64814E-05
 -1       887-8.01114E-02-9.39213E-01-2.04574E-05
 -1       888-7.99520E-02-9.26024E-01-3.14475E-08
 -1       889-8.02419E-02-9.51211E-01-2.41305E-05
 -1       890-8.02799E-02-9.55002E-01-7.67469E-06
 -1       891-5.77884E-02-3.21039E-01-2.71497E-04
 -1       892-5.65896E-02-3.04524E-01-2.81190E-04
 -1       893-5.53635E-02-2.88305E-01-2.87703E-04
 -1       894-5.41055E-02-2.72377E-01-2.98439E-04
 -1       895-5.59788E-02-2.96390E-01 2.26428E-07
 -1       896-7.92942E-02-8.78531E-01-4.40509E-05
 -1       897-7.89339E-02-8.56571E-01-5.44984E-05
 -1       898-7.85467E-02-8.34815E-01-6.12431E-05
 -1       899-7.81292E-02-8.13083E-01-6.88584E-05
 -1       900-7.87415E-02-8.45667E-01-2.48786E-07
 -1       901-2.66128E-02-5.60509E-02 4.43598E-04
 -1       902-2.83886E-02-6.41712E-02 4.33633E-04
 -1       903-2.30062E-02-4.15058E-02 4.67333E-04
 -1       904-2.48066E-02-4.84505E-02 4.50490E-04
 -1       905-2.57095E-02-5.22403E-02-2.85169E-07
 -1       906-4.30499E-02-1.59062E-01 3.60773E-04
 -1       907-4.45309E-02-1.71854E-01 3.52704E-04
 -1       908-4.59842E-02-1.85061E-01 3.45860E-04
 -1       909-4.74112E-02-1.98650E-01 3.42826E-04
 -1       910-4.52610E-02-1.78449E-01 1.31570E-07
 -1       911-5.41064E-02-2.72406E-01 3.02851E-04
 -1       912-5.53645E-02-2.88300E-01 2.90821E-04
 -1       913-5.28220E-02-2.56884E-01 3.11366E-04
 -1       914-5.34666E-02-2.64644E-01 4.03118E-06
 -1       915-5.15113E-02-2.41747E-01 3.22611E-04
 -1       916-3.35344E-02-9.15509E-02 4.10825E-04
 -1       917-3.51954E-02-1.01654E-01 4.00817E-04
 -1       918-3.01352E-02-7.28004E-02 4.25742E-04
 -1       919-3.18491E-02-8.19296E-02 4.17628E-04
 -1       920-3.26952E-02-8.67304E-02 1.60698E-08
 -1       921-3.99952E-02-1.34758E-01 3.77617E-04
 -1       922-4.15374E-02-1.46693E-01 3.68587E-04
 -1       923-3.68246E-02-1.12228E-01 3.94389E-04
 -1       924-3.84241E-02-1.23267E-01 3.84841E-04
 -1       925-3.92116E-02-1.29003E-01-5.03769E-07
 -1       926-4.02407E-03-2.36596E-03-1.68079E-04
 -1       927-4.38596E-03-2.52371E-03-5.85910E-04
 -1       928-5.57197E-03-3.48779E-03-4.29964E-04
 -1       929-8.02842E-02-9.55667E-01 6.39441E-06
 -1       930-8.02474E-02-9.51771E-01 2.24900E-05
 -1       931-8.01101E-02-9.39109E-01 1.94951E-05
 -1       932-7.06917E-02-5.61368E-01 1.66328E-04
 -1       933-7.14780E-02-5.81495E-01 1.56878E-04
 -1       934-6.90300E-02-5.21714E-01 1.82643E-04
 -1       935-6.98758E-02-5.41439E-01 1.73613E-04
 -1       936-7.49585E-02-6.84727E-01 1.18063E-04
 -1       937-7.55630E-02-7.05828E-01 1.08164E-04
 -1       938-7.61385E-02-7.27059E-01 1.01247E-04
 -1       939-7.66821E-02-7.48409E-01 9.32283E-05
 -1       940-6.33353E-02-4.08219E-01 2.31460E-04
 -1       941-6.43559E-02-4.26511E-01 2.21913E-04
 -1       942-6.12027E-02-3.72465E-01 2.47125E-04
 -1       943-6.22840E-02-3.90201E-01 2.38802E-04
 -1       944-6.63123E-02-4.63870E-01-2.07233E-04
 -1       945-6.53514E-02-4.45065E-01-2.15148E-04
 -1       946-6.81540E-02-5.02205E-01-1.90168E-04
 -1       947-6.72462E-02-4.82921E-01-2.00369E-04
 -1       948-7.29602E-02-6.22295E-01-1.41658E-04
 -1       949-7.22338E-02-6.01805E-01-1.51408E-04
 -1       950-7.43236E-02-6.63765E-01-1.25918E-04
 -1       951-7.36573E-02-6.42951E-01-1.34862E-04
 -1       952-1.72652E-02-2.33863E-02-4.88951E-04
 -1       953-1.53005E-02-1.85257E-02-4.94079E-04
 -1       954-1.82302E-02-2.60883E-02 8.38626E-07
 -1       955-2.11368E-02-3.49494E-02 4.76351E-04
 -1       956-1.91662E-02-2.87334E-02 4.86773E-04
 -1       957-7.18575E-02-5.91647E-01-9.37675E-07
 -1       958-6.00918E-02-3.55018E-01-2.54692E-04
 -1       959-5.89562E-02-3.37873E-01-2.64905E-04
 -1       960-6.48552E-02-4.35783E-01-8.81948E-08
 -1       961-4.74136E-02-1.98663E-01-3.39776E-04
 -1       962-4.59859E-02-1.85062E-01-3.45516E-04
 -1       963-4.81011E-02-2.05531E-01 2.78508E-06
 -1       964-4.87954E-02-2.12516E-01 3.39615E-04
 -1       965-5.01630E-02-2.26887E-01 3.30936E-04
 -1       966-7.46419E-02-6.74244E-01-9.04341E-08
 -1       967-7.76783E-02-7.91431E-01-7.63246E-05
 -1       968-7.71966E-02-7.69869E-01-8.60328E-05
 -1       969-7.69407E-02-7.59136E-01 2.45500E-07
 -1       970-6.06484E-02-3.63735E-01-5.73907E-07
 -1       971-6.85943E-02-5.11955E-01-1.81894E-08
 -1       972 6.47679E-02-5.52230E-01 3.41085E-04
 -1       973 6.80189E-02-7.17425E-01 2.12159E-04
 -1       974 6.90910E-02-8.90080E-01-8.22608E-05
 -1       975 5.92626E-02-3.99834E-01 4.70342E-04
 -1       976 6.22999E-02-4.74127E-01 4.05622E-04
 -1       977 6.66679E-02-6.33531E-01 2.77031E-04
 -1       978 6.88254E-02-8.03297E-01-1.46104E-04
 -1       979 5.56536E-02-3.29971E-01-5.36119E-04
 -1       980 2.18940E-02-3.79598E-02 9.30909E-04
 -1       981 2.89566E-02-6.84386E-02 8.59984E-04
 -1       982 1.42835E-02-1.62313E-02-9.90320E-04
 -1       983 4.13647E-02-1.53043E-01 7.30195E-04
 -1       984 4.91451E-02-2.34672E-01 6.34964E-04
 -1       985 3.54441E-02-1.06993E-01 7.95397E-04
 -1       986 5.93342E-03-3.65136E-03-9.12816E-04
 -1       987 1.02690E-02-8.81917E-03 1.00734E-03
 -1       988 6.90150E-02-9.36533E-01 4.55029E-05
 -1       989 6.57898E-02-5.92519E-01-3.08994E-04
 -1       990 5.36327E-02-2.96888E-01 5.68267E-04
 -1       991 6.90239E-02-8.46781E-01 1.14670E-04
 -1       992 6.08535E-02-4.36468E-01-4.38366E-04
 -1       993 6.74180E-02-6.75195E-01-2.43638E-04
 -1       994 6.36024E-02-5.12738E-01-3.73667E-04
 -1       995 2.54925E-02-5.21554E-02-8.93586E-04
 -1       996 4.41009E-02-1.78682E-01-6.97418E-04
 -1       997 5.14626E-02-2.65038E-01-6.10066E-04
 -1       998 3.22651E-02-8.67429E-02-8.27747E-04
 -1       999 3.84769E-02-1.29121E-01-7.63553E-04
 -1      1000 2.84574E-03-1.63947E-03 2.80399E-04
 -1      1001 6.88599E-02-9.69455E-01-8.71331E-06
 -1      1002 1.02529E-02-8.79164E-03-1.01394E-03
 -1      1003 1.42651E-02-1.61888E-02 9.93910E-04
 -1      1004 1.81508E-02-2.59421E-02 9.66055E-04
 -1      1005 2.00392E-02-3.19035E-02-3.28647E-06
 -1      1006 6.90892E-02-8.90716E-01 8.16775E-05
 -1      1007 6.57913E-02-5.92521E-01 3.08562E-04
 -1      1008 6.80231E-02-7.17425E-01-2.10988E-04
 -1      1009 5.92611E-02-3.99835E-01-4.70983E-04
 -1      1010 5.36264E-02-2.96876E-01-5.72782E-04
 -1      1011 5.56547E-02-3.29971E-01 5.35859E-04
 -1      1012 6.08496E-02-4.36466E-01 4.38644E-04
 -1      1013 5.75241E-02-3.64312E-01-5.03350E-04
 -1      1014 3.22662E-02-8.67409E-02 8.28512E-04
 -1      1015 4.40998E-02-1.78680E-01 6.98349E-04
 -1      1016 4.67016E-02-2.05937E-01 6.69878E-04
 -1      1017 4.79245E-02-2.20065E-01-6.36628E-06
 -1      1018 4.13610E-02-1.53044E-01-7.30991E-04
 -1      1019 6.22991E-02-4.74125E-01-4.06331E-04
 -1      1020 6.74161E-02-6.75193E-01 2.44696E-04
 -1      1021 5.14566E-02-2.64972E-01 6.07074E-04
 -1      1022 6.90257E-02-8.46783E-01-1.13137E-04
 -1      1023 6.88272E-02-8.03297E-01 1.46879E-04
 -1      1024 3.54469E-02-1.06994E-01-7.95847E-04
 -1      1025 2.89537E-02-6.84365E-02-8.60864E-04
 -1      1026 6.84918E-02-7.60149E-01 1.78817E-04
 -1      1027 6.47681E-02-5.52229E-01-3.41225E-04
 -1      1028 2.54986E-02-5.21554E-02 8.95405E-04
 -1      1029 5.75300E-02-3.64311E-01 5.03976E-04
 -1      1030 3.84757E-02-1.29121E-01 7.62730E-04
 -1      1031 6.84938E-02-7.60150E-01-1.78341E-04
 -1      1032 6.36041E-02-5.12740E-01 3.73732E-04
 -1      1033 6.66722E-02-6.33533E-01-2.76159E-04
 -1      1034 8.40695E-03-6.50839E-03 6.44004E-06
 -1      1035 1.22841E-02-1.24683E-02 6.86473E-08
 -1      1036 2.19693E-02-3.82161E-02-9.41037E-04
 -1      1037 2.99088E-03-1.70984E-03-3.06118E-04
 -1      1038 4.67013E-02-2.05905E-01-6.79506E-04
 -1      1039 5.03222E-02-2.49826E-01-5.69842E-06
 -1      1040 6.90755E-02-9.10174E-01 9.88035E-07
 -1      1041 1.80856E-02-2.57472E-02-9.76367E-04
 -1      1042 6.90739E-02-8.68553E-01-9.05850E-07
 -1      1043 2.37159E-02-4.50226E-02 9.78517E-08
 -1      1044 6.77360E-02-6.96299E-01-3.12678E-07
 -1      1045 6.82759E-02-7.38779E-01 2.18036E-06
 -1      1046 6.62482E-02-6.13013E-01 2.38439E-07
 -1      1047 6.89405E-02-8.25033E-01 5.89191E-07
 -1      1048 6.15925E-02-4.55275E-01-3.42243E-08
 -1      1049 5.66100E-02-3.47115E-01-1.06272E-06
 -1      1050 6.29656E-02-4.93414E-01 1.48099E-06
 -1      1051 6.42027E-02-5.32466E-01 4.09447E-07
 -1      1052 6.86772E-02-7.81717E-01-3.42901E-08
 -1      1053 6.70628E-02-6.54352E-01-1.61854E-06
 -1      1054 5.25632E-02-2.80920E-01-1.99634E-06
 -1      1055 2.72445E-02-6.02550E-02 1.39871E-06
 -1      1056 3.06321E-02-7.75479E-02-1.64210E-06
 -1      1057 5.84131E-02-3.82051E-01-1.09150E-06
 -1      1058 3.69790E-02-1.18021E-01 2.52072E-07
 -1      1059 3.99378E-02-1.41045E-01 3.12823E-07
 -1      1060 3.38771E-02-9.68298E-02-1.54007E-06
 -1      1061 6.00754E-02-4.18129E-01-8.50782E-07
 -1      1062 6.52963E-02-5.72358E-01 8.05049E-08
 -1      1063 4.27534E-02-1.65826E-01-1.47353E-06
 -1      1064 5.46615E-02-3.13403E-01 1.78158E-06
 -1      1065 4.54243E-02-1.92288E-01-1.65910E-06
 -1      1066 4.91522E-02-2.34708E-01-6.47138E-04
 -1      1067 1.62093E-02-2.09865E-02-9.47271E-08
 -1      1068 6.88717E-02-9.68125E-01 1.12189E-05
 -1      1069 5.94617E-03-3.66414E-03 9.09905E-04
 -1      1070 6.90156E-02-9.36322E-01-4.41423E-05
 -1      1071 5.19427E-03-3.24616E-03-3.63019E-06
 -1      1072 2.56805E-03-1.30646E-03-8.11927E-04
 -1      1073 2.54737E-03-1.31976E-03 8.00218E-04
 -1      1074 6.88430E-02-9.72448E-01 2.14006E-05
 -1      1075 6.88425E-02-9.72674E-01-1.95388E-05
 -1      1076 6.89842E-02-9.44114E-01 6.27921E-07
 -1      1077 1.24906E-03-6.54067E-04-6.11797E-04
 -1      1078 1.23117E-03-7.97327E-04-3.86379E-04
 -1      1079 3.39459E-03-1.46327E-03-1.30294E-03
 -1      1080 1.19778E-03-7.46456E-04 3.83003E-04
 -1      1081 1.24076E-03-6.48345E-04 6.01837E-04
 -1      1082 3.38221E-03-1.46719E-03 1.29802E-03
 -1      1083 6.87395E-02-9.86621E-01-7.70742E-06
 -1      1084 6.87385E-02-9.86618E-01-9.61822E-06
 -1      1085 6.88861E-02-9.64575E-01-3.60858E-05
 -1      1086 6.87395E-02-9.86505E-01 1.11837E-05
 -1      1087 6.87428E-02-9.86507E-01 8.25540E-06
 -1      1088 6.88871E-02-9.64463E-01 3.70270E-05
 -1      1089 1.35365E-03-8.78529E-04 8.58628E-05
 -1      1090 1.38612E-03-9.05542E-04 2.51875E-04
 -1      1091 2.70487E-03-1.50995E-03 5.29642E-04
 -1      1092 1.40890E-03-8.99438E-04-2.70430E-04
 -1      1093 1.45080E-03-9.64617E-04-8.58683E-05
 -1      1094 2.92300E-03-1.71305E-03-7.27713E-06
 -1      1095 2.77183E-03-1.52819E-03-5.56257E-04
 -1      1096 6.87556E-02-9.84346E-01 6.97593E-06
 -1      1097 6.87584E-02-9.84345E-01 3.04484E-06
 -1      1098 6.88580E-02-9.70286E-01 1.65311E-05
 -1      1099 6.87499E-02-9.85011E-01-1.30208E-06
 -1      1100 6.87540E-02-9.85009E-01-5.97179E-06
 -1      1101 6.88661E-02-9.68791E-01 1.22203E-06
 -1      1102 6.88528E-02-9.71064E-01-1.48906E-05
 -1      1103 5.04450E-03-2.61742E-03 1.35795E-03
 -1      1104 7.11880E-03-4.44797E-03 1.48569E-03
 -1      1105 4.24028E-03-2.28887E-03 9.20830E-04
 -1      1106 9.26230E-03-7.02652E-03 1.53040E-03
 -1      1107 1.12929E-02-1.01302E-02 1.53080E-03
 -1      1108 8.12091E-03-5.91019E-03 9.78600E-04
 -1      1109 1.32840E-02-1.38179E-02 1.51696E-03
 -1      1110 1.52549E-02-1.81145E-02 1.49519E-03
 -1      1111 1.22838E-02-1.22098E-02 1.00400E-03
 -1      1112 1.71953E-02-2.29985E-02 1.47319E-03
 -1      1113 1.90983E-02-2.84447E-02 1.44771E-03
 -1      1114 1.62227E-02-2.07775E-02 9.81330E-04
 -1      1115 2.09693E-02-3.44613E-02 1.42237E-03
 -1      1116 2.28030E-02-4.10160E-02 1.39628E-03
 -1      1117 2.00371E-02-3.16737E-02 9.49643E-04
 -1      1118 2.46051E-02-4.81215E-02 1.37095E-03
 -1      1119 2.63683E-02-5.57478E-02 1.34497E-03
 -1      1120 2.37115E-02-4.47878E-02 9.13210E-04
 -1      1121 2.80975E-02-6.38957E-02 1.31912E-03
 -1      1122 2.97906E-02-7.25548E-02 1.29380E-03
 -1      1123 2.72437E-02-6.00375E-02 8.77833E-04
 -1      1124 3.14457E-02-8.17116E-02 1.26922E-03
 -1      1125 3.30705E-02-9.13621E-02 1.24564E-03
 -1      1126 3.06290E-02-7.73421E-02 8.43450E-04
 -1      1127 3.46581E-02-1.01496E-01 1.22136E-03
 -1      1128 3.62108E-02-1.12101E-01 1.19579E-03
 -1      1129 3.38714E-02-9.66304E-02 8.12016E-04
 -1      1130 3.77258E-02-1.23171E-01 1.17196E-03
 -1      1131 3.92051E-02-1.34694E-01 1.14622E-03
 -1      1132 3.69759E-02-1.17830E-01 7.79140E-04
 -1      1133 4.06492E-02-1.46660E-01 1.12189E-03
 -1      1134 4.20561E-02-1.59063E-01 1.09651E-03
 -1      1135 3.99372E-02-1.40861E-01 7.46334E-04
 -1      1136 4.34244E-02-1.71887E-01 1.07188E-03
 -1      1137 4.47623E-02-1.85128E-01 1.04919E-03
 -1      1138 4.27504E-02-1.65652E-01 7.13620E-04
 -1      1139 4.60616E-02-1.98762E-01 1.02710E-03
 -1      1140 4.73246E-02-2.12804E-01 1.00067E-03
 -1      1141 4.54166E-02-1.92108E-01 6.85414E-04
 -1      1142 4.85473E-02-2.27180E-01 9.75585E-04
 -1      1143 4.97384E-02-2.41984E-01 9.51390E-04
 -1      1144 4.79397E-02-2.20113E-01 6.52191E-04
 -1      1145 5.08926E-02-2.57143E-01 9.29324E-04
 -1      1146 5.20117E-02-2.72673E-01 9.03165E-04
 -1      1147 5.03165E-02-2.49641E-01 6.22119E-04
 -1      1148 5.30992E-02-2.88639E-01 8.76218E-04
 -1      1149 5.41451E-02-3.04857E-01 8.50612E-04
 -1      1150 5.25606E-02-2.80759E-01 5.87670E-04
 -1      1151 5.51559E-02-3.21404E-01 8.26393E-04
 -1      1152 5.61296E-02-3.38272E-01 8.01409E-04
 -1      1153 5.46608E-02-3.13266E-01 5.52083E-04
 -1      1154 5.70670E-02-3.55448E-01 7.77254E-04
 -1      1155 5.79706E-02-3.72926E-01 7.52289E-04
 -1      1156 5.66091E-02-3.46989E-01 5.19321E-04
 -1      1157 5.88367E-02-3.90695E-01 7.27951E-04
 -1      1158 5.96680E-02-4.08744E-01 7.02206E-04
 -1      1159 5.84119E-02-3.81931E-01 4.87318E-04
 -1      1160 6.04618E-02-4.27067E-01 6.78705E-04
 -1      1161 6.12209E-02-4.45649E-01 6.53856E-04
 -1      1162 6.00717E-02-4.18019E-01 4.54772E-04
 -1      1163 6.19453E-02-4.64486E-01 6.29829E-04
 -1      1164 6.26318E-02-4.83566E-01 6.04040E-04
 -1      1165 6.15903E-02-4.55171E-01 4.22093E-04
 -1      1166 6.32841E-02-5.02878E-01 5.79919E-04
 -1      1167 6.39007E-02-5.22416E-01 5.55037E-04
 -1      1168 6.29684E-02-4.93318E-01 3.89760E-04
 -1      1169 6.44826E-02-5.42166E-01 5.30859E-04
 -1      1170 6.50294E-02-5.62123E-01 5.05649E-04
 -1      1171 6.42021E-02-5.32379E-01 3.57291E-04
 -1      1172 6.55410E-02-5.82274E-01 4.81248E-04
 -1      1173 6.60167E-02-6.02613E-01 4.55862E-04
 -1      1174 6.52957E-02-5.72278E-01 3.24665E-04
 -1      1175 6.64549E-02-6.23124E-01 4.31294E-04
 -1      1176 6.68638E-02-6.43804E-01 4.07807E-04
 -1      1177 6.62469E-02-6.12941E-01 2.92255E-04
 -1      1178 6.72365E-02-6.64641E-01 3.83886E-04
 -1      1179 6.75746E-02-6.85625E-01 3.57618E-04
 -1      1180 6.70577E-02-6.54288E-01 2.60876E-04
 -1      1181 6.78772E-02-7.06747E-01 3.33360E-04
 -1      1182 6.81460E-02-7.27997E-01 3.08991E-04
 -1      1183 6.77326E-02-6.96243E-01 2.27110E-04
 -1      1184 6.83811E-02-7.49367E-01 2.84665E-04
 -1      1185 6.85826E-02-7.70846E-01 2.60012E-04
 -1      1186 6.82709E-02-7.38731E-01 1.95700E-04
 -1      1187 6.87493E-02-7.92425E-01 2.36093E-04
 -1      1188 6.88818E-02-8.14094E-01 2.09398E-04
 -1      1189 6.86736E-02-7.81677E-01 1.63864E-04
 -1      1190 6.89806E-02-8.35844E-01 1.85123E-04
 -1      1191 6.90463E-02-8.57663E-01 1.60238E-04
 -1      1192 6.89400E-02-8.25001E-01 1.29801E-04
 -1      1193 6.90786E-02-8.79638E-01 1.36321E-04
 -1      1194 6.90784E-02-9.01572E-01 1.10122E-04
 -1      1195 6.90714E-02-8.68721E-01 9.82103E-05
 -1      1196 6.90427E-02-9.24487E-01 8.35368E-05
 -1      1197 6.89740E-02-9.46498E-01 5.59193E-05
 -1      1198 6.90673E-02-9.13604E-01 6.23609E-05
 -1      1199 6.89398E-02-9.54484E-01 3.47011E-05
 -1      1200 7.11239E-03-4.43992E-03-1.48790E-03
 -1      1201 5.03833E-03-2.61023E-03-1.36010E-03
 -1      1202 4.24371E-03-2.28428E-03-9.27976E-04
 -1      1203 1.12854E-02-1.01141E-02-1.53420E-03
 -1      1204 9.25402E-03-7.01335E-03-1.53404E-03
 -1      1205 8.10675E-03-5.89053E-03-9.83592E-04
 -1      1206 1.52625E-02-1.81378E-02-1.49317E-03
 -1      1207 1.32944E-02-1.38393E-02-1.51513E-03
 -1      1208 1.22827E-02-1.22129E-02-1.00437E-03
 -1      1209 1.90658E-02-2.83418E-02-1.45268E-03
 -1      1210 1.71611E-02-2.29045E-02-1.47814E-03
 -1      1211 1.62006E-02-2.07145E-02-9.84356E-04
 -1      1212 2.28384E-02-4.11503E-02-1.40023E-03
 -1      1213 2.10068E-02-3.45829E-02-1.42718E-03
 -1      1214 2.00426E-02-3.16837E-02-9.59704E-04
 -1      1215 2.63673E-02-5.57482E-02-1.34453E-03
 -1      1216 2.46009E-02-4.81224E-02-1.36789E-03
 -1      1217 2.37477E-02-4.49290E-02-9.16614E-04
 -1      1218 2.97910E-02-7.25529E-02-1.29397E-03
 -1      1219 2.80967E-02-6.38956E-02-1.32040E-03
 -1      1220 2.72393E-02-6.00396E-02-8.77295E-04
 -1      1221 3.30685E-02-9.13628E-02-1.24672E-03
 -1      1222 3.14482E-02-8.17123E-02-1.26948E-03
 -1      1223 3.06250E-02-7.73416E-02-8.43040E-04
 -1      1224 3.62105E-02-1.12102E-01-1.19678E-03
 -1      1225 3.46587E-02-1.01494E-01-1.22209E-03
 -1      1226 3.38739E-02-9.66295E-02-8.12403E-04
 -1      1227 3.92059E-02-1.34694E-01-1.14617E-03
 -1      1228 3.77254E-02-1.23171E-01-1.17244E-03
 -1      1229 3.69785E-02-1.17830E-01-7.79594E-04
 -1      1230 4.20555E-02-1.59062E-01-1.09728E-03
 -1      1231 4.06492E-02-1.46661E-01-1.12200E-03
 -1      1232 3.99343E-02-1.40862E-01-7.46153E-04
 -1      1233 4.47597E-02-1.85128E-01-1.04920E-03
 -1      1234 4.34265E-02-1.71888E-01-1.07288E-03
 -1      1235 4.27475E-02-1.65651E-01-7.14018E-04
 -1      1236 4.73246E-02-2.12788E-01-1.00620E-03
 -1      1237 4.60598E-02-1.98744E-01-1.03155E-03
 -1      1238 4.54191E-02-1.92093E-01-6.89542E-04
 -1      1239 4.97397E-02-2.42002E-01-9.56074E-04
 -1      1240 4.85497E-02-2.27196E-01-9.82441E-04
 -1      1241 4.79418E-02-2.20117E-01-6.64386E-04
 -1      1242 5.20132E-02-2.72706E-01-9.04120E-04
 -1      1243 5.08951E-02-2.57174E-01-9.29579E-04
 -1      1244 5.03242E-02-2.49690E-01-6.28501E-04
 -1      1245 5.41444E-02-3.04850E-01-8.54198E-04
 -1      1246 5.30956E-02-2.88632E-01-8.76883E-04
 -1      1247 5.25628E-02-2.80785E-01-5.91049E-04
 -1      1248 5.61301E-02-3.38272E-01-8.00774E-04
 -1      1249 5.51561E-02-3.21404E-01-8.27676E-04
 -1      1250 5.46559E-02-3.13261E-01-5.55554E-04
 -1      1251 5.79697E-02-3.72926E-01-7.52564E-04
 -1      1252 5.70674E-02-3.55449E-01-7.76481E-04
 -1      1253 5.66047E-02-3.46989E-01-5.18652E-04
 -1      1254 5.96675E-02-4.08743E-01-7.03011E-04
 -1      1255 5.88368E-02-3.90695E-01-7.28357E-04
 -1      1256 5.84097E-02-3.81931E-01-4.87297E-04
 -1      1257 6.12207E-02-4.45651E-01-6.53462E-04
 -1      1258 6.04633E-02-4.27066E-01-6.79206E-04
 -1      1259 6.00727E-02-4.18016E-01-4.54490E-04
 -1      1260 6.26325E-02-4.83565E-01-6.04129E-04
 -1      1261 6.19432E-02-4.64485E-01-6.29163E-04
 -1      1262 6.15929E-02-4.55172E-01-4.22105E-04
 -1      1263 6.39006E-02-5.22415E-01-5.55780E-04
 -1      1264 6.32842E-02-5.02879E-01-5.80108E-04
 -1      1265 6.29663E-02-4.93319E-01-3.90070E-04
 -1      1266 6.50292E-02-5.62123E-01-5.05218E-04
 -1      1267 6.44829E-02-5.42166E-01-5.31429E-04
 -1      1268 6.42018E-02-5.32380E-01-3.57667E-04
 -1      1269 6.60174E-02-6.02611E-01-4.56476E-04
 -1      1270 6.55399E-02-5.82274E-01-4.81056E-04
 -1      1271 6.52948E-02-5.72278E-01-3.24785E-04
 -1      1272 6.68644E-02-6.43805E-01-4.06816E-04
 -1      1273 6.64580E-02-6.23125E-01-4.32509E-04
 -1      1274 6.62460E-02-6.12942E-01-2.92593E-04
 -1      1275 6.75740E-02-6.85627E-01-3.57374E-04
 -1      1276 6.72369E-02-6.64641E-01-3.82502E-04
 -1      1277 6.70614E-02-6.54286E-01-2.59895E-04
 -1      1278 6.81452E-02-7.27999E-01-3.08408E-04
 -1      1279 6.78764E-02-7.06748E-01-3.32889E-04
 -1      1280 6.77366E-02-6.96243E-01-2.27069E-04
 -1      1281 6.85825E-02-7.70847E-01-2.58426E-04
 -1      1282 6.83803E-02-7.49367E-01-2.84139E-04
 -1      1283 6.82741E-02-7.38732E-01-1.94715E-04
 -1      1284 6.88799E-02-8.14095E-01-2.09088E-04
 -1      1285 6.87480E-02-7.92427E-01-2.34791E-04
 -1      1286 6.86740E-02-7.81678E-01-1.62416E-04
 -1      1287 6.90460E-02-8.57665E-01-1.60106E-04
 -1      1288 6.89798E-02-8.35843E-01-1.84873E-04
 -1      1289 6.89410E-02-8.25001E-01-1.29360E-04
 -1      1290 6.90780E-02-9.01255E-01-1.10526E-04
 -1      1291 6.90784E-02-8.79319E-01-1.36580E-04
 -1      1292 6.90735E-02-8.68403E-01-9.82902E-05
 -1      1293 6.89740E-02-9.46394E-01-5.51023E-05
 -1      1294 6.90421E-02-9.24381E-01-8.25742E-05
 -1      1295 6.90706E-02-9.13180E-01-6.30135E-05
 -1      1296 6.89404E-02-9.54490E-01-3.41747E-05
 -1      1297 6.50365E-02-5.62291E-01 1.66741E-04
 -1      1298 6.55485E-02-5.82434E-01 1.57648E-04
 -1      1299 6.39077E-02-5.22600E-01 1.83308E-04
 -1      1300 6.44898E-02-5.42342E-01 1.74020E-04
 -1      1301 6.47649E-02-5.52313E-01-1.97001E-07
 -1      1302 6.75818E-02-6.85744E-01 1.18476E-04
 -1      1303 6.78825E-02-7.06859E-01 1.09268E-04
 -1      1304 6.81523E-02-7.28100E-01 1.03394E-04
 -1      1305 6.83884E-02-7.49462E-01 9.36733E-05
 -1      1306 6.80198E-02-7.17477E-01-1.72137E-07
 -1      1307 6.90870E-02-8.79314E-01-4.52634E-05
 -1      1308 6.90544E-02-8.57668E-01-5.29035E-05
 -1      1309 6.90882E-02-8.89341E-01-4.87417E-07
 -1      1310 6.90876E-02-9.00128E-01-3.74867E-05
 -1      1311 6.90518E-02-9.23243E-01-2.66761E-05
 -1      1312 5.96735E-02-4.08977E-01 2.31795E-04
 -1      1313 6.04674E-02-4.27292E-01 2.22596E-04
 -1      1314 5.79760E-02-3.73177E-01 2.48412E-04
 -1      1315 5.88425E-02-3.90936E-01 2.38501E-04
 -1      1316 5.92602E-02-3.99951E-01-4.19991E-07
 -1      1317 6.12266E-02-4.45866E-01 2.15615E-04
 -1      1318 6.19509E-02-4.64695E-01 2.06003E-04
 -1      1319 6.26384E-02-4.83767E-01 1.99256E-04
 -1      1320 6.32903E-02-5.03071E-01 1.90871E-04
 -1      1321 6.22945E-02-4.74225E-01-7.39883E-07
 -1      1322 6.60250E-02-6.02764E-01 1.50343E-04
 -1      1323 6.64640E-02-6.23268E-01 1.42654E-04
 -1      1324 6.68693E-02-6.43939E-01 1.35159E-04
 -1      1325 6.72441E-02-6.64769E-01 1.25442E-04
 -1      1326 6.66703E-02-6.33600E-01 7.64280E-07
 -1      1327 6.89880E-02-8.35905E-01-5.94030E-05
 -1      1328 6.88886E-02-8.14164E-01-6.90127E-05
 -1      1329 6.87560E-02-7.92505E-01-7.66057E-05
 -1      1330 6.85900E-02-7.70933E-01-8.57345E-05
 -1      1331 6.88240E-02-8.03333E-01 3.00776E-07
 -1      1332 5.51621E-02-3.21679E-01-2.71345E-04
 -1      1333 5.41481E-02-3.05134E-01-2.83003E-04
 -1      1334 5.70713E-02-3.55707E-01-2.54772E-04
 -1      1335 5.61364E-02-3.38538E-01-2.64763E-04
 -1      1336 5.56515E-02-3.30103E-01-2.49224E-07
 -1      1337 1.90993E-02-2.89130E-02 4.78136E-04
 -1      1338 2.09715E-02-3.49203E-02 4.67800E-04
 -1      1339 2.18932E-02-3.81898E-02-1.27995E-06
 -1      1340 2.28099E-02-4.14808E-02 4.61954E-04
 -1      1341 2.46119E-02-4.85770E-02 4.51073E-04
 -1      1342 2.97987E-02-7.29843E-02 4.25606E-04
 -1      1343 3.14543E-02-8.21339E-02 4.17622E-04
 -1      1344 2.63762E-02-5.61950E-02 4.44315E-04
 -1      1345 2.81051E-02-6.43345E-02 4.33790E-04
 -1      1346 2.89536E-02-6.86490E-02-7.30419E-07
 -1      1347 1.32882E-02-1.43364E-02-4.97757E-04
 -1      1348 1.12694E-02-1.06153E-02-5.05499E-04
 -1      1349 1.52504E-02-1.85996E-02-4.91024E-04
 -1      1350 1.42607E-02-1.64407E-02 1.71201E-06
 -1      1351 1.71525E-02-2.33603E-02-4.91979E-04
 -1      1352 4.20634E-02-1.59427E-01 3.60831E-04
 -1      1353 4.34323E-02-1.72244E-01 3.52752E-04
 -1      1354 3.92119E-02-1.35075E-01 3.77623E-04
 -1      1355 4.06560E-02-1.47034E-01 3.68609E-04
 -1      1356 4.13611E-02-1.53222E-01-6.49311E-07
 -1      1357 4.73184E-02-2.12997E-01 3.27890E-04
 -1      1358 4.85401E-02-2.27360E-01 3.17737E-04
 -1      1359 4.91392E-02-2.34758E-01-5.98064E-06
 -1      1360 4.97383E-02-2.42243E-01 3.11551E-04
 -1      1361 5.08941E-02-2.57394E-01 3.04557E-04
 -1      1362 3.30754E-02-9.17765E-02 4.10913E-04
 -1      1363 3.46649E-02-1.01902E-01 4.00603E-04
 -1      1364 3.62165E-02-1.12498E-01 3.94271E-04
 -1      1365 3.77319E-02-1.23561E-01 3.84778E-04
 -1      1366 3.54434E-02-1.07190E-01-6.51670E-07
 -1      1367 9.32970E-03-7.65338E-03-5.00170E-04
 -1      1368 7.16561E-03-5.01989E-03-4.64184E-04
 -1      1369 6.80351E-03-4.70060E-03 4.96077E-07
 -1      1370 5.55671E-03-3.48881E-03-4.34941E-04
 -1      1371 4.08505E-03-2.40177E-03-1.89357E-04
 -1      1372 4.44057E-03-2.56338E-03-5.99573E-04
 -1      1373 1.12780E-02-1.06297E-02 5.02399E-04
 -1      1374 1.32793E-02-1.43169E-02 5.00377E-04
 -1      1375 1.03599E-02-9.21900E-03 3.71759E-06
 -1      1376 9.33837E-03-7.66364E-03 5.04455E-04
 -1      1377 7.17091E-03-5.02540E-03 4.69490E-04
 -1      1378 6.90871E-02-9.00446E-01 3.71347E-05
 -1      1379 6.90510E-02-9.23349E-01 2.65947E-05
 -1      1380 6.90378E-02-9.27134E-01-1.75574E-07
 -1      1381 6.90012E-02-9.40326E-01 2.12197E-05
 -1      1382 6.89530E-02-9.52325E-01 2.49846E-05
 -1      1383 6.89339E-02-9.56117E-01 8.18166E-06
 -1      1384 6.55476E-02-5.82434E-01-1.57980E-04
 -1      1385 6.50367E-02-5.62290E-01-1.67018E-04
 -1      1386 6.64651E-02-6.23269E-01-1.41448E-04
 -1      1387 6.60237E-02-6.02763E-01-1.51142E-04
 -1      1388 6.57875E-02-5.92595E-01-4.79115E-07
 -1      1389 5.41524E-02-3.05139E-01 2.80887E-04
 -1      1390 5.51628E-02-3.21679E-01 2.71968E-04
 -1      1391 5.20148E-02-2.72940E-01 2.99361E-04
 -1      1392 5.31030E-02-2.88896E-01 2.86608E-04
 -1      1393 5.36278E-02-2.96993E-01-1.55591E-06
 -1      1394 6.90534E-02-8.57667E-01 5.40983E-05
 -1      1395 6.90869E-02-8.79633E-01 4.44947E-05
 -1      1396 6.88893E-02-8.14164E-01 6.99311E-05
 -1      1397 6.89873E-02-8.35904E-01 6.13630E-05
 -1      1398 6.90199E-02-8.46759E-01 1.18811E-06
 -1      1399 6.04688E-02-4.27292E-01-2.22796E-04
 -1      1400 5.96736E-02-4.08977E-01-2.32330E-04
 -1      1401 6.19502E-02-4.64695E-01-2.07055E-04
 -1      1402 6.12276E-02-4.45867E-01-2.15511E-04
 -1      1403 6.08496E-02-4.36574E-01 5.97941E-08
 -1      1404 6.78843E-02-7.06858E-01-1.09461E-04
 -1      1405 6.75821E-02-6.85745E-01-1.18007E-04
 -1      1406 6.72450E-02-6.64769E-01-1.25743E-04
 -1      1407 6.68727E-02-6.43940E-01-1.34706E-04
 -1      1408 6.74146E-02-6.75254E-01 2.56896E-07
 -1      1409 6.32898E-02-5.03071E-01-1.90317E-04
 -1      1410 6.26371E-02-4.83767E-01-1.99391E-04
 -1      1411 6.44902E-02-5.42343E-01-1.74172E-04
 -1      1412 6.39077E-02-5.22599E-01-1.83271E-04
 -1      1413 6.35998E-02-5.12831E-01-1.22728E-07
 -1      1414 2.81039E-02-6.43342E-02-4.33766E-04
 -1      1415 2.63725E-02-5.61953E-02-4.43433E-04
 -1      1416 2.46101E-02-4.85774E-02-4.50770E-04
 -1      1417 2.28473E-02-4.16163E-02-4.66801E-04
 -1      1418 2.54950E-02-5.23756E-02-7.65130E-07
 -1      1419 4.34309E-02-1.72244E-01-3.51974E-04
 -1      1420 4.20618E-02-1.59426E-01-3.62352E-04
 -1      1421 4.60672E-02-1.99089E-01-3.44271E-04
 -1      1422 4.47678E-02-1.85477E-01-3.45246E-04
 -1      1423 4.41028E-02-1.78852E-01 2.75751E-07
 -1      1424 5.31012E-02-2.88890E-01-2.91682E-04
 -1      1425 5.20181E-02-2.72974E-01-3.02014E-04
 -1      1426 5.14587E-02-2.65197E-01-3.09304E-06
 -1      1427 5.08974E-02-2.57424E-01-3.11103E-04
 -1      1428 4.97421E-02-2.42262E-01-3.22554E-04
 -1      1429 3.46663E-02-1.01901E-01-4.02157E-04
 -1      1430 3.30767E-02-9.17770E-02-4.10287E-04
 -1      1431 3.14526E-02-8.21342E-02-4.17133E-04
 -1      1432 2.97976E-02-7.29831E-02-4.27221E-04
 -1      1433 3.22683E-02-8.69453E-02 2.00622E-07
 -1      1434 4.06545E-02-1.47035E-01-3.68765E-04
 -1      1435 3.92117E-02-1.35075E-01-3.78071E-04
 -1      1436 3.77326E-02-1.23561E-01-3.85286E-04
 -1      1437 3.62177E-02-1.12499E-01-3.94392E-04
 -1      1438 3.84741E-02-1.29308E-01-3.06062E-07
 -1      1439 4.01466E-03-2.36686E-03 1.67874E-04
 -1      1440 5.56110E-03-3.49685E-03 4.28856E-04
 -1      1441 4.37735E-03-2.52948E-03 5.85502E-04
 -1      1442 6.89277E-02-9.56782E-01-6.16725E-06
 -1      1443 6.89492E-02-9.52885E-01-2.26965E-05
 -1      1444 6.90019E-02-9.40221E-01-2.02940E-05
 -1      1445 1.52402E-02-1.85770E-02 4.94332E-04
 -1      1446 1.71851E-02-2.34512E-02 4.87229E-04
 -1      1447 1.81400E-02-2.61594E-02-1.38622E-06
 -1      1448 1.90671E-02-2.88112E-02-4.86175E-04
 -1      1449 2.10091E-02-3.50432E-02-4.75989E-04
 -1      1450 6.83893E-02-7.49462E-01-9.20606E-05
 -1      1451 6.81538E-02-7.28101E-01-1.01415E-04
 -1      1452 5.88431E-02-3.90936E-01-2.39549E-04
 -1      1453 5.79751E-02-3.73177E-01-2.47869E-04
 -1      1454 5.61366E-02-3.38538E-01 2.63903E-04
 -1      1455 5.70739E-02-3.55706E-01 2.55365E-04
 -1      1456 5.75255E-02-3.64435E-01 5.40970E-07
 -1      1457 4.47661E-02-1.85476E-01 3.45894E-04
 -1      1458 4.60677E-02-1.99104E-01 3.38037E-04
 -1      1459 4.66900E-02-2.05984E-01-4.42945E-06
 -1      1460 4.73176E-02-2.12981E-01-3.39968E-04
 -1      1461 4.85435E-02-2.27378E-01-3.30829E-04
 -1      1462 6.85895E-02-7.70932E-01 8.62647E-05
 -1      1463 6.87569E-02-7.92504E-01 7.69480E-05
 -1      1464 6.84911E-02-7.60195E-01 7.60771E-07
 -1      1465-3.48418E-02-5.11509E-01-3.73622E-04
 -1      1466-3.83805E-02-6.74064E-01-2.43206E-04
 -1      1467 3.13801E-02-7.59604E-01 1.79426E-04
 -1      1468-4.22692E-02-8.89128E-01-8.18095E-05
 -1      1469-3.18271E-02-3.98551E-01-4.74782E-04
 -1      1470 3.06632E-02-5.91799E-01 3.08333E-04
 -1      1471-2.92483E-02-3.28656E-01-5.35399E-04
 -1      1472 1.06421E-02-3.65185E-02 9.25023E-04
 -1      1473-1.44454E-02-6.69787E-02-8.66691E-04
 -1      1474-7.05413E-03-1.46384E-02-1.00548E-03
 -1      1475 2.03162E-02-1.51747E-01 7.41187E-04
 -1      1476-2.53788E-02-2.33586E-01-6.35248E-04
 -1      1477-1.78406E-02-1.05574E-01-8.02341E-04
 -1      1478 2.90782E-03-2.10585E-03 9.64842E-04
 -1      1479 2.93567E-02-4.73283E-01 4.05933E-04
 -1      1480-4.04544E-02-8.02267E-01-1.44235E-04
 -1      1481 3.05410E-02-9.36169E-01 4.54557E-05
 -1      1482 2.56502E-02-2.95853E-01 5.67137E-04
 -1      1483 3.13172E-02-8.46328E-01 1.13646E-04
 -1      1484 2.73656E-02-3.63355E-01 5.03544E-04
 -1      1485-2.24166E-02-1.77300E-01-6.98527E-04
 -1      1486 1.59650E-02-8.54154E-02 8.42669E-04
 -1      1487 2.28682E-02-2.04912E-01 6.76647E-04
 -1      1488-7.02825E-04-3.42984E-05-3.86031E-04
 -1      1489-2.33374E-02-9.68712E-01-1.07944E-05
 -1      1490 3.11665E-02-6.74558E-01 2.43407E-04
 -1      1491-3.67189E-02-5.91336E-01-3.08339E-04
 -1      1492-1.07697E-02-3.64696E-02-9.26747E-04
 -1      1493 7.02009E-03-1.46443E-02 1.00450E-03
 -1      1494 5.01860E-03-7.17089E-03 1.02172E-03
 -1      1495-6.02263E-05-4.41122E-03-1.71121E-05
 -1      1496 3.13891E-02-8.90311E-01 8.15270E-05
 -1      1497-3.38241E-02-4.72878E-01-4.06144E-04
 -1      1498-3.29849E-02-4.35198E-01-4.41133E-04
 -1      1499-1.75505E-03-4.16819E-01 2.32196E-06
 -1      1500-3.91289E-02-7.16327E-01-2.10861E-04
 -1      1501 3.03022E-02-5.51467E-01 3.41195E-04
 -1      1502-2.79806E-02-2.95562E-01-5.68475E-04
 -1      1503-2.68403E-02-2.63825E-01-6.04993E-04
 -1      1504-6.33597E-04-2.48725E-01 5.93233E-06
 -1      1505 3.13842E-02-8.02794E-01 1.46623E-04
 -1      1506-2.10922E-02-1.51539E-01-7.37694E-04
 -1      1507 3.13094E-02-7.16833E-01 2.11423E-04
 -1      1508 2.16786E-02-1.77505E-01 7.10495E-04
 -1      1509-1.61883E-02-8.53025E-02-8.35322E-04
 -1      1510-1.94435E-02-1.27594E-01-7.69129E-04
 -1      1511-1.15462E-04-1.16070E-01 7.40655E-06
 -1      1512-4.10328E-02-8.45794E-01-1.13007E-04
 -1      1513 2.65467E-02-3.28974E-01 5.35560E-04
 -1      1514-1.26831E-02-5.06788E-02-9.01105E-04
 -1      1515-6.59188E-05-5.83892E-02 2.63858E-06
 -1      1516 8.88994E-03-2.44736E-02 9.65332E-04
 -1      1517-8.96422E-03-2.44416E-02-9.69027E-04
 -1      1518-2.41209E-02-2.04745E-01-6.73629E-04
 -1      1519-3.75762E-02-6.32375E-01-2.74793E-04
 -1      1520-3.58052E-02-5.51021E-01-3.40882E-04
 -1      1521-3.05714E-02-3.63011E-01-5.05185E-04
 -1      1522-3.98212E-02-7.59088E-01-1.78309E-04
 -1      1523 3.09527E-02-6.32857E-01 2.76284E-04
 -1      1524 2.98670E-02-5.11937E-01 3.73735E-04
 -1      1525-3.24186E-05-1.03750E-02-6.03601E-06
 -1      1526-5.14093E-03-7.26675E-03-1.04134E-03
 -1      1527 7.51828E-04-7.90742E-05 4.04618E-04
 -1      1528 2.86502E-02-3.97940E-01 4.80143E-04
 -1      1529 2.93674E-02-4.36606E-01 4.46284E-04
 -1      1530 1.43363E-02-6.69910E-02 8.76100E-04
 -1      1531 1.25924E-02-5.06198E-02 9.07458E-04
 -1      1532 1.76025E-02-1.05673E-01 8.13785E-04
 -1      1533-5.54768E-04-2.18902E-01 5.41329E-06
 -1      1534 2.52205E-02-2.64131E-01 6.13309E-04
 -1      1535-2.39381E-04-1.39268E-01 5.33178E-06
 -1      1536-5.74706E-03-9.09479E-01-1.12448E-07
 -1      1537-5.05115E-03-8.67803E-01 1.29631E-06
 -1      1538-3.45922E-03-6.53322E-01-4.90616E-07
 -1      1539-3.16718E-03-6.11934E-01 4.85138E-07
 -1      1540-2.88744E-03-5.71231E-01 2.59283E-07
 -1      1541-4.69662E-03-8.24228E-01 7.03860E-07
 -1      1542-4.06339E-03-7.37857E-01 1.28545E-06
 -1      1543-1.44521E-03-3.45720E-01-8.94549E-07
 -1      1544-2.35638E-03-4.92191E-01 8.96938E-07
 -1      1545-4.83643E-05-2.99669E-02-2.66690E-06
 -1      1546-3.01783E-05-1.90131E-02-3.89824E-06
 -1      1547-3.75798E-03-6.95325E-01 2.39469E-08
 -1      1548-2.61670E-03-5.31291E-01 7.26705E-07
 -1      1549-5.06277E-04-1.90739E-01 2.15904E-06
 -1      1550-4.37681E-03-7.80850E-01 2.08896E-07
 -1      1551-3.70899E-04-1.64143E-01 2.85672E-06
 -1      1552-1.25273E-03-3.11963E-01 4.78611E-07
 -1      1553-1.65535E-03-3.80693E-01-9.79151E-07
 -1      1554-2.11116E-03-4.54009E-01-1.57186E-07
 -1      1555 2.41739E-02-2.33799E-01 6.47470E-04
 -1      1556-1.07586E-03-2.79506E-01-6.68551E-07
 -1      1557-8.00657E-05-4.31112E-02-1.73227E-06
 -1      1558 1.90521E-02-1.27799E-01 7.78729E-04
 -1      1559-2.08226E-04-9.50442E-02-6.64864E-07
 -1      1560-1.15190E-04-7.57214E-02 7.21529E-07
 -1      1561 1.28652E-02-9.67651E-01 1.31204E-05
 -1      1562-2.92563E-03-2.11361E-03-9.70651E-04
 -1      1563-4.16004E-02-9.35421E-01-4.43518E-05
 -1      1564 2.00163E-07-1.27813E-03-4.92904E-06
 -1      1565 1.77951E-03-3.02467E-04 9.95667E-04
 -1      1566-1.76844E-03-2.95594E-04-9.81739E-04
 -1      1567 4.24362E-02-9.72227E-01 2.43053E-05
 -1      1568-5.38181E-02-9.71732E-01-2.38375E-05
 -1      1569-5.45576E-03-9.43468E-01 8.46328E-07
 -1      1570-7.85193E-04 1.00597E-04-6.02289E-04
 -1      1571-1.13760E-03-1.41693E-04-8.04423E-04
 -1      1572-2.90472E-03-8.75505E-04-1.35985E-03
 -1      1573 1.14392E-03-1.48202E-04 8.05987E-04
 -1      1574 7.71852E-04 7.72823E-05 5.91455E-04
 -1      1575 2.91228E-03-8.88720E-04 1.36416E-03
 -1      1576-6.72291E-02-9.85599E-01-1.23110E-05
 -1      1577-4.85688E-02-9.85726E-01-1.18172E-05
 -1      1578-6.70285E-02-9.63544E-01-3.76877E-05
 -1      1579 3.68735E-02-9.86251E-01 1.25607E-05
 -1      1580 5.55339E-02-9.86404E-01 1.29248E-05
 -1      1581 5.56642E-02-9.64348E-01 3.99735E-05
 -1      1582-1.84825E-04 2.72050E-04-1.31078E-04
 -1      1583-5.05185E-04 1.82348E-04-3.83040E-04
 -1      1584-1.25359E-03-1.27123E-04-7.11297E-04
 -1      1585 5.69118E-04 1.93287E-04 4.33832E-04
 -1      1586 2.00206E-04 2.49362E-04 1.51676E-04
 -1      1587 1.27951E-05-6.89762E-06-2.26914E-06
 -1      1588 1.30809E-03-1.49482E-04 7.22979E-04
 -1      1589-3.33242E-02-9.84218E-01-9.09605E-06
 -1      1590-1.46768E-02-9.84351E-01-3.59374E-06
 -1      1591-3.85734E-02-9.70221E-01-1.88778E-05
 -1      1592 3.43743E-03-9.83819E-01 3.91517E-06
 -1      1593 2.20836E-02-9.83965E-01 1.02723E-05
 -1      1594-5.23616E-03-9.68178E-01 1.21668E-06
 -1      1595 2.76465E-02-9.69938E-01 2.05239E-05
 -1      1596-3.82416E-03-1.71247E-03-1.41225E-03
 -1      1597-5.31147E-03-3.51770E-03-1.50683E-03
 -1      1598-2.47967E-03-9.81941E-04-1.04736E-03
 -1      1599-6.95534E-03-6.10488E-03-1.54891E-03
 -1      1600-8.46414E-03-9.20848E-03-1.54630E-03
 -1      1601-4.01821E-03-4.34729E-03-1.01775E-03
 -1      1602-9.91812E-03-1.28901E-02-1.52292E-03
 -1      1603-1.14014E-02-1.71886E-02-1.50082E-03
 -1      1604-6.10883E-03-1.06588E-02-1.02468E-03
 -1      1605-1.28491E-02-2.20854E-02-1.47459E-03
 -1      1606-1.42879E-02-2.75352E-02-1.44814E-03
 -1      1607-8.01697E-03-1.92505E-02-9.87544E-04
 -1      1608-1.56673E-02-3.35437E-02-1.41999E-03
 -1      1609-1.70623E-02-4.01015E-02-1.39409E-03
 -1      1610-9.87784E-03-3.01786E-02-9.47057E-04
 -1      1611-1.84811E-02-4.71998E-02-1.37287E-03
 -1      1612-1.98324E-02-5.48238E-02-1.34868E-03
 -1      1613-1.17291E-02-4.33073E-02-9.13349E-04
 -1      1614-2.11574E-02-6.29678E-02-1.32414E-03
 -1      1615-2.24675E-02-7.16232E-02-1.29816E-03
 -1      1616-1.35718E-02-5.85698E-02-8.84911E-04
 -1      1617-2.37671E-02-8.07789E-02-1.27444E-03
 -1      1618-2.50373E-02-9.04247E-02-1.24989E-03
 -1      1619-1.53232E-02-7.58926E-02-8.51370E-04
 -1      1620-2.62730E-02-1.00553E-01-1.22528E-03
 -1      1621-2.74991E-02-1.11154E-01-1.19957E-03
 -1      1622-1.70210E-02-9.51996E-02-8.19512E-04
 -1      1623-2.86918E-02-1.22159E-01-1.17494E-03
 -1      1624-2.98750E-02-1.33673E-01-1.14955E-03
 -1      1625-1.86483E-02-1.16357E-01-7.85513E-04
 -1      1626-3.10779E-02-1.45641E-01-1.12635E-03
 -1      1627-3.22218E-02-1.58035E-01-1.10136E-03
 -1      1628-2.02733E-02-1.39346E-01-7.53819E-04
 -1      1629-3.32480E-02-1.70908E-01-1.07344E-03
 -1      1630-3.43493E-02-1.84141E-01-1.04896E-03
 -1      1631-2.17646E-02-1.64207E-01-7.18209E-04
 -1      1632-3.55483E-02-1.97855E-01-1.02810E-03
 -1      1633-3.66095E-02-2.11893E-01-1.00244E-03
 -1      1634-2.32713E-02-1.90820E-01-6.86757E-04
 -1      1635-3.75653E-02-2.26305E-01-9.75851E-04
 -1      1636-3.85848E-02-2.41106E-01-9.50605E-04
 -1      1637-2.47588E-02-2.18976E-01-6.54009E-04
 -1      1638-3.96280E-02-2.56218E-01-9.27458E-04
 -1      1639-4.06065E-02-2.71742E-01-9.01646E-04
 -1      1640-2.61143E-02-2.48526E-01-6.20348E-04
 -1      1641-4.14731E-02-2.87602E-01-8.75294E-04
 -1      1642-4.24063E-02-3.03813E-01-8.51182E-04
 -1      1643-2.74179E-02-2.79521E-01-5.86131E-04
 -1      1644-4.33217E-02-3.20354E-01-8.27261E-04
 -1      1645-4.42161E-02-3.37215E-01-8.01408E-04
 -1      1646-2.86211E-02-3.11945E-01-5.53027E-04
 -1      1647-4.51429E-02-3.54386E-01-7.78178E-04
 -1      1648-4.59989E-02-3.71856E-01-7.53755E-04
 -1      1649-2.99156E-02-3.45681E-01-5.20700E-04
 -1      1650-4.68727E-02-3.89619E-01-7.30338E-04
 -1      1651-4.76849E-02-4.07663E-01-7.04125E-04
 -1      1652-3.12046E-02-3.80638E-01-4.90736E-04
 -1      1653-4.84928E-02-4.25981E-01-6.80006E-04
 -1      1654-4.92658E-02-4.44561E-01-6.54377E-04
 -1      1655-3.24125E-02-4.16742E-01-4.58075E-04
 -1      1656-4.99005E-02-4.63393E-01-6.28455E-04
 -1      1657-5.06268E-02-4.82468E-01-6.04041E-04
 -1      1658-3.34121E-02-4.53914E-01-4.22840E-04
 -1      1659-5.13332E-02-5.01777E-01-5.79802E-04
 -1      1660-5.20202E-02-5.21312E-01-5.55034E-04
 -1      1661-3.43402E-02-4.92079E-01-3.89727E-04
 -1      1662-5.26833E-02-5.41062E-01-5.30803E-04
 -1      1663-5.33263E-02-5.61017E-01-5.05003E-04
 -1      1664-3.53299E-02-5.31160E-01-3.57408E-04
 -1      1665-5.39487E-02-5.81168E-01-4.80797E-04
 -1      1666-5.45468E-02-6.01505E-01-4.56147E-04
 -1      1667-3.62686E-02-5.71083E-01-3.24435E-04
 -1      1668-5.51250E-02-6.22019E-01-4.32175E-04
 -1      1669-5.56819E-02-6.42699E-01-4.06384E-04
 -1      1670-3.71550E-02-6.11769E-01-2.92358E-04
 -1      1671-5.62164E-02-6.63539E-01-3.82313E-04
 -1      1672-5.67283E-02-6.84525E-01-3.57000E-04
 -1      1673-3.79853E-02-6.53143E-01-2.59404E-04
 -1      1674-5.72189E-02-7.05651E-01-3.32817E-04
 -1      1675-5.76862E-02-7.26905E-01-3.07940E-04
 -1      1676-3.87614E-02-6.95129E-01-2.26771E-04
 -1      1677-5.81309E-02-7.48280E-01-2.83558E-04
 -1      1678-5.85518E-02-7.69765E-01-2.58496E-04
 -1      1679-3.94820E-02-7.37649E-01-1.94649E-04
 -1      1680-5.89518E-02-7.91351E-01-2.34359E-04
 -1      1681-5.93296E-02-8.13027E-01-2.08037E-04
 -1      1682-4.01457E-02-7.80630E-01-1.62300E-04
 -1      1683-5.96851E-02-8.34784E-01-1.83937E-04
 -1      1684-6.00134E-02-8.56613E-01-1.59853E-04
 -1      1685-4.07505E-02-8.23992E-01-1.28207E-04
 -1      1686-6.06817E-02-8.78276E-01-1.36941E-04
 -1      1687-6.09663E-02-9.00221E-01-1.10303E-04
 -1      1688-4.16580E-02-8.67431E-01-9.85721E-05
 -1      1689-6.06658E-02-9.23362E-01-8.29295E-05
 -1      1690-6.09016E-02-9.45389E-01-5.63615E-05
 -1      1691-4.19445E-02-9.12253E-01-6.35529E-05
 -1      1692-4.77095E-02-9.53572E-01-3.55536E-05
 -1      1693 5.29278E-03-3.51944E-03 1.49829E-03
 -1      1694 3.81089E-03-1.71271E-03 1.40985E-03
 -1      1695 2.48111E-03-9.87888E-04 1.04883E-03
 -1      1696 8.37703E-03-9.17029E-03 1.53642E-03
 -1      1697 6.88101E-03-6.07014E-03 1.54156E-03
 -1      1698 3.95800E-03-4.30307E-03 1.00785E-03
 -1      1699 1.13528E-02-1.72182E-02 1.49930E-03
 -1      1700 9.88675E-03-1.29118E-02 1.52269E-03
 -1      1701 6.02242E-03-1.06032E-02 1.01552E-03
 -1      1702 1.41985E-02-2.75925E-02 1.44660E-03
 -1      1703 1.27797E-02-2.21318E-02 1.47162E-03
 -1      1704 7.96714E-03-1.92686E-02 9.84447E-04
 -1      1705 1.69144E-02-4.01805E-02 1.39287E-03
 -1      1706 1.55511E-02-3.36119E-02 1.41857E-03
 -1      1707 9.77898E-03-3.02196E-02 9.44591E-04
 -1      1708 1.96638E-02-5.48683E-02 1.35140E-03
 -1      1709 1.83449E-02-4.72338E-02 1.37667E-03
 -1      1710 1.16191E-02-4.33068E-02 9.15593E-04
 -1      1711 2.22403E-02-7.17236E-02 1.30203E-03
 -1      1712 2.09763E-02-6.30561E-02 1.32779E-03
 -1      1713 1.34727E-02-5.85461E-02 8.91933E-04
 -1      1714 2.46853E-02-9.05968E-02 1.25304E-03
 -1      1715 2.34786E-02-8.09350E-02 1.27723E-03
 -1      1716 1.51600E-02-7.59526E-02 8.58804E-04
 -1      1717 2.70643E-02-1.11343E-01 1.20553E-03
 -1      1718 2.59089E-02-1.00726E-01 1.23126E-03
 -1      1719 1.67919E-02-9.53052E-02 8.29328E-04
 -1      1720 2.92779E-02-1.33939E-01 1.15473E-03
 -1      1721 2.81774E-02-1.22406E-01 1.18076E-03
 -1      1722 1.83384E-02-1.16508E-01 7.97211E-04
 -1      1723 3.13243E-02-1.58324E-01 1.10228E-03
 -1      1724 3.02829E-02-1.45913E-01 1.12796E-03
 -1      1725 1.96965E-02-1.39554E-01 7.60273E-04
 -1      1726 3.33499E-02-1.84454E-01 1.05437E-03
 -1      1727 3.23652E-02-1.71203E-01 1.07885E-03
 -1      1728 2.10063E-02-1.64415E-01 7.25157E-04
 -1      1729 3.52160E-02-2.12212E-01 1.00343E-03
 -1      1730 3.42862E-02-1.98156E-01 1.02942E-03
 -1      1731 2.22845E-02-1.91007E-01 6.93234E-04
 -1      1732 3.70690E-02-2.41473E-01 9.56519E-04
 -1      1733 3.61930E-02-2.26654E-01 9.81299E-04
 -1      1734 2.35294E-02-2.19166E-01 6.61009E-04
 -1      1735 3.87170E-02-2.72181E-01 9.06700E-04
 -1      1736 3.78985E-02-2.56637E-01 9.31501E-04
 -1      1737 2.47079E-02-2.48785E-01 6.30108E-04
 -1      1738 3.99843E-02-3.04269E-01 8.50655E-04
 -1      1739 3.92263E-02-2.88040E-01 8.76407E-04
 -1      1740 2.54518E-02-2.79821E-01 5.90906E-04
 -1      1741 4.14150E-02-3.37708E-01 8.01381E-04
 -1      1742 4.07138E-02-3.20829E-01 8.26633E-04
 -1      1743 2.61083E-02-3.12252E-01 5.51772E-04
 -1      1744 4.27332E-02-3.72386E-01 7.52538E-04
 -1      1745 4.20893E-02-3.54897E-01 7.77190E-04
 -1      1746 2.69654E-02-3.46011E-01 5.19236E-04
 -1      1747 4.42111E-02-4.07738E-01 7.08024E-04
 -1      1748 4.36157E-02-3.89683E-01 7.33524E-04
 -1      1749 2.80133E-02-3.80511E-01 4.92690E-04
 -1      1750 4.53491E-02-4.45671E-01 6.56670E-04
 -1      1751 4.48102E-02-4.27069E-01 6.83051E-04
 -1      1752 2.90200E-02-4.17124E-01 4.63089E-04
 -1      1753 4.60319E-02-4.83096E-01 6.04498E-04
 -1      1754 4.55496E-02-4.64004E-01 6.29455E-04
 -1      1755 2.93755E-02-4.54828E-01 4.25381E-04
 -1      1756 4.69127E-02-5.21970E-01 5.55159E-04
 -1      1757 4.64860E-02-5.02421E-01 5.80259E-04
 -1      1758 2.96212E-02-4.92496E-01 3.89884E-04
 -1      1759 4.76848E-02-5.61702E-01 5.05801E-04
 -1      1760 4.73126E-02-5.41734E-01 5.31112E-04
 -1      1761 3.00937E-02-5.31597E-01 3.57440E-04
 -1      1762 4.83497E-02-6.02217E-01 4.55854E-04
 -1      1763 4.80308E-02-5.81867E-01 4.81531E-04
 -1      1764 3.04920E-02-5.71538E-01 3.24726E-04
 -1      1765 4.89072E-02-6.43435E-01 4.07677E-04
 -1      1766 4.86436E-02-6.22743E-01 4.31632E-04
 -1      1767 3.08165E-02-6.12242E-01 2.91847E-04
 -1      1768 4.93600E-02-6.85282E-01 3.58055E-04
 -1      1769 4.91470E-02-6.64284E-01 3.83847E-04
 -1      1770 3.10692E-02-6.53630E-01 2.60986E-04
 -1      1771 4.97085E-02-7.27681E-01 3.09400E-04
 -1      1772 4.95479E-02-7.06417E-01 3.33859E-04
 -1      1773 3.12472E-02-6.95628E-01 2.27830E-04
 -1      1774 4.99535E-02-7.70555E-01 2.59376E-04
 -1      1775 4.98441E-02-7.49063E-01 2.85475E-04
 -1      1776 3.13545E-02-7.38161E-01 1.96274E-04
 -1      1777 5.00950E-02-8.13831E-01 2.10140E-04
 -1      1778 5.00366E-02-7.92148E-01 2.35210E-04
 -1      1779 3.13913E-02-7.81152E-01 1.62939E-04
 -1      1780 5.01356E-02-8.57429E-01 1.60773E-04
 -1      1781 5.01285E-02-8.35594E-01 1.85660E-04
 -1      1782 3.13597E-02-8.24522E-01 1.30473E-04
 -1      1783 5.01791E-02-9.01366E-01 1.10776E-04
 -1      1784 5.02220E-02-8.79417E-01 1.36832E-04
 -1      1785 3.13620E-02-8.68290E-01 9.84363E-05
 -1      1786 4.96958E-02-9.46319E-01 5.76884E-05
 -1      1787 4.97894E-02-9.24290E-01 8.42833E-05
 -1      1788 3.09748E-02-9.13219E-01 6.41278E-05
 -1      1789 3.64881E-02-9.54192E-01 3.74564E-05
 -1      1790-1.81830E-02-4.82478E-01-2.00199E-04
 -1      1791-1.85002E-02-5.01801E-01-1.90529E-04
 -1      1792-1.88117E-02-5.21349E-01-1.83472E-04
 -1      1793-1.91197E-02-5.41111E-01-1.73973E-04
 -1      1794-2.48532E-03-5.11632E-01-1.10493E-07
 -1      1795-2.11205E-02-6.84661E-01-1.17616E-04
 -1      1796-2.13827E-02-7.05798E-01-1.09181E-04
 -1      1797-2.05771E-02-6.42811E-01-1.33996E-04
 -1      1798-2.08515E-02-6.63661E-01-1.24696E-04
 -1      1799-3.60733E-03-6.74252E-01 4.23064E-07
 -1      1800 1.34606E-02-7.91802E-01 7.72637E-05
 -1      1801 1.35379E-02-7.70204E-01 8.64599E-05
 -1      1802 1.36076E-02-7.48706E-01 9.39022E-05
 -1      1803 1.36678E-02-7.27317E-01 1.03395E-04
 -1      1804-4.21933E-03-7.59301E-01 5.80599E-07
 -1      1805-2.30636E-02-8.56782E-01-5.33824E-05
 -1      1806-2.36330E-02-8.78454E-01-4.44557E-05
 -1      1807-2.40192E-02-8.99293E-01-3.77237E-05
 -1      1808-5.39829E-03-8.88620E-01 3.30132E-07
 -1      1809-2.36523E-02-9.22442E-01-2.64080E-05
 -1      1810-1.68984E-02-4.07620E-01-2.33007E-04
 -1      1811-1.72531E-02-4.25950E-01-2.23528E-04
 -1      1812-1.66159E-02-3.89560E-01-2.41905E-04
 -1      1813-1.70426E-03-3.98618E-01 3.13266E-07
 -1      1814-1.62279E-02-3.71783E-01-2.49250E-04
 -1      1815 1.38050E-02-5.81472E-01 1.57709E-04
 -1      1816 1.37840E-02-5.61304E-01 1.66782E-04
 -1      1817 1.38169E-02-6.22357E-01 1.42079E-04
 -1      1818 1.38160E-02-6.01826E-01 1.50200E-04
 -1      1819-3.02596E-03-5.91492E-01-1.64360E-07
 -1      1820-1.47488E-02-3.03683E-01-2.81667E-04
 -1      1821-1.51115E-02-3.20238E-01-2.71808E-04
 -1      1822-1.54708E-02-3.37114E-01-2.64416E-04
 -1      1823-1.58778E-02-3.54300E-01-2.55687E-04
 -1      1824-1.34759E-03-3.28684E-01-5.35888E-07
 -1      1825 5.06342E-03-3.31169E-02 4.64984E-04
 -1      1826 4.64973E-03-2.70911E-02 4.77910E-04
 -1      1827 6.02950E-03-4.67441E-02 4.55899E-04
 -1      1828 5.50110E-03-3.96913E-02 4.57714E-04
 -1      1829-6.27976E-05-3.62668E-02-1.68571E-06
 -1      1830-7.48577E-03-7.12319E-02-4.29228E-04
 -1      1831-7.93932E-03-8.04011E-02-4.19926E-04
 -1      1832-6.58876E-03-5.44103E-02-4.46857E-04
 -1      1833-7.03490E-03-6.25678E-02-4.36491E-04
 -1      1834-8.93058E-05-6.68029E-02 1.30278E-06
 -1      1835-3.77787E-03-1.66901E-02-5.00762E-04
 -1      1836-4.25098E-03-2.15971E-02-4.90276E-04
 -1      1837-3.29228E-03-1.23733E-02-5.08633E-04
 -1      1838-2.82735E-03-8.68081E-03-5.22668E-04
 -1      1839-3.21725E-05-1.44003E-02-4.09974E-06
 -1      1840 1.04719E-02-1.70727E-01 3.60583E-04
 -1      1841 1.01461E-02-1.57847E-01 3.67993E-04
 -1      1842 9.85043E-03-1.45406E-01 3.76479E-04
 -1      1843-3.02692E-04-1.51489E-01 4.00486E-06
 -1      1844 9.58897E-03-1.33431E-01 3.88192E-04
 -1      1845-1.31562E-02-2.41067E-01-3.10894E-04
 -1      1846-1.35808E-02-2.56196E-01-3.02971E-04
 -1      1847-1.28011E-02-2.26159E-01-3.18701E-04
 -1      1848-5.93673E-04-2.33625E-01 5.66950E-06
 -1      1849-1.24942E-02-2.11731E-01-3.30812E-04
 -1      1850-8.39322E-03-9.00600E-02-4.14152E-04
 -1      1851-8.81823E-03-1.00202E-01-4.05540E-04
 -1      1852-9.16357E-03-1.10714E-01-3.94229E-04
 -1      1853-9.57872E-03-1.21728E-01-3.84840E-04
 -1      1854-1.63645E-04-1.05328E-01 3.21636E-06
 -1      1855 2.24915E-03-5.66401E-03 5.05028E-04
 -1      1856 1.71252E-03-3.08282E-03 4.86923E-04
 -1      1857-2.36748E-05-2.65845E-03-9.52178E-06
 -1      1858 1.35681E-03-1.61416E-03 4.76059E-04
 -1      1859 1.65898E-03-9.00525E-04 6.90143E-04
 -1      1860 5.14959E-04-5.57245E-04 2.23926E-04
 -1      1861 1.36563E-02-5.02012E-01 1.90206E-04
 -1      1862 1.35921E-02-4.82684E-01 1.99529E-04
 -1      1863 1.35159E-02-4.63590E-01 2.05901E-04
 -1      1864 1.37247E-02-4.45252E-01 2.19390E-04
 -1      1865-2.23263E-03-4.72980E-01-5.95789E-07
 -1      1866-2.26033E-02-8.13227E-01-6.77222E-05
 -1      1867-2.28279E-02-8.34995E-01-5.97222E-05
 -1      1868-2.21340E-02-7.69945E-01-8.57032E-05
 -1      1869-2.23726E-02-7.91540E-01-7.56714E-05
 -1      1870-4.53592E-03-8.02496E-01 9.51899E-07
 -1      1871 1.23746E-02-9.22815E-01 2.69483E-05
 -1      1872 1.28320E-02-8.99885E-01 3.76804E-05
 -1      1873 1.25408E-02-9.39815E-01 2.20262E-05
 -1      1874-5.60158E-03-9.26466E-01 4.32775E-07
 -1      1875 2.17100E-02-9.51905E-01 2.62224E-05
 -1      1876 3.69877E-03-9.55556E-01 8.88349E-06
 -1      1877 1.25083E-02-3.20394E-01 2.70830E-04
 -1      1878 1.23310E-02-3.03833E-01 2.80128E-04
 -1      1879 1.21421E-02-2.87601E-01 2.87089E-04
 -1      1880 1.22142E-02-2.71738E-01 3.03118E-04
 -1      1881-1.16286E-03-2.95567E-01-9.28851E-07
 -1      1882 1.31410E-02-8.79045E-01 4.49651E-05
 -1      1883 1.31534E-02-8.57050E-01 5.43315E-05
 -1      1884 1.32752E-02-8.35261E-01 6.02309E-05
 -1      1885 1.33725E-02-8.13492E-01 7.00442E-05
 -1      1886-4.87427E-03-8.45981E-01 5.85163E-07
 -1      1887 1.28285E-02-3.54467E-01 2.55425E-04
 -1      1888 1.26745E-02-3.37276E-01 2.63638E-04
 -1      1889 1.33795E-02-3.89255E-01 2.43578E-04
 -1      1890 1.29719E-02-3.71957E-01 2.48121E-04
 -1      1891-1.54862E-03-3.63059E-01-8.73299E-08
 -1      1892-1.09070E-02-1.57739E-01-3.63600E-04
 -1      1893-1.12141E-02-1.70628E-01-3.50369E-04
 -1      1894-1.16244E-02-1.83923E-01-3.44298E-04
 -1      1895-1.21373E-02-1.97652E-01-3.39592E-04
 -1      1896-4.36387E-04-1.77234E-01 3.32813E-06
 -1      1897 7.70977E-03-8.04532E-02 4.25703E-04
 -1      1898 7.31839E-03-7.12388E-02 4.34322E-04
 -1      1899 8.49185E-03-1.00248E-01 4.10779E-04
 -1      1900 8.07890E-03-9.01170E-02 4.18524E-04
 -1      1901-1.59310E-04-8.51394E-02 7.92319E-07
 -1      1902 1.10097E-02-1.97733E-01 3.43149E-04
 -1      1903 1.07547E-02-1.84027E-01 3.53727E-04
 -1      1904 1.13146E-02-2.11818E-01 3.36830E-04
 -1      1905-5.29400E-04-2.04624E-01 3.52052E-06
 -1      1906 1.16457E-02-2.26263E-01 3.29342E-04
 -1      1907-4.90331E-04-5.26664E-04-2.18822E-04
 -1      1908-1.61881E-03-8.59782E-04-6.78460E-04
 -1      1909-1.36369E-03-1.61820E-03-4.80284E-04
 -1      1910-1.43905E-02-9.56087E-01-6.73758E-06
 -1      1911-3.24767E-02-9.52061E-01-2.41036E-05
 -1      1912-2.35267E-02-9.39441E-01-2.05339E-05
 -1      1913 1.37170E-02-7.06050E-01 1.08714E-04
 -1      1914 1.37575E-02-6.84910E-01 1.18206E-04
 -1      1915 1.37876E-02-6.63906E-01 1.25767E-04
 -1      1916 1.38086E-02-6.43052E-01 1.35540E-04
 -1      1917-2.00098E-02-6.01592E-01-1.50697E-04
 -1      1918-2.02969E-02-6.22118E-01-1.41000E-04
 -1      1919-1.94220E-02-5.61080E-01-1.66675E-04
 -1      1920-1.97186E-02-5.81243E-01-1.57501E-04
 -1      1921-5.64270E-03-3.96651E-02-4.60279E-04
 -1      1922-6.15146E-03-4.67747E-02-4.55327E-04
 -1      1923-4.73517E-03-2.70735E-02-4.81699E-04
 -1      1924-5.17336E-03-3.30943E-02-4.68137E-04
 -1      1925 3.24010E-03-1.23728E-02 5.03058E-04
 -1      1926 2.73868E-03-8.62981E-03 5.06742E-04
 -1      1927 4.18598E-03-2.16120E-02 4.84933E-04
 -1      1928 3.73518E-03-1.66931E-02 4.97090E-04
 -1      1929-5.04718E-05-7.11422E-03-1.14050E-05
 -1      1930-2.36407E-03-5.70990E-03-5.31024E-04
 -1      1931-1.77174E-03-3.09017E-03-5.08154E-04
 -1      1932-1.76470E-02-4.44544E-01-2.16680E-04
 -1      1933-1.78590E-02-4.63390E-01-2.06784E-04
 -1      1934-1.93050E-03-4.35285E-01 8.69706E-07
 -1      1935 1.35645E-02-4.07313E-01 2.37224E-04
 -1      1936 1.36837E-02-4.26647E-01 2.27568E-04
 -1      1937-2.16401E-02-7.27063E-01-1.01530E-04
 -1      1938-2.18904E-02-7.48449E-01-9.25875E-05
 -1      1939-3.91060E-03-7.16528E-01 2.29411E-07
 -1      1940 1.37521E-02-5.41332E-01 1.74218E-04
 -1      1941 1.37097E-02-5.21565E-01 1.83271E-04
 -1      1942-2.75071E-03-5.51161E-01-9.64346E-08
 -1      1943-1.40969E-02-2.71583E-01-2.98710E-04
 -1      1944-1.43793E-02-2.87459E-01-2.88328E-04
 -1      1945-8.49511E-04-2.63943E-01 3.29120E-06
 -1      1946 1.19222E-02-2.41177E-01 3.23648E-04
 -1      1947 1.21403E-02-2.56346E-01 3.13436E-04
 -1      1948-1.00235E-02-1.33325E-01-3.78533E-04
 -1      1949-1.04742E-02-1.45304E-01-3.69857E-04
 -1      1950-1.74724E-04-1.27442E-01 5.59684E-06
 -1      1951 8.92997E-03-1.10767E-01 4.07247E-04
 -1      1952 9.26992E-03-1.21828E-01 3.96851E-04
 -1      1953-7.37619E-05-5.04873E-02-5.00384E-07
 -1      1954 6.91490E-03-6.25723E-02 4.42212E-04
 -1      1955 6.48077E-03-5.43822E-02 4.50851E-04
 -1      1956-3.81683E-05-2.42066E-02-2.61404E-06
 -1      1957-3.31169E-03-6.32547E-01 8.29902E-07
 -1      1958-3.48406E-02-5.11510E-01 3.73251E-04
 -1      1959-3.83822E-02-6.74065E-01 2.43234E-04
 -1      1960 3.13809E-02-7.59606E-01-1.79179E-04
 -1      1961-4.22685E-02-8.89129E-01 8.26935E-05
 -1      1962-3.18290E-02-3.98554E-01 4.72661E-04
 -1      1963 3.06642E-02-5.91800E-01-3.08971E-04
 -1      1964-2.92474E-02-3.28656E-01 5.35620E-04
 -1      1965 1.06418E-02-3.65190E-02-9.23700E-04
 -1      1966-1.43526E-02-6.69759E-02 8.60153E-04
 -1      1967-7.05138E-03-1.46391E-02 1.00440E-03
 -1      1968 1.99918E-02-1.51821E-01-7.29869E-04
 -1      1969 2.36950E-02-2.33564E-01-6.34792E-04
 -1      1970 1.71807E-02-1.05698E-01-7.95534E-04
 -1      1971 2.90795E-03-2.10615E-03-9.65563E-04
 -1      1972 2.93567E-02-4.73286E-01-4.06337E-04
 -1      1973-4.04548E-02-8.02267E-01 1.44998E-04
 -1      1974 3.05403E-02-9.36171E-01-4.56869E-05
 -1      1975 2.56511E-02-2.95856E-01-5.68317E-04
 -1      1976 3.13163E-02-8.46327E-01-1.13864E-04
 -1      1977 2.73666E-02-3.63353E-01-5.03328E-04
 -1      1978-2.24168E-02-1.77301E-01 6.98807E-04
 -1      1979-2.70698E-02-2.63702E-01 6.11055E-04
 -1      1980-1.93406E-02-1.27712E-01 7.62572E-04
 -1      1981-7.03476E-04-3.43354E-05 3.84941E-04
 -1      1982-2.33381E-02-9.68713E-01 1.09356E-05
 -1      1983 3.11654E-02-6.74558E-01-2.43829E-04
 -1      1984-3.67174E-02-5.91336E-01 3.06949E-04
 -1      1985 1.40630E-02-6.70605E-02-8.59105E-04
 -1      1986-1.07694E-02-3.64690E-02 9.26117E-04
 -1      1987 7.01977E-03-1.46437E-02-1.00305E-03
 -1      1988 5.01948E-03-7.17148E-03-1.02231E-03
 -1      1989-6.04264E-05-4.40915E-03 1.61232E-05
 -1      1990 3.13875E-02-8.90311E-01-8.13336E-05
 -1      1991-3.38235E-02-4.72877E-01 4.05636E-04
 -1      1992-3.29855E-02-4.35197E-01 4.41392E-04
 -1      1993-1.75434E-03-4.16819E-01-1.96351E-06
 -1      1994-3.91286E-02-7.16327E-01 2.09831E-04
 -1      1995-2.81914E-02-2.95551E-01 5.72345E-04
 -1      1996 3.03017E-02-5.51468E-01-3.41430E-04
 -1      1997 3.13823E-02-8.02794E-01-1.45492E-04
 -1      1998 3.13083E-02-7.16835E-01-2.11528E-04
 -1      1999-2.09029E-02-1.51649E-01 7.30444E-04
 -1      2000 2.12821E-02-1.77495E-01-6.97789E-04
 -1      2001 2.26500E-02-2.04796E-01-6.71020E-04
 -1      2002-1.02622E-03-2.18500E-01 8.19845E-06
 -1      2003-1.60672E-02-8.53016E-02 8.29209E-04
 -1      2004-1.77303E-02-1.05572E-01 7.96598E-04
 -1      2005-4.10303E-02-8.45794E-01 1.13692E-04
 -1      2006 2.49289E-02-2.63910E-01-6.06388E-04
 -1      2007 1.56602E-02-8.54045E-02-8.26975E-04
 -1      2008 2.65486E-02-3.28974E-01-5.35751E-04
 -1      2009-1.25883E-02-5.06752E-02 8.94092E-04
 -1      2010 8.88878E-03-2.44745E-02-9.65667E-04
 -1      2011-8.96657E-03-2.44436E-02 9.66909E-04
 -1      2012 1.23910E-02-5.07411E-02-8.91931E-04
 -1      2013-3.75775E-02-6.32377E-01 2.75660E-04
 -1      2014 1.86259E-02-1.27863E-01-7.62968E-04
 -1      2015-3.58063E-02-5.51023E-01 3.40709E-04
 -1      2016-3.05710E-02-3.63012E-01 5.04844E-04
 -1      2017-3.98225E-02-7.59089E-01 1.77898E-04
 -1      2018 3.09505E-02-6.32854E-01-2.75404E-04
 -1      2019 2.98670E-02-5.11937E-01-3.73357E-04
 -1      2020-3.45823E-05-1.03746E-02 5.71768E-06
 -1      2021-5.13999E-03-7.26646E-03 1.04139E-03
 -1      2022 7.50443E-04-8.09658E-05-4.02446E-04
 -1      2023 2.86493E-02-3.97941E-01-4.81198E-04
 -1      2024 2.93675E-02-4.36606E-01-4.45713E-04
 -1      2025-1.12984E-03-2.48305E-01 5.66009E-06
 -1      2026-2.43679E-02-2.04551E-01 6.80273E-04
 -1      2027-5.74650E-03-9.09480E-01 8.53360E-07
 -1      2028-5.05203E-03-8.67803E-01-1.06314E-06
 -1      2029-3.45711E-03-6.53323E-01-1.31418E-06
 -1      2030-3.16855E-03-6.11934E-01-2.50190E-07
 -1      2031-2.88664E-03-5.71232E-01-1.48360E-07
 -1      2032-4.69629E-03-8.24226E-01-1.00971E-06
 -1      2033-4.06428E-03-7.37857E-01 2.79947E-07
 -1      2034-1.44809E-03-3.45719E-01-1.32989E-07
 -1      2035-2.35756E-03-4.92191E-01-2.61277E-07
 -1      2036-1.17310E-03-2.79439E-01 2.18245E-06
 -1      2037-1.20974E-04-5.83892E-02 1.48696E-06
 -1      2038-7.90792E-05-4.31130E-02 1.66528E-06
 -1      2039-4.81525E-05-2.99669E-02 1.89486E-06
 -1      2040-2.94056E-05-1.90136E-02 2.14000E-06
 -1      2041-3.75629E-03-6.95325E-01 4.46820E-08
 -1      2042-1.73319E-04-7.57323E-02 5.68868E-07
 -1      2043-2.61633E-03-5.31291E-01-6.59999E-07
 -1      2044-4.03120E-04-1.39359E-01 1.05105E-06
 -1      2045-3.12970E-04-1.16290E-01 1.37371E-06
 -1      2046-2.33902E-04-9.50547E-02 3.95424E-07
 -1      2047-4.37588E-03-7.80851E-01-2.78326E-07
 -1      2048-5.09928E-04-1.64183E-01 1.16315E-07
 -1      2049-1.25520E-03-3.11963E-01 1.14150E-06
 -1      2050-1.65492E-03-3.80694E-01-1.74306E-07
 -1      2051-2.11083E-03-4.54011E-01-3.17728E-07
 -1      2052-2.58367E-02-2.33365E-01 6.47728E-04
 -1      2053-6.26058E-04-1.90682E-01-1.41063E-07
 -1      2054 1.28655E-02-9.67652E-01-1.25419E-05
 -1      2055-2.92553E-03-2.11333E-03 9.70931E-04
 -1      2056-4.16017E-02-9.35421E-01 4.50671E-05
 -1      2057 5.52991E-07-1.27781E-03 4.84367E-06
 -1      2058 1.78336E-03-3.02573E-04-9.97361E-04
 -1      2059-1.76874E-03-2.96168E-04 9.81826E-04
 -1      2060 4.24375E-02-9.72227E-01-2.44352E-05
 -1      2061-5.38182E-02-9.71732E-01 2.37656E-05
 -1      2062-5.45662E-03-9.43468E-01-1.09330E-06
 -1      2063-1.13760E-03-1.42402E-04 8.04275E-04
 -1      2064-7.85133E-04 1.00204E-04 6.02303E-04
 -1      2065-2.90452E-03-8.76117E-04 1.36008E-03
 -1      2066 7.74074E-04 7.55180E-05-5.87635E-04
 -1      2067 1.14772E-03-1.50448E-04-8.07309E-04
 -1      2068 2.91297E-03-8.86974E-04-1.36589E-03
 -1      2069-4.85695E-02-9.85726E-01 1.20202E-05
 -1      2070-6.72290E-02-9.85600E-01 1.21021E-05
 -1      2071-6.70282E-02-9.63545E-01 3.73319E-05
 -1      2072 5.55337E-02-9.86404E-01-1.23676E-05
 -1      2073 3.68737E-02-9.86252E-01-1.19662E-05
 -1      2074 5.56627E-02-9.64349E-01-3.80611E-05
 -1      2075-5.04302E-04 1.81665E-04 3.82015E-04
 -1      2076-1.84835E-04 2.71115E-04 1.30811E-04
 -1      2077-1.25429E-03-1.27626E-04 7.10104E-04
 -1      2078 2.00088E-04 2.48073E-04-1.52353E-04
 -1      2079 5.74905E-04 1.91473E-04-4.36095E-04
 -1      2080 1.16215E-05-7.81852E-06 1.78161E-06
 -1      2081 1.31014E-03-1.50041E-04-7.23509E-04
 -1      2082-1.46772E-02-9.84351E-01 3.78208E-06
 -1      2083-3.33227E-02-9.84218E-01 9.89833E-06
 -1      2084-3.85735E-02-9.70222E-01 1.85778E-05
 -1      2085 2.20838E-02-9.83966E-01-9.69863E-06
 -1      2086 3.43743E-03-9.83820E-01-3.63094E-06
 -1      2087-5.23625E-03-9.68179E-01-8.10812E-07
 -1      2088 2.76470E-02-9.69938E-01-2.01289E-05
 -1      2089-5.31103E-03-3.51792E-03 1.50649E-03
 -1      2090-3.82381E-03-1.71264E-03 1.41259E-03
 -1      2091-2.47999E-03-9.81551E-04 1.04799E-03
 -1      2092-8.46532E-03-9.20848E-03 1.54627E-03
 -1      2093-6.95523E-03-6.10517E-03 1.54866E-03
 -1      2094-4.01797E-03-4.34715E-03 1.01818E-03
 -1      2095-1.13999E-02-1.71897E-02 1.49943E-03
 -1      2096-9.91909E-03-1.28902E-02 1.52350E-03
 -1      2097-6.10524E-03-1.06572E-02 1.02527E-03
 -1      2098-1.42878E-02-2.75367E-02 1.44775E-03
 -1      2099-1.28497E-02-2.20873E-02 1.47254E-03
 -1      2100-8.01682E-03-1.92516E-02 9.85814E-04
 -1      2101-1.70624E-02-4.00999E-02 1.39406E-03
 -1      2102-1.56680E-02-3.35439E-02 1.42020E-03
 -1      2103-9.87895E-03-3.01790E-02 9.47585E-04
 -1      2104-1.97834E-02-5.48218E-02 1.34456E-03
 -1      2105-1.84346E-02-4.71967E-02 1.36942E-03
 -1      2106-1.16853E-02-4.33049E-02 9.10113E-04
 -1      2107-2.24215E-02-7.16215E-02 1.29435E-03
 -1      2108-2.11128E-02-6.29667E-02 1.32050E-03
 -1      2109-1.34778E-02-5.85676E-02 8.77928E-04
 -1      2110-2.49730E-02-9.04231E-02 1.24590E-03
 -1      2111-2.37094E-02-8.07774E-02 1.27038E-03
 -1      2112-1.52161E-02-7.58910E-02 8.44174E-04
 -1      2113-2.74398E-02-1.11153E-01 1.19673E-03
 -1      2114-2.62166E-02-1.00551E-01 1.22147E-03
 -1      2115-1.69057E-02-9.51982E-02 8.12800E-04
 -1      2116-2.98262E-02-1.33733E-01 1.14648E-03
 -1      2117-2.86431E-02-1.22217E-01 1.17244E-03
 -1      2118-1.85425E-02-1.16413E-01 7.80409E-04
 -1      2119-3.21283E-02-1.58089E-01 1.09668E-03
 -1      2120-3.09878E-02-1.45695E-01 1.12232E-03
 -1      2121-2.01280E-02-1.39461E-01 7.46875E-04
 -1      2122-3.43475E-02-1.84141E-01 1.04823E-03
 -1      2123-3.32498E-02-1.70908E-01 1.07268E-03
 -1      2124-2.16656E-02-1.64265E-01 7.13877E-04
 -1      2125-3.67331E-02-2.11796E-01 1.00612E-03
 -1      2126-3.56663E-02-1.97761E-01 1.03112E-03
 -1      2127-2.33921E-02-1.90727E-01 6.89633E-04
 -1      2128-3.88153E-02-2.40995E-01 9.56020E-04
 -1      2129-3.77905E-02-2.26197E-01 9.81988E-04
 -1      2130-2.51080E-02-2.18768E-01 6.64183E-04
 -1      2131-4.07212E-02-2.71680E-01 9.04864E-04
 -1      2132-3.97406E-02-2.56157E-01 9.29891E-04
 -1      2133-2.64615E-02-2.48352E-01 6.28915E-04
 -1      2134-4.25141E-02-3.03809E-01 8.52776E-04
 -1      2135-4.15753E-02-2.87598E-01 8.78049E-04
 -1      2136-2.76398E-02-2.79455E-01 5.91281E-04
 -1      2137-4.42173E-02-3.37215E-01 8.00974E-04
 -1      2138-4.33226E-02-3.20354E-01 8.26176E-04
 -1      2139-2.87275E-02-3.11942E-01 5.54122E-04
 -1      2140-4.59973E-02-3.71857E-01 7.52574E-04
 -1      2141-4.51435E-02-3.54386E-01 7.77737E-04
 -1      2142-2.99143E-02-3.45682E-01 5.20240E-04
 -1      2143-4.76845E-02-4.07666E-01 7.03465E-04
 -1      2144-4.68722E-02-3.89621E-01 7.28592E-04
 -1      2145-3.12051E-02-3.80639E-01 4.89264E-04
 -1      2146-4.92668E-02-4.44560E-01 6.54933E-04
 -1      2147-4.84940E-02-4.25981E-01 6.79822E-04
 -1      2148-3.24136E-02-4.16741E-01 4.57413E-04
 -1      2149-5.06277E-02-4.82468E-01 6.03650E-04
 -1      2150-4.98994E-02-4.63392E-01 6.28783E-04
 -1      2151-3.34122E-02-4.53913E-01 4.23253E-04
 -1      2152-5.20198E-02-5.21313E-01 5.54255E-04
 -1      2153-5.13342E-02-5.01778E-01 5.79550E-04
 -1      2154-3.43383E-02-4.92078E-01 3.89527E-04
 -1      2155-5.33256E-02-5.61018E-01 5.04586E-04
 -1      2156-5.26836E-02-5.41063E-01 5.29848E-04
 -1      2157-3.53298E-02-5.31161E-01 3.56908E-04
 -1      2158-5.45480E-02-6.01506E-01 4.54719E-04
 -1      2159-5.39477E-02-5.81168E-01 4.80289E-04
 -1      2160-3.62693E-02-5.71083E-01 3.24100E-04
 -1      2161-5.56816E-02-6.42700E-01 4.06319E-04
 -1      2162-5.51275E-02-6.22020E-01 4.30654E-04
 -1      2163-3.71540E-02-6.11771E-01 2.90900E-04
 -1      2164-5.67268E-02-6.84526E-01 3.57067E-04
 -1      2165-5.62149E-02-6.63538E-01 3.82096E-04
 -1      2166-3.79872E-02-6.53144E-01 2.59314E-04
 -1      2167-5.76861E-02-7.26906E-01 3.07213E-04
 -1      2168-5.72174E-02-7.05651E-01 3.32543E-04
 -1      2169-3.87629E-02-6.95129E-01 2.26894E-04
 -1      2170-5.85523E-02-7.69766E-01 2.58295E-04
 -1      2171-5.81317E-02-7.48281E-01 2.82800E-04
 -1      2172-3.94824E-02-7.37650E-01 1.94267E-04
 -1      2173-5.93300E-02-8.13026E-01 2.08840E-04
 -1      2174-5.89522E-02-7.91350E-01 2.34716E-04
 -1      2175-4.01467E-02-7.80630E-01 1.62605E-04
 -1      2176-6.00141E-02-8.56614E-01 1.59432E-04
 -1      2177-5.96843E-02-8.34784E-01 1.84626E-04
 -1      2178-4.07500E-02-8.23992E-01 1.29066E-04
 -1      2179-6.09668E-02-9.00221E-01 1.09629E-04
 -1      2180-6.06814E-02-8.78277E-01 1.36031E-04
 -1      2181-4.16563E-02-8.67434E-01 9.77164E-05
 -1      2182-6.09014E-02-9.45390E-01 5.62754E-05
 -1      2183-6.06647E-02-9.23363E-01 8.23328E-05
 -1      2184-4.19444E-02-9.12254E-01 6.25119E-05
 -1      2185-4.77100E-02-9.53572E-01 3.55765E-05
 -1      2186 3.81042E-03-1.71221E-03-1.41166E-03
 -1      2187 5.29196E-03-3.51901E-03-1.49939E-03
 -1      2188 2.48207E-03-9.86718E-04-1.04935E-03
 -1      2189 6.88021E-03-6.07007E-03-1.54233E-03
 -1      2190 8.37506E-03-9.17088E-03-1.53693E-03
 -1      2191 3.95801E-03-4.30261E-03-1.00883E-03
 -1      2192 9.88513E-03-1.29119E-02-1.52269E-03
 -1      2193 1.13539E-02-1.72183E-02-1.49917E-03
 -1      2194 6.02407E-03-1.06029E-02-1.01658E-03
 -1      2195 1.27809E-02-2.21327E-02-1.47209E-03
 -1      2196 1.41984E-02-2.75931E-02-1.44652E-03
 -1      2197 7.96545E-03-1.92682E-02-9.84730E-04
 -1      2198 1.55510E-02-3.36130E-02-1.41821E-03
 -1      2199 1.69151E-02-4.01821E-02-1.39236E-03
 -1      2200 9.77848E-03-3.02202E-02-9.44378E-04
 -1      2201 1.82533E-02-4.72907E-02-1.36796E-03
 -1      2202 1.95606E-02-5.49281E-02-1.34404E-03
 -1      2203 1.15247E-02-4.33627E-02-9.07232E-04
 -1      2204 2.08436E-02-6.30868E-02-1.32018E-03
 -1      2205 2.20990E-02-7.17572E-02-1.29430E-03
 -1      2206 1.32369E-02-5.86416E-02-8.76642E-04
 -1      2207 2.33285E-02-8.09280E-02-1.27017E-03
 -1      2208 2.45315E-02-9.05899E-02-1.24570E-03
 -1      2209 1.48715E-02-7.59842E-02-8.43408E-04
 -1      2210 2.57040E-02-1.00735E-01-1.22178E-03
 -1      2211 2.68505E-02-1.11353E-01-1.19615E-03
 -1      2212 1.64297E-02-9.53123E-02-8.12060E-04
 -1      2213 2.79689E-02-1.22435E-01-1.17178E-03
 -1      2214 2.90591E-02-1.33969E-01-1.14656E-03
 -1      2215 1.79128E-02-1.16551E-01-7.79070E-04
 -1      2216 3.01231E-02-1.45947E-01-1.12245E-03
 -1      2217 3.11587E-02-1.58360E-01-1.09644E-03
 -1      2218 1.93193E-02-1.39621E-01-7.46578E-04
 -1      2219 3.21664E-02-1.71197E-01-1.07285E-03
 -1      2220 3.31488E-02-1.84448E-01-1.04875E-03
 -1      2221 2.06474E-02-1.64449E-01-7.12949E-04
 -1      2222 3.41785E-02-1.98098E-01-1.02689E-03
 -1      2223 3.51047E-02-2.12153E-01-1.00124E-03
 -1      2224 2.19731E-02-1.90946E-01-6.84952E-04
 -1      2225 3.59534E-02-2.26537E-01-9.75779E-04
 -1      2226 3.68241E-02-2.41353E-01-9.50516E-04
 -1      2227 2.31842E-02-2.18991E-01-6.52592E-04
 -1      2228 3.77540E-02-2.56528E-01-9.28238E-04
 -1      2229 3.85698E-02-2.72069E-01-9.02537E-04
 -1      2230 2.43195E-02-2.48556E-01-6.20690E-04
 -1      2231 3.92290E-02-2.88041E-01-8.75383E-04
 -1      2232 3.99839E-02-3.04270E-01-8.50954E-04
 -1      2233 2.53024E-02-2.79709E-01-5.86718E-04
 -1      2234 4.07122E-02-3.20829E-01-8.26647E-04
 -1      2235 4.14135E-02-3.37709E-01-8.01594E-04
 -1      2236 2.61101E-02-3.12253E-01-5.51981E-04
 -1      2237 4.20879E-02-3.54897E-01-7.77283E-04
 -1      2238 4.27337E-02-3.72386E-01-7.53011E-04
 -1      2239 2.69678E-02-3.46011E-01-5.19625E-04
 -1      2240 4.36160E-02-3.89683E-01-7.34410E-04
 -1      2241 4.42116E-02-4.07737E-01-7.07670E-04
 -1      2242 2.80135E-02-3.80511E-01-4.93395E-04
 -1      2243 4.48096E-02-4.27069E-01-6.82460E-04
 -1      2244 4.53499E-02-4.45672E-01-6.57139E-04
 -1      2245 2.90201E-02-4.17125E-01-4.62925E-04
 -1      2246 4.55515E-02-4.64006E-01-6.29266E-04
 -1      2247 4.60308E-02-4.83097E-01-6.04637E-04
 -1      2248 2.93745E-02-4.54828E-01-4.25611E-04
 -1      2249 4.64852E-02-5.02422E-01-5.80752E-04
 -1      2250 4.69129E-02-5.21970E-01-5.55240E-04
 -1      2251 2.96220E-02-4.92496E-01-3.90559E-04
 -1      2252 4.73114E-02-5.41734E-01-5.31315E-04
 -1      2253 4.76840E-02-5.61703E-01-5.05524E-04
 -1      2254 3.00938E-02-5.31598E-01-3.57903E-04
 -1      2255 4.80310E-02-5.81867E-01-4.81412E-04
 -1      2256 4.83484E-02-6.02217E-01-4.56780E-04
 -1      2257 3.04922E-02-5.71538E-01-3.24938E-04
 -1      2258 4.86412E-02-6.22743E-01-4.32788E-04
 -1      2259 4.89079E-02-6.43435E-01-4.07003E-04
 -1      2260 3.08172E-02-6.12241E-01-2.92950E-04
 -1      2261 4.91479E-02-6.64285E-01-3.82929E-04
 -1      2262 4.93611E-02-6.85282E-01-3.57597E-04
 -1      2263 3.10671E-02-6.53630E-01-2.60050E-04
 -1      2264 4.95489E-02-7.06418E-01-3.33376E-04
 -1      2265 4.97099E-02-7.27681E-01-3.08445E-04
 -1      2266 3.12454E-02-6.95630E-01-2.27380E-04
 -1      2267 4.98448E-02-7.49064E-01-2.84056E-04
 -1      2268 4.99527E-02-7.70557E-01-2.59096E-04
 -1      2269 3.13532E-02-7.38162E-01-1.95320E-04
 -1      2270 5.00369E-02-7.92149E-01-2.35174E-04
 -1      2271 5.00963E-02-8.13830E-01-2.09368E-04
 -1      2272 3.13909E-02-7.81152E-01-1.63231E-04
 -1      2273 5.01298E-02-8.35594E-01-1.85330E-04
 -1      2274 5.01372E-02-8.57428E-01-1.60370E-04
 -1      2275 3.13576E-02-8.24523E-01-1.29877E-04
 -1      2276 5.02227E-02-8.79417E-01-1.35949E-04
 -1      2277 5.01805E-02-9.01366E-01-1.10244E-04
 -1      2278 3.13602E-02-8.68290E-01-9.79711E-05
 -1      2279 4.97899E-02-9.24292E-01-8.30248E-05
 -1      2280 4.96960E-02-9.46320E-01-5.67253E-05
 -1      2281 3.09725E-02-9.13221E-01-6.31090E-05
 -1      2282 3.64892E-02-9.54194E-01-3.63999E-05
 -1      2283-1.84993E-02-5.01802E-01 1.90422E-04
 -1      2284-1.81818E-02-4.82478E-01 1.99078E-04
 -1      2285-1.91194E-02-5.41112E-01 1.73856E-04
 -1      2286-1.88115E-02-5.21349E-01 1.83059E-04
 -1      2287-2.48571E-03-5.11631E-01-1.24816E-07
 -1      2288-2.13829E-02-7.05799E-01 1.08532E-04
 -1      2289-2.11212E-02-6.84661E-01 1.17878E-04
 -1      2290-2.08525E-02-6.63662E-01 1.24992E-04
 -1      2291-2.05782E-02-6.42811E-01 1.34743E-04
 -1      2292-3.60605E-03-6.74252E-01-1.45029E-07
 -1      2293 1.35383E-02-7.70205E-01-8.64878E-05
 -1      2294 1.34607E-02-7.91802E-01-7.69061E-05
 -1      2295 1.36668E-02-7.27318E-01-1.02371E-04
 -1      2296 1.36073E-02-7.48707E-01-9.34628E-05
 -1      2297-4.21942E-03-7.59302E-01-1.88183E-07
 -1      2298-2.36330E-02-8.78455E-01 4.47838E-05
 -1      2299-2.30613E-02-8.56783E-01 5.28980E-05
 -1      2300-5.39847E-03-8.88621E-01 5.80150E-07
 -1      2301-2.40191E-02-8.99295E-01 3.80839E-05
 -1      2302-2.36528E-02-9.22442E-01 2.65516E-05
 -1      2303-1.72539E-02-4.25950E-01 2.23015E-04
 -1      2304-1.69005E-02-4.07620E-01 2.32292E-04
 -1      2305-1.70409E-03-3.98618E-01-1.00019E-06
 -1      2306-1.66166E-02-3.89561E-01 2.40820E-04
 -1      2307-1.62277E-02-3.71784E-01 2.48499E-04
 -1      2308 1.37845E-02-5.61305E-01-1.67228E-04
 -1      2309 1.38053E-02-5.81473E-01-1.58084E-04
 -1      2310 1.38157E-02-6.01826E-01-1.51380E-04
 -1      2311 1.38172E-02-6.22356E-01-1.41640E-04
 -1      2312-3.02646E-03-5.91492E-01-8.28276E-07
 -1      2313-1.51109E-02-3.20238E-01 2.71279E-04
 -1      2314-1.48546E-02-3.03679E-01 2.82929E-04
 -1      2315-1.58774E-02-3.54299E-01 2.56148E-04
 -1      2316-1.54704E-02-3.37114E-01 2.64042E-04
 -1      2317-1.34949E-03-3.28684E-01-2.58283E-09
 -1      2318 4.64907E-03-2.70918E-02-4.78215E-04
 -1      2319 5.06324E-03-3.31172E-02-4.64570E-04
 -1      2320 5.50075E-03-3.96923E-02-4.56888E-04
 -1      2321 5.92903E-03-4.68047E-02-4.48616E-04
 -1      2322-6.25729E-05-3.62679E-02 1.63347E-06
 -1      2323-7.90783E-03-8.04063E-02 4.18764E-04
 -1      2324-7.46486E-03-7.12372E-02 4.26882E-04
 -1      2325-7.01809E-03-6.25677E-02 4.34744E-04
 -1      2326-6.56463E-03-5.44107E-02 4.44319E-04
 -1      2327-1.45179E-04-6.68080E-02 1.04343E-06
 -1      2328-4.25140E-03-2.15985E-02 4.88808E-04
 -1      2329-3.77670E-03-1.66913E-02 4.99671E-04
 -1      2330-2.82696E-03-8.68007E-03 5.22512E-04
 -1      2331-3.29042E-03-1.23726E-02 5.08873E-04
 -1      2332-3.25995E-05-1.44023E-02 3.91884E-06
 -1      2333 9.91450E-03-1.57905E-01-3.60828E-04
 -1      2334 1.02097E-02-1.70744E-01-3.51123E-04
 -1      2335 9.29203E-03-1.33509E-01-3.77511E-04
 -1      2336 9.60795E-03-1.45490E-01-3.67770E-04
 -1      2337-4.54705E-04-1.51556E-01 3.79680E-07
 -1      2338 1.09676E-02-2.11560E-01-3.28076E-04
 -1      2339 1.11689E-02-2.25943E-01-3.17072E-04
 -1      2340-1.07687E-03-2.33214E-01 7.10817E-06
 -1      2341 1.14328E-02-2.40850E-01-3.10657E-04
 -1      2342 1.17426E-02-2.56024E-01-3.03816E-04
 -1      2343 7.90806E-03-9.01195E-02-4.09364E-04
 -1      2344 8.27061E-03-1.00267E-01-4.01435E-04
 -1      2345 8.62178E-03-1.10888E-01-3.93691E-04
 -1      2346 8.96255E-03-1.21972E-01-3.84613E-04
 -1      2347-2.71886E-04-1.05439E-01 7.59403E-07
 -1      2348 1.71266E-03-3.08181E-03-4.88383E-04
 -1      2349 2.24896E-03-5.66338E-03-5.05469E-04
 -1      2350 1.35764E-03-1.61445E-03-4.76297E-04
 -1      2351-2.34906E-05-2.65650E-03 8.80516E-06
 -1      2352 5.14684E-04-5.57802E-04-2.23502E-04
 -1      2353 1.65979E-03-9.01114E-04-6.89230E-04
 -1      2354 1.35923E-02-4.82684E-01-1.99920E-04
 -1      2355 1.36567E-02-5.02012E-01-1.90792E-04
 -1      2356 1.37241E-02-4.45253E-01-2.19259E-04
 -1      2357 1.35156E-02-4.63591E-01-2.06996E-04
 -1      2358-2.23270E-03-4.72980E-01-3.68078E-07
 -1      2359-2.28271E-02-8.34995E-01 6.00787E-05
 -1      2360-2.26028E-02-8.13227E-01 6.83143E-05
 -1      2361-2.23730E-02-7.91540E-01 7.63718E-05
 -1      2362-2.21351E-02-7.69945E-01 8.59236E-05
 -1      2363-4.53551E-03-8.02496E-01-5.03203E-07
 -1      2364 1.28306E-02-8.99886E-01-3.66774E-05
 -1      2365 1.23745E-02-9.22816E-01-2.77689E-05
 -1      2366-5.60178E-03-9.26466E-01-8.95366E-07
 -1      2367 1.25405E-02-9.39816E-01-2.20768E-05
 -1      2368 2.17101E-02-9.51906E-01-2.56748E-05
 -1      2369 3.69873E-03-9.55557E-01-8.43559E-06
 -1      2370 1.20205E-02-2.71594E-01-2.97817E-04
 -1      2371 1.20909E-02-2.87569E-01-2.86733E-04
 -1      2372 1.23319E-02-3.03833E-01-2.81086E-04
 -1      2373 1.25092E-02-3.20395E-01-2.71366E-04
 -1      2374-1.21306E-03-2.95533E-01 7.56224E-07
 -1      2375 1.31520E-02-8.57050E-01-5.33785E-05
 -1      2376 1.31399E-02-8.79046E-01-4.45802E-05
 -1      2377 1.33721E-02-8.13491E-01-6.96052E-05
 -1      2378 1.32747E-02-8.35261E-01-6.05023E-05
 -1      2379-4.87370E-03-8.45982E-01 1.97326E-07
 -1      2380 1.26754E-02-3.37276E-01-2.64132E-04
 -1      2381 1.28309E-02-3.54468E-01-2.54378E-04
 -1      2382 1.29716E-02-3.71958E-01-2.48237E-04
 -1      2383 1.33788E-02-3.89255E-01-2.44537E-04
 -1      2384-1.54987E-03-3.63060E-01-1.78961E-07
 -1      2385-1.12826E-02-1.70649E-01 3.53387E-04
 -1      2386-1.08762E-02-1.57816E-01 3.61380E-04
 -1      2387-1.23230E-02-1.97527E-01 3.44194E-04
 -1      2388-1.16856E-02-1.83895E-01 3.46966E-04
 -1      2389-5.66139E-04-1.77227E-01 7.78858E-07
 -1      2390-1.45341E-02-2.87419E-01 2.90822E-04
 -1      2391-1.42616E-02-2.71487E-01 3.03212E-04
 -1      2392-1.15095E-03-2.63695E-01 4.43528E-06
 -1      2393-1.39420E-02-2.55923E-01 3.11732E-04
 -1      2394-1.36319E-02-2.40747E-01 3.23153E-04
 -1      2395-1.04652E-02-1.45407E-01 3.69099E-04
 -1      2396-1.00507E-02-1.33432E-01 3.78194E-04
 -1      2397-9.63194E-03-1.21900E-01 3.85713E-04
 -1      2398-9.20728E-03-1.10823E-01 3.95640E-04
 -1      2399-3.56239E-04-1.27600E-01 4.63215E-07
 -1      2400-4.90459E-04-5.26642E-04 2.18634E-04
 -1      2401-1.36347E-03-1.61808E-03 4.80135E-04
 -1      2402-1.61927E-03-8.59492E-04 6.78217E-04
 -1      2403-1.43912E-02-9.56087E-01 6.88713E-06
 -1      2404-3.24773E-02-9.52062E-01 2.44799E-05
 -1      2405-2.35273E-02-9.39441E-01 2.07881E-05
 -1      2406 1.37566E-02-6.84910E-01-1.18145E-04
 -1      2407 1.37161E-02-7.06050E-01-1.09875E-04
 -1      2408 1.38071E-02-6.43053E-01-1.34675E-04
 -1      2409 1.37867E-02-6.63907E-01-1.25394E-04
 -1      2410-2.02964E-02-6.22119E-01 1.41364E-04
 -1      2411-2.00099E-02-6.01593E-01 1.49368E-04
 -1      2412-1.97178E-02-5.81243E-01 1.56792E-04
 -1      2413-1.94224E-02-5.61080E-01 1.66627E-04
 -1      2414 7.14994E-03-7.12816E-02-4.25428E-04
 -1      2415 7.53525E-03-8.04561E-02-4.15648E-04
 -1      2416 6.34869E-03-5.44447E-02-4.42580E-04
 -1      2417 6.75415E-03-6.26073E-02-4.32843E-04
 -1      2418-6.10566E-03-4.67738E-02 4.51513E-04
 -1      2419-5.64285E-03-3.96651E-02 4.60116E-04
 -1      2420-5.17512E-03-3.30941E-02 4.68155E-04
 -1      2421-4.73587E-03-2.70739E-02 4.81491E-04
 -1      2422 2.73892E-03-8.63001E-03-5.07329E-04
 -1      2423 3.24017E-03-1.23735E-02-5.02252E-04
 -1      2424 3.73409E-03-1.66938E-02-4.96938E-04
 -1      2425 4.18491E-03-2.16125E-02-4.85549E-04
 -1      2426-5.13464E-05-7.11376E-03 1.08590E-05
 -1      2427-2.36417E-03-5.70909E-03 5.31221E-04
 -1      2428-1.77161E-03-3.08983E-03 5.07638E-04
 -1      2429-1.78585E-02-4.63389E-01 2.06432E-04
 -1      2430-1.76475E-02-4.44543E-01 2.16402E-04
 -1      2431-1.93043E-03-4.35286E-01-1.18273E-06
 -1      2432 1.36836E-02-4.26647E-01-2.27375E-04
 -1      2433 1.35645E-02-4.07313E-01-2.37683E-04
 -1      2434-2.18903E-02-7.48450E-01 9.28988E-05
 -1      2435-2.16394E-02-7.27064E-01 1.01091E-04
 -1      2436-3.90935E-03-7.16529E-01-7.19632E-07
 -1      2437 1.37095E-02-5.21565E-01-1.83810E-04
 -1      2438 1.37524E-02-5.41332E-01-1.74688E-04
 -1      2439-2.75018E-03-5.51161E-01-2.82277E-07
 -1      2440 1.04908E-02-1.83996E-01-3.44976E-04
 -1      2441 1.08403E-02-1.97647E-01-3.39366E-04
 -1      2442-8.20877E-04-2.04399E-01 3.90211E-06
 -1      2443-1.32638E-02-2.25846E-01 3.31720E-04
 -1      2444-1.28496E-02-2.11436E-01 3.40821E-04
 -1      2445-8.77959E-03-1.00207E-01 4.02510E-04
 -1      2446-8.34688E-03-9.00644E-02 4.12401E-04
 -1      2447-2.02062E-04-8.51500E-02 1.28917E-06
 -1      2448-9.84763E-05-5.04871E-02 1.48829E-06
 -1      2449-3.81589E-05-2.42070E-02 1.82884E-06
 -1      2450-3.31204E-03-6.32547E-01 1.50366E-07
 -1      2451 2.26002E-04-3.39699E-03-3.66249E-06
 -1      2452-2.73709E-03-9.28237E-01 6.77148E-07
 -1      2453-4.85926E-03-8.46099E-01-1.30280E-07
 -1      2454-2.37266E-05-1.53945E-02-1.45295E-06
 -1      2455-2.09212E-04-8.59938E-02-3.11528E-06
 -1      2456-3.91123E-03-7.16744E-01 1.03518E-06
 -1      2457-3.31582E-03-6.32830E-01-2.00467E-06
 -1      2458-2.75442E-03-5.51508E-01-6.44051E-07
 -1      2459-2.23927E-03-4.73395E-01 8.76774E-07
 -1      2460-1.55479E-03-3.63571E-01-1.94330E-06
 -1      2461-5.72705E-04-1.77939E-01-3.11155E-06
 -1      2462-1.02863E-04-5.13993E-02 1.07203E-06
 -1      2463-1.15925E-03-2.96149E-01 1.82295E-06
 -1      2464-3.75028E-04-1.28378E-01-1.26415E-07
 -1      2465-8.35463E-04-2.33860E-01-1.10506E-06
 -1      2466-8.72996E-03-4.17238E-01 1.11157E-05
 -1      2467-1.24785E-02-7.80932E-01 4.50441E-06
 -1      2468-2.23836E-03-3.08950E-02 2.34377E-05
 -1      2469-3.33794E-02-9.52699E-01-8.24861E-06
 -1      2470-1.55117E-03-1.43768E-03-2.52752E-04
 -1      2471-3.49547E-02-9.53908E-01 9.03300E-06
 -1      2472 1.51062E-03-1.37794E-03 2.52825E-04
 -1      2473 1.03485E-02-1.06294E-01 1.46571E-04
 -1      2474-8.83268E-03-6.76571E-02-1.58993E-04
 -1      2475 1.76645E-02-6.74650E-01 4.51484E-05
 -1      2476-2.48852E-02-6.74350E-01 4.43624E-05
 -1      2477 1.73071E-02-5.12143E-01-6.91572E-05
 -1      2478 1.75868E-02-5.91949E-01-5.65075E-05
 -1      2479-2.36477E-02-5.91664E-01-5.63981E-05
 -1      2480-2.22875E-02-5.11884E-01-6.90477E-05
 -1      2481 8.54440E-03-6.77115E-02-1.57422E-04
 -1      2482-1.84210E-02-3.29127E-01-9.84095E-05
 -1      2483 1.46621E-02-2.64375E-01 1.10562E-04
 -1      2484-1.49860E-02-2.05055E-01 1.24578E-04
 -1      2485 1.57151E-02-3.29333E-01-9.82753E-05
 -1      2486 1.20534E-02-1.52352E-01-1.33686E-04
 -1      2487-1.09632E-02-1.06207E-01 1.46614E-04
 -1      2488-1.67165E-02-2.64210E-01 1.10451E-04
 -1      2489-1.29493E-02-1.52245E-01-1.34513E-04
 -1      2490 1.35159E-02-2.05189E-01 1.23748E-04
 -1      2491-1.53205E-03-1.40523E-03 2.55629E-04
 -1      2492 2.32168E-02-9.54563E-01 8.91521E-06
 -1      2493 1.89433E-02-8.06635E-01 3.09373E-05
 -1      2494 7.06812E-03-3.84257E-02 1.93269E-04
 -1      2495-3.13799E-03-8.14504E-03-1.96811E-04
 -1      2496-2.78532E-02-8.88520E-01-1.53143E-05
 -1      2497 1.54058E-03-1.33298E-03-2.71465E-04
 -1      2498 1.92675E-02-7.55329E-01 3.89767E-05
 -1      2499 5.67763E-03-2.41277E-02 2.05032E-04
 -1      2500 2.50016E-02-9.55571E-01-9.80752E-06
 -1      2501 1.77010E-02-3.96001E-01 9.99111E-05
 -1      2502 1.90518E-02-4.39301E-01 8.69558E-05
 -1      2503 3.39301E-03-8.62467E-03-2.15935E-04
 -1      2504 2.32401E-02-8.86889E-01 1.18119E-05
 -1      2505-1.91093E-02-8.86571E-01 1.17336E-05
 -1      2506-2.42828E-02-4.44012E-01-1.10634E-04
 -1      2507-2.30259E-02-3.90843E-01-1.20426E-04
 -1      2508-3.04809E-02-8.12229E-01-3.62944E-05
 -1      2509 2.12626E-02-8.12613E-01-3.50548E-05
 -1      2510 2.13918E-02-7.49948E-01-4.77482E-05
 -1      2511-2.96960E-02-7.49577E-01-4.74167E-05
 -1      2512-8.08312E-03-4.02062E-02-2.34531E-04
 -1      2513-6.10574E-03-2.27478E-02-2.45670E-04
 -1      2514 1.59734E-02-1.98673E-01-1.72668E-04
 -1      2515-2.57716E-02-5.02519E-01 9.83361E-05
 -1      2516 2.16248E-02-6.84757E-01-6.17313E-05
 -1      2517-2.89888E-02-6.84396E-01-6.16683E-05
 -1      2518-2.76416E-02-6.01405E-01 7.82593E-05
 -1      2519 2.14454E-02-6.01744E-01 7.87586E-05
 -1      2520 2.10451E-02-5.21561E-01 9.42147E-05
 -1      2521-1.07641E-02-7.18594E-02 2.21521E-04
 -1      2522 1.90183E-02-3.37468E-01 1.37007E-04
 -1      2523 1.21323E-02-1.01266E-01-2.05954E-04
 -1      2524-1.55693E-02-1.58226E-01 1.87643E-04
 -1      2525 1.04483E-02-7.19307E-02 2.20603E-04
 -1      2526-2.18225E-02-3.37234E-01 1.36054E-04
 -1      2527-1.72839E-02-1.98500E-01-1.72855E-04
 -1      2528-1.26722E-02-1.01095E-01-2.08146E-04
 -1      2529 1.46148E-02-1.58372E-01 1.87115E-04
 -1      2530-1.99221E-02-2.71791E-01-1.54760E-04
 -1      2531 1.78284E-02-2.71899E-01-1.54474E-04
 -1      2532 1.97612E-02-3.91156E-01-1.18544E-04
 -1      2533 7.91503E-03-4.02464E-02-2.33678E-04
 -1      2534 6.01549E-03-2.27494E-02-2.44960E-04
 -1      2535-3.85211E-03-9.41431E-03 2.54438E-04
 -1      2536 3.92167E-03-9.44601E-03 2.52596E-04
 -1      2537-2.68972E-02-4.50278E-01 1.32763E-04
 -1      2538-2.89545E-02-3.87520E-01 1.91998E-04
 -1      2539-3.34214E-02-8.19490E-01 4.20134E-05
 -1      2540-3.24115E-02-7.42380E-01 5.97168E-05
 -1      2541 2.10758E-02-4.46338E-01-1.16890E-04
 -1      2542-6.46404E-03-2.10501E-02 3.03531E-04
 -1      2543-9.12645E-03-4.24661E-02 2.84283E-04
 -1      2544 2.57589E-02-8.67635E-01-3.35366E-05
 -1      2545 1.59793E-02-1.33652E-01 2.66384E-04
 -1      2546 2.57987E-02-6.42341E-01-9.43424E-05
 -1      2547-3.06190E-02-5.42376E-01 1.22666E-04
 -1      2548-3.25613E-02-6.41931E-01-9.41734E-05
 -1      2549 2.46669E-02-4.82164E-01 1.39460E-04
 -1      2550 1.08066E-02-5.48967E-02 3.11363E-04
 -1      2551-1.61717E-02-1.23117E-01-2.72757E-04
 -1      2552 1.54863E-02-1.23308E-01-2.71954E-04
 -1      2553-1.67902E-02-1.33541E-01 2.67042E-04
 -1      2554 2.01592E-02-2.40748E-01-2.21029E-04
 -1      2555-2.18920E-02-2.40627E-01-2.20920E-04
 -1      2556-2.41906E-02-3.03327E-01 1.97545E-04
 -1      2557 2.17601E-02-3.03593E-01 1.97265E-04
 -1      2558 2.05568E-02-9.11526E-01-2.25994E-05
 -1      2559 2.59303E-02-5.61294E-01 1.21647E-04
 -1      2560-3.08396E-02-5.52852E-01-1.20108E-04
 -1      2561 2.52852E-02-5.50166E-01-1.21165E-04
 -1      2562-2.15845E-02-2.32794E-01 2.24842E-04
 -1      2563 1.16641E-02-2.33951E-01 1.61579E-04
 -1      2564 2.41010E-02-2.34143E-01 1.58552E-04
 -1      2565 3.66443E-02-2.34237E-01 7.22881E-04
 -1      2566 1.87255E-02-2.19368E-01 3.45502E-04
 -1      2567 3.08618E-02-2.19666E-01 3.42173E-04
 -1      2568 6.53685E-03-2.19338E-01 3.00594E-05
 -1      2569 3.23200E-02-2.49268E-01 3.24358E-04
 -1      2570 1.95527E-02-2.48985E-01 3.27113E-04
 -1      2571 6.73096E-03-2.48933E-01 2.81629E-05
 -1      2572-5.67462E-02-9.47846E-01-9.12001E-06
 -1      2573-5.65723E-02-9.30857E-01-1.18219E-05
 -1      2574-5.75367E-02-9.48451E-01 9.25840E-06
 -1      2575-5.73622E-02-9.31461E-01 1.24457E-05
 -1      2576-3.41682E-02-9.53308E-01 3.19115E-07
 -1      2577-1.95424E-02-9.31085E-01-1.25242E-05
 -1      2578-1.94101E-02-9.48086E-01-9.08721E-06
 -1      2579 8.87224E-03-9.49017E-01 1.04527E-05
 -1      2580-5.08163E-03-9.53622E-01 4.93528E-07
 -1      2581 8.71208E-03-9.32015E-01 1.36179E-05
 -1      2582-8.86337E-04-1.40741E-03-2.53945E-04
 -1      2583-9.09434E-04-2.28994E-03-5.91426E-05
 -1      2584 1.04641E-04-2.52610E-03 1.65614E-05
 -1      2585 8.83058E-04-1.37823E-03 2.45453E-04
 -1      2586 1.08232E-03-2.26745E-03 7.00266E-05
 -1      2587 7.20893E-07-1.25331E-03 3.74118E-06
 -1      2588-2.76363E-03-2.95920E-03 1.70732E-05
 -1      2589-3.18010E-03-2.24242E-03-2.31021E-04
 -1      2590-3.16422E-03-2.22391E-03 2.34375E-04
 -1      2591-1.52874E-03-1.49440E-03 2.83712E-06
 -1      2592-9.04875E-04-2.26019E-03 7.02112E-05
 -1      2593 4.96461E-02-7.17129E-01 2.39907E-04
 -1      2594 4.26677E-02-6.95950E-01 1.19413E-04
 -1      2595 2.44553E-02-6.95696E-01 1.19283E-04
 -1      2596 2.53276E-02-7.36060E-01 1.08859E-04
 -1      2597 1.84807E-02-7.14763E-01 4.25312E-05
 -1      2598 4.37459E-02-7.36303E-01 1.08013E-04
 -1      2599 6.94714E-03-6.95634E-01 9.71003E-06
 -1      2600 3.20027E-02-7.17043E-01 5.28202E-05
 -1      2601 7.62153E-03-7.35986E-01 1.21134E-05
 -1      2602 1.37007E-02-7.16829E-01 5.31944E-05
 -1      2603-3.55719E-03-4.60312E-03 1.54991E-05
 -1      2604-4.30817E-03-3.58025E-03 2.56606E-04
 -1      2605 1.05402E-04-4.13382E-03 1.31285E-05
 -1      2606 1.17337E-03-2.67543E-03 2.61695E-04
 -1      2607 4.38847E-02-8.26668E-01 7.00580E-05
 -1      2608 2.51202E-02-8.26459E-01 7.06903E-05
 -1      2609 5.01514E-02-8.46554E-01 1.29105E-04
 -1      2610 4.61732E-02-8.66799E-01 4.73402E-05
 -1      2611 2.73001E-02-8.66605E-01 5.23248E-05
 -1      2612 2.11038E-02-8.46652E-01 2.09397E-05
 -1      2613 7.08145E-03-8.26338E-01 6.37878E-06
 -1      2614 1.32324E-02-8.46234E-01 2.86665E-05
 -1      2615 9.15559E-03-8.66464E-01 4.68112E-06
 -1      2616-1.95268E-02-6.57689E-02 2.12708E-04
 -1      2617-5.05000E-03-6.12355E-02 5.70858E-05
 -1      2618-1.33075E-02-5.54649E-02-5.42884E-07
 -1      2619-1.76967E-02-5.09213E-02 2.48069E-04
 -1      2620-4.82702E-03-4.68340E-02 7.03278E-05
 -1      2621-1.00166E-02-5.62754E-02 2.49937E-04
 -1      2622-5.21135E-03-6.50568E-02 2.14076E-04
 -1      2623-1.11920E-04-5.50502E-02 6.50161E-07
 -1      2624-5.00609E-03-5.01432E-02 2.47451E-04
 -1      2625-1.89201E-02-6.14463E-02 5.10643E-04
 -1      2626-1.70598E-02-4.70666E-02 5.63843E-04
 -1      2627-1.18361E-02-6.09669E-02 5.11028E-04
 -1      2628-1.08077E-02-4.65503E-02 5.63901E-04
 -1      2629-4.32446E-03-3.60288E-03-2.58616E-04
 -1      2630-1.22801E-03-2.71965E-03-2.76062E-04
 -1      2631 3.20301E-02-7.27697E-01 8.04889E-08
 -1      2632 3.19731E-02-7.06446E-01 2.73765E-07
 -1      2633-3.98801E-03-7.27334E-01 2.58950E-07
 -1      2634-3.83447E-03-7.06077E-01 3.64326E-07
 -1      2635-4.95546E-03-8.56965E-01-3.51569E-07
 -1      2636 9.07526E-03-8.77357E-01 2.15431E-05
 -1      2637-4.77678E-03-8.35187E-01 3.91437E-07
 -1      2638 7.87810E-03-8.58629E-02 2.09872E-04
 -1      2639-2.08206E-04-9.06645E-02-4.59686E-07
 -1      2640 1.33314E-02-9.57130E-02 4.30431E-04
 -1      2641 4.94834E-03-1.00695E-01 1.59010E-04
 -1      2642 4.83080E-03-9.59016E-02 3.73352E-05
 -1      2643 5.49428E-03-8.31553E-02 2.04315E-04
 -1      2644 1.31219E-02-7.86112E-02 4.95100E-04
 -1      2645 5.34518E-03-7.88237E-02 5.25682E-05
 -1      2646-8.89644E-05-5.50500E-02-5.14540E-07
 -1      2647-6.39584E-03-5.12095E-02-2.25584E-04
 -1      2648-4.31745E-03-6.30527E-02-1.73018E-04
 -1      2649-1.09388E-02-5.90139E-02-4.63151E-04
 -1      2650-4.20550E-03-5.92702E-02-4.12841E-05
 -1      2651-8.20188E-03-8.58074E-02-2.09835E-04
 -1      2652-1.64533E-04-8.10124E-02-1.91486E-07
 -1      2653-1.23566E-02-7.63248E-02-4.45356E-04
 -1      2654-4.60145E-03-7.17071E-02-1.69648E-04
 -1      2655-4.77441E-03-7.65779E-02-3.90561E-05
 -1      2656-7.38080E-04-2.41399E-01 8.05381E-07
 -1      2657-6.95864E-04-2.26503E-01 1.53978E-06
 -1      2658 1.05040E-02-8.83630E-02 1.80058E-04
 -1      2659 6.27127E-03-1.91361E-01 3.17952E-05
 -1      2660 1.77443E-02-1.91232E-01 3.62108E-04
 -1      2661 1.05536E-02-1.77856E-01 1.76870E-04
 -1      2662 7.21199E-03-1.68039E-01 4.41896E-05
 -1      2663 1.80768E-02-1.67886E-01 4.18671E-04
 -1      2664 1.41569E-02-1.81153E-01 1.52118E-04
 -1      2665-6.02097E-03-8.80956E-02-2.02944E-04
 -1      2666-1.45218E-02-9.31461E-02-4.81645E-04
 -1      2667-6.21790E-03-9.34062E-02-5.46645E-05
 -1      2668-5.39537E-04-1.84460E-01 4.16726E-07
 -1      2669 7.36995E-03-1.74274E-01 1.73650E-04
 -1      2670-1.60668E-02-3.63389E-01-1.26990E-04
 -1      2671-1.50339E-03-3.54742E-01 4.27408E-08
 -1      2672-2.44067E-02-3.45972E-01-2.72964E-04
 -1      2673-1.00115E-02-3.37432E-01-1.05134E-04
 -1      2674-1.01441E-02-3.46197E-01-2.34197E-05
 -1      2675-1.28538E-02-5.15370E-02-2.24261E-04
 -1      2676-1.78638E-02-5.94684E-02-4.61375E-04
 -1      2677-1.84458E-02-6.37205E-02-1.73811E-04
 -1      2678 6.40405E-03-1.97988E-01 1.35155E-04
 -1      2679-1.06833E-02-8.36209E-02-1.84239E-04
 -1      2680 1.55779E-02-8.14965E-02 2.56953E-07
 -1      2681 1.59794E-02-8.62067E-02-2.06965E-04
 -1      2682 1.92651E-02-7.24828E-02-1.69765E-04
 -1      2683 1.98000E-02-7.68846E-02-4.41835E-04
 -1      2684 4.42446E-03-7.66081E-02-3.83002E-05
 -1      2685 7.72648E-03-8.58595E-02-2.06778E-04
 -1      2686-1.90237E-04-8.10181E-02 6.49498E-07
 -1      2687 1.19536E-02-7.64016E-02-4.41458E-04
 -1      2688 4.31228E-03-7.17415E-02-1.68612E-04
 -1      2689 1.63731E-02-9.11426E-02 1.90945E-07
 -1      2690 1.59793E-02-8.62089E-02 2.06526E-04
 -1      2691 2.18602E-02-9.61809E-02 4.25765E-04
 -1      2692 2.23679E-02-1.01418E-01 1.60510E-04
 -1      2693 1.38194E-02-6.32895E-01 6.88804E-05
 -1      2694-3.38560E-03-6.43120E-01 2.96401E-07
 -1      2695 7.06380E-03-6.63998E-01 5.05826E-05
 -1      2696 7.09901E-03-6.53661E-01 1.22429E-05
 -1      2697 2.43700E-02-6.53712E-01 1.37070E-04
 -1      2698-2.04497E-02-6.32656E-01 6.84503E-05
 -1      2699-3.38972E-03-6.43120E-01-1.34490E-07
 -1      2700-3.12916E-02-6.53320E-01 1.35881E-04
 -1      2701-1.41325E-02-6.63848E-01 4.97886E-05
 -1      2702-1.40230E-02-6.53513E-01 1.19052E-05
 -1      2703 4.25941E-02-6.85437E-01 4.71336E-05
 -1      2704 3.16896E-02-6.43503E-01 4.74105E-07
 -1      2705 3.16272E-02-6.33128E-01 6.90341E-05
 -1      2706 4.24274E-02-6.64454E-01 5.03358E-05
 -1      2707 4.23325E-02-6.53980E-01 1.36502E-04
 -1      2708 6.98720E-03-6.84990E-01 4.68317E-05
 -1      2709-3.84690E-02-6.43010E-01 3.52688E-07
 -1      2710-3.82606E-02-6.32638E-01 6.87131E-05
 -1      2711-4.92587E-02-6.53334E-01 1.36336E-04
 -1      2712-4.95022E-02-6.63803E-01 4.99521E-05
 -1      2713-3.44573E-02-4.73266E-01-1.01358E-04
 -1      2714-3.47192E-02-4.82853E-01-7.56404E-07
 -1      2715-4.51026E-02-5.02148E-01-7.59369E-05
 -1      2716-1.21459E-02-4.92524E-01-1.87825E-05
 -1      2717-4.47854E-02-4.92416E-01-2.04558E-04
 -1      2718-2.30077E-03-4.82861E-01-2.68224E-07
 -1      2719-1.80345E-02-4.73214E-01-1.01279E-04
 -1      2720-1.22634E-02-5.02053E-01-7.60039E-05
 -1      2721-2.81401E-02-4.92314E-01-2.04372E-04
 -1      2722 6.14439E-03-5.12419E-02-2.22277E-04
 -1      2723 1.06465E-02-5.90748E-02-4.59257E-04
 -1      2724 3.96092E-03-5.92948E-02-4.04956E-05
 -1      2725 4.08000E-03-6.30790E-02-1.72108E-04
 -1      2726 1.26460E-02-5.16056E-02-2.22900E-04
 -1      2727 1.30789E-02-5.55366E-02-5.05290E-07
 -1      2728 1.76165E-02-5.95707E-02-4.59128E-04
 -1      2729 1.81740E-02-6.38283E-02-1.72731E-04
 -1      2730-1.59662E-02-8.13946E-02 9.91648E-08
 -1      2731-1.63986E-02-8.60994E-02-2.07630E-04
 -1      2732-1.95897E-02-7.23624E-02-1.70573E-04
 -1      2733-2.01513E-02-7.67574E-02-4.43013E-04
 -1      2734 6.92468E-03-2.56573E-01 1.22815E-04
 -1      2735-3.07433E-02-3.54832E-01 1.17013E-07
 -1      2736-3.10493E-02-3.63494E-01-1.26570E-04
 -1      2737-3.87643E-02-3.37697E-01-1.05236E-04
 -1      2738-3.91505E-02-3.46168E-01-2.72223E-04
 -1      2739 2.77329E-02-3.55176E-01 4.82360E-07
 -1      2740 2.79362E-02-3.63843E-01-1.26010E-04
 -1      2741 3.59539E-02-3.38134E-01-1.05120E-04
 -1      2742 3.62426E-02-3.46613E-01-2.71978E-04
 -1      2743 7.23956E-03-3.46303E-01-2.32870E-05
 -1      2744 1.29064E-02-3.63560E-01-1.26310E-04
 -1      2745-1.50113E-03-3.54742E-01-9.65505E-08
 -1      2746 7.21122E-03-3.37537E-01-1.04792E-04
 -1      2747 2.14543E-02-3.46245E-01-2.72183E-04
 -1      2748-8.14134E-03-8.58079E-02 2.07314E-04
 -1      2749-2.24787E-04-9.06695E-02 6.37746E-07
 -1      2750-1.36791E-02-9.56130E-02 4.26158E-04
 -1      2751-5.47651E-03-1.00659E-01 1.60634E-04
 -1      2752-5.34301E-03-9.58611E-02 3.76024E-05
 -1      2753 2.13924E-02-1.71651E-01 1.88069E-07
 -1      2754 2.17152E-02-1.78173E-01-1.74577E-04
 -1      2755 2.71243E-02-1.58964E-01-1.44186E-04
 -1      2756 2.75616E-02-1.65226E-01-3.74354E-04
 -1      2757 5.95813E-03-1.64939E-01-3.24842E-05
 -1      2758 1.03551E-02-1.77852E-01-1.74478E-04
 -1      2759-5.40509E-04-1.71192E-01 4.83215E-07
 -1      2760 1.65430E-02-1.64791E-01-3.73022E-04
 -1      2761 5.87786E-03-1.58284E-01-1.42890E-04
 -1      2762-1.68260E-02-9.10300E-02 1.46959E-07
 -1      2763-1.63985E-02-8.61018E-02 2.06984E-04
 -1      2764-2.29200E-02-1.01253E-01 1.59437E-04
 -1      2765-2.23740E-02-9.60235E-02 4.25779E-04
 -1      2766-2.24822E-02-1.71456E-01 2.63687E-07
 -1      2767-2.28631E-02-1.77972E-01-1.74901E-04
 -1      2768-2.80913E-02-1.58727E-01-1.44766E-04
 -1      2769-2.85820E-02-1.64981E-01-3.74701E-04
 -1      2770-6.97482E-03-1.64883E-01-3.28812E-05
 -1      2771-1.20966E-03-3.04152E-01-4.17315E-07
 -1      2772-1.45728E-02-2.95963E-01-1.42025E-04
 -1      2773-2.33162E-02-3.12248E-01-2.90056E-04
 -1      2774-9.62426E-03-3.12476E-01-2.56337E-05
 -1      2775-9.75465E-03-3.20566E-01-1.08648E-04
 -1      2776 6.57689E-03-2.12059E-01 1.32304E-04
 -1      2777-2.32395E-02-1.84679E-01 2.41676E-07
 -1      2778-2.28631E-02-1.77975E-01 1.74476E-04
 -1      2779-3.05743E-02-1.91377E-01 3.59141E-04
 -1      2780-7.57412E-03-1.91297E-01 3.20751E-05
 -1      2781-3.10509E-02-1.98334E-01 1.34751E-04
 -1      2782-1.14981E-02-1.77755E-01 1.74583E-04
 -1      2783-6.02673E-04-1.84432E-01 4.12191E-07
 -1      2784-7.70342E-03-1.97893E-01 1.35767E-04
 -1      2785-1.88387E-02-1.91061E-01 3.59444E-04
 -1      2786-1.02912E-02-4.53726E-02-5.29123E-04
 -1      2787-4.47923E-03-4.89269E-02-2.18797E-04
 -1      2788-4.33793E-03-4.56439E-02-5.68515E-05
 -1      2789 2.20302E-02-1.84886E-01 2.95571E-07
 -1      2790 2.17153E-02-1.78175E-01 1.74195E-04
 -1      2791 2.96790E-02-1.98619E-01 1.34660E-04
 -1      2792 2.92687E-02-1.91654E-01 3.58592E-04
 -1      2793 2.61862E-02-2.96403E-01-1.43233E-04
 -1      2794 2.64223E-02-3.04591E-01-6.36629E-07
 -1      2795 3.50437E-02-3.12875E-01-2.91212E-04
 -1      2796 3.53550E-02-3.21270E-01-1.08437E-04
 -1      2797 7.11583E-03-3.12575E-01-2.55282E-05
 -1      2798 2.38165E-02-2.26749E-01-1.47598E-06
 -1      2799 2.43787E-02-2.41640E-01-1.51366E-06
 -1      2800-7.11418E-03-1.55771E-02-2.51265E-04
 -1      2801-6.61345E-03-1.35818E-02-7.01044E-07
 -1      2802-1.00185E-02-1.70351E-02-2.41224E-04
 -1      2803-2.79502E-03-1.88993E-02-6.41961E-05
 -1      2804-1.06819E-02-1.91646E-02-5.73044E-04
 -1      2805-2.30597E-02-9.35820E-02-4.79185E-04
 -1      2806-2.24887E-02-8.87658E-02-2.03110E-04
 -1      2807-1.33365E-02-7.85197E-02 4.91483E-04
 -1      2808-5.71072E-03-7.87850E-02 5.31326E-05
 -1      2809-5.87076E-03-8.31188E-02 2.05672E-04
 -1      2810-2.29473E-02-8.45967E-01-2.78544E-05
 -1      2811-3.57498E-02-8.28999E-01-7.19751E-05
 -1      2812-1.78184E-02-8.39959E-01-2.83694E-05
 -1      2813-1.77027E-02-8.29143E-01-7.42024E-06
 -1      2814 2.20446E-02-8.89538E-02-2.01716E-04
 -1      2815 5.73980E-03-9.34872E-02-5.37799E-05
 -1      2816 2.25831E-02-9.37786E-02-4.77269E-04
 -1      2817 1.39872E-02-9.32831E-02-4.77047E-04
 -1      2818 5.61288E-03-8.81804E-02-2.01443E-04
 -1      2819 2.14822E-02-8.39387E-02 2.05026E-04
 -1      2820 2.09314E-02-7.91131E-02 4.90671E-04
 -1      2821 9.12045E-03-6.27417E-01 6.93092E-05
 -1      2822 2.61765E-02-6.17277E-01 1.67898E-04
 -1      2823 9.14089E-03-6.17241E-01 1.77747E-05
 -1      2824-1.56734E-02-6.27244E-01 6.88145E-05
 -1      2825-3.25867E-02-6.16868E-01 1.67450E-04
 -1      2826-1.55536E-02-6.17069E-01 1.75997E-05
 -1      2827 4.39002E-02-6.17565E-01 1.68356E-04
 -1      2828 4.40211E-02-6.27905E-01 6.92692E-05
 -1      2829-5.05811E-02-6.27244E-01 6.88320E-05
 -1      2830-5.03151E-02-6.16910E-01 1.67518E-04
 -1      2831-2.12980E-02-7.89752E-02 4.91078E-04
 -1      2832-2.18815E-02-8.37930E-02 2.05228E-04
 -1      2833-3.05556E-02-1.74681E-01 1.73366E-04
 -1      2834-8.25979E-03-1.67963E-01 4.45970E-05
 -1      2835-3.00467E-02-1.68070E-01 4.14993E-04
 -1      2836-8.41027E-03-1.74167E-01 1.73425E-04
 -1      2837-1.89269E-02-1.67712E-01 4.15101E-04
 -1      2838 2.89956E-02-1.68338E-01 4.14672E-04
 -1      2839 2.94450E-02-1.74958E-01 1.73112E-04
 -1      2840-1.20104E-02-3.68091E-01-1.21369E-04
 -1      2841-2.68587E-02-3.76893E-01-2.86825E-04
 -1      2842-1.21541E-02-3.77120E-01-3.26482E-05
 -1      2843 2.99212E-02-1.81866E-01-1.69446E-04
 -1      2844 7.51270E-03-1.88184E-01-4.54288E-05
 -1      2845 3.03586E-02-1.88486E-01-4.01077E-04
 -1      2846-3.15878E-02-1.88193E-01-4.01380E-04
 -1      2847-3.10910E-02-1.81581E-01-1.69476E-04
 -1      2848-8.73902E-03-1.88101E-01-4.57616E-05
 -1      2849 7.42221E-03-1.81159E-01-1.70220E-04
 -1      2850 1.87048E-02-1.88040E-01-4.01870E-04
 -1      2851 4.37970E-02-7.47025E-01 4.13920E-05
 -1      2852 7.57418E-03-7.46604E-01 4.20169E-05
 -1      2853-1.70451E-02-4.96745E-02-2.18765E-04
 -1      2854-1.64242E-02-4.58707E-02-5.27617E-04
 -1      2855-2.38987E-02-2.83634E-01-3.39322E-04
 -1      2856-1.08424E-02-2.91641E-01-1.41743E-04
 -1      2857-1.06945E-02-2.83871E-01-3.68760E-05
 -1      2858-2.90153E-02-4.58411E-01-2.42597E-04
 -1      2859-1.35018E-02-4.67925E-01-1.00017E-04
 -1      2860-1.33723E-02-4.58630E-01-2.59347E-05
 -1      2861-4.16785E-02-3.68348E-01-1.21525E-04
 -1      2862-4.20632E-02-3.77081E-01-2.86400E-04
 -1      2863-4.56457E-02-4.68075E-01-1.00340E-04
 -1      2864-4.53028E-02-4.58545E-01-2.42649E-04
 -1      2865-4.18829E-02-8.56746E-01-3.23862E-07
 -1      2866-4.17490E-02-8.45873E-01-2.78510E-05
 -1      2867-5.46942E-02-8.39790E-01-2.87569E-05
 -1      2868-5.45304E-02-8.28932E-01-7.25804E-05
 -1      2869-2.85169E-02-2.96107E-01-1.42096E-04
 -1      2870-2.88438E-02-3.04284E-01-5.04469E-07
 -1      2871-3.75652E-02-3.12468E-01-2.89459E-04
 -1      2872-3.79721E-02-3.20850E-01-1.08330E-04
 -1      2873-1.14980E-02-1.77754E-01-1.75370E-04
 -1      2874-4.73856E-04-1.71172E-01 5.53685E-07
 -1      2875-1.75561E-02-1.64641E-01-3.74644E-04
 -1      2876-6.76742E-03-1.58208E-01-1.42678E-04
 -1      2877-3.09457E-05-1.30662E-02-2.15755E-06
 -1      2878-3.53745E-03-1.52083E-02-2.54001E-04
 -1      2879-2.62799E-03-1.61692E-02-2.43696E-04
 -1      2880-6.69313E-03-1.86209E-02-5.76887E-04
 -1      2881 1.02803E-02-8.37289E-02-1.82535E-04
 -1      2882 1.96033E-02-6.37952E-01 5.93150E-05
 -1      2883-2.63050E-02-6.37630E-01 5.89683E-05
 -1      2884 3.04702E-02-2.12515E-01 1.28463E-04
 -1      2885 3.57759E-02-2.92348E-01-1.40866E-04
 -1      2886 3.54285E-02-2.84235E-01-3.40401E-04
 -1      2887 8.49094E-03-2.83928E-01-3.68569E-05
 -1      2888 3.26801E-02-2.56992E-01 1.20216E-04
 -1      2889-1.09574E-02-8.82827E-02 1.80532E-04
 -1      2890-1.20556E-03-3.04153E-01-2.47340E-08
 -1      2891 1.22470E-02-2.96111E-01-1.41799E-04
 -1      2892 7.14743E-03-3.20667E-01-1.08105E-04
 -1      2893 2.08009E-02-3.12501E-01-2.89189E-04
 -1      2894-1.53550E-02-1.81011E-01 1.52891E-04
 -1      2895 7.13898E-03-8.15433E-01 3.00024E-05
 -1      2896-1.80463E-02-9.40464E-01-2.45957E-06
 -1      2897-4.12128E-02-9.18630E-01 1.03045E-06
 -1      2898-1.88323E-02-9.41067E-01 3.82921E-06
 -1      2899 1.39664E-02-1.74870E-01-1.54198E-04
 -1      2900-4.24366E-03-9.18876E-01 1.59190E-06
 -1      2901 1.02297E-02-9.41396E-01 3.62502E-06
 -1      2902-8.55692E-03-5.31107E-02-1.93353E-04
 -1      2903-1.50586E-02-1.74732E-01-1.54715E-04
 -1      2904 1.68522E-02-3.00103E-01-1.23338E-04
 -1      2905-1.92407E-02-2.99946E-01-1.23645E-04
 -1      2906-8.51037E-03-1.81057E-01-1.69527E-04
 -1      2907-1.99270E-02-1.87855E-01-4.02115E-04
 -1      2908-3.80842E-02-2.91991E-01-1.41167E-04
 -1      2909-3.76478E-02-2.83891E-01-3.39471E-04
 -1      2910-2.06903E-02-3.59515E-01-1.11020E-04
 -1      2911 3.88739E-02-3.77594E-01-2.84037E-04
 -1      2912 3.85921E-02-3.68853E-01-1.18711E-04
 -1      2913 8.96778E-03-3.77273E-01-3.18569E-05
 -1      2914-2.33359E-02-4.77575E-01-8.70008E-05
 -1      2915 8.93427E-03-3.68244E-01-1.21631E-04
 -1      2916 2.36233E-02-3.77223E-01-2.85613E-04
 -1      2917 1.00634E-02-4.54227E-02-5.24472E-04
 -1      2918 4.30225E-03-4.89500E-02-2.17039E-04
 -1      2919 4.15175E-03-4.56663E-02-5.66315E-05
 -1      2920 2.16879E-02-2.83833E-01-3.38994E-04
 -1      2921 8.54683E-03-2.91699E-01-1.41142E-04
 -1      2922 1.68356E-02-4.97627E-02-2.18155E-04
 -1      2923 1.62356E-02-4.59545E-02-5.25513E-04
 -1      2924-8.02891E-03-1.17630E-02-5.38673E-04
 -1      2925-1.87992E-03-1.14920E-02-4.88399E-05
 -1      2926-7.36625E-03-1.01257E-02-2.09130E-04
 -1      2927 2.49163E-04-7.49566E-04-1.30870E-05
 -1      2928 3.42921E-04-7.61638E-04 8.38412E-06
 -1      2929 5.12244E-04-3.03532E-04-3.35995E-05
 -1      2930 1.11451E-03-2.22517E-03-9.22596E-05
 -1      2931 4.70505E-04-2.53459E-04-8.52993E-05
 -1      2932-1.91300E-02-5.13474E-02 1.01068E-03
 -1      2933-1.64370E-02-8.78169E-01-1.79824E-05
 -1      2934-3.44707E-02-8.67145E-01-5.20021E-05
 -1      2935-1.63278E-02-8.67280E-01-5.66505E-06
 -1      2936-2.22083E-04-7.55207E-04 4.80866E-06
 -1      2937-4.92344E-03-1.12302E-02-5.41561E-04
 -1      2938-1.73538E-03-9.29403E-03-2.10509E-04
 -1      2939 1.77140E-02-3.59773E-01-1.09937E-04
 -1      2940-5.33442E-02-8.67059E-01-5.14838E-05
 -1      2941-5.34892E-02-8.77968E-01-1.81480E-05
 -1      2942 4.77127E-03-9.64168E-01-2.99137E-07
 -1      2943-1.13460E-02-9.64047E-01 3.40085E-07
 -1      2944-4.59644E-03-9.64097E-01 2.12529E-07
 -1      2945 8.33557E-03-5.31579E-02-1.92220E-04
 -1      2946 2.52981E-03-9.77723E-01-1.04124E-06
 -1      2947 1.11211E-02-9.41900E-01-4.22067E-06
 -1      2948 1.86576E-02-9.77849E-01-2.65143E-06
 -1      2949-4.55782E-03-1.45602E-02-2.23969E-04
 -1      2950-2.91927E-02-8.50277E-01-2.38045E-05
 -1      2951-5.83619E-02-7.59091E-01 2.00435E-04
 -1      2952-3.66603E-02-7.89220E-01 9.81338E-05
 -1      2953-5.53085E-02-7.89177E-01 9.76525E-05
 -1      2954-5.46095E-02-7.50715E-01 1.15154E-04
 -1      2955-3.29373E-02-7.80782E-01 5.04099E-05
 -1      2956-3.61140E-02-7.50740E-01 1.15084E-04
 -1      2957-4.72992E-02-3.98822E-01 5.32965E-04
 -1      2958-4.81187E-02-4.16996E-01 5.15133E-04
 -1      2959-4.57788E-02-3.93259E-01 3.26035E-04
 -1      2960-3.09598E-02-4.11155E-01 3.17715E-04
 -1      2961-3.03894E-02-3.93059E-01 3.28238E-04
 -1      2962-5.87712E-02-7.80619E-01 1.84277E-04
 -1      2963-3.69491E-02-8.10888E-01 8.66992E-05
 -1      2964-5.91616E-02-8.02242E-01 1.65609E-04
 -1      2965-5.56727E-02-8.10830E-01 8.70921E-05
 -1      2966 1.02748E-02-9.07545E-01 1.79583E-06
 -1      2967 8.75840E-03-8.98183E-01 1.70106E-05
 -1      2968 2.32441E-02-9.20685E-01 1.35862E-05
 -1      2969 1.68151E-03-6.85458E-03 2.43847E-04
 -1      2970 1.71035E-03-6.08892E-03 6.22483E-05
 -1      2971 2.80136E-03-4.56125E-03 2.78570E-04
 -1      2972-2.23137E-04-2.27941E-04 5.16767E-05
 -1      2973-5.12831E-04-3.09058E-04 6.22192E-05
 -1      2974 1.77656E-02-9.77345E-01 1.24212E-06
 -1      2975 8.39118E-03-9.77270E-01 2.18166E-06
 -1      2976-1.37217E-03-6.05166E-03 6.36742E-05
 -1      2977-6.55878E-03-7.72634E-03 2.45619E-04
 -1      2978-2.78642E-03-4.56968E-03 2.83773E-04
 -1      2979 2.54421E-03-1.95265E-02 5.20088E-05
 -1      2980 2.69556E-03-2.16151E-02 2.10143E-04
 -1      2981-2.61788E-05-1.73820E-02-1.14699E-06
 -1      2982 2.22523E-03-1.22409E-02 6.18235E-05
 -1      2983 2.40455E-03-1.38280E-02 2.42221E-04
 -1      2984 4.87583E-03-1.59687E-02 2.27816E-04
 -1      2985 7.41430E-03-5.02182E-01-7.66953E-05
 -1      2986 7.42096E-03-4.92653E-01-1.79735E-05
 -1      2987-2.29811E-03-4.82861E-01-8.72199E-08
 -1      2988 9.54373E-03-4.69107E-01-1.04456E-04
 -1      2989 9.52838E-03-4.59805E-01-2.81841E-05
 -1      2990 1.92595E-02-4.78894E-01-9.00455E-05
 -1      2991-4.93568E-02-8.97807E-01 1.73701E-05
 -1      2992-1.09398E-02-9.07389E-01 1.61164E-06
 -1      2993-2.70229E-02-9.20200E-01 1.35447E-05
 -1      2994 3.01197E-02-4.83274E-01-1.77520E-07
 -1      2995 4.02455E-02-5.02709E-01-7.61059E-05
 -1      2996 4.17001E-02-4.69676E-01-1.03964E-04
 -1      2997 3.28307E-05-1.20699E-03-8.32450E-06
 -1      2998 3.81654E-02-3.88956E-01 1.03811E-04
 -1      2999 7.93374E-03-3.79665E-01 2.55443E-05
 -1      3000 2.81336E-02-3.72649E-01 1.72561E-07
 -1      3001 3.82981E-02-3.59492E-01 1.25811E-04
 -1      3002 8.87095E-03-3.50436E-01 3.26927E-05
 -1      3003 1.84109E-02-3.66325E-01 1.16369E-04
 -1      3004 7.53401E-03-1.04090E-02-2.21438E-04
 -1      3005 1.97934E-03-1.17716E-02-5.31733E-05
 -1      3006 6.57478E-03-1.36024E-02 4.60170E-07
 -1      3007 9.95523E-03-1.70591E-02-2.39851E-04
 -1      3008 2.73003E-03-1.89004E-02-6.28392E-05
 -1      3009 4.67837E-03-1.48732E-02-2.33016E-04
 -1      3010 7.95604E-03-3.88371E-01 1.03816E-04
 -1      3011-1.60548E-03-3.72220E-01-3.06560E-07
 -1      3012 8.91119E-03-3.58876E-01 1.24935E-04
 -1      3013 2.34178E-02-4.92651E-01-2.04451E-04
 -1      3014 2.51866E-02-4.59785E-01-2.48692E-04
 -1      3015 4.00549E-02-4.92972E-01-2.04447E-04
 -1      3016 4.14772E-02-4.60130E-01-2.48358E-04
 -1      3017 1.81296E-03-9.54353E-03-2.18536E-04
 -1      3018-2.93566E-05-1.30672E-02 1.85759E-06
 -1      3019 2.54962E-03-1.61686E-02-2.37608E-04
 -1      3020-4.16114E-02-8.34979E-01 1.55896E-07
 -1      3021-5.43644E-02-8.18079E-01-3.18147E-05
 -1      3022-5.02838E-02-4.73084E-01-4.58780E-04
 -1      3023-4.55913E-02-3.63312E-01-5.71583E-04
 -1      3024-1.75970E-02-8.18233E-01-3.15130E-05
 -1      3025 6.51147E-03-1.92603E-02 5.40167E-04
 -1      3026 5.37373E-03-1.19745E-02 5.86491E-04
 -1      3027-3.41930E-02-4.63787E-01-2.11552E-07
 -1      3028-4.49598E-02-4.49200E-01-1.03264E-04
 -1      3029-1.91765E-02-5.13486E-02-1.01502E-03
 -1      3030-3.13529E-02-3.72294E-01-3.95690E-07
 -1      3031-4.24484E-02-3.86033E-01-1.18511E-04
 -1      3032 5.46549E-03-5.66599E-02 2.64422E-04
 -1      3033 5.26582E-03-5.31344E-02 7.82632E-05
 -1      3034 6.70977E-04-4.71511E-02 2.17433E-05
 -1      3035 2.41097E-02-9.55072E-01-2.33082E-07
 -1      3036 1.11950E-02-4.87184E-01 1.18408E-04
 -1      3037 1.11734E-02-4.77772E-01 3.56173E-05
 -1      3038-1.25034E-04-4.62901E-01 1.08099E-05
 -1      3039-1.22898E-02-3.85797E-01-1.18390E-04
 -1      3040-1.60599E-03-3.72220E-01-2.15998E-07
 -1      3041 9.00171E-03-3.85953E-01-1.18422E-04
 -1      3042-7.61069E-03-1.78461E-02-1.10266E-06
 -1      3043-1.13429E-02-2.17390E-02-2.38334E-04
 -1      3044-4.16557E-03-4.17055E-02-2.23459E-04
 -1      3045 5.08956E-03-4.89077E-02 2.67491E-04
 -1      3046-1.23975E-02-4.78503E-02-1.27099E-07
 -1      3047-1.58025E-02-4.24715E-02-2.21708E-04
 -1      3048 1.11841E-02-2.24192E-02 2.11407E-04
 -1      3049 7.55482E-03-1.78721E-02 8.80266E-07
 -1      3050 9.24258E-03-1.46753E-02 2.37709E-04
 -1      3051-1.32333E-02-4.49031E-01-1.03476E-04
 -1      3052 1.11502E-02-4.68044E-01 1.22528E-04
 -1      3053 4.24274E-02-3.63833E-01-5.70358E-04
 -1      3054 3.78966E-02-3.79981E-01 2.67289E-04
 -1      3055 3.80014E-02-3.50753E-01 3.01601E-04
 -1      3056-2.97043E-03-2.09346E-02-2.39397E-04
 -1      3057-1.35593E-02-2.50584E-02 1.09445E-03
 -1      3058-1.49509E-02-3.07697E-02 1.07501E-03
 -1      3059-1.44498E-02-3.34261E-02 5.91077E-04
 -1      3060-9.99012E-03-3.95137E-02 5.73724E-04
 -1      3061-9.19935E-03-3.30139E-02 5.87841E-04
 -1      3062 3.42999E-02-2.30275E-01-1.93775E-04
 -1      3063 3.51211E-02-2.45247E-01-1.88384E-04
 -1      3064 9.59620E-03-2.37294E-01-5.54028E-05
 -1      3065 2.26196E-02-3.79618E-01 2.66928E-04
 -1      3066 2.31472E-02-3.50371E-01 3.01547E-04
 -1      3067 1.89230E-02-5.14485E-02-1.00995E-03
 -1      3068 7.60477E-03-1.94715E-01-1.67356E-04
 -1      3069 8.20499E-03-1.20843E-02-5.52473E-04
 -1      3070 1.06157E-02-1.92157E-02-5.70034E-04
 -1      3071-9.19136E-05-4.74217E-02 7.23372E-07
 -1      3072 4.00179E-03-4.17261E-02-2.20219E-04
 -1      3073 1.12625E-02-2.17703E-02-2.37497E-04
 -1      3074 1.88631E-02-5.75193E-02 2.65467E-04
 -1      3075 9.31349E-03-4.74439E-02 2.33020E-05
 -1      3076 3.07898E-02-1.95414E-01-1.67501E-04
 -1      3077-5.54269E-03-7.38384E-02 2.08708E-04
 -1      3078 4.47679E-02-7.11660E-01-5.34694E-05
 -1      3079 8.91683E-03-7.00715E-01-1.39329E-05
 -1      3080 4.46183E-02-6.90509E-01-5.62993E-05
 -1      3081-3.96479E-02-7.05933E-01-3.45689E-07
 -1      3082-4.00115E-02-7.27177E-01-1.95427E-07
 -1      3083-5.20639E-02-6.89818E-01-5.62201E-05
 -1      3084-5.25165E-02-7.10961E-01-5.38797E-05
 -1      3085-1.65096E-02-7.00533E-01-1.38731E-05
 -1      3086-3.98808E-03-7.27334E-01-1.92753E-07
 -1      3087-3.83603E-03-7.06078E-01-2.88455E-07
 -1      3088 8.95024E-03-6.90051E-01-5.65679E-05
 -1      3089 8.87790E-03-7.11215E-01-5.34031E-05
 -1      3090-1.66209E-02-7.11031E-01-5.28925E-05
 -1      3091-1.63896E-02-6.89871E-01-5.63006E-05
 -1      3092-1.80354E-02-6.47630E-01-7.93129E-05
 -1      3093-5.33952E-03-6.21718E-01-7.13899E-06
 -1      3094-1.79098E-02-6.37376E-01-2.46727E-05
 -1      3095 1.11958E-02-6.47836E-01-7.98095E-05
 -1      3096-1.13633E-03-6.21747E-01-7.36547E-06
 -1      3097 1.12128E-02-6.37581E-01-2.47363E-05
 -1      3098 4.63678E-02-6.48329E-01-7.96700E-05
 -1      3099 2.36136E-02-6.22005E-01-7.16876E-06
 -1      3100-5.32144E-02-6.47628E-01-7.97651E-05
 -1      3101-3.00920E-02-6.21631E-01-7.27945E-06
 -1      3102-2.07148E-02-7.45317E-02 2.07388E-04
 -1      3103 5.86896E-03-9.82053E-02-1.98506E-04
 -1      3104 2.31163E-02-9.89700E-02-1.99650E-04
 -1      3105 3.77028E-02-3.42245E-01 1.27822E-04
 -1      3106 8.82926E-03-3.41620E-01 1.27917E-04
 -1      3107-2.95375E-02-1.61774E-01 1.75408E-04
 -1      3108-8.10132E-03-1.61240E-01 1.76413E-04
 -1      3109-1.67497E-02-7.33126E-01-1.29265E-05
 -1      3110-5.30634E-02-7.43634E-01-4.63082E-05
 -1      3111-2.93559E-02-7.16842E-01-5.34106E-05
 -1      3112 8.68731E-03-7.33310E-01-1.29671E-05
 -1      3113 4.48423E-02-7.44343E-01-4.60551E-05
 -1      3114 2.15263E-02-7.17208E-01-5.34806E-05
 -1      3115 8.64150E-03-7.43916E-01-4.69785E-05
 -1      3116-1.68571E-02-7.43730E-01-4.64643E-05
 -1      3117-1.20735E-02-2.32390E-02 6.10110E-04
 -1      3118-7.67983E-03-2.27882E-02 6.05791E-04
 -1      3119-7.81449E-03-3.08761E-02 2.93098E-04
 -1      3120-3.20843E-02-1.95112E-01-1.67471E-04
 -1      3121 2.03749E-02-7.46628E-02 2.07111E-04
 -1      3122 5.23900E-03-7.38702E-02 2.07860E-04
 -1      3123-2.64934E-05-1.73830E-02 1.00837E-06
 -1      3124 2.89682E-03-2.09352E-02-2.35448E-04
 -1      3125 2.85406E-02-1.62034E-01 1.75168E-04
 -1      3126-8.82715E-03-1.94658E-01-1.66775E-04
 -1      3127 1.56299E-02-4.25484E-02-2.20891E-04
 -1      3128 1.76259E-02-4.97794E-02 2.69955E-04
 -1      3129-6.36127E-03-9.81154E-02-2.00427E-04
 -1      3130-2.36304E-02-9.87653E-02-2.00938E-04
 -1      3131-1.13314E-02-2.44684E-01-1.84950E-04
 -1      3132-1.10234E-02-2.29700E-01-1.89908E-04
 -1      3133-1.13021E-02-2.37234E-01-5.61175E-05
 -1      3134 3.26731E-02-1.78088E-01-7.91141E-04
 -1      3135 3.91510E-02-3.86554E-01-1.16361E-04
 -1      3136 1.03122E-02-3.07788E-01 1.66993E-04
 -1      3137 1.02445E-02-2.99861E-01 5.02682E-05
 -1      3138 4.82529E-04-2.87437E-01 1.36193E-05
 -1      3139-5.54242E-02-6.32464E-01 3.11267E-04
 -1      3140 4.87918E-02-6.33194E-01 3.12093E-04
 -1      3141 2.39460E-02-8.60735E-02-9.38041E-04
 -1      3142 2.04424E-03-9.96697E-03 2.43221E-04
 -1      3143-1.27817E-02-3.07654E-01 1.67551E-04
 -1      3144-1.26188E-02-2.99729E-01 5.04851E-05
 -1      3145-2.73825E-03-2.87367E-01 1.40149E-05
 -1      3146-2.43614E-02-8.59143E-02 9.37197E-04
 -1      3147 7.18183E-03-1.61295E-01 1.76824E-04
 -1      3148 3.81012E-02-3.08462E-01 1.67418E-04
 -1      3149 1.97690E-02-2.87669E-01 1.40512E-05
 -1      3150-4.05822E-02-3.08017E-01 1.67390E-04
 -1      3151-2.20299E-02-2.87483E-01 1.41151E-05
 -1      3152-9.87815E-04-5.20592E-04-6.78102E-07
 -1      3153-1.01652E-03-5.07227E-04 1.39185E-04
 -1      3154-2.30495E-03-1.43340E-03 7.31111E-05
 -1      3155-2.35510E-03-1.41859E-03 3.28638E-04
 -1      3156-8.66895E-04-3.96736E-04 1.44590E-04
 -1      3157 2.40978E-02-8.60804E-02 9.42128E-04
 -1      3158-3.38192E-02-1.77789E-01-7.91612E-04
 -1      3159 1.05470E-02-1.98117E-02 5.38043E-04
 -1      3160 8.57356E-03-1.25459E-02 5.79456E-04
 -1      3161-2.44224E-02-8.59158E-02-9.41457E-04
 -1      3162-2.29130E-02-8.00175E-01 1.97738E-05
 -1      3163-2.61856E-02-7.70029E-01 5.76597E-05
 -1      3164-2.24898E-02-7.61616E-01 2.19045E-05
 -1      3165-4.47390E-02-7.69970E-01 5.77209E-05
 -1      3166-4.59563E-02-4.42912E-01 2.70485E-04
 -1      3167-1.77036E-02-4.33655E-01 5.72708E-05
 -1      3168-3.65477E-02-4.26355E-01 1.51977E-04
 -1      3169-4.65686E-02-4.11341E-01 3.13812E-04
 -1      3170-1.89710E-02-4.02286E-01 7.22753E-05
 -1      3171-2.79908E-02-4.18508E-01 1.60921E-04
 -1      3172 5.06479E-03-1.15084E-02-5.57409E-04
 -1      3173 6.63473E-03-1.86261E-02-5.73352E-04
 -1      3174 3.96220E-02-2.96365E-01-6.44359E-04
 -1      3175-4.19600E-02-2.95923E-01-6.42795E-04
 -1      3176-1.54276E-02-6.06684E-01 7.24050E-05
 -1      3177 1.12262E-02-6.27110E-01-8.40117E-05
 -1      3178 9.16125E-03-6.06854E-01 7.29817E-05
 -1      3179-1.77746E-02-6.26908E-01-8.36106E-05
 -1      3180-5.00468E-02-6.06703E-01 7.16228E-05
 -1      3181-5.26837E-02-6.26926E-01-8.40144E-05
 -1      3182 4.37731E-02-6.07353E-01 7.21201E-05
 -1      3183 4.61278E-02-6.27617E-01-8.39065E-05
 -1      3184-3.38191E-02-1.77790E-01 7.89822E-04
 -1      3185-1.05489E-02-2.75678E-01-1.45562E-04
 -1      3186 1.01655E-02-2.91489E-01 1.71307E-04
 -1      3187 8.37711E-03-2.75700E-01-1.44123E-04
 -1      3188-1.25043E-02-2.91326E-01 1.72424E-04
 -1      3189-4.91087E-02-8.76992E-01 2.11785E-05
 -1      3190-1.19691E-02-8.66311E-01 3.80460E-06
 -1      3191-5.61820E-02-8.43434E-01 3.20254E-05
 -1      3192-1.91681E-02-8.32781E-01 9.34445E-06
 -1      3193-2.63096E-02-8.52952E-01 2.35960E-05
 -1      3194 3.28732E-02-1.78094E-01 7.94221E-04
 -1      3195 3.50735E-02-2.76357E-01-1.44475E-04
 -1      3196 3.73910E-02-2.92140E-01 1.70871E-04
 -1      3197 7.89474E-03-1.08586E-02 2.38421E-04
 -1      3198-3.72080E-02-2.76017E-01-1.43349E-04
 -1      3199-3.96912E-02-2.91712E-01 1.72569E-04
 -1      3200-1.64124E-02-3.72885E-02 1.05509E-03
 -1      3201-1.58019E-02-4.01621E-02 5.79830E-04
 -1      3202 2.68860E-02-9.45370E-01 2.36272E-05
 -1      3203 2.68982E-02-9.11508E-01 3.46495E-05
 -1      3204 4.28181E-03-3.56611E-03 2.55574E-04
 -1      3205 3.81658E-03-4.65202E-03-1.71255E-05
 -1      3206 6.57949E-03-7.75378E-03 2.44152E-04
 -1      3207-6.07739E-03-9.84419E-01-2.26529E-07
 -1      3208-2.39671E-02-9.84289E-01-4.10877E-06
 -1      3209-1.11054E-02-9.76400E-01-7.81308E-07
 -1      3210-2.89917E-02-9.76272E-01-4.23984E-06
 -1      3211-2.83603E-02-9.60704E-01-1.03718E-05
 -1      3212-4.58972E-03-2.57499E-02 1.21796E-04
 -1      3213-5.78708E-03-2.77583E-02 3.25275E-04
 -1      3214-5.45124E-03-3.64636E-02 1.19037E-04
 -1      3215 2.96808E-03-3.00633E-03-1.93500E-05
 -1      3216 3.15158E-03-2.19348E-03-2.41463E-04
 -1      3217 4.30605E-03-3.53974E-03-2.65119E-04
 -1      3218 1.20414E-02-9.83891E-01 4.49322E-06
 -1      3219 1.72200E-02-9.77337E-01 4.51973E-06
 -1      3220-5.71896E-05-9.61631E-01 2.96064E-06
 -1      3221 1.80435E-02-9.61106E-01 1.20708E-05
 -1      3222 3.13858E-03-2.21073E-03 2.28084E-04
 -1      3223 3.30631E-02-9.36166E-01-8.15724E-07
 -1      3224 3.31464E-02-9.19185E-01-1.19649E-06
 -1      3225 4.60842E-02-9.49334E-01 1.01087E-05
 -1      3226 4.61630E-02-9.32343E-01 1.25386E-05
 -1      3227-1.53173E-02-9.08364E-01-1.36974E-06
 -1      3228-5.37454E-02-8.98785E-01-1.47714E-05
 -1      3229-3.06226E-02-9.20573E-01-1.37981E-05
 -1      3230-2.17518E-03-4.63780E-01-3.26331E-07
 -1      3231 9.51176E-03-4.50196E-01-1.07664E-04
 -1      3232-9.71710E-04-6.96786E-02 1.64232E-05
 -1      3233-9.78749E-03-6.98380E-02 1.60316E-05
 -1      3234-1.22286E-03-2.69484E-03 2.77078E-04
 -1      3235 1.05170E-04-4.10233E-03-1.46273E-05
 -1      3236-1.72068E-03-6.84100E-03 2.52907E-04
 -1      3237 1.05113E-04-2.49756E-03-1.84647E-05
 -1      3238 1.21622E-03-2.63259E-03-2.76751E-04
 -1      3239 9.12734E-04-1.34657E-03-2.58018E-04
 -1      3240-5.58511E-02-8.21712E-01 3.60250E-05
 -1      3241-4.63165E-02-4.52347E-01 1.17340E-04
 -1      3242-1.46654E-02-4.61791E-01 3.18845E-05
 -1      3243-4.70152E-02-4.71261E-01 1.13133E-04
 -1      3244-4.45600E-02-3.66747E-01 1.60501E-04
 -1      3245-1.51010E-02-3.75478E-01 4.89550E-05
 -1      3246-4.53810E-02-3.84403E-01 1.55982E-04
 -1      3247-1.79917E-02-7.18798E-01 5.77423E-05
 -1      3248-1.82246E-02-7.40130E-01 5.44100E-05
 -1      3249-1.81123E-02-7.29540E-01 1.64834E-05
 -1      3250-5.44038E-02-7.40043E-01 5.40271E-05
 -1      3251-5.39684E-02-7.18729E-01 5.72400E-05
 -1      3252-1.49297E-02-3.66442E-01 1.65240E-04
 -1      3253-1.52579E-02-3.84119E-01 1.60903E-04
 -1      3254-1.45166E-02-4.52164E-01 1.16407E-04
 -1      3255-1.48009E-02-4.71099E-01 1.12862E-04
 -1      3256-1.68087E-02-8.98997E-01-1.44172E-05
 -1      3257-5.98679E-02-8.45741E-01-1.27628E-04
 -1      3258 4.37344E-02-4.87764E-01 1.18580E-04
 -1      3259 2.28612E-02-4.64206E-01 9.19228E-06
 -1      3260 3.20544E-02-8.35522E-01 3.69298E-07
 -1      3261 3.20061E-02-8.57292E-01 6.72640E-07
 -1      3262 4.73957E-02-8.68089E-01-2.91780E-05
 -1      3263 1.04260E-02-8.56858E-01-9.26673E-06
 -1      3264 4.74058E-02-8.46289E-01-3.31883E-05
 -1      3265-8.81598E-04-1.38967E-03 2.54510E-04
 -1      3266-1.43545E-02-6.84838E-01 4.63150E-05
 -1      3267-1.44686E-02-6.95479E-01 1.01109E-05
 -1      3268-2.86311E-02-7.08199E-01 5.35355E-05
 -1      3269-4.99666E-02-6.84777E-01 4.66676E-05
 -1      3270-1.05961E-02-2.80533E-02 3.27654E-04
 -1      3271-4.89671E-02-8.66081E-01 5.19759E-05
 -1      3272-5.60160E-02-8.32570E-01 7.65664E-05
 -1      3273-1.06672E-02-1.53920E-02-1.13074E-03
 -1      3274-2.82458E-03-1.54162E-02 2.75896E-04
 -1      3275-3.20209E-03-2.00850E-02 2.70887E-04
 -1      3276-3.01020E-03-1.81180E-02 7.71314E-05
 -1      3277-4.63665E-03-4.28353E-02 2.51438E-04
 -1      3278-1.00525E-02-1.63212E-02 2.75376E-04
 -1      3279-1.14151E-02-2.09294E-02 2.70869E-04
 -1      3280-1.64257E-02-4.36324E-02 2.52197E-04
 -1      3281 3.42854E-03-2.38341E-03 5.47254E-04
 -1      3282 2.15603E-03-1.81396E-03 5.71637E-04
 -1      3283 4.40212E-03-2.88067E-03 1.07365E-03
 -1      3284 5.75153E-03-5.94860E-03 5.76096E-04
 -1      3285 3.56075E-03-5.36323E-03 5.87870E-04
 -1      3286 4.69775E-02-9.49840E-01-9.04907E-06
 -1      3287 8.91585E-03-9.19882E-01-5.28504E-06
 -1      3288 4.47260E-02-9.27815E-01-1.75733E-05
 -1      3289 2.27814E-02-9.33537E-01-1.59610E-05
 -1      3290 4.61002E-02-9.45540E-01 2.36580E-05
 -1      3291 4.97587E-02-9.36351E-01 5.21054E-05
 -1      3292 4.60712E-02-9.11686E-01 3.01377E-05
 -1      3293-5.74959E-02-9.44553E-01 2.28007E-05
 -1      3294-4.94984E-02-9.10864E-01 3.33394E-05
 -1      3295-9.65685E-04-4.50866E-04-1.40133E-04
 -1      3296-8.52387E-04-4.03009E-04-1.56509E-04
 -1      3297-2.33302E-03-1.41353E-03-3.08739E-04
 -1      3298-8.66031E-04-4.34211E-04-3.15800E-05
 -1      3299-2.66890E-02-9.76292E-01-5.46412E-07
 -1      3300-2.74763E-02-9.76895E-01 2.35420E-06
 -1      3301 4.58080E-02-4.73705E-01-4.59296E-04
 -1      3302 5.14191E-04-2.81909E-04 7.98176E-05
 -1      3303 1.51240E-03-1.42743E-03-8.61036E-06
 -1      3304-6.08643E-03-7.13487E-03-2.13157E-04
 -1      3305-1.13161E-03-5.53985E-03-3.82089E-05
 -1      3306-2.48937E-03-4.14213E-03-2.48194E-04
 -1      3307-1.99339E-02-9.76338E-01-1.70412E-06
 -1      3308-5.28500E-02-7.32921E-01-1.15639E-04
 -1      3309-5.22886E-02-7.00339E-01-1.30670E-04
 -1      3310 4.47848E-02-7.33627E-01-1.15529E-04
 -1      3311 4.46930E-02-7.01034E-01-1.30696E-04
 -1      3312 2.63802E-02-7.33381E-01-1.15465E-04
 -1      3313 2.64518E-02-7.00776E-01-1.30960E-04
 -1      3314-3.44419E-02-7.32941E-01-1.15145E-04
 -1      3315-3.40436E-02-7.00342E-01-1.30575E-04
 -1      3316-1.45343E-03-6.29806E-03-2.16324E-04
 -1      3317 1.21728E-02-9.83893E-01-4.07526E-06
 -1      3318-5.94613E-03-9.84421E-01 2.86614E-07
 -1      3319 8.34528E-04-9.62136E-01-3.03496E-06
 -1      3320 1.82437E-02-9.77843E-01-4.23044E-06
 -1      3321 1.89360E-02-9.61611E-01-1.21118E-05
 -1      3322-3.44428E-03-2.38569E-03 5.55247E-04
 -1      3323-2.17531E-03-1.82953E-03 5.78698E-04
 -1      3324-4.41127E-03-2.87257E-03 1.07756E-03
 -1      3325-5.72702E-03-5.91221E-03 5.82884E-04
 -1      3326-3.54407E-03-5.35141E-03 5.91200E-04
 -1      3327-1.92841E-02-8.43603E-01 3.16562E-05
 -1      3328-4.95747E-03-8.56965E-01-7.68181E-09
 -1      3329 1.03483E-02-8.67724E-01-2.99550E-05
 -1      3330-3.93457E-03-8.43501E-01-1.60568E-06
 -1      3331-1.90586E-02-8.21864E-01 3.54816E-05
 -1      3332 1.04814E-02-8.45909E-01-3.38806E-05
 -1      3333 9.76439E-03-9.49522E-01-1.03657E-05
 -1      3334-4.97731E-03-9.54730E-01-3.17730E-07
 -1      3335-4.67770E-02-4.97500E-01 9.45602E-05
 -1      3336-1.38979E-02-4.87891E-01 2.59154E-05
 -1      3337-2.63633E-02-4.76177E-01 1.13657E-04
 -1      3338-1.18268E-02-3.50314E-01 3.22306E-05
 -1      3339-4.05621E-02-3.41791E-01 1.28419E-04
 -1      3340-2.53287E-02-3.62069E-01 1.64959E-04
 -1      3341-1.40245E-02-4.97379E-01 9.50810E-05
 -1      3342-1.16791E-02-3.41501E-01 1.28250E-04
 -1      3343 4.12516E-02-4.50773E-01-1.07049E-04
 -1      3344 4.32886E-02-4.68635E-01 1.22879E-04
 -1      3345 9.89458E-04-4.87009E-04-1.37903E-04
 -1      3346 9.61139E-04-5.00131E-04-1.40741E-06
 -1      3347 2.33609E-03-1.39709E-03-3.33705E-04
 -1      3348 2.28521E-03-1.40977E-03-7.91348E-05
 -1      3349 8.20784E-04-3.68610E-04-1.41422E-04
 -1      3350-3.82845E-02-9.44669E-01 2.35609E-05
 -1      3351-6.08144E-02-9.35317E-01 5.06896E-05
 -1      3352-3.03428E-02-9.10972E-01 3.02414E-05
 -1      3353-2.77906E-04 6.28738E-05 1.46363E-04
 -1      3354 3.03954E-05 8.67935E-05-2.26168E-05
 -1      3355 1.09154E-03-7.34771E-04-3.76799E-04
 -1      3356 1.63719E-04-1.57948E-04-4.17121E-05
 -1      3357 2.80897E-04-6.04723E-04-8.34455E-05
 -1      3358 6.24801E-03-7.37361E-03-2.20414E-04
 -1      3359 1.52027E-03-5.74044E-03-6.71070E-05
 -1      3360 2.62618E-03-4.22289E-03-2.71085E-04
 -1      3361-6.38252E-02-9.84017E-01 3.60832E-07
 -1      3362-6.38168E-02-9.83352E-01-3.57374E-06
 -1      3363-5.68669E-02-9.60524E-01-2.64478E-06
 -1      3364-5.68594E-02-9.59856E-01-1.08352E-05
 -1      3365-4.03259E-02-9.76195E-01-3.57228E-06
 -1      3366 1.48153E-03-6.50277E-03-2.18132E-04
 -1      3367-2.30602E-03-8.87694E-01 1.81896E-06
 -1      3368 3.32971E-03-3.41896E-02 2.00816E-04
 -1      3369-3.82517E-03-3.50208E-02-2.28173E-04
 -1      3370-4.23320E-04-3.92051E-02-1.07958E-05
 -1      3371-3.57482E-04-2.99895E-02-1.09370E-05
 -1      3372-7.10462E-03-3.08934E-02-2.40624E-04
 -1      3373-3.31977E-03-2.62729E-02-2.33678E-04
 -1      3374-1.20725E-02-8.77194E-01 1.14218E-05
 -1      3375 4.38481E-02-7.94142E-01 3.39030E-05
 -1      3376 2.01033E-02-8.09640E-01-1.33163E-06
 -1      3377 4.50200E-02-7.97125E-01-3.66958E-05
 -1      3378 4.49326E-02-7.65797E-01-4.20388E-05
 -1      3379 2.13425E-02-7.81179E-01-4.09827E-05
 -1      3380 2.01879E-02-7.78228E-01-1.53535E-06
 -1      3381 7.25207E-03-7.93746E-01 3.39831E-05
 -1      3382-1.73878E-02-7.96535E-01-3.62920E-05
 -1      3383-5.75435E-03-8.09416E-01-1.22516E-06
 -1      3384-5.51930E-03-7.78002E-01-1.48681E-06
 -1      3385-3.00995E-02-7.80804E-01-4.09977E-05
 -1      3386-1.70775E-02-7.65194E-01-4.18296E-05
 -1      3387 6.38368E-03-3.08811E-02 1.98847E-04
 -1      3388 2.99719E-03-2.70276E-02 2.05837E-04
 -1      3389-2.96057E-04-2.33203E-02-1.07739E-05
 -1      3390 1.46844E-03-6.10138E-02 3.56814E-05
 -1      3391 2.10262E-02-4.97134E-01 1.62441E-05
 -1      3392 2.17593E-02-6.58482E-01-1.05799E-05
 -1      3393-7.58538E-03-6.58210E-01-1.04475E-05
 -1      3394 5.96136E-04-6.58268E-01-1.07519E-05
 -1      3395-2.87505E-02-6.58126E-01-1.07933E-05
 -1      3396 1.40248E-03-4.96907E-01 1.60077E-05
 -1      3397 2.91306E-05 9.26316E-05 2.03478E-05
 -1      3398-2.80083E-04 6.75457E-05-1.49794E-04
 -1      3399 2.57193E-04-6.29507E-04 7.33731E-05
 -1      3400 1.51912E-04-1.66069E-04 3.54378E-05
 -1      3401 1.07441E-03-7.55912E-04 3.65498E-04
 -1      3402 4.38773E-02-7.68491E-01 3.75997E-05
 -1      3403 1.91150E-02-7.80912E-01 3.45826E-05
 -1      3404 2.03311E-02-7.52657E-01-1.91201E-06
 -1      3405 7.47702E-03-7.68081E-01 3.75238E-05
 -1      3406-5.22801E-03-7.52430E-01-1.65494E-06
 -1      3407 1.97159E-03-3.16196E-01 2.26876E-05
 -1      3408 2.57164E-04-8.66921E-03 1.63262E-05
 -1      3409-2.34800E-02-8.87555E-01 1.53877E-06
 -1      3410 9.75806E-03-6.12606E-02 3.70552E-05
 -1      3411-3.19753E-02-6.95293E-01 1.19370E-04
 -1      3412-3.57890E-02-7.29354E-01 1.25207E-04
 -1      3413-5.01878E-02-6.95285E-01 1.18382E-04
 -1      3414-5.41851E-02-7.29339E-01 1.25771E-04
 -1      3415-2.20772E-03-1.22261E-02 6.23868E-05
 -1      3416-7.87391E-03-1.08233E-02 2.46096E-04
 -1      3417-5.11445E-03-1.46729E-02 2.81212E-04
 -1      3418-2.13595E-02-3.16198E-01 2.29365E-05
 -1      3419 5.15319E-02-9.84213E-01 4.00407E-06
 -1      3420 5.15300E-02-9.84878E-01-1.13433E-07
 -1      3421 4.60172E-02-9.61345E-01 1.14659E-05
 -1      3422 4.60148E-02-9.62013E-01 3.33115E-06
 -1      3423 2.87235E-02-9.77431E-01 3.86504E-06
 -1      3424 1.24479E-02-2.78325E-02 2.05996E-04
 -1      3425 1.39037E-02-3.49799E-02 2.00772E-04
 -1      3426 1.25576E-02-2.71091E-02-2.33449E-04
 -1      3427 6.59286E-03-3.02102E-02-1.07386E-05
 -1      3428 5.85020E-03-2.35439E-02-9.82161E-06
 -1      3429 1.87918E-02-3.16435E-01 2.29157E-05
 -1      3430-4.53641E-03-3.16159E-01 2.30479E-05
 -1      3431-3.94888E-03-2.52311E-01-2.67462E-05
 -1      3432 1.74704E-02-2.52530E-01-2.58120E-05
 -1      3433-3.47943E-03-8.87262E-03 1.43459E-05
 -1      3434-2.04187E-03-9.94805E-03 2.45725E-04
 -1      3435-1.29015E-02-4.30387E-01-1.07608E-04
 -1      3436-2.88794E-03-4.19730E-01-5.48027E-06
 -1      3437 8.05688E-03-4.06401E-01 1.00381E-04
 -1      3438-1.25078E-02-4.03785E-01-1.12821E-04
 -1      3439-2.70465E-03-3.93363E-01-5.40452E-06
 -1      3440-2.36637E-02-4.17144E-01-1.15424E-04
 -1      3441 7.48893E-03-3.94373E-02-1.09402E-05
 -1      3442 1.43957E-02-3.58557E-02-2.27585E-04
 -1      3443 6.98185E-03-3.09098E-02-2.38549E-04
 -1      3444-1.17620E-02-9.77006E-01 9.12752E-07
 -1      3445-2.91483E-02-9.61309E-01 1.10860E-05
 -1      3446 3.36269E-04 6.92211E-05-2.04694E-04
 -1      3447 5.82242E-04-2.23097E-04-1.77413E-04
 -1      3448-4.94917E-02-5.86336E-01 7.63111E-05
 -1      3449-2.56421E-02-5.96563E-01 5.79920E-06
 -1      3450-4.74491E-02-5.81485E-01-6.37383E-05
 -1      3451-5.06953E-02-5.56843E-01 1.00542E-04
 -1      3452-2.71893E-02-5.66917E-01 1.36568E-05
 -1      3453-2.91691E-02-5.71688E-01 9.85942E-05
 -1      3454 7.29928E-03-5.81602E-01-6.37245E-05
 -1      3455-4.97815E-03-5.96639E-01 5.55071E-06
 -1      3456-1.51793E-02-5.86299E-01 7.64235E-05
 -1      3457-1.68489E-02-5.56759E-01 1.00560E-04
 -1      3458-6.80225E-03-5.66972E-01 1.38033E-05
 -1      3459 4.61612E-02-8.77705E-01 1.14199E-05
 -1      3460 2.45030E-02-8.77265E-01-8.09406E-06
 -1      3461-2.07764E-02-4.26257E-01 1.52646E-04
 -1      3462-5.24331E-03-4.17118E-01 2.77662E-05
 -1      3463-2.03720E-02-4.07939E-01 1.58240E-04
 -1      3464 5.95020E-04-2.01780E-01-1.18502E-05
 -1      3465 7.64610E-03-2.08526E-01-1.60187E-04
 -1      3466-8.10033E-03-2.11792E-01 1.34281E-04
 -1      3467 2.02077E-03-2.22527E-01-2.67219E-05
 -1      3468 9.36539E-03-2.29554E-01-1.89140E-04
 -1      3469 1.80259E-02-2.19301E-01-1.96846E-04
 -1      3470-3.30462E-02-2.08901E-01-1.59930E-04
 -1      3471-1.61445E-02-2.01838E-01-1.15272E-05
 -1      3472-3.19745E-02-2.12213E-01 1.33524E-04
 -1      3473-3.59383E-02-2.29971E-01-1.88885E-04
 -1      3474-1.83571E-02-2.22636E-01-2.70636E-05
 -1      3475-1.95394E-02-2.19153E-01-1.96977E-04
 -1      3476-1.98314E-03-2.01759E-01-1.25876E-05
 -1      3477-9.09294E-03-2.08633E-01-1.61147E-04
 -1      3478-3.61267E-03-2.22544E-01-2.77914E-05
 -1      3479-2.01975E-02-9.48690E-01 1.00235E-05
 -1      3480-2.03284E-02-9.31689E-01 1.30957E-05
 -1      3481 7.39894E-03-9.10505E-01-1.70743E-05
 -1      3482-7.16059E-03-9.32696E-01 1.04339E-06
 -1      3483 7.56095E-03-9.27487E-01-1.46705E-05
 -1      3484-2.04686E-02-5.92267E-02 9.93464E-04
 -1      3485-2.17891E-02-6.76199E-02 9.74852E-04
 -1      3486-2.01176E-02-6.99578E-02 5.00941E-04
 -1      3487-1.25917E-02-6.94922E-02 5.01033E-04
 -1      3488 3.34437E-03-8.77089E-01-8.32518E-06
 -1      3489-3.19525E-02-8.15879E-01 2.13757E-06
 -1      3490-3.10566E-02-7.46003E-01 2.32102E-06
 -1      3491-5.53180E-03-7.46136E-01 2.59590E-06
 -1      3492 8.18922E-04-4.13322E-04 2.83313E-05
 -1      3493 2.29046E-03-1.38390E-03 3.05570E-04
 -1      3494 4.47915E-02-9.10846E-01-2.17352E-05
 -1      3495-2.59977E-02-3.89253E-01 1.58222E-05
 -1      3496-2.55899E-02-4.47203E-01 6.04696E-06
 -1      3497 3.16204E-02-2.09219E-01-1.64848E-04
 -1      3498 1.47536E-02-2.01992E-01-1.15149E-05
 -1      3499 1.67573E-02-2.22765E-01-2.66192E-05
 -1      3500 8.55761E-03-4.28061E-01 9.89471E-05
 -1      3501 1.83783E-02-4.17466E-01 9.33170E-05
 -1      3502-2.57513E-03-4.41602E-01-2.66780E-06
 -1      3503 4.50533E-02-8.18811E-01-3.26073E-05
 -1      3504 8.23704E-03-8.29333E-01-7.67998E-06
 -1      3505 2.35114E-02-8.40067E-01-3.60540E-05
 -1      3506-2.87295E-03-4.48245E-01 3.98240E-06
 -1      3507-1.04700E-03-7.24308E-04 3.55264E-04
 -1      3508-5.38730E-04-2.45664E-04 1.47803E-04
 -1      3509 4.24277E-02-3.63833E-01 5.69615E-04
 -1      3510 4.99173E-02-7.59878E-01-2.01406E-04
 -1      3511 4.49915E-02-7.86290E-01-9.21837E-05
 -1      3512 2.63639E-02-7.86062E-01-9.25653E-05
 -1      3513 2.63849E-02-7.54791E-01-1.06461E-04
 -1      3514 4.48867E-02-7.55029E-01-1.06009E-04
 -1      3515-5.83619E-02-7.59089E-01-2.01122E-04
 -1      3516-5.38229E-02-7.85567E-01-9.21035E-05
 -1      3517-3.51922E-02-7.85612E-01-9.21768E-05
 -1      3518-3.47573E-02-7.54346E-01-1.05750E-04
 -1      3519-5.32623E-02-7.54315E-01-1.05971E-04
 -1      3520 5.00124E-02-7.81415E-01-1.84450E-04
 -1      3521 2.63315E-02-8.07718E-01-8.22857E-05
 -1      3522-5.87715E-02-7.80620E-01-1.84068E-04
 -1      3523-3.54774E-02-8.07263E-01-8.17565E-05
 -1      3524-5.91616E-02-8.02243E-01-1.65273E-04
 -1      3525-5.41858E-02-8.07206E-01-8.26028E-05
 -1      3526 5.00854E-02-8.03045E-01-1.65855E-04
 -1      3527 4.50359E-02-8.07935E-01-8.27581E-05
 -1      3528-4.62869E-03-3.89258E-01 1.80880E-05
 -1      3529-3.40533E-04-2.17568E-02 1.39465E-05
 -1      3530-4.81025E-02-4.16994E-01-5.15908E-04
 -1      3531-4.89011E-02-4.35438E-01-4.98099E-04
 -1      3532-2.81460E-02-4.21135E-01-2.63152E-04
 -1      3533-2.86530E-02-4.39645E-01-2.53758E-04
 -1      3534-4.46044E-02-4.39792E-01-2.52894E-04
 -1      3535 2.18087E-03-1.78219E-03-5.89592E-04
 -1      3536 3.43458E-03-2.35309E-03-5.65020E-04
 -1      3537 4.39624E-03-2.87335E-03-1.07557E-03
 -1      3538 3.31618E-03-5.04595E-03-5.56279E-04
 -1      3539 5.43517E-03-5.60729E-03-5.48830E-04
 -1      3540-8.60167E-03-4.14594E-02 1.36196E-05
 -1      3541-4.11143E-02-9.76802E-01 8.28828E-07
 -1      3542-5.76563E-02-9.61126E-01 1.04533E-05
 -1      3543 1.12689E-02-5.60681E-01-1.00070E-04
 -1      3544-2.71843E-03-5.46206E-01-2.64135E-07
 -1      3545 2.14826E-02-5.70954E-01-8.51736E-05
 -1      3546-5.08542E-02-5.62110E-01-9.96848E-05
 -1      3547-2.72839E-02-5.72169E-01-8.49171E-05
 -1      3548-3.07337E-02-5.47668E-01-1.82098E-07
 -1      3549-4.92971E-04-4.12224E-02 1.33579E-05
 -1      3550 1.06258E-02-1.54181E-02 1.12844E-03
 -1      3551 4.69080E-02-9.62515E-01-1.04486E-05
 -1      3552 2.96163E-02-9.77938E-01-7.11724E-07
 -1      3553-1.35855E-02-2.51561E-02-1.09260E-03
 -1      3554-1.50156E-02-3.08875E-02-1.07245E-03
 -1      3555-7.50967E-03-2.36751E-02-5.64916E-04
 -1      3556-1.33058E-02-2.97979E-02-5.53583E-04
 -1      3557-1.20033E-02-2.41994E-02-5.64207E-04
 -1      3558 1.12512E-02-1.03852E-01-1.38693E-05
 -1      3559-6.29202E-03-2.20261E-02 1.44041E-05
 -1      3560 9.48502E-03-6.99009E-02 1.60159E-05
 -1      3561 6.69830E-04-6.96861E-02 1.54189E-05
 -1      3562-4.28873E-03-5.07282E-01 6.85555E-06
 -1      3563-1.67128E-03-6.79523E-01-4.61874E-06
 -1      3564 1.96422E-02-6.79727E-01-4.22357E-06
 -1      3565-5.62038E-03-6.79494E-01-4.35658E-06
 -1      3566-2.69352E-02-6.79396E-01-4.56641E-06
 -1      3567-2.40354E-02-5.07234E-01 7.19441E-06
 -1      3568 2.11982E-04-3.33230E-01 9.79989E-06
 -1      3569-2.01158E-02-3.33230E-01 9.38295E-06
 -1      3570 1.73599E-02-3.33450E-01 9.85777E-06
 -1      3571-2.96542E-03-3.33218E-01 9.79817E-06
 -1      3572 7.08535E-04-1.03636E-01-1.44308E-05
 -1      3573-1.18296E-02-1.03723E-01-1.52182E-05
 -1      3574-1.64084E-03-1.55199E-01 1.38382E-05
 -1      3575 1.33241E-02-1.55430E-01 1.35535E-05
 -1      3576-1.42505E-02-1.55304E-01 1.33677E-05
 -1      3577-1.28654E-03-1.03592E-01-1.60629E-05
 -1      3578-3.56842E-02-2.26115E-01 1.95819E-04
 -1      3579-1.82173E-02-2.18748E-01 1.71500E-04
 -1      3580-2.17422E-02-2.36808E-01 1.16169E-07
 -1      3581-1.11757E-02-2.25639E-01 1.96696E-04
 -1      3582-8.49441E-04-2.36644E-01 1.21196E-07
 -1      3583 7.16795E-04-1.55217E-01 1.34137E-05
 -1      3584 3.45596E-04 5.71491E-05 2.03795E-04
 -1      3585 5.93200E-04-2.41504E-04 1.68260E-04
 -1      3586 5.02194E-02-8.90513E-01 9.21593E-05
 -1      3587 4.98423E-02-9.13410E-01 7.16088E-05
 -1      3588 4.61358E-02-8.88797E-01 3.98844E-05
 -1      3589 2.73195E-02-8.88614E-01 4.36948E-05
 -1      3590-1.67174E-02-5.46936E-01 3.02090E-05
 -1      3591 7.32105E-03-5.71632E-01-1.48340E-05
 -1      3592 1.12693E-02-5.50837E-01-3.02652E-05
 -1      3593-5.74724E-02-7.16358E-01 2.38897E-04
 -1      3594 5.51836E-02-9.84907E-01-2.92820E-06
 -1      3595 3.32693E-02-9.77966E-01-4.40896E-06
 -1      3596 4.61147E-02-8.98522E-01 9.98077E-06
 -1      3597-2.51936E-02-9.84280E-01 4.70580E-06
 -1      3598-3.10064E-02-9.76868E-01 4.34111E-06
 -1      3599 2.17644E-03-3.45630E-02 2.08454E-05
 -1      3600-4.99614E-03-3.54438E-02-5.42176E-05
 -1      3601-4.34062E-03-2.67103E-02-5.48485E-05
 -1      3602 1.06328E-02-1.54394E-02-1.12824E-03
 -1      3603 4.38809E-02-8.15819E-01 2.87277E-05
 -1      3604 1.96789E-03-2.74110E-02 2.17422E-05
 -1      3605 3.96828E-02-4.04538E-01-1.11275E-04
 -1      3606 1.94331E-02-4.15043E-01-8.41401E-06
 -1      3607 3.97152E-02-4.28626E-01 8.89051E-05
 -1      3608 4.07758E-02-4.32120E-01-1.12199E-04
 -1      3609 2.00625E-02-4.42862E-01-1.11306E-05
 -1      3610 2.04303E-02-4.18445E-01-1.18726E-04
 -1      3611 3.19415E-03-7.93768E-01 3.80407E-06
 -1      3612-2.14540E-02-7.96564E-01-8.96151E-06
 -1      3613-2.11177E-02-7.65235E-01-9.82749E-06
 -1      3614 4.34264E-03-7.96743E-01-8.48040E-06
 -1      3615 4.51626E-03-7.65406E-01-1.01726E-05
 -1      3616 2.21058E-03-2.66362E-02-5.46173E-05
 -1      3617-1.31044E-02-5.71493E-01-1.47602E-05
 -1      3618-1.67912E-02-5.52180E-01-3.01256E-05
 -1      3619 4.39324E-02-3.98889E-01-5.37386E-04
 -1      3620 4.45122E-02-4.17073E-01-5.18362E-04
 -1      3621 2.41957E-02-3.94590E-01-2.78840E-04
 -1      3622 3.99364E-02-4.13565E-01-2.64996E-04
 -1      3623 3.94176E-02-3.95441E-01-2.74565E-04
 -1      3624-8.10700E-03-2.19265E-01 3.03996E-05
 -1      3625-1.12192E-02-2.33326E-01 5.58650E-05
 -1      3626 9.92702E-04-4.96434E-04 1.51398E-04
 -1      3627 8.66448E-04-4.00652E-04 1.66395E-04
 -1      3628 1.62763E-02-3.73656E-02-1.05389E-03
 -1      3629 1.49383E-02-3.10668E-02-1.07536E-03
 -1      3630 1.50378E-02-3.91251E-02-5.40509E-04
 -1      3631 8.58225E-03-3.20496E-02-5.46656E-04
 -1      3632 9.31206E-03-3.84655E-02-5.34739E-04
 -1      3633 3.44169E-03-7.68111E-01 3.95957E-06
 -1      3634 2.52806E-03-3.53890E-02-5.30723E-05
 -1      3635-1.50598E-02-5.76315E-01 2.04417E-05
 -1      3636-6.57531E-02-9.84004E-01 3.23922E-06
 -1      3637-4.30438E-02-9.76788E-01 4.39938E-06
 -1      3638-9.34926E-03-2.15884E-01-4.24351E-05
 -1      3639 1.87337E-02-3.93629E-01-3.20318E-06
 -1      3640 7.85968E-03-2.15977E-01-4.23410E-05
 -1      3641 1.34785E-02-2.51099E-02-1.09403E-03
 -1      3642 1.37471E-02-3.24703E-02-5.51477E-04
 -1      3643 7.42555E-03-2.36927E-02-5.61881E-04
 -1      3644 1.18900E-02-2.41392E-02-5.66090E-04
 -1      3645-1.64287E-02-4.30575E-01-2.61211E-05
 -1      3646 4.60440E-03-4.06574E-01 1.05379E-05
 -1      3647-1.59600E-02-4.03985E-01-2.61057E-05
 -1      3648 6.03147E-03-5.10030E-03 1.13135E-03
 -1      3649 4.50086E-03-8.40061E-03 5.92847E-04
 -1      3650-5.18013E-04-3.05874E-04-6.16312E-05
 -1      3651-5.98693E-02-8.45742E-01 1.27565E-04
 -1      3652-3.01047E-02-8.66168E-01 4.60694E-05
 -1      3653-3.72248E-02-8.32636E-01 7.70097E-05
 -1      3654 4.50972E-02-4.36537E-01-5.00033E-04
 -1      3655 2.44998E-02-4.13709E-01-2.68606E-04
 -1      3656 4.10142E-02-4.41349E-01-2.57979E-04
 -1      3657 2.52404E-02-4.41509E-01-2.60764E-04
 -1      3658-6.08415E-02-8.89053E-01 9.22826E-05
 -1      3659-6.11277E-02-9.12161E-01 7.06976E-05
 -1      3660-4.92346E-02-8.87761E-01 4.32622E-05
 -1      3661-3.06899E-02-8.87855E-01 3.99615E-05
 -1      3662 3.64581E-03-9.13599E-03 6.89473E-06
 -1      3663-5.48596E-04-2.50833E-04-1.49837E-04
 -1      3664-1.05397E-03-7.37384E-04-3.54951E-04
 -1      3665 3.86770E-02-4.06978E-01 1.00273E-04
 -1      3666-1.43909E-04-8.89666E-03 9.58558E-06
 -1      3667-1.24346E-02-8.98022E-01 1.04793E-05
 -1      3668 6.99474E-04-8.99035E-01-5.92838E-06
 -1      3669 7.62151E-03-7.99532E-03 1.15160E-03
 -1      3670 7.21035E-03-9.01427E-03 5.84563E-04
 -1      3671-6.02034E-03-5.09243E-03 1.13552E-03
 -1      3672-7.18320E-03-8.96740E-03 5.91536E-04
 -1      3673 5.04384E-03-4.28219E-01 9.23141E-06
 -1      3674-2.99637E-02-4.42760E-01 2.71023E-04
 -1      3675-1.41687E-02-4.33478E-01 1.21365E-04
 -1      3676-1.55234E-02-4.02083E-01 1.53557E-04
 -1      3677-7.69909E-03-8.01655E-03 1.16137E-03
 -1      3678-4.52870E-03-8.42858E-03 6.00635E-04
 -1      3679 4.99185E-02-7.59877E-01 2.02478E-04
 -1      3680 5.00139E-02-7.81414E-01 1.84952E-04
 -1      3681 4.38637E-02-8.04949E-01 7.94294E-05
 -1      3682 2.52046E-02-7.83089E-01 8.78626E-05
 -1      3683 4.38201E-02-7.83315E-01 8.86536E-05
 -1      3684 5.00840E-02-8.03045E-01 1.66009E-04
 -1      3685 2.51701E-02-8.04731E-01 7.93568E-05
 -1      3686 2.53245E-02-7.57485E-01 9.96554E-05
 -1      3687 4.38376E-02-7.57718E-01 9.95661E-05
 -1      3688-3.62426E-02-4.17209E-01 2.80598E-05
 -1      3689-4.55977E-02-4.33680E-01 1.22209E-04
 -1      3690-4.49123E-02-7.80759E-01 1.04055E-05
 -1      3691-5.48158E-02-7.61472E-01 4.89544E-05
 -1      3692-8.42736E-03-7.80924E-01 9.89762E-06
 -1      3693-1.84531E-02-7.61576E-01 4.88098E-05
 -1      3694-1.14399E-03-3.06189E-02 5.90775E-05
 -1      3695-3.58658E-03-2.53292E-02 2.65155E-04
 -1      3696-1.11480E-02-3.11692E-02 5.91803E-05
 -1      3697-1.27711E-02-2.61656E-02 2.67084E-04
 -1      3698-5.67062E-02-9.44053E-01-2.27489E-05
 -1      3699-3.74969E-02-9.44064E-01-2.24788E-05
 -1      3700-6.08161E-02-9.35422E-01-5.09330E-05
 -1      3701-5.38933E-02-9.11948E-01-3.27659E-05
 -1      3702-3.47263E-02-9.11950E-01-3.36550E-05
 -1      3703 1.35028E-02-2.52079E-02 1.09038E-03
 -1      3704 8.16838E-03-3.12305E-02 5.15604E-04
 -1      3705 1.32891E-02-3.17464E-02 5.16955E-04
 -1      3706 1.18194E-02-2.49274E-02 5.29440E-04
 -1      3707 7.27107E-03-2.44021E-02 5.29298E-04
 -1      3708 1.49105E-02-3.09507E-02 1.07172E-03
 -1      3709 1.45077E-02-3.80881E-02 5.06171E-04
 -1      3710 1.62489E-02-3.72386E-02 1.04992E-03
 -1      3711 8.87269E-03-3.75719E-02 5.04564E-04
 -1      3712 2.02184E-02-5.93405E-02-9.93184E-04
 -1      3713 1.13078E-02-6.74862E-02-4.49598E-04
 -1      3714 2.14892E-02-6.77484E-02-9.73999E-04
 -1      3715 1.87200E-02-6.79745E-02-4.51257E-04
 -1      3716-5.69929E-02-6.95175E-01 2.56428E-04
 -1      3717-4.97326E-02-6.74238E-01 1.27017E-04
 -1      3718-5.64912E-02-6.74124E-01 2.75474E-04
 -1      3719-3.16391E-02-6.74235E-01 1.27494E-04
 -1      3720 4.94723E-02-6.95936E-01 2.57497E-04
 -1      3721 4.25111E-02-6.74893E-01 1.28692E-04
 -1      3722-5.59693E-02-6.53217E-01 2.94315E-04
 -1      3723 4.92720E-02-6.74875E-01 2.76340E-04
 -1      3724 2.44198E-02-6.74633E-01 1.27429E-04
 -1      3725 4.90438E-02-6.53958E-01 2.95430E-04
 -1      3726 4.62745E-02-4.92907E-01-4.41875E-04
 -1      3727 2.35905E-02-5.12084E-01-1.95742E-04
 -1      3728 4.67162E-02-5.12337E-01-4.23155E-04
 -1      3729 4.04225E-02-5.12397E-01-1.96144E-04
 -1      3730-5.10014E-02-4.92270E-01-4.41678E-04
 -1      3731-4.54074E-02-5.11830E-01-1.95473E-04
 -1      3732-5.16968E-02-5.11686E-01-4.22840E-04
 -1      3733-2.85696E-02-5.11739E-01-1.96257E-04
 -1      3734 2.27311E-02-7.66636E-02-9.55127E-04
 -1      3735 3.06588E-02-1.52432E-01-8.27504E-04
 -1      3736 3.16782E-02-1.65050E-01-8.07955E-04
 -1      3737 1.60260E-02-1.52171E-01-3.82120E-04
 -1      3738 2.66763E-02-1.52613E-01-3.82419E-04
 -1      3739 4.17680E-02-3.46500E-01-5.87699E-04
 -1      3740 3.56551E-02-3.29589E-01-2.80746E-04
 -1      3741 4.10795E-02-3.29472E-01-6.06704E-04
 -1      3742 2.11362E-02-3.29215E-01-2.80519E-04
 -1      3743-4.47269E-02-3.45998E-01-5.88711E-04
 -1      3744-3.83663E-02-3.29160E-01-2.81562E-04
 -1      3745-2.56166E-02-9.57949E-02 9.20057E-04
 -1      3746-2.34539E-02-1.06379E-01 4.16632E-04
 -1      3747-2.68498E-02-1.06153E-01 9.00715E-04
 -1      3748-1.43513E-02-1.05981E-01 4.17943E-04
 -1      3749-4.37911E-02-3.28987E-01-6.06819E-04
 -1      3750-2.38402E-02-3.28954E-01-2.80410E-04
 -1      3751-2.31433E-02-7.65217E-02-9.58616E-04
 -1      3752-1.90164E-02-6.78604E-02-4.52630E-04
 -1      3753-2.18343E-02-6.76213E-02-9.77185E-04
 -1      3754-1.16444E-02-6.74172E-02-4.53305E-04
 -1      3755-2.05114E-02-5.92264E-02-9.97650E-04
 -1      3756-4.28846E-02-3.12292E-01-6.25987E-04
 -1      3757 4.03653E-02-3.12759E-01-6.25693E-04
 -1      3758-3.27096E-02-1.64770E-01-8.08742E-04
 -1      3759-2.75882E-02-1.52383E-01-3.84029E-04
 -1      3760 2.65047E-02-1.06336E-01 9.07237E-04
 -1      3761 2.53330E-02-9.59624E-02 9.26779E-04
 -1      3762 1.39788E-02-1.06074E-01 4.22427E-04
 -1      3763 2.28649E-02-1.06551E-01 4.17803E-04
 -1      3764-3.49065E-02-1.91191E-01 7.78075E-04
 -1      3765-3.62185E-02-2.05003E-01 7.64368E-04
 -1      3766-3.15135E-02-2.05178E-01 3.54393E-04
 -1      3767-1.96816E-02-2.04878E-01 3.55652E-04
 -1      3768-3.16715E-02-1.52115E-01-8.30787E-04
 -1      3769-1.70265E-02-1.51976E-01-3.85042E-04
 -1      3770 3.56786E-02-2.19614E-01 7.39200E-04
 -1      3771 1.81950E-02-2.05126E-01 3.53501E-04
 -1      3772 3.38448E-02-1.91530E-01 7.78922E-04
 -1      3773 3.00784E-02-2.05486E-01 3.50644E-04
 -1      3774 5.67463E-03-4.04107E-01-2.66904E-05
 -1      3775 6.01095E-03-4.31689E-01-2.73187E-05
 -1      3776 3.47678E-02-2.05425E-01 7.59419E-04
 -1      3777-3.21945E-02-5.96399E-01 1.77426E-04
 -1      3778-4.97677E-02-5.96451E-01 1.77580E-04
 -1      3779-5.42691E-02-5.91454E-01 3.49467E-04
 -1      3780-3.36523E-02-5.66733E-01 2.14565E-04
 -1      3781-5.09937E-02-5.66812E-01 2.13804E-04
 -1      3782 3.75052E-02-2.49218E-01 7.06651E-04
 -1      3783 3.30281E-02-2.64604E-01 3.16895E-04
 -1      3784 5.02484E-02-8.68506E-01 1.11251E-04
 -1      3785 3.83203E-02-2.64552E-01 6.86823E-04
 -1      3786 1.99436E-02-2.64321E-01 3.18977E-04
 -1      3787 6.02610E-03-5.09156E-03-1.13336E-03
 -1      3788 4.22283E-03-8.00761E-03-5.62499E-04
 -1      3789-2.18601E-03-1.85025E-03-5.76424E-04
 -1      3790-3.46708E-03-2.41224E-03-5.49793E-04
 -1      3791-4.41626E-03-2.87891E-03-1.07617E-03
 -1      3792-3.20233E-03-4.86705E-03-5.40892E-04
 -1      3793-5.28250E-03-5.41088E-03-5.31126E-04
 -1      3794 1.92942E-02-2.01788E-01-3.93333E-04
 -1      3795 3.12078E-02-2.02211E-01-3.96141E-04
 -1      3796 3.46572E-02-2.05350E-01-7.59853E-04
 -1      3797 2.14831E-02-2.22551E-01-4.24110E-04
 -1      3798 3.38853E-02-2.22986E-01-4.27919E-04
 -1      3799-2.06850E-02-2.01676E-01-3.94394E-04
 -1      3800-3.25664E-02-2.01915E-01-3.93059E-04
 -1      3801-3.61002E-02-2.05114E-01-7.57430E-04
 -1      3802-2.30814E-02-2.22464E-01-4.25046E-04
 -1      3803-3.54516E-02-2.22704E-01-4.24720E-04
 -1      3804-6.01843E-02-8.67369E-01 1.10988E-04
 -1      3805-3.01869E-02-5.91536E-01-1.61508E-04
 -1      3806-4.77172E-02-5.91582E-01-1.61920E-04
 -1      3807-5.42682E-02-5.91453E-01-3.48852E-04
 -1      3808-3.46800E-02-6.16537E-01-1.88814E-04
 -1      3809-5.24060E-02-6.16588E-01-1.88741E-04
 -1      3810-2.80699E-02-6.16670E-01-7.52793E-05
 -1      3811 2.41279E-02-5.91910E-01-1.61909E-04
 -1      3812 4.16537E-02-5.92198E-01-1.61941E-04
 -1      3813 4.82069E-02-5.92159E-01-3.49263E-04
 -1      3814 2.82740E-02-6.16975E-01-1.89159E-04
 -1      3815 4.59951E-02-6.17274E-01-1.88823E-04
 -1      3816 2.16617E-02-6.17016E-01-7.54087E-05
 -1      3817-2.74165E-02-3.94735E-01-2.77531E-04
 -1      3818-4.42528E-02-4.30576E-01-1.07758E-04
 -1      3819-4.31978E-02-4.04001E-01-1.13897E-04
 -1      3820-4.35608E-02-4.13020E-01-2.66692E-04
 -1      3821-4.28203E-02-3.94912E-01-2.76262E-04
 -1      3822 7.61486E-03-7.98158E-03-1.15343E-03
 -1      3823 6.86103E-03-8.59286E-03-5.60343E-04
 -1      3824-2.69448E-02-1.19719E-01 5.07362E-04
 -1      3825-1.73434E-02-1.19287E-01 5.08427E-04
 -1      3826-1.37727E-02-1.19532E-01 2.03281E-04
 -1      3827 2.78846E-02-1.37783E-01-4.90827E-04
 -1      3828 1.76882E-02-1.37290E-01-4.91048E-04
 -1      3829 1.38880E-02-1.37501E-01-1.96054E-04
 -1      3830-5.40110E-02-7.96398E-01-3.64909E-05
 -1      3831-5.34650E-02-7.65080E-01-4.25898E-05
 -1      3832 8.40143E-03-7.96725E-01-3.70151E-05
 -1      3833 8.55016E-03-7.65380E-01-4.24050E-05
 -1      3834-9.45993E-03-3.84209E-02-5.37345E-04
 -1      3835-8.29265E-03-2.92786E-02-5.51939E-04
 -1      3836-1.45350E-02-3.57910E-02-2.25369E-04
 -1      3837-1.51664E-02-3.89245E-02-5.38465E-04
 -1      3838-1.26602E-02-2.70705E-02-2.32138E-04
 -1      3839-5.36579E-02-5.71216E-01 3.66574E-04
 -1      3840-5.30255E-02-5.51169E-01 3.84842E-04
 -1      3841-3.32115E-02-5.46722E-01 2.25081E-04
 -1      3842-5.03819E-02-5.46814E-01 2.25551E-04
 -1      3843 4.87927E-02-6.33193E-01-3.13084E-04
 -1      3844 4.85116E-02-6.12591E-01-3.31786E-04
 -1      3845 4.62474E-02-6.37907E-01-1.78146E-04
 -1      3846 2.83834E-02-6.37619E-01-1.77734E-04
 -1      3847-5.48558E-02-6.11873E-01-3.31434E-04
 -1      3848-3.50782E-02-6.37174E-01-1.77356E-04
 -1      3849-5.54245E-02-6.32463E-01-3.12724E-04
 -1      3850-5.29467E-02-6.37211E-01-1.78037E-04
 -1      3851 2.85308E-02-1.28492E-01-8.63377E-04
 -1      3852 2.96085E-02-1.40242E-01-8.45090E-04
 -1      3853 2.68572E-02-1.26139E-01-5.02449E-04
 -1      3854 1.70472E-02-1.25638E-01-5.01385E-04
 -1      3855-2.80624E-02-1.16981E-01 8.83134E-04
 -1      3856-2.92568E-02-1.28264E-01 8.64233E-04
 -1      3857-2.80751E-02-1.31099E-01 4.96857E-04
 -1      3858-1.80829E-02-1.30682E-01 4.96897E-04
 -1      3859 2.62626E-02-1.19912E-01 5.07197E-04
 -1      3860 1.68909E-02-1.19393E-01 5.13741E-04
 -1      3861 1.30645E-02-1.19630E-01 2.02881E-04
 -1      3862-2.86853E-02-1.37519E-01-4.91385E-04
 -1      3863-1.85730E-02-1.37055E-01-4.94864E-04
 -1      3864-1.46744E-02-1.37349E-01-1.96830E-04
 -1      3865 2.76298E-02-1.17163E-01 8.89233E-04
 -1      3866 1.75347E-02-1.30781E-01 5.01723E-04
 -1      3867-3.05171E-02-1.39945E-01-8.48435E-04
 -1      3868-2.75647E-02-1.25893E-01-5.03081E-04
 -1      3869 3.70215E-02-2.83972E-01 3.81891E-04
 -1      3870 2.35676E-02-2.83663E-01 3.84375E-04
 -1      3871 1.81390E-02-2.83724E-01 1.51850E-04
 -1      3872 3.96227E-02-2.96370E-01 6.43630E-04
 -1      3873 3.88455E-02-2.80231E-01 6.64665E-04
 -1      3874 2.37187E-02-2.99765E-01 3.68544E-04
 -1      3875 3.77469E-02-3.00182E-01 3.69202E-04
 -1      3876 2.87452E-02-1.28462E-01 8.70317E-04
 -1      3877 2.73032E-02-1.31308E-01 4.96785E-04
 -1      3878-3.50549E-02-2.64278E-01 3.18016E-04
 -1      3879-2.18971E-02-2.64025E-01 3.18288E-04
 -1      3880-4.02489E-02-2.64093E-01 6.87002E-04
 -1      3881-3.92334E-02-2.83586E-01 3.83901E-04
 -1      3882-2.57022E-02-2.83313E-01 3.83126E-04
 -1      3883-2.03763E-02-2.83511E-01 1.51817E-04
 -1      3884 3.55678E-02-2.19570E-01-7.42873E-04
 -1      3885 3.47137E-02-2.37664E-01-4.16428E-04
 -1      3886 3.69380E-03-3.50383E-02-2.25305E-04
 -1      3887 9.12070E-03-4.03946E-01-1.13688E-04
 -1      3888 9.53307E-03-4.31535E-01-1.13470E-04
 -1      3889 3.64025E-02-2.34134E-01-7.23627E-04
 -1      3890 2.19415E-02-2.37202E-01-4.12755E-04
 -1      3891-3.71471E-02-2.19286E-01-7.39317E-04
 -1      3892-3.64243E-02-2.37332E-01-4.12192E-04
 -1      3893-4.20658E-02-2.95913E-01 6.47163E-04
 -1      3894-4.12226E-02-2.79832E-01 6.67463E-04
 -1      3895-4.01347E-02-2.99741E-01 3.70310E-04
 -1      3896-2.62059E-02-2.99480E-01 3.70949E-04
 -1      3897-2.93049E-02-1.28205E-01-8.65903E-04
 -1      3898-1.77993E-02-1.25408E-01-5.04397E-04
 -1      3899 1.95127E-02-5.96875E-01 6.02935E-06
 -1      3900 4.17837E-02-6.02430E-01-5.99131E-05
 -1      3901 7.25165E-03-6.01946E-01-6.00282E-05
 -1      3902-4.79893E-02-6.01809E-01-6.01319E-05
 -1      3903-1.14939E-03-5.96666E-01 5.77366E-06
 -1      3904-1.34503E-02-6.01803E-01-5.96741E-05
 -1      3905 3.22734E-03-2.62749E-02-2.30406E-04
 -1      3906 4.45437E-02-4.18072E-01 5.17585E-04
 -1      3907 4.39308E-02-3.98889E-01 5.36853E-04
 -1      3908 2.31737E-02-3.97022E-01 2.61107E-04
 -1      3909 3.84225E-02-3.97864E-01 2.58254E-04
 -1      3910 2.34567E-02-4.16179E-01 2.51922E-04
 -1      3911-4.64446E-02-4.87791E-01 2.29931E-04
 -1      3912-4.66641E-02-4.61707E-01 2.59620E-04
 -1      3913 3.61129E-03-4.08031E-02 1.97286E-04
 -1      3914 8.85058E-03-4.63187E-02 2.50490E-04
 -1      3915-4.09582E-02-3.50292E-01 3.01233E-04
 -1      3916-4.49686E-02-3.75455E-01 3.37086E-04
 -1      3917-2.53180E-03-2.68009E-01-1.17284E-05
 -1      3918 6.88069E-03-2.71953E-01 1.17649E-04
 -1      3919-2.98457E-02-4.87674E-01 2.29750E-04
 -1      3920-3.03419E-02-4.61567E-01 2.59746E-04
 -1      3921 4.61446E-04-2.67978E-01-1.11399E-05
 -1      3922-9.03128E-03-2.71836E-01 1.18820E-04
 -1      3923-2.61513E-02-3.50084E-01 3.02325E-04
 -1      3924-2.97831E-02-3.75243E-01 3.39678E-04
 -1      3925-3.80920E-02-2.33878E-01-7.19406E-04
 -1      3926-2.36505E-02-2.37153E-01-4.13025E-04
 -1      3927 1.62374E-02-2.68193E-01-1.09604E-05
 -1      3928 3.33778E-02-2.72545E-01 1.17657E-04
 -1      3929 1.51104E-02-4.15973E-02 1.97801E-04
 -1      3930 8.52546E-03-4.46673E-01 9.46851E-05
 -1      3931 2.18307E-02-4.60575E-01 1.13417E-04
 -1      3932-1.83125E-02-2.68056E-01-1.14760E-05
 -1      3933-3.54892E-02-2.72178E-01 1.18839E-04
 -1      3934-6.02665E-03-5.10335E-03-1.13413E-03
 -1      3935-6.70044E-03-8.35356E-03-5.41433E-04
 -1      3936-6.05571E-02-9.12483E-01-7.04433E-05
 -1      3937-5.36244E-02-8.89057E-01-4.35534E-05
 -1      3938-7.70610E-03-8.03181E-03-1.15866E-03
 -1      3939-4.14199E-03-7.82112E-03-5.53044E-04
 -1      3940-8.55940E-03-1.25237E-02 5.83604E-04
 -1      3941-1.07400E-02-1.84162E-02 6.14969E-04
 -1      3942-6.08457E-02-8.89370E-01-9.19581E-05
 -1      3943-3.50656E-02-8.88834E-01-4.30743E-05
 -1      3944 2.67890E-02-1.25681E-01 2.30610E-04
 -1      3945 2.33609E-02-1.12021E-01 1.57556E-04
 -1      3946 1.28520E-02-1.14763E-01-3.24346E-05
 -1      3947 2.63361E-02-1.20613E-01-2.32945E-04
 -1      3948 1.57373E-02-1.28570E-01 3.91562E-07
 -1      3949-5.74718E-02-7.16358E-01-2.38745E-04
 -1      3950 4.96463E-02-7.17130E-01-2.38976E-04
 -1      3951 2.78164E-02-1.37300E-01 2.25842E-04
 -1      3952 1.40885E-02-1.42966E-01 3.15081E-05
 -1      3953 2.62271E-02-1.46567E-01-1.46956E-04
 -1      3954 2.73768E-02-1.32031E-01-2.27972E-04
 -1      3955-2.81319E-02-1.31775E-01-2.28308E-04
 -1      3956-2.70893E-02-1.46345E-01-1.47975E-04
 -1      3957-1.49423E-02-1.42856E-01 3.09361E-05
 -1      3958-2.86377E-02-1.37082E-01 2.25495E-04
 -1      3959-1.64865E-02-1.28418E-01 4.59810E-10
 -1      3960-5.75475E-03-1.11266E-01 1.57121E-04
 -1      3961 1.82778E-03-1.14515E-01-3.29248E-05
 -1      3962 7.49233E-03-1.19817E-01-2.32367E-04
 -1      3963-8.31456E-03-1.24837E-01 2.31432E-04
 -1      3964-3.64941E-04-1.28247E-01 2.51552E-07
 -1      3965 7.76617E-03-1.31245E-01-2.27248E-04
 -1      3966 5.71234E-03-1.45879E-01-1.46651E-04
 -1      3967-8.67714E-03-1.36462E-01 2.25964E-04
 -1      3968-2.77805E-03-1.42718E-01 3.16810E-05
 -1      3969-2.70016E-02-1.20376E-01-2.33252E-04
 -1      3970-1.35027E-02-1.14625E-01-3.35189E-05
 -1      3971-2.39917E-02-1.11841E-01 1.56138E-04
 -1      3972-2.75170E-02-1.25480E-01 2.30207E-04
 -1      3973-5.34931E-03-1.19510E-02 5.87493E-04
 -1      3974-6.82791E-03-1.78303E-02 6.18372E-04
 -1      3975-6.47983E-03-1.45781E-01-1.45797E-04
 -1      3976 1.92765E-03-1.42727E-01 3.08381E-05
 -1      3977 7.94822E-03-1.36474E-01 2.26349E-04
 -1      3978-8.43090E-03-1.31100E-01-2.26621E-04
 -1      3979-3.81456E-04-1.28202E-01-1.12258E-06
 -1      3980-4.61814E-02-4.02344E-01 1.50101E-04
 -1      3981-5.54974E-02-8.00017E-01 4.09694E-05
 -1      3982-1.88444E-02-8.00152E-01 4.12463E-05
 -1      3983-6.06225E-03-8.16031E-01 2.42251E-06
 -1      3984 7.69704E-03-1.24777E-01 2.32385E-04
 -1      3985 5.22760E-03-1.11203E-01 1.57758E-04
 -1      3986-8.04590E-03-1.19611E-01-2.31172E-04
 -1      3987-2.47720E-03-1.14471E-01-3.45119E-05
 -1      3988-6.05460E-02-8.67367E-01-1.11463E-04
 -1      3989-9.21683E-03-1.14220E-02-1.14944E-03
 -1      3990 5.01308E-02-8.24762E-01 1.46980E-04
 -1      3991-1.51310E-02-3.68626E-02 2.58203E-04
 -1      3992 1.75995E-02-4.40787E-02 1.02999E-03
 -1      3993 1.57010E-02-4.49716E-02 4.96976E-04
 -1      3994 1.90221E-02-5.13893E-02 1.01826E-03
 -1      3995 9.69506E-03-4.43992E-02 5.00461E-04
 -1      3996 4.97939E-02-7.38446E-01 2.21914E-04
 -1      3997 4.01798E-02-4.47230E-01 8.58702E-05
 -1      3998 2.19025E-02-8.99208E-01-8.56848E-06
 -1      3999-4.26378E-03-3.60609E-02 2.57342E-04
 -1      4000 4.58081E-02-4.73705E-01 4.60399E-04
 -1      4001 4.04007E-02-4.56570E-01 2.24577E-04
 -1      4002 2.41552E-02-4.56235E-01 2.28662E-04
 -1      4003 2.70220E-02-4.77754E-01 2.62913E-04
 -1      4004 4.35113E-02-4.78104E-01 2.63166E-04
 -1      4005 1.20882E-02-2.00144E-02 1.11251E-03
 -1      4006 3.75018E-03-4.46919E-02 4.81011E-05
 -1      4007-1.68984E-04-2.31527E-04-3.68614E-05
 -1      4008 1.15446E-02-5.46255E-01 1.06669E-04
 -1      4009 2.34714E-02-5.41325E-01 1.08730E-04
 -1      4010 9.24278E-03-5.26443E-01 8.88865E-05
 -1      4011-1.66450E-02-5.42062E-01-1.04888E-04
 -1      4012-4.67966E-03-5.37089E-01-8.57653E-06
 -1      4013-2.51145E-03-5.57008E-01 1.01266E-06
 -1      4014 4.69936E-02-9.45940E-01-2.34415E-05
 -1      4015 4.47382E-02-9.23916E-01-3.61143E-05
 -1      4016 7.22607E-03-6.12304E-01-1.40229E-05
 -1      4017-1.35701E-02-6.12160E-01-1.39229E-05
 -1      4018 8.53705E-03-4.56244E-01 2.16467E-05
 -1      4019-9.11383E-03-2.80004E-01 2.73645E-05
 -1      4020 6.93111E-03-2.80090E-01 2.72044E-05
 -1      4021 4.56215E-02-4.55259E-01 4.80393E-04
 -1      4022 2.42173E-02-4.38006E-01 2.40043E-04
 -1      4023 1.82442E-02-5.34357E-02 5.83137E-04
 -1      4024 1.17205E-02-5.28214E-02 5.86367E-04
 -1      4025 4.25374E-02-5.26980E-01 8.87613E-05
 -1      4026 4.51987E-02-5.46807E-01 1.06399E-04
 -1      4027 4.48195E-02-5.41277E-01-1.05338E-04
 -1      4028 2.56102E-02-5.55783E-01 1.19415E-06
 -1      4029 2.31552E-02-5.35862E-01-8.57262E-06
 -1      4030 4.50977E-02-4.36537E-01 4.99260E-04
 -1      4031 3.99484E-02-4.37837E-01 2.33072E-04
 -1      4032 8.29226E-03-8.18424E-01-3.30495E-05
 -1      4033 4.33203E-02-3.80982E-01 5.55902E-04
 -1      4034 9.14305E-03-1.14164E-02-1.14521E-03
 -1      4035 4.55433E-02-5.66808E-01 1.01152E-04
 -1      4036 2.17937E-02-5.76608E-01 1.47456E-05
 -1      4037 4.15237E-02-5.82095E-01-6.32496E-05
 -1      4038 4.51678E-02-5.61222E-01-1.00201E-04
 -1      4039 7.73044E-03-1.31004E-01 6.69103E-05
 -1      4040 5.22358E-03-1.17108E-01 3.57553E-05
 -1      4041 7.62643E-03-1.25832E-01-6.72976E-05
 -1      4042-8.34484E-03-1.25735E-01-6.77724E-05
 -1      4043-6.43966E-03-1.40096E-01-3.44659E-05
 -1      4044-8.51041E-03-1.30949E-01 6.75394E-05
 -1      4045 5.61919E-03-1.40145E-01-3.40606E-05
 -1      4046-5.90350E-03-1.17060E-01 3.61046E-05
 -1      4047-2.64262E-02-5.27112E-01 1.53261E-05
 -1      4048-5.00728E-02-5.36949E-01 1.05684E-04
 -1      4049-4.57157E-02-5.21669E-01-7.26030E-05
 -1      4050-2.65252E-02-5.32254E-01-9.35092E-05
 -1      4051-5.02383E-02-5.42162E-01-1.04957E-04
 -1      4052-4.73009E-02-3.98820E-01-5.34282E-04
 -1      4053-4.89014E-02-4.35437E-01 4.98484E-04
 -1      4054 9.58053E-03-2.44536E-01-1.84282E-04
 -1      4055 2.06428E-03-2.52295E-01-2.60441E-05
 -1      4056-8.83053E-03-2.56280E-01 1.23338E-04
 -1      4057-1.14899E-02-2.40518E-01 1.90250E-04
 -1      4058-1.92291E-02-2.48306E-01 1.62038E-04
 -1      4059-1.93630E-02-2.52387E-01-2.60541E-05
 -1      4060-3.69104E-02-2.44926E-01-1.84353E-04
 -1      4061-3.46255E-02-2.56642E-01 1.23018E-04
 -1      4062-3.66622E-02-2.40973E-01 1.89948E-04
 -1      4063-1.63847E-02-3.71646E-02-1.05207E-03
 -1      4064 1.15517E-02-5.66267E-01 1.00909E-04
 -1      4065-1.69215E-02-5.62030E-01-9.94682E-05
 -1      4066-1.32175E-02-5.81461E-01-6.30552E-05
 -1      4067 1.31927E-03-5.76386E-01 1.48611E-05
 -1      4068-6.81781E-04-5.16674E-01 6.50423E-06
 -1      4069-1.25055E-02-5.21592E-01-7.29099E-05
 -1      4070 3.94698E-02-4.19361E-01 2.41779E-04
 -1      4071-1.65715E-02-5.36844E-01 1.05996E-04
 -1      4072-6.45372E-03-5.27152E-01 1.50323E-05
 -1      4073 7.39768E-03-5.21725E-01-7.27753E-05
 -1      4074 1.12618E-02-5.40725E-01-1.05835E-04
 -1      4075 2.12627E-02-5.31057E-01-9.39030E-05
 -1      4076 2.79627E-02-5.70901E-01-2.13187E-04
 -1      4077 4.53302E-02-5.71215E-01-2.13286E-04
 -1      4078 4.51590E-02-5.61067E-01-3.41412E-04
 -1      4079-4.99186E-02-5.32205E-01-2.33139E-04
 -1      4080-3.28792E-02-5.32104E-01-2.33487E-04
 -1      4081-5.02249E-02-5.41999E-01-3.55810E-04
 -1      4082 4.50570E-02-8.29666E-01-7.30416E-05
 -1      4083 4.74000E-02-8.57189E-01-6.90591E-05
 -1      4084 2.62845E-02-8.29455E-01-7.34593E-05
 -1      4085 2.85467E-02-8.56986E-01-6.91981E-05
 -1      4086 4.49933E-02-5.51168E-01-2.23839E-04
 -1      4087 2.77970E-02-5.50846E-01-2.23952E-04
 -1      4088-5.05440E-02-5.52054E-01-2.22706E-04
 -1      4089-3.33286E-02-5.51966E-01-2.22705E-04
 -1      4090-4.49458E-02-4.49015E-01-3.97812E-04
 -1      4091-5.30513E-02-7.43550E-01-1.77164E-04
 -1      4092 4.48331E-02-7.44260E-01-1.77361E-04
 -1      4093-4.24343E-02-3.85823E-01-4.50353E-04
 -1      4094-5.43518E-02-8.18022E-01-1.24887E-04
 -1      4095 5.01512E-02-8.46554E-01-1.28973E-04
 -1      4096 4.50436E-02-8.18753E-01-1.25380E-04
 -1      4097-1.57891E-02-4.20757E-02-8.53251E-04
 -1      4098-3.71373E-02-2.48401E-01 4.08236E-04
 -1      4099-2.42858E-02-2.48099E-01 4.08448E-04
 -1      4100-3.66522E-02-2.40739E-01 6.40330E-04
 -1      4101 2.41594E-02-1.09460E-01-1.94441E-04
 -1      4102 1.37690E-02-1.12048E-01-2.38417E-04
 -1      4103-3.61742E-02-2.33446E-01 4.20290E-04
 -1      4104-2.37141E-02-2.33132E-01 4.20614E-04
 -1      4105 1.56211E-02-4.21519E-02-8.51419E-04
 -1      4106-1.13429E-02-2.13541E-02-9.07562E-04
 -1      4107 1.92388E-02-6.58867E-02 2.12337E-04
 -1      4108 1.06875E-02-6.31501E-02 2.63579E-04
 -1      4109 9.24148E-03-5.06848E-01 9.30899E-05
 -1      4110 2.28867E-02-5.01746E-01 1.15903E-04
 -1      4111 4.44415E-02-6.69492E-01-6.09384E-05
 -1      4112 2.37342E-02-6.63472E-01-7.67947E-05
 -1      4113 9.01558E-03-6.69024E-01-6.14799E-05
 -1      4114-5.15876E-02-6.68810E-01-6.10674E-05
 -1      4115-3.07953E-02-6.63086E-01-7.66739E-05
 -1      4116-1.61553E-02-6.68845E-01-6.10153E-05
 -1      4117-4.74159E-02-5.16967E-01 9.04282E-05
 -1      4118-2.81776E-02-5.22337E-01 1.10393E-04
 -1      4119 4.21658E-02-5.07394E-01 9.29026E-05
 -1      4120 1.91718E-02-5.16886E-01 6.15876E-06
 -1      4121-1.42878E-02-5.16865E-01 9.06049E-05
 -1      4122-2.84975E-02-1.49291E-01 1.80571E-04
 -1      4123-1.62295E-02-1.45659E-01 2.24984E-04
 -1      4124 2.76071E-02-1.49534E-01 1.80375E-04
 -1      4125 1.53495E-02-1.45788E-01 2.24398E-04
 -1      4126 1.15528E-02-5.56395E-01 3.10468E-05
 -1      4127 9.24152E-03-5.36475E-01 2.24922E-05
 -1      4128-2.47500E-02-1.09238E-01-1.95815E-04
 -1      4129-1.43786E-02-1.11867E-01-2.40017E-04
 -1      4130 6.11593E-03-1.08704E-01-1.93879E-04
 -1      4131-7.79023E-03-1.48737E-01 1.81003E-04
 -1      4132 4.34995E-02-5.86975E-01 7.69635E-05
 -1      4133 2.37167E-02-5.81427E-01 9.86782E-05
 -1      4134 9.19450E-03-5.86466E-01 7.69452E-05
 -1      4135 8.73814E-03-3.24673E-01 1.32716E-04
 -1      4136 2.04304E-02-3.20365E-01 1.65273E-04
 -1      4137-1.13929E-02-3.24559E-01 1.33023E-04
 -1      4138-2.30441E-02-3.20114E-01 1.65220E-04
 -1      4139 7.90364E-03-1.04379E-02 9.37337E-04
 -1      4140 3.70776E-02-3.25306E-01 1.32794E-04
 -1      4141-3.97430E-02-3.24869E-01 1.32639E-04
 -1      4142-1.06748E-02-1.54137E-02 1.12846E-03
 -1      4143-7.88174E-03-1.03978E-02 9.41351E-04
 -1      4144 4.96252E-03-6.50905E-02 2.12764E-04
 -1      4145 3.07808E-02-1.95118E-01-6.34539E-04
 -1      4146-5.20504E-02-6.89717E-01-2.17014E-04
 -1      4147 4.46080E-02-6.90407E-01-2.17303E-04
 -1      4148 4.37643E-02-6.07224E-01 2.78143E-04
 -1      4149 4.75155E-02-5.51848E-01 3.86695E-04
 -1      4150 4.25291E-02-5.26823E-01 3.39033E-04
 -1      4151 4.27098E-02-5.36801E-01 2.06794E-04
 -1      4152 2.56459E-02-5.36484E-01 2.06906E-04
 -1      4153-5.00345E-02-6.06574E-01 2.77359E-04
 -1      4154-5.02839E-02-4.73084E-01 4.59009E-04
 -1      4155-4.67638E-02-4.97331E-01 3.60591E-04
 -1      4156-2.07006E-02-7.41621E-02 7.95235E-04
 -1      4157 3.76934E-02-3.42016E-01 4.90872E-04
 -1      4158 2.31071E-02-9.86168E-02-7.56157E-04
 -1      4159-2.95231E-02-1.61462E-01 6.73257E-04
 -1      4160 8.18543E-03-2.60054E-01-1.46972E-04
 -1      4161 1.90390E-02-2.56139E-01-1.85819E-04
 -1      4162-4.55909E-02-3.63312E-01 5.70370E-04
 -1      4163-4.05482E-02-3.41563E-01 4.90532E-04
 -1      4164-3.83216E-02-2.33785E-01 7.27547E-04
 -1      4165 6.99372E-03-1.48760E-01 1.81920E-04
 -1      4166-3.20700E-02-1.94816E-01-6.34673E-04
 -1      4167 3.43440E-02-2.60719E-01-1.50451E-04
 -1      4168-3.63126E-02-2.60395E-01-1.47205E-04
 -1      4169-2.09481E-02-2.56024E-01-1.85975E-04
 -1      4170 1.12652E-02-2.13857E-02-9.05231E-04
 -1      4171-6.60092E-03-1.08506E-01-1.93372E-04
 -1      4172-1.01144E-02-2.60217E-01-1.47535E-04
 -1      4173 2.85317E-02-1.61722E-01 6.72805E-04
 -1      4174 2.03653E-02-7.42936E-02 7.94300E-04
 -1      4175-3.71965E-02-2.75794E-01-5.52254E-04
 -1      4176-2.36162E-02-9.84116E-02-7.58490E-04
 -1      4177 3.50670E-02-2.76134E-01-5.51702E-04
 -1      4178-5.18229E-02-6.79260E-01-1.40164E-04
 -1      4179-3.36973E-02-6.79253E-01-1.40346E-04
 -1      4180 2.64071E-02-6.79680E-01-1.40695E-04
 -1      4181 4.23518E-02-5.17105E-01 2.16165E-04
 -1      4182 4.45288E-02-6.79946E-01-1.40220E-04
 -1      4183 2.54718E-02-5.16782E-01 2.16480E-04
 -1      4184 2.60685E-02-5.96800E-01 1.78288E-04
 -1      4185 4.36365E-02-5.97096E-01 1.78136E-04
 -1      4186-4.70937E-02-5.07149E-01 2.20446E-04
 -1      4187-3.02988E-02-5.07044E-01 2.20439E-04
 -1      4188 3.73895E-02-3.33656E-01 3.10971E-04
 -1      4189 2.28038E-02-3.33268E-01 3.11164E-04
 -1      4190 2.36375E-02-1.04036E-01-4.67509E-04
 -1      4191 1.46349E-02-1.03547E-01-4.67052E-04
 -1      4192-1.82649E-02-1.55001E-01 4.25142E-04
 -1      4193-2.90145E-02-1.55370E-01 4.24752E-04
 -1      4194-4.01494E-02-3.33211E-01 3.10758E-04
 -1      4195 1.98064E-02-7.00833E-02 5.00250E-04
 -1      4196 2.80736E-02-1.55622E-01 4.24381E-04
 -1      4197-2.55573E-02-3.32991E-01 3.11095E-04
 -1      4198-2.34060E-02-2.67861E-01-3.51321E-04
 -1      4199 4.75155E-02-5.51848E-01-3.86398E-04
 -1      4200-5.30262E-02-5.51169E-01-3.86022E-04
 -1      4201 4.05999E-02-5.22243E-01-7.28126E-05
 -1      4202 3.47092E-02-2.68398E-01-3.52121E-04
 -1      4203-2.41873E-02-1.03822E-01-4.69376E-04
 -1      4204 1.74949E-02-1.55123E-01 4.28230E-04
 -1      4205-1.52350E-02-1.03398E-01-4.71225E-04
 -1      4206 1.24270E-02-6.95349E-02 5.05763E-04
 -1      4207 2.14028E-02-2.67958E-01-3.51309E-04
 -1      4208-3.67561E-02-2.68035E-01-3.51426E-04
 -1      4209-3.07655E-04-1.06250E-01 7.27376E-08
 -1      4210-6.87172E-03-1.14376E-01-5.16370E-05
 -1      4211-1.44177E-04-6.76842E-02-1.70828E-07
 -1      4212-3.61035E-03-6.74499E-01 1.74838E-07
 -1      4213 9.04527E-03-6.58676E-01-1.59303E-05
 -1      4214-1.60399E-02-6.58498E-01-1.59058E-05
 -1      4215-2.49108E-03-5.12012E-01-4.62581E-07
 -1      4216-1.26300E-02-5.31587E-01-1.71424E-05
 -1      4217 7.38655E-03-5.31722E-01-1.69927E-05
 -1      4218-1.44239E-02-5.26847E-01 2.34304E-05
 -1      4219 9.23764E-03-4.97300E-01 2.42765E-05
 -1      4220-3.03077E-03-5.91806E-01 1.54241E-07
 -1      4221 9.21002E-03-5.76481E-01 2.04703E-05
 -1      4222 4.79208E-03-6.12680E-02 5.50657E-05
 -1      4223 6.23079E-03-1.14469E-01-5.08247E-05
 -1      4224-1.35313E-03-3.29229E-01-2.95855E-07
 -1      4225 8.69292E-03-3.16557E-01 3.45438E-05
 -1      4226-1.12481E-02-3.16445E-01 3.46280E-05
 -1      4227-5.64924E-02-6.74124E-01-2.75967E-04
 -1      4228 4.67160E-02-5.12338E-01 4.23463E-04
 -1      4229 4.92719E-02-6.74876E-01-2.76323E-04
 -1      4230 4.82076E-02-5.92160E-01 3.49794E-04
 -1      4231-5.16976E-02-5.11687E-01 4.22156E-04
 -1      4232 4.33206E-02-3.80982E-01-5.56407E-04
 -1      4233 2.62940E-02-1.06346E-01-9.00549E-04
 -1      4234 4.10808E-02-3.29472E-01 6.07017E-04
 -1      4235-3.15794E-02-1.52169E-01 8.27367E-04
 -1      4236-4.48098E-04-1.52300E-01 7.82622E-08
 -1      4237-7.64642E-03-1.42971E-01 4.76232E-05
 -1      4238-1.02602E-03-2.64293E-01 3.32933E-08
 -1      4239-8.59112E-03-2.48855E-01 2.80394E-05
 -1      4240-1.01089E-02-2.52550E-01-3.97779E-05
 -1      4241 6.79845E-03-1.43038E-01 4.70936E-05
 -1      4242-4.37909E-02-3.28988E-01 6.06655E-04
 -1      4243 3.08202E-02-1.52396E-01 8.31417E-04
 -1      4244 2.16255E-02-6.77170E-02 9.80317E-04
 -1      4245 8.22818E-03-2.52600E-01-3.90317E-05
 -1      4246-7.34346E-04-2.05122E-01 3.49793E-07
 -1      4247-4.01334E-02-2.64123E-01-6.84583E-04
 -1      4248 3.81757E-02-2.64473E-01-6.86312E-04
 -1      4249-2.69073E-02-1.06155E-01-9.03363E-04
 -1      4250-5.11515E-02-5.72104E-01-2.12490E-04
 -1      4251-5.08416E-02-5.61955E-01-3.39837E-04
 -1      4252-3.37659E-02-5.72027E-01-2.12075E-04
 -1      4253 2.76134E-02-5.30992E-01-2.34557E-04
 -1      4254 4.48107E-02-5.41113E-01-3.57478E-04
 -1      4255 4.46330E-02-5.31321E-01-2.34267E-04
 -1      4256-3.51956E-02-2.18883E-01 4.30297E-04
 -1      4257-3.56804E-02-2.25962E-01 6.56315E-04
 -1      4258-2.30386E-02-2.18556E-01 4.31114E-04
 -1      4259 4.73606E-02-8.88885E-01-2.45749E-05
 -1      4260 2.31701E-02-8.89556E-01-2.85704E-05
 -1      4261 4.12433E-02-4.50586E-01-4.04500E-04
 -1      4262-6.71153E-02-9.71535E-01-2.20886E-05
 -1      4263-6.09951E-02-9.53381E-01-3.78441E-05
 -1      4264-5.68776E-02-9.62017E-01-1.64710E-05
 -1      4265-4.35987E-02-9.62213E-01-1.72989E-05
 -1      4266-3.83227E-02-9.84186E-01-7.37743E-06
 -1      4267-4.33473E-02-9.76171E-01-7.18545E-06
 -1      4268 3.15952E-03-1.49868E-03 1.08099E-03
 -1      4269 2.12152E-03-7.91711E-04 9.44458E-04
 -1      4270 1.65480E-03-8.25064E-04 5.79766E-04
 -1      4271 2.20170E-03-1.20527E-03 5.24562E-04
 -1      4272-9.70246E-04-2.25079E-02 5.62948E-06
 -1      4273-8.16265E-03-7.48715E-01 7.62757E-07
 -1      4274-8.69054E-03-8.13424E-01 1.06017E-06
 -1      4275-1.31916E-03-4.05384E-02 5.24337E-06
 -1      4276 5.57323E-02-9.54367E-01 3.85140E-05
 -1      4277 5.56316E-02-9.72339E-01 2.33303E-05
 -1      4278 4.60034E-02-9.63505E-01 1.74513E-05
 -1      4279 3.28276E-02-9.63393E-01 1.81782E-05
 -1      4280 4.73760E-02-8.78846E-01-5.87130E-05
 -1      4281 4.48182E-02-9.00786E-01-4.95238E-05
 -1      4282-5.06043E-03-3.90089E-01 2.95863E-06
 -1      4283-6.68603E-02-9.85493E-01-7.90086E-06
 -1      4284-6.68446E-02-9.83328E-01-6.37335E-06
 -1      4285-5.55258E-03-4.45031E-01 2.34006E-06
 -1      4286 7.99436E-05-8.37363E-03-1.16539E-08
 -1      4287-6.71161E-02-9.71648E-01 2.16030E-05
 -1      4288-6.09960E-02-9.53493E-01 3.74191E-05
 -1      4289-5.76694E-02-9.62734E-01 1.62966E-05
 -1      4290-4.43869E-02-9.62818E-01 1.74092E-05
 -1      4291-2.12762E-03-7.77305E-04 9.45887E-04
 -1      4292-3.17878E-03-1.50274E-03 1.08705E-03
 -1      4293-2.22803E-03-1.20781E-03 5.35435E-04
 -1      4294-1.65550E-03-8.28175E-04 5.77500E-04
 -1      4295-5.35728E-02-9.85693E-01-8.18718E-06
 -1      4296 2.13362E-03-7.89170E-04-9.51739E-04
 -1      4297 3.16808E-03-1.50131E-03-1.08627E-03
 -1      4298 2.20649E-03-1.18731E-03-5.40493E-04
 -1      4299 1.66657E-03-8.07082E-04-5.92067E-04
 -1      4300 4.96691E-02-9.54425E-01-3.77262E-05
 -1      4301 5.56292E-02-9.72452E-01-2.20432E-05
 -1      4302 3.37210E-02-9.63898E-01-1.78305E-05
 -1      4303 4.68968E-02-9.64123E-01-1.65184E-05
 -1      4304 2.77780E-02-9.45875E-01-2.41286E-05
 -1      4305-1.07693E-03-5.35919E-04 2.71109E-04
 -1      4306-9.41299E-04-3.59339E-04 2.72771E-04
 -1      4307 2.70822E-02-9.84008E-01 8.25522E-06
 -1      4308 3.22622E-02-9.77456E-01 7.61962E-06
 -1      4309-2.11729E-03-7.73838E-04-9.41395E-04
 -1      4310-3.16976E-03-1.49791E-03-1.08285E-03
 -1      4311-2.23658E-03-1.21958E-03-5.27575E-04
 -1      4312-1.66574E-03-8.43154E-04-5.77006E-04
 -1      4313 2.81255E-02-5.56405E-01 2.23839E-04
 -1      4314 4.53713E-02-5.56727E-01 2.23959E-04
 -1      4315-9.22680E-04-3.91821E-04 3.82979E-04
 -1      4316-1.02653E-03-5.13425E-04-2.57196E-04
 -1      4317-9.47321E-04-3.64775E-04-2.80148E-04
 -1      4318 5.50602E-02-9.86403E-01 8.57075E-06
 -1      4319 5.50774E-02-9.84238E-01 6.99348E-06
 -1      4320 4.18776E-02-9.86293E-01 8.62204E-06
 -1      4321 5.31429E-04 4.47547E-07 3.18714E-04
 -1      4322-5.47015E-04 1.59489E-05 3.24293E-04
 -1      4323-7.31441E-04-1.07008E-04 4.17990E-04
 -1      4324-6.57678E-02-9.85613E-01 5.61505E-06
 -1      4325 7.23612E-04-1.08793E-04 4.16569E-04
 -1      4326 9.14855E-04-3.56679E-04 2.68304E-04
 -1      4327-9.14212E-04-3.88824E-04-3.78295E-04
 -1      4328-5.47607E-04 1.63016E-05-3.24683E-04
 -1      4329-7.32059E-04-1.06989E-04-4.17924E-04
 -1      4330-5.32011E-02-6.47505E-01-2.70161E-04
 -1      4331-3.54643E-02-6.57969E-01-1.67428E-04
 -1      4332-5.34670E-02-6.57996E-01-1.67537E-04
 -1      4333 2.84763E-02-6.58421E-01-1.67832E-04
 -1      4334 4.64746E-02-6.58703E-01-1.67647E-04
 -1      4335 4.63580E-02-6.48206E-01-2.70500E-04
 -1      4336-3.27587E-02-5.26915E-01 2.35802E-04
 -1      4337-4.97495E-02-5.27019E-01 2.35770E-04
 -1      4338-5.00592E-02-5.36784E-01 3.59776E-04
 -1      4339 4.37251E-02-4.87580E-01 4.03207E-04
 -1      4340 4.39437E-02-4.97352E-01 2.52574E-04
 -1      4341 2.72538E-02-4.97010E-01 2.52650E-04
 -1      4342 1.63879E-02-1.14437E-01-5.12022E-04
 -1      4343 2.63278E-02-1.20251E-01-7.91672E-04
 -1      4344 2.58034E-02-1.14945E-01-5.12385E-04
 -1      4345 3.80925E-02-3.08202E-01 5.68910E-04
 -1      4346 3.84422E-02-3.16639E-01 3.58753E-04
 -1      4347 2.41310E-02-3.16228E-01 3.58632E-04
 -1      4348-2.86239E-02-1.36732E-01 7.68230E-04
 -1      4349-2.91862E-02-1.42927E-01 4.86377E-04
 -1      4350-1.88119E-02-1.42522E-01 4.86629E-04
 -1      4351-2.66956E-02-3.15936E-01 3.58980E-04
 -1      4352-4.05677E-02-3.07758E-01 5.68915E-04
 -1      4353-4.10141E-02-3.16186E-01 3.58766E-04
 -1      4354-1.70612E-02-1.14280E-01-5.15217E-04
 -1      4355-2.69877E-02-1.20014E-01-7.92542E-04
 -1      4356-2.64247E-02-1.14716E-01-5.13044E-04
 -1      4357-6.68612E-02-9.85606E-01 7.28653E-06
 -1      4358-4.41362E-02-9.76777E-01 7.40933E-06
 -1      4359 1.81090E-02-1.42627E-01 4.89666E-04
 -1      4360 2.78082E-02-1.36949E-01 7.67759E-04
 -1      4361 2.83176E-02-1.43153E-01 4.86286E-04
 -1      4362-2.43370E-02-2.52164E-01-4.03240E-04
 -1      4363-3.73801E-02-2.52372E-01-4.03455E-04
 -1      4364-3.68998E-02-2.44694E-01-6.35460E-04
 -1      4365-5.58389E-02-8.21652E-01 1.29565E-04
 -1      4366 1.94685E-02-6.14400E-02 5.71439E-04
 -1      4367 1.25234E-02-6.08599E-02 5.76421E-04
 -1      4368 1.88537E-02-5.71075E-02 9.00755E-04
 -1      4369-4.63030E-02-4.52154E-01 4.18073E-04
 -1      4370-5.43910E-02-7.39956E-01 1.89957E-04
 -1      4371-4.53660E-02-3.84173E-01 5.13392E-04
 -1      4372-1.64124E-02-4.32180E-02 8.97854E-04
 -1      4373 1.07694E-03-5.41627E-04-2.71422E-04
 -1      4374 9.22962E-04-3.98344E-04-3.82163E-04
 -1      4375 9.21473E-04-3.48454E-04-2.73998E-04
 -1      4376 2.71947E-02-9.84010E-01-7.80440E-06
 -1      4377 4.19902E-02-9.86295E-01-8.14197E-06
 -1      4378 3.32670E-02-9.77963E-01-7.34783E-06
 -1      4379 5.27441E-04 1.30548E-05-3.23713E-04
 -1      4380 3.51151E-02-2.45016E-01-6.35393E-04
 -1      4381 2.25158E-02-2.52268E-01-4.03564E-04
 -1      4382 3.55162E-02-2.52733E-01-4.04662E-04
 -1      4383 8.98490E-04-4.33054E-04 2.51174E-04
 -1      4384 9.01233E-04-3.67817E-04 3.75507E-04
 -1      4385-1.14160E-02-2.05247E-02 9.60243E-04
 -1      4386-4.04395E-02-9.85785E-01 7.05384E-06
 -1      4387 7.24941E-04-1.15255E-04-4.13979E-04
 -1      4388 4.57029E-02-5.76828E-01 2.13117E-04
 -1      4389 2.82895E-02-5.76514E-01 2.13007E-04
 -1      4390 4.55345E-02-5.66653E-01 3.40542E-04
 -1      4391-5.35733E-02-9.85694E-01 8.39468E-06
 -1      4392 2.06137E-03-8.86729E-01-1.45393E-06
 -1      4393 5.51744E-02-9.86517E-01-5.40427E-06
 -1      4394 5.51720E-02-9.86516E-01-7.21503E-06
 -1      4395 7.72200E-03-8.89651E-01-2.15138E-05
 -1      4396 4.97590E-02-9.36247E-01-5.02802E-05
 -1      4397 2.55490E-02-9.23843E-01-3.49596E-05
 -1      4398 2.85756E-02-8.78970E-01-5.85768E-05
 -1      4399 2.59816E-02-9.00921E-01-4.64755E-05
 -1      4400 4.73837E-02-8.68094E-01-9.97148E-05
 -1      4401 4.47751E-02-9.11978E-01-6.57530E-05
 -1      4402 5.02204E-02-8.90195E-01-9.22647E-05
 -1      4403 4.38882E-02-8.37523E-01 2.69659E-05
 -1      4404-6.00476E-03-1.00000E+00 1.60975E-07
 -1      4405 0.00000E+00 0.00000E+00 0.00000E+00
 -3
    1PSTEP                         2           1           1          
  100CL  101 5.00000E-01        4405                     0    1           1
 -4  STRESS      6    1
 -5  SXX         1    4    1    1
 -5  SYY         1    4    2    2
 -5  SZZ         1    4    3    3
 -5  SXY         1    4    1    2
 -5  SYZ         1    4    2    3
 -5  SZX         1    4    3    1
 -1         1-3.78482E+02-1.17171E+02-1.22612E+02-3.36156E+01 1.41699E+01 7.65409E+01
 -1         2-3.78500E+02-1.17166E+02-1.22726E+02-3.36309E+01-1.41843E+01-7.66328E+01
 -1         3 3.80124E+02 1.17340E+02 1.22781E+02-3.45879E+01 1.39400E+01-7.66184E+01
 -1         4 3.80194E+02 1.17432E+02 1.22856E+02-3.37036E+01-1.34898E+01 7.65888E+01
 -1         5 3.15016E+00 6.80891E-01 1.20192E+00-3.04385E+00 1.05329E-01-3.78535E-01
 -1         6 3.19327E+00 7.00916E-01 1.20087E+00-3.04654E+00-1.13983E-01 3.92854E-01
 -1         7-3.13898E+00-4.51012E-01-1.14238E+00-2.94763E+00 9.51461E-02 4.24425E-01
 -1         8-3.30174E+00-4.13548E-01-1.10575E+00-2.95456E+00-1.06650E-01-4.43871E-01
 -1         9-3.47841E+02-1.46057E+02-1.46311E+02-7.44413E+01 2.82770E+00-2.88314E+01
 -1        10-3.55371E+02-1.49141E+02-1.49481E+02-7.41738E+01-2.20083E+00-2.22190E+00
 -1        11-3.46635E+02-1.45478E+02-1.45975E+02-7.40708E+01-2.92238E+00 2.93942E+01
 -1        12-3.60290E+02-1.54716E+02-1.54731E+02-6.83437E+01 7.95388E-02-5.07590E+01
 -1        13-3.49349E+02-1.49993E+02-1.50073E+02-7.11670E+01 2.44624E-02-1.52204E+01
 -1        14-3.57843E+02-1.53639E+02-1.53731E+02-7.50285E+01-2.69978E-02 1.50797E+01
 -1        15-3.60109E+02-1.54639E+02-1.54653E+02-6.80496E+01-7.95725E-02 5.10826E+01
 -1        16-1.88784E+02-8.01029E+01-7.66312E+01 3.18934E+01-4.18164E+00 5.07758E+01
 -1        17 3.03014E+00 2.33033E-01 4.37951E+00 4.20883E+01-2.50058E+00-3.11566E+00
 -1        18 1.99652E+02 8.25653E+01 8.82513E+01 2.77417E+01-1.21373E+00-5.53101E+01
 -1        19-3.15190E+02-1.35389E+02-1.35258E+02 9.17979E+00 8.15164E-03 7.92908E+01
 -1        20-9.19579E+01-3.94236E+01-3.94315E+01 3.65935E+01 1.82604E-02 2.49383E+01
 -1        21 1.04504E+02 4.47644E+01 4.47607E+01 3.58581E+01-2.07648E-02-2.89323E+01
 -1        22 3.11265E+02 1.33101E+02 1.33225E+02 6.59325E+00-5.40305E-03-7.74964E+01
 -1        23 3.48583E+02 1.46517E+02 1.46061E+02-7.32335E+01-1.69907E+00 3.25512E+01
 -1        24 3.54541E+02 1.48614E+02 1.48482E+02-7.53518E+01-2.01485E+00 2.10916E+00
 -1        25 3.47379E+02 1.45069E+02 1.45708E+02-7.46771E+01-2.94707E+00-2.93920E+01
 -1        26 3.54831E+02 1.51768E+02 1.51763E+02-6.40736E+01-7.28898E-02 5.09947E+01
 -1        27 3.59374E+02 1.53739E+02 1.53648E+02-7.53265E+01-2.47175E-02 1.54346E+01
 -1        28 3.57021E+02 1.52739E+02 1.52646E+02-7.55903E+01 2.69381E-02-1.52288E+01
 -1        29 3.61297E+02 1.54538E+02 1.54522E+02-6.89992E+01 7.97698E-02-5.12113E+01
 -1        30-1.89149E+02-8.02253E+01-7.68045E+01 3.19391E+01 4.15870E+00-5.08582E+01
 -1        31 2.97234E+00 2.26126E-01 4.45626E+00 4.22165E+01 2.44311E+00 3.01519E+00
 -1        32 1.97993E+02 8.18830E+01 8.74129E+01 2.81868E+01 1.67068E+00 5.57704E+01
 -1        33-3.15251E+02-1.35415E+02-1.35284E+02 9.25034E+00-8.24964E-03-7.93061E+01
 -1        34-9.22842E+01-3.95634E+01-3.95716E+01 3.67179E+01-1.84252E-02-2.49963E+01
 -1        35 1.02840E+02 4.40525E+01 4.40485E+01 3.60189E+01 2.06074E-02 2.86312E+01
 -1        36 3.10025E+02 1.32572E+02 1.32697E+02 6.93551E+00 6.14170E-03 7.77847E+01
 -1        37 8.62453E+00 3.76001E+00 3.62812E+00-3.90936E+00-9.22004E-02 6.80818E-01
 -1        38 8.18478E+00 3.57371E+00 3.48635E+00-3.81356E+00-6.91242E-02 1.10586E-01
 -1        39 8.95154E+00 3.86687E+00 3.77009E+00-3.95822E+00-7.98357E-02-4.78516E-01
 -1        40 9.08420E+00 4.07130E+00 3.94644E+00-4.20769E+00-9.58790E-03 6.38024E-01
 -1        41 8.45138E+00 3.78915E+00 3.67197E+00-3.94877E+00-3.91261E-03 2.60461E-01
 -1        42 8.72986E+00 3.90948E+00 3.79160E+00-3.97336E+00 4.41472E-03-2.93764E-01
 -1        43 8.34234E+00 3.74857E+00 3.62708E+00-4.09230E+00 1.01688E-02-6.76758E-01
 -1        44-5.15852E+00-1.56418E+00-1.99801E+00-6.06936E+00 1.03472E-01-1.05636E+00
 -1        45-2.64313E-01 2.43835E-01-7.80140E-02-7.47104E+00-4.09837E-02-6.61688E-02
 -1        46 4.73605E+00 1.92487E+00 1.98772E+00-6.35502E+00-7.47822E-02 1.00430E+00
 -1        47-3.95044E+00-1.48807E+00-1.63173E+00-4.77737E+00 1.61589E-02-1.07410E+00
 -1        48-3.03386E+00-1.00248E+00-1.21128E+00-6.94101E+00 9.52200E-03-6.30726E-01
 -1        49 2.24688E+00 1.26239E+00 1.05242E+00-7.00274E+00-8.35551E-03 5.53522E-01
 -1        50 4.04731E+00 1.94053E+00 1.79618E+00-4.83417E+00-1.64764E-02 1.09511E+00
 -1        51-8.58441E+00-3.42991E+00-3.51665E+00-3.69899E+00-5.96360E-02-7.08473E-01
 -1        52-8.19978E+00-3.26525E+00-3.38397E+00-3.64279E+00-6.40059E-02-1.21991E-01
 -1        53-9.04020E+00-3.55177E+00-3.71841E+00-3.70800E+00-9.87943E-02 4.93105E-01
 -1        54-9.24078E+00-3.78747E+00-3.90867E+00-4.00729E+00 1.03331E-02-6.87620E-01
 -1        55-8.34822E+00-3.41559E+00-3.52931E+00-3.76177E+00 4.10191E-03-2.73160E-01
 -1        56-8.90973E+00-3.65546E+00-3.76974E+00-3.77804E+00-4.28742E-03 2.85228E-01
 -1        57-8.37690E+00-3.42230E+00-3.53994E+00-3.89222E+00-1.08310E-02 7.20845E-01
 -1        58-4.92235E+00-1.49123E+00-1.92079E+00-6.23371E+00 3.37294E-02 9.83132E-01
 -1        59-2.93668E-01 2.43132E-01-8.64745E-02-7.47135E+00 3.48485E-02 7.95007E-02
 -1        60 4.79274E+00 1.95651E+00 2.00921E+00-6.35309E+00 7.78575E-02-1.01326E+00
 -1        61-4.08664E+00-1.54724E+00-1.69035E+00-4.75823E+00-1.57598E-02 1.04756E+00
 -1        62-2.59352E+00-8.15690E-01-1.02313E+00-6.89795E+00-8.68577E-03 5.75411E-01
 -1        63 2.29013E+00 1.28112E+00 1.07100E+00-7.00733E+00 8.18336E-03-5.42122E-01
 -1        64 3.93591E+00 1.89280E+00 1.74844E+00-4.83410E+00 1.64891E-02-1.09595E+00
 -1        65-2.72143E+02 7.93043E+00 8.13931E+00 1.03536E+01 1.65776E+00 2.33103E+00
 -1        66-2.88373E+02 3.26741E-01 8.91372E-01 7.91973E-01 4.29909E-03 5.64111E-01
 -1        67-2.84706E+02-2.78437E-02 1.41444E-01 1.95879E-01-3.77357E-03 5.30177E-01
 -1        68-2.77052E+02 1.99454E-02-6.72119E-02-1.19118E-02 3.54103E-02 4.44820E-01
 -1        69-2.68116E+02-1.28209E-02-1.42279E-03 4.75024E-01 3.53556E-02 3.77845E-01
 -1        70-2.58919E+02-2.27078E-02 6.27533E-02 2.84742E-01-6.40618E-02 3.99453E-01
 -1        71-2.49671E+02 4.77615E-02 8.72886E-03 7.76430E-01-5.21888E-02 4.34622E-01
 -1        72-2.40592E+02 4.89168E-03 6.46541E-02 8.81143E-01-2.02121E-02 4.14574E-01
 -1        73-2.31225E+02-1.69983E-02-5.39899E-02 6.29402E-01 6.62963E-02 4.06626E-01
 -1        74-2.21831E+02-1.24007E-02-4.42794E-02 7.99977E-01 8.33256E-05 3.45102E-01
 -1        75-2.12842E+02 3.65656E-02 4.66020E-02 1.13384E+00-1.91029E-03 3.84237E-01
 -1        76-2.03563E+02 2.38047E-02 8.11503E-02 1.18602E+00-2.00839E-02 4.35966E-01
 -1        77-1.94281E+02-1.07770E-03-5.67568E-02 8.42835E-01 5.69330E-02 4.15924E-01
 -1        78-1.84915E+02-4.74332E-02-4.96435E-02 1.21355E+00-8.07634E-03 3.69304E-01
 -1        79-1.75939E+02 3.06200E-02 4.37538E-02 9.64512E-01 3.60704E-03 3.71649E-01
 -1        80-1.66485E+02-3.22078E-03 3.38424E-02 8.29435E-01-6.83308E-02 4.13349E-01
 -1        81-1.57272E+02 4.37230E-02 5.48671E-03 1.15843E+00-5.45579E-02 4.33433E-01
 -1        82-1.48164E+02-3.12327E-03 5.87514E-02 1.10965E+00-1.99004E-02 4.17487E-01
 -1        83-1.38755E+02 1.24688E-02-6.18117E-02 6.89612E-01 5.50904E-02 4.01621E-01
 -1        84-1.29521E+02-3.75800E-02-3.11757E-02 9.95487E-01 4.10972E-02 3.81572E-01
 -1        85-1.20404E+02 1.78785E-02 8.73181E-02 5.66756E-01-6.58481E-02 3.96578E-01
 -1        86-1.10958E+02-2.92590E-02-7.19055E-02 8.50725E-01 4.59264E-03 4.35727E-01
 -1        87-1.01684E+02 5.77752E-04-2.99026E-02 5.31311E-01-6.07700E-03 3.89416E-01
 -1        88-9.26465E+01 2.10206E-02 1.58102E-02 4.38482E-01-9.55399E-03 3.83068E-01
 -1        89-8.32294E+01 2.20319E-02 1.45115E-02 5.46546E-01-4.99908E-02 4.11006E-01
 -1        90-7.41196E+01 2.84345E-03 2.39367E-02 1.76214E-01-9.55447E-03 3.68965E-01
 -1        91-6.48281E+01 9.32371E-03 4.31043E-02 1.03757E-02-2.05703E-02 4.00277E-01
 -1        92-5.54546E+01 2.25405E-02-5.56298E-02-9.52520E-02 2.25245E-03 3.93593E-01
 -1        93-4.61973E+01 1.72077E-02 1.12044E-02 5.05020E-02-5.23647E-02 3.90758E-01
 -1        94-3.70029E+01 5.68873E-03 5.79378E-02-4.39474E-01-4.93793E-02 3.97536E-01
 -1        95-2.77167E+01 6.66252E-02 1.92759E-02-1.96260E-01-5.86878E-02 4.39148E-01
 -1        96-1.86174E+01 4.14175E-02 5.97643E-02-3.14859E-01-2.29680E-02 4.01398E-01
 -1        97-8.84106E+00-1.10629E-01-1.32644E-01-6.47582E-01 9.98771E-02 6.21032E-01
 -1        98-3.07751E+02-7.90486E+00-8.31112E+00 3.55115E-01-1.66892E+00-2.30249E+01
 -1        99-2.86722E+02-5.28410E-03-1.63129E-01 2.06288E+00-1.70735E+00-1.19614E+00
 -1       100-2.87151E+02 1.52613E-01 5.58011E-02 4.23449E-01 1.27295E-01 6.42428E-01
 -1       101-2.80905E+02 5.59800E-02-1.43150E-03 3.94862E-02 9.55877E-03 5.23139E-01
 -1       102-2.72850E+02-4.99107E-02-7.49794E-02 2.06112E-01 9.96474E-02 5.05947E-01
 -1       103-2.63200E+02 1.11930E-01 1.52347E-01 3.42113E-01-4.40675E-02 4.43712E-01
 -1       104-2.54472E+02-1.21299E-02-5.70838E-03 4.71406E-01 2.25362E-02 4.51355E-01
 -1       105-2.45089E+02 1.77082E-02 2.90340E-02 7.39808E-01-6.58372E-02 4.86725E-01
 -1       106-2.35664E+02 9.94059E-02 6.29207E-02 7.15587E-01-1.91372E-02 4.41405E-01
 -1       107-2.26690E+02-3.98558E-02-6.64527E-02 6.90382E-01 3.08616E-02 4.60414E-01
 -1       108-2.17458E+02-4.08434E-02-3.83552E-02 9.14295E-01 3.93569E-02 4.56176E-01
 -1       109-2.08039E+02 1.37829E-01 1.40852E-01 1.05321E+00-3.62997E-03 4.25416E-01
 -1       110-1.98690E+02 1.09386E-01 6.40727E-02 9.62544E-01-1.60458E-02 4.42113E-01
 -1       111-1.89941E+02-1.94424E-01-1.95306E-01 9.93549E-01 2.68420E-02 4.54106E-01
 -1       112-1.80294E+02 1.62882E-02 3.33576E-02 1.03627E+00-3.55423E-02 4.56029E-01
 -1       113-1.71029E+02 3.85590E-02 7.12046E-02 8.61903E-01-4.31666E-02 4.58113E-01
 -1       114-1.62058E+02-1.39018E-02-1.63578E-02 9.40399E-01 1.58156E-02 4.61517E-01
 -1       115-1.52679E+02 1.43880E-02 2.54089E-02 1.04334E+00-7.02111E-02 4.87541E-01
 -1       116-1.43217E+02 1.03233E-01 6.23256E-02 8.59632E-01-2.87016E-02 4.43963E-01
 -1       117-1.34407E+02-6.56591E-02-7.79003E-02 8.34467E-01 9.46744E-02 4.80733E-01
 -1       118-1.24641E+02 4.48935E-02 9.61655E-02 7.41721E-01-6.02759E-02 4.62148E-01
 -1       119-1.15891E+02-1.09940E-01-6.71371E-02 6.58970E-01 3.12831E-03 4.33309E-01
 -1       120-1.06361E+02-4.20803E-03-4.61220E-02 5.82826E-01-1.95223E-02 4.54179E-01
 -1       121-9.71592E+01 6.08406E-03-6.04704E-03 4.62377E-01-1.20671E-02 4.85076E-01
 -1       122-8.80441E+01-7.12157E-02-5.86088E-02 4.27092E-01-5.85856E-03 4.22614E-01
 -1       123-7.85305E+01 5.58130E-02 4.53988E-02 3.30214E-01-9.45505E-02 4.84347E-01
 -1       124-6.93489E+01 3.18884E-02 5.23135E-02 7.09938E-02-1.48857E-02 4.69885E-01
 -1       125-6.01350E+01 1.64322E-02 2.84731E-03-1.04852E-01-9.12509E-03 4.81113E-01
 -1       126-5.11225E+01-1.00011E-01-1.44765E-01-6.55428E-02 9.97909E-03 4.60565E-01
 -1       127-4.13582E+01 6.94045E-02 7.40970E-02-2.08973E-01-1.19190E-01 4.91732E-01
 -1       128-3.25413E+01-1.31775E-02-1.45396E-02-3.65940E-01 2.90717E-02 4.53277E-01
 -1       129-2.31373E+01 2.88775E-02 3.22430E-02-3.40991E-01-6.12821E-02 4.71389E-01
 -1       130-1.38082E+01-7.51037E-03 9.53357E-03-5.36810E-01-1.52063E-02 5.17931E-01
 -1       131-2.17693E+00-2.37709E-01 2.69425E-01-1.31564E+00-1.49067E-01 5.79547E-01
 -1       132-2.72103E+02 7.94120E+00 8.06001E+00 1.03549E+01-1.60138E+00-2.28287E+00
 -1       133-2.88386E+02 3.34482E-01 9.34438E-01 7.97328E-01 7.64428E-03-5.64241E-01
 -1       134-2.84708E+02 1.05195E-01 3.69881E-02 1.02582E-01 1.22623E-01-6.02042E-01
 -1       135-2.76935E+02 2.45985E-02-4.66770E-02 2.15245E-03 3.13349E-02-4.47445E-01
 -1       136-2.68091E+02 2.76670E-02-2.96224E-04 4.91587E-01 5.76519E-02-3.92096E-01
 -1       137-2.58969E+02-1.75119E-02 2.00992E-02 3.24076E-01 5.67400E-03-3.68622E-01
 -1       138-2.49673E+02 2.62389E-02 8.84751E-03 7.80887E-01 4.19284E-02-3.90990E-01
 -1       139-2.40515E+02 2.13963E-02 8.21443E-02 4.96817E-01 6.69934E-02-3.88360E-01
 -1       140-2.31120E+02-4.19637E-02-8.50466E-02 1.01532E+00-2.39121E-03-4.22001E-01
 -1       141-2.22008E+02 1.93235E-02 1.99444E-02 1.07437E+00 5.67326E-02-3.82825E-01
 -1       142-2.12851E+02-9.30403E-03 4.11279E-02 8.53790E-01 5.52172E-03-3.59165E-01
 -1       143-2.03518E+02 1.47761E-02 6.70795E-02 8.06827E-01 7.78824E-02-4.08820E-01
 -1       144-1.94176E+02-3.76876E-02-7.18630E-02 1.19965E+00-5.23598E-03-4.31301E-01
 -1       145-1.84960E+02-1.15264E-02-1.43606E-02 9.79140E-01-1.74963E-04-3.70442E-01
 -1       146-1.75967E+02 2.03401E-02 3.99337E-02 9.99562E-01 1.10140E-02-3.84056E-01
 -1       147-1.66371E+02-5.81447E-02-5.52439E-02 1.19111E+00-6.99714E-03-4.02736E-01
 -1       148-1.57447E+02 1.09214E-02 3.24775E-02 8.96408E-01 1.26013E-02-3.55739E-01
 -1       149-1.48105E+02-2.24304E-02 5.47256E-02 8.35650E-01 1.56948E-02-3.82498E-01
 -1       150-1.38693E+02-1.71511E-02-3.30185E-02 8.15212E-01-5.77154E-03-3.89837E-01
 -1       151-1.29656E+02 4.09970E-02 6.61408E-02 1.03443E+00 1.97353E-02-3.87237E-01
 -1       152-1.20354E+02-3.12760E-02 2.72990E-02 5.83928E-01-1.45721E-02-4.08279E-01
 -1       153-1.10980E+02 2.28050E-02-4.35551E-02 5.58289E-01-9.35864E-04-3.88530E-01
 -1       154-1.01659E+02-1.96417E-02-4.17039E-02 5.09034E-01 1.12062E-03-3.75578E-01
 -1       155-9.26586E+01 4.47179E-02 5.35715E-02 6.57429E-01 2.17869E-03-3.76198E-01
 -1       156-8.32707E+01 3.57964E-04 5.60810E-02 1.97280E-01 6.48845E-02-4.24953E-01
 -1       157-7.38839E+01-2.43110E-02-7.36096E-02 4.64333E-01-1.07744E-02-3.98463E-01
 -1       158-6.48987E+01 4.62823E-02 6.33889E-02 3.33890E-01 3.04987E-02-4.00049E-01
 -1       159-5.54258E+01 2.35985E-02-4.94020E-02-1.52790E-01 2.76885E-03-3.87988E-01
 -1       160-4.62168E+01 3.06932E-02-6.88547E-03 7.16657E-02 5.09403E-02-3.98106E-01
 -1       161-3.70850E+01 3.49741E-02 4.08489E-02-3.89127E-01 2.59713E-02-3.73507E-01
 -1       162-2.76028E+01-5.37849E-03-4.16704E-02-2.12976E-01-1.06368E-02-4.11727E-01
 -1       163-1.85131E+01-3.10860E-02-3.52704E-02-3.07122E-01-6.24353E-02-4.10230E-01
 -1       164-8.90857E+00-1.07865E-01-1.27341E-01-6.36500E-01-1.17163E-01-6.29216E-01
 -1       165-3.07671E+02-7.92984E+00-8.15907E+00 3.62670E-01 1.71373E+00 2.27850E+01
 -1       166-2.86694E+02 5.40067E-02-8.86476E-02 2.06473E+00 1.71960E+00 1.22002E+00
 -1       167-2.87144E+02 1.95434E-01 1.47576E-01 2.69980E-01-1.15661E-01-6.70372E-01
 -1       168-2.80898E+02 1.00835E-01 1.80839E-02-1.84615E-02 7.47851E-02-5.70333E-01
 -1       169-2.72809E+02-7.01570E-02-1.32576E-01 2.09125E-01-1.02018E-02-4.77871E-01
 -1       170-2.63383E+02 2.12570E-02 3.76024E-02 3.71971E-01 1.04813E-01-4.82491E-01
 -1       171-2.54513E+02-8.38756E-02-9.10227E-02 5.12560E-01-3.52170E-02-4.25183E-01
 -1       172-2.44840E+02 6.13631E-02 7.62419E-02 6.16711E-01 1.26579E-01-4.98162E-01
 -1       173-2.36044E+02-1.40456E-01-7.30852E-02 7.13389E-01-8.32740E-03-4.24546E-01
 -1       174-2.26685E+02-6.39132E-02-8.16832E-02 9.47458E-01 1.17149E-02-4.28446E-01
 -1       175-2.17281E+02 4.50073E-02 4.05479E-02 9.37344E-01 9.32008E-02-4.71831E-01
 -1       176-2.08000E+02 2.97982E-02 7.06285E-02 8.07891E-01 4.11047E-02-4.71909E-01
 -1       177-1.99062E+02-1.21102E-01-6.56108E-02 9.57332E-01 1.94687E-03-4.46847E-01
 -1       178-1.89580E+02-9.40273E-03-4.42579E-02 9.93292E-01 2.65533E-02-4.48555E-01
 -1       179-1.80430E+02-4.62628E-03 7.88218E-03 9.75872E-01-1.22634E-04-4.80423E-01
 -1       180-1.71298E+02-1.49511E-01-1.09608E-01 1.02245E+00 8.11201E-03-4.15254E-01
 -1       181-1.61770E+02 2.79320E-02 3.58195E-02 9.94612E-01 4.85562E-02-4.63908E-01
 -1       182-1.52651E+02 1.23930E-02 5.59549E-02 8.28802E-01 1.74016E-02-4.59430E-01
 -1       183-1.43447E+02-2.36373E-02-1.27530E-02 7.80394E-01 2.03341E-03-4.52063E-01
 -1       184-1.34244E+02 1.85744E-02-1.38960E-02 8.54900E-01-1.74429E-02-4.67145E-01
 -1       185-1.24731E+02 1.37682E-01 1.61960E-01 7.77395E-01 2.35076E-02-4.54290E-01
 -1       186-1.15713E+02-9.50625E-03-1.82959E-02 5.30309E-01-1.83013E-02-4.83242E-01
 -1       187-1.06442E+02-2.04875E-02-5.98422E-02 4.94397E-01-6.06106E-03-4.67441E-01
 -1       188-9.72978E+01-1.81039E-02-3.49957E-02 5.34596E-01-3.10150E-02-4.58593E-01
 -1       189-8.76188E+01 1.99398E-01 1.98631E-01 3.85082E-01 3.89370E-02-4.57779E-01
 -1       190-7.88150E+01-9.69261E-02-6.32826E-02 2.85722E-01-1.07301E-02-4.40487E-01
 -1       191-6.94240E+01 3.07565E-03-1.97766E-03 2.89207E-01-8.88547E-04-4.37495E-01
 -1       192-5.99409E+01 1.55975E-01 1.11596E-01 4.34366E-02 5.01620E-02-4.43981E-01
 -1       193-5.11003E+01-6.45385E-02-1.37874E-01-6.53966E-02-2.44942E-02-4.54780E-01
 -1       194-4.14883E+01 4.47315E-02 5.06002E-02-1.89518E-01 1.11821E-01-4.98727E-01
 -1       195-3.25415E+01-1.13280E-01-1.09748E-01-3.37575E-01-2.82717E-02-4.44484E-01
 -1       196-2.31099E+01 1.51382E-02-7.68559E-03-3.22330E-01-5.18583E-02-4.58036E-01
 -1       197-1.38175E+01-1.02821E-01-7.46081E-02-5.21845E-01-3.62182E-02-5.48477E-01
 -1       198-2.21050E+00-2.25126E-01 2.96909E-01-1.30311E+00 1.25642E-01-5.58548E-01
 -1       199 2.73499E+02-7.79728E+00-8.03318E+00 9.93687E+00 1.65895E+00-2.15977E+00
 -1       200 2.89736E+02-3.06390E-01-8.90715E-01-1.17068E-01 2.87031E-02-4.75524E-01
 -1       201 2.85972E+02-1.25249E-01-1.34665E-02-1.33007E+00-1.28815E-01-6.46940E-01
 -1       202 2.78176E+02 5.20727E-02 6.15848E-02-1.50937E+00 9.80969E-03-4.57501E-01
 -1       203 2.69148E+02 4.65214E-02 5.15167E-02-1.71003E+00 1.36888E-02-3.85213E-01
 -1       204 2.60045E+02 3.68756E-02 2.23141E-02-1.86627E+00 4.24603E-02-4.05975E-01
 -1       205 2.50822E+02 2.27107E-02-7.71352E-03-2.24854E+00-6.24782E-03-3.62358E-01
 -1       206 2.41358E+02 1.32527E-02-3.87911E-02-2.47477E+00-5.95678E-02-4.11246E-01
 -1       207 2.32126E+02-2.29736E-02-1.61837E-03-2.19111E+00-6.24203E-02-4.67401E-01
 -1       208 2.22845E+02 2.03150E-02 2.94665E-03-2.28084E+00-3.83427E-02-3.98005E-01
 -1       209 2.13590E+02 3.47700E-02-3.27808E-02-2.60247E+00 4.52100E-03-3.69623E-01
 -1       210 2.04221E+02 1.35759E-02-6.00874E-02-2.73930E+00-6.68371E-02-4.18149E-01
 -1       211 1.94816E+02 3.34111E-02 6.01521E-02-2.41716E+00 1.82088E-02-4.22534E-01
 -1       212 1.85706E+02 6.01995E-02-2.85510E-03-2.40623E+00 5.06503E-02-4.19108E-01
 -1       213 1.76236E+02 7.75748E-02 8.26937E-02-2.36775E+00 2.88039E-02-4.20014E-01
 -1       214 1.67052E+02 7.06463E-03-1.40171E-02-2.39565E+00-4.86109E-02-3.86479E-01
 -1       215 1.57846E+02 4.10675E-02-2.02672E-02-2.65563E+00-7.20361E-04-3.66326E-01
 -1       216 1.48472E+02 5.00910E-02-3.99418E-02-2.65253E+00-1.34438E-02-3.90689E-01
 -1       217 1.39183E+02-2.96128E-03-2.17394E-02-2.29645E+00-4.55047E-02-4.46831E-01
 -1       218 1.29927E+02 5.50831E-03-5.19240E-02-2.21647E+00-5.48659E-02-3.68644E-01
 -1       219 1.20616E+02 7.93464E-02 5.10678E-02-2.15487E+00 6.13166E-02-3.86889E-01
 -1       220 1.11418E+02 4.35790E-02-1.44414E-02-2.32094E+00-9.03306E-03-3.82717E-01
 -1       221 1.02129E+02 4.30863E-02-4.10494E-02-2.25999E+00 3.55416E-03-3.98388E-01
 -1       222 9.28370E+01 4.84112E-02-2.08813E-02-2.13318E+00-2.01670E-03-3.84936E-01
 -1       223 8.34270E+01 4.72297E-02-3.13628E-02-2.13632E+00-5.47806E-02-4.22621E-01
 -1       224 7.41947E+01-2.18653E-02-5.10311E-03-1.66464E+00-4.16712E-02-4.35565E-01
 -1       225 6.50384E+01 1.27421E-02-6.74395E-02-1.55367E+00-2.28973E-02-4.08871E-01
 -1       226 5.57023E+01-1.02282E-02-1.16356E-02-1.40260E+00-5.40920E-02-4.37388E-01
 -1       227 4.62583E+01 9.59700E-02 8.32237E-02-1.26834E+00 3.37150E-02-3.58528E-01
 -1       228 3.71888E+01-2.13289E-02-6.52763E-02-1.14520E+00-4.36220E-02-4.05389E-01
 -1       229 2.78302E+01-9.67221E-03-2.64789E-02-1.01464E+00-3.88632E-02-4.09649E-01
 -1       230 1.86743E+01-3.86387E-03-5.01973E-02-8.69589E-01-2.30890E-02-3.93501E-01
 -1       231 9.19158E+00 2.12214E-02 8.57459E-03-9.04240E-01-5.99295E-02-6.85248E-01
 -1       232 3.09053E+02 7.92391E+00 8.39792E+00-1.92278E-02-6.67793E-01 2.33704E+01
 -1       233 2.87914E+02-2.54549E-01-1.19193E-01 1.22658E+00-1.21048E+00 1.47288E+00
 -1       234 2.88722E+02-6.90158E-02-1.14690E-01-1.04877E+00-3.63179E-01-5.09728E-01
 -1       235 2.82275E+02 9.58113E-03 7.28197E-02-1.51661E+00-3.22674E-02-5.58876E-01
 -1       236 2.73876E+02 1.39993E-01 1.40770E-01-1.70033E+00 1.30863E-02-4.39155E-01
 -1       237 2.64663E+02 3.26076E-02 3.40839E-02-1.85595E+00 4.88823E-02-4.34970E-01
 -1       238 2.55247E+02-7.30110E-02-8.36722E-02-2.10401E+00-1.25839E-02-4.57807E-01
 -1       239 2.45943E+02-1.84876E-02-6.41372E-02-2.38418E+00-3.18545E-02-4.76180E-01
 -1       240 2.36950E+02 4.65521E-02 2.16009E-02-2.38801E+00 2.11777E-02-4.69339E-01
 -1       241 2.27563E+02 6.10106E-02 4.95602E-02-2.29177E+00-7.53186E-02-4.76995E-01
 -1       242 2.18071E+02-1.84435E-02-3.27247E-02-2.46770E+00-7.95292E-02-4.88175E-01
 -1       243 2.08741E+02-6.76265E-03-6.86340E-02-2.69089E+00-2.71950E-02-4.85023E-01
 -1       244 1.99760E+02 1.28651E-01 6.03207E-02-2.62143E+00 1.82029E-02-4.52989E-01
 -1       245 1.90310E+02 4.95464E-02 1.07166E-02-2.50340E+00 6.89911E-02-4.82206E-01
 -1       246 1.80995E+02 1.10515E-01 5.31601E-02-2.45428E+00 1.96071E-02-3.84853E-01
 -1       247 1.71753E+02 7.74405E-02 8.46051E-02-2.47609E+00-1.17939E-02-4.23087E-01
 -1       248 1.62293E+02-2.61207E-02-4.34548E-02-2.55272E+00-8.14583E-02-4.82381E-01
 -1       249 1.53039E+02 2.49435E-02-5.30835E-02-2.67581E+00-4.41147E-03-4.64387E-01
 -1       250 1.43971E+02 9.66583E-02 4.61869E-02-2.54065E+00 3.15895E-02-4.64588E-01
 -1       251 1.34570E+02 2.52939E-02-2.10819E-02-2.33197E+00-6.81941E-02-4.42051E-01
 -1       252 1.25281E+02 5.49719E-02 1.64593E-02-2.21409E+00 5.79573E-03-4.18818E-01
 -1       253 1.15818E+02-4.66020E-02-7.35601E-02-2.28985E+00-6.08419E-03-4.54192E-01
 -1       254 1.06674E+02 1.76735E-02-5.52031E-02-2.32536E+00 8.18117E-04-4.79581E-01
 -1       255 9.74253E+01 2.84932E-02-3.48666E-02-2.24238E+00 1.13149E-02-4.85513E-01
 -1       256 8.79721E+01 7.77292E-03-7.10224E-02-2.16253E+00-2.93970E-02-4.81218E-01
 -1       257 7.89974E+01 5.01993E-02 1.82654E-02-1.95787E+00 2.82241E-02-4.65378E-01
 -1       258 6.95781E+01 1.57681E-02-2.86509E-02-1.69510E+00-4.85535E-02-4.85654E-01
 -1       259 6.03096E+01-3.36328E-02-6.54472E-02-1.53945E+00-2.10993E-02-3.85632E-01
 -1       260 5.10856E+01 1.29730E-01 1.04303E-01-1.39602E+00-5.17769E-02-4.34495E-01
 -1       261 4.17192E+01 4.08328E-02 1.72021E-02-1.30645E+00 6.43544E-03-4.13103E-01
 -1       262 3.24719E+01-3.78566E-02-6.86737E-02-1.14145E+00-3.49496E-02-4.11388E-01
 -1       263 2.32141E+01-6.37692E-03-2.00548E-02-1.03140E+00-4.27220E-02-4.26271E-01
 -1       264 1.38539E+01-5.56811E-02-9.69896E-02-9.98246E-01 1.44600E-02-4.98943E-01
 -1       265 2.22223E+00 2.07384E-01-3.62473E-01-1.42107E+00-3.10241E-01-5.85342E-01
 -1       266 2.73441E+02-7.85542E+00-8.03929E+00 9.90798E+00-1.57401E+00 2.09905E+00
 -1       267 2.89712E+02-3.50247E-01-8.99366E-01-1.04439E-01-2.71656E-03 4.59625E-01
 -1       268 2.86152E+02-2.15709E-02-1.65001E-01-1.31553E+00 9.90763E-02 4.64199E-01
 -1       269 2.78164E+02-2.88761E-02 7.82438E-02-1.80897E+00-1.31533E-02 4.46853E-01
 -1       270 2.69122E+02 6.05581E-02 4.64580E-02-1.71353E+00 1.94962E-05 3.89385E-01
 -1       271 2.60032E+02-1.17483E-02-5.07967E-02-2.24724E+00 4.93680E-02 3.88860E-01
 -1       272 2.50697E+02-4.03743E-02-5.05167E-03-2.00661E+00 4.59829E-02 4.46461E-01
 -1       273 2.41542E+02 5.46978E-03-6.25343E-02-2.13230E+00 1.29182E-02 4.26105E-01
 -1       274 2.32084E+02 3.33291E-02 6.51796E-02-2.56958E+00-7.66499E-02 4.16906E-01
 -1       275 2.22654E+02 3.05390E-02 5.14603E-02-2.55068E+00-6.79817E-03 3.59901E-01
 -1       276 2.13612E+02-4.46076E-02-7.20797E-02-2.35156E+00 9.36043E-03 3.79929E-01
 -1       277 2.04170E+02 7.26149E-02 1.51729E-02-2.38900E+00-6.37601E-02 4.58769E-01
 -1       278 1.94986E+02 1.72254E-02 5.04936E-02-2.76967E+00-6.07156E-02 4.20693E-01
 -1       279 1.85528E+02 7.63133E-02 5.42475E-02-2.43031E+00-1.59880E-03 3.74860E-01
 -1       280 1.76494E+02 1.51020E-02-4.70078E-02-2.67479E+00-8.10054E-03 3.69494E-01
 -1       281 1.67037E+02 2.84149E-02-5.73990E-02-2.77278E+00 6.25371E-02 4.20976E-01
 -1       282 1.57610E+02 5.79334E-02 8.26397E-02-2.36128E+00-2.68037E-02 4.05203E-01
 -1       283 1.48597E+02 1.24006E-02-7.67182E-02-2.30624E+00 1.38535E-02 3.89372E-01
 -1       284 1.39203E+02-2.10664E-02-1.54738E-02-2.29467E+00 4.08558E-02 4.15955E-01
 -1       285 1.29907E+02 5.49068E-02 2.19747E-02-2.20415E+00-5.37979E-02 3.76720E-01
 -1       286 1.20628E+02 5.50017E-02-3.30988E-02-2.45971E+00 1.54309E-02 3.91859E-01
 -1       287 1.11363E+02-4.26869E-03-2.87689E-02-2.08522E+00 4.12165E-02 4.38024E-01
 -1       288 1.01902E+02 7.24065E-02 4.06121E-02-2.22921E+00-2.15972E-02 3.77552E-01
 -1       289 9.28991E+01 3.52173E-02-3.13452E-02-2.09577E+00-6.34327E-03 3.99623E-01
 -1       290 8.34467E+01 1.32811E-02-1.48293E-02-1.77989E+00 3.66888E-02 4.18519E-01
 -1       291 7.43036E+01 4.66833E-02-2.31494E-02-1.92669E+00-1.08231E-03 3.71565E-01
 -1       292 6.49867E+01 4.31348E-02-3.94446E-02-1.86173E+00 8.90529E-03 4.08981E-01
 -1       293 5.55888E+01 2.71492E-02 5.10409E-02-1.72710E+00-1.69612E-02 3.87588E-01
 -1       294 4.63603E+01 1.40983E-02-5.33879E-03-1.30378E+00 3.84387E-02 3.94815E-01
 -1       295 3.72376E+01 4.31155E-02-5.15454E-02-1.46640E+00-1.40231E-02 3.85640E-01
 -1       296 2.78543E+01 2.34849E-02 6.30865E-03-1.28895E+00-2.69429E-04 3.85755E-01
 -1       297 1.85779E+01 3.67759E-02-5.33325E-03-1.20782E+00-6.90347E-04 3.44660E-01
 -1       298 8.93055E+00 1.42447E-01 1.25295E-01-9.19611E-01-1.09696E-01 5.98523E-01
 -1       299 3.09169E+02 8.39318E+00 8.15168E+00-3.13661E-01 1.32146E+00-2.31253E+01
 -1       300 2.87856E+02-2.27649E-01 2.18930E-02 1.23696E+00 1.26632E+00-1.52899E+00
 -1       301 2.88659E+02-8.24405E-02-1.14938E-01-9.79013E-01 3.38117E-01 3.80528E-01
 -1       302 2.82217E+02-1.25428E-01-6.75267E-02-1.62805E+00 9.75066E-02 5.14225E-01
 -1       303 2.74022E+02 1.64620E-01 1.82462E-01-1.80698E+00-1.95943E-02 4.73414E-01
 -1       304 2.64376E+02-3.14609E-02-5.43880E-02-2.02224E+00 7.06029E-02 4.73087E-01
 -1       305 2.55576E+02 3.25369E-02 2.80225E-02-2.18106E+00-3.63456E-02 4.47597E-01
 -1       306 2.46080E+02-1.39460E-02-2.99574E-02-2.15910E+00 5.73351E-02 5.01329E-01
 -1       307 2.36584E+02-9.27590E-02-6.29078E-02-2.39186E+00 7.33458E-03 4.56016E-01
 -1       308 2.27559E+02 5.68937E-02 7.15736E-02-2.58901E+00-4.40870E-02 4.72399E-01
 -1       309 2.18276E+02 4.30319E-02 2.53567E-02-2.50615E+00-4.26963E-02 4.59799E-01
 -1       310 2.08784E+02-1.01603E-01-1.10908E-01-2.42997E+00-7.77766E-02 4.53208E-01
 -1       311 1.99385E+02 2.84801E-03-1.28464E-02-2.63456E+00 1.58714E-02 4.72114E-01
 -1       312 1.90607E+02 2.23376E-01 2.00955E-01-2.64502E+00-3.67874E-02 4.52509E-01
 -1       313 1.80877E+02 9.57999E-03-3.69729E-02-2.60088E+00 2.99769E-02 4.57184E-01
 -1       314 1.71590E+02-5.63350E-03-7.43150E-02-2.75312E+00 3.13499E-02 4.72508E-01
 -1       315 1.62556E+02 1.39379E-01 6.71875E-02-2.61527E+00-2.01396E-02 4.43027E-01
 -1       316 1.53099E+02 4.89496E-02-1.31786E-03-2.47144E+00-8.83595E-03 4.51077E-01
 -1       317 1.43862E+02-3.31637E-02-5.19598E-02-2.35587E+00-6.36065E-03 3.60153E-01
 -1       318 1.34537E+02-2.84334E-02-3.66496E-02-2.29521E+00-1.50882E-02 4.66547E-01
 -1       319 1.25008E+02-9.22990E-02-1.27391E-01-2.37948E+00 2.51668E-02 4.45328E-01
 -1       320 1.16163E+02 9.22685E-02 5.46131E-02-2.33723E+00-3.81827E-02 4.64441E-01
 -1       321 1.06582E+02 6.49660E-03-5.61508E-04-2.21140E+00 5.24784E-02 4.56129E-01
 -1       322 9.74028E+01 5.24401E-02 2.19258E-03-2.17927E+00-1.89515E-02 4.94232E-01
 -1       323 8.82576E+01 1.02800E-01 4.81296E-02-2.01237E+00-6.29356E-03 4.32536E-01
 -1       324 7.87313E+01-1.29996E-02-4.56078E-02-1.88226E+00 8.03089E-02 4.90583E-01
 -1       325 6.95251E+01 2.19473E-02-4.95134E-02-1.91401E+00 3.31192E-04 4.74968E-01
 -1       326 6.02692E+01 3.23811E-02-5.40549E-03-1.85525E+00 2.90777E-05 4.88006E-01
 -1       327 5.12601E+01 1.40660E-01 1.43832E-01-1.55904E+00-3.29786E-02 4.58688E-01
 -1       328 4.15899E+01-2.24767E-02-6.62863E-02-1.40199E+00 8.23003E-02 4.97582E-01
 -1       329 3.25254E+01 4.90339E-02-5.78573E-03-1.42321E+00-1.40126E-02 4.73343E-01
 -1       330 2.31871E+01 9.08469E-03-1.90939E-02-1.26594E+00 2.06011E-02 4.68917E-01
 -1       331 1.40804E+01 2.41994E-01 1.44849E-01-1.08595E+00-4.22098E-02 5.45500E-01
 -1       332 2.29735E+00 3.30729E-01-2.86075E-01-1.35903E+00 9.92238E-02 5.72389E-01
 -1       333 1.49906E+02 6.00676E+01 6.22426E+01-9.60037E+00 5.15023E-01-8.32913E+00
 -1       334-1.59716E+02-6.26447E+01-6.55790E+01-1.16869E+01 3.24965E-01 8.33063E+00
 -1       335 7.52126E+01 3.23590E+01 3.01340E+01 9.87799E+00-8.93907E-01 1.28061E+01
 -1       336-1.54879E+02-6.57578E+01-6.62665E+01-6.87462E+00 1.96988E-01-1.00847E+01
 -1       337-5.32024E+01-2.18559E+01-2.27350E+01 3.91903E+00-1.68138E-01 4.12184E-02
 -1       338-6.22789E+01-2.17400E+01-2.39998E+01 1.15174E+01-3.35664E-01 7.24717E+00
 -1       339 1.67687E+02 6.71286E+01 7.22879E+01-1.22345E+01 8.73964E-01 1.06489E+01
 -1       340-6.32747E+01-2.21074E+01-2.43202E+01 1.19215E+01 1.97051E-01-7.52452E+00
 -1       341 7.06692E+01 3.05876E+01 2.83755E+01 1.13954E+01 9.93341E-01-1.32670E+01
 -1       342 4.05276E+01 1.44441E+01 1.56428E+01 6.60697E+00 9.28362E-01-1.93566E+00
 -1       343-1.78424E+02-6.41484E+01-6.84540E+01-8.39795E+00 8.26313E-01 2.85471E+01
 -1       344 1.74111E+02 7.15334E+01 7.15142E+01-6.27106E+00 1.84257E+00 2.82067E+01
 -1       345-1.78101E+02-6.43162E+01-6.87627E+01-8.10262E+00-7.08825E-01-2.86181E+01
 -1       346 1.76256E+02 6.70708E+01 7.11416E+01-9.52330E+00-6.21497E-01-2.82344E+01
 -1       347 5.78719E+01 2.07540E+01 2.34756E+01 4.13435E+00-7.90111E-01 2.18127E+00
 -1       348-2.73048E+02-1.02798E+02-1.07036E+02-2.28625E+01 6.59915E+00 5.53774E+01
 -1       349-2.58106E+02-1.09149E+02-1.08162E+02-4.46310E+01-1.23867E+00 2.98893E+01
 -1       350-1.88182E+02-7.59947E+01-7.74483E+01 1.44292E+01-2.45795E+00 4.31323E+01
 -1       351-2.58294E+02-1.09186E+02-1.08306E+02-4.45889E+01 1.29303E+00-2.95975E+01
 -1       352-2.73076E+02-1.02840E+02-1.06998E+02-2.28565E+01-6.60437E+00-5.52761E+01
 -1       353-1.88522E+02-7.60843E+01-7.75995E+01 1.44491E+01 2.44294E+00-4.31697E+01
 -1       354 2.72620E+02 1.02438E+02 1.07067E+02-2.36175E+01 6.42724E+00-5.52103E+01
 -1       355 1.83327E+02 7.84723E+01 7.85089E+01 9.63830E+00-1.12111E-02-4.34188E+01
 -1       356 2.59221E+02 1.09158E+02 1.08404E+02-4.53250E+01-1.27699E+00-2.99257E+01
 -1       357 2.70940E+02 1.03085E+02 1.06495E+02-2.16151E+01-6.01734E+00 5.49436E+01
 -1       358 2.51231E+02 1.07502E+02 1.07496E+02-3.95867E+01-2.98367E-02 3.12169E+01
 -1       359 1.82837E+02 7.82631E+01 7.83011E+01 1.03439E+01 1.18503E-02 4.40454E+01
 -1       360-2.43955E+02-1.04717E+02-1.04741E+02-3.88718E+01 4.53808E-03-6.66231E+00
 -1       361-2.42231E+02-1.03979E+02-1.03991E+02-3.82164E+01 1.99687E-02-1.94169E+01
 -1       362-1.69991E+02-6.73294E+01-7.15996E+01-8.30344E+00 6.40411E-01-1.73773E+01
 -1       363-2.42815E+02-1.04225E+02-1.04241E+02-4.11965E+01-2.21371E-02 1.90411E+01
 -1       364-2.51439E+02-1.06893E+02-1.06810E+02-4.49031E+01-6.69662E-01 4.31775E+00
 -1       365-1.58020E+02-6.41063E+01-6.66853E+01-1.03739E+01-8.02357E-01-1.91028E+00
 -1       366-1.72398E+02-6.58232E+01-7.18652E+01-1.02818E+01-5.73287E-01 1.64619E+01
 -1       367-3.28298E+01-1.30050E+01-1.21475E+01 2.70580E+01-1.43109E+00 4.57309E+00
 -1       368-1.17345E+02-5.03305E+01-5.03200E+01 2.03662E+01 1.33230E-02 2.61451E+01
 -1       369-1.28087E+02-5.33221E+01-5.05709E+01 6.11911E+00 8.95119E-01 1.81012E+01
 -1       370 1.31356E+02 5.49994E+01 5.75021E+01 1.99409E+01-5.55940E-01-3.32651E+01
 -1       371 4.20881E+01 1.80466E+01 1.80336E+01 2.67068E+01-6.28217E-03-1.16272E+01
 -1       372-2.49618E+00-3.75619E-01 8.81305E-01 1.50942E+01-3.57383E-01-3.19744E+00
 -1       373 1.25049E+02 5.28042E+01 5.11220E+01 4.76600E+00-2.27454E-01-2.07977E+01
 -1       374 2.55150E+02 1.09117E+02 1.09261E+02-4.48090E+01-5.65065E-02 2.14207E+01
 -1       375 2.51836E+02 1.07763E+02 1.07734E+02-4.33334E+01-5.08833E-03 7.57037E+00
 -1       376 1.75038E+02 6.89305E+01 7.32770E+01-9.52374E+00 6.52662E-01 1.77016E+01
 -1       377 2.44499E+02 1.03940E+02 1.03681E+02-4.39715E+01-4.40799E-01-4.49455E+00
 -1       378 2.36113E+02 1.01039E+02 1.01024E+02-3.97778E+01 2.16289E-02-1.91087E+01
 -1       379 1.58396E+02 6.26736E+01 6.60523E+01-1.17822E+01-9.31010E-01 2.15938E+00
 -1       380 1.66759E+02 6.42901E+01 6.98295E+01-9.46410E+00-4.18309E-01-1.62726E+01
 -1       381-1.18267E+02-5.07260E+01-5.07155E+01 2.07815E+01-1.36410E-02-2.64494E+01
 -1       382-3.33704E+01-1.31991E+01-1.23190E+01 2.75228E+01 1.42212E+00-4.85051E+00
 -1       383-1.28341E+02-5.34816E+01-5.07613E+01 6.41310E+00-8.83096E-01-1.84064E+01
 -1       384 4.43747E+01 1.90250E+01 1.90126E+01 2.58316E+01 5.93307E-03 1.14290E+01
 -1       385 1.32181E+02 5.52149E+01 5.77049E+01 1.90857E+01 6.98557E-01 3.32863E+01
 -1       386-2.38145E-01 5.01657E-01 1.73718E+00 1.46181E+01 2.91876E-01 2.93202E+00
 -1       387 1.26183E+02 5.32521E+01 5.12801E+01 4.53775E+00 2.01907E-01 2.03722E+01
 -1       388 1.16733E+02 4.99730E+01 4.99812E+01 3.42759E-01-2.41216E-04 6.39615E+00
 -1       389 1.06937E+02 4.54968E+01 4.49218E+01-2.40363E-01 3.71563E-01-1.63970E+00
 -1       390 1.20306E+02 5.15048E+01 5.15140E+01 4.06721E+00-1.21898E-03-9.95431E+00
 -1       391 9.90527E+01 4.24079E+01 4.24154E+01 2.41554E+00-2.70589E-04-4.94642E+00
 -1       392 5.36682E+01 2.29868E+01 2.29948E+01 1.03257E+01-1.62257E-03-6.89822E+00
 -1       393 4.97775E+01 2.08135E+01 2.13814E+01 3.72129E+00 5.06217E-01-4.75012E-02
 -1       394-1.10940E+02-4.66240E+01-4.56375E+01-6.92832E-01 6.36360E-01 2.89250E+00
 -1       395-1.08466E+02-4.65351E+01-4.65267E+01 5.16646E-01 3.00222E-04-4.77574E+00
 -1       396-1.17859E+02-5.05666E+01-5.05579E+01 3.16738E+00 7.08293E-04 8.65865E+00
 -1       397-5.26545E+01-2.25807E+01-2.25723E+01 7.77982E+00 1.06479E-03 4.32868E+00
 -1       398 1.31491E+02 5.62884E+01 5.62985E+01 2.49933E+00 6.00239E-04 1.11166E+01
 -1       399 6.56865E+01 2.81323E+01 2.81410E+01 8.83798E+00 1.51798E-03 6.48941E+00
 -1       400-3.63430E+00-1.83135E+00-3.61552E+00 1.05287E+01 5.17303E-01 4.16774E-01
 -1       401-5.31055E+01-2.27743E+01-2.27656E+01 8.43986E+00-1.21164E-03-4.43376E+00
 -1       402-1.14041E+02-4.89271E+01-4.89177E+01 3.38273E+00-7.60916E-04-9.36956E+00
 -1       403-1.26855E+01-5.01026E+00-7.83963E+00 1.10122E+01-2.96807E-01-3.48482E-02
 -1       404-5.31619E+00-3.98876E+00-3.22035E+00 6.25047E+00 8.30151E-01 1.02399E+00
 -1       405 5.46946E+00 4.24121E-01 8.75873E-01 6.68647E+00-1.36787E+00-7.03278E-01
 -1       406 1.75927E+00 6.79572E-01 7.11310E-01-6.35563E+00 2.45507E-02 2.39445E-01
 -1       407 1.72282E+00 6.46412E-01 6.91058E-01-6.39294E+00-1.51536E-03-2.34874E-01
 -1       408-3.65010E+00-7.39559E-01-1.31919E+00-4.84178E+00 5.88048E-02-2.19656E-01
 -1       409-1.70633E+00-4.62681E-01-6.51142E-01-6.26371E+00-4.68604E-03 2.33390E-01
 -1       410-2.19745E-01 2.24014E-01-1.07620E-02-6.30847E+00-2.17771E-02 1.43992E-02
 -1       411 3.51882E+00 1.05397E+00 1.42030E+00-5.23881E+00-1.97353E-02-1.06550E-01
 -1       412-2.01996E+00-4.97313E-01-7.18209E-01-6.20081E+00 4.33665E-02-2.30400E-01
 -1       413-3.67473E+00-6.54776E-01-1.34635E+00-5.12462E+00-2.96036E-02 1.04268E-01
 -1       414 3.20235E+00 9.69106E-01 1.25692E+00-4.76426E+00 5.39318E-02 2.20087E-01
 -1       415 1.59494E+00 5.95862E-01 7.10928E-01-5.98012E+00-1.51736E-02 7.01706E-02
 -1       416-3.39739E+00-5.71003E-01-1.23448E+00-5.06124E+00 2.96099E-02-6.29029E-01
 -1       417 3.33643E+00 7.33609E-01 1.28930E+00-5.07601E+00-2.30068E-02-5.23481E-01
 -1       418-3.54879E+00-3.92507E-01-1.23410E+00-4.99456E+00-3.36237E-02 5.11972E-01
 -1       419 3.40720E+00 8.23446E-01 1.30391E+00-5.07382E+00 7.33712E-02 6.14692E-01
 -1       420-1.62219E+00-4.32692E-02-5.23491E-01-6.07366E+00 2.50712E-02-6.89833E-02
 -1       421 1.63600E+00 8.74613E-01 7.53038E-01-4.06606E+00 7.23127E-03-4.81240E-01
 -1       422-4.82235E-01 3.57997E-02-8.10063E-02-4.11127E+00 4.54039E-02-5.18550E-01
 -1       423-3.62625E+00-1.31923E+00-1.48388E+00-5.47552E+00 1.12498E-02-7.46880E-01
 -1       424-5.55472E-01 2.45772E-02-1.33246E-01-4.09297E+00-4.54211E-02 5.14325E-01
 -1       425 2.13279E+00 1.06484E+00 8.75802E-01-4.14752E+00-1.84825E-02 5.38399E-01
 -1       426-4.15340E+00-1.08679E+00-1.62378E+00-5.60941E+00-6.00789E-03 8.00378E-01
 -1       427 3.94819E+00 1.45140E+00 1.66931E+00-5.70147E+00-2.78514E-02 8.25454E-01
 -1       428 4.56306E-01 2.85873E-01 1.79077E-01-4.10709E+00 3.35040E-02 5.32303E-01
 -1       429-1.68261E+00-5.50622E-01-6.70109E-01-3.98227E+00-7.61629E-03 5.06909E-01
 -1       430-2.18702E+00-7.42946E-01-7.85839E-01-4.07507E+00 5.81271E-03-5.62108E-01
 -1       431 3.74333E-01 2.47532E-01 1.70546E-01-4.10086E+00-2.68654E-02-5.49189E-01
 -1       432 3.99352E+00 1.48603E+00 1.68512E+00-5.70411E+00 3.05574E-02-8.22110E-01
 -1       433 8.00623E-01 5.17103E-01 3.95174E-01-4.07417E+00-5.10347E-03 3.39679E-01
 -1       434 1.53277E+00 7.52990E-01 6.01821E-01-4.10465E+00-5.44559E-02 9.49766E-02
 -1       435-3.73861E+00-5.95070E-01-1.30027E+00-5.12748E+00-5.86152E-02 3.56997E-01
 -1       436 1.31791E+00 7.34051E-01 6.15449E-01-3.96550E+00 9.40570E-04-6.25552E-02
 -1       437 2.05676E+00 9.92962E-01 8.59718E-01-4.11505E+00-3.58734E-02-3.23446E-01
 -1       438-3.42903E+00-5.94782E-01-1.20089E+00-4.89847E+00 4.81465E-02-1.08906E-02
 -1       439-3.72807E+00-6.41398E-01-1.30652E+00-4.99580E+00 4.79609E-02-3.62164E-01
 -1       440-3.53263E+00-9.09916E-01-1.29459E+00-6.15058E+00 1.00219E-01-6.36507E-01
 -1       441-1.30189E+00-2.63803E-01-4.70061E-01-6.86397E+00 3.37983E-03-2.23883E-01
 -1       442-2.52539E+00-8.62910E-01-1.06118E+00-5.73534E+00-5.72861E-02-4.19874E-01
 -1       443 8.69046E-01 5.22172E-01 4.15547E-01-6.92441E+00-3.01939E-02 1.70753E-01
 -1       444 2.80094E+00 1.47370E+00 1.28208E+00-6.39686E+00-8.89648E-03 5.89691E-01
 -1       445 3.74410E-01 4.24539E-01 1.85754E-01-6.52547E+00 4.78302E-03-4.90151E-03
 -1       446 2.68715E+00 1.38494E+00 1.18009E+00-5.93382E+00 7.84458E-03 3.99720E-01
 -1       447-1.46137E+00-3.76440E-01-4.61221E-01-4.07447E+00-4.92502E-02-1.00656E-01
 -1       448-7.06822E-01-1.29440E-01-2.51015E-01-4.05588E+00 5.26829E-03-3.50675E-01
 -1       449 3.53826E+00 9.77346E-01 1.35595E+00-5.23066E+00-5.17289E-02-3.77170E-01
 -1       450-2.51320E+00-8.23961E-01-9.52920E-01-3.98238E+00-5.25890E-02 3.22646E-01
 -1       451-1.76574E+00-5.90413E-01-7.06969E-01-3.88419E+00-6.56488E-04 4.36255E-02
 -1       452 3.18998E+00 9.29013E-01 1.22271E+00-4.90530E+00 7.00111E-02 2.08164E-02
 -1       453 3.49277E+00 9.72217E-01 1.33931E+00-4.98388E+00 1.87693E-02 3.58242E-01
 -1       454-1.02357E+00-1.45682E-01-3.51126E-01-6.83822E+00-2.88083E-03 1.90834E-01
 -1       455-3.21579E+00-1.10680E+00-1.29709E+00-6.32712E+00-9.23424E-03 6.12125E-01
 -1       456-2.98010E+00-1.00318E+00-1.13133E+00-5.90007E+00-9.27689E-03 3.87821E-01
 -1       457 2.84846E+00 1.49520E+00 1.30279E+00-6.42355E+00 8.78482E-03-5.82277E-01
 -1       458 8.73469E-01 5.33267E-01 4.17642E-01-6.95020E+00 3.14059E-02-1.53905E-01
 -1       459 5.75504E-01 5.00526E-01 2.42931E-01-6.54567E+00 3.18262E-05 2.70129E-02
 -1       460 2.66255E+00 1.38643E+00 1.18405E+00-5.98268E+00 3.68842E-03-3.82032E-01
 -1       461-1.66982E+00-4.52183E-01-6.36884E-01-6.14849E+00 1.67236E-03-1.10895E-01
 -1       462 6.24680E-02 2.72588E-01 6.96136E-02-6.34681E+00 1.73143E-02-6.01805E-02
 -1       463 1.49131E+00 9.02468E-01 7.17855E-01-6.15888E+00-1.92972E-03 1.27929E-01
 -1       464 2.13201E+00 1.15124E+00 9.84742E-01-5.56061E+00-2.12936E-03 1.41385E-01
 -1       465 2.23580E+00 1.20223E+00 1.03116E+00-5.71283E+00-3.41891E-03 2.26901E-01
 -1       466-2.05990E-01 1.97210E-01 8.94262E-02-6.30146E+00-3.10283E-02 9.28595E-02
 -1       467 8.02945E-01 4.74609E-01 3.94918E-01-6.40632E+00-2.35330E-02-3.17110E-02
 -1       468-7.20914E-01-3.82399E-02-2.28041E-01-6.32152E+00-1.50278E-03 9.96302E-02
 -1       469 2.20957E+00 1.20067E+00 1.02281E+00-5.93818E+00 2.79894E-03-1.85656E-01
 -1       470 1.02860E+00 6.96271E-01 5.17198E-01-5.97303E+00 9.61708E-04-6.38124E-02
 -1       471-2.55384E+00-8.50605E-01-1.02159E+00-5.68959E+00 3.35430E-03-2.22649E-01
 -1       472-2.14106E+00-6.76030E-01-8.45373E-01-5.63704E+00 1.76085E-03-1.16912E-01
 -1       473-2.16149E+00-6.47438E-01-8.90487E-01-5.68646E+00 4.32007E-03 4.39732E-02
 -1       474-1.45898E+00-3.71548E-01-5.49426E-01-5.92294E+00-9.42852E-04 6.26069E-02
 -1       475-2.49121E+00-8.16386E-01-9.92546E-01-5.86157E+00-2.87600E-03 1.90821E-01
 -1       476 2.05561E+00 1.06152E+00 9.65601E-01-5.67608E+00-6.72657E-03-4.08515E-02
 -1       477 6.81417E-01 4.12463E-01 3.59705E-01-6.20276E+00 2.63498E-02-2.56363E-02
 -1       478-8.93458E-01 9.43212E-02-2.80811E-01-6.17008E+00 2.64574E-03 1.83337E-02
 -1       479-9.71188E+01 2.89056E-03 3.32851E-02 1.18037E+00-5.42763E-03 6.64540E-01
 -1       480-6.00962E+01-1.72174E-02-4.37230E-02 5.82275E-01 1.39835E-02 5.98877E-01
 -1       481-2.34427E+01 2.11613E-02-3.60125E-02-1.04854E-02 3.57380E-02-7.08211E-01
 -1       482-1.33952E+02-2.01132E-01-3.86194E-02 1.36055E+00 5.77026E-03 6.67863E-01
 -1       483-1.15545E+02-7.95581E-02-7.24568E-02 1.21589E+00-2.79393E-02-5.96460E-01
 -1       484-7.84083E+01-2.20111E-01-1.44142E-01 3.41252E-01-9.63544E-02-3.51904E-01
 -1       485-4.19275E+01 2.21687E-01 3.69282E-02 3.84237E-01 4.56389E-04-6.77417E-01
 -1       486-1.52824E+02-1.94012E-04-4.37640E-02 1.48441E+00 2.07883E-02-6.27656E-01
 -1       487-2.64217E+02 1.79138E-01 1.21357E-01 9.20107E-01 6.30818E-04 6.58962E-01
 -1       488-2.44831E+02-4.88332E-02 1.76092E-02 1.02380E+00-3.40141E-02 6.72095E-01
 -1       489-2.82424E+02-2.80848E-02 1.29811E-01 4.51594E-01 1.03506E-02-8.95501E-01
 -1       490-2.08138E+02 5.36454E-02 2.27152E-03 1.40101E+00-5.56001E-02 6.17162E-01
 -1       491-1.80855E+02 1.04041E-01 4.98774E-02 1.75734E+00-3.44018E-02 7.06740E-01
 -1       492-2.26421E+02-6.31351E-02 4.56469E-02 1.31469E+00 5.38357E-03 6.14586E-01
 -1       493-3.01064E+02 2.54204E-01-5.55014E+00 7.43323E-01-5.66114E-01 3.04910E+00
 -1       494-2.92513E+02-1.72476E-01-9.37353E-01-1.70987E-01-3.51913E-02 6.81540E-01
 -1       495-1.33958E+01 5.96850E-02-7.06193E-02-2.27518E-01-6.48870E-02 7.83276E-01
 -1       496-1.61559E+02-2.11698E-01-1.65851E-01 1.16326E+00 7.98214E-02 3.84529E-01
 -1       497-3.20220E+01-2.11367E-01-1.88466E-01-1.26455E-01 1.12842E-01 3.67571E-01
 -1       498-2.53853E+02-1.75084E-01-6.70147E-02 1.16269E+00 6.72468E-04-6.30944E-01
 -1       499-1.98657E+02-2.61368E-01-1.64881E-01 1.06864E+00-7.35697E-02-3.70466E-01
 -1       500-1.71089E+02-7.89545E-02-3.02972E-02 1.45789E+00 1.05332E-03-5.63595E-01
 -1       501-2.35627E+02-2.65905E-01-1.39736E-01 8.39894E-01-6.61113E-02-3.60730E-01
 -1       502-2.17632E+02 1.19061E-01 3.90668E-02 1.53642E+00 3.11841E-03-6.61249E-01
 -1       503-3.09872E+02 2.23597E+01-3.40232E+01-4.03122E+00 7.19588E-01-7.71723E+00
 -1       504-3.94417E+00 2.79231E-01 4.24713E-01-1.27097E+00 5.00384E-02-4.11165E-01
 -1       505-9.67390E+01-1.52983E-01-1.36712E-02 1.24856E+00 3.78313E-03-7.12567E-01
 -1       506-6.04336E+01 1.29440E-01 8.02868E-02 5.12062E-01 3.30532E-02-6.02767E-01
 -1       507-1.33649E+02-2.03636E-01-5.47341E-03 1.55194E+00 1.89349E-02-7.00533E-01
 -1       508-1.15428E+02-2.45623E-01-1.76195E-01 7.83988E-01 1.17668E-01 3.38693E-01
 -1       509-7.88897E+01 1.25375E-01 2.70850E-02 9.48031E-01-7.08058E-03 6.55031E-01
 -1       510-2.92630E+02-1.02247E-01-9.23020E-01-1.06879E-02 4.33770E-02-5.89908E-01
 -1       511-2.82751E+02 1.14528E-01 2.03751E-01 1.52367E-01-6.18502E-02 7.08690E-01
 -1       512-2.72687E+02-2.10750E-01 1.59146E-02 6.73394E-01 2.89278E-04 7.39195E-01
 -1       513-2.68463E+02-6.71249E-02 8.35882E-02 5.22874E-01-3.25041E-02 1.55210E-02
 -1       514-2.28524E+01-6.38378E-02-1.04191E-02 2.02778E-02-8.97218E-03 7.35751E-01
 -1       515-8.76030E+01-8.58226E-02-8.30435E-02 9.52647E-01-4.26691E-02 5.88018E-01
 -1       516-8.83688E+01 1.80453E-01 5.05200E-02 9.07009E-01 4.22075E-02-6.19943E-01
 -1       517-1.62370E+02 1.12648E-01 3.68254E-02 1.72197E+00 3.94790E-03-6.92316E-01
 -1       518-1.52400E+02-5.06738E-02-2.69078E-03 1.31577E+00-2.68983E-02 6.63767E-01
 -1       519-1.25494E+02 2.44503E-01 9.58098E-02 1.06512E+00 1.05168E-01-4.43361E-01
 -1       520-1.25525E+02 2.00310E-01 8.59963E-02 1.31011E+00-1.67519E-02 6.22954E-01
 -1       521-2.36146E+02 2.12654E-01 2.06478E-01 8.15373E-01-9.31938E-02 3.62132E-01
 -1       522-1.99185E+02 2.34347E-01 2.02958E-01 1.06091E+00-9.04926E-02 3.73153E-01
 -1       523-1.89221E+02-2.06056E-01-1.50622E-02 1.49075E+00 2.51307E-02 6.25300E-01
 -1       524-1.85071E+02-2.54879E-02 3.01049E-02 1.35172E+00 1.45168E-02 1.14940E-02
 -1       525-2.08363E+02 4.37735E-02 1.02551E-02 1.43082E+00 2.36785E-02-6.11832E-01
 -1       526-6.94608E+01-3.21615E-03 3.01620E-03 7.19690E-01-1.36685E-02-6.74823E-01
 -1       527-6.96015E+01 2.53693E-02-1.26532E-02 7.21752E-01-2.16897E-02 6.23322E-01
 -1       528-1.71471E+02 4.80662E-02 2.33575E-02 1.48477E+00-1.77393E-02 6.07073E-01
 -1       529-3.20772E+01-6.47089E-02-6.22276E-02 6.90975E-02-4.86153E-02-5.87165E-01
 -1       530-4.18488E+01 1.85547E-01 6.56468E-02 3.16846E-01-1.12251E-02 6.43069E-01
 -1       531-2.26482E+02-9.37666E-02 8.41954E-03 1.36941E+00 1.06176E-02-6.28788E-01
 -1       532-2.45362E+02 1.85179E-01 8.45881E-02 1.10920E+00 1.07687E-02-6.54790E-01
 -1       533-5.03087E+01-1.86719E-01-3.52395E-02 5.03926E-01-2.17053E-02 6.23755E-01
 -1       534-2.54000E+02-2.39119E-01-1.62731E-01 7.19467E-01 9.59257E-02 3.63852E-01
 -1       535-5.01505E+01-2.39639E-01-1.12925E-01 3.06368E-01-3.76383E-02-4.72975E-01
 -1       536-1.43661E+02 2.34663E-01 1.84926E-01 9.69201E-01-1.31317E-01 3.25084E-01
 -1       537-2.16913E+02-1.56362E-01-8.56414E-03 1.64563E+00-1.26273E-02 6.89429E-01
 -1       538-1.43522E+02 1.19974E-03 9.48063E-02 1.50278E+00 5.06078E-02-6.11828E-01
 -1       539-1.06488E+02 3.79072E-03 4.24109E-02 1.07660E+00 1.79234E-02 5.97112E-01
 -1       540-1.06236E+02-3.01507E-02 5.71263E-02 1.15797E+00-4.36358E-03-6.21286E-01
 -1       541-2.98702E+02 7.80622E-01-4.81482E+00-7.49631E-02 4.12432E-02 1.74422E-02
 -1       542-2.87355E+02-1.11085E-01-4.36715E-01-7.34328E-02 2.03730E-02 9.88726E-03
 -1       543-2.63740E+02 2.15935E-01 9.01054E-02 9.31846E-01-5.49514E-03-6.87771E-01
 -1       544-3.05120E+02 3.03838E+01-2.78539E+01 2.61032E+00-6.48258E-02 9.00005E+00
 -1       545-1.89799E+02 9.97301E-03 8.86516E-02 1.46570E+00-2.46276E-02-6.13600E-01
 -1       546-1.75723E+02-1.36239E-02 2.49333E-04 1.37745E+00-1.17665E-02 3.99356E-02
 -1       547-1.83407E+01-1.54980E-01-1.86018E-01-6.29504E-01 1.00459E-02-1.38961E-02
 -1       548-2.72291E+02-2.66394E-01-2.95910E-02 5.80463E-01-4.31617E-02-5.65539E-01
 -1       549-2.83878E+01 1.12725E-01 3.02621E-02-3.07105E-01-2.13487E-02 2.97209E-02
 -1       550-2.58836E+02-8.42382E-02 4.05877E-02 4.44563E-01 3.19194E-02-2.15228E-03
 -1       551-6.44308E+01-9.07569E-02-2.51081E-02 1.48547E-01 2.49000E-02-3.58888E-02
 -1       552-7.44222E+01 3.19220E-02 2.64425E-03 3.06091E-01 3.70479E-02-8.85463E-02
 -1       553-1.11675E+02 4.39532E-02 5.78700E-02 8.15053E-01-4.81764E-02 5.74723E-02
 -1       554-5.59338E+01 1.19902E-01-2.71756E-03 2.72729E-02-1.48799E-02-3.39702E-02
 -1       555-1.39006E+02 6.28183E-02 4.71823E-02 8.97785E-01-6.17378E-05 2.02137E-02
 -1       556-1.01855E+02-2.77517E-02-1.14039E-03 9.03337E-01 8.90384E-04-2.05193E-03
 -1       557-1.20150E+02-9.88879E-02-1.05561E-02 7.44808E-01 4.40589E-02 2.22732E-02
 -1       558-1.29398E+02 3.12672E-02 1.11551E-04 1.03388E+00-3.44951E-02 1.94867E-02
 -1       559-3.68150E+01-5.48977E-02-3.77526E-02-2.61274E-01 4.35540E-02 5.54469E-05
 -1       560-4.64121E+01-3.04351E-02-2.57400E-02 1.12790E-01 3.45371E-03-9.60850E-03
 -1       561-8.32069E+01-2.10920E-02 1.48051E-02 6.61974E-01-2.55117E-02 5.86201E-02
 -1       562-1.47393E+02-7.02596E-02-1.47208E-02 1.06337E+00 3.64990E-02 8.62295E-02
 -1       563-1.66519E+02-1.67896E-02 4.39028E-02 1.31440E+00 4.25780E-02-4.15676E-02
 -1       564-2.50367E+02 1.63165E-02 6.77680E-02 7.51158E-01-3.81468E-02 7.48619E-02
 -1       565-2.39900E+02-7.27547E-02 8.08777E-02 8.21406E-01-1.36235E-02 4.01444E-02
 -1       566-2.22030E+02-2.69838E-02 5.66918E-02 1.19293E+00-2.39397E-02 1.85652E-02
 -1       567-2.12774E+02 1.80841E-03 4.71570E-03 1.25770E+00-6.81087E-03-2.28146E-02
 -1       568-2.31832E+02 1.92468E-02-4.58927E-03 9.20913E-01-1.02465E-02-4.61018E-02
 -1       569-2.02982E+02-3.59756E-02 7.46903E-02 1.10556E+00-1.62070E-02 4.96852E-02
 -1       570-9.25099E+01-1.08791E-02-2.10669E-02 8.39224E-01 2.25408E-02-2.95703E-02
 -1       571-1.57717E+02 8.24927E-03 5.22092E-03 1.06086E+00-3.17305E-02 1.11562E-01
 -1       572-1.94872E+02 1.56146E-02-2.68004E-02 1.13532E+00-5.85563E-03-5.01672E-02
 -1       573-1.80407E+02-3.36294E-02-1.68006E-03 1.67028E+00 1.88755E-02-6.73699E-01
 -1       574-2.78041E+02 7.15711E-02 1.18665E-01 1.37414E-01-4.14451E-02 1.27894E-02
 -1       575-4.01834E+00 3.42868E-01 3.04072E-01-1.03597E+00-4.54218E-02 4.58910E-01
 -1       576-3.01240E+02 2.11861E-01-5.69835E+00 6.29837E-01 5.33453E-01-3.00687E+00
 -1       577-1.36708E+01 9.11471E-02-6.70483E-03-1.55139E-01 4.94297E-02-7.95823E-01
 -1       578-3.02307E+02 1.73757E+00-1.83908E+01 8.58521E-01 5.71099E-02-1.80641E-01
 -1       579-3.05560E+02 1.73665E+01-1.27547E+01 2.24611E+00-1.02498E+00 1.97974E+01
 -1       580-3.05601E+02 1.72585E+01-1.33415E+01 2.08004E+00 1.16873E+00-2.01715E+01
 -1       581-3.91861E+00 1.33556E-01 1.00406E-01-8.83524E-01-4.94890E-02 9.58935E-01
 -1       582-3.42928E+00 4.73223E-01 1.91925E-01-1.08806E+00 8.95658E-03-8.44389E-01
 -1       583-1.13629E+01 1.80468E-01-2.25981E-01-5.21074E-01-2.03809E-02 4.85243E-02
 -1       584-3.13287E+02-2.68704E+01-6.49302E+01-3.00057E+01-1.64860E-01 2.77002E+01
 -1       585-3.33601E+02-2.93795E+01-5.36054E+01-1.80454E+01 8.46637E+00 4.61796E+01
 -1       586-2.86612E+02 6.20087E+00 6.72865E-01 5.83800E+00-2.74376E+00 8.08291E+00
 -1       587-3.33662E+02-2.95043E+01-5.41019E+01-1.81727E+01-8.52479E+00-4.65275E+01
 -1       588-3.13820E+02-2.73301E+01-6.54678E+01-3.03359E+01 1.07130E-01-2.80357E+01
 -1       589-2.86705E+02 6.19427E+00 3.54682E-01 5.74153E+00 2.79116E+00-8.18723E+00
 -1       590 1.39349E+00 9.47471E-01 1.17632E+00-1.93152E+00 1.64867E-01-5.08956E-01
 -1       591 3.46069E+00 2.28987E+00 2.07835E+00-2.68164E+00-6.22176E-02-6.11296E-01
 -1       592-6.28684E+00 2.45070E-01-8.25698E-03-4.80624E-01-1.30141E-02-1.01273E+00
 -1       593 3.01652E+00 1.62767E+00 1.83329E+00-2.33685E+00-1.18886E-01 8.41825E-01
 -1       594 1.23039E+00 7.58478E-01 1.09545E+00-1.87137E+00-1.38533E-01 4.60996E-01
 -1       595-6.28598E+00 2.60530E-01 4.29975E-03-4.97242E-01 4.08742E-02 9.96102E-01
 -1       596-3.25407E+02-3.91928E+01-8.18627E+01-3.51042E+01 3.79270E+00-1.71120E+01
 -1       597-3.29286E+02-4.44319E+01-8.52153E+01-3.63927E+01-2.31228E+00-6.46184E+00
 -1       598-3.05867E+02 2.32123E+01-2.63150E+01 1.70150E+00 4.79610E-01-1.60783E+01
 -1       599-3.22211E+02-3.08565E+01-7.55464E+01-3.06135E+01-8.46514E-01 5.03859E+00
 -1       600-3.24123E+02-3.71650E+01-7.92100E+01-3.19551E+01-2.31235E+00 1.83818E+01
 -1       601-3.04732E+02 2.34148E+01-3.37157E+01 7.06732E-01 1.01570E+00 7.22047E-01
 -1       602-3.05442E+02 2.48633E+01-2.47022E+01 2.92692E+00-4.61797E-01 1.63238E+01
 -1       603 2.31028E+00 1.77366E+00 1.92393E+00-2.38574E+00-8.56704E-03 2.53971E-01
 -1       604 2.60503E+00 2.24637E+00 2.01033E+00-2.60471E+00-8.10046E-02 5.73340E-01
 -1       605-3.68629E+00 2.79143E-01 2.79451E-01-1.08288E+00-5.53115E-02 8.18445E-01
 -1       606 2.46648E+00 1.69285E+00 1.90546E+00-2.42969E+00 3.18098E-04-6.41120E-01
 -1       607 2.55354E+00 2.13421E+00 2.06592E+00-2.66287E+00 9.66621E-03-1.25757E-01
 -1       608-4.25458E+00 2.62516E-01 4.76185E-01-1.13238E+00 2.03930E-02 1.60011E-01
 -1       609-3.67265E+00 2.42812E-01 2.26150E-01-1.23291E+00 9.30009E-03-8.24300E-01
 -1       610-2.96630E+02-7.34946E-01-2.19911E+00 3.94109E-01 4.09797E-01-1.06208E+00
 -1       611-2.96855E+02-2.63596E+00-6.59341E+00 1.60329E+00-1.82325E+00-4.60153E+00
 -1       612-2.99913E+02 7.89995E-01-1.05053E+01 4.96649E-01 2.01362E-01-1.01197E+01
 -1       613-2.88829E+02-5.00293E-01-3.71329E-01 5.66431E-02-1.66223E-01 7.74741E-01
 -1       614-2.91123E+02-2.04162E-01-5.42148E-01 1.07710E-01-8.18933E-02 2.83005E-01
 -1       615-2.96334E+02 1.53255E-01-2.79685E+00 3.37830E-01 4.22099E-01-6.80690E-01
 -1       616-2.79921E+02 1.15678E-02 4.03390E-02 2.14059E-01-1.45075E-01 6.75648E-01
 -1       617-2.83637E+02 1.41722E-01 1.03689E-01 4.79452E-01-3.68410E-03 8.83676E-01
 -1       618-2.86713E+02 2.37645E-01 2.86296E-02 2.47793E-01-6.09076E-03 9.24137E-01
 -1       619-2.70554E+02-1.79853E-01-4.04105E-02 7.58919E-01-2.44301E-02 6.42437E-01
 -1       620-2.74952E+02-1.69436E-01-2.62089E-02 3.31072E-01 6.03725E-02 6.30015E-01
 -1       621-2.78027E+02-2.00005E-01-1.96110E-02 2.69560E-01-8.32722E-02 7.47673E-01
 -1       622-2.61174E+02 1.36850E-01 1.44822E-01 6.82097E-01-1.25100E-01 5.53384E-01
 -1       623-2.66106E+02 1.03473E-01 3.14553E-02 8.86770E-01 2.48282E-02 6.19145E-01
 -1       624-2.68281E+02 1.00312E-01 1.60659E-01 8.88442E-01 1.52380E-02 6.83108E-01
 -1       625-2.51949E+02-1.65377E-01-9.31286E-02 1.12432E+00-1.33182E-02 7.17564E-01
 -1       626-2.56335E+02-1.04682E-01-2.50825E-02 6.17307E-01 1.29918E-01 5.00180E-01
 -1       627-2.58385E+02 1.72467E-01 1.86561E-01 6.84818E-01 7.92429E-02 5.96337E-01
 -1       628-2.42600E+02-1.40923E-01 6.34603E-02 1.22129E+00-7.26320E-02 7.65900E-01
 -1       629-2.47513E+02 2.74960E-02-4.56399E-02 1.20082E+00 3.84733E-02 6.79278E-01
 -1       630-2.50141E+02-2.51147E-01-3.17918E-01 9.46006E-01-5.76708E-03 5.37728E-01
 -1       631-2.33901E+02-2.04203E-02-5.40507E-02 8.54862E-01-1.20620E-01 5.63555E-01
 -1       632-2.37960E+02 2.09245E-01 2.13436E-01 1.16421E+00-1.38421E-02 6.76211E-01
 -1       633-2.40075E+02 1.55093E-01 1.41551E-01 9.29720E-01-1.11058E-02 6.39264E-01
 -1       634-2.24281E+02-6.87915E-02-6.03180E-03 1.13133E+00-6.75252E-02 4.78755E-01
 -1       635-2.28919E+02-7.23974E-02 1.05457E-02 1.02919E+00 1.00661E-01 5.29162E-01
 -1       636-2.31897E+02-1.64260E-01-9.29743E-02 9.79903E-01-6.90397E-02 6.35584E-01
 -1       637-2.14909E+02-1.61880E-01-8.83326E-03 1.58321E+00-2.15048E-02 6.47044E-01
 -1       638-2.19458E+02-1.41802E-01-6.06881E-02 1.24410E+00 4.30030E-02 5.13918E-01
 -1       639-2.22030E+02-2.19057E-01-8.43917E-03 1.33503E+00-4.60684E-02 6.64329E-01
 -1       640-2.05568E+02-1.56357E-01 6.49897E-02 1.56818E+00-1.24094E-01 7.60860E-01
 -1       641-2.10551E+02 1.62484E-02-5.68751E-02 1.50875E+00 4.61165E-03 5.98095E-01
 -1       642-2.12592E+02 1.05581E-01-1.93079E-02 1.60086E+00 1.17274E-02 6.40968E-01
 -1       643-1.96934E+02-2.35516E-03-5.65163E-02 1.07592E+00-1.27878E-01 5.65981E-01
 -1       644-2.00984E+02 2.05384E-01 1.96586E-01 1.42271E+00-1.60430E-02 6.82850E-01
 -1       645-2.03010E+02 2.45723E-01 1.92210E-01 1.31046E+00 1.48162E-02 6.82045E-01
 -1       646-1.87273E+02-1.57950E-01-3.55702E-02 1.48783E+00-8.77235E-03 5.40454E-01
 -1       647-1.91999E+02-1.25392E-01-3.83328E-02 1.22284E+00 1.19195E-01 5.85163E-01
 -1       648-1.94886E+02-1.88441E-01-1.12008E-01 1.18134E+00-7.54829E-02 6.57743E-01
 -1       649-1.78303E+02 1.12853E-01 6.56810E-02 1.39693E+00-6.81554E-02 5.41103E-01
 -1       650-1.82833E+02 1.39676E-01 2.20545E-02 1.65969E+00-3.29364E-03 6.45417E-01
 -1       651-1.85088E+02-1.24260E-01 3.51379E-02 1.68170E+00-3.69484E-02 6.67710E-01
 -1       652-1.68855E+02 5.67812E-02 1.75754E-02 1.21229E+00-1.08890E-01 5.24786E-01
 -1       653-1.73545E+02 6.60041E-02 3.68051E-02 1.29450E+00 5.94750E-02 4.91291E-01
 -1       654-1.75801E+02 1.80763E-01 9.13298E-02 1.50493E+00 1.41727E-02 6.83065E-01
 -1       655-1.59539E+02-1.65183E-01-7.96659E-02 1.54520E+00-2.05678E-02 7.17258E-01
 -1       656-1.63883E+02-6.48355E-02-3.56614E-03 1.12203E+00 1.20276E-01 5.26876E-01
 -1       657-1.66031E+02 1.32345E-01 1.19049E-01 1.18612E+00 7.10477E-02 6.10376E-01
 -1       658-1.50168E+02-1.49243E-01 5.40871E-02 1.47809E+00-7.31691E-02 7.62680E-01
 -1       659-1.55097E+02 2.25422E-02-5.32677E-02 1.54398E+00 3.87816E-02 6.74930E-01
 -1       660-1.57731E+02-2.49326E-01-3.31788E-01 1.32539E+00-8.31112E-03 5.31325E-01
 -1       661-1.41427E+02 7.33695E-03-4.90510E-02 9.61711E-01-1.39928E-01 5.49138E-01
 -1       662-1.45508E+02 2.12978E-01 2.18934E-01 1.34944E+00-1.87760E-02 6.76906E-01
 -1       663-1.47622E+02 1.63433E-01 1.37352E-01 1.14384E+00-1.92906E-02 6.29747E-01
 -1       664-1.31909E+02-1.58150E-01-4.73305E-02 1.37624E+00-1.43508E-02 6.09534E-01
 -1       665-1.36417E+02-1.53980E-01-2.59484E-02 1.02320E+00 7.93441E-02 5.72177E-01
 -1       666-1.39349E+02-2.17575E-01-1.18595E-01 1.00505E+00-9.79380E-02 5.99164E-01
 -1       667-1.22585E+02 1.81833E-01 9.32670E-02 1.03240E+00-1.38702E-01 5.19752E-01
 -1       668-1.27401E+02 1.24340E-01-5.50565E-03 1.34057E+00 3.19596E-03 5.88979E-01
 -1       669-1.29625E+02 1.19795E-01 1.53143E-01 1.41367E+00 1.82104E-02 6.48311E-01
 -1       670-1.13544E+02-2.19784E-01-1.97884E-01 1.12748E+00 3.85225E-03 6.77294E-01
 -1       671-1.17690E+02-1.04253E-02 5.21623E-02 7.92695E-01 1.28695E-01 5.40520E-01
 -1       672-1.19567E+02 2.12457E-01 1.59320E-01 9.54685E-01 8.53684E-02 6.10653E-01
 -1       673-1.04074E+02-3.49708E-02 4.89870E-02 9.39871E-01-7.08164E-02 5.29637E-01
 -1       674-1.08877E+02 1.62696E-01-2.92482E-02 1.23328E+00 7.48463E-02 7.07554E-01
 -1       675-1.11578E+02-2.63536E-01-1.95522E-01 9.98956E-01-2.34039E-02 6.54723E-01
 -1       676-9.49603E+01 3.92578E-02-1.12502E-02 8.43087E-01-3.82205E-02 5.31917E-01
 -1       677-9.93175E+01-1.90670E-02 3.88401E-02 8.99624E-01 2.20169E-02 5.36713E-01
 -1       678-1.01962E+02-1.93581E-01-5.74142E-02 1.10975E+00 1.43538E-02 6.75853E-01
 -1       679-8.53194E+01-1.02968E-01 1.55924E-02 9.73813E-01-7.84345E-02 6.37621E-01
 -1       680-9.02920E+01 7.65928E-03-8.23872E-02 8.22190E-01 9.71546E-02 5.33571E-01
 -1       681-9.23629E+01 1.68750E-01 5.32152E-02 1.03037E+00-2.46709E-02 6.75520E-01
 -1       682-7.65460E+01 1.05529E-01-2.67056E-03 5.69979E-01-5.85270E-02 5.55287E-01
 -1       683-8.09105E+01 1.19059E-01 6.93463E-02 8.90437E-01 1.01699E-02 6.19021E-01
 -1       684-8.32725E+01-9.00857E-02-8.87019E-02 1.06215E+00-2.33864E-02 6.40345E-01
 -1       685-6.71701E+01 3.87293E-02 2.09288E-03 4.33867E-01-8.69306E-02 5.21616E-01
 -1       686-7.17048E+01 3.92662E-02 2.17817E-02 5.14895E-01 5.95903E-02 4.98976E-01
 -1       687-7.40573E+01 1.95465E-01 4.25347E-02 6.98810E-01 6.80855E-03 6.73830E-01
 -1       688-5.78575E+01 3.66513E-03-3.92883E-02 2.87779E-01-8.63105E-02 4.88933E-01
 -1       689-6.23861E+01-6.88931E-03 2.86225E-02 3.49460E-01 9.60798E-02 4.86888E-01
 -1       690-6.46647E+01 3.46484E-02 6.94396E-03 5.56232E-01 3.20627E-02 6.78636E-01
 -1       691-4.82803E+01-1.09772E-01 1.79351E-02 4.58593E-01-5.07900E-02 6.08898E-01
 -1       692-5.32068E+01-1.24898E-01-9.19466E-02 3.04902E-01 9.43442E-02 5.37438E-01
 -1       693-5.56841E+01-1.30840E-01-9.20810E-02 4.66726E-01-4.49262E-02 6.80152E-01
 -1       694-3.93655E+01 1.64493E-01 5.44518E-02-5.90789E-02-8.21976E-02 5.58977E-01
 -1       695-4.38448E+01 1.52469E-01 8.21484E-02 3.71273E-01 3.72968E-03 6.01890E-01
 -1       696-4.62188E+01-1.38572E-01-8.55991E-02 4.87078E-01-4.39286E-02 6.16084E-01
 -1       697-2.99934E+01-1.56062E-01-1.13454E-01 2.13355E-01-1.57918E-02 7.26573E-01
 -1       698-3.43833E+01-6.46348E-02-3.38529E-02-1.58041E-01 1.40193E-01 4.94788E-01
 -1       699-3.65459E+01 2.10189E-01 1.04126E-01-1.11296E-01 8.05655E-02 5.67583E-01
 -1       700-2.06257E+01-1.49040E-01 4.06914E-02 1.27890E-01-4.77212E-02 7.86835E-01
 -1       701-2.55783E+01 2.37550E-02-6.93230E-02 1.95754E-01 4.93550E-02 6.90693E-01
 -1       702-2.81775E+01-2.51120E-01-3.51927E-01 2.21690E-02 1.13222E-02 5.72318E-01
 -1       703-1.10271E+01-1.68638E-01-1.23039E-01-1.75315E-01-1.83621E-01 9.02734E-01
 -1       704-1.60948E+01 3.81312E-02-5.54412E-02-6.52506E-02 5.26931E-03 7.25337E-01
 -1       705-1.81172E+01 1.09790E-01-4.83670E-02-1.55786E-01 5.77665E-02 7.26690E-01
 -1       706-8.72775E+00 1.20128E-01 4.54017E-02-4.61099E-01-1.01033E-01 9.67397E-01
 -1       707-2.96851E+02-2.63610E+00-6.61300E+00 1.58072E+00 1.83155E+00 4.67980E+00
 -1       708-2.96558E+02-7.20221E-01-2.13169E+00 4.11329E-01-3.93637E-01 1.06947E+00
 -1       709-2.99956E+02 9.19093E-01-1.02913E+01 6.61664E-01-1.63638E-02 1.02151E+01
 -1       710-2.91102E+02-1.96520E-01-5.35860E-01 1.83604E-01 9.19283E-02-1.81214E-01
 -1       711-2.88570E+02-4.85412E-02-2.86938E-01 7.17675E-02 2.03490E-01-7.29811E-01
 -1       712-2.96333E+02 1.94802E-02-2.66167E+00 4.61124E-01-5.00115E-01 7.34343E-01
 -1       713-2.83703E+02-4.48477E-02 2.09248E-02 3.39334E-01 1.80477E-02-7.29713E-01
 -1       714-2.79646E+02 9.73670E-03 4.94146E-02 2.65551E-01 1.17952E-01-6.61349E-01
 -1       715-2.87134E+02 5.54856E-02-2.35136E-01 3.10048E-01 1.10118E-03-9.15430E-01
 -1       716-2.74763E+02-1.19957E-01-6.79471E-03 3.76901E-01-1.14706E-01-6.08558E-01
 -1       717-2.70333E+02-1.32555E-01 5.32166E-03 8.11473E-01 3.10178E-02-6.82039E-01
 -1       718-2.77493E+02-4.06487E-02 1.24638E-01 3.66105E-01 2.23550E-02-8.05479E-01
 -1       719-2.65756E+02 1.30716E-01 8.05255E-02 8.71740E-01-2.18124E-02-6.30041E-01
 -1       720-2.61357E+02 1.71033E-01 5.14646E-02 6.20216E-01 6.03358E-02-5.63898E-01
 -1       721-2.68337E+02-7.97685E-02-7.57405E-02 9.60974E-01 9.30564E-03-7.04389E-01
 -1       722-2.56603E+02-1.25223E-01-5.30545E-02 7.91165E-01-1.19551E-01-4.92511E-01
 -1       723-2.51777E+02-1.22493E-01-4.32736E-03 1.14940E+00 4.65866E-02-6.07095E-01
 -1       724-2.58932E+02 1.40838E-01 3.25723E-02 7.96138E-01-3.31366E-02-6.75353E-01
 -1       725-2.47367E+02 1.43519E-01 7.51618E-02 1.12833E+00-1.06250E-02-5.96579E-01
 -1       726-2.42877E+02 1.66424E-01 6.67244E-02 8.09141E-01 9.00811E-02-5.58388E-01
 -1       727-2.49756E+02-8.06676E-02-7.82257E-02 1.21695E+00 2.77275E-02-6.25780E-01
 -1       728-2.37825E+02-6.26235E-03 9.89496E-02 7.90889E-01-1.08332E-01-5.42897E-01
 -1       729-2.33735E+02-2.31767E-01-1.57638E-01 1.22010E+00 3.01675E-03-6.67975E-01
 -1       730-2.39920E+02 2.10153E-01 1.61234E-01 7.97176E-01-4.53230E-02-6.23070E-01
 -1       731-2.29164E+02 8.61444E-02-9.02548E-02 1.46273E+00-8.92339E-02-7.26537E-01
 -1       732-2.24087E+02-6.36969E-02 8.84098E-02 1.48336E+00 5.85314E-02-6.47801E-01
 -1       733-2.31825E+02-3.02974E-01-1.50472E-01 1.16569E+00 3.57845E-02-6.60700E-01
 -1       734-2.19651E+02 1.18390E-01 7.89969E-02 1.44689E+00-1.24131E-02-6.03840E-01
 -1       735-2.15289E+02 9.63626E-02 1.20850E-02 1.20527E+00 5.17576E-02-5.53141E-01
 -1       736-2.22063E+02-1.15500E-01-6.66039E-02 1.54772E+00 1.05833E-02-6.22407E-01
 -1       737-2.10446E+02 4.85834E-02 4.33540E-02 1.21959E+00-5.53815E-02-4.85952E-01
 -1       738-2.05830E+02 5.43794E-02 1.83358E-02 1.17696E+00 1.14902E-01-5.31265E-01
 -1       739-2.12816E+02 1.89131E-01 5.35078E-02 1.36259E+00-1.29738E-03-6.73469E-01
 -1       740-2.00852E+02-7.86110E-03 8.45753E-02 1.06323E+00-1.05455E-01-5.63942E-01
 -1       741-1.96774E+02-2.30238E-01-1.75375E-01 1.44480E+00 1.00566E-03-6.87590E-01
 -1       742-2.02864E+02 1.34054E-01 1.45796E-01 1.15533E+00-4.57557E-02-6.40952E-01
 -1       743-1.92124E+02 1.48138E-01-3.93141E-03 1.59984E+00-7.16863E-02-7.12112E-01
 -1       744-1.87374E+02-4.62386E-02 6.67550E-02 1.34990E+00 7.00871E-02-5.24517E-01
 -1       745-1.94836E+02-2.67365E-01-1.57646E-01 1.34876E+00 2.70815E-02-6.81632E-01
 -1       746-1.82606E+02-4.67029E-02 3.14746E-02 1.35939E+00-2.33030E-02-5.30716E-01
 -1       747-1.78257E+02 8.54439E-03-2.31958E-02 1.37667E+00 4.11011E-02-5.40257E-01
 -1       748-1.85253E+02-2.24372E-01-5.08004E-02 1.51288E+00-5.34436E-03-6.78019E-01
 -1       749-1.73585E+02 5.17149E-02-9.03402E-03 1.34664E+00-1.06388E-01-5.59771E-01
 -1       750-1.68762E+02-1.27890E-01-2.82723E-02 1.51168E+00 5.16305E-02-5.78152E-01
 -1       751-1.75603E+02 1.59549E-01 5.75614E-02 1.58159E+00 2.40434E-02-7.04584E-01
 -1       752-1.64331E+02 1.17820E-01 1.84027E-02 1.63898E+00-1.64932E-02-6.59311E-01
 -1       753-1.59815E+02 1.10968E-01 5.88129E-02 1.33419E+00 5.83898E-02-5.18029E-01
 -1       754-1.66667E+02-1.15026E-01 5.48699E-02 1.67915E+00 4.31698E-02-6.73408E-01
 -1       755-1.54979E+02 2.27523E-02 1.87378E-03 1.24701E+00-5.99664E-02-4.96944E-01
 -1       756-1.50444E+02 5.95558E-03-9.10660E-03 1.22701E+00 8.81681E-02-5.12719E-01
 -1       757-1.57225E+02 1.83560E-01 4.46421E-02 1.44435E+00-3.61968E-02-6.69465E-01
 -1       758-1.45738E+02-2.42223E-02 7.30446E-02 1.21411E+00-6.23965E-02-5.00743E-01
 -1       759-1.41211E+02-1.47759E-02-4.22676E-03 1.21210E+00 1.08273E-01-4.90489E-01
 -1       760-1.47952E+02 4.18755E-02 8.36160E-02 1.39807E+00-1.05221E-03-7.03015E-01
 -1       761-1.36258E+02-1.61548E-01-4.43590E-02 1.20575E+00-4.58347E-02-5.34908E-01
 -1       762-1.31701E+02-1.73409E-01 1.71058E-02 1.47587E+00 4.49577E-02-6.52569E-01
 -1       763-1.38885E+02-1.73817E-01-3.63825E-03 1.31326E+00 8.88537E-02-6.55356E-01
 -1       764-1.27192E+02 1.42048E-01 9.91784E-02 1.27262E+00 2.68299E-02-5.87026E-01
 -1       765-1.22923E+02 4.04369E-02-3.59416E-02 9.01975E-01 1.36172E-01-5.59685E-01
 -1       766-1.29261E+02 1.07129E-01 5.96705E-02 1.47633E+00 2.96124E-02-7.09092E-01
 -1       767-1.17929E+02-7.21265E-02 1.20169E-02 9.41424E-01-1.15814E-01-4.99176E-01
 -1       768-1.13343E+02-1.84965E-02-5.68701E-02 9.48919E-01 7.40515E-02-4.97655E-01
 -1       769-1.20541E+02-1.52253E-02-6.26006E-02 9.78893E-01-7.93997E-03-6.45860E-01
 -1       770-1.08628E+02-3.00234E-02 1.89089E-02 9.23569E-01-7.02536E-02-5.23738E-01
 -1       771-1.04095E+02-5.16683E-02-7.78480E-03 8.89888E-01 7.30329E-02-5.03377E-01
 -1       772-1.11100E+02-8.93993E-02-6.16367E-02 1.11703E+00 2.38228E-02-6.97138E-01
 -1       773-9.92979E+01-1.37336E-01-5.70929E-02 9.09177E-01-4.84086E-02-5.42333E-01
 -1       774-9.47447E+01-1.69769E-01-7.69714E-03 1.13206E+00 2.34092E-02-6.53608E-01
 -1       775-1.01846E+02-1.91325E-01-3.20171E-02 1.05822E+00 4.53051E-02-6.77452E-01
 -1       776-9.02871E+01 1.41368E-01 5.40962E-02 9.14170E-01 7.65830E-03-5.46393E-01
 -1       777-8.55603E+01 1.07396E-01 4.54897E-02 6.02626E-01 1.33322E-01-5.85652E-01
 -1       778-9.24910E+01 9.15729E-02 1.45289E-03 1.13917E+00-7.47245E-03-6.76491E-01
 -1       779-8.06026E+01 1.41969E-03 8.19683E-02 3.96814E-01-1.19895E-01-5.66873E-01
 -1       780-7.65433E+01-2.16750E-01-1.77019E-01 7.27044E-01-1.16699E-04-6.57100E-01
 -1       781-8.26801E+01 1.84935E-01 1.34591E-01 5.16427E-01-8.36090E-02-6.38183E-01
 -1       782-7.18911E+01 1.02397E-01-9.66156E-02 8.65491E-01-5.98670E-02-7.08055E-01
 -1       783-6.69467E+01-1.05631E-01 6.86623E-02 8.14909E-01 5.29315E-02-7.01384E-01
 -1       784-7.45906E+01-2.37649E-01-1.75730E-01 5.48389E-01 2.55484E-02-6.30873E-01
 -1       785-6.24980E+01 1.56636E-01 7.96831E-02 6.07004E-01-1.94118E-02-5.82783E-01
 -1       786-5.78587E+01 8.51053E-02-4.65948E-03 2.20329E-01 1.19190E-01-5.19269E-01
 -1       787-6.46908E+01 1.09551E-01 4.49042E-02 5.91078E-01-7.37469E-02-6.01586E-01
 -1       788-5.29071E+01-8.56673E-02-3.67659E-02 1.62781E-01-1.22358E-01-5.29129E-01
 -1       789-4.83409E+01-1.21085E-01-3.86374E-02 4.64051E-01 2.95567E-02-6.32526E-01
 -1       790-5.54380E+01-1.67348E-02 3.82565E-02 2.21204E-01 1.62129E-02-6.52408E-01
 -1       791-4.39141E+01 1.38496E-01 5.45540E-02 3.86350E-01-1.60206E-02-6.25981E-01
 -1       792-3.95201E+01 1.84168E-01 2.48818E-02-6.39335E-03 7.05405E-02-5.66062E-01
 -1       793-4.63493E+01-7.48558E-02-1.39872E-01 5.47625E-01 1.40430E-02-6.53933E-01
 -1       794-3.45838E+01 4.85815E-03 1.73894E-02-9.21316E-02-1.07207E-01-5.23016E-01
 -1       795-2.99837E+01-1.68002E-01-9.54833E-02 1.32717E-01 4.26938E-02-5.95522E-01
 -1       796-3.69066E+01 2.50252E-01 4.78336E-02 1.93011E-02-6.02540E-02-6.70555E-01
 -1       797-2.56079E+01 1.10227E-01-4.41473E-02 1.61211E-01-2.95317E-02-7.72525E-01
 -1       798-2.07988E+01-4.83155E-02 3.17257E-02 1.24868E-01 6.14242E-02-6.87021E-01
 -1       799-2.77388E+01-3.77523E-02 2.91712E-02-2.07612E-02 6.97580E-02-6.10376E-01
 -1       800-1.63079E+01 2.59136E-02-1.02620E-01 2.88757E-02-4.03798E-02-7.68286E-01
 -1       801-1.10276E+01-1.16321E-01-9.37693E-03-9.48772E-02 1.86587E-01-8.46836E-01
 -1       802-1.82203E+01 2.72116E-01 1.99599E-01-9.05639E-02 7.17565E-03-6.37522E-01
 -1       803-8.55979E+00 1.57221E-01 8.07718E-02-4.44106E-01 1.17982E-01-8.35639E-01
 -1       804-9.04057E+01-4.35522E-02-5.36409E-02 8.72377E-01-1.43938E-01 3.42783E-01
 -1       805-9.47718E+01 1.04770E-01 7.22386E-02 1.05781E+00 5.46225E-02 4.36185E-01
 -1       806-9.94838E+01-1.33791E-01-4.99962E-02 1.11529E+00-3.80785E-02 4.60172E-01
 -1       807-1.03868E+02-1.14710E-02 5.21352E-03 8.96769E-01 1.17693E-01 3.24646E-01
 -1       808-9.71252E+01-2.31497E-02 1.39784E-02 8.62761E-01 4.74686E-02 1.41640E-02
 -1       809-6.21915E+01 5.49467E-02 4.40885E-02 4.61818E-01-6.87636E-02 4.57017E-01
 -1       810-6.69770E+01 6.86238E-02 1.05034E-01 5.05478E-01 9.74982E-02 4.93932E-01
 -1       811-5.32859E+01-1.16449E-01 3.14264E-02 4.12058E-01-9.56119E-02 4.88050E-01
 -1       812-5.82230E+01 5.55073E-02-8.49937E-02 4.69815E-01 7.15156E-02 6.07050E-01
 -1       813-6.01957E+01 1.17623E-02-4.66420E-02 4.42723E-02-1.06554E-01-6.49241E-02
 -1       814-3.04039E+01 9.31764E-03-1.17453E-01-3.46826E-02-9.37369E-02-4.01367E-01
 -1       815-2.54095E+01-3.02893E-02-2.91324E-03-2.37495E-01 7.85068E-02-4.04067E-01
 -1       816-2.09444E+01 1.12629E-01-9.57766E-02-3.14517E-01-5.17102E-02-4.47425E-01
 -1       817-2.29932E+01 1.00502E-01 5.49351E-02-3.38646E-01 2.97590E-02-1.16367E-03
 -1       818-1.60082E+01-4.39543E-02-9.76383E-02-3.79430E-01 1.20417E-01-6.29947E-01
 -1       819-1.27543E+02 1.12636E-01 4.98611E-02 1.17564E+00-8.89690E-02 4.38460E-01
 -1       820-1.31825E+02 3.64596E-02-4.64794E-03 1.28473E+00-4.88643E-03 4.43353E-01
 -1       821-1.36606E+02-2.03858E-01-9.01156E-02 1.11599E+00-8.42818E-02 5.09633E-01
 -1       822-1.41726E+02-1.74019E-01-1.63242E-01 1.03817E+00 5.01586E-03 3.64409E-01
 -1       823-1.34468E+02-9.97304E-02 1.05822E-01 9.91136E-01-4.16912E-02 5.59636E-02
 -1       824-1.22792E+02 1.50711E-02 3.38881E-03 1.00902E+00-2.37467E-02-4.38787E-01
 -1       825-1.17869E+02-7.60723E-02-1.89489E-02 1.10174E+00 9.91787E-02-5.25357E-01
 -1       826-1.13730E+02-2.23273E-02-1.64624E-01 1.15247E+00-8.83949E-02-4.47262E-01
 -1       827-1.08668E+02-6.90931E-02 3.38150E-03 1.13746E+00 6.72479E-02-4.06686E-01
 -1       828-1.15957E+02 7.97335E-02 2.90029E-01 7.32920E-01-6.89501E-03-1.67745E-02
 -1       829-8.55481E+01 1.10222E-01 1.17850E-01 7.63704E-01-1.44917E-01-4.25131E-01
 -1       830-8.03711E+01 1.26326E-01 1.08687E-01 5.44999E-01 4.46968E-03-2.68205E-01
 -1       831-7.70089E+01-2.11771E-01-1.07056E-01 1.09174E-01-4.28209E-02-3.32739E-01
 -1       832-7.19788E+01-1.30802E-01 9.11529E-02 3.48495E-01 1.24516E-01-3.58851E-01
 -1       833-7.86380E+01 1.13566E-01 1.15209E-01 6.09227E-01 5.48725E-02 5.20210E-02
 -1       834-3.93256E+01 1.82511E-01 7.36186E-02 1.25315E-01-3.59832E-02-5.21345E-01
 -1       835-3.43791E+01 5.81981E-02 8.71118E-02 4.36395E-02 6.17598E-02-5.15098E-01
 -1       836-4.85566E+01-2.54492E-01-9.92367E-02 6.19211E-02-8.76136E-02-3.33910E-01
 -1       837-4.40197E+01 1.92128E-02 4.98400E-02 3.86377E-01 2.42083E-02-3.66144E-01
 -1       838-4.13765E+01 7.42466E-02-1.23927E-01-4.54215E-02 2.24684E-02 3.30480E-02
 -1       839-1.59704E+02 1.61831E-01-4.59398E-02 1.45295E+00-6.00374E-02-3.80233E-01
 -1       840-1.54904E+02 5.68778E-03-1.24286E-02 1.43199E+00 1.08193E-01-4.92604E-01
 -1       841-1.50404E+02 3.49282E-02 3.50426E-02 1.41607E+00-6.82119E-02-3.91770E-01
 -1       842-1.45260E+02-4.05812E-02 2.08349E-01 1.43278E+00 9.99891E-02-4.45385E-01
 -1       843-1.52871E+02-1.20996E-01-7.86140E-02 1.18167E+00-2.03175E-02 3.92637E-02
 -1       844-2.66218E+02 9.04757E-02 6.74370E-02 7.41911E-01-1.06503E-01 4.62700E-01
 -1       845-2.70578E+02 2.35522E-02 5.79966E-02 6.74497E-01-8.36072E-04 4.43888E-01
 -1       846-2.61104E+02 1.43115E-01 1.80774E-01 7.27962E-01 1.22021E-01 5.39849E-01
 -1       847-2.63393E+02 2.31877E-02-5.90512E-02 5.15935E-01 1.52677E-02 5.69664E-02
 -1       848-2.56108E+02 1.35117E-01 2.36187E-01 6.32602E-01-2.11133E-02 3.75960E-01
 -1       849-2.37471E+02 2.35788E-01 2.29568E-01 6.69389E-01-6.01305E-02 3.19805E-01
 -1       850-2.42606E+02 8.98373E-02-4.53463E-02 8.24610E-01 4.31305E-02 3.11902E-01
 -1       851-2.47509E+02-9.86900E-02 9.94819E-02 8.11540E-01-1.35398E-01 2.81640E-01
 -1       852-2.52779E+02-2.78290E-01-1.37187E-01 4.72629E-01 7.49098E-02 3.22230E-01
 -1       853-2.45134E+02-7.04061E-02-7.74278E-02 8.23615E-01-6.76897E-02-7.17658E-02
 -1       854-2.90333E+02-1.47981E-01-9.24325E-01 2.17629E-01-4.23034E-02-2.76165E-01
 -1       855-2.84823E+02-7.75109E-02-8.52912E-02 3.11314E-01 7.46485E-02-5.79329E-01
 -1       856-2.82514E+02-8.58788E-02-2.81768E-01-7.78879E-04-3.21311E-03-4.19160E-02
 -1       857-2.80250E+02 7.79546E-03 1.23409E-02 4.25446E-01-8.62537E-02-6.07317E-01
 -1       858-2.75312E+02-3.37697E-02 8.06529E-02 4.09702E-01 4.71755E-02-5.16166E-01
 -1       859-2.00540E+02 2.56900E-01 2.28195E-01 9.20647E-01-5.93286E-02 3.31485E-01
 -1       860-2.05550E+02 1.77118E-01 1.49378E-02 1.27463E+00 7.93476E-02 3.35851E-01
 -1       861-2.10786E+02 7.58727E-02 3.58993E-03 1.23399E+00-1.39549E-01 2.56159E-01
 -1       862-2.14955E+02 3.49968E-02 8.45733E-02 1.48134E+00-3.21773E-03 4.55551E-01
 -1       863-2.08252E+02-1.01290E-01-1.30019E-01 1.16147E+00-6.24126E-02-6.09939E-02
 -1       864-1.82857E+02-7.58484E-02 6.67513E-02 1.57396E+00 2.91374E-03 4.55201E-01
 -1       865-1.87130E+02-1.08396E-01 4.40530E-02 1.46579E+00 7.99724E-02 3.76230E-01
 -1       866-1.78173E+02 1.55757E-01 3.33688E-02 1.56780E+00 7.42686E-02 4.43827E-01
 -1       867-1.80492E+02 5.07220E-03-1.67109E-02 1.36899E+00 3.98983E-02-6.49246E-03
 -1       868-1.73564E+02-3.41847E-02 4.33476E-02 1.46118E+00-8.28926E-02 4.82090E-01
 -1       869-2.29038E+02-1.13654E-01-1.02302E-01 1.19003E+00-1.46188E-01 4.23128E-01
 -1       870-2.34303E+02-2.12050E-01-2.23927E-01 9.77801E-01 2.04465E-02 2.03057E-01
 -1       871-2.19606E+02-1.81432E-01 7.16407E-02 1.40370E+00-8.47327E-02 4.25063E-01
 -1       872-2.24275E+02 1.85799E-02 4.49134E-02 1.28007E+00 7.55601E-02 4.73783E-01
 -1       873-2.26556E+02 7.37802E-02 2.00703E-01 1.04458E+00-6.94618E-02 5.60445E-02
 -1       874-3.00383E+02-8.65159E-02-6.72441E+00 4.35521E-01-1.11145E-01 1.46373E+00
 -1       875-2.95285E+02-7.74624E-02-2.78360E+00-4.55637E-02 1.08426E-01-1.26399E-01
 -1       876-3.00194E+02 1.53299E+00-1.20950E+01 1.45480E+00-1.27723E-02 1.95746E+00
 -1       877-3.00933E+02 1.56668E+00-1.25185E+01 6.32667E-01 8.55043E-02 2.46046E-03
 -1       878-2.96423E+02 3.00585E+00-1.68899E+01 2.60535E+00 2.59208E-01 7.57456E+00
 -1       879-2.95141E+02 2.37419E+00-2.41025E+01 2.04313E+00 6.85681E-01 3.43311E+00
 -1       880-2.84593E+02 1.40878E-01-5.02436E-03-1.92885E-01-4.11300E-02 4.39286E-01
 -1       881-2.90052E+02-9.70945E-02-8.70168E-01 1.44034E-01 8.88840E-02 1.54252E-01
 -1       882-2.95212E+02-7.63742E-03-2.66711E+00-1.30635E-01-9.06890E-02 1.75617E-01
 -1       883-2.92773E+02 2.82393E-01-1.73848E+00 4.93484E-02-3.23196E-02-3.09448E-02
 -1       884-3.00447E+02-5.40097E-02-6.54141E+00 3.98931E-01 4.68627E-02-1.52617E+00
 -1       885-1.59351E+01-9.22738E-03-6.84438E-02-3.39810E-01-9.01486E-02 5.02280E-01
 -1       886-2.08506E+01 7.77990E-02-3.39920E-02-3.34982E-01 2.90912E-02 4.98778E-01
 -1       887-1.23324E+01 3.45226E-02-1.16725E-01-3.46176E-01 1.73511E-02 5.38783E-01
 -1       888-1.52538E+01-3.49500E-01-6.99023E-01-4.19445E-01-6.87625E-03-8.22421E-03
 -1       889-9.16748E+00-4.57717E-02-1.23128E-01-5.28083E-01-3.11300E-02 6.18793E-01
 -1       890-8.36014E+00 1.27641E-01-3.60267E-02-5.82295E-01-1.33065E-03 3.70255E-01
 -1       891-1.55167E+02-1.66866E-01 7.63955E-02 1.07288E+00-1.41815E-01 2.97463E-01
 -1       892-1.60279E+02-2.05418E-01-8.21476E-02 8.26586E-01 5.36621E-02 3.91269E-01
 -1       893-1.63713E+02 1.33654E-01 1.39406E-01 1.23957E+00-5.15543E-03 2.93137E-01
 -1       894-1.68796E+02 8.99800E-02 1.03639E-01 1.37822E+00 1.35339E-01 4.41837E-01
 -1       895-1.61945E+02 1.08772E-01 1.37822E-01 1.29314E+00-5.30202E-02-3.37437E-02
 -1       896-2.54564E+01-9.78513E-02 2.84312E-02-1.82165E-01-1.35157E-01 3.53576E-01
 -1       897-3.07948E+01-2.19960E-01-2.12580E-01-4.53222E-01 9.03473E-02 3.40764E-01
 -1       898-3.41173E+01 1.64529E-01 1.69310E-01-1.26122E-01-8.19969E-03 3.70198E-01
 -1       899-3.92064E+01 1.95869E-01 7.04990E-02 3.09484E-02 8.79920E-02 4.94707E-01
 -1       900-3.26232E+01 1.41285E-01 2.65844E-01-3.13553E-01 1.27819E-02-2.05137E-02
 -1       901-2.52199E+02-9.45884E-02-9.06125E-02 1.08322E+00-8.62241E-02-4.00133E-01
 -1       902-2.47500E+02-3.79511E-02 3.57073E-02 1.04643E+00 2.87429E-02-3.80491E-01
 -1       903-2.61215E+02 1.74339E-01 1.24252E-01 7.50185E-01-4.35918E-02-5.20781E-01
 -1       904-2.56446E+02 3.00188E-03 9.54094E-02 8.98073E-01 9.15584E-02-5.52779E-01
 -1       905-2.54679E+02 2.56627E-02 3.01971E-01 5.45207E-01 2.37904E-03-9.11768E-03
 -1       906-2.05713E+02 9.87499E-02 1.92748E-01 1.33077E+00-1.36320E-01-4.23436E-01
 -1       907-2.00442E+02 1.98263E-01 3.05289E-01 1.18527E+00 3.66826E-02-2.05216E-01
 -1       908-1.97324E+02-2.88281E-01-1.88418E-01 9.40957E-01-4.43475E-02-3.29671E-01
 -1       909-1.92273E+02-1.68242E-01 6.02285E-02 1.31682E+00 8.12957E-02-3.58811E-01
 -1       910-1.98925E+02-1.15454E-02 2.04268E-02 1.13837E+00 8.77665E-02-5.51384E-04
 -1       911-1.68583E+02-5.74820E-02 7.70854E-02 1.41054E+00-9.17852E-02-3.53710E-01
 -1       912-1.64348E+02-6.87711E-02 5.89514E-02 1.55696E+00 1.93301E-02-4.93618E-01
 -1       913-1.73666E+02-2.03841E-02-2.57281E-02 1.42469E+00 1.27441E-01-3.37452E-01
 -1       914-1.71188E+02-1.02101E-01-1.00380E-01 1.26070E+00 7.73379E-02 5.00702E-02
 -1       915-1.78073E+02 1.03837E-01 6.12345E-02 1.59430E+00-4.22502E-02-4.51125E-01
 -1       916-2.34272E+02-2.74794E-01-1.58998E-01 7.11199E-01-4.60109E-02-3.20338E-01
 -1       917-2.29240E+02-2.00947E-01 6.43893E-02 1.14488E+00 9.78086E-02-3.47732E-01
 -1       918-2.42788E+02 1.43706E-01 1.92999E-01 9.60087E-01-1.24181E-01-3.92034E-01
 -1       919-2.37385E+02 1.58797E-01 3.18604E-01 9.27731E-01 3.38119E-02-2.03278E-01
 -1       920-2.35872E+02-2.44980E-02 4.10613E-02 8.98425E-01 8.61615E-02-4.91918E-03
 -1       921-2.15188E+02 1.57993E-01 1.86542E-02 1.42147E+00-3.56968E-02-4.03330E-01
 -1       922-2.10502E+02-3.27339E-02 2.43790E-02 1.37458E+00 9.38677E-02-4.72899E-01
 -1       923-2.23968E+02-4.02977E-02 7.75825E-02 1.14843E+00-1.38191E-01-3.10995E-01
 -1       924-2.19723E+02-4.39256E-02 1.88399E-02 1.45876E+00 8.97709E-03-4.04710E-01
 -1       925-2.17395E+02-2.34731E-02 1.65206E-02 1.26268E+00-5.75009E-02-1.07506E-03
 -1       926-2.96886E+02 2.32811E+00-2.49992E+01 1.30300E+00 2.94581E-01-3.75936E+00
 -1       927-2.98199E+02 6.00184E-01-1.79171E+01 1.46178E+00-1.38895E-01-6.95032E+00
 -1       928-3.00728E+02 1.71177E+00-1.23802E+01 1.52283E+00-9.28858E-02-2.18700E+00
 -1       929-8.02340E+00 1.77291E-01 7.24166E-02-8.30616E-01-3.13172E-02-2.33223E-01
 -1       930-8.75890E+00 2.89772E-02 4.21612E-02-6.39040E-01 5.74390E-02-7.55233E-01
 -1       931-1.21797E+01 6.25063E-02-1.33608E-01-4.12751E-01-3.59933E-02-5.72460E-01
 -1       932-9.47334E+01 5.50282E-02-1.89198E-02 1.04679E+00 8.59974E-03-4.61549E-01
 -1       933-9.04710E+01 6.77479E-02-9.88147E-03 9.18560E-01 8.21641E-02-3.91952E-01
 -1       934-1.04140E+02-2.28756E-02-4.24075E-03 1.06764E+00-7.56186E-02-4.57815E-01
 -1       935-9.94208E+01-1.81440E-01 1.88206E-02 1.07652E+00 8.99616E-02-4.27701E-01
 -1       936-6.69227E+01 1.25338E-01-3.26277E-03 3.56576E-01-4.29326E-02-5.08898E-01
 -1       937-6.22397E+01 1.71720E-02 8.76563E-02 4.69057E-01 8.93507E-02-5.55649E-01
 -1       938-5.81125E+01 4.83351E-02-5.47016E-02 3.25997E-01-9.43300E-02-4.36806E-01
 -1       939-5.30318E+01-3.40707E-02-7.12393E-02 2.12042E-01 7.03338E-02-4.40108E-01
 -1       940-1.31663E+02-3.65167E-02-2.73940E-02 1.39586E+00-2.38870E-02-3.91733E-01
 -1       941-1.27185E+02 2.82046E-01 1.15337E-01 9.63690E-01 8.58717E-02-2.77111E-01
 -1       942-1.41330E+02-4.00461E-03-1.40064E-02 1.38794E+00-4.60541E-02-5.31619E-01
 -1       943-1.36538E+02-1.80361E-01-3.47951E-02 1.28913E+00 9.22216E-02-5.27524E-01
 -1       944-1.17382E+02 1.44604E-01 1.78764E-01 8.63962E-01-7.86921E-03 3.66575E-01
 -1       945-1.22366E+02 1.85272E-01 1.76804E-01 1.06692E+00 1.39646E-01 5.60952E-01
 -1       946-1.08936E+02-1.51926E-01 2.23081E-02 9.39675E-01-1.05530E-01 3.33505E-01
 -1       947-1.14076E+02-2.75928E-01-2.07659E-01 6.08978E-01 6.94333E-02 2.67430E-01
 -1       948-8.09799E+01-4.91577E-02 6.67695E-02 8.98714E-01-2.10984E-02 4.52460E-01
 -1       949-8.52512E+01-9.42553E-03 5.64812E-02 7.89977E-01 9.79218E-02 4.15503E-01
 -1       950-7.16615E+01 6.28213E-03-1.97953E-02 6.72580E-01-1.11284E-01 5.15387E-01
 -1       951-7.64722E+01 1.73554E-01-4.22751E-02 7.35328E-01 2.07907E-02 3.73279E-01
 -1       952-2.75518E+02-1.95641E-01 3.53378E-03 4.09869E-01-9.65013E-02 5.53451E-01
 -1       953-2.80712E+02-1.79790E-01-1.35636E-01 2.67537E-01 2.24867E-02 4.70648E-01
 -1       954-2.73246E+02 3.20581E-02 3.20804E-01 3.35189E-01-5.03482E-02 6.70955E-02
 -1       955-2.65954E+02 2.10185E-02 1.51106E-01 8.69661E-01 1.91913E-02-3.51258E-01
 -1       956-2.70675E+02-2.96774E-01 2.17769E-02 4.14594E-01-1.03668E-01-3.63804E-01
 -1       957-8.78997E+01-6.37382E-02-1.12276E-01 6.53696E-01-8.40228E-02-2.76409E-02
 -1       958-1.44994E+02 2.91367E-01 2.31503E-01 8.12893E-01-8.45091E-02 2.68259E-01
 -1       959-1.50250E+02 7.68285E-02-6.27861E-02 1.08964E+00 5.16818E-02 3.36216E-01
 -1       960-1.24710E+02-1.21734E-02-1.98915E-01 8.87187E-01 3.35555E-02 7.62998E-02
 -1       961-1.92044E+02-1.41201E-01-1.68583E-01 1.37788E+00-1.56587E-01 4.10728E-01
 -1       962-1.97340E+02-1.88448E-01-2.33943E-01 1.19661E+00 3.58846E-02 2.03892E-01
 -1       963-1.89618E+02 4.89601E-02 1.55645E-01 1.21870E+00-7.20425E-02 3.90037E-02
 -1       964-1.87161E+02-2.68406E-03 6.85110E-02 1.31582E+00-1.31630E-01-3.23955E-01
 -1       965-1.82786E+02-1.24072E-01-4.01797E-02 1.57477E+00 5.14024E-02-4.47047E-01
 -1       966-6.92590E+01-1.59535E-02-2.95819E-02 2.73207E-01 6.43406E-02 1.10782E-02
 -1       967-4.39697E+01-2.53113E-02 2.39542E-02 3.02342E-01-2.14959E-02 4.13834E-01
 -1       968-4.83735E+01-1.09914E-01-1.52052E-02 3.19110E-01 8.50311E-02 4.17821E-01
 -1       969-5.09979E+01 3.30950E-02 1.79001E-01 1.20235E-01-1.11794E-03-7.83619E-03
 -1       970-1.43136E+02-8.42757E-02-2.16316E-01 9.43640E-01 1.87209E-02-3.13821E-03
 -1       971-1.06250E+02 7.40635E-02 9.70097E-02 8.88408E-01 8.40054E-03 1.52198E-02
 -1       972 9.76639E+01 4.18675E-02 2.03118E-02-1.53240E+00-7.40001E-03-6.38407E-01
 -1       973 6.01920E+01 1.66352E-02 2.72557E-02-1.39344E+00 1.01349E-02-3.80459E-01
 -1       974 2.33307E+01 3.54445E-02 5.57794E-02-5.85584E-01-3.01097E-02 7.04405E-01
 -1       975 1.34039E+02 1.01656E-01 3.42801E-02-1.96299E+00-6.54386E-05-6.10285E-01
 -1       976 1.16500E+02-4.25464E-02-4.38621E-02-1.69628E+00-6.68325E-03-6.23693E-01
 -1       977 7.84764E+01 2.31530E-01 1.78493E-01-1.72332E+00 9.46305E-02-3.82820E-01
 -1       978 4.19422E+01-1.36518E-01-1.14634E-02-8.53809E-01 9.37233E-03 6.67178E-01
 -1       979 1.53088E+02 1.26355E-02 3.17615E-02-2.09198E+00-2.01900E-02 6.57842E-01
 -1       980 2.64904E+02-6.49236E-02 9.59722E-03-1.37567E+00 2.62507E-03-7.11791E-01
 -1       981 2.46280E+02-5.20788E-02 3.76998E-02-1.78526E+00 4.11240E-03-6.27114E-01
 -1       982 2.83656E+02-2.26834E-02-7.65650E-02-1.19649E+00-9.86441E-03 9.14700E-01
 -1       983 2.09071E+02-4.24812E-02 3.34632E-02-2.07985E+00-2.60224E-04-6.20431E-01
 -1       984 1.81157E+02 2.04310E-02 1.10105E-03-2.43590E+00 3.72608E-02-4.65269E-01
 -1       985 2.27017E+02 1.16134E-01 2.65439E-02-1.98958E+00-6.39148E-03-6.15422E-01
 -1       986 3.02356E+02-2.58894E-01 5.12754E+00-1.10088E-01-5.38483E-01-2.78563E+00
 -1       987 2.93464E+02 4.31039E-02 8.84469E-01-1.02423E+00-6.60169E-03-7.53835E-01
 -1       988 1.32514E+01 1.59496E-03 6.58893E-02-5.15670E-01-3.99298E-02-8.52651E-01
 -1       989 8.78596E+01 8.58124E-02 7.18906E-02-1.47848E+00 2.54109E-02 5.86494E-01
 -1       990 1.62639E+02-1.19109E-01 5.34155E-03-1.95777E+00 1.50465E-02-6.44547E-01
 -1       991 3.22343E+01 5.47453E-02 1.28986E-01-7.04875E-01 1.91277E-02-6.28614E-01
 -1       992 1.25831E+02-1.31064E-01-5.11152E-02-1.80911E+00-2.75175E-02 6.42185E-01
 -1       993 6.98106E+01-8.03085E-03 2.31210E-02-1.26600E+00-2.00031E-03 6.21527E-01
 -1       994 1.06513E+02 3.25181E-02-2.69979E-02-1.78799E+00-2.51935E-02 5.86012E-01
 -1       995 2.54915E+02 2.00475E-01 1.89115E-01-1.93429E+00-9.21231E-02 3.72589E-01
 -1       996 1.99929E+02-2.07636E-01-1.92247E-01-2.40748E+00 5.33090E-02 4.13393E-01
 -1       997 1.71960E+02-3.43411E-02 1.02979E-02-2.14677E+00-3.32332E-03 6.07440E-01
 -1       998 2.36957E+02-2.24683E-01-1.56470E-01-2.28647E+00 7.41650E-02 3.69117E-01
 -1       999 2.17673E+02 1.32345E-01 4.63419E-02-1.78018E+00-2.67846E-03 7.14449E-01
 -1      1000 3.07322E+02-2.22145E+01 3.33091E+01-2.05025E+00 8.48495E-01 7.34369E+00
 -1      1001 4.08867E+00-1.71073E-01-3.97879E-01-1.33510E+00 3.40651E-02 3.81465E-01
 -1      1002 2.92838E+02 1.40358E-01 7.81302E-01-9.47043E-01-9.79559E-02 9.51357E-01
 -1      1003 2.83281E+02 1.31886E-01 7.27639E-02-1.22977E+00 1.03346E-01-9.14656E-01
 -1      1004 2.73954E+02 1.06959E-02-2.16131E-02-1.34017E+00 3.63461E-02-7.37177E-01
 -1      1005 2.69429E+02-1.08704E-02-1.04401E-02-1.59412E+00 1.65154E-02 1.18428E-02
 -1      1006 2.29552E+01 1.20420E-01 2.05612E-02-5.49399E-01 2.35354E-02-7.34391E-01
 -1      1007 8.84008E+01-3.46013E-02-7.61453E-03-1.54470E+00 2.29348E-03-6.15497E-01
 -1      1008 6.02800E+01 2.92697E-02 4.09835E-02-1.15935E+00-4.10935E-02 6.18203E-01
 -1      1009 1.34586E+02 8.40747E-02 6.90715E-02-2.07978E+00 6.93743E-03 6.20857E-01
 -1      1010 1.62142E+02 2.41234E-01 1.55892E-01-2.53875E+00-1.10030E-01 3.46996E-01
 -1      1011 1.53318E+02-1.32956E-02 3.20141E-02-2.03732E+00 3.69400E-03-6.24958E-01
 -1      1012 1.25283E+02-1.40228E-02-3.18378E-03-1.87285E+00-1.01983E-03-6.67044E-01
 -1      1013 1.43756E+02-1.30954E-01-8.70148E-02-2.32385E+00 7.88610E-02 4.15247E-01
 -1      1014 2.36327E+02 2.18485E-01 2.22141E-01-2.14542E+00 7.35287E-02-4.08544E-01
 -1      1015 1.99297E+02 2.43410E-01 1.96518E-01-2.52676E+00 9.27402E-02-3.68713E-01
 -1      1016 1.90620E+02-6.02061E-03 2.05826E-04-2.20491E+00 3.29685E-02-6.75843E-01
 -1      1017 1.85791E+02 2.56214E-02 1.00494E-01-2.52974E+00-3.76499E-05-8.60761E-02
 -1      1018 2.09092E+02-9.99459E-02 5.53481E-02-2.20891E+00 2.75091E-02 5.79892E-01
 -1      1019 1.15548E+02 1.13461E-01 8.40288E-02-1.74354E+00 4.40644E-03 6.27915E-01
 -1      1020 6.93494E+01 4.66453E-02-4.06766E-03-1.40706E+00-3.66596E-03-6.44839E-01
 -1      1021 1.71486E+02 8.33617E-02 6.15185E-02-2.03507E+00-1.11473E-03-6.18854E-01
 -1      1022 3.26932E+01-1.80172E-03-3.42787E-02-7.31952E-01 1.35512E-02 6.06615E-01
 -1      1023 4.17641E+01-3.45302E-02-1.54953E-02-7.90247E-01 4.36392E-03-6.63611E-01
 -1      1024 2.27222E+02 5.87837E-02 1.02606E-03-1.96289E+00-2.52786E-02 6.19844E-01
 -1      1025 2.45738E+02 3.57338E-02 4.11287E-02-1.87469E+00 5.12871E-03 6.73199E-01
 -1      1026 5.07915E+01 1.10356E-01-1.37769E-02-1.21183E+00 2.68190E-02-5.78414E-01
 -1      1027 9.74056E+01 2.70930E-02 1.23458E-02-1.44741E+00-6.45223E-03 6.77726E-01
 -1      1028 2.55868E+02-7.71276E-02-2.35048E-03-1.47477E+00 1.52647E-03-6.15556E-01
 -1      1029 1.43459E+02 8.62608E-02 7.85186E-02-1.92335E+00 9.45093E-03-6.11075E-01
 -1      1030 2.18408E+02-1.29043E-01-3.89291E-03-1.87930E+00 1.22664E-02-6.79935E-01
 -1      1031 5.04468E+01 1.69549E-01 2.27375E-02-9.39169E-01 1.58242E-02 6.09521E-01
 -1      1032 1.06878E+02 2.02415E-02 4.88614E-02-1.67527E+00 5.14245E-03-6.35576E-01
 -1      1033 7.91196E+01-1.17827E-01-2.02580E-02-1.27712E+00-1.31301E-02 6.56321E-01
 -1      1034 2.99686E+02-8.67124E-01 4.97990E+00-1.08957E+00-2.12097E-02 7.01795E-02
 -1      1035 2.88631E+02 1.53024E-01 5.63153E-01-1.63965E+00 3.83328E-02-2.56154E-02
 -1      1036 2.64935E+02-1.93475E-01-2.44404E-02-1.39946E+00-2.01965E-02 7.09341E-01
 -1      1037 3.07136E+02-2.88974E+01 2.84620E+01 1.69396E+00-8.59795E-02-9.14399E+00
 -1      1038 1.89837E+02 2.14641E-01 5.20489E-02-2.14381E+00-4.25928E-02 6.31933E-01
 -1      1039 1.76137E+02 8.78888E-02 1.15180E-02-2.48322E+00 1.67037E-02 1.45191E-02
 -1      1040 1.89437E+01 8.24144E-02 1.49550E-01-9.89294E-01 1.53128E-02 4.85167E-02
 -1      1041 2.73682E+02 2.18763E-01-4.05468E-03-1.34431E+00-6.09884E-02 7.27657E-01
 -1      1042 2.83265E+01-1.08786E-01-2.98858E-03-1.21004E+00-1.95040E-02 8.83189E-02
 -1      1043 2.59826E+02 5.59461E-02 3.57661E-02-1.76174E+00-9.80818E-02-6.81060E-02
 -1      1044 6.48511E+01 8.28794E-02-1.46148E-02-1.71565E+00-2.20081E-02-1.14237E-01
 -1      1045 5.59424E+01-1.50178E-02 1.61728E-02-1.50526E+00 4.66133E-02-9.28983E-02
 -1      1046 8.34228E+01 2.54200E-02-1.07165E-02-1.64553E+00 2.73818E-02 5.00209E-02
 -1      1047 3.67376E+01 1.24579E-01-3.70369E-03-1.30636E+00 7.34881E-02 2.71614E-02
 -1      1048 1.20439E+02 1.21591E-01 5.68230E-03-2.04888E+00-6.86738E-02-9.46594E-02
 -1      1049 1.47843E+02 1.14637E-01-4.83580E-02-2.46946E+00-1.23363E-02 1.05572E-01
 -1      1050 1.11503E+02 4.52414E-03-8.30098E-03-2.24379E+00 5.66044E-04 7.55835E-03
 -1      1051 1.01945E+02 8.46357E-02 1.24962E-02-1.86961E+00-2.11467E-02 1.38549E-02
 -1      1052 4.64442E+01-4.19404E-02-4.20071E-02-1.21612E+00-2.18427E-02-5.73096E-02
 -1      1053 7.46072E+01 2.07928E-02 2.29483E-02-1.78684E+00-2.52179E-02-9.67092E-02
 -1      1054 1.66951E+02 4.60289E-02 8.94712E-03-2.32090E+00-2.24955E-02-6.56512E-02
 -1      1055 2.51067E+02-2.41616E-02 6.56430E-02-2.10369E+00 1.34518E-02 8.80618E-02
 -1      1056 2.40752E+02 4.81959E-02-1.39389E-02-2.18619E+00 1.06520E-02 7.47279E-02
 -1      1057 1.39560E+02-8.00582E-02 1.94545E-02-2.39501E+00 2.78811E-02 8.61279E-02
 -1      1058 2.22781E+02 3.01770E-02 1.87218E-02-2.15339E+00 1.28478E-02 1.67025E-02
 -1      1059 2.13469E+02-3.83289E-03 6.20947E-02-2.21576E+00-4.12944E-03-2.10688E-02
 -1      1060 2.32607E+02-7.16244E-03 8.94232E-02-2.25739E+00 2.82504E-02-4.90892E-02
 -1      1061 1.29829E+02 8.46405E-02-1.61370E-02-2.09265E+00 6.99562E-02 2.25369E-02
 -1      1062 9.26890E+01 2.70771E-02 2.42964E-02-1.71639E+00-1.03085E-02-2.87089E-02
 -1      1063 2.03629E+02 3.23813E-02-2.59117E-02-2.44337E+00 2.91201E-02 5.23252E-02
 -1      1064 1.58156E+02 7.33098E-03 2.83383E-02-2.50821E+00 3.91978E-02 9.03134E-02
 -1      1065 1.95477E+02-3.04800E-02 7.88799E-02-2.49592E+00 8.14426E-03-8.28550E-02
 -1      1066 1.81426E+02-1.21186E-01-7.27819E-03-1.88528E+00 6.91954E-03 7.09195E-01
 -1      1067 2.79422E+02-1.42921E-01 1.46412E-02-1.69391E+00-2.98913E-02 7.66358E-02
 -1      1068 4.06822E+00-3.33892E-01-3.21684E-01-1.18374E+00-3.74759E-02-4.57199E-01
 -1      1069 3.02204E+02-1.78857E-01 5.21643E+00-2.15010E-01 5.37359E-01 2.63171E+00
 -1      1070 1.32395E+01 9.37697E-02 1.53710E-01-5.43937E-01 2.37136E-03 8.45485E-01
 -1      1071 3.03630E+02-1.89687E+00 1.87347E+01 3.03997E-01-3.86514E-03 2.39452E-01
 -1      1072 3.06997E+02-1.73747E+01 1.26164E+01 2.04855E+00-8.40485E-01-2.02166E+01
 -1      1073 3.10945E+02-1.88521E+01 1.62324E+01-1.18061E+00 2.12055E-01 2.18839E+01
 -1      1074 3.60669E+00-7.28408E-02-1.40231E-01-1.16004E+00-2.66593E-03-9.82869E-01
 -1      1075 3.51811E+00-4.27578E-01-1.77117E-01-1.15933E+00-2.72201E-02 9.11535E-01
 -1      1076 1.15440E+01-8.93535E-02 1.32996E-01-1.14703E+00-3.63573E-02 4.11607E-02
 -1      1077 3.34778E+02 2.96270E+01 5.35457E+01-1.86676E+01 8.44364E+00-4.65288E+01
 -1      1078 3.14075E+02 2.66201E+01 6.49018E+01-3.05003E+01-2.66639E-01-2.78455E+01
 -1      1079 2.88312E+02-5.98197E+00-6.40126E-01 5.52511E+00-2.60355E+00-8.38169E+00
 -1      1080 3.23150E+02 3.89683E+01 7.41179E+01-3.38466E+01-3.17753E+00 3.05643E+01
 -1      1081 3.37115E+02 3.05692E+01 5.52100E+01-2.04576E+01-7.42225E+00 4.60042E+01
 -1      1082 2.88148E+02-5.95759E+00-6.55597E-01 5.61656E+00 2.05393E+00 8.70538E+00
 -1      1083-3.39324E+00-2.07870E+00-2.02427E+00-2.56828E+00-9.33327E-02 6.51308E-01
 -1      1084-1.30803E+00-8.16559E-01-1.12655E+00-1.89340E+00 1.46603E-01 5.48213E-01
 -1      1085 6.33476E+00-2.56109E-01-6.54877E-04-6.83425E-01-4.39349E-02 1.01129E+00
 -1      1086-1.13331E+00-5.67899E-01-9.76570E-01-1.93797E+00-1.03236E-01-5.99639E-01
 -1      1087-2.74763E+00-1.41840E+00-1.76280E+00-2.31939E+00-1.11463E-01-8.67650E-01
 -1      1088 6.36791E+00-3.21737E-01-5.77970E-02-7.80553E-01 3.18330E-02-1.02598E+00
 -1      1089 3.28032E+02 4.37083E+01 8.40974E+01-3.54969E+01-1.23110E+00 5.69018E+00
 -1      1090 3.19332E+02 2.85954E+01 7.52777E+01-3.05150E+01 1.12517E+00 1.83524E+01
 -1      1091 3.05402E+02-2.56894E+01 2.57972E+01 6.73360E-01 1.16618E+00 1.53970E+01
 -1      1092 3.26037E+02 3.86011E+01 7.99302E+01-3.27816E+01-2.21672E+00-1.83030E+01
 -1      1093 3.24442E+02 3.35768E+01 7.65319E+01-3.20747E+01-7.03426E-01-4.94045E+00
 -1      1094 3.06457E+02-2.23857E+01 3.43720E+01-5.42532E-02 4.79002E-01-5.14986E-01
 -1      1095 3.06643E+02-2.46758E+01 2.46079E+01 2.47557E+00-4.87997E-01-1.66385E+01
 -1      1096-2.57225E+00-2.08884E+00-1.97251E+00-2.58872E+00-6.54579E-02-5.94447E-01
 -1      1097-2.29589E+00-1.65307E+00-1.88224E+00-2.39396E+00-6.98411E-04-2.53969E-01
 -1      1098 3.78648E+00-2.09836E-01-3.15285E-01-1.24345E+00-9.34006E-02-7.50974E-01
 -1      1099-2.44176E+00-1.90345E+00-1.98722E+00-2.58327E+00 1.42481E-02 1.09551E-01
 -1      1100-2.30319E+00-1.44686E+00-1.84559E+00-2.26042E+00-1.26776E-02 6.54982E-01
 -1      1101 4.37745E+00-2.11674E-01-4.68152E-01-1.27080E+00 3.56771E-02-1.82217E-01
 -1      1102 3.78825E+00-1.51516E-01-2.29569E-01-1.24715E+00-2.20732E-02 8.60651E-01
 -1      1103 2.98481E+02 2.59054E+00 6.53601E+00 9.45297E-01-1.91175E+00 4.70214E+00
 -1      1104 2.96843E+02 5.14669E-01 1.81079E+00-3.60752E-01 5.15998E-01 1.03761E+00
 -1      1105 3.00689E+02-1.64875E+00 9.92620E+00 6.06613E-01-3.50581E-01 1.06977E+01
 -1      1106 2.92741E+02 1.57623E-01 6.48472E-01-5.45533E-01-2.88407E-01-3.12667E-01
 -1      1107 2.89678E+02-8.74726E-02 2.91228E-01-1.16492E+00-1.32634E-01-7.50893E-01
 -1      1108 2.97606E+02 4.22583E-02 2.55433E+00-6.48377E-01 4.80123E-01 4.38278E-01
 -1      1109 2.84883E+02 3.97955E-02 4.35895E-02-1.20850E+00 4.64755E-02-7.78730E-01
 -1      1110 2.80907E+02 2.60506E-01 9.59746E-02-1.22405E+00-1.76204E-02-7.57925E-01
 -1      1111 2.88213E+02-8.73168E-02 3.50160E-01-1.24529E+00 2.30830E-02-9.05950E-01
 -1      1112 2.76325E+02-1.56982E-01 3.47136E-02-1.15955E+00 9.80425E-02-8.18016E-01
 -1      1113 2.71438E+02 3.71390E-02-7.06903E-02-1.30956E+00-2.51249E-02-6.35970E-01
 -1      1114 2.78776E+02 5.65658E-02-2.68374E-02-1.23872E+00-1.57791E-02-8.66347E-01
 -1      1115 2.67107E+02-1.14173E-01 4.18760E-02-1.29944E+00 4.42416E-02-7.39346E-01
 -1      1116 2.62288E+02 1.72658E-02-5.49958E-02-1.38284E+00-4.29906E-02-6.50007E-01
 -1      1117 2.69271E+02 4.14379E-02-7.24851E-02-1.37669E+00-5.36805E-02-6.50198E-01
 -1      1118 2.57962E+02-9.26940E-02 1.84740E-02-1.47209E+00 4.42585E-02-6.27828E-01
 -1      1119 2.53148E+02-6.20279E-02-2.44092E-02-1.77319E+00-9.30732E-02-5.13020E-01
 -1      1120 2.60051E+02-1.73937E-01-1.63619E-01-1.46172E+00 2.30715E-02-5.75085E-01
 -1      1121 2.48401E+02-4.68426E-02 2.24985E-03-1.93615E+00 6.38871E-02-4.93946E-01
 -1      1122 2.43721E+02-5.89525E-02-1.77553E-03-2.07378E+00-9.15065E-02-5.28930E-01
 -1      1123 2.50655E+02-1.26567E-01-1.03109E-02-1.65895E+00 6.96171E-03-6.73622E-01
 -1      1124 2.38731E+02 5.67188E-02 2.25828E-02-2.18459E+00 1.24906E-01-5.24940E-01
 -1      1125 2.34373E+02 1.42775E-01 9.73518E-02-1.80298E+00-7.89708E-03-7.37146E-01
 -1      1126 2.40837E+02-1.36577E-01-8.55610E-02-2.09932E+00 6.22213E-02-6.27101E-01
 -1      1127 2.29988E+02-2.48654E-02 6.05973E-02-1.80938E+00 9.86460E-02-6.85018E-01
 -1      1128 2.24934E+02 6.96165E-02-3.27025E-02-1.89835E+00-3.48463E-02-6.83590E-01
 -1      1129 2.32579E+02 3.06349E-01 3.88280E-01-1.93517E+00 1.75080E-02-5.89835E-01
 -1      1130 2.20464E+02-1.26272E-01-5.81791E-02-1.93635E+00 2.80635E-02-6.24603E-01
 -1      1131 2.16037E+02-9.45127E-02 3.50180E-03-2.23760E+00-3.90183E-02-5.72812E-01
 -1      1132 2.22933E+02 1.29847E-01 1.29556E-01-1.82834E+00 7.69726E-05-6.49323E-01
 -1      1133 2.11175E+02-4.41266E-02-2.36856E-02-2.26103E+00 7.11998E-02-4.95544E-01
 -1      1134 2.06542E+02-4.36751E-02 2.86835E-04-2.35239E+00-9.67143E-02-5.41996E-01
 -1      1135 2.13572E+02-1.83592E-01-5.55570E-03-2.10184E+00 2.26642E-02-6.84250E-01
 -1      1136 2.01538E+02 1.15922E-02-6.06307E-02-2.50096E+00 1.18313E-01-5.70271E-01
 -1      1137 1.97458E+02 2.38055E-01 2.01921E-01-2.15535E+00 1.31124E-02-6.83262E-01
 -1      1138 2.03554E+02-1.30100E-01-9.93984E-02-2.38973E+00 6.98911E-02-6.43085E-01
 -1      1139 1.92825E+02-1.11540E-01 5.21367E-02-2.05380E+00 6.79468E-02-7.69631E-01
 -1      1140 1.87929E+02 6.89304E-02-4.98623E-02-2.02290E+00-3.74550E-02-6.73611E-01
 -1      1141 1.95353E+02 1.79883E-01 1.12122E-01-2.36235E+00 9.78583E-03-6.46901E-01
 -1      1142 1.83615E+02-5.40938E-02 3.47100E-02-2.00514E+00 9.41780E-02-7.32672E-01
 -1      1143 1.78555E+02 4.35329E-02-5.12594E-02-2.03294E+00-3.79269E-02-6.48254E-01
 -1      1144 1.85357E+02-2.46058E-01-2.68503E-01-2.20927E+00 3.15907E-02-5.16072E-01
 -1      1145 1.74248E+02-6.14265E-02 1.23869E-01-1.91721E+00 1.02898E-01-7.09693E-01
 -1      1146 1.69140E+02 5.54896E-02-6.29428E-02-1.96499E+00-4.08480E-02-6.39285E-01
 -1      1147 1.76684E+02 2.65267E-01 7.86167E-02-2.14086E+00-6.45090E-02-5.96115E-01
 -1      1148 1.64681E+02-1.14125E-01-5.73451E-02-2.03143E+00 3.13885E-02-6.04273E-01
 -1      1149 1.60290E+02-8.07997E-02 1.76586E-02-2.30095E+00-4.01804E-02-5.46967E-01
 -1      1150 1.67086E+02 1.02512E-01 1.29977E-01-1.91860E+00 3.55144E-03-6.18338E-01
 -1      1151 1.55433E+02-1.54130E-02-1.34656E-02-2.27421E+00 7.53295E-02-4.93707E-01
 -1      1152 1.50860E+02-7.75635E-03-6.84486E-03-2.28181E+00-7.08468E-02-5.15350E-01
 -1      1153 1.57794E+02-1.79760E-01-1.24484E-02-2.13048E+00 2.96830E-02-6.66867E-01
 -1      1154 1.46125E+02 1.14844E-01 5.63202E-02-2.23097E+00 1.18479E-01-4.84852E-01
 -1      1155 1.41304E+02 1.23879E-01 7.62509E-03-1.89169E+00-4.17797E-02-6.42782E-01
 -1      1156 1.48363E+02-1.92778E-02-5.85636E-03-2.11895E+00 4.95300E-02-6.79506E-01
 -1      1157 1.37012E+02 9.75330E-03 3.74764E-02-1.81262E+00 7.53663E-02-6.45782E-01
 -1      1158 1.32020E+02 9.86148E-02-7.78431E-02-1.85444E+00-3.38539E-02-6.58244E-01
 -1      1159 1.39307E+02 2.18735E-01 2.23585E-01-1.85935E+00-1.71230E-02-5.85138E-01
 -1      1160 1.27582E+02-4.56586E-02-1.35261E-02-1.83024E+00 2.87651E-02-6.63448E-01
 -1      1161 1.22973E+02 8.15743E-02 3.87061E-02-1.81995E+00-2.41237E-02-6.77533E-01
 -1      1162 1.29817E+02 1.56330E-01 2.05826E-01-1.92506E+00-9.99796E-03-6.27974E-01
 -1      1163 1.18549E+02-5.35114E-02 9.75154E-03-1.73380E+00 5.45160E-02-6.33042E-01
 -1      1164 1.13757E+02-2.40435E-02-3.49930E-02-1.91222E+00-9.64101E-02-5.28568E-01
 -1      1165 1.20797E+02-9.26208E-02-1.33395E-01-1.84934E+00 1.72410E-02-6.26037E-01
 -1      1166 1.09008E+02 8.37363E-03-2.13913E-03-1.93995E+00 6.70058E-02-5.12377E-01
 -1      1167 1.04500E+02 1.15129E-02 2.11056E-02-1.89800E+00-6.24918E-02-5.29889E-01
 -1      1168 1.11253E+02-8.91574E-02-5.65792E-02-1.73238E+00-3.07378E-04-6.70579E-01
 -1      1169 9.98077E+01 4.33174E-02-2.38963E-02-1.85405E+00 7.56683E-02-5.18177E-01
 -1      1170 9.52842E+01 4.80965E-02 4.26204E-02-1.76380E+00-7.31227E-02-5.34363E-01
 -1      1171 1.02049E+02-5.03759E-02-3.60985E-02-1.69024E+00 2.59262E-02-7.03190E-01
 -1      1172 9.04675E+01-2.68309E-02-3.58532E-02-1.75600E+00 6.48255E-02-5.08279E-01
 -1      1173 8.58022E+01-3.61630E-02-9.47491E-03-1.78666E+00-8.87701E-02-5.36922E-01
 -1      1174 9.27859E+01-7.08114E-02-4.70542E-02-1.56063E+00 2.79867E-04-7.00812E-01
 -1      1175 8.08215E+01 8.28075E-02 7.38546E-03-1.79916E+00 1.36094E-01-5.25409E-01
 -1      1176 7.64884E+01 1.66464E-01 8.49431E-02-1.31058E+00-1.00819E-03-7.15630E-01
 -1      1177 8.29574E+01-1.13734E-01-1.03522E-01-1.76590E+00 9.23578E-02-6.08311E-01
 -1      1178 7.20488E+01-2.07488E-02 6.56423E-02-1.24063E+00 5.95232E-02-6.60197E-01
 -1      1179 6.70804E+01 1.19402E-01-6.10561E-02-1.20153E+00-5.31227E-02-7.47661E-01
 -1      1180 7.46773E+01 2.63096E-01 3.33864E-01-1.50247E+00 1.08376E-02-5.25711E-01
 -1      1181 6.26943E+01-1.92101E-02 2.12371E-02-1.12083E+00 5.61487E-02-6.85460E-01
 -1      1182 5.78336E+01 8.62709E-02-1.66454E-02-1.02661E+00-6.51903E-02-7.91351E-01
 -1      1183 6.46522E+01-8.75587E-02-1.56528E-02-1.41934E+00 4.27434E-02-5.65702E-01
 -1      1184 5.34861E+01-9.06399E-02-4.15484E-02-1.06107E+00 1.13150E-01-6.73116E-01
 -1      1185 4.86544E+01 9.60193E-02 4.75745E-03-1.05019E+00 2.99827E-03-5.94749E-01
 -1      1186 5.60819E+01 2.41424E-01 3.11650E-01-1.21504E+00 4.33615E-02-5.98334E-01
 -1      1187 4.42191E+01-7.35139E-02 9.25742E-02-7.57090E-01 6.03300E-02-6.72922E-01
 -1      1188 3.92505E+01 6.51726E-02-9.33794E-02-7.00312E-01-4.99394E-02-6.81786E-01
 -1      1189 4.66034E+01 2.11371E-01 6.30465E-03-1.01838E+00-6.25293E-02-6.20000E-01
 -1      1190 3.49284E+01-8.75422E-03 9.81484E-02-7.00043E-01 7.64875E-02-6.01143E-01
 -1      1191 2.98951E+01 7.72754E-02 3.58829E-03-6.18645E-01-4.81053E-02-7.00987E-01
 -1      1192 3.70136E+01-1.26235E-02 1.03732E-01-8.20855E-01 1.20354E-01-5.44659E-01
 -1      1193 2.56515E+01-4.13569E-03 7.70380E-02-5.47944E-01 7.05755E-02-6.48471E-01
 -1      1194 2.07299E+01 1.61176E-01-4.12615E-02-4.62500E-01-2.55177E-02-7.63695E-01
 -1      1195 2.80138E+01 1.78625E-01 3.08010E-01-6.49177E-01-1.49301E-02-5.93099E-01
 -1      1196 1.62974E+01 4.63380E-02 1.52284E-01-4.71147E-01 1.36351E-02-6.99010E-01
 -1      1197 1.07507E+01 2.52879E-01-4.09575E-02-3.92556E-01-1.72509E-01-1.02233E+00
 -1      1198 1.83510E+01-2.08894E-02 4.73605E-02-5.68975E-01 1.13770E-01-7.04454E-01
 -1      1199 8.74966E+00 1.51411E-01 2.68187E-01-7.15900E-01 4.16508E-02-9.41088E-01
 -1      1200 2.96835E+02 4.49622E-01 1.72573E+00-2.94948E-01-4.89780E-01-1.05233E+00
 -1      1201 2.98453E+02 2.63773E+00 6.62797E+00 9.84890E-01 1.99405E+00-4.70455E+00
 -1      1202 3.01443E+02-1.19825E+00 1.01719E+01 1.06848E-01 1.29266E-01-1.02612E+01
 -1      1203 2.89422E+02 2.85287E-01 1.56205E-01-9.38421E-01-3.69174E-03 8.88684E-01
 -1      1204 2.92880E+02 3.11517E-01 7.88526E-01-4.57300E-01 2.38756E-01 3.24848E-01
 -1      1205 2.97680E+02 6.60418E-02 2.67609E+00-6.05875E-01-4.75922E-01-5.23498E-01
 -1      1206 2.80816E+02-3.74204E-02-1.36117E-02-1.46545E+00 1.01627E-01 7.15220E-01
 -1      1207 2.84901E+02-1.39370E-01-1.01525E-01-1.06650E+00 3.25594E-02 7.57251E-01
 -1      1208 2.88233E+02 2.06881E-02 4.15465E-01-1.07175E+00-9.62702E-02 9.50261E-01
 -1      1209 2.71601E+02 1.49251E-01 2.61989E-02-1.39188E+00 7.83329E-04 6.16271E-01
 -1      1210 2.76155E+02 8.41755E-02 4.75835E-02-1.49307E+00-1.10426E-01 6.47745E-01
 -1      1211 2.78977E+02 8.51446E-02 8.59740E-03-1.35423E+00 2.55083E-02 8.69516E-01
 -1      1212 2.62255E+02-1.99168E-01-9.90503E-02-1.80766E+00 6.43227E-02 5.41185E-01
 -1      1213 2.66990E+02-1.73569E-01-1.26915E-02-1.33115E+00-2.89393E-02 6.67335E-01
 -1      1214 2.69391E+02 1.51257E-01-8.27847E-03-1.32360E+00 4.59202E-03 7.10774E-01
 -1      1215 2.52972E+02 1.55236E-01 1.05573E-01-1.59182E+00 8.81346E-03 7.20748E-01
 -1      1216 2.57346E+02 5.88258E-02 3.51280E-02-1.96307E+00-1.36301E-01 4.98259E-01
 -1      1217 2.59341E+02-2.17634E-01-6.81733E-02-1.89535E+00-1.12005E-01 6.00259E-01
 -1      1218 2.43543E+02 1.29748E-01-3.43511E-02-1.73538E+00 5.37111E-02 7.73840E-01
 -1      1219 2.48501E+02-4.23157E-02 7.06888E-02-1.63776E+00-5.64919E-02 6.86290E-01
 -1      1220 2.51099E+02 2.25666E-01 3.64707E-01-1.83336E+00-9.25259E-03 5.34262E-01
 -1      1221 2.34762E+02 1.48755E-02 8.24256E-02-2.30007E+00 1.03296E-01 5.71676E-01
 -1      1222 2.38877E+02-2.20987E-01-1.84402E-01-1.89118E+00-2.69733E-03 6.86592E-01
 -1      1223 2.40955E+02-1.65267E-01-8.42414E-02-2.06827E+00-1.17930E-02 6.43092E-01
 -1      1224 2.25100E+02 7.10156E-02 3.07281E-02-2.18532E+00 5.37282E-02 4.89029E-01
 -1      1225 2.29761E+02 7.31273E-02 1.51858E-02-2.20633E+00-1.15189E-01 5.35666E-01
 -1      1226 2.32738E+02 1.53533E-01 1.44294E-01-2.21711E+00 4.57616E-02 6.44695E-01
 -1      1227 2.15703E+02 1.44162E-01 1.60089E-02-1.87799E+00 1.66933E-02 6.64216E-01
 -1      1228 2.20256E+02 1.30172E-01 7.08088E-02-2.13614E+00-5.17989E-02 5.33435E-01
 -1      1229 2.22816E+02 2.06904E-01 5.72000E-02-2.01295E+00 2.75531E-02 6.75024E-01
 -1      1230 2.06384E+02 1.02756E-01 5.94417E-02-2.03517E+00 1.02696E-01 7.03723E-01
 -1      1231 2.11206E+02-5.58622E-02 4.97017E-03-2.09340E+00-7.14074E-03 6.19930E-01
 -1      1232 2.13249E+02-1.53653E-01 4.73128E-02-1.93117E+00-2.96867E-02 7.04283E-01
 -1      1233 1.97581E+02-4.57582E-02-6.29134E-03-2.47090E+00 1.11960E-01 5.31584E-01
 -1      1234 2.01925E+02-1.35598E-01-8.51143E-02-2.03580E+00-2.79055E-02 7.43842E-01
 -1      1235 2.03786E+02-2.66304E-01-3.31913E-01-2.17106E+00-6.80226E-03 6.23291E-01
 -1      1236 1.87902E+02 1.69878E-01 5.31254E-02-2.15054E+00-5.42398E-03 5.42577E-01
 -1      1237 1.92667E+02 1.38011E-01 6.46018E-02-2.40143E+00-1.29341E-01 5.81562E-01
 -1      1238 1.95435E+02 1.82258E-01 1.35396E-01-2.41753E+00 4.86807E-02 6.51004E-01
 -1      1239 1.78868E+02-1.02364E-01-5.27667E-02-2.24861E+00 4.75426E-02 5.40180E-01
 -1      1240 1.83434E+02-1.34657E-01-6.59507E-03-1.97853E+00-2.02736E-02 6.49931E-01
 -1      1241 1.85690E+02 1.26992E-01 8.61390E-03-1.95229E+00 1.47888E-02 6.69120E-01
 -1      1242 1.69377E+02-3.68406E-02-2.14759E-03-2.40028E+00 9.72204E-02 5.34984E-01
 -1      1243 1.74074E+02-3.95410E-02-2.29646E-02-2.33521E+00-7.28647E-02 4.89466E-01
 -1      1244 1.76344E+02-1.73382E-01-4.35134E-02-2.13231E+00-3.91495E-02 6.87632E-01
 -1      1245 1.60296E+02 2.33858E-01 1.81821E-01-2.13180E+00-1.74302E-02 6.60350E-01
 -1      1246 1.64358E+02 1.86929E-02-8.29394E-02-2.52286E+00-1.30636E-01 5.65011E-01
 -1      1247 1.66411E+02-1.27817E-01-1.04660E-01-2.43283E+00-9.71916E-02 6.27469E-01
 -1      1248 1.50601E+02 1.22101E-01-7.64896E-02-1.88446E+00 4.05438E-02 7.11873E-01
 -1      1249 1.55602E+02-9.78047E-02 1.10454E-01-1.93267E+00-7.74858E-02 7.12982E-01
 -1      1250 1.58306E+02 2.64089E-01 2.00723E-01-2.31879E+00 1.52432E-02 6.11380E-01
 -1      1251 1.41417E+02 1.01089E-01-3.86429E-02-1.86738E+00 8.81222E-02 8.01840E-01
 -1      1252 1.46182E+02-2.47779E-02-1.74954E-02-1.94131E+00-1.50736E-02 7.09594E-01
 -1      1253 1.47932E+02-1.89503E-01-1.25500E-01-2.21989E+00-5.73097E-02 6.03138E-01
 -1      1254 1.32237E+02 8.72505E-02 1.99161E-02-1.91286E+00 2.35441E-02 6.57282E-01
 -1      1255 1.36887E+02-8.81605E-02-4.50300E-02-1.99651E+00-5.47167E-02 6.78191E-01
 -1      1256 1.39604E+02 1.67518E-01 2.60158E-01-2.20090E+00 1.99452E-02 5.04663E-01
 -1      1257 1.22943E+02-8.25418E-02-9.39447E-02-2.05458E+00 8.84865E-02 5.35969E-01
 -1      1258 1.27854E+02-7.37548E-02 8.85385E-03-1.81114E+00-4.96941E-02 6.14197E-01
 -1      1259 1.30045E+02-9.84839E-02-1.02723E-01-1.91840E+00-8.07936E-03 6.16723E-01
 -1      1260 1.13460E+02 1.29940E-01 1.17061E-02-1.69775E+00 4.64520E-02 6.43074E-01
 -1      1261 1.18273E+02 1.34377E-01 7.30748E-02-2.04884E+00-1.15497E-01 4.95574E-01
 -1      1262 1.20505E+02-4.74275E-02 7.32771E-04-1.94057E+00-4.54371E-02 6.81606E-01
 -1      1263 1.04377E+02 9.24817E-02 1.00208E-02-1.91596E+00 5.25668E-02 5.58801E-01
 -1      1264 1.09006E+02-9.94594E-02-5.18302E-02-1.69190E+00-7.17095E-02 6.32579E-01
 -1      1265 1.11342E+02 1.69247E-01 2.13146E-01-1.70723E+00 2.91922E-02 5.94824E-01
 -1      1266 9.52338E+01 1.06347E-02 2.57289E-02-1.73846E+00 1.55159E-02 5.51476E-01
 -1      1267 9.95687E+01 6.10537E-02-2.37651E-02-1.79890E+00-4.30229E-02 5.44267E-01
 -1      1268 1.02317E+02 2.30077E-01 1.02730E-01-1.66136E+00-1.45169E-02 6.92726E-01
 -1      1269 8.55613E+01 1.14197E-01-2.20083E-02-1.39700E+00 6.42441E-02 6.43316E-01
 -1      1270 9.05739E+01 1.23136E-02 7.94749E-02-1.66466E+00-1.16197E-01 5.37131E-01
 -1      1271 9.26462E+01-1.40778E-01-2.75320E-02-1.48103E+00 7.78589E-04 6.83709E-01
 -1      1272 7.67538E+01-7.76030E-02 5.32660E-03-1.59692E+00 4.19839E-02 5.58618E-01
 -1      1273 8.11432E+01-1.07741E-01-6.72814E-02-1.38284E+00-2.86822E-02 6.22114E-01
 -1      1274 8.35115E+01 9.34473E-02 8.88306E-02-1.25973E+00 4.92482E-03 6.40816E-01
 -1      1275 6.73575E+01-7.57642E-03 6.66956E-03-1.49673E+00 6.97055E-02 5.28275E-01
 -1      1276 7.19061E+01-9.34040E-03-1.63303E-02-1.52682E+00-7.51687E-02 4.99728E-01
 -1      1277 7.42709E+01-1.74434E-01-3.37467E-02-1.40689E+00-2.87584E-02 6.75141E-01
 -1      1278 5.80189E+01 2.19327E-02 3.15615E-02-1.40181E+00 6.85047E-02 4.96670E-01
 -1      1279 6.25587E+01 3.41675E-02-2.64984E-02-1.45455E+00-1.12861E-01 4.99885E-01
 -1      1280 6.48508E+01-1.93220E-02 3.58974E-03-1.30383E+00-6.52551E-02 6.84042E-01
 -1      1281 4.84467E+01 1.15975E-01-2.34906E-02-9.44391E-01 3.30657E-02 6.04701E-01
 -1      1282 5.33404E+01 1.62809E-01 8.38792E-02-1.25281E+00-1.04519E-01 5.32732E-01
 -1      1283 5.58331E+01 1.60503E-01 6.55401E-02-1.15749E+00 3.10045E-02 6.84423E-01
 -1      1284 3.96016E+01-1.03971E-01-2.04325E-02-1.14879E+00 5.00198E-02 5.67031E-01
 -1      1285 4.39853E+01-1.16542E-01-5.60364E-02-9.16487E-01-1.96987E-02 6.15179E-01
 -1      1286 4.63250E+01 9.27682E-02 1.00704E-01-8.35974E-01 2.98196E-02 6.16646E-01
 -1      1287 3.03362E+01 2.71520E-02 3.61890E-02-9.56629E-01 9.94094E-02 4.95370E-01
 -1      1288 3.48821E+01 1.90639E-02-4.55669E-02-1.04770E+00-8.76474E-02 4.92039E-01
 -1      1289 3.71665E+01-1.59478E-01-7.12439E-02-9.51259E-01-3.22833E-02 6.89783E-01
 -1      1290 2.11072E+01 6.89236E-02 6.59947E-02-8.52907E-01 7.97150E-02 5.42757E-01
 -1      1291 2.55314E+01 2.87193E-02-1.86914E-02-8.84378E-01-8.62128E-02 5.41204E-01
 -1      1292 2.79401E+01 6.30504E-03 5.21980E-03-7.59672E-01-8.43303E-03 7.21537E-01
 -1      1293 1.12557E+01 2.45714E-01 1.92220E-01-5.14449E-01 8.98386E-02 8.45598E-01
 -1      1294 1.59762E+01 6.26249E-02 7.32076E-02-8.21043E-01-1.10556E-01 6.40099E-01
 -1      1295 1.83230E+01-1.65491E-02 8.32185E-02-6.73756E-01-3.53635E-02 8.07713E-01
 -1      1296 8.73190E+00-3.61568E-02 2.75637E-02-6.94932E-01 4.42397E-02 9.28760E-01
 -1      1297 9.51893E+01-5.30181E-02 1.69003E-02-1.54264E+00 6.16272E-02-4.47232E-01
 -1      1298 9.05312E+01 6.64351E-02-1.60183E-02-1.59886E+00-7.08908E-02-4.82412E-01
 -1      1299 1.04472E+02-7.35866E-03 3.71395E-02-1.74113E+00 1.05251E-01-4.43057E-01
 -1      1300 9.96558E+01 3.73663E-02-2.56940E-02-1.66326E+00-6.40925E-02-4.94992E-01
 -1      1301 9.74962E+01 1.03059E-01 9.33626E-02-1.77877E+00 5.29069E-03 1.86725E-02
 -1      1302 6.70070E+01-1.01029E-01-1.11952E-01-1.70379E+00 1.66017E-02-4.62542E-01
 -1      1303 6.27559E+01-7.31664E-03-3.07484E-02-1.76654E+00-1.23656E-01-2.57485E-01
 -1      1304 5.78985E+01 5.53061E-02 3.90103E-02-1.71728E+00 1.62371E-01-1.85034E-01
 -1      1305 5.35287E+01 1.98566E-01 2.34374E-01-1.31503E+00-7.68129E-02-3.89160E-01
 -1      1306 6.03994E+01-1.32162E-02-1.24651E-01-1.65462E+00 8.83016E-02-1.96422E-01
 -1      1307 2.56283E+01 1.38687E-02 1.39756E-01-7.49491E-01 7.06837E-02 5.02858E-01
 -1      1308 3.04739E+01 5.79434E-03 9.56022E-02-8.68086E-01-8.93233E-02 4.38498E-01
 -1      1309 2.33827E+01-7.75374E-02-7.01785E-02-9.97544E-01 4.05844E-02-1.12653E-02
 -1      1310 2.13606E+01-6.99747E-02 8.28851E-02-6.50194E-01-6.09741E-02 6.13386E-01
 -1      1311 1.59670E+01-3.98939E-02 3.93567E-03-6.38217E-01 9.50198E-02 5.07622E-01
 -1      1312 1.31887E+02 9.44981E-02-8.08205E-02-2.14602E+00 9.47866E-02-3.24819E-01
 -1      1313 1.27518E+02 6.50088E-02-6.68181E-02-2.05387E+00-1.98949E-02-3.15483E-01
 -1      1314 1.41769E+02-3.24102E-02 4.21552E-02-2.05011E+00 8.70382E-02-5.68251E-01
 -1      1315 1.36982E+02 1.73332E-01 5.39847E-02-2.09819E+00-9.33238E-02-4.20906E-01
 -1      1316 1.34603E+02 6.28675E-02-6.08944E-02-2.26969E+00 6.89065E-02 9.26606E-02
 -1      1317 1.22996E+02-1.79277E-02 4.03677E-02-1.99750E+00 2.36373E-02-3.85768E-01
 -1      1318 1.18349E+02 3.37746E-02-1.66159E-02-1.89707E+00-1.07453E-01-5.02377E-01
 -1      1319 1.13644E+02-4.60757E-02 3.51071E-02-1.84945E+00 4.40264E-02-4.77568E-01
 -1      1320 1.08964E+02 5.66793E-02 3.79596E-02-1.79556E+00-7.42397E-02-6.03139E-01
 -1      1321 1.15725E+02-4.87923E-02-9.98260E-02-2.02893E+00 4.42323E-02-6.00302E-02
 -1      1322 8.57339E+01-7.24777E-02-7.50978E-02-1.61662E+00 1.46159E-01-4.34782E-01
 -1      1323 8.06331E+01-1.18272E-01-1.20146E-01-1.67999E+00 2.40466E-04-2.90313E-01
 -1      1324 7.71787E+01 2.48097E-01 1.05393E-01-2.04959E+00 6.37815E-02-3.95613E-01
 -1      1325 7.20888E+01 2.01043E-01-7.33419E-02-1.71891E+00-1.27620E-01-3.08912E-01
 -1      1326 7.88639E+01-8.85780E-02-9.80585E-02-1.59778E+00-5.59406E-02 3.94697E-02
 -1      1327 3.45322E+01 2.59950E-02-1.44777E-01-8.41289E-01 9.22397E-02 6.23676E-01
 -1      1328 3.93940E+01-1.35476E-01-3.78896E-02-9.96323E-01-4.61605E-03 4.99158E-01
 -1      1329 4.40363E+01-2.38888E-02-3.06706E-02-9.54243E-01 3.67937E-02 4.00066E-01
 -1      1330 4.84436E+01 7.95910E-02-1.68053E-02-1.07923E+00-8.95437E-02 3.70050E-01
 -1      1331 4.15392E+01-3.54478E-02-2.02983E-03-1.29320E+00 3.49738E-02-7.21051E-02
 -1      1332 1.55687E+02 1.85185E-01-4.64396E-02-2.48790E+00 1.21499E-01 3.47009E-01
 -1      1333 1.60721E+02 2.53842E-01 1.32801E-01-2.74607E+00-5.45338E-02 3.26611E-01
 -1      1334 1.45402E+02-1.64542E-01-2.08496E-01-2.64037E+00 6.74896E-02 3.57421E-01
 -1      1335 1.50534E+02-9.69120E-02 6.01428E-02-2.38638E+00-1.03291E-01 3.92810E-01
 -1      1336 1.53165E+02 1.32373E-01 1.20113E-01-2.40860E+00 6.37733E-02-1.20709E-02
 -1      1337 2.71513E+02 3.55617E-02-4.70641E-02-1.55401E+00 1.23819E-01-3.53031E-01
 -1      1338 2.67087E+02 4.67028E-02 1.74973E-02-1.61852E+00-3.98354E-02-3.97209E-01
 -1      1339 2.64689E+02 3.18625E-02 1.18249E-01-1.74115E+00-7.70957E-02 3.56652E-02
 -1      1340 2.62328E+02-9.19757E-02 5.85466E-02-1.62908E+00 5.46870E-02-4.18746E-01
 -1      1341 2.57736E+02 4.79820E-03 2.72242E-02-1.63479E+00-1.10353E-01-4.96899E-01
 -1      1342 2.43626E+02-9.19790E-02-1.23787E-01-1.93283E+00 1.60031E-01-4.17057E-01
 -1      1343 2.38359E+02-1.73723E-01-2.47509E-01-2.10795E+00-3.66661E-02-2.12120E-01
 -1      1344 2.53127E+02-8.03781E-02 1.20138E-01-1.63515E+00 3.73582E-02-3.97394E-01
 -1      1345 2.48403E+02 1.43572E-02 8.16457E-02-1.79431E+00-1.01486E-01-5.06989E-01
 -1      1346 2.46150E+02 1.30607E-01 2.01169E-01-2.07136E+00 6.37101E-02-4.33860E-02
 -1      1347 2.86135E+02 1.47598E-01 2.41959E-01-1.27748E+00 6.32814E-02 6.51396E-01
 -1      1348 2.91176E+02 3.60771E-02 9.02303E-01-1.25402E+00 2.70816E-02 4.08596E-01
 -1      1349 2.81696E+02 8.44029E-02 1.64771E-01-1.37764E+00-8.08783E-02 5.06056E-01
 -1      1350 2.83899E+02-4.96373E-02 2.04350E-01-1.69614E+00-1.35968E-01 6.79133E-02
 -1      1351 2.76679E+02 6.03623E-02 1.50934E-01-1.42626E+00 1.10362E-01 5.61709E-01
 -1      1352 2.06441E+02-8.50234E-02-1.14577E-01-2.19585E+00 1.53045E-01-4.27252E-01
 -1      1353 2.01134E+02-1.80704E-01-2.41300E-01-2.38022E+00-2.09751E-02-1.97936E-01
 -1      1354 2.15952E+02-1.55742E-01 4.52151E-02-2.02066E+00 4.24823E-02-4.06266E-01
 -1      1355 2.11216E+02 3.59055E-02 4.05356E-02-2.11587E+00-8.25559E-02-4.76469E-01
 -1      1356 2.08940E+02 8.44563E-02 1.79753E-01-2.34262E+00 6.81466E-02-6.26556E-02
 -1      1357 1.87892E+02-1.23082E-01 2.41892E-02-2.54141E+00 1.31475E-01-3.46798E-01
 -1      1358 1.83550E+02-2.43411E-02 2.21667E-01-2.71428E+00-1.25739E-01-2.57681E-01
 -1      1359 1.81065E+02 6.76559E-02 8.65327E-02-2.54788E+00-4.80579E-02-8.87843E-02
 -1      1360 1.78383E+02 1.65469E-01-6.12566E-02-2.62699E+00 1.52693E-01-2.21025E-01
 -1      1361 1.74275E+02 2.53984E-01 1.28987E-01-2.38149E+00-6.85846E-02-3.87244E-01
 -1      1362 2.35073E+02 2.61751E-01 2.23017E-01-2.43108E+00 6.71090E-02-3.88858E-01
 -1      1363 2.29966E+02 2.14446E-01 6.46328E-03-2.06296E+00-1.02622E-01-3.11103E-01
 -1      1364 2.24788E+02 7.64841E-02 2.09275E-02-2.18728E+00 1.09955E-01-2.95248E-01
 -1      1365 2.20504E+02 3.95406E-02 4.68556E-02-1.92715E+00-1.54306E-03-4.02747E-01
 -1      1366 2.27331E+02-6.17182E-02-1.08493E-01-2.21818E+00 7.19613E-02 6.31408E-02
 -1      1367 2.96416E+02 1.34194E-02 2.86368E+00-1.19560E+00 1.85868E-01 1.97816E-01
 -1      1368 3.01601E+02 2.45331E-02 6.80932E+00-5.22984E-01-1.56295E-01-1.55241E+00
 -1      1369 3.01964E+02-1.76095E+00 1.27710E+01-1.30029E-01 1.59509E-02 3.52957E-02
 -1      1370 3.01626E+02-1.57833E+00 1.21773E+01 6.99656E-01-1.05853E-01-2.12956E+00
 -1      1371 2.96682E+02-2.34090E+00 2.43206E+01 1.71011E+00 5.48983E-01-3.60775E+00
 -1      1372 2.97646E+02-3.14246E+00 1.66664E+01 2.07821E+00 2.23573E-01-7.76500E+00
 -1      1373 2.91400E+02 1.39531E-01 9.94819E-01-1.28017E+00 4.05448E-02-3.80475E-01
 -1      1374 2.86033E+02 1.22791E-02 3.43146E-01-1.35164E+00-4.36218E-03-5.69497E-01
 -1      1375 2.93587E+02-3.35561E-01 1.86117E+00-1.30275E+00 5.98842E-02-1.65711E-02
 -1      1376 2.96528E+02 4.28612E-02 2.77502E+00-1.16218E+00-1.91843E-01-1.05615E-01
 -1      1377 3.01547E+02 8.21572E-02 6.57919E+00-5.54319E-01 1.15074E-01 1.51895E+00
 -1      1378 2.09671E+01-1.76026E-02 1.44339E-01-9.11874E-01 2.07107E-02-4.24572E-01
 -1      1379 1.60056E+01-6.61947E-02 6.63563E-02-6.92821E-01-9.30190E-02-5.45756E-01
 -1      1380 1.50325E+01-4.92056E-03 1.22716E-01-1.04519E+00 1.29235E-01 1.53067E-02
 -1      1381 1.25380E+01 6.41009E-02 1.00245E-01-7.63274E-01 7.01986E-02-5.45451E-01
 -1      1382 9.15669E+00 3.16631E-02 1.23189E-01-7.95536E-01 3.89539E-03-6.50568E-01
 -1      1383 8.45601E+00 2.05963E-02 6.51163E-02-8.93126E-01 2.40539E-02-3.75917E-01
 -1      1384 9.06398E+01 3.70859E-02 4.18633E-02-1.62881E+00 1.25206E-01 3.53732E-01
 -1      1385 9.50642E+01-1.07229E-01-2.53858E-02-1.50612E+00-4.78575E-02 4.55955E-01
 -1      1386 8.12118E+01 6.07301E-02-6.11634E-02-1.36681E+00 8.51900E-03 4.46446E-01
 -1      1387 8.54751E+01 1.31025E-02-6.41334E-02-1.57507E+00-1.12495E-01 4.07554E-01
 -1      1388 8.81238E+01 1.08758E-01 1.24635E-01-1.77266E+00 7.45487E-02-4.07320E-02
 -1      1389 1.60221E+02-1.58405E-01 7.75167E-02-2.12821E+00 3.16438E-02-3.67247E-01
 -1      1390 1.55397E+02 9.09396E-03 5.09240E-02-2.11089E+00-9.14056E-02-5.06251E-01
 -1      1391 1.69002E+02 3.55194E-02-1.26868E-02-2.28519E+00 1.13722E-01-3.91723E-01
 -1      1392 1.64752E+02 6.69646E-02-1.91721E-02-2.03969E+00-8.18011E-03-4.58585E-01
 -1      1393 1.62413E+02-6.87382E-02-6.78458E-02-2.28458E+00 5.69402E-02-5.30124E-02
 -1      1394 3.05961E+01-2.34000E-02 4.71154E-02-9.24772E-01 7.56114E-02-5.39152E-01
 -1      1395 2.56310E+01 9.85177E-02-6.73883E-02-8.99054E-01-9.00204E-02-4.28715E-01
 -1      1396 3.91994E+01-6.55777E-02-7.73925E-02-1.19490E+00 1.25510E-01-4.87988E-01
 -1      1397 3.46023E+01-5.38731E-02 1.86943E-02-9.96958E-01-2.06905E-02-4.26717E-01
 -1      1398 3.26289E+01 1.01193E-02 5.58960E-02-1.31756E+00-9.62227E-02 1.16171E-01
 -1      1399 1.27724E+02-4.33312E-02 5.46056E-02-1.94572E+00 8.93511E-02 4.51934E-01
 -1      1400 1.32225E+02-4.13510E-03 8.31995E-02-2.14485E+00-1.36788E-02 3.49592E-01
 -1      1401 1.18097E+02 2.94222E-02 8.59222E-03-1.93377E+00 4.38050E-02 4.33730E-01
 -1      1402 1.22905E+02-4.14740E-03-2.40735E-02-1.96266E+00-1.48661E-01 4.52873E-01
 -1      1403 1.25247E+02 1.32774E-01 1.38167E-01-2.12035E+00-4.45885E-02 2.45040E-02
 -1      1404 6.24453E+01-2.49265E-02 2.92243E-02-1.29491E+00 4.31596E-02 4.71583E-01
 -1      1405 6.71936E+01-2.41649E-02-3.49829E-02-1.39742E+00-1.04826E-01 4.59408E-01
 -1      1406 7.18697E+01 1.49117E-02 2.72050E-02-1.35562E+00 9.64586E-02 5.11765E-01
 -1      1407 7.66955E+01-1.54177E-01 5.64497E-02-1.42793E+00-3.09255E-02 3.63878E-01
 -1      1408 6.94592E+01 7.86486E-02 6.68343E-02-1.70669E+00-6.46849E-02-3.34337E-02
 -1      1409 1.09167E+02 2.09157E-01 2.44727E-02-1.98404E+00 7.28574E-02 4.24788E-01
 -1      1410 1.13734E+02-1.47915E-02-4.81815E-02-1.92352E+00-9.08623E-02 6.00959E-01
 -1      1411 9.97682E+01 1.80313E-01 2.99974E-02-1.61778E+00 2.41487E-02 4.50688E-01
 -1      1412 1.04257E+02 1.00040E-01 1.93596E-02-1.87171E+00-1.12813E-01 3.81487E-01
 -1      1413 1.07012E+02 2.09414E-01 1.65046E-01-2.01928E+00 2.61087E-02 4.69352E-02
 -1      1414 2.48514E+02 1.53719E-01-1.32523E-02-2.10255E+00 1.32762E-01 2.95139E-01
 -1      1415 2.53599E+02 1.86717E-01 1.25698E-01-2.29791E+00-7.37637E-02 3.77252E-01
 -1      1416 2.57116E+02-9.19340E-02-9.59128E-02-1.85098E+00-2.67670E-02 2.70641E-01
 -1      1417 2.62175E+02-1.49061E-01-2.16870E-02-1.69520E+00-1.81036E-01 4.46860E-01
 -1      1418 2.55337E+02-5.07676E-02-2.37771E-02-1.81243E+00 1.04920E-02-4.74823E-02
 -1      1419 2.01171E+02-2.29603E-01-1.68771E-01-2.65149E+00 5.80231E-02 3.87032E-01
 -1      1420 2.06347E+02-1.76512E-01 4.04748E-02-2.23276E+00-1.07468E-01 2.96585E-01
 -1      1421 1.92658E+02 1.42947E-01 2.27328E-01-2.26020E+00 1.56998E-01 4.17917E-01
 -1      1422 1.97932E+02 1.89059E-01 3.08604E-01-2.40248E+00-5.06772E-02 2.11509E-01
 -1      1423 1.99530E+02-1.46699E-03 3.48647E-02-2.44785E+00-7.99770E-02-6.33260E-03
 -1      1424 1.64130E+02-1.20289E-01-1.03593E-01-2.36356E+00-1.83154E-02 2.73333E-01
 -1      1425 1.69297E+02-7.29754E-02-7.61604E-02-2.24646E+00-1.51140E-01 4.40538E-01
 -1      1426 1.71770E+02 1.94463E-01 1.86638E-01-2.46428E+00-6.11210E-02 1.49471E-02
 -1      1427 1.74070E+02 7.22976E-02 2.59933E-02-2.20223E+00 4.49838E-02 5.28227E-01
 -1      1428 1.78770E+02-1.34487E-01 6.46817E-02-2.11019E+00-1.00039E-01 4.87585E-01
 -1      1429 2.29860E+02 1.14224E-01 1.78359E-01-2.04472E+00 1.37750E-01 4.27891E-01
 -1      1430 2.35163E+02 2.15631E-01 3.08277E-01-2.17431E+00-2.88976E-02 2.02996E-01
 -1      1431 2.38279E+02-2.47566E-01-1.66758E-01-2.39271E+00 4.87121E-02 3.33351E-01
 -1      1432 2.43527E+02-8.43008E-02 1.47091E-01-2.11546E+00-5.06217E-02 3.40330E-01
 -1      1433 2.36703E+02 2.59049E-02 2.92218E-02-2.19935E+00-8.01920E-02 2.70016E-03
 -1      1434 2.11463E+02-9.83993E-02 3.09871E-02-2.28237E+00 8.71217E-02 2.35136E-01
 -1      1435 2.15709E+02-2.10409E-02-3.43103E-03-1.96259E+00-8.39101E-03 4.50438E-01
 -1      1436 2.20384E+02 1.76547E-01 1.05747E-02-1.97545E+00 7.41828E-02 4.28115E-01
 -1      1437 2.25073E+02-7.89470E-03 3.01401E-02-2.02916E+00-9.08732E-02 4.77223E-01
 -1      1438 2.18142E+02 2.31312E-02 5.77042E-02-2.15345E+00 5.07797E-02 2.66759E-04
 -1      1439 2.99328E+02-1.76465E+00 2.58470E+01 3.74132E-01 9.75945E-02 3.89315E+00
 -1      1440 3.01819E+02-2.14096E+00 1.22321E+01 9.52727E-01 1.96157E-02 2.16166E+00
 -1      1441 2.99763E+02-3.90012E-01 1.89148E+01 7.92041E-01 5.17217E-01 6.63146E+00
 -1      1442 8.12758E+00 5.96473E-02-3.55784E-02-1.07472E+00-1.05832E-01 2.06775E-01
 -1      1443 8.81818E+00 4.55944E-02-5.36566E-02-8.27137E-01 6.15780E-02 7.58738E-01
 -1      1444 1.25085E+01-1.10378E-02 1.95439E-01-7.28650E-01-4.99743E-02 6.89539E-01
 -1      1445 2.81585E+02-3.68128E-02 1.52193E-01-1.30159E+00 7.99897E-02-6.45810E-01
 -1      1446 2.76755E+02 1.19437E-01 6.66949E-02-1.47342E+00-6.75063E-02-4.95747E-01
 -1      1447 2.74215E+02-1.10004E-01-1.21113E-01-1.65674E+00 3.59115E-02 7.36832E-02
 -1      1448 2.71526E+02 1.54116E-01 2.90436E-02-1.44965E+00-1.03650E-01 4.12005E-01
 -1      1449 2.67105E+02 2.91408E-02 6.71203E-02-1.48348E+00 1.63094E-02 4.83054E-01
 -1      1450 5.33334E+01 9.22529E-02-9.29548E-02-1.09183E+00 1.00919E-01 4.13898E-01
 -1      1451 5.83867E+01-3.35722E-02 5.12626E-02-1.18118E+00-8.90400E-02 5.44862E-01
 -1      1452 1.36966E+02 1.30425E-01 1.68492E-01-2.28593E+00 1.16565E-01 3.78236E-01
 -1      1453 1.42030E+02 1.37270E-01 1.86976E-01-2.39497E+00-3.63657E-02 2.71161E-01
 -1      1454 1.50724E+02-1.57122E-02-9.01019E-02-2.16581E+00 1.32923E-01-4.31104E-01
 -1      1455 1.45794E+02-4.92275E-02-1.25077E-01-2.13654E+00-6.20230E-02-3.72017E-01
 -1      1456 1.43671E+02 1.37913E-02-4.63520E-02-2.44540E+00-1.10175E-01 6.15564E-02
 -1      1457 1.97965E+02 2.75636E-01 2.20917E-01-2.67007E+00 5.83753E-02-3.42821E-01
 -1      1458 1.92815E+02 1.35487E-01-6.60785E-02-2.42394E+00-3.53928E-02-3.38008E-01
 -1      1459 1.90071E+02-1.60575E-01-1.52448E-01-2.49937E+00 6.87513E-02 5.46155E-03
 -1      1460 1.87722E+02 1.06051E-01-3.67284E-02-2.18807E+00-6.76862E-02 4.28197E-01
 -1      1461 1.83419E+02 7.23612E-02-4.98493E-02-2.08991E+00 4.26411E-03 4.86711E-01
 -1      1462 4.85769E+01 6.01454E-02-4.60749E-02-1.29234E+00 5.90165E-02-3.26894E-01
 -1      1463 4.41503E+01 4.51246E-02-6.45486E-02-1.17282E+00-9.12323E-02-4.45127E-01
 -1      1464 5.09699E+01-4.63374E-02-8.44319E-02-1.33269E+00 2.41808E-02-6.45709E-02
 -1      1465-5.23056E+01 1.40428E-01-1.63326E-02-6.59120E+00 1.22483E-02-6.10728E-03
 -1      1466-3.41778E+01 2.45728E-01-2.92815E-02-6.72284E+00 1.97714E-04-1.67093E-02
 -1      1467 2.47935E+01 2.18486E-01 9.83897E-04-7.54865E+00 1.07288E-03 7.62011E-02
 -1      1468-1.15028E+01 2.66490E-01 1.31671E-02-7.13202E+00-1.71198E-02-7.30287E-02
 -1      1469-6.65502E+01 4.93836E-02 5.24506E-02-6.31410E+00-3.42242E-02-3.66065E-02
 -1      1470 4.30269E+01 1.62684E-01 4.78780E-02-7.80252E+00 8.07506E-03 1.38111E-02
 -1      1471-7.48681E+01 1.61772E-01 8.06738E-04-6.51279E+00 5.34080E-03-7.61606E-02
 -1      1472 1.29685E+02 1.06992E-02-1.77364E-02-7.90526E+00 1.69096E-02 6.07405E-02
 -1      1473-1.21049E+02 2.35544E-02-1.46005E-03-6.63176E+00-1.87014E-03-7.63054E-02
 -1      1474-1.39400E+02 2.81050E-02-7.50869E-02-6.10130E+00 1.61517E-01 2.46451E-01
 -1      1475 1.03855E+02 4.14856E-02 3.06074E-02-8.00984E+00 2.29551E-02-1.01379E-02
 -1      1476-8.88952E+01 1.51628E-01-7.70088E-02-6.44028E+00 3.46092E-02-8.86689E-02
 -1      1477-1.12178E+02-1.32080E-04 3.58225E-02-6.36527E+00-1.93213E-02 6.41790E-04
 -1      1478 1.38672E+02-3.97668E+00-2.24429E+00 3.13040E-01 1.48963E+00-3.60142E+00
 -1      1479 5.67243E+01 1.68682E-01 3.55514E-02-7.97356E+00-6.14522E-03 2.53217E-02
 -1      1480-2.03920E+01 2.92580E-01-9.85646E-02-6.95050E+00 4.41583E-02-5.75442E-02
 -1      1481 6.54163E+00-6.91078E-02 1.48752E-02-7.44399E+00 1.69139E-03 7.98314E-02
 -1      1482 7.91936E+01 8.00185E-02 5.40612E-02-8.17909E+00 9.90158E-03 1.00385E-01
 -1      1483 1.56447E+01 2.03490E-01-2.09883E-02-7.40462E+00 4.46285E-02 2.11741E-02
 -1      1484 7.04026E+01 1.23756E-01-8.29956E-02-7.98474E+00-3.18760E-02 9.07408E-03
 -1      1485-9.76267E+01 3.45710E-02-8.54994E-02-6.16968E+00 7.68806E-02-2.34747E-02
 -1      1486 1.18153E+02-5.73455E-03-1.04967E-01-7.79475E+00-7.27713E-02-3.07784E-02
 -1      1487 9.47870E+01 1.34027E-01-5.31388E-03-8.17992E+00-1.07975E-02 6.95198E-02
 -1      1488-7.22158E+01 3.13114E+00 8.05252E+00 6.50667E+00 3.44509E+00-5.19650E-01
 -1      1489-2.97594E+00 9.31058E-01 1.00261E-01-7.55343E+00-6.55580E-02 2.33773E-02
 -1      1490 3.36909E+01 1.87485E-01-1.02228E-02-7.83682E+00 7.06827E-03 6.81077E-02
 -1      1491-4.32977E+01 1.76765E-01 5.23178E-02-6.59701E+00 3.11796E-03-4.27715E-03
 -1      1492-1.29581E+02 5.80151E-03-1.28732E-01-6.66432E+00-7.61694E-03 2.09479E-03
 -1      1493 1.40031E+02-1.71945E-01-1.25749E-01-7.06392E+00 5.73275E-02-1.08403E-01
 -1      1494 1.40445E+02-1.11947E+00-1.40098E-01-5.23747E+00 3.39638E-01-8.52346E-01
 -1      1495-1.95033E+00-1.62078E-01 3.16597E-02-4.86049E+00 2.18998E+00 1.08702E-01
 -1      1496 1.10461E+01 1.34203E-01 2.69594E-03-7.50784E+00-1.97720E-03 4.84655E-02
 -1      1497-5.71506E+01 1.70751E-01 9.00045E-02-6.30798E+00-4.77499E-02-1.51498E-02
 -1      1498-6.19134E+01 1.87567E-01-1.05745E-01-6.51170E+00 4.56041E-02-8.99657E-03
 -1      1499 4.94571E-02 1.65143E-01-2.30189E-02-9.14932E+00 1.43778E-02-2.69899E-02
 -1      1500-2.97111E+01 2.00666E-01 3.49934E-02-6.65503E+00-1.16085E-02 8.48769E-03
 -1      1501 4.75997E+01 1.68296E-01 5.29027E-03-7.84507E+00-3.53401E-03 1.55420E-02
 -1      1502-7.97254E+01 1.26859E-01 1.13278E-01-6.20039E+00-4.99352E-02 1.01528E-02
 -1      1503-8.47359E+01 1.63242E-01-3.47928E-02-6.29257E+00-9.37026E-04 4.20751E-03
 -1      1504 8.01502E-01 1.72713E-01-2.73847E-02-9.18066E+00-4.52839E-02-7.40732E-04
 -1      1505 2.03374E+01 2.21720E-01-1.23647E-02-7.69584E+00 1.27751E-02 2.78893E-02
 -1      1506-1.03195E+02 6.06753E-02 1.60141E-03-6.36394E+00 1.71587E-02-3.06822E-02
 -1      1507 2.92847E+01 2.09425E-01-1.48352E-02-7.55416E+00 1.84094E-02 3.83315E-02
 -1      1508 9.96138E+01 6.84199E-02-7.25420E-02-7.86793E+00-7.01605E-02 1.11772E-02
 -1      1509-1.16685E+02-1.01196E-02-7.29629E-02-6.24759E+00 6.86972E-02-1.51971E-02
 -1      1510-1.07641E+02 1.93034E-02 8.01916E-02-6.49911E+00-4.06969E-02-6.92878E-02
 -1      1511 1.08216E+00 7.65174E-02-3.37799E-02-9.18602E+00-4.17462E-03 9.68399E-03
 -1      1512-1.61227E+01 2.50353E-01 1.42345E-01-6.86858E+00-5.41886E-02 4.40646E-02
 -1      1513 7.48616E+01 8.94887E-02 2.49708E-02-8.07443E+00 5.48972E-03 1.01127E-02
 -1      1514-1.26076E+02-1.82199E-02 1.26417E-01-6.39631E+00-5.83453E-02 9.68714E-03
 -1      1515 5.41337E-01-4.87500E-02 1.09257E-02-9.06637E+00-2.90864E-02-1.24565E-02
 -1      1516 1.35090E+02-6.89787E-02 1.19684E-03-7.64162E+00 1.81386E-02 1.22416E-02
 -1      1517-1.35186E+02-1.42040E-01 7.96487E-02-6.66180E+00-3.21396E-02-5.18013E-02
 -1      1518-9.44093E+01 3.31030E-02 3.42889E-02-6.22733E+00-2.04280E-02-3.14208E-02
 -1      1519-3.85121E+01 2.33527E-01-6.49056E-02-6.74328E+00 1.72739E-02-1.11403E-01
 -1      1520-4.78618E+01 1.68484E-01 2.67045E-03-6.68626E+00 4.47020E-03-9.75433E-02
 -1      1521-7.06290E+01 1.09419E-01-8.89926E-02-6.19573E+00 5.92251E-02-1.80487E-02
 -1      1522-2.50965E+01 1.67196E-01 1.07098E-01-6.90593E+00-1.50053E-02-2.27072E-02
 -1      1523 3.85922E+01 1.81120E-01-1.14890E-01-7.62969E+00-4.74875E-02-1.21197E-02
 -1      1524 5.21045E+01 1.14695E-01 3.72450E-02-7.89195E+00-1.41906E-02 2.62274E-02
 -1      1525-7.32902E-01-7.55148E-02-7.97388E-02-8.08436E+00 4.48562E-01-2.60858E-02
 -1      1526-1.43481E+02 5.67346E-01 3.65292E-02-4.94256E+00 3.73276E-01 6.67631E-01
 -1      1527 7.22507E+01 4.31139E-01-5.06815E+00 6.72768E+00 3.18736E+00 3.45192E-02
 -1      1528 6.69407E+01 1.00061E-01 1.01439E-02-8.09983E+00-7.77942E-03 4.88661E-02
 -1      1529 6.22966E+01 1.76538E-01-2.85751E-02-7.85613E+00-3.18214E-03 7.40559E-02
 -1      1530 1.22829E+02-5.04696E-02 3.90580E-02-7.84487E+00 1.81541E-02-2.75473E-03
 -1      1531 1.27223E+02-2.97856E-03 5.00691E-02-7.83882E+00 1.61119E-02 1.77391E-02
 -1      1532 1.13786E+02 6.22265E-04-4.21820E-02-7.99571E+00 1.30481E-02 4.86875E-02
 -1      1533 5.14035E-01 1.57024E-02 7.21350E-03-9.12980E+00 3.84885E-02-1.26041E-02
 -1      1534 8.56819E+01 1.34738E-01-5.19596E-02-8.14105E+00 1.53267E-02 1.73366E-02
 -1      1535 7.89844E-01 9.66233E-02-2.89996E-02-9.18870E+00 3.53047E-03-1.45769E-02
 -1      1536-3.24780E-01 2.58708E-01 1.84773E-02-8.90984E+00 2.92419E-02 9.26907E-03
 -1      1537 1.29233E-01 2.86399E-01-1.07224E-02-9.07369E+00-2.38226E-02 1.92424E-02
 -1      1538-4.24330E-01 2.75115E-01-2.00161E-02-9.03750E+00-1.81839E-02 1.51819E-02
 -1      1539-2.46847E-01 1.16929E-01 2.94750E-02-9.19898E+00-3.24741E-02 8.08453E-03
 -1      1540-1.12688E-01 2.44493E-01-6.74712E-04-9.19776E+00 1.98507E-02-4.17705E-03
 -1      1541-2.80336E-01 3.18112E-01 4.75417E-02-9.13224E+00 7.28702E-02-2.35925E-04
 -1      1542 3.41911E-02 2.80000E-01-5.12211E-02-9.13979E+00-3.87985E-02-2.79294E-02
 -1      1543-4.01675E-01 1.33087E-01-3.27168E-02-9.09501E+00 4.01181E-02-3.31677E-02
 -1      1544 3.85808E-02 1.97035E-01 6.01043E-02-9.05826E+00-6.86220E-03-2.68333E-03
 -1      1545-1.89700E-01 2.80825E-02-9.81633E-03-9.09963E+00 1.04509E-02-2.76836E-02
 -1      1546-4.37301E-01-1.76549E-01 6.25100E-02-8.75912E+00 2.97248E-02 5.04948E-02
 -1      1547-2.83795E-01 2.78941E-01 5.94732E-02-9.12029E+00 5.09453E-02 1.20231E-03
 -1      1548-1.45781E-01 1.94396E-01-1.29432E-02-9.17663E+00 7.15553E-03 1.02833E-02
 -1      1549 1.20474E-01 6.32416E-02-1.87963E-02-9.11881E+00-4.13576E-02 2.15067E-03
 -1      1550-2.27054E-01 3.27131E-01 2.73199E-02-9.12562E+00-9.01583E-03 1.76882E-02
 -1      1551 2.24875E-01 3.88865E-02-2.07477E-02-9.12321E+00 2.69346E-02-1.88209E-02
 -1      1552 4.90617E-02 1.20224E-01 1.21434E-02-9.04883E+00-1.81349E-02-1.65610E-02
 -1      1553-3.21569E-01 1.73675E-01 2.88745E-02-9.11206E+00-4.97950E-02-5.74978E-03
 -1      1554-1.99385E-01 2.84750E-01 8.19991E-03-9.22694E+00-1.03191E-02 1.99193E-02
 -1      1555 9.06835E+01 1.05756E-01 1.15782E-02-7.97248E+00-1.92626E-02-1.63409E-02
 -1      1556-1.81096E-01 2.69487E-01-3.79725E-02-9.20113E+00-1.00898E-02-1.86470E-02
 -1      1557-2.17986E-01 4.28140E-02-2.43997E-02-9.23845E+00-9.63510E-03-1.49775E-02
 -1      1558 1.08947E+02-6.49646E-03 6.58492E-02-8.03788E+00 2.14361E-02 1.07403E-01
 -1      1559-2.31002E-01-1.10391E-02-1.69704E-02-9.12384E+00-2.09276E-02 9.96099E-03
 -1      1560 3.29789E-02-4.78691E-02-1.42440E-02-9.10638E+00 3.97952E-02-2.11416E-02
 -1      1561 2.95473E+00-6.58711E-01-2.70954E-01-7.65309E+00-4.54855E-02 5.96444E-02
 -1      1562-1.39429E+02 3.59072E+00 1.81418E+00 3.18897E-01 1.38038E+00 3.14035E+00
 -1      1563-7.14276E+00 5.24450E-01-1.11253E-02-7.26669E+00 2.63087E-03-1.19806E-01
 -1      1564 7.64104E-01 2.57200E-01-2.11407E-02-1.18846E+00 3.28438E+00 6.08030E-01
 -1      1565 1.96704E+02-7.15142E+00-1.65072E+01 4.51043E+00 2.35742E+00 1.07508E+00
 -1      1566-1.90764E+02 8.60373E+00 1.94104E+01 7.19010E+00 3.54414E+00 1.48006E+00
 -1      1567 5.48489E+00-9.09053E-01-6.27997E-03-6.17384E+00-8.67394E-02-1.34137E-01
 -1      1568-6.03577E+00 1.36379E+00 2.11953E-02-6.10890E+00-1.39298E-01 2.37667E-01
 -1      1569-1.59633E-01 2.54948E-01-1.72762E-02-8.71023E+00 4.71702E-02 1.09930E-02
 -1      1570-1.81573E+02-2.17200E+01-3.49481E+00 1.74187E+01 2.41365E+00-2.24682E+01
 -1      1571-2.82325E+02-3.84308E+01-3.52358E+01-9.16496E+00-5.05658E+00-3.60625E+01
 -1      1572-2.21548E+02 1.45789E+01 1.47932E+01 1.28354E+01 7.32480E+00 7.05251E+00
 -1      1573 2.85500E+02 3.94998E+01 3.65798E+01-8.12238E+00-4.09870E+00 3.64785E+01
 -1      1574 1.93776E+02 3.04657E+01 2.22040E+01 1.33926E+01 7.09839E-02 2.79031E+01
 -1      1575 2.22867E+02-1.55850E+01-1.47002E+01 1.26131E+01 6.72170E+00-7.22959E+00
 -1      1576-2.58057E+00 9.04423E-01 1.59534E-01-4.31336E+00-6.21511E-02 3.66341E-01
 -1      1577-5.10303E+00 6.09170E-01-4.08507E-01-5.96418E+00-5.16852E-02 5.38407E-01
 -1      1578-7.70784E+00 5.01162E-01-3.92931E-01-3.58177E+00 1.23676E-01 3.11253E-01
 -1      1579 5.09093E+00-2.26599E-01 4.58775E-01-6.09822E+00-4.12738E-02-5.15003E-01
 -1      1580 2.43969E+00-5.07440E-01-1.04281E-01-4.26827E+00-1.14559E-02-3.25083E-01
 -1      1581 7.45842E+00-3.35041E-01 2.16350E-01-3.68492E+00-5.85423E-04-2.60102E-01
 -1      1582-3.38610E+01 2.28327E+00 8.45234E+00 2.38259E+01 4.27653E+00-1.08759E+00
 -1      1583-1.24216E+02-2.96725E+01-2.08024E+01 1.82342E+01 4.31064E+00-2.13106E+01
 -1      1584-1.36325E+02 1.23117E+00 1.48960E+01 8.37674E+00 1.44482E+00 6.56538E-01
 -1      1585 1.27898E+02 3.20099E+01 2.54252E+01 1.90265E+01 4.25804E+00 2.13048E+01
 -1      1586 3.85189E+01 1.30835E+00 7.67176E-01 2.27274E+01 3.11104E+00 3.06266E+00
 -1      1587-2.76432E+00-3.48567E-01 9.71196E-01 7.65369E+00 2.30867E+00-3.74592E-01
 -1      1588 1.32250E+02-3.23599E+00-1.17537E+01 8.04014E+00 2.35792E+00 1.25473E+00
 -1      1589-3.92466E+00 1.46494E-01-5.17372E-01-6.87448E+00 1.71510E-02 4.32766E-01
 -1      1590-1.59722E+00 5.79209E-01-7.61433E-02-7.42800E+00-3.10169E-02 1.11604E-01
 -1      1591-4.63871E+00 1.00556E+00 2.40446E-01-7.00629E+00-1.01246E-01 5.39677E-02
 -1      1592 1.28280E+00-2.57456E-01-2.16934E-01-7.50598E+00 2.22293E-02 2.54715E-02
 -1      1593 3.84687E+00 2.76734E-01 5.48664E-01-6.99232E+00 4.09174E-02-4.55076E-01
 -1      1594 2.36686E-02 2.09201E-01-1.40982E-01-7.80723E+00-4.22987E-02 1.50979E-01
 -1      1595 4.56443E+00-5.88431E-01-1.94091E-01-7.19289E+00-1.50310E-01-3.24539E-02
 -1      1596-2.12475E+02-9.16397E-01-2.05901E+00 4.19030E+00-1.45572E+00 1.81932E+00
 -1      1597-2.13268E+02 1.88145E+00 1.43554E+00 6.55342E-02 5.59478E-01 1.56176E+00
 -1      1598-1.59329E+02 4.88101E+00 3.36422E+00 5.25585E+00 1.94382E+00 3.55814E+00
 -1      1599-2.14844E+02 7.81611E-01 3.20065E-01-1.81159E+00 2.09312E-01 2.96080E-01
 -1      1600-2.14070E+02 1.45417E-01 2.24999E-01-2.64928E+00 1.45932E-01 3.91535E-01
 -1      1601-1.40676E+02 1.74735E+00 1.23264E-01-2.74924E+00 6.98814E-01 8.92209E-01
 -1      1602-2.12089E+02 6.91995E-03-1.36108E-01-3.11444E+00 9.18445E-02 1.17033E-01
 -1      1603-2.08274E+02 1.11524E-01-1.59293E-01-3.14967E+00 1.02568E-01 2.87841E-01
 -1      1604-1.41751E+02 7.36722E-02-4.59699E-02-5.73555E+00 1.27577E-01 4.35651E-01
 -1      1605-2.05874E+02-5.62877E-02 1.92579E-02-3.30997E+00 4.22137E-02 1.61303E-01
 -1      1606-2.01646E+02-9.96449E-02 1.01948E-01-3.12278E+00-2.93828E-02 4.17266E-02
 -1      1607-1.37093E+02 4.85628E-02-1.91274E-02-6.55692E+00 2.18765E-01 1.58740E-01
 -1      1608-1.98893E+02-2.07478E-02-1.75306E-01-3.22049E+00 6.33406E-02-5.01757E-03
 -1      1609-1.94420E+02 5.28585E-02-7.48208E-02-3.21554E+00-8.30921E-02 1.80176E-01
 -1      1610-1.32354E+02-1.37476E-01 1.71556E-02-6.66626E+00-6.03084E-02-7.72569E-02
 -1      1611-1.92431E+02-1.49206E-01 1.68797E-01-3.08446E+00-6.83905E-02 1.60038E-01
 -1      1612-1.87678E+02 4.02637E-02 1.84928E-01-2.96373E+00-6.98466E-02 6.75796E-03
 -1      1613-1.27879E+02-3.25338E-02 7.64951E-02-6.67342E+00-1.38383E-01 1.10975E-01
 -1      1614-1.85230E+02 7.27384E-02-6.26489E-03-3.02159E+00-1.42605E-02 3.08797E-02
 -1      1615-1.81020E+02 1.55028E-02 3.24503E-02-2.98422E+00-5.70161E-03 1.70781E-02
 -1      1616-1.23565E+02 1.05557E-01-5.33666E-02-6.53575E+00 3.02103E-02-7.69190E-02
 -1      1617-1.78673E+02 5.17152E-02-9.35534E-02-2.79092E+00 9.94031E-03-5.08627E-02
 -1      1618-1.74066E+02 5.63906E-02-1.79037E-01-2.79885E+00 6.10169E-02 1.36983E-01
 -1      1619-1.19127E+02-2.00649E-01-9.19792E-02-6.45522E+00-3.20578E-02-1.06921E-01
 -1      1620-1.71614E+02-4.55171E-02 2.70259E-02-2.85713E+00 7.44254E-02 1.77411E-01
 -1      1621-1.67047E+02 3.11013E-02-1.37728E-02-2.76436E+00-3.51880E-02 1.18483E-01
 -1      1622-1.14439E+02 4.45299E-02-5.15369E-02-6.43607E+00 1.02271E-01 7.29765E-02
 -1      1623-1.64580E+02-1.63383E-03 5.25094E-02-2.85385E+00 2.22681E-02 1.41179E-01
 -1      1624-1.60167E+02 7.76364E-02 1.55504E-01-2.74431E+00-6.81432E-02 7.71297E-02
 -1      1625-1.09904E+02 1.77870E-02 5.08921E-03-6.51351E+00 2.00974E-02 5.85256E-03
 -1      1626-1.57842E+02 1.04683E-01-1.20329E-02-2.75624E+00 2.00408E-02-2.33890E-02
 -1      1627-1.53560E+02 4.21364E-02-3.48812E-02-2.72638E+00-2.09751E-02 6.34879E-02
 -1      1628-1.05460E+02-4.55062E-02-7.07880E-03-6.38501E+00-4.49625E-02-9.27179E-02
 -1      1629-1.50635E+02 8.90741E-02-8.62963E-02-2.61730E+00 2.74206E-02-5.36307E-02
 -1      1630-1.46062E+02 7.96567E-02-1.82509E-01-2.65227E+00 6.13068E-02 1.36259E-01
 -1      1631-1.00654E+02-1.15330E-01-1.22025E-01-6.32519E+00 2.66351E-03-1.00267E-01
 -1      1632-1.44086E+02 2.56152E-02 1.07736E-01-2.70585E+00 5.59365E-02 1.59764E-01
 -1      1633-1.39723E+02-4.66853E-02 7.93255E-02-2.60879E+00-4.12215E-02-3.39854E-02
 -1      1634-9.59229E+01 8.48373E-02-4.87505E-02-6.34197E+00 1.12610E-01 6.37831E-02
 -1      1635-1.36966E+02 2.16517E-03-1.40318E-01-2.67049E+00 6.89832E-02 5.74346E-02
 -1      1636-1.32567E+02 9.24492E-02-4.90610E-02-2.73972E+00-1.91628E-02 1.47624E-01
 -1      1637-9.16486E+01 1.44984E-01-3.53929E-02-6.29726E+00 4.72995E-02-1.07314E-01
 -1      1638-1.30316E+02 4.73143E-02 6.54979E-03-2.64091E+00 2.84269E-02 1.34056E-01
 -1      1639-1.25699E+02 1.19882E-01-2.67250E-02-2.72120E+00-9.36912E-02 1.78752E-01
 -1      1640-8.68013E+01 1.69720E-01 9.57181E-03-6.44074E+00-2.45130E-02 1.32098E-03
 -1      1641-1.23043E+02-6.06943E-02 1.66347E-01-2.73045E+00-5.89961E-02 1.75371E-01
 -1      1642-1.18306E+02 1.07966E-01 1.81118E-01-2.67856E+00-6.30469E-02 4.93285E-03
 -1      1643-8.23322E+01 7.52411E-02 6.18235E-02-6.39054E+00-1.28189E-01 9.35152E-02
 -1      1644-1.15928E+02 1.42743E-01-6.36165E-03-2.77726E+00-1.08647E-02 3.16707E-02
 -1      1645-1.11713E+02 8.39702E-02 3.56250E-02-2.81265E+00-2.68598E-03 1.48078E-02
 -1      1646-7.72996E+01 2.41914E-01-6.27668E-02-6.37332E+00 3.85445E-02-7.75790E-02
 -1      1647-1.09422E+02 1.22834E-01-9.63169E-02-2.64833E+00 1.22907E-02-5.11676E-02
 -1      1648-1.04829E+02 1.31901E-01-1.91182E-01-2.73583E+00 5.87841E-02 1.34182E-01
 -1      1649-7.30128E+01-7.05963E-02-9.71670E-02-6.36982E+00-3.35319E-02-1.14473E-01
 -1      1650-1.02483E+02 5.07087E-02 1.96809E-02-2.82974E+00 5.89321E-02 1.61766E-01
 -1      1651-9.80700E+01 8.62143E-03 1.05171E-01-2.74160E+00-3.50678E-03-9.24412E-03
 -1      1652-6.85995E+01 1.49888E-01-9.99236E-02-6.40104E+00 1.27962E-01 8.96876E-02
 -1      1653-9.57828E+01-6.51488E-03-2.00466E-01-2.82475E+00 8.70750E-02 5.83985E-02
 -1      1654-9.13881E+01 1.08730E-01-6.81903E-02-2.95977E+00-5.85775E-02 1.75953E-01
 -1      1655-6.42006E+01 9.13385E-02 2.03266E-03-6.40988E+00 3.51432E-02-7.49079E-02
 -1      1656-8.86558E+01 3.68321E-03 1.85407E-01-2.86617E+00-6.33385E-02 1.27678E-01
 -1      1657-8.40261E+01 6.46821E-03 8.92892E-02-2.85911E+00-2.10264E-02-3.74378E-02
 -1      1658-5.94673E+01 1.52139E-01 8.25561E-02-6.50438E+00-1.04218E-01 7.91461E-02
 -1      1659-8.17458E+01-2.96765E-02-9.08069E-02-2.98638E+00 4.50085E-02 1.24728E-01
 -1      1660-7.71426E+01 8.57559E-02-6.46835E-02-3.04484E+00 3.34681E-03 1.53316E-01
 -1      1661-5.46436E+01 2.99916E-01 5.44467E-02-6.51708E+00 3.48277E-02-6.09126E-02
 -1      1662-7.47486E+01 6.69055E-02-5.23385E-02-3.04779E+00 5.14899E-02 1.34483E-01
 -1      1663-7.02882E+01 1.23236E-01 4.81270E-02-3.08990E+00-5.05939E-02 1.20811E-01
 -1      1664-4.99873E+01 1.89501E-01 2.54559E-02-6.68503E+00 7.19209E-02-3.43706E-02
 -1      1665-6.78626E+01 5.55206E-02 9.48881E-02-3.12716E+00-1.53108E-03 1.42496E-01
 -1      1666-6.32355E+01 1.42228E-01 1.10091E-01-3.17253E+00-4.23463E-02 3.22266E-02
 -1      1667-4.57068E+01 1.09767E-01-2.87735E-02-6.73233E+00-5.90379E-02-3.12031E-02
 -1      1668-6.08637E+01 1.52726E-01-8.62073E-02-3.11979E+00 2.02629E-02 4.55240E-02
 -1      1669-5.65190E+01 9.26086E-02-1.94956E-02-3.27511E+00-2.59215E-02 1.07873E-01
 -1      1670-4.09531E+01 2.51822E-01-8.06912E-02-6.67904E+00 6.00968E-02-9.97844E-02
 -1      1671-5.41021E+01 8.58434E-02 1.89865E-02-3.24686E+00 1.51169E-02 1.38683E-01
 -1      1672-4.95508E+01 1.55166E-01 1.91273E-03-3.34826E+00-6.31131E-02 1.73766E-01
 -1      1673-3.65015E+01 2.04466E-01 1.21146E-02-6.81158E+00-6.21614E-02-2.78598E-02
 -1      1674-4.72531E+01 1.85694E-02 5.04889E-02-3.31438E+00-5.68735E-03 1.69799E-01
 -1      1675-4.25633E+01 1.68186E-01-1.27743E-02-3.35084E+00 1.74437E-04 1.64117E-01
 -1      1676-3.19438E+01 1.98825E-01 1.52440E-02-6.82276E+00-7.52615E-02 3.59481E-02
 -1      1677-4.01808E+01 5.68665E-02 4.38181E-02-3.51767E+00 3.90640E-02 1.79935E-01
 -1      1678-3.56299E+01 1.36058E-01 1.61255E-01-3.55395E+00-6.39470E-02-3.64103E-03
 -1      1679-2.74193E+01 2.18046E-01 1.37859E-02-6.91185E+00 5.61726E-02 7.30268E-02
 -1      1680-3.32991E+01 1.77706E-01-1.15799E-01-3.46651E+00 2.48126E-02 4.28903E-02
 -1      1681-2.89487E+01 1.41606E-01-3.64629E-02-3.67427E+00-4.72293E-02 1.36439E-01
 -1      1682-2.27762E+01 2.84982E-01-5.61588E-02-6.91500E+00 4.60147E-02-8.41952E-02
 -1      1683-2.64757E+01 6.01334E-03 1.87706E-01-3.67987E+00-4.66007E-02 1.70091E-01
 -1      1684-2.17055E+01 1.85154E-01 1.94096E-01-3.68763E+00-6.75241E-02 1.21948E-02
 -1      1685-1.85089E+01 1.45130E-01 5.67674E-02-7.03320E+00-1.28934E-01 7.90308E-02
 -1      1686-1.94735E+01 2.01894E-01 2.08068E-02-3.75425E+00-2.50571E-02 4.60181E-02
 -1      1687-1.52053E+01 1.50648E-01 4.52540E-02-3.81929E+00-1.34254E-02 1.87546E-02
 -1      1688-1.38264E+01 3.53080E-01-4.54399E-02-7.03203E+00 2.03939E-02-5.85859E-02
 -1      1689-1.23998E+01 4.13919E-01 6.77530E-02-3.96654E+00-2.12063E-02-1.10319E-01
 -1      1690-8.34085E+00 2.13959E-01 3.86723E-02-4.26288E+00 9.19017E-02-8.60942E-02
 -1      1691-9.29188E+00 1.49491E-01-9.09581E-02-7.12257E+00-7.92885E-02-1.21380E-01
 -1      1692-6.75498E+00 8.23454E-01-2.47755E-02-6.77392E+00-1.20295E-01-9.98074E-02
 -1      1693 2.12034E+02-2.82323E+00-2.21330E+00-2.29233E-01 9.42052E-01-2.29277E+00
 -1      1694 2.13073E+02 8.43909E-01 2.34782E+00 3.73310E+00-1.24462E+00-1.86374E+00
 -1      1695 1.59958E+02-5.90303E+00-3.39956E+00 4.33903E+00 2.10783E+00-3.67560E+00
 -1      1696 2.13346E+02-5.70297E-01-6.52156E-02-3.55194E+00 1.78937E-01-7.34844E-01
 -1      1697 2.15000E+02-6.20360E-01-2.03133E-01-2.51306E+00-4.88026E-02-5.42503E-01
 -1      1698 1.39736E+02-1.75692E+00-4.54108E-01-3.39197E+00 4.64475E-01-1.06527E+00
 -1      1699 2.09092E+02 4.42678E-03-8.42853E-02-4.42560E+00 2.79449E-02-9.65931E-02
 -1      1700 2.12637E+02-1.86547E-01-1.64855E-01-4.14681E+00-4.26679E-02-3.75374E-01
 -1      1701 1.40648E+02-5.07570E-01-3.35679E-02-6.50095E+00 1.17941E-01-4.44986E-01
 -1      1702 2.02332E+02 7.10159E-02 1.66798E-02-4.82868E+00 6.69368E-03 3.49415E-02
 -1      1703 2.06447E+02-4.29874E-02-4.43449E-02-4.71000E+00 3.28616E-02-5.85220E-02
 -1      1704 1.37409E+02-2.63166E-01-1.58394E-01-7.41970E+00 8.26505E-02 2.32024E-02
 -1      1705 1.94998E+02 6.11359E-02-6.72180E-03-4.97317E+00 2.16143E-02-4.52542E-02
 -1      1706 1.99232E+02 1.20280E-02 3.55104E-02-4.89460E+00 1.50247E-02-3.60282E-02
 -1      1707 1.32182E+02-2.17325E-01-1.14221E-01-7.74799E+00 7.25799E-02 8.09498E-02
 -1      1708 1.89096E+02-3.52323E-02 5.02346E-02-5.08187E+00-3.02943E-02-1.60358E-01
 -1      1709 1.93655E+02 5.18734E-02 1.44329E-01-4.97014E+00 5.51567E-02-3.74146E-02
 -1      1710 1.28381E+02 3.81811E-02-7.54847E-02-7.85379E+00-1.85991E-02 5.99643E-02
 -1      1711 1.82170E+02-5.84375E-02 2.31656E-02-5.15412E+00-7.57651E-02-1.77106E-01
 -1      1712 1.86797E+02 2.54138E-02 1.77993E-02-5.01913E+00 2.58270E-02-1.36104E-01
 -1      1713 1.24970E+02-5.56175E-02-2.46330E-02-7.95197E+00-1.04554E-02-4.96231E-02
 -1      1714 1.74938E+02-4.56182E-02-1.82694E-01-5.13837E+00-6.21092E-02-1.67500E-02
 -1      1715 1.79688E+02 1.06869E-01-1.73813E-01-5.15639E+00-4.80506E-02-1.74200E-01
 -1      1716 1.20611E+02 5.44033E-02-5.01521E-02-7.95364E+00-1.13972E-01-9.85567E-02
 -1      1717 1.68530E+02 5.55196E-02-5.14274E-02-5.28583E+00-7.32219E-03 5.14170E-02
 -1      1718 1.72796E+02-4.44725E-02-3.99091E-02-5.22343E+00-2.36369E-02-5.15354E-02
 -1      1719 1.15991E+02-1.13750E-01 6.63846E-02-7.95902E+00 2.98995E-02 4.70708E-02
 -1      1720 1.61472E+02 4.40093E-02 1.42157E-02-5.30531E+00-1.62295E-02-1.09176E-01
 -1      1721 1.65860E+02-2.72847E-02 8.07239E-02-5.17526E+00 2.32662E-02-3.44767E-02
 -1      1722 1.11538E+02-2.35855E-02 9.90519E-02-7.99123E+00 7.00444E-02 1.31832E-01
 -1      1723 1.54123E+02-6.25321E-03 2.50023E-02-5.35924E+00-7.33469E-02-1.86570E-01
 -1      1724 1.58679E+02 5.79576E-02-1.97751E-02-5.28601E+00 3.74203E-02-1.38305E-01
 -1      1725 1.06563E+02 6.47428E-02-4.77927E-03-8.14101E+00-5.25241E-02 1.19452E-02
 -1      1726 1.47186E+02 1.10809E-01-8.85718E-02-5.24822E+00-1.22410E-02 4.25827E-02
 -1      1727 1.51812E+02 1.06812E-01-1.81358E-01-5.28839E+00-6.14151E-02-1.44626E-01
 -1      1728 1.01720E+02 1.06255E-01-5.56946E-02-8.06507E+00-1.02525E-01-8.22602E-02
 -1      1729 1.40381E+02 1.51720E-01-1.32866E-02-5.38664E+00-1.03226E-03-3.12150E-02
 -1      1730 1.44611E+02 8.22005E-02 3.75902E-02-5.40088E+00 2.24416E-03-2.33155E-02
 -1      1731 9.69415E+01-1.01281E-01-8.50865E-02-8.04085E+00 3.21822E-02 1.04715E-01
 -1      1732 1.33615E+02 1.39431E-01 3.24219E-02-5.37960E+00-2.79977E-03 5.02535E-02
 -1      1733 1.38037E+02 6.61729E-02-2.03433E-02-5.37760E+00 2.17148E-02 4.68679E-02
 -1      1734 9.26116E+01 1.86434E-01-1.37423E-01-8.08609E+00-7.44762E-02 7.38541E-02
 -1      1735 1.26520E+02 1.12213E-01-4.21939E-02-5.43026E+00-5.13792E-02-4.48298E-03
 -1      1736 1.30886E+02 1.66438E-01-9.82478E-03-5.40926E+00 3.99799E-02-8.04802E-02
 -1      1737 8.80894E+01 9.93388E-03-9.59024E-02-8.11373E+00 3.04582E-02 1.50133E-02
 -1      1738 1.18730E+02 8.50504E-02 1.37502E-02-5.41257E+00-2.49895E-02-1.08381E-01
 -1      1739 1.23112E+02 1.03679E-02 7.99562E-02-5.31950E+00 1.72589E-02-3.65765E-02
 -1      1740 8.24499E+01 3.03115E-02 4.24036E-02-8.14876E+00 5.87709E-02 7.66831E-02
 -1      1741 1.11710E+02 3.25654E-02-1.01846E-02-5.35883E+00-5.47000E-02-1.74113E-01
 -1      1742 1.16301E+02 1.00438E-01-1.79049E-02-5.34262E+00 2.43054E-02-1.41095E-01
 -1      1743 7.71822E+01 1.27975E-01-1.87558E-02-8.20703E+00-5.88518E-02 1.85803E-02
 -1      1744 1.04680E+02 3.43784E-02-1.45675E-01-5.26916E+00-4.86320E-02-5.65304E-02
 -1      1745 1.09292E+02 1.68121E-01-1.21799E-01-5.34955E+00-1.68562E-02-1.59763E-01
 -1      1746 7.26873E+01 1.86708E-01 7.05788E-03-8.15483E+00-9.73293E-02-5.14436E-02
 -1      1747 9.86525E+01 6.10256E-02-4.72849E-02-5.23430E+00-1.37689E-02-3.09111E-02
 -1      1748 1.02926E+02 1.61998E-02 6.74229E-03-5.27453E+00-1.58445E-02-6.81279E-02
 -1      1749 6.87559E+01 5.11464E-02 7.09427E-02-8.05677E+00 4.47726E-02 6.48374E-02
 -1      1750 9.15634E+01 1.64546E-01-2.11249E-02-5.11448E+00 2.74268E-02-6.65417E-03
 -1      1751 9.58836E+01 1.39428E-02 3.84689E-03-5.14040E+00-4.93509E-02 4.87978E-02
 -1      1752 6.47537E+01 1.73820E-01 7.99922E-02-7.97521E+00-3.81697E-02 1.11113E-01
 -1      1753 8.41363E+01 5.14335E-02 3.37262E-02-5.20113E+00-4.08715E-02-1.67666E-01
 -1      1754 8.86616E+01 1.34641E-01 1.36834E-01-5.19810E+00 5.26754E-02-1.93931E-02
 -1      1755 5.95086E+01 2.55323E-01-8.09174E-02-7.94775E+00-6.05364E-02 5.23196E-02
 -1      1756 7.71347E+01 4.88724E-02-9.21562E-03-5.07565E+00-5.15395E-02-1.77455E-01
 -1      1757 8.17340E+01 1.35258E-01 8.32736E-03-5.08072E+00 6.12702E-04-1.42700E-01
 -1      1758 5.43571E+01 1.17788E-01-2.93242E-02-8.04284E+00-3.61749E-02-3.22502E-02
 -1      1759 7.02003E+01 5.67443E-02-1.69836E-02-4.99282E+00-3.57975E-02-1.71687E-01
 -1      1760 7.47930E+01 1.48150E-01-2.55529E-02-5.01718E+00 1.01944E-02-1.54770E-01
 -1      1761 4.98631E+01 1.94290E-01 2.81451E-02-7.98330E+00-5.85754E-02-3.10752E-02
 -1      1762 6.33235E+01 6.16320E-02 3.23876E-02-4.96947E+00-7.57090E-02-1.77849E-01
 -1      1763 6.79016E+01 1.42113E-01 9.95915E-03-4.95201E+00 2.66037E-02-1.34484E-01
 -1      1764 4.53254E+01 1.94066E-01 1.71717E-02-7.95818E+00-2.50444E-02-5.31681E-03
 -1      1765 5.61943E+01 7.39831E-02-1.81499E-01-4.79462E+00-6.03612E-02-7.42372E-03
 -1      1766 6.09419E+01 2.40130E-01-1.66158E-01-4.92396E+00-4.92489E-02-1.82118E-01
 -1      1767 4.09250E+01 2.44482E-01-6.02725E-02-7.86654E+00-1.11796E-01-9.07249E-02
 -1      1768 4.95466E+01 9.60563E-02-5.33363E-02-4.79894E+00 8.43924E-03-2.33806E-02
 -1      1769 5.37917E+01 4.07238E-02 1.76428E-03-4.85654E+00-5.97690E-03-3.80352E-02
 -1      1770 3.61556E+01 9.64534E-02 6.11437E-02-7.75502E+00 3.84487E-02 7.45603E-02
 -1      1771 4.26615E+01 1.35693E-01 4.40336E-02-4.66030E+00-2.73301E-02 4.37427E-02
 -1      1772 4.69444E+01 5.00685E-02-3.31590E-02-4.73021E+00-1.77920E-02 6.50247E-02
 -1      1773 3.17773E+01 4.21506E-01 9.47136E-02-7.69363E+00-6.08037E-02 1.14569E-01
 -1      1774 3.57612E+01 2.35417E-01-7.14571E-03-4.54475E+00 1.91527E-02 8.49567E-02
 -1      1775 4.00134E+01 2.95801E-02-3.83493E-02-4.60257E+00-2.10024E-02 9.52201E-04
 -1      1776 2.70470E+01 1.15501E-01 1.15225E-01-7.61769E+00 9.07222E-02 1.23158E-01
 -1      1777 2.88652E+01 8.14809E-02-2.98917E-02-4.53820E+00-3.59626E-02-8.51776E-02
 -1      1778 3.31905E+01 1.64691E-01 2.96698E-02-4.59822E+00 5.70613E-02-7.23592E-02
 -1      1779 2.26898E+01 1.66062E-01-4.38881E-02-7.61892E+00 3.19035E-02 5.13073E-02
 -1      1780 2.19046E+01 1.46927E-01-7.63722E-03-4.38864E+00-3.42627E-03 3.10701E-02
 -1      1781 2.61958E+01 6.38032E-02-4.69033E-02-4.46319E+00-1.22882E-02 3.66409E-02
 -1      1782 1.80530E+01 3.35004E-01 5.07492E-02-7.57215E+00-3.84075E-02 3.75269E-02
 -1      1783 1.49792E+01 6.98486E-02-5.07659E-02-4.30427E+00-1.39550E-02-3.73070E-02
 -1      1784 1.92639E+01 2.53124E-02-2.28121E-02-4.36907E+00-9.83375E-03-4.49946E-02
 -1      1785 1.35422E+01 1.02661E-01 1.15089E-01-7.44761E+00 1.14254E-01 8.44535E-02
 -1      1786 7.91359E+00-1.47663E-01-2.13949E-02-4.50990E+00 2.09574E-02-1.19928E-02
 -1      1787 1.22183E+01-1.56812E-01-6.57881E-02-4.38220E+00-3.22768E-02 7.17635E-02
 -1      1788 8.96755E+00 2.90503E-01 1.48520E-01-7.41950E+00-9.07217E-02 8.84612E-02
 -1      1789 6.34319E+00-2.35700E-01 2.79290E-01-6.92095E+00-1.54215E-02 1.28590E-01
 -1      1790-2.84054E+01 1.96996E-01 5.76216E-02-7.82910E+00 2.69938E-02 5.61641E-02
 -1      1791-2.61241E+01 2.35514E-01 8.00343E-02-7.94807E+00 9.15479E-02-6.86785E-02
 -1      1792-2.62910E+01 1.28928E-01-5.48161E-02-7.96172E+00 3.38723E-02-6.04386E-02
 -1      1793-2.40643E+01 1.96754E-01 3.86801E-02-8.10184E+00 7.67535E-02-1.65054E-01
 -1      1794-3.03835E-01 2.22887E-01-6.99622E-02-9.19119E+00 1.92927E-02-3.09722E-02
 -1      1795-1.72085E+01 1.14641E-01-1.62319E-02-8.21695E+00 2.98420E-03-7.12925E-02
 -1      1796-1.50358E+01 1.74844E-01 2.48813E-02-8.12821E+00-7.25361E-02-7.03312E-02
 -1      1797-1.94801E+01 2.53167E-01-2.94424E-02-8.16302E+00-1.13207E-01-1.84809E-01
 -1      1798-1.71240E+01 3.73176E-01 5.42335E-02-8.10426E+00-2.17945E-02-9.10154E-02
 -1      1799-1.51488E-01 2.59115E-01 9.79520E-02-9.25838E+00 1.37094E-03 4.12954E-02
 -1      1800 1.00705E+01 2.21455E-01-4.17337E-02-8.51863E+00 5.80049E-02 5.65888E-02
 -1      1801 1.23624E+01 3.09957E-01 5.49524E-02-8.52790E+00 1.10734E-02 2.92370E-02
 -1      1802 1.21128E+01 1.56047E-01-1.03331E-01-8.59859E+00-1.51622E-02-3.81166E-02
 -1      1803 1.48054E+01 3.82811E-01 5.43588E-02-8.41533E+00 4.73330E-03-2.41612E-02
 -1      1804-1.84741E-01 3.68898E-01-1.36868E-02-9.25842E+00-1.95227E-02-3.34464E-02
 -1      1805-7.86179E+00 2.99605E-01 7.83182E-02-8.05326E+00 2.07045E-03 1.02916E-01
 -1      1806-5.84591E+00 2.50467E-01 4.52298E-02-8.26995E+00 2.13676E-02 3.33353E-02
 -1      1807-6.10866E+00 2.09786E-01-1.92194E-02-8.23384E+00-7.09230E-02-2.61594E-02
 -1      1808-3.55962E-01 2.39598E-01-3.81512E-02-9.16912E+00-1.31260E-03-1.20659E-02
 -1      1809-3.78810E+00 3.78637E-01 5.13494E-02-8.22262E+00 1.47900E-02-3.87551E-02
 -1      1810-3.32005E+01 1.19035E-01-7.08038E-02-7.95804E+00 4.65501E-02-4.87048E-02
 -1      1811-3.09349E+01 1.56421E-01 3.73930E-02-7.96103E+00 9.38937E-02-6.96157E-02
 -1      1812-3.32276E+01 2.81254E-01 3.76045E-02-8.01980E+00-1.12733E-02-5.06901E-02
 -1      1813 1.59861E-02 2.27761E-01-1.32726E-02-9.29845E+00-5.45039E-03-9.61136E-03
 -1      1814-3.53730E+01 2.03271E-01-2.50788E-02-7.93053E+00 1.07594E-01-8.17342E-02
 -1      1815 2.14427E+01 2.17529E-01-3.35831E-02-8.65271E+00 8.77259E-03 1.02908E-01
 -1      1816 2.37018E+01 2.80830E-01 2.60982E-02-8.72190E+00 3.63054E-03 1.12802E-01
 -1      1817 1.93173E+01 9.19529E-02-4.24127E-02-8.64082E+00-1.79631E-01 5.88680E-02
 -1      1818 2.14344E+01 2.19295E-01 5.78661E-02-8.71860E+00-3.40188E-02 7.44194E-02
 -1      1819-1.57061E-01 2.00540E-01-7.06948E-02-9.24257E+00-7.68131E-03-2.57825E-02
 -1      1820-3.97523E+01 1.38206E-01 1.65488E-02-7.68974E+00 2.14379E-02 2.03013E-02
 -1      1821-3.75955E+01 9.81477E-02 1.50782E-02-7.93283E+00 4.30888E-02-1.22096E-02
 -1      1822-3.77181E+01 7.94195E-02-5.33084E-02-7.88059E+00-9.36806E-02-2.78125E-02
 -1      1823-3.57137E+01 8.73614E-02-6.19412E-02-7.74736E+00 1.59495E-02 4.26124E-02
 -1      1824-1.53356E-01 1.83269E-01-5.64673E-02-9.23779E+00 7.52663E-03-7.79446E-02
 -1      1825 6.46395E+01-3.16161E-02-4.95941E-02-8.64160E+00 1.26426E-01 4.62836E-02
 -1      1826 6.73821E+01 3.78424E-02 5.96777E-02-8.54555E+00 7.36638E-02-1.74939E-02
 -1      1827 6.35433E+01-8.18656E-04-1.53446E-02-8.56263E+00 7.15978E-03 4.29909E-02
 -1      1828 6.46189E+01 5.19961E-02 6.76161E-02-8.67811E+00-5.50148E-03-8.10888E-03
 -1      1829-2.51595E-01-1.72872E-02 4.96300E-02-9.24770E+00 5.14525E-04-1.13282E-02
 -1      1830-6.05883E+01-8.81730E-02-5.74421E-02-7.95873E+00-9.31653E-02-2.53412E-02
 -1      1831-5.85195E+01-6.24362E-02-3.08007E-02-7.79034E+00 2.73679E-02 5.38566E-02
 -1      1832-6.27000E+01-1.37361E-02 3.31046E-02-7.80141E+00 1.05125E-02 1.89995E-02
 -1      1833-6.04383E+01-4.05854E-02 1.83529E-02-8.01652E+00 4.20383E-02-1.50889E-02
 -1      1834 2.91810E-01-1.07448E-02-6.85621E-02-9.25522E+00 3.27922E-03-7.12032E-02
 -1      1835-6.97064E+01 2.57493E-02 1.82752E-02-7.71754E+00 2.12823E-01 1.52012E-02
 -1      1836-6.75799E+01 7.49457E-02 2.31638E-02-8.08352E+00 4.71847E-02-3.83372E-02
 -1      1837-7.01312E+01-2.24008E-02-5.53337E-03-7.17157E+00 2.83830E-01 1.31877E-01
 -1      1838-7.23902E+01 2.02017E-01-2.62391E-01-6.59825E+00 4.16484E-01 3.04921E-01
 -1      1839-6.77100E-01-2.59829E-01 4.79048E-02-8.32720E+00 2.04510E-01 2.84431E-02
 -1      1840 5.00512E+01 1.11232E-01-3.34607E-02-8.79857E+00-1.10392E-01 6.34627E-02
 -1      1841 5.22249E+01 2.14483E-01 6.89130E-02-8.87924E+00 3.12214E-02 3.98747E-02
 -1      1842 5.22896E+01 8.29436E-02-4.56304E-02-8.77147E+00 8.45947E-03 8.97746E-02
 -1      1843 6.80974E-01 8.58464E-02-5.91969E-02-9.26243E+00 2.43722E-04-5.66795E-02
 -1      1844 5.48896E+01 1.20297E-01 1.11177E-02-8.84862E+00-6.25577E-02 1.33308E-01
 -1      1845-4.39404E+01 2.26885E-01-1.34984E-02-7.97383E+00-5.57023E-02-1.18049E-01
 -1      1846-4.19772E+01 2.74197E-01 5.44206E-02-7.94753E+00-1.63661E-02-6.86864E-02
 -1      1847-4.42598E+01 1.35016E-02 3.92704E-02-7.89945E+00 1.20416E-01-7.50219E-02
 -1      1848 6.90215E-01 3.33550E-02 3.69237E-02-9.21844E+00 1.07038E-03-5.80097E-02
 -1      1849-4.69404E+01-8.04533E-02-1.05489E-01-7.91112E+00 6.86719E-02-4.14501E-02
 -1      1850-5.83278E+01 4.03418E-02-3.28271E-02-7.97979E+00 1.10833E-01-7.03096E-02
 -1      1851-5.60179E+01 1.59914E-01 6.89464E-02-8.05417E+00-2.54467E-02-5.27031E-02
 -1      1852-5.55758E+01 4.04484E-02-4.22615E-02-7.95078E+00-8.27192E-03-1.00406E-01
 -1      1853-5.33980E+01 9.56633E-02 1.56895E-02-8.00531E+00 1.93721E-02-1.33988E-01
 -1      1854 6.20516E-01 6.04087E-02-4.28050E-02-9.26582E+00 4.59604E-03 4.34095E-02
 -1      1855 6.92805E+01-3.80581E-01 2.23544E-01-5.16617E+00 1.12638E+00-4.97005E-01
 -1      1856 6.95593E+01-9.24914E-01-2.29400E-01-2.61928E+00 1.52264E+00-5.42307E-01
 -1      1857-5.58141E-01-1.01379E-01 1.48524E-01-3.00439E+00 2.66939E+00 3.60239E-01
 -1      1858 6.99048E+01-9.56694E-01-1.66191E+00-4.15388E-01 2.48074E+00-1.32232E+00
 -1      1859 1.03727E+02-5.13507E+00-2.96935E+00 4.95037E+00 4.42368E+00-1.20672E+00
 -1      1860 3.74437E+01 2.00252E+00-2.48874E-02 3.38904E+00 4.27854E+00-1.69086E-02
 -1      1861 2.58817E+01 4.34876E-02-3.67368E-02-8.67483E+00-2.37966E-02 9.21597E-02
 -1      1862 2.83336E+01 2.23663E-01 6.45860E-02-8.77339E+00-5.81389E-02 1.58750E-01
 -1      1863 2.83147E+01 1.94224E-01-1.52046E-02-8.60680E+00-3.89551E-03 5.71548E-02
 -1      1864 3.11167E+01 2.86135E-01 8.50811E-02-8.74053E+00-3.48426E-02 6.49749E-03
 -1      1865-7.33837E-02 2.81384E-01-7.19199E-02-9.16305E+00-3.37300E-02 3.04748E-02
 -1      1866-1.04349E+01 7.76230E-02-3.68539E-02-8.33199E+00-2.95507E-02-6.05243E-02
 -1      1867-8.40334E+00 1.80184E-01 2.42062E-02-8.20414E+00-1.05045E-01-4.41825E-02
 -1      1868-1.26699E+01 2.75590E-01 6.49959E-02-8.11762E+00-2.27294E-02-7.47393E-02
 -1      1869-1.03440E+01 2.74078E-01 9.39822E-02-8.26355E+00 3.20403E-02-4.09414E-02
 -1      1870-2.51604E-01 2.58397E-01 6.32903E-02-9.27684E+00 1.99222E-02 3.01304E-02
 -1      1871 3.34825E+00 1.32649E-01-1.88560E-03-8.32005E+00 1.25263E-02 7.03800E-02
 -1      1872 5.56506E+00 2.79021E-01 1.00805E-01-8.42731E+00-6.76821E-02 5.73076E-02
 -1      1873 3.48508E+00 7.46330E-02 1.03659E-02-8.24537E+00 7.19626E-02 1.06977E-01
 -1      1874-2.12292E-01 2.67900E-01-2.79466E-03-8.86619E+00 5.74963E-02 1.57365E-02
 -1      1875 4.53417E+00-2.89284E-01-5.39231E-02-7.61398E+00 2.56588E-02 4.04677E-02
 -1      1876 1.39608E+00 3.97522E-02 4.61493E-02-8.28134E+00 1.04904E-02 9.55394E-02
 -1      1877 3.72597E+01 1.31644E-02-6.34114E-02-8.78919E+00-2.54311E-02 9.03759E-02
 -1      1878 3.96165E+01 1.31820E-01 2.60452E-02-8.88264E+00-1.20169E-01 1.78309E-01
 -1      1879 3.95559E+01 1.57698E-01-1.14392E-01-8.77539E+00 3.55594E-02 5.05476E-02
 -1      1880 4.28288E+01 2.40666E-01 3.64839E-02-8.67431E+00 2.23195E-02 1.21246E-02
 -1      1881-7.36740E-02 2.53376E-01-9.92827E-02-9.14912E+00-4.16028E-02-9.39080E-03
 -1      1882 5.46907E+00 1.44946E-01-8.03357E-02-8.49593E+00-2.28757E-02-1.25623E-02
 -1      1883 8.03502E+00 3.47621E-01 2.66745E-02-8.32057E+00 2.18271E-02-1.53289E-02
 -1      1884 7.68009E+00 1.30872E-01-2.92138E-02-8.29061E+00 2.09528E-02-4.21118E-02
 -1      1885 1.01128E+01 4.39931E-01 8.03868E-02-8.47353E+00-2.67555E-03 1.81640E-02
 -1      1886-3.68410E-02 3.71694E-01-3.47153E-03-9.02093E+00 4.92750E-02-2.51795E-02
 -1      1887 3.50885E+01 1.60694E-01-3.65125E-02-8.81370E+00-7.80626E-02 5.91009E-02
 -1      1888 3.73726E+01 2.70259E-01 3.62005E-02-8.90671E+00 2.85015E-02 5.99595E-02
 -1      1889 3.34340E+01 8.09776E-02-1.46396E-02-8.80432E+00-1.35876E-02-2.14701E-02
 -1      1890 3.49937E+01 8.15721E-02 2.76739E-02-8.64914E+00-9.92093E-03 6.52798E-02
 -1      1891-3.95370E-01 4.10705E-02 5.16270E-02-8.98010E+00-5.78483E-03-2.57137E-02
 -1      1892-5.16669E+01-4.95725E-02-1.04955E-01-7.85809E+00-7.29585E-02-4.40533E-02
 -1      1893-4.89049E+01 1.75790E-02-3.96220E-02-7.75093E+00 2.02102E-02 5.42926E-02
 -1      1894-4.86353E+01 1.12228E-01-3.05053E-02-7.93752E+00 1.05982E-01-7.71539E-02
 -1      1895-4.68247E+01 2.38172E-01 8.38759E-02-8.02004E+00-1.79786E-02-6.38037E-02
 -1      1896 1.14650E-01-6.46124E-02 3.85824E-02-8.99232E+00-7.52867E-03-7.20679E-03
 -1      1897 5.93243E+01 3.21793E-02-2.69903E-02-8.72106E+00-1.17339E-01 5.71847E-02
 -1      1898 6.16026E+01 1.50094E-01 7.58253E-02-8.80704E+00 3.22892E-02 5.75768E-02
 -1      1899 5.67927E+01-6.30409E-02-1.05488E-01-8.71744E+00 3.74715E-02-3.53681E-02
 -1      1900 5.88140E+01-4.05659E-02-3.22791E-02-8.49730E+00-2.09669E-02-4.58670E-02
 -1      1901-1.52392E-01-1.44227E-01 3.81985E-02-8.98586E+00 4.35129E-03-2.89701E-03
 -1      1902 4.73652E+01 2.79535E-02-5.80362E-02-8.75110E+00 9.73164E-02 1.10241E-02
 -1      1903 4.96615E+01 3.41171E-02-3.74024E-02-8.60739E+00-2.74062E-02-6.66583E-02
 -1      1904 4.76393E+01 1.47461E-01 3.08591E-02-8.83444E+00-2.73024E-02-3.13787E-02
 -1      1905 5.55504E-01 1.39267E-01-4.41568E-02-9.30495E+00-1.09438E-02 1.29219E-02
 -1      1906 4.53961E+01-2.13868E-02-6.55196E-02-8.59727E+00-3.12232E-02-8.94001E-02
 -1      1907-3.24983E+01-3.87888E-01-6.40254E-02 3.32061E+00 3.78100E+00 3.85376E-01
 -1      1908-1.01195E+02 5.01879E+00 3.68617E+00 4.69077E+00 4.83049E+00 1.58568E+00
 -1      1909-6.95508E+01 6.11560E-01 8.64064E-01-2.18916E-01 2.31917E+00 1.82881E+00
 -1      1910-1.70175E+00 3.85983E-01-1.01680E-01-8.19521E+00 1.01436E-02 1.49839E-02
 -1      1911-4.88142E+00 8.37125E-01 6.06862E-02-7.47657E+00 1.19074E-02 2.69272E-02
 -1      1912-3.83584E+00 3.94846E-01-4.58310E-02-8.16171E+00 5.91459E-02-8.04469E-02
 -1      1913 1.44680E+01 1.28494E-01-6.19413E-02-8.35740E+00-9.88786E-03-4.85296E-02
 -1      1914 1.69304E+01 4.18347E-01 8.52801E-02-8.58372E+00-6.62473E-02 4.33040E-03
 -1      1915 1.67908E+01 2.79666E-01-3.42420E-02-8.59937E+00 3.79236E-02 1.12543E-02
 -1      1916 1.89921E+01 2.20454E-01-1.73124E-02-8.40037E+00 2.14628E-02-2.05843E-02
 -1      1917-2.19026E+01 7.25313E-02-6.12403E-02-7.93085E+00 1.17827E-02-2.65618E-02
 -1      1918-1.94232E+01 2.11025E-01 1.19085E-01-8.06853E+00 3.10552E-02-6.16343E-02
 -1      1919-2.40114E+01 1.64649E-01-3.94891E-02-8.10855E+00-2.85969E-02-1.16452E-01
 -1      1920-2.16464E+01 3.07255E-01 5.81247E-02-8.00755E+00 2.97068E-02-6.77869E-02
 -1      1921-6.49569E+01-7.76380E-02-7.04829E-02-8.15599E+00-2.92290E-02-5.24936E-02
 -1      1922-6.32817E+01 8.37133E-02 3.83905E-02-8.02109E+00-1.63830E-01-7.94186E-02
 -1      1923-6.76356E+01 2.42376E-02-4.85400E-02-8.08934E+00-5.25621E-02-7.30853E-02
 -1      1924-6.48320E+01 2.33882E-02 2.95096E-02-8.01433E+00-5.08073E-02-7.88093E-02
 -1      1925 6.95001E+01-5.65740E-02-1.20759E-01-7.93490E+00 8.97471E-02 7.14023E-02
 -1      1926 7.05241E+01-2.88408E-01 1.11792E-01-7.00201E+00 3.66768E-01-2.49331E-01
 -1      1927 6.72500E+01-2.01948E-01-2.36597E-02-8.43736E+00 7.99055E-02 3.85799E-02
 -1      1928 6.97156E+01-1.43611E-01 8.50971E-02-8.08750E+00 6.23852E-02 5.34049E-02
 -1      1929-1.06882E+00 1.65928E-02 1.95403E-02-6.88828E+00 1.22220E+00-2.88047E-02
 -1      1930-7.22813E+01 2.85325E-01-9.29510E-02-4.99382E+00 1.21140E+00 5.79519E-01
 -1      1931-7.15031E+01 4.77132E-01-5.16045E-02-2.44058E+00 1.52381E+00 6.62822E-01
 -1      1932-3.10338E+01 1.87957E-01 3.12480E-03-8.05419E+00-2.10958E-02-3.66322E-02
 -1      1933-2.87287E+01 2.74488E-01 3.85516E-02-7.98579E+00-1.46567E-01-6.78691E-02
 -1      1934-1.28758E-01 2.38100E-01 5.84216E-02-9.26090E+00 1.13152E-02 1.90463E-02
 -1      1935 3.35712E+01 1.72806E-01 1.11766E-02-8.77658E+00-1.21548E-01 2.54687E-02
 -1      1936 3.11584E+01 1.09253E-01-1.11048E-01-8.71147E+00-2.86087E-02 7.42108E-04
 -1      1937-1.47733E+01 3.13011E-01-2.60368E-02-8.11769E+00-2.09823E-02-8.85075E-02
 -1      1938-1.26002E+01 2.96285E-01 2.92340E-02-8.24049E+00 3.16353E-03-5.54853E-02
 -1      1939-9.24698E-02 3.40940E-01-2.37199E-02-9.06389E+00 2.33406E-02-3.14236E-02
 -1      1940 2.38071E+01 1.57839E-01-1.80687E-02-8.68841E+00-1.77097E-02 1.06004E-01
 -1      1941 2.59543E+01 1.92015E-01 4.03121E-02-8.74381E+00-3.02884E-02 1.09094E-01
 -1      1942-2.47757E-01 2.11701E-01-5.31462E-02-9.26713E+00 1.55832E-02 2.76352E-02
 -1      1943-4.24917E+01 1.57120E-01-5.21791E-02-7.96679E+00-3.03700E-02-7.69510E-02
 -1      1944-4.00973E+01 2.76261E-01 3.67439E-02-7.92085E+00-1.75620E-01-6.82495E-02
 -1      1945 2.43340E-01 1.62552E-01 4.11643E-02-9.28634E+00-1.52022E-02 2.03831E-02
 -1      1946 4.58188E+01 2.58983E-01 6.70440E-02-8.65179E+00 3.68711E-02-1.43002E-01
 -1      1947 4.30730E+01-3.45111E-02-1.21520E-01-8.76986E+00 6.23073E-02 1.89346E-02
 -1      1948-5.34556E+01 5.36778E-02-4.43929E-02-7.93518E+00-4.28494E-02-8.60327E-02
 -1      1949-5.12513E+01 1.17046E-01 2.33085E-02-7.90129E+00-1.05033E-04-3.86696E-02
 -1      1950 7.56584E-01 1.07067E-01-1.17816E-01-9.27140E+00 5.56346E-03-6.19003E-03
 -1      1951 5.75604E+01 9.42631E-02-1.79329E-02-8.68147E+00-3.05766E-02 4.79235E-02
 -1      1952 5.50259E+01 5.29747E-02-7.12752E-02-8.79888E+00 2.11954E-02 6.24009E-02
 -1      1953 1.55540E-01 6.09429E-02-9.35717E-02-9.16443E+00-4.82794E-02 8.11831E-03
 -1      1954 6.14898E+01-1.42466E-01-6.62197E-02-8.70550E+00-3.22327E-02 9.13879E-02
 -1      1955 6.37735E+01-2.86989E-03 5.05915E-02-8.72105E+00-5.61766E-02 1.47340E-01
 -1      1956-1.03617E-01-3.08725E-02 1.27307E-02-9.15572E+00 3.64581E-02 4.93762E-02
 -1      1957-3.23981E-01 1.39228E-01 8.94174E-02-9.14607E+00-4.68933E-02 2.67708E-03
 -1      1958-5.24027E+01 1.29131E-01 3.05759E-02-6.51904E+00 1.20393E-02 1.81591E-02
 -1      1959-3.41786E+01 1.77842E-01-7.79502E-03-6.93586E+00-2.32411E-03 4.68399E-02
 -1      1960 2.48412E+01 2.27468E-01-7.81078E-02-7.61506E+00 4.86930E-03-1.45435E-02
 -1      1961-1.19666E+01 1.76953E-01 2.55545E-02-7.09323E+00 6.70205E-04 1.11576E-01
 -1      1962-6.64026E+01 2.51937E-01 2.95103E-02-6.46294E+00 2.47742E-02-6.43063E-02
 -1      1963 4.30455E+01 2.01756E-01-4.85006E-02-7.79365E+00 2.60283E-03-2.86967E-03
 -1      1964-7.50836E+01 1.98031E-01-3.17345E-02-6.35802E+00 5.43223E-03 1.87974E-02
 -1      1965 1.29459E+02-7.13250E-02 1.03182E-01-7.90892E+00-6.61116E-02-2.34879E-02
 -1      1966-1.20284E+02 7.68983E-02-8.61109E-02-6.55839E+00-2.74132E-02 7.63987E-02
 -1      1967-1.39463E+02-1.42416E-02 1.62282E-02-6.23379E+00-5.67270E-02-1.25718E-01
 -1      1968 1.02240E+02 8.15507E-02-6.88046E-03-8.08457E+00-3.20031E-02-6.81978E-02
 -1      1969 8.87696E+01 6.87757E-02 7.68655E-02-8.23920E+00-3.83255E-02-6.44802E-02
 -1      1970 1.11361E+02 6.01072E-02-4.28104E-02-8.01279E+00 4.47678E-03 7.26246E-03
 -1      1971 1.38467E+02-4.00716E+00-2.28242E+00 3.20604E-01-1.49741E+00 3.56700E+00
 -1      1972 5.67394E+01 1.44258E-01-6.50635E-02-7.89638E+00 1.18660E-02-6.45093E-03
 -1      1973-2.02975E+01 2.69143E-01-7.86622E-02-6.94284E+00-3.31054E-02 6.68860E-02
 -1      1974 7.14538E+00-1.11660E-01-4.20521E-02-7.53550E+00 8.43624E-03-1.13278E-01
 -1      1975 7.96388E+01 1.16612E-01-7.53340E-02-7.93802E+00 3.80063E-02-1.48937E-02
 -1      1976 1.57687E+01 1.89763E-01 5.53591E-03-7.41150E+00-1.48114E-02-8.58565E-03
 -1      1977 7.01813E+01 1.87277E-01 5.01087E-02-7.98813E+00-4.81789E-02-2.36576E-02
 -1      1978-9.79967E+01 7.95240E-02 7.79769E-02-6.18023E+00 9.29753E-02 1.78637E-02
 -1      1979-8.57174E+01 8.73055E-02-3.14898E-03-6.18349E+00 2.33191E-02 1.93556E-02
 -1      1980-1.06635E+02 1.04971E-01-7.05105E-02-6.45938E+00-4.62113E-03 1.02605E-01
 -1      1981-7.24527E+01 2.96419E+00 7.79268E+00 6.51509E+00-3.36642E+00 5.31622E-01
 -1      1982-2.77016E+00 7.85303E-01 2.95036E-02-7.61455E+00 3.30606E-02-7.76815E-02
 -1      1983 3.39159E+01 1.40045E-01 2.65305E-02-7.69673E+00 1.45705E-03-1.38841E-02
 -1      1984-4.30716E+01 2.17319E-01-5.38258E-02-6.58751E+00-3.51305E-02 4.60106E-02
 -1      1985 1.20163E+02-2.64185E-02-8.11271E-03-8.10316E+00-8.53572E-03-5.91882E-02
 -1      1986-1.29281E+02 2.00203E-02-8.09384E-02-6.67081E+00-2.47068E-02 7.95721E-02
 -1      1987 1.39352E+02-1.64286E-01-3.50049E-02-6.96664E+00-1.08625E-01 1.46784E-01
 -1      1988 1.40621E+02-1.14447E+00-2.03100E-01-5.32945E+00-3.12763E-01 9.28199E-01
 -1      1989-2.11663E+00-1.56571E-01-8.31727E-02-4.84848E+00-2.02057E+00-1.11829E-01
 -1      1990 1.12370E+01 1.66743E-01-4.22457E-03-7.37363E+00 9.09815E-03-1.80693E-02
 -1      1991-5.69642E+01 1.70933E-01 2.33667E-02-6.39819E+00-5.22488E-04 5.24586E-04
 -1      1992-6.17563E+01 9.68237E-02-1.58123E-02-6.27608E+00-3.44387E-02-2.04113E-03
 -1      1993 5.71094E-02 2.01364E-01 9.43610E-03-9.06439E+00 1.76411E-03 1.03319E-02
 -1      1994-2.94692E+01 2.01102E-01-3.06535E-02-6.70766E+00-2.71461E-02 4.86374E-02
 -1      1995-8.01847E+01 1.23031E-01-7.31956E-02-6.44157E+00-2.95318E-02 7.62595E-02
 -1      1996 4.75880E+01 1.90407E-01-1.10144E-03-7.97278E+00 5.61252E-03-8.85479E-02
 -1      1997 2.00983E+01 1.33760E-01 7.10363E-02-7.57415E+00-1.54413E-02-7.85536E-02
 -1      1998 2.94639E+01 2.07214E-01-4.19432E-02-7.53161E+00 1.63420E-02 1.17928E-02
 -1      1999-1.02321E+02 8.52602E-02-3.39515E-02-6.34002E+00-9.72065E-03-2.63006E-03
 -1      2000 9.76053E+01 9.95967E-02 1.12852E-01-7.96648E+00-9.28775E-02 1.80402E-02
 -1      2001 9.39943E+01 1.21155E-01-5.58455E-02-8.06308E+00 3.92097E-02-3.62060E-02
 -1      2002-1.22583E+00 1.50476E-01 2.82640E-02-9.16287E+00 1.17792E-02 6.71270E-03
 -1      2003-1.16167E+02 3.69349E-02 8.24631E-02-6.29766E+00 9.67964E-02 2.24381E-03
 -1      2004-1.11350E+02 3.37372E-02 5.29967E-02-6.53547E+00-5.91703E-04 2.51223E-02
 -1      2005-1.62423E+01 1.78409E-01 3.10791E-02-6.88571E+00 2.72187E-02 4.88223E-02
 -1      2006 8.48577E+01 7.32047E-02 4.15135E-02-8.06576E+00-1.29405E-02-2.73424E-03
 -1      2007 1.15693E+02 2.41948E-02 7.66418E-02-7.82031E+00-9.23797E-02-1.03556E-02
 -1      2008 7.49238E+01 1.52931E-01-9.11822E-03-8.32051E+00-8.34285E-03-1.53269E-02
 -1      2009-1.25088E+02-2.93354E-02 8.89191E-02-6.55186E+00 1.65320E-02 1.07002E-02
 -1      2010 1.35176E+02-3.77144E-02-4.78655E-02-7.60894E+00 1.37899E-02-9.95786E-03
 -1      2011-1.35000E+02 3.64982E-02 1.26239E-01-6.56447E+00 2.66695E-02-7.92747E-02
 -1      2012 1.25056E+02-8.65549E-02-1.25461E-01-7.76270E+00 4.39806E-02 3.58862E-02
 -1      2013-3.89463E+01 1.81776E-01 7.43762E-02-6.50661E+00 4.49582E-02 2.07222E-02
 -1      2014 1.06868E+02 8.34229E-02-8.49428E-02-8.20183E+00 2.99104E-02-6.28843E-02
 -1      2015-4.79442E+01 1.44248E-01 7.78097E-02-6.70620E+00 3.84054E-02 7.01564E-02
 -1      2016-7.07699E+01 1.01692E-01-2.52382E-02-6.30372E+00 1.47419E-02 6.79781E-04
 -1      2017-2.51133E+01 2.76382E-01 1.23115E-01-6.77612E+00 3.26554E-02-5.49701E-02
 -1      2018 3.82523E+01 1.57502E-01 6.55995E-02-7.82899E+00-1.67104E-02-1.11504E-01
 -1      2019 5.19629E+01 1.60540E-01 2.07792E-02-7.91289E+00-1.38657E-02-5.24284E-02
 -1      2020-6.46461E-01-1.39609E-01 7.46815E-03-8.11000E+00-4.63445E-01-3.08935E-02
 -1      2021-1.42817E+02 7.84387E-01-3.43856E-02-4.74715E+00-3.84295E-01-6.51000E-01
 -1      2022 7.16896E+01 1.00001E-01-5.16221E+00 6.96316E+00-3.09979E+00 2.69648E-01
 -1      2023 6.70984E+01 2.20223E-01-3.28265E-02-7.97368E+00-1.96690E-03-9.66027E-02
 -1      2024 6.22688E+01 1.41625E-01 8.11319E-02-7.95622E+00-3.76582E-03 6.25083E-03
 -1      2025-8.47774E-01 1.35826E-01-1.36782E-02-9.19410E+00-2.49323E-02 1.64096E-02
 -1      2026-9.51671E+01 6.75646E-02-2.64297E-02-6.28707E+00-8.34923E-03-6.52322E-03
 -1      2027-4.00236E-01 3.34515E-01 2.17706E-02-9.09886E+00-3.31406E-02 1.95845E-02
 -1      2028 3.38370E-02 2.74965E-01 5.33147E-02-9.12066E+00 3.85586E-02-8.38428E-03
 -1      2029 3.06159E-02 2.10599E-01 2.54659E-02-9.04876E+00 2.50566E-02 9.77140E-03
 -1      2030-1.43319E-01 3.67728E-01-3.40263E-02-9.20833E+00 3.09657E-02 1.49094E-02
 -1      2031-2.26732E-01 2.66633E-01 9.87698E-03-9.17568E+00-2.96607E-02-3.33393E-03
 -1      2032-1.41920E-01 2.93827E-01-3.85672E-03-9.24827E+00-5.44850E-03-2.89466E-02
 -1      2033-3.20746E-01 2.67114E-01-3.89718E-03-9.15098E+00 5.29158E-02-4.34922E-03
 -1      2034-1.54973E-01 1.96260E-01 5.08792E-02-9.08183E+00-1.12348E-02 7.06885E-04
 -1      2035-1.77093E-01 2.22931E-01-3.09692E-03-9.07832E+00 8.27447E-03-6.08306E-03
 -1      2036-5.78723E-01 2.45498E-02 2.53816E-02-9.20679E+00 3.83883E-02-5.38462E-03
 -1      2037-3.66205E-01-1.25343E-02-2.69335E-02-9.03873E+00 9.61718E-04 1.64998E-02
 -1      2038-2.19648E-01-9.41502E-02 2.89305E-02-9.16715E+00-4.96668E-02 1.66434E-03
 -1      2039-1.18095E-01-8.38363E-02 5.03547E-02-9.00235E+00-1.15862E-02 1.86904E-02
 -1      2040-2.44309E-01-2.07431E-02-2.09484E-02-8.89554E+00-1.62138E-02-6.46898E-03
 -1      2041-2.78550E-01 2.51121E-01 2.11894E-02-9.10652E+00-5.47983E-02 3.86375E-02
 -1      2042-3.30556E-03 7.33609E-02 3.15317E-02-9.09133E+00-3.97144E-02-2.19349E-02
 -1      2043-1.14140E-01 2.45224E-01-1.55710E-02-9.17788E+00 2.17609E-02-9.33628E-03
 -1      2044-3.29936E-01 5.04128E-02 2.95117E-02-9.17195E+00-1.25277E-02-1.13865E-02
 -1      2045-3.08830E-01 3.08819E-02 3.98566E-02-9.17789E+00-1.91028E-03 1.06358E-02
 -1      2046 2.82451E-02 8.05365E-02 2.54733E-02-9.12300E+00 2.22323E-02 2.05190E-02
 -1      2047-1.27309E-01 2.54946E-01 4.48655E-02-9.04877E+00-1.54612E-02 3.54873E-02
 -1      2048 2.32291E-02 1.37971E-01 1.43795E-02-9.10819E+00-2.16914E-02-6.43856E-03
 -1      2049-4.14476E-01 1.81964E-01-2.57693E-02-9.04060E+00 1.94608E-02-1.45752E-02
 -1      2050-1.30196E-01 2.27620E-01-2.01433E-02-9.14898E+00 2.77828E-02 7.97326E-03
 -1      2051-2.00746E-01 1.50986E-01 1.65497E-02-9.16900E+00-5.49274E-02-1.63669E-02
 -1      2052-9.07140E+01 8.63366E-02-5.69339E-03-6.31272E+00 8.74879E-03 9.02730E-02
 -1      2053 6.35902E-03 1.64224E-01 1.32722E-02-9.11677E+00 2.60622E-02 1.48063E-02
 -1      2054 2.92052E+00-6.55891E-01-2.53291E-01-7.62702E+00 3.43968E-02-7.39893E-02
 -1      2055-1.39270E+02 3.61934E+00 1.89367E+00 2.36278E-01-1.29933E+00-3.22381E+00
 -1      2056-7.40937E+00 5.64845E-01-3.47220E-02-7.35300E+00-3.62720E-03 6.28555E-02
 -1      2057 7.30995E-01 1.50719E-01-7.21610E-02-1.00024E+00-3.04057E+00-6.74801E-01
 -1      2058 1.96496E+02-7.28486E+00-1.72655E+01 5.08526E+00-2.27839E+00-1.19754E+00
 -1      2059-1.90882E+02 8.68826E+00 1.93822E+01 7.19294E+00-3.66401E+00-1.46929E+00
 -1      2060 5.83804E+00-9.55968E-01-4.47176E-02-6.28626E+00 1.35064E-01 2.19575E-01
 -1      2061-6.01911E+00 1.48194E+00 4.64268E-02-6.05828E+00 1.70138E-01-2.03445E-01
 -1      2062-1.26620E-01 1.66048E-01-5.07743E-02-8.67599E+00 7.32592E-03 1.90861E-02
 -1      2063-2.82322E+02-3.83788E+01-3.52006E+01-9.20884E+00 5.03997E+00 3.59428E+01
 -1      2064-1.81567E+02-2.17228E+01-3.44797E+00 1.74165E+01-2.50493E+00 2.23898E+01
 -1      2065-2.21562E+02 1.45654E+01 1.45806E+01 1.28414E+01-7.28238E+00-6.98564E+00
 -1      2066 1.94086E+02 3.04059E+01 2.19310E+01 1.34212E+01 3.88571E-01-2.76232E+01
 -1      2067 2.85433E+02 3.94365E+01 3.60697E+01-8.22141E+00 4.33769E+00-3.63767E+01
 -1      2068 2.22472E+02-1.57165E+01-1.48325E+01 1.26558E+01-6.73446E+00 7.18516E+00
 -1      2069-5.24376E+00 4.24593E-01-5.84636E-01-5.92051E+00 1.55758E-01-5.83588E-01
 -1      2070-2.68421E+00 8.73836E-01 1.18932E-01-4.33937E+00 7.97386E-02-3.36044E-01
 -1      2071-7.72945E+00 5.13556E-01-3.81099E-01-3.58717E+00-1.21473E-01-2.97769E-01
 -1      2072 2.54142E+00-6.09182E-01-1.52224E-01-4.38796E+00 4.00328E-02 3.75882E-01
 -1      2073 4.92471E+00-2.29630E-01 4.14864E-01-6.11654E+00 2.87956E-02 5.38916E-01
 -1      2074 7.60263E+00-2.83496E-01 3.61903E-01-3.81526E+00-1.45836E-01 3.01176E-01
 -1      2075-1.24371E+02-2.97981E+01-2.10831E+01 1.82114E+01-4.30503E+00 2.12794E+01
 -1      2076-3.41499E+01 2.05057E+00 8.12408E+00 2.37770E+01-4.39747E+00 1.14083E+00
 -1      2077-1.36676E+02 1.11420E+00 1.47021E+01 8.40476E+00-1.51065E+00-6.64351E-01
 -1      2078 3.81329E+01 9.71630E-01 8.47622E-01 2.28274E+01-3.14513E+00-2.86085E+00
 -1      2079 1.27774E+02 3.19126E+01 2.52323E+01 1.90202E+01-3.76273E+00-2.07411E+01
 -1      2080-2.75021E+00-4.75630E-01 1.06737E+00 7.63243E+00-2.18621E+00 4.12287E-01
 -1      2081 1.31244E+02-3.53276E+00-1.26025E+01 8.40205E+00-2.19816E+00-1.07420E+00
 -1      2082-1.45741E+00 6.11761E-01 1.87925E-02-7.43938E+00 5.77917E-03-1.00879E-01
 -1      2083-3.99294E+00 9.61505E-02-5.78551E-01-6.91995E+00-5.40625E-03-5.20120E-01
 -1      2084-4.31832E+00 1.05552E+00 1.21667E-01-6.93152E+00 3.21458E-02-1.24786E-01
 -1      2085 3.79325E+00 2.61577E-01 5.57450E-01-6.97880E+00-3.64424E-02 4.48637E-01
 -1      2086 1.26488E+00-2.56882E-01-2.07162E-01-7.48300E+00-3.09493E-02-1.36510E-02
 -1      2087 2.58724E-02 2.23777E-01-1.26474E-01-7.76502E+00 4.93710E-02-1.78184E-01
 -1      2088 4.45901E+00-5.37760E-01-2.34299E-01-7.12140E+00 1.05542E-01 1.70437E-02
 -1      2089-2.13258E+02 1.94038E+00 1.48300E+00 3.87023E-02-5.11242E-01-1.62671E+00
 -1      2090-2.12370E+02-8.31520E-01-2.15249E+00 4.14511E+00 1.48954E+00-1.84114E+00
 -1      2091-1.59259E+02 4.99445E+00 3.39034E+00 5.28126E+00-2.04472E+00-3.53668E+00
 -1      2092-2.13713E+02 4.05711E-01 1.74749E-02-2.48020E+00-1.41613E-01-6.38788E-01
 -1      2093-2.14989E+02 7.10482E-01 1.69883E-01-1.74813E+00-2.34975E-01-3.82225E-01
 -1      2094-1.40688E+02 1.61276E+00 5.46167E-02-2.85265E+00-5.28754E-01-7.67347E-01
 -1      2095-2.08267E+02 1.08686E-01-2.83727E-02-3.15606E+00-2.80889E-02-2.63670E-01
 -1      2096-2.11981E+02 5.48213E-02-3.75699E-03-3.00203E+00 3.44232E-02-3.42463E-01
 -1      2097-1.41593E+02 2.44383E-01-1.53476E-01-5.78426E+00-1.10746E-01-4.31971E-01
 -1      2098-2.01480E+02-1.51051E-02 1.75241E-01-3.19994E+00 7.49063E-02 1.54014E-02
 -1      2099-2.05970E+02-1.29640E-01 5.00961E-02-3.33143E+00-6.75036E-03-2.45665E-01
 -1      2100-1.37497E+02-9.86510E-02-1.82907E-02-6.61037E+00-6.17107E-02-1.71933E-01
 -1      2101-1.94355E+02 7.40452E-03-1.07324E-02-3.16864E+00 1.55474E-02-1.16869E-01
 -1      2102-1.98697E+02 4.83212E-02-9.80202E-02-3.10282E+00-1.38077E-02-4.31171E-02
 -1      2103-1.32127E+02 6.66551E-02-5.15976E-02-6.62556E+00-4.33362E-02 8.13638E-02
 -1      2104-1.87343E+02 2.31224E-02 1.41474E-01-3.01029E+00 6.35093E-02-1.45220E-02
 -1      2105-1.91888E+02-9.39132E-02 1.10903E-01-3.13772E+00-1.06486E-02-1.48251E-01
 -1      2106-1.27376E+02-7.34465E-02-1.96978E-03-6.73378E+00 5.05363E-02-2.38530E-02
 -1      2107-1.80667E+02 2.68818E-02-4.03250E-02-3.01516E+00 6.29105E-02-1.28601E-01
 -1      2108-1.85007E+02 6.93256E-02-1.08718E-01-2.91389E+00-2.61410E-02-3.47346E-02
 -1      2109-1.22692E+02 9.95033E-02-3.86831E-02-6.55784E+00-6.01668E-02 8.50349E-02
 -1      2110-1.73610E+02-3.90179E-02 9.00175E-02-2.77922E+00 3.92629E-02 4.56725E-02
 -1      2111-1.78204E+02-2.91831E-02 1.99807E-01-2.87978E+00 6.84689E-02-1.26029E-01
 -1      2112-1.18308E+02-2.45872E-02 6.49594E-02-6.52832E+00 1.50358E-01-4.77350E-02
 -1      2113-1.66855E+02-1.40246E-03 4.29338E-02-2.90507E+00 5.91383E-02 9.98598E-03
 -1      2114-1.71156E+02-5.46024E-02 1.83044E-02-2.92776E+00-3.12221E-02-6.90900E-02
 -1      2115-1.13701E+02 1.45959E-01 6.35592E-02-6.48467E+00 2.94756E-03 3.87528E-02
 -1      2116-1.59950E+02 2.90464E-02-7.07950E-03-2.79891E+00 3.08619E-02-1.05570E-01
 -1      2117-1.64326E+02 8.40507E-02-8.45575E-02-2.71659E+00-6.34953E-03-3.15991E-02
 -1      2118-1.09014E+02 1.38544E-01-4.25110E-02-6.48351E+00-5.22300E-02 8.44155E-02
 -1      2119-1.53018E+02 8.19577E-02-2.43282E-02-2.75919E+00 8.55033E-02-1.80034E-01
 -1      2120-1.57545E+02 7.83661E-03 2.08621E-02-2.72255E+00-2.67192E-02-1.30134E-01
 -1      2121-1.04616E+02 5.78749E-02 1.60566E-03-6.50460E+00 6.93341E-02 2.00579E-02
 -1      2122-1.46059E+02-2.00684E-02 9.06404E-02-2.62386E+00 2.88279E-02 4.26185E-02
 -1      2123-1.50640E+02-1.63614E-02 1.86080E-01-2.67319E+00 7.56831E-02-1.35851E-01
 -1      2124-1.00129E+02 4.11769E-02 5.51389E-02-6.37818E+00 1.21158E-01-7.22566E-02
 -1      2125-1.40205E+02 4.38953E-02-6.61761E-02-2.65992E+00 5.84219E-03-1.46172E-01
 -1      2126-1.44786E+02-6.58898E-02-1.01060E-01-2.64470E+00-4.19319E-02-1.22594E-01
 -1      2127-9.65161E+01 2.08085E-01 4.07632E-02-6.29647E+00-8.07114E-03 4.99747E-02
 -1      2128-1.33366E+02 6.51361E-02 5.65872E-02-2.61141E+00 5.67399E-02-1.29342E-01
 -1      2129-1.37806E+02 1.44489E-02-3.83168E-02-2.62998E+00-4.99620E-02-1.17498E-01
 -1      2130-9.28515E+01 1.14918E-01 1.25807E-02-6.35986E+00-6.39248E-02 2.27812E-02
 -1      2131-1.26119E+02-3.93287E-03 4.19848E-02-2.61999E+00 1.68614E-02-4.94959E-03
 -1      2132-1.30665E+02 5.87468E-02 1.11279E-01-2.60941E+00 2.66881E-02-1.20677E-01
 -1      2133-8.81780E+01 5.75417E-02-1.87637E-02-6.34067E+00 7.34942E-02 3.97739E-02
 -1      2134-1.18980E+02 6.74713E-02-5.63845E-02-2.77579E+00 3.39828E-02-1.39916E-01
 -1      2135-1.23357E+02-4.27993E-03-1.45582E-01-2.67732E+00-6.91739E-02-7.76270E-02
 -1      2136-8.29391E+01 1.69557E-01-2.84143E-02-6.29821E+00-3.59699E-02 9.72333E-02
 -1      2137-1.11625E+02 1.22314E-01 1.87357E-02-2.76473E+00 6.00470E-02-1.70228E-01
 -1      2138-1.16225E+02 4.71036E-02 1.24709E-02-2.70976E+00-7.93812E-03-1.31559E-01
 -1      2139-7.76163E+01 1.59016E-01 6.29157E-03-6.45423E+00 3.42778E-02-3.00969E-03
 -1      2140-1.04761E+02 1.33085E-01-3.79245E-02-2.74331E+00 2.01399E-02-1.60951E-01
 -1      2141-1.09399E+02-6.02110E-04 2.21204E-02-2.70255E+00 8.97408E-03-1.58888E-01
 -1      2142-7.29862E+01 8.56754E-02-5.22644E-02-6.46549E+00 8.44838E-02-2.85711E-02
 -1      2143-9.80108E+01 9.79650E-02 1.25342E-01-2.81996E+00 5.72026E-02-8.58436E-02
 -1      2144-1.02553E+02-2.74130E-02-9.21204E-03-2.89232E+00-5.53585E-02-2.20092E-01
 -1      2145-6.87735E+01 8.87555E-02-5.50023E-02-6.52569E+00-2.58202E-02-1.04017E-01
 -1      2146-9.11511E+01 1.43176E-01-4.89510E-02-2.89240E+00 2.08255E-02-1.90575E-01
 -1      2147-9.56982E+01 1.67641E-01-8.90641E-02-2.73007E+00-2.19430E-02 3.97810E-02
 -1      2148-6.40487E+01 2.52146E-01 4.52010E-02-6.27431E+00 3.36061E-02 1.76105E-02
 -1      2149-8.39894E+01 1.35323E-01-1.39644E-02-2.89183E+00 6.83320E-03-1.55945E-01
 -1      2150-8.86038E+01-1.05682E-02 4.77596E-02-2.89917E+00-3.21628E-02-1.65624E-01
 -1      2151-5.93758E+01 1.89380E-01 3.23179E-02-6.53062E+00 2.69270E-02-8.58453E-02
 -1      2152-7.70692E+01 1.02441E-01-1.68997E-02-2.98579E+00 2.34182E-02-1.35095E-01
 -1      2153-8.16615E+01 3.28712E-02-1.28940E-02-2.97414E+00-3.86949E-02-1.74112E-01
 -1      2154-5.46344E+01 2.04338E-01 3.69846E-02-6.59672E+00-5.95141E-02-3.52397E-02
 -1      2155-7.02530E+01 1.38002E-01 1.37353E-01-3.08401E+00 7.29822E-02-6.44633E-02
 -1      2156-7.46470E+01 5.85016E-02 4.79267E-02-3.10340E+00-1.91626E-02-1.53422E-01
 -1      2157-5.01673E+01 1.63882E-01 1.15859E-02-6.68185E+00-2.21477E-02-3.11225E-03
 -1      2158-6.34451E+01 9.79828E-02-1.15076E-01-3.20451E+00 5.86663E-02-1.57106E-01
 -1      2159-6.78112E+01 1.66201E-01-8.91441E-02-3.07438E+00-4.21632E-02 3.19990E-02
 -1      2160-4.55067E+01 1.13665E-01 1.61573E-02-6.61837E+00 3.81550E-02 1.06706E-01
 -1      2161-5.63801E+01 9.91450E-03 8.40511E-02-3.14929E+00 1.16996E-02 5.52637E-02
 -1      2162-6.10072E+01 9.66315E-03 1.72816E-01-3.15825E+00 6.09150E-02-1.44962E-01
 -1      2163-4.11262E+01 1.76019E-01 6.27393E-02-6.69810E+00 1.08685E-01-5.36546E-02
 -1      2164-4.96555E+01 1.21469E-01 2.50931E-02-3.41439E+00 5.42399E-02-6.83060E-02
 -1      2165-5.39494E+01 4.02290E-02-2.47294E-02-3.36441E+00-4.42682E-02-7.90715E-02
 -1      2166-3.65076E+01 2.87081E-01 2.80102E-02-6.74695E+00-3.50544E-02 5.56729E-02
 -1      2167-4.26959E+01 1.46601E-01-1.23383E-01-3.43054E+00-7.58084E-03-1.15303E-01
 -1      2168-4.71442E+01 1.64193E-01-5.78446E-02-3.30575E+00-1.55851E-02 2.51218E-02
 -1      2169-3.18494E+01 9.99294E-02-5.21361E-02-6.83011E+00 3.94250E-02 6.24541E-02
 -1      2170-3.56058E+01 1.09558E-01 1.81348E-01-3.51563E+00 6.91128E-02 2.41799E-02
 -1      2171-4.02521E+01-9.51713E-04 6.47820E-02-3.52666E+00-2.10190E-02-2.04265E-01
 -1      2172-2.75465E+01 1.88440E-01 1.40763E-03-6.90492E+00-3.20853E-02-1.03064E-01
 -1      2173-2.89177E+01 1.47908E-01-1.69723E-02-3.65177E+00 1.79914E-02-1.25066E-01
 -1      2174-3.32620E+01 1.79756E-01-9.46727E-02-3.45388E+00-1.76833E-02-5.36732E-02
 -1      2175-2.26911E+01 3.22867E-01-3.79276E-02-6.86563E+00-3.89967E-02 8.28590E-02
 -1      2176-2.19978E+01 6.04316E-02 5.46361E-02-3.65112E+00 1.36915E-02 3.75868E-02
 -1      2177-2.64510E+01 1.05390E-01 1.46475E-01-3.63439E+00 2.05002E-02-1.15119E-01
 -1      2178-1.83224E+01 1.29844E-01 2.96122E-03-7.04864E+00 6.19620E-02-1.71695E-02
 -1      2179-1.53488E+01 2.78105E-02 6.73543E-03-3.74731E+00-1.40869E-02-1.21232E-02
 -1      2180-1.95990E+01 9.77503E-02-4.11582E-03-3.71289E+00-5.07481E-03-3.06006E-03
 -1      2181-1.39252E+01 3.46532E-01 6.11173E-02-6.99542E+00-4.25362E-02 1.30609E-01
 -1      2182-8.45359E+00 2.55283E-01 2.68178E-02-4.34009E+00-8.88291E-02 5.73612E-02
 -1      2183-1.24914E+01 3.67278E-01 2.51394E-02-4.04140E+00-4.02447E-02 9.31847E-02
 -1      2184-9.32228E+00 2.70773E-01 1.41679E-01-7.15946E+00 6.80675E-02 9.29570E-02
 -1      2185-6.60517E+00 9.28685E-01 3.98594E-02-6.80219E+00 1.19552E-01 4.23563E-02
 -1      2186 2.12870E+02 9.27362E-01 2.33628E+00 3.69945E+00 1.35129E+00 1.79820E+00
 -1      2187 2.12003E+02-2.82940E+00-2.26614E+00-2.29011E-01-1.01434E+00 2.35522E+00
 -1      2188 1.59358E+02-6.20316E+00-3.80005E+00 4.26235E+00-2.06986E+00 3.62344E+00
 -1      2189 2.14931E+02-6.64093E-01-2.86584E-01-2.63369E+00 1.02154E-01 5.63509E-01
 -1      2190 2.13309E+02-6.18032E-01-3.33848E-01-3.66750E+00-1.86983E-01 5.49337E-01
 -1      2191 1.39771E+02-1.82542E+00-4.43444E-01-3.39685E+00-5.55897E-01 1.21318E+00
 -1      2192 2.12534E+02-2.45902E-01 4.34703E-03-4.21694E+00 2.71110E-02 1.06823E-01
 -1      2193 2.09005E+02-1.23098E-01 1.32958E-01-4.42586E+00-1.18763E-01 2.45574E-01
 -1      2194 1.40670E+02-3.06078E-01 1.59615E-01-6.42953E+00-1.20766E-01 3.55894E-01
 -1      2195 2.06459E+02-5.66490E-02-4.69163E-02-4.70113E+00-3.16260E-02 1.91191E-01
 -1      2196 2.02185E+02 2.44564E-02-8.92660E-02-4.75814E+00 2.76683E-02-7.69770E-03
 -1      2197 1.37461E+02-8.16508E-02 2.87693E-03-7.47734E+00-1.63570E-01 8.77451E-02
 -1      2198 1.99367E+02 4.01599E-02 1.74831E-01-4.87647E+00-9.18211E-02 6.86512E-02
 -1      2199 1.94962E+02-5.78755E-02 7.84145E-02-5.07165E+00 4.68193E-02 1.64658E-01
 -1      2200 1.32303E+02-1.29320E-01-3.79939E-03-7.73951E+00-5.94723E-02-7.01808E-02
 -1      2201 1.92476E+02 9.70481E-02-1.71233E-01-5.04117E+00 3.96202E-02 1.64418E-01
 -1      2202 1.87653E+02-7.36311E-02-1.87627E-01-5.03740E+00 6.31789E-02 1.77022E-02
 -1      2203 1.27383E+02-4.35971E-03-6.32177E-02-7.93469E+00 9.25701E-02 1.01087E-01
 -1      2204 1.85271E+02-8.00056E-02-2.17468E-03-5.15913E+00 6.44488E-03 4.50181E-02
 -1      2205 1.81046E+02-6.28149E-03-4.04202E-02-5.22344E+00 9.27447E-05 2.45555E-02
 -1      2206 1.22603E+02-1.60247E-01 5.39964E-02-7.96443E+00-4.13397E-02-5.21993E-02
 -1      2207 1.78633E+02-3.02477E-02 8.68620E-02-5.09878E+00-2.34160E-02-4.18108E-02
 -1      2208 1.74000E+02-2.90739E-02 1.86343E-01-5.18113E+00-7.86707E-02 1.41993E-01
 -1      2209 1.18215E+02 2.10448E-01 9.21234E-02-7.97697E+00 1.75022E-02-9.71114E-02
 -1      2210 1.71618E+02 7.80422E-02-2.55099E-02-5.28757E+00-8.75535E-02 1.87936E-01
 -1      2211 1.67041E+02 7.14759E-03 1.44273E-02-5.26373E+00 2.34728E-02 1.28931E-01
 -1      2212 1.13553E+02 8.53403E-04 4.81116E-02-8.03974E+00-1.23977E-01 7.68275E-02
 -1      2213 1.64594E+02 5.59975E-02-5.00300E-02-5.38280E+00-3.35267E-02 1.49435E-01
 -1      2214 1.60159E+02-2.64895E-02-1.56437E-01-5.33500E+00 6.47492E-02 7.38203E-02
 -1      2215 1.09124E+02 6.96677E-02-1.33072E-02-8.18980E+00-3.35702E-02 1.30986E-02
 -1      2216 1.57693E+02-3.50926E-02 2.05274E-02-5.35192E+00 2.16734E-04-6.21619E-02
 -1      2217 1.53418E+02 1.48924E-01 3.07104E-02-5.34628E+00-4.82477E-02 3.15158E-02
 -1      2218 1.04451E+02 1.18649E-01-2.18937E-02-8.11335E+00 2.51673E-02-1.08619E-01
 -1      2219 1.51072E+02 1.20744E-01 1.75827E-01-5.33733E+00-7.62206E-02 1.08029E-02
 -1      2220 1.46345E+02-3.58609E-02 1.80273E-01-5.39319E+00-6.55540E-02 1.71617E-01
 -1      2221 1.00105E+02 2.38507E-01-2.35805E-02-8.10511E+00 1.36234E-02-8.69799E-02
 -1      2222 1.44223E+02 6.86508E-02-1.06561E-01-5.42605E+00-5.14108E-02 1.61502E-01
 -1      2223 1.39813E+02 1.34917E-01-8.98401E-02-5.35213E+00 4.38213E-02-3.06427E-02
 -1      2224 9.55635E+01 6.00806E-02 4.29852E-02-8.14632E+00-1.22770E-01 7.82467E-02
 -1      2225 1.37195E+02 1.13405E-01 1.37321E-01-5.39416E+00-7.29699E-02 6.54624E-02
 -1      2226 1.32785E+02 3.93042E-02 4.55405E-02-5.46017E+00 1.65575E-02 1.55473E-01
 -1      2227 9.13787E+01 2.58306E-02 1.34377E-02-8.12135E+00-3.48026E-02-1.01086E-01
 -1      2228 1.30650E+02 8.44968E-02-8.51940E-03-5.35230E+00-3.60729E-02 1.28542E-01
 -1      2229 1.26038E+02 1.68585E-02 2.89670E-02-5.40681E+00 8.32325E-02 1.85281E-01
 -1      2230 8.68235E+01 8.60197E-02 8.43714E-03-8.22957E+00 1.89368E-02 8.99558E-03
 -1      2231 1.23224E+02 1.61496E-01-1.72346E-01-5.36112E+00 5.51388E-02 1.48828E-01
 -1      2232 1.18573E+02 1.62621E-01-8.40929E-02-5.27275E+00 5.97968E-03-5.11304E-02
 -1      2233 8.22129E+01 1.37157E-01-7.18009E-02-8.14315E+00 1.04658E-01 8.11013E-02
 -1      2234 1.16159E+02 1.37851E-01 2.98966E-02-5.47905E+00-5.62913E-02 9.34337E-02
 -1      2235 1.11817E+02 5.22627E-02-5.73678E-02-5.45315E+00 4.00845E-02 9.04941E-02
 -1      2236 7.72129E+01 2.74778E-02-4.72499E-02-8.15370E+00-3.90018E-02-3.84976E-02
 -1      2237 1.09227E+02 1.41663E-03-2.59125E-02-5.33294E+00 5.52581E-03-7.55050E-02
 -1      2238 1.04887E+02 7.16471E-02 7.43866E-02-5.33909E+00 3.50819E-02-5.93638E-02
 -1      2239 7.26817E+01 3.35249E-01 7.51117E-02-8.18515E+00 2.88547E-02-2.73863E-02
 -1      2240 1.02952E+02 5.24192E-02 1.36144E-02-5.23840E+00 8.72803E-03-1.72458E-02
 -1      2241 9.87131E+01 2.28632E-01-1.64371E-02-5.12907E+00-2.92676E-02-3.77226E-03
 -1      2242 6.86329E+01 6.49075E-02 1.26123E-01-8.01578E+00-1.07397E-01-1.19685E-01
 -1      2243 9.61103E+01 1.09977E-01 1.58698E-01-5.20056E+00-5.63749E-02 1.41304E-02
 -1      2244 9.15364E+01 3.19420E-02 3.53696E-02-5.21319E+00 5.09919E-02 1.78143E-01
 -1      2245 6.48219E+01 2.79313E-01-5.20337E-03-7.95623E+00 7.23485E-02-7.44953E-02
 -1      2246 8.85680E+01 2.04419E-01-9.41572E-02-5.20663E+00 7.98484E-03 1.59178E-01
 -1      2247 8.39579E+01 6.16673E-02-1.37731E-01-5.12112E+00 5.16486E-02 4.23078E-02
 -1      2248 5.94897E+01 1.52201E-01-3.59622E-02-8.04629E+00 6.90875E-02 7.97964E-02
 -1      2249 8.16378E+01 6.28719E-02 5.32969E-02-5.07667E+00 5.30929E-05 7.00887E-02
 -1      2250 7.71164E+01 1.19530E-01 7.54198E-02-5.06744E+00-3.13213E-02 1.06819E-01
 -1      2251 5.43618E+01 5.26441E-02 5.13885E-02-7.95656E+00-6.74827E-02-6.62083E-02
 -1      2252 7.46964E+01 1.44552E-01 4.03131E-02-5.06494E+00-5.70058E-02 1.26675E-01
 -1      2253 7.02643E+01 9.20636E-02-6.37436E-02-5.00255E+00 4.40684E-02 1.39916E-01
 -1      2254 4.98058E+01 1.64355E-01-1.09749E-02-8.01647E+00-5.52987E-02-4.53953E-02
 -1      2255 6.78539E+01 1.58208E-01-9.97792E-02-4.99319E+00 3.79073E-03 1.48142E-01
 -1      2256 6.32069E+01 7.38428E-02-1.04401E-01-4.93631E+00 4.12246E-02 3.95881E-02
 -1      2257 4.54575E+01 2.65525E-01 3.23953E-02-7.97852E+00 7.69112E-02-2.95043E-02
 -1      2258 6.08391E+01 5.99412E-02 8.72822E-02-4.82760E+00-2.39841E-02 4.77845E-02
 -1      2259 5.64797E+01 1.27852E-01 1.92521E-02-4.87299E+00 2.18253E-02 1.09583E-01
 -1      2260 4.06996E+01 1.30075E-01 8.17332E-02-7.82307E+00-5.91750E-02-9.86089E-02
 -1      2261 5.40621E+01 1.31306E-01-2.02103E-02-4.78527E+00-1.90103E-02 1.41062E-01
 -1      2262 4.94992E+01 6.22998E-02-1.73128E-03-4.77570E+00 5.61152E-02 1.80436E-01
 -1      2263 3.62371E+01 1.89337E-01-1.40442E-02-7.84414E+00 6.31657E-02-2.51137E-02
 -1      2264 4.72036E+01 2.06980E-01-4.70917E-02-4.68946E+00 3.65098E-03 1.75202E-01
 -1      2265 4.25167E+01 5.66433E-02 5.48255E-03-4.60359E+00-5.64307E-03 1.62119E-01
 -1      2266 3.16865E+01 2.09493E-01-7.80820E-03-7.75518E+00 8.60863E-02 4.07626E-02
 -1      2267 4.01206E+01 1.91906E-01-2.78003E-02-4.69440E+00-4.08327E-02 1.75494E-01
 -1      2268 3.55749E+01 1.04080E-01-1.52770E-01-4.58194E+00 6.25370E-02 1.22537E-03
 -1      2269 2.71651E+01 1.90771E-01-3.93737E-03-7.71824E+00-5.54146E-02 6.61091E-02
 -1      2270 3.32343E+01 5.55375E-02 1.05178E-01-4.45094E+00-1.57387E-02 4.69489E-02
 -1      2271 2.88554E+01 1.02843E-01-4.21023E-03-4.49555E+00 1.84572E-02 1.31680E-01
 -1      2272 2.25131E+01 1.03470E-01 6.36747E-02-7.58096E+00-5.39043E-02-8.20044E-02
 -1      2273 2.64442E+01 1.56014E-01-4.05130E-02-4.40241E+00-2.34358E-02 1.53370E-01
 -1      2274 2.18087E+01 5.39154E-02 2.46885E-02-4.36042E+00 2.43838E-02 1.61443E-01
 -1      2275 1.80722E+01 2.39639E-01-2.41457E-02-7.58456E+00 6.79107E-02 9.62525E-03
 -1      2276 1.94964E+01 1.34297E-01-1.32335E-02-4.29453E+00-1.29492E-02 1.49729E-01
 -1      2277 1.49339E+01 5.72561E-02-5.27477E-03-4.27786E+00 4.52872E-02 1.11226E-01
 -1      2278 1.34926E+01 2.08860E-01 1.55615E-02-7.51830E+00-2.61014E-03 2.81260E-02
 -1      2279 1.23847E+01-5.62575E-02-1.50187E-01-4.39306E+00-1.06129E-02 6.56059E-02
 -1      2280 8.17714E+00 2.94216E-02-1.29634E-01-4.49824E+00-4.08733E-02-5.84608E-02
 -1      2281 8.91369E+00 1.03094E-01-2.30609E-02-7.53289E+00 4.64764E-02 1.80609E-02
 -1      2282 6.47499E+00-4.09200E-01-9.71354E-03-6.96046E+00 1.10132E-01-8.25542E-02
 -1      2283-2.62635E+01 2.40177E-01 3.91349E-02-8.06157E+00 2.06306E-02 7.16126E-02
 -1      2284-2.84549E+01 2.46558E-01-6.96512E-02-8.00932E+00 1.80451E-02 1.36223E-01
 -1      2285-2.41026E+01 2.53351E-01 8.44941E-03-8.07654E+00-1.46840E-02 1.07257E-01
 -1      2286-2.62300E+01 1.99212E-01-1.74500E-02-7.98792E+00 2.22508E-02 1.00846E-01
 -1      2287-1.82585E-01 2.46239E-01-5.29868E-02-9.22541E+00 1.52927E-02 7.17538E-03
 -1      2288-1.49781E+01 1.89739E-01 6.28263E-02-8.07163E+00-1.66721E-03 7.90057E-02
 -1      2289-1.71700E+01 1.24930E-01-4.13263E-02-8.09480E+00 7.57293E-03 3.45226E-02
 -1      2290-1.71556E+01 2.12917E-01 1.24098E-02-8.05979E+00-8.80271E-02 6.47103E-02
 -1      2291-1.93150E+01 2.09231E-01 1.82367E-02-7.91213E+00-2.03788E-02-4.40291E-02
 -1      2292-2.33911E-01 2.44810E-01-6.04693E-02-9.25460E+00-9.48913E-03 5.73798E-02
 -1      2293 1.23545E+01 2.19284E-01-1.46414E-03-8.49429E+00-2.42742E-02-6.55028E-02
 -1      2294 9.98474E+00 2.44646E-01-6.93697E-02-8.58427E+00-4.82893E-02-4.91389E-02
 -1      2295 1.45006E+01 1.80600E-01 2.11808E-02-8.51265E+00 2.88218E-02-1.02795E-01
 -1      2296 1.22989E+01 1.37357E-01-2.48405E-02-8.58077E+00 9.18283E-03-6.69563E-02
 -1      2297-7.24789E-02 2.93411E-01 1.39743E-03-9.24313E+00 2.72186E-02-1.15195E-02
 -1      2298-6.01657E+00 3.12494E-01 8.99192E-04-8.31692E+00-8.26218E-02 1.56071E-02
 -1      2299-8.02965E+00 2.65426E-01-3.67902E-02-8.20432E+00-1.37630E-02-1.34358E-03
 -1      2300-2.24290E-01 3.47687E-01-5.64410E-02-9.21994E+00-1.33569E-02 9.26828E-03
 -1      2301-6.11138E+00 2.57347E-01-6.19137E-02-8.23105E+00 3.32447E-02-5.01474E-02
 -1      2302-3.88285E+00 3.96655E-01 2.04149E-02-8.14159E+00-5.25881E-03-2.81960E-04
 -1      2303-3.12821E+01 2.02169E-02-4.14170E-02-7.89731E+00-9.35245E-03-2.21941E-02
 -1      2304-3.27127E+01 3.20576E-01 6.82199E-02-7.86626E+00 1.64881E-02-5.90282E-03
 -1      2305 5.16428E-02 2.52154E-01 1.85651E-02-9.26701E+00-5.82124E-03 2.82231E-02
 -1      2306-3.34475E+01 3.70784E-01-7.77364E-02-7.98841E+00 1.28525E-02 4.12682E-02
 -1      2307-3.54522E+01 1.89127E-01-8.07574E-02-7.87395E+00-5.10749E-02 1.23618E-01
 -1      2308 2.36932E+01 2.59675E-01 5.25895E-02-8.77549E+00 2.98768E-02-1.39520E-01
 -1      2309 2.12913E+01 1.51758E-01-3.24189E-02-8.60501E+00-2.29403E-02-7.44683E-02
 -1      2310 2.15827E+01 3.54383E-01 5.43026E-02-8.53582E+00-9.85569E-03-1.79613E-02
 -1      2311 1.90975E+01 2.32703E-01-1.19709E-01-8.61600E+00-2.81147E-02-5.84208E-02
 -1      2312-2.49457E-01 2.61942E-01 7.92479E-02-9.24724E+00 6.23997E-04-1.17947E-02
 -1      2313-3.75801E+01 3.07340E-01 4.18608E-02-7.91235E+00 2.40917E-02 9.47532E-02
 -1      2314-4.01906E+01 1.76685E-01-3.24646E-02-7.96617E+00 7.06715E-02 1.74803E-01
 -1      2315-3.56607E+01 1.30166E-01 7.92269E-02-7.99419E+00-1.54294E-02 1.50393E-01
 -1      2316-3.77180E+01 1.56581E-01-3.90879E-02-7.98920E+00-2.14107E-02 6.86188E-02
 -1      2317-1.61195E-01 1.33706E-01 5.48306E-02-9.18869E+00-9.95486E-03-5.33944E-02
 -1      2318 6.74728E+01-4.49610E-02 3.02664E-02-8.57708E+00-1.71180E-02-6.18590E-02
 -1      2319 6.46086E+01-5.12080E-02-5.15657E-02-8.67057E+00-6.51954E-02-8.76002E-02
 -1      2320 6.46173E+01 1.42779E-01 2.25243E-02-8.72797E+00-3.22238E-03-5.41435E-02
 -1      2321 6.26184E+01-6.83073E-03-5.23790E-02-8.60800E+00 1.03352E-01-5.99917E-02
 -1      2322-2.61254E-01-1.55010E-01-8.56648E-03-9.26162E+00-2.90298E-02 1.21516E-02
 -1      2323-5.81971E+01 1.24146E-02 4.18558E-02-7.97936E+00 1.12179E-01 6.15152E-02
 -1      2324-6.03544E+01-8.05406E-02-1.98204E-03-8.14152E+00 2.19770E-02 6.02322E-02
 -1      2325-6.02254E+01 1.69824E-02 7.02120E-02-8.08859E+00-2.26060E-02 4.64941E-02
 -1      2326-6.26877E+01 4.35990E-02-5.06281E-02-8.00067E+00-2.76391E-04 1.16115E-01
 -1      2327-2.25069E-01-5.16840E-03 5.03705E-02-9.23786E+00-2.45936E-02-6.42571E-02
 -1      2328-6.77349E+01 1.53634E-01-2.25601E-02-8.00956E+00 2.67249E-02 3.01467E-02
 -1      2329-6.99376E+01-5.05616E-02-6.19006E-02-7.73883E+00-9.85522E-02 5.97049E-02
 -1      2330-7.21379E+01 1.88733E-01-2.29904E-01-6.68695E+00-4.26502E-01-2.27355E-01
 -1      2331-7.00600E+01-1.36135E-01 6.98108E-02-7.47486E+00-2.12990E-01 9.96291E-02
 -1      2332-4.24957E-01-6.11798E-02-6.26228E-03-8.47115E+00-1.74531E-01-2.21314E-02
 -1      2333 5.12569E+01 1.90051E-01 1.21271E-01-8.78152E+00 3.66796E-02 6.45720E-03
 -1      2334 4.89458E+01 1.56582E-01 3.57601E-02-8.56681E+00-3.08521E-02 4.19780E-02
 -1      2335 5.33130E+01 9.23526E-02 5.05201E-02-8.78349E+00 4.41233E-02-8.12088E-02
 -1      2336 5.08827E+01 1.53791E-02-1.31524E-02-8.77743E+00-4.00702E-02-3.83152E-02
 -1      2337-3.21361E-01 7.34025E-02 4.81304E-02-9.24940E+00 6.89244E-04-3.95209E-02
 -1      2338 4.63755E+01 1.48914E-01 7.40884E-02-8.78716E+00-1.49160E-02-7.51884E-02
 -1      2339 4.38292E+01 1.09976E-01-4.31634E-02-8.78818E+00-6.49551E-02-9.50962E-02
 -1      2340-1.07448E+00 1.59171E-01-5.92762E-02-9.27360E+00-1.14701E-02-2.60245E-02
 -1      2341 4.38607E+01 1.61056E-01-5.19154E-04-8.85728E+00 1.00294E-02-1.12259E-01
 -1      2342 4.19907E+01 1.21682E-01-5.03139E-02-8.79128E+00-1.78505E-02-9.54019E-02
 -1      2343 5.77313E+01 2.93676E-02 3.54111E-02-8.76750E+00-1.20397E-01-6.77648E-02
 -1      2344 5.54846E+01-6.04442E-02-6.90425E-02-8.86932E+00 2.00383E-02-4.21375E-02
 -1      2345 5.55496E+01 6.37241E-02 4.85353E-02-8.76461E+00 2.83509E-03-9.70086E-02
 -1      2346 5.33873E+01 3.88451E-02-1.08849E-02-8.84416E+00-1.57686E-02-1.28198E-01
 -1      2347-3.21708E-01 4.51724E-02 6.29995E-02-9.25094E+00-6.53477E-03 5.70402E-02
 -1      2348 6.94051E+01-9.33751E-01-1.27834E-01-2.54511E+00-1.41898E+00 4.81002E-01
 -1      2349 6.92971E+01-5.04882E-01 1.79098E-01-5.22328E+00-1.11680E+00 6.05322E-01
 -1      2350 6.97767E+01-1.08870E+00-1.66934E+00-3.46343E-01-2.28302E+00 1.18987E+00
 -1      2351-6.66042E-01-2.08314E-01 5.69999E-02-2.86037E+00-2.44826E+00-4.22477E-01
 -1      2352 3.77501E+01 1.98911E+00-1.44440E-02 3.50704E+00-3.95972E+00-1.43248E-01
 -1      2353 1.03933E+02-4.80810E+00-2.86183E+00 5.01396E+00-4.36830E+00 1.13430E+00
 -1      2354 2.82084E+01 1.55324E-01 7.94478E-02-8.65907E+00 3.37931E-03-9.14968E-02
 -1      2355 2.58262E+01 1.57168E-01-6.76248E-02-8.72523E+00-5.92887E-03 1.11997E-02
 -1      2356 3.10655E+01 3.75651E-01-3.41980E-03-8.78264E+00 5.12194E-04-5.72070E-02
 -1      2357 2.83217E+01 1.71996E-01-5.75038E-02-8.66617E+00 5.40182E-02-8.01357E-02
 -1      2358-2.10170E-01 1.08105E-01-1.14583E-02-9.00778E+00-5.85806E-02-2.44848E-02
 -1      2359-8.15746E+00 2.27759E-01 2.12749E-02-8.30062E+00 4.05236E-02 9.54425E-02
 -1      2360-1.03195E+01 1.84382E-01 5.82954E-02-8.31589E+00-9.21731E-03 6.24644E-02
 -1      2361-1.02471E+01 2.07487E-01 1.15539E-01-8.19931E+00-5.04067E-02 1.11904E-01
 -1      2362-1.25149E+01 3.30375E-01 7.74072E-02-8.01015E+00-1.05704E-02-6.63977E-03
 -1      2363-3.24532E-01 2.06644E-01 1.54916E-02-9.22685E+00-3.57501E-02-1.54607E-02
 -1      2364 5.52642E+00 2.71822E-01 8.03467E-03-8.50509E+00-8.51134E-02-7.83854E-02
 -1      2365 3.41652E+00 2.01488E-01 4.16678E-02-8.44423E+00 2.58805E-02-1.05748E-01
 -1      2366-3.47416E-01 1.53693E-01 9.53126E-02-8.92555E+00-3.88973E-02 6.29282E-02
 -1      2367 3.49660E+00-8.11329E-03 1.26959E-03-8.20365E+00-7.17439E-03-1.01307E-01
 -1      2368 4.62272E+00-4.08935E-01-6.66077E-02-7.60503E+00-5.69758E-02-1.35682E-02
 -1      2369 1.41157E+00-3.20393E-02-4.83672E-02-8.24496E+00 1.82040E-02-1.29327E-01
 -1      2370 4.21729E+01 1.16558E-01 4.95823E-02-8.86092E+00 3.04520E-02-6.78549E-02
 -1      2371 3.95847E+01 1.52174E-02-4.60522E-02-8.82189E+00 1.70408E-01-6.71325E-02
 -1      2372 3.94694E+01 1.46649E-01-1.51183E-02-8.61922E+00-2.57859E-02 3.99548E-02
 -1      2373 3.73347E+01 1.67071E-01-2.50880E-02-8.73615E+00-8.05219E-02-5.44728E-02
 -1      2374-4.79476E-01 6.87613E-02 9.55953E-02-9.15391E+00 5.11412E-02 6.12131E-03
 -1      2375 7.79835E+00 1.98546E-01 4.26340E-02-8.50005E+00-5.33094E-03-1.68989E-01
 -1      2376 5.58736E+00 1.54329E-01-1.54699E-02-8.48860E+00 1.29645E-02-9.52677E-02
 -1      2377 9.97996E+00 3.03366E-01 2.90377E-02-8.56130E+00 7.52919E-02-9.44336E-02
 -1      2378 7.85855E+00 2.41202E-01-4.19321E-02-8.41897E+00-1.66271E-02-8.09371E-02
 -1      2379-1.81407E-01 3.31655E-01-1.41786E-01-9.18877E+00 3.78771E-02-2.75833E-02
 -1      2380 3.74641E+01 1.67614E-01 6.07295E-02-8.72242E+00 4.66023E-02-2.97150E-03
 -1      2381 3.52790E+01 1.49129E-01 5.39593E-02-8.64934E+00-3.33195E-02 5.89078E-02
 -1      2382 3.50223E+01 2.46229E-01 1.26667E-01-8.63789E+00-1.04971E-01-6.04792E-02
 -1      2383 3.34098E+01 2.32116E-02-7.91513E-04-8.83931E+00 1.33470E-03-3.21535E-03
 -1      2384-9.53664E-02 2.66757E-01 3.41742E-02-8.96695E+00 5.56757E-02 7.00718E-04
 -1      2385-4.91156E+01 7.54336E-02 3.57069E-02-7.92486E+00 1.20265E-01 7.40450E-02
 -1      2386-5.13461E+01-2.81413E-02-6.73479E-02-8.02929E+00-2.25347E-02 5.24925E-02
 -1      2387-4.75464E+01 2.18262E-01 7.74930E-02-7.81624E+00-5.24889E-02 2.44594E-02
 -1      2388-4.87983E+01 1.60418E-01 3.80092E-02-7.74204E+00 3.66753E-02-5.22175E-02
 -1      2389 7.33684E-02 2.60461E-01-3.75049E-02-8.97699E+00 1.21716E-05 6.21253E-04
 -1      2390-4.03832E+01 1.33993E-01 1.00707E-01-7.84706E+00-5.60834E-02 7.61812E-02
 -1      2391-4.32352E+01-3.11382E-02-9.22280E-02-7.80753E+00-9.90235E-03 1.10019E-02
 -1      2392-6.81883E-01 9.82597E-02-6.87368E-02-9.24280E+00 9.33839E-03 2.96526E-02
 -1      2393-4.31105E+01 1.95602E-01 6.47730E-02-7.84141E+00-3.38415E-02 9.10135E-02
 -1      2394-4.58261E+01 8.71007E-02-4.51882E-02-7.93723E+00 3.10219E-02 1.26616E-01
 -1      2395-5.13004E+01 7.70313E-02 4.64354E-02-7.92650E+00-8.42391E-03 9.65186E-02
 -1      2396-5.34952E+01 2.24151E-02-1.06142E-02-8.02224E+00 6.39719E-02 1.40551E-01
 -1      2397-5.34742E+01 6.47833E-02 6.26661E-02-7.98188E+00-1.77979E-02 6.83670E-02
 -1      2398-5.58591E+01 3.12247E-02 2.27524E-02-7.88292E+00 1.69783E-03 5.06157E-02
 -1      2399-1.33579E-01 2.53289E-02 1.20620E-01-9.25974E+00-7.70096E-03-6.93322E-03
 -1      2400-3.25133E+01-4.66697E-01-7.91001E-02 3.41717E+00-3.58297E+00-4.14256E-01
 -1      2401-6.94356E+01 6.91848E-01 9.45335E-01-1.72178E-01-2.19430E+00-1.88883E+00
 -1      2402-1.01069E+02 5.04582E+00 3.75799E+00 4.71257E+00-4.71536E+00-1.62622E+00
 -1      2403-1.66242E+00 3.69276E-01-1.80575E-01-8.20008E+00 2.42184E-02-2.46245E-02
 -1      2404-4.83119E+00 8.08154E-01 3.37743E-02-7.49967E+00 1.29881E-03-1.04046E-01
 -1      2405-3.81932E+00 4.00909E-01-4.08910E-02-8.18162E+00-8.77533E-02 8.75818E-02
 -1      2406 1.68829E+01 3.19457E-01 2.77033E-02-8.70226E+00-2.45202E-02-6.74703E-02
 -1      2407 1.46302E+01 2.59634E-01-2.48569E-02-8.59205E+00 7.19591E-02-7.30245E-02
 -1      2408 1.91398E+01 2.02884E-01 3.12561E-02-8.71262E+00 1.22422E-01-1.83488E-01
 -1      2409 1.67767E+01 7.53029E-02-5.63337E-02-8.59264E+00 3.17012E-02-9.01869E-02
 -1      2410-1.96064E+01 3.42347E-01 4.77573E-02-8.10229E+00 1.71319E-01 7.47642E-02
 -1      2411-2.18154E+01 2.25443E-01-6.89754E-02-8.12898E+00 3.92868E-02 8.70769E-02
 -1      2412-2.16488E+01 2.42807E-01 6.48479E-02-8.04194E+00 1.15148E-02 7.55221E-02
 -1      2413-2.40279E+01 2.05664E-01-4.41575E-02-8.02947E+00 5.92590E-02 1.03301E-01
 -1      2414 6.01676E+01 1.20546E-01 6.11654E-02-8.68867E+00 8.60016E-02-2.45606E-02
 -1      2415 5.80380E+01 9.29653E-02 4.82897E-02-8.56172E+00-4.10158E-02 6.10333E-02
 -1      2416 6.21527E+01-6.67251E-02-7.65617E-02-8.49726E+00 1.59144E-03 5.37066E-02
 -1      2417 6.00087E+01 6.71191E-02-4.18223E-02-8.72794E+00-2.46824E-02 3.30444E-02
 -1      2418-6.26666E+01-6.82289E-02 5.04508E-02-7.99531E+00 1.59940E-02 7.67734E-02
 -1      2419-6.47707E+01-2.01430E-01 8.06919E-02-8.16563E+00 7.14067E-03 8.53283E-02
 -1      2420-6.47442E+01-6.81933E-02 1.03230E-01-8.05424E+00-5.54423E-02 1.12961E-01
 -1      2421-6.74459E+01 5.33382E-02 9.60403E-02-7.88629E+00-1.57979E-02-2.11917E-02
 -1      2422 7.06526E+01-2.99556E-01 2.39393E-01-6.88880E+00-3.84550E-01 2.67260E-01
 -1      2423 6.94296E+01-9.15010E-02-9.34693E-02-7.83299E+00-2.18233E-01-3.08477E-02
 -1      2424 6.98055E+01-7.34557E-02 3.83432E-02-8.13099E+00-1.61705E-01-3.25870E-02
 -1      2425 6.73276E+01-1.75525E-01 4.45189E-03-8.53173E+00-5.71415E-02-7.55353E-02
 -1      2426-1.20203E+00-9.06197E-03 9.22340E-02-6.95154E+00-1.21868E+00-5.43523E-02
 -1      2427-7.21905E+01 4.38219E-01-1.47007E-01-5.02366E+00-1.08672E+00-4.86371E-01
 -1      2428-7.13556E+01 8.02715E-01 1.63693E-02-2.51594E+00-1.34979E+00-6.66809E-01
 -1      2429-2.85984E+01 1.48784E-01 7.35509E-02-7.94444E+00 1.75352E-02 9.49279E-02
 -1      2430-3.09783E+01-4.10623E-02 4.59520E-02-8.02591E+00-4.12371E-02 3.45700E-02
 -1      2431-1.96960E-01 1.69332E-01-1.27404E-02-9.26562E+00-1.20779E-02-4.19161E-03
 -1      2432 3.11031E+01 2.00026E-01-2.75703E-02-8.70959E+00 1.65587E-02-7.88937E-02
 -1      2433 3.36909E+01 1.87128E-01 6.94384E-02-8.81397E+00 7.54240E-02-3.38852E-02
 -1      2434-1.27337E+01 3.82032E-01-3.27713E-02-8.21621E+00 7.34313E-02 2.44564E-02
 -1      2435-1.49430E+01 2.67117E-01-5.61957E-02-8.18590E+00-3.05190E-02 1.16684E-01
 -1      2436-2.99319E-01 1.66748E-01 7.09667E-02-9.03914E+00-1.06572E-03 2.84913E-02
 -1      2437 2.59989E+01 2.66391E-01-1.73795E-03-8.67916E+00 5.17228E-02-8.87607E-02
 -1      2438 2.36986E+01 1.78669E-01-3.55313E-02-8.75418E+00-2.98514E-02-1.20368E-01
 -1      2439-1.97737E-01 2.68724E-01-4.83016E-02-9.27627E+00 5.72545E-03 3.08568E-02
 -1      2440 4.85802E+01 1.06698E-01 4.76340E-02-8.79668E+00-1.25526E-01-6.47131E-02
 -1      2441 4.66567E+01-2.02897E-02-8.70333E-02-8.90812E+00 1.79038E-02-6.22662E-02
 -1      2442-8.70549E-01 8.77646E-02 5.09683E-02-9.25214E+00 7.11872E-03 3.26823E-02
 -1      2443-4.59816E+01 1.52844E-01 2.72405E-02-7.94943E+00-2.61133E-02 1.35468E-01
 -1      2444-4.82220E+01 8.38893E-02 1.81401E-02-7.83729E+00 1.01888E-02 6.98195E-02
 -1      2445-5.56166E+01 1.82947E-01 1.03744E-01-7.88563E+00-6.73204E-02 2.08958E-02
 -1      2446-5.78607E+01 9.30948E-02 5.36803E-02-7.81053E+00 3.01190E-02-5.97022E-02
 -1      2447 8.35142E-02 1.68431E-01-3.44920E-02-8.97911E+00-4.78890E-03 5.69900E-03
 -1      2448-3.07737E-01-4.30723E-02-1.09626E-02-8.97160E+00-6.25814E-02 7.99441E-03
 -1      2449-1.38176E-01 2.99974E-04 1.01579E-02-9.15172E+00-1.63331E-02 1.35884E-02
 -1      2450-6.83379E-02 3.45496E-01-9.42523E-02-9.15109E+00 5.00995E-02 3.69429E-03
 -1      2451 1.10834E+01-1.80484E-01-9.38635E-02-1.66921E+01-2.31254E-01 3.83209E-02
 -1      2452 5.28516E-01 1.46715E-01 3.35222E-02-7.70176E+00-5.05488E-02-1.64317E-02
 -1      2453-1.88223E-01 3.01514E-01-3.81218E-02-7.79272E+00 3.38059E-02-2.26053E-02
 -1      2454-3.90998E-01-2.19862E-01-1.01775E-02-8.40919E+00 5.50531E-02 2.66784E-03
 -1      2455-3.12557E-01-7.70424E-02-2.82880E-02-7.87081E+00-4.79373E-04 2.26529E-03
 -1      2456-1.64895E-01 2.03248E-01 3.65694E-03-7.79484E+00-3.67493E-03 2.83133E-02
 -1      2457-1.74485E-01 1.97942E-01-7.08029E-03-7.83609E+00-3.54178E-03 5.73512E-02
 -1      2458-1.95756E-02 2.03693E-01 2.64259E-02-7.37865E+00 1.45214E-02 6.16468E-02
 -1      2459-3.50866E-02 2.44082E-01-3.27021E-02-7.79727E+00 1.39495E-02-2.75637E-02
 -1      2460-2.03157E-01 1.30163E-01 2.16228E-02-7.84134E+00 1.45905E-02-6.20113E-02
 -1      2461-2.68105E-01 1.88458E-02-1.61135E-02-7.86642E+00-7.11898E-04-7.80633E-04
 -1      2462-1.91705E-01-5.88545E-02-4.78707E-02-7.88021E+00-9.87601E-03-5.82673E-02
 -1      2463-1.85249E-01 9.49658E-02-6.39420E-03-7.84608E+00-6.35545E-03-4.92152E-02
 -1      2464-2.96106E-01-1.43524E-02-1.58579E-02-7.41616E+00-1.22529E-03-2.42579E-03
 -1      2465-2.43795E-01 5.76197E-04-2.55477E-02-7.85740E+00 1.30708E-02-4.99191E-02
 -1      2466-1.46051E+01 8.51608E-02-1.06281E-02-7.36434E+00-1.69660E-02-3.01222E-02
 -1      2467-5.25315E+00 2.95411E-01-3.33224E-02-7.49801E+00 1.27306E-02 1.01501E-04
 -1      2468-2.96622E+01-6.61647E-02-4.73818E-02-7.48552E+00 1.52440E-03-3.47243E-02
 -1      2469-4.46311E+00 8.35790E-01-1.31677E-01-6.63176E+00-5.23456E-02 1.93409E-01
 -1      2470-1.27002E+02-6.80165E-01-6.81579E+00-1.40243E+01 3.42392E+00-2.02235E+00
 -1      2471-4.74035E+00 8.92505E-01-1.14602E-01-6.54697E+00 6.29509E-02-2.02954E-01
 -1      2472 1.26681E+02 6.07395E-01 7.06048E+00-1.45298E+01 4.04931E+00 2.38553E+00
 -1      2473 6.74915E+01-4.25040E-02-1.70884E-02-7.68966E+00 4.08696E-02-1.41756E-01
 -1      2474-7.38835E+01-8.37576E-02-7.01799E-03-6.80323E+00-1.00071E-02 2.16762E-01
 -1      2475 2.07587E+01 1.56925E-01 1.74677E-03-7.47745E+00-3.69966E-03-1.69698E-01
 -1      2476-2.10709E+01 1.69478E-01-2.61571E-02-6.88093E+00 1.10171E-02-1.31601E-01
 -1      2477 3.16156E+01 1.44276E-01 2.24016E-02-7.58560E+00-3.06168E-02 6.37696E-02
 -1      2478 2.63945E+01 1.54136E-01-3.41118E-02-7.54300E+00 1.48788E-02 6.33761E-02
 -1      2479-2.65891E+01 1.88817E-01 1.46114E-02-6.81127E+00 7.16940E-04 6.74803E-02
 -1      2480-3.21873E+01 1.25591E-01-2.24731E-02-6.78410E+00-2.90336E-03 1.37492E-01
 -1      2481 7.34711E+01-8.55782E-02-4.58265E-02-7.56205E+00 1.07937E-02 1.78187E-01
 -1      2482-4.60801E+01 1.25434E-01-3.30694E-03-6.64526E+00-1.08619E-02 1.79706E-01
 -1      2483 5.11069E+01 3.07729E-02-1.77720E-02-7.74199E+00 8.56797E-03-7.19837E-02
 -1      2484-5.74215E+01-2.65701E-02-3.46922E-02-6.60877E+00-3.25573E-02-1.33944E-01
 -1      2485 4.57605E+01 8.87060E-02 4.55462E-03-7.70650E+00-3.15991E-03 1.69527E-01
 -1      2486 6.24611E+01 2.77613E-02-1.69236E-02-7.70050E+00 2.80132E-02 1.47550E-01
 -1      2487-6.82476E+01-2.87898E-02-3.40577E-02-6.69651E+00-3.11483E-02-1.29170E-01
 -1      2488-5.17176E+01 9.92440E-02 7.90852E-03-6.64837E+00 1.49900E-02-1.02551E-01
 -1      2489-6.27238E+01 1.55640E-03 9.31137E-03-6.66161E+00-4.72405E-02 1.36947E-01
 -1      2490 5.68378E+01 1.35438E-01-6.82707E-03-7.66065E+00 2.30338E-02-1.00114E-01
 -1      2491-1.26931E+02-1.84796E+00-7.53462E+00-1.36814E+01-3.64960E+00 2.33759E+00
 -1      2492 4.33151E+00-4.66566E-01 1.18283E-01-6.70865E+00-6.55807E-02-2.38506E-01
 -1      2493 1.31721E+01 1.70089E-01-1.88501E-02-7.23969E+00-6.25506E-02-7.92821E-02
 -1      2494 8.45521E+01-1.06735E-01-4.12963E-02-7.43718E+00 6.99989E-03-1.06226E-01
 -1      2495-9.06588E+01-1.60475E-01 8.09469E-02-8.18790E+00 9.83940E-01 7.99746E-01
 -1      2496-7.37496E+00 1.98185E-01-1.20938E-02-6.97300E+00-4.64917E-03 1.72298E-01
 -1      2497 1.31507E+02 2.13713E+00 8.83348E+00-1.44509E+01-4.29937E+00-2.74115E+00
 -1      2498 1.66040E+01 2.61175E-01-4.44129E-03-7.29629E+00 1.18628E-02-1.67109E-01
 -1      2499 8.83775E+01-9.42261E-02-8.93840E-02-7.47898E+00 1.17764E-01-1.97859E-01
 -1      2500 4.59949E+00-5.87117E-01 1.62993E-01-6.60401E+00 8.71906E-02 2.66220E-01
 -1      2501 4.29560E+01 1.39898E-01 5.93975E-03-7.62721E+00 3.33832E-02-1.06060E-01
 -1      2502 4.14615E+01 1.36558E-01 1.18315E-02-7.47144E+00-7.05588E-04-9.09632E-02
 -1      2503 9.50638E+01-2.09485E-01-2.36774E-01-8.38349E+00-9.87620E-01 8.33761E-01
 -1      2504 9.08946E+00 2.09802E-01 3.81343E-02-6.66105E+00 1.31523E-02-1.06479E-01
 -1      2505-4.70942E+00 2.57640E-01-6.88192E-03-7.77903E+00-2.05180E-02-1.09077E-01
 -1      2506-4.35850E+01 1.95355E-01-1.46354E-02-6.35159E+00-1.51255E-02 1.37712E-01
 -1      2507-4.82399E+01 2.05514E-02-1.13611E-02-6.23520E+00 1.26583E-02 1.50592E-01
 -1      2508-1.40142E+01 2.50202E-01-1.35344E-02-6.58900E+00-1.78772E-02 1.48280E-01
 -1      2509 1.37335E+01 2.51717E-01 2.15714E-02-7.13371E+00 2.26826E-03 1.28893E-01
 -1      2510 1.85318E+01 1.68400E-01 1.73873E-02-7.23879E+00-2.67117E-02 1.24746E-01
 -1      2511-1.85726E+01 2.08862E-01 7.68276E-03-6.68845E+00-3.03047E-03 1.03492E-01
 -1      2512-9.27484E+01-4.92712E-02 8.39404E-03-6.48446E+00-1.54803E-03 1.74259E-01
 -1      2513-9.74114E+01-2.29424E-01 6.80080E-02-6.52867E+00 7.47888E-02 2.52974E-01
 -1      2514 6.82986E+01 1.30061E-01 1.64799E-03-7.45866E+00-4.17348E-02 1.82218E-01
 -1      2515-3.87619E+01 1.32150E-01-3.47428E-02-6.41856E+00 9.34356E-04-1.27473E-01
 -1      2516 2.39924E+01 1.67686E-01-4.70138E-02-7.20255E+00 1.18652E-02 1.03130E-01
 -1      2517-2.42554E+01 1.92719E-01 3.36544E-02-6.49495E+00-1.32584E-02 9.29600E-02
 -1      2518-3.07198E+01 2.12827E-01 1.71269E-02-6.45479E+00-1.03201E-02-1.44459E-01
 -1      2519 3.04715E+01 1.29215E-01-1.20905E-02-7.28927E+00 2.51415E-02-1.49658E-01
 -1      2520 3.71295E+01 1.78816E-01-4.34225E-02-7.41728E+00 4.64766E-02-9.20206E-02
 -1      2521-8.67018E+01-1.22261E-02-2.34026E-02-6.28079E+00 3.33776E-02-1.79818E-01
 -1      2522 5.36153E+01 9.06830E-02-3.23893E-02-7.48519E+00-1.71177E-02-1.13694E-01
 -1      2523 8.12717E+01 3.91374E-02-4.37585E-03-7.39667E+00-3.81166E-02 1.62871E-01
 -1      2524-7.36570E+01 8.35563E-02-3.29389E-03-6.18216E+00 3.73420E-02-1.60659E-01
 -1      2525 8.65973E+01-1.42382E-01-3.22533E-02-7.31976E+00-5.95765E-03-1.77662E-01
 -1      2526-5.39134E+01 9.95877E-02 2.71676E-02-6.30623E+00 2.87930E-03-1.37399E-01
 -1      2527-6.85087E+01-4.22512E-02-2.76370E-02-6.16883E+00 2.61841E-02 1.69117E-01
 -1      2528-8.17845E+01-1.05383E-01-2.52839E-02-6.22904E+00 2.09051E-02 1.61563E-01
 -1      2529 7.34226E+01-5.35632E-02-2.36936E-02-7.43828E+00-1.83903E-02-1.61462E-01
 -1      2530-6.06173E+01 1.18626E-01 1.81295E-02-6.18608E+00 2.32330E-02 1.56881E-01
 -1      2531 6.03092E+01 2.25280E-02-3.46231E-02-7.48763E+00-2.87689E-02 1.64029E-01
 -1      2532 4.84579E+01 1.89387E-01-1.95125E-02-7.38065E+00-4.14857E-02 1.86793E-01
 -1      2533 9.20823E+01-1.33963E-01-1.12347E-02-7.27943E+00-2.39344E-02 1.66999E-01
 -1      2534 9.67747E+01-1.39649E-01-8.55800E-02-7.32122E+00-1.34134E-01 2.15064E-01
 -1      2535-1.02025E+02-1.99206E-01 3.36576E-01-7.46179E+00-8.52393E-01-9.56892E-01
 -1      2536 1.04082E+02-2.17727E-01-2.73606E-01-7.77648E+00 8.23368E-01-8.69593E-01
 -1      2537-4.75982E+01 8.87425E-02-3.00425E-02-6.03383E+00 1.89082E-02-1.52657E-01
 -1      2538-6.23421E+01 1.70073E-01-2.39353E-03-5.55707E+00-1.84044E-02-1.37000E-01
 -1      2539-1.47039E+01 9.91782E-02-4.71212E-03-6.50700E+00 2.31880E-02-1.48243E-01
 -1      2540-2.14809E+01 1.89921E-01 2.40816E-02-6.33759E+00-3.06072E-03-1.47740E-01
 -1      2541 4.48225E+01 1.33499E-01-9.42748E-03-7.40861E+00-1.62952E-02 9.82472E-02
 -1      2542-1.07803E+02-1.02428E-01 6.27570E-02-6.36620E+00-1.29673E-01-2.99349E-01
 -1      2543-1.01180E+02-1.86498E-01-1.86043E-02-6.22001E+00 4.53657E-02-1.59805E-01
 -1      2544 1.16968E+01 1.84073E-01-3.02472E-02-6.72758E+00-5.09394E-02 1.08575E-01
 -1      2545 8.92711E+01 7.07268E-02-7.11427E-03-7.32380E+00-1.46652E-03-1.40503E-01
 -1      2546 3.17029E+01 2.29125E-01-5.73895E-03-6.91621E+00-1.26000E-02 1.73376E-01
 -1      2547-4.14789E+01 1.69733E-01-1.29915E-02-6.10493E+00-1.60856E-02-1.18532E-01
 -1      2548-3.19406E+01 1.09050E-01 1.42502E-03-6.01228E+00 5.81178E-03 1.72159E-01
 -1      2549 4.73705E+01 1.25063E-01 9.51052E-03-7.11508E+00 2.27468E-02-1.13558E-01
 -1      2550 1.04987E+02-4.84954E-02-1.29680E-02-7.04471E+00 4.42565E-02-1.68760E-01
 -1      2551-9.18509E+01 4.42529E-02-2.26751E-02-5.90817E+00 1.72981E-02 1.27536E-01
 -1      2552 9.15346E+01-6.47753E-02 1.10755E-03-7.32535E+00-3.46021E-02 1.22690E-01
 -1      2553-8.97798E+01-8.04510E-02-1.49446E-02-5.88033E+00 2.79700E-02-1.42611E-01
 -1      2554 7.44182E+01 7.84120E-02-1.17136E-02-7.35024E+00 9.77157E-04 1.62393E-01
 -1      2555-7.45141E+01 4.41631E-02-1.96433E-03-5.78521E+00-3.05738E-02 1.02423E-01
 -1      2556-6.66648E+01 3.19720E-02 3.81721E-03-5.74260E+00 7.75695E-03-1.61421E-01
 -1      2557 6.64066E+01 1.49905E-01-1.23794E-02-7.19403E+00 1.45994E-02-1.83015E-01
 -1      2558 6.46675E+00 1.20087E-01 1.52421E-02-7.18088E+00 3.67380E-02 1.38655E-01
 -1      2559 4.01831E+01 2.04656E-01 8.35275E-03-7.14881E+00 7.10581E-03-1.23369E-01
 -1      2560-4.05059E+01 1.53589E-01 3.19836E-03-6.13819E+00-2.35081E-02 1.28289E-01
 -1      2561 4.05646E+01 1.72902E-01-9.61960E-03-7.12738E+00-5.35139E-03 1.38794E-01
 -1      2562-7.56392E+01 4.07186E-02-8.68687E-03-5.85086E+00 8.17551E-03-1.46693E-01
 -1      2563 4.51751E+01 4.78849E-02-7.22075E-02-7.96358E+00 4.72781E-03-1.42941E-01
 -1      2564 9.03721E+01 3.70380E-02 1.27166E-02-6.04728E+00 2.10645E-02-1.86071E-01
 -1      2565 1.36085E+02 1.20947E-01 7.94384E-02-5.11080E+00-1.18236E-02-2.28703E-01
 -1      2566 7.39627E+01 9.29098E-03 7.12830E-02-7.47800E+00-3.03626E-02-1.38715E-01
 -1      2567 1.20094E+02 2.10987E-01 1.06705E-01-5.16160E+00-5.45037E-02-1.46478E-01
 -1      2568 2.78027E+01-1.22145E-01-2.16591E-01-7.78161E+00 6.82788E-02 7.26338E-02
 -1      2569 1.14707E+02-1.28045E-01-2.11385E-01-5.25315E+00 8.66373E-02-1.10415E-01
 -1      2570 7.05326E+01 5.32774E-02-7.10850E-02-7.62363E+00 1.44403E-02-1.38960E-01
 -1      2571 2.59751E+01 1.94753E-01 1.32599E-01-7.86890E+00-1.12474E-02-1.90388E-02
 -1      2572-7.45859E+00 5.36014E-01-6.94041E-02-3.84866E+00 2.74330E-02 1.77253E-01
 -1      2573-1.03458E+01 3.66325E-01-1.43504E-01-3.81363E+00-4.29330E-02-4.26795E-03
 -1      2574-7.37506E+00 6.46338E-01-6.43723E-02-3.76287E+00-3.43954E-02-1.47256E-01
 -1      2575-1.04732E+01 4.01973E-01-1.25036E-01-3.72192E+00 5.73011E-02 6.99048E-03
 -1      2576-4.14611E+00 9.36963E-01-2.35509E-02-6.50331E+00 1.07218E-02 4.76093E-03
 -1      2577-2.67123E+00 3.07593E-01-8.86344E-02-7.58377E+00-6.26288E-02 7.08307E-02
 -1      2578-2.62499E+00 4.49512E-01-1.51655E-01-7.49455E+00-8.32792E-02 1.01937E-01
 -1      2579 2.45003E+00 2.87658E-03 1.36719E-01-7.59165E+00-7.58802E-02-1.21394E-01
 -1      2580 9.59606E-03 1.94112E-01 1.58702E-02-6.83467E+00-8.04371E-02 4.64039E-03
 -1      2581 2.32162E+00 1.33648E-01 1.05287E-01-7.66298E+00-6.61331E-02-8.63757E-02
 -1      2582-6.11137E+01-2.03438E+00-2.81177E+00-6.63606E+00 3.15159E+00-4.65230E-01
 -1      2583-5.58967E+01-1.03194E+00-2.84832E+00-1.53973E+01 2.83085E+00-1.87813E-01
 -1      2584 5.21041E+00-4.69293E-01 4.41064E-04-9.42297E+00 2.95736E+00 1.99781E-01
 -1      2585 6.06969E+01 2.19544E+00 3.24642E+00-7.03567E+00 3.66951E+00 1.29304E+00
 -1      2586 6.82451E+01 9.53700E-01 3.30439E+00-1.48195E+01 2.75753E+00 2.15607E-01
 -1      2587-1.08963E+00-3.38993E-01 5.59249E-01-1.40317E+01 3.64450E+00-9.11195E-01
 -1      2588-1.49928E+02-3.17124E-01-8.65412E+00-8.37144E+00-1.80332E-01 1.38559E-01
 -1      2589-2.17613E+02-1.75002E-01-1.52570E+01-5.79161E+00 1.58901E+00-1.48742E+00
 -1      2590-2.18275E+02-9.33420E-01-1.46276E+01-6.50819E+00-1.64605E+00 2.01713E+00
 -1      2591-1.28414E+02-3.83960E-01-1.14435E+01-1.48091E+01-9.93967E-02-3.79608E-01
 -1      2592-5.56932E+01-3.91875E-01-2.59523E+00-1.49948E+01-3.22710E+00 1.89350E-01
 -1      2593 4.44844E+01 1.38065E-04-1.21477E-01-4.34538E+00 3.07928E-02-3.01514E-01
 -1      2594 4.14841E+01 3.87954E-01 2.01088E-01-4.54697E+00-2.05751E-02-1.84898E-02
 -1      2595 2.53139E+01 4.70741E-02-1.02105E-02-7.30005E+00-6.68020E-02-1.69816E-01
 -1      2596 2.30777E+01 5.63200E-01 1.23712E-01-7.23769E+00 7.61178E-02-1.24501E-01
 -1      2597 1.87857E+01 1.37875E-01-8.19627E-02-7.37072E+00-6.29104E-02-2.53678E-01
 -1      2598 3.77186E+01 2.95250E-02-1.26182E-01-4.52337E+00-2.07072E-02-8.44894E-02
 -1      2599 9.84352E+00-4.10038E-02-1.43092E-01-7.72937E+00-1.36614E-02-1.95823E-01
 -1      2600 2.99867E+01 1.24405E-01-1.38496E-02-5.32925E+00-2.01710E-02-1.31755E-01
 -1      2601 8.73905E+00 4.60646E-01 1.41244E-01-7.71842E+00-1.48311E-02-2.32196E-01
 -1      2602 1.46227E+01 2.42111E-01 7.07235E-02-7.31806E+00 1.38512E-02 3.75128E-02
 -1      2603-1.46283E+02 1.54390E-01-1.92544E+00-8.16722E+00-9.65360E-02 6.17198E-02
 -1      2604-2.12671E+02 3.18515E-01-7.13989E+00-5.30285E+00-1.16681E+00 1.01413E+00
 -1      2605 4.34833E+00-2.71812E-01-2.66526E-02-9.60244E+00 2.56305E+00-3.29253E-02
 -1      2606 5.85668E+01-1.32108E+00 1.92356E+00-7.88214E+00 2.91407E+00 3.46165E-01
 -1      2607 2.35911E+01 3.78698E-01 1.17000E-01-4.21775E+00-7.91523E-02-9.60203E-02
 -1      2608 1.45904E+01 5.29418E-02-1.52697E-02-7.15094E+00-8.72983E-02-1.56147E-01
 -1      2609 2.37497E+01 6.29680E-02-6.43096E-02-3.98004E+00 6.00508E-02-2.87652E-01
 -1      2610 2.00990E+01 2.11363E-02 2.82532E-02-3.86338E+00 2.54625E-02-2.52352E-01
 -1      2611 1.24118E+01 4.24812E-01 8.26734E-02-6.85664E+00 1.09823E-01-1.41065E-01
 -1      2612 1.11543E+01 7.75349E-02-3.42621E-02-6.95374E+00-4.62481E-02-5.04466E-02
 -1      2613 6.26246E+00 6.29875E-02-9.67500E-02-7.45970E+00-5.04418E-04-3.08614E-01
 -1      2614 7.78361E+00 2.09515E-01 3.21876E-02-7.18381E+00 1.13624E-02-2.07144E-02
 -1      2615 5.03612E+00 4.69233E-01 2.66700E-01-7.15426E+00 2.97940E-02-1.64540E-01
 -1      2616-1.67827E+02 2.36537E-01 4.14730E-02-2.72731E+00 7.17576E-02-2.10449E-02
 -1      2617-4.42043E+01-3.50258E-01-1.05868E-01-7.05859E+00-4.00235E-03-2.34691E-01
 -1      2618-1.25660E+02-3.21446E-02-4.87354E-03-4.09419E+00 1.69873E-02-5.39149E-02
 -1      2619-1.76476E+02-1.85332E-01 7.76467E-02-2.75472E+00-9.98336E-02 1.68638E-01
 -1      2620-5.04808E+01 1.30702E-01-7.23140E-02-7.13237E+00 4.12664E-02-2.30303E-01
 -1      2621-9.38978E+01-5.24692E-02 3.91791E-02-6.20256E+00 1.07599E-02-9.56619E-02
 -1      2622-4.35579E+01-2.62598E-01-3.99821E-02-7.56468E+00-3.13063E-02-9.07255E-02
 -1      2623-4.04914E-01-1.31732E-01-1.27445E-01-7.93135E+00 8.97994E-02-1.78198E-02
 -1      2624-5.03978E+01 1.67551E-01 6.08400E-02-7.52929E+00 3.66116E-02-6.17272E-02
 -1      2625-1.69488E+02 1.33737E-01-2.78650E-03-2.73499E+00-2.92462E-02-3.07978E-01
 -1      2626-1.78034E+02-3.14185E-01-2.08110E-02-2.68347E+00 3.96525E-02-2.73472E-01
 -1      2627-1.05613E+02 3.78115E-02 6.56361E-02-6.23693E+00-9.50221E-02-1.31175E-01
 -1      2628-1.13298E+02-1.63624E-01-3.74435E-02-6.26635E+00 7.40925E-02-1.82476E-01
 -1      2629-2.12849E+02 2.76806E-01-7.30887E+00-5.37312E+00 1.24039E+00-8.66464E-01
 -1      2630-6.06722E+01 1.21877E+00-1.40872E+00-7.63306E+00 2.71525E+00-2.88870E-01
 -1      2631 2.83711E+01 1.05810E-01-1.66994E-02-5.28382E+00-8.88431E-02 5.67698E-02
 -1      2632 3.16385E+01 1.38844E-01-3.05796E-02-5.30380E+00-7.81579E-02 5.72795E-02
 -1      2633-9.31109E-02 1.92304E-01 3.32340E-02-7.90997E+00-9.92598E-03 4.32798E-02
 -1      2634-3.55538E-01 1.64209E-01-1.63007E-02-7.89506E+00 1.71759E-02 5.72804E-02
 -1      2635-2.58126E-02 2.16268E-01-1.13095E-02-7.97237E+00-6.83410E-02-2.43826E-02
 -1      2636 4.61735E+00 2.82851E-01-4.07626E-02-7.77050E+00-3.54086E-02-1.02128E-01
 -1      2637-4.31683E-01 2.10471E-01-6.93578E-02-7.93120E+00-5.98752E-03-1.75468E-02
 -1      2638 5.91143E+01-2.08390E-01-1.14254E-01-7.51412E+00-6.25714E-03 1.23698E-02
 -1      2639-1.91614E-02-6.45116E-02-9.99045E-02-7.97621E+00-1.66486E-02 2.90890E-02
 -1      2640 9.27150E+01 1.95533E-01-3.18103E-02-7.52002E+00 2.46357E-02-1.26391E-01
 -1      2641 3.39573E+01 1.13810E-01 3.26573E-02-8.25304E+00 3.53876E-02-3.02478E-02
 -1      2642 3.42843E+01 8.48564E-02 8.46649E-02-7.84953E+00 8.18521E-02-2.16236E-01
 -1      2643 4.25320E+01-1.11052E-02 1.18277E-02-8.04281E+00 2.17595E-02-9.65024E-02
 -1      2644 1.02437E+02-1.24159E-01 3.10084E-02-7.43777E+00-4.52574E-02-1.47286E-01
 -1      2645 4.27381E+01-3.14806E-01-1.88007E-01-7.57165E+00-2.96003E-03-2.58756E-01
 -1      2646 1.64296E-01-1.27833E-02 4.98470E-02-8.13435E+00-5.47618E-02-1.50080E-02
 -1      2647-6.32765E+01 1.15851E-01 8.84029E-02-6.88035E+00-6.26286E-02 1.08410E-02
 -1      2648-3.68238E+01-1.52394E-01-1.93906E-02-7.80082E+00 1.37729E-02 1.86197E-02
 -1      2649-9.97007E+01-2.35880E-01 3.91163E-02-6.30996E+00 4.01204E-02 1.54332E-01
 -1      2650-3.75262E+01-3.21192E-01-1.14565E-01-7.35530E+00-5.51340E-02 2.40474E-01
 -1      2651-5.84229E+01-2.48176E-01-1.68477E-01-6.78478E+00 2.19376E-02 8.13519E-04
 -1      2652 9.40746E-02-1.02800E-01-1.10404E-01-7.96981E+00 3.37628E-02-2.22829E-02
 -1      2653-9.56078E+01 3.46890E-03-8.14906E-02-6.28222E+00-4.44469E-02 1.56707E-01
 -1      2654-3.66166E+01 1.20960E-01 2.62041E-02-7.76792E+00-2.23829E-02 5.67501E-02
 -1      2655-3.65148E+01 1.14581E-01 1.22335E-01-7.38317E+00-8.20776E-02 2.34648E-01
 -1      2656 4.75554E-01 8.47998E-02-5.49598E-04-8.10240E+00-4.57717E-02 7.10186E-02
 -1      2657 1.77846E-01 6.78262E-02-5.58308E-02-8.06318E+00 5.05013E-02 5.10939E-02
 -1      2658 7.68270E+01-1.67747E-01-9.57837E-02-7.44937E+00-5.78459E-02-2.44875E-01
 -1      2659 2.88881E+01 1.98967E-01 9.81677E-02-7.85438E+00 9.26965E-02-1.95297E-01
 -1      2660 7.79226E+01 1.15659E-01-5.99893E-02-7.57628E+00 3.38969E-02-1.35994E-01
 -1      2661 4.97474E+01-1.58915E-01-1.63146E-01-7.59861E+00-2.17872E-02 5.46467E-03
 -1      2662 3.61797E+01-1.95384E-01-1.75579E-01-7.62923E+00-3.22161E-03-2.53998E-01
 -1      2663 8.65152E+01-6.70346E-02-5.18196E-03-7.53737E+00-5.26845E-02-1.08702E-01
 -1      2664 6.49071E+01-1.81588E-02-1.54431E-04-7.46314E+00-1.56267E-02-2.10888E-01
 -1      2665-4.15100E+01 9.63440E-03 1.72303E-02-7.49946E+00-2.34661E-02 7.73490E-02
 -1      2666-9.92449E+01-1.29644E-01-5.78558E-03-6.12497E+00 5.22532E-02 1.05506E-01
 -1      2667-4.14482E+01-2.62791E-01-1.79945E-01-7.02659E+00 4.92955E-03 2.58409E-01
 -1      2668 1.45776E-01 2.17470E-04-1.09348E-01-7.97517E+00-2.99132E-02 2.07523E-02
 -1      2669 3.61423E+01 9.16983E-02 1.90987E-02-8.09762E+00 2.42189E-02-8.16540E-02
 -1      2670-3.53709E+01-5.99299E-02-1.35275E-01-6.77075E+00 5.26172E-02-9.63886E-03
 -1      2671-1.60021E-01 1.25969E-01-5.53062E-02-7.95765E+00 7.43092E-02-2.54228E-02
 -1      2672-5.87166E+01 1.43275E-01-8.63923E-02-6.20025E+00-4.31057E-02 1.40736E-01
 -1      2673-2.29391E+01 3.12490E-01 4.83700E-02-7.71462E+00-1.39923E-02 5.36108E-02
 -1      2674-2.25551E+01 3.54786E-01 1.69872E-01-7.30465E+00-1.44658E-02 1.91447E-01
 -1      2675-1.27279E+02-1.86367E-01-9.90221E-02-4.25145E+00 5.84322E-02 1.90280E-01
 -1      2676-1.63143E+02 3.62616E-02 3.18551E-03-3.10531E+00 3.83188E-02 8.95294E-02
 -1      2677-1.61335E+02 1.65996E-01 5.02133E-02-2.96163E+00-8.39554E-03 1.06841E-01
 -1      2678 2.87480E+01 2.24421E-01 3.41550E-02-8.24850E+00 2.70643E-02-4.58210E-02
 -1      2679-7.80841E+01-1.02256E-01 1.28405E-03-6.36851E+00 8.63083E-03 2.25182E-01
 -1      2680 1.19645E+02 1.21039E-02-3.69167E-02-5.50832E+00 1.88381E-01 5.16819E-02
 -1      2681 1.18208E+02-1.48133E-01-7.09798E-02-5.67862E+00 1.18607E-01 2.04605E-01
 -1      2682 1.57844E+02 2.29569E-01 1.73684E-01-4.87246E+00-2.80438E-02 1.16881E-01
 -1      2683 1.56077E+02 8.84112E-02 6.29962E-03-4.99867E+00 5.40473E-02 6.54379E-02
 -1      2684 3.60882E+01-2.57655E-01-1.41154E-01-7.80901E+00 7.91683E-02 2.12647E-01
 -1      2685 5.76529E+01 1.69605E-01 1.45537E-01-7.55531E+00-3.31106E-02-4.46978E-03
 -1      2686-3.39579E-01 4.60589E-03 7.54423E-02-7.95252E+00-2.88970E-02-2.62177E-02
 -1      2687 9.49742E+01-7.81023E-02 5.43413E-02-7.49200E+00 2.11975E-02 1.50912E-01
 -1      2688 3.65081E+01-2.22134E-01-5.88960E-02-8.18538E+00 1.44686E-02 5.29111E-02
 -1      2689 1.16605E+02-9.59513E-02 3.26289E-02-5.54846E+00 1.96764E-01-3.84068E-02
 -1      2690 1.18034E+02 7.57883E-02 7.18360E-02-5.65883E+00 1.34136E-01-2.05686E-01
 -1      2691 1.51172E+02-4.60957E-02 7.23985E-03-5.09499E+00 1.71041E-02-9.74941E-02
 -1      2692 1.49287E+02-2.33886E-01-1.89081E-01-5.04293E+00 1.13762E-02-7.60861E-02
 -1      2693 1.93352E+01-2.53395E-02-1.14161E-01-7.51283E+00-5.31935E-02-2.26378E-02
 -1      2694-2.83219E-01 1.55196E-01-1.00239E-01-8.12925E+00-5.73706E-02 1.11710E-02
 -1      2695 1.03374E+01 3.29609E-01 1.40950E-02-8.13741E+00 3.95820E-02-2.81263E-02
 -1      2696 1.08562E+01 4.73032E-01 1.57432E-01-7.65919E+00-2.74225E-02-1.18992E-01
 -1      2697 2.94569E+01 4.04330E-01-1.59966E-02-7.26350E+00 6.54591E-02-1.60397E-01
 -1      2698-1.95871E+01 3.98132E-01 1.42904E-01-6.97887E+00 6.78572E-02-3.48417E-02
 -1      2699-5.33313E-02 2.82834E-01 1.05809E-01-8.12985E+00 6.41903E-02 3.19835E-04
 -1      2700-2.95940E+01 1.07127E-01 5.52904E-02-6.48630E+00-4.86326E-02-1.50559E-01
 -1      2701-1.06727E+01 1.22985E-01 1.97732E-02-7.82759E+00 1.41345E-03-1.47793E-02
 -1      2702-1.11876E+01-7.49730E-02-1.91570E-01-7.36782E+00 7.56624E-03-1.28608E-01
 -1      2703 4.32673E+01 2.40581E-01 5.60710E-02-4.61199E+00-2.80812E-02-1.69662E-01
 -1      2704 3.78151E+01 1.49893E-01 1.07392E-02-5.33459E+00 2.98223E-02 7.05771E-02
 -1      2705 3.92360E+01 3.38823E-01 1.34214E-01-5.44212E+00 1.14145E-01-1.30962E-01
 -1      2706 4.69367E+01-1.50451E-01-1.35853E-01-4.59994E+00-7.08158E-02-1.01728E-01
 -1      2707 4.88063E+01-1.29579E-02-1.28123E-02-4.66466E+00 2.21822E-02-7.59585E-02
 -1      2708 1.00733E+01 1.24895E-01 3.05258E-02-8.17580E+00 1.51366E-02-7.57337E-02
 -1      2709-3.79357E+01 1.01299E-01 6.49628E-03-4.26441E+00-2.86473E-02 6.16465E-02
 -1      2710-3.93606E+01-5.88593E-02-1.03086E-01-4.35387E+00-9.25081E-02-1.18328E-01
 -1      2711-4.87885E+01 1.87473E-01 4.78227E-02-3.34351E+00-4.45605E-02-3.91319E-02
 -1      2712-4.69531E+01 2.98072E-01 1.18604E-01-3.30267E+00 6.50982E-02-1.16302E-01
 -1      2713-5.77945E+01 2.62339E-02-7.31360E-02-4.16701E+00 4.78928E-02 1.61127E-01
 -1      2714-5.61852E+01 1.70039E-01 3.72806E-02-4.06686E+00 3.44156E-02-6.60354E-02
 -1      2715-7.10224E+01 2.37233E-01 1.28317E-01-3.03350E+00-2.78652E-02 1.27884E-01
 -1      2716-1.66360E+01-1.47146E-02-1.14186E-01-7.37065E+00-6.08949E-03 2.19429E-01
 -1      2717-7.29004E+01 1.25183E-01 3.19351E-02-3.15039E+00 6.30116E-02 6.15003E-02
 -1      2718-1.53704E-03 2.61845E-01 7.59627E-02-8.10403E+00-3.93988E-02-3.26005E-02
 -1      2719-2.86567E+01 3.40961E-01 1.11856E-01-6.85319E+00-6.00429E-02-2.26372E-03
 -1      2720-1.62909E+01 1.47787E-01 2.58059E-02-7.77452E+00 9.40367E-03-1.99650E-02
 -1      2721-4.42726E+01 1.18305E-01 6.75108E-02-6.37341E+00 2.75100E-02 1.10081E-01
 -1      2722 6.25254E+01-3.10059E-01-7.99616E-02-7.51991E+00 4.09819E-02-9.29018E-03
 -1      2723 9.90847E+01 1.77140E-01-4.64816E-02-7.42582E+00-6.42932E-02 1.74182E-01
 -1      2724 3.72111E+01 2.05053E-01 2.25971E-01-7.69996E+00 2.19035E-03 9.29535E-02
 -1      2725 3.67669E+01 1.67548E-01 3.30650E-02-8.15547E+00 2.25253E-02 7.98691E-02
 -1      2726 1.27350E+02 1.33385E-01 1.05504E-01-5.56252E+00-1.13248E-01 1.32595E-01
 -1      2727 1.25911E+02-5.59681E-02 9.40476E-03-5.49214E+00-3.31634E-02-7.95300E-02
 -1      2728 1.63401E+02-1.35288E-01-2.48697E-02-4.87695E+00-2.78802E-02 6.88096E-02
 -1      2729 1.61486E+02-2.62560E-01-1.43547E-01-4.84583E+00 4.45620E-02 1.17193E-01
 -1      2730-1.19657E+02-1.00371E-01 2.79545E-02-3.98493E+00-1.96032E-01 3.94234E-02
 -1      2731-1.18230E+02 6.87814E-02 5.13293E-02-4.12668E+00-1.35207E-01 2.09784E-01
 -1      2732-1.57681E+02-3.15136E-01-1.53110E-01-2.95948E+00 2.27421E-02 1.23382E-01
 -1      2733-1.55855E+02-1.45170E-01 4.34683E-03-3.02950E+00-7.46132E-02 7.14664E-02
 -1      2734 2.60880E+01 9.82643E-02-8.28522E-02-8.27867E+00-2.16079E-02 5.31654E-02
 -1      2735-7.35798E+01-4.57624E-04-5.21158E-03-3.91297E+00-5.81339E-02-7.12295E-02
 -1      2736-7.19345E+01 1.75929E-01 7.42410E-02-4.06119E+00-8.21652E-02 1.80699E-01
 -1      2737-9.75485E+01-1.79302E-01-1.01549E-01-2.74863E+00 3.35980E-02 1.46104E-01
 -1      2738-9.57551E+01-7.24082E-02-3.00048E-02-2.89625E+00-7.51278E-02 4.26795E-02
 -1      2739 7.33944E+01 1.23986E-01-5.32659E-02-5.65056E+00 1.35070E-01-3.17328E-02
 -1      2740 7.18812E+01-1.02689E-02-5.72296E-02-5.77737E+00 8.64408E-02 1.63950E-01
 -1      2741 9.75527E+01 3.37252E-01 2.02073E-01-5.05273E+00-2.02160E-02 1.19329E-01
 -1      2742 9.58207E+01 2.74378E-01 1.10342E-01-5.13471E+00 4.79835E-02 2.92363E-02
 -1      2743 2.22739E+01-1.58630E-01-2.02611E-01-7.82301E+00 3.64991E-02 1.88498E-01
 -1      2744 3.49959E+01 3.48501E-01 1.17745E-01-7.59827E+00-4.82516E-02-2.29515E-03
 -1      2745-1.06840E-01 2.97553E-01 1.26612E-01-7.95452E+00-6.22061E-02-3.45941E-02
 -1      2746 2.26218E+01-7.92286E-02-4.89961E-02-8.24612E+00 2.16435E-02 7.83838E-02
 -1      2747 5.83488E+01 1.00063E-01 6.27847E-02-7.62037E+00 6.10940E-02 1.79055E-01
 -1      2748-5.83152E+01 1.53341E-01 1.34680E-01-6.78769E+00 3.63098E-02-7.02653E-03
 -1      2749-3.20160E-01 8.49327E-03 7.80688E-02-7.96543E+00 2.00174E-02 2.03141E-02
 -1      2750-9.19028E+01-7.55868E-02 5.62457E-02-6.32752E+00-1.24488E-02-1.15336E-01
 -1      2751-3.44485E+01-1.46991E-01-4.91985E-02-7.73625E+00-1.47635E-02-2.08301E-02
 -1      2752-3.49446E+01-2.02104E-01-1.54066E-01-7.34910E+00-9.16144E-02-2.23517E-01
 -1      2753 1.01138E+02 7.93134E-02-3.31693E-02-5.64198E+00 1.95866E-01 4.16448E-02
 -1      2754 9.97112E+01-8.88433E-02-7.65488E-02-5.78562E+00 1.21767E-01 2.11930E-01
 -1      2755 1.33770E+02 2.41349E-01 1.94415E-01-5.13632E+00 6.39225E-03 8.02478E-02
 -1      2756 1.31887E+02 5.44880E-02-9.27108E-03-5.21499E+00 1.11615E-04 1.01388E-01
 -1      2757 3.04250E+01-1.12010E-01-1.10925E-01-7.85598E+00 7.25056E-02 2.23208E-01
 -1      2758 4.85123E+01 2.10924E-01 1.00323E-01-7.58038E+00-1.56006E-02-1.64642E-02
 -1      2759-3.07787E-01 7.71947E-02 8.16617E-02-7.95977E+00-1.82796E-02-2.47738E-02
 -1      2760 8.01394E+01-1.66103E-01 1.93380E-02-7.60435E+00 3.86721E-03 1.21476E-01
 -1      2761 3.09190E+01-7.40272E-02-5.35986E-02-8.25249E+00 3.01403E-02 4.03571E-02
 -1      2762-1.16640E+02 2.36429E-02-2.37599E-02-3.95437E+00-1.81604E-01-4.42256E-02
 -1      2763-1.18067E+02-1.29431E-01-4.47303E-02-4.10330E+00-1.03095E-01-1.88707E-01
 -1      2764-1.49293E+02 2.10630E-01 2.10475E-01-2.94997E+00 1.00047E-02-1.01380E-01
 -1      2765-1.51131E+02 4.24113E-02 2.60610E-02-3.05859E+00-4.19679E-02-5.88264E-02
 -1      2766-1.01171E+02-6.04099E-02 1.87470E-02-3.86102E+00-1.93333E-01 4.03973E-02
 -1      2767-9.97429E+01 9.50658E-02 4.73880E-02-3.99739E+00-1.23496E-01 1.94701E-01
 -1      2768-1.33635E+02-2.29653E-01-1.96818E-01-2.84598E+00 4.83059E-04 1.04857E-01
 -1      2769-1.31793E+02-5.30932E-02-1.49098E-02-2.93084E+00-6.13743E-02 6.42298E-02
 -1      2770-3.08143E+01 1.71773E-01 1.21887E-01-7.32790E+00-1.01000E-01 2.21926E-01
 -1      2771-5.89870E-02 1.71120E-01 8.93016E-02-8.13906E+00-5.86657E-02-1.38335E-02
 -1      2772-4.00729E+01 2.99327E-01 1.00855E-01-6.79494E+00-5.51709E-02 2.12466E-02
 -1      2773-6.26614E+01-1.16855E-01 2.91682E-02-6.15092E+00 5.12281E-02 1.66976E-01
 -1      2774-2.36837E+01-1.72542E-01-1.69710E-01-7.26202E+00-3.21773E-02 1.30494E-01
 -1      2775-2.31798E+01 2.29573E-02 1.58329E-04-7.73450E+00 2.10417E-02 3.13259E-02
 -1      2776 2.86726E+01 1.90636E-01 1.13262E-01-8.20947E+00 1.34810E-02-1.83582E-02
 -1      2777-9.81063E+01 6.26491E-02-2.76305E-02-3.84684E+00-1.91516E-01-4.80405E-02
 -1      2778-9.95429E+01-9.72400E-02-6.43134E-02-4.00063E+00-1.14628E-01-1.99042E-01
 -1      2779-1.27273E+02 6.80276E-02 1.94244E-02-2.89282E+00-4.48864E-02-5.50176E-02
 -1      2780-2.95686E+01-1.73879E-01-1.62114E-01-7.30991E+00-8.83960E-02-2.20989E-01
 -1      2781-1.25436E+02 2.47450E-01 2.10494E-01-2.79867E+00 2.53635E-02-1.01555E-01
 -1      2782-4.91920E+01 2.27768E-01 1.47310E-01-6.72393E+00 3.68260E-02 4.99203E-03
 -1      2783-3.05050E-01 1.04396E-01 8.55900E-02-7.95761E+00 2.25081E-02 2.15515E-02
 -1      2784-2.90762E+01-1.05695E-01-7.43093E-02-7.70437E+00-2.60803E-02-2.73036E-02
 -1      2785-7.74595E+01-3.04815E-02 4.29225E-02-6.22570E+00-1.64734E-02-1.13177E-01
 -1      2786-1.09552E+02 5.95695E-02-5.83083E-03-6.27716E+00-3.18827E-02 1.42634E-01
 -1      2787-4.53821E+01-9.43516E-02 5.39211E-02-7.76236E+00 2.05350E-02 8.34025E-02
 -1      2788-4.60283E+01 1.77467E-01 1.08522E-01-7.25542E+00-2.11127E-02 2.08472E-01
 -1      2789 9.80970E+01-2.74262E-02 3.85894E-02-5.65571E+00 1.89465E-01-5.56750E-02
 -1      2790 9.95332E+01 1.32696E-01 6.57164E-02-5.79342E+00 1.31427E-01-2.00300E-01
 -1      2791 1.25517E+02-1.84178E-01-1.66025E-01-5.07771E+00-2.25881E-02-1.27060E-01
 -1      2792 1.27260E+02-5.72151E-02-6.80486E-03-5.18802E+00 5.68713E-02-5.91742E-02
 -1      2793 8.10013E+01 2.53835E-01 1.07147E-01-5.79481E+00-1.00917E-01 1.23951E-01
 -1      2794 7.95633E+01 8.89936E-02-4.17341E-03-5.67883E+00-2.58860E-02-6.26999E-02
 -1      2795 1.03014E+02-5.86846E-02-4.55106E-02-5.15633E+00-6.39916E-02 3.59453E-02
 -1      2796 1.01146E+02-1.76144E-01-1.40148E-01-5.08603E+00 6.56862E-02 1.32688E-01
 -1      2797 2.33396E+01 3.84841E-01 1.80032E-01-7.78175E+00 6.96982E-03 1.34175E-01
 -1      2798 9.19787E+01-5.66459E-02-1.47318E-02-5.93065E+00 1.22145E-02 6.73465E-02
 -1      2799 8.86841E+01 1.69177E-01 1.44307E-01-5.91395E+00 3.22926E-02 5.63509E-02
 -1      2800-1.41604E+02 1.36699E-01 2.23918E-01-4.81526E+00 6.34289E-02 4.46307E-01
 -1      2801-1.43813E+02-7.67794E-02-6.75788E-02-4.82146E+00-2.21029E-02-6.05464E-02
 -1      2802-1.90968E+02 1.36092E-01 2.70905E-02-3.36236E+00 5.56254E-02 2.02222E-01
 -1      2803-4.93918E+01-4.56838E-01-1.31657E-01-7.48016E+00 1.41914E-01 2.35983E-01
 -1      2804-1.89410E+02 1.20416E-01 2.46829E-01-3.23230E+00 3.90787E-02 3.18004E-01
 -1      2805-1.58436E+02 1.03957E-01 1.58931E-01-2.80763E+00-8.32221E-03 1.16912E-01
 -1      2806-1.59597E+02 1.68763E-01 1.38673E-01-2.73356E+00 6.64943E-03 1.72727E-01
 -1      2807-1.01502E+02 6.65078E-02-2.99338E-02-6.13463E+00 9.46916E-02-1.30416E-01
 -1      2808-4.32329E+01 2.04017E-01 1.34736E-01-7.02905E+00-1.38019E-03-2.63566E-01
 -1      2809-4.27859E+01-2.82829E-02-3.13414E-02-7.49877E+00-1.25047E-02-9.39692E-02
 -1      2810-8.24878E+00 3.41595E-01 2.62099E-02-7.00987E+00-7.22901E-02-4.91981E-02
 -1      2811-1.52511E+01 3.16463E-01-5.27753E-02-6.60048E+00-3.85449E-02 1.43856E-01
 -1      2812-6.33270E+00 3.09136E-01 2.08068E-02-7.72109E+00 3.62214E-02 1.26754E-01
 -1      2813-6.70874E+00 4.06728E-01 1.07144E-01-7.26630E+00-5.52532E-02 1.13034E-01
 -1      2814 1.59706E+02-2.20293E-01-1.30515E-01-4.85012E+00-1.83677E-02 1.74045E-01
 -1      2815 4.08901E+01 1.54776E-01 1.34140E-01-7.60880E+00-1.39425E-02 2.53492E-01
 -1      2816 1.58550E+02-1.40436E-01-1.54281E-01-4.95115E+00-1.04231E-02 1.17177E-01
 -1      2817 9.85155E+01 1.01250E-01-3.44119E-03-7.48764E+00-7.43980E-02 1.07973E-01
 -1      2818 4.12904E+01-4.91420E-02-2.83377E-02-8.06184E+00 1.40637E-02 8.24930E-02
 -1      2819 1.60865E+02 1.87472E-01 1.17675E-01-4.82927E+00-1.59528E-02-1.74629E-01
 -1      2820 1.62052E+02 1.39752E-01 1.73017E-01-4.85198E+00 1.12726E-02-1.03036E-01
 -1      2821 1.41753E+01 2.08128E-01-8.18906E-02-8.16051E+00 2.48896E-02-9.24302E-02
 -1      2822 3.46021E+01 4.49465E-02 3.36032E-03-7.30890E+00-3.34987E-02-1.32122E-01
 -1      2823 1.44821E+01-8.78713E-02-2.56467E-01-7.55965E+00 1.82267E-02-8.40995E-02
 -1      2824-1.45106E+01 1.98779E-01 7.86227E-02-7.75779E+00-2.19542E-02-8.82423E-02
 -1      2825-3.48196E+01 3.14960E-01 2.55556E-02-6.30846E+00 4.24759E-02-1.01080E-01
 -1      2826-1.48042E+01 4.48966E-01 2.40236E-01-7.13365E+00-1.49157E-02-8.38603E-02
 -1      2827 5.51495E+01 2.60972E-01 1.54685E-01-4.62160E+00 4.89534E-02-9.96029E-02
 -1      2828 5.40842E+01 3.66869E-01 2.19625E-01-4.62669E+00 4.70843E-02-2.69279E-01
 -1      2829-5.41334E+01-1.60844E-01-2.23966E-01-3.12023E+00-3.56891E-02-2.63021E-01
 -1      2830-5.51394E+01-1.43304E-02-1.13351E-01-3.11555E+00-2.51442E-02-1.10670E-01
 -1      2831-1.61787E+02-2.52576E-01-1.59664E-01-2.78335E+00 3.21745E-02-1.07663E-01
 -1      2832-1.60664E+02-2.74784E-01-1.42110E-01-2.70317E+00 1.59807E-02-1.48723E-01
 -1      2833-1.35572E+02-2.19795E-01-1.40714E-01-2.58305E+00 2.12929E-02-1.68805E-01
 -1      2834-3.65497E+01 2.38947E-01 1.47584E-01-6.99814E+00 1.29927E-02-2.58135E-01
 -1      2835-1.36703E+02-1.25714E-01-1.53268E-01-2.65849E+00 1.27286E-02-1.10203E-01
 -1      2836-3.61823E+01 2.07466E-02-3.63086E-02-7.46235E+00-1.56199E-02-7.81870E-02
 -1      2837-8.57925E+01 1.46882E-01-3.96476E-03-6.05678E+00 7.48077E-02-1.07247E-01
 -1      2838 1.36903E+02 1.49774E-01 1.59520E-01-5.08758E+00 8.17832E-03-1.17011E-01
 -1      2839 1.35730E+02 2.21985E-01 1.33868E-01-5.01420E+00-9.84881E-03-1.75423E-01
 -1      2840-2.48419E+01 1.59852E-01 8.27007E-03-7.48151E+00-4.14936E-02 7.27973E-02
 -1      2841-5.93355E+01-1.59093E-02 1.09231E-03-6.10145E+00 4.02832E-02 1.14145E-01
 -1      2842-2.46693E+01-1.42914E-01-1.86608E-01-7.05466E+00 5.40970E-03 1.63298E-01
 -1      2843 1.34652E+02-1.80885E-01-1.07297E-01-5.00133E+00-2.68384E-02 1.71918E-01
 -1      2844 3.44443E+01 2.78603E-01 1.55188E-01-7.63321E+00-1.93152E-02 2.55532E-01
 -1      2845 1.33500E+02-1.20606E-01-1.61344E-01-5.04872E+00-2.11965E-03 9.62660E-02
 -1      2846-1.33326E+02 1.31419E-01 1.46113E-01-2.64146E+00-3.74718E-03 1.14539E-01
 -1      2847-1.34448E+02 2.20057E-01 1.39911E-01-2.57920E+00 1.58320E-02 1.68747E-01
 -1      2848-3.47653E+01-1.98766E-01-1.66332E-01-6.98771E+00 9.69619E-03 2.54078E-01
 -1      2849 3.48139E+01 4.30901E-02-3.43599E-02-8.09345E+00 1.34867E-02 8.54383E-02
 -1      2850 8.28943E+01 1.53486E-01-4.03729E-02-7.58290E+00-5.80092E-02 1.30508E-01
 -1      2851 3.56963E+01 1.07921E-01 3.39707E-02-4.44669E+00 6.60331E-02-1.31808E-01
 -1      2852 8.41730E+00 2.87859E-01-4.56697E-02-8.15475E+00-4.75890E-02-8.27070E-02
 -1      2853-1.72925E+02-2.71139E-01-4.32123E-02-2.92578E+00-1.24235E-02 1.37763E-01
 -1      2854-1.74071E+02-1.79612E-01-1.10431E-01-2.95890E+00 4.48924E-02 7.56895E-02
 -1      2855-7.02283E+01 2.22147E-01-7.15053E-03-6.04578E+00-3.96678E-02 1.33115E-01
 -1      2856-2.94296E+01 1.19960E-01 8.18244E-02-7.63870E+00 2.10368E-02 9.50371E-02
 -1      2857-2.97583E+01 3.53389E-01 2.37435E-01-7.02512E+00 1.26358E-02 8.85490E-02
 -1      2858-5.03492E+01 2.67757E-01 7.85141E-03-6.14387E+00-6.32184E-02 1.10523E-01
 -1      2859-2.09690E+01 1.86687E-01 8.03201E-02-7.69770E+00 1.85705E-02 7.40103E-02
 -1      2860-2.13814E+01 4.69479E-01 1.18983E-01-7.16129E+00 1.60351E-02 1.74811E-01
 -1      2861-9.64705E+01 2.67885E-01 6.20301E-02-2.67324E+00 6.91676E-05 1.27507E-01
 -1      2862-9.53447E+01 2.00014E-01 1.14413E-01-2.72306E+00-3.59615E-02 8.33730E-02
 -1      2863-7.89327E+01-1.62145E-01-7.34535E-02-2.79412E+00-9.43359E-03 1.23605E-01
 -1      2864-8.00208E+01-5.98801E-02-1.17445E-01-2.79786E+00 1.98477E-02 8.32313E-02
 -1      2865-1.44777E+01 2.29910E-01 3.01531E-02-4.58073E+00 9.65264E-03-3.41822E-02
 -1      2866-1.61351E+01 9.60492E-03-1.00521E-01-4.66272E+00 4.46723E-02 1.64792E-01
 -1      2867-2.25960E+01-9.59948E-02-4.31983E-02-3.49922E+00-7.70417E-03 1.25952E-01
 -1      2868-2.37222E+01-8.37769E-02-1.20593E-01-3.46911E+00 3.51593E-02 5.89573E-02
 -1      2869-8.10246E+01-1.56511E-01-1.32870E-01-4.00430E+00 1.03168E-01 1.34874E-01
 -1      2870-7.95943E+01 2.31799E-02-1.23615E-02-3.91089E+00 2.83480E-02-6.70891E-02
 -1      2871-1.03026E+02 1.45852E-01 1.18427E-02-2.82480E+00 2.04967E-02 8.13643E-02
 -1      2872-1.01123E+02 2.78811E-01 1.42412E-01-2.77400E+00-6.12855E-02 1.20916E-01
 -1      2873-4.88461E+01-1.55175E-01-1.58495E-01-6.72896E+00 2.45547E-02-5.64063E-03
 -1      2874 2.11967E-01-4.67059E-03-1.06383E-01-7.96776E+00 2.26633E-02-2.25345E-02
 -1      2875-8.04613E+01 7.21720E-02-7.50394E-02-6.24337E+00-3.03326E-02 1.10765E-01
 -1      2876-3.09013E+01 1.70927E-01 3.25809E-02-7.71710E+00-2.31708E-02 2.30944E-02
 -1      2877-3.43427E-01-1.69339E-02-9.82602E-03-7.78992E+00 5.08772E-01-1.93787E-02
 -1      2878-6.99687E+01-1.65826E-01-4.58142E-02-6.91169E+00 3.29769E-01 1.16822E-01
 -1      2879-4.96220E+01-1.53586E-01 2.48448E-02-7.33988E+00 2.19812E-01 1.26865E-01
 -1      2880-1.18368E+02-1.23166E-01 9.24229E-02-6.20244E+00 1.46094E-01 2.82367E-01
 -1      2881 7.77226E+01 2.20492E-02-2.84326E-02-7.38043E+00-2.73440E-02 2.14599E-01
 -1      2882 2.52186E+01 1.89655E-02-1.13339E-01-7.21396E+00-5.87068E-02-2.64724E-01
 -1      2883-2.55540E+01 2.48996E-01-9.73017E-03-6.49037E+00 2.76902E-02-2.51154E-01
 -1      2884 1.21719E+02 7.80747E-02-2.73722E-02-5.10518E+00 3.34192E-02-1.20767E-01
 -1      2885 1.10736E+02 3.10213E-01 2.26443E-01-5.07523E+00-4.10490E-02 2.70160E-01
 -1      2886 1.11775E+02 1.66130E-01 1.22495E-01-5.09690E+00-2.92365E-02 1.12645E-01
 -1      2887 2.94007E+01-1.84163E-01-2.61442E-01-7.65955E+00-2.97945E-02 1.05127E-01
 -1      2888 1.13170E+02 1.94965E-02-1.06193E-02-5.16709E+00 1.37470E-02-1.03465E-01
 -1      2889-7.74080E+01 4.01273E-03-6.31769E-02-6.37177E+00 3.39192E-02-2.28350E-01
 -1      2890-2.90602E-01 3.86650E-02-1.13353E-01-8.13188E+00 6.26274E-02-6.33120E-04
 -1      2891 3.97655E+01-1.16479E-01-1.51015E-01-7.70193E+00 6.22701E-02 4.48479E-02
 -1      2892 2.28530E+01 2.36297E-01-9.09118E-03-8.24769E+00-1.55886E-02 2.37985E-02
 -1      2893 6.23140E+01 1.66494E-01-5.30938E-02-7.59011E+00-7.94129E-02 1.64661E-01
 -1      2894-6.53954E+01 7.06064E-02-4.36996E-02-6.31069E+00 2.62936E-02-2.20117E-01
 -1      2895 6.28264E+00 2.13628E-01 7.79459E-02-8.04107E+00 2.77854E-02-5.76478E-02
 -1      2896-2.20851E+00 2.24672E-01-4.70041E-02-7.07223E+00 2.33503E-02 1.50130E-01
 -1      2897-8.64550E+00 1.94528E-01-3.45313E-02-4.80553E+00 1.22515E-02 2.39498E-02
 -1      2898-2.46765E+00 1.82125E-01-9.21580E-02-7.15680E+00 3.96865E-02-2.29191E-01
 -1      2899 6.56230E+01 1.64894E-01 6.84412E-02-7.51351E+00-7.64738E-02 2.31542E-01
 -1      2900 1.34647E-01 2.08055E-01 4.14192E-02-7.72236E+00 8.09974E-02-1.59733E-02
 -1      2901 2.46825E+00 7.75140E-02 4.36308E-02-7.23346E+00-5.03492E-02-2.43437E-01
 -1      2902-8.29307E+01 1.13863E-01 1.20330E-01-6.48287E+00-6.99383E-02 2.52660E-01
 -1      2903-6.57622E+01-2.31641E-02 3.11126E-02-6.32441E+00 1.02224E-02 2.23814E-01
 -1      2904 5.26668E+01 1.08042E-02-3.62685E-03-7.41140E+00 1.32677E-02 2.59841E-01
 -1      2905-5.29240E+01 2.50006E-01 1.10737E-01-6.27177E+00-7.08490E-02 2.67925E-01
 -1      2906-3.47826E+01 7.36430E-02 5.73261E-03-7.46337E+00-2.56017E-02 8.19992E-02
 -1      2907-8.30864E+01-8.14727E-02-1.88307E-02-6.04071E+00 5.05426E-02 1.06077E-01
 -1      2908-1.10706E+02-2.26151E-01-2.17759E-01-2.63853E+00 3.78465E-02 2.69287E-01
 -1      2909-1.11765E+02-1.15313E-01-1.43377E-01-2.61944E+00 3.90681E-02 9.95833E-02
 -1      2910-4.73656E+01 1.28551E-02-3.18659E-02-6.32850E+00 1.79543E-02 2.14753E-01
 -1      2911 9.54781E+01-1.05908E-01-1.42950E-01-4.96223E+00 2.72411E-02 6.62925E-02
 -1      2912 9.66098E+01-1.45532E-01-1.64779E-01-4.94441E+00-3.41606E-02 1.68219E-01
 -1      2913 2.43926E+01 3.98158E-01 1.25573E-01-7.68493E+00-1.46095E-03 2.11796E-01
 -1      2914-3.75987E+01 2.61326E-01-7.67137E-03-6.43179E+00-3.32644E-02 2.29042E-01
 -1      2915 2.47134E+01 3.12117E-01 1.65740E-02-8.11993E+00 2.93137E-02 7.71517E-02
 -1      2916 5.93736E+01 4.18611E-01 3.03248E-02-7.42222E+00-8.36390E-02 1.64426E-01
 -1      2917 1.08761E+02-2.38022E-01 3.46384E-02-7.37236E+00 3.10126E-02 1.68744E-01
 -1      2918 4.52331E+01-1.88034E-01-4.08050E-02-8.03056E+00-5.48907E-02 1.14065E-01
 -1      2919 4.54185E+01-3.73021E-01-2.52050E-01-7.55916E+00-1.18394E-02 6.58328E-02
 -1      2920 6.99445E+01-5.02587E-02-2.15281E-02-7.55924E+00 3.99930E-02 1.10818E-01
 -1      2921 2.90800E+01 1.18613E-01-8.11260E-02-8.26935E+00-2.80359E-02 9.22092E-02
 -1      2922 1.73238E+02 2.20606E-01 2.11820E-01-4.74624E+00-5.68566E-02 2.54420E-01
 -1      2923 1.74288E+02 1.77942E-01 1.54585E-01-4.69657E+00-3.53470E-02 9.08850E-02
 -1      2924-1.87265E+02-7.24701E-02 7.48308E-02-3.81988E+00 4.00831E-01 4.89801E-01
 -1      2925-4.47587E+01-9.02292E-04 4.91386E-02-8.33662E+00 5.05857E-01 4.14864E-01
 -1      2926-1.90041E+02-3.20813E-01-5.43157E-01-4.04777E+00 4.34701E-01 3.51617E-01
 -1      2927 2.63540E+01 6.10425E+00 6.02172E+00-9.47993E+00 5.70343E-01-6.52258E-01
 -1      2928 3.50617E+01 5.89755E+00 8.71354E+00-1.05305E+01-2.19470E-01 6.08329E-01
 -1      2929 9.21393E+01 1.07895E+01 1.90095E+01-8.41122E+00-2.36994E+00-7.17219E-01
 -1      2930 6.98030E+01-1.52861E-01 3.17836E+00-1.49068E+01-3.25155E+00-3.44334E-01
 -1      2931 8.34653E+01 9.75418E+00 1.49369E+01-6.06860E+00-2.41806E+00-3.04468E+00
 -1      2932-1.89327E+02-1.13100E-01 7.47646E-02-2.62597E+00 1.83042E-02-2.70293E-01
 -1      2933-3.87533E+00 8.98325E-02-6.31733E-02-7.85757E+00-5.34554E-03 9.35720E-02
 -1      2934-1.15353E+01 6.34895E-02 6.28159E-02-6.70386E+00 2.89383E-02 1.59038E-01
 -1      2935-4.23428E+00 1.07965E-02-1.54156E-01-7.48418E+00-2.45826E-02 2.57818E-01
 -1      2936-2.51829E+01-8.75862E+00-1.20737E+01-1.05890E+01 5.09090E-04-8.47614E-03
 -1      2937-1.14979E+02 7.56600E-02 4.84820E-02-6.58311E+00 4.73879E-01 4.94064E-01
 -1      2938-4.49996E+01 2.14811E-01 1.64877E-01-7.83447E+00 7.10189E-01 2.15072E-01
 -1      2939 4.71951E+01 8.46269E-02-1.10793E-01-7.42915E+00 4.46220E-03 2.21125E-01
 -1      2940-1.89301E+01 1.86073E-01 6.21009E-03-3.71477E+00 4.35583E-02 8.09039E-02
 -1      2941-1.70761E+01 3.34140E-01 3.16245E-02-3.65803E+00-1.29338E-02 6.48049E-02
 -1      2942 1.28409E+00 3.06235E-01 2.97989E-01-6.60897E+00-6.46379E-02-5.88024E-03
 -1      2943-8.64064E-01 7.83622E-02-2.34513E-01-6.69156E+00 3.61011E-02-7.29093E-02
 -1      2944 4.01342E-02 1.60087E-01 9.69084E-03-6.76096E+00-6.91230E-02-6.50382E-04
 -1      2945 8.25998E+01-2.03843E-01-9.17381E-02-7.31519E+00 6.78095E-02 2.50136E-01
 -1      2946 1.09079E+00-1.43001E-01-1.68775E-02-6.46638E+00 5.06760E-02 1.03142E-01
 -1      2947 2.84118E+00 6.26377E-02 1.69594E-01-7.14759E+00 2.14839E-02 1.86902E-01
 -1      2948 2.91484E+00-2.70359E-01 3.42266E-01-6.07909E+00 4.11569E-02 1.88027E-01
 -1      2949-9.39149E+01-3.58912E-01-4.41541E-02-6.97157E+00 4.39134E-01 4.27014E-01
 -1      2950-1.04440E+01 3.81325E-01 9.76315E-02-6.74778E+00-8.94844E-02 2.20260E-01
 -1      2951-3.74662E+01-2.61473E-02 8.48041E-02-3.13793E+00 1.61263E-02-2.51588E-01
 -1      2952-1.99244E+01-7.09362E-03 6.04062E-03-6.36935E+00-6.00907E-02-1.46132E-01
 -1      2953-3.15725E+01 2.26828E-01 9.00850E-02-3.14574E+00 2.32715E-02-1.33417E-01
 -1      2954-3.60906E+01-7.58834E-02-8.20737E-02-3.10368E+00-5.79905E-02-1.94682E-01
 -1      2955-1.82661E+01 1.50769E-01 5.97622E-02-6.28019E+00 2.43675E-02-1.98235E-01
 -1      2956-2.33944E+01 3.29318E-01 5.22424E-02-6.43970E+00 9.27594E-02-1.75130E-01
 -1      2957-9.99857E+01-4.48743E-02 4.87888E-02-2.39666E+00 9.45769E-03-3.28002E-01
 -1      2958-9.72951E+01 5.16456E-02 9.42817E-02-2.26345E+00 2.13374E-03-2.88582E-01
 -1      2959-9.83092E+01-1.53190E-03-7.57862E-02-2.17396E+00-4.20239E-02-2.70173E-01
 -1      2960-6.22231E+01 2.69608E-01 5.90623E-02-5.71745E+00 7.97393E-02-5.68767E-02
 -1      2961-6.43436E+01 2.86977E-01 1.52451E-02-5.93327E+00 4.84733E-02-1.66779E-01
 -1      2962-3.49987E+01 6.01834E-02-1.40082E-01-3.11618E+00 5.98700E-02-2.80103E-01
 -1      2963-1.73339E+01 2.25420E-01-2.71562E-02-6.61837E+00-5.85250E-02-1.34986E-01
 -1      2964-3.11753E+01 2.06754E-01-4.08042E-02-3.15360E+00-3.14463E-02-2.96851E-01
 -1      2965-2.79389E+01 1.73423E-01 8.87065E-02-3.23852E+00 4.48902E-02-2.97822E-01
 -1      2966 4.09769E+00-1.20586E-01-2.25437E-01-7.14282E+00 6.01643E-03-9.15728E-02
 -1      2967 4.32084E+00 3.24022E-02-1.84822E-03-7.67855E+00 2.95292E-02-6.66633E-02
 -1      2968 6.53422E+00 1.01185E-01 1.00764E-02-6.64783E+00-4.26678E-02-1.38773E-01
 -1      2969 5.04402E+01-6.74866E-01-2.68667E-01-6.90823E+00 1.59392E+00-4.96744E-01
 -1      2970 5.89072E+01 6.94712E-01 2.35051E-01-1.06813E+01 7.99519E-01-7.16619E-01
 -1      2971 1.13411E+02-6.97420E-01 2.29710E+00-9.33215E+00 2.00660E+00-1.04772E-01
 -1      2972-3.99843E+01 7.89668E-02 4.79538E-01-5.25279E+00-4.63222E-01 6.28168E-01
 -1      2973-8.86361E+01-1.14183E+01-1.68396E+01-7.67939E+00-1.73440E+00 1.54495E+00
 -1      2974 2.86933E+00-4.36291E-01 3.12950E-01-6.04685E+00 1.03998E-02-1.15832E-01
 -1      2975 1.81624E+00-3.48225E-01 4.23906E-02-6.38652E+00-6.30090E-02-1.25703E-01
 -1      2976-4.68172E+01-9.21450E-01 1.60623E-02-1.05324E+01-1.01358E+00-7.05135E-01
 -1      2977-1.99858E+02 4.14372E-01-1.00569E+00-3.94378E+00-3.69189E-01-4.93051E-01
 -1      2978-1.12086E+02 3.27512E-01-1.89578E+00-8.91819E+00-2.07590E+00 4.28106E-02
 -1      2979 4.47430E+01 3.18811E-02-7.11568E-04-7.89516E+00 1.85600E-01-2.25622E-01
 -1      2980 4.39974E+01-4.64038E-02-4.86633E-02-7.98449E+00 8.43430E-02-5.22307E-02
 -1      2981-5.36452E-02-2.78416E-02 4.66660E-02-7.83523E+00 2.43740E-01-2.95416E-02
 -1      2982 5.15711E+01-3.40486E-01 1.95080E-02-8.05078E+00 4.86710E-01-4.73323E-01
 -1      2983 5.09223E+01-2.39355E-01-2.24375E-02-7.71349E+00 3.62091E-01-2.19633E-01
 -1      2984 9.59147E+01-1.88133E-01-9.49575E-02-7.35763E+00 3.35788E-01-2.79499E-01
 -1      2985 1.57915E+01 3.90275E-01-1.54777E-02-8.15468E+00-1.44106E-02 1.48259E-02
 -1      2986 1.66635E+01 4.03476E-01 2.36755E-01-7.55785E+00-2.35179E-02 4.63902E-02
 -1      2987-8.06954E-02 1.40261E-01-4.26247E-02-7.84922E+00 6.25999E-02 3.03355E-02
 -1      2988 2.18037E+01-4.56745E-02-3.24766E-02-8.07857E+00 1.25079E-02 2.60838E-02
 -1      2989 2.17852E+01-9.13689E-02-1.86938E-01-7.52408E+00-3.37648E-03 7.84445E-02
 -1      2990 3.80833E+01 9.20884E-02-1.63318E-02-7.41228E+00 2.68433E-02 2.25800E-02
 -1      2991-1.22134E+01-2.18904E-02-2.08693E-02-4.32269E+00-2.57988E-02-7.30741E-02
 -1      2992-1.70936E+00 4.79319E-01 1.20928E-01-7.63990E+00-8.60865E-02-2.09368E-01
 -1      2993-5.18497E+00 3.21751E-01-1.29697E-01-7.19476E+00 8.47617E-03-1.28940E-01
 -1      2994 5.62329E+01 1.13852E-01-6.63043E-02-5.62954E+00-2.56023E-02-5.21941E-02
 -1      2995 7.11923E+01-2.64951E-02-6.07760E-02-5.01268E+00 2.00854E-02 5.06971E-02
 -1      2996 7.93754E+01 2.81909E-01 1.39493E-01-4.93970E+00-9.42533E-02 1.14225E-02
 -1      2997 8.91709E-01-2.72886E-01 1.14644E+00-1.37839E+01-3.98730E+00 6.43268E-01
 -1      2998 9.10375E+01-5.86133E-02-3.61948E-02-5.07742E+00 1.41015E-02-2.58208E-02
 -1      2999 2.19935E+01 3.22422E-01 5.82667E-02-7.70653E+00 7.20851E-02-2.02958E-01
 -1      3000 7.02602E+01 2.39310E-02-3.83341E-02-5.70177E+00 1.85262E-01-4.97289E-02
 -1      3001 9.74152E+01 1.70288E-01 5.53516E-02-5.00108E+00 2.86529E-02 1.21757E-01
 -1      3002 2.64797E+01-4.72137E-02-6.26100E-03-7.57320E+00 2.75298E-03-3.07825E-01
 -1      3003 4.81904E+01 1.02171E-01-3.58343E-03-7.48143E+00-1.98731E-02-6.46970E-02
 -1      3004 1.92277E+02 5.02751E-02 4.31280E-01-4.92048E+00-3.99240E-01 2.98953E-01
 -1      3005 4.65133E+01-5.18075E-01-1.19470E-01-8.35981E+00-4.81264E-01 3.34884E-01
 -1      3006 1.43679E+02-2.32064E-01 3.35558E-02-5.62817E+00 1.33389E-01 1.00456E-02
 -1      3007 1.91677E+02-1.56480E-01-3.48680E-02-4.55823E+00-1.50243E-02-5.30150E-02
 -1      3008 4.85969E+01 4.33626E-02-5.32842E-02-7.83438E+00-1.47320E-01 3.25924E-01
 -1      3009 9.57878E+01-8.37534E-02-5.06879E-02-7.50938E+00-4.42810E-01 3.36741E-01
 -1      3010 2.14232E+01 2.59415E-01-2.02196E-02-8.19064E+00 2.10282E-02-2.81806E-02
 -1      3011 3.76611E-02 2.59122E-01 1.19574E-02-7.83853E+00 1.08482E-02-1.45186E-02
 -1      3012 2.61897E+01 1.26810E-01 3.25644E-02-8.03280E+00-4.01800E-02-5.49848E-02
 -1      3013 4.39732E+01 1.23004E-01-8.12739E-02-7.57329E+00-6.29040E-02 9.98957E-02
 -1      3014 5.08552E+01 1.73343E-01 1.62468E-02-7.52189E+00 1.06033E-02 1.55152E-01
 -1      3015 7.29862E+01 1.82203E-02 3.66096E-02-4.92733E+00-5.69159E-03 2.43069E-01
 -1      3016 8.07825E+01 1.92799E-01 4.99026E-03-4.73751E+00 2.21754E-02 2.33850E-01
 -1      3017 4.68055E+01-6.09402E-01-1.74367E-01-7.96725E+00-7.13153E-01 2.01222E-01
 -1      3018-5.43993E-01-1.87842E-01 1.16977E-02-7.65489E+00-4.90235E-01-1.14689E-03
 -1      3019 4.82499E+01-1.70340E-01-1.00944E-01-7.62643E+00-2.90174E-01 7.11169E-02
 -1      3020-1.76659E+01 8.15750E-02-1.30482E-01-4.63462E+00 5.63946E-02-1.03378E-01
 -1      3021-2.59997E+01-1.16875E-02-1.08464E-01-3.50573E+00-8.51733E-02 1.96438E-01
 -1      3022-8.63806E+01-9.52368E-02-6.48356E-02-2.56818E+00 2.36078E-02 2.57614E-01
 -1      3023-1.07030E+02 2.35713E-01 7.54593E-02-2.40412E+00-2.60427E-02 2.53272E-01
 -1      3024-6.80065E+00 3.42673E-01-1.27768E-02-7.83134E+00 9.26014E-02 1.09170E-01
 -1      3025 1.14031E+02-1.70747E-01-7.29752E-02-7.18185E+00 1.46803E-01-2.41560E-01
 -1      3026 1.21813E+02-1.62866E-01-1.75291E-01-6.98361E+00 3.95674E-01-4.60590E-01
 -1      3027-5.93173E+01 7.93468E-02-9.64960E-02-4.15584E+00 9.12316E-02-1.28567E-01
 -1      3028-8.23581E+01-3.30356E-02-9.76406E-02-2.83232E+00-5.33564E-02 2.03451E-01
 -1      3029-1.89781E+02-1.20614E-01 5.83854E-02-2.68120E+00 2.64748E-02 2.15588E-01
 -1      3030-7.05496E+01 7.22937E-02 1.30807E-01-4.03072E+00-8.05710E-02-1.46905E-01
 -1      3031-9.30786E+01 1.39632E-01 1.06918E-01-2.75512E+00 9.80565E-02 1.97599E-01
 -1      3032 5.28505E+01 2.52649E-02 5.83794E-02-8.00568E+00-3.16679E-02-9.68243E-02
 -1      3033 5.23283E+01-3.76944E-02 4.36317E-02-7.44842E+00-8.58050E-02-1.92768E-01
 -1      3034 6.89041E+00-2.34347E-01 2.24002E-02-7.26787E+00 3.59791E-02 3.46081E-03
 -1      3035 4.47031E+00-5.90796E-01 1.68878E-01-6.47040E+00 6.70382E-02-6.18300E-04
 -1      3036 2.37889E+01 2.20802E-01 8.02588E-02-8.03793E+00-2.79655E-02-7.29064E-02
 -1      3037 2.35478E+01 1.42034E-01 4.08231E-02-7.39707E+00-9.32910E-02-1.40187E-01
 -1      3038 2.70638E+00 8.50143E-02 5.25578E-02-7.22944E+00 3.58740E-02-6.75693E-03
 -1      3039-2.46016E+01-2.84281E-02-1.43098E-02-7.68358E+00-1.07731E-01 8.95890E-02
 -1      3040-2.94837E-01 1.96225E-01 4.88124E-02-7.96415E+00-9.29682E-02 3.80448E-03
 -1      3041 2.45339E+01 3.06572E-01 2.24436E-02-8.30028E+00 4.35860E-02 1.14332E-01
 -1      3042-1.40405E+02-8.67341E-02 1.30780E-01-4.74244E+00-6.96173E-02-1.07637E-01
 -1      3043-1.87288E+02 2.93253E-02 1.79896E-01-3.26878E+00 1.00553E-01 2.66820E-01
 -1      3044-4.62018E+01-5.15565E-02-5.61168E-02-7.83097E+00 5.52642E-02 5.12520E-02
 -1      3045 5.25844E+01-5.67644E-02-8.55989E-02-8.05799E+00 6.67866E-02-9.82991E-02
 -1      3046-1.28781E+02-9.25634E-02-1.06028E-01-4.27218E+00 7.56628E-02-1.18446E-01
 -1      3047-1.76366E+02-1.07562E-01-8.44041E-02-3.05378E+00-7.32603E-02 1.91249E-01
 -1      3048 1.83625E+02-1.01929E-01-1.20054E-01-4.66321E+00 4.81868E-02-8.69085E-02
 -1      3049 1.40169E+02-2.26190E-01-1.26189E-01-5.62381E+00 1.19589E-01 3.51517E-02
 -1      3050 1.92605E+02-9.28124E-03 7.20257E-02-4.64391E+00 2.22517E-01-4.60896E-02
 -1      3051-2.16058E+01 2.50885E-01-4.47862E-02-7.74683E+00 2.64849E-02 5.72807E-02
 -1      3052 2.37481E+01 1.21567E-01-8.16966E-02-8.08216E+00 6.11430E-02-8.14845E-02
 -1      3053 1.06736E+02-1.10653E-01-1.24514E-01-5.03348E+00 1.98566E-02 2.98599E-01
 -1      3054 9.27805E+01 2.34182E-02 3.42192E-02-4.99104E+00 1.98347E-02-2.81306E-01
 -1      3055 9.91128E+01 1.78476E-01 2.52195E-02-4.91712E+00-3.38452E-02-2.12432E-01
 -1      3056-4.91901E+01-4.22821E-01 1.53296E-02-7.69857E+00-6.99523E-03 1.65200E-01
 -1      3057-2.03469E+02-1.73916E-01 1.15870E-01-2.89510E+00 5.49093E-03-3.15357E-01
 -1      3058-2.00541E+02-8.14169E-02-1.11412E-01-2.83000E+00 6.46256E-02-3.18085E-01
 -1      3059-1.85837E+02 5.75998E-02 1.17547E-01-2.86680E+00 2.47585E-02-1.79980E-01
 -1      3060-1.15023E+02-5.23862E-02-4.37627E-02-6.35751E+00-5.47977E-02-1.37968E-01
 -1      3061-1.18061E+02-2.70906E-01 1.00239E-02-6.13142E+00-6.14206E-02-1.58957E-01
 -1      3062 1.30032E+02 1.38031E-01 1.78932E-01-4.79456E+00 3.37222E-02-2.57238E-02
 -1      3063 1.25033E+02-1.90310E-02-1.47887E-01-4.75493E+00-2.84263E-02 5.41348E-02
 -1      3064 3.71885E+01 1.02734E-01 3.69766E-02-7.82955E+00 1.65911E-02 8.73255E-02
 -1      3065 5.65795E+01 1.29818E-01-5.93344E-02-7.63086E+00 7.11601E-02-1.07731E-01
 -1      3066 6.20444E+01 1.70679E-01 9.30467E-03-7.62367E+00-3.31970E-02-1.47483E-01
 -1      3067 1.89722E+02 4.87634E-02-5.34521E-02-4.68922E+00-2.80120E-02 2.22849E-01
 -1      3068 3.44957E+01 2.14448E-01-9.30560E-03-8.26292E+00 8.28171E-02 1.21871E-01
 -1      3069 1.89684E+02-6.41878E-02-1.14221E-01-4.62900E+00-3.62317E-01 7.70512E-01
 -1      3070 1.89611E+02-1.41289E-01-1.32901E-01-4.41811E+00-1.14167E-01 4.43465E-01
 -1      3071-1.11043E-01-5.46542E-02-2.71379E-02-8.01963E+00 7.49533E-02 7.22864E-03
 -1      3072 4.54826E+01-2.24668E-01-2.72083E-02-8.19749E+00-6.98408E-02 1.30265E-01
 -1      3073 1.87541E+02-2.13002E-01-7.08638E-02-4.56708E+00-1.14188E-01 1.08801E-01
 -1      3074 1.77819E+02-1.55110E-01-3.36828E-02-4.46047E+00 7.01163E-02-9.11665E-03
 -1      3075 9.90126E+01 9.70791E-02 7.65115E-02-6.91971E+00-7.79298E-02 2.13262E-02
 -1      3076 1.31248E+02-8.22273E-02 5.72870E-02-5.01735E+00-1.14474E-01 1.06328E-01
 -1      3077-4.31337E+01 1.72143E-01-1.43412E-03-7.65959E+00-6.87157E-02-1.55169E-01
 -1      3078 4.09249E+01 2.66423E-01 4.24074E-02-4.42959E+00-1.05342E-02-1.03519E-01
 -1      3079 1.16581E+01 5.91683E-02 6.59867E-03-7.43774E+00 1.49177E-02 2.50008E-01
 -1      3080 4.47296E+01 2.32503E-01-1.55555E-02-4.51554E+00 7.96353E-02 2.99601E-02
 -1      3081-3.17898E+01 1.08907E-01 6.25600E-03-4.39614E+00 1.62890E-01-1.23511E-02
 -1      3082-2.86750E+01 8.92795E-02-3.83946E-02-4.47819E+00 1.29160E-01-3.64783E-02
 -1      3083-4.48008E+01-5.03466E-02 2.73901E-02-3.24938E+00-8.01740E-02 1.82928E-02
 -1      3084-4.09876E+01-1.00894E-02-4.69612E-02-3.29820E+00 2.77932E-02-1.07436E-01
 -1      3085-1.18145E+01 2.95931E-01 8.55682E-03-7.02982E+00-3.87282E-03 2.60090E-01
 -1      3086-2.56279E-02 3.96824E-01 5.26150E-02-7.89707E+00 1.19645E-02-3.89031E-03
 -1      3087 8.89753E-02 3.56132E-01 6.86333E-02-7.84983E+00-5.45528E-02-1.84834E-02
 -1      3088 1.15037E+01 5.48173E-02-4.99073E-02-8.04788E+00-9.01872E-02 8.20480E-02
 -1      3089 1.13600E+01 1.97022E-01 8.08690E-03-7.89741E+00 3.36810E-02 4.69808E-02
 -1      3090-1.15672E+01 2.94879E-01 1.87571E-02-7.58013E+00-2.55674E-02 6.87242E-02
 -1      3091-1.18683E+01 3.02570E-01 4.70189E-02-7.67656E+00 8.14815E-02 9.20995E-02
 -1      3092-1.63462E+01 1.64316E-01-8.68568E-02-7.47574E+00-3.27545E-02 9.96661E-02
 -1      3093-1.65329E+00 3.04162E-01-2.27379E-02-7.18286E+00 4.28774E-02-4.79582E-02
 -1      3094-1.61118E+01 1.34542E-01-6.17607E-02-6.95259E+00-9.56753E-02 1.84275E-01
 -1      3095 1.60390E+01 2.46651E-01 8.65350E-02-7.93500E+00 3.10712E-02 9.62338E-02
 -1      3096 1.36098E+00 5.95254E-02 1.18879E-02-7.23095E+00-4.38151E-02-4.42159E-02
 -1      3097 1.58215E+01 2.35903E-01 5.46774E-02-7.41356E+00 8.97872E-02 1.88761E-01
 -1      3098 5.30482E+01 5.20947E-02-5.18329E-02-4.23954E+00-4.81328E-02 6.99310E-03
 -1      3099 3.15403E+01 3.36312E-01 7.87563E-02-6.88216E+00 9.40586E-02-5.57236E-02
 -1      3100-5.30667E+01 1.41216E-01 6.23571E-02-2.73769E+00 5.30257E-02 9.26137E-03
 -1      3101-3.17791E+01 6.47970E-03-8.37509E-02-5.99580E+00-9.02222E-02-5.83102E-02
 -1      3102-1.63962E+02-2.26899E-01 2.86534E-02-2.75194E+00 9.58800E-02-1.35430E-01
 -1      3103 4.09882E+01 1.24800E-01-4.76068E-03-8.23698E+00 8.29754E-02 1.20598E-01
 -1      3104 1.56312E+02-1.04377E-01 5.09957E-02-4.87565E+00-9.93791E-02 1.27620E-01
 -1      3105 1.01242E+02 2.43516E-01-3.62360E-02-5.02262E+00-9.79915E-02-3.60184E-03
 -1      3106 2.63134E+01-1.13716E-02-2.91514E-02-8.20899E+00 8.60865E-02-1.07296E-01
 -1      3107-1.38947E+02-9.62058E-02 4.14700E-02-2.58646E+00 1.04363E-01-1.21397E-01
 -1      3108-3.64802E+01 1.65086E-01-8.56453E-03-7.62663E+00-8.15741E-02-1.13312E-01
 -1      3109-1.01236E+01-4.16338E-02-1.26721E-01-7.15168E+00 1.44016E-03 1.55165E-01
 -1      3110-3.72229E+01 1.67471E-01 1.82879E-02-3.34592E+00-2.30668E-02 3.46857E-02
 -1      3111-2.14219E+01 2.02028E-01 4.84482E-03-6.46803E+00-3.23214E-02 2.43538E-02
 -1      3112 9.58026E+00 3.85537E-01-2.37774E-02-7.54647E+00-5.51266E-02 1.94064E-01
 -1      3113 3.71690E+01 5.78138E-02 2.14009E-02-4.35586E+00 1.14178E-02 6.36760E-03
 -1      3114 2.11175E+01 1.79165E-01-1.09103E-02-7.12865E+00 2.07289E-02 4.26776E-02
 -1      3115 9.17509E+00 3.68880E-01 1.08474E-02-8.06724E+00-6.11122E-03 3.41493E-02
 -1      3116-9.42648E+00 5.35919E-02-2.68637E-02-7.74387E+00-1.52816E-02 4.73686E-02
 -1      3117-1.90372E+02-2.24507E-01-2.08147E-02-2.99735E+00-9.98455E-02-3.24361E-01
 -1      3118-1.21473E+02 7.02318E-02 6.22057E-02-6.33186E+00 2.69992E-02-2.55638E-01
 -1      3119-1.04598E+02-1.63802E-01 5.54067E-02-6.17045E+00-3.38795E-03-2.45664E-01
 -1      3120-1.31066E+02 1.16174E-01-2.77678E-02-2.56350E+00 1.05037E-01 1.27328E-01
 -1      3121 1.64272E+02 8.72045E-02-4.65181E-02-4.80425E+00-9.46934E-02-1.09466E-01
 -1      3122 4.29946E+01-1.63191E-01 5.75352E-03-8.17353E+00 9.88218E-02-1.35706E-01
 -1      3123-2.80984E-01-1.69721E-01 1.50494E-02-7.98231E+00-2.71187E-01 2.10569E-02
 -1      3124 4.86864E+01 8.10582E-02 5.65219E-02-8.04891E+00-5.51097E-02 1.14635E-01
 -1      3125 1.39136E+02 1.13913E-01-4.24503E-02-4.99116E+00-9.11883E-02-1.26356E-01
 -1      3126-3.44971E+01-5.32781E-02-4.18952E-03-7.60753E+00-9.75677E-02 1.19800E-01
 -1      3127 1.76562E+02 9.64118E-03 5.77015E-02-4.61331E+00 1.67351E-02 1.76489E-01
 -1      3128 1.82098E+02 9.79119E-02 5.52189E-02-4.38136E+00-7.36921E-02-1.10201E-01
 -1      3129-4.13377E+01-1.27212E-01-7.02170E-03-7.65487E+00-9.08119E-02 1.13758E-01
 -1      3130-1.56218E+02 7.66945E-02-2.27891E-02-2.69528E+00 9.89957E-02 1.25740E-01
 -1      3131-3.70275E+01 8.52203E-02-1.14974E-01-7.35961E+00-8.80351E-02 6.15259E-02
 -1      3132-3.73203E+01-2.19920E-02 1.98936E-02-7.40268E+00 2.64456E-02 6.78008E-02
 -1      3133-3.76177E+01-3.35154E-02-1.12485E-01-6.65075E+00-9.78154E-03-3.75337E-03
 -1      3134 1.49014E+02-3.17772E-02 6.24878E-02-5.02454E+00 2.57646E-03 2.48845E-01
 -1      3135 9.33462E+01-6.79783E-02 7.81472E-03-4.91770E+00-9.48458E-02 1.77401E-01
 -1      3136 3.33952E+01 1.57578E-01 7.84964E-02-8.08353E+00-2.53111E-02-1.10021E-01
 -1      3137 3.31737E+01 1.43182E-01 4.59109E-02-7.55717E+00-8.91072E-02-1.90428E-01
 -1      3138 3.73648E+00-4.73873E-02-6.03049E-03-7.24938E+00 4.65088E-02 4.77401E-02
 -1      3139-5.87677E+01-8.94194E-02-6.33870E-02-2.88241E+00-1.79719E-02-2.43667E-01
 -1      3140 5.82795E+01 1.91952E-01-5.91632E-02-4.51733E+00 3.36850E-02-2.15228E-01
 -1      3141 1.76226E+02-1.56294E-01-5.10492E-02-4.84645E+00-6.68125E-03 2.70170E-01
 -1      3142 5.09017E+01-5.25377E-01-2.69680E-01-7.88291E+00 6.97839E-01-3.11092E-01
 -1      3143-3.37268E+01 5.71532E-02-8.63485E-02-7.33828E+00 3.71072E-02-1.05376E-01
 -1      3144-3.34844E+01 3.75149E-02-6.51377E-02-6.82336E+00 9.66425E-02-1.78017E-01
 -1      3145-4.11333E+00 2.02023E-01-2.83573E-02-7.15396E+00-5.18378E-02 4.60927E-02
 -1      3146-1.75993E+02-1.62376E-01-4.09170E-02-2.53322E+00 5.24806E-03-2.72361E-01
 -1      3147 3.64945E+01-7.05363E-02-3.77861E-03-8.25388E+00 9.63135E-02-1.18225E-01
 -1      3148 1.12159E+02 6.61004E-03-5.93478E-02-4.73313E+00 5.70263E-02-1.08141E-02
 -1      3149 6.38365E+01 2.52349E-01 6.15518E-02-7.10864E+00-9.20745E-02 7.36795E-02
 -1      3150-1.12086E+02 9.07108E-02 4.62202E-02-2.21997E+00-5.22360E-02 3.85772E-03
 -1      3151-6.40818E+01-9.57229E-02-9.00495E-02-5.73762E+00 9.53089E-02 6.20808E-02
 -1      3152-2.36358E+02-1.79769E+01-5.08476E+01-1.19134E+01-1.32039E+00 5.64373E-01
 -1      3153-2.28982E+02-6.82516E+00-4.44608E+01-5.21683E+00 9.64014E-01 9.56466E+00
 -1      3154-2.20916E+02-4.72745E-01-2.44674E+01-9.15982E+00-1.22978E+00-8.90282E-03
 -1      3155-2.21545E+02-8.96629E-01-2.10568E+01-8.11603E+00-1.95924E+00 5.63783E+00
 -1      3156-1.45359E+02-2.77263E+01-3.26830E+01-1.25596E+01-9.81408E-01 5.53571E+00
 -1      3157 1.76978E+02 7.11543E-02-5.37269E-02-4.79931E+00 2.69557E-02-2.47842E-01
 -1      3158-1.48289E+02 1.81596E-01 7.17045E-02-2.35454E+00-1.51898E-02 2.69696E-01
 -1      3159 1.85190E+02-6.25678E-02-4.21931E-02-4.55578E+00 1.46048E-01-4.76951E-01
 -1      3160 1.94034E+02 2.11911E-02-7.37095E-03-4.48417E+00 3.49189E-01-6.72998E-01
 -1      3161-1.76311E+02 1.52605E-01 7.56324E-02-2.50557E+00-1.37734E-02 2.63263E-01
 -1      3162-1.02779E+01-1.08683E-01-9.00670E-02-7.06282E+00 3.96175E-02-1.78637E-01
 -1      3163-1.50429E+01 4.77332E-01 5.91317E-02-6.89683E+00 1.54161E-02 1.46017E-03
 -1      3164-1.31433E+01 5.60658E-01 1.01651E-01-7.04999E+00-2.42391E-02-1.45677E-01
 -1      3165-2.73789E+01-4.66215E-02-1.67100E-01-4.26851E+00-9.16198E-02-1.45313E-01
 -1      3166-8.62968E+01 1.69891E-01 7.39992E-02-2.56862E+00 5.13425E-02-2.12674E-01
 -1      3167-3.13404E+01-1.66438E-01-8.66730E-02-6.83599E+00 8.64783E-03-1.75700E-01
 -1      3168-7.03926E+01 2.50697E-01 1.50029E-01-3.77840E+00 5.41795E-02-1.88969E-01
 -1      3169-9.48178E+01-6.40294E-02-8.37797E-02-2.24984E+00 2.32497E-02-4.99639E-02
 -1      3170-3.82598E+01 3.74595E-01 3.11475E-03-6.56780E+00-2.26175E-02-1.78051E-01
 -1      3171-5.46571E+01 1.83817E-01 5.03644E-02-5.69591E+00 2.60514E-02-1.90090E-01
 -1      3172 1.17425E+02-1.32323E-02-9.59230E-02-7.13977E+00-4.82957E-01 5.24575E-01
 -1      3173 1.18246E+02-1.43221E-01-1.89704E-03-7.06307E+00-1.51127E-01 2.49753E-01
 -1      3174 1.20982E+02 2.38859E-01 6.33150E-02-5.04167E+00-2.72199E-02 2.44274E-01
 -1      3175-1.20379E+02-3.42432E-02 6.32263E-02-2.36689E+00 2.31878E-02 2.17241E-01
 -1      3176-1.51991E+01 2.31412E-01-5.78802E-02-7.77679E+00-3.05401E-02-3.56394E-02
 -1      3177 1.60391E+01 2.70611E-01-4.20018E-02-7.99841E+00-3.34538E-02 8.47237E-02
 -1      3178 1.48879E+01 1.83523E-01 6.21091E-02-8.18702E+00 3.36814E-02-4.30552E-02
 -1      3179-1.63432E+01 1.39568E-01 3.92311E-02-7.53393E+00 2.81028E-02 8.41639E-02
 -1      3180-5.75133E+01 1.17977E-01-3.67470E-02-2.97232E+00 3.79499E-02-1.76202E-01
 -1      3181-5.72002E+01 1.07818E-02-4.06982E-02-2.63349E+00-8.45054E-02 1.70101E-01
 -1      3182 5.74805E+01 6.31912E-02 3.79934E-02-4.56222E+00-2.90677E-02-1.80189E-01
 -1      3183 5.71921E+01 1.62896E-01 4.14755E-02-4.23146E+00 7.88770E-02 1.68999E-01
 -1      3184-1.48414E+02-1.42419E-01-4.80645E-02-2.35783E+00-7.87714E-04-2.71464E-01
 -1      3185-3.02027E+01 1.25478E-01-7.52166E-02-7.63371E+00 3.98799E-02 4.81111E-02
 -1      3186 3.33745E+01 1.69683E-01-4.56067E-02-8.13815E+00 4.34433E-02-9.75220E-02
 -1      3187 2.96280E+01 7.79648E-02 6.25998E-02-8.29495E+00-3.82862E-02 3.96472E-02
 -1      3188-3.38597E+01 5.22398E-02 5.25161E-02-7.38317E+00-1.01021E-02-7.17960E-02
 -1      3189-1.60160E+01 2.46880E-01-9.65646E-02-4.16835E+00-3.09990E-02-8.41533E-02
 -1      3190-2.66903E+00 1.11477E-01-7.51815E-02-7.67292E+00 4.82563E-02-1.54054E-01
 -1      3191-2.23887E+01 2.51269E-02 4.80197E-03-3.32658E+00-1.02492E-01 1.13139E-01
 -1      3192-7.22118E+00 4.05772E-01-6.01346E-02-7.27716E+00-1.01967E-02-2.22080E-01
 -1      3193-9.20879E+00 2.45885E-01 6.07187E-02-7.04169E+00 2.15096E-02-6.86028E-02
 -1      3194 1.49556E+02 2.00882E-01 6.57371E-02-4.98365E+00 1.50474E-02-2.67493E-01
 -1      3195 1.14141E+02 1.78540E-02 2.56631E-02-4.99014E+00 3.42995E-02 1.77244E-01
 -1      3196 1.16264E+02 1.25210E-01 3.87009E-02-4.70061E+00-7.72220E-02-1.80819E-01
 -1      3197 1.97046E+02 1.14138E-01 3.61167E-01-4.77006E+00 3.24207E-01-3.75111E-01
 -1      3198-1.14108E+02 6.98991E-02-2.58497E-02-2.52425E+00-2.62824E-02 1.84219E-01
 -1      3199-1.16202E+02-1.28188E-02-1.21215E-02-2.16519E+00 9.47614E-02-1.82274E-01
 -1      3200-1.96580E+02 6.39144E-02-2.24560E-02-2.74327E+00-3.51857E-02-3.00521E-01
 -1      3201-1.82026E+02 3.34526E-02 1.14556E-01-2.85017E+00 4.80013E-02-3.06025E-01
 -1      3202 5.53573E+00-1.99030E-01 1.06125E-01-6.83669E+00-8.31643E-03-2.18337E-01
 -1      3203 8.01902E+00 1.72004E-01 3.21054E-02-6.79426E+00-6.45501E-02-1.80284E-01
 -1      3204 2.13543E+02-4.69017E-01 7.35049E+00-6.05330E+00 1.25196E+00 6.64784E-01
 -1      3205 1.57397E+02-4.42795E-01 2.12117E+00-8.34737E+00-9.40430E-02 7.61685E-02
 -1      3206 2.01611E+02-5.64406E-01 1.03413E+00-4.64055E+00 2.54291E-01-4.49398E-01
 -1      3207-3.56713E-01 5.21526E-01 2.28180E-01-6.95446E+00-5.65928E-02-1.28776E-01
 -1      3208-2.34387E+00 3.90972E-01-1.94965E-01-6.71380E+00-9.36073E-02 1.28824E-01
 -1      3209-9.94002E-01 6.76488E-01 8.38179E-02-6.57784E+00-7.69239E-03 2.37679E-02
 -1      3210-3.01228E+00 4.83329E-01-3.55656E-01-6.18382E+00-3.14927E-02 1.81503E-01
 -1      3211-3.65636E+00 9.46800E-01-1.72334E-02-6.90350E+00-1.02177E-01 9.48165E-02
 -1      3212-6.85206E+01 1.77867E-01 5.77912E-02-7.06085E+00-7.38099E-02-2.09806E-01
 -1      3213-8.21760E+01 2.00407E-01 6.53411E-02-6.77362E+00-1.73927E-02-2.93885E-02
 -1      3214-6.56575E+01-4.51925E-01-8.02565E-02-6.93416E+00 3.20457E-02-2.00537E-01
 -1      3215 1.61309E+02 6.15173E-02 9.10426E+00-8.39690E+00-1.28531E-01-4.32974E-03
 -1      3216 2.21237E+02 6.91916E-01 1.51305E+01-6.76284E+00-1.62753E+00-2.10173E+00
 -1      3217 2.15914E+02-4.84724E-01 7.60028E+00-5.83005E+00-1.26701E+00-1.00030E+00
 -1      3218 2.04442E+00-2.76894E-01 1.15680E-01-6.82143E+00-4.40225E-02-1.49154E-01
 -1      3219 2.66243E+00-4.27189E-01 2.29274E-01-6.31681E+00-6.17202E-02-1.87312E-01
 -1      3220 9.42253E-01 1.57490E-01 5.85668E-02-7.26460E+00-7.35356E-02-4.53659E-02
 -1      3221 3.64891E+00-5.78107E-01-9.93544E-03-7.00299E+00-7.34772E-02-1.30048E-01
 -1      3222 2.18381E+02 1.57978E-02 1.51993E+01-6.36829E+00 1.60950E+00 1.44312E+00
 -1      3223 6.59980E+00-4.80210E-02 1.08937E-01-5.05288E+00-1.40802E-01 3.00028E-02
 -1      3224 9.13195E+00-6.25216E-02 4.56011E-02-4.95419E+00-8.11297E-02 3.03085E-02
 -1      3225 7.35383E+00-2.72282E-01 9.86291E-02-4.08339E+00 3.50713E-02-1.35300E-01
 -1      3226 1.06084E+01-1.16037E-01 1.63843E-01-4.01872E+00-6.09204E-02 8.20085E-02
 -1      3227-2.87794E+00 5.79642E-01 1.39996E-01-7.31349E+00 1.95142E-02 1.97195E-01
 -1      3228-1.34367E+01-9.37671E-02-4.05548E-02-3.79077E+00 1.81221E-02 6.41524E-02
 -1      3229-6.02432E+00 3.15405E-01-9.57203E-02-6.75909E+00-3.83010E-02 1.14417E-01
 -1      3230-9.46327E-02 2.29017E-01 3.74335E-03-7.97919E+00 5.88033E-02 4.54708E-02
 -1      3231 2.18318E+01 1.20937E-02-8.00420E-02-8.22134E+00-5.27835E-02 6.72733E-02
 -1      3232-6.69597E+00-1.68822E-01-5.11042E-02-7.46515E+00 1.37852E-02 1.57607E-02
 -1      3233-8.01964E+01-4.89202E-02 1.00291E-01-6.63655E+00 1.32191E-01-3.75222E-02
 -1      3234-6.07635E+01 1.05295E+00-1.44428E+00-7.49502E+00-2.69611E+00 2.74023E-01
 -1      3235 4.27192E+00-1.93646E-01-2.91181E-02-9.39502E+00-2.72892E+00 1.03519E-01
 -1      3236-5.15108E+01 3.36620E-01 3.33908E-01-6.65013E+00-1.48618E+00-6.52789E-01
 -1      3237 5.21567E+00-3.09794E-01 1.63803E-01-9.08544E+00-3.06505E+00-1.71509E-01
 -1      3238 6.08855E+01-1.31856E+00 1.82036E+00-7.63930E+00-2.88845E+00-3.36921E-01
 -1      3239 6.30183E+01 2.11950E+00 3.13879E+00-6.68544E+00-3.61140E+00-1.33979E+00
 -1      3240-2.61875E+01-1.73521E-01-1.58959E-01-3.32847E+00 1.18720E-01-1.07526E-01
 -1      3241-8.40956E+01-1.50104E-01-9.56128E-02-2.61142E+00 7.92795E-02-1.21911E-01
 -1      3242-2.35969E+01 3.60669E-01-1.00474E-01-7.04124E+00 6.48666E-02-1.70481E-01
 -1      3243-8.03803E+01-1.59637E-02 3.44031E-02-2.60737E+00-1.10891E-01 1.29511E-01
 -1      3244-1.04153E+02 1.03663E-01-3.37162E-02-2.17729E+00 1.05929E-01 1.36234E-01
 -1      3245-3.17008E+01-1.06175E-01 4.88623E-02-6.76598E+00-5.97355E-02-2.18634E-01
 -1      3246-1.00249E+02 3.34740E-01 1.60758E-01-2.25944E+00-7.82367E-02-1.06488E-01
 -1      3247-1.12197E+01 1.34192E-01-9.71639E-03-7.55557E+00-2.45021E-02-4.08605E-02
 -1      3248-1.11734E+01-1.39891E-02-1.27653E-01-7.79593E+00 5.26432E-02-8.53703E-02
 -1      3249-1.11041E+01-1.02581E-01 1.56971E-03-7.13689E+00 2.51324E-02-2.19336E-01
 -1      3250-3.83211E+01 2.88818E-01 4.93391E-02-3.12532E+00-5.83128E-02-8.53929E-02
 -1      3251-4.22363E+01 1.79919E-01 4.75252E-02-3.10171E+00 7.91924E-02 1.34583E-01
 -1      3252-3.18125E+01 2.53234E-02-4.97072E-02-7.26132E+00-6.37757E-03-9.76898E-02
 -1      3253-3.16104E+01-3.27053E-02-1.11529E-01-7.39875E+00 3.41465E-02-1.13963E-01
 -1      3254-2.35747E+01 3.14171E-01 1.07657E-01-7.57825E+00-2.96400E-02-9.29184E-02
 -1      3255-2.34691E+01 2.72553E-01 4.22590E-02-7.43944E+00 1.82593E-02-5.60654E-02
 -1      3256-3.91158E+00 4.12798E-01-2.34568E-02-7.76287E+00 3.87477E-02 5.90128E-02
 -1      3257-2.38102E+01 1.71380E-02 5.51385E-02-3.33917E+00 3.32878E-02 2.31127E-01
 -1      3258 7.92538E+01-2.55662E-02-5.07550E-02-4.62359E+00 6.91628E-02-4.19716E-04
 -1      3259 4.65191E+01 2.34990E-01 1.30210E-01-7.02115E+00-8.44463E-02 3.74181E-02
 -1      3260 1.77303E+01 2.35187E-01-1.02215E-02-5.10680E+00 1.85443E-01 5.25064E-02
 -1      3261 1.46354E+01 2.23162E-01 4.74382E-02-5.09686E+00 7.03120E-02 1.13853E-01
 -1      3262 1.97030E+01 1.27612E-02 4.47620E-02-3.93059E+00-9.17052E-02 5.52733E-04
 -1      3263 5.71821E+00 2.53423E-01-1.61974E-01-7.25003E+00 4.73788E-02 2.83301E-01
 -1      3264 2.36351E+01 9.21395E-02-2.40454E-02-4.00066E+00 4.85686E-02-7.62320E-02
 -1      3265-6.10225E+01-2.05506E+00-2.71537E+00-6.43471E+00-3.12880E+00 4.09715E-01
 -1      3266-1.06411E+01 3.42372E-01-5.54312E-03-7.81211E+00-4.75352E-03-4.09495E-02
 -1      3267-9.96011E+00 3.87500E-01 1.58920E-01-7.28780E+00 3.05120E-02-1.28199E-01
 -1      3268-2.15806E+01 1.58353E-01-3.09837E-02-6.48891E+00 7.14164E-04-5.50126E-02
 -1      3269-4.31445E+01-7.39374E-02-1.11351E-01-3.34717E+00 1.96149E-02-6.01893E-02
 -1      3270-1.50676E+02-2.46963E-01-1.20262E-01-4.12596E+00-1.04648E-01-2.14602E-01
 -1      3271-1.75060E+01 2.58087E-01-2.88992E-02-4.22820E+00-9.56239E-02-2.43662E-01
 -1      3272-2.38679E+01-8.01265E-02-3.10173E-02-3.24404E+00 8.16431E-03-2.74223E-01
 -1      3273-2.11302E+02-9.00050E-02-9.11373E-02-2.88458E+00-9.60202E-04 5.12307E-01
 -1      3274-5.43539E+01-6.53758E-02 5.53223E-02-7.21508E+00-3.08565E-01-1.45342E-01
 -1      3275-5.42815E+01-2.84273E-01-1.15713E-01-7.60584E+00-7.67320E-02-1.52358E-01
 -1      3276-5.44578E+01-3.62614E-01 1.31351E-01-7.46159E+00-2.01347E-01-2.47158E-01
 -1      3277-5.04488E+01 3.66887E-02 5.08216E-02-7.63286E+00-2.64670E-02-1.11413E-01
 -1      3278-1.96815E+02 4.12634E-02-9.49938E-03-3.20807E+00 2.12598E-02 8.11805E-03
 -1      3279-1.92770E+02 1.20800E-01 1.88056E-01-3.09768E+00-1.12972E-01-1.99551E-01
 -1      3280-1.80376E+02-3.09557E-01-1.01114E-01-2.88069E+00 1.17359E-01-1.14128E-01
 -1      3281 2.16708E+02 2.19411E-01 7.32776E+00-5.51582E+00 1.70418E+00 2.01817E+00
 -1      3282 1.34014E+02-1.64259E+00 2.54814E+00-6.12230E+00 3.17139E+00-7.79902E-01
 -1      3283 2.21385E+02-1.13001E+00 2.10044E+00-5.28491E-01 9.10693E-01-4.56067E-01
 -1      3284 2.02986E+02-1.56375E-01 1.97592E+00-4.11148E+00 8.84574E-01-5.67293E-02
 -1      3285 1.23802E+02-3.08070E-01 2.65744E-01-5.15286E+00 1.13542E+00-1.05586E+00
 -1      3286 7.79096E+00-2.57005E-01 1.60849E-01-3.95691E+00-3.10587E-02 1.50294E-01
 -1      3287 3.47294E+00 5.85429E-02 1.33900E-01-7.42627E+00-8.73724E-02 3.08297E-01
 -1      3288 9.56061E+00 5.71715E-02 1.09799E-01-4.27122E+00-5.43048E-02 6.63731E-02
 -1      3289 5.37352E+00-1.07037E-01 8.29408E-03-6.95857E+00 8.37947E-02 1.60699E-01
 -1      3290 8.56728E+00-1.70041E-01 1.23408E-01-3.97628E+00-1.70822E-02-3.74786E-01
 -1      3291 9.81148E+00-1.33201E-01-5.16789E-02-3.97630E+00-4.14015E-03-3.98213E-01
 -1      3292 1.21433E+01 2.04018E-01 7.62629E-02-3.73861E+00-6.13650E-02-3.02737E-01
 -1      3293-8.83031E+00 4.56955E-01-8.16221E-02-3.59602E+00 1.63992E-02-3.59360E-01
 -1      3294-1.02925E+01 6.68052E-02-7.82920E-02-4.35097E+00 4.78185E-02-3.28854E-01
 -1      3295-2.30618E+02-1.11593E+01-4.75449E+01-7.30082E+00 7.09261E-01-9.26228E+00
 -1      3296-1.45257E+02-2.88584E+01-3.11994E+01-1.20062E+01 2.03462E+00-5.20294E+00
 -1      3297-2.22856E+02 7.52501E-01-2.20176E+01-9.60789E+00 1.85795E+00-5.25350E+00
 -1      3298-1.46517E+02-2.60776E+01-3.13669E+01-1.32973E+01 3.83372E-01 1.64403E-01
 -1      3299-2.83394E+00 8.05901E-01-2.70413E-01-5.96790E+00-1.07232E-03 8.60143E-02
 -1      3300-2.88977E+00 7.38352E-01-2.90187E-01-6.11198E+00 2.02148E-02-1.83239E-01
 -1      3301 8.59808E+01 1.26254E-01-4.77696E-02-4.72627E+00 6.66339E-03 2.57542E-01
 -1      3302 8.93977E+01 9.73897E+00 1.57097E+01-7.27601E+00 1.74215E+00 3.06672E+00
 -1      3303 1.30244E+02-1.86381E-01 1.11512E+01-1.50002E+01 1.92438E-01 2.96605E-01
 -1      3304-1.94462E+02 3.83616E-01-1.25869E+00-4.33440E+00 4.04675E-01 4.65991E-01
 -1      3305-4.10305E+01-1.07444E+00-3.27637E-01-1.10473E+01 7.68976E-01 5.56946E-01
 -1      3306-1.06218E+02 6.25960E-01-2.13664E+00-9.49142E+00 2.11091E+00-1.11550E-01
 -1      3307-2.10470E+00 6.70698E-01-1.31634E-01-6.30895E+00-1.55721E-02 1.26874E-01
 -1      3308-3.90460E+01 1.33841E-01-3.36604E-02-3.17447E+00 1.62160E-02 2.99164E-01
 -1      3309-4.26129E+01 2.43477E-02-5.52197E-03-3.13274E+00-3.70244E-02 1.98052E-01
 -1      3310 3.89705E+01 7.79332E-02 3.75434E-02-4.30661E+00-2.87068E-02 3.25732E-01
 -1      3311 4.25592E+01 1.79826E-01-2.47524E-04-4.36983E+00 2.23029E-02 2.26287E-01
 -1      3312 2.37147E+01 1.64694E-01-6.40274E-02-7.29739E+00-4.06689E-02 1.05798E-01
 -1      3313 2.67543E+01 2.46557E-01 7.37077E-03-7.27031E+00 2.54162E-02 1.29851E-01
 -1      3314-2.39941E+01 2.33686E-01 5.36934E-02-6.58914E+00 3.81277E-02 9.33252E-02
 -1      3315-2.69972E+01 1.40746E-01-1.41675E-02-6.47048E+00-2.42796E-02 1.27666E-01
 -1      3316-4.56112E+01 3.03509E-01 3.22324E-01-6.95351E+00 1.66460E+00 5.69450E-01
 -1      3317 2.03379E+00-2.66946E-01 1.31267E-01-6.77949E+00 4.69470E-02 1.57513E-01
 -1      3318-3.00948E-01 5.24857E-01 2.42831E-01-6.91159E+00 5.68517E-02 1.16685E-01
 -1      3319 9.72834E-01 1.96200E-01 9.46728E-02-7.23113E+00 4.34198E-02 2.71237E-02
 -1      3320 2.77740E+00-3.58408E-01 3.08487E-01-6.32303E+00 7.98083E-02 2.05963E-01
 -1      3321 3.67311E+00-5.34268E-01 5.66096E-02-7.00537E+00 3.07669E-02 1.33879E-01
 -1      3322-2.16626E+02-1.11359E+00-7.45640E+00-5.13418E+00-1.90816E+00 2.22873E+00
 -1      3323-1.34162E+02 1.30102E+00-2.39953E+00-5.80679E+00-3.08015E+00-4.98544E-01
 -1      3324-2.21282E+02 1.13588E+00-1.91092E+00 5.25477E-02-1.02200E+00-3.51934E-01
 -1      3325-2.01217E+02-1.33607E-01-2.13515E+00-3.45295E+00-8.21520E-01 1.56173E-01
 -1      3326-1.22619E+02 6.71255E-02-2.84468E-01-4.88847E+00-1.01467E+00-1.19164E+00
 -1      3327-6.86454E+00 2.70871E-01 8.52082E-02-7.78558E+00 4.32908E-02-8.49056E-02
 -1      3328-2.50059E-01 2.35454E-01-5.35686E-02-7.96720E+00 4.24474E-02 3.63758E-02
 -1      3329 6.10757E+00 3.28789E-01 9.82548E-02-7.91409E+00 5.27170E-02 7.90351E-02
 -1      3330-6.29479E-01 2.56693E-01 6.68583E-02-7.18307E+00-4.23040E-02 2.91230E-03
 -1      3331-7.37049E+00 3.25755E-01-1.93376E-02-7.88719E+00 1.84149E-02-6.71436E-02
 -1      3332 6.14757E+00 1.74056E-01-3.78577E-02-7.91219E+00-8.04043E-02 6.59566E-02
 -1      3333 2.36603E+00-2.64655E-02 6.88249E-02-7.53744E+00 5.14611E-02 8.87716E-02
 -1      3334-3.23296E-01 1.42613E-01 3.10044E-03-6.85675E+00 8.49936E-02 1.79800E-02
 -1      3335-7.49714E+01 1.43161E-01-6.92509E-02-2.80351E+00-4.71303E-02-9.76407E-03
 -1      3336-1.99682E+01-3.99522E-02-8.14633E-02-7.03705E+00 2.82740E-03-2.00347E-01
 -1      3337-4.32284E+01 1.64990E-01 5.68972E-02-6.14785E+00 1.98293E-02-4.83098E-02
 -1      3338-2.64438E+01 2.77103E-01 1.16904E-01-6.93562E+00 2.92248E-03-2.51330E-01
 -1      3339-1.00892E+02-5.08371E-02 8.61658E-02-2.62510E+00 4.04547E-02 1.64796E-02
 -1      3340-5.81806E+01 5.03630E-02-7.33597E-02-5.81661E+00-1.16758E-02-5.89053E-02
 -1      3341-1.93996E+01 1.02246E-01 5.25586E-02-7.57885E+00 3.16630E-02-4.08524E-02
 -1      3342-2.71593E+01 2.13968E-01-7.04239E-02-7.49834E+00-3.23143E-02-7.80801E-02
 -1      3343 8.30209E+01 1.39518E-01 2.49614E-02-4.80984E+00 2.51882E-03 8.06706E-02
 -1      3344 8.36682E+01 2.28979E-01 5.32466E-02-4.58037E+00-6.43014E-02-7.74921E-02
 -1      3345 2.24793E+02 6.90001E+00 4.32580E+01-4.65366E+00 1.05258E+00-9.47275E+00
 -1      3346 2.32199E+02 1.88967E+01 5.00524E+01-1.07030E+01-8.56136E-01-5.44170E-01
 -1      3347 2.24517E+02 7.59731E-01 2.15871E+01-8.46581E+00-1.99995E+00-6.18540E+00
 -1      3348 2.23780E+02 7.69092E-01 2.53083E+01-9.75861E+00-1.40879E+00-1.24955E-01
 -1      3349 1.43661E+02 2.74088E+01 3.31218E+01-1.23489E+01-1.10032E+00-5.90061E+00
 -1      3350-6.02386E+00 6.86619E-01-1.07778E-01-6.70993E+00 1.50356E-02-2.80087E-01
 -1      3351-1.06453E+01 2.65320E-01-1.03249E-01-3.71908E+00 4.42052E-02-3.31335E-01
 -1      3352-6.29922E+00 3.76174E-01-2.83008E-02-7.27281E+00 9.68434E-02-1.25995E-01
 -1      3353-6.32679E+01-4.99172E+00-4.65462E+00 6.63824E+00-1.46838E+00 4.78934E+00
 -1      3354 5.50751E+00-6.34972E+00-5.57012E+00 7.89217E+00-2.64581E-01 2.13658E+00
 -1      3355 1.04108E+02 5.95179E+00 5.94879E+00-5.03431E+00-4.68290E+00-2.86901E+00
 -1      3356 3.38265E+01-1.80272E+00-1.56681E+00-3.29249E+00-3.88816E+00-1.38768E-01
 -1      3357 2.38285E+01-5.74230E-01 1.74635E+00-3.97905E+00-3.73977E+00-1.37405E+00
 -1      3358 1.97071E+02-5.54417E-01 1.21888E+00-4.95437E+00-4.07603E-01 4.68347E-01
 -1      3359 5.43818E+01 7.21620E-01 3.84154E-01-1.09581E+01-9.46083E-01 6.40530E-01
 -1      3360 1.11286E+02-7.10068E-01 2.40592E+00-9.55826E+00-2.15071E+00-1.01932E-02
 -1      3361-3.25952E+00 3.56176E-01-2.15116E-01-3.33504E+00 5.96414E-03-2.58267E-02
 -1      3362-4.08767E+00-2.34253E-01-6.92369E-01-3.02351E+00-2.24136E-02 1.91970E-01
 -1      3363-4.91648E+00 3.06571E-01 2.71804E-02-4.14459E+00 1.39694E-03-5.05949E-03
 -1      3364-4.77703E+00 4.05176E-01 1.48205E-02-4.05041E+00-1.79394E-02 3.08872E-01
 -1      3365-3.87838E+00 6.82409E-01-4.82792E-01-5.95682E+00-6.72106E-02 1.36220E-01
 -1      3366 4.57007E+01-6.34171E-01-3.60836E-01-7.09170E+00-1.56331E+00 4.88748E-01
 -1      3367 8.62356E-01 2.14382E-01 3.00469E-02-7.33653E+00 2.30839E-03-7.03140E-03
 -1      3368 4.22649E+01-8.44394E-02-1.06182E-01-8.04893E+00 3.21222E-02-2.33143E-02
 -1      3369-4.64873E+01-1.32775E-01-2.36860E-02-7.67952E+00 6.11639E-02 5.11611E-03
 -1      3370-3.43904E+00-1.52374E-01 1.42015E-01-7.34637E+00-5.06882E-03 4.68687E-02
 -1      3371-5.48996E+00 1.03663E-01-5.90202E-03-7.19395E+00 8.61024E-04 1.90775E-02
 -1      3372-9.51089E+01-2.03534E-01-4.41774E-03-6.43439E+00 5.02773E-02 1.44718E-01
 -1      3373-4.86154E+01 3.85428E-02 6.61822E-02-7.64315E+00-5.67751E-02 7.77463E-02
 -1      3374-2.14015E+00 1.67519E-01 1.17507E-01-8.14600E+00 4.81123E-03 6.19509E-02
 -1      3375 2.94640E+01-5.37041E-03 4.62652E-02-4.25560E+00-5.30491E-02-1.27343E-01
 -1      3376 1.31379E+01 1.84525E-01-1.04031E-01-7.05335E+00-6.40113E-03 2.10681E-02
 -1      3377 2.96209E+01 5.49483E-02 1.24702E-01-4.19692E+00 1.89821E-02 7.68189E-02
 -1      3378 3.29025E+01 9.82243E-02-3.61581E-02-4.23728E+00-3.72338E-02 1.88679E-02
 -1      3379 1.63001E+01 2.25152E-01 8.66934E-02-7.16059E+00-2.47489E-02 1.18757E-01
 -1      3380 1.58045E+01 1.46688E-01-4.99861E-03-7.13594E+00-7.21705E-02 9.93628E-02
 -1      3381 6.50423E+00 2.93671E-01-8.19214E-03-8.00686E+00 2.32369E-02-3.44245E-02
 -1      3382-7.17832E+00 1.39229E-01-5.68835E-02-7.73116E+00 3.03086E-02 3.33374E-02
 -1      3383-3.19086E-02 3.31807E-01 1.27056E-01-7.42931E+00-3.46297E-02-7.74174E-03
 -1      3384-1.91030E+00 4.30694E-01 1.41587E-02-7.18733E+00-8.79107E-03 3.29852E-02
 -1      3385-1.64857E+01 5.30479E-02-1.21449E-01-6.61754E+00 7.44603E-03 1.11202E-01
 -1      3386-9.23329E+00 3.21363E-01-1.39259E-02-7.73407E+00-7.23376E-02 6.33014E-02
 -1      3387 8.65723E+01-2.01522E-01-1.64559E-02-7.40046E+00 3.99843E-02-1.49061E-01
 -1      3388 4.40766E+01-1.55156E-01-4.93537E-02-8.06275E+00 1.09141E-01-5.58720E-02
 -1      3389-3.96295E+00 4.17974E-02 1.85847E-01-7.39072E+00 1.21597E-01 1.65275E-02
 -1      3390 1.49200E+01-1.93842E-02-1.40483E-03-7.35566E+00 4.73789E-02-5.35066E-03
 -1      3391 3.94501E+01 5.50559E-02 4.11712E-02-7.04601E+00 2.77448E-02-3.53078E-02
 -1      3392 2.60152E+01-5.38909E-03-7.48891E-02-6.89507E+00-9.04127E-02 5.45055E-02
 -1      3393-5.09511E+00 1.69626E-01-1.98452E-02-7.17237E+00 5.31133E-02 3.51803E-03
 -1      3394 4.80405E+00 2.85494E-01 2.56903E-02-7.32268E+00-3.41737E-02 1.14792E-02
 -1      3395-2.62717E+01 3.11884E-01 4.42538E-02-6.14902E+00 5.51286E-02 4.04224E-02
 -1      3396 7.03875E+00 3.36379E-01 4.92710E-02-7.33433E+00 7.33738E-02-7.42783E-04
 -1      3397 5.07513E+00-6.38992E+00-6.00112E+00 8.16267E+00 8.73048E-02-2.19853E+00
 -1      3398-6.36431E+01-4.99323E+00-4.56783E+00 6.92388E+00 1.40747E+00-5.00175E+00
 -1      3399 2.13184E+01-5.91868E-01 1.61554E+00-4.31582E+00 3.77538E+00 1.49548E+00
 -1      3400 3.11848E+01-2.50721E+00-2.49338E+00-3.45152E+00 3.65797E+00-6.45003E-02
 -1      3401 1.01914E+02 5.67094E+00 5.81184E+00-5.46690E+00 4.83286E+00 2.94957E+00
 -1      3402 3.17555E+01 1.42111E-01-2.01898E-01-4.21921E+00 2.05243E-02-9.15190E-02
 -1      3403 1.47458E+01 7.55538E-02-1.79680E-03-7.13633E+00-2.64050E-02-7.20855E-02
 -1      3404 1.78920E+01 1.20115E-01 3.15448E-02-7.13829E+00 3.16438E-02 2.34593E-02
 -1      3405 8.22777E+00 1.50453E-01-3.71093E-03-8.01965E+00-5.49489E-03-3.09255E-03
 -1      3406-3.89981E-01 2.43241E-01 2.44212E-01-7.37883E+00 8.40010E-02-4.12412E-02
 -1      3407 9.64267E+00 1.55990E-01 2.37669E-02-7.36326E+00 4.32480E-02-9.56100E-03
 -1      3408 6.88924E+00-2.16219E-01-1.48970E-03-8.33431E+00 7.48828E-01-1.65643E-01
 -1      3409-6.08423E+00 2.72182E-01-5.31926E-02-7.47817E+00-1.20687E-02 2.54609E-02
 -1      3410 8.88939E+01-2.28575E-01-7.08806E-02-7.04305E+00 6.96679E-02-1.21818E-02
 -1      3411-2.56719E+01 3.22724E-02-7.76365E-02-6.62450E+00 9.05591E-02-1.67656E-01
 -1      3412-2.54586E+01 2.60847E-01-3.30984E-02-6.40629E+00-5.33603E-02-1.41961E-01
 -1      3413-4.15181E+01-5.07706E-02-2.08596E-02-3.33123E+00 1.04049E-01-2.49971E-01
 -1      3414-4.07119E+01 2.09265E-01 1.74462E-03-2.97008E+00-7.59607E-03-2.54096E-01
 -1      3415-5.07641E+01-3.39295E-02-3.88549E-02-7.93861E+00-4.76350E-01-4.39168E-01
 -1      3416-1.95040E+02-1.81135E-01-2.53134E-01-3.70666E+00-3.81013E-01-3.07819E-01
 -1      3417-1.04732E+02-2.17891E-01-1.19068E-02-6.66050E+00-4.05732E-01-3.90095E-01
 -1      3418-5.61251E+01 2.46115E-01 4.10462E-02-5.89310E+00-8.10748E-02-4.42429E-02
 -1      3419 4.08054E+00 4.40617E-01 7.28436E-01-3.18178E+00-1.60151E-02-1.98267E-01
 -1      3420 3.25036E+00-8.89308E-02 2.73973E-01-3.45942E+00 9.78289E-03-1.31670E-02
 -1      3421 4.64662E+00-1.99335E-01 1.48054E-03-4.09006E+00-1.05552E-02-3.21803E-01
 -1      3422 4.73663E+00-1.50800E-01-4.37716E-02-4.15553E+00 1.53271E-02-4.82280E-02
 -1      3423 3.66278E+00-3.25373E-01 5.23448E-01-6.04939E+00-5.87765E-02-1.51151E-01
 -1      3424 1.79073E+02-1.12674E-01-2.69181E-01-4.54359E+00 5.43432E-02-9.89073E-02
 -1      3425 1.76638E+02-5.98290E-02 5.20899E-02-4.64416E+00 4.13343E-02-1.18277E-01
 -1      3426 1.83464E+02 2.32406E-03-5.01986E-02-4.45480E+00-1.06728E-01 7.70292E-02
 -1      3427 9.09171E+01-8.18013E-02 3.90992E-02-7.30544E+00-5.85043E-02 5.77909E-02
 -1      3428 9.29534E+01-1.18128E-01-2.35591E-02-7.24290E+00-3.69812E-02 9.31648E-03
 -1      3429 5.58372E+01-5.90041E-02-7.87780E-02-7.14520E+00 7.30953E-02-3.87758E-02
 -1      3430-9.98798E+00 4.48199E-02-3.84353E-02-7.16051E+00-4.00590E-02-1.31446E-03
 -1      3431-1.11731E+01 2.05849E-02-2.93927E-02-7.04657E+00 2.33771E-02 1.12192E-03
 -1      3432 6.26612E+01 8.17881E-04-7.16708E-02-7.16940E+00-4.94816E-02 3.68884E-02
 -1      3433-9.67214E+01-5.49376E-01-7.81303E-01-7.93036E+00-1.70189E-02-7.07090E-02
 -1      3434-5.10051E+01 1.65413E-01 1.97888E-01-7.59462E+00-6.45931E-01-2.83467E-01
 -1      3435-2.18915E+01 7.50214E-02-4.46086E-02-7.57248E+00 9.70664E-02 2.75759E-02
 -1      3436-1.21515E+00-1.11124E-02-4.10749E-03-7.15413E+00 4.03274E-02 2.89200E-02
 -1      3437 2.15163E+01 1.59194E-01 5.36052E-02-8.12453E+00-7.37070E-03-4.27993E-02
 -1      3438-2.40043E+01 2.15738E-01 5.13953E-02-7.61367E+00-4.51976E-02 8.87825E-03
 -1      3439-3.12171E+00 9.00357E-02-1.28952E-01-7.34648E+00 5.92889E-02 6.33295E-02
 -1      3440-4.57657E+01 3.15397E-01 9.57537E-02-6.23841E+00 3.22705E-04 8.73288E-02
 -1      3441 8.80877E+01-3.11982E-02-1.86766E-01-7.18283E+00 1.34254E-01-9.95182E-03
 -1      3442 1.80184E+02-2.87252E-01-5.46996E-03-4.46851E+00 8.51282E-02 1.38788E-01
 -1      3443 9.45259E+01-8.39211E-02 1.53105E-02-7.24355E+00-9.76806E-02 1.13460E-01
 -1      3444-1.03078E+00 7.05232E-01 1.68529E-01-6.59640E+00 5.51169E-02-3.13881E-02
 -1      3445-3.61153E+00 7.74531E-01-4.62025E-02-6.94746E+00 8.70959E-02-1.47914E-01
 -1      3446 7.27663E+01 1.48784E+01 7.67653E+00 8.07925E+00-3.93240E-01-5.51529E+00
 -1      3447 1.01208E+02 1.50962E+01 1.74909E+01-4.46449E+00-2.32472E+00-8.17868E+00
 -1      3448-6.12483E+01 2.26890E-01-9.62010E-03-2.84302E+00 9.45663E-02-5.59602E-02
 -1      3449-2.84487E+01 1.63910E-01 1.08899E-01-6.46054E+00 1.52325E-01 3.10064E-04
 -1      3450-5.92724E+01 5.22455E-02-7.60580E-02-3.15918E+00 2.56138E-02 1.53910E-02
 -1      3451-6.73340E+01 4.31563E-02 1.90408E-02-2.54989E+00-1.41996E-02-1.24549E-01
 -1      3452-3.36745E+01 1.65645E-01 2.63479E-02-6.26666E+00-3.11724E-03 1.58720E-02
 -1      3453-3.58512E+01 1.29909E-01 5.75128E-02-6.24541E+00-2.44022E-02-1.29004E-01
 -1      3454 1.31987E+01 2.32582E-01-4.70929E-02-8.13516E+00-3.14349E-02-1.57720E-02
 -1      3455-1.68312E+00 1.46711E-01 1.32544E-01-7.26715E+00 2.24829E-02-4.62989E-02
 -1      3456-1.54777E+01 1.70356E-01-9.05035E-03-7.65036E+00-1.00317E-01 7.21587E-03
 -1      3457-2.05085E+01 2.44058E-01-2.25626E-02-7.56964E+00 2.71497E-02-3.72338E-02
 -1      3458-6.49193E+00 2.49519E-01-3.49672E-02-7.08752E+00 9.70327E-02-9.86347E-03
 -1      3459 1.83633E+01-3.72262E-02-4.10045E-02-3.94413E+00-2.43857E-02 1.00386E-02
 -1      3460 1.04767E+01 1.20896E-01 1.35327E-01-6.52560E+00-1.00494E-01 8.77173E-02
 -1      3461-3.83373E+01-1.41310E-01-8.20361E-02-6.62228E+00-5.07077E-02-7.69318E-03
 -1      3462-7.26683E+00 1.56679E-01-8.82587E-03-7.87062E+00-1.31028E-02 7.09905E-02
 -1      3463-4.05094E+01 1.96103E-01-9.87416E-02-6.60538E+00-3.44844E-02 5.90401E-04
 -1      3464 5.75068E+00 8.08597E-02 9.04529E-02-7.44499E+00-8.44393E-02 7.84502E-02
 -1      3465 3.35175E+01 2.32985E-02-3.88307E-02-8.15238E+00 7.90566E-02 3.07525E-02
 -1      3466-2.92857E+01 1.10478E-01-3.16519E-02-7.68415E+00 3.93520E-02-3.65714E-02
 -1      3467 9.50963E+00 1.70553E-01-5.91771E-02-7.32883E+00-1.10380E-01 1.05783E-01
 -1      3468 3.69480E+01 1.21085E-01-1.68003E-02-8.20355E+00-4.19583E-02 5.01202E-02
 -1      3469 7.15806E+01-7.56698E-03 2.29360E-02-7.33896E+00 1.67117E-02 2.24748E-01
 -1      3470-1.27152E+02-1.05397E-01 3.67810E-02-2.44558E+00 9.86762E-02 4.55206E-02
 -1      3471-6.33677E+01-2.05737E-02-1.46254E-01-6.32637E+00 1.42792E-01 2.76477E-02
 -1      3472-1.21569E+02 6.57092E-03 6.37137E-02-2.70873E+00 3.21731E-03-6.77280E-02
 -1      3473-1.29490E+02 2.33828E-02-4.74470E-02-2.19186E+00-6.57147E-03 1.36267E-01
 -1      3474-6.64630E+01 8.41246E-02-5.03181E-02-6.01093E+00-3.35630E-02 1.35980E-03
 -1      3475-7.18042E+01 1.46747E-01-7.40013E-02-5.96737E+00-3.69325E-02 1.32549E-01
 -1      3476-6.21443E+00 3.45885E-02-9.82807E-02-7.38275E+00 5.82613E-02 3.83367E-02
 -1      3477-3.39098E+01 9.25221E-02 2.81370E-02-7.53637E+00-4.55559E-02 4.63052E-02
 -1      3478-9.95979E+00-4.26696E-02-2.93828E-02-7.14846E+00 1.95320E-02-6.42223E-02
 -1      3479-2.81212E+00 3.92299E-01-1.58342E-01-7.56135E+00 4.35395E-02-5.28806E-02
 -1      3480-2.84599E+00 3.71248E-01-4.04766E-02-7.74112E+00-3.67653E-02-3.50311E-02
 -1      3481 3.11778E+00 2.32705E-01 6.63417E-02-7.99073E+00-5.52091E-03 3.90394E-02
 -1      3482 4.42290E-01 2.76344E-01-6.81198E-02-7.07875E+00 6.18146E-02-3.35557E-02
 -1      3483 3.01933E+00 1.59623E-01 1.03354E-02-7.77611E+00 8.28193E-02 4.21342E-02
 -1      3484-1.86706E+02-2.45157E-03-9.39308E-02-2.58736E+00 4.78199E-02-2.58269E-01
 -1      3485-1.82935E+02 9.23325E-02-3.54097E-02-2.59667E+00-2.92482E-02-2.63834E-01
 -1      3486-1.65974E+02 8.55291E-02 4.47065E-02-2.80750E+00 5.46092E-02-2.72968E-01
 -1      3487-1.03185E+02 6.83133E-02-5.43278E-02-6.33415E+00-6.85453E-02-1.33035E-01
 -1      3488 3.61585E+00 3.21575E-01 4.85439E-02-7.31126E+00-6.65937E-02 6.51305E-02
 -1      3489-1.43563E+01 2.42594E-01 1.79879E-01-6.31887E+00-1.66254E-02 1.08143E-02
 -1      3490-2.02646E+01 1.31758E-01-3.66548E-02-6.27222E+00-7.48438E-02-3.93949E-03
 -1      3491-1.48614E+00 1.51243E-01 3.71998E-02-7.27639E+00-2.02861E-02-4.47026E-02
 -1      3492 1.40375E+02 2.42705E+01 2.96276E+01-1.29265E+01 1.50994E+00-1.48245E-01
 -1      3493 2.24073E+02 1.88686E+00 2.42212E+01-9.45396E+00 2.23697E+00 5.77286E+00
 -1      3494 1.30609E+01 2.48834E-01 1.80048E-01-4.17013E+00 5.78497E-02 7.82524E-02
 -1      3495-5.53112E+01 5.44083E-02-1.54855E-01-5.64811E+00 4.82009E-02-5.21962E-04
 -1      3496-4.53856E+01 2.08622E-01 1.37010E-01-5.97591E+00-2.29771E-03 1.01331E-03
 -1      3497 1.27305E+02 1.00519E-01-1.44299E-02-4.95475E+00-1.04068E-01 2.32239E-02
 -1      3498 6.28887E+01 1.68572E-01 1.23055E-01-7.48926E+00-1.65983E-01 5.60113E-02
 -1      3499 6.61115E+01 2.24192E-01 1.34409E-01-7.22492E+00 7.31130E-02 2.34307E-02
 -1      3500 2.08301E+01 1.48630E-01-5.15429E-02-8.17511E+00-3.84357E-02 1.30983E-02
 -1      3501 4.24948E+01 3.31368E-01 1.17171E-01-7.50318E+00-4.34494E-02-9.38196E-02
 -1      3502-1.21277E+00-5.09403E-02-1.14734E-01-7.37157E+00-1.87089E-03 4.21902E-03
 -1      3503 2.54107E+01 2.32219E-01 1.06413E-02-4.21325E+00 7.44808E-02 4.47490E-02
 -1      3504 6.34168E+00 1.28404E-02-9.02451E-02-7.46372E+00 3.61381E-02 2.91802E-01
 -1      3505 1.28309E+01 1.28272E-01 9.13729E-03-6.95306E+00-2.72571E-02 8.68937E-02
 -1      3506-1.59871E+00 2.47125E-01-3.73382E-02-7.27988E+00-2.40158E-02-2.49410E-02
 -1      3507-1.00073E+02-1.37758E+00-3.73482E+00-4.28843E+00-4.65669E+00 2.15457E+00
 -1      3508-9.06815E+01-9.29125E+00-1.61586E+01-3.84626E+00-2.09693E+00 5.49964E+00
 -1      3509 1.06764E+02 1.00833E-01-5.32354E-02-4.86377E+00 2.90360E-03-2.54260E-01
 -1      3510 3.74598E+01 1.65543E-01-9.54717E-02-4.20518E+00 2.68436E-02 2.59039E-01
 -1      3511 3.12757E+01 8.51587E-02-2.92812E-03-4.22748E+00-2.28186E-02 2.97368E-01
 -1      3512 1.91220E+01 1.97159E-01-7.11861E-02-7.12141E+00-2.77919E-02 1.17675E-01
 -1      3513 2.17611E+01 2.71717E-01 5.83872E-03-7.32645E+00 5.01765E-02 1.54119E-01
 -1      3514 3.45581E+01 1.23349E-01-5.23209E-02-4.27007E+00 9.62583E-03 2.48721E-01
 -1      3515-3.75244E+01 2.42009E-02 1.02491E-01-3.14230E+00-2.73891E-02 2.54071E-01
 -1      3516-3.13844E+01 1.84534E-01-2.81092E-03-3.19780E+00 7.84825E-03 3.05277E-01
 -1      3517-1.94237E+01 1.52364E-01-1.81660E-02-6.48932E+00 4.96999E-02 1.32928E-01
 -1      3518-2.19360E+01 1.42460E-01 3.21059E-02-6.71710E+00-5.88120E-02 1.38526E-01
 -1      3519-3.45351E+01 1.14853E-01 5.23958E-02-3.29536E+00-2.45562E-03 2.38748E-01
 -1      3520 3.49128E+01 1.08914E-01 1.00541E-01-4.14344E+00 6.82862E-02 2.64011E-01
 -1      3521 1.67203E+01 1.59920E-01-2.66086E-02-7.25117E+00-2.59452E-02 9.94413E-02
 -1      3522-3.49587E+01 7.61441E-02-8.81283E-02-3.11858E+00-6.78058E-02 2.66386E-01
 -1      3523-1.69091E+01 3.58594E-01-6.41608E-02-6.68433E+00 1.15573E-01 1.34015E-01
 -1      3524-3.12041E+01 2.04608E-01-4.56229E-02-3.18509E+00 3.32641E-02 2.74305E-01
 -1      3525-2.79401E+01 2.72597E-01 4.46524E-02-3.34849E+00-2.93483E-02 2.60762E-01
 -1      3526 3.10885E+01 2.73798E-02 5.03860E-02-4.09040E+00-2.63833E-02 2.89263E-01
 -1      3527 2.75550E+01 1.15985E-01-2.69886E-02-4.21961E+00 1.06806E-02 2.77485E-01
 -1      3528-6.78649E+00 4.26792E-02 8.12968E-02-7.20025E+00 3.22138E-02-4.05100E-03
 -1      3529-5.42153E+00-2.78963E-01-6.31015E-03-7.35924E+00-1.02063E-01-2.85127E-02
 -1      3530-9.64260E+01 2.02287E-02 4.90128E-02-2.40774E+00 6.18943E-03 2.30756E-01
 -1      3531-9.38252E+01 1.58710E-01-1.52032E-01-2.46981E+00-2.03123E-02 2.70393E-01
 -1      3532-5.47179E+01 1.91266E-01 2.94765E-02-6.17500E+00 2.75703E-03 1.53656E-01
 -1      3533-5.24781E+01 2.76245E-01-4.69827E-02-6.28339E+00 6.99262E-02 1.37096E-01
 -1      3534-8.47441E+01 1.87858E-01-6.74736E-02-2.69318E+00 1.07605E-03 2.55703E-01
 -1      3535 1.36290E+02-1.33152E+00 2.48112E+00-5.95043E+00-3.24000E+00 6.52171E-01
 -1      3536 2.19984E+02 1.06445E+00 7.78106E+00-5.63699E+00-1.86743E+00-2.35608E+00
 -1      3537 2.21390E+02-1.13268E+00 2.03131E+00-4.09608E-01-9.46765E-01 5.05480E-01
 -1      3538 1.19188E+02-1.82352E-01 3.61640E-01-5.34891E+00-1.20700E+00 1.05604E+00
 -1      3539 1.98680E+02-1.57607E-01 2.13309E+00-4.33563E+00-9.71015E-01-3.96602E-02
 -1      3540-9.68372E+01-2.28884E-02 1.54824E-01-6.08531E+00-2.91967E-02 4.08242E-04
 -1      3541-3.94638E+00 7.40650E-01-4.34212E-01-5.79255E+00-3.05544E-02-9.03663E-02
 -1      3542-4.69620E+00 4.66006E-01 5.67646E-02-4.04353E+00 2.29179E-02-3.21161E-01
 -1      3543 2.00798E+01 1.85203E-01 2.17177E-02-8.10621E+00-7.17181E-02 3.47342E-02
 -1      3544-1.49817E-01 2.28237E-01 4.32454E-02-7.33209E+00-3.87038E-02-1.85953E-02
 -1      3545 3.31711E+01 4.12516E-02-1.71302E-01-7.32865E+00 2.15520E-02 1.04293E-01
 -1      3546-6.67720E+01 4.40676E-03 1.13905E-01-2.56029E+00 1.57718E-02 9.92994E-02
 -1      3547-3.32427E+01 2.74601E-01 1.29519E-01-6.43020E+00-2.76084E-02 9.20115E-02
 -1      3548-4.10484E+01 1.56824E-01-1.53867E-02-5.95094E+00-1.32082E-02-9.93673E-03
 -1      3549-4.92659E+00-3.99437E-02-8.24192E-02-7.34031E+00-5.04162E-02 6.52306E-03
 -1      3550 2.11691E+02 5.55375E-02-5.48859E-03-4.04888E+00 8.40806E-02-5.28012E-01
 -1      3551 4.67205E+00-3.05522E-01-6.75997E-02-4.12458E+00 4.01416E-02 3.08945E-01
 -1      3552 3.76689E+00-4.31584E-01 4.44466E-01-5.90579E+00 1.11585E-02 1.28425E-01
 -1      3553-2.03837E+02-1.60091E-01 7.14713E-02-2.86971E+00-3.22909E-02 3.28131E-01
 -1      3554-2.00086E+02-4.68119E-02 1.02475E-01-2.76689E+00 4.31491E-02 2.89940E-01
 -1      3555-1.16630E+02-2.40914E-01 7.20378E-02-6.48954E+00-4.77949E-02 1.90474E-01
 -1      3556-1.81697E+02-2.44617E-01 4.72873E-02-2.98184E+00-1.18777E-02 3.68093E-01
 -1      3557-1.85150E+02-2.16469E-01 4.40421E-02-3.14032E+00 7.04001E-02 3.83317E-01
 -1      3558 7.47813E+01 9.88393E-03 1.31846E-01-7.47144E+00-1.12912E-01 2.24762E-02
 -1      3559-1.02902E+02-2.98226E-01-1.36467E-01-6.28897E+00-1.27047E-02-4.54951E-03
 -1      3560 7.98471E+01-1.98566E-01-1.52999E-01-7.40374E+00-1.30534E-01-3.46051E-02
 -1      3561 6.18645E+00 2.06642E-02-8.33285E-02-7.52127E+00 5.31143E-03 8.37441E-03
 -1      3562-3.69482E+00 2.20992E-02-1.42651E-01-7.23557E+00-7.04540E-02-5.00708E-02
 -1      3563 1.33652E+00 2.55362E-01-9.19385E-02-7.42899E+00 9.92315E-05-9.44836E-03
 -1      3564 2.22628E+01 4.23635E-02-1.02767E-01-7.24495E+00 8.57088E-02 5.10850E-02
 -1      3565-1.64959E+00 2.10312E-01 8.86654E-02-7.44256E+00 1.33736E-02-3.70067E-02
 -1      3566-2.25712E+01 3.05105E-01 6.22849E-02-6.56718E+00-1.14902E-01 4.89427E-02
 -1      3567-3.56642E+01 1.54727E-01-2.13483E-02-6.49147E+00-2.15771E-02-6.33016E-02
 -1      3568 3.63281E+00 1.32567E-01-8.90295E-02-7.51015E+00-5.30494E-03 2.71314E-02
 -1      3569-4.98692E+01 1.86834E-01-7.03456E-03-6.36644E+00 5.81056E-02-6.43743E-02
 -1      3570 4.95571E+01-1.41118E-02-8.88419E-02-7.49188E+00-1.05311E-01-4.38641E-02
 -1      3571-4.00312E+00 1.54974E-01 1.00030E-01-7.41213E+00 2.45204E-02 1.47791E-02
 -1      3572 6.80093E+00 5.82495E-02 1.06142E-01-7.39660E+00-6.63149E-02 3.85048E-02
 -1      3573-7.53799E+01-6.11287E-02-1.57012E-01-6.38906E+00 1.08063E-01 2.40637E-02
 -1      3574-5.31197E+00 8.72898E-02 1.01179E-01-7.29028E+00 6.86426E-02-3.67240E-02
 -1      3575 6.75668E+01-1.21854E-02-1.62638E-01-7.50120E+00-1.09029E-01-2.21543E-02
 -1      3576-6.78004E+01 4.79359E-02 1.30107E-01-6.35113E+00 1.08210E-01-2.27285E-02
 -1      3577-7.44724E+00-1.07813E-01-1.30111E-01-7.29709E+00 6.84509E-02 3.95172E-02
 -1      3578-1.30009E+02 6.01797E-02-9.10645E-02-2.16706E+00 8.48414E-03-1.17017E-01
 -1      3579-6.69772E+01-2.11821E-01-2.00096E-01-6.10819E+00-2.42040E-02-1.48880E-01
 -1      3580-7.49853E+01 1.08875E-01 2.20517E-02-5.70269E+00-1.65506E-02 1.75031E-02
 -1      3581-3.84238E+01 8.13456E-02 5.36219E-02-7.43436E+00 6.70348E-02-3.27775E-02
 -1      3582-1.93217E-01 1.29033E-01 6.01233E-02-7.32236E+00 2.43802E-02 1.35871E-01
 -1      3583 5.03248E+00-7.06351E-02-1.27300E-01-7.39414E+00-6.65991E-02-3.73112E-02
 -1      3584 7.55392E+01 1.60141E+01 8.57370E+00 6.98312E+00 4.00470E-01 5.66091E+00
 -1      3585 1.01621E+02 1.44413E+01 1.77766E+01-5.40630E+00 2.69757E+00 7.55835E+00
 -1      3586 1.69039E+01 7.89293E-02-7.77833E-02-3.95857E+00 1.62735E-02-3.61108E-01
 -1      3587 1.39997E+01 2.88005E-02-1.64767E-01-3.93930E+00-4.82587E-02-3.78612E-01
 -1      3588 1.61021E+01 1.82057E-01 2.25468E-02-3.80589E+00-1.69441E-03-1.95314E-01
 -1      3589 1.00345E+01 1.77065E-01-3.23421E-02-6.83203E+00 1.60096E-02-1.82013E-01
 -1      3590-2.06585E+01 2.28781E-01 4.23967E-02-6.94384E+00-6.19729E-02-7.08261E-04
 -1      3591 1.34456E+01 2.44975E-01-2.30874E-02-7.30976E+00 5.64018E-02 9.95857E-04
 -1      3592 2.01398E+01 1.18742E-01-3.44224E-02-7.51398E+00 2.20550E-02 9.58269E-02
 -1      3593-4.49302E+01 1.81890E-01 2.30514E-02-2.97940E+00-2.14631E-02-2.57977E-01
 -1      3594 3.43377E+00 3.40581E-01 4.75376E-01-2.93792E+00 7.01208E-02 3.44781E-01
 -1      3595 3.84368E+00-4.47308E-01 4.24128E-01-5.81815E+00 8.58974E-02 2.17521E-01
 -1      3596 1.43064E+01 2.43192E-01 9.79548E-02-3.81775E+00 2.54617E-02-4.36878E-02
 -1      3597-2.52577E+00 2.37161E-01-2.37541E-01-6.83223E+00 5.93548E-02-1.45296E-01
 -1      3598-3.25621E+00 5.54294E-01-3.27054E-01-6.13058E+00 7.72368E-02-1.89703E-01
 -1      3599 2.75689E+01-8.66487E-02-9.67618E-02-7.33186E+00-3.70809E-02-2.48633E-02
 -1      3600-6.11068E+01-4.09809E-01 1.11217E-01-7.06894E+00-7.23912E-02 1.68591E-01
 -1      3601-6.35435E+01 9.14488E-02-1.27496E-01-7.06084E+00 1.49989E-01 7.99230E-02
 -1      3602 2.11316E+02-1.51174E-01-1.04099E-01-3.96019E+00-9.18769E-02 5.68421E-01
 -1      3603 2.55994E+01 3.25287E-01 6.94982E-02-4.36567E+00-2.86448E-02-1.08008E-01
 -1      3604 2.92697E+01-1.80357E-01 2.79741E-02-7.40945E+00 1.19325E-01-1.78078E-01
 -1      3605 8.94834E+01 2.70473E-01-2.70104E-02-4.72163E+00-6.58221E-02 1.04353E-01
 -1      3606 4.51282E+01 1.68443E-01 7.04413E-02-7.36514E+00-2.23850E-02 4.08394E-03
 -1      3607 8.53838E+01 9.91128E-02 7.51576E-02-4.82204E+00 5.00226E-02-7.66221E-02
 -1      3608 8.68298E+01-1.81632E-02 6.71909E-02-4.78396E+00 9.22935E-02 4.71946E-02
 -1      3609 4.29303E+01 1.76839E-01-7.49723E-02-7.25229E+00 9.39297E-02 2.49441E-02
 -1      3610 4.65884E+01 1.30625E-01-2.95453E-02-7.39178E+00-3.84550E-02 6.55313E-02
 -1      3611 3.95383E+00 3.33142E-01-9.50643E-02-7.30700E+00-9.17660E-02-2.96174E-03
 -1      3612-9.59008E+00-9.18447E-02 1.36262E-01-7.17203E+00-5.13293E-02 1.42086E-01
 -1      3613-1.18954E+01 4.65538E-01-3.46796E-02-7.09276E+00 9.18575E-02 1.07040E-01
 -1      3614 4.58396E+00 3.12835E-01-2.00496E-02-7.23976E+00-1.33291E-02 8.05439E-02
 -1      3615 6.39492E+00 9.50903E-02-1.55610E-02-7.24274E+00-3.72914E-02 9.70287E-02
 -1      3616 3.34083E+01-2.95213E-01-5.04328E-02-7.27492E+00-7.61535E-02 1.17969E-01
 -1      3617-1.37585E+01 8.92108E-02-8.44942E-02-6.88409E+00 1.17252E-03 6.69796E-02
 -1      3618-2.04623E+01 1.88461E-01-7.49163E-02-7.04778E+00-3.18080E-03 1.10517E-01
 -1      3619 1.00788E+02 1.46077E-01-2.17050E-02-4.92773E+00-1.86455E-02 2.97726E-01
 -1      3620 9.69713E+01 1.39985E-01-5.20212E-02-4.75688E+00-7.46044E-02 2.66769E-01
 -1      3621 5.78153E+01 2.60630E-01-1.05521E-01-7.48998E+00 2.21231E-02 2.00798E-01
 -1      3622 8.79044E+01 2.42533E-01-3.54840E-02-4.74142E+00-2.58305E-03 2.95070E-01
 -1      3623 9.14768E+01 2.43472E-01-3.04983E-02-4.94005E+00-1.93469E-02 2.74530E-01
 -1      3624-2.83796E+01 1.35344E-01 8.06588E-02-6.82486E+00-6.45338E-02-1.49977E-01
 -1      3625-3.79733E+01 3.82112E-02 5.11177E-02-6.94599E+00-4.12761E-02-2.89134E-01
 -1      3626 2.35069E+02 1.05165E+01 4.99265E+01-7.39504E+00 1.92770E+00 8.99000E+00
 -1      3627 1.49205E+02 2.64529E+01 3.30578E+01-1.28018E+01 1.87617E+00 6.15928E+00
 -1      3628 1.97373E+02-9.41683E-02 1.11825E-01-4.55610E+00-5.54862E-02 3.06580E-01
 -1      3629 2.00581E+02-2.62425E-02 7.70351E-02-4.37016E+00-1.53219E-03 3.15560E-01
 -1      3630 1.78397E+02-2.22877E-01-4.10973E-02-4.59122E+00 6.41441E-04 3.02278E-01
 -1      3631 1.13236E+02-1.88039E-01-2.25296E-02-7.29061E+00-7.02067E-02 1.51061E-01
 -1      3632 1.10570E+02-1.77595E-01 5.59740E-02-7.47492E+00-1.12234E-01 1.67743E-01
 -1      3633 5.56799E+00 3.72546E-02 3.70060E-02-7.36988E+00 1.15563E-01-1.28990E-01
 -1      3634 3.14477E+01 1.80236E-01-3.25479E-02-7.36848E+00-3.21781E-02 7.65029E-02
 -1      3635-1.60448E+01 1.13267E-02-5.24803E-02-6.87051E+00 2.09097E-03-8.99074E-02
 -1      3636-3.62817E+00-1.97146E-01-5.17723E-01-2.96637E+00 7.37887E-02-3.55616E-01
 -1      3637-4.04635E+00 7.49541E-01-4.04203E-01-5.80518E+00 5.58676E-02-2.22402E-01
 -1      3638-3.37494E+01 1.07855E-01 1.89984E-02-6.73303E+00 3.02262E-02 1.77715E-01
 -1      3639 4.60219E+01 8.42641E-02 1.39604E-01-7.47805E+00-9.39316E-02-1.03528E-02
 -1      3640 3.35615E+01-1.93292E-01-5.87878E-03-7.54983E+00 4.22933E-02 4.78157E-02
 -1      3641 2.04400E+02 8.76947E-02-2.56147E-02-4.39194E+00 1.14968E-02 3.63019E-01
 -1      3642 1.81841E+02-1.74324E-01-4.75167E-02-4.47126E+00-1.04121E-01 3.41422E-01
 -1      3643 1.15993E+02-5.62942E-02-1.14409E-01-7.36782E+00 1.95711E-02 2.09415E-01
 -1      3644 1.85177E+02 4.09923E-02-8.44336E-02-4.48336E+00-8.43289E-02 3.75393E-01
 -1      3645-2.91288E+01-1.01717E-01 1.14813E-01-6.91761E+00-1.42423E-01 6.47038E-02
 -1      3646 1.40445E+01 1.41583E-02 1.14941E-01-7.45987E+00 1.27364E-01-4.52031E-02
 -1      3647-3.14025E+01 4.35594E-01-9.17659E-02-6.89894E+00 8.83166E-02 1.28008E-01
 -1      3648 2.20527E+02-6.35626E-01 1.24494E+00-2.56775E+00 5.74007E-01 1.72793E-01
 -1      3649 1.22840E+02-7.43200E-01 1.69107E-01-6.65028E+00 8.26819E-01-1.04754E+00
 -1      3650-8.85815E+01-1.05750E+01-1.46002E+01-8.16286E+00 1.06915E+00-1.53700E+00
 -1      3651-2.42440E+01 3.18486E-03-3.19380E-02-3.27723E+00 2.45301E-02-2.36386E-01
 -1      3652-9.85109E+00 4.20132E-01 1.42929E-01-7.25439E+00-5.36548E-02-1.35870E-01
 -1      3653-1.55339E+01 6.47840E-02 5.10814E-03-6.54062E+00 6.31339E-02-1.56519E-01
 -1      3654 9.41977E+01 2.51361E-02 6.93121E-02-4.80482E+00-3.73891E-02 2.82874E-01
 -1      3655 5.56797E+01 1.77169E-01 6.91251E-02-7.46364E+00 3.48096E-02 1.18850E-01
 -1      3656 8.52286E+01-1.70989E-02 1.92407E-02-4.77358E+00 1.41468E-03 2.83331E-01
 -1      3657 5.34176E+01 6.83990E-02 4.25407E-02-7.56763E+00-9.38624E-02 1.68225E-01
 -1      3658-1.77765E+01 4.86151E-02-8.71629E-02-3.43294E+00 2.78057E-02-2.83165E-01
 -1      3659-1.34216E+01 1.23955E-01 1.64727E-02-3.52461E+00-8.70038E-02-3.18525E-01
 -1      3660-1.41394E+01 1.09131E-01-5.53187E-02-4.35100E+00-4.63279E-03-2.44272E-01
 -1      3661-8.52741E+00 1.97238E-01-2.24634E-03-7.28920E+00 4.42163E-02-1.11523E-01
 -1      3662 1.00075E+02 1.39059E-01 6.21043E-01-8.15071E+00-5.30079E-02-8.60344E-02
 -1      3663-9.20955E+01-9.75037E+00-1.66299E+01-4.44761E+00 2.51405E+00-5.16045E+00
 -1      3664-1.00266E+02-1.24299E+00-3.71313E+00-4.55920E+00 4.84801E+00-2.04563E+00
 -1      3665 8.66276E+01 5.31253E-02-2.40261E-01-4.98308E+00 2.28288E-02-7.13154E-02
 -1      3666-3.76850E+00-2.28575E-01-3.66565E-02-8.18152E+00-6.88474E-01-1.74607E-01
 -1      3667-2.85784E+00 2.37188E-01-8.12525E-02-8.09031E+00 2.58432E-02 4.50793E-02
 -1      3668 8.79860E-01 1.84380E-01-3.33871E-02-7.36034E+00-2.31903E-02 1.85099E-02
 -1      3669 2.16757E+02-5.04629E-01 3.11945E-01-3.09139E+00 2.19868E-01-8.31947E-01
 -1      3670 1.98813E+02-1.45748E-01 1.15586E-01-4.52022E+00 3.66459E-01-1.01000E+00
 -1      3671-2.17171E+02 7.78708E-01-4.68572E-01-1.16286E+00-4.36991E-01-8.99976E-01
 -1      3672-1.97356E+02-5.48383E-02-3.26590E-01-3.78091E+00-3.93203E-01-9.75553E-01
 -1      3673 1.35923E+01 2.24380E-01 1.72534E-02-7.31082E+00 3.27725E-03-7.42072E-02
 -1      3674-5.46447E+01-5.66880E-02-7.75681E-02-6.06352E+00-8.15331E-02-1.41022E-01
 -1      3675-2.43245E+01 9.58522E-02-1.59676E-01-7.54751E+00 3.38503E-02-4.24828E-02
 -1      3676-3.03453E+01 2.91144E-01 2.29631E-01-7.41456E+00-3.20673E-02-5.38241E-02
 -1      3677-2.17879E+02 1.12916E-01-4.80317E-01-2.45898E+00-1.60323E-01-6.09648E-01
 -1      3678-1.23051E+02 2.61547E-01-6.02501E-04-6.19134E+00-7.62119E-01-9.39798E-01
 -1      3679 3.78210E+01 1.64707E-01-1.34323E-02-4.28654E+00 9.57669E-03-2.87466E-01
 -1      3680 3.40497E+01 1.73077E-01 1.72939E-01-4.09446E+00 1.25940E-02-2.41189E-01
 -1      3681 2.73135E+01 2.25527E-02-9.86019E-03-4.31123E+00-1.66077E-02-1.90641E-01
 -1      3682 1.86811E+01 1.26049E-01 2.22780E-02-7.18221E+00 4.71072E-02-1.53260E-01
 -1      3683 3.08714E+01-7.92904E-02-6.05279E-02-4.40916E+00 1.07978E-01-2.30219E-01
 -1      3684 3.10251E+01 8.45970E-02-6.57786E-03-4.18012E+00 1.54957E-02-3.21542E-01
 -1      3685 1.66049E+01 1.50994E-01 4.19903E-03-7.22134E+00 3.48688E-03-1.59175E-01
 -1      3686 2.03772E+01 2.95570E-01-1.20697E-01-7.19122E+00-5.51618E-02-1.70876E-01
 -1      3687 3.32053E+01 1.41094E-01-2.21342E-01-4.39387E+00-5.70871E-02-2.39874E-01
 -1      3688-7.19461E+01 1.07024E-01 7.21301E-02-3.63951E+00-2.81068E-02-2.51022E-02
 -1      3689-8.77077E+01 2.29462E-01-5.42453E-02-2.53010E+00 8.66358E-02-8.64903E-02
 -1      3690-2.58697E+01 1.42556E-01-7.40070E-02-4.16781E+00 3.17318E-03-5.33557E-03
 -1      3691-3.47341E+01-1.11308E-01 4.21299E-02-3.10158E+00-7.27561E-02-1.08089E-01
 -1      3692-2.61022E+00 3.14855E-01 4.51074E-02-7.91067E+00 1.21713E-02 8.13856E-02
 -1      3693-1.02762E+01 3.05997E-01 1.75407E-01-7.71801E+00-1.27517E-02-5.68321E-02
 -1      3694-1.47886E+01-3.43195E-02 3.73561E-02-7.85821E+00-1.32047E-02 7.27083E-02
 -1      3695-5.34013E+01 8.09939E-04 1.81144E-01-7.66279E+00-8.58277E-02-9.38325E-02
 -1      3696-1.49144E+02-8.73307E-02-2.69855E-02-3.96922E+00 6.24056E-03-1.21677E-02
 -1      3697-1.89004E+02-2.70300E-01 1.27138E-01-2.95864E+00-1.18617E-01-1.45984E-01
 -1      3698-8.64135E+00 3.89747E-01-7.08177E-02-3.77453E+00-7.22896E-03 3.52989E-01
 -1      3699-5.88707E+00 6.86620E-01-1.31771E-01-6.74952E+00-2.51224E-02 2.15459E-01
 -1      3700-1.01877E+01 3.09612E-01-2.24451E-02-3.70324E+00-1.18791E-02 3.69293E-01
 -1      3701-1.13119E+01 2.56525E-02-1.08542E-01-3.80345E+00-9.98173E-02 3.09071E-01
 -1      3702-7.43313E+00 2.11579E-01-5.34820E-02-6.85107E+00-6.22398E-02 1.63910E-01
 -1      3703 2.04577E+02 1.14486E-02 4.86824E-02-4.43183E+00-4.71062E-04-3.67429E-01
 -1      3704 1.09570E+02-1.24265E-01-1.31715E-02-7.39238E+00 5.24750E-02-1.78791E-01
 -1      3705 1.78181E+02-1.55355E-01-6.71810E-02-4.69806E+00 1.30000E-01-2.76471E-01
 -1      3706 1.80918E+02-6.08174E-02-1.73725E-01-4.64434E+00 2.30322E-02-3.30931E-01
 -1      3707 1.11563E+02-4.27122E-02-9.93302E-02-7.33761E+00 1.68063E-03-2.06765E-01
 -1      3708 2.00632E+02-1.82857E-02 1.66314E-01-4.43822E+00 3.17321E-02-3.66590E-01
 -1      3709 1.74437E+02-2.40095E-02-2.31206E-02-4.75537E+00 1.98604E-02-2.44325E-01
 -1      3710 1.97354E+02 5.23519E-03 6.94548E-02-4.56555E+00 1.47473E-03-3.33347E-01
 -1      3711 1.07179E+02-5.94248E-03-1.06684E-02-7.48526E+00-3.29012E-02-1.33227E-01
 -1      3712 1.87194E+02-3.81064E-02 7.16269E-02-4.84912E+00 1.14656E-02 2.68269E-01
 -1      3713 9.66589E+01-8.50006E-02-8.44113E-02-7.60267E+00-3.09357E-02 2.19576E-01
 -1      3714 1.82916E+02-3.38934E-02-5.02536E-02-4.88917E+00-1.73679E-02 3.00394E-01
 -1      3715 1.59629E+02-1.80258E-02 2.95987E-02-4.99237E+00-4.80465E-03 2.29674E-01
 -1      3716-4.87650E+01 1.39372E-01 1.51855E-01-2.93165E+00-3.33097E-03-2.36563E-01
 -1      3717-4.50843E+01 9.70646E-02 4.51670E-02-3.36475E+00 3.74472E-02-2.04170E-01
 -1      3718-5.17812E+01 9.77329E-02 1.54197E-02-3.04528E+00-8.78458E-03-3.11477E-01
 -1      3719-2.76000E+01 1.46751E-01 9.73562E-03-6.63223E+00 2.25899E-02-1.79725E-01
 -1      3720 4.86297E+01 8.83794E-02-2.02582E-01-4.42361E+00-4.86372E-02-3.02023E-01
 -1      3721 4.51100E+01 8.47336E-02 4.77166E-02-4.68600E+00-8.63426E-03-2.06270E-01
 -1      3722-5.48389E+01 3.34183E-02-1.63995E-01-2.83297E+00-2.83658E-02-2.38089E-01
 -1      3723 5.14694E+01 7.03946E-02-6.72668E-02-4.52058E+00 2.01373E-02-2.81423E-01
 -1      3724 2.69917E+01 1.16427E-01-6.50006E-02-7.40225E+00 3.58157E-02-2.17155E-01
 -1      3725 5.57344E+01 9.24182E-02 5.89951E-02-4.60088E+00-1.26151E-02-2.63494E-01
 -1      3726 8.32975E+01 5.05244E-02 4.76758E-02-4.75270E+00 5.11977E-02 2.67118E-01
 -1      3727 4.16973E+01 1.77935E-01-3.92927E-02-7.62586E+00-5.54883E-03 1.41628E-01
 -1      3728 7.92005E+01 5.38072E-02-4.93327E-02-4.74633E+00-2.77154E-02 2.66604E-01
 -1      3729 6.87163E+01-2.64310E-02-1.35223E-01-4.97464E+00 1.06561E-02 1.88793E-01
 -1      3730-8.24908E+01 7.62553E-03-1.71559E-01-2.51094E+00 1.87270E-02 2.68271E-01
 -1      3731-6.88342E+01 8.89183E-02 1.87011E-01-3.11308E+00-5.99869E-02 2.06721E-01
 -1      3732-7.93862E+01 1.05704E-01 1.79455E-02-2.69944E+00 1.62110E-02 2.69619E-01
 -1      3733-4.21931E+01 4.10105E-02-1.41851E-03-6.47925E+00-8.50534E-02 1.60194E-01
 -1      3734 1.80096E+02-5.64125E-02-1.58522E-01-4.79312E+00 1.08637E-02 2.92792E-01
 -1      3735 1.55605E+02-1.95509E-02 1.81683E-02-5.06160E+00-1.14867E-02 3.17570E-01
 -1      3736 1.51505E+02 5.43361E-02-3.99498E-02-5.08009E+00-5.39198E-02 2.77045E-01
 -1      3737 8.26490E+01 2.18393E-02 9.37267E-02-7.73881E+00-3.29365E-02 1.62254E-01
 -1      3738 1.36209E+02 9.17075E-02 1.89483E-01-5.24622E+00-5.27672E-02 2.14530E-01
 -1      3739 1.10923E+02 4.87412E-02-1.76503E-01-4.97698E+00 2.01593E-02 2.53594E-01
 -1      3740 9.93641E+01 5.73133E-02 2.14578E-02-5.16553E+00-7.10254E-03 2.06160E-01
 -1      3741 1.13985E+02 7.22014E-02 6.67095E-03-5.13769E+00-1.70387E-02 3.15411E-01
 -1      3742 6.02966E+01 9.57062E-02-2.80053E-02-7.74085E+00 9.38389E-05 2.22600E-01
 -1      3743-1.10902E+02 1.09894E-01 1.70440E-01-2.37603E+00-3.71220E-02 2.77954E-01
 -1      3744-9.92803E+01 5.17523E-02-3.18885E-02-2.90989E+00-1.17090E-02 2.30007E-01
 -1      3745-1.72148E+02-1.02218E-01-1.91407E-01-2.38106E+00-4.43021E-03-2.83009E-01
 -1      3746-1.47071E+02 4.12630E-03 1.86267E-01-2.98991E+00 4.69266E-02-1.97795E-01
 -1      3747-1.68825E+02-1.70255E-02 5.00981E-02-2.57214E+00 1.09573E-02-2.83531E-01
 -1      3748-8.98523E+01-1.02397E-01-8.35071E-03-6.41839E+00 5.13772E-02-1.69419E-01
 -1      3749-1.13600E+02 8.41373E-02 6.12438E-02-2.50069E+00 6.56358E-03 2.86172E-01
 -1      3750-6.02413E+01 1.83292E-01 7.57454E-02-6.32898E+00 1.97099E-02 2.17486E-01
 -1      3751-1.80165E+02 4.11392E-02 1.72477E-01-2.53882E+00-3.66665E-02 2.86156E-01
 -1      3752-1.59419E+02-6.43610E-02-3.94193E-02-3.12054E+00-1.94251E-02 2.49063E-01
 -1      3753-1.82915E+02 1.30091E-02 6.04930E-02-2.70391E+00-3.21797E-04 2.91768E-01
 -1      3754-9.72104E+01 2.29294E-02 5.50343E-02-6.44085E+00 4.50768E-03 2.09217E-01
 -1      3755-1.87166E+02 2.63331E-04-6.30560E-02-2.77069E+00-1.91087E-02 2.61954E-01
 -1      3756-1.17858E+02 7.52365E-02-6.55434E-02-2.49276E+00-2.31687E-02 2.59064E-01
 -1      3757 1.17037E+02 1.25280E-01 1.87635E-01-4.95709E+00-3.09789E-02 2.21194E-01
 -1      3758-1.52132E+02 1.12713E-01 2.11045E-01-2.27182E+00-2.41165E-02 3.03700E-01
 -1      3759-1.35837E+02-3.33944E-02-1.68308E-01-2.93902E+00 2.88502E-02 2.05974E-01
 -1      3760 1.70301E+02 2.27784E-02-8.21088E-02-4.93214E+00 1.56108E-02-2.77832E-01
 -1      3761 1.74755E+02 8.80411E-03 6.51489E-02-4.91443E+00-2.13705E-02-3.00356E-01
 -1      3762 9.04651E+01 1.35878E-02-7.96141E-02-7.67702E+00-6.22144E-03-1.80892E-01
 -1      3763 1.46872E+02-6.94761E-02-1.97539E-01-5.15915E+00-3.28027E-02-2.16375E-01
 -1      3764-1.44560E+02-4.43404E-02-1.49427E-01-2.25528E+00-3.82399E-03-2.76681E-01
 -1      3765-1.42481E+02 6.68385E-02 3.68790E-02-2.33925E+00-1.50093E-02-2.74870E-01
 -1      3766-1.23254E+02 1.03164E-01 2.21030E-01-2.87216E+00 4.17894E-02-2.19309E-01
 -1      3767-7.63682E+01-4.77414E-02-2.85007E-02-6.28964E+00 3.76163E-02-1.77212E-01
 -1      3768-1.55639E+02 7.98045E-02 3.24170E-02-2.42950E+00 1.85061E-03 3.12105E-01
 -1      3769-8.30189E+01 1.02412E-01-4.04093E-02-6.34874E+00 3.96413E-02 1.56952E-01
 -1      3770 1.38520E+02 8.06378E-02-1.46412E-02-5.10654E+00 8.54808E-02-2.84009E-01
 -1      3771 7.60520E+01 1.80646E-01 7.97725E-02-7.66724E+00-2.16653E-02-1.86715E-01
 -1      3772 1.45696E+02 9.83173E-02 1.59368E-01-4.97215E+00 3.16989E-02-2.89032E-01
 -1      3773 1.23731E+02 6.70394E-02-6.18628E-02-5.18687E+00-6.21743E-03-2.18957E-01
 -1      3774 1.67219E+01-1.39125E-01-4.79180E-02-7.41474E+00 2.72110E-03 9.33128E-02
 -1      3775 1.53824E+01 3.82651E-01 1.90075E-02-7.32941E+00-2.44325E-03 6.73755E-02
 -1      3776 1.42731E+02 8.46518E-02 5.57048E-02-5.09558E+00-5.68036E-03-3.02640E-01
 -1      3777-3.69103E+01 2.74922E-01-1.22322E-01-6.42405E+00-1.32527E-01-1.09071E-01
 -1      3778-5.98508E+01 2.19168E-01-3.77144E-02-2.92826E+00 1.00964E-02-2.75886E-01
 -1      3779-6.57329E+01 2.02369E-01-1.56331E-02-2.75844E+00-1.88855E-02-2.94508E-01
 -1      3780-4.24823E+01 1.03108E-01-1.27635E-02-6.14823E+00 3.41975E-02-1.39100E-01
 -1      3781-6.57575E+01-2.46507E-02-7.61716E-03-2.63246E+00 6.70433E-02-3.02300E-01
 -1      3782 1.31911E+02 1.30579E-01 2.19872E-01-4.92199E+00 3.02850E-02-3.14905E-01
 -1      3783 1.10896E+02-1.28776E-02-1.34478E-01-5.18200E+00-1.97762E-02-1.76670E-01
 -1      3784 2.10569E+01 1.30174E-02 1.43620E-02-4.02776E+00-4.64146E-02-3.39613E-01
 -1      3785 1.28498E+02 9.32934E-02-1.72494E-02-5.06586E+00 4.68557E-03-2.82265E-01
 -1      3786 6.84184E+01 1.31797E-01-3.14768E-02-7.73885E+00-4.11611E-02-1.43674E-01
 -1      3787 2.20589E+02-7.60461E-01 1.25625E+00-2.60029E+00-5.33503E-01-1.25110E-01
 -1      3788 1.18449E+02-7.98184E-01 4.05765E-02-6.77378E+00-8.87597E-01 1.11952E+00
 -1      3789-1.34361E+02 1.62434E+00-2.41721E+00-5.83664E+00 3.01167E+00 4.48877E-01
 -1      3790-2.16052E+02-3.52623E-01-7.24838E+00-4.86185E+00 1.69662E+00-2.30734E+00
 -1      3791-2.21385E+02 1.12796E+00-2.01735E+00 7.84605E-02 1.01931E+00 2.38299E-01
 -1      3792-1.17007E+02 1.65679E-01-4.13013E-01-5.09470E+00 1.21721E+00 1.11053E+00
 -1      3793-1.95725E+02-1.05439E-01-2.50782E+00-3.84567E+00 9.33158E-01-2.81202E-01
 -1      3794 8.11704E+01 1.75556E-01-1.35746E-01-7.70039E+00 1.29723E-01 1.29993E-01
 -1      3795 1.28787E+02 1.53805E-01-5.03001E-02-4.97576E+00-1.73386E-02 2.66280E-01
 -1      3796 1.41891E+02 1.69437E-01-1.64736E-02-5.01980E+00 2.34322E-02 2.93732E-01
 -1      3797 8.39801E+01 1.84806E-02-1.75374E-02-7.53478E+00-2.68932E-02 1.40633E-01
 -1      3798 1.31264E+02-4.55227E-02-2.06389E-02-4.80658E+00-5.70837E-02 2.83315E-01
 -1      3799-8.14652E+01-6.59880E-02 1.04756E-01-6.12908E+00-1.30897E-01 1.29341E-01
 -1      3800-1.28611E+02-1.09750E-01 5.95149E-02-2.51585E+00-5.20811E-03 2.66031E-01
 -1      3801-1.41792E+02-8.72688E-02 2.39465E-02-2.27978E+00-1.96744E-02 2.96245E-01
 -1      3802-8.42504E+01 1.71927E-01 1.24561E-02-5.85890E+00 9.33590E-03 1.30443E-01
 -1      3803-1.31080E+02 8.77625E-02 8.33859E-03-2.26195E+00 3.37822E-02 2.95428E-01
 -1      3804-2.04543E+01 3.71101E-02-1.68723E-01-3.38084E+00 3.12330E-03-2.70789E-01
 -1      3805-3.48772E+01 2.08399E-01 5.01951E-02-6.62784E+00-9.21691E-03 1.23732E-01
 -1      3806-5.71351E+01 5.97137E-02-4.82905E-02-3.31662E+00 3.20558E-03 1.81162E-01
 -1      3807-6.53506E+01 4.50467E-02 1.12475E-02-2.79645E+00-1.79891E-02 2.58895E-01
 -1      3808-3.76220E+01 1.12917E-01 2.32524E-02-6.08228E+00 4.04357E-02 1.81871E-01
 -1      3809-5.88699E+01 1.79474E-01 7.36608E-02-2.64873E+00 1.42664E-02 3.22074E-01
 -1      3810-2.95387E+01 1.40274E-01-1.30637E-01-6.47242E+00-7.57392E-02 1.50389E-01
 -1      3811 3.46423E+01 1.93289E-01-4.20487E-02-7.59723E+00 2.44434E-02 1.14076E-01
 -1      3812 5.71262E+01 1.83198E-01 4.09210E-02-4.92567E+00 2.27905E-03 1.71056E-01
 -1      3813 6.53570E+01 1.39428E-01-1.50604E-02-4.61070E+00 1.31686E-02 2.61979E-01
 -1      3814 3.73977E+01 2.29373E-01-2.13575E-02-7.12997E+00-4.85441E-02 1.84484E-01
 -1      3815 5.88538E+01-1.07805E-02-8.19803E-02-4.29388E+00-2.57220E-02 3.22511E-01
 -1      3816 2.92523E+01 2.09099E-01 1.18460E-01-7.28604E+00 7.18180E-02 1.51948E-01
 -1      3817-5.75753E+01-2.28599E-02 5.21905E-02-6.16404E+00-1.43188E-01 1.32571E-01
 -1      3818-8.61547E+01 1.95647E-01-5.67835E-02-2.66396E+00-8.21328E-02 1.46934E-02
 -1      3819-8.93450E+01-1.46442E-01 2.55866E-02-2.53412E+00 5.37669E-02 5.66745E-02
 -1      3820-8.77739E+01-1.04457E-01 5.42113E-02-2.60303E+00-1.44067E-02 2.97799E-01
 -1      3821-9.10665E+01-1.38676E-01-3.82444E-02-2.62836E+00 1.68070E-02 2.61846E-01
 -1      3822 2.16605E+02-4.52978E-01 2.18211E-01-3.20689E+00-2.36356E-01 9.62059E-01
 -1      3823 1.94132E+02-1.07541E-01 1.76901E-01-4.72503E+00-5.25531E-01 9.84099E-01
 -1      3824-1.57152E+02 7.70970E-02 1.21070E-01-2.33159E+00-8.67572E-04-2.79337E-01
 -1      3825-1.00615E+02-6.76321E-02 5.36008E-03-5.87248E+00 2.89696E-03-1.79716E-01
 -1      3826-7.95852E+01-1.66759E-01-2.04490E-01-6.23497E+00 2.76759E-02-1.42357E-01
 -1      3827 1.51359E+02 1.18615E-01 1.71095E-01-4.83738E+00 4.13684E-02 2.52422E-01
 -1      3828 9.69560E+01-1.44740E-02-3.29602E-02-7.45528E+00-1.67731E-02 1.22253E-01
 -1      3829 7.64685E+01-1.28194E-01-2.10859E-01-7.45824E+00 9.23569E-03 1.43411E-01
 -1      3830-2.97156E+01 2.71224E-01-4.32726E-02-3.19554E+00-7.16500E-02 6.04919E-02
 -1      3831-3.29537E+01 8.03760E-02 7.92048E-02-3.30885E+00 3.99710E-03 1.36324E-02
 -1      3832 6.92858E+00 3.06564E-01-3.84933E-02-7.94428E+00 3.28608E-02 3.70296E-02
 -1      3833 9.03364E+00 7.85830E-02 1.29804E-02-7.97836E+00-3.38223E-02 5.48233E-02
 -1      3834-1.11064E+02 6.39396E-02-8.32057E-02-6.43543E+00 1.20391E-01 1.78723E-01
 -1      3835-1.13676E+02-1.48819E-01-2.12098E-02-6.35058E+00-4.57350E-02 1.78369E-01
 -1      3836-1.80181E+02 9.07742E-02-1.71811E-02-2.89164E+00-6.85290E-02 1.49773E-02
 -1      3837-1.78767E+02 1.00459E-01-3.14333E-02-2.89250E+00-4.57096E-03 2.58545E-01
 -1      3838-1.83448E+02-2.92023E-01 8.11228E-02-3.01715E+00 8.76947E-02 1.18003E-01
 -1      3839-6.94308E+01 7.24014E-02 7.14425E-02-2.58220E+00-1.48644E-02-3.08122E-01
 -1      3840-7.21899E+01 2.95949E-02 9.15770E-02-2.65441E+00 2.84240E-02-3.05332E-01
 -1      3841-4.47848E+01 1.59622E-01-6.86257E-03-6.25260E+00 2.01208E-02-1.12055E-01
 -1      3842-6.94228E+01 6.84101E-02-4.96802E-02-2.57097E+00-1.83922E-02-2.86477E-01
 -1      3843 5.87162E+01 4.51211E-02 2.36640E-02-4.45018E+00-4.04945E-02 2.85938E-01
 -1      3844 6.25834E+01 1.19078E-01 7.71864E-02-4.50300E+00 7.47440E-02 2.85657E-01
 -1      3845 5.51129E+01 1.04459E-01-8.04704E-02-4.26628E+00-1.54010E-02 2.94606E-01
 -1      3846 3.48614E+01 1.82745E-01-3.47066E-02-7.30918E+00-6.10445E-02 1.10006E-01
 -1      3847-6.25927E+01 6.95990E-02-8.27203E-02-2.75901E+00-8.10942E-02 2.81687E-01
 -1      3848-3.51030E+01 1.80644E-01 3.39168E-02-6.31994E+00 5.43691E-02 1.12615E-01
 -1      3849-5.87286E+01 1.46732E-01-2.20218E-02-2.79470E+00 3.06169E-02 2.85225E-01
 -1      3850-5.51313E+01 7.62686E-02 8.15012E-02-2.71299E+00 4.40852E-03 2.92143E-01
 -1      3851 1.62129E+02 6.37508E-02-7.48808E-02-4.90866E+00 2.08472E-02 3.11503E-01
 -1      3852 1.59398E+02 2.99050E-02-9.22187E-02-4.84360E+00-1.14233E-02 3.09613E-01
 -1      3853 1.54880E+02 2.50554E-02 9.00340E-02-4.69357E+00-2.50967E-02 2.85589E-01
 -1      3854 9.91974E+01 1.50321E-02 6.42735E-03-7.62580E+00 1.79464E-02 1.26677E-01
 -1      3855-1.66107E+02-2.86166E-02-7.11590E-02-2.40344E+00 8.60851E-02-2.71838E-01
 -1      3856-1.62188E+02 7.23893E-02-1.85728E-02-2.35494E+00-2.23893E-02-2.83419E-01
 -1      3857-1.53431E+02-9.37465E-03 8.71035E-02-2.29488E+00 1.89271E-02-3.12722E-01
 -1      3858-9.80761E+01 5.32859E-02 8.21626E-03-6.03256E+00-2.85484E-02-1.11027E-01
 -1      3859 1.57270E+02-7.49805E-02-1.05391E-01-4.75870E+00 1.03732E-02-3.11082E-01
 -1      3860 1.01694E+02 1.13398E-01-4.31428E-03-7.32031E+00 1.87003E-02-1.52798E-01
 -1      3861 7.89454E+01 1.15910E-01 1.75720E-01-7.46081E+00 9.10245E-03-1.38758E-01
 -1      3862-1.51198E+02-1.41197E-01-1.75895E-01-2.34184E+00-7.22664E-02 2.13309E-01
 -1      3863-9.76664E+01 2.84471E-02 1.71366E-02-5.89499E+00-1.15963E-02 1.61685E-01
 -1      3864-7.67135E+01 1.43944E-01 1.92951E-01-6.22364E+00-3.98861E-03 1.51723E-01
 -1      3865 1.67602E+02 5.78671E-02 6.76916E-02-4.88254E+00-7.15036E-02-3.09528E-01
 -1      3866 9.90039E+01-1.36848E-02-1.44601E-02-7.54710E+00 5.42718E-02-1.10478E-01
 -1      3867-1.59545E+02-6.71625E-04 8.25518E-02-2.25903E+00-4.43630E-03 3.32857E-01
 -1      3868-1.54685E+02-4.10423E-02-8.18580E-02-2.27743E+00 5.74464E-03 2.78350E-01
 -1      3869 1.17943E+02-5.08748E-02-9.13308E-02-4.77117E+00 2.83294E-02-2.79478E-01
 -1      3870 7.60657E+01 1.52301E-01-2.68324E-02-7.40777E+00 4.11617E-02-2.01673E-01
 -1      3871 5.91879E+01 1.69712E-01 1.59366E-01-7.48863E+00-8.29940E-02-1.97307E-01
 -1      3872 1.20969E+02 1.47287E-02 3.67407E-02-4.96451E+00 3.92814E-02-2.81782E-01
 -1      3873 1.24903E+02 9.39695E-02 9.73082E-02-4.98867E+00-6.99262E-02-2.68211E-01
 -1      3874 7.26705E+01 1.01913E-01-4.21153E-02-7.62259E+00 5.69955E-02-1.21154E-01
 -1      3875 1.14196E+02 6.12694E-02-7.81267E-02-4.74973E+00 1.64394E-02-2.86968E-01
 -1      3876 1.63685E+02-4.53266E-02 1.91815E-02-4.84716E+00 3.81926E-02-2.93188E-01
 -1      3877 1.53546E+02 6.78688E-03-7.93607E-02-4.72718E+00 6.04301E-03-3.20924E-01
 -1      3878-1.11388E+02 7.95770E-03-5.30402E-02-2.96486E+00 1.10960E-02-1.84527E-01
 -1      3879-6.85553E+01 1.16255E-01 5.48456E-02-6.36207E+00 2.25301E-02-1.07997E-01
 -1      3880-1.28459E+02-3.67554E-02-4.08537E-02-2.29439E+00 3.02754E-02-2.89839E-01
 -1      3881-1.17794E+02 1.61105E-01 1.24306E-01-2.23987E+00-5.94270E-02-2.66479E-01
 -1      3882-7.59905E+01 9.35803E-02-7.46029E-03-5.82123E+00-3.19616E-02-1.59653E-01
 -1      3883-5.94210E+01 4.33058E-02-1.53567E-01-6.24170E+00 6.85882E-02-1.70379E-01
 -1      3884 1.38179E+02 4.16482E-02 6.99815E-02-4.87975E+00 2.01913E-02 3.04968E-01
 -1      3885 1.27583E+02 4.17334E-02-4.81681E-02-4.78202E+00 2.65873E-02 2.62454E-01
 -1      3886 4.60505E+01 9.98580E-02 6.09606E-02-8.03458E+00-2.70838E-02 4.38555E-02
 -1      3887 2.40804E+01-6.47116E-02-7.32213E-02-8.17257E+00 1.09300E-02 4.60059E-02
 -1      3888 2.25421E+01 3.61084E-01 3.72726E-02-8.12257E+00-1.41819E-02 4.46796E-02
 -1      3889 1.35249E+02 1.05442E-02 9.37902E-02-4.98806E+00-2.52084E-02 3.03166E-01
 -1      3890 8.15022E+01 8.25738E-02-5.07896E-03-7.67061E+00-2.13957E-02 1.10018E-01
 -1      3891-1.38093E+02 4.52153E-02-6.18277E-02-2.13277E+00-2.56422E-02 3.09630E-01
 -1      3892-1.27406E+02-2.17424E-02 5.96989E-02-2.23074E+00-5.41743E-02 2.77436E-01
 -1      3893-1.21442E+02 6.69231E-02-8.66152E-02-2.27667E+00-2.64507E-02-3.00288E-01
 -1      3894-1.24527E+02 4.53753E-02-9.40083E-02-2.14962E+00 8.67028E-03-3.27884E-01
 -1      3895-1.14222E+02 5.49731E-02 8.11498E-02-2.21323E+00 2.24358E-03-2.68935E-01
 -1      3896-7.34105E+01 5.44562E-02 3.61186E-02-6.03186E+00-3.29978E-02-1.23276E-01
 -1      3897-1.62116E+02-2.72087E-02 8.90904E-02-2.34507E+00-3.60882E-02 2.97669E-01
 -1      3898-9.97345E+01 1.58398E-02-1.91255E-02-6.06614E+00-3.62714E-02 1.23876E-01
 -1      3899 2.82321E+01 1.51530E-01-1.19104E-01-7.22717E+00-1.50183E-01 6.63670E-03
 -1      3900 5.50960E+01 1.38913E-01 3.09414E-02-4.78614E+00 2.80259E-03 1.84375E-02
 -1      3901 1.31366E+01 2.02469E-01 5.72694E-02-8.19299E+00 6.10908E-02-3.37518E-02
 -1      3902-5.51279E+01 8.83422E-02-3.54212E-02-3.25662E+00-4.17050E-03 2.18744E-02
 -1      3903 1.50959E+00 1.94253E-01-1.26786E-01-7.29664E+00 1.23065E-03-3.92825E-02
 -1      3904-1.34665E+01 1.87992E-01-8.23649E-02-7.83124E+00-4.89320E-02-3.81320E-02
 -1      3905 4.81605E+01-3.30571E-01-6.07612E-02-7.99541E+00-4.15948E-02 8.71824E-02
 -1      3906 9.76618E+01 2.51388E-02-2.26332E-02-4.82733E+00-1.60117E-02-2.38894E-01
 -1      3907 1.00587E+02 9.76992E-02-9.39952E-02-4.88265E+00 3.96062E-02-3.09571E-01
 -1      3908 5.49755E+01 1.54147E-01 2.18634E-04-7.65757E+00 2.46368E-02-1.52384E-01
 -1      3909 8.83066E+01-2.39077E-02-1.59935E-01-5.09280E+00-5.20811E-02-2.57904E-01
 -1      3910 5.29393E+01 1.52645E-01 3.69147E-02-7.54113E+00 5.59251E-02-1.44352E-01
 -1      3911-7.67742E+01 7.45528E-02-2.37210E-02-2.76098E+00-2.52469E-02-3.01506E-01
 -1      3912-8.17590E+01-3.42657E-02 5.22090E-02-2.45286E+00 5.57978E-03-2.82099E-01
 -1      3913 4.23138E+01-2.01000E-02 7.94930E-02-8.11193E+00-3.61073E-02-3.19921E-04
 -1      3914 9.48729E+01-1.34688E-01-4.52235E-03-7.27004E+00-3.55773E-02-1.49243E-01
 -1      3915-9.90583E+01 1.03467E-02 2.85615E-02-2.58903E+00 4.75944E-02-3.03477E-01
 -1      3916-1.02563E+02 2.12753E-01 4.58603E-03-2.01113E+00-1.68642E-02-2.96153E-01
 -1      3917-4.36458E+00 1.22718E-02 1.16753E-01-7.29208E+00 3.63779E-02 1.40038E-02
 -1      3918 2.56667E+01 1.88136E-01 1.27652E-01-8.29546E+00-3.28226E-02 1.44525E-03
 -1      3919-4.76529E+01 1.85497E-01 6.19428E-02-6.35411E+00-2.97069E-02-8.08523E-02
 -1      3920-5.24318E+01 6.96366E-02-1.32713E-02-6.08905E+00 4.72423E-02-1.52245E-01
 -1      3921 3.91890E+00 9.43660E-02-1.61639E-01-7.32554E+00-1.07179E-02 4.14096E-02
 -1      3922-2.61716E+01 9.45477E-02-9.60301E-02-7.74908E+00 5.22076E-02 3.97397E-02
 -1      3923-6.25507E+01 3.90333E-02-8.16938E-02-6.25920E+00 5.55872E-02-9.53533E-02
 -1      3924-6.64242E+01 2.10601E-01 8.96950E-03-5.79397E+00-3.87351E-02-1.80917E-01
 -1      3925-1.35031E+02 8.76122E-02-8.25560E-02-2.26650E+00 6.55675E-03 2.94302E-01
 -1      3926-8.16456E+01 9.24869E-02 2.04436E-02-6.03283E+00-1.99555E-02 7.42120E-02
 -1      3927 5.56905E+01 2.86380E-02-1.39376E-01-7.40891E+00 1.32853E-01 2.68259E-02
 -1      3928 1.09209E+02 7.97960E-02 3.38727E-02-5.10275E+00-2.75574E-02-5.39619E-02
 -1      3929 1.72290E+02 3.81548E-02-3.22215E-02-4.68585E+00-1.32088E-02-9.28889E-02
 -1      3930 2.08030E+01 1.99591E-01 1.22165E-01-8.18116E+00-1.27285E-02 3.27729E-02
 -1      3931 4.44904E+01 6.50224E-02 1.60653E-02-7.35823E+00-3.98435E-02-1.16265E-01
 -1      3932-5.59755E+01 9.95485E-02 1.23244E-01-6.23263E+00-1.21632E-01-1.73416E-02
 -1      3933-1.09365E+02 2.90897E-02-2.99446E-02-2.84835E+00 2.10926E-02-2.48848E-02
 -1      3934-2.17210E+02 8.01903E-01-6.02212E-01-1.21976E+00 4.86611E-01 9.63463E-01
 -1      3935-1.92128E+02-1.45725E-01-5.77429E-01-4.21332E+00 5.15097E-01 9.20438E-01
 -1      3936-1.40955E+01 2.21547E-01 1.69017E-01-3.53663E+00-5.50809E-02 3.22721E-01
 -1      3937-1.50818E+01 9.93591E-02 9.38451E-03-3.78977E+00-3.75671E-02 2.43717E-01
 -1      3938-2.18075E+02-1.42670E-02-4.33775E-01-2.62962E+00 1.45512E-01 7.12289E-01
 -1      3939-1.17666E+02 3.62126E-01-6.94884E-02-6.34978E+00 8.32749E-01 9.29079E-01
 -1      3940-1.92382E+02-9.55499E-02 1.37380E-01-3.42075E+00-3.73584E-01-8.22802E-01
 -1      3941-1.94935E+02 9.92298E-03 4.80421E-02-2.96583E+00-7.08181E-02-5.22895E-01
 -1      3942-1.71229E+01 1.32997E-01 6.40350E-02-3.45691E+00 6.83470E-03 3.25781E-01
 -1      3943-9.27504E+00 2.32623E-01 4.97344E-02-6.83484E+00 3.40213E-03 1.81205E-01
 -1      3944 1.55522E+02 8.85035E-04 6.90261E-02-4.65800E+00-4.35391E-02-1.37071E-01
 -1      3945 1.45429E+02 1.60997E-02-9.03004E-02-5.00813E+00 2.25395E-02-6.41207E-02
 -1      3946 7.99365E+01 2.16201E-03 3.76475E-02-7.21760E+00 2.67095E-02-1.71066E-02
 -1      3947 1.57116E+02-3.79509E-02 5.05113E-02-4.64192E+00-2.59220E-02 9.36708E-02
 -1      3948 9.04174E+01-8.10715E-04-9.30418E-03-7.17713E+00-9.18142E-02-5.01982E-03
 -1      3949-4.48751E+01 6.94330E-02 8.88239E-03-2.89213E+00 1.29947E-02 2.33441E-01
 -1      3950 4.48545E+01 1.31729E-01-1.26757E-02-4.20038E+00-2.37992E-02 2.42479E-01
 -1      3951 1.51382E+02 5.22215E-02-4.67008E-02-4.68518E+00-2.18149E-02-1.00592E-01
 -1      3952 7.54679E+01-1.36857E-02-7.21964E-02-7.23268E+00 3.38657E-02 1.26381E-02
 -1      3953 1.37643E+02-1.76621E-02 8.97214E-02-5.05088E+00 8.88558E-03 6.44294E-02
 -1      3954 1.53021E+02 3.47809E-02-2.75536E-02-4.67543E+00-6.52980E-02 1.58363E-01
 -1      3955-1.52835E+02-4.24096E-02 3.00171E-02-2.23388E+00 5.53115E-02 1.56553E-01
 -1      3956-1.37441E+02 4.33962E-02-3.77849E-02-2.78572E+00-1.64387E-02 5.71410E-02
 -1      3957-7.58022E+01 1.94565E-02 4.66728E-02-5.98665E+00-2.79729E-02 9.02303E-03
 -1      3958-1.51295E+02-5.71567E-02 6.76472E-02-2.22644E+00 2.82239E-02-9.77385E-02
 -1      3959-9.07925E+01-8.21107E-03-1.49685E-02-5.74512E+00 9.54155E-02-3.88131E-03
 -1      3960-3.43264E+01 8.17982E-02-4.86308E-02-7.73447E+00 2.00975E-02 6.02035E-03
 -1      3961 1.19684E+01 4.28264E-02-1.10720E-01-7.31066E+00-1.03059E-01-3.16813E-03
 -1      3962 4.54917E+01-3.82749E-02-8.59284E-02-8.20090E+00-2.12412E-02 3.85296E-02
 -1      3963-4.52391E+01 1.31701E-02 3.67619E-02-7.49585E+00 9.74508E-03-3.44107E-02
 -1      3964 7.15197E-01 1.30060E-01 7.70603E-02-7.29473E+00 1.39686E-03-5.13838E-03
 -1      3965 4.54169E+01 1.91871E-02 5.58406E-02-8.19608E+00-2.56905E-02 2.23072E-02
 -1      3966 3.10346E+01 1.47524E-01-5.13884E-02-8.24091E+00-2.03553E-02-7.92096E-03
 -1      3967-4.51553E+01-3.39851E-04-9.59727E-02-7.48040E+00 1.41543E-02-3.56599E-02
 -1      3968-1.33074E+01 5.66741E-02-1.21157E-01-7.09923E+00 1.06517E-01 2.41075E-04
 -1      3969-1.56910E+02 2.65802E-02-4.25360E-02-2.25804E+00 1.29080E-02 9.29874E-02
 -1      3970-8.04394E+01-4.37910E-02-7.08339E-02-6.00473E+00-2.80773E-02-8.48712E-03
 -1      3971-1.45484E+02-6.91037E-02 5.73788E-02-2.83680E+00-1.57062E-02-5.37499E-02
 -1      3972-1.55410E+02-8.32963E-03-4.06493E-02-2.24931E+00 5.60054E-02-1.37691E-01
 -1      3973-1.20797E+02-1.23904E-01 1.40294E-01-6.49487E+00-3.51165E-01-4.52078E-01
 -1      3974-1.23541E+02-6.39339E-03 2.00230E-03-6.19008E+00-1.58493E-01-2.87536E-01
 -1      3975-3.09151E+01-4.93696E-02 3.72581E-02-7.72607E+00 1.26706E-02-3.38681E-03
 -1      3976 1.28960E+01-4.75067E-02 9.76954E-02-7.30067E+00-1.01252E-01 3.94684E-03
 -1      3977 4.51318E+01 6.69498E-02 8.87661E-02-8.20112E+00-1.05111E-02-3.36078E-02
 -1      3978-4.53512E+01 2.10003E-02-6.55346E-02-7.49419E+00 1.66459E-02 2.32626E-02
 -1      3979-1.20025E+00-1.35363E-01-9.68818E-02-7.29973E+00 1.61524E-04 4.32965E-04
 -1      3980-9.67465E+01-1.59427E-01-7.23496E-02-2.21144E+00-1.26762E-01-9.76289E-02
 -1      3981-2.96679E+01 2.86460E-01 3.13354E-02-3.17478E+00 1.14483E-01-8.29137E-02
 -1      3982-8.00424E+00 2.93162E-02-1.27545E-01-7.73544E+00 9.93927E-05-4.49028E-02
 -1      3983-3.65960E-01 2.97474E-01 4.54044E-02-7.32483E+00-6.23097E-02-2.55125E-02
 -1      3984 4.53720E+01 3.43805E-02-4.90640E-02-8.20965E+00 3.26225E-03-2.99155E-02
 -1      3985 3.43425E+01-1.10162E-01 3.75745E-02-8.24090E+00-1.61010E-02 1.57241E-02
 -1      3986-4.52754E+01 6.19889E-02 7.78962E-02-7.50223E+00 9.83120E-03 3.96875E-02
 -1      3987-1.25474E+01-6.97277E-02 9.15077E-02-7.10291E+00 1.05236E-01-5.46597E-04
 -1      3988-2.14229E+01 1.22999E-01-6.05099E-02-3.44560E+00-2.01717E-02 2.76147E-01
 -1      3989-2.13916E+02-6.49884E-02-9.44734E-02-2.58564E+00 1.62897E-01 7.89491E-01
 -1      3990 2.80133E+01 9.09021E-02-1.68451E-01-4.06104E+00-1.64395E-02-2.64512E-01
 -1      3991-1.83899E+02 1.08644E-01 7.45341E-02-2.83231E+00 1.24482E-01-9.20221E-02
 -1      3992 1.93242E+02 1.22018E-02-8.08243E-03-4.62167E+00 7.37231E-02-2.85123E-01
 -1      3993 1.70638E+02-4.61066E-03-4.83737E-02-4.68129E+00-1.00636E-02-2.83851E-01
 -1      3994 1.91708E+02-9.78651E-03 8.23263E-02-4.58199E+00 1.91506E-02-2.63051E-01
 -1      3995 1.06023E+02-8.74089E-02 8.74271E-03-7.41082E+00-3.09955E-02-1.14567E-01
 -1      3996 4.19297E+01 6.46266E-02-2.65154E-02-4.35248E+00-5.05667E-02-2.79906E-01
 -1      3997 8.10696E+01 1.06135E-01-5.92703E-02-4.84454E+00-3.01944E-02-1.02019E-01
 -1      3998 7.44337E+00 6.17593E-02-3.89383E-02-6.78408E+00 1.32743E-01 1.39459E-01
 -1      3999-5.12087E+01-3.60023E-01-1.73856E-01-7.59520E+00 1.62767E-03-6.52197E-02
 -1      4000 8.67488E+01 1.02406E-01 6.22831E-02-4.76510E+00 8.82367E-03-2.69738E-01
 -1      4001 7.94140E+01 7.78650E-02-4.43012E-02-4.80735E+00 7.51643E-03-2.72649E-01
 -1      4002 4.92616E+01 1.00176E-01 2.93447E-02-7.49863E+00-1.43070E-02-9.14699E-02
 -1      4003 5.20688E+01 1.47091E-01-2.78845E-02-7.50280E+00 6.86893E-02-1.55481E-01
 -1      4004 8.19172E+01 1.33720E-01 4.32663E-02-4.52303E+00 1.65439E-02-2.45904E-01
 -1      4005 2.07821E+02-3.20516E-02 1.56187E-01-4.14166E+00 9.54966E-02-4.73254E-01
 -1      4006 4.17838E+01-3.26230E-01-1.96896E-01-7.47750E+00-1.01080E-03-1.96347E-01
 -1      4007-3.10756E+01 1.76763E+00 3.21906E+00-6.06109E+00 3.41115E-01 1.36678E-01
 -1      4008 2.02555E+01 1.64750E-01-1.43038E-02-8.12877E+00-2.10655E-02-1.31549E-02
 -1      4009 3.87198E+01 2.40511E-01 3.24817E-02-7.30241E+00 2.10908E-02-9.81610E-02
 -1      4010 1.85990E+01 2.07962E-01 6.96053E-02-8.08750E+00-8.98312E-03 1.41444E-02
 -1      4011-2.04253E+01 1.97394E-01 5.93313E-02-7.59799E+00 1.12848E-02 8.55203E-03
 -1      4012-2.24553E+00 1.71713E-01 8.31442E-02-7.16066E+00 8.80067E-02-1.89996E-02
 -1      4013-4.07747E-01 5.11515E-02-9.83814E-02-7.26489E+00-3.85078E-02-1.94608E-02
 -1      4014 8.88003E+00-8.03924E-02 1.89751E-01-3.77763E+00 5.33333E-02 4.43873E-01
 -1      4015 1.01350E+01 4.42793E-02 6.21172E-02-4.11313E+00-1.74388E-03 3.84984E-01
 -1      4016 1.24860E+01 1.14644E-02-1.72973E-01-7.53692E+00 3.45970E-02 1.81826E-01
 -1      4017-1.27863E+01 3.38863E-01 1.61135E-01-7.20326E+00-4.24851E-02 1.70200E-01
 -1      4018 2.01957E+01-3.11544E-03-1.97981E-01-7.46589E+00-5.50713E-03-1.85268E-01
 -1      4019-2.53550E+01 2.39615E-01 1.54679E-01-7.11381E+00 4.11539E-02-2.02700E-01
 -1      4020 2.50031E+01-6.26188E-02-1.54332E-01-7.70535E+00-2.87810E-02-1.86952E-01
 -1      4021 8.98430E+01 1.57645E-01-4.24425E-02-4.72904E+00 5.15066E-02-2.83369E-01
 -1      4022 5.20028E+01 1.86522E-01 1.50498E-02-7.50892E+00 2.24374E-02-1.20917E-01
 -1      4023 1.80381E+02 5.13977E-03 4.94055E-02-4.37494E+00 4.03271E-02-2.76773E-01
 -1      4024 1.16142E+02-4.28570E-02-3.12256E-02-7.40478E+00 8.58829E-02-1.73738E-01
 -1      4025 6.94463E+01 6.54744E-02-1.36537E-01-4.72612E+00 2.77529E-02-4.51389E-02
 -1      4026 7.06753E+01 1.55325E-01 7.53438E-02-4.42443E+00-2.81905E-02-1.01129E-01
 -1      4027 7.09637E+01 8.65308E-02 1.85188E-02-4.42365E+00 2.07500E-03 1.02818E-01
 -1      4028 4.02716E+01 1.76859E-01-5.45871E-03-6.92138E+00-5.18911E-02-3.42937E-02
 -1      4029 3.89885E+01 2.71846E-01 1.72523E-03-7.03960E+00 3.10818E-02-7.72979E-03
 -1      4030 9.36942E+01 7.10627E-02-3.25804E-02-4.79652E+00-9.73138E-03-3.34567E-01
 -1      4031 8.31997E+01 5.19770E-02-1.35681E-02-4.94409E+00 1.17121E-02-2.34999E-01
 -1      4032 7.06536E+00 2.58170E-01 1.20472E-01-8.00604E+00 3.43907E-02 6.03041E-04
 -1      4033 1.04709E+02 1.92923E-02 2.57365E-02-4.91350E+00-5.27626E-02-2.73202E-01
 -1      4034 2.15073E+02-2.10396E-01-9.95879E-03-3.84818E+00-6.27303E-02 7.06682E-01
 -1      4035 6.63968E+01 5.22620E-02-6.01709E-02-4.33423E+00 1.20279E-02-1.02659E-01
 -1      4036 3.29549E+01 1.23173E-01-1.22778E-02-7.09161E+00-2.86915E-02 2.36230E-02
 -1      4037 5.91996E+01 1.70658E-01 6.90875E-02-4.83525E+00-2.56085E-02 1.52724E-02
 -1      4038 6.69881E+01 9.92328E-02-6.93937E-02-4.36621E+00-4.19786E-02 1.18261E-01
 -1      4039 4.46505E+01 1.50497E-01 1.76381E-02-7.61303E+00 2.28232E-03-4.30036E-02
 -1      4040 3.33438E+01-2.41309E-01-7.97112E-02-7.42206E+00 7.26589E-02-8.33710E-02
 -1      4041 4.54443E+01-1.60625E-01-4.32486E-02-7.61615E+00-7.84980E-03 3.40306E-02
 -1      4042-4.59011E+01 1.37193E-01 1.19245E-02-6.90462E+00-1.82097E-03 3.69808E-02
 -1      4043-3.17560E+01-2.26289E-01-7.57067E-02-6.91215E+00-7.64390E-02 7.89100E-02
 -1      4044-4.52027E+01-1.56197E-01-3.86947E-02-6.89499E+00 7.44571E-03-4.51136E-02
 -1      4045 3.13510E+01 2.17190E-01 4.72874E-02-7.42976E+00 6.71514E-02 8.28713E-02
 -1      4046-3.40234E+01 2.00319E-01 5.13084E-02-6.92162E+00-7.27825E-02-7.67582E-02
 -1      4047-3.71958E+01 1.20082E-01-5.04577E-02-6.06435E+00 3.40334E-02-2.42771E-02
 -1      4048-7.17412E+01 9.56682E-02-6.74955E-02-2.48525E+00-5.94772E-03-9.28802E-02
 -1      4049-6.72610E+01 3.19407E-03 4.33200E-02-2.96268E+00 5.29541E-03 5.90899E-02
 -1      4050-3.67068E+01 7.57088E-02-1.30653E-01-6.37624E+00-3.44157E-02 1.47996E-01
 -1      4051-7.06830E+01 1.41263E-01-2.11451E-02-2.54466E+00-2.78123E-02 1.25764E-01
 -1      4052-1.00271E+02-5.15075E-02 1.96409E-02-2.38433E+00-1.78650E-02 2.85598E-01
 -1      4053-9.35180E+01 2.38237E-01 1.84386E-02-2.46428E+00 1.66679E-02-2.98733E-01
 -1      4054 3.67281E+01 5.18770E-02 6.01369E-02-8.21115E+00 8.18055E-03 2.03892E-02
 -1      4055 1.07796E+01 8.08054E-03-1.78961E-02-7.26035E+00 1.07656E-01 1.38551E-01
 -1      4056-2.63043E+01 8.51387E-02 6.55691E-02-7.71396E+00-1.69303E-02 6.10758E-02
 -1      4057-3.82119E+01 1.32510E-01-5.34484E-02-7.46502E+00-2.87509E-02-3.07542E-02
 -1      4058-6.33788E+01 2.16107E-01 1.46578E-01-6.27989E+00 1.87396E-02-1.21877E-01
 -1      4059-6.27889E+01 1.47683E-01 4.96766E-02-5.94616E+00 2.34563E-02-3.85525E-03
 -1      4060-1.25037E+02-2.43230E-02 4.81156E-02-2.14685E+00-4.15226E-03 1.29804E-01
 -1      4061-1.13448E+02 4.53563E-03-5.67616E-02-2.81057E+00-1.85025E-02-2.77212E-02
 -1      4062-1.26111E+02-3.73115E-02 4.89443E-02-2.17820E+00-4.25209E-02-1.22140E-01
 -1      4063-1.97103E+02 4.52755E-02-9.05850E-02-2.80793E+00 1.32473E-02 2.81483E-01
 -1      4064 2.00172E+01 2.22946E-01 5.59697E-02-8.12666E+00-1.62349E-02-8.69329E-03
 -1      4065-2.03063E+01 1.85788E-01-7.98204E-02-7.55874E+00 9.64117E-03 3.48007E-02
 -1      4066-1.33889E+01 1.78982E-01 8.70029E-02-7.80706E+00 1.66411E-02-5.40045E-02
 -1      4067 6.28015E+00 2.37055E-01 1.44921E-01-7.24535E+00-1.04781E-01 1.46664E-02
 -1      4068 2.20128E+00 1.69971E-01-1.64694E-01-7.34321E+00 5.26136E-02 1.71204E-02
 -1      4069-1.63161E+01 1.62186E-01-1.21827E-01-7.76186E+00-3.62778E-02 2.27664E-02
 -1      4070 8.70019E+01 5.49802E-02 1.28072E-01-4.95401E+00 3.48536E-03-2.48069E-01
 -1      4071-2.08043E+01 1.66908E-01 6.74250E-02-7.55083E+00-2.04697E-02-2.69373E-02
 -1      4072-5.45951E+00 5.48378E-02 6.84829E-03-7.13816E+00-8.15309E-02-1.84809E-02
 -1      4073 1.58250E+01 1.44216E-01 5.68055E-02-8.19664E+00 1.06574E-02-1.25075E-02
 -1      4074 2.01957E+01 2.32887E-01-6.93427E-02-8.10779E+00 2.13975E-02 4.06107E-02
 -1      4075 3.65191E+01 3.51664E-01 1.99894E-01-7.35153E+00 1.10966E-02 1.38853E-01
 -1      4076 4.19633E+01 1.31543E-01-1.53052E-03-7.32325E+00-1.94521E-02 1.40349E-01
 -1      4077 6.52854E+01 2.16489E-01 1.28251E-01-4.35389E+00 2.43400E-02 3.34636E-01
 -1      4078 6.72107E+01 1.98598E-01 4.83840E-02-4.67961E+00 8.45680E-04 2.29640E-01
 -1      4079-7.24499E+01 2.07360E-01 1.26748E-01-2.56644E+00 3.68752E-02 2.92467E-01
 -1      4080-4.62148E+01 1.31987E-01 1.92278E-02-6.16758E+00-2.43805E-02 1.41418E-01
 -1      4081-7.05440E+01 1.67223E-01 5.87152E-02-2.81650E+00-1.61656E-02 2.15225E-01
 -1      4082 2.36133E+01 1.62331E-01-1.51587E-02-4.05429E+00 3.28440E-02 2.97877E-01
 -1      4083 2.20018E+01 1.25960E-01 1.67264E-02-3.79340E+00-2.99129E-02 2.62964E-01
 -1      4084 1.50155E+01 2.48362E-01 5.93207E-02-7.15635E+00 4.00552E-02 1.04783E-01
 -1      4085 1.37181E+01 1.78752E-01-4.64120E-03-7.00618E+00-6.64383E-02 1.54141E-01
 -1      4086 6.89985E+01 9.36940E-02 1.46085E-02-4.41431E+00 1.63529E-03 3.22975E-01
 -1      4087 4.40759E+01 1.75921E-01 6.87444E-03-7.45176E+00-1.62029E-03 1.04157E-01
 -1      4088-6.87152E+01 5.52408E-02 3.01879E-02-2.56513E+00-1.85088E-02 3.17217E-01
 -1      4089-4.41264E+01 1.50511E-01 1.20084E-03-6.26668E+00-2.16873E-02 9.15922E-02
 -1      4090-8.24278E+01 7.40905E-02-8.23389E-02-2.92391E+00-3.32135E-02 1.75435E-01
 -1      4091-3.68215E+01 1.74447E-01-1.07724E-02-3.48839E+00-3.40665E-03 2.25784E-01
 -1      4092 3.67436E+01 4.95266E-02 1.81656E-03-4.56650E+00 2.67860E-03 2.30425E-01
 -1      4093-9.29732E+01 1.25025E-01 1.25710E-01-2.84326E+00-1.96987E-02 1.76701E-01
 -1      4094-2.60057E+01 3.43156E-02-1.34277E-01-3.58499E+00 2.24121E-02 1.76560E-01
 -1      4095 2.42706E+01 1.06745E-01 2.31804E-02-3.94015E+00 8.37931E-03 2.30394E-01
 -1      4096 2.57387E+01 2.71759E-01 2.77095E-02-4.40705E+00-2.36294E-02 2.30764E-01
 -1      4097-1.76382E+02-3.10068E-02-8.02602E-02-3.12825E+00 1.32206E-02 1.95554E-01
 -1      4098-1.24360E+02-1.25385E-01-1.34934E-01-2.20395E+00 5.50137E-02-3.54501E-01
 -1      4099-8.07455E+01 1.12669E-01-2.18753E-03-5.86371E+00 1.29074E-02-1.11302E-01
 -1      4100-1.26305E+02-7.72559E-02-5.92848E-02-2.47525E+00 2.96880E-02-2.22716E-01
 -1      4101 1.52489E+02 9.11486E-02-1.83007E-02-4.79485E+00-1.09679E-01 6.44956E-02
 -1      4102 8.65426E+01-8.12209E-02 3.07232E-02-7.31289E+00 2.58285E-02 1.34489E-01
 -1      4103-1.28058E+02-2.80632E-03-1.40179E-02-2.20539E+00 1.83655E-02-3.26167E-01
 -1      4104-8.31661E+01 5.99530E-02-8.89755E-03-5.97046E+00 2.30870E-02-1.02609E-01
 -1      4105 1.76557E+02 1.88911E-03 9.93824E-02-4.82641E+00-1.56538E-03 1.85678E-01
 -1      4106-1.86829E+02 6.87346E-02 1.59232E-01-3.33253E+00 1.55786E-02 2.76312E-01
 -1      4107 1.68089E+02-1.74278E-01-1.38360E-03-4.66079E+00-1.08612E-01-5.11921E-02
 -1      4108 9.55276E+01-8.84796E-02-9.57334E-02-7.14551E+00 9.71182E-02-1.64898E-01
 -1      4109 1.85166E+01 1.09298E-01-5.45294E-02-8.07198E+00 6.56673E-03-6.31512E-02
 -1      4110 4.20884E+01 1.31980E-01-7.99540E-02-7.24775E+00 7.99642E-02-1.34786E-01
 -1      4111 4.85701E+01 4.25887E-02-3.23483E-03-4.44672E+00 9.70261E-02 3.00187E-02
 -1      4112 2.77171E+01 1.85452E-01-1.02579E-01-7.02591E+00-7.95299E-02 1.65762E-01
 -1      4113 1.18805E+01 1.89425E-01-1.05915E-02-7.97621E+00-2.03789E-02 7.51880E-02
 -1      4114-4.86396E+01 1.56849E-01-5.06238E-03-3.06594E+00-9.10935E-02 1.67334E-02
 -1      4115-2.79597E+01 1.59189E-01 9.14711E-02-6.23254E+00 7.85366E-02 1.63246E-01
 -1      4116-1.22089E+01 2.06648E-01-3.72805E-03-7.63831E+00 2.29878E-02 7.24414E-02
 -1      4117-7.08024E+01 8.03678E-02 3.74912E-02-2.79342E+00-3.93926E-02-6.06931E-02
 -1      4118-4.02759E+01 1.98854E-01-9.45093E-02-6.18640E+00 3.63685E-02-1.65423E-01
 -1      4119 7.36318E+01 9.68838E-02-2.81633E-03-4.82142E+00-1.70041E-02-9.01674E-02
 -1      4120 3.44838E+01 1.04600E-01-2.88047E-02-7.30282E+00-4.12035E-02-5.17101E-02
 -1      4121-1.93094E+01 1.83044E-01-3.69965E-03-7.57691E+00 2.38548E-02-3.34215E-02
 -1      4122-1.42766E+02 9.37249E-02-1.42302E-02-2.48923E+00 1.08006E-01-6.33912E-02
 -1      4123-8.15512E+01-6.01839E-02 3.27257E-02-5.99530E+00-2.62333E-02-1.35075E-01
 -1      4124 1.42967E+02-8.27887E-02 3.69503E-02-4.86130E+00-1.01949E-01-6.67220E-02
 -1      4125 8.11922E+01 7.04686E-02-5.48806E-02-7.34126E+00 4.52807E-02-1.33888E-01
 -1      4126 2.00972E+01 3.41050E-01 3.31275E-02-7.48173E+00 2.50598E-02-5.39623E-02
 -1      4127 1.83031E+01 8.58101E-02 2.59638E-02-7.28746E+00 6.51432E-02-6.55189E-02
 -1      4128-1.52393E+02-1.24156E-01 2.02849E-02-2.55052E+00 9.38530E-02 6.03482E-02
 -1      4129-8.69284E+01 3.37237E-02-5.70945E-02-6.02141E+00-4.14673E-02 1.34322E-01
 -1      4130 4.04169E+01-7.95206E-02-7.05913E-02-8.10743E+00 5.56697E-02 4.49793E-02
 -1      4131-3.70544E+01-3.82361E-02-7.12917E-02-7.50241E+00-6.10069E-02-4.16932E-02
 -1      4132 6.11125E+01-3.01880E-02-1.70443E-02-4.53451E+00-9.73844E-02-8.85132E-02
 -1      4133 3.50988E+01 1.73847E-01-4.20380E-02-7.16472E+00 4.82873E-02-1.06528E-01
 -1      4134 1.52809E+01 2.33817E-01 4.87258E-02-8.06149E+00 9.39198E-02-1.42234E-02
 -1      4135 2.67169E+01 1.28007E-01-6.29343E-03-8.12651E+00 2.58419E-02-7.76842E-02
 -1      4136 5.98851E+01 1.14836E-01-1.00136E-01-7.30363E+00 8.67999E-02-1.72849E-01
 -1      4137-2.70570E+01 1.53023E-01 3.87139E-02-7.50053E+00 1.66334E-02-8.84871E-02
 -1      4138-6.02236E+01 4.93664E-02 8.17777E-02-5.98162E+00-7.17393E-02-2.01324E-01
 -1      4139 1.95326E+02-6.22141E-02 1.15337E-01-4.31334E+00 3.63002E-01-6.73580E-01
 -1      4140 1.05149E+02-1.66806E-02-3.48010E-03-4.94776E+00-9.00068E-02-2.13659E-02
 -1      4141-1.05029E+02 5.78475E-02-2.50898E-02-2.57196E+00 5.40424E-02-2.94490E-02
 -1      4142-2.10969E+02-7.29005E-02 2.85966E-02-2.76252E+00-4.65288E-02-4.88931E-01
 -1      4143-1.93597E+02-7.72365E-02 7.02322E-02-3.45375E+00-3.31312E-01-7.06794E-01
 -1      4144 4.34675E+01-1.84956E-02 2.12187E-02-8.07446E+00 4.01515E-02-8.65493E-02
 -1      4145 1.31158E+02 2.59248E-02-1.17852E-01-5.18401E+00 1.05072E-02 1.81380E-01
 -1      4146-4.47801E+01 8.54280E-02-2.69374E-02-3.36690E+00-9.77472E-03 2.25907E-01
 -1      4147 4.47202E+01 1.34157E-01 2.52621E-02-4.66152E+00-2.80765E-04 2.28274E-01
 -1      4148 5.74551E+01 1.10301E-01 1.13700E-01-4.77815E+00 1.46013E-02-1.88540E-01
 -1      4149 7.26723E+01 1.21085E-01 3.96027E-02-4.56005E+00-1.08313E-03-2.53840E-01
 -1      4150 6.97914E+01 1.59589E-01-2.65276E-02-4.98800E+00 8.52937E-03-2.33558E-01
 -1      4151 6.76913E+01 1.09923E-01-4.50284E-02-4.68259E+00-1.98197E-02-3.04726E-01
 -1      4152 4.24980E+01 2.07595E-01 2.39129E-02-7.55933E+00-2.24275E-02-7.74216E-02
 -1      4153-5.75172E+01 9.20304E-02-1.00371E-01-3.17073E+00-4.30861E-03-1.80368E-01
 -1      4154-8.62003E+01 4.84375E-02 2.14564E-02-2.44556E+00-1.32533E-02-2.36479E-01
 -1      4155-7.46414E+01 1.25776E-01-6.53854E-03-3.06579E+00 1.52133E-02-2.29660E-01
 -1      4156-1.64118E+02-1.53017E-01-1.42862E-01-2.95521E+00 2.27831E-02-1.70931E-01
 -1      4157 1.01290E+02 9.35740E-02 2.59426E-02-5.18368E+00 4.01433E-03-2.19107E-01
 -1      4158 1.56187E+02-2.01635E-03-1.12385E-01-5.06509E+00-1.97897E-02 1.87151E-01
 -1      4159-1.39084E+02 5.87269E-03-1.14425E-01-2.77137E+00 2.04482E-02-1.81434E-01
 -1      4160 2.98130E+01 1.18526E-01 4.11748E-02-8.16473E+00-1.04295E-01 1.10646E-02
 -1      4161 6.70859E+01 3.35363E-02-1.14658E-01-7.29271E+00-7.67272E-02 2.01124E-01
 -1      4162-1.07151E+02 4.79022E-02 1.15806E-04-2.26587E+00 2.76693E-02-2.51533E-01
 -1      4163-1.01206E+02-1.25193E-03 1.56677E-02-2.88185E+00 9.57464E-03-2.41736E-01
 -1      4164-1.35563E+02 2.36009E-02-2.05730E-04-2.19201E+00 1.62286E-02-2.47444E-01
 -1      4165 3.71718E+01 1.17458E-01 6.23627E-02-8.12660E+00 6.48461E-02-3.97035E-02
 -1      4166-1.30921E+02 2.27139E-02 1.01418E-01-2.72926E+00-1.19679E-02 1.79696E-01
 -1      4167 1.17744E+02-6.18189E-02-3.80793E-02-4.96279E+00 9.67522E-02 8.19207E-02
 -1      4168-1.17702E+02 1.63304E-01 2.41383E-02-2.44029E+00-9.87308E-02 9.56949E-02
 -1      4169-6.72286E+01 1.48625E-01 1.48068E-01-5.88895E+00 5.59146E-02 1.28480E-01
 -1      4170 1.87146E+02-1.01797E-01-4.75465E-02-4.62852E+00-5.02386E-02 3.26782E-01
 -1      4171-4.02730E+01 6.74250E-02 5.73485E-02-7.53121E+00-6.77169E-02 4.44774E-02
 -1      4172-3.00382E+01 8.51168E-02-4.94408E-02-7.54099E+00 5.86537E-02 4.70366E-02
 -1      4173 1.39298E+02 2.76236E-02 1.11406E-01-5.17537E+00-2.47435E-03-1.86298E-01
 -1      4174 1.64418E+02-4.65119E-03 1.18806E-01-4.98040E+00 8.15434E-03-1.90200E-01
 -1      4175-1.14059E+02 3.66758E-02-1.10128E-01-2.74035E+00 3.28681E-03 1.88019E-01
 -1      4176-1.56044E+02-1.75963E-02 1.08138E-01-2.88116E+00 3.11190E-03 1.82174E-01
 -1      4177 1.14170E+02 5.87118E-02 1.07771E-01-5.20075E+00 7.06295E-03 1.83103E-01
 -1      4178-4.70362E+01 8.35530E-02-4.85075E-02-3.08186E+00-2.68253E-02 2.23573E-01
 -1      4179-2.91393E+01 2.11124E-01-9.11998E-02-6.53665E+00 7.40417E-02 1.11517E-01
 -1      4180 2.88840E+01 1.53481E-01 8.21410E-02-7.37071E+00-7.58631E-02 1.09182E-01
 -1      4181 7.20052E+01 1.85050E-01 5.61392E-02-4.76310E+00 1.83906E-02-2.59896E-01
 -1      4182 4.69869E+01 1.14919E-01 4.70953E-02-4.43111E+00 1.49373E-02 2.29757E-01
 -1      4183 4.46287E+01 1.68226E-01 3.96328E-02-7.58873E+00 4.44921E-02-9.21713E-02
 -1      4184 3.66467E+01 7.49472E-02 8.77905E-02-7.42971E+00 1.20470E-01-1.24430E-01
 -1      4185 5.97510E+01 2.97910E-02 8.44347E-02-4.56198E+00-1.70805E-03-2.78051E-01
 -1      4186-7.24566E+01 1.25197E-01 9.45134E-02-2.80999E+00 1.79414E-02-2.63001E-01
 -1      4187-4.56053E+01 9.79485E-02 2.62469E-02-6.38099E+00 6.57868E-02-1.09259E-01
 -1      4188 1.03560E+02 6.48859E-02 5.64847E-02-4.94827E+00-1.15363E-02-2.39141E-01
 -1      4189 6.41647E+01 7.99097E-02 7.97699E-02-7.69514E+00 8.28789E-02-1.16102E-01
 -1      4190 1.53949E+02 5.36739E-02-1.05339E-01-4.83008E+00-2.20607E-02 2.57442E-01
 -1      4191 9.64709E+01 1.17683E-01-9.08862E-02-7.61678E+00 1.01018E-01 1.37668E-01
 -1      4192-8.78420E+01 1.47137E-01-9.01467E-02-6.17752E+00-1.04017E-01-1.32484E-01
 -1      4193-1.41313E+02 5.87254E-02-1.05944E-01-2.53022E+00 2.00648E-02-2.51721E-01
 -1      4194-1.03394E+02-1.67151E-02-7.85814E-02-2.60645E+00-1.35147E-03-2.61741E-01
 -1      4195 1.66692E+02-7.67581E-02 1.01719E-01-4.72778E+00 1.77963E-03-2.62192E-01
 -1      4196 1.41515E+02-4.20023E-02 1.12236E-01-4.92112E+00 3.29693E-03-2.59293E-01
 -1      4197-6.44615E+01 1.50869E-01-3.90923E-02-6.25320E+00-4.48973E-02-1.18287E-01
 -1      4198-7.25702E+01 1.79424E-01-8.85790E-02-6.13242E+00 1.02461E-01 1.37624E-01
 -1      4199 7.24919E+01 1.11011E-01 2.46712E-03-4.59042E+00-3.46452E-03 2.57803E-01
 -1      4200-7.25016E+01 8.42726E-02 1.34521E-02-2.62836E+00-1.88405E-03 2.44604E-01
 -1      4201 6.70405E+01 7.32107E-02-6.21009E-02-4.83826E+00-1.43083E-02 6.98110E-02
 -1      4202 1.16435E+02-1.63287E-02 9.27445E-02-4.97087E+00 1.28428E-02 2.65665E-01
 -1      4203-1.53839E+02-8.26641E-02 1.12653E-01-2.61317E+00 1.49941E-03 2.53939E-01
 -1      4204 8.84999E+01-7.74236E-02 8.15283E-02-7.63614E+00 1.23755E-01-1.34493E-01
 -1      4205-9.71211E+01-1.29305E-01 7.61013E-02-6.21272E+00-1.19609E-01 1.32672E-01
 -1      4206 1.04578E+02-1.44273E-01 9.22475E-02-7.51181E+00 1.18590E-01-1.42637E-01
 -1      4207 7.24773E+01-7.50659E-03 1.01559E-01-7.67556E+00-1.16374E-01 1.20520E-01
 -1      4208-1.16365E+02 1.03236E-01-7.52052E-02-2.48984E+00-1.73899E-02 2.74829E-01
 -1      4209-3.91430E-01-2.39099E-02-1.41518E-02-7.54061E+00 7.21721E-04-1.74399E-01
 -1      4210-4.04300E+01 2.20641E-01 3.83443E-02-6.83013E+00 1.41376E-03 7.16885E-02
 -1      4211-1.74313E-01-1.15628E-01-1.45424E-03-7.79833E+00 7.31907E-03 2.31948E-01
 -1      4212-2.33986E-01 2.29614E-01-2.28137E-02-7.71053E+00-9.29860E-03-1.68366E-01
 -1      4213 1.26101E+01 3.54279E-01 3.31802E-02-7.33397E+00-4.37465E-02 1.32827E-01
 -1      4214-1.29194E+01 1.15626E-02-6.19754E-02-6.98435E+00 3.98847E-02 1.34327E-01
 -1      4215-2.61177E-01 2.73332E-01 7.08072E-03-7.44800E+00-4.64871E-03 9.68556E-02
 -1      4216-1.57223E+01 2.86698E-01 1.16295E-01-6.96385E+00 6.20525E-03 9.33418E-02
 -1      4217 1.55759E+01-2.88676E-02 5.66141E-02-7.42023E+00-5.06713E-02 1.15259E-01
 -1      4218-1.87375E+01 2.51245E-01 8.00997E-02-6.87355E+00-3.61152E-02-7.96492E-02
 -1      4219 1.93438E+01 1.97184E-01 8.26482E-02-7.38127E+00 3.17061E-02-7.99270E-02
 -1      4220-1.16696E-01 1.69508E-01-6.77927E-04-7.27364E+00-1.04990E-02 7.24917E-02
 -1      4221 1.57740E+01 4.07572E-01 3.45699E-02-7.34181E+00 5.34480E-02-6.18751E-02
 -1      4222 4.38253E+01 5.19963E-02 1.10150E-02-7.41719E+00 3.31209E-02-1.09764E-01
 -1      4223 3.98931E+01-2.64759E-01-6.52277E-02-7.42345E+00-8.85577E-03 7.20441E-02
 -1      4224-1.67341E-01 1.11644E-01-1.33890E-02-7.76741E+00-4.42585E-03 1.91033E-01
 -1      4225 2.74373E+01 2.77206E-01 5.07458E-02-7.48577E+00 3.83880E-02-1.41790E-01
 -1      4226-2.77355E+01-5.14641E-02-4.13445E-02-6.87618E+00-3.07914E-02-1.64799E-01
 -1      4227-5.19888E+01 8.18113E-02-7.16864E-02-2.88270E+00-1.29204E-02 2.37158E-01
 -1      4228 7.95686E+01 1.01089E-01 7.35548E-02-4.66758E+00-1.29243E-02-2.44145E-01
 -1      4229 5.19639E+01 1.11900E-01 7.29844E-02-4.36646E+00 3.94825E-03 2.40622E-01
 -1      4230 6.58318E+01 9.68275E-02 7.75247E-02-4.55586E+00 1.04028E-02-2.40841E-01
 -1      4231-7.92465E+01 6.43783E-02 6.93304E-02-2.56291E+00 3.42251E-03-2.42893E-01
 -1      4232 1.04937E+02 5.30260E-03-1.28005E-02-4.98271E+00 3.84013E-02 2.43939E-01
 -1      4233 1.69172E+02 2.72357E-02-6.82043E-02-4.86949E+00-9.57984E-03 2.41441E-01
 -1      4234 1.14195E+02 8.17427E-02 7.35304E-02-4.94253E+00 2.79924E-03-2.39267E-01
 -1      4235-1.55472E+02 2.27710E-02-6.95143E-02-2.33553E+00 3.10175E-03-2.36176E-01
 -1      4236-1.30813E-01 1.01172E-02-1.06400E-02-7.53372E+00-8.70457E-03 1.78675E-01
 -1      4237-3.75730E+01-2.51123E-01-6.95108E-02-6.81647E+00 7.19219E-03-7.38024E-02
 -1      4238-2.48810E-01 6.17860E-02-5.06308E-03-7.36982E+00 2.03819E-02-1.04132E-01
 -1      4239-2.64721E+01-6.98738E-02-2.95881E-02-6.86354E+00 7.06126E-03-2.22895E-01
 -1      4240-3.13049E+01-1.21599E-01-1.63867E-01-6.74825E+00 2.89301E-03 8.48368E-02
 -1      4241 3.71615E+01 2.47948E-01 3.53202E-02-7.43567E+00-1.63976E-03-7.39621E-02
 -1      4242-1.14039E+02 5.37815E-02-7.42957E-02-2.32237E+00 1.87605E-02-2.40472E-01
 -1      4243 1.56582E+02 2.52303E-02 8.06718E-02-4.92275E+00 1.31812E-02-2.43240E-01
 -1      4244 1.84672E+02-1.41229E-02 9.04541E-02-4.68974E+00 7.75233E-03-2.39332E-01
 -1      4245 3.08155E+01 3.59648E-01 1.25845E-01-7.56033E+00-7.18974E-02-5.58789E-02
 -1      4246-3.49785E-01 3.28670E-02-2.89787E-02-7.63725E+00-1.02333E-02-1.65639E-01
 -1      4247-1.28229E+02 5.43532E-02-7.08947E-02-2.28142E+00-7.30428E-03 2.39035E-01
 -1      4248 1.28523E+02 4.55382E-02 7.35262E-02-4.98471E+00-4.77907E-03 2.35428E-01
 -1      4249-1.69199E+02-1.48606E-02 7.94546E-02-2.40513E+00-5.61573E-03 2.35632E-01
 -1      4250-6.50627E+01-7.77687E-02-1.40824E-01-2.55267E+00-5.76388E-02 3.28960E-01
 -1      4251-6.69818E+01-2.37807E-02-5.14670E-02-2.84349E+00-2.27568E-02 2.19630E-01
 -1      4252-4.20546E+01 1.79965E-01-2.39554E-02-6.16060E+00-5.96444E-03 1.34162E-01
 -1      4253 4.61849E+01 2.48772E-01-3.04777E-04-7.33657E+00 1.54786E-02 1.02774E-01
 -1      4254 7.07467E+01 6.37748E-03-5.20234E-02-4.71354E+00-1.04448E-02 2.27149E-01
 -1      4255 7.27389E+01 3.11701E-03-7.95549E-02-4.50370E+00-2.64750E-02 3.29898E-01
 -1      4256-1.31741E+02 9.70175E-02 1.29641E-01-2.22001E+00-2.88636E-02-2.94939E-01
 -1      4257-1.29813E+02 1.24561E-01 6.83979E-02-2.46092E+00 1.67965E-02-2.12193E-01
 -1      4258-8.52089E+01-1.25130E-02 1.51511E-02-5.87152E+00 4.27744E-02-1.41909E-01
 -1      4259 1.60314E+01 1.48076E-01 4.64643E-02-3.77823E+00-7.78447E-02 8.79457E-02
 -1      4260 8.81381E+00 8.92554E-02-1.37208E-01-6.90546E+00 2.99553E-02 6.16930E-02
 -1      4261 8.29597E+01 9.50460E-02 2.44887E-02-4.97994E+00-2.10345E-02 2.18025E-01
 -1      4262-5.10710E+00 7.29196E-01-1.07787E-01-3.54292E+00-6.56728E-02 5.94137E-01
 -1      4263-6.82794E+00 2.35773E-01-1.94045E-01-4.06595E+00 2.00305E-02 4.12682E-01
 -1      4264-4.76372E+00 4.42309E-01 5.99952E-02-4.18132E+00-3.02065E-02 5.33008E-01
 -1      4265-5.44264E+00 8.28367E-01-1.55221E-01-6.34356E+00-1.79233E-01 2.84856E-01
 -1      4266-3.43078E+00 3.99106E-01-3.58384E-01-6.24698E+00-8.00278E-02 2.66326E-01
 -1      4267-4.17299E+00 7.20890E-01-4.53708E-01-5.94703E+00-4.38477E-02 3.52159E-01
 -1      4268 2.22722E+02-2.35028E+00 4.97912E+00 1.46256E+00 5.20575E-01 5.21422E+00
 -1      4269 2.58009E+02-5.97440E+00 3.79852E+00 2.64957E+00 4.70378E+00 9.98646E+00
 -1      4270 1.67427E+02 2.56734E+00 5.90980E+00-6.20987E+00 2.71024E+00 4.12395E+00
 -1      4271 2.24515E+02-6.52333E-01 1.51276E+01-7.26656E+00 1.09778E+00 1.02972E+01
 -1      4272-1.53171E+01 3.45444E-03-4.60162E-02-7.67657E+00-5.98761E-02-7.41189E-02
 -1      4273-3.24105E+00 3.94588E-01-1.61963E-01-7.42868E+00-4.16536E-02 1.19265E-02
 -1      4274-2.22859E+00 2.56814E-01 1.74664E-01-7.54059E+00 6.41231E-02 7.52926E-03
 -1      4275-1.44242E+01-8.69119E-02 1.28490E-01-7.60410E+00 1.39744E-02-5.62878E-02
 -1      4276 8.24634E+00-3.36279E-01-8.32129E-02-3.29516E+00-1.20687E-01-5.22562E-01
 -1      4277 4.47214E+00-5.84392E-01-1.62367E-02-3.62650E+00 3.99432E-02-6.43538E-01
 -1      4278 4.35641E+00-2.38649E-01-1.38583E-01-4.32364E+00-5.03261E-02-6.03183E-01
 -1      4279 4.96094E+00-3.58922E-01 1.18437E-01-6.44034E+00-1.48504E-01-3.27659E-01
 -1      4280 1.75708E+01 1.29020E-01-4.21819E-02-3.71175E+00-3.25480E-02 3.02494E-01
 -1      4281 1.46977E+01 1.15145E-01 5.74267E-02-4.09001E+00-2.68678E-02 3.50728E-01
 -1      4282-7.84965E+00 1.50446E-01-1.86749E-01-7.50335E+00-2.36904E-02-7.33161E-02
 -1      4283-3.44742E+00-3.89572E-02-5.87150E-01-2.94322E+00-4.09644E-02 6.26779E-01
 -1      4284-3.36733E+00 3.58926E-01-3.45674E-01-3.07780E+00-4.59969E-02 3.79521E-01
 -1      4285-6.99931E+00 1.46951E-01 2.82870E-02-7.47365E+00 3.39908E-02-6.43888E-02
 -1      4286 2.28603E+00-2.61393E-01-5.19030E-02-8.79195E+00-3.15212E-02 4.14350E-01
 -1      4287-5.16774E+00 7.46160E-01-1.29636E-01-3.56410E+00 9.76258E-02-5.76391E-01
 -1      4288-6.81899E+00 2.76425E-01-1.96911E-01-4.15621E+00 1.32149E-02-4.38464E-01
 -1      4289-4.79117E+00 4.71883E-01-4.34709E-02-4.06123E+00 3.57205E-03-3.95816E-01
 -1      4290-5.31703E+00 1.16279E+00-1.76868E-02-6.11913E+00 2.04950E-01-2.43215E-01
 -1      4291-2.55709E+02 3.22586E+00-4.41561E+00 3.67623E+00-5.58640E+00 9.44138E+00
 -1      4292-2.21694E+02 2.02468E+00-4.93331E+00 1.42258E+00-6.67404E-01 4.74138E+00
 -1      4293-2.23976E+02-3.61282E+00-1.70631E+01-6.47943E+00-2.31785E+00 9.15474E+00
 -1      4294-1.68247E+02-7.03289E+00-7.97530E+00-3.23262E+00-3.02465E+00 4.01298E+00
 -1      4295-4.23581E+00 1.04462E+00-2.49941E-01-5.43789E+00-1.22184E-01 5.06787E-01
 -1      4296 2.57949E+02-4.03598E+00 3.81790E+00 3.75250E+00-5.07245E+00-9.81036E+00
 -1      4297 2.22686E+02-1.88768E+00 5.01696E+00 1.16518E+00-8.03601E-01-4.92270E+00
 -1      4298 2.27426E+02 3.61894E+00 1.73840E+01-6.61679E+00-2.05415E+00-9.33447E+00
 -1      4299 1.69162E+02 2.94997E+00 5.37170E+00-5.64659E+00-2.61287E+00-4.30189E+00
 -1      4300 6.70220E+00-3.50531E-02 1.61541E-01-4.28674E+00 9.72944E-03 4.20059E-01
 -1      4301 5.06638E+00-5.26841E-01 1.15361E-01-3.69976E+00 6.55258E-02 6.09925E-01
 -1      4302 5.24922E+00-4.47615E-01 1.63505E-01-6.43376E+00 1.64400E-01 3.26924E-01
 -1      4303 4.73413E+00-2.70052E-01 7.12554E-02-4.17965E+00-5.32516E-04 4.54173E-01
 -1      4304 5.73022E+00-3.80079E-01 7.47271E-02-6.87185E+00-1.26660E-02 2.50864E-01
 -1      4305-2.45946E+02-1.39696E+01-5.03269E+01-7.11879E+00-1.08568E+00 1.70434E+01
 -1      4306-1.51410E+02-2.53362E+01-3.01923E+01-1.10550E+01-2.35132E+00 1.27184E+01
 -1      4307 3.28723E+00-1.55685E-02 3.75928E-01-6.33419E+00-7.21744E-02-2.68432E-01
 -1      4308 3.91508E+00-4.04810E-01 4.44136E-01-5.98578E+00-2.31308E-02-3.90970E-01
 -1      4309-2.55735E+02 3.10556E+00-4.63046E+00 3.60616E+00 5.60537E+00-9.60621E+00
 -1      4310-2.21806E+02 1.96758E+00-4.97780E+00 1.36608E+00 7.23367E-01-4.89858E+00
 -1      4311-2.23712E+02-2.50045E+00-1.64438E+01-6.33488E+00 1.81813E+00-9.35234E+00
 -1      4312-1.68723E+02-6.67538E+00-8.11077E+00-3.41104E+00 2.80542E+00-3.61918E+00
 -1      4313 4.39422E+01 1.33749E-01-2.44568E-02-7.36733E+00 5.64285E-02-1.46577E-01
 -1      4314 6.90525E+01 1.88031E-01 6.48482E-02-4.35251E+00 2.97708E-02-3.25481E-01
 -1      4315-2.37564E+02-1.07790E+01-3.70603E+01-3.83310E+00-6.01884E-01 2.54826E+01
 -1      4316-2.45073E+02-1.37546E+01-5.13123E+01-8.94783E+00 2.11855E+00-1.66964E+01
 -1      4317-1.52470E+02-2.52717E+01-3.06569E+01-1.09648E+01 2.18509E+00-1.20195E+01
 -1      4318 3.46491E+00 3.01929E-01 6.24203E-01-3.14325E+00-3.57795E-02-6.96964E-01
 -1      4319 3.30616E+00-1.58444E-01 3.80577E-01-3.20020E+00-4.26712E-02-3.86632E-01
 -1      4320 4.11149E+00-6.85870E-01 3.37657E-01-5.48837E+00-1.04420E-01-4.47986E-01
 -1      4321 1.35574E+02 1.43697E+01 4.20247E+00 2.96269E+00-2.74108E+00 8.96121E+00
 -1      4322-1.28904E+02-2.54734E+01-2.18886E+01 1.13516E+00 4.99683E-01 1.45476E+01
 -1      4323-1.82310E+02-2.08760E+01-1.50898E+01-1.77891E+00-1.33278E+00 1.45583E+01
 -1      4324-2.97582E+00 2.23729E-01-3.89783E-01-3.09351E+00-2.40821E-02-4.41753E-01
 -1      4325 1.87107E+02 2.99414E+01 2.00108E+01-1.97010E+00 2.16840E+00 1.54943E+01
 -1      4326 1.54623E+02 3.02322E+01 3.49197E+01-1.04120E+01 3.85601E+00 1.32020E+01
 -1      4327-2.37393E+02-1.08216E+01-3.76330E+01-3.77514E+00 7.79731E-01-2.57051E+01
 -1      4328-1.28598E+02-2.54515E+01-2.19270E+01 1.22161E+00-3.53575E-01-1.46000E+01
 -1      4329-1.82181E+02-2.09398E+01-1.52521E+01-1.70973E+00 1.27248E+00-1.45622E+01
 -1      4330-5.32756E+01-7.12504E-02-7.54763E-03-2.96883E+00 3.91058E-02 2.21962E-01
 -1      4331-3.32335E+01 1.50878E-01-1.25615E-02-6.27246E+00 2.64463E-03 1.16154E-01
 -1      4332-5.11586E+01 2.48532E-02 1.41181E-02-2.69526E+00-5.30810E-03 3.34201E-01
 -1      4333 3.29930E+01 2.09883E-01 9.69036E-03-7.21373E+00-6.63810E-03 1.17950E-01
 -1      4334 5.11398E+01 1.56329E-01-1.47595E-02-4.14885E+00-8.01512E-03 3.37496E-01
 -1      4335 5.32452E+01 2.68220E-01 6.10788E-03-4.47284E+00-4.71890E-02 2.22057E-01
 -1      4336-4.68176E+01 1.43934E-01 2.14138E-02-6.13074E+00-1.12168E-02-1.12338E-01
 -1      4337-7.34944E+01 1.38469E-01 6.22063E-03-2.45937E+00-2.34925E-02-3.39981E-01
 -1      4338-7.13643E+01 1.78753E-01-2.40959E-02-2.78808E+00-8.46493E-03-2.16218E-01
 -1      4339 7.95759E+01 1.32499E-01-4.04805E-02-4.76996E+00 3.45597E-02-2.35549E-01
 -1      4340 7.73974E+01 5.51869E-02-3.03301E-02-4.44653E+00 2.00979E-02-3.09787E-01
 -1      4341 4.98134E+01 1.42703E-01-3.00352E-02-7.42239E+00 1.23515E-03-9.11711E-02
 -1      4342 1.01244E+02-6.39609E-04-2.85044E-02-7.51942E+00-1.78328E-02 1.36360E-01
 -1      4343 1.56814E+02-9.19540E-02 3.92955E-02-4.93575E+00-1.19320E-02 2.12163E-01
 -1      4344 1.58897E+02-6.71655E-02 6.24690E-03-4.63022E+00-4.49722E-02 3.43196E-01
 -1      4345 1.12366E+02 2.33322E-01 1.24133E-02-4.97825E+00 4.88655E-02-2.21064E-01
 -1      4346 1.10256E+02 1.26115E-01-4.00560E-03-4.66814E+00 1.16535E-02-3.35266E-01
 -1      4347 7.08235E+01 1.44797E-01 1.26201E-02-7.54854E+00 1.42877E-02-1.25783E-01
 -1      4348-1.51605E+02-1.70954E-01-3.16428E-02-2.51068E+00-2.27480E-02-2.13782E-01
 -1      4349-1.49530E+02-8.65086E-02 3.27536E-03-2.22642E+00 3.48204E-02-3.46917E-01
 -1      4350-9.62383E+01 5.94105E-03-4.51832E-02-5.95965E+00 5.14034E-03-1.22768E-01
 -1      4351-7.10574E+01 8.62857E-02-1.50844E-03-5.95345E+00 1.25141E-02-1.31258E-01
 -1      4352-1.12293E+02-5.75437E-02 5.28689E-02-2.47705E+00-2.07165E-03-2.13505E-01
 -1      4353-1.10163E+02-2.05180E-02 6.23907E-04-2.16737E+00 1.23133E-02-3.31893E-01
 -1      4354-1.01788E+02 1.41143E-02 1.77476E-02-5.98655E+00-2.40613E-03 1.37152E-01
 -1      4355-1.56572E+02 1.00255E-01-3.52875E-02-2.54899E+00-4.47992E-03 2.07056E-01
 -1      4356-1.58669E+02 6.06886E-02 6.17635E-03-2.27419E+00 2.45688E-02 3.42745E-01
 -1      4357-3.09798E+00 2.21727E-01-4.63631E-01-3.07659E+00 6.44652E-02-6.45108E-01
 -1      4358-4.19600E+00 7.68140E-01-4.75197E-01-5.96492E+00 8.30333E-02-4.38584E-01
 -1      4359 9.67766E+01 4.49593E-02 3.44124E-02-7.51872E+00 1.57132E-02-1.26190E-01
 -1      4360 1.51713E+02 1.84895E-01 3.20431E-02-4.96223E+00 4.41901E-02-2.19194E-01
 -1      4361 1.49627E+02 9.24605E-02 6.13737E-03-4.70246E+00-1.08892E-02-3.49897E-01
 -1      4362-7.97141E+01 5.52163E-02-8.26019E-03-5.91115E+00-5.62484E-02 1.04513E-01
 -1      4363-1.23352E+02-6.97099E-02 2.57767E-02-2.17237E+00-5.09626E-02 3.31637E-01
 -1      4364-1.25423E+02-8.29234E-02 3.49694E-02-2.46193E+00-3.41116E-02 2.03852E-01
 -1      4365-2.61648E+01-8.00018E-02-5.44131E-02-3.43000E+00-4.73023E-04-2.07321E-01
 -1      4366 1.75965E+02-5.76929E-02-2.38990E-02-4.43751E+00 4.04341E-02-3.36923E-01
 -1      4367 1.14006E+02-4.98859E-02-3.78182E-02-7.36366E+00 3.36716E-02-1.17625E-01
 -1      4368 1.78102E+02 1.65233E-02-3.80476E-02-4.69291E+00 4.92765E-02-2.28959E-01
 -1      4369-8.39731E+01 5.67525E-04 2.72831E-02-2.69781E+00-1.51153E-02-2.23491E-01
 -1      4370-3.84285E+01 1.29683E-01-5.10107E-02-3.20927E+00 2.56688E-03-2.06134E-01
 -1      4371-1.00261E+02 1.82874E-01-6.92976E-03-2.33040E+00-3.14211E-02-2.25026E-01
 -1      4372-1.80272E+02-2.03801E-01-4.94044E-02-2.97420E+00-2.09170E-04-2.11577E-01
 -1      4373 2.47143E+02 1.47639E+01 5.08886E+01-7.70398E+00-9.18068E-01-1.72444E+01
 -1      4374 2.37877E+02 1.08390E+01 3.75936E+01-4.12686E+00-6.94263E-01-2.60339E+01
 -1      4375 1.55886E+02 2.65369E+01 3.46183E+01-1.07528E+01-3.78136E+00-1.36418E+01
 -1      4376 3.27087E+00-3.72015E-02 3.87727E-01-6.30988E+00 8.11441E-02 2.83939E-01
 -1      4377 4.05123E+00-6.75431E-01 2.58529E-01-5.55568E+00 1.22550E-01 5.12054E-01
 -1      4378 3.89827E+00-4.15166E-01 4.65369E-01-5.96471E+00 1.01995E-01 4.06261E-01
 -1      4379 1.33797E+02 1.36344E+01 3.17303E+00 4.25335E+00 2.94159E+00-9.31396E+00
 -1      4380 1.25624E+02 1.56470E-01-2.81935E-02-5.02504E+00 4.14122E-03 2.12104E-01
 -1      4381 7.97111E+01 7.38902E-02 1.85994E-02-7.55731E+00 9.71224E-03 1.11291E-01
 -1      4382 1.23519E+02 1.13305E-01-3.83927E-03-4.73445E+00 2.82466E-02 3.13363E-01
 -1      4383 2.39453E+02 1.46607E+01 4.78688E+01-9.24691E+00-1.47504E-01 1.85641E+01
 -1      4384 2.41307E+02 1.53905E+01 4.24892E+01-6.07821E+00 2.10162E+00 2.60702E+01
 -1      4385-1.92364E+02 3.48111E-04-4.04070E-02-3.12615E+00-4.33676E-02-3.39243E-01
 -1      4386-3.76014E+00 6.25684E-01-1.30727E-01-6.04855E+00 1.49849E-01-1.69628E-01
 -1      4387 1.87632E+02 2.81770E+01 1.95274E+01-2.09088E+00-1.99640E+00-1.58157E+01
 -1      4388 6.46781E+01 8.71140E-02-2.89223E-02-4.31933E+00 7.63470E-03-3.51899E-01
 -1      4389 4.17239E+01 1.47109E-01-8.62039E-03-7.32043E+00 7.56128E-03-1.00249E-01
 -1      4390 6.67569E+01 1.47647E-01-2.50118E-02-4.61722E+00 3.25126E-02-2.45009E-01
 -1      4391-4.31636E+00 8.57555E-01-3.14801E-01-5.54173E+00 1.17228E-01-5.06785E-01
 -1      4392 2.34145E+00 2.39428E-01 4.46084E-02-7.41682E+00-1.88878E-03-1.07177E-01
 -1      4393 2.75381E+00-8.94704E-02 3.40600E-01-3.06523E+00-5.64105E-02 4.88233E-01
 -1      4394 3.13756E+00-3.41507E-03 5.39810E-01-3.14017E+00 3.71922E-02 6.86917E-01
 -1      4395 3.43391E+00 1.15031E-01 6.44029E-02-7.99729E+00 1.16109E-02 2.80534E-02
 -1      4396 1.01642E+01 1.46554E-02 7.29187E-02-3.99121E+00 4.34481E-03 3.43098E-01
 -1      4397 6.71094E+00 6.80980E-02-3.79993E-02-7.25351E+00 9.05119E-02 1.11560E-01
 -1      4398 1.14944E+01 2.51179E-01-3.43071E-02-6.98234E+00 7.19931E-02 1.15109E-01
 -1      4399 8.76057E+00 8.77822E-02 3.11195E-02-7.21036E+00-3.65333E-02 1.08798E-01
 -1      4400 1.96836E+01 1.32647E-01-3.34926E-02-4.01905E+00-1.65132E-02 2.45675E-01
 -1      4401 1.25114E+01 7.63924E-02 8.38206E-03-4.37602E+00 4.86670E-03 2.32961E-01
 -1      4402 1.73292E+01 1.21907E-01 1.70760E-02-3.84387E+00 6.18500E-03 2.60811E-01
 -1      4403 2.18790E+01 2.35939E-01-1.43441E-02-4.31403E+00 2.96370E-02 1.89780E-01
 -1      4404 0.00000E+00 0.00000E+00 0.00000E+00 0.00000E+00 0.00000E+00 0.00000E+00
 -1      4405 0.00000E+00 0.00000E+00 0.00000E+00 0.00000E+00 0.00000E+00 0.00000E+00
 -3
    1PSTEP                         3           1           1          
  100CL  101 5.00000E-01        4405                     0    1           1
 -4  ERROR       1    1
 -5  STR(%)      1    1    0    0
 -1         1 1.20330E+01
 -1         2 1.20365E+01
 -1         3 1.16421E+01
 -1         4 1.15762E+01
 -1         5 2.20733E+01
 -1         6 2.20587E+01
 -1         7 2.18417E+01
 -1         8 2.15988E+01
 -1         9 1.02841E+01
 -1        10 1.04431E+01
 -1        11 1.00401E+01
 -1        12 1.11603E+01
 -1        13 1.03636E+01
 -1        14 1.02416E+01
 -1        15 1.10365E+01
 -1        16 1.57232E+01
 -1        17 3.10635E+01
 -1        18 1.63262E+01
 -1        19 1.38781E+01
 -1        20 2.33933E+01
 -1        21 2.36949E+01
 -1        22 1.39842E+01
 -1        23 9.34957E+00
 -1        24 1.05232E+01
 -1        25 1.07155E+01
 -1        26 1.04629E+01
 -1        27 9.93640E+00
 -1        28 1.06194E+01
 -1        29 1.11788E+01
 -1        30 1.57026E+01
 -1        31 3.07956E+01
 -1        32 1.62119E+01
 -1        33 1.38695E+01
 -1        34 2.32491E+01
 -1        35 2.35037E+01
 -1        36 1.38940E+01
 -1        37 2.38540E+01
 -1        38 2.44596E+01
 -1        39 2.42553E+01
 -1        40 2.29564E+01
 -1        41 2.41568E+01
 -1        42 2.43574E+01
 -1        43 2.31643E+01
 -1        44 6.47433E+00
 -1        45 7.34758E+00
 -1        46 6.78462E+00
 -1        47 1.42738E+01
 -1        48 6.91095E+00
 -1        49 7.06610E+00
 -1        50 1.43132E+01
 -1        51 2.38341E+01
 -1        52 2.51720E+01
 -1        53 2.50100E+01
 -1        54 2.27165E+01
 -1        55 2.45031E+01
 -1        56 2.50910E+01
 -1        57 2.34259E+01
 -1        58 6.91766E+00
 -1        59 6.78629E+00
 -1        60 7.08930E+00
 -1        61 1.44882E+01
 -1        62 6.85197E+00
 -1        63 6.93780E+00
 -1        64 1.43441E+01
 -1        65 8.73506E+00
 -1        66 8.50192E+00
 -1        67 7.93735E+00
 -1        68 1.12335E+01
 -1        69 8.06397E+00
 -1        70 1.11398E+01
 -1        71 8.12908E+00
 -1        72 8.14004E+00
 -1        73 1.11774E+01
 -1        74 1.00811E+01
 -1        75 8.15872E+00
 -1        76 8.25652E+00
 -1        77 1.11854E+01
 -1        78 8.08478E+00
 -1        79 9.84337E+00
 -1        80 1.10073E+01
 -1        81 8.31293E+00
 -1        82 8.32651E+00
 -1        83 1.12526E+01
 -1        84 8.09960E+00
 -1        85 1.09962E+01
 -1        86 8.20634E+00
 -1        87 1.02301E+01
 -1        88 9.44791E+00
 -1        89 8.55894E+00
 -1        90 9.47018E+00
 -1        91 1.03858E+01
 -1        92 1.10964E+01
 -1        93 8.78605E+00
 -1        94 1.03084E+01
 -1        95 9.57285E+00
 -1        96 9.73956E+00
 -1        97 2.20587E+01
 -1        98 1.03858E+01
 -1        99 8.61849E+00
 -1       100 8.21963E+00
 -1       101 9.58540E+00
 -1       102 9.64872E+00
 -1       103 9.60190E+00
 -1       104 9.63445E+00
 -1       105 8.13456E+00
 -1       106 9.65871E+00
 -1       107 1.06293E+01
 -1       108 9.11993E+00
 -1       109 8.20762E+00
 -1       110 9.72096E+00
 -1       111 9.63509E+00
 -1       112 8.96408E+00
 -1       113 1.04253E+01
 -1       114 9.66011E+00
 -1       115 8.31972E+00
 -1       116 9.78956E+00
 -1       117 9.67611E+00
 -1       118 9.54788E+00
 -1       119 9.60125E+00
 -1       120 9.21823E+00
 -1       121 9.83902E+00
 -1       122 9.00343E+00
 -1       123 9.01456E+00
 -1       124 9.92801E+00
 -1       125 1.07411E+01
 -1       126 9.94124E+00
 -1       127 9.54721E+00
 -1       128 9.94061E+00
 -1       129 9.65620E+00
 -1       130 1.58991E+01
 -1       131 2.20587E+01
 -1       132 8.72462E+00
 -1       133 8.50213E+00
 -1       134 1.10816E+01
 -1       135 1.05557E+01
 -1       136 8.17921E+00
 -1       137 1.04906E+01
 -1       138 8.19643E+00
 -1       139 1.10956E+01
 -1       140 8.08098E+00
 -1       141 8.23664E+00
 -1       142 9.87375E+00
 -1       143 1.10783E+01
 -1       144 7.94107E+00
 -1       145 1.01186E+01
 -1       146 9.70561E+00
 -1       147 8.05446E+00
 -1       148 9.81637E+00
 -1       149 1.09294E+01
 -1       150 9.38695E+00
 -1       151 8.36380E+00
 -1       152 1.02494E+01
 -1       153 1.11857E+01
 -1       154 1.00528E+01
 -1       155 8.58249E+00
 -1       156 1.06971E+01
 -1       157 8.20052E+00
 -1       158 8.76375E+00
 -1       159 1.04306E+01
 -1       160 8.86703E+00
 -1       161 1.00529E+01
 -1       162 8.38528E+00
 -1       163 7.87642E+00
 -1       164 2.20733E+01
 -1       165 1.03788E+01
 -1       166 8.61338E+00
 -1       167 9.79186E+00
 -1       168 1.08186E+01
 -1       169 9.36746E+00
 -1       170 9.33490E+00
 -1       171 9.34351E+00
 -1       172 9.64600E+00
 -1       173 9.58827E+00
 -1       174 8.15881E+00
 -1       175 9.05520E+00
 -1       176 1.04760E+01
 -1       177 9.50969E+00
 -1       178 9.02984E+00
 -1       179 9.91211E+00
 -1       180 8.88003E+00
 -1       181 8.93541E+00
 -1       182 1.03729E+01
 -1       183 1.01582E+01
 -1       184 8.87538E+00
 -1       185 9.30662E+00
 -1       186 1.07176E+01
 -1       187 1.06192E+01
 -1       188 9.31764E+00
 -1       189 9.63981E+00
 -1       190 9.44882E+00
 -1       191 8.48213E+00
 -1       192 9.59716E+00
 -1       193 9.64880E+00
 -1       194 9.45997E+00
 -1       195 9.21909E+00
 -1       196 8.13085E+00
 -1       197 1.49748E+01
 -1       198 2.20733E+01
 -1       199 8.81842E+00
 -1       200 8.53034E+00
 -1       201 1.09912E+01
 -1       202 8.03126E+00
 -1       203 8.09816E+00
 -1       204 7.95976E+00
 -1       205 9.93480E+00
 -1       206 1.11013E+01
 -1       207 8.02559E+00
 -1       208 8.04406E+00
 -1       209 9.89781E+00
 -1       210 1.10717E+01
 -1       211 7.99409E+00
 -1       212 7.94710E+00
 -1       213 7.95885E+00
 -1       214 8.32834E+00
 -1       215 9.82740E+00
 -1       216 1.09865E+01
 -1       217 8.19341E+00
 -1       218 8.25331E+00
 -1       219 8.18373E+00
 -1       220 9.67390E+00
 -1       221 1.07593E+01
 -1       222 9.41440E+00
 -1       223 1.06878E+01
 -1       224 8.57189E+00
 -1       225 8.60475E+00
 -1       226 8.81127E+00
 -1       227 8.03737E+00
 -1       228 9.16323E+00
 -1       229 9.55052E+00
 -1       230 9.82135E+00
 -1       231 2.14414E+01
 -1       232 1.01973E+01
 -1       233 8.67438E+00
 -1       234 9.76076E+00
 -1       235 9.51122E+00
 -1       236 8.06471E+00
 -1       237 8.02896E+00
 -1       238 8.94728E+00
 -1       239 1.05181E+01
 -1       240 9.56345E+00
 -1       241 8.03483E+00
 -1       242 8.97094E+00
 -1       243 1.04848E+01
 -1       244 9.53290E+00
 -1       245 7.97060E+00
 -1       246 7.95298E+00
 -1       247 8.14360E+00
 -1       248 9.07787E+00
 -1       249 1.04070E+01
 -1       250 9.58996E+00
 -1       251 8.22336E+00
 -1       252 8.21852E+00
 -1       253 8.92882E+00
 -1       254 1.02166E+01
 -1       255 1.00869E+01
 -1       256 1.00511E+01
 -1       257 9.62984E+00
 -1       258 8.58832E+00
 -1       259 8.70801E+00
 -1       260 8.42432E+00
 -1       261 8.60030E+00
 -1       262 9.35687E+00
 -1       263 9.68593E+00
 -1       264 1.56314E+01
 -1       265 2.15201E+01
 -1       266 8.82608E+00
 -1       267 8.53267E+00
 -1       268 8.15991E+00
 -1       269 1.13170E+01
 -1       270 8.09254E+00
 -1       271 1.12283E+01
 -1       272 8.21826E+00
 -1       273 8.23293E+00
 -1       274 1.12462E+01
 -1       275 1.01335E+01
 -1       276 8.27965E+00
 -1       277 8.12457E+00
 -1       278 1.12120E+01
 -1       279 8.10356E+00
 -1       280 9.85137E+00
 -1       281 1.10371E+01
 -1       282 8.13857E+00
 -1       283 8.37721E+00
 -1       284 8.23098E+00
 -1       285 8.04621E+00
 -1       286 1.07047E+01
 -1       287 8.44127E+00
 -1       288 1.01604E+01
 -1       289 9.37630E+00
 -1       290 8.55135E+00
 -1       291 9.46376E+00
 -1       292 1.03692E+01
 -1       293 1.10940E+01
 -1       294 8.76783E+00
 -1       295 1.01737E+01
 -1       296 9.61094E+00
 -1       297 9.49818E+00
 -1       298 2.18417E+01
 -1       299 1.02341E+01
 -1       300 8.67938E+00
 -1       301 8.34629E+00
 -1       302 9.73844E+00
 -1       303 9.70475E+00
 -1       304 9.66040E+00
 -1       305 9.72326E+00
 -1       306 8.22559E+00
 -1       307 9.73954E+00
 -1       308 1.06898E+01
 -1       309 9.20658E+00
 -1       310 8.20211E+00
 -1       311 9.66830E+00
 -1       312 9.65780E+00
 -1       313 8.97746E+00
 -1       314 1.04442E+01
 -1       315 9.58782E+00
 -1       316 8.25789E+00
 -1       317 8.30410E+00
 -1       318 8.13860E+00
 -1       319 9.37546E+00
 -1       320 9.57299E+00
 -1       321 9.30084E+00
 -1       322 9.76836E+00
 -1       323 8.96383E+00
 -1       324 9.00756E+00
 -1       325 9.91647E+00
 -1       326 1.07316E+01
 -1       327 9.93090E+00
 -1       328 9.47075E+00
 -1       329 9.89231E+00
 -1       330 9.55456E+00
 -1       331 1.56699E+01
 -1       332 2.18417E+01
 -1       333 1.41579E+01
 -1       334 1.29259E+01
 -1       335 3.07956E+01
 -1       336 1.25370E+01
 -1       337 3.74374E+01
 -1       338 3.20408E+01
 -1       339 1.25054E+01
 -1       340 3.38746E+01
 -1       341 3.10635E+01
 -1       342 3.74374E+01
 -1       343 1.31713E+01
 -1       344 1.17313E+01
 -1       345 1.32121E+01
 -1       346 1.19143E+01
 -1       347 3.74374E+01
 -1       348 1.26022E+01
 -1       349 1.16057E+01
 -1       350 1.44473E+01
 -1       351 1.17481E+01
 -1       352 1.26243E+01
 -1       353 1.44573E+01
 -1       354 1.17782E+01
 -1       355 1.41203E+01
 -1       356 1.13149E+01
 -1       357 1.16538E+01
 -1       358 1.05404E+01
 -1       359 1.39716E+01
 -1       360 1.14901E+01
 -1       361 1.14105E+01
 -1       362 1.28746E+01
 -1       363 1.14830E+01
 -1       364 1.16845E+01
 -1       365 1.27314E+01
 -1       366 1.30486E+01
 -1       367 3.15521E+01
 -1       368 2.38820E+01
 -1       369 2.26061E+01
 -1       370 2.36949E+01
 -1       371 3.10635E+01
 -1       372 3.15521E+01
 -1       373 2.14889E+01
 -1       374 1.09275E+01
 -1       375 1.15143E+01
 -1       376 1.21183E+01
 -1       377 1.23406E+01
 -1       378 1.24367E+01
 -1       379 1.33316E+01
 -1       380 1.30361E+01
 -1       381 2.47886E+01
 -1       382 3.23351E+01
 -1       383 2.35434E+01
 -1       384 3.07956E+01
 -1       385 2.35037E+01
 -1       386 3.23351E+01
 -1       387 2.12634E+01
 -1       388 2.49714E+01
 -1       389 2.57976E+01
 -1       390 2.26107E+01
 -1       391 2.57976E+01
 -1       392 3.42504E+01
 -1       393 3.74374E+01
 -1       394 2.51816E+01
 -1       395 2.49872E+01
 -1       396 2.24833E+01
 -1       397 3.47391E+01
 -1       398 2.16505E+01
 -1       399 3.41165E+01
 -1       400 3.56560E+01
 -1       401 3.56560E+01
 -1       402 2.32058E+01
 -1       403 3.47391E+01
 -1       404 3.74374E+01
 -1       405 3.74374E+01
 -1       406 7.34758E+00
 -1       407 7.14482E+00
 -1       408 2.42553E+01
 -1       409 7.14482E+00
 -1       410 7.14482E+00
 -1       411 2.51720E+01
 -1       412 7.34758E+00
 -1       413 2.44596E+01
 -1       414 2.50100E+01
 -1       415 7.09718E+00
 -1       416 2.00409E+01
 -1       417 2.38341E+01
 -1       418 2.38540E+01
 -1       419 2.02826E+01
 -1       420 7.28748E+00
 -1       421 2.21481E+01
 -1       422 2.10571E+01
 -1       423 1.32576E+01
 -1       424 2.29564E+01
 -1       425 2.38540E+01
 -1       426 1.53858E+01
 -1       427 1.35336E+01
 -1       428 2.10621E+01
 -1       429 2.26463E+01
 -1       430 2.38341E+01
 -1       431 2.27165E+01
 -1       432 1.54617E+01
 -1       433 2.41568E+01
 -1       434 2.44596E+01
 -1       435 2.41568E+01
 -1       436 2.43574E+01
 -1       437 2.42553E+01
 -1       438 2.43574E+01
 -1       439 2.21481E+01
 -1       440 6.91095E+00
 -1       441 7.34758E+00
 -1       442 1.36942E+01
 -1       443 7.34758E+00
 -1       444 7.06610E+00
 -1       445 7.34758E+00
 -1       446 1.38151E+01
 -1       447 2.51720E+01
 -1       448 2.45031E+01
 -1       449 2.45031E+01
 -1       450 2.50100E+01
 -1       451 2.50910E+01
 -1       452 2.50910E+01
 -1       453 2.26463E+01
 -1       454 6.96555E+00
 -1       455 7.03124E+00
 -1       456 1.54994E+01
 -1       457 7.11706E+00
 -1       458 6.96555E+00
 -1       459 7.14482E+00
 -1       460 1.54895E+01
 -1       461 7.31753E+00
 -1       462 7.31753E+00
 -1       463 7.22238E+00
 -1       464 1.60536E+01
 -1       465 1.61788E+01
 -1       466 7.19233E+00
 -1       467 7.14482E+00
 -1       468 7.14482E+00
 -1       469 1.61584E+01
 -1       470 1.61584E+01
 -1       471 1.58014E+01
 -1       472 1.57714E+01
 -1       473 1.58735E+01
 -1       474 1.58022E+01
 -1       475 1.58022E+01
 -1       476 1.61346E+01
 -1       477 7.12100E+00
 -1       478 7.21615E+00
 -1       479 9.56597E+00
 -1       480 1.15366E+01
 -1       481 1.29302E+01
 -1       482 1.03526E+01
 -1       483 1.15816E+01
 -1       484 1.82753E+01
 -1       485 1.22755E+01
 -1       486 1.13526E+01
 -1       487 1.15883E+01
 -1       488 1.21734E+01
 -1       489 1.13256E+01
 -1       490 1.25011E+01
 -1       491 1.00907E+01
 -1       492 1.11734E+01
 -1       493 1.17755E+01
 -1       494 1.19947E+01
 -1       495 1.12432E+01
 -1       496 1.94091E+01
 -1       497 1.63685E+01
 -1       498 1.16788E+01
 -1       499 1.95149E+01
 -1       500 1.24305E+01
 -1       501 1.95948E+01
 -1       502 9.82183E+00
 -1       503 1.04431E+01
 -1       504 2.44596E+01
 -1       505 9.54622E+00
 -1       506 1.09326E+01
 -1       507 9.08431E+00
 -1       508 1.90701E+01
 -1       509 1.06820E+01
 -1       510 1.12260E+01
 -1       511 1.96254E+01
 -1       512 1.03284E+01
 -1       513 1.69870E+01
 -1       514 1.29310E+01
 -1       515 1.22707E+01
 -1       516 1.13243E+01
 -1       517 1.01000E+01
 -1       518 1.20694E+01
 -1       519 1.60801E+01
 -1       520 1.15051E+01
 -1       521 1.96465E+01
 -1       522 1.95885E+01
 -1       523 1.11214E+01
 -1       524 1.24084E+01
 -1       525 1.14133E+01
 -1       526 1.24650E+01
 -1       527 1.10819E+01
 -1       528 1.13917E+01
 -1       529 1.29302E+01
 -1       530 1.22859E+01
 -1       531 1.22920E+01
 -1       532 1.07670E+01
 -1       533 1.22859E+01
 -1       534 1.96410E+01
 -1       535 1.50284E+01
 -1       536 1.93849E+01
 -1       537 9.85689E+00
 -1       538 1.08205E+01
 -1       539 1.21462E+01
 -1       540 1.09322E+01
 -1       541 2.00634E+01
 -1       542 1.99024E+01
 -1       543 1.02677E+01
 -1       544 1.07470E+01
 -1       545 1.21979E+01
 -1       546 1.28642E+01
 -1       547 1.29185E+01
 -1       548 1.68220E+01
 -1       549 1.63685E+01
 -1       550 1.96046E+01
 -1       551 1.89914E+01
 -1       552 1.91877E+01
 -1       553 1.87545E+01
 -1       554 1.74879E+01
 -1       555 1.83664E+01
 -1       556 1.20923E+01
 -1       557 1.94825E+01
 -1       558 1.67218E+01
 -1       559 1.68110E+01
 -1       560 1.52723E+01
 -1       561 1.19814E+01
 -1       562 1.99121E+01
 -1       563 1.24906E+01
 -1       564 1.94382E+01
 -1       565 1.98990E+01
 -1       566 1.25073E+01
 -1       567 1.29403E+01
 -1       568 1.93650E+01
 -1       569 1.99096E+01
 -1       570 1.28533E+01
 -1       571 1.95528E+01
 -1       572 1.92445E+01
 -1       573 9.34262E+00
 -1       574 1.90910E+01
 -1       575 2.44596E+01
 -1       576 1.25454E+01
 -1       577 1.13700E+01
 -1       578 2.03095E+01
 -1       579 1.01360E+01
 -1       580 1.01430E+01
 -1       581 2.38540E+01
 -1       582 2.42553E+01
 -1       583 1.13700E+01
 -1       584 1.00880E+01
 -1       585 1.10845E+01
 -1       586 9.43028E+00
 -1       587 1.10897E+01
 -1       588 1.02135E+01
 -1       589 9.43902E+00
 -1       590 2.31643E+01
 -1       591 2.42553E+01
 -1       592 2.31643E+01
 -1       593 2.38540E+01
 -1       594 2.29564E+01
 -1       595 2.29564E+01
 -1       596 1.03636E+01
 -1       597 1.04431E+01
 -1       598 1.02930E+01
 -1       599 1.05951E+01
 -1       600 1.03935E+01
 -1       601 1.05951E+01
 -1       602 1.04415E+01
 -1       603 2.44596E+01
 -1       604 2.41568E+01
 -1       605 2.41568E+01
 -1       606 2.43574E+01
 -1       607 2.44596E+01
 -1       608 2.44596E+01
 -1       609 2.43574E+01
 -1       610 1.05237E+01
 -1       611 1.06402E+01
 -1       612 1.13442E+01
 -1       613 9.96601E+00
 -1       614 1.02483E+01
 -1       615 1.22700E+01
 -1       616 1.54294E+01
 -1       617 1.37814E+01
 -1       618 1.58100E+01
 -1       619 9.19621E+00
 -1       620 1.07810E+01
 -1       621 1.49769E+01
 -1       622 1.13640E+01
 -1       623 9.82612E+00
 -1       624 1.09584E+01
 -1       625 1.38850E+01
 -1       626 1.53904E+01
 -1       627 1.56146E+01
 -1       628 1.01567E+01
 -1       629 1.01512E+01
 -1       630 1.59072E+01
 -1       631 1.54119E+01
 -1       632 1.38933E+01
 -1       633 1.59099E+01
 -1       634 1.06273E+01
 -1       635 1.11754E+01
 -1       636 1.54100E+01
 -1       637 9.00780E+00
 -1       638 9.96901E+00
 -1       639 1.05152E+01
 -1       640 1.03788E+01
 -1       641 1.03299E+01
 -1       642 1.11790E+01
 -1       643 1.53870E+01
 -1       644 1.39225E+01
 -1       645 1.60448E+01
 -1       646 9.60311E+00
 -1       647 1.11534E+01
 -1       648 1.53550E+01
 -1       649 9.96704E+00
 -1       650 9.08775E+00
 -1       651 1.06061E+01
 -1       652 1.11995E+01
 -1       653 1.06175E+01
 -1       654 1.07412E+01
 -1       655 1.38610E+01
 -1       656 1.52082E+01
 -1       657 1.54004E+01
 -1       658 1.01980E+01
 -1       659 1.01912E+01
 -1       660 1.57393E+01
 -1       661 1.53187E+01
 -1       662 1.38557E+01
 -1       663 1.57271E+01
 -1       664 9.22612E+00
 -1       665 1.08026E+01
 -1       666 1.48688E+01
 -1       667 1.12506E+01
 -1       668 9.80234E+00
 -1       669 1.09289E+01
 -1       670 1.36382E+01
 -1       671 1.50331E+01
 -1       672 1.52876E+01
 -1       673 1.11882E+01
 -1       674 1.01763E+01
 -1       675 1.56082E+01
 -1       676 9.50694E+00
 -1       677 9.89804E+00
 -1       678 1.08561E+01
 -1       679 1.04148E+01
 -1       680 1.08593E+01
 -1       681 1.09183E+01
 -1       682 1.00761E+01
 -1       683 9.62047E+00
 -1       684 1.14763E+01
 -1       685 1.07339E+01
 -1       686 1.02760E+01
 -1       687 1.08819E+01
 -1       688 1.13165E+01
 -1       689 1.09612E+01
 -1       690 1.13092E+01
 -1       691 1.05360E+01
 -1       692 1.16912E+01
 -1       693 1.19113E+01
 -1       694 1.12972E+01
 -1       695 1.05360E+01
 -1       696 1.22859E+01
 -1       697 1.29707E+01
 -1       698 1.33384E+01
 -1       699 1.43272E+01
 -1       700 1.13353E+01
 -1       701 1.12519E+01
 -1       702 1.46497E+01
 -1       703 1.66509E+01
 -1       704 1.04914E+01
 -1       705 1.20871E+01
 -1       706 1.75486E+01
 -1       707 1.02501E+01
 -1       708 1.01388E+01
 -1       709 1.09557E+01
 -1       710 9.86406E+00
 -1       711 1.11538E+01
 -1       712 1.15007E+01
 -1       713 1.12036E+01
 -1       714 1.09406E+01
 -1       715 1.12758E+01
 -1       716 1.36889E+01
 -1       717 1.25006E+01
 -1       718 1.40738E+01
 -1       719 9.22346E+00
 -1       720 1.03792E+01
 -1       721 1.35449E+01
 -1       722 1.10847E+01
 -1       723 9.93763E+00
 -1       724 1.09733E+01
 -1       725 9.48174E+00
 -1       726 1.09313E+01
 -1       727 1.12229E+01
 -1       728 1.53452E+01
 -1       729 1.38379E+01
 -1       730 1.51809E+01
 -1       731 1.01865E+01
 -1       732 1.02643E+01
 -1       733 1.59434E+01
 -1       734 9.02924E+00
 -1       735 9.84779E+00
 -1       736 1.10569E+01
 -1       737 1.06435E+01
 -1       738 1.12458E+01
 -1       739 1.06176E+01
 -1       740 1.52966E+01
 -1       741 1.37280E+01
 -1       742 1.54641E+01
 -1       743 1.00695E+01
 -1       744 1.11583E+01
 -1       745 1.58564E+01
 -1       746 9.73062E+00
 -1       747 9.52411E+00
 -1       748 1.07703E+01
 -1       749 1.10681E+01
 -1       750 1.02425E+01
 -1       751 1.08866E+01
 -1       752 9.07721E+00
 -1       753 9.95816E+00
 -1       754 1.12652E+01
 -1       755 1.05845E+01
 -1       756 1.11410E+01
 -1       757 1.07263E+01
 -1       758 1.08749E+01
 -1       759 1.01037E+01
 -1       760 1.10865E+01
 -1       761 9.23563E+00
 -1       762 8.72405E+00
 -1       763 9.95239E+00
 -1       764 1.22220E+01
 -1       765 1.31648E+01
 -1       766 1.25822E+01
 -1       767 1.09155E+01
 -1       768 1.13836E+01
 -1       769 1.38308E+01
 -1       770 1.10589E+01
 -1       771 1.04925E+01
 -1       772 1.12569E+01
 -1       773 9.79951E+00
 -1       774 9.06436E+00
 -1       775 1.02392E+01
 -1       776 9.95337E+00
 -1       777 1.10107E+01
 -1       778 1.04352E+01
 -1       779 1.44862E+01
 -1       780 1.32379E+01
 -1       781 1.47998E+01
 -1       782 1.03328E+01
 -1       783 1.06144E+01
 -1       784 1.53702E+01
 -1       785 9.84816E+00
 -1       786 1.06816E+01
 -1       787 1.16988E+01
 -1       788 1.27295E+01
 -1       789 1.19477E+01
 -1       790 1.29805E+01
 -1       791 1.05713E+01
 -1       792 1.11642E+01
 -1       793 1.36519E+01
 -1       794 1.14915E+01
 -1       795 1.06577E+01
 -1       796 1.26028E+01
 -1       797 1.06577E+01
 -1       798 1.04033E+01
 -1       799 1.29302E+01
 -1       800 9.62320E+00
 -1       801 1.67216E+01
 -1       802 1.21501E+01
 -1       803 1.78126E+01
 -1       804 1.25620E+01
 -1       805 1.12096E+01
 -1       806 1.08291E+01
 -1       807 1.21192E+01
 -1       808 1.24728E+01
 -1       809 1.52640E+01
 -1       810 1.50367E+01
 -1       811 1.48869E+01
 -1       812 1.45123E+01
 -1       813 1.82397E+01
 -1       814 1.46493E+01
 -1       815 1.46493E+01
 -1       816 1.29243E+01
 -1       817 1.46435E+01
 -1       818 1.21442E+01
 -1       819 1.41135E+01
 -1       820 1.35372E+01
 -1       821 1.43595E+01
 -1       822 1.88756E+01
 -1       823 1.75441E+01
 -1       824 1.77813E+01
 -1       825 1.55320E+01
 -1       826 1.51680E+01
 -1       827 1.48433E+01
 -1       828 1.91185E+01
 -1       829 1.16529E+01
 -1       830 1.51284E+01
 -1       831 1.87315E+01
 -1       832 1.58264E+01
 -1       833 1.55846E+01
 -1       834 1.45432E+01
 -1       835 1.48706E+01
 -1       836 1.51503E+01
 -1       837 1.37739E+01
 -1       838 1.60416E+01
 -1       839 1.48264E+01
 -1       840 1.54527E+01
 -1       841 1.56324E+01
 -1       842 1.53663E+01
 -1       843 1.97324E+01
 -1       844 1.42876E+01
 -1       845 1.36577E+01
 -1       846 1.55964E+01
 -1       847 1.82958E+01
 -1       848 1.96228E+01
 -1       849 1.97728E+01
 -1       850 1.60362E+01
 -1       851 1.58058E+01
 -1       852 1.95396E+01
 -1       853 1.96686E+01
 -1       854 1.55642E+01
 -1       855 1.56140E+01
 -1       856 1.94967E+01
 -1       857 1.52083E+01
 -1       858 1.79565E+01
 -1       859 1.97491E+01
 -1       860 1.62053E+01
 -1       861 1.27207E+01
 -1       862 1.13986E+01
 -1       863 1.64250E+01
 -1       864 1.12496E+01
 -1       865 1.17649E+01
 -1       866 1.14775E+01
 -1       867 1.26363E+01
 -1       868 1.21280E+01
 -1       869 1.52692E+01
 -1       870 1.95058E+01
 -1       871 1.11821E+01
 -1       872 1.18404E+01
 -1       873 1.59361E+01
 -1       874 1.59195E+01
 -1       875 1.56447E+01
 -1       876 1.60425E+01
 -1       877 2.01865E+01
 -1       878 1.12613E+01
 -1       879 1.55283E+01
 -1       880 1.97639E+01
 -1       881 1.59486E+01
 -1       882 1.60290E+01
 -1       883 1.99829E+01
 -1       884 1.63044E+01
 -1       885 1.20808E+01
 -1       886 1.29247E+01
 -1       887 1.13066E+01
 -1       888 1.21442E+01
 -1       889 1.78514E+01
 -1       890 1.79148E+01
 -1       891 1.58111E+01
 -1       892 1.94810E+01
 -1       893 1.59499E+01
 -1       894 1.19412E+01
 -1       895 1.60217E+01
 -1       896 1.46497E+01
 -1       897 1.63685E+01
 -1       898 1.65897E+01
 -1       899 1.45485E+01
 -1       900 1.65897E+01
 -1       901 1.55585E+01
 -1       902 1.51026E+01
 -1       903 1.49362E+01
 -1       904 1.56417E+01
 -1       905 1.95214E+01
 -1       906 1.56615E+01
 -1       907 1.97123E+01
 -1       908 1.93797E+01
 -1       909 1.57212E+01
 -1       910 1.95771E+01
 -1       911 1.24606E+01
 -1       912 1.12953E+01
 -1       913 1.26474E+01
 -1       914 1.26774E+01
 -1       915 1.11034E+01
 -1       916 1.94799E+01
 -1       917 1.58285E+01
 -1       918 1.53330E+01
 -1       919 1.97469E+01
 -1       920 1.96320E+01
 -1       921 1.13811E+01
 -1       922 1.21768E+01
 -1       923 1.23997E+01
 -1       924 1.11646E+01
 -1       925 1.27238E+01
 -1       926 1.53763E+01
 -1       927 1.14943E+01
 -1       928 1.64275E+01
 -1       929 1.79148E+01
 -1       930 1.79148E+01
 -1       931 1.13700E+01
 -1       932 1.11998E+01
 -1       933 1.20888E+01
 -1       934 1.15122E+01
 -1       935 1.08193E+01
 -1       936 1.57282E+01
 -1       937 1.49620E+01
 -1       938 1.42102E+01
 -1       939 1.62581E+01
 -1       940 1.29031E+01
 -1       941 1.64010E+01
 -1       942 1.45934E+01
 -1       943 1.37254E+01
 -1       944 1.92763E+01
 -1       945 1.54938E+01
 -1       946 1.54504E+01
 -1       947 1.89123E+01
 -1       948 1.13317E+01
 -1       949 1.21261E+01
 -1       950 1.51348E+01
 -1       951 1.49349E+01
 -1       952 1.47097E+01
 -1       953 1.93582E+01
 -1       954 1.80390E+01
 -1       955 1.36273E+01
 -1       956 1.69045E+01
 -1       957 1.24174E+01
 -1       958 1.96485E+01
 -1       959 1.59908E+01
 -1       960 1.81022E+01
 -1       961 1.51830E+01
 -1       962 1.94165E+01
 -1       963 1.58265E+01
 -1       964 1.23032E+01
 -1       965 1.08755E+01
 -1       966 1.90896E+01
 -1       967 1.37791E+01
 -1       968 1.37791E+01
 -1       969 1.63801E+01
 -1       970 1.91393E+01
 -1       971 1.54234E+01
 -1       972 1.06672E+01
 -1       973 1.74953E+01
 -1       974 9.49818E+00
 -1       975 1.22387E+01
 -1       976 1.11759E+01
 -1       977 1.82784E+01
 -1       978 1.22758E+01
 -1       979 1.22576E+01
 -1       980 1.19326E+01
 -1       981 1.14211E+01
 -1       982 1.19024E+01
 -1       983 1.14247E+01
 -1       984 1.91808E+01
 -1       985 1.23325E+01
 -1       986 1.22445E+01
 -1       987 1.05144E+01
 -1       988 1.05382E+01
 -1       989 1.22361E+01
 -1       990 1.00338E+01
 -1       991 1.14290E+01
 -1       992 1.13426E+01
 -1       993 1.10650E+01
 -1       994 1.20636E+01
 -1       995 1.96970E+01
 -1       996 1.96177E+01
 -1       997 1.14028E+01
 -1       998 1.97043E+01
 -1       999 9.91691E+00
 -1      1000 1.03845E+01
 -1      1001 2.51720E+01
 -1      1002 1.17133E+01
 -1      1003 1.23189E+01
 -1      1004 1.24010E+01
 -1      1005 1.26534E+01
 -1      1006 1.14290E+01
 -1      1007 1.12835E+01
 -1      1008 1.15504E+01
 -1      1009 1.09841E+01
 -1      1010 1.94240E+01
 -1      1011 1.13899E+01
 -1      1012 1.13974E+01
 -1      1013 1.93856E+01
 -1      1014 1.96670E+01
 -1      1015 1.95733E+01
 -1      1016 1.22819E+01
 -1      1017 1.99819E+01
 -1      1018 1.25454E+01
 -1      1019 1.28619E+01
 -1      1020 1.25131E+01
 -1      1021 1.22569E+01
 -1      1022 1.02457E+01
 -1      1023 1.22472E+01
 -1      1024 1.12320E+01
 -1      1025 1.22240E+01
 -1      1026 1.22967E+01
 -1      1027 9.49379E+00
 -1      1028 1.18226E+01
 -1      1029 1.24447E+01
 -1      1030 9.85823E+00
 -1      1031 1.22758E+01
 -1      1032 1.12573E+01
 -1      1033 1.06729E+01
 -1      1034 1.83829E+01
 -1      1035 1.98914E+01
 -1      1036 1.13745E+01
 -1      1037 1.07155E+01
 -1      1038 1.11477E+01
 -1      1039 1.88961E+01
 -1      1040 1.24945E+01
 -1      1041 1.18252E+01
 -1      1042 1.54042E+01
 -1      1043 1.22256E+01
 -1      1044 1.86909E+01
 -1      1045 1.73786E+01
 -1      1046 1.19879E+01
 -1      1047 1.69299E+01
 -1      1048 1.16150E+01
 -1      1049 1.98609E+01
 -1      1050 1.95093E+01
 -1      1051 1.21135E+01
 -1      1052 1.21315E+01
 -1      1053 1.91693E+01
 -1      1054 1.24946E+01
 -1      1055 1.96066E+01
 -1      1056 1.99589E+01
 -1      1057 1.92441E+01
 -1      1058 1.25850E+01
 -1      1059 1.29672E+01
 -1      1060 1.94331E+01
 -1      1061 1.23256E+01
 -1      1062 1.27743E+01
 -1      1063 1.99519E+01
 -1      1064 1.95669E+01
 -1      1065 1.93101E+01
 -1      1066 1.01186E+01
 -1      1067 1.96015E+01
 -1      1068 2.51720E+01
 -1      1069 1.16327E+01
 -1      1070 1.07076E+01
 -1      1071 1.85958E+01
 -1      1072 1.02573E+01
 -1      1073 1.03281E+01
 -1      1074 2.38341E+01
 -1      1075 2.50100E+01
 -1      1076 1.05382E+01
 -1      1077 1.09497E+01
 -1      1078 1.04864E+01
 -1      1079 9.54171E+00
 -1      1080 9.83884E+00
 -1      1081 1.09522E+01
 -1      1082 9.57326E+00
 -1      1083 2.50100E+01
 -1      1084 2.34259E+01
 -1      1085 2.34259E+01
 -1      1086 2.27165E+01
 -1      1087 2.38341E+01
 -1      1088 2.26378E+01
 -1      1089 1.04539E+01
 -1      1090 9.86705E+00
 -1      1091 1.03563E+01
 -1      1092 1.07155E+01
 -1      1093 1.06194E+01
 -1      1094 1.05500E+01
 -1      1095 1.04864E+01
 -1      1096 2.45031E+01
 -1      1097 2.51720E+01
 -1      1098 2.45031E+01
 -1      1099 2.51720E+01
 -1      1100 2.50910E+01
 -1      1101 2.51720E+01
 -1      1102 2.50910E+01
 -1      1103 1.02256E+01
 -1      1104 1.00815E+01
 -1      1105 1.09804E+01
 -1      1106 9.52237E+00
 -1      1107 1.07528E+01
 -1      1108 1.10735E+01
 -1      1109 1.16551E+01
 -1      1110 1.01751E+01
 -1      1111 1.14167E+01
 -1      1112 1.02161E+01
 -1      1113 1.02496E+01
 -1      1114 1.23599E+01
 -1      1115 1.00154E+01
 -1      1116 9.94616E+00
 -1      1117 1.21668E+01
 -1      1118 9.89120E+00
 -1      1119 1.08787E+01
 -1      1120 1.18776E+01
 -1      1121 1.06780E+01
 -1      1122 1.12612E+01
 -1      1123 1.16219E+01
 -1      1124 1.53841E+01
 -1      1125 1.38463E+01
 -1      1126 1.55440E+01
 -1      1127 1.01790E+01
 -1      1128 1.01883E+01
 -1      1129 1.59997E+01
 -1      1130 8.95114E+00
 -1      1131 9.87802E+00
 -1      1132 1.10953E+01
 -1      1133 1.06613E+01
 -1      1134 1.12482E+01
 -1      1135 1.06415E+01
 -1      1136 1.53225E+01
 -1      1137 1.37837E+01
 -1      1138 1.54990E+01
 -1      1139 1.01380E+01
 -1      1140 1.01145E+01
 -1      1141 1.59276E+01
 -1      1142 1.35640E+01
 -1      1143 1.35698E+01
 -1      1144 1.57314E+01
 -1      1145 1.01079E+01
 -1      1146 1.02926E+01
 -1      1147 1.57189E+01
 -1      1148 9.18106E+00
 -1      1149 9.93059E+00
 -1      1150 1.11453E+01
 -1      1151 1.06087E+01
 -1      1152 1.11882E+01
 -1      1153 1.07119E+01
 -1      1154 1.17156E+01
 -1      1155 1.03191E+01
 -1      1156 1.19173E+01
 -1      1157 1.02161E+01
 -1      1158 1.02460E+01
 -1      1159 1.23417E+01
 -1      1160 9.82535E+00
 -1      1161 9.79056E+00
 -1      1162 1.18181E+01
 -1      1163 9.67984E+00
 -1      1164 1.04249E+01
 -1      1165 1.12867E+01
 -1      1166 1.04656E+01
 -1      1167 1.10083E+01
 -1      1168 1.12166E+01
 -1      1169 1.07133E+01
 -1      1170 1.00408E+01
 -1      1171 1.09623E+01
 -1      1172 1.03490E+01
 -1      1173 1.09857E+01
 -1      1174 1.09753E+01
 -1      1175 1.44831E+01
 -1      1176 1.34251E+01
 -1      1177 1.47810E+01
 -1      1178 1.05425E+01
 -1      1179 1.05589E+01
 -1      1180 1.53957E+01
 -1      1181 1.30500E+01
 -1      1182 1.31533E+01
 -1      1183 1.50042E+01
 -1      1184 1.05540E+01
 -1      1185 1.01670E+01
 -1      1186 1.48960E+01
 -1      1187 1.01423E+01
 -1      1188 1.07052E+01
 -1      1189 1.22720E+01
 -1      1190 1.02961E+01
 -1      1191 1.04897E+01
 -1      1192 1.18381E+01
 -1      1193 1.04897E+01
 -1      1194 1.06252E+01
 -1      1195 1.14290E+01
 -1      1196 1.01798E+01
 -1      1197 1.59898E+01
 -1      1198 1.09836E+01
 -1      1199 1.71862E+01
 -1      1200 1.03886E+01
 -1      1201 1.05353E+01
 -1      1202 1.12509E+01
 -1      1203 9.93658E+00
 -1      1204 1.01230E+01
 -1      1205 1.19789E+01
 -1      1206 1.16097E+01
 -1      1207 1.00312E+01
 -1      1208 1.18078E+01
 -1      1209 9.95887E+00
 -1      1210 1.15711E+01
 -1      1211 1.18638E+01
 -1      1212 1.13014E+01
 -1      1213 9.73351E+00
 -1      1214 1.15998E+01
 -1      1215 1.39577E+01
 -1      1216 1.54627E+01
 -1      1217 1.55358E+01
 -1      1218 1.02285E+01
 -1      1219 1.02212E+01
 -1      1220 1.59605E+01
 -1      1221 1.54752E+01
 -1      1222 1.39686E+01
 -1      1223 1.59642E+01
 -1      1224 1.06827E+01
 -1      1225 1.12391E+01
 -1      1226 1.54681E+01
 -1      1227 9.09828E+00
 -1      1228 1.00252E+01
 -1      1229 1.05744E+01
 -1      1230 1.03350E+01
 -1      1231 1.04125E+01
 -1      1232 1.12312E+01
 -1      1233 1.54149E+01
 -1      1234 1.38711E+01
 -1      1235 1.60815E+01
 -1      1236 9.62563E+00
 -1      1237 1.11799E+01
 -1      1238 1.53827E+01
 -1      1239 9.98498E+00
 -1      1240 9.11108E+00
 -1      1241 1.06331E+01
 -1      1242 1.12199E+01
 -1      1243 1.06271E+01
 -1      1244 1.07607E+01
 -1      1245 1.37813E+01
 -1      1246 1.52305E+01
 -1      1247 1.54134E+01
 -1      1248 1.03174E+01
 -1      1249 1.01981E+01
 -1      1250 1.58408E+01
 -1      1251 1.38083E+01
 -1      1252 1.38814E+01
 -1      1253 1.58216E+01
 -1      1254 9.51516E+00
 -1      1255 9.60754E+00
 -1      1256 1.51849E+01
 -1      1257 1.10237E+01
 -1      1258 9.69440E+00
 -1      1259 1.11634E+01
 -1      1260 1.06516E+01
 -1      1261 1.17833E+01
 -1      1262 1.21023E+01
 -1      1263 1.11120E+01
 -1      1264 1.02524E+01
 -1      1265 1.24628E+01
 -1      1266 9.43505E+00
 -1      1267 9.82710E+00
 -1      1268 1.07787E+01
 -1      1269 1.03937E+01
 -1      1270 1.08062E+01
 -1      1271 1.08649E+01
 -1      1272 1.00683E+01
 -1      1273 9.61214E+00
 -1      1274 1.14545E+01
 -1      1275 1.07171E+01
 -1      1276 1.02644E+01
 -1      1277 1.08690E+01
 -1      1278 1.13222E+01
 -1      1279 1.09598E+01
 -1      1280 1.13077E+01
 -1      1281 1.05218E+01
 -1      1282 1.16849E+01
 -1      1283 1.19131E+01
 -1      1284 1.12247E+01
 -1      1285 1.05218E+01
 -1      1286 1.22758E+01
 -1      1287 9.92830E+00
 -1      1288 1.02097E+01
 -1      1289 1.12607E+01
 -1      1290 9.49818E+00
 -1      1291 9.55456E+00
 -1      1292 9.87192E+00
 -1      1293 1.62746E+01
 -1      1294 1.01029E+01
 -1      1295 1.01029E+01
 -1      1296 1.78588E+01
 -1      1297 1.17207E+01
 -1      1298 1.20289E+01
 -1      1299 1.16854E+01
 -1      1300 1.13903E+01
 -1      1301 1.24439E+01
 -1      1302 1.56020E+01
 -1      1303 1.80931E+01
 -1      1304 1.74369E+01
 -1      1305 1.48376E+01
 -1      1306 1.80347E+01
 -1      1307 1.24512E+01
 -1      1308 1.28249E+01
 -1      1309 1.39494E+01
 -1      1310 1.09963E+01
 -1      1311 1.16010E+01
 -1      1312 1.22822E+01
 -1      1313 1.18615E+01
 -1      1314 1.58444E+01
 -1      1315 1.57414E+01
 -1      1316 1.57849E+01
 -1      1317 1.15062E+01
 -1      1318 1.13955E+01
 -1      1319 1.53426E+01
 -1      1320 1.53833E+01
 -1      1321 1.55622E+01
 -1      1322 1.16357E+01
 -1      1323 1.51331E+01
 -1      1324 1.87238E+01
 -1      1325 1.58412E+01
 -1      1326 1.55786E+01
 -1      1327 1.35878E+01
 -1      1328 1.46028E+01
 -1      1329 1.22036E+01
 -1      1330 1.22036E+01
 -1      1331 1.45307E+01
 -1      1332 1.59122E+01
 -1      1333 1.94954E+01
 -1      1334 1.96233E+01
 -1      1335 1.60593E+01
 -1      1336 1.97139E+01
 -1      1337 1.25272E+01
 -1      1338 1.22930E+01
 -1      1339 1.24395E+01
 -1      1340 1.20791E+01
 -1      1341 1.20241E+01
 -1      1342 1.56900E+01
 -1      1343 1.98129E+01
 -1      1344 1.57146E+01
 -1      1345 1.55139E+01
 -1      1346 1.97828E+01
 -1      1347 1.58969E+01
 -1      1348 1.58023E+01
 -1      1349 1.57520E+01
 -1      1350 1.97464E+01
 -1      1351 1.57133E+01
 -1      1352 1.56883E+01
 -1      1353 1.97626E+01
 -1      1354 1.14127E+01
 -1      1355 1.21960E+01
 -1      1356 1.64595E+01
 -1      1357 1.61319E+01
 -1      1358 1.95813E+01
 -1      1359 1.94390E+01
 -1      1360 1.90385E+01
 -1      1361 1.55765E+01
 -1      1362 1.95501E+01
 -1      1363 1.58828E+01
 -1      1364 1.24587E+01
 -1      1365 1.12216E+01
 -1      1366 1.60091E+01
 -1      1367 1.50481E+01
 -1      1368 1.53137E+01
 -1      1369 1.84894E+01
 -1      1370 1.54202E+01
 -1      1371 1.46557E+01
 -1      1372 1.14800E+01
 -1      1373 1.52029E+01
 -1      1374 1.61051E+01
 -1      1375 1.91371E+01
 -1      1376 1.44487E+01
 -1      1377 1.50078E+01
 -1      1378 1.19617E+01
 -1      1379 1.15164E+01
 -1      1380 1.15164E+01
 -1      1381 1.05382E+01
 -1      1382 1.78551E+01
 -1      1383 1.78551E+01
 -1      1384 1.25052E+01
 -1      1385 1.11340E+01
 -1      1386 1.13304E+01
 -1      1387 1.21120E+01
 -1      1388 1.23811E+01
 -1      1389 1.48003E+01
 -1      1390 1.54784E+01
 -1      1391 1.23757E+01
 -1      1392 1.12642E+01
 -1      1393 1.60307E+01
 -1      1394 1.34166E+01
 -1      1395 1.34166E+01
 -1      1396 1.45886E+01
 -1      1397 1.41794E+01
 -1      1398 1.61670E+01
 -1      1399 1.18341E+01
 -1      1400 1.16549E+01
 -1      1401 1.22384E+01
 -1      1402 1.14788E+01
 -1      1403 1.19703E+01
 -1      1404 1.51207E+01
 -1      1405 1.48780E+01
 -1      1406 1.51172E+01
 -1      1407 1.49211E+01
 -1      1408 1.89301E+01
 -1      1409 1.57865E+01
 -1      1410 1.61856E+01
 -1      1411 1.08036E+01
 -1      1412 1.20886E+01
 -1      1413 1.58114E+01
 -1      1414 1.59153E+01
 -1      1415 1.96518E+01
 -1      1416 1.59613E+01
 -1      1417 1.18000E+01
 -1      1418 1.59161E+01
 -1      1419 1.97848E+01
 -1      1420 1.62486E+01
 -1      1421 1.52289E+01
 -1      1422 1.94639E+01
 -1      1423 1.96310E+01
 -1      1424 1.59593E+01
 -1      1425 1.19487E+01
 -1      1426 1.56954E+01
 -1      1427 1.51495E+01
 -1      1428 1.45074E+01
 -1      1429 1.53326E+01
 -1      1430 1.95687E+01
 -1      1431 1.98316E+01
 -1      1432 1.60915E+01
 -1      1433 1.96960E+01
 -1      1434 1.27563E+01
 -1      1435 1.14421E+01
 -1      1436 1.12510E+01
 -1      1437 1.19085E+01
 -1      1438 1.27761E+01
 -1      1439 1.44902E+01
 -1      1440 1.51143E+01
 -1      1441 1.10086E+01
 -1      1442 1.78551E+01
 -1      1443 1.79398E+01
 -1      1444 1.06229E+01
 -1      1445 1.59602E+01
 -1      1446 1.60012E+01
 -1      1447 1.61274E+01
 -1      1448 1.22393E+01
 -1      1449 1.20139E+01
 -1      1450 1.48272E+01
 -1      1451 1.44645E+01
 -1      1452 1.51141E+01
 -1      1453 1.93149E+01
 -1      1454 1.56254E+01
 -1      1455 1.61528E+01
 -1      1456 1.95525E+01
 -1      1457 1.94417E+01
 -1      1458 1.57960E+01
 -1      1459 1.96460E+01
 -1      1460 1.55648E+01
 -1      1461 1.50502E+01
 -1      1462 1.22141E+01
 -1      1463 1.21894E+01
 -1      1464 1.47550E+01
 -1      1465 1.66217E+01
 -1      1466 1.41182E+01
 -1      1467 1.27601E+01
 -1      1468 1.29310E+01
 -1      1469 1.74403E+01
 -1      1470 1.54938E+01
 -1      1471 1.81897E+01
 -1      1472 1.91708E+01
 -1      1473 1.93074E+01
 -1      1474 1.94919E+01
 -1      1475 1.84038E+01
 -1      1476 1.81689E+01
 -1      1477 1.88852E+01
 -1      1478 1.91896E+01
 -1      1479 1.65884E+01
 -1      1480 1.22859E+01
 -1      1481 9.82135E+00
 -1      1482 1.76591E+01
 -1      1483 1.12337E+01
 -1      1484 1.76009E+01
 -1      1485 1.90956E+01
 -1      1486 1.94751E+01
 -1      1487 1.86115E+01
 -1      1488 3.01886E+01
 -1      1489 7.44543E+00
 -1      1490 1.42260E+01
 -1      1491 1.56721E+01
 -1      1492 1.88868E+01
 -1      1493 1.91857E+01
 -1      1494 1.94911E+01
 -1      1495 2.89620E+01
 -1      1496 1.14290E+01
 -1      1497 1.78763E+01
 -1      1498 1.72503E+01
 -1      1499 2.70943E+01
 -1      1500 1.32129E+01
 -1      1501 1.57996E+01
 -1      1502 1.87775E+01
 -1      1503 1.83414E+01
 -1      1504 2.78389E+01
 -1      1505 1.16469E+01
 -1      1506 1.91408E+01
 -1      1507 1.53763E+01
 -1      1508 1.92267E+01
 -1      1509 1.93299E+01
 -1      1510 1.84491E+01
 -1      1511 2.91792E+01
 -1      1512 1.15785E+01
 -1      1513 1.77996E+01
 -1      1514 1.94719E+01
 -1      1515 2.93238E+01
 -1      1516 1.92008E+01
 -1      1517 1.89656E+01
 -1      1518 1.85075E+01
 -1      1519 1.47984E+01
 -1      1520 1.58100E+01
 -1      1521 1.84072E+01
 -1      1522 1.25728E+01
 -1      1523 1.61850E+01
 -1      1524 1.65103E+01
 -1      1525 2.88114E+01
 -1      1526 1.94160E+01
 -1      1527 3.07956E+01
 -1      1528 1.76197E+01
 -1      1529 1.73330E+01
 -1      1530 1.88055E+01
 -1      1531 1.85350E+01
 -1      1532 1.90505E+01
 -1      1533 2.89308E+01
 -1      1534 1.84830E+01
 -1      1535 2.88778E+01
 -1      1536 1.08395E+01
 -1      1537 1.33295E+01
 -1      1538 2.41944E+01
 -1      1539 2.41944E+01
 -1      1540 2.61610E+01
 -1      1541 1.69292E+01
 -1      1542 2.01125E+01
 -1      1543 2.72806E+01
 -1      1544 2.66705E+01
 -1      1545 2.89028E+01
 -1      1546 2.90362E+01
 -1      1547 2.14186E+01
 -1      1548 2.61676E+01
 -1      1549 2.81606E+01
 -1      1550 1.86787E+01
 -1      1551 2.85578E+01
 -1      1552 2.82251E+01
 -1      1553 2.71202E+01
 -1      1554 2.66705E+01
 -1      1555 2.09763E+01
 -1      1556 2.82251E+01
 -1      1557 2.93238E+01
 -1      1558 1.81405E+01
 -1      1559 2.85991E+01
 -1      1560 2.89413E+01
 -1      1561 7.21589E+00
 -1      1562 1.89071E+01
 -1      1563 1.03706E+01
 -1      1564 2.88991E+01
 -1      1565 1.27703E+01
 -1      1566 1.20365E+01
 -1      1567 2.14414E+01
 -1      1568 2.20587E+01
 -1      1569 7.53010E+00
 -1      1570 1.38695E+01
 -1      1571 1.20365E+01
 -1      1572 1.03858E+01
 -1      1573 1.21733E+01
 -1      1574 1.44911E+01
 -1      1575 1.07944E+01
 -1      1576 2.20587E+01
 -1      1577 1.44882E+01
 -1      1578 2.20587E+01
 -1      1579 1.42654E+01
 -1      1580 2.15201E+01
 -1      1581 2.14414E+01
 -1      1582 3.04921E+01
 -1      1583 2.29456E+01
 -1      1584 2.11125E+01
 -1      1585 2.35037E+01
 -1      1586 3.07956E+01
 -1      1587 3.04921E+01
 -1      1588 2.17829E+01
 -1      1589 7.18155E+00
 -1      1590 7.11586E+00
 -1      1591 1.47521E+01
 -1      1592 7.00109E+00
 -1      1593 7.15260E+00
 -1      1594 7.33066E+00
 -1      1595 1.43286E+01
 -1      1596 1.38211E+01
 -1      1597 1.37045E+01
 -1      1598 1.54718E+01
 -1      1599 1.39590E+01
 -1      1600 1.36767E+01
 -1      1601 1.91616E+01
 -1      1602 1.37146E+01
 -1      1603 1.53627E+01
 -1      1604 1.94540E+01
 -1      1605 1.50996E+01
 -1      1606 1.35148E+01
 -1      1607 1.92288E+01
 -1      1608 1.34754E+01
 -1      1609 1.50133E+01
 -1      1610 1.89262E+01
 -1      1611 1.53059E+01
 -1      1612 1.38005E+01
 -1      1613 1.91794E+01
 -1      1614 1.37182E+01
 -1      1615 1.37237E+01
 -1      1616 1.93896E+01
 -1      1617 1.37350E+01
 -1      1618 1.52537E+01
 -1      1619 1.93187E+01
 -1      1620 1.50313E+01
 -1      1621 1.44832E+01
 -1      1622 1.91076E+01
 -1      1623 1.42651E+01
 -1      1624 1.33039E+01
 -1      1625 1.86672E+01
 -1      1626 1.36497E+01
 -1      1627 1.36986E+01
 -1      1628 1.87949E+01
 -1      1629 1.36760E+01
 -1      1630 1.51405E+01
 -1      1631 1.91182E+01
 -1      1632 1.48464E+01
 -1      1633 1.32961E+01
 -1      1634 1.88015E+01
 -1      1635 1.31268E+01
 -1      1636 1.40061E+01
 -1      1637 1.83382E+01
 -1      1638 1.40924E+01
 -1      1639 1.46744E+01
 -1      1640 1.82552E+01
 -1      1641 1.48924E+01
 -1      1642 1.35452E+01
 -1      1643 1.85595E+01
 -1      1644 1.32513E+01
 -1      1645 1.32581E+01
 -1      1646 1.84836E+01
 -1      1647 1.33669E+01
 -1      1648 1.48299E+01
 -1      1649 1.82985E+01
 -1      1650 1.43464E+01
 -1      1651 1.27699E+01
 -1      1652 1.79237E+01
 -1      1653 1.26749E+01
 -1      1654 1.41232E+01
 -1      1655 1.73453E+01
 -1      1656 1.44362E+01
 -1      1657 1.30413E+01
 -1      1658 1.75633E+01
 -1      1659 1.24140E+01
 -1      1660 1.34259E+01
 -1      1661 1.72490E+01
 -1      1662 1.30201E+01
 -1      1663 1.26290E+01
 -1      1664 1.62159E+01
 -1      1665 1.25600E+01
 -1      1666 1.21155E+01
 -1      1667 1.57411E+01
 -1      1668 1.16787E+01
 -1      1669 1.21343E+01
 -1      1670 1.52353E+01
 -1      1671 1.17942E+01
 -1      1672 1.22520E+01
 -1      1673 1.44583E+01
 -1      1674 1.17994E+01
 -1      1675 1.21547E+01
 -1      1676 1.36655E+01
 -1      1677 1.18346E+01
 -1      1678 1.06794E+01
 -1      1679 1.28928E+01
 -1      1680 1.05360E+01
 -1      1681 1.12972E+01
 -1      1682 1.24294E+01
 -1      1683 1.09434E+01
 -1      1684 1.05757E+01
 -1      1685 1.19322E+01
 -1      1686 1.12519E+01
 -1      1687 1.13353E+01
 -1      1688 1.22547E+01
 -1      1689 1.00551E+01
 -1      1690 1.62147E+01
 -1      1691 1.16508E+01
 -1      1692 1.62147E+01
 -1      1693 1.38600E+01
 -1      1694 1.40040E+01
 -1      1695 1.59799E+01
 -1      1696 1.52412E+01
 -1      1697 1.40107E+01
 -1      1698 1.93404E+01
 -1      1699 1.36085E+01
 -1      1700 1.50884E+01
 -1      1701 1.93384E+01
 -1      1702 1.36495E+01
 -1      1703 1.36160E+01
 -1      1704 1.91933E+01
 -1      1705 1.35653E+01
 -1      1706 1.36345E+01
 -1      1707 1.91858E+01
 -1      1708 1.42349E+01
 -1      1709 1.32474E+01
 -1      1710 1.88529E+01
 -1      1711 1.49534E+01
 -1      1712 1.43701E+01
 -1      1713 1.86702E+01
 -1      1714 1.37504E+01
 -1      1715 1.52882E+01
 -1      1716 1.91403E+01
 -1      1717 1.35473E+01
 -1      1718 1.35380E+01
 -1      1719 1.92628E+01
 -1      1720 1.40192E+01
 -1      1721 1.30923E+01
 -1      1722 1.85955E+01
 -1      1723 1.47378E+01
 -1      1724 1.41508E+01
 -1      1725 1.82722E+01
 -1      1726 1.36104E+01
 -1      1727 1.51492E+01
 -1      1728 1.88153E+01
 -1      1729 1.32793E+01
 -1      1730 1.33028E+01
 -1      1731 1.89191E+01
 -1      1732 1.44676E+01
 -1      1733 1.44617E+01
 -1      1734 1.97939E+01
 -1      1735 1.34057E+01
 -1      1736 1.32209E+01
 -1      1737 1.97296E+01
 -1      1738 1.37433E+01
 -1      1739 1.29937E+01
 -1      1740 1.80711E+01
 -1      1741 1.43931E+01
 -1      1742 1.38135E+01
 -1      1743 1.77293E+01
 -1      1744 1.28971E+01
 -1      1745 1.42937E+01
 -1      1746 1.77002E+01
 -1      1747 1.29365E+01
 -1      1748 1.29065E+01
 -1      1749 1.76103E+01
 -1      1750 1.27584E+01
 -1      1751 1.27932E+01
 -1      1752 1.74764E+01
 -1      1753 1.31311E+01
 -1      1754 1.23861E+01
 -1      1755 1.69607E+01
 -1      1756 1.36348E+01
 -1      1757 1.30921E+01
 -1      1758 1.65494E+01
 -1      1759 1.26070E+01
 -1      1760 1.32795E+01
 -1      1761 1.61550E+01
 -1      1762 1.30908E+01
 -1      1763 1.24541E+01
 -1      1764 1.56467E+01
 -1      1765 1.23785E+01
 -1      1766 1.34364E+01
 -1      1767 1.58394E+01
 -1      1768 1.14154E+01
 -1      1769 1.13989E+01
 -1      1770 1.52055E+01
 -1      1771 1.20938E+01
 -1      1772 1.19905E+01
 -1      1773 1.48011E+01
 -1      1774 1.03987E+01
 -1      1775 1.07857E+01
 -1      1776 1.40682E+01
 -1      1777 1.04051E+01
 -1      1778 9.84214E+00
 -1      1779 1.22035E+01
 -1      1780 1.03921E+01
 -1      1781 1.01985E+01
 -1      1782 1.14403E+01
 -1      1783 1.06252E+01
 -1      1784 1.04897E+01
 -1      1785 1.13313E+01
 -1      1786 1.56314E+01
 -1      1787 9.82135E+00
 -1      1788 1.06252E+01
 -1      1789 1.56314E+01
 -1      1790 2.22734E+01
 -1      1791 2.16461E+01
 -1      1792 2.13947E+01
 -1      1793 2.09888E+01
 -1      1794 2.64191E+01
 -1      1795 1.77684E+01
 -1      1796 1.73158E+01
 -1      1797 1.94964E+01
 -1      1798 1.91563E+01
 -1      1799 2.28065E+01
 -1      1800 1.51628E+01
 -1      1801 1.57194E+01
 -1      1802 1.64363E+01
 -1      1803 1.77444E+01
 -1      1804 1.93956E+01
 -1      1805 1.24540E+01
 -1      1806 1.31303E+01
 -1      1807 1.18853E+01
 -1      1808 1.20845E+01
 -1      1809 1.06051E+01
 -1      1810 2.22673E+01
 -1      1811 2.21723E+01
 -1      1812 2.22803E+01
 -1      1813 2.71073E+01
 -1      1814 2.27637E+01
 -1      1815 2.08274E+01
 -1      1816 2.09803E+01
 -1      1817 2.01897E+01
 -1      1818 1.98441E+01
 -1      1819 2.51777E+01
 -1      1820 2.35013E+01
 -1      1821 2.32074E+01
 -1      1822 2.27351E+01
 -1      1823 2.28439E+01
 -1      1824 2.77528E+01
 -1      1825 2.40368E+01
 -1      1826 2.40518E+01
 -1      1827 2.39294E+01
 -1      1828 2.42473E+01
 -1      1829 2.91133E+01
 -1      1830 2.41243E+01
 -1      1831 2.41356E+01
 -1      1832 2.43979E+01
 -1      1833 2.43156E+01
 -1      1834 2.91326E+01
 -1      1835 2.42641E+01
 -1      1836 2.40009E+01
 -1      1837 2.41517E+01
 -1      1838 2.41137E+01
 -1      1839 2.89238E+01
 -1      1840 2.38922E+01
 -1      1841 2.34808E+01
 -1      1842 2.36408E+01
 -1      1843 2.87178E+01
 -1      1844 2.35092E+01
 -1      1845 2.30039E+01
 -1      1846 2.30902E+01
 -1      1847 2.35498E+01
 -1      1848 2.83849E+01
 -1      1849 2.37191E+01
 -1      1850 2.39645E+01
 -1      1851 2.37422E+01
 -1      1852 2.40322E+01
 -1      1853 2.38141E+01
 -1      1854 2.88892E+01
 -1      1855 2.42266E+01
 -1      1856 2.40758E+01
 -1      1857 2.89305E+01
 -1      1858 2.40443E+01
 -1      1859 2.49926E+01
 -1      1860 2.98473E+01
 -1      1861 2.15904E+01
 -1      1862 2.16294E+01
 -1      1863 2.16294E+01
 -1      1864 2.20018E+01
 -1      1865 2.66705E+01
 -1      1866 1.46076E+01
 -1      1867 1.42538E+01
 -1      1868 1.56257E+01
 -1      1869 1.54823E+01
 -1      1870 1.78039E+01
 -1      1871 1.03304E+01
 -1      1872 1.11342E+01
 -1      1873 8.67572E+00
 -1      1874 9.18480E+00
 -1      1875 8.51862E+00
 -1      1876 7.37299E+00
 -1      1877 2.30123E+01
 -1      1878 2.29421E+01
 -1      1879 2.29421E+01
 -1      1880 2.33541E+01
 -1      1881 2.82251E+01
 -1      1882 1.23792E+01
 -1      1883 1.22816E+01
 -1      1884 1.40815E+01
 -1      1885 1.42881E+01
 -1      1886 1.51293E+01
 -1      1887 2.24407E+01
 -1      1888 2.25401E+01
 -1      1889 2.23700E+01
 -1      1890 2.23606E+01
 -1      1891 2.72004E+01
 -1      1892 2.38493E+01
 -1      1893 2.38267E+01
 -1      1894 2.36281E+01
 -1      1895 2.33340E+01
 -1      1896 2.83592E+01
 -1      1897 2.42082E+01
 -1      1898 2.38734E+01
 -1      1899 2.38248E+01
 -1      1900 2.40371E+01
 -1      1901 2.87702E+01
 -1      1902 2.33860E+01
 -1      1903 2.36936E+01
 -1      1904 2.37711E+01
 -1      1905 2.85457E+01
 -1      1906 2.49535E+01
 -1      1907 2.95438E+01
 -1      1908 2.45479E+01
 -1      1909 2.39031E+01
 -1      1910 7.48776E+00
 -1      1911 8.90803E+00
 -1      1912 8.95036E+00
 -1      1913 1.83974E+01
 -1      1914 1.78223E+01
 -1      1915 1.92102E+01
 -1      1916 2.01897E+01
 -1      1917 1.99333E+01
 -1      1918 1.94964E+01
 -1      1919 2.09855E+01
 -1      1920 2.09166E+01
 -1      1921 2.41053E+01
 -1      1922 2.43979E+01
 -1      1923 2.39342E+01
 -1      1924 2.38948E+01
 -1      1925 2.39986E+01
 -1      1926 2.41513E+01
 -1      1927 2.41185E+01
 -1      1928 2.41109E+01
 -1      1929 2.88867E+01
 -1      1930 2.41890E+01
 -1      1931 2.39345E+01
 -1      1932 2.19604E+01
 -1      1933 2.22734E+01
 -1      1934 2.68824E+01
 -1      1935 2.23570E+01
 -1      1936 2.22137E+01
 -1      1937 1.66627E+01
 -1      1938 1.63426E+01
 -1      1939 2.07655E+01
 -1      1940 2.09836E+01
 -1      1941 2.13390E+01
 -1      1942 2.61643E+01
 -1      1943 2.32833E+01
 -1      1944 2.35013E+01
 -1      1945 2.80320E+01
 -1      1946 2.44076E+01
 -1      1947 2.31610E+01
 -1      1948 2.36635E+01
 -1      1949 2.40093E+01
 -1      1950 2.90285E+01
 -1      1951 2.41149E+01
 -1      1952 2.36599E+01
 -1      1953 2.93238E+01
 -1      1954 2.40646E+01
 -1      1955 2.39294E+01
 -1      1956 2.89695E+01
 -1      1957 2.41944E+01
 -1      1958 1.64334E+01
 -1      1959 1.42910E+01
 -1      1960 1.25433E+01
 -1      1961 1.02743E+01
 -1      1962 1.70508E+01
 -1      1963 1.56542E+01
 -1      1964 1.78288E+01
 -1      1965 1.89674E+01
 -1      1966 1.87779E+01
 -1      1967 1.87741E+01
 -1      1968 1.89719E+01
 -1      1969 1.81535E+01
 -1      1970 1.86961E+01
 -1      1971 1.90835E+01
 -1      1972 1.68179E+01
 -1      1973 1.22755E+01
 -1      1974 1.07076E+01
 -1      1975 1.88091E+01
 -1      1976 1.03593E+01
 -1      1977 1.83757E+01
 -1      1978 1.91044E+01
 -1      1979 1.83813E+01
 -1      1980 1.82289E+01
 -1      1981 3.01864E+01
 -1      1982 8.21688E+00
 -1      1983 1.41141E+01
 -1      1984 1.55259E+01
 -1      1985 1.92377E+01
 -1      1986 1.86361E+01
 -1      1987 1.92377E+01
 -1      1988 1.97525E+01
 -1      1989 2.87339E+01
 -1      1990 9.49818E+00
 -1      1991 1.67054E+01
 -1      1992 1.70631E+01
 -1      1993 2.73005E+01
 -1      1994 1.34059E+01
 -1      1995 1.76079E+01
 -1      1996 1.58279E+01
 -1      1997 1.22758E+01
 -1      1998 1.31511E+01
 -1      1999 1.84972E+01
 -1      2000 1.91406E+01
 -1      2001 1.85814E+01
 -1      2002 2.88183E+01
 -1      2003 1.93420E+01
 -1      2004 1.89826E+01
 -1      2005 1.28673E+01
 -1      2006 1.83262E+01
 -1      2007 1.93696E+01
 -1      2008 1.81795E+01
 -1      2009 1.85706E+01
 -1      2010 1.90086E+01
 -1      2011 1.87111E+01
 -1      2012 1.95421E+01
 -1      2013 1.62324E+01
 -1      2014 1.82113E+01
 -1      2015 1.58292E+01
 -1      2016 1.72116E+01
 -1      2017 1.26161E+01
 -1      2018 1.47732E+01
 -1      2019 1.66740E+01
 -1      2020 2.85742E+01
 -1      2021 1.90506E+01
 -1      2022 3.10635E+01
 -1      2023 1.74497E+01
 -1      2024 1.71517E+01
 -1      2025 2.84440E+01
 -1      2026 1.86646E+01
 -1      2027 9.77926E+00
 -1      2028 1.62554E+01
 -1      2029 2.42463E+01
 -1      2030 2.42463E+01
 -1      2031 2.59614E+01
 -1      2032 1.73965E+01
 -1      2033 2.20563E+01
 -1      2034 2.71392E+01
 -1      2035 2.55259E+01
 -1      2036 2.81246E+01
 -1      2037 2.87594E+01
 -1      2038 2.92473E+01
 -1      2039 2.92515E+01
 -1      2040 2.93309E+01
 -1      2041 2.12015E+01
 -1      2042 2.87154E+01
 -1      2043 2.66300E+01
 -1      2044 2.90306E+01
 -1      2045 2.90507E+01
 -1      2046 2.87934E+01
 -1      2047 1.95463E+01
 -1      2048 2.83827E+01
 -1      2049 2.81246E+01
 -1      2050 2.80702E+01
 -1      2051 2.70699E+01
 -1      2052 1.77490E+01
 -1      2053 2.83922E+01
 -1      2054 7.24172E+00
 -1      2055 1.89308E+01
 -1      2056 1.10702E+01
 -1      2057 2.89724E+01
 -1      2058 1.31585E+01
 -1      2059 1.20330E+01
 -1      2060 2.18417E+01
 -1      2061 2.20733E+01
 -1      2062 9.34991E+00
 -1      2063 1.20330E+01
 -1      2064 1.38781E+01
 -1      2065 1.03788E+01
 -1      2066 1.47424E+01
 -1      2067 1.24003E+01
 -1      2068 1.09923E+01
 -1      2069 1.42738E+01
 -1      2070 2.20733E+01
 -1      2071 2.20733E+01
 -1      2072 2.18417E+01
 -1      2073 1.43132E+01
 -1      2074 2.18417E+01
 -1      2075 2.29548E+01
 -1      2076 3.06249E+01
 -1      2077 2.11097E+01
 -1      2078 3.10635E+01
 -1      2079 2.36949E+01
 -1      2080 3.06249E+01
 -1      2081 2.21110E+01
 -1      2082 7.78223E+00
 -1      2083 7.34561E+00
 -1      2084 1.51451E+01
 -1      2085 7.01317E+00
 -1      2086 7.29465E+00
 -1      2087 7.72930E+00
 -1      2088 1.45417E+01
 -1      2089 1.37165E+01
 -1      2090 1.38277E+01
 -1      2091 1.54819E+01
 -1      2092 1.50661E+01
 -1      2093 1.37764E+01
 -1      2094 1.89907E+01
 -1      2095 1.46649E+01
 -1      2096 1.49278E+01
 -1      2097 1.89124E+01
 -1      2098 1.34452E+01
 -1      2099 1.46334E+01
 -1      2100 1.87426E+01
 -1      2101 1.45634E+01
 -1      2102 1.34077E+01
 -1      2103 1.86736E+01
 -1      2104 1.33835E+01
 -1      2105 1.45306E+01
 -1      2106 1.86034E+01
 -1      2107 1.49367E+01
 -1      2108 1.34872E+01
 -1      2109 1.86742E+01
 -1      2110 1.37115E+01
 -1      2111 1.52188E+01
 -1      2112 1.90599E+01
 -1      2113 1.36096E+01
 -1      2114 1.35318E+01
 -1      2115 1.91623E+01
 -1      2116 1.40513E+01
 -1      2117 1.32328E+01
 -1      2118 1.86058E+01
 -1      2119 1.47878E+01
 -1      2120 1.41855E+01
 -1      2121 1.83631E+01
 -1      2122 1.35227E+01
 -1      2123 1.50913E+01
 -1      2124 1.88008E+01
 -1      2125 1.43916E+01
 -1      2126 1.33028E+01
 -1      2127 1.88845E+01
 -1      2128 1.37273E+01
 -1      2129 1.39338E+01
 -1      2130 1.82068E+01
 -1      2131 1.32179E+01
 -1      2132 1.40434E+01
 -1      2133 1.80651E+01
 -1      2134 1.37122E+01
 -1      2135 1.28312E+01
 -1      2136 1.79946E+01
 -1      2137 1.43791E+01
 -1      2138 1.38226E+01
 -1      2139 1.77184E+01
 -1      2140 1.32993E+01
 -1      2141 1.40705E+01
 -1      2142 1.75202E+01
 -1      2143 1.27073E+01
 -1      2144 1.32189E+01
 -1      2145 1.71312E+01
 -1      2146 1.36563E+01
 -1      2147 1.27135E+01
 -1      2148 1.70569E+01
 -1      2149 1.39456E+01
 -1      2150 1.34774E+01
 -1      2151 1.68843E+01
 -1      2152 1.32431E+01
 -1      2153 1.38096E+01
 -1      2154 1.65694E+01
 -1      2155 1.22059E+01
 -1      2156 1.29410E+01
 -1      2157 1.61313E+01
 -1      2158 1.31115E+01
 -1      2159 1.20542E+01
 -1      2160 1.56776E+01
 -1      2161 1.22165E+01
 -1      2162 1.34648E+01
 -1      2163 1.58792E+01
 -1      2164 1.15274E+01
 -1      2165 1.12458E+01
 -1      2166 1.52617E+01
 -1      2167 1.19182E+01
 -1      2168 1.10848E+01
 -1      2169 1.38484E+01
 -1      2170 1.07416E+01
 -1      2171 1.15233E+01
 -1      2172 1.30110E+01
 -1      2173 1.11642E+01
 -1      2174 1.05713E+01
 -1      2175 1.24458E+01
 -1      2176 1.06263E+01
 -1      2177 1.14601E+01
 -1      2178 1.25714E+01
 -1      2179 9.07535E+00
 -1      2180 9.32978E+00
 -1      2181 1.15708E+01
 -1      2182 1.65718E+01
 -1      2183 9.47333E+00
 -1      2184 1.06723E+01
 -1      2185 1.65718E+01
 -1      2186 1.39548E+01
 -1      2187 1.38081E+01
 -1      2188 1.61210E+01
 -1      2189 1.41426E+01
 -1      2190 1.39562E+01
 -1      2191 1.94180E+01
 -1      2192 1.36988E+01
 -1      2193 1.52773E+01
 -1      2194 1.94951E+01
 -1      2195 1.51628E+01
 -1      2196 1.35506E+01
 -1      2197 1.91232E+01
 -1      2198 1.35300E+01
 -1      2199 1.50978E+01
 -1      2200 1.89880E+01
 -1      2201 1.53852E+01
 -1      2202 1.38802E+01
 -1      2203 1.92547E+01
 -1      2204 1.37280E+01
 -1      2205 1.37353E+01
 -1      2206 1.93899E+01
 -1      2207 1.38013E+01
 -1      2208 1.53079E+01
 -1      2209 1.93037E+01
 -1      2210 1.49711E+01
 -1      2211 1.44148E+01
 -1      2212 1.90329E+01
 -1      2213 1.41724E+01
 -1      2214 1.32455E+01
 -1      2215 1.84537E+01
 -1      2216 1.36258E+01
 -1      2217 1.35482E+01
 -1      2218 1.85916E+01
 -1      2219 1.36326E+01
 -1      2220 1.51763E+01
 -1      2221 1.90562E+01
 -1      2222 1.48967E+01
 -1      2223 1.33425E+01
 -1      2224 1.88610E+01
 -1      2225 1.31285E+01
 -1      2226 1.40024E+01
 -1      2227 1.83674E+01
 -1      2228 1.40888E+01
 -1      2229 1.46816E+01
 -1      2230 1.82398E+01
 -1      2231 1.49231E+01
 -1      2232 1.34738E+01
 -1      2233 1.85677E+01
 -1      2234 1.31591E+01
 -1      2235 1.32784E+01
 -1      2236 1.84943E+01
 -1      2237 1.33765E+01
 -1      2238 1.33034E+01
 -1      2239 1.82776E+01
 -1      2240 1.28403E+01
 -1      2241 1.27480E+01
 -1      2242 1.79127E+01
 -1      2243 1.25990E+01
 -1      2244 1.39282E+01
 -1      2245 1.73007E+01
 -1      2246 1.37613E+01
 -1      2247 1.26296E+01
 -1      2248 1.69848E+01
 -1      2249 1.25576E+01
 -1      2250 1.34172E+01
 -1      2251 1.67460E+01
 -1      2252 1.29942E+01
 -1      2253 1.26021E+01
 -1      2254 1.62510E+01
 -1      2255 1.25152E+01
 -1      2256 1.21028E+01
 -1      2257 1.57411E+01
 -1      2258 1.16623E+01
 -1      2259 1.21185E+01
 -1      2260 1.52137E+01
 -1      2261 1.17889E+01
 -1      2262 1.22416E+01
 -1      2263 1.44436E+01
 -1      2264 1.17601E+01
 -1      2265 1.21225E+01
 -1      2266 1.36326E+01
 -1      2267 1.18187E+01
 -1      2268 1.06556E+01
 -1      2269 1.28472E+01
 -1      2270 1.05218E+01
 -1      2271 1.12247E+01
 -1      2272 1.24095E+01
 -1      2273 1.02665E+01
 -1      2274 9.98511E+00
 -1      2275 1.13175E+01
 -1      2276 9.55456E+00
 -1      2277 9.49818E+00
 -1      2278 9.92873E+00
 -1      2279 1.01029E+01
 -1      2280 1.62746E+01
 -1      2281 1.01029E+01
 -1      2282 1.62746E+01
 -1      2283 2.09796E+01
 -1      2284 2.11156E+01
 -1      2285 2.12296E+01
 -1      2286 2.15317E+01
 -1      2287 2.60779E+01
 -1      2288 1.73037E+01
 -1      2289 1.77462E+01
 -1      2290 1.92686E+01
 -1      2291 2.02394E+01
 -1      2292 2.27239E+01
 -1      2293 1.60448E+01
 -1      2294 1.59110E+01
 -1      2295 1.76037E+01
 -1      2296 1.72998E+01
 -1      2297 2.08013E+01
 -1      2298 1.32648E+01
 -1      2299 1.45613E+01
 -1      2300 1.30173E+01
 -1      2301 1.00268E+01
 -1      2302 1.04248E+01
 -1      2303 2.21818E+01
 -1      2304 2.21756E+01
 -1      2305 2.76853E+01
 -1      2306 2.25605E+01
 -1      2307 2.26409E+01
 -1      2308 2.08947E+01
 -1      2309 2.08078E+01
 -1      2310 1.99502E+01
 -1      2311 1.95097E+01
 -1      2312 2.51039E+01
 -1      2313 2.29767E+01
 -1      2314 2.28662E+01
 -1      2315 2.21754E+01
 -1      2316 2.24840E+01
 -1      2317 2.76319E+01
 -1      2318 2.41300E+01
 -1      2319 2.41094E+01
 -1      2320 2.41073E+01
 -1      2321 2.43947E+01
 -1      2322 2.92494E+01
 -1      2323 2.40287E+01
 -1      2324 2.37466E+01
 -1      2325 2.37687E+01
 -1      2326 2.36650E+01
 -1      2327 2.87374E+01
 -1      2328 2.40210E+01
 -1      2329 2.40525E+01
 -1      2330 2.38124E+01
 -1      2331 2.36741E+01
 -1      2332 2.89525E+01
 -1      2333 2.36773E+01
 -1      2334 2.37616E+01
 -1      2335 2.36210E+01
 -1      2336 2.40013E+01
 -1      2337 2.87066E+01
 -1      2338 2.36998E+01
 -1      2339 2.34859E+01
 -1      2340 2.86312E+01
 -1      2341 2.32988E+01
 -1      2342 2.33851E+01
 -1      2343 2.40815E+01
 -1      2344 2.37447E+01
 -1      2345 2.38734E+01
 -1      2346 2.36310E+01
 -1      2347 2.89220E+01
 -1      2348 2.39087E+01
 -1      2349 2.42432E+01
 -1      2350 2.40280E+01
 -1      2351 2.88532E+01
 -1      2352 3.00180E+01
 -1      2353 2.50735E+01
 -1      2354 2.11719E+01
 -1      2355 2.10999E+01
 -1      2356 2.21108E+01
 -1      2357 2.19439E+01
 -1      2358 2.62979E+01
 -1      2359 1.51319E+01
 -1      2360 1.48360E+01
 -1      2361 1.59109E+01
 -1      2362 1.60812E+01
 -1      2363 1.84714E+01
 -1      2364 9.63872E+00
 -1      2365 1.02434E+01
 -1      2366 9.56459E+00
 -1      2367 1.00287E+01
 -1      2368 8.97464E+00
 -1      2369 8.29582E+00
 -1      2370 2.32254E+01
 -1      2371 2.34668E+01
 -1      2372 2.34668E+01
 -1      2373 2.31520E+01
 -1      2374 2.81246E+01
 -1      2375 1.33073E+01
 -1      2376 1.28768E+01
 -1      2377 1.48361E+01
 -1      2378 1.38779E+01
 -1      2379 1.68260E+01
 -1      2380 2.26594E+01
 -1      2381 2.27575E+01
 -1      2382 2.32229E+01
 -1      2383 2.27599E+01
 -1      2384 2.76047E+01
 -1      2385 2.37435E+01
 -1      2386 2.34399E+01
 -1      2387 2.35284E+01
 -1      2388 2.37483E+01
 -1      2389 2.83874E+01
 -1      2390 2.28662E+01
 -1      2391 2.32529E+01
 -1      2392 2.82843E+01
 -1      2393 2.34126E+01
 -1      2394 2.30965E+01
 -1      2395 2.37639E+01
 -1      2396 2.36298E+01
 -1      2397 2.36398E+01
 -1      2398 2.40166E+01
 -1      2399 2.90406E+01
 -1      2400 2.95794E+01
 -1      2401 2.39516E+01
 -1      2402 2.45586E+01
 -1      2403 8.78340E+00
 -1      2404 9.64356E+00
 -1      2405 1.02101E+01
 -1      2406 1.76578E+01
 -1      2407 1.71763E+01
 -1      2408 1.95097E+01
 -1      2409 1.91802E+01
 -1      2410 2.02394E+01
 -1      2411 1.98861E+01
 -1      2412 2.07437E+01
 -1      2413 2.08953E+01
 -1      2414 2.39766E+01
 -1      2415 2.40425E+01
 -1      2416 2.41508E+01
 -1      2417 2.39986E+01
 -1      2418 2.39090E+01
 -1      2419 2.39417E+01
 -1      2420 2.39438E+01
 -1      2421 2.39813E+01
 -1      2422 2.41633E+01
 -1      2423 2.39059E+01
 -1      2424 2.42843E+01
 -1      2425 2.41698E+01
 -1      2426 2.86540E+01
 -1      2427 2.38923E+01
 -1      2428 2.38323E+01
 -1      2429 2.18877E+01
 -1      2430 2.20665E+01
 -1      2431 2.71852E+01
 -1      2432 2.22261E+01
 -1      2433 2.23751E+01
 -1      2434 1.73362E+01
 -1      2435 1.77311E+01
 -1      2436 2.16289E+01
 -1      2437 2.16520E+01
 -1      2438 2.12290E+01
 -1      2439 2.62957E+01
 -1      2440 2.37664E+01
 -1      2441 2.34868E+01
 -1      2442 2.86052E+01
 -1      2443 2.32837E+01
 -1      2444 2.37414E+01
 -1      2445 2.38880E+01
 -1      2446 2.40677E+01
 -1      2447 2.87544E+01
 -1      2448 2.90034E+01
 -1      2449 2.92912E+01
 -1      2450 2.42463E+01
 -1      2451 3.74374E+01
 -1      2452 1.29185E+01
 -1      2453 1.73800E+01
 -1      2454 2.93309E+01
 -1      2455 2.87934E+01
 -1      2456 2.20563E+01
 -1      2457 2.42460E+01
 -1      2458 2.68051E+01
 -1      2459 2.69421E+01
 -1      2460 2.80702E+01
 -1      2461 2.83922E+01
 -1      2462 2.92454E+01
 -1      2463 2.81569E+01
 -1      2464 2.92325E+01
 -1      2465 2.89308E+01
 -1      2466 2.74547E+01
 -1      2467 2.01983E+01
 -1      2468 2.92515E+01
 -1      2469 1.35021E+01
 -1      2470 3.38746E+01
 -1      2471 1.23128E+01
 -1      2472 3.38746E+01
 -1      2473 2.92325E+01
 -1      2474 2.89730E+01
 -1      2475 2.26927E+01
 -1      2476 2.26256E+01
 -1      2477 2.68051E+01
 -1      2478 2.53816E+01
 -1      2479 2.58841E+01
 -1      2480 2.58334E+01
 -1      2481 2.87897E+01
 -1      2482 2.75484E+01
 -1      2483 2.81569E+01
 -1      2484 2.88587E+01
 -1      2485 2.74458E+01
 -1      2486 2.89778E+01
 -1      2487 2.90969E+01
 -1      2488 2.82854E+01
 -1      2489 2.88440E+01
 -1      2490 2.89308E+01
 -1      2491 3.20408E+01
 -1      2492 1.25418E+01
 -1      2493 1.87632E+01
 -1      2494 2.91638E+01
 -1      2495 2.90073E+01
 -1      2496 1.36467E+01
 -1      2497 3.20408E+01
 -1      2498 2.01125E+01
 -1      2499 2.90362E+01
 -1      2500 1.21154E+01
 -1      2501 2.73484E+01
 -1      2502 2.73484E+01
 -1      2503 2.90073E+01
 -1      2504 1.33295E+01
 -1      2505 1.37959E+01
 -1      2506 2.73484E+01
 -1      2507 2.71202E+01
 -1      2508 1.87632E+01
 -1      2509 1.84860E+01
 -1      2510 2.20563E+01
 -1      2511 2.01125E+01
 -1      2512 2.93238E+01
 -1      2513 2.90362E+01
 -1      2514 2.83922E+01
 -1      2515 2.55259E+01
 -1      2516 2.23903E+01
 -1      2517 2.25083E+01
 -1      2518 2.47193E+01
 -1      2519 2.45648E+01
 -1      2520 2.63784E+01
 -1      2521 2.87594E+01
 -1      2522 2.72806E+01
 -1      2523 2.87934E+01
 -1      2524 2.84157E+01
 -1      2525 2.89413E+01
 -1      2526 2.71928E+01
 -1      2527 2.81606E+01
 -1      2528 2.85991E+01
 -1      2529 2.85578E+01
 -1      2530 2.82251E+01
 -1      2531 2.81246E+01
 -1      2532 2.80702E+01
 -1      2533 2.92515E+01
 -1      2534 2.93309E+01
 -1      2535 2.88763E+01
 -1      2536 2.90073E+01
 -1      2537 2.73005E+01
 -1      2538 2.80702E+01
 -1      2539 1.84860E+01
 -1      2540 2.20563E+01
 -1      2541 2.73005E+01
 -1      2542 2.93309E+01
 -1      2543 2.92515E+01
 -1      2544 1.62554E+01
 -1      2545 2.92325E+01
 -1      2546 2.42463E+01
 -1      2547 2.68051E+01
 -1      2548 2.41944E+01
 -1      2549 2.66705E+01
 -1      2550 2.93238E+01
 -1      2551 2.92325E+01
 -1      2552 2.90969E+01
 -1      2553 2.90969E+01
 -1      2554 2.88587E+01
 -1      2555 2.89308E+01
 -1      2556 2.81246E+01
 -1      2557 2.82251E+01
 -1      2558 1.24945E+01
 -1      2559 2.63784E+01
 -1      2560 2.63784E+01
 -1      2561 2.68051E+01
 -1      2562 2.88587E+01
 -1      2563 2.49535E+01
 -1      2564 2.40558E+01
 -1      2565 2.00786E+01
 -1      2566 2.49535E+01
 -1      2567 2.40558E+01
 -1      2568 2.89308E+01
 -1      2569 2.36689E+01
 -1      2570 2.45666E+01
 -1      2571 2.85439E+01
 -1      2572 1.24360E+01
 -1      2573 1.32103E+01
 -1      2574 1.18414E+01
 -1      2575 1.26156E+01
 -1      2576 1.29074E+01
 -1      2577 1.21708E+01
 -1      2578 1.05161E+01
 -1      2579 1.00359E+01
 -1      2580 1.30219E+01
 -1      2581 1.16906E+01
 -1      2582 3.13868E+01
 -1      2583 3.56560E+01
 -1      2584 3.31682E+01
 -1      2585 3.13868E+01
 -1      2586 3.56560E+01
 -1      2587 3.38746E+01
 -1      2588 2.88735E+01
 -1      2589 2.70921E+01
 -1      2590 2.61752E+01
 -1      2591 3.29577E+01
 -1      2592 3.47391E+01
 -1      2593 1.64358E+01
 -1      2594 2.00940E+01
 -1      2595 1.90345E+01
 -1      2596 1.77444E+01
 -1      2597 2.14026E+01
 -1      2598 1.88039E+01
 -1      2599 2.23745E+01
 -1      2600 1.97758E+01
 -1      2601 2.10844E+01
 -1      2602 1.87163E+01
 -1      2603 2.87504E+01
 -1      2604 2.60521E+01
 -1      2605 3.31997E+01
 -1      2606 3.14183E+01
 -1      2607 1.50961E+01
 -1      2608 1.49985E+01
 -1      2609 1.13313E+01
 -1      2610 1.23792E+01
 -1      2611 1.22816E+01
 -1      2612 1.60464E+01
 -1      2613 1.80716E+01
 -1      2614 1.43069E+01
 -1      2615 1.53548E+01
 -1      2616 2.40988E+01
 -1      2617 2.90024E+01
 -1      2618 2.43418E+01
 -1      2619 2.43448E+01
 -1      2620 2.92484E+01
 -1      2621 2.90055E+01
 -1      2622 2.87594E+01
 -1      2623 2.90024E+01
 -1      2624 2.90055E+01
 -1      2625 2.02191E+01
 -1      2626 2.04652E+01
 -1      2627 2.36650E+01
 -1      2628 2.39110E+01
 -1      2629 2.69690E+01
 -1      2630 3.14183E+01
 -1      2631 1.97174E+01
 -1      2632 2.03736E+01
 -1      2633 2.10844E+01
 -1      2634 2.17374E+01
 -1      2635 1.53548E+01
 -1      2636 1.33295E+01
 -1      2637 1.71546E+01
 -1      2638 2.41342E+01
 -1      2639 2.86963E+01
 -1      2640 2.43538E+01
 -1      2641 2.89158E+01
 -1      2642 2.90129E+01
 -1      2643 2.87702E+01
 -1      2644 2.42082E+01
 -1      2645 2.88673E+01
 -1      2646 2.92846E+01
 -1      2647 2.43586E+01
 -1      2648 2.91484E+01
 -1      2649 2.42224E+01
 -1      2650 2.91092E+01
 -1      2651 2.40617E+01
 -1      2652 2.88673E+01
 -1      2653 2.41515E+01
 -1      2654 2.89571E+01
 -1      2655 2.88832E+01
 -1      2656 2.83849E+01
 -1      2657 2.89308E+01
 -1      2658 2.90869E+01
 -1      2659 2.86615E+01
 -1      2660 2.40788E+01
 -1      2661 2.38094E+01
 -1      2662 2.84750E+01
 -1      2663 2.38922E+01
 -1      2664 2.87443E+01
 -1      2665 2.87702E+01
 -1      2666 2.39645E+01
 -1      2667 2.86963E+01
 -1      2668 2.82764E+01
 -1      2669 2.83592E+01
 -1      2670 2.32387E+01
 -1      2671 2.76754E+01
 -1      2672 2.29778E+01
 -1      2673 2.74145E+01
 -1      2674 2.78093E+01
 -1      2675 2.44432E+01
 -1      2676 2.43070E+01
 -1      2677 2.42056E+01
 -1      2678 2.85457E+01
 -1      2679 2.87861E+01
 -1      2680 2.43761E+01
 -1      2681 2.42488E+01
 -1      2682 2.43743E+01
 -1      2683 2.42470E+01
 -1      2684 2.87915E+01
 -1      2685 2.40815E+01
 -1      2686 2.87544E+01
 -1      2687 2.40796E+01
 -1      2688 2.87525E+01
 -1      2689 2.41132E+01
 -1      2690 2.42302E+01
 -1      2691 2.44498E+01
 -1      2692 2.43328E+01
 -1      2693 2.02155E+01
 -1      2694 2.42202E+01
 -1      2695 2.34436E+01
 -1      2696 2.34693E+01
 -1      2697 1.94389E+01
 -1      2698 2.02392E+01
 -1      2699 2.42461E+01
 -1      2700 1.94290E+01
 -1      2701 2.34359E+01
 -1      2702 2.34358E+01
 -1      2703 2.06918E+01
 -1      2704 2.17076E+01
 -1      2705 2.12622E+01
 -1      2706 2.09310E+01
 -1      2707 2.04855E+01
 -1      2708 2.20556E+01
 -1      2709 2.17169E+01
 -1      2710 2.12607E+01
 -1      2711 2.04504E+01
 -1      2712 2.09066E+01
 -1      2713 2.30061E+01
 -1      2714 2.28483E+01
 -1      2715 2.22940E+01
 -1      2716 2.63877E+01
 -1      2717 2.24517E+01
 -1      2718 2.68063E+01
 -1      2719 2.24092E+01
 -1      2720 2.62519E+01
 -1      2721 2.18548E+01
 -1      2722 2.43937E+01
 -1      2723 2.41659E+01
 -1      2724 2.90175E+01
 -1      2725 2.87746E+01
 -1      2726 2.44712E+01
 -1      2727 2.44260E+01
 -1      2728 2.42434E+01
 -1      2729 2.41981E+01
 -1      2730 2.43462E+01
 -1      2731 2.42199E+01
 -1      2732 2.44360E+01
 -1      2733 2.43097E+01
 -1      2734 2.79979E+01
 -1      2735 2.39911E+01
 -1      2736 2.37275E+01
 -1      2737 2.37303E+01
 -1      2738 2.34667E+01
 -1      2739 2.39655E+01
 -1      2740 2.37279E+01
 -1      2741 2.36534E+01
 -1      2742 2.34157E+01
 -1      2743 2.77580E+01
 -1      2744 2.32229E+01
 -1      2745 2.76047E+01
 -1      2746 2.72925E+01
 -1      2747 2.29108E+01
 -1      2748 2.40677E+01
 -1      2749 2.87934E+01
 -1      2750 2.42195E+01
 -1      2751 2.89451E+01
 -1      2752 2.89451E+01
 -1      2753 2.41720E+01
 -1      2754 2.40049E+01
 -1      2755 2.44649E+01
 -1      2756 2.42978E+01
 -1      2757 2.86850E+01
 -1      2758 2.37664E+01
 -1      2759 2.83874E+01
 -1      2760 2.40592E+01
 -1      2761 2.86802E+01
 -1      2762 2.40792E+01
 -1      2763 2.41941E+01
 -1      2764 2.42310E+01
 -1      2765 2.43459E+01
 -1      2766 2.41509E+01
 -1      2767 2.39903E+01
 -1      2768 2.43768E+01
 -1      2769 2.42163E+01
 -1      2770 2.86181E+01
 -1      2771 2.81910E+01
 -1      2772 2.34672E+01
 -1      2773 2.31630E+01
 -1      2774 2.78527E+01
 -1      2775 2.78868E+01
 -1      2776 2.89308E+01
 -1      2777 2.38184E+01
 -1      2778 2.39535E+01
 -1      2779 2.41868E+01
 -1      2780 2.86254E+01
 -1      2781 2.40516E+01
 -1      2782 2.37483E+01
 -1      2783 2.83922E+01
 -1      2784 2.86254E+01
 -1      2785 2.39815E+01
 -1      2786 2.43979E+01
 -1      2787 2.93238E+01
 -1      2788 2.92846E+01
 -1      2789 2.38512E+01
 -1      2790 2.39828E+01
 -1      2791 2.41205E+01
 -1      2792 2.42521E+01
 -1      2793 2.37904E+01
 -1      2794 2.38619E+01
 -1      2795 2.34349E+01
 -1      2796 2.35063E+01
 -1      2797 2.78014E+01
 -1      2798 2.44563E+01
 -1      2799 2.39135E+01
 -1      2800 2.44782E+01
 -1      2801 2.46167E+01
 -1      2802 2.44693E+01
 -1      2803 2.91836E+01
 -1      2804 2.43308E+01
 -1      2805 2.41228E+01
 -1      2806 2.42491E+01
 -1      2807 2.40507E+01
 -1      2808 2.87764E+01
 -1      2809 2.87764E+01
 -1      2810 1.44793E+01
 -1      2811 1.51709E+01
 -1      2812 1.60464E+01
 -1      2813 1.80716E+01
 -1      2814 2.43761E+01
 -1      2815 2.87934E+01
 -1      2816 2.42488E+01
 -1      2817 2.40815E+01
 -1      2818 2.87544E+01
 -1      2819 2.41872E+01
 -1      2820 2.43041E+01
 -1      2821 2.43796E+01
 -1      2822 2.03749E+01
 -1      2823 2.44054E+01
 -1      2824 2.44828E+01
 -1      2825 2.04759E+01
 -1      2826 2.44827E+01
 -1      2827 2.14216E+01
 -1      2828 2.18670E+01
 -1      2829 2.19535E+01
 -1      2830 2.14973E+01
 -1      2831 2.41771E+01
 -1      2832 2.40622E+01
 -1      2833 2.38301E+01
 -1      2834 2.84039E+01
 -1      2835 2.39653E+01
 -1      2836 2.84039E+01
 -1      2837 2.37600E+01
 -1      2838 2.40655E+01
 -1      2839 2.39340E+01
 -1      2840 2.72004E+01
 -1      2841 2.27637E+01
 -1      2842 2.75952E+01
 -1      2843 2.41720E+01
 -1      2844 2.83922E+01
 -1      2845 2.40049E+01
 -1      2846 2.38745E+01
 -1      2847 2.40351E+01
 -1      2848 2.82764E+01
 -1      2849 2.83874E+01
 -1      2850 2.37664E+01
 -1      2851 1.87455E+01
 -1      2852 2.01125E+01
 -1      2853 2.43810E+01
 -1      2854 2.44824E+01
 -1      2855 2.35013E+01
 -1      2856 2.82251E+01
 -1      2857 2.81910E+01
 -1      2858 2.26123E+01
 -1      2859 2.70094E+01
 -1      2860 2.71452E+01
 -1      2861 2.35162E+01
 -1      2862 2.32526E+01
 -1      2863 2.30515E+01
 -1      2864 2.32093E+01
 -1      2865 1.68743E+01
 -1      2866 1.68743E+01
 -1      2867 1.75659E+01
 -1      2868 1.75659E+01
 -1      2869 2.37830E+01
 -1      2870 2.38549E+01
 -1      2871 2.34788E+01
 -1      2872 2.35506E+01
 -1      2873 2.37439E+01
 -1      2874 2.84750E+01
 -1      2875 2.39698E+01
 -1      2876 2.87009E+01
 -1      2877 2.90712E+01
 -1      2878 2.44114E+01
 -1      2879 2.89238E+01
 -1      2880 2.42641E+01
 -1      2881 2.87915E+01
 -1      2882 2.36287E+01
 -1      2883 2.36724E+01
 -1      2884 2.44563E+01
 -1      2885 2.38457E+01
 -1      2886 2.37743E+01
 -1      2887 2.81407E+01
 -1      2888 2.35265E+01
 -1      2889 2.89282E+01
 -1      2890 2.81407E+01
 -1      2891 2.34830E+01
 -1      2892 2.77852E+01
 -1      2893 2.31275E+01
 -1      2894 2.86372E+01
 -1      2895 1.78462E+01
 -1      2896 1.32103E+01
 -1      2897 1.29185E+01
 -1      2898 1.26156E+01
 -1      2899 2.86850E+01
 -1      2900 1.18790E+01
 -1      2901 1.27301E+01
 -1      2902 2.91484E+01
 -1      2903 2.85023E+01
 -1      2904 2.77852E+01
 -1      2905 2.78868E+01
 -1      2906 2.83592E+01
 -1      2907 2.36281E+01
 -1      2908 2.38889E+01
 -1      2909 2.38171E+01
 -1      2910 2.73343E+01
 -1      2911 2.37279E+01
 -1      2912 2.39655E+01
 -1      2913 2.80702E+01
 -1      2914 2.65909E+01
 -1      2915 2.76047E+01
 -1      2916 2.32229E+01
 -1      2917 2.43968E+01
 -1      2918 2.90055E+01
 -1      2919 2.92484E+01
 -1      2920 2.34668E+01
 -1      2921 2.81246E+01
 -1      2922 2.44290E+01
 -1      2923 2.44743E+01
 -1      2924 2.43163E+01
 -1      2925 2.91691E+01
 -1      2926 2.44549E+01
 -1      2927 3.74374E+01
 -1      2928 3.74374E+01
 -1      2929 3.47391E+01
 -1      2930 3.47391E+01
 -1      2931 3.47391E+01
 -1      2932 1.51247E+01
 -1      2933 1.34881E+01
 -1      2934 1.26126E+01
 -1      2935 1.55134E+01
 -1      2936 3.74374E+01
 -1      2937 2.42496E+01
 -1      2938 2.89094E+01
 -1      2939 2.77580E+01
 -1      2940 1.50076E+01
 -1      2941 1.50076E+01
 -1      2942 1.00078E+01
 -1      2943 1.01030E+01
 -1      2944 1.00316E+01
 -1      2945 2.90206E+01
 -1      2946 9.70146E+00
 -1      2947 1.25169E+01
 -1      2948 9.60631E+00
 -1      2949 2.90217E+01
 -1      2950 1.62050E+01
 -1      2951 1.38223E+01
 -1      2952 1.55511E+01
 -1      2953 1.67572E+01
 -1      2954 1.85423E+01
 -1      2955 2.02712E+01
 -1      2956 1.73362E+01
 -1      2957 1.30675E+01
 -1      2958 1.30737E+01
 -1      2959 1.85772E+01
 -1      2960 2.25666E+01
 -1      2961 2.25605E+01
 -1      2962 1.36519E+01
 -1      2963 1.53808E+01
 -1      2964 1.22755E+01
 -1      2965 1.53808E+01
 -1      2966 1.31240E+01
 -1      2967 1.20845E+01
 -1      2968 1.29356E+01
 -1      2969 2.89846E+01
 -1      2970 3.32223E+01
 -1      2971 3.14410E+01
 -1      2972 3.47391E+01
 -1      2973 3.47391E+01
 -1      2974 9.81948E+00
 -1      2975 9.84330E+00
 -1      2976 3.31568E+01
 -1      2977 2.44699E+01
 -1      2978 3.04586E+01
 -1      2979 2.91836E+01
 -1      2980 2.90362E+01
 -1      2981 2.91836E+01
 -1      2982 2.91691E+01
 -1      2983 2.90217E+01
 -1      2984 2.90217E+01
 -1      2985 2.61655E+01
 -1      2986 2.68736E+01
 -1      2987 2.62340E+01
 -1      2988 2.64132E+01
 -1      2989 2.71213E+01
 -1      2990 2.70528E+01
 -1      2991 1.33572E+01
 -1      2992 1.33572E+01
 -1      2993 1.30544E+01
 -1      2994 2.32257E+01
 -1      2995 2.31572E+01
 -1      2996 2.34049E+01
 -1      2997 3.20408E+01
 -1      2998 2.32962E+01
 -1      2999 2.77093E+01
 -1      3000 2.36571E+01
 -1      3001 2.32623E+01
 -1      3002 2.76754E+01
 -1      3003 2.73145E+01
 -1      3004 2.44493E+01
 -1      3005 2.91691E+01
 -1      3006 2.46111E+01
 -1      3007 2.46111E+01
 -1      3008 2.93309E+01
 -1      3009 2.91691E+01
 -1      3010 2.72343E+01
 -1      3011 2.75952E+01
 -1      3012 2.72004E+01
 -1      3013 2.18115E+01
 -1      3014 2.20592E+01
 -1      3015 1.98335E+01
 -1      3016 2.00812E+01
 -1      3017 2.87907E+01
 -1      3018 2.89525E+01
 -1      3019 2.89525E+01
 -1      3020 1.70955E+01
 -1      3021 1.77871E+01
 -1      3022 1.84732E+01
 -1      3023 1.88961E+01
 -1      3024 1.78462E+01
 -1      3025 2.41109E+01
 -1      3026 2.40965E+01
 -1      3027 2.32123E+01
 -1      3028 2.34154E+01
 -1      3029 1.95565E+01
 -1      3030 2.32183E+01
 -1      3031 2.27433E+01
 -1      3032 2.93238E+01
 -1      3033 2.92846E+01
 -1      3034 2.93238E+01
 -1      3035 1.23286E+01
 -1      3036 2.66705E+01
 -1      3037 2.68063E+01
 -1      3038 2.70094E+01
 -1      3039 2.71202E+01
 -1      3040 2.80702E+01
 -1      3041 2.80702E+01
 -1      3042 2.42110E+01
 -1      3043 2.40636E+01
 -1      3044 2.93238E+01
 -1      3045 2.93238E+01
 -1      3046 2.44250E+01
 -1      3047 2.44642E+01
 -1      3048 2.43189E+01
 -1      3049 2.44662E+01
 -1      3050 2.43044E+01
 -1      3051 2.70094E+01
 -1      3052 2.66705E+01
 -1      3053 1.88807E+01
 -1      3054 1.98965E+01
 -1      3055 1.98626E+01
 -1      3056 2.90362E+01
 -1      3057 1.77666E+01
 -1      3058 1.77291E+01
 -1      3059 2.30368E+01
 -1      3060 2.39438E+01
 -1      3061 2.39813E+01
 -1      3062 2.44203E+01
 -1      3063 2.38774E+01
 -1      3064 2.88947E+01
 -1      3065 2.24746E+01
 -1      3066 2.24407E+01
 -1      3067 1.96196E+01
 -1      3068 2.83922E+01
 -1      3069 2.04549E+01
 -1      3070 2.06167E+01
 -1      3071 2.92463E+01
 -1      3072 2.92494E+01
 -1      3073 2.44662E+01
 -1      3074 2.44652E+01
 -1      3075 2.92877E+01
 -1      3076 2.38512E+01
 -1      3077 2.87374E+01
 -1      3078 1.98844E+01
 -1      3079 2.22233E+01
 -1      3080 2.05406E+01
 -1      3081 2.05239E+01
 -1      3082 1.97721E+01
 -1      3083 2.07499E+01
 -1      3084 1.99981E+01
 -1      3085 2.22823E+01
 -1      3086 2.20563E+01
 -1      3087 2.16289E+01
 -1      3088 2.17959E+01
 -1      3089 2.22233E+01
 -1      3090 2.13104E+01
 -1      3091 2.19634E+01
 -1      3092 2.41944E+01
 -1      3093 2.43796E+01
 -1      3094 2.42202E+01
 -1      3095 2.42463E+01
 -1      3096 2.44828E+01
 -1      3097 2.42461E+01
 -1      3098 2.17078E+01
 -1      3099 2.44055E+01
 -1      3100 2.16911E+01
 -1      3101 2.44569E+01
 -1      3102 2.43292E+01
 -1      3103 2.87934E+01
 -1      3104 2.41132E+01
 -1      3105 2.35707E+01
 -1      3106 2.72806E+01
 -1      3107 2.41626E+01
 -1      3108 2.83992E+01
 -1      3109 2.10844E+01
 -1      3110 1.88002E+01
 -1      3111 2.13104E+01
 -1      3112 2.20563E+01
 -1      3113 1.97174E+01
 -1      3114 2.22233E+01
 -1      3115 2.20563E+01
 -1      3116 2.01125E+01
 -1      3117 2.30765E+01
 -1      3118 2.40210E+01
 -1      3119 2.92912E+01
 -1      3120 2.37025E+01
 -1      3121 2.44501E+01
 -1      3122 2.89413E+01
 -1      3123 2.93309E+01
 -1      3124 2.93309E+01
 -1      3125 2.42548E+01
 -1      3126 2.81606E+01
 -1      3127 2.07385E+01
 -1      3128 2.07747E+01
 -1      3129 2.85991E+01
 -1      3130 2.39821E+01
 -1      3131 2.83849E+01
 -1      3132 2.89308E+01
 -1      3133 2.89308E+01
 -1      3134 1.93791E+01
 -1      3135 2.36571E+01
 -1      3136 2.82251E+01
 -1      3137 2.81910E+01
 -1      3138 2.82251E+01
 -1      3139 1.72539E+01
 -1      3140 1.72317E+01
 -1      3141 1.95370E+01
 -1      3142 2.89094E+01
 -1      3143 2.81246E+01
 -1      3144 2.81407E+01
 -1      3145 2.81246E+01
 -1      3146 1.94684E+01
 -1      3147 2.85578E+01
 -1      3148 2.38960E+01
 -1      3149 2.81748E+01
 -1      3150 2.38387E+01
 -1      3151 2.81748E+01
 -1      3152 1.16845E+01
 -1      3153 1.18364E+01
 -1      3154 2.12420E+01
 -1      3155 2.13939E+01
 -1      3156 2.24833E+01
 -1      3157 1.95710E+01
 -1      3158 1.93420E+01
 -1      3159 2.06776E+01
 -1      3160 2.06631E+01
 -1      3161 1.94882E+01
 -1      3162 1.93422E+01
 -1      3163 1.64072E+01
 -1      3164 2.11273E+01
 -1      3165 1.76134E+01
 -1      3166 2.16903E+01
 -1      3167 2.73776E+01
 -1      3168 2.17674E+01
 -1      3169 2.20751E+01
 -1      3170 2.77624E+01
 -1      3171 2.76853E+01
 -1      3172 2.41225E+01
 -1      3173 2.42843E+01
 -1      3174 1.91165E+01
 -1      3175 1.90933E+01
 -1      3176 2.44828E+01
 -1      3177 2.42463E+01
 -1      3178 2.43796E+01
 -1      3179 2.41944E+01
 -1      3180 1.83504E+01
 -1      3181 1.80879E+01
 -1      3182 1.82763E+01
 -1      3183 1.81171E+01
 -1      3184 1.93096E+01
 -1      3185 2.82251E+01
 -1      3186 2.82251E+01
 -1      3187 2.81246E+01
 -1      3188 2.81246E+01
 -1      3189 1.50822E+01
 -1      3190 1.55880E+01
 -1      3191 1.74272E+01
 -1      3192 1.79330E+01
 -1      3193 1.61409E+01
 -1      3194 1.94000E+01
 -1      3195 2.03096E+01
 -1      3196 2.03598E+01
 -1      3197 2.44493E+01
 -1      3198 2.03579E+01
 -1      3199 2.03076E+01
 -1      3200 1.44519E+01
 -1      3201 1.97596E+01
 -1      3202 1.11816E+01
 -1      3203 1.15754E+01
 -1      3204 2.61288E+01
 -1      3205 2.79102E+01
 -1      3206 2.36951E+01
 -1      3207 7.29513E+00
 -1      3208 7.29513E+00
 -1      3209 1.03234E+01
 -1      3210 1.03234E+01
 -1      3211 1.04737E+01
 -1      3212 2.92912E+01
 -1      3213 2.39813E+01
 -1      3214 2.92515E+01
 -1      3215 2.80166E+01
 -1      3216 2.53183E+01
 -1      3217 2.52119E+01
 -1      3218 7.18036E+00
 -1      3219 9.84330E+00
 -1      3220 9.99360E+00
 -1      3221 9.87883E+00
 -1      3222 2.62352E+01
 -1      3223 1.17283E+01
 -1      3224 1.27065E+01
 -1      3225 1.15400E+01
 -1      3226 1.25181E+01
 -1      3227 1.32826E+01
 -1      3228 1.32826E+01
 -1      3229 1.35744E+01
 -1      3230 2.70060E+01
 -1      3231 2.71852E+01
 -1      3232 2.87746E+01
 -1      3233 2.88662E+01
 -1      3234 3.03874E+01
 -1      3235 3.30856E+01
 -1      3236 2.88051E+01
 -1      3237 3.32049E+01
 -1      3238 3.03874E+01
 -1      3239 3.05066E+01
 -1      3240 1.76485E+01
 -1      3241 2.33915E+01
 -1      3242 2.71213E+01
 -1      3243 2.30275E+01
 -1      3244 2.39911E+01
 -1      3245 2.80702E+01
 -1      3246 2.32183E+01
 -1      3247 2.16289E+01
 -1      3248 2.20563E+01
 -1      3249 2.20563E+01
 -1      3250 1.97721E+01
 -1      3251 2.05239E+01
 -1      3252 2.76047E+01
 -1      3253 2.80702E+01
 -1      3254 2.71852E+01
 -1      3255 2.64132E+01
 -1      3256 1.22431E+01
 -1      3257 1.39735E+01
 -1      3258 2.30899E+01
 -1      3259 2.69855E+01
 -1      3260 1.71550E+01
 -1      3261 1.63921E+01
 -1      3262 1.58298E+01
 -1      3263 1.68177E+01
 -1      3264 1.65926E+01
 -1      3265 3.05066E+01
 -1      3266 2.19135E+01
 -1      3267 2.23409E+01
 -1      3268 2.23409E+01
 -1      3269 2.08085E+01
 -1      3270 2.30368E+01
 -1      3271 1.33630E+01
 -1      3272 1.57081E+01
 -1      3273 1.95587E+01
 -1      3274 2.89525E+01
 -1      3275 2.93309E+01
 -1      3276 2.93309E+01
 -1      3277 2.92494E+01
 -1      3278 2.46167E+01
 -1      3279 2.42110E+01
 -1      3280 2.44280E+01
 -1      3281 2.27537E+01
 -1      3282 2.65321E+01
 -1      3283 1.54111E+01
 -1      3284 2.03200E+01
 -1      3285 2.40984E+01
 -1      3286 1.13268E+01
 -1      3287 1.27065E+01
 -1      3288 1.15164E+01
 -1      3289 1.23050E+01
 -1      3290 1.15400E+01
 -1      3291 1.01798E+01
 -1      3292 1.19339E+01
 -1      3293 1.18414E+01
 -1      3294 1.25829E+01
 -1      3295 1.14901E+01
 -1      3296 2.32058E+01
 -1      3297 2.21589E+01
 -1      3298 2.34002E+01
 -1      3299 1.03948E+01
 -1      3300 9.80016E+00
 -1      3301 1.48399E+01
 -1      3302 3.56560E+01
 -1      3303 3.29577E+01
 -1      3304 2.45353E+01
 -1      3305 3.32223E+01
 -1      3306 3.14410E+01
 -1      3307 1.03234E+01
 -1      3308 1.58245E+01
 -1      3309 1.70225E+01
 -1      3310 1.68033E+01
 -1      3311 1.69704E+01
 -1      3312 1.76037E+01
 -1      3313 1.77707E+01
 -1      3314 1.66627E+01
 -1      3315 1.78606E+01
 -1      3316 2.89846E+01
 -1      3317 7.29465E+00
 -1      3318 7.78223E+00
 -1      3319 1.01662E+01
 -1      3320 9.73151E+00
 -1      3321 9.67858E+00
 -1      3322 2.19082E+01
 -1      3323 2.54858E+01
 -1      3324 1.53531E+01
 -1      3325 2.03259E+01
 -1      3326 2.39035E+01
 -1      3327 1.73707E+01
 -1      3328 1.68177E+01
 -1      3329 1.62554E+01
 -1      3330 1.73707E+01
 -1      3331 1.79413E+01
 -1      3332 1.68260E+01
 -1      3333 1.07327E+01
 -1      3334 1.22141E+01
 -1      3335 2.21402E+01
 -1      3336 2.62340E+01
 -1      3337 2.64132E+01
 -1      3338 2.76315E+01
 -1      3339 2.35524E+01
 -1      3340 2.76315E+01
 -1      3341 2.55259E+01
 -1      3342 2.71660E+01
 -1      3343 1.94578E+01
 -1      3344 1.91427E+01
 -1      3345 1.24367E+01
 -1      3346 1.22712E+01
 -1      3347 2.13782E+01
 -1      3348 2.12127E+01
 -1      3349 2.30994E+01
 -1      3350 1.16915E+01
 -1      3351 1.12201E+01
 -1      3352 1.24331E+01
 -1      3353 3.11136E+01
 -1      3354 3.15521E+01
 -1      3355 3.15521E+01
 -1      3356 3.20408E+01
 -1      3357 3.11136E+01
 -1      3358 2.36951E+01
 -1      3359 3.32223E+01
 -1      3360 3.05241E+01
 -1      3361 2.44596E+01
 -1      3362 2.44596E+01
 -1      3363 1.89808E+01
 -1      3364 1.89808E+01
 -1      3365 1.89808E+01
 -1      3366 2.88706E+01
 -1      3367 1.34881E+01
 -1      3368 2.90333E+01
 -1      3369 2.91133E+01
 -1      3370 2.92438E+01
 -1      3371 2.91000E+01
 -1      3372 2.91800E+01
 -1      3373 2.89695E+01
 -1      3374 1.50256E+01
 -1      3375 1.54474E+01
 -1      3376 1.86246E+01
 -1      3377 1.53087E+01
 -1      3378 1.70939E+01
 -1      3379 2.02712E+01
 -1      3380 2.04098E+01
 -1      3381 1.87210E+01
 -1      3382 1.87210E+01
 -1      3383 1.87632E+01
 -1      3384 1.94379E+01
 -1      3385 1.94379E+01
 -1      3386 1.93956E+01
 -1      3387 2.91000E+01
 -1      3388 2.89695E+01
 -1      3389 2.90362E+01
 -1      3390 2.91484E+01
 -1      3391 2.67378E+01
 -1      3392 2.34695E+01
 -1      3393 2.34436E+01
 -1      3394 2.34359E+01
 -1      3395 2.34100E+01
 -1      3396 2.62519E+01
 -1      3397 3.23351E+01
 -1      3398 3.20316E+01
 -1      3399 3.20316E+01
 -1      3400 3.38746E+01
 -1      3401 3.23351E+01
 -1      3402 1.61220E+01
 -1      3403 1.94379E+01
 -1      3404 2.10844E+01
 -1      3405 1.93956E+01
 -1      3406 2.01125E+01
 -1      3407 2.78868E+01
 -1      3408 2.90073E+01
 -1      3409 1.37213E+01
 -1      3410 2.90567E+01
 -1      3411 1.80157E+01
 -1      3412 1.77311E+01
 -1      3413 1.67791E+01
 -1      3414 1.64944E+01
 -1      3415 2.91036E+01
 -1      3416 2.43894E+01
 -1      3417 2.91036E+01
 -1      3418 2.78365E+01
 -1      3419 2.51720E+01
 -1      3420 2.51720E+01
 -1      3421 1.88569E+01
 -1      3422 1.88569E+01
 -1      3423 1.88569E+01
 -1      3424 2.08448E+01
 -1      3425 2.09086E+01
 -1      3426 2.09922E+01
 -1      3427 2.92474E+01
 -1      3428 2.91836E+01
 -1      3429 2.78355E+01
 -1      3430 2.77852E+01
 -1      3431 2.85439E+01
 -1      3432 2.85078E+01
 -1      3433 2.89418E+01
 -1      3434 2.87252E+01
 -1      3435 2.72213E+01
 -1      3436 2.73484E+01
 -1      3437 2.72213E+01
 -1      3438 2.71073E+01
 -1      3439 2.72343E+01
 -1      3440 2.72343E+01
 -1      3441 2.92076E+01
 -1      3442 2.09524E+01
 -1      3443 2.92912E+01
 -1      3444 9.83021E+00
 -1      3445 1.02649E+01
 -1      3446 3.10635E+01
 -1      3447 3.15521E+01
 -1      3448 1.87863E+01
 -1      3449 2.53017E+01
 -1      3450 1.93687E+01
 -1      3451 1.98292E+01
 -1      3452 2.63446E+01
 -1      3453 2.57622E+01
 -1      3454 2.56715E+01
 -1      3455 2.50505E+01
 -1      3456 2.53404E+01
 -1      3457 2.63833E+01
 -1      3458 2.60933E+01
 -1      3459 1.43669E+01
 -1      3460 1.47925E+01
 -1      3461 2.22589E+01
 -1      3462 2.73776E+01
 -1      3463 2.22527E+01
 -1      3464 2.86254E+01
 -1      3465 2.86052E+01
 -1      3466 2.88385E+01
 -1      3467 2.88587E+01
 -1      3468 2.88385E+01
 -1      3469 2.86254E+01
 -1      3470 2.02845E+01
 -1      3471 2.85096E+01
 -1      3472 2.06335E+01
 -1      3473 2.06696E+01
 -1      3474 2.88947E+01
 -1      3475 2.85457E+01
 -1      3476 2.85457E+01
 -1      3477 2.85457E+01
 -1      3478 2.89308E+01
 -1      3479 1.08314E+01
 -1      3480 1.10460E+01
 -1      3481 1.11369E+01
 -1      3482 1.24037E+01
 -1      3483 1.09222E+01
 -1      3484 1.52284E+01
 -1      3485 1.47725E+01
 -1      3486 1.97632E+01
 -1      3487 2.37687E+01
 -1      3488 1.50256E+01
 -1      3489 1.86246E+01
 -1      3490 2.10844E+01
 -1      3491 2.20563E+01
 -1      3492 2.40163E+01
 -1      3493 2.21296E+01
 -1      3494 1.24945E+01
 -1      3495 2.75952E+01
 -1      3496 2.73245E+01
 -1      3497 2.41870E+01
 -1      3498 2.86615E+01
 -1      3499 2.88947E+01
 -1      3500 2.72213E+01
 -1      3501 2.73484E+01
 -1      3502 2.73484E+01
 -1      3503 1.77080E+01
 -1      3504 1.79330E+01
 -1      3505 1.73707E+01
 -1      3506 2.73005E+01
 -1      3507 3.11136E+01
 -1      3508 3.20408E+01
 -1      3509 1.50228E+01
 -1      3510 1.24095E+01
 -1      3511 1.53809E+01
 -1      3512 1.55147E+01
 -1      3513 1.72998E+01
 -1      3514 1.71660E+01
 -1      3515 1.24294E+01
 -1      3516 1.55246E+01
 -1      3517 1.56680E+01
 -1      3518 1.63426E+01
 -1      3519 1.61992E+01
 -1      3520 1.22758E+01
 -1      3521 1.53809E+01
 -1      3522 1.22859E+01
 -1      3523 1.55246E+01
 -1      3524 1.22859E+01
 -1      3525 1.55246E+01
 -1      3526 1.22758E+01
 -1      3527 1.53809E+01
 -1      3528 2.80702E+01
 -1      3529 2.93309E+01
 -1      3530 1.44727E+01
 -1      3531 1.43777E+01
 -1      3532 2.23943E+01
 -1      3533 2.22993E+01
 -1      3534 1.94267E+01
 -1      3535 2.55622E+01
 -1      3536 2.21427E+01
 -1      3537 1.56640E+01
 -1      3538 2.40454E+01
 -1      3539 2.06259E+01
 -1      3540 2.92877E+01
 -1      3541 1.83862E+01
 -1      3542 1.83862E+01
 -1      3543 2.63833E+01
 -1      3544 2.68051E+01
 -1      3545 2.60933E+01
 -1      3546 1.96158E+01
 -1      3547 2.61312E+01
 -1      3548 2.65917E+01
 -1      3549 2.92515E+01
 -1      3550 1.57523E+01
 -1      3551 1.86437E+01
 -1      3552 1.86437E+01
 -1      3553 1.46470E+01
 -1      3554 1.52770E+01
 -1      3555 2.40009E+01
 -1      3556 2.03122E+01
 -1      3557 1.96823E+01
 -1      3558 2.90129E+01
 -1      3559 2.91836E+01
 -1      3560 2.88655E+01
 -1      3561 2.89571E+01
 -1      3562 2.61655E+01
 -1      3563 2.25079E+01
 -1      3564 2.25415E+01
 -1      3565 2.26005E+01
 -1      3566 2.25669E+01
 -1      3567 2.56796E+01
 -1      3568 2.74145E+01
 -1      3569 2.73706E+01
 -1      3570 2.73632E+01
 -1      3571 2.73193E+01
 -1      3572 2.89451E+01
 -1      3573 2.88480E+01
 -1      3574 2.86968E+01
 -1      3575 2.87678E+01
 -1      3576 2.86298E+01
 -1      3577 2.89158E+01
 -1      3578 2.06335E+01
 -1      3579 2.88587E+01
 -1      3580 2.88947E+01
 -1      3581 2.88385E+01
 -1      3582 2.88587E+01
 -1      3583 2.87009E+01
 -1      3584 3.07956E+01
 -1      3585 3.23351E+01
 -1      3586 1.14290E+01
 -1      3587 1.06252E+01
 -1      3588 1.23792E+01
 -1      3589 1.23792E+01
 -1      3590 2.68051E+01
 -1      3591 2.60933E+01
 -1      3592 2.68051E+01
 -1      3593 1.21692E+01
 -1      3594 2.50910E+01
 -1      3595 1.85627E+01
 -1      3596 1.29120E+01
 -1      3597 7.78223E+00
 -1      3598 9.83021E+00
 -1      3599 2.92076E+01
 -1      3600 2.92877E+01
 -1      3601 2.91438E+01
 -1      3602 1.55701E+01
 -1      3603 1.78466E+01
 -1      3604 2.91438E+01
 -1      3605 2.01979E+01
 -1      3606 2.77093E+01
 -1      3607 1.98370E+01
 -1      3608 1.98131E+01
 -1      3609 2.73245E+01
 -1      3610 2.76853E+01
 -1      3611 1.94808E+01
 -1      3612 1.94808E+01
 -1      3613 2.01554E+01
 -1      3614 1.93422E+01
 -1      3615 2.11273E+01
 -1      3616 2.92912E+01
 -1      3617 2.63446E+01
 -1      3618 2.65917E+01
 -1      3619 1.42169E+01
 -1      3620 1.43962E+01
 -1      3621 2.27599E+01
 -1      3622 1.97064E+01
 -1      3623 1.95271E+01
 -1      3624 2.88947E+01
 -1      3625 2.88947E+01
 -1      3626 1.14449E+01
 -1      3627 2.31900E+01
 -1      3628 1.51709E+01
 -1      3629 1.51915E+01
 -1      3630 2.03130E+01
 -1      3631 2.41300E+01
 -1      3632 2.41094E+01
 -1      3633 2.01554E+01
 -1      3634 2.92515E+01
 -1      3635 2.57622E+01
 -1      3636 2.43574E+01
 -1      3637 1.82841E+01
 -1      3638 2.85457E+01
 -1      3639 2.77093E+01
 -1      3640 2.86615E+01
 -1      3641 1.54169E+01
 -1      3642 2.05383E+01
 -1      3643 2.41698E+01
 -1      3644 2.05781E+01
 -1      3645 2.74016E+01
 -1      3646 2.74016E+01
 -1      3647 2.72875E+01
 -1      3648 1.55619E+01
 -1      3649 2.42492E+01
 -1      3650 3.56560E+01
 -1      3651 1.28987E+01
 -1      3652 1.33316E+01
 -1      3653 1.56767E+01
 -1      3654 1.42472E+01
 -1      3655 2.26109E+01
 -1      3656 1.93216E+01
 -1      3657 2.22261E+01
 -1      3658 1.16022E+01
 -1      3659 1.08221E+01
 -1      3660 1.33630E+01
 -1      3661 1.20351E+01
 -1      3662 2.90073E+01
 -1      3663 3.38746E+01
 -1      3664 3.20316E+01
 -1      3665 1.98370E+01
 -1      3666 2.89418E+01
 -1      3667 1.17876E+01
 -1      3668 1.31452E+01
 -1      3669 1.50028E+01
 -1      3670 1.97608E+01
 -1      3671 1.50784E+01
 -1      3672 2.00511E+01
 -1      3673 2.74016E+01
 -1      3674 2.21818E+01
 -1      3675 2.73005E+01
 -1      3676 2.76853E+01
 -1      3677 1.51383E+01
 -1      3678 2.39635E+01
 -1      3679 1.25284E+01
 -1      3680 1.25037E+01
 -1      3681 1.55052E+01
 -1      3682 1.57617E+01
 -1      3683 1.55300E+01
 -1      3684 1.19471E+01
 -1      3685 1.52051E+01
 -1      3686 1.64363E+01
 -1      3687 1.62046E+01
 -1      3688 2.20883E+01
 -1      3689 2.20112E+01
 -1      3690 1.77353E+01
 -1      3691 1.86643E+01
 -1      3692 1.98723E+01
 -1      3693 2.08013E+01
 -1      3694 2.92515E+01
 -1      3695 2.92912E+01
 -1      3696 2.31192E+01
 -1      3697 2.31590E+01
 -1      3698 1.23726E+01
 -1      3699 1.19363E+01
 -1      3700 1.08069E+01
 -1      3701 1.24450E+01
 -1      3702 1.20087E+01
 -1      3703 1.58009E+01
 -1      3704 2.41823E+01
 -1      3705 2.07824E+01
 -1      3706 2.07186E+01
 -1      3707 2.41185E+01
 -1      3708 1.55667E+01
 -1      3709 2.05482E+01
 -1      3710 1.55517E+01
 -1      3711 2.41673E+01
 -1      3712 1.94674E+01
 -1      3713 2.40137E+01
 -1      3714 1.57309E+01
 -1      3715 2.05069E+01
 -1      3716 1.29354E+01
 -1      3717 1.75453E+01
 -1      3718 1.33780E+01
 -1      3719 1.84583E+01
 -1      3720 1.39447E+01
 -1      3721 1.76029E+01
 -1      3722 1.43487E+01
 -1      3723 1.33695E+01
 -1      3724 1.84593E+01
 -1      3725 1.62522E+01
 -1      3726 1.47680E+01
 -1      3727 2.17395E+01
 -1      3728 1.43688E+01
 -1      3729 1.94343E+01
 -1      3730 1.50112E+01
 -1      3731 1.89898E+01
 -1      3732 1.43840E+01
 -1      3733 2.12275E+01
 -1      3734 1.57968E+01
 -1      3735 1.57586E+01
 -1      3736 1.92948E+01
 -1      3737 2.39749E+01
 -1      3738 2.07616E+01
 -1      3739 1.53167E+01
 -1      3740 1.98517E+01
 -1      3741 1.52186E+01
 -1      3742 2.28127E+01
 -1      3743 1.52383E+01
 -1      3744 1.98089E+01
 -1      3745 1.58170E+01
 -1      3746 2.06945E+01
 -1      3747 1.56373E+01
 -1      3748 2.40397E+01
 -1      3749 1.51296E+01
 -1      3750 2.28691E+01
 -1      3751 1.57517E+01
 -1      3752 2.05732E+01
 -1      3753 1.57404E+01
 -1      3754 2.41402E+01
 -1      3755 1.94742E+01
 -1      3756 1.87994E+01
 -1      3757 1.55334E+01
 -1      3758 1.57983E+01
 -1      3759 2.06725E+01
 -1      3760 1.56915E+01
 -1      3761 1.93587E+01
 -1      3762 2.41415E+01
 -1      3763 2.07825E+01
 -1      3764 1.56511E+01
 -1      3765 1.54312E+01
 -1      3766 2.05283E+01
 -1      3767 2.37616E+01
 -1      3768 1.58209E+01
 -1      3769 2.39924E+01
 -1      3770 1.88962E+01
 -1      3771 2.37711E+01
 -1      3772 1.57543E+01
 -1      3773 2.06063E+01
 -1      3774 2.77624E+01
 -1      3775 2.73776E+01
 -1      3776 1.54467E+01
 -1      3777 2.01226E+01
 -1      3778 1.80218E+01
 -1      3779 1.34251E+01
 -1      3780 2.11655E+01
 -1      3781 1.90647E+01
 -1      3782 1.66166E+01
 -1      3783 2.02069E+01
 -1      3784 1.14290E+01
 -1      3785 1.53700E+01
 -1      3786 2.33200E+01
 -1      3787 1.59985E+01
 -1      3788 2.43799E+01
 -1      3789 2.63909E+01
 -1      3790 2.32100E+01
 -1      3791 1.57263E+01
 -1      3792 2.39572E+01
 -1      3793 2.07763E+01
 -1      3794 2.34868E+01
 -1      3795 1.97699E+01
 -1      3796 1.48645E+01
 -1      3797 2.37200E+01
 -1      3798 2.00032E+01
 -1      3799 2.33340E+01
 -1      3800 1.96410E+01
 -1      3801 1.48145E+01
 -1      3802 2.37191E+01
 -1      3803 2.00261E+01
 -1      3804 1.28987E+01
 -1      3805 2.07781E+01
 -1      3806 1.90774E+01
 -1      3807 1.39714E+01
 -1      3808 1.99333E+01
 -1      3809 1.82326E+01
 -1      3810 2.50392E+01
 -1      3811 2.05179E+01
 -1      3812 1.88089E+01
 -1      3813 1.39451E+01
 -1      3814 1.99502E+01
 -1      3815 1.82412E+01
 -1      3816 2.48139E+01
 -1      3817 2.22803E+01
 -1      3818 2.20351E+01
 -1      3819 2.19210E+01
 -1      3820 1.93127E+01
 -1      3821 1.87364E+01
 -1      3822 1.57329E+01
 -1      3823 2.03603E+01
 -1      3824 2.06945E+01
 -1      3825 2.40397E+01
 -1      3826 2.90969E+01
 -1      3827 2.08211E+01
 -1      3828 2.40344E+01
 -1      3829 2.90374E+01
 -1      3830 1.70178E+01
 -1      3831 1.76924E+01
 -1      3832 1.90162E+01
 -1      3833 2.08013E+01
 -1      3834 2.41053E+01
 -1      3835 2.39615E+01
 -1      3836 2.31554E+01
 -1      3837 2.04560E+01
 -1      3838 2.30116E+01
 -1      3839 1.25361E+01
 -1      3840 1.26877E+01
 -1      3841 2.13172E+01
 -1      3842 1.81757E+01
 -1      3843 1.27230E+01
 -1      3844 1.35046E+01
 -1      3845 1.74596E+01
 -1      3846 1.95097E+01
 -1      3847 1.35345E+01
 -1      3848 1.94964E+01
 -1      3849 1.27402E+01
 -1      3850 1.74382E+01
 -1      3851 1.40641E+01
 -1      3852 1.44444E+01
 -1      3853 1.95069E+01
 -1      3854 2.36541E+01
 -1      3855 1.52605E+01
 -1      3856 1.40254E+01
 -1      3857 1.94594E+01
 -1      3858 2.36629E+01
 -1      3859 2.07825E+01
 -1      3860 2.41415E+01
 -1      3861 2.92325E+01
 -1      3862 2.08668E+01
 -1      3863 2.41866E+01
 -1      3864 2.90383E+01
 -1      3865 1.52365E+01
 -1      3866 2.36865E+01
 -1      3867 1.44988E+01
 -1      3868 1.95447E+01
 -1      3869 2.02410E+01
 -1      3870 2.33541E+01
 -1      3871 2.81910E+01
 -1      3872 1.38464E+01
 -1      3873 1.49580E+01
 -1      3874 2.29421E+01
 -1      3875 1.91294E+01
 -1      3876 1.39994E+01
 -1      3877 1.95454E+01
 -1      3878 2.03579E+01
 -1      3879 2.33333E+01
 -1      3880 1.54059E+01
 -1      3881 2.02775E+01
 -1      3882 2.32529E+01
 -1      3883 2.82050E+01
 -1      3884 1.43500E+01
 -1      3885 1.94886E+01
 -1      3886 2.92515E+01
 -1      3887 2.76853E+01
 -1      3888 2.73005E+01
 -1      3889 1.41361E+01
 -1      3890 2.35061E+01
 -1      3891 1.42991E+01
 -1      3892 1.95108E+01
 -1      3893 1.38539E+01
 -1      3894 1.42406E+01
 -1      3895 1.91123E+01
 -1      3896 2.28662E+01
 -1      3897 1.41530E+01
 -1      3898 2.38408E+01
 -1      3899 2.49732E+01
 -1      3900 1.86847E+01
 -1      3901 2.48139E+01
 -1      3902 1.89328E+01
 -1      3903 2.52244E+01
 -1      3904 2.50392E+01
 -1      3905 2.92912E+01
 -1      3906 1.47859E+01
 -1      3907 1.49292E+01
 -1      3908 2.24840E+01
 -1      3909 1.97936E+01
 -1      3910 2.23407E+01
 -1      3911 1.85537E+01
 -1      3912 1.94410E+01
 -1      3913 2.92438E+01
 -1      3914 2.92438E+01
 -1      3915 1.90066E+01
 -1      3916 1.94453E+01
 -1      3917 2.81910E+01
 -1      3918 2.81910E+01
 -1      3919 2.11156E+01
 -1      3920 2.20030E+01
 -1      3921 2.82050E+01
 -1      3922 2.82050E+01
 -1      3923 2.22022E+01
 -1      3924 2.26409E+01
 -1      3925 1.41298E+01
 -1      3926 2.35498E+01
 -1      3927 2.81407E+01
 -1      3928 2.03258E+01
 -1      3929 2.06947E+01
 -1      3930 2.70094E+01
 -1      3931 2.70094E+01
 -1      3932 2.82552E+01
 -1      3933 2.03880E+01
 -1      3934 1.54509E+01
 -1      3935 2.05010E+01
 -1      3936 1.16508E+01
 -1      3937 1.32889E+01
 -1      3938 1.57053E+01
 -1      3939 2.42116E+01
 -1      3940 2.01009E+01
 -1      3941 2.03283E+01
 -1      3942 1.29310E+01
 -1      3943 1.32889E+01
 -1      3944 2.09088E+01
 -1      3945 2.09088E+01
 -1      3946 2.91647E+01
 -1      3947 2.08410E+01
 -1      3948 2.91647E+01
 -1      3949 1.23748E+01
 -1      3950 1.23508E+01
 -1      3951 2.10999E+01
 -1      3952 2.91052E+01
 -1      3953 2.09725E+01
 -1      3954 2.10320E+01
 -1      3955 2.10864E+01
 -1      3956 2.08921E+01
 -1      3957 2.89704E+01
 -1      3958 2.10186E+01
 -1      3959 2.91647E+01
 -1      3960 2.90738E+01
 -1      3961 2.90969E+01
 -1      3962 2.90738E+01
 -1      3963 2.90738E+01
 -1      3964 2.90969E+01
 -1      3965 2.90638E+01
 -1      3966 2.90042E+01
 -1      3967 2.90638E+01
 -1      3968 2.90374E+01
 -1      3969 2.08699E+01
 -1      3970 2.91647E+01
 -1      3971 2.08021E+01
 -1      3972 2.08021E+01
 -1      3973 2.38252E+01
 -1      3974 2.40525E+01
 -1      3975 2.88609E+01
 -1      3976 2.90383E+01
 -1      3977 2.90552E+01
 -1      3978 2.90552E+01
 -1      3979 2.92325E+01
 -1      3980 2.23960E+01
 -1      3981 1.68791E+01
 -1      3982 1.90162E+01
 -1      3983 1.84860E+01
 -1      3984 2.92059E+01
 -1      3985 2.92059E+01
 -1      3986 2.92059E+01
 -1      3987 2.92325E+01
 -1      3988 1.46497E+01
 -1      3989 1.95207E+01
 -1      3990 1.17405E+01
 -1      3991 2.31192E+01
 -1      3992 1.54967E+01
 -1      3993 2.04932E+01
 -1      3994 1.51788E+01
 -1      3995 2.38494E+01
 -1      3996 1.51277E+01
 -1      3997 1.94817E+01
 -1      3998 1.29120E+01
 -1      3999 2.92515E+01
 -1      4000 1.38822E+01
 -1      4001 1.92622E+01
 -1      4002 2.19684E+01
 -1      4003 2.16294E+01
 -1      4004 1.89232E+01
 -1      4005 1.57933E+01
 -1      4006 2.92046E+01
 -1      4007 3.56560E+01
 -1      4008 2.62730E+01
 -1      4009 2.63784E+01
 -1      4010 2.62730E+01
 -1      4011 2.62730E+01
 -1      4012 2.63784E+01
 -1      4013 2.63784E+01
 -1      4014 1.14115E+01
 -1      4015 1.16010E+01
 -1      4016 2.48138E+01
 -1      4017 2.50650E+01
 -1      4018 2.71452E+01
 -1      4019 2.82211E+01
 -1      4020 2.81569E+01
 -1      4021 1.42545E+01
 -1      4022 2.23407E+01
 -1      4023 2.05732E+01
 -1      4024 2.39294E+01
 -1      4025 1.92459E+01
 -1      4026 1.92459E+01
 -1      4027 1.94593E+01
 -1      4028 2.65917E+01
 -1      4029 2.65917E+01
 -1      4030 1.43652E+01
 -1      4031 1.93729E+01
 -1      4032 1.79413E+01
 -1      4033 1.50322E+01
 -1      4034 1.54755E+01
 -1      4035 1.95763E+01
 -1      4036 2.58800E+01
 -1      4037 1.90780E+01
 -1      4038 1.97897E+01
 -1      4039 2.92325E+01
 -1      4040 2.92325E+01
 -1      4041 2.91647E+01
 -1      4042 2.92325E+01
 -1      4043 2.90383E+01
 -1      4044 2.91647E+01
 -1      4045 2.91052E+01
 -1      4046 2.91647E+01
 -1      4047 2.63192E+01
 -1      4048 1.94487E+01
 -1      4049 1.89628E+01
 -1      4050 2.61059E+01
 -1      4051 1.92353E+01
 -1      4052 1.38965E+01
 -1      4053 1.65716E+01
 -1      4054 2.86513E+01
 -1      4055 2.85720E+01
 -1      4056 2.83647E+01
 -1      4057 2.86513E+01
 -1      4058 2.85720E+01
 -1      4059 2.86081E+01
 -1      4060 2.08975E+01
 -1      4061 2.05748E+01
 -1      4062 2.08614E+01
 -1      4063 1.52375E+01
 -1      4064 2.62697E+01
 -1      4065 2.62697E+01
 -1      4066 2.60225E+01
 -1      4067 2.61312E+01
 -1      4068 2.61059E+01
 -1      4069 2.60005E+01
 -1      4070 1.97936E+01
 -1      4071 2.67175E+01
 -1      4072 2.68051E+01
 -1      4073 2.67175E+01
 -1      4074 2.67175E+01
 -1      4075 2.68051E+01
 -1      4076 2.12296E+01
 -1      4077 1.95206E+01
 -1      4078 1.80907E+01
 -1      4079 1.92623E+01
 -1      4080 2.15000E+01
 -1      4081 1.83042E+01
 -1      4082 1.43658E+01
 -1      4083 1.32505E+01
 -1      4084 1.44226E+01
 -1      4085 1.33073E+01
 -1      4086 1.81494E+01
 -1      4087 2.13165E+01
 -1      4088 1.79722E+01
 -1      4089 2.10942E+01
 -1      4090 1.91723E+01
 -1      4091 1.56044E+01
 -1      4092 1.65751E+01
 -1      4093 1.91864E+01
 -1      4094 1.45358E+01
 -1      4095 1.03025E+01
 -1      4096 1.43298E+01
 -1      4097 2.02318E+01
 -1      4098 2.06446E+01
 -1      4099 2.36200E+01
 -1      4100 1.92821E+01
 -1      4101 2.06892E+01
 -1      4102 2.89451E+01
 -1      4103 1.91006E+01
 -1      4104 2.33038E+01
 -1      4105 2.02399E+01
 -1      4106 2.01348E+01
 -1      4107 2.42740E+01
 -1      4108 2.91326E+01
 -1      4109 2.65244E+01
 -1      4110 2.65244E+01
 -1      4111 2.07798E+01
 -1      4112 2.33183E+01
 -1      4113 2.33183E+01
 -1      4114 2.08480E+01
 -1      4115 2.33513E+01
 -1      4116 2.33513E+01
 -1      4117 1.88091E+01
 -1      4118 2.61655E+01
 -1      4119 2.29439E+01
 -1      4120 2.65917E+01
 -1      4121 2.60779E+01
 -1      4122 2.06780E+01
 -1      4123 2.87563E+01
 -1      4124 2.07625E+01
 -1      4125 2.88952E+01
 -1      4126 2.65917E+01
 -1      4127 2.65917E+01
 -1      4128 2.05532E+01
 -1      4129 2.89158E+01
 -1      4130 2.89220E+01
 -1      4131 2.87231E+01
 -1      4132 1.86695E+01
 -1      4133 2.54716E+01
 -1      4134 2.53629E+01
 -1      4135 2.77528E+01
 -1      4136 2.77528E+01
 -1      4137 2.76587E+01
 -1      4138 2.76587E+01
 -1      4139 1.99992E+01
 -1      4140 2.34237E+01
 -1      4141 2.33728E+01
 -1      4142 1.50498E+01
 -1      4143 1.99789E+01
 -1      4144 2.91326E+01
 -1      4145 1.98021E+01
 -1      4146 1.64471E+01
 -1      4147 1.63797E+01
 -1      4148 1.76263E+01
 -1      4149 1.32334E+01
 -1      4150 1.85688E+01
 -1      4151 1.85228E+01
 -1      4152 2.10890E+01
 -1      4153 1.77082E+01
 -1      4154 1.41435E+01
 -1      4155 1.83558E+01
 -1      4156 1.99275E+01
 -1      4157 1.91335E+01
 -1      4158 2.00198E+01
 -1      4159 1.97470E+01
 -1      4160 2.82843E+01
 -1      4161 2.84916E+01
 -1      4162 1.40160E+01
 -1      4163 1.90611E+01
 -1      4164 1.35458E+01
 -1      4165 2.87178E+01
 -1      4166 1.96730E+01
 -1      4167 2.35103E+01
 -1      4168 2.05446E+01
 -1      4169 2.85779E+01
 -1      4170 2.03239E+01
 -1      4171 2.88892E+01
 -1      4172 2.80320E+01
 -1      4173 1.98147E+01
 -1      4174 2.00213E+01
 -1      4175 1.96162E+01
 -1      4176 1.98883E+01
 -1      4177 1.95808E+01
 -1      4178 1.67951E+01
 -1      4179 1.83132E+01
 -1      4180 1.82522E+01
 -1      4181 1.88179E+01
 -1      4182 1.67277E+01
 -1      4183 2.14444E+01
 -1      4184 2.00293E+01
 -1      4185 1.79241E+01
 -1      4186 1.82290E+01
 -1      4187 2.09796E+01
 -1      4188 1.93352E+01
 -1      4189 2.25401E+01
 -1      4190 2.00127E+01
 -1      4191 2.37447E+01
 -1      4192 2.34564E+01
 -1      4193 1.99145E+01
 -1      4194 1.92727E+01
 -1      4195 2.01812E+01
 -1      4196 1.99913E+01
 -1      4197 2.25108E+01
 -1      4198 2.32833E+01
 -1      4199 1.26609E+01
 -1      4200 1.26880E+01
 -1      4201 1.94593E+01
 -1      4202 1.97637E+01
 -1      4203 1.98863E+01
 -1      4204 2.34808E+01
 -1      4205 2.37422E+01
 -1      4206 2.38734E+01
 -1      4207 2.32254E+01
 -1      4208 1.98084E+01
 -1      4209 2.91647E+01
 -1      4210 2.89158E+01
 -1      4211 2.88813E+01
 -1      4212 2.26591E+01
 -1      4213 2.33181E+01
 -1      4214 2.33771E+01
 -1      4215 2.63192E+01
 -1      4216 2.63192E+01
 -1      4217 2.68051E+01
 -1      4218 2.61655E+01
 -1      4219 2.66602E+01
 -1      4220 2.56329E+01
 -1      4221 2.56849E+01
 -1      4222 2.90933E+01
 -1      4223 2.90129E+01
 -1      4224 2.74971E+01
 -1      4225 2.77187E+01
 -1      4226 2.76748E+01
 -1      4227 1.26000E+01
 -1      4228 1.38838E+01
 -1      4229 1.25896E+01
 -1      4230 1.33887E+01
 -1      4231 1.36828E+01
 -1      4232 1.84177E+01
 -1      4233 1.49640E+01
 -1      4234 1.45948E+01
 -1      4235 1.49553E+01
 -1      4236 2.89109E+01
 -1      4237 2.88241E+01
 -1      4238 2.82211E+01
 -1      4239 2.86081E+01
 -1      4240 2.85779E+01
 -1      4241 2.88952E+01
 -1      4242 1.45907E+01
 -1      4243 1.49143E+01
 -1      4244 1.51133E+01
 -1      4245 2.85277E+01
 -1      4246 2.88947E+01
 -1      4247 1.48666E+01
 -1      4248 1.48645E+01
 -1      4249 1.50293E+01
 -1      4250 1.93245E+01
 -1      4251 1.79131E+01
 -1      4252 2.10253E+01
 -1      4253 2.17395E+01
 -1      4254 1.84827E+01
 -1      4255 1.94343E+01
 -1      4256 2.05283E+01
 -1      4257 1.94886E+01
 -1      4258 2.37616E+01
 -1      4259 1.43750E+01
 -1      4260 1.43750E+01
 -1      4261 1.90026E+01
 -1      4262 2.29564E+01
 -1      4263 1.71123E+01
 -1      4264 1.86780E+01
 -1      4265 1.77804E+01
 -1      4266 1.56497E+01
 -1      4267 1.86780E+01
 -1      4268 1.47589E+01
 -1      4269 1.15492E+01
 -1      4270 2.33225E+01
 -1      4271 2.21014E+01
 -1      4272 2.92912E+01
 -1      4273 2.11273E+01
 -1      4274 1.87892E+01
 -1      4275 2.92484E+01
 -1      4276 1.59898E+01
 -1      4277 2.26378E+01
 -1      4278 1.81880E+01
 -1      4279 1.69916E+01
 -1      4280 1.28768E+01
 -1      4281 1.09963E+01
 -1      4282 2.77624E+01
 -1      4283 2.38540E+01
 -1      4284 2.41568E+01
 -1      4285 2.71984E+01
 -1      4286 2.90073E+01
 -1      4287 2.31643E+01
 -1      4288 1.76628E+01
 -1      4289 1.82841E+01
 -1      4290 1.71931E+01
 -1      4291 1.10845E+01
 -1      4292 1.45334E+01
 -1      4293 2.10884E+01
 -1      4294 2.20369E+01
 -1      4295 2.29564E+01
 -1      4296 1.17079E+01
 -1      4297 1.46704E+01
 -1      4298 2.11491E+01
 -1      4299 2.25997E+01
 -1      4300 1.78588E+01
 -1      4301 2.34259E+01
 -1      4302 1.69786E+01
 -1      4303 1.85627E+01
 -1      4304 1.14115E+01
 -1      4305 1.19592E+01
 -1      4306 2.26061E+01
 -1      4307 1.55250E+01
 -1      4308 1.81880E+01
 -1      4309 1.10897E+01
 -1      4310 1.45250E+01
 -1      4311 2.20088E+01
 -1      4312 2.29556E+01
 -1      4313 2.10890E+01
 -1      4314 1.85228E+01
 -1      4315 1.16536E+01
 -1      4316 1.18276E+01
 -1      4317 2.35434E+01
 -1      4318 2.38341E+01
 -1      4319 2.45031E+01
 -1      4320 2.26378E+01
 -1      4321 2.17829E+01
 -1      4322 2.16789E+01
 -1      4323 1.26022E+01
 -1      4324 2.42553E+01
 -1      4325 1.22508E+01
 -1      4326 2.28030E+01
 -1      4327 1.16775E+01
 -1      4328 2.17003E+01
 -1      4329 1.26243E+01
 -1      4330 1.68323E+01
 -1      4331 1.91563E+01
 -1      4332 1.76381E+01
 -1      4333 1.91802E+01
 -1      4334 1.76557E+01
 -1      4335 1.68550E+01
 -1      4336 2.16193E+01
 -1      4337 1.88686E+01
 -1      4338 1.84289E+01
 -1      4339 1.81722E+01
 -1      4340 1.89639E+01
 -1      4341 2.15904E+01
 -1      4342 2.38965E+01
 -1      4343 1.96152E+01
 -1      4344 2.01644E+01
 -1      4345 1.90263E+01
 -1      4346 1.98075E+01
 -1      4347 2.30123E+01
 -1      4348 1.94853E+01
 -1      4349 2.02551E+01
 -1      4350 2.37971E+01
 -1      4351 2.29767E+01
 -1      4352 1.89705E+01
 -1      4353 1.97386E+01
 -1      4354 2.40589E+01
 -1      4355 1.96568E+01
 -1      4356 2.02030E+01
 -1      4357 2.21481E+01
 -1      4358 1.61769E+01
 -1      4359 2.38182E+01
 -1      4360 1.95652E+01
 -1      4361 2.03286E+01
 -1      4362 2.36361E+01
 -1      4363 2.01612E+01
 -1      4364 1.93871E+01
 -1      4365 1.42695E+01
 -1      4366 2.03725E+01
 -1      4367 2.40646E+01
 -1      4368 1.96293E+01
 -1      4369 1.87750E+01
 -1      4370 1.62434E+01
 -1      4371 1.87286E+01
 -1      4372 1.98710E+01
 -1      4373 1.13149E+01
 -1      4374 1.10858E+01
 -1      4375 2.19776E+01
 -1      4376 1.37621E+01
 -1      4377 2.10621E+01
 -1      4378 1.61990E+01
 -1      4379 2.21110E+01
 -1      4380 1.93550E+01
 -1      4381 2.35924E+01
 -1      4382 2.01307E+01
 -1      4383 1.14167E+01
 -1      4384 1.10297E+01
 -1      4385 1.99433E+01
 -1      4386 1.47104E+01
 -1      4387 1.25364E+01
 -1      4388 1.88309E+01
 -1      4389 2.09361E+01
 -1      4390 1.78964E+01
 -1      4391 2.10571E+01
 -1      4392 1.35627E+01
 -1      4393 2.50100E+01
 -1      4394 2.26463E+01
 -1      4395 1.43750E+01
 -1      4396 1.07076E+01
 -1      4397 1.16010E+01
 -1      4398 1.28768E+01
 -1      4399 1.09963E+01
 -1      4400 1.29332E+01
 -1      4401 1.09963E+01
 -1      4402 9.49818E+00
 -1      4403 1.70837E+01
 -1      4404 0.00000E+00
 -1      4405 0.00000E+00
 -3
    1PSTEP                         4           2           1          
  100CL  102 1.000000000        4405                     0    2           1
 -4  DISP        4    1
 -5  D1          1    2    1    0
 -5  D2          1    2    2    0
 -5  D3          1    2    3    0
 -5  ALL         1    2    0    0    1ALL
 -1         1 0.00000E+00 0.00000E+00 0.00000E+00
 -1         2 0.00000E+00 0.00000E+00 0.00000E+00
 -1         3 0.00000E+00 0.00000E+00 0.00000E+00
 -1         4 0.00000E+00 0.00000E+00 0.00000E+00
 -1         5-8.06264E-02-9.99443E-01-1.84162E-07
 -1         6-8.06263E-02-9.99443E-01-1.84162E-07
 -1         7 6.86168E-02-1.00056E+00 5.06882E-07
 -1         8 6.86169E-02-1.00056E+00 5.06882E-07
 -1         9 0.00000E+00 0.00000E+00 0.00000E+00
 -1        10 0.00000E+00 0.00000E+00 0.00000E+00
 -1        11 0.00000E+00 0.00000E+00 0.00000E+00
 -1        12 0.00000E+00 0.00000E+00 0.00000E+00
 -1        13 0.00000E+00 0.00000E+00 0.00000E+00
 -1        14 0.00000E+00 0.00000E+00 0.00000E+00
 -1        15 0.00000E+00 0.00000E+00 0.00000E+00
 -1        16 0.00000E+00 0.00000E+00 0.00000E+00
 -1        17 0.00000E+00 0.00000E+00 0.00000E+00
 -1        18 0.00000E+00 0.00000E+00 0.00000E+00
 -1        19 0.00000E+00 0.00000E+00 0.00000E+00
 -1        20 0.00000E+00 0.00000E+00 0.00000E+00
 -1        21 0.00000E+00 0.00000E+00 0.00000E+00
 -1        22 0.00000E+00 0.00000E+00 0.00000E+00
 -1        23 0.00000E+00 0.00000E+00 0.00000E+00
 -1        24 0.00000E+00 0.00000E+00 0.00000E+00
 -1        25 0.00000E+00 0.00000E+00 0.00000E+00
 -1        26 0.00000E+00 0.00000E+00 0.00000E+00
 -1        27 0.00000E+00 0.00000E+00 0.00000E+00
 -1        28 0.00000E+00 0.00000E+00 0.00000E+00
 -1        29 0.00000E+00 0.00000E+00 0.00000E+00
 -1        30 0.00000E+00 0.00000E+00 0.00000E+00
 -1        31 0.00000E+00 0.00000E+00 0.00000E+00
 -1        32 0.00000E+00 0.00000E+00 0.00000E+00
 -1        33 0.00000E+00 0.00000E+00 0.00000E+00
 -1        34 0.00000E+00 0.00000E+00 0.00000E+00
 -1        35 0.00000E+00 0.00000E+00 0.00000E+00
 -1        36 0.00000E+00 0.00000E+00 0.00000E+00
 -1        37-8.06263E-02-9.99443E-01-1.84162E-07
 -1        38-8.06263E-02-9.99443E-01-1.84162E-07
 -1        39-8.06264E-02-9.99443E-01-1.84162E-07
 -1        40-8.06263E-02-9.99443E-01-1.84162E-07
 -1        41-8.06263E-02-9.99443E-01-1.84162E-07
 -1        42-8.06264E-02-9.99443E-01-1.84162E-07
 -1        43-8.06264E-02-9.99443E-01-1.84162E-07
 -1        44-4.33156E-02-9.99722E-01-1.14012E-08
 -1        45-6.00481E-03-1.00000E+00 1.61360E-07
 -1        46 3.13060E-02-1.00028E+00 3.34121E-07
 -1        47-6.19710E-02-9.99583E-01-9.77816E-08
 -1        48-2.46602E-02-9.99861E-01 7.49793E-08
 -1        49 1.26506E-02-1.00014E+00 2.47740E-07
 -1        50 4.99614E-02-1.00042E+00 4.20501E-07
 -1        51 6.86169E-02-1.00056E+00 5.06882E-07
 -1        52 6.86168E-02-1.00056E+00 5.06882E-07
 -1        53 6.86168E-02-1.00056E+00 5.06882E-07
 -1        54 6.86169E-02-1.00056E+00 5.06882E-07
 -1        55 6.86168E-02-1.00056E+00 5.06882E-07
 -1        56 6.86168E-02-1.00056E+00 5.06882E-07
 -1        57 6.86168E-02-1.00056E+00 5.06882E-07
 -1        58-4.33155E-02-9.99721E-01-1.14011E-08
 -1        59-6.00470E-03-1.00000E+00 1.61360E-07
 -1        60 3.13061E-02-1.00028E+00 3.34121E-07
 -1        61-6.19709E-02-9.99582E-01-9.77816E-08
 -1        62-2.46601E-02-9.99860E-01 7.49793E-08
 -1        63 1.26507E-02-1.00014E+00 2.47740E-07
 -1        64 4.99615E-02-1.00042E+00 4.20501E-07
 -1        65-4.25586E-03-1.56282E-03-1.76451E-03
 -1        66-8.28468E-03-5.23156E-03-2.04729E-03
 -1        67-1.23253E-02-1.14203E-02-2.04551E-03
 -1        68-1.62833E-02-2.00052E-02-1.98881E-03
 -1        69-2.01346E-02-3.08849E-02-1.92104E-03
 -1        70-2.38608E-02-4.39798E-02-1.85253E-03
 -1        71-2.74732E-02-5.92071E-02-1.78839E-03
 -1        72-3.09652E-02-7.64958E-02-1.72053E-03
 -1        73-3.43374E-02-9.57645E-02-1.65695E-03
 -1        74-3.75954E-02-1.16944E-01-1.58963E-03
 -1        75-4.07374E-02-1.39956E-01-1.52202E-03
 -1        76-4.37627E-02-1.64723E-01-1.45542E-03
 -1        77-4.66707E-02-1.91164E-01-1.39173E-03
 -1        78-4.94682E-02-2.19212E-01-1.32453E-03
 -1        79-5.21470E-02-2.48788E-01-1.25720E-03
 -1        80-5.47106E-02-2.79814E-01-1.18982E-03
 -1        81-5.71625E-02-3.12213E-01-1.12588E-03
 -1        82-5.94975E-02-3.45912E-01-1.05821E-03
 -1        83-6.17144E-02-3.80829E-01-9.94656E-04
 -1        84-6.38200E-02-4.16895E-01-9.26863E-04
 -1        85-6.58030E-02-4.54034E-01-8.58503E-04
 -1        86-6.76745E-02-4.92160E-01-7.94804E-04
 -1        87-6.94248E-02-5.31208E-01-7.28928E-04
 -1        88-7.10574E-02-5.71096E-01-6.60872E-04
 -1        89-7.25721E-02-6.11750E-01-5.95837E-04
 -1        90-7.39638E-02-6.53090E-01-5.28958E-04
 -1        91-7.52352E-02-6.95044E-01-4.62578E-04
 -1        92-7.63847E-02-7.37532E-01-3.97443E-04
 -1        93-7.74135E-02-7.80484E-01-3.30600E-04
 -1        94-7.83126E-02-8.23816E-01-2.62725E-04
 -1        95-7.90919E-02-8.67455E-01-1.98779E-04
 -1        96-7.97433E-02-9.11328E-01-1.29912E-04
 -1        97-8.02660E-02-9.55357E-01-5.83893E-05
 -1        98-2.28875E-03-7.44264E-04-1.31271E-03
 -1        99-6.26284E-03-3.08412E-03-1.97254E-03
 -1       100-1.03124E-02-8.01992E-03-2.06080E-03
 -1       101-1.43171E-02-1.54218E-02-2.01925E-03
 -1       102-1.82232E-02-2.51639E-02-1.95470E-03
 -1       103-2.20123E-02-3.71616E-02-1.88762E-03
 -1       104-2.56816E-02-5.13307E-02-1.82045E-03
 -1       105-2.92329E-02-6.75980E-02-1.75438E-03
 -1       106-3.26660E-02-8.58869E-02-1.68840E-03
 -1       107-3.59811E-02-1.06121E-01-1.62271E-03
 -1       108-3.91799E-02-1.28226E-01-1.55556E-03
 -1       109-4.22639E-02-1.52124E-01-1.48896E-03
 -1       110-4.52311E-02-1.77738E-01-1.42323E-03
 -1       111-4.80839E-02-2.04993E-01-1.35724E-03
 -1       112-5.08210E-02-2.33814E-01-1.29119E-03
 -1       113-5.34434E-02-2.64124E-01-1.22417E-03
 -1       114-5.59506E-02-2.95846E-01-1.15783E-03
 -1       115-5.83434E-02-3.28904E-01-1.09198E-03
 -1       116-6.06205E-02-3.63222E-01-1.02609E-03
 -1       117-6.27811E-02-3.98724E-01-9.60310E-04
 -1       118-6.48256E-02-4.35336E-01-8.93328E-04
 -1       119-6.67536E-02-4.72978E-01-8.27038E-04
 -1       120-6.85638E-02-5.11574E-01-7.61506E-04
 -1       121-7.02556E-02-5.51052E-01-6.94888E-04
 -1       122-7.18292E-02-5.91332E-01-6.28286E-04
 -1       123-7.32821E-02-6.32338E-01-5.62565E-04
 -1       124-7.46145E-02-6.73995E-01-4.96095E-04
 -1       125-7.58252E-02-7.16226E-01-4.29973E-04
 -1       126-7.69141E-02-7.58954E-01-3.63523E-04
 -1       127-7.78780E-02-8.02106E-01-2.97186E-04
 -1       128-7.87177E-02-8.45601E-01-2.30890E-04
 -1       129-7.94323E-02-8.89366E-01-1.64521E-04
 -1       130-8.00207E-02-9.33327E-01-9.52004E-05
 -1       131-8.04702E-02-9.77407E-01-2.19552E-05
 -1       132-4.25526E-03-1.56340E-03 1.76382E-03
 -1       133-8.28425E-03-5.23201E-03 2.04679E-03
 -1       134-1.23253E-02-1.14215E-02 2.04529E-03
 -1       135-1.62834E-02-2.00071E-02 1.98620E-03
 -1       136-2.01339E-02-3.08872E-02 1.92057E-03
 -1       137-2.38618E-02-4.39783E-02 1.85321E-03
 -1       138-2.74741E-02-5.92081E-02 1.78712E-03
 -1       139-3.09630E-02-7.64956E-02 1.71926E-03
 -1       140-3.43390E-02-9.57640E-02 1.65574E-03
 -1       141-3.75967E-02-1.16946E-01 1.58852E-03
 -1       142-4.07369E-02-1.39956E-01 1.52155E-03
 -1       143-4.37609E-02-1.64722E-01 1.45422E-03
 -1       144-4.66726E-02-1.91164E-01 1.39054E-03
 -1       145-4.94665E-02-2.19213E-01 1.32447E-03
 -1       146-5.21469E-02-2.48788E-01 1.25626E-03
 -1       147-5.47128E-02-2.79812E-01 1.19179E-03
 -1       148-5.71611E-02-3.12213E-01 1.12425E-03
 -1       149-5.94957E-02-3.45911E-01 1.05826E-03
 -1       150-6.17149E-02-3.80830E-01 9.92739E-04
 -1       151-6.38189E-02-4.16898E-01 9.25336E-04
 -1       152-6.58039E-02-4.54032E-01 8.60359E-04
 -1       153-6.76734E-02-4.92161E-01 7.94052E-04
 -1       154-6.94247E-02-5.31208E-01 7.27905E-04
 -1       155-7.10591E-02-5.71098E-01 6.60495E-04
 -1       156-7.25700E-02-6.11751E-01 5.93305E-04
 -1       157-7.39645E-02-6.53089E-01 5.29990E-04
 -1       158-7.52368E-02-6.95045E-01 4.62184E-04
 -1       159-7.63847E-02-7.37534E-01 3.96063E-04
 -1       160-7.74134E-02-7.80483E-01 3.30783E-04
 -1       161-7.83141E-02-8.23815E-01 2.63765E-04
 -1       162-7.90926E-02-8.67455E-01 1.98097E-04
 -1       163-7.97433E-02-9.11327E-01 1.29875E-04
 -1       164-8.02654E-02-9.55358E-01 5.78651E-05
 -1       165-2.28886E-03-7.44712E-04 1.31240E-03
 -1       166-6.26232E-03-3.08458E-03 1.97225E-03
 -1       167-1.03120E-02-8.02004E-03 2.06073E-03
 -1       168-1.43172E-02-1.54220E-02 2.01832E-03
 -1       169-1.82229E-02-2.51652E-02 1.95283E-03
 -1       170-2.20120E-02-3.71603E-02 1.88723E-03
 -1       171-2.56823E-02-5.13306E-02 1.81969E-03
 -1       172-2.92328E-02-6.75986E-02 1.75378E-03
 -1       173-3.26657E-02-8.58868E-02 1.68784E-03
 -1       174-3.59814E-02-1.06121E-01 1.62177E-03
 -1       175-3.91805E-02-1.28226E-01 1.55517E-03
 -1       176-4.22634E-02-1.52124E-01 1.48847E-03
 -1       177-4.52312E-02-1.77738E-01 1.42279E-03
 -1       178-4.80833E-02-2.04993E-01 1.35715E-03
 -1       179-5.08206E-02-2.33814E-01 1.29026E-03
 -1       180-5.34442E-02-2.64124E-01 1.22416E-03
 -1       181-5.59504E-02-2.95846E-01 1.15828E-03
 -1       182-5.83428E-02-3.28904E-01 1.09134E-03
 -1       183-6.06197E-02-3.63222E-01 1.02570E-03
 -1       184-6.27805E-02-3.98726E-01 9.58548E-04
 -1       185-6.48259E-02-4.35335E-01 8.93235E-04
 -1       186-6.67533E-02-4.72977E-01 8.26814E-04
 -1       187-6.85637E-02-5.11575E-01 7.60853E-04
 -1       188-7.02558E-02-5.51052E-01 6.93885E-04
 -1       189-7.18295E-02-5.91333E-01 6.27780E-04
 -1       190-7.32824E-02-6.32339E-01 5.61962E-04
 -1       191-7.46145E-02-6.73995E-01 4.96153E-04
 -1       192-7.58261E-02-7.16227E-01 4.29396E-04
 -1       193-7.69140E-02-7.58955E-01 3.62760E-04
 -1       194-7.78784E-02-8.02105E-01 2.97676E-04
 -1       195-7.87190E-02-8.45602E-01 2.30787E-04
 -1       196-7.94324E-02-8.89367E-01 1.64047E-04
 -1       197-8.00201E-02-9.33328E-01 9.51265E-05
 -1       198-8.04699E-02-9.77408E-01 2.15412E-05
 -1       199 4.24624E-03-1.57131E-03 1.76545E-03
 -1       200 8.26648E-03-5.24902E-03 2.04826E-03
 -1       201 1.22931E-02-1.14561E-02 2.04413E-03
 -1       202 1.62228E-02-2.00622E-02 1.98695E-03
 -1       203 2.00271E-02-3.09699E-02 1.92079E-03
 -1       204 2.36949E-02-4.40944E-02 1.85378E-03
 -1       205 2.72222E-02-5.93604E-02 1.78656E-03
 -1       206 3.06082E-02-7.66885E-02 1.71929E-03
 -1       207 3.38559E-02-9.60015E-02 1.65539E-03
 -1       208 3.69594E-02-1.17226E-01 1.58880E-03
 -1       209 3.99175E-02-1.40284E-01 1.52187E-03
 -1       210 4.27313E-02-1.65099E-01 1.45465E-03
 -1       211 4.54042E-02-1.91590E-01 1.39127E-03
 -1       212 4.79308E-02-2.19689E-01 1.32383E-03
 -1       213 5.03121E-02-2.49314E-01 1.25876E-03
 -1       214 5.25494E-02-2.80391E-01 1.19184E-03
 -1       215 5.46409E-02-3.12840E-01 1.12514E-03
 -1       216 5.65885E-02-3.46586E-01 1.05899E-03
 -1       217 5.83944E-02-3.81554E-01 9.93295E-04
 -1       218 6.00558E-02-4.17667E-01 9.26770E-04
 -1       219 6.15738E-02-4.54844E-01 8.61081E-04
 -1       220 6.29477E-02-4.93017E-01 7.94363E-04
 -1       221 6.41815E-02-5.32102E-01 7.28610E-04
 -1       222 6.52747E-02-5.72027E-01 6.62133E-04
 -1       223 6.62254E-02-6.12715E-01 5.94675E-04
 -1       224 6.70406E-02-6.54086E-01 5.30990E-04
 -1       225 6.77155E-02-6.96067E-01 4.63573E-04
 -1       226 6.82535E-02-7.38580E-01 3.98273E-04
 -1       227 6.86544E-02-7.81549E-01 3.32446E-04
 -1       228 6.89193E-02-8.24901E-01 2.64703E-04
 -1       229 6.90510E-02-8.68555E-01 1.98797E-04
 -1       230 6.90493E-02-9.12436E-01 1.31367E-04
 -1       231 6.89147E-02-9.56473E-01 5.97825E-05
 -1       232 2.28511E-03-7.51019E-04 1.30850E-03
 -1       233 6.25128E-03-3.09457E-03 1.97208E-03
 -1       234 1.02881E-02-8.04489E-03 2.05939E-03
 -1       235 1.42722E-02-1.54667E-02 2.01795E-03
 -1       236 1.81412E-02-2.52343E-02 1.95368E-03
 -1       237 2.18771E-02-3.72604E-02 1.88737E-03
 -1       238 2.54755E-02-5.14651E-02 1.82058E-03
 -1       239 2.89332E-02-6.77713E-02 1.75361E-03
 -1       240 3.22495E-02-8.61009E-02 1.68738E-03
 -1       241 3.54246E-02-1.06379E-01 1.62168E-03
 -1       242 3.84556E-02-1.28530E-01 1.55555E-03
 -1       243 4.13425E-02-1.52476E-01 1.48888E-03
 -1       244 4.40858E-02-1.78139E-01 1.42328E-03
 -1       245 4.66844E-02-2.05445E-01 1.35760E-03
 -1       246 4.91391E-02-2.34316E-01 1.29152E-03
 -1       247 5.14478E-02-2.64675E-01 1.22489E-03
 -1       248 5.36123E-02-2.96448E-01 1.15865E-03
 -1       249 5.56327E-02-3.29556E-01 1.09239E-03
 -1       250 5.75089E-02-3.63922E-01 1.02609E-03
 -1       251 5.92419E-02-3.99471E-01 9.59781E-04
 -1       252 6.08315E-02-4.36127E-01 8.94040E-04
 -1       253 6.22778E-02-4.73812E-01 8.28130E-04
 -1       254 6.35820E-02-5.12450E-01 7.61673E-04
 -1       255 6.47453E-02-5.51965E-01 6.95694E-04
 -1       256 6.57676E-02-5.92281E-01 6.29043E-04
 -1       257 6.66500E-02-6.33319E-01 5.62810E-04
 -1       258 6.73942E-02-6.75004E-01 4.97255E-04
 -1       259 6.80009E-02-7.17261E-01 4.30834E-04
 -1       260 6.84705E-02-7.60012E-01 3.65108E-04
 -1       261 6.88024E-02-8.03183E-01 2.98619E-04
 -1       262 6.90012E-02-8.46694E-01 2.31567E-04
 -1       263 6.90656E-02-8.90471E-01 1.65313E-04
 -1       264 6.89982E-02-9.34439E-01 9.65737E-05
 -1       265 6.87903E-02-9.78521E-01 2.29391E-05
 -1       266 4.24693E-03-1.56968E-03-1.76497E-03
 -1       267 8.26566E-03-5.24854E-03-2.04916E-03
 -1       268 1.22914E-02-1.14565E-02-2.04503E-03
 -1       269 1.62215E-02-2.00635E-02-1.98669E-03
 -1       270 2.00276E-02-3.09706E-02-1.92042E-03
 -1       271 2.36921E-02-4.40969E-02-1.85159E-03
 -1       272 2.72231E-02-5.93603E-02-1.78802E-03
 -1       273 3.06108E-02-7.66889E-02-1.72025E-03
 -1       274 3.38543E-02-9.60005E-02-1.65668E-03
 -1       275 3.69577E-02-1.17226E-01-1.58944E-03
 -1       276 3.99182E-02-1.40285E-01-1.52199E-03
 -1       277 4.27331E-02-1.65098E-01-1.45587E-03
 -1       278 4.54016E-02-1.91591E-01-1.39184E-03
 -1       279 4.79309E-02-2.19689E-01-1.32466E-03
 -1       280 5.03114E-02-2.49315E-01-1.25726E-03
 -1       281 5.25475E-02-2.80392E-01-1.18993E-03
 -1       282 5.46416E-02-3.12838E-01-1.12655E-03
 -1       283 5.65896E-02-3.46587E-01-1.05853E-03
 -1       284 5.83949E-02-3.81554E-01-9.93812E-04
 -1       285 6.00561E-02-4.17664E-01-9.27258E-04
 -1       286 6.15715E-02-4.54846E-01-8.60416E-04
 -1       287 6.29492E-02-4.93017E-01-7.94679E-04
 -1       288 6.41815E-02-5.32102E-01-7.29557E-04
 -1       289 6.52740E-02-5.72028E-01-6.61474E-04
 -1       290 6.62278E-02-6.12715E-01-5.96453E-04
 -1       291 6.70397E-02-6.54086E-01-5.29566E-04
 -1       292 6.77141E-02-6.96067E-01-4.63087E-04
 -1       293 6.82512E-02-7.38581E-01-3.97692E-04
 -1       294 6.86543E-02-7.81552E-01-3.31074E-04
 -1       295 6.89181E-02-8.24901E-01-2.64548E-04
 -1       296 6.90501E-02-8.68554E-01-1.98653E-04
 -1       297 6.90480E-02-9.12436E-01-1.30650E-04
 -1       298 6.89145E-02-9.56472E-01-5.85321E-05
 -1       299 2.28376E-03-7.49846E-04-1.31141E-03
 -1       300 6.25060E-03-3.09403E-03-1.97291E-03
 -1       301 1.02870E-02-8.04508E-03-2.05974E-03
 -1       302 1.42712E-02-1.54672E-02-2.01798E-03
 -1       303 1.81411E-02-2.52350E-02-1.95336E-03
 -1       304 2.18766E-02-3.72617E-02-1.88663E-03
 -1       305 2.54750E-02-5.14653E-02-1.81989E-03
 -1       306 2.89335E-02-6.77707E-02-1.75407E-03
 -1       307 3.22504E-02-8.61011E-02-1.68813E-03
 -1       308 3.54240E-02-1.06379E-01-1.62253E-03
 -1       309 3.84550E-02-1.28531E-01-1.55550E-03
 -1       310 4.13431E-02-1.52477E-01-1.48918E-03
 -1       311 4.40850E-02-1.78140E-01-1.42385E-03
 -1       312 4.66845E-02-2.05444E-01-1.35738E-03
 -1       313 4.91382E-02-2.34316E-01-1.29126E-03
 -1       314 5.14477E-02-2.64677E-01-1.22424E-03
 -1       315 5.36127E-02-2.96448E-01-1.15863E-03
 -1       316 5.56324E-02-3.29556E-01-1.09251E-03
 -1       317 5.75096E-02-3.63922E-01-1.02605E-03
 -1       318 5.92425E-02-3.99471E-01-9.60356E-04
 -1       319 6.08312E-02-4.36127E-01-8.94438E-04
 -1       320 6.22776E-02-4.73812E-01-8.27387E-04
 -1       321 6.35825E-02-5.12450E-01-7.61800E-04
 -1       322 6.47448E-02-5.51965E-01-6.95469E-04
 -1       323 6.57679E-02-5.92280E-01-6.28938E-04
 -1       324 6.66502E-02-6.33319E-01-5.63169E-04
 -1       325 6.73940E-02-6.75005E-01-4.96674E-04
 -1       326 6.79998E-02-7.17262E-01-4.30312E-04
 -1       327 6.84692E-02-7.60013E-01-3.63820E-04
 -1       328 6.88021E-02-8.03183E-01-2.97932E-04
 -1       329 6.90007E-02-8.46694E-01-2.31900E-04
 -1       330 6.90654E-02-8.90471E-01-1.64798E-04
 -1       331 6.89979E-02-9.34440E-01-9.52786E-05
 -1       332 6.87892E-02-9.78522E-01-2.20598E-05
 -1       333 0.00000E+00 0.00000E+00 0.00000E+00
 -1       334 0.00000E+00 0.00000E+00 0.00000E+00
 -1       335 0.00000E+00 0.00000E+00 0.00000E+00
 -1       336 0.00000E+00 0.00000E+00 0.00000E+00
 -1       337 0.00000E+00 0.00000E+00 0.00000E+00
 -1       338 0.00000E+00 0.00000E+00 0.00000E+00
 -1       339 0.00000E+00 0.00000E+00 0.00000E+00
 -1       340 0.00000E+00 0.00000E+00 0.00000E+00
 -1       341 0.00000E+00 0.00000E+00 0.00000E+00
 -1       342 0.00000E+00 0.00000E+00 0.00000E+00
 -1       343 0.00000E+00 0.00000E+00 0.00000E+00
 -1       344 0.00000E+00 0.00000E+00 0.00000E+00
 -1       345 0.00000E+00 0.00000E+00 0.00000E+00
 -1       346 0.00000E+00 0.00000E+00 0.00000E+00
 -1       347 0.00000E+00 0.00000E+00 0.00000E+00
 -1       348 0.00000E+00 0.00000E+00 0.00000E+00
 -1       349 0.00000E+00 0.00000E+00 0.00000E+00
 -1       350 0.00000E+00 0.00000E+00 0.00000E+00
 -1       351 0.00000E+00 0.00000E+00 0.00000E+00
 -1       352 0.00000E+00 0.00000E+00 0.00000E+00
 -1       353 0.00000E+00 0.00000E+00 0.00000E+00
 -1       354 0.00000E+00 0.00000E+00 0.00000E+00
 -1       355 0.00000E+00 0.00000E+00 0.00000E+00
 -1       356 0.00000E+00 0.00000E+00 0.00000E+00
 -1       357 0.00000E+00 0.00000E+00 0.00000E+00
 -1       358 0.00000E+00 0.00000E+00 0.00000E+00
 -1       359 0.00000E+00 0.00000E+00 0.00000E+00
 -1       360 0.00000E+00 0.00000E+00 0.00000E+00
 -1       361 0.00000E+00 0.00000E+00 0.00000E+00
 -1       362 0.00000E+00 0.00000E+00 0.00000E+00
 -1       363 0.00000E+00 0.00000E+00 0.00000E+00
 -1       364 0.00000E+00 0.00000E+00 0.00000E+00
 -1       365 0.00000E+00 0.00000E+00 0.00000E+00
 -1       366 0.00000E+00 0.00000E+00 0.00000E+00
 -1       367 0.00000E+00 0.00000E+00 0.00000E+00
 -1       368 0.00000E+00 0.00000E+00 0.00000E+00
 -1       369 0.00000E+00 0.00000E+00 0.00000E+00
 -1       370 0.00000E+00 0.00000E+00 0.00000E+00
 -1       371 0.00000E+00 0.00000E+00 0.00000E+00
 -1       372 0.00000E+00 0.00000E+00 0.00000E+00
 -1       373 0.00000E+00 0.00000E+00 0.00000E+00
 -1       374 0.00000E+00 0.00000E+00 0.00000E+00
 -1       375 0.00000E+00 0.00000E+00 0.00000E+00
 -1       376 0.00000E+00 0.00000E+00 0.00000E+00
 -1       377 0.00000E+00 0.00000E+00 0.00000E+00
 -1       378 0.00000E+00 0.00000E+00 0.00000E+00
 -1       379 0.00000E+00 0.00000E+00 0.00000E+00
 -1       380 0.00000E+00 0.00000E+00 0.00000E+00
 -1       381 0.00000E+00 0.00000E+00 0.00000E+00
 -1       382 0.00000E+00 0.00000E+00 0.00000E+00
 -1       383 0.00000E+00 0.00000E+00 0.00000E+00
 -1       384 0.00000E+00 0.00000E+00 0.00000E+00
 -1       385 0.00000E+00 0.00000E+00 0.00000E+00
 -1       386 0.00000E+00 0.00000E+00 0.00000E+00
 -1       387 0.00000E+00 0.00000E+00 0.00000E+00
 -1       388 0.00000E+00 0.00000E+00 0.00000E+00
 -1       389 0.00000E+00 0.00000E+00 0.00000E+00
 -1       390 0.00000E+00 0.00000E+00 0.00000E+00
 -1       391 0.00000E+00 0.00000E+00 0.00000E+00
 -1       392 0.00000E+00 0.00000E+00 0.00000E+00
 -1       393 0.00000E+00 0.00000E+00 0.00000E+00
 -1       394 0.00000E+00 0.00000E+00 0.00000E+00
 -1       395 0.00000E+00 0.00000E+00 0.00000E+00
 -1       396 0.00000E+00 0.00000E+00 0.00000E+00
 -1       397 0.00000E+00 0.00000E+00 0.00000E+00
 -1       398 0.00000E+00 0.00000E+00 0.00000E+00
 -1       399 0.00000E+00 0.00000E+00 0.00000E+00
 -1       400 0.00000E+00 0.00000E+00 0.00000E+00
 -1       401 0.00000E+00 0.00000E+00 0.00000E+00
 -1       402 0.00000E+00 0.00000E+00 0.00000E+00
 -1       403 0.00000E+00 0.00000E+00 0.00000E+00
 -1       404 0.00000E+00 0.00000E+00 0.00000E+00
 -1       405 0.00000E+00 0.00000E+00 0.00000E+00
 -1       406 1.14704E-02-1.00013E+00 2.42275E-07
 -1       407 1.12077E-02-1.00013E+00 2.41059E-07
 -1       408-5.11245E-02-9.99663E-01-4.75589E-08
 -1       409-2.45897E-02-9.99861E-01 7.53055E-08
 -1       410-6.46266E-03-9.99997E-01 1.59239E-07
 -1       411 3.42223E-02-1.00030E+00 3.47624E-07
 -1       412-2.70446E-02-9.99843E-01 6.39387E-08
 -1       413-4.72662E-02-9.99692E-01-2.96942E-08
 -1       414 4.15285E-02-1.00035E+00 3.81454E-07
 -1       415 1.22971E-02-1.00014E+00 2.46103E-07
 -1       416-5.33130E-02-9.99647E-01-5.76923E-08
 -1       417 4.13035E-02-1.00035E+00 3.80412E-07
 -1       418-5.33129E-02-9.99647E-01-5.76923E-08
 -1       419 4.15280E-02-1.00036E+00 3.81452E-07
 -1       420-1.99801E-02-9.99896E-01 9.66496E-08
 -1       421-6.69697E-02-9.99545E-01-1.20927E-07
 -1       422-6.69697E-02-9.99545E-01-1.20927E-07
 -1       423-4.83143E-02-9.99685E-01-3.45467E-08
 -1       424-6.69696E-02-9.99545E-01-1.20927E-07
 -1       425-6.69696E-02-9.99545E-01-1.20927E-07
 -1       426-4.83142E-02-9.99684E-01-3.45467E-08
 -1       427 3.64170E-02-1.00032E+00 3.57786E-07
 -1       428 5.50724E-02-1.00046E+00 4.44167E-07
 -1       429 5.50724E-02-1.00046E+00 4.44167E-07
 -1       430 5.49602E-02-1.00045E+00 4.43647E-07
 -1       431 5.49602E-02-1.00045E+00 4.43647E-07
 -1       432 3.63048E-02-1.00032E+00 3.57266E-07
 -1       433-6.39463E-02-9.99568E-01-1.06928E-07
 -1       434-6.39463E-02-9.99568E-01-1.06928E-07
 -1       435-5.02896E-02-9.99669E-01-4.36932E-08
 -1       436-6.58754E-02-9.99553E-01-1.15861E-07
 -1       437-6.58754E-02-9.99553E-01-1.15861E-07
 -1       438-4.91954E-02-9.99678E-01-3.86265E-08
 -1       439-5.22187E-02-9.99655E-01-5.26256E-08
 -1       440-3.51801E-02-9.99783E-01 2.62688E-08
 -1       441-1.65247E-02-9.99922E-01 1.12649E-07
 -1       442-4.01788E-02-9.99745E-01 3.12320E-09
 -1       443 2.73277E-03-1.00007E+00 2.01818E-07
 -1       444 2.13882E-02-1.00020E+00 2.88198E-07
 -1       445-7.78712E-03-9.99987E-01 1.53107E-07
 -1       446 2.64992E-02-1.00024E+00 3.11863E-07
 -1       447 5.14196E-02-1.00043E+00 4.27253E-07
 -1       448 5.14196E-02-1.00043E+00 4.27253E-07
 -1       449 3.77629E-02-1.00033E+00 3.64018E-07
 -1       450 5.50727E-02-1.00046E+00 4.44168E-07
 -1       451 5.50727E-02-1.00046E+00 4.44168E-07
 -1       452 3.78754E-02-1.00033E+00 3.64539E-07
 -1       453 4.15282E-02-1.00035E+00 3.81453E-07
 -1       454-1.52972E-02-9.99930E-01 1.18333E-07
 -1       455-3.39526E-02-9.99791E-01 3.19522E-08
 -1       456-3.89513E-02-9.99754E-01 8.80662E-09
 -1       457 2.12569E-02-1.00020E+00 2.87590E-07
 -1       458 2.60148E-03-1.00006E+00 2.01209E-07
 -1       459-6.69100E-03-9.99995E-01 1.58182E-07
 -1       460 2.62556E-02-1.00024E+00 3.10735E-07
 -1       461-2.35123E-02-9.99870E-01 8.02942E-08
 -1       462-4.25486E-03-1.00001E+00 1.69462E-07
 -1       463 1.18837E-02-1.00013E+00 2.44189E-07
 -1       464 2.69128E-02-1.00025E+00 3.13779E-07
 -1       465 2.64994E-02-1.00024E+00 3.11865E-07
 -1       466-3.84149E-03-1.00002E+00 1.71376E-07
 -1       467 2.37250E-03-1.00006E+00 2.00149E-07
 -1       468-1.55262E-02-9.99929E-01 1.17273E-07
 -1       469 2.27150E-02-1.00021E+00 2.94341E-07
 -1       470 1.38798E-02-1.00015E+00 2.53432E-07
 -1       471-3.90845E-02-9.99753E-01 8.18988E-09
 -1       472-3.55523E-02-9.99780E-01 2.45453E-08
 -1       473-3.36232E-02-9.99794E-01 3.34777E-08
 -1       474-2.68645E-02-9.99844E-01 6.47727E-08
 -1       475-3.59280E-02-9.99777E-01 2.28057E-08
 -1       476 2.32597E-02-1.00022E+00 2.96864E-07
 -1       477 2.91722E-03-1.00007E+00 2.02671E-07
 -1       478-1.32214E-02-9.99946E-01 1.27945E-07
 -1       479-7.02862E-02-5.51315E-01-3.41036E-04
 -1       480-7.58533E-02-7.16389E-01-2.11229E-04
 -1       481-7.94508E-02-8.88977E-01 8.13990E-05
 -1       482-6.28113E-02-3.99088E-01-4.71347E-04
 -1       483-6.67836E-02-4.73290E-01 4.05906E-04
 -1       484-7.33045E-02-6.32551E-01 2.75672E-04
 -1       485-7.79051E-02-8.02218E-01 1.46115E-04
 -1       486-5.83741E-02-3.29319E-01 5.35466E-04
 -1       487-2.20386E-02-3.78609E-02-9.31788E-04
 -1       488-2.92610E-02-6.82629E-02-8.61529E-04
 -1       489-1.43364E-02-1.61856E-02 9.90735E-04
 -1       490-4.22928E-02-1.52690E-01-7.31453E-04
 -1       491-5.08401E-02-2.34169E-01-6.35444E-04
 -1       492-3.60130E-02-1.06735E-01-7.96437E-04
 -1       493-5.94566E-03-3.63943E-03 9.13227E-04
 -1       494-1.02945E-02-8.79545E-03-1.00815E-03
 -1       495-8.00677E-02-9.35421E-01-4.41055E-05
 -1       496-5.59764E-02-2.96284E-01-5.69083E-04
 -1       497-7.87403E-02-8.45688E-01-1.14666E-04
 -1       498-2.57121E-02-5.20199E-02 8.93303E-04
 -1       499-4.52550E-02-1.78277E-01 6.98258E-04
 -1       500-5.34645E-02-2.64483E-01 6.10214E-04
 -1       501-3.26894E-02-8.65265E-02 8.28257E-04
 -1       502-3.92104E-02-1.28816E-01 7.62798E-04
 -1       503-2.85796E-03-1.65215E-03-2.80966E-04
 -1       504-8.04060E-02-9.68340E-01 8.89783E-06
 -1       505-7.02858E-02-5.51315E-01 3.40571E-04
 -1       506-7.58532E-02-7.16390E-01 2.10366E-04
 -1       507-6.28115E-02-3.99089E-01 4.70471E-04
 -1       508-6.67772E-02-4.73290E-01-4.06260E-04
 -1       509-7.33101E-02-6.32551E-01-2.76115E-04
 -1       510-1.02790E-02-8.76711E-03 1.01432E-03
 -1       511-1.43126E-02-1.61448E-02-9.94402E-04
 -1       512-1.82400E-02-2.58709E-02-9.68145E-04
 -1       513-2.01546E-02-3.18181E-02 2.26218E-06
 -1       514-7.94607E-02-8.89611E-01-8.11934E-05
 -1       515-7.18577E-02-5.91570E-01-3.09019E-04
 -1       516-7.18586E-02-5.91573E-01 3.08012E-04
 -1       517-5.59811E-02-2.96274E-01 5.72190E-04
 -1       518-5.83723E-02-3.29317E-01-5.36388E-04
 -1       519-6.48529E-02-4.35675E-01 4.38264E-04
 -1       520-6.48583E-02-4.35677E-01-4.38436E-04
 -1       521-3.26893E-02-8.65279E-02-8.28330E-04
 -1       522-4.52551E-02-1.78279E-01-6.98199E-04
 -1       523-4.81125E-02-2.05482E-01-6.70415E-04
 -1       524-4.94728E-02-2.19587E-01 7.24151E-06
 -1       525-4.22954E-02-1.52690E-01 7.30247E-04
 -1       526-7.46429E-02-6.74183E-01 2.43525E-04
 -1       527-7.46439E-02-6.74184E-01-2.43580E-04
 -1       528-5.34619E-02-2.64423E-01-6.06966E-04
 -1       529-7.87446E-02-8.45689E-01 1.13425E-04
 -1       530-7.79059E-02-8.02219E-01-1.45753E-04
 -1       531-3.60112E-02-1.06735E-01 7.95542E-04
 -1       532-2.92629E-02-6.82643E-02 8.60389E-04
 -1       533-7.69428E-02-7.59091E-01-1.78649E-04
 -1       534-2.57064E-02-5.20175E-02-8.97958E-04
 -1       535-7.69401E-02-7.59091E-01 1.78397E-04
 -1       536-6.06443E-02-3.63612E-01-5.03179E-04
 -1       537-3.92116E-02-1.28816E-01-7.64249E-04
 -1       538-6.06501E-02-3.63612E-01 5.02575E-04
 -1       539-6.85928E-02-5.11862E-01-3.73334E-04
 -1       540-6.85939E-02-5.11863E-01 3.73072E-04
 -1       541-8.42665E-03-6.48853E-03-8.11373E-06
 -1       542-1.23276E-02-1.24325E-02-3.24821E-07
 -1       543-2.21099E-02-3.81125E-02 9.42410E-04
 -1       544-2.99671E-03-1.70453E-03 3.09123E-04
 -1       545-4.81085E-02-2.05454E-01 6.79256E-04
 -1       546-5.21701E-02-2.49299E-01 5.04627E-06
 -1       547-7.97360E-02-9.09062E-01 8.64108E-07
 -1       548-1.81707E-02-2.56767E-02 9.77203E-04
 -1       549-7.91198E-02-8.67455E-01 1.60765E-07
 -1       550-2.38904E-02-4.49055E-02-2.14991E-07
 -1       551-7.52633E-02-6.95275E-01 2.05884E-07
 -1       552-7.39941E-02-6.53355E-01-1.97824E-06
 -1       553-6.77075E-02-4.92559E-01 4.17604E-07
 -1       554-7.64130E-02-7.37732E-01 8.61824E-07
 -1       555-6.17445E-02-3.81326E-01-5.59084E-07
 -1       556-6.94568E-02-5.31572E-01-8.89136E-07
 -1       557-6.58333E-02-4.54463E-01 4.51113E-08
 -1       558-6.38512E-02-4.17359E-01-2.49559E-08
 -1       559-7.83398E-02-8.23948E-01-2.98694E-07
 -1       560-7.74416E-02-7.80649E-01-2.60313E-08
 -1       561-7.26007E-02-6.12047E-01-2.58896E-07
 -1       562-5.95313E-02-3.46438E-01-9.61378E-07
 -1       563-5.47387E-02-2.80342E-01 1.86709E-06
 -1       564-2.75064E-02-6.01010E-02 2.43438E-07
 -1       565-3.09978E-02-7.73541E-02-1.76950E-06
 -1       566-3.76289E-02-1.17739E-01 7.75545E-08
 -1       567-4.07700E-02-1.40716E-01 1.21813E-07
 -1       568-3.43716E-02-9.65932E-02-1.61173E-06
 -1       569-4.37957E-02-1.65448E-01-1.65365E-06
 -1       570-7.10886E-02-5.71427E-01-2.58909E-07
 -1       571-5.71950E-02-3.12775E-01 1.57736E-06
 -1       572-4.67057E-02-1.91860E-01-1.64782E-06
 -1       573-5.08439E-02-2.34205E-01 6.47233E-04
 -1       574-1.62777E-02-2.09279E-02-1.12470E-06
 -1       575-8.03971E-02-9.67009E-01-1.05270E-05
 -1       576-5.95727E-03-3.65250E-03-9.11164E-04
 -1       577-8.00670E-02-9.35211E-01 4.30197E-05
 -1       578-5.20241E-03-3.23824E-03 3.60492E-06
 -1       579-2.57531E-03-1.29874E-03 8.14695E-04
 -1       580-2.55302E-03-1.29204E-03-8.07146E-04
 -1       581-8.04348E-02-9.71334E-01-1.99078E-05
 -1       582-8.04359E-02-9.71559E-01 1.91164E-05
 -1       583-8.01510E-02-9.43001E-01-2.91665E-07
 -1       584-1.23242E-03-7.92887E-04 3.88475E-04
 -1       585-1.25295E-03-6.50021E-04 6.14751E-04
 -1       586-3.40217E-03-1.45662E-03 1.30333E-03
 -1       587-1.24188E-03-6.47232E-04-6.07978E-04
 -1       588-1.22274E-03-7.88974E-04-3.82659E-04
 -1       589-3.39058E-03-1.45316E-03-1.29939E-03
 -1       590-8.05400E-02-9.85504E-01 9.47594E-06
 -1       591-8.05411E-02-9.85506E-01 7.59460E-06
 -1       592-8.03583E-02-9.63460E-01 3.55447E-05
 -1       593-8.05430E-02-9.85392E-01-7.55242E-06
 -1       594-8.05392E-02-9.85391E-01-1.00968E-05
 -1       595-8.03577E-02-9.63347E-01-3.62915E-05
 -1       596-1.35414E-03-8.67963E-04-2.50750E-04
 -1       597-1.36047E-03-8.76432E-04-8.61906E-05
 -1       598-2.70254E-03-1.49326E-03-5.38956E-04
 -1       599-1.45863E-03-9.62992E-04 8.61092E-05
 -1       600-1.41301E-03-8.98891E-04 2.71439E-04
 -1       601-2.93046E-03-1.71421E-03 9.43072E-06
 -1       602-2.77865E-03-1.52143E-03 5.58443E-04
 -1       603-8.05262E-02-9.83230E-01-2.58853E-06
 -1       604-8.05233E-02-9.83231E-01-6.45252E-06
 -1       605-8.04161E-02-9.69171E-01-1.55747E-05
 -1       606-8.05312E-02-9.83894E-01 6.14291E-06
 -1       607-8.05274E-02-9.83897E-01 1.79567E-06
 -1       608-8.04016E-02-9.67675E-01-7.49880E-07
 -1       609-8.04225E-02-9.69949E-01 1.47390E-05
 -1       610-7.13196E-03-4.43551E-03-1.48579E-03
 -1       611-5.05254E-03-2.60820E-03-1.36006E-03
 -1       612-4.24734E-03-2.27689E-03-9.24897E-04
 -1       613-1.13229E-02-1.00997E-02-1.53252E-03
 -1       614-9.28097E-03-7.00034E-03-1.53214E-03
 -1       615-8.13823E-03-5.89128E-03-9.81208E-04
 -1       616-1.53080E-02-1.80634E-02-1.49672E-03
 -1       617-1.33258E-02-1.37779E-02-1.51821E-03
 -1       618-1.23175E-02-1.21744E-02-1.00555E-03
 -1       619-1.91958E-02-2.83659E-02-1.44856E-03
 -1       620-1.72695E-02-2.29330E-02-1.47491E-03
 -1       621-1.62920E-02-2.07196E-02-9.82382E-04
 -1       622-2.29579E-02-4.09097E-02-1.39639E-03
 -1       623-2.10949E-02-3.43689E-02-1.42295E-03
 -1       624-2.01518E-02-3.15863E-02-9.49862E-04
 -1       625-2.65992E-02-5.56022E-02-1.34695E-03
 -1       626-2.47919E-02-4.79946E-02-1.37063E-03
 -1       627-2.38873E-02-4.46718E-02-9.14056E-04
 -1       628-3.01219E-02-7.23693E-02-1.29459E-03
 -1       629-2.83754E-02-6.37321E-02-1.32106E-03
 -1       630-2.74970E-02-5.98843E-02-8.79744E-04
 -1       631-3.35222E-02-9.11372E-02-1.24729E-03
 -1       632-3.18374E-02-8.15080E-02-1.27007E-03
 -1       633-3.09877E-02-7.71476E-02-8.43637E-04
 -1       634-3.68124E-02-1.11832E-01-1.19728E-03
 -1       635-3.51832E-02-1.01247E-01-1.22261E-03
 -1       636-3.43658E-02-9.63928E-02-8.13006E-04
 -1       637-3.99827E-02-1.34377E-01-1.14663E-03
 -1       638-3.84114E-02-1.22877E-01-1.17296E-03
 -1       639-3.76255E-02-1.17548E-01-7.80199E-04
 -1       640-4.30363E-02-1.58697E-01-1.09703E-03
 -1       641-4.15242E-02-1.46320E-01-1.12242E-03
 -1       642-4.07640E-02-1.40532E-01-7.46758E-04
 -1       643-4.59717E-02-1.84713E-01-1.04958E-03
 -1       644-4.45191E-02-1.71498E-01-1.07241E-03
 -1       645-4.37862E-02-1.65274E-01-7.13639E-04
 -1       646-4.87989E-02-2.12339E-01-1.00170E-03
 -1       647-4.73999E-02-1.98321E-01-1.02700E-03
 -1       648-4.66985E-02-1.91680E-01-6.85095E-04
 -1       649-5.15015E-02-2.41470E-01-9.50397E-04
 -1       650-5.01624E-02-2.26690E-01-9.76535E-04
 -1       651-4.94876E-02-2.19638E-01-6.53953E-04
 -1       652-5.40945E-02-2.72109E-01-9.02683E-04
 -1       653-5.28124E-02-2.56603E-01-9.28079E-04
 -1       654-5.21639E-02-2.49113E-01-6.21206E-04
 -1       655-5.65789E-02-3.04241E-01-8.51307E-04
 -1       656-5.53518E-02-2.88047E-01-8.74926E-04
 -1       657-5.47335E-02-2.80180E-01-5.87435E-04
 -1       658-5.89436E-02-3.37607E-01-8.00832E-04
 -1       659-5.77757E-02-3.20764E-01-8.27195E-04
 -1       660-5.71873E-02-3.12640E-01-5.52799E-04
 -1       661-6.11881E-02-3.72214E-01-7.53561E-04
 -1       662-6.00811E-02-3.54760E-01-7.76345E-04
 -1       663-5.95207E-02-3.46312E-01-5.18538E-04
 -1       664-6.33239E-02-4.07985E-01-7.02987E-04
 -1       665-6.22712E-02-3.89957E-01-7.28990E-04
 -1       666-6.17428E-02-3.81206E-01-4.87978E-04
 -1       667-6.53383E-02-4.44849E-01-6.52414E-04
 -1       668-6.43473E-02-4.26286E-01-6.79030E-04
 -1       669-6.38465E-02-4.17246E-01-4.54648E-04
 -1       670-6.72360E-02-4.82720E-01-6.04973E-04
 -1       671-6.62991E-02-4.63662E-01-6.27731E-04
 -1       672-6.58323E-02-4.54359E-01-4.21658E-04
 -1       673-6.90169E-02-5.21530E-01-5.55315E-04
 -1       674-6.81420E-02-5.02012E-01-5.80425E-04
 -1       675-6.76976E-02-4.92462E-01-3.90854E-04
 -1       676-7.06798E-02-5.61200E-01-5.04971E-04
 -1       677-6.98636E-02-5.41262E-01-5.31058E-04
 -1       678-6.94530E-02-5.31485E-01-3.57476E-04
 -1       679-7.22234E-02-6.01654E-01-4.56163E-04
 -1       680-7.14657E-02-5.81334E-01-4.80764E-04
 -1       681-7.10853E-02-5.71347E-01-3.24789E-04
 -1       682-7.36452E-02-6.42816E-01-4.06505E-04
 -1       683-7.29492E-02-6.22152E-01-4.32196E-04
 -1       684-7.25966E-02-6.11976E-01-2.92570E-04
 -1       685-7.49474E-02-6.84609E-01-3.57099E-04
 -1       686-7.43119E-02-6.63637E-01-3.82185E-04
 -1       687-7.39912E-02-6.53290E-01-2.59845E-04
 -1       688-7.61270E-02-7.26956E-01-3.08417E-04
 -1       689-7.55521E-02-7.05717E-01-3.32739E-04
 -1       690-7.52627E-02-6.95219E-01-2.27001E-04
 -1       691-7.71866E-02-7.69782E-01-2.58348E-04
 -1       692-7.66715E-02-7.48313E-01-2.84165E-04
 -1       693-7.64120E-02-7.37683E-01-1.95093E-04
 -1       694-7.81176E-02-8.13014E-01-2.08329E-04
 -1       695-7.76676E-02-7.91354E-01-2.34476E-04
 -1       696-7.74371E-02-7.80609E-01-1.62345E-04
 -1       697-7.89255E-02-8.56567E-01-1.60425E-04
 -1       698-7.85349E-02-8.34754E-01-1.84021E-04
 -1       699-7.83390E-02-8.23916E-01-1.29293E-04
 -1       700-7.96111E-02-9.00465E-01-1.09101E-04
 -1       701-7.92846E-02-8.78536E-01-1.36032E-04
 -1       702-7.91149E-02-8.67622E-01-9.80551E-05
 -1       703-8.01760E-02-9.45385E-01-5.50841E-05
 -1       704-7.99166E-02-9.23376E-01-8.20911E-05
 -1       705-7.97789E-02-9.12494E-01-6.13023E-05
 -1       706-8.02619E-02-9.53369E-01-3.42076E-05
 -1       707-5.04669E-03-2.60219E-03 1.36050E-03
 -1       708-7.12572E-03-4.42843E-03 1.48656E-03
 -1       709-4.25265E-03-2.27623E-03 9.28608E-04
 -1       710-9.27279E-03-6.98724E-03 1.53466E-03
 -1       711-1.13143E-02-1.00843E-02 1.53516E-03
 -1       712-8.12449E-03-5.87194E-03 9.84067E-04
 -1       713-1.33356E-02-1.37977E-02 1.51623E-03
 -1       714-1.53200E-02-1.80869E-02 1.49346E-03
 -1       715-1.23227E-02-1.21765E-02 1.00640E-03
 -1       716-1.72344E-02-2.28409E-02 1.47821E-03
 -1       717-1.91617E-02-2.82637E-02 1.45284E-03
 -1       718-1.62680E-02-2.06573E-02 9.84624E-04
 -1       719-2.11299E-02-3.44890E-02 1.42782E-03
 -1       720-2.29941E-02-4.10389E-02 1.40167E-03
 -1       721-2.01542E-02-3.15985E-02 9.59993E-04
 -1       722-2.47950E-02-4.79953E-02 1.36909E-03
 -1       723-2.66016E-02-5.56040E-02 1.34396E-03
 -1       724-2.39250E-02-4.48095E-02 9.17351E-04
 -1       725-2.83763E-02-6.37330E-02 1.32011E-03
 -1       726-3.01213E-02-7.23712E-02 1.29399E-03
 -1       727-2.74996E-02-5.98863E-02 8.77079E-04
 -1       728-3.18350E-02-8.15076E-02 1.26927E-03
 -1       729-3.35245E-02-9.11369E-02 1.24656E-03
 -1       730-3.09914E-02-7.71481E-02 8.43667E-04
 -1       731-3.51834E-02-1.01247E-01 1.22211E-03
 -1       732-3.68128E-02-1.11831E-01 1.19587E-03
 -1       733-3.43626E-02-9.63928E-02 8.12944E-04
 -1       734-3.84117E-02-1.22878E-01 1.17190E-03
 -1       735-3.99820E-02-1.34377E-01 1.14617E-03
 -1       736-3.76232E-02-1.17549E-01 7.79234E-04
 -1       737-4.15242E-02-1.46320E-01 1.12183E-03
 -1       738-4.30362E-02-1.58698E-01 1.09643E-03
 -1       739-4.07664E-02-1.40532E-01 7.46409E-04
 -1       740-4.45167E-02-1.71497E-01 1.07173E-03
 -1       741-4.59741E-02-1.84713E-01 1.04895E-03
 -1       742-4.37898E-02-1.65274E-01 7.13662E-04
 -1       743-4.73987E-02-1.98306E-01 1.03145E-03
 -1       744-4.87956E-02-2.12324E-01 1.00607E-03
 -1       745-4.66939E-02-1.91666E-01 6.90046E-04
 -1       746-5.01632E-02-2.26706E-01 9.81939E-04
 -1       747-5.15033E-02-2.41486E-01 9.55604E-04
 -1       748-4.94893E-02-2.19640E-01 6.63496E-04
 -1       749-5.28139E-02-2.56633E-01 9.29224E-04
 -1       750-5.40976E-02-2.72139E-01 9.05388E-04
 -1       751-5.21672E-02-2.49162E-01 6.28509E-04
 -1       752-5.53550E-02-2.88042E-01 8.78618E-04
 -1       753-5.65790E-02-3.04236E-01 8.52242E-04
 -1       754-5.47344E-02-2.80207E-01 5.92184E-04
 -1       755-5.77759E-02-3.20764E-01 8.25675E-04
 -1       756-5.89426E-02-3.37608E-01 8.00721E-04
 -1       757-5.71908E-02-3.12633E-01 5.53989E-04
 -1       758-6.00809E-02-3.54760E-01 7.76467E-04
 -1       759-6.11908E-02-3.72215E-01 7.52086E-04
 -1       760-5.95251E-02-3.46312E-01 5.18825E-04
 -1       761-6.22712E-02-3.89959E-01 7.27543E-04
 -1       762-6.33233E-02-4.07986E-01 7.01435E-04
 -1       763-6.17447E-02-3.81207E-01 4.86755E-04
 -1       764-6.43451E-02-4.26285E-01 6.77485E-04
 -1       765-6.53367E-02-4.44847E-01 6.53468E-04
 -1       766-6.38440E-02-4.17248E-01 4.53161E-04
 -1       767-6.63019E-02-4.63661E-01 6.28813E-04
 -1       768-6.72363E-02-4.82720E-01 6.03974E-04
 -1       769-6.58325E-02-4.54358E-01 4.21821E-04
 -1       770-6.81415E-02-5.02012E-01 5.79731E-04
 -1       771-6.90175E-02-5.21530E-01 5.54689E-04
 -1       772-6.77020E-02-4.92463E-01 3.89720E-04
 -1       773-6.98632E-02-5.41262E-01 5.30254E-04
 -1       774-7.06807E-02-5.61200E-01 5.04069E-04
 -1       775-6.94535E-02-5.31485E-01 3.56833E-04
 -1       776-7.14675E-02-5.81335E-01 4.80049E-04
 -1       777-7.22227E-02-6.01656E-01 4.54847E-04
 -1       778-7.10841E-02-5.71347E-01 3.23184E-04
 -1       779-7.29459E-02-6.22151E-01 4.29980E-04
 -1       780-7.36448E-02-6.42815E-01 4.07385E-04
 -1       781-7.25969E-02-6.11976E-01 2.91389E-04
 -1       782-7.43122E-02-6.63637E-01 3.83152E-04
 -1       783-7.49484E-02-6.84608E-01 3.56461E-04
 -1       784-7.39867E-02-6.53290E-01 2.60773E-04
 -1       785-7.55538E-02-7.05718E-01 3.32074E-04
 -1       786-7.61275E-02-7.26957E-01 3.07579E-04
 -1       787-7.52605E-02-6.95219E-01 2.26164E-04
 -1       788-7.66706E-02-7.48314E-01 2.83067E-04
 -1       789-7.71855E-02-7.69783E-01 2.58322E-04
 -1       790-7.64119E-02-7.37684E-01 1.94566E-04
 -1       791-7.76671E-02-7.91353E-01 2.34762E-04
 -1       792-7.81180E-02-8.13013E-01 2.08881E-04
 -1       793-7.74359E-02-7.80609E-01 1.62563E-04
 -1       794-7.85379E-02-8.34754E-01 1.84275E-04
 -1       795-7.89273E-02-8.56568E-01 1.59933E-04
 -1       796-7.83403E-02-8.23915E-01 1.29383E-04
 -1       797-7.92803E-02-8.78219E-01 1.36375E-04
 -1       798-7.96056E-02-9.00147E-01 1.09547E-04
 -1       799-7.91105E-02-8.67305E-01 9.86401E-05
 -1       800-7.99152E-02-9.23271E-01 8.24615E-05
 -1       801-8.01747E-02-9.45280E-01 5.44483E-05
 -1       802-7.97740E-02-9.12070E-01 6.21992E-05
 -1       803-8.02625E-02-9.53376E-01 3.34089E-05
 -1       804-7.14777E-02-5.81494E-01-1.58311E-04
 -1       805-7.06920E-02-5.61368E-01-1.67021E-04
 -1       806-6.98758E-02-5.41439E-01-1.74379E-04
 -1       807-6.90296E-02-5.21713E-01-1.83564E-04
 -1       808-7.02855E-02-5.51399E-01-2.63961E-07
 -1       809-7.55631E-02-7.05827E-01-1.09525E-04
 -1       810-7.49586E-02-6.84727E-01-1.17912E-04
 -1       811-7.66828E-02-7.48408E-01-9.29528E-05
 -1       812-7.61380E-02-7.27059E-01-1.02150E-04
 -1       813-7.58498E-02-7.16440E-01-1.01542E-06
 -1       814-7.89361E-02-8.56572E-01 5.37696E-05
 -1       815-7.92893E-02-8.78213E-01 4.43755E-05
 -1       816-7.95979E-02-8.99020E-01 3.76384E-05
 -1       817-7.94397E-02-8.88237E-01 2.82454E-07
 -1       818-7.99070E-02-9.22132E-01 2.56841E-05
 -1       819-6.43589E-02-4.26511E-01-2.22306E-04
 -1       820-6.33357E-02-4.08218E-01-2.32334E-04
 -1       821-6.22843E-02-3.90200E-01-2.40137E-04
 -1       822-6.12015E-02-3.72464E-01-2.47863E-04
 -1       823-6.28108E-02-3.99203E-01-5.55289E-07
 -1       824-6.53495E-02-4.45064E-01 2.15091E-04
 -1       825-6.63139E-02-4.63870E-01 2.06873E-04
 -1       826-6.72494E-02-4.82921E-01 2.00006E-04
 -1       827-6.81544E-02-5.02205E-01 1.90215E-04
 -1       828-6.67812E-02-4.73391E-01-2.07059E-08
 -1       829-7.22349E-02-6.01807E-01 1.49687E-04
 -1       830-7.29588E-02-6.22295E-01 1.41973E-04
 -1       831-7.36533E-02-6.42951E-01 1.34405E-04
 -1       832-7.43229E-02-6.63765E-01 1.24962E-04
 -1       833-7.33099E-02-6.32619E-01 3.56361E-07
 -1       834-7.81287E-02-8.13082E-01 6.90751E-05
 -1       835-7.85480E-02-8.34815E-01 6.05304E-05
 -1       836-7.71946E-02-7.69869E-01 8.63087E-05
 -1       837-7.76775E-02-7.91431E-01 7.66517E-05
 -1       838-7.79045E-02-8.02255E-01 4.11052E-08
 -1       839-5.65927E-02-3.04519E-01 2.82868E-04
 -1       840-5.77890E-02-3.21039E-01 2.71743E-04
 -1       841-5.89562E-02-3.37874E-01 2.63821E-04
 -1       842-6.00943E-02-3.55018E-01 2.54004E-04
 -1       843-5.83749E-02-3.29450E-01-4.62915E-07
 -1       844-2.11010E-02-3.48276E-02-4.68085E-04
 -1       845-1.92016E-02-2.88346E-02-4.79384E-04
 -1       846-2.29703E-02-4.13730E-02-4.61861E-04
 -1       847-2.20359E-02-3.80895E-02 1.39338E-06
 -1       848-2.48050E-02-4.84503E-02-4.53037E-04
 -1       849-3.18474E-02-8.19298E-02-4.17527E-04
 -1       850-3.01339E-02-7.27995E-02-4.27633E-04
 -1       851-2.83880E-02-6.41705E-02-4.34365E-04
 -1       852-2.66102E-02-5.60498E-02-4.46206E-04
 -1       853-2.92644E-02-6.84749E-02-8.70461E-07
 -1       854-1.13034E-02-1.05846E-02 5.05974E-04
 -1       855-1.33356E-02-1.42959E-02 4.98171E-04
 -1       856-1.43151E-02-1.63951E-02-5.21485E-07
 -1       857-1.53113E-02-1.85481E-02 4.91165E-04
 -1       858-1.72301E-02-2.32964E-02 4.92095E-04
 -1       859-4.45292E-02-1.71854E-01-3.52387E-04
 -1       860-4.30485E-02-1.59061E-01-3.62580E-04
 -1       861-4.15361E-02-1.46694E-01-3.69055E-04
 -1       862-3.99950E-02-1.34758E-01-3.78474E-04
 -1       863-4.22949E-02-1.52869E-01-9.04787E-07
 -1       864-5.01610E-02-2.26870E-01-3.17937E-04
 -1       865-4.87971E-02-2.12531E-01-3.28509E-04
 -1       866-5.15097E-02-2.41728E-01-3.11364E-04
 -1       867-5.08338E-02-2.34255E-01 6.36955E-06
 -1       868-5.28206E-02-2.56854E-01-3.04325E-04
 -1       869-3.51966E-02-1.01653E-01-4.02620E-04
 -1       870-3.35360E-02-9.15512E-02-4.10666E-04
 -1       871-3.84247E-02-1.23267E-01-3.85748E-04
 -1       872-3.68255E-02-1.12229E-01-3.94823E-04
 -1       873-3.60124E-02-1.06931E-01-8.82334E-07
 -1       874-7.18097E-03-5.00476E-03 4.63606E-04
 -1       875-9.35371E-03-7.63066E-03 5.00575E-04
 -1       876-5.56726E-03-3.47874E-03 4.35921E-04
 -1       877-6.81677E-03-4.68673E-03-1.48670E-06
 -1       878-4.44986E-03-2.55558E-03 6.01049E-04
 -1       879-4.09234E-03-2.39616E-03 1.90190E-04
 -1       880-1.33233E-02-1.42775E-02-4.99959E-04
 -1       881-1.13106E-02-1.05986E-02-5.03540E-04
 -1       882-9.36162E-03-7.64048E-03-5.05639E-04
 -1       883-1.03899E-02-9.19175E-03-4.05311E-06
 -1       884-7.18639E-03-5.01054E-03-4.71890E-04
 -1       885-7.99081E-02-9.22237E-01-2.55425E-05
 -1       886-7.96030E-02-8.99339E-01-3.64810E-05
 -1       887-8.01114E-02-9.39213E-01-2.04571E-05
 -1       888-7.99520E-02-9.26024E-01-3.10890E-08
 -1       889-8.02419E-02-9.51211E-01-2.41301E-05
 -1       890-8.02799E-02-9.55002E-01-7.67432E-06
 -1       891-5.77884E-02-3.21039E-01-2.71497E-04
 -1       892-5.65896E-02-3.04524E-01-2.81190E-04
 -1       893-5.53635E-02-2.88305E-01-2.87703E-04
 -1       894-5.41055E-02-2.72377E-01-2.98439E-04
 -1       895-5.59788E-02-2.96390E-01 2.26523E-07
 -1       896-7.92942E-02-8.78531E-01-4.40506E-05
 -1       897-7.89339E-02-8.56571E-01-5.44981E-05
 -1       898-7.85467E-02-8.34815E-01-6.12428E-05
 -1       899-7.81292E-02-8.13083E-01-6.88581E-05
 -1       900-7.87415E-02-8.45667E-01-2.48467E-07
 -1       901-2.66128E-02-5.60509E-02 4.43598E-04
 -1       902-2.83886E-02-6.41712E-02 4.33633E-04
 -1       903-2.30062E-02-4.15058E-02 4.67333E-04
 -1       904-2.48066E-02-4.84505E-02 4.50490E-04
 -1       905-2.57095E-02-5.22403E-02-2.85154E-07
 -1       906-4.30499E-02-1.59062E-01 3.60773E-04
 -1       907-4.45309E-02-1.71854E-01 3.52704E-04
 -1       908-4.59842E-02-1.85061E-01 3.45860E-04
 -1       909-4.74112E-02-1.98650E-01 3.42826E-04
 -1       910-4.52610E-02-1.78449E-01 1.31625E-07
 -1       911-5.41064E-02-2.72406E-01 3.02852E-04
 -1       912-5.53645E-02-2.88300E-01 2.90822E-04
 -1       913-5.28220E-02-2.56884E-01 3.11366E-04
 -1       914-5.34666E-02-2.64644E-01 4.03126E-06
 -1       915-5.15113E-02-2.41747E-01 3.22611E-04
 -1       916-3.35344E-02-9.15509E-02 4.10825E-04
 -1       917-3.51954E-02-1.01654E-01 4.00817E-04
 -1       918-3.01352E-02-7.28004E-02 4.25742E-04
 -1       919-3.18491E-02-8.19296E-02 4.17628E-04
 -1       920-3.26952E-02-8.67304E-02 1.60960E-08
 -1       921-3.99952E-02-1.34758E-01 3.77617E-04
 -1       922-4.15374E-02-1.46693E-01 3.68587E-04
 -1       923-3.68246E-02-1.12228E-01 3.94389E-04
 -1       924-3.84241E-02-1.23267E-01 3.84841E-04
 -1       925-3.92116E-02-1.29003E-01-5.03729E-07
 -1       926-4.02407E-03-2.36596E-03-1.68079E-04
 -1       927-4.38596E-03-2.52371E-03-5.85910E-04
 -1       928-5.57197E-03-3.48779E-03-4.29964E-04
 -1       929-8.02842E-02-9.55667E-01 6.39479E-06
 -1       930-8.02474E-02-9.51771E-01 2.24904E-05
 -1       931-8.01101E-02-9.39109E-01 1.94954E-05
 -1       932-7.06917E-02-5.61368E-01 1.66328E-04
 -1       933-7.14780E-02-5.81495E-01 1.56878E-04
 -1       934-6.90300E-02-5.21714E-01 1.82644E-04
 -1       935-6.98758E-02-5.41439E-01 1.73613E-04
 -1       936-7.49585E-02-6.84727E-01 1.18064E-04
 -1       937-7.55630E-02-7.05828E-01 1.08164E-04
 -1       938-7.61385E-02-7.27059E-01 1.01247E-04
 -1       939-7.66821E-02-7.48409E-01 9.32286E-05
 -1       940-6.33353E-02-4.08219E-01 2.31460E-04
 -1       941-6.43559E-02-4.26511E-01 2.21913E-04
 -1       942-6.12027E-02-3.72465E-01 2.47125E-04
 -1       943-6.22840E-02-3.90201E-01 2.38802E-04
 -1       944-6.63123E-02-4.63870E-01-2.07232E-04
 -1       945-6.53514E-02-4.45065E-01-2.15148E-04
 -1       946-6.81540E-02-5.02205E-01-1.90168E-04
 -1       947-6.72462E-02-4.82921E-01-2.00369E-04
 -1       948-7.29602E-02-6.22295E-01-1.41657E-04
 -1       949-7.22338E-02-6.01805E-01-1.51407E-04
 -1       950-7.43236E-02-6.63765E-01-1.25918E-04
 -1       951-7.36573E-02-6.42951E-01-1.34862E-04
 -1       952-1.72652E-02-2.33863E-02-4.88951E-04
 -1       953-1.53005E-02-1.85257E-02-4.94079E-04
 -1       954-1.82302E-02-2.60883E-02 8.38634E-07
 -1       955-2.11368E-02-3.49494E-02 4.76351E-04
 -1       956-1.91662E-02-2.87334E-02 4.86773E-04
 -1       957-7.18575E-02-5.91647E-01-9.37468E-07
 -1       958-6.00918E-02-3.55018E-01-2.54692E-04
 -1       959-5.89562E-02-3.37873E-01-2.64905E-04
 -1       960-6.48552E-02-4.35783E-01-8.80491E-08
 -1       961-4.74136E-02-1.98663E-01-3.39776E-04
 -1       962-4.59859E-02-1.85062E-01-3.45516E-04
 -1       963-4.81011E-02-2.05531E-01 2.78514E-06
 -1       964-4.87954E-02-2.12516E-01 3.39615E-04
 -1       965-5.01630E-02-2.26887E-01 3.30936E-04
 -1       966-7.46419E-02-6.74244E-01-9.01925E-08
 -1       967-7.76783E-02-7.91431E-01-7.63243E-05
 -1       968-7.71966E-02-7.69869E-01-8.60325E-05
 -1       969-7.69407E-02-7.59136E-01 2.45778E-07
 -1       970-6.06484E-02-3.63735E-01-5.73788E-07
 -1       971-6.85943E-02-5.11955E-01-1.80144E-08
 -1       972 6.47679E-02-5.52230E-01 3.41086E-04
 -1       973 6.80189E-02-7.17425E-01 2.12160E-04
 -1       974 6.90910E-02-8.90080E-01-8.22605E-05
 -1       975 5.92626E-02-3.99834E-01 4.70343E-04
 -1       976 6.22999E-02-4.74127E-01 4.05622E-04
 -1       977 6.66679E-02-6.33531E-01 2.77031E-04
 -1       978 6.88254E-02-8.03297E-01-1.46104E-04
 -1       979 5.56536E-02-3.29971E-01-5.36119E-04
 -1       980 2.18940E-02-3.79598E-02 9.30909E-04
 -1       981 2.89566E-02-6.84386E-02 8.59984E-04
 -1       982 1.42835E-02-1.62313E-02-9.90320E-04
 -1       983 4.13647E-02-1.53043E-01 7.30195E-04
 -1       984 4.91451E-02-2.34672E-01 6.34964E-04
 -1       985 3.54441E-02-1.06993E-01 7.95397E-04
 -1       986 5.93342E-03-3.65136E-03-9.12816E-04
 -1       987 1.02690E-02-8.81917E-03 1.00734E-03
 -1       988 6.90150E-02-9.36533E-01 4.55032E-05
 -1       989 6.57898E-02-5.92519E-01-3.08994E-04
 -1       990 5.36327E-02-2.96888E-01 5.68267E-04
 -1       991 6.90239E-02-8.46781E-01 1.14670E-04
 -1       992 6.08535E-02-4.36468E-01-4.38366E-04
 -1       993 6.74180E-02-6.75195E-01-2.43638E-04
 -1       994 6.36024E-02-5.12738E-01-3.73667E-04
 -1       995 2.54925E-02-5.21554E-02-8.93586E-04
 -1       996 4.41009E-02-1.78682E-01-6.97418E-04
 -1       997 5.14626E-02-2.65038E-01-6.10066E-04
 -1       998 3.22651E-02-8.67429E-02-8.27747E-04
 -1       999 3.84769E-02-1.29121E-01-7.63553E-04
 -1      1000 2.84574E-03-1.63947E-03 2.80399E-04
 -1      1001 6.88599E-02-9.69455E-01-8.71295E-06
 -1      1002 1.02529E-02-8.79164E-03-1.01394E-03
 -1      1003 1.42651E-02-1.61888E-02 9.93910E-04
 -1      1004 1.81508E-02-2.59421E-02 9.66055E-04
 -1      1005 2.00392E-02-3.19035E-02-3.28647E-06
 -1      1006 6.90892E-02-8.90716E-01 8.16778E-05
 -1      1007 6.57913E-02-5.92521E-01 3.08563E-04
 -1      1008 6.80231E-02-7.17425E-01-2.10988E-04
 -1      1009 5.92611E-02-3.99835E-01-4.70982E-04
 -1      1010 5.36264E-02-2.96876E-01-5.72782E-04
 -1      1011 5.56547E-02-3.29971E-01 5.35859E-04
 -1      1012 6.08496E-02-4.36466E-01 4.38644E-04
 -1      1013 5.75241E-02-3.64312E-01-5.03350E-04
 -1      1014 3.22662E-02-8.67409E-02 8.28512E-04
 -1      1015 4.40998E-02-1.78680E-01 6.98349E-04
 -1      1016 4.67016E-02-2.05937E-01 6.69878E-04
 -1      1017 4.79245E-02-2.20065E-01-6.36622E-06
 -1      1018 4.13610E-02-1.53044E-01-7.30991E-04
 -1      1019 6.22991E-02-4.74125E-01-4.06331E-04
 -1      1020 6.74161E-02-6.75193E-01 2.44696E-04
 -1      1021 5.14566E-02-2.64972E-01 6.07074E-04
 -1      1022 6.90257E-02-8.46783E-01-1.13136E-04
 -1      1023 6.88272E-02-8.03297E-01 1.46879E-04
 -1      1024 3.54469E-02-1.06994E-01-7.95847E-04
 -1      1025 2.89537E-02-6.84365E-02-8.60864E-04
 -1      1026 6.84918E-02-7.60149E-01 1.78818E-04
 -1      1027 6.47681E-02-5.52229E-01-3.41225E-04
 -1      1028 2.54986E-02-5.21554E-02 8.95405E-04
 -1      1029 5.75300E-02-3.64311E-01 5.03976E-04
 -1      1030 3.84757E-02-1.29121E-01 7.62730E-04
 -1      1031 6.84938E-02-7.60150E-01-1.78341E-04
 -1      1032 6.36041E-02-5.12740E-01 3.73733E-04
 -1      1033 6.66722E-02-6.33533E-01-2.76158E-04
 -1      1034 8.40695E-03-6.50839E-03 6.44004E-06
 -1      1035 1.22841E-02-1.24683E-02 6.86489E-08
 -1      1036 2.19693E-02-3.82161E-02-9.41037E-04
 -1      1037 2.99088E-03-1.70984E-03-3.06118E-04
 -1      1038 4.67013E-02-2.05905E-01-6.79506E-04
 -1      1039 5.03222E-02-2.49826E-01-5.69835E-06
 -1      1040 6.90755E-02-9.10174E-01 9.88364E-07
 -1      1041 1.80856E-02-2.57472E-02-9.76367E-04
 -1      1042 6.90739E-02-8.68553E-01-9.05541E-07
 -1      1043 2.37159E-02-4.50226E-02 9.78612E-08
 -1      1044 6.77360E-02-6.96299E-01-3.12445E-07
 -1      1045 6.82760E-02-7.38779E-01 2.18061E-06
 -1      1046 6.62482E-02-6.13013E-01 2.38638E-07
 -1      1047 6.89405E-02-8.25033E-01 5.89480E-07
 -1      1048 6.15925E-02-4.55275E-01-3.40852E-08
 -1      1049 5.66100E-02-3.47115E-01-1.06262E-06
 -1      1050 6.29656E-02-4.93414E-01 1.48114E-06
 -1      1051 6.42027E-02-5.32466E-01 4.09614E-07
 -1      1052 6.86772E-02-7.81717E-01-3.40203E-08
 -1      1053 6.70628E-02-6.54352E-01-1.61832E-06
 -1      1054 5.25632E-02-2.80920E-01-1.99626E-06
 -1      1055 2.72445E-02-6.02550E-02 1.39873E-06
 -1      1056 3.06321E-02-7.75479E-02-1.64208E-06
 -1      1057 5.84131E-02-3.82051E-01-1.09139E-06
 -1      1058 3.69790E-02-1.18021E-01 2.52101E-07
 -1      1059 3.99378E-02-1.41045E-01 3.12859E-07
 -1      1060 3.38771E-02-9.68298E-02-1.54005E-06
 -1      1061 6.00754E-02-4.18129E-01-8.50656E-07
 -1      1062 6.52963E-02-5.72358E-01 8.06880E-08
 -1      1063 4.27534E-02-1.65826E-01-1.47349E-06
 -1      1064 5.46615E-02-3.13403E-01 1.78167E-06
 -1      1065 4.54243E-02-1.92288E-01-1.65905E-06
 -1      1066 4.91522E-02-2.34708E-01-6.47138E-04
 -1      1067 1.62093E-02-2.09865E-02-9.47236E-08
 -1      1068 6.88717E-02-9.68125E-01 1.12193E-05
 -1      1069 5.94617E-03-3.66414E-03 9.09905E-04
 -1      1070 6.90156E-02-9.36322E-01-4.41420E-05
 -1      1071 5.19427E-03-3.24616E-03-3.63019E-06
 -1      1072 2.56805E-03-1.30646E-03-8.11927E-04
 -1      1073 2.54737E-03-1.31976E-03 8.00218E-04
 -1      1074 6.88430E-02-9.72448E-01 2.14010E-05
 -1      1075 6.88425E-02-9.72674E-01-1.95384E-05
 -1      1076 6.89842E-02-9.44114E-01 6.28263E-07
 -1      1077 1.24906E-03-6.54067E-04-6.11797E-04
 -1      1078 1.23117E-03-7.97327E-04-3.86379E-04
 -1      1079 3.39459E-03-1.46327E-03-1.30294E-03
 -1      1080 1.19778E-03-7.46456E-04 3.83003E-04
 -1      1081 1.24076E-03-6.48345E-04 6.01837E-04
 -1      1082 3.38221E-03-1.46719E-03 1.29802E-03
 -1      1083 6.87395E-02-9.86621E-01-7.70706E-06
 -1      1084 6.87385E-02-9.86618E-01-9.61786E-06
 -1      1085 6.88861E-02-9.64575E-01-3.60855E-05
 -1      1086 6.87395E-02-9.86505E-01 1.11840E-05
 -1      1087 6.87428E-02-9.86507E-01 8.25575E-06
 -1      1088 6.88871E-02-9.64463E-01 3.70274E-05
 -1      1089 1.35365E-03-8.78529E-04 8.58628E-05
 -1      1090 1.38612E-03-9.05542E-04 2.51875E-04
 -1      1091 2.70487E-03-1.50995E-03 5.29642E-04
 -1      1092 1.40890E-03-8.99438E-04-2.70430E-04
 -1      1093 1.45080E-03-9.64617E-04-8.58683E-05
 -1      1094 2.92300E-03-1.71305E-03-7.27713E-06
 -1      1095 2.77183E-03-1.52819E-03-5.56257E-04
 -1      1096 6.87556E-02-9.84346E-01 6.97629E-06
 -1      1097 6.87584E-02-9.84345E-01 3.04520E-06
 -1      1098 6.88580E-02-9.70286E-01 1.65315E-05
 -1      1099 6.87499E-02-9.85011E-01-1.30172E-06
 -1      1100 6.87540E-02-9.85009E-01-5.97143E-06
 -1      1101 6.88661E-02-9.68791E-01 1.22238E-06
 -1      1102 6.88528E-02-9.71064E-01-1.48903E-05
 -1      1103 5.04450E-03-2.61742E-03 1.35795E-03
 -1      1104 7.11880E-03-4.44797E-03 1.48569E-03
 -1      1105 4.24028E-03-2.28887E-03 9.20830E-04
 -1      1106 9.26230E-03-7.02652E-03 1.53040E-03
 -1      1107 1.12929E-02-1.01302E-02 1.53080E-03
 -1      1108 8.12091E-03-5.91019E-03 9.78600E-04
 -1      1109 1.32840E-02-1.38179E-02 1.51696E-03
 -1      1110 1.52549E-02-1.81145E-02 1.49519E-03
 -1      1111 1.22838E-02-1.22098E-02 1.00400E-03
 -1      1112 1.71953E-02-2.29985E-02 1.47319E-03
 -1      1113 1.90983E-02-2.84447E-02 1.44771E-03
 -1      1114 1.62227E-02-2.07775E-02 9.81330E-04
 -1      1115 2.09693E-02-3.44613E-02 1.42237E-03
 -1      1116 2.28030E-02-4.10160E-02 1.39628E-03
 -1      1117 2.00371E-02-3.16737E-02 9.49643E-04
 -1      1118 2.46051E-02-4.81215E-02 1.37095E-03
 -1      1119 2.63683E-02-5.57478E-02 1.34497E-03
 -1      1120 2.37115E-02-4.47878E-02 9.13210E-04
 -1      1121 2.80975E-02-6.38957E-02 1.31912E-03
 -1      1122 2.97906E-02-7.25548E-02 1.29380E-03
 -1      1123 2.72437E-02-6.00375E-02 8.77833E-04
 -1      1124 3.14457E-02-8.17116E-02 1.26922E-03
 -1      1125 3.30705E-02-9.13621E-02 1.24564E-03
 -1      1126 3.06290E-02-7.73421E-02 8.43450E-04
 -1      1127 3.46581E-02-1.01496E-01 1.22136E-03
 -1      1128 3.62108E-02-1.12101E-01 1.19579E-03
 -1      1129 3.38714E-02-9.66304E-02 8.12016E-04
 -1      1130 3.77258E-02-1.23171E-01 1.17196E-03
 -1      1131 3.92051E-02-1.34694E-01 1.14622E-03
 -1      1132 3.69759E-02-1.17830E-01 7.79140E-04
 -1      1133 4.06492E-02-1.46660E-01 1.12189E-03
 -1      1134 4.20561E-02-1.59063E-01 1.09651E-03
 -1      1135 3.99372E-02-1.40861E-01 7.46334E-04
 -1      1136 4.34244E-02-1.71887E-01 1.07188E-03
 -1      1137 4.47623E-02-1.85128E-01 1.04919E-03
 -1      1138 4.27504E-02-1.65652E-01 7.13620E-04
 -1      1139 4.60616E-02-1.98762E-01 1.02710E-03
 -1      1140 4.73246E-02-2.12804E-01 1.00067E-03
 -1      1141 4.54166E-02-1.92108E-01 6.85414E-04
 -1      1142 4.85473E-02-2.27180E-01 9.75585E-04
 -1      1143 4.97384E-02-2.41984E-01 9.51390E-04
 -1      1144 4.79397E-02-2.20113E-01 6.52191E-04
 -1      1145 5.08926E-02-2.57143E-01 9.29324E-04
 -1      1146 5.20117E-02-2.72673E-01 9.03165E-04
 -1      1147 5.03165E-02-2.49641E-01 6.22119E-04
 -1      1148 5.30992E-02-2.88639E-01 8.76218E-04
 -1      1149 5.41451E-02-3.04857E-01 8.50612E-04
 -1      1150 5.25606E-02-2.80759E-01 5.87670E-04
 -1      1151 5.51559E-02-3.21404E-01 8.26393E-04
 -1      1152 5.61296E-02-3.38272E-01 8.01409E-04
 -1      1153 5.46608E-02-3.13266E-01 5.52083E-04
 -1      1154 5.70670E-02-3.55448E-01 7.77255E-04
 -1      1155 5.79706E-02-3.72926E-01 7.52289E-04
 -1      1156 5.66091E-02-3.46989E-01 5.19321E-04
 -1      1157 5.88367E-02-3.90695E-01 7.27951E-04
 -1      1158 5.96680E-02-4.08744E-01 7.02206E-04
 -1      1159 5.84119E-02-3.81931E-01 4.87318E-04
 -1      1160 6.04618E-02-4.27067E-01 6.78705E-04
 -1      1161 6.12209E-02-4.45649E-01 6.53856E-04
 -1      1162 6.00718E-02-4.18019E-01 4.54772E-04
 -1      1163 6.19453E-02-4.64486E-01 6.29829E-04
 -1      1164 6.26318E-02-4.83566E-01 6.04040E-04
 -1      1165 6.15903E-02-4.55171E-01 4.22093E-04
 -1      1166 6.32841E-02-5.02878E-01 5.79920E-04
 -1      1167 6.39007E-02-5.22416E-01 5.55037E-04
 -1      1168 6.29684E-02-4.93318E-01 3.89760E-04
 -1      1169 6.44826E-02-5.42166E-01 5.30859E-04
 -1      1170 6.50294E-02-5.62123E-01 5.05649E-04
 -1      1171 6.42021E-02-5.32379E-01 3.57291E-04
 -1      1172 6.55410E-02-5.82274E-01 4.81248E-04
 -1      1173 6.60167E-02-6.02613E-01 4.55862E-04
 -1      1174 6.52957E-02-5.72278E-01 3.24665E-04
 -1      1175 6.64549E-02-6.23124E-01 4.31294E-04
 -1      1176 6.68638E-02-6.43804E-01 4.07808E-04
 -1      1177 6.62469E-02-6.12941E-01 2.92255E-04
 -1      1178 6.72365E-02-6.64641E-01 3.83886E-04
 -1      1179 6.75746E-02-6.85625E-01 3.57618E-04
 -1      1180 6.70577E-02-6.54288E-01 2.60876E-04
 -1      1181 6.78772E-02-7.06748E-01 3.33361E-04
 -1      1182 6.81460E-02-7.27997E-01 3.08992E-04
 -1      1183 6.77326E-02-6.96243E-01 2.27110E-04
 -1      1184 6.83811E-02-7.49367E-01 2.84665E-04
 -1      1185 6.85826E-02-7.70846E-01 2.60012E-04
 -1      1186 6.82709E-02-7.38731E-01 1.95700E-04
 -1      1187 6.87493E-02-7.92425E-01 2.36093E-04
 -1      1188 6.88818E-02-8.14094E-01 2.09398E-04
 -1      1189 6.86736E-02-7.81677E-01 1.63864E-04
 -1      1190 6.89806E-02-8.35844E-01 1.85123E-04
 -1      1191 6.90463E-02-8.57663E-01 1.60238E-04
 -1      1192 6.89400E-02-8.25001E-01 1.29801E-04
 -1      1193 6.90786E-02-8.79638E-01 1.36322E-04
 -1      1194 6.90784E-02-9.01572E-01 1.10122E-04
 -1      1195 6.90714E-02-8.68721E-01 9.82107E-05
 -1      1196 6.90427E-02-9.24487E-01 8.35372E-05
 -1      1197 6.89740E-02-9.46498E-01 5.59197E-05
 -1      1198 6.90673E-02-9.13604E-01 6.23613E-05
 -1      1199 6.89398E-02-9.54484E-01 3.47015E-05
 -1      1200 7.11239E-03-4.43992E-03-1.48790E-03
 -1      1201 5.03833E-03-2.61023E-03-1.36010E-03
 -1      1202 4.24371E-03-2.28428E-03-9.27976E-04
 -1      1203 1.12854E-02-1.01141E-02-1.53420E-03
 -1      1204 9.25402E-03-7.01335E-03-1.53404E-03
 -1      1205 8.10675E-03-5.89053E-03-9.83592E-04
 -1      1206 1.52625E-02-1.81378E-02-1.49317E-03
 -1      1207 1.32944E-02-1.38393E-02-1.51513E-03
 -1      1208 1.22827E-02-1.22129E-02-1.00437E-03
 -1      1209 1.90658E-02-2.83418E-02-1.45268E-03
 -1      1210 1.71611E-02-2.29045E-02-1.47814E-03
 -1      1211 1.62006E-02-2.07145E-02-9.84356E-04
 -1      1212 2.28384E-02-4.11503E-02-1.40023E-03
 -1      1213 2.10068E-02-3.45829E-02-1.42718E-03
 -1      1214 2.00426E-02-3.16837E-02-9.59704E-04
 -1      1215 2.63673E-02-5.57482E-02-1.34453E-03
 -1      1216 2.46009E-02-4.81224E-02-1.36789E-03
 -1      1217 2.37477E-02-4.49290E-02-9.16614E-04
 -1      1218 2.97910E-02-7.25529E-02-1.29397E-03
 -1      1219 2.80967E-02-6.38956E-02-1.32040E-03
 -1      1220 2.72393E-02-6.00396E-02-8.77295E-04
 -1      1221 3.30685E-02-9.13628E-02-1.24672E-03
 -1      1222 3.14482E-02-8.17123E-02-1.26948E-03
 -1      1223 3.06250E-02-7.73416E-02-8.43040E-04
 -1      1224 3.62105E-02-1.12102E-01-1.19678E-03
 -1      1225 3.46587E-02-1.01494E-01-1.22209E-03
 -1      1226 3.38739E-02-9.66295E-02-8.12403E-04
 -1      1227 3.92059E-02-1.34694E-01-1.14617E-03
 -1      1228 3.77254E-02-1.23171E-01-1.17244E-03
 -1      1229 3.69785E-02-1.17830E-01-7.79594E-04
 -1      1230 4.20555E-02-1.59062E-01-1.09728E-03
 -1      1231 4.06492E-02-1.46661E-01-1.12200E-03
 -1      1232 3.99343E-02-1.40862E-01-7.46153E-04
 -1      1233 4.47597E-02-1.85128E-01-1.04920E-03
 -1      1234 4.34265E-02-1.71888E-01-1.07288E-03
 -1      1235 4.27475E-02-1.65651E-01-7.14018E-04
 -1      1236 4.73246E-02-2.12788E-01-1.00620E-03
 -1      1237 4.60598E-02-1.98744E-01-1.03155E-03
 -1      1238 4.54191E-02-1.92093E-01-6.89542E-04
 -1      1239 4.97397E-02-2.42002E-01-9.56074E-04
 -1      1240 4.85497E-02-2.27196E-01-9.82441E-04
 -1      1241 4.79418E-02-2.20117E-01-6.64386E-04
 -1      1242 5.20132E-02-2.72706E-01-9.04120E-04
 -1      1243 5.08951E-02-2.57174E-01-9.29579E-04
 -1      1244 5.03242E-02-2.49690E-01-6.28501E-04
 -1      1245 5.41444E-02-3.04850E-01-8.54197E-04
 -1      1246 5.30956E-02-2.88632E-01-8.76883E-04
 -1      1247 5.25628E-02-2.80785E-01-5.91049E-04
 -1      1248 5.61301E-02-3.38272E-01-8.00774E-04
 -1      1249 5.51561E-02-3.21404E-01-8.27676E-04
 -1      1250 5.46559E-02-3.13261E-01-5.55554E-04
 -1      1251 5.79697E-02-3.72926E-01-7.52564E-04
 -1      1252 5.70674E-02-3.55449E-01-7.76481E-04
 -1      1253 5.66047E-02-3.46989E-01-5.18652E-04
 -1      1254 5.96675E-02-4.08743E-01-7.03011E-04
 -1      1255 5.88368E-02-3.90695E-01-7.28357E-04
 -1      1256 5.84097E-02-3.81931E-01-4.87297E-04
 -1      1257 6.12207E-02-4.45651E-01-6.53462E-04
 -1      1258 6.04633E-02-4.27066E-01-6.79206E-04
 -1      1259 6.00727E-02-4.18016E-01-4.54490E-04
 -1      1260 6.26325E-02-4.83565E-01-6.04129E-04
 -1      1261 6.19432E-02-4.64485E-01-6.29163E-04
 -1      1262 6.15929E-02-4.55172E-01-4.22105E-04
 -1      1263 6.39006E-02-5.22415E-01-5.55780E-04
 -1      1264 6.32842E-02-5.02879E-01-5.80108E-04
 -1      1265 6.29663E-02-4.93319E-01-3.90070E-04
 -1      1266 6.50292E-02-5.62123E-01-5.05218E-04
 -1      1267 6.44829E-02-5.42166E-01-5.31429E-04
 -1      1268 6.42018E-02-5.32380E-01-3.57667E-04
 -1      1269 6.60174E-02-6.02611E-01-4.56476E-04
 -1      1270 6.55399E-02-5.82274E-01-4.81056E-04
 -1      1271 6.52948E-02-5.72278E-01-3.24784E-04
 -1      1272 6.68644E-02-6.43805E-01-4.06816E-04
 -1      1273 6.64580E-02-6.23125E-01-4.32509E-04
 -1      1274 6.62460E-02-6.12942E-01-2.92593E-04
 -1      1275 6.75740E-02-6.85627E-01-3.57373E-04
 -1      1276 6.72369E-02-6.64641E-01-3.82501E-04
 -1      1277 6.70614E-02-6.54286E-01-2.59895E-04
 -1      1278 6.81452E-02-7.27999E-01-3.08407E-04
 -1      1279 6.78764E-02-7.06748E-01-3.32888E-04
 -1      1280 6.77366E-02-6.96243E-01-2.27069E-04
 -1      1281 6.85825E-02-7.70847E-01-2.58425E-04
 -1      1282 6.83803E-02-7.49367E-01-2.84139E-04
 -1      1283 6.82741E-02-7.38732E-01-1.94714E-04
 -1      1284 6.88799E-02-8.14095E-01-2.09087E-04
 -1      1285 6.87480E-02-7.92427E-01-2.34791E-04
 -1      1286 6.86740E-02-7.81678E-01-1.62415E-04
 -1      1287 6.90460E-02-8.57665E-01-1.60106E-04
 -1      1288 6.89798E-02-8.35843E-01-1.84873E-04
 -1      1289 6.89410E-02-8.25001E-01-1.29360E-04
 -1      1290 6.90780E-02-9.01255E-01-1.10525E-04
 -1      1291 6.90784E-02-8.79319E-01-1.36580E-04
 -1      1292 6.90735E-02-8.68403E-01-9.82899E-05
 -1      1293 6.89740E-02-9.46394E-01-5.51020E-05
 -1      1294 6.90421E-02-9.24381E-01-8.25739E-05
 -1      1295 6.90706E-02-9.13180E-01-6.30132E-05
 -1      1296 6.89404E-02-9.54490E-01-3.41744E-05
 -1      1297 6.50365E-02-5.62291E-01 1.66741E-04
 -1      1298 6.55485E-02-5.82434E-01 1.57648E-04
 -1      1299 6.39077E-02-5.22600E-01 1.83308E-04
 -1      1300 6.44898E-02-5.42342E-01 1.74020E-04
 -1      1301 6.47649E-02-5.52313E-01-1.96826E-07
 -1      1302 6.75818E-02-6.85744E-01 1.18476E-04
 -1      1303 6.78825E-02-7.06859E-01 1.09268E-04
 -1      1304 6.81523E-02-7.28100E-01 1.03394E-04
 -1      1305 6.83884E-02-7.49462E-01 9.36736E-05
 -1      1306 6.80198E-02-7.17477E-01-1.71895E-07
 -1      1307 6.90870E-02-8.79314E-01-4.52631E-05
 -1      1308 6.90544E-02-8.57668E-01-5.29032E-05
 -1      1309 6.90882E-02-8.89341E-01-4.87098E-07
 -1      1310 6.90876E-02-9.00128E-01-3.74863E-05
 -1      1311 6.90518E-02-9.23243E-01-2.66758E-05
 -1      1312 5.96735E-02-4.08977E-01 2.31795E-04
 -1      1313 6.04674E-02-4.27292E-01 2.22596E-04
 -1      1314 5.79760E-02-3.73177E-01 2.48412E-04
 -1      1315 5.88425E-02-3.90936E-01 2.38501E-04
 -1      1316 5.92602E-02-3.99951E-01-4.19872E-07
 -1      1317 6.12266E-02-4.45866E-01 2.15615E-04
 -1      1318 6.19509E-02-4.64695E-01 2.06003E-04
 -1      1319 6.26384E-02-4.83767E-01 1.99257E-04
 -1      1320 6.32903E-02-5.03071E-01 1.90872E-04
 -1      1321 6.22945E-02-4.74225E-01-7.39737E-07
 -1      1322 6.60250E-02-6.02764E-01 1.50343E-04
 -1      1323 6.64640E-02-6.23268E-01 1.42655E-04
 -1      1324 6.68693E-02-6.43939E-01 1.35159E-04
 -1      1325 6.72441E-02-6.64769E-01 1.25442E-04
 -1      1326 6.66703E-02-6.33600E-01 7.64487E-07
 -1      1327 6.89880E-02-8.35905E-01-5.94027E-05
 -1      1328 6.88886E-02-8.14164E-01-6.90124E-05
 -1      1329 6.87560E-02-7.92505E-01-7.66054E-05
 -1      1330 6.85900E-02-7.70933E-01-8.57342E-05
 -1      1331 6.88240E-02-8.03333E-01 3.01055E-07
 -1      1332 5.51621E-02-3.21679E-01-2.71345E-04
 -1      1333 5.41481E-02-3.05134E-01-2.83003E-04
 -1      1334 5.70713E-02-3.55707E-01-2.54771E-04
 -1      1335 5.61364E-02-3.38538E-01-2.64763E-04
 -1      1336 5.56515E-02-3.30103E-01-2.49128E-07
 -1      1337 1.90993E-02-2.89130E-02 4.78136E-04
 -1      1338 2.09715E-02-3.49203E-02 4.67800E-04
 -1      1339 2.18932E-02-3.81898E-02-1.27994E-06
 -1      1340 2.28099E-02-4.14808E-02 4.61954E-04
 -1      1341 2.46119E-02-4.85770E-02 4.51073E-04
 -1      1342 2.97987E-02-7.29843E-02 4.25606E-04
 -1      1343 3.14543E-02-8.21339E-02 4.17622E-04
 -1      1344 2.63762E-02-5.61950E-02 4.44315E-04
 -1      1345 2.81051E-02-6.43345E-02 4.33790E-04
 -1      1346 2.89536E-02-6.86490E-02-7.30403E-07
 -1      1347 1.32882E-02-1.43364E-02-4.97757E-04
 -1      1348 1.12694E-02-1.06153E-02-5.05499E-04
 -1      1349 1.52504E-02-1.85996E-02-4.91024E-04
 -1      1350 1.42607E-02-1.64407E-02 1.71202E-06
 -1      1351 1.71525E-02-2.33603E-02-4.91979E-04
 -1      1352 4.20634E-02-1.59427E-01 3.60831E-04
 -1      1353 4.34323E-02-1.72244E-01 3.52752E-04
 -1      1354 3.92119E-02-1.35075E-01 3.77623E-04
 -1      1355 4.06560E-02-1.47034E-01 3.68610E-04
 -1      1356 4.13611E-02-1.53222E-01-6.49272E-07
 -1      1357 4.73184E-02-2.12997E-01 3.27890E-04
 -1      1358 4.85401E-02-2.27360E-01 3.17737E-04
 -1      1359 4.91392E-02-2.34758E-01-5.98058E-06
 -1      1360 4.97383E-02-2.42243E-01 3.11551E-04
 -1      1361 5.08941E-02-2.57394E-01 3.04557E-04
 -1      1362 3.30754E-02-9.17765E-02 4.10913E-04
 -1      1363 3.46649E-02-1.01902E-01 4.00603E-04
 -1      1364 3.62165E-02-1.12498E-01 3.94271E-04
 -1      1365 3.77319E-02-1.23561E-01 3.84778E-04
 -1      1366 3.54434E-02-1.07190E-01-6.51644E-07
 -1      1367 9.32970E-03-7.65338E-03-5.00170E-04
 -1      1368 7.16561E-03-5.01989E-03-4.64184E-04
 -1      1369 6.80351E-03-4.70060E-03 4.96077E-07
 -1      1370 5.55671E-03-3.48881E-03-4.34941E-04
 -1      1371 4.08505E-03-2.40177E-03-1.89357E-04
 -1      1372 4.44057E-03-2.56338E-03-5.99573E-04
 -1      1373 1.12780E-02-1.06297E-02 5.02399E-04
 -1      1374 1.32793E-02-1.43169E-02 5.00377E-04
 -1      1375 1.03599E-02-9.21900E-03 3.71759E-06
 -1      1376 9.33837E-03-7.66364E-03 5.04455E-04
 -1      1377 7.17091E-03-5.02540E-03 4.69490E-04
 -1      1378 6.90871E-02-9.00446E-01 3.71350E-05
 -1      1379 6.90510E-02-9.23349E-01 2.65951E-05
 -1      1380 6.90378E-02-9.27134E-01-1.75238E-07
 -1      1381 6.90012E-02-9.40326E-01 2.12201E-05
 -1      1382 6.89530E-02-9.52325E-01 2.49850E-05
 -1      1383 6.89339E-02-9.56117E-01 8.18201E-06
 -1      1384 6.55476E-02-5.82434E-01-1.57980E-04
 -1      1385 6.50367E-02-5.62291E-01-1.67017E-04
 -1      1386 6.64651E-02-6.23269E-01-1.41447E-04
 -1      1387 6.60237E-02-6.02763E-01-1.51142E-04
 -1      1388 6.57875E-02-5.92595E-01-4.78924E-07
 -1      1389 5.41524E-02-3.05139E-01 2.80887E-04
 -1      1390 5.51628E-02-3.21679E-01 2.71968E-04
 -1      1391 5.20148E-02-2.72940E-01 2.99361E-04
 -1      1392 5.31030E-02-2.88896E-01 2.86608E-04
 -1      1393 5.36278E-02-2.96993E-01-1.55582E-06
 -1      1394 6.90534E-02-8.57667E-01 5.40986E-05
 -1      1395 6.90869E-02-8.79633E-01 4.44950E-05
 -1      1396 6.88893E-02-8.14164E-01 6.99314E-05
 -1      1397 6.89873E-02-8.35904E-01 6.13633E-05
 -1      1398 6.90199E-02-8.46759E-01 1.18841E-06
 -1      1399 6.04688E-02-4.27292E-01-2.22796E-04
 -1      1400 5.96736E-02-4.08977E-01-2.32330E-04
 -1      1401 6.19502E-02-4.64695E-01-2.07055E-04
 -1      1402 6.12276E-02-4.45867E-01-2.15511E-04
 -1      1403 6.08496E-02-4.36574E-01 5.99265E-08
 -1      1404 6.78843E-02-7.06858E-01-1.09461E-04
 -1      1405 6.75821E-02-6.85745E-01-1.18007E-04
 -1      1406 6.72450E-02-6.64769E-01-1.25742E-04
 -1      1407 6.68727E-02-6.43940E-01-1.34706E-04
 -1      1408 6.74146E-02-6.75254E-01 2.57120E-07
 -1      1409 6.32898E-02-5.03071E-01-1.90317E-04
 -1      1410 6.26371E-02-4.83767E-01-1.99390E-04
 -1      1411 6.44902E-02-5.42343E-01-1.74171E-04
 -1      1412 6.39077E-02-5.22599E-01-1.83270E-04
 -1      1413 6.35998E-02-5.12831E-01-1.22568E-07
 -1      1414 2.81039E-02-6.43342E-02-4.33766E-04
 -1      1415 2.63725E-02-5.61953E-02-4.43433E-04
 -1      1416 2.46101E-02-4.85774E-02-4.50770E-04
 -1      1417 2.28473E-02-4.16163E-02-4.66801E-04
 -1      1418 2.54950E-02-5.23756E-02-7.65119E-07
 -1      1419 4.34309E-02-1.72244E-01-3.51974E-04
 -1      1420 4.20618E-02-1.59426E-01-3.62351E-04
 -1      1421 4.60672E-02-1.99089E-01-3.44271E-04
 -1      1422 4.47678E-02-1.85477E-01-3.45246E-04
 -1      1423 4.41028E-02-1.78852E-01 2.75798E-07
 -1      1424 5.31012E-02-2.88890E-01-2.91682E-04
 -1      1425 5.20181E-02-2.72974E-01-3.02014E-04
 -1      1426 5.14587E-02-2.65197E-01-3.09296E-06
 -1      1427 5.08974E-02-2.57424E-01-3.11103E-04
 -1      1428 4.97421E-02-2.42262E-01-3.22554E-04
 -1      1429 3.46663E-02-1.01901E-01-4.02157E-04
 -1      1430 3.30767E-02-9.17770E-02-4.10287E-04
 -1      1431 3.14526E-02-8.21342E-02-4.17133E-04
 -1      1432 2.97976E-02-7.29831E-02-4.27221E-04
 -1      1433 3.22683E-02-8.69453E-02 2.00642E-07
 -1      1434 4.06545E-02-1.47035E-01-3.68765E-04
 -1      1435 3.92117E-02-1.35075E-01-3.78071E-04
 -1      1436 3.77326E-02-1.23561E-01-3.85286E-04
 -1      1437 3.62177E-02-1.12499E-01-3.94392E-04
 -1      1438 3.84741E-02-1.29308E-01-3.06030E-07
 -1      1439 4.01466E-03-2.36686E-03 1.67874E-04
 -1      1440 5.56110E-03-3.49685E-03 4.28856E-04
 -1      1441 4.37735E-03-2.52948E-03 5.85502E-04
 -1      1442 6.89277E-02-9.56782E-01-6.16690E-06
 -1      1443 6.89492E-02-9.52885E-01-2.26962E-05
 -1      1444 6.90019E-02-9.40221E-01-2.02936E-05
 -1      1445 1.52402E-02-1.85770E-02 4.94332E-04
 -1      1446 1.71851E-02-2.34512E-02 4.87229E-04
 -1      1447 1.81400E-02-2.61594E-02-1.38621E-06
 -1      1448 1.90671E-02-2.88112E-02-4.86175E-04
 -1      1449 2.10091E-02-3.50432E-02-4.75989E-04
 -1      1450 6.83893E-02-7.49462E-01-9.20603E-05
 -1      1451 6.81538E-02-7.28101E-01-1.01415E-04
 -1      1452 5.88431E-02-3.90936E-01-2.39549E-04
 -1      1453 5.79751E-02-3.73177E-01-2.47869E-04
 -1      1454 5.61366E-02-3.38538E-01 2.63903E-04
 -1      1455 5.70739E-02-3.55706E-01 2.55365E-04
 -1      1456 5.75255E-02-3.64435E-01 5.41077E-07
 -1      1457 4.47661E-02-1.85476E-01 3.45894E-04
 -1      1458 4.60677E-02-1.99104E-01 3.38037E-04
 -1      1459 4.66900E-02-2.05984E-01-4.42940E-06
 -1      1460 4.73176E-02-2.12981E-01-3.39968E-04
 -1      1461 4.85435E-02-2.27378E-01-3.30829E-04
 -1      1462 6.85895E-02-7.70932E-01 8.62650E-05
 -1      1463 6.87569E-02-7.92504E-01 7.69483E-05
 -1      1464 6.84911E-02-7.60195E-01 7.61031E-07
 -1      1465-3.48418E-02-5.11509E-01-3.73622E-04
 -1      1466-3.83805E-02-6.74064E-01-2.43206E-04
 -1      1467 3.13801E-02-7.59604E-01 1.79427E-04
 -1      1468-4.22692E-02-8.89128E-01-8.18091E-05
 -1      1469-3.18271E-02-3.98551E-01-4.74782E-04
 -1      1470 3.06632E-02-5.91799E-01 3.08333E-04
 -1      1471-2.92483E-02-3.28656E-01-5.35399E-04
 -1      1472 1.06421E-02-3.65185E-02 9.25023E-04
 -1      1473-1.44454E-02-6.69787E-02-8.66691E-04
 -1      1474-7.05413E-03-1.46384E-02-1.00548E-03
 -1      1475 2.03162E-02-1.51747E-01 7.41187E-04
 -1      1476-2.53788E-02-2.33586E-01-6.35248E-04
 -1      1477-1.78406E-02-1.05574E-01-8.02340E-04
 -1      1478 2.90782E-03-2.10585E-03 9.64842E-04
 -1      1479 2.93567E-02-4.73283E-01 4.05934E-04
 -1      1480-4.04544E-02-8.02267E-01-1.44234E-04
 -1      1481 3.05410E-02-9.36169E-01 4.54560E-05
 -1      1482 2.56502E-02-2.95853E-01 5.67137E-04
 -1      1483 3.13172E-02-8.46328E-01 1.13646E-04
 -1      1484 2.73656E-02-3.63355E-01 5.03544E-04
 -1      1485-2.24166E-02-1.77300E-01-6.98527E-04
 -1      1486 1.59650E-02-8.54154E-02 8.42669E-04
 -1      1487 2.28682E-02-2.04912E-01 6.76647E-04
 -1      1488-7.02825E-04-3.42984E-05-3.86031E-04
 -1      1489-2.33374E-02-9.68712E-01-1.07940E-05
 -1      1490 3.11665E-02-6.74558E-01 2.43408E-04
 -1      1491-3.67189E-02-5.91336E-01-3.08339E-04
 -1      1492-1.07697E-02-3.64696E-02-9.26747E-04
 -1      1493 7.02009E-03-1.46443E-02 1.00450E-03
 -1      1494 5.01860E-03-7.17089E-03 1.02172E-03
 -1      1495-6.02263E-05-4.41122E-03-1.71120E-05
 -1      1496 3.13891E-02-8.90311E-01 8.15273E-05
 -1      1497-3.38241E-02-4.72878E-01-4.06144E-04
 -1      1498-3.29849E-02-4.35198E-01-4.41133E-04
 -1      1499-1.75505E-03-4.16819E-01 2.32209E-06
 -1      1500-3.91289E-02-7.16327E-01-2.10860E-04
 -1      1501 3.03022E-02-5.51467E-01 3.41195E-04
 -1      1502-2.79806E-02-2.95562E-01-5.68475E-04
 -1      1503-2.68403E-02-2.63825E-01-6.04993E-04
 -1      1504-6.33597E-04-2.48725E-01 5.93240E-06
 -1      1505 3.13842E-02-8.02794E-01 1.46623E-04
 -1      1506-2.10922E-02-1.51539E-01-7.37694E-04
 -1      1507 3.13094E-02-7.16833E-01 2.11423E-04
 -1      1508 2.16786E-02-1.77505E-01 7.10495E-04
 -1      1509-1.61883E-02-8.53025E-02-8.35322E-04
 -1      1510-1.94435E-02-1.27594E-01-7.69129E-04
 -1      1511-1.15462E-04-1.16070E-01 7.40658E-06
 -1      1512-4.10328E-02-8.45794E-01-1.13007E-04
 -1      1513 2.65467E-02-3.28974E-01 5.35560E-04
 -1      1514-1.26831E-02-5.06788E-02-9.01105E-04
 -1      1515-6.59188E-05-5.83892E-02 2.63860E-06
 -1      1516 8.88994E-03-2.44736E-02 9.65332E-04
 -1      1517-8.96422E-03-2.44416E-02-9.69027E-04
 -1      1518-2.41209E-02-2.04745E-01-6.73629E-04
 -1      1519-3.75762E-02-6.32375E-01-2.74793E-04
 -1      1520-3.58052E-02-5.51021E-01-3.40882E-04
 -1      1521-3.05714E-02-3.63011E-01-5.05185E-04
 -1      1522-3.98212E-02-7.59088E-01-1.78309E-04
 -1      1523 3.09527E-02-6.32857E-01 2.76284E-04
 -1      1524 2.98670E-02-5.11937E-01 3.73735E-04
 -1      1525-3.24186E-05-1.03750E-02-6.03601E-06
 -1      1526-5.14093E-03-7.26675E-03-1.04134E-03
 -1      1527 7.51828E-04-7.90742E-05 4.04618E-04
 -1      1528 2.86502E-02-3.97940E-01 4.80143E-04
 -1      1529 2.93674E-02-4.36606E-01 4.46284E-04
 -1      1530 1.43363E-02-6.69910E-02 8.76100E-04
 -1      1531 1.25924E-02-5.06198E-02 9.07458E-04
 -1      1532 1.76025E-02-1.05673E-01 8.13785E-04
 -1      1533-5.54768E-04-2.18902E-01 5.41336E-06
 -1      1534 2.52205E-02-2.64131E-01 6.13309E-04
 -1      1535-2.39381E-04-1.39268E-01 5.33182E-06
 -1      1536-5.74706E-03-9.09479E-01-1.12116E-07
 -1      1537-5.05115E-03-8.67803E-01 1.29663E-06
 -1      1538-3.45922E-03-6.53322E-01-4.90391E-07
 -1      1539-3.16718E-03-6.11934E-01 4.85346E-07
 -1      1540-2.88744E-03-5.71231E-01 2.59475E-07
 -1      1541-4.69662E-03-8.24228E-01 7.04160E-07
 -1      1542-4.06339E-03-7.37857E-01 1.28571E-06
 -1      1543-1.44521E-03-3.45720E-01-8.94442E-07
 -1      1544-2.35638E-03-4.92191E-01 8.97099E-07
 -1      1545-4.83643E-05-2.99669E-02-2.66689E-06
 -1      1546-3.01783E-05-1.90131E-02-3.89824E-06
 -1      1547-3.75798E-03-6.95325E-01 2.41895E-08
 -1      1548-2.61670E-03-5.31291E-01 7.26880E-07
 -1      1549-5.06277E-04-1.90739E-01 2.15909E-06
 -1      1550-4.37681E-03-7.80850E-01 2.09176E-07
 -1      1551-3.70899E-04-1.64143E-01 2.85677E-06
 -1      1552-1.25273E-03-3.11963E-01 4.78707E-07
 -1      1553-1.65535E-03-3.80693E-01-9.79031E-07
 -1      1554-2.11116E-03-4.54009E-01-1.57040E-07
 -1      1555 2.41739E-02-2.33799E-01 6.47470E-04
 -1      1556-1.07586E-03-2.79506E-01-6.68466E-07
 -1      1557-8.00657E-05-4.31112E-02-1.73226E-06
 -1      1558 1.90521E-02-1.27799E-01 7.78729E-04
 -1      1559-2.08226E-04-9.50442E-02-6.64837E-07
 -1      1560-1.15190E-04-7.57214E-02 7.21551E-07
 -1      1561 1.28652E-02-9.67651E-01 1.31207E-05
 -1      1562-2.92563E-03-2.11361E-03-9.70651E-04
 -1      1563-4.16004E-02-9.35421E-01-4.43515E-05
 -1      1564 2.00165E-07-1.27813E-03-4.92904E-06
 -1      1565 1.77951E-03-3.02467E-04 9.95667E-04
 -1      1566-1.76844E-03-2.95594E-04-9.81739E-04
 -1      1567 4.24362E-02-9.72227E-01 2.43057E-05
 -1      1568-5.38181E-02-9.71732E-01-2.38371E-05
 -1      1569-5.45576E-03-9.43468E-01 8.46666E-07
 -1      1570-7.85193E-04 1.00597E-04-6.02289E-04
 -1      1571-1.13760E-03-1.41693E-04-8.04423E-04
 -1      1572-2.90472E-03-8.75505E-04-1.35985E-03
 -1      1573 1.14392E-03-1.48202E-04 8.05987E-04
 -1      1574 7.71852E-04 7.72823E-05 5.91455E-04
 -1      1575 2.91228E-03-8.88720E-04 1.36416E-03
 -1      1576-6.72291E-02-9.85599E-01-1.23106E-05
 -1      1577-4.85688E-02-9.85726E-01-1.18168E-05
 -1      1578-6.70285E-02-9.63544E-01-3.76874E-05
 -1      1579 3.68735E-02-9.86251E-01 1.25610E-05
 -1      1580 5.55339E-02-9.86404E-01 1.29251E-05
 -1      1581 5.56642E-02-9.64348E-01 3.99739E-05
 -1      1582-1.84825E-04 2.72050E-04-1.31078E-04
 -1      1583-5.05185E-04 1.82348E-04-3.83040E-04
 -1      1584-1.25359E-03-1.27123E-04-7.11297E-04
 -1      1585 5.69118E-04 1.93287E-04 4.33832E-04
 -1      1586 2.00206E-04 2.49362E-04 1.51676E-04
 -1      1587 1.27951E-05-6.89762E-06-2.26914E-06
 -1      1588 1.30809E-03-1.49482E-04 7.22979E-04
 -1      1589-3.33242E-02-9.84218E-01-9.09568E-06
 -1      1590-1.46768E-02-9.84351E-01-3.59337E-06
 -1      1591-3.85734E-02-9.70221E-01-1.88774E-05
 -1      1592 3.43743E-03-9.83819E-01 3.91552E-06
 -1      1593 2.20836E-02-9.83965E-01 1.02726E-05
 -1      1594-5.23616E-03-9.68178E-01 1.21703E-06
 -1      1595 2.76465E-02-9.69938E-01 2.05242E-05
 -1      1596-3.82416E-03-1.71247E-03-1.41225E-03
 -1      1597-5.31147E-03-3.51770E-03-1.50683E-03
 -1      1598-2.47967E-03-9.81941E-04-1.04736E-03
 -1      1599-6.95534E-03-6.10488E-03-1.54891E-03
 -1      1600-8.46414E-03-9.20848E-03-1.54630E-03
 -1      1601-4.01821E-03-4.34729E-03-1.01775E-03
 -1      1602-9.91812E-03-1.28901E-02-1.52292E-03
 -1      1603-1.14014E-02-1.71886E-02-1.50082E-03
 -1      1604-6.10883E-03-1.06588E-02-1.02468E-03
 -1      1605-1.28491E-02-2.20854E-02-1.47459E-03
 -1      1606-1.42879E-02-2.75352E-02-1.44814E-03
 -1      1607-8.01697E-03-1.92505E-02-9.87544E-04
 -1      1608-1.56673E-02-3.35437E-02-1.41999E-03
 -1      1609-1.70623E-02-4.01015E-02-1.39409E-03
 -1      1610-9.87784E-03-3.01786E-02-9.47057E-04
 -1      1611-1.84811E-02-4.71998E-02-1.37287E-03
 -1      1612-1.98324E-02-5.48238E-02-1.34868E-03
 -1      1613-1.17291E-02-4.33073E-02-9.13349E-04
 -1      1614-2.11574E-02-6.29678E-02-1.32414E-03
 -1      1615-2.24675E-02-7.16232E-02-1.29816E-03
 -1      1616-1.35718E-02-5.85698E-02-8.84911E-04
 -1      1617-2.37671E-02-8.07789E-02-1.27444E-03
 -1      1618-2.50373E-02-9.04247E-02-1.24989E-03
 -1      1619-1.53232E-02-7.58926E-02-8.51370E-04
 -1      1620-2.62730E-02-1.00553E-01-1.22528E-03
 -1      1621-2.74991E-02-1.11154E-01-1.19957E-03
 -1      1622-1.70210E-02-9.51996E-02-8.19512E-04
 -1      1623-2.86918E-02-1.22159E-01-1.17494E-03
 -1      1624-2.98750E-02-1.33673E-01-1.14955E-03
 -1      1625-1.86483E-02-1.16357E-01-7.85513E-04
 -1      1626-3.10779E-02-1.45641E-01-1.12635E-03
 -1      1627-3.22218E-02-1.58035E-01-1.10136E-03
 -1      1628-2.02733E-02-1.39346E-01-7.53818E-04
 -1      1629-3.32480E-02-1.70908E-01-1.07344E-03
 -1      1630-3.43493E-02-1.84141E-01-1.04896E-03
 -1      1631-2.17646E-02-1.64207E-01-7.18209E-04
 -1      1632-3.55483E-02-1.97855E-01-1.02810E-03
 -1      1633-3.66095E-02-2.11893E-01-1.00244E-03
 -1      1634-2.32713E-02-1.90820E-01-6.86757E-04
 -1      1635-3.75653E-02-2.26305E-01-9.75851E-04
 -1      1636-3.85848E-02-2.41106E-01-9.50605E-04
 -1      1637-2.47588E-02-2.18976E-01-6.54009E-04
 -1      1638-3.96280E-02-2.56218E-01-9.27458E-04
 -1      1639-4.06065E-02-2.71742E-01-9.01646E-04
 -1      1640-2.61143E-02-2.48526E-01-6.20348E-04
 -1      1641-4.14731E-02-2.87602E-01-8.75294E-04
 -1      1642-4.24063E-02-3.03813E-01-8.51182E-04
 -1      1643-2.74179E-02-2.79521E-01-5.86131E-04
 -1      1644-4.33217E-02-3.20354E-01-8.27261E-04
 -1      1645-4.42161E-02-3.37215E-01-8.01408E-04
 -1      1646-2.86211E-02-3.11945E-01-5.53027E-04
 -1      1647-4.51429E-02-3.54386E-01-7.78178E-04
 -1      1648-4.59989E-02-3.71856E-01-7.53755E-04
 -1      1649-2.99156E-02-3.45681E-01-5.20700E-04
 -1      1650-4.68727E-02-3.89619E-01-7.30338E-04
 -1      1651-4.76849E-02-4.07663E-01-7.04125E-04
 -1      1652-3.12046E-02-3.80638E-01-4.90736E-04
 -1      1653-4.84928E-02-4.25981E-01-6.80006E-04
 -1      1654-4.92658E-02-4.44561E-01-6.54377E-04
 -1      1655-3.24125E-02-4.16742E-01-4.58075E-04
 -1      1656-4.99005E-02-4.63393E-01-6.28455E-04
 -1      1657-5.06268E-02-4.82468E-01-6.04041E-04
 -1      1658-3.34121E-02-4.53914E-01-4.22840E-04
 -1      1659-5.13332E-02-5.01777E-01-5.79802E-04
 -1      1660-5.20202E-02-5.21312E-01-5.55033E-04
 -1      1661-3.43402E-02-4.92079E-01-3.89727E-04
 -1      1662-5.26833E-02-5.41062E-01-5.30802E-04
 -1      1663-5.33263E-02-5.61017E-01-5.05003E-04
 -1      1664-3.53299E-02-5.31160E-01-3.57408E-04
 -1      1665-5.39487E-02-5.81168E-01-4.80797E-04
 -1      1666-5.45468E-02-6.01505E-01-4.56147E-04
 -1      1667-3.62686E-02-5.71083E-01-3.24435E-04
 -1      1668-5.51250E-02-6.22019E-01-4.32175E-04
 -1      1669-5.56819E-02-6.42699E-01-4.06383E-04
 -1      1670-3.71550E-02-6.11769E-01-2.92358E-04
 -1      1671-5.62164E-02-6.63539E-01-3.82313E-04
 -1      1672-5.67283E-02-6.84525E-01-3.57000E-04
 -1      1673-3.79853E-02-6.53143E-01-2.59403E-04
 -1      1674-5.72189E-02-7.05651E-01-3.32817E-04
 -1      1675-5.76862E-02-7.26905E-01-3.07940E-04
 -1      1676-3.87614E-02-6.95129E-01-2.26771E-04
 -1      1677-5.81309E-02-7.48280E-01-2.83558E-04
 -1      1678-5.85518E-02-7.69765E-01-2.58496E-04
 -1      1679-3.94820E-02-7.37649E-01-1.94649E-04
 -1      1680-5.89518E-02-7.91351E-01-2.34359E-04
 -1      1681-5.93296E-02-8.13027E-01-2.08037E-04
 -1      1682-4.01457E-02-7.80630E-01-1.62300E-04
 -1      1683-5.96851E-02-8.34784E-01-1.83936E-04
 -1      1684-6.00134E-02-8.56613E-01-1.59853E-04
 -1      1685-4.07505E-02-8.23992E-01-1.28206E-04
 -1      1686-6.06817E-02-8.78276E-01-1.36941E-04
 -1      1687-6.09663E-02-9.00221E-01-1.10303E-04
 -1      1688-4.16580E-02-8.67431E-01-9.85717E-05
 -1      1689-6.06658E-02-9.23362E-01-8.29291E-05
 -1      1690-6.09016E-02-9.45389E-01-5.63611E-05
 -1      1691-4.19445E-02-9.12253E-01-6.35526E-05
 -1      1692-4.77095E-02-9.53572E-01-3.55533E-05
 -1      1693 5.29278E-03-3.51944E-03 1.49829E-03
 -1      1694 3.81089E-03-1.71271E-03 1.40985E-03
 -1      1695 2.48111E-03-9.87888E-04 1.04883E-03
 -1      1696 8.37704E-03-9.17029E-03 1.53642E-03
 -1      1697 6.88101E-03-6.07014E-03 1.54156E-03
 -1      1698 3.95800E-03-4.30307E-03 1.00785E-03
 -1      1699 1.13528E-02-1.72182E-02 1.49930E-03
 -1      1700 9.88675E-03-1.29118E-02 1.52269E-03
 -1      1701 6.02242E-03-1.06032E-02 1.01552E-03
 -1      1702 1.41985E-02-2.75925E-02 1.44660E-03
 -1      1703 1.27797E-02-2.21318E-02 1.47162E-03
 -1      1704 7.96714E-03-1.92686E-02 9.84447E-04
 -1      1705 1.69144E-02-4.01805E-02 1.39287E-03
 -1      1706 1.55511E-02-3.36119E-02 1.41857E-03
 -1      1707 9.77898E-03-3.02196E-02 9.44591E-04
 -1      1708 1.96638E-02-5.48683E-02 1.35140E-03
 -1      1709 1.83449E-02-4.72338E-02 1.37667E-03
 -1      1710 1.16191E-02-4.33068E-02 9.15593E-04
 -1      1711 2.22403E-02-7.17236E-02 1.30203E-03
 -1      1712 2.09763E-02-6.30561E-02 1.32779E-03
 -1      1713 1.34727E-02-5.85461E-02 8.91933E-04
 -1      1714 2.46853E-02-9.05968E-02 1.25304E-03
 -1      1715 2.34786E-02-8.09350E-02 1.27723E-03
 -1      1716 1.51600E-02-7.59526E-02 8.58804E-04
 -1      1717 2.70643E-02-1.11343E-01 1.20553E-03
 -1      1718 2.59089E-02-1.00726E-01 1.23126E-03
 -1      1719 1.67919E-02-9.53052E-02 8.29328E-04
 -1      1720 2.92779E-02-1.33939E-01 1.15473E-03
 -1      1721 2.81774E-02-1.22406E-01 1.18076E-03
 -1      1722 1.83384E-02-1.16508E-01 7.97212E-04
 -1      1723 3.13243E-02-1.58324E-01 1.10228E-03
 -1      1724 3.02829E-02-1.45913E-01 1.12796E-03
 -1      1725 1.96965E-02-1.39554E-01 7.60273E-04
 -1      1726 3.33499E-02-1.84454E-01 1.05437E-03
 -1      1727 3.23652E-02-1.71203E-01 1.07885E-03
 -1      1728 2.10063E-02-1.64415E-01 7.25157E-04
 -1      1729 3.52160E-02-2.12212E-01 1.00343E-03
 -1      1730 3.42862E-02-1.98156E-01 1.02942E-03
 -1      1731 2.22845E-02-1.91007E-01 6.93234E-04
 -1      1732 3.70690E-02-2.41473E-01 9.56519E-04
 -1      1733 3.61930E-02-2.26654E-01 9.81299E-04
 -1      1734 2.35294E-02-2.19166E-01 6.61009E-04
 -1      1735 3.87170E-02-2.72181E-01 9.06700E-04
 -1      1736 3.78985E-02-2.56637E-01 9.31501E-04
 -1      1737 2.47079E-02-2.48785E-01 6.30108E-04
 -1      1738 3.99843E-02-3.04269E-01 8.50655E-04
 -1      1739 3.92263E-02-2.88040E-01 8.76407E-04
 -1      1740 2.54518E-02-2.79821E-01 5.90906E-04
 -1      1741 4.14150E-02-3.37708E-01 8.01381E-04
 -1      1742 4.07138E-02-3.20829E-01 8.26633E-04
 -1      1743 2.61083E-02-3.12252E-01 5.51772E-04
 -1      1744 4.27332E-02-3.72386E-01 7.52538E-04
 -1      1745 4.20893E-02-3.54897E-01 7.77190E-04
 -1      1746 2.69654E-02-3.46011E-01 5.19236E-04
 -1      1747 4.42111E-02-4.07738E-01 7.08025E-04
 -1      1748 4.36157E-02-3.89683E-01 7.33524E-04
 -1      1749 2.80133E-02-3.80511E-01 4.92690E-04
 -1      1750 4.53491E-02-4.45671E-01 6.56670E-04
 -1      1751 4.48102E-02-4.27069E-01 6.83051E-04
 -1      1752 2.90200E-02-4.17124E-01 4.63089E-04
 -1      1753 4.60319E-02-4.83096E-01 6.04498E-04
 -1      1754 4.55496E-02-4.64004E-01 6.29455E-04
 -1      1755 2.93755E-02-4.54828E-01 4.25381E-04
 -1      1756 4.69127E-02-5.21970E-01 5.55159E-04
 -1      1757 4.64860E-02-5.02421E-01 5.80259E-04
 -1      1758 2.96212E-02-4.92496E-01 3.89884E-04
 -1      1759 4.76848E-02-5.61702E-01 5.05801E-04
 -1      1760 4.73126E-02-5.41734E-01 5.31112E-04
 -1      1761 3.00937E-02-5.31597E-01 3.57440E-04
 -1      1762 4.83497E-02-6.02217E-01 4.55854E-04
 -1      1763 4.80308E-02-5.81867E-01 4.81531E-04
 -1      1764 3.04920E-02-5.71538E-01 3.24726E-04
 -1      1765 4.89072E-02-6.43435E-01 4.07677E-04
 -1      1766 4.86436E-02-6.22743E-01 4.31632E-04
 -1      1767 3.08165E-02-6.12242E-01 2.91847E-04
 -1      1768 4.93600E-02-6.85282E-01 3.58056E-04
 -1      1769 4.91470E-02-6.64284E-01 3.83847E-04
 -1      1770 3.10692E-02-6.53630E-01 2.60986E-04
 -1      1771 4.97085E-02-7.27681E-01 3.09400E-04
 -1      1772 4.95479E-02-7.06417E-01 3.33860E-04
 -1      1773 3.12472E-02-6.95628E-01 2.27830E-04
 -1      1774 4.99535E-02-7.70555E-01 2.59377E-04
 -1      1775 4.98441E-02-7.49063E-01 2.85475E-04
 -1      1776 3.13545E-02-7.38161E-01 1.96274E-04
 -1      1777 5.00950E-02-8.13831E-01 2.10140E-04
 -1      1778 5.00366E-02-7.92148E-01 2.35210E-04
 -1      1779 3.13913E-02-7.81152E-01 1.62940E-04
 -1      1780 5.01356E-02-8.57429E-01 1.60774E-04
 -1      1781 5.01285E-02-8.35594E-01 1.85660E-04
 -1      1782 3.13597E-02-8.24522E-01 1.30473E-04
 -1      1783 5.01792E-02-9.01366E-01 1.10777E-04
 -1      1784 5.02220E-02-8.79417E-01 1.36833E-04
 -1      1785 3.13620E-02-8.68290E-01 9.84366E-05
 -1      1786 4.96958E-02-9.46319E-01 5.76887E-05
 -1      1787 4.97894E-02-9.24290E-01 8.42836E-05
 -1      1788 3.09748E-02-9.13219E-01 6.41281E-05
 -1      1789 3.64881E-02-9.54192E-01 3.74567E-05
 -1      1790-1.81830E-02-4.82478E-01-2.00199E-04
 -1      1791-1.85002E-02-5.01801E-01-1.90529E-04
 -1      1792-1.88117E-02-5.21349E-01-1.83472E-04
 -1      1793-1.91197E-02-5.41111E-01-1.73973E-04
 -1      1794-2.48532E-03-5.11632E-01-1.10324E-07
 -1      1795-2.11205E-02-6.84661E-01-1.17616E-04
 -1      1796-2.13827E-02-7.05798E-01-1.09180E-04
 -1      1797-2.05771E-02-6.42811E-01-1.33996E-04
 -1      1798-2.08515E-02-6.63661E-01-1.24696E-04
 -1      1799-3.60733E-03-6.74252E-01 4.23297E-07
 -1      1800 1.34606E-02-7.91802E-01 7.72640E-05
 -1      1801 1.35379E-02-7.70204E-01 8.64601E-05
 -1      1802 1.36076E-02-7.48706E-01 9.39025E-05
 -1      1803 1.36678E-02-7.27317E-01 1.03395E-04
 -1      1804-4.21933E-03-7.59301E-01 5.80870E-07
 -1      1805-2.30636E-02-8.56782E-01-5.33821E-05
 -1      1806-2.36330E-02-8.78454E-01-4.44554E-05
 -1      1807-2.40192E-02-8.99293E-01-3.77234E-05
 -1      1808-5.39829E-03-8.88620E-01 3.30458E-07
 -1      1809-2.36523E-02-9.22442E-01-2.64076E-05
 -1      1810-1.68984E-02-4.07620E-01-2.33007E-04
 -1      1811-1.72531E-02-4.25950E-01-2.23527E-04
 -1      1812-1.66159E-02-3.89560E-01-2.41905E-04
 -1      1813-1.70426E-03-3.98618E-01 3.13392E-07
 -1      1814-1.62279E-02-3.71783E-01-2.49250E-04
 -1      1815 1.38050E-02-5.81472E-01 1.57709E-04
 -1      1816 1.37840E-02-5.61304E-01 1.66782E-04
 -1      1817 1.38169E-02-6.22357E-01 1.42079E-04
 -1      1818 1.38160E-02-6.01826E-01 1.50200E-04
 -1      1819-3.02596E-03-5.91492E-01-1.64160E-07
 -1      1820-1.47488E-02-3.03683E-01-2.81667E-04
 -1      1821-1.51115E-02-3.20238E-01-2.71808E-04
 -1      1822-1.54708E-02-3.37114E-01-2.64416E-04
 -1      1823-1.58778E-02-3.54300E-01-2.55687E-04
 -1      1824-1.34759E-03-3.28684E-01-5.35786E-07
 -1      1825 5.06342E-03-3.31169E-02 4.64984E-04
 -1      1826 4.64973E-03-2.70911E-02 4.77910E-04
 -1      1827 6.02950E-03-4.67441E-02 4.55899E-04
 -1      1828 5.50110E-03-3.96913E-02 4.57714E-04
 -1      1829-6.27976E-05-3.62668E-02-1.68570E-06
 -1      1830-7.48577E-03-7.12319E-02-4.29228E-04
 -1      1831-7.93932E-03-8.04011E-02-4.19926E-04
 -1      1832-6.58876E-03-5.44103E-02-4.46857E-04
 -1      1833-7.03490E-03-6.25678E-02-4.36491E-04
 -1      1834-8.93058E-05-6.68029E-02 1.30280E-06
 -1      1835-3.77787E-03-1.66901E-02-5.00762E-04
 -1      1836-4.25098E-03-2.15971E-02-4.90276E-04
 -1      1837-3.29228E-03-1.23733E-02-5.08633E-04
 -1      1838-2.82735E-03-8.68081E-03-5.22668E-04
 -1      1839-3.21725E-05-1.44003E-02-4.09973E-06
 -1      1840 1.04719E-02-1.70727E-01 3.60583E-04
 -1      1841 1.01461E-02-1.57847E-01 3.67993E-04
 -1      1842 9.85043E-03-1.45406E-01 3.76479E-04
 -1      1843-3.02692E-04-1.51489E-01 4.00491E-06
 -1      1844 9.58897E-03-1.33431E-01 3.88192E-04
 -1      1845-1.31562E-02-2.41067E-01-3.10894E-04
 -1      1846-1.35808E-02-2.56196E-01-3.02971E-04
 -1      1847-1.28011E-02-2.26159E-01-3.18701E-04
 -1      1848-5.93673E-04-2.33625E-01 5.66957E-06
 -1      1849-1.24942E-02-2.11731E-01-3.30812E-04
 -1      1850-8.39322E-03-9.00600E-02-4.14152E-04
 -1      1851-8.81823E-03-1.00202E-01-4.05540E-04
 -1      1852-9.16357E-03-1.10714E-01-3.94229E-04
 -1      1853-9.57872E-03-1.21728E-01-3.84840E-04
 -1      1854-1.63645E-04-1.05328E-01 3.21639E-06
 -1      1855 2.24915E-03-5.66401E-03 5.05028E-04
 -1      1856 1.71252E-03-3.08282E-03 4.86923E-04
 -1      1857-2.36748E-05-2.65845E-03-9.52178E-06
 -1      1858 1.35681E-03-1.61416E-03 4.76059E-04
 -1      1859 1.65898E-03-9.00525E-04 6.90143E-04
 -1      1860 5.14959E-04-5.57245E-04 2.23926E-04
 -1      1861 1.36563E-02-5.02012E-01 1.90206E-04
 -1      1862 1.35921E-02-4.82684E-01 1.99529E-04
 -1      1863 1.35159E-02-4.63590E-01 2.05901E-04
 -1      1864 1.37247E-02-4.45252E-01 2.19390E-04
 -1      1865-2.23263E-03-4.72980E-01-5.95636E-07
 -1      1866-2.26033E-02-8.13227E-01-6.77219E-05
 -1      1867-2.28279E-02-8.34995E-01-5.97219E-05
 -1      1868-2.21340E-02-7.69945E-01-8.57029E-05
 -1      1869-2.23726E-02-7.91540E-01-7.56711E-05
 -1      1870-4.53592E-03-8.02496E-01 9.52189E-07
 -1      1871 1.23746E-02-9.22815E-01 2.69487E-05
 -1      1872 1.28320E-02-8.99885E-01 3.76807E-05
 -1      1873 1.25408E-02-9.39815E-01 2.20265E-05
 -1      1874-5.60158E-03-9.26466E-01 4.33110E-07
 -1      1875 2.17100E-02-9.51905E-01 2.62228E-05
 -1      1876 3.69877E-03-9.55556E-01 8.88383E-06
 -1      1877 1.25083E-02-3.20394E-01 2.70830E-04
 -1      1878 1.23310E-02-3.03833E-01 2.80129E-04
 -1      1879 1.21421E-02-2.87601E-01 2.87089E-04
 -1      1880 1.22142E-02-2.71738E-01 3.03118E-04
 -1      1881-1.16286E-03-2.95567E-01-9.28761E-07
 -1      1882 1.31410E-02-8.79045E-01 4.49654E-05
 -1      1883 1.31534E-02-8.57050E-01 5.43318E-05
 -1      1884 1.32752E-02-8.35261E-01 6.02312E-05
 -1      1885 1.33725E-02-8.13492E-01 7.00445E-05
 -1      1886-4.87427E-03-8.45981E-01 5.85473E-07
 -1      1887 1.28285E-02-3.54467E-01 2.55425E-04
 -1      1888 1.26745E-02-3.37276E-01 2.63638E-04
 -1      1889 1.33795E-02-3.89255E-01 2.43578E-04
 -1      1890 1.29719E-02-3.71957E-01 2.48121E-04
 -1      1891-1.54862E-03-3.63059E-01-8.72162E-08
 -1      1892-1.09070E-02-1.57739E-01-3.63600E-04
 -1      1893-1.12141E-02-1.70628E-01-3.50369E-04
 -1      1894-1.16244E-02-1.83923E-01-3.44298E-04
 -1      1895-1.21373E-02-1.97652E-01-3.39592E-04
 -1      1896-4.36387E-04-1.77234E-01 3.32818E-06
 -1      1897 7.70977E-03-8.04532E-02 4.25703E-04
 -1      1898 7.31839E-03-7.12388E-02 4.34322E-04
 -1      1899 8.49185E-03-1.00248E-01 4.10779E-04
 -1      1900 8.07890E-03-9.01170E-02 4.18524E-04
 -1      1901-1.59310E-04-8.51394E-02 7.92342E-07
 -1      1902 1.10097E-02-1.97733E-01 3.43149E-04
 -1      1903 1.07547E-02-1.84027E-01 3.53727E-04
 -1      1904 1.13146E-02-2.11818E-01 3.36830E-04
 -1      1905-5.29400E-04-2.04624E-01 3.52058E-06
 -1      1906 1.16457E-02-2.26263E-01 3.29342E-04
 -1      1907-4.90331E-04-5.26664E-04-2.18822E-04
 -1      1908-1.61881E-03-8.59782E-04-6.78460E-04
 -1      1909-1.36369E-03-1.61820E-03-4.80284E-04
 -1      1910-1.43905E-02-9.56087E-01-6.73724E-06
 -1      1911-3.24767E-02-9.52061E-01-2.41033E-05
 -1      1912-2.35267E-02-9.39441E-01-2.05336E-05
 -1      1913 1.37170E-02-7.06050E-01 1.08714E-04
 -1      1914 1.37575E-02-6.84910E-01 1.18206E-04
 -1      1915 1.37876E-02-6.63906E-01 1.25767E-04
 -1      1916 1.38086E-02-6.43052E-01 1.35540E-04
 -1      1917-2.00098E-02-6.01592E-01-1.50697E-04
 -1      1918-2.02969E-02-6.22118E-01-1.41000E-04
 -1      1919-1.94220E-02-5.61080E-01-1.66675E-04
 -1      1920-1.97186E-02-5.81243E-01-1.57501E-04
 -1      1921-5.64270E-03-3.96651E-02-4.60279E-04
 -1      1922-6.15146E-03-4.67747E-02-4.55327E-04
 -1      1923-4.73517E-03-2.70735E-02-4.81699E-04
 -1      1924-5.17336E-03-3.30943E-02-4.68137E-04
 -1      1925 3.24010E-03-1.23728E-02 5.03058E-04
 -1      1926 2.73868E-03-8.62981E-03 5.06742E-04
 -1      1927 4.18598E-03-2.16120E-02 4.84933E-04
 -1      1928 3.73518E-03-1.66931E-02 4.97090E-04
 -1      1929-5.04718E-05-7.11422E-03-1.14050E-05
 -1      1930-2.36407E-03-5.70990E-03-5.31024E-04
 -1      1931-1.77174E-03-3.09017E-03-5.08154E-04
 -1      1932-1.76470E-02-4.44544E-01-2.16680E-04
 -1      1933-1.78590E-02-4.63390E-01-2.06784E-04
 -1      1934-1.93050E-03-4.35285E-01 8.69845E-07
 -1      1935 1.35645E-02-4.07313E-01 2.37224E-04
 -1      1936 1.36837E-02-4.26647E-01 2.27568E-04
 -1      1937-2.16401E-02-7.27063E-01-1.01530E-04
 -1      1938-2.18904E-02-7.48449E-01-9.25872E-05
 -1      1939-3.91060E-03-7.16528E-01 2.29663E-07
 -1      1940 1.37521E-02-5.41332E-01 1.74218E-04
 -1      1941 1.37097E-02-5.21565E-01 1.83271E-04
 -1      1942-2.75071E-03-5.51161E-01-9.62509E-08
 -1      1943-1.40969E-02-2.71583E-01-2.98710E-04
 -1      1944-1.43793E-02-2.87459E-01-2.88328E-04
 -1      1945-8.49511E-04-2.63943E-01 3.29128E-06
 -1      1946 1.19222E-02-2.41177E-01 3.23648E-04
 -1      1947 1.21403E-02-2.56346E-01 3.13436E-04
 -1      1948-1.00235E-02-1.33325E-01-3.78533E-04
 -1      1949-1.04742E-02-1.45304E-01-3.69857E-04
 -1      1950-1.74724E-04-1.27442E-01 5.59688E-06
 -1      1951 8.92997E-03-1.10767E-01 4.07247E-04
 -1      1952 9.26992E-03-1.21828E-01 3.96851E-04
 -1      1953-7.37619E-05-5.04873E-02-5.00370E-07
 -1      1954 6.91490E-03-6.25723E-02 4.42212E-04
 -1      1955 6.48077E-03-5.43822E-02 4.50851E-04
 -1      1956-3.81683E-05-2.42066E-02-2.61403E-06
 -1      1957-3.31169E-03-6.32547E-01 8.30118E-07
 -1      1958-3.48406E-02-5.11510E-01 3.73251E-04
 -1      1959-3.83822E-02-6.74065E-01 2.43234E-04
 -1      1960 3.13809E-02-7.59606E-01-1.79179E-04
 -1      1961-4.22685E-02-8.89129E-01 8.26938E-05
 -1      1962-3.18290E-02-3.98554E-01 4.72661E-04
 -1      1963 3.06642E-02-5.91800E-01-3.08971E-04
 -1      1964-2.92474E-02-3.28656E-01 5.35621E-04
 -1      1965 1.06418E-02-3.65190E-02-9.23700E-04
 -1      1966-1.43526E-02-6.69759E-02 8.60153E-04
 -1      1967-7.05138E-03-1.46391E-02 1.00440E-03
 -1      1968 1.99918E-02-1.51821E-01-7.29869E-04
 -1      1969 2.36950E-02-2.33564E-01-6.34792E-04
 -1      1970 1.71807E-02-1.05698E-01-7.95534E-04
 -1      1971 2.90795E-03-2.10615E-03-9.65563E-04
 -1      1972 2.93567E-02-4.73286E-01-4.06337E-04
 -1      1973-4.04548E-02-8.02267E-01 1.44998E-04
 -1      1974 3.05403E-02-9.36171E-01-4.56865E-05
 -1      1975 2.56511E-02-2.95856E-01-5.68317E-04
 -1      1976 3.13163E-02-8.46327E-01-1.13863E-04
 -1      1977 2.73666E-02-3.63353E-01-5.03328E-04
 -1      1978-2.24168E-02-1.77301E-01 6.98807E-04
 -1      1979-2.70698E-02-2.63702E-01 6.11055E-04
 -1      1980-1.93406E-02-1.27712E-01 7.62572E-04
 -1      1981-7.03476E-04-3.43354E-05 3.84941E-04
 -1      1982-2.33381E-02-9.68713E-01 1.09360E-05
 -1      1983 3.11654E-02-6.74558E-01-2.43829E-04
 -1      1984-3.67174E-02-5.91336E-01 3.06949E-04
 -1      1985 1.40630E-02-6.70605E-02-8.59105E-04
 -1      1986-1.07694E-02-3.64690E-02 9.26117E-04
 -1      1987 7.01977E-03-1.46437E-02-1.00305E-03
 -1      1988 5.01948E-03-7.17148E-03-1.02231E-03
 -1      1989-6.04264E-05-4.40915E-03 1.61232E-05
 -1      1990 3.13875E-02-8.90311E-01-8.13333E-05
 -1      1991-3.38235E-02-4.72877E-01 4.05636E-04
 -1      1992-3.29855E-02-4.35197E-01 4.41392E-04
 -1      1993-1.75434E-03-4.16819E-01-1.96338E-06
 -1      1994-3.91286E-02-7.16327E-01 2.09831E-04
 -1      1995-2.81914E-02-2.95551E-01 5.72345E-04
 -1      1996 3.03017E-02-5.51468E-01-3.41430E-04
 -1      1997 3.13823E-02-8.02794E-01-1.45491E-04
 -1      1998 3.13083E-02-7.16835E-01-2.11528E-04
 -1      1999-2.09029E-02-1.51649E-01 7.30444E-04
 -1      2000 2.12821E-02-1.77495E-01-6.97789E-04
 -1      2001 2.26500E-02-2.04796E-01-6.71020E-04
 -1      2002-1.02622E-03-2.18500E-01 8.19851E-06
 -1      2003-1.60672E-02-8.53016E-02 8.29209E-04
 -1      2004-1.77303E-02-1.05572E-01 7.96598E-04
 -1      2005-4.10303E-02-8.45794E-01 1.13693E-04
 -1      2006 2.49289E-02-2.63910E-01-6.06388E-04
 -1      2007 1.56602E-02-8.54045E-02-8.26975E-04
 -1      2008 2.65486E-02-3.28974E-01-5.35750E-04
 -1      2009-1.25883E-02-5.06752E-02 8.94092E-04
 -1      2010 8.88878E-03-2.44745E-02-9.65667E-04
 -1      2011-8.96657E-03-2.44436E-02 9.66909E-04
 -1      2012 1.23910E-02-5.07411E-02-8.91931E-04
 -1      2013-3.75775E-02-6.32377E-01 2.75660E-04
 -1      2014 1.86259E-02-1.27863E-01-7.62968E-04
 -1      2015-3.58063E-02-5.51023E-01 3.40709E-04
 -1      2016-3.05710E-02-3.63012E-01 5.04844E-04
 -1      2017-3.98225E-02-7.59089E-01 1.77898E-04
 -1      2018 3.09505E-02-6.32854E-01-2.75403E-04
 -1      2019 2.98670E-02-5.11937E-01-3.73357E-04
 -1      2020-3.45823E-05-1.03746E-02 5.71768E-06
 -1      2021-5.13999E-03-7.26646E-03 1.04139E-03
 -1      2022 7.50443E-04-8.09658E-05-4.02446E-04
 -1      2023 2.86493E-02-3.97941E-01-4.81198E-04
 -1      2024 2.93675E-02-4.36606E-01-4.45712E-04
 -1      2025-1.12984E-03-2.48305E-01 5.66016E-06
 -1      2026-2.43679E-02-2.04551E-01 6.80273E-04
 -1      2027-5.74650E-03-9.09480E-01 8.53707E-07
 -1      2028-5.05203E-03-8.67803E-01-1.06282E-06
 -1      2029-3.45711E-03-6.53323E-01-1.31395E-06
 -1      2030-3.16855E-03-6.11934E-01-2.49982E-07
 -1      2031-2.88664E-03-5.71232E-01-1.48169E-07
 -1      2032-4.69629E-03-8.24226E-01-1.00941E-06
 -1      2033-4.06428E-03-7.37857E-01 2.80207E-07
 -1      2034-1.44809E-03-3.45719E-01-1.32882E-07
 -1      2035-2.35756E-03-4.92191E-01-2.61116E-07
 -1      2036-1.17310E-03-2.79439E-01 2.18253E-06
 -1      2037-1.20974E-04-5.83892E-02 1.48698E-06
 -1      2038-7.90792E-05-4.31130E-02 1.66530E-06
 -1      2039-4.81525E-05-2.99669E-02 1.89487E-06
 -1      2040-2.94056E-05-1.90136E-02 2.14001E-06
 -1      2041-3.75629E-03-6.95325E-01 4.49244E-08
 -1      2042-1.73319E-04-7.57323E-02 5.68889E-07
 -1      2043-2.61633E-03-5.31291E-01-6.59823E-07
 -1      2044-4.03120E-04-1.39359E-01 1.05109E-06
 -1      2045-3.12970E-04-1.16290E-01 1.37375E-06
 -1      2046-2.33902E-04-9.50547E-02 3.95451E-07
 -1      2047-4.37588E-03-7.80851E-01-2.78047E-07
 -1      2048-5.09928E-04-1.64183E-01 1.16363E-07
 -1      2049-1.25520E-03-3.11963E-01 1.14160E-06
 -1      2050-1.65492E-03-3.80694E-01-1.74186E-07
 -1      2051-2.11083E-03-4.54011E-01-3.17582E-07
 -1      2052-2.58367E-02-2.33365E-01 6.47728E-04
 -1      2053-6.26058E-04-1.90682E-01-1.41007E-07
 -1      2054 1.28655E-02-9.67652E-01-1.25415E-05
 -1      2055-2.92553E-03-2.11333E-03 9.70931E-04
 -1      2056-4.16017E-02-9.35421E-01 4.50675E-05
 -1      2057 5.52990E-07-1.27781E-03 4.84367E-06
 -1      2058 1.78336E-03-3.02573E-04-9.97361E-04
 -1      2059-1.76874E-03-2.96168E-04 9.81826E-04
 -1      2060 4.24375E-02-9.72227E-01-2.44348E-05
 -1      2061-5.38182E-02-9.71732E-01 2.37660E-05
 -1      2062-5.45662E-03-9.43468E-01-1.09292E-06
 -1      2063-1.13760E-03-1.42402E-04 8.04275E-04
 -1      2064-7.85133E-04 1.00204E-04 6.02303E-04
 -1      2065-2.90452E-03-8.76117E-04 1.36008E-03
 -1      2066 7.74074E-04 7.55180E-05-5.87635E-04
 -1      2067 1.14772E-03-1.50448E-04-8.07309E-04
 -1      2068 2.91297E-03-8.86974E-04-1.36589E-03
 -1      2069-4.85695E-02-9.85726E-01 1.20206E-05
 -1      2070-6.72290E-02-9.85600E-01 1.21025E-05
 -1      2071-6.70283E-02-9.63545E-01 3.73323E-05
 -1      2072 5.55337E-02-9.86404E-01-1.23672E-05
 -1      2073 3.68737E-02-9.86252E-01-1.19658E-05
 -1      2074 5.56627E-02-9.64349E-01-3.80608E-05
 -1      2075-5.04302E-04 1.81665E-04 3.82015E-04
 -1      2076-1.84835E-04 2.71115E-04 1.30811E-04
 -1      2077-1.25429E-03-1.27626E-04 7.10104E-04
 -1      2078 2.00088E-04 2.48073E-04-1.52353E-04
 -1      2079 5.74905E-04 1.91473E-04-4.36095E-04
 -1      2080 1.16215E-05-7.81852E-06 1.78161E-06
 -1      2081 1.31014E-03-1.50041E-04-7.23509E-04
 -1      2082-1.46772E-02-9.84351E-01 3.78247E-06
 -1      2083-3.33227E-02-9.84218E-01 9.89874E-06
 -1      2084-3.85735E-02-9.70222E-01 1.85782E-05
 -1      2085 2.20838E-02-9.83966E-01-9.69825E-06
 -1      2086 3.43743E-03-9.83820E-01-3.63055E-06
 -1      2087-5.23625E-03-9.68179E-01-8.10420E-07
 -1      2088 2.76470E-02-9.69938E-01-2.01285E-05
 -1      2089-5.31103E-03-3.51792E-03 1.50649E-03
 -1      2090-3.82381E-03-1.71264E-03 1.41259E-03
 -1      2091-2.47999E-03-9.81551E-04 1.04799E-03
 -1      2092-8.46532E-03-9.20848E-03 1.54627E-03
 -1      2093-6.95523E-03-6.10517E-03 1.54866E-03
 -1      2094-4.01797E-03-4.34715E-03 1.01818E-03
 -1      2095-1.13999E-02-1.71897E-02 1.49943E-03
 -1      2096-9.91909E-03-1.28902E-02 1.52350E-03
 -1      2097-6.10524E-03-1.06572E-02 1.02527E-03
 -1      2098-1.42878E-02-2.75367E-02 1.44775E-03
 -1      2099-1.28497E-02-2.20873E-02 1.47254E-03
 -1      2100-8.01682E-03-1.92516E-02 9.85814E-04
 -1      2101-1.70624E-02-4.00999E-02 1.39406E-03
 -1      2102-1.56680E-02-3.35439E-02 1.42020E-03
 -1      2103-9.87895E-03-3.01790E-02 9.47585E-04
 -1      2104-1.97834E-02-5.48218E-02 1.34456E-03
 -1      2105-1.84346E-02-4.71967E-02 1.36942E-03
 -1      2106-1.16853E-02-4.33049E-02 9.10113E-04
 -1      2107-2.24215E-02-7.16215E-02 1.29435E-03
 -1      2108-2.11128E-02-6.29667E-02 1.32050E-03
 -1      2109-1.34778E-02-5.85676E-02 8.77928E-04
 -1      2110-2.49730E-02-9.04231E-02 1.24590E-03
 -1      2111-2.37094E-02-8.07774E-02 1.27038E-03
 -1      2112-1.52161E-02-7.58910E-02 8.44174E-04
 -1      2113-2.74398E-02-1.11153E-01 1.19673E-03
 -1      2114-2.62166E-02-1.00551E-01 1.22147E-03
 -1      2115-1.69057E-02-9.51982E-02 8.12800E-04
 -1      2116-2.98262E-02-1.33733E-01 1.14648E-03
 -1      2117-2.86431E-02-1.22217E-01 1.17244E-03
 -1      2118-1.85425E-02-1.16413E-01 7.80409E-04
 -1      2119-3.21283E-02-1.58089E-01 1.09668E-03
 -1      2120-3.09878E-02-1.45695E-01 1.12232E-03
 -1      2121-2.01280E-02-1.39461E-01 7.46875E-04
 -1      2122-3.43475E-02-1.84141E-01 1.04823E-03
 -1      2123-3.32498E-02-1.70908E-01 1.07268E-03
 -1      2124-2.16656E-02-1.64265E-01 7.13877E-04
 -1      2125-3.67331E-02-2.11796E-01 1.00612E-03
 -1      2126-3.56663E-02-1.97761E-01 1.03112E-03
 -1      2127-2.33921E-02-1.90727E-01 6.89633E-04
 -1      2128-3.88153E-02-2.40995E-01 9.56020E-04
 -1      2129-3.77905E-02-2.26197E-01 9.81988E-04
 -1      2130-2.51080E-02-2.18768E-01 6.64183E-04
 -1      2131-4.07212E-02-2.71680E-01 9.04865E-04
 -1      2132-3.97406E-02-2.56157E-01 9.29891E-04
 -1      2133-2.64615E-02-2.48352E-01 6.28915E-04
 -1      2134-4.25141E-02-3.03809E-01 8.52777E-04
 -1      2135-4.15753E-02-2.87598E-01 8.78049E-04
 -1      2136-2.76398E-02-2.79455E-01 5.91281E-04
 -1      2137-4.42173E-02-3.37215E-01 8.00974E-04
 -1      2138-4.33226E-02-3.20354E-01 8.26176E-04
 -1      2139-2.87275E-02-3.11942E-01 5.54122E-04
 -1      2140-4.59973E-02-3.71857E-01 7.52575E-04
 -1      2141-4.51435E-02-3.54386E-01 7.77737E-04
 -1      2142-2.99143E-02-3.45682E-01 5.20240E-04
 -1      2143-4.76845E-02-4.07666E-01 7.03465E-04
 -1      2144-4.68722E-02-3.89621E-01 7.28592E-04
 -1      2145-3.12051E-02-3.80639E-01 4.89264E-04
 -1      2146-4.92668E-02-4.44560E-01 6.54933E-04
 -1      2147-4.84940E-02-4.25981E-01 6.79822E-04
 -1      2148-3.24136E-02-4.16741E-01 4.57413E-04
 -1      2149-5.06277E-02-4.82468E-01 6.03650E-04
 -1      2150-4.98995E-02-4.63392E-01 6.28783E-04
 -1      2151-3.34122E-02-4.53913E-01 4.23253E-04
 -1      2152-5.20198E-02-5.21313E-01 5.54255E-04
 -1      2153-5.13342E-02-5.01778E-01 5.79550E-04
 -1      2154-3.43383E-02-4.92078E-01 3.89527E-04
 -1      2155-5.33256E-02-5.61018E-01 5.04586E-04
 -1      2156-5.26836E-02-5.41063E-01 5.29848E-04
 -1      2157-3.53298E-02-5.31161E-01 3.56908E-04
 -1      2158-5.45480E-02-6.01506E-01 4.54719E-04
 -1      2159-5.39477E-02-5.81168E-01 4.80289E-04
 -1      2160-3.62693E-02-5.71083E-01 3.24100E-04
 -1      2161-5.56816E-02-6.42700E-01 4.06319E-04
 -1      2162-5.51275E-02-6.22020E-01 4.30654E-04
 -1      2163-3.71540E-02-6.11771E-01 2.90900E-04
 -1      2164-5.67268E-02-6.84526E-01 3.57067E-04
 -1      2165-5.62149E-02-6.63538E-01 3.82096E-04
 -1      2166-3.79872E-02-6.53144E-01 2.59315E-04
 -1      2167-5.76861E-02-7.26906E-01 3.07213E-04
 -1      2168-5.72174E-02-7.05651E-01 3.32543E-04
 -1      2169-3.87629E-02-6.95129E-01 2.26894E-04
 -1      2170-5.85523E-02-7.69766E-01 2.58296E-04
 -1      2171-5.81317E-02-7.48281E-01 2.82800E-04
 -1      2172-3.94824E-02-7.37650E-01 1.94268E-04
 -1      2173-5.93300E-02-8.13026E-01 2.08840E-04
 -1      2174-5.89522E-02-7.91350E-01 2.34716E-04
 -1      2175-4.01467E-02-7.80630E-01 1.62605E-04
 -1      2176-6.00141E-02-8.56614E-01 1.59433E-04
 -1      2177-5.96843E-02-8.34784E-01 1.84626E-04
 -1      2178-4.07500E-02-8.23992E-01 1.29067E-04
 -1      2179-6.09668E-02-9.00221E-01 1.09629E-04
 -1      2180-6.06814E-02-8.78277E-01 1.36032E-04
 -1      2181-4.16563E-02-8.67434E-01 9.77167E-05
 -1      2182-6.09014E-02-9.45390E-01 5.62758E-05
 -1      2183-6.06647E-02-9.23363E-01 8.23332E-05
 -1      2184-4.19444E-02-9.12254E-01 6.25122E-05
 -1      2185-4.77100E-02-9.53572E-01 3.55769E-05
 -1      2186 3.81042E-03-1.71221E-03-1.41166E-03
 -1      2187 5.29196E-03-3.51901E-03-1.49939E-03
 -1      2188 2.48207E-03-9.86718E-04-1.04935E-03
 -1      2189 6.88021E-03-6.07007E-03-1.54233E-03
 -1      2190 8.37506E-03-9.17088E-03-1.53693E-03
 -1      2191 3.95801E-03-4.30261E-03-1.00883E-03
 -1      2192 9.88513E-03-1.29119E-02-1.52269E-03
 -1      2193 1.13539E-02-1.72183E-02-1.49917E-03
 -1      2194 6.02407E-03-1.06029E-02-1.01658E-03
 -1      2195 1.27809E-02-2.21327E-02-1.47209E-03
 -1      2196 1.41984E-02-2.75931E-02-1.44652E-03
 -1      2197 7.96545E-03-1.92682E-02-9.84730E-04
 -1      2198 1.55510E-02-3.36130E-02-1.41821E-03
 -1      2199 1.69151E-02-4.01821E-02-1.39236E-03
 -1      2200 9.77848E-03-3.02202E-02-9.44378E-04
 -1      2201 1.82533E-02-4.72907E-02-1.36796E-03
 -1      2202 1.95606E-02-5.49281E-02-1.34404E-03
 -1      2203 1.15247E-02-4.33627E-02-9.07232E-04
 -1      2204 2.08436E-02-6.30868E-02-1.32018E-03
 -1      2205 2.20990E-02-7.17572E-02-1.29430E-03
 -1      2206 1.32369E-02-5.86416E-02-8.76642E-04
 -1      2207 2.33285E-02-8.09280E-02-1.27017E-03
 -1      2208 2.45315E-02-9.05899E-02-1.24570E-03
 -1      2209 1.48715E-02-7.59842E-02-8.43408E-04
 -1      2210 2.57040E-02-1.00735E-01-1.22178E-03
 -1      2211 2.68505E-02-1.11353E-01-1.19615E-03
 -1      2212 1.64297E-02-9.53123E-02-8.12060E-04
 -1      2213 2.79689E-02-1.22435E-01-1.17178E-03
 -1      2214 2.90591E-02-1.33969E-01-1.14656E-03
 -1      2215 1.79128E-02-1.16551E-01-7.79070E-04
 -1      2216 3.01231E-02-1.45947E-01-1.12245E-03
 -1      2217 3.11587E-02-1.58360E-01-1.09644E-03
 -1      2218 1.93193E-02-1.39621E-01-7.46578E-04
 -1      2219 3.21664E-02-1.71197E-01-1.07285E-03
 -1      2220 3.31488E-02-1.84448E-01-1.04875E-03
 -1      2221 2.06474E-02-1.64449E-01-7.12949E-04
 -1      2222 3.41785E-02-1.98098E-01-1.02689E-03
 -1      2223 3.51047E-02-2.12153E-01-1.00124E-03
 -1      2224 2.19731E-02-1.90946E-01-6.84952E-04
 -1      2225 3.59534E-02-2.26537E-01-9.75779E-04
 -1      2226 3.68241E-02-2.41353E-01-9.50516E-04
 -1      2227 2.31842E-02-2.18991E-01-6.52592E-04
 -1      2228 3.77540E-02-2.56528E-01-9.28238E-04
 -1      2229 3.85698E-02-2.72069E-01-9.02537E-04
 -1      2230 2.43195E-02-2.48556E-01-6.20690E-04
 -1      2231 3.92290E-02-2.88041E-01-8.75383E-04
 -1      2232 3.99839E-02-3.04270E-01-8.50954E-04
 -1      2233 2.53024E-02-2.79709E-01-5.86718E-04
 -1      2234 4.07122E-02-3.20829E-01-8.26647E-04
 -1      2235 4.14135E-02-3.37709E-01-8.01593E-04
 -1      2236 2.61101E-02-3.12253E-01-5.51981E-04
 -1      2237 4.20879E-02-3.54897E-01-7.77283E-04
 -1      2238 4.27337E-02-3.72386E-01-7.53011E-04
 -1      2239 2.69678E-02-3.46011E-01-5.19625E-04
 -1      2240 4.36160E-02-3.89683E-01-7.34410E-04
 -1      2241 4.42116E-02-4.07737E-01-7.07670E-04
 -1      2242 2.80135E-02-3.80511E-01-4.93395E-04
 -1      2243 4.48096E-02-4.27069E-01-6.82460E-04
 -1      2244 4.53499E-02-4.45672E-01-6.57139E-04
 -1      2245 2.90201E-02-4.17125E-01-4.62925E-04
 -1      2246 4.55515E-02-4.64006E-01-6.29266E-04
 -1      2247 4.60308E-02-4.83097E-01-6.04637E-04
 -1      2248 2.93745E-02-4.54828E-01-4.25611E-04
 -1      2249 4.64852E-02-5.02422E-01-5.80751E-04
 -1      2250 4.69129E-02-5.21970E-01-5.55239E-04
 -1      2251 2.96220E-02-4.92496E-01-3.90559E-04
 -1      2252 4.73114E-02-5.41734E-01-5.31315E-04
 -1      2253 4.76840E-02-5.61703E-01-5.05524E-04
 -1      2254 3.00938E-02-5.31598E-01-3.57902E-04
 -1      2255 4.80310E-02-5.81867E-01-4.81412E-04
 -1      2256 4.83484E-02-6.02217E-01-4.56780E-04
 -1      2257 3.04922E-02-5.71538E-01-3.24938E-04
 -1      2258 4.86412E-02-6.22743E-01-4.32788E-04
 -1      2259 4.89079E-02-6.43435E-01-4.07003E-04
 -1      2260 3.08172E-02-6.12241E-01-2.92949E-04
 -1      2261 4.91479E-02-6.64285E-01-3.82929E-04
 -1      2262 4.93611E-02-6.85282E-01-3.57597E-04
 -1      2263 3.10671E-02-6.53630E-01-2.60050E-04
 -1      2264 4.95489E-02-7.06418E-01-3.33375E-04
 -1      2265 4.97099E-02-7.27681E-01-3.08444E-04
 -1      2266 3.12454E-02-6.95630E-01-2.27380E-04
 -1      2267 4.98448E-02-7.49064E-01-2.84055E-04
 -1      2268 4.99527E-02-7.70557E-01-2.59095E-04
 -1      2269 3.13532E-02-7.38162E-01-1.95320E-04
 -1      2270 5.00369E-02-7.92149E-01-2.35174E-04
 -1      2271 5.00963E-02-8.13830E-01-2.09368E-04
 -1      2272 3.13909E-02-7.81152E-01-1.63231E-04
 -1      2273 5.01298E-02-8.35594E-01-1.85330E-04
 -1      2274 5.01372E-02-8.57428E-01-1.60369E-04
 -1      2275 3.13576E-02-8.24523E-01-1.29877E-04
 -1      2276 5.02227E-02-8.79417E-01-1.35949E-04
 -1      2277 5.01805E-02-9.01366E-01-1.10243E-04
 -1      2278 3.13602E-02-8.68290E-01-9.79708E-05
 -1      2279 4.97899E-02-9.24292E-01-8.30244E-05
 -1      2280 4.96960E-02-9.46320E-01-5.67250E-05
 -1      2281 3.09725E-02-9.13221E-01-6.31087E-05
 -1      2282 3.64892E-02-9.54194E-01-3.63995E-05
 -1      2283-1.84993E-02-5.01802E-01 1.90422E-04
 -1      2284-1.81818E-02-4.82478E-01 1.99078E-04
 -1      2285-1.91194E-02-5.41112E-01 1.73856E-04
 -1      2286-1.88115E-02-5.21349E-01 1.83059E-04
 -1      2287-2.48571E-03-5.11631E-01-1.24647E-07
 -1      2288-2.13829E-02-7.05799E-01 1.08532E-04
 -1      2289-2.11212E-02-6.84661E-01 1.17878E-04
 -1      2290-2.08525E-02-6.63662E-01 1.24993E-04
 -1      2291-2.05782E-02-6.42811E-01 1.34743E-04
 -1      2292-3.60605E-03-6.74252E-01-1.44796E-07
 -1      2293 1.35383E-02-7.70205E-01-8.64875E-05
 -1      2294 1.34607E-02-7.91802E-01-7.69058E-05
 -1      2295 1.36668E-02-7.27318E-01-1.02371E-04
 -1      2296 1.36073E-02-7.48707E-01-9.34625E-05
 -1      2297-4.21942E-03-7.59302E-01-1.87913E-07
 -1      2298-2.36330E-02-8.78455E-01 4.47841E-05
 -1      2299-2.30613E-02-8.56783E-01 5.28983E-05
 -1      2300-5.39847E-03-8.88621E-01 5.80483E-07
 -1      2301-2.40191E-02-8.99295E-01 3.80843E-05
 -1      2302-2.36528E-02-9.22442E-01 2.65520E-05
 -1      2303-1.72539E-02-4.25950E-01 2.23016E-04
 -1      2304-1.69005E-02-4.07620E-01 2.32292E-04
 -1      2305-1.70409E-03-3.98618E-01-1.00007E-06
 -1      2306-1.66166E-02-3.89561E-01 2.40820E-04
 -1      2307-1.62277E-02-3.71784E-01 2.48499E-04
 -1      2308 1.37845E-02-5.61305E-01-1.67227E-04
 -1      2309 1.38053E-02-5.81473E-01-1.58084E-04
 -1      2310 1.38157E-02-6.01826E-01-1.51380E-04
 -1      2311 1.38172E-02-6.22356E-01-1.41640E-04
 -1      2312-3.02646E-03-5.91492E-01-8.28077E-07
 -1      2313-1.51109E-02-3.20238E-01 2.71280E-04
 -1      2314-1.48546E-02-3.03679E-01 2.82929E-04
 -1      2315-1.58774E-02-3.54299E-01 2.56148E-04
 -1      2316-1.54704E-02-3.37114E-01 2.64043E-04
 -1      2317-1.34949E-03-3.28684E-01-2.48119E-09
 -1      2318 4.64907E-03-2.70918E-02-4.78215E-04
 -1      2319 5.06324E-03-3.31172E-02-4.64570E-04
 -1      2320 5.50075E-03-3.96923E-02-4.56888E-04
 -1      2321 5.92903E-03-4.68047E-02-4.48616E-04
 -1      2322-6.25729E-05-3.62679E-02 1.63348E-06
 -1      2323-7.90783E-03-8.04063E-02 4.18764E-04
 -1      2324-7.46486E-03-7.12372E-02 4.26882E-04
 -1      2325-7.01809E-03-6.25677E-02 4.34744E-04
 -1      2326-6.56463E-03-5.44107E-02 4.44319E-04
 -1      2327-1.45179E-04-6.68080E-02 1.04345E-06
 -1      2328-4.25140E-03-2.15985E-02 4.88808E-04
 -1      2329-3.77670E-03-1.66913E-02 4.99672E-04
 -1      2330-2.82696E-03-8.68007E-03 5.22512E-04
 -1      2331-3.29042E-03-1.23726E-02 5.08873E-04
 -1      2332-3.25995E-05-1.44023E-02 3.91884E-06
 -1      2333 9.91450E-03-1.57905E-01-3.60827E-04
 -1      2334 1.02097E-02-1.70744E-01-3.51123E-04
 -1      2335 9.29203E-03-1.33509E-01-3.77511E-04
 -1      2336 9.60795E-03-1.45490E-01-3.67770E-04
 -1      2337-4.54705E-04-1.51556E-01 3.79724E-07
 -1      2338 1.09676E-02-2.11560E-01-3.28076E-04
 -1      2339 1.11689E-02-2.25943E-01-3.17072E-04
 -1      2340-1.07687E-03-2.33214E-01 7.10824E-06
 -1      2341 1.14328E-02-2.40850E-01-3.10657E-04
 -1      2342 1.17426E-02-2.56024E-01-3.03816E-04
 -1      2343 7.90806E-03-9.01195E-02-4.09364E-04
 -1      2344 8.27061E-03-1.00267E-01-4.01435E-04
 -1      2345 8.62178E-03-1.10888E-01-3.93691E-04
 -1      2346 8.96255E-03-1.21972E-01-3.84613E-04
 -1      2347-2.71886E-04-1.05439E-01 7.59433E-07
 -1      2348 1.71266E-03-3.08181E-03-4.88383E-04
 -1      2349 2.24896E-03-5.66338E-03-5.05469E-04
 -1      2350 1.35764E-03-1.61445E-03-4.76297E-04
 -1      2351-2.34906E-05-2.65650E-03 8.80516E-06
 -1      2352 5.14684E-04-5.57802E-04-2.23502E-04
 -1      2353 1.65979E-03-9.01114E-04-6.89230E-04
 -1      2354 1.35923E-02-4.82684E-01-1.99920E-04
 -1      2355 1.36567E-02-5.02012E-01-1.90791E-04
 -1      2356 1.37241E-02-4.45253E-01-2.19259E-04
 -1      2357 1.35156E-02-4.63591E-01-2.06995E-04
 -1      2358-2.23270E-03-4.72980E-01-3.67924E-07
 -1      2359-2.28271E-02-8.34995E-01 6.00790E-05
 -1      2360-2.26028E-02-8.13227E-01 6.83146E-05
 -1      2361-2.23730E-02-7.91540E-01 7.63721E-05
 -1      2362-2.21351E-02-7.69945E-01 8.59238E-05
 -1      2363-4.53551E-03-8.02496E-01-5.02914E-07
 -1      2364 1.28306E-02-8.99886E-01-3.66771E-05
 -1      2365 1.23745E-02-9.22816E-01-2.77685E-05
 -1      2366-5.60178E-03-9.26466E-01-8.95006E-07
 -1      2367 1.25405E-02-9.39816E-01-2.20764E-05
 -1      2368 2.17101E-02-9.51906E-01-2.56744E-05
 -1      2369 3.69873E-03-9.55557E-01-8.43521E-06
 -1      2370 1.20205E-02-2.71594E-01-2.97817E-04
 -1      2371 1.20909E-02-2.87569E-01-2.86733E-04
 -1      2372 1.23319E-02-3.03833E-01-2.81086E-04
 -1      2373 1.25092E-02-3.20395E-01-2.71366E-04
 -1      2374-1.21306E-03-2.95533E-01 7.56314E-07
 -1      2375 1.31520E-02-8.57050E-01-5.33782E-05
 -1      2376 1.31399E-02-8.79046E-01-4.45799E-05
 -1      2377 1.33721E-02-8.13491E-01-6.96049E-05
 -1      2378 1.32747E-02-8.35261E-01-6.05020E-05
 -1      2379-4.87370E-03-8.45982E-01 1.97636E-07
 -1      2380 1.26754E-02-3.37276E-01-2.64132E-04
 -1      2381 1.28309E-02-3.54468E-01-2.54378E-04
 -1      2382 1.29716E-02-3.71958E-01-2.48237E-04
 -1      2383 1.33788E-02-3.89255E-01-2.44537E-04
 -1      2384-1.54987E-03-3.63060E-01-1.78847E-07
 -1      2385-1.12826E-02-1.70649E-01 3.53387E-04
 -1      2386-1.08762E-02-1.57816E-01 3.61380E-04
 -1      2387-1.23230E-02-1.97527E-01 3.44194E-04
 -1      2388-1.16856E-02-1.83895E-01 3.46966E-04
 -1      2389-5.66139E-04-1.77227E-01 7.78910E-07
 -1      2390-1.45341E-02-2.87419E-01 2.90822E-04
 -1      2391-1.42616E-02-2.71487E-01 3.03212E-04
 -1      2392-1.15095E-03-2.63695E-01 4.43536E-06
 -1      2393-1.39420E-02-2.55923E-01 3.11732E-04
 -1      2394-1.36319E-02-2.40747E-01 3.23153E-04
 -1      2395-1.04652E-02-1.45407E-01 3.69099E-04
 -1      2396-1.00507E-02-1.33432E-01 3.78194E-04
 -1      2397-9.63194E-03-1.21900E-01 3.85713E-04
 -1      2398-9.20728E-03-1.10823E-01 3.95640E-04
 -1      2399-3.56239E-04-1.27600E-01 4.63252E-07
 -1      2400-4.90459E-04-5.26642E-04 2.18634E-04
 -1      2401-1.36347E-03-1.61808E-03 4.80135E-04
 -1      2402-1.61927E-03-8.59492E-04 6.78217E-04
 -1      2403-1.43912E-02-9.56087E-01 6.88751E-06
 -1      2404-3.24773E-02-9.52062E-01 2.44802E-05
 -1      2405-2.35273E-02-9.39441E-01 2.07884E-05
 -1      2406 1.37566E-02-6.84910E-01-1.18145E-04
 -1      2407 1.37161E-02-7.06050E-01-1.09875E-04
 -1      2408 1.38071E-02-6.43053E-01-1.34675E-04
 -1      2409 1.37867E-02-6.63907E-01-1.25394E-04
 -1      2410-2.02964E-02-6.22119E-01 1.41364E-04
 -1      2411-2.00099E-02-6.01593E-01 1.49368E-04
 -1      2412-1.97178E-02-5.81243E-01 1.56792E-04
 -1      2413-1.94224E-02-5.61080E-01 1.66627E-04
 -1      2414 7.14994E-03-7.12816E-02-4.25428E-04
 -1      2415 7.53525E-03-8.04561E-02-4.15648E-04
 -1      2416 6.34869E-03-5.44447E-02-4.42580E-04
 -1      2417 6.75415E-03-6.26073E-02-4.32843E-04
 -1      2418-6.10566E-03-4.67738E-02 4.51513E-04
 -1      2419-5.64285E-03-3.96651E-02 4.60116E-04
 -1      2420-5.17512E-03-3.30941E-02 4.68155E-04
 -1      2421-4.73587E-03-2.70739E-02 4.81491E-04
 -1      2422 2.73892E-03-8.63001E-03-5.07329E-04
 -1      2423 3.24017E-03-1.23735E-02-5.02252E-04
 -1      2424 3.73409E-03-1.66938E-02-4.96938E-04
 -1      2425 4.18491E-03-2.16125E-02-4.85549E-04
 -1      2426-5.13464E-05-7.11376E-03 1.08590E-05
 -1      2427-2.36417E-03-5.70909E-03 5.31221E-04
 -1      2428-1.77161E-03-3.08983E-03 5.07638E-04
 -1      2429-1.78585E-02-4.63389E-01 2.06433E-04
 -1      2430-1.76475E-02-4.44543E-01 2.16402E-04
 -1      2431-1.93043E-03-4.35286E-01-1.18259E-06
 -1      2432 1.36836E-02-4.26647E-01-2.27375E-04
 -1      2433 1.35645E-02-4.07313E-01-2.37683E-04
 -1      2434-2.18903E-02-7.48450E-01 9.28991E-05
 -1      2435-2.16394E-02-7.27064E-01 1.01091E-04
 -1      2436-3.90935E-03-7.16529E-01-7.19381E-07
 -1      2437 1.37095E-02-5.21565E-01-1.83810E-04
 -1      2438 1.37524E-02-5.41332E-01-1.74688E-04
 -1      2439-2.75018E-03-5.51161E-01-2.82093E-07
 -1      2440 1.04908E-02-1.83996E-01-3.44976E-04
 -1      2441 1.08403E-02-1.97647E-01-3.39365E-04
 -1      2442-8.20877E-04-2.04399E-01 3.90217E-06
 -1      2443-1.32638E-02-2.25846E-01 3.31720E-04
 -1      2444-1.28496E-02-2.11436E-01 3.40821E-04
 -1      2445-8.77959E-03-1.00207E-01 4.02510E-04
 -1      2446-8.34688E-03-9.00644E-02 4.12402E-04
 -1      2447-2.02062E-04-8.51500E-02 1.28920E-06
 -1      2448-9.84763E-05-5.04871E-02 1.48830E-06
 -1      2449-3.81589E-05-2.42070E-02 1.82884E-06
 -1      2450-3.31204E-03-6.32547E-01 1.50582E-07
 -1      2451 2.26002E-04-3.39699E-03-3.66249E-06
 -1      2452-2.73709E-03-9.28237E-01 6.77496E-07
 -1      2453-4.85926E-03-8.46099E-01-1.29971E-07
 -1      2454-2.37266E-05-1.53945E-02-1.45295E-06
 -1      2455-2.09212E-04-8.59939E-02-3.11525E-06
 -1      2456-3.91123E-03-7.16744E-01 1.03543E-06
 -1      2457-3.31582E-03-6.32830E-01-2.00446E-06
 -1      2458-2.75442E-03-5.51508E-01-6.43868E-07
 -1      2459-2.23927E-03-4.73395E-01 8.76927E-07
 -1      2460-1.55479E-03-3.63571E-01-1.94318E-06
 -1      2461-5.72705E-04-1.77939E-01-3.11150E-06
 -1      2462-1.02863E-04-5.13993E-02 1.07204E-06
 -1      2463-1.15925E-03-2.96149E-01 1.82304E-06
 -1      2464-3.75028E-04-1.28378E-01-1.26379E-07
 -1      2465-8.35463E-04-2.33860E-01-1.10499E-06
 -1      2466-8.72996E-03-4.17238E-01 1.11158E-05
 -1      2467-1.24785E-02-7.80932E-01 4.50469E-06
 -1      2468-2.23836E-03-3.08950E-02 2.34377E-05
 -1      2469-3.33794E-02-9.52699E-01-8.24825E-06
 -1      2470-1.55117E-03-1.43768E-03-2.52752E-04
 -1      2471-3.49547E-02-9.53908E-01 9.03337E-06
 -1      2472 1.51062E-03-1.37794E-03 2.52825E-04
 -1      2473 1.03485E-02-1.06294E-01 1.46571E-04
 -1      2474-8.83268E-03-6.76571E-02-1.58993E-04
 -1      2475 1.76645E-02-6.74650E-01 4.51487E-05
 -1      2476-2.48852E-02-6.74350E-01 4.43627E-05
 -1      2477 1.73071E-02-5.12143E-01-6.91570E-05
 -1      2478 1.75868E-02-5.91949E-01-5.65073E-05
 -1      2479-2.36477E-02-5.91664E-01-5.63979E-05
 -1      2480-2.22875E-02-5.11884E-01-6.90475E-05
 -1      2481 8.54440E-03-6.77115E-02-1.57422E-04
 -1      2482-1.84210E-02-3.29127E-01-9.84094E-05
 -1      2483 1.46621E-02-2.64375E-01 1.10562E-04
 -1      2484-1.49860E-02-2.05055E-01 1.24578E-04
 -1      2485 1.57151E-02-3.29333E-01-9.82752E-05
 -1      2486 1.20534E-02-1.52352E-01-1.33686E-04
 -1      2487-1.09632E-02-1.06207E-01 1.46614E-04
 -1      2488-1.67165E-02-2.64210E-01 1.10451E-04
 -1      2489-1.29493E-02-1.52245E-01-1.34513E-04
 -1      2490 1.35159E-02-2.05189E-01 1.23748E-04
 -1      2491-1.53205E-03-1.40523E-03 2.55629E-04
 -1      2492 2.32168E-02-9.54563E-01 8.91555E-06
 -1      2493 1.89433E-02-8.06635E-01 3.09376E-05
 -1      2494 7.06812E-03-3.84257E-02 1.93269E-04
 -1      2495-3.13799E-03-8.14504E-03-1.96811E-04
 -1      2496-2.78532E-02-8.88520E-01-1.53139E-05
 -1      2497 1.54058E-03-1.33298E-03-2.71465E-04
 -1      2498 1.92675E-02-7.55329E-01 3.89770E-05
 -1      2499 5.67763E-03-2.41277E-02 2.05032E-04
 -1      2500 2.50016E-02-9.55571E-01-9.80716E-06
 -1      2501 1.77010E-02-3.96001E-01 9.99112E-05
 -1      2502 1.90518E-02-4.39301E-01 8.69559E-05
 -1      2503 3.39301E-03-8.62467E-03-2.15935E-04
 -1      2504 2.32401E-02-8.86889E-01 1.18122E-05
 -1      2505-1.91093E-02-8.86571E-01 1.17340E-05
 -1      2506-2.42828E-02-4.44012E-01-1.10634E-04
 -1      2507-2.30259E-02-3.90843E-01-1.20426E-04
 -1      2508-3.04809E-02-8.12229E-01-3.62942E-05
 -1      2509 2.12626E-02-8.12613E-01-3.50545E-05
 -1      2510 2.13918E-02-7.49948E-01-4.77479E-05
 -1      2511-2.96960E-02-7.49577E-01-4.74164E-05
 -1      2512-8.08312E-03-4.02062E-02-2.34531E-04
 -1      2513-6.10574E-03-2.27478E-02-2.45670E-04
 -1      2514 1.59734E-02-1.98673E-01-1.72668E-04
 -1      2515-2.57716E-02-5.02519E-01 9.83363E-05
 -1      2516 2.16248E-02-6.84757E-01-6.17311E-05
 -1      2517-2.89888E-02-6.84396E-01-6.16681E-05
 -1      2518-2.76416E-02-6.01405E-01 7.82596E-05
 -1      2519 2.14454E-02-6.01744E-01 7.87588E-05
 -1      2520 2.10451E-02-5.21561E-01 9.42149E-05
 -1      2521-1.07641E-02-7.18594E-02 2.21521E-04
 -1      2522 1.90183E-02-3.37468E-01 1.37007E-04
 -1      2523 1.21323E-02-1.01266E-01-2.05954E-04
 -1      2524-1.55693E-02-1.58226E-01 1.87643E-04
 -1      2525 1.04483E-02-7.19307E-02 2.20603E-04
 -1      2526-2.18225E-02-3.37234E-01 1.36054E-04
 -1      2527-1.72839E-02-1.98500E-01-1.72855E-04
 -1      2528-1.26722E-02-1.01095E-01-2.08146E-04
 -1      2529 1.46148E-02-1.58372E-01 1.87115E-04
 -1      2530-1.99221E-02-2.71791E-01-1.54760E-04
 -1      2531 1.78284E-02-2.71899E-01-1.54474E-04
 -1      2532 1.97612E-02-3.91156E-01-1.18544E-04
 -1      2533 7.91503E-03-4.02464E-02-2.33678E-04
 -1      2534 6.01549E-03-2.27494E-02-2.44960E-04
 -1      2535-3.85211E-03-9.41431E-03 2.54438E-04
 -1      2536 3.92167E-03-9.44601E-03 2.52596E-04
 -1      2537-2.68972E-02-4.50278E-01 1.32764E-04
 -1      2538-2.89545E-02-3.87520E-01 1.91998E-04
 -1      2539-3.34214E-02-8.19490E-01 4.20138E-05
 -1      2540-3.24115E-02-7.42380E-01 5.97171E-05
 -1      2541 2.10758E-02-4.46338E-01-1.16890E-04
 -1      2542-6.46404E-03-2.10501E-02 3.03532E-04
 -1      2543-9.12645E-03-4.24661E-02 2.84283E-04
 -1      2544 2.57589E-02-8.67635E-01-3.35363E-05
 -1      2545 1.59793E-02-1.33652E-01 2.66384E-04
 -1      2546 2.57987E-02-6.42341E-01-9.43422E-05
 -1      2547-3.06190E-02-5.42376E-01 1.22666E-04
 -1      2548-3.25613E-02-6.41931E-01-9.41731E-05
 -1      2549 2.46669E-02-4.82164E-01 1.39461E-04
 -1      2550 1.08066E-02-5.48967E-02 3.11363E-04
 -1      2551-1.61717E-02-1.23117E-01-2.72757E-04
 -1      2552 1.54863E-02-1.23308E-01-2.71954E-04
 -1      2553-1.67902E-02-1.33541E-01 2.67042E-04
 -1      2554 2.01592E-02-2.40748E-01-2.21029E-04
 -1      2555-2.18920E-02-2.40627E-01-2.20920E-04
 -1      2556-2.41906E-02-3.03327E-01 1.97545E-04
 -1      2557 2.17601E-02-3.03593E-01 1.97265E-04
 -1      2558 2.05568E-02-9.11526E-01-2.25990E-05
 -1      2559 2.59303E-02-5.61294E-01 1.21647E-04
 -1      2560-3.08396E-02-5.52852E-01-1.20107E-04
 -1      2561 2.52852E-02-5.50166E-01-1.21165E-04
 -1      2562-2.15845E-02-2.32794E-01 2.24842E-04
 -1      2563 1.16641E-02-2.33951E-01 1.61579E-04
 -1      2564 2.41010E-02-2.34143E-01 1.58552E-04
 -1      2565 3.66443E-02-2.34237E-01 7.22881E-04
 -1      2566 1.87255E-02-2.19368E-01 3.45502E-04
 -1      2567 3.08618E-02-2.19666E-01 3.42173E-04
 -1      2568 6.53685E-03-2.19338E-01 3.00595E-05
 -1      2569 3.23200E-02-2.49268E-01 3.24358E-04
 -1      2570 1.95527E-02-2.48985E-01 3.27113E-04
 -1      2571 6.73096E-03-2.48933E-01 2.81630E-05
 -1      2572-5.67462E-02-9.47846E-01-9.11965E-06
 -1      2573-5.65723E-02-9.30857E-01-1.18216E-05
 -1      2574-5.75367E-02-9.48451E-01 9.25877E-06
 -1      2575-5.73622E-02-9.31461E-01 1.24461E-05
 -1      2576-3.41682E-02-9.53308E-01 3.19483E-07
 -1      2577-1.95424E-02-9.31085E-01-1.25238E-05
 -1      2578-1.94101E-02-9.48086E-01-9.08686E-06
 -1      2579 8.87224E-03-9.49017E-01 1.04531E-05
 -1      2580-5.08163E-03-9.53622E-01 4.93882E-07
 -1      2581 8.71208E-03-9.32015E-01 1.36183E-05
 -1      2582-8.86337E-04-1.40741E-03-2.53945E-04
 -1      2583-9.09434E-04-2.28994E-03-5.91426E-05
 -1      2584 1.04641E-04-2.52610E-03 1.65614E-05
 -1      2585 8.83058E-04-1.37823E-03 2.45453E-04
 -1      2586 1.08232E-03-2.26745E-03 7.00266E-05
 -1      2587 7.20893E-07-1.25331E-03 3.74118E-06
 -1      2588-2.76363E-03-2.95920E-03 1.70732E-05
 -1      2589-3.18010E-03-2.24242E-03-2.31021E-04
 -1      2590-3.16422E-03-2.22391E-03 2.34375E-04
 -1      2591-1.52874E-03-1.49440E-03 2.83712E-06
 -1      2592-9.04875E-04-2.26019E-03 7.02112E-05
 -1      2593 4.96461E-02-7.17129E-01 2.39908E-04
 -1      2594 4.26677E-02-6.95950E-01 1.19414E-04
 -1      2595 2.44553E-02-6.95696E-01 1.19283E-04
 -1      2596 2.53276E-02-7.36060E-01 1.08859E-04
 -1      2597 1.84807E-02-7.14763E-01 4.25314E-05
 -1      2598 4.37459E-02-7.36303E-01 1.08013E-04
 -1      2599 6.94714E-03-6.95634E-01 9.71027E-06
 -1      2600 3.20027E-02-7.17043E-01 5.28204E-05
 -1      2601 7.62153E-03-7.35986E-01 1.21136E-05
 -1      2602 1.37007E-02-7.16829E-01 5.31947E-05
 -1      2603-3.55719E-03-4.60312E-03 1.54991E-05
 -1      2604-4.30817E-03-3.58025E-03 2.56606E-04
 -1      2605 1.05402E-04-4.13382E-03 1.31285E-05
 -1      2606 1.17337E-03-2.67543E-03 2.61695E-04
 -1      2607 4.38847E-02-8.26668E-01 7.00583E-05
 -1      2608 2.51202E-02-8.26459E-01 7.06905E-05
 -1      2609 5.01514E-02-8.46554E-01 1.29106E-04
 -1      2610 4.61732E-02-8.66799E-01 4.73405E-05
 -1      2611 2.73001E-02-8.66605E-01 5.23251E-05
 -1      2612 2.11038E-02-8.46652E-01 2.09400E-05
 -1      2613 7.08145E-03-8.26338E-01 6.37908E-06
 -1      2614 1.32324E-02-8.46234E-01 2.86668E-05
 -1      2615 9.15559E-03-8.66464E-01 4.68143E-06
 -1      2616-1.95268E-02-6.57689E-02 2.12708E-04
 -1      2617-5.05000E-03-6.12355E-02 5.70858E-05
 -1      2618-1.33075E-02-5.54649E-02-5.42868E-07
 -1      2619-1.76967E-02-5.09213E-02 2.48069E-04
 -1      2620-4.82702E-03-4.68340E-02 7.03278E-05
 -1      2621-1.00166E-02-5.62754E-02 2.49937E-04
 -1      2622-5.21135E-03-6.50568E-02 2.14076E-04
 -1      2623-1.11920E-04-5.50502E-02 6.50175E-07
 -1      2624-5.00609E-03-5.01432E-02 2.47451E-04
 -1      2625-1.89201E-02-6.14463E-02 5.10643E-04
 -1      2626-1.70598E-02-4.70666E-02 5.63843E-04
 -1      2627-1.18361E-02-6.09669E-02 5.11028E-04
 -1      2628-1.08077E-02-4.65503E-02 5.63901E-04
 -1      2629-4.32446E-03-3.60288E-03-2.58616E-04
 -1      2630-1.22801E-03-2.71965E-03-2.76062E-04
 -1      2631 3.20301E-02-7.27697E-01 8.07402E-08
 -1      2632 3.19731E-02-7.06446E-01 2.74007E-07
 -1      2633-3.98801E-03-7.27334E-01 2.59206E-07
 -1      2634-3.83447E-03-7.06077E-01 3.64573E-07
 -1      2635-4.95546E-03-8.56965E-01-3.51255E-07
 -1      2636 9.07526E-03-8.77357E-01 2.15434E-05
 -1      2637-4.77678E-03-8.35187E-01 3.91741E-07
 -1      2638 7.87810E-03-8.58629E-02 2.09872E-04
 -1      2639-2.08206E-04-9.06645E-02-4.59661E-07
 -1      2640 1.33314E-02-9.57130E-02 4.30431E-04
 -1      2641 4.94834E-03-1.00695E-01 1.59010E-04
 -1      2642 4.83080E-03-9.59016E-02 3.73352E-05
 -1      2643 5.49428E-03-8.31553E-02 2.04315E-04
 -1      2644 1.31219E-02-7.86112E-02 4.95100E-04
 -1      2645 5.34518E-03-7.88237E-02 5.25682E-05
 -1      2646-8.89644E-05-5.50500E-02-5.14525E-07
 -1      2647-6.39584E-03-5.12095E-02-2.25584E-04
 -1      2648-4.31745E-03-6.30527E-02-1.73018E-04
 -1      2649-1.09388E-02-5.90139E-02-4.63151E-04
 -1      2650-4.20550E-03-5.92702E-02-4.12841E-05
 -1      2651-8.20188E-03-8.58074E-02-2.09835E-04
 -1      2652-1.64533E-04-8.10124E-02-1.91463E-07
 -1      2653-1.23566E-02-7.63248E-02-4.45356E-04
 -1      2654-4.60145E-03-7.17071E-02-1.69648E-04
 -1      2655-4.77441E-03-7.65779E-02-3.90561E-05
 -1      2656-7.38080E-04-2.41399E-01 8.05453E-07
 -1      2657-6.95864E-04-2.26503E-01 1.53985E-06
 -1      2658 1.05040E-02-8.83630E-02 1.80058E-04
 -1      2659 6.27127E-03-1.91361E-01 3.17952E-05
 -1      2660 1.77443E-02-1.91232E-01 3.62108E-04
 -1      2661 1.05536E-02-1.77856E-01 1.76870E-04
 -1      2662 7.21199E-03-1.68039E-01 4.41897E-05
 -1      2663 1.80768E-02-1.67886E-01 4.18671E-04
 -1      2664 1.41569E-02-1.81153E-01 1.52118E-04
 -1      2665-6.02097E-03-8.80956E-02-2.02944E-04
 -1      2666-1.45218E-02-9.31461E-02-4.81645E-04
 -1      2667-6.21790E-03-9.34062E-02-5.46645E-05
 -1      2668-5.39537E-04-1.84460E-01 4.16780E-07
 -1      2669 7.36995E-03-1.74274E-01 1.73650E-04
 -1      2670-1.60668E-02-3.63389E-01-1.26990E-04
 -1      2671-1.50339E-03-3.54742E-01 4.28512E-08
 -1      2672-2.44067E-02-3.45972E-01-2.72964E-04
 -1      2673-1.00115E-02-3.37432E-01-1.05134E-04
 -1      2674-1.01441E-02-3.46197E-01-2.34196E-05
 -1      2675-1.28538E-02-5.15370E-02-2.24261E-04
 -1      2676-1.78638E-02-5.94684E-02-4.61375E-04
 -1      2677-1.84458E-02-6.37205E-02-1.73811E-04
 -1      2678 6.40405E-03-1.97988E-01 1.35155E-04
 -1      2679-1.06833E-02-8.36209E-02-1.84239E-04
 -1      2680 1.55779E-02-8.14965E-02 2.56974E-07
 -1      2681 1.59794E-02-8.62067E-02-2.06965E-04
 -1      2682 1.92651E-02-7.24828E-02-1.69765E-04
 -1      2683 1.98000E-02-7.68846E-02-4.41835E-04
 -1      2684 4.42446E-03-7.66081E-02-3.83001E-05
 -1      2685 7.72648E-03-8.58595E-02-2.06778E-04
 -1      2686-1.90237E-04-8.10181E-02 6.49520E-07
 -1      2687 1.19536E-02-7.64016E-02-4.41458E-04
 -1      2688 4.31228E-03-7.17415E-02-1.68612E-04
 -1      2689 1.63731E-02-9.11426E-02 1.90968E-07
 -1      2690 1.59793E-02-8.62089E-02 2.06526E-04
 -1      2691 2.18602E-02-9.61809E-02 4.25765E-04
 -1      2692 2.23679E-02-1.01418E-01 1.60511E-04
 -1      2693 1.38194E-02-6.32895E-01 6.88806E-05
 -1      2694-3.38560E-03-6.43120E-01 2.96621E-07
 -1      2695 7.06380E-03-6.63998E-01 5.05829E-05
 -1      2696 7.09901E-03-6.53661E-01 1.22431E-05
 -1      2697 2.43700E-02-6.53712E-01 1.37071E-04
 -1      2698-2.04497E-02-6.32656E-01 6.84505E-05
 -1      2699-3.38972E-03-6.43120E-01-1.34270E-07
 -1      2700-3.12916E-02-6.53320E-01 1.35881E-04
 -1      2701-1.41325E-02-6.63848E-01 4.97889E-05
 -1      2702-1.40230E-02-6.53513E-01 1.19054E-05
 -1      2703 4.25941E-02-6.85437E-01 4.71339E-05
 -1      2704 3.16896E-02-6.43503E-01 4.74321E-07
 -1      2705 3.16272E-02-6.33128E-01 6.90343E-05
 -1      2706 4.24274E-02-6.64454E-01 5.03360E-05
 -1      2707 4.23325E-02-6.53980E-01 1.36502E-04
 -1      2708 6.98720E-03-6.84990E-01 4.68320E-05
 -1      2709-3.84690E-02-6.43010E-01 3.52912E-07
 -1      2710-3.82606E-02-6.32638E-01 6.87134E-05
 -1      2711-4.92587E-02-6.53334E-01 1.36336E-04
 -1      2712-4.95022E-02-6.63803E-01 4.99524E-05
 -1      2713-3.44573E-02-4.73266E-01-1.01358E-04
 -1      2714-3.47192E-02-4.82853E-01-7.56244E-07
 -1      2715-4.51026E-02-5.02148E-01-7.59367E-05
 -1      2716-1.21459E-02-4.92524E-01-1.87823E-05
 -1      2717-4.47854E-02-4.92416E-01-2.04558E-04
 -1      2718-2.30077E-03-4.82861E-01-2.68067E-07
 -1      2719-1.80345E-02-4.73214E-01-1.01279E-04
 -1      2720-1.22634E-02-5.02053E-01-7.60038E-05
 -1      2721-2.81401E-02-4.92314E-01-2.04372E-04
 -1      2722 6.14439E-03-5.12419E-02-2.22277E-04
 -1      2723 1.06465E-02-5.90748E-02-4.59257E-04
 -1      2724 3.96092E-03-5.92948E-02-4.04956E-05
 -1      2725 4.08000E-03-6.30790E-02-1.72108E-04
 -1      2726 1.26460E-02-5.16056E-02-2.22900E-04
 -1      2727 1.30789E-02-5.55366E-02-5.05276E-07
 -1      2728 1.76165E-02-5.95707E-02-4.59128E-04
 -1      2729 1.81740E-02-6.38283E-02-1.72731E-04
 -1      2730-1.59662E-02-8.13946E-02 9.91883E-08
 -1      2731-1.63986E-02-8.60994E-02-2.07630E-04
 -1      2732-1.95897E-02-7.23624E-02-1.70573E-04
 -1      2733-2.01513E-02-7.67574E-02-4.43013E-04
 -1      2734 6.92468E-03-2.56573E-01 1.22815E-04
 -1      2735-3.07433E-02-3.54832E-01 1.17126E-07
 -1      2736-3.10493E-02-3.63494E-01-1.26570E-04
 -1      2737-3.87643E-02-3.37697E-01-1.05236E-04
 -1      2738-3.91505E-02-3.46168E-01-2.72223E-04
 -1      2739 2.77329E-02-3.55176E-01 4.82467E-07
 -1      2740 2.79362E-02-3.63843E-01-1.26010E-04
 -1      2741 3.59539E-02-3.38134E-01-1.05120E-04
 -1      2742 3.62426E-02-3.46613E-01-2.71978E-04
 -1      2743 7.23956E-03-3.46303E-01-2.32868E-05
 -1      2744 1.29064E-02-3.63560E-01-1.26310E-04
 -1      2745-1.50113E-03-3.54742E-01-9.64401E-08
 -1      2746 7.21122E-03-3.37537E-01-1.04792E-04
 -1      2747 2.14543E-02-3.46245E-01-2.72182E-04
 -1      2748-8.14134E-03-8.58079E-02 2.07314E-04
 -1      2749-2.24787E-04-9.06695E-02 6.37771E-07
 -1      2750-1.36791E-02-9.56130E-02 4.26158E-04
 -1      2751-5.47651E-03-1.00659E-01 1.60634E-04
 -1      2752-5.34301E-03-9.58611E-02 3.76024E-05
 -1      2753 2.13924E-02-1.71651E-01 1.88116E-07
 -1      2754 2.17152E-02-1.78173E-01-1.74577E-04
 -1      2755 2.71243E-02-1.58964E-01-1.44186E-04
 -1      2756 2.75616E-02-1.65226E-01-3.74354E-04
 -1      2757 5.95813E-03-1.64939E-01-3.24842E-05
 -1      2758 1.03551E-02-1.77852E-01-1.74478E-04
 -1      2759-5.40509E-04-1.71192E-01 4.83264E-07
 -1      2760 1.65430E-02-1.64791E-01-3.73022E-04
 -1      2761 5.87786E-03-1.58284E-01-1.42890E-04
 -1      2762-1.68260E-02-9.10300E-02 1.46985E-07
 -1      2763-1.63985E-02-8.61018E-02 2.06984E-04
 -1      2764-2.29200E-02-1.01253E-01 1.59437E-04
 -1      2765-2.23740E-02-9.60235E-02 4.25779E-04
 -1      2766-2.24822E-02-1.71456E-01 2.63738E-07
 -1      2767-2.28631E-02-1.77972E-01-1.74901E-04
 -1      2768-2.80913E-02-1.58727E-01-1.44766E-04
 -1      2769-2.85820E-02-1.64981E-01-3.74701E-04
 -1      2770-6.97482E-03-1.64883E-01-3.28812E-05
 -1      2771-1.20966E-03-3.04152E-01-4.17222E-07
 -1      2772-1.45728E-02-2.95963E-01-1.42025E-04
 -1      2773-2.33162E-02-3.12248E-01-2.90056E-04
 -1      2774-9.62426E-03-3.12476E-01-2.56336E-05
 -1      2775-9.75465E-03-3.20566E-01-1.08648E-04
 -1      2776 6.57689E-03-2.12059E-01 1.32304E-04
 -1      2777-2.32395E-02-1.84679E-01 2.41732E-07
 -1      2778-2.28631E-02-1.77975E-01 1.74476E-04
 -1      2779-3.05743E-02-1.91377E-01 3.59141E-04
 -1      2780-7.57412E-03-1.91297E-01 3.20751E-05
 -1      2781-3.10509E-02-1.98334E-01 1.34751E-04
 -1      2782-1.14981E-02-1.77755E-01 1.74583E-04
 -1      2783-6.02673E-04-1.84432E-01 4.12244E-07
 -1      2784-7.70342E-03-1.97893E-01 1.35767E-04
 -1      2785-1.88387E-02-1.91061E-01 3.59444E-04
 -1      2786-1.02912E-02-4.53726E-02-5.29123E-04
 -1      2787-4.47923E-03-4.89269E-02-2.18797E-04
 -1      2788-4.33793E-03-4.56439E-02-5.68515E-05
 -1      2789 2.20302E-02-1.84886E-01 2.95623E-07
 -1      2790 2.17153E-02-1.78175E-01 1.74195E-04
 -1      2791 2.96790E-02-1.98619E-01 1.34660E-04
 -1      2792 2.92687E-02-1.91654E-01 3.58592E-04
 -1      2793 2.61862E-02-2.96403E-01-1.43233E-04
 -1      2794 2.64223E-02-3.04591E-01-6.36539E-07
 -1      2795 3.50437E-02-3.12875E-01-2.91212E-04
 -1      2796 3.53550E-02-3.21270E-01-1.08437E-04
 -1      2797 7.11583E-03-3.12575E-01-2.55281E-05
 -1      2798 2.38165E-02-2.26749E-01-1.47591E-06
 -1      2799 2.43787E-02-2.41640E-01-1.51359E-06
 -1      2800-7.11418E-03-1.55771E-02-2.51265E-04
 -1      2801-6.61345E-03-1.35818E-02-7.01040E-07
 -1      2802-1.00185E-02-1.70351E-02-2.41224E-04
 -1      2803-2.79502E-03-1.88993E-02-6.41961E-05
 -1      2804-1.06819E-02-1.91646E-02-5.73044E-04
 -1      2805-2.30597E-02-9.35820E-02-4.79185E-04
 -1      2806-2.24887E-02-8.87658E-02-2.03110E-04
 -1      2807-1.33365E-02-7.85197E-02 4.91483E-04
 -1      2808-5.71072E-03-7.87850E-02 5.31326E-05
 -1      2809-5.87076E-03-8.31188E-02 2.05672E-04
 -1      2810-2.29473E-02-8.45967E-01-2.78541E-05
 -1      2811-3.57498E-02-8.28999E-01-7.19748E-05
 -1      2812-1.78184E-02-8.39959E-01-2.83691E-05
 -1      2813-1.77027E-02-8.29143E-01-7.41994E-06
 -1      2814 2.20446E-02-8.89538E-02-2.01716E-04
 -1      2815 5.73980E-03-9.34872E-02-5.37799E-05
 -1      2816 2.25831E-02-9.37786E-02-4.77269E-04
 -1      2817 1.39872E-02-9.32831E-02-4.77047E-04
 -1      2818 5.61288E-03-8.81804E-02-2.01443E-04
 -1      2819 2.14822E-02-8.39387E-02 2.05026E-04
 -1      2820 2.09314E-02-7.91131E-02 4.90671E-04
 -1      2821 9.12045E-03-6.27417E-01 6.93094E-05
 -1      2822 2.61765E-02-6.17277E-01 1.67898E-04
 -1      2823 9.14089E-03-6.17241E-01 1.77749E-05
 -1      2824-1.56734E-02-6.27244E-01 6.88147E-05
 -1      2825-3.25867E-02-6.16868E-01 1.67451E-04
 -1      2826-1.55536E-02-6.17069E-01 1.75999E-05
 -1      2827 4.39002E-02-6.17565E-01 1.68357E-04
 -1      2828 4.40211E-02-6.27905E-01 6.92694E-05
 -1      2829-5.05811E-02-6.27244E-01 6.88323E-05
 -1      2830-5.03151E-02-6.16910E-01 1.67518E-04
 -1      2831-2.12980E-02-7.89752E-02 4.91079E-04
 -1      2832-2.18815E-02-8.37930E-02 2.05228E-04
 -1      2833-3.05556E-02-1.74681E-01 1.73366E-04
 -1      2834-8.25979E-03-1.67963E-01 4.45971E-05
 -1      2835-3.00467E-02-1.68070E-01 4.14993E-04
 -1      2836-8.41027E-03-1.74167E-01 1.73425E-04
 -1      2837-1.89269E-02-1.67712E-01 4.15101E-04
 -1      2838 2.89956E-02-1.68338E-01 4.14672E-04
 -1      2839 2.94450E-02-1.74958E-01 1.73112E-04
 -1      2840-1.20104E-02-3.68091E-01-1.21369E-04
 -1      2841-2.68587E-02-3.76893E-01-2.86825E-04
 -1      2842-1.21541E-02-3.77120E-01-3.26481E-05
 -1      2843 2.99212E-02-1.81866E-01-1.69446E-04
 -1      2844 7.51270E-03-1.88184E-01-4.54288E-05
 -1      2845 3.03586E-02-1.88486E-01-4.01077E-04
 -1      2846-3.15878E-02-1.88193E-01-4.01380E-04
 -1      2847-3.10910E-02-1.81581E-01-1.69476E-04
 -1      2848-8.73902E-03-1.88101E-01-4.57615E-05
 -1      2849 7.42221E-03-1.81159E-01-1.70220E-04
 -1      2850 1.87048E-02-1.88040E-01-4.01870E-04
 -1      2851 4.37970E-02-7.47025E-01 4.13923E-05
 -1      2852 7.57418E-03-7.46604E-01 4.20172E-05
 -1      2853-1.70451E-02-4.96745E-02-2.18765E-04
 -1      2854-1.64242E-02-4.58707E-02-5.27617E-04
 -1      2855-2.38987E-02-2.83634E-01-3.39322E-04
 -1      2856-1.08424E-02-2.91641E-01-1.41743E-04
 -1      2857-1.06945E-02-2.83871E-01-3.68759E-05
 -1      2858-2.90153E-02-4.58411E-01-2.42597E-04
 -1      2859-1.35018E-02-4.67925E-01-1.00016E-04
 -1      2860-1.33723E-02-4.58630E-01-2.59345E-05
 -1      2861-4.16785E-02-3.68348E-01-1.21525E-04
 -1      2862-4.20632E-02-3.77081E-01-2.86400E-04
 -1      2863-4.56457E-02-4.68075E-01-1.00340E-04
 -1      2864-4.53028E-02-4.58545E-01-2.42649E-04
 -1      2865-4.18829E-02-8.56746E-01-3.23543E-07
 -1      2866-4.17490E-02-8.45873E-01-2.78506E-05
 -1      2867-5.46942E-02-8.39790E-01-2.87566E-05
 -1      2868-5.45304E-02-8.28932E-01-7.25801E-05
 -1      2869-2.85169E-02-2.96107E-01-1.42096E-04
 -1      2870-2.88438E-02-3.04284E-01-5.04373E-07
 -1      2871-3.75652E-02-3.12468E-01-2.89459E-04
 -1      2872-3.79721E-02-3.20850E-01-1.08330E-04
 -1      2873-1.14980E-02-1.77754E-01-1.75370E-04
 -1      2874-4.73856E-04-1.71172E-01 5.53734E-07
 -1      2875-1.75561E-02-1.64641E-01-3.74644E-04
 -1      2876-6.76742E-03-1.58208E-01-1.42678E-04
 -1      2877-3.09457E-05-1.30662E-02-2.15755E-06
 -1      2878-3.53745E-03-1.52083E-02-2.54001E-04
 -1      2879-2.62799E-03-1.61692E-02-2.43696E-04
 -1      2880-6.69313E-03-1.86209E-02-5.76887E-04
 -1      2881 1.02803E-02-8.37289E-02-1.82535E-04
 -1      2882 1.96033E-02-6.37952E-01 5.93152E-05
 -1      2883-2.63050E-02-6.37630E-01 5.89685E-05
 -1      2884 3.04702E-02-2.12515E-01 1.28464E-04
 -1      2885 3.57759E-02-2.92348E-01-1.40866E-04
 -1      2886 3.54285E-02-2.84235E-01-3.40401E-04
 -1      2887 8.49094E-03-2.83928E-01-3.68569E-05
 -1      2888 3.26801E-02-2.56992E-01 1.20216E-04
 -1      2889-1.09574E-02-8.82827E-02 1.80532E-04
 -1      2890-1.20556E-03-3.04153E-01-2.46411E-08
 -1      2891 1.22470E-02-2.96111E-01-1.41799E-04
 -1      2892 7.14743E-03-3.20667E-01-1.08105E-04
 -1      2893 2.08009E-02-3.12501E-01-2.89189E-04
 -1      2894-1.53550E-02-1.81011E-01 1.52891E-04
 -1      2895 7.13898E-03-8.15433E-01 3.00027E-05
 -1      2896-1.80463E-02-9.40464E-01-2.45922E-06
 -1      2897-4.12128E-02-9.18630E-01 1.03080E-06
 -1      2898-1.88323E-02-9.41067E-01 3.82957E-06
 -1      2899 1.39664E-02-1.74870E-01-1.54198E-04
 -1      2900-4.24366E-03-9.18876E-01 1.59223E-06
 -1      2901 1.02297E-02-9.41396E-01 3.62537E-06
 -1      2902-8.55692E-03-5.31107E-02-1.93353E-04
 -1      2903-1.50586E-02-1.74732E-01-1.54715E-04
 -1      2904 1.68522E-02-3.00103E-01-1.23338E-04
 -1      2905-1.92407E-02-2.99946E-01-1.23645E-04
 -1      2906-8.51037E-03-1.81057E-01-1.69527E-04
 -1      2907-1.99270E-02-1.87855E-01-4.02115E-04
 -1      2908-3.80842E-02-2.91991E-01-1.41167E-04
 -1      2909-3.76478E-02-2.83891E-01-3.39471E-04
 -1      2910-2.06903E-02-3.59515E-01-1.11020E-04
 -1      2911 3.88739E-02-3.77594E-01-2.84037E-04
 -1      2912 3.85921E-02-3.68853E-01-1.18711E-04
 -1      2913 8.96778E-03-3.77273E-01-3.18568E-05
 -1      2914-2.33359E-02-4.77575E-01-8.70006E-05
 -1      2915 8.93427E-03-3.68244E-01-1.21631E-04
 -1      2916 2.36233E-02-3.77223E-01-2.85613E-04
 -1      2917 1.00634E-02-4.54227E-02-5.24472E-04
 -1      2918 4.30225E-03-4.89500E-02-2.17039E-04
 -1      2919 4.15175E-03-4.56663E-02-5.66315E-05
 -1      2920 2.16879E-02-2.83833E-01-3.38994E-04
 -1      2921 8.54683E-03-2.91699E-01-1.41142E-04
 -1      2922 1.68356E-02-4.97627E-02-2.18155E-04
 -1      2923 1.62356E-02-4.59545E-02-5.25513E-04
 -1      2924-8.02891E-03-1.17630E-02-5.38673E-04
 -1      2925-1.87992E-03-1.14920E-02-4.88399E-05
 -1      2926-7.36625E-03-1.01257E-02-2.09130E-04
 -1      2927 2.49163E-04-7.49566E-04-1.30870E-05
 -1      2928 3.42921E-04-7.61638E-04 8.38412E-06
 -1      2929 5.12244E-04-3.03532E-04-3.35995E-05
 -1      2930 1.11451E-03-2.22517E-03-9.22596E-05
 -1      2931 4.70505E-04-2.53459E-04-8.52993E-05
 -1      2932-1.91300E-02-5.13474E-02 1.01068E-03
 -1      2933-1.64370E-02-8.78169E-01-1.79821E-05
 -1      2934-3.44707E-02-8.67145E-01-5.20017E-05
 -1      2935-1.63278E-02-8.67280E-01-5.66473E-06
 -1      2936-2.22083E-04-7.55207E-04 4.80866E-06
 -1      2937-4.92344E-03-1.12302E-02-5.41561E-04
 -1      2938-1.73538E-03-9.29403E-03-2.10509E-04
 -1      2939 1.77140E-02-3.59773E-01-1.09937E-04
 -1      2940-5.33442E-02-8.67059E-01-5.14835E-05
 -1      2941-5.34892E-02-8.77968E-01-1.81476E-05
 -1      2942 4.77127E-03-9.64168E-01-2.98772E-07
 -1      2943-1.13460E-02-9.64047E-01 3.40454E-07
 -1      2944-4.59644E-03-9.64097E-01 2.12895E-07
 -1      2945 8.33557E-03-5.31579E-02-1.92220E-04
 -1      2946 2.52981E-03-9.77723E-01-1.04086E-06
 -1      2947 1.11211E-02-9.41900E-01-4.22032E-06
 -1      2948 1.86576E-02-9.77849E-01-2.65107E-06
 -1      2949-4.55782E-03-1.45602E-02-2.23969E-04
 -1      2950-2.91927E-02-8.50277E-01-2.38041E-05
 -1      2951-5.83619E-02-7.59091E-01 2.00435E-04
 -1      2952-3.66603E-02-7.89220E-01 9.81341E-05
 -1      2953-5.53085E-02-7.89177E-01 9.76527E-05
 -1      2954-5.46095E-02-7.50715E-01 1.15154E-04
 -1      2955-3.29373E-02-7.80782E-01 5.04102E-05
 -1      2956-3.61140E-02-7.50740E-01 1.15084E-04
 -1      2957-4.72992E-02-3.98822E-01 5.32965E-04
 -1      2958-4.81187E-02-4.16996E-01 5.15133E-04
 -1      2959-4.57788E-02-3.93259E-01 3.26036E-04
 -1      2960-3.09598E-02-4.11155E-01 3.17715E-04
 -1      2961-3.03894E-02-3.93059E-01 3.28238E-04
 -1      2962-5.87712E-02-7.80619E-01 1.84277E-04
 -1      2963-3.69491E-02-8.10888E-01 8.66995E-05
 -1      2964-5.91616E-02-8.02242E-01 1.65609E-04
 -1      2965-5.56727E-02-8.10830E-01 8.70924E-05
 -1      2966 1.02748E-02-9.07545E-01 1.79617E-06
 -1      2967 8.75840E-03-8.98183E-01 1.70109E-05
 -1      2968 2.32441E-02-9.20685E-01 1.35865E-05
 -1      2969 1.68151E-03-6.85458E-03 2.43847E-04
 -1      2970 1.71035E-03-6.08892E-03 6.22483E-05
 -1      2971 2.80136E-03-4.56125E-03 2.78570E-04
 -1      2972-2.23137E-04-2.27941E-04 5.16767E-05
 -1      2973-5.12831E-04-3.09058E-04 6.22192E-05
 -1      2974 1.77656E-02-9.77345E-01 1.24249E-06
 -1      2975 8.39118E-03-9.77270E-01 2.18202E-06
 -1      2976-1.37217E-03-6.05166E-03 6.36742E-05
 -1      2977-6.55878E-03-7.72634E-03 2.45619E-04
 -1      2978-2.78642E-03-4.56968E-03 2.83773E-04
 -1      2979 2.54421E-03-1.95265E-02 5.20088E-05
 -1      2980 2.69556E-03-2.16151E-02 2.10143E-04
 -1      2981-2.61788E-05-1.73820E-02-1.14698E-06
 -1      2982 2.22523E-03-1.22409E-02 6.18235E-05
 -1      2983 2.40455E-03-1.38280E-02 2.42222E-04
 -1      2984 4.87583E-03-1.59687E-02 2.27816E-04
 -1      2985 7.41430E-03-5.02182E-01-7.66952E-05
 -1      2986 7.42096E-03-4.92653E-01-1.79733E-05
 -1      2987-2.29811E-03-4.82861E-01-8.70629E-08
 -1      2988 9.54373E-03-4.69107E-01-1.04456E-04
 -1      2989 9.52838E-03-4.59805E-01-2.81840E-05
 -1      2990 1.92595E-02-4.78894E-01-9.00453E-05
 -1      2991-4.93568E-02-8.97807E-01 1.73705E-05
 -1      2992-1.09398E-02-9.07389E-01 1.61198E-06
 -1      2993-2.70229E-02-9.20200E-01 1.35451E-05
 -1      2994 3.01197E-02-4.83274E-01-1.77367E-07
 -1      2995 4.02455E-02-5.02709E-01-7.61057E-05
 -1      2996 4.17001E-02-4.69676E-01-1.03964E-04
 -1      2997 3.28307E-05-1.20699E-03-8.32450E-06
 -1      2998 3.81654E-02-3.88956E-01 1.03811E-04
 -1      2999 7.93375E-03-3.79665E-01 2.55444E-05
 -1      3000 2.81336E-02-3.72649E-01 1.72674E-07
 -1      3001 3.82981E-02-3.59492E-01 1.25811E-04
 -1      3002 8.87095E-03-3.50436E-01 3.26928E-05
 -1      3003 1.84109E-02-3.66325E-01 1.16369E-04
 -1      3004 7.53401E-03-1.04090E-02-2.21438E-04
 -1      3005 1.97934E-03-1.17716E-02-5.31733E-05
 -1      3006 6.57478E-03-1.36024E-02 4.60173E-07
 -1      3007 9.95523E-03-1.70591E-02-2.39851E-04
 -1      3008 2.73003E-03-1.89004E-02-6.28392E-05
 -1      3009 4.67837E-03-1.48732E-02-2.33016E-04
 -1      3010 7.95604E-03-3.88371E-01 1.03816E-04
 -1      3011-1.60548E-03-3.72220E-01-3.06444E-07
 -1      3012 8.91119E-03-3.58876E-01 1.24935E-04
 -1      3013 2.34178E-02-4.92651E-01-2.04450E-04
 -1      3014 2.51866E-02-4.59785E-01-2.48692E-04
 -1      3015 4.00549E-02-4.92972E-01-2.04446E-04
 -1      3016 4.14772E-02-4.60130E-01-2.48357E-04
 -1      3017 1.81296E-03-9.54353E-03-2.18536E-04
 -1      3018-2.93566E-05-1.30672E-02 1.85760E-06
 -1      3019 2.54962E-03-1.61686E-02-2.37608E-04
 -1      3020-4.16114E-02-8.34979E-01 1.56205E-07
 -1      3021-5.43644E-02-8.18079E-01-3.18144E-05
 -1      3022-5.02838E-02-4.73084E-01-4.58779E-04
 -1      3023-4.55913E-02-3.63312E-01-5.71583E-04
 -1      3024-1.75970E-02-8.18233E-01-3.15127E-05
 -1      3025 6.51147E-03-1.92603E-02 5.40167E-04
 -1      3026 5.37373E-03-1.19745E-02 5.86491E-04
 -1      3027-3.41930E-02-4.63787E-01-2.11399E-07
 -1      3028-4.49598E-02-4.49200E-01-1.03264E-04
 -1      3029-1.91765E-02-5.13486E-02-1.01502E-03
 -1      3030-3.13529E-02-3.72294E-01-3.95571E-07
 -1      3031-4.24484E-02-3.86033E-01-1.18511E-04
 -1      3032 5.46549E-03-5.66599E-02 2.64422E-04
 -1      3033 5.26582E-03-5.31344E-02 7.82632E-05
 -1      3034 6.70977E-04-4.71511E-02 2.17433E-05
 -1      3035 2.41097E-02-9.55072E-01-2.32727E-07
 -1      3036 1.11950E-02-4.87184E-01 1.18408E-04
 -1      3037 1.11734E-02-4.77772E-01 3.56175E-05
 -1      3038-1.25034E-04-4.62901E-01 1.08100E-05
 -1      3039-1.22898E-02-3.85797E-01-1.18390E-04
 -1      3040-1.60599E-03-3.72220E-01-2.15881E-07
 -1      3041 9.00171E-03-3.85953E-01-1.18422E-04
 -1      3042-7.61069E-03-1.78461E-02-1.10266E-06
 -1      3043-1.13429E-02-2.17390E-02-2.38334E-04
 -1      3044-4.16557E-03-4.17055E-02-2.23459E-04
 -1      3045 5.08956E-03-4.89077E-02 2.67491E-04
 -1      3046-1.23975E-02-4.78503E-02-1.27086E-07
 -1      3047-1.58025E-02-4.24715E-02-2.21708E-04
 -1      3048 1.11841E-02-2.24192E-02 2.11407E-04
 -1      3049 7.55482E-03-1.78721E-02 8.80270E-07
 -1      3050 9.24258E-03-1.46753E-02 2.37709E-04
 -1      3051-1.32333E-02-4.49031E-01-1.03476E-04
 -1      3052 1.11502E-02-4.68044E-01 1.22528E-04
 -1      3053 4.24274E-02-3.63833E-01-5.70358E-04
 -1      3054 3.78966E-02-3.79981E-01 2.67289E-04
 -1      3055 3.80014E-02-3.50753E-01 3.01601E-04
 -1      3056-2.97043E-03-2.09346E-02-2.39397E-04
 -1      3057-1.35593E-02-2.50584E-02 1.09445E-03
 -1      3058-1.49509E-02-3.07697E-02 1.07501E-03
 -1      3059-1.44498E-02-3.34261E-02 5.91077E-04
 -1      3060-9.99012E-03-3.95137E-02 5.73724E-04
 -1      3061-9.19935E-03-3.30139E-02 5.87841E-04
 -1      3062 3.42999E-02-2.30275E-01-1.93775E-04
 -1      3063 3.51211E-02-2.45247E-01-1.88384E-04
 -1      3064 9.59620E-03-2.37294E-01-5.54028E-05
 -1      3065 2.26196E-02-3.79618E-01 2.66928E-04
 -1      3066 2.31472E-02-3.50371E-01 3.01547E-04
 -1      3067 1.89230E-02-5.14485E-02-1.00995E-03
 -1      3068 7.60477E-03-1.94715E-01-1.67356E-04
 -1      3069 8.20499E-03-1.20843E-02-5.52473E-04
 -1      3070 1.06157E-02-1.92157E-02-5.70034E-04
 -1      3071-9.19136E-05-4.74217E-02 7.23385E-07
 -1      3072 4.00179E-03-4.17261E-02-2.20219E-04
 -1      3073 1.12625E-02-2.17703E-02-2.37497E-04
 -1      3074 1.88631E-02-5.75193E-02 2.65467E-04
 -1      3075 9.31349E-03-4.74439E-02 2.33021E-05
 -1      3076 3.07898E-02-1.95414E-01-1.67501E-04
 -1      3077-5.54269E-03-7.38384E-02 2.08708E-04
 -1      3078 4.47679E-02-7.11660E-01-5.34692E-05
 -1      3079 8.91683E-03-7.00715E-01-1.39327E-05
 -1      3080 4.46183E-02-6.90509E-01-5.62991E-05
 -1      3081-3.96479E-02-7.05933E-01-3.45438E-07
 -1      3082-4.00115E-02-7.27177E-01-1.95166E-07
 -1      3083-5.20639E-02-6.89818E-01-5.62198E-05
 -1      3084-5.25165E-02-7.10961E-01-5.38795E-05
 -1      3085-1.65096E-02-7.00533E-01-1.38729E-05
 -1      3086-3.98808E-03-7.27334E-01-1.92497E-07
 -1      3087-3.83603E-03-7.06078E-01-2.88208E-07
 -1      3088 8.95024E-03-6.90051E-01-5.65676E-05
 -1      3089 8.87790E-03-7.11215E-01-5.34028E-05
 -1      3090-1.66209E-02-7.11031E-01-5.28923E-05
 -1      3091-1.63896E-02-6.89871E-01-5.63003E-05
 -1      3092-1.80354E-02-6.47630E-01-7.93127E-05
 -1      3093-5.33952E-03-6.21718E-01-7.13878E-06
 -1      3094-1.79098E-02-6.37376E-01-2.46725E-05
 -1      3095 1.11958E-02-6.47836E-01-7.98093E-05
 -1      3096-1.13633E-03-6.21747E-01-7.36526E-06
 -1      3097 1.12128E-02-6.37581E-01-2.47361E-05
 -1      3098 4.63678E-02-6.48329E-01-7.96698E-05
 -1      3099 2.36136E-02-6.22005E-01-7.16855E-06
 -1      3100-5.32144E-02-6.47628E-01-7.97649E-05
 -1      3101-3.00920E-02-6.21631E-01-7.27923E-06
 -1      3102-2.07148E-02-7.45317E-02 2.07388E-04
 -1      3103 5.86896E-03-9.82053E-02-1.98506E-04
 -1      3104 2.31163E-02-9.89700E-02-1.99650E-04
 -1      3105 3.77028E-02-3.42245E-01 1.27822E-04
 -1      3106 8.82926E-03-3.41620E-01 1.27917E-04
 -1      3107-2.95375E-02-1.61774E-01 1.75408E-04
 -1      3108-8.10132E-03-1.61240E-01 1.76413E-04
 -1      3109-1.67497E-02-7.33126E-01-1.29263E-05
 -1      3110-5.30634E-02-7.43634E-01-4.63079E-05
 -1      3111-2.93559E-02-7.16842E-01-5.34103E-05
 -1      3112 8.68731E-03-7.33310E-01-1.29668E-05
 -1      3113 4.48423E-02-7.44343E-01-4.60548E-05
 -1      3114 2.15263E-02-7.17208E-01-5.34804E-05
 -1      3115 8.64150E-03-7.43916E-01-4.69782E-05
 -1      3116-1.68571E-02-7.43730E-01-4.64641E-05
 -1      3117-1.20735E-02-2.32390E-02 6.10110E-04
 -1      3118-7.67983E-03-2.27882E-02 6.05791E-04
 -1      3119-7.81449E-03-3.08761E-02 2.93098E-04
 -1      3120-3.20843E-02-1.95112E-01-1.67471E-04
 -1      3121 2.03749E-02-7.46628E-02 2.07111E-04
 -1      3122 5.23900E-03-7.38702E-02 2.07860E-04
 -1      3123-2.64934E-05-1.73830E-02 1.00838E-06
 -1      3124 2.89682E-03-2.09352E-02-2.35448E-04
 -1      3125 2.85406E-02-1.62034E-01 1.75168E-04
 -1      3126-8.82715E-03-1.94658E-01-1.66775E-04
 -1      3127 1.56299E-02-4.25484E-02-2.20891E-04
 -1      3128 1.76259E-02-4.97794E-02 2.69955E-04
 -1      3129-6.36127E-03-9.81154E-02-2.00427E-04
 -1      3130-2.36304E-02-9.87653E-02-2.00938E-04
 -1      3131-1.13314E-02-2.44684E-01-1.84949E-04
 -1      3132-1.10234E-02-2.29700E-01-1.89908E-04
 -1      3133-1.13021E-02-2.37234E-01-5.61175E-05
 -1      3134 3.26731E-02-1.78088E-01-7.91141E-04
 -1      3135 3.91510E-02-3.86554E-01-1.16361E-04
 -1      3136 1.03122E-02-3.07788E-01 1.66993E-04
 -1      3137 1.02445E-02-2.99861E-01 5.02682E-05
 -1      3138 4.82529E-04-2.87437E-01 1.36193E-05
 -1      3139-5.54242E-02-6.32464E-01 3.11267E-04
 -1      3140 4.87918E-02-6.33194E-01 3.12093E-04
 -1      3141 2.39460E-02-8.60735E-02-9.38041E-04
 -1      3142 2.04424E-03-9.96697E-03 2.43221E-04
 -1      3143-1.27817E-02-3.07654E-01 1.67551E-04
 -1      3144-1.26188E-02-2.99729E-01 5.04851E-05
 -1      3145-2.73825E-03-2.87367E-01 1.40150E-05
 -1      3146-2.43614E-02-8.59143E-02 9.37197E-04
 -1      3147 7.18183E-03-1.61295E-01 1.76824E-04
 -1      3148 3.81012E-02-3.08462E-01 1.67418E-04
 -1      3149 1.97690E-02-2.87669E-01 1.40513E-05
 -1      3150-4.05822E-02-3.08017E-01 1.67390E-04
 -1      3151-2.20299E-02-2.87483E-01 1.41152E-05
 -1      3152-9.87815E-04-5.20592E-04-6.78102E-07
 -1      3153-1.01652E-03-5.07227E-04 1.39185E-04
 -1      3154-2.30495E-03-1.43340E-03 7.31111E-05
 -1      3155-2.35510E-03-1.41859E-03 3.28638E-04
 -1      3156-8.66895E-04-3.96736E-04 1.44590E-04
 -1      3157 2.40978E-02-8.60804E-02 9.42128E-04
 -1      3158-3.38192E-02-1.77789E-01-7.91612E-04
 -1      3159 1.05470E-02-1.98117E-02 5.38043E-04
 -1      3160 8.57356E-03-1.25459E-02 5.79456E-04
 -1      3161-2.44224E-02-8.59158E-02-9.41457E-04
 -1      3162-2.29130E-02-8.00175E-01 1.97740E-05
 -1      3163-2.61856E-02-7.70029E-01 5.76600E-05
 -1      3164-2.24898E-02-7.61616E-01 2.19047E-05
 -1      3165-4.47390E-02-7.69970E-01 5.77212E-05
 -1      3166-4.59563E-02-4.42912E-01 2.70486E-04
 -1      3167-1.77036E-02-4.33655E-01 5.72709E-05
 -1      3168-3.65477E-02-4.26355E-01 1.51977E-04
 -1      3169-4.65686E-02-4.11341E-01 3.13812E-04
 -1      3170-1.89710E-02-4.02286E-01 7.22754E-05
 -1      3171-2.79908E-02-4.18508E-01 1.60921E-04
 -1      3172 5.06479E-03-1.15084E-02-5.57409E-04
 -1      3173 6.63473E-03-1.86261E-02-5.73352E-04
 -1      3174 3.96220E-02-2.96365E-01-6.44359E-04
 -1      3175-4.19600E-02-2.95923E-01-6.42795E-04
 -1      3176-1.54276E-02-6.06684E-01 7.24052E-05
 -1      3177 1.12262E-02-6.27110E-01-8.40115E-05
 -1      3178 9.16125E-03-6.06854E-01 7.29819E-05
 -1      3179-1.77746E-02-6.26908E-01-8.36103E-05
 -1      3180-5.00468E-02-6.06703E-01 7.16230E-05
 -1      3181-5.26837E-02-6.26926E-01-8.40142E-05
 -1      3182 4.37731E-02-6.07353E-01 7.21203E-05
 -1      3183 4.61278E-02-6.27617E-01-8.39063E-05
 -1      3184-3.38191E-02-1.77790E-01 7.89822E-04
 -1      3185-1.05489E-02-2.75678E-01-1.45561E-04
 -1      3186 1.01655E-02-2.91489E-01 1.71307E-04
 -1      3187 8.37711E-03-2.75700E-01-1.44123E-04
 -1      3188-1.25043E-02-2.91326E-01 1.72424E-04
 -1      3189-4.91087E-02-8.76992E-01 2.11788E-05
 -1      3190-1.19691E-02-8.66311E-01 3.80491E-06
 -1      3191-5.61820E-02-8.43434E-01 3.20257E-05
 -1      3192-1.91681E-02-8.32781E-01 9.34476E-06
 -1      3193-2.63096E-02-8.52952E-01 2.35963E-05
 -1      3194 3.28732E-02-1.78094E-01 7.94222E-04
 -1      3195 3.50735E-02-2.76357E-01-1.44475E-04
 -1      3196 3.73910E-02-2.92140E-01 1.70871E-04
 -1      3197 7.89474E-03-1.08586E-02 2.38421E-04
 -1      3198-3.72080E-02-2.76017E-01-1.43349E-04
 -1      3199-3.96912E-02-2.91712E-01 1.72569E-04
 -1      3200-1.64124E-02-3.72885E-02 1.05509E-03
 -1      3201-1.58019E-02-4.01621E-02 5.79830E-04
 -1      3202 2.68860E-02-9.45370E-01 2.36276E-05
 -1      3203 2.68982E-02-9.11508E-01 3.46498E-05
 -1      3204 4.28181E-03-3.56611E-03 2.55574E-04
 -1      3205 3.81658E-03-4.65202E-03-1.71255E-05
 -1      3206 6.57949E-03-7.75378E-03 2.44152E-04
 -1      3207-6.07739E-03-9.84419E-01-2.26163E-07
 -1      3208-2.39671E-02-9.84289E-01-4.10840E-06
 -1      3209-1.11054E-02-9.76400E-01-7.80940E-07
 -1      3210-2.89917E-02-9.76272E-01-4.23946E-06
 -1      3211-2.83603E-02-9.60704E-01-1.03714E-05
 -1      3212-4.58972E-03-2.57499E-02 1.21796E-04
 -1      3213-5.78708E-03-2.77583E-02 3.25275E-04
 -1      3214-5.45124E-03-3.64636E-02 1.19037E-04
 -1      3215 2.96808E-03-3.00633E-03-1.93500E-05
 -1      3216 3.15158E-03-2.19348E-03-2.41463E-04
 -1      3217 4.30605E-03-3.53974E-03-2.65119E-04
 -1      3218 1.20414E-02-9.83891E-01 4.49359E-06
 -1      3219 1.72200E-02-9.77337E-01 4.52009E-06
 -1      3220-5.71896E-05-9.61631E-01 2.96099E-06
 -1      3221 1.80435E-02-9.61106E-01 1.20711E-05
 -1      3222 3.13858E-03-2.21073E-03 2.28084E-04
 -1      3223 3.30631E-02-9.36166E-01-8.15379E-07
 -1      3224 3.31464E-02-9.19185E-01-1.19615E-06
 -1      3225 4.60842E-02-9.49334E-01 1.01090E-05
 -1      3226 4.61630E-02-9.32343E-01 1.25389E-05
 -1      3227-1.53173E-02-9.08364E-01-1.36940E-06
 -1      3228-5.37454E-02-8.98785E-01-1.47711E-05
 -1      3229-3.06226E-02-9.20573E-01-1.37978E-05
 -1      3230-2.17518E-03-4.63780E-01-3.26181E-07
 -1      3231 9.51176E-03-4.50196E-01-1.07663E-04
 -1      3232-9.71710E-04-6.96786E-02 1.64232E-05
 -1      3233-9.78749E-03-6.98380E-02 1.60316E-05
 -1      3234-1.22286E-03-2.69484E-03 2.77078E-04
 -1      3235 1.05170E-04-4.10233E-03-1.46273E-05
 -1      3236-1.72068E-03-6.84100E-03 2.52907E-04
 -1      3237 1.05113E-04-2.49756E-03-1.84647E-05
 -1      3238 1.21622E-03-2.63259E-03-2.76751E-04
 -1      3239 9.12734E-04-1.34657E-03-2.58018E-04
 -1      3240-5.58511E-02-8.21712E-01 3.60253E-05
 -1      3241-4.63165E-02-4.52347E-01 1.17340E-04
 -1      3242-1.46654E-02-4.61791E-01 3.18846E-05
 -1      3243-4.70152E-02-4.71261E-01 1.13133E-04
 -1      3244-4.45600E-02-3.66747E-01 1.60501E-04
 -1      3245-1.51010E-02-3.75478E-01 4.89551E-05
 -1      3246-4.53810E-02-3.84403E-01 1.55982E-04
 -1      3247-1.79917E-02-7.18798E-01 5.77425E-05
 -1      3248-1.82246E-02-7.40130E-01 5.44103E-05
 -1      3249-1.81123E-02-7.29540E-01 1.64837E-05
 -1      3250-5.44038E-02-7.40043E-01 5.40274E-05
 -1      3251-5.39684E-02-7.18729E-01 5.72402E-05
 -1      3252-1.49297E-02-3.66442E-01 1.65240E-04
 -1      3253-1.52579E-02-3.84119E-01 1.60903E-04
 -1      3254-1.45166E-02-4.52164E-01 1.16407E-04
 -1      3255-1.48009E-02-4.71099E-01 1.12862E-04
 -1      3256-1.68087E-02-8.98997E-01-1.44169E-05
 -1      3257-5.98679E-02-8.45741E-01-1.27627E-04
 -1      3258 4.37344E-02-4.87764E-01 1.18581E-04
 -1      3259 2.28612E-02-4.64206E-01 9.19243E-06
 -1      3260 3.20544E-02-8.35522E-01 3.69597E-07
 -1      3261 3.20061E-02-8.57292E-01 6.72949E-07
 -1      3262 4.73957E-02-8.68089E-01-2.91777E-05
 -1      3263 1.04260E-02-8.56858E-01-9.26642E-06
 -1      3264 4.74058E-02-8.46289E-01-3.31880E-05
 -1      3265-8.81598E-04-1.38967E-03 2.54510E-04
 -1      3266-1.43545E-02-6.84838E-01 4.63153E-05
 -1      3267-1.44686E-02-6.95479E-01 1.01112E-05
 -1      3268-2.86311E-02-7.08199E-01 5.35357E-05
 -1      3269-4.99666E-02-6.84777E-01 4.66678E-05
 -1      3270-1.05961E-02-2.80533E-02 3.27654E-04
 -1      3271-4.89671E-02-8.66081E-01 5.19763E-05
 -1      3272-5.60160E-02-8.32570E-01 7.65667E-05
 -1      3273-1.06672E-02-1.53920E-02-1.13074E-03
 -1      3274-2.82458E-03-1.54162E-02 2.75896E-04
 -1      3275-3.20209E-03-2.00850E-02 2.70887E-04
 -1      3276-3.01020E-03-1.81180E-02 7.71314E-05
 -1      3277-4.63665E-03-4.28353E-02 2.51438E-04
 -1      3278-1.00525E-02-1.63212E-02 2.75376E-04
 -1      3279-1.14151E-02-2.09294E-02 2.70869E-04
 -1      3280-1.64258E-02-4.36324E-02 2.52197E-04
 -1      3281 3.42854E-03-2.38341E-03 5.47254E-04
 -1      3282 2.15603E-03-1.81396E-03 5.71637E-04
 -1      3283 4.40212E-03-2.88067E-03 1.07365E-03
 -1      3284 5.75153E-03-5.94860E-03 5.76096E-04
 -1      3285 3.56075E-03-5.36323E-03 5.87870E-04
 -1      3286 4.69775E-02-9.49840E-01-9.04872E-06
 -1      3287 8.91585E-03-9.19882E-01-5.28469E-06
 -1      3288 4.47260E-02-9.27815E-01-1.75729E-05
 -1      3289 2.27814E-02-9.33537E-01-1.59607E-05
 -1      3290 4.61002E-02-9.45540E-01 2.36583E-05
 -1      3291 4.97587E-02-9.36351E-01 5.21057E-05
 -1      3292 4.60712E-02-9.11686E-01 3.01380E-05
 -1      3293-5.74959E-02-9.44553E-01 2.28011E-05
 -1      3294-4.94984E-02-9.10864E-01 3.33397E-05
 -1      3295-9.65685E-04-4.50866E-04-1.40133E-04
 -1      3296-8.52387E-04-4.03009E-04-1.56509E-04
 -1      3297-2.33302E-03-1.41353E-03-3.08739E-04
 -1      3298-8.66031E-04-4.34211E-04-3.15800E-05
 -1      3299-2.66890E-02-9.76292E-01-5.46034E-07
 -1      3300-2.74763E-02-9.76895E-01 2.35458E-06
 -1      3301 4.58080E-02-4.73705E-01-4.59296E-04
 -1      3302 5.14191E-04-2.81909E-04 7.98176E-05
 -1      3303 1.51240E-03-1.42743E-03-8.61036E-06
 -1      3304-6.08643E-03-7.13487E-03-2.13157E-04
 -1      3305-1.13161E-03-5.53985E-03-3.82089E-05
 -1      3306-2.48937E-03-4.14213E-03-2.48194E-04
 -1      3307-1.99339E-02-9.76338E-01-1.70375E-06
 -1      3308-5.28500E-02-7.32921E-01-1.15639E-04
 -1      3309-5.22886E-02-7.00340E-01-1.30670E-04
 -1      3310 4.47848E-02-7.33627E-01-1.15529E-04
 -1      3311 4.46930E-02-7.01034E-01-1.30696E-04
 -1      3312 2.63802E-02-7.33381E-01-1.15465E-04
 -1      3313 2.64518E-02-7.00776E-01-1.30959E-04
 -1      3314-3.44419E-02-7.32941E-01-1.15144E-04
 -1      3315-3.40436E-02-7.00342E-01-1.30575E-04
 -1      3316-1.45343E-03-6.29806E-03-2.16324E-04
 -1      3317 1.21728E-02-9.83893E-01-4.07488E-06
 -1      3318-5.94613E-03-9.84421E-01 2.87000E-07
 -1      3319 8.34527E-04-9.62136E-01-3.03458E-06
 -1      3320 1.82437E-02-9.77843E-01-4.23007E-06
 -1      3321 1.89360E-02-9.61611E-01-1.21114E-05
 -1      3322-3.44428E-03-2.38569E-03 5.55247E-04
 -1      3323-2.17531E-03-1.82953E-03 5.78698E-04
 -1      3324-4.41127E-03-2.87257E-03 1.07756E-03
 -1      3325-5.72702E-03-5.91221E-03 5.82884E-04
 -1      3326-3.54407E-03-5.35142E-03 5.91200E-04
 -1      3327-1.92841E-02-8.43603E-01 3.16565E-05
 -1      3328-4.95747E-03-8.56965E-01-7.36710E-09
 -1      3329 1.03483E-02-8.67724E-01-2.99546E-05
 -1      3330-3.93457E-03-8.43501E-01-1.60538E-06
 -1      3331-1.90586E-02-8.21864E-01 3.54819E-05
 -1      3332 1.04814E-02-8.45909E-01-3.38803E-05
 -1      3333 9.76439E-03-9.49522E-01-1.03654E-05
 -1      3334-4.97731E-03-9.54730E-01-3.17362E-07
 -1      3335-4.67770E-02-4.97500E-01 9.45604E-05
 -1      3336-1.38979E-02-4.87891E-01 2.59155E-05
 -1      3337-2.63633E-02-4.76177E-01 1.13657E-04
 -1      3338-1.18268E-02-3.50314E-01 3.22307E-05
 -1      3339-4.05621E-02-3.41791E-01 1.28419E-04
 -1      3340-2.53287E-02-3.62069E-01 1.64959E-04
 -1      3341-1.40245E-02-4.97379E-01 9.50811E-05
 -1      3342-1.16791E-02-3.41501E-01 1.28250E-04
 -1      3343 4.12516E-02-4.50773E-01-1.07049E-04
 -1      3344 4.32886E-02-4.68635E-01 1.22879E-04
 -1      3345 9.89458E-04-4.87009E-04-1.37903E-04
 -1      3346 9.61139E-04-5.00131E-04-1.40741E-06
 -1      3347 2.33609E-03-1.39709E-03-3.33705E-04
 -1      3348 2.28521E-03-1.40977E-03-7.91348E-05
 -1      3349 8.20784E-04-3.68610E-04-1.41422E-04
 -1      3350-3.82845E-02-9.44669E-01 2.35613E-05
 -1      3351-6.08144E-02-9.35317E-01 5.06899E-05
 -1      3352-3.03428E-02-9.10972E-01 3.02418E-05
 -1      3353-2.77906E-04 6.28738E-05 1.46363E-04
 -1      3354 3.03954E-05 8.67935E-05-2.26168E-05
 -1      3355 1.09154E-03-7.34771E-04-3.76799E-04
 -1      3356 1.63719E-04-1.57948E-04-4.17121E-05
 -1      3357 2.80897E-04-6.04723E-04-8.34455E-05
 -1      3358 6.24801E-03-7.37361E-03-2.20414E-04
 -1      3359 1.52027E-03-5.74044E-03-6.71070E-05
 -1      3360 2.62618E-03-4.22289E-03-2.71085E-04
 -1      3361-6.38252E-02-9.84017E-01 3.61225E-07
 -1      3362-6.38168E-02-9.83352E-01-3.57334E-06
 -1      3363-5.68669E-02-9.60524E-01-2.64441E-06
 -1      3364-5.68594E-02-9.59856E-01-1.08348E-05
 -1      3365-4.03259E-02-9.76195E-01-3.57190E-06
 -1      3366 1.48153E-03-6.50277E-03-2.18132E-04
 -1      3367-2.30602E-03-8.87694E-01 1.81928E-06
 -1      3368 3.32971E-03-3.41896E-02 2.00816E-04
 -1      3369-3.82517E-03-3.50208E-02-2.28173E-04
 -1      3370-4.23320E-04-3.92051E-02-1.07958E-05
 -1      3371-3.57482E-04-2.99895E-02-1.09370E-05
 -1      3372-7.10462E-03-3.08934E-02-2.40624E-04
 -1      3373-3.31977E-03-2.62729E-02-2.33678E-04
 -1      3374-1.20725E-02-8.77194E-01 1.14221E-05
 -1      3375 4.38481E-02-7.94142E-01 3.39033E-05
 -1      3376 2.01033E-02-8.09640E-01-1.33134E-06
 -1      3377 4.50200E-02-7.97125E-01-3.66955E-05
 -1      3378 4.49326E-02-7.65797E-01-4.20385E-05
 -1      3379 2.13425E-02-7.81179E-01-4.09824E-05
 -1      3380 2.01879E-02-7.78228E-01-1.53507E-06
 -1      3381 7.25207E-03-7.93746E-01 3.39834E-05
 -1      3382-1.73878E-02-7.96535E-01-3.62918E-05
 -1      3383-5.75435E-03-8.09416E-01-1.22487E-06
 -1      3384-5.51930E-03-7.78002E-01-1.48653E-06
 -1      3385-3.00995E-02-7.80804E-01-4.09974E-05
 -1      3386-1.70775E-02-7.65194E-01-4.18293E-05
 -1      3387 6.38368E-03-3.08811E-02 1.98847E-04
 -1      3388 2.99719E-03-2.70276E-02 2.05837E-04
 -1      3389-2.96057E-04-2.33203E-02-1.07739E-05
 -1      3390 1.46844E-03-6.10138E-02 3.56814E-05
 -1      3391 2.10262E-02-4.97134E-01 1.62442E-05
 -1      3392 2.17593E-02-6.58482E-01-1.05797E-05
 -1      3393-7.58538E-03-6.58210E-01-1.04473E-05
 -1      3394 5.96136E-04-6.58268E-01-1.07517E-05
 -1      3395-2.87505E-02-6.58126E-01-1.07931E-05
 -1      3396 1.40248E-03-4.96907E-01 1.60079E-05
 -1      3397 2.91306E-05 9.26316E-05 2.03478E-05
 -1      3398-2.80083E-04 6.75457E-05-1.49794E-04
 -1      3399 2.57193E-04-6.29507E-04 7.33731E-05
 -1      3400 1.51912E-04-1.66069E-04 3.54378E-05
 -1      3401 1.07441E-03-7.55912E-04 3.65498E-04
 -1      3402 4.38773E-02-7.68492E-01 3.76000E-05
 -1      3403 1.91150E-02-7.80912E-01 3.45828E-05
 -1      3404 2.03311E-02-7.52657E-01-1.91175E-06
 -1      3405 7.47702E-03-7.68081E-01 3.75240E-05
 -1      3406-5.22801E-03-7.52430E-01-1.65467E-06
 -1      3407 1.97159E-03-3.16196E-01 2.26877E-05
 -1      3408 2.57164E-04-8.66921E-03 1.63262E-05
 -1      3409-2.34800E-02-8.87555E-01 1.53911E-06
 -1      3410 9.75806E-03-6.12606E-02 3.70552E-05
 -1      3411-3.19753E-02-6.95293E-01 1.19371E-04
 -1      3412-3.57890E-02-7.29354E-01 1.25207E-04
 -1      3413-5.01878E-02-6.95285E-01 1.18383E-04
 -1      3414-5.41851E-02-7.29339E-01 1.25772E-04
 -1      3415-2.20772E-03-1.22261E-02 6.23869E-05
 -1      3416-7.87391E-03-1.08233E-02 2.46096E-04
 -1      3417-5.11445E-03-1.46729E-02 2.81212E-04
 -1      3418-2.13595E-02-3.16198E-01 2.29366E-05
 -1      3419 5.15319E-02-9.84213E-01 4.00443E-06
 -1      3420 5.15300E-02-9.84878E-01-1.13074E-07
 -1      3421 4.60172E-02-9.61345E-01 1.14662E-05
 -1      3422 4.60148E-02-9.62013E-01 3.33150E-06
 -1      3423 2.87235E-02-9.77431E-01 3.86540E-06
 -1      3424 1.24479E-02-2.78325E-02 2.05996E-04
 -1      3425 1.39037E-02-3.49799E-02 2.00772E-04
 -1      3426 1.25576E-02-2.71091E-02-2.33449E-04
 -1      3427 6.59286E-03-3.02102E-02-1.07386E-05
 -1      3428 5.85020E-03-2.35439E-02-9.82161E-06
 -1      3429 1.87918E-02-3.16435E-01 2.29158E-05
 -1      3430-4.53641E-03-3.16159E-01 2.30480E-05
 -1      3431-3.94888E-03-2.52311E-01-2.67461E-05
 -1      3432 1.74704E-02-2.52530E-01-2.58120E-05
 -1      3433-3.47943E-03-8.87262E-03 1.43459E-05
 -1      3434-2.04187E-03-9.94805E-03 2.45725E-04
 -1      3435-1.29015E-02-4.30387E-01-1.07608E-04
 -1      3436-2.88794E-03-4.19730E-01-5.48014E-06
 -1      3437 8.05688E-03-4.06401E-01 1.00381E-04
 -1      3438-1.25078E-02-4.03785E-01-1.12821E-04
 -1      3439-2.70465E-03-3.93363E-01-5.40439E-06
 -1      3440-2.36637E-02-4.17144E-01-1.15424E-04
 -1      3441 7.48893E-03-3.94373E-02-1.09401E-05
 -1      3442 1.43957E-02-3.58557E-02-2.27585E-04
 -1      3443 6.98185E-03-3.09098E-02-2.38549E-04
 -1      3444-1.17620E-02-9.77006E-01 9.13132E-07
 -1      3445-2.91483E-02-9.61309E-01 1.10864E-05
 -1      3446 3.36269E-04 6.92211E-05-2.04694E-04
 -1      3447 5.82242E-04-2.23097E-04-1.77413E-04
 -1      3448-4.94917E-02-5.86336E-01 7.63113E-05
 -1      3449-2.56422E-02-5.96563E-01 5.79940E-06
 -1      3450-4.74491E-02-5.81485E-01-6.37381E-05
 -1      3451-5.06953E-02-5.56843E-01 1.00542E-04
 -1      3452-2.71893E-02-5.66917E-01 1.36570E-05
 -1      3453-2.91691E-02-5.71688E-01 9.85944E-05
 -1      3454 7.29928E-03-5.81602E-01-6.37243E-05
 -1      3455-4.97815E-03-5.96639E-01 5.55091E-06
 -1      3456-1.51793E-02-5.86299E-01 7.64237E-05
 -1      3457-1.68489E-02-5.56759E-01 1.00560E-04
 -1      3458-6.80225E-03-5.66972E-01 1.38035E-05
 -1      3459 4.61612E-02-8.77705E-01 1.14202E-05
 -1      3460 2.45030E-02-8.77265E-01-8.09374E-06
 -1      3461-2.07764E-02-4.26257E-01 1.52646E-04
 -1      3462-5.24331E-03-4.17118E-01 2.77664E-05
 -1      3463-2.03720E-02-4.07939E-01 1.58241E-04
 -1      3464 5.95020E-04-2.01780E-01-1.18502E-05
 -1      3465 7.64610E-03-2.08526E-01-1.60186E-04
 -1      3466-8.10033E-03-2.11792E-01 1.34282E-04
 -1      3467 2.02077E-03-2.22527E-01-2.67218E-05
 -1      3468 9.36539E-03-2.29554E-01-1.89140E-04
 -1      3469 1.80259E-02-2.19301E-01-1.96846E-04
 -1      3470-3.30462E-02-2.08901E-01-1.59930E-04
 -1      3471-1.61445E-02-2.01838E-01-1.15271E-05
 -1      3472-3.19745E-02-2.12213E-01 1.33524E-04
 -1      3473-3.59383E-02-2.29971E-01-1.88885E-04
 -1      3474-1.83571E-02-2.22636E-01-2.70635E-05
 -1      3475-1.95394E-02-2.19153E-01-1.96977E-04
 -1      3476-1.98314E-03-2.01759E-01-1.25876E-05
 -1      3477-9.09294E-03-2.08633E-01-1.61147E-04
 -1      3478-3.61267E-03-2.22544E-01-2.77913E-05
 -1      3479-2.01975E-02-9.48690E-01 1.00239E-05
 -1      3480-2.03284E-02-9.31689E-01 1.30960E-05
 -1      3481 7.39894E-03-9.10505E-01-1.70740E-05
 -1      3482-7.16059E-03-9.32696E-01 1.04375E-06
 -1      3483 7.56095E-03-9.27487E-01-1.46702E-05
 -1      3484-2.04686E-02-5.92267E-02 9.93464E-04
 -1      3485-2.17891E-02-6.76199E-02 9.74852E-04
 -1      3486-2.01176E-02-6.99578E-02 5.00941E-04
 -1      3487-1.25917E-02-6.94922E-02 5.01033E-04
 -1      3488 3.34437E-03-8.77089E-01-8.32486E-06
 -1      3489-3.19525E-02-8.15879E-01 2.13787E-06
 -1      3490-3.10566E-02-7.46003E-01 2.32128E-06
 -1      3491-5.53180E-03-7.46136E-01 2.59617E-06
 -1      3492 8.18922E-04-4.13322E-04 2.83313E-05
 -1      3493 2.29046E-03-1.38390E-03 3.05570E-04
 -1      3494 4.47915E-02-9.10846E-01-2.17348E-05
 -1      3495-2.59977E-02-3.89253E-01 1.58223E-05
 -1      3496-2.55899E-02-4.47203E-01 6.04710E-06
 -1      3497 3.16204E-02-2.09219E-01-1.64848E-04
 -1      3498 1.47536E-02-2.01992E-01-1.15148E-05
 -1      3499 1.67574E-02-2.22765E-01-2.66191E-05
 -1      3500 8.55761E-03-4.28061E-01 9.89472E-05
 -1      3501 1.83783E-02-4.17466E-01 9.33171E-05
 -1      3502-2.57513E-03-4.41602E-01-2.66766E-06
 -1      3503 4.50533E-02-8.18811E-01-3.26070E-05
 -1      3504 8.23704E-03-8.29333E-01-7.67968E-06
 -1      3505 2.35114E-02-8.40067E-01-3.60537E-05
 -1      3506-2.87295E-03-4.48245E-01 3.98254E-06
 -1      3507-1.04700E-03-7.24308E-04 3.55264E-04
 -1      3508-5.38730E-04-2.45664E-04 1.47803E-04
 -1      3509 4.24277E-02-3.63833E-01 5.69615E-04
 -1      3510 4.99173E-02-7.59878E-01-2.01406E-04
 -1      3511 4.49915E-02-7.86290E-01-9.21835E-05
 -1      3512 2.63639E-02-7.86062E-01-9.25650E-05
 -1      3513 2.63849E-02-7.54791E-01-1.06461E-04
 -1      3514 4.48867E-02-7.55029E-01-1.06008E-04
 -1      3515-5.83619E-02-7.59089E-01-2.01121E-04
 -1      3516-5.38229E-02-7.85567E-01-9.21032E-05
 -1      3517-3.51922E-02-7.85612E-01-9.21765E-05
 -1      3518-3.47573E-02-7.54346E-01-1.05750E-04
 -1      3519-5.32623E-02-7.54315E-01-1.05971E-04
 -1      3520 5.00124E-02-7.81415E-01-1.84450E-04
 -1      3521 2.63315E-02-8.07718E-01-8.22854E-05
 -1      3522-5.87715E-02-7.80620E-01-1.84067E-04
 -1      3523-3.54774E-02-8.07263E-01-8.17562E-05
 -1      3524-5.91616E-02-8.02244E-01-1.65273E-04
 -1      3525-5.41858E-02-8.07206E-01-8.26025E-05
 -1      3526 5.00854E-02-8.03045E-01-1.65855E-04
 -1      3527 4.50359E-02-8.07935E-01-8.27578E-05
 -1      3528-4.62869E-03-3.89258E-01 1.80881E-05
 -1      3529-3.40533E-04-2.17568E-02 1.39465E-05
 -1      3530-4.81025E-02-4.16994E-01-5.15908E-04
 -1      3531-4.89011E-02-4.35438E-01-4.98099E-04
 -1      3532-2.81460E-02-4.21135E-01-2.63152E-04
 -1      3533-2.86530E-02-4.39645E-01-2.53758E-04
 -1      3534-4.46044E-02-4.39792E-01-2.52894E-04
 -1      3535 2.18087E-03-1.78219E-03-5.89592E-04
 -1      3536 3.43458E-03-2.35309E-03-5.65020E-04
 -1      3537 4.39624E-03-2.87335E-03-1.07557E-03
 -1      3538 3.31618E-03-5.04595E-03-5.56279E-04
 -1      3539 5.43517E-03-5.60729E-03-5.48830E-04
 -1      3540-8.60167E-03-4.14594E-02 1.36196E-05
 -1      3541-4.11143E-02-9.76802E-01 8.29211E-07
 -1      3542-5.76563E-02-9.61126E-01 1.04537E-05
 -1      3543 1.12689E-02-5.60681E-01-1.00070E-04
 -1      3544-2.71843E-03-5.46206E-01-2.63954E-07
 -1      3545 2.14826E-02-5.70954E-01-8.51735E-05
 -1      3546-5.08542E-02-5.62110E-01-9.96846E-05
 -1      3547-2.72839E-02-5.72169E-01-8.49169E-05
 -1      3548-3.07337E-02-5.47668E-01-1.81913E-07
 -1      3549-4.92971E-04-4.12224E-02 1.33579E-05
 -1      3550 1.06258E-02-1.54181E-02 1.12844E-03
 -1      3551 4.69080E-02-9.62515E-01-1.04482E-05
 -1      3552 2.96163E-02-9.77938E-01-7.11360E-07
 -1      3553-1.35855E-02-2.51561E-02-1.09260E-03
 -1      3554-1.50156E-02-3.08875E-02-1.07245E-03
 -1      3555-7.50967E-03-2.36751E-02-5.64916E-04
 -1      3556-1.33058E-02-2.97979E-02-5.53583E-04
 -1      3557-1.20033E-02-2.41994E-02-5.64207E-04
 -1      3558 1.12512E-02-1.03852E-01-1.38693E-05
 -1      3559-6.29202E-03-2.20261E-02 1.44041E-05
 -1      3560 9.48502E-03-6.99009E-02 1.60159E-05
 -1      3561 6.69830E-04-6.96861E-02 1.54189E-05
 -1      3562-4.28873E-03-5.07283E-01 6.85572E-06
 -1      3563-1.67128E-03-6.79523E-01-4.61851E-06
 -1      3564 1.96422E-02-6.79727E-01-4.22334E-06
 -1      3565-5.62038E-03-6.79494E-01-4.35634E-06
 -1      3566-2.69352E-02-6.79396E-01-4.56617E-06
 -1      3567-2.40354E-02-5.07234E-01 7.19458E-06
 -1      3568 2.11982E-04-3.33230E-01 9.79999E-06
 -1      3569-2.01158E-02-3.33230E-01 9.38305E-06
 -1      3570 1.73599E-02-3.33450E-01 9.85787E-06
 -1      3571-2.96542E-03-3.33218E-01 9.79828E-06
 -1      3572 7.08535E-04-1.03636E-01-1.44307E-05
 -1      3573-1.18296E-02-1.03723E-01-1.52181E-05
 -1      3574-1.64084E-03-1.55199E-01 1.38382E-05
 -1      3575 1.33241E-02-1.55430E-01 1.35535E-05
 -1      3576-1.42505E-02-1.55304E-01 1.33677E-05
 -1      3577-1.28654E-03-1.03592E-01-1.60629E-05
 -1      3578-3.56842E-02-2.26115E-01 1.95819E-04
 -1      3579-1.82173E-02-2.18748E-01 1.71500E-04
 -1      3580-2.17422E-02-2.36808E-01 1.16242E-07
 -1      3581-1.11757E-02-2.25639E-01 1.96697E-04
 -1      3582-8.49441E-04-2.36644E-01 1.21266E-07
 -1      3583 7.16795E-04-1.55217E-01 1.34137E-05
 -1      3584 3.45596E-04 5.71491E-05 2.03795E-04
 -1      3585 5.93200E-04-2.41504E-04 1.68260E-04
 -1      3586 5.02194E-02-8.90513E-01 9.21597E-05
 -1      3587 4.98423E-02-9.13410E-01 7.16092E-05
 -1      3588 4.61358E-02-8.88797E-01 3.98847E-05
 -1      3589 2.73195E-02-8.88614E-01 4.36951E-05
 -1      3590-1.67174E-02-5.46936E-01 3.02092E-05
 -1      3591 7.32105E-03-5.71632E-01-1.48338E-05
 -1      3592 1.12693E-02-5.50837E-01-3.02650E-05
 -1      3593-5.74724E-02-7.16358E-01 2.38897E-04
 -1      3594 5.51836E-02-9.84907E-01-2.92784E-06
 -1      3595 3.32693E-02-9.77966E-01-4.40860E-06
 -1      3596 4.61147E-02-8.98522E-01 9.98110E-06
 -1      3597-2.51936E-02-9.84280E-01 4.70619E-06
 -1      3598-3.10064E-02-9.76868E-01 4.34149E-06
 -1      3599 2.17644E-03-3.45630E-02 2.08454E-05
 -1      3600-4.99614E-03-3.54438E-02-5.42175E-05
 -1      3601-4.34062E-03-2.67103E-02-5.48485E-05
 -1      3602 1.06328E-02-1.54394E-02-1.12824E-03
 -1      3603 4.38809E-02-8.15819E-01 2.87280E-05
 -1      3604 1.96789E-03-2.74110E-02 2.17422E-05
 -1      3605 3.96828E-02-4.04538E-01-1.11275E-04
 -1      3606 1.94331E-02-4.15043E-01-8.41388E-06
 -1      3607 3.97152E-02-4.28626E-01 8.89052E-05
 -1      3608 4.07758E-02-4.32120E-01-1.12199E-04
 -1      3609 2.00625E-02-4.42862E-01-1.11305E-05
 -1      3610 2.04303E-02-4.18445E-01-1.18726E-04
 -1      3611 3.19415E-03-7.93768E-01 3.80436E-06
 -1      3612-2.14540E-02-7.96564E-01-8.96122E-06
 -1      3613-2.11177E-02-7.65235E-01-9.82722E-06
 -1      3614 4.34264E-03-7.96743E-01-8.48012E-06
 -1      3615 4.51626E-03-7.65406E-01-1.01723E-05
 -1      3616 2.21058E-03-2.66362E-02-5.46173E-05
 -1      3617-1.31044E-02-5.71493E-01-1.47600E-05
 -1      3618-1.67912E-02-5.52180E-01-3.01254E-05
 -1      3619 4.39324E-02-3.98889E-01-5.37386E-04
 -1      3620 4.45122E-02-4.17073E-01-5.18362E-04
 -1      3621 2.41957E-02-3.94590E-01-2.78840E-04
 -1      3622 3.99364E-02-4.13565E-01-2.64996E-04
 -1      3623 3.94176E-02-3.95441E-01-2.74565E-04
 -1      3624-8.10700E-03-2.19265E-01 3.03997E-05
 -1      3625-1.12192E-02-2.33326E-01 5.58651E-05
 -1      3626 9.92702E-04-4.96434E-04 1.51398E-04
 -1      3627 8.66448E-04-4.00652E-04 1.66395E-04
 -1      3628 1.62763E-02-3.73656E-02-1.05389E-03
 -1      3629 1.49383E-02-3.10668E-02-1.07536E-03
 -1      3630 1.50378E-02-3.91251E-02-5.40509E-04
 -1      3631 8.58225E-03-3.20496E-02-5.46656E-04
 -1      3632 9.31206E-03-3.84655E-02-5.34739E-04
 -1      3633 3.44169E-03-7.68111E-01 3.95984E-06
 -1      3634 2.52806E-03-3.53890E-02-5.30723E-05
 -1      3635-1.50598E-02-5.76315E-01 2.04419E-05
 -1      3636-6.57531E-02-9.84004E-01 3.23961E-06
 -1      3637-4.30438E-02-9.76788E-01 4.39977E-06
 -1      3638-9.34926E-03-2.15884E-01-4.24351E-05
 -1      3639 1.87337E-02-3.93629E-01-3.20306E-06
 -1      3640 7.85968E-03-2.15977E-01-4.23410E-05
 -1      3641 1.34785E-02-2.51099E-02-1.09403E-03
 -1      3642 1.37471E-02-3.24703E-02-5.51477E-04
 -1      3643 7.42555E-03-2.36927E-02-5.61881E-04
 -1      3644 1.18900E-02-2.41392E-02-5.66090E-04
 -1      3645-1.64287E-02-4.30575E-01-2.61210E-05
 -1      3646 4.60440E-03-4.06574E-01 1.05380E-05
 -1      3647-1.59600E-02-4.03985E-01-2.61055E-05
 -1      3648 6.03147E-03-5.10030E-03 1.13135E-03
 -1      3649 4.50086E-03-8.40061E-03 5.92847E-04
 -1      3650-5.18013E-04-3.05874E-04-6.16312E-05
 -1      3651-5.98693E-02-8.45742E-01 1.27566E-04
 -1      3652-3.01047E-02-8.66168E-01 4.60697E-05
 -1      3653-3.72248E-02-8.32636E-01 7.70100E-05
 -1      3654 4.50972E-02-4.36537E-01-5.00033E-04
 -1      3655 2.44998E-02-4.13709E-01-2.68606E-04
 -1      3656 4.10142E-02-4.41349E-01-2.57978E-04
 -1      3657 2.52404E-02-4.41509E-01-2.60764E-04
 -1      3658-6.08415E-02-8.89053E-01 9.22829E-05
 -1      3659-6.11277E-02-9.12161E-01 7.06979E-05
 -1      3660-4.92346E-02-8.87761E-01 4.32625E-05
 -1      3661-3.06899E-02-8.87855E-01 3.99618E-05
 -1      3662 3.64581E-03-9.13599E-03 6.89473E-06
 -1      3663-5.48596E-04-2.50833E-04-1.49837E-04
 -1      3664-1.05397E-03-7.37384E-04-3.54951E-04
 -1      3665 3.86770E-02-4.06978E-01 1.00273E-04
 -1      3666-1.43909E-04-8.89666E-03 9.58558E-06
 -1      3667-1.24346E-02-8.98022E-01 1.04797E-05
 -1      3668 6.99474E-04-8.99035E-01-5.92804E-06
 -1      3669 7.62151E-03-7.99532E-03 1.15160E-03
 -1      3670 7.21035E-03-9.01427E-03 5.84563E-04
 -1      3671-6.02034E-03-5.09243E-03 1.13552E-03
 -1      3672-7.18320E-03-8.96740E-03 5.91536E-04
 -1      3673 5.04384E-03-4.28219E-01 9.23154E-06
 -1      3674-2.99637E-02-4.42760E-01 2.71023E-04
 -1      3675-1.41687E-02-4.33478E-01 1.21366E-04
 -1      3676-1.55234E-02-4.02083E-01 1.53557E-04
 -1      3677-7.69909E-03-8.01655E-03 1.16137E-03
 -1      3678-4.52870E-03-8.42858E-03 6.00635E-04
 -1      3679 4.99185E-02-7.59877E-01 2.02478E-04
 -1      3680 5.00139E-02-7.81414E-01 1.84953E-04
 -1      3681 4.38637E-02-8.04949E-01 7.94297E-05
 -1      3682 2.52046E-02-7.83089E-01 8.78629E-05
 -1      3683 4.38201E-02-7.83315E-01 8.86539E-05
 -1      3684 5.00840E-02-8.03045E-01 1.66009E-04
 -1      3685 2.51701E-02-8.04731E-01 7.93571E-05
 -1      3686 2.53245E-02-7.57485E-01 9.96557E-05
 -1      3687 4.38376E-02-7.57718E-01 9.95664E-05
 -1      3688-3.62426E-02-4.17209E-01 2.80599E-05
 -1      3689-4.55977E-02-4.33680E-01 1.22209E-04
 -1      3690-4.49123E-02-7.80759E-01 1.04058E-05
 -1      3691-5.48158E-02-7.61472E-01 4.89547E-05
 -1      3692-8.42736E-03-7.80924E-01 9.89790E-06
 -1      3693-1.84531E-02-7.61576E-01 4.88100E-05
 -1      3694-1.14399E-03-3.06189E-02 5.90775E-05
 -1      3695-3.58658E-03-2.53292E-02 2.65155E-04
 -1      3696-1.11480E-02-3.11692E-02 5.91804E-05
 -1      3697-1.27711E-02-2.61656E-02 2.67084E-04
 -1      3698-5.67062E-02-9.44053E-01-2.27486E-05
 -1      3699-3.74969E-02-9.44064E-01-2.24784E-05
 -1      3700-6.08161E-02-9.35422E-01-5.09327E-05
 -1      3701-5.38933E-02-9.11948E-01-3.27656E-05
 -1      3702-3.47263E-02-9.11950E-01-3.36547E-05
 -1      3703 1.35028E-02-2.52079E-02 1.09038E-03
 -1      3704 8.16838E-03-3.12305E-02 5.15604E-04
 -1      3705 1.32891E-02-3.17464E-02 5.16955E-04
 -1      3706 1.18194E-02-2.49274E-02 5.29440E-04
 -1      3707 7.27107E-03-2.44021E-02 5.29298E-04
 -1      3708 1.49105E-02-3.09507E-02 1.07172E-03
 -1      3709 1.45077E-02-3.80881E-02 5.06171E-04
 -1      3710 1.62489E-02-3.72386E-02 1.04992E-03
 -1      3711 8.87269E-03-3.75719E-02 5.04564E-04
 -1      3712 2.02184E-02-5.93405E-02-9.93184E-04
 -1      3713 1.13078E-02-6.74862E-02-4.49598E-04
 -1      3714 2.14892E-02-6.77484E-02-9.73999E-04
 -1      3715 1.87200E-02-6.79745E-02-4.51257E-04
 -1      3716-5.69929E-02-6.95175E-01 2.56428E-04
 -1      3717-4.97326E-02-6.74238E-01 1.27017E-04
 -1      3718-5.64912E-02-6.74124E-01 2.75474E-04
 -1      3719-3.16391E-02-6.74235E-01 1.27494E-04
 -1      3720 4.94723E-02-6.95936E-01 2.57497E-04
 -1      3721 4.25111E-02-6.74893E-01 1.28692E-04
 -1      3722-5.59693E-02-6.53217E-01 2.94315E-04
 -1      3723 4.92720E-02-6.74875E-01 2.76341E-04
 -1      3724 2.44198E-02-6.74633E-01 1.27429E-04
 -1      3725 4.90438E-02-6.53958E-01 2.95430E-04
 -1      3726 4.62745E-02-4.92907E-01-4.41875E-04
 -1      3727 2.35905E-02-5.12084E-01-1.95742E-04
 -1      3728 4.67162E-02-5.12337E-01-4.23155E-04
 -1      3729 4.04225E-02-5.12397E-01-1.96144E-04
 -1      3730-5.10014E-02-4.92270E-01-4.41678E-04
 -1      3731-4.54074E-02-5.11830E-01-1.95473E-04
 -1      3732-5.16968E-02-5.11686E-01-4.22840E-04
 -1      3733-2.85696E-02-5.11739E-01-1.96257E-04
 -1      3734 2.27311E-02-7.66636E-02-9.55127E-04
 -1      3735 3.06588E-02-1.52432E-01-8.27504E-04
 -1      3736 3.16782E-02-1.65050E-01-8.07955E-04
 -1      3737 1.60260E-02-1.52171E-01-3.82120E-04
 -1      3738 2.66763E-02-1.52613E-01-3.82419E-04
 -1      3739 4.17680E-02-3.46500E-01-5.87699E-04
 -1      3740 3.56551E-02-3.29589E-01-2.80746E-04
 -1      3741 4.10795E-02-3.29472E-01-6.06704E-04
 -1      3742 2.11362E-02-3.29215E-01-2.80519E-04
 -1      3743-4.47269E-02-3.45998E-01-5.88711E-04
 -1      3744-3.83663E-02-3.29160E-01-2.81562E-04
 -1      3745-2.56166E-02-9.57949E-02 9.20057E-04
 -1      3746-2.34539E-02-1.06379E-01 4.16632E-04
 -1      3747-2.68498E-02-1.06153E-01 9.00715E-04
 -1      3748-1.43513E-02-1.05981E-01 4.17943E-04
 -1      3749-4.37911E-02-3.28987E-01-6.06819E-04
 -1      3750-2.38402E-02-3.28954E-01-2.80410E-04
 -1      3751-2.31433E-02-7.65217E-02-9.58616E-04
 -1      3752-1.90164E-02-6.78604E-02-4.52630E-04
 -1      3753-2.18343E-02-6.76213E-02-9.77185E-04
 -1      3754-1.16444E-02-6.74172E-02-4.53305E-04
 -1      3755-2.05114E-02-5.92264E-02-9.97650E-04
 -1      3756-4.28846E-02-3.12292E-01-6.25987E-04
 -1      3757 4.03653E-02-3.12759E-01-6.25693E-04
 -1      3758-3.27096E-02-1.64770E-01-8.08742E-04
 -1      3759-2.75882E-02-1.52383E-01-3.84029E-04
 -1      3760 2.65047E-02-1.06336E-01 9.07237E-04
 -1      3761 2.53330E-02-9.59624E-02 9.26779E-04
 -1      3762 1.39788E-02-1.06074E-01 4.22427E-04
 -1      3763 2.28649E-02-1.06551E-01 4.17803E-04
 -1      3764-3.49065E-02-1.91191E-01 7.78075E-04
 -1      3765-3.62185E-02-2.05003E-01 7.64368E-04
 -1      3766-3.15135E-02-2.05178E-01 3.54393E-04
 -1      3767-1.96816E-02-2.04878E-01 3.55652E-04
 -1      3768-3.16715E-02-1.52115E-01-8.30787E-04
 -1      3769-1.70265E-02-1.51976E-01-3.85042E-04
 -1      3770 3.56786E-02-2.19614E-01 7.39200E-04
 -1      3771 1.81950E-02-2.05126E-01 3.53501E-04
 -1      3772 3.38448E-02-1.91530E-01 7.78922E-04
 -1      3773 3.00784E-02-2.05486E-01 3.50644E-04
 -1      3774 5.67463E-03-4.04107E-01-2.66903E-05
 -1      3775 6.01095E-03-4.31689E-01-2.73185E-05
 -1      3776 3.47678E-02-2.05425E-01 7.59420E-04
 -1      3777-3.21945E-02-5.96399E-01 1.77426E-04
 -1      3778-4.97677E-02-5.96451E-01 1.77580E-04
 -1      3779-5.42691E-02-5.91454E-01 3.49467E-04
 -1      3780-3.36523E-02-5.66733E-01 2.14566E-04
 -1      3781-5.09937E-02-5.66812E-01 2.13804E-04
 -1      3782 3.75052E-02-2.49218E-01 7.06651E-04
 -1      3783 3.30281E-02-2.64604E-01 3.16895E-04
 -1      3784 5.02484E-02-8.68506E-01 1.11251E-04
 -1      3785 3.83203E-02-2.64552E-01 6.86823E-04
 -1      3786 1.99436E-02-2.64321E-01 3.18977E-04
 -1      3787 6.02610E-03-5.09156E-03-1.13336E-03
 -1      3788 4.22283E-03-8.00761E-03-5.62499E-04
 -1      3789-2.18601E-03-1.85025E-03-5.76424E-04
 -1      3790-3.46708E-03-2.41224E-03-5.49793E-04
 -1      3791-4.41626E-03-2.87891E-03-1.07617E-03
 -1      3792-3.20233E-03-4.86705E-03-5.40892E-04
 -1      3793-5.28250E-03-5.41088E-03-5.31126E-04
 -1      3794 1.92942E-02-2.01788E-01-3.93333E-04
 -1      3795 3.12078E-02-2.02211E-01-3.96141E-04
 -1      3796 3.46572E-02-2.05350E-01-7.59853E-04
 -1      3797 2.14831E-02-2.22551E-01-4.24110E-04
 -1      3798 3.38853E-02-2.22986E-01-4.27919E-04
 -1      3799-2.06850E-02-2.01676E-01-3.94394E-04
 -1      3800-3.25664E-02-2.01915E-01-3.93058E-04
 -1      3801-3.61002E-02-2.05114E-01-7.57430E-04
 -1      3802-2.30814E-02-2.22464E-01-4.25046E-04
 -1      3803-3.54516E-02-2.22704E-01-4.24720E-04
 -1      3804-6.01843E-02-8.67369E-01 1.10988E-04
 -1      3805-3.01869E-02-5.91536E-01-1.61508E-04
 -1      3806-4.77172E-02-5.91582E-01-1.61920E-04
 -1      3807-5.42682E-02-5.91453E-01-3.48851E-04
 -1      3808-3.46800E-02-6.16537E-01-1.88814E-04
 -1      3809-5.24060E-02-6.16588E-01-1.88741E-04
 -1      3810-2.80699E-02-6.16670E-01-7.52791E-05
 -1      3811 2.41279E-02-5.91910E-01-1.61909E-04
 -1      3812 4.16537E-02-5.92198E-01-1.61941E-04
 -1      3813 4.82069E-02-5.92159E-01-3.49262E-04
 -1      3814 2.82740E-02-6.16975E-01-1.89159E-04
 -1      3815 4.59951E-02-6.17274E-01-1.88823E-04
 -1      3816 2.16617E-02-6.17016E-01-7.54085E-05
 -1      3817-2.74165E-02-3.94735E-01-2.77531E-04
 -1      3818-4.42528E-02-4.30576E-01-1.07757E-04
 -1      3819-4.31978E-02-4.04001E-01-1.13897E-04
 -1      3820-4.35608E-02-4.13020E-01-2.66692E-04
 -1      3821-4.28203E-02-3.94912E-01-2.76262E-04
 -1      3822 7.61486E-03-7.98158E-03-1.15343E-03
 -1      3823 6.86103E-03-8.59286E-03-5.60343E-04
 -1      3824-2.69448E-02-1.19719E-01 5.07362E-04
 -1      3825-1.73434E-02-1.19287E-01 5.08427E-04
 -1      3826-1.37727E-02-1.19532E-01 2.03281E-04
 -1      3827 2.78846E-02-1.37783E-01-4.90827E-04
 -1      3828 1.76882E-02-1.37290E-01-4.91048E-04
 -1      3829 1.38880E-02-1.37501E-01-1.96054E-04
 -1      3830-5.40110E-02-7.96398E-01-3.64906E-05
 -1      3831-5.34650E-02-7.65080E-01-4.25895E-05
 -1      3832 8.40143E-03-7.96725E-01-3.70148E-05
 -1      3833 8.55016E-03-7.65380E-01-4.24047E-05
 -1      3834-9.45993E-03-3.84209E-02-5.37345E-04
 -1      3835-8.29265E-03-2.92786E-02-5.51939E-04
 -1      3836-1.45350E-02-3.57910E-02-2.25369E-04
 -1      3837-1.51664E-02-3.89245E-02-5.38465E-04
 -1      3838-1.26602E-02-2.70705E-02-2.32138E-04
 -1      3839-5.36579E-02-5.71216E-01 3.66574E-04
 -1      3840-5.30255E-02-5.51169E-01 3.84842E-04
 -1      3841-3.32115E-02-5.46722E-01 2.25081E-04
 -1      3842-5.03819E-02-5.46814E-01 2.25552E-04
 -1      3843 4.87927E-02-6.33193E-01-3.13084E-04
 -1      3844 4.85116E-02-6.12591E-01-3.31785E-04
 -1      3845 4.62474E-02-6.37907E-01-1.78145E-04
 -1      3846 2.83834E-02-6.37619E-01-1.77733E-04
 -1      3847-5.48558E-02-6.11873E-01-3.31434E-04
 -1      3848-3.50782E-02-6.37174E-01-1.77356E-04
 -1      3849-5.54245E-02-6.32463E-01-3.12724E-04
 -1      3850-5.29467E-02-6.37211E-01-1.78036E-04
 -1      3851 2.85308E-02-1.28492E-01-8.63377E-04
 -1      3852 2.96085E-02-1.40242E-01-8.45090E-04
 -1      3853 2.68572E-02-1.26139E-01-5.02449E-04
 -1      3854 1.70472E-02-1.25638E-01-5.01385E-04
 -1      3855-2.80624E-02-1.16981E-01 8.83134E-04
 -1      3856-2.92568E-02-1.28264E-01 8.64233E-04
 -1      3857-2.80751E-02-1.31099E-01 4.96857E-04
 -1      3858-1.80829E-02-1.30682E-01 4.96897E-04
 -1      3859 2.62626E-02-1.19912E-01 5.07197E-04
 -1      3860 1.68909E-02-1.19393E-01 5.13741E-04
 -1      3861 1.30645E-02-1.19630E-01 2.02881E-04
 -1      3862-2.86853E-02-1.37519E-01-4.91385E-04
 -1      3863-1.85730E-02-1.37055E-01-4.94864E-04
 -1      3864-1.46744E-02-1.37349E-01-1.96830E-04
 -1      3865 2.76298E-02-1.17163E-01 8.89233E-04
 -1      3866 1.75347E-02-1.30781E-01 5.01723E-04
 -1      3867-3.05171E-02-1.39945E-01-8.48435E-04
 -1      3868-2.75647E-02-1.25893E-01-5.03081E-04
 -1      3869 3.70215E-02-2.83972E-01 3.81891E-04
 -1      3870 2.35676E-02-2.83663E-01 3.84375E-04
 -1      3871 1.81390E-02-2.83724E-01 1.51850E-04
 -1      3872 3.96227E-02-2.96370E-01 6.43630E-04
 -1      3873 3.88455E-02-2.80231E-01 6.64665E-04
 -1      3874 2.37187E-02-2.99765E-01 3.68544E-04
 -1      3875 3.77469E-02-3.00182E-01 3.69202E-04
 -1      3876 2.87452E-02-1.28462E-01 8.70317E-04
 -1      3877 2.73032E-02-1.31308E-01 4.96785E-04
 -1      3878-3.50549E-02-2.64278E-01 3.18016E-04
 -1      3879-2.18971E-02-2.64025E-01 3.18288E-04
 -1      3880-4.02489E-02-2.64093E-01 6.87002E-04
 -1      3881-3.92334E-02-2.83586E-01 3.83901E-04
 -1      3882-2.57022E-02-2.83313E-01 3.83127E-04
 -1      3883-2.03763E-02-2.83511E-01 1.51817E-04
 -1      3884 3.55678E-02-2.19570E-01-7.42873E-04
 -1      3885 3.47137E-02-2.37664E-01-4.16428E-04
 -1      3886 3.69380E-03-3.50383E-02-2.25305E-04
 -1      3887 9.12070E-03-4.03946E-01-1.13688E-04
 -1      3888 9.53307E-03-4.31535E-01-1.13470E-04
 -1      3889 3.64025E-02-2.34134E-01-7.23627E-04
 -1      3890 2.19415E-02-2.37202E-01-4.12755E-04
 -1      3891-3.71471E-02-2.19286E-01-7.39317E-04
 -1      3892-3.64243E-02-2.37332E-01-4.12192E-04
 -1      3893-4.20658E-02-2.95913E-01 6.47163E-04
 -1      3894-4.12226E-02-2.79832E-01 6.67463E-04
 -1      3895-4.01347E-02-2.99741E-01 3.70311E-04
 -1      3896-2.62059E-02-2.99480E-01 3.70949E-04
 -1      3897-2.93049E-02-1.28205E-01-8.65903E-04
 -1      3898-1.77993E-02-1.25408E-01-5.04397E-04
 -1      3899 1.95127E-02-5.96875E-01 6.02955E-06
 -1      3900 4.17837E-02-6.02430E-01-5.99129E-05
 -1      3901 7.25165E-03-6.01946E-01-6.00280E-05
 -1      3902-4.79893E-02-6.01809E-01-6.01317E-05
 -1      3903-1.14939E-03-5.96666E-01 5.77386E-06
 -1      3904-1.34503E-02-6.01803E-01-5.96739E-05
 -1      3905 3.22734E-03-2.62749E-02-2.30406E-04
 -1      3906 4.45437E-02-4.18072E-01 5.17585E-04
 -1      3907 4.39308E-02-3.98889E-01 5.36854E-04
 -1      3908 2.31737E-02-3.97022E-01 2.61107E-04
 -1      3909 3.84225E-02-3.97864E-01 2.58254E-04
 -1      3910 2.34567E-02-4.16179E-01 2.51923E-04
 -1      3911-4.64446E-02-4.87791E-01 2.29931E-04
 -1      3912-4.66641E-02-4.61707E-01 2.59620E-04
 -1      3913 3.61129E-03-4.08031E-02 1.97286E-04
 -1      3914 8.85058E-03-4.63187E-02 2.50490E-04
 -1      3915-4.09582E-02-3.50292E-01 3.01233E-04
 -1      3916-4.49686E-02-3.75455E-01 3.37086E-04
 -1      3917-2.53180E-03-2.68009E-01-1.17283E-05
 -1      3918 6.88069E-03-2.71953E-01 1.17649E-04
 -1      3919-2.98457E-02-4.87674E-01 2.29750E-04
 -1      3920-3.03419E-02-4.61567E-01 2.59746E-04
 -1      3921 4.61446E-04-2.67978E-01-1.11398E-05
 -1      3922-9.03128E-03-2.71836E-01 1.18820E-04
 -1      3923-2.61513E-02-3.50084E-01 3.02325E-04
 -1      3924-2.97831E-02-3.75243E-01 3.39678E-04
 -1      3925-3.80920E-02-2.33878E-01-7.19406E-04
 -1      3926-2.36505E-02-2.37153E-01-4.13025E-04
 -1      3927 1.62374E-02-2.68193E-01-1.09604E-05
 -1      3928 3.33778E-02-2.72545E-01 1.17657E-04
 -1      3929 1.51104E-02-4.15973E-02 1.97801E-04
 -1      3930 8.52546E-03-4.46673E-01 9.46852E-05
 -1      3931 2.18307E-02-4.60575E-01 1.13417E-04
 -1      3932-1.83125E-02-2.68056E-01-1.14759E-05
 -1      3933-3.54892E-02-2.72178E-01 1.18839E-04
 -1      3934-6.02665E-03-5.10335E-03-1.13413E-03
 -1      3935-6.70044E-03-8.35356E-03-5.41433E-04
 -1      3936-6.05571E-02-9.12483E-01-7.04430E-05
 -1      3937-5.36244E-02-8.89057E-01-4.35530E-05
 -1      3938-7.70610E-03-8.03181E-03-1.15866E-03
 -1      3939-4.14199E-03-7.82112E-03-5.53044E-04
 -1      3940-8.55940E-03-1.25237E-02 5.83604E-04
 -1      3941-1.07400E-02-1.84162E-02 6.14969E-04
 -1      3942-6.08457E-02-8.89370E-01-9.19578E-05
 -1      3943-3.50656E-02-8.88834E-01-4.30740E-05
 -1      3944 2.67890E-02-1.25681E-01 2.30610E-04
 -1      3945 2.33609E-02-1.12021E-01 1.57556E-04
 -1      3946 1.28520E-02-1.14763E-01-3.24345E-05
 -1      3947 2.63361E-02-1.20613E-01-2.32945E-04
 -1      3948 1.57373E-02-1.28570E-01 3.91597E-07
 -1      3949-5.74718E-02-7.16358E-01-2.38745E-04
 -1      3950 4.96463E-02-7.17130E-01-2.38976E-04
 -1      3951 2.78164E-02-1.37300E-01 2.25842E-04
 -1      3952 1.40885E-02-1.42966E-01 3.15082E-05
 -1      3953 2.62271E-02-1.46567E-01-1.46956E-04
 -1      3954 2.73768E-02-1.32031E-01-2.27972E-04
 -1      3955-2.81319E-02-1.31775E-01-2.28308E-04
 -1      3956-2.70893E-02-1.46345E-01-1.47975E-04
 -1      3957-1.49423E-02-1.42856E-01 3.09361E-05
 -1      3958-2.86377E-02-1.37082E-01 2.25495E-04
 -1      3959-1.64865E-02-1.28418E-01 4.97424E-10
 -1      3960-5.75475E-03-1.11266E-01 1.57121E-04
 -1      3961 1.82778E-03-1.14515E-01-3.29248E-05
 -1      3962 7.49233E-03-1.19817E-01-2.32367E-04
 -1      3963-8.31456E-03-1.24837E-01 2.31432E-04
 -1      3964-3.64941E-04-1.28247E-01 2.51588E-07
 -1      3965 7.76617E-03-1.31245E-01-2.27248E-04
 -1      3966 5.71234E-03-1.45879E-01-1.46651E-04
 -1      3967-8.67714E-03-1.36462E-01 2.25964E-04
 -1      3968-2.77805E-03-1.42718E-01 3.16810E-05
 -1      3969-2.70016E-02-1.20376E-01-2.33252E-04
 -1      3970-1.35027E-02-1.14625E-01-3.35189E-05
 -1      3971-2.39917E-02-1.11841E-01 1.56138E-04
 -1      3972-2.75170E-02-1.25480E-01 2.30207E-04
 -1      3973-5.34931E-03-1.19510E-02 5.87493E-04
 -1      3974-6.82791E-03-1.78303E-02 6.18372E-04
 -1      3975-6.47983E-03-1.45781E-01-1.45797E-04
 -1      3976 1.92765E-03-1.42727E-01 3.08381E-05
 -1      3977 7.94822E-03-1.36474E-01 2.26349E-04
 -1      3978-8.43090E-03-1.31100E-01-2.26621E-04
 -1      3979-3.81456E-04-1.28202E-01-1.12254E-06
 -1      3980-4.61814E-02-4.02344E-01 1.50101E-04
 -1      3981-5.54974E-02-8.00017E-01 4.09697E-05
 -1      3982-1.88444E-02-8.00152E-01 4.12466E-05
 -1      3983-6.06225E-03-8.16031E-01 2.42280E-06
 -1      3984 7.69704E-03-1.24777E-01 2.32385E-04
 -1      3985 5.22760E-03-1.11203E-01 1.57758E-04
 -1      3986-8.04590E-03-1.19611E-01-2.31172E-04
 -1      3987-2.47720E-03-1.14471E-01-3.45118E-05
 -1      3988-6.05460E-02-8.67367E-01-1.11463E-04
 -1      3989-9.21683E-03-1.14220E-02-1.14944E-03
 -1      3990 5.01308E-02-8.24762E-01 1.46980E-04
 -1      3991-1.51310E-02-3.68626E-02 2.58203E-04
 -1      3992 1.75995E-02-4.40787E-02 1.02999E-03
 -1      3993 1.57010E-02-4.49716E-02 4.96976E-04
 -1      3994 1.90221E-02-5.13893E-02 1.01826E-03
 -1      3995 9.69506E-03-4.43992E-02 5.00461E-04
 -1      3996 4.97939E-02-7.38446E-01 2.21915E-04
 -1      3997 4.01798E-02-4.47230E-01 8.58703E-05
 -1      3998 2.19025E-02-8.99208E-01-8.56815E-06
 -1      3999-4.26378E-03-3.60609E-02 2.57342E-04
 -1      4000 4.58081E-02-4.73705E-01 4.60399E-04
 -1      4001 4.04007E-02-4.56570E-01 2.24577E-04
 -1      4002 2.41552E-02-4.56235E-01 2.28663E-04
 -1      4003 2.70220E-02-4.77754E-01 2.62913E-04
 -1      4004 4.35113E-02-4.78104E-01 2.63166E-04
 -1      4005 1.20882E-02-2.00144E-02 1.11251E-03
 -1      4006 3.75018E-03-4.46919E-02 4.81011E-05
 -1      4007-1.68984E-04-2.31527E-04-3.68614E-05
 -1      4008 1.15446E-02-5.46255E-01 1.06669E-04
 -1      4009 2.34714E-02-5.41325E-01 1.08730E-04
 -1      4010 9.24278E-03-5.26443E-01 8.88867E-05
 -1      4011-1.66450E-02-5.42062E-01-1.04888E-04
 -1      4012-4.67966E-03-5.37089E-01-8.57635E-06
 -1      4013-2.51145E-03-5.57008E-01 1.01284E-06
 -1      4014 4.69936E-02-9.45940E-01-2.34412E-05
 -1      4015 4.47382E-02-9.23916E-01-3.61139E-05
 -1      4016 7.22607E-03-6.12304E-01-1.40227E-05
 -1      4017-1.35701E-02-6.12160E-01-1.39227E-05
 -1      4018 8.53705E-03-4.56244E-01 2.16469E-05
 -1      4019-9.11383E-03-2.80004E-01 2.73646E-05
 -1      4020 6.93111E-03-2.80090E-01 2.72045E-05
 -1      4021 4.56215E-02-4.55259E-01 4.80393E-04
 -1      4022 2.42173E-02-4.38006E-01 2.40043E-04
 -1      4023 1.82442E-02-5.34357E-02 5.83137E-04
 -1      4024 1.17205E-02-5.28214E-02 5.86367E-04
 -1      4025 4.25374E-02-5.26980E-01 8.87615E-05
 -1      4026 4.51987E-02-5.46807E-01 1.06399E-04
 -1      4027 4.48195E-02-5.41277E-01-1.05338E-04
 -1      4028 2.56102E-02-5.55783E-01 1.19433E-06
 -1      4029 2.31552E-02-5.35862E-01-8.57245E-06
 -1      4030 4.50977E-02-4.36537E-01 4.99261E-04
 -1      4031 3.99484E-02-4.37837E-01 2.33072E-04
 -1      4032 8.29226E-03-8.18424E-01-3.30492E-05
 -1      4033 4.33203E-02-3.80982E-01 5.55902E-04
 -1      4034 9.14305E-03-1.14164E-02-1.14521E-03
 -1      4035 4.55433E-02-5.66808E-01 1.01153E-04
 -1      4036 2.17937E-02-5.76608E-01 1.47458E-05
 -1      4037 4.15237E-02-5.82095E-01-6.32494E-05
 -1      4038 4.51678E-02-5.61222E-01-1.00201E-04
 -1      4039 7.73044E-03-1.31004E-01 6.69103E-05
 -1      4040 5.22358E-03-1.17108E-01 3.57553E-05
 -1      4041 7.62643E-03-1.25832E-01-6.72975E-05
 -1      4042-8.34484E-03-1.25735E-01-6.77723E-05
 -1      4043-6.43966E-03-1.40096E-01-3.44659E-05
 -1      4044-8.51041E-03-1.30949E-01 6.75394E-05
 -1      4045 5.61919E-03-1.40145E-01-3.40605E-05
 -1      4046-5.90350E-03-1.17060E-01 3.61046E-05
 -1      4047-2.64262E-02-5.27112E-01 1.53262E-05
 -1      4048-5.00728E-02-5.36949E-01 1.05684E-04
 -1      4049-4.57157E-02-5.21669E-01-7.26028E-05
 -1      4050-2.65252E-02-5.32254E-01-9.35090E-05
 -1      4051-5.02383E-02-5.42162E-01-1.04957E-04
 -1      4052-4.73009E-02-3.98820E-01-5.34282E-04
 -1      4053-4.89014E-02-4.35437E-01 4.98484E-04
 -1      4054 9.58053E-03-2.44536E-01-1.84282E-04
 -1      4055 2.06428E-03-2.52295E-01-2.60440E-05
 -1      4056-8.83053E-03-2.56280E-01 1.23338E-04
 -1      4057-1.14899E-02-2.40518E-01 1.90250E-04
 -1      4058-1.92291E-02-2.48306E-01 1.62038E-04
 -1      4059-1.93630E-02-2.52387E-01-2.60541E-05
 -1      4060-3.69104E-02-2.44926E-01-1.84353E-04
 -1      4061-3.46255E-02-2.56642E-01 1.23019E-04
 -1      4062-3.66622E-02-2.40973E-01 1.89948E-04
 -1      4063-1.63847E-02-3.71646E-02-1.05207E-03
 -1      4064 1.15517E-02-5.66267E-01 1.00909E-04
 -1      4065-1.69215E-02-5.62030E-01-9.94680E-05
 -1      4066-1.32175E-02-5.81461E-01-6.30550E-05
 -1      4067 1.31927E-03-5.76386E-01 1.48613E-05
 -1      4068-6.81781E-04-5.16674E-01 6.50440E-06
 -1      4069-1.25055E-02-5.21592E-01-7.29098E-05
 -1      4070 3.94698E-02-4.19361E-01 2.41779E-04
 -1      4071-1.65715E-02-5.36844E-01 1.05996E-04
 -1      4072-6.45372E-03-5.27152E-01 1.50325E-05
 -1      4073 7.39768E-03-5.21725E-01-7.27752E-05
 -1      4074 1.12618E-02-5.40725E-01-1.05835E-04
 -1      4075 2.12627E-02-5.31057E-01-9.39028E-05
 -1      4076 2.79627E-02-5.70901E-01-2.13186E-04
 -1      4077 4.53302E-02-5.71215E-01-2.13286E-04
 -1      4078 4.51590E-02-5.61067E-01-3.41412E-04
 -1      4079-4.99186E-02-5.32205E-01-2.33138E-04
 -1      4080-3.28792E-02-5.32104E-01-2.33487E-04
 -1      4081-5.02249E-02-5.41999E-01-3.55810E-04
 -1      4082 4.50570E-02-8.29666E-01-7.30413E-05
 -1      4083 4.74000E-02-8.57189E-01-6.90588E-05
 -1      4084 2.62845E-02-8.29455E-01-7.34590E-05
 -1      4085 2.85467E-02-8.56986E-01-6.91978E-05
 -1      4086 4.49933E-02-5.51168E-01-2.23839E-04
 -1      4087 2.77970E-02-5.50846E-01-2.23952E-04
 -1      4088-5.05440E-02-5.52054E-01-2.22706E-04
 -1      4089-3.33286E-02-5.51966E-01-2.22705E-04
 -1      4090-4.49458E-02-4.49015E-01-3.97812E-04
 -1      4091-5.30513E-02-7.43550E-01-1.77163E-04
 -1      4092 4.48331E-02-7.44260E-01-1.77361E-04
 -1      4093-4.24343E-02-3.85823E-01-4.50353E-04
 -1      4094-5.43518E-02-8.18022E-01-1.24887E-04
 -1      4095 5.01512E-02-8.46554E-01-1.28973E-04
 -1      4096 4.50436E-02-8.18753E-01-1.25380E-04
 -1      4097-1.57891E-02-4.20757E-02-8.53251E-04
 -1      4098-3.71373E-02-2.48401E-01 4.08236E-04
 -1      4099-2.42858E-02-2.48099E-01 4.08448E-04
 -1      4100-3.66522E-02-2.40739E-01 6.40330E-04
 -1      4101 2.41594E-02-1.09460E-01-1.94441E-04
 -1      4102 1.37690E-02-1.12048E-01-2.38417E-04
 -1      4103-3.61742E-02-2.33446E-01 4.20290E-04
 -1      4104-2.37141E-02-2.33132E-01 4.20614E-04
 -1      4105 1.56211E-02-4.21519E-02-8.51419E-04
 -1      4106-1.13429E-02-2.13541E-02-9.07562E-04
 -1      4107 1.92388E-02-6.58867E-02 2.12337E-04
 -1      4108 1.06875E-02-6.31501E-02 2.63579E-04
 -1      4109 9.24148E-03-5.06848E-01 9.30901E-05
 -1      4110 2.28867E-02-5.01746E-01 1.15903E-04
 -1      4111 4.44415E-02-6.69492E-01-6.09381E-05
 -1      4112 2.37342E-02-6.63472E-01-7.67944E-05
 -1      4113 9.01558E-03-6.69024E-01-6.14796E-05
 -1      4114-5.15876E-02-6.68810E-01-6.10671E-05
 -1      4115-3.07953E-02-6.63086E-01-7.66736E-05
 -1      4116-1.61553E-02-6.68845E-01-6.10150E-05
 -1      4117-4.74159E-02-5.16967E-01 9.04283E-05
 -1      4118-2.81776E-02-5.22337E-01 1.10393E-04
 -1      4119 4.21658E-02-5.07394E-01 9.29028E-05
 -1      4120 1.91718E-02-5.16886E-01 6.15893E-06
 -1      4121-1.42878E-02-5.16865E-01 9.06051E-05
 -1      4122-2.84975E-02-1.49291E-01 1.80571E-04
 -1      4123-1.62295E-02-1.45659E-01 2.24984E-04
 -1      4124 2.76071E-02-1.49534E-01 1.80375E-04
 -1      4125 1.53495E-02-1.45788E-01 2.24398E-04
 -1      4126 1.15528E-02-5.56395E-01 3.10470E-05
 -1      4127 9.24152E-03-5.36475E-01 2.24924E-05
 -1      4128-2.47500E-02-1.09238E-01-1.95815E-04
 -1      4129-1.43786E-02-1.11867E-01-2.40017E-04
 -1      4130 6.11593E-03-1.08704E-01-1.93879E-04
 -1      4131-7.79023E-03-1.48737E-01 1.81003E-04
 -1      4132 4.34995E-02-5.86975E-01 7.69637E-05
 -1      4133 2.37167E-02-5.81427E-01 9.86784E-05
 -1      4134 9.19450E-03-5.86466E-01 7.69453E-05
 -1      4135 8.73814E-03-3.24673E-01 1.32717E-04
 -1      4136 2.04304E-02-3.20365E-01 1.65273E-04
 -1      4137-1.13929E-02-3.24559E-01 1.33023E-04
 -1      4138-2.30441E-02-3.20114E-01 1.65220E-04
 -1      4139 7.90364E-03-1.04379E-02 9.37337E-04
 -1      4140 3.70776E-02-3.25306E-01 1.32794E-04
 -1      4141-3.97430E-02-3.24869E-01 1.32639E-04
 -1      4142-1.06748E-02-1.54137E-02 1.12846E-03
 -1      4143-7.88174E-03-1.03978E-02 9.41351E-04
 -1      4144 4.96252E-03-6.50906E-02 2.12764E-04
 -1      4145 3.07808E-02-1.95118E-01-6.34539E-04
 -1      4146-5.20504E-02-6.89717E-01-2.17014E-04
 -1      4147 4.46080E-02-6.90407E-01-2.17303E-04
 -1      4148 4.37643E-02-6.07224E-01 2.78144E-04
 -1      4149 4.75155E-02-5.51848E-01 3.86695E-04
 -1      4150 4.25291E-02-5.26823E-01 3.39033E-04
 -1      4151 4.27098E-02-5.36801E-01 2.06794E-04
 -1      4152 2.56459E-02-5.36484E-01 2.06906E-04
 -1      4153-5.00345E-02-6.06574E-01 2.77359E-04
 -1      4154-5.02839E-02-4.73084E-01 4.59010E-04
 -1      4155-4.67638E-02-4.97331E-01 3.60591E-04
 -1      4156-2.07006E-02-7.41621E-02 7.95235E-04
 -1      4157 3.76934E-02-3.42016E-01 4.90872E-04
 -1      4158 2.31071E-02-9.86168E-02-7.56157E-04
 -1      4159-2.95231E-02-1.61462E-01 6.73257E-04
 -1      4160 8.18543E-03-2.60054E-01-1.46972E-04
 -1      4161 1.90390E-02-2.56139E-01-1.85819E-04
 -1      4162-4.55909E-02-3.63312E-01 5.70370E-04
 -1      4163-4.05482E-02-3.41563E-01 4.90532E-04
 -1      4164-3.83216E-02-2.33785E-01 7.27548E-04
 -1      4165 6.99372E-03-1.48760E-01 1.81920E-04
 -1      4166-3.20700E-02-1.94816E-01-6.34673E-04
 -1      4167 3.43440E-02-2.60719E-01-1.50451E-04
 -1      4168-3.63126E-02-2.60395E-01-1.47205E-04
 -1      4169-2.09481E-02-2.56024E-01-1.85975E-04
 -1      4170 1.12652E-02-2.13857E-02-9.05231E-04
 -1      4171-6.60092E-03-1.08506E-01-1.93372E-04
 -1      4172-1.01144E-02-2.60217E-01-1.47535E-04
 -1      4173 2.85317E-02-1.61722E-01 6.72805E-04
 -1      4174 2.03653E-02-7.42936E-02 7.94300E-04
 -1      4175-3.71965E-02-2.75794E-01-5.52254E-04
 -1      4176-2.36162E-02-9.84116E-02-7.58490E-04
 -1      4177 3.50670E-02-2.76134E-01-5.51702E-04
 -1      4178-5.18229E-02-6.79260E-01-1.40164E-04
 -1      4179-3.36973E-02-6.79253E-01-1.40346E-04
 -1      4180 2.64071E-02-6.79680E-01-1.40695E-04
 -1      4181 4.23518E-02-5.17105E-01 2.16166E-04
 -1      4182 4.45288E-02-6.79946E-01-1.40219E-04
 -1      4183 2.54718E-02-5.16782E-01 2.16480E-04
 -1      4184 2.60685E-02-5.96800E-01 1.78288E-04
 -1      4185 4.36365E-02-5.97096E-01 1.78136E-04
 -1      4186-4.70937E-02-5.07149E-01 2.20446E-04
 -1      4187-3.02988E-02-5.07044E-01 2.20440E-04
 -1      4188 3.73895E-02-3.33656E-01 3.10971E-04
 -1      4189 2.28038E-02-3.33268E-01 3.11164E-04
 -1      4190 2.36375E-02-1.04036E-01-4.67509E-04
 -1      4191 1.46349E-02-1.03547E-01-4.67052E-04
 -1      4192-1.82649E-02-1.55001E-01 4.25142E-04
 -1      4193-2.90145E-02-1.55370E-01 4.24752E-04
 -1      4194-4.01494E-02-3.33211E-01 3.10758E-04
 -1      4195 1.98064E-02-7.00833E-02 5.00250E-04
 -1      4196 2.80736E-02-1.55622E-01 4.24381E-04
 -1      4197-2.55573E-02-3.32991E-01 3.11095E-04
 -1      4198-2.34061E-02-2.67861E-01-3.51321E-04
 -1      4199 4.75155E-02-5.51848E-01-3.86398E-04
 -1      4200-5.30262E-02-5.51169E-01-3.86022E-04
 -1      4201 4.05999E-02-5.22243E-01-7.28124E-05
 -1      4202 3.47092E-02-2.68398E-01-3.52121E-04
 -1      4203-2.41873E-02-1.03822E-01-4.69376E-04
 -1      4204 1.74949E-02-1.55123E-01 4.28231E-04
 -1      4205-1.52350E-02-1.03398E-01-4.71225E-04
 -1      4206 1.24270E-02-6.95349E-02 5.05763E-04
 -1      4207 2.14028E-02-2.67958E-01-3.51309E-04
 -1      4208-3.67561E-02-2.68035E-01-3.51426E-04
 -1      4209-3.07655E-04-1.06250E-01 7.27672E-08
 -1      4210-6.87172E-03-1.14376E-01-5.16369E-05
 -1      4211-1.44177E-04-6.76842E-02-1.70810E-07
 -1      4212-3.61035E-03-6.74499E-01 1.75071E-07
 -1      4213 9.04527E-03-6.58676E-01-1.59301E-05
 -1      4214-1.60399E-02-6.58499E-01-1.59056E-05
 -1      4215-2.49108E-03-5.12012E-01-4.62413E-07
 -1      4216-1.26300E-02-5.31587E-01-1.71422E-05
 -1      4217 7.38655E-03-5.31722E-01-1.69925E-05
 -1      4218-1.44239E-02-5.26847E-01 2.34306E-05
 -1      4219 9.23764E-03-4.97300E-01 2.42766E-05
 -1      4220-3.03077E-03-5.91806E-01 1.54440E-07
 -1      4221 9.21002E-03-5.76481E-01 2.04705E-05
 -1      4222 4.79208E-03-6.12680E-02 5.50657E-05
 -1      4223 6.23079E-03-1.14469E-01-5.08246E-05
 -1      4224-1.35313E-03-3.29229E-01-2.95754E-07
 -1      4225 8.69292E-03-3.16557E-01 3.45439E-05
 -1      4226-1.12481E-02-3.16445E-01 3.46281E-05
 -1      4227-5.64924E-02-6.74124E-01-2.75967E-04
 -1      4228 4.67160E-02-5.12338E-01 4.23463E-04
 -1      4229 4.92719E-02-6.74876E-01-2.76323E-04
 -1      4230 4.82076E-02-5.92160E-01 3.49794E-04
 -1      4231-5.16976E-02-5.11687E-01 4.22156E-04
 -1      4232 4.33206E-02-3.80982E-01-5.56407E-04
 -1      4233 2.62940E-02-1.06346E-01-9.00549E-04
 -1      4234 4.10808E-02-3.29472E-01 6.07017E-04
 -1      4235-3.15794E-02-1.52169E-01 8.27368E-04
 -1      4236-4.48098E-04-1.52300E-01 7.83058E-08
 -1      4237-7.64642E-03-1.42971E-01 4.76233E-05
 -1      4238-1.02602E-03-2.64293E-01 3.33727E-08
 -1      4239-8.59112E-03-2.48855E-01 2.80395E-05
 -1      4240-1.01089E-02-2.52550E-01-3.97779E-05
 -1      4241 6.79845E-03-1.43038E-01 4.70936E-05
 -1      4242-4.37909E-02-3.28988E-01 6.06655E-04
 -1      4243 3.08202E-02-1.52396E-01 8.31417E-04
 -1      4244 2.16255E-02-6.77170E-02 9.80317E-04
 -1      4245 8.22818E-03-2.52600E-01-3.90316E-05
 -1      4246-7.34346E-04-2.05122E-01 3.49854E-07
 -1      4247-4.01334E-02-2.64123E-01-6.84583E-04
 -1      4248 3.81757E-02-2.64473E-01-6.86312E-04
 -1      4249-2.69073E-02-1.06155E-01-9.03363E-04
 -1      4250-5.11515E-02-5.72104E-01-2.12490E-04
 -1      4251-5.08416E-02-5.61955E-01-3.39836E-04
 -1      4252-3.37659E-02-5.72027E-01-2.12074E-04
 -1      4253 2.76134E-02-5.30992E-01-2.34557E-04
 -1      4254 4.48107E-02-5.41113E-01-3.57478E-04
 -1      4255 4.46330E-02-5.31321E-01-2.34267E-04
 -1      4256-3.51956E-02-2.18883E-01 4.30297E-04
 -1      4257-3.56804E-02-2.25962E-01 6.56315E-04
 -1      4258-2.30386E-02-2.18556E-01 4.31114E-04
 -1      4259 4.73606E-02-8.88885E-01-2.45746E-05
 -1      4260 2.31701E-02-8.89556E-01-2.85701E-05
 -1      4261 4.12433E-02-4.50586E-01-4.04500E-04
 -1      4262-6.71153E-02-9.71535E-01-2.20883E-05
 -1      4263-6.09951E-02-9.53381E-01-3.78437E-05
 -1      4264-5.68776E-02-9.62017E-01-1.64706E-05
 -1      4265-4.35987E-02-9.62213E-01-1.72986E-05
 -1      4266-3.83227E-02-9.84186E-01-7.37705E-06
 -1      4267-4.33473E-02-9.76171E-01-7.18507E-06
 -1      4268 3.15952E-03-1.49868E-03 1.08099E-03
 -1      4269 2.12152E-03-7.91711E-04 9.44458E-04
 -1      4270 1.65480E-03-8.25064E-04 5.79766E-04
 -1      4271 2.20170E-03-1.20527E-03 5.24562E-04
 -1      4272-9.70246E-04-2.25079E-02 5.62948E-06
 -1      4273-8.16265E-03-7.48715E-01 7.63023E-07
 -1      4274-8.69054E-03-8.13424E-01 1.06046E-06
 -1      4275-1.31916E-03-4.05384E-02 5.24338E-06
 -1      4276 5.57323E-02-9.54367E-01 3.85143E-05
 -1      4277 5.56316E-02-9.72339E-01 2.33306E-05
 -1      4278 4.60034E-02-9.63505E-01 1.74517E-05
 -1      4279 3.28276E-02-9.63393E-01 1.81786E-05
 -1      4280 4.73760E-02-8.78846E-01-5.87127E-05
 -1      4281 4.48182E-02-9.00786E-01-4.95235E-05
 -1      4282-5.06043E-03-3.90089E-01 2.95875E-06
 -1      4283-6.68603E-02-9.85493E-01-7.90047E-06
 -1      4284-6.68446E-02-9.83328E-01-6.37295E-06
 -1      4285-5.55258E-03-4.45031E-01 2.34021E-06
 -1      4286 7.99436E-05-8.37363E-03-1.16519E-08
 -1      4287-6.71161E-02-9.71648E-01 2.16034E-05
 -1      4288-6.09960E-02-9.53494E-01 3.74195E-05
 -1      4289-5.76694E-02-9.62734E-01 1.62970E-05
 -1      4290-4.43869E-02-9.62818E-01 1.74096E-05
 -1      4291-2.12762E-03-7.77305E-04 9.45887E-04
 -1      4292-3.17878E-03-1.50274E-03 1.08705E-03
 -1      4293-2.22803E-03-1.20781E-03 5.35435E-04
 -1      4294-1.65550E-03-8.28175E-04 5.77500E-04
 -1      4295-5.35728E-02-9.85693E-01-8.18679E-06
 -1      4296 2.13362E-03-7.89170E-04-9.51739E-04
 -1      4297 3.16808E-03-1.50131E-03-1.08627E-03
 -1      4298 2.20649E-03-1.18731E-03-5.40493E-04
 -1      4299 1.66657E-03-8.07082E-04-5.92067E-04
 -1      4300 4.96691E-02-9.54425E-01-3.77259E-05
 -1      4301 5.56292E-02-9.72452E-01-2.20428E-05
 -1      4302 3.37210E-02-9.63898E-01-1.78301E-05
 -1      4303 4.68968E-02-9.64123E-01-1.65181E-05
 -1      4304 2.77780E-02-9.45875E-01-2.41283E-05
 -1      4305-1.07693E-03-5.35919E-04 2.71109E-04
 -1      4306-9.41299E-04-3.59339E-04 2.72771E-04
 -1      4307 2.70822E-02-9.84008E-01 8.25557E-06
 -1      4308 3.22622E-02-9.77456E-01 7.61998E-06
 -1      4309-2.11729E-03-7.73838E-04-9.41395E-04
 -1      4310-3.16976E-03-1.49791E-03-1.08285E-03
 -1      4311-2.23658E-03-1.21958E-03-5.27575E-04
 -1      4312-1.66574E-03-8.43154E-04-5.77006E-04
 -1      4313 2.81255E-02-5.56405E-01 2.23839E-04
 -1      4314 4.53713E-02-5.56727E-01 2.23959E-04
 -1      4315-9.22680E-04-3.91821E-04 3.82979E-04
 -1      4316-1.02653E-03-5.13425E-04-2.57196E-04
 -1      4317-9.47321E-04-3.64775E-04-2.80148E-04
 -1      4318 5.50602E-02-9.86403E-01 8.57111E-06
 -1      4319 5.50774E-02-9.84238E-01 6.99383E-06
 -1      4320 4.18776E-02-9.86293E-01 8.62239E-06
 -1      4321 5.31429E-04 4.47546E-07 3.18714E-04
 -1      4322-5.47015E-04 1.59489E-05 3.24293E-04
 -1      4323-7.31441E-04-1.07008E-04 4.17990E-04
 -1      4324-6.57678E-02-9.85613E-01 5.61545E-06
 -1      4325 7.23612E-04-1.08793E-04 4.16569E-04
 -1      4326 9.14855E-04-3.56679E-04 2.68304E-04
 -1      4327-9.14212E-04-3.88824E-04-3.78295E-04
 -1      4328-5.47607E-04 1.63016E-05-3.24683E-04
 -1      4329-7.32059E-04-1.06989E-04-4.17924E-04
 -1      4330-5.32011E-02-6.47505E-01-2.70161E-04
 -1      4331-3.54643E-02-6.57969E-01-1.67428E-04
 -1      4332-5.34670E-02-6.57996E-01-1.67537E-04
 -1      4333 2.84763E-02-6.58421E-01-1.67832E-04
 -1      4334 4.64746E-02-6.58703E-01-1.67647E-04
 -1      4335 4.63580E-02-6.48206E-01-2.70500E-04
 -1      4336-3.27587E-02-5.26915E-01 2.35802E-04
 -1      4337-4.97495E-02-5.27019E-01 2.35770E-04
 -1      4338-5.00592E-02-5.36784E-01 3.59776E-04
 -1      4339 4.37251E-02-4.87580E-01 4.03207E-04
 -1      4340 4.39437E-02-4.97352E-01 2.52574E-04
 -1      4341 2.72538E-02-4.97010E-01 2.52650E-04
 -1      4342 1.63879E-02-1.14437E-01-5.12022E-04
 -1      4343 2.63278E-02-1.20251E-01-7.91672E-04
 -1      4344 2.58034E-02-1.14945E-01-5.12385E-04
 -1      4345 3.80925E-02-3.08202E-01 5.68910E-04
 -1      4346 3.84422E-02-3.16639E-01 3.58753E-04
 -1      4347 2.41310E-02-3.16228E-01 3.58632E-04
 -1      4348-2.86239E-02-1.36732E-01 7.68230E-04
 -1      4349-2.91862E-02-1.42927E-01 4.86377E-04
 -1      4350-1.88119E-02-1.42522E-01 4.86629E-04
 -1      4351-2.66956E-02-3.15936E-01 3.58980E-04
 -1      4352-4.05677E-02-3.07758E-01 5.68915E-04
 -1      4353-4.10141E-02-3.16186E-01 3.58766E-04
 -1      4354-1.70612E-02-1.14280E-01-5.15217E-04
 -1      4355-2.69877E-02-1.20014E-01-7.92542E-04
 -1      4356-2.64247E-02-1.14716E-01-5.13044E-04
 -1      4357-6.68612E-02-9.85606E-01 7.28693E-06
 -1      4358-4.41362E-02-9.76777E-01 7.40971E-06
 -1      4359 1.81090E-02-1.42627E-01 4.89666E-04
 -1      4360 2.78082E-02-1.36949E-01 7.67759E-04
 -1      4361 2.83176E-02-1.43153E-01 4.86286E-04
 -1      4362-2.43370E-02-2.52164E-01-4.03240E-04
 -1      4363-3.73801E-02-2.52372E-01-4.03455E-04
 -1      4364-3.68998E-02-2.44694E-01-6.35460E-04
 -1      4365-5.58389E-02-8.21652E-01 1.29565E-04
 -1      4366 1.94685E-02-6.14400E-02 5.71439E-04
 -1      4367 1.25234E-02-6.08599E-02 5.76421E-04
 -1      4368 1.88537E-02-5.71075E-02 9.00755E-04
 -1      4369-4.63030E-02-4.52154E-01 4.18073E-04
 -1      4370-5.43910E-02-7.39956E-01 1.89957E-04
 -1      4371-4.53660E-02-3.84173E-01 5.13392E-04
 -1      4372-1.64124E-02-4.32180E-02 8.97854E-04
 -1      4373 1.07694E-03-5.41627E-04-2.71422E-04
 -1      4374 9.22962E-04-3.98344E-04-3.82163E-04
 -1      4375 9.21473E-04-3.48454E-04-2.73998E-04
 -1      4376 2.71947E-02-9.84010E-01-7.80402E-06
 -1      4377 4.19902E-02-9.86295E-01-8.14160E-06
 -1      4378 3.32670E-02-9.77963E-01-7.34747E-06
 -1      4379 5.27441E-04 1.30548E-05-3.23713E-04
 -1      4380 3.51151E-02-2.45016E-01-6.35393E-04
 -1      4381 2.25158E-02-2.52268E-01-4.03564E-04
 -1      4382 3.55162E-02-2.52733E-01-4.04662E-04
 -1      4383 8.98490E-04-4.33054E-04 2.51174E-04
 -1      4384 9.01233E-04-3.67817E-04 3.75507E-04
 -1      4385-1.14160E-02-2.05247E-02 9.60243E-04
 -1      4386-4.04395E-02-9.85785E-01 7.05424E-06
 -1      4387 7.24941E-04-1.15255E-04-4.13979E-04
 -1      4388 4.57029E-02-5.76828E-01 2.13117E-04
 -1      4389 2.82895E-02-5.76514E-01 2.13008E-04
 -1      4390 4.55345E-02-5.66653E-01 3.40542E-04
 -1      4391-5.35733E-02-9.85694E-01 8.39508E-06
 -1      4392 2.06137E-03-8.86729E-01-1.45360E-06
 -1      4393 5.51744E-02-9.86517E-01-5.40391E-06
 -1      4394 5.51720E-02-9.86516E-01-7.21467E-06
 -1      4395 7.72200E-03-8.89651E-01-2.15135E-05
 -1      4396 4.97590E-02-9.36247E-01-5.02799E-05
 -1      4397 2.55490E-02-9.23843E-01-3.49592E-05
 -1      4398 2.85756E-02-8.78970E-01-5.85764E-05
 -1      4399 2.59816E-02-9.00921E-01-4.64752E-05
 -1      4400 4.73837E-02-8.68094E-01-9.97145E-05
 -1      4401 4.47751E-02-9.11978E-01-6.57527E-05
 -1      4402 5.02204E-02-8.90195E-01-9.22644E-05
 -1      4403 4.38882E-02-8.37523E-01 2.69662E-05
 -1      4404-6.00476E-03-1.00000E+00 1.61360E-07
 -1      4405 0.00000E+00 0.00000E+00 0.00000E+00
 -3
    1PSTEP                         5           2           1          
  100CL  102 1.000000000        4405                     0    2           1
 -4  STRESS      6    1
 -5  SXX         1    4    1    1
 -5  SYY         1    4    2    2
 -5  SZZ         1    4    3    3
 -5  SXY         1    4    1    2
 -5  SYZ         1    4    2    3
 -5  SZX         1    4    3    1
 -1         1-3.78482E+02-1.17171E+02-1.22612E+02-3.36156E+01 1.41699E+01 7.65409E+01
 -1         2-3.78500E+02-1.17166E+02-1.22726E+02-3.36309E+01-1.41843E+01-7.66328E+01
 -1         3 3.80124E+02 1.17340E+02 1.22781E+02-3.45879E+01 1.39400E+01-7.66184E+01
 -1         4 3.80194E+02 1.17432E+02 1.22856E+02-3.37036E+01-1.34898E+01 7.65888E+01
 -1         5 3.15014E+00 6.80894E-01 1.20192E+00-3.04387E+00 1.05326E-01-3.78538E-01
 -1         6 3.19329E+00 7.00936E-01 1.20088E+00-3.04657E+00-1.13979E-01 3.92853E-01
 -1         7-3.13900E+00-4.51009E-01-1.14238E+00-2.94760E+00 9.51501E-02 4.24424E-01
 -1         8-3.30172E+00-4.13531E-01-1.10574E+00-2.95454E+00-1.06653E-01-4.43870E-01
 -1         9-3.47841E+02-1.46057E+02-1.46311E+02-7.44413E+01 2.82770E+00-2.88314E+01
 -1        10-3.55371E+02-1.49141E+02-1.49481E+02-7.41738E+01-2.20083E+00-2.22190E+00
 -1        11-3.46635E+02-1.45478E+02-1.45975E+02-7.40708E+01-2.92238E+00 2.93942E+01
 -1        12-3.60290E+02-1.54716E+02-1.54731E+02-6.83437E+01 7.95388E-02-5.07590E+01
 -1        13-3.49349E+02-1.49993E+02-1.50073E+02-7.11670E+01 2.44624E-02-1.52204E+01
 -1        14-3.57843E+02-1.53639E+02-1.53731E+02-7.50285E+01-2.69978E-02 1.50797E+01
 -1        15-3.60109E+02-1.54639E+02-1.54653E+02-6.80496E+01-7.95725E-02 5.10826E+01
 -1        16-1.88784E+02-8.01029E+01-7.66312E+01 3.18934E+01-4.18164E+00 5.07758E+01
 -1        17 3.03014E+00 2.33033E-01 4.37951E+00 4.20883E+01-2.50058E+00-3.11566E+00
 -1        18 1.99652E+02 8.25653E+01 8.82513E+01 2.77417E+01-1.21373E+00-5.53101E+01
 -1        19-3.15190E+02-1.35389E+02-1.35258E+02 9.17979E+00 8.15164E-03 7.92908E+01
 -1        20-9.19579E+01-3.94236E+01-3.94315E+01 3.65935E+01 1.82604E-02 2.49383E+01
 -1        21 1.04504E+02 4.47644E+01 4.47607E+01 3.58581E+01-2.07648E-02-2.89323E+01
 -1        22 3.11265E+02 1.33101E+02 1.33225E+02 6.59325E+00-5.40305E-03-7.74964E+01
 -1        23 3.48583E+02 1.46517E+02 1.46061E+02-7.32335E+01-1.69907E+00 3.25512E+01
 -1        24 3.54541E+02 1.48614E+02 1.48482E+02-7.53518E+01-2.01485E+00 2.10916E+00
 -1        25 3.47379E+02 1.45069E+02 1.45708E+02-7.46771E+01-2.94707E+00-2.93920E+01
 -1        26 3.54831E+02 1.51768E+02 1.51763E+02-6.40736E+01-7.28898E-02 5.09947E+01
 -1        27 3.59374E+02 1.53739E+02 1.53648E+02-7.53265E+01-2.47175E-02 1.54346E+01
 -1        28 3.57021E+02 1.52739E+02 1.52646E+02-7.55903E+01 2.69381E-02-1.52288E+01
 -1        29 3.61297E+02 1.54538E+02 1.54522E+02-6.89992E+01 7.97698E-02-5.12113E+01
 -1        30-1.89149E+02-8.02253E+01-7.68045E+01 3.19391E+01 4.15870E+00-5.08582E+01
 -1        31 2.97234E+00 2.26126E-01 4.45626E+00 4.22165E+01 2.44311E+00 3.01519E+00
 -1        32 1.97993E+02 8.18830E+01 8.74129E+01 2.81868E+01 1.67068E+00 5.57704E+01
 -1        33-3.15251E+02-1.35415E+02-1.35284E+02 9.25034E+00-8.24964E-03-7.93061E+01
 -1        34-9.22842E+01-3.95634E+01-3.95716E+01 3.67179E+01-1.84252E-02-2.49963E+01
 -1        35 1.02840E+02 4.40525E+01 4.40485E+01 3.60189E+01 2.06074E-02 2.86312E+01
 -1        36 3.10025E+02 1.32572E+02 1.32697E+02 6.93551E+00 6.14170E-03 7.77847E+01
 -1        37 8.62452E+00 3.76001E+00 3.62812E+00-3.90939E+00-9.22015E-02 6.80816E-01
 -1        38 8.18477E+00 3.57371E+00 3.48635E+00-3.81359E+00-6.91237E-02 1.10584E-01
 -1        39 8.95152E+00 3.86687E+00 3.77009E+00-3.95825E+00-7.98345E-02-4.78518E-01
 -1        40 9.08420E+00 4.07130E+00 3.94644E+00-4.20772E+00-9.58787E-03 6.38022E-01
 -1        41 8.45138E+00 3.78914E+00 3.67197E+00-3.94880E+00-3.91259E-03 2.60459E-01
 -1        42 8.72985E+00 3.90948E+00 3.79160E+00-3.97338E+00 4.41475E-03-2.93765E-01
 -1        43 8.34232E+00 3.74856E+00 3.62707E+00-4.09233E+00 1.01688E-02-6.76760E-01
 -1        44-5.15854E+00-1.56419E+00-1.99801E+00-6.06937E+00 1.03471E-01-1.05636E+00
 -1        45-2.64323E-01 2.43827E-01-7.80195E-02-7.47104E+00-4.09843E-02-6.61714E-02
 -1        46 4.73604E+00 1.92486E+00 1.98771E+00-6.35500E+00-7.47829E-02 1.00430E+00
 -1        47-3.95045E+00-1.48807E+00-1.63174E+00-4.77739E+00 1.61589E-02-1.07410E+00
 -1        48-3.03386E+00-1.00248E+00-1.21128E+00-6.94101E+00 9.52204E-03-6.30728E-01
 -1        49 2.24688E+00 1.26239E+00 1.05241E+00-7.00274E+00-8.35548E-03 5.53520E-01
 -1        50 4.04730E+00 1.94052E+00 1.79617E+00-4.83414E+00-1.64764E-02 1.09511E+00
 -1        51-8.58441E+00-3.42991E+00-3.51665E+00-3.69897E+00-5.96351E-02-7.08472E-01
 -1        52-8.19978E+00-3.26525E+00-3.38397E+00-3.64276E+00-6.40065E-02-1.21990E-01
 -1        53-9.04022E+00-3.55178E+00-3.71842E+00-3.70798E+00-9.87956E-02 4.93105E-01
 -1        54-9.24078E+00-3.78747E+00-3.90867E+00-4.00727E+00 1.03331E-02-6.87620E-01
 -1        55-8.34823E+00-3.41559E+00-3.52931E+00-3.76175E+00 4.10190E-03-2.73160E-01
 -1        56-8.90974E+00-3.65547E+00-3.76975E+00-3.77802E+00-4.28742E-03 2.85228E-01
 -1        57-8.37692E+00-3.42231E+00-3.53995E+00-3.89219E+00-1.08310E-02 7.20845E-01
 -1        58-4.92232E+00-1.49123E+00-1.92078E+00-6.23373E+00 3.37287E-02 9.83133E-01
 -1        59-2.93642E-01 2.43139E-01-8.64644E-02-7.47135E+00 3.48491E-02 7.95017E-02
 -1        60 4.79276E+00 1.95651E+00 2.00922E+00-6.35308E+00 7.78580E-02-1.01326E+00
 -1        61-4.08661E+00-1.54723E+00-1.69034E+00-4.75826E+00-1.57597E-02 1.04756E+00
 -1        62-2.59350E+00-8.15678E-01-1.02312E+00-6.89796E+00-8.68578E-03 5.75412E-01
 -1        63 2.29015E+00 1.28113E+00 1.07101E+00-7.00732E+00 8.18333E-03-5.42121E-01
 -1        64 3.93594E+00 1.89281E+00 1.74845E+00-4.83408E+00 1.64890E-02-1.09595E+00
 -1        65-2.72143E+02 7.93043E+00 8.13931E+00 1.03536E+01 1.65776E+00 2.33103E+00
 -1        66-2.88373E+02 3.26741E-01 8.91372E-01 7.91973E-01 4.29909E-03 5.64111E-01
 -1        67-2.84706E+02-2.78437E-02 1.41444E-01 1.95879E-01-3.77357E-03 5.30177E-01
 -1        68-2.77052E+02 1.99454E-02-6.72120E-02-1.19118E-02 3.54103E-02 4.44820E-01
 -1        69-2.68116E+02-1.28209E-02-1.42279E-03 4.75024E-01 3.53556E-02 3.77845E-01
 -1        70-2.58919E+02-2.27078E-02 6.27533E-02 2.84742E-01-6.40618E-02 3.99453E-01
 -1        71-2.49671E+02 4.77615E-02 8.72886E-03 7.76430E-01-5.21888E-02 4.34622E-01
 -1        72-2.40592E+02 4.89167E-03 6.46541E-02 8.81143E-01-2.02121E-02 4.14574E-01
 -1        73-2.31225E+02-1.69983E-02-5.39899E-02 6.29402E-01 6.62963E-02 4.06626E-01
 -1        74-2.21831E+02-1.24007E-02-4.42794E-02 7.99977E-01 8.33257E-05 3.45102E-01
 -1        75-2.12842E+02 3.65656E-02 4.66020E-02 1.13384E+00-1.91029E-03 3.84237E-01
 -1        76-2.03563E+02 2.38047E-02 8.11503E-02 1.18602E+00-2.00839E-02 4.35966E-01
 -1        77-1.94281E+02-1.07771E-03-5.67568E-02 8.42835E-01 5.69330E-02 4.15924E-01
 -1        78-1.84915E+02-4.74333E-02-4.96435E-02 1.21355E+00-8.07634E-03 3.69304E-01
 -1        79-1.75939E+02 3.06200E-02 4.37538E-02 9.64512E-01 3.60704E-03 3.71649E-01
 -1        80-1.66485E+02-3.22080E-03 3.38424E-02 8.29435E-01-6.83308E-02 4.13349E-01
 -1        81-1.57272E+02 4.37229E-02 5.48671E-03 1.15843E+00-5.45579E-02 4.33433E-01
 -1        82-1.48164E+02-3.12328E-03 5.87514E-02 1.10965E+00-1.99004E-02 4.17487E-01
 -1        83-1.38755E+02 1.24688E-02-6.18117E-02 6.89612E-01 5.50904E-02 4.01621E-01
 -1        84-1.29521E+02-3.75800E-02-3.11757E-02 9.95487E-01 4.10972E-02 3.81572E-01
 -1        85-1.20404E+02 1.78785E-02 8.73181E-02 5.66756E-01-6.58481E-02 3.96578E-01
 -1        86-1.10958E+02-2.92590E-02-7.19055E-02 8.50725E-01 4.59264E-03 4.35727E-01
 -1        87-1.01684E+02 5.77746E-04-2.99026E-02 5.31311E-01-6.07700E-03 3.89416E-01
 -1        88-9.26465E+01 2.10206E-02 1.58102E-02 4.38482E-01-9.55399E-03 3.83068E-01
 -1        89-8.32294E+01 2.20319E-02 1.45115E-02 5.46546E-01-4.99908E-02 4.11006E-01
 -1        90-7.41196E+01 2.84344E-03 2.39367E-02 1.76214E-01-9.55448E-03 3.68965E-01
 -1        91-6.48281E+01 9.32369E-03 4.31043E-02 1.03758E-02-2.05703E-02 4.00277E-01
 -1        92-5.54546E+01 2.25405E-02-5.56299E-02-9.52520E-02 2.25245E-03 3.93593E-01
 -1        93-4.61973E+01 1.72076E-02 1.12044E-02 5.05020E-02-5.23647E-02 3.90758E-01
 -1        94-3.70029E+01 5.68868E-03 5.79377E-02-4.39474E-01-4.93793E-02 3.97536E-01
 -1        95-2.77167E+01 6.66251E-02 1.92759E-02-1.96260E-01-5.86878E-02 4.39148E-01
 -1        96-1.86174E+01 4.14176E-02 5.97643E-02-3.14859E-01-2.29680E-02 4.01398E-01
 -1        97-8.84105E+00-1.10634E-01-1.32646E-01-6.47580E-01 9.98757E-02 6.21032E-01
 -1        98-3.07751E+02-7.90486E+00-8.31112E+00 3.55115E-01-1.66892E+00-2.30249E+01
 -1        99-2.86722E+02-5.28410E-03-1.63129E-01 2.06288E+00-1.70735E+00-1.19614E+00
 -1       100-2.87151E+02 1.52613E-01 5.58011E-02 4.23449E-01 1.27295E-01 6.42428E-01
 -1       101-2.80905E+02 5.59800E-02-1.43150E-03 3.94862E-02 9.55877E-03 5.23139E-01
 -1       102-2.72850E+02-4.99107E-02-7.49794E-02 2.06112E-01 9.96474E-02 5.05947E-01
 -1       103-2.63200E+02 1.11930E-01 1.52347E-01 3.42113E-01-4.40675E-02 4.43712E-01
 -1       104-2.54472E+02-1.21299E-02-5.70839E-03 4.71406E-01 2.25362E-02 4.51355E-01
 -1       105-2.45089E+02 1.77082E-02 2.90340E-02 7.39808E-01-6.58372E-02 4.86725E-01
 -1       106-2.35664E+02 9.94059E-02 6.29207E-02 7.15587E-01-1.91372E-02 4.41405E-01
 -1       107-2.26690E+02-3.98558E-02-6.64527E-02 6.90382E-01 3.08616E-02 4.60414E-01
 -1       108-2.17458E+02-4.08434E-02-3.83552E-02 9.14295E-01 3.93569E-02 4.56176E-01
 -1       109-2.08039E+02 1.37829E-01 1.40852E-01 1.05321E+00-3.62997E-03 4.25416E-01
 -1       110-1.98690E+02 1.09386E-01 6.40726E-02 9.62544E-01-1.60458E-02 4.42113E-01
 -1       111-1.89941E+02-1.94424E-01-1.95306E-01 9.93549E-01 2.68420E-02 4.54106E-01
 -1       112-1.80294E+02 1.62882E-02 3.33576E-02 1.03627E+00-3.55423E-02 4.56029E-01
 -1       113-1.71029E+02 3.85590E-02 7.12046E-02 8.61903E-01-4.31666E-02 4.58113E-01
 -1       114-1.62058E+02-1.39018E-02-1.63578E-02 9.40399E-01 1.58156E-02 4.61517E-01
 -1       115-1.52679E+02 1.43880E-02 2.54089E-02 1.04334E+00-7.02111E-02 4.87541E-01
 -1       116-1.43217E+02 1.03233E-01 6.23256E-02 8.59632E-01-2.87016E-02 4.43963E-01
 -1       117-1.34407E+02-6.56591E-02-7.79003E-02 8.34467E-01 9.46744E-02 4.80733E-01
 -1       118-1.24641E+02 4.48935E-02 9.61655E-02 7.41721E-01-6.02759E-02 4.62148E-01
 -1       119-1.15891E+02-1.09940E-01-6.71371E-02 6.58970E-01 3.12831E-03 4.33309E-01
 -1       120-1.06361E+02-4.20804E-03-4.61220E-02 5.82826E-01-1.95223E-02 4.54179E-01
 -1       121-9.71592E+01 6.08405E-03-6.04705E-03 4.62377E-01-1.20671E-02 4.85076E-01
 -1       122-8.80441E+01-7.12157E-02-5.86088E-02 4.27092E-01-5.85856E-03 4.22614E-01
 -1       123-7.85305E+01 5.58130E-02 4.53988E-02 3.30214E-01-9.45505E-02 4.84347E-01
 -1       124-6.93489E+01 3.18884E-02 5.23135E-02 7.09938E-02-1.48857E-02 4.69885E-01
 -1       125-6.01350E+01 1.64322E-02 2.84729E-03-1.04852E-01-9.12509E-03 4.81113E-01
 -1       126-5.11225E+01-1.00011E-01-1.44765E-01-6.55428E-02 9.97909E-03 4.60565E-01
 -1       127-4.13582E+01 6.94044E-02 7.40970E-02-2.08973E-01-1.19190E-01 4.91732E-01
 -1       128-3.25413E+01-1.31775E-02-1.45397E-02-3.65940E-01 2.90717E-02 4.53277E-01
 -1       129-2.31373E+01 2.88774E-02 3.22429E-02-3.40991E-01-6.12821E-02 4.71390E-01
 -1       130-1.38081E+01-7.51035E-03 9.53357E-03-5.36810E-01-1.52063E-02 5.17931E-01
 -1       131-2.17692E+00-2.37688E-01 2.69435E-01-1.31564E+00-1.49062E-01 5.79545E-01
 -1       132-2.72103E+02 7.94120E+00 8.06001E+00 1.03549E+01-1.60138E+00-2.28287E+00
 -1       133-2.88386E+02 3.34482E-01 9.34438E-01 7.97328E-01 7.64428E-03-5.64241E-01
 -1       134-2.84708E+02 1.05195E-01 3.69881E-02 1.02582E-01 1.22623E-01-6.02042E-01
 -1       135-2.76935E+02 2.45985E-02-4.66770E-02 2.15247E-03 3.13349E-02-4.47445E-01
 -1       136-2.68091E+02 2.76670E-02-2.96228E-04 4.91587E-01 5.76519E-02-3.92096E-01
 -1       137-2.58969E+02-1.75120E-02 2.00992E-02 3.24076E-01 5.67400E-03-3.68622E-01
 -1       138-2.49673E+02 2.62389E-02 8.84751E-03 7.80887E-01 4.19284E-02-3.90990E-01
 -1       139-2.40515E+02 2.13963E-02 8.21443E-02 4.96817E-01 6.69934E-02-3.88360E-01
 -1       140-2.31120E+02-4.19637E-02-8.50466E-02 1.01532E+00-2.39121E-03-4.22001E-01
 -1       141-2.22008E+02 1.93235E-02 1.99444E-02 1.07437E+00 5.67326E-02-3.82825E-01
 -1       142-2.12851E+02-9.30404E-03 4.11279E-02 8.53790E-01 5.52172E-03-3.59165E-01
 -1       143-2.03518E+02 1.47761E-02 6.70795E-02 8.06827E-01 7.78824E-02-4.08820E-01
 -1       144-1.94176E+02-3.76876E-02-7.18631E-02 1.19965E+00-5.23598E-03-4.31301E-01
 -1       145-1.84960E+02-1.15265E-02-1.43606E-02 9.79140E-01-1.74963E-04-3.70442E-01
 -1       146-1.75967E+02 2.03401E-02 3.99337E-02 9.99562E-01 1.10140E-02-3.84056E-01
 -1       147-1.66371E+02-5.81447E-02-5.52439E-02 1.19111E+00-6.99714E-03-4.02736E-01
 -1       148-1.57447E+02 1.09214E-02 3.24775E-02 8.96408E-01 1.26013E-02-3.55739E-01
 -1       149-1.48105E+02-2.24304E-02 5.47256E-02 8.35650E-01 1.56948E-02-3.82498E-01
 -1       150-1.38693E+02-1.71511E-02-3.30185E-02 8.15212E-01-5.77154E-03-3.89837E-01
 -1       151-1.29656E+02 4.09970E-02 6.61408E-02 1.03443E+00 1.97353E-02-3.87237E-01
 -1       152-1.20354E+02-3.12760E-02 2.72990E-02 5.83928E-01-1.45721E-02-4.08279E-01
 -1       153-1.10980E+02 2.28050E-02-4.35551E-02 5.58289E-01-9.35864E-04-3.88530E-01
 -1       154-1.01659E+02-1.96417E-02-4.17039E-02 5.09034E-01 1.12062E-03-3.75578E-01
 -1       155-9.26586E+01 4.47179E-02 5.35715E-02 6.57429E-01 2.17869E-03-3.76198E-01
 -1       156-8.32707E+01 3.57956E-04 5.60810E-02 1.97280E-01 6.48845E-02-4.24953E-01
 -1       157-7.38839E+01-2.43111E-02-7.36096E-02 4.64333E-01-1.07744E-02-3.98463E-01
 -1       158-6.48987E+01 4.62823E-02 6.33889E-02 3.33890E-01 3.04987E-02-4.00049E-01
 -1       159-5.54258E+01 2.35985E-02-4.94020E-02-1.52790E-01 2.76885E-03-3.87988E-01
 -1       160-4.62168E+01 3.06932E-02-6.88549E-03 7.16657E-02 5.09403E-02-3.98106E-01
 -1       161-3.70850E+01 3.49741E-02 4.08489E-02-3.89127E-01 2.59713E-02-3.73507E-01
 -1       162-2.76028E+01-5.37855E-03-4.16705E-02-2.12976E-01-1.06368E-02-4.11727E-01
 -1       163-1.85131E+01-3.10859E-02-3.52705E-02-3.07123E-01-6.24354E-02-4.10230E-01
 -1       164-8.90856E+00-1.07868E-01-1.27342E-01-6.36499E-01-1.17162E-01-6.29216E-01
 -1       165-3.07671E+02-7.92984E+00-8.15907E+00 3.62670E-01 1.71373E+00 2.27850E+01
 -1       166-2.86694E+02 5.40066E-02-8.86476E-02 2.06473E+00 1.71960E+00 1.22002E+00
 -1       167-2.87144E+02 1.95434E-01 1.47576E-01 2.69980E-01-1.15661E-01-6.70372E-01
 -1       168-2.80898E+02 1.00835E-01 1.80839E-02-1.84615E-02 7.47851E-02-5.70333E-01
 -1       169-2.72809E+02-7.01571E-02-1.32576E-01 2.09125E-01-1.02018E-02-4.77871E-01
 -1       170-2.63383E+02 2.12570E-02 3.76024E-02 3.71971E-01 1.04813E-01-4.82491E-01
 -1       171-2.54513E+02-8.38757E-02-9.10227E-02 5.12560E-01-3.52170E-02-4.25183E-01
 -1       172-2.44840E+02 6.13631E-02 7.62419E-02 6.16711E-01 1.26579E-01-4.98162E-01
 -1       173-2.36044E+02-1.40456E-01-7.30852E-02 7.13389E-01-8.32740E-03-4.24546E-01
 -1       174-2.26685E+02-6.39132E-02-8.16832E-02 9.47458E-01 1.17149E-02-4.28446E-01
 -1       175-2.17281E+02 4.50073E-02 4.05479E-02 9.37344E-01 9.32008E-02-4.71831E-01
 -1       176-2.08000E+02 2.97982E-02 7.06285E-02 8.07891E-01 4.11047E-02-4.71909E-01
 -1       177-1.99062E+02-1.21102E-01-6.56108E-02 9.57332E-01 1.94687E-03-4.46847E-01
 -1       178-1.89580E+02-9.40274E-03-4.42579E-02 9.93292E-01 2.65533E-02-4.48555E-01
 -1       179-1.80430E+02-4.62629E-03 7.88217E-03 9.75872E-01-1.22633E-04-4.80423E-01
 -1       180-1.71298E+02-1.49511E-01-1.09608E-01 1.02245E+00 8.11202E-03-4.15254E-01
 -1       181-1.61770E+02 2.79319E-02 3.58195E-02 9.94612E-01 4.85562E-02-4.63908E-01
 -1       182-1.52651E+02 1.23930E-02 5.59549E-02 8.28802E-01 1.74016E-02-4.59430E-01
 -1       183-1.43447E+02-2.36373E-02-1.27530E-02 7.80394E-01 2.03341E-03-4.52063E-01
 -1       184-1.34244E+02 1.85744E-02-1.38960E-02 8.54900E-01-1.74429E-02-4.67145E-01
 -1       185-1.24731E+02 1.37682E-01 1.61960E-01 7.77395E-01 2.35076E-02-4.54290E-01
 -1       186-1.15713E+02-9.50625E-03-1.82959E-02 5.30309E-01-1.83013E-02-4.83242E-01
 -1       187-1.06442E+02-2.04875E-02-5.98422E-02 4.94397E-01-6.06106E-03-4.67441E-01
 -1       188-9.72978E+01-1.81039E-02-3.49957E-02 5.34596E-01-3.10150E-02-4.58593E-01
 -1       189-8.76188E+01 1.99398E-01 1.98631E-01 3.85082E-01 3.89370E-02-4.57779E-01
 -1       190-7.88150E+01-9.69261E-02-6.32826E-02 2.85722E-01-1.07301E-02-4.40487E-01
 -1       191-6.94240E+01 3.07563E-03-1.97767E-03 2.89207E-01-8.88547E-04-4.37495E-01
 -1       192-5.99409E+01 1.55975E-01 1.11596E-01 4.34366E-02 5.01620E-02-4.43981E-01
 -1       193-5.11003E+01-6.45385E-02-1.37874E-01-6.53966E-02-2.44942E-02-4.54780E-01
 -1       194-4.14883E+01 4.47315E-02 5.06002E-02-1.89518E-01 1.11821E-01-4.98727E-01
 -1       195-3.25415E+01-1.13280E-01-1.09748E-01-3.37575E-01-2.82717E-02-4.44484E-01
 -1       196-2.31099E+01 1.51382E-02-7.68566E-03-3.22330E-01-5.18583E-02-4.58037E-01
 -1       197-1.38175E+01-1.02821E-01-7.46081E-02-5.21845E-01-3.62182E-02-5.48477E-01
 -1       198-2.21049E+00-2.25111E-01 2.96913E-01-1.30311E+00 1.25638E-01-5.58549E-01
 -1       199 2.73499E+02-7.79728E+00-8.03318E+00 9.93687E+00 1.65895E+00-2.15977E+00
 -1       200 2.89736E+02-3.06390E-01-8.90715E-01-1.17068E-01 2.87031E-02-4.75524E-01
 -1       201 2.85972E+02-1.25249E-01-1.34665E-02-1.33007E+00-1.28815E-01-6.46940E-01
 -1       202 2.78176E+02 5.20727E-02 6.15848E-02-1.50937E+00 9.80969E-03-4.57501E-01
 -1       203 2.69148E+02 4.65214E-02 5.15167E-02-1.71003E+00 1.36888E-02-3.85213E-01
 -1       204 2.60045E+02 3.68756E-02 2.23141E-02-1.86627E+00 4.24603E-02-4.05975E-01
 -1       205 2.50822E+02 2.27107E-02-7.71353E-03-2.24854E+00-6.24782E-03-3.62358E-01
 -1       206 2.41358E+02 1.32527E-02-3.87911E-02-2.47477E+00-5.95678E-02-4.11246E-01
 -1       207 2.32126E+02-2.29736E-02-1.61838E-03-2.19111E+00-6.24203E-02-4.67401E-01
 -1       208 2.22845E+02 2.03150E-02 2.94664E-03-2.28084E+00-3.83427E-02-3.98005E-01
 -1       209 2.13590E+02 3.47700E-02-3.27808E-02-2.60247E+00 4.52100E-03-3.69623E-01
 -1       210 2.04221E+02 1.35759E-02-6.00874E-02-2.73930E+00-6.68371E-02-4.18149E-01
 -1       211 1.94816E+02 3.34110E-02 6.01521E-02-2.41717E+00 1.82088E-02-4.22534E-01
 -1       212 1.85706E+02 6.01994E-02-2.85511E-03-2.40624E+00 5.06503E-02-4.19108E-01
 -1       213 1.76236E+02 7.75748E-02 8.26937E-02-2.36775E+00 2.88039E-02-4.20014E-01
 -1       214 1.67052E+02 7.06462E-03-1.40171E-02-2.39565E+00-4.86109E-02-3.86479E-01
 -1       215 1.57846E+02 4.10675E-02-2.02672E-02-2.65563E+00-7.20361E-04-3.66326E-01
 -1       216 1.48472E+02 5.00910E-02-3.99418E-02-2.65253E+00-1.34438E-02-3.90689E-01
 -1       217 1.39183E+02-2.96129E-03-2.17394E-02-2.29645E+00-4.55047E-02-4.46831E-01
 -1       218 1.29927E+02 5.50830E-03-5.19241E-02-2.21647E+00-5.48659E-02-3.68644E-01
 -1       219 1.20616E+02 7.93464E-02 5.10678E-02-2.15487E+00 6.13166E-02-3.86889E-01
 -1       220 1.11418E+02 4.35789E-02-1.44414E-02-2.32094E+00-9.03306E-03-3.82717E-01
 -1       221 1.02129E+02 4.30863E-02-4.10494E-02-2.25999E+00 3.55416E-03-3.98388E-01
 -1       222 9.28370E+01 4.84111E-02-2.08813E-02-2.13318E+00-2.01670E-03-3.84936E-01
 -1       223 8.34270E+01 4.72297E-02-3.13628E-02-2.13632E+00-5.47806E-02-4.22621E-01
 -1       224 7.41947E+01-2.18653E-02-5.10312E-03-1.66464E+00-4.16712E-02-4.35565E-01
 -1       225 6.50384E+01 1.27421E-02-6.74395E-02-1.55367E+00-2.28973E-02-4.08871E-01
 -1       226 5.57023E+01-1.02283E-02-1.16356E-02-1.40260E+00-5.40920E-02-4.37388E-01
 -1       227 4.62583E+01 9.59700E-02 8.32236E-02-1.26834E+00 3.37150E-02-3.58528E-01
 -1       228 3.71888E+01-2.13290E-02-6.52764E-02-1.14520E+00-4.36220E-02-4.05389E-01
 -1       229 2.78302E+01-9.67228E-03-2.64790E-02-1.01464E+00-3.88632E-02-4.09649E-01
 -1       230 1.86743E+01-3.86386E-03-5.01974E-02-8.69589E-01-2.30891E-02-3.93501E-01
 -1       231 9.19158E+00 2.12174E-02 8.57288E-03-9.04241E-01-5.99284E-02-6.85248E-01
 -1       232 3.09053E+02 7.92391E+00 8.39792E+00-1.92278E-02-6.67793E-01 2.33704E+01
 -1       233 2.87914E+02-2.54549E-01-1.19193E-01 1.22658E+00-1.21048E+00 1.47288E+00
 -1       234 2.88722E+02-6.90158E-02-1.14690E-01-1.04877E+00-3.63179E-01-5.09728E-01
 -1       235 2.82275E+02 9.58113E-03 7.28197E-02-1.51661E+00-3.22674E-02-5.58876E-01
 -1       236 2.73876E+02 1.39993E-01 1.40770E-01-1.70033E+00 1.30863E-02-4.39155E-01
 -1       237 2.64663E+02 3.26075E-02 3.40839E-02-1.85595E+00 4.88823E-02-4.34970E-01
 -1       238 2.55247E+02-7.30110E-02-8.36722E-02-2.10401E+00-1.25839E-02-4.57807E-01
 -1       239 2.45943E+02-1.84876E-02-6.41373E-02-2.38418E+00-3.18545E-02-4.76180E-01
 -1       240 2.36950E+02 4.65521E-02 2.16009E-02-2.38801E+00 2.11777E-02-4.69339E-01
 -1       241 2.27563E+02 6.10106E-02 4.95602E-02-2.29177E+00-7.53186E-02-4.76995E-01
 -1       242 2.18071E+02-1.84435E-02-3.27247E-02-2.46770E+00-7.95292E-02-4.88175E-01
 -1       243 2.08741E+02-6.76267E-03-6.86340E-02-2.69089E+00-2.71950E-02-4.85023E-01
 -1       244 1.99760E+02 1.28651E-01 6.03207E-02-2.62143E+00 1.82029E-02-4.52989E-01
 -1       245 1.90310E+02 4.95464E-02 1.07166E-02-2.50340E+00 6.89911E-02-4.82206E-01
 -1       246 1.80995E+02 1.10515E-01 5.31601E-02-2.45428E+00 1.96071E-02-3.84853E-01
 -1       247 1.71753E+02 7.74405E-02 8.46051E-02-2.47609E+00-1.17939E-02-4.23087E-01
 -1       248 1.62293E+02-2.61207E-02-4.34549E-02-2.55272E+00-8.14583E-02-4.82381E-01
 -1       249 1.53039E+02 2.49435E-02-5.30835E-02-2.67581E+00-4.41147E-03-4.64387E-01
 -1       250 1.43971E+02 9.66583E-02 4.61869E-02-2.54065E+00 3.15895E-02-4.64588E-01
 -1       251 1.34570E+02 2.52939E-02-2.10819E-02-2.33197E+00-6.81941E-02-4.42051E-01
 -1       252 1.25281E+02 5.49719E-02 1.64593E-02-2.21409E+00 5.79573E-03-4.18818E-01
 -1       253 1.15818E+02-4.66020E-02-7.35602E-02-2.28985E+00-6.08419E-03-4.54192E-01
 -1       254 1.06674E+02 1.76735E-02-5.52031E-02-2.32536E+00 8.18117E-04-4.79581E-01
 -1       255 9.74253E+01 2.84932E-02-3.48666E-02-2.24238E+00 1.13149E-02-4.85513E-01
 -1       256 8.79721E+01 7.77291E-03-7.10225E-02-2.16253E+00-2.93970E-02-4.81218E-01
 -1       257 7.89974E+01 5.01993E-02 1.82653E-02-1.95787E+00 2.82241E-02-4.65378E-01
 -1       258 6.95781E+01 1.57681E-02-2.86510E-02-1.69510E+00-4.85535E-02-4.85654E-01
 -1       259 6.03096E+01-3.36328E-02-6.54472E-02-1.53945E+00-2.10993E-02-3.85632E-01
 -1       260 5.10856E+01 1.29730E-01 1.04303E-01-1.39602E+00-5.17769E-02-4.34495E-01
 -1       261 4.17192E+01 4.08328E-02 1.72021E-02-1.30645E+00 6.43544E-03-4.13103E-01
 -1       262 3.24719E+01-3.78566E-02-6.86737E-02-1.14145E+00-3.49496E-02-4.11388E-01
 -1       263 2.32141E+01-6.37700E-03-2.00549E-02-1.03140E+00-4.27220E-02-4.26271E-01
 -1       264 1.38539E+01-5.56811E-02-9.69896E-02-9.98246E-01 1.44601E-02-4.98943E-01
 -1       265 2.22224E+00 2.07402E-01-3.62464E-01-1.42106E+00-3.10246E-01-5.85343E-01
 -1       266 2.73441E+02-7.85542E+00-8.03929E+00 9.90798E+00-1.57401E+00 2.09905E+00
 -1       267 2.89712E+02-3.50247E-01-8.99366E-01-1.04439E-01-2.71656E-03 4.59625E-01
 -1       268 2.86152E+02-2.15709E-02-1.65001E-01-1.31553E+00 9.90763E-02 4.64199E-01
 -1       269 2.78164E+02-2.88761E-02 7.82438E-02-1.80897E+00-1.31533E-02 4.46853E-01
 -1       270 2.69122E+02 6.05581E-02 4.64579E-02-1.71353E+00 1.94961E-05 3.89385E-01
 -1       271 2.60032E+02-1.17483E-02-5.07967E-02-2.24724E+00 4.93680E-02 3.88860E-01
 -1       272 2.50697E+02-4.03743E-02-5.05167E-03-2.00661E+00 4.59829E-02 4.46461E-01
 -1       273 2.41542E+02 5.46976E-03-6.25343E-02-2.13230E+00 1.29182E-02 4.26105E-01
 -1       274 2.32084E+02 3.33291E-02 6.51796E-02-2.56958E+00-7.66499E-02 4.16906E-01
 -1       275 2.22654E+02 3.05390E-02 5.14603E-02-2.55068E+00-6.79817E-03 3.59901E-01
 -1       276 2.13612E+02-4.46076E-02-7.20797E-02-2.35156E+00 9.36043E-03 3.79929E-01
 -1       277 2.04170E+02 7.26149E-02 1.51729E-02-2.38900E+00-6.37601E-02 4.58769E-01
 -1       278 1.94986E+02 1.72254E-02 5.04936E-02-2.76967E+00-6.07156E-02 4.20693E-01
 -1       279 1.85528E+02 7.63132E-02 5.42475E-02-2.43031E+00-1.59880E-03 3.74860E-01
 -1       280 1.76494E+02 1.51020E-02-4.70078E-02-2.67479E+00-8.10054E-03 3.69494E-01
 -1       281 1.67037E+02 2.84149E-02-5.73990E-02-2.77278E+00 6.25371E-02 4.20976E-01
 -1       282 1.57610E+02 5.79334E-02 8.26397E-02-2.36128E+00-2.68037E-02 4.05203E-01
 -1       283 1.48597E+02 1.24006E-02-7.67182E-02-2.30624E+00 1.38535E-02 3.89372E-01
 -1       284 1.39203E+02-2.10664E-02-1.54738E-02-2.29467E+00 4.08558E-02 4.15955E-01
 -1       285 1.29907E+02 5.49068E-02 2.19747E-02-2.20415E+00-5.37979E-02 3.76720E-01
 -1       286 1.20628E+02 5.50017E-02-3.30988E-02-2.45971E+00 1.54309E-02 3.91859E-01
 -1       287 1.11363E+02-4.26869E-03-2.87689E-02-2.08522E+00 4.12165E-02 4.38024E-01
 -1       288 1.01902E+02 7.24065E-02 4.06121E-02-2.22921E+00-2.15972E-02 3.77552E-01
 -1       289 9.28991E+01 3.52173E-02-3.13452E-02-2.09577E+00-6.34327E-03 3.99623E-01
 -1       290 8.34467E+01 1.32811E-02-1.48293E-02-1.77989E+00 3.66888E-02 4.18519E-01
 -1       291 7.43036E+01 4.66833E-02-2.31494E-02-1.92669E+00-1.08231E-03 3.71565E-01
 -1       292 6.49867E+01 4.31348E-02-3.94446E-02-1.86173E+00 8.90529E-03 4.08981E-01
 -1       293 5.55888E+01 2.71492E-02 5.10409E-02-1.72710E+00-1.69612E-02 3.87588E-01
 -1       294 4.63603E+01 1.40982E-02-5.33882E-03-1.30378E+00 3.84387E-02 3.94815E-01
 -1       295 3.72376E+01 4.31155E-02-5.15454E-02-1.46640E+00-1.40230E-02 3.85640E-01
 -1       296 2.78543E+01 2.34849E-02 6.30858E-03-1.28895E+00-2.69412E-04 3.85755E-01
 -1       297 1.85779E+01 3.67760E-02-5.33330E-03-1.20781E+00-6.90348E-04 3.44660E-01
 -1       298 8.93055E+00 1.42444E-01 1.25293E-01-9.19612E-01-1.09697E-01 5.98523E-01
 -1       299 3.09169E+02 8.39318E+00 8.15168E+00-3.13661E-01 1.32146E+00-2.31253E+01
 -1       300 2.87856E+02-2.27649E-01 2.18930E-02 1.23696E+00 1.26632E+00-1.52899E+00
 -1       301 2.88659E+02-8.24405E-02-1.14938E-01-9.79013E-01 3.38117E-01 3.80528E-01
 -1       302 2.82217E+02-1.25428E-01-6.75267E-02-1.62805E+00 9.75066E-02 5.14225E-01
 -1       303 2.74022E+02 1.64620E-01 1.82462E-01-1.80698E+00-1.95943E-02 4.73414E-01
 -1       304 2.64376E+02-3.14609E-02-5.43880E-02-2.02224E+00 7.06029E-02 4.73087E-01
 -1       305 2.55576E+02 3.25369E-02 2.80225E-02-2.18106E+00-3.63456E-02 4.47597E-01
 -1       306 2.46080E+02-1.39461E-02-2.99574E-02-2.15910E+00 5.73351E-02 5.01329E-01
 -1       307 2.36584E+02-9.27590E-02-6.29078E-02-2.39186E+00 7.33458E-03 4.56016E-01
 -1       308 2.27559E+02 5.68937E-02 7.15736E-02-2.58901E+00-4.40870E-02 4.72399E-01
 -1       309 2.18276E+02 4.30319E-02 2.53567E-02-2.50615E+00-4.26963E-02 4.59799E-01
 -1       310 2.08784E+02-1.01603E-01-1.10908E-01-2.42997E+00-7.77766E-02 4.53208E-01
 -1       311 1.99385E+02 2.84800E-03-1.28464E-02-2.63456E+00 1.58714E-02 4.72114E-01
 -1       312 1.90607E+02 2.23376E-01 2.00955E-01-2.64502E+00-3.67874E-02 4.52509E-01
 -1       313 1.80877E+02 9.57997E-03-3.69729E-02-2.60088E+00 2.99769E-02 4.57184E-01
 -1       314 1.71590E+02-5.63351E-03-7.43150E-02-2.75312E+00 3.13499E-02 4.72508E-01
 -1       315 1.62556E+02 1.39379E-01 6.71875E-02-2.61527E+00-2.01396E-02 4.43027E-01
 -1       316 1.53099E+02 4.89496E-02-1.31787E-03-2.47144E+00-8.83595E-03 4.51077E-01
 -1       317 1.43862E+02-3.31637E-02-5.19598E-02-2.35587E+00-6.36065E-03 3.60153E-01
 -1       318 1.34537E+02-2.84334E-02-3.66496E-02-2.29521E+00-1.50882E-02 4.66547E-01
 -1       319 1.25008E+02-9.22990E-02-1.27391E-01-2.37948E+00 2.51668E-02 4.45328E-01
 -1       320 1.16163E+02 9.22685E-02 5.46131E-02-2.33723E+00-3.81827E-02 4.64441E-01
 -1       321 1.06582E+02 6.49660E-03-5.61511E-04-2.21140E+00 5.24784E-02 4.56129E-01
 -1       322 9.74028E+01 5.24401E-02 2.19258E-03-2.17927E+00-1.89515E-02 4.94232E-01
 -1       323 8.82576E+01 1.02800E-01 4.81296E-02-2.01237E+00-6.29356E-03 4.32536E-01
 -1       324 7.87313E+01-1.29996E-02-4.56078E-02-1.88226E+00 8.03089E-02 4.90583E-01
 -1       325 6.95251E+01 2.19473E-02-4.95134E-02-1.91401E+00 3.31192E-04 4.74968E-01
 -1       326 6.02692E+01 3.23811E-02-5.40550E-03-1.85525E+00 2.90781E-05 4.88006E-01
 -1       327 5.12601E+01 1.40660E-01 1.43832E-01-1.55904E+00-3.29786E-02 4.58688E-01
 -1       328 4.15899E+01-2.24767E-02-6.62863E-02-1.40199E+00 8.23003E-02 4.97582E-01
 -1       329 3.25254E+01 4.90338E-02-5.78579E-03-1.42321E+00-1.40126E-02 4.73343E-01
 -1       330 2.31871E+01 9.08459E-03-1.90940E-02-1.26594E+00 2.06011E-02 4.68917E-01
 -1       331 1.40804E+01 2.41994E-01 1.44849E-01-1.08595E+00-4.22098E-02 5.45500E-01
 -1       332 2.29735E+00 3.30746E-01-2.86068E-01-1.35903E+00 9.92296E-02 5.72389E-01
 -1       333 1.49906E+02 6.00676E+01 6.22426E+01-9.60037E+00 5.15023E-01-8.32913E+00
 -1       334-1.59716E+02-6.26447E+01-6.55790E+01-1.16869E+01 3.24965E-01 8.33063E+00
 -1       335 7.52126E+01 3.23590E+01 3.01340E+01 9.87799E+00-8.93907E-01 1.28061E+01
 -1       336-1.54879E+02-6.57578E+01-6.62665E+01-6.87462E+00 1.96988E-01-1.00847E+01
 -1       337-5.32024E+01-2.18559E+01-2.27350E+01 3.91903E+00-1.68138E-01 4.12184E-02
 -1       338-6.22789E+01-2.17400E+01-2.39998E+01 1.15174E+01-3.35664E-01 7.24717E+00
 -1       339 1.67687E+02 6.71286E+01 7.22879E+01-1.22345E+01 8.73964E-01 1.06489E+01
 -1       340-6.32747E+01-2.21074E+01-2.43202E+01 1.19215E+01 1.97051E-01-7.52452E+00
 -1       341 7.06692E+01 3.05876E+01 2.83755E+01 1.13954E+01 9.93341E-01-1.32670E+01
 -1       342 4.05276E+01 1.44441E+01 1.56428E+01 6.60697E+00 9.28362E-01-1.93566E+00
 -1       343-1.78424E+02-6.41484E+01-6.84540E+01-8.39795E+00 8.26313E-01 2.85471E+01
 -1       344 1.74111E+02 7.15334E+01 7.15142E+01-6.27106E+00 1.84257E+00 2.82067E+01
 -1       345-1.78101E+02-6.43162E+01-6.87627E+01-8.10262E+00-7.08825E-01-2.86181E+01
 -1       346 1.76256E+02 6.70708E+01 7.11416E+01-9.52330E+00-6.21497E-01-2.82344E+01
 -1       347 5.78719E+01 2.07540E+01 2.34756E+01 4.13435E+00-7.90111E-01 2.18127E+00
 -1       348-2.73048E+02-1.02798E+02-1.07036E+02-2.28625E+01 6.59915E+00 5.53774E+01
 -1       349-2.58106E+02-1.09149E+02-1.08162E+02-4.46310E+01-1.23867E+00 2.98893E+01
 -1       350-1.88182E+02-7.59947E+01-7.74483E+01 1.44292E+01-2.45795E+00 4.31323E+01
 -1       351-2.58294E+02-1.09186E+02-1.08306E+02-4.45889E+01 1.29303E+00-2.95975E+01
 -1       352-2.73076E+02-1.02840E+02-1.06998E+02-2.28565E+01-6.60437E+00-5.52761E+01
 -1       353-1.88522E+02-7.60843E+01-7.75995E+01 1.44491E+01 2.44294E+00-4.31697E+01
 -1       354 2.72620E+02 1.02438E+02 1.07067E+02-2.36175E+01 6.42724E+00-5.52103E+01
 -1       355 1.83327E+02 7.84723E+01 7.85089E+01 9.63830E+00-1.12111E-02-4.34188E+01
 -1       356 2.59221E+02 1.09158E+02 1.08404E+02-4.53250E+01-1.27699E+00-2.99257E+01
 -1       357 2.70940E+02 1.03085E+02 1.06495E+02-2.16151E+01-6.01734E+00 5.49436E+01
 -1       358 2.51231E+02 1.07502E+02 1.07496E+02-3.95867E+01-2.98367E-02 3.12169E+01
 -1       359 1.82837E+02 7.82631E+01 7.83011E+01 1.03439E+01 1.18503E-02 4.40454E+01
 -1       360-2.43955E+02-1.04717E+02-1.04741E+02-3.88718E+01 4.53808E-03-6.66231E+00
 -1       361-2.42231E+02-1.03979E+02-1.03991E+02-3.82164E+01 1.99687E-02-1.94169E+01
 -1       362-1.69991E+02-6.73294E+01-7.15996E+01-8.30344E+00 6.40411E-01-1.73773E+01
 -1       363-2.42815E+02-1.04225E+02-1.04241E+02-4.11965E+01-2.21371E-02 1.90411E+01
 -1       364-2.51439E+02-1.06893E+02-1.06810E+02-4.49031E+01-6.69662E-01 4.31775E+00
 -1       365-1.58020E+02-6.41063E+01-6.66853E+01-1.03739E+01-8.02357E-01-1.91028E+00
 -1       366-1.72398E+02-6.58232E+01-7.18652E+01-1.02818E+01-5.73287E-01 1.64619E+01
 -1       367-3.28298E+01-1.30050E+01-1.21475E+01 2.70580E+01-1.43109E+00 4.57309E+00
 -1       368-1.17345E+02-5.03305E+01-5.03200E+01 2.03662E+01 1.33230E-02 2.61451E+01
 -1       369-1.28087E+02-5.33221E+01-5.05709E+01 6.11911E+00 8.95119E-01 1.81012E+01
 -1       370 1.31356E+02 5.49994E+01 5.75021E+01 1.99409E+01-5.55940E-01-3.32651E+01
 -1       371 4.20881E+01 1.80466E+01 1.80336E+01 2.67068E+01-6.28217E-03-1.16272E+01
 -1       372-2.49618E+00-3.75619E-01 8.81305E-01 1.50942E+01-3.57383E-01-3.19744E+00
 -1       373 1.25049E+02 5.28042E+01 5.11220E+01 4.76600E+00-2.27454E-01-2.07977E+01
 -1       374 2.55150E+02 1.09117E+02 1.09261E+02-4.48090E+01-5.65065E-02 2.14207E+01
 -1       375 2.51836E+02 1.07763E+02 1.07734E+02-4.33334E+01-5.08833E-03 7.57037E+00
 -1       376 1.75038E+02 6.89305E+01 7.32770E+01-9.52374E+00 6.52662E-01 1.77016E+01
 -1       377 2.44499E+02 1.03940E+02 1.03681E+02-4.39715E+01-4.40799E-01-4.49455E+00
 -1       378 2.36113E+02 1.01039E+02 1.01024E+02-3.97778E+01 2.16289E-02-1.91087E+01
 -1       379 1.58396E+02 6.26736E+01 6.60523E+01-1.17822E+01-9.31010E-01 2.15938E+00
 -1       380 1.66759E+02 6.42901E+01 6.98295E+01-9.46411E+00-4.18309E-01-1.62726E+01
 -1       381-1.18267E+02-5.07260E+01-5.07155E+01 2.07815E+01-1.36410E-02-2.64494E+01
 -1       382-3.33704E+01-1.31991E+01-1.23190E+01 2.75228E+01 1.42212E+00-4.85051E+00
 -1       383-1.28341E+02-5.34816E+01-5.07613E+01 6.41310E+00-8.83096E-01-1.84064E+01
 -1       384 4.43747E+01 1.90250E+01 1.90126E+01 2.58316E+01 5.93307E-03 1.14290E+01
 -1       385 1.32181E+02 5.52149E+01 5.77049E+01 1.90857E+01 6.98557E-01 3.32863E+01
 -1       386-2.38145E-01 5.01657E-01 1.73718E+00 1.46181E+01 2.91876E-01 2.93202E+00
 -1       387 1.26183E+02 5.32521E+01 5.12801E+01 4.53775E+00 2.01907E-01 2.03722E+01
 -1       388 1.16733E+02 4.99730E+01 4.99812E+01 3.42759E-01-2.41216E-04 6.39615E+00
 -1       389 1.06937E+02 4.54968E+01 4.49218E+01-2.40363E-01 3.71563E-01-1.63970E+00
 -1       390 1.20306E+02 5.15048E+01 5.15140E+01 4.06721E+00-1.21898E-03-9.95431E+00
 -1       391 9.90527E+01 4.24079E+01 4.24154E+01 2.41554E+00-2.70589E-04-4.94642E+00
 -1       392 5.36682E+01 2.29868E+01 2.29948E+01 1.03257E+01-1.62257E-03-6.89822E+00
 -1       393 4.97775E+01 2.08135E+01 2.13814E+01 3.72129E+00 5.06217E-01-4.75012E-02
 -1       394-1.10940E+02-4.66240E+01-4.56375E+01-6.92832E-01 6.36360E-01 2.89250E+00
 -1       395-1.08466E+02-4.65351E+01-4.65267E+01 5.16646E-01 3.00222E-04-4.77574E+00
 -1       396-1.17859E+02-5.05666E+01-5.05579E+01 3.16738E+00 7.08293E-04 8.65865E+00
 -1       397-5.26545E+01-2.25807E+01-2.25723E+01 7.77982E+00 1.06479E-03 4.32868E+00
 -1       398 1.31491E+02 5.62884E+01 5.62985E+01 2.49933E+00 6.00239E-04 1.11166E+01
 -1       399 6.56865E+01 2.81323E+01 2.81410E+01 8.83798E+00 1.51798E-03 6.48941E+00
 -1       400-3.63430E+00-1.83135E+00-3.61552E+00 1.05287E+01 5.17303E-01 4.16774E-01
 -1       401-5.31055E+01-2.27743E+01-2.27656E+01 8.43986E+00-1.21164E-03-4.43376E+00
 -1       402-1.14041E+02-4.89271E+01-4.89177E+01 3.38273E+00-7.60916E-04-9.36956E+00
 -1       403-1.26855E+01-5.01026E+00-7.83963E+00 1.10122E+01-2.96807E-01-3.48482E-02
 -1       404-5.31619E+00-3.98876E+00-3.22035E+00 6.25047E+00 8.30152E-01 1.02399E+00
 -1       405 5.46946E+00 4.24121E-01 8.75873E-01 6.68647E+00-1.36787E+00-7.03278E-01
 -1       406 1.75927E+00 6.79567E-01 7.11309E-01-6.35563E+00 2.45502E-02 2.39444E-01
 -1       407 1.72284E+00 6.46415E-01 6.91064E-01-6.39294E+00-1.51512E-03-2.34874E-01
 -1       408-3.65010E+00-7.39568E-01-1.31920E+00-4.84179E+00 5.88048E-02-2.19657E-01
 -1       409-1.70631E+00-4.62672E-01-6.51133E-01-6.26371E+00-4.68656E-03 2.33390E-01
 -1       410-2.19735E-01 2.24014E-01-1.07590E-02-6.30847E+00-2.17774E-02 1.43989E-02
 -1       411 3.51883E+00 1.05396E+00 1.42030E+00-5.23880E+00-1.97356E-02-1.06550E-01
 -1       412-2.01996E+00-4.97316E-01-7.18211E-01-6.20081E+00 4.33670E-02-2.30401E-01
 -1       413-3.67472E+00-6.54780E-01-1.34635E+00-5.12463E+00-2.96036E-02 1.04267E-01
 -1       414 3.20235E+00 9.69097E-01 1.25691E+00-4.76424E+00 5.39314E-02 2.20087E-01
 -1       415 1.59495E+00 5.95859E-01 7.10929E-01-5.98011E+00-1.51742E-02 7.01702E-02
 -1       416-3.39740E+00-5.71013E-01-1.23449E+00-5.06126E+00 2.96109E-02-6.29031E-01
 -1       417 3.33645E+00 7.33605E-01 1.28931E+00-5.07599E+00-2.30055E-02-5.23480E-01
 -1       418-3.54878E+00-3.92511E-01-1.23410E+00-4.99458E+00-3.36259E-02 5.11972E-01
 -1       419 3.40720E+00 8.23432E-01 1.30391E+00-5.07380E+00 7.33695E-02 6.14693E-01
 -1       420-1.62218E+00-4.32720E-02-5.23490E-01-6.07366E+00 2.50713E-02-6.89841E-02
 -1       421 1.63599E+00 8.74610E-01 7.53034E-01-4.06608E+00 7.23130E-03-4.81242E-01
 -1       422-4.82249E-01 3.57931E-02-8.10125E-02-4.11129E+00 4.54035E-02-5.18552E-01
 -1       423-3.62626E+00-1.31923E+00-1.48389E+00-5.47554E+00 1.12499E-02-7.46883E-01
 -1       424-5.55454E-01 2.45850E-02-1.33238E-01-4.09299E+00-4.54209E-02 5.14324E-01
 -1       425 2.13280E+00 1.06484E+00 8.75805E-01-4.14754E+00-1.84841E-02 5.38397E-01
 -1       426-4.15338E+00-1.08679E+00-1.62378E+00-5.60943E+00-6.00888E-03 8.00378E-01
 -1       427 3.94818E+00 1.45138E+00 1.66930E+00-5.70145E+00-2.78525E-02 8.25453E-01
 -1       428 4.56292E-01 2.85865E-01 1.79071E-01-4.10707E+00 3.35043E-02 5.32303E-01
 -1       429-1.68262E+00-5.50627E-01-6.70113E-01-3.98224E+00-7.61629E-03 5.06909E-01
 -1       430-2.18701E+00-7.42943E-01-7.85835E-01-4.07504E+00 5.81401E-03-5.62107E-01
 -1       431 3.74353E-01 2.47539E-01 1.70554E-01-4.10083E+00-2.68658E-02-5.49188E-01
 -1       432 3.99354E+00 1.48603E+00 1.68513E+00-5.70410E+00 3.05582E-02-8.22109E-01
 -1       433 8.00631E-01 5.17107E-01 3.95178E-01-4.07419E+00-5.10345E-03 3.39678E-01
 -1       434 1.53277E+00 7.52993E-01 6.01823E-01-4.10467E+00-5.44555E-02 9.49750E-02
 -1       435-3.73860E+00-5.95074E-01-1.30027E+00-5.12749E+00-5.86148E-02 3.56996E-01
 -1       436 1.31790E+00 7.34052E-01 6.15449E-01-3.96553E+00 9.40601E-04-6.25573E-02
 -1       437 2.05675E+00 9.92962E-01 8.59716E-01-4.11507E+00-3.58722E-02-3.23447E-01
 -1       438-3.42903E+00-5.94790E-01-1.20089E+00-4.89848E+00 4.81460E-02-1.08921E-02
 -1       439-3.72808E+00-6.41411E-01-1.30652E+00-4.99582E+00 4.79604E-02-3.62165E-01
 -1       440-3.53264E+00-9.09926E-01-1.29460E+00-6.15059E+00 1.00218E-01-6.36510E-01
 -1       441-1.30189E+00-2.63806E-01-4.70064E-01-6.86397E+00 3.37986E-03-2.23885E-01
 -1       442-2.52539E+00-8.62910E-01-1.06118E+00-5.73536E+00-5.72837E-02-4.19875E-01
 -1       443 8.69039E-01 5.22164E-01 4.15542E-01-6.92440E+00-3.01948E-02 1.70751E-01
 -1       444 2.80094E+00 1.47369E+00 1.28208E+00-6.39685E+00-8.89646E-03 5.89690E-01
 -1       445 3.74412E-01 4.24539E-01 1.85755E-01-6.52547E+00 4.78288E-03-4.90247E-03
 -1       446 2.68715E+00 1.38494E+00 1.18009E+00-5.93381E+00 7.84382E-03 3.99720E-01
 -1       447-1.46136E+00-3.76438E-01-4.61219E-01-4.07445E+00-4.92507E-02-1.00656E-01
 -1       448-7.06812E-01-1.29436E-01-2.51011E-01-4.05586E+00 5.26828E-03-3.50675E-01
 -1       449 3.53827E+00 9.77342E-01 1.35595E+00-5.23065E+00-5.17296E-02-3.77170E-01
 -1       450-2.51320E+00-8.23962E-01-9.52923E-01-3.98236E+00-5.25904E-02 3.22647E-01
 -1       451-1.76573E+00-5.90414E-01-7.06970E-01-3.88417E+00-6.56490E-04 4.36256E-02
 -1       452 3.18998E+00 9.29005E-01 1.22271E+00-4.90528E+00 7.00116E-02 2.08164E-02
 -1       453 3.49277E+00 9.72203E-01 1.33930E+00-4.98387E+00 1.87691E-02 3.58242E-01
 -1       454-1.02355E+00-1.45671E-01-3.51115E-01-6.83823E+00-2.88083E-03 1.90835E-01
 -1       455-3.21576E+00-1.10679E+00-1.29708E+00-6.32713E+00-9.23424E-03 6.12125E-01
 -1       456-2.98008E+00-1.00317E+00-1.13133E+00-5.90008E+00-9.27799E-03 3.87821E-01
 -1       457 2.84849E+00 1.49521E+00 1.30280E+00-6.42355E+00 8.78481E-03-5.82276E-01
 -1       458 8.73492E-01 5.33272E-01 4.17650E-01-6.95020E+00 3.14067E-02-1.53905E-01
 -1       459 5.75524E-01 5.00534E-01 2.42940E-01-6.54568E+00 3.16273E-05 2.70131E-02
 -1       460 2.66257E+00 1.38644E+00 1.18406E+00-5.98267E+00 3.68899E-03-3.82031E-01
 -1       461-1.66982E+00-4.52180E-01-6.36882E-01-6.14850E+00 1.67238E-03-1.10896E-01
 -1       462 6.24713E-02 2.72585E-01 6.96138E-02-6.34681E+00 1.73162E-02-6.01815E-02
 -1       463 1.49132E+00 9.02470E-01 7.17858E-01-6.15887E+00-1.92971E-03 1.27929E-01
 -1       464 2.13202E+00 1.15124E+00 9.84744E-01-5.56061E+00-2.12935E-03 1.41385E-01
 -1       465 2.23580E+00 1.20224E+00 1.03116E+00-5.71282E+00-3.41890E-03 2.26900E-01
 -1       466-2.05983E-01 1.97212E-01 8.94289E-02-6.30146E+00-3.10301E-02 9.28589E-02
 -1       467 8.02958E-01 4.74610E-01 3.94922E-01-6.40632E+00-2.35341E-02-3.17114E-02
 -1       468-7.20899E-01-3.82334E-02-2.28034E-01-6.32152E+00-1.50277E-03 9.96295E-02
 -1       469 2.20959E+00 1.20068E+00 1.02281E+00-5.93817E+00 2.79894E-03-1.85656E-01
 -1       470 1.02861E+00 6.96277E-01 5.17203E-01-5.97303E+00 9.61712E-04-6.38127E-02
 -1       471-2.55383E+00-8.50603E-01-1.02158E+00-5.68960E+00 3.35432E-03-2.22650E-01
 -1       472-2.14106E+00-6.76027E-01-8.45371E-01-5.63705E+00 1.76087E-03-1.16913E-01
 -1       473-2.16148E+00-6.47434E-01-8.90483E-01-5.68646E+00 4.32009E-03 4.39723E-02
 -1       474-1.45897E+00-3.71542E-01-5.49421E-01-5.92295E+00-9.42838E-04 6.26060E-02
 -1       475-2.49119E+00-8.16379E-01-9.92540E-01-5.86158E+00-2.87599E-03 1.90820E-01
 -1       476 2.05562E+00 1.06152E+00 9.65605E-01-5.67607E+00-6.72674E-03-4.08516E-02
 -1       477 6.81426E-01 4.12463E-01 3.59708E-01-6.20276E+00 2.63506E-02-2.56367E-02
 -1       478-8.93450E-01 9.43208E-02-2.80809E-01-6.17008E+00 2.64507E-03 1.83330E-02
 -1       479-9.71188E+01 2.89056E-03 3.32851E-02 1.18037E+00-5.42763E-03 6.64540E-01
 -1       480-6.00962E+01-1.72174E-02-4.37230E-02 5.82275E-01 1.39835E-02 5.98877E-01
 -1       481-2.34427E+01 2.11613E-02-3.60124E-02-1.04856E-02 3.57380E-02-7.08211E-01
 -1       482-1.33952E+02-2.01132E-01-3.86194E-02 1.36055E+00 5.77026E-03 6.67863E-01
 -1       483-1.15545E+02-7.95581E-02-7.24568E-02 1.21589E+00-2.79393E-02-5.96460E-01
 -1       484-7.84083E+01-2.20111E-01-1.44142E-01 3.41252E-01-9.63544E-02-3.51904E-01
 -1       485-4.19275E+01 2.21687E-01 3.69282E-02 3.84237E-01 4.56392E-04-6.77417E-01
 -1       486-1.52824E+02-1.94020E-04-4.37640E-02 1.48441E+00 2.07883E-02-6.27656E-01
 -1       487-2.64217E+02 1.79138E-01 1.21357E-01 9.20107E-01 6.30818E-04 6.58962E-01
 -1       488-2.44831E+02-4.88332E-02 1.76092E-02 1.02380E+00-3.40141E-02 6.72095E-01
 -1       489-2.82424E+02-2.80848E-02 1.29811E-01 4.51594E-01 1.03506E-02-8.95501E-01
 -1       490-2.08138E+02 5.36454E-02 2.27151E-03 1.40101E+00-5.56001E-02 6.17162E-01
 -1       491-1.80855E+02 1.04041E-01 4.98774E-02 1.75734E+00-3.44018E-02 7.06740E-01
 -1       492-2.26421E+02-6.31351E-02 4.56469E-02 1.31469E+00 5.38357E-03 6.14586E-01
 -1       493-3.01064E+02 2.54204E-01-5.55014E+00 7.43323E-01-5.66114E-01 3.04910E+00
 -1       494-2.92513E+02-1.72476E-01-9.37353E-01-1.70987E-01-3.51913E-02 6.81540E-01
 -1       495-1.33958E+01 5.96853E-02-7.06186E-02-2.27518E-01-6.48871E-02 7.83276E-01
 -1       496-1.61559E+02-2.11698E-01-1.65851E-01 1.16326E+00 7.98214E-02 3.84529E-01
 -1       497-3.20220E+01-2.11367E-01-1.88466E-01-1.26455E-01 1.12842E-01 3.67571E-01
 -1       498-2.53853E+02-1.75084E-01-6.70147E-02 1.16269E+00 6.72468E-04-6.30944E-01
 -1       499-1.98657E+02-2.61368E-01-1.64881E-01 1.06864E+00-7.35697E-02-3.70466E-01
 -1       500-1.71089E+02-7.89546E-02-3.02972E-02 1.45789E+00 1.05332E-03-5.63595E-01
 -1       501-2.35627E+02-2.65905E-01-1.39736E-01 8.39894E-01-6.61113E-02-3.60730E-01
 -1       502-2.17632E+02 1.19061E-01 3.90668E-02 1.53642E+00 3.11841E-03-6.61249E-01
 -1       503-3.09872E+02 2.23597E+01-3.40232E+01-4.03122E+00 7.19588E-01-7.71723E+00
 -1       504-3.94417E+00 2.79231E-01 4.24713E-01-1.27096E+00 5.00381E-02-4.11164E-01
 -1       505-9.67390E+01-1.52983E-01-1.36712E-02 1.24856E+00 3.78313E-03-7.12567E-01
 -1       506-6.04336E+01 1.29440E-01 8.02868E-02 5.12062E-01 3.30532E-02-6.02767E-01
 -1       507-1.33649E+02-2.03636E-01-5.47342E-03 1.55194E+00 1.89349E-02-7.00533E-01
 -1       508-1.15428E+02-2.45623E-01-1.76195E-01 7.83988E-01 1.17668E-01 3.38693E-01
 -1       509-7.88897E+01 1.25375E-01 2.70850E-02 9.48031E-01-7.08058E-03 6.55031E-01
 -1       510-2.92630E+02-1.02247E-01-9.23020E-01-1.06879E-02 4.33770E-02-5.89908E-01
 -1       511-2.82751E+02 1.14528E-01 2.03751E-01 1.52367E-01-6.18502E-02 7.08690E-01
 -1       512-2.72687E+02-2.10750E-01 1.59146E-02 6.73394E-01 2.89278E-04 7.39195E-01
 -1       513-2.68463E+02-6.71249E-02 8.35882E-02 5.22874E-01-3.25041E-02 1.55210E-02
 -1       514-2.28524E+01-6.38379E-02-1.04191E-02 2.02776E-02-8.97222E-03 7.35751E-01
 -1       515-8.76030E+01-8.58226E-02-8.30435E-02 9.52647E-01-4.26691E-02 5.88018E-01
 -1       516-8.83688E+01 1.80453E-01 5.05200E-02 9.07009E-01 4.22075E-02-6.19943E-01
 -1       517-1.62370E+02 1.12648E-01 3.68254E-02 1.72197E+00 3.94790E-03-6.92316E-01
 -1       518-1.52400E+02-5.06738E-02-2.69079E-03 1.31577E+00-2.68983E-02 6.63767E-01
 -1       519-1.25494E+02 2.44503E-01 9.58098E-02 1.06512E+00 1.05168E-01-4.43361E-01
 -1       520-1.25525E+02 2.00310E-01 8.59963E-02 1.31011E+00-1.67519E-02 6.22954E-01
 -1       521-2.36146E+02 2.12654E-01 2.06478E-01 8.15373E-01-9.31938E-02 3.62132E-01
 -1       522-1.99185E+02 2.34347E-01 2.02958E-01 1.06091E+00-9.04926E-02 3.73153E-01
 -1       523-1.89221E+02-2.06056E-01-1.50622E-02 1.49075E+00 2.51307E-02 6.25300E-01
 -1       524-1.85071E+02-2.54879E-02 3.01048E-02 1.35172E+00 1.45168E-02 1.14940E-02
 -1       525-2.08363E+02 4.37735E-02 1.02551E-02 1.43082E+00 2.36785E-02-6.11832E-01
 -1       526-6.94608E+01-3.21616E-03 3.01619E-03 7.19690E-01-1.36685E-02-6.74823E-01
 -1       527-6.96015E+01 2.53693E-02-1.26532E-02 7.21752E-01-2.16897E-02 6.23322E-01
 -1       528-1.71471E+02 4.80662E-02 2.33575E-02 1.48477E+00-1.77393E-02 6.07073E-01
 -1       529-3.20772E+01-6.47090E-02-6.22276E-02 6.90975E-02-4.86153E-02-5.87165E-01
 -1       530-4.18488E+01 1.85547E-01 6.56468E-02 3.16846E-01-1.12251E-02 6.43069E-01
 -1       531-2.26482E+02-9.37666E-02 8.41953E-03 1.36941E+00 1.06176E-02-6.28788E-01
 -1       532-2.45362E+02 1.85179E-01 8.45881E-02 1.10920E+00 1.07687E-02-6.54790E-01
 -1       533-5.03087E+01-1.86719E-01-3.52395E-02 5.03926E-01-2.17053E-02 6.23755E-01
 -1       534-2.54000E+02-2.39119E-01-1.62731E-01 7.19467E-01 9.59257E-02 3.63852E-01
 -1       535-5.01505E+01-2.39639E-01-1.12925E-01 3.06368E-01-3.76383E-02-4.72975E-01
 -1       536-1.43661E+02 2.34663E-01 1.84926E-01 9.69201E-01-1.31317E-01 3.25084E-01
 -1       537-2.16913E+02-1.56362E-01-8.56415E-03 1.64563E+00-1.26273E-02 6.89429E-01
 -1       538-1.43522E+02 1.19974E-03 9.48063E-02 1.50278E+00 5.06078E-02-6.11828E-01
 -1       539-1.06488E+02 3.79072E-03 4.24109E-02 1.07660E+00 1.79234E-02 5.97112E-01
 -1       540-1.06236E+02-3.01508E-02 5.71263E-02 1.15797E+00-4.36358E-03-6.21286E-01
 -1       541-2.98702E+02 7.80622E-01-4.81482E+00-7.49631E-02 4.12432E-02 1.74422E-02
 -1       542-2.87355E+02-1.11085E-01-4.36715E-01-7.34328E-02 2.03730E-02 9.88727E-03
 -1       543-2.63740E+02 2.15935E-01 9.01054E-02 9.31846E-01-5.49514E-03-6.87771E-01
 -1       544-3.05120E+02 3.03838E+01-2.78539E+01 2.61032E+00-6.48258E-02 9.00005E+00
 -1       545-1.89799E+02 9.97300E-03 8.86516E-02 1.46570E+00-2.46276E-02-6.13600E-01
 -1       546-1.75723E+02-1.36239E-02 2.49325E-04 1.37745E+00-1.17665E-02 3.99356E-02
 -1       547-1.83407E+01-1.54979E-01-1.86017E-01-6.29505E-01 1.00459E-02-1.38961E-02
 -1       548-2.72291E+02-2.66394E-01-2.95910E-02 5.80463E-01-4.31617E-02-5.65539E-01
 -1       549-2.83878E+01 1.12725E-01 3.02621E-02-3.07105E-01-2.13487E-02 2.97209E-02
 -1       550-2.58836E+02-8.42382E-02 4.05877E-02 4.44563E-01 3.19194E-02-2.15227E-03
 -1       551-6.44308E+01-9.07569E-02-2.51081E-02 1.48547E-01 2.49000E-02-3.58888E-02
 -1       552-7.44222E+01 3.19220E-02 2.64424E-03 3.06091E-01 3.70479E-02-8.85463E-02
 -1       553-1.11675E+02 4.39532E-02 5.78700E-02 8.15053E-01-4.81764E-02 5.74723E-02
 -1       554-5.59338E+01 1.19902E-01-2.71759E-03 2.72729E-02-1.48799E-02-3.39702E-02
 -1       555-1.39006E+02 6.28183E-02 4.71823E-02 8.97785E-01-6.17381E-05 2.02137E-02
 -1       556-1.01855E+02-2.77517E-02-1.14040E-03 9.03337E-01 8.90384E-04-2.05192E-03
 -1       557-1.20150E+02-9.88879E-02-1.05561E-02 7.44808E-01 4.40589E-02 2.22732E-02
 -1       558-1.29398E+02 3.12672E-02 1.11546E-04 1.03388E+00-3.44951E-02 1.94867E-02
 -1       559-3.68150E+01-5.48977E-02-3.77527E-02-2.61274E-01 4.35540E-02 5.54403E-05
 -1       560-4.64121E+01-3.04351E-02-2.57401E-02 1.12790E-01 3.45371E-03-9.60850E-03
 -1       561-8.32069E+01-2.10920E-02 1.48051E-02 6.61974E-01-2.55117E-02 5.86201E-02
 -1       562-1.47393E+02-7.02596E-02-1.47208E-02 1.06337E+00 3.64990E-02 8.62295E-02
 -1       563-1.66519E+02-1.67896E-02 4.39028E-02 1.31440E+00 4.25780E-02-4.15676E-02
 -1       564-2.50367E+02 1.63165E-02 6.77680E-02 7.51158E-01-3.81468E-02 7.48619E-02
 -1       565-2.39900E+02-7.27548E-02 8.08777E-02 8.21406E-01-1.36235E-02 4.01445E-02
 -1       566-2.22030E+02-2.69839E-02 5.66917E-02 1.19293E+00-2.39397E-02 1.85652E-02
 -1       567-2.12774E+02 1.80839E-03 4.71569E-03 1.25770E+00-6.81087E-03-2.28146E-02
 -1       568-2.31832E+02 1.92468E-02-4.58928E-03 9.20913E-01-1.02465E-02-4.61018E-02
 -1       569-2.02982E+02-3.59756E-02 7.46903E-02 1.10556E+00-1.62070E-02 4.96852E-02
 -1       570-9.25099E+01-1.08791E-02-2.10670E-02 8.39224E-01 2.25408E-02-2.95703E-02
 -1       571-1.57717E+02 8.24926E-03 5.22091E-03 1.06086E+00-3.17305E-02 1.11562E-01
 -1       572-1.94872E+02 1.56146E-02-2.68004E-02 1.13532E+00-5.85563E-03-5.01672E-02
 -1       573-1.80407E+02-3.36294E-02-1.68007E-03 1.67028E+00 1.88755E-02-6.73699E-01
 -1       574-2.78041E+02 7.15711E-02 1.18665E-01 1.37414E-01-4.14451E-02 1.27894E-02
 -1       575-4.01834E+00 3.42866E-01 3.04072E-01-1.03596E+00-4.54219E-02 4.58911E-01
 -1       576-3.01240E+02 2.11861E-01-5.69835E+00 6.29837E-01 5.33453E-01-3.00687E+00
 -1       577-1.36708E+01 9.11473E-02-6.70423E-03-1.55139E-01 4.94298E-02-7.95823E-01
 -1       578-3.02307E+02 1.73757E+00-1.83908E+01 8.58521E-01 5.71099E-02-1.80641E-01
 -1       579-3.05560E+02 1.73665E+01-1.27547E+01 2.24611E+00-1.02498E+00 1.97974E+01
 -1       580-3.05601E+02 1.72585E+01-1.33415E+01 2.08004E+00 1.16873E+00-2.01715E+01
 -1       581-3.91861E+00 1.33553E-01 1.00405E-01-8.83518E-01-4.94894E-02 9.58935E-01
 -1       582-3.42927E+00 4.73221E-01 1.91926E-01-1.08805E+00 8.95706E-03-8.44388E-01
 -1       583-1.13629E+01 1.80469E-01-2.25979E-01-5.21074E-01-2.03809E-02 4.85242E-02
 -1       584-3.13287E+02-2.68704E+01-6.49302E+01-3.00057E+01-1.64860E-01 2.77002E+01
 -1       585-3.33601E+02-2.93795E+01-5.36054E+01-1.80454E+01 8.46637E+00 4.61796E+01
 -1       586-2.86612E+02 6.20087E+00 6.72865E-01 5.83800E+00-2.74376E+00 8.08291E+00
 -1       587-3.33662E+02-2.95043E+01-5.41019E+01-1.81727E+01-8.52479E+00-4.65275E+01
 -1       588-3.13820E+02-2.73301E+01-6.54678E+01-3.03359E+01 1.07130E-01-2.80357E+01
 -1       589-2.86705E+02 6.19427E+00 3.54682E-01 5.74153E+00 2.79116E+00-8.18723E+00
 -1       590 1.39349E+00 9.47471E-01 1.17632E+00-1.93153E+00 1.64866E-01-5.08957E-01
 -1       591 3.46068E+00 2.28987E+00 2.07835E+00-2.68164E+00-6.22170E-02-6.11296E-01
 -1       592-6.28684E+00 2.45065E-01-8.25764E-03-4.80621E-01-1.30123E-02-1.01273E+00
 -1       593 3.01652E+00 1.62766E+00 1.83329E+00-2.33686E+00-1.18887E-01 8.41824E-01
 -1       594 1.23040E+00 7.58483E-01 1.09545E+00-1.87138E+00-1.38531E-01 4.60996E-01
 -1       595-6.28598E+00 2.60523E-01 4.29695E-03-4.97239E-01 4.08723E-02 9.96102E-01
 -1       596-3.25407E+02-3.91928E+01-8.18627E+01-3.51042E+01 3.79270E+00-1.71120E+01
 -1       597-3.29286E+02-4.44319E+01-8.52153E+01-3.63927E+01-2.31228E+00-6.46184E+00
 -1       598-3.05867E+02 2.32123E+01-2.63150E+01 1.70150E+00 4.79610E-01-1.60783E+01
 -1       599-3.22211E+02-3.08565E+01-7.55464E+01-3.06135E+01-8.46514E-01 5.03859E+00
 -1       600-3.24123E+02-3.71650E+01-7.92100E+01-3.19551E+01-2.31235E+00 1.83818E+01
 -1       601-3.04732E+02 2.34148E+01-3.37157E+01 7.06732E-01 1.01570E+00 7.22047E-01
 -1       602-3.05442E+02 2.48633E+01-2.47022E+01 2.92692E+00-4.61797E-01 1.63238E+01
 -1       603 2.31027E+00 1.77366E+00 1.92393E+00-2.38574E+00-8.56697E-03 2.53971E-01
 -1       604 2.60503E+00 2.24637E+00 2.01033E+00-2.60472E+00-8.10052E-02 5.73340E-01
 -1       605-3.68629E+00 2.79143E-01 2.79451E-01-1.08287E+00-5.53106E-02 8.18445E-01
 -1       606 2.46648E+00 1.69284E+00 1.90545E+00-2.42969E+00 3.18571E-04-6.41120E-01
 -1       607 2.55354E+00 2.13420E+00 2.06592E+00-2.66288E+00 9.66626E-03-1.25758E-01
 -1       608-4.25458E+00 2.62515E-01 4.76185E-01-1.13237E+00 2.03927E-02 1.60011E-01
 -1       609-3.67265E+00 2.42812E-01 2.26151E-01-1.23290E+00 9.29944E-03-8.24299E-01
 -1       610-2.96630E+02-7.34946E-01-2.19911E+00 3.94109E-01 4.09797E-01-1.06208E+00
 -1       611-2.96855E+02-2.63596E+00-6.59341E+00 1.60329E+00-1.82325E+00-4.60153E+00
 -1       612-2.99913E+02 7.89995E-01-1.05053E+01 4.96649E-01 2.01362E-01-1.01197E+01
 -1       613-2.88829E+02-5.00293E-01-3.71329E-01 5.66431E-02-1.66223E-01 7.74741E-01
 -1       614-2.91123E+02-2.04162E-01-5.42148E-01 1.07710E-01-8.18933E-02 2.83005E-01
 -1       615-2.96334E+02 1.53255E-01-2.79685E+00 3.37830E-01 4.22099E-01-6.80690E-01
 -1       616-2.79921E+02 1.15678E-02 4.03390E-02 2.14059E-01-1.45075E-01 6.75648E-01
 -1       617-2.83637E+02 1.41722E-01 1.03689E-01 4.79452E-01-3.68410E-03 8.83676E-01
 -1       618-2.86713E+02 2.37645E-01 2.86296E-02 2.47793E-01-6.09076E-03 9.24137E-01
 -1       619-2.70554E+02-1.79853E-01-4.04105E-02 7.58919E-01-2.44301E-02 6.42437E-01
 -1       620-2.74952E+02-1.69436E-01-2.62089E-02 3.31072E-01 6.03725E-02 6.30015E-01
 -1       621-2.78027E+02-2.00005E-01-1.96110E-02 2.69560E-01-8.32722E-02 7.47673E-01
 -1       622-2.61174E+02 1.36850E-01 1.44822E-01 6.82097E-01-1.25100E-01 5.53384E-01
 -1       623-2.66106E+02 1.03473E-01 3.14553E-02 8.86770E-01 2.48282E-02 6.19145E-01
 -1       624-2.68281E+02 1.00312E-01 1.60659E-01 8.88442E-01 1.52380E-02 6.83108E-01
 -1       625-2.51949E+02-1.65377E-01-9.31286E-02 1.12432E+00-1.33182E-02 7.17564E-01
 -1       626-2.56335E+02-1.04682E-01-2.50825E-02 6.17307E-01 1.29918E-01 5.00180E-01
 -1       627-2.58385E+02 1.72467E-01 1.86561E-01 6.84818E-01 7.92429E-02 5.96337E-01
 -1       628-2.42600E+02-1.40923E-01 6.34603E-02 1.22129E+00-7.26320E-02 7.65900E-01
 -1       629-2.47513E+02 2.74960E-02-4.56399E-02 1.20082E+00 3.84734E-02 6.79278E-01
 -1       630-2.50141E+02-2.51147E-01-3.17918E-01 9.46006E-01-5.76708E-03 5.37728E-01
 -1       631-2.33901E+02-2.04203E-02-5.40507E-02 8.54862E-01-1.20620E-01 5.63555E-01
 -1       632-2.37960E+02 2.09245E-01 2.13436E-01 1.16421E+00-1.38421E-02 6.76211E-01
 -1       633-2.40075E+02 1.55093E-01 1.41550E-01 9.29720E-01-1.11058E-02 6.39264E-01
 -1       634-2.24281E+02-6.87915E-02-6.03181E-03 1.13133E+00-6.75252E-02 4.78755E-01
 -1       635-2.28919E+02-7.23974E-02 1.05457E-02 1.02919E+00 1.00661E-01 5.29162E-01
 -1       636-2.31897E+02-1.64260E-01-9.29743E-02 9.79903E-01-6.90397E-02 6.35584E-01
 -1       637-2.14909E+02-1.61880E-01-8.83327E-03 1.58321E+00-2.15048E-02 6.47044E-01
 -1       638-2.19458E+02-1.41802E-01-6.06882E-02 1.24410E+00 4.30030E-02 5.13918E-01
 -1       639-2.22030E+02-2.19057E-01-8.43918E-03 1.33503E+00-4.60684E-02 6.64329E-01
 -1       640-2.05568E+02-1.56357E-01 6.49897E-02 1.56818E+00-1.24094E-01 7.60860E-01
 -1       641-2.10551E+02 1.62484E-02-5.68752E-02 1.50875E+00 4.61164E-03 5.98095E-01
 -1       642-2.12592E+02 1.05581E-01-1.93080E-02 1.60086E+00 1.17274E-02 6.40969E-01
 -1       643-1.96934E+02-2.35517E-03-5.65163E-02 1.07592E+00-1.27878E-01 5.65981E-01
 -1       644-2.00984E+02 2.05384E-01 1.96586E-01 1.42271E+00-1.60430E-02 6.82850E-01
 -1       645-2.03010E+02 2.45723E-01 1.92210E-01 1.31046E+00 1.48162E-02 6.82045E-01
 -1       646-1.87273E+02-1.57950E-01-3.55702E-02 1.48783E+00-8.77235E-03 5.40454E-01
 -1       647-1.91999E+02-1.25392E-01-3.83328E-02 1.22284E+00 1.19195E-01 5.85163E-01
 -1       648-1.94886E+02-1.88441E-01-1.12008E-01 1.18134E+00-7.54829E-02 6.57743E-01
 -1       649-1.78303E+02 1.12853E-01 6.56810E-02 1.39693E+00-6.81554E-02 5.41103E-01
 -1       650-1.82833E+02 1.39675E-01 2.20545E-02 1.65969E+00-3.29364E-03 6.45417E-01
 -1       651-1.85088E+02-1.24260E-01 3.51379E-02 1.68170E+00-3.69484E-02 6.67710E-01
 -1       652-1.68855E+02 5.67811E-02 1.75754E-02 1.21229E+00-1.08890E-01 5.24786E-01
 -1       653-1.73545E+02 6.60040E-02 3.68050E-02 1.29450E+00 5.94750E-02 4.91291E-01
 -1       654-1.75801E+02 1.80763E-01 9.13298E-02 1.50493E+00 1.41727E-02 6.83065E-01
 -1       655-1.59539E+02-1.65183E-01-7.96659E-02 1.54520E+00-2.05678E-02 7.17258E-01
 -1       656-1.63883E+02-6.48355E-02-3.56614E-03 1.12203E+00 1.20276E-01 5.26876E-01
 -1       657-1.66031E+02 1.32345E-01 1.19049E-01 1.18612E+00 7.10477E-02 6.10376E-01
 -1       658-1.50168E+02-1.49243E-01 5.40871E-02 1.47809E+00-7.31691E-02 7.62680E-01
 -1       659-1.55097E+02 2.25421E-02-5.32677E-02 1.54398E+00 3.87816E-02 6.74930E-01
 -1       660-1.57731E+02-2.49326E-01-3.31788E-01 1.32539E+00-8.31112E-03 5.31325E-01
 -1       661-1.41427E+02 7.33695E-03-4.90510E-02 9.61711E-01-1.39928E-01 5.49138E-01
 -1       662-1.45508E+02 2.12978E-01 2.18934E-01 1.34944E+00-1.87760E-02 6.76906E-01
 -1       663-1.47622E+02 1.63433E-01 1.37352E-01 1.14384E+00-1.92906E-02 6.29747E-01
 -1       664-1.31909E+02-1.58150E-01-4.73305E-02 1.37624E+00-1.43508E-02 6.09534E-01
 -1       665-1.36417E+02-1.53980E-01-2.59484E-02 1.02320E+00 7.93441E-02 5.72177E-01
 -1       666-1.39349E+02-2.17575E-01-1.18595E-01 1.00505E+00-9.79380E-02 5.99164E-01
 -1       667-1.22585E+02 1.81833E-01 9.32670E-02 1.03240E+00-1.38702E-01 5.19752E-01
 -1       668-1.27401E+02 1.24340E-01-5.50566E-03 1.34057E+00 3.19596E-03 5.88979E-01
 -1       669-1.29625E+02 1.19795E-01 1.53143E-01 1.41367E+00 1.82104E-02 6.48311E-01
 -1       670-1.13544E+02-2.19784E-01-1.97884E-01 1.12748E+00 3.85225E-03 6.77294E-01
 -1       671-1.17690E+02-1.04253E-02 5.21623E-02 7.92695E-01 1.28695E-01 5.40520E-01
 -1       672-1.19567E+02 2.12457E-01 1.59320E-01 9.54685E-01 8.53684E-02 6.10653E-01
 -1       673-1.04074E+02-3.49709E-02 4.89869E-02 9.39871E-01-7.08164E-02 5.29637E-01
 -1       674-1.08877E+02 1.62696E-01-2.92482E-02 1.23328E+00 7.48464E-02 7.07554E-01
 -1       675-1.11578E+02-2.63536E-01-1.95522E-01 9.98956E-01-2.34040E-02 6.54723E-01
 -1       676-9.49603E+01 3.92578E-02-1.12502E-02 8.43087E-01-3.82205E-02 5.31917E-01
 -1       677-9.93175E+01-1.90670E-02 3.88401E-02 8.99624E-01 2.20169E-02 5.36713E-01
 -1       678-1.01962E+02-1.93581E-01-5.74142E-02 1.10975E+00 1.43538E-02 6.75853E-01
 -1       679-8.53194E+01-1.02968E-01 1.55924E-02 9.73813E-01-7.84345E-02 6.37621E-01
 -1       680-9.02920E+01 7.65927E-03-8.23872E-02 8.22190E-01 9.71546E-02 5.33571E-01
 -1       681-9.23629E+01 1.68750E-01 5.32152E-02 1.03037E+00-2.46709E-02 6.75520E-01
 -1       682-7.65460E+01 1.05529E-01-2.67057E-03 5.69979E-01-5.85270E-02 5.55287E-01
 -1       683-8.09105E+01 1.19059E-01 6.93463E-02 8.90437E-01 1.01699E-02 6.19021E-01
 -1       684-8.32725E+01-9.00857E-02-8.87019E-02 1.06215E+00-2.33864E-02 6.40345E-01
 -1       685-6.71701E+01 3.87293E-02 2.09287E-03 4.33867E-01-8.69306E-02 5.21616E-01
 -1       686-7.17048E+01 3.92662E-02 2.17817E-02 5.14895E-01 5.95903E-02 4.98976E-01
 -1       687-7.40573E+01 1.95465E-01 4.25347E-02 6.98810E-01 6.80855E-03 6.73830E-01
 -1       688-5.78575E+01 3.66510E-03-3.92883E-02 2.87779E-01-8.63105E-02 4.88933E-01
 -1       689-6.23861E+01-6.88933E-03 2.86224E-02 3.49460E-01 9.60798E-02 4.86888E-01
 -1       690-6.46647E+01 3.46483E-02 6.94394E-03 5.56232E-01 3.20627E-02 6.78636E-01
 -1       691-4.82803E+01-1.09772E-01 1.79350E-02 4.58593E-01-5.07900E-02 6.08898E-01
 -1       692-5.32068E+01-1.24898E-01-9.19467E-02 3.04902E-01 9.43442E-02 5.37438E-01
 -1       693-5.56841E+01-1.30841E-01-9.20810E-02 4.66726E-01-4.49262E-02 6.80152E-01
 -1       694-3.93655E+01 1.64493E-01 5.44518E-02-5.90789E-02-8.21976E-02 5.58977E-01
 -1       695-4.38448E+01 1.52469E-01 8.21484E-02 3.71273E-01 3.72968E-03 6.01890E-01
 -1       696-4.62188E+01-1.38572E-01-8.55992E-02 4.87078E-01-4.39286E-02 6.16084E-01
 -1       697-2.99934E+01-1.56062E-01-1.13454E-01 2.13355E-01-1.57918E-02 7.26573E-01
 -1       698-3.43833E+01-6.46349E-02-3.38530E-02-1.58041E-01 1.40193E-01 4.94788E-01
 -1       699-3.65459E+01 2.10189E-01 1.04126E-01-1.11296E-01 8.05655E-02 5.67583E-01
 -1       700-2.06257E+01-1.49040E-01 4.06914E-02 1.27890E-01-4.77212E-02 7.86836E-01
 -1       701-2.55783E+01 2.37549E-02-6.93230E-02 1.95754E-01 4.93550E-02 6.90693E-01
 -1       702-2.81775E+01-2.51120E-01-3.51927E-01 2.21689E-02 1.13221E-02 5.72318E-01
 -1       703-1.10271E+01-1.68638E-01-1.23039E-01-1.75315E-01-1.83621E-01 9.02734E-01
 -1       704-1.60948E+01 3.81315E-02-5.54409E-02-6.52510E-02 5.26932E-03 7.25337E-01
 -1       705-1.81172E+01 1.09790E-01-4.83668E-02-1.55786E-01 5.77664E-02 7.26691E-01
 -1       706-8.72775E+00 1.20128E-01 4.54027E-02-4.61099E-01-1.01033E-01 9.67397E-01
 -1       707-2.96851E+02-2.63610E+00-6.61300E+00 1.58072E+00 1.83155E+00 4.67980E+00
 -1       708-2.96558E+02-7.20221E-01-2.13169E+00 4.11329E-01-3.93637E-01 1.06947E+00
 -1       709-2.99956E+02 9.19093E-01-1.02913E+01 6.61664E-01-1.63638E-02 1.02151E+01
 -1       710-2.91102E+02-1.96520E-01-5.35860E-01 1.83604E-01 9.19283E-02-1.81214E-01
 -1       711-2.88570E+02-4.85412E-02-2.86938E-01 7.17675E-02 2.03490E-01-7.29811E-01
 -1       712-2.96333E+02 1.94802E-02-2.66167E+00 4.61124E-01-5.00115E-01 7.34343E-01
 -1       713-2.83703E+02-4.48477E-02 2.09248E-02 3.39334E-01 1.80477E-02-7.29713E-01
 -1       714-2.79646E+02 9.73669E-03 4.94146E-02 2.65551E-01 1.17952E-01-6.61349E-01
 -1       715-2.87134E+02 5.54856E-02-2.35136E-01 3.10048E-01 1.10118E-03-9.15430E-01
 -1       716-2.74763E+02-1.19957E-01-6.79471E-03 3.76901E-01-1.14706E-01-6.08558E-01
 -1       717-2.70333E+02-1.32555E-01 5.32166E-03 8.11473E-01 3.10178E-02-6.82039E-01
 -1       718-2.77493E+02-4.06487E-02 1.24638E-01 3.66105E-01 2.23550E-02-8.05479E-01
 -1       719-2.65757E+02 1.30716E-01 8.05255E-02 8.71740E-01-2.18124E-02-6.30041E-01
 -1       720-2.61357E+02 1.71033E-01 5.14646E-02 6.20216E-01 6.03358E-02-5.63898E-01
 -1       721-2.68337E+02-7.97685E-02-7.57405E-02 9.60974E-01 9.30564E-03-7.04389E-01
 -1       722-2.56603E+02-1.25223E-01-5.30545E-02 7.91165E-01-1.19551E-01-4.92511E-01
 -1       723-2.51777E+02-1.22493E-01-4.32737E-03 1.14940E+00 4.65866E-02-6.07095E-01
 -1       724-2.58932E+02 1.40838E-01 3.25723E-02 7.96138E-01-3.31366E-02-6.75353E-01
 -1       725-2.47367E+02 1.43519E-01 7.51618E-02 1.12833E+00-1.06250E-02-5.96579E-01
 -1       726-2.42877E+02 1.66424E-01 6.67244E-02 8.09141E-01 9.00811E-02-5.58388E-01
 -1       727-2.49756E+02-8.06676E-02-7.82257E-02 1.21695E+00 2.77275E-02-6.25780E-01
 -1       728-2.37825E+02-6.26236E-03 9.89496E-02 7.90889E-01-1.08332E-01-5.42897E-01
 -1       729-2.33735E+02-2.31767E-01-1.57638E-01 1.22010E+00 3.01675E-03-6.67975E-01
 -1       730-2.39920E+02 2.10153E-01 1.61234E-01 7.97176E-01-4.53230E-02-6.23070E-01
 -1       731-2.29164E+02 8.61444E-02-9.02548E-02 1.46273E+00-8.92339E-02-7.26537E-01
 -1       732-2.24087E+02-6.36969E-02 8.84097E-02 1.48336E+00 5.85314E-02-6.47801E-01
 -1       733-2.31825E+02-3.02974E-01-1.50472E-01 1.16569E+00 3.57845E-02-6.60700E-01
 -1       734-2.19651E+02 1.18390E-01 7.89969E-02 1.44689E+00-1.24131E-02-6.03840E-01
 -1       735-2.15289E+02 9.63626E-02 1.20850E-02 1.20527E+00 5.17576E-02-5.53141E-01
 -1       736-2.22063E+02-1.15500E-01-6.66040E-02 1.54772E+00 1.05833E-02-6.22407E-01
 -1       737-2.10446E+02 4.85834E-02 4.33539E-02 1.21959E+00-5.53815E-02-4.85952E-01
 -1       738-2.05830E+02 5.43794E-02 1.83358E-02 1.17696E+00 1.14902E-01-5.31265E-01
 -1       739-2.12816E+02 1.89131E-01 5.35077E-02 1.36259E+00-1.29738E-03-6.73469E-01
 -1       740-2.00852E+02-7.86111E-03 8.45753E-02 1.06323E+00-1.05455E-01-5.63942E-01
 -1       741-1.96774E+02-2.30238E-01-1.75375E-01 1.44480E+00 1.00567E-03-6.87590E-01
 -1       742-2.02864E+02 1.34054E-01 1.45796E-01 1.15533E+00-4.57557E-02-6.40952E-01
 -1       743-1.92124E+02 1.48138E-01-3.93142E-03 1.59984E+00-7.16863E-02-7.12112E-01
 -1       744-1.87374E+02-4.62386E-02 6.67550E-02 1.34990E+00 7.00871E-02-5.24517E-01
 -1       745-1.94836E+02-2.67365E-01-1.57646E-01 1.34876E+00 2.70815E-02-6.81632E-01
 -1       746-1.82606E+02-4.67029E-02 3.14746E-02 1.35939E+00-2.33030E-02-5.30716E-01
 -1       747-1.78257E+02 8.54438E-03-2.31959E-02 1.37667E+00 4.11011E-02-5.40257E-01
 -1       748-1.85253E+02-2.24372E-01-5.08004E-02 1.51288E+00-5.34436E-03-6.78019E-01
 -1       749-1.73585E+02 5.17149E-02-9.03403E-03 1.34664E+00-1.06388E-01-5.59771E-01
 -1       750-1.68762E+02-1.27890E-01-2.82723E-02 1.51168E+00 5.16305E-02-5.78152E-01
 -1       751-1.75603E+02 1.59549E-01 5.75614E-02 1.58159E+00 2.40434E-02-7.04584E-01
 -1       752-1.64331E+02 1.17820E-01 1.84027E-02 1.63898E+00-1.64932E-02-6.59311E-01
 -1       753-1.59815E+02 1.10968E-01 5.88129E-02 1.33419E+00 5.83898E-02-5.18029E-01
 -1       754-1.66667E+02-1.15026E-01 5.48699E-02 1.67915E+00 4.31698E-02-6.73408E-01
 -1       755-1.54979E+02 2.27523E-02 1.87378E-03 1.24701E+00-5.99664E-02-4.96944E-01
 -1       756-1.50444E+02 5.95557E-03-9.10660E-03 1.22701E+00 8.81681E-02-5.12719E-01
 -1       757-1.57225E+02 1.83560E-01 4.46421E-02 1.44435E+00-3.61968E-02-6.69465E-01
 -1       758-1.45738E+02-2.42223E-02 7.30446E-02 1.21411E+00-6.23965E-02-5.00743E-01
 -1       759-1.41211E+02-1.47759E-02-4.22677E-03 1.21210E+00 1.08273E-01-4.90489E-01
 -1       760-1.47952E+02 4.18755E-02 8.36160E-02 1.39807E+00-1.05221E-03-7.03015E-01
 -1       761-1.36258E+02-1.61548E-01-4.43590E-02 1.20575E+00-4.58347E-02-5.34908E-01
 -1       762-1.31701E+02-1.73409E-01 1.71058E-02 1.47587E+00 4.49577E-02-6.52569E-01
 -1       763-1.38885E+02-1.73817E-01-3.63825E-03 1.31326E+00 8.88537E-02-6.55356E-01
 -1       764-1.27192E+02 1.42048E-01 9.91784E-02 1.27262E+00 2.68299E-02-5.87026E-01
 -1       765-1.22923E+02 4.04369E-02-3.59416E-02 9.01975E-01 1.36172E-01-5.59685E-01
 -1       766-1.29261E+02 1.07129E-01 5.96705E-02 1.47633E+00 2.96124E-02-7.09092E-01
 -1       767-1.17929E+02-7.21265E-02 1.20169E-02 9.41424E-01-1.15814E-01-4.99176E-01
 -1       768-1.13343E+02-1.84965E-02-5.68701E-02 9.48919E-01 7.40515E-02-4.97655E-01
 -1       769-1.20541E+02-1.52253E-02-6.26006E-02 9.78893E-01-7.93997E-03-6.45860E-01
 -1       770-1.08628E+02-3.00234E-02 1.89089E-02 9.23569E-01-7.02536E-02-5.23738E-01
 -1       771-1.04095E+02-5.16683E-02-7.78480E-03 8.89888E-01 7.30329E-02-5.03377E-01
 -1       772-1.11100E+02-8.93993E-02-6.16367E-02 1.11703E+00 2.38228E-02-6.97138E-01
 -1       773-9.92979E+01-1.37336E-01-5.70929E-02 9.09177E-01-4.84086E-02-5.42333E-01
 -1       774-9.47447E+01-1.69769E-01-7.69714E-03 1.13206E+00 2.34092E-02-6.53608E-01
 -1       775-1.01846E+02-1.91325E-01-3.20171E-02 1.05822E+00 4.53051E-02-6.77452E-01
 -1       776-9.02871E+01 1.41368E-01 5.40962E-02 9.14170E-01 7.65830E-03-5.46393E-01
 -1       777-8.55603E+01 1.07396E-01 4.54897E-02 6.02626E-01 1.33322E-01-5.85652E-01
 -1       778-9.24910E+01 9.15729E-02 1.45289E-03 1.13917E+00-7.47245E-03-6.76491E-01
 -1       779-8.06026E+01 1.41968E-03 8.19683E-02 3.96814E-01-1.19895E-01-5.66873E-01
 -1       780-7.65433E+01-2.16750E-01-1.77019E-01 7.27044E-01-1.16699E-04-6.57100E-01
 -1       781-8.26801E+01 1.84935E-01 1.34591E-01 5.16427E-01-8.36090E-02-6.38183E-01
 -1       782-7.18911E+01 1.02397E-01-9.66156E-02 8.65491E-01-5.98670E-02-7.08055E-01
 -1       783-6.69467E+01-1.05631E-01 6.86623E-02 8.14909E-01 5.29315E-02-7.01384E-01
 -1       784-7.45906E+01-2.37649E-01-1.75730E-01 5.48389E-01 2.55484E-02-6.30873E-01
 -1       785-6.24980E+01 1.56636E-01 7.96831E-02 6.07004E-01-1.94118E-02-5.82783E-01
 -1       786-5.78587E+01 8.51053E-02-4.65949E-03 2.20329E-01 1.19190E-01-5.19269E-01
 -1       787-6.46908E+01 1.09551E-01 4.49042E-02 5.91078E-01-7.37469E-02-6.01586E-01
 -1       788-5.29071E+01-8.56673E-02-3.67659E-02 1.62781E-01-1.22358E-01-5.29129E-01
 -1       789-4.83409E+01-1.21085E-01-3.86374E-02 4.64051E-01 2.95567E-02-6.32526E-01
 -1       790-5.54380E+01-1.67348E-02 3.82564E-02 2.21204E-01 1.62129E-02-6.52408E-01
 -1       791-4.39141E+01 1.38495E-01 5.45539E-02 3.86350E-01-1.60206E-02-6.25981E-01
 -1       792-3.95201E+01 1.84167E-01 2.48817E-02-6.39335E-03 7.05406E-02-5.66062E-01
 -1       793-4.63493E+01-7.48559E-02-1.39872E-01 5.47625E-01 1.40430E-02-6.53933E-01
 -1       794-3.45838E+01 4.85807E-03 1.73894E-02-9.21316E-02-1.07207E-01-5.23016E-01
 -1       795-2.99837E+01-1.68002E-01-9.54834E-02 1.32717E-01 4.26938E-02-5.95522E-01
 -1       796-3.69066E+01 2.50252E-01 4.78335E-02 1.93011E-02-6.02540E-02-6.70555E-01
 -1       797-2.56079E+01 1.10227E-01-4.41474E-02 1.61211E-01-2.95317E-02-7.72525E-01
 -1       798-2.07988E+01-4.83156E-02 3.17257E-02 1.24868E-01 6.14243E-02-6.87021E-01
 -1       799-2.77388E+01-3.77524E-02 2.91712E-02-2.07614E-02 6.97581E-02-6.10376E-01
 -1       800-1.63079E+01 2.59137E-02-1.02619E-01 2.88754E-02-4.03797E-02-7.68286E-01
 -1       801-1.10276E+01-1.16321E-01-9.37651E-03-9.48774E-02 1.86587E-01-8.46836E-01
 -1       802-1.82203E+01 2.72116E-01 1.99599E-01-9.05642E-02 7.17571E-03-6.37522E-01
 -1       803-8.55978E+00 1.57221E-01 8.07731E-02-4.44106E-01 1.17982E-01-8.35639E-01
 -1       804-9.04057E+01-4.35522E-02-5.36409E-02 8.72377E-01-1.43938E-01 3.42783E-01
 -1       805-9.47718E+01 1.04770E-01 7.22386E-02 1.05781E+00 5.46225E-02 4.36185E-01
 -1       806-9.94838E+01-1.33791E-01-4.99962E-02 1.11529E+00-3.80785E-02 4.60172E-01
 -1       807-1.03868E+02-1.14711E-02 5.21351E-03 8.96769E-01 1.17693E-01 3.24646E-01
 -1       808-9.71252E+01-2.31497E-02 1.39783E-02 8.62761E-01 4.74686E-02 1.41640E-02
 -1       809-6.21915E+01 5.49467E-02 4.40885E-02 4.61818E-01-6.87636E-02 4.57017E-01
 -1       810-6.69770E+01 6.86238E-02 1.05034E-01 5.05478E-01 9.74982E-02 4.93932E-01
 -1       811-5.32859E+01-1.16449E-01 3.14264E-02 4.12058E-01-9.56119E-02 4.88050E-01
 -1       812-5.82230E+01 5.55073E-02-8.49938E-02 4.69815E-01 7.15156E-02 6.07050E-01
 -1       813-6.01957E+01 1.17622E-02-4.66420E-02 4.42723E-02-1.06554E-01-6.49241E-02
 -1       814-3.04039E+01 9.31757E-03-1.17453E-01-3.46827E-02-9.37369E-02-4.01367E-01
 -1       815-2.54095E+01-3.02894E-02-2.91319E-03-2.37495E-01 7.85069E-02-4.04067E-01
 -1       816-2.09444E+01 1.12629E-01-9.57763E-02-3.14517E-01-5.17102E-02-4.47425E-01
 -1       817-2.29932E+01 1.00502E-01 5.49354E-02-3.38646E-01 2.97590E-02-1.16368E-03
 -1       818-1.60082E+01-4.39541E-02-9.76378E-02-3.79430E-01 1.20417E-01-6.29947E-01
 -1       819-1.27543E+02 1.12636E-01 4.98611E-02 1.17564E+00-8.89690E-02 4.38460E-01
 -1       820-1.31825E+02 3.64596E-02-4.64794E-03 1.28473E+00-4.88643E-03 4.43353E-01
 -1       821-1.36606E+02-2.03858E-01-9.01156E-02 1.11599E+00-8.42818E-02 5.09633E-01
 -1       822-1.41726E+02-1.74020E-01-1.63242E-01 1.03817E+00 5.01586E-03 3.64409E-01
 -1       823-1.34468E+02-9.97304E-02 1.05822E-01 9.91136E-01-4.16912E-02 5.59636E-02
 -1       824-1.22792E+02 1.50711E-02 3.38880E-03 1.00902E+00-2.37467E-02-4.38787E-01
 -1       825-1.17869E+02-7.60723E-02-1.89489E-02 1.10174E+00 9.91787E-02-5.25357E-01
 -1       826-1.13730E+02-2.23273E-02-1.64624E-01 1.15247E+00-8.83949E-02-4.47262E-01
 -1       827-1.08668E+02-6.90932E-02 3.38150E-03 1.13746E+00 6.72479E-02-4.06686E-01
 -1       828-1.15957E+02 7.97335E-02 2.90029E-01 7.32920E-01-6.89501E-03-1.67745E-02
 -1       829-8.55481E+01 1.10222E-01 1.17850E-01 7.63704E-01-1.44917E-01-4.25131E-01
 -1       830-8.03711E+01 1.26326E-01 1.08687E-01 5.44999E-01 4.46968E-03-2.68205E-01
 -1       831-7.70089E+01-2.11771E-01-1.07056E-01 1.09174E-01-4.28209E-02-3.32739E-01
 -1       832-7.19788E+01-1.30802E-01 9.11528E-02 3.48495E-01 1.24516E-01-3.58851E-01
 -1       833-7.86380E+01 1.13566E-01 1.15209E-01 6.09227E-01 5.48725E-02 5.20210E-02
 -1       834-3.93256E+01 1.82511E-01 7.36185E-02 1.25315E-01-3.59832E-02-5.21345E-01
 -1       835-3.43791E+01 5.81981E-02 8.71118E-02 4.36395E-02 6.17598E-02-5.15098E-01
 -1       836-4.85566E+01-2.54492E-01-9.92367E-02 6.19211E-02-8.76136E-02-3.33910E-01
 -1       837-4.40197E+01 1.92128E-02 4.98400E-02 3.86377E-01 2.42083E-02-3.66144E-01
 -1       838-4.13765E+01 7.42466E-02-1.23927E-01-4.54215E-02 2.24684E-02 3.30480E-02
 -1       839-1.59704E+02 1.61831E-01-4.59398E-02 1.45295E+00-6.00374E-02-3.80233E-01
 -1       840-1.54904E+02 5.68777E-03-1.24286E-02 1.43199E+00 1.08193E-01-4.92604E-01
 -1       841-1.50404E+02 3.49282E-02 3.50426E-02 1.41607E+00-6.82119E-02-3.91770E-01
 -1       842-1.45260E+02-4.05812E-02 2.08349E-01 1.43278E+00 9.99891E-02-4.45385E-01
 -1       843-1.52871E+02-1.20996E-01-7.86140E-02 1.18167E+00-2.03175E-02 3.92637E-02
 -1       844-2.66218E+02 9.04756E-02 6.74370E-02 7.41911E-01-1.06503E-01 4.62700E-01
 -1       845-2.70578E+02 2.35522E-02 5.79966E-02 6.74497E-01-8.36073E-04 4.43888E-01
 -1       846-2.61104E+02 1.43115E-01 1.80774E-01 7.27962E-01 1.22021E-01 5.39849E-01
 -1       847-2.63393E+02 2.31877E-02-5.90512E-02 5.15935E-01 1.52677E-02 5.69664E-02
 -1       848-2.56108E+02 1.35117E-01 2.36187E-01 6.32602E-01-2.11133E-02 3.75960E-01
 -1       849-2.37471E+02 2.35788E-01 2.29568E-01 6.69389E-01-6.01305E-02 3.19805E-01
 -1       850-2.42606E+02 8.98373E-02-4.53463E-02 8.24610E-01 4.31305E-02 3.11902E-01
 -1       851-2.47509E+02-9.86900E-02 9.94819E-02 8.11540E-01-1.35398E-01 2.81640E-01
 -1       852-2.52779E+02-2.78290E-01-1.37187E-01 4.72629E-01 7.49098E-02 3.22230E-01
 -1       853-2.45134E+02-7.04062E-02-7.74278E-02 8.23615E-01-6.76897E-02-7.17658E-02
 -1       854-2.90333E+02-1.47981E-01-9.24325E-01 2.17629E-01-4.23034E-02-2.76165E-01
 -1       855-2.84823E+02-7.75109E-02-8.52912E-02 3.11314E-01 7.46485E-02-5.79329E-01
 -1       856-2.82514E+02-8.58788E-02-2.81768E-01-7.78871E-04-3.21311E-03-4.19160E-02
 -1       857-2.80250E+02 7.79545E-03 1.23409E-02 4.25446E-01-8.62537E-02-6.07317E-01
 -1       858-2.75312E+02-3.37697E-02 8.06529E-02 4.09702E-01 4.71755E-02-5.16166E-01
 -1       859-2.00540E+02 2.56900E-01 2.28195E-01 9.20647E-01-5.93286E-02 3.31485E-01
 -1       860-2.05550E+02 1.77118E-01 1.49378E-02 1.27463E+00 7.93476E-02 3.35851E-01
 -1       861-2.10786E+02 7.58727E-02 3.58993E-03 1.23399E+00-1.39549E-01 2.56159E-01
 -1       862-2.14955E+02 3.49968E-02 8.45733E-02 1.48134E+00-3.21773E-03 4.55551E-01
 -1       863-2.08252E+02-1.01290E-01-1.30019E-01 1.16147E+00-6.24126E-02-6.09939E-02
 -1       864-1.82857E+02-7.58484E-02 6.67513E-02 1.57396E+00 2.91374E-03 4.55201E-01
 -1       865-1.87130E+02-1.08396E-01 4.40530E-02 1.46579E+00 7.99724E-02 3.76230E-01
 -1       866-1.78173E+02 1.55757E-01 3.33688E-02 1.56780E+00 7.42686E-02 4.43827E-01
 -1       867-1.80492E+02 5.07219E-03-1.67109E-02 1.36899E+00 3.98983E-02-6.49245E-03
 -1       868-1.73564E+02-3.41848E-02 4.33476E-02 1.46118E+00-8.28926E-02 4.82090E-01
 -1       869-2.29038E+02-1.13654E-01-1.02302E-01 1.19003E+00-1.46188E-01 4.23128E-01
 -1       870-2.34303E+02-2.12051E-01-2.23927E-01 9.77801E-01 2.04465E-02 2.03057E-01
 -1       871-2.19606E+02-1.81432E-01 7.16407E-02 1.40370E+00-8.47327E-02 4.25063E-01
 -1       872-2.24275E+02 1.85799E-02 4.49134E-02 1.28007E+00 7.55601E-02 4.73783E-01
 -1       873-2.26556E+02 7.37802E-02 2.00703E-01 1.04458E+00-6.94618E-02 5.60445E-02
 -1       874-3.00383E+02-8.65159E-02-6.72441E+00 4.35521E-01-1.11145E-01 1.46373E+00
 -1       875-2.95285E+02-7.74624E-02-2.78360E+00-4.55636E-02 1.08426E-01-1.26399E-01
 -1       876-3.00194E+02 1.53299E+00-1.20950E+01 1.45480E+00-1.27723E-02 1.95746E+00
 -1       877-3.00933E+02 1.56668E+00-1.25185E+01 6.32667E-01 8.55043E-02 2.46047E-03
 -1       878-2.96423E+02 3.00585E+00-1.68899E+01 2.60535E+00 2.59208E-01 7.57456E+00
 -1       879-2.95141E+02 2.37419E+00-2.41025E+01 2.04313E+00 6.85681E-01 3.43311E+00
 -1       880-2.84593E+02 1.40878E-01-5.02436E-03-1.92885E-01-4.11300E-02 4.39286E-01
 -1       881-2.90052E+02-9.70945E-02-8.70168E-01 1.44034E-01 8.88840E-02 1.54252E-01
 -1       882-2.95212E+02-7.63742E-03-2.66711E+00-1.30635E-01-9.06890E-02 1.75617E-01
 -1       883-2.92773E+02 2.82393E-01-1.73848E+00 4.93484E-02-3.23196E-02-3.09448E-02
 -1       884-3.00447E+02-5.40097E-02-6.54141E+00 3.98931E-01 4.68627E-02-1.52617E+00
 -1       885-1.59351E+01-9.22711E-03-6.84432E-02-3.39811E-01-9.01486E-02 5.02280E-01
 -1       886-2.08506E+01 7.77990E-02-3.39917E-02-3.34983E-01 2.90911E-02 4.98778E-01
 -1       887-1.23323E+01 3.45231E-02-1.16724E-01-3.46176E-01 1.73511E-02 5.38783E-01
 -1       888-1.52538E+01-3.49499E-01-6.99023E-01-4.19446E-01-6.87621E-03-8.22422E-03
 -1       889-9.16748E+00-4.57709E-02-1.23127E-01-5.28083E-01-3.11300E-02 6.18793E-01
 -1       890-8.36013E+00 1.27641E-01-3.60253E-02-5.82295E-01-1.33076E-03 3.70255E-01
 -1       891-1.55167E+02-1.66866E-01 7.63955E-02 1.07288E+00-1.41815E-01 2.97463E-01
 -1       892-1.60279E+02-2.05418E-01-8.21476E-02 8.26586E-01 5.36621E-02 3.91269E-01
 -1       893-1.63713E+02 1.33654E-01 1.39406E-01 1.23957E+00-5.15543E-03 2.93137E-01
 -1       894-1.68796E+02 8.99800E-02 1.03639E-01 1.37822E+00 1.35339E-01 4.41837E-01
 -1       895-1.61945E+02 1.08772E-01 1.37822E-01 1.29314E+00-5.30202E-02-3.37436E-02
 -1       896-2.54564E+01-9.78514E-02 2.84313E-02-1.82165E-01-1.35157E-01 3.53576E-01
 -1       897-3.07948E+01-2.19961E-01-2.12580E-01-4.53222E-01 9.03473E-02 3.40764E-01
 -1       898-3.41173E+01 1.64529E-01 1.69310E-01-1.26122E-01-8.19970E-03 3.70198E-01
 -1       899-3.92064E+01 1.95869E-01 7.04989E-02 3.09484E-02 8.79920E-02 4.94707E-01
 -1       900-3.26232E+01 1.41285E-01 2.65844E-01-3.13553E-01 1.27819E-02-2.05137E-02
 -1       901-2.52199E+02-9.45884E-02-9.06125E-02 1.08322E+00-8.62241E-02-4.00133E-01
 -1       902-2.47500E+02-3.79511E-02 3.57073E-02 1.04643E+00 2.87429E-02-3.80491E-01
 -1       903-2.61215E+02 1.74339E-01 1.24252E-01 7.50185E-01-4.35918E-02-5.20781E-01
 -1       904-2.56446E+02 3.00187E-03 9.54094E-02 8.98073E-01 9.15584E-02-5.52779E-01
 -1       905-2.54679E+02 2.56627E-02 3.01971E-01 5.45207E-01 2.37904E-03-9.11767E-03
 -1       906-2.05713E+02 9.87499E-02 1.92748E-01 1.33077E+00-1.36320E-01-4.23436E-01
 -1       907-2.00442E+02 1.98263E-01 3.05289E-01 1.18527E+00 3.66826E-02-2.05216E-01
 -1       908-1.97324E+02-2.88281E-01-1.88418E-01 9.40957E-01-4.43475E-02-3.29671E-01
 -1       909-1.92273E+02-1.68242E-01 6.02285E-02 1.31682E+00 8.12957E-02-3.58811E-01
 -1       910-1.98925E+02-1.15454E-02 2.04268E-02 1.13837E+00 8.77665E-02-5.51371E-04
 -1       911-1.68583E+02-5.74820E-02 7.70854E-02 1.41054E+00-9.17852E-02-3.53710E-01
 -1       912-1.64348E+02-6.87711E-02 5.89514E-02 1.55696E+00 1.93301E-02-4.93618E-01
 -1       913-1.73666E+02-2.03841E-02-2.57281E-02 1.42469E+00 1.27441E-01-3.37452E-01
 -1       914-1.71188E+02-1.02101E-01-1.00380E-01 1.26070E+00 7.73379E-02 5.00702E-02
 -1       915-1.78073E+02 1.03837E-01 6.12344E-02 1.59430E+00-4.22502E-02-4.51125E-01
 -1       916-2.34272E+02-2.74794E-01-1.58998E-01 7.11199E-01-4.60109E-02-3.20338E-01
 -1       917-2.29240E+02-2.00947E-01 6.43893E-02 1.14488E+00 9.78086E-02-3.47732E-01
 -1       918-2.42788E+02 1.43706E-01 1.92999E-01 9.60087E-01-1.24181E-01-3.92034E-01
 -1       919-2.37385E+02 1.58797E-01 3.18604E-01 9.27731E-01 3.38119E-02-2.03278E-01
 -1       920-2.35872E+02-2.44980E-02 4.10613E-02 8.98425E-01 8.61615E-02-4.91917E-03
 -1       921-2.15188E+02 1.57993E-01 1.86542E-02 1.42147E+00-3.56968E-02-4.03330E-01
 -1       922-2.10502E+02-3.27339E-02 2.43790E-02 1.37458E+00 9.38677E-02-4.72899E-01
 -1       923-2.23968E+02-4.02977E-02 7.75825E-02 1.14843E+00-1.38191E-01-3.10995E-01
 -1       924-2.19723E+02-4.39256E-02 1.88399E-02 1.45876E+00 8.97709E-03-4.04710E-01
 -1       925-2.17395E+02-2.34731E-02 1.65206E-02 1.26268E+00-5.75009E-02-1.07504E-03
 -1       926-2.96886E+02 2.32811E+00-2.49992E+01 1.30300E+00 2.94581E-01-3.75936E+00
 -1       927-2.98199E+02 6.00184E-01-1.79171E+01 1.46178E+00-1.38895E-01-6.95032E+00
 -1       928-3.00728E+02 1.71177E+00-1.23802E+01 1.52283E+00-9.28858E-02-2.18700E+00
 -1       929-8.02339E+00 1.77291E-01 7.24179E-02-8.30617E-01-3.13172E-02-2.33223E-01
 -1       930-8.75890E+00 2.89776E-02 4.21625E-02-6.39040E-01 5.74388E-02-7.55233E-01
 -1       931-1.21797E+01 6.25069E-02-1.33607E-01-4.12751E-01-3.59933E-02-5.72460E-01
 -1       932-9.47334E+01 5.50282E-02-1.89198E-02 1.04679E+00 8.59974E-03-4.61549E-01
 -1       933-9.04710E+01 6.77479E-02-9.88147E-03 9.18560E-01 8.21641E-02-3.91952E-01
 -1       934-1.04140E+02-2.28756E-02-4.24076E-03 1.06764E+00-7.56186E-02-4.57815E-01
 -1       935-9.94208E+01-1.81440E-01 1.88206E-02 1.07652E+00 8.99616E-02-4.27701E-01
 -1       936-6.69227E+01 1.25338E-01-3.26278E-03 3.56576E-01-4.29326E-02-5.08898E-01
 -1       937-6.22397E+01 1.71720E-02 8.76563E-02 4.69057E-01 8.93507E-02-5.55649E-01
 -1       938-5.81125E+01 4.83351E-02-5.47016E-02 3.25997E-01-9.43300E-02-4.36806E-01
 -1       939-5.30318E+01-3.40707E-02-7.12393E-02 2.12042E-01 7.03338E-02-4.40108E-01
 -1       940-1.31663E+02-3.65167E-02-2.73940E-02 1.39586E+00-2.38870E-02-3.91733E-01
 -1       941-1.27185E+02 2.82046E-01 1.15337E-01 9.63690E-01 8.58717E-02-2.77111E-01
 -1       942-1.41330E+02-4.00462E-03-1.40064E-02 1.38794E+00-4.60541E-02-5.31619E-01
 -1       943-1.36538E+02-1.80361E-01-3.47951E-02 1.28913E+00 9.22216E-02-5.27524E-01
 -1       944-1.17382E+02 1.44604E-01 1.78764E-01 8.63962E-01-7.86921E-03 3.66575E-01
 -1       945-1.22366E+02 1.85272E-01 1.76804E-01 1.06692E+00 1.39646E-01 5.60952E-01
 -1       946-1.08936E+02-1.51926E-01 2.23080E-02 9.39675E-01-1.05530E-01 3.33505E-01
 -1       947-1.14076E+02-2.75928E-01-2.07659E-01 6.08978E-01 6.94333E-02 2.67430E-01
 -1       948-8.09799E+01-4.91577E-02 6.67695E-02 8.98714E-01-2.10984E-02 4.52460E-01
 -1       949-8.52512E+01-9.42553E-03 5.64812E-02 7.89977E-01 9.79218E-02 4.15503E-01
 -1       950-7.16615E+01 6.28212E-03-1.97953E-02 6.72580E-01-1.11284E-01 5.15387E-01
 -1       951-7.64722E+01 1.73554E-01-4.22751E-02 7.35328E-01 2.07907E-02 3.73279E-01
 -1       952-2.75518E+02-1.95641E-01 3.53378E-03 4.09869E-01-9.65013E-02 5.53451E-01
 -1       953-2.80712E+02-1.79790E-01-1.35636E-01 2.67537E-01 2.24867E-02 4.70648E-01
 -1       954-2.73246E+02 3.20581E-02 3.20804E-01 3.35189E-01-5.03482E-02 6.70955E-02
 -1       955-2.65954E+02 2.10185E-02 1.51106E-01 8.69661E-01 1.91913E-02-3.51258E-01
 -1       956-2.70675E+02-2.96774E-01 2.17769E-02 4.14594E-01-1.03668E-01-3.63803E-01
 -1       957-8.78997E+01-6.37382E-02-1.12276E-01 6.53696E-01-8.40228E-02-2.76409E-02
 -1       958-1.44994E+02 2.91367E-01 2.31503E-01 8.12893E-01-8.45091E-02 2.68259E-01
 -1       959-1.50250E+02 7.68285E-02-6.27861E-02 1.08964E+00 5.16818E-02 3.36216E-01
 -1       960-1.24710E+02-1.21734E-02-1.98915E-01 8.87187E-01 3.35555E-02 7.62998E-02
 -1       961-1.92044E+02-1.41201E-01-1.68583E-01 1.37788E+00-1.56587E-01 4.10728E-01
 -1       962-1.97340E+02-1.88448E-01-2.33943E-01 1.19661E+00 3.58846E-02 2.03892E-01
 -1       963-1.89618E+02 4.89601E-02 1.55645E-01 1.21870E+00-7.20425E-02 3.90037E-02
 -1       964-1.87161E+02-2.68408E-03 6.85110E-02 1.31582E+00-1.31630E-01-3.23955E-01
 -1       965-1.82786E+02-1.24072E-01-4.01797E-02 1.57477E+00 5.14024E-02-4.47047E-01
 -1       966-6.92590E+01-1.59535E-02-2.95819E-02 2.73207E-01 6.43406E-02 1.10783E-02
 -1       967-4.39697E+01-2.53113E-02 2.39541E-02 3.02342E-01-2.14959E-02 4.13834E-01
 -1       968-4.83735E+01-1.09914E-01-1.52052E-02 3.19110E-01 8.50311E-02 4.17821E-01
 -1       969-5.09979E+01 3.30950E-02 1.79001E-01 1.20235E-01-1.11794E-03-7.83619E-03
 -1       970-1.43136E+02-8.42757E-02-2.16316E-01 9.43640E-01 1.87209E-02-3.13820E-03
 -1       971-1.06250E+02 7.40635E-02 9.70097E-02 8.88408E-01 8.40054E-03 1.52198E-02
 -1       972 9.76639E+01 4.18675E-02 2.03118E-02-1.53240E+00-7.40001E-03-6.38407E-01
 -1       973 6.01920E+01 1.66352E-02 2.72557E-02-1.39344E+00 1.01349E-02-3.80459E-01
 -1       974 2.33307E+01 3.54444E-02 5.57795E-02-5.85584E-01-3.01098E-02 7.04405E-01
 -1       975 1.34039E+02 1.01656E-01 3.42801E-02-1.96299E+00-6.54384E-05-6.10285E-01
 -1       976 1.16500E+02-4.25464E-02-4.38621E-02-1.69628E+00-6.68325E-03-6.23693E-01
 -1       977 7.84764E+01 2.31530E-01 1.78493E-01-1.72332E+00 9.46305E-02-3.82820E-01
 -1       978 4.19422E+01-1.36518E-01-1.14635E-02-8.53809E-01 9.37233E-03 6.67178E-01
 -1       979 1.53088E+02 1.26355E-02 3.17615E-02-2.09198E+00-2.01900E-02 6.57842E-01
 -1       980 2.64904E+02-6.49236E-02 9.59721E-03-1.37567E+00 2.62507E-03-7.11791E-01
 -1       981 2.46280E+02-5.20789E-02 3.76998E-02-1.78526E+00 4.11240E-03-6.27114E-01
 -1       982 2.83656E+02-2.26834E-02-7.65650E-02-1.19649E+00-9.86441E-03 9.14700E-01
 -1       983 2.09071E+02-4.24812E-02 3.34632E-02-2.07985E+00-2.60224E-04-6.20431E-01
 -1       984 1.81157E+02 2.04310E-02 1.10104E-03-2.43590E+00 3.72608E-02-4.65269E-01
 -1       985 2.27017E+02 1.16134E-01 2.65439E-02-1.98958E+00-6.39148E-03-6.15422E-01
 -1       986 3.02356E+02-2.58894E-01 5.12754E+00-1.10088E-01-5.38483E-01-2.78563E+00
 -1       987 2.93464E+02 4.31039E-02 8.84469E-01-1.02423E+00-6.60169E-03-7.53835E-01
 -1       988 1.32514E+01 1.59534E-03 6.58900E-02-5.15669E-01-3.99297E-02-8.52651E-01
 -1       989 8.78596E+01 8.58124E-02 7.18906E-02-1.47848E+00 2.54109E-02 5.86494E-01
 -1       990 1.62639E+02-1.19109E-01 5.34154E-03-1.95777E+00 1.50465E-02-6.44547E-01
 -1       991 3.22343E+01 5.47452E-02 1.28986E-01-7.04875E-01 1.91277E-02-6.28614E-01
 -1       992 1.25831E+02-1.31064E-01-5.11152E-02-1.80911E+00-2.75175E-02 6.42185E-01
 -1       993 6.98106E+01-8.03087E-03 2.31210E-02-1.26600E+00-2.00031E-03 6.21527E-01
 -1       994 1.06513E+02 3.25181E-02-2.69979E-02-1.78799E+00-2.51935E-02 5.86012E-01
 -1       995 2.54915E+02 2.00475E-01 1.89115E-01-1.93429E+00-9.21231E-02 3.72589E-01
 -1       996 1.99929E+02-2.07636E-01-1.92247E-01-2.40748E+00 5.33090E-02 4.13393E-01
 -1       997 1.71960E+02-3.43411E-02 1.02979E-02-2.14677E+00-3.32332E-03 6.07440E-01
 -1       998 2.36957E+02-2.24683E-01-1.56470E-01-2.28647E+00 7.41650E-02 3.69117E-01
 -1       999 2.17673E+02 1.32345E-01 4.63419E-02-1.78018E+00-2.67846E-03 7.14449E-01
 -1      1000 3.07322E+02-2.22145E+01 3.33091E+01-2.05025E+00 8.48495E-01 7.34369E+00
 -1      1001 4.08867E+00-1.71074E-01-3.97879E-01-1.33511E+00 3.40651E-02 3.81465E-01
 -1      1002 2.92838E+02 1.40358E-01 7.81302E-01-9.47043E-01-9.79559E-02 9.51357E-01
 -1      1003 2.83281E+02 1.31886E-01 7.27639E-02-1.22977E+00 1.03346E-01-9.14656E-01
 -1      1004 2.73954E+02 1.06959E-02-2.16131E-02-1.34017E+00 3.63461E-02-7.37177E-01
 -1      1005 2.69429E+02-1.08704E-02-1.04401E-02-1.59412E+00 1.65154E-02 1.18428E-02
 -1      1006 2.29552E+01 1.20420E-01 2.05613E-02-5.49398E-01 2.35355E-02-7.34391E-01
 -1      1007 8.84008E+01-3.46013E-02-7.61454E-03-1.54470E+00 2.29348E-03-6.15497E-01
 -1      1008 6.02800E+01 2.92697E-02 4.09835E-02-1.15935E+00-4.10935E-02 6.18203E-01
 -1      1009 1.34586E+02 8.40747E-02 6.90715E-02-2.07978E+00 6.93743E-03 6.20857E-01
 -1      1010 1.62142E+02 2.41234E-01 1.55892E-01-2.53875E+00-1.10030E-01 3.46996E-01
 -1      1011 1.53318E+02-1.32957E-02 3.20141E-02-2.03732E+00 3.69400E-03-6.24958E-01
 -1      1012 1.25283E+02-1.40228E-02-3.18379E-03-1.87285E+00-1.01983E-03-6.67044E-01
 -1      1013 1.43756E+02-1.30954E-01-8.70148E-02-2.32385E+00 7.88610E-02 4.15247E-01
 -1      1014 2.36327E+02 2.18485E-01 2.22141E-01-2.14542E+00 7.35287E-02-4.08544E-01
 -1      1015 1.99297E+02 2.43410E-01 1.96518E-01-2.52676E+00 9.27402E-02-3.68713E-01
 -1      1016 1.90620E+02-6.02062E-03 2.05816E-04-2.20491E+00 3.29685E-02-6.75843E-01
 -1      1017 1.85791E+02 2.56214E-02 1.00494E-01-2.52974E+00-3.76498E-05-8.60762E-02
 -1      1018 2.09092E+02-9.99459E-02 5.53481E-02-2.20891E+00 2.75091E-02 5.79892E-01
 -1      1019 1.15548E+02 1.13461E-01 8.40287E-02-1.74354E+00 4.40644E-03 6.27915E-01
 -1      1020 6.93494E+01 4.66453E-02-4.06768E-03-1.40706E+00-3.66596E-03-6.44839E-01
 -1      1021 1.71486E+02 8.33617E-02 6.15185E-02-2.03507E+00-1.11473E-03-6.18854E-01
 -1      1022 3.26932E+01-1.80179E-03-3.42787E-02-7.31952E-01 1.35511E-02 6.06615E-01
 -1      1023 4.17641E+01-3.45303E-02-1.54953E-02-7.90247E-01 4.36392E-03-6.63611E-01
 -1      1024 2.27222E+02 5.87837E-02 1.02605E-03-1.96289E+00-2.52786E-02 6.19844E-01
 -1      1025 2.45738E+02 3.57338E-02 4.11287E-02-1.87469E+00 5.12871E-03 6.73199E-01
 -1      1026 5.07915E+01 1.10356E-01-1.37769E-02-1.21183E+00 2.68190E-02-5.78414E-01
 -1      1027 9.74056E+01 2.70930E-02 1.23458E-02-1.44741E+00-6.45223E-03 6.77726E-01
 -1      1028 2.55868E+02-7.71276E-02-2.35049E-03-1.47477E+00 1.52647E-03-6.15556E-01
 -1      1029 1.43459E+02 8.62608E-02 7.85186E-02-1.92335E+00 9.45093E-03-6.11075E-01
 -1      1030 2.18408E+02-1.29043E-01-3.89292E-03-1.87930E+00 1.22664E-02-6.79935E-01
 -1      1031 5.04468E+01 1.69549E-01 2.27375E-02-9.39170E-01 1.58242E-02 6.09521E-01
 -1      1032 1.06878E+02 2.02414E-02 4.88614E-02-1.67527E+00 5.14245E-03-6.35576E-01
 -1      1033 7.91196E+01-1.17827E-01-2.02580E-02-1.27712E+00-1.31301E-02 6.56321E-01
 -1      1034 2.99686E+02-8.67124E-01 4.97990E+00-1.08957E+00-2.12097E-02 7.01795E-02
 -1      1035 2.88631E+02 1.53024E-01 5.63153E-01-1.63965E+00 3.83328E-02-2.56154E-02
 -1      1036 2.64935E+02-1.93475E-01-2.44404E-02-1.39946E+00-2.01965E-02 7.09341E-01
 -1      1037 3.07136E+02-2.88974E+01 2.84620E+01 1.69396E+00-8.59795E-02-9.14399E+00
 -1      1038 1.89837E+02 2.14641E-01 5.20489E-02-2.14381E+00-4.25928E-02 6.31933E-01
 -1      1039 1.76137E+02 8.78888E-02 1.15180E-02-2.48322E+00 1.67037E-02 1.45191E-02
 -1      1040 1.89437E+01 8.24146E-02 1.49550E-01-9.89294E-01 1.53128E-02 4.85167E-02
 -1      1041 2.73682E+02 2.18763E-01-4.05468E-03-1.34431E+00-6.09884E-02 7.27657E-01
 -1      1042 2.83265E+01-1.08786E-01-2.98859E-03-1.21004E+00-1.95040E-02 8.83189E-02
 -1      1043 2.59826E+02 5.59461E-02 3.57661E-02-1.76174E+00-9.80818E-02-6.81060E-02
 -1      1044 6.48511E+01 8.28794E-02-1.46149E-02-1.71565E+00-2.20081E-02-1.14237E-01
 -1      1045 5.59424E+01-1.50178E-02 1.61728E-02-1.50526E+00 4.66133E-02-9.28983E-02
 -1      1046 8.34228E+01 2.54200E-02-1.07165E-02-1.64553E+00 2.73818E-02 5.00209E-02
 -1      1047 3.67376E+01 1.24579E-01-3.70377E-03-1.30636E+00 7.34881E-02 2.71614E-02
 -1      1048 1.20439E+02 1.21591E-01 5.68230E-03-2.04888E+00-6.86738E-02-9.46594E-02
 -1      1049 1.47843E+02 1.14637E-01-4.83580E-02-2.46946E+00-1.23363E-02 1.05572E-01
 -1      1050 1.11503E+02 4.52414E-03-8.30098E-03-2.24379E+00 5.66044E-04 7.55834E-03
 -1      1051 1.01945E+02 8.46357E-02 1.24962E-02-1.86961E+00-2.11467E-02 1.38549E-02
 -1      1052 4.64442E+01-4.19405E-02-4.20071E-02-1.21612E+00-2.18427E-02-5.73097E-02
 -1      1053 7.46072E+01 2.07928E-02 2.29483E-02-1.78684E+00-2.52179E-02-9.67092E-02
 -1      1054 1.66951E+02 4.60289E-02 8.94712E-03-2.32090E+00-2.24955E-02-6.56512E-02
 -1      1055 2.51067E+02-2.41616E-02 6.56430E-02-2.10369E+00 1.34518E-02 8.80618E-02
 -1      1056 2.40752E+02 4.81959E-02-1.39390E-02-2.18619E+00 1.06520E-02 7.47279E-02
 -1      1057 1.39560E+02-8.00582E-02 1.94545E-02-2.39501E+00 2.78811E-02 8.61278E-02
 -1      1058 2.22781E+02 3.01770E-02 1.87218E-02-2.15339E+00 1.28478E-02 1.67025E-02
 -1      1059 2.13469E+02-3.83290E-03 6.20947E-02-2.21576E+00-4.12944E-03-2.10688E-02
 -1      1060 2.32607E+02-7.16245E-03 8.94232E-02-2.25739E+00 2.82504E-02-4.90893E-02
 -1      1061 1.29829E+02 8.46405E-02-1.61370E-02-2.09265E+00 6.99562E-02 2.25369E-02
 -1      1062 9.26890E+01 2.70771E-02 2.42964E-02-1.71639E+00-1.03085E-02-2.87089E-02
 -1      1063 2.03629E+02 3.23813E-02-2.59117E-02-2.44337E+00 2.91201E-02 5.23251E-02
 -1      1064 1.58156E+02 7.33097E-03 2.83383E-02-2.50821E+00 3.91978E-02 9.03133E-02
 -1      1065 1.95477E+02-3.04800E-02 7.88799E-02-2.49592E+00 8.14426E-03-8.28550E-02
 -1      1066 1.81426E+02-1.21186E-01-7.27820E-03-1.88528E+00 6.91954E-03 7.09195E-01
 -1      1067 2.79422E+02-1.42921E-01 1.46412E-02-1.69391E+00-2.98913E-02 7.66358E-02
 -1      1068 4.06821E+00-3.33893E-01-3.21685E-01-1.18374E+00-3.74760E-02-4.57200E-01
 -1      1069 3.02204E+02-1.78857E-01 5.21643E+00-2.15010E-01 5.37359E-01 2.63171E+00
 -1      1070 1.32395E+01 9.37699E-02 1.53710E-01-5.43936E-01 2.37133E-03 8.45485E-01
 -1      1071 3.03630E+02-1.89687E+00 1.87347E+01 3.03997E-01-3.86514E-03 2.39452E-01
 -1      1072 3.06997E+02-1.73747E+01 1.26164E+01 2.04855E+00-8.40485E-01-2.02166E+01
 -1      1073 3.10945E+02-1.88521E+01 1.62324E+01-1.18061E+00 2.12055E-01 2.18839E+01
 -1      1074 3.60668E+00-7.28438E-02-1.40233E-01-1.16005E+00-2.66576E-03-9.82869E-01
 -1      1075 3.51811E+00-4.27579E-01-1.77117E-01-1.15934E+00-2.72208E-02 9.11534E-01
 -1      1076 1.15440E+01-8.93533E-02 1.32997E-01-1.14703E+00-3.63573E-02 4.11607E-02
 -1      1077 3.34778E+02 2.96270E+01 5.35457E+01-1.86676E+01 8.44364E+00-4.65288E+01
 -1      1078 3.14075E+02 2.66201E+01 6.49018E+01-3.05003E+01-2.66639E-01-2.78455E+01
 -1      1079 2.88312E+02-5.98197E+00-6.40126E-01 5.52511E+00-2.60355E+00-8.38169E+00
 -1      1080 3.23150E+02 3.89683E+01 7.41179E+01-3.38466E+01-3.17753E+00 3.05643E+01
 -1      1081 3.37115E+02 3.05692E+01 5.52100E+01-2.04576E+01-7.42225E+00 4.60042E+01
 -1      1082 2.88148E+02-5.95759E+00-6.55598E-01 5.61656E+00 2.05393E+00 8.70538E+00
 -1      1083-3.39325E+00-2.07870E+00-2.02428E+00-2.56828E+00-9.33337E-02 6.51308E-01
 -1      1084-1.30804E+00-8.16560E-01-1.12655E+00-1.89340E+00 1.46605E-01 5.48212E-01
 -1      1085 6.33476E+00-2.56114E-01-6.56523E-04-6.83428E-01-4.39370E-02 1.01129E+00
 -1      1086-1.13330E+00-5.67894E-01-9.76567E-01-1.93796E+00-1.03237E-01-5.99639E-01
 -1      1087-2.74763E+00-1.41840E+00-1.76281E+00-2.31938E+00-1.11462E-01-8.67650E-01
 -1      1088 6.36791E+00-3.21745E-01-5.77999E-02-7.80557E-01 3.18351E-02-1.02598E+00
 -1      1089 3.28032E+02 4.37083E+01 8.40974E+01-3.54969E+01-1.23110E+00 5.69018E+00
 -1      1090 3.19332E+02 2.85954E+01 7.52777E+01-3.05150E+01 1.12517E+00 1.83524E+01
 -1      1091 3.05402E+02-2.56894E+01 2.57972E+01 6.73360E-01 1.16618E+00 1.53970E+01
 -1      1092 3.26037E+02 3.86011E+01 7.99302E+01-3.27816E+01-2.21672E+00-1.83030E+01
 -1      1093 3.24442E+02 3.35768E+01 7.65319E+01-3.20747E+01-7.03426E-01-4.94045E+00
 -1      1094 3.06457E+02-2.23857E+01 3.43720E+01-5.42532E-02 4.79002E-01-5.14986E-01
 -1      1095 3.06643E+02-2.46758E+01 2.46079E+01 2.47557E+00-4.87997E-01-1.66385E+01
 -1      1096-2.57225E+00-2.08885E+00-1.97251E+00-2.58872E+00-6.54576E-02-5.94447E-01
 -1      1097-2.29590E+00-1.65307E+00-1.88225E+00-2.39396E+00-6.98802E-04-2.53969E-01
 -1      1098 3.78647E+00-2.09837E-01-3.15285E-01-1.24345E+00-9.34014E-02-7.50974E-01
 -1      1099-2.44176E+00-1.90345E+00-1.98723E+00-2.58327E+00 1.42476E-02 1.09551E-01
 -1      1100-2.30320E+00-1.44687E+00-1.84559E+00-2.26041E+00-1.26784E-02 6.54982E-01
 -1      1101 4.37745E+00-2.11675E-01-4.68153E-01-1.27081E+00 3.56773E-02-1.82218E-01
 -1      1102 3.78825E+00-1.51516E-01-2.29568E-01-1.24716E+00-2.20725E-02 8.60651E-01
 -1      1103 2.98481E+02 2.59054E+00 6.53601E+00 9.45297E-01-1.91175E+00 4.70214E+00
 -1      1104 2.96843E+02 5.14669E-01 1.81079E+00-3.60752E-01 5.15998E-01 1.03761E+00
 -1      1105 3.00689E+02-1.64875E+00 9.92620E+00 6.06613E-01-3.50581E-01 1.06977E+01
 -1      1106 2.92741E+02 1.57623E-01 6.48472E-01-5.45533E-01-2.88407E-01-3.12667E-01
 -1      1107 2.89678E+02-8.74726E-02 2.91228E-01-1.16492E+00-1.32634E-01-7.50893E-01
 -1      1108 2.97606E+02 4.22583E-02 2.55433E+00-6.48377E-01 4.80123E-01 4.38278E-01
 -1      1109 2.84883E+02 3.97955E-02 4.35895E-02-1.20850E+00 4.64755E-02-7.78730E-01
 -1      1110 2.80907E+02 2.60506E-01 9.59746E-02-1.22405E+00-1.76204E-02-7.57925E-01
 -1      1111 2.88213E+02-8.73168E-02 3.50160E-01-1.24529E+00 2.30830E-02-9.05950E-01
 -1      1112 2.76325E+02-1.56982E-01 3.47136E-02-1.15955E+00 9.80425E-02-8.18016E-01
 -1      1113 2.71438E+02 3.71390E-02-7.06903E-02-1.30956E+00-2.51249E-02-6.35970E-01
 -1      1114 2.78776E+02 5.65658E-02-2.68374E-02-1.23872E+00-1.57791E-02-8.66347E-01
 -1      1115 2.67107E+02-1.14173E-01 4.18760E-02-1.29944E+00 4.42416E-02-7.39346E-01
 -1      1116 2.62288E+02 1.72658E-02-5.49958E-02-1.38284E+00-4.29906E-02-6.50007E-01
 -1      1117 2.69271E+02 4.14379E-02-7.24851E-02-1.37669E+00-5.36805E-02-6.50198E-01
 -1      1118 2.57962E+02-9.26941E-02 1.84740E-02-1.47209E+00 4.42585E-02-6.27828E-01
 -1      1119 2.53148E+02-6.20279E-02-2.44092E-02-1.77319E+00-9.30732E-02-5.13020E-01
 -1      1120 2.60051E+02-1.73937E-01-1.63619E-01-1.46172E+00 2.30715E-02-5.75085E-01
 -1      1121 2.48401E+02-4.68426E-02 2.24985E-03-1.93615E+00 6.38871E-02-4.93946E-01
 -1      1122 2.43721E+02-5.89525E-02-1.77554E-03-2.07378E+00-9.15065E-02-5.28930E-01
 -1      1123 2.50655E+02-1.26567E-01-1.03109E-02-1.65895E+00 6.96171E-03-6.73622E-01
 -1      1124 2.38731E+02 5.67188E-02 2.25828E-02-2.18459E+00 1.24906E-01-5.24940E-01
 -1      1125 2.34373E+02 1.42775E-01 9.73518E-02-1.80298E+00-7.89708E-03-7.37146E-01
 -1      1126 2.40837E+02-1.36577E-01-8.55610E-02-2.09932E+00 6.22213E-02-6.27101E-01
 -1      1127 2.29988E+02-2.48654E-02 6.05973E-02-1.80938E+00 9.86460E-02-6.85018E-01
 -1      1128 2.24934E+02 6.96165E-02-3.27025E-02-1.89835E+00-3.48463E-02-6.83590E-01
 -1      1129 2.32579E+02 3.06349E-01 3.88280E-01-1.93517E+00 1.75080E-02-5.89835E-01
 -1      1130 2.20464E+02-1.26272E-01-5.81791E-02-1.93635E+00 2.80635E-02-6.24603E-01
 -1      1131 2.16037E+02-9.45127E-02 3.50179E-03-2.23760E+00-3.90183E-02-5.72812E-01
 -1      1132 2.22933E+02 1.29847E-01 1.29556E-01-1.82834E+00 7.69727E-05-6.49323E-01
 -1      1133 2.11175E+02-4.41267E-02-2.36856E-02-2.26103E+00 7.11998E-02-4.95544E-01
 -1      1134 2.06542E+02-4.36752E-02 2.86826E-04-2.35239E+00-9.67143E-02-5.41996E-01
 -1      1135 2.13572E+02-1.83592E-01-5.55571E-03-2.10184E+00 2.26642E-02-6.84250E-01
 -1      1136 2.01538E+02 1.15921E-02-6.06307E-02-2.50096E+00 1.18313E-01-5.70271E-01
 -1      1137 1.97458E+02 2.38055E-01 2.01921E-01-2.15535E+00 1.31124E-02-6.83262E-01
 -1      1138 2.03554E+02-1.30100E-01-9.93984E-02-2.38973E+00 6.98911E-02-6.43085E-01
 -1      1139 1.92825E+02-1.11540E-01 5.21366E-02-2.05380E+00 6.79468E-02-7.69631E-01
 -1      1140 1.87929E+02 6.89304E-02-4.98623E-02-2.02290E+00-3.74550E-02-6.73611E-01
 -1      1141 1.95353E+02 1.79883E-01 1.12122E-01-2.36235E+00 9.78583E-03-6.46901E-01
 -1      1142 1.83615E+02-5.40938E-02 3.47100E-02-2.00514E+00 9.41781E-02-7.32672E-01
 -1      1143 1.78555E+02 4.35329E-02-5.12594E-02-2.03294E+00-3.79269E-02-6.48254E-01
 -1      1144 1.85357E+02-2.46058E-01-2.68503E-01-2.20927E+00 3.15907E-02-5.16072E-01
 -1      1145 1.74248E+02-6.14265E-02 1.23869E-01-1.91721E+00 1.02898E-01-7.09693E-01
 -1      1146 1.69140E+02 5.54896E-02-6.29428E-02-1.96499E+00-4.08480E-02-6.39285E-01
 -1      1147 1.76684E+02 2.65267E-01 7.86167E-02-2.14086E+00-6.45090E-02-5.96115E-01
 -1      1148 1.64681E+02-1.14125E-01-5.73451E-02-2.03143E+00 3.13885E-02-6.04273E-01
 -1      1149 1.60290E+02-8.07997E-02 1.76586E-02-2.30095E+00-4.01804E-02-5.46967E-01
 -1      1150 1.67086E+02 1.02512E-01 1.29977E-01-1.91860E+00 3.55144E-03-6.18338E-01
 -1      1151 1.55433E+02-1.54131E-02-1.34656E-02-2.27421E+00 7.53295E-02-4.93707E-01
 -1      1152 1.50860E+02-7.75636E-03-6.84486E-03-2.28181E+00-7.08468E-02-5.15350E-01
 -1      1153 1.57794E+02-1.79760E-01-1.24485E-02-2.13048E+00 2.96830E-02-6.66867E-01
 -1      1154 1.46125E+02 1.14844E-01 5.63202E-02-2.23097E+00 1.18479E-01-4.84852E-01
 -1      1155 1.41304E+02 1.23879E-01 7.62508E-03-1.89169E+00-4.17797E-02-6.42782E-01
 -1      1156 1.48363E+02-1.92779E-02-5.85637E-03-2.11895E+00 4.95300E-02-6.79506E-01
 -1      1157 1.37012E+02 9.75329E-03 3.74764E-02-1.81262E+00 7.53663E-02-6.45782E-01
 -1      1158 1.32020E+02 9.86147E-02-7.78431E-02-1.85444E+00-3.38539E-02-6.58244E-01
 -1      1159 1.39307E+02 2.18735E-01 2.23585E-01-1.85935E+00-1.71230E-02-5.85138E-01
 -1      1160 1.27582E+02-4.56586E-02-1.35261E-02-1.83024E+00 2.87651E-02-6.63448E-01
 -1      1161 1.22973E+02 8.15743E-02 3.87061E-02-1.81995E+00-2.41237E-02-6.77533E-01
 -1      1162 1.29817E+02 1.56330E-01 2.05826E-01-1.92506E+00-9.99796E-03-6.27974E-01
 -1      1163 1.18549E+02-5.35114E-02 9.75154E-03-1.73380E+00 5.45160E-02-6.33042E-01
 -1      1164 1.13757E+02-2.40435E-02-3.49930E-02-1.91222E+00-9.64101E-02-5.28568E-01
 -1      1165 1.20797E+02-9.26208E-02-1.33395E-01-1.84934E+00 1.72410E-02-6.26037E-01
 -1      1166 1.09008E+02 8.37362E-03-2.13913E-03-1.93995E+00 6.70058E-02-5.12377E-01
 -1      1167 1.04500E+02 1.15129E-02 2.11055E-02-1.89800E+00-6.24918E-02-5.29889E-01
 -1      1168 1.11253E+02-8.91574E-02-5.65792E-02-1.73238E+00-3.07378E-04-6.70579E-01
 -1      1169 9.98077E+01 4.33174E-02-2.38963E-02-1.85405E+00 7.56683E-02-5.18177E-01
 -1      1170 9.52842E+01 4.80965E-02 4.26204E-02-1.76380E+00-7.31227E-02-5.34363E-01
 -1      1171 1.02049E+02-5.03759E-02-3.60985E-02-1.69024E+00 2.59262E-02-7.03190E-01
 -1      1172 9.04675E+01-2.68309E-02-3.58532E-02-1.75600E+00 6.48255E-02-5.08279E-01
 -1      1173 8.58022E+01-3.61630E-02-9.47492E-03-1.78666E+00-8.87701E-02-5.36922E-01
 -1      1174 9.27859E+01-7.08114E-02-4.70542E-02-1.56063E+00 2.79867E-04-7.00812E-01
 -1      1175 8.08215E+01 8.28075E-02 7.38545E-03-1.79916E+00 1.36094E-01-5.25409E-01
 -1      1176 7.64884E+01 1.66464E-01 8.49431E-02-1.31058E+00-1.00819E-03-7.15630E-01
 -1      1177 8.29574E+01-1.13735E-01-1.03522E-01-1.76590E+00 9.23578E-02-6.08311E-01
 -1      1178 7.20488E+01-2.07488E-02 6.56423E-02-1.24063E+00 5.95232E-02-6.60197E-01
 -1      1179 6.70804E+01 1.19402E-01-6.10561E-02-1.20153E+00-5.31227E-02-7.47661E-01
 -1      1180 7.46773E+01 2.63096E-01 3.33864E-01-1.50247E+00 1.08376E-02-5.25711E-01
 -1      1181 6.26943E+01-1.92101E-02 2.12370E-02-1.12083E+00 5.61487E-02-6.85460E-01
 -1      1182 5.78336E+01 8.62709E-02-1.66454E-02-1.02661E+00-6.51903E-02-7.91351E-01
 -1      1183 6.46522E+01-8.75587E-02-1.56529E-02-1.41934E+00 4.27434E-02-5.65702E-01
 -1      1184 5.34861E+01-9.06400E-02-4.15485E-02-1.06107E+00 1.13150E-01-6.73116E-01
 -1      1185 4.86544E+01 9.60193E-02 4.75742E-03-1.05019E+00 2.99827E-03-5.94749E-01
 -1      1186 5.60819E+01 2.41424E-01 3.11650E-01-1.21504E+00 4.33615E-02-5.98334E-01
 -1      1187 4.42191E+01-7.35140E-02 9.25741E-02-7.57090E-01 6.03300E-02-6.72922E-01
 -1      1188 3.92505E+01 6.51726E-02-9.33795E-02-7.00312E-01-4.99394E-02-6.81786E-01
 -1      1189 4.66034E+01 2.11371E-01 6.30461E-03-1.01838E+00-6.25293E-02-6.20000E-01
 -1      1190 3.49284E+01-8.75431E-03 9.81484E-02-7.00043E-01 7.64875E-02-6.01143E-01
 -1      1191 2.98951E+01 7.72754E-02 3.58824E-03-6.18645E-01-4.81053E-02-7.00987E-01
 -1      1192 3.70136E+01-1.26236E-02 1.03732E-01-8.20855E-01 1.20354E-01-5.44659E-01
 -1      1193 2.56515E+01-4.13578E-03 7.70380E-02-5.47944E-01 7.05755E-02-6.48471E-01
 -1      1194 2.07299E+01 1.61176E-01-4.12615E-02-4.62500E-01-2.55177E-02-7.63695E-01
 -1      1195 2.80138E+01 1.78625E-01 3.08010E-01-6.49176E-01-1.49301E-02-5.93099E-01
 -1      1196 1.62974E+01 4.63382E-02 1.52285E-01-4.71147E-01 1.36352E-02-6.99010E-01
 -1      1197 1.07507E+01 2.52879E-01-4.09574E-02-3.92555E-01-1.72509E-01-1.02233E+00
 -1      1198 1.83510E+01-2.08893E-02 4.73608E-02-5.68974E-01 1.13770E-01-7.04454E-01
 -1      1199 8.74966E+00 1.51412E-01 2.68188E-01-7.15900E-01 4.16509E-02-9.41088E-01
 -1      1200 2.96835E+02 4.49622E-01 1.72573E+00-2.94948E-01-4.89780E-01-1.05233E+00
 -1      1201 2.98453E+02 2.63773E+00 6.62797E+00 9.84890E-01 1.99405E+00-4.70455E+00
 -1      1202 3.01443E+02-1.19825E+00 1.01719E+01 1.06848E-01 1.29266E-01-1.02612E+01
 -1      1203 2.89422E+02 2.85287E-01 1.56205E-01-9.38421E-01-3.69174E-03 8.88684E-01
 -1      1204 2.92880E+02 3.11517E-01 7.88526E-01-4.57300E-01 2.38756E-01 3.24848E-01
 -1      1205 2.97680E+02 6.60418E-02 2.67609E+00-6.05875E-01-4.75922E-01-5.23498E-01
 -1      1206 2.80816E+02-3.74204E-02-1.36117E-02-1.46545E+00 1.01627E-01 7.15220E-01
 -1      1207 2.84901E+02-1.39370E-01-1.01525E-01-1.06650E+00 3.25594E-02 7.57251E-01
 -1      1208 2.88233E+02 2.06881E-02 4.15465E-01-1.07175E+00-9.62702E-02 9.50261E-01
 -1      1209 2.71601E+02 1.49251E-01 2.61989E-02-1.39188E+00 7.83329E-04 6.16271E-01
 -1      1210 2.76155E+02 8.41755E-02 4.75835E-02-1.49307E+00-1.10426E-01 6.47745E-01
 -1      1211 2.78977E+02 8.51446E-02 8.59740E-03-1.35423E+00 2.55083E-02 8.69516E-01
 -1      1212 2.62255E+02-1.99168E-01-9.90503E-02-1.80766E+00 6.43227E-02 5.41185E-01
 -1      1213 2.66990E+02-1.73569E-01-1.26915E-02-1.33115E+00-2.89393E-02 6.67335E-01
 -1      1214 2.69391E+02 1.51257E-01-8.27848E-03-1.32360E+00 4.59202E-03 7.10774E-01
 -1      1215 2.52972E+02 1.55236E-01 1.05573E-01-1.59182E+00 8.81346E-03 7.20748E-01
 -1      1216 2.57346E+02 5.88258E-02 3.51280E-02-1.96307E+00-1.36301E-01 4.98259E-01
 -1      1217 2.59341E+02-2.17634E-01-6.81733E-02-1.89535E+00-1.12005E-01 6.00259E-01
 -1      1218 2.43543E+02 1.29748E-01-3.43512E-02-1.73538E+00 5.37111E-02 7.73840E-01
 -1      1219 2.48501E+02-4.23157E-02 7.06888E-02-1.63776E+00-5.64919E-02 6.86290E-01
 -1      1220 2.51099E+02 2.25666E-01 3.64707E-01-1.83336E+00-9.25259E-03 5.34262E-01
 -1      1221 2.34762E+02 1.48755E-02 8.24255E-02-2.30007E+00 1.03296E-01 5.71676E-01
 -1      1222 2.38877E+02-2.20987E-01-1.84402E-01-1.89118E+00-2.69733E-03 6.86592E-01
 -1      1223 2.40955E+02-1.65267E-01-8.42414E-02-2.06827E+00-1.17930E-02 6.43092E-01
 -1      1224 2.25100E+02 7.10156E-02 3.07281E-02-2.18532E+00 5.37282E-02 4.89029E-01
 -1      1225 2.29761E+02 7.31273E-02 1.51857E-02-2.20633E+00-1.15189E-01 5.35666E-01
 -1      1226 2.32738E+02 1.53533E-01 1.44294E-01-2.21711E+00 4.57616E-02 6.44695E-01
 -1      1227 2.15703E+02 1.44162E-01 1.60089E-02-1.87799E+00 1.66933E-02 6.64216E-01
 -1      1228 2.20256E+02 1.30172E-01 7.08088E-02-2.13614E+00-5.17989E-02 5.33435E-01
 -1      1229 2.22816E+02 2.06904E-01 5.72000E-02-2.01295E+00 2.75531E-02 6.75024E-01
 -1      1230 2.06384E+02 1.02756E-01 5.94417E-02-2.03517E+00 1.02696E-01 7.03723E-01
 -1      1231 2.11206E+02-5.58623E-02 4.97016E-03-2.09340E+00-7.14074E-03 6.19930E-01
 -1      1232 2.13249E+02-1.53653E-01 4.73128E-02-1.93117E+00-2.96867E-02 7.04283E-01
 -1      1233 1.97581E+02-4.57582E-02-6.29135E-03-2.47090E+00 1.11960E-01 5.31584E-01
 -1      1234 2.01925E+02-1.35598E-01-8.51143E-02-2.03580E+00-2.79055E-02 7.43842E-01
 -1      1235 2.03786E+02-2.66304E-01-3.31913E-01-2.17106E+00-6.80226E-03 6.23291E-01
 -1      1236 1.87902E+02 1.69878E-01 5.31254E-02-2.15054E+00-5.42398E-03 5.42577E-01
 -1      1237 1.92667E+02 1.38011E-01 6.46018E-02-2.40143E+00-1.29341E-01 5.81562E-01
 -1      1238 1.95435E+02 1.82258E-01 1.35396E-01-2.41753E+00 4.86807E-02 6.51004E-01
 -1      1239 1.78868E+02-1.02364E-01-5.27667E-02-2.24861E+00 4.75426E-02 5.40180E-01
 -1      1240 1.83434E+02-1.34657E-01-6.59507E-03-1.97853E+00-2.02736E-02 6.49931E-01
 -1      1241 1.85690E+02 1.26992E-01 8.61389E-03-1.95229E+00 1.47888E-02 6.69120E-01
 -1      1242 1.69377E+02-3.68406E-02-2.14760E-03-2.40028E+00 9.72204E-02 5.34984E-01
 -1      1243 1.74074E+02-3.95410E-02-2.29646E-02-2.33521E+00-7.28648E-02 4.89466E-01
 -1      1244 1.76344E+02-1.73382E-01-4.35134E-02-2.13231E+00-3.91495E-02 6.87632E-01
 -1      1245 1.60296E+02 2.33858E-01 1.81821E-01-2.13180E+00-1.74302E-02 6.60350E-01
 -1      1246 1.64358E+02 1.86929E-02-8.29394E-02-2.52286E+00-1.30636E-01 5.65011E-01
 -1      1247 1.66411E+02-1.27817E-01-1.04660E-01-2.43283E+00-9.71916E-02 6.27469E-01
 -1      1248 1.50601E+02 1.22101E-01-7.64896E-02-1.88446E+00 4.05438E-02 7.11873E-01
 -1      1249 1.55602E+02-9.78047E-02 1.10454E-01-1.93267E+00-7.74858E-02 7.12982E-01
 -1      1250 1.58306E+02 2.64089E-01 2.00723E-01-2.31879E+00 1.52432E-02 6.11380E-01
 -1      1251 1.41417E+02 1.01089E-01-3.86429E-02-1.86738E+00 8.81222E-02 8.01840E-01
 -1      1252 1.46182E+02-2.47779E-02-1.74954E-02-1.94131E+00-1.50736E-02 7.09594E-01
 -1      1253 1.47932E+02-1.89503E-01-1.25500E-01-2.21989E+00-5.73097E-02 6.03138E-01
 -1      1254 1.32237E+02 8.72505E-02 1.99161E-02-1.91286E+00 2.35441E-02 6.57282E-01
 -1      1255 1.36887E+02-8.81605E-02-4.50300E-02-1.99651E+00-5.47167E-02 6.78191E-01
 -1      1256 1.39604E+02 1.67518E-01 2.60158E-01-2.20090E+00 1.99452E-02 5.04663E-01
 -1      1257 1.22943E+02-8.25418E-02-9.39447E-02-2.05458E+00 8.84865E-02 5.35969E-01
 -1      1258 1.27854E+02-7.37549E-02 8.85385E-03-1.81114E+00-4.96941E-02 6.14197E-01
 -1      1259 1.30045E+02-9.84839E-02-1.02723E-01-1.91840E+00-8.07936E-03 6.16723E-01
 -1      1260 1.13460E+02 1.29940E-01 1.17061E-02-1.69775E+00 4.64520E-02 6.43074E-01
 -1      1261 1.18273E+02 1.34377E-01 7.30748E-02-2.04884E+00-1.15497E-01 4.95574E-01
 -1      1262 1.20505E+02-4.74275E-02 7.32767E-04-1.94057E+00-4.54371E-02 6.81606E-01
 -1      1263 1.04377E+02 9.24817E-02 1.00208E-02-1.91596E+00 5.25668E-02 5.58801E-01
 -1      1264 1.09006E+02-9.94594E-02-5.18302E-02-1.69190E+00-7.17095E-02 6.32579E-01
 -1      1265 1.11342E+02 1.69247E-01 2.13146E-01-1.70723E+00 2.91922E-02 5.94824E-01
 -1      1266 9.52338E+01 1.06347E-02 2.57289E-02-1.73846E+00 1.55159E-02 5.51476E-01
 -1      1267 9.95687E+01 6.10537E-02-2.37651E-02-1.79890E+00-4.30229E-02 5.44267E-01
 -1      1268 1.02317E+02 2.30077E-01 1.02730E-01-1.66136E+00-1.45169E-02 6.92726E-01
 -1      1269 8.55613E+01 1.14197E-01-2.20083E-02-1.39700E+00 6.42441E-02 6.43316E-01
 -1      1270 9.05739E+01 1.23136E-02 7.94749E-02-1.66466E+00-1.16197E-01 5.37131E-01
 -1      1271 9.26462E+01-1.40778E-01-2.75320E-02-1.48103E+00 7.78589E-04 6.83709E-01
 -1      1272 7.67538E+01-7.76031E-02 5.32659E-03-1.59692E+00 4.19839E-02 5.58618E-01
 -1      1273 8.11432E+01-1.07741E-01-6.72814E-02-1.38284E+00-2.86822E-02 6.22114E-01
 -1      1274 8.35115E+01 9.34473E-02 8.88306E-02-1.25973E+00 4.92482E-03 6.40816E-01
 -1      1275 6.73575E+01-7.57644E-03 6.66954E-03-1.49673E+00 6.97055E-02 5.28275E-01
 -1      1276 7.19061E+01-9.34042E-03-1.63303E-02-1.52682E+00-7.51687E-02 4.99728E-01
 -1      1277 7.42709E+01-1.74434E-01-3.37468E-02-1.40689E+00-2.87584E-02 6.75141E-01
 -1      1278 5.80189E+01 2.19327E-02 3.15614E-02-1.40181E+00 6.85047E-02 4.96670E-01
 -1      1279 6.25587E+01 3.41675E-02-2.64984E-02-1.45455E+00-1.12861E-01 4.99885E-01
 -1      1280 6.48508E+01-1.93220E-02 3.58973E-03-1.30383E+00-6.52551E-02 6.84042E-01
 -1      1281 4.84467E+01 1.15975E-01-2.34906E-02-9.44391E-01 3.30657E-02 6.04701E-01
 -1      1282 5.33404E+01 1.62809E-01 8.38792E-02-1.25281E+00-1.04519E-01 5.32732E-01
 -1      1283 5.58331E+01 1.60503E-01 6.55401E-02-1.15749E+00 3.10045E-02 6.84423E-01
 -1      1284 3.96016E+01-1.03971E-01-2.04325E-02-1.14879E+00 5.00198E-02 5.67031E-01
 -1      1285 4.39853E+01-1.16542E-01-5.60365E-02-9.16487E-01-1.96987E-02 6.15179E-01
 -1      1286 4.63250E+01 9.27682E-02 1.00704E-01-8.35974E-01 2.98196E-02 6.16646E-01
 -1      1287 3.03362E+01 2.71519E-02 3.61890E-02-9.56629E-01 9.94094E-02 4.95370E-01
 -1      1288 3.48821E+01 1.90638E-02-4.55669E-02-1.04770E+00-8.76474E-02 4.92039E-01
 -1      1289 3.71665E+01-1.59479E-01-7.12440E-02-9.51259E-01-3.22833E-02 6.89783E-01
 -1      1290 2.11072E+01 6.89236E-02 6.59947E-02-8.52907E-01 7.97150E-02 5.42757E-01
 -1      1291 2.55314E+01 2.87192E-02-1.86914E-02-8.84378E-01-8.62128E-02 5.41204E-01
 -1      1292 2.79401E+01 6.30495E-03 5.21976E-03-7.59672E-01-8.43304E-03 7.21537E-01
 -1      1293 1.12557E+01 2.45714E-01 1.92221E-01-5.14448E-01 8.98384E-02 8.45598E-01
 -1      1294 1.59762E+01 6.26250E-02 7.32078E-02-8.21042E-01-1.10556E-01 6.40099E-01
 -1      1295 1.83230E+01-1.65491E-02 8.32187E-02-6.73756E-01-3.53636E-02 8.07713E-01
 -1      1296 8.73190E+00-3.61566E-02 2.75647E-02-6.94932E-01 4.42395E-02 9.28760E-01
 -1      1297 9.51893E+01-5.30181E-02 1.69003E-02-1.54264E+00 6.16272E-02-4.47232E-01
 -1      1298 9.05312E+01 6.64351E-02-1.60184E-02-1.59886E+00-7.08908E-02-4.82412E-01
 -1      1299 1.04472E+02-7.35866E-03 3.71395E-02-1.74113E+00 1.05251E-01-4.43057E-01
 -1      1300 9.96558E+01 3.73663E-02-2.56940E-02-1.66326E+00-6.40925E-02-4.94992E-01
 -1      1301 9.74962E+01 1.03059E-01 9.33626E-02-1.77877E+00 5.29069E-03 1.86725E-02
 -1      1302 6.70070E+01-1.01029E-01-1.11952E-01-1.70379E+00 1.66017E-02-4.62542E-01
 -1      1303 6.27559E+01-7.31666E-03-3.07484E-02-1.76654E+00-1.23656E-01-2.57485E-01
 -1      1304 5.78985E+01 5.53061E-02 3.90103E-02-1.71728E+00 1.62371E-01-1.85034E-01
 -1      1305 5.35287E+01 1.98566E-01 2.34374E-01-1.31503E+00-7.68129E-02-3.89160E-01
 -1      1306 6.03994E+01-1.32162E-02-1.24651E-01-1.65462E+00 8.83016E-02-1.96422E-01
 -1      1307 2.56283E+01 1.38686E-02 1.39756E-01-7.49491E-01 7.06836E-02 5.02858E-01
 -1      1308 3.04739E+01 5.79424E-03 9.56022E-02-8.68086E-01-8.93233E-02 4.38498E-01
 -1      1309 2.33827E+01-7.75374E-02-7.01782E-02-9.97543E-01 4.05844E-02-1.12652E-02
 -1      1310 2.13606E+01-6.99747E-02 8.28852E-02-6.50194E-01-6.09741E-02 6.13386E-01
 -1      1311 1.59670E+01-3.98939E-02 3.93627E-03-6.38216E-01 9.50197E-02 5.07622E-01
 -1      1312 1.31887E+02 9.44981E-02-8.08205E-02-2.14602E+00 9.47866E-02-3.24819E-01
 -1      1313 1.27518E+02 6.50088E-02-6.68181E-02-2.05387E+00-1.98949E-02-3.15483E-01
 -1      1314 1.41769E+02-3.24102E-02 4.21552E-02-2.05011E+00 8.70382E-02-5.68251E-01
 -1      1315 1.36982E+02 1.73332E-01 5.39847E-02-2.09819E+00-9.33238E-02-4.20906E-01
 -1      1316 1.34603E+02 6.28675E-02-6.08944E-02-2.26969E+00 6.89065E-02 9.26605E-02
 -1      1317 1.22996E+02-1.79277E-02 4.03677E-02-1.99750E+00 2.36373E-02-3.85768E-01
 -1      1318 1.18349E+02 3.37746E-02-1.66159E-02-1.89707E+00-1.07453E-01-5.02377E-01
 -1      1319 1.13644E+02-4.60757E-02 3.51071E-02-1.84945E+00 4.40264E-02-4.77568E-01
 -1      1320 1.08964E+02 5.66793E-02 3.79596E-02-1.79556E+00-7.42397E-02-6.03139E-01
 -1      1321 1.15725E+02-4.87923E-02-9.98260E-02-2.02893E+00 4.42323E-02-6.00302E-02
 -1      1322 8.57339E+01-7.24778E-02-7.50978E-02-1.61662E+00 1.46159E-01-4.34782E-01
 -1      1323 8.06331E+01-1.18272E-01-1.20146E-01-1.67999E+00 2.40466E-04-2.90313E-01
 -1      1324 7.71787E+01 2.48097E-01 1.05393E-01-2.04959E+00 6.37815E-02-3.95613E-01
 -1      1325 7.20888E+01 2.01043E-01-7.33419E-02-1.71891E+00-1.27620E-01-3.08912E-01
 -1      1326 7.88639E+01-8.85780E-02-9.80585E-02-1.59778E+00-5.59406E-02 3.94696E-02
 -1      1327 3.45322E+01 2.59950E-02-1.44777E-01-8.41289E-01 9.22397E-02 6.23676E-01
 -1      1328 3.93940E+01-1.35476E-01-3.78897E-02-9.96323E-01-4.61605E-03 4.99158E-01
 -1      1329 4.40363E+01-2.38888E-02-3.06706E-02-9.54243E-01 3.67938E-02 4.00066E-01
 -1      1330 4.84436E+01 7.95910E-02-1.68053E-02-1.07923E+00-8.95437E-02 3.70050E-01
 -1      1331 4.15392E+01-3.54479E-02-2.02990E-03-1.29320E+00 3.49738E-02-7.21051E-02
 -1      1332 1.55687E+02 1.85185E-01-4.64396E-02-2.48790E+00 1.21499E-01 3.47009E-01
 -1      1333 1.60721E+02 2.53842E-01 1.32801E-01-2.74607E+00-5.45338E-02 3.26611E-01
 -1      1334 1.45402E+02-1.64542E-01-2.08496E-01-2.64037E+00 6.74896E-02 3.57421E-01
 -1      1335 1.50534E+02-9.69120E-02 6.01428E-02-2.38638E+00-1.03291E-01 3.92810E-01
 -1      1336 1.53165E+02 1.32373E-01 1.20113E-01-2.40860E+00 6.37733E-02-1.20709E-02
 -1      1337 2.71513E+02 3.55617E-02-4.70641E-02-1.55401E+00 1.23819E-01-3.53031E-01
 -1      1338 2.67087E+02 4.67028E-02 1.74973E-02-1.61852E+00-3.98354E-02-3.97209E-01
 -1      1339 2.64689E+02 3.18624E-02 1.18249E-01-1.74115E+00-7.70957E-02 3.56652E-02
 -1      1340 2.62328E+02-9.19757E-02 5.85466E-02-1.62908E+00 5.46870E-02-4.18746E-01
 -1      1341 2.57736E+02 4.79820E-03 2.72242E-02-1.63479E+00-1.10353E-01-4.96899E-01
 -1      1342 2.43626E+02-9.19790E-02-1.23787E-01-1.93283E+00 1.60031E-01-4.17057E-01
 -1      1343 2.38359E+02-1.73723E-01-2.47509E-01-2.10795E+00-3.66661E-02-2.12120E-01
 -1      1344 2.53127E+02-8.03781E-02 1.20138E-01-1.63515E+00 3.73582E-02-3.97394E-01
 -1      1345 2.48403E+02 1.43571E-02 8.16457E-02-1.79431E+00-1.01486E-01-5.06989E-01
 -1      1346 2.46150E+02 1.30607E-01 2.01169E-01-2.07136E+00 6.37101E-02-4.33860E-02
 -1      1347 2.86135E+02 1.47598E-01 2.41959E-01-1.27748E+00 6.32814E-02 6.51396E-01
 -1      1348 2.91176E+02 3.60771E-02 9.02303E-01-1.25402E+00 2.70816E-02 4.08596E-01
 -1      1349 2.81696E+02 8.44029E-02 1.64771E-01-1.37764E+00-8.08783E-02 5.06056E-01
 -1      1350 2.83899E+02-4.96373E-02 2.04350E-01-1.69614E+00-1.35968E-01 6.79133E-02
 -1      1351 2.76679E+02 6.03623E-02 1.50934E-01-1.42626E+00 1.10362E-01 5.61709E-01
 -1      1352 2.06441E+02-8.50235E-02-1.14577E-01-2.19585E+00 1.53045E-01-4.27252E-01
 -1      1353 2.01134E+02-1.80704E-01-2.41300E-01-2.38022E+00-2.09751E-02-1.97936E-01
 -1      1354 2.15952E+02-1.55742E-01 4.52151E-02-2.02066E+00 4.24823E-02-4.06266E-01
 -1      1355 2.11216E+02 3.59055E-02 4.05356E-02-2.11587E+00-8.25559E-02-4.76469E-01
 -1      1356 2.08940E+02 8.44563E-02 1.79752E-01-2.34262E+00 6.81466E-02-6.26557E-02
 -1      1357 1.87892E+02-1.23082E-01 2.41892E-02-2.54141E+00 1.31475E-01-3.46798E-01
 -1      1358 1.83550E+02-2.43411E-02 2.21667E-01-2.71428E+00-1.25739E-01-2.57681E-01
 -1      1359 1.81065E+02 6.76558E-02 8.65327E-02-2.54788E+00-4.80579E-02-8.87843E-02
 -1      1360 1.78383E+02 1.65469E-01-6.12566E-02-2.62699E+00 1.52693E-01-2.21025E-01
 -1      1361 1.74275E+02 2.53984E-01 1.28987E-01-2.38149E+00-6.85846E-02-3.87244E-01
 -1      1362 2.35073E+02 2.61751E-01 2.23017E-01-2.43108E+00 6.71090E-02-3.88858E-01
 -1      1363 2.29966E+02 2.14445E-01 6.46327E-03-2.06296E+00-1.02622E-01-3.11103E-01
 -1      1364 2.24788E+02 7.64841E-02 2.09275E-02-2.18728E+00 1.09955E-01-2.95248E-01
 -1      1365 2.20504E+02 3.95406E-02 4.68556E-02-1.92715E+00-1.54306E-03-4.02747E-01
 -1      1366 2.27331E+02-6.17182E-02-1.08493E-01-2.21818E+00 7.19613E-02 6.31408E-02
 -1      1367 2.96416E+02 1.34194E-02 2.86368E+00-1.19560E+00 1.85868E-01 1.97816E-01
 -1      1368 3.01601E+02 2.45331E-02 6.80932E+00-5.22984E-01-1.56295E-01-1.55241E+00
 -1      1369 3.01964E+02-1.76095E+00 1.27710E+01-1.30029E-01 1.59509E-02 3.52957E-02
 -1      1370 3.01626E+02-1.57833E+00 1.21773E+01 6.99656E-01-1.05853E-01-2.12956E+00
 -1      1371 2.96682E+02-2.34090E+00 2.43206E+01 1.71011E+00 5.48983E-01-3.60775E+00
 -1      1372 2.97646E+02-3.14246E+00 1.66664E+01 2.07821E+00 2.23573E-01-7.76500E+00
 -1      1373 2.91400E+02 1.39531E-01 9.94819E-01-1.28017E+00 4.05448E-02-3.80475E-01
 -1      1374 2.86033E+02 1.22791E-02 3.43146E-01-1.35164E+00-4.36218E-03-5.69497E-01
 -1      1375 2.93587E+02-3.35561E-01 1.86117E+00-1.30275E+00 5.98842E-02-1.65712E-02
 -1      1376 2.96528E+02 4.28612E-02 2.77502E+00-1.16218E+00-1.91843E-01-1.05615E-01
 -1      1377 3.01547E+02 8.21572E-02 6.57919E+00-5.54319E-01 1.15074E-01 1.51895E+00
 -1      1378 2.09671E+01-1.76026E-02 1.44339E-01-9.11874E-01 2.07108E-02-4.24572E-01
 -1      1379 1.60056E+01-6.61945E-02 6.63568E-02-6.92820E-01-9.30189E-02-5.45756E-01
 -1      1380 1.50325E+01-4.92023E-03 1.22717E-01-1.04519E+00 1.29235E-01 1.53067E-02
 -1      1381 1.25380E+01 6.41014E-02 1.00246E-01-7.63274E-01 7.01986E-02-5.45451E-01
 -1      1382 9.15669E+00 3.16639E-02 1.23191E-01-7.95535E-01 3.89535E-03-6.50568E-01
 -1      1383 8.45601E+00 2.05969E-02 6.51177E-02-8.93125E-01 2.40539E-02-3.75918E-01
 -1      1384 9.06398E+01 3.70859E-02 4.18633E-02-1.62881E+00 1.25206E-01 3.53731E-01
 -1      1385 9.50642E+01-1.07229E-01-2.53858E-02-1.50612E+00-4.78575E-02 4.55955E-01
 -1      1386 8.12118E+01 6.07301E-02-6.11634E-02-1.36681E+00 8.51900E-03 4.46446E-01
 -1      1387 8.54751E+01 1.31025E-02-6.41334E-02-1.57507E+00-1.12495E-01 4.07554E-01
 -1      1388 8.81238E+01 1.08758E-01 1.24635E-01-1.77266E+00 7.45487E-02-4.07320E-02
 -1      1389 1.60221E+02-1.58405E-01 7.75167E-02-2.12821E+00 3.16438E-02-3.67247E-01
 -1      1390 1.55397E+02 9.09395E-03 5.09240E-02-2.11089E+00-9.14056E-02-5.06251E-01
 -1      1391 1.69002E+02 3.55194E-02-1.26868E-02-2.28519E+00 1.13722E-01-3.91723E-01
 -1      1392 1.64752E+02 6.69646E-02-1.91721E-02-2.03969E+00-8.18011E-03-4.58585E-01
 -1      1393 1.62413E+02-6.87382E-02-6.78458E-02-2.28458E+00 5.69402E-02-5.30124E-02
 -1      1394 3.05961E+01-2.34001E-02 4.71154E-02-9.24772E-01 7.56114E-02-5.39152E-01
 -1      1395 2.56310E+01 9.85176E-02-6.73883E-02-8.99054E-01-9.00204E-02-4.28715E-01
 -1      1396 3.91994E+01-6.55777E-02-7.73926E-02-1.19490E+00 1.25510E-01-4.87988E-01
 -1      1397 3.46023E+01-5.38732E-02 1.86942E-02-9.96958E-01-2.06904E-02-4.26717E-01
 -1      1398 3.26289E+01 1.01193E-02 5.58959E-02-1.31756E+00-9.62227E-02 1.16171E-01
 -1      1399 1.27724E+02-4.33312E-02 5.46056E-02-1.94572E+00 8.93511E-02 4.51934E-01
 -1      1400 1.32225E+02-4.13510E-03 8.31995E-02-2.14485E+00-1.36788E-02 3.49592E-01
 -1      1401 1.18097E+02 2.94222E-02 8.59222E-03-1.93377E+00 4.38050E-02 4.33730E-01
 -1      1402 1.22905E+02-4.14740E-03-2.40735E-02-1.96266E+00-1.48661E-01 4.52873E-01
 -1      1403 1.25247E+02 1.32774E-01 1.38167E-01-2.12035E+00-4.45885E-02 2.45040E-02
 -1      1404 6.24453E+01-2.49265E-02 2.92243E-02-1.29491E+00 4.31596E-02 4.71583E-01
 -1      1405 6.71936E+01-2.41649E-02-3.49829E-02-1.39742E+00-1.04826E-01 4.59408E-01
 -1      1406 7.18697E+01 1.49117E-02 2.72050E-02-1.35562E+00 9.64586E-02 5.11765E-01
 -1      1407 7.66955E+01-1.54177E-01 5.64497E-02-1.42793E+00-3.09256E-02 3.63878E-01
 -1      1408 6.94592E+01 7.86486E-02 6.68343E-02-1.70669E+00-6.46849E-02-3.34337E-02
 -1      1409 1.09167E+02 2.09157E-01 2.44727E-02-1.98404E+00 7.28574E-02 4.24788E-01
 -1      1410 1.13734E+02-1.47915E-02-4.81815E-02-1.92352E+00-9.08623E-02 6.00959E-01
 -1      1411 9.97682E+01 1.80313E-01 2.99974E-02-1.61778E+00 2.41487E-02 4.50688E-01
 -1      1412 1.04257E+02 1.00040E-01 1.93596E-02-1.87171E+00-1.12813E-01 3.81487E-01
 -1      1413 1.07012E+02 2.09414E-01 1.65046E-01-2.01928E+00 2.61087E-02 4.69352E-02
 -1      1414 2.48514E+02 1.53719E-01-1.32523E-02-2.10255E+00 1.32762E-01 2.95139E-01
 -1      1415 2.53599E+02 1.86717E-01 1.25698E-01-2.29791E+00-7.37637E-02 3.77252E-01
 -1      1416 2.57116E+02-9.19340E-02-9.59128E-02-1.85098E+00-2.67670E-02 2.70641E-01
 -1      1417 2.62175E+02-1.49061E-01-2.16870E-02-1.69520E+00-1.81036E-01 4.46860E-01
 -1      1418 2.55337E+02-5.07676E-02-2.37771E-02-1.81243E+00 1.04920E-02-4.74823E-02
 -1      1419 2.01171E+02-2.29603E-01-1.68771E-01-2.65149E+00 5.80231E-02 3.87032E-01
 -1      1420 2.06347E+02-1.76512E-01 4.04748E-02-2.23276E+00-1.07468E-01 2.96585E-01
 -1      1421 1.92658E+02 1.42947E-01 2.27328E-01-2.26020E+00 1.56998E-01 4.17917E-01
 -1      1422 1.97932E+02 1.89059E-01 3.08604E-01-2.40248E+00-5.06772E-02 2.11509E-01
 -1      1423 1.99530E+02-1.46701E-03 3.48647E-02-2.44785E+00-7.99770E-02-6.33261E-03
 -1      1424 1.64130E+02-1.20289E-01-1.03593E-01-2.36356E+00-1.83154E-02 2.73333E-01
 -1      1425 1.69297E+02-7.29754E-02-7.61604E-02-2.24646E+00-1.51140E-01 4.40538E-01
 -1      1426 1.71770E+02 1.94463E-01 1.86638E-01-2.46428E+00-6.11210E-02 1.49471E-02
 -1      1427 1.74070E+02 7.22976E-02 2.59933E-02-2.20223E+00 4.49838E-02 5.28227E-01
 -1      1428 1.78770E+02-1.34487E-01 6.46817E-02-2.11019E+00-1.00039E-01 4.87585E-01
 -1      1429 2.29860E+02 1.14224E-01 1.78359E-01-2.04472E+00 1.37750E-01 4.27891E-01
 -1      1430 2.35163E+02 2.15631E-01 3.08277E-01-2.17431E+00-2.88976E-02 2.02996E-01
 -1      1431 2.38279E+02-2.47566E-01-1.66758E-01-2.39271E+00 4.87121E-02 3.33351E-01
 -1      1432 2.43527E+02-8.43008E-02 1.47091E-01-2.11546E+00-5.06217E-02 3.40330E-01
 -1      1433 2.36703E+02 2.59048E-02 2.92218E-02-2.19935E+00-8.01920E-02 2.70015E-03
 -1      1434 2.11463E+02-9.83993E-02 3.09871E-02-2.28237E+00 8.71217E-02 2.35136E-01
 -1      1435 2.15709E+02-2.10409E-02-3.43104E-03-1.96259E+00-8.39101E-03 4.50438E-01
 -1      1436 2.20384E+02 1.76547E-01 1.05747E-02-1.97545E+00 7.41828E-02 4.28115E-01
 -1      1437 2.25073E+02-7.89471E-03 3.01401E-02-2.02916E+00-9.08732E-02 4.77223E-01
 -1      1438 2.18142E+02 2.31312E-02 5.77042E-02-2.15345E+00 5.07797E-02 2.66749E-04
 -1      1439 2.99328E+02-1.76465E+00 2.58470E+01 3.74132E-01 9.75945E-02 3.89315E+00
 -1      1440 3.01819E+02-2.14096E+00 1.22321E+01 9.52727E-01 1.96157E-02 2.16166E+00
 -1      1441 2.99763E+02-3.90012E-01 1.89148E+01 7.92041E-01 5.17217E-01 6.63146E+00
 -1      1442 8.12759E+00 5.96479E-02-3.55771E-02-1.07472E+00-1.05832E-01 2.06775E-01
 -1      1443 8.81818E+00 4.55948E-02-5.36556E-02-8.27137E-01 6.15781E-02 7.58738E-01
 -1      1444 1.25085E+01-1.10375E-02 1.95440E-01-7.28650E-01-4.99743E-02 6.89539E-01
 -1      1445 2.81585E+02-3.68128E-02 1.52193E-01-1.30159E+00 7.99897E-02-6.45810E-01
 -1      1446 2.76755E+02 1.19437E-01 6.66948E-02-1.47342E+00-6.75063E-02-4.95747E-01
 -1      1447 2.74215E+02-1.10004E-01-1.21113E-01-1.65674E+00 3.59115E-02 7.36832E-02
 -1      1448 2.71526E+02 1.54116E-01 2.90436E-02-1.44965E+00-1.03650E-01 4.12005E-01
 -1      1449 2.67105E+02 2.91407E-02 6.71203E-02-1.48348E+00 1.63094E-02 4.83054E-01
 -1      1450 5.33334E+01 9.22529E-02-9.29548E-02-1.09183E+00 1.00919E-01 4.13898E-01
 -1      1451 5.83867E+01-3.35722E-02 5.12626E-02-1.18118E+00-8.90400E-02 5.44862E-01
 -1      1452 1.36966E+02 1.30425E-01 1.68492E-01-2.28593E+00 1.16565E-01 3.78236E-01
 -1      1453 1.42030E+02 1.37270E-01 1.86976E-01-2.39497E+00-3.63657E-02 2.71161E-01
 -1      1454 1.50724E+02-1.57122E-02-9.01020E-02-2.16581E+00 1.32923E-01-4.31104E-01
 -1      1455 1.45794E+02-4.92275E-02-1.25077E-01-2.13654E+00-6.20230E-02-3.72017E-01
 -1      1456 1.43671E+02 1.37913E-02-4.63520E-02-2.44540E+00-1.10175E-01 6.15564E-02
 -1      1457 1.97965E+02 2.75636E-01 2.20917E-01-2.67007E+00 5.83753E-02-3.42821E-01
 -1      1458 1.92815E+02 1.35487E-01-6.60785E-02-2.42394E+00-3.53928E-02-3.38008E-01
 -1      1459 1.90071E+02-1.60575E-01-1.52448E-01-2.49937E+00 6.87513E-02 5.46154E-03
 -1      1460 1.87722E+02 1.06051E-01-3.67284E-02-2.18807E+00-6.76862E-02 4.28197E-01
 -1      1461 1.83419E+02 7.23612E-02-4.98493E-02-2.08991E+00 4.26411E-03 4.86711E-01
 -1      1462 4.85769E+01 6.01454E-02-4.60749E-02-1.29234E+00 5.90165E-02-3.26894E-01
 -1      1463 4.41503E+01 4.51245E-02-6.45486E-02-1.17282E+00-9.12323E-02-4.45127E-01
 -1      1464 5.09699E+01-4.63375E-02-8.44320E-02-1.33269E+00 2.41808E-02-6.45709E-02
 -1      1465-5.23056E+01 1.40428E-01-1.63326E-02-6.59120E+00 1.22483E-02-6.10728E-03
 -1      1466-3.41778E+01 2.45728E-01-2.92816E-02-6.72284E+00 1.97714E-04-1.67093E-02
 -1      1467 2.47935E+01 2.18486E-01 9.83875E-04-7.54865E+00 1.07288E-03 7.62011E-02
 -1      1468-1.15028E+01 2.66490E-01 1.31671E-02-7.13202E+00-1.71198E-02-7.30288E-02
 -1      1469-6.65502E+01 4.93836E-02 5.24506E-02-6.31410E+00-3.42242E-02-3.66065E-02
 -1      1470 4.30269E+01 1.62684E-01 4.78780E-02-7.80252E+00 8.07506E-03 1.38111E-02
 -1      1471-7.48681E+01 1.61772E-01 8.06731E-04-6.51279E+00 5.34080E-03-7.61606E-02
 -1      1472 1.29685E+02 1.06992E-02-1.77364E-02-7.90526E+00 1.69096E-02 6.07405E-02
 -1      1473-1.21049E+02 2.35544E-02-1.46006E-03-6.63176E+00-1.87014E-03-7.63054E-02
 -1      1474-1.39400E+02 2.81050E-02-7.50869E-02-6.10130E+00 1.61517E-01 2.46451E-01
 -1      1475 1.03855E+02 4.14855E-02 3.06074E-02-8.00984E+00 2.29551E-02-1.01379E-02
 -1      1476-8.88952E+01 1.51628E-01-7.70089E-02-6.44029E+00 3.46092E-02-8.86689E-02
 -1      1477-1.12178E+02-1.32093E-04 3.58225E-02-6.36527E+00-1.93213E-02 6.41791E-04
 -1      1478 1.38672E+02-3.97668E+00-2.24429E+00 3.13040E-01 1.48963E+00-3.60142E+00
 -1      1479 5.67243E+01 1.68682E-01 3.55514E-02-7.97356E+00-6.14522E-03 2.53217E-02
 -1      1480-2.03920E+01 2.92580E-01-9.85647E-02-6.95050E+00 4.41583E-02-5.75442E-02
 -1      1481 6.54163E+00-6.91081E-02 1.48751E-02-7.44399E+00 1.69150E-03 7.98312E-02
 -1      1482 7.91936E+01 8.00185E-02 5.40612E-02-8.17909E+00 9.90158E-03 1.00385E-01
 -1      1483 1.56447E+01 2.03490E-01-2.09883E-02-7.40462E+00 4.46285E-02 2.11741E-02
 -1      1484 7.04026E+01 1.23756E-01-8.29956E-02-7.98474E+00-3.18760E-02 9.07408E-03
 -1      1485-9.76267E+01 3.45710E-02-8.54994E-02-6.16968E+00 7.68806E-02-2.34747E-02
 -1      1486 1.18153E+02-5.73456E-03-1.04967E-01-7.79475E+00-7.27713E-02-3.07784E-02
 -1      1487 9.47870E+01 1.34027E-01-5.31389E-03-8.17992E+00-1.07975E-02 6.95198E-02
 -1      1488-7.22158E+01 3.13114E+00 8.05252E+00 6.50667E+00 3.44509E+00-5.19650E-01
 -1      1489-2.97594E+00 9.31046E-01 1.00257E-01-7.55343E+00-6.55582E-02 2.33776E-02
 -1      1490 3.36909E+01 1.87485E-01-1.02228E-02-7.83682E+00 7.06827E-03 6.81077E-02
 -1      1491-4.32977E+01 1.76765E-01 5.23178E-02-6.59701E+00 3.11796E-03-4.27715E-03
 -1      1492-1.29581E+02 5.80151E-03-1.28732E-01-6.66432E+00-7.61694E-03 2.09479E-03
 -1      1493 1.40031E+02-1.71945E-01-1.25749E-01-7.06392E+00 5.73275E-02-1.08403E-01
 -1      1494 1.40445E+02-1.11947E+00-1.40098E-01-5.23747E+00 3.39638E-01-8.52346E-01
 -1      1495-1.95033E+00-1.62078E-01 3.16597E-02-4.86049E+00 2.18998E+00 1.08702E-01
 -1      1496 1.10461E+01 1.34203E-01 2.69590E-03-7.50784E+00-1.97718E-03 4.84654E-02
 -1      1497-5.71506E+01 1.70751E-01 9.00045E-02-6.30798E+00-4.77499E-02-1.51498E-02
 -1      1498-6.19134E+01 1.87567E-01-1.05745E-01-6.51170E+00 4.56041E-02-8.99657E-03
 -1      1499 4.94571E-02 1.65143E-01-2.30189E-02-9.14932E+00 1.43778E-02-2.69899E-02
 -1      1500-2.97111E+01 2.00666E-01 3.49934E-02-6.65503E+00-1.16085E-02 8.48769E-03
 -1      1501 4.75997E+01 1.68296E-01 5.29026E-03-7.84507E+00-3.53401E-03 1.55420E-02
 -1      1502-7.97254E+01 1.26859E-01 1.13278E-01-6.20039E+00-4.99352E-02 1.01528E-02
 -1      1503-8.47359E+01 1.63242E-01-3.47928E-02-6.29257E+00-9.37026E-04 4.20751E-03
 -1      1504 8.01502E-01 1.72713E-01-2.73847E-02-9.18066E+00-4.52839E-02-7.40731E-04
 -1      1505 2.03374E+01 2.21720E-01-1.23647E-02-7.69584E+00 1.27751E-02 2.78893E-02
 -1      1506-1.03195E+02 6.06753E-02 1.60140E-03-6.36394E+00 1.71587E-02-3.06822E-02
 -1      1507 2.92847E+01 2.09425E-01-1.48352E-02-7.55416E+00 1.84094E-02 3.83315E-02
 -1      1508 9.96138E+01 6.84199E-02-7.25420E-02-7.86793E+00-7.01605E-02 1.11772E-02
 -1      1509-1.16685E+02-1.01196E-02-7.29629E-02-6.24759E+00 6.86972E-02-1.51971E-02
 -1      1510-1.07641E+02 1.93033E-02 8.01916E-02-6.49911E+00-4.06969E-02-6.92878E-02
 -1      1511 1.08216E+00 7.65174E-02-3.37799E-02-9.18602E+00-4.17462E-03 9.68399E-03
 -1      1512-1.61227E+01 2.50354E-01 1.42345E-01-6.86858E+00-5.41887E-02 4.40646E-02
 -1      1513 7.48616E+01 8.94887E-02 2.49708E-02-8.07443E+00 5.48972E-03 1.01127E-02
 -1      1514-1.26076E+02-1.82199E-02 1.26417E-01-6.39631E+00-5.83453E-02 9.68715E-03
 -1      1515 5.41337E-01-4.87500E-02 1.09257E-02-9.06637E+00-2.90864E-02-1.24565E-02
 -1      1516 1.35090E+02-6.89787E-02 1.19684E-03-7.64162E+00 1.81386E-02 1.22416E-02
 -1      1517-1.35186E+02-1.42040E-01 7.96487E-02-6.66180E+00-3.21396E-02-5.18013E-02
 -1      1518-9.44093E+01 3.31029E-02 3.42889E-02-6.22733E+00-2.04280E-02-3.14208E-02
 -1      1519-3.85121E+01 2.33527E-01-6.49056E-02-6.74328E+00 1.72739E-02-1.11403E-01
 -1      1520-4.78618E+01 1.68484E-01 2.67044E-03-6.68626E+00 4.47020E-03-9.75433E-02
 -1      1521-7.06290E+01 1.09419E-01-8.89926E-02-6.19573E+00 5.92251E-02-1.80487E-02
 -1      1522-2.50965E+01 1.67196E-01 1.07098E-01-6.90593E+00-1.50053E-02-2.27073E-02
 -1      1523 3.85922E+01 1.81120E-01-1.14890E-01-7.62969E+00-4.74875E-02-1.21197E-02
 -1      1524 5.21045E+01 1.14695E-01 3.72450E-02-7.89195E+00-1.41906E-02 2.62274E-02
 -1      1525-7.32902E-01-7.55148E-02-7.97388E-02-8.08436E+00 4.48562E-01-2.60858E-02
 -1      1526-1.43481E+02 5.67346E-01 3.65292E-02-4.94256E+00 3.73276E-01 6.67631E-01
 -1      1527 7.22507E+01 4.31139E-01-5.06815E+00 6.72768E+00 3.18736E+00 3.45192E-02
 -1      1528 6.69407E+01 1.00061E-01 1.01439E-02-8.09984E+00-7.77942E-03 4.88661E-02
 -1      1529 6.22966E+01 1.76538E-01-2.85751E-02-7.85613E+00-3.18214E-03 7.40559E-02
 -1      1530 1.22829E+02-5.04696E-02 3.90580E-02-7.84487E+00 1.81541E-02-2.75473E-03
 -1      1531 1.27223E+02-2.97857E-03 5.00691E-02-7.83882E+00 1.61119E-02 1.77391E-02
 -1      1532 1.13786E+02 6.22252E-04-4.21820E-02-7.99571E+00 1.30481E-02 4.86875E-02
 -1      1533 5.14035E-01 1.57024E-02 7.21349E-03-9.12980E+00 3.84885E-02-1.26041E-02
 -1      1534 8.56819E+01 1.34738E-01-5.19596E-02-8.14105E+00 1.53267E-02 1.73366E-02
 -1      1535 7.89844E-01 9.66232E-02-2.89996E-02-9.18870E+00 3.53047E-03-1.45769E-02
 -1      1536-3.24781E-01 2.58708E-01 1.84773E-02-8.90984E+00 2.92419E-02 9.26892E-03
 -1      1537 1.29233E-01 2.86399E-01-1.07224E-02-9.07369E+00-2.38226E-02 1.92423E-02
 -1      1538-4.24330E-01 2.75115E-01-2.00161E-02-9.03750E+00-1.81839E-02 1.51819E-02
 -1      1539-2.46847E-01 1.16929E-01 2.94750E-02-9.19898E+00-3.24741E-02 8.08453E-03
 -1      1540-1.12688E-01 2.44493E-01-6.74719E-04-9.19776E+00 1.98507E-02-4.17705E-03
 -1      1541-2.80336E-01 3.18113E-01 4.75417E-02-9.13224E+00 7.28702E-02-2.35925E-04
 -1      1542 3.41911E-02 2.80000E-01-5.12211E-02-9.13979E+00-3.87985E-02-2.79295E-02
 -1      1543-4.01675E-01 1.33087E-01-3.27168E-02-9.09501E+00 4.01181E-02-3.31677E-02
 -1      1544 3.85809E-02 1.97035E-01 6.01043E-02-9.05826E+00-6.86220E-03-2.68333E-03
 -1      1545-1.89700E-01 2.80825E-02-9.81633E-03-9.09963E+00 1.04509E-02-2.76836E-02
 -1      1546-4.37301E-01-1.76549E-01 6.25100E-02-8.75912E+00 2.97248E-02 5.04948E-02
 -1      1547-2.83795E-01 2.78941E-01 5.94731E-02-9.12029E+00 5.09453E-02 1.20231E-03
 -1      1548-1.45780E-01 1.94396E-01-1.29432E-02-9.17663E+00 7.15553E-03 1.02833E-02
 -1      1549 1.20474E-01 6.32416E-02-1.87963E-02-9.11881E+00-4.13576E-02 2.15067E-03
 -1      1550-2.27054E-01 3.27131E-01 2.73199E-02-9.12562E+00-9.01583E-03 1.76882E-02
 -1      1551 2.24875E-01 3.88865E-02-2.07477E-02-9.12321E+00 2.69346E-02-1.88209E-02
 -1      1552 4.90618E-02 1.20224E-01 1.21434E-02-9.04883E+00-1.81349E-02-1.65610E-02
 -1      1553-3.21569E-01 1.73675E-01 2.88745E-02-9.11206E+00-4.97950E-02-5.74977E-03
 -1      1554-1.99385E-01 2.84750E-01 8.19990E-03-9.22694E+00-1.03191E-02 1.99193E-02
 -1      1555 9.06835E+01 1.05756E-01 1.15782E-02-7.97248E+00-1.92626E-02-1.63409E-02
 -1      1556-1.81096E-01 2.69487E-01-3.79725E-02-9.20113E+00-1.00898E-02-1.86470E-02
 -1      1557-2.17986E-01 4.28140E-02-2.43997E-02-9.23845E+00-9.63511E-03-1.49775E-02
 -1      1558 1.08947E+02-6.49647E-03 6.58492E-02-8.03788E+00 2.14361E-02 1.07403E-01
 -1      1559-2.31002E-01-1.10391E-02-1.69704E-02-9.12384E+00-2.09276E-02 9.96099E-03
 -1      1560 3.29790E-02-4.78691E-02-1.42440E-02-9.10638E+00 3.97952E-02-2.11416E-02
 -1      1561 2.95473E+00-6.58722E-01-2.70957E-01-7.65309E+00-4.54863E-02 5.96443E-02
 -1      1562-1.39429E+02 3.59072E+00 1.81418E+00 3.18897E-01 1.38038E+00 3.14035E+00
 -1      1563-7.14276E+00 5.24450E-01-1.11254E-02-7.26669E+00 2.63073E-03-1.19806E-01
 -1      1564 7.64104E-01 2.57200E-01-2.11407E-02-1.18846E+00 3.28438E+00 6.08030E-01
 -1      1565 1.96704E+02-7.15142E+00-1.65072E+01 4.51043E+00 2.35742E+00 1.07508E+00
 -1      1566-1.90764E+02 8.60373E+00 1.94104E+01 7.19010E+00 3.54414E+00 1.48006E+00
 -1      1567 5.48489E+00-9.09059E-01-6.28199E-03-6.17385E+00-8.67392E-02-1.34138E-01
 -1      1568-6.03578E+00 1.36378E+00 2.11930E-02-6.10889E+00-1.39298E-01 2.37667E-01
 -1      1569-1.59634E-01 2.54946E-01-1.72761E-02-8.71023E+00 4.71702E-02 1.09927E-02
 -1      1570-1.81573E+02-2.17200E+01-3.49481E+00 1.74187E+01 2.41365E+00-2.24682E+01
 -1      1571-2.82325E+02-3.84308E+01-3.52358E+01-9.16496E+00-5.05659E+00-3.60625E+01
 -1      1572-2.21548E+02 1.45789E+01 1.47932E+01 1.28354E+01 7.32480E+00 7.05251E+00
 -1      1573 2.85500E+02 3.94998E+01 3.65798E+01-8.12238E+00-4.09870E+00 3.64785E+01
 -1      1574 1.93776E+02 3.04657E+01 2.22040E+01 1.33926E+01 7.09839E-02 2.79031E+01
 -1      1575 2.22867E+02-1.55850E+01-1.47002E+01 1.26131E+01 6.72170E+00-7.22959E+00
 -1      1576-2.58057E+00 9.04425E-01 1.59537E-01-4.31337E+00-6.21501E-02 3.66341E-01
 -1      1577-5.10303E+00 6.09164E-01-4.08505E-01-5.96418E+00-5.16859E-02 5.38408E-01
 -1      1578-7.70784E+00 5.01151E-01-3.92935E-01-3.58176E+00 1.23673E-01 3.11253E-01
 -1      1579 5.09093E+00-2.26606E-01 4.58777E-01-6.09822E+00-4.12735E-02-5.15002E-01
 -1      1580 2.43970E+00-5.07438E-01-1.04278E-01-4.26827E+00-1.14569E-02-3.25082E-01
 -1      1581 7.45841E+00-3.35048E-01 2.16347E-01-3.68492E+00-5.83996E-04-2.60102E-01
 -1      1582-3.38610E+01 2.28327E+00 8.45234E+00 2.38259E+01 4.27653E+00-1.08759E+00
 -1      1583-1.24216E+02-2.96725E+01-2.08024E+01 1.82342E+01 4.31064E+00-2.13106E+01
 -1      1584-1.36325E+02 1.23117E+00 1.48960E+01 8.37674E+00 1.44482E+00 6.56538E-01
 -1      1585 1.27899E+02 3.20099E+01 2.54252E+01 1.90265E+01 4.25804E+00 2.13048E+01
 -1      1586 3.85189E+01 1.30835E+00 7.67176E-01 2.27274E+01 3.11104E+00 3.06266E+00
 -1      1587-2.76432E+00-3.48567E-01 9.71196E-01 7.65369E+00 2.30868E+00-3.74592E-01
 -1      1588 1.32250E+02-3.23599E+00-1.17537E+01 8.04014E+00 2.35792E+00 1.25473E+00
 -1      1589-3.92465E+00 1.46486E-01-5.17371E-01-6.87449E+00 1.71508E-02 4.32767E-01
 -1      1590-1.59721E+00 5.79202E-01-7.61416E-02-7.42800E+00-3.10172E-02 1.11604E-01
 -1      1591-4.63871E+00 1.00556E+00 2.40446E-01-7.00629E+00-1.01245E-01 5.39679E-02
 -1      1592 1.28281E+00-2.57462E-01-2.16932E-01-7.50598E+00 2.22292E-02 2.54721E-02
 -1      1593 3.84688E+00 2.76727E-01 5.48665E-01-6.99232E+00 4.09173E-02-4.55075E-01
 -1      1594 2.36663E-02 2.09195E-01-1.40983E-01-7.80723E+00-4.22998E-02 1.50979E-01
 -1      1595 4.56443E+00-5.88434E-01-1.94091E-01-7.19290E+00-1.50311E-01-3.24542E-02
 -1      1596-2.12475E+02-9.16397E-01-2.05901E+00 4.19030E+00-1.45572E+00 1.81932E+00
 -1      1597-2.13268E+02 1.88145E+00 1.43554E+00 6.55342E-02 5.59478E-01 1.56176E+00
 -1      1598-1.59329E+02 4.88101E+00 3.36422E+00 5.25585E+00 1.94382E+00 3.55814E+00
 -1      1599-2.14844E+02 7.81611E-01 3.20065E-01-1.81159E+00 2.09312E-01 2.96080E-01
 -1      1600-2.14070E+02 1.45417E-01 2.24999E-01-2.64928E+00 1.45932E-01 3.91535E-01
 -1      1601-1.40676E+02 1.74735E+00 1.23264E-01-2.74924E+00 6.98814E-01 8.92209E-01
 -1      1602-2.12089E+02 6.91995E-03-1.36108E-01-3.11444E+00 9.18445E-02 1.17033E-01
 -1      1603-2.08274E+02 1.11524E-01-1.59293E-01-3.14967E+00 1.02568E-01 2.87841E-01
 -1      1604-1.41751E+02 7.36722E-02-4.59699E-02-5.73555E+00 1.27577E-01 4.35651E-01
 -1      1605-2.05874E+02-5.62877E-02 1.92579E-02-3.30997E+00 4.22137E-02 1.61303E-01
 -1      1606-2.01646E+02-9.96449E-02 1.01948E-01-3.12278E+00-2.93828E-02 4.17266E-02
 -1      1607-1.37093E+02 4.85628E-02-1.91274E-02-6.55692E+00 2.18765E-01 1.58740E-01
 -1      1608-1.98893E+02-2.07478E-02-1.75306E-01-3.22049E+00 6.33406E-02-5.01757E-03
 -1      1609-1.94420E+02 5.28585E-02-7.48208E-02-3.21554E+00-8.30921E-02 1.80176E-01
 -1      1610-1.32354E+02-1.37476E-01 1.71556E-02-6.66626E+00-6.03084E-02-7.72569E-02
 -1      1611-1.92431E+02-1.49206E-01 1.68797E-01-3.08446E+00-6.83905E-02 1.60039E-01
 -1      1612-1.87678E+02 4.02637E-02 1.84928E-01-2.96373E+00-6.98466E-02 6.75796E-03
 -1      1613-1.27879E+02-3.25339E-02 7.64951E-02-6.67342E+00-1.38383E-01 1.10975E-01
 -1      1614-1.85230E+02 7.27384E-02-6.26490E-03-3.02159E+00-1.42605E-02 3.08797E-02
 -1      1615-1.81020E+02 1.55027E-02 3.24503E-02-2.98422E+00-5.70161E-03 1.70781E-02
 -1      1616-1.23565E+02 1.05557E-01-5.33666E-02-6.53575E+00 3.02103E-02-7.69190E-02
 -1      1617-1.78673E+02 5.17152E-02-9.35534E-02-2.79092E+00 9.94031E-03-5.08627E-02
 -1      1618-1.74066E+02 5.63906E-02-1.79037E-01-2.79885E+00 6.10169E-02 1.36983E-01
 -1      1619-1.19127E+02-2.00649E-01-9.19792E-02-6.45522E+00-3.20578E-02-1.06921E-01
 -1      1620-1.71614E+02-4.55171E-02 2.70259E-02-2.85713E+00 7.44254E-02 1.77411E-01
 -1      1621-1.67047E+02 3.11013E-02-1.37728E-02-2.76436E+00-3.51880E-02 1.18483E-01
 -1      1622-1.14439E+02 4.45299E-02-5.15369E-02-6.43607E+00 1.02271E-01 7.29765E-02
 -1      1623-1.64580E+02-1.63384E-03 5.25094E-02-2.85385E+00 2.22681E-02 1.41179E-01
 -1      1624-1.60167E+02 7.76364E-02 1.55504E-01-2.74431E+00-6.81432E-02 7.71297E-02
 -1      1625-1.09904E+02 1.77870E-02 5.08920E-03-6.51351E+00 2.00974E-02 5.85256E-03
 -1      1626-1.57842E+02 1.04683E-01-1.20329E-02-2.75624E+00 2.00408E-02-2.33890E-02
 -1      1627-1.53560E+02 4.21364E-02-3.48812E-02-2.72638E+00-2.09751E-02 6.34879E-02
 -1      1628-1.05460E+02-4.55063E-02-7.07881E-03-6.38501E+00-4.49625E-02-9.27179E-02
 -1      1629-1.50635E+02 8.90741E-02-8.62963E-02-2.61730E+00 2.74206E-02-5.36307E-02
 -1      1630-1.46062E+02 7.96566E-02-1.82509E-01-2.65227E+00 6.13068E-02 1.36259E-01
 -1      1631-1.00654E+02-1.15330E-01-1.22025E-01-6.32519E+00 2.66351E-03-1.00267E-01
 -1      1632-1.44086E+02 2.56152E-02 1.07736E-01-2.70585E+00 5.59365E-02 1.59764E-01
 -1      1633-1.39723E+02-4.66853E-02 7.93255E-02-2.60879E+00-4.12215E-02-3.39854E-02
 -1      1634-9.59229E+01 8.48373E-02-4.87505E-02-6.34197E+00 1.12610E-01 6.37831E-02
 -1      1635-1.36966E+02 2.16516E-03-1.40318E-01-2.67049E+00 6.89832E-02 5.74346E-02
 -1      1636-1.32567E+02 9.24491E-02-4.90611E-02-2.73972E+00-1.91628E-02 1.47624E-01
 -1      1637-9.16486E+01 1.44984E-01-3.53929E-02-6.29726E+00 4.72995E-02-1.07314E-01
 -1      1638-1.30316E+02 4.73143E-02 6.54978E-03-2.64091E+00 2.84269E-02 1.34056E-01
 -1      1639-1.25699E+02 1.19882E-01-2.67250E-02-2.72120E+00-9.36912E-02 1.78752E-01
 -1      1640-8.68013E+01 1.69720E-01 9.57181E-03-6.44074E+00-2.45130E-02 1.32098E-03
 -1      1641-1.23043E+02-6.06943E-02 1.66347E-01-2.73045E+00-5.89961E-02 1.75371E-01
 -1      1642-1.18306E+02 1.07966E-01 1.81118E-01-2.67856E+00-6.30469E-02 4.93285E-03
 -1      1643-8.23322E+01 7.52411E-02 6.18235E-02-6.39054E+00-1.28189E-01 9.35152E-02
 -1      1644-1.15928E+02 1.42743E-01-6.36166E-03-2.77726E+00-1.08647E-02 3.16707E-02
 -1      1645-1.11713E+02 8.39702E-02 3.56250E-02-2.81265E+00-2.68598E-03 1.48078E-02
 -1      1646-7.72996E+01 2.41914E-01-6.27669E-02-6.37332E+00 3.85445E-02-7.75790E-02
 -1      1647-1.09422E+02 1.22834E-01-9.63169E-02-2.64833E+00 1.22907E-02-5.11676E-02
 -1      1648-1.04829E+02 1.31901E-01-1.91182E-01-2.73583E+00 5.87841E-02 1.34182E-01
 -1      1649-7.30128E+01-7.05963E-02-9.71670E-02-6.36982E+00-3.35319E-02-1.14473E-01
 -1      1650-1.02483E+02 5.07087E-02 1.96809E-02-2.82974E+00 5.89321E-02 1.61766E-01
 -1      1651-9.80700E+01 8.62142E-03 1.05171E-01-2.74160E+00-3.50678E-03-9.24412E-03
 -1      1652-6.85995E+01 1.49888E-01-9.99236E-02-6.40104E+00 1.27962E-01 8.96876E-02
 -1      1653-9.57828E+01-6.51488E-03-2.00466E-01-2.82475E+00 8.70750E-02 5.83985E-02
 -1      1654-9.13881E+01 1.08730E-01-6.81903E-02-2.95977E+00-5.85775E-02 1.75953E-01
 -1      1655-6.42006E+01 9.13385E-02 2.03265E-03-6.40988E+00 3.51432E-02-7.49079E-02
 -1      1656-8.86558E+01 3.68320E-03 1.85407E-01-2.86617E+00-6.33385E-02 1.27678E-01
 -1      1657-8.40261E+01 6.46821E-03 8.92892E-02-2.85911E+00-2.10264E-02-3.74378E-02
 -1      1658-5.94673E+01 1.52139E-01 8.25561E-02-6.50438E+00-1.04218E-01 7.91461E-02
 -1      1659-8.17458E+01-2.96765E-02-9.08069E-02-2.98638E+00 4.50085E-02 1.24728E-01
 -1      1660-7.71426E+01 8.57559E-02-6.46835E-02-3.04484E+00 3.34681E-03 1.53316E-01
 -1      1661-5.46436E+01 2.99916E-01 5.44466E-02-6.51708E+00 3.48277E-02-6.09126E-02
 -1      1662-7.47486E+01 6.69055E-02-5.23385E-02-3.04779E+00 5.14899E-02 1.34483E-01
 -1      1663-7.02882E+01 1.23236E-01 4.81270E-02-3.08990E+00-5.05939E-02 1.20811E-01
 -1      1664-4.99873E+01 1.89501E-01 2.54559E-02-6.68503E+00 7.19209E-02-3.43706E-02
 -1      1665-6.78626E+01 5.55206E-02 9.48880E-02-3.12716E+00-1.53108E-03 1.42496E-01
 -1      1666-6.32355E+01 1.42228E-01 1.10091E-01-3.17253E+00-4.23463E-02 3.22266E-02
 -1      1667-4.57068E+01 1.09767E-01-2.87735E-02-6.73233E+00-5.90379E-02-3.12031E-02
 -1      1668-6.08637E+01 1.52726E-01-8.62073E-02-3.11979E+00 2.02629E-02 4.55240E-02
 -1      1669-5.65190E+01 9.26086E-02-1.94957E-02-3.27511E+00-2.59215E-02 1.07873E-01
 -1      1670-4.09531E+01 2.51822E-01-8.06912E-02-6.67904E+00 6.00968E-02-9.97844E-02
 -1      1671-5.41021E+01 8.58434E-02 1.89865E-02-3.24686E+00 1.51169E-02 1.38683E-01
 -1      1672-4.95508E+01 1.55166E-01 1.91271E-03-3.34826E+00-6.31131E-02 1.73766E-01
 -1      1673-3.65015E+01 2.04466E-01 1.21145E-02-6.81158E+00-6.21614E-02-2.78598E-02
 -1      1674-4.72531E+01 1.85694E-02 5.04888E-02-3.31438E+00-5.68735E-03 1.69799E-01
 -1      1675-4.25633E+01 1.68186E-01-1.27744E-02-3.35084E+00 1.74437E-04 1.64117E-01
 -1      1676-3.19438E+01 1.98825E-01 1.52440E-02-6.82276E+00-7.52615E-02 3.59481E-02
 -1      1677-4.01808E+01 5.68664E-02 4.38181E-02-3.51767E+00 3.90640E-02 1.79935E-01
 -1      1678-3.56299E+01 1.36058E-01 1.61255E-01-3.55395E+00-6.39470E-02-3.64103E-03
 -1      1679-2.74193E+01 2.18046E-01 1.37858E-02-6.91185E+00 5.61726E-02 7.30268E-02
 -1      1680-3.32991E+01 1.77706E-01-1.15799E-01-3.46651E+00 2.48126E-02 4.28903E-02
 -1      1681-2.89487E+01 1.41606E-01-3.64629E-02-3.67427E+00-4.72292E-02 1.36439E-01
 -1      1682-2.27762E+01 2.84982E-01-5.61588E-02-6.91500E+00 4.60147E-02-8.41953E-02
 -1      1683-2.64757E+01 6.01335E-03 1.87706E-01-3.67987E+00-4.66007E-02 1.70091E-01
 -1      1684-2.17055E+01 1.85154E-01 1.94096E-01-3.68763E+00-6.75241E-02 1.21948E-02
 -1      1685-1.85089E+01 1.45130E-01 5.67674E-02-7.03320E+00-1.28934E-01 7.90308E-02
 -1      1686-1.94735E+01 2.01894E-01 2.08068E-02-3.75425E+00-2.50572E-02 4.60181E-02
 -1      1687-1.52053E+01 1.50648E-01 4.52540E-02-3.81929E+00-1.34254E-02 1.87546E-02
 -1      1688-1.38264E+01 3.53080E-01-4.54399E-02-7.03203E+00 2.03939E-02-5.85859E-02
 -1      1689-1.23998E+01 4.13919E-01 6.77529E-02-3.96655E+00-2.12063E-02-1.10319E-01
 -1      1690-8.34084E+00 2.13958E-01 3.86717E-02-4.26288E+00 9.19014E-02-8.60942E-02
 -1      1691-9.29188E+00 1.49491E-01-9.09582E-02-7.12257E+00-7.92886E-02-1.21380E-01
 -1      1692-6.75498E+00 8.23452E-01-2.47753E-02-6.77392E+00-1.20295E-01-9.98077E-02
 -1      1693 2.12034E+02-2.82323E+00-2.21330E+00-2.29233E-01 9.42052E-01-2.29277E+00
 -1      1694 2.13073E+02 8.43909E-01 2.34782E+00 3.73310E+00-1.24462E+00-1.86374E+00
 -1      1695 1.59958E+02-5.90303E+00-3.39956E+00 4.33903E+00 2.10783E+00-3.67560E+00
 -1      1696 2.13346E+02-5.70297E-01-6.52156E-02-3.55194E+00 1.78937E-01-7.34844E-01
 -1      1697 2.15000E+02-6.20360E-01-2.03133E-01-2.51306E+00-4.88026E-02-5.42503E-01
 -1      1698 1.39736E+02-1.75692E+00-4.54108E-01-3.39197E+00 4.64475E-01-1.06527E+00
 -1      1699 2.09092E+02 4.42678E-03-8.42853E-02-4.42560E+00 2.79449E-02-9.65931E-02
 -1      1700 2.12637E+02-1.86547E-01-1.64855E-01-4.14681E+00-4.26679E-02-3.75374E-01
 -1      1701 1.40648E+02-5.07570E-01-3.35679E-02-6.50095E+00 1.17941E-01-4.44986E-01
 -1      1702 2.02332E+02 7.10159E-02 1.66798E-02-4.82868E+00 6.69368E-03 3.49416E-02
 -1      1703 2.06447E+02-4.29874E-02-4.43449E-02-4.71000E+00 3.28616E-02-5.85220E-02
 -1      1704 1.37409E+02-2.63166E-01-1.58394E-01-7.41970E+00 8.26505E-02 2.32024E-02
 -1      1705 1.94998E+02 6.11359E-02-6.72180E-03-4.97317E+00 2.16143E-02-4.52542E-02
 -1      1706 1.99232E+02 1.20280E-02 3.55104E-02-4.89460E+00 1.50247E-02-3.60282E-02
 -1      1707 1.32182E+02-2.17325E-01-1.14221E-01-7.74799E+00 7.25799E-02 8.09498E-02
 -1      1708 1.89096E+02-3.52323E-02 5.02346E-02-5.08187E+00-3.02943E-02-1.60358E-01
 -1      1709 1.93655E+02 5.18734E-02 1.44329E-01-4.97014E+00 5.51567E-02-3.74146E-02
 -1      1710 1.28381E+02 3.81810E-02-7.54847E-02-7.85379E+00-1.85991E-02 5.99643E-02
 -1      1711 1.82170E+02-5.84375E-02 2.31656E-02-5.15412E+00-7.57652E-02-1.77106E-01
 -1      1712 1.86797E+02 2.54138E-02 1.77993E-02-5.01913E+00 2.58270E-02-1.36104E-01
 -1      1713 1.24970E+02-5.56176E-02-2.46330E-02-7.95197E+00-1.04554E-02-4.96231E-02
 -1      1714 1.74938E+02-4.56182E-02-1.82694E-01-5.13837E+00-6.21092E-02-1.67500E-02
 -1      1715 1.79688E+02 1.06869E-01-1.73813E-01-5.15639E+00-4.80506E-02-1.74200E-01
 -1      1716 1.20611E+02 5.44033E-02-5.01521E-02-7.95364E+00-1.13972E-01-9.85567E-02
 -1      1717 1.68530E+02 5.55196E-02-5.14275E-02-5.28583E+00-7.32219E-03 5.14170E-02
 -1      1718 1.72796E+02-4.44726E-02-3.99091E-02-5.22343E+00-2.36369E-02-5.15354E-02
 -1      1719 1.15991E+02-1.13750E-01 6.63846E-02-7.95902E+00 2.98995E-02 4.70708E-02
 -1      1720 1.61472E+02 4.40093E-02 1.42157E-02-5.30531E+00-1.62295E-02-1.09176E-01
 -1      1721 1.65860E+02-2.72847E-02 8.07239E-02-5.17526E+00 2.32662E-02-3.44767E-02
 -1      1722 1.11538E+02-2.35855E-02 9.90519E-02-7.99123E+00 7.00444E-02 1.31832E-01
 -1      1723 1.54123E+02-6.25323E-03 2.50023E-02-5.35924E+00-7.33469E-02-1.86570E-01
 -1      1724 1.58679E+02 5.79575E-02-1.97752E-02-5.28601E+00 3.74203E-02-1.38305E-01
 -1      1725 1.06563E+02 6.47428E-02-4.77928E-03-8.14102E+00-5.25241E-02 1.19452E-02
 -1      1726 1.47186E+02 1.10809E-01-8.85718E-02-5.24822E+00-1.22410E-02 4.25827E-02
 -1      1727 1.51812E+02 1.06812E-01-1.81358E-01-5.28839E+00-6.14151E-02-1.44626E-01
 -1      1728 1.01720E+02 1.06255E-01-5.56946E-02-8.06507E+00-1.02525E-01-8.22602E-02
 -1      1729 1.40381E+02 1.51720E-01-1.32866E-02-5.38664E+00-1.03226E-03-3.12150E-02
 -1      1730 1.44611E+02 8.22005E-02 3.75902E-02-5.40088E+00 2.24416E-03-2.33155E-02
 -1      1731 9.69415E+01-1.01281E-01-8.50865E-02-8.04085E+00 3.21822E-02 1.04715E-01
 -1      1732 1.33615E+02 1.39431E-01 3.24219E-02-5.37960E+00-2.79977E-03 5.02535E-02
 -1      1733 1.38037E+02 6.61729E-02-2.03433E-02-5.37760E+00 2.17148E-02 4.68679E-02
 -1      1734 9.26116E+01 1.86434E-01-1.37423E-01-8.08609E+00-7.44762E-02 7.38541E-02
 -1      1735 1.26520E+02 1.12213E-01-4.21939E-02-5.43026E+00-5.13792E-02-4.48298E-03
 -1      1736 1.30886E+02 1.66438E-01-9.82479E-03-5.40926E+00 3.99799E-02-8.04802E-02
 -1      1737 8.80894E+01 9.93387E-03-9.59024E-02-8.11373E+00 3.04582E-02 1.50133E-02
 -1      1738 1.18730E+02 8.50504E-02 1.37502E-02-5.41257E+00-2.49895E-02-1.08381E-01
 -1      1739 1.23112E+02 1.03679E-02 7.99562E-02-5.31950E+00 1.72589E-02-3.65765E-02
 -1      1740 8.24499E+01 3.03115E-02 4.24036E-02-8.14876E+00 5.87709E-02 7.66831E-02
 -1      1741 1.11710E+02 3.25654E-02-1.01846E-02-5.35883E+00-5.47000E-02-1.74113E-01
 -1      1742 1.16301E+02 1.00438E-01-1.79049E-02-5.34262E+00 2.43054E-02-1.41095E-01
 -1      1743 7.71822E+01 1.27975E-01-1.87558E-02-8.20703E+00-5.88518E-02 1.85803E-02
 -1      1744 1.04680E+02 3.43784E-02-1.45675E-01-5.26916E+00-4.86320E-02-5.65304E-02
 -1      1745 1.09292E+02 1.68121E-01-1.21799E-01-5.34955E+00-1.68562E-02-1.59763E-01
 -1      1746 7.26873E+01 1.86708E-01 7.05787E-03-8.15483E+00-9.73293E-02-5.14436E-02
 -1      1747 9.86525E+01 6.10256E-02-4.72849E-02-5.23430E+00-1.37689E-02-3.09111E-02
 -1      1748 1.02926E+02 1.61998E-02 6.74228E-03-5.27453E+00-1.58445E-02-6.81279E-02
 -1      1749 6.87559E+01 5.11464E-02 7.09427E-02-8.05677E+00 4.47726E-02 6.48374E-02
 -1      1750 9.15634E+01 1.64546E-01-2.11249E-02-5.11448E+00 2.74268E-02-6.65417E-03
 -1      1751 9.58836E+01 1.39428E-02 3.84689E-03-5.14040E+00-4.93509E-02 4.87978E-02
 -1      1752 6.47537E+01 1.73820E-01 7.99922E-02-7.97521E+00-3.81697E-02 1.11113E-01
 -1      1753 8.41363E+01 5.14335E-02 3.37262E-02-5.20113E+00-4.08715E-02-1.67666E-01
 -1      1754 8.86616E+01 1.34641E-01 1.36834E-01-5.19810E+00 5.26754E-02-1.93931E-02
 -1      1755 5.95086E+01 2.55323E-01-8.09174E-02-7.94775E+00-6.05364E-02 5.23196E-02
 -1      1756 7.71347E+01 4.88724E-02-9.21563E-03-5.07565E+00-5.15395E-02-1.77455E-01
 -1      1757 8.17340E+01 1.35258E-01 8.32736E-03-5.08072E+00 6.12702E-04-1.42700E-01
 -1      1758 5.43571E+01 1.17788E-01-2.93242E-02-8.04284E+00-3.61749E-02-3.22502E-02
 -1      1759 7.02003E+01 5.67443E-02-1.69836E-02-4.99282E+00-3.57975E-02-1.71687E-01
 -1      1760 7.47930E+01 1.48150E-01-2.55529E-02-5.01718E+00 1.01944E-02-1.54770E-01
 -1      1761 4.98631E+01 1.94290E-01 2.81451E-02-7.98330E+00-5.85754E-02-3.10752E-02
 -1      1762 6.33235E+01 6.16319E-02 3.23876E-02-4.96947E+00-7.57090E-02-1.77849E-01
 -1      1763 6.79016E+01 1.42113E-01 9.95914E-03-4.95201E+00 2.66037E-02-1.34484E-01
 -1      1764 4.53254E+01 1.94066E-01 1.71717E-02-7.95818E+00-2.50444E-02-5.31681E-03
 -1      1765 5.61943E+01 7.39831E-02-1.81499E-01-4.79462E+00-6.03612E-02-7.42372E-03
 -1      1766 6.09419E+01 2.40130E-01-1.66158E-01-4.92396E+00-4.92489E-02-1.82118E-01
 -1      1767 4.09250E+01 2.44482E-01-6.02725E-02-7.86654E+00-1.11796E-01-9.07249E-02
 -1      1768 4.95466E+01 9.60563E-02-5.33363E-02-4.79894E+00 8.43924E-03-2.33806E-02
 -1      1769 5.37917E+01 4.07238E-02 1.76427E-03-4.85654E+00-5.97690E-03-3.80352E-02
 -1      1770 3.61556E+01 9.64534E-02 6.11437E-02-7.75502E+00 3.84487E-02 7.45603E-02
 -1      1771 4.26615E+01 1.35693E-01 4.40336E-02-4.66030E+00-2.73301E-02 4.37427E-02
 -1      1772 4.69444E+01 5.00684E-02-3.31590E-02-4.73021E+00-1.77920E-02 6.50247E-02
 -1      1773 3.17773E+01 4.21506E-01 9.47136E-02-7.69363E+00-6.08037E-02 1.14569E-01
 -1      1774 3.57612E+01 2.35417E-01-7.14573E-03-4.54475E+00 1.91527E-02 8.49567E-02
 -1      1775 4.00134E+01 2.95801E-02-3.83493E-02-4.60257E+00-2.10024E-02 9.52195E-04
 -1      1776 2.70470E+01 1.15501E-01 1.15225E-01-7.61770E+00 9.07222E-02 1.23158E-01
 -1      1777 2.88652E+01 8.14809E-02-2.98917E-02-4.53820E+00-3.59626E-02-8.51776E-02
 -1      1778 3.31905E+01 1.64691E-01 2.96698E-02-4.59822E+00 5.70613E-02-7.23592E-02
 -1      1779 2.26898E+01 1.66062E-01-4.38881E-02-7.61892E+00 3.19035E-02 5.13073E-02
 -1      1780 2.19046E+01 1.46927E-01-7.63724E-03-4.38864E+00-3.42627E-03 3.10701E-02
 -1      1781 2.61958E+01 6.38032E-02-4.69033E-02-4.46319E+00-1.22882E-02 3.66409E-02
 -1      1782 1.80530E+01 3.35004E-01 5.07491E-02-7.57215E+00-3.84075E-02 3.75269E-02
 -1      1783 1.49792E+01 6.98486E-02-5.07659E-02-4.30426E+00-1.39550E-02-3.73070E-02
 -1      1784 1.92639E+01 2.53124E-02-2.28122E-02-4.36907E+00-9.83374E-03-4.49946E-02
 -1      1785 1.35422E+01 1.02661E-01 1.15089E-01-7.44761E+00 1.14254E-01 8.44535E-02
 -1      1786 7.91359E+00-1.47663E-01-2.13952E-02-4.50990E+00 2.09576E-02-1.19929E-02
 -1      1787 1.22183E+01-1.56812E-01-6.57883E-02-4.38220E+00-3.22768E-02 7.17634E-02
 -1      1788 8.96755E+00 2.90503E-01 1.48520E-01-7.41950E+00-9.07216E-02 8.84611E-02
 -1      1789 6.34319E+00-2.35701E-01 2.79290E-01-6.92095E+00-1.54214E-02 1.28590E-01
 -1      1790-2.84054E+01 1.96996E-01 5.76216E-02-7.82910E+00 2.69938E-02 5.61641E-02
 -1      1791-2.61241E+01 2.35514E-01 8.00343E-02-7.94807E+00 9.15479E-02-6.86785E-02
 -1      1792-2.62910E+01 1.28928E-01-5.48161E-02-7.96172E+00 3.38723E-02-6.04386E-02
 -1      1793-2.40643E+01 1.96754E-01 3.86801E-02-8.10184E+00 7.67535E-02-1.65054E-01
 -1      1794-3.03835E-01 2.22887E-01-6.99622E-02-9.19119E+00 1.92927E-02-3.09722E-02
 -1      1795-1.72085E+01 1.14641E-01-1.62319E-02-8.21695E+00 2.98420E-03-7.12925E-02
 -1      1796-1.50358E+01 1.74844E-01 2.48813E-02-8.12821E+00-7.25361E-02-7.03312E-02
 -1      1797-1.94801E+01 2.53167E-01-2.94424E-02-8.16302E+00-1.13207E-01-1.84809E-01
 -1      1798-1.71240E+01 3.73176E-01 5.42335E-02-8.10426E+00-2.17945E-02-9.10154E-02
 -1      1799-1.51488E-01 2.59115E-01 9.79520E-02-9.25838E+00 1.37094E-03 4.12954E-02
 -1      1800 1.00705E+01 2.21455E-01-4.17337E-02-8.51863E+00 5.80049E-02 5.65888E-02
 -1      1801 1.23624E+01 3.09957E-01 5.49524E-02-8.52790E+00 1.10734E-02 2.92370E-02
 -1      1802 1.21128E+01 1.56047E-01-1.03331E-01-8.59859E+00-1.51622E-02-3.81166E-02
 -1      1803 1.48054E+01 3.82811E-01 5.43588E-02-8.41533E+00 4.73330E-03-2.41613E-02
 -1      1804-1.84741E-01 3.68898E-01-1.36868E-02-9.25842E+00-1.95227E-02-3.34464E-02
 -1      1805-7.86179E+00 2.99605E-01 7.83182E-02-8.05326E+00 2.07045E-03 1.02916E-01
 -1      1806-5.84591E+00 2.50467E-01 4.52297E-02-8.26995E+00 2.13676E-02 3.33353E-02
 -1      1807-6.10866E+00 2.09787E-01-1.92194E-02-8.23384E+00-7.09230E-02-2.61595E-02
 -1      1808-3.55963E-01 2.39598E-01-3.81512E-02-9.16912E+00-1.31260E-03-1.20659E-02
 -1      1809-3.78810E+00 3.78637E-01 5.13493E-02-8.22262E+00 1.47899E-02-3.87553E-02
 -1      1810-3.32005E+01 1.19035E-01-7.08038E-02-7.95804E+00 4.65501E-02-4.87048E-02
 -1      1811-3.09349E+01 1.56421E-01 3.73930E-02-7.96103E+00 9.38937E-02-6.96157E-02
 -1      1812-3.32276E+01 2.81254E-01 3.76045E-02-8.01980E+00-1.12733E-02-5.06901E-02
 -1      1813 1.59862E-02 2.27761E-01-1.32726E-02-9.29845E+00-5.45039E-03-9.61136E-03
 -1      1814-3.53730E+01 2.03271E-01-2.50788E-02-7.93053E+00 1.07594E-01-8.17342E-02
 -1      1815 2.14427E+01 2.17529E-01-3.35831E-02-8.65271E+00 8.77259E-03 1.02908E-01
 -1      1816 2.37018E+01 2.80830E-01 2.60982E-02-8.72190E+00 3.63054E-03 1.12802E-01
 -1      1817 1.93173E+01 9.19529E-02-4.24127E-02-8.64082E+00-1.79631E-01 5.88680E-02
 -1      1818 2.14344E+01 2.19295E-01 5.78660E-02-8.71861E+00-3.40188E-02 7.44194E-02
 -1      1819-1.57061E-01 2.00540E-01-7.06948E-02-9.24257E+00-7.68131E-03-2.57825E-02
 -1      1820-3.97523E+01 1.38206E-01 1.65488E-02-7.68974E+00 2.14379E-02 2.03013E-02
 -1      1821-3.75955E+01 9.81477E-02 1.50782E-02-7.93283E+00 4.30888E-02-1.22096E-02
 -1      1822-3.77181E+01 7.94195E-02-5.33084E-02-7.88059E+00-9.36807E-02-2.78125E-02
 -1      1823-3.57137E+01 8.73614E-02-6.19412E-02-7.74736E+00 1.59495E-02 4.26124E-02
 -1      1824-1.53356E-01 1.83269E-01-5.64673E-02-9.23779E+00 7.52663E-03-7.79446E-02
 -1      1825 6.46395E+01-3.16161E-02-4.95941E-02-8.64160E+00 1.26426E-01 4.62836E-02
 -1      1826 6.73821E+01 3.78424E-02 5.96777E-02-8.54555E+00 7.36638E-02-1.74939E-02
 -1      1827 6.35433E+01-8.18665E-04-1.53446E-02-8.56263E+00 7.15978E-03 4.29909E-02
 -1      1828 6.46189E+01 5.19961E-02 6.76161E-02-8.67811E+00-5.50148E-03-8.10888E-03
 -1      1829-2.51595E-01-1.72872E-02 4.96300E-02-9.24770E+00 5.14525E-04-1.13282E-02
 -1      1830-6.05883E+01-8.81730E-02-5.74421E-02-7.95873E+00-9.31653E-02-2.53412E-02
 -1      1831-5.85195E+01-6.24362E-02-3.08007E-02-7.79034E+00 2.73679E-02 5.38566E-02
 -1      1832-6.27000E+01-1.37361E-02 3.31046E-02-7.80141E+00 1.05125E-02 1.89995E-02
 -1      1833-6.04383E+01-4.05854E-02 1.83529E-02-8.01652E+00 4.20383E-02-1.50889E-02
 -1      1834 2.91810E-01-1.07448E-02-6.85621E-02-9.25522E+00 3.27922E-03-7.12032E-02
 -1      1835-6.97064E+01 2.57493E-02 1.82752E-02-7.71754E+00 2.12823E-01 1.52012E-02
 -1      1836-6.75799E+01 7.49457E-02 2.31638E-02-8.08352E+00 4.71847E-02-3.83372E-02
 -1      1837-7.01312E+01-2.24008E-02-5.53337E-03-7.17157E+00 2.83830E-01 1.31877E-01
 -1      1838-7.23902E+01 2.02017E-01-2.62391E-01-6.59825E+00 4.16484E-01 3.04921E-01
 -1      1839-6.77100E-01-2.59829E-01 4.79048E-02-8.32720E+00 2.04510E-01 2.84431E-02
 -1      1840 5.00512E+01 1.11232E-01-3.34607E-02-8.79857E+00-1.10392E-01 6.34627E-02
 -1      1841 5.22249E+01 2.14483E-01 6.89129E-02-8.87924E+00 3.12214E-02 3.98747E-02
 -1      1842 5.22896E+01 8.29435E-02-4.56305E-02-8.77147E+00 8.45947E-03 8.97746E-02
 -1      1843 6.80974E-01 8.58464E-02-5.91969E-02-9.26243E+00 2.43722E-04-5.66795E-02
 -1      1844 5.48896E+01 1.20297E-01 1.11177E-02-8.84862E+00-6.25577E-02 1.33308E-01
 -1      1845-4.39404E+01 2.26885E-01-1.34984E-02-7.97383E+00-5.57023E-02-1.18049E-01
 -1      1846-4.19772E+01 2.74197E-01 5.44206E-02-7.94753E+00-1.63661E-02-6.86863E-02
 -1      1847-4.42598E+01 1.35016E-02 3.92704E-02-7.89945E+00 1.20416E-01-7.50219E-02
 -1      1848 6.90215E-01 3.33550E-02 3.69237E-02-9.21844E+00 1.07038E-03-5.80097E-02
 -1      1849-4.69404E+01-8.04533E-02-1.05489E-01-7.91112E+00 6.86719E-02-4.14501E-02
 -1      1850-5.83278E+01 4.03418E-02-3.28271E-02-7.97979E+00 1.10833E-01-7.03096E-02
 -1      1851-5.60179E+01 1.59914E-01 6.89464E-02-8.05417E+00-2.54467E-02-5.27031E-02
 -1      1852-5.55758E+01 4.04484E-02-4.22615E-02-7.95078E+00-8.27192E-03-1.00406E-01
 -1      1853-5.33980E+01 9.56632E-02 1.56895E-02-8.00531E+00 1.93721E-02-1.33988E-01
 -1      1854 6.20516E-01 6.04087E-02-4.28050E-02-9.26582E+00 4.59604E-03 4.34095E-02
 -1      1855 6.92805E+01-3.80581E-01 2.23544E-01-5.16617E+00 1.12638E+00-4.97005E-01
 -1      1856 6.95593E+01-9.24914E-01-2.29400E-01-2.61928E+00 1.52264E+00-5.42307E-01
 -1      1857-5.58140E-01-1.01379E-01 1.48524E-01-3.00439E+00 2.66939E+00 3.60239E-01
 -1      1858 6.99048E+01-9.56694E-01-1.66191E+00-4.15388E-01 2.48074E+00-1.32232E+00
 -1      1859 1.03727E+02-5.13507E+00-2.96935E+00 4.95037E+00 4.42368E+00-1.20672E+00
 -1      1860 3.74437E+01 2.00252E+00-2.48874E-02 3.38904E+00 4.27854E+00-1.69086E-02
 -1      1861 2.58817E+01 4.34876E-02-3.67368E-02-8.67483E+00-2.37966E-02 9.21597E-02
 -1      1862 2.83336E+01 2.23663E-01 6.45860E-02-8.77339E+00-5.81389E-02 1.58750E-01
 -1      1863 2.83147E+01 1.94224E-01-1.52046E-02-8.60680E+00-3.89551E-03 5.71548E-02
 -1      1864 3.11167E+01 2.86135E-01 8.50811E-02-8.74053E+00-3.48426E-02 6.49750E-03
 -1      1865-7.33836E-02 2.81384E-01-7.19199E-02-9.16305E+00-3.37300E-02 3.04748E-02
 -1      1866-1.04349E+01 7.76231E-02-3.68539E-02-8.33199E+00-2.95507E-02-6.05244E-02
 -1      1867-8.40334E+00 1.80184E-01 2.42062E-02-8.20414E+00-1.05045E-01-4.41826E-02
 -1      1868-1.26699E+01 2.75590E-01 6.49958E-02-8.11762E+00-2.27294E-02-7.47393E-02
 -1      1869-1.03440E+01 2.74078E-01 9.39822E-02-8.26355E+00 3.20403E-02-4.09414E-02
 -1      1870-2.51604E-01 2.58397E-01 6.32903E-02-9.27684E+00 1.99222E-02 3.01304E-02
 -1      1871 3.34825E+00 1.32648E-01-1.88569E-03-8.32005E+00 1.25264E-02 7.03798E-02
 -1      1872 5.56506E+00 2.79021E-01 1.00805E-01-8.42731E+00-6.76821E-02 5.73075E-02
 -1      1873 3.48508E+00 7.46319E-02 1.03659E-02-8.24537E+00 7.19627E-02 1.06977E-01
 -1      1874-2.12293E-01 2.67900E-01-2.79468E-03-8.86619E+00 5.74963E-02 1.57363E-02
 -1      1875 4.53417E+00-2.89286E-01-5.39228E-02-7.61398E+00 2.56589E-02 4.04675E-02
 -1      1876 1.39608E+00 3.97494E-02 4.61495E-02-8.28134E+00 1.04903E-02 9.55392E-02
 -1      1877 3.72597E+01 1.31644E-02-6.34114E-02-8.78919E+00-2.54311E-02 9.03759E-02
 -1      1878 3.96165E+01 1.31820E-01 2.60452E-02-8.88264E+00-1.20169E-01 1.78309E-01
 -1      1879 3.95559E+01 1.57698E-01-1.14392E-01-8.77539E+00 3.55594E-02 5.05476E-02
 -1      1880 4.28288E+01 2.40666E-01 3.64839E-02-8.67431E+00 2.23195E-02 1.21246E-02
 -1      1881-7.36739E-02 2.53376E-01-9.92827E-02-9.14912E+00-4.16028E-02-9.39080E-03
 -1      1882 5.46907E+00 1.44946E-01-8.03358E-02-8.49593E+00-2.28757E-02-1.25623E-02
 -1      1883 8.03502E+00 3.47621E-01 2.66744E-02-8.32057E+00 2.18271E-02-1.53289E-02
 -1      1884 7.68009E+00 1.30872E-01-2.92139E-02-8.29061E+00 2.09528E-02-4.21118E-02
 -1      1885 1.01128E+01 4.39931E-01 8.03868E-02-8.47353E+00-2.67555E-03 1.81640E-02
 -1      1886-3.68413E-02 3.71694E-01-3.47157E-03-9.02093E+00 4.92750E-02-2.51795E-02
 -1      1887 3.50885E+01 1.60694E-01-3.65125E-02-8.81370E+00-7.80626E-02 5.91009E-02
 -1      1888 3.73726E+01 2.70259E-01 3.62005E-02-8.90671E+00 2.85015E-02 5.99595E-02
 -1      1889 3.34340E+01 8.09776E-02-1.46396E-02-8.80432E+00-1.35876E-02-2.14701E-02
 -1      1890 3.49937E+01 8.15721E-02 2.76739E-02-8.64914E+00-9.92093E-03 6.52798E-02
 -1      1891-3.95370E-01 4.10705E-02 5.16270E-02-8.98010E+00-5.78483E-03-2.57137E-02
 -1      1892-5.16669E+01-4.95726E-02-1.04955E-01-7.85809E+00-7.29585E-02-4.40533E-02
 -1      1893-4.89049E+01 1.75790E-02-3.96220E-02-7.75093E+00 2.02102E-02 5.42926E-02
 -1      1894-4.86353E+01 1.12228E-01-3.05053E-02-7.93752E+00 1.05982E-01-7.71539E-02
 -1      1895-4.68247E+01 2.38172E-01 8.38759E-02-8.02004E+00-1.79786E-02-6.38037E-02
 -1      1896 1.14651E-01-6.46124E-02 3.85824E-02-8.99232E+00-7.52867E-03-7.20679E-03
 -1      1897 5.93243E+01 3.21793E-02-2.69903E-02-8.72106E+00-1.17339E-01 5.71847E-02
 -1      1898 6.16026E+01 1.50094E-01 7.58253E-02-8.80704E+00 3.22892E-02 5.75768E-02
 -1      1899 5.67927E+01-6.30409E-02-1.05488E-01-8.71744E+00 3.74715E-02-3.53681E-02
 -1      1900 5.88140E+01-4.05660E-02-3.22791E-02-8.49730E+00-2.09669E-02-4.58670E-02
 -1      1901-1.52392E-01-1.44227E-01 3.81985E-02-8.98586E+00 4.35129E-03-2.89701E-03
 -1      1902 4.73652E+01 2.79535E-02-5.80363E-02-8.75110E+00 9.73164E-02 1.10241E-02
 -1      1903 4.96615E+01 3.41171E-02-3.74024E-02-8.60739E+00-2.74062E-02-6.66583E-02
 -1      1904 4.76393E+01 1.47460E-01 3.08591E-02-8.83444E+00-2.73024E-02-3.13787E-02
 -1      1905 5.55504E-01 1.39267E-01-4.41568E-02-9.30495E+00-1.09438E-02 1.29219E-02
 -1      1906 4.53961E+01-2.13868E-02-6.55196E-02-8.59727E+00-3.12232E-02-8.94001E-02
 -1      1907-3.24983E+01-3.87888E-01-6.40254E-02 3.32061E+00 3.78100E+00 3.85376E-01
 -1      1908-1.01195E+02 5.01879E+00 3.68617E+00 4.69077E+00 4.83049E+00 1.58568E+00
 -1      1909-6.95508E+01 6.11560E-01 8.64064E-01-2.18916E-01 2.31917E+00 1.82881E+00
 -1      1910-1.70175E+00 3.85979E-01-1.01680E-01-8.19521E+00 1.01435E-02 1.49837E-02
 -1      1911-4.88142E+00 8.37123E-01 6.06864E-02-7.47657E+00 1.19073E-02 2.69270E-02
 -1      1912-3.83584E+00 3.94845E-01-4.58310E-02-8.16171E+00 5.91458E-02-8.04471E-02
 -1      1913 1.44680E+01 1.28494E-01-6.19413E-02-8.35740E+00-9.88786E-03-4.85296E-02
 -1      1914 1.69304E+01 4.18347E-01 8.52801E-02-8.58372E+00-6.62473E-02 4.33039E-03
 -1      1915 1.67908E+01 2.79666E-01-3.42420E-02-8.59937E+00 3.79236E-02 1.12543E-02
 -1      1916 1.89921E+01 2.20454E-01-1.73124E-02-8.40037E+00 2.14628E-02-2.05843E-02
 -1      1917-2.19026E+01 7.25313E-02-6.12403E-02-7.93085E+00 1.17827E-02-2.65618E-02
 -1      1918-1.94232E+01 2.11025E-01 1.19085E-01-8.06853E+00 3.10552E-02-6.16343E-02
 -1      1919-2.40114E+01 1.64649E-01-3.94891E-02-8.10855E+00-2.85969E-02-1.16452E-01
 -1      1920-2.16464E+01 3.07255E-01 5.81247E-02-8.00755E+00 2.97068E-02-6.77869E-02
 -1      1921-6.49569E+01-7.76381E-02-7.04829E-02-8.15599E+00-2.92290E-02-5.24936E-02
 -1      1922-6.32817E+01 8.37133E-02 3.83905E-02-8.02109E+00-1.63830E-01-7.94186E-02
 -1      1923-6.76356E+01 2.42376E-02-4.85400E-02-8.08934E+00-5.25621E-02-7.30853E-02
 -1      1924-6.48320E+01 2.33882E-02 2.95096E-02-8.01433E+00-5.08073E-02-7.88093E-02
 -1      1925 6.95001E+01-5.65740E-02-1.20759E-01-7.93490E+00 8.97471E-02 7.14023E-02
 -1      1926 7.05241E+01-2.88408E-01 1.11792E-01-7.00201E+00 3.66768E-01-2.49331E-01
 -1      1927 6.72500E+01-2.01948E-01-2.36597E-02-8.43736E+00 7.99055E-02 3.85799E-02
 -1      1928 6.97156E+01-1.43611E-01 8.50971E-02-8.08750E+00 6.23852E-02 5.34049E-02
 -1      1929-1.06882E+00 1.65928E-02 1.95403E-02-6.88828E+00 1.22220E+00-2.88047E-02
 -1      1930-7.22813E+01 2.85325E-01-9.29510E-02-4.99382E+00 1.21140E+00 5.79519E-01
 -1      1931-7.15031E+01 4.77132E-01-5.16045E-02-2.44058E+00 1.52381E+00 6.62822E-01
 -1      1932-3.10338E+01 1.87957E-01 3.12480E-03-8.05419E+00-2.10958E-02-3.66322E-02
 -1      1933-2.87287E+01 2.74488E-01 3.85516E-02-7.98579E+00-1.46567E-01-6.78691E-02
 -1      1934-1.28758E-01 2.38100E-01 5.84216E-02-9.26090E+00 1.13152E-02 1.90464E-02
 -1      1935 3.35712E+01 1.72806E-01 1.11766E-02-8.77658E+00-1.21548E-01 2.54687E-02
 -1      1936 3.11584E+01 1.09253E-01-1.11048E-01-8.71147E+00-2.86087E-02 7.42110E-04
 -1      1937-1.47733E+01 3.13011E-01-2.60368E-02-8.11769E+00-2.09823E-02-8.85075E-02
 -1      1938-1.26002E+01 2.96285E-01 2.92340E-02-8.24049E+00 3.16353E-03-5.54853E-02
 -1      1939-9.24697E-02 3.40940E-01-2.37199E-02-9.06389E+00 2.33406E-02-3.14236E-02
 -1      1940 2.38071E+01 1.57839E-01-1.80688E-02-8.68841E+00-1.77097E-02 1.06004E-01
 -1      1941 2.59543E+01 1.92015E-01 4.03121E-02-8.74381E+00-3.02884E-02 1.09094E-01
 -1      1942-2.47757E-01 2.11701E-01-5.31462E-02-9.26713E+00 1.55832E-02 2.76352E-02
 -1      1943-4.24917E+01 1.57120E-01-5.21791E-02-7.96679E+00-3.03700E-02-7.69510E-02
 -1      1944-4.00973E+01 2.76261E-01 3.67438E-02-7.92085E+00-1.75620E-01-6.82495E-02
 -1      1945 2.43340E-01 1.62552E-01 4.11643E-02-9.28634E+00-1.52022E-02 2.03831E-02
 -1      1946 4.58188E+01 2.58983E-01 6.70440E-02-8.65179E+00 3.68711E-02-1.43002E-01
 -1      1947 4.30730E+01-3.45111E-02-1.21520E-01-8.76986E+00 6.23073E-02 1.89346E-02
 -1      1948-5.34556E+01 5.36778E-02-4.43929E-02-7.93518E+00-4.28494E-02-8.60327E-02
 -1      1949-5.12513E+01 1.17046E-01 2.33085E-02-7.90129E+00-1.05033E-04-3.86696E-02
 -1      1950 7.56585E-01 1.07067E-01-1.17816E-01-9.27140E+00 5.56346E-03-6.19002E-03
 -1      1951 5.75604E+01 9.42630E-02-1.79329E-02-8.68147E+00-3.05766E-02 4.79235E-02
 -1      1952 5.50259E+01 5.29747E-02-7.12752E-02-8.79888E+00 2.11954E-02 6.24009E-02
 -1      1953 1.55541E-01 6.09429E-02-9.35717E-02-9.16443E+00-4.82794E-02 8.11831E-03
 -1      1954 6.14898E+01-1.42466E-01-6.62197E-02-8.70550E+00-3.22327E-02 9.13879E-02
 -1      1955 6.37735E+01-2.86990E-03 5.05915E-02-8.72105E+00-5.61766E-02 1.47340E-01
 -1      1956-1.03617E-01-3.08725E-02 1.27307E-02-9.15572E+00 3.64581E-02 4.93762E-02
 -1      1957-3.23981E-01 1.39228E-01 8.94174E-02-9.14607E+00-4.68933E-02 2.67707E-03
 -1      1958-5.24027E+01 1.29131E-01 3.05759E-02-6.51904E+00 1.20393E-02 1.81591E-02
 -1      1959-3.41786E+01 1.77842E-01-7.79503E-03-6.93586E+00-2.32411E-03 4.68399E-02
 -1      1960 2.48412E+01 2.27468E-01-7.81078E-02-7.61506E+00 4.86930E-03-1.45435E-02
 -1      1961-1.19666E+01 1.76953E-01 2.55544E-02-7.09323E+00 6.70249E-04 1.11576E-01
 -1      1962-6.64026E+01 2.51937E-01 2.95103E-02-6.46294E+00 2.47742E-02-6.43063E-02
 -1      1963 4.30455E+01 2.01756E-01-4.85006E-02-7.79365E+00 2.60283E-03-2.86967E-03
 -1      1964-7.50836E+01 1.98031E-01-3.17345E-02-6.35802E+00 5.43223E-03 1.87974E-02
 -1      1965 1.29459E+02-7.13250E-02 1.03182E-01-7.90892E+00-6.61116E-02-2.34879E-02
 -1      1966-1.20284E+02 7.68983E-02-8.61109E-02-6.55839E+00-2.74132E-02 7.63987E-02
 -1      1967-1.39463E+02-1.42416E-02 1.62282E-02-6.23379E+00-5.67270E-02-1.25718E-01
 -1      1968 1.02240E+02 8.15507E-02-6.88047E-03-8.08457E+00-3.20031E-02-6.81978E-02
 -1      1969 8.87696E+01 6.87757E-02 7.68655E-02-8.23920E+00-3.83255E-02-6.44802E-02
 -1      1970 1.11361E+02 6.01072E-02-4.28104E-02-8.01279E+00 4.47678E-03 7.26246E-03
 -1      1971 1.38467E+02-4.00716E+00-2.28242E+00 3.20604E-01-1.49741E+00 3.56700E+00
 -1      1972 5.67394E+01 1.44258E-01-6.50635E-02-7.89638E+00 1.18660E-02-6.45093E-03
 -1      1973-2.02975E+01 2.69143E-01-7.86623E-02-6.94284E+00-3.31054E-02 6.68860E-02
 -1      1974 7.14538E+00-1.11661E-01-4.20522E-02-7.53550E+00 8.43608E-03-1.13278E-01
 -1      1975 7.96388E+01 1.16612E-01-7.53340E-02-7.93803E+00 3.80063E-02-1.48937E-02
 -1      1976 1.57687E+01 1.89764E-01 5.53588E-03-7.41150E+00-1.48114E-02-8.58566E-03
 -1      1977 7.01813E+01 1.87277E-01 5.01086E-02-7.98813E+00-4.81789E-02-2.36576E-02
 -1      1978-9.79967E+01 7.95240E-02 7.79769E-02-6.18023E+00 9.29753E-02 1.78637E-02
 -1      1979-8.57174E+01 8.73055E-02-3.14899E-03-6.18349E+00 2.33191E-02 1.93556E-02
 -1      1980-1.06635E+02 1.04971E-01-7.05105E-02-6.45938E+00-4.62113E-03 1.02605E-01
 -1      1981-7.24527E+01 2.96419E+00 7.79268E+00 6.51509E+00-3.36642E+00 5.31622E-01
 -1      1982-2.77016E+00 7.85295E-01 2.95038E-02-7.61455E+00 3.30610E-02-7.76812E-02
 -1      1983 3.39159E+01 1.40045E-01 2.65305E-02-7.69673E+00 1.45705E-03-1.38841E-02
 -1      1984-4.30716E+01 2.17319E-01-5.38258E-02-6.58751E+00-3.51305E-02 4.60106E-02
 -1      1985 1.20163E+02-2.64185E-02-8.11272E-03-8.10316E+00-8.53572E-03-5.91882E-02
 -1      1986-1.29281E+02 2.00203E-02-8.09384E-02-6.67081E+00-2.47068E-02 7.95721E-02
 -1      1987 1.39352E+02-1.64286E-01-3.50049E-02-6.96664E+00-1.08625E-01 1.46784E-01
 -1      1988 1.40621E+02-1.14447E+00-2.03100E-01-5.32945E+00-3.12763E-01 9.28199E-01
 -1      1989-2.11663E+00-1.56571E-01-8.31727E-02-4.84848E+00-2.02057E+00-1.11829E-01
 -1      1990 1.12370E+01 1.66743E-01-4.22461E-03-7.37363E+00 9.09815E-03-1.80693E-02
 -1      1991-5.69642E+01 1.70933E-01 2.33667E-02-6.39819E+00-5.22488E-04 5.24586E-04
 -1      1992-6.17563E+01 9.68237E-02-1.58123E-02-6.27608E+00-3.44387E-02-2.04113E-03
 -1      1993 5.71093E-02 2.01364E-01 9.43610E-03-9.06439E+00 1.76411E-03 1.03319E-02
 -1      1994-2.94692E+01 2.01102E-01-3.06535E-02-6.70766E+00-2.71461E-02 4.86374E-02
 -1      1995-8.01847E+01 1.23031E-01-7.31956E-02-6.44157E+00-2.95318E-02 7.62595E-02
 -1      1996 4.75880E+01 1.90407E-01-1.10144E-03-7.97278E+00 5.61252E-03-8.85479E-02
 -1      1997 2.00983E+01 1.33760E-01 7.10363E-02-7.57415E+00-1.54413E-02-7.85536E-02
 -1      1998 2.94639E+01 2.07214E-01-4.19432E-02-7.53161E+00 1.63420E-02 1.17928E-02
 -1      1999-1.02321E+02 8.52602E-02-3.39515E-02-6.34002E+00-9.72065E-03-2.63006E-03
 -1      2000 9.76053E+01 9.95967E-02 1.12852E-01-7.96648E+00-9.28775E-02 1.80402E-02
 -1      2001 9.39943E+01 1.21155E-01-5.58455E-02-8.06308E+00 3.92097E-02-3.62060E-02
 -1      2002-1.22583E+00 1.50476E-01 2.82640E-02-9.16287E+00 1.17792E-02 6.71270E-03
 -1      2003-1.16167E+02 3.69349E-02 8.24631E-02-6.29766E+00 9.67964E-02 2.24381E-03
 -1      2004-1.11350E+02 3.37372E-02 5.29967E-02-6.53547E+00-5.91703E-04 2.51223E-02
 -1      2005-1.62423E+01 1.78409E-01 3.10791E-02-6.88571E+00 2.72187E-02 4.88223E-02
 -1      2006 8.48577E+01 7.32047E-02 4.15135E-02-8.06576E+00-1.29405E-02-2.73424E-03
 -1      2007 1.15693E+02 2.41948E-02 7.66418E-02-7.82031E+00-9.23797E-02-1.03556E-02
 -1      2008 7.49238E+01 1.52931E-01-9.11823E-03-8.32051E+00-8.34285E-03-1.53269E-02
 -1      2009-1.25088E+02-2.93354E-02 8.89191E-02-6.55186E+00 1.65320E-02 1.07002E-02
 -1      2010 1.35176E+02-3.77144E-02-4.78655E-02-7.60894E+00 1.37899E-02-9.95786E-03
 -1      2011-1.35000E+02 3.64982E-02 1.26239E-01-6.56447E+00 2.66695E-02-7.92747E-02
 -1      2012 1.25056E+02-8.65550E-02-1.25461E-01-7.76270E+00 4.39806E-02 3.58862E-02
 -1      2013-3.89463E+01 1.81776E-01 7.43762E-02-6.50661E+00 4.49582E-02 2.07222E-02
 -1      2014 1.06868E+02 8.34229E-02-8.49428E-02-8.20183E+00 2.99104E-02-6.28843E-02
 -1      2015-4.79442E+01 1.44248E-01 7.78097E-02-6.70620E+00 3.84054E-02 7.01564E-02
 -1      2016-7.07699E+01 1.01692E-01-2.52382E-02-6.30372E+00 1.47419E-02 6.79782E-04
 -1      2017-2.51133E+01 2.76382E-01 1.23115E-01-6.77612E+00 3.26554E-02-5.49701E-02
 -1      2018 3.82523E+01 1.57502E-01 6.55995E-02-7.82899E+00-1.67104E-02-1.11504E-01
 -1      2019 5.19629E+01 1.60540E-01 2.07792E-02-7.91289E+00-1.38657E-02-5.24284E-02
 -1      2020-6.46462E-01-1.39609E-01 7.46814E-03-8.11000E+00-4.63445E-01-3.08935E-02
 -1      2021-1.42817E+02 7.84387E-01-3.43856E-02-4.74715E+00-3.84295E-01-6.51000E-01
 -1      2022 7.16896E+01 1.00001E-01-5.16221E+00 6.96316E+00-3.09979E+00 2.69648E-01
 -1      2023 6.70984E+01 2.20223E-01-3.28265E-02-7.97368E+00-1.96690E-03-9.66027E-02
 -1      2024 6.22688E+01 1.41625E-01 8.11319E-02-7.95622E+00-3.76582E-03 6.25083E-03
 -1      2025-8.47774E-01 1.35826E-01-1.36782E-02-9.19410E+00-2.49323E-02 1.64096E-02
 -1      2026-9.51671E+01 6.75646E-02-2.64297E-02-6.28707E+00-8.34923E-03-6.52322E-03
 -1      2027-4.00237E-01 3.34515E-01 2.17706E-02-9.09886E+00-3.31405E-02 1.95846E-02
 -1      2028 3.38364E-02 2.74966E-01 5.33146E-02-9.12066E+00 3.85586E-02-8.38427E-03
 -1      2029 3.06158E-02 2.10599E-01 2.54659E-02-9.04876E+00 2.50566E-02 9.77139E-03
 -1      2030-1.43319E-01 3.67728E-01-3.40263E-02-9.20833E+00 3.09657E-02 1.49094E-02
 -1      2031-2.26732E-01 2.66633E-01 9.87697E-03-9.17568E+00-2.96607E-02-3.33394E-03
 -1      2032-1.41921E-01 2.93827E-01-3.85675E-03-9.24827E+00-5.44850E-03-2.89466E-02
 -1      2033-3.20746E-01 2.67114E-01-3.89720E-03-9.15098E+00 5.29158E-02-4.34923E-03
 -1      2034-1.54973E-01 1.96260E-01 5.08792E-02-9.08183E+00-1.12348E-02 7.06886E-04
 -1      2035-1.77093E-01 2.22931E-01-3.09692E-03-9.07832E+00 8.27447E-03-6.08306E-03
 -1      2036-5.78723E-01 2.45498E-02 2.53816E-02-9.20679E+00 3.83883E-02-5.38462E-03
 -1      2037-3.66205E-01-1.25343E-02-2.69335E-02-9.03873E+00 9.61718E-04 1.64998E-02
 -1      2038-2.19648E-01-9.41502E-02 2.89305E-02-9.16715E+00-4.96668E-02 1.66434E-03
 -1      2039-1.18096E-01-8.38363E-02 5.03547E-02-9.00235E+00-1.15862E-02 1.86904E-02
 -1      2040-2.44309E-01-2.07431E-02-2.09484E-02-8.89554E+00-1.62138E-02-6.46898E-03
 -1      2041-2.78550E-01 2.51121E-01 2.11894E-02-9.10652E+00-5.47983E-02 3.86375E-02
 -1      2042-3.30565E-03 7.33609E-02 3.15317E-02-9.09133E+00-3.97144E-02-2.19349E-02
 -1      2043-1.14140E-01 2.45224E-01-1.55710E-02-9.17788E+00 2.17609E-02-9.33628E-03
 -1      2044-3.29936E-01 5.04128E-02 2.95117E-02-9.17195E+00-1.25277E-02-1.13865E-02
 -1      2045-3.08830E-01 3.08819E-02 3.98566E-02-9.17789E+00-1.91028E-03 1.06358E-02
 -1      2046 2.82450E-02 8.05365E-02 2.54733E-02-9.12300E+00 2.22323E-02 2.05190E-02
 -1      2047-1.27309E-01 2.54946E-01 4.48654E-02-9.04877E+00-1.54612E-02 3.54873E-02
 -1      2048 2.32290E-02 1.37971E-01 1.43794E-02-9.10819E+00-2.16914E-02-6.43856E-03
 -1      2049-4.14476E-01 1.81964E-01-2.57693E-02-9.04060E+00 1.94608E-02-1.45752E-02
 -1      2050-1.30196E-01 2.27620E-01-2.01433E-02-9.14898E+00 2.77828E-02 7.97326E-03
 -1      2051-2.00746E-01 1.50986E-01 1.65497E-02-9.16900E+00-5.49274E-02-1.63669E-02
 -1      2052-9.07140E+01 8.63366E-02-5.69339E-03-6.31272E+00 8.74879E-03 9.02730E-02
 -1      2053 6.35893E-03 1.64224E-01 1.32722E-02-9.11677E+00 2.60622E-02 1.48063E-02
 -1      2054 2.92052E+00-6.55898E-01-2.53291E-01-7.62702E+00 3.43974E-02-7.39890E-02
 -1      2055-1.39270E+02 3.61934E+00 1.89367E+00 2.36278E-01-1.29933E+00-3.22381E+00
 -1      2056-7.40937E+00 5.64844E-01-3.47221E-02-7.35300E+00-3.62706E-03 6.28556E-02
 -1      2057 7.30995E-01 1.50719E-01-7.21610E-02-1.00024E+00-3.04057E+00-6.74801E-01
 -1      2058 1.96496E+02-7.28486E+00-1.72655E+01 5.08526E+00-2.27839E+00-1.19754E+00
 -1      2059-1.90882E+02 8.68826E+00 1.93822E+01 7.19294E+00-3.66401E+00-1.46929E+00
 -1      2060 5.83804E+00-9.55973E-01-4.47172E-02-6.28627E+00 1.35064E-01 2.19575E-01
 -1      2061-6.01911E+00 1.48193E+00 4.64263E-02-6.05828E+00 1.70138E-01-2.03444E-01
 -1      2062-1.26620E-01 1.66046E-01-5.07743E-02-8.67599E+00 7.32590E-03 1.90863E-02
 -1      2063-2.82322E+02-3.83788E+01-3.52006E+01-9.20884E+00 5.03997E+00 3.59428E+01
 -1      2064-1.81567E+02-2.17228E+01-3.44797E+00 1.74165E+01-2.50493E+00 2.23898E+01
 -1      2065-2.21562E+02 1.45654E+01 1.45806E+01 1.28414E+01-7.28238E+00-6.98564E+00
 -1      2066 1.94086E+02 3.04059E+01 2.19310E+01 1.34212E+01 3.88571E-01-2.76232E+01
 -1      2067 2.85433E+02 3.94365E+01 3.60697E+01-8.22141E+00 4.33769E+00-3.63767E+01
 -1      2068 2.22472E+02-1.57165E+01-1.48325E+01 1.26558E+01-6.73446E+00 7.18516E+00
 -1      2069-5.24377E+00 4.24581E-01-5.84640E-01-5.92051E+00 1.55758E-01-5.83589E-01
 -1      2070-2.68422E+00 8.73833E-01 1.18930E-01-4.33937E+00 7.97376E-02-3.36045E-01
 -1      2071-7.72945E+00 5.13548E-01-3.81101E-01-3.58716E+00-1.21471E-01-2.97768E-01
 -1      2072 2.54142E+00-6.09185E-01-1.52226E-01-4.38796E+00 4.00339E-02 3.75881E-01
 -1      2073 4.92471E+00-2.29643E-01 4.14860E-01-6.11653E+00 2.87949E-02 5.38915E-01
 -1      2074 7.60263E+00-2.83505E-01 3.61900E-01-3.81526E+00-1.45839E-01 3.01177E-01
 -1      2075-1.24371E+02-2.97981E+01-2.10831E+01 1.82114E+01-4.30503E+00 2.12794E+01
 -1      2076-3.41499E+01 2.05057E+00 8.12408E+00 2.37770E+01-4.39747E+00 1.14083E+00
 -1      2077-1.36676E+02 1.11420E+00 1.47021E+01 8.40476E+00-1.51065E+00-6.64351E-01
 -1      2078 3.81329E+01 9.71630E-01 8.47622E-01 2.28274E+01-3.14513E+00-2.86085E+00
 -1      2079 1.27774E+02 3.19126E+01 2.52323E+01 1.90202E+01-3.76273E+00-2.07411E+01
 -1      2080-2.75021E+00-4.75630E-01 1.06737E+00 7.63243E+00-2.18621E+00 4.12287E-01
 -1      2081 1.31244E+02-3.53276E+00-1.26025E+01 8.40205E+00-2.19816E+00-1.07420E+00
 -1      2082-1.45741E+00 6.11749E-01 1.87891E-02-7.43938E+00 5.77906E-03-1.00880E-01
 -1      2083-3.99295E+00 9.61379E-02-5.78555E-01-6.91995E+00-5.40663E-03-5.20120E-01
 -1      2084-4.31832E+00 1.05552E+00 1.21670E-01-6.93151E+00 3.21466E-02-1.24786E-01
 -1      2085 3.79324E+00 2.61564E-01 5.57446E-01-6.97880E+00-3.64427E-02 4.48636E-01
 -1      2086 1.26487E+00-2.56894E-01-2.07165E-01-7.48300E+00-3.09495E-02-1.36517E-02
 -1      2087 2.58757E-02 2.23773E-01-1.26472E-01-7.76502E+00 4.93720E-02-1.78184E-01
 -1      2088 4.45902E+00-5.37760E-01-2.34295E-01-7.12141E+00 1.05543E-01 1.70438E-02
 -1      2089-2.13258E+02 1.94038E+00 1.48300E+00 3.87023E-02-5.11242E-01-1.62671E+00
 -1      2090-2.12370E+02-8.31520E-01-2.15249E+00 4.14511E+00 1.48954E+00-1.84114E+00
 -1      2091-1.59259E+02 4.99445E+00 3.39034E+00 5.28126E+00-2.04472E+00-3.53668E+00
 -1      2092-2.13713E+02 4.05711E-01 1.74749E-02-2.48020E+00-1.41613E-01-6.38788E-01
 -1      2093-2.14989E+02 7.10482E-01 1.69883E-01-1.74813E+00-2.34975E-01-3.82225E-01
 -1      2094-1.40688E+02 1.61276E+00 5.46167E-02-2.85265E+00-5.28754E-01-7.67347E-01
 -1      2095-2.08267E+02 1.08686E-01-2.83727E-02-3.15606E+00-2.80889E-02-2.63670E-01
 -1      2096-2.11981E+02 5.48212E-02-3.75699E-03-3.00203E+00 3.44232E-02-3.42463E-01
 -1      2097-1.41593E+02 2.44383E-01-1.53476E-01-5.78426E+00-1.10746E-01-4.31971E-01
 -1      2098-2.01480E+02-1.51051E-02 1.75241E-01-3.19994E+00 7.49063E-02 1.54014E-02
 -1      2099-2.05970E+02-1.29640E-01 5.00961E-02-3.33143E+00-6.75036E-03-2.45665E-01
 -1      2100-1.37497E+02-9.86510E-02-1.82907E-02-6.61037E+00-6.17107E-02-1.71933E-01
 -1      2101-1.94355E+02 7.40452E-03-1.07324E-02-3.16864E+00 1.55474E-02-1.16869E-01
 -1      2102-1.98697E+02 4.83212E-02-9.80202E-02-3.10282E+00-1.38077E-02-4.31171E-02
 -1      2103-1.32127E+02 6.66551E-02-5.15976E-02-6.62556E+00-4.33362E-02 8.13638E-02
 -1      2104-1.87343E+02 2.31224E-02 1.41474E-01-3.01029E+00 6.35093E-02-1.45220E-02
 -1      2105-1.91888E+02-9.39132E-02 1.10903E-01-3.13772E+00-1.06486E-02-1.48251E-01
 -1      2106-1.27376E+02-7.34465E-02-1.96978E-03-6.73378E+00 5.05363E-02-2.38530E-02
 -1      2107-1.80667E+02 2.68818E-02-4.03250E-02-3.01516E+00 6.29105E-02-1.28601E-01
 -1      2108-1.85007E+02 6.93256E-02-1.08718E-01-2.91389E+00-2.61410E-02-3.47346E-02
 -1      2109-1.22692E+02 9.95032E-02-3.86831E-02-6.55784E+00-6.01668E-02 8.50349E-02
 -1      2110-1.73610E+02-3.90179E-02 9.00175E-02-2.77922E+00 3.92629E-02 4.56725E-02
 -1      2111-1.78204E+02-2.91831E-02 1.99807E-01-2.87978E+00 6.84689E-02-1.26029E-01
 -1      2112-1.18308E+02-2.45872E-02 6.49594E-02-6.52832E+00 1.50358E-01-4.77350E-02
 -1      2113-1.66855E+02-1.40247E-03 4.29338E-02-2.90507E+00 5.91383E-02 9.98598E-03
 -1      2114-1.71156E+02-5.46025E-02 1.83044E-02-2.92776E+00-3.12221E-02-6.90900E-02
 -1      2115-1.13701E+02 1.45959E-01 6.35592E-02-6.48467E+00 2.94756E-03 3.87528E-02
 -1      2116-1.59950E+02 2.90464E-02-7.07951E-03-2.79891E+00 3.08619E-02-1.05570E-01
 -1      2117-1.64326E+02 8.40507E-02-8.45575E-02-2.71659E+00-6.34953E-03-3.15991E-02
 -1      2118-1.09014E+02 1.38544E-01-4.25110E-02-6.48351E+00-5.22300E-02 8.44155E-02
 -1      2119-1.53018E+02 8.19577E-02-2.43282E-02-2.75919E+00 8.55033E-02-1.80034E-01
 -1      2120-1.57545E+02 7.83660E-03 2.08621E-02-2.72255E+00-2.67192E-02-1.30134E-01
 -1      2121-1.04616E+02 5.78749E-02 1.60565E-03-6.50460E+00 6.93341E-02 2.00579E-02
 -1      2122-1.46059E+02-2.00685E-02 9.06404E-02-2.62386E+00 2.88280E-02 4.26185E-02
 -1      2123-1.50640E+02-1.63614E-02 1.86080E-01-2.67319E+00 7.56831E-02-1.35851E-01
 -1      2124-1.00129E+02 4.11769E-02 5.51389E-02-6.37818E+00 1.21158E-01-7.22566E-02
 -1      2125-1.40205E+02 4.38953E-02-6.61761E-02-2.65992E+00 5.84219E-03-1.46172E-01
 -1      2126-1.44786E+02-6.58898E-02-1.01060E-01-2.64470E+00-4.19319E-02-1.22594E-01
 -1      2127-9.65161E+01 2.08085E-01 4.07632E-02-6.29647E+00-8.07114E-03 4.99747E-02
 -1      2128-1.33366E+02 6.51360E-02 5.65872E-02-2.61141E+00 5.67399E-02-1.29342E-01
 -1      2129-1.37806E+02 1.44489E-02-3.83168E-02-2.62998E+00-4.99620E-02-1.17498E-01
 -1      2130-9.28515E+01 1.14918E-01 1.25807E-02-6.35986E+00-6.39248E-02 2.27812E-02
 -1      2131-1.26119E+02-3.93288E-03 4.19848E-02-2.61999E+00 1.68614E-02-4.94959E-03
 -1      2132-1.30665E+02 5.87468E-02 1.11279E-01-2.60941E+00 2.66881E-02-1.20677E-01
 -1      2133-8.81780E+01 5.75417E-02-1.87637E-02-6.34067E+00 7.34942E-02 3.97739E-02
 -1      2134-1.18980E+02 6.74713E-02-5.63845E-02-2.77579E+00 3.39828E-02-1.39916E-01
 -1      2135-1.23357E+02-4.27994E-03-1.45582E-01-2.67732E+00-6.91739E-02-7.76270E-02
 -1      2136-8.29391E+01 1.69557E-01-2.84143E-02-6.29821E+00-3.59699E-02 9.72333E-02
 -1      2137-1.11625E+02 1.22314E-01 1.87357E-02-2.76473E+00 6.00470E-02-1.70228E-01
 -1      2138-1.16225E+02 4.71036E-02 1.24708E-02-2.70976E+00-7.93812E-03-1.31559E-01
 -1      2139-7.76163E+01 1.59016E-01 6.29157E-03-6.45423E+00 3.42778E-02-3.00969E-03
 -1      2140-1.04761E+02 1.33085E-01-3.79245E-02-2.74331E+00 2.01399E-02-1.60951E-01
 -1      2141-1.09399E+02-6.02117E-04 2.21204E-02-2.70255E+00 8.97408E-03-1.58888E-01
 -1      2142-7.29862E+01 8.56754E-02-5.22644E-02-6.46549E+00 8.44838E-02-2.85711E-02
 -1      2143-9.80108E+01 9.79650E-02 1.25342E-01-2.81996E+00 5.72026E-02-8.58436E-02
 -1      2144-1.02553E+02-2.74130E-02-9.21205E-03-2.89232E+00-5.53585E-02-2.20092E-01
 -1      2145-6.87735E+01 8.87555E-02-5.50023E-02-6.52569E+00-2.58202E-02-1.04017E-01
 -1      2146-9.11511E+01 1.43176E-01-4.89510E-02-2.89240E+00 2.08255E-02-1.90575E-01
 -1      2147-9.56982E+01 1.67641E-01-8.90641E-02-2.73007E+00-2.19430E-02 3.97810E-02
 -1      2148-6.40487E+01 2.52146E-01 4.52010E-02-6.27431E+00 3.36061E-02 1.76105E-02
 -1      2149-8.39894E+01 1.35323E-01-1.39644E-02-2.89183E+00 6.83320E-03-1.55945E-01
 -1      2150-8.86038E+01-1.05682E-02 4.77596E-02-2.89917E+00-3.21628E-02-1.65624E-01
 -1      2151-5.93758E+01 1.89380E-01 3.23179E-02-6.53062E+00 2.69270E-02-8.58453E-02
 -1      2152-7.70692E+01 1.02441E-01-1.68997E-02-2.98579E+00 2.34182E-02-1.35095E-01
 -1      2153-8.16615E+01 3.28712E-02-1.28940E-02-2.97414E+00-3.86949E-02-1.74112E-01
 -1      2154-5.46344E+01 2.04338E-01 3.69846E-02-6.59672E+00-5.95141E-02-3.52397E-02
 -1      2155-7.02530E+01 1.38002E-01 1.37353E-01-3.08401E+00 7.29822E-02-6.44633E-02
 -1      2156-7.46470E+01 5.85016E-02 4.79267E-02-3.10340E+00-1.91626E-02-1.53422E-01
 -1      2157-5.01673E+01 1.63882E-01 1.15859E-02-6.68185E+00-2.21477E-02-3.11226E-03
 -1      2158-6.34451E+01 9.79828E-02-1.15076E-01-3.20451E+00 5.86663E-02-1.57106E-01
 -1      2159-6.78112E+01 1.66201E-01-8.91441E-02-3.07438E+00-4.21632E-02 3.19990E-02
 -1      2160-4.55067E+01 1.13665E-01 1.61573E-02-6.61837E+00 3.81550E-02 1.06706E-01
 -1      2161-5.63801E+01 9.91449E-03 8.40511E-02-3.14929E+00 1.16997E-02 5.52637E-02
 -1      2162-6.10072E+01 9.66314E-03 1.72816E-01-3.15825E+00 6.09150E-02-1.44962E-01
 -1      2163-4.11262E+01 1.76019E-01 6.27393E-02-6.69810E+00 1.08685E-01-5.36546E-02
 -1      2164-4.96555E+01 1.21469E-01 2.50931E-02-3.41439E+00 5.42399E-02-6.83060E-02
 -1      2165-5.39494E+01 4.02290E-02-2.47294E-02-3.36441E+00-4.42682E-02-7.90715E-02
 -1      2166-3.65076E+01 2.87081E-01 2.80102E-02-6.74695E+00-3.50544E-02 5.56729E-02
 -1      2167-4.26959E+01 1.46601E-01-1.23383E-01-3.43054E+00-7.58084E-03-1.15303E-01
 -1      2168-4.71442E+01 1.64193E-01-5.78446E-02-3.30575E+00-1.55851E-02 2.51218E-02
 -1      2169-3.18494E+01 9.99293E-02-5.21361E-02-6.83011E+00 3.94250E-02 6.24541E-02
 -1      2170-3.56058E+01 1.09558E-01 1.81348E-01-3.51563E+00 6.91128E-02 2.41799E-02
 -1      2171-4.02521E+01-9.51737E-04 6.47820E-02-3.52666E+00-2.10190E-02-2.04265E-01
 -1      2172-2.75465E+01 1.88440E-01 1.40761E-03-6.90492E+00-3.20853E-02-1.03064E-01
 -1      2173-2.89177E+01 1.47908E-01-1.69724E-02-3.65177E+00 1.79914E-02-1.25066E-01
 -1      2174-3.32620E+01 1.79756E-01-9.46727E-02-3.45388E+00-1.76833E-02-5.36732E-02
 -1      2175-2.26911E+01 3.22867E-01-3.79276E-02-6.86563E+00-3.89967E-02 8.28589E-02
 -1      2176-2.19978E+01 6.04316E-02 5.46360E-02-3.65112E+00 1.36915E-02 3.75868E-02
 -1      2177-2.64510E+01 1.05390E-01 1.46475E-01-3.63439E+00 2.05002E-02-1.15119E-01
 -1      2178-1.83224E+01 1.29844E-01 2.96120E-03-7.04864E+00 6.19620E-02-1.71695E-02
 -1      2179-1.53488E+01 2.78105E-02 6.73532E-03-3.74731E+00-1.40869E-02-1.21233E-02
 -1      2180-1.95990E+01 9.77504E-02-4.11587E-03-3.71289E+00-5.07481E-03-3.06006E-03
 -1      2181-1.39252E+01 3.46532E-01 6.11173E-02-6.99542E+00-4.25361E-02 1.30609E-01
 -1      2182-8.45359E+00 2.55283E-01 2.68172E-02-4.34009E+00-8.88289E-02 5.73612E-02
 -1      2183-1.24914E+01 3.67278E-01 2.51392E-02-4.04140E+00-4.02447E-02 9.31847E-02
 -1      2184-9.32228E+00 2.70773E-01 1.41679E-01-7.15946E+00 6.80676E-02 9.29571E-02
 -1      2185-6.60517E+00 9.28684E-01 3.98596E-02-6.80219E+00 1.19552E-01 4.23567E-02
 -1      2186 2.12870E+02 9.27362E-01 2.33628E+00 3.69945E+00 1.35129E+00 1.79820E+00
 -1      2187 2.12003E+02-2.82940E+00-2.26614E+00-2.29011E-01-1.01434E+00 2.35522E+00
 -1      2188 1.59358E+02-6.20316E+00-3.80005E+00 4.26235E+00-2.06986E+00 3.62344E+00
 -1      2189 2.14931E+02-6.64093E-01-2.86584E-01-2.63369E+00 1.02154E-01 5.63509E-01
 -1      2190 2.13309E+02-6.18032E-01-3.33848E-01-3.66750E+00-1.86983E-01 5.49337E-01
 -1      2191 1.39771E+02-1.82542E+00-4.43444E-01-3.39685E+00-5.55897E-01 1.21318E+00
 -1      2192 2.12534E+02-2.45902E-01 4.34703E-03-4.21694E+00 2.71110E-02 1.06823E-01
 -1      2193 2.09005E+02-1.23098E-01 1.32958E-01-4.42586E+00-1.18763E-01 2.45574E-01
 -1      2194 1.40670E+02-3.06078E-01 1.59615E-01-6.42953E+00-1.20766E-01 3.55894E-01
 -1      2195 2.06459E+02-5.66490E-02-4.69163E-02-4.70113E+00-3.16260E-02 1.91191E-01
 -1      2196 2.02185E+02 2.44564E-02-8.92660E-02-4.75814E+00 2.76683E-02-7.69770E-03
 -1      2197 1.37461E+02-8.16508E-02 2.87693E-03-7.47734E+00-1.63570E-01 8.77451E-02
 -1      2198 1.99367E+02 4.01599E-02 1.74831E-01-4.87647E+00-9.18211E-02 6.86512E-02
 -1      2199 1.94962E+02-5.78755E-02 7.84145E-02-5.07165E+00 4.68193E-02 1.64658E-01
 -1      2200 1.32303E+02-1.29320E-01-3.79940E-03-7.73951E+00-5.94723E-02-7.01808E-02
 -1      2201 1.92476E+02 9.70481E-02-1.71233E-01-5.04117E+00 3.96202E-02 1.64418E-01
 -1      2202 1.87653E+02-7.36312E-02-1.87627E-01-5.03740E+00 6.31789E-02 1.77022E-02
 -1      2203 1.27383E+02-4.35972E-03-6.32177E-02-7.93469E+00 9.25701E-02 1.01087E-01
 -1      2204 1.85271E+02-8.00056E-02-2.17469E-03-5.15913E+00 6.44488E-03 4.50181E-02
 -1      2205 1.81046E+02-6.28150E-03-4.04202E-02-5.22344E+00 9.27445E-05 2.45555E-02
 -1      2206 1.22603E+02-1.60247E-01 5.39964E-02-7.96443E+00-4.13397E-02-5.21993E-02
 -1      2207 1.78633E+02-3.02477E-02 8.68620E-02-5.09878E+00-2.34160E-02-4.18108E-02
 -1      2208 1.74000E+02-2.90739E-02 1.86343E-01-5.18113E+00-7.86707E-02 1.41993E-01
 -1      2209 1.18215E+02 2.10448E-01 9.21233E-02-7.97697E+00 1.75022E-02-9.71114E-02
 -1      2210 1.71618E+02 7.80422E-02-2.55099E-02-5.28757E+00-8.75535E-02 1.87936E-01
 -1      2211 1.67041E+02 7.14757E-03 1.44273E-02-5.26373E+00 2.34728E-02 1.28931E-01
 -1      2212 1.13553E+02 8.53392E-04 4.81116E-02-8.03974E+00-1.23977E-01 7.68275E-02
 -1      2213 1.64594E+02 5.59975E-02-5.00300E-02-5.38280E+00-3.35267E-02 1.49435E-01
 -1      2214 1.60159E+02-2.64895E-02-1.56437E-01-5.33500E+00 6.47492E-02 7.38203E-02
 -1      2215 1.09124E+02 6.96677E-02-1.33072E-02-8.18980E+00-3.35702E-02 1.30986E-02
 -1      2216 1.57693E+02-3.50926E-02 2.05274E-02-5.35192E+00 2.16734E-04-6.21619E-02
 -1      2217 1.53418E+02 1.48924E-01 3.07104E-02-5.34628E+00-4.82477E-02 3.15158E-02
 -1      2218 1.04451E+02 1.18649E-01-2.18937E-02-8.11335E+00 2.51673E-02-1.08619E-01
 -1      2219 1.51072E+02 1.20744E-01 1.75827E-01-5.33733E+00-7.62206E-02 1.08029E-02
 -1      2220 1.46345E+02-3.58609E-02 1.80273E-01-5.39319E+00-6.55540E-02 1.71617E-01
 -1      2221 1.00105E+02 2.38507E-01-2.35805E-02-8.10511E+00 1.36234E-02-8.69799E-02
 -1      2222 1.44223E+02 6.86508E-02-1.06561E-01-5.42605E+00-5.14108E-02 1.61502E-01
 -1      2223 1.39813E+02 1.34917E-01-8.98401E-02-5.35213E+00 4.38213E-02-3.06427E-02
 -1      2224 9.55635E+01 6.00806E-02 4.29852E-02-8.14632E+00-1.22770E-01 7.82467E-02
 -1      2225 1.37195E+02 1.13405E-01 1.37321E-01-5.39416E+00-7.29699E-02 6.54624E-02
 -1      2226 1.32785E+02 3.93042E-02 4.55405E-02-5.46017E+00 1.65575E-02 1.55473E-01
 -1      2227 9.13787E+01 2.58306E-02 1.34377E-02-8.12135E+00-3.48026E-02-1.01086E-01
 -1      2228 1.30650E+02 8.44968E-02-8.51940E-03-5.35230E+00-3.60729E-02 1.28542E-01
 -1      2229 1.26038E+02 1.68585E-02 2.89670E-02-5.40681E+00 8.32325E-02 1.85281E-01
 -1      2230 8.68235E+01 8.60196E-02 8.43713E-03-8.22957E+00 1.89368E-02 8.99558E-03
 -1      2231 1.23224E+02 1.61496E-01-1.72346E-01-5.36112E+00 5.51388E-02 1.48828E-01
 -1      2232 1.18573E+02 1.62621E-01-8.40929E-02-5.27275E+00 5.97968E-03-5.11304E-02
 -1      2233 8.22129E+01 1.37157E-01-7.18009E-02-8.14315E+00 1.04658E-01 8.11013E-02
 -1      2234 1.16159E+02 1.37851E-01 2.98966E-02-5.47905E+00-5.62913E-02 9.34338E-02
 -1      2235 1.11817E+02 5.22627E-02-5.73678E-02-5.45315E+00 4.00845E-02 9.04941E-02
 -1      2236 7.72129E+01 2.74778E-02-4.72499E-02-8.15370E+00-3.90018E-02-3.84976E-02
 -1      2237 1.09227E+02 1.41663E-03-2.59125E-02-5.33294E+00 5.52581E-03-7.55050E-02
 -1      2238 1.04887E+02 7.16471E-02 7.43866E-02-5.33909E+00 3.50819E-02-5.93638E-02
 -1      2239 7.26817E+01 3.35249E-01 7.51117E-02-8.18515E+00 2.88547E-02-2.73863E-02
 -1      2240 1.02952E+02 5.24192E-02 1.36144E-02-5.23840E+00 8.72803E-03-1.72458E-02
 -1      2241 9.87131E+01 2.28632E-01-1.64371E-02-5.12907E+00-2.92676E-02-3.77226E-03
 -1      2242 6.86329E+01 6.49075E-02 1.26123E-01-8.01578E+00-1.07397E-01-1.19685E-01
 -1      2243 9.61103E+01 1.09977E-01 1.58698E-01-5.20056E+00-5.63749E-02 1.41304E-02
 -1      2244 9.15364E+01 3.19420E-02 3.53696E-02-5.21319E+00 5.09919E-02 1.78143E-01
 -1      2245 6.48219E+01 2.79313E-01-5.20337E-03-7.95623E+00 7.23485E-02-7.44953E-02
 -1      2246 8.85680E+01 2.04419E-01-9.41572E-02-5.20663E+00 7.98484E-03 1.59178E-01
 -1      2247 8.39579E+01 6.16673E-02-1.37731E-01-5.12112E+00 5.16486E-02 4.23078E-02
 -1      2248 5.94897E+01 1.52201E-01-3.59622E-02-8.04629E+00 6.90875E-02 7.97964E-02
 -1      2249 8.16378E+01 6.28719E-02 5.32969E-02-5.07667E+00 5.30929E-05 7.00887E-02
 -1      2250 7.71164E+01 1.19530E-01 7.54198E-02-5.06744E+00-3.13213E-02 1.06819E-01
 -1      2251 5.43618E+01 5.26441E-02 5.13885E-02-7.95656E+00-6.74827E-02-6.62083E-02
 -1      2252 7.46964E+01 1.44552E-01 4.03131E-02-5.06494E+00-5.70058E-02 1.26675E-01
 -1      2253 7.02643E+01 9.20636E-02-6.37436E-02-5.00255E+00 4.40684E-02 1.39916E-01
 -1      2254 4.98058E+01 1.64355E-01-1.09749E-02-8.01647E+00-5.52987E-02-4.53953E-02
 -1      2255 6.78539E+01 1.58208E-01-9.97793E-02-4.99319E+00 3.79073E-03 1.48142E-01
 -1      2256 6.32069E+01 7.38428E-02-1.04401E-01-4.93631E+00 4.12246E-02 3.95881E-02
 -1      2257 4.54575E+01 2.65525E-01 3.23953E-02-7.97852E+00 7.69112E-02-2.95043E-02
 -1      2258 6.08391E+01 5.99412E-02 8.72822E-02-4.82760E+00-2.39841E-02 4.77845E-02
 -1      2259 5.64797E+01 1.27851E-01 1.92521E-02-4.87299E+00 2.18253E-02 1.09583E-01
 -1      2260 4.06996E+01 1.30075E-01 8.17332E-02-7.82307E+00-5.91750E-02-9.86089E-02
 -1      2261 5.40621E+01 1.31306E-01-2.02103E-02-4.78527E+00-1.90103E-02 1.41062E-01
 -1      2262 4.94992E+01 6.22998E-02-1.73129E-03-4.77570E+00 5.61152E-02 1.80436E-01
 -1      2263 3.62371E+01 1.89337E-01-1.40442E-02-7.84414E+00 6.31657E-02-2.51137E-02
 -1      2264 4.72036E+01 2.06980E-01-4.70917E-02-4.68946E+00 3.65098E-03 1.75202E-01
 -1      2265 4.25167E+01 5.66432E-02 5.48254E-03-4.60359E+00-5.64307E-03 1.62119E-01
 -1      2266 3.16865E+01 2.09493E-01-7.80821E-03-7.75518E+00 8.60863E-02 4.07626E-02
 -1      2267 4.01206E+01 1.91906E-01-2.78004E-02-4.69440E+00-4.08327E-02 1.75494E-01
 -1      2268 3.55749E+01 1.04080E-01-1.52770E-01-4.58194E+00 6.25370E-02 1.22536E-03
 -1      2269 2.71651E+01 1.90771E-01-3.93739E-03-7.71824E+00-5.54146E-02 6.61091E-02
 -1      2270 3.32343E+01 5.55375E-02 1.05178E-01-4.45094E+00-1.57387E-02 4.69489E-02
 -1      2271 2.88554E+01 1.02843E-01-4.21026E-03-4.49555E+00 1.84572E-02 1.31680E-01
 -1      2272 2.25131E+01 1.03470E-01 6.36747E-02-7.58096E+00-5.39043E-02-8.20044E-02
 -1      2273 2.64442E+01 1.56014E-01-4.05130E-02-4.40241E+00-2.34358E-02 1.53370E-01
 -1      2274 2.18087E+01 5.39155E-02 2.46884E-02-4.36042E+00 2.43838E-02 1.61443E-01
 -1      2275 1.80722E+01 2.39640E-01-2.41457E-02-7.58456E+00 6.79107E-02 9.62524E-03
 -1      2276 1.94964E+01 1.34297E-01-1.32336E-02-4.29453E+00-1.29492E-02 1.49729E-01
 -1      2277 1.49339E+01 5.72561E-02-5.27485E-03-4.27786E+00 4.52872E-02 1.11226E-01
 -1      2278 1.34926E+01 2.08860E-01 1.55615E-02-7.51830E+00-2.61016E-03 2.81260E-02
 -1      2279 1.23847E+01-5.62577E-02-1.50187E-01-4.39306E+00-1.06129E-02 6.56059E-02
 -1      2280 8.17714E+00 2.94207E-02-1.29634E-01-4.49824E+00-4.08735E-02-5.84608E-02
 -1      2281 8.91369E+00 1.03094E-01-2.30609E-02-7.53289E+00 4.64763E-02 1.80610E-02
 -1      2282 6.47499E+00-4.09201E-01-9.71337E-03-6.96046E+00 1.10132E-01-8.25538E-02
 -1      2283-2.62635E+01 2.40177E-01 3.91349E-02-8.06157E+00 2.06306E-02 7.16126E-02
 -1      2284-2.84549E+01 2.46558E-01-6.96512E-02-8.00932E+00 1.80451E-02 1.36223E-01
 -1      2285-2.41026E+01 2.53351E-01 8.44941E-03-8.07654E+00-1.46840E-02 1.07257E-01
 -1      2286-2.62300E+01 1.99212E-01-1.74500E-02-7.98792E+00 2.22508E-02 1.00846E-01
 -1      2287-1.82585E-01 2.46239E-01-5.29868E-02-9.22541E+00 1.52927E-02 7.17538E-03
 -1      2288-1.49781E+01 1.89739E-01 6.28263E-02-8.07163E+00-1.66721E-03 7.90057E-02
 -1      2289-1.71700E+01 1.24930E-01-4.13263E-02-8.09480E+00 7.57293E-03 3.45226E-02
 -1      2290-1.71556E+01 2.12917E-01 1.24098E-02-8.05979E+00-8.80271E-02 6.47103E-02
 -1      2291-1.93150E+01 2.09231E-01 1.82367E-02-7.91213E+00-2.03788E-02-4.40291E-02
 -1      2292-2.33911E-01 2.44810E-01-6.04693E-02-9.25460E+00-9.48913E-03 5.73798E-02
 -1      2293 1.23545E+01 2.19284E-01-1.46417E-03-8.49429E+00-2.42742E-02-6.55028E-02
 -1      2294 9.98474E+00 2.44646E-01-6.93697E-02-8.58427E+00-4.82893E-02-4.91389E-02
 -1      2295 1.45006E+01 1.80600E-01 2.11808E-02-8.51265E+00 2.88218E-02-1.02795E-01
 -1      2296 1.22989E+01 1.37357E-01-2.48406E-02-8.58077E+00 9.18283E-03-6.69563E-02
 -1      2297-7.24790E-02 2.93411E-01 1.39741E-03-9.24313E+00 2.72186E-02-1.15195E-02
 -1      2298-6.01657E+00 3.12494E-01 8.99112E-04-8.31692E+00-8.26218E-02 1.56071E-02
 -1      2299-8.02965E+00 2.65426E-01-3.67902E-02-8.20432E+00-1.37630E-02-1.34359E-03
 -1      2300-2.24290E-01 3.47687E-01-5.64410E-02-9.21994E+00-1.33569E-02 9.26830E-03
 -1      2301-6.11138E+00 2.57348E-01-6.19137E-02-8.23105E+00 3.32447E-02-5.01473E-02
 -1      2302-3.88285E+00 3.96655E-01 2.04149E-02-8.14159E+00-5.25873E-03-2.81861E-04
 -1      2303-3.12821E+01 2.02169E-02-4.14170E-02-7.89731E+00-9.35245E-03-2.21941E-02
 -1      2304-3.27127E+01 3.20576E-01 6.82199E-02-7.86626E+00 1.64881E-02-5.90281E-03
 -1      2305 5.16427E-02 2.52154E-01 1.85651E-02-9.26701E+00-5.82124E-03 2.82231E-02
 -1      2306-3.34475E+01 3.70784E-01-7.77364E-02-7.98841E+00 1.28525E-02 4.12682E-02
 -1      2307-3.54522E+01 1.89127E-01-8.07574E-02-7.87395E+00-5.10749E-02 1.23618E-01
 -1      2308 2.36932E+01 2.59675E-01 5.25895E-02-8.77549E+00 2.98768E-02-1.39520E-01
 -1      2309 2.12913E+01 1.51758E-01-3.24189E-02-8.60501E+00-2.29403E-02-7.44683E-02
 -1      2310 2.15827E+01 3.54383E-01 5.43026E-02-8.53582E+00-9.85569E-03-1.79613E-02
 -1      2311 1.90975E+01 2.32703E-01-1.19709E-01-8.61600E+00-2.81147E-02-5.84208E-02
 -1      2312-2.49457E-01 2.61942E-01 7.92479E-02-9.24724E+00 6.23997E-04-1.17947E-02
 -1      2313-3.75801E+01 3.07340E-01 4.18608E-02-7.91235E+00 2.40917E-02 9.47532E-02
 -1      2314-4.01906E+01 1.76685E-01-3.24646E-02-7.96617E+00 7.06715E-02 1.74803E-01
 -1      2315-3.56607E+01 1.30166E-01 7.92269E-02-7.99419E+00-1.54294E-02 1.50393E-01
 -1      2316-3.77180E+01 1.56581E-01-3.90879E-02-7.98920E+00-2.14107E-02 6.86188E-02
 -1      2317-1.61195E-01 1.33706E-01 5.48306E-02-9.18869E+00-9.95486E-03-5.33944E-02
 -1      2318 6.74728E+01-4.49610E-02 3.02664E-02-8.57708E+00-1.71180E-02-6.18590E-02
 -1      2319 6.46086E+01-5.12080E-02-5.15657E-02-8.67057E+00-6.51954E-02-8.76002E-02
 -1      2320 6.46173E+01 1.42779E-01 2.25243E-02-8.72797E+00-3.22238E-03-5.41435E-02
 -1      2321 6.26184E+01-6.83074E-03-5.23790E-02-8.60800E+00 1.03352E-01-5.99917E-02
 -1      2322-2.61254E-01-1.55010E-01-8.56649E-03-9.26162E+00-2.90298E-02 1.21516E-02
 -1      2323-5.81971E+01 1.24146E-02 4.18558E-02-7.97936E+00 1.12179E-01 6.15152E-02
 -1      2324-6.03544E+01-8.05407E-02-1.98205E-03-8.14152E+00 2.19770E-02 6.02322E-02
 -1      2325-6.02254E+01 1.69824E-02 7.02120E-02-8.08859E+00-2.26060E-02 4.64941E-02
 -1      2326-6.26877E+01 4.35990E-02-5.06281E-02-8.00067E+00-2.76391E-04 1.16115E-01
 -1      2327-2.25069E-01-5.16841E-03 5.03705E-02-9.23786E+00-2.45936E-02-6.42571E-02
 -1      2328-6.77349E+01 1.53634E-01-2.25601E-02-8.00956E+00 2.67249E-02 3.01467E-02
 -1      2329-6.99376E+01-5.05617E-02-6.19006E-02-7.73883E+00-9.85522E-02 5.97049E-02
 -1      2330-7.21379E+01 1.88733E-01-2.29904E-01-6.68695E+00-4.26502E-01-2.27355E-01
 -1      2331-7.00600E+01-1.36135E-01 6.98108E-02-7.47486E+00-2.12990E-01 9.96291E-02
 -1      2332-4.24957E-01-6.11798E-02-6.26228E-03-8.47115E+00-1.74531E-01-2.21314E-02
 -1      2333 5.12569E+01 1.90051E-01 1.21271E-01-8.78152E+00 3.66796E-02 6.45720E-03
 -1      2334 4.89458E+01 1.56582E-01 3.57601E-02-8.56681E+00-3.08521E-02 4.19780E-02
 -1      2335 5.33130E+01 9.23526E-02 5.05201E-02-8.78349E+00 4.41233E-02-8.12088E-02
 -1      2336 5.08827E+01 1.53791E-02-1.31524E-02-8.77743E+00-4.00702E-02-3.83152E-02
 -1      2337-3.21361E-01 7.34025E-02 4.81304E-02-9.24940E+00 6.89244E-04-3.95209E-02
 -1      2338 4.63755E+01 1.48914E-01 7.40884E-02-8.78716E+00-1.49160E-02-7.51884E-02
 -1      2339 4.38292E+01 1.09976E-01-4.31634E-02-8.78818E+00-6.49551E-02-9.50961E-02
 -1      2340-1.07448E+00 1.59171E-01-5.92762E-02-9.27360E+00-1.14701E-02-2.60245E-02
 -1      2341 4.38607E+01 1.61056E-01-5.19162E-04-8.85728E+00 1.00294E-02-1.12259E-01
 -1      2342 4.19907E+01 1.21682E-01-5.03139E-02-8.79128E+00-1.78505E-02-9.54019E-02
 -1      2343 5.77313E+01 2.93676E-02 3.54111E-02-8.76750E+00-1.20397E-01-6.77648E-02
 -1      2344 5.54846E+01-6.04442E-02-6.90425E-02-8.86932E+00 2.00383E-02-4.21375E-02
 -1      2345 5.55496E+01 6.37240E-02 4.85353E-02-8.76461E+00 2.83509E-03-9.70086E-02
 -1      2346 5.33873E+01 3.88451E-02-1.08850E-02-8.84416E+00-1.57686E-02-1.28198E-01
 -1      2347-3.21708E-01 4.51724E-02 6.29995E-02-9.25094E+00-6.53477E-03 5.70403E-02
 -1      2348 6.94051E+01-9.33751E-01-1.27834E-01-2.54511E+00-1.41898E+00 4.81002E-01
 -1      2349 6.92971E+01-5.04882E-01 1.79098E-01-5.22328E+00-1.11680E+00 6.05322E-01
 -1      2350 6.97767E+01-1.08870E+00-1.66934E+00-3.46343E-01-2.28302E+00 1.18987E+00
 -1      2351-6.66042E-01-2.08314E-01 5.69999E-02-2.86037E+00-2.44826E+00-4.22477E-01
 -1      2352 3.77501E+01 1.98911E+00-1.44440E-02 3.50704E+00-3.95972E+00-1.43248E-01
 -1      2353 1.03933E+02-4.80810E+00-2.86183E+00 5.01396E+00-4.36830E+00 1.13430E+00
 -1      2354 2.82084E+01 1.55324E-01 7.94478E-02-8.65907E+00 3.37931E-03-9.14968E-02
 -1      2355 2.58262E+01 1.57168E-01-6.76248E-02-8.72523E+00-5.92887E-03 1.11997E-02
 -1      2356 3.10655E+01 3.75651E-01-3.41980E-03-8.78264E+00 5.12194E-04-5.72070E-02
 -1      2357 2.83217E+01 1.71996E-01-5.75038E-02-8.66617E+00 5.40182E-02-8.01357E-02
 -1      2358-2.10170E-01 1.08105E-01-1.14583E-02-9.00778E+00-5.85806E-02-2.44848E-02
 -1      2359-8.15746E+00 2.27759E-01 2.12749E-02-8.30062E+00 4.05236E-02 9.54424E-02
 -1      2360-1.03195E+01 1.84382E-01 5.82954E-02-8.31589E+00-9.21731E-03 6.24644E-02
 -1      2361-1.02471E+01 2.07487E-01 1.15539E-01-8.19931E+00-5.04067E-02 1.11904E-01
 -1      2362-1.25149E+01 3.30375E-01 7.74072E-02-8.01015E+00-1.05704E-02-6.63978E-03
 -1      2363-3.24532E-01 2.06644E-01 1.54916E-02-9.22685E+00-3.57501E-02-1.54607E-02
 -1      2364 5.52642E+00 2.71823E-01 8.03464E-03-8.50509E+00-8.51134E-02-7.83854E-02
 -1      2365 3.41652E+00 2.01488E-01 4.16677E-02-8.44423E+00 2.58804E-02-1.05748E-01
 -1      2366-3.47417E-01 1.53692E-01 9.53126E-02-8.92555E+00-3.88973E-02 6.29283E-02
 -1      2367 3.49660E+00-8.11442E-03 1.26952E-03-8.20365E+00-7.17446E-03-1.01307E-01
 -1      2368 4.62272E+00-4.08937E-01-6.66075E-02-7.60503E+00-5.69758E-02-1.35680E-02
 -1      2369 1.41157E+00-3.20420E-02-4.83670E-02-8.24496E+00 1.82040E-02-1.29327E-01
 -1      2370 4.21729E+01 1.16558E-01 4.95823E-02-8.86092E+00 3.04520E-02-6.78549E-02
 -1      2371 3.95847E+01 1.52174E-02-4.60522E-02-8.82189E+00 1.70408E-01-6.71325E-02
 -1      2372 3.94694E+01 1.46649E-01-1.51183E-02-8.61922E+00-2.57859E-02 3.99548E-02
 -1      2373 3.73347E+01 1.67071E-01-2.50881E-02-8.73615E+00-8.05219E-02-5.44728E-02
 -1      2374-4.79476E-01 6.87613E-02 9.55953E-02-9.15391E+00 5.11412E-02 6.12131E-03
 -1      2375 7.79835E+00 1.98546E-01 4.26340E-02-8.50005E+00-5.33092E-03-1.68989E-01
 -1      2376 5.58736E+00 1.54329E-01-1.54700E-02-8.48860E+00 1.29645E-02-9.52677E-02
 -1      2377 9.97996E+00 3.03366E-01 2.90377E-02-8.56130E+00 7.52919E-02-9.44336E-02
 -1      2378 7.85855E+00 2.41202E-01-4.19321E-02-8.41897E+00-1.66271E-02-8.09371E-02
 -1      2379-1.81407E-01 3.31655E-01-1.41786E-01-9.18877E+00 3.78771E-02-2.75833E-02
 -1      2380 3.74641E+01 1.67614E-01 6.07295E-02-8.72242E+00 4.66023E-02-2.97149E-03
 -1      2381 3.52790E+01 1.49129E-01 5.39593E-02-8.64934E+00-3.33195E-02 5.89078E-02
 -1      2382 3.50223E+01 2.46229E-01 1.26667E-01-8.63790E+00-1.04971E-01-6.04792E-02
 -1      2383 3.34098E+01 2.32116E-02-7.91517E-04-8.83931E+00 1.33470E-03-3.21535E-03
 -1      2384-9.53665E-02 2.66757E-01 3.41742E-02-8.96695E+00 5.56757E-02 7.00720E-04
 -1      2385-4.91156E+01 7.54336E-02 3.57068E-02-7.92486E+00 1.20265E-01 7.40450E-02
 -1      2386-5.13461E+01-2.81413E-02-6.73479E-02-8.02929E+00-2.25347E-02 5.24925E-02
 -1      2387-4.75464E+01 2.18262E-01 7.74930E-02-7.81624E+00-5.24889E-02 2.44594E-02
 -1      2388-4.87983E+01 1.60418E-01 3.80092E-02-7.74204E+00 3.66753E-02-5.22175E-02
 -1      2389 7.33683E-02 2.60461E-01-3.75049E-02-8.97699E+00 1.21715E-05 6.21254E-04
 -1      2390-4.03832E+01 1.33993E-01 1.00707E-01-7.84706E+00-5.60834E-02 7.61812E-02
 -1      2391-4.32352E+01-3.11382E-02-9.22280E-02-7.80753E+00-9.90235E-03 1.10019E-02
 -1      2392-6.81883E-01 9.82596E-02-6.87368E-02-9.24280E+00 9.33839E-03 2.96526E-02
 -1      2393-4.31105E+01 1.95602E-01 6.47730E-02-7.84141E+00-3.38415E-02 9.10135E-02
 -1      2394-4.58261E+01 8.71007E-02-4.51882E-02-7.93723E+00 3.10219E-02 1.26616E-01
 -1      2395-5.13004E+01 7.70313E-02 4.64354E-02-7.92650E+00-8.42391E-03 9.65186E-02
 -1      2396-5.34952E+01 2.24151E-02-1.06142E-02-8.02224E+00 6.39719E-02 1.40551E-01
 -1      2397-5.34742E+01 6.47833E-02 6.26661E-02-7.98188E+00-1.77979E-02 6.83670E-02
 -1      2398-5.58591E+01 3.12247E-02 2.27524E-02-7.88292E+00 1.69783E-03 5.06157E-02
 -1      2399-1.33579E-01 2.53288E-02 1.20620E-01-9.25974E+00-7.70096E-03-6.93321E-03
 -1      2400-3.25133E+01-4.66697E-01-7.91001E-02 3.41717E+00-3.58298E+00-4.14256E-01
 -1      2401-6.94356E+01 6.91848E-01 9.45335E-01-1.72178E-01-2.19430E+00-1.88883E+00
 -1      2402-1.01069E+02 5.04582E+00 3.75799E+00 4.71257E+00-4.71536E+00-1.62622E+00
 -1      2403-1.66241E+00 3.69273E-01-1.80575E-01-8.20008E+00 2.42184E-02-2.46243E-02
 -1      2404-4.83119E+00 8.08152E-01 3.37745E-02-7.49967E+00 1.29885E-03-1.04045E-01
 -1      2405-3.81933E+00 4.00908E-01-4.08910E-02-8.18162E+00-8.77532E-02 8.75819E-02
 -1      2406 1.68829E+01 3.19457E-01 2.77033E-02-8.70226E+00-2.45202E-02-6.74703E-02
 -1      2407 1.46302E+01 2.59634E-01-2.48569E-02-8.59205E+00 7.19591E-02-7.30245E-02
 -1      2408 1.91398E+01 2.02884E-01 3.12561E-02-8.71262E+00 1.22422E-01-1.83488E-01
 -1      2409 1.67767E+01 7.53029E-02-5.63337E-02-8.59264E+00 3.17012E-02-9.01869E-02
 -1      2410-1.96064E+01 3.42347E-01 4.77573E-02-8.10229E+00 1.71319E-01 7.47642E-02
 -1      2411-2.18154E+01 2.25443E-01-6.89754E-02-8.12898E+00 3.92868E-02 8.70769E-02
 -1      2412-2.16488E+01 2.42807E-01 6.48479E-02-8.04194E+00 1.15148E-02 7.55221E-02
 -1      2413-2.40279E+01 2.05664E-01-4.41575E-02-8.02947E+00 5.92590E-02 1.03301E-01
 -1      2414 6.01676E+01 1.20546E-01 6.11654E-02-8.68867E+00 8.60016E-02-2.45606E-02
 -1      2415 5.80380E+01 9.29653E-02 4.82897E-02-8.56172E+00-4.10158E-02 6.10333E-02
 -1      2416 6.21527E+01-6.67251E-02-7.65617E-02-8.49726E+00 1.59144E-03 5.37066E-02
 -1      2417 6.00087E+01 6.71190E-02-4.18223E-02-8.72794E+00-2.46824E-02 3.30444E-02
 -1      2418-6.26666E+01-6.82289E-02 5.04508E-02-7.99531E+00 1.59940E-02 7.67734E-02
 -1      2419-6.47707E+01-2.01430E-01 8.06919E-02-8.16563E+00 7.14067E-03 8.53283E-02
 -1      2420-6.47442E+01-6.81933E-02 1.03230E-01-8.05424E+00-5.54423E-02 1.12961E-01
 -1      2421-6.74459E+01 5.33382E-02 9.60403E-02-7.88629E+00-1.57979E-02-2.11917E-02
 -1      2422 7.06526E+01-2.99556E-01 2.39393E-01-6.88880E+00-3.84550E-01 2.67260E-01
 -1      2423 6.94296E+01-9.15010E-02-9.34693E-02-7.83299E+00-2.18233E-01-3.08477E-02
 -1      2424 6.98055E+01-7.34557E-02 3.83432E-02-8.13099E+00-1.61705E-01-3.25870E-02
 -1      2425 6.73276E+01-1.75525E-01 4.45189E-03-8.53173E+00-5.71415E-02-7.55353E-02
 -1      2426-1.20203E+00-9.06197E-03 9.22340E-02-6.95154E+00-1.21868E+00-5.43523E-02
 -1      2427-7.21905E+01 4.38219E-01-1.47007E-01-5.02366E+00-1.08672E+00-4.86371E-01
 -1      2428-7.13556E+01 8.02715E-01 1.63693E-02-2.51594E+00-1.34979E+00-6.66809E-01
 -1      2429-2.85984E+01 1.48784E-01 7.35509E-02-7.94444E+00 1.75352E-02 9.49279E-02
 -1      2430-3.09783E+01-4.10623E-02 4.59520E-02-8.02591E+00-4.12371E-02 3.45700E-02
 -1      2431-1.96960E-01 1.69332E-01-1.27404E-02-9.26562E+00-1.20779E-02-4.19161E-03
 -1      2432 3.11031E+01 2.00026E-01-2.75703E-02-8.70959E+00 1.65587E-02-7.88937E-02
 -1      2433 3.36909E+01 1.87128E-01 6.94384E-02-8.81397E+00 7.54240E-02-3.38852E-02
 -1      2434-1.27337E+01 3.82032E-01-3.27713E-02-8.21621E+00 7.34313E-02 2.44564E-02
 -1      2435-1.49430E+01 2.67117E-01-5.61957E-02-8.18590E+00-3.05190E-02 1.16684E-01
 -1      2436-2.99319E-01 1.66748E-01 7.09666E-02-9.03914E+00-1.06572E-03 2.84913E-02
 -1      2437 2.59989E+01 2.66391E-01-1.73795E-03-8.67916E+00 5.17228E-02-8.87607E-02
 -1      2438 2.36986E+01 1.78669E-01-3.55313E-02-8.75418E+00-2.98514E-02-1.20368E-01
 -1      2439-1.97737E-01 2.68724E-01-4.83016E-02-9.27627E+00 5.72545E-03 3.08568E-02
 -1      2440 4.85802E+01 1.06698E-01 4.76340E-02-8.79668E+00-1.25526E-01-6.47131E-02
 -1      2441 4.66567E+01-2.02897E-02-8.70333E-02-8.90812E+00 1.79038E-02-6.22662E-02
 -1      2442-8.70549E-01 8.77646E-02 5.09683E-02-9.25214E+00 7.11872E-03 3.26823E-02
 -1      2443-4.59816E+01 1.52844E-01 2.72405E-02-7.94943E+00-2.61133E-02 1.35468E-01
 -1      2444-4.82220E+01 8.38893E-02 1.81401E-02-7.83729E+00 1.01888E-02 6.98195E-02
 -1      2445-5.56166E+01 1.82947E-01 1.03744E-01-7.88563E+00-6.73204E-02 2.08958E-02
 -1      2446-5.78607E+01 9.30948E-02 5.36803E-02-7.81053E+00 3.01190E-02-5.97022E-02
 -1      2447 8.35141E-02 1.68431E-01-3.44920E-02-8.97911E+00-4.78890E-03 5.69900E-03
 -1      2448-3.07737E-01-4.30723E-02-1.09626E-02-8.97160E+00-6.25814E-02 7.99441E-03
 -1      2449-1.38176E-01 2.99968E-04 1.01579E-02-9.15172E+00-1.63331E-02 1.35884E-02
 -1      2450-6.83380E-02 3.45496E-01-9.42523E-02-9.15109E+00 5.00995E-02 3.69429E-03
 -1      2451 1.10834E+01-1.80484E-01-9.38635E-02-1.66921E+01-2.31254E-01 3.83209E-02
 -1      2452 5.28514E-01 1.46713E-01 3.35217E-02-7.70176E+00-5.05489E-02-1.64317E-02
 -1      2453-1.88223E-01 3.01514E-01-3.81218E-02-7.79272E+00 3.38059E-02-2.26053E-02
 -1      2454-3.90998E-01-2.19862E-01-1.01775E-02-8.40919E+00 5.50531E-02 2.66784E-03
 -1      2455-3.12557E-01-7.70424E-02-2.82880E-02-7.87081E+00-4.79373E-04 2.26529E-03
 -1      2456-1.64895E-01 2.03248E-01 3.65692E-03-7.79484E+00-3.67493E-03 2.83133E-02
 -1      2457-1.74485E-01 1.97942E-01-7.08030E-03-7.83609E+00-3.54178E-03 5.73512E-02
 -1      2458-1.95756E-02 2.03693E-01 2.64259E-02-7.37865E+00 1.45214E-02 6.16468E-02
 -1      2459-3.50866E-02 2.44082E-01-3.27021E-02-7.79727E+00 1.39495E-02-2.75637E-02
 -1      2460-2.03157E-01 1.30163E-01 2.16228E-02-7.84134E+00 1.45905E-02-6.20113E-02
 -1      2461-2.68105E-01 1.88458E-02-1.61135E-02-7.86642E+00-7.11898E-04-7.80631E-04
 -1      2462-1.91705E-01-5.88545E-02-4.78707E-02-7.88021E+00-9.87601E-03-5.82673E-02
 -1      2463-1.85249E-01 9.49658E-02-6.39421E-03-7.84608E+00-6.35545E-03-4.92152E-02
 -1      2464-2.96106E-01-1.43524E-02-1.58579E-02-7.41616E+00-1.22529E-03-2.42579E-03
 -1      2465-2.43795E-01 5.76186E-04-2.55478E-02-7.85740E+00 1.30708E-02-4.99191E-02
 -1      2466-1.46051E+01 8.51608E-02-1.06281E-02-7.36434E+00-1.69660E-02-3.01222E-02
 -1      2467-5.25315E+00 2.95411E-01-3.33225E-02-7.49801E+00 1.27306E-02 1.01494E-04
 -1      2468-2.96622E+01-6.61647E-02-4.73818E-02-7.48552E+00 1.52440E-03-3.47243E-02
 -1      2469-4.46311E+00 8.35784E-01-1.31679E-01-6.63176E+00-5.23457E-02 1.93409E-01
 -1      2470-1.27002E+02-6.80165E-01-6.81579E+00-1.40243E+01 3.42392E+00-2.02235E+00
 -1      2471-4.74035E+00 8.92500E-01-1.14603E-01-6.54696E+00 6.29505E-02-2.02953E-01
 -1      2472 1.26681E+02 6.07395E-01 7.06048E+00-1.45298E+01 4.04931E+00 2.38553E+00
 -1      2473 6.74915E+01-4.25040E-02-1.70884E-02-7.68966E+00 4.08696E-02-1.41756E-01
 -1      2474-7.38835E+01-8.37576E-02-7.01800E-03-6.80323E+00-1.00071E-02 2.16762E-01
 -1      2475 2.07587E+01 1.56925E-01 1.74676E-03-7.47745E+00-3.69966E-03-1.69698E-01
 -1      2476-2.10709E+01 1.69478E-01-2.61571E-02-6.88093E+00 1.10171E-02-1.31601E-01
 -1      2477 3.16156E+01 1.44276E-01 2.24016E-02-7.58560E+00-3.06168E-02 6.37696E-02
 -1      2478 2.63945E+01 1.54136E-01-3.41118E-02-7.54300E+00 1.48788E-02 6.33761E-02
 -1      2479-2.65891E+01 1.88817E-01 1.46114E-02-6.81127E+00 7.16940E-04 6.74803E-02
 -1      2480-3.21873E+01 1.25591E-01-2.24731E-02-6.78410E+00-2.90336E-03 1.37492E-01
 -1      2481 7.34711E+01-8.55782E-02-4.58265E-02-7.56205E+00 1.07937E-02 1.78187E-01
 -1      2482-4.60801E+01 1.25434E-01-3.30695E-03-6.64526E+00-1.08619E-02 1.79706E-01
 -1      2483 5.11069E+01 3.07729E-02-1.77720E-02-7.74199E+00 8.56797E-03-7.19837E-02
 -1      2484-5.74215E+01-2.65701E-02-3.46922E-02-6.60877E+00-3.25573E-02-1.33944E-01
 -1      2485 4.57605E+01 8.87060E-02 4.55461E-03-7.70650E+00-3.15991E-03 1.69527E-01
 -1      2486 6.24611E+01 2.77613E-02-1.69236E-02-7.70050E+00 2.80132E-02 1.47550E-01
 -1      2487-6.82476E+01-2.87899E-02-3.40577E-02-6.69651E+00-3.11483E-02-1.29170E-01
 -1      2488-5.17176E+01 9.92440E-02 7.90851E-03-6.64837E+00 1.49900E-02-1.02551E-01
 -1      2489-6.27238E+01 1.55638E-03 9.31136E-03-6.66161E+00-4.72405E-02 1.36947E-01
 -1      2490 5.68378E+01 1.35438E-01-6.82708E-03-7.66065E+00 2.30338E-02-1.00114E-01
 -1      2491-1.26931E+02-1.84796E+00-7.53462E+00-1.36814E+01-3.64960E+00 2.33759E+00
 -1      2492 4.33151E+00-4.66571E-01 1.18282E-01-6.70866E+00-6.55809E-02-2.38506E-01
 -1      2493 1.31721E+01 1.70089E-01-1.88501E-02-7.23969E+00-6.25506E-02-7.92821E-02
 -1      2494 8.45521E+01-1.06735E-01-4.12964E-02-7.43718E+00 6.99989E-03-1.06226E-01
 -1      2495-9.06588E+01-1.60475E-01 8.09469E-02-8.18790E+00 9.83940E-01 7.99746E-01
 -1      2496-7.37497E+00 1.98185E-01-1.20938E-02-6.97300E+00-4.64920E-03 1.72298E-01
 -1      2497 1.31507E+02 2.13713E+00 8.83348E+00-1.44509E+01-4.29937E+00-2.74115E+00
 -1      2498 1.66040E+01 2.61175E-01-4.44131E-03-7.29629E+00 1.18629E-02-1.67109E-01
 -1      2499 8.83775E+01-9.42261E-02-8.93840E-02-7.47898E+00 1.17764E-01-1.97859E-01
 -1      2500 4.59949E+00-5.87122E-01 1.62992E-01-6.60402E+00 8.71904E-02 2.66220E-01
 -1      2501 4.29560E+01 1.39898E-01 5.93975E-03-7.62721E+00 3.33832E-02-1.06060E-01
 -1      2502 4.14615E+01 1.36558E-01 1.18315E-02-7.47144E+00-7.05588E-04-9.09632E-02
 -1      2503 9.50638E+01-2.09485E-01-2.36774E-01-8.38349E+00-9.87620E-01 8.33761E-01
 -1      2504 9.08946E+00 2.09802E-01 3.81343E-02-6.66105E+00 1.31523E-02-1.06479E-01
 -1      2505-4.70942E+00 2.57640E-01-6.88193E-03-7.77903E+00-2.05180E-02-1.09077E-01
 -1      2506-4.35850E+01 1.95355E-01-1.46354E-02-6.35159E+00-1.51255E-02 1.37712E-01
 -1      2507-4.82399E+01 2.05514E-02-1.13611E-02-6.23520E+00 1.26583E-02 1.50592E-01
 -1      2508-1.40142E+01 2.50203E-01-1.35344E-02-6.58900E+00-1.78772E-02 1.48280E-01
 -1      2509 1.37335E+01 2.51717E-01 2.15714E-02-7.13371E+00 2.26826E-03 1.28893E-01
 -1      2510 1.85318E+01 1.68400E-01 1.73873E-02-7.23879E+00-2.67117E-02 1.24746E-01
 -1      2511-1.85726E+01 2.08862E-01 7.68274E-03-6.68845E+00-3.03046E-03 1.03492E-01
 -1      2512-9.27484E+01-4.92712E-02 8.39403E-03-6.48446E+00-1.54803E-03 1.74259E-01
 -1      2513-9.74114E+01-2.29424E-01 6.80080E-02-6.52867E+00 7.47888E-02 2.52974E-01
 -1      2514 6.82986E+01 1.30061E-01 1.64799E-03-7.45866E+00-4.17348E-02 1.82218E-01
 -1      2515-3.87619E+01 1.32150E-01-3.47428E-02-6.41856E+00 9.34356E-04-1.27473E-01
 -1      2516 2.39924E+01 1.67686E-01-4.70138E-02-7.20255E+00 1.18652E-02 1.03130E-01
 -1      2517-2.42554E+01 1.92719E-01 3.36544E-02-6.49495E+00-1.32584E-02 9.29600E-02
 -1      2518-3.07198E+01 2.12827E-01 1.71269E-02-6.45479E+00-1.03201E-02-1.44459E-01
 -1      2519 3.04715E+01 1.29215E-01-1.20905E-02-7.28927E+00 2.51415E-02-1.49658E-01
 -1      2520 3.71295E+01 1.78816E-01-4.34225E-02-7.41728E+00 4.64766E-02-9.20206E-02
 -1      2521-8.67018E+01-1.22261E-02-2.34026E-02-6.28079E+00 3.33776E-02-1.79818E-01
 -1      2522 5.36153E+01 9.06830E-02-3.23893E-02-7.48519E+00-1.71177E-02-1.13694E-01
 -1      2523 8.12717E+01 3.91374E-02-4.37586E-03-7.39667E+00-3.81166E-02 1.62871E-01
 -1      2524-7.36570E+01 8.35563E-02-3.29389E-03-6.18216E+00 3.73420E-02-1.60659E-01
 -1      2525 8.65973E+01-1.42382E-01-3.22533E-02-7.31976E+00-5.95765E-03-1.77662E-01
 -1      2526-5.39134E+01 9.95877E-02 2.71676E-02-6.30623E+00 2.87930E-03-1.37399E-01
 -1      2527-6.85087E+01-4.22512E-02-2.76370E-02-6.16883E+00 2.61841E-02 1.69117E-01
 -1      2528-8.17845E+01-1.05383E-01-2.52839E-02-6.22904E+00 2.09051E-02 1.61563E-01
 -1      2529 7.34226E+01-5.35632E-02-2.36936E-02-7.43828E+00-1.83903E-02-1.61462E-01
 -1      2530-6.06173E+01 1.18626E-01 1.81295E-02-6.18608E+00 2.32330E-02 1.56881E-01
 -1      2531 6.03092E+01 2.25280E-02-3.46231E-02-7.48764E+00-2.87689E-02 1.64029E-01
 -1      2532 4.84579E+01 1.89387E-01-1.95125E-02-7.38065E+00-4.14857E-02 1.86793E-01
 -1      2533 9.20824E+01-1.33963E-01-1.12348E-02-7.27943E+00-2.39344E-02 1.66999E-01
 -1      2534 9.67747E+01-1.39649E-01-8.55800E-02-7.32122E+00-1.34134E-01 2.15064E-01
 -1      2535-1.02025E+02-1.99206E-01 3.36576E-01-7.46179E+00-8.52394E-01-9.56892E-01
 -1      2536 1.04082E+02-2.17727E-01-2.73606E-01-7.77648E+00 8.23369E-01-8.69593E-01
 -1      2537-4.75982E+01 8.87425E-02-3.00425E-02-6.03383E+00 1.89082E-02-1.52657E-01
 -1      2538-6.23421E+01 1.70073E-01-2.39354E-03-5.55707E+00-1.84044E-02-1.37000E-01
 -1      2539-1.47039E+01 9.91783E-02-4.71215E-03-6.50700E+00 2.31880E-02-1.48243E-01
 -1      2540-2.14809E+01 1.89921E-01 2.40816E-02-6.33759E+00-3.06072E-03-1.47740E-01
 -1      2541 4.48225E+01 1.33499E-01-9.42748E-03-7.40861E+00-1.62952E-02 9.82472E-02
 -1      2542-1.07803E+02-1.02428E-01 6.27570E-02-6.36620E+00-1.29673E-01-2.99349E-01
 -1      2543-1.01180E+02-1.86498E-01-1.86043E-02-6.22001E+00 4.53657E-02-1.59805E-01
 -1      2544 1.16968E+01 1.84073E-01-3.02473E-02-6.72758E+00-5.09394E-02 1.08575E-01
 -1      2545 8.92711E+01 7.07268E-02-7.11428E-03-7.32380E+00-1.46652E-03-1.40503E-01
 -1      2546 3.17029E+01 2.29125E-01-5.73896E-03-6.91621E+00-1.26000E-02 1.73376E-01
 -1      2547-4.14789E+01 1.69733E-01-1.29916E-02-6.10493E+00-1.60856E-02-1.18532E-01
 -1      2548-3.19406E+01 1.09050E-01 1.42501E-03-6.01228E+00 5.81178E-03 1.72159E-01
 -1      2549 4.73705E+01 1.25063E-01 9.51051E-03-7.11508E+00 2.27468E-02-1.13558E-01
 -1      2550 1.04987E+02-4.84954E-02-1.29680E-02-7.04471E+00 4.42565E-02-1.68760E-01
 -1      2551-9.18509E+01 4.42529E-02-2.26751E-02-5.90817E+00 1.72981E-02 1.27536E-01
 -1      2552 9.15346E+01-6.47753E-02 1.10754E-03-7.32535E+00-3.46021E-02 1.22690E-01
 -1      2553-8.97798E+01-8.04510E-02-1.49446E-02-5.88033E+00 2.79700E-02-1.42611E-01
 -1      2554 7.44182E+01 7.84119E-02-1.17137E-02-7.35024E+00 9.77157E-04 1.62393E-01
 -1      2555-7.45142E+01 4.41631E-02-1.96433E-03-5.78521E+00-3.05738E-02 1.02423E-01
 -1      2556-6.66648E+01 3.19720E-02 3.81720E-03-5.74260E+00 7.75695E-03-1.61421E-01
 -1      2557 6.64066E+01 1.49905E-01-1.23794E-02-7.19403E+00 1.45994E-02-1.83015E-01
 -1      2558 6.46675E+00 1.20087E-01 1.52420E-02-7.18088E+00 3.67379E-02 1.38655E-01
 -1      2559 4.01831E+01 2.04656E-01 8.35274E-03-7.14881E+00 7.10581E-03-1.23369E-01
 -1      2560-4.05059E+01 1.53589E-01 3.19836E-03-6.13819E+00-2.35081E-02 1.28289E-01
 -1      2561 4.05646E+01 1.72902E-01-9.61960E-03-7.12738E+00-5.35139E-03 1.38794E-01
 -1      2562-7.56392E+01 4.07186E-02-8.68688E-03-5.85086E+00 8.17551E-03-1.46693E-01
 -1      2563 4.51751E+01 4.78849E-02-7.22075E-02-7.96358E+00 4.72781E-03-1.42941E-01
 -1      2564 9.03721E+01 3.70380E-02 1.27166E-02-6.04728E+00 2.10645E-02-1.86071E-01
 -1      2565 1.36085E+02 1.20947E-01 7.94384E-02-5.11080E+00-1.18236E-02-2.28703E-01
 -1      2566 7.39627E+01 9.29097E-03 7.12830E-02-7.47800E+00-3.03626E-02-1.38715E-01
 -1      2567 1.20094E+02 2.10987E-01 1.06705E-01-5.16160E+00-5.45037E-02-1.46478E-01
 -1      2568 2.78027E+01-1.22145E-01-2.16591E-01-7.78161E+00 6.82788E-02 7.26338E-02
 -1      2569 1.14707E+02-1.28045E-01-2.11385E-01-5.25315E+00 8.66373E-02-1.10415E-01
 -1      2570 7.05326E+01 5.32774E-02-7.10850E-02-7.62363E+00 1.44403E-02-1.38960E-01
 -1      2571 2.59751E+01 1.94753E-01 1.32599E-01-7.86890E+00-1.12474E-02-1.90388E-02
 -1      2572-7.45859E+00 5.36013E-01-6.94041E-02-3.84865E+00 2.74329E-02 1.77253E-01
 -1      2573-1.03458E+01 3.66324E-01-1.43504E-01-3.81363E+00-4.29332E-02-4.26797E-03
 -1      2574-7.37506E+00 6.46337E-01-6.43723E-02-3.76287E+00-3.43954E-02-1.47256E-01
 -1      2575-1.04732E+01 4.01972E-01-1.25036E-01-3.72192E+00 5.73012E-02 6.99062E-03
 -1      2576-4.14611E+00 9.36959E-01-2.35522E-02-6.50330E+00 1.07216E-02 4.76107E-03
 -1      2577-2.67123E+00 3.07592E-01-8.86346E-02-7.58377E+00-6.26290E-02 7.08305E-02
 -1      2578-2.62499E+00 4.49509E-01-1.51656E-01-7.49455E+00-8.32793E-02 1.01937E-01
 -1      2579 2.45003E+00 2.87402E-03 1.36719E-01-7.59165E+00-7.58803E-02-1.21394E-01
 -1      2580 9.59398E-03 1.94109E-01 1.58694E-02-6.83467E+00-8.04369E-02 4.64035E-03
 -1      2581 2.32161E+00 1.33646E-01 1.05287E-01-7.66298E+00-6.61331E-02-8.63759E-02
 -1      2582-6.11137E+01-2.03438E+00-2.81177E+00-6.63606E+00 3.15159E+00-4.65230E-01
 -1      2583-5.58967E+01-1.03194E+00-2.84832E+00-1.53973E+01 2.83085E+00-1.87813E-01
 -1      2584 5.21041E+00-4.69293E-01 4.41063E-04-9.42297E+00 2.95736E+00 1.99781E-01
 -1      2585 6.06969E+01 2.19544E+00 3.24642E+00-7.03567E+00 3.66951E+00 1.29304E+00
 -1      2586 6.82451E+01 9.53700E-01 3.30439E+00-1.48195E+01 2.75753E+00 2.15607E-01
 -1      2587-1.08963E+00-3.38993E-01 5.59249E-01-1.40317E+01 3.64450E+00-9.11195E-01
 -1      2588-1.49928E+02-3.17124E-01-8.65412E+00-8.37144E+00-1.80332E-01 1.38559E-01
 -1      2589-2.17613E+02-1.75002E-01-1.52570E+01-5.79161E+00 1.58901E+00-1.48742E+00
 -1      2590-2.18275E+02-9.33420E-01-1.46276E+01-6.50819E+00-1.64605E+00 2.01713E+00
 -1      2591-1.28414E+02-3.83960E-01-1.14435E+01-1.48091E+01-9.93967E-02-3.79608E-01
 -1      2592-5.56932E+01-3.91875E-01-2.59523E+00-1.49948E+01-3.22710E+00 1.89350E-01
 -1      2593 4.44844E+01 1.38041E-04-1.21477E-01-4.34538E+00 3.07928E-02-3.01514E-01
 -1      2594 4.14841E+01 3.87954E-01 2.01088E-01-4.54697E+00-2.05751E-02-1.84898E-02
 -1      2595 2.53139E+01 4.70740E-02-1.02105E-02-7.30006E+00-6.68020E-02-1.69816E-01
 -1      2596 2.30777E+01 5.63200E-01 1.23712E-01-7.23769E+00 7.61178E-02-1.24501E-01
 -1      2597 1.87857E+01 1.37875E-01-8.19628E-02-7.37072E+00-6.29104E-02-2.53678E-01
 -1      2598 3.77186E+01 2.95249E-02-1.26182E-01-4.52337E+00-2.07072E-02-8.44894E-02
 -1      2599 9.84352E+00-4.10038E-02-1.43092E-01-7.72937E+00-1.36614E-02-1.95823E-01
 -1      2600 2.99867E+01 1.24405E-01-1.38497E-02-5.32925E+00-2.01710E-02-1.31755E-01
 -1      2601 8.73905E+00 4.60646E-01 1.41244E-01-7.71842E+00-1.48311E-02-2.32196E-01
 -1      2602 1.46227E+01 2.42111E-01 7.07235E-02-7.31806E+00 1.38512E-02 3.75128E-02
 -1      2603-1.46283E+02 1.54390E-01-1.92544E+00-8.16722E+00-9.65360E-02 6.17198E-02
 -1      2604-2.12671E+02 3.18515E-01-7.13989E+00-5.30285E+00-1.16681E+00 1.01413E+00
 -1      2605 4.34833E+00-2.71812E-01-2.66526E-02-9.60244E+00 2.56305E+00-3.29253E-02
 -1      2606 5.85668E+01-1.32108E+00 1.92356E+00-7.88214E+00 2.91407E+00 3.46165E-01
 -1      2607 2.35911E+01 3.78698E-01 1.17000E-01-4.21775E+00-7.91523E-02-9.60203E-02
 -1      2608 1.45904E+01 5.29418E-02-1.52697E-02-7.15094E+00-8.72983E-02-1.56147E-01
 -1      2609 2.37497E+01 6.29680E-02-6.43096E-02-3.98004E+00 6.00508E-02-2.87652E-01
 -1      2610 2.00990E+01 2.11364E-02 2.82531E-02-3.86338E+00 2.54625E-02-2.52352E-01
 -1      2611 1.24118E+01 4.24812E-01 8.26734E-02-6.85664E+00 1.09823E-01-1.41065E-01
 -1      2612 1.11543E+01 7.75350E-02-3.42621E-02-6.95374E+00-4.62480E-02-5.04466E-02
 -1      2613 6.26246E+00 6.29876E-02-9.67500E-02-7.45970E+00-5.04414E-04-3.08614E-01
 -1      2614 7.78361E+00 2.09515E-01 3.21876E-02-7.18381E+00 1.13624E-02-2.07144E-02
 -1      2615 5.03612E+00 4.69233E-01 2.66700E-01-7.15426E+00 2.97940E-02-1.64540E-01
 -1      2616-1.67827E+02 2.36537E-01 4.14730E-02-2.72731E+00 7.17576E-02-2.10449E-02
 -1      2617-4.42043E+01-3.50258E-01-1.05868E-01-7.05859E+00-4.00235E-03-2.34691E-01
 -1      2618-1.25660E+02-3.21447E-02-4.87355E-03-4.09419E+00 1.69873E-02-5.39149E-02
 -1      2619-1.76476E+02-1.85332E-01 7.76467E-02-2.75472E+00-9.98336E-02 1.68638E-01
 -1      2620-5.04808E+01 1.30702E-01-7.23140E-02-7.13237E+00 4.12664E-02-2.30303E-01
 -1      2621-9.38978E+01-5.24692E-02 3.91791E-02-6.20256E+00 1.07599E-02-9.56619E-02
 -1      2622-4.35579E+01-2.62598E-01-3.99821E-02-7.56468E+00-3.13063E-02-9.07255E-02
 -1      2623-4.04914E-01-1.31732E-01-1.27445E-01-7.93135E+00 8.97994E-02-1.78198E-02
 -1      2624-5.03978E+01 1.67551E-01 6.08400E-02-7.52929E+00 3.66116E-02-6.17272E-02
 -1      2625-1.69488E+02 1.33737E-01-2.78651E-03-2.73499E+00-2.92462E-02-3.07978E-01
 -1      2626-1.78034E+02-3.14185E-01-2.08110E-02-2.68347E+00 3.96525E-02-2.73472E-01
 -1      2627-1.05613E+02 3.78115E-02 6.56361E-02-6.23693E+00-9.50221E-02-1.31175E-01
 -1      2628-1.13298E+02-1.63624E-01-3.74435E-02-6.26635E+00 7.40925E-02-1.82476E-01
 -1      2629-2.12849E+02 2.76806E-01-7.30887E+00-5.37312E+00 1.24039E+00-8.66464E-01
 -1      2630-6.06722E+01 1.21877E+00-1.40872E+00-7.63306E+00 2.71525E+00-2.88870E-01
 -1      2631 2.83711E+01 1.05810E-01-1.66994E-02-5.28382E+00-8.88431E-02 5.67698E-02
 -1      2632 3.16385E+01 1.38844E-01-3.05797E-02-5.30380E+00-7.81579E-02 5.72795E-02
 -1      2633-9.31109E-02 1.92304E-01 3.32340E-02-7.90997E+00-9.92598E-03 4.32798E-02
 -1      2634-3.55538E-01 1.64209E-01-1.63007E-02-7.89506E+00 1.71759E-02 5.72804E-02
 -1      2635-2.58130E-02 2.16269E-01-1.13095E-02-7.97237E+00-6.83410E-02-2.43827E-02
 -1      2636 4.61735E+00 2.82851E-01-4.07626E-02-7.77050E+00-3.54086E-02-1.02128E-01
 -1      2637-4.31684E-01 2.10471E-01-6.93578E-02-7.93120E+00-5.98753E-03-1.75468E-02
 -1      2638 5.91143E+01-2.08390E-01-1.14254E-01-7.51412E+00-6.25714E-03 1.23698E-02
 -1      2639-1.91614E-02-6.45116E-02-9.99045E-02-7.97621E+00-1.66486E-02 2.90890E-02
 -1      2640 9.27150E+01 1.95533E-01-3.18104E-02-7.52002E+00 2.46357E-02-1.26391E-01
 -1      2641 3.39573E+01 1.13810E-01 3.26573E-02-8.25304E+00 3.53876E-02-3.02478E-02
 -1      2642 3.42843E+01 8.48564E-02 8.46649E-02-7.84953E+00 8.18521E-02-2.16236E-01
 -1      2643 4.25320E+01-1.11052E-02 1.18276E-02-8.04281E+00 2.17595E-02-9.65024E-02
 -1      2644 1.02437E+02-1.24159E-01 3.10084E-02-7.43777E+00-4.52574E-02-1.47286E-01
 -1      2645 4.27381E+01-3.14806E-01-1.88007E-01-7.57165E+00-2.96003E-03-2.58756E-01
 -1      2646 1.64296E-01-1.27833E-02 4.98470E-02-8.13435E+00-5.47618E-02-1.50080E-02
 -1      2647-6.32765E+01 1.15851E-01 8.84029E-02-6.88035E+00-6.26286E-02 1.08410E-02
 -1      2648-3.68238E+01-1.52394E-01-1.93906E-02-7.80082E+00 1.37729E-02 1.86197E-02
 -1      2649-9.97007E+01-2.35880E-01 3.91163E-02-6.30996E+00 4.01204E-02 1.54332E-01
 -1      2650-3.75262E+01-3.21192E-01-1.14565E-01-7.35530E+00-5.51340E-02 2.40474E-01
 -1      2651-5.84229E+01-2.48177E-01-1.68477E-01-6.78478E+00 2.19377E-02 8.13521E-04
 -1      2652 9.40746E-02-1.02800E-01-1.10404E-01-7.96981E+00 3.37628E-02-2.22829E-02
 -1      2653-9.56078E+01 3.46889E-03-8.14906E-02-6.28222E+00-4.44469E-02 1.56707E-01
 -1      2654-3.66166E+01 1.20960E-01 2.62041E-02-7.76792E+00-2.23829E-02 5.67501E-02
 -1      2655-3.65148E+01 1.14581E-01 1.22335E-01-7.38317E+00-8.20776E-02 2.34648E-01
 -1      2656 4.75554E-01 8.47998E-02-5.49607E-04-8.10240E+00-4.57717E-02 7.10186E-02
 -1      2657 1.77846E-01 6.78262E-02-5.58308E-02-8.06318E+00 5.05013E-02 5.10939E-02
 -1      2658 7.68270E+01-1.67747E-01-9.57837E-02-7.44937E+00-5.78459E-02-2.44875E-01
 -1      2659 2.88881E+01 1.98967E-01 9.81677E-02-7.85438E+00 9.26965E-02-1.95297E-01
 -1      2660 7.79226E+01 1.15659E-01-5.99894E-02-7.57628E+00 3.38969E-02-1.35994E-01
 -1      2661 4.97474E+01-1.58915E-01-1.63146E-01-7.59861E+00-2.17872E-02 5.46468E-03
 -1      2662 3.61797E+01-1.95384E-01-1.75579E-01-7.62923E+00-3.22161E-03-2.53998E-01
 -1      2663 8.65152E+01-6.70346E-02-5.18197E-03-7.53737E+00-5.26845E-02-1.08702E-01
 -1      2664 6.49071E+01-1.81588E-02-1.54440E-04-7.46314E+00-1.56267E-02-2.10888E-01
 -1      2665-4.15100E+01 9.63438E-03 1.72303E-02-7.49946E+00-2.34661E-02 7.73491E-02
 -1      2666-9.92449E+01-1.29644E-01-5.78559E-03-6.12497E+00 5.22532E-02 1.05506E-01
 -1      2667-4.14482E+01-2.62791E-01-1.79945E-01-7.02659E+00 4.92955E-03 2.58409E-01
 -1      2668 1.45776E-01 2.17458E-04-1.09348E-01-7.97517E+00-2.99132E-02 2.07523E-02
 -1      2669 3.61423E+01 9.16983E-02 1.90987E-02-8.09762E+00 2.42189E-02-8.16540E-02
 -1      2670-3.53709E+01-5.99299E-02-1.35275E-01-6.77075E+00 5.26172E-02-9.63886E-03
 -1      2671-1.60021E-01 1.25969E-01-5.53062E-02-7.95765E+00 7.43092E-02-2.54228E-02
 -1      2672-5.87166E+01 1.43275E-01-8.63923E-02-6.20025E+00-4.31057E-02 1.40736E-01
 -1      2673-2.29391E+01 3.12490E-01 4.83700E-02-7.71462E+00-1.39923E-02 5.36108E-02
 -1      2674-2.25551E+01 3.54786E-01 1.69872E-01-7.30465E+00-1.44658E-02 1.91447E-01
 -1      2675-1.27279E+02-1.86367E-01-9.90222E-02-4.25145E+00 5.84322E-02 1.90280E-01
 -1      2676-1.63143E+02 3.62616E-02 3.18551E-03-3.10531E+00 3.83188E-02 8.95294E-02
 -1      2677-1.61335E+02 1.65996E-01 5.02133E-02-2.96163E+00-8.39554E-03 1.06841E-01
 -1      2678 2.87480E+01 2.24421E-01 3.41550E-02-8.24850E+00 2.70643E-02-4.58210E-02
 -1      2679-7.80841E+01-1.02256E-01 1.28405E-03-6.36851E+00 8.63083E-03 2.25182E-01
 -1      2680 1.19645E+02 1.21039E-02-3.69167E-02-5.50832E+00 1.88381E-01 5.16819E-02
 -1      2681 1.18208E+02-1.48133E-01-7.09798E-02-5.67862E+00 1.18607E-01 2.04605E-01
 -1      2682 1.57844E+02 2.29569E-01 1.73684E-01-4.87246E+00-2.80438E-02 1.16881E-01
 -1      2683 1.56077E+02 8.84112E-02 6.29961E-03-4.99867E+00 5.40473E-02 6.54379E-02
 -1      2684 3.60882E+01-2.57655E-01-1.41154E-01-7.80901E+00 7.91683E-02 2.12647E-01
 -1      2685 5.76529E+01 1.69605E-01 1.45537E-01-7.55531E+00-3.31106E-02-4.46978E-03
 -1      2686-3.39580E-01 4.60588E-03 7.54423E-02-7.95252E+00-2.88970E-02-2.62177E-02
 -1      2687 9.49742E+01-7.81023E-02 5.43412E-02-7.49200E+00 2.11975E-02 1.50912E-01
 -1      2688 3.65081E+01-2.22134E-01-5.88960E-02-8.18538E+00 1.44686E-02 5.29111E-02
 -1      2689 1.16605E+02-9.59513E-02 3.26289E-02-5.54846E+00 1.96764E-01-3.84068E-02
 -1      2690 1.18034E+02 7.57883E-02 7.18360E-02-5.65883E+00 1.34136E-01-2.05686E-01
 -1      2691 1.51172E+02-4.60957E-02 7.23984E-03-5.09499E+00 1.71041E-02-9.74941E-02
 -1      2692 1.49287E+02-2.33886E-01-1.89081E-01-5.04293E+00 1.13762E-02-7.60861E-02
 -1      2693 1.93352E+01-2.53395E-02-1.14161E-01-7.51283E+00-5.31935E-02-2.26378E-02
 -1      2694-2.83219E-01 1.55196E-01-1.00239E-01-8.12925E+00-5.73706E-02 1.11710E-02
 -1      2695 1.03374E+01 3.29609E-01 1.40949E-02-8.13741E+00 3.95820E-02-2.81263E-02
 -1      2696 1.08562E+01 4.73032E-01 1.57432E-01-7.65919E+00-2.74225E-02-1.18992E-01
 -1      2697 2.94569E+01 4.04330E-01-1.59967E-02-7.26350E+00 6.54591E-02-1.60397E-01
 -1      2698-1.95871E+01 3.98132E-01 1.42904E-01-6.97887E+00 6.78572E-02-3.48417E-02
 -1      2699-5.33313E-02 2.82834E-01 1.05809E-01-8.12985E+00 6.41903E-02 3.19833E-04
 -1      2700-2.95940E+01 1.07127E-01 5.52903E-02-6.48630E+00-4.86326E-02-1.50559E-01
 -1      2701-1.06727E+01 1.22985E-01 1.97732E-02-7.82759E+00 1.41345E-03-1.47793E-02
 -1      2702-1.11876E+01-7.49731E-02-1.91570E-01-7.36782E+00 7.56624E-03-1.28608E-01
 -1      2703 4.32673E+01 2.40581E-01 5.60710E-02-4.61199E+00-2.80812E-02-1.69662E-01
 -1      2704 3.78151E+01 1.49893E-01 1.07392E-02-5.33459E+00 2.98223E-02 7.05771E-02
 -1      2705 3.92360E+01 3.38823E-01 1.34214E-01-5.44212E+00 1.14145E-01-1.30963E-01
 -1      2706 4.69367E+01-1.50451E-01-1.35853E-01-4.59994E+00-7.08158E-02-1.01728E-01
 -1      2707 4.88063E+01-1.29579E-02-1.28123E-02-4.66466E+00 2.21822E-02-7.59585E-02
 -1      2708 1.00733E+01 1.24895E-01 3.05258E-02-8.17580E+00 1.51366E-02-7.57337E-02
 -1      2709-3.79357E+01 1.01299E-01 6.49627E-03-4.26441E+00-2.86473E-02 6.16465E-02
 -1      2710-3.93606E+01-5.88594E-02-1.03086E-01-4.35387E+00-9.25081E-02-1.18328E-01
 -1      2711-4.87885E+01 1.87472E-01 4.78227E-02-3.34351E+00-4.45605E-02-3.91319E-02
 -1      2712-4.69531E+01 2.98072E-01 1.18604E-01-3.30267E+00 6.50982E-02-1.16302E-01
 -1      2713-5.77945E+01 2.62339E-02-7.31360E-02-4.16701E+00 4.78928E-02 1.61127E-01
 -1      2714-5.61852E+01 1.70039E-01 3.72806E-02-4.06686E+00 3.44156E-02-6.60354E-02
 -1      2715-7.10224E+01 2.37233E-01 1.28317E-01-3.03350E+00-2.78652E-02 1.27884E-01
 -1      2716-1.66360E+01-1.47146E-02-1.14186E-01-7.37065E+00-6.08949E-03 2.19429E-01
 -1      2717-7.29004E+01 1.25183E-01 3.19351E-02-3.15039E+00 6.30116E-02 6.15003E-02
 -1      2718-1.53701E-03 2.61845E-01 7.59627E-02-8.10403E+00-3.93988E-02-3.26005E-02
 -1      2719-2.86567E+01 3.40961E-01 1.11856E-01-6.85319E+00-6.00429E-02-2.26372E-03
 -1      2720-1.62909E+01 1.47787E-01 2.58059E-02-7.77452E+00 9.40367E-03-1.99650E-02
 -1      2721-4.42726E+01 1.18305E-01 6.75108E-02-6.37341E+00 2.75100E-02 1.10081E-01
 -1      2722 6.25254E+01-3.10059E-01-7.99616E-02-7.51991E+00 4.09819E-02-9.29018E-03
 -1      2723 9.90847E+01 1.77140E-01-4.64816E-02-7.42582E+00-6.42932E-02 1.74182E-01
 -1      2724 3.72111E+01 2.05053E-01 2.25971E-01-7.69996E+00 2.19035E-03 9.29535E-02
 -1      2725 3.67669E+01 1.67548E-01 3.30650E-02-8.15547E+00 2.25253E-02 7.98691E-02
 -1      2726 1.27350E+02 1.33385E-01 1.05504E-01-5.56252E+00-1.13248E-01 1.32595E-01
 -1      2727 1.25911E+02-5.59681E-02 9.40475E-03-5.49214E+00-3.31634E-02-7.95300E-02
 -1      2728 1.63401E+02-1.35288E-01-2.48697E-02-4.87695E+00-2.78802E-02 6.88096E-02
 -1      2729 1.61486E+02-2.62560E-01-1.43547E-01-4.84583E+00 4.45620E-02 1.17193E-01
 -1      2730-1.19657E+02-1.00371E-01 2.79545E-02-3.98493E+00-1.96032E-01 3.94234E-02
 -1      2731-1.18230E+02 6.87814E-02 5.13293E-02-4.12668E+00-1.35207E-01 2.09784E-01
 -1      2732-1.57681E+02-3.15136E-01-1.53110E-01-2.95948E+00 2.27421E-02 1.23382E-01
 -1      2733-1.55855E+02-1.45170E-01 4.34682E-03-3.02950E+00-7.46132E-02 7.14665E-02
 -1      2734 2.60880E+01 9.82643E-02-8.28522E-02-8.27867E+00-2.16079E-02 5.31654E-02
 -1      2735-7.35798E+01-4.57631E-04-5.21158E-03-3.91297E+00-5.81339E-02-7.12295E-02
 -1      2736-7.19345E+01 1.75929E-01 7.42410E-02-4.06119E+00-8.21652E-02 1.80699E-01
 -1      2737-9.75485E+01-1.79302E-01-1.01550E-01-2.74863E+00 3.35980E-02 1.46104E-01
 -1      2738-9.57551E+01-7.24082E-02-3.00048E-02-2.89625E+00-7.51278E-02 4.26795E-02
 -1      2739 7.33944E+01 1.23986E-01-5.32659E-02-5.65056E+00 1.35070E-01-3.17328E-02
 -1      2740 7.18812E+01-1.02689E-02-5.72296E-02-5.77737E+00 8.64408E-02 1.63950E-01
 -1      2741 9.75527E+01 3.37252E-01 2.02073E-01-5.05273E+00-2.02160E-02 1.19329E-01
 -1      2742 9.58207E+01 2.74378E-01 1.10342E-01-5.13471E+00 4.79835E-02 2.92363E-02
 -1      2743 2.22739E+01-1.58630E-01-2.02611E-01-7.82301E+00 3.64991E-02 1.88498E-01
 -1      2744 3.49959E+01 3.48501E-01 1.17745E-01-7.59827E+00-4.82516E-02-2.29515E-03
 -1      2745-1.06840E-01 2.97553E-01 1.26612E-01-7.95452E+00-6.22061E-02-3.45941E-02
 -1      2746 2.26218E+01-7.92286E-02-4.89961E-02-8.24612E+00 2.16435E-02 7.83838E-02
 -1      2747 5.83488E+01 1.00063E-01 6.27847E-02-7.62037E+00 6.10940E-02 1.79055E-01
 -1      2748-5.83152E+01 1.53341E-01 1.34680E-01-6.78769E+00 3.63098E-02-7.02653E-03
 -1      2749-3.20160E-01 8.49326E-03 7.80688E-02-7.96543E+00 2.00174E-02 2.03141E-02
 -1      2750-9.19028E+01-7.55868E-02 5.62457E-02-6.32752E+00-1.24488E-02-1.15336E-01
 -1      2751-3.44485E+01-1.46991E-01-4.91985E-02-7.73625E+00-1.47635E-02-2.08301E-02
 -1      2752-3.49446E+01-2.02104E-01-1.54066E-01-7.34910E+00-9.16144E-02-2.23517E-01
 -1      2753 1.01138E+02 7.93133E-02-3.31694E-02-5.64198E+00 1.95866E-01 4.16448E-02
 -1      2754 9.97112E+01-8.88433E-02-7.65488E-02-5.78562E+00 1.21767E-01 2.11930E-01
 -1      2755 1.33770E+02 2.41349E-01 1.94415E-01-5.13632E+00 6.39225E-03 8.02478E-02
 -1      2756 1.31887E+02 5.44880E-02-9.27109E-03-5.21499E+00 1.11615E-04 1.01388E-01
 -1      2757 3.04250E+01-1.12010E-01-1.10925E-01-7.85598E+00 7.25056E-02 2.23208E-01
 -1      2758 4.85123E+01 2.10924E-01 1.00323E-01-7.58038E+00-1.56006E-02-1.64642E-02
 -1      2759-3.07787E-01 7.71947E-02 8.16617E-02-7.95977E+00-1.82796E-02-2.47738E-02
 -1      2760 8.01394E+01-1.66103E-01 1.93380E-02-7.60435E+00 3.86721E-03 1.21476E-01
 -1      2761 3.09190E+01-7.40272E-02-5.35986E-02-8.25249E+00 3.01403E-02 4.03571E-02
 -1      2762-1.16640E+02 2.36429E-02-2.37599E-02-3.95437E+00-1.81604E-01-4.42256E-02
 -1      2763-1.18067E+02-1.29431E-01-4.47303E-02-4.10330E+00-1.03095E-01-1.88707E-01
 -1      2764-1.49293E+02 2.10630E-01 2.10475E-01-2.94997E+00 1.00047E-02-1.01380E-01
 -1      2765-1.51131E+02 4.24112E-02 2.60610E-02-3.05859E+00-4.19679E-02-5.88264E-02
 -1      2766-1.01171E+02-6.04099E-02 1.87470E-02-3.86102E+00-1.93333E-01 4.03973E-02
 -1      2767-9.97429E+01 9.50658E-02 4.73880E-02-3.99739E+00-1.23496E-01 1.94701E-01
 -1      2768-1.33635E+02-2.29653E-01-1.96818E-01-2.84598E+00 4.83059E-04 1.04857E-01
 -1      2769-1.31793E+02-5.30932E-02-1.49098E-02-2.93084E+00-6.13743E-02 6.42298E-02
 -1      2770-3.08143E+01 1.71773E-01 1.21887E-01-7.32790E+00-1.01000E-01 2.21926E-01
 -1      2771-5.89869E-02 1.71120E-01 8.93016E-02-8.13906E+00-5.86657E-02-1.38335E-02
 -1      2772-4.00729E+01 2.99327E-01 1.00855E-01-6.79494E+00-5.51709E-02 2.12466E-02
 -1      2773-6.26614E+01-1.16855E-01 2.91682E-02-6.15092E+00 5.12281E-02 1.66976E-01
 -1      2774-2.36837E+01-1.72542E-01-1.69710E-01-7.26202E+00-3.21773E-02 1.30494E-01
 -1      2775-2.31798E+01 2.29573E-02 1.58322E-04-7.73450E+00 2.10417E-02 3.13259E-02
 -1      2776 2.86726E+01 1.90636E-01 1.13262E-01-8.20947E+00 1.34810E-02-1.83582E-02
 -1      2777-9.81063E+01 6.26491E-02-2.76306E-02-3.84684E+00-1.91516E-01-4.80405E-02
 -1      2778-9.95429E+01-9.72400E-02-6.43134E-02-4.00063E+00-1.14628E-01-1.99042E-01
 -1      2779-1.27273E+02 6.80276E-02 1.94244E-02-2.89282E+00-4.48864E-02-5.50176E-02
 -1      2780-2.95686E+01-1.73879E-01-1.62114E-01-7.30991E+00-8.83960E-02-2.20989E-01
 -1      2781-1.25436E+02 2.47450E-01 2.10494E-01-2.79867E+00 2.53635E-02-1.01555E-01
 -1      2782-4.91920E+01 2.27768E-01 1.47310E-01-6.72393E+00 3.68260E-02 4.99203E-03
 -1      2783-3.05050E-01 1.04396E-01 8.55900E-02-7.95761E+00 2.25081E-02 2.15515E-02
 -1      2784-2.90762E+01-1.05695E-01-7.43093E-02-7.70437E+00-2.60803E-02-2.73036E-02
 -1      2785-7.74595E+01-3.04815E-02 4.29225E-02-6.22570E+00-1.64734E-02-1.13177E-01
 -1      2786-1.09552E+02 5.95695E-02-5.83083E-03-6.27716E+00-3.18827E-02 1.42634E-01
 -1      2787-4.53821E+01-9.43516E-02 5.39210E-02-7.76236E+00 2.05350E-02 8.34025E-02
 -1      2788-4.60283E+01 1.77467E-01 1.08522E-01-7.25542E+00-2.11127E-02 2.08472E-01
 -1      2789 9.80970E+01-2.74262E-02 3.85894E-02-5.65571E+00 1.89465E-01-5.56750E-02
 -1      2790 9.95332E+01 1.32696E-01 6.57164E-02-5.79342E+00 1.31427E-01-2.00300E-01
 -1      2791 1.25517E+02-1.84178E-01-1.66025E-01-5.07771E+00-2.25881E-02-1.27060E-01
 -1      2792 1.27260E+02-5.72152E-02-6.80487E-03-5.18802E+00 5.68713E-02-5.91742E-02
 -1      2793 8.10013E+01 2.53835E-01 1.07147E-01-5.79481E+00-1.00917E-01 1.23951E-01
 -1      2794 7.95633E+01 8.89936E-02-4.17342E-03-5.67883E+00-2.58860E-02-6.26999E-02
 -1      2795 1.03014E+02-5.86846E-02-4.55106E-02-5.15633E+00-6.39916E-02 3.59453E-02
 -1      2796 1.01146E+02-1.76144E-01-1.40148E-01-5.08603E+00 6.56862E-02 1.32688E-01
 -1      2797 2.33396E+01 3.84841E-01 1.80032E-01-7.78175E+00 6.96982E-03 1.34175E-01
 -1      2798 9.19787E+01-5.66459E-02-1.47318E-02-5.93065E+00 1.22145E-02 6.73465E-02
 -1      2799 8.86841E+01 1.69177E-01 1.44307E-01-5.91395E+00 3.22926E-02 5.63509E-02
 -1      2800-1.41604E+02 1.36699E-01 2.23918E-01-4.81526E+00 6.34289E-02 4.46307E-01
 -1      2801-1.43813E+02-7.67794E-02-6.75788E-02-4.82146E+00-2.21029E-02-6.05464E-02
 -1      2802-1.90968E+02 1.36092E-01 2.70905E-02-3.36236E+00 5.56254E-02 2.02222E-01
 -1      2803-4.93918E+01-4.56838E-01-1.31657E-01-7.48016E+00 1.41914E-01 2.35983E-01
 -1      2804-1.89410E+02 1.20416E-01 2.46829E-01-3.23230E+00 3.90787E-02 3.18004E-01
 -1      2805-1.58436E+02 1.03957E-01 1.58931E-01-2.80763E+00-8.32221E-03 1.16912E-01
 -1      2806-1.59597E+02 1.68763E-01 1.38673E-01-2.73356E+00 6.64943E-03 1.72727E-01
 -1      2807-1.01502E+02 6.65078E-02-2.99338E-02-6.13463E+00 9.46916E-02-1.30416E-01
 -1      2808-4.32329E+01 2.04017E-01 1.34735E-01-7.02905E+00-1.38019E-03-2.63566E-01
 -1      2809-4.27859E+01-2.82829E-02-3.13414E-02-7.49877E+00-1.25047E-02-9.39692E-02
 -1      2810-8.24878E+00 3.41595E-01 2.62099E-02-7.00987E+00-7.22901E-02-4.91981E-02
 -1      2811-1.52511E+01 3.16463E-01-5.27753E-02-6.60048E+00-3.85449E-02 1.43856E-01
 -1      2812-6.33270E+00 3.09136E-01 2.08068E-02-7.72110E+00 3.62214E-02 1.26754E-01
 -1      2813-6.70874E+00 4.06728E-01 1.07144E-01-7.26630E+00-5.52532E-02 1.13034E-01
 -1      2814 1.59706E+02-2.20293E-01-1.30515E-01-4.85012E+00-1.83677E-02 1.74045E-01
 -1      2815 4.08901E+01 1.54776E-01 1.34140E-01-7.60880E+00-1.39425E-02 2.53492E-01
 -1      2816 1.58550E+02-1.40436E-01-1.54281E-01-4.95115E+00-1.04231E-02 1.17177E-01
 -1      2817 9.85155E+01 1.01250E-01-3.44120E-03-7.48764E+00-7.43980E-02 1.07973E-01
 -1      2818 4.12904E+01-4.91420E-02-2.83377E-02-8.06184E+00 1.40637E-02 8.24930E-02
 -1      2819 1.60865E+02 1.87472E-01 1.17675E-01-4.82927E+00-1.59528E-02-1.74629E-01
 -1      2820 1.62052E+02 1.39752E-01 1.73017E-01-4.85198E+00 1.12726E-02-1.03036E-01
 -1      2821 1.41753E+01 2.08128E-01-8.18906E-02-8.16051E+00 2.48896E-02-9.24302E-02
 -1      2822 3.46021E+01 4.49465E-02 3.36031E-03-7.30891E+00-3.34987E-02-1.32122E-01
 -1      2823 1.44821E+01-8.78713E-02-2.56467E-01-7.55965E+00 1.82267E-02-8.40995E-02
 -1      2824-1.45106E+01 1.98779E-01 7.86227E-02-7.75779E+00-2.19542E-02-8.82423E-02
 -1      2825-3.48196E+01 3.14960E-01 2.55556E-02-6.30846E+00 4.24759E-02-1.01080E-01
 -1      2826-1.48042E+01 4.48966E-01 2.40236E-01-7.13365E+00-1.49157E-02-8.38603E-02
 -1      2827 5.51495E+01 2.60972E-01 1.54685E-01-4.62160E+00 4.89534E-02-9.96029E-02
 -1      2828 5.40842E+01 3.66869E-01 2.19625E-01-4.62669E+00 4.70843E-02-2.69279E-01
 -1      2829-5.41334E+01-1.60844E-01-2.23966E-01-3.12023E+00-3.56891E-02-2.63021E-01
 -1      2830-5.51394E+01-1.43304E-02-1.13352E-01-3.11555E+00-2.51442E-02-1.10670E-01
 -1      2831-1.61787E+02-2.52576E-01-1.59664E-01-2.78335E+00 3.21745E-02-1.07663E-01
 -1      2832-1.60664E+02-2.74784E-01-1.42110E-01-2.70317E+00 1.59807E-02-1.48723E-01
 -1      2833-1.35572E+02-2.19795E-01-1.40714E-01-2.58305E+00 2.12929E-02-1.68805E-01
 -1      2834-3.65497E+01 2.38947E-01 1.47584E-01-6.99814E+00 1.29927E-02-2.58135E-01
 -1      2835-1.36703E+02-1.25714E-01-1.53268E-01-2.65849E+00 1.27286E-02-1.10203E-01
 -1      2836-3.61823E+01 2.07466E-02-3.63086E-02-7.46235E+00-1.56199E-02-7.81870E-02
 -1      2837-8.57925E+01 1.46882E-01-3.96477E-03-6.05678E+00 7.48077E-02-1.07247E-01
 -1      2838 1.36903E+02 1.49774E-01 1.59520E-01-5.08758E+00 8.17832E-03-1.17011E-01
 -1      2839 1.35730E+02 2.21985E-01 1.33868E-01-5.01420E+00-9.84881E-03-1.75423E-01
 -1      2840-2.48419E+01 1.59852E-01 8.27006E-03-7.48151E+00-4.14936E-02 7.27973E-02
 -1      2841-5.93355E+01-1.59093E-02 1.09231E-03-6.10145E+00 4.02832E-02 1.14145E-01
 -1      2842-2.46693E+01-1.42914E-01-1.86608E-01-7.05466E+00 5.40970E-03 1.63298E-01
 -1      2843 1.34652E+02-1.80885E-01-1.07297E-01-5.00133E+00-2.68384E-02 1.71918E-01
 -1      2844 3.44443E+01 2.78603E-01 1.55188E-01-7.63321E+00-1.93152E-02 2.55532E-01
 -1      2845 1.33500E+02-1.20606E-01-1.61344E-01-5.04872E+00-2.11966E-03 9.62660E-02
 -1      2846-1.33326E+02 1.31419E-01 1.46113E-01-2.64146E+00-3.74719E-03 1.14539E-01
 -1      2847-1.34448E+02 2.20057E-01 1.39911E-01-2.57920E+00 1.58320E-02 1.68747E-01
 -1      2848-3.47653E+01-1.98766E-01-1.66332E-01-6.98771E+00 9.69619E-03 2.54078E-01
 -1      2849 3.48139E+01 4.30901E-02-3.43599E-02-8.09345E+00 1.34867E-02 8.54383E-02
 -1      2850 8.28943E+01 1.53486E-01-4.03729E-02-7.58290E+00-5.80092E-02 1.30508E-01
 -1      2851 3.56963E+01 1.07921E-01 3.39707E-02-4.44669E+00 6.60331E-02-1.31808E-01
 -1      2852 8.41730E+00 2.87859E-01-4.56697E-02-8.15475E+00-4.75890E-02-8.27070E-02
 -1      2853-1.72925E+02-2.71139E-01-4.32123E-02-2.92578E+00-1.24235E-02 1.37763E-01
 -1      2854-1.74071E+02-1.79612E-01-1.10431E-01-2.95890E+00 4.48924E-02 7.56895E-02
 -1      2855-7.02283E+01 2.22147E-01-7.15054E-03-6.04578E+00-3.96678E-02 1.33115E-01
 -1      2856-2.94296E+01 1.19960E-01 8.18244E-02-7.63870E+00 2.10368E-02 9.50371E-02
 -1      2857-2.97583E+01 3.53389E-01 2.37435E-01-7.02512E+00 1.26358E-02 8.85490E-02
 -1      2858-5.03492E+01 2.67757E-01 7.85140E-03-6.14387E+00-6.32184E-02 1.10523E-01
 -1      2859-2.09690E+01 1.86687E-01 8.03201E-02-7.69770E+00 1.85705E-02 7.40103E-02
 -1      2860-2.13814E+01 4.69479E-01 1.18983E-01-7.16129E+00 1.60351E-02 1.74811E-01
 -1      2861-9.64705E+01 2.67885E-01 6.20301E-02-2.67324E+00 6.91674E-05 1.27507E-01
 -1      2862-9.53447E+01 2.00014E-01 1.14413E-01-2.72306E+00-3.59615E-02 8.33731E-02
 -1      2863-7.89327E+01-1.62145E-01-7.34535E-02-2.79412E+00-9.43359E-03 1.23605E-01
 -1      2864-8.00208E+01-5.98801E-02-1.17445E-01-2.79786E+00 1.98477E-02 8.32313E-02
 -1      2865-1.44777E+01 2.29910E-01 3.01531E-02-4.58073E+00 9.65265E-03-3.41822E-02
 -1      2866-1.61351E+01 9.60496E-03-1.00521E-01-4.66272E+00 4.46723E-02 1.64792E-01
 -1      2867-2.25960E+01-9.59948E-02-4.31983E-02-3.49922E+00-7.70417E-03 1.25952E-01
 -1      2868-2.37222E+01-8.37769E-02-1.20593E-01-3.46911E+00 3.51593E-02 5.89573E-02
 -1      2869-8.10246E+01-1.56511E-01-1.32870E-01-4.00430E+00 1.03168E-01 1.34874E-01
 -1      2870-7.95943E+01 2.31799E-02-1.23615E-02-3.91089E+00 2.83480E-02-6.70890E-02
 -1      2871-1.03026E+02 1.45852E-01 1.18427E-02-2.82480E+00 2.04967E-02 8.13643E-02
 -1      2872-1.01123E+02 2.78811E-01 1.42412E-01-2.77400E+00-6.12855E-02 1.20916E-01
 -1      2873-4.88461E+01-1.55175E-01-1.58495E-01-6.72896E+00 2.45547E-02-5.64063E-03
 -1      2874 2.11967E-01-4.67060E-03-1.06383E-01-7.96776E+00 2.26633E-02-2.25345E-02
 -1      2875-8.04613E+01 7.21720E-02-7.50394E-02-6.24337E+00-3.03326E-02 1.10765E-01
 -1      2876-3.09013E+01 1.70927E-01 3.25809E-02-7.71710E+00-2.31708E-02 2.30944E-02
 -1      2877-3.43427E-01-1.69339E-02-9.82602E-03-7.78992E+00 5.08772E-01-1.93787E-02
 -1      2878-6.99687E+01-1.65826E-01-4.58142E-02-6.91169E+00 3.29769E-01 1.16822E-01
 -1      2879-4.96220E+01-1.53586E-01 2.48448E-02-7.33988E+00 2.19812E-01 1.26865E-01
 -1      2880-1.18368E+02-1.23166E-01 9.24229E-02-6.20244E+00 1.46094E-01 2.82367E-01
 -1      2881 7.77226E+01 2.20492E-02-2.84326E-02-7.38043E+00-2.73440E-02 2.14599E-01
 -1      2882 2.52186E+01 1.89655E-02-1.13339E-01-7.21396E+00-5.87068E-02-2.64724E-01
 -1      2883-2.55540E+01 2.48996E-01-9.73018E-03-6.49037E+00 2.76902E-02-2.51154E-01
 -1      2884 1.21719E+02 7.80746E-02-2.73722E-02-5.10518E+00 3.34192E-02-1.20767E-01
 -1      2885 1.10736E+02 3.10213E-01 2.26443E-01-5.07523E+00-4.10490E-02 2.70160E-01
 -1      2886 1.11775E+02 1.66130E-01 1.22495E-01-5.09690E+00-2.92365E-02 1.12645E-01
 -1      2887 2.94007E+01-1.84163E-01-2.61442E-01-7.65955E+00-2.97945E-02 1.05127E-01
 -1      2888 1.13170E+02 1.94965E-02-1.06193E-02-5.16709E+00 1.37470E-02-1.03465E-01
 -1      2889-7.74080E+01 4.01272E-03-6.31769E-02-6.37177E+00 3.39192E-02-2.28350E-01
 -1      2890-2.90602E-01 3.86650E-02-1.13353E-01-8.13188E+00 6.26274E-02-6.33118E-04
 -1      2891 3.97655E+01-1.16479E-01-1.51015E-01-7.70193E+00 6.22701E-02 4.48479E-02
 -1      2892 2.28530E+01 2.36297E-01-9.09119E-03-8.24769E+00-1.55886E-02 2.37985E-02
 -1      2893 6.23140E+01 1.66494E-01-5.30938E-02-7.59011E+00-7.94129E-02 1.64661E-01
 -1      2894-6.53954E+01 7.06064E-02-4.36996E-02-6.31070E+00 2.62936E-02-2.20117E-01
 -1      2895 6.28264E+00 2.13628E-01 7.79459E-02-8.04107E+00 2.77854E-02-5.76478E-02
 -1      2896-2.20851E+00 2.24670E-01-4.70044E-02-7.07223E+00 2.33504E-02 1.50130E-01
 -1      2897-8.64550E+00 1.94528E-01-3.45312E-02-4.80553E+00 1.22515E-02 2.39498E-02
 -1      2898-2.46765E+00 1.82123E-01-9.21581E-02-7.15680E+00 3.96863E-02-2.29191E-01
 -1      2899 6.56230E+01 1.64894E-01 6.84412E-02-7.51351E+00-7.64738E-02 2.31542E-01
 -1      2900 1.34646E-01 2.08055E-01 4.14193E-02-7.72236E+00 8.09974E-02-1.59735E-02
 -1      2901 2.46825E+00 7.75119E-02 4.36304E-02-7.23346E+00-5.03496E-02-2.43437E-01
 -1      2902-8.29307E+01 1.13863E-01 1.20330E-01-6.48287E+00-6.99383E-02 2.52660E-01
 -1      2903-6.57622E+01-2.31641E-02 3.11126E-02-6.32441E+00 1.02224E-02 2.23814E-01
 -1      2904 5.26668E+01 1.08042E-02-3.62685E-03-7.41140E+00 1.32677E-02 2.59841E-01
 -1      2905-5.29240E+01 2.50006E-01 1.10737E-01-6.27177E+00-7.08490E-02 2.67925E-01
 -1      2906-3.47826E+01 7.36429E-02 5.73260E-03-7.46337E+00-2.56017E-02 8.19992E-02
 -1      2907-8.30864E+01-8.14727E-02-1.88307E-02-6.04071E+00 5.05426E-02 1.06077E-01
 -1      2908-1.10706E+02-2.26151E-01-2.17759E-01-2.63853E+00 3.78465E-02 2.69287E-01
 -1      2909-1.11765E+02-1.15313E-01-1.43377E-01-2.61944E+00 3.90681E-02 9.95833E-02
 -1      2910-4.73656E+01 1.28551E-02-3.18659E-02-6.32850E+00 1.79543E-02 2.14753E-01
 -1      2911 9.54781E+01-1.05908E-01-1.42950E-01-4.96223E+00 2.72411E-02 6.62925E-02
 -1      2912 9.66098E+01-1.45532E-01-1.64779E-01-4.94441E+00-3.41606E-02 1.68219E-01
 -1      2913 2.43926E+01 3.98158E-01 1.25573E-01-7.68493E+00-1.46095E-03 2.11796E-01
 -1      2914-3.75987E+01 2.61326E-01-7.67138E-03-6.43179E+00-3.32644E-02 2.29042E-01
 -1      2915 2.47134E+01 3.12117E-01 1.65740E-02-8.11993E+00 2.93137E-02 7.71517E-02
 -1      2916 5.93736E+01 4.18611E-01 3.03248E-02-7.42222E+00-8.36390E-02 1.64426E-01
 -1      2917 1.08761E+02-2.38022E-01 3.46384E-02-7.37236E+00 3.10126E-02 1.68744E-01
 -1      2918 4.52331E+01-1.88034E-01-4.08050E-02-8.03056E+00-5.48907E-02 1.14065E-01
 -1      2919 4.54185E+01-3.73021E-01-2.52050E-01-7.55916E+00-1.18394E-02 6.58328E-02
 -1      2920 6.99445E+01-5.02587E-02-2.15281E-02-7.55924E+00 3.99930E-02 1.10818E-01
 -1      2921 2.90800E+01 1.18613E-01-8.11260E-02-8.26935E+00-2.80359E-02 9.22092E-02
 -1      2922 1.73238E+02 2.20606E-01 2.11820E-01-4.74624E+00-5.68566E-02 2.54420E-01
 -1      2923 1.74288E+02 1.77942E-01 1.54585E-01-4.69657E+00-3.53470E-02 9.08850E-02
 -1      2924-1.87265E+02-7.24701E-02 7.48308E-02-3.81988E+00 4.00831E-01 4.89801E-01
 -1      2925-4.47587E+01-9.02297E-04 4.91386E-02-8.33662E+00 5.05857E-01 4.14864E-01
 -1      2926-1.90041E+02-3.20813E-01-5.43157E-01-4.04777E+00 4.34701E-01 3.51617E-01
 -1      2927 2.63540E+01 6.10425E+00 6.02172E+00-9.47993E+00 5.70343E-01-6.52258E-01
 -1      2928 3.50617E+01 5.89755E+00 8.71354E+00-1.05305E+01-2.19470E-01 6.08329E-01
 -1      2929 9.21393E+01 1.07895E+01 1.90095E+01-8.41122E+00-2.36994E+00-7.17219E-01
 -1      2930 6.98030E+01-1.52861E-01 3.17836E+00-1.49068E+01-3.25155E+00-3.44334E-01
 -1      2931 8.34653E+01 9.75418E+00 1.49369E+01-6.06860E+00-2.41806E+00-3.04468E+00
 -1      2932-1.89327E+02-1.13100E-01 7.47646E-02-2.62597E+00 1.83042E-02-2.70293E-01
 -1      2933-3.87533E+00 8.98327E-02-6.31734E-02-7.85757E+00-5.34554E-03 9.35719E-02
 -1      2934-1.15353E+01 6.34896E-02 6.28159E-02-6.70386E+00 2.89383E-02 1.59038E-01
 -1      2935-4.23428E+00 1.07966E-02-1.54156E-01-7.48418E+00-2.45826E-02 2.57818E-01
 -1      2936-2.51829E+01-8.75863E+00-1.20737E+01-1.05890E+01 5.09091E-04-8.47614E-03
 -1      2937-1.14979E+02 7.56600E-02 4.84820E-02-6.58311E+00 4.73879E-01 4.94064E-01
 -1      2938-4.49996E+01 2.14811E-01 1.64877E-01-7.83447E+00 7.10189E-01 2.15072E-01
 -1      2939 4.71951E+01 8.46269E-02-1.10793E-01-7.42915E+00 4.46220E-03 2.21125E-01
 -1      2940-1.89301E+01 1.86073E-01 6.21008E-03-3.71477E+00 4.35583E-02 8.09039E-02
 -1      2941-1.70761E+01 3.34140E-01 3.16245E-02-3.65803E+00-1.29338E-02 6.48048E-02
 -1      2942 1.28409E+00 3.06226E-01 2.97987E-01-6.60896E+00-6.46384E-02-5.88023E-03
 -1      2943-8.64065E-01 7.83549E-02-2.34515E-01-6.69156E+00 3.61011E-02-7.29093E-02
 -1      2944 4.01348E-02 1.60081E-01 9.68975E-03-6.76096E+00-6.91233E-02-6.50236E-04
 -1      2945 8.25998E+01-2.03843E-01-9.17381E-02-7.31519E+00 6.78095E-02 2.50136E-01
 -1      2946 1.09079E+00-1.43009E-01-1.68792E-02-6.46638E+00 5.06762E-02 1.03142E-01
 -1      2947 2.84118E+00 6.26345E-02 1.69593E-01-7.14759E+00 2.14845E-02 1.86902E-01
 -1      2948 2.91484E+00-2.70368E-01 3.42264E-01-6.07909E+00 4.11563E-02 1.88027E-01
 -1      2949-9.39149E+01-3.58912E-01-4.41541E-02-6.97157E+00 4.39134E-01 4.27014E-01
 -1      2950-1.04440E+01 3.81325E-01 9.76315E-02-6.74778E+00-8.94844E-02 2.20260E-01
 -1      2951-3.74662E+01-2.61473E-02 8.48040E-02-3.13793E+00 1.61263E-02-2.51588E-01
 -1      2952-1.99244E+01-7.09362E-03 6.04059E-03-6.36935E+00-6.00907E-02-1.46132E-01
 -1      2953-3.15725E+01 2.26828E-01 9.00850E-02-3.14574E+00 2.32715E-02-1.33417E-01
 -1      2954-3.60906E+01-7.58834E-02-8.20737E-02-3.10368E+00-5.79905E-02-1.94682E-01
 -1      2955-1.82661E+01 1.50769E-01 5.97622E-02-6.28019E+00 2.43675E-02-1.98235E-01
 -1      2956-2.33944E+01 3.29318E-01 5.22423E-02-6.43970E+00 9.27594E-02-1.75130E-01
 -1      2957-9.99857E+01-4.48743E-02 4.87888E-02-2.39666E+00 9.45769E-03-3.28002E-01
 -1      2958-9.72952E+01 5.16456E-02 9.42817E-02-2.26345E+00 2.13374E-03-2.88582E-01
 -1      2959-9.83092E+01-1.53190E-03-7.57862E-02-2.17396E+00-4.20239E-02-2.70173E-01
 -1      2960-6.22231E+01 2.69608E-01 5.90623E-02-5.71745E+00 7.97393E-02-5.68767E-02
 -1      2961-6.43436E+01 2.86977E-01 1.52451E-02-5.93327E+00 4.84733E-02-1.66779E-01
 -1      2962-3.49987E+01 6.01834E-02-1.40082E-01-3.11618E+00 5.98700E-02-2.80103E-01
 -1      2963-1.73339E+01 2.25420E-01-2.71563E-02-6.61837E+00-5.85250E-02-1.34986E-01
 -1      2964-3.11753E+01 2.06754E-01-4.08042E-02-3.15360E+00-3.14463E-02-2.96851E-01
 -1      2965-2.79389E+01 1.73423E-01 8.87065E-02-3.23852E+00 4.48902E-02-2.97822E-01
 -1      2966 4.09769E+00-1.20586E-01-2.25437E-01-7.14282E+00 6.01632E-03-9.15729E-02
 -1      2967 4.32084E+00 3.24023E-02-1.84821E-03-7.67855E+00 2.95292E-02-6.66634E-02
 -1      2968 6.53422E+00 1.01184E-01 1.00763E-02-6.64783E+00-4.26677E-02-1.38773E-01
 -1      2969 5.04402E+01-6.74866E-01-2.68667E-01-6.90823E+00 1.59392E+00-4.96744E-01
 -1      2970 5.89072E+01 6.94712E-01 2.35051E-01-1.06813E+01 7.99519E-01-7.16619E-01
 -1      2971 1.13411E+02-6.97420E-01 2.29710E+00-9.33215E+00 2.00660E+00-1.04772E-01
 -1      2972-3.99843E+01 7.89668E-02 4.79538E-01-5.25279E+00-4.63222E-01 6.28168E-01
 -1      2973-8.86361E+01-1.14183E+01-1.68396E+01-7.67939E+00-1.73440E+00 1.54495E+00
 -1      2974 2.86933E+00-4.36300E-01 3.12948E-01-6.04685E+00 1.03994E-02-1.15832E-01
 -1      2975 1.81624E+00-3.48232E-01 4.23896E-02-6.38652E+00-6.30094E-02-1.25703E-01
 -1      2976-4.68172E+01-9.21450E-01 1.60623E-02-1.05324E+01-1.01358E+00-7.05135E-01
 -1      2977-1.99858E+02 4.14372E-01-1.00569E+00-3.94378E+00-3.69189E-01-4.93051E-01
 -1      2978-1.12086E+02 3.27512E-01-1.89578E+00-8.91819E+00-2.07590E+00 4.28107E-02
 -1      2979 4.47430E+01 3.18811E-02-7.11571E-04-7.89516E+00 1.85600E-01-2.25622E-01
 -1      2980 4.39974E+01-4.64038E-02-4.86633E-02-7.98449E+00 8.43430E-02-5.22307E-02
 -1      2981-5.36451E-02-2.78416E-02 4.66660E-02-7.83523E+00 2.43740E-01-2.95416E-02
 -1      2982 5.15711E+01-3.40486E-01 1.95080E-02-8.05078E+00 4.86711E-01-4.73323E-01
 -1      2983 5.09223E+01-2.39355E-01-2.24375E-02-7.71349E+00 3.62091E-01-2.19633E-01
 -1      2984 9.59147E+01-1.88133E-01-9.49575E-02-7.35763E+00 3.35788E-01-2.79499E-01
 -1      2985 1.57915E+01 3.90275E-01-1.54777E-02-8.15468E+00-1.44106E-02 1.48259E-02
 -1      2986 1.66635E+01 4.03476E-01 2.36755E-01-7.55785E+00-2.35179E-02 4.63902E-02
 -1      2987-8.06955E-02 1.40261E-01-4.26247E-02-7.84922E+00 6.25999E-02 3.03355E-02
 -1      2988 2.18037E+01-4.56745E-02-3.24766E-02-8.07857E+00 1.25079E-02 2.60838E-02
 -1      2989 2.17852E+01-9.13689E-02-1.86938E-01-7.52408E+00-3.37648E-03 7.84445E-02
 -1      2990 3.80833E+01 9.20884E-02-1.63318E-02-7.41228E+00 2.68433E-02 2.25800E-02
 -1      2991-1.22134E+01-2.18903E-02-2.08691E-02-4.32269E+00-2.57988E-02-7.30740E-02
 -1      2992-1.70936E+00 4.79319E-01 1.20928E-01-7.63990E+00-8.60866E-02-2.09368E-01
 -1      2993-5.18497E+00 3.21750E-01-1.29697E-01-7.19476E+00 8.47623E-03-1.28940E-01
 -1      2994 5.62329E+01 1.13852E-01-6.63043E-02-5.62954E+00-2.56023E-02-5.21941E-02
 -1      2995 7.11923E+01-2.64951E-02-6.07760E-02-5.01268E+00 2.00854E-02 5.06971E-02
 -1      2996 7.93754E+01 2.81909E-01 1.39493E-01-4.93970E+00-9.42533E-02 1.14224E-02
 -1      2997 8.91709E-01-2.72886E-01 1.14644E+00-1.37839E+01-3.98730E+00 6.43268E-01
 -1      2998 9.10375E+01-5.86133E-02-3.61948E-02-5.07742E+00 1.41015E-02-2.58208E-02
 -1      2999 2.19935E+01 3.22422E-01 5.82667E-02-7.70653E+00 7.20851E-02-2.02958E-01
 -1      3000 7.02602E+01 2.39310E-02-3.83341E-02-5.70177E+00 1.85262E-01-4.97289E-02
 -1      3001 9.74152E+01 1.70288E-01 5.53516E-02-5.00108E+00 2.86529E-02 1.21757E-01
 -1      3002 2.64797E+01-4.72137E-02-6.26101E-03-7.57320E+00 2.75298E-03-3.07825E-01
 -1      3003 4.81904E+01 1.02171E-01-3.58343E-03-7.48143E+00-1.98731E-02-6.46970E-02
 -1      3004 1.92277E+02 5.02751E-02 4.31280E-01-4.92048E+00-3.99240E-01 2.98953E-01
 -1      3005 4.65133E+01-5.18075E-01-1.19470E-01-8.35981E+00-4.81264E-01 3.34884E-01
 -1      3006 1.43679E+02-2.32064E-01 3.35558E-02-5.62817E+00 1.33389E-01 1.00456E-02
 -1      3007 1.91678E+02-1.56480E-01-3.48680E-02-4.55823E+00-1.50243E-02-5.30150E-02
 -1      3008 4.85969E+01 4.33626E-02-5.32842E-02-7.83438E+00-1.47320E-01 3.25924E-01
 -1      3009 9.57878E+01-8.37534E-02-5.06879E-02-7.50938E+00-4.42810E-01 3.36741E-01
 -1      3010 2.14232E+01 2.59415E-01-2.02197E-02-8.19064E+00 2.10282E-02-2.81806E-02
 -1      3011 3.76611E-02 2.59122E-01 1.19574E-02-7.83853E+00 1.08482E-02-1.45186E-02
 -1      3012 2.61897E+01 1.26810E-01 3.25644E-02-8.03280E+00-4.01800E-02-5.49848E-02
 -1      3013 4.39732E+01 1.23004E-01-8.12740E-02-7.57329E+00-6.29040E-02 9.98957E-02
 -1      3014 5.08552E+01 1.73343E-01 1.62468E-02-7.52189E+00 1.06033E-02 1.55152E-01
 -1      3015 7.29862E+01 1.82203E-02 3.66096E-02-4.92733E+00-5.69159E-03 2.43069E-01
 -1      3016 8.07825E+01 1.92799E-01 4.99025E-03-4.73751E+00 2.21754E-02 2.33850E-01
 -1      3017 4.68055E+01-6.09402E-01-1.74367E-01-7.96725E+00-7.13153E-01 2.01222E-01
 -1      3018-5.43993E-01-1.87842E-01 1.16977E-02-7.65489E+00-4.90235E-01-1.14689E-03
 -1      3019 4.82499E+01-1.70340E-01-1.00944E-01-7.62643E+00-2.90174E-01 7.11169E-02
 -1      3020-1.76659E+01 8.15750E-02-1.30482E-01-4.63462E+00 5.63946E-02-1.03378E-01
 -1      3021-2.59997E+01-1.16875E-02-1.08464E-01-3.50573E+00-8.51733E-02 1.96438E-01
 -1      3022-8.63806E+01-9.52368E-02-6.48356E-02-2.56818E+00 2.36078E-02 2.57614E-01
 -1      3023-1.07030E+02 2.35713E-01 7.54593E-02-2.40412E+00-2.60427E-02 2.53272E-01
 -1      3024-6.80065E+00 3.42673E-01-1.27769E-02-7.83134E+00 9.26014E-02 1.09170E-01
 -1      3025 1.14031E+02-1.70747E-01-7.29752E-02-7.18185E+00 1.46803E-01-2.41560E-01
 -1      3026 1.21813E+02-1.62866E-01-1.75291E-01-6.98361E+00 3.95674E-01-4.60590E-01
 -1      3027-5.93173E+01 7.93468E-02-9.64960E-02-4.15584E+00 9.12316E-02-1.28567E-01
 -1      3028-8.23581E+01-3.30356E-02-9.76406E-02-2.83232E+00-5.33565E-02 2.03451E-01
 -1      3029-1.89781E+02-1.20614E-01 5.83854E-02-2.68120E+00 2.64748E-02 2.15588E-01
 -1      3030-7.05496E+01 7.22937E-02 1.30807E-01-4.03072E+00-8.05710E-02-1.46905E-01
 -1      3031-9.30786E+01 1.39632E-01 1.06918E-01-2.75512E+00 9.80565E-02 1.97599E-01
 -1      3032 5.28505E+01 2.52648E-02 5.83794E-02-8.00568E+00-3.16679E-02-9.68243E-02
 -1      3033 5.23283E+01-3.76944E-02 4.36317E-02-7.44842E+00-8.58050E-02-1.92768E-01
 -1      3034 6.89041E+00-2.34347E-01 2.24002E-02-7.26787E+00 3.59791E-02 3.46081E-03
 -1      3035 4.47031E+00-5.90800E-01 1.68877E-01-6.47040E+00 6.70380E-02-6.18521E-04
 -1      3036 2.37889E+01 2.20802E-01 8.02588E-02-8.03793E+00-2.79655E-02-7.29064E-02
 -1      3037 2.35478E+01 1.42034E-01 4.08231E-02-7.39707E+00-9.32910E-02-1.40187E-01
 -1      3038 2.70638E+00 8.50143E-02 5.25578E-02-7.22944E+00 3.58740E-02-6.75693E-03
 -1      3039-2.46016E+01-2.84281E-02-1.43098E-02-7.68358E+00-1.07731E-01 8.95890E-02
 -1      3040-2.94837E-01 1.96225E-01 4.88124E-02-7.96415E+00-9.29682E-02 3.80448E-03
 -1      3041 2.45339E+01 3.06572E-01 2.24436E-02-8.30028E+00 4.35860E-02 1.14332E-01
 -1      3042-1.40405E+02-8.67341E-02 1.30780E-01-4.74244E+00-6.96173E-02-1.07637E-01
 -1      3043-1.87288E+02 2.93253E-02 1.79896E-01-3.26878E+00 1.00553E-01 2.66820E-01
 -1      3044-4.62018E+01-5.15565E-02-5.61168E-02-7.83097E+00 5.52642E-02 5.12520E-02
 -1      3045 5.25844E+01-5.67645E-02-8.55989E-02-8.05799E+00 6.67866E-02-9.82991E-02
 -1      3046-1.28781E+02-9.25634E-02-1.06028E-01-4.27218E+00 7.56628E-02-1.18446E-01
 -1      3047-1.76366E+02-1.07562E-01-8.44041E-02-3.05378E+00-7.32603E-02 1.91249E-01
 -1      3048 1.83625E+02-1.01929E-01-1.20054E-01-4.66321E+00 4.81868E-02-8.69085E-02
 -1      3049 1.40169E+02-2.26190E-01-1.26189E-01-5.62381E+00 1.19589E-01 3.51517E-02
 -1      3050 1.92605E+02-9.28125E-03 7.20257E-02-4.64391E+00 2.22517E-01-4.60896E-02
 -1      3051-2.16058E+01 2.50885E-01-4.47862E-02-7.74683E+00 2.64849E-02 5.72807E-02
 -1      3052 2.37481E+01 1.21567E-01-8.16966E-02-8.08216E+00 6.11430E-02-8.14845E-02
 -1      3053 1.06736E+02-1.10653E-01-1.24514E-01-5.03348E+00 1.98566E-02 2.98599E-01
 -1      3054 9.27805E+01 2.34182E-02 3.42192E-02-4.99104E+00 1.98347E-02-2.81306E-01
 -1      3055 9.91128E+01 1.78476E-01 2.52195E-02-4.91712E+00-3.38452E-02-2.12432E-01
 -1      3056-4.91901E+01-4.22821E-01 1.53296E-02-7.69857E+00-6.99523E-03 1.65200E-01
 -1      3057-2.03469E+02-1.73916E-01 1.15870E-01-2.89510E+00 5.49093E-03-3.15357E-01
 -1      3058-2.00541E+02-8.14169E-02-1.11412E-01-2.83000E+00 6.46256E-02-3.18085E-01
 -1      3059-1.85837E+02 5.75998E-02 1.17547E-01-2.86680E+00 2.47585E-02-1.79980E-01
 -1      3060-1.15023E+02-5.23862E-02-4.37627E-02-6.35751E+00-5.47977E-02-1.37968E-01
 -1      3061-1.18061E+02-2.70906E-01 1.00239E-02-6.13142E+00-6.14206E-02-1.58957E-01
 -1      3062 1.30032E+02 1.38031E-01 1.78932E-01-4.79456E+00 3.37222E-02-2.57238E-02
 -1      3063 1.25033E+02-1.90310E-02-1.47887E-01-4.75493E+00-2.84263E-02 5.41348E-02
 -1      3064 3.71885E+01 1.02734E-01 3.69766E-02-7.82955E+00 1.65911E-02 8.73255E-02
 -1      3065 5.65795E+01 1.29818E-01-5.93344E-02-7.63086E+00 7.11601E-02-1.07731E-01
 -1      3066 6.20444E+01 1.70679E-01 9.30466E-03-7.62367E+00-3.31970E-02-1.47483E-01
 -1      3067 1.89722E+02 4.87634E-02-5.34521E-02-4.68922E+00-2.80120E-02 2.22849E-01
 -1      3068 3.44957E+01 2.14448E-01-9.30561E-03-8.26292E+00 8.28171E-02 1.21871E-01
 -1      3069 1.89684E+02-6.41878E-02-1.14221E-01-4.62900E+00-3.62317E-01 7.70512E-01
 -1      3070 1.89611E+02-1.41289E-01-1.32901E-01-4.41811E+00-1.14167E-01 4.43465E-01
 -1      3071-1.11043E-01-5.46542E-02-2.71379E-02-8.01963E+00 7.49533E-02 7.22864E-03
 -1      3072 4.54826E+01-2.24668E-01-2.72083E-02-8.19749E+00-6.98408E-02 1.30265E-01
 -1      3073 1.87541E+02-2.13002E-01-7.08638E-02-4.56708E+00-1.14188E-01 1.08801E-01
 -1      3074 1.77819E+02-1.55110E-01-3.36828E-02-4.46047E+00 7.01163E-02-9.11665E-03
 -1      3075 9.90126E+01 9.70790E-02 7.65114E-02-6.91971E+00-7.79298E-02 2.13262E-02
 -1      3076 1.31248E+02-8.22273E-02 5.72870E-02-5.01735E+00-1.14474E-01 1.06328E-01
 -1      3077-4.31337E+01 1.72143E-01-1.43413E-03-7.65959E+00-6.87157E-02-1.55169E-01
 -1      3078 4.09249E+01 2.66423E-01 4.24074E-02-4.42959E+00-1.05342E-02-1.03519E-01
 -1      3079 1.16581E+01 5.91683E-02 6.59866E-03-7.43774E+00 1.49177E-02 2.50008E-01
 -1      3080 4.47296E+01 2.32503E-01-1.55555E-02-4.51554E+00 7.96353E-02 2.99601E-02
 -1      3081-3.17898E+01 1.08907E-01 6.25598E-03-4.39614E+00 1.62890E-01-1.23511E-02
 -1      3082-2.86750E+01 8.92795E-02-3.83947E-02-4.47819E+00 1.29160E-01-3.64783E-02
 -1      3083-4.48008E+01-5.03466E-02 2.73901E-02-3.24938E+00-8.01740E-02 1.82928E-02
 -1      3084-4.09876E+01-1.00894E-02-4.69612E-02-3.29820E+00 2.77932E-02-1.07436E-01
 -1      3085-1.18145E+01 2.95931E-01 8.55681E-03-7.02982E+00-3.87282E-03 2.60090E-01
 -1      3086-2.56280E-02 3.96824E-01 5.26150E-02-7.89707E+00 1.19645E-02-3.89031E-03
 -1      3087 8.89753E-02 3.56131E-01 6.86333E-02-7.84983E+00-5.45528E-02-1.84834E-02
 -1      3088 1.15037E+01 5.48172E-02-4.99073E-02-8.04788E+00-9.01872E-02 8.20480E-02
 -1      3089 1.13600E+01 1.97022E-01 8.08689E-03-7.89741E+00 3.36810E-02 4.69808E-02
 -1      3090-1.15672E+01 2.94879E-01 1.87571E-02-7.58013E+00-2.55674E-02 6.87242E-02
 -1      3091-1.18683E+01 3.02570E-01 4.70189E-02-7.67656E+00 8.14815E-02 9.20995E-02
 -1      3092-1.63462E+01 1.64316E-01-8.68568E-02-7.47574E+00-3.27545E-02 9.96661E-02
 -1      3093-1.65329E+00 3.04162E-01-2.27379E-02-7.18286E+00 4.28774E-02-4.79582E-02
 -1      3094-1.61118E+01 1.34542E-01-6.17607E-02-6.95259E+00-9.56753E-02 1.84275E-01
 -1      3095 1.60390E+01 2.46651E-01 8.65350E-02-7.93500E+00 3.10712E-02 9.62338E-02
 -1      3096 1.36098E+00 5.95254E-02 1.18878E-02-7.23095E+00-4.38151E-02-4.42159E-02
 -1      3097 1.58215E+01 2.35903E-01 5.46774E-02-7.41356E+00 8.97872E-02 1.88761E-01
 -1      3098 5.30482E+01 5.20947E-02-5.18329E-02-4.23954E+00-4.81328E-02 6.99309E-03
 -1      3099 3.15403E+01 3.36312E-01 7.87563E-02-6.88216E+00 9.40586E-02-5.57236E-02
 -1      3100-5.30667E+01 1.41216E-01 6.23571E-02-2.73769E+00 5.30257E-02 9.26137E-03
 -1      3101-3.17791E+01 6.47969E-03-8.37509E-02-5.99580E+00-9.02222E-02-5.83102E-02
 -1      3102-1.63962E+02-2.26899E-01 2.86534E-02-2.75194E+00 9.58800E-02-1.35430E-01
 -1      3103 4.09882E+01 1.24800E-01-4.76069E-03-8.23698E+00 8.29754E-02 1.20598E-01
 -1      3104 1.56312E+02-1.04377E-01 5.09957E-02-4.87565E+00-9.93791E-02 1.27620E-01
 -1      3105 1.01242E+02 2.43516E-01-3.62360E-02-5.02262E+00-9.79915E-02-3.60184E-03
 -1      3106 2.63134E+01-1.13716E-02-2.91514E-02-8.20899E+00 8.60865E-02-1.07296E-01
 -1      3107-1.38947E+02-9.62058E-02 4.14700E-02-2.58646E+00 1.04363E-01-1.21397E-01
 -1      3108-3.64802E+01 1.65086E-01-8.56454E-03-7.62663E+00-8.15741E-02-1.13312E-01
 -1      3109-1.01236E+01-4.16338E-02-1.26721E-01-7.15168E+00 1.44016E-03 1.55165E-01
 -1      3110-3.72229E+01 1.67471E-01 1.82879E-02-3.34592E+00-2.30668E-02 3.46857E-02
 -1      3111-2.14219E+01 2.02028E-01 4.84481E-03-6.46803E+00-3.23214E-02 2.43538E-02
 -1      3112 9.58026E+00 3.85537E-01-2.37774E-02-7.54647E+00-5.51266E-02 1.94064E-01
 -1      3113 3.71690E+01 5.78138E-02 2.14009E-02-4.35586E+00 1.14178E-02 6.36759E-03
 -1      3114 2.11175E+01 1.79165E-01-1.09103E-02-7.12865E+00 2.07289E-02 4.26776E-02
 -1      3115 9.17509E+00 3.68880E-01 1.08474E-02-8.06724E+00-6.11122E-03 3.41493E-02
 -1      3116-9.42648E+00 5.35919E-02-2.68637E-02-7.74387E+00-1.52816E-02 4.73686E-02
 -1      3117-1.90372E+02-2.24507E-01-2.08147E-02-2.99735E+00-9.98455E-02-3.24361E-01
 -1      3118-1.21473E+02 7.02317E-02 6.22057E-02-6.33186E+00 2.69992E-02-2.55638E-01
 -1      3119-1.04598E+02-1.63802E-01 5.54067E-02-6.17045E+00-3.38795E-03-2.45664E-01
 -1      3120-1.31066E+02 1.16174E-01-2.77678E-02-2.56350E+00 1.05037E-01 1.27328E-01
 -1      3121 1.64272E+02 8.72045E-02-4.65181E-02-4.80425E+00-9.46934E-02-1.09466E-01
 -1      3122 4.29946E+01-1.63191E-01 5.75352E-03-8.17353E+00 9.88218E-02-1.35706E-01
 -1      3123-2.80984E-01-1.69721E-01 1.50494E-02-7.98231E+00-2.71187E-01 2.10569E-02
 -1      3124 4.86864E+01 8.10582E-02 5.65219E-02-8.04891E+00-5.51097E-02 1.14635E-01
 -1      3125 1.39136E+02 1.13913E-01-4.24503E-02-4.99116E+00-9.11883E-02-1.26356E-01
 -1      3126-3.44971E+01-5.32781E-02-4.18953E-03-7.60753E+00-9.75677E-02 1.19800E-01
 -1      3127 1.76562E+02 9.64117E-03 5.77015E-02-4.61331E+00 1.67351E-02 1.76489E-01
 -1      3128 1.82098E+02 9.79119E-02 5.52189E-02-4.38136E+00-7.36921E-02-1.10201E-01
 -1      3129-4.13377E+01-1.27212E-01-7.02171E-03-7.65487E+00-9.08119E-02 1.13758E-01
 -1      3130-1.56218E+02 7.66945E-02-2.27891E-02-2.69528E+00 9.89957E-02 1.25740E-01
 -1      3131-3.70275E+01 8.52203E-02-1.14974E-01-7.35961E+00-8.80351E-02 6.15259E-02
 -1      3132-3.73203E+01-2.19920E-02 1.98936E-02-7.40268E+00 2.64456E-02 6.78008E-02
 -1      3133-3.76177E+01-3.35154E-02-1.12485E-01-6.65075E+00-9.78154E-03-3.75337E-03
 -1      3134 1.49014E+02-3.17772E-02 6.24878E-02-5.02454E+00 2.57646E-03 2.48845E-01
 -1      3135 9.33462E+01-6.79783E-02 7.81472E-03-4.91770E+00-9.48458E-02 1.77401E-01
 -1      3136 3.33952E+01 1.57578E-01 7.84964E-02-8.08353E+00-2.53111E-02-1.10021E-01
 -1      3137 3.31737E+01 1.43182E-01 4.59109E-02-7.55717E+00-8.91072E-02-1.90428E-01
 -1      3138 3.73648E+00-4.73873E-02-6.03050E-03-7.24938E+00 4.65088E-02 4.77401E-02
 -1      3139-5.87677E+01-8.94194E-02-6.33870E-02-2.88241E+00-1.79719E-02-2.43667E-01
 -1      3140 5.82795E+01 1.91952E-01-5.91632E-02-4.51733E+00 3.36850E-02-2.15228E-01
 -1      3141 1.76226E+02-1.56294E-01-5.10492E-02-4.84645E+00-6.68125E-03 2.70170E-01
 -1      3142 5.09017E+01-5.25377E-01-2.69680E-01-7.88291E+00 6.97839E-01-3.11092E-01
 -1      3143-3.37268E+01 5.71532E-02-8.63485E-02-7.33828E+00 3.71072E-02-1.05376E-01
 -1      3144-3.34844E+01 3.75149E-02-6.51377E-02-6.82336E+00 9.66425E-02-1.78017E-01
 -1      3145-4.11333E+00 2.02023E-01-2.83573E-02-7.15396E+00-5.18378E-02 4.60927E-02
 -1      3146-1.75993E+02-1.62376E-01-4.09170E-02-2.53322E+00 5.24806E-03-2.72361E-01
 -1      3147 3.64945E+01-7.05364E-02-3.77862E-03-8.25388E+00 9.63135E-02-1.18225E-01
 -1      3148 1.12159E+02 6.61003E-03-5.93478E-02-4.73313E+00 5.70263E-02-1.08141E-02
 -1      3149 6.38365E+01 2.52349E-01 6.15518E-02-7.10864E+00-9.20745E-02 7.36795E-02
 -1      3150-1.12086E+02 9.07107E-02 4.62202E-02-2.21997E+00-5.22360E-02 3.85773E-03
 -1      3151-6.40818E+01-9.57229E-02-9.00495E-02-5.73762E+00 9.53089E-02 6.20808E-02
 -1      3152-2.36358E+02-1.79769E+01-5.08476E+01-1.19134E+01-1.32039E+00 5.64373E-01
 -1      3153-2.28982E+02-6.82516E+00-4.44608E+01-5.21683E+00 9.64014E-01 9.56466E+00
 -1      3154-2.20916E+02-4.72745E-01-2.44674E+01-9.15982E+00-1.22978E+00-8.90281E-03
 -1      3155-2.21545E+02-8.96629E-01-2.10568E+01-8.11603E+00-1.95924E+00 5.63783E+00
 -1      3156-1.45359E+02-2.77263E+01-3.26830E+01-1.25596E+01-9.81408E-01 5.53571E+00
 -1      3157 1.76978E+02 7.11543E-02-5.37269E-02-4.79931E+00 2.69557E-02-2.47842E-01
 -1      3158-1.48289E+02 1.81596E-01 7.17045E-02-2.35454E+00-1.51898E-02 2.69696E-01
 -1      3159 1.85190E+02-6.25679E-02-4.21931E-02-4.55578E+00 1.46048E-01-4.76951E-01
 -1      3160 1.94034E+02 2.11911E-02-7.37095E-03-4.48417E+00 3.49189E-01-6.72998E-01
 -1      3161-1.76311E+02 1.52605E-01 7.56324E-02-2.50557E+00-1.37734E-02 2.63263E-01
 -1      3162-1.02779E+01-1.08683E-01-9.00670E-02-7.06282E+00 3.96175E-02-1.78637E-01
 -1      3163-1.50429E+01 4.77332E-01 5.91317E-02-6.89683E+00 1.54161E-02 1.46016E-03
 -1      3164-1.31433E+01 5.60658E-01 1.01651E-01-7.04999E+00-2.42391E-02-1.45677E-01
 -1      3165-2.73789E+01-4.66216E-02-1.67100E-01-4.26851E+00-9.16198E-02-1.45313E-01
 -1      3166-8.62968E+01 1.69891E-01 7.39992E-02-2.56862E+00 5.13425E-02-2.12674E-01
 -1      3167-3.13404E+01-1.66438E-01-8.66730E-02-6.83599E+00 8.64783E-03-1.75700E-01
 -1      3168-7.03926E+01 2.50697E-01 1.50029E-01-3.77840E+00 5.41795E-02-1.88969E-01
 -1      3169-9.48178E+01-6.40294E-02-8.37797E-02-2.24984E+00 2.32497E-02-4.99639E-02
 -1      3170-3.82598E+01 3.74595E-01 3.11475E-03-6.56780E+00-2.26175E-02-1.78051E-01
 -1      3171-5.46571E+01 1.83817E-01 5.03644E-02-5.69591E+00 2.60514E-02-1.90090E-01
 -1      3172 1.17425E+02-1.32323E-02-9.59231E-02-7.13977E+00-4.82957E-01 5.24575E-01
 -1      3173 1.18246E+02-1.43221E-01-1.89705E-03-7.06307E+00-1.51127E-01 2.49753E-01
 -1      3174 1.20982E+02 2.38859E-01 6.33150E-02-5.04167E+00-2.72199E-02 2.44274E-01
 -1      3175-1.20379E+02-3.42432E-02 6.32263E-02-2.36689E+00 2.31878E-02 2.17241E-01
 -1      3176-1.51991E+01 2.31412E-01-5.78802E-02-7.77679E+00-3.05401E-02-3.56394E-02
 -1      3177 1.60391E+01 2.70611E-01-4.20018E-02-7.99841E+00-3.34538E-02 8.47237E-02
 -1      3178 1.48879E+01 1.83523E-01 6.21091E-02-8.18702E+00 3.36814E-02-4.30552E-02
 -1      3179-1.63432E+01 1.39568E-01 3.92310E-02-7.53393E+00 2.81028E-02 8.41639E-02
 -1      3180-5.75133E+01 1.17977E-01-3.67470E-02-2.97232E+00 3.79499E-02-1.76202E-01
 -1      3181-5.72002E+01 1.07818E-02-4.06982E-02-2.63349E+00-8.45054E-02 1.70101E-01
 -1      3182 5.74805E+01 6.31912E-02 3.79934E-02-4.56222E+00-2.90677E-02-1.80189E-01
 -1      3183 5.71921E+01 1.62896E-01 4.14755E-02-4.23146E+00 7.88770E-02 1.68999E-01
 -1      3184-1.48414E+02-1.42419E-01-4.80645E-02-2.35783E+00-7.87714E-04-2.71464E-01
 -1      3185-3.02027E+01 1.25478E-01-7.52166E-02-7.63371E+00 3.98799E-02 4.81111E-02
 -1      3186 3.33745E+01 1.69683E-01-4.56067E-02-8.13815E+00 4.34433E-02-9.75220E-02
 -1      3187 2.96280E+01 7.79648E-02 6.25998E-02-8.29495E+00-3.82862E-02 3.96472E-02
 -1      3188-3.38597E+01 5.22398E-02 5.25161E-02-7.38317E+00-1.01021E-02-7.17960E-02
 -1      3189-1.60160E+01 2.46880E-01-9.65646E-02-4.16835E+00-3.09990E-02-8.41533E-02
 -1      3190-2.66903E+00 1.11478E-01-7.51815E-02-7.67292E+00 4.82563E-02-1.54054E-01
 -1      3191-2.23887E+01 2.51269E-02 4.80194E-03-3.32658E+00-1.02492E-01 1.13139E-01
 -1      3192-7.22118E+00 4.05772E-01-6.01346E-02-7.27716E+00-1.01967E-02-2.22080E-01
 -1      3193-9.20879E+00 2.45885E-01 6.07187E-02-7.04169E+00 2.15096E-02-6.86028E-02
 -1      3194 1.49556E+02 2.00882E-01 6.57371E-02-4.98365E+00 1.50474E-02-2.67493E-01
 -1      3195 1.14141E+02 1.78540E-02 2.56631E-02-4.99014E+00 3.42995E-02 1.77244E-01
 -1      3196 1.16264E+02 1.25210E-01 3.87009E-02-4.70061E+00-7.72220E-02-1.80819E-01
 -1      3197 1.97046E+02 1.14138E-01 3.61167E-01-4.77006E+00 3.24207E-01-3.75111E-01
 -1      3198-1.14108E+02 6.98991E-02-2.58497E-02-2.52425E+00-2.62824E-02 1.84219E-01
 -1      3199-1.16202E+02-1.28188E-02-1.21215E-02-2.16519E+00 9.47614E-02-1.82274E-01
 -1      3200-1.96580E+02 6.39144E-02-2.24560E-02-2.74327E+00-3.51857E-02-3.00521E-01
 -1      3201-1.82026E+02 3.34526E-02 1.14555E-01-2.85017E+00 4.80013E-02-3.06025E-01
 -1      3202 5.53573E+00-1.99032E-01 1.06125E-01-6.83669E+00-8.31638E-03-2.18337E-01
 -1      3203 8.01902E+00 1.72003E-01 3.21053E-02-6.79426E+00-6.45500E-02-1.80284E-01
 -1      3204 2.13543E+02-4.69017E-01 7.35049E+00-6.05330E+00 1.25196E+00 6.64784E-01
 -1      3205 1.57397E+02-4.42795E-01 2.12117E+00-8.34737E+00-9.40430E-02 7.61685E-02
 -1      3206 2.01611E+02-5.64406E-01 1.03413E+00-4.64055E+00 2.54291E-01-4.49398E-01
 -1      3207-3.56708E-01 5.21518E-01 2.28181E-01-6.95446E+00-5.65928E-02-1.28775E-01
 -1      3208-2.34386E+00 3.90965E-01-1.94965E-01-6.71380E+00-9.36079E-02 1.28824E-01
 -1      3209-9.93998E-01 6.76481E-01 8.38176E-02-6.57783E+00-7.69244E-03 2.37684E-02
 -1      3210-3.01227E+00 4.83323E-01-3.55657E-01-6.18382E+00-3.14934E-02 1.81504E-01
 -1      3211-3.65636E+00 9.46791E-01-1.72362E-02-6.90350E+00-1.02177E-01 9.48165E-02
 -1      3212-6.85206E+01 1.77867E-01 5.77912E-02-7.06085E+00-7.38099E-02-2.09806E-01
 -1      3213-8.21760E+01 2.00407E-01 6.53411E-02-6.77362E+00-1.73927E-02-2.93885E-02
 -1      3214-6.56575E+01-4.51925E-01-8.02565E-02-6.93416E+00 3.20457E-02-2.00537E-01
 -1      3215 1.61309E+02 6.15173E-02 9.10426E+00-8.39690E+00-1.28531E-01-4.32974E-03
 -1      3216 2.21237E+02 6.91916E-01 1.51305E+01-6.76284E+00-1.62753E+00-2.10173E+00
 -1      3217 2.15914E+02-4.84724E-01 7.60028E+00-5.83005E+00-1.26701E+00-1.00030E+00
 -1      3218 2.04443E+00-2.76901E-01 1.15680E-01-6.82143E+00-4.40225E-02-1.49154E-01
 -1      3219 2.66244E+00-4.27196E-01 2.29273E-01-6.31681E+00-6.17202E-02-1.87312E-01
 -1      3220 9.42251E-01 1.57485E-01 5.85658E-02-7.26461E+00-7.35360E-02-4.53661E-02
 -1      3221 3.64890E+00-5.78114E-01-9.93746E-03-7.00299E+00-7.34777E-02-1.30048E-01
 -1      3222 2.18381E+02 1.57978E-02 1.51993E+01-6.36829E+00 1.60950E+00 1.44312E+00
 -1      3223 6.59980E+00-4.80219E-02 1.08937E-01-5.05288E+00-1.40802E-01 3.00028E-02
 -1      3224 9.13195E+00-6.25220E-02 4.56012E-02-4.95419E+00-8.11298E-02 3.03085E-02
 -1      3225 7.35383E+00-2.72284E-01 9.86290E-02-4.08339E+00 3.50713E-02-1.35300E-01
 -1      3226 1.06084E+01-1.16037E-01 1.63844E-01-4.01872E+00-6.09203E-02 8.20084E-02
 -1      3227-2.87794E+00 5.79642E-01 1.39996E-01-7.31349E+00 1.95142E-02 1.97195E-01
 -1      3228-1.34367E+01-9.37670E-02-4.05547E-02-3.79077E+00 1.81221E-02 6.41524E-02
 -1      3229-6.02432E+00 3.15404E-01-9.57204E-02-6.75909E+00-3.83012E-02 1.14417E-01
 -1      3230-9.46328E-02 2.29017E-01 3.74335E-03-7.97919E+00 5.88033E-02 4.54708E-02
 -1      3231 2.18318E+01 1.20936E-02-8.00420E-02-8.22134E+00-5.27835E-02 6.72733E-02
 -1      3232-6.69597E+00-1.68822E-01-5.11042E-02-7.46515E+00 1.37852E-02 1.57607E-02
 -1      3233-8.01964E+01-4.89202E-02 1.00291E-01-6.63655E+00 1.32191E-01-3.75222E-02
 -1      3234-6.07635E+01 1.05295E+00-1.44428E+00-7.49502E+00-2.69611E+00 2.74023E-01
 -1      3235 4.27192E+00-1.93646E-01-2.91181E-02-9.39502E+00-2.72892E+00 1.03519E-01
 -1      3236-5.15108E+01 3.36620E-01 3.33908E-01-6.65013E+00-1.48618E+00-6.52789E-01
 -1      3237 5.21567E+00-3.09794E-01 1.63803E-01-9.08544E+00-3.06505E+00-1.71509E-01
 -1      3238 6.08855E+01-1.31856E+00 1.82036E+00-7.63930E+00-2.88845E+00-3.36921E-01
 -1      3239 6.30183E+01 2.11950E+00 3.13879E+00-6.68544E+00-3.61140E+00-1.33979E+00
 -1      3240-2.61875E+01-1.73521E-01-1.58959E-01-3.32847E+00 1.18720E-01-1.07526E-01
 -1      3241-8.40956E+01-1.50104E-01-9.56128E-02-2.61142E+00 7.92795E-02-1.21911E-01
 -1      3242-2.35969E+01 3.60669E-01-1.00474E-01-7.04124E+00 6.48666E-02-1.70481E-01
 -1      3243-8.03803E+01-1.59637E-02 3.44031E-02-2.60737E+00-1.10891E-01 1.29511E-01
 -1      3244-1.04153E+02 1.03663E-01-3.37162E-02-2.17729E+00 1.05929E-01 1.36234E-01
 -1      3245-3.17008E+01-1.06175E-01 4.88623E-02-6.76598E+00-5.97355E-02-2.18634E-01
 -1      3246-1.00249E+02 3.34740E-01 1.60758E-01-2.25944E+00-7.82367E-02-1.06488E-01
 -1      3247-1.12197E+01 1.34192E-01-9.71641E-03-7.55557E+00-2.45021E-02-4.08605E-02
 -1      3248-1.11734E+01-1.39891E-02-1.27653E-01-7.79593E+00 5.26432E-02-8.53703E-02
 -1      3249-1.11041E+01-1.02581E-01 1.56970E-03-7.13689E+00 2.51324E-02-2.19336E-01
 -1      3250-3.83211E+01 2.88818E-01 4.93391E-02-3.12532E+00-5.83128E-02-8.53929E-02
 -1      3251-4.22363E+01 1.79919E-01 4.75252E-02-3.10171E+00 7.91924E-02 1.34583E-01
 -1      3252-3.18125E+01 2.53234E-02-4.97072E-02-7.26132E+00-6.37757E-03-9.76898E-02
 -1      3253-3.16104E+01-3.27053E-02-1.11529E-01-7.39875E+00 3.41465E-02-1.13963E-01
 -1      3254-2.35747E+01 3.14171E-01 1.07657E-01-7.57825E+00-2.96400E-02-9.29184E-02
 -1      3255-2.34691E+01 2.72553E-01 4.22590E-02-7.43944E+00 1.82593E-02-5.60654E-02
 -1      3256-3.91158E+00 4.12798E-01-2.34568E-02-7.76287E+00 3.87477E-02 5.90127E-02
 -1      3257-2.38102E+01 1.71380E-02 5.51385E-02-3.33917E+00 3.32878E-02 2.31127E-01
 -1      3258 7.92538E+01-2.55662E-02-5.07550E-02-4.62359E+00 6.91628E-02-4.19722E-04
 -1      3259 4.65191E+01 2.34990E-01 1.30210E-01-7.02115E+00-8.44463E-02 3.74181E-02
 -1      3260 1.77303E+01 2.35187E-01-1.02216E-02-5.10680E+00 1.85443E-01 5.25064E-02
 -1      3261 1.46354E+01 2.23162E-01 4.74381E-02-5.09686E+00 7.03120E-02 1.13853E-01
 -1      3262 1.97030E+01 1.27612E-02 4.47619E-02-3.93059E+00-9.17052E-02 5.52724E-04
 -1      3263 5.71821E+00 2.53423E-01-1.61974E-01-7.25003E+00 4.73788E-02 2.83301E-01
 -1      3264 2.36351E+01 9.21395E-02-2.40455E-02-4.00066E+00 4.85686E-02-7.62320E-02
 -1      3265-6.10225E+01-2.05506E+00-2.71537E+00-6.43471E+00-3.12880E+00 4.09715E-01
 -1      3266-1.06411E+01 3.42372E-01-5.54313E-03-7.81211E+00-4.75352E-03-4.09495E-02
 -1      3267-9.96011E+00 3.87500E-01 1.58920E-01-7.28780E+00 3.05120E-02-1.28199E-01
 -1      3268-2.15806E+01 1.58353E-01-3.09837E-02-6.48891E+00 7.14165E-04-5.50126E-02
 -1      3269-4.31445E+01-7.39375E-02-1.11351E-01-3.34717E+00 1.96149E-02-6.01893E-02
 -1      3270-1.50676E+02-2.46963E-01-1.20262E-01-4.12596E+00-1.04648E-01-2.14602E-01
 -1      3271-1.75060E+01 2.58087E-01-2.88992E-02-4.22820E+00-9.56239E-02-2.43662E-01
 -1      3272-2.38679E+01-8.01265E-02-3.10173E-02-3.24404E+00 8.16431E-03-2.74223E-01
 -1      3273-2.11302E+02-9.00050E-02-9.11373E-02-2.88458E+00-9.60202E-04 5.12307E-01
 -1      3274-5.43539E+01-6.53758E-02 5.53223E-02-7.21508E+00-3.08565E-01-1.45342E-01
 -1      3275-5.42815E+01-2.84273E-01-1.15713E-01-7.60584E+00-7.67320E-02-1.52358E-01
 -1      3276-5.44578E+01-3.62614E-01 1.31351E-01-7.46159E+00-2.01347E-01-2.47158E-01
 -1      3277-5.04488E+01 3.66887E-02 5.08216E-02-7.63286E+00-2.64670E-02-1.11413E-01
 -1      3278-1.96815E+02 4.12634E-02-9.49938E-03-3.20807E+00 2.12598E-02 8.11805E-03
 -1      3279-1.92770E+02 1.20800E-01 1.88056E-01-3.09768E+00-1.12972E-01-1.99551E-01
 -1      3280-1.80376E+02-3.09557E-01-1.01114E-01-2.88069E+00 1.17359E-01-1.14128E-01
 -1      3281 2.16708E+02 2.19411E-01 7.32776E+00-5.51582E+00 1.70418E+00 2.01817E+00
 -1      3282 1.34014E+02-1.64259E+00 2.54814E+00-6.12230E+00 3.17139E+00-7.79902E-01
 -1      3283 2.21385E+02-1.13001E+00 2.10044E+00-5.28491E-01 9.10693E-01-4.56067E-01
 -1      3284 2.02986E+02-1.56375E-01 1.97592E+00-4.11148E+00 8.84574E-01-5.67293E-02
 -1      3285 1.23802E+02-3.08070E-01 2.65744E-01-5.15286E+00 1.13542E+00-1.05586E+00
 -1      3286 7.79096E+00-2.57007E-01 1.60848E-01-3.95691E+00-3.10589E-02 1.50294E-01
 -1      3287 3.47294E+00 5.85425E-02 1.33900E-01-7.42627E+00-8.73725E-02 3.08297E-01
 -1      3288 9.56061E+00 5.71713E-02 1.09800E-01-4.27122E+00-5.43049E-02 6.63731E-02
 -1      3289 5.37352E+00-1.07038E-01 8.29395E-03-6.95857E+00 8.37944E-02 1.60699E-01
 -1      3290 8.56728E+00-1.70042E-01 1.23408E-01-3.97628E+00-1.70822E-02-3.74786E-01
 -1      3291 9.81148E+00-1.33201E-01-5.16788E-02-3.97630E+00-4.14005E-03-3.98213E-01
 -1      3292 1.21433E+01 2.04018E-01 7.62630E-02-3.73861E+00-6.13649E-02-3.02737E-01
 -1      3293-8.83031E+00 4.56954E-01-8.16221E-02-3.59602E+00 1.63992E-02-3.59360E-01
 -1      3294-1.02925E+01 6.68051E-02-7.82920E-02-4.35097E+00 4.78185E-02-3.28854E-01
 -1      3295-2.30618E+02-1.11593E+01-4.75449E+01-7.30082E+00 7.09261E-01-9.26229E+00
 -1      3296-1.45257E+02-2.88584E+01-3.11994E+01-1.20062E+01 2.03462E+00-5.20294E+00
 -1      3297-2.22856E+02 7.52501E-01-2.20176E+01-9.60789E+00 1.85795E+00-5.25350E+00
 -1      3298-1.46517E+02-2.60776E+01-3.13669E+01-1.32973E+01 3.83372E-01 1.64403E-01
 -1      3299-2.83394E+00 8.05893E-01-2.70416E-01-5.96790E+00-1.07267E-03 8.60143E-02
 -1      3300-2.88977E+00 7.38344E-01-2.90189E-01-6.11198E+00 2.02146E-02-1.83239E-01
 -1      3301 8.59808E+01 1.26254E-01-4.77696E-02-4.72627E+00 6.66339E-03 2.57542E-01
 -1      3302 8.93977E+01 9.73897E+00 1.57097E+01-7.27601E+00 1.74215E+00 3.06672E+00
 -1      3303 1.30244E+02-1.86381E-01 1.11512E+01-1.50002E+01 1.92438E-01 2.96605E-01
 -1      3304-1.94462E+02 3.83616E-01-1.25869E+00-4.33440E+00 4.04675E-01 4.65991E-01
 -1      3305-4.10305E+01-1.07444E+00-3.27637E-01-1.10473E+01 7.68976E-01 5.56946E-01
 -1      3306-1.06218E+02 6.25960E-01-2.13664E+00-9.49142E+00 2.11091E+00-1.11550E-01
 -1      3307-2.10470E+00 6.70691E-01-1.31635E-01-6.30895E+00-1.55724E-02 1.26874E-01
 -1      3308-3.90460E+01 1.33841E-01-3.36605E-02-3.17447E+00 1.62160E-02 2.99164E-01
 -1      3309-4.26129E+01 2.43476E-02-5.52199E-03-3.13274E+00-3.70244E-02 1.98052E-01
 -1      3310 3.89705E+01 7.79332E-02 3.75434E-02-4.30661E+00-2.87068E-02 3.25732E-01
 -1      3311 4.25592E+01 1.79826E-01-2.47537E-04-4.36983E+00 2.23029E-02 2.26287E-01
 -1      3312 2.37147E+01 1.64694E-01-6.40274E-02-7.29739E+00-4.06689E-02 1.05798E-01
 -1      3313 2.67543E+01 2.46557E-01 7.37076E-03-7.27031E+00 2.54162E-02 1.29851E-01
 -1      3314-2.39941E+01 2.33686E-01 5.36934E-02-6.58914E+00 3.81277E-02 9.33252E-02
 -1      3315-2.69972E+01 1.40746E-01-1.41675E-02-6.47048E+00-2.42796E-02 1.27666E-01
 -1      3316-4.56112E+01 3.03509E-01 3.22324E-01-6.95351E+00 1.66460E+00 5.69450E-01
 -1      3317 2.03378E+00-2.66956E-01 1.31265E-01-6.77948E+00 4.69466E-02 1.57513E-01
 -1      3318-3.00949E-01 5.24846E-01 2.42828E-01-6.91158E+00 5.68511E-02 1.16685E-01
 -1      3319 9.72835E-01 1.96196E-01 9.46730E-02-7.23113E+00 4.34200E-02 2.71234E-02
 -1      3320 2.77740E+00-3.58417E-01 3.08485E-01-6.32303E+00 7.98076E-02 2.05963E-01
 -1      3321 3.67311E+00-5.34273E-01 5.66090E-02-7.00537E+00 3.07671E-02 1.33879E-01
 -1      3322-2.16626E+02-1.11359E+00-7.45640E+00-5.13418E+00-1.90816E+00 2.22873E+00
 -1      3323-1.34162E+02 1.30102E+00-2.39953E+00-5.80679E+00-3.08015E+00-4.98544E-01
 -1      3324-2.21282E+02 1.13588E+00-1.91092E+00 5.25477E-02-1.02200E+00-3.51934E-01
 -1      3325-2.01217E+02-1.33607E-01-2.13515E+00-3.45295E+00-8.21520E-01 1.56173E-01
 -1      3326-1.22619E+02 6.71255E-02-2.84468E-01-4.88847E+00-1.01467E+00-1.19164E+00
 -1      3327-6.86454E+00 2.70871E-01 8.52082E-02-7.78558E+00 4.32908E-02-8.49056E-02
 -1      3328-2.50059E-01 2.35454E-01-5.35686E-02-7.96720E+00 4.24474E-02 3.63758E-02
 -1      3329 6.10757E+00 3.28789E-01 9.82548E-02-7.91409E+00 5.27170E-02 7.90351E-02
 -1      3330-6.29480E-01 2.56693E-01 6.68583E-02-7.18307E+00-4.23040E-02 2.91229E-03
 -1      3331-7.37049E+00 3.25755E-01-1.93376E-02-7.88719E+00 1.84149E-02-6.71436E-02
 -1      3332 6.14757E+00 1.74056E-01-3.78577E-02-7.91219E+00-8.04043E-02 6.59566E-02
 -1      3333 2.36602E+00-2.64681E-02 6.88246E-02-7.53744E+00 5.14610E-02 8.87717E-02
 -1      3334-3.23297E-01 1.42610E-01 3.10009E-03-6.85675E+00 8.49923E-02 1.79801E-02
 -1      3335-7.49714E+01 1.43161E-01-6.92509E-02-2.80351E+00-4.71303E-02-9.76407E-03
 -1      3336-1.99682E+01-3.99522E-02-8.14633E-02-7.03705E+00 2.82740E-03-2.00347E-01
 -1      3337-4.32284E+01 1.64990E-01 5.68972E-02-6.14785E+00 1.98293E-02-4.83098E-02
 -1      3338-2.64438E+01 2.77103E-01 1.16904E-01-6.93562E+00 2.92248E-03-2.51330E-01
 -1      3339-1.00892E+02-5.08371E-02 8.61658E-02-2.62510E+00 4.04547E-02 1.64796E-02
 -1      3340-5.81806E+01 5.03630E-02-7.33597E-02-5.81661E+00-1.16758E-02-5.89053E-02
 -1      3341-1.93996E+01 1.02246E-01 5.25586E-02-7.57885E+00 3.16630E-02-4.08524E-02
 -1      3342-2.71593E+01 2.13968E-01-7.04239E-02-7.49834E+00-3.23143E-02-7.80801E-02
 -1      3343 8.30209E+01 1.39518E-01 2.49614E-02-4.80984E+00 2.51882E-03 8.06706E-02
 -1      3344 8.36682E+01 2.28979E-01 5.32466E-02-4.58037E+00-6.43014E-02-7.74921E-02
 -1      3345 2.24793E+02 6.90001E+00 4.32580E+01-4.65366E+00 1.05258E+00-9.47275E+00
 -1      3346 2.32199E+02 1.88967E+01 5.00524E+01-1.07030E+01-8.56136E-01-5.44170E-01
 -1      3347 2.24517E+02 7.59731E-01 2.15871E+01-8.46581E+00-1.99995E+00-6.18540E+00
 -1      3348 2.23780E+02 7.69092E-01 2.53083E+01-9.75861E+00-1.40879E+00-1.24955E-01
 -1      3349 1.43661E+02 2.74088E+01 3.31218E+01-1.23489E+01-1.10032E+00-5.90061E+00
 -1      3350-6.02386E+00 6.86618E-01-1.07778E-01-6.70993E+00 1.50357E-02-2.80087E-01
 -1      3351-1.06453E+01 2.65320E-01-1.03249E-01-3.71908E+00 4.42053E-02-3.31335E-01
 -1      3352-6.29922E+00 3.76174E-01-2.83009E-02-7.27281E+00 9.68435E-02-1.25994E-01
 -1      3353-6.32679E+01-4.99172E+00-4.65462E+00 6.63824E+00-1.46838E+00 4.78934E+00
 -1      3354 5.50751E+00-6.34972E+00-5.57012E+00 7.89217E+00-2.64581E-01 2.13658E+00
 -1      3355 1.04108E+02 5.95179E+00 5.94879E+00-5.03431E+00-4.68290E+00-2.86901E+00
 -1      3356 3.38265E+01-1.80272E+00-1.56681E+00-3.29249E+00-3.88816E+00-1.38768E-01
 -1      3357 2.38285E+01-5.74230E-01 1.74635E+00-3.97905E+00-3.73977E+00-1.37405E+00
 -1      3358 1.97071E+02-5.54417E-01 1.21888E+00-4.95437E+00-4.07603E-01 4.68347E-01
 -1      3359 5.43818E+01 7.21620E-01 3.84154E-01-1.09581E+01-9.46083E-01 6.40530E-01
 -1      3360 1.11286E+02-7.10068E-01 2.40592E+00-9.55826E+00-2.15071E+00-1.01932E-02
 -1      3361-3.25952E+00 3.56168E-01-2.15118E-01-3.33504E+00 5.96396E-03-2.58268E-02
 -1      3362-4.08766E+00-2.34258E-01-6.92369E-01-3.02352E+00-2.24138E-02 1.91970E-01
 -1      3363-4.91648E+00 3.06572E-01 2.71811E-02-4.14459E+00 1.39681E-03-5.05923E-03
 -1      3364-4.77704E+00 4.05177E-01 1.48211E-02-4.05041E+00-1.79396E-02 3.08872E-01
 -1      3365-3.87838E+00 6.82399E-01-4.82794E-01-5.95682E+00-6.72109E-02 1.36220E-01
 -1      3366 4.57007E+01-6.34171E-01-3.60836E-01-7.09170E+00-1.56331E+00 4.88748E-01
 -1      3367 8.62356E-01 2.14382E-01 3.00469E-02-7.33653E+00 2.30837E-03-7.03145E-03
 -1      3368 4.22649E+01-8.44394E-02-1.06182E-01-8.04893E+00 3.21222E-02-2.33143E-02
 -1      3369-4.64873E+01-1.32775E-01-2.36860E-02-7.67952E+00 6.11639E-02 5.11611E-03
 -1      3370-3.43904E+00-1.52374E-01 1.42015E-01-7.34637E+00-5.06882E-03 4.68687E-02
 -1      3371-5.48996E+00 1.03663E-01-5.90202E-03-7.19395E+00 8.61024E-04 1.90775E-02
 -1      3372-9.51089E+01-2.03534E-01-4.41774E-03-6.43439E+00 5.02773E-02 1.44718E-01
 -1      3373-4.86154E+01 3.85428E-02 6.61822E-02-7.64315E+00-5.67751E-02 7.77463E-02
 -1      3374-2.14015E+00 1.67519E-01 1.17507E-01-8.14600E+00 4.81123E-03 6.19509E-02
 -1      3375 2.94640E+01-5.37043E-03 4.62651E-02-4.25560E+00-5.30491E-02-1.27343E-01
 -1      3376 1.31379E+01 1.84525E-01-1.04031E-01-7.05335E+00-6.40112E-03 2.10681E-02
 -1      3377 2.96209E+01 5.49483E-02 1.24702E-01-4.19692E+00 1.89821E-02 7.68189E-02
 -1      3378 3.29025E+01 9.82243E-02-3.61581E-02-4.23728E+00-3.72338E-02 1.88679E-02
 -1      3379 1.63001E+01 2.25152E-01 8.66934E-02-7.16059E+00-2.47489E-02 1.18757E-01
 -1      3380 1.58045E+01 1.46688E-01-4.99863E-03-7.13594E+00-7.21705E-02 9.93627E-02
 -1      3381 6.50423E+00 2.93671E-01-8.19217E-03-8.00686E+00 2.32369E-02-3.44245E-02
 -1      3382-7.17832E+00 1.39229E-01-5.68836E-02-7.73116E+00 3.03086E-02 3.33374E-02
 -1      3383-3.19086E-02 3.31807E-01 1.27056E-01-7.42931E+00-3.46297E-02-7.74174E-03
 -1      3384-1.91030E+00 4.30694E-01 1.41587E-02-7.18733E+00-8.79106E-03 3.29852E-02
 -1      3385-1.64857E+01 5.30479E-02-1.21449E-01-6.61754E+00 7.44603E-03 1.11202E-01
 -1      3386-9.23329E+00 3.21363E-01-1.39260E-02-7.73407E+00-7.23376E-02 6.33014E-02
 -1      3387 8.65723E+01-2.01522E-01-1.64559E-02-7.40046E+00 3.99843E-02-1.49061E-01
 -1      3388 4.40766E+01-1.55156E-01-4.93537E-02-8.06275E+00 1.09141E-01-5.58720E-02
 -1      3389-3.96295E+00 4.17974E-02 1.85847E-01-7.39072E+00 1.21597E-01 1.65275E-02
 -1      3390 1.49200E+01-1.93842E-02-1.40484E-03-7.35566E+00 4.73789E-02-5.35066E-03
 -1      3391 3.94501E+01 5.50559E-02 4.11712E-02-7.04601E+00 2.77448E-02-3.53078E-02
 -1      3392 2.60152E+01-5.38910E-03-7.48891E-02-6.89507E+00-9.04127E-02 5.45055E-02
 -1      3393-5.09511E+00 1.69626E-01-1.98452E-02-7.17237E+00 5.31133E-02 3.51803E-03
 -1      3394 4.80405E+00 2.85494E-01 2.56903E-02-7.32268E+00-3.41737E-02 1.14792E-02
 -1      3395-2.62717E+01 3.11884E-01 4.42538E-02-6.14902E+00 5.51286E-02 4.04224E-02
 -1      3396 7.03875E+00 3.36379E-01 4.92710E-02-7.33433E+00 7.33739E-02-7.42783E-04
 -1      3397 5.07513E+00-6.38992E+00-6.00112E+00 8.16267E+00 8.73048E-02-2.19853E+00
 -1      3398-6.36431E+01-4.99323E+00-4.56783E+00 6.92388E+00 1.40747E+00-5.00175E+00
 -1      3399 2.13184E+01-5.91868E-01 1.61554E+00-4.31582E+00 3.77538E+00 1.49548E+00
 -1      3400 3.11848E+01-2.50721E+00-2.49338E+00-3.45152E+00 3.65797E+00-6.45003E-02
 -1      3401 1.01914E+02 5.67094E+00 5.81184E+00-5.46690E+00 4.83286E+00 2.94957E+00
 -1      3402 3.17555E+01 1.42111E-01-2.01898E-01-4.21921E+00 2.05243E-02-9.15190E-02
 -1      3403 1.47458E+01 7.55538E-02-1.79683E-03-7.13633E+00-2.64050E-02-7.20855E-02
 -1      3404 1.78920E+01 1.20115E-01 3.15448E-02-7.13829E+00 3.16438E-02 2.34593E-02
 -1      3405 8.22777E+00 1.50453E-01-3.71095E-03-8.01965E+00-5.49489E-03-3.09255E-03
 -1      3406-3.89981E-01 2.43241E-01 2.44212E-01-7.37883E+00 8.40010E-02-4.12412E-02
 -1      3407 9.64267E+00 1.55990E-01 2.37669E-02-7.36327E+00 4.32480E-02-9.56100E-03
 -1      3408 6.88924E+00-2.16219E-01-1.48970E-03-8.33431E+00 7.48828E-01-1.65643E-01
 -1      3409-6.08423E+00 2.72182E-01-5.31927E-02-7.47817E+00-1.20687E-02 2.54609E-02
 -1      3410 8.88939E+01-2.28576E-01-7.08806E-02-7.04305E+00 6.96679E-02-1.21818E-02
 -1      3411-2.56719E+01 3.22724E-02-7.76365E-02-6.62450E+00 9.05591E-02-1.67656E-01
 -1      3412-2.54586E+01 2.60847E-01-3.30984E-02-6.40629E+00-5.33603E-02-1.41961E-01
 -1      3413-4.15181E+01-5.07706E-02-2.08597E-02-3.33123E+00 1.04049E-01-2.49971E-01
 -1      3414-4.07119E+01 2.09265E-01 1.74460E-03-2.97008E+00-7.59607E-03-2.54096E-01
 -1      3415-5.07641E+01-3.39295E-02-3.88549E-02-7.93861E+00-4.76350E-01-4.39168E-01
 -1      3416-1.95040E+02-1.81135E-01-2.53134E-01-3.70666E+00-3.81013E-01-3.07819E-01
 -1      3417-1.04732E+02-2.17891E-01-1.19068E-02-6.66050E+00-4.05732E-01-3.90095E-01
 -1      3418-5.61251E+01 2.46115E-01 4.10462E-02-5.89310E+00-8.10748E-02-4.42429E-02
 -1      3419 4.08054E+00 4.40612E-01 7.28436E-01-3.18178E+00-1.60153E-02-1.98267E-01
 -1      3420 3.25036E+00-8.89383E-02 2.73971E-01-3.45942E+00 9.78252E-03-1.31669E-02
 -1      3421 4.64662E+00-1.99334E-01 1.48084E-03-4.09006E+00-1.05552E-02-3.21804E-01
 -1      3422 4.73663E+00-1.50799E-01-4.37713E-02-4.15553E+00 1.53271E-02-4.82283E-02
 -1      3423 3.66278E+00-3.25382E-01 5.23445E-01-6.04939E+00-5.87769E-02-1.51151E-01
 -1      3424 1.79073E+02-1.12674E-01-2.69181E-01-4.54359E+00 5.43432E-02-9.89073E-02
 -1      3425 1.76638E+02-5.98290E-02 5.20899E-02-4.64416E+00 4.13343E-02-1.18277E-01
 -1      3426 1.83464E+02 2.32406E-03-5.01986E-02-4.45480E+00-1.06728E-01 7.70291E-02
 -1      3427 9.09171E+01-8.18013E-02 3.90992E-02-7.30544E+00-5.85043E-02 5.77909E-02
 -1      3428 9.29534E+01-1.18128E-01-2.35591E-02-7.24290E+00-3.69812E-02 9.31648E-03
 -1      3429 5.58372E+01-5.90041E-02-7.87780E-02-7.14520E+00 7.30953E-02-3.87758E-02
 -1      3430-9.98798E+00 4.48199E-02-3.84353E-02-7.16051E+00-4.00590E-02-1.31446E-03
 -1      3431-1.11731E+01 2.05849E-02-2.93927E-02-7.04657E+00 2.33771E-02 1.12192E-03
 -1      3432 6.26612E+01 8.17870E-04-7.16708E-02-7.16940E+00-4.94816E-02 3.68884E-02
 -1      3433-9.67214E+01-5.49376E-01-7.81303E-01-7.93036E+00-1.70189E-02-7.07090E-02
 -1      3434-5.10051E+01 1.65413E-01 1.97888E-01-7.59462E+00-6.45931E-01-2.83467E-01
 -1      3435-2.18915E+01 7.50214E-02-4.46086E-02-7.57248E+00 9.70664E-02 2.75759E-02
 -1      3436-1.21515E+00-1.11124E-02-4.10749E-03-7.15413E+00 4.03274E-02 2.89200E-02
 -1      3437 2.15163E+01 1.59194E-01 5.36052E-02-8.12453E+00-7.37070E-03-4.27993E-02
 -1      3438-2.40043E+01 2.15738E-01 5.13953E-02-7.61367E+00-4.51976E-02 8.87825E-03
 -1      3439-3.12171E+00 9.00357E-02-1.28952E-01-7.34648E+00 5.92889E-02 6.33295E-02
 -1      3440-4.57657E+01 3.15397E-01 9.57537E-02-6.23841E+00 3.22705E-04 8.73288E-02
 -1      3441 8.80877E+01-3.11982E-02-1.86766E-01-7.18283E+00 1.34254E-01-9.95183E-03
 -1      3442 1.80184E+02-2.87252E-01-5.46996E-03-4.46851E+00 8.51282E-02 1.38788E-01
 -1      3443 9.45259E+01-8.39211E-02 1.53105E-02-7.24355E+00-9.76806E-02 1.13460E-01
 -1      3444-1.03078E+00 7.05223E-01 1.68526E-01-6.59640E+00 5.51162E-02-3.13881E-02
 -1      3445-3.61153E+00 7.74524E-01-4.62034E-02-6.94746E+00 8.70959E-02-1.47914E-01
 -1      3446 7.27663E+01 1.48784E+01 7.67653E+00 8.07925E+00-3.93240E-01-5.51529E+00
 -1      3447 1.01208E+02 1.50962E+01 1.74909E+01-4.46449E+00-2.32472E+00-8.17868E+00
 -1      3448-6.12483E+01 2.26890E-01-9.62010E-03-2.84302E+00 9.45663E-02-5.59602E-02
 -1      3449-2.84487E+01 1.63910E-01 1.08899E-01-6.46054E+00 1.52325E-01 3.10066E-04
 -1      3450-5.92724E+01 5.22455E-02-7.60580E-02-3.15918E+00 2.56138E-02 1.53910E-02
 -1      3451-6.73340E+01 4.31563E-02 1.90408E-02-2.54989E+00-1.41996E-02-1.24549E-01
 -1      3452-3.36745E+01 1.65645E-01 2.63479E-02-6.26666E+00-3.11724E-03 1.58720E-02
 -1      3453-3.58512E+01 1.29909E-01 5.75128E-02-6.24541E+00-2.44022E-02-1.29004E-01
 -1      3454 1.31987E+01 2.32582E-01-4.70929E-02-8.13516E+00-3.14349E-02-1.57720E-02
 -1      3455-1.68312E+00 1.46711E-01 1.32544E-01-7.26715E+00 2.24829E-02-4.62989E-02
 -1      3456-1.54777E+01 1.70356E-01-9.05035E-03-7.65036E+00-1.00317E-01 7.21587E-03
 -1      3457-2.05085E+01 2.44058E-01-2.25626E-02-7.56964E+00 2.71497E-02-3.72338E-02
 -1      3458-6.49193E+00 2.49519E-01-3.49673E-02-7.08752E+00 9.70327E-02-9.86347E-03
 -1      3459 1.83633E+01-3.72262E-02-4.10045E-02-3.94413E+00-2.43857E-02 1.00386E-02
 -1      3460 1.04767E+01 1.20896E-01 1.35327E-01-6.52560E+00-1.00494E-01 8.77173E-02
 -1      3461-3.83373E+01-1.41310E-01-8.20361E-02-6.62228E+00-5.07077E-02-7.69318E-03
 -1      3462-7.26683E+00 1.56679E-01-8.82587E-03-7.87062E+00-1.31028E-02 7.09905E-02
 -1      3463-4.05094E+01 1.96103E-01-9.87416E-02-6.60538E+00-3.44844E-02 5.90403E-04
 -1      3464 5.75068E+00 8.08597E-02 9.04529E-02-7.44499E+00-8.44393E-02 7.84502E-02
 -1      3465 3.35175E+01 2.32985E-02-3.88307E-02-8.15238E+00 7.90566E-02 3.07525E-02
 -1      3466-2.92857E+01 1.10478E-01-3.16519E-02-7.68415E+00 3.93520E-02-3.65714E-02
 -1      3467 9.50963E+00 1.70553E-01-5.91771E-02-7.32883E+00-1.10380E-01 1.05783E-01
 -1      3468 3.69480E+01 1.21085E-01-1.68003E-02-8.20355E+00-4.19583E-02 5.01202E-02
 -1      3469 7.15806E+01-7.56699E-03 2.29360E-02-7.33896E+00 1.67117E-02 2.24748E-01
 -1      3470-1.27152E+02-1.05397E-01 3.67809E-02-2.44558E+00 9.86762E-02 4.55207E-02
 -1      3471-6.33677E+01-2.05738E-02-1.46254E-01-6.32637E+00 1.42792E-01 2.76477E-02
 -1      3472-1.21569E+02 6.57090E-03 6.37137E-02-2.70873E+00 3.21731E-03-6.77280E-02
 -1      3473-1.29490E+02 2.33828E-02-4.74470E-02-2.19186E+00-6.57147E-03 1.36267E-01
 -1      3474-6.64630E+01 8.41246E-02-5.03181E-02-6.01093E+00-3.35630E-02 1.35980E-03
 -1      3475-7.18042E+01 1.46747E-01-7.40013E-02-5.96737E+00-3.69325E-02 1.32549E-01
 -1      3476-6.21443E+00 3.45885E-02-9.82807E-02-7.38275E+00 5.82613E-02 3.83367E-02
 -1      3477-3.39098E+01 9.25221E-02 2.81369E-02-7.53637E+00-4.55559E-02 4.63052E-02
 -1      3478-9.95979E+00-4.26696E-02-2.93828E-02-7.14846E+00 1.95320E-02-6.42223E-02
 -1      3479-2.81213E+00 3.92297E-01-1.58342E-01-7.56135E+00 4.35394E-02-5.28803E-02
 -1      3480-2.84599E+00 3.71247E-01-4.04767E-02-7.74112E+00-3.67654E-02-3.50309E-02
 -1      3481 3.11778E+00 2.32705E-01 6.63417E-02-7.99073E+00-5.52091E-03 3.90394E-02
 -1      3482 4.42289E-01 2.76343E-01-6.81199E-02-7.07875E+00 6.18145E-02-3.35555E-02
 -1      3483 3.01933E+00 1.59622E-01 1.03354E-02-7.77611E+00 8.28193E-02 4.21344E-02
 -1      3484-1.86706E+02-2.45158E-03-9.39308E-02-2.58736E+00 4.78199E-02-2.58269E-01
 -1      3485-1.82935E+02 9.23325E-02-3.54097E-02-2.59667E+00-2.92482E-02-2.63834E-01
 -1      3486-1.65974E+02 8.55291E-02 4.47065E-02-2.80750E+00 5.46092E-02-2.72968E-01
 -1      3487-1.03185E+02 6.83133E-02-5.43278E-02-6.33415E+00-6.85453E-02-1.33035E-01
 -1      3488 3.61585E+00 3.21575E-01 4.85439E-02-7.31126E+00-6.65937E-02 6.51306E-02
 -1      3489-1.43563E+01 2.42594E-01 1.79879E-01-6.31887E+00-1.66254E-02 1.08143E-02
 -1      3490-2.02646E+01 1.31758E-01-3.66548E-02-6.27222E+00-7.48438E-02-3.93950E-03
 -1      3491-1.48614E+00 1.51243E-01 3.71997E-02-7.27639E+00-2.02861E-02-4.47026E-02
 -1      3492 1.40376E+02 2.42705E+01 2.96276E+01-1.29265E+01 1.50994E+00-1.48245E-01
 -1      3493 2.24073E+02 1.88686E+00 2.42212E+01-9.45396E+00 2.23697E+00 5.77286E+00
 -1      3494 1.30609E+01 2.48834E-01 1.80048E-01-4.17013E+00 5.78497E-02 7.82524E-02
 -1      3495-5.53112E+01 5.44083E-02-1.54855E-01-5.64811E+00 4.82009E-02-5.21958E-04
 -1      3496-4.53856E+01 2.08622E-01 1.37010E-01-5.97591E+00-2.29771E-03 1.01332E-03
 -1      3497 1.27305E+02 1.00519E-01-1.44299E-02-4.95475E+00-1.04068E-01 2.32239E-02
 -1      3498 6.28887E+01 1.68572E-01 1.23055E-01-7.48926E+00-1.65983E-01 5.60113E-02
 -1      3499 6.61115E+01 2.24192E-01 1.34409E-01-7.22492E+00 7.31130E-02 2.34307E-02
 -1      3500 2.08301E+01 1.48630E-01-5.15429E-02-8.17511E+00-3.84357E-02 1.30983E-02
 -1      3501 4.24948E+01 3.31368E-01 1.17171E-01-7.50318E+00-4.34494E-02-9.38196E-02
 -1      3502-1.21277E+00-5.09403E-02-1.14734E-01-7.37157E+00-1.87089E-03 4.21902E-03
 -1      3503 2.54107E+01 2.32219E-01 1.06413E-02-4.21325E+00 7.44808E-02 4.47490E-02
 -1      3504 6.34168E+00 1.28404E-02-9.02452E-02-7.46372E+00 3.61381E-02 2.91802E-01
 -1      3505 1.28309E+01 1.28272E-01 9.13726E-03-6.95306E+00-2.72571E-02 8.68937E-02
 -1      3506-1.59871E+00 2.47125E-01-3.73382E-02-7.27988E+00-2.40158E-02-2.49410E-02
 -1      3507-1.00073E+02-1.37758E+00-3.73482E+00-4.28843E+00-4.65669E+00 2.15457E+00
 -1      3508-9.06815E+01-9.29125E+00-1.61586E+01-3.84626E+00-2.09693E+00 5.49964E+00
 -1      3509 1.06764E+02 1.00833E-01-5.32354E-02-4.86377E+00 2.90360E-03-2.54260E-01
 -1      3510 3.74598E+01 1.65543E-01-9.54718E-02-4.20518E+00 2.68436E-02 2.59039E-01
 -1      3511 3.12757E+01 8.51586E-02-2.92815E-03-4.22748E+00-2.28185E-02 2.97368E-01
 -1      3512 1.91220E+01 1.97159E-01-7.11861E-02-7.12141E+00-2.77919E-02 1.17675E-01
 -1      3513 2.17611E+01 2.71717E-01 5.83870E-03-7.32645E+00 5.01765E-02 1.54119E-01
 -1      3514 3.45581E+01 1.23349E-01-5.23209E-02-4.27007E+00 9.62583E-03 2.48721E-01
 -1      3515-3.75244E+01 2.42008E-02 1.02491E-01-3.14230E+00-2.73891E-02 2.54071E-01
 -1      3516-3.13844E+01 1.84534E-01-2.81095E-03-3.19780E+00 7.84826E-03 3.05277E-01
 -1      3517-1.94237E+01 1.52364E-01-1.81660E-02-6.48932E+00 4.96999E-02 1.32928E-01
 -1      3518-2.19360E+01 1.42460E-01 3.21059E-02-6.71710E+00-5.88120E-02 1.38526E-01
 -1      3519-3.45351E+01 1.14853E-01 5.23958E-02-3.29536E+00-2.45561E-03 2.38748E-01
 -1      3520 3.49128E+01 1.08913E-01 1.00541E-01-4.14344E+00 6.82862E-02 2.64011E-01
 -1      3521 1.67203E+01 1.59920E-01-2.66086E-02-7.25117E+00-2.59452E-02 9.94413E-02
 -1      3522-3.49587E+01 7.61441E-02-8.81283E-02-3.11858E+00-6.78058E-02 2.66386E-01
 -1      3523-1.69091E+01 3.58594E-01-6.41609E-02-6.68434E+00 1.15573E-01 1.34015E-01
 -1      3524-3.12041E+01 2.04608E-01-4.56230E-02-3.18509E+00 3.32641E-02 2.74305E-01
 -1      3525-2.79401E+01 2.72597E-01 4.46523E-02-3.34849E+00-2.93483E-02 2.60762E-01
 -1      3526 3.10885E+01 2.73798E-02 5.03860E-02-4.09040E+00-2.63833E-02 2.89263E-01
 -1      3527 2.75550E+01 1.15985E-01-2.69887E-02-4.21961E+00 1.06806E-02 2.77485E-01
 -1      3528-6.78649E+00 4.26792E-02 8.12968E-02-7.20025E+00 3.22138E-02-4.05100E-03
 -1      3529-5.42153E+00-2.78963E-01-6.31015E-03-7.35924E+00-1.02063E-01-2.85127E-02
 -1      3530-9.64260E+01 2.02287E-02 4.90128E-02-2.40774E+00 6.18943E-03 2.30756E-01
 -1      3531-9.38252E+01 1.58710E-01-1.52032E-01-2.46981E+00-2.03123E-02 2.70393E-01
 -1      3532-5.47179E+01 1.91266E-01 2.94765E-02-6.17500E+00 2.75703E-03 1.53656E-01
 -1      3533-5.24781E+01 2.76245E-01-4.69827E-02-6.28339E+00 6.99262E-02 1.37096E-01
 -1      3534-8.47441E+01 1.87858E-01-6.74736E-02-2.69318E+00 1.07605E-03 2.55703E-01
 -1      3535 1.36290E+02-1.33152E+00 2.48112E+00-5.95043E+00-3.24000E+00 6.52171E-01
 -1      3536 2.19984E+02 1.06445E+00 7.78106E+00-5.63699E+00-1.86743E+00-2.35608E+00
 -1      3537 2.21390E+02-1.13268E+00 2.03131E+00-4.09608E-01-9.46765E-01 5.05480E-01
 -1      3538 1.19188E+02-1.82352E-01 3.61640E-01-5.34891E+00-1.20700E+00 1.05604E+00
 -1      3539 1.98680E+02-1.57607E-01 2.13309E+00-4.33563E+00-9.71015E-01-3.96602E-02
 -1      3540-9.68372E+01-2.28884E-02 1.54824E-01-6.08531E+00-2.91967E-02 4.08246E-04
 -1      3541-3.94638E+00 7.40640E-01-4.34214E-01-5.79255E+00-3.05549E-02-9.03664E-02
 -1      3542-4.69620E+00 4.66007E-01 5.67656E-02-4.04353E+00 2.29178E-02-3.21161E-01
 -1      3543 2.00798E+01 1.85203E-01 2.17177E-02-8.10621E+00-7.17181E-02 3.47342E-02
 -1      3544-1.49817E-01 2.28237E-01 4.32454E-02-7.33209E+00-3.87038E-02-1.85953E-02
 -1      3545 3.31711E+01 4.12516E-02-1.71302E-01-7.32865E+00 2.15520E-02 1.04293E-01
 -1      3546-6.67720E+01 4.40675E-03 1.13905E-01-2.56029E+00 1.57718E-02 9.92994E-02
 -1      3547-3.32427E+01 2.74601E-01 1.29519E-01-6.43020E+00-2.76084E-02 9.20115E-02
 -1      3548-4.10484E+01 1.56824E-01-1.53867E-02-5.95094E+00-1.32082E-02-9.93672E-03
 -1      3549-4.92659E+00-3.99438E-02-8.24192E-02-7.34031E+00-5.04162E-02 6.52307E-03
 -1      3550 2.11691E+02 5.55375E-02-5.48860E-03-4.04888E+00 8.40806E-02-5.28012E-01
 -1      3551 4.67205E+00-3.05520E-01-6.75990E-02-4.12459E+00 4.01414E-02 3.08945E-01
 -1      3552 3.76689E+00-4.31594E-01 4.44463E-01-5.90578E+00 1.11582E-02 1.28425E-01
 -1      3553-2.03837E+02-1.60091E-01 7.14713E-02-2.86971E+00-3.22909E-02 3.28131E-01
 -1      3554-2.00086E+02-4.68119E-02 1.02475E-01-2.76689E+00 4.31491E-02 2.89940E-01
 -1      3555-1.16630E+02-2.40915E-01 7.20378E-02-6.48954E+00-4.77949E-02 1.90474E-01
 -1      3556-1.81697E+02-2.44617E-01 4.72873E-02-2.98184E+00-1.18777E-02 3.68093E-01
 -1      3557-1.85150E+02-2.16469E-01 4.40421E-02-3.14032E+00 7.04001E-02 3.83318E-01
 -1      3558 7.47813E+01 9.88392E-03 1.31846E-01-7.47144E+00-1.12912E-01 2.24762E-02
 -1      3559-1.02902E+02-2.98226E-01-1.36467E-01-6.28897E+00-1.27047E-02-4.54951E-03
 -1      3560 7.98471E+01-1.98566E-01-1.52999E-01-7.40374E+00-1.30534E-01-3.46051E-02
 -1      3561 6.18645E+00 2.06642E-02-8.33286E-02-7.52127E+00 5.31143E-03 8.37441E-03
 -1      3562-3.69482E+00 2.20992E-02-1.42651E-01-7.23557E+00-7.04540E-02-5.00708E-02
 -1      3563 1.33652E+00 2.55362E-01-9.19385E-02-7.42899E+00 9.92323E-05-9.44836E-03
 -1      3564 2.22628E+01 4.23635E-02-1.02767E-01-7.24495E+00 8.57088E-02 5.10850E-02
 -1      3565-1.64959E+00 2.10312E-01 8.86654E-02-7.44256E+00 1.33736E-02-3.70067E-02
 -1      3566-2.25712E+01 3.05105E-01 6.22849E-02-6.56718E+00-1.14902E-01 4.89427E-02
 -1      3567-3.56642E+01 1.54727E-01-2.13483E-02-6.49147E+00-2.15771E-02-6.33016E-02
 -1      3568 3.63281E+00 1.32567E-01-8.90295E-02-7.51015E+00-5.30494E-03 2.71314E-02
 -1      3569-4.98692E+01 1.86834E-01-7.03457E-03-6.36644E+00 5.81056E-02-6.43743E-02
 -1      3570 4.95571E+01-1.41118E-02-8.88419E-02-7.49188E+00-1.05311E-01-4.38641E-02
 -1      3571-4.00312E+00 1.54974E-01 1.00030E-01-7.41213E+00 2.45204E-02 1.47791E-02
 -1      3572 6.80093E+00 5.82495E-02 1.06142E-01-7.39660E+00-6.63149E-02 3.85048E-02
 -1      3573-7.53799E+01-6.11287E-02-1.57012E-01-6.38906E+00 1.08063E-01 2.40637E-02
 -1      3574-5.31197E+00 8.72898E-02 1.01179E-01-7.29028E+00 6.86426E-02-3.67240E-02
 -1      3575 6.75668E+01-1.21855E-02-1.62638E-01-7.50120E+00-1.09029E-01-2.21543E-02
 -1      3576-6.78004E+01 4.79359E-02 1.30107E-01-6.35113E+00 1.08210E-01-2.27285E-02
 -1      3577-7.44724E+00-1.07813E-01-1.30111E-01-7.29709E+00 6.84509E-02 3.95172E-02
 -1      3578-1.30009E+02 6.01797E-02-9.10646E-02-2.16706E+00 8.48414E-03-1.17017E-01
 -1      3579-6.69772E+01-2.11821E-01-2.00096E-01-6.10819E+00-2.42040E-02-1.48880E-01
 -1      3580-7.49853E+01 1.08875E-01 2.20517E-02-5.70269E+00-1.65506E-02 1.75031E-02
 -1      3581-3.84238E+01 8.13456E-02 5.36219E-02-7.43436E+00 6.70348E-02-3.27775E-02
 -1      3582-1.93218E-01 1.29033E-01 6.01233E-02-7.32236E+00 2.43802E-02 1.35871E-01
 -1      3583 5.03248E+00-7.06351E-02-1.27300E-01-7.39414E+00-6.65991E-02-3.73112E-02
 -1      3584 7.55392E+01 1.60141E+01 8.57370E+00 6.98312E+00 4.00470E-01 5.66091E+00
 -1      3585 1.01621E+02 1.44413E+01 1.77766E+01-5.40630E+00 2.69757E+00 7.55835E+00
 -1      3586 1.69039E+01 7.89293E-02-7.77833E-02-3.95857E+00 1.62736E-02-3.61108E-01
 -1      3587 1.39997E+01 2.88003E-02-1.64767E-01-3.93930E+00-4.82586E-02-3.78612E-01
 -1      3588 1.61021E+01 1.82057E-01 2.25468E-02-3.80589E+00-1.69439E-03-1.95314E-01
 -1      3589 1.00345E+01 1.77065E-01-3.23421E-02-6.83203E+00 1.60096E-02-1.82013E-01
 -1      3590-2.06585E+01 2.28781E-01 4.23967E-02-6.94384E+00-6.19730E-02-7.08260E-04
 -1      3591 1.34456E+01 2.44975E-01-2.30874E-02-7.30976E+00 5.64018E-02 9.95854E-04
 -1      3592 2.01398E+01 1.18742E-01-3.44224E-02-7.51398E+00 2.20550E-02 9.58269E-02
 -1      3593-4.49302E+01 1.81890E-01 2.30514E-02-2.97940E+00-2.14631E-02-2.57977E-01
 -1      3594 3.43377E+00 3.40574E-01 4.75373E-01-2.93791E+00 7.01204E-02 3.44781E-01
 -1      3595 3.84368E+00-4.47319E-01 4.24124E-01-5.81815E+00 8.58969E-02 2.17521E-01
 -1      3596 1.43064E+01 2.43192E-01 9.79549E-02-3.81775E+00 2.54617E-02-4.36878E-02
 -1      3597-2.52577E+00 2.37150E-01-2.37544E-01-6.83224E+00 5.93549E-02-1.45297E-01
 -1      3598-3.25622E+00 5.54285E-01-3.27056E-01-6.13058E+00 7.72371E-02-1.89703E-01
 -1      3599 2.75689E+01-8.66487E-02-9.67618E-02-7.33186E+00-3.70809E-02-2.48633E-02
 -1      3600-6.11068E+01-4.09809E-01 1.11217E-01-7.06894E+00-7.23912E-02 1.68591E-01
 -1      3601-6.35435E+01 9.14488E-02-1.27496E-01-7.06084E+00 1.49989E-01 7.99230E-02
 -1      3602 2.11316E+02-1.51175E-01-1.04099E-01-3.96019E+00-9.18769E-02 5.68421E-01
 -1      3603 2.55994E+01 3.25287E-01 6.94982E-02-4.36567E+00-2.86448E-02-1.08008E-01
 -1      3604 2.92697E+01-1.80357E-01 2.79740E-02-7.40945E+00 1.19325E-01-1.78078E-01
 -1      3605 8.94834E+01 2.70473E-01-2.70104E-02-4.72163E+00-6.58221E-02 1.04353E-01
 -1      3606 4.51282E+01 1.68443E-01 7.04413E-02-7.36514E+00-2.23850E-02 4.08394E-03
 -1      3607 8.53838E+01 9.91128E-02 7.51576E-02-4.82204E+00 5.00226E-02-7.66221E-02
 -1      3608 8.68298E+01-1.81632E-02 6.71909E-02-4.78396E+00 9.22935E-02 4.71946E-02
 -1      3609 4.29303E+01 1.76839E-01-7.49723E-02-7.25229E+00 9.39297E-02 2.49441E-02
 -1      3610 4.65884E+01 1.30625E-01-2.95453E-02-7.39178E+00-3.84550E-02 6.55313E-02
 -1      3611 3.95383E+00 3.33142E-01-9.50644E-02-7.30700E+00-9.17660E-02-2.96174E-03
 -1      3612-9.59008E+00-9.18446E-02 1.36262E-01-7.17203E+00-5.13293E-02 1.42086E-01
 -1      3613-1.18954E+01 4.65538E-01-3.46796E-02-7.09276E+00 9.18575E-02 1.07040E-01
 -1      3614 4.58396E+00 3.12835E-01-2.00497E-02-7.23976E+00-1.33291E-02 8.05438E-02
 -1      3615 6.39492E+00 9.50903E-02-1.55610E-02-7.24274E+00-3.72914E-02 9.70287E-02
 -1      3616 3.34083E+01-2.95213E-01-5.04328E-02-7.27492E+00-7.61535E-02 1.17969E-01
 -1      3617-1.37585E+01 8.92108E-02-8.44942E-02-6.88409E+00 1.17252E-03 6.69796E-02
 -1      3618-2.04623E+01 1.88461E-01-7.49163E-02-7.04778E+00-3.18080E-03 1.10517E-01
 -1      3619 1.00788E+02 1.46077E-01-2.17050E-02-4.92773E+00-1.86455E-02 2.97726E-01
 -1      3620 9.69713E+01 1.39985E-01-5.20213E-02-4.75688E+00-7.46044E-02 2.66769E-01
 -1      3621 5.78153E+01 2.60630E-01-1.05521E-01-7.48998E+00 2.21231E-02 2.00798E-01
 -1      3622 8.79044E+01 2.42533E-01-3.54840E-02-4.74142E+00-2.58305E-03 2.95070E-01
 -1      3623 9.14768E+01 2.43472E-01-3.04983E-02-4.94005E+00-1.93469E-02 2.74530E-01
 -1      3624-2.83796E+01 1.35344E-01 8.06587E-02-6.82486E+00-6.45338E-02-1.49977E-01
 -1      3625-3.79733E+01 3.82112E-02 5.11177E-02-6.94599E+00-4.12761E-02-2.89134E-01
 -1      3626 2.35069E+02 1.05165E+01 4.99265E+01-7.39504E+00 1.92770E+00 8.99000E+00
 -1      3627 1.49205E+02 2.64529E+01 3.30578E+01-1.28018E+01 1.87617E+00 6.15928E+00
 -1      3628 1.97373E+02-9.41683E-02 1.11825E-01-4.55611E+00-5.54862E-02 3.06580E-01
 -1      3629 2.00581E+02-2.62425E-02 7.70351E-02-4.37016E+00-1.53219E-03 3.15560E-01
 -1      3630 1.78397E+02-2.22877E-01-4.10973E-02-4.59122E+00 6.41441E-04 3.02278E-01
 -1      3631 1.13236E+02-1.88039E-01-2.25296E-02-7.29061E+00-7.02067E-02 1.51061E-01
 -1      3632 1.10570E+02-1.77595E-01 5.59739E-02-7.47492E+00-1.12234E-01 1.67743E-01
 -1      3633 5.56799E+00 3.72546E-02 3.70060E-02-7.36988E+00 1.15563E-01-1.28990E-01
 -1      3634 3.14477E+01 1.80236E-01-3.25479E-02-7.36848E+00-3.21781E-02 7.65029E-02
 -1      3635-1.60448E+01 1.13267E-02-5.24803E-02-6.87051E+00 2.09097E-03-8.99074E-02
 -1      3636-3.62817E+00-1.97153E-01-5.17725E-01-2.96637E+00 7.37886E-02-3.55616E-01
 -1      3637-4.04636E+00 7.49530E-01-4.04206E-01-5.80518E+00 5.58673E-02-2.22402E-01
 -1      3638-3.37494E+01 1.07855E-01 1.89984E-02-6.73303E+00 3.02262E-02 1.77715E-01
 -1      3639 4.60219E+01 8.42641E-02 1.39604E-01-7.47805E+00-9.39316E-02-1.03528E-02
 -1      3640 3.35615E+01-1.93292E-01-5.87879E-03-7.54983E+00 4.22933E-02 4.78157E-02
 -1      3641 2.04400E+02 8.76947E-02-2.56147E-02-4.39194E+00 1.14968E-02 3.63019E-01
 -1      3642 1.81841E+02-1.74324E-01-4.75167E-02-4.47126E+00-1.04121E-01 3.41422E-01
 -1      3643 1.15993E+02-5.62942E-02-1.14409E-01-7.36782E+00 1.95711E-02 2.09415E-01
 -1      3644 1.85177E+02 4.09923E-02-8.44336E-02-4.48336E+00-8.43289E-02 3.75393E-01
 -1      3645-2.91288E+01-1.01717E-01 1.14813E-01-6.91761E+00-1.42423E-01 6.47038E-02
 -1      3646 1.40445E+01 1.41583E-02 1.14941E-01-7.45987E+00 1.27364E-01-4.52031E-02
 -1      3647-3.14025E+01 4.35594E-01-9.17659E-02-6.89894E+00 8.83166E-02 1.28008E-01
 -1      3648 2.20527E+02-6.35626E-01 1.24494E+00-2.56775E+00 5.74007E-01 1.72793E-01
 -1      3649 1.22840E+02-7.43200E-01 1.69107E-01-6.65028E+00 8.26819E-01-1.04754E+00
 -1      3650-8.85815E+01-1.05750E+01-1.46002E+01-8.16286E+00 1.06915E+00-1.53700E+00
 -1      3651-2.42440E+01 3.18486E-03-3.19380E-02-3.27723E+00 2.45301E-02-2.36386E-01
 -1      3652-9.85109E+00 4.20133E-01 1.42929E-01-7.25439E+00-5.36548E-02-1.35870E-01
 -1      3653-1.55339E+01 6.47840E-02 5.10811E-03-6.54062E+00 6.31339E-02-1.56520E-01
 -1      3654 9.41977E+01 2.51360E-02 6.93121E-02-4.80482E+00-3.73891E-02 2.82874E-01
 -1      3655 5.56797E+01 1.77169E-01 6.91251E-02-7.46364E+00 3.48096E-02 1.18850E-01
 -1      3656 8.52286E+01-1.70989E-02 1.92407E-02-4.77358E+00 1.41468E-03 2.83331E-01
 -1      3657 5.34176E+01 6.83990E-02 4.25407E-02-7.56763E+00-9.38624E-02 1.68225E-01
 -1      3658-1.77765E+01 4.86151E-02-8.71629E-02-3.43294E+00 2.78057E-02-2.83165E-01
 -1      3659-1.34216E+01 1.23955E-01 1.64728E-02-3.52461E+00-8.70038E-02-3.18525E-01
 -1      3660-1.41394E+01 1.09131E-01-5.53187E-02-4.35100E+00-4.63277E-03-2.44272E-01
 -1      3661-8.52741E+00 1.97239E-01-2.24637E-03-7.28920E+00 4.42164E-02-1.11523E-01
 -1      3662 1.00075E+02 1.39059E-01 6.21043E-01-8.15071E+00-5.30079E-02-8.60344E-02
 -1      3663-9.20955E+01-9.75037E+00-1.66299E+01-4.44761E+00 2.51405E+00-5.16045E+00
 -1      3664-1.00266E+02-1.24299E+00-3.71313E+00-4.55920E+00 4.84801E+00-2.04563E+00
 -1      3665 8.66276E+01 5.31253E-02-2.40261E-01-4.98308E+00 2.28288E-02-7.13154E-02
 -1      3666-3.76850E+00-2.28575E-01-3.66565E-02-8.18152E+00-6.88474E-01-1.74607E-01
 -1      3667-2.85784E+00 2.37188E-01-8.12525E-02-8.09031E+00 2.58432E-02 4.50794E-02
 -1      3668 8.79859E-01 1.84380E-01-3.33871E-02-7.36034E+00-2.31904E-02 1.85100E-02
 -1      3669 2.16757E+02-5.04629E-01 3.11945E-01-3.09139E+00 2.19868E-01-8.31947E-01
 -1      3670 1.98813E+02-1.45748E-01 1.15586E-01-4.52022E+00 3.66459E-01-1.01000E+00
 -1      3671-2.17171E+02 7.78708E-01-4.68572E-01-1.16286E+00-4.36991E-01-8.99976E-01
 -1      3672-1.97356E+02-5.48383E-02-3.26590E-01-3.78091E+00-3.93203E-01-9.75553E-01
 -1      3673 1.35923E+01 2.24380E-01 1.72534E-02-7.31082E+00 3.27725E-03-7.42072E-02
 -1      3674-5.46447E+01-5.66880E-02-7.75681E-02-6.06352E+00-8.15331E-02-1.41022E-01
 -1      3675-2.43245E+01 9.58522E-02-1.59676E-01-7.54751E+00 3.38503E-02-4.24828E-02
 -1      3676-3.03453E+01 2.91144E-01 2.29631E-01-7.41456E+00-3.20673E-02-5.38241E-02
 -1      3677-2.17879E+02 1.12916E-01-4.80317E-01-2.45898E+00-1.60323E-01-6.09648E-01
 -1      3678-1.23051E+02 2.61547E-01-6.02502E-04-6.19134E+00-7.62119E-01-9.39798E-01
 -1      3679 3.78210E+01 1.64707E-01-1.34323E-02-4.28654E+00 9.57669E-03-2.87466E-01
 -1      3680 3.40497E+01 1.73077E-01 1.72939E-01-4.09446E+00 1.25940E-02-2.41189E-01
 -1      3681 2.73135E+01 2.25527E-02-9.86023E-03-4.31123E+00-1.66077E-02-1.90641E-01
 -1      3682 1.86811E+01 1.26049E-01 2.22780E-02-7.18221E+00 4.71072E-02-1.53260E-01
 -1      3683 3.08714E+01-7.92904E-02-6.05279E-02-4.40916E+00 1.07978E-01-2.30219E-01
 -1      3684 3.10251E+01 8.45969E-02-6.57790E-03-4.18012E+00 1.54957E-02-3.21542E-01
 -1      3685 1.66049E+01 1.50994E-01 4.19899E-03-7.22134E+00 3.48688E-03-1.59175E-01
 -1      3686 2.03772E+01 2.95570E-01-1.20697E-01-7.19122E+00-5.51618E-02-1.70876E-01
 -1      3687 3.32053E+01 1.41094E-01-2.21342E-01-4.39387E+00-5.70871E-02-2.39874E-01
 -1      3688-7.19461E+01 1.07024E-01 7.21300E-02-3.63951E+00-2.81068E-02-2.51022E-02
 -1      3689-8.77077E+01 2.29462E-01-5.42453E-02-2.53010E+00 8.66358E-02-8.64903E-02
 -1      3690-2.58697E+01 1.42556E-01-7.40070E-02-4.16781E+00 3.17319E-03-5.33558E-03
 -1      3691-3.47341E+01-1.11308E-01 4.21299E-02-3.10158E+00-7.27561E-02-1.08089E-01
 -1      3692-2.61022E+00 3.14855E-01 4.51074E-02-7.91067E+00 1.21713E-02 8.13856E-02
 -1      3693-1.02762E+01 3.05997E-01 1.75407E-01-7.71801E+00-1.27517E-02-5.68321E-02
 -1      3694-1.47886E+01-3.43195E-02 3.73561E-02-7.85821E+00-1.32047E-02 7.27083E-02
 -1      3695-5.34013E+01 8.09932E-04 1.81144E-01-7.66279E+00-8.58277E-02-9.38325E-02
 -1      3696-1.49144E+02-8.73308E-02-2.69855E-02-3.96922E+00 6.24056E-03-1.21677E-02
 -1      3697-1.89004E+02-2.70300E-01 1.27138E-01-2.95864E+00-1.18617E-01-1.45984E-01
 -1      3698-8.64135E+00 3.89746E-01-7.08178E-02-3.77453E+00-7.22912E-03 3.52989E-01
 -1      3699-5.88707E+00 6.86618E-01-1.31771E-01-6.74951E+00-2.51226E-02 2.15459E-01
 -1      3700-1.01877E+01 3.09612E-01-2.24450E-02-3.70324E+00-1.18792E-02 3.69293E-01
 -1      3701-1.13119E+01 2.56524E-02-1.08542E-01-3.80345E+00-9.98174E-02 3.09071E-01
 -1      3702-7.43314E+00 2.11579E-01-5.34820E-02-6.85107E+00-6.22400E-02 1.63910E-01
 -1      3703 2.04577E+02 1.14486E-02 4.86824E-02-4.43183E+00-4.71062E-04-3.67429E-01
 -1      3704 1.09570E+02-1.24265E-01-1.31715E-02-7.39238E+00 5.24750E-02-1.78791E-01
 -1      3705 1.78181E+02-1.55355E-01-6.71810E-02-4.69806E+00 1.30000E-01-2.76471E-01
 -1      3706 1.80918E+02-6.08174E-02-1.73725E-01-4.64434E+00 2.30322E-02-3.30931E-01
 -1      3707 1.11563E+02-4.27122E-02-9.93302E-02-7.33761E+00 1.68063E-03-2.06765E-01
 -1      3708 2.00632E+02-1.82857E-02 1.66314E-01-4.43822E+00 3.17321E-02-3.66590E-01
 -1      3709 1.74437E+02-2.40095E-02-2.31206E-02-4.75537E+00 1.98604E-02-2.44325E-01
 -1      3710 1.97354E+02 5.23518E-03 6.94548E-02-4.56555E+00 1.47473E-03-3.33347E-01
 -1      3711 1.07179E+02-5.94249E-03-1.06684E-02-7.48526E+00-3.29012E-02-1.33227E-01
 -1      3712 1.87194E+02-3.81064E-02 7.16269E-02-4.84912E+00 1.14656E-02 2.68269E-01
 -1      3713 9.66589E+01-8.50006E-02-8.44113E-02-7.60267E+00-3.09357E-02 2.19576E-01
 -1      3714 1.82916E+02-3.38934E-02-5.02536E-02-4.88917E+00-1.73679E-02 3.00394E-01
 -1      3715 1.59629E+02-1.80258E-02 2.95987E-02-4.99237E+00-4.80465E-03 2.29674E-01
 -1      3716-4.87650E+01 1.39372E-01 1.51855E-01-2.93165E+00-3.33097E-03-2.36563E-01
 -1      3717-4.50843E+01 9.70646E-02 4.51670E-02-3.36475E+00 3.74472E-02-2.04170E-01
 -1      3718-5.17812E+01 9.77329E-02 1.54197E-02-3.04528E+00-8.78458E-03-3.11477E-01
 -1      3719-2.76000E+01 1.46751E-01 9.73561E-03-6.63223E+00 2.25899E-02-1.79725E-01
 -1      3720 4.86297E+01 8.83793E-02-2.02582E-01-4.42361E+00-4.86372E-02-3.02023E-01
 -1      3721 4.51100E+01 8.47336E-02 4.77166E-02-4.68600E+00-8.63426E-03-2.06270E-01
 -1      3722-5.48389E+01 3.34183E-02-1.63995E-01-2.83297E+00-2.83658E-02-2.38089E-01
 -1      3723 5.14694E+01 7.03946E-02-6.72668E-02-4.52058E+00 2.01373E-02-2.81423E-01
 -1      3724 2.69917E+01 1.16427E-01-6.50007E-02-7.40225E+00 3.58157E-02-2.17155E-01
 -1      3725 5.57344E+01 9.24182E-02 5.89951E-02-4.60088E+00-1.26151E-02-2.63494E-01
 -1      3726 8.32975E+01 5.05244E-02 4.76758E-02-4.75270E+00 5.11977E-02 2.67118E-01
 -1      3727 4.16973E+01 1.77935E-01-3.92927E-02-7.62586E+00-5.54883E-03 1.41628E-01
 -1      3728 7.92005E+01 5.38072E-02-4.93327E-02-4.74633E+00-2.77154E-02 2.66604E-01
 -1      3729 6.87163E+01-2.64310E-02-1.35223E-01-4.97464E+00 1.06561E-02 1.88793E-01
 -1      3730-8.24908E+01 7.62553E-03-1.71559E-01-2.51094E+00 1.87270E-02 2.68271E-01
 -1      3731-6.88342E+01 8.89183E-02 1.87011E-01-3.11308E+00-5.99869E-02 2.06721E-01
 -1      3732-7.93862E+01 1.05704E-01 1.79455E-02-2.69944E+00 1.62110E-02 2.69619E-01
 -1      3733-4.21931E+01 4.10105E-02-1.41852E-03-6.47925E+00-8.50534E-02 1.60194E-01
 -1      3734 1.80096E+02-5.64125E-02-1.58522E-01-4.79312E+00 1.08637E-02 2.92792E-01
 -1      3735 1.55605E+02-1.95509E-02 1.81683E-02-5.06160E+00-1.14867E-02 3.17570E-01
 -1      3736 1.51505E+02 5.43361E-02-3.99499E-02-5.08009E+00-5.39198E-02 2.77045E-01
 -1      3737 8.26490E+01 2.18393E-02 9.37267E-02-7.73881E+00-3.29365E-02 1.62254E-01
 -1      3738 1.36209E+02 9.17075E-02 1.89483E-01-5.24622E+00-5.27672E-02 2.14530E-01
 -1      3739 1.10923E+02 4.87412E-02-1.76503E-01-4.97698E+00 2.01593E-02 2.53594E-01
 -1      3740 9.93641E+01 5.73133E-02 2.14578E-02-5.16553E+00-7.10254E-03 2.06160E-01
 -1      3741 1.13985E+02 7.22014E-02 6.67094E-03-5.13769E+00-1.70387E-02 3.15411E-01
 -1      3742 6.02966E+01 9.57062E-02-2.80053E-02-7.74085E+00 9.38388E-05 2.22600E-01
 -1      3743-1.10902E+02 1.09894E-01 1.70440E-01-2.37603E+00-3.71220E-02 2.77954E-01
 -1      3744-9.92803E+01 5.17523E-02-3.18885E-02-2.90989E+00-1.17090E-02 2.30007E-01
 -1      3745-1.72148E+02-1.02218E-01-1.91407E-01-2.38106E+00-4.43021E-03-2.83009E-01
 -1      3746-1.47071E+02 4.12628E-03 1.86267E-01-2.98991E+00 4.69266E-02-1.97795E-01
 -1      3747-1.68825E+02-1.70255E-02 5.00981E-02-2.57214E+00 1.09573E-02-2.83531E-01
 -1      3748-8.98523E+01-1.02397E-01-8.35072E-03-6.41839E+00 5.13772E-02-1.69419E-01
 -1      3749-1.13600E+02 8.41373E-02 6.12438E-02-2.50069E+00 6.56358E-03 2.86172E-01
 -1      3750-6.02413E+01 1.83292E-01 7.57454E-02-6.32898E+00 1.97099E-02 2.17486E-01
 -1      3751-1.80165E+02 4.11392E-02 1.72477E-01-2.53882E+00-3.66665E-02 2.86156E-01
 -1      3752-1.59419E+02-6.43610E-02-3.94194E-02-3.12054E+00-1.94251E-02 2.49063E-01
 -1      3753-1.82915E+02 1.30091E-02 6.04930E-02-2.70391E+00-3.21797E-04 2.91768E-01
 -1      3754-9.72104E+01 2.29294E-02 5.50342E-02-6.44085E+00 4.50768E-03 2.09217E-01
 -1      3755-1.87166E+02 2.63320E-04-6.30560E-02-2.77069E+00-1.91087E-02 2.61954E-01
 -1      3756-1.17858E+02 7.52365E-02-6.55434E-02-2.49276E+00-2.31687E-02 2.59064E-01
 -1      3757 1.17037E+02 1.25280E-01 1.87635E-01-4.95709E+00-3.09789E-02 2.21194E-01
 -1      3758-1.52132E+02 1.12713E-01 2.11045E-01-2.27182E+00-2.41165E-02 3.03700E-01
 -1      3759-1.35837E+02-3.33945E-02-1.68308E-01-2.93902E+00 2.88502E-02 2.05974E-01
 -1      3760 1.70301E+02 2.27784E-02-8.21088E-02-4.93214E+00 1.56108E-02-2.77832E-01
 -1      3761 1.74755E+02 8.80410E-03 6.51489E-02-4.91443E+00-2.13705E-02-3.00356E-01
 -1      3762 9.04651E+01 1.35878E-02-7.96141E-02-7.67702E+00-6.22144E-03-1.80892E-01
 -1      3763 1.46872E+02-6.94761E-02-1.97539E-01-5.15915E+00-3.28027E-02-2.16375E-01
 -1      3764-1.44560E+02-4.43404E-02-1.49427E-01-2.25528E+00-3.82399E-03-2.76681E-01
 -1      3765-1.42481E+02 6.68385E-02 3.68790E-02-2.33925E+00-1.50093E-02-2.74870E-01
 -1      3766-1.23254E+02 1.03164E-01 2.21030E-01-2.87216E+00 4.17894E-02-2.19309E-01
 -1      3767-7.63682E+01-4.77415E-02-2.85007E-02-6.28964E+00 3.76163E-02-1.77212E-01
 -1      3768-1.55639E+02 7.98045E-02 3.24170E-02-2.42950E+00 1.85061E-03 3.12105E-01
 -1      3769-8.30189E+01 1.02412E-01-4.04094E-02-6.34874E+00 3.96413E-02 1.56952E-01
 -1      3770 1.38520E+02 8.06378E-02-1.46412E-02-5.10654E+00 8.54808E-02-2.84009E-01
 -1      3771 7.60520E+01 1.80646E-01 7.97725E-02-7.66724E+00-2.16653E-02-1.86715E-01
 -1      3772 1.45696E+02 9.83173E-02 1.59368E-01-4.97215E+00 3.16989E-02-2.89032E-01
 -1      3773 1.23731E+02 6.70394E-02-6.18628E-02-5.18687E+00-6.21743E-03-2.18957E-01
 -1      3774 1.67219E+01-1.39125E-01-4.79180E-02-7.41474E+00 2.72110E-03 9.33128E-02
 -1      3775 1.53824E+01 3.82651E-01 1.90075E-02-7.32941E+00-2.44325E-03 6.73755E-02
 -1      3776 1.42731E+02 8.46518E-02 5.57048E-02-5.09558E+00-5.68036E-03-3.02640E-01
 -1      3777-3.69103E+01 2.74922E-01-1.22322E-01-6.42405E+00-1.32527E-01-1.09071E-01
 -1      3778-5.98508E+01 2.19168E-01-3.77144E-02-2.92826E+00 1.00964E-02-2.75886E-01
 -1      3779-6.57329E+01 2.02369E-01-1.56331E-02-2.75844E+00-1.88855E-02-2.94508E-01
 -1      3780-4.24823E+01 1.03108E-01-1.27635E-02-6.14823E+00 3.41975E-02-1.39100E-01
 -1      3781-6.57575E+01-2.46507E-02-7.61716E-03-2.63246E+00 6.70433E-02-3.02300E-01
 -1      3782 1.31911E+02 1.30579E-01 2.19872E-01-4.92199E+00 3.02850E-02-3.14905E-01
 -1      3783 1.10896E+02-1.28776E-02-1.34478E-01-5.18200E+00-1.97762E-02-1.76670E-01
 -1      3784 2.10569E+01 1.30175E-02 1.43620E-02-4.02776E+00-4.64146E-02-3.39613E-01
 -1      3785 1.28498E+02 9.32934E-02-1.72494E-02-5.06586E+00 4.68557E-03-2.82265E-01
 -1      3786 6.84184E+01 1.31797E-01-3.14768E-02-7.73885E+00-4.11611E-02-1.43674E-01
 -1      3787 2.20589E+02-7.60461E-01 1.25625E+00-2.60029E+00-5.33503E-01-1.25110E-01
 -1      3788 1.18449E+02-7.98184E-01 4.05765E-02-6.77378E+00-8.87597E-01 1.11952E+00
 -1      3789-1.34361E+02 1.62434E+00-2.41721E+00-5.83664E+00 3.01167E+00 4.48877E-01
 -1      3790-2.16052E+02-3.52623E-01-7.24838E+00-4.86185E+00 1.69662E+00-2.30734E+00
 -1      3791-2.21385E+02 1.12796E+00-2.01735E+00 7.84605E-02 1.01931E+00 2.38299E-01
 -1      3792-1.17007E+02 1.65679E-01-4.13013E-01-5.09470E+00 1.21721E+00 1.11053E+00
 -1      3793-1.95725E+02-1.05439E-01-2.50782E+00-3.84567E+00 9.33158E-01-2.81202E-01
 -1      3794 8.11704E+01 1.75556E-01-1.35746E-01-7.70039E+00 1.29723E-01 1.29993E-01
 -1      3795 1.28787E+02 1.53805E-01-5.03001E-02-4.97576E+00-1.73386E-02 2.66280E-01
 -1      3796 1.41891E+02 1.69437E-01-1.64736E-02-5.01980E+00 2.34322E-02 2.93732E-01
 -1      3797 8.39801E+01 1.84806E-02-1.75374E-02-7.53478E+00-2.68932E-02 1.40633E-01
 -1      3798 1.31264E+02-4.55227E-02-2.06389E-02-4.80658E+00-5.70837E-02 2.83315E-01
 -1      3799-8.14652E+01-6.59880E-02 1.04756E-01-6.12908E+00-1.30897E-01 1.29341E-01
 -1      3800-1.28611E+02-1.09750E-01 5.95149E-02-2.51585E+00-5.20811E-03 2.66031E-01
 -1      3801-1.41792E+02-8.72688E-02 2.39465E-02-2.27978E+00-1.96744E-02 2.96245E-01
 -1      3802-8.42504E+01 1.71927E-01 1.24560E-02-5.85890E+00 9.33590E-03 1.30443E-01
 -1      3803-1.31080E+02 8.77625E-02 8.33858E-03-2.26195E+00 3.37822E-02 2.95428E-01
 -1      3804-2.04543E+01 3.71101E-02-1.68723E-01-3.38084E+00 3.12332E-03-2.70789E-01
 -1      3805-3.48772E+01 2.08399E-01 5.01951E-02-6.62784E+00-9.21691E-03 1.23732E-01
 -1      3806-5.71351E+01 5.97137E-02-4.82905E-02-3.31662E+00 3.20558E-03 1.81162E-01
 -1      3807-6.53506E+01 4.50467E-02 1.12475E-02-2.79645E+00-1.79891E-02 2.58895E-01
 -1      3808-3.76220E+01 1.12917E-01 2.32524E-02-6.08228E+00 4.04357E-02 1.81871E-01
 -1      3809-5.88699E+01 1.79474E-01 7.36608E-02-2.64873E+00 1.42664E-02 3.22074E-01
 -1      3810-2.95387E+01 1.40274E-01-1.30637E-01-6.47242E+00-7.57392E-02 1.50389E-01
 -1      3811 3.46423E+01 1.93289E-01-4.20487E-02-7.59723E+00 2.44434E-02 1.14076E-01
 -1      3812 5.71262E+01 1.83198E-01 4.09210E-02-4.92567E+00 2.27905E-03 1.71056E-01
 -1      3813 6.53570E+01 1.39428E-01-1.50604E-02-4.61070E+00 1.31686E-02 2.61979E-01
 -1      3814 3.73977E+01 2.29373E-01-2.13575E-02-7.12997E+00-4.85441E-02 1.84484E-01
 -1      3815 5.88538E+01-1.07805E-02-8.19803E-02-4.29388E+00-2.57220E-02 3.22511E-01
 -1      3816 2.92523E+01 2.09099E-01 1.18460E-01-7.28604E+00 7.18180E-02 1.51948E-01
 -1      3817-5.75753E+01-2.28599E-02 5.21905E-02-6.16404E+00-1.43188E-01 1.32571E-01
 -1      3818-8.61547E+01 1.95647E-01-5.67835E-02-2.66396E+00-8.21328E-02 1.46934E-02
 -1      3819-8.93450E+01-1.46442E-01 2.55866E-02-2.53412E+00 5.37669E-02 5.66745E-02
 -1      3820-8.77739E+01-1.04457E-01 5.42113E-02-2.60303E+00-1.44067E-02 2.97799E-01
 -1      3821-9.10665E+01-1.38676E-01-3.82445E-02-2.62836E+00 1.68070E-02 2.61846E-01
 -1      3822 2.16605E+02-4.52978E-01 2.18211E-01-3.20689E+00-2.36356E-01 9.62059E-01
 -1      3823 1.94132E+02-1.07541E-01 1.76901E-01-4.72503E+00-5.25531E-01 9.84099E-01
 -1      3824-1.57152E+02 7.70970E-02 1.21070E-01-2.33159E+00-8.67572E-04-2.79337E-01
 -1      3825-1.00615E+02-6.76321E-02 5.36007E-03-5.87248E+00 2.89696E-03-1.79716E-01
 -1      3826-7.95852E+01-1.66759E-01-2.04490E-01-6.23497E+00 2.76759E-02-1.42357E-01
 -1      3827 1.51359E+02 1.18615E-01 1.71095E-01-4.83738E+00 4.13684E-02 2.52422E-01
 -1      3828 9.69560E+01-1.44740E-02-3.29602E-02-7.45528E+00-1.67731E-02 1.22253E-01
 -1      3829 7.64685E+01-1.28194E-01-2.10859E-01-7.45824E+00 9.23569E-03 1.43411E-01
 -1      3830-2.97156E+01 2.71224E-01-4.32727E-02-3.19554E+00-7.16500E-02 6.04919E-02
 -1      3831-3.29537E+01 8.03760E-02 7.92047E-02-3.30885E+00 3.99711E-03 1.36324E-02
 -1      3832 6.92858E+00 3.06564E-01-3.84933E-02-7.94428E+00 3.28608E-02 3.70296E-02
 -1      3833 9.03364E+00 7.85830E-02 1.29804E-02-7.97836E+00-3.38223E-02 5.48233E-02
 -1      3834-1.11064E+02 6.39396E-02-8.32057E-02-6.43543E+00 1.20391E-01 1.78723E-01
 -1      3835-1.13676E+02-1.48819E-01-2.12098E-02-6.35058E+00-4.57350E-02 1.78369E-01
 -1      3836-1.80181E+02 9.07742E-02-1.71811E-02-2.89164E+00-6.85290E-02 1.49773E-02
 -1      3837-1.78767E+02 1.00459E-01-3.14333E-02-2.89250E+00-4.57096E-03 2.58545E-01
 -1      3838-1.83448E+02-2.92023E-01 8.11228E-02-3.01715E+00 8.76947E-02 1.18003E-01
 -1      3839-6.94308E+01 7.24014E-02 7.14425E-02-2.58220E+00-1.48644E-02-3.08122E-01
 -1      3840-7.21899E+01 2.95949E-02 9.15770E-02-2.65441E+00 2.84240E-02-3.05332E-01
 -1      3841-4.47848E+01 1.59622E-01-6.86257E-03-6.25260E+00 2.01208E-02-1.12055E-01
 -1      3842-6.94228E+01 6.84101E-02-4.96802E-02-2.57097E+00-1.83922E-02-2.86477E-01
 -1      3843 5.87162E+01 4.51211E-02 2.36640E-02-4.45018E+00-4.04945E-02 2.85938E-01
 -1      3844 6.25834E+01 1.19078E-01 7.71864E-02-4.50300E+00 7.47440E-02 2.85657E-01
 -1      3845 5.51129E+01 1.04458E-01-8.04704E-02-4.26628E+00-1.54010E-02 2.94606E-01
 -1      3846 3.48614E+01 1.82745E-01-3.47066E-02-7.30918E+00-6.10445E-02 1.10006E-01
 -1      3847-6.25927E+01 6.95989E-02-8.27203E-02-2.75901E+00-8.10942E-02 2.81687E-01
 -1      3848-3.51030E+01 1.80644E-01 3.39168E-02-6.31994E+00 5.43691E-02 1.12615E-01
 -1      3849-5.87286E+01 1.46732E-01-2.20218E-02-2.79470E+00 3.06169E-02 2.85225E-01
 -1      3850-5.51313E+01 7.62686E-02 8.15012E-02-2.71299E+00 4.40852E-03 2.92143E-01
 -1      3851 1.62129E+02 6.37508E-02-7.48808E-02-4.90866E+00 2.08472E-02 3.11503E-01
 -1      3852 1.59398E+02 2.99050E-02-9.22187E-02-4.84360E+00-1.14233E-02 3.09613E-01
 -1      3853 1.54880E+02 2.50554E-02 9.00340E-02-4.69357E+00-2.50967E-02 2.85589E-01
 -1      3854 9.91974E+01 1.50321E-02 6.42734E-03-7.62580E+00 1.79464E-02 1.26677E-01
 -1      3855-1.66107E+02-2.86166E-02-7.11590E-02-2.40344E+00 8.60851E-02-2.71838E-01
 -1      3856-1.62188E+02 7.23893E-02-1.85728E-02-2.35494E+00-2.23893E-02-2.83419E-01
 -1      3857-1.53431E+02-9.37466E-03 8.71035E-02-2.29488E+00 1.89271E-02-3.12722E-01
 -1      3858-9.80761E+01 5.32859E-02 8.21626E-03-6.03256E+00-2.85484E-02-1.11027E-01
 -1      3859 1.57270E+02-7.49805E-02-1.05391E-01-4.75870E+00 1.03732E-02-3.11082E-01
 -1      3860 1.01694E+02 1.13398E-01-4.31429E-03-7.32031E+00 1.87003E-02-1.52798E-01
 -1      3861 7.89454E+01 1.15910E-01 1.75720E-01-7.46081E+00 9.10245E-03-1.38758E-01
 -1      3862-1.51198E+02-1.41197E-01-1.75895E-01-2.34184E+00-7.22664E-02 2.13309E-01
 -1      3863-9.76664E+01 2.84470E-02 1.71366E-02-5.89499E+00-1.15963E-02 1.61685E-01
 -1      3864-7.67135E+01 1.43944E-01 1.92951E-01-6.22364E+00-3.98861E-03 1.51723E-01
 -1      3865 1.67602E+02 5.78671E-02 6.76916E-02-4.88254E+00-7.15036E-02-3.09528E-01
 -1      3866 9.90039E+01-1.36848E-02-1.44601E-02-7.54710E+00 5.42718E-02-1.10478E-01
 -1      3867-1.59545E+02-6.71640E-04 8.25518E-02-2.25903E+00-4.43630E-03 3.32857E-01
 -1      3868-1.54685E+02-4.10423E-02-8.18580E-02-2.27743E+00 5.74464E-03 2.78350E-01
 -1      3869 1.17943E+02-5.08748E-02-9.13308E-02-4.77117E+00 2.83294E-02-2.79478E-01
 -1      3870 7.60657E+01 1.52301E-01-2.68324E-02-7.40777E+00 4.11617E-02-2.01673E-01
 -1      3871 5.91879E+01 1.69712E-01 1.59366E-01-7.48863E+00-8.29940E-02-1.97307E-01
 -1      3872 1.20969E+02 1.47287E-02 3.67407E-02-4.96451E+00 3.92814E-02-2.81782E-01
 -1      3873 1.24903E+02 9.39695E-02 9.73082E-02-4.98867E+00-6.99262E-02-2.68211E-01
 -1      3874 7.26705E+01 1.01913E-01-4.21153E-02-7.62259E+00 5.69955E-02-1.21154E-01
 -1      3875 1.14196E+02 6.12694E-02-7.81267E-02-4.74973E+00 1.64394E-02-2.86968E-01
 -1      3876 1.63685E+02-4.53266E-02 1.91815E-02-4.84716E+00 3.81926E-02-2.93188E-01
 -1      3877 1.53546E+02 6.78686E-03-7.93607E-02-4.72718E+00 6.04301E-03-3.20924E-01
 -1      3878-1.11388E+02 7.95769E-03-5.30402E-02-2.96486E+00 1.10960E-02-1.84527E-01
 -1      3879-6.85553E+01 1.16255E-01 5.48456E-02-6.36207E+00 2.25301E-02-1.07997E-01
 -1      3880-1.28459E+02-3.67554E-02-4.08537E-02-2.29439E+00 3.02754E-02-2.89839E-01
 -1      3881-1.17794E+02 1.61105E-01 1.24306E-01-2.23987E+00-5.94270E-02-2.66479E-01
 -1      3882-7.59905E+01 9.35803E-02-7.46030E-03-5.82123E+00-3.19616E-02-1.59653E-01
 -1      3883-5.94210E+01 4.33058E-02-1.53567E-01-6.24170E+00 6.85882E-02-1.70379E-01
 -1      3884 1.38179E+02 4.16482E-02 6.99815E-02-4.87975E+00 2.01913E-02 3.04968E-01
 -1      3885 1.27583E+02 4.17334E-02-4.81681E-02-4.78202E+00 2.65873E-02 2.62454E-01
 -1      3886 4.60505E+01 9.98580E-02 6.09606E-02-8.03458E+00-2.70838E-02 4.38555E-02
 -1      3887 2.40804E+01-6.47116E-02-7.32213E-02-8.17257E+00 1.09300E-02 4.60059E-02
 -1      3888 2.25421E+01 3.61084E-01 3.72726E-02-8.12257E+00-1.41819E-02 4.46796E-02
 -1      3889 1.35249E+02 1.05442E-02 9.37902E-02-4.98806E+00-2.52084E-02 3.03166E-01
 -1      3890 8.15022E+01 8.25738E-02-5.07896E-03-7.67061E+00-2.13957E-02 1.10018E-01
 -1      3891-1.38093E+02 4.52153E-02-6.18277E-02-2.13277E+00-2.56422E-02 3.09630E-01
 -1      3892-1.27406E+02-2.17424E-02 5.96989E-02-2.23074E+00-5.41743E-02 2.77436E-01
 -1      3893-1.21442E+02 6.69231E-02-8.66152E-02-2.27667E+00-2.64507E-02-3.00288E-01
 -1      3894-1.24527E+02 4.53753E-02-9.40083E-02-2.14962E+00 8.67028E-03-3.27884E-01
 -1      3895-1.14222E+02 5.49731E-02 8.11498E-02-2.21323E+00 2.24358E-03-2.68935E-01
 -1      3896-7.34105E+01 5.44562E-02 3.61186E-02-6.03186E+00-3.29978E-02-1.23276E-01
 -1      3897-1.62116E+02-2.72087E-02 8.90904E-02-2.34507E+00-3.60882E-02 2.97669E-01
 -1      3898-9.97345E+01 1.58398E-02-1.91255E-02-6.06614E+00-3.62714E-02 1.23876E-01
 -1      3899 2.82321E+01 1.51530E-01-1.19104E-01-7.22718E+00-1.50183E-01 6.63670E-03
 -1      3900 5.50960E+01 1.38913E-01 3.09414E-02-4.78614E+00 2.80259E-03 1.84375E-02
 -1      3901 1.31366E+01 2.02469E-01 5.72694E-02-8.19299E+00 6.10908E-02-3.37518E-02
 -1      3902-5.51279E+01 8.83422E-02-3.54212E-02-3.25662E+00-4.17050E-03 2.18744E-02
 -1      3903 1.50959E+00 1.94253E-01-1.26786E-01-7.29664E+00 1.23065E-03-3.92825E-02
 -1      3904-1.34665E+01 1.87992E-01-8.23649E-02-7.83124E+00-4.89320E-02-3.81320E-02
 -1      3905 4.81605E+01-3.30571E-01-6.07612E-02-7.99541E+00-4.15948E-02 8.71824E-02
 -1      3906 9.76618E+01 2.51388E-02-2.26332E-02-4.82733E+00-1.60117E-02-2.38894E-01
 -1      3907 1.00587E+02 9.76992E-02-9.39952E-02-4.88265E+00 3.96062E-02-3.09571E-01
 -1      3908 5.49755E+01 1.54147E-01 2.18629E-04-7.65757E+00 2.46368E-02-1.52384E-01
 -1      3909 8.83066E+01-2.39077E-02-1.59935E-01-5.09280E+00-5.20811E-02-2.57904E-01
 -1      3910 5.29393E+01 1.52645E-01 3.69147E-02-7.54113E+00 5.59251E-02-1.44352E-01
 -1      3911-7.67742E+01 7.45528E-02-2.37210E-02-2.76098E+00-2.52469E-02-3.01506E-01
 -1      3912-8.17590E+01-3.42657E-02 5.22090E-02-2.45286E+00 5.57978E-03-2.82099E-01
 -1      3913 4.23138E+01-2.01000E-02 7.94930E-02-8.11193E+00-3.61073E-02-3.19922E-04
 -1      3914 9.48729E+01-1.34688E-01-4.52235E-03-7.27004E+00-3.55773E-02-1.49243E-01
 -1      3915-9.90583E+01 1.03466E-02 2.85615E-02-2.58903E+00 4.75944E-02-3.03477E-01
 -1      3916-1.02563E+02 2.12753E-01 4.58602E-03-2.01113E+00-1.68642E-02-2.96153E-01
 -1      3917-4.36458E+00 1.22718E-02 1.16753E-01-7.29208E+00 3.63779E-02 1.40038E-02
 -1      3918 2.56667E+01 1.88136E-01 1.27652E-01-8.29546E+00-3.28226E-02 1.44525E-03
 -1      3919-4.76529E+01 1.85497E-01 6.19428E-02-6.35411E+00-2.97069E-02-8.08523E-02
 -1      3920-5.24318E+01 6.96366E-02-1.32713E-02-6.08905E+00 4.72423E-02-1.52245E-01
 -1      3921 3.91890E+00 9.43660E-02-1.61639E-01-7.32554E+00-1.07179E-02 4.14096E-02
 -1      3922-2.61716E+01 9.45477E-02-9.60301E-02-7.74908E+00 5.22076E-02 3.97397E-02
 -1      3923-6.25507E+01 3.90333E-02-8.16938E-02-6.25920E+00 5.55872E-02-9.53533E-02
 -1      3924-6.64242E+01 2.10601E-01 8.96950E-03-5.79397E+00-3.87351E-02-1.80917E-01
 -1      3925-1.35031E+02 8.76122E-02-8.25560E-02-2.26650E+00 6.55675E-03 2.94302E-01
 -1      3926-8.16456E+01 9.24869E-02 2.04436E-02-6.03283E+00-1.99555E-02 7.42120E-02
 -1      3927 5.56905E+01 2.86380E-02-1.39376E-01-7.40891E+00 1.32853E-01 2.68259E-02
 -1      3928 1.09209E+02 7.97960E-02 3.38727E-02-5.10275E+00-2.75574E-02-5.39619E-02
 -1      3929 1.72290E+02 3.81548E-02-3.22215E-02-4.68585E+00-1.32088E-02-9.28889E-02
 -1      3930 2.08030E+01 1.99591E-01 1.22165E-01-8.18116E+00-1.27285E-02 3.27729E-02
 -1      3931 4.44904E+01 6.50224E-02 1.60653E-02-7.35823E+00-3.98435E-02-1.16265E-01
 -1      3932-5.59755E+01 9.95485E-02 1.23244E-01-6.23263E+00-1.21632E-01-1.73416E-02
 -1      3933-1.09365E+02 2.90897E-02-2.99446E-02-2.84835E+00 2.10926E-02-2.48847E-02
 -1      3934-2.17210E+02 8.01903E-01-6.02212E-01-1.21976E+00 4.86611E-01 9.63463E-01
 -1      3935-1.92128E+02-1.45725E-01-5.77429E-01-4.21332E+00 5.15097E-01 9.20438E-01
 -1      3936-1.40955E+01 2.21547E-01 1.69017E-01-3.53663E+00-5.50810E-02 3.22721E-01
 -1      3937-1.50818E+01 9.93592E-02 9.38450E-03-3.78977E+00-3.75671E-02 2.43717E-01
 -1      3938-2.18075E+02-1.42670E-02-4.33775E-01-2.62962E+00 1.45512E-01 7.12289E-01
 -1      3939-1.17666E+02 3.62126E-01-6.94884E-02-6.34978E+00 8.32749E-01 9.29079E-01
 -1      3940-1.92382E+02-9.55499E-02 1.37380E-01-3.42075E+00-3.73584E-01-8.22802E-01
 -1      3941-1.94935E+02 9.92297E-03 4.80421E-02-2.96583E+00-7.08181E-02-5.22895E-01
 -1      3942-1.71228E+01 1.32997E-01 6.40350E-02-3.45691E+00 6.83467E-03 3.25781E-01
 -1      3943-9.27504E+00 2.32623E-01 4.97344E-02-6.83484E+00 3.40210E-03 1.81205E-01
 -1      3944 1.55522E+02 8.85021E-04 6.90261E-02-4.65800E+00-4.35391E-02-1.37071E-01
 -1      3945 1.45429E+02 1.60997E-02-9.03004E-02-5.00813E+00 2.25395E-02-6.41207E-02
 -1      3946 7.99365E+01 2.16200E-03 3.76475E-02-7.21760E+00 2.67095E-02-1.71066E-02
 -1      3947 1.57116E+02-3.79509E-02 5.05113E-02-4.64192E+00-2.59220E-02 9.36708E-02
 -1      3948 9.04174E+01-8.10728E-04-9.30419E-03-7.17713E+00-9.18142E-02-5.01983E-03
 -1      3949-4.48751E+01 6.94330E-02 8.88237E-03-2.89213E+00 1.29947E-02 2.33441E-01
 -1      3950 4.48545E+01 1.31729E-01-1.26758E-02-4.20038E+00-2.37992E-02 2.42479E-01
 -1      3951 1.51382E+02 5.22215E-02-4.67008E-02-4.68518E+00-2.18149E-02-1.00592E-01
 -1      3952 7.54679E+01-1.36857E-02-7.21964E-02-7.23268E+00 3.38657E-02 1.26381E-02
 -1      3953 1.37643E+02-1.76621E-02 8.97214E-02-5.05088E+00 8.88558E-03 6.44294E-02
 -1      3954 1.53021E+02 3.47809E-02-2.75536E-02-4.67543E+00-6.52980E-02 1.58363E-01
 -1      3955-1.52835E+02-4.24096E-02 3.00171E-02-2.23388E+00 5.53115E-02 1.56553E-01
 -1      3956-1.37441E+02 4.33962E-02-3.77849E-02-2.78572E+00-1.64387E-02 5.71410E-02
 -1      3957-7.58022E+01 1.94565E-02 4.66728E-02-5.98665E+00-2.79729E-02 9.02303E-03
 -1      3958-1.51295E+02-5.71567E-02 6.76472E-02-2.22644E+00 2.82239E-02-9.77385E-02
 -1      3959-9.07925E+01-8.21108E-03-1.49685E-02-5.74512E+00 9.54155E-02-3.88131E-03
 -1      3960-3.43264E+01 8.17982E-02-4.86308E-02-7.73447E+00 2.00975E-02 6.02036E-03
 -1      3961 1.19684E+01 4.28264E-02-1.10720E-01-7.31066E+00-1.03059E-01-3.16813E-03
 -1      3962 4.54917E+01-3.82749E-02-8.59284E-02-8.20090E+00-2.12412E-02 3.85296E-02
 -1      3963-4.52391E+01 1.31701E-02 3.67618E-02-7.49585E+00 9.74508E-03-3.44107E-02
 -1      3964 7.15197E-01 1.30060E-01 7.70602E-02-7.29473E+00 1.39686E-03-5.13838E-03
 -1      3965 4.54169E+01 1.91870E-02 5.58406E-02-8.19608E+00-2.56905E-02 2.23073E-02
 -1      3966 3.10346E+01 1.47524E-01-5.13884E-02-8.24091E+00-2.03553E-02-7.92096E-03
 -1      3967-4.51553E+01-3.39864E-04-9.59727E-02-7.48040E+00 1.41543E-02-3.56599E-02
 -1      3968-1.33074E+01 5.66741E-02-1.21157E-01-7.09923E+00 1.06517E-01 2.41076E-04
 -1      3969-1.56910E+02 2.65801E-02-4.25360E-02-2.25804E+00 1.29080E-02 9.29874E-02
 -1      3970-8.04394E+01-4.37910E-02-7.08339E-02-6.00473E+00-2.80773E-02-8.48712E-03
 -1      3971-1.45484E+02-6.91037E-02 5.73788E-02-2.83680E+00-1.57062E-02-5.37499E-02
 -1      3972-1.55410E+02-8.32965E-03-4.06493E-02-2.24931E+00 5.60055E-02-1.37691E-01
 -1      3973-1.20797E+02-1.23904E-01 1.40294E-01-6.49487E+00-3.51165E-01-4.52078E-01
 -1      3974-1.23541E+02-6.39339E-03 2.00230E-03-6.19008E+00-1.58493E-01-2.87536E-01
 -1      3975-3.09151E+01-4.93697E-02 3.72581E-02-7.72607E+00 1.26706E-02-3.38681E-03
 -1      3976 1.28960E+01-4.75067E-02 9.76954E-02-7.30067E+00-1.01252E-01 3.94684E-03
 -1      3977 4.51318E+01 6.69498E-02 8.87661E-02-8.20112E+00-1.05111E-02-3.36078E-02
 -1      3978-4.53512E+01 2.10003E-02-6.55346E-02-7.49419E+00 1.66459E-02 2.32626E-02
 -1      3979-1.20025E+00-1.35363E-01-9.68818E-02-7.29973E+00 1.61524E-04 4.32967E-04
 -1      3980-9.67465E+01-1.59427E-01-7.23496E-02-2.21144E+00-1.26762E-01-9.76289E-02
 -1      3981-2.96679E+01 2.86460E-01 3.13354E-02-3.17478E+00 1.14483E-01-8.29137E-02
 -1      3982-8.00424E+00 2.93163E-02-1.27545E-01-7.73544E+00 9.93947E-05-4.49029E-02
 -1      3983-3.65960E-01 2.97474E-01 4.54044E-02-7.32483E+00-6.23097E-02-2.55126E-02
 -1      3984 4.53720E+01 3.43805E-02-4.90640E-02-8.20965E+00 3.26225E-03-2.99155E-02
 -1      3985 3.43425E+01-1.10162E-01 3.75745E-02-8.24090E+00-1.61010E-02 1.57241E-02
 -1      3986-4.52754E+01 6.19889E-02 7.78962E-02-7.50223E+00 9.83120E-03 3.96875E-02
 -1      3987-1.25474E+01-6.97277E-02 9.15077E-02-7.10291E+00 1.05236E-01-5.46596E-04
 -1      3988-2.14229E+01 1.22999E-01-6.05099E-02-3.44560E+00-2.01717E-02 2.76147E-01
 -1      3989-2.13916E+02-6.49884E-02-9.44734E-02-2.58564E+00 1.62897E-01 7.89491E-01
 -1      3990 2.80133E+01 9.09021E-02-1.68451E-01-4.06104E+00-1.64395E-02-2.64512E-01
 -1      3991-1.83899E+02 1.08644E-01 7.45341E-02-2.83231E+00 1.24482E-01-9.20221E-02
 -1      3992 1.93242E+02 1.22018E-02-8.08244E-03-4.62167E+00 7.37231E-02-2.85123E-01
 -1      3993 1.70638E+02-4.61067E-03-4.83737E-02-4.68129E+00-1.00636E-02-2.83851E-01
 -1      3994 1.91708E+02-9.78652E-03 8.23263E-02-4.58199E+00 1.91506E-02-2.63051E-01
 -1      3995 1.06023E+02-8.74089E-02 8.74270E-03-7.41082E+00-3.09955E-02-1.14567E-01
 -1      3996 4.19297E+01 6.46265E-02-2.65154E-02-4.35248E+00-5.05667E-02-2.79906E-01
 -1      3997 8.10696E+01 1.06135E-01-5.92703E-02-4.84454E+00-3.01944E-02-1.02019E-01
 -1      3998 7.44337E+00 6.17593E-02-3.89383E-02-6.78408E+00 1.32743E-01 1.39459E-01
 -1      3999-5.12087E+01-3.60023E-01-1.73856E-01-7.59520E+00 1.62767E-03-6.52197E-02
 -1      4000 8.67488E+01 1.02406E-01 6.22831E-02-4.76510E+00 8.82367E-03-2.69738E-01
 -1      4001 7.94140E+01 7.78650E-02-4.43012E-02-4.80735E+00 7.51643E-03-2.72649E-01
 -1      4002 4.92616E+01 1.00176E-01 2.93447E-02-7.49863E+00-1.43070E-02-9.14699E-02
 -1      4003 5.20688E+01 1.47091E-01-2.78845E-02-7.50280E+00 6.86893E-02-1.55481E-01
 -1      4004 8.19172E+01 1.33720E-01 4.32663E-02-4.52303E+00 1.65439E-02-2.45905E-01
 -1      4005 2.07821E+02-3.20516E-02 1.56187E-01-4.14166E+00 9.54966E-02-4.73254E-01
 -1      4006 4.17838E+01-3.26230E-01-1.96896E-01-7.47750E+00-1.01080E-03-1.96347E-01
 -1      4007-3.10756E+01 1.76763E+00 3.21906E+00-6.06109E+00 3.41115E-01 1.36678E-01
 -1      4008 2.02555E+01 1.64750E-01-1.43038E-02-8.12877E+00-2.10655E-02-1.31549E-02
 -1      4009 3.87198E+01 2.40511E-01 3.24817E-02-7.30241E+00 2.10908E-02-9.81610E-02
 -1      4010 1.85990E+01 2.07962E-01 6.96053E-02-8.08750E+00-8.98312E-03 1.41444E-02
 -1      4011-2.04253E+01 1.97394E-01 5.93313E-02-7.59799E+00 1.12848E-02 8.55203E-03
 -1      4012-2.24553E+00 1.71713E-01 8.31442E-02-7.16066E+00 8.80067E-02-1.89996E-02
 -1      4013-4.07747E-01 5.11515E-02-9.83814E-02-7.26489E+00-3.85078E-02-1.94608E-02
 -1      4014 8.88003E+00-8.03935E-02 1.89751E-01-3.77763E+00 5.33331E-02 4.43873E-01
 -1      4015 1.01350E+01 4.42790E-02 6.21172E-02-4.11313E+00-1.74400E-03 3.84984E-01
 -1      4016 1.24860E+01 1.14644E-02-1.72973E-01-7.53692E+00 3.45970E-02 1.81826E-01
 -1      4017-1.27863E+01 3.38863E-01 1.61135E-01-7.20326E+00-4.24851E-02 1.70200E-01
 -1      4018 2.01957E+01-3.11544E-03-1.97981E-01-7.46589E+00-5.50713E-03-1.85268E-01
 -1      4019-2.53550E+01 2.39615E-01 1.54679E-01-7.11381E+00 4.11539E-02-2.02700E-01
 -1      4020 2.50031E+01-6.26188E-02-1.54332E-01-7.70535E+00-2.87810E-02-1.86952E-01
 -1      4021 8.98430E+01 1.57645E-01-4.24425E-02-4.72904E+00 5.15066E-02-2.83369E-01
 -1      4022 5.20028E+01 1.86522E-01 1.50498E-02-7.50892E+00 2.24374E-02-1.20917E-01
 -1      4023 1.80381E+02 5.13976E-03 4.94055E-02-4.37494E+00 4.03271E-02-2.76773E-01
 -1      4024 1.16142E+02-4.28570E-02-3.12256E-02-7.40478E+00 8.58829E-02-1.73738E-01
 -1      4025 6.94463E+01 6.54744E-02-1.36537E-01-4.72612E+00 2.77529E-02-4.51389E-02
 -1      4026 7.06753E+01 1.55325E-01 7.53438E-02-4.42443E+00-2.81905E-02-1.01129E-01
 -1      4027 7.09637E+01 8.65307E-02 1.85188E-02-4.42365E+00 2.07500E-03 1.02818E-01
 -1      4028 4.02716E+01 1.76859E-01-5.45871E-03-6.92138E+00-5.18911E-02-3.42937E-02
 -1      4029 3.89885E+01 2.71846E-01 1.72522E-03-7.03960E+00 3.10818E-02-7.72980E-03
 -1      4030 9.36942E+01 7.10627E-02-3.25804E-02-4.79652E+00-9.73138E-03-3.34567E-01
 -1      4031 8.31997E+01 5.19770E-02-1.35681E-02-4.94409E+00 1.17121E-02-2.34999E-01
 -1      4032 7.06536E+00 2.58170E-01 1.20472E-01-8.00604E+00 3.43907E-02 6.03032E-04
 -1      4033 1.04709E+02 1.92923E-02 2.57365E-02-4.91350E+00-5.27626E-02-2.73202E-01
 -1      4034 2.15073E+02-2.10396E-01-9.95880E-03-3.84818E+00-6.27303E-02 7.06682E-01
 -1      4035 6.63968E+01 5.22620E-02-6.01709E-02-4.33423E+00 1.20279E-02-1.02659E-01
 -1      4036 3.29549E+01 1.23173E-01-1.22778E-02-7.09161E+00-2.86915E-02 2.36230E-02
 -1      4037 5.91996E+01 1.70658E-01 6.90875E-02-4.83525E+00-2.56085E-02 1.52724E-02
 -1      4038 6.69881E+01 9.92328E-02-6.93937E-02-4.36621E+00-4.19786E-02 1.18261E-01
 -1      4039 4.46505E+01 1.50497E-01 1.76381E-02-7.61303E+00 2.28232E-03-4.30036E-02
 -1      4040 3.33438E+01-2.41309E-01-7.97112E-02-7.42206E+00 7.26589E-02-8.33710E-02
 -1      4041 4.54443E+01-1.60625E-01-4.32486E-02-7.61615E+00-7.84980E-03 3.40306E-02
 -1      4042-4.59011E+01 1.37193E-01 1.19245E-02-6.90462E+00-1.82097E-03 3.69808E-02
 -1      4043-3.17560E+01-2.26289E-01-7.57067E-02-6.91215E+00-7.64390E-02 7.89100E-02
 -1      4044-4.52027E+01-1.56197E-01-3.86947E-02-6.89499E+00 7.44571E-03-4.51136E-02
 -1      4045 3.13510E+01 2.17190E-01 4.72874E-02-7.42976E+00 6.71514E-02 8.28713E-02
 -1      4046-3.40234E+01 2.00319E-01 5.13084E-02-6.92162E+00-7.27825E-02-7.67582E-02
 -1      4047-3.71958E+01 1.20082E-01-5.04577E-02-6.06435E+00 3.40334E-02-2.42771E-02
 -1      4048-7.17412E+01 9.56682E-02-6.74955E-02-2.48525E+00-5.94772E-03-9.28802E-02
 -1      4049-6.72610E+01 3.19407E-03 4.33200E-02-2.96268E+00 5.29541E-03 5.90899E-02
 -1      4050-3.67068E+01 7.57088E-02-1.30653E-01-6.37624E+00-3.44157E-02 1.47996E-01
 -1      4051-7.06830E+01 1.41263E-01-2.11451E-02-2.54466E+00-2.78123E-02 1.25764E-01
 -1      4052-1.00271E+02-5.15075E-02 1.96409E-02-2.38433E+00-1.78650E-02 2.85598E-01
 -1      4053-9.35180E+01 2.38237E-01 1.84386E-02-2.46428E+00 1.66679E-02-2.98733E-01
 -1      4054 3.67281E+01 5.18770E-02 6.01369E-02-8.21115E+00 8.18055E-03 2.03892E-02
 -1      4055 1.07796E+01 8.08053E-03-1.78961E-02-7.26035E+00 1.07656E-01 1.38551E-01
 -1      4056-2.63043E+01 8.51387E-02 6.55691E-02-7.71396E+00-1.69303E-02 6.10758E-02
 -1      4057-3.82119E+01 1.32510E-01-5.34484E-02-7.46502E+00-2.87509E-02-3.07542E-02
 -1      4058-6.33788E+01 2.16107E-01 1.46578E-01-6.27989E+00 1.87396E-02-1.21877E-01
 -1      4059-6.27889E+01 1.47683E-01 4.96766E-02-5.94616E+00 2.34563E-02-3.85524E-03
 -1      4060-1.25037E+02-2.43230E-02 4.81156E-02-2.14685E+00-4.15226E-03 1.29804E-01
 -1      4061-1.13448E+02 4.53562E-03-5.67616E-02-2.81057E+00-1.85025E-02-2.77212E-02
 -1      4062-1.26111E+02-3.73115E-02 4.89443E-02-2.17820E+00-4.25209E-02-1.22140E-01
 -1      4063-1.97103E+02 4.52755E-02-9.05850E-02-2.80793E+00 1.32473E-02 2.81483E-01
 -1      4064 2.00172E+01 2.22946E-01 5.59697E-02-8.12666E+00-1.62349E-02-8.69329E-03
 -1      4065-2.03063E+01 1.85788E-01-7.98205E-02-7.55874E+00 9.64117E-03 3.48007E-02
 -1      4066-1.33889E+01 1.78982E-01 8.70029E-02-7.80706E+00 1.66411E-02-5.40045E-02
 -1      4067 6.28015E+00 2.37055E-01 1.44921E-01-7.24535E+00-1.04781E-01 1.46664E-02
 -1      4068 2.20128E+00 1.69971E-01-1.64694E-01-7.34321E+00 5.26136E-02 1.71204E-02
 -1      4069-1.63161E+01 1.62186E-01-1.21827E-01-7.76186E+00-3.62778E-02 2.27664E-02
 -1      4070 8.70019E+01 5.49802E-02 1.28072E-01-4.95401E+00 3.48536E-03-2.48069E-01
 -1      4071-2.08043E+01 1.66908E-01 6.74250E-02-7.55083E+00-2.04697E-02-2.69373E-02
 -1      4072-5.45951E+00 5.48378E-02 6.84829E-03-7.13816E+00-8.15309E-02-1.84809E-02
 -1      4073 1.58250E+01 1.44216E-01 5.68055E-02-8.19664E+00 1.06574E-02-1.25075E-02
 -1      4074 2.01957E+01 2.32887E-01-6.93427E-02-8.10779E+00 2.13975E-02 4.06107E-02
 -1      4075 3.65191E+01 3.51664E-01 1.99894E-01-7.35153E+00 1.10966E-02 1.38853E-01
 -1      4076 4.19633E+01 1.31543E-01-1.53052E-03-7.32325E+00-1.94521E-02 1.40349E-01
 -1      4077 6.52854E+01 2.16489E-01 1.28251E-01-4.35389E+00 2.43400E-02 3.34636E-01
 -1      4078 6.72107E+01 1.98598E-01 4.83840E-02-4.67961E+00 8.45680E-04 2.29640E-01
 -1      4079-7.24499E+01 2.07360E-01 1.26748E-01-2.56644E+00 3.68752E-02 2.92467E-01
 -1      4080-4.62148E+01 1.31987E-01 1.92278E-02-6.16758E+00-2.43805E-02 1.41418E-01
 -1      4081-7.05440E+01 1.67223E-01 5.87152E-02-2.81650E+00-1.61656E-02 2.15225E-01
 -1      4082 2.36133E+01 1.62331E-01-1.51587E-02-4.05429E+00 3.28440E-02 2.97877E-01
 -1      4083 2.20018E+01 1.25961E-01 1.67263E-02-3.79340E+00-2.99129E-02 2.62964E-01
 -1      4084 1.50155E+01 2.48362E-01 5.93206E-02-7.15635E+00 4.00552E-02 1.04783E-01
 -1      4085 1.37181E+01 1.78752E-01-4.64123E-03-7.00618E+00-6.64383E-02 1.54141E-01
 -1      4086 6.89985E+01 9.36940E-02 1.46085E-02-4.41431E+00 1.63529E-03 3.22975E-01
 -1      4087 4.40759E+01 1.75921E-01 6.87443E-03-7.45176E+00-1.62029E-03 1.04157E-01
 -1      4088-6.87152E+01 5.52408E-02 3.01879E-02-2.56513E+00-1.85088E-02 3.17217E-01
 -1      4089-4.41264E+01 1.50511E-01 1.20083E-03-6.26668E+00-2.16873E-02 9.15922E-02
 -1      4090-8.24278E+01 7.40905E-02-8.23389E-02-2.92391E+00-3.32135E-02 1.75435E-01
 -1      4091-3.68215E+01 1.74447E-01-1.07724E-02-3.48839E+00-3.40665E-03 2.25784E-01
 -1      4092 3.67436E+01 4.95265E-02 1.81654E-03-4.56650E+00 2.67860E-03 2.30425E-01
 -1      4093-9.29732E+01 1.25025E-01 1.25710E-01-2.84326E+00-1.96987E-02 1.76701E-01
 -1      4094-2.60057E+01 3.43156E-02-1.34277E-01-3.58499E+00 2.24121E-02 1.76560E-01
 -1      4095 2.42706E+01 1.06745E-01 2.31803E-02-3.94015E+00 8.37931E-03 2.30394E-01
 -1      4096 2.57387E+01 2.71759E-01 2.77095E-02-4.40705E+00-2.36294E-02 2.30764E-01
 -1      4097-1.76382E+02-3.10068E-02-8.02602E-02-3.12825E+00 1.32206E-02 1.95554E-01
 -1      4098-1.24360E+02-1.25385E-01-1.34934E-01-2.20395E+00 5.50137E-02-3.54501E-01
 -1      4099-8.07455E+01 1.12669E-01-2.18754E-03-5.86371E+00 1.29074E-02-1.11302E-01
 -1      4100-1.26305E+02-7.72559E-02-5.92848E-02-2.47525E+00 2.96880E-02-2.22716E-01
 -1      4101 1.52489E+02 9.11486E-02-1.83007E-02-4.79485E+00-1.09679E-01 6.44956E-02
 -1      4102 8.65426E+01-8.12209E-02 3.07232E-02-7.31289E+00 2.58285E-02 1.34489E-01
 -1      4103-1.28058E+02-2.80633E-03-1.40180E-02-2.20539E+00 1.83655E-02-3.26167E-01
 -1      4104-8.31661E+01 5.99530E-02-8.89756E-03-5.97046E+00 2.30870E-02-1.02609E-01
 -1      4105 1.76557E+02 1.88910E-03 9.93824E-02-4.82641E+00-1.56538E-03 1.85678E-01
 -1      4106-1.86829E+02 6.87346E-02 1.59232E-01-3.33253E+00 1.55786E-02 2.76312E-01
 -1      4107 1.68089E+02-1.74278E-01-1.38361E-03-4.66079E+00-1.08612E-01-5.11921E-02
 -1      4108 9.55276E+01-8.84796E-02-9.57334E-02-7.14551E+00 9.71182E-02-1.64898E-01
 -1      4109 1.85166E+01 1.09298E-01-5.45294E-02-8.07198E+00 6.56673E-03-6.31512E-02
 -1      4110 4.20884E+01 1.31980E-01-7.99540E-02-7.24775E+00 7.99642E-02-1.34786E-01
 -1      4111 4.85701E+01 4.25886E-02-3.23484E-03-4.44672E+00 9.70261E-02 3.00187E-02
 -1      4112 2.77171E+01 1.85452E-01-1.02579E-01-7.02591E+00-7.95299E-02 1.65762E-01
 -1      4113 1.18805E+01 1.89425E-01-1.05915E-02-7.97621E+00-2.03789E-02 7.51880E-02
 -1      4114-4.86396E+01 1.56849E-01-5.06239E-03-3.06594E+00-9.10935E-02 1.67334E-02
 -1      4115-2.79597E+01 1.59189E-01 9.14711E-02-6.23254E+00 7.85366E-02 1.63246E-01
 -1      4116-1.22089E+01 2.06648E-01-3.72807E-03-7.63831E+00 2.29878E-02 7.24414E-02
 -1      4117-7.08024E+01 8.03678E-02 3.74912E-02-2.79342E+00-3.93926E-02-6.06931E-02
 -1      4118-4.02759E+01 1.98854E-01-9.45093E-02-6.18640E+00 3.63685E-02-1.65423E-01
 -1      4119 7.36318E+01 9.68838E-02-2.81633E-03-4.82142E+00-1.70041E-02-9.01674E-02
 -1      4120 3.44838E+01 1.04600E-01-2.88047E-02-7.30282E+00-4.12035E-02-5.17101E-02
 -1      4121-1.93094E+01 1.83044E-01-3.69966E-03-7.57691E+00 2.38548E-02-3.34215E-02
 -1      4122-1.42766E+02 9.37249E-02-1.42302E-02-2.48923E+00 1.08006E-01-6.33911E-02
 -1      4123-8.15512E+01-6.01839E-02 3.27257E-02-5.99530E+00-2.62333E-02-1.35075E-01
 -1      4124 1.42967E+02-8.27887E-02 3.69503E-02-4.86130E+00-1.01949E-01-6.67220E-02
 -1      4125 8.11922E+01 7.04686E-02-5.48806E-02-7.34126E+00 4.52807E-02-1.33888E-01
 -1      4126 2.00972E+01 3.41050E-01 3.31275E-02-7.48173E+00 2.50598E-02-5.39623E-02
 -1      4127 1.83031E+01 8.58101E-02 2.59638E-02-7.28746E+00 6.51432E-02-6.55189E-02
 -1      4128-1.52393E+02-1.24156E-01 2.02849E-02-2.55052E+00 9.38530E-02 6.03482E-02
 -1      4129-8.69284E+01 3.37237E-02-5.70945E-02-6.02141E+00-4.14673E-02 1.34322E-01
 -1      4130 4.04169E+01-7.95206E-02-7.05914E-02-8.10743E+00 5.56697E-02 4.49793E-02
 -1      4131-3.70544E+01-3.82361E-02-7.12917E-02-7.50241E+00-6.10069E-02-4.16932E-02
 -1      4132 6.11125E+01-3.01880E-02-1.70443E-02-4.53451E+00-9.73844E-02-8.85132E-02
 -1      4133 3.50988E+01 1.73847E-01-4.20380E-02-7.16472E+00 4.82873E-02-1.06528E-01
 -1      4134 1.52809E+01 2.33817E-01 4.87258E-02-8.06149E+00 9.39198E-02-1.42234E-02
 -1      4135 2.67169E+01 1.28007E-01-6.29344E-03-8.12651E+00 2.58419E-02-7.76842E-02
 -1      4136 5.98851E+01 1.14836E-01-1.00136E-01-7.30363E+00 8.67999E-02-1.72850E-01
 -1      4137-2.70570E+01 1.53023E-01 3.87139E-02-7.50053E+00 1.66334E-02-8.84871E-02
 -1      4138-6.02236E+01 4.93664E-02 8.17777E-02-5.98162E+00-7.17393E-02-2.01324E-01
 -1      4139 1.95326E+02-6.22141E-02 1.15337E-01-4.31334E+00 3.63002E-01-6.73580E-01
 -1      4140 1.05149E+02-1.66806E-02-3.48011E-03-4.94776E+00-9.00068E-02-2.13659E-02
 -1      4141-1.05029E+02 5.78475E-02-2.50898E-02-2.57196E+00 5.40424E-02-2.94490E-02
 -1      4142-2.10969E+02-7.29005E-02 2.85966E-02-2.76252E+00-4.65288E-02-4.88931E-01
 -1      4143-1.93597E+02-7.72365E-02 7.02322E-02-3.45375E+00-3.31312E-01-7.06794E-01
 -1      4144 4.34675E+01-1.84956E-02 2.12187E-02-8.07446E+00 4.01515E-02-8.65493E-02
 -1      4145 1.31158E+02 2.59248E-02-1.17852E-01-5.18401E+00 1.05072E-02 1.81380E-01
 -1      4146-4.47801E+01 8.54280E-02-2.69374E-02-3.36690E+00-9.77472E-03 2.25907E-01
 -1      4147 4.47202E+01 1.34157E-01 2.52621E-02-4.66152E+00-2.80765E-04 2.28274E-01
 -1      4148 5.74551E+01 1.10301E-01 1.13700E-01-4.77815E+00 1.46013E-02-1.88540E-01
 -1      4149 7.26723E+01 1.21085E-01 3.96027E-02-4.56005E+00-1.08313E-03-2.53840E-01
 -1      4150 6.97914E+01 1.59589E-01-2.65276E-02-4.98800E+00 8.52937E-03-2.33558E-01
 -1      4151 6.76913E+01 1.09923E-01-4.50284E-02-4.68259E+00-1.98197E-02-3.04726E-01
 -1      4152 4.24980E+01 2.07595E-01 2.39129E-02-7.55934E+00-2.24275E-02-7.74216E-02
 -1      4153-5.75172E+01 9.20304E-02-1.00371E-01-3.17073E+00-4.30861E-03-1.80368E-01
 -1      4154-8.62003E+01 4.84375E-02 2.14564E-02-2.44556E+00-1.32533E-02-2.36479E-01
 -1      4155-7.46414E+01 1.25776E-01-6.53855E-03-3.06579E+00 1.52133E-02-2.29660E-01
 -1      4156-1.64118E+02-1.53018E-01-1.42862E-01-2.95521E+00 2.27831E-02-1.70931E-01
 -1      4157 1.01290E+02 9.35740E-02 2.59426E-02-5.18368E+00 4.01433E-03-2.19107E-01
 -1      4158 1.56187E+02-2.01636E-03-1.12385E-01-5.06509E+00-1.97897E-02 1.87151E-01
 -1      4159-1.39084E+02 5.87268E-03-1.14425E-01-2.77137E+00 2.04482E-02-1.81434E-01
 -1      4160 2.98130E+01 1.18526E-01 4.11748E-02-8.16473E+00-1.04295E-01 1.10646E-02
 -1      4161 6.70859E+01 3.35363E-02-1.14658E-01-7.29271E+00-7.67272E-02 2.01124E-01
 -1      4162-1.07151E+02 4.79022E-02 1.15801E-04-2.26587E+00 2.76693E-02-2.51533E-01
 -1      4163-1.01206E+02-1.25194E-03 1.56677E-02-2.88185E+00 9.57464E-03-2.41736E-01
 -1      4164-1.35563E+02 2.36009E-02-2.05738E-04-2.19201E+00 1.62286E-02-2.47444E-01
 -1      4165 3.71718E+01 1.17458E-01 6.23627E-02-8.12660E+00 6.48461E-02-3.97035E-02
 -1      4166-1.30921E+02 2.27139E-02 1.01418E-01-2.72926E+00-1.19679E-02 1.79696E-01
 -1      4167 1.17744E+02-6.18189E-02-3.80793E-02-4.96279E+00 9.67522E-02 8.19207E-02
 -1      4168-1.17702E+02 1.63304E-01 2.41383E-02-2.44029E+00-9.87308E-02 9.56949E-02
 -1      4169-6.72286E+01 1.48625E-01 1.48068E-01-5.88895E+00 5.59146E-02 1.28480E-01
 -1      4170 1.87146E+02-1.01797E-01-4.75465E-02-4.62852E+00-5.02386E-02 3.26782E-01
 -1      4171-4.02730E+01 6.74250E-02 5.73485E-02-7.53121E+00-6.77169E-02 4.44774E-02
 -1      4172-3.00382E+01 8.51167E-02-4.94408E-02-7.54099E+00 5.86537E-02 4.70366E-02
 -1      4173 1.39298E+02 2.76236E-02 1.11406E-01-5.17537E+00-2.47435E-03-1.86298E-01
 -1      4174 1.64418E+02-4.65120E-03 1.18806E-01-4.98040E+00 8.15434E-03-1.90200E-01
 -1      4175-1.14059E+02 3.66758E-02-1.10128E-01-2.74035E+00 3.28681E-03 1.88019E-01
 -1      4176-1.56044E+02-1.75963E-02 1.08138E-01-2.88116E+00 3.11190E-03 1.82174E-01
 -1      4177 1.14170E+02 5.87118E-02 1.07771E-01-5.20075E+00 7.06295E-03 1.83103E-01
 -1      4178-4.70362E+01 8.35530E-02-4.85075E-02-3.08186E+00-2.68253E-02 2.23573E-01
 -1      4179-2.91393E+01 2.11124E-01-9.11998E-02-6.53665E+00 7.40417E-02 1.11517E-01
 -1      4180 2.88840E+01 1.53481E-01 8.21410E-02-7.37071E+00-7.58631E-02 1.09182E-01
 -1      4181 7.20052E+01 1.85050E-01 5.61392E-02-4.76310E+00 1.83906E-02-2.59897E-01
 -1      4182 4.69869E+01 1.14919E-01 4.70953E-02-4.43111E+00 1.49373E-02 2.29757E-01
 -1      4183 4.46287E+01 1.68226E-01 3.96327E-02-7.58873E+00 4.44921E-02-9.21713E-02
 -1      4184 3.66467E+01 7.49472E-02 8.77905E-02-7.42971E+00 1.20470E-01-1.24430E-01
 -1      4185 5.97510E+01 2.97910E-02 8.44347E-02-4.56198E+00-1.70805E-03-2.78051E-01
 -1      4186-7.24566E+01 1.25197E-01 9.45133E-02-2.80999E+00 1.79414E-02-2.63001E-01
 -1      4187-4.56053E+01 9.79485E-02 2.62469E-02-6.38099E+00 6.57868E-02-1.09259E-01
 -1      4188 1.03560E+02 6.48859E-02 5.64847E-02-4.94827E+00-1.15363E-02-2.39141E-01
 -1      4189 6.41647E+01 7.99097E-02 7.97699E-02-7.69514E+00 8.28789E-02-1.16102E-01
 -1      4190 1.53949E+02 5.36739E-02-1.05339E-01-4.83008E+00-2.20607E-02 2.57442E-01
 -1      4191 9.64709E+01 1.17683E-01-9.08862E-02-7.61678E+00 1.01018E-01 1.37668E-01
 -1      4192-8.78420E+01 1.47137E-01-9.01467E-02-6.17752E+00-1.04017E-01-1.32484E-01
 -1      4193-1.41313E+02 5.87253E-02-1.05944E-01-2.53022E+00 2.00648E-02-2.51721E-01
 -1      4194-1.03394E+02-1.67152E-02-7.85814E-02-2.60645E+00-1.35147E-03-2.61741E-01
 -1      4195 1.66692E+02-7.67581E-02 1.01719E-01-4.72778E+00 1.77963E-03-2.62192E-01
 -1      4196 1.41515E+02-4.20023E-02 1.12236E-01-4.92112E+00 3.29693E-03-2.59293E-01
 -1      4197-6.44615E+01 1.50869E-01-3.90923E-02-6.25320E+00-4.48973E-02-1.18287E-01
 -1      4198-7.25702E+01 1.79424E-01-8.85790E-02-6.13242E+00 1.02461E-01 1.37624E-01
 -1      4199 7.24919E+01 1.11011E-01 2.46712E-03-4.59042E+00-3.46452E-03 2.57803E-01
 -1      4200-7.25016E+01 8.42726E-02 1.34521E-02-2.62836E+00-1.88405E-03 2.44604E-01
 -1      4201 6.70405E+01 7.32107E-02-6.21009E-02-4.83826E+00-1.43083E-02 6.98110E-02
 -1      4202 1.16435E+02-1.63287E-02 9.27445E-02-4.97087E+00 1.28428E-02 2.65665E-01
 -1      4203-1.53839E+02-8.26641E-02 1.12653E-01-2.61317E+00 1.49941E-03 2.53939E-01
 -1      4204 8.84999E+01-7.74236E-02 8.15283E-02-7.63614E+00 1.23755E-01-1.34493E-01
 -1      4205-9.71211E+01-1.29305E-01 7.61013E-02-6.21272E+00-1.19609E-01 1.32672E-01
 -1      4206 1.04578E+02-1.44273E-01 9.22475E-02-7.51181E+00 1.18590E-01-1.42637E-01
 -1      4207 7.24773E+01-7.50660E-03 1.01559E-01-7.67556E+00-1.16374E-01 1.20520E-01
 -1      4208-1.16365E+02 1.03236E-01-7.52052E-02-2.48984E+00-1.73899E-02 2.74829E-01
 -1      4209-3.91430E-01-2.39099E-02-1.41518E-02-7.54061E+00 7.21721E-04-1.74399E-01
 -1      4210-4.04300E+01 2.20641E-01 3.83442E-02-6.83013E+00 1.41376E-03 7.16885E-02
 -1      4211-1.74313E-01-1.15628E-01-1.45425E-03-7.79833E+00 7.31907E-03 2.31948E-01
 -1      4212-2.33986E-01 2.29614E-01-2.28137E-02-7.71053E+00-9.29860E-03-1.68366E-01
 -1      4213 1.26101E+01 3.54279E-01 3.31802E-02-7.33397E+00-4.37465E-02 1.32827E-01
 -1      4214-1.29194E+01 1.15626E-02-6.19754E-02-6.98435E+00 3.98847E-02 1.34327E-01
 -1      4215-2.61177E-01 2.73332E-01 7.08071E-03-7.44800E+00-4.64871E-03 9.68556E-02
 -1      4216-1.57223E+01 2.86698E-01 1.16295E-01-6.96385E+00 6.20525E-03 9.33418E-02
 -1      4217 1.55759E+01-2.88676E-02 5.66141E-02-7.42023E+00-5.06713E-02 1.15259E-01
 -1      4218-1.87375E+01 2.51245E-01 8.00996E-02-6.87355E+00-3.61152E-02-7.96492E-02
 -1      4219 1.93438E+01 1.97184E-01 8.26482E-02-7.38127E+00 3.17061E-02-7.99270E-02
 -1      4220-1.16696E-01 1.69508E-01-6.77933E-04-7.27364E+00-1.04990E-02 7.24917E-02
 -1      4221 1.57740E+01 4.07572E-01 3.45699E-02-7.34181E+00 5.34480E-02-6.18751E-02
 -1      4222 4.38253E+01 5.19963E-02 1.10150E-02-7.41719E+00 3.31210E-02-1.09764E-01
 -1      4223 3.98931E+01-2.64759E-01-6.52277E-02-7.42345E+00-8.85577E-03 7.20441E-02
 -1      4224-1.67341E-01 1.11644E-01-1.33890E-02-7.76741E+00-4.42585E-03 1.91033E-01
 -1      4225 2.74373E+01 2.77206E-01 5.07458E-02-7.48577E+00 3.83880E-02-1.41790E-01
 -1      4226-2.77355E+01-5.14641E-02-4.13445E-02-6.87618E+00-3.07914E-02-1.64799E-01
 -1      4227-5.19888E+01 8.18113E-02-7.16864E-02-2.88270E+00-1.29204E-02 2.37158E-01
 -1      4228 7.95686E+01 1.01089E-01 7.35548E-02-4.66758E+00-1.29243E-02-2.44145E-01
 -1      4229 5.19639E+01 1.11900E-01 7.29844E-02-4.36646E+00 3.94825E-03 2.40622E-01
 -1      4230 6.58318E+01 9.68275E-02 7.75247E-02-4.55586E+00 1.04028E-02-2.40841E-01
 -1      4231-7.92465E+01 6.43783E-02 6.93304E-02-2.56291E+00 3.42251E-03-2.42893E-01
 -1      4232 1.04937E+02 5.30259E-03-1.28005E-02-4.98271E+00 3.84013E-02 2.43939E-01
 -1      4233 1.69172E+02 2.72357E-02-6.82043E-02-4.86949E+00-9.57984E-03 2.41441E-01
 -1      4234 1.14195E+02 8.17427E-02 7.35304E-02-4.94253E+00 2.79924E-03-2.39267E-01
 -1      4235-1.55472E+02 2.27710E-02-6.95143E-02-2.33553E+00 3.10175E-03-2.36176E-01
 -1      4236-1.30813E-01 1.01171E-02-1.06400E-02-7.53372E+00-8.70457E-03 1.78675E-01
 -1      4237-3.75730E+01-2.51123E-01-6.95108E-02-6.81647E+00 7.19219E-03-7.38024E-02
 -1      4238-2.48810E-01 6.17860E-02-5.06309E-03-7.36982E+00 2.03819E-02-1.04132E-01
 -1      4239-2.64721E+01-6.98738E-02-2.95881E-02-6.86354E+00 7.06126E-03-2.22895E-01
 -1      4240-3.13049E+01-1.21599E-01-1.63867E-01-6.74825E+00 2.89301E-03 8.48368E-02
 -1      4241 3.71615E+01 2.47948E-01 3.53202E-02-7.43567E+00-1.63976E-03-7.39621E-02
 -1      4242-1.14039E+02 5.37815E-02-7.42958E-02-2.32237E+00 1.87605E-02-2.40472E-01
 -1      4243 1.56582E+02 2.52303E-02 8.06718E-02-4.92275E+00 1.31812E-02-2.43240E-01
 -1      4244 1.84672E+02-1.41229E-02 9.04541E-02-4.68974E+00 7.75233E-03-2.39332E-01
 -1      4245 3.08155E+01 3.59648E-01 1.25844E-01-7.56033E+00-7.18974E-02-5.58789E-02
 -1      4246-3.49785E-01 3.28670E-02-2.89787E-02-7.63725E+00-1.02333E-02-1.65639E-01
 -1      4247-1.28229E+02 5.43532E-02-7.08947E-02-2.28142E+00-7.30428E-03 2.39035E-01
 -1      4248 1.28523E+02 4.55382E-02 7.35262E-02-4.98471E+00-4.77907E-03 2.35428E-01
 -1      4249-1.69199E+02-1.48607E-02 7.94546E-02-2.40513E+00-5.61573E-03 2.35632E-01
 -1      4250-6.50627E+01-7.77687E-02-1.40824E-01-2.55267E+00-5.76388E-02 3.28960E-01
 -1      4251-6.69818E+01-2.37807E-02-5.14670E-02-2.84349E+00-2.27568E-02 2.19630E-01
 -1      4252-4.20546E+01 1.79965E-01-2.39554E-02-6.16060E+00-5.96444E-03 1.34162E-01
 -1      4253 4.61849E+01 2.48772E-01-3.04780E-04-7.33657E+00 1.54786E-02 1.02774E-01
 -1      4254 7.07467E+01 6.37748E-03-5.20234E-02-4.71354E+00-1.04448E-02 2.27149E-01
 -1      4255 7.27389E+01 3.11700E-03-7.95549E-02-4.50370E+00-2.64750E-02 3.29898E-01
 -1      4256-1.31741E+02 9.70175E-02 1.29641E-01-2.22001E+00-2.88636E-02-2.94939E-01
 -1      4257-1.29813E+02 1.24561E-01 6.83979E-02-2.46092E+00 1.67965E-02-2.12193E-01
 -1      4258-8.52089E+01-1.25130E-02 1.51511E-02-5.87152E+00 4.27744E-02-1.41909E-01
 -1      4259 1.60314E+01 1.48076E-01 4.64644E-02-3.77823E+00-7.78447E-02 8.79456E-02
 -1      4260 8.81381E+00 8.92555E-02-1.37208E-01-6.90546E+00 2.99552E-02 6.16931E-02
 -1      4261 8.29597E+01 9.50460E-02 2.44887E-02-4.97994E+00-2.10345E-02 2.18025E-01
 -1      4262-5.10710E+00 7.29189E-01-1.07790E-01-3.54291E+00-6.56738E-02 5.94138E-01
 -1      4263-6.82794E+00 2.35772E-01-1.94045E-01-4.06595E+00 2.00303E-02 4.12681E-01
 -1      4264-4.76372E+00 4.42309E-01 5.99956E-02-4.18132E+00-3.02062E-02 5.33008E-01
 -1      4265-5.44264E+00 8.28365E-01-1.55221E-01-6.34355E+00-1.79232E-01 2.84856E-01
 -1      4266-3.43078E+00 3.99097E-01-3.58384E-01-6.24699E+00-8.00292E-02 2.66326E-01
 -1      4267-4.17299E+00 7.20881E-01-4.53710E-01-5.94703E+00-4.38495E-02 3.52159E-01
 -1      4268 2.22722E+02-2.35028E+00 4.97912E+00 1.46256E+00 5.20575E-01 5.21422E+00
 -1      4269 2.58009E+02-5.97440E+00 3.79852E+00 2.64957E+00 4.70378E+00 9.98646E+00
 -1      4270 1.67427E+02 2.56734E+00 5.90980E+00-6.20987E+00 2.71024E+00 4.12395E+00
 -1      4271 2.24515E+02-6.52333E-01 1.51276E+01-7.26656E+00 1.09778E+00 1.02972E+01
 -1      4272-1.53171E+01 3.45444E-03-4.60162E-02-7.67657E+00-5.98761E-02-7.41189E-02
 -1      4273-3.24105E+00 3.94588E-01-1.61963E-01-7.42868E+00-4.16536E-02 1.19265E-02
 -1      4274-2.22859E+00 2.56814E-01 1.74664E-01-7.54059E+00 6.41231E-02 7.52925E-03
 -1      4275-1.44242E+01-8.69119E-02 1.28490E-01-7.60411E+00 1.39744E-02-5.62878E-02
 -1      4276 8.24635E+00-3.36280E-01-8.32127E-02-3.29516E+00-1.20686E-01-5.22563E-01
 -1      4277 4.47214E+00-5.84399E-01-1.62392E-02-3.62651E+00 3.99440E-02-6.43539E-01
 -1      4278 4.35641E+00-2.38649E-01-1.38583E-01-4.32364E+00-5.03267E-02-6.03184E-01
 -1      4279 4.96094E+00-3.58924E-01 1.18436E-01-6.44034E+00-1.48505E-01-3.27660E-01
 -1      4280 1.75708E+01 1.29020E-01-4.21819E-02-3.71175E+00-3.25480E-02 3.02494E-01
 -1      4281 1.46977E+01 1.15145E-01 5.74267E-02-4.09001E+00-2.68679E-02 3.50728E-01
 -1      4282-7.84965E+00 1.50446E-01-1.86749E-01-7.50336E+00-2.36904E-02-7.33161E-02
 -1      4283-3.44741E+00-3.89621E-02-5.87151E-01-2.94323E+00-4.09656E-02 6.26779E-01
 -1      4284-3.36733E+00 3.58919E-01-3.45676E-01-3.07781E+00-4.59976E-02 3.79521E-01
 -1      4285-6.99931E+00 1.46951E-01 2.82870E-02-7.47365E+00 3.39908E-02-6.43888E-02
 -1      4286 2.28603E+00-2.61393E-01-5.19030E-02-8.79195E+00-3.15212E-02 4.14350E-01
 -1      4287-5.16774E+00 7.46157E-01-1.29636E-01-3.56409E+00 9.76267E-02-5.76390E-01
 -1      4288-6.81899E+00 2.76424E-01-1.96910E-01-4.15621E+00 1.32151E-02-4.38464E-01
 -1      4289-4.79117E+00 4.71885E-01-4.34690E-02-4.06123E+00 3.57197E-03-3.95816E-01
 -1      4290-5.31703E+00 1.16279E+00-1.76873E-02-6.11913E+00 2.04949E-01-2.43215E-01
 -1      4291-2.55709E+02 3.22586E+00-4.41561E+00 3.67623E+00-5.58640E+00 9.44138E+00
 -1      4292-2.21694E+02 2.02468E+00-4.93331E+00 1.42258E+00-6.67404E-01 4.74138E+00
 -1      4293-2.23976E+02-3.61282E+00-1.70631E+01-6.47943E+00-2.31785E+00 9.15474E+00
 -1      4294-1.68247E+02-7.03289E+00-7.97530E+00-3.23262E+00-3.02465E+00 4.01298E+00
 -1      4295-4.23580E+00 1.04461E+00-2.49942E-01-5.43790E+00-1.22185E-01 5.06787E-01
 -1      4296 2.57949E+02-4.03598E+00 3.81790E+00 3.75250E+00-5.07245E+00-9.81036E+00
 -1      4297 2.22686E+02-1.88768E+00 5.01696E+00 1.16518E+00-8.03601E-01-4.92270E+00
 -1      4298 2.27426E+02 3.61894E+00 1.73840E+01-6.61679E+00-2.05415E+00-9.33447E+00
 -1      4299 1.69162E+02 2.94997E+00 5.37170E+00-5.64659E+00-2.61287E+00-4.30189E+00
 -1      4300 6.70220E+00-3.50537E-02 1.61541E-01-4.28674E+00 9.72921E-03 4.20059E-01
 -1      4301 5.06638E+00-5.26844E-01 1.15360E-01-3.69977E+00 6.55247E-02 6.09925E-01
 -1      4302 5.24922E+00-4.47614E-01 1.63507E-01-6.43377E+00 1.64401E-01 3.26924E-01
 -1      4303 4.73413E+00-2.70049E-01 7.12573E-02-4.17966E+00-5.32453E-04 4.54173E-01
 -1      4304 5.73022E+00-3.80080E-01 7.47269E-02-6.87185E+00-1.26662E-02 2.50864E-01
 -1      4305-2.45946E+02-1.39696E+01-5.03269E+01-7.11879E+00-1.08568E+00 1.70434E+01
 -1      4306-1.51410E+02-2.53362E+01-3.01923E+01-1.10550E+01-2.35132E+00 1.27184E+01
 -1      4307 3.28723E+00-1.55771E-02 3.75928E-01-6.33419E+00-7.21736E-02-2.68432E-01
 -1      4308 3.91508E+00-4.04820E-01 4.44134E-01-5.98578E+00-2.31301E-02-3.90969E-01
 -1      4309-2.55735E+02 3.10556E+00-4.63046E+00 3.60616E+00 5.60537E+00-9.60621E+00
 -1      4310-2.21806E+02 1.96758E+00-4.97780E+00 1.36608E+00 7.23367E-01-4.89858E+00
 -1      4311-2.23712E+02-2.50045E+00-1.64438E+01-6.33488E+00 1.81813E+00-9.35234E+00
 -1      4312-1.68723E+02-6.67538E+00-8.11077E+00-3.41104E+00 2.80542E+00-3.61918E+00
 -1      4313 4.39422E+01 1.33749E-01-2.44568E-02-7.36733E+00 5.64285E-02-1.46577E-01
 -1      4314 6.90525E+01 1.88031E-01 6.48482E-02-4.35251E+00 2.97708E-02-3.25481E-01
 -1      4315-2.37564E+02-1.07790E+01-3.70603E+01-3.83310E+00-6.01884E-01 2.54826E+01
 -1      4316-2.45073E+02-1.37546E+01-5.13123E+01-8.94783E+00 2.11855E+00-1.66964E+01
 -1      4317-1.52470E+02-2.52717E+01-3.06569E+01-1.09648E+01 2.18509E+00-1.20195E+01
 -1      4318 3.46491E+00 3.01924E-01 6.24203E-01-3.14324E+00-3.57790E-02-6.96964E-01
 -1      4319 3.30616E+00-1.58450E-01 3.80576E-01-3.20020E+00-4.26710E-02-3.86631E-01
 -1      4320 4.11149E+00-6.85878E-01 3.37656E-01-5.48836E+00-1.04419E-01-4.47985E-01
 -1      4321 1.35574E+02 1.43697E+01 4.20247E+00 2.96269E+00-2.74108E+00 8.96121E+00
 -1      4322-1.28904E+02-2.54734E+01-2.18886E+01 1.13516E+00 4.99683E-01 1.45476E+01
 -1      4323-1.82310E+02-2.08760E+01-1.50898E+01-1.77891E+00-1.33278E+00 1.45583E+01
 -1      4324-2.97583E+00 2.23721E-01-3.89786E-01-3.09352E+00-2.40818E-02-4.41753E-01
 -1      4325 1.87107E+02 2.99414E+01 2.00108E+01-1.97010E+00 2.16840E+00 1.54943E+01
 -1      4326 1.54623E+02 3.02322E+01 3.49197E+01-1.04120E+01 3.85601E+00 1.32020E+01
 -1      4327-2.37393E+02-1.08216E+01-3.76331E+01-3.77514E+00 7.79731E-01-2.57051E+01
 -1      4328-1.28598E+02-2.54515E+01-2.19270E+01 1.22161E+00-3.53575E-01-1.46000E+01
 -1      4329-1.82181E+02-2.09398E+01-1.52521E+01-1.70973E+00 1.27248E+00-1.45622E+01
 -1      4330-5.32756E+01-7.12505E-02-7.54764E-03-2.96883E+00 3.91058E-02 2.21962E-01
 -1      4331-3.32335E+01 1.50878E-01-1.25615E-02-6.27246E+00 2.64463E-03 1.16154E-01
 -1      4332-5.11586E+01 2.48532E-02 1.41181E-02-2.69526E+00-5.30810E-03 3.34201E-01
 -1      4333 3.29930E+01 2.09883E-01 9.69036E-03-7.21373E+00-6.63810E-03 1.17950E-01
 -1      4334 5.11398E+01 1.56329E-01-1.47595E-02-4.14885E+00-8.01512E-03 3.37496E-01
 -1      4335 5.32452E+01 2.68220E-01 6.10787E-03-4.47284E+00-4.71890E-02 2.22057E-01
 -1      4336-4.68176E+01 1.43934E-01 2.14138E-02-6.13074E+00-1.12168E-02-1.12338E-01
 -1      4337-7.34944E+01 1.38469E-01 6.22062E-03-2.45937E+00-2.34925E-02-3.39981E-01
 -1      4338-7.13643E+01 1.78753E-01-2.40959E-02-2.78808E+00-8.46493E-03-2.16218E-01
 -1      4339 7.95759E+01 1.32499E-01-4.04805E-02-4.76996E+00 3.45597E-02-2.35549E-01
 -1      4340 7.73974E+01 5.51869E-02-3.03301E-02-4.44653E+00 2.00979E-02-3.09787E-01
 -1      4341 4.98134E+01 1.42703E-01-3.00352E-02-7.42239E+00 1.23515E-03-9.11711E-02
 -1      4342 1.01244E+02-6.39621E-04-2.85045E-02-7.51942E+00-1.78328E-02 1.36360E-01
 -1      4343 1.56814E+02-9.19540E-02 3.92955E-02-4.93575E+00-1.19320E-02 2.12163E-01
 -1      4344 1.58897E+02-6.71655E-02 6.24689E-03-4.63022E+00-4.49722E-02 3.43196E-01
 -1      4345 1.12366E+02 2.33322E-01 1.24133E-02-4.97825E+00 4.88655E-02-2.21064E-01
 -1      4346 1.10256E+02 1.26115E-01-4.00561E-03-4.66814E+00 1.16535E-02-3.35266E-01
 -1      4347 7.08235E+01 1.44797E-01 1.26201E-02-7.54854E+00 1.42877E-02-1.25783E-01
 -1      4348-1.51605E+02-1.70954E-01-3.16428E-02-2.51068E+00-2.27480E-02-2.13782E-01
 -1      4349-1.49530E+02-8.65086E-02 3.27535E-03-2.22642E+00 3.48204E-02-3.46917E-01
 -1      4350-9.62383E+01 5.94103E-03-4.51832E-02-5.95965E+00 5.14034E-03-1.22768E-01
 -1      4351-7.10574E+01 8.62857E-02-1.50845E-03-5.95345E+00 1.25141E-02-1.31258E-01
 -1      4352-1.12293E+02-5.75437E-02 5.28689E-02-2.47705E+00-2.07166E-03-2.13505E-01
 -1      4353-1.10163E+02-2.05180E-02 6.23901E-04-2.16737E+00 1.23133E-02-3.31893E-01
 -1      4354-1.01788E+02 1.41143E-02 1.77476E-02-5.98655E+00-2.40614E-03 1.37152E-01
 -1      4355-1.56572E+02 1.00255E-01-3.52875E-02-2.54899E+00-4.47992E-03 2.07056E-01
 -1      4356-1.58669E+02 6.06886E-02 6.17634E-03-2.27419E+00 2.45688E-02 3.42745E-01
 -1      4357-3.09798E+00 2.21719E-01-4.63634E-01-3.07660E+00 6.44653E-02-6.45109E-01
 -1      4358-4.19600E+00 7.68127E-01-4.75201E-01-5.96492E+00 8.30340E-02-4.38585E-01
 -1      4359 9.67766E+01 4.49592E-02 3.44124E-02-7.51872E+00 1.57132E-02-1.26190E-01
 -1      4360 1.51713E+02 1.84895E-01 3.20431E-02-4.96223E+00 4.41901E-02-2.19194E-01
 -1      4361 1.49627E+02 9.24605E-02 6.13736E-03-4.70246E+00-1.08892E-02-3.49897E-01
 -1      4362-7.97141E+01 5.52163E-02-8.26020E-03-5.91115E+00-5.62484E-02 1.04513E-01
 -1      4363-1.23352E+02-6.97099E-02 2.57767E-02-2.17237E+00-5.09626E-02 3.31637E-01
 -1      4364-1.25423E+02-8.29234E-02 3.49694E-02-2.46193E+00-3.41116E-02 2.03852E-01
 -1      4365-2.61648E+01-8.00018E-02-5.44131E-02-3.43000E+00-4.73020E-04-2.07321E-01
 -1      4366 1.75965E+02-5.76929E-02-2.38990E-02-4.43751E+00 4.04341E-02-3.36923E-01
 -1      4367 1.14006E+02-4.98859E-02-3.78182E-02-7.36366E+00 3.36716E-02-1.17625E-01
 -1      4368 1.78102E+02 1.65233E-02-3.80476E-02-4.69291E+00 4.92765E-02-2.28959E-01
 -1      4369-8.39731E+01 5.67522E-04 2.72831E-02-2.69781E+00-1.51153E-02-2.23491E-01
 -1      4370-3.84285E+01 1.29683E-01-5.10107E-02-3.20927E+00 2.56688E-03-2.06134E-01
 -1      4371-1.00261E+02 1.82874E-01-6.92976E-03-2.33040E+00-3.14211E-02-2.25026E-01
 -1      4372-1.80272E+02-2.03801E-01-4.94044E-02-2.97420E+00-2.09170E-04-2.11577E-01
 -1      4373 2.47143E+02 1.47639E+01 5.08886E+01-7.70398E+00-9.18068E-01-1.72444E+01
 -1      4374 2.37877E+02 1.08390E+01 3.75936E+01-4.12686E+00-6.94263E-01-2.60339E+01
 -1      4375 1.55886E+02 2.65369E+01 3.46183E+01-1.07528E+01-3.78136E+00-1.36418E+01
 -1      4376 3.27087E+00-3.72136E-02 3.87724E-01-6.30988E+00 8.11427E-02 2.83939E-01
 -1      4377 4.05123E+00-6.75443E-01 2.58525E-01-5.55567E+00 1.22548E-01 5.12054E-01
 -1      4378 3.89827E+00-4.15179E-01 4.65364E-01-5.96471E+00 1.01994E-01 4.06261E-01
 -1      4379 1.33797E+02 1.36344E+01 3.17303E+00 4.25335E+00 2.94159E+00-9.31396E+00
 -1      4380 1.25624E+02 1.56470E-01-2.81936E-02-5.02504E+00 4.14122E-03 2.12104E-01
 -1      4381 7.97111E+01 7.38902E-02 1.85994E-02-7.55731E+00 9.71224E-03 1.11291E-01
 -1      4382 1.23519E+02 1.13305E-01-3.83927E-03-4.73445E+00 2.82466E-02 3.13363E-01
 -1      4383 2.39453E+02 1.46607E+01 4.78688E+01-9.24691E+00-1.47504E-01 1.85641E+01
 -1      4384 2.41307E+02 1.53905E+01 4.24892E+01-6.07821E+00 2.10162E+00 2.60702E+01
 -1      4385-1.92364E+02 3.48105E-04-4.04070E-02-3.12615E+00-4.33676E-02-3.39243E-01
 -1      4386-3.76014E+00 6.25674E-01-1.30730E-01-6.04855E+00 1.49849E-01-1.69628E-01
 -1      4387 1.87632E+02 2.81770E+01 1.95274E+01-2.09088E+00-1.99640E+00-1.58157E+01
 -1      4388 6.46781E+01 8.71140E-02-2.89223E-02-4.31933E+00 7.63470E-03-3.51899E-01
 -1      4389 4.17239E+01 1.47109E-01-8.62040E-03-7.32043E+00 7.56129E-03-1.00249E-01
 -1      4390 6.67569E+01 1.47647E-01-2.50118E-02-4.61722E+00 3.25126E-02-2.45009E-01
 -1      4391-4.31637E+00 8.57544E-01-3.14805E-01-5.54173E+00 1.17228E-01-5.06785E-01
 -1      4392 2.34145E+00 2.39428E-01 4.46084E-02-7.41682E+00-1.88877E-03-1.07177E-01
 -1      4393 2.75380E+00-8.94788E-02 3.40597E-01-3.06522E+00-5.64115E-02 4.88233E-01
 -1      4394 3.13755E+00-3.42393E-03 5.39806E-01-3.14017E+00 3.71915E-02 6.86917E-01
 -1      4395 3.43391E+00 1.15032E-01 6.44029E-02-7.99729E+00 1.16109E-02 2.80535E-02
 -1      4396 1.01642E+01 1.46551E-02 7.29187E-02-3.99121E+00 4.34468E-03 3.43098E-01
 -1      4397 6.71094E+00 6.80978E-02-3.79993E-02-7.25351E+00 9.05118E-02 1.11561E-01
 -1      4398 1.14944E+01 2.51179E-01-3.43072E-02-6.98234E+00 7.19930E-02 1.15109E-01
 -1      4399 8.76057E+00 8.77822E-02 3.11195E-02-7.21036E+00-3.65333E-02 1.08798E-01
 -1      4400 1.96836E+01 1.32647E-01-3.34926E-02-4.01905E+00-1.65132E-02 2.45675E-01
 -1      4401 1.25114E+01 7.63923E-02 8.38201E-03-4.37602E+00 4.86662E-03 2.32961E-01
 -1      4402 1.73292E+01 1.21907E-01 1.70760E-02-3.84387E+00 6.18499E-03 2.60811E-01
 -1      4403 2.18790E+01 2.35939E-01-1.43441E-02-4.31403E+00 2.96370E-02 1.89780E-01
 -1      4404 0.00000E+00 0.00000E+00 0.00000E+00 0.00000E+00 0.00000E+00 0.00000E+00
 -1      4405 0.00000E+00 0.00000E+00 0.00000E+00 0.00000E+00 0.00000E+00 0.00000E+00
 -3
    1PSTEP                         6           2           1          
  100CL  102 1.000000000        4405                     0    2           1
 -4  ERROR       1    1
 -5  STR(%)      1    1    0    0
 -1         1 1.20330E+01
 -1         2 1.20365E+01
 -1         3 1.16421E+01
 -1         4 1.15762E+01
 -1         5 2.20733E+01
 -1         6 2.20588E+01
 -1         7 2.18417E+01
 -1         8 2.15988E+01
 -1         9 1.02841E+01
 -1        10 1.04431E+01
 -1        11 1.00401E+01
 -1        12 1.11603E+01
 -1        13 1.03636E+01
 -1        14 1.02416E+01
 -1        15 1.10365E+01
 -1        16 1.57232E+01
 -1        17 3.10635E+01
 -1        18 1.63262E+01
 -1        19 1.38781E+01
 -1        20 2.33933E+01
 -1        21 2.36949E+01
 -1        22 1.39842E+01
 -1        23 9.34957E+00
 -1        24 1.05232E+01
 -1        25 1.07155E+01
 -1        26 1.04629E+01
 -1        27 9.93640E+00
 -1        28 1.06194E+01
 -1        29 1.11788E+01
 -1        30 1.57026E+01
 -1        31 3.07956E+01
 -1        32 1.62119E+01
 -1        33 1.38695E+01
 -1        34 2.32491E+01
 -1        35 2.35037E+01
 -1        36 1.38940E+01
 -1        37 2.38540E+01
 -1        38 2.44596E+01
 -1        39 2.42553E+01
 -1        40 2.29564E+01
 -1        41 2.41568E+01
 -1        42 2.43575E+01
 -1        43 2.31643E+01
 -1        44 6.47430E+00
 -1        45 7.34756E+00
 -1        46 6.78465E+00
 -1        47 1.42738E+01
 -1        48 6.91093E+00
 -1        49 7.06611E+00
 -1        50 1.43132E+01
 -1        51 2.38341E+01
 -1        52 2.51721E+01
 -1        53 2.50100E+01
 -1        54 2.27165E+01
 -1        55 2.45031E+01
 -1        56 2.50911E+01
 -1        57 2.34258E+01
 -1        58 6.91764E+00
 -1        59 6.78626E+00
 -1        60 7.08932E+00
 -1        61 1.44882E+01
 -1        62 6.85195E+00
 -1        63 6.93779E+00
 -1        64 1.43441E+01
 -1        65 8.73506E+00
 -1        66 8.50192E+00
 -1        67 7.93735E+00
 -1        68 1.12335E+01
 -1        69 8.06397E+00
 -1        70 1.11398E+01
 -1        71 8.12908E+00
 -1        72 8.14004E+00
 -1        73 1.11774E+01
 -1        74 1.00811E+01
 -1        75 8.15872E+00
 -1        76 8.25652E+00
 -1        77 1.11854E+01
 -1        78 8.08478E+00
 -1        79 9.84337E+00
 -1        80 1.10073E+01
 -1        81 8.31293E+00
 -1        82 8.32651E+00
 -1        83 1.12526E+01
 -1        84 8.09960E+00
 -1        85 1.09962E+01
 -1        86 8.20634E+00
 -1        87 1.02301E+01
 -1        88 9.44791E+00
 -1        89 8.55894E+00
 -1        90 9.47018E+00
 -1        91 1.03858E+01
 -1        92 1.10964E+01
 -1        93 8.78605E+00
 -1        94 1.03084E+01
 -1        95 9.57285E+00
 -1        96 9.73956E+00
 -1        97 2.20588E+01
 -1        98 1.03858E+01
 -1        99 8.61849E+00
 -1       100 8.21963E+00
 -1       101 9.58540E+00
 -1       102 9.64872E+00
 -1       103 9.60190E+00
 -1       104 9.63445E+00
 -1       105 8.13456E+00
 -1       106 9.65871E+00
 -1       107 1.06293E+01
 -1       108 9.11993E+00
 -1       109 8.20762E+00
 -1       110 9.72096E+00
 -1       111 9.63509E+00
 -1       112 8.96408E+00
 -1       113 1.04253E+01
 -1       114 9.66011E+00
 -1       115 8.31972E+00
 -1       116 9.78956E+00
 -1       117 9.67611E+00
 -1       118 9.54788E+00
 -1       119 9.60125E+00
 -1       120 9.21823E+00
 -1       121 9.83902E+00
 -1       122 9.00343E+00
 -1       123 9.01456E+00
 -1       124 9.92801E+00
 -1       125 1.07411E+01
 -1       126 9.94124E+00
 -1       127 9.54721E+00
 -1       128 9.94061E+00
 -1       129 9.65620E+00
 -1       130 1.58992E+01
 -1       131 2.20588E+01
 -1       132 8.72462E+00
 -1       133 8.50213E+00
 -1       134 1.10816E+01
 -1       135 1.05557E+01
 -1       136 8.17921E+00
 -1       137 1.04906E+01
 -1       138 8.19643E+00
 -1       139 1.10956E+01
 -1       140 8.08098E+00
 -1       141 8.23664E+00
 -1       142 9.87375E+00
 -1       143 1.10783E+01
 -1       144 7.94107E+00
 -1       145 1.01186E+01
 -1       146 9.70561E+00
 -1       147 8.05446E+00
 -1       148 9.81637E+00
 -1       149 1.09294E+01
 -1       150 9.38695E+00
 -1       151 8.36380E+00
 -1       152 1.02494E+01
 -1       153 1.11857E+01
 -1       154 1.00528E+01
 -1       155 8.58249E+00
 -1       156 1.06971E+01
 -1       157 8.20052E+00
 -1       158 8.76375E+00
 -1       159 1.04306E+01
 -1       160 8.86703E+00
 -1       161 1.00529E+01
 -1       162 8.38528E+00
 -1       163 7.87642E+00
 -1       164 2.20733E+01
 -1       165 1.03788E+01
 -1       166 8.61338E+00
 -1       167 9.79186E+00
 -1       168 1.08186E+01
 -1       169 9.36746E+00
 -1       170 9.33490E+00
 -1       171 9.34351E+00
 -1       172 9.64600E+00
 -1       173 9.58827E+00
 -1       174 8.15881E+00
 -1       175 9.05520E+00
 -1       176 1.04760E+01
 -1       177 9.50969E+00
 -1       178 9.02984E+00
 -1       179 9.91211E+00
 -1       180 8.88003E+00
 -1       181 8.93541E+00
 -1       182 1.03729E+01
 -1       183 1.01582E+01
 -1       184 8.87538E+00
 -1       185 9.30662E+00
 -1       186 1.07176E+01
 -1       187 1.06192E+01
 -1       188 9.31764E+00
 -1       189 9.63981E+00
 -1       190 9.44882E+00
 -1       191 8.48213E+00
 -1       192 9.59716E+00
 -1       193 9.64880E+00
 -1       194 9.45997E+00
 -1       195 9.21909E+00
 -1       196 8.13085E+00
 -1       197 1.49748E+01
 -1       198 2.20733E+01
 -1       199 8.81842E+00
 -1       200 8.53034E+00
 -1       201 1.09912E+01
 -1       202 8.03126E+00
 -1       203 8.09816E+00
 -1       204 7.95976E+00
 -1       205 9.93480E+00
 -1       206 1.11013E+01
 -1       207 8.02559E+00
 -1       208 8.04406E+00
 -1       209 9.89781E+00
 -1       210 1.10717E+01
 -1       211 7.99409E+00
 -1       212 7.94710E+00
 -1       213 7.95885E+00
 -1       214 8.32834E+00
 -1       215 9.82740E+00
 -1       216 1.09865E+01
 -1       217 8.19341E+00
 -1       218 8.25331E+00
 -1       219 8.18373E+00
 -1       220 9.67390E+00
 -1       221 1.07593E+01
 -1       222 9.41440E+00
 -1       223 1.06878E+01
 -1       224 8.57189E+00
 -1       225 8.60475E+00
 -1       226 8.81127E+00
 -1       227 8.03737E+00
 -1       228 9.16323E+00
 -1       229 9.55052E+00
 -1       230 9.82135E+00
 -1       231 2.14414E+01
 -1       232 1.01973E+01
 -1       233 8.67438E+00
 -1       234 9.76076E+00
 -1       235 9.51122E+00
 -1       236 8.06471E+00
 -1       237 8.02896E+00
 -1       238 8.94728E+00
 -1       239 1.05181E+01
 -1       240 9.56345E+00
 -1       241 8.03483E+00
 -1       242 8.97094E+00
 -1       243 1.04848E+01
 -1       244 9.53290E+00
 -1       245 7.97060E+00
 -1       246 7.95298E+00
 -1       247 8.14360E+00
 -1       248 9.07787E+00
 -1       249 1.04070E+01
 -1       250 9.58996E+00
 -1       251 8.22336E+00
 -1       252 8.21852E+00
 -1       253 8.92882E+00
 -1       254 1.02166E+01
 -1       255 1.00869E+01
 -1       256 1.00511E+01
 -1       257 9.62984E+00
 -1       258 8.58832E+00
 -1       259 8.70801E+00
 -1       260 8.42432E+00
 -1       261 8.60030E+00
 -1       262 9.35687E+00
 -1       263 9.68593E+00
 -1       264 1.56314E+01
 -1       265 2.15201E+01
 -1       266 8.82608E+00
 -1       267 8.53267E+00
 -1       268 8.15991E+00
 -1       269 1.13170E+01
 -1       270 8.09254E+00
 -1       271 1.12283E+01
 -1       272 8.21826E+00
 -1       273 8.23293E+00
 -1       274 1.12462E+01
 -1       275 1.01335E+01
 -1       276 8.27965E+00
 -1       277 8.12457E+00
 -1       278 1.12120E+01
 -1       279 8.10356E+00
 -1       280 9.85137E+00
 -1       281 1.10371E+01
 -1       282 8.13857E+00
 -1       283 8.37721E+00
 -1       284 8.23098E+00
 -1       285 8.04621E+00
 -1       286 1.07047E+01
 -1       287 8.44127E+00
 -1       288 1.01604E+01
 -1       289 9.37630E+00
 -1       290 8.55135E+00
 -1       291 9.46376E+00
 -1       292 1.03692E+01
 -1       293 1.10940E+01
 -1       294 8.76783E+00
 -1       295 1.01737E+01
 -1       296 9.61094E+00
 -1       297 9.49818E+00
 -1       298 2.18417E+01
 -1       299 1.02341E+01
 -1       300 8.67938E+00
 -1       301 8.34629E+00
 -1       302 9.73844E+00
 -1       303 9.70475E+00
 -1       304 9.66040E+00
 -1       305 9.72326E+00
 -1       306 8.22559E+00
 -1       307 9.73954E+00
 -1       308 1.06898E+01
 -1       309 9.20658E+00
 -1       310 8.20211E+00
 -1       311 9.66830E+00
 -1       312 9.65780E+00
 -1       313 8.97746E+00
 -1       314 1.04442E+01
 -1       315 9.58782E+00
 -1       316 8.25789E+00
 -1       317 8.30410E+00
 -1       318 8.13860E+00
 -1       319 9.37546E+00
 -1       320 9.57299E+00
 -1       321 9.30084E+00
 -1       322 9.76836E+00
 -1       323 8.96383E+00
 -1       324 9.00756E+00
 -1       325 9.91647E+00
 -1       326 1.07316E+01
 -1       327 9.93090E+00
 -1       328 9.47075E+00
 -1       329 9.89231E+00
 -1       330 9.55456E+00
 -1       331 1.56699E+01
 -1       332 2.18417E+01
 -1       333 1.41579E+01
 -1       334 1.29259E+01
 -1       335 3.07956E+01
 -1       336 1.25370E+01
 -1       337 3.74374E+01
 -1       338 3.20408E+01
 -1       339 1.25054E+01
 -1       340 3.38746E+01
 -1       341 3.10635E+01
 -1       342 3.74374E+01
 -1       343 1.31713E+01
 -1       344 1.17313E+01
 -1       345 1.32121E+01
 -1       346 1.19143E+01
 -1       347 3.74374E+01
 -1       348 1.26022E+01
 -1       349 1.16057E+01
 -1       350 1.44473E+01
 -1       351 1.17481E+01
 -1       352 1.26243E+01
 -1       353 1.44573E+01
 -1       354 1.17782E+01
 -1       355 1.41203E+01
 -1       356 1.13149E+01
 -1       357 1.16538E+01
 -1       358 1.05404E+01
 -1       359 1.39716E+01
 -1       360 1.14901E+01
 -1       361 1.14105E+01
 -1       362 1.28746E+01
 -1       363 1.14830E+01
 -1       364 1.16845E+01
 -1       365 1.27314E+01
 -1       366 1.30486E+01
 -1       367 3.15521E+01
 -1       368 2.38820E+01
 -1       369 2.26061E+01
 -1       370 2.36949E+01
 -1       371 3.10635E+01
 -1       372 3.15521E+01
 -1       373 2.14889E+01
 -1       374 1.09275E+01
 -1       375 1.15143E+01
 -1       376 1.21183E+01
 -1       377 1.23406E+01
 -1       378 1.24367E+01
 -1       379 1.33316E+01
 -1       380 1.30361E+01
 -1       381 2.47886E+01
 -1       382 3.23351E+01
 -1       383 2.35434E+01
 -1       384 3.07956E+01
 -1       385 2.35037E+01
 -1       386 3.23351E+01
 -1       387 2.12634E+01
 -1       388 2.49714E+01
 -1       389 2.57976E+01
 -1       390 2.26107E+01
 -1       391 2.57976E+01
 -1       392 3.42504E+01
 -1       393 3.74374E+01
 -1       394 2.51816E+01
 -1       395 2.49872E+01
 -1       396 2.24833E+01
 -1       397 3.47391E+01
 -1       398 2.16505E+01
 -1       399 3.41165E+01
 -1       400 3.56560E+01
 -1       401 3.56560E+01
 -1       402 2.32058E+01
 -1       403 3.47391E+01
 -1       404 3.74374E+01
 -1       405 3.74374E+01
 -1       406 7.34756E+00
 -1       407 7.14486E+00
 -1       408 2.42553E+01
 -1       409 7.14486E+00
 -1       410 7.14486E+00
 -1       411 2.51721E+01
 -1       412 7.34756E+00
 -1       413 2.44596E+01
 -1       414 2.50100E+01
 -1       415 7.09717E+00
 -1       416 2.00408E+01
 -1       417 2.38341E+01
 -1       418 2.38540E+01
 -1       419 2.02826E+01
 -1       420 7.28750E+00
 -1       421 2.21481E+01
 -1       422 2.10571E+01
 -1       423 1.32576E+01
 -1       424 2.29564E+01
 -1       425 2.38540E+01
 -1       426 1.53858E+01
 -1       427 1.35336E+01
 -1       428 2.10622E+01
 -1       429 2.26463E+01
 -1       430 2.38341E+01
 -1       431 2.27165E+01
 -1       432 1.54617E+01
 -1       433 2.41568E+01
 -1       434 2.44596E+01
 -1       435 2.41568E+01
 -1       436 2.43575E+01
 -1       437 2.42553E+01
 -1       438 2.43575E+01
 -1       439 2.21481E+01
 -1       440 6.91093E+00
 -1       441 7.34756E+00
 -1       442 1.36942E+01
 -1       443 7.34756E+00
 -1       444 7.06611E+00
 -1       445 7.34756E+00
 -1       446 1.38151E+01
 -1       447 2.51721E+01
 -1       448 2.45031E+01
 -1       449 2.45031E+01
 -1       450 2.50100E+01
 -1       451 2.50911E+01
 -1       452 2.50911E+01
 -1       453 2.26463E+01
 -1       454 6.96556E+00
 -1       455 7.03125E+00
 -1       456 1.54994E+01
 -1       457 7.11709E+00
 -1       458 6.96556E+00
 -1       459 7.14486E+00
 -1       460 1.54895E+01
 -1       461 7.31753E+00
 -1       462 7.31753E+00
 -1       463 7.22237E+00
 -1       464 1.60536E+01
 -1       465 1.61788E+01
 -1       466 7.19233E+00
 -1       467 7.14486E+00
 -1       468 7.14486E+00
 -1       469 1.61585E+01
 -1       470 1.61585E+01
 -1       471 1.58015E+01
 -1       472 1.57714E+01
 -1       473 1.58736E+01
 -1       474 1.58022E+01
 -1       475 1.58022E+01
 -1       476 1.61346E+01
 -1       477 7.12101E+00
 -1       478 7.21618E+00
 -1       479 9.56597E+00
 -1       480 1.15366E+01
 -1       481 1.29302E+01
 -1       482 1.03526E+01
 -1       483 1.15816E+01
 -1       484 1.82753E+01
 -1       485 1.22755E+01
 -1       486 1.13526E+01
 -1       487 1.15883E+01
 -1       488 1.21734E+01
 -1       489 1.13256E+01
 -1       490 1.25011E+01
 -1       491 1.00907E+01
 -1       492 1.11734E+01
 -1       493 1.17755E+01
 -1       494 1.19947E+01
 -1       495 1.12432E+01
 -1       496 1.94091E+01
 -1       497 1.63685E+01
 -1       498 1.16788E+01
 -1       499 1.95149E+01
 -1       500 1.24305E+01
 -1       501 1.95948E+01
 -1       502 9.82183E+00
 -1       503 1.04431E+01
 -1       504 2.44596E+01
 -1       505 9.54622E+00
 -1       506 1.09326E+01
 -1       507 9.08431E+00
 -1       508 1.90701E+01
 -1       509 1.06820E+01
 -1       510 1.12260E+01
 -1       511 1.96254E+01
 -1       512 1.03284E+01
 -1       513 1.69870E+01
 -1       514 1.29310E+01
 -1       515 1.22707E+01
 -1       516 1.13243E+01
 -1       517 1.01000E+01
 -1       518 1.20694E+01
 -1       519 1.60801E+01
 -1       520 1.15051E+01
 -1       521 1.96465E+01
 -1       522 1.95885E+01
 -1       523 1.11214E+01
 -1       524 1.24084E+01
 -1       525 1.14133E+01
 -1       526 1.24650E+01
 -1       527 1.10819E+01
 -1       528 1.13917E+01
 -1       529 1.29302E+01
 -1       530 1.22859E+01
 -1       531 1.22920E+01
 -1       532 1.07670E+01
 -1       533 1.22859E+01
 -1       534 1.96410E+01
 -1       535 1.50284E+01
 -1       536 1.93849E+01
 -1       537 9.85689E+00
 -1       538 1.08205E+01
 -1       539 1.21462E+01
 -1       540 1.09322E+01
 -1       541 2.00634E+01
 -1       542 1.99024E+01
 -1       543 1.02677E+01
 -1       544 1.07470E+01
 -1       545 1.21979E+01
 -1       546 1.28642E+01
 -1       547 1.29185E+01
 -1       548 1.68220E+01
 -1       549 1.63685E+01
 -1       550 1.96046E+01
 -1       551 1.89914E+01
 -1       552 1.91877E+01
 -1       553 1.87545E+01
 -1       554 1.74879E+01
 -1       555 1.83664E+01
 -1       556 1.20923E+01
 -1       557 1.94825E+01
 -1       558 1.67218E+01
 -1       559 1.68110E+01
 -1       560 1.52723E+01
 -1       561 1.19814E+01
 -1       562 1.99121E+01
 -1       563 1.24906E+01
 -1       564 1.94382E+01
 -1       565 1.98990E+01
 -1       566 1.25073E+01
 -1       567 1.29403E+01
 -1       568 1.93650E+01
 -1       569 1.99096E+01
 -1       570 1.28533E+01
 -1       571 1.95528E+01
 -1       572 1.92445E+01
 -1       573 9.34262E+00
 -1       574 1.90910E+01
 -1       575 2.44596E+01
 -1       576 1.25454E+01
 -1       577 1.13700E+01
 -1       578 2.03095E+01
 -1       579 1.01360E+01
 -1       580 1.01430E+01
 -1       581 2.38540E+01
 -1       582 2.42553E+01
 -1       583 1.13700E+01
 -1       584 1.00880E+01
 -1       585 1.10845E+01
 -1       586 9.43028E+00
 -1       587 1.10897E+01
 -1       588 1.02135E+01
 -1       589 9.43902E+00
 -1       590 2.31643E+01
 -1       591 2.42553E+01
 -1       592 2.31643E+01
 -1       593 2.38540E+01
 -1       594 2.29564E+01
 -1       595 2.29564E+01
 -1       596 1.03636E+01
 -1       597 1.04431E+01
 -1       598 1.02930E+01
 -1       599 1.05951E+01
 -1       600 1.03935E+01
 -1       601 1.05951E+01
 -1       602 1.04415E+01
 -1       603 2.44596E+01
 -1       604 2.41568E+01
 -1       605 2.41568E+01
 -1       606 2.43575E+01
 -1       607 2.44596E+01
 -1       608 2.44596E+01
 -1       609 2.43575E+01
 -1       610 1.05237E+01
 -1       611 1.06402E+01
 -1       612 1.13442E+01
 -1       613 9.96601E+00
 -1       614 1.02483E+01
 -1       615 1.22700E+01
 -1       616 1.54294E+01
 -1       617 1.37814E+01
 -1       618 1.58100E+01
 -1       619 9.19621E+00
 -1       620 1.07810E+01
 -1       621 1.49769E+01
 -1       622 1.13640E+01
 -1       623 9.82612E+00
 -1       624 1.09584E+01
 -1       625 1.38850E+01
 -1       626 1.53904E+01
 -1       627 1.56146E+01
 -1       628 1.01567E+01
 -1       629 1.01512E+01
 -1       630 1.59072E+01
 -1       631 1.54119E+01
 -1       632 1.38933E+01
 -1       633 1.59099E+01
 -1       634 1.06273E+01
 -1       635 1.11754E+01
 -1       636 1.54100E+01
 -1       637 9.00780E+00
 -1       638 9.96901E+00
 -1       639 1.05152E+01
 -1       640 1.03788E+01
 -1       641 1.03299E+01
 -1       642 1.11790E+01
 -1       643 1.53870E+01
 -1       644 1.39225E+01
 -1       645 1.60448E+01
 -1       646 9.60311E+00
 -1       647 1.11534E+01
 -1       648 1.53550E+01
 -1       649 9.96704E+00
 -1       650 9.08775E+00
 -1       651 1.06061E+01
 -1       652 1.11995E+01
 -1       653 1.06175E+01
 -1       654 1.07412E+01
 -1       655 1.38610E+01
 -1       656 1.52082E+01
 -1       657 1.54004E+01
 -1       658 1.01980E+01
 -1       659 1.01912E+01
 -1       660 1.57393E+01
 -1       661 1.53187E+01
 -1       662 1.38557E+01
 -1       663 1.57271E+01
 -1       664 9.22612E+00
 -1       665 1.08026E+01
 -1       666 1.48688E+01
 -1       667 1.12506E+01
 -1       668 9.80234E+00
 -1       669 1.09289E+01
 -1       670 1.36382E+01
 -1       671 1.50331E+01
 -1       672 1.52876E+01
 -1       673 1.11882E+01
 -1       674 1.01763E+01
 -1       675 1.56082E+01
 -1       676 9.50694E+00
 -1       677 9.89804E+00
 -1       678 1.08561E+01
 -1       679 1.04148E+01
 -1       680 1.08593E+01
 -1       681 1.09183E+01
 -1       682 1.00761E+01
 -1       683 9.62047E+00
 -1       684 1.14763E+01
 -1       685 1.07339E+01
 -1       686 1.02760E+01
 -1       687 1.08819E+01
 -1       688 1.13165E+01
 -1       689 1.09612E+01
 -1       690 1.13092E+01
 -1       691 1.05360E+01
 -1       692 1.16912E+01
 -1       693 1.19113E+01
 -1       694 1.12972E+01
 -1       695 1.05360E+01
 -1       696 1.22859E+01
 -1       697 1.29707E+01
 -1       698 1.33384E+01
 -1       699 1.43272E+01
 -1       700 1.13353E+01
 -1       701 1.12519E+01
 -1       702 1.46497E+01
 -1       703 1.66510E+01
 -1       704 1.04914E+01
 -1       705 1.20871E+01
 -1       706 1.75486E+01
 -1       707 1.02501E+01
 -1       708 1.01388E+01
 -1       709 1.09557E+01
 -1       710 9.86406E+00
 -1       711 1.11538E+01
 -1       712 1.15007E+01
 -1       713 1.12036E+01
 -1       714 1.09406E+01
 -1       715 1.12758E+01
 -1       716 1.36889E+01
 -1       717 1.25006E+01
 -1       718 1.40738E+01
 -1       719 9.22346E+00
 -1       720 1.03792E+01
 -1       721 1.35449E+01
 -1       722 1.10847E+01
 -1       723 9.93763E+00
 -1       724 1.09733E+01
 -1       725 9.48174E+00
 -1       726 1.09313E+01
 -1       727 1.12229E+01
 -1       728 1.53452E+01
 -1       729 1.38379E+01
 -1       730 1.51809E+01
 -1       731 1.01865E+01
 -1       732 1.02643E+01
 -1       733 1.59434E+01
 -1       734 9.02924E+00
 -1       735 9.84779E+00
 -1       736 1.10569E+01
 -1       737 1.06435E+01
 -1       738 1.12458E+01
 -1       739 1.06176E+01
 -1       740 1.52966E+01
 -1       741 1.37280E+01
 -1       742 1.54641E+01
 -1       743 1.00695E+01
 -1       744 1.11583E+01
 -1       745 1.58564E+01
 -1       746 9.73062E+00
 -1       747 9.52411E+00
 -1       748 1.07703E+01
 -1       749 1.10681E+01
 -1       750 1.02425E+01
 -1       751 1.08866E+01
 -1       752 9.07721E+00
 -1       753 9.95816E+00
 -1       754 1.12652E+01
 -1       755 1.05845E+01
 -1       756 1.11410E+01
 -1       757 1.07263E+01
 -1       758 1.08749E+01
 -1       759 1.01037E+01
 -1       760 1.10865E+01
 -1       761 9.23563E+00
 -1       762 8.72405E+00
 -1       763 9.95239E+00
 -1       764 1.22220E+01
 -1       765 1.31648E+01
 -1       766 1.25822E+01
 -1       767 1.09155E+01
 -1       768 1.13836E+01
 -1       769 1.38308E+01
 -1       770 1.10589E+01
 -1       771 1.04925E+01
 -1       772 1.12569E+01
 -1       773 9.79951E+00
 -1       774 9.06436E+00
 -1       775 1.02392E+01
 -1       776 9.95337E+00
 -1       777 1.10107E+01
 -1       778 1.04352E+01
 -1       779 1.44862E+01
 -1       780 1.32379E+01
 -1       781 1.47998E+01
 -1       782 1.03328E+01
 -1       783 1.06144E+01
 -1       784 1.53702E+01
 -1       785 9.84816E+00
 -1       786 1.06816E+01
 -1       787 1.16988E+01
 -1       788 1.27295E+01
 -1       789 1.19477E+01
 -1       790 1.29805E+01
 -1       791 1.05713E+01
 -1       792 1.11642E+01
 -1       793 1.36519E+01
 -1       794 1.14915E+01
 -1       795 1.06577E+01
 -1       796 1.26028E+01
 -1       797 1.06577E+01
 -1       798 1.04033E+01
 -1       799 1.29302E+01
 -1       800 9.62320E+00
 -1       801 1.67216E+01
 -1       802 1.21501E+01
 -1       803 1.78127E+01
 -1       804 1.25620E+01
 -1       805 1.12096E+01
 -1       806 1.08291E+01
 -1       807 1.21192E+01
 -1       808 1.24728E+01
 -1       809 1.52640E+01
 -1       810 1.50367E+01
 -1       811 1.48869E+01
 -1       812 1.45123E+01
 -1       813 1.82397E+01
 -1       814 1.46493E+01
 -1       815 1.46493E+01
 -1       816 1.29243E+01
 -1       817 1.46435E+01
 -1       818 1.21442E+01
 -1       819 1.41135E+01
 -1       820 1.35372E+01
 -1       821 1.43595E+01
 -1       822 1.88756E+01
 -1       823 1.75441E+01
 -1       824 1.77813E+01
 -1       825 1.55320E+01
 -1       826 1.51680E+01
 -1       827 1.48433E+01
 -1       828 1.91185E+01
 -1       829 1.16529E+01
 -1       830 1.51284E+01
 -1       831 1.87315E+01
 -1       832 1.58264E+01
 -1       833 1.55846E+01
 -1       834 1.45432E+01
 -1       835 1.48706E+01
 -1       836 1.51503E+01
 -1       837 1.37739E+01
 -1       838 1.60416E+01
 -1       839 1.48264E+01
 -1       840 1.54527E+01
 -1       841 1.56324E+01
 -1       842 1.53663E+01
 -1       843 1.97324E+01
 -1       844 1.42876E+01
 -1       845 1.36577E+01
 -1       846 1.55964E+01
 -1       847 1.82958E+01
 -1       848 1.96228E+01
 -1       849 1.97728E+01
 -1       850 1.60362E+01
 -1       851 1.58058E+01
 -1       852 1.95396E+01
 -1       853 1.96686E+01
 -1       854 1.55642E+01
 -1       855 1.56140E+01
 -1       856 1.94967E+01
 -1       857 1.52083E+01
 -1       858 1.79565E+01
 -1       859 1.97491E+01
 -1       860 1.62053E+01
 -1       861 1.27207E+01
 -1       862 1.13986E+01
 -1       863 1.64250E+01
 -1       864 1.12496E+01
 -1       865 1.17649E+01
 -1       866 1.14775E+01
 -1       867 1.26363E+01
 -1       868 1.21280E+01
 -1       869 1.52692E+01
 -1       870 1.95058E+01
 -1       871 1.11821E+01
 -1       872 1.18404E+01
 -1       873 1.59361E+01
 -1       874 1.59195E+01
 -1       875 1.56447E+01
 -1       876 1.60425E+01
 -1       877 2.01865E+01
 -1       878 1.12613E+01
 -1       879 1.55283E+01
 -1       880 1.97639E+01
 -1       881 1.59486E+01
 -1       882 1.60290E+01
 -1       883 1.99829E+01
 -1       884 1.63044E+01
 -1       885 1.20808E+01
 -1       886 1.29247E+01
 -1       887 1.13066E+01
 -1       888 1.21442E+01
 -1       889 1.78514E+01
 -1       890 1.79148E+01
 -1       891 1.58111E+01
 -1       892 1.94810E+01
 -1       893 1.59499E+01
 -1       894 1.19412E+01
 -1       895 1.60217E+01
 -1       896 1.46497E+01
 -1       897 1.63685E+01
 -1       898 1.65897E+01
 -1       899 1.45485E+01
 -1       900 1.65897E+01
 -1       901 1.55585E+01
 -1       902 1.51026E+01
 -1       903 1.49362E+01
 -1       904 1.56417E+01
 -1       905 1.95214E+01
 -1       906 1.56615E+01
 -1       907 1.97123E+01
 -1       908 1.93797E+01
 -1       909 1.57212E+01
 -1       910 1.95771E+01
 -1       911 1.24606E+01
 -1       912 1.12953E+01
 -1       913 1.26474E+01
 -1       914 1.26774E+01
 -1       915 1.11034E+01
 -1       916 1.94799E+01
 -1       917 1.58285E+01
 -1       918 1.53330E+01
 -1       919 1.97469E+01
 -1       920 1.96320E+01
 -1       921 1.13811E+01
 -1       922 1.21768E+01
 -1       923 1.23997E+01
 -1       924 1.11646E+01
 -1       925 1.27238E+01
 -1       926 1.53763E+01
 -1       927 1.14943E+01
 -1       928 1.64275E+01
 -1       929 1.79148E+01
 -1       930 1.79148E+01
 -1       931 1.13700E+01
 -1       932 1.11998E+01
 -1       933 1.20888E+01
 -1       934 1.15122E+01
 -1       935 1.08193E+01
 -1       936 1.57282E+01
 -1       937 1.49620E+01
 -1       938 1.42102E+01
 -1       939 1.62581E+01
 -1       940 1.29031E+01
 -1       941 1.64010E+01
 -1       942 1.45934E+01
 -1       943 1.37254E+01
 -1       944 1.92763E+01
 -1       945 1.54938E+01
 -1       946 1.54504E+01
 -1       947 1.89123E+01
 -1       948 1.13317E+01
 -1       949 1.21261E+01
 -1       950 1.51348E+01
 -1       951 1.49349E+01
 -1       952 1.47097E+01
 -1       953 1.93582E+01
 -1       954 1.80390E+01
 -1       955 1.36273E+01
 -1       956 1.69045E+01
 -1       957 1.24174E+01
 -1       958 1.96485E+01
 -1       959 1.59908E+01
 -1       960 1.81022E+01
 -1       961 1.51830E+01
 -1       962 1.94165E+01
 -1       963 1.58265E+01
 -1       964 1.23032E+01
 -1       965 1.08755E+01
 -1       966 1.90896E+01
 -1       967 1.37791E+01
 -1       968 1.37791E+01
 -1       969 1.63801E+01
 -1       970 1.91393E+01
 -1       971 1.54234E+01
 -1       972 1.06672E+01
 -1       973 1.74953E+01
 -1       974 9.49818E+00
 -1       975 1.22387E+01
 -1       976 1.11759E+01
 -1       977 1.82784E+01
 -1       978 1.22758E+01
 -1       979 1.22576E+01
 -1       980 1.19326E+01
 -1       981 1.14211E+01
 -1       982 1.19024E+01
 -1       983 1.14247E+01
 -1       984 1.91808E+01
 -1       985 1.23325E+01
 -1       986 1.22445E+01
 -1       987 1.05144E+01
 -1       988 1.05382E+01
 -1       989 1.22361E+01
 -1       990 1.00338E+01
 -1       991 1.14290E+01
 -1       992 1.13426E+01
 -1       993 1.10650E+01
 -1       994 1.20636E+01
 -1       995 1.96970E+01
 -1       996 1.96177E+01
 -1       997 1.14028E+01
 -1       998 1.97043E+01
 -1       999 9.91691E+00
 -1      1000 1.03845E+01
 -1      1001 2.51721E+01
 -1      1002 1.17133E+01
 -1      1003 1.23189E+01
 -1      1004 1.24010E+01
 -1      1005 1.26534E+01
 -1      1006 1.14290E+01
 -1      1007 1.12835E+01
 -1      1008 1.15504E+01
 -1      1009 1.09841E+01
 -1      1010 1.94240E+01
 -1      1011 1.13899E+01
 -1      1012 1.13974E+01
 -1      1013 1.93856E+01
 -1      1014 1.96670E+01
 -1      1015 1.95733E+01
 -1      1016 1.22819E+01
 -1      1017 1.99819E+01
 -1      1018 1.25454E+01
 -1      1019 1.28619E+01
 -1      1020 1.25131E+01
 -1      1021 1.22569E+01
 -1      1022 1.02457E+01
 -1      1023 1.22472E+01
 -1      1024 1.12320E+01
 -1      1025 1.22240E+01
 -1      1026 1.22967E+01
 -1      1027 9.49379E+00
 -1      1028 1.18226E+01
 -1      1029 1.24447E+01
 -1      1030 9.85823E+00
 -1      1031 1.22758E+01
 -1      1032 1.12573E+01
 -1      1033 1.06729E+01
 -1      1034 1.83829E+01
 -1      1035 1.98914E+01
 -1      1036 1.13745E+01
 -1      1037 1.07155E+01
 -1      1038 1.11477E+01
 -1      1039 1.88961E+01
 -1      1040 1.24945E+01
 -1      1041 1.18252E+01
 -1      1042 1.54042E+01
 -1      1043 1.22256E+01
 -1      1044 1.86909E+01
 -1      1045 1.73786E+01
 -1      1046 1.19879E+01
 -1      1047 1.69299E+01
 -1      1048 1.16150E+01
 -1      1049 1.98609E+01
 -1      1050 1.95093E+01
 -1      1051 1.21135E+01
 -1      1052 1.21315E+01
 -1      1053 1.91693E+01
 -1      1054 1.24946E+01
 -1      1055 1.96066E+01
 -1      1056 1.99589E+01
 -1      1057 1.92441E+01
 -1      1058 1.25850E+01
 -1      1059 1.29672E+01
 -1      1060 1.94331E+01
 -1      1061 1.23256E+01
 -1      1062 1.27743E+01
 -1      1063 1.99519E+01
 -1      1064 1.95669E+01
 -1      1065 1.93101E+01
 -1      1066 1.01186E+01
 -1      1067 1.96015E+01
 -1      1068 2.51721E+01
 -1      1069 1.16327E+01
 -1      1070 1.07076E+01
 -1      1071 1.85958E+01
 -1      1072 1.02573E+01
 -1      1073 1.03281E+01
 -1      1074 2.38341E+01
 -1      1075 2.50100E+01
 -1      1076 1.05382E+01
 -1      1077 1.09497E+01
 -1      1078 1.04864E+01
 -1      1079 9.54171E+00
 -1      1080 9.83884E+00
 -1      1081 1.09522E+01
 -1      1082 9.57326E+00
 -1      1083 2.50100E+01
 -1      1084 2.34258E+01
 -1      1085 2.34258E+01
 -1      1086 2.27165E+01
 -1      1087 2.38341E+01
 -1      1088 2.26377E+01
 -1      1089 1.04539E+01
 -1      1090 9.86705E+00
 -1      1091 1.03563E+01
 -1      1092 1.07155E+01
 -1      1093 1.06194E+01
 -1      1094 1.05500E+01
 -1      1095 1.04864E+01
 -1      1096 2.45031E+01
 -1      1097 2.51721E+01
 -1      1098 2.45031E+01
 -1      1099 2.51721E+01
 -1      1100 2.50911E+01
 -1      1101 2.51721E+01
 -1      1102 2.50911E+01
 -1      1103 1.02256E+01
 -1      1104 1.00815E+01
 -1      1105 1.09804E+01
 -1      1106 9.52237E+00
 -1      1107 1.07528E+01
 -1      1108 1.10735E+01
 -1      1109 1.16551E+01
 -1      1110 1.01751E+01
 -1      1111 1.14167E+01
 -1      1112 1.02161E+01
 -1      1113 1.02496E+01
 -1      1114 1.23599E+01
 -1      1115 1.00154E+01
 -1      1116 9.94616E+00
 -1      1117 1.21668E+01
 -1      1118 9.89120E+00
 -1      1119 1.08787E+01
 -1      1120 1.18776E+01
 -1      1121 1.06780E+01
 -1      1122 1.12612E+01
 -1      1123 1.16219E+01
 -1      1124 1.53841E+01
 -1      1125 1.38463E+01
 -1      1126 1.55440E+01
 -1      1127 1.01790E+01
 -1      1128 1.01883E+01
 -1      1129 1.59997E+01
 -1      1130 8.95114E+00
 -1      1131 9.87802E+00
 -1      1132 1.10953E+01
 -1      1133 1.06613E+01
 -1      1134 1.12482E+01
 -1      1135 1.06415E+01
 -1      1136 1.53225E+01
 -1      1137 1.37837E+01
 -1      1138 1.54990E+01
 -1      1139 1.01380E+01
 -1      1140 1.01145E+01
 -1      1141 1.59276E+01
 -1      1142 1.35640E+01
 -1      1143 1.35698E+01
 -1      1144 1.57314E+01
 -1      1145 1.01079E+01
 -1      1146 1.02926E+01
 -1      1147 1.57189E+01
 -1      1148 9.18106E+00
 -1      1149 9.93059E+00
 -1      1150 1.11453E+01
 -1      1151 1.06087E+01
 -1      1152 1.11882E+01
 -1      1153 1.07119E+01
 -1      1154 1.17156E+01
 -1      1155 1.03191E+01
 -1      1156 1.19173E+01
 -1      1157 1.02161E+01
 -1      1158 1.02460E+01
 -1      1159 1.23417E+01
 -1      1160 9.82535E+00
 -1      1161 9.79056E+00
 -1      1162 1.18181E+01
 -1      1163 9.67984E+00
 -1      1164 1.04249E+01
 -1      1165 1.12867E+01
 -1      1166 1.04656E+01
 -1      1167 1.10083E+01
 -1      1168 1.12166E+01
 -1      1169 1.07133E+01
 -1      1170 1.00408E+01
 -1      1171 1.09623E+01
 -1      1172 1.03490E+01
 -1      1173 1.09857E+01
 -1      1174 1.09753E+01
 -1      1175 1.44831E+01
 -1      1176 1.34251E+01
 -1      1177 1.47810E+01
 -1      1178 1.05425E+01
 -1      1179 1.05589E+01
 -1      1180 1.53957E+01
 -1      1181 1.30500E+01
 -1      1182 1.31533E+01
 -1      1183 1.50042E+01
 -1      1184 1.05540E+01
 -1      1185 1.01670E+01
 -1      1186 1.48960E+01
 -1      1187 1.01423E+01
 -1      1188 1.07052E+01
 -1      1189 1.22720E+01
 -1      1190 1.02961E+01
 -1      1191 1.04897E+01
 -1      1192 1.18381E+01
 -1      1193 1.04897E+01
 -1      1194 1.06252E+01
 -1      1195 1.14290E+01
 -1      1196 1.01798E+01
 -1      1197 1.59898E+01
 -1      1198 1.09836E+01
 -1      1199 1.71862E+01
 -1      1200 1.03886E+01
 -1      1201 1.05353E+01
 -1      1202 1.12509E+01
 -1      1203 9.93658E+00
 -1      1204 1.01230E+01
 -1      1205 1.19789E+01
 -1      1206 1.16097E+01
 -1      1207 1.00312E+01
 -1      1208 1.18078E+01
 -1      1209 9.95887E+00
 -1      1210 1.15711E+01
 -1      1211 1.18638E+01
 -1      1212 1.13014E+01
 -1      1213 9.73351E+00
 -1      1214 1.15998E+01
 -1      1215 1.39577E+01
 -1      1216 1.54627E+01
 -1      1217 1.55358E+01
 -1      1218 1.02285E+01
 -1      1219 1.02212E+01
 -1      1220 1.59605E+01
 -1      1221 1.54752E+01
 -1      1222 1.39686E+01
 -1      1223 1.59642E+01
 -1      1224 1.06827E+01
 -1      1225 1.12391E+01
 -1      1226 1.54681E+01
 -1      1227 9.09828E+00
 -1      1228 1.00252E+01
 -1      1229 1.05744E+01
 -1      1230 1.03350E+01
 -1      1231 1.04125E+01
 -1      1232 1.12312E+01
 -1      1233 1.54149E+01
 -1      1234 1.38711E+01
 -1      1235 1.60815E+01
 -1      1236 9.62563E+00
 -1      1237 1.11799E+01
 -1      1238 1.53827E+01
 -1      1239 9.98498E+00
 -1      1240 9.11108E+00
 -1      1241 1.06331E+01
 -1      1242 1.12199E+01
 -1      1243 1.06271E+01
 -1      1244 1.07607E+01
 -1      1245 1.37813E+01
 -1      1246 1.52305E+01
 -1      1247 1.54134E+01
 -1      1248 1.03174E+01
 -1      1249 1.01981E+01
 -1      1250 1.58408E+01
 -1      1251 1.38083E+01
 -1      1252 1.38814E+01
 -1      1253 1.58216E+01
 -1      1254 9.51516E+00
 -1      1255 9.60754E+00
 -1      1256 1.51849E+01
 -1      1257 1.10237E+01
 -1      1258 9.69440E+00
 -1      1259 1.11634E+01
 -1      1260 1.06516E+01
 -1      1261 1.17833E+01
 -1      1262 1.21023E+01
 -1      1263 1.11120E+01
 -1      1264 1.02524E+01
 -1      1265 1.24628E+01
 -1      1266 9.43505E+00
 -1      1267 9.82710E+00
 -1      1268 1.07787E+01
 -1      1269 1.03937E+01
 -1      1270 1.08062E+01
 -1      1271 1.08649E+01
 -1      1272 1.00683E+01
 -1      1273 9.61214E+00
 -1      1274 1.14545E+01
 -1      1275 1.07171E+01
 -1      1276 1.02644E+01
 -1      1277 1.08690E+01
 -1      1278 1.13222E+01
 -1      1279 1.09598E+01
 -1      1280 1.13077E+01
 -1      1281 1.05218E+01
 -1      1282 1.16849E+01
 -1      1283 1.19131E+01
 -1      1284 1.12247E+01
 -1      1285 1.05218E+01
 -1      1286 1.22758E+01
 -1      1287 9.92830E+00
 -1      1288 1.02097E+01
 -1      1289 1.12607E+01
 -1      1290 9.49818E+00
 -1      1291 9.55456E+00
 -1      1292 9.87192E+00
 -1      1293 1.62746E+01
 -1      1294 1.01029E+01
 -1      1295 1.01029E+01
 -1      1296 1.78588E+01
 -1      1297 1.17207E+01
 -1      1298 1.20289E+01
 -1      1299 1.16854E+01
 -1      1300 1.13903E+01
 -1      1301 1.24439E+01
 -1      1302 1.56020E+01
 -1      1303 1.80931E+01
 -1      1304 1.74369E+01
 -1      1305 1.48376E+01
 -1      1306 1.80347E+01
 -1      1307 1.24512E+01
 -1      1308 1.28249E+01
 -1      1309 1.39494E+01
 -1      1310 1.09963E+01
 -1      1311 1.16010E+01
 -1      1312 1.22822E+01
 -1      1313 1.18615E+01
 -1      1314 1.58444E+01
 -1      1315 1.57414E+01
 -1      1316 1.57849E+01
 -1      1317 1.15062E+01
 -1      1318 1.13955E+01
 -1      1319 1.53426E+01
 -1      1320 1.53833E+01
 -1      1321 1.55622E+01
 -1      1322 1.16357E+01
 -1      1323 1.51331E+01
 -1      1324 1.87238E+01
 -1      1325 1.58412E+01
 -1      1326 1.55786E+01
 -1      1327 1.35878E+01
 -1      1328 1.46028E+01
 -1      1329 1.22036E+01
 -1      1330 1.22036E+01
 -1      1331 1.45307E+01
 -1      1332 1.59122E+01
 -1      1333 1.94954E+01
 -1      1334 1.96233E+01
 -1      1335 1.60593E+01
 -1      1336 1.97139E+01
 -1      1337 1.25272E+01
 -1      1338 1.22930E+01
 -1      1339 1.24395E+01
 -1      1340 1.20791E+01
 -1      1341 1.20241E+01
 -1      1342 1.56900E+01
 -1      1343 1.98129E+01
 -1      1344 1.57146E+01
 -1      1345 1.55139E+01
 -1      1346 1.97828E+01
 -1      1347 1.58969E+01
 -1      1348 1.58023E+01
 -1      1349 1.57520E+01
 -1      1350 1.97464E+01
 -1      1351 1.57133E+01
 -1      1352 1.56883E+01
 -1      1353 1.97626E+01
 -1      1354 1.14127E+01
 -1      1355 1.21960E+01
 -1      1356 1.64595E+01
 -1      1357 1.61319E+01
 -1      1358 1.95813E+01
 -1      1359 1.94390E+01
 -1      1360 1.90385E+01
 -1      1361 1.55765E+01
 -1      1362 1.95501E+01
 -1      1363 1.58828E+01
 -1      1364 1.24587E+01
 -1      1365 1.12216E+01
 -1      1366 1.60091E+01
 -1      1367 1.50481E+01
 -1      1368 1.53137E+01
 -1      1369 1.84894E+01
 -1      1370 1.54202E+01
 -1      1371 1.46557E+01
 -1      1372 1.14800E+01
 -1      1373 1.52029E+01
 -1      1374 1.61051E+01
 -1      1375 1.91371E+01
 -1      1376 1.44487E+01
 -1      1377 1.50078E+01
 -1      1378 1.19617E+01
 -1      1379 1.15164E+01
 -1      1380 1.15164E+01
 -1      1381 1.05382E+01
 -1      1382 1.78552E+01
 -1      1383 1.78552E+01
 -1      1384 1.25052E+01
 -1      1385 1.11340E+01
 -1      1386 1.13304E+01
 -1      1387 1.21120E+01
 -1      1388 1.23811E+01
 -1      1389 1.48003E+01
 -1      1390 1.54784E+01
 -1      1391 1.23757E+01
 -1      1392 1.12642E+01
 -1      1393 1.60307E+01
 -1      1394 1.34166E+01
 -1      1395 1.34166E+01
 -1      1396 1.45886E+01
 -1      1397 1.41794E+01
 -1      1398 1.61670E+01
 -1      1399 1.18341E+01
 -1      1400 1.16549E+01
 -1      1401 1.22384E+01
 -1      1402 1.14788E+01
 -1      1403 1.19703E+01
 -1      1404 1.51207E+01
 -1      1405 1.48780E+01
 -1      1406 1.51172E+01
 -1      1407 1.49211E+01
 -1      1408 1.89301E+01
 -1      1409 1.57865E+01
 -1      1410 1.61856E+01
 -1      1411 1.08036E+01
 -1      1412 1.20886E+01
 -1      1413 1.58114E+01
 -1      1414 1.59153E+01
 -1      1415 1.96518E+01
 -1      1416 1.59613E+01
 -1      1417 1.18000E+01
 -1      1418 1.59161E+01
 -1      1419 1.97848E+01
 -1      1420 1.62486E+01
 -1      1421 1.52289E+01
 -1      1422 1.94639E+01
 -1      1423 1.96310E+01
 -1      1424 1.59593E+01
 -1      1425 1.19487E+01
 -1      1426 1.56954E+01
 -1      1427 1.51495E+01
 -1      1428 1.45074E+01
 -1      1429 1.53326E+01
 -1      1430 1.95687E+01
 -1      1431 1.98316E+01
 -1      1432 1.60915E+01
 -1      1433 1.96960E+01
 -1      1434 1.27563E+01
 -1      1435 1.14421E+01
 -1      1436 1.12510E+01
 -1      1437 1.19085E+01
 -1      1438 1.27761E+01
 -1      1439 1.44902E+01
 -1      1440 1.51143E+01
 -1      1441 1.10086E+01
 -1      1442 1.78552E+01
 -1      1443 1.79398E+01
 -1      1444 1.06229E+01
 -1      1445 1.59602E+01
 -1      1446 1.60012E+01
 -1      1447 1.61274E+01
 -1      1448 1.22393E+01
 -1      1449 1.20139E+01
 -1      1450 1.48272E+01
 -1      1451 1.44645E+01
 -1      1452 1.51141E+01
 -1      1453 1.93149E+01
 -1      1454 1.56254E+01
 -1      1455 1.61528E+01
 -1      1456 1.95525E+01
 -1      1457 1.94417E+01
 -1      1458 1.57960E+01
 -1      1459 1.96460E+01
 -1      1460 1.55648E+01
 -1      1461 1.50502E+01
 -1      1462 1.22141E+01
 -1      1463 1.21894E+01
 -1      1464 1.47550E+01
 -1      1465 1.66217E+01
 -1      1466 1.41182E+01
 -1      1467 1.27601E+01
 -1      1468 1.29310E+01
 -1      1469 1.74403E+01
 -1      1470 1.54938E+01
 -1      1471 1.81897E+01
 -1      1472 1.91708E+01
 -1      1473 1.93074E+01
 -1      1474 1.94919E+01
 -1      1475 1.84038E+01
 -1      1476 1.81689E+01
 -1      1477 1.88852E+01
 -1      1478 1.91896E+01
 -1      1479 1.65884E+01
 -1      1480 1.22859E+01
 -1      1481 9.82135E+00
 -1      1482 1.76591E+01
 -1      1483 1.12337E+01
 -1      1484 1.76009E+01
 -1      1485 1.90956E+01
 -1      1486 1.94751E+01
 -1      1487 1.86115E+01
 -1      1488 3.01886E+01
 -1      1489 7.44542E+00
 -1      1490 1.42260E+01
 -1      1491 1.56721E+01
 -1      1492 1.88868E+01
 -1      1493 1.91857E+01
 -1      1494 1.94911E+01
 -1      1495 2.89620E+01
 -1      1496 1.14290E+01
 -1      1497 1.78763E+01
 -1      1498 1.72503E+01
 -1      1499 2.70943E+01
 -1      1500 1.32129E+01
 -1      1501 1.57996E+01
 -1      1502 1.87775E+01
 -1      1503 1.83414E+01
 -1      1504 2.78389E+01
 -1      1505 1.16469E+01
 -1      1506 1.91408E+01
 -1      1507 1.53763E+01
 -1      1508 1.92267E+01
 -1      1509 1.93299E+01
 -1      1510 1.84491E+01
 -1      1511 2.91792E+01
 -1      1512 1.15785E+01
 -1      1513 1.77996E+01
 -1      1514 1.94719E+01
 -1      1515 2.93238E+01
 -1      1516 1.92008E+01
 -1      1517 1.89656E+01
 -1      1518 1.85075E+01
 -1      1519 1.47984E+01
 -1      1520 1.58100E+01
 -1      1521 1.84072E+01
 -1      1522 1.25728E+01
 -1      1523 1.61850E+01
 -1      1524 1.65103E+01
 -1      1525 2.88114E+01
 -1      1526 1.94160E+01
 -1      1527 3.07956E+01
 -1      1528 1.76197E+01
 -1      1529 1.73330E+01
 -1      1530 1.88055E+01
 -1      1531 1.85350E+01
 -1      1532 1.90505E+01
 -1      1533 2.89308E+01
 -1      1534 1.84830E+01
 -1      1535 2.88778E+01
 -1      1536 1.08395E+01
 -1      1537 1.33295E+01
 -1      1538 2.41944E+01
 -1      1539 2.41944E+01
 -1      1540 2.61610E+01
 -1      1541 1.69292E+01
 -1      1542 2.01125E+01
 -1      1543 2.72806E+01
 -1      1544 2.66705E+01
 -1      1545 2.89028E+01
 -1      1546 2.90362E+01
 -1      1547 2.14186E+01
 -1      1548 2.61676E+01
 -1      1549 2.81606E+01
 -1      1550 1.86787E+01
 -1      1551 2.85578E+01
 -1      1552 2.82251E+01
 -1      1553 2.71202E+01
 -1      1554 2.66705E+01
 -1      1555 2.09763E+01
 -1      1556 2.82251E+01
 -1      1557 2.93238E+01
 -1      1558 1.81405E+01
 -1      1559 2.85991E+01
 -1      1560 2.89413E+01
 -1      1561 7.21591E+00
 -1      1562 1.89071E+01
 -1      1563 1.03706E+01
 -1      1564 2.88991E+01
 -1      1565 1.27703E+01
 -1      1566 1.20365E+01
 -1      1567 2.14414E+01
 -1      1568 2.20588E+01
 -1      1569 7.53010E+00
 -1      1570 1.38695E+01
 -1      1571 1.20365E+01
 -1      1572 1.03858E+01
 -1      1573 1.21733E+01
 -1      1574 1.44911E+01
 -1      1575 1.07944E+01
 -1      1576 2.20588E+01
 -1      1577 1.44882E+01
 -1      1578 2.20588E+01
 -1      1579 1.42653E+01
 -1      1580 2.15201E+01
 -1      1581 2.14414E+01
 -1      1582 3.04921E+01
 -1      1583 2.29456E+01
 -1      1584 2.11125E+01
 -1      1585 2.35037E+01
 -1      1586 3.07956E+01
 -1      1587 3.04921E+01
 -1      1588 2.17829E+01
 -1      1589 7.18153E+00
 -1      1590 7.11584E+00
 -1      1591 1.47521E+01
 -1      1592 7.00109E+00
 -1      1593 7.15262E+00
 -1      1594 7.33067E+00
 -1      1595 1.43286E+01
 -1      1596 1.38211E+01
 -1      1597 1.37045E+01
 -1      1598 1.54718E+01
 -1      1599 1.39590E+01
 -1      1600 1.36767E+01
 -1      1601 1.91616E+01
 -1      1602 1.37146E+01
 -1      1603 1.53627E+01
 -1      1604 1.94540E+01
 -1      1605 1.50996E+01
 -1      1606 1.35148E+01
 -1      1607 1.92288E+01
 -1      1608 1.34754E+01
 -1      1609 1.50133E+01
 -1      1610 1.89262E+01
 -1      1611 1.53059E+01
 -1      1612 1.38005E+01
 -1      1613 1.91794E+01
 -1      1614 1.37182E+01
 -1      1615 1.37237E+01
 -1      1616 1.93896E+01
 -1      1617 1.37350E+01
 -1      1618 1.52537E+01
 -1      1619 1.93187E+01
 -1      1620 1.50313E+01
 -1      1621 1.44832E+01
 -1      1622 1.91076E+01
 -1      1623 1.42651E+01
 -1      1624 1.33039E+01
 -1      1625 1.86672E+01
 -1      1626 1.36497E+01
 -1      1627 1.36986E+01
 -1      1628 1.87949E+01
 -1      1629 1.36760E+01
 -1      1630 1.51405E+01
 -1      1631 1.91182E+01
 -1      1632 1.48464E+01
 -1      1633 1.32961E+01
 -1      1634 1.88015E+01
 -1      1635 1.31268E+01
 -1      1636 1.40061E+01
 -1      1637 1.83382E+01
 -1      1638 1.40924E+01
 -1      1639 1.46744E+01
 -1      1640 1.82552E+01
 -1      1641 1.48924E+01
 -1      1642 1.35452E+01
 -1      1643 1.85595E+01
 -1      1644 1.32513E+01
 -1      1645 1.32581E+01
 -1      1646 1.84836E+01
 -1      1647 1.33669E+01
 -1      1648 1.48299E+01
 -1      1649 1.82985E+01
 -1      1650 1.43464E+01
 -1      1651 1.27699E+01
 -1      1652 1.79237E+01
 -1      1653 1.26749E+01
 -1      1654 1.41232E+01
 -1      1655 1.73453E+01
 -1      1656 1.44362E+01
 -1      1657 1.30413E+01
 -1      1658 1.75633E+01
 -1      1659 1.24140E+01
 -1      1660 1.34259E+01
 -1      1661 1.72490E+01
 -1      1662 1.30201E+01
 -1      1663 1.26290E+01
 -1      1664 1.62159E+01
 -1      1665 1.25600E+01
 -1      1666 1.21155E+01
 -1      1667 1.57411E+01
 -1      1668 1.16787E+01
 -1      1669 1.21343E+01
 -1      1670 1.52353E+01
 -1      1671 1.17942E+01
 -1      1672 1.22520E+01
 -1      1673 1.44583E+01
 -1      1674 1.17994E+01
 -1      1675 1.21547E+01
 -1      1676 1.36655E+01
 -1      1677 1.18346E+01
 -1      1678 1.06794E+01
 -1      1679 1.28928E+01
 -1      1680 1.05360E+01
 -1      1681 1.12972E+01
 -1      1682 1.24294E+01
 -1      1683 1.09434E+01
 -1      1684 1.05757E+01
 -1      1685 1.19322E+01
 -1      1686 1.12519E+01
 -1      1687 1.13353E+01
 -1      1688 1.22547E+01
 -1      1689 1.00551E+01
 -1      1690 1.62147E+01
 -1      1691 1.16508E+01
 -1      1692 1.62147E+01
 -1      1693 1.38600E+01
 -1      1694 1.40040E+01
 -1      1695 1.59799E+01
 -1      1696 1.52412E+01
 -1      1697 1.40107E+01
 -1      1698 1.93404E+01
 -1      1699 1.36085E+01
 -1      1700 1.50884E+01
 -1      1701 1.93384E+01
 -1      1702 1.36495E+01
 -1      1703 1.36160E+01
 -1      1704 1.91933E+01
 -1      1705 1.35653E+01
 -1      1706 1.36345E+01
 -1      1707 1.91858E+01
 -1      1708 1.42349E+01
 -1      1709 1.32474E+01
 -1      1710 1.88529E+01
 -1      1711 1.49534E+01
 -1      1712 1.43701E+01
 -1      1713 1.86702E+01
 -1      1714 1.37504E+01
 -1      1715 1.52882E+01
 -1      1716 1.91403E+01
 -1      1717 1.35473E+01
 -1      1718 1.35380E+01
 -1      1719 1.92628E+01
 -1      1720 1.40192E+01
 -1      1721 1.30923E+01
 -1      1722 1.85955E+01
 -1      1723 1.47378E+01
 -1      1724 1.41508E+01
 -1      1725 1.82722E+01
 -1      1726 1.36104E+01
 -1      1727 1.51492E+01
 -1      1728 1.88153E+01
 -1      1729 1.32793E+01
 -1      1730 1.33028E+01
 -1      1731 1.89191E+01
 -1      1732 1.44676E+01
 -1      1733 1.44617E+01
 -1      1734 1.97939E+01
 -1      1735 1.34057E+01
 -1      1736 1.32209E+01
 -1      1737 1.97296E+01
 -1      1738 1.37433E+01
 -1      1739 1.29937E+01
 -1      1740 1.80711E+01
 -1      1741 1.43931E+01
 -1      1742 1.38135E+01
 -1      1743 1.77293E+01
 -1      1744 1.28971E+01
 -1      1745 1.42937E+01
 -1      1746 1.77002E+01
 -1      1747 1.29365E+01
 -1      1748 1.29065E+01
 -1      1749 1.76103E+01
 -1      1750 1.27584E+01
 -1      1751 1.27932E+01
 -1      1752 1.74764E+01
 -1      1753 1.31311E+01
 -1      1754 1.23861E+01
 -1      1755 1.69607E+01
 -1      1756 1.36348E+01
 -1      1757 1.30921E+01
 -1      1758 1.65494E+01
 -1      1759 1.26070E+01
 -1      1760 1.32795E+01
 -1      1761 1.61550E+01
 -1      1762 1.30908E+01
 -1      1763 1.24541E+01
 -1      1764 1.56467E+01
 -1      1765 1.23785E+01
 -1      1766 1.34364E+01
 -1      1767 1.58394E+01
 -1      1768 1.14154E+01
 -1      1769 1.13989E+01
 -1      1770 1.52055E+01
 -1      1771 1.20938E+01
 -1      1772 1.19905E+01
 -1      1773 1.48011E+01
 -1      1774 1.03987E+01
 -1      1775 1.07857E+01
 -1      1776 1.40682E+01
 -1      1777 1.04051E+01
 -1      1778 9.84214E+00
 -1      1779 1.22035E+01
 -1      1780 1.03921E+01
 -1      1781 1.01985E+01
 -1      1782 1.14403E+01
 -1      1783 1.06252E+01
 -1      1784 1.04897E+01
 -1      1785 1.13313E+01
 -1      1786 1.56314E+01
 -1      1787 9.82135E+00
 -1      1788 1.06252E+01
 -1      1789 1.56314E+01
 -1      1790 2.22734E+01
 -1      1791 2.16461E+01
 -1      1792 2.13947E+01
 -1      1793 2.09888E+01
 -1      1794 2.64191E+01
 -1      1795 1.77684E+01
 -1      1796 1.73158E+01
 -1      1797 1.94964E+01
 -1      1798 1.91563E+01
 -1      1799 2.28065E+01
 -1      1800 1.51628E+01
 -1      1801 1.57194E+01
 -1      1802 1.64363E+01
 -1      1803 1.77444E+01
 -1      1804 1.93956E+01
 -1      1805 1.24540E+01
 -1      1806 1.31303E+01
 -1      1807 1.18853E+01
 -1      1808 1.20845E+01
 -1      1809 1.06051E+01
 -1      1810 2.22673E+01
 -1      1811 2.21723E+01
 -1      1812 2.22803E+01
 -1      1813 2.71073E+01
 -1      1814 2.27637E+01
 -1      1815 2.08274E+01
 -1      1816 2.09803E+01
 -1      1817 2.01897E+01
 -1      1818 1.98441E+01
 -1      1819 2.51777E+01
 -1      1820 2.35013E+01
 -1      1821 2.32074E+01
 -1      1822 2.27351E+01
 -1      1823 2.28439E+01
 -1      1824 2.77528E+01
 -1      1825 2.40368E+01
 -1      1826 2.40518E+01
 -1      1827 2.39294E+01
 -1      1828 2.42473E+01
 -1      1829 2.91133E+01
 -1      1830 2.41243E+01
 -1      1831 2.41356E+01
 -1      1832 2.43979E+01
 -1      1833 2.43156E+01
 -1      1834 2.91326E+01
 -1      1835 2.42641E+01
 -1      1836 2.40009E+01
 -1      1837 2.41517E+01
 -1      1838 2.41137E+01
 -1      1839 2.89238E+01
 -1      1840 2.38922E+01
 -1      1841 2.34808E+01
 -1      1842 2.36408E+01
 -1      1843 2.87178E+01
 -1      1844 2.35092E+01
 -1      1845 2.30039E+01
 -1      1846 2.30902E+01
 -1      1847 2.35498E+01
 -1      1848 2.83849E+01
 -1      1849 2.37191E+01
 -1      1850 2.39645E+01
 -1      1851 2.37422E+01
 -1      1852 2.40322E+01
 -1      1853 2.38141E+01
 -1      1854 2.88892E+01
 -1      1855 2.42266E+01
 -1      1856 2.40758E+01
 -1      1857 2.89305E+01
 -1      1858 2.40443E+01
 -1      1859 2.49926E+01
 -1      1860 2.98473E+01
 -1      1861 2.15904E+01
 -1      1862 2.16294E+01
 -1      1863 2.16294E+01
 -1      1864 2.20018E+01
 -1      1865 2.66705E+01
 -1      1866 1.46076E+01
 -1      1867 1.42538E+01
 -1      1868 1.56257E+01
 -1      1869 1.54823E+01
 -1      1870 1.78039E+01
 -1      1871 1.03304E+01
 -1      1872 1.11342E+01
 -1      1873 8.67573E+00
 -1      1874 9.18480E+00
 -1      1875 8.51863E+00
 -1      1876 7.37301E+00
 -1      1877 2.30123E+01
 -1      1878 2.29421E+01
 -1      1879 2.29421E+01
 -1      1880 2.33541E+01
 -1      1881 2.82251E+01
 -1      1882 1.23792E+01
 -1      1883 1.22816E+01
 -1      1884 1.40815E+01
 -1      1885 1.42881E+01
 -1      1886 1.51293E+01
 -1      1887 2.24407E+01
 -1      1888 2.25401E+01
 -1      1889 2.23700E+01
 -1      1890 2.23606E+01
 -1      1891 2.72004E+01
 -1      1892 2.38493E+01
 -1      1893 2.38267E+01
 -1      1894 2.36281E+01
 -1      1895 2.33340E+01
 -1      1896 2.83592E+01
 -1      1897 2.42082E+01
 -1      1898 2.38734E+01
 -1      1899 2.38248E+01
 -1      1900 2.40371E+01
 -1      1901 2.87702E+01
 -1      1902 2.33860E+01
 -1      1903 2.36936E+01
 -1      1904 2.37711E+01
 -1      1905 2.85457E+01
 -1      1906 2.49535E+01
 -1      1907 2.95438E+01
 -1      1908 2.45479E+01
 -1      1909 2.39031E+01
 -1      1910 7.48776E+00
 -1      1911 8.90803E+00
 -1      1912 8.95037E+00
 -1      1913 1.83974E+01
 -1      1914 1.78223E+01
 -1      1915 1.92102E+01
 -1      1916 2.01897E+01
 -1      1917 1.99333E+01
 -1      1918 1.94964E+01
 -1      1919 2.09855E+01
 -1      1920 2.09166E+01
 -1      1921 2.41053E+01
 -1      1922 2.43979E+01
 -1      1923 2.39342E+01
 -1      1924 2.38948E+01
 -1      1925 2.39986E+01
 -1      1926 2.41513E+01
 -1      1927 2.41185E+01
 -1      1928 2.41109E+01
 -1      1929 2.88867E+01
 -1      1930 2.41890E+01
 -1      1931 2.39345E+01
 -1      1932 2.19604E+01
 -1      1933 2.22734E+01
 -1      1934 2.68824E+01
 -1      1935 2.23570E+01
 -1      1936 2.22137E+01
 -1      1937 1.66627E+01
 -1      1938 1.63426E+01
 -1      1939 2.07655E+01
 -1      1940 2.09836E+01
 -1      1941 2.13390E+01
 -1      1942 2.61643E+01
 -1      1943 2.32833E+01
 -1      1944 2.35013E+01
 -1      1945 2.80320E+01
 -1      1946 2.44076E+01
 -1      1947 2.31610E+01
 -1      1948 2.36635E+01
 -1      1949 2.40093E+01
 -1      1950 2.90285E+01
 -1      1951 2.41149E+01
 -1      1952 2.36599E+01
 -1      1953 2.93238E+01
 -1      1954 2.40646E+01
 -1      1955 2.39294E+01
 -1      1956 2.89695E+01
 -1      1957 2.41944E+01
 -1      1958 1.64334E+01
 -1      1959 1.42910E+01
 -1      1960 1.25433E+01
 -1      1961 1.02743E+01
 -1      1962 1.70508E+01
 -1      1963 1.56542E+01
 -1      1964 1.78288E+01
 -1      1965 1.89674E+01
 -1      1966 1.87779E+01
 -1      1967 1.87741E+01
 -1      1968 1.89719E+01
 -1      1969 1.81535E+01
 -1      1970 1.86961E+01
 -1      1971 1.90835E+01
 -1      1972 1.68179E+01
 -1      1973 1.22755E+01
 -1      1974 1.07076E+01
 -1      1975 1.88091E+01
 -1      1976 1.03593E+01
 -1      1977 1.83757E+01
 -1      1978 1.91044E+01
 -1      1979 1.83813E+01
 -1      1980 1.82289E+01
 -1      1981 3.01864E+01
 -1      1982 8.21687E+00
 -1      1983 1.41141E+01
 -1      1984 1.55259E+01
 -1      1985 1.92377E+01
 -1      1986 1.86361E+01
 -1      1987 1.92377E+01
 -1      1988 1.97525E+01
 -1      1989 2.87339E+01
 -1      1990 9.49818E+00
 -1      1991 1.67054E+01
 -1      1992 1.70631E+01
 -1      1993 2.73005E+01
 -1      1994 1.34059E+01
 -1      1995 1.76079E+01
 -1      1996 1.58279E+01
 -1      1997 1.22758E+01
 -1      1998 1.31511E+01
 -1      1999 1.84972E+01
 -1      2000 1.91406E+01
 -1      2001 1.85814E+01
 -1      2002 2.88183E+01
 -1      2003 1.93420E+01
 -1      2004 1.89826E+01
 -1      2005 1.28673E+01
 -1      2006 1.83262E+01
 -1      2007 1.93696E+01
 -1      2008 1.81795E+01
 -1      2009 1.85706E+01
 -1      2010 1.90086E+01
 -1      2011 1.87111E+01
 -1      2012 1.95421E+01
 -1      2013 1.62324E+01
 -1      2014 1.82113E+01
 -1      2015 1.58292E+01
 -1      2016 1.72116E+01
 -1      2017 1.26161E+01
 -1      2018 1.47732E+01
 -1      2019 1.66740E+01
 -1      2020 2.85742E+01
 -1      2021 1.90506E+01
 -1      2022 3.10635E+01
 -1      2023 1.74497E+01
 -1      2024 1.71517E+01
 -1      2025 2.84440E+01
 -1      2026 1.86646E+01
 -1      2027 9.77926E+00
 -1      2028 1.62554E+01
 -1      2029 2.42463E+01
 -1      2030 2.42463E+01
 -1      2031 2.59614E+01
 -1      2032 1.73965E+01
 -1      2033 2.20563E+01
 -1      2034 2.71392E+01
 -1      2035 2.55259E+01
 -1      2036 2.81246E+01
 -1      2037 2.87594E+01
 -1      2038 2.92473E+01
 -1      2039 2.92515E+01
 -1      2040 2.93309E+01
 -1      2041 2.12015E+01
 -1      2042 2.87154E+01
 -1      2043 2.66300E+01
 -1      2044 2.90306E+01
 -1      2045 2.90507E+01
 -1      2046 2.87934E+01
 -1      2047 1.95463E+01
 -1      2048 2.83827E+01
 -1      2049 2.81246E+01
 -1      2050 2.80702E+01
 -1      2051 2.70699E+01
 -1      2052 1.77490E+01
 -1      2053 2.83922E+01
 -1      2054 7.24178E+00
 -1      2055 1.89308E+01
 -1      2056 1.10703E+01
 -1      2057 2.89724E+01
 -1      2058 1.31585E+01
 -1      2059 1.20330E+01
 -1      2060 2.18417E+01
 -1      2061 2.20733E+01
 -1      2062 9.34992E+00
 -1      2063 1.20330E+01
 -1      2064 1.38781E+01
 -1      2065 1.03788E+01
 -1      2066 1.47424E+01
 -1      2067 1.24003E+01
 -1      2068 1.09923E+01
 -1      2069 1.42738E+01
 -1      2070 2.20733E+01
 -1      2071 2.20733E+01
 -1      2072 2.18417E+01
 -1      2073 1.43132E+01
 -1      2074 2.18417E+01
 -1      2075 2.29548E+01
 -1      2076 3.06249E+01
 -1      2077 2.11097E+01
 -1      2078 3.10635E+01
 -1      2079 2.36949E+01
 -1      2080 3.06249E+01
 -1      2081 2.21110E+01
 -1      2082 7.78222E+00
 -1      2083 7.34558E+00
 -1      2084 1.51451E+01
 -1      2085 7.01322E+00
 -1      2086 7.29467E+00
 -1      2087 7.72933E+00
 -1      2088 1.45417E+01
 -1      2089 1.37165E+01
 -1      2090 1.38277E+01
 -1      2091 1.54819E+01
 -1      2092 1.50661E+01
 -1      2093 1.37764E+01
 -1      2094 1.89907E+01
 -1      2095 1.46649E+01
 -1      2096 1.49278E+01
 -1      2097 1.89124E+01
 -1      2098 1.34452E+01
 -1      2099 1.46334E+01
 -1      2100 1.87426E+01
 -1      2101 1.45634E+01
 -1      2102 1.34077E+01
 -1      2103 1.86736E+01
 -1      2104 1.33835E+01
 -1      2105 1.45306E+01
 -1      2106 1.86034E+01
 -1      2107 1.49367E+01
 -1      2108 1.34872E+01
 -1      2109 1.86742E+01
 -1      2110 1.37115E+01
 -1      2111 1.52188E+01
 -1      2112 1.90599E+01
 -1      2113 1.36096E+01
 -1      2114 1.35318E+01
 -1      2115 1.91623E+01
 -1      2116 1.40513E+01
 -1      2117 1.32328E+01
 -1      2118 1.86058E+01
 -1      2119 1.47878E+01
 -1      2120 1.41855E+01
 -1      2121 1.83631E+01
 -1      2122 1.35227E+01
 -1      2123 1.50913E+01
 -1      2124 1.88008E+01
 -1      2125 1.43916E+01
 -1      2126 1.33028E+01
 -1      2127 1.88845E+01
 -1      2128 1.37273E+01
 -1      2129 1.39338E+01
 -1      2130 1.82068E+01
 -1      2131 1.32179E+01
 -1      2132 1.40434E+01
 -1      2133 1.80651E+01
 -1      2134 1.37122E+01
 -1      2135 1.28312E+01
 -1      2136 1.79946E+01
 -1      2137 1.43791E+01
 -1      2138 1.38226E+01
 -1      2139 1.77184E+01
 -1      2140 1.32993E+01
 -1      2141 1.40705E+01
 -1      2142 1.75202E+01
 -1      2143 1.27073E+01
 -1      2144 1.32189E+01
 -1      2145 1.71312E+01
 -1      2146 1.36563E+01
 -1      2147 1.27135E+01
 -1      2148 1.70569E+01
 -1      2149 1.39456E+01
 -1      2150 1.34774E+01
 -1      2151 1.68843E+01
 -1      2152 1.32431E+01
 -1      2153 1.38096E+01
 -1      2154 1.65694E+01
 -1      2155 1.22059E+01
 -1      2156 1.29410E+01
 -1      2157 1.61313E+01
 -1      2158 1.31115E+01
 -1      2159 1.20542E+01
 -1      2160 1.56776E+01
 -1      2161 1.22165E+01
 -1      2162 1.34648E+01
 -1      2163 1.58792E+01
 -1      2164 1.15274E+01
 -1      2165 1.12458E+01
 -1      2166 1.52617E+01
 -1      2167 1.19182E+01
 -1      2168 1.10848E+01
 -1      2169 1.38484E+01
 -1      2170 1.07416E+01
 -1      2171 1.15233E+01
 -1      2172 1.30110E+01
 -1      2173 1.11642E+01
 -1      2174 1.05713E+01
 -1      2175 1.24458E+01
 -1      2176 1.06263E+01
 -1      2177 1.14601E+01
 -1      2178 1.25714E+01
 -1      2179 9.07535E+00
 -1      2180 9.32978E+00
 -1      2181 1.15708E+01
 -1      2182 1.65718E+01
 -1      2183 9.47334E+00
 -1      2184 1.06723E+01
 -1      2185 1.65718E+01
 -1      2186 1.39548E+01
 -1      2187 1.38081E+01
 -1      2188 1.61210E+01
 -1      2189 1.41426E+01
 -1      2190 1.39562E+01
 -1      2191 1.94180E+01
 -1      2192 1.36988E+01
 -1      2193 1.52773E+01
 -1      2194 1.94951E+01
 -1      2195 1.51628E+01
 -1      2196 1.35506E+01
 -1      2197 1.91232E+01
 -1      2198 1.35300E+01
 -1      2199 1.50978E+01
 -1      2200 1.89880E+01
 -1      2201 1.53852E+01
 -1      2202 1.38802E+01
 -1      2203 1.92547E+01
 -1      2204 1.37280E+01
 -1      2205 1.37353E+01
 -1      2206 1.93899E+01
 -1      2207 1.38013E+01
 -1      2208 1.53079E+01
 -1      2209 1.93037E+01
 -1      2210 1.49711E+01
 -1      2211 1.44148E+01
 -1      2212 1.90329E+01
 -1      2213 1.41724E+01
 -1      2214 1.32455E+01
 -1      2215 1.84537E+01
 -1      2216 1.36258E+01
 -1      2217 1.35482E+01
 -1      2218 1.85916E+01
 -1      2219 1.36326E+01
 -1      2220 1.51763E+01
 -1      2221 1.90562E+01
 -1      2222 1.48967E+01
 -1      2223 1.33425E+01
 -1      2224 1.88610E+01
 -1      2225 1.31285E+01
 -1      2226 1.40024E+01
 -1      2227 1.83674E+01
 -1      2228 1.40888E+01
 -1      2229 1.46816E+01
 -1      2230 1.82398E+01
 -1      2231 1.49231E+01
 -1      2232 1.34738E+01
 -1      2233 1.85677E+01
 -1      2234 1.31591E+01
 -1      2235 1.32784E+01
 -1      2236 1.84943E+01
 -1      2237 1.33765E+01
 -1      2238 1.33034E+01
 -1      2239 1.82776E+01
 -1      2240 1.28403E+01
 -1      2241 1.27480E+01
 -1      2242 1.79127E+01
 -1      2243 1.25990E+01
 -1      2244 1.39282E+01
 -1      2245 1.73007E+01
 -1      2246 1.37613E+01
 -1      2247 1.26296E+01
 -1      2248 1.69848E+01
 -1      2249 1.25576E+01
 -1      2250 1.34172E+01
 -1      2251 1.67460E+01
 -1      2252 1.29942E+01
 -1      2253 1.26021E+01
 -1      2254 1.62510E+01
 -1      2255 1.25152E+01
 -1      2256 1.21028E+01
 -1      2257 1.57411E+01
 -1      2258 1.16623E+01
 -1      2259 1.21185E+01
 -1      2260 1.52137E+01
 -1      2261 1.17889E+01
 -1      2262 1.22416E+01
 -1      2263 1.44436E+01
 -1      2264 1.17601E+01
 -1      2265 1.21225E+01
 -1      2266 1.36326E+01
 -1      2267 1.18187E+01
 -1      2268 1.06556E+01
 -1      2269 1.28472E+01
 -1      2270 1.05218E+01
 -1      2271 1.12247E+01
 -1      2272 1.24095E+01
 -1      2273 1.02665E+01
 -1      2274 9.98511E+00
 -1      2275 1.13175E+01
 -1      2276 9.55456E+00
 -1      2277 9.49818E+00
 -1      2278 9.92873E+00
 -1      2279 1.01029E+01
 -1      2280 1.62746E+01
 -1      2281 1.01029E+01
 -1      2282 1.62746E+01
 -1      2283 2.09796E+01
 -1      2284 2.11156E+01
 -1      2285 2.12296E+01
 -1      2286 2.15317E+01
 -1      2287 2.60779E+01
 -1      2288 1.73037E+01
 -1      2289 1.77462E+01
 -1      2290 1.92686E+01
 -1      2291 2.02394E+01
 -1      2292 2.27239E+01
 -1      2293 1.60448E+01
 -1      2294 1.59110E+01
 -1      2295 1.76037E+01
 -1      2296 1.72998E+01
 -1      2297 2.08013E+01
 -1      2298 1.32648E+01
 -1      2299 1.45613E+01
 -1      2300 1.30173E+01
 -1      2301 1.00268E+01
 -1      2302 1.04248E+01
 -1      2303 2.21818E+01
 -1      2304 2.21756E+01
 -1      2305 2.76853E+01
 -1      2306 2.25605E+01
 -1      2307 2.26409E+01
 -1      2308 2.08947E+01
 -1      2309 2.08078E+01
 -1      2310 1.99502E+01
 -1      2311 1.95097E+01
 -1      2312 2.51039E+01
 -1      2313 2.29767E+01
 -1      2314 2.28662E+01
 -1      2315 2.21754E+01
 -1      2316 2.24840E+01
 -1      2317 2.76319E+01
 -1      2318 2.41300E+01
 -1      2319 2.41094E+01
 -1      2320 2.41073E+01
 -1      2321 2.43947E+01
 -1      2322 2.92494E+01
 -1      2323 2.40287E+01
 -1      2324 2.37466E+01
 -1      2325 2.37687E+01
 -1      2326 2.36650E+01
 -1      2327 2.87374E+01
 -1      2328 2.40210E+01
 -1      2329 2.40525E+01
 -1      2330 2.38124E+01
 -1      2331 2.36741E+01
 -1      2332 2.89525E+01
 -1      2333 2.36773E+01
 -1      2334 2.37616E+01
 -1      2335 2.36210E+01
 -1      2336 2.40013E+01
 -1      2337 2.87066E+01
 -1      2338 2.36998E+01
 -1      2339 2.34859E+01
 -1      2340 2.86312E+01
 -1      2341 2.32988E+01
 -1      2342 2.33851E+01
 -1      2343 2.40815E+01
 -1      2344 2.37447E+01
 -1      2345 2.38734E+01
 -1      2346 2.36310E+01
 -1      2347 2.89220E+01
 -1      2348 2.39087E+01
 -1      2349 2.42432E+01
 -1      2350 2.40280E+01
 -1      2351 2.88532E+01
 -1      2352 3.00180E+01
 -1      2353 2.50735E+01
 -1      2354 2.11719E+01
 -1      2355 2.10999E+01
 -1      2356 2.21108E+01
 -1      2357 2.19439E+01
 -1      2358 2.62979E+01
 -1      2359 1.51319E+01
 -1      2360 1.48360E+01
 -1      2361 1.59109E+01
 -1      2362 1.60812E+01
 -1      2363 1.84714E+01
 -1      2364 9.63872E+00
 -1      2365 1.02434E+01
 -1      2366 9.56459E+00
 -1      2367 1.00287E+01
 -1      2368 8.97467E+00
 -1      2369 8.29585E+00
 -1      2370 2.32254E+01
 -1      2371 2.34668E+01
 -1      2372 2.34668E+01
 -1      2373 2.31520E+01
 -1      2374 2.81246E+01
 -1      2375 1.33073E+01
 -1      2376 1.28768E+01
 -1      2377 1.48361E+01
 -1      2378 1.38779E+01
 -1      2379 1.68260E+01
 -1      2380 2.26594E+01
 -1      2381 2.27575E+01
 -1      2382 2.32229E+01
 -1      2383 2.27599E+01
 -1      2384 2.76047E+01
 -1      2385 2.37435E+01
 -1      2386 2.34399E+01
 -1      2387 2.35284E+01
 -1      2388 2.37483E+01
 -1      2389 2.83874E+01
 -1      2390 2.28662E+01
 -1      2391 2.32529E+01
 -1      2392 2.82843E+01
 -1      2393 2.34126E+01
 -1      2394 2.30965E+01
 -1      2395 2.37639E+01
 -1      2396 2.36298E+01
 -1      2397 2.36398E+01
 -1      2398 2.40166E+01
 -1      2399 2.90406E+01
 -1      2400 2.95794E+01
 -1      2401 2.39516E+01
 -1      2402 2.45586E+01
 -1      2403 8.78339E+00
 -1      2404 9.64356E+00
 -1      2405 1.02101E+01
 -1      2406 1.76578E+01
 -1      2407 1.71763E+01
 -1      2408 1.95097E+01
 -1      2409 1.91802E+01
 -1      2410 2.02394E+01
 -1      2411 1.98861E+01
 -1      2412 2.07437E+01
 -1      2413 2.08953E+01
 -1      2414 2.39766E+01
 -1      2415 2.40425E+01
 -1      2416 2.41508E+01
 -1      2417 2.39986E+01
 -1      2418 2.39090E+01
 -1      2419 2.39417E+01
 -1      2420 2.39438E+01
 -1      2421 2.39813E+01
 -1      2422 2.41633E+01
 -1      2423 2.39059E+01
 -1      2424 2.42843E+01
 -1      2425 2.41698E+01
 -1      2426 2.86540E+01
 -1      2427 2.38923E+01
 -1      2428 2.38323E+01
 -1      2429 2.18877E+01
 -1      2430 2.20665E+01
 -1      2431 2.71852E+01
 -1      2432 2.22261E+01
 -1      2433 2.23751E+01
 -1      2434 1.73362E+01
 -1      2435 1.77311E+01
 -1      2436 2.16289E+01
 -1      2437 2.16520E+01
 -1      2438 2.12290E+01
 -1      2439 2.62957E+01
 -1      2440 2.37664E+01
 -1      2441 2.34868E+01
 -1      2442 2.86052E+01
 -1      2443 2.32837E+01
 -1      2444 2.37414E+01
 -1      2445 2.38880E+01
 -1      2446 2.40677E+01
 -1      2447 2.87544E+01
 -1      2448 2.90034E+01
 -1      2449 2.92912E+01
 -1      2450 2.42463E+01
 -1      2451 3.74374E+01
 -1      2452 1.29185E+01
 -1      2453 1.73800E+01
 -1      2454 2.93309E+01
 -1      2455 2.87934E+01
 -1      2456 2.20563E+01
 -1      2457 2.42460E+01
 -1      2458 2.68051E+01
 -1      2459 2.69421E+01
 -1      2460 2.80702E+01
 -1      2461 2.83922E+01
 -1      2462 2.92454E+01
 -1      2463 2.81569E+01
 -1      2464 2.92325E+01
 -1      2465 2.89308E+01
 -1      2466 2.74547E+01
 -1      2467 2.01983E+01
 -1      2468 2.92515E+01
 -1      2469 1.35021E+01
 -1      2470 3.38746E+01
 -1      2471 1.23128E+01
 -1      2472 3.38746E+01
 -1      2473 2.92325E+01
 -1      2474 2.89730E+01
 -1      2475 2.26927E+01
 -1      2476 2.26256E+01
 -1      2477 2.68051E+01
 -1      2478 2.53816E+01
 -1      2479 2.58841E+01
 -1      2480 2.58334E+01
 -1      2481 2.87897E+01
 -1      2482 2.75484E+01
 -1      2483 2.81569E+01
 -1      2484 2.88587E+01
 -1      2485 2.74458E+01
 -1      2486 2.89778E+01
 -1      2487 2.90969E+01
 -1      2488 2.82854E+01
 -1      2489 2.88440E+01
 -1      2490 2.89308E+01
 -1      2491 3.20408E+01
 -1      2492 1.25418E+01
 -1      2493 1.87632E+01
 -1      2494 2.91638E+01
 -1      2495 2.90073E+01
 -1      2496 1.36467E+01
 -1      2497 3.20408E+01
 -1      2498 2.01125E+01
 -1      2499 2.90362E+01
 -1      2500 1.21154E+01
 -1      2501 2.73484E+01
 -1      2502 2.73484E+01
 -1      2503 2.90073E+01
 -1      2504 1.33295E+01
 -1      2505 1.37959E+01
 -1      2506 2.73484E+01
 -1      2507 2.71202E+01
 -1      2508 1.87632E+01
 -1      2509 1.84860E+01
 -1      2510 2.20563E+01
 -1      2511 2.01125E+01
 -1      2512 2.93238E+01
 -1      2513 2.90362E+01
 -1      2514 2.83922E+01
 -1      2515 2.55259E+01
 -1      2516 2.23903E+01
 -1      2517 2.25083E+01
 -1      2518 2.47193E+01
 -1      2519 2.45648E+01
 -1      2520 2.63784E+01
 -1      2521 2.87594E+01
 -1      2522 2.72806E+01
 -1      2523 2.87934E+01
 -1      2524 2.84157E+01
 -1      2525 2.89413E+01
 -1      2526 2.71928E+01
 -1      2527 2.81606E+01
 -1      2528 2.85991E+01
 -1      2529 2.85578E+01
 -1      2530 2.82251E+01
 -1      2531 2.81246E+01
 -1      2532 2.80702E+01
 -1      2533 2.92515E+01
 -1      2534 2.93309E+01
 -1      2535 2.88763E+01
 -1      2536 2.90073E+01
 -1      2537 2.73005E+01
 -1      2538 2.80702E+01
 -1      2539 1.84860E+01
 -1      2540 2.20563E+01
 -1      2541 2.73005E+01
 -1      2542 2.93309E+01
 -1      2543 2.92515E+01
 -1      2544 1.62554E+01
 -1      2545 2.92325E+01
 -1      2546 2.42463E+01
 -1      2547 2.68051E+01
 -1      2548 2.41944E+01
 -1      2549 2.66705E+01
 -1      2550 2.93238E+01
 -1      2551 2.92325E+01
 -1      2552 2.90969E+01
 -1      2553 2.90969E+01
 -1      2554 2.88587E+01
 -1      2555 2.89308E+01
 -1      2556 2.81246E+01
 -1      2557 2.82251E+01
 -1      2558 1.24945E+01
 -1      2559 2.63784E+01
 -1      2560 2.63784E+01
 -1      2561 2.68051E+01
 -1      2562 2.88587E+01
 -1      2563 2.49535E+01
 -1      2564 2.40558E+01
 -1      2565 2.00786E+01
 -1      2566 2.49535E+01
 -1      2567 2.40558E+01
 -1      2568 2.89308E+01
 -1      2569 2.36689E+01
 -1      2570 2.45666E+01
 -1      2571 2.85439E+01
 -1      2572 1.24360E+01
 -1      2573 1.32103E+01
 -1      2574 1.18414E+01
 -1      2575 1.26156E+01
 -1      2576 1.29075E+01
 -1      2577 1.21708E+01
 -1      2578 1.05161E+01
 -1      2579 1.00359E+01
 -1      2580 1.30219E+01
 -1      2581 1.16906E+01
 -1      2582 3.13868E+01
 -1      2583 3.56560E+01
 -1      2584 3.31682E+01
 -1      2585 3.13868E+01
 -1      2586 3.56560E+01
 -1      2587 3.38746E+01
 -1      2588 2.88735E+01
 -1      2589 2.70921E+01
 -1      2590 2.61752E+01
 -1      2591 3.29577E+01
 -1      2592 3.47391E+01
 -1      2593 1.64358E+01
 -1      2594 2.00940E+01
 -1      2595 1.90345E+01
 -1      2596 1.77444E+01
 -1      2597 2.14026E+01
 -1      2598 1.88039E+01
 -1      2599 2.23745E+01
 -1      2600 1.97758E+01
 -1      2601 2.10844E+01
 -1      2602 1.87163E+01
 -1      2603 2.87504E+01
 -1      2604 2.60521E+01
 -1      2605 3.31997E+01
 -1      2606 3.14183E+01
 -1      2607 1.50961E+01
 -1      2608 1.49985E+01
 -1      2609 1.13313E+01
 -1      2610 1.23792E+01
 -1      2611 1.22816E+01
 -1      2612 1.60464E+01
 -1      2613 1.80716E+01
 -1      2614 1.43069E+01
 -1      2615 1.53548E+01
 -1      2616 2.40988E+01
 -1      2617 2.90024E+01
 -1      2618 2.43418E+01
 -1      2619 2.43448E+01
 -1      2620 2.92484E+01
 -1      2621 2.90055E+01
 -1      2622 2.87594E+01
 -1      2623 2.90024E+01
 -1      2624 2.90055E+01
 -1      2625 2.02191E+01
 -1      2626 2.04652E+01
 -1      2627 2.36650E+01
 -1      2628 2.39110E+01
 -1      2629 2.69690E+01
 -1      2630 3.14183E+01
 -1      2631 1.97174E+01
 -1      2632 2.03736E+01
 -1      2633 2.10844E+01
 -1      2634 2.17374E+01
 -1      2635 1.53548E+01
 -1      2636 1.33295E+01
 -1      2637 1.71546E+01
 -1      2638 2.41342E+01
 -1      2639 2.86963E+01
 -1      2640 2.43538E+01
 -1      2641 2.89158E+01
 -1      2642 2.90129E+01
 -1      2643 2.87702E+01
 -1      2644 2.42082E+01
 -1      2645 2.88673E+01
 -1      2646 2.92846E+01
 -1      2647 2.43586E+01
 -1      2648 2.91484E+01
 -1      2649 2.42224E+01
 -1      2650 2.91092E+01
 -1      2651 2.40617E+01
 -1      2652 2.88673E+01
 -1      2653 2.41515E+01
 -1      2654 2.89571E+01
 -1      2655 2.88832E+01
 -1      2656 2.83849E+01
 -1      2657 2.89308E+01
 -1      2658 2.90869E+01
 -1      2659 2.86615E+01
 -1      2660 2.40788E+01
 -1      2661 2.38094E+01
 -1      2662 2.84750E+01
 -1      2663 2.38922E+01
 -1      2664 2.87443E+01
 -1      2665 2.87702E+01
 -1      2666 2.39645E+01
 -1      2667 2.86963E+01
 -1      2668 2.82764E+01
 -1      2669 2.83592E+01
 -1      2670 2.32387E+01
 -1      2671 2.76754E+01
 -1      2672 2.29778E+01
 -1      2673 2.74145E+01
 -1      2674 2.78093E+01
 -1      2675 2.44432E+01
 -1      2676 2.43070E+01
 -1      2677 2.42056E+01
 -1      2678 2.85457E+01
 -1      2679 2.87861E+01
 -1      2680 2.43761E+01
 -1      2681 2.42488E+01
 -1      2682 2.43743E+01
 -1      2683 2.42470E+01
 -1      2684 2.87915E+01
 -1      2685 2.40815E+01
 -1      2686 2.87544E+01
 -1      2687 2.40796E+01
 -1      2688 2.87525E+01
 -1      2689 2.41132E+01
 -1      2690 2.42302E+01
 -1      2691 2.44498E+01
 -1      2692 2.43328E+01
 -1      2693 2.02155E+01
 -1      2694 2.42202E+01
 -1      2695 2.34436E+01
 -1      2696 2.34693E+01
 -1      2697 1.94389E+01
 -1      2698 2.02392E+01
 -1      2699 2.42461E+01
 -1      2700 1.94290E+01
 -1      2701 2.34359E+01
 -1      2702 2.34358E+01
 -1      2703 2.06918E+01
 -1      2704 2.17076E+01
 -1      2705 2.12622E+01
 -1      2706 2.09310E+01
 -1      2707 2.04855E+01
 -1      2708 2.20556E+01
 -1      2709 2.17169E+01
 -1      2710 2.12607E+01
 -1      2711 2.04504E+01
 -1      2712 2.09066E+01
 -1      2713 2.30061E+01
 -1      2714 2.28483E+01
 -1      2715 2.22940E+01
 -1      2716 2.63877E+01
 -1      2717 2.24517E+01
 -1      2718 2.68063E+01
 -1      2719 2.24092E+01
 -1      2720 2.62519E+01
 -1      2721 2.18548E+01
 -1      2722 2.43937E+01
 -1      2723 2.41659E+01
 -1      2724 2.90175E+01
 -1      2725 2.87746E+01
 -1      2726 2.44712E+01
 -1      2727 2.44260E+01
 -1      2728 2.42434E+01
 -1      2729 2.41981E+01
 -1      2730 2.43462E+01
 -1      2731 2.42199E+01
 -1      2732 2.44360E+01
 -1      2733 2.43097E+01
 -1      2734 2.79979E+01
 -1      2735 2.39911E+01
 -1      2736 2.37275E+01
 -1      2737 2.37303E+01
 -1      2738 2.34667E+01
 -1      2739 2.39655E+01
 -1      2740 2.37279E+01
 -1      2741 2.36534E+01
 -1      2742 2.34157E+01
 -1      2743 2.77580E+01
 -1      2744 2.32229E+01
 -1      2745 2.76047E+01
 -1      2746 2.72925E+01
 -1      2747 2.29108E+01
 -1      2748 2.40677E+01
 -1      2749 2.87934E+01
 -1      2750 2.42195E+01
 -1      2751 2.89451E+01
 -1      2752 2.89451E+01
 -1      2753 2.41720E+01
 -1      2754 2.40049E+01
 -1      2755 2.44649E+01
 -1      2756 2.42978E+01
 -1      2757 2.86850E+01
 -1      2758 2.37664E+01
 -1      2759 2.83874E+01
 -1      2760 2.40592E+01
 -1      2761 2.86802E+01
 -1      2762 2.40792E+01
 -1      2763 2.41941E+01
 -1      2764 2.42310E+01
 -1      2765 2.43459E+01
 -1      2766 2.41509E+01
 -1      2767 2.39903E+01
 -1      2768 2.43768E+01
 -1      2769 2.42163E+01
 -1      2770 2.86181E+01
 -1      2771 2.81910E+01
 -1      2772 2.34672E+01
 -1      2773 2.31630E+01
 -1      2774 2.78527E+01
 -1      2775 2.78868E+01
 -1      2776 2.89308E+01
 -1      2777 2.38184E+01
 -1      2778 2.39535E+01
 -1      2779 2.41868E+01
 -1      2780 2.86254E+01
 -1      2781 2.40516E+01
 -1      2782 2.37483E+01
 -1      2783 2.83922E+01
 -1      2784 2.86254E+01
 -1      2785 2.39815E+01
 -1      2786 2.43979E+01
 -1      2787 2.93238E+01
 -1      2788 2.92846E+01
 -1      2789 2.38512E+01
 -1      2790 2.39828E+01
 -1      2791 2.41205E+01
 -1      2792 2.42521E+01
 -1      2793 2.37904E+01
 -1      2794 2.38619E+01
 -1      2795 2.34349E+01
 -1      2796 2.35063E+01
 -1      2797 2.78014E+01
 -1      2798 2.44563E+01
 -1      2799 2.39135E+01
 -1      2800 2.44782E+01
 -1      2801 2.46167E+01
 -1      2802 2.44693E+01
 -1      2803 2.91836E+01
 -1      2804 2.43308E+01
 -1      2805 2.41228E+01
 -1      2806 2.42491E+01
 -1      2807 2.40507E+01
 -1      2808 2.87764E+01
 -1      2809 2.87764E+01
 -1      2810 1.44793E+01
 -1      2811 1.51709E+01
 -1      2812 1.60464E+01
 -1      2813 1.80716E+01
 -1      2814 2.43761E+01
 -1      2815 2.87934E+01
 -1      2816 2.42488E+01
 -1      2817 2.40815E+01
 -1      2818 2.87544E+01
 -1      2819 2.41872E+01
 -1      2820 2.43041E+01
 -1      2821 2.43796E+01
 -1      2822 2.03749E+01
 -1      2823 2.44054E+01
 -1      2824 2.44828E+01
 -1      2825 2.04759E+01
 -1      2826 2.44827E+01
 -1      2827 2.14216E+01
 -1      2828 2.18670E+01
 -1      2829 2.19535E+01
 -1      2830 2.14973E+01
 -1      2831 2.41771E+01
 -1      2832 2.40622E+01
 -1      2833 2.38301E+01
 -1      2834 2.84039E+01
 -1      2835 2.39653E+01
 -1      2836 2.84039E+01
 -1      2837 2.37600E+01
 -1      2838 2.40655E+01
 -1      2839 2.39340E+01
 -1      2840 2.72004E+01
 -1      2841 2.27637E+01
 -1      2842 2.75952E+01
 -1      2843 2.41720E+01
 -1      2844 2.83922E+01
 -1      2845 2.40049E+01
 -1      2846 2.38745E+01
 -1      2847 2.40351E+01
 -1      2848 2.82764E+01
 -1      2849 2.83874E+01
 -1      2850 2.37664E+01
 -1      2851 1.87455E+01
 -1      2852 2.01125E+01
 -1      2853 2.43810E+01
 -1      2854 2.44824E+01
 -1      2855 2.35013E+01
 -1      2856 2.82251E+01
 -1      2857 2.81910E+01
 -1      2858 2.26123E+01
 -1      2859 2.70094E+01
 -1      2860 2.71452E+01
 -1      2861 2.35162E+01
 -1      2862 2.32526E+01
 -1      2863 2.30515E+01
 -1      2864 2.32093E+01
 -1      2865 1.68743E+01
 -1      2866 1.68743E+01
 -1      2867 1.75659E+01
 -1      2868 1.75659E+01
 -1      2869 2.37830E+01
 -1      2870 2.38549E+01
 -1      2871 2.34788E+01
 -1      2872 2.35506E+01
 -1      2873 2.37439E+01
 -1      2874 2.84750E+01
 -1      2875 2.39698E+01
 -1      2876 2.87009E+01
 -1      2877 2.90712E+01
 -1      2878 2.44114E+01
 -1      2879 2.89238E+01
 -1      2880 2.42641E+01
 -1      2881 2.87915E+01
 -1      2882 2.36287E+01
 -1      2883 2.36724E+01
 -1      2884 2.44563E+01
 -1      2885 2.38457E+01
 -1      2886 2.37743E+01
 -1      2887 2.81407E+01
 -1      2888 2.35265E+01
 -1      2889 2.89282E+01
 -1      2890 2.81407E+01
 -1      2891 2.34830E+01
 -1      2892 2.77852E+01
 -1      2893 2.31275E+01
 -1      2894 2.86372E+01
 -1      2895 1.78462E+01
 -1      2896 1.32103E+01
 -1      2897 1.29185E+01
 -1      2898 1.26156E+01
 -1      2899 2.86850E+01
 -1      2900 1.18790E+01
 -1      2901 1.27301E+01
 -1      2902 2.91484E+01
 -1      2903 2.85023E+01
 -1      2904 2.77852E+01
 -1      2905 2.78868E+01
 -1      2906 2.83592E+01
 -1      2907 2.36281E+01
 -1      2908 2.38889E+01
 -1      2909 2.38171E+01
 -1      2910 2.73343E+01
 -1      2911 2.37279E+01
 -1      2912 2.39655E+01
 -1      2913 2.80702E+01
 -1      2914 2.65909E+01
 -1      2915 2.76047E+01
 -1      2916 2.32229E+01
 -1      2917 2.43968E+01
 -1      2918 2.90055E+01
 -1      2919 2.92484E+01
 -1      2920 2.34668E+01
 -1      2921 2.81246E+01
 -1      2922 2.44290E+01
 -1      2923 2.44743E+01
 -1      2924 2.43163E+01
 -1      2925 2.91691E+01
 -1      2926 2.44549E+01
 -1      2927 3.74374E+01
 -1      2928 3.74374E+01
 -1      2929 3.47391E+01
 -1      2930 3.47391E+01
 -1      2931 3.47391E+01
 -1      2932 1.51247E+01
 -1      2933 1.34881E+01
 -1      2934 1.26126E+01
 -1      2935 1.55134E+01
 -1      2936 3.74374E+01
 -1      2937 2.42496E+01
 -1      2938 2.89094E+01
 -1      2939 2.77580E+01
 -1      2940 1.50076E+01
 -1      2941 1.50076E+01
 -1      2942 1.00078E+01
 -1      2943 1.01030E+01
 -1      2944 1.00317E+01
 -1      2945 2.90206E+01
 -1      2946 9.70146E+00
 -1      2947 1.25169E+01
 -1      2948 9.60630E+00
 -1      2949 2.90217E+01
 -1      2950 1.62050E+01
 -1      2951 1.38223E+01
 -1      2952 1.55511E+01
 -1      2953 1.67572E+01
 -1      2954 1.85423E+01
 -1      2955 2.02712E+01
 -1      2956 1.73362E+01
 -1      2957 1.30675E+01
 -1      2958 1.30737E+01
 -1      2959 1.85772E+01
 -1      2960 2.25666E+01
 -1      2961 2.25605E+01
 -1      2962 1.36519E+01
 -1      2963 1.53808E+01
 -1      2964 1.22755E+01
 -1      2965 1.53808E+01
 -1      2966 1.31240E+01
 -1      2967 1.20845E+01
 -1      2968 1.29356E+01
 -1      2969 2.89846E+01
 -1      2970 3.32223E+01
 -1      2971 3.14410E+01
 -1      2972 3.47391E+01
 -1      2973 3.47391E+01
 -1      2974 9.81947E+00
 -1      2975 9.84331E+00
 -1      2976 3.31568E+01
 -1      2977 2.44699E+01
 -1      2978 3.04586E+01
 -1      2979 2.91836E+01
 -1      2980 2.90362E+01
 -1      2981 2.91836E+01
 -1      2982 2.91691E+01
 -1      2983 2.90217E+01
 -1      2984 2.90217E+01
 -1      2985 2.61655E+01
 -1      2986 2.68736E+01
 -1      2987 2.62340E+01
 -1      2988 2.64132E+01
 -1      2989 2.71213E+01
 -1      2990 2.70528E+01
 -1      2991 1.33572E+01
 -1      2992 1.33572E+01
 -1      2993 1.30544E+01
 -1      2994 2.32257E+01
 -1      2995 2.31572E+01
 -1      2996 2.34049E+01
 -1      2997 3.20408E+01
 -1      2998 2.32962E+01
 -1      2999 2.77093E+01
 -1      3000 2.36571E+01
 -1      3001 2.32623E+01
 -1      3002 2.76754E+01
 -1      3003 2.73145E+01
 -1      3004 2.44493E+01
 -1      3005 2.91691E+01
 -1      3006 2.46111E+01
 -1      3007 2.46111E+01
 -1      3008 2.93309E+01
 -1      3009 2.91691E+01
 -1      3010 2.72343E+01
 -1      3011 2.75952E+01
 -1      3012 2.72004E+01
 -1      3013 2.18115E+01
 -1      3014 2.20592E+01
 -1      3015 1.98335E+01
 -1      3016 2.00812E+01
 -1      3017 2.87907E+01
 -1      3018 2.89525E+01
 -1      3019 2.89525E+01
 -1      3020 1.70955E+01
 -1      3021 1.77871E+01
 -1      3022 1.84732E+01
 -1      3023 1.88961E+01
 -1      3024 1.78462E+01
 -1      3025 2.41109E+01
 -1      3026 2.40965E+01
 -1      3027 2.32123E+01
 -1      3028 2.34154E+01
 -1      3029 1.95565E+01
 -1      3030 2.32183E+01
 -1      3031 2.27433E+01
 -1      3032 2.93238E+01
 -1      3033 2.92846E+01
 -1      3034 2.93238E+01
 -1      3035 1.23286E+01
 -1      3036 2.66705E+01
 -1      3037 2.68063E+01
 -1      3038 2.70094E+01
 -1      3039 2.71202E+01
 -1      3040 2.80702E+01
 -1      3041 2.80702E+01
 -1      3042 2.42110E+01
 -1      3043 2.40636E+01
 -1      3044 2.93238E+01
 -1      3045 2.93238E+01
 -1      3046 2.44250E+01
 -1      3047 2.44642E+01
 -1      3048 2.43189E+01
 -1      3049 2.44662E+01
 -1      3050 2.43044E+01
 -1      3051 2.70094E+01
 -1      3052 2.66705E+01
 -1      3053 1.88807E+01
 -1      3054 1.98965E+01
 -1      3055 1.98626E+01
 -1      3056 2.90362E+01
 -1      3057 1.77666E+01
 -1      3058 1.77291E+01
 -1      3059 2.30368E+01
 -1      3060 2.39438E+01
 -1      3061 2.39813E+01
 -1      3062 2.44203E+01
 -1      3063 2.38774E+01
 -1      3064 2.88947E+01
 -1      3065 2.24746E+01
 -1      3066 2.24407E+01
 -1      3067 1.96196E+01
 -1      3068 2.83922E+01
 -1      3069 2.04549E+01
 -1      3070 2.06167E+01
 -1      3071 2.92463E+01
 -1      3072 2.92494E+01
 -1      3073 2.44662E+01
 -1      3074 2.44652E+01
 -1      3075 2.92877E+01
 -1      3076 2.38512E+01
 -1      3077 2.87374E+01
 -1      3078 1.98844E+01
 -1      3079 2.22233E+01
 -1      3080 2.05406E+01
 -1      3081 2.05239E+01
 -1      3082 1.97721E+01
 -1      3083 2.07499E+01
 -1      3084 1.99981E+01
 -1      3085 2.22823E+01
 -1      3086 2.20563E+01
 -1      3087 2.16289E+01
 -1      3088 2.17959E+01
 -1      3089 2.22233E+01
 -1      3090 2.13104E+01
 -1      3091 2.19634E+01
 -1      3092 2.41944E+01
 -1      3093 2.43796E+01
 -1      3094 2.42202E+01
 -1      3095 2.42463E+01
 -1      3096 2.44828E+01
 -1      3097 2.42461E+01
 -1      3098 2.17078E+01
 -1      3099 2.44055E+01
 -1      3100 2.16911E+01
 -1      3101 2.44569E+01
 -1      3102 2.43292E+01
 -1      3103 2.87934E+01
 -1      3104 2.41132E+01
 -1      3105 2.35707E+01
 -1      3106 2.72806E+01
 -1      3107 2.41626E+01
 -1      3108 2.83992E+01
 -1      3109 2.10844E+01
 -1      3110 1.88002E+01
 -1      3111 2.13104E+01
 -1      3112 2.20563E+01
 -1      3113 1.97174E+01
 -1      3114 2.22233E+01
 -1      3115 2.20563E+01
 -1      3116 2.01125E+01
 -1      3117 2.30765E+01
 -1      3118 2.40210E+01
 -1      3119 2.92912E+01
 -1      3120 2.37025E+01
 -1      3121 2.44501E+01
 -1      3122 2.89413E+01
 -1      3123 2.93309E+01
 -1      3124 2.93309E+01
 -1      3125 2.42548E+01
 -1      3126 2.81606E+01
 -1      3127 2.07385E+01
 -1      3128 2.07747E+01
 -1      3129 2.85991E+01
 -1      3130 2.39821E+01
 -1      3131 2.83849E+01
 -1      3132 2.89308E+01
 -1      3133 2.89308E+01
 -1      3134 1.93791E+01
 -1      3135 2.36571E+01
 -1      3136 2.82251E+01
 -1      3137 2.81910E+01
 -1      3138 2.82251E+01
 -1      3139 1.72539E+01
 -1      3140 1.72317E+01
 -1      3141 1.95370E+01
 -1      3142 2.89094E+01
 -1      3143 2.81246E+01
 -1      3144 2.81407E+01
 -1      3145 2.81246E+01
 -1      3146 1.94684E+01
 -1      3147 2.85578E+01
 -1      3148 2.38960E+01
 -1      3149 2.81748E+01
 -1      3150 2.38387E+01
 -1      3151 2.81748E+01
 -1      3152 1.16845E+01
 -1      3153 1.18364E+01
 -1      3154 2.12420E+01
 -1      3155 2.13939E+01
 -1      3156 2.24833E+01
 -1      3157 1.95710E+01
 -1      3158 1.93420E+01
 -1      3159 2.06776E+01
 -1      3160 2.06631E+01
 -1      3161 1.94882E+01
 -1      3162 1.93422E+01
 -1      3163 1.64072E+01
 -1      3164 2.11273E+01
 -1      3165 1.76134E+01
 -1      3166 2.16903E+01
 -1      3167 2.73776E+01
 -1      3168 2.17674E+01
 -1      3169 2.20751E+01
 -1      3170 2.77624E+01
 -1      3171 2.76853E+01
 -1      3172 2.41225E+01
 -1      3173 2.42843E+01
 -1      3174 1.91165E+01
 -1      3175 1.90933E+01
 -1      3176 2.44828E+01
 -1      3177 2.42463E+01
 -1      3178 2.43796E+01
 -1      3179 2.41944E+01
 -1      3180 1.83504E+01
 -1      3181 1.80879E+01
 -1      3182 1.82763E+01
 -1      3183 1.81171E+01
 -1      3184 1.93096E+01
 -1      3185 2.82251E+01
 -1      3186 2.82251E+01
 -1      3187 2.81246E+01
 -1      3188 2.81246E+01
 -1      3189 1.50822E+01
 -1      3190 1.55880E+01
 -1      3191 1.74272E+01
 -1      3192 1.79330E+01
 -1      3193 1.61409E+01
 -1      3194 1.94000E+01
 -1      3195 2.03096E+01
 -1      3196 2.03598E+01
 -1      3197 2.44493E+01
 -1      3198 2.03579E+01
 -1      3199 2.03076E+01
 -1      3200 1.44519E+01
 -1      3201 1.97596E+01
 -1      3202 1.11816E+01
 -1      3203 1.15754E+01
 -1      3204 2.61288E+01
 -1      3205 2.79102E+01
 -1      3206 2.36951E+01
 -1      3207 7.29514E+00
 -1      3208 7.29514E+00
 -1      3209 1.03235E+01
 -1      3210 1.03235E+01
 -1      3211 1.04737E+01
 -1      3212 2.92912E+01
 -1      3213 2.39813E+01
 -1      3214 2.92515E+01
 -1      3215 2.80166E+01
 -1      3216 2.53183E+01
 -1      3217 2.52119E+01
 -1      3218 7.18038E+00
 -1      3219 9.84331E+00
 -1      3220 9.99360E+00
 -1      3221 9.87884E+00
 -1      3222 2.62352E+01
 -1      3223 1.17283E+01
 -1      3224 1.27065E+01
 -1      3225 1.15400E+01
 -1      3226 1.25181E+01
 -1      3227 1.32826E+01
 -1      3228 1.32826E+01
 -1      3229 1.35744E+01
 -1      3230 2.70060E+01
 -1      3231 2.71852E+01
 -1      3232 2.87746E+01
 -1      3233 2.88662E+01
 -1      3234 3.03874E+01
 -1      3235 3.30856E+01
 -1      3236 2.88051E+01
 -1      3237 3.32049E+01
 -1      3238 3.03874E+01
 -1      3239 3.05066E+01
 -1      3240 1.76485E+01
 -1      3241 2.33915E+01
 -1      3242 2.71213E+01
 -1      3243 2.30275E+01
 -1      3244 2.39911E+01
 -1      3245 2.80702E+01
 -1      3246 2.32183E+01
 -1      3247 2.16289E+01
 -1      3248 2.20563E+01
 -1      3249 2.20563E+01
 -1      3250 1.97721E+01
 -1      3251 2.05239E+01
 -1      3252 2.76047E+01
 -1      3253 2.80702E+01
 -1      3254 2.71852E+01
 -1      3255 2.64132E+01
 -1      3256 1.22431E+01
 -1      3257 1.39735E+01
 -1      3258 2.30899E+01
 -1      3259 2.69855E+01
 -1      3260 1.71550E+01
 -1      3261 1.63921E+01
 -1      3262 1.58298E+01
 -1      3263 1.68177E+01
 -1      3264 1.65926E+01
 -1      3265 3.05066E+01
 -1      3266 2.19135E+01
 -1      3267 2.23409E+01
 -1      3268 2.23409E+01
 -1      3269 2.08085E+01
 -1      3270 2.30368E+01
 -1      3271 1.33630E+01
 -1      3272 1.57081E+01
 -1      3273 1.95587E+01
 -1      3274 2.89525E+01
 -1      3275 2.93309E+01
 -1      3276 2.93309E+01
 -1      3277 2.92494E+01
 -1      3278 2.46167E+01
 -1      3279 2.42110E+01
 -1      3280 2.44280E+01
 -1      3281 2.27537E+01
 -1      3282 2.65321E+01
 -1      3283 1.54111E+01
 -1      3284 2.03200E+01
 -1      3285 2.40984E+01
 -1      3286 1.13268E+01
 -1      3287 1.27065E+01
 -1      3288 1.15164E+01
 -1      3289 1.23050E+01
 -1      3290 1.15400E+01
 -1      3291 1.01798E+01
 -1      3292 1.19339E+01
 -1      3293 1.18414E+01
 -1      3294 1.25829E+01
 -1      3295 1.14901E+01
 -1      3296 2.32058E+01
 -1      3297 2.21589E+01
 -1      3298 2.34002E+01
 -1      3299 1.03948E+01
 -1      3300 9.80017E+00
 -1      3301 1.48399E+01
 -1      3302 3.56560E+01
 -1      3303 3.29577E+01
 -1      3304 2.45353E+01
 -1      3305 3.32223E+01
 -1      3306 3.14410E+01
 -1      3307 1.03235E+01
 -1      3308 1.58245E+01
 -1      3309 1.70225E+01
 -1      3310 1.68033E+01
 -1      3311 1.69704E+01
 -1      3312 1.76037E+01
 -1      3313 1.77707E+01
 -1      3314 1.66627E+01
 -1      3315 1.78606E+01
 -1      3316 2.89846E+01
 -1      3317 7.29467E+00
 -1      3318 7.78222E+00
 -1      3319 1.01662E+01
 -1      3320 9.73150E+00
 -1      3321 9.67861E+00
 -1      3322 2.19082E+01
 -1      3323 2.54858E+01
 -1      3324 1.53531E+01
 -1      3325 2.03259E+01
 -1      3326 2.39035E+01
 -1      3327 1.73707E+01
 -1      3328 1.68177E+01
 -1      3329 1.62554E+01
 -1      3330 1.73707E+01
 -1      3331 1.79413E+01
 -1      3332 1.68260E+01
 -1      3333 1.07327E+01
 -1      3334 1.22141E+01
 -1      3335 2.21402E+01
 -1      3336 2.62340E+01
 -1      3337 2.64132E+01
 -1      3338 2.76315E+01
 -1      3339 2.35524E+01
 -1      3340 2.76315E+01
 -1      3341 2.55259E+01
 -1      3342 2.71660E+01
 -1      3343 1.94578E+01
 -1      3344 1.91427E+01
 -1      3345 1.24367E+01
 -1      3346 1.22712E+01
 -1      3347 2.13782E+01
 -1      3348 2.12127E+01
 -1      3349 2.30994E+01
 -1      3350 1.16915E+01
 -1      3351 1.12201E+01
 -1      3352 1.24331E+01
 -1      3353 3.11136E+01
 -1      3354 3.15521E+01
 -1      3355 3.15521E+01
 -1      3356 3.20408E+01
 -1      3357 3.11136E+01
 -1      3358 2.36951E+01
 -1      3359 3.32223E+01
 -1      3360 3.05241E+01
 -1      3361 2.44596E+01
 -1      3362 2.44596E+01
 -1      3363 1.89808E+01
 -1      3364 1.89808E+01
 -1      3365 1.89808E+01
 -1      3366 2.88706E+01
 -1      3367 1.34881E+01
 -1      3368 2.90333E+01
 -1      3369 2.91133E+01
 -1      3370 2.92438E+01
 -1      3371 2.91000E+01
 -1      3372 2.91800E+01
 -1      3373 2.89695E+01
 -1      3374 1.50256E+01
 -1      3375 1.54474E+01
 -1      3376 1.86246E+01
 -1      3377 1.53087E+01
 -1      3378 1.70939E+01
 -1      3379 2.02712E+01
 -1      3380 2.04098E+01
 -1      3381 1.87210E+01
 -1      3382 1.87210E+01
 -1      3383 1.87632E+01
 -1      3384 1.94379E+01
 -1      3385 1.94379E+01
 -1      3386 1.93956E+01
 -1      3387 2.91000E+01
 -1      3388 2.89695E+01
 -1      3389 2.90362E+01
 -1      3390 2.91484E+01
 -1      3391 2.67378E+01
 -1      3392 2.34695E+01
 -1      3393 2.34436E+01
 -1      3394 2.34359E+01
 -1      3395 2.34100E+01
 -1      3396 2.62519E+01
 -1      3397 3.23351E+01
 -1      3398 3.20316E+01
 -1      3399 3.20316E+01
 -1      3400 3.38746E+01
 -1      3401 3.23351E+01
 -1      3402 1.61220E+01
 -1      3403 1.94379E+01
 -1      3404 2.10844E+01
 -1      3405 1.93956E+01
 -1      3406 2.01125E+01
 -1      3407 2.78868E+01
 -1      3408 2.90073E+01
 -1      3409 1.37213E+01
 -1      3410 2.90567E+01
 -1      3411 1.80157E+01
 -1      3412 1.77311E+01
 -1      3413 1.67791E+01
 -1      3414 1.64944E+01
 -1      3415 2.91036E+01
 -1      3416 2.43894E+01
 -1      3417 2.91036E+01
 -1      3418 2.78365E+01
 -1      3419 2.51721E+01
 -1      3420 2.51721E+01
 -1      3421 1.88569E+01
 -1      3422 1.88569E+01
 -1      3423 1.88569E+01
 -1      3424 2.08448E+01
 -1      3425 2.09086E+01
 -1      3426 2.09922E+01
 -1      3427 2.92474E+01
 -1      3428 2.91836E+01
 -1      3429 2.78355E+01
 -1      3430 2.77852E+01
 -1      3431 2.85439E+01
 -1      3432 2.85078E+01
 -1      3433 2.89418E+01
 -1      3434 2.87252E+01
 -1      3435 2.72213E+01
 -1      3436 2.73484E+01
 -1      3437 2.72213E+01
 -1      3438 2.71073E+01
 -1      3439 2.72343E+01
 -1      3440 2.72343E+01
 -1      3441 2.92076E+01
 -1      3442 2.09524E+01
 -1      3443 2.92912E+01
 -1      3444 9.83020E+00
 -1      3445 1.02649E+01
 -1      3446 3.10635E+01
 -1      3447 3.15521E+01
 -1      3448 1.87863E+01
 -1      3449 2.53017E+01
 -1      3450 1.93687E+01
 -1      3451 1.98292E+01
 -1      3452 2.63446E+01
 -1      3453 2.57622E+01
 -1      3454 2.56715E+01
 -1      3455 2.50505E+01
 -1      3456 2.53404E+01
 -1      3457 2.63833E+01
 -1      3458 2.60933E+01
 -1      3459 1.43669E+01
 -1      3460 1.47925E+01
 -1      3461 2.22589E+01
 -1      3462 2.73776E+01
 -1      3463 2.22527E+01
 -1      3464 2.86254E+01
 -1      3465 2.86052E+01
 -1      3466 2.88385E+01
 -1      3467 2.88587E+01
 -1      3468 2.88385E+01
 -1      3469 2.86254E+01
 -1      3470 2.02845E+01
 -1      3471 2.85096E+01
 -1      3472 2.06335E+01
 -1      3473 2.06696E+01
 -1      3474 2.88947E+01
 -1      3475 2.85457E+01
 -1      3476 2.85457E+01
 -1      3477 2.85457E+01
 -1      3478 2.89308E+01
 -1      3479 1.08314E+01
 -1      3480 1.10460E+01
 -1      3481 1.11369E+01
 -1      3482 1.24037E+01
 -1      3483 1.09222E+01
 -1      3484 1.52284E+01
 -1      3485 1.47725E+01
 -1      3486 1.97632E+01
 -1      3487 2.37687E+01
 -1      3488 1.50256E+01
 -1      3489 1.86246E+01
 -1      3490 2.10844E+01
 -1      3491 2.20563E+01
 -1      3492 2.40163E+01
 -1      3493 2.21296E+01
 -1      3494 1.24945E+01
 -1      3495 2.75952E+01
 -1      3496 2.73245E+01
 -1      3497 2.41870E+01
 -1      3498 2.86615E+01
 -1      3499 2.88947E+01
 -1      3500 2.72213E+01
 -1      3501 2.73484E+01
 -1      3502 2.73484E+01
 -1      3503 1.77080E+01
 -1      3504 1.79330E+01
 -1      3505 1.73707E+01
 -1      3506 2.73005E+01
 -1      3507 3.11136E+01
 -1      3508 3.20408E+01
 -1      3509 1.50228E+01
 -1      3510 1.24095E+01
 -1      3511 1.53809E+01
 -1      3512 1.55147E+01
 -1      3513 1.72998E+01
 -1      3514 1.71660E+01
 -1      3515 1.24294E+01
 -1      3516 1.55246E+01
 -1      3517 1.56680E+01
 -1      3518 1.63426E+01
 -1      3519 1.61992E+01
 -1      3520 1.22758E+01
 -1      3521 1.53809E+01
 -1      3522 1.22859E+01
 -1      3523 1.55246E+01
 -1      3524 1.22859E+01
 -1      3525 1.55246E+01
 -1      3526 1.22758E+01
 -1      3527 1.53809E+01
 -1      3528 2.80702E+01
 -1      3529 2.93309E+01
 -1      3530 1.44727E+01
 -1      3531 1.43777E+01
 -1      3532 2.23943E+01
 -1      3533 2.22993E+01
 -1      3534 1.94267E+01
 -1      3535 2.55622E+01
 -1      3536 2.21427E+01
 -1      3537 1.56640E+01
 -1      3538 2.40454E+01
 -1      3539 2.06259E+01
 -1      3540 2.92877E+01
 -1      3541 1.83862E+01
 -1      3542 1.83862E+01
 -1      3543 2.63833E+01
 -1      3544 2.68051E+01
 -1      3545 2.60933E+01
 -1      3546 1.96158E+01
 -1      3547 2.61312E+01
 -1      3548 2.65917E+01
 -1      3549 2.92515E+01
 -1      3550 1.57523E+01
 -1      3551 1.86438E+01
 -1      3552 1.86438E+01
 -1      3553 1.46470E+01
 -1      3554 1.52770E+01
 -1      3555 2.40009E+01
 -1      3556 2.03122E+01
 -1      3557 1.96823E+01
 -1      3558 2.90129E+01
 -1      3559 2.91836E+01
 -1      3560 2.88655E+01
 -1      3561 2.89571E+01
 -1      3562 2.61655E+01
 -1      3563 2.25079E+01
 -1      3564 2.25415E+01
 -1      3565 2.26005E+01
 -1      3566 2.25669E+01
 -1      3567 2.56796E+01
 -1      3568 2.74145E+01
 -1      3569 2.73706E+01
 -1      3570 2.73632E+01
 -1      3571 2.73193E+01
 -1      3572 2.89451E+01
 -1      3573 2.88480E+01
 -1      3574 2.86968E+01
 -1      3575 2.87678E+01
 -1      3576 2.86298E+01
 -1      3577 2.89158E+01
 -1      3578 2.06335E+01
 -1      3579 2.88587E+01
 -1      3580 2.88947E+01
 -1      3581 2.88385E+01
 -1      3582 2.88587E+01
 -1      3583 2.87009E+01
 -1      3584 3.07956E+01
 -1      3585 3.23351E+01
 -1      3586 1.14290E+01
 -1      3587 1.06252E+01
 -1      3588 1.23792E+01
 -1      3589 1.23792E+01
 -1      3590 2.68051E+01
 -1      3591 2.60933E+01
 -1      3592 2.68051E+01
 -1      3593 1.21692E+01
 -1      3594 2.50911E+01
 -1      3595 1.85627E+01
 -1      3596 1.29120E+01
 -1      3597 7.78222E+00
 -1      3598 9.83020E+00
 -1      3599 2.92076E+01
 -1      3600 2.92877E+01
 -1      3601 2.91438E+01
 -1      3602 1.55701E+01
 -1      3603 1.78466E+01
 -1      3604 2.91438E+01
 -1      3605 2.01979E+01
 -1      3606 2.77093E+01
 -1      3607 1.98370E+01
 -1      3608 1.98131E+01
 -1      3609 2.73245E+01
 -1      3610 2.76853E+01
 -1      3611 1.94808E+01
 -1      3612 1.94808E+01
 -1      3613 2.01554E+01
 -1      3614 1.93422E+01
 -1      3615 2.11273E+01
 -1      3616 2.92912E+01
 -1      3617 2.63446E+01
 -1      3618 2.65917E+01
 -1      3619 1.42169E+01
 -1      3620 1.43962E+01
 -1      3621 2.27599E+01
 -1      3622 1.97064E+01
 -1      3623 1.95271E+01
 -1      3624 2.88947E+01
 -1      3625 2.88947E+01
 -1      3626 1.14449E+01
 -1      3627 2.31900E+01
 -1      3628 1.51709E+01
 -1      3629 1.51915E+01
 -1      3630 2.03130E+01
 -1      3631 2.41300E+01
 -1      3632 2.41094E+01
 -1      3633 2.01554E+01
 -1      3634 2.92515E+01
 -1      3635 2.57622E+01
 -1      3636 2.43575E+01
 -1      3637 1.82841E+01
 -1      3638 2.85457E+01
 -1      3639 2.77093E+01
 -1      3640 2.86615E+01
 -1      3641 1.54169E+01
 -1      3642 2.05383E+01
 -1      3643 2.41698E+01
 -1      3644 2.05781E+01
 -1      3645 2.74016E+01
 -1      3646 2.74016E+01
 -1      3647 2.72875E+01
 -1      3648 1.55619E+01
 -1      3649 2.42492E+01
 -1      3650 3.56560E+01
 -1      3651 1.28987E+01
 -1      3652 1.33316E+01
 -1      3653 1.56767E+01
 -1      3654 1.42472E+01
 -1      3655 2.26109E+01
 -1      3656 1.93216E+01
 -1      3657 2.22261E+01
 -1      3658 1.16022E+01
 -1      3659 1.08221E+01
 -1      3660 1.33630E+01
 -1      3661 1.20351E+01
 -1      3662 2.90073E+01
 -1      3663 3.38746E+01
 -1      3664 3.20316E+01
 -1      3665 1.98370E+01
 -1      3666 2.89418E+01
 -1      3667 1.17876E+01
 -1      3668 1.31452E+01
 -1      3669 1.50028E+01
 -1      3670 1.97608E+01
 -1      3671 1.50784E+01
 -1      3672 2.00511E+01
 -1      3673 2.74016E+01
 -1      3674 2.21818E+01
 -1      3675 2.73005E+01
 -1      3676 2.76853E+01
 -1      3677 1.51383E+01
 -1      3678 2.39635E+01
 -1      3679 1.25284E+01
 -1      3680 1.25037E+01
 -1      3681 1.55052E+01
 -1      3682 1.57617E+01
 -1      3683 1.55300E+01
 -1      3684 1.19471E+01
 -1      3685 1.52051E+01
 -1      3686 1.64363E+01
 -1      3687 1.62046E+01
 -1      3688 2.20883E+01
 -1      3689 2.20112E+01
 -1      3690 1.77353E+01
 -1      3691 1.86643E+01
 -1      3692 1.98723E+01
 -1      3693 2.08013E+01
 -1      3694 2.92515E+01
 -1      3695 2.92912E+01
 -1      3696 2.31192E+01
 -1      3697 2.31590E+01
 -1      3698 1.23726E+01
 -1      3699 1.19363E+01
 -1      3700 1.08069E+01
 -1      3701 1.24449E+01
 -1      3702 1.20087E+01
 -1      3703 1.58009E+01
 -1      3704 2.41823E+01
 -1      3705 2.07824E+01
 -1      3706 2.07186E+01
 -1      3707 2.41185E+01
 -1      3708 1.55667E+01
 -1      3709 2.05482E+01
 -1      3710 1.55517E+01
 -1      3711 2.41673E+01
 -1      3712 1.94674E+01
 -1      3713 2.40137E+01
 -1      3714 1.57309E+01
 -1      3715 2.05069E+01
 -1      3716 1.29354E+01
 -1      3717 1.75453E+01
 -1      3718 1.33780E+01
 -1      3719 1.84583E+01
 -1      3720 1.39447E+01
 -1      3721 1.76029E+01
 -1      3722 1.43487E+01
 -1      3723 1.33695E+01
 -1      3724 1.84593E+01
 -1      3725 1.62522E+01
 -1      3726 1.47680E+01
 -1      3727 2.17395E+01
 -1      3728 1.43688E+01
 -1      3729 1.94343E+01
 -1      3730 1.50112E+01
 -1      3731 1.89898E+01
 -1      3732 1.43840E+01
 -1      3733 2.12275E+01
 -1      3734 1.57968E+01
 -1      3735 1.57586E+01
 -1      3736 1.92948E+01
 -1      3737 2.39749E+01
 -1      3738 2.07616E+01
 -1      3739 1.53167E+01
 -1      3740 1.98517E+01
 -1      3741 1.52186E+01
 -1      3742 2.28127E+01
 -1      3743 1.52383E+01
 -1      3744 1.98089E+01
 -1      3745 1.58170E+01
 -1      3746 2.06945E+01
 -1      3747 1.56373E+01
 -1      3748 2.40397E+01
 -1      3749 1.51296E+01
 -1      3750 2.28691E+01
 -1      3751 1.57517E+01
 -1      3752 2.05732E+01
 -1      3753 1.57404E+01
 -1      3754 2.41402E+01
 -1      3755 1.94742E+01
 -1      3756 1.87994E+01
 -1      3757 1.55334E+01
 -1      3758 1.57983E+01
 -1      3759 2.06725E+01
 -1      3760 1.56915E+01
 -1      3761 1.93587E+01
 -1      3762 2.41415E+01
 -1      3763 2.07825E+01
 -1      3764 1.56511E+01
 -1      3765 1.54312E+01
 -1      3766 2.05283E+01
 -1      3767 2.37616E+01
 -1      3768 1.58209E+01
 -1      3769 2.39924E+01
 -1      3770 1.88962E+01
 -1      3771 2.37711E+01
 -1      3772 1.57543E+01
 -1      3773 2.06063E+01
 -1      3774 2.77624E+01
 -1      3775 2.73776E+01
 -1      3776 1.54467E+01
 -1      3777 2.01226E+01
 -1      3778 1.80218E+01
 -1      3779 1.34251E+01
 -1      3780 2.11655E+01
 -1      3781 1.90647E+01
 -1      3782 1.66166E+01
 -1      3783 2.02069E+01
 -1      3784 1.14290E+01
 -1      3785 1.53700E+01
 -1      3786 2.33200E+01
 -1      3787 1.59985E+01
 -1      3788 2.43799E+01
 -1      3789 2.63909E+01
 -1      3790 2.32100E+01
 -1      3791 1.57263E+01
 -1      3792 2.39572E+01
 -1      3793 2.07763E+01
 -1      3794 2.34868E+01
 -1      3795 1.97699E+01
 -1      3796 1.48645E+01
 -1      3797 2.37200E+01
 -1      3798 2.00032E+01
 -1      3799 2.33340E+01
 -1      3800 1.96410E+01
 -1      3801 1.48145E+01
 -1      3802 2.37191E+01
 -1      3803 2.00261E+01
 -1      3804 1.28987E+01
 -1      3805 2.07781E+01
 -1      3806 1.90774E+01
 -1      3807 1.39714E+01
 -1      3808 1.99333E+01
 -1      3809 1.82326E+01
 -1      3810 2.50392E+01
 -1      3811 2.05179E+01
 -1      3812 1.88089E+01
 -1      3813 1.39451E+01
 -1      3814 1.99502E+01
 -1      3815 1.82412E+01
 -1      3816 2.48139E+01
 -1      3817 2.22803E+01
 -1      3818 2.20351E+01
 -1      3819 2.19210E+01
 -1      3820 1.93127E+01
 -1      3821 1.87364E+01
 -1      3822 1.57329E+01
 -1      3823 2.03603E+01
 -1      3824 2.06945E+01
 -1      3825 2.40397E+01
 -1      3826 2.90969E+01
 -1      3827 2.08211E+01
 -1      3828 2.40344E+01
 -1      3829 2.90374E+01
 -1      3830 1.70178E+01
 -1      3831 1.76924E+01
 -1      3832 1.90162E+01
 -1      3833 2.08013E+01
 -1      3834 2.41053E+01
 -1      3835 2.39615E+01
 -1      3836 2.31554E+01
 -1      3837 2.04560E+01
 -1      3838 2.30116E+01
 -1      3839 1.25361E+01
 -1      3840 1.26877E+01
 -1      3841 2.13172E+01
 -1      3842 1.81757E+01
 -1      3843 1.27230E+01
 -1      3844 1.35046E+01
 -1      3845 1.74596E+01
 -1      3846 1.95097E+01
 -1      3847 1.35345E+01
 -1      3848 1.94964E+01
 -1      3849 1.27402E+01
 -1      3850 1.74382E+01
 -1      3851 1.40641E+01
 -1      3852 1.44444E+01
 -1      3853 1.95069E+01
 -1      3854 2.36541E+01
 -1      3855 1.52605E+01
 -1      3856 1.40254E+01
 -1      3857 1.94594E+01
 -1      3858 2.36629E+01
 -1      3859 2.07825E+01
 -1      3860 2.41415E+01
 -1      3861 2.92325E+01
 -1      3862 2.08668E+01
 -1      3863 2.41866E+01
 -1      3864 2.90383E+01
 -1      3865 1.52365E+01
 -1      3866 2.36865E+01
 -1      3867 1.44988E+01
 -1      3868 1.95447E+01
 -1      3869 2.02410E+01
 -1      3870 2.33541E+01
 -1      3871 2.81910E+01
 -1      3872 1.38464E+01
 -1      3873 1.49580E+01
 -1      3874 2.29421E+01
 -1      3875 1.91294E+01
 -1      3876 1.39994E+01
 -1      3877 1.95454E+01
 -1      3878 2.03579E+01
 -1      3879 2.33333E+01
 -1      3880 1.54059E+01
 -1      3881 2.02775E+01
 -1      3882 2.32529E+01
 -1      3883 2.82050E+01
 -1      3884 1.43500E+01
 -1      3885 1.94886E+01
 -1      3886 2.92515E+01
 -1      3887 2.76853E+01
 -1      3888 2.73005E+01
 -1      3889 1.41361E+01
 -1      3890 2.35061E+01
 -1      3891 1.42991E+01
 -1      3892 1.95108E+01
 -1      3893 1.38539E+01
 -1      3894 1.42406E+01
 -1      3895 1.91123E+01
 -1      3896 2.28662E+01
 -1      3897 1.41530E+01
 -1      3898 2.38408E+01
 -1      3899 2.49732E+01
 -1      3900 1.86847E+01
 -1      3901 2.48139E+01
 -1      3902 1.89328E+01
 -1      3903 2.52244E+01
 -1      3904 2.50392E+01
 -1      3905 2.92912E+01
 -1      3906 1.47859E+01
 -1      3907 1.49292E+01
 -1      3908 2.24840E+01
 -1      3909 1.97936E+01
 -1      3910 2.23407E+01
 -1      3911 1.85537E+01
 -1      3912 1.94410E+01
 -1      3913 2.92438E+01
 -1      3914 2.92438E+01
 -1      3915 1.90066E+01
 -1      3916 1.94453E+01
 -1      3917 2.81910E+01
 -1      3918 2.81910E+01
 -1      3919 2.11156E+01
 -1      3920 2.20030E+01
 -1      3921 2.82050E+01
 -1      3922 2.82050E+01
 -1      3923 2.22022E+01
 -1      3924 2.26409E+01
 -1      3925 1.41298E+01
 -1      3926 2.35498E+01
 -1      3927 2.81407E+01
 -1      3928 2.03258E+01
 -1      3929 2.06947E+01
 -1      3930 2.70094E+01
 -1      3931 2.70094E+01
 -1      3932 2.82552E+01
 -1      3933 2.03880E+01
 -1      3934 1.54509E+01
 -1      3935 2.05010E+01
 -1      3936 1.16508E+01
 -1      3937 1.32889E+01
 -1      3938 1.57053E+01
 -1      3939 2.42116E+01
 -1      3940 2.01009E+01
 -1      3941 2.03283E+01
 -1      3942 1.29310E+01
 -1      3943 1.32889E+01
 -1      3944 2.09088E+01
 -1      3945 2.09088E+01
 -1      3946 2.91647E+01
 -1      3947 2.08410E+01
 -1      3948 2.91647E+01
 -1      3949 1.23748E+01
 -1      3950 1.23508E+01
 -1      3951 2.10999E+01
 -1      3952 2.91052E+01
 -1      3953 2.09725E+01
 -1      3954 2.10320E+01
 -1      3955 2.10864E+01
 -1      3956 2.08921E+01
 -1      3957 2.89704E+01
 -1      3958 2.10186E+01
 -1      3959 2.91647E+01
 -1      3960 2.90738E+01
 -1      3961 2.90969E+01
 -1      3962 2.90738E+01
 -1      3963 2.90738E+01
 -1      3964 2.90969E+01
 -1      3965 2.90638E+01
 -1      3966 2.90042E+01
 -1      3967 2.90638E+01
 -1      3968 2.90374E+01
 -1      3969 2.08699E+01
 -1      3970 2.91647E+01
 -1      3971 2.08021E+01
 -1      3972 2.08021E+01
 -1      3973 2.38252E+01
 -1      3974 2.40525E+01
 -1      3975 2.88609E+01
 -1      3976 2.90383E+01
 -1      3977 2.90552E+01
 -1      3978 2.90552E+01
 -1      3979 2.92325E+01
 -1      3980 2.23960E+01
 -1      3981 1.68791E+01
 -1      3982 1.90162E+01
 -1      3983 1.84860E+01
 -1      3984 2.92059E+01
 -1      3985 2.92059E+01
 -1      3986 2.92059E+01
 -1      3987 2.92325E+01
 -1      3988 1.46497E+01
 -1      3989 1.95207E+01
 -1      3990 1.17405E+01
 -1      3991 2.31192E+01
 -1      3992 1.54967E+01
 -1      3993 2.04932E+01
 -1      3994 1.51788E+01
 -1      3995 2.38494E+01
 -1      3996 1.51277E+01
 -1      3997 1.94817E+01
 -1      3998 1.29120E+01
 -1      3999 2.92515E+01
 -1      4000 1.38822E+01
 -1      4001 1.92622E+01
 -1      4002 2.19684E+01
 -1      4003 2.16294E+01
 -1      4004 1.89232E+01
 -1      4005 1.57933E+01
 -1      4006 2.92046E+01
 -1      4007 3.56560E+01
 -1      4008 2.62730E+01
 -1      4009 2.63784E+01
 -1      4010 2.62730E+01
 -1      4011 2.62730E+01
 -1      4012 2.63784E+01
 -1      4013 2.63784E+01
 -1      4014 1.14115E+01
 -1      4015 1.16010E+01
 -1      4016 2.48138E+01
 -1      4017 2.50650E+01
 -1      4018 2.71452E+01
 -1      4019 2.82211E+01
 -1      4020 2.81569E+01
 -1      4021 1.42545E+01
 -1      4022 2.23407E+01
 -1      4023 2.05732E+01
 -1      4024 2.39294E+01
 -1      4025 1.92459E+01
 -1      4026 1.92459E+01
 -1      4027 1.94593E+01
 -1      4028 2.65917E+01
 -1      4029 2.65917E+01
 -1      4030 1.43652E+01
 -1      4031 1.93729E+01
 -1      4032 1.79413E+01
 -1      4033 1.50322E+01
 -1      4034 1.54755E+01
 -1      4035 1.95763E+01
 -1      4036 2.58800E+01
 -1      4037 1.90780E+01
 -1      4038 1.97897E+01
 -1      4039 2.92325E+01
 -1      4040 2.92325E+01
 -1      4041 2.91647E+01
 -1      4042 2.92325E+01
 -1      4043 2.90383E+01
 -1      4044 2.91647E+01
 -1      4045 2.91052E+01
 -1      4046 2.91647E+01
 -1      4047 2.63192E+01
 -1      4048 1.94487E+01
 -1      4049 1.89628E+01
 -1      4050 2.61059E+01
 -1      4051 1.92353E+01
 -1      4052 1.38965E+01
 -1      4053 1.65716E+01
 -1      4054 2.86513E+01
 -1      4055 2.85720E+01
 -1      4056 2.83647E+01
 -1      4057 2.86513E+01
 -1      4058 2.85720E+01
 -1      4059 2.86081E+01
 -1      4060 2.08975E+01
 -1      4061 2.05748E+01
 -1      4062 2.08614E+01
 -1      4063 1.52375E+01
 -1      4064 2.62697E+01
 -1      4065 2.62697E+01
 -1      4066 2.60225E+01
 -1      4067 2.61312E+01
 -1      4068 2.61059E+01
 -1      4069 2.60005E+01
 -1      4070 1.97936E+01
 -1      4071 2.67175E+01
 -1      4072 2.68051E+01
 -1      4073 2.67175E+01
 -1      4074 2.67175E+01
 -1      4075 2.68051E+01
 -1      4076 2.12296E+01
 -1      4077 1.95206E+01
 -1      4078 1.80907E+01
 -1      4079 1.92623E+01
 -1      4080 2.15000E+01
 -1      4081 1.83042E+01
 -1      4082 1.43658E+01
 -1      4083 1.32505E+01
 -1      4084 1.44226E+01
 -1      4085 1.33073E+01
 -1      4086 1.81494E+01
 -1      4087 2.13165E+01
 -1      4088 1.79722E+01
 -1      4089 2.10942E+01
 -1      4090 1.91723E+01
 -1      4091 1.56044E+01
 -1      4092 1.65751E+01
 -1      4093 1.91864E+01
 -1      4094 1.45358E+01
 -1      4095 1.03025E+01
 -1      4096 1.43298E+01
 -1      4097 2.02318E+01
 -1      4098 2.06446E+01
 -1      4099 2.36200E+01
 -1      4100 1.92821E+01
 -1      4101 2.06892E+01
 -1      4102 2.89451E+01
 -1      4103 1.91006E+01
 -1      4104 2.33038E+01
 -1      4105 2.02399E+01
 -1      4106 2.01348E+01
 -1      4107 2.42740E+01
 -1      4108 2.91326E+01
 -1      4109 2.65244E+01
 -1      4110 2.65244E+01
 -1      4111 2.07798E+01
 -1      4112 2.33183E+01
 -1      4113 2.33183E+01
 -1      4114 2.08480E+01
 -1      4115 2.33513E+01
 -1      4116 2.33513E+01
 -1      4117 1.88091E+01
 -1      4118 2.61655E+01
 -1      4119 2.29439E+01
 -1      4120 2.65917E+01
 -1      4121 2.60779E+01
 -1      4122 2.06780E+01
 -1      4123 2.87563E+01
 -1      4124 2.07625E+01
 -1      4125 2.88952E+01
 -1      4126 2.65917E+01
 -1      4127 2.65917E+01
 -1      4128 2.05532E+01
 -1      4129 2.89158E+01
 -1      4130 2.89220E+01
 -1      4131 2.87231E+01
 -1      4132 1.86695E+01
 -1      4133 2.54716E+01
 -1      4134 2.53629E+01
 -1      4135 2.77528E+01
 -1      4136 2.77528E+01
 -1      4137 2.76587E+01
 -1      4138 2.76587E+01
 -1      4139 1.99992E+01
 -1      4140 2.34237E+01
 -1      4141 2.33728E+01
 -1      4142 1.50498E+01
 -1      4143 1.99789E+01
 -1      4144 2.91326E+01
 -1      4145 1.98021E+01
 -1      4146 1.64471E+01
 -1      4147 1.63797E+01
 -1      4148 1.76263E+01
 -1      4149 1.32334E+01
 -1      4150 1.85688E+01
 -1      4151 1.85228E+01
 -1      4152 2.10890E+01
 -1      4153 1.77082E+01
 -1      4154 1.41435E+01
 -1      4155 1.83558E+01
 -1      4156 1.99275E+01
 -1      4157 1.91335E+01
 -1      4158 2.00198E+01
 -1      4159 1.97470E+01
 -1      4160 2.82843E+01
 -1      4161 2.84916E+01
 -1      4162 1.40160E+01
 -1      4163 1.90611E+01
 -1      4164 1.35458E+01
 -1      4165 2.87178E+01
 -1      4166 1.96730E+01
 -1      4167 2.35103E+01
 -1      4168 2.05446E+01
 -1      4169 2.85779E+01
 -1      4170 2.03239E+01
 -1      4171 2.88892E+01
 -1      4172 2.80320E+01
 -1      4173 1.98147E+01
 -1      4174 2.00213E+01
 -1      4175 1.96162E+01
 -1      4176 1.98883E+01
 -1      4177 1.95808E+01
 -1      4178 1.67951E+01
 -1      4179 1.83132E+01
 -1      4180 1.82522E+01
 -1      4181 1.88179E+01
 -1      4182 1.67277E+01
 -1      4183 2.14444E+01
 -1      4184 2.00293E+01
 -1      4185 1.79241E+01
 -1      4186 1.82290E+01
 -1      4187 2.09796E+01
 -1      4188 1.93352E+01
 -1      4189 2.25401E+01
 -1      4190 2.00127E+01
 -1      4191 2.37447E+01
 -1      4192 2.34564E+01
 -1      4193 1.99145E+01
 -1      4194 1.92727E+01
 -1      4195 2.01812E+01
 -1      4196 1.99913E+01
 -1      4197 2.25108E+01
 -1      4198 2.32833E+01
 -1      4199 1.26609E+01
 -1      4200 1.26880E+01
 -1      4201 1.94593E+01
 -1      4202 1.97637E+01
 -1      4203 1.98863E+01
 -1      4204 2.34808E+01
 -1      4205 2.37422E+01
 -1      4206 2.38734E+01
 -1      4207 2.32254E+01
 -1      4208 1.98084E+01
 -1      4209 2.91647E+01
 -1      4210 2.89158E+01
 -1      4211 2.88813E+01
 -1      4212 2.26591E+01
 -1      4213 2.33181E+01
 -1      4214 2.33771E+01
 -1      4215 2.63192E+01
 -1      4216 2.63192E+01
 -1      4217 2.68051E+01
 -1      4218 2.61655E+01
 -1      4219 2.66602E+01
 -1      4220 2.56329E+01
 -1      4221 2.56849E+01
 -1      4222 2.90933E+01
 -1      4223 2.90129E+01
 -1      4224 2.74971E+01
 -1      4225 2.77187E+01
 -1      4226 2.76748E+01
 -1      4227 1.26000E+01
 -1      4228 1.38838E+01
 -1      4229 1.25896E+01
 -1      4230 1.33887E+01
 -1      4231 1.36828E+01
 -1      4232 1.84177E+01
 -1      4233 1.49640E+01
 -1      4234 1.45948E+01
 -1      4235 1.49553E+01
 -1      4236 2.89109E+01
 -1      4237 2.88241E+01
 -1      4238 2.82211E+01
 -1      4239 2.86081E+01
 -1      4240 2.85779E+01
 -1      4241 2.88952E+01
 -1      4242 1.45907E+01
 -1      4243 1.49143E+01
 -1      4244 1.51133E+01
 -1      4245 2.85277E+01
 -1      4246 2.88947E+01
 -1      4247 1.48666E+01
 -1      4248 1.48645E+01
 -1      4249 1.50293E+01
 -1      4250 1.93245E+01
 -1      4251 1.79131E+01
 -1      4252 2.10253E+01
 -1      4253 2.17395E+01
 -1      4254 1.84827E+01
 -1      4255 1.94343E+01
 -1      4256 2.05283E+01
 -1      4257 1.94886E+01
 -1      4258 2.37616E+01
 -1      4259 1.43750E+01
 -1      4260 1.43750E+01
 -1      4261 1.90026E+01
 -1      4262 2.29564E+01
 -1      4263 1.71123E+01
 -1      4264 1.86780E+01
 -1      4265 1.77804E+01
 -1      4266 1.56497E+01
 -1      4267 1.86780E+01
 -1      4268 1.47589E+01
 -1      4269 1.15492E+01
 -1      4270 2.33225E+01
 -1      4271 2.21014E+01
 -1      4272 2.92912E+01
 -1      4273 2.11273E+01
 -1      4274 1.87892E+01
 -1      4275 2.92484E+01
 -1      4276 1.59898E+01
 -1      4277 2.26377E+01
 -1      4278 1.81879E+01
 -1      4279 1.69916E+01
 -1      4280 1.28768E+01
 -1      4281 1.09963E+01
 -1      4282 2.77624E+01
 -1      4283 2.38540E+01
 -1      4284 2.41568E+01
 -1      4285 2.71984E+01
 -1      4286 2.90073E+01
 -1      4287 2.31643E+01
 -1      4288 1.76628E+01
 -1      4289 1.82841E+01
 -1      4290 1.71931E+01
 -1      4291 1.10845E+01
 -1      4292 1.45334E+01
 -1      4293 2.10884E+01
 -1      4294 2.20369E+01
 -1      4295 2.29564E+01
 -1      4296 1.17079E+01
 -1      4297 1.46704E+01
 -1      4298 2.11491E+01
 -1      4299 2.25997E+01
 -1      4300 1.78588E+01
 -1      4301 2.34258E+01
 -1      4302 1.69786E+01
 -1      4303 1.85627E+01
 -1      4304 1.14115E+01
 -1      4305 1.19592E+01
 -1      4306 2.26061E+01
 -1      4307 1.55250E+01
 -1      4308 1.81879E+01
 -1      4309 1.10897E+01
 -1      4310 1.45250E+01
 -1      4311 2.20088E+01
 -1      4312 2.29556E+01
 -1      4313 2.10890E+01
 -1      4314 1.85228E+01
 -1      4315 1.16536E+01
 -1      4316 1.18276E+01
 -1      4317 2.35434E+01
 -1      4318 2.38341E+01
 -1      4319 2.45031E+01
 -1      4320 2.26377E+01
 -1      4321 2.17829E+01
 -1      4322 2.16789E+01
 -1      4323 1.26022E+01
 -1      4324 2.42553E+01
 -1      4325 1.22508E+01
 -1      4326 2.28030E+01
 -1      4327 1.16775E+01
 -1      4328 2.17003E+01
 -1      4329 1.26243E+01
 -1      4330 1.68323E+01
 -1      4331 1.91563E+01
 -1      4332 1.76381E+01
 -1      4333 1.91802E+01
 -1      4334 1.76557E+01
 -1      4335 1.68550E+01
 -1      4336 2.16193E+01
 -1      4337 1.88686E+01
 -1      4338 1.84289E+01
 -1      4339 1.81722E+01
 -1      4340 1.89639E+01
 -1      4341 2.15904E+01
 -1      4342 2.38965E+01
 -1      4343 1.96152E+01
 -1      4344 2.01644E+01
 -1      4345 1.90263E+01
 -1      4346 1.98075E+01
 -1      4347 2.30123E+01
 -1      4348 1.94853E+01
 -1      4349 2.02551E+01
 -1      4350 2.37971E+01
 -1      4351 2.29767E+01
 -1      4352 1.89705E+01
 -1      4353 1.97386E+01
 -1      4354 2.40589E+01
 -1      4355 1.96568E+01
 -1      4356 2.02030E+01
 -1      4357 2.21481E+01
 -1      4358 1.61768E+01
 -1      4359 2.38182E+01
 -1      4360 1.95652E+01
 -1      4361 2.03286E+01
 -1      4362 2.36361E+01
 -1      4363 2.01612E+01
 -1      4364 1.93871E+01
 -1      4365 1.42695E+01
 -1      4366 2.03725E+01
 -1      4367 2.40646E+01
 -1      4368 1.96293E+01
 -1      4369 1.87750E+01
 -1      4370 1.62434E+01
 -1      4371 1.87286E+01
 -1      4372 1.98710E+01
 -1      4373 1.13149E+01
 -1      4374 1.10858E+01
 -1      4375 2.19776E+01
 -1      4376 1.37622E+01
 -1      4377 2.10622E+01
 -1      4378 1.61990E+01
 -1      4379 2.21110E+01
 -1      4380 1.93550E+01
 -1      4381 2.35924E+01
 -1      4382 2.01307E+01
 -1      4383 1.14167E+01
 -1      4384 1.10297E+01
 -1      4385 1.99433E+01
 -1      4386 1.47104E+01
 -1      4387 1.25364E+01
 -1      4388 1.88309E+01
 -1      4389 2.09361E+01
 -1      4390 1.78964E+01
 -1      4391 2.10571E+01
 -1      4392 1.35627E+01
 -1      4393 2.50100E+01
 -1      4394 2.26463E+01
 -1      4395 1.43750E+01
 -1      4396 1.07076E+01
 -1      4397 1.16010E+01
 -1      4398 1.28768E+01
 -1      4399 1.09963E+01
 -1      4400 1.29332E+01
 -1      4401 1.09963E+01
 -1      4402 9.49818E+00
 -1      4403 1.70837E+01
 -1      4404 0.00000E+00
 -1      4405 0.00000E+00
 -3
 9999
